BEGIN IONS
PEPMASS=388.178
CHARGE=1+
COMPOUNDNAME=Roquefortine C
LIBRARYQUALITY=3
SMILES=N/A
INCHIKEY=SPWSUFUPTSJWNG-LIMLNZRCSA-N
INCHI=InChI=1S/C22H23N5O2/c1-4-21(2,3)22-10-17-18(28)25-16(9-13-11-23-12-24-13)19(29)27(17)20(22)26-15-8-6-5-7-14(15)22/h4-9,11-12,17,20,26H,1,10H2,2-3H3,(H,23,24)(H,25,28)/b16-9-/t17-,20-,22+/m0/s1
MSLEVEL=2
SOURCE_INSTRUMENT=N/A-ESI-QFT
FILENAME=library_mgf.mgf
SEQ=*..*
IONMODE=negative
ORGANISM=MONA
NAME=Roquefortine C [M-H]-
PI=MoNA
DATACOLLECTOR=MoNA:VF-NPL-QEHF016404
PUBMED=N/A
SUBMITUSER=mwang87
TAGS=
SPECTRUMID=CCMSLIB00004707467
SCANS=16404
50.591724 0.048735 
50.607361 0.094153 
50.843155 0.092675 
51.106125 0.053648 
51.615997 0.095461 
52.189144 0.114267 
52.857098 0.092773 
52.94685 0.072057 
52.980099 0.073009 
53.115776 0.078766 
53.616425 0.052116 
53.9972 0.080752 
54.016628 0.079236 
55.106243 0.097072 
55.321957 0.053967 
55.331142 0.087498 
55.704659 0.075213 
57.025211 0.089743 
57.261227 0.059154 
57.508732 0.094775 
57.668938 0.085281 
57.880722 0.065308 
58.023682 0.096894 
58.133945 0.074959 
58.507294 0.101171 
59.012356 0.18758 
59.477226 0.052784 
59.695049 0.092245 
60.125557 0.08164 
60.542698 0.05571 
60.615654 0.113872 
60.771221 0.046616 
60.826309 0.095932 
61.145222 0.091592 
61.34008 0.069024 
62.66069 0.053559 
62.80275 0.087483 
62.875889 0.079268 
62.96838 0.054359 
63.137421 0.088819 
63.177021 0.087361 
63.369644 0.086595 
63.46204 0.095623 
64.290504 0.080977 
65.029213 0.079398 
65.524521 0.057899 
65.698792 0.076877 
66.194534 0.089865 
66.688995 0.094108 
66.824966 0.09204 
67.028755 2.222267 
67.154343 0.087113 
67.659447 0.081152 
67.904633 0.102018 
68.066437 0.058683 
68.300369 0.102417 
68.41835 0.095119 
69.686951 0.100164 
70.861275 0.088503 
71.019707 0.060321 
71.546761 0.090538 
71.626984 0.082077 
71.756668 0.115327 
71.911377 0.08043 
72.533173 0.089176 
72.827812 0.088674 
73.56443 0.067217 
73.842323 0.061791 
74.866371 0.092999 
74.923859 0.10441 
76.703178 0.058854 
76.828842 0.109916 
77.241043 0.083383 
77.625565 0.096339 
78.739716 0.084842 
78.984596 0.062523 
79.334129 0.077933 
79.778076 0.097545 
79.955994 0.189029 
80.220184 0.087404 
80.260452 0.087858 
80.452538 0.063363 
81.99205 5.249712 
82.739922 0.082383 
83.763985 0.050241 
83.767975 0.082447 
84.007835 0.105132 
84.563538 0.075545 
85.093468 0.083173 
85.667137 0.071217 
86.085999 0.057584 
86.665192 0.095471 
87.043427 0.067907 
87.252907 0.056035 
88.478745 0.052963 
89.537781 0.081089 
90.078598 0.093032 
91.028816 6.447222 
91.491821 0.048632 
91.523186 0.092858 
91.630943 0.061705 
92.036636 0.335546 
93.363174 0.090956 
93.644981 0.108137 
94.979462 0.244132 
95.023682 9.953801 
96.131531 0.084486 
96.445374 0.089891 
97.00296 7.582928 
97.016632 0.060863 
99.224205 0.099657 
99.438492 0.093862 
100.06292 0.096937 
101.322838 0.101319 
101.340889 0.091927 
102.309067 0.101358 
104.023872 0.172934 
104.183289 0.099688 
104.248711 0.095676 
104.261246 0.051088 
105.031929 24.786585 
106.002075 0.088441 
106.035667 0.311924 
106.039726 12.800899 
106.105965 0.10199 
107.023796 0.21772 
107.043434 0.164647 
107.047546 35.637848 
107.233391 0.071229 
108.031624 0.073206 
108.050835 0.51258 
108.054901 0.331288 
109.002937 0.239495 
110.01091 0.86326 
110.282013 0.112724 
110.513298 0.185099 
111.018639 5.054461 
111.529007 0.047027 
112.021942 0.092032 
113.044121 0.084988 
114.586411 0.084089 
114.735443 0.084393 
115.358803 0.054356 
115.677811 0.099578 
116.340225 0.096161 
116.716682 0.118955 
118.039719 14.121304 
119.023788 2.895095 
119.047508 0.938726 
119.495979 0.057612 
120.031563 7.404115 
120.055763 0.13431 
120.81337 0.084776 
120.95797 0.104614 
123.018684 100.0 
123.044243 0.065156 
124.016228 0.091616 
124.021996 3.478029 
126.117004 0.079866 
126.782776 0.060864 
127.249809 0.065907 
127.868019 0.060437 
128.392929 0.119324 
133.497559 0.056673 
134.034714 22.461573 
135.037537 0.074652 
135.042587 0.832011 
136.652512 0.097171 
136.931 0.057096 
139.227966 0.061214 
139.533081 0.102588 
140.048737 0.056212 
140.416519 0.050311 
142.989166 0.069272 
145.050797 2.390088 
145.563339 0.129502 
146.03479 2.141956 
147.042618 8.99154 
150.175568 0.093101 
151.07312 0.104534 
153.729019 0.099665 
155.06076 0.103823 
155.619995 0.055129 
156.068115 1.98122 
157.075882 0.391552 
158.140839 0.101799 
159.167969 0.089511 
159.271576 0.058799 
161.045807 15.205784 
161.474869 0.064424 
162.030273 0.344978 
166.863235 0.079502 
167.060211 0.167167 
169.088821 0.097924 
169.131866 0.092445 
174.029846 13.393981 
175.033478 0.264689 
175.061646 0.094831 
175.231934 0.090017 
177.040756 1.545954 
181.257446 0.101574 
183.055466 6.977427 
184.059326 0.052912 
184.112518 0.072747 
189.040909 40.321007 
190.048752 88.481804 
190.098907 0.096382 
190.155029 0.098869 
190.595154 0.102009 
191.052826 6.973648 
193.059708 0.102838 
195.396851 0.065864 
196.394043 0.096752 
197.818054 0.11138 
198.052582 0.083982 
199.460907 0.051887 
199.699631 0.101996 
201.041183 0.067325 
202.1008 0.076565 
203.056717 0.850037 
206.028336 0.053017 
213.56221 0.07095 
215.942581 0.062283 
219.620773 0.104516 
219.638184 0.816947 
219.651398 0.134473 
219.661316 0.082482 
221.720901 0.105926 
221.759857 0.080729 
223.493378 0.101385 
224.682602 0.090988 
224.795364 0.080918 
225.299042 0.112203 
227.298706 0.109221 
229.610718 0.062859 
231.065735 0.093837 
232.08699 0.056756 
247.098312 1.25453 
247.267181 0.086209 
248.552017 0.07947 
249.606628 0.066046 
252.939133 0.081496 
257.564911 0.081606 
257.820007 0.09365 
261.315033 0.113165 
263.56134 0.100961 
266.671906 0.105018 
267.357819 0.10568 
268.461853 0.053861 
272.780823 0.083997 
275.09494 0.122005 
276.016541 0.096398 
283.230164 0.110545 
283.499542 0.063339 
285.436554 0.08306 
288.11145 0.08438 
288.985321 0.083464 
295.536896 0.070163 
299.535797 0.062062 
309.649597 0.072054 
313.812164 0.048966 
313.942352 0.101064 
317.512726 0.096078 
318.099487 4.335484 
319.103516 0.191386 
324.790955 0.049193 
337.21228 0.068543 
341.00473 0.109571 
358.951935 0.089769 
367.659485 0.06554 
372.481964 0.082903 
376.29718 0.084698 
380.669922 0.110697 
382.666992 0.05772 
385.249725 0.099742 
388.385895 0.06583 
392.898254 0.086051 
402.018799 0.099697 
END IONS

