BEGIN IONS
PEPMASS=443.219
CHARGE=1+
COMPOUNDNAME=Lovastatin
LIBRARYQUALITY=3
SMILES=N/A
INCHIKEY=PCZOHLXUXFIOCF-BXMDZJJMSA-N
INCHI=InChI=1S/C24H36O5/c1-5-15(3)24(27)29-21-11-14(2)10-17-7-6-16(4)20(23(17)21)9-8-19-12-18(25)13-22(26)28-19/h6-7,10,14-16,18-21,23,25H,5,8-9,11-13H2,1-4H3/t14-,15-,16-,18+,19+,20-,21-,23-/m0/s1
MSLEVEL=2
SOURCE_INSTRUMENT=N/A-ESI-QFT
FILENAME=library_mgf.mgf
SEQ=*..*
IONMODE=positive
ORGANISM=MONA
NAME=Lovastatin [M+K]+
PI=MoNA
DATACOLLECTOR=MoNA:VF-NPL-QEHF002554
PUBMED=N/A
SUBMITUSER=mwang87
TAGS=
SPECTRUMID=CCMSLIB00004693617
SCANS=2554
50.201466 0.043148 
50.2743 0.040414 
50.296658 0.020419 
50.51017 0.041536 
50.512383 0.059195 
50.659878 0.028473 
51.144714 0.044967 
51.632408 0.056472 
51.662724 0.013259 
51.675518 0.014956 
51.814095 0.071599 
51.945766 0.003162 
52.386593 0.057884 
52.774029 0.003448 
53.336388 0.07594 
53.619404 0.034522 
54.091373 0.018041 
54.234348 0.064835 
54.394493 0.035727 
54.596508 0.002866 
54.70253 0.015063 
54.998276 0.043113 
55.054958 0.004707 
55.336403 0.002697 
55.672894 0.01716 
55.810707 0.006326 
56.074093 0.065928 
56.080128 0.021471 
56.353477 0.077338 
56.426628 0.001984 
56.472916 0.055156 
56.641338 0.002664 
56.965542 1.332945 
57.070606 2.96366 
57.227779 0.014407 
57.455547 0.074797 
57.588493 0.002683 
57.752659 0.03131 
58.065849 0.04748 
58.348446 0.059774 
58.444805 0.066245 
58.853802 0.006375 
59.049858 0.282413 
59.061096 100.0 
59.286533 0.030639 
59.359844 0.002991 
59.660854 0.07247 
59.738297 0.071831 
59.932175 0.071172 
60.04512 0.069992 
60.071877 0.017838 
60.142723 0.080143 
60.794537 0.079756 
60.813087 0.036344 
60.814407 0.066787 
61.011322 0.062731 
61.275875 0.03861 
61.735477 0.064485 
61.769531 0.062826 
62.060841 0.0029 
62.422607 0.016449 
62.572052 0.006047 
63.052773 0.013911 
64.303963 0.041293 
64.608566 0.071356 
64.846672 0.005373 
65.257072 0.029791 
67.786942 0.067804 
67.913857 0.014832 
68.116798 0.002843 
68.269798 0.036907 
69.07058 0.025318 
69.297409 0.06924 
69.509995 0.068745 
70.736382 0.016689 
71.086227 0.027089 
71.116142 0.029075 
71.357346 0.003332 
72.250999 0.019922 
73.029037 0.00355 
73.047432 4.392382 
73.504974 0.063807 
73.692924 0.014709 
74.240929 0.006528 
74.284401 0.037062 
74.726006 0.005597 
76.517662 0.003322 
77.364044 0.003357 
77.37413 0.002647 
77.450203 0.002831 
77.5326 0.002732 
78.358749 0.027292 
78.716385 0.027702 
78.8778 0.055739 
79.021751 0.105228 
79.054932 0.00638 
79.169441 0.034349 
79.585197 0.017723 
79.715424 0.002819 
80.062256 0.002677 
80.633804 0.0628 
81.070412 0.252624 
81.895554 0.02914 
82.003555 0.065328 
82.204895 0.038674 
82.457642 0.075053 
83.086006 0.026681 
83.140144 0.017387 
83.257217 0.006255 
84.782272 0.036115 
84.86824 0.002073 
86.273621 0.002853 
87.044601 0.092326 
87.140274 0.06398 
88.146767 0.07676 
88.337837 0.014247 
89.060165 4.54538 
89.063171 0.012941 
89.261772 0.082316 
89.369827 0.034716 
89.845276 0.036354 
90.555443 0.00248 
91.054916 0.385707 
91.057831 8.757179 
91.931343 0.002038 
92.078102 0.01403 
93.037109 0.010891 
93.070198 0.123588 
93.346748 0.018694 
95.085915 0.05162 
95.09539 0.067218 
95.251495 0.002508 
97.101807 0.012765 
97.490646 0.002752 
97.591408 0.061243 
97.610886 0.060149 
98.636436 0.014237 
98.975395 0.031231 
99.443451 0.078309 
99.677498 0.003535 
100.724998 0.064937 
101.053062 0.048482 
101.060104 0.010598 
103.038948 0.003104 
105.069916 0.067744 
105.073593 0.014429 
105.123756 0.021427 
107.085609 0.129931 
107.985725 0.064236 
109.101486 0.016523 
110.043365 0.002515 
110.983978 0.014972 
111.005516 0.756507 
114.460136 0.049305 
115.522346 0.007542 
117.069878 1.352463 
117.102402 0.019296 
117.287796 0.002714 
117.72551 0.006856 
119.05191 0.043313 
119.085701 0.034107 
119.345322 0.021153 
120.232338 0.057103 
120.926773 0.085333 
121.064903 2.679886 
121.100555 0.00284 
121.917648 0.017321 
122.436653 0.006378 
123.367416 0.002982 
124.087814 0.002964 
125.098709 0.071619 
126.093613 0.035453 
129.188004 0.003614 
131.085327 1.322286 
133.064926 0.011513 
133.085876 1.741688 
133.188995 0.017136 
135.986465 0.002424 
136.376083 0.016228 
136.382019 0.014353 
137.391586 0.018958 
137.654877 0.071534 
138.662491 0.023292 
139.036392 2.057092 
140.003387 0.043805 
140.039841 0.064601 
141.022018 0.202364 
141.052002 2.258905 
142.127045 0.014458 
143.085175 0.054068 
143.821671 0.03952 
145.101013 0.486521 
147.080429 0.133087 
147.116882 0.006093 
147.302597 0.04943 
148.561356 0.077533 
149.044617 1.283115 
149.215683 0.048793 
149.822769 0.057902 
150.592789 0.070446 
153.142151 0.003496 
156.257751 0.007041 
156.735016 0.051358 
156.867325 0.003031 
157.04509 0.002159 
157.101135 0.70376 
157.666046 0.072492 
158.466324 0.00226 
159.026108 0.035469 
159.032669 3.236773 
159.116623 0.952484 
159.857956 0.002823 
160.087387 0.059083 
160.862183 0.021397 
160.970749 0.080864 
161.09639 0.003372 
163.810623 0.042836 
165.052521 0.020725 
165.090927 1.812569 
165.682953 0.006434 
166.094681 0.002957 
167.055344 4.333663 
168.256195 0.024205 
168.926804 0.002905 
169.100876 0.067469 
171.116592 0.069168 
173.049332 0.003593 
173.096573 0.003797 
173.132355 8.271688 
174.135376 0.66279 
175.11087 0.181064 
175.935196 0.040122 
176.267563 0.035718 
176.967056 0.432003 
177.043274 13.990918 
177.051224 0.124518 
177.112381 0.014545 
178.046326 0.209438 
179.219177 0.063951 
181.070969 0.003926 
183.117081 0.03724 
183.640182 0.01694 
184.578445 0.032636 
185.132935 0.003719 
186.153976 0.023365 
190.966141 0.004398 
191.058411 0.300802 
191.10704 0.003026 
191.133041 0.04479 
192.961166 1.109926 
193.454758 0.041666 
195.05394 3.995265 
195.117767 0.008616 
195.46521 0.002898 
197.133087 0.013838 
197.501541 0.086014 
199.147629 1.222562 
199.305313 0.0632 
199.468445 0.002663 
200.150955 0.046751 
200.908585 0.023087 
201.164154 0.002759 
201.710922 0.060843 
202.09462 0.016786 
206.767212 0.071958 
206.977112 0.859173 
207.099838 0.090612 
207.473572 0.061225 
209.117386 0.152884 
209.957611 0.017221 
210.971664 0.368945 
212.246048 0.041168 
212.553757 0.043179 
213.641495 0.862421 
213.652664 1.786619 
213.661209 0.735756 
213.669006 0.261748 
221.232849 0.042701 
223.064255 0.003995 
223.132034 0.041867 
223.876373 0.015499 
224.214066 0.062106 
224.933716 0.072818 
225.042526 1.485605 
227.022614 0.004978 
227.369797 0.04086 
227.381424 0.003286 
229.123917 0.002727 
229.848694 0.002778 
229.895508 0.249078 
231.24968 0.050466 
231.718521 0.017995 
233.189499 0.479705 
234.93779 0.058434 
236.337265 0.040068 
238.967804 0.004036 
239.142776 0.06501 
240.148041 0.004654 
241.568832 0.075553 
244.434753 0.06684 
247.755173 0.050253 
247.817886 0.052997 
248.935822 0.022291 
250.828033 0.083856 
251.494125 0.054204 
253.947388 0.003336 
255.377686 0.0694 
257.948517 0.060201 
258.169739 0.077146 
258.899597 0.057067 
260.052246 0.028306 
262.253174 0.062303 
262.892578 0.068906 
264.908234 1.239643 
265.937622 0.110388 
267.97406 0.062931 
268.560272 0.003537 
268.613708 0.078493 
270.111847 0.067327 
270.898468 0.410351 
271.083771 0.002647 
271.901306 0.01233 
273.115326 0.706133 
274.078217 0.04409 
274.563263 0.003027 
275.484375 0.032726 
276.909912 0.056271 
277.216248 0.274648 
278.798737 0.041967 
279.708374 0.017667 
280.923218 0.027595 
281.120789 7.011851 
281.81723 0.006336 
282.123352 0.573353 
282.918427 0.55237 
284.265045 0.003749 
284.913879 0.280338 
285.108063 0.06468 
286.866364 0.037052 
286.91272 0.406509 
288.234772 0.003325 
288.474396 0.042602 
288.908691 4.295309 
291.125946 0.177238 
292.531586 0.047943 
295.131287 0.207189 
296.334717 0.10168 
297.096069 0.003163 
297.11499 0.828815 
297.152771 0.195962 
298.443604 0.003017 
299.1315 45.290947 
299.158722 0.202171 
300.134705 7.946155 
301.137787 0.003732 
302.926636 0.018228 
304.164917 0.006587 
304.924377 2.737116 
305.922363 1.909143 
306.919342 16.677168 
309.201935 0.12607 
309.2789 0.429041 
310.154907 0.004372 
310.283936 0.004662 
311.157257 0.048461 
311.183472 0.017733 
311.29422 0.808329 
312.297089 0.019084 
313.111725 0.00301 
313.146301 1.616128 
314.148773 0.037841 
315.127808 0.007844 
315.162018 0.204414 
315.181763 0.022877 
317.141998 11.484805 
318.144745 1.68809 
318.9216 0.004406 
320.933502 0.416714 
322.93335 0.341984 
322.951813 0.015616 
323.12912 0.085237 
323.161316 10.16916 
323.931885 0.060449 
324.135437 0.055724 
324.164612 1.918157 
324.327637 0.01322 
324.929993 2.528405 
324.985962 0.450778 
325.147156 0.024213 
325.17688 46.918823 
325.273834 0.003629 
325.310638 0.007626 
326.180267 21.686111 
327.08493 0.003135 
327.182922 2.107001 
331.155731 0.162769 
338.18454 0.065907 
339.134674 0.004613 
339.155518 2.490765 
339.213715 0.022582 
340.159668 1.871028 
340.323425 0.004522 
341.018494 0.028315 
341.142487 3.136497 
341.171692 23.501612 
341.22818 2.608969 
341.325653 0.019554 
342.144501 0.789844 
342.175171 4.271154 
342.234009 0.084577 
342.995483 1.284265 
343.151215 3.13276 
343.186768 2.364367 
346.395752 0.076079 
351.744324 0.003597 
352.394958 0.094069 
357.172791 2.052963 
357.321075 0.017477 
358.174835 0.063145 
359.027588 5.436742 
359.151917 2.032485 
360.157837 0.01207 
361.16864 0.003575 
368.939209 0.0522 
374.915222 0.00312 
375.182495 0.057663 
377.161072 0.024366 
379.914795 0.054154 
382.952026 0.046392 
383.18689 0.225192 
391.864197 0.003355 
399.217072 0.091413 
404.855377 0.071717 
408.034241 0.058521 
413.16095 1.148698 
415.200806 0.585658 
416.204865 0.032717 
419.292603 0.018829 
424.45163 0.045392 
425.198242 0.614556 
427.244354 0.023073 
428.184387 0.016373 
429.190948 0.028576 
441.223999 3.906851 
441.354279 0.078675 
442.22821 5.808562 
442.357666 0.016588 
443.215393 57.137707 
443.243011 12.19146 
443.289612 0.368082 
443.332428 9.16118 
444.218658 14.53479 
444.245483 3.20836 
444.297424 0.048585 
444.336731 2.077564 
444.456238 0.379502 
445.217621 5.396858 
445.250092 0.99485 
445.311951 0.28221 
446.301178 0.037627 
447.347198 0.102116 
447.611908 0.024968 
449.423889 0.003121 
451.335785 0.019843 
461.232117 0.081623 
END IONS

