BEGIN IONS
PEPMASS=414.155
CHARGE=1+
COMPOUNDNAME=Massbank: Noscapine
LIBRARYQUALITY=3
SMILES=[H]C([H])([H])Oc(c([H])5)c(OC([H])([H])[H])c(C(=O)4)c(c([H])5)C([H])(O4)C([H])(N(C([H])([H])[H])1)c(c(OC([H])([H])[H])2)c(c([H])c(O3)c(OC([H])([H])3)2)C([H])([H])C([H])([H])1
INCHIKEY=AKNNEGZIBPJZJG-UHFFFAOYSA-N
INCHI=1S/C22H23NO7/c1-23-8-7-11-9-14-20(29-10-28-14)21(27-4)15(11)17(23)18-12-5-6-13(25-2)19(26-3)16(12)22(24)30-18/h5-6,9,17-18H,7-8,10H2,1-4H3
MSLEVEL=2
SOURCE_INSTRUMENT=ESI-LC-ESI-QTOF
FILENAME=Massbank_ESI_positive_8_1_2014_peaks.mgf
SEQ=*..*
IONMODE=Positive
ORGANISM=MASSBANK
NAME=Massbank: Noscapine [M+H]+
PI=Putative Massbank Match
DATACOLLECTOR=Massbank
PUBMED=N/A
SUBMITUSER=mwang87
TAGS=
SPECTRUMID=CCMSLIB00000206279
SCANS=1538
179.0704 772.854 
189.0544 106.81 
205.0728 602.146 
206.0808 764.925 
218.0798 179.151 
219.0891 257.603 
220.096 10000.0 
248.0893 142.118 
263.069 140.019 
264.0766 131.996 
265.0758 128.265 
267.0981 100.0 
276.0766 104.571 
277.0819 160.821 
279.0785 161.381 
280.0726 330.271 
291.0648 159.562 
292.0716 243.61 
293.0782 172.901 
294.0859 111.567 
295.0938 666.978 
304.0718 126.399 
305.0768 285.774 
306.0571 305.41 
307.0739 530.317 
308.076 287.733 
309.0776 187.547 
310.0828 277.285 
319.0619 164.319 
320.0758 208.955 
321.0769 259.888 
322.0828 674.44 
323.0897 1952.425 
324.0966 334.282 
325.106 750.466 
332.0685 156.903 
334.0809 692.631 
335.0784 499.534 
336.0868 254.991 
337.0882 263.479 
338.0793 669.776 
350.0795 1059.235 
351.0846 116.231 
352.0988 461.8 
353.1012 3850.746 
355.1179 109.002 
362.0706 132.043 
363.0921 115.625 
364.0839 286.987 
365.1028 654.384 
366.0955 457.696 
368.1129 587.22 
378.1091 219.496 
381.1169 389.319 
396.1103 729.478 
414.1531 193.843 
END IONS

