BEGIN IONS
PEPMASS=528.0
CHARGE=1+
COMPOUNDNAME=Massbank:KO002762 Daunorubicin|Daunomycin
LIBRARYQUALITY=3
SMILES=Oc(c34)c(c1c(O)c3c(c(c(OC)5)c(ccc5)c4=O)=O)C[C@](C(C)=O)(C[C@@H]1OC(C2)O[C@@H](C)[C@@H](O)[C@@H](N)2)O
INCHIKEY=STQGQHZAVUOBTE-ZFRRIORRSA-N
INCHI=1S/C27H29NO10/c1-10-22(30)14(28)7-17(37-10)38-16-9-27(35,11(2)29)8-13-19(16)26(34)21-20(24(13)32)23(31)12-5-4-6-15(36-3)18(12)25(21)33/h4-6,10,14,16-17,22,30,32,34-35H,7-9,28H2,1-3H3
MSLEVEL=2
SOURCE_INSTRUMENT=ESI-LC-ESI-QQ
FILENAME=Massbank_ESI_positive_8_1_2014_peaks.mgf
SEQ=*..*
IONMODE=Positive
ORGANISM=MASSBANK
NAME=Massbank:KO002762 Daunorubicin|Daunomycin [M+H]+
PI=Putative Massbank Match
DATACOLLECTOR=Massbank
PUBMED=N/A
SUBMITUSER=mwang87
TAGS=
SPECTRUMID=CCMSLIB00000218024
SCANS=8564
86.2 24752.5 
130.0 153465.5 
189.3 108911.0 
241.5 128713.0 
244.0 39604.0 
259.9 24752.5 
294.4 366337.0 
296.4 14851.5 
321.5 811882.0 
363.5 559406.5 
381.5 148515.0 
528.2 29703.0 
END IONS

