BEGIN IONS
PEPMASS=472.0
CHARGE=1+
COMPOUNDNAME=Massbank:KO003831 Puromycin
LIBRARYQUALITY=3
SMILES=COc(c4)ccc(c4)CC(N)C(=O)NC(C(CO)3)C(O)C(O3)n(c2)c(n1)c(n2)c(N(C)C)nc1
INCHIKEY=RXWNCPJZOCPEPQ-UHFFFAOYSA-N
INCHI=1S/C22H29N7O5/c1-28(2)19-17-20(25-10-24-19)29(11-26-17)22-18(31)16(15(9-30)34-22)27-21(32)14(23)8-12-4-6-13(33-3)7-5-12/h4-7,10-11,14-16,18,22,30-31H,8-9,23H2,1-3H3,(H,27,32)/t14-,15+,16+,18+,22+/m0/s1
MSLEVEL=2
SOURCE_INSTRUMENT=ESI-LC-ESI-QQ
FILENAME=Massbank_ESI_positive_8_1_2014_peaks.mgf
SEQ=*..*
IONMODE=Positive
ORGANISM=MASSBANK
NAME=Massbank:KO003831 Puromycin [M+H]+
PI=Putative Massbank Match
DATACOLLECTOR=Massbank
PUBMED=N/A
SUBMITUSER=mwang87
TAGS=
SPECTRUMID=CCMSLIB00000220188
SCANS=9628
46.1 59406.0 
69.0 539604.5 
71.2 99010.0 
72.0 252475.5 
73.2 29703.0 
82.0 74257.5 
84.1 1074258.5 
85.2 128713.0 
86.1 198020.0 
87.9 64356.5 
90.0 341584.5 
91.1 54455.5 
93.1 34653.5 
96.0 613862.0 
97.0 3648518.5 
97.9 39604.0 
99.3 54455.5 
99.9 470297.5 
102.0 321782.5 
102.4 69307.0 
105.0 94059.5 
107.7 24752.5 
108.9 19802.0 
111.0 19802.0 
112.1 222772.5 
114.4 1440595.5 
115.1 500000.5 
117.6 128713.0 
118.2 3094062.5 
119.0 74257.5 
121.3 3831687.0 
123.5 277228.0 
124.1 1811883.0 
129.0 198020.0 
130.2 59406.0 
132.1 975248.5 
135.0 975248.5 
135.8 64356.5 
137.1 84158.5 
142.1 4425747.0 
144.0 128713.0 
146.7 19802.0 
148.1 59406.0 
149.1 133663.5 
150.3 200158616.0 
156.4 54455.5 
159.4 193069.5 
160.2 31574289.0 
161.1 1232674.5 
162.0 103960.5 
163.1 138614.0 
164.3 82534736.0 
166.4 138614.0 
173.3 39604.0 
174.1 207921.0 
175.0 143564.5 
176.2 193069.5 
177.4 143564.5 
178.4 925743.5 
179.2 188119.0 
183.9 29703.0 
186.1 118812.0 
187.4 39604.0 
188.1 346535.0 
189.1 366337.0 
190.1 188119.0 
190.9 49505.0 
192.3 1252476.5 
195.1 311881.5 
195.7 89109.0 
198.4 69307.0 
199.2 94059.5 
200.3 94059.5 
201.2 123762.5 
202.4 881189.0 
204.2 316832.0 
206.3 301980.5 
214.2 108911.0 
214.5 39604.0 
216.4 222772.5 
217.6 39604.0 
220.6 282178.5 
221.4 39604.0 
222.3 336634.0 
228.4 143564.5 
229.0 79208.0 
230.3 376238.0 
231.1 59406.0 
232.4 2143566.5 
233.6 396040.0 
234.6 79208.0 
237.5 54455.5 
238.1 29703.0 
244.2 89109.0 
245.3 39604.0 
246.5 683169.0 
249.3 29703.0 
250.6 326733.0 
256.4 103960.5 
260.4 178218.0 
261.2 79208.0 
262.3 376238.0 
263.5 207921.0 
264.3 1569308.5 
273.3 39604.0 
274.7 608911.5 
280.2 59406.0 
281.5 262376.5 
291.6 1044555.5 
292.5 6886145.5 
295.5 64356.5 
305.6 99010.0 
308.8 113861.5 
309.5 27123789.5 
323.7 9901.0 
454.8 138614.0 
END IONS

