BEGIN IONS
PEPMASS=395.05
CHARGE=1+
COMPOUNDNAME=bisdethiobis(methylthio)gliotoxin
LIBRARYQUALITY=3
SMILES=N/A
INCHIKEY=OVBAGMZLGLXSBN-UOVKNHIHSA-N
INCHI=InChI=1S/C15H20N2O4S2/c1-16-12(20)14(22-2)7-9-5-4-6-10(19)11(9)17(14)13(21)15(16,8-18)23-3/h4-6,10-11,18-19H,7-8H2,1-3H3/t10-,11-,14+,15+/m0/s1
MSLEVEL=2
SOURCE_INSTRUMENT=N/A-ESI-QFT
FILENAME=library_mgf.mgf
SEQ=*..*
IONMODE=positive
ORGANISM=MONA
NAME=bisdethiobis(methylthio)gliotoxin [M+K]+
PI=MoNA
DATACOLLECTOR=MoNA:VF-NPL-QEHF024555
PUBMED=N/A
SUBMITUSER=mwang87
TAGS=
SPECTRUMID=CCMSLIB00004715618
SCANS=24555
50.509285 0.048645 
51.023575 0.074675 
51.239147 0.076436 
51.902893 0.073005 
51.94035 47.323212 
51.941708 0.445074 
52.409046 0.071453 
52.940472 5.164297 
52.97477 0.05014 
53.002548 0.077357 
53.03896 2.862819 
53.917679 0.053091 
53.938599 0.66261 
54.034187 0.336716 
54.138832 0.04864 
54.600742 0.043151 
54.902782 0.115243 
54.937859 1.640938 
55.018204 3.451216 
55.042057 0.180149 
55.054592 8.68101 
55.494125 0.034754 
55.934734 14.357586 
56.049824 5.486236 
56.057934 0.055112 
56.850395 0.034407 
56.935268 0.062467 
56.942547 0.578759 
56.965118 3.934613 
57.033833 1.627351 
57.070217 3.170187 
57.935108 16.296228 
58.029083 0.23987 
58.065456 8.875239 
59.049446 0.971869 
59.068699 0.044309 
59.073273 0.276776 
59.237698 0.039983 
59.69091 0.052208 
59.93055 2.341052 
60.044735 0.14482 
60.055866 0.544579 
60.08112 0.145897 
61.010937 22.810276 
61.028679 2.338902 
61.928001 0.146281 
62.014221 0.057694 
62.01873 3.902127 
63.006638 0.496983 
63.02655 0.047884 
63.320415 0.064825 
63.998035 0.204729 
64.003281 0.061757 
64.208832 0.037981 
64.674133 0.050012 
64.800507 0.058281 
64.923409 0.054116 
64.93985 0.050387 
65.038803 2.038509 
65.817566 0.05629 
67.041893 0.049659 
67.054413 6.235071 
67.200768 0.051148 
67.935051 2.80907 
68.01326 0.064958 
68.049629 4.077897 
68.535316 0.07726 
68.87812 0.040085 
68.942848 4.067055 
69.033661 5.896006 
69.044884 0.126546 
69.057358 0.061682 
69.07003 5.346987 
69.182678 0.074682 
69.961105 0.111477 
70.028862 0.172124 
70.037064 0.055552 
70.065277 24.10338 
70.489731 0.064589 
70.818634 0.095959 
70.941956 0.555356 
70.958008 2.703326 
71.012917 0.23281 
71.049278 2.894323 
71.068604 0.586563 
71.085617 0.594357 
71.75444 0.049996 
71.836784 0.099492 
71.929405 2.043257 
72.044525 1.814099 
72.052658 0.057128 
72.080917 4.278815 
72.337967 0.077029 
72.382843 0.05751 
72.937241 15.881556 
72.954224 0.060921 
73.028503 0.691588 
73.030579 0.052909 
73.064896 0.998028 
74.005989 0.334209 
74.023834 0.048453 
74.060135 0.640519 
74.096474 0.14139 
74.93766 0.048814 
74.990295 0.0472 
75.044266 0.128923 
75.945488 0.141118 
76.509857 0.088119 
77.039062 0.052632 
77.940956 0.122288 
77.974716 0.054656 
78.046669 0.042014 
79.018257 0.046034 
79.021294 3.712896 
79.054344 6.42416 
80.004913 0.043063 
80.049591 4.967034 
80.057678 0.121062 
81.017067 0.056356 
81.033607 9.244954 
81.044792 1.864435 
81.052956 0.042932 
81.057335 0.137213 
81.069962 4.747832 
82.028763 0.418347 
82.037041 0.189098 
82.052734 0.21775 
82.062752 0.053552 
82.065231 5.438894 
82.621368 0.044599 
82.756042 0.057717 
82.943085 0.068826 
83.049248 6.306796 
83.060425 0.982038 
83.06852 0.21695 
83.073097 0.117224 
83.085579 0.631143 
83.929855 1.989366 
84.025223 0.060154 
84.044502 2.418817 
84.080894 9.81996 
84.937706 5.32367 
84.959724 0.055502 
85.028526 2.726787 
85.039711 0.751005 
85.064957 0.715003 
85.07608 0.131549 
85.084106 0.049864 
85.101265 0.048045 
85.945518 1.43223 
86.060143 1.745138 
86.096527 4.688161 
86.953156 0.059384 
87.044212 0.793137 
87.90657 1.324259 
88.021629 0.661319 
88.039452 0.162159 
88.075806 0.102593 
88.914261 0.078512 
88.952461 0.318958 
88.968529 1.420046 
89.038727 1.99454 
89.059746 0.227049 
89.324631 0.114803 
89.940041 0.33133 
89.96389 0.060046 
90.947823 13.235028 
91.054375 12.708793 
91.123039 0.054057 
91.748711 0.048014 
92.049545 0.609858 
92.057724 0.391079 
92.948204 0.122809 
92.982796 0.10316 
93.033669 0.058993 
93.044769 0.101039 
93.057396 0.326264 
93.070023 3.287154 
93.291199 0.081714 
93.956024 0.404575 
94.028862 0.475273 
94.041687 0.054899 
94.065254 4.309127 
94.073143 0.069919 
94.157837 0.080003 
95.012817 0.999258 
95.049217 7.535747 
95.060455 2.091858 
95.068695 0.100669 
95.073158 0.115615 
95.085663 2.242208 
95.951492 0.400022 
96.044487 2.654173 
96.052597 0.11438 
96.068001 0.057996 
96.080887 2.773669 
97.028511 2.823991 
97.039757 0.534966 
97.047844 0.047529 
97.064926 1.189866 
97.076141 1.369453 
97.084267 0.053554 
97.088875 0.042335 
97.101105 0.065668 
98.060204 5.471135 
98.096527 1.058952 
98.975487 1.252664 
98.984077 0.159804 
99.026772 0.054921 
99.044121 1.062134 
99.055504 0.174873 
99.091766 0.054219 
99.948105 0.248513 
99.961052 0.068441 
100.039337 0.201741 
100.075752 1.485083 
100.953842 1.571244 
101.059853 0.614634 
101.940437 2.079129 
102.037186 0.113183 
102.055168 0.112021 
102.827896 0.050537 
102.948334 21.476906 
103.054359 3.3521 
103.9561 1.408231 
104.049652 2.53482 
104.057228 0.044103 
104.107124 0.197083 
104.963737 0.237119 
105.033646 3.36867 
105.044891 0.963301 
105.0532 0.041213 
105.057442 0.360052 
105.070015 7.784184 
105.47686 0.049912 
105.917107 0.327472 
106.028885 0.094025 
106.065247 4.55527 
106.073425 0.396669 
106.92495 0.161566 
106.963112 0.061901 
106.979103 0.050885 
107.049225 8.421935 
107.060432 0.241764 
107.073006 0.324615 
107.085579 1.07181 
107.950821 0.333361 
108.044502 2.178083 
108.052505 0.230348 
108.056374 0.050049 
108.08091 2.624583 
108.958397 2.710826 
109.02858 1.95098 
109.052338 0.240246 
109.064911 0.937284 
109.07618 0.763312 
109.101349 0.349281 
110.023643 0.050054 
110.060196 3.679824 
110.071365 0.529298 
110.096642 1.535506 
110.100212 0.038198 
110.953499 0.668721 
111.00592 0.100149 
111.04422 4.24382 
111.055489 1.963429 
111.080124 0.097361 
111.091743 0.043894 
112.039383 0.249942 
112.075806 1.898718 
112.087051 0.217464 
112.112221 0.043658 
112.956039 0.061523 
113.034508 0.158766 
113.059776 0.651086 
113.071022 0.083114 
113.107338 0.303595 
113.559708 0.03967 
113.963829 1.208962 
114.045181 0.074368 
114.055229 0.261569 
114.09153 0.470864 
114.102745 0.252716 
114.586166 0.076119 
114.948303 1.282162 
115.05439 3.315842 
115.086479 0.053054 
116.049599 1.849884 
116.070686 0.163547 
116.948425 0.048724 
116.963867 2.923673 
116.97187 0.724267 
116.985588 1.653502 
117.057533 2.780178 
117.069969 1.689415 
117.935349 0.138159 
117.95697 0.047885 
117.971771 1.800729 
118.032188 0.058241 
118.06514 4.992699 
118.086388 3.359319 
118.943275 8.475278 
118.972252 0.080899 
118.97995 1.203098 
119.049271 4.871512 
119.06057 0.493263 
119.068604 0.246493 
119.072952 0.123197 
119.085678 1.529133 
119.892136 0.040628 
119.943596 0.066197 
119.951088 10.115572 
120.044456 1.577216 
120.052361 0.075593 
120.05703 1.367806 
120.080933 5.36867 
120.940613 2.542388 
120.951195 0.260307 
120.958847 4.94258 
121.028564 1.809177 
121.039604 0.037143 
121.052345 0.177459 
121.064934 2.946128 
121.076096 0.921695 
121.084099 0.150954 
121.088577 0.165552 
121.101082 0.139612 
121.966644 0.4125 
122.024536 0.045995 
122.060173 3.739699 
122.071358 1.112546 
122.096481 1.640642 
122.94088 0.435109 
123.044174 1.088442 
123.055344 0.549692 
123.068008 0.263061 
123.079445 1.110785 
123.091728 0.488704 
123.0998 0.044726 
123.116974 0.063484 
123.927917 0.132528 
123.945457 0.06223 
124.039406 1.032192 
124.063942 0.133076 
124.075874 2.159476 
124.112221 0.223732 
124.936256 1.008015 
125.023552 0.276682 
125.059868 0.436798 
125.071007 1.829891 
125.961082 0.456239 
126.055023 1.12078 
126.091446 0.624157 
126.96946 1.117327 
126.984528 0.105021 
127.038986 0.192687 
127.050262 0.164755 
128.049667 1.099449 
128.062164 0.522496 
128.070694 0.21641 
128.10704 0.05869 
128.963852 19.308455 
128.984955 0.057341 
129.069946 1.533965 
129.956955 0.204983 
129.963943 0.724486 
130.065216 9.637792 
130.943222 5.150982 
130.979568 3.094569 
131.000336 0.715266 
131.04921 1.125602 
131.060593 0.401178 
131.068329 0.392087 
131.073181 0.499899 
131.085602 0.880556 
131.94278 0.107839 
131.951004 7.170617 
131.96138 0.52195 
131.974518 1.210499 
132.044495 3.523163 
132.068466 0.232122 
132.080872 3.559756 
132.958374 4.241177 
132.995682 1.127788 
133.052368 1.03083 
133.064697 1.014713 
133.076218 0.587445 
133.088791 0.231644 
133.101059 0.206688 
133.840149 0.039741 
133.953476 0.131292 
133.966751 0.07738 
134.060181 6.19237 
134.096512 3.46039 
134.956177 2.339295 
134.974152 1.159476 
134.99649 0.918565 
135.044083 0.521746 
135.055435 0.335784 
135.063095 0.326138 
135.080505 0.364435 
135.091705 1.430546 
135.616119 0.036498 
135.92778 0.817105 
135.9823 1.201846 
136.039429 0.661285 
136.051102 0.041452 
136.062042 1.181714 
136.07576 2.808265 
136.099426 0.1381 
136.112198 1.063305 
136.953781 0.447599 
136.990784 0.158 
137.059799 0.813348 
137.071182 0.494798 
137.107193 0.459863 
138.018677 0.660028 
138.055099 1.867459 
138.091309 1.096817 
138.128021 0.182186 
138.951126 2.46014 
138.984161 0.382296 
139.050278 0.387821 
139.086746 0.466803 
139.923553 0.95775 
139.979263 0.041651 
140.034439 0.078136 
140.049469 0.117012 
140.070724 0.348256 
140.107117 0.122839 
140.501328 0.117304 
140.963669 0.200085 
140.984619 0.476682 
141.070175 0.284445 
141.102173 0.332688 
141.92099 0.050295 
141.958649 0.050998 
142.065369 1.152343 
142.08638 0.422862 
142.979721 0.956998 
143.000458 0.080266 
143.049438 1.349736 
143.060486 0.061777 
143.073166 0.427699 
143.085571 0.293729 
143.950912 0.156607 
143.974426 0.239171 
144.04454 6.641722 
144.057053 0.824295 
144.067673 0.065649 
144.080978 3.187548 
144.958755 3.224429 
144.979935 6.552139 
144.99556 0.940181 
145.039764 0.06296 
145.047424 0.112704 
145.064972 1.402947 
145.07605 1.697977 
145.082825 0.051737 
145.101471 0.369827 
145.966736 1.97316 
145.990234 0.105933 
146.06012 4.503197 
146.083923 0.287385 
146.096588 1.938015 
146.974487 100.0 
147.044296 0.397012 
147.055481 0.36829 
147.06221 0.052388 
147.068588 0.272795 
147.080719 0.343647 
147.091782 6.121562 
147.104401 0.075203 
147.617432 0.075805 
147.974335 6.220828 
148.02182 0.049167 
148.039185 0.682979 
148.075806 2.768417 
148.088943 0.042769 
148.09494 0.124659 
148.112106 0.723038 
148.972183 5.00717 
148.990082 0.926481 
149.023865 0.062993 
149.046982 0.156209 
149.059784 0.43771 
149.071213 0.619072 
149.083466 0.225985 
149.096176 0.048057 
149.107498 0.717118 
149.961441 0.306169 
149.971985 1.158677 
149.985275 0.107059 
150.055069 2.624529 
150.066467 0.157027 
150.077667 0.099009 
150.091385 2.204207 
150.951218 4.413311 
150.968903 4.343828 
150.98407 0.439836 
151.00621 0.075997 
151.050415 0.154655 
151.086655 0.986919 
151.099136 0.043097 
151.123077 0.08088 
151.959259 0.0631 
151.97934 0.346989 
152.033936 0.130512 
152.062653 0.146103 
152.070694 1.14304 
152.107147 0.445123 
152.951645 1.013383 
152.96698 1.758273 
153.938446 0.425658 
153.95929 0.767364 
154.050339 0.071443 
154.06517 1.053464 
154.122543 0.069357 
154.947128 1.283666 
155.000534 0.110677 
155.06041 0.514079 
155.086136 0.297438 
155.118469 0.042053 
155.954788 5.393828 
155.995453 0.124054 
156.044556 0.417986 
156.068253 0.048368 
156.081024 1.502504 
156.969711 0.059192 
156.995209 0.093036 
157.015656 0.087735 
157.052628 0.17572 
157.064758 0.268284 
157.076172 1.190606 
157.088791 0.150333 
157.952087 0.901756 
157.990005 0.108765 
158.060104 4.149545 
158.072647 0.083195 
158.084198 0.252494 
158.096588 1.904666 
158.942032 0.575947 
158.974411 3.998766 
159.011322 0.138231 
159.055725 0.162913 
159.068192 0.316734 
159.080521 0.283363 
159.091858 4.114572 
159.951324 0.041397 
159.975769 0.123909 
159.982468 1.398635 
159.990021 0.076752 
160.03949 1.550031 
160.075897 2.796675 
160.099976 0.131138 
160.112366 0.746458 
160.953583 0.056158 
160.990112 1.2303 
161.059769 0.514325 
161.071243 1.122408 
161.078476 0.074642 
161.107361 0.802116 
161.115189 0.059605 
161.961624 0.167408 
161.98465 0.050142 
162.055161 2.199301 
162.091492 2.38915 
162.239029 0.078383 
162.969315 0.632221 
163.00528 0.121802 
163.050201 0.121666 
163.058258 0.097273 
163.075165 0.176942 
163.086838 0.804758 
163.123291 0.075267 
163.977249 5.943485 
164.033951 0.065818 
164.070755 1.260616 
164.082169 0.140119 
164.093262 0.411318 
164.107086 1.538736 
164.967178 0.18856 
164.977554 0.095048 
164.98526 0.064638 
165.000244 0.158372 
165.070404 0.142155 
165.1026 0.357809 
165.971222 0.187779 
165.995422 0.078344 
166.050018 0.053539 
166.072327 0.058858 
166.086441 0.882226 
166.097733 0.225815 
166.122894 0.129921 
166.981049 0.368793 
167.000778 0.140947 
167.06044 0.601487 
167.073074 0.528665 
167.080734 0.130947 
167.117981 0.443726 
167.974167 0.231694 
168.066895 0.116871 
168.0811 0.754543 
168.91713 0.235538 
168.961868 1.232823 
168.983414 0.064365 
169.064575 0.048587 
169.076202 2.090622 
169.089081 0.080481 
169.990417 0.494537 
170.060272 1.363612 
170.096558 1.290212 
170.961975 0.570935 
170.973831 0.232172 
171.044266 1.025759 
171.05542 0.392475 
171.068146 0.132878 
171.079758 0.07362 
171.091888 0.876792 
171.904526 0.259265 
172.006149 0.157089 
172.039505 1.920284 
172.075943 1.967914 
172.087418 0.249608 
172.112244 0.726084 
172.957703 0.587021 
172.990097 0.072375 
173.042252 0.060522 
173.059982 0.148925 
173.071167 1.950486 
173.083954 0.123404 
173.107513 3.362797 
173.870682 0.310671 
174.006256 0.844669 
174.020264 0.185359 
174.05513 3.603821 
174.078949 0.14759 
174.091629 1.731837 
174.127808 0.284045 
175.039597 0.068336 
175.075653 0.14044 
175.086761 2.157588 
175.099518 0.059284 
175.122955 0.202859 
175.979523 1.432171 
176.000885 0.471044 
176.03476 0.046847 
176.070938 1.214489 
176.107147 1.117611 
176.985672 1.179345 
177.065903 0.386841 
177.102386 0.465118 
177.993835 3.985146 
178.050049 0.356545 
178.086472 1.286475 
178.122772 0.059197 
178.892822 0.267947 
178.964447 2.820689 
178.979126 1.001336 
179.000916 0.466087 
179.118546 0.079107 
179.954468 0.071343 
179.995575 0.430443 
180.020142 0.106005 
180.064514 0.073719 
180.08078 0.469673 
180.102173 0.48972 
180.888214 3.8703 
180.994919 0.139751 
181.065292 0.40649 
181.075958 0.55052 
181.089127 0.179308 
181.100266 0.050605 
181.134155 0.054381 
181.966339 0.079517 
181.98822 1.357744 
182.060135 0.389248 
182.083923 0.377506 
182.096558 0.392884 
182.974167 0.05885 
182.986557 0.128864 
183.068283 0.055035 
183.080444 0.342662 
183.091888 0.521141 
183.98204 0.253516 
184.005478 0.151 
184.07605 1.549647 
184.099792 0.208073 
184.112244 0.276022 
184.990036 0.287764 
185.049286 0.067778 
185.071243 4.760907 
185.080185 0.229634 
185.107697 1.528996 
185.94989 0.069756 
186.055191 0.979525 
186.091629 1.799068 
186.10051 0.045779 
186.115387 0.05223 
186.127945 0.081415 
186.92775 0.939611 
187.076401 0.152127 
187.086838 1.746102 
187.123093 0.065523 
187.944778 1.820396 
187.978958 0.240753 
188.021729 0.069317 
188.034943 0.419566 
188.070938 1.377441 
188.080963 0.117838 
188.107162 0.865917 
188.115921 0.058527 
188.877884 0.10993 
188.96727 0.746181 
188.986771 0.975539 
189.06604 0.165634 
189.102386 0.681638 
189.886215 2.212273 
189.941925 0.078861 
189.995224 3.305533 
190.016586 0.0724 
190.032211 0.83869 
190.050095 0.379485 
190.077652 0.148376 
190.086594 0.675872 
190.122818 0.288848 
190.873138 2.84373 
190.966705 0.15283 
190.999939 0.237612 
191.08551 1.584299 
191.118317 0.075796 
191.880859 17.428577 
191.901871 0.28554 
191.974823 0.091947 
191.995575 0.102587 
192.010818 0.083773 
192.065613 0.055141 
192.089996 0.070322 
192.102112 0.88116 
192.8806 0.149143 
192.889023 1.976939 
192.962097 0.140599 
192.995026 0.168262 
193.076233 0.177929 
193.088608 0.083858 
193.133392 0.128032 
193.881226 0.792342 
193.990112 1.648587 
194.072662 0.472655 
194.096542 0.389252 
194.889404 0.443241 
194.974228 0.412828 
195.081253 0.251004 
195.091995 2.15092 
195.100555 0.064722 
195.112915 0.054728 
195.896759 0.147392 
195.949249 0.115275 
196.004669 0.561613 
196.075836 1.285608 
196.097641 0.136414 
196.111984 0.131171 
196.133926 0.046237 
196.990143 0.136195 
197.012558 1.991231 
197.06102 0.079251 
197.07103 0.657936 
197.096329 0.056703 
197.107605 0.574996 
197.891037 0.529357 
198.055313 0.323617 
198.066254 0.0496 
198.077896 0.100267 
198.091461 0.979106 
198.127792 0.049966 
198.899139 0.739044 
198.969299 0.117767 
198.980682 0.189243 
199.049576 0.058477 
199.062927 0.067549 
199.086899 0.626224 
199.09726 0.057535 
199.123276 0.245954 
200.000839 0.060913 
200.058487 0.064395 
200.070847 1.844745 
200.08046 0.1472 
200.107162 0.655104 
200.984512 0.061554 
201.056 0.049263 
201.066101 0.385061 
201.102173 0.435791 
201.111725 0.055279 
201.138947 0.088658 
201.99501 0.646478 
202.049973 0.19741 
202.074951 0.170029 
202.086533 1.451178 
202.122269 0.135237 
203.000961 0.06692 
203.08168 0.99141 
203.117493 0.079221 
203.974136 0.095021 
204.012802 0.07608 
204.065796 0.143659 
204.102585 0.763129 
204.112732 0.062363 
204.873245 0.120473 
204.888687 0.397734 
204.982544 2.815185 
204.993408 0.082045 
205.064316 0.044932 
205.076675 0.066833 
205.086517 0.054808 
205.133865 0.131158 
205.990036 7.378792 
206.083282 0.623176 
206.096451 0.123827 
206.117966 0.081484 
206.868301 1.895426 
206.889023 3.824587 
206.905518 0.059534 
206.926559 0.876255 
206.977982 10.468934 
206.995407 0.568985 
207.091827 0.588856 
207.113159 0.063799 
207.875809 3.010068 
207.896774 4.171874 
207.978821 0.713312 
207.991348 0.06799 
208.006073 1.739 
208.028366 0.073987 
208.098495 0.135253 
208.883789 28.802015 
208.976746 0.437679 
208.98848 0.070924 
208.999374 0.17394 
209.096237 0.351085 
209.107529 0.363216 
209.876373 8.015657 
209.891724 30.809088 
209.984772 0.240189 
210.009567 0.062194 
210.079437 0.072783 
210.091522 0.691763 
210.111877 0.055433 
210.128479 0.102266 
210.883163 0.314854 
210.900009 2.749762 
210.991364 0.042384 
211.086609 0.846948 
211.123093 0.060367 
211.891846 4.165717 
211.907394 0.230678 
212.070923 0.265928 
212.093399 0.064504 
212.107178 0.657321 
212.889725 0.049833 
212.899765 1.375858 
213.066071 1.658428 
213.091812 0.052537 
213.102188 0.281688 
213.138672 0.050693 
213.886444 0.197457 
213.907425 1.67078 
214.074417 0.104374 
214.08638 0.655951 
214.107697 0.062069 
214.122772 0.232283 
214.87355 0.165059 
214.893829 0.101539 
215.023102 0.443374 
215.081894 1.067221 
215.093185 0.069199 
215.106781 0.046067 
215.118195 0.428345 
215.901779 0.127193 
216.065475 0.066942 
216.088272 0.904564 
216.101944 0.643019 
216.889832 0.219233 
216.909485 0.082931 
216.982727 0.092687 
216.991455 0.063498 
217.097702 0.369849 
217.881958 0.145191 
217.99025 3.535196 
218.027725 0.054273 
218.072083 0.075673 
218.082382 0.256457 
218.117706 0.157075 
218.128769 0.075656 
218.869339 0.066568 
218.904556 3.606883 
218.962448 0.049874 
218.993378 0.135028 
219.080704 2.693616 
219.091797 0.61683 
219.11438 0.069201 
219.790787 0.568308 
219.969452 0.326435 
220.006042 0.2441 
220.06163 0.18184 
220.085861 0.221394 
220.098053 0.282672 
220.113205 0.041789 
220.884552 0.090088 
220.903564 5.438911 
220.958298 0.054717 
221.011917 0.509408 
221.07132 0.058128 
221.093552 0.116468 
221.107819 0.093976 
221.824997 0.084276 
221.902054 4.46673 
221.912766 0.077837 
221.984848 1.084433 
222.040894 0.062281 
222.076767 0.080855 
222.091415 0.441493 
222.114105 0.077237 
222.885834 0.340322 
222.898712 13.710963 
222.993057 1.784802 
223.075256 0.071052 
223.086624 0.522797 
223.889771 0.134623 
224.000595 4.010945 
224.070602 0.227493 
224.094299 0.079277 
224.10701 0.138934 
224.878738 4.741982 
224.899445 0.748711 
225.004333 0.261887 
225.065781 0.46049 
225.077393 0.075193 
225.102493 0.166385 
225.886688 5.656321 
226.086609 0.170855 
226.894363 7.623135 
227.081787 1.859022 
227.117477 0.172807 
227.901474 1.19478 
228.066452 0.124842 
228.102097 0.263858 
228.894913 0.964597 
228.912003 0.060528 
229.0056 0.046609 
229.075241 0.158859 
229.134048 0.058954 
229.903076 1.379968 
229.990631 0.092381 
230.081467 0.269918 
230.104507 0.079477 
230.117905 0.162937 
230.889282 1.178042 
231.077438 0.122451 
231.112961 0.204271 
231.125198 0.04543 
231.896927 0.493223 
231.918381 0.459651 
231.969208 0.30496 
232.005692 0.114937 
232.097977 0.443516 
232.133804 0.059338 
232.883713 12.716158 
232.904388 0.364249 
233.107666 0.207953 
233.128586 0.315642 
233.891632 22.529919 
233.985031 1.922968 
234.078735 0.054156 
234.090897 0.135948 
234.113083 0.068103 
234.900528 7.891426 
234.98967 0.06583 
235.086914 0.317644 
235.871048 0.387715 
235.891541 8.106163 
235.905807 0.698526 
236.000671 1.585827 
236.02272 0.108053 
236.107056 0.126188 
236.878662 0.224458 
236.899872 10.089069 
236.91423 0.981407 
237.06633 0.050331 
237.090988 0.307926 
237.102219 0.310775 
237.898422 0.064378 
237.907394 0.276759 
237.980255 0.138059 
238.086365 0.092461 
238.91423 9.24261 
238.968277 1.735316 
239.081757 0.630406 
239.912613 5.323874 
239.994919 0.055448 
240.088196 0.714417 
240.101685 0.170933 
240.896042 0.241112 
240.909454 21.170258 
242.081436 0.206655 
242.118027 0.067391 
243.089081 0.371578 
243.11377 0.05719 
245.001129 0.065931 
245.037872 0.400045 
245.107437 0.084347 
245.912033 1.045024 
246.045685 0.105187 
246.09874 0.061821 
246.910095 0.151857 
247.017029 0.231222 
247.075012 1.423764 
247.087738 0.192836 
247.12323 0.155161 
247.906723 0.164126 
248.000717 0.387224 
248.080566 0.07977 
248.092712 0.05289 
248.878876 2.582096 
248.899399 4.838808 
249.102112 0.212073 
249.886414 0.54154 
249.980392 0.058806 
250.894272 40.136562 
251.081512 0.171105 
251.118423 0.145019 
251.903091 1.036982 
251.995667 0.291176 
252.10199 0.08246 
252.895172 1.707463 
252.910614 0.140974 
253.097458 0.073527 
253.902588 14.385598 
253.917816 4.671864 
254.910904 2.275051 
255.112961 0.045074 
255.896301 0.051438 
255.918442 2.819934 
256.918488 0.062883 
257.000641 0.05258 
257.891876 0.215503 
258.899414 0.26333 
259.016418 0.05505 
259.05368 0.354421 
259.085876 0.0573 
259.144775 0.152713 
259.89151 0.063235 
261.067596 0.076971 
261.102783 0.288134 
262.097809 0.053731 
262.121613 0.092871 
262.914124 0.350523 
263.11792 0.223576 
263.89624 0.056829 
263.912628 0.06401 
264.909912 0.267439 
265.097015 0.0558 
266.889343 1.388743 
266.910095 0.592716 
267.112701 0.142909 
267.919922 0.063422 
267.991119 0.230449 
268.097534 0.062347 
268.890076 0.47666 
268.904907 7.0968 
269.821564 0.163977 
270.905457 0.688838 
271.03302 0.111297 
271.913086 0.384289 
271.987976 0.152912 
273.102753 0.049786 
273.907867 0.159308 
273.928162 0.331052 
274.075714 0.084796 
274.092651 0.960827 
274.894196 1.202165 
275.011688 0.291752 
275.095581 0.057939 
275.117584 0.225214 
275.902161 14.169775 
276.905731 1.962942 
277.902405 8.692796 
277.917542 0.76333 
278.902527 0.821278 
280.813446 0.070791 
280.925354 0.126009 
281.821564 0.062687 
281.922241 0.09179 
282.920837 0.085819 
283.10791 0.053126 
284.556885 0.102843 
284.807648 0.141994 
285.086151 0.410057 
287.012665 0.137726 
287.831635 1.358141 
288.123108 0.048399 
288.838867 0.060415 
289.026855 0.081334 
289.098145 0.159796 
289.838379 0.109815 
291.112823 0.095589 
291.897888 0.142967 
292.102478 0.341016 
293.912994 0.429653 
295.912903 2.380312 
295.929291 2.248116 
296.911713 0.107123 
296.929291 0.068544 
302.819122 1.573712 
310.916077 0.329681 
312.839355 3.348306 
315.006592 0.065957 
316.905365 0.831369 
322.825104 0.148214 
325.829926 0.083795 
326.819214 0.13953 
327.827942 0.151485 
333.122894 0.095413 
338.750763 0.120774 
344.829559 1.87652 
352.842896 0.101562 
353.476868 0.103207 
360.260223 0.111261 
365.406006 0.076246 
397.519745 0.051371 
411.799927 0.085103 
416.854553 0.040594 
END IONS

