BEGIN IONS
PEPMASS=297.016
CHARGE=1+
COMPOUNDNAME=norlichexanthone
LIBRARYQUALITY=3
SMILES=N/A
INCHIKEY=AQZHBCDRWFMXIN-UHFFFAOYSA-N
INCHI=InChI=1S/C14H10O5/c1-6-2-7(15)4-10-12(6)14(18)13-9(17)3-8(16)5-11(13)19-10/h2-5,15-17H,1H3
MSLEVEL=2
SOURCE_INSTRUMENT=N/A-ESI-QFT
FILENAME=library_mgf.mgf
SEQ=*..*
IONMODE=positive
ORGANISM=MONA
NAME=norlichexanthone [M+K]+
PI=MoNA
DATACOLLECTOR=MoNA:VF-NPL-QEHF017954
PUBMED=N/A
SUBMITUSER=mwang87
TAGS=
SPECTRUMID=CCMSLIB00004709017
SCANS=17954
50.739285 0.039538 
51.011265 0.039489 
51.291531 0.037131 
51.940308 2.00169 
54.11021 0.042329 
54.724915 0.040991 
54.770859 0.043814 
55.054562 4.065257 
55.111271 0.03759 
55.207119 0.038106 
55.283604 0.037619 
56.049736 0.456319 
56.320415 0.044121 
56.965076 2.65152 
57.033764 0.146172 
57.070168 6.884507 
57.596767 0.043311 
58.065403 1.337949 
58.510502 0.041973 
59.049404 4.733177 
59.25972 0.044025 
60.044689 0.106954 
60.08102 0.421376 
60.250443 0.037571 
60.297169 0.039275 
60.69659 0.047755 
61.010868 12.110938 
61.222717 0.042466 
62.014248 0.088376 
62.018681 10.440391 
62.277843 0.04136 
62.981853 0.320321 
63.006618 0.223007 
63.026356 0.055216 
63.153408 0.041373 
63.440468 0.041157 
63.998104 0.052619 
64.269829 0.043411 
64.694923 0.042505 
67.054367 4.567385 
67.602135 0.043677 
67.934975 0.179663 
69.033646 0.242866 
69.069992 6.623599 
69.48204 0.039304 
70.065224 1.683163 
70.073204 0.041961 
71.04921 0.618261 
71.085609 2.949599 
71.616936 0.040617 
71.851509 0.04583 
71.904747 0.045004 
72.044502 0.064241 
72.080856 1.065758 
72.355301 0.042822 
72.361969 0.038168 
72.867653 0.047079 
73.028442 0.285349 
73.046844 1.625026 
73.064957 0.058077 
74.096466 2.017335 
74.974838 0.037106 
75.044098 1.128075 
75.133415 0.042494 
78.013573 0.052797 
78.72937 0.041409 
79.021263 9.819985 
79.054291 1.429208 
79.135597 0.04975 
79.754639 0.045296 
81.018661 0.070844 
81.069923 5.068537 
83.005241 0.042246 
83.049164 1.648896 
83.085533 2.979267 
84.044464 0.175564 
84.080841 0.72037 
84.448036 0.052053 
85.064819 2.135996 
85.101265 0.375159 
86.060028 2.947015 
86.09642 1.883415 
87.044128 14.369527 
87.063347 0.043279 
88.047478 0.126458 
88.075737 2.092406 
89.059746 13.24182 
89.283546 0.043669 
90.063141 0.13427 
90.928459 0.036945 
90.947571 0.067722 
91.054321 1.128365 
91.05735 5.256382 
91.165855 0.037267 
92.057724 0.041351 
93.069946 11.497424 
94.073227 0.118322 
95.049202 0.283407 
95.085533 6.789565 
96.081238 0.045801 
97.064774 0.201004 
97.101196 0.837173 
98.060097 0.35398 
98.096664 0.053984 
98.237358 0.054227 
98.975342 0.197527 
99.011185 0.928229 
99.044189 0.162258 
99.080406 0.109367 
99.989548 0.039921 
100.075676 1.224362 
100.111809 0.049412 
101.003181 0.609823 
101.930717 0.042093 
102.308952 0.044635 
102.948166 0.928465 
103.038979 14.421423 
103.075363 1.189561 
103.955841 0.053863 
104.042328 0.306449 
105.033508 0.491868 
105.045113 0.047763 
105.069916 1.304589 
105.753342 0.049192 
107.007912 0.052016 
107.049065 0.055878 
107.070183 0.04249 
107.085548 16.56876 
108.016479 4.624133 
108.088959 0.388966 
108.516869 0.273803 
108.561348 0.038601 
109.015022 0.407023 
109.064857 0.387278 
109.101166 2.810074 
110.036102 0.042609 
110.060318 0.097832 
110.953964 0.057022 
111.026253 0.04853 
111.080452 0.265503 
111.310219 0.041029 
112.075813 0.045233 
113.095886 0.160597 
115.024475 0.045943 
115.502213 0.053029 
115.599373 0.039017 
116.070282 0.062918 
116.96627 0.626126 
116.985954 0.322322 
117.873741 0.044962 
117.96608 0.047988 
118.943161 0.616949 
118.963219 0.042683 
119.001526 0.166507 
119.049339 0.103856 
119.085564 1.157702 
119.95089 1.067738 
120.080399 0.093927 
121.028229 0.04362 
121.064835 1.165757 
121.094177 0.042131 
121.101219 4.369341 
121.359612 0.043015 
121.501076 1.234192 
121.51844 0.039293 
123.036278 0.042992 
123.080467 0.321737 
123.116791 0.384842 
124.075378 0.061994 
125.096268 0.069717 
125.642586 0.040088 
126.043594 0.197767 
126.091324 21.107431 
127.09465 1.923921 
128.106705 0.099699 
128.769531 0.041214 
128.964233 0.32718 
129.012833 1.404629 
129.052155 1.009141 
130.011673 0.09302 
130.050079 0.043275 
130.506363 4.471991 
130.943008 0.577547 
131.007126 0.315167 
131.070251 1.368108 
131.085464 0.366728 
131.504807 0.409494 
131.551468 0.066479 
131.950943 0.153532 
132.958344 0.761947 
133.064606 0.051503 
133.085892 1.212806 
133.101089 0.788284 
134.97876 1.110103 
134.99649 0.069873 
135.080444 3.818301 
135.11673 0.986843 
136.061752 0.058836 
136.075607 1.605582 
136.56189 0.047163 
136.974258 0.574715 
137.011765 1.493563 
138.018112 3.903399 
138.518723 0.185576 
138.971619 0.634777 
139.016266 0.274616 
139.051132 0.043613 
140.367249 0.05425 
141.971832 0.20173 
142.085831 0.048489 
144.958694 0.43676 
145.017044 0.042905 
145.101395 0.075388 
145.966553 2.055489 
146.920273 0.183632 
146.957275 0.055332 
146.96814 0.100607 
146.97435 2.041036 
147.116745 1.604974 
147.990326 0.163728 
148.06546 0.047762 
149.096207 0.670872 
149.132492 10.706673 
150.135956 0.190283 
150.968903 1.454501 
151.03949 0.057628 
151.112 0.055432 
151.134766 0.046125 
151.196442 0.045272 
151.584579 0.043066 
151.970398 0.064278 
152.951614 0.051904 
152.989304 1.445665 
153.018372 0.049874 
153.090881 1.072454 
153.966385 0.100195 
154.984589 0.098585 
155.022217 0.353231 
156.731766 0.04561 
156.974991 0.529126 
156.982193 0.7115 
157.966553 4.192767 
157.974716 0.125964 
158.063446 0.055608 
158.190323 0.203417 
158.975266 1.358512 
158.99617 0.107837 
159.982285 3.553938 
160.937241 0.051307 
160.973404 0.106872 
161.13237 0.059275 
161.882263 0.042881 
162.951538 0.634052 
163.027725 0.908189 
163.112045 0.102203 
163.148102 4.289824 
163.959442 0.469154 
163.977081 4.775995 
164.930832 0.587082 
164.967163 0.058616 
164.976974 0.044065 
165.938583 0.147194 
167.004761 0.072029 
167.106689 2.351543 
168.101715 0.052465 
169.076721 0.050528 
170.117538 76.194519 
170.922867 0.043556 
171.05011 0.044378 
171.088287 0.048453 
171.120987 11.22245 
172.123062 0.183812 
173.132553 0.886202 
173.944595 0.053208 
174.951553 5.912845 
174.985535 1.069825 
175.959427 0.787683 
175.977188 4.96422 
175.985886 0.082404 
175.997604 0.049133 
176.977386 0.062356 
176.982773 0.18059 
177.006912 0.167875 
177.956863 0.050308 
177.992859 5.64375 
178.946579 2.282926 
178.992966 0.079088 
179.954437 2.740623 
180.925598 0.11997 
180.962784 0.071159 
181.038666 0.062353 
181.933472 0.054432 
181.987701 0.990003 
185.070984 0.28504 
185.604919 0.047871 
186.221573 0.135094 
186.972412 0.046419 
187.148621 0.049863 
188.967194 9.144175 
189.042969 0.058518 
189.966934 0.115187 
189.975388 2.575047 
190.123505 0.049137 
190.946564 0.822029 
190.967712 3.349752 
191.022308 0.247747 
191.143021 1.251605 
191.946762 0.046365 
191.975464 0.098043 
192.102203 0.058843 
192.228287 0.043099 
192.962189 67.631462 
193.934509 0.055263 
193.962265 3.533935 
193.97084 11.297519 
194.925003 0.04848 
194.961105 0.113254 
194.970215 0.587352 
195.059616 0.051186 
195.912552 0.347047 
196.003555 0.803815 
196.133728 0.050404 
196.920593 0.166678 
196.957489 0.260054 
197.015152 0.1062 
197.177292 0.046501 
197.276764 0.045709 
197.890656 0.077976 
197.928375 0.729069 
198.669769 0.522724 
198.854141 0.756981 
198.935883 0.195417 
199.171036 0.055318 
202.100113 0.046344 
204.341507 0.044192 
204.962448 3.964843 
204.972366 0.047863 
204.983429 5.482742 
205.990891 0.860496 
206.977814 100.0 
207.05394 0.472073 
207.675018 0.791985 
207.986603 20.122744 
208.098526 0.048088 
208.133224 1.231445 
208.177399 0.112177 
208.95697 0.115955 
208.986267 1.799337 
209.13739 0.048961 
209.964539 0.044125 
210.090286 0.042174 
210.185333 0.579691 
211.086624 0.553243 
212.117828 0.049955 
213.054886 0.051939 
214.076859 0.04155 
215.060669 0.039795 
215.183884 1.575042 
215.901398 0.106748 
216.865112 0.068792 
218.151413 3.061064 
219.15596 0.065716 
219.666046 0.252085 
220.957077 3.137676 
220.993393 2.478128 
221.956451 0.045708 
222.001892 0.095761 
222.898666 0.24588 
222.937454 0.056146 
223.027618 0.041633 
223.086853 3.388205 
224.730682 0.043506 
224.952042 6.01375 
225.007263 0.043441 
225.04277 1.985917 
225.952026 0.136981 
228.144958 0.054239 
228.671387 1.064228 
229.001205 0.042717 
229.104126 0.056492 
229.172638 0.208063 
229.670547 0.048012 
229.993393 0.106043 
232.860245 0.171166 
236.092117 0.054683 
236.163971 0.144097 
236.939896 0.059155 
236.972931 0.869865 
237.676361 0.138328 
237.959351 1.87492 
237.995789 0.06265 
238.17868 0.050131 
238.811935 0.047137 
238.952057 0.4937 
238.967529 22.686253 
239.968323 1.701697 
240.864731 0.40273 
240.909363 0.533569 
246.296982 0.044695 
246.356522 0.050912 
248.991135 0.048493 
249.102539 0.945961 
250.099014 0.04841 
251.080338 0.052301 
252.965561 0.932463 
252.982819 0.195592 
256.121521 0.170245 
256.175629 0.160062 
256.879852 0.080131 
257.868011 0.059129 
258.875336 2.628752 
260.115082 0.053978 
262.179901 0.346407 
262.958923 0.040154 
264.157623 0.109154 
264.877625 0.043289 
265.020111 0.734439 
265.037659 0.340707 
266.983795 0.082143 
266.999207 7.212926 
267.112671 3.922011 
267.999725 1.264334 
268.961884 0.07984 
268.978394 6.4962 
268.994049 0.520465 
269.01474 0.258221 
269.044342 0.110653 
270.191833 0.106367 
270.993835 1.364054 
271.060303 0.942249 
273.157623 0.052972 
274.132538 0.107343 
279.029663 0.051611 
281.051422 0.581241 
282.993835 1.721408 
283.030426 23.660357 
283.594391 0.056106 
284.030457 5.131151 
284.154053 0.126397 
284.955231 0.239582 
285.009796 7.209982 
285.027649 1.745592 
285.045593 3.026123 
286.046143 0.283014 
287.023193 0.057638 
288.111847 0.049972 
288.147552 0.070157 
289.004791 0.06831 
289.209564 0.043491 
291.016052 0.049886 
295.060577 0.053617 
295.153015 0.053257 
296.237854 0.410128 
296.2948 1.365854 
297.008148 0.78421 
297.044708 1.678097 
297.075317 0.589438 
297.091949 4.344461 
297.167267 0.893655 
297.239685 0.194656 
297.297699 0.117563 
298.046143 0.299485 
298.075195 0.616345 
298.094238 0.060589 
298.12558 1.897466 
298.178162 0.114518 
298.221313 0.051498 
298.253265 0.735518 
298.346832 17.72963 
299.061188 10.280541 
299.090546 0.079213 
299.130249 0.048743 
299.1828 0.520483 
299.217621 0.102075 
300.062378 2.654284 
300.983887 0.052458 
301.059082 0.437675 
303.019958 0.258477 
305.033234 0.105218 
306.474701 0.04281 
310.43219 0.049173 
313.204926 0.943551 
314.779297 0.048666 
314.929016 0.307066 
315.01767 4.190377 
315.036194 0.054735 
315.929047 0.052318 
316.020477 0.155591 
317.538177 0.050047 
END IONS

