BEGIN IONS
PEPMASS=245.095
CHARGE=1+
COMPOUNDNAME=Biotin
LIBRARYQUALITY=3
SMILES=N/A
INCHIKEY=YBJHBAHKTGYVGT-ZKWXMUAHSA-N
INCHI=InChI=1S/C10H16N2O3S/c13-8(14)4-2-1-3-7-9-6(5-16-7)11-10(15)12-9/h6-7,9H,1-5H2,(H,13,14)(H2,11,12,15)/t6-,7-,9-/m0/s1
MSLEVEL=2
SOURCE_INSTRUMENT=N/A-ESI-QTOF
FILENAME=library_mgf.mgf
SEQ=*..*
IONMODE=positive
ORGANISM=MONA
NAME=Biotin [M+H]+
PI=MoNA
DATACOLLECTOR=MoNA:VF-NPL-QTOF002089
PUBMED=N/A
SUBMITUSER=mwang87
TAGS=
SPECTRUMID=CCMSLIB00004719880
SCANS=2086
41.038101 4.129568 
41.040298 6.363552 
41.043598 1.787862 
42.0345 3.739593 
43.0191 4.585127 
43.053799 2.220769 
44.049599 1.845983 
44.979 7.373709 
44.982399 3.446733 
46.993 1.305477 
46.996101 4.472949 
46.999199 2.720441 
53.038101 4.313377 
53.041 1.620614 
54.033501 6.840674 
54.036499 1.954786 
55.021 1.926094 
55.055302 37.780056 
55.056999 10.733653 
55.074299 1.0981 
55.121799 1.305832 
56.015598 1.044453 
56.048401 6.053504 
56.051498 4.458048 
57.031502 1.138257 
57.034302 1.988922 
57.069801 2.845178 
58.9944 7.646695 
58.9972 5.631487 
59.045399 1.179176 
59.049198 3.053812 
59.9907 1.384178 
61.0103 7.299533 
61.037899 4.710219 
61.043301 1.206103 
62.016701 1.303185 
62.020901 1.103648 
65.036499 3.081547 
65.040298 3.951756 
67.049103 3.793162 
67.054497 30.761421 
67.059898 1.405406 
68.048698 8.365976 
68.051498 4.871712 
69.041199 2.077353 
69.054901 1.251458 
69.0662 2.433655 
69.0709 3.634588 
70.029404 7.287787 
71.048103 2.830815 
73.010101 9.264279 
74.003601 4.146827 
74.007103 7.377712 
74.983398 1.024997 
76.021797 16.11297 
77.038696 28.227427 
78.045799 1.065905 
79.054901 61.156967 
79.116898 1.387384 
79.132004 1.414302 
80.049301 10.960295 
80.057297 1.083344 
81.029297 1.14832 
81.068901 11.185995 
81.0718 8.440083 
82.028702 20.928991 
82.059998 3.92155 
82.0644 3.339042 
83.047501 3.251129 
83.051903 2.081353 
85.011597 22.11208 
85.028297 1.138856 
85.036598 1.967377 
85.041603 3.31148 
86.007698 2.350167 
87.026398 6.312791 
87.030098 1.259965 
88.907501 8.656157 
88.948097 1.867318 
88.953102 2.827148 
91.053902 23.035984 
91.059402 1.122285 
93.064796 8.53987 
93.070396 4.968662 
94.061302 1.599612 
94.065804 6.901493 
95.048103 1.840892 
95.079498 2.731633 
95.085899 4.054436 
96.080704 2.638923 
97.0103 47.070877 
97.033798 21.211882 
97.038002 100.0 
97.081902 1.98019 
97.0886 2.624456 
97.096901 1.178862 
97.120201 1.437122 
97.126701 1.493839 
97.156403 1.392337 
97.188202 1.119717 
98.046997 2.298801 
98.092003 2.310377 
98.101097 1.10716 
99.022102 3.793789 
99.028397 7.244045 
99.050797 2.07631 
100.0205 11.72924 
100.026901 2.446355 
101.0354 1.978345 
101.043503 3.394868 
102.000397 2.053304 
103.053596 15.943 
104.992104 1.482823 
105.070297 63.798824 
105.136497 1.172069 
106.061501 1.759974 
106.0672 2.964904 
107.0103 2.571592 
107.068199 1.76799 
107.0755 2.397417 
107.084702 2.288154 
108.043503 1.777785 
108.077797 6.458216 
108.081497 4.891464 
110.093597 1.259497 
111.026802 16.546446 
111.0355 2.921825 
111.051498 4.15139 
111.090897 1.132841 
112.020401 15.300731 
113.035896 2.322304 
113.042099 3.635277 
114.032402 1.085459 
115.053001 6.215089 
115.056999 2.839126 
116.052696 1.832974 
116.065002 1.715431 
117.0541 2.286238 
118.063797 3.505253 
120.039497 1.173201 
120.081802 4.401504 
121.063698 6.229212 
122.049103 1.343031 
122.061699 1.165975 
122.095901 3.448749 
122.1007 1.76875 
123.026299 70.413109 
123.085602 1.220195 
123.103798 1.372472 
123.124702 1.380083 
125.028702 1.030634 
125.038597 13.23536 
125.995796 1.506855 
126.0364 2.178001 
130.066406 2.885053 
132.081207 3.991381 
132.089203 1.075222 
133.068695 1.576416 
133.082596 4.837003 
133.088699 2.969769 
134.012604 1.706565 
134.018494 1.467114 
134.054703 1.795555 
134.065399 1.046249 
136.020905 1.809466 
136.072098 1.497731 
137.035904 1.601637 
137.071396 1.872609 
137.998306 7.338535 
138.033005 5.017217 
139.055695 12.900581 
139.083694 1.170562 
140.013199 1.85548 
140.051407 1.64096 
142.029007 1.118596 
149.036606 1.74185 
149.046097 2.102368 
151.078598 1.782805 
151.085495 3.527388 
151.896393 9.031619 
152.090393 2.24967 
153.100494 2.241659 
155.026794 1.049146 
163.081802 1.322319 
166.068604 4.385527 
166.075195 1.229205 
166.921204 1.455215 
167.048599 3.442611 
182.061707 1.328388 
184.076508 2.680669 
192.043198 1.570141 
199.085403 1.504776 
209.070404 1.372776 
636.291504 1.028606 
END IONS

