BEGIN IONS
PEPMASS=245.096
CHARGE=1+
COMPOUNDNAME=Massbank:FIO00018 Biotin
LIBRARYQUALITY=3
SMILES=OC(=O)CCCC[C@H](S1)[C@@]([H])(N2)[C@@]([H])(NC(=O)2)C1
INCHIKEY=YBJHBAHKTGYVGT-ZKWXMUAHSA-N
INCHI=1S/C10H16N2O3S/c13-8(14)4-2-1-3-7-9-6(5-16-7)11-10(15)12-9/h6-7,9H,1-5H2,(H,13,14)(H2,11,12,15)/t6-,7-,9-/m0/s1
MSLEVEL=2
SOURCE_INSTRUMENT=ESI-LC-ESI-QTOF
FILENAME=Massbank_ESI_positive_8_1_2014_peaks.mgf
SEQ=*..*
IONMODE=Positive
ORGANISM=MASSBANK
NAME=Massbank:FIO00018 Biotin [M+H]+
PI=Putative Massbank Match
DATACOLLECTOR=Massbank
PUBMED=N/A
SUBMITUSER=mwang87
TAGS=
SPECTRUMID=CCMSLIB00000213622
SCANS=6390
97.0398 3011.0 
98.0967 260.0 
100.0219 295.0 
101.0424 233.0 
105.07 1896.0 
107.0858 362.0 
108.0809 501.0 
111.0264 487.0 
112.022 290.0 
113.0423 652.0 
115.057 642.0 
120.0809 249.0 
121.0651 534.0 
122.0966 686.0 
123.0266 4935.0 
124.0291 262.0 
125.0421 911.0 
131.0277 345.0 
132.081 276.0 
133.0651 551.0 
136.0758 226.0 
138.0011 376.0 
139.0579 4689.0 
143.0276 938.0 
148.076 400.0 
149.0422 1153.0 
150.0916 752.0 
151.0867 1503.0 
153.1027 650.0 
154.0689 360.0 
155.0278 387.0 
156.0845 975.0 
163.0866 473.0 
164.0535 326.0 
165.1024 596.0 
166.0687 5179.0 
167.0527 4670.0 
168.0563 482.0 
181.0974 381.0 
182.0637 1073.0 
184.0792 4736.0 
185.0756 1281.0 
186.0757 322.0 
192.0478 1291.0 
193.0975 324.0 
199.09 5761.0 
200.0931 568.0 
201.0866 275.0 
209.0745 2884.0 
210.0586 347.0 
227.085 21715.0 
228.0879 2234.0 
229.0815 917.0 
END IONS

