BEGIN IONS
PEPMASS=180.2
CHARGE=1+
COMPOUNDNAME=ReSpect:PS023203 Fusaric acid|Fusarate|Fusarinic acid|5-Butylpicolinic acid|5-butylpyridine-3-carboxylic acid
LIBRARYQUALITY=3
SMILES=CCCCC1=CN=C(C=C1)C(=O)O
INCHIKEY=DGMPVYSXXIOGJY-UHFFFAOYSA-N
INCHI=N/A
MSLEVEL=2
SOURCE_INSTRUMENT=ESI-Flow-injection QqQ/MS
FILENAME=respect_8_1_2014_GNPS_peaks.mgf
SEQ=*..*
IONMODE=Positive
ORGANISM=RESPECT
NAME=ReSpect:PS023203 Fusaric acid|Fusarate|Fusarinic acid|5-Butylpicolinic acid|5-butylpyridine-3-carboxylic acid [M+H]
PI=Putative ReSpect Match
DATACOLLECTOR=ReSpect
PUBMED=N/A
SUBMITUSER=mwang87
TAGS=
SPECTRUMID=CCMSLIB00000213704
SCANS=2522
79.0 45.0 
91.0 118.0 
92.0 356.0 
119.0 36.0 
132.0 53.0 
133.0 225.0 
134.0 999.0 
161.0 36.0 
162.0 72.0 
180.0 30.0 
END IONS

