BEGIN IONS
PEPMASS=470.121
CHARGE=1+
COMPOUNDNAME=(5S,8S)-8-benzoyl-2-[(Z,1S,2S)-1,2-dihydroxyhex-3-enyl]-9-hydroxy-8-methoxy-3-methyl-1-oxa-7-azaspiro[4.4]non-2-ene-4,6-dione
LIBRARYQUALITY=3
SMILES=N/A
INCHIKEY=SLYDIPAXCVVRNY-BBJHAQHQSA-N
INCHI=InChI=1S/C22H25NO8/c1-4-5-11-14(24)15(25)16-12(2)17(26)21(31-16)19(28)22(30-3,23-20(21)29)18(27)13-9-7-6-8-10-13/h5-11,14-15,19,24-25,28H,4H2,1-3H3,(H,23,29)/b11-5-/t14-,15-,19?,21+,22+/m0/s1
MSLEVEL=2
SOURCE_INSTRUMENT=N/A-ESI-QFT
FILENAME=library_mgf.mgf
SEQ=*..*
IONMODE=positive
ORGANISM=MONA
NAME=(5S,8S)-8-benzoyl-2-[(Z,1S,2S)-1,2-dihydroxyhex-3-enyl]-9-hydroxy-8-methoxy-3-methyl-1-oxa-7-azaspiro[4.4]non-2-ene-4,6-dione [M+K]+
PI=MoNA
DATACOLLECTOR=MoNA:VF-NPL-QEHF020448
PUBMED=N/A
SUBMITUSER=mwang87
TAGS=
SPECTRUMID=CCMSLIB00004711511
SCANS=20448
50.348904 0.288116 
50.710472 0.279453 
51.530148 1.16424 
51.726784 1.135503 
51.955971 1.076238 
52.311626 0.663731 
53.009041 0.794526 
53.038845 0.756166 
53.816177 0.715216 
53.97274 0.540203 
54.089378 1.015708 
54.386581 0.552403 
54.454742 0.559502 
55.01807 1.437625 
55.054508 12.421445 
55.312859 0.258673 
55.897446 0.570625 
56.923519 1.138739 
56.96505 67.890724 
57.070091 9.2276 
57.509338 0.305595 
57.856628 0.578325 
57.935028 9.249714 
58.016605 0.590166 
58.065357 4.156772 
59.037361 1.219662 
59.05658 0.776418 
59.584156 0.984732 
59.775368 0.675801 
59.930443 1.34116 
60.075962 0.687718 
61.010834 47.857105 
61.399246 0.605867 
61.412094 0.721893 
61.702244 0.580376 
62.018612 0.762664 
62.642464 1.033538 
62.950172 0.581126 
63.469528 0.664074 
63.654087 0.744307 
63.845585 1.07537 
64.483063 0.993704 
64.938698 0.570726 
66.39135 0.650223 
66.544357 0.976597 
66.575905 0.794683 
67.054306 11.370281 
67.594063 0.61549 
67.965904 0.662969 
68.046722 0.770504 
68.086487 1.154437 
68.383125 0.930627 
69.03363 0.393153 
69.04319 0.344641 
69.067101 1.143755 
69.069931 0.623654 
69.514206 0.619289 
70.065163 7.225662 
71.049217 0.359415 
72.048859 1.154681 
72.144218 1.090725 
72.866173 1.119205 
72.891853 1.02464 
73.186119 0.762439 
74.135536 0.846445 
74.468079 0.758158 
75.059143 0.714091 
75.945389 0.665813 
76.011864 0.305007 
76.043907 0.698186 
76.184624 0.709919 
76.598091 0.908528 
78.013992 0.908108 
78.224556 0.643773 
78.624626 0.327902 
79.021179 34.914101 
79.054176 5.049244 
79.138138 1.075942 
80.016266 0.715921 
80.942078 0.737962 
81.069908 2.210741 
81.964127 0.77473 
82.176636 0.696443 
83.048912 0.47373 
83.085503 0.775891 
84.959633 0.786936 
85.415947 0.551066 
85.447769 1.311296 
85.53894 0.594562 
86.096268 0.911197 
86.382278 0.761684 
88.860855 1.127731 
89.767723 0.606206 
89.794518 0.827929 
89.974548 1.067141 
90.20089 0.300207 
91.054176 10.672885 
93.057449 0.391393 
93.070007 1.431658 
94.064941 0.34742 
95.049088 16.015726 
95.085381 0.876407 
95.158737 1.089158 
95.819595 0.593964 
96.080643 1.706123 
96.101715 0.57616 
96.701958 0.308391 
96.921608 0.78541 
97.065308 0.292043 
97.684402 1.004723 
98.059959 1.505803 
98.572403 0.8426 
98.975365 2.759033 
99.2658 0.617223 
99.54422 0.335064 
101.68557 1.185696 
102.513519 0.522623 
103.186737 0.971227 
104.049393 0.385085 
104.445335 0.639926 
105.033493 64.108513 
105.044807 2.026997 
105.069878 1.498004 
105.963104 1.06759 
105.967064 0.307561 
106.065216 0.386406 
106.51413 1.556245 
107.049133 0.996631 
111.997231 0.685188 
113.114815 0.995125 
114.640327 1.124627 
115.206497 1.115864 
115.723991 0.79217 
116.458839 0.809291 
116.817162 0.563524 
116.984528 13.703607 
118.065063 0.516489 
118.461479 0.769176 
118.711662 0.606075 
118.979767 2.690263 
119.085472 0.89258 
119.434425 0.736166 
120.080467 0.332007 
121.064713 1.262473 
122.176064 0.842617 
122.940796 0.677421 
123.938644 1.997183 
124.847878 0.772072 
124.936028 0.682658 
125.064232 0.841412 
125.304161 0.942501 
126.620422 1.013112 
127.050705 0.685314 
127.633842 0.584637 
128.821548 1.392709 
128.964249 0.29931 
129.982285 2.013385 
130.981857 0.783926 
131.000107 14.244683 
131.02916 0.667174 
131.829315 0.719848 
131.997589 1.09763 
132.328064 0.5687 
132.994995 0.960486 
133.414291 0.683859 
133.604004 0.637587 
134.727982 0.996055 
135.04422 0.330246 
137.927902 6.394088 
137.954346 13.755666 
139.923172 1.779404 
140.984497 3.60322 
142.129791 0.335468 
143.000305 10.750687 
144.081146 0.36587 
144.99617 1.568709 
145.229858 0.847926 
146.096558 0.604287 
147.091827 0.420916 
147.992416 1.000221 
148.075241 0.401425 
148.648529 0.622076 
149.02095 13.779486 
151.38385 0.407091 
152.139954 0.971398 
152.720016 0.924844 
152.951477 33.352512 
153.057114 1.358198 
153.959167 100.0 
154.018509 0.948906 
154.902405 0.716536 
154.946747 4.394404 
155.954651 37.04747 
155.961395 6.039608 
156.067886 0.357786 
159.090591 0.331625 
161.086838 1.184006 
161.107178 0.352337 
164.431717 0.366031 
164.572601 0.802854 
165.101868 1.098436 
167.00061 1.253553 
167.085587 0.325168 
170.099976 0.913947 
170.961365 0.318878 
171.993317 0.938206 
172.735336 1.217641 
173.567108 0.710434 
173.612732 1.187122 
174.989883 8.350275 
175.987503 3.886582 
176.107162 0.639145 
176.985992 3.149616 
177.078384 1.257819 
177.345306 1.16084 
177.533081 0.575311 
178.471649 1.049066 
180.719681 0.960676 
181.651245 1.189315 
182.497009 0.354937 
183.519974 0.372155 
185.949188 9.123137 
187.714111 0.942769 
187.94455 1.23845 
188.076523 0.750352 
189.005447 0.468245 
189.718323 1.246717 
190.003601 1.368159 
190.380737 0.578782 
190.402206 0.647063 
195.148743 1.099787 
197.890366 0.35435 
201.669937 0.871434 
202.016556 0.677527 
204.887741 0.919556 
206.675369 1.170483 
208.763718 1.205128 
211.026703 1.701749 
215.046341 1.097179 
219.525681 0.98748 
219.539429 12.721811 
219.542969 10.765676 
219.573425 1.165336 
220.027832 1.01437 
222.386642 1.188136 
223.248993 0.717176 
224.899902 0.903346 
227.120163 1.122591 
228.459366 0.360178 
229.905426 0.808023 
232.172241 0.975756 
233.196579 1.291 
233.557022 0.956466 
234.675262 1.13637 
240.908997 0.365889 
243.169693 0.920407 
246.085724 0.912563 
248.961685 0.766577 
249.102921 1.218437 
254.487488 0.315967 
260.49646 0.695144 
262.288452 0.63705 
264.973663 0.685872 
275.223724 0.709608 
275.496368 0.586493 
277.510895 0.975005 
277.915558 1.1092 
280.576752 1.033449 
281.692078 0.629662 
282.463043 1.029784 
283.039642 0.939064 
283.393677 0.972934 
285.342407 0.852938 
287.034912 3.634297 
288.680847 0.717069 
289.046906 0.659105 
292.860107 0.926972 
301.699005 0.83941 
305.045654 4.623619 
329.292053 1.266833 
329.51474 0.741738 
332.02359 0.838296 
335.05127 1.180818 
349.756927 1.322447 
352.747894 0.315931 
359.220276 0.314395 
360.311401 0.355809 
384.64679 1.008607 
389.848145 0.827209 
391.716766 0.752038 
392.396118 0.695129 
397.824158 0.363586 
402.595642 1.27576 
402.967743 1.126453 
404.550446 0.679358 
411.716919 0.6336 
420.308594 0.877322 
427.781342 1.217047 
430.949768 1.273991 
431.091278 0.824558 
433.719696 0.612931 
453.214661 1.056182 
453.775909 1.202491 
462.383331 0.70779 
463.253174 0.326881 
478.902435 0.992835 
490.759766 0.695473 
497.698334 0.332804 
END IONS

