BEGIN IONS
PEPMASS=321.0
CHARGE=1+
COMPOUNDNAME=MoNA:2246799 2,2-Dichloro-N-[(1s,2s)-1,3-Dihydroxy-1-(4-Nitrophenyl)propan-2-Yl]acetamide
LIBRARYQUALITY=3
SMILES=N/A
INCHIKEY=WIIZWVCIJKGZOK-IUCAKERBSA-N
INCHI=InChI=1S/C11H12Cl2N2O5/c12-10(13)11(18)14-8(5-16)9(17)6-1-3-7(4-2-6)15(19)20/h1-4,8-10,16-17H,5H2,(H,14,18)/t8-,9-/m0/s1
MSLEVEL=2
SOURCE_INSTRUMENT=LC-ESI-QQ-LC-ESI-QQ
FILENAME=output_mgf.mgf
SEQ=*..*
IONMODE=
ORGANISM=MONA
NAME=MoNA:2246799 2,2-Dichloro-N-[(1s,2s)-1,3-Dihydroxy-1-(4-Nitrophenyl)propan-2-Yl]acetamide [M-H]-
PI=MoNA
DATACOLLECTOR=MoNA
PUBMED=N/A
SUBMITUSER=mwang87
TAGS=
SPECTRUMID=CCMSLIB00000565331
SCANS=2583
35.1 19.117647 
42.3 7.983193 
46.1 34.033613 
47.0 5.042017 
55.5 0.840336 
59.3 100.0 
65.8 0.840336 
70.8 2.10084 
78.3 8.193277 
79.0 37.605042 
80.8 0.840336 
82.8 19.537815 
83.9 2.731092 
85.1 0.840336 
92.2 2.731092 
92.9 6.092437 
94.9 1.470588 
96.9 34.663866 
99.0 15.966387 
105.0 3.571429 
106.0 15.756303 
107.4 1.05042 
115.1 1.05042 
117.0 2.521008 
117.7 1.260504 
118.3 2.310924 
119.1 7.773109 
121.2 98.109244 
122.5 4.831933 
126.8 1.05042 
131.3 1.890756 
135.2 2.521008 
136.4 0.840336 
143.5 0.630252 
145.2 1.05042 
147.3 1.05042 
147.8 3.361345 
151.3 26.680672 
152.2 10.504202 
158.7 0.630252 
161.3 1.680672 
161.9 1.05042 
174.2 1.05042 
261.4 3.571429 
END IONS

