BEGIN IONS
PEPMASS=141.006
CHARGE=1+
COMPOUNDNAME=CYCLOSERINE
LIBRARYQUALITY=3
SMILES=N/A
INCHIKEY=DYDCUQKUCUHJBH-UWTATZPHSA-N
INCHI=InChI=1S/C3H6N2O2/c4-2-1-7-5-3(2)6/h2H,1,4H2,(H,5,6)/t2-/m1/s1
MSLEVEL=2
SOURCE_INSTRUMENT=N/A-ESI-QFT
FILENAME=library_mgf.mgf
SEQ=*..*
IONMODE=positive
ORGANISM=MONA
NAME=CYCLOSERINE [M+K]+
PI=MoNA
DATACOLLECTOR=MoNA:VF-NPL-QEHF027820
PUBMED=N/A
SUBMITUSER=mwang87
TAGS=
SPECTRUMID=CCMSLIB00004721401
SCANS=27820
50.139717 0.047481 
50.349426 0.043589 
50.537987 0.049929 
50.722481 0.04222 
51.700836 0.048412 
52.296864 0.0442 
52.525826 0.045206 
52.754326 0.048104 
53.836735 0.04452 
53.864567 0.06359 
54.030445 0.04881 
54.20253 0.050893 
54.387917 0.046453 
55.029362 1.097494 
55.054497 0.690469 
55.150906 0.053494 
56.049751 3.416609 
56.142933 0.056556 
56.204494 0.056635 
56.96505 0.104838 
57.070168 0.061107 
57.0728 0.056747 
57.437393 0.050395 
58.028988 0.442599 
58.065353 0.475798 
58.304771 0.05436 
59.174446 0.048981 
59.190044 0.050447 
59.234123 0.057769 
59.852364 0.055416 
60.044621 0.111711 
60.609306 0.051126 
60.957878 0.684884 
60.984459 0.155648 
61.010857 3.472416 
62.018654 15.417795 
62.739353 0.051549 
62.990089 1.322029 
63.02198 0.33968 
63.997921 0.110824 
64.014366 1.638567 
64.59977 0.050274 
65.078102 0.054782 
65.779228 0.047857 
67.029198 0.11262 
67.822105 0.066525 
68.049644 0.119489 
69.044777 0.70077 
69.069908 1.207398 
69.371719 0.046948 
69.554283 0.054667 
69.989594 0.660306 
70.013245 0.051135 
70.02877 0.536058 
70.065117 0.276775 
70.195412 0.055523 
71.024132 0.185597 
71.036583 1.978488 
71.483047 0.130443 
71.988167 0.046893 
72.044357 0.110833 
72.056778 0.064259 
72.621887 0.049733 
72.693436 0.053857 
73.03968 0.486965 
74.034164 0.057987 
74.096428 4.697165 
74.106613 0.056084 
74.565018 0.051886 
74.607277 0.048614 
75.121758 0.063511 
76.676224 0.04734 
76.780083 0.062847 
76.998283 0.222355 
77.105629 0.051 
77.996307 0.890526 
78.013367 2.873395 
78.9608 0.048341 
78.994675 6.700913 
79.021202 4.361083 
79.312355 0.051574 
79.496544 0.051457 
79.970909 0.046176 
79.992699 0.146083 
80.009041 0.049262 
80.488304 0.437174 
80.993217 0.660746 
81.017014 0.33366 
81.044678 1.179786 
81.069939 0.255411 
81.216019 0.058418 
82.052444 0.125899 
82.065056 0.887737 
83.048965 0.045754 
83.060356 38.633984 
83.08548 0.737883 
83.18325 0.061853 
84.044495 0.048081 
84.05748 0.25139 
84.063713 4.517312 
84.080788 0.728743 
84.611832 0.053248 
85.039543 0.076434 
85.046577 0.053406 
85.21785 0.047344 
86.003464 1.808516 
86.735023 0.059265 
87.001434 3.820947 
87.05529 0.125225 
87.12912 0.049897 
87.661072 0.051893 
87.951591 0.055479 
88.0 20.076372 
88.003136 0.195924 
88.50174 0.389608 
88.997841 1.211605 
89.033936 0.066859 
89.49353 0.055147 
89.998497 2.76836 
90.849098 0.052897 
91.480904 0.1411 
91.975494 0.116654 
92.479172 2.602359 
92.980904 0.052818 
93.044647 0.530254 
93.069824 0.120068 
93.477341 0.347746 
93.945976 0.11544 
94.428818 0.052453 
94.477913 0.236452 
95.008102 0.642949 
95.06028 1.681806 
95.08548 0.15429 
96.006683 0.992881 
96.044479 0.053424 
96.055611 0.429517 
96.080917 0.060302 
96.317253 0.050591 
97.005325 7.596711 
97.039658 6.145271 
97.063416 0.244276 
97.075989 0.647155 
97.101196 0.302985 
98.003128 0.286407 
98.059967 0.048111 
98.06514 0.051813 
98.071304 0.517209 
98.096489 0.210988 
98.992447 0.342907 
99.003731 0.803513 
99.055382 0.466672 
99.991013 4.016409 
100.050453 0.050779 
100.111992 0.499491 
100.486153 4.662313 
100.4916 0.083524 
100.980865 0.059119 
100.988861 0.53033 
101.03466 0.055324 
101.484589 27.223665 
101.98642 1.434487 
101.989761 0.495017 
102.149147 0.056088 
102.482552 5.511137 
102.486359 0.064276 
102.662666 0.049475 
102.978226 0.057386 
103.483162 5.439663 
104.013809 0.056353 
104.481194 0.069945 
105.287277 0.065169 
106.703934 0.053537 
107.867203 0.057113 
107.99781 6.675151 
108.001572 0.078633 
108.492928 1.408007 
108.499077 0.34402 
108.9963 40.611801 
109.039612 3.368508 
109.154518 0.048444 
109.491486 16.034605 
109.49826 3.608282 
109.5383 0.0504 
109.827446 0.047072 
109.985924 1.006433 
109.994362 10.245155 
109.99839 0.401739 
110.047417 30.437363 
110.489853 91.658905 
110.991043 5.17724 
110.994987 8.401222 
111.034866 0.067503 
111.055229 85.670876 
111.078445 0.052063 
111.487785 19.190451 
111.491806 1.072551 
111.955971 0.053736 
111.983963 0.061348 
111.988892 0.068848 
111.992851 0.341601 
112.052094 1.269112 
112.058571 16.014578 
112.062698 0.311518 
112.488434 19.695696 
112.498398 0.053231 
113.034538 0.467608 
113.059258 0.163399 
113.070717 0.320119 
113.486382 1.339594 
114.012177 0.057498 
114.066231 1.967605 
114.089035 0.129037 
115.148735 0.049858 
116.004524 1.473276 
116.499214 0.289207 
116.506516 0.067468 
116.966103 0.694329 
117.003113 16.382988 
117.007339 0.611749 
117.497795 3.984147 
117.50473 3.068463 
117.58831 0.052594 
118.001579 100.0 
118.127563 0.048844 
118.496468 3.346729 
118.503113 11.538456 
118.543739 0.590783 
118.999573 26.246084 
119.003716 1.422116 
119.112595 0.050845 
119.495132 23.071644 
119.500259 0.750705 
119.907486 0.257205 
120.000275 26.711546 
120.493034 4.702834 
120.501816 0.411826 
120.532745 0.133688 
120.998108 1.995378 
121.039558 11.236883 
121.493782 5.127125 
121.997818 0.140349 
122.043083 2.37776 
122.491493 0.177538 
122.930809 0.557305 
123.055252 2.234193 
124.010872 0.230355 
124.050934 0.066365 
124.075111 0.054473 
124.112175 0.075706 
125.009445 4.480378 
125.034554 1.046671 
125.058365 2.365965 
125.490524 0.817538 
125.511086 0.2873 
125.989319 0.121918 
126.007858 2.326856 
126.488785 0.062929 
126.502869 0.348244 
126.510437 0.055246 
127.00692 12.03378 
127.050255 0.076356 
127.176903 0.054204 
127.50827 0.724656 
128.004654 2.461266 
128.500961 0.057417 
129.005402 2.732866 
129.509537 0.244223 
130.981842 0.576762 
132.117599 0.051741 
133.340073 0.049736 
137.91803 1.758127 
138.915283 0.049084 
139.050171 33.048901 
139.086365 0.066092 
139.094696 0.235032 
139.12291 4.224117 
140.046387 1.278522 
140.053436 7.440678 
140.067947 8.630796 
140.081879 0.274564 
140.106903 2.521113 
140.117966 0.05639 
140.126114 0.279366 
140.143265 0.647489 
140.61499 0.051824 
140.941742 0.104618 
140.974472 0.056887 
141.054291 0.453794 
141.065674 1.271713 
141.071487 0.503943 
141.076965 3.353541 
141.102173 1.264555 
141.138779 0.163406 
142.06105 21.009014 
142.086319 0.844587 
142.097305 0.335651 
142.122665 21.308697 
142.158997 4.812031 
143.044785 0.184771 
143.081299 0.968521 
143.092667 0.52129 
143.118301 0.047869 
143.551926 0.058525 
146.974258 0.066768 
147.431625 0.062489 
152.94136 1.526556 
154.534592 0.057434 
154.669785 0.046492 
155.928528 2.847947 
155.954605 1.687909 
156.006714 0.054047 
156.925232 0.058431 
157.166321 0.055338 
END IONS

