BEGIN IONS
PEPMASS=251.091
CHARGE=1+
COMPOUNDNAME=Citrinin
LIBRARYQUALITY=3
SMILES=N/A
INCHIKEY=CQIUKKVOEOPUDV-IYSWYEEDSA-N
INCHI=InChI=1S/C13H14O5/c1-5-7(3)18-4-8-9(5)6(2)11(14)10(12(8)15)13(16)17/h4-5,7,15H,1-3H3,(H,16,17)/t5-,7-/m1/s1
MSLEVEL=2
SOURCE_INSTRUMENT=N/A-ESI-QFT
FILENAME=library_mgf.mgf
SEQ=*..*
IONMODE=positive
ORGANISM=MONA
NAME=Citrinin [M+H]+
PI=MoNA
DATACOLLECTOR=MoNA:VF-NPL-QEHF027289
PUBMED=N/A
SUBMITUSER=mwang87
TAGS=
SPECTRUMID=CCMSLIB00004720870
SCANS=27289
51.16449 0.002415 
51.623154 0.003748 
51.889046 0.003868 
52.068985 0.008462 
52.090317 0.002059 
52.1217 0.002687 
52.440887 0.003826 
52.542931 0.002381 
52.68169 0.007072 
53.696606 0.001566 
53.974834 0.00098 
54.36932 0.00212 
54.473694 0.006535 
54.876526 0.007082 
54.924572 0.006746 
54.938648 0.006028 
55.050934 0.002114 
55.252159 0.002909 
55.737583 0.007206 
56.04409 0.005753 
56.099689 0.006684 
56.197304 0.062823 
56.429165 0.001051 
56.554359 0.00128 
58.14402 0.008637 
58.160389 0.001198 
58.951614 0.001034 
59.0392 0.001295 
59.049297 0.025214 
59.570599 0.006815 
60.389469 0.002928 
60.457413 0.008844 
60.527237 0.007818 
60.589699 0.003507 
61.010677 0.002956 
61.882481 0.007749 
61.943314 0.006559 
62.22348 0.002228 
62.673969 0.003026 
63.904724 0.001585 
64.403923 0.002696 
64.405861 0.000986 
64.659927 0.006975 
64.883011 0.001354 
65.166 0.001106 
66.370956 0.006769 
68.482391 0.001132 
70.050674 0.001052 
70.065071 0.009083 
70.075523 0.006696 
70.327202 0.001297 
70.473404 0.004615 
71.271957 0.001301 
71.540009 0.004847 
71.906876 0.001344 
72.642509 0.007794 
73.132103 0.001151 
73.19606 0.00469 
75.154404 0.00603 
75.219292 0.004071 
75.477036 0.005628 
76.477486 0.00595 
76.533638 0.005836 
78.425491 0.001075 
79.021111 0.026213 
80.583374 0.003314 
81.1063 0.004351 
81.927177 0.001253 
83.04892 0.008929 
86.954132 0.008666 
88.070549 0.001174 
88.111855 0.001681 
90.735825 0.001265 
94.152519 0.001039 
95.085548 0.001877 
95.415817 0.001098 
96.044281 0.003527 
96.152267 0.001341 
96.732162 0.006932 
97.010345 0.003603 
97.044594 0.001339 
97.253662 0.008431 
97.857353 0.001233 
98.853317 0.001231 
100.440659 0.001097 
101.477081 0.001231 
103.041092 0.001286 
103.940323 0.004572 
104.360962 0.006723 
104.372917 0.00299 
107.085258 0.001268 
108.262924 0.001342 
109.31456 0.001276 
109.853424 0.006307 
110.029617 0.007733 
111.758324 0.006822 
111.761337 0.002085 
113.604591 0.001201 
114.788704 0.008725 
115.189796 0.005331 
115.471092 0.00402 
115.89389 0.001293 
117.442619 0.001132 
117.940262 0.003891 
119.085464 0.003214 
121.069023 0.001267 
121.087555 0.004743 
123.080536 0.005035 
123.127075 0.004075 
124.381317 0.001288 
127.122719 0.001221 
127.523659 0.007438 
129.36528 0.002118 
129.944687 0.004359 
129.984589 0.001625 
130.762909 0.002005 
131.927811 0.001317 
134.36969 0.00758 
134.613022 0.007383 
135.080978 0.002975 
135.376801 0.002091 
137.095978 0.109302 
138.665268 0.004082 
138.787216 0.005913 
138.847519 0.00875 
139.034958 0.003857 
139.656525 0.00133 
139.740082 0.001043 
140.405899 0.001111 
142.068665 0.001082 
142.950317 0.001804 
146.00737 0.008602 
146.858078 0.001704 
147.080292 0.504555 
147.257843 0.004177 
147.90686 0.001522 
148.083801 0.001381 
148.41716 0.001528 
148.962585 0.008042 
150.310699 0.003048 
152.098801 0.006207 
152.172836 0.005661 
153.433762 0.008108 
153.469162 0.00193 
153.955841 0.001174 
153.968216 0.001425 
154.968338 0.001165 
157.541016 0.007492 
161.547256 0.005507 
161.674957 0.003297 
161.809799 0.00286 
162.47403 0.001503 
163.075119 0.021696 
164.384125 0.007977 
165.090759 0.047766 
168.554749 0.007566 
169.23468 0.010623 
171.91507 0.008743 
172.224136 0.008843 
172.914429 0.001362 
173.911774 0.002722 
177.091019 0.028047 
177.710907 0.004456 
180.741562 0.005744 
183.146866 0.001198 
187.075607 0.053464 
188.909424 0.005616 
189.091095 0.001593 
189.925735 0.03904 
191.070068 0.813034 
191.922867 0.004261 
192.073151 0.060538 
194.77272 0.001428 
196.590134 0.006695 
201.258102 0.008778 
203.034515 0.04592 
203.09819 0.00873 
205.048843 0.00715 
205.085907 1.147897 
206.089294 0.094777 
206.242081 0.005138 
206.977829 0.001475 
209.080902 0.427868 
210.084091 0.00289 
215.070343 0.450318 
216.038422 0.00648 
216.073532 0.01371 
216.240448 0.00463 
216.361725 0.111932 
216.374191 0.098979 
217.845901 0.005178 
218.057022 0.015961 
221.117554 0.006683 
231.597809 0.007225 
232.105713 0.001109 
233.060181 0.12416 
233.08078 100.0 
234.000885 0.008081 
234.084061 14.341398 
235.08667 0.783512 
240.442535 0.004605 
247.814041 0.006933 
249.090591 0.009667 
249.112 0.222284 
249.981522 0.001295 
250.096527 0.001161 
250.115585 0.043608 
250.179123 0.020078 
250.216095 0.002899 
250.253265 0.001618 
251.091248 25.883907 
251.524948 0.00836 
252.094421 3.691243 
252.196152 0.002163 
252.231186 0.003284 
252.268066 0.094354 
253.084137 0.001665 
253.09639 0.239144 
255.052658 0.003708 
258.343231 0.001271 
258.418365 0.00867 
265.106567 0.320111 
END IONS

