BEGIN IONS
PEPMASS=300.084
CHARGE=1+
COMPOUNDNAME=Lotaustralin
LIBRARYQUALITY=3
SMILES=N/A
INCHIKEY=WEWBWVMTOYUPHH-GXUZYPEDSA-N
INCHI=InChI=1S/C11H19NO6/c1-3-11(2,5-12)18-10-9(16)8(15)7(14)6(4-13)17-10/h6-10,13-16H,3-4H2,1-2H3/t6-,7-,8+,9-,10+,11?/m1/s1
MSLEVEL=2
SOURCE_INSTRUMENT=N/A-ESI-QFT
FILENAME=library_mgf.mgf
SEQ=*..*
IONMODE=positive
ORGANISM=MONA
NAME=Lotaustralin [M+K]+
PI=MoNA
DATACOLLECTOR=MoNA:VF-NPL-QEHF007867
PUBMED=N/A
SUBMITUSER=mwang87
TAGS=
SPECTRUMID=CCMSLIB00004698930
SCANS=7867
50.087402 0.024249 
50.286232 0.048342 
51.037037 0.043671 
51.424347 0.046202 
51.827587 0.043243 
52.055702 0.011005 
52.266037 0.04233 
54.102489 0.036471 
54.693954 0.010935 
55.018589 0.071904 
55.05497 1.525227 
55.8946 0.007119 
56.050262 0.032429 
56.058445 0.012569 
56.081299 0.047608 
56.254845 0.051846 
56.723774 0.007255 
56.965557 0.556804 
57.034267 0.260874 
57.070633 3.667526 
57.072262 0.020374 
58.06583 0.378488 
58.074005 0.055435 
58.737 0.007949 
59.049953 0.1751 
59.284775 0.048674 
59.959602 0.055012 
60.045059 0.085933 
60.071167 0.006823 
60.398674 0.050518 
61.011353 0.397084 
61.029133 0.331033 
62.019218 0.234143 
62.060802 0.709115 
62.930645 0.06226 
67.054909 1.195951 
68.104568 0.027151 
69.034149 0.429621 
69.070541 1.559503 
69.633545 0.011007 
69.825279 0.052853 
70.065804 0.334562 
70.07386 0.014629 
70.583626 0.008389 
70.749039 0.011483 
70.857651 0.046519 
70.931084 0.028021 
71.049805 0.706496 
71.086166 1.233816 
72.045021 0.149793 
72.081383 0.187945 
73.029015 0.336183 
73.065361 1.117086 
73.631149 0.050424 
73.72184 0.037114 
74.060699 0.211087 
74.114609 0.051071 
74.760513 0.054267 
75.042313 0.04705 
76.039909 0.755719 
79.021774 0.613981 
79.054916 0.385013 
80.690102 0.036499 
81.019073 1.614336 
81.034088 0.194633 
81.070457 1.860745 
82.073822 0.034762 
82.601234 0.051351 
82.783142 0.056159 
82.846939 0.02976 
83.049706 0.214276 
83.086082 1.710473 
83.709724 0.046682 
84.04509 0.008731 
84.081177 0.027261 
84.089455 0.026139 
84.960091 0.022957 
85.028984 3.346459 
85.065376 0.290364 
85.08918 0.066993 
85.101715 0.36627 
85.59063 0.048762 
86.032471 0.018359 
86.060638 0.069265 
86.068619 0.006839 
86.096977 0.015265 
87.044571 1.195646 
88.047997 0.023508 
88.076248 0.466488 
89.060249 21.39995 
89.352776 0.035884 
89.665573 0.034162 
90.055374 0.008875 
90.06356 0.800927 
91.039497 0.034805 
91.054764 0.118642 
91.05777 0.036037 
91.075798 0.015159 
91.087288 0.045315 
92.896255 0.048024 
93.07029 1.027991 
93.806229 0.054889 
94.026756 0.757089 
94.065475 0.024921 
94.073547 0.009636 
94.877663 0.012662 
95.049576 0.14592 
95.085983 2.073615 
96.089386 0.050615 
97.028831 0.869361 
97.065163 0.261971 
97.101578 0.885869 
97.486572 0.058788 
98.060509 0.086438 
98.104919 0.01209 
98.129318 0.046894 
98.975716 1.909025 
98.984543 0.134655 
99.04454 0.214947 
99.080727 0.075004 
99.092056 0.325179 
99.188759 0.01537 
100.076019 0.402953 
101.003571 0.664503 
101.060074 0.413617 
101.096413 0.514221 
102.055397 0.01367 
102.09169 0.11862 
103.039429 0.119242 
103.075684 0.022356 
104.062691 0.037548 
104.070976 0.297149 
104.17807 0.046896 
105.070091 0.278778 
106.086617 0.093301 
106.67865 0.046506 
107.049355 0.126557 
107.070572 0.491158 
107.0858 0.712289 
108.073784 0.012832 
108.08931 0.026576 
108.258423 0.012558 
109.007111 0.062572 
109.015419 0.007985 
109.028625 0.118804 
109.065163 0.101493 
109.101425 1.479906 
110.104828 0.015161 
110.975723 0.349405 
111.044182 0.242425 
111.080566 0.11336 
111.117081 0.176723 
112.076355 0.08872 
113.059998 0.070051 
113.096291 0.011396 
114.009735 0.007073 
114.301743 0.008238 
115.039391 0.010226 
115.056259 0.017807 
115.075493 0.008116 
116.070648 0.151909 
116.274231 0.051903 
116.986092 1.720717 
117.070038 0.029744 
117.102631 0.033165 
118.086617 0.015303 
119.085701 0.253261 
119.424774 0.036471 
121.028374 0.013093 
121.064934 1.505205 
121.101395 0.960305 
122.06044 0.029796 
122.398834 0.008472 
122.563896 0.06192 
123.080292 0.14495 
123.116875 0.396057 
123.6688 0.007705 
124.990761 0.045598 
124.999809 0.022178 
125.096138 0.0576 
127.038979 0.7166 
127.075539 0.049293 
127.112213 0.009311 
127.183014 0.048694 
128.985977 0.758214 
129.054764 0.198459 
129.122513 0.046523 
130.696564 0.011842 
131.007568 0.008528 
131.04921 0.018682 
131.070328 0.072633 
131.085541 0.086908 
131.504593 0.031865 
132.101425 0.02245 
133.064926 0.043361 
133.085907 8.851208 
133.101135 0.432706 
133.822403 0.060108 
134.08934 0.385899 
134.104553 0.014868 
134.978607 1.385671 
134.996353 1.312696 
135.002823 1.250538 
135.043854 0.053078 
135.08049 0.094256 
135.116806 0.407567 
136.006821 0.062762 
137.011688 0.165807 
137.023117 0.08849 
137.059738 0.778778 
137.096054 0.085189 
137.132401 0.105853 
138.018021 0.329577 
138.518738 0.109267 
138.962067 0.006986 
139.016434 0.444568 
139.03894 0.010609 
139.074753 0.009687 
139.111465 0.076669 
140.070541 0.09747 
140.986145 0.051653 
140.99646 0.027557 
141.127029 0.144891 
143.00145 1.552246 
143.010559 0.074043 
143.070038 0.009282 
145.0495 0.281943 
145.065247 0.115885 
145.101013 0.163487 
146.996353 1.510313 
147.032684 0.048852 
147.11673 0.322718 
148.120209 0.008306 
149.012054 0.116742 
149.059769 0.044574 
149.095993 0.045986 
149.132401 0.078953 
149.954025 0.416631 
150.950958 2.033154 
151.075317 0.030516 
151.09639 0.176134 
151.111725 0.081221 
152.989624 2.236497 
153.018234 0.086597 
153.054642 0.033689 
154.085815 0.007875 
155.022476 0.062976 
155.142929 0.15275 
157.064392 0.013733 
157.101196 0.008302 
158.996277 1.760756 
159.080566 0.147549 
159.117096 0.047041 
161.011993 2.083726 
161.132233 0.187784 
162.054291 0.082392 
162.467148 0.055981 
162.991699 0.009399 
163.07518 0.00872 
163.111725 0.02921 
163.148026 0.029297 
163.958664 0.015826 
164.104553 0.064809 
165.054886 0.00828 
165.126953 0.008581 
165.937912 0.012693 
166.058304 0.007637 
166.757843 0.014779 
167.004807 0.028195 
167.107193 0.026502 
167.964706 0.232205 
168.431839 0.027729 
168.961502 0.974772 
168.982681 0.059884 
169.064606 0.008204 
169.096817 0.025077 
169.977798 0.027218 
170.96286 0.008378 
170.996582 1.292703 
171.080185 0.009022 
173.065125 0.064053 
173.132629 0.030726 
173.585724 0.046791 
174.005112 0.046625 
175.027374 0.129068 
175.075241 0.141931 
175.148087 0.075267 
175.958771 0.237878 
176.328812 0.012919 
177.007004 1.465053 
177.111969 1.121665 
178.11998 0.046194 
178.687149 0.013043 
179.022705 0.068193 
179.046341 0.350795 
179.070221 0.016864 
179.107162 0.008292 
179.142685 0.007834 
179.670731 0.050133 
180.96138 0.018748 
181.121811 0.00974 
182.020844 0.008873 
183.080017 0.011872 
183.174286 0.156597 
183.948944 0.088178 
185.042175 0.031929 
185.132263 0.013612 
187.075333 0.755557 
187.147903 0.031657 
187.9599 0.040453 
189.006821 0.414262 
189.090607 0.009047 
189.163788 0.112934 
190.091568 0.057981 
190.129745 0.0154 
190.940964 0.059361 
192.604813 0.007393 
192.961914 0.227242 
193.969681 0.118936 
195.032501 0.015889 
195.122787 0.132512 
197.044342 1.940151 
197.059952 0.010525 
197.131927 0.007805 
198.017807 0.048094 
199.073349 0.174014 
201.006882 0.314542 
201.043259 0.465031 
201.090057 0.007251 
205.086227 0.035563 
206.977844 0.093802 
207.986374 0.015399 
208.176575 0.013515 
208.674561 0.007745 
208.97525 0.010256 
208.985687 0.096736 
209.075226 0.043454 
209.983093 0.011055 
210.010559 1.241663 
210.185364 0.052051 
210.712799 0.012374 
210.971832 0.01275 
211.075729 0.0621 
212.081787 0.008841 
212.992752 0.34885 
213.043274 0.028186 
213.05545 0.012499 
214.062576 0.012418 
214.544449 0.048722 
215.058365 0.052577 
215.127502 0.440732 
215.135696 0.77483 
217.085953 0.040088 
217.121109 0.013358 
219.017517 2.65906 
219.852997 0.047058 
220.167297 0.120418 
221.49881 0.014706 
222.972504 0.078484 
223.02774 0.133522 
223.074982 0.052187 
223.979462 0.100502 
224.025787 0.053772 
226.062225 0.011788 
227.070175 0.132753 
227.200027 0.017023 
228.021378 0.153992 
228.078552 0.01616 
228.671814 0.06791 
229.049057 0.008178 
229.086151 0.138971 
229.172272 0.424022 
229.670624 0.139107 
229.924454 0.015575 
232.904068 0.027326 
234.075745 0.02408 
234.898926 2.161313 
237.027939 4.264705 
237.041656 0.142995 
237.676971 0.033445 
238.061691 0.016449 
238.142776 0.013411 
238.178055 0.376964 
238.216537 0.010368 
238.675293 0.167205 
238.950592 0.558027 
238.981796 0.100379 
239.070312 0.12061 
239.148758 0.128778 
239.177353 0.056789 
239.778854 0.051262 
240.07782 0.041417 
240.231934 46.347054 
241.037704 6.803248 
241.085541 0.566939 
241.235428 2.263166 
242.040085 0.450048 
242.055313 0.070768 
242.093353 0.305329 
242.99646 0.014076 
243.064713 0.082116 
243.100449 0.009288 
245.226486 0.02671 
248.878677 0.030982 
250.89447 0.00994 
250.972565 0.014527 
252.030792 0.055132 
252.91095 0.00968 
253.04834 0.010037 
253.086044 0.028959 
253.194214 0.009079 
254.05658 0.031043 
254.247803 0.02316 
255.017105 0.047256 
255.038498 0.011384 
255.06488 0.152927 
255.101318 0.325646 
255.210876 0.011313 
256.072418 0.347434 
256.107117 0.023719 
256.121796 0.107567 
256.227661 0.009188 
256.994019 0.067175 
257.044861 0.012793 
257.080627 1.066376 
258.051361 0.012665 
258.087585 0.207152 
258.899231 0.012084 
259.048279 2.234814 
264.19458 0.022132 
266.057587 0.016448 
266.172333 0.546502 
266.888702 0.091365 
266.999329 0.084353 
267.064636 0.011042 
267.100525 0.011138 
268.073029 0.09993 
268.109924 0.032982 
268.263214 3.083871 
268.978424 0.348665 
268.994629 0.061186 
269.044128 0.079177 
269.080353 0.374567 
269.135681 0.179773 
269.266663 0.418147 
269.978699 0.034502 
270.052704 0.018578 
270.087219 0.135147 
270.993713 0.02753 
271.059784 0.216833 
271.096069 0.459585 
272.102905 0.008545 
273.039337 0.01593 
273.07547 0.073964 
273.11203 0.075524 
273.324097 0.055363 
274.914215 0.012008 
276.909485 1.509837 
277.909821 0.00789 
281.051178 0.04593 
282.05072 0.050752 
282.206696 0.013946 
282.278564 0.557513 
282.993744 0.592957 
283.029907 0.038019 
283.059723 0.262605 
283.095795 0.609723 
283.174744 0.289646 
283.993652 0.08037 
284.030762 0.373754 
284.067474 1.09709 
284.103271 0.63306 
284.152496 0.190345 
284.180481 0.010352 
284.992157 0.095211 
285.009308 0.983088 
285.026886 0.522861 
285.075165 1.980956 
285.108795 0.012425 
286.009491 0.162652 
286.028656 0.009322 
286.047119 0.137935 
286.081696 0.443575 
286.928375 0.077315 
287.006958 0.045482 
287.64386 0.030765 
289.729828 0.05783 
296.541168 0.056453 
298.082794 0.011266 
298.095612 0.080665 
298.122009 0.050235 
298.164215 0.035981 
298.200226 0.019713 
298.283173 0.019664 
298.309326 0.032652 
298.346527 10.095189 
299.061127 1.75129 
299.091187 3.011097 
299.109985 1.574989 
299.127258 0.457816 
299.145752 0.039071 
299.180573 0.071467 
299.218903 100.0 
299.349823 2.9496 
300.0625 2.585991 
300.098145 0.824432 
300.1427 0.091577 
300.222229 17.26494 
300.289032 1.233417 
300.325531 0.675718 
300.353546 0.116779 
301.035095 0.067811 
301.05722 2.231478 
301.071045 0.410768 
301.107056 0.422101 
301.125397 64.215866 
301.161438 4.533997 
301.178558 0.016864 
301.197235 2.635637 
301.226349 1.967061 
301.288116 0.196779 
301.953705 0.213614 
302.059143 0.192359 
302.075958 0.017921 
302.12674 4.067345 
302.163513 0.31195 
302.194977 0.010693 
302.248138 0.017039 
302.266968 0.011219 
302.284607 0.213284 
302.304535 0.039953 
303.019806 0.114901 
303.056976 0.009347 
304.021973 0.009461 
304.810333 0.057187 
304.94104 0.113835 
310.843628 0.010285 
312.254974 0.063951 
312.838959 0.236669 
318.920715 0.010844 
319.963959 0.062794 
END IONS

