BEGIN IONS
PEPMASS=924.496
CHARGE=1+
COMPOUNDNAME=MoNA:688786 Nystatin
LIBRARYQUALITY=3
SMILES=N/A
INCHIKEY=VQOXZBDYSJBXMA-NQTDYLQESA-N
INCHI=InChI=1S/C47H75NO17/c1-27-17-15-13-11-9-7-5-6-8-10-12-14-16-18-34(64-46-44(58)41(48)43(57)30(4)63-46)24-38-40(45(59)60)37(54)26-47(61,65-38)25-36(53)35(52)20-19-31(49)21-32(50)22-33(51)23-39(55)62-29(3)28(2)42(27)56/h5-6,8,10-18,27-38,40-44,46,49-54,56-58,61H,7,9,19-26,48H2,1-4H3,(H,59,60)/b6-5+,10-8+,13-11+,14-12+,17-15+,18-16+/t27-,28-,29-,30+,31+,32+,33+,34-,35+,36+,37-,38-,40+,41-,42+,43+,44-,46-,47+/m0/s1
MSLEVEL=2
SOURCE_INSTRUMENT=LC-ESI-QFT-LC-ESI-QFT
FILENAME=output_mgf.mgf
SEQ=*..*
IONMODE=
ORGANISM=MONA
NAME=MoNA:688786 Nystatin [M-H]-
PI=MoNA
DATACOLLECTOR=MoNA
PUBMED=N/A
SUBMITUSER=mwang87
TAGS=
SPECTRUMID=CCMSLIB00000566338
SCANS=3590
127.0403 4.093624 
129.071 23.117426 
130.0424 12.235059 
131.0502 84.954208 
132.0582 6.907347 
133.066 15.906959 
133.1022 1.184708 
134.0374 2.563765 
135.0454 11.311258 
135.0816 17.644637 
137.0608 91.239289 
138.056 2.678551 
139.0402 9.622815 
139.0764 15.417668 
141.0556 14.096347 
141.0712 1.807083 
143.0502 16.194267 
143.0866 6.687499 
145.0658 39.064184 
145.1023 9.896365 
146.0613 1.759972 
146.0738 3.300781 
147.0452 32.390191 
147.0815 34.659084 
148.0531 12.19951 
149.0607 60.527491 
150.0687 3.774441 
151.0766 2.560379 
153.092 2.900668 
155.0868 6.617266 
157.0659 11.251974 
158.0735 7.282464 
159.0451 1.515993 
159.0818 7.091718 
159.118 2.458127 
160.0532 2.41116 
161.0609 6.902989 
161.0971 6.586039 
162.0926 2.505741 
163.0764 70.039266 
165.0558 14.21171 
165.0919 24.368693 
167.071 2.520868 
169.0659 3.180304 
169.1021 2.625102 
171.0814 9.458938 
171.1179 11.545405 
173.0607 9.414601 
173.0969 100.0 
175.0765 2.569887 
181.0658 1.407546 
181.1024 3.273588 
183.0814 7.546577 
184.0897 3.679464 
185.0967 2.115893 
185.1334 2.385084 
186.1045 1.447489 
187.0761 2.121764 
187.1129 1.387088 
189.0922 10.512616 
191.0716 8.001797 
195.0812 2.460612 
195.1175 2.944501 
197.0972 15.895686 
197.1336 7.468096 
198.1051 14.646831 
199.0767 1.726981 
199.1128 31.078631 
209.0813 1.612483 
211.0765 2.950768 
213.0918 6.552975 
213.1287 3.284177 
227.0924 1.419467 
239.1077 1.541061 
239.1441 20.586689 
257.1909 2.735674 
265.1961 3.665742 
267.175 6.576386 
285.187 1.618642 
293.1905 18.21259 
307.2054 7.161843 
333.2221 2.750693 
377.2482 6.776713 
END IONS

