BEGIN IONS
PEPMASS=449.375
CHARGE=1+
COMPOUNDNAME=(1R,3aR,5aR,5bR,9S,11aR)-3a,5a,5b,8,8,11a-hexamethyl-1-prop-1-en-2-yl-1,2,3,4,5,6,7,7a,9,10,11,11b,12,13,13a,13b-hexadecahydrocyclopenta[a]chrysen-9-ol
LIBRARYQUALITY=3
SMILES=N/A
INCHIKEY=MQYXUWHLBZFQQO-KIIHVYTKSA-N
INCHI=InChI=1S/C30H50O/c1-19(2)20-11-14-27(5)17-18-29(7)21(25(20)27)9-10-23-28(6)15-13-24(31)26(3,4)22(28)12-16-30(23,29)8/h20-25,31H,1,9-18H2,2-8H3/t20-,21?,22?,23?,24-,25?,27+,28-,29+,30+/m0/s1
MSLEVEL=2
SOURCE_INSTRUMENT=N/A-ESI-QFT
FILENAME=library_mgf.mgf
SEQ=*..*
IONMODE=positive
ORGANISM=MONA
NAME=(1R,3aR,5aR,5bR,9S,11aR)-3a,5a,5b,8,8,11a-hexamethyl-1-prop-1-en-2-yl-1,2,3,4,5,6,7,7a,9,10,11,11b,12,13,13a,13b-hexadecahydrocyclopenta[a]chrysen-9-ol [M+Na]+
PI=MoNA
DATACOLLECTOR=MoNA:VF-NPL-QEHF009280
PUBMED=N/A
SUBMITUSER=mwang87
TAGS=
SPECTRUMID=CCMSLIB00004700343
SCANS=9280
51.325222 0.236685 
52.537365 0.208346 
53.133755 0.22446 
55.055027 2.996659 
56.050346 0.527004 
56.998661 0.2069 
57.03429 0.563429 
57.070705 16.095947 
57.734852 0.215611 
58.06599 0.714327 
59.049965 6.967719 
59.061249 0.491324 
59.91235 0.214318 
61.011456 20.332464 
62.019268 23.085985 
62.52467 0.201008 
62.540577 0.207287 
62.752804 0.220711 
62.980968 0.252312 
62.982506 6.548511 
63.007229 0.591797 
63.022686 0.23082 
63.027115 0.239869 
63.998528 0.731383 
64.015053 1.06191 
64.824272 0.240888 
66.110588 0.278986 
66.122696 0.223837 
66.761673 0.228355 
67.055061 4.385684 
68.48243 0.209365 
69.034241 0.450705 
69.070656 6.217852 
70.065887 2.511448 
70.168709 0.199025 
71.049911 1.894259 
71.086266 12.722504 
71.929947 0.2292 
72.036461 0.198981 
72.045212 0.281797 
72.081589 0.22667 
72.089912 0.249533 
72.784859 0.237159 
73.029175 1.295662 
73.047562 9.072962 
73.065544 2.05126 
74.047173 0.791812 
74.050926 0.42323 
74.060814 0.233113 
74.622917 0.23168 
75.027039 1.058178 
75.044502 1.941029 
78.013939 0.224022 
78.956444 0.592029 
79.021919 34.217819 
79.054909 1.038271 
79.625427 0.264756 
80.335007 0.236631 
81.017731 0.353468 
81.070541 10.171561 
82.073723 0.223458 
83.049805 0.554966 
83.086197 5.278075 
83.088669 0.214507 
83.938278 0.24285 
85.028984 0.291294 
85.065453 2.253225 
85.101845 7.997852 
86.060837 0.449515 
87.044678 27.537745 
88.048065 1.036056 
88.076447 0.526541 
89.057159 0.358482 
89.06031 40.223564 
89.383339 0.211685 
90.06366 1.768529 
90.948608 0.700551 
91.054932 1.1217 
91.057953 31.010302 
92.057518 3.672495 
92.061203 1.926889 
92.983154 2.159886 
93.037376 4.794022 
93.054779 4.850831 
93.07045 4.506838 
95.049774 0.2558 
95.086067 11.433162 
97.065224 1.998596 
97.101669 4.124789 
98.096954 21.690554 
99.044525 2.256244 
99.08094 0.226694 
99.100327 0.269335 
100.075996 0.229769 
101.003654 6.896678 
101.060188 2.300524 
103.039482 1.178004 
103.075783 1.349121 
105.0373 2.509042 
105.070213 1.298978 
105.073814 0.907525 
106.050423 0.372606 
106.998863 0.543002 
107.05294 1.228326 
107.070602 0.732593 
107.086006 5.803664 
107.807892 0.202733 
108.560471 0.205556 
109.064964 0.517246 
109.101578 7.322888 
110.993706 2.299507 
111.04451 1.778809 
111.080971 1.158185 
111.117287 1.032852 
111.242554 0.233182 
112.075706 0.234403 
112.677078 0.238141 
112.930115 0.337814 
113.060181 0.685015 
114.091827 0.630334 
114.930504 0.276122 
115.817612 0.215655 
117.054947 7.611057 
117.091438 0.234448 
118.947533 0.219939 
119.085739 2.692629 
121.065102 2.208623 
121.086113 0.267186 
121.101479 5.292905 
123.080765 1.480641 
123.091972 1.222969 
123.117081 5.173819 
124.964539 0.72447 
125.096458 1.50836 
125.936111 2.612258 
126.448853 0.230051 
126.943924 2.032532 
128.02002 0.997549 
129.055161 0.296693 
129.956497 0.233137 
130.159241 1.116826 
130.940475 0.246103 
131.070465 6.660557 
131.956787 0.552674 
132.175171 0.208106 
133.064835 0.597809 
133.086075 12.537249 
133.101318 3.876497 
133.128021 0.253209 
134.956329 0.94486 
135.08075 2.827555 
135.11705 4.043507 
137.060028 0.373467 
137.096146 0.828014 
137.132706 1.67444 
138.127838 4.015061 
138.970459 0.273801 
139.050583 0.265533 
139.075317 0.290414 
139.111618 0.29117 
140.949921 0.468226 
140.959335 5.741517 
141.113449 0.938381 
141.128418 0.225717 
142.938629 0.830731 
143.070297 0.310125 
143.106781 1.405401 
144.014816 0.223019 
145.101517 0.973124 
146.975479 0.478536 
147.064163 0.276123 
147.080399 0.464994 
147.116959 2.419955 
148.925598 5.188025 
148.956055 0.375445 
148.972015 8.06987 
149.023575 2.282669 
149.044983 1.040703 
149.059906 2.204659 
149.096298 0.979675 
149.132523 1.942082 
149.954605 1.417784 
150.027023 0.281085 
150.951172 20.76778 
150.968109 0.326482 
151.04158 0.22102 
151.075516 0.521091 
151.096451 0.497778 
151.11174 1.209145 
152.922134 3.555002 
152.966858 0.788186 
155.070404 3.347426 
155.607101 0.218958 
156.138458 77.032097 
156.928024 0.209816 
156.936264 0.310978 
156.954239 6.181428 
156.998779 0.515665 
157.101501 0.358965 
157.141739 5.641293 
159.116898 1.397504 
160.858429 0.206697 
161.132584 1.330213 
161.890427 0.214183 
162.951599 0.879885 
163.148239 2.24743 
164.900421 0.373402 
164.9207 19.295244 
164.967041 4.809048 
165.091354 0.325672 
165.921356 0.576152 
165.938477 0.456592 
166.916702 0.406732 
166.928406 1.391678 
166.967239 0.240574 
166.982391 1.522491 
167.055634 6.221111 
167.954132 0.627542 
168.054932 1.244818 
168.138519 4.464783 
168.896515 2.392032 
168.917511 0.766991 
168.961823 9.341088 
168.983017 0.242074 
169.052368 3.373473 
170.952286 0.750218 
171.137772 0.250903 
172.911026 0.383533 
172.931656 10.37748 
172.993698 0.503846 
173.080429 0.284227 
173.096619 0.211258 
174.148941 1.363057 
174.887848 0.229421 
174.926788 0.201246 
175.096985 2.935218 
175.148315 0.986499 
176.004807 1.33322 
176.9673 1.479171 
177.112244 0.245676 
177.163712 0.987754 
178.948334 0.416577 
178.980957 0.212462 
179.106659 0.469715 
179.946915 1.250837 
180.89447 2.531921 
180.944092 14.317761 
180.952957 0.327677 
180.961868 1.180574 
182.07016 0.293425 
182.685745 0.2573 
182.915298 2.061378 
182.923538 0.285922 
182.944717 1.14781 
182.977493 6.167336 
183.931625 0.512645 
183.949738 0.421448 
184.489014 0.243076 
184.939392 3.568041 
185.153885 32.089725 
185.963547 1.003236 
186.15744 3.426228 
186.927933 4.063222 
186.9366 0.29972 
186.947418 0.244844 
188.905548 0.82401 
188.925186 0.243237 
188.952988 0.818361 
189.112198 0.52513 
189.16394 1.753386 
190.964722 0.239434 
191.17926 0.418907 
192.943939 0.235851 
192.961823 31.826103 
193.963791 1.580355 
194.958237 1.395355 
194.978394 0.325679 
196.169617 0.556518 
196.93898 2.690083 
196.959274 0.467064 
197.892975 2.26141 
197.947189 2.135231 
197.957443 1.077466 
198.900543 8.740143 
198.909927 1.603064 
198.95462 12.873621 
199.148468 0.347201 
200.896027 0.264758 
201.164902 0.285582 
201.942551 0.323439 
202.671539 0.225023 
202.924377 1.183209 
202.942047 0.457848 
203.069717 0.267301 
203.179413 0.542186 
204.913162 2.97799 
204.962357 16.641834 
205.123199 0.283991 
205.962616 7.170138 
205.987549 0.469778 
206.95903 2.810307 
206.9776 3.062579 
206.98999 0.24528 
207.174561 3.536891 
208.976578 0.290585 
209.879486 0.239748 
209.952225 0.576941 
209.964584 0.446893 
210.185394 4.848863 
210.901047 0.583434 
210.938538 0.36399 
210.954498 2.207015 
210.972427 19.801846 
211.908218 1.837837 
211.91925 2.331798 
211.974411 0.793472 
212.164993 1.75938 
212.916199 12.084392 
212.933685 12.834413 
212.970306 2.47759 
212.993652 0.266313 
213.600449 3.195594 
213.604141 3.197827 
213.613647 2.560087 
213.623322 1.651296 
213.831161 0.239089 
213.906998 0.380061 
214.862289 0.779693 
214.868469 0.666951 
214.916153 1.435239 
214.968918 0.463501 
215.903183 2.014308 
215.957352 0.651532 
216.911026 2.236681 
219.174438 7.968461 
219.919678 0.285451 
220.108994 0.336141 
220.178467 0.249709 
220.88739 0.834314 
221.973618 0.247646 
222.899261 0.846018 
224.935242 1.085267 
224.987869 1.746447 
225.04274 1.458539 
225.934875 0.730458 
226.042938 0.425618 
226.931747 19.983067 
227.03981 1.08335 
227.070343 0.272324 
227.127701 0.352311 
227.211685 0.281432 
227.93364 0.270202 
228.911575 0.618575 
228.929245 8.073465 
228.965164 10.047876 
229.896469 1.599337 
229.919098 2.653456 
229.930267 0.33721 
230.890396 1.228547 
230.926544 3.027107 
230.944534 8.419256 
230.966187 0.429669 
231.915802 3.407132 
232.882553 1.043215 
232.926941 2.062826 
232.94516 0.611369 
233.891922 1.242048 
234.912842 0.357816 
236.910339 0.240287 
238.914566 0.248055 
238.968216 0.542762 
240.891312 0.688021 
240.909851 4.093226 
240.92926 0.773627 
242.890839 0.26192 
242.926468 2.498954 
242.94487 1.710535 
243.891602 0.910938 
243.909668 0.71898 
243.93483 4.593304 
244.88826 20.883615 
244.905991 25.198259 
244.923248 4.501715 
244.943436 1.919556 
244.959671 1.459475 
245.889404 0.836267 
245.908005 1.00242 
245.942993 0.519005 
246.884598 2.727828 
246.902008 1.710718 
246.939423 13.158578 
247.906876 0.819126 
248.922028 0.323254 
248.936371 2.328556 
250.894089 6.49245 
251.89444 0.792178 
252.893021 0.286648 
254.860855 1.920109 
257.913055 0.347232 
257.955719 0.335951 
258.903595 1.406189 
258.921173 2.26675 
258.942383 0.796165 
258.958557 4.312525 
259.114624 0.519527 
260.057892 0.69589 
260.854401 0.475383 
260.900848 0.536444 
260.916656 0.262448 
260.938171 0.707839 
260.954895 3.565765 
261.906372 0.320034 
261.920258 2.532761 
261.945282 0.325183 
262.872192 3.469756 
262.899445 1.575712 
262.916382 18.435606 
262.935242 7.505118 
262.95105 0.365089 
263.901184 1.146882 
263.916687 0.292742 
264.894989 0.574974 
264.909515 5.829905 
265.991089 1.239724 
266.910217 0.510994 
268.887878 0.225406 
268.904266 1.598917 
270.865601 0.238341 
270.902527 0.244204 
271.478455 0.26284 
274.894531 1.115588 
274.916046 0.749262 
275.902435 8.513755 
276.823517 0.257675 
276.860809 0.414676 
276.876892 0.777403 
276.904755 0.392539 
276.931854 1.914276 
276.952057 0.305533 
277.901428 0.384984 
277.916992 2.269969 
278.90863 0.665993 
279.916626 1.872285 
280.925079 0.414154 
280.949677 0.909584 
281.039917 1.829346 
281.912079 7.970587 
282.919617 3.928906 
283.263672 2.834974 
283.406036 0.223455 
283.892212 0.42354 
284.920471 0.863609 
285.075836 42.55814 
286.079254 100.0 
286.861359 0.347558 
286.896271 0.601557 
286.914764 1.871884 
287.055054 1.003227 
287.081543 12.204007 
287.917236 0.270636 
288.084412 0.299439 
288.909821 3.558364 
290.874207 0.412414 
290.892731 0.96428 
290.910339 1.413027 
290.926239 1.757877 
291.880615 0.277875 
291.89679 2.148644 
292.887054 1.416944 
292.906769 3.300937 
293.911957 0.31403 
294.868378 0.335796 
294.902252 5.447767 
295.875214 2.00262 
295.895081 0.311693 
295.928375 5.634471 
296.881287 0.456373 
297.889618 0.268319 
298.914398 0.32561 
299.055206 2.405475 
299.274353 0.248024 
300.878204 0.274486 
302.853546 0.223481 
304.890015 0.264097 
304.907104 0.242255 
304.92627 0.281051 
306.830261 0.311905 
306.868835 0.265745 
306.903748 1.343314 
306.920135 15.965983 
306.947754 0.499369 
307.9039 1.579554 
307.922363 2.417556 
308.848175 0.308576 
308.920135 7.003533 
309.872314 0.254654 
309.893097 0.271988 
309.920471 4.902433 
309.944183 0.832222 
310.897308 0.853904 
310.916412 15.365359 
311.868591 2.828834 
311.91806 1.668557 
312.876984 5.611404 
312.915405 1.771002 
313.877441 5.117595 
313.921265 0.832053 
314.874603 2.312814 
316.925812 1.611284 
317.823639 0.377735 
319.836823 0.872647 
320.9039 0.249887 
322.916779 0.666561 
322.936493 0.888343 
324.860168 0.397752 
324.896912 0.311324 
324.930786 3.254393 
324.961182 1.30109 
325.933533 0.411144 
326.892242 1.178608 
326.930756 1.31822 
327.863098 0.950556 
327.93158 1.234632 
328.92746 4.571275 
329.065674 2.504228 
329.879333 0.314015 
329.928802 0.487924 
330.868866 1.249029 
330.925446 0.756788 
331.894867 1.38944 
334.843597 0.852213 
335.167084 0.373109 
336.839264 6.111033 
336.878571 0.76158 
336.959778 0.379668 
337.101715 0.423478 
337.181519 1.792438 
337.878387 0.699316 
337.921295 1.635824 
338.876831 1.055908 
338.91095 0.290285 
339.1987 0.921175 
341.915527 1.061521 
342.887207 0.402451 
342.942017 0.28812 
344.976349 5.742002 
344.996216 0.288349 
345.976166 1.239052 
345.996918 0.420828 
348.843811 2.162118 
349.847046 2.171749 
351.847015 1.541765 
351.900024 1.607186 
352.898804 0.269788 
353.064636 0.457616 
353.842804 0.93105 
354.849731 0.249872 
354.887695 3.784131 
355.193176 1.49218 
355.888397 6.526462 
355.930511 2.917184 
356.848816 2.479967 
356.885437 3.036015 
356.933472 0.418819 
356.977264 0.393153 
357.208862 5.410932 
358.210907 0.513298 
358.843536 56.313583 
359.845947 4.300427 
360.027802 0.409074 
360.839172 63.175064 
360.895905 0.380738 
361.02655 2.761537 
362.026459 5.527111 
363.025055 1.514364 
363.828094 0.300082 
364.020477 0.258544 
364.833862 1.055445 
367.858826 1.488259 
369.298126 0.247237 
369.836761 0.285935 
369.858948 0.356271 
371.162903 4.95519 
372.16568 0.635044 
373.906769 2.243048 
374.855927 3.027215 
374.894562 0.278802 
375.219299 1.881212 
375.853638 0.391728 
376.854553 16.953585 
377.841034 0.258584 
378.849792 18.56068 
381.837006 3.031028 
382.840668 0.280232 
382.865845 0.499495 
383.293945 0.908497 
387.867645 1.040118 
387.916382 0.379951 
388.833893 14.209393 
389.182495 0.27845 
389.834869 4.097867 
390.852631 0.552171 
390.872253 0.668871 
391.857849 1.079113 
391.898224 1.547824 
392.866089 2.497093 
393.20929 0.443243 
401.304901 7.494293 
402.308655 0.378344 
402.335876 0.533656 
402.965027 0.31111 
405.09613 0.299886 
406.844177 62.911949 
407.845612 18.186405 
408.845306 3.971922 
409.867157 0.265312 
417.212524 6.155584 
417.85675 4.825915 
418.215088 1.246433 
418.995544 2.2372 
419.852234 12.133717 
420.860443 4.777072 
421.861816 0.947268 
422.880035 0.669993 
424.855255 6.402044 
425.855621 0.27011 
433.089081 0.709287 
433.869507 3.276107 
434.831879 0.382462 
435.865997 0.575479 
436.768707 0.307339 
437.863007 2.631113 
439.756836 0.33069 
447.293457 0.248765 
447.350189 0.287241 
447.847168 5.602354 
448.262421 1.384065 
448.296234 4.317413 
448.346924 0.695208 
448.384979 1.313527 
448.849182 1.232103 
449.113464 0.598226 
449.201416 0.327021 
449.288452 30.543928 
449.342316 1.619576 
450.291382 8.404324 
450.432678 0.963282 
451.214111 23.751186 
451.249298 0.359463 
451.288788 0.437273 
451.32309 0.746407 
451.878326 0.293777 
454.777008 0.388166 
456.111755 0.234591 
465.859131 2.228551 
END IONS

