BEGIN IONS
PEPMASS=268.0
CHARGE=1+
COMPOUNDNAME=Massbank:KO002042 Adenosine
LIBRARYQUALITY=3
SMILES=OC[C@@H](O1)[C@@H](O)[C@@H](O)[C@@H]1n(c3)c(n2)c(n3)c(N)nc2
INCHIKEY=OIRDTQYFTABQOQ-KQYNXXCUSA-N
INCHI=1S/C10H13N5O4/c11-8-5-9(13-2-12-8)15(3-14-5)10-7(18)6(17)4(1-16)19-10/h2-4,6-7,10,16-18H,1H2,(H2,11,12,13)/t4-,6-,7-,10-/m1/s1
MSLEVEL=2
SOURCE_INSTRUMENT=ESI-LC-ESI-QQ
FILENAME=Massbank_ESI_positive_8_1_2014_peaks.mgf
SEQ=*..*
IONMODE=Positive
ORGANISM=MASSBANK
NAME=Massbank:KO002042 Adenosine [M+H]+
PI=Putative Massbank Match
DATACOLLECTOR=Massbank
PUBMED=N/A
SUBMITUSER=mwang87
TAGS=
SPECTRUMID=CCMSLIB00000216566
SCANS=7844
41.1 113861.5 
43.1 217822.0 
44.8 183168.5 
55.3 678218.5 
57.2 970298.0 
59.0 232673.5 
61.4 351485.5 
69.1 683169.0 
71.2 683169.0 
73.1 500000.5 
74.0 202970.5 
76.7 24752.5 
78.9 59406.0 
79.1 79208.0 
84.9 490099.5 
92.0 118812.0 
93.1 113861.5 
94.3 891090.0 
97.1 54455.5 
104.3 19802.0 
109.4 361386.5 
111.8 14851.5 
119.1 5554461.0 
121.2 301980.5 
134.2 49505.0 
136.1 23000023.0 
137.3 257426.0 
END IONS

