BEGIN IONS
PEPMASS=521.262
CHARGE=1+
COMPOUNDNAME=(3E,5S,7R,8R,11E,13S,15R,16R)-3,5,7,11,13,15-hexamethyl-8,16-bis(1,3-oxazol-5-ylmethyl)-1,9-dioxacyclohexadeca-3,11-diene-2,10-dione
LIBRARYQUALITY=3
SMILES=N/A
INCHIKEY=LAJRJVDLKYGLOO-HLRFMGGZSA-N
INCHI=InChI=1S/C28H38N2O6/c1-17-7-19(3)25(11-23-13-29-15-33-23)35-28(32)22(6)10-18(2)8-20(4)26(12-24-14-30-16-34-24)36-27(31)21(5)9-17/h9-10,13-20,25-26H,7-8,11-12H2,1-6H3/b21-9+,22-10+/t17-,18-,19+,20+,25+,26+/m0/s1
MSLEVEL=2
SOURCE_INSTRUMENT=N/A-ESI-QFT
FILENAME=library_mgf.mgf
SEQ=*..*
IONMODE=positive
ORGANISM=MONA
NAME=(3E,5S,7R,8R,11E,13S,15R,16R)-3,5,7,11,13,15-hexamethyl-8,16-bis(1,3-oxazol-5-ylmethyl)-1,9-dioxacyclohexadeca-3,11-diene-2,10-dione [M+Na]+
PI=MoNA
DATACOLLECTOR=MoNA:VF-NPL-QEHF019226
PUBMED=N/A
SUBMITUSER=mwang87
TAGS=
SPECTRUMID=CCMSLIB00004710289
SCANS=19226
50.380112 1.020482 
50.677132 2.09297 
51.221302 0.382691 
52.899796 1.820792 
52.944897 0.320523 
53.487579 2.072996 
53.589626 1.727142 
53.837753 0.557132 
53.899548 1.890313 
54.967857 0.766762 
55.054546 0.808678 
55.169094 1.211455 
55.765327 1.678532 
55.910084 0.803419 
56.405499 1.741393 
56.635723 0.50983 
57.033772 4.440437 
57.07008 0.322965 
57.260509 1.8004 
58.68671 0.765029 
59.049427 1.679085 
59.62468 1.665407 
60.080631 0.60894 
60.124012 0.857661 
60.533783 0.827034 
63.271584 1.24531 
63.400791 0.658132 
63.66172 1.864563 
63.798809 1.841541 
63.881004 0.514206 
64.323219 0.498658 
64.87516 2.000559 
65.676231 0.497746 
65.961319 2.397532 
66.634781 1.771558 
66.669228 2.071283 
67.054359 0.34684 
67.131592 1.292279 
67.160645 1.048771 
67.250626 1.117524 
67.427994 1.635279 
67.609116 1.225639 
68.586311 0.995794 
69.06987 2.580256 
69.199768 0.486132 
69.709595 1.747673 
70.782631 2.057038 
71.031357 2.021374 
71.045166 1.134984 
71.878441 1.796345 
72.044304 0.83784 
72.724716 0.361001 
73.038666 1.810038 
73.743622 2.198945 
73.798347 0.79264 
74.258743 1.879234 
76.056961 0.636558 
77.013222 1.202878 
78.42334 2.176673 
81.069855 1.96698 
81.360641 0.82376 
82.028694 2.221781 
83.049194 0.36103 
83.295349 1.585887 
83.555618 0.506804 
84.757561 0.795871 
86.425026 1.066405 
87.6035 1.071556 
88.740593 1.234549 
88.90937 1.534742 
89.031052 1.649332 
89.059708 1.843744 
89.339478 1.557385 
90.365265 1.655123 
91.442474 0.27368 
92.091461 1.938873 
93.069908 1.614915 
94.065178 0.575895 
94.244736 1.245602 
94.360207 1.856765 
95.049026 1.153561 
95.085419 6.045138 
95.164749 1.62806 
95.277802 1.799411 
95.285477 2.59088 
95.622971 2.145215 
95.798195 0.611839 
98.457237 0.847031 
98.490814 0.564622 
99.080322 0.768181 
99.181007 1.850822 
99.836922 2.017949 
101.517204 0.726349 
101.881821 0.936172 
104.13073 0.865063 
105.069733 1.312253 
105.719887 1.695475 
106.879929 0.943901 
107.085403 5.884745 
107.751709 1.001208 
107.903793 1.911381 
108.302177 1.891772 
109.064514 1.966207 
109.101089 2.59362 
109.533768 0.993845 
110.059975 0.40365 
110.918182 1.701556 
116.632286 1.422024 
117.070007 0.417135 
119.085564 0.883071 
119.320801 0.529432 
119.63736 0.380142 
119.644241 0.520205 
121.101089 5.99745 
122.060066 0.376757 
122.104256 2.131363 
124.06588 0.917207 
126.631721 1.676438 
128.430878 0.915568 
129.903275 1.40282 
131.085251 0.407497 
131.374252 2.125805 
132.780731 2.310038 
132.963577 1.834771 
133.101257 0.387894 
133.426926 1.983199 
134.041122 2.250991 
134.901001 0.843549 
135.11676 0.57761 
135.254807 0.300013 
135.411575 0.392647 
138.173889 1.922985 
139.086136 0.509432 
139.225372 1.353659 
139.622314 1.701499 
139.841232 0.568576 
142.427673 0.281927 
143.086197 0.615303 
145.101089 1.583223 
146.199707 2.51949 
147.573364 0.278259 
149.511322 1.645143 
152.736923 2.229248 
153.038376 2.170018 
154.453262 0.517114 
155.286331 1.131732 
155.930176 1.056401 
157.100555 0.282374 
157.972717 0.573109 
158.498093 0.939135 
159.11673 2.335942 
160.898392 0.57051 
162.965469 0.587113 
163.023575 2.062091 
164.768402 0.807615 
168.065475 4.296525 
168.275757 1.138186 
169.101166 0.844585 
169.418121 1.330185 
171.97168 2.491621 
176.265167 1.93527 
177.428726 2.539587 
178.88356 2.099196 
179.456696 0.902384 
179.548447 1.550308 
181.787704 2.074967 
182.081039 68.789284 
182.127945 1.85497 
183.087997 0.862113 
183.994858 0.762352 
187.140427 0.316433 
187.219711 0.835469 
193.871399 1.964591 
195.401825 0.821739 
195.481903 2.135699 
196.09581 0.951866 
196.528915 1.32388 
196.952988 0.637776 
198.07605 1.043327 
199.414719 0.824784 
199.630417 1.854753 
200.543777 0.31058 
201.417786 0.556305 
203.090485 0.521265 
207.595901 1.919253 
208.096313 0.368379 
208.133148 6.140662 
210.076126 1.446665 
210.870163 1.780993 
211.086456 1.706311 
211.665298 1.066914 
212.091766 5.977016 
213.05452 100.0 
217.402802 0.841171 
219.17598 1.409186 
219.255463 1.154273 
219.264328 2.266503 
221.104584 2.069226 
221.818039 0.321473 
222.112915 0.589675 
225.380463 2.289687 
231.089584 1.217005 
232.29213 0.320365 
236.867172 2.359716 
238.106735 0.790557 
240.23175 2.133267 
246.578979 0.595994 
248.81662 1.971892 
249.099823 0.6268 
260.800781 0.346942 
264.299469 0.665663 
265.172943 1.205844 
266.949707 0.67526 
269.315155 1.252042 
269.809326 1.138149 
270.297363 0.296022 
285.537903 2.083632 
285.749298 0.818889 
290.123627 2.440489 
292.387573 1.719372 
293.463898 1.883177 
294.775269 1.281735 
299.145508 0.296301 
306.100555 0.558578 
308.134369 1.992994 
309.213287 0.903683 
310.214111 2.024152 
319.309692 1.491405 
324.111481 0.60485 
328.25528 2.508553 
332.683319 0.398321 
333.735229 2.051413 
336.660797 0.294519 
348.801025 1.502023 
353.484314 0.898914 
366.147125 0.646336 
367.145935 1.769413 
373.531006 2.680532 
380.145172 0.580751 
385.283264 1.837897 
385.938629 0.398814 
386.748169 0.381353 
391.184814 1.065933 
391.576843 2.146427 
401.166534 16.052549 
409.30896 0.546224 
410.977692 0.631892 
419.17691 21.275946 
419.292816 1.344723 
420.17981 1.10831 
433.85434 1.151657 
434.188232 1.83729 
437.188263 0.417672 
447.291016 7.50971 
448.295685 1.046379 
449.729919 0.793481 
450.196472 0.316894 
459.634247 1.879983 
477.426605 1.373693 
495.93927 0.574351 
503.847565 0.383039 
519.357361 0.797139 
521.260559 10.017924 
522.596436 14.436315 
527.554626 0.524543 
END IONS

