BEGIN IONS
PEPMASS=245.0
CHARGE=1+
COMPOUNDNAME=Massbank:KO008882 Biotin|Coenzyme R|D-Biotin|Vitamin H
LIBRARYQUALITY=3
SMILES=OC(=O)CCCC[C@H](S1)[C@@H](N2)[C@@H](NC(=O)2)C1
INCHIKEY=YBJHBAHKTGYVGT-ZKWXMUAHSA-N
INCHI=1S/C10H16N2O3S/c13-8(14)4-2-1-3-7-9-6(5-16-7)11-10(15)12-9/h6-7,9H,1-5H2,(H,13,14)(H2,11,12,15)/t6-,7-,9-/m0/s1
MSLEVEL=2
SOURCE_INSTRUMENT=ESI-LC-ESI-IT
FILENAME=Massbank_ESI_positive_8_1_2014_peaks.mgf
SEQ=*..*
IONMODE=Positive
ORGANISM=MASSBANK
NAME=Massbank:KO008882 Biotin|Coenzyme R|D-Biotin|Vitamin H [M+H]+
PI=Putative Massbank Match
DATACOLLECTOR=Massbank
PUBMED=N/A
SUBMITUSER=mwang87
TAGS=
SPECTRUMID=CCMSLIB00000221137
SCANS=10098
84.0 533.96 
91.2 46.12 
97.1 2156.96 
99.0 881.33 
100.1 1561.8 
101.1 67.63 
105.1 146.47 
107.1 151.07 
111.1 289.8 
112.1 2686.11 
119.1 163.24 
120.1 212.99 
121.0 430.85 
123.0 370.16 
124.0 100.93 
125.0 236.03 
129.1 7217.83 
139.1 326.96 
140.9 258.6 
143.1 380.41 
149.1 270.76 
151.1 830.89 
152.1 120.11 
153.0 252.33 
156.1 446.12 
166.0 957.77 
167.1 1987.56 
169.9 31.96 
171.1 5878.35 
175.2 654.03 
180.9 179.47 
182.3 191.89 
183.3 285.33 
184.1 568.88 
185.1 993.42 
188.1 49.95 
189.2 64.75 
192.0 428.78 
193.1 578.86 
199.2 448.18 
207.1 345.83 
208.0 37.94 
209.1 4528.76 
210.1 341.05 
216.9 51.46 
226.3 1165.04 
227.1 1363396.91 
228.1 7795.53 
231.0 159.77 
243.1 279.23 
245.1 10606.14 
245.9 81.03 
247.0 170.04 
248.1 75.98 
251.8 217.79 
259.1 64.24 
289.1 63.01 
END IONS

