BEGIN IONS
PEPMASS=449.375
CHARGE=1+
COMPOUNDNAME=3-Epilupeol
LIBRARYQUALITY=3
SMILES=N/A
INCHIKEY=MQYXUWHLBZFQQO-ISZJTHHZSA-N
INCHI=InChI=1S/C30H50O/c1-19(2)20-11-14-27(5)17-18-29(7)21(25(20)27)9-10-23-28(6)15-13-24(31)26(3,4)22(28)12-16-30(23,29)8/h20-25,31H,1,9-18H2,2-8H3/t20-,21+,22-,23+,24+,25+,27+,28-,29+,30+/m0/s1
MSLEVEL=2
SOURCE_INSTRUMENT=N/A-ESI-QFT
FILENAME=library_mgf.mgf
SEQ=*..*
IONMODE=positive
ORGANISM=MONA
NAME=3-Epilupeol [M+Na]+
PI=MoNA
DATACOLLECTOR=MoNA:VF-NPL-QEHF005652
PUBMED=N/A
SUBMITUSER=mwang87
TAGS=
SPECTRUMID=CCMSLIB00004696715
SCANS=5652
50.185871 0.068959 
50.648064 0.063958 
50.851559 0.067086 
51.023884 0.086115 
51.099117 0.074042 
51.118546 0.070019 
51.1576 0.07925 
51.447571 0.071033 
51.839081 0.074299 
51.940674 0.089783 
52.143959 0.079544 
52.190014 0.068738 
52.732426 0.074618 
52.86195 0.083245 
52.974239 0.074554 
53.003002 0.369352 
53.020172 0.070553 
53.039394 1.546657 
53.338791 0.071941 
53.64653 0.076584 
54.313251 0.09406 
55.018646 4.080986 
55.053654 0.118857 
55.055004 14.507458 
55.116154 0.076174 
55.935211 0.275152 
56.050297 1.453347 
56.058311 0.09516 
56.965565 40.828808 
56.967121 0.396724 
57.034283 2.769698 
57.064438 0.067118 
57.070656 13.087082 
57.244747 0.071982 
57.935574 1.870169 
57.980583 0.067406 
58.065899 2.034461 
58.073925 0.162462 
58.2864 0.062495 
58.705814 0.067952 
58.933479 0.088684 
59.049908 3.438067 
59.061157 0.571488 
59.363647 0.070297 
59.41222 0.063045 
59.678741 0.079314 
59.990978 0.792262 
60.045162 3.070893 
61.011395 13.720941 
61.112198 0.059017 
62.019241 2.192979 
62.060772 1.074359 
62.161514 0.069645 
62.982471 0.189064 
63.998463 0.414035 
64.148064 0.075815 
64.347366 0.069674 
64.498131 0.069864 
64.752785 0.085587 
65.039299 1.463516 
65.909012 0.07095 
66.462601 0.070903 
67.054939 17.052418 
67.178932 0.072419 
67.753265 0.063213 
68.050468 0.079485 
68.058289 0.162739 
68.997795 0.162502 
69.034225 4.86213 
69.070595 12.569728 
69.267204 0.067735 
69.292679 0.068084 
69.469208 0.06688 
69.488716 0.0651 
69.581833 0.074196 
70.065804 3.324365 
70.073944 0.09587 
70.240913 0.070286 
70.958603 0.294011 
70.98111 0.110268 
71.049843 1.853693 
71.08622 2.845815 
71.603813 0.063533 
71.680908 0.065654 
71.95256 1.204073 
72.045067 0.903747 
72.081421 0.62786 
72.363899 0.075825 
72.737419 0.075834 
72.93782 0.242627 
72.960419 0.333172 
73.029068 1.167708 
73.065605 0.080251 
73.088997 0.072482 
73.111366 0.073668 
73.47905 0.072345 
73.507339 0.073132 
74.097084 4.146593 
74.254654 0.062454 
74.75428 0.071008 
74.868202 0.077294 
74.93161 0.141915 
74.976028 1.275041 
75.040993 0.075604 
75.044701 0.106194 
76.076347 0.170997 
76.291512 0.069019 
76.559654 0.072806 
77.039368 0.097934 
77.097672 0.079722 
77.290947 0.064729 
77.312325 0.075175 
77.410988 0.071843 
78.013847 0.077005 
78.646004 0.068252 
78.903358 0.087618 
79.021851 6.34382 
79.05484 13.434711 
80.050072 0.487462 
80.05809 0.324995 
80.757629 0.062933 
80.788399 0.077697 
80.948318 0.186434 
80.991524 0.070085 
81.034126 0.758612 
81.070488 22.60257 
82.048935 0.075987 
82.06575 0.125641 
82.073792 0.562895 
83.049721 3.695513 
83.060989 0.083314 
83.086136 4.758824 
83.367607 0.085638 
83.4907 0.064694 
84.044914 0.314547 
84.081383 3.509941 
84.960304 0.159515 
85.029015 1.095569 
85.065384 2.15381 
85.101669 0.340998 
85.34964 0.062303 
86.060516 0.290682 
86.097038 1.104325 
87.044601 12.724002 
88.022057 1.723035 
88.076248 0.267783 
88.863243 0.08074 
88.969215 0.069989 
89.060249 3.840204 
89.239784 0.072321 
89.31913 0.072682 
89.331268 0.069411 
90.948212 0.919707 
91.054756 17.476545 
91.057892 4.308869 
91.424957 0.073784 
91.967232 0.339593 
92.057915 0.585885 
92.060974 0.065522 
92.873512 0.074315 
92.986435 2.436628 
93.037338 2.10755 
93.054771 0.104036 
93.070351 19.168127 
93.542259 0.073873 
93.671471 0.074445 
93.95636 0.433342 
94.065674 0.428046 
94.073669 0.322509 
94.189125 0.072413 
94.304665 0.076536 
95.049583 7.595542 
95.060837 0.254237 
95.086014 21.865976 
96.081169 0.159364 
96.089394 0.698776 
96.180946 0.076478 
96.235207 0.077723 
96.701546 0.072339 
96.995644 0.667595 
97.028877 0.124361 
97.040047 0.071074 
97.065208 2.867809 
97.101616 1.23958 
98.060486 0.081258 
98.096947 1.093241 
98.101379 0.067498 
98.17543 0.067693 
98.786888 0.07604 
98.975807 3.277142 
99.044464 0.699091 
99.080444 0.077731 
99.832504 0.080818 
100.076065 0.352442 
101.015762 0.063834 
101.060402 0.112789 
102.091751 4.066523 
103.054642 1.368852 
103.924255 0.085458 
105.03389 3.43439 
105.045059 0.877614 
105.066193 0.096806 
105.070236 22.572815 
105.07399 0.259669 
105.182343 0.070602 
105.258301 0.065484 
105.765724 0.074886 
106.050095 0.081566 
106.065582 0.306328 
106.073601 0.885726 
106.086685 0.09669 
107.002075 0.090689 
107.04953 2.605617 
107.085899 21.9879 
108.089241 0.686831 
108.413681 0.078409 
108.958534 0.0999 
109.028664 0.256765 
109.065155 4.237298 
109.101486 9.804507 
109.193733 0.069642 
109.329971 0.06738 
109.931068 0.087051 
110.060455 0.180125 
110.104614 0.085969 
110.697212 0.075689 
110.996834 0.166364 
111.044342 0.472208 
111.080742 1.429185 
111.194717 0.072499 
111.991653 0.071159 
113.060036 0.245228 
113.383011 0.07585 
114.127541 0.080501 
114.540375 0.081372 
115.006363 0.09918 
115.05455 8.399578 
115.612717 0.075643 
116.053108 0.42543 
116.057648 0.08147 
116.062416 0.112652 
116.107231 0.566469 
116.986031 6.931431 
117.070168 3.85228 
117.992226 0.069055 
118.065208 0.082118 
118.480629 0.071206 
119.049362 3.140513 
119.085747 21.151693 
119.352585 0.069368 
119.960411 0.072235 
120.081032 4.345669 
120.089142 1.045981 
121.028633 0.985028 
121.06501 3.425805 
121.101402 13.099635 
122.060303 0.163722 
122.105026 0.174432 
122.941078 1.839201 
123.044479 0.084601 
123.080627 2.539727 
123.116997 3.713821 
124.933685 0.077234 
124.9356 0.08457 
125.059906 0.241108 
125.096107 0.231477 
125.82692 0.064698 
126.614243 0.073359 
127.054321 0.097939 
128.062195 41.16328 
129.065369 3.476803 
129.070023 11.190598 
129.57019 0.075323 
130.077682 0.097279 
130.216812 0.091153 
131.000351 0.864534 
131.049271 7.612726 
131.085678 7.568394 
131.703323 0.082709 
132.044785 0.071511 
132.080963 0.1027 
132.995193 0.164487 
133.029007 0.097874 
133.064926 1.576348 
133.101257 13.255762 
134.036285 0.561794 
134.096207 0.074743 
134.10466 0.414928 
134.956116 0.094902 
134.996429 13.702713 
135.044098 0.766958 
135.075439 0.063682 
135.080505 5.036617 
135.116913 5.770689 
135.966583 0.07224 
136.075394 0.072509 
136.957413 0.353792 
137.011932 0.106941 
137.059662 0.48572 
137.096085 1.840796 
137.132523 0.708483 
137.747681 0.068089 
137.928055 0.694449 
138.054459 0.068474 
139.075424 0.096236 
139.112015 0.07538 
140.143478 0.143229 
140.745239 0.080684 
140.951431 0.152041 
140.959351 0.258628 
140.984192 0.080094 
141.069885 5.35086 
141.861588 0.082305 
142.077942 1.666123 
142.806244 0.072796 
143.000443 0.26837 
143.049225 2.667851 
143.085541 54.629044 
144.082138 0.087872 
144.088684 4.837884 
145.016098 0.088145 
145.06485 4.029326 
145.101212 11.081956 
145.918274 0.067659 
146.012238 0.083388 
146.104355 0.212015 
146.974823 0.095823 
146.995987 0.250659 
147.04393 0.496523 
147.08049 2.997071 
147.11676 6.166469 
147.184937 0.07381 
147.268768 0.080106 
147.338699 0.079666 
148.083893 0.079341 
148.112793 0.098894 
148.971893 3.764142 
149.012024 1.210659 
149.023376 0.922391 
149.059525 0.090108 
149.096176 2.833001 
149.132477 0.29165 
149.972137 0.074251 
150.950958 0.402416 
150.968765 0.54813 
151.005783 0.072693 
151.075546 0.089055 
151.970032 2.412558 
152.062073 2.026934 
152.951553 2.040006 
152.968796 0.901819 
152.989273 0.832354 
153.00708 2.286232 
153.06987 14.134556 
153.95932 9.834705 
153.966934 1.76625 
154.072342 0.12244 
154.078064 2.019214 
154.638123 0.081016 
154.95694 0.259205 
154.96846 1.94588 
155.049484 0.08012 
155.060272 3.357155 
155.085571 11.236157 
155.878006 0.069148 
155.954636 0.522303 
155.981277 0.085674 
156.057007 4.784231 
156.063431 0.165185 
156.088348 0.090686 
156.093765 0.733275 
156.946243 0.072496 
157.016312 0.093643 
157.028702 0.086823 
157.064911 3.483671 
157.101273 5.949313 
157.1595 0.076621 
158.03624 0.822893 
159.044006 20.264715 
159.08046 2.471349 
159.116791 7.267888 
159.265579 0.074078 
160.047302 1.343568 
160.595795 0.084518 
161.011551 0.187144 
161.059418 0.398405 
161.096039 3.539097 
161.132507 2.920343 
161.862091 0.071177 
162.031281 0.349249 
162.0923 0.088886 
163.027847 0.09591 
163.11174 0.937974 
164.920532 0.266769 
165.069977 1.120279 
165.106537 0.072414 
166.982407 0.269971 
167.055176 0.087706 
167.085464 0.08531 
168.057129 0.722044 
168.09346 0.09491 
168.936798 0.090183 
168.983063 0.416162 
169.064743 1.261341 
169.101227 2.45466 
169.980621 0.861719 
170.109039 1.188222 
170.962616 4.184606 
171.044022 29.322742 
171.080368 38.574959 
171.116745 3.963806 
172.047516 2.89651 
172.083725 4.156442 
172.951797 0.081418 
172.979507 0.091903 
173.023178 0.109973 
173.096024 2.143452 
173.132599 3.237045 
173.284241 0.076536 
173.61412 0.077246 
174.972595 2.342195 
174.990082 0.567298 
175.038971 3.642259 
175.058868 0.088111 
175.075409 0.225855 
175.111786 1.355048 
175.148178 1.415673 
178.892914 1.78228 
179.085312 0.230704 
180.888123 6.724107 
181.064758 10.356159 
181.101135 0.667693 
182.068192 0.234795 
182.108948 0.117082 
183.080688 0.313044 
183.116943 2.614994 
184.05191 24.301975 
185.059937 4.818543 
185.096146 0.589464 
185.132614 3.005625 
185.949158 3.320301 
186.031387 0.196966 
186.947052 1.499007 
187.030151 0.078651 
187.038956 6.553418 
187.111649 1.00249 
187.148193 3.153103 
188.042206 0.092695 
188.97406 3.397573 
188.987808 0.109334 
189.04422 0.090841 
189.128326 0.082303 
189.164078 1.058215 
191.048981 0.088745 
192.961548 0.105088 
193.101471 0.213708 
194.999771 0.07975 
195.116989 0.979153 
196.903351 0.620653 
197.012268 0.075516 
197.05954 0.253819 
197.096329 0.317961 
197.107193 0.092562 
197.132309 1.233854 
198.898804 2.833805 
199.039001 94.630028 
199.075363 54.136387 
199.090881 0.116441 
199.111633 0.546009 
199.147995 0.730333 
200.025116 0.083168 
200.042374 12.432412 
200.078796 7.197939 
201.044205 0.185651 
201.080246 0.176165 
201.127594 0.316215 
203.143127 0.964747 
205.43306 0.071975 
205.775833 0.083196 
206.926239 0.084777 
207.116669 0.344817 
208.927353 0.093995 
209.059418 0.0779 
209.096664 0.084299 
209.132538 0.498845 
209.89119 0.087464 
209.924225 0.19482 
210.462509 0.079359 
211.111618 0.450195 
211.147964 0.442706 
211.892517 0.171291 
212.046799 11.400742 
213.009933 0.958306 
213.050369 0.527047 
213.090317 0.086705 
213.12738 1.425582 
213.16362 0.085719 
213.885208 0.074082 
215.143021 0.559568 
218.884583 0.248469 
219.115723 0.080286 
219.174454 0.081929 
220.096481 0.321717 
220.107056 0.501961 
220.126068 0.552157 
220.903061 7.823069 
221.097946 0.080266 
221.132339 0.257162 
222.89856 19.943308 
223.111755 0.102713 
223.147537 0.234766 
224.154617 0.080818 
225.127335 0.102256 
225.886032 1.344928 
225.897339 0.156414 
226.899597 0.089668 
226.936829 0.337683 
227.070175 100.0 
227.1427 0.228506 
227.897232 0.761701 
227.934906 1.0842 
228.073624 14.925655 
228.893967 0.075748 
229.075668 1.046816 
229.157974 0.079819 
229.650894 0.074599 
229.896515 0.117921 
234.938766 0.079272 
235.892792 0.367122 
236.915497 0.395211 
236.954681 0.088745 
238.893433 0.086938 
238.913834 18.507057 
239.143295 0.173936 
240.909058 43.781334 
241.12088 0.090444 
241.158997 0.09536 
241.886276 0.18031 
242.884369 0.559318 
242.912552 0.094782 
243.882416 0.086202 
243.907761 2.092698 
244.910065 3.578164 
244.931656 0.203971 
245.907913 9.772053 
246.905319 4.731033 
247.905869 0.097589 
248.990753 0.19042 
249.163208 0.091938 
250.133026 0.090527 
250.905014 0.092318 
251.143036 0.10191 
251.90741 1.482339 
252.905106 2.103502 
252.92955 0.301691 
252.949753 5.028988 
253.1595 0.103499 
253.902939 3.532296 
253.916336 0.092328 
253.948837 0.331749 
254.924545 2.191042 
259.896698 0.224946 
259.923553 0.290693 
260.894592 1.258152 
261.892517 0.62243 
263.90213 0.165505 
265.880829 0.306256 
265.923828 0.112297 
266.965668 0.102458 
268.942108 0.101381 
269.905884 0.093873 
270.906006 0.121127 
270.996948 0.080281 
271.91391 0.219341 
277.007446 0.085226 
278.009705 0.078822 
280.81308 0.075198 
281.911194 0.102035 
283.820801 0.220583 
284.89447 0.357719 
285.815491 0.312479 
285.835907 0.191952 
286.919983 0.08765 
287.832245 0.084664 
287.918732 1.601944 
288.915894 0.497558 
289.195557 0.087472 
291.086578 0.079168 
292.927551 0.38045 
293.979462 0.078884 
294.906036 0.170028 
295.194427 0.265159 
295.835266 0.22109 
296.268433 0.07889 
297.001251 0.084795 
297.816223 0.108784 
299.831696 0.088331 
300.822174 0.105978 
302.167603 0.0823 
302.817963 0.531209 
302.905701 1.523492 
304.832092 0.080939 
304.928986 0.088205 
309.815613 0.101136 
309.835541 0.29479 
310.843353 10.679853 
311.293427 0.11162 
311.830231 0.071367 
312.838837 10.262445 
313.204651 5.473989 
317.840759 11.950738 
319.835968 11.454281 
322.823975 0.69224 
323.832458 0.680665 
324.822693 0.341847 
325.498352 0.086171 
325.830414 8.229941 
326.817688 0.114822 
326.838135 0.883344 
327.805389 0.093377 
327.825806 8.273606 
327.845642 0.670362 
328.833374 1.052298 
329.84137 0.182704 
331.215088 4.582045 
333.545654 0.097949 
334.843811 1.64531 
335.851227 9.668502 
336.397705 0.080668 
336.838257 2.202391 
336.903351 0.083064 
337.846344 9.474414 
341.84201 0.20427 
342.833221 6.132232 
343.840363 0.208936 
344.828735 5.637785 
344.852081 0.09025 
349.830353 0.113816 
349.868469 0.097804 
350.181122 0.07854 
351.827454 0.105548 
351.861938 0.08596 
352.854858 0.094875 
358.843842 0.660053 
360.838898 1.143348 
361.24527 0.071776 
363.356812 0.077407 
367.840759 7.098453 
368.924438 2.030027 
369.836243 6.860921 
369.922607 0.077257 
372.405701 0.076063 
378.848816 0.467392 
383.852509 2.370347 
384.855621 0.077119 
385.851501 3.808462 
387.846954 3.848819 
388.087158 0.070479 
388.913086 0.07908 
393.614319 0.087359 
399.386597 0.100282 
401.247375 0.092243 
401.863434 0.198629 
408.850739 0.088047 
413.564331 0.084677 
421.108978 0.885843 
422.112579 0.202954 
424.934021 0.081453 
426.565063 0.094185 
444.915527 0.088505 
447.181702 0.083036 
447.347046 0.684067 
448.044312 0.075929 
448.34668 0.10601 
449.103699 2.602356 
450.110535 1.835448 
460.175171 0.094665 
477.100555 0.084039 
END IONS

