BEGIN IONS
PEPMASS=427.246
CHARGE=1+
COMPOUNDNAME=Lovastatin (Mevacor)
LIBRARYQUALITY=1
SMILES=C1[C@H](C=C2[C@]([C@@H]1OC(=O)[C@H](CC)C)([C@@H]([C@H](C=C2)C)CC[C@H]3OC(C[C@@H](C3)O)=O)[H])C
INCHIKEY=PCZOHLXUXFIOCF-KMAFYUSPSA-N
INCHI=N/A
MSLEVEL=2
SOURCE_INSTRUMENT=LC-ESI-qTof
FILENAME=Plate6_41_60_GD9_01_15776.mzXML
SEQ=*..*
IONMODE=Positive
ORGANISM=GNPS-SELLECKCHEM-FDA-PART2
NAME=Lovastatin (Mevacor) [M+Na]
PI=Dorrestein
DATACOLLECTOR=Garg_Neha
PUBMED=N/A
SUBMITUSER=negarg
TAGS=
SPECTRUMID=CCMSLIB00000078412
SCANS=2522
45.269245 188.0 
46.875538 140.0 
52.188324 140.0 
53.209858 220.0 
59.811466 164.0 
62.775085 160.0 
62.898151 172.0 
66.031754 224.0 
66.511368 152.0 
75.42907 156.0 
83.381248 188.0 
90.559433 144.0 
93.230583 148.0 
97.380783 156.0 
98.018204 204.0 
98.173943 192.0 
99.853416 204.0 
100.870338 200.0 
105.065025 164.0 
111.002724 200.0 
125.980675 176.0 
126.788445 168.0 
129.064377 216.0 
131.085083 164.0 
135.126083 168.0 
135.332077 160.0 
141.019455 176.0 
142.080734 188.0 
144.034805 172.0 
144.802612 156.0 
153.050552 144.0 
155.569977 176.0 
156.089249 152.0 
157.100006 288.0 
158.112823 136.0 
158.635971 148.0 
159.032303 196.0 
159.116501 308.0 
160.12352 180.0 
164.196503 148.0 
169.100311 232.0 
170.904999 172.0 
171.024719 148.0 
171.12294 532.0 
172.652802 188.0 
173.130829 1020.0 
175.148895 160.0 
175.623367 264.0 
175.921555 148.0 
177.045303 164.0 
183.086548 160.0 
183.11618 140.0 
184.035767 156.0 
184.559967 156.0 
185.133652 152.0 
188.558929 204.0 
189.415359 168.0 
191.106537 148.0 
194.319931 164.0 
197.130936 176.0 
198.610611 140.0 
199.149567 216.0 
201.117737 148.0 
201.164948 364.0 
203.893448 260.0 
205.553741 156.0 
207.237961 220.0 
207.722473 152.0 
211.621857 140.0 
213.162125 148.0 
217.778244 176.0 
218.03093 184.0 
221.059662 176.0 
222.571487 176.0 
223.138992 284.0 
225.163818 140.0 
227.952255 160.0 
231.368927 172.0 
232.272003 160.0 
234.144348 148.0 
239.181183 152.0 
239.233505 192.0 
239.806458 168.0 
240.176468 148.0 
241.189285 160.0 
241.993637 144.0 
244.165848 168.0 
244.62326 192.0 
247.896576 144.0 
250.161179 184.0 
259.614288 184.0 
259.652771 184.0 
259.761108 192.0 
262.398987 200.0 
262.892487 144.0 
263.263763 156.0 
266.129578 152.0 
266.623352 140.0 
267.173157 344.0 
269.886505 156.0 
271.183197 176.0 
272.603973 180.0 
272.725586 184.0 
273.554535 148.0 
277.293732 140.0 
277.648468 140.0 
278.817108 180.0 
280.358002 172.0 
281.11911 212.0 
282.115662 124.0 
285.175873 104.0 
286.746002 188.0 
286.95163 236.0 
288.919617 156.0 
289.194733 140.0 
289.621368 140.0 
289.68573 140.0 
293.144623 192.0 
293.246857 208.0 
293.318451 160.0 
294.676697 208.0 
295.129425 968.0 
295.610413 136.0 
296.12854 224.0 
296.929169 264.0 
298.371399 164.0 
299.131653 308.0 
300.132538 160.0 
300.668976 184.0 
301.135101 184.0 
303.183289 260.0 
307.014465 172.0 
307.174896 140.0 
309.121002 180.0 
310.151825 192.0 
311.146149 220.0 
314.156036 152.0 
315.151672 228.0 
315.805664 152.0 
317.154724 148.0 
319.612335 152.0 
322.168182 172.0 
322.674805 452.0 
323.164032 196.0 
324.756836 164.0 
325.094086 168.0 
325.175568 10288.0 
325.392029 244.0 
326.179199 1964.0 
327.184845 240.0 
328.16925 132.0 
328.252625 168.0 
329.071716 156.0 
330.282349 208.0 
335.47525 144.0 
336.069733 144.0 
339.233795 152.0 
340.231201 188.0 
340.572693 276.0 
340.866608 148.0 
342.142639 264.0 
343.514862 104.0 
345.656799 172.0 
346.956879 140.0 
347.824951 140.0 
350.499023 156.0 
355.202362 144.0 
355.648895 172.0 
355.986786 208.0 
356.114502 156.0 
358.02887 184.0 
358.654327 144.0 
360.40921 140.0 
361.165344 160.0 
363.86734 140.0 
365.231628 156.0 
365.547394 188.0 
370.109039 148.0 
371.224152 160.0 
373.192047 140.0 
373.696136 176.0 
374.698944 164.0 
375.192261 156.0 
375.697479 188.0 
377.315704 192.0 
379.542023 228.0 
385.705078 168.0 
386.205597 176.0 
386.694672 144.0 
391.67746 144.0 
393.728455 160.0 
397.798889 172.0 
398.505829 376.0 
399.094086 184.0 
401.287994 164.0 
405.287964 148.0 
411.180481 188.0 
413.25354 176.0 
414.164429 172.0 
419.581482 172.0 
419.707855 140.0 
420.066772 268.0 
420.91687 128.0 
422.071289 116.0 
422.115265 124.0 
422.610962 152.0 
422.829132 172.0 
422.96402 168.0 
423.037689 144.0 
423.298584 100.0 
423.459473 172.0 
424.137085 100.0 
424.454041 180.0 
424.497009 96.0 
424.574249 144.0 
424.738312 216.0 
425.459839 124.0 
425.686798 160.0 
425.766418 124.0 
425.82193 172.0 
425.958801 208.0 
426.026031 248.0 
426.134003 144.0 
426.180969 224.0 
426.225708 124.0 
426.275208 156.0 
426.335266 156.0 
426.435852 104.0 
426.477142 204.0 
426.55191 336.0 
426.607544 124.0 
426.747345 108.0 
426.949982 160.0 
426.980255 272.0 
427.037048 172.0 
427.101379 204.0 
427.152435 132.0 
427.179169 380.0 
427.245667 160516.0 
427.372955 384.0 
427.566284 192.0 
427.654083 196.0 
427.7146 164.0 
427.799347 424.0 
427.921783 1464.0 
427.980499 188.0 
428.056061 248.0 
428.133301 96.0 
428.248047 62148.0 
428.396545 172.0 
428.561707 204.0 
428.723785 164.0 
428.809784 200.0 
428.884583 176.0 
429.249817 7556.0 
429.615173 156.0 
430.103088 112.0 
430.251465 1376.0 
430.353516 176.0 
430.523773 124.0 
430.603729 140.0 
430.679565 160.0 
430.767639 276.0 
430.799469 212.0 
430.832611 188.0 
430.91272 216.0 
430.98587 252.0 
431.124634 152.0 
431.197601 108.0 
431.241791 280.0 
431.44931 140.0 
431.556885 116.0 
431.649323 108.0 
431.719604 164.0 
431.778442 156.0 
431.887604 168.0 
431.917847 168.0 
432.141235 160.0 
436.88562 96.0 
439.474579 104.0 
442.497131 192.0 
443.211731 408.0 
444.156677 168.0 
444.211823 244.0 
445.268311 156.0 
461.204865 100.0 
461.256348 140.0 
467.251678 144.0 
468.262939 232.0 
478.156555 176.0 
483.953857 148.0 
516.210144 140.0 
545.264771 168.0 
546.283081 172.0 
546.404053 184.0 
547.280762 188.0 
563.298523 168.0 
682.384338 140.0 
691.63385 148.0 
1783.971313 236.0 
END IONS

