BEGIN IONS
PEPMASS=273.076
CHARGE=1+
COMPOUNDNAME=Massbank:FIO00206 Naringenin
LIBRARYQUALITY=3
SMILES=Oc(c3)ccc(c3)[C@H](C1)Oc(c2)c(c(O)cc(O)2)C(=O)1
INCHIKEY=FTVWIRXFELQLPI-ZDUSSCGKSA-N
INCHI=1S/C15H12O5/c16-9-3-1-8(2-4-9)13-7-12(19)15-11(18)5-10(17)6-14(15)20-13/h1-6,13,16-18H,7H2/t13-/m0/s1
MSLEVEL=2
SOURCE_INSTRUMENT=ESI-LC-ESI-QTOF
FILENAME=Massbank_ESI_positive_8_1_2014_peaks.mgf
SEQ=*..*
IONMODE=Positive
ORGANISM=MASSBANK
NAME=Massbank:FIO00206 Naringenin [M+H]+
PI=Putative Massbank Match
DATACOLLECTOR=Massbank
PUBMED=N/A
SUBMITUSER=mwang87
TAGS=
SPECTRUMID=CCMSLIB00000213865
SCANS=6508
123.0439 1489.0 
147.044 40033.0 
148.0474 3252.0 
153.0183 72521.0 
154.0216 4177.0 
171.0286 1504.0 
273.0756 114914.0 
274.0788 14813.0 
275.081 2079.0 
END IONS

