BEGIN IONS
PEPMASS=601.356
CHARGE=1+
COMPOUNDNAME=deferrioxamine E
LIBRARYQUALITY=3
SMILES=N/A
INCHIKEY=NHKCCADZVLTPPO-UHFFFAOYSA-N
INCHI=InChI=1S/C27H48N6O9/c34-22-10-14-26(38)32(41)20-8-3-6-18-30-24(36)12-15-27(39)33(42)21-9-2-5-17-29-23(35)11-13-25(37)31(40)19-7-1-4-16-28-22/h40-42H,1-21H2,(H,28,34)(H,29,35)(H,30,36)
MSLEVEL=2
SOURCE_INSTRUMENT=N/A-ESI-QFT
FILENAME=library_mgf.mgf
SEQ=*..*
IONMODE=positive
ORGANISM=MONA
NAME=deferrioxamine E [M+H]+
PI=MoNA
DATACOLLECTOR=MoNA:VF-NPL-QEHF004064
PUBMED=N/A
SUBMITUSER=mwang87
TAGS=
SPECTRUMID=CCMSLIB00004695127
SCANS=4064
50.1217 0.030769 
50.358501 0.037707 
50.755363 0.041854 
50.843578 0.02046 
51.032135 0.028891 
51.046619 0.033353 
51.343941 0.027674 
51.36694 0.03079 
51.944382 0.037151 
52.271313 0.026921 
52.396347 0.030144 
53.089848 0.027677 
53.231922 0.028942 
53.277245 0.032946 
54.418339 0.029233 
54.562622 0.025552 
54.839733 0.028077 
54.863323 0.041047 
55.018681 1.01499 
55.055058 0.98687 
55.614552 0.038607 
56.050285 5.155343 
57.070633 0.020223 
57.32983 0.035601 
57.737576 0.039013 
58.022907 0.022595 
58.263515 0.03102 
58.374413 0.024879 
59.035725 0.035811 
59.12809 0.034485 
59.475056 0.036428 
60.100811 0.036346 
60.123051 0.033042 
60.408131 0.040524 
60.672649 0.038394 
60.82777 0.024977 
60.986305 0.017675 
61.168152 0.030338 
61.825817 0.038064 
62.169243 0.023838 
62.21468 0.024602 
62.378326 0.042721 
62.462154 0.031501 
62.792915 0.034294 
63.131348 0.043785 
63.811321 0.030841 
64.007919 0.018133 
65.587563 0.033932 
67.054955 4.115789 
67.357651 0.040701 
67.453621 0.031688 
67.573845 0.025047 
67.715164 0.034879 
68.231277 0.019567 
68.66864 0.033792 
69.070641 4.351366 
69.879654 0.028471 
70.065865 1.181115 
70.593513 0.021573 
70.654388 0.017941 
70.671318 0.03588 
70.861588 0.031636 
71.071686 0.023482 
72.045128 1.291643 
72.081543 0.124451 
72.241272 0.034424 
72.656082 0.017509 
72.732582 0.026595 
72.752739 0.038229 
73.029144 0.3161 
73.251534 0.030696 
74.519722 0.037629 
75.133102 0.029583 
75.781586 0.025376 
76.312088 0.024464 
76.752892 0.025188 
77.860771 0.024935 
78.352997 0.02477 
78.743095 0.033968 
79.239258 0.029349 
80.05011 0.819373 
80.062408 0.035021 
80.683189 0.034497 
81.689423 0.035816 
82.029282 0.042406 
82.065788 2.292289 
83.169846 0.035782 
84.045036 4.518383 
84.081383 100.0 
84.811539 0.03268 
84.850723 0.038871 
85.078453 0.038954 
85.084869 4.264077 
85.089203 10.037786 
85.43248 0.038274 
86.092545 0.136557 
86.097092 3.589342 
86.4785 0.019377 
86.681458 0.030983 
87.84388 0.02578 
88.039925 0.067216 
88.917648 0.034753 
89.14402 0.017363 
90.81852 0.05436 
91.865494 0.036832 
93.166473 0.04577 
94.065651 0.033957 
94.446564 0.02799 
94.877121 0.040262 
96.081413 0.08301 
96.225792 0.025102 
98.059906 0.023844 
98.096924 0.898783 
98.435204 0.030797 
99.092049 0.044093 
99.139488 0.02742 
100.039764 50.591099 
100.076187 2.851482 
101.023788 1.540994 
101.043167 1.540503 
101.107544 0.031878 
101.94577 0.035273 
102.091797 72.67141 
103.095123 3.192465 
103.751427 0.030302 
105.47451 0.039631 
105.64518 0.032459 
106.37252 0.044192 
107.25972 0.027786 
107.276596 0.047101 
107.413811 0.034029 
107.870026 0.036287 
108.555885 0.04056 
109.576965 0.034298 
110.060303 0.138509 
110.09684 1.493812 
110.704361 0.033809 
111.09201 0.133736 
111.332924 0.038737 
111.431519 0.027406 
111.648438 0.019138 
112.039673 12.938054 
112.07608 0.739539 
112.11248 0.780456 
112.906181 0.036798 
113.04306 0.108511 
114.836746 0.043102 
114.998138 0.038749 
115.494911 0.027387 
116.034645 0.706462 
116.846275 0.040623 
116.898354 0.043269 
119.118118 0.137901 
119.239449 0.039841 
119.495079 0.035903 
120.081139 2.572834 
120.403603 0.02989 
122.096733 4.478442 
123.100288 0.033851 
124.076088 0.380003 
124.09343 0.036636 
125.732002 0.019154 
126.091515 0.033277 
127.358955 0.032518 
127.363487 0.019506 
128.034531 1.238194 
129.712311 0.029345 
130.050095 1.036879 
133.309769 0.027973 
133.555466 0.038851 
136.051178 0.041749 
136.07579 0.384891 
136.213348 0.041046 
136.558029 0.036661 
137.107407 10.088952 
137.361526 0.045866 
137.509583 0.01862 
138.091446 13.222788 
138.097488 0.030135 
138.110748 0.14706 
139.094727 0.52115 
140.070663 4.654253 
142.086411 0.771919 
142.326935 0.022061 
144.102066 1.267974 
144.556473 0.04008 
147.18219 0.040699 
148.075821 0.754394 
149.180054 0.024868 
150.061172 0.022629 
152.026779 0.033729 
152.985962 0.038491 
153.102386 0.037608 
154.086334 14.827096 
154.779099 0.022405 
155.089706 0.626028 
155.117294 0.029062 
155.416794 0.033878 
156.101944 0.709017 
157.076843 0.036774 
157.835037 0.037025 
159.279037 0.042714 
160.020844 0.026326 
161.128052 0.026465 
163.346664 0.034189 
165.038742 0.034232 
165.102371 19.930397 
165.546738 0.030539 
165.56546 0.044138 
166.086426 6.570255 
166.105835 1.144889 
167.089828 0.220493 
168.102005 8.347943 
168.624023 0.041087 
168.866974 0.042464 
169.105606 0.223544 
169.656326 0.02022 
170.733063 0.037191 
171.64595 0.04486 
172.136658 0.039165 
172.966171 0.039635 
174.629898 0.042476 
174.832779 0.029792 
175.103439 0.032222 
176.66713 0.044184 
177.525177 0.037117 
179.416565 0.040972 
180.998978 0.036693 
181.097778 0.046476 
183.11293 13.942271 
183.74707 0.03323 
184.09697 10.38769 
184.116501 0.753707 
184.303604 0.033902 
184.555008 0.042741 
185.100479 0.344733 
185.128632 0.193818 
187.16951 0.034342 
188.963226 0.035693 
189.22261 0.038086 
193.59288 0.03034 
197.876953 0.030124 
201.123474 34.773144 
202.127197 2.645423 
207.132721 0.035654 
209.159317 0.019126 
209.917816 0.028595 
211.108261 0.03664 
212.243164 0.037679 
212.756393 1.591126 
212.77063 2.979929 
213.985046 0.02468 
218.116669 0.036634 
219.13501 0.10059 
219.656357 0.037778 
224.235229 0.033859 
226.014465 0.034226 
226.821198 0.042123 
227.011948 0.034021 
229.50267 0.034904 
229.84613 0.035671 
236.984894 0.029834 
237.123917 0.112759 
240.982315 0.039809 
243.420273 0.037288 
246.032684 0.040562 
248.993469 0.024668 
253.518295 0.041033 
255.610123 0.035406 
257.651367 0.041189 
258.334473 0.030946 
264.607727 0.032846 
272.332062 0.034932 
275.499969 0.025877 
283.129059 2.732904 
284.398163 0.03237 
293.414246 0.037571 
304.113007 0.037336 
315.234985 0.043553 
315.467224 0.046462 
316.063293 0.043941 
318.998962 0.019268 
322.83847 0.036781 
337.117035 0.029146 
348.756927 0.033566 
356.741394 0.03318 
360.864502 0.024665 
364.237488 0.032202 
364.264343 0.031176 
368.997009 0.034696 
377.222961 0.029599 
378.971832 0.037614 
379.904419 0.029353 
382.912445 0.036096 
402.830536 0.024851 
409.792084 0.03875 
413.175873 0.033785 
417.163513 0.036866 
419.118866 0.028387 
421.060852 0.022193 
427.094147 0.03263 
432.979889 0.033395 
437.031219 0.025348 
452.304047 0.034186 
466.834442 0.041605 
467.320587 0.034556 
471.856018 0.025841 
476.027832 0.041704 
483.512482 0.037378 
491.035248 0.032146 
499.320374 0.025189 
514.384888 0.029745 
518.028381 0.047051 
520.274353 0.036687 
520.96167 0.042796 
541.141541 0.036969 
542.665894 0.038583 
548.114746 0.034553 
548.328369 0.025525 
573.011963 0.033755 
579.338379 0.039312 
591.856262 0.040304 
604.058777 0.0495 
605.405334 0.048519 
622.672485 0.031697 
624.511841 0.028549 
627.648865 0.039892 
END IONS

