BEGIN IONS
PEPMASS=804.489
CHARGE=1+
COMPOUNDNAME=MoNA:595363 Tacrolimus
LIBRARYQUALITY=3
SMILES=N/A
INCHIKEY=QJJXYPPXXYFBGM-LJIGMGMYSA-N
INCHI=InChI=1S/C44H69NO12/c1-10-13-31-19-25(2)18-26(3)20-37(54-8)40-38(55-9)22-28(5)44(52,57-40)41(49)42(50)45-17-12-11-14-32(45)43(51)56-39(29(6)34(47)24-35(31)48)27(4)21-30-15-16-33(46)36(23-30)53-7/h10,19,21,26,28-34,36-40,46-47,52H,1,11-18,20,22-24H2,2-9H3/b25-19-,27-21+/t26-,28+,29+,30-,31+,32-,33+,34-,36+,37-,38-,39+,40+,44+/m0/s1
MSLEVEL=2
SOURCE_INSTRUMENT=LC-ESI-QFT-LC-ESI-QFT
FILENAME=output_mgf.mgf
SEQ=*..*
IONMODE=
ORGANISM=MONA
NAME=MoNA:595363 Tacrolimus [M+H]+
PI=MoNA
DATACOLLECTOR=MoNA
PUBMED=N/A
SUBMITUSER=mwang87
TAGS=
SPECTRUMID=CCMSLIB00000572346
SCANS=9597
56.0495 16.406506 
57.0335 0.899141 
57.0699 0.900769 
59.0492 1.364091 
63.0228 0.322671 
65.0386 15.203183 
66.0464 1.625594 
67.0542 36.361519 
68.0495 0.418115 
68.9972 0.8146 
69.0335 10.806177 
69.0699 4.586614 
71.0128 3.444605 
71.0491 3.117399 
73.0649 0.165188 
74.0965 0.362907 
77.0385 3.975955 
78.0464 1.561083 
79.0542 50.171482 
80.0621 0.825298 
81.0335 6.819727 
81.0699 15.866899 
82.0288 0.412998 
82.0414 0.752734 
82.0652 2.676898 
83.0491 3.678868 
83.0857 0.186497 
84.0808 92.301482 
85.0285 0.425644 
85.0648 5.41011 
89.0386 0.22118 
91.0543 100.0 
92.0621 1.134102 
93.07 22.979469 
94.0414 1.695629 
94.0653 0.198911 
94.0776 1.327983 
95.0492 37.424016 
95.0855 8.60609 
96.0569 0.282435 
97.0286 0.30642 
97.0649 2.220961 
99.0804 0.226152 
101.0598 0.225745 
103.0543 10.43231 
104.0621 2.472522 
105.0448 14.695788 
105.07 53.86378 
106.0415 0.261213 
106.0777 0.320578 
107.0492 4.660486 
107.0856 11.8353 
108.0571 1.692402 
108.0808 0.288133 
109.0285 63.628422 
109.0649 10.803125 
110.06 0.6645 
110.0727 0.225948 
110.0965 0.204987 
111.0441 1.523348 
111.0805 2.910812 
115.0543 16.799909 
116.0621 7.017912 
117.0699 19.84079 
118.0778 1.155731 
119.0492 1.499654 
119.0605 2.18936 
119.0856 23.224954 
120.0573 0.345347 
120.0811 0.243508 
120.0935 0.331829 
121.0648 6.353527 
121.1013 1.194513 
122.0725 0.41169 
122.0966 0.168938 
123.0442 1.781566 
123.0805 2.208286 
124.1122 0.246531 
125.0234 0.273539 
125.0597 0.716016 
127.0541 1.065928 
128.0621 32.781235 
129.0699 25.347913 
130.0778 8.096922 
130.0863 1.174715 
131.0491 2.294833 
131.0856 12.410026 
132.0569 1.266118 
132.0933 0.786632 
133.0648 3.505772 
133.1012 5.199163 
135.0442 2.169097 
135.0804 2.225758 
136.1122 1.008656 
137.0233 0.192864 
137.0599 1.090319 
139.0392 0.276475 
139.0753 0.339591 
141.0699 24.110983 
142.0778 17.23881 
143.0856 13.356234 
144.057 1.125496 
144.0934 3.00989 
145.0649 6.213633 
145.1012 5.886514 
146.0727 1.509597 
147.0804 2.663554 
147.1167 0.334532 
149.0599 0.886727 
149.0962 0.990079 
150.0916 0.228507 
151.039 0.196644 
151.075 0.312554 
152.0621 2.667508 
153.0699 9.749931 
154.0778 4.087999 
155.0605 3.823298 
155.0856 12.291993 
156.0935 8.241206 
157.065 2.193226 
157.1013 4.354939 
158.0727 1.655771 
158.109 0.883442 
159.0806 3.159553 
159.1171 1.617745 
160.0884 0.801285 
161.0597 0.299966 
161.0961 1.04767 
163.0755 0.222925 
164.1072 0.259643 
165.07 11.400701 
166.0778 3.887256 
167.0856 7.312935 
168.0935 2.809176 
169.0648 2.032603 
169.1012 3.540194 
170.0727 0.396543 
170.1094 0.901641 
171.0805 2.621284 
171.117 1.445115 
172.0881 1.014615 
173.0598 0.188823 
173.0962 1.424997 
175.0755 0.344737 
178.0779 5.079735 
179.0856 6.989595 
180.0935 1.875033 
181.0649 1.084941 
181.1012 3.259328 
182.0729 0.696654 
182.1091 1.07965 
182.1171 0.302291 
183.0804 1.720166 
183.1169 1.160179 
184.0883 0.331393 
185.0963 1.363538 
187.0754 0.367704 
189.07 0.805558 
190.0779 0.831723 
191.0856 3.915572 
192.0936 2.659223 
193.1012 3.187695 
194.1097 0.251125 
195.0803 1.196345 
195.117 1.334147 
196.0884 0.908386 
197.0962 1.155411 
197.1329 0.213505 
198.1037 0.285023 
202.0776 1.514248 
203.0856 1.495816 
204.0936 0.666041 
205.1013 1.146719 
206.1092 0.938621 
207.0809 0.334213 
207.1169 0.390351 
208.088 0.285168 
209.0963 1.182303 
210.104 0.238304 
211.112 0.32238 
215.0857 1.236697 
216.0932 0.37032 
217.1009 0.425557 
218.1086 0.224204 
219.081 0.291564 
219.1168 0.811605 
221.0957 0.303309 
223.1117 0.252026 
229.1011 0.347615 
231.1164 0.192399 
233.1324 0.242199 
235.1117 0.270428 
END IONS

