BEGIN IONS
PEPMASS=276.171
CHARGE=1+
COMPOUNDNAME=Massbank:BML00367 Eserine
LIBRARYQUALITY=3
SMILES=CC12CCN(C1N(C3=C2C=C(C=C3)OC(=O)NC)C)C
INCHIKEY=PIJVFDBKTWXHHD-UHFFFAOYSA-N
INCHI=1S/C15H21N3O2/c1-15-7-8-17(3)13(15)18(4)12-6-5-10(9-11(12)15)20-14(19)16-2/h5-6,9,13H,7-8H2,1-4H3,(H,16,19)
MSLEVEL=2
SOURCE_INSTRUMENT=ESI-LC-ESI-QTOF
FILENAME=Massbank_ESI_positive_8_1_2014_peaks.mgf
SEQ=*..*
IONMODE=Positive
ORGANISM=MASSBANK
NAME=Massbank:BML00367 Eserine [M+H]+
PI=Putative Massbank Match
DATACOLLECTOR=Massbank
PUBMED=N/A
SUBMITUSER=mwang87
TAGS=
SPECTRUMID=CCMSLIB00000204892
SCANS=152
117.0559 20.0 
119.0744 36.0 
121.0663 80.0 
131.0518 27.0 
134.094 80.0 
146.0592 258.0 
147.0672 1124.0 
147.0983 38.0 
154.0618 34.0 
160.0734 145.0 
160.1105 27.0 
161.0823 352.0 
161.0938 57.0 
162.0913 383.0 
172.0773 26.0 
173.0831 139.0 
174.0875 44.0 
176.1017 41.0 
END IONS

