BEGIN IONS
PEPMASS=390.192
CHARGE=1+
COMPOUNDNAME=Roquefortine C
LIBRARYQUALITY=3
SMILES=N/A
INCHIKEY=SPWSUFUPTSJWNG-LIMLNZRCSA-N
INCHI=InChI=1S/C22H23N5O2/c1-4-21(2,3)22-10-17-18(28)25-16(9-13-11-23-12-24-13)19(29)27(17)20(22)26-15-8-6-5-7-14(15)22/h4-9,11-12,17,20,26H,1,10H2,2-3H3,(H,23,24)(H,25,28)/b16-9-/t17-,20-,22+/m0/s1
MSLEVEL=2
SOURCE_INSTRUMENT=N/A-ESI-QFT
FILENAME=library_mgf.mgf
SEQ=*..*
IONMODE=positive
ORGANISM=MONA
NAME=Roquefortine C [M+H]+
PI=MoNA
DATACOLLECTOR=MoNA:VF-NPL-QEHF016415
PUBMED=N/A
SUBMITUSER=mwang87
TAGS=
SPECTRUMID=CCMSLIB00004707478
SCANS=16415
50.735332 0.013726 
51.716919 0.016607 
52.149986 0.019829 
52.604378 0.016246 
52.915253 0.020077 
52.921474 0.009822 
53.612576 0.011938 
53.992149 0.019915 
55.445118 0.013921 
55.498821 0.01217 
55.667084 0.015256 
58.705299 0.016182 
58.978844 0.015005 
59.314163 0.017167 
60.108875 0.018971 
61.294109 0.017992 
61.36993 0.019498 
61.584316 0.017144 
61.848495 0.01519 
64.092857 0.012144 
64.248795 0.017398 
64.704407 0.014506 
65.501083 0.019529 
65.61158 0.008114 
65.971199 0.018372 
66.056244 0.013187 
67.334694 0.013053 
68.308083 0.007547 
69.044899 2.219245 
69.070038 3.569109 
69.074059 0.018575 
70.544884 0.014806 
72.01358 0.01209 
72.273926 0.014521 
72.783295 0.021878 
72.857025 0.01546 
75.515381 0.018185 
75.898415 0.018042 
76.305092 0.018516 
76.743614 0.019538 
76.760544 0.017025 
76.994789 0.015863 
77.091385 0.012426 
78.770058 0.017263 
79.108093 0.013292 
79.255341 0.017115 
79.596275 0.018693 
79.648163 0.023116 
80.280907 0.013467 
81.044815 1.898497 
82.052673 0.044736 
82.409409 0.017878 
83.528038 0.011063 
83.705376 0.021633 
83.749344 0.020265 
84.424751 0.017754 
84.46022 0.017345 
84.467133 0.02075 
84.75676 0.016308 
85.03968 2.008637 
85.099594 0.014274 
85.354034 0.011625 
86.339134 0.018509 
87.237366 0.017993 
87.328362 0.020996 
88.297119 0.023173 
88.313301 0.021965 
88.46196 0.020781 
88.622978 0.009892 
88.846558 0.016414 
88.891533 0.013521 
89.322762 0.010321 
92.068367 0.018055 
93.956619 0.011684 
94.765221 0.008776 
95.003288 0.017785 
95.072044 0.013861 
96.584 0.015222 
97.039726 0.119132 
97.708839 0.023606 
97.72908 0.019571 
98.104797 0.015112 
98.896606 0.016093 
99.968422 0.013156 
100.415169 0.014124 
103.005714 0.016145 
104.044067 0.020503 
104.06678 0.019112 
106.03997 0.367606 
106.660774 0.009455 
106.681938 0.019028 
106.781303 0.018391 
107.048149 0.026231 
107.182877 0.014268 
107.763702 0.013227 
108.055717 3.524595 
109.059357 0.068934 
109.063538 1.05134 
109.555977 0.019035 
110.071358 0.302291 
113.579201 0.011682 
115.04525 0.018654 
115.77224 0.019018 
116.254517 0.021797 
117.224998 0.01398 
118.519699 0.012486 
119.15509 0.018614 
119.910172 0.017376 
120.055656 0.881868 
120.142311 0.020326 
120.935471 0.012908 
121.039703 0.01594 
121.694389 0.01838 
121.843109 0.013366 
122.071243 0.545851 
125.034592 0.331844 
130.065216 10.832379 
131.068634 0.912548 
132.055832 0.035839 
132.080795 0.189444 
132.625214 0.017342 
132.708115 0.011864 
134.215576 0.015941 
135.436188 0.009473 
136.050751 0.765055 
137.058548 0.016945 
137.082367 1.258759 
141.404648 0.019761 
142.065231 0.269224 
143.095459 0.02067 
144.080734 0.200678 
144.146729 0.011541 
146.031052 0.018647 
146.108643 0.021725 
146.665726 0.017116 
147.028748 0.018757 
148.050446 0.194014 
148.268631 0.015035 
148.439285 0.012831 
149.0345 0.286484 
149.082153 1.039146 
155.072906 0.065614 
156.080856 0.939083 
158.394852 0.010106 
159.091675 0.184849 
159.671844 0.010863 
162.029816 5.009729 
163.033554 0.182978 
163.05481 0.051222 
163.061493 3.875327 
164.045517 0.024955 
164.069427 0.067676 
164.920532 0.010578 
165.077271 7.249971 
165.093445 0.024033 
165.917877 0.011647 
166.081192 0.247021 
168.08107 0.140566 
169.088852 0.490713 
170.060318 0.388424 
175.036194 0.018343 
175.061478 0.043232 
175.751816 0.016032 
176.045547 0.370552 
176.622238 0.019691 
177.077286 0.042308 
177.890503 0.018838 
182.093094 0.027299 
182.468826 0.018753 
183.104248 1.923915 
183.829987 0.016255 
184.108093 0.051943 
185.070755 0.029442 
190.122894 0.015398 
190.283218 0.021027 
191.032257 0.023382 
191.056381 5.312157 
191.646423 0.023028 
192.04248 0.08907 
192.064224 14.327718 
192.095596 0.042079 
192.119125 0.028339 
192.229416 0.019919 
192.276886 0.02334 
192.432556 0.018674 
192.549713 0.025141 
192.594009 0.022556 
192.640854 0.019667 
192.682297 0.018305 
192.706085 0.019763 
192.726151 0.019218 
192.7547 0.029887 
192.773636 0.025935 
192.79834 0.029907 
192.820328 0.038185 
192.842194 0.035798 
192.863312 0.029328 
192.866348 0.029141 
192.88739 0.041449 
192.914001 0.093115 
192.934097 0.093566 
192.958405 0.125871 
192.98175 0.14489 
193.00386 0.207792 
193.026962 0.266256 
193.050171 0.661905 
193.071991 100.0 
193.101196 0.443846 
193.124786 0.267521 
193.147308 0.177341 
193.170486 0.12896 
193.174713 0.129599 
193.193756 0.09883 
193.21701 0.047093 
193.239655 0.041012 
193.261307 0.038019 
193.284744 0.032618 
193.305359 0.027841 
193.332397 0.020429 
193.374863 0.019996 
193.401382 0.024309 
193.424179 0.023117 
193.46524 0.022779 
193.491745 0.018545 
193.806625 0.016601 
194.057297 0.033959 
194.076111 8.04402 
194.085327 0.125866 
194.105713 0.051316 
194.131317 0.024375 
194.247177 0.013749 
195.077103 0.018418 
195.47084 0.015821 
196.112137 0.747957 
197.115189 0.019163 
198.105484 0.033109 
198.111359 0.024773 
198.127823 15.107211 
199.13118 1.964128 
200.143723 0.01388 
202.894836 0.013501 
203.055878 0.017705 
204.563507 0.017578 
205.07225 0.939515 
210.378342 0.02264 
213.982773 0.398569 
213.993607 0.588645 
214.926086 0.011701 
219.19458 0.012633 
223.127945 0.01335 
223.819321 0.011372 
226.15123 0.021522 
231.595459 0.009484 
234.102341 0.019752 
240.540665 0.0107 
244.582214 0.021994 
246.41864 0.017471 
249.113602 0.099873 
249.318176 0.020169 
249.870544 0.013532 
250.467545 0.016771 
261.114075 0.081121 
261.135437 0.018984 
269.155121 0.019905 
271.083252 0.021276 
273.263184 0.009737 
273.286804 0.022388 
277.108887 0.157449 
278.880188 0.022025 
284.498657 0.019577 
288.670929 0.019638 
289.776459 0.021656 
298.093079 0.009254 
301.783356 0.017894 
305.102814 0.10512 
314.093567 0.011104 
317.176331 0.016459 
320.11322 0.133291 
321.975708 0.027939 
322.020294 0.032677 
322.035339 0.031207 
322.080566 0.145369 
322.129639 13.371833 
322.188843 0.108842 
322.244202 0.039963 
322.283752 0.0206 
322.305389 0.021541 
322.607483 0.018721 
323.080658 0.029892 
323.133514 2.644416 
323.974243 0.021116 
324.191101 0.019585 
324.708374 0.019566 
329.035919 0.017333 
329.273071 0.013257 
329.842377 0.019125 
334.129456 0.780323 
334.985626 0.018268 
335.135712 0.024214 
346.465668 0.025016 
351.852722 0.010416 
354.389587 0.019721 
354.457581 0.02719 
359.512573 0.01508 
364.142792 0.017239 
376.205414 0.019318 
377.796387 0.021082 
383.433685 0.021474 
384.530121 0.022485 
390.193024 0.707884 
390.375885 0.016116 
391.198364 0.068743 
410.539429 0.021162 
418.659729 0.019962 
END IONS

