BEGIN IONS
TITLE=Scan Number: 5501
PEPMASS=329.06601
CHARGE=1+
COMPOUNDNAME=aflatoxin G1
LIBRARYQUALITY=3
SMILES=COC1=C2C3=C(C(=O)OCC3)C(=O)OC2=C4C5C=COC5OC4=C1
INCHIKEY=XWIYFDMXXLINPU-UHFFFAOYSA-N
INCHI=
MSLEVEL=2
SOURCE_INSTRUMENT=LC-ESI-Orbitrap
FILENAME=f.liululu/AFT-B1,B2,G1,G2.mzXML;
SEQ=*..*
NOTES=
IONMODE=Positive
ORGANISM=GNPS-LIBRARY
NAME=aflatoxin G1 M+H
SPECTRUMID=CCMSLIB00003061496
ACTIVATION=CID
INSTRUMENT=ion trap
SCANS=5501
50.403019 2478.810791 
50.609364 2710.072998 
51.70715 3239.556152 
80.440193 2749.00708 
90.379875 3462.046143 
102.315613 2834.379639 
114.090645 4238.90625 
166.75058 3246.799316 
197.058731 3792.14209 
199.035828 3294.431641 
200.046005 38058.820312 
214.062576 28542.585938 
215.069992 30643.486328 
240.040665 3626.365234 
241.047928 4903.778809 
242.056076 3117.174316 
243.064713 31372.271484 
255.062759 4971.338867 
268.036072 4990.912598 
329.064545 264355.9375 
END IONS

