BEGIN IONS
PEPMASS=1253.71
CHARGE=1+
COMPOUNDNAME=Dactinomycin
LIBRARYQUALITY=3
SMILES=N/A
INCHIKEY=RJURFGZVJUQBHK-UHFFFAOYSA-N
INCHI=InChI=1S/C62H86N12O16/c1-27(2)42-59(84)73-23-17-19-36(73)57(82)69(13)25-38(75)71(15)48(29(5)6)61(86)88-33(11)44(55(80)65-42)67-53(78)35-22-21-31(9)51-46(35)64-47-40(41(63)50(77)32(10)52(47)90-51)54(79)68-45-34(12)89-62(87)49(30(7)8)72(16)39(76)26-70(14)58(83)37-20-18-24-74(37)60(85)43(28(3)4)66-56(45)81/h21-22,27-30,33-34,36-37,42-45,48-49H,17-20,23-26,63H2,1-16H3,(H,65,80)(H,66,81)(H,67,78)(H,68,79)
MSLEVEL=2
SOURCE_INSTRUMENT=N/A-Linear Ion Trap
FILENAME=library_mgf.mgf
SEQ=*..*
IONMODE=negative
ORGANISM=MONA
NAME=Dactinomycin M-H
PI=MoNA
DATACOLLECTOR=MoNA:VF-NPL-LTQ000614
PUBMED=N/A
SUBMITUSER=mwang87
TAGS=
SPECTRUMID=CCMSLIB00004684861
SCANS=482
347.070007 0.572401 
365.149994 3.656177 
365.220001 4.496382 
413.109985 2.726134 
431.23999 5.53488 
468.190002 2.483753 
486.339996 7.830579 
506.329987 2.229556 
512.280029 5.297252 
530.140015 8.835966 
572.219971 11.680763 
654.309998 2.188618 
654.359985 10.128297 
680.320007 3.383435 
697.51001 1.640308 
698.320007 94.177231 
699.390015 10.133323 
716.429993 1.334871 
812.52002 3.280504 
829.409973 100.0 
1104.660034 2.021798 
1210.680054 4.675216 
END IONS

