BEGIN IONS
PEPMASS=804.489
CHARGE=1+
COMPOUNDNAME=MoNA:604075 Tacrolimus
LIBRARYQUALITY=3
SMILES=N/A
INCHIKEY=QJJXYPPXXYFBGM-LJIGMGMYSA-N
INCHI=InChI=1S/C44H69NO12/c1-10-13-31-19-25(2)18-26(3)20-37(54-8)40-38(55-9)22-28(5)44(52,57-40)41(49)42(50)45-17-12-11-14-32(45)43(51)56-39(29(6)34(47)24-35(31)48)27(4)21-30-15-16-33(46)36(23-30)53-7/h10,19,21,26,28-34,36-40,46-47,52H,1,11-18,20,22-24H2,2-9H3/b25-19-,27-21+/t26-,28+,29+,30-,31+,32-,33+,34-,36+,37-,38-,39+,40+,44+/m0/s1
MSLEVEL=2
SOURCE_INSTRUMENT=LC-ESI-QFT-LC-ESI-QFT
FILENAME=output_mgf.mgf
SEQ=*..*
IONMODE=
ORGANISM=MONA
NAME=MoNA:604075 Tacrolimus [M+H]+
PI=MoNA
DATACOLLECTOR=MoNA
PUBMED=N/A
SUBMITUSER=mwang87
TAGS=
SPECTRUMID=CCMSLIB00000572825
SCANS=10076
56.0495 25.279284 
57.0336 0.618185 
57.0699 0.297663 
59.0492 0.386018 
63.0228 1.219431 
65.0386 33.144166 
66.0464 3.3082 
67.0179 1.256584 
67.0542 24.178515 
68.0257 0.317249 
68.0494 0.254072 
68.9971 0.993919 
69.0335 2.72013 
69.0573 0.812708 
69.0699 1.744487 
71.0128 2.706436 
71.0491 1.00584 
74.0965 0.355412 
77.0386 8.519975 
78.0464 5.088504 
79.0542 41.820992 
80.0495 0.227885 
80.0621 0.912929 
81.0335 7.197159 
81.0699 6.025356 
82.0289 0.180938 
82.0414 0.907146 
82.0651 1.660469 
83.0491 1.186042 
84.0808 40.892623 
85.0285 0.263756 
85.0649 1.167274 
89.0386 1.122647 
91.0543 100.0 
92.062 0.982872 
93.07 6.467568 
94.0415 1.708452 
94.0652 0.647101 
94.0777 0.260837 
95.0492 45.108624 
96.0571 0.256991 
97.0285 0.261055 
97.0649 0.297499 
102.0465 1.921797 
103.0543 14.074041 
104.0621 3.23703 
105.0448 23.414662 
105.07 24.116429 
106.0417 0.301809 
107.0493 2.931402 
107.0854 1.271778 
108.0571 0.729209 
108.0809 0.232113 
109.0285 22.194277 
109.0649 3.282831 
111.0807 0.221201 
115.0543 38.787951 
116.0621 7.098956 
117.0699 12.258439 
118.0779 0.635453 
119.0493 0.657766 
119.0605 0.943891 
119.0856 5.083594 
121.0649 1.125484 
123.0444 0.223165 
123.0804 0.245588 
126.0466 0.664641 
127.0543 2.550594 
128.0621 47.051263 
129.07 19.088511 
130.0779 2.609134 
131.0492 2.295567 
131.0856 2.658862 
132.0571 0.393301 
133.0649 0.781611 
133.1013 0.22903 
135.0441 0.193514 
135.0805 0.323523 
136.1125 0.191495 
139.0542 0.718352 
140.0623 0.253254 
141.0699 28.53159 
142.0779 5.882281 
143.0857 2.749018 
144.0569 1.118009 
144.0936 0.692737 
145.0649 4.696621 
145.1014 0.256091 
152.0622 10.252623 
153.07 12.14987 
154.0778 2.530053 
155.0604 5.405343 
155.0856 6.057709 
156.0934 0.706486 
157.0648 1.255657 
157.1017 0.383154 
158.0732 0.557272 
159.0805 0.397148 
165.07 15.545088 
166.0779 2.558041 
167.0856 3.116105 
168.0569 0.668814 
168.0936 0.287488 
169.0649 1.599529 
169.1014 0.69241 
171.0806 0.72138 
176.0621 0.646719 
177.0701 0.806816 
178.0779 6.134279 
179.0856 3.337333 
181.0653 1.582044 
181.1016 0.199351 
183.0805 0.213891 
185.0958 0.165662 
189.0699 2.445436 
190.0776 1.034946 
191.0856 2.381304 
192.0932 0.721734 
193.1016 0.757551 
194.0728 0.186203 
195.0807 0.679998 
202.0778 2.510931 
203.0855 0.950356 
204.0932 0.280778 
205.0648 0.298072 
205.1012 0.211108 
207.0805 0.199979 
215.0854 0.855072 
217.101 0.177665 
229.1022 0.256091 
END IONS

