BEGIN IONS
PEPMASS=525.317
CHARGE=1+
COMPOUNDNAME=(2E,6E,12E)-18-(2,6-dioxopiperidin-4-yl)-9,11-dihydroxy-8-methoxy-10,12,14-trimethyl-15-oxooctadeca-2,6,12-trienoic acid
LIBRARYQUALITY=3
SMILES=N/A
INCHIKEY=YQDJUXPUIRGKNV-MNOLRWOYSA-N
INCHI=InChI=1S/C27H41NO8/c1-17(21(29)11-9-10-20-15-23(30)28-24(31)16-20)14-18(2)26(34)19(3)27(35)22(36-4)12-7-5-6-8-13-25(32)33/h7-8,12-14,17,19-20,22,26-27,34-35H,5-6,9-11,15-16H2,1-4H3,(H,32,33)(H,28,30,31)/b12-7+,13-8+,18-14+
MSLEVEL=2
SOURCE_INSTRUMENT=N/A-ESI-QFT
FILENAME=library_mgf.mgf
SEQ=*..*
IONMODE=positive
ORGANISM=MONA
NAME=(2E,6E,12E)-18-(2,6-dioxopiperidin-4-yl)-9,11-dihydroxy-8-methoxy-10,12,14-trimethyl-15-oxooctadeca-2,6,12-trienoic acid [M+NH4]+
PI=MoNA
DATACOLLECTOR=MoNA:VF-NPL-QEHF001655
PUBMED=N/A
SUBMITUSER=mwang87
TAGS=
SPECTRUMID=CCMSLIB00004692718
SCANS=1655
50.167938 0.060748 
50.547474 0.066706 
51.069695 0.058657 
51.477596 0.070676 
51.479984 0.057854 
51.510719 0.046094 
51.632084 0.06445 
51.826782 0.050502 
52.141949 0.07634 
52.182449 0.065866 
52.492222 0.077041 
53.039375 1.67991 
53.131042 0.085005 
53.193844 0.067194 
53.280373 0.087115 
53.427376 0.074267 
53.606716 0.066973 
53.612293 0.060412 
53.636349 0.079426 
53.647751 0.064703 
53.925575 0.053331 
54.31337 0.057182 
54.432926 0.051491 
54.932655 0.098285 
54.980076 0.061177 
55.009686 0.08298 
55.018631 0.410022 
55.054981 0.070699 
55.335995 0.077905 
55.377651 0.064256 
55.458019 0.080085 
55.569912 0.057566 
55.591953 0.051308 
55.621777 0.078602 
55.671703 0.079688 
56.109322 0.068163 
56.227535 0.085002 
56.521812 0.073305 
56.534912 0.075819 
57.034279 1.264886 
57.115875 0.070523 
57.485004 0.046622 
57.810734 0.042878 
58.142296 0.060777 
58.487537 0.055106 
59.363018 0.091125 
59.405239 0.063094 
59.491432 0.084107 
59.746132 0.053958 
60.045155 6.0299 
60.142708 0.058412 
60.345322 0.04748 
61.02924 0.10349 
61.090107 0.076277 
61.662251 0.056521 
62.588203 0.063781 
62.629082 0.071282 
62.645287 0.087343 
62.794422 0.060272 
63.550625 0.04296 
64.933678 0.064611 
65.755806 0.088945 
66.038498 0.073758 
66.421822 0.082991 
67.054947 4.496527 
67.064842 0.045615 
67.15876 0.085775 
67.319771 0.077052 
67.422134 0.07393 
68.420296 0.077044 
68.593582 0.080973 
68.678741 0.065454 
68.800743 0.068875 
68.87191 0.063659 
69.034286 0.4625 
69.07061 1.001146 
69.627327 0.065314 
69.71875 0.063875 
70.026337 0.039718 
70.868233 0.078896 
70.966209 0.069234 
71.049744 0.312877 
71.61657 0.043633 
72.052048 0.062712 
72.655106 0.075978 
72.958923 0.089784 
73.40097 0.071233 
73.452042 0.059685 
73.545341 0.090923 
73.585365 0.093515 
73.623016 0.048851 
73.63652 0.053002 
74.258507 0.075948 
74.861092 0.053744 
75.54911 0.063836 
76.35775 0.057371 
77.575813 0.04415 
77.84758 0.079334 
77.882706 0.077995 
78.234344 0.089984 
78.442993 0.042627 
79.054855 7.337935 
79.145432 0.072226 
79.170837 0.075169 
80.195221 0.049104 
80.336784 0.082837 
80.604248 0.06608 
80.678017 0.081852 
81.034065 13.509415 
81.070465 5.329085 
81.704964 0.098209 
82.037437 0.052323 
82.165665 0.084542 
83.049835 0.153832 
83.085815 0.048505 
85.077721 0.064172 
85.515411 0.077096 
86.715042 0.082958 
87.876831 0.057807 
88.189583 0.089844 
88.398354 0.088508 
88.58297 0.066913 
89.341194 0.058331 
89.984451 0.049704 
90.100067 0.080949 
91.054771 3.922699 
91.217911 0.071163 
91.78511 0.064741 
92.328148 0.061025 
92.353844 0.082163 
93.070366 25.687511 
93.660866 0.060743 
94.065598 1.057446 
94.0737 0.380067 
94.115143 0.094001 
95.049622 3.829809 
95.085945 6.936339 
95.420746 0.069006 
96.358093 0.066901 
97.065216 2.690547 
97.271484 0.082478 
99.04454 0.067106 
99.054298 0.085017 
100.77375 0.0656 
102.995995 0.053559 
103.054718 0.180013 
104.514259 0.09484 
105.033966 0.362287 
105.070267 6.724364 
105.623589 0.079275 
107.049522 3.035873 
107.085876 3.793684 
109.065155 1.942467 
109.101501 14.452397 
110.104546 0.06852 
110.702759 0.07064 
111.080704 0.912117 
111.117004 0.074408 
111.254555 0.049759 
112.029602 0.066603 
112.613762 0.062442 
113.449097 0.059197 
113.952042 0.079385 
114.529366 0.088802 
114.9394 0.099727 
115.041832 0.054038 
115.193535 0.068336 
115.883751 0.159722 
116.303703 0.096817 
117.070183 0.384201 
118.521385 0.08861 
118.943573 0.080343 
119.085785 7.672367 
119.167557 0.088561 
119.781944 0.06548 
120.089447 0.065029 
121.028267 0.061357 
121.040443 0.068748 
121.064964 6.770278 
121.10141 2.053609 
121.339737 0.069661 
123.044243 5.359265 
123.080605 1.01899 
123.117401 0.06773 
123.243774 0.054458 
123.460587 0.067894 
124.001465 0.085961 
125.627075 0.083489 
125.936005 0.063268 
126.85379 0.082634 
127.544991 0.065559 
128.112885 0.094491 
129.070007 0.221472 
129.897964 0.094676 
131.085617 3.041748 
131.567963 0.052797 
132.900284 0.051795 
133.064941 0.486355 
133.101227 8.737416 
133.723526 0.052929 
134.104034 0.079468 
134.532562 0.089309 
135.080505 2.567173 
137.059677 2.13921 
137.096024 0.467392 
138.054977 3.755734 
138.091171 0.388922 
138.568954 0.087857 
138.905746 0.082813 
139.075546 0.110188 
139.25589 0.067411 
139.431366 0.066948 
139.555893 0.061829 
140.070633 45.906315 
141.054581 5.067245 
141.074051 1.186276 
141.211395 0.067572 
143.085526 1.781149 
143.607803 0.042698 
144.093445 0.953287 
145.064835 0.093528 
145.101257 5.14208 
146.134293 0.060199 
146.735809 0.054009 
146.837921 0.048839 
147.080399 8.844461 
147.117035 1.138763 
147.234512 0.079468 
148.419388 0.065851 
149.059738 1.174249 
149.096115 1.78748 
149.132355 0.297981 
149.368729 0.05422 
150.780838 0.075307 
152.669525 0.078038 
152.69281 0.079034 
152.799408 0.063207 
153.439423 0.061399 
153.598816 0.098916 
154.039886 0.081448 
154.086243 4.974259 
154.222763 0.04972 
155.154556 0.053407 
156.26149 0.055225 
157.101089 3.878403 
157.552078 0.068776 
159.080475 0.387886 
159.089157 0.066672 
159.116882 4.148136 
159.198914 0.093794 
161.096039 29.268894 
162.098053 0.132349 
162.104431 2.217309 
163.111862 0.383533 
163.890411 0.065885 
164.070587 0.901477 
164.783005 0.056266 
165.054871 1.402323 
166.722488 0.065101 
168.413116 0.104441 
169.10112 0.686297 
169.418015 0.073826 
170.312607 0.073446 
170.970459 0.06254 
171.080994 0.085874 
171.116684 2.742319 
171.872559 0.077549 
172.177124 0.069015 
173.096191 1.789387 
173.132629 5.18857 
174.099762 0.094888 
174.138763 0.077565 
175.111694 0.586156 
175.460709 0.087249 
176.29866 0.085986 
176.745544 0.059134 
177.057571 0.06991 
180.101837 0.157283 
180.190842 0.094276 
181.24025 0.105424 
181.299957 0.069852 
182.062759 0.099285 
182.081284 16.346426 
183.065201 0.70069 
183.084137 0.06349 
183.116974 3.876163 
185.132523 0.826032 
185.52124 0.077732 
187.111816 1.056663 
187.14801 1.03044 
189.127457 0.068284 
189.458847 0.066575 
189.691086 0.109276 
190.185715 0.112302 
191.106583 0.098123 
191.883163 0.070874 
192.101746 0.067089 
192.872177 0.094614 
193.101013 0.097635 
193.165604 0.063427 
193.344193 0.068853 
197.132385 2.735557 
197.420547 0.072918 
199.111816 0.854419 
199.702438 0.067248 
200.091782 3.631585 
200.177841 0.089584 
200.934555 0.074296 
201.127441 1.241191 
201.456619 0.067326 
201.88884 0.057733 
204.0121 0.090016 
205.921494 0.058647 
211.111603 2.545524 
211.148941 0.186876 
213.139938 4.741631 
213.145966 4.49849 
215.143082 1.833233 
216.342484 0.0695 
216.880737 0.076429 
217.122467 0.063993 
219.612137 0.092893 
219.828796 0.049801 
220.879517 0.116717 
229.122528 0.70389 
232.71698 0.071424 
234.149017 0.109445 
239.144852 0.068331 
240.441544 0.059953 
246.266129 0.071986 
247.132751 100.0 
248.136185 14.175115 
248.941055 0.071682 
249.139587 0.073262 
249.423325 0.069507 
250.144989 0.111397 
250.630753 0.054718 
252.202072 0.066526 
253.341644 0.088683 
255.640625 0.094855 
256.084198 0.086187 
256.168915 0.077361 
257.153748 0.094987 
259.169098 2.356159 
261.103363 0.066332 
262.143768 12.1941 
263.146332 0.197569 
273.010651 0.066536 
274.179993 6.834717 
281.336884 0.087624 
282.086029 0.083081 
285.178528 0.09204 
286.416138 0.085737 
287.737305 0.074412 
292.190796 0.556441 
294.259308 0.085314 
304.087769 0.055443 
307.155853 0.100571 
308.313385 0.070524 
308.412415 0.086547 
310.563751 0.065415 
310.673035 0.065662 
314.165039 0.067805 
316.767517 0.062413 
317.643829 0.057848 
319.12793 0.074218 
320.166016 0.068205 
321.768341 0.07378 
323.299957 0.089371 
328.743561 0.059747 
329.670105 0.081196 
331.585724 0.078341 
332.154236 0.089151 
333.640991 0.05986 
334.654327 0.045368 
334.68512 0.096728 
348.396515 0.074366 
349.494904 0.061256 
352.559875 0.068677 
356.84967 0.072449 
357.654785 0.086086 
371.494263 0.066254 
376.15683 0.07516 
394.962158 0.083446 
400.457977 0.063043 
407.401978 0.09236 
424.909302 0.068444 
427.565765 0.063853 
436.135468 0.061313 
437.23468 0.075724 
440.173523 0.072076 
445.74707 0.081313 
448.115936 0.088464 
451.097778 0.09469 
452.093353 0.05177 
464.944489 0.087106 
465.084015 0.049283 
474.386963 0.066994 
478.788788 0.067487 
516.879639 0.084275 
520.225342 0.088624 
534.222412 0.078246 
543.822693 0.061579 
553.036133 0.086127 
END IONS

