BEGIN IONS
PEPMASS=414.155
CHARGE=1+
COMPOUNDNAME=Massbank:CE000163 S,R-Noscapine
LIBRARYQUALITY=3
SMILES=CN1CCC2=CC3=C(C(=C2[C@@H]1[C@@H]4C5=C(C(=C(C=C5)OC)OC)C(=O)O4)OC)OCO3
INCHIKEY=AKNNEGZIBPJZJG-MSOLQXFVSA-N
INCHI=1S/C22H23NO7/c1-23-8-7-11-9-14-20(29-10-28-14)21(27-4)15(11)17(23)18-12-5-6-13(25-2)19(26-3)16(12)22(24)30-18/h5-6,9,17-18H,7-8,10H2,1-4H3/t17-,18+/m1/s1
MSLEVEL=2
SOURCE_INSTRUMENT=ESI-LC-ESI-ITFT
FILENAME=Massbank_ESI_positive_8_1_2014_peaks.mgf
SEQ=*..*
IONMODE=Positive
ORGANISM=MASSBANK
NAME=Massbank:CE000163 S,R-Noscapine [M+H]+
PI=Putative Massbank Match
DATACOLLECTOR=Massbank
PUBMED=N/A
SUBMITUSER=mwang87
TAGS=
SPECTRUMID=CCMSLIB00000205743
SCANS=1003
136.514389 1180.689087 
142.951904 1298.004639 
177.871384 1031.96875 
179.070496 13734.081055 
188.458847 1273.95105 
204.064316 2315.292969 
205.073639 101387.507812 
206.081406 6193.524414 
218.0811 2718.8479 
219.499939 1785.239258 
220.096863 1835554.0 
220.454666 5584.072754 
220.696991 1393.34082 
221.101074 2343.955078 
248.091766 12098.705078 
302.440643 1163.898071 
317.595215 1244.183105 
324.098816 15451.082031 
334.082733 2339.070557 
335.093018 4659.358398 
339.121979 2874.732666 
350.079712 6266.941895 
351.091278 1596.619263 
352.097839 13027.689453 
353.102142 94034.523438 
355.118347 5101.663086 
365.101929 96169.929688 
366.097748 2654.494873 
367.114441 1263.058594 
371.113739 4317.57373 
378.13382 12262.013672 
381.120941 26412.886719 
383.112213 11668.546875 
396.143524 85383.25 
414.154633 185368.359375 
414.857117 1062.496582 
415.158569 41858.921875 
443.913513 1055.560181 
END IONS

