BEGIN IONS
PEPMASS=335.135
CHARGE=1+
COMPOUNDNAME=MITOMYCIN C
LIBRARYQUALITY=3
SMILES=N/A
INCHIKEY=NWIBSHFKIJFRCO-WUDYKRTCSA-N
INCHI=InChI=1S/C15H18N4O5/c1-5-9(16)12(21)8-6(4-24-14(17)22)15(23-2)13-7(18-13)3-19(15)10(8)11(5)20/h6-7,13,18H,3-4,16H2,1-2H3,(H2,17,22)/t6-,7+,13+,15-/m1/s1
MSLEVEL=2
SOURCE_INSTRUMENT=N/A-ESI-QFT
FILENAME=library_mgf.mgf
SEQ=*..*
IONMODE=positive
ORGANISM=MONA
NAME=MITOMYCIN C [M+H]+
PI=MoNA
DATACOLLECTOR=MoNA:VF-NPL-QEHF027724
PUBMED=N/A
SUBMITUSER=mwang87
TAGS=
SPECTRUMID=CCMSLIB00004721305
SCANS=27724
50.11417 0.003544 
50.430302 0.004167 
50.470562 0.003415 
51.083054 0.003354 
51.324059 0.00339 
51.523746 0.004187 
52.037125 0.002514 
52.081264 0.004529 
52.238674 0.00481 
52.966599 0.003373 
53.101452 0.00345 
53.406658 0.003298 
53.669109 0.003205 
53.797592 0.003486 
54.004292 0.003574 
54.399776 0.00262 
54.590683 0.002847 
54.6591 0.003649 
55.89835 0.004313 
55.985432 0.006904 
56.049721 0.039447 
56.13744 0.004023 
56.457973 0.003699 
56.677006 0.003524 
56.800175 0.002848 
57.221542 0.004324 
57.244175 0.004196 
58.722164 0.003897 
58.78561 0.003529 
59.618439 0.003456 
60.044598 0.052993 
60.227459 0.003483 
60.396973 0.008112 
61.241222 0.003108 
61.286934 0.003657 
62.076153 0.002622 
63.1731 0.003685 
63.724464 0.004063 
63.981777 0.003662 
64.336983 0.003818 
65.390617 0.002856 
66.074455 0.002458 
67.069214 0.002698 
67.323921 0.003717 
68.065681 0.004527 
68.179222 0.004496 
68.426399 0.003152 
69.343216 0.002688 
69.375053 0.003539 
69.644569 0.003323 
70.040306 0.003024 
70.195534 0.003262 
70.301636 0.003329 
70.716347 0.003639 
70.949821 0.002915 
70.985512 0.003452 
71.161842 0.004559 
72.023651 0.003431 
72.956604 0.003384 
73.067223 0.003011 
73.80825 0.003112 
74.488739 0.00323 
75.043747 0.004382 
75.27536 0.003564 
76.915688 0.003313 
77.43158 0.003383 
77.515884 0.0027 
79.45668 0.00362 
79.690323 0.00461 
80.375786 0.004458 
80.576546 0.003653 
81.026947 0.003176 
81.124084 0.003064 
81.343002 0.004019 
81.356056 0.002715 
81.838951 0.003032 
82.095406 0.003536 
83.830666 0.003057 
83.996635 0.003847 
84.044495 0.005624 
84.072266 0.003411 
86.059975 0.02888 
87.023888 0.003532 
87.478127 0.003774 
88.884888 0.00481 
89.794479 0.003493 
90.305534 0.00305 
90.810272 0.003504 
91.154808 0.003453 
91.507545 0.00361 
92.490059 0.005084 
92.709908 0.003932 
92.807518 0.003558 
92.853302 0.003132 
96.422142 0.003577 
96.768776 0.003434 
97.213203 0.003717 
97.530304 0.005012 
98.06012 0.008644 
98.177223 0.003717 
98.372574 0.003749 
98.521416 0.004733 
100.620285 0.003923 
102.0532 0.003649 
102.278481 0.003555 
104.810265 0.002795 
108.428253 0.004681 
110.060051 0.516612 
111.063232 0.004772 
111.840584 0.004147 
112.496582 0.003262 
115.437958 0.003383 
116.619522 0.004313 
118.449051 0.004716 
120.278481 0.004746 
120.378723 0.004258 
121.016953 0.002651 
121.74633 0.003577 
121.88649 0.003575 
122.440559 0.003902 
122.582962 0.003658 
123.148361 0.003105 
124.796089 0.003302 
126.180984 0.004814 
126.913719 0.00357 
127.446762 0.002686 
131.061752 0.003365 
132.068604 0.017517 
132.517166 0.004887 
132.586563 0.005038 
133.076035 0.012602 
133.543564 0.003599 
135.747101 0.002604 
135.989517 0.003596 
137.070953 0.289184 
138.508804 0.003419 
138.675934 0.004234 
139.715851 0.005818 
139.83223 0.005124 
141.531998 0.002948 
141.971436 0.002744 
142.116592 0.003176 
142.539246 0.003066 
144.379242 0.003598 
145.210312 0.004416 
145.952454 0.002707 
146.045624 0.004894 
148.31131 0.003598 
149.070892 0.016887 
149.193268 0.005085 
149.3703 0.003052 
150.866241 0.003427 
150.909302 0.004182 
151.64505 0.004241 
156.067673 0.003723 
156.21608 0.00269 
157.077316 0.003686 
157.526138 0.003284 
158.544998 0.003543 
158.996109 0.003788 
159.055344 0.359054 
159.091949 0.008712 
160.677933 0.003996 
165.065857 0.146328 
166.761154 0.003209 
168.991028 0.003879 
169.076233 0.061862 
170.730957 0.004532 
171.09169 0.260067 
173.071167 0.004715 
173.623886 0.005192 
175.086533 0.008272 
175.518265 0.004911 
176.603638 0.003584 
176.898514 0.003493 
177.065964 0.082931 
178.879211 0.004631 
179.272324 0.003827 
180.033524 0.004145 
180.078613 0.004209 
181.206528 0.003495 
185.071426 0.009138 
186.065277 0.008784 
186.102707 0.034631 
187.086685 0.055541 
187.297821 0.00363 
188.70253 0.003824 
189.065765 0.123734 
191.081863 0.006855 
191.975815 0.005036 
193.416611 0.002922 
195.050095 0.002875 
197.070969 0.327058 
197.812912 0.003998 
198.102554 0.227833 
199.075317 0.055215 
199.086563 0.577645 
200.091095 0.003392 
201.065826 0.004942 
202.073807 0.412837 
202.266739 0.004284 
202.754974 0.003485 
203.081665 0.423475 
203.701263 0.003785 
204.08992 0.004596 
208.849625 0.003723 
213.065887 0.216362 
213.089462 0.025865 
213.461945 0.002881 
214.073318 0.045679 
214.097504 1.198803 
214.763443 0.117103 
214.773087 0.08209 
215.081497 2.017684 
215.100052 0.092518 
215.41069 0.004486 
215.742294 0.005168 
215.962173 0.00486 
216.075287 0.003953 
216.085342 0.156497 
216.11322 0.019728 
217.09729 0.272368 
218.068802 0.016151 
218.65889 0.003521 
219.07637 0.34529 
221.092056 0.067341 
224.081955 0.003388 
224.475327 0.002944 
225.065918 0.356885 
226.072327 0.029602 
226.098068 0.017187 
226.916412 0.003523 
227.069092 0.150713 
227.08139 1.046367 
228.085526 0.064505 
228.113678 0.003374 
228.9543 0.00315 
229.084625 0.632307 
229.096313 0.018629 
230.06842 0.023209 
230.091751 0.184382 
231.076263 0.96779 
231.099426 0.036474 
232.083359 0.268439 
232.921127 0.004778 
234.989883 0.003904 
236.751968 0.004333 
237.668854 0.003005 
240.076645 0.333615 
241.083191 0.264394 
242.070007 0.20044 
242.0923 100.0 
243.095947 13.323175 
243.124893 0.004864 
244.108566 4.158607 
244.34494 0.002745 
245.092072 1.077338 
245.111786 0.571156 
246.09581 0.090262 
246.124146 0.013958 
253.378616 0.004614 
253.522125 0.002926 
256.362 0.004269 
257.079163 0.581188 
257.092255 0.407961 
258.083221 0.370694 
259.095398 0.428481 
260.097351 0.007603 
263.369049 0.003763 
264.862549 0.003028 
267.577454 0.004635 
270.001984 0.003451 
270.087402 0.004555 
271.61853 0.0041 
272.103516 0.014498 
272.813049 0.004393 
273.107788 0.009702 
274.118591 2.499367 
275.122009 0.388947 
279.098969 0.004628 
296.629181 0.005239 
300.166199 0.004053 
302.672455 0.003021 
302.932526 0.002915 
304.17569 0.036277 
321.576569 0.003115 
323.134735 0.003011 
325.972839 0.004171 
335.167297 0.069577 
336.170624 0.003289 
341.482117 0.004336 
347.193787 0.003206 
348.765808 0.003778 
349.459229 0.004606 
349.77655 0.004947 
356.772003 0.003793 
END IONS

