BEGIN IONS
PEPMASS=412.174
CHARGE=1+
COMPOUNDNAME=Roquefortine C
LIBRARYQUALITY=3
SMILES=N/A
INCHIKEY=SPWSUFUPTSJWNG-LIMLNZRCSA-N
INCHI=InChI=1S/C22H23N5O2/c1-4-21(2,3)22-10-17-18(28)25-16(9-13-11-23-12-24-13)19(29)27(17)20(22)26-15-8-6-5-7-14(15)22/h4-9,11-12,17,20,26H,1,10H2,2-3H3,(H,23,24)(H,25,28)/b16-9-/t17-,20-,22+/m0/s1
MSLEVEL=2
SOURCE_INSTRUMENT=N/A-ESI-QFT
FILENAME=library_mgf.mgf
SEQ=*..*
IONMODE=positive
ORGANISM=MONA
NAME=Roquefortine C [M+Na]+
PI=MoNA
DATACOLLECTOR=MoNA:VF-NPL-QEHF016405
PUBMED=N/A
SUBMITUSER=mwang87
TAGS=
SPECTRUMID=CCMSLIB00004707468
SCANS=16405
50.170128 0.02114 
50.7859 0.026757 
52.041168 0.023564 
53.002464 0.027481 
53.168892 0.044598 
53.714237 0.025982 
53.909466 0.023886 
54.028931 0.037858 
54.31773 0.022461 
54.751881 0.020294 
55.018131 0.027164 
55.054562 0.859662 
55.39119 0.029387 
55.61071 0.04186 
56.049805 0.098747 
56.21949 0.025173 
57.033852 0.1066 
57.07016 2.701314 
57.296291 0.029188 
57.495316 0.018324 
57.500404 0.023674 
58.065414 0.151398 
58.550518 0.022069 
58.78363 0.028306 
58.93544 0.029938 
59.049393 2.210886 
59.191727 0.025382 
59.246498 0.017522 
59.828327 0.023937 
59.851013 0.041288 
59.909195 0.016374 
59.96666 0.049814 
60.044643 0.745384 
60.343494 0.021883 
61.010887 8.301692 
61.611984 0.047619 
62.014263 0.030342 
62.018742 0.353738 
62.274544 0.021802 
62.509506 0.023769 
63.006672 0.085707 
63.435581 0.018858 
64.222755 0.040628 
64.546425 0.020514 
65.608612 0.027659 
65.687309 0.039221 
66.067596 0.024888 
66.351723 0.020163 
67.054375 1.439661 
67.056145 0.029489 
67.827736 0.019501 
68.222389 0.020874 
68.429192 0.037914 
69.033638 0.229253 
69.044868 0.23191 
69.070015 14.841986 
69.466316 0.019387 
69.48719 0.029517 
70.065216 0.781985 
70.073326 0.724258 
70.124992 0.0286 
71.049294 0.173489 
71.085625 2.222221 
71.347801 0.021748 
71.483513 0.040402 
71.56813 0.018989 
72.080864 7.179711 
72.937042 0.022017 
73.06485 0.484424 
73.084198 0.058875 
73.562645 0.023409 
74.060089 0.030305 
75.044136 0.59514 
75.509293 0.022548 
76.223862 0.02531 
77.981026 0.038697 
78.498978 0.017443 
78.626137 0.022758 
78.967087 0.139451 
79.021263 1.451169 
79.023529 0.024161 
79.054199 0.021221 
79.091156 0.023746 
81.044807 1.975669 
81.069931 0.822681 
81.655106 0.027248 
82.052834 0.059009 
82.073296 0.02651 
83.012733 0.022589 
83.049194 0.250195 
83.060387 0.165308 
83.085548 0.347611 
84.08091 0.234057 
85.028519 0.026745 
85.039688 0.598458 
85.064865 0.743511 
85.101242 1.451031 
85.484512 0.02865 
85.662254 0.041637 
86.060043 0.295245 
86.096413 0.153393 
87.044136 0.883274 
87.055336 0.629273 
88.039413 0.086325 
88.230911 0.020353 
89.059753 7.872534 
90.063133 0.17674 
90.363998 0.022261 
90.947815 0.171122 
90.967148 0.184064 
91.054253 0.204075 
91.714912 0.028729 
92.94429 0.026866 
92.982834 35.518047 
93.069916 0.252583 
93.844185 0.02069 
94.05262 7.346778 
94.747993 0.030694 
94.978523 0.209485 
95.024246 0.02143 
95.049217 3.955868 
95.060501 0.345753 
95.085594 0.71303 
95.526184 0.021936 
96.052551 0.099267 
96.055664 0.041475 
97.028427 0.122416 
97.039757 0.755281 
97.064865 0.168337 
97.101234 0.170377 
98.060143 0.397318 
98.555382 0.028953 
98.63443 0.026391 
98.89782 0.02537 
99.044167 0.302187 
99.080475 0.143978 
99.236015 0.029585 
101.00325 0.877007 
101.059746 1.107032 
103.075478 0.134612 
103.550056 0.021786 
103.57991 0.023165 
104.136826 0.029154 
105.069908 0.200345 
105.183723 0.022843 
106.03363 0.022156 
106.039917 0.082456 
106.065376 0.049494 
106.998558 0.086509 
107.048485 0.233247 
107.070305 0.071151 
107.085533 0.163256 
108.055695 1.805893 
108.080994 0.023607 
108.958527 0.025852 
109.039703 0.926153 
109.064766 0.146626 
109.101349 0.240224 
111.044067 0.343845 
111.055328 5.214898 
111.080566 0.100635 
112.058563 0.122534 
112.075768 0.058102 
112.420403 0.027777 
113.034653 1.237863 
113.059738 0.151311 
115.075363 0.145629 
116.034241 0.098451 
116.107201 0.057836 
117.05751 0.365232 
118.064957 0.092923 
118.777023 0.040479 
119.048752 0.022123 
119.085655 0.122811 
120.044495 0.056606 
120.055901 0.249756 
120.080795 2.606943 
120.606155 0.01774 
121.039581 0.102805 
121.064323 0.812198 
121.084221 0.258445 
121.101265 0.127561 
121.115601 0.026109 
121.411659 0.028182 
122.071342 0.759798 
122.088852 0.021987 
123.079369 0.753092 
123.116753 0.049491 
123.860039 0.025892 
123.895538 0.023742 
124.050545 0.212774 
124.411575 0.042635 
125.059799 0.129612 
125.071312 0.027605 
125.096001 0.093444 
126.042419 0.038734 
127.032684 0.214333 
127.03907 0.030134 
127.05011 0.033114 
127.075043 0.074428 
129.054535 0.323701 
129.102173 0.391341 
130.065186 30.112026 
130.159042 0.206871 
131.068451 0.824731 
131.073074 4.269297 
131.085464 0.031208 
131.117676 0.096271 
132.080872 0.806029 
133.039688 1.19661 
133.064682 0.029768 
133.085938 2.347404 
133.101181 0.108965 
134.035156 0.022256 
134.047668 0.178744 
134.956177 1.00345 
135.080368 0.132467 
135.091324 0.023739 
135.116806 0.080178 
136.03949 0.034759 
136.050537 0.659818 
136.075775 4.968591 
137.023331 0.089019 
137.059586 0.157112 
137.079193 0.726774 
137.682098 0.025924 
138.066467 0.070166 
139.038681 0.054063 
139.050415 0.027792 
139.07547 0.106926 
140.028046 0.02637 
140.700943 0.018728 
141.054703 0.064345 
141.065918 0.049734 
141.3358 0.026819 
142.065598 0.146759 
142.979492 0.022755 
143.073059 2.093455 
144.080887 5.284607 
145.076096 1.191661 
145.084351 0.044375 
146.034805 0.034554 
146.060074 0.547358 
146.974274 0.389295 
147.044022 0.064562 
147.054764 0.034309 
147.080612 0.107812 
147.116943 0.021285 
148.050491 0.882918 
148.075912 0.02445 
148.235825 0.027104 
148.972046 0.230365 
149.05896 0.290529 
149.071365 0.022562 
149.096283 0.186409 
149.132904 0.051921 
149.953979 0.024723 
150.066345 0.384414 
150.951096 2.486471 
151.038788 0.065073 
151.075027 0.186701 
151.111526 0.026292 
152.045609 0.091958 
152.95163 0.155519 
152.966858 0.728146 
153.029648 0.123508 
153.05452 0.142497 
153.077271 0.050994 
153.091187 0.04547 
153.959473 0.32024 
154.043182 0.03655 
154.065521 0.233764 
154.085678 0.025538 
154.989304 0.023737 
155.027496 0.129894 
155.045288 0.2495 
155.070145 0.058516 
156.034592 0.028764 
156.080765 0.991122 
157.076202 0.357929 
158.060074 0.424611 
158.083939 0.314285 
158.974472 0.238355 
158.99556 0.026747 
159.080902 0.058154 
159.091766 0.727943 
160.075714 0.987849 
160.087036 0.307712 
160.112152 0.119965 
160.712036 0.03178 
160.977417 0.169921 
160.98996 0.509543 
161.059479 0.037862 
161.070709 0.02505 
161.096069 0.064227 
161.392548 0.04416 
162.029907 1.29611 
162.036591 0.030511 
162.05542 0.023351 
162.066605 0.067157 
162.078781 0.287369 
162.975327 0.864644 
162.992661 0.023823 
163.050232 0.027891 
163.061478 3.374432 
163.075104 0.127833 
164.045456 1.966066 
164.966782 0.130671 
164.987885 0.484875 
165.054428 0.17945 
165.07724 0.076355 
165.091217 0.296048 
166.061203 0.098066 
166.086365 0.069386 
166.10733 0.033854 
166.910202 0.023742 
166.983109 0.020184 
167.070679 0.09701 
168.081024 0.216659 
168.102234 0.07571 
168.961929 1.08548 
168.969711 0.08487 
168.983185 0.030229 
169.076141 3.896843 
169.977585 0.807285 
170.060165 0.820851 
170.0793 0.06238 
170.562881 0.026133 
170.98082 0.059065 
171.05545 2.015449 
171.063339 0.123751 
171.091751 4.227786 
171.975586 2.34977 
171.992905 0.055997 
172.05896 0.028905 
172.075882 0.378336 
172.08847 0.030562 
172.099457 0.027034 
172.989746 0.10431 
173.010818 0.029584 
173.047714 0.033056 
173.095963 0.0533 
173.107468 0.030824 
174.03009 0.136431 
174.055191 0.107242 
174.0914 0.148407 
174.100784 0.025062 
174.975677 0.032536 
174.990341 0.061537 
175.038254 0.030067 
175.061615 0.253836 
175.074905 0.448121 
175.086639 0.118387 
175.112198 0.027639 
175.12294 0.137966 
176.04541 0.57417 
176.070145 0.275109 
176.10704 1.465183 
176.987869 0.670454 
177.006073 0.042579 
177.053696 0.912737 
177.065323 0.064481 
177.077133 2.210436 
177.091156 0.230291 
177.111877 0.074419 
177.835678 0.021274 
178.061249 0.29659 
178.074203 0.02775 
178.085556 0.276584 
178.122742 0.027831 
179.002106 0.024063 
179.056641 0.308443 
179.070053 0.286412 
179.08168 0.095462 
179.106384 0.055586 
181.087891 0.115166 
181.679855 0.036928 
182.060455 0.026029 
182.977264 0.242205 
183.055344 0.08884 
183.09201 0.106467 
183.103745 0.053886 
184.062958 0.092865 
184.076111 0.066739 
184.112061 0.479325 
185.071274 1.747122 
185.107391 0.213141 
185.116104 0.035401 
185.949341 0.124258 
186.055237 0.069342 
186.091721 0.052659 
186.148773 0.025935 
186.98027 0.957451 
187.086563 0.600633 
187.123245 0.030729 
187.533951 0.027025 
187.988068 7.998331 
188.045578 0.066878 
188.070541 0.57099 
188.081863 0.05207 
188.107071 1.14682 
188.97818 0.789988 
188.992493 3.051805 
189.005234 0.196022 
189.053513 1.337713 
189.076797 0.053362 
189.090988 0.160508 
189.110733 0.09158 
189.986313 21.885723 
190.086609 0.052567 
190.12294 0.027259 
190.990616 1.125205 
191.001358 0.567676 
191.033432 0.028309 
191.056442 7.809033 
191.067169 0.111348 
191.070816 0.120255 
191.106735 0.601019 
192.001266 0.029799 
192.064392 12.999905 
192.074371 0.041605 
192.112152 0.025159 
192.138443 0.060509 
192.17485 0.061741 
192.961807 1.834087 
193.072205 12.332657 
194.075577 0.156873 
195.055542 1.075925 
195.122116 0.025395 
196.061981 0.020783 
196.072281 0.019955 
196.112274 1.150283 
197.071198 1.858074 
197.080185 0.027045 
198.127823 6.699109 
199.050507 0.214953 
199.086807 2.185852 
199.131271 1.739663 
199.982376 0.058513 
200.057724 0.208441 
200.081039 0.023484 
200.107269 0.028356 
201.065308 0.033008 
201.090958 0.053953 
201.112366 0.069958 
201.129471 0.020365 
201.13855 0.07258 
202.086365 0.726904 
202.09671 0.027012 
203.047562 0.029279 
203.056381 1.507538 
203.106873 0.196211 
204.002487 0.026714 
204.064438 5.528348 
204.102081 0.546482 
204.962326 0.889837 
205.072235 49.983139 
206.080017 78.221863 
206.977859 0.136657 
207.051514 3.569609 
207.062317 0.035984 
207.087906 0.037118 
207.102188 0.065254 
207.986053 0.031298 
208.017761 0.297586 
208.056442 0.690302 
208.08696 0.554347 
208.096954 0.478014 
208.883545 0.08213 
208.957138 0.316061 
208.977234 0.029849 
209.049179 0.031369 
209.070755 0.057901 
209.095108 0.047699 
209.891754 0.0707 
209.960037 0.024203 
210.066422 0.214316 
210.102798 2.086784 
210.127792 0.798747 
210.972244 1.139301 
211.074448 1.607443 
211.08522 0.147141 
211.10733 0.14347 
211.825745 0.045756 
212.081116 0.129027 
212.107254 0.060506 
212.143707 0.439475 
213.038345 15.302226 
213.06575 2.206664 
213.693161 0.032075 
213.748566 0.910353 
213.764175 0.753638 
214.04628 28.332712 
214.070572 0.079685 
214.085693 0.081362 
214.122894 2.245651 
214.567993 0.026656 
215.052933 3.415755 
215.070602 0.029786 
215.08136 0.462942 
215.106461 0.029361 
215.126633 0.064721 
217.072281 0.216975 
217.085815 0.024075 
217.097305 0.057108 
217.916977 0.048174 
218.081177 0.609045 
219.06546 0.043172 
219.08786 0.022176 
219.101883 0.304928 
219.174423 1.748421 
220.086639 0.09232 
220.177704 0.03637 
221.067078 0.127361 
221.081421 0.031252 
222.065933 0.068903 
222.102631 0.187402 
223.02832 0.030313 
223.050186 0.674937 
223.123734 0.031399 
223.855316 0.04235 
224.037186 0.058736 
224.058197 0.282987 
224.081894 0.116074 
224.983414 1.015972 
225.065643 0.429833 
225.090607 0.022588 
225.101166 0.027805 
225.88678 0.062132 
226.097672 0.214573 
227.054565 0.145627 
227.069992 0.053241 
227.081482 0.33174 
228.076782 0.226446 
229.097458 0.191922 
230.081299 1.030186 
230.092789 0.991694 
230.117722 0.947838 
231.051559 0.343077 
231.085953 0.269769 
231.101471 0.037782 
231.121552 0.167501 
232.056183 0.240203 
232.883606 0.247736 
233.067291 0.178502 
233.092087 0.02904 
233.891525 1.119639 
234.102325 0.041636 
234.46048 0.025557 
234.899704 1.262726 
234.972122 0.0239 
234.992355 0.063976 
235.096298 0.024737 
235.108276 0.537024 
235.144455 1.143823 
235.891937 0.125379 
236.081223 0.038395 
236.147598 0.271794 
237.044144 2.881367 
237.099564 0.238252 
237.11322 0.252365 
238.049362 0.215347 
238.059723 2.370911 
238.07077 0.953839 
238.097702 0.085559 
238.12088 0.025463 
239.059174 4.876961 
239.106003 0.028485 
239.152924 0.029197 
240.076691 0.769415 
240.113403 0.065831 
240.891235 0.129578 
240.910233 0.030449 
241.084976 0.106319 
242.092407 1.99037 
242.994675 0.229819 
243.066132 0.100645 
243.096405 0.561335 
244.993362 0.105163 
245.080902 0.056191 
247.097153 0.345036 
247.144333 0.866832 
248.08075 0.027795 
248.104721 0.03242 
248.128357 0.027398 
248.14772 0.343294 
248.437103 0.027605 
248.878204 0.155962 
248.899307 0.069674 
248.98465 0.043422 
249.062378 0.591417 
249.112946 0.086749 
249.886154 0.031335 
250.062851 0.126958 
250.097748 0.152047 
250.764038 0.030763 
250.89415 1.967663 
251.062469 0.030117 
251.09137 0.033195 
251.139862 0.120058 
252.063568 0.03956 
252.076981 0.715257 
252.894379 0.127819 
253.085052 0.075147 
253.134674 0.036004 
253.153687 0.034925 
253.902679 0.971386 
253.91626 0.089035 
253.974319 0.774258 
254.056351 0.096601 
254.092239 1.177 
254.105118 0.083624 
255.066727 0.093976 
255.088211 0.429717 
256.072815 0.031489 
256.959808 0.048543 
258.899353 0.967284 
259.096954 0.098015 
259.899109 0.02734 
260.093079 0.357867 
260.879303 0.126943 
260.986359 0.026422 
261.076691 0.354429 
261.113068 0.299272 
262.08371 0.099784 
262.098175 0.130954 
262.914093 0.028051 
263.092499 0.31806 
263.117676 0.387342 
263.903015 0.068961 
264.076477 0.234615 
264.909882 0.533509 
265.002045 0.597688 
265.072601 0.029998 
265.108368 0.453343 
265.990906 0.023554 
266.056122 15.064861 
266.091705 0.370328 
266.889221 0.148532 
267.040619 0.027905 
267.06308 5.234966 
267.149475 0.027422 
268.070496 0.957028 
268.108154 0.445278 
269.079803 0.231836 
270.087097 1.668167 
270.149353 0.05655 
270.901367 0.03491 
271.098846 0.347487 
272.16507 0.417283 
272.90332 0.037305 
272.975464 0.055173 
273.11441 0.686536 
273.973206 0.304081 
274.894287 0.7457 
274.970032 5.138096 
275.09259 0.972117 
275.9021 0.842661 
275.971436 0.525294 
276.098419 0.600091 
276.909943 7.909337 
276.986298 0.070808 
277.071655 0.136614 
277.108795 0.318275 
277.902954 0.814816 
277.915527 0.295235 
278.056183 0.420938 
278.165192 0.277282 
278.908813 0.029209 
278.980743 0.051789 
279.088226 0.334964 
279.917816 0.025123 
280.070892 0.477264 
280.109589 0.029935 
281.127686 0.135169 
281.913177 0.022085 
282.024353 0.073816 
282.086273 2.021489 
282.279144 0.83588 
282.919678 0.110605 
282.968048 1.256203 
283.032104 1.13191 
283.118195 0.354569 
284.039825 1.099215 
284.102997 0.683374 
284.966064 0.070455 
285.047546 4.960167 
285.074219 0.265951 
285.995392 0.145103 
286.079803 0.140058 
286.89563 0.030915 
287.003204 0.060864 
288.087799 0.122463 
288.90979 0.17281 
289.071655 0.273232 
289.108582 0.771323 
290.129456 0.032306 
290.926025 0.446958 
291.086761 0.117455 
291.108978 0.041681 
291.125366 1.34347 
291.897003 0.464747 
291.984283 0.508661 
292.129059 0.02978 
292.903809 0.032037 
292.981079 1.641728 
292.998169 1.007281 
293.089752 0.115891 
293.933746 0.033947 
293.983276 0.087028 
294.002106 1.435592 
294.051086 1.4637 
294.087006 0.295156 
294.996094 4.388929 
295.058868 11.04648 
295.912292 0.237431 
295.928772 1.268385 
296.003632 1.738772 
296.062622 1.917142 
296.115387 0.204909 
296.930145 0.026076 
297.135681 0.032248 
297.817352 0.025651 
297.92865 0.137132 
300.098236 0.322455 
300.909943 2.962099 
300.983246 0.166237 
301.071991 0.029222 
301.101837 0.192921 
301.91153 0.41593 
302.102783 0.053831 
302.889374 0.508659 
303.087708 0.420513 
303.933502 0.124908 
304.092621 0.25829 
304.119263 0.168263 
304.924927 0.647553 
305.103882 0.153682 
306.098846 0.320238 
306.135132 0.183097 
306.920563 0.324626 
307.082794 0.076765 
307.119659 0.065344 
307.140167 0.031469 
308.140472 0.224347 
309.134827 0.036105 
309.943542 0.027143 
310.118683 0.03605 
310.311096 0.200964 
310.916931 0.03059 
311.101257 0.02264 
312.109039 0.097622 
312.876831 0.097386 
314.114471 0.318004 
315.112915 0.031545 
316.018066 0.027549 
316.119202 0.171008 
316.145416 0.030498 
316.904907 0.152189 
317.102722 0.037879 
317.822052 0.35307 
318.098053 0.122383 
318.134949 0.038642 
318.869812 0.028213 
318.920593 7.545192 
319.084442 0.105908 
319.105835 0.81081 
319.128662 0.029739 
319.921783 1.474628 
320.078064 0.032853 
320.114349 3.315675 
320.899994 0.11722 
320.920074 0.076201 
321.118988 0.845866 
321.943878 0.526501 
322.129944 56.235817 
323.022888 1.193704 
323.13385 0.038702 
324.930847 0.357167 
325.020905 0.204687 
325.129669 0.156155 
326.088806 1.614345 
327.075195 0.258554 
329.822266 0.023989 
331.082336 0.032934 
331.136261 0.492911 
331.157013 0.071715 
332.091614 0.398822 
332.11438 2.097394 
332.152771 0.031012 
333.096619 0.150986 
333.118469 8.890401 
333.15152 2.405338 
333.171875 1.048464 
333.944336 0.33987 
334.130402 15.934963 
334.168732 0.781173 
335.138 49.8545 
335.166107 5.278262 
335.187073 0.074512 
335.832947 0.028248 
335.943665 0.072838 
336.041626 0.035363 
336.116394 0.03196 
336.168182 0.273712 
336.186493 0.769552 
336.839508 0.177179 
336.879181 0.065163 
336.931274 1.155668 
337.937317 0.23574 
339.939209 0.069722 
341.112244 0.33247 
342.096741 1.619302 
342.11853 1.081471 
343.101532 0.393457 
343.122925 0.130415 
344.112885 11.123291 
345.116394 2.398264 
346.093903 0.137694 
346.131531 1.411984 
347.098541 0.038536 
347.853729 0.025764 
348.109528 1.71475 
348.14621 0.474584 
349.113007 0.153018 
349.14917 0.060378 
350.010071 6.849311 
350.161438 0.602281 
350.948364 0.225413 
351.017151 48.766243 
351.128601 8.269907 
351.163727 0.419178 
351.955688 1.156789 
352.005981 20.928389 
352.025909 2.77849 
352.106628 0.062891 
352.130829 1.36691 
353.014801 21.456135 
353.128448 1.603914 
353.176483 0.085274 
353.198334 0.395558 
353.842377 0.27802 
353.955231 0.405647 
354.020966 4.253391 
354.133148 0.133927 
354.19696 0.678603 
354.888 0.060917 
355.011444 3.460522 
355.842865 0.063912 
356.016296 0.378007 
357.009766 1.309279 
358.013397 0.02558 
360.839478 0.066794 
361.83194 0.026282 
362.12793 0.031814 
362.839111 0.166149 
364.081543 0.045101 
364.104553 0.033648 
365.11145 0.333717 
365.863525 0.069365 
366.101654 3.43246 
366.128662 0.031225 
366.155884 3.960914 
367.127838 30.610363 
368.117554 17.364071 
368.172607 1.372772 
369.024902 0.652901 
369.154755 0.032464 
369.179962 0.032744 
370.018921 1.163608 
371.022278 0.059331 
377.842804 0.061344 
378.120239 0.185523 
378.155365 0.49008 
378.181305 0.037448 
379.124481 0.459562 
379.159729 0.750299 
379.186676 1.291369 
379.512207 0.043079 
379.731903 0.071311 
379.843811 0.10208 
380.098724 0.032413 
380.135345 0.68449 
380.192566 0.068084 
381.024536 0.169669 
381.140015 0.037174 
381.177246 0.119686 
381.202545 0.279929 
382.017944 0.157911 
383.005371 1.705336 
383.030365 0.270621 
384.009613 0.069671 
384.032501 0.293066 
384.054718 0.042192 
384.841034 0.69068 
385.006073 0.808866 
385.839722 0.032058 
386.839844 0.888651 
394.060699 0.10334 
394.147339 0.048911 
396.420563 0.135235 
396.844818 0.028252 
397.025085 0.063318 
397.345673 0.022411 
399.133148 0.093983 
401.018677 0.11182 
402.851868 1.713656 
403.852722 0.215666 
404.662292 0.031947 
404.849915 6.798833 
410.031067 7.938767 
410.182678 0.873419 
410.374329 0.343384 
410.47171 0.791146 
410.998352 0.021371 
411.034515 29.047325 
411.186554 1.324824 
411.226685 0.031987 
411.475159 0.13633 
412.0289 58.010242 
412.090729 1.138098 
412.174225 100.0 
412.319519 0.03824 
412.392426 0.065719 
413.032166 13.412407 
413.092773 0.131927 
413.177826 27.340612 
413.244934 0.032903 
413.294373 0.035558 
413.324188 2.490438 
414.037292 1.196419 
414.10556 15.014664 
414.154602 1.819207 
414.181396 2.657301 
414.227539 0.033034 
414.326782 0.036948 
420.861328 2.517433 
421.861816 0.541909 
422.860901 0.764013 
428.041443 1.05012 
429.045197 4.536791 
430.039703 9.450286 
431.042725 2.12551 
437.770599 0.03053 
438.871307 0.627336 
439.873871 0.074604 
END IONS

