BEGIN IONS
PEPMASS=273.1
CHARGE=1+
COMPOUNDNAME=Massbank:PR040044 4',5,7-trihydroxyflavanone|Naringenin|Nari|(2S)-5,7-dihydroxy-2-(4-hydroxyphenyl)chroman-4-one
LIBRARYQUALITY=3
SMILES=Oc(c3)ccc(c3)[C@H](C1)Oc(c2)c(c(O)cc(O)2)C(=O)1
INCHIKEY=FTVWIRXFELQLPI-ZDUSSCGKSA-N
INCHI=1S/C15H12O5/c16-9-3-1-8(2-4-9)13-7-12(19)15-11(18)5-10(17)6-14(15)20-13/h1-6,13,16-18H,7H2/t13-/m0/s1
MSLEVEL=2
SOURCE_INSTRUMENT=ESI-LC-ESI-QTOF
FILENAME=Massbank_ESI_positive_8_1_2014_peaks.mgf
SEQ=*..*
IONMODE=Positive
ORGANISM=MASSBANK
NAME=Massbank:PR040044 4',5,7-trihydroxyflavanone|Naringenin|Nari|(2S)-5,7-dihydroxy-2-(4-hydroxyphenyl)chroman-4-one [M+H]
PI=Putative Massbank Match
DATACOLLECTOR=Massbank
PUBMED=N/A
SUBMITUSER=mwang87
TAGS=
SPECTRUMID=CCMSLIB00000222701
SCANS=10863
67.0078 231.0 
68.9876 274.0 
69.0241 300.0 
91.0488 1519.0 
95.0443 197.0 
97.0231 192.0 
107.0462 198.0 
119.0471 1890.0 
123.0426 338.0 
147.0439 4603.0 
147.1057 342.0 
153.0183 10980.0 
153.081 867.0 
154.0217 268.0 
273.0763 12170.0 
273.1606 767.0 
274.0806 687.0 
END IONS

