BEGIN IONS
PEPMASS=446.0
CHARGE=1+
COMPOUNDNAME=MoNA:2312210 Sissomicin
LIBRARYQUALITY=3
SMILES=N/A
INCHIKEY=URWAJWIAIPFPJE-YFMIWBNJSA-N
INCHI=InChI=1S/C19H37N5O7/c1-19(27)7-28-18(13(26)16(19)24-2)31-15-11(23)5-10(22)14(12(15)25)30-17-9(21)4-3-8(6-20)29-17/h3,9-18,24-27H,4-7,20-23H2,1-2H3/t9-,10+,11-,12+,13-,14-,15+,16-,17-,18-,19+/m1/s1
MSLEVEL=2
SOURCE_INSTRUMENT=LC-ESI-QQ-LC-ESI-QQ
FILENAME=output_mgf.mgf
SEQ=*..*
IONMODE=
ORGANISM=MONA
NAME=MoNA:2312210 Sissomicin [M-H]-
PI=MoNA
DATACOLLECTOR=MoNA
PUBMED=N/A
SUBMITUSER=mwang87
TAGS=
SPECTRUMID=CCMSLIB00000571881
SCANS=9132
93.2 2.97619 
96.9 1.488095 
102.4 2.678571 
164.3 1.190476 
165.8 0.892857 
216.9 3.571429 
239.3 1.190476 
269.5 3.27381 
287.4 15.77381 
320.7 2.380952 
353.9 0.595238 
386.4 0.892857 
410.8 0.892857 
428.2 9.52381 
446.5 100.0 
END IONS

