BEGIN IONS
PEPMASS=405.207
CHARGE=1+
COMPOUNDNAME=MoNA:971105 Lincomycin
LIBRARYQUALITY=3
SMILES=N/A
INCHIKEY=OJMMVQQUTAEWLP-UHFFFAOYSA-N
INCHI=InChI=1S/C18H34N2O6S/c1-5-6-10-7-11(20(3)8-10)17(25)19-12(9(2)21)16-14(23)13(22)15(24)18(26-16)27-4/h9-16,18,21-24H,5-8H2,1-4H3,(H,19,25)
MSLEVEL=2
SOURCE_INSTRUMENT=LC-ESI-QFT-LC-ESI-QFT
FILENAME=output_mgf.mgf
SEQ=*..*
IONMODE=
ORGANISM=MONA
NAME=MoNA:971105 Lincomycin [M-H]-
PI=MoNA
DATACOLLECTOR=MoNA
PUBMED=N/A
SUBMITUSER=mwang87
TAGS=
SPECTRUMID=CCMSLIB00000569209
SCANS=6460
55.0189 2.412778 
57.0346 5.908398 
58.006 0.380431 
58.0298 1.386063 
59.0138 10.620881 
65.0397 0.910008 
65.9986 0.241913 
66.0349 0.860323 
67.019 0.840602 
68.0143 0.599481 
68.9982 4.0762 
69.0346 12.051439 
70.0299 3.327823 
71.0139 64.075727 
72.9932 1.614178 
73.0296 3.903428 
73.9832 0.971691 
75.0089 0.561349 
78.0349 0.287233 
79.019 0.957627 
80.0506 4.507636 
81.022 7.613457 
81.0346 21.121346 
82.0298 3.195718 
83.0138 2.406239 
83.0503 9.865003 
84.0091 0.518944 
84.0216 1.867787 
84.0455 1.53663 
85.0295 50.344949 
85.0407 2.550848 
86.0248 0.112593 
87.0087 6.36682 
88.9703 0.590977 
89.0033 0.316564 
89.0066 0.444489 
89.0244 0.405356 
90.0348 0.411339 
93.0345 0.590037 
94.0298 3.641401 
95.0138 2.655104 
95.0501 0.61455 
96.0092 0.116629 
96.0217 0.58464 
96.0455 1.616506 
97.0294 16.690608 
98.0247 1.108252 
98.061 0.414563 
98.0975 0.33028 
99.0087 0.511347 
99.0451 6.837698 
99.9989 0.684765 
100.0404 0.781373 
101.0242 0.396016 
101.978 3.830463 
105.022 7.763406 
106.0298 1.195993 
107.0139 0.375572 
107.0376 1.013686 
107.0502 0.386818 
108.0217 6.089798 
108.0455 1.122424 
109.0169 7.203355 
109.0294 7.967947 
109.0658 1.10653 
110.0247 1.443961 
110.061 1.047278 
111.0326 0.225867 
111.0452 3.291118 
112.0165 0.247131 
112.0404 0.791197 
113.0245 0.802181 
114.9859 0.320912 
115.0401 1.975747 
117.0016 0.791105 
120.0455 0.233749 
122.0248 2.140951 
123.0087 0.112168 
123.0325 1.137985 
123.0452 0.414769 
124.0403 8.260525 
125.0244 1.103633 
125.072 0.599058 
125.0971 0.467764 
126.0559 1.338388 
126.0924 2.862162 
126.9859 1.572593 
127.0401 1.820261 
133.017 0.792147 
134.0248 1.3619 
135.0329 0.343473 
136.0405 0.101634 
137.0483 0.115408 
137.0971 0.225722 
138.0019 2.113159 
138.0195 0.472379 
138.0923 0.294407 
139.0096 0.355374 
139.1128 0.115309 
139.9938 0.257231 
147.0327 0.465505 
150.0197 0.389916 
151.0274 0.880624 
151.04 0.236756 
152.0353 0.121282 
152.108 0.479641 
153.0432 0.115358 
153.1036 0.123258 
160.0404 0.200033 
165.9968 2.175958 
166.1239 0.632148 
168.1394 1.90099 
169.1347 100.0 
170.1187 16.352506 
182.1549 1.919362 
184.1342 0.287309 
186.0558 0.119654 
191.1555 0.344334 
193.1345 1.469598 
195.1502 7.068425 
196.1342 0.208785 
197.1295 4.981254 
207.1504 0.887997 
209.1296 0.89102 
209.1659 14.574926 
210.1373 0.259963 
211.1452 2.162368 
212.1293 0.109789 
217.1347 0.11418 
219.1502 0.429739 
221.166 0.832189 
223.1453 5.197896 
223.1814 0.487451 
225.1608 2.791865 
231.1501 0.240396 
233.1659 1.046545 
235.1453 1.541175 
237.161 2.538175 
239.1764 0.480885 
249.1607 0.783297 
253.1559 1.525436 
259.1449 2.462517 
261.1608 0.229105 
263.176 0.251387 
277.1556 0.298395 
END IONS

