BEGIN IONS
TITLE=Scan Number: 4392
PEPMASS=935.52002
CHARGE=1+
COMPOUNDNAME=Tobramycin [2M+H]
LIBRARYQUALITY=3
SMILES=C1C(C(C(C(C1N)OC2C(C(C(C(O2)CO)O)N)O)O)OC3C(CC(C(O3)CN)O)N)N
INCHIKEY=NLVFBUXFDBBNBW-PBSUHMDJSA-N
INCHI=InChI=1S/C18H37N5O9/c19-3-9-8(25)2-7(22)17(29-9)31-15-5(20)1-6(21)16(14(15)28)32-18-13(27)11(23)12(26)10(4-24)30-18/h5-18,24-28H,1-4,19-23H2/t5-,6+,7+,8-,9+,10+,11-,12+,13+,14-,15+,16-,17+,18+/m0/s1
MSLEVEL=2
SOURCE_INSTRUMENT=LC-ESI-Orbitrap
FILENAME=f.quinnr/3D_WinCF/Tobrarmycin HILIC/Tobramycin/146Tb3.mzXML;
SEQ=*..*
NOTES=
IONMODE=Positive
ORGANISM=GNPS-LIBRARY
NAME=Tobramycin [2M+H] 2M+H
SPECTRUMID=CCMSLIB00003142414
ACTIVATION=CID
INSTRUMENT=ion trap
SCANS=4392
80.049744 16217.668945 
81.033752 204676.765625 
82.037071 9480.711914 
82.065292 46120.582031 
83.060677 25359.203125 
84.044632 141482.40625 
84.08094 24334.591797 
84.850197 2148.149902 
85.028648 32107.052734 
85.047897 4561.90625 
85.076164 5044.287598 
86.060127 24396.357422 
86.096687 21691.166016 
96.044647 5195.271484 
97.028519 10985.401367 
97.0765 2817.367432 
98.060188 377774.84375 
99.055473 10553.438477 
99.063416 16793.443359 
102.055107 158788.546875 
103.058746 4358.183594 
109.076309 20316.689453 
110.060188 291358.28125 
110.071846 15073.952148 
111.06369 15439.071289 
112.050262 3613.171631 
112.075485 2940.081543 
113.070908 3351.691406 
114.055229 14437.050781 
115.087517 2613.155273 
116.070541 24720.900391 
120.065689 53119.28125 
120.080864 14978.147461 
122.059776 2835.18042 
124.075386 2710.987305 
126.055145 26939.474609 
127.039032 9671.789062 
127.086739 819748.9375 
128.07074 278230.53125 
128.090363 51184.382812 
129.07431 15909.451172 
129.102417 20533.724609 
131.081406 2966.064453 
134.060242 10890.118164 
136.076157 9564.447266 
138.054718 5375.693848 
140.070663 2867.658447 
141.102982 2281.466064 
143.080292 2679.288574 
144.06572 136773.671875 
145.097382 2651141.75 
146.083389 32063.769531 
146.100983 179045.671875 
147.101089 4179.216797 
151.087158 23129.142578 
152.070816 11280.764648 
155.080536 2394.134521 
162.076401 477542.1875 
162.336823 2972.258789 
163.107986 6678866.0 
164.111771 419703.53125 
164.123322 3308.382568 
165.111908 19006.957031 
167.082336 2966.3396 
169.097382 57057.964844 
170.081375 10120.864258 
170.100647 3544.179688 
171.076843 3824.183594 
173.092712 29193.695312 
184.696228 4991.773438 
187.107956 503196.1875 
188.111404 40972.390625 
205.118637 2072736.5 
206.122314 181073.234375 
207.123123 12521.006836 
243.133026 18813.521484 
248.124725 3198.022217 
253.1194 5370.109863 
254.150055 90246.3125 
255.153076 10745.445312 
271.129486 4572.933594 
272.160187 39517.195312 
273.163574 4065.150635 
278.150635 3406.05542 
289.139313 5648.383301 
290.171112 15639.441406 
296.160645 15041.836914 
306.1651 4910.989746 
307.147583 9454.910156 
307.197601 35626.308594 
308.200745 4374.749023 
314.17099 11360.580078 
324.176758 2295369.5 
325.179779 345943.15625 
325.221252 3352.631348 
326.18045 28025.480469 
334.161102 3985.226807 
349.210236 23488.705078 
350.210144 3259.912842 
415.221466 18618.246094 
416.223602 4501.107422 
433.230225 27385.142578 
434.232239 4790.208496 
451.240509 16587.810547 
463.781891 3132.110596 
468.267212 1190160.75 
469.27005 265063.34375 
470.271698 22905.658203 
573.429382 4340.405762 
591.436096 21801.625 
592.442139 5350.111328 
609.449097 47063.964844 
610.450317 17642.630859 
611.466003 3366.025635 
651.463867 11968.157227 
652.460632 2827.234863 
770.512756 23007.677734 
771.520874 11223.637695 
914.602905 9646.451172 
915.611572 4067.435547 
964.390198 3136.572021 
END IONS

