BEGIN IONS
PEPMASS=347.0
CHARGE=1+
COMPOUNDNAME=MoNA:2596410 Gibberellin A1
LIBRARYQUALITY=3
SMILES=N/A
INCHIKEY=JLJLRLWOEMWYQK-OBDJNFEBSA-N
INCHI=InChI=1S/C19H24O6/c1-9-7-17-8-18(9,24)5-3-10(17)19-6-4-11(20)16(2,15(23)25-19)13(19)12(17)14(21)22/h10-13,20,24H,1,3-8H2,2H3,(H,21,22)/t10-,11+,12-,13-,16-,17+,18+,19-/m1/s1
MSLEVEL=2
SOURCE_INSTRUMENT=LC-ESI-QQ-LC-ESI-QQ
FILENAME=output_mgf.mgf
SEQ=*..*
IONMODE=
ORGANISM=MONA
NAME=MoNA:2596410 Gibberellin A1 [M-H]-
PI=MoNA
DATACOLLECTOR=MoNA
PUBMED=N/A
SUBMITUSER=mwang87
TAGS=
SPECTRUMID=CCMSLIB00000572202
SCANS=9453
241.006 2.111497 
346.478 4.382502 
347.039 100.0 
347.575 2.82849 
END IONS

