BEGIN IONS
PEPMASS=197.006
CHARGE=1+
COMPOUNDNAME=Aconitic Acid
LIBRARYQUALITY=3
SMILES=N/A
INCHIKEY=GTZCVFVGUGFEME-IWQZZHSRSA-N
INCHI=InChI=1S/C6H6O6/c7-4(8)1-3(6(11)12)2-5(9)10/h1H,2H2,(H,7,8)(H,9,10)(H,11,12)/b3-1-
MSLEVEL=2
SOURCE_INSTRUMENT=N/A-ESI-QFT
FILENAME=library_mgf.mgf
SEQ=*..*
IONMODE=positive
ORGANISM=MONA
NAME=Aconitic Acid [M+Na]+
PI=MoNA
DATACOLLECTOR=MoNA:VF-NPL-QEHF026291
PUBMED=N/A
SUBMITUSER=mwang87
TAGS=
SPECTRUMID=CCMSLIB00004717354
SCANS=26291
51.098064 0.016925 
51.516899 0.019504 
51.6833 0.017745 
51.940269 0.021666 
51.965561 0.015651 
52.320133 0.020754 
52.369125 0.016638 
52.47496 0.022365 
52.536125 0.011059 
52.796207 0.014018 
52.896622 0.018317 
53.084885 0.016115 
53.35228 0.02613 
53.52433 0.012177 
53.916721 0.022075 
54.015335 0.012339 
54.152763 0.008362 
54.184849 0.021325 
54.209286 0.022599 
54.880646 0.022292 
54.959503 0.013086 
55.018147 0.169046 
55.054558 2.925998 
55.898037 0.007484 
56.049805 0.387086 
56.94669 0.009523 
56.965012 0.011635 
57.033787 0.048527 
57.070187 1.707932 
57.101501 0.01044 
57.935116 0.281093 
58.065414 0.165397 
58.344658 0.009491 
58.719425 0.012693 
58.863171 0.0153 
58.932938 0.220165 
59.387829 0.011712 
59.930473 0.281672 
61.010921 15.155979 
61.058739 0.016491 
61.242802 0.021388 
61.46471 0.013658 
61.487232 0.013582 
62.010193 0.015449 
62.014221 0.409605 
62.018719 4.974468 
62.206078 0.015291 
62.281658 0.01857 
62.70435 0.014883 
62.981937 0.618926 
63.006618 1.060825 
63.105515 0.016486 
63.525181 0.013143 
64.014503 0.012596 
65.78904 0.011687 
65.863678 0.014213 
66.085335 0.008041 
66.391487 0.015114 
66.571594 0.010958 
67.05439 2.67661 
67.587173 0.019663 
69.033615 0.044461 
69.044968 0.011301 
69.07 4.012394 
69.24073 0.015233 
69.440285 0.008787 
70.065224 1.337807 
70.073395 0.055019 
70.55851 0.01184 
71.049202 0.313419 
71.083565 0.019884 
71.085587 0.63762 
71.929413 0.010083 
72.044456 0.197142 
72.080872 0.315323 
72.268158 0.017277 
72.489723 0.01753 
72.873962 0.008634 
72.937294 0.036927 
73.231041 0.007742 
73.956177 2.921849 
73.977562 0.013414 
73.984459 0.017966 
74.096497 0.04282 
74.953987 0.021361 
74.995781 0.018372 
75.181587 0.012319 
75.935448 0.179026 
75.945396 0.279345 
76.0373 0.012981 
76.847893 0.023032 
77.001892 0.021314 
77.940895 0.679643 
77.978142 0.010442 
78.410866 0.016094 
78.609344 0.015154 
79.021263 1.507353 
79.054276 1.144848 
79.460037 0.018403 
79.534416 0.010119 
80.91127 0.008629 
81.069946 5.193236 
81.413567 0.021179 
81.876022 0.016249 
82.03392 0.025961 
82.065132 0.221053 
82.073219 0.065031 
82.33651 0.013295 
83.049202 0.18996 
83.060448 0.028832 
83.085594 4.422699 
83.22506 0.011075 
83.513092 0.018215 
83.713081 0.022638 
84.041862 0.039012 
84.044472 4.086642 
84.080818 1.428919 
84.331039 0.013645 
84.771683 0.022946 
85.047829 0.046086 
85.064842 0.378407 
85.101173 0.065768 
85.397865 0.020883 
86.060104 0.860522 
86.096504 0.08395 
87.43132 0.010688 
88.565094 0.010147 
89.059769 3.417799 
89.852989 0.022588 
90.063103 0.11252 
90.717941 0.022555 
90.947838 0.022027 
90.991272 0.008412 
91.054291 0.63809 
91.086472 0.024856 
91.384026 0.009572 
91.912598 0.0428 
91.966713 0.481384 
92.264679 0.014587 
92.664719 0.015818 
92.693481 0.011674 
93.069916 1.846792 
93.956009 0.102422 
94.073402 0.009307 
95.049187 0.047669 
95.085602 5.561354 
95.932587 0.019792 
95.951408 0.266096 
96.044296 0.015074 
96.08078 0.38168 
96.088875 0.220973 
96.638283 0.00959 
97.064857 1.57376 
97.101273 2.204395 
97.948662 0.020644 
98.060143 0.597053 
98.067863 0.010996 
98.096466 0.553833 
98.197609 0.008896 
98.255516 0.025863 
99.080467 0.10739 
100.075722 1.148331 
100.925903 0.026701 
101.00325 0.011492 
102.136749 0.013174 
102.839478 0.015974 
103.991562 0.008346 
104.909889 0.05804 
104.93026 0.022234 
104.963303 0.019933 
105.069984 0.385448 
105.928253 0.330963 
106.925835 0.556931 
107.085594 1.380572 
107.214821 0.014671 
107.951057 0.037765 
109.064827 0.047297 
109.101204 0.931318 
109.882614 0.007793 
110.071053 0.010994 
110.096603 0.015345 
111.08046 0.830501 
111.116821 0.020199 
112.0756 0.060955 
112.112083 0.216178 
114.091454 0.70596 
114.187759 0.010301 
114.499542 0.017423 
114.77047 0.011054 
115.251205 0.012776 
118.925064 0.032452 
119.052223 0.015712 
119.085602 1.154739 
120.152519 0.017835 
120.227005 0.015133 
120.94046 0.013235 
121.10125 0.86778 
121.622772 0.015514 
122.073372 0.007727 
122.931 0.17491 
122.940842 0.807376 
123.080467 0.199512 
123.116928 0.024711 
123.938934 1.625297 
124.112076 0.045888 
124.936508 3.253101 
124.946571 0.205293 
125.05687 0.024751 
125.096138 0.151889 
125.436996 0.012436 
126.091492 0.22364 
126.933655 0.023897 
127.385139 0.013583 
128.10701 0.100272 
130.000153 0.24752 
133.034698 0.013166 
133.086044 0.019363 
133.101135 0.830702 
134.931992 0.014062 
134.956085 1.41106 
135.116806 0.850661 
135.687881 0.022582 
135.95668 4.087627 
136.075989 0.011766 
136.935562 0.0201 
136.947083 0.103571 
136.954102 1.016125 
136.963867 0.019131 
137.011765 0.109302 
137.09613 0.211595 
137.132507 0.589944 
137.928009 0.397014 
137.944641 0.070729 
137.954437 0.05223 
137.96196 0.5111 
138.127747 0.184971 
138.925903 0.54204 
138.952072 0.425246 
139.123093 0.198461 
139.923645 1.070504 
139.959305 0.024702 
140.107147 0.096835 
141.949448 0.051426 
142.124237 0.01138 
142.946899 0.008491 
143.330399 0.026211 
149.132477 1.138725 
150.925766 0.053397 
150.951065 1.027332 
151.970123 10.36905 
152.081314 0.026172 
152.143478 0.091119 
152.951553 1.028563 
152.967896 1.260813 
153.949524 0.218264 
153.95932 3.973059 
153.966934 4.764789 
154.122894 0.174536 
154.159058 0.013751 
154.717361 0.009017 
154.946945 5.011606 
154.957138 3.445576 
154.964279 2.00857 
155.022079 0.011611 
155.577972 0.012662 
155.954773 12.830609 
156.077148 0.012348 
156.174515 0.021789 
156.944275 0.251945 
156.954849 0.234808 
157.338852 0.027688 
157.951996 1.024212 
158.641678 0.021903 
158.915344 0.017734 
160.653992 0.023542 
161.132507 1.041301 
163.148056 0.194924 
163.304718 0.009655 
164.070618 0.134333 
164.106995 0.080084 
165.799149 0.014003 
165.811768 0.020127 
165.949356 0.020329 
166.086731 0.036035 
167.044022 0.007979 
167.143021 0.040436 
168.936478 2.505369 
168.9617 0.117355 
169.972366 0.06636 
169.98056 2.001406 
170.42482 0.018461 
170.962021 0.040658 
170.978348 0.8837 
171.000336 0.043803 
171.976913 0.080285 
172.957535 1.198517 
172.975403 0.091373 
178.159088 1.32451 
179.143143 0.131577 
180.138412 0.027397 
180.40007 0.010588 
180.409195 0.008632 
180.936508 0.670881 
181.795166 0.024039 
182.401718 0.02661 
183.959824 0.042318 
185.949158 0.749229 
186.947021 5.368986 
187.944656 2.428179 
188.071304 0.023293 
188.943024 0.049195 
189.941925 0.073804 
193.642761 0.008884 
195.068527 0.025593 
195.148849 0.010633 
195.157639 0.776463 
195.185623 0.439476 
195.96019 0.217629 
196.112061 0.031594 
196.169754 100.0 
196.957474 0.05476 
197.015182 0.093042 
197.173111 13.109782 
198.091034 0.011137 
198.112167 0.027258 
198.127838 0.370896 
198.148926 0.358792 
198.185364 37.613472 
198.94722 1.213119 
199.188797 1.426235 
199.944794 0.0153 
208.167618 0.011136 
208.727142 0.022463 
211.707092 0.011963 
213.970779 0.142545 
214.967926 0.056694 
215.078094 0.014797 
216.19104 0.011305 
216.691986 0.012943 
216.80481 0.009957 
217.889465 0.449366 
218.312332 0.008565 
END IONS

