BEGIN IONS
PEPMASS=176.0
CHARGE=1+
COMPOUNDNAME=Massbank:KO002531 Citrulline|L-Citrulline|2-Amino-5-ureidovaleric acid
LIBRARYQUALITY=3
SMILES=NC(=O)NCCC[C@H](N)C(O)=O
INCHIKEY=RHGKLRLOHDJJDR-BYPYZUCNSA-N
INCHI=1S/C6H13N3O3/c7-4(5(10)11)2-1-3-9-6(8)12/h4H,1-3,7H2,(H,10,11)(H3,8,9,12)/t4-/m0/s1
MSLEVEL=2
SOURCE_INSTRUMENT=ESI-LC-ESI-QQ
FILENAME=Massbank_ESI_positive_8_1_2014_peaks.mgf
SEQ=*..*
IONMODE=Positive
ORGANISM=MASSBANK
NAME=Massbank:KO002531 Citrulline|L-Citrulline|2-Amino-5-ureidovaleric acid [M+H]+
PI=Putative Massbank Match
DATACOLLECTOR=Massbank
PUBMED=N/A
SUBMITUSER=mwang87
TAGS=
SPECTRUMID=CCMSLIB00000217557
SCANS=8333
40.8 39604.0 
43.0 247525.0 
53.1 34653.5 
61.2 39604.0 
65.7 19802.0 
68.2 475248.0 
68.9 29703.0 
70.0 12529715.5 
71.8 14851.5 
73.9 34653.5 
81.2 14851.5 
86.3 143564.5 
91.9 44554.5 
92.3 34653.5 
96.5 34653.5 
117.5 19802.0 
130.0 14851.5 
133.3 24752.5 
END IONS

