BEGIN IONS
TITLE=Scan Number: 4786
PEPMASS=438.311
CHARGE=1+
COMPOUNDNAME=Lyngbyatoxin A putative or close isomer M+H
LIBRARYQUALITY=3
SMILES=CC(C)C1C(=O)NC(CC2=CNC3=C(C=CC(=C23)N1C)C(C)(CCC=C(C)C)C=C)CO
INCHIKEY=KISDGNGREAJPQR-UHFFFAOYSA-N
INCHI=
MSLEVEL=2
SOURCE_INSTRUMENT=LC-ESI-Orbitrap
FILENAME=f.ktahlan/KT-1/MUN/Methanol/SC/2 SC on GSPG meth-pos.mzXML;
SEQ=*..*
NOTES=
IONMODE=Positive
ORGANISM=GNPS-LIBRARY
NAME=Lyngbyatoxin A putative or close isomer M+H M+H
SPECTRUMID=CCMSLIB00005435950
ACTIVATION=CID
INSTRUMENT=ion trap
SCANS=4786
72.044724 103530.773438 
72.927582 64074.152344 
74.06031 145603.1875 
79.054153 341317.90625 
81.070099 3917452.75 
83.048683 74424.695312 
86.096382 515907.1875 
93.069626 74926.109375 
94.064957 270124.8125 
94.766373 87008.28125 
94.7715 110526.804688 
95.085602 2065841.0 
96.080788 474516.71875 
100.412582 88355.4375 
100.418518 81331.335938 
109.101021 307974.46875 
114.083916 101055.773438 
114.091423 2806198.75 
126.744186 70864.101562 
130.065796 66052.007812 
132.067627 140291.15625 
137.132416 1112823.25 
145.075745 150077.140625 
146.083817 2289095.25 
147.091843 565560.4375 
156.067734 396219.25 
157.076141 718566.9375 
158.083496 121648.796875 
158.096298 63630.773438 
159.091782 4356829.5 
160.099884 1141341.25 
161.10733 1092139.75 
168.080612 96880.210938 
169.075775 329202.09375 
169.088531 119033.3125 
170.083801 1377374.125 
170.096909 125484.828125 
171.091782 4652988.0 
172.098816 413808.46875 
173.107452 585281.3125 
173.11969 140387.3125 
174.114426 398032.875 
182.096237 366806.71875 
183.090897 672626.25 
183.104477 316276.25 
184.099243 1388975.625 
184.112961 153000.40625 
185.107391 2051177.375 
186.10228 352628.15625 
186.115082 341734.8125 
187.08699 538639.25 
187.122208 351108.15625 
188.094009 375341.375 
188.130035 158594.59375 
191.975601 71197.3125 
195.090454 142712.84375 
196.097443 104076.96875 
196.113159 225794.453125 
197.106796 918400.5 
197.119324 67689.796875 
198.114655 1200402.5 
199.085846 314081.84375 
199.123154 5897214.0 
200.093338 389208.53125 
200.131302 1305384.625 
201.102234 608609.125 
201.13887 867302.5 
202.110092 1593425.625 
202.146561 1244038.625 
203.117599 928027.25 
203.15419 709978.6875 
208.098557 239059.796875 
209.106796 907819.375 
210.113617 655927.1875 
211.122787 2735573.5 
212.131821 992990.3125 
213.103256 1174710.375 
213.138474 2170513.5 
214.146423 2539805.0 
215.121613 83554.359375 
215.154633 2145202.0 
216.16153 125241.632812 
217.120773 791445.125 
221.107117 148275.796875 
222.091919 97736.210938 
222.114868 673636.9375 
223.123001 3845804.0 
224.130096 997802.9375 
225.116714 165164.328125 
225.137863 1638676.75 
226.145584 612608.4375 
227.118881 137802.421875 
227.154572 1156649.125 
228.161392 107983.421875 
229.133057 108985.9375 
230.128372 1821263.125 
231.14949 142316.484375 
235.123322 1387139.25 
236.130692 372726.625 
237.140533 1138138.75 
238.146286 532961.0 
239.118698 586512.3125 
239.15477 1121644.5 
240.124832 253192.171875 
240.163269 261194.359375 
241.133575 1658722.5 
241.169861 1015381.9375 
242.140533 379414.40625 
242.177734 117458.734375 
243.149323 3690538.75 
249.13858 390461.15625 
251.154449 581367.75 
252.15065 671973.25 
253.133514 1274505.875 
253.169464 2595527.5 
254.141434 125947.484375 
254.17691 328925.3125 
255.147629 683367.25 
255.18631 1920561.75 
256.157013 1091307.875 
257.1651 994608.25 
258.123047 394541.375 
259.129822 106001.671875 
263.153778 154492.0 
264.161438 95529.796875 
265.132233 100793.828125 
265.169556 624835.875 
266.138947 96624.757812 
266.166931 331734.875 
267.14917 412525.65625 
267.185089 1973694.25 
268.192352 989662.125 
269.162659 69522.1875 
269.171783 69813.507812 
269.2005 701215.6875 
270.160217 1947943.0 
271.14386 1701337.375 
271.16922 127181.03125 
273.183472 776916.75 
274.190826 458260.0 
277.168762 156114.9375 
278.176025 96549.578125 
279.150238 83542.335938 
279.184052 306045.375 
280.193848 83935.203125 
281.167175 107258.984375 
281.20105 597726.875 
282.209076 1482222.125 
283.180054 98110.59375 
283.216736 338598.15625 
284.175476 315850.03125 
291.184753 301466.1875 
292.193268 120270.773438 
293.200653 681307.1875 
294.204956 83139.4375 
295.180145 1222544.375 
295.216309 4901209.5 
296.185516 100870.46875 
296.223358 365471.65625 
297.199524 146863.390625 
297.231995 1720764.875 
298.191162 78563.015625 
299.15921 95023.171875 
301.177551 748782.0 
302.185394 928340.8125 
305.201691 309584.34375 
306.208771 2027604.5 
307.216125 1814777.875 
308.187897 73175.835938 
308.221588 389563.21875 
309.195129 416716.875 
309.23175 1091658.5 
310.200226 324099.96875 
312.207062 300029.34375 
319.216431 1087824.625 
320.223236 105865.640625 
321.231995 1501125.875 
322.191132 146969.25 
322.227783 3048034.5 
323.21167 1984703.0 
324.219727 302367.0625 
325.261322 91271.734375 
326.220459 76948.179688 
327.228241 110955.453125 
335.241943 136852.84375 
336.216766 264537.59375 
336.254425 705418.125 
337.226562 949411.875 
337.264099 526320.25 
338.270172 548606.1875 
339.190613 506579.5 
339.242645 1961987.0 
339.28006 2181836.5 
349.266663 663749.5625 
350.231293 897971.0 
351.279633 15942374.0 
352.245605 394409.4375 
353.205902 120220.25 
353.246887 1601261.0 
354.215424 130214.234375 
355.221161 580317.4375 
361.263702 279776.59375 
363.279938 161919.921875 
364.242157 93146.703125 
365.254974 116223.820312 
365.297241 145327.28125 
367.261444 126935.039062 
375.281952 115662.632812 
379.275055 321985.4375 
381.289307 637730.8125 
392.307129 1311030.75 
393.290344 14775403.0 
395.252716 905589.0 
395.296478 182215.703125 
407.270966 372756.3125 
410.316772 54294744.0 
411.321869 87917.335938 
422.276367 107284.046875 
437.299133 2560459.0 
438.309296 2533076.25 
END IONS

