BEGIN IONS
PEPMASS=266.139
CHARGE=1+
COMPOUNDNAME=ANISOMYCIN
LIBRARYQUALITY=3
SMILES=N/A
INCHIKEY=YKJYKKNCCRKFSL-BFHYXJOUSA-N
INCHI=InChI=1S/C14H19NO4/c1-9(16)19-14-12(15-8-13(14)17)7-10-3-5-11(18-2)6-4-10/h3-6,12-15,17H,7-8H2,1-2H3/t12-,13+,14+/m0/s1
MSLEVEL=2
SOURCE_INSTRUMENT=N/A-ESI-QFT
FILENAME=library_mgf.mgf
SEQ=*..*
IONMODE=positive
ORGANISM=MONA
NAME=ANISOMYCIN [M+H]+
PI=MoNA
DATACOLLECTOR=MoNA:VF-NPL-QEHF027589
PUBMED=N/A
SUBMITUSER=mwang87
TAGS=
SPECTRUMID=CCMSLIB00004721170
SCANS=27589
50.199444 0.0072 
51.442478 0.01289 
52.141052 0.013494 
53.657146 0.011848 
54.547573 0.007819 
55.018196 0.128323 
55.637917 0.012593 
56.049809 1.378659 
57.033844 0.044349 
57.414761 0.012749 
58.372547 0.012694 
58.879345 0.012349 
60.044651 4.303325 
60.247471 0.014577 
61.048042 0.015598 
61.467117 0.013806 
61.606113 0.011232 
61.99379 0.014463 
63.211987 0.013278 
63.289242 0.012542 
64.012535 0.009511 
67.920212 0.013421 
68.049675 0.629347 
68.659653 0.012562 
68.703384 0.008535 
68.984871 0.010752 
69.180603 0.010747 
69.440376 0.009105 
69.671738 0.008511 
69.838455 0.01365 
70.065269 1.311846 
70.351685 0.012349 
71.354912 0.014016 
71.914268 0.015392 
72.044495 0.596183 
72.398888 0.013181 
72.73645 0.012383 
74.524345 0.011828 
74.629463 0.011861 
75.96962 0.013179 
77.077225 0.013743 
77.564583 0.01106 
77.885338 0.013788 
78.046631 0.045948 
79.401497 0.012556 
79.436798 0.009008 
79.554771 0.030553 
80.049538 0.233238 
80.313438 0.012699 
80.548889 0.011372 
83.655998 0.011374 
83.925278 0.015103 
84.044518 0.516136 
84.702873 0.011656 
84.706741 0.012849 
85.511337 0.012695 
85.736031 0.012343 
85.784416 0.014339 
85.804291 0.009405 
86.738785 0.0143 
87.291237 0.012292 
87.497047 0.01314 
87.614532 0.013146 
88.507172 0.009531 
88.582703 0.016378 
89.66745 0.012458 
90.055336 0.013274 
91.05439 0.42297 
91.375916 0.014074 
93.069893 0.015793 
93.220329 0.012787 
93.286835 0.011882 
93.315056 0.012121 
93.424103 0.01271 
95.002579 0.01289 
95.389145 0.015064 
98.06015 6.041377 
99.063469 0.191174 
102.055077 0.579773 
102.955574 0.015383 
103.203766 0.010834 
104.892105 0.015098 
105.35688 0.012249 
105.585861 0.012528 
109.064987 0.014683 
109.432533 0.011992 
110.588806 0.014049 
110.958092 0.014724 
113.964806 0.014231 
115.360054 0.008729 
116.7799 0.008117 
118.065201 0.073819 
118.72364 0.013051 
119.049477 0.029479 
121.06485 100.0 
122.068153 7.784167 
128.062378 0.012354 
129.069855 0.015906 
135.080399 0.262684 
138.310898 0.012801 
144.057037 1.141222 
145.06488 4.934157 
146.068161 0.419183 
147.067947 0.415101 
147.08049 5.773753 
148.083801 0.540638 
149.083908 0.235516 
149.096237 0.919117 
150.0914 3.967417 
151.075394 0.344898 
151.094742 0.271513 
154.377258 0.014543 
156.081223 0.029269 
157.088745 0.191365 
157.66124 0.014841 
157.964508 0.013221 
159.080505 9.180734 
160.076385 0.279422 
160.083771 0.918471 
161.096176 2.436949 
161.148987 0.017422 
162.0914 0.739644 
162.098679 0.167817 
163.075394 0.644342 
163.099442 0.034934 
163.440094 0.008999 
171.080505 1.905449 
172.084152 0.140597 
173.083633 1.00486 
175.774948 0.01695 
176.107025 0.305553 
177.091019 1.073433 
178.094467 0.032447 
178.122528 0.014601 
184.860916 0.014994 
186.091537 0.211195 
186.977859 0.015366 
188.107132 14.608667 
189.091156 1.694023 
189.100677 0.028155 
189.110489 1.632502 
190.094482 0.076905 
190.23172 0.012762 
191.094666 0.018328 
192.512741 0.016523 
199.542068 0.014593 
204.037308 0.008939 
206.117737 51.958725 
207.121078 6.173953 
209.846283 0.014656 
210.857178 0.013575 
212.132309 0.01464 
212.234894 0.009704 
215.964035 0.345198 
215.975662 0.256117 
218.115601 0.015816 
219.553879 0.014859 
220.76944 0.016843 
224.128159 3.476141 
225.131439 0.32916 
226.830963 0.014292 
234.456619 0.010663 
237.052383 0.014555 
237.701599 0.012406 
240.743195 0.014319 
247.27916 0.013196 
252.098007 0.017024 
252.454758 0.013385 
255.576904 0.014966 
256.189423 0.014459 
257.859375 0.012802 
261.733124 0.010514 
265.2836 0.010131 
266.138763 26.762991 
266.601654 0.009361 
267.14212 3.874855 
268.144257 0.014544 
270.319122 0.014353 
275.75885 0.013617 
276.535187 0.01686 
281.612152 0.018576 
282.55722 0.013536 
288.755341 0.015931 
END IONS

