BEGIN IONS
PEPMASS=163.0
CHARGE=1+
COMPOUNDNAME=Massbank:KO002715 2-Deoxystreptamine
LIBRARYQUALITY=3
SMILES=N[C@H](C1)[C@H](O)[C@@H](O)[C@H](O)[C@@H](N)1
INCHIKEY=DTFAJAKTSMLKAT-JDCCYXBGSA-N
INCHI=1S/C6H14N2O3/c7-2-1-3(8)5(10)6(11)4(2)9/h2-6,9-11H,1,7-8H2/t2-,3+,4+,5-,6-
MSLEVEL=2
SOURCE_INSTRUMENT=ESI-LC-ESI-QQ
FILENAME=Massbank_ESI_positive_8_1_2014_peaks.mgf
SEQ=*..*
IONMODE=Positive
ORGANISM=MASSBANK
NAME=Massbank:KO002715 2-Deoxystreptamine [M+H]+
PI=Putative Massbank Match
DATACOLLECTOR=Massbank
PUBMED=N/A
SUBMITUSER=mwang87
TAGS=
SPECTRUMID=CCMSLIB00000217931
SCANS=8517
30.3 158416.0 
51.0 89109.0 
55.1 84158.5 
56.2 24752.5 
57.3 49505.0 
60.4 29703.0 
64.9 79208.0 
67.0 44554.5 
68.1 183168.5 
71.9 19802.0 
75.1 2019804.0 
76.9 5653471.0 
80.0 44554.5 
82.3 69307.0 
89.9 44554.5 
91.0 1653467.0 
95.2 237624.0 
100.4 59406.0 
101.2 7856443.5 
102.0 1301981.5 
105.3 29703.0 
111.1 19802.0 
117.0 79208.0 
117.5 44554.5 
119.1 554456.0 
127.1 202970.5 
128.1 6376244.0 
129.2 54455.5 
146.0 138614.0 
END IONS

