BEGIN IONS
PEPMASS=259.06
CHARGE=1+
COMPOUNDNAME=norlichexanthone
LIBRARYQUALITY=3
SMILES=N/A
INCHIKEY=AQZHBCDRWFMXIN-UHFFFAOYSA-N
INCHI=InChI=1S/C14H10O5/c1-6-2-7(15)4-10-12(6)14(18)13-9(17)3-8(16)5-11(13)19-10/h2-5,15-17H,1H3
MSLEVEL=2
SOURCE_INSTRUMENT=N/A-ESI-QFT
FILENAME=library_mgf.mgf
SEQ=*..*
IONMODE=positive
ORGANISM=MONA
NAME=norlichexanthone [M+H]+
PI=MoNA
DATACOLLECTOR=MoNA:VF-NPL-QEHF017946
PUBMED=N/A
SUBMITUSER=mwang87
TAGS=
SPECTRUMID=CCMSLIB00004709009
SCANS=17946
51.137939 0.013402 
51.516624 0.011813 
51.647808 0.027814 
51.805626 0.012285 
51.818626 0.011395 
52.337791 0.01642 
52.575092 0.013896 
52.674484 0.018995 
52.715122 0.01511 
52.737324 0.010051 
52.789577 0.046485 
53.038952 0.165645 
53.820057 0.017437 
54.51881 0.031181 
54.569386 0.010228 
54.828705 0.015795 
54.9119 0.017732 
54.914066 0.011673 
55.018185 0.02562 
55.054543 0.537919 
55.999161 0.01148 
56.049789 0.051313 
56.364044 0.018237 
56.809467 0.029945 
56.965061 1.689258 
57.070179 1.008055 
57.231663 0.011635 
57.935047 0.161932 
58.06543 8.517666 
58.603508 0.016374 
58.819881 0.090451 
58.827362 0.042633 
59.068813 0.098355 
60.044594 0.017874 
60.957932 1.135985 
61.938599 0.010697 
62.018749 0.038161 
62.060265 0.339389 
62.175133 0.086291 
62.235775 0.020759 
62.998695 0.013453 
63.029224 0.01333 
63.997883 0.034535 
64.052773 0.045031 
64.128075 0.016453 
64.927635 0.014045 
65.140167 0.011263 
65.868668 0.097333 
67.017975 2.843316 
67.05439 0.48494 
67.703384 0.040897 
67.988106 0.016547 
68.599045 0.01232 
68.990204 0.027485 
68.997231 13.071143 
68.999275 0.08594 
69.033607 0.047391 
69.069946 0.419499 
70.000603 0.07816 
70.065231 0.671426 
71.04911 0.018436 
71.085617 0.209422 
71.667648 0.045351 
71.817711 0.017665 
71.951927 0.740282 
72.080833 0.0551 
72.259697 0.028375 
73.557053 0.018754 
74.06002 0.014103 
74.672478 0.090225 
76.367638 0.047158 
77.046143 0.013303 
78.822014 0.01662 
79.021255 1.930806 
79.054237 0.948436 
79.708313 0.012866 
80.645081 0.012838 
81.03363 0.036992 
81.069893 0.231931 
82.065247 0.015974 
82.383522 0.014746 
82.651558 0.040034 
82.87912 0.011411 
83.085587 0.092425 
83.906715 0.04458 
83.947647 0.013032 
83.974632 0.014158 
84.04438 0.41497 
84.08078 0.15796 
85.039665 0.025031 
85.064507 0.013768 
85.832123 0.009828 
86.015038 0.014913 
86.096451 0.72936 
87.780441 0.015066 
88.021545 0.120145 
88.075684 0.177695 
88.338638 0.030186 
89.059814 0.019239 
91.017754 0.215932 
91.054329 0.291516 
91.28418 0.031471 
92.019203 0.022183 
93.069885 0.103265 
94.765518 0.017183 
95.012718 0.135127 
95.049118 0.532439 
95.085541 0.102551 
97.064636 0.013922 
98.096413 0.032518 
98.975395 6.607662 
99.628769 0.018324 
99.97876 0.958115 
100.9132 0.036253 
100.971397 0.474194 
100.979652 0.251267 
101.003143 0.016326 
101.949959 21.164845 
101.971535 0.453737 
102.100311 0.014752 
102.511665 0.047593 
102.795067 0.020073 
102.914864 0.018177 
102.968307 11.095211 
102.971626 0.103316 
103.971497 0.062817 
105.033508 0.926495 
105.044823 0.080128 
105.069794 0.320593 
105.955902 0.012597 
106.360985 0.017066 
106.696388 0.080922 
107.049133 0.450706 
107.085571 0.17476 
108.505646 0.017763 
109.028473 0.908745 
109.093513 0.014684 
109.378426 0.01431 
111.007706 0.184753 
111.079842 0.017599 
111.623505 0.012977 
112.530525 0.01847 
115.05423 0.271438 
115.993431 0.01412 
116.170029 0.016806 
116.75724 0.012062 
116.985954 3.138256 
117.069885 0.131268 
117.989235 0.344055 
118.277084 0.01232 
118.982124 0.158869 
118.990227 0.111918 
119.049011 0.039553 
119.085388 0.036697 
119.495636 0.010167 
119.856186 0.014879 
119.960526 6.074683 
119.982185 0.094593 
120.978882 5.482548 
121.065269 0.102819 
122.728775 0.11636 
122.940857 0.449594 
122.988747 0.016245 
123.044159 0.137129 
123.080482 0.036099 
124.936211 0.01245 
125.059845 0.177717 
128.062057 0.847541 
128.963501 0.018646 
129.069885 1.461239 
130.049896 0.035967 
131.049164 0.014591 
132.057266 0.013931 
133.064758 0.629944 
134.99649 0.729784 
135.043747 0.015712 
135.080444 1.028271 
135.469391 0.017101 
135.999634 0.029334 
136.12709 0.012361 
136.436142 0.011537 
137.011597 0.212575 
137.023407 0.089376 
137.803329 0.100733 
137.927704 0.013543 
137.970947 1.658604 
138.98941 1.216373 
139.054199 0.268057 
141.069962 0.052275 
143.049118 0.05244 
145.06485 0.410631 
146.97435 0.171424 
147.044052 0.460249 
148.753067 0.02879 
150.565689 0.015877 
151.039032 25.127432 
151.688614 0.052222 
151.999146 0.015271 
152.009232 0.013467 
152.042358 2.001544 
152.951508 1.009728 
153.018188 3.78551 
153.959106 0.06596 
154.021667 0.036649 
154.947021 0.079487 
155.048889 0.015849 
155.06044 0.031465 
155.981583 0.128479 
157.000046 0.015506 
157.064926 2.831028 
158.068008 0.04099 
159.125641 0.028566 
159.582352 0.013772 
160.05191 0.301172 
160.871948 0.013558 
161.05983 3.162758 
162.062973 0.0168 
163.075241 0.379179 
163.885254 0.017684 
164.769897 0.01492 
164.885941 0.057112 
164.939926 0.017674 
165.175476 0.013353 
165.501541 0.030442 
165.839371 0.016071 
165.883057 1.248183 
166.025162 0.01852 
167.880386 0.056776 
169.420029 0.016786 
170.961914 0.174609 
171.044128 0.533625 
172.516373 0.017794 
173.060089 0.072082 
173.408234 0.017041 
174.127594 0.01155 
175.03894 0.419421 
175.075394 1.124665 
176.046967 0.162449 
179.061539 0.014408 
179.963593 0.014473 
180.88797 0.021833 
180.906616 0.47211 
181.895859 0.019003 
182.896133 0.038765 
182.950912 0.064587 
183.893433 0.838279 
184.052231 0.055116 
185.059799 10.38281 
185.068817 0.023779 
185.993591 0.046567 
186.06308 1.114001 
187.039001 0.414246 
188.046906 0.685511 
189.054642 1.607549 
190.062592 5.366589 
191.070312 22.231489 
192.042358 0.012782 
192.0737 2.557508 
192.101746 0.020882 
193.075485 0.015737 
195.055984 0.041109 
197.974609 0.097218 
198.221649 0.088216 
198.916946 0.185704 
199.525681 0.053245 
201.018555 0.012816 
201.05481 0.024239 
203.07045 2.333205 
208.279465 0.015524 
211.698761 0.019418 
212.046936 0.333885 
213.054779 23.085337 
214.057983 3.045715 
214.162613 0.017724 
215.0345 0.1049 
215.070648 0.315679 
216.04187 7.676202 
216.05275 0.055181 
217.049698 14.371115 
218.053146 1.939107 
218.687515 0.011458 
219.555511 0.317669 
219.561142 0.233523 
219.579224 0.13065 
219.762695 0.012175 
222.132553 0.018822 
222.899551 0.028086 
229.050018 1.15153 
230.055878 0.112887 
230.118393 0.016498 
231.065292 6.833718 
232.068771 0.893504 
235.060303 4.367731 
236.063492 0.220128 
238.016846 0.012771 
240.041946 0.037251 
240.909348 0.074375 
241.0495 8.01395 
241.34021 0.011127 
241.859848 0.01746 
242.053268 1.211852 
243.96759 0.015138 
244.036743 45.390179 
245.040207 6.314861 
246.041794 0.110302 
257.044495 3.427518 
258.051086 0.864187 
258.221375 0.050473 
259.060089 100.0 
260.063507 16.264139 
260.086487 0.016094 
260.237488 0.090891 
261.065826 1.095409 
261.131012 0.818636 
265.628204 0.012101 
268.905853 0.096578 
273.268982 0.089158 
284.203156 0.016527 
END IONS

