BEGIN IONS
PEPMASS=193.13
CHARGE=1+
COMPOUNDNAME=L-citrulline
LIBRARYQUALITY=3
SMILES=N/A
INCHIKEY=RHGKLRLOHDJJDR-BYPYZUCNSA-N
INCHI=InChI=1S/C6H13N3O3/c7-4(5(10)11)2-1-3-9-6(8)12/h4H,1-3,7H2,(H,10,11)(H3,8,9,12)/t4-/m0/s1
MSLEVEL=2
SOURCE_INSTRUMENT=N/A-ESI-QFT
FILENAME=library_mgf.mgf
SEQ=*..*
IONMODE=positive
ORGANISM=MONA
NAME=L-citrulline [M+NH4]+
PI=MoNA
DATACOLLECTOR=MoNA:VF-NPL-QEHF000508
PUBMED=N/A
SUBMITUSER=mwang87
TAGS=
SPECTRUMID=CCMSLIB00004691571
SCANS=508
50.235847 0.025818 
50.351376 0.025751 
50.634964 0.021239 
51.851891 0.033799 
52.905731 0.024777 
52.957394 0.024122 
53.452545 0.029318 
53.570614 0.025861 
53.617416 0.024582 
53.867435 0.025128 
53.936649 0.027654 
55.344296 0.02565 
55.935371 0.028829 
56.857143 0.022282 
57.258736 0.025087 
57.40649 0.021025 
57.430599 0.02781 
57.828964 0.02276 
57.927765 0.024253 
58.509251 0.022811 
59.049843 0.031496 
60.47525 0.024733 
60.659256 0.024407 
61.011406 100.0 
62.010815 0.414464 
62.014771 1.473617 
62.019241 0.294809 
62.368469 0.025589 
62.646797 0.026814 
62.650818 0.02724 
63.007195 2.488727 
63.224709 0.021983 
64.055656 0.027408 
64.339691 0.025724 
65.535217 0.027419 
66.421478 0.023702 
66.677383 0.023271 
66.986893 0.017826 
67.146133 0.027733 
68.824356 0.024792 
69.549187 0.026846 
69.581169 0.025539 
69.805603 0.026271 
70.065727 0.059834 
70.958794 0.795126 
71.466957 0.024163 
73.563416 0.022449 
75.572845 0.025894 
75.630974 0.022578 
75.945854 0.023039 
77.430222 0.023669 
78.204964 0.024885 
79.021919 0.025472 
79.708778 0.024585 
80.621597 0.025336 
82.18869 0.022974 
82.656746 0.023056 
82.672836 0.022903 
83.14312 0.027278 
87.044502 0.027928 
88.923157 0.020768 
89.057137 0.027088 
89.060242 5.516024 
89.851517 0.025735 
90.367302 0.023713 
90.948471 0.029522 
92.408119 0.01895 
93.05899 0.023405 
93.846024 0.023604 
96.367462 0.024527 
97.045586 0.023078 
98.260582 0.025024 
98.787239 0.025424 
98.955856 0.032697 
98.975777 1.060453 
99.318207 0.022651 
100.529182 0.023475 
101.008804 0.020572 
101.207481 0.025459 
102.846848 0.024998 
102.992447 0.024135 
103.308342 0.027199 
104.815033 0.029084 
104.930748 1.211462 
107.070679 0.259578 
107.086189 0.027873 
109.101669 0.039508 
112.068298 0.027889 
113.071251 0.155708 
114.074669 0.02946 
114.091667 0.031618 
114.807098 0.027308 
114.948433 0.683484 
114.959229 0.027536 
115.086853 0.1247 
116.986191 0.214088 
118.086517 0.170139 
119.049355 0.502047 
119.829086 0.031464 
120.940674 0.796942 
121.974663 0.024655 
122.941109 4.320915 
124.629089 0.021978 
124.776237 0.03426 
125.673248 0.027222 
126.726601 0.026455 
127.570374 0.026171 
129.406815 0.033696 
130.662903 0.026289 
131.304398 0.025897 
131.890015 0.030439 
131.961487 0.303806 
132.940598 0.277258 
132.958328 3.544315 
133.086014 1.963034 
133.897476 0.032252 
133.948715 1.059898 
134.941071 0.225648 
134.958542 0.323117 
135.116913 0.27526 
135.927917 0.030579 
135.948898 0.268612 
135.966614 0.422104 
136.120651 0.026012 
136.95665 2.107097 
137.011734 0.084658 
137.995621 0.023545 
147.610504 0.025071 
147.894928 0.023339 
147.974869 1.464735 
148.971878 78.114281 
149.972626 1.694123 
150.951218 1.500768 
150.967285 1.441715 
150.972748 4.88221 
151.096481 0.082975 
151.773392 0.026535 
152.951523 12.039892 
152.968979 0.584899 
153.959351 6.184133 
154.967255 0.025709 
155.684464 0.027251 
156.519241 0.022412 
159.076492 0.87882 
159.679352 0.022152 
160.039444 0.027866 
160.080109 0.087953 
161.011765 3.05324 
161.712662 0.027417 
162.013062 0.185812 
162.951126 2.964104 
163.008987 0.070369 
163.998962 0.035586 
164.951553 4.248066 
165.195053 0.024916 
166.206375 0.026751 
166.967545 0.061186 
166.982407 10.431406 
167.985382 0.123943 
168.384766 0.030894 
168.961411 0.031803 
168.982864 7.571888 
170.962128 2.221002 
174.095612 0.622261 
174.149017 1.218501 
175.096939 0.048914 
176.94104 0.1642 
176.989395 0.904555 
177.112167 0.064307 
177.938232 4.132914 
178.978439 0.296662 
179.022354 18.958466 
179.938721 0.167683 
180.00769 0.026808 
180.02327 2.395352 
180.961685 2.753107 
180.997879 0.296426 
181.019363 1.898046 
181.999146 0.030897 
182.96225 3.677214 
185.949234 0.844406 
186.864838 0.032708 
187.138977 0.028518 
191.179169 0.030421 
191.432449 0.024687 
191.964401 2.592286 
192.101868 0.538033 
192.123077 0.351235 
192.138397 4.210785 
192.147339 0.037622 
192.159561 4.511534 
192.174576 0.311422 
192.961746 86.561951 
193.03804 0.387247 
193.133118 0.211869 
193.141861 0.263321 
193.161545 0.21405 
193.475174 0.025958 
193.964188 4.458222 
194.067444 0.025578 
194.116882 3.023377 
194.154037 11.081826 
194.188522 0.029189 
194.78923 0.029665 
194.962433 12.419287 
194.999832 0.782529 
195.12265 1.017355 
195.148712 0.030912 
195.157669 0.338281 
195.265274 0.023888 
195.948853 2.814573 
197.032852 1.697623 
197.189316 0.027859 
197.949417 0.100469 
198.033875 0.082533 
201.860703 0.03419 
204.414474 0.02688 
209.975357 1.419607 
210.972214 33.85051 
211.974503 2.00234 
212.972717 14.574302 
END IONS

