BEGIN IONS
PEPMASS=319.119
CHARGE=1+
COMPOUNDNAME=MoNA:509583 Mycophenolic (Mycophenolate) [M+H]
LIBRARYQUALITY=3
SMILES=N/A
INCHIKEY=HPNSFSBZBAHARI-RUDMXATFSA-N
INCHI=InChI=1S/C17H20O6/c1-9(5-7-13(18)19)4-6-11-15(20)14-12(8-23-17(14)21)10(2)16(11)22-3/h4,20H,5-8H2,1-3H3,(H,18,19)/b9-4+
MSLEVEL=2
SOURCE_INSTRUMENT=LC-ESI-ITFT-LC-ESI-ITFT
FILENAME=output_mgf.mgf
SEQ=*..*
IONMODE=
ORGANISM=MONA
NAME=MoNA:509583 Mycophenolic (Mycophenolate) [M+H] [M-H]-
PI=MoNA
DATACOLLECTOR=MoNA
PUBMED=N/A
SUBMITUSER=mwang87
TAGS=
SPECTRUMID=CCMSLIB00000564816
SCANS=2068
135.0445 3.12537 
173.0608 3.219032 
179.035 21.434356 
191.0348 100.0 
192.0427 36.76896 
199.1122 8.659449 
203.0348 8.249784 
205.0506 36.809308 
207.066 16.564451 
215.1074 8.055162 
233.0813 7.100892 
243.1023 7.03179 
245.0815 19.356271 
275.1286 25.379494 
287.0922 19.764771 
319.1188 32.878637 
END IONS

