BEGIN IONS
PEPMASS=273.076
CHARGE=1+
COMPOUNDNAME=naringenin
LIBRARYQUALITY=3
SMILES=N/A
INCHIKEY=FTVWIRXFELQLPI-UHFFFAOYSA-N
INCHI=InChI=1S/C15H12O5/c16-9-3-1-8(2-4-9)13-7-12(19)15-11(18)5-10(17)6-14(15)20-13/h1-6,13,16-18H,7H2
MSLEVEL=2
SOURCE_INSTRUMENT=N/A-ESI-QFT
FILENAME=library_mgf.mgf
SEQ=*..*
IONMODE=positive
ORGANISM=MONA
NAME=naringenin [M+H]+
PI=MoNA
DATACOLLECTOR=MoNA:VF-NPL-QEHF013130
PUBMED=N/A
SUBMITUSER=mwang87
TAGS=
SPECTRUMID=CCMSLIB00004704193
SCANS=13130
50.515095 0.059746 
50.799095 0.049672 
52.666882 0.053546 
53.049946 0.03846 
53.185604 0.059279 
53.190689 0.043345 
54.066734 0.062924 
54.149899 0.064682 
54.626877 0.063328 
55.097511 0.036483 
55.289043 0.041196 
55.359547 0.05069 
55.609001 0.041547 
56.097805 0.06334 
56.965569 13.124343 
56.966949 0.29243 
57.070709 0.323908 
58.065845 0.266775 
58.260014 0.057284 
59.441391 0.027168 
59.703369 0.02959 
60.081623 0.067962 
60.114677 0.037148 
60.41383 0.063155 
60.958382 0.048944 
61.011417 61.647476 
61.656071 0.043589 
61.949989 0.050215 
62.010868 0.150963 
62.014744 0.614848 
62.019211 2.759816 
62.166031 0.043481 
62.495235 0.0405 
62.655285 0.077275 
62.789406 0.08065 
63.007168 2.629584 
63.067894 0.042824 
63.927818 0.066105 
63.992287 0.056441 
65.205948 0.068574 
65.555176 0.038966 
65.759056 0.042183 
65.784058 0.040562 
66.168442 0.042962 
66.395592 0.064148 
66.45726 0.041606 
67.538414 0.041302 
67.790611 0.066028 
67.870132 0.059553 
68.27607 0.07399 
68.663254 0.046754 
68.818123 0.049976 
68.939194 0.084278 
69.651024 0.038868 
70.261406 0.067955 
70.958618 0.542086 
70.981216 0.04767 
71.086143 0.081837 
71.952621 0.130569 
72.788605 0.040738 
72.937851 0.168344 
73.63443 0.045332 
73.676468 0.055175 
74.791847 0.070368 
74.931671 0.103899 
74.976036 1.200807 
75.682167 0.076032 
75.78743 0.046893 
76.27919 0.036266 
77.073135 0.058066 
78.013992 0.433763 
79.021873 4.210241 
79.476204 0.035203 
80.364319 0.064326 
80.389008 0.065066 
80.655243 0.079047 
81.062225 0.070856 
81.398849 0.036376 
81.790092 0.045302 
82.678726 0.037394 
82.727951 0.05154 
82.817024 0.03474 
84.227226 0.034023 
84.522202 0.037885 
84.61908 0.039428 
84.974167 0.040953 
85.076508 0.041332 
85.081963 0.039062 
85.711105 0.063287 
86.458519 0.053493 
86.789818 0.063417 
86.975929 0.350111 
88.076263 0.0284 
88.937263 0.041107 
89.060303 0.13266 
90.948303 0.086301 
91.015831 0.067119 
93.087975 0.058569 
93.124153 0.044497 
93.321732 0.030505 
93.47599 0.059831 
93.90239 0.062243 
94.024765 0.047815 
94.854904 0.037909 
95.081398 0.043433 
95.256119 0.054341 
95.377068 0.060002 
95.396576 0.037046 
95.435196 0.038073 
95.913429 0.052602 
97.366112 0.067745 
97.926765 0.071874 
98.701195 0.041301 
98.975868 100.0 
99.022438 0.031008 
99.111603 0.068775 
99.831856 0.05019 
99.833565 0.042936 
99.979179 1.847363 
100.786636 0.057513 
100.971962 0.217451 
100.980118 0.109367 
101.950317 18.766968 
102.601379 0.032741 
102.952606 0.085074 
102.968712 1.53578 
103.52282 0.076675 
103.584381 0.026034 
103.749191 0.073213 
103.924309 0.083999 
104.01696 0.043793 
104.930855 0.406239 
105.917557 0.096134 
105.943115 0.060912 
106.777565 0.02652 
110.115952 0.039683 
110.452103 0.035732 
111.675285 0.035834 
112.562897 0.07083 
112.639832 0.052853 
113.40316 0.059192 
114.74044 0.039199 
116.005516 0.409997 
116.968323 0.029577 
116.986191 51.630913 
117.424278 0.049407 
117.989403 0.6238 
118.624298 0.052071 
118.947701 10.550052 
118.982208 0.080628 
119.001556 0.069263 
119.170593 0.039002 
119.956253 0.051346 
119.960701 5.631593 
120.979164 0.473134 
122.279121 0.054815 
122.941071 4.486531 
123.034859 0.035104 
123.939056 0.488189 
124.936554 1.277771 
126.363785 0.041105 
126.697723 0.04095 
127.60466 0.039611 
127.620613 0.059783 
127.646324 0.046878 
129.802856 0.068464 
130.985825 0.056679 
131.00177 0.652291 
131.41214 0.055142 
131.799408 0.047457 
132.958328 1.901327 
133.375977 0.060478 
133.524017 0.040602 
133.948318 0.257958 
134.521362 0.048341 
134.919891 0.171738 
134.942459 7.696691 
134.957275 0.100983 
134.978806 64.456902 
134.996552 11.561216 
135.927734 0.206932 
135.956223 0.095877 
135.966705 0.2468 
135.982391 0.449268 
136.859131 0.07364 
136.920731 0.553751 
136.958023 11.093157 
136.974594 3.082701 
137.01178 2.789032 
137.92807 0.249625 
137.970978 1.013552 
138.936234 0.049288 
138.952484 0.221278 
138.971527 0.548193 
139.009399 0.075293 
139.978012 0.075269 
140.951614 0.088753 
141.900436 0.0735 
142.435837 0.043882 
146.956924 0.052289 
146.97644 1.655267 
147.97467 0.075664 
148.971893 34.172562 
148.978653 0.580148 
149.965866 0.291783 
149.972916 0.2364 
150.951096 2.161099 
150.967957 1.452575 
150.972855 1.181764 
151.943756 0.788901 
151.959213 0.056433 
151.970078 11.759304 
151.9991 0.214597 
152.360916 0.073313 
152.648834 0.057537 
152.952515 28.696484 
152.968018 2.185491 
152.989288 31.839815 
153.00708 0.571425 
153.938995 0.071354 
153.952179 0.079355 
153.959549 10.987266 
153.966553 1.009099 
153.99295 0.091292 
154.325409 0.074557 
154.932037 1.136058 
154.941238 0.047986 
154.947235 4.536308 
154.957275 0.716297 
154.968765 3.854618 
154.977707 0.317545 
154.985107 1.421971 
155.022232 0.734259 
155.890518 0.129167 
155.954727 4.437212 
156.94516 0.257604 
156.97496 0.042063 
156.982254 0.285447 
157.952087 0.089216 
157.976746 0.067748 
158.226685 0.051658 
158.952972 0.068524 
160.260361 0.050754 
160.803543 0.080464 
161.201004 0.041913 
162.95137 0.156858 
162.965958 6.016157 
164.951797 0.938769 
165.938477 0.312653 
165.95047 0.065388 
166.946945 0.069575 
166.982437 5.581121 
167.455627 0.037295 
167.976212 0.079872 
168.048203 0.065437 
168.93602 0.039814 
168.962219 0.17205 
168.98291 5.097447 
169.980713 1.865929 
170.009354 0.030359 
170.914536 0.409538 
170.963409 41.598751 
170.977844 1.701762 
170.999802 2.445814 
171.916061 0.065688 
171.971344 4.467093 
172.942719 1.492695 
172.958817 2.328131 
172.968246 0.363675 
172.988602 0.442394 
173.598709 0.071347 
173.901123 0.181016 
173.968414 0.06185 
174.672485 0.062319 
174.956253 0.614749 
176.450424 0.152227 
176.989319 8.735207 
177.938141 1.378234 
178.530609 0.047758 
178.986099 0.090265 
179.681061 0.039552 
179.955399 0.089931 
179.963974 1.696274 
180.961899 0.236726 
180.976303 0.087576 
181.185852 0.049885 
182.951141 0.144811 
182.962173 1.367408 
183.961929 1.24752 
184.660904 0.053402 
184.978745 0.374234 
185.456131 1.338654 
185.949387 0.712912 
185.964081 0.134399 
186.928726 0.046482 
186.94722 0.630249 
187.944229 0.17039 
188.924911 2.3702 
188.974106 17.497993 
189.926361 0.642379 
190.953262 0.065004 
190.969086 0.397373 
191.01358 0.043098 
191.922775 0.150901 
192.961212 13.689466 
193.964645 0.579603 
194.461273 0.361343 
194.962524 4.018908 
194.999969 9.022784 
195.009094 0.099013 
195.782608 0.062602 
195.949112 1.582444 
195.96019 3.145873 
196.004105 0.090202 
196.961136 2.102713 
197.015167 3.820594 
197.974503 5.388471 
198.016205 0.163392 
198.94722 0.088658 
198.955856 0.050264 
198.993546 0.209254 
199.01207 0.544922 
199.948303 0.167127 
200.974228 0.078489 
201.972885 1.053267 
202.989288 0.048199 
204.478256 0.081702 
206.251801 0.047795 
206.977478 0.37692 
208.977142 0.110584 
210.186081 0.047159 
210.972183 8.846821 
212.956451 4.075286 
212.97287 5.856058 
212.992538 3.768225 
213.010864 0.350031 
213.959061 0.070964 
213.970291 4.338421 
214.935715 0.552935 
214.953262 0.041208 
214.969818 3.275779 
214.989319 3.257111 
215.025818 0.774925 
215.943939 0.290038 
215.965195 0.070246 
215.985046 0.362545 
216.966766 0.152843 
216.985916 0.458118 
216.996689 0.521906 
217.012405 0.82057 
217.019836 0.799999 
219.174088 0.34294 
223.148254 0.042588 
227.785629 0.043592 
230.966888 28.856976 
230.979492 0.454766 
231.002869 0.039254 
231.969421 0.552994 
232.946106 8.866722 
232.962357 2.400357 
233.0 1.310624 
233.818954 0.064012 
234.942352 0.231209 
234.960052 0.248955 
234.997925 0.042612 
235.945297 0.062835 
248.965439 0.052628 
248.977371 10.22864 
249.97995 0.123039 
250.956863 3.872921 
250.971924 0.522758 
251.54184 0.053846 
252.718994 0.036195 
253.191879 0.054629 
257.765259 0.02985 
260.325439 0.048103 
261.108429 0.067199 
261.131073 0.377988 
265.023285 0.064102 
273.702698 0.063477 
282.412018 0.046186 
284.330994 0.364704 
289.164673 0.076943 
290.454437 0.039005 
295.907135 0.055121 
306.568573 0.061186 
318.886627 0.03151 
END IONS

