BEGIN IONS
PEPMASS=267.077
CHARGE=1+
COMPOUNDNAME=BIOTIN
LIBRARYQUALITY=3
SMILES=N/A
INCHIKEY=YBJHBAHKTGYVGT-ZKWXMUAHSA-N
INCHI=InChI=1S/C10H16N2O3S/c13-8(14)4-2-1-3-7-9-6(5-16-7)11-10(15)12-9/h6-7,9H,1-5H2,(H,13,14)(H2,11,12,15)/t6-,7-,9-/m0/s1
MSLEVEL=2
SOURCE_INSTRUMENT=N/A-ESI-QFT
FILENAME=library_mgf.mgf
SEQ=*..*
IONMODE=positive
ORGANISM=MONA
NAME=BIOTIN [M+Na]+
PI=MoNA
DATACOLLECTOR=MoNA:VF-NPL-QEHF028117
PUBMED=N/A
SUBMITUSER=mwang87
TAGS=
SPECTRUMID=CCMSLIB00004721698
SCANS=28117
50.216328 0.004422 
50.748055 0.001598 
51.585064 0.004473 
52.04063 0.002519 
52.179581 0.010666 
52.303242 0.005752 
52.376705 0.004816 
53.867268 0.010205 
53.877823 0.009607 
54.370434 0.009613 
54.71954 0.004457 
54.719868 0.004464 
54.72031 0.003114 
54.808064 0.001454 
54.999809 0.004497 
55.839787 0.001842 
56.157681 0.00302 
56.683346 0.002281 
56.929741 0.009914 
56.951443 0.004523 
57.189915 0.005428 
57.93103 0.005136 
57.968216 0.00103 
58.848267 0.006124 
59.008823 0.001624 
59.113373 0.002755 
59.131111 0.008686 
59.258068 0.002884 
59.317657 0.005984 
59.487583 0.008902 
59.610558 0.007947 
59.668941 0.004748 
59.864407 0.002412 
60.055176 0.007727 
60.162228 0.001611 
60.182461 0.002791 
60.260368 0.002454 
60.892265 0.008485 
61.010761 0.050591 
61.547367 0.005073 
61.894142 0.004213 
62.152428 0.007258 
62.330769 0.001924 
62.364017 0.005472 
62.57473 0.008304 
64.83815 0.004265 
65.038918 0.004525 
65.123444 0.005 
65.751343 0.004872 
66.520668 0.008656 
67.463234 0.004431 
67.558838 0.004822 
68.269234 0.006131 
68.471703 0.001024 
68.633575 0.009686 
69.072906 0.005799 
69.297394 0.003003 
70.828323 0.00601 
71.139328 0.008475 
71.165398 0.01069 
72.258659 0.002973 
73.478394 0.004939 
73.713394 0.002286 
73.796257 0.004707 
74.096375 0.010285 
74.924767 0.006599 
74.934547 0.004821 
75.201714 0.002668 
76.314888 0.002641 
76.587257 0.002035 
78.13398 0.003181 
79.875694 0.008619 
80.024513 0.005543 
80.308563 0.006979 
81.021645 0.006559 
81.233536 0.009484 
81.501862 0.002639 
84.745293 0.002792 
84.76387 0.002776 
85.156563 0.004543 
85.48201 0.008347 
86.838387 0.009849 
87.328316 0.004648 
87.648216 0.008604 
88.16066 0.001625 
89.615318 0.000963 
89.835358 0.005075 
89.859589 0.010013 
91.201653 0.004396 
91.962173 0.009329 
92.341629 0.002242 
93.40876 0.004689 
94.015457 0.007229 
95.176811 0.001639 
96.07061 0.00441 
96.250839 0.01016 
96.278404 0.002752 
97.240082 0.009999 
98.556938 0.003324 
98.975159 0.003448 
98.984032 0.09386 
99.900444 0.0069 
100.609489 0.009783 
100.612083 0.010286 
100.64566 0.002893 
100.850456 0.009903 
101.303474 0.006103 
103.312393 0.002356 
105.033302 0.002172 
109.48465 0.004553 
110.954269 0.006521 
111.083275 0.003199 
113.631134 0.006265 
114.437981 0.007033 
115.900642 0.011125 
116.296509 0.011541 
118.239616 0.005238 
118.334686 0.006017 
118.549644 0.004648 
119.766571 0.004658 
120.729271 0.001103 
120.84317 0.002844 
120.942108 0.007023 
121.126701 0.002058 
121.194855 0.009281 
121.514542 0.01084 
122.02272 0.003097 
122.071251 0.002185 
123.18766 0.005452 
127.525345 0.010388 
131.324356 0.006405 
132.913071 0.002475 
133.44313 0.009644 
134.213593 0.001933 
135.692093 0.003265 
138.08136 0.001568 
139.336212 0.001006 
140.608368 0.008118 
142.205902 0.010859 
142.512466 0.002869 
143.266144 0.006541 
144.958527 0.019842 
146.325089 0.006258 
152.165237 0.002516 
162.913956 0.006466 
162.984695 0.009242 
166.15065 0.00358 
167.130508 0.00104 
167.287262 0.002123 
169.290375 0.010195 
170.53302 0.002451 
171.726624 0.002414 
171.916153 0.008702 
172.557251 0.001063 
173.048447 0.003373 
176.189026 0.004906 
178.095749 0.002747 
178.772659 0.002063 
179.554123 0.003734 
181.445358 0.001251 
181.762497 0.001005 
184.358627 0.009218 
187.585312 0.00292 
188.647827 0.168313 
188.96698 0.016553 
189.149551 0.016039 
189.418137 0.001726 
190.965622 0.002429 
191.02243 0.005605 
197.653 0.340078 
198.154907 0.041695 
198.186005 0.011047 
199.275803 0.00224 
200.069489 0.010144 
201.640564 0.004707 
204.867401 0.003861 
205.402084 0.004561 
206.658371 0.189442 
206.97757 0.638761 
207.147247 0.005248 
207.160126 0.013226 
207.661163 0.001433 
207.978226 0.013299 
208.47731 0.00639 
208.817383 0.0044 
208.854202 0.00494 
208.976151 0.001347 
211.192749 0.001601 
212.804245 0.00182 
213.573807 0.00945 
214.814621 0.010204 
215.432327 0.008718 
215.662796 0.00444 
216.127609 0.169986 
216.13649 0.15163 
216.14209 0.108876 
220.50531 0.010719 
220.522736 0.004112 
223.345261 0.001559 
225.545761 0.004055 
227.654053 0.004863 
234.206635 0.003274 
236.066086 0.005838 
236.199173 0.006281 
238.967804 0.004282 
244.001678 0.010366 
246.18811 0.008562 
252.583038 0.01271 
255.064575 0.001937 
257.098755 0.001382 
259.621918 0.001727 
262.532806 0.009446 
266.172424 0.193726 
267.077057 100.0 
268.080444 11.153615 
268.205383 0.004531 
268.262939 0.161374 
268.978577 0.043269 
269.071655 2.157242 
269.208405 0.304142 
270.186859 0.005219 
271.911835 0.00194 
272.943817 0.008897 
273.364807 0.006545 
277.527466 0.004923 
280.207825 0.002481 
281.83493 0.007183 
285.009369 0.084276 
285.074982 0.062792 
286.009277 0.005646 
286.078552 0.001897 
END IONS

