BEGIN IONS
PEPMASS=408.247
CHARGE=1+
COMPOUNDNAME=ACTINONIN
LIBRARYQUALITY=3
SMILES=N/A
INCHIKEY=XJLATMLVMSFZBN-VYDXJSESSA-N
INCHI=InChI=1S/C19H35N3O5/c1-4-5-6-8-14(11-16(24)21-27)18(25)20-17(13(2)3)19(26)22-10-7-9-15(22)12-23/h13-15,17,23,27H,4-12H2,1-3H3,(H,20,25)(H,21,24)/t14-,15+,17+/m1/s1
MSLEVEL=2
SOURCE_INSTRUMENT=N/A-ESI-QFT
FILENAME=library_mgf.mgf
SEQ=*..*
IONMODE=positive
ORGANISM=MONA
NAME=ACTINONIN [M+Na]+
PI=MoNA
DATACOLLECTOR=MoNA:VF-NPL-QEHF027310
PUBMED=N/A
SUBMITUSER=mwang87
TAGS=
SPECTRUMID=CCMSLIB00004720891
SCANS=27310
50.07832 0.021018 
50.14436 0.02319 
50.403919 0.020496 
50.654545 0.027263 
50.88736 0.015387 
51.588123 0.01821 
53.054207 0.017575 
53.510567 0.019108 
53.613388 0.019933 
53.89249 0.006052 
54.132675 0.019681 
55.410126 0.0174 
55.421471 0.00792 
56.202705 0.004961 
56.429836 0.012694 
56.885136 0.007286 
56.964802 0.024069 
57.178516 0.021518 
57.279182 0.006626 
58.436024 0.013668 
60.156796 0.017649 
60.167484 0.005197 
60.88382 0.013366 
61.158813 0.006279 
61.870701 0.012174 
62.308578 0.006205 
63.639851 0.019337 
63.663036 0.021475 
64.555176 0.006214 
65.165344 0.005746 
65.401398 0.016514 
65.505081 0.011824 
65.723061 0.006922 
65.952492 0.021643 
66.170731 0.019552 
67.245728 0.029676 
67.341553 0.022892 
67.454788 0.01819 
67.854996 0.017548 
68.641068 0.010724 
68.894157 0.014453 
69.141678 0.016733 
69.584641 0.02265 
69.746346 0.011242 
69.970428 0.0246 
70.749596 0.011648 
71.018272 0.007588 
71.478935 0.00597 
71.712753 0.017539 
71.749344 0.026421 
71.996712 0.006551 
72.059364 0.016724 
72.080612 0.139237 
72.760712 0.008672 
73.162315 0.029211 
73.171959 0.017703 
73.700462 0.006698 
74.96212 0.012422 
75.075546 0.013955 
75.517242 0.013235 
75.703339 0.020736 
76.048233 0.012388 
76.559341 0.021075 
76.994713 0.00817 
78.270531 0.018316 
78.702888 0.021357 
79.81337 0.0134 
81.16967 0.028115 
82.397049 0.025429 
82.505112 0.01322 
82.663437 0.00926 
83.204086 0.012091 
84.080551 0.101085 
84.148796 0.025558 
84.674698 0.026022 
85.106293 0.008161 
87.195328 0.007694 
89.474838 0.006713 
91.516304 0.005723 
92.072479 0.007955 
92.535408 0.024784 
93.673599 0.006654 
93.7612 0.007802 
94.062386 0.024825 
94.806839 0.008069 
94.889114 0.017377 
96.753387 0.017858 
98.557411 0.010176 
98.820351 0.020256 
99.150757 0.007194 
99.939438 0.010082 
99.947403 0.011724 
100.669624 0.007429 
101.04538 0.014027 
102.09127 0.393422 
103.094193 0.009235 
103.176559 0.007809 
103.531853 0.024333 
104.132462 0.018748 
106.850105 0.011697 
108.005516 0.015149 
108.379745 0.017467 
108.800102 0.009131 
109.094437 0.008061 
109.187592 0.009825 
109.349442 0.026154 
110.162453 0.007588 
110.385468 0.014273 
110.514153 0.014321 
111.32753 0.006352 
111.516968 0.027534 
112.075424 0.114808 
113.900467 0.017542 
115.643326 0.025033 
116.42588 0.007949 
116.431381 0.01017 
117.152802 0.015651 
117.844833 0.02712 
120.486847 0.01223 
120.652962 0.028135 
121.039841 0.015062 
121.970375 0.006557 
122.057899 0.0129 
123.064575 0.021461 
123.824631 0.007589 
124.073196 4.135306 
125.076622 0.053704 
125.677734 0.012419 
125.755058 0.032882 
126.313904 0.01842 
126.516014 0.015169 
126.55764 0.022299 
128.070053 0.029491 
129.639893 0.019281 
132.4617 0.019904 
134.057404 0.393421 
134.837875 0.007226 
135.819336 0.011693 
136.554031 0.019878 
136.686417 0.0061 
137.933487 0.018072 
138.701019 0.005991 
138.865479 0.00658 
139.802292 0.01806 
140.067993 0.422483 
141.182602 0.006471 
142.7733 0.025955 
147.723373 0.005667 
148.13028 0.007628 
150.089081 0.087294 
150.110657 0.01267 
150.292526 0.009011 
151.81601 0.018224 
154.506241 0.023304 
155.618988 0.01887 
160.078812 0.008022 
160.763 0.018543 
161.141449 0.007305 
161.195694 0.030448 
161.966171 0.008426 
162.125183 0.017115 
164.104156 0.007916 
165.600677 0.00933 
167.799881 0.00583 
168.498474 0.023043 
174.195053 0.005082 
174.460266 0.019873 
176.694305 0.025164 
177.733078 0.008776 
177.853378 0.005274 
178.158447 0.005366 
178.409912 0.019556 
182.031479 0.007362 
183.149429 0.00672 
185.486938 0.013851 
185.726212 0.019254 
186.936035 0.019167 
188.57724 0.023451 
189.099564 0.353474 
189.8573 0.019185 
192.099533 0.124155 
194.344009 0.020107 
198.618607 0.019335 
199.088593 0.012097 
202.747421 0.027192 
203.115509 0.119319 
204.55127 0.019342 
207.110229 0.581417 
207.122437 0.136733 
207.384384 0.02792 
207.776093 0.022093 
208.094284 3.03303 
209.097427 0.032277 
210.120575 0.014147 
213.570892 0.018415 
213.72258 0.370475 
213.731628 0.761693 
213.743744 0.488136 
218.291061 0.006292 
218.752609 0.012129 
219.473587 0.006843 
223.141479 41.337234 
224.145111 4.070077 
224.59375 0.01285 
225.147186 0.02178 
226.105026 0.015311 
230.846527 0.013759 
233.089828 0.032765 
237.394791 0.00916 
239.732651 0.007808 
241.156464 0.009755 
246.169769 0.029534 
247.253021 0.019217 
247.5065 0.018864 
254.45462 0.016086 
255.249069 0.008466 
255.874619 0.008275 
257.48941 0.024084 
258.027985 0.013613 
261.157196 3.240179 
262.160278 0.265037 
268.033234 0.022328 
272.943146 0.027105 
277.152222 0.553183 
278.159454 0.0097 
279.167999 0.310218 
280.561584 0.012939 
285.129395 0.055725 
288.553589 0.010997 
289.151794 1.660286 
290.158478 0.266928 
291.167572 1.439881 
292.169891 0.034912 
292.459412 0.010075 
294.012665 0.021797 
296.66449 0.00946 
303.731812 0.023389 
304.167023 0.03723 
307.162415 3.1319 
308.16568 0.239242 
308.895203 0.016984 
311.768738 0.005817 
314.809174 0.020042 
316.162567 0.106328 
317.207397 0.006695 
325.172974 0.337427 
330.489105 0.00598 
333.21579 0.006297 
337.056152 0.034736 
343.417816 0.009435 
352.19751 0.008816 
353.841309 0.008583 
365.227509 0.006766 
370.486206 0.021524 
372.225342 2.347361 
373.22876 0.199825 
375.225189 0.094135 
379.800049 0.013128 
381.234894 0.027672 
387.496826 0.00914 
390.235962 100.0 
391.239288 20.767893 
392.12146 0.007537 
392.241791 1.839677 
395.870575 0.01319 
405.118683 0.016313 
406.060974 0.013402 
407.187439 0.051752 
408.246307 74.803345 
409.249512 16.04043 
410.252289 1.444771 
411.922638 0.028887 
415.074097 0.031341 
423.138184 0.027526 
423.321991 0.00926 
END IONS

