BEGIN IONS
PEPMASS=521.262
CHARGE=1+
COMPOUNDNAME=(3E,5S,7R,8R,11E,13S,15R,16R)-3,5,7,11,13,15-hexamethyl-8,16-bis(1,3-oxazol-5-ylmethyl)-1,9-dioxacyclohexadeca-3,11-diene-2,10-dione
LIBRARYQUALITY=3
SMILES=N/A
INCHIKEY=LAJRJVDLKYGLOO-HLRFMGGZSA-N
INCHI=InChI=1S/C28H38N2O6/c1-17-7-19(3)25(11-23-13-29-15-33-23)35-28(32)22(6)10-18(2)8-20(4)26(12-24-14-30-16-34-24)36-27(31)21(5)9-17/h9-10,13-20,25-26H,7-8,11-12H2,1-6H3/b21-9+,22-10+/t17-,18-,19+,20+,25+,26+/m0/s1
MSLEVEL=2
SOURCE_INSTRUMENT=N/A-ESI-QFT
FILENAME=library_mgf.mgf
SEQ=*..*
IONMODE=positive
ORGANISM=MONA
NAME=(3E,5S,7R,8R,11E,13S,15R,16R)-3,5,7,11,13,15-hexamethyl-8,16-bis(1,3-oxazol-5-ylmethyl)-1,9-dioxacyclohexadeca-3,11-diene-2,10-dione [M+Na]+
PI=MoNA
DATACOLLECTOR=MoNA:VF-NPL-QEHF019227
PUBMED=N/A
SUBMITUSER=mwang87
TAGS=
SPECTRUMID=CCMSLIB00004710290
SCANS=19227
50.256554 9.932595 
50.535633 4.378442 
51.436638 4.770485 
51.707558 4.395237 
52.000385 1.513239 
52.368805 7.676304 
52.7654 4.1406 
53.038879 3.411852 
53.065781 1.412092 
53.195652 4.472759 
53.634674 1.224827 
53.841156 6.631821 
54.063854 5.242809 
54.486401 3.625404 
54.540722 4.712185 
54.877052 3.215942 
55.054447 24.034498 
55.270245 4.096939 
55.97596 11.237197 
56.006165 3.056516 
56.071705 4.75618 
56.550694 6.466664 
56.965042 16.511902 
57.033703 7.050197 
57.070026 7.43004 
57.344395 2.133362 
58.623276 5.160563 
58.808044 5.160921 
59.049271 1.373244 
59.213631 5.03937 
59.314014 5.960369 
59.381699 7.406433 
59.389477 2.479696 
59.901295 3.29504 
60.080997 3.325333 
60.525673 3.050654 
60.72691 3.476623 
61.354824 8.199994 
61.421181 2.711867 
61.509354 7.337868 
62.69062 1.462575 
62.778362 5.043805 
62.787186 7.113182 
63.063972 4.752102 
63.862614 7.58757 
64.325951 6.523072 
64.528671 7.151992 
65.447098 2.205408 
65.638535 5.424057 
66.259903 7.47426 
66.779869 6.909341 
67.054344 45.307964 
67.475548 1.584961 
67.968437 2.238715 
68.030098 2.128269 
68.230247 1.515739 
68.298561 5.937376 
68.840942 3.885768 
68.940315 4.246631 
69.009285 2.430999 
69.069923 4.151839 
69.397644 2.135566 
70.341156 1.135635 
70.515442 6.191543 
70.561302 1.559571 
70.870247 1.347443 
70.929611 8.845957 
71.394608 8.68434 
71.888191 7.722114 
72.04438 4.150115 
72.733482 1.313767 
73.055161 3.219029 
73.373352 8.014694 
73.706177 7.246964 
74.294739 3.45143 
74.725487 9.595529 
74.999069 7.373985 
75.89711 1.408903 
78.035828 4.89161 
79.054161 19.442492 
79.480118 2.02602 
80.145142 6.254528 
80.188988 1.219301 
80.788078 7.023667 
81.033218 2.294934 
81.069801 23.352133 
81.82119 1.492181 
82.028694 6.2151 
82.259628 9.931829 
82.778687 7.455064 
83.155022 9.07282 
83.425667 1.290899 
83.436348 5.618187 
83.607216 6.527168 
85.064674 4.105821 
85.396278 5.259613 
85.732285 5.812218 
86.859222 2.365599 
87.527206 4.969006 
88.913467 4.866471 
89.754616 7.288381 
90.152107 7.08015 
90.221542 7.090726 
90.507355 9.099781 
90.694206 3.642249 
91.0541 18.269985 
92.655296 7.308008 
93.069794 36.215565 
93.196495 8.295296 
93.626503 6.971424 
93.672195 8.392815 
94.119347 1.274077 
94.534355 7.749849 
94.702667 3.776737 
95.028214 1.921384 
95.049049 8.18754 
95.085411 10.307376 
95.355011 2.262654 
95.644501 1.397847 
95.859756 5.015923 
96.025314 9.521814 
96.199852 2.179319 
96.505569 1.499092 
97.405685 7.368656 
97.965607 8.599819 
100.257408 5.262495 
100.333702 1.953012 
100.399628 8.245362 
100.902107 1.505418 
101.521049 1.138931 
101.94146 1.243965 
102.329506 9.758769 
103.054062 20.251434 
105.069717 22.947708 
105.457687 4.720398 
106.062637 2.198663 
107.085365 17.703968 
107.208031 5.597889 
107.769768 8.684402 
108.23436 2.30087 
108.284546 9.734173 
108.587372 2.297029 
109.064735 4.158602 
110.17662 8.290499 
111.026047 3.376643 
111.312393 3.320917 
111.498207 1.246965 
112.236206 8.979941 
114.305588 6.242204 
114.531479 8.06307 
114.964462 7.024937 
116.725609 8.412219 
117.069923 2.190779 
119.085365 9.920752 
119.937119 7.505106 
120.080772 1.967808 
120.601913 7.390759 
120.633949 5.586689 
121.100876 8.361879 
122.060654 2.218551 
123.080208 1.608212 
124.26902 1.096788 
124.747292 9.149749 
125.399689 4.519637 
126.090912 1.436973 
131.085205 1.559592 
131.524429 7.704944 
132.080551 1.414034 
133.017334 2.18731 
134.571625 2.140191 
135.28775 8.278271 
135.813202 9.306335 
136.2435 9.171002 
139.28717 5.233065 
139.677734 1.43089 
140.070862 3.712979 
140.207825 7.534997 
140.714615 7.010346 
142.076767 1.841667 
143.359268 5.416526 
148.654343 8.774043 
149.506287 1.631487 
150.467545 4.135722 
151.870193 2.421241 
152.221451 7.31262 
154.050034 1.525047 
154.086166 4.173487 
159.872589 9.170885 
160.075729 3.947745 
164.665573 3.420721 
164.878647 2.435398 
166.252426 7.438669 
167.057388 2.293601 
168.065338 42.906891 
168.227432 1.55924 
169.101425 1.575323 
171.091888 2.236029 
172.61084 8.779928 
176.012772 1.255866 
176.431656 8.504568 
177.727478 5.77738 
180.651077 6.849551 
182.081131 100.0 
184.653122 1.194303 
184.945892 6.285975 
189.665466 8.922624 
198.011856 2.281351 
198.368256 1.407441 
200.658737 5.508073 
202.16658 8.29893 
206.080872 7.296088 
208.426041 7.999214 
210.518478 1.447368 
211.725906 2.257129 
214.273087 5.416759 
215.831665 6.279548 
219.912201 95.520508 
219.938599 9.88848 
222.955429 2.354967 
224.992676 10.18766 
228.523682 2.388379 
232.388748 2.372612 
240.646805 1.513504 
240.865112 3.529248 
241.347153 3.991966 
246.516449 3.537988 
254.360046 9.924137 
254.469467 4.706167 
258.994507 39.693832 
263.218323 5.837672 
263.299622 1.221191 
263.346619 1.738293 
264.806732 3.540894 
274.252747 1.482335 
277.004974 62.529541 
278.010681 2.702249 
283.024902 1.151524 
288.348816 7.872686 
290.249878 3.827779 
292.109161 1.557438 
295.251404 1.474359 
296.98053 7.898686 
307.230682 1.464913 
329.821716 7.699141 
332.244873 1.489663 
332.74469 10.04098 
334.578033 2.208921 
336.131378 1.595641 
340.200714 3.69566 
342.410492 8.133115 
345.222107 7.686367 
355.406067 5.460132 
359.860413 3.878929 
367.792755 3.731916 
379.403564 6.396254 
387.218811 2.407242 
389.577545 3.559564 
396.586243 4.726571 
397.956268 2.540981 
401.165405 4.592085 
410.329437 5.456195 
419.176544 14.917102 
422.262817 1.404375 
453.18692 4.238204 
455.698029 5.471219 
463.994995 1.737966 
477.964264 1.834531 
490.100098 8.943397 
491.986816 1.864472 
500.30899 6.580212 
504.319946 1.274955 
508.377075 6.709357 
515.40686 5.503522 
534.787231 2.031827 
539.808716 2.290541 
END IONS

