BEGIN IONS
PEPMASS=305.115
CHARGE=1+
COMPOUNDNAME=(1S,8R,9R)-8-hydroxy-4-(propan-2-ylidene)-10-oxatricyclo[7.2.1.01,5]dodecane-8-carboxylic acid
LIBRARYQUALITY=3
SMILES=N/A
INCHIKEY=IOYVXXQKVQKQIG-ZJPTYJIISA-N
INCHI=InChI=1S/C15H22O4/c1-9(2)10-3-5-14-7-12(19-8-14)15(18,13(16)17)6-4-11(10)14/h11-12,18H,3-8H2,1-2H3,(H,16,17)/t11?,12-,14-,15-/m1/s1
MSLEVEL=2
SOURCE_INSTRUMENT=N/A-ESI-QFT
FILENAME=library_mgf.mgf
SEQ=*..*
IONMODE=positive
ORGANISM=MONA
NAME=(1S,8R,9R)-8-hydroxy-4-(propan-2-ylidene)-10-oxatricyclo[7.2.1.01,5]dodecane-8-carboxylic acid [M+K]+
PI=MoNA
DATACOLLECTOR=MoNA:VF-NPL-QEHF021467
PUBMED=N/A
SUBMITUSER=mwang87
TAGS=
SPECTRUMID=CCMSLIB00004712530
SCANS=21467
50.205055 0.017489 
50.547371 0.01263 
50.960419 0.005756 
51.023472 0.025252 
51.539623 0.013075 
51.940311 0.008273 
53.00259 0.222182 
53.038937 1.394173 
53.317066 0.020314 
53.667645 0.024749 
55.018188 0.724137 
55.054554 2.393426 
55.27013 0.012812 
55.363861 0.019834 
55.488827 0.027589 
55.934666 0.064022 
56.049759 0.012072 
56.13871 0.021536 
56.372581 0.005277 
56.41758 0.027704 
56.617271 0.015256 
56.96505 0.185653 
57.03381 0.802819 
57.070187 7.584388 
57.729939 0.004933 
57.914772 0.015806 
57.934963 0.005378 
58.033749 0.006024 
58.065403 1.03055 
58.073524 0.177583 
58.146622 0.026375 
59.013191 0.007667 
59.049419 1.594662 
59.389263 0.019346 
59.930599 0.005492 
59.935757 0.024773 
60.044567 0.015789 
60.050968 0.006302 
60.837563 0.02114 
61.010902 1.919487 
61.641045 0.024339 
62.018768 0.028202 
62.13147 0.023227 
62.309944 0.024423 
62.576515 0.005021 
62.848812 0.019853 
63.006634 0.008663 
63.523033 0.005162 
63.773518 0.013257 
64.740448 0.01754 
65.03878 0.136599 
65.608925 0.005295 
66.188736 0.026093 
67.018265 0.005206 
67.054375 4.371023 
67.300919 0.024654 
67.551422 0.005511 
67.943336 0.024359 
68.025871 0.050705 
68.057648 0.012265 
68.059837 0.013177 
68.997307 0.304776 
69.0336 3.447481 
69.044868 0.086044 
69.069977 2.377944 
70.065262 0.474491 
70.073196 0.004862 
70.233162 0.004887 
70.781799 0.014708 
70.957916 0.007256 
71.049225 0.663421 
71.085602 3.822964 
72.036316 0.020251 
72.080894 0.042413 
72.088936 0.083964 
72.93718 0.178779 
73.064842 1.540817 
73.134018 0.024157 
73.770737 0.02007 
74.050835 0.025928 
74.060089 0.00914 
75.04425 0.015386 
77.011459 0.029364 
77.038727 0.030462 
77.040695 0.016696 
79.018028 0.059371 
79.021294 0.266674 
79.051926 0.030923 
79.054276 3.124417 
79.056625 0.029033 
80.049522 41.548096 
81.033508 0.605077 
81.04464 0.048226 
81.052917 2.280773 
81.067223 0.030025 
81.069923 4.509088 
81.0728 0.00562 
81.64225 0.019414 
81.997177 0.017963 
82.064949 0.024309 
82.073196 0.099823 
83.012794 0.52434 
83.049187 56.794518 
83.066376 0.023911 
83.085503 0.912898 
84.05249 0.011412 
84.080765 0.12799 
84.47802 0.026662 
85.028458 0.468717 
85.039749 0.184495 
85.062149 0.008246 
85.064835 1.438261 
85.101242 1.678247 
86.060059 0.093608 
86.09639 0.075481 
87.044151 0.52195 
87.664467 0.02262 
88.075752 0.057202 
89.059616 0.025382 
89.789925 0.012335 
90.8685 0.005005 
90.947746 0.064427 
91.054306 6.141099 
92.057625 0.238405 
92.501923 0.026451 
93.022896 0.013826 
93.033722 0.028996 
93.069946 4.369667 
93.690552 0.015206 
93.983757 0.027978 
94.065605 0.024252 
94.073166 0.025841 
95.032516 0.012774 
95.04583 0.010313 
95.049187 2.977342 
95.085564 4.408618 
95.951309 0.007578 
96.052544 0.012799 
96.08886 0.093102 
97.028442 0.254854 
97.064873 2.255809 
97.101204 0.369662 
97.616463 0.020184 
98.060051 0.006542 
98.096825 0.028336 
99.044128 1.371811 
99.080399 0.442792 
100.075798 0.025116 
101.059799 1.104203 
102.091202 0.046985 
102.480095 0.019332 
102.892342 0.011503 
103.05442 0.185942 
103.726143 0.012942 
104.860229 0.01195 
105.033646 0.009724 
105.044769 0.028117 
105.069962 4.576409 
106.065186 0.00971 
106.073235 0.050831 
106.077347 0.006221 
106.086418 0.027162 
107.000031 0.092379 
107.049141 1.211077 
107.07357 0.017783 
107.085587 5.553445 
107.547127 0.021013 
108.055862 0.487722 
108.069153 0.006366 
108.080826 0.254527 
108.088867 0.071211 
108.093018 0.022378 
108.493309 0.007837 
108.958221 0.006864 
109.028488 0.252021 
109.064919 2.422433 
109.101242 3.039918 
109.112099 0.012411 
109.872162 0.02525 
110.060066 0.112756 
110.104576 0.070494 
110.880257 0.029371 
111.044151 2.908035 
111.080513 1.789623 
111.83744 0.021002 
112.288322 0.013992 
112.298676 0.0128 
113.059753 1.269446 
113.095985 0.020022 
113.387642 0.024469 
114.063271 0.018198 
115.054413 0.410126 
115.07547 0.043005 
116.005219 0.180686 
116.062126 0.019897 
116.070679 0.005776 
116.984467 0.077164 
117.069893 2.06297 
118.064995 0.028598 
118.086281 0.013091 
119.049271 0.428091 
119.060631 0.005131 
119.085609 3.675344 
119.09005 0.021971 
120.080925 0.1822 
120.088814 0.020151 
121.028206 0.006807 
121.064911 1.884021 
121.101257 2.032669 
122.060226 0.061861 
122.072655 0.164632 
122.096725 0.023679 
122.104523 0.008002 
122.940849 0.010262 
123.044098 0.497783 
123.080498 4.345516 
123.116867 1.708496 
124.076134 0.006269 
124.083855 0.056232 
124.088326 0.030053 
124.120499 0.022277 
124.936493 0.305802 
125.023376 0.36593 
125.059784 1.367548 
125.096207 3.078162 
125.43428 0.015076 
127.039047 4.339891 
127.075439 0.190647 
128.062103 1.244836 
128.963364 0.0084 
129.054657 0.78494 
129.069824 2.418384 
130.065094 0.094904 
130.077759 0.322383 
130.979095 0.007439 
130.999863 0.021584 
131.049057 0.151115 
131.073212 0.047303 
131.085632 4.211461 
132.044571 0.051593 
132.080887 0.066397 
132.088837 0.011209 
133.026917 0.024424 
133.064896 1.822979 
133.075836 0.010881 
133.088577 0.005771 
133.101242 2.538604 
133.213989 0.024492 
133.959305 0.007323 
134.060043 0.086534 
134.068069 0.009223 
134.09642 0.176158 
134.104416 0.033751 
134.893494 0.019828 
134.955811 0.026214 
134.996292 0.013115 
135.044052 0.439579 
135.080475 9.016739 
135.116837 1.096093 
136.052307 0.01221 
136.07576 0.107979 
136.088257 0.035034 
136.111938 0.02956 
137.001785 0.006822 
137.01265 0.037455 
137.059814 2.861185 
137.076904 0.03328 
137.096176 1.145737 
138.012268 0.005279 
138.055115 0.050436 
138.067734 0.199404 
139.01561 0.003561 
139.038971 100.0 
139.075317 2.425715 
139.111877 0.101134 
139.923538 0.033582 
140.042496 0.021915 
140.425476 0.026334 
140.761047 0.018974 
140.984497 0.121373 
141.05455 1.94528 
141.069794 1.910898 
141.090805 0.017366 
142.058411 0.009 
142.077896 1.355952 
142.961884 0.006192 
142.980042 0.028311 
143.000153 0.010023 
143.085571 7.539607 
143.995911 0.031243 
144.044357 0.007155 
144.080994 0.108017 
144.093445 1.15377 
144.944656 0.025628 
144.958344 0.006963 
145.064835 1.242743 
145.075378 0.033132 
145.101242 5.362917 
146.059875 0.128367 
146.072769 0.217577 
146.096527 0.236016 
146.104111 0.032603 
146.974365 0.045905 
147.044037 0.587328 
147.061432 0.009531 
147.080475 1.561165 
147.116928 1.465246 
148.075684 0.136392 
148.112213 0.079546 
148.120178 0.006749 
148.955872 0.013044 
148.971725 0.009652 
148.989517 0.007762 
149.059738 1.225398 
149.077194 0.006451 
149.096222 2.217084 
149.132553 0.167761 
150.055252 0.007845 
150.06781 0.00853 
150.0914 0.035623 
150.951202 0.200549 
150.968658 0.00763 
151.039078 0.308671 
151.063309 0.037586 
151.07547 1.894588 
151.092834 0.006673 
151.111801 0.906665 
152.063599 0.006976 
152.070602 0.310974 
152.083069 0.005775 
152.951584 1.534916 
152.96701 0.042614 
152.989182 0.009238 
153.054672 0.692277 
153.070374 0.350499 
153.090927 0.871036 
153.908859 0.021053 
153.94931 0.149423 
153.959564 0.441214 
153.992294 0.007756 
154.049591 0.007321 
154.062805 0.02273 
154.077744 1.752083 
154.085358 0.076703 
154.122559 0.010479 
154.946976 5.90836 
154.979141 0.007668 
155.000107 0.097758 
155.049225 0.014203 
155.060593 0.005907 
155.070221 0.414183 
155.085556 2.252443 
155.947769 0.130529 
155.954681 1.825768 
156.093475 6.143811 
156.94429 0.428259 
156.962509 0.005753 
156.995575 0.007919 
157.064865 0.403825 
157.101318 3.586364 
157.952042 0.112194 
158.060608 0.028088 
158.072662 0.696512 
158.096954 0.054071 
158.109344 0.318394 
159.068787 0.00886 
159.080475 3.672907 
159.116882 10.430101 
159.404968 0.018215 
160.075745 0.14692 
160.088379 0.869812 
160.112152 0.154873 
161.059631 0.682953 
161.09613 3.318102 
161.132568 0.554998 
162.054962 0.023955 
162.067383 0.05723 
162.091614 0.05709 
162.103958 0.115016 
162.950333 0.005806 
163.038788 0.009807 
163.075348 4.972748 
163.083023 0.030737 
163.111664 1.390359 
163.148483 0.071292 
164.070663 0.024296 
164.107117 0.045603 
164.967804 0.007024 
165.054764 0.175348 
165.069916 0.189279 
165.091064 1.052209 
165.127457 0.082017 
166.077728 0.42648 
166.123032 0.007345 
166.979675 0.006448 
167.00029 0.039636 
167.033798 0.059844 
167.070343 1.50324 
167.085541 0.626565 
167.106766 0.16938 
168.078232 0.784288 
168.093491 0.188673 
168.916962 0.070635 
168.961868 0.050343 
169.015945 0.093144 
169.06488 0.472196 
169.086075 0.026972 
169.101135 9.53109 
170.072296 0.024698 
170.109192 1.324571 
170.962082 0.227795 
170.978546 0.011715 
171.010971 0.00918 
171.054932 0.023318 
171.080551 0.924557 
171.116821 7.757116 
171.959946 0.150358 
171.973557 0.052359 
172.075775 0.010457 
172.088242 1.865299 
172.111847 0.061715 
172.124786 0.272696 
172.957596 1.476187 
173.059799 0.163661 
173.096146 9.175105 
173.132599 1.177265 
174.055099 0.21115 
174.067535 0.06744 
174.091446 0.1159 
174.104202 1.858788 
174.954651 0.070961 
175.075485 1.208891 
175.111801 3.691717 
175.148102 0.199935 
175.182404 0.026034 
176.070724 0.167131 
176.083206 0.115373 
176.106857 0.031609 
176.119751 0.471069 
176.143433 0.335044 
177.054626 0.210884 
177.091064 2.111033 
177.12735 1.064063 
177.162796 0.023754 
178.062317 0.234299 
178.086365 0.098825 
178.122208 0.153677 
179.000244 0.00894 
179.015167 0.013632 
179.070389 0.817186 
179.085495 0.882629 
179.106537 0.875107 
179.130341 0.026367 
180.065414 0.022023 
180.092865 0.023214 
180.887772 0.026771 
181.015961 0.089675 
181.064713 0.058921 
181.085999 0.793917 
181.101196 0.80166 
182.024567 0.006116 
182.072739 0.789162 
182.081284 0.009539 
182.107803 0.013848 
182.995285 0.014114 
183.011551 0.009068 
183.080444 1.061408 
183.116943 0.633621 
184.075119 0.00673 
184.088379 0.738021 
184.125183 0.008508 
184.990448 0.009274 
185.010757 0.013901 
185.059677 0.104297 
185.070999 0.056095 
185.096176 1.267798 
185.132538 1.952006 
185.939529 0.01875 
185.949173 0.087117 
186.067505 0.009455 
186.094299 0.031833 
186.104111 2.951911 
186.927765 0.283734 
187.005264 0.00762 
187.07547 2.358296 
187.097427 0.038743 
187.111771 8.85665 
187.148148 0.328016 
187.944519 0.602766 
188.070694 0.070439 
188.083344 0.491377 
188.107025 0.024363 
188.109009 0.031459 
188.11969 6.825922 
188.143051 0.025688 
188.524078 0.024097 
188.647903 0.70464 
189.054703 0.094152 
189.079468 0.008294 
189.091003 1.613629 
189.12738 1.781799 
189.149536 0.089603 
189.941177 0.005958 
190.086258 0.209092 
190.098846 0.805397 
190.122437 0.031185 
190.133896 0.025205 
191.000595 0.011389 
191.070251 0.711726 
191.106689 1.839105 
191.116791 0.007229 
191.143051 1.545624 
191.179413 0.03443 
192.07814 0.025957 
192.101501 0.02787 
192.138214 0.008578 
192.96167 0.009984 
192.995193 0.013037 
193.015656 0.023197 
193.074005 0.02521 
193.085999 0.306428 
193.122391 0.078175 
193.306732 0.027527 
194.045609 0.018864 
194.117889 0.008513 
195.031586 0.063366 
195.080673 0.106099 
195.101532 0.964367 
195.117584 0.060723 
196.088547 0.330531 
197.010986 0.14629 
197.096161 8.316661 
197.13269 0.028813 
197.65332 0.820959 
198.067703 0.009957 
198.092224 0.027358 
198.104004 1.247748 
198.155136 0.127282 
199.075348 0.652003 
199.111954 2.652413 
199.148224 0.136355 
200.073227 0.022874 
200.083191 0.778883 
200.107025 0.023855 
200.118835 0.093391 
200.50769 0.026061 
201.091187 2.986729 
201.127487 6.169806 
201.163513 0.013312 
202.050323 0.06455 
202.060928 0.0064 
202.087143 0.170561 
202.098969 1.466356 
202.122742 0.023759 
202.135071 0.336745 
202.160126 0.027351 
203.070221 0.22531 
203.095123 0.008505 
203.106918 1.557803 
203.143173 4.362533 
204.066071 0.099116 
204.078079 0.698197 
204.102356 0.339421 
204.114639 0.975461 
204.138397 0.144152 
204.174637 0.026887 
204.888641 0.011998 
205.016022 0.074979 
205.086105 2.888248 
205.122467 3.192374 
205.158859 0.006253 
206.081589 0.040768 
206.093658 0.048005 
206.117798 0.056387 
206.19075 0.145943 
206.65863 0.482562 
207.031525 0.012673 
207.079727 0.009151 
207.101761 0.088592 
207.137985 0.038123 
207.1604 0.041387 
207.887329 0.009966 
208.087341 0.022493 
208.567795 0.021922 
208.872086 0.033198 
208.894745 0.021858 
209.010925 0.02494 
209.026672 0.007946 
209.09584 0.025117 
209.132477 0.042351 
209.87619 0.012604 
210.066574 0.015308 
211.027237 0.02294 
211.075699 0.034974 
211.111771 0.675774 
211.148254 0.05627 
212.082962 0.182412 
212.118896 0.052172 
212.237549 0.798787 
213.005508 0.028359 
213.022003 0.009326 
213.065781 0.031234 
213.090973 0.909441 
213.102142 0.008765 
213.127289 0.742566 
213.163589 0.018953 
213.240265 0.006434 
213.90509 0.013021 
214.087967 0.051213 
214.098923 2.738029 
215.003174 0.445567 
215.009949 0.295328 
215.013779 0.252498 
215.070389 0.108804 
215.106857 9.970619 
215.143036 0.020379 
215.179474 0.006813 
216.065689 0.025886 
216.102386 0.270442 
216.114609 1.032858 
216.138077 0.018536 
217.016327 0.035273 
217.075485 0.0301 
217.085953 1.201847 
217.109406 0.024241 
217.122452 0.759694 
217.158936 0.119833 
218.081009 0.085066 
218.093277 0.123437 
218.117188 0.083401 
219.031281 0.011881 
219.101761 3.462111 
219.138046 3.30994 
219.174622 0.193994 
219.300705 0.029673 
220.096802 0.017867 
220.10881 0.0187 
220.990265 0.006945 
221.010834 0.012573 
221.047455 0.037332 
221.080505 0.006729 
221.10675 0.047782 
221.117371 0.018301 
222.898712 1.403727 
222.910049 0.032333 
223.027069 0.010878 
223.076813 0.016636 
223.900528 0.00876 
224.082855 0.059147 
225.021042 0.008953 
225.091141 1.649917 
226.098709 0.095442 
227.035995 0.009151 
227.070343 0.194941 
227.106888 0.490602 
227.14325 0.095439 
227.931625 0.029319 
228.078171 0.066791 
228.174484 0.015296 
228.928818 0.359235 
229.016006 0.009437 
229.0858 0.128543 
229.122406 6.86073 
230.081528 0.044988 
230.093292 0.008384 
230.117523 0.115803 
230.130005 0.202035 
230.153854 0.009012 
230.918747 0.252276 
231.031906 0.007897 
231.087189 0.005394 
231.101669 0.319161 
231.125198 0.010416 
231.138123 1.378764 
231.915726 0.32574 
232.03923 0.006689 
232.097 0.111553 
232.109451 0.831144 
232.132111 0.007411 
233.081131 0.036123 
233.117477 1.081328 
233.153763 0.00924 
234.077072 0.02561 
234.111572 0.063873 
234.148575 0.01544 
235.026245 0.01342 
235.098007 0.477073 
236.055206 0.027337 
237.005295 0.006835 
238.914703 0.008107 
239.10675 0.475903 
239.901215 0.092929 
240.909393 1.972971 
241.086212 0.094681 
241.122055 0.006535 
241.910339 0.054215 
242.093857 1.3497 
242.15419 0.029826 
242.190323 0.062735 
243.030762 0.019726 
243.065994 0.016454 
243.101608 1.108274 
243.138382 0.006368 
244.133316 0.026735 
244.169296 0.062 
244.944077 0.026778 
245.047256 0.231423 
245.081589 0.025945 
245.117126 0.468805 
245.153183 0.116152 
245.174576 0.00665 
245.942291 0.513863 
246.076187 0.01657 
246.112885 0.045463 
246.148849 0.126993 
246.185745 0.329825 
246.939224 1.011307 
247.026367 0.028442 
247.133026 5.749468 
248.09201 0.060183 
248.128647 0.006579 
249.11232 0.009661 
250.107193 0.026212 
250.906296 0.006909 
252.894608 0.00668 
253.902939 0.01006 
253.919037 0.006303 
255.101852 0.042825 
257.11734 1.438292 
258.088837 0.293192 
258.14856 0.0809 
258.185272 0.364778 
259.027069 0.006791 
259.131348 0.025506 
259.190155 0.019566 
260.09198 0.192924 
260.105225 0.04515 
260.127655 0.131779 
260.164398 0.25929 
260.201172 1.230411 
260.419434 0.031958 
261.077484 0.574007 
261.134247 0.007974 
261.14859 0.175387 
261.170197 0.022968 
262.216644 0.019169 
263.09314 0.065458 
263.164368 0.176986 
263.90097 0.075496 
263.953094 0.00825 
264.157135 0.005815 
270.185242 0.248784 
271.864899 0.025822 
272.201141 0.011116 
273.112671 0.007615 
273.129272 0.021184 
274.107025 0.068015 
275.056976 0.006604 
275.127899 1.097927 
275.360809 0.013345 
278.103699 0.165991 
280.813263 0.159925 
281.911957 1.504311 
282.913635 0.013422 
286.14389 0.156201 
286.180023 0.724483 
287.184326 0.114703 
287.211487 0.023109 
288.159332 0.211744 
288.195831 2.672306 
288.232056 0.053958 
289.180847 0.024486 
289.199463 0.230608 
290.2117 0.033088 
297.816223 0.051767 
302.818115 0.008672 
303.141174 0.052259 
303.17807 0.366816 
303.207336 0.282363 
303.242859 0.008804 
304.153931 0.440696 
304.172699 0.054812 
304.209869 0.11158 
304.22699 1.329357 
304.299957 25.137642 
305.124603 0.024064 
305.157074 29.967203 
305.192352 0.314647 
305.225006 0.112808 
305.284485 0.025651 
305.303284 6.251834 
306.098511 0.145511 
306.132629 0.014004 
306.159454 3.630523 
306.206299 5.193831 
306.24234 0.926505 
306.306458 0.531079 
307.156464 0.086178 
307.174744 0.020037 
307.210907 0.811794 
307.240479 0.096872 
307.489258 0.027806 
310.169403 0.032542 
313.811462 0.007397 
END IONS

