BEGIN IONS
PEPMASS=143.0
CHARGE=1+
COMPOUNDNAME=Massbank:KO002834 Ectoine
LIBRARYQUALITY=3
SMILES=CC(N1)=NC(CC1)C(O)=O
INCHIKEY=WQXNXVUDBPYKBA-UHFFFAOYSA-N
INCHI=1S/C6H10N2O2/c1-4-7-3-2-5(8-4)6(9)10/h5H,2-3H2,1H3,(H,7,8)(H,9,10)
MSLEVEL=2
SOURCE_INSTRUMENT=ESI-LC-ESI-QQ
FILENAME=Massbank_ESI_positive_8_1_2014_peaks.mgf
SEQ=*..*
IONMODE=Positive
ORGANISM=MASSBANK
NAME=Massbank:KO002834 Ectoine [M+H]+
PI=Putative Massbank Match
DATACOLLECTOR=Massbank
PUBMED=N/A
SUBMITUSER=mwang87
TAGS=
SPECTRUMID=CCMSLIB00000218169
SCANS=8636
58.7 9901.0 
62.9 39604.0 
68.0 74257.5 
72.7 59406.0 
77.8 108911.0 
79.1 232673.5 
80.8 29703.0 
83.1 3668320.5 
85.3 64356.5 
97.0 8133671.5 
101.0 1490100.5 
101.8 94059.5 
106.9 54455.5 
108.1 24752.5 
111.2 74257.5 
113.2 14851.5 
114.4 24752.5 
124.9 381188.5 
125.9 1178219.0 
143.1 382421174.5 
END IONS

