BEGIN IONS
PEPMASS=289.141
CHARGE=1+
COMPOUNDNAME=(1S,8R,9R)-8-hydroxy-4-(propan-2-ylidene)-10-oxatricyclo[7.2.1.01,5]dodecane-8-carboxylic acid
LIBRARYQUALITY=3
SMILES=N/A
INCHIKEY=IOYVXXQKVQKQIG-ZJPTYJIISA-N
INCHI=InChI=1S/C15H22O4/c1-9(2)10-3-5-14-7-12(19-8-14)15(18,13(16)17)6-4-11(10)14/h11-12,18H,3-8H2,1-2H3,(H,16,17)/t11?,12-,14-,15-/m1/s1
MSLEVEL=2
SOURCE_INSTRUMENT=N/A-ESI-QFT
FILENAME=library_mgf.mgf
SEQ=*..*
IONMODE=positive
ORGANISM=MONA
NAME=(1S,8R,9R)-8-hydroxy-4-(propan-2-ylidene)-10-oxatricyclo[7.2.1.01,5]dodecane-8-carboxylic acid [M+Na]+
PI=MoNA
DATACOLLECTOR=MoNA:VF-NPL-QEHF021464
PUBMED=N/A
SUBMITUSER=mwang87
TAGS=
SPECTRUMID=CCMSLIB00004712527
SCANS=21464
50.619732 0.162158 
51.023643 0.078535 
51.9403 3.816316 
52.555008 0.072484 
52.624355 0.085909 
52.940392 0.339831 
53.002522 1.850501 
53.038921 4.610838 
54.93779 0.261881 
55.01815 9.018792 
55.054554 29.114746 
55.056091 0.12829 
55.934673 2.006798 
56.049816 0.42426 
56.05793 0.203326 
56.965103 0.724229 
57.033779 7.235538 
57.070183 38.225079 
57.071762 0.153786 
57.93507 5.260358 
58.065376 2.129934 
58.073517 0.557218 
59.049408 5.898387 
59.392696 0.070326 
59.93047 0.215622 
59.968971 0.065101 
60.044632 1.016932 
60.080978 1.052722 
60.635918 0.073871 
61.010899 13.227358 
61.028645 0.109698 
62.016918 0.078661 
62.018669 0.825407 
62.060204 0.309341 
63.256184 0.074273 
63.997787 0.090597 
64.47554 0.0827 
64.721352 0.069789 
65.03878 3.096182 
65.167892 0.091184 
66.557091 0.082292 
67.054375 51.195683 
67.056503 0.23159 
67.374077 0.099124 
67.934906 0.107909 
68.049591 0.257967 
68.057693 0.883351 
68.927803 0.167564 
68.997223 0.473235 
69.033615 15.020447 
69.069984 39.622219 
69.827614 0.077965 
69.961052 0.463942 
70.065231 18.558949 
70.073311 0.500502 
70.694275 0.067621 
70.782143 0.070809 
70.95797 2.243633 
71.013092 0.083514 
71.049232 11.736732 
71.068695 0.111107 
71.083443 0.155299 
71.085609 23.184963 
71.095161 0.085015 
71.929306 0.288136 
72.080795 2.68748 
72.088852 0.329903 
72.937187 2.826162 
73.028427 0.508502 
73.064789 2.700861 
74.059921 0.197895 
74.517525 0.095545 
74.685532 0.092164 
75.137161 0.081573 
76.855904 0.072784 
77.018303 0.180042 
77.038788 0.621736 
77.108292 0.121125 
77.529556 0.083275 
77.983604 0.082147 
78.013504 0.120882 
79.021255 6.024256 
79.05426 42.289734 
79.389999 0.082534 
79.427193 0.078663 
80.049393 0.135015 
80.05764 0.200787 
81.033554 5.521578 
81.044769 2.426358 
81.056038 0.185314 
81.069916 69.6614 
81.666916 0.132163 
82.065262 0.626335 
82.07325 1.159548 
83.012772 7.191809 
83.049187 35.193977 
83.052032 0.143564 
83.085548 18.996298 
84.044334 0.347101 
84.080811 2.063741 
84.088943 0.211539 
85.028442 4.862776 
85.039703 3.12355 
85.064835 11.315515 
85.078453 0.073336 
85.101234 8.421449 
85.325989 0.087755 
85.50946 0.086694 
86.057274 0.086992 
86.060051 1.787165 
86.096474 7.251903 
87.044106 2.502152 
88.075752 31.407797 
88.677094 0.165123 
88.968445 1.364663 
89.059738 2.554238 
89.079041 0.500759 
89.940292 0.08944 
90.947746 3.44513 
91.054298 38.221649 
91.26239 0.086954 
92.057541 0.822109 
93.033585 1.592974 
93.069946 65.691162 
93.955978 0.088437 
94.065331 0.730216 
94.073235 1.404883 
94.077644 0.080151 
95.049171 18.469065 
95.060303 0.345946 
95.085548 63.867317 
95.413963 0.079047 
96.044289 0.221669 
96.080856 0.224225 
96.088882 0.972493 
97.028481 1.171639 
97.064857 57.742329 
97.068779 0.164819 
97.101242 9.035372 
98.06015 0.568174 
98.068222 0.704294 
98.096375 0.14956 
99.044144 7.124882 
99.055229 0.095525 
99.080521 7.78964 
99.32534 0.081219 
100.075714 2.906158 
100.112022 0.127334 
101.059761 3.40035 
102.055344 0.085633 
102.082291 0.075359 
102.091362 1.913787 
102.394325 0.112033 
102.94825 0.282343 
103.05426 2.133184 
103.094505 0.117236 
104.07061 0.087325 
104.894333 0.1198 
105.033478 1.856112 
105.044762 0.399905 
105.069946 67.86496 
105.917229 0.113847 
105.979744 1.354064 
106.065086 0.310514 
106.073273 2.3403 
106.086311 39.227753 
107.049217 16.131615 
107.085587 76.853241 
107.089363 1.999651 
107.950447 0.171951 
108.044403 0.241193 
108.056267 0.085799 
108.08075 0.326883 
108.088921 2.214706 
108.958397 0.804916 
109.02845 0.88724 
109.06488 36.662556 
109.101219 79.692146 
110.060051 1.202045 
110.072311 0.092397 
110.104439 1.572019 
110.295975 0.087142 
111.044106 7.452517 
111.080536 8.48715 
111.116768 0.595368 
111.933273 0.08528 
112.075714 0.488689 
113.059761 4.511747 
113.09623 0.664253 
114.091377 0.174573 
115.038925 0.08687 
115.05439 2.706397 
115.075447 0.492948 
116.06208 0.082686 
116.070892 0.226414 
117.069908 18.022488 
117.435028 0.108815 
118.06514 0.895437 
118.073265 0.532553 
118.077858 0.099605 
118.943138 0.107842 
119.049202 3.023917 
119.060501 0.755633 
119.085609 52.446129 
119.950874 0.303592 
120.080803 2.307911 
120.088867 1.353113 
120.940521 0.092575 
121.003204 0.326919 
121.028343 0.384653 
121.064857 18.17412 
121.075989 0.080818 
121.101257 46.470699 
122.060127 1.35688 
122.068054 0.0879 
122.072479 1.861537 
122.09639 0.477448 
122.104439 0.348696 
122.940781 0.091553 
123.044128 9.545113 
123.080505 26.238091 
123.091499 0.118351 
123.116844 28.813194 
123.348038 0.096293 
124.051178 0.321957 
124.075645 0.570368 
124.083672 0.285688 
124.120087 0.097943 
124.936462 0.107509 
125.023422 3.559453 
125.059784 12.946173 
125.0914 0.127414 
125.096207 14.881792 
125.960884 0.086551 
126.055122 0.52344 
126.091507 0.158494 
126.127686 0.687317 
126.984375 0.087515 
127.03904 11.284354 
127.075348 1.846315 
127.258224 0.164414 
127.31813 0.081882 
128.049469 1.807391 
128.062088 3.782618 
128.070526 0.095249 
128.106918 0.224001 
128.963882 2.123416 
129.05455 0.385975 
129.069885 14.537382 
129.090881 0.093364 
130.065079 2.138337 
130.072968 0.09357 
130.077835 0.967304 
130.086166 0.099979 
130.942963 0.116845 
130.978897 0.077697 
130.999817 0.081506 
131.04921 1.045157 
131.073257 0.621161 
131.085602 30.978331 
131.189667 0.094269 
131.961212 0.113984 
132.044312 1.145375 
132.080826 3.148093 
132.088806 0.893305 
132.101959 0.105019 
132.940369 0.098493 
132.958466 1.628641 
133.064896 24.203394 
133.075943 0.354814 
133.101242 46.347855 
133.948517 0.583352 
134.060074 0.500856 
134.09642 1.073387 
134.104553 1.186232 
134.956055 0.55319 
134.996841 0.113077 
135.044159 6.767239 
135.055496 0.080804 
135.080475 33.289417 
135.104202 0.131496 
135.116837 24.640425 
135.915482 0.120851 
135.927658 0.258168 
136.07576 1.397834 
136.083435 0.642985 
136.088593 0.870687 
137.047272 0.149895 
137.059814 9.908896 
137.083527 0.434174 
137.096191 24.305601 
137.132553 3.808519 
138.054932 1.137278 
138.06781 0.665352 
138.091385 0.328446 
138.951004 0.587755 
138.984222 0.09007 
139.038986 30.945427 
139.075455 10.885543 
139.111801 1.547164 
140.041321 0.093614 
140.046844 5.579137 
140.070709 0.119721 
140.295685 0.088377 
141.054642 10.436743 
141.069946 5.632646 
141.091034 1.102528 
142.077881 9.901604 
143.072845 0.194424 
143.085617 22.497725 
144.080872 2.458162 
144.087097 0.094384 
144.093781 2.889268 
144.958466 0.079671 
144.980209 0.293641 
145.064865 6.283256 
145.075912 0.539282 
145.101288 36.284866 
146.060135 2.222552 
146.072693 0.97749 
146.096481 1.644349 
146.10434 1.195328 
146.974701 14.492137 
147.043762 0.359896 
147.080536 21.121445 
147.091171 0.119536 
147.116867 33.502819 
147.974838 19.158203 
148.075638 1.625917 
148.083359 0.128787 
148.088531 0.173724 
148.112335 0.189763 
148.120209 0.137102 
148.971924 62.878006 
149.05986 5.121974 
149.083023 0.084899 
149.096237 21.99785 
149.120377 0.077366 
149.132599 10.642736 
149.953857 0.08434 
149.972061 0.688735 
150.054962 0.642965 
150.067459 0.095983 
150.091644 0.632717 
150.098633 0.107094 
150.951187 6.292192 
150.968811 3.661233 
151.039062 1.416831 
151.075455 17.06637 
151.111771 14.20938 
151.148148 0.344824 
151.958939 0.12437 
152.063171 0.108553 
152.070679 0.770315 
152.083298 1.103292 
152.107437 0.130638 
152.946671 3.234493 
152.952698 0.756966 
152.967102 1.000955 
152.988235 0.089551 
153.054611 5.359246 
153.069916 1.352254 
153.090988 12.057477 
153.127274 0.112341 
153.959412 0.398496 
153.992325 0.309287 
154.077667 2.195 
154.085663 0.112407 
154.122437 0.106134 
154.947342 0.141205 
155.000244 0.079279 
155.070312 36.844917 
155.085373 9.699394 
155.954865 1.730683 
156.081116 3.294931 
156.093689 6.637413 
156.138153 0.103372 
157.06485 2.639941 
157.076065 0.196402 
157.101273 35.116516 
158.060211 2.479759 
158.072601 1.624113 
158.096664 0.968638 
158.109421 3.375273 
158.974762 0.114315 
159.006912 0.278803 
159.068665 0.109244 
159.080505 14.306041 
159.104782 0.148691 
159.116928 24.660856 
160.075897 2.905371 
160.088318 1.889636 
160.112473 0.637671 
160.120117 0.922138 
161.047607 0.184132 
161.059769 10.498845 
161.071274 0.119189 
161.096176 28.666792 
161.120392 0.13137 
161.132584 17.110867 
162.054993 0.806447 
162.067398 0.227643 
162.09137 1.26539 
162.098389 0.095659 
162.103531 0.11565 
162.127914 0.558474 
162.135117 0.120774 
162.969147 0.112254 
163.039291 0.098702 
163.063141 0.459168 
163.075333 22.48238 
163.098633 0.10713 
163.111755 10.769793 
163.148071 4.320366 
163.967484 0.141619 
164.070587 1.585256 
164.078644 0.966373 
164.107056 1.577938 
164.967453 0.083086 
164.986832 0.814707 
165.054718 3.22662 
165.070068 2.14145 
165.091019 22.572552 
165.114868 0.11582 
165.127472 3.044695 
165.985703 1.62765 
166.04982 0.094967 
166.078262 0.231932 
166.086304 0.311361 
166.098816 1.823126 
166.982468 16.351303 
167.033936 3.230933 
167.070343 4.696339 
167.085602 6.259293 
167.106628 4.681116 
168.0802 1.337686 
168.093445 2.124165 
168.101608 0.109358 
168.961731 2.904136 
169.064697 0.462867 
169.07608 0.090735 
169.085861 0.695782 
169.101242 11.775927 
169.944351 0.164148 
170.060013 0.101354 
170.072556 1.414587 
170.096405 0.576866 
170.109192 12.852088 
170.940689 0.164039 
170.956665 7.797284 
170.964142 4.85945 
171.055389 0.088541 
171.080383 9.199725 
171.091446 0.11397 
171.11702 18.414362 
172.075607 0.848086 
172.088486 4.590571 
172.096588 0.090465 
172.112137 0.581 
172.124725 1.133813 
172.957687 0.184154 
173.060028 1.628727 
173.071091 0.532227 
173.083771 0.110526 
173.096161 20.749191 
173.132584 13.059708 
173.984131 0.093006 
174.055008 1.568954 
174.067429 0.303747 
174.091492 3.50466 
174.104294 8.179605 
174.127808 0.873428 
174.135681 0.428647 
175.062698 0.739054 
175.075455 7.636946 
175.111771 18.263935 
175.148285 9.432684 
176.070786 6.030802 
176.083496 0.194606 
176.107162 0.842522 
176.11824 0.097915 
176.929962 0.098306 
177.054657 4.249881 
177.078476 0.663379 
177.091049 5.225676 
177.127396 6.559405 
177.163727 0.917331 
178.062622 3.172834 
178.077515 0.204707 
178.085999 0.830272 
178.098831 0.111626 
178.122604 0.131087 
178.963882 0.288571 
179.060394 2.791575 
179.070282 5.340477 
179.085556 1.066874 
179.106613 29.416208 
179.143036 0.09955 
179.953796 0.991624 
180.065674 0.232528 
180.093506 1.248571 
180.888138 1.792132 
180.961349 0.075531 
181.064865 0.338995 
181.085968 8.090392 
181.100937 3.549009 
181.122238 0.699115 
182.072647 0.274343 
182.09404 6.085956 
182.108963 1.340521 
182.952194 0.173169 
183.065598 0.508846 
183.080612 4.549351 
183.091629 2.308829 
183.101089 0.370227 
183.116898 7.818194 
184.060287 0.088677 
184.075516 0.134447 
184.088226 2.334121 
184.111389 0.158282 
184.121613 0.182727 
184.989731 0.128933 
185.059845 0.126543 
185.070908 0.274952 
185.082504 0.108198 
185.096222 23.240974 
185.106033 0.348781 
185.132538 23.066092 
185.949036 0.231106 
186.054932 0.35082 
186.067444 0.201907 
186.091125 0.680261 
186.104065 10.130951 
186.127609 0.744873 
186.135834 0.472946 
187.062561 0.24477 
187.075485 4.199994 
187.08461 0.096359 
187.097809 0.097143 
187.111832 18.676542 
187.135483 0.320372 
187.148224 5.58205 
187.94487 0.563605 
188.070572 4.032017 
188.083038 2.843012 
188.106812 1.602882 
188.119781 2.276694 
188.143356 1.137113 
188.152069 0.22372 
188.878159 0.103017 
188.974335 5.659344 
189.054626 1.326702 
189.078506 1.370477 
189.091003 15.834502 
189.114059 0.098663 
189.116852 0.113833 
189.12738 19.416805 
189.151108 0.732699 
189.163742 2.740931 
190.049789 0.101518 
190.086136 2.730976 
190.098557 0.591578 
190.122345 0.564799 
190.159103 2.305339 
191.000031 0.169965 
191.070282 2.129841 
191.106842 4.573339 
191.14299 2.332049 
191.880829 1.016924 
192.065643 1.040683 
192.07756 0.088791 
192.138214 0.369942 
192.961914 0.267232 
193.049744 0.44382 
193.073227 0.209634 
193.086075 1.907926 
193.101395 0.456235 
193.122345 7.337604 
193.881607 0.115621 
194.080978 0.343367 
194.108856 0.127432 
194.941376 0.143672 
195.080612 4.510717 
195.090958 0.125202 
195.101562 9.379772 
195.116867 5.636539 
195.137848 0.302138 
196.088303 2.920196 
196.124161 0.262155 
196.989227 0.110613 
197.059998 0.459581 
197.07106 0.589646 
197.08107 0.421479 
197.096146 6.907645 
197.132523 2.215466 
197.875717 0.180048 
198.055817 0.222435 
198.067627 1.694061 
198.091843 0.488889 
198.104004 3.902496 
198.127762 0.094295 
198.898575 0.18698 
199.005066 0.104848 
199.075424 5.440102 
199.111938 10.067891 
199.148346 3.278158 
200.070679 1.582059 
200.082977 0.570588 
200.106796 0.484675 
200.11937 1.743787 
201.054779 1.023356 
201.065445 0.232181 
201.078934 1.428723 
201.091019 9.581966 
201.127502 12.942297 
201.163712 1.424535 
202.049957 2.841848 
202.086411 13.346107 
202.098846 12.900185 
202.122421 0.95722 
202.134766 3.074952 
202.159058 0.608851 
203.070389 3.207089 
203.093475 3.106224 
203.10672 18.759115 
203.143082 7.421334 
204.065552 1.093535 
204.101685 3.234649 
204.112137 0.60058 
204.13829 0.432916 
204.888153 0.64571 
205.016418 0.349707 
205.049683 0.531145 
205.085999 5.306539 
205.122345 3.294572 
206.071411 19.818598 
206.081177 0.975207 
206.868515 0.236831 
206.888748 0.326327 
207.055496 2.565432 
207.065262 0.117489 
207.075806 2.334429 
207.101746 5.363646 
207.138245 2.542399 
208.097824 0.166355 
208.883636 1.011216 
209.096603 0.209072 
209.118271 0.105199 
209.132584 1.487751 
209.87619 3.993557 
209.891617 1.917303 
209.964508 0.558347 
210.066223 0.382948 
210.938934 0.087475 
211.005539 0.112634 
211.075317 1.414301 
211.111801 4.142113 
211.148209 2.307259 
211.891953 1.210031 
211.937271 0.821494 
211.96051 0.261935 
212.083237 6.594604 
212.106812 0.115584 
212.119003 0.979259 
212.900192 0.344953 
212.933731 3.537105 
213.079285 0.173386 
213.091019 17.389444 
213.127426 10.922168 
213.163834 3.555858 
213.90802 0.107117 
214.062347 0.334114 
214.086319 2.880458 
214.098755 5.557766 
214.121948 0.612797 
214.134628 1.390814 
214.158539 0.126185 
214.894318 0.303714 
215.070389 3.245792 
215.094025 2.409376 
215.106781 6.409945 
215.117401 0.193486 
215.126282 0.110608 
215.143143 2.033361 
215.179565 3.755059 
215.323654 2.514806 
215.886505 0.138489 
215.901657 0.147858 
216.065567 0.155244 
216.078186 0.635044 
216.101929 8.947793 
216.113754 1.765993 
216.138458 1.479952 
216.174973 0.146109 
216.184952 0.107492 
216.994263 0.102039 
217.031143 0.104116 
217.074097 0.315489 
217.085953 20.944431 
217.109634 1.148003 
217.12236 17.979561 
217.158798 2.786821 
217.19519 0.697007 
218.071091 1.65339 
218.081421 5.729643 
218.093338 0.837009 
218.117111 0.957603 
218.128662 0.094325 
218.154007 0.563712 
219.010056 0.193291 
219.030899 0.10431 
219.076248 0.101876 
219.088089 1.305326 
219.101776 2.705164 
219.125 0.107121 
219.138138 1.254186 
219.174637 0.563212 
220.060608 1.119939 
220.096893 2.613036 
220.132507 0.209716 
220.903519 0.29492 
220.989136 0.126824 
221.117401 2.220711 
221.153625 1.517942 
221.9021 0.453958 
222.066376 0.814197 
222.898727 29.14187 
223.075317 2.285632 
223.112885 0.10151 
223.900864 1.675162 
224.081818 0.101433 
224.879486 1.009701 
224.899307 6.095841 
225.091156 0.570371 
225.126831 0.249112 
225.164108 0.336939 
225.886459 0.815212 
226.06131 0.086962 
226.086929 0.318295 
226.098541 0.826912 
226.12294 0.118518 
227.052597 0.112903 
227.070374 0.100055 
227.106796 12.141141 
227.142715 2.107806 
227.17952 2.529498 
227.901276 0.092086 
228.078201 0.120015 
228.101974 6.621789 
228.113754 0.579448 
228.138321 0.88548 
228.894867 0.369525 
228.983444 0.234566 
229.030014 0.11145 
229.074707 0.095494 
229.086105 2.514165 
229.09761 0.322063 
229.109161 0.977948 
229.122238 11.108047 
229.145782 0.186901 
229.158936 3.053951 
229.195312 1.460893 
229.895813 9.713779 
229.947174 0.55765 
229.970474 0.125315 
230.08139 0.987065 
230.093582 4.726021 
230.117294 2.484156 
230.129242 2.449171 
230.154083 2.4294 
230.898102 0.165335 
230.944687 2.191932 
230.966675 3.431014 
231.065292 0.118031 
231.089203 0.473083 
231.101578 9.322378 
231.123856 0.76814 
231.138046 6.99242 
231.174576 0.845022 
231.210785 9.177259 
231.896912 0.17684 
232.060516 0.46616 
232.073959 0.273928 
232.097061 2.001508 
232.10968 0.313108 
232.13269 0.122238 
232.141495 0.125807 
232.169724 0.127807 
232.884125 0.139849 
233.025452 0.09999 
233.058228 1.400442 
233.070007 0.183256 
233.082123 12.745133 
233.104584 0.674322 
233.117157 6.25904 
233.139175 0.114675 
233.153534 0.214424 
233.891342 5.513608 
234.066284 11.488307 
234.088852 3.126752 
234.112366 0.52591 
234.125046 0.259338 
234.148499 0.12152 
234.899796 1.207473 
235.00441 0.114265 
235.071732 0.950489 
235.096588 0.255116 
235.148193 0.11027 
235.169556 0.873944 
235.891708 3.796395 
236.900055 5.348174 
237.163849 2.010658 
237.922318 0.333178 
238.892349 0.138572 
238.913605 0.417306 
239.886353 0.552105 
239.912689 0.26367 
240.078232 2.095965 
240.100357 0.111948 
240.114349 0.28846 
240.159546 0.202018 
240.909348 45.125969 
241.051254 0.089387 
241.086014 5.155306 
241.122177 0.580385 
241.91217 3.864683 
242.091171 2.481235 
242.117813 1.34091 
242.153473 0.441361 
242.909744 19.210253 
243.065536 4.686926 
243.101852 2.325638 
243.124863 3.194716 
243.137711 0.307649 
243.173767 0.693363 
244.09697 3.054847 
244.133041 2.320776 
244.16951 2.904606 
244.206161 1.16156 
245.082596 0.098722 
245.10347 0.520515 
245.117264 16.864363 
245.138367 0.186196 
245.153549 2.779495 
245.175964 0.262557 
245.190109 2.053687 
245.911819 0.13166 
246.076523 0.667503 
246.091278 0.114268 
246.112427 2.085243 
246.125885 0.265825 
246.148987 2.275793 
246.185226 0.245021 
246.971191 0.097106 
247.097122 0.362984 
247.132721 1.241289 
247.155563 0.371654 
247.906586 8.023628 
247.967621 0.794081 
248.092682 0.092839 
248.128464 0.122373 
248.878754 0.795247 
248.908844 0.174873 
248.977081 0.648724 
249.148544 0.443766 
249.90686 0.901846 
250.880905 0.093509 
250.894241 1.509774 
251.90271 0.101565 
252.174438 0.203914 
252.895187 0.254943 
253.158661 0.107649 
253.902466 9.846181 
254.191147 0.102167 
254.910248 0.740294 
254.924316 0.100715 
255.101471 4.340961 
255.138031 0.110783 
255.174515 2.551311 
255.210587 0.455614 
255.918396 0.324838 
256.096954 0.106443 
257.081085 0.301369 
257.116333 0.261853 
257.897797 1.285665 
258.076447 0.677854 
258.088989 16.1464 
258.111938 0.110064 
258.148315 0.780691 
258.184662 0.373446 
259.059143 0.09462 
259.096649 1.282237 
259.117981 0.829702 
259.133179 0.106995 
259.156738 0.426967 
260.092834 0.916273 
260.128693 0.215274 
260.163147 0.100606 
261.077332 70.522751 
261.149475 0.144882 
261.886292 0.410033 
262.081604 14.307837 
262.106689 0.111904 
262.180969 0.138075 
262.216125 0.277024 
263.035828 0.085815 
263.091278 0.094316 
263.16333 0.104613 
263.912292 0.100015 
264.909332 5.416071 
265.913757 0.28316 
266.080078 1.471541 
266.889496 0.643204 
266.910034 2.72934 
268.889465 0.144016 
269.820923 0.339809 
270.148895 2.260513 
270.184875 1.999755 
270.279266 4.312939 
271.130981 1.681186 
271.153534 0.09932 
271.28302 0.254398 
272.091919 0.772077 
272.128082 0.40009 
272.16452 20.587629 
272.200592 9.746228 
273.112244 6.946037 
273.128601 0.134437 
273.149078 0.65134 
273.169312 3.326451 
273.185059 2.422452 
273.204681 0.606965 
274.216492 1.039306 
275.811829 0.13748 
275.90274 1.217904 
277.902527 4.734931 
278.90097 0.448626 
279.896576 4.416257 
280.899719 0.875173 
281.821991 6.044497 
281.855072 0.131748 
281.896729 7.448862 
282.82309 0.350057 
282.920166 3.579924 
283.820923 2.408719 
283.922394 0.286936 
284.808289 1.192288 
284.828369 1.584227 
284.920288 2.496696 
285.81604 8.503774 
285.835144 1.258549 
287.126465 0.350847 
287.18457 1.721086 
287.211945 2.469265 
287.831604 2.363726 
288.087769 0.885236 
288.105682 0.192854 
288.123596 2.429048 
288.159363 7.002138 
288.195862 38.770966 
288.213867 1.802135 
288.232513 1.804964 
288.271149 1.469237 
288.289764 29.222086 
288.838135 0.119449 
289.072327 0.147332 
289.090332 0.133459 
289.108582 0.11266 
289.126129 2.742857 
289.142059 3.46828 
289.162537 11.716711 
289.200989 8.504189 
289.227783 3.076297 
289.293121 5.225963 
290.082367 0.281938 
290.103485 5.76562 
290.139038 3.322696 
290.175629 18.18026 
290.211456 100.0 
290.247498 3.599626 
290.283234 5.47205 
291.088226 0.126326 
291.106415 0.358427 
291.126007 1.43173 
291.141449 4.824108 
291.15863 3.572794 
291.178833 1.68259 
291.195648 1.340912 
291.216217 15.733023 
291.243927 0.250246 
294.074829 2.72999 
295.799866 0.163016 
295.91272 1.163156 
296.80835 4.957787 
296.910736 0.196553 
297.817078 1.510934 
297.906891 2.568785 
298.910095 0.45097 
299.815033 0.492416 
299.907623 1.693095 
300.823547 1.280167 
300.839966 0.4753 
301.809601 0.124103 
302.818329 6.234351 
303.825897 0.206462 
304.563751 0.117506 
306.919159 0.277998 
307.801544 0.222009 
312.839569 1.728557 
313.810913 3.928288 
314.813629 0.532894 
END IONS

