BEGIN IONS
PEPMASS=192.99
CHARGE=1+
COMPOUNDNAME=Patulin
LIBRARYQUALITY=3
SMILES=N/A
INCHIKEY=ZRWPUFFVAOMMNM-UHFFFAOYSA-N
INCHI=InChI=1S/C7H6O4/c8-6-3-4-5(11-6)1-2-10-7(4)9/h1,3,7,9H,2H2
MSLEVEL=2
SOURCE_INSTRUMENT=N/A-ESI-QFT
FILENAME=library_mgf.mgf
SEQ=*..*
IONMODE=positive
ORGANISM=MONA
NAME=Patulin [M+K]+
PI=MoNA
DATACOLLECTOR=MoNA:VF-NPL-QEHF025937
PUBMED=N/A
SUBMITUSER=mwang87
TAGS=
SPECTRUMID=CCMSLIB00004717000
SCANS=25937
50.033188 0.035085 
50.054813 0.047498 
51.149925 0.039599 
51.679649 0.038059 
51.940311 0.716692 
52.849674 0.076251 
53.267616 0.038634 
53.895824 0.036529 
53.90551 0.048761 
54.331791 0.039495 
54.467304 0.04234 
54.993832 0.080778 
55.018147 0.025679 
55.054543 0.990037 
55.592678 0.024974 
56.163441 0.02742 
56.817924 0.069414 
56.965099 1.649566 
57.033756 0.108144 
57.045326 0.04374 
57.070171 0.568269 
57.072929 0.052805 
57.935081 4.590247 
58.065392 0.220102 
58.335903 0.054723 
59.049381 0.746749 
60.044594 0.119856 
60.929157 0.098808 
60.965275 0.089992 
60.977283 0.11673 
60.994003 0.125612 
60.997955 0.13761 
61.001583 0.31192 
61.006069 0.647859 
61.010891 52.369099 
61.014999 0.849178 
61.01915 0.434145 
61.023518 0.172905 
61.027519 0.128449 
61.031929 0.12814 
61.03577 0.086538 
62.018677 3.000026 
62.98188 0.026142 
63.006615 0.169427 
63.026436 0.025485 
63.505711 0.069455 
64.014259 0.026731 
64.699738 0.021822 
65.319138 0.022414 
66.085709 0.073733 
67.054329 3.86217 
67.934944 0.47725 
67.947311 0.029991 
69.069916 0.889458 
69.104515 0.043625 
69.960991 0.173014 
70.065208 0.120543 
70.825165 0.040958 
70.957848 1.427218 
71.049156 0.369594 
71.30304 0.043713 
71.969521 0.027097 
72.044395 0.28577 
72.936722 0.100602 
72.958168 0.644094 
72.959618 0.101815 
73.028481 0.04369 
73.286118 0.031158 
73.929329 0.088857 
75.945305 4.876299 
78.230927 0.032892 
78.66964 0.068289 
79.021164 0.783098 
79.054199 3.190522 
79.993523 0.090799 
80.049629 0.077212 
81.01841 0.037441 
81.033234 0.067337 
81.069862 6.214234 
82.06514 0.305942 
82.073189 0.077944 
83.04911 0.350427 
83.085457 0.860572 
83.929817 0.309359 
84.044235 0.031196 
84.080673 0.036873 
84.959488 0.073652 
85.064796 0.15143 
85.945488 0.052614 
85.956017 0.041283 
86.059906 0.160185 
86.61969 0.068382 
87.044037 1.977566 
87.516754 0.080487 
87.533508 0.075364 
87.853203 0.042679 
87.945198 0.064913 
88.075638 0.174913 
88.96833 0.105818 
89.059669 5.149981 
89.815292 0.023566 
89.98661 0.043861 
90.947586 0.308611 
90.968857 0.075234 
91.054214 3.64014 
91.201355 0.030524 
92.25647 0.098337 
93.06987 6.413163 
93.95591 6.125688 
94.026268 0.033634 
94.07325 0.140171 
95.049171 0.390718 
95.085564 7.330862 
96.081001 0.031964 
96.088753 0.088722 
96.901329 0.039775 
97.06485 2.292724 
97.199715 0.077214 
98.06002 0.040466 
98.072594 0.247201 
98.09642 2.494797 
98.229515 0.038664 
98.32431 0.037542 
98.975571 0.084019 
99.043739 0.046945 
99.962891 0.065973 
100.075615 0.755728 
100.912125 0.045298 
101.008438 0.074114 
101.940331 0.133532 
102.340515 0.021932 
102.592369 0.040405 
102.914848 1.526842 
102.948013 0.072914 
103.951385 0.051177 
103.976555 0.208677 
104.930412 4.08421 
105.07 2.768512 
105.91713 0.029309 
105.956108 0.574416 
107.049065 0.049236 
107.085564 4.804295 
108.088676 0.082005 
108.45607 0.0493 
109.064796 1.210836 
109.076004 0.558259 
109.101181 2.230935 
111.080482 1.220338 
114.091324 0.151457 
116.106918 0.498757 
116.128418 0.051714 
116.575584 0.023289 
117.069702 0.453355 
117.955894 0.225467 
118.870216 0.089534 
118.943321 0.073303 
118.971352 0.064753 
119.001244 0.208819 
119.018929 0.740965 
119.035332 0.072798 
119.049232 14.194165 
119.06105 0.14285 
119.085617 3.373257 
119.917358 0.025611 
119.950806 0.77342 
120.052528 0.740423 
120.925392 1.006389 
120.940666 0.043265 
121.08828 0.029462 
121.101212 1.272122 
122.139145 0.067382 
122.90181 0.143069 
122.914108 0.15104 
122.927261 0.49757 
122.940956 25.843351 
122.953072 0.496242 
122.96357 0.12402 
122.967995 0.091646 
122.975471 0.093751 
123.080368 0.269344 
123.116722 0.027958 
123.94854 0.163801 
124.93605 0.029307 
125.10405 0.047783 
129.110123 0.375736 
130.943207 0.046044 
131.085571 3.123887 
131.961319 1.913564 
132.080795 0.02376 
132.101883 0.564433 
132.936691 0.06295 
132.95813 2.643266 
132.980667 0.160485 
133.101028 2.868954 
133.948059 0.082196 
134.096375 0.271527 
134.104462 0.036029 
134.117035 0.070348 
134.940979 0.34971 
134.958664 6.075477 
134.978485 1.084232 
135.043793 0.119012 
135.080429 0.35278 
135.11673 1.201876 
135.927414 0.044683 
135.948898 1.957011 
135.966476 4.867758 
136.087265 0.218707 
136.956589 3.138808 
137.011597 2.600553 
137.09581 0.138158 
137.107239 0.079207 
137.321548 0.065491 
137.927872 8.040316 
137.956223 0.156742 
138.054962 0.430851 
138.935806 0.59844 
138.950989 0.028155 
140.951263 2.858856 
141.9814 0.07714 
145.101196 0.559645 
146.975418 0.031052 
147.116623 2.756991 
147.974838 1.72595 
148.111465 0.268869 
148.119568 0.047059 
148.955093 0.088697 
148.971588 9.61924 
148.992493 0.11223 
149.059631 0.08518 
149.096115 0.885269 
149.107132 0.047221 
149.132401 1.48382 
149.960907 0.087429 
149.971741 2.306969 
150.091293 0.049735 
150.951035 0.098417 
150.972214 2.546859 
150.990921 0.065471 
151.958496 0.111485 
152.870224 0.139721 
152.887634 0.086137 
152.900436 0.140127 
152.919235 0.365444 
152.935104 0.708556 
152.951187 38.647415 
152.969009 20.682917 
152.98819 1.023606 
153.00322 0.255071 
153.0233 0.135752 
153.03653 0.093302 
153.055984 0.091276 
153.06871 0.100153 
153.088074 0.104412 
153.245834 0.109031 
153.698105 0.082789 
153.762268 0.085388 
153.779587 0.107923 
153.795502 0.079385 
153.809052 0.097634 
153.827423 0.117494 
153.843399 0.142292 
153.859512 0.16742 
153.876373 0.193233 
153.890991 0.386831 
153.893463 0.414305 
153.91069 0.597358 
153.926056 0.806901 
153.942612 1.722348 
153.959 100.0 
153.979019 1.342465 
153.995331 0.731043 
153.997757 0.67703 
154.011887 0.472137 
154.026443 0.154576 
154.031799 0.182902 
154.045166 0.155081 
154.061172 0.166958 
154.078079 0.141632 
154.09613 0.100313 
154.109848 0.102189 
154.127472 0.11049 
154.946808 0.314952 
154.966934 0.40423 
155.022247 0.829069 
155.964645 0.228197 
156.138245 0.431158 
156.946213 0.319369 
161.011246 0.934495 
162.091141 0.023328 
163.111923 0.245425 
163.998322 3.387174 
164.951248 1.179972 
164.998077 0.090219 
166.966858 0.168519 
166.982452 2.012661 
167.938248 0.460261 
167.956161 1.005393 
167.974731 1.370692 
167.982376 0.061628 
168.960678 0.099039 
168.982513 11.817277 
169.917725 0.454817 
170.943741 0.097793 
170.961807 17.104185 
170.979645 2.190247 
172.957565 0.031424 
173.132248 4.730225 
174.101471 0.043605 
174.127625 0.178132 
174.135727 0.672058 
174.148849 2.525152 
175.147842 3.702713 
176.106766 0.208294 
176.118515 0.05037 
176.143219 0.523671 
176.151566 0.153789 
176.941681 0.145205 
177.078247 0.048155 
177.125107 0.032949 
177.938004 0.690838 
178.978882 0.060399 
179.022049 10.885332 
179.938187 0.833634 
179.954269 0.048166 
180.023178 1.208545 
181.019653 0.101178 
182.00943 0.279602 
182.952927 0.024466 
182.961868 1.534287 
184.978546 0.021828 
185.94902 31.254278 
187.776016 0.073473 
187.95459 0.048876 
188.121826 0.095413 
191.069916 0.08857 
191.128799 0.249836 
191.142624 3.241848 
191.162247 0.054628 
192.10173 1.65341 
192.112473 0.03301 
192.123322 0.361354 
192.138062 8.042561 
192.147369 0.409213 
192.159332 0.773013 
192.174683 3.274877 
192.961548 0.43406 
193.047943 0.079992 
193.060699 0.045911 
193.141922 0.918416 
193.158707 1.806975 
193.169693 0.159296 
193.178543 0.090414 
194.096375 0.088641 
194.117447 1.684445 
194.128708 3.315691 
194.137909 0.101934 
194.14415 0.073393 
194.153839 21.818848 
194.16362 0.598796 
194.952103 0.421679 
194.961975 1.823564 
195.065628 0.059017 
195.156967 0.137883 
195.948608 0.611286 
197.032715 0.955689 
197.948975 2.966149 
199.964951 0.28252 
210.972504 0.092644 
212.972672 3.312769 
END IONS

