BEGIN IONS
PEPMASS=291.123
CHARGE=1+
COMPOUNDNAME=dehydrocurvularin
LIBRARYQUALITY=3
SMILES=N/A
INCHIKEY=AVIRMQMUBGNCKS-GQCTYLIASA-N
INCHI=InChI=1S/C16H18O5/c1-10-5-3-2-4-6-13(18)16-11(8-15(20)21-10)7-12(17)9-14(16)19/h4,6-7,9-10,17,19H,2-3,5,8H2,1H3/b6-4+
MSLEVEL=2
SOURCE_INSTRUMENT=N/A-ESI-QFT
FILENAME=library_mgf.mgf
SEQ=*..*
IONMODE=positive
ORGANISM=MONA
NAME=dehydrocurvularin [M+H]+
PI=MoNA
DATACOLLECTOR=MoNA:VF-NPL-QEHF016204
PUBMED=N/A
SUBMITUSER=mwang87
TAGS=
SPECTRUMID=CCMSLIB00004707267
SCANS=16204
50.473358 0.003608 
50.525566 0.004526 
50.621517 0.01277 
50.803181 0.012028 
50.997906 0.009281 
51.418613 0.01593 
51.599461 0.003407 
51.979984 0.005042 
52.283436 0.003788 
52.396839 0.010737 
52.407703 0.009073 
52.411598 0.022834 
52.693565 0.025468 
52.935898 0.014132 
53.038956 1.964835 
53.042568 0.003313 
53.327244 0.022715 
54.114338 0.028028 
54.642868 0.016632 
54.715771 0.007946 
54.950111 0.025826 
55.002628 0.013977 
55.018162 3.122973 
55.054554 10.890702 
55.2094 0.013416 
55.338226 0.004372 
56.057934 0.260838 
56.799412 0.025124 
56.965206 0.458339 
57.033817 1.874343 
57.070179 2.24636 
57.213577 0.005385 
57.721294 0.005818 
58.215393 0.004977 
58.553658 0.019587 
59.049438 0.213603 
59.305256 0.028543 
59.655556 0.024864 
60.142975 0.019584 
60.191574 0.009219 
60.385681 0.007097 
60.457394 0.018949 
60.660351 0.014811 
60.687 0.008243 
60.759365 0.01414 
60.831154 0.003747 
61.010933 1.677113 
61.176205 0.0255 
61.200642 0.035591 
61.695873 0.003928 
61.900631 0.022205 
62.040798 0.026734 
62.053665 0.01399 
62.153584 0.019227 
62.217274 0.014123 
62.547421 0.004056 
62.658379 0.008382 
62.944393 0.028243 
62.985828 0.003545 
63.107563 0.004189 
63.371391 0.025785 
63.725765 0.005838 
63.95443 0.004182 
64.202789 0.015031 
64.322952 0.005045 
64.458588 0.021786 
64.474991 0.02406 
64.700821 0.030063 
64.85276 0.025656 
65.038849 0.095651 
65.194725 0.023919 
65.289536 0.005663 
65.383453 0.020737 
65.561104 0.02839 
65.822487 0.023803 
66.432411 0.012057 
66.500351 0.003708 
66.765663 0.029583 
67.054405 8.344661 
67.264992 0.029971 
68.057686 0.163305 
68.479958 0.023288 
68.558907 0.024729 
69.033684 0.08763 
69.069992 2.614167 
69.161316 0.025413 
69.940475 0.005492 
70.065315 0.026551 
71.049248 0.487325 
71.066956 0.004244 
71.085617 1.430043 
71.339577 0.007038 
71.508705 0.009785 
71.53334 0.008105 
71.685898 0.028251 
71.687973 0.026966 
71.740776 0.005446 
72.080826 0.036152 
72.192299 0.018424 
72.667053 0.005691 
72.735947 0.025743 
72.93721 0.00827 
72.944923 0.025029 
74.128868 0.026805 
74.871223 0.0234 
74.975555 0.015328 
75.068787 0.004691 
75.542503 0.004289 
75.71225 0.020734 
76.622116 0.026533 
77.177055 0.012858 
77.333488 0.030794 
77.397041 0.004779 
77.464828 0.007536 
77.523399 0.008055 
77.878326 0.012667 
78.901451 0.02602 
79.021263 1.695145 
79.050301 0.028419 
79.054291 10.092079 
79.302681 0.010841 
80.057625 0.315078 
80.920769 0.007457 
81.017403 0.02442 
81.031006 0.006498 
81.033577 6.798173 
81.069939 100.0 
81.274353 0.003785 
81.839012 0.011527 
82.036903 0.138531 
82.073273 6.180001 
82.723007 0.030574 
83.008995 0.007378 
83.049194 2.008558 
83.076614 0.006107 
83.085396 0.059697 
83.301735 0.004834 
83.590446 0.004049 
84.167267 0.026573 
84.194824 0.007552 
84.681282 0.0283 
84.819054 0.009079 
84.903946 0.004086 
85.064835 1.474963 
85.101227 0.894014 
85.495384 0.027326 
85.590958 0.024326 
86.096481 0.036615 
86.334991 0.006193 
86.714134 0.017975 
86.971107 0.006384 
88.07576 0.258449 
88.197098 0.01129 
88.385048 0.0267 
89.059753 2.69564 
89.327888 0.00443 
89.548439 0.025309 
89.840706 0.006999 
90.618904 0.027651 
90.969597 0.00797 
91.010117 0.013091 
91.054398 0.085756 
91.26194 0.004832 
91.818169 0.017865 
92.397728 0.005397 
92.982765 0.020947 
93.069954 2.998924 
93.199646 0.017794 
93.265945 0.007 
93.375809 0.010572 
95.049232 3.924712 
95.085571 53.449562 
95.170609 0.023798 
95.700768 0.025714 
96.088898 3.731484 
96.948166 0.019682 
97.06488 1.966521 
97.101234 1.797763 
97.24826 0.013771 
97.630424 0.027996 
98.024246 0.003838 
98.929962 0.024495 
98.975334 0.137521 
99.080513 22.709984 
99.084061 0.266189 
99.327454 0.004075 
99.499458 0.011209 
99.634178 0.020703 
99.754845 0.011939 
100.083809 1.244641 
101.003159 0.009142 
101.016563 0.026021 
101.059845 0.249742 
101.085938 0.004364 
101.437546 0.029184 
101.620987 0.005388 
102.081741 0.025078 
102.928833 0.004819 
103.953194 0.014509 
103.974731 0.023765 
104.933449 0.004656 
105.069969 6.874794 
105.073723 0.043796 
105.453697 0.023682 
105.554878 0.018879 
105.668259 0.00541 
106.073257 0.223258 
106.086258 0.75942 
107.049294 0.169218 
107.070679 0.029086 
107.0858 0.068687 
107.089806 0.036656 
108.078026 0.02941 
109.064888 2.227743 
109.101288 0.005784 
109.614334 0.004106 
109.900192 0.026373 
110.068214 0.021827 
110.749374 0.004302 
111.044067 0.08459 
111.080521 0.005858 
111.945457 0.025209 
112.155518 0.026432 
112.357986 0.00809 
112.393776 0.024205 
112.740845 0.004274 
113.095856 0.025303 
113.303558 0.022193 
113.399956 0.004576 
113.925743 0.017469 
115.005241 0.025668 
115.050461 0.025026 
115.098816 0.013109 
116.631775 0.033619 
116.98597 0.083313 
117.069778 0.028524 
117.275925 0.014584 
117.370827 0.007758 
117.911835 0.027836 
118.816582 0.004329 
118.998634 0.011593 
119.085442 0.055108 
120.684593 0.0109 
121.028404 0.006936 
121.064758 0.248006 
122.939957 0.004242 
122.970734 0.006449 
123.03923 0.290207 
123.044113 20.177578 
123.055717 0.004586 
123.080521 23.662527 
124.047539 1.043511 
124.083832 1.883495 
125.059746 0.113395 
126.032249 0.023491 
126.039093 0.023037 
126.044388 0.026991 
126.91951 0.029365 
128.026062 0.008663 
128.264572 0.023933 
128.577515 0.005146 
128.834335 0.008293 
129.775131 0.003794 
130.297775 0.027017 
130.616104 0.003708 
131.007004 0.025398 
131.085495 0.014496 
131.118393 0.008639 
132.958038 0.00551 
134.942368 4.271302 
134.978729 28.20483 
134.996582 0.0129 
135.044083 0.10689 
135.080582 0.080285 
135.855484 0.004496 
136.513733 0.004326 
136.922028 0.079895 
137.059753 0.631195 
137.442459 0.020421 
138.101227 0.004857 
138.811554 0.004952 
140.38884 0.003437 
140.752075 0.023695 
141.091095 0.941953 
141.187943 0.027305 
142.357162 0.025482 
142.40921 0.022931 
142.763718 0.004118 
143.085754 0.017623 
143.547516 0.004069 
144.247833 0.026572 
144.939682 0.004 
145.064758 0.233559 
145.267273 0.007124 
146.687286 0.029319 
146.974274 0.016727 
147.044144 2.756073 
147.821396 0.026828 
147.97493 3.072586 
148.753342 0.023678 
148.828537 0.003879 
148.971954 9.47403 
148.978622 0.034114 
149.023087 0.004797 
149.05986 2.243931 
149.096161 0.071058 
149.953903 0.068047 
149.971695 0.020099 
150.951126 1.486576 
150.972397 1.67974 
151.005463 0.015262 
151.039001 7.953583 
151.178055 0.013551 
151.407837 0.026764 
152.042404 0.354387 
152.952896 12.486327 
152.989319 17.287443 
153.054703 0.963371 
153.959457 2.431649 
154.416763 0.023713 
154.932343 0.759248 
154.948746 0.064099 
155.928772 0.006033 
157.031113 0.026063 
157.101349 0.15957 
157.225769 0.008495 
157.331879 0.005574 
157.491898 0.025651 
158.43576 0.027139 
158.843811 0.005852 
159.080429 0.06895 
159.116898 0.034674 
159.558884 0.006467 
160.21492 0.00412 
161.059814 6.118971 
161.096939 0.057778 
161.133011 0.033823 
161.267471 0.005403 
162.062958 0.178079 
162.232819 0.009858 
163.039017 4.537989 
163.075363 1.571044 
163.187546 0.024566 
163.548859 0.007982 
164.04213 0.041821 
164.05571 0.021719 
164.244949 0.010632 
165.054718 2.829843 
165.605453 0.030829 
165.852325 0.024598 
166.058594 0.029819 
166.982483 1.485897 
167.03392 86.92115 
168.037262 7.165254 
168.595688 0.007809 
168.961761 0.269564 
168.98288 3.526098 
169.041275 0.092153 
169.049637 4.479891 
170.053787 0.062942 
170.963547 24.760355 
170.999771 1.5311 
172.251968 0.017961 
172.852768 0.020718 
172.942932 1.212619 
172.959427 0.412268 
172.967636 0.032003 
173.05983 1.542773 
173.09584 0.028577 
173.747726 0.004826 
175.039108 0.91978 
175.067871 0.010237 
175.075424 1.878238 
175.551682 0.028491 
176.046814 0.39584 
176.079773 0.004377 
176.328827 0.022539 
177.018265 2.233366 
177.054642 19.589567 
178.058075 2.06874 
178.640457 0.007639 
179.033966 5.878454 
179.070236 0.131672 
180.037109 0.152605 
180.049835 0.008539 
180.94429 0.066226 
181.049606 7.966606 
181.10144 0.042242 
182.042984 0.004736 
182.053253 0.395425 
182.94429 0.063477 
183.080673 0.035268 
183.916031 0.004246 
184.753952 0.030033 
185.059906 0.637701 
185.096252 0.458141 
185.949356 0.298334 
186.242264 0.011938 
187.039154 0.033827 
187.075455 2.482533 
187.084152 0.023112 
187.959793 0.023124 
188.860855 0.006841 
188.97403 12.229322 
189.054626 22.261999 
189.091187 0.538095 
190.057907 2.365158 
190.953308 0.434408 
190.96965 0.202434 
191.034103 0.081084 
191.061325 0.023379 
191.070221 2.680905 
192.073883 0.02464 
193.049622 24.503176 
193.086243 0.021151 
194.05307 2.672478 
195.0289 27.356247 
195.065247 0.350146 
196.032242 2.594558 
197.060501 0.023696 
197.892746 0.033974 
197.933243 0.035749 
198.067612 2.837972 
198.954269 0.120304 
199.075623 4.656023 
199.111572 0.610508 
200.079163 0.258438 
200.518509 0.005612 
200.973694 0.406716 
201.024216 0.015364 
201.054703 0.192343 
201.091095 2.109768 
202.971588 0.029581 
203.033951 2.951412 
203.070267 3.718588 
203.106735 4.513475 
203.418304 0.026263 
204.03717 0.046554 
204.074295 0.11827 
204.110291 0.312587 
205.049637 19.376205 
206.053009 2.316318 
206.984894 0.148737 
207.055328 0.011892 
207.065231 3.17027 
207.542908 0.004038 
208.069046 0.063961 
208.883438 0.010466 
209.096222 0.942068 
209.877182 0.004471 
209.891907 0.004737 
210.899582 0.003496 
210.954391 0.212651 
211.075287 0.073511 
211.476028 0.004092 
211.687698 0.003726 
211.937012 1.154473 
211.959885 0.07976 
212.083206 1.194215 
212.933685 3.289362 
212.944916 0.048044 
212.956299 9.792279 
213.054733 0.723686 
213.090942 2.198026 
213.959076 0.049122 
214.06221 0.02937 
214.095901 0.043551 
214.935318 5.145039 
214.952484 0.281935 
215.070282 4.335557 
215.312729 0.076069 
215.321228 0.286877 
215.325394 0.372873 
215.335159 0.424991 
215.943741 0.189287 
216.042114 0.004671 
216.074234 0.253369 
217.049637 2.209422 
217.08609 0.407481 
217.122375 1.35197 
218.056183 0.046895 
218.56839 0.031459 
218.585938 0.006371 
218.98407 0.190185 
219.065216 1.779023 
219.077637 0.00441 
219.101761 0.308695 
219.174469 3.787902 
220.067535 0.029691 
220.169449 0.04254 
220.507004 0.011113 
220.903397 0.027767 
221.04451 5.330019 
222.04805 0.254692 
222.357117 0.027602 
222.898727 0.417556 
223.900208 0.027784 
224.879013 0.025547 
224.89888 0.063297 
225.091751 0.03875 
225.886612 0.004374 
226.062271 0.211291 
226.147064 0.004418 
226.799927 0.005762 
226.899597 0.007589 
227.070496 0.435067 
227.106796 10.837652 
227.900726 0.034718 
228.110291 1.618218 
228.196014 1.386064 
228.878067 0.028441 
229.086212 1.102197 
229.122513 0.306299 
229.896118 2.034307 
229.908127 0.022936 
229.947479 0.22603 
229.971222 0.029555 
230.897919 0.058798 
230.909073 0.049836 
230.944916 1.277658 
230.966965 68.979485 
230.987762 0.361647 
231.035446 0.006177 
231.065247 4.660142 
231.101547 2.69824 
231.138885 0.008898 
231.969559 2.421406 
232.069199 0.305638 
232.105453 0.066926 
232.946213 33.836056 
232.962296 4.331696 
233.080948 0.316821 
233.891937 0.353629 
233.920181 0.009487 
234.89917 0.192797 
235.060043 0.733615 
235.456146 0.006336 
235.891495 0.131237 
236.899445 0.037211 
237.090988 0.981841 
237.167053 0.004494 
237.886887 0.02799 
238.76918 0.028043 
238.894302 0.016998 
238.913818 0.061948 
239.928101 0.030313 
240.078064 0.059612 
240.909409 0.846926 
241.911331 0.224456 
242.909836 0.425329 
243.10173 0.502046 
243.908966 0.019026 
244.073013 0.007675 
244.105942 0.089932 
244.90921 0.194484 
245.081253 0.066018 
245.117447 18.855867 
245.91153 0.012453 
246.120804 3.039238 
246.97525 0.007366 
247.060425 0.069017 
247.096725 2.071822 
247.132828 0.027282 
247.906631 1.340745 
248.09906 0.008662 
248.878479 0.09704 
248.910004 0.088851 
248.919144 0.075057 
248.941086 0.218379 
248.977554 25.766392 
248.992767 0.787135 
249.112274 2.288884 
249.185532 0.005647 
249.413376 0.005848 
249.452316 0.034678 
249.906723 0.015647 
249.980316 0.705819 
250.115891 0.07271 
250.894379 0.005175 
250.91925 0.052337 
250.956894 16.713558 
250.972595 1.801745 
251.320572 0.024996 
251.581985 0.010852 
251.90741 0.564152 
253.902435 0.579744 
255.101639 5.645638 
255.897308 0.132886 
256.105286 0.696683 
256.819824 0.023602 
257.0401 0.004969 
259.114319 0.026615 
259.182678 0.010755 
260.094604 0.013146 
260.22226 1.279985 
260.990479 0.041664 
261.885773 0.006616 
261.922089 0.009689 
263.127899 0.293271 
264.90921 0.179856 
265.519928 0.006691 
265.875916 0.023762 
265.911743 0.239713 
266.889252 0.013847 
266.910004 0.36765 
267.393433 0.025736 
267.908295 0.025033 
268.812897 0.007133 
268.909515 0.312652 
269.820831 0.169562 
269.918152 0.021248 
270.736694 0.016456 
271.096222 0.048535 
272.099701 0.05095 
273.112183 12.336746 
274.115845 2.14552 
275.902069 0.100845 
276.969177 0.014574 
277.902008 0.269117 
277.919586 0.006165 
278.129272 0.016098 
278.900879 0.004067 
279.045258 0.003704 
279.896667 0.456038 
280.899384 0.085451 
280.92514 0.006275 
281.896881 0.26819 
282.896454 0.011533 
282.919922 0.169663 
283.801239 0.005909 
283.892609 0.010448 
283.922211 0.203956 
284.807983 0.082563 
284.827698 0.049876 
284.92041 0.437158 
285.815796 1.430808 
285.833466 0.084082 
285.918823 0.025491 
286.823639 0.952125 
286.920074 0.327518 
287.83139 1.15737 
288.831238 0.003706 
289.293304 2.983112 
290.139374 0.028671 
290.29715 0.114648 
290.888763 0.020003 
290.911285 0.571477 
291.122772 7.930733 
291.141083 0.297858 
291.241974 0.058758 
292.031036 0.009309 
292.127899 1.217712 
294.359344 0.019301 
295.913727 0.010152 
297.815826 0.012537 
297.907043 0.118189 
298.910492 0.027359 
299.81546 0.010577 
300.841888 0.024736 
301.810516 0.298829 
302.818146 0.499984 
303.8255 0.036198 
304.834229 0.029124 
307.922516 0.060511 
309.812469 0.005721 
309.835175 0.004713 
310.823181 0.144013 
310.920288 0.010275 
311.167053 0.031108 
311.402893 0.016743 
312.838867 0.795052 
END IONS

