BEGIN IONS
PEPMASS=347.149
CHARGE=1+
COMPOUNDNAME=gibberellic acid
LIBRARYQUALITY=3
SMILES=N/A
INCHIKEY=IXORZMNAPKEEDV-OBDJNFEBSA-N
INCHI=InChI=1S/C19H22O6/c1-9-7-17-8-18(9,24)5-3-10(17)19-6-4-11(20)16(2,15(23)25-19)13(19)12(17)14(21)22/h4,6,10-13,20,24H,1,3,5,7-8H2,2H3,(H,21,22)/t10-,11+,12-,13-,16-,17+,18+,19-/m1/s1
MSLEVEL=2
SOURCE_INSTRUMENT=N/A-ESI-QFT
FILENAME=library_mgf.mgf
SEQ=*..*
IONMODE=positive
ORGANISM=MONA
NAME=gibberellic acid [M+H]+
PI=MoNA
DATACOLLECTOR=MoNA:VF-NPL-QEHF000263
PUBMED=N/A
SUBMITUSER=mwang87
TAGS=
SPECTRUMID=CCMSLIB00004691326
SCANS=263
50.793964 0.568435 
51.86401 0.442318 
53.411594 0.377189 
54.009933 0.426901 
54.505642 0.499672 
54.92453 0.48866 
55.0186 3.433366 
55.055004 10.415711 
55.173252 0.436777 
55.520798 0.667364 
55.935116 0.974967 
56.965569 0.614823 
57.034187 2.031684 
57.070629 20.812777 
57.185028 0.48537 
57.80537 0.495491 
58.065861 3.656903 
59.028671 0.413791 
59.049866 3.827603 
59.061111 80.554115 
59.387459 0.489887 
59.678669 0.494613 
60.081463 2.683665 
60.266724 0.368554 
60.345451 0.396079 
60.795498 0.50777 
61.009693 0.670402 
61.011383 100.0 
61.213421 0.546295 
62.019184 11.715123 
62.765999 0.481231 
63.007153 2.991616 
63.845016 0.507843 
63.998161 0.699006 
67.054962 13.894667 
67.144402 0.523325 
67.912247 0.591792 
69.070595 15.543621 
70.958519 1.725556 
71.049698 0.699166 
71.086197 7.951246 
71.628929 0.4912 
72.335243 0.389699 
72.689911 0.520542 
72.937805 14.89335 
73.047409 3.696684 
73.665039 0.4017 
74.545578 0.352544 
79.021812 19.824696 
79.054832 5.276084 
80.97464 0.536324 
81.070465 18.975294 
82.073822 0.491625 
83.04969 0.494361 
83.08606 6.767293 
85.02919 0.522038 
85.040062 0.638614 
85.065285 0.759289 
85.10173 1.558396 
86.060707 0.391354 
86.096977 1.200735 
88.197693 0.464389 
89.060158 4.287436 
89.601784 0.39518 
89.940681 0.524212 
89.964111 3.801199 
89.995743 0.548147 
90.948112 6.226247 
91.054718 12.284864 
91.057838 8.596884 
93.070312 12.839599 
95.049652 3.650089 
95.085991 21.351282 
96.304489 0.348515 
96.429565 0.401578 
97.06517 12.476122 
97.101601 3.268943 
98.068359 0.415466 
98.135109 0.397701 
98.975754 71.233749 
99.530388 0.556161 
100.076103 1.383814 
101.950233 8.9063 
105.070206 3.037183 
106.299217 0.414036 
107.085876 19.769815 
108.059631 0.534449 
109.065094 6.253189 
109.101524 14.345361 
110.105034 0.668752 
111.044403 2.167733 
111.992516 0.476181 
112.180893 0.593742 
113.059921 0.674666 
113.755318 0.559378 
116.963722 2.523678 
116.981903 1.197739 
116.986137 46.477581 
116.990685 0.679854 
117.070183 0.684012 
118.086197 0.353518 
118.841431 0.516163 
118.942902 0.938208 
119.085777 11.19867 
119.960739 2.171271 
120.979309 0.650421 
121.101349 7.161349 
121.647682 0.459401 
122.941002 0.601162 
123.080696 1.234843 
123.116989 6.019747 
125.096138 0.468529 
125.745094 0.418006 
127.036781 5.494251 
128.963486 7.616039 
129.052414 0.74482 
130.979218 2.094712 
131.085464 0.683632 
132.958405 13.543148 
133.10141 2.925886 
134.956177 13.86166 
134.973648 0.413774 
134.996521 16.909813 
135.116867 8.355676 
136.956665 0.534722 
137.218811 0.422045 
137.971283 0.526455 
143.085693 1.465747 
143.217667 0.579047 
143.716888 0.449876 
144.958313 2.864658 
145.100967 0.924332 
145.966522 13.326125 
146.968079 0.726518 
146.97438 14.657738 
147.116714 0.458761 
147.974625 1.306999 
148.418198 0.473288 
148.971817 36.129082 
149.132187 0.440225 
149.961426 0.489744 
149.972519 0.58182 
150.951019 46.609615 
150.96875 15.913814 
151.943573 10.835607 
152.951691 7.380588 
152.966812 7.153446 
153.939072 3.51002 
153.959335 5.629628 
154.122528 1.759822 
154.65419 0.44751 
154.946991 4.405525 
155.085602 0.443984 
155.673111 0.364134 
157.083511 14.308845 
158.995605 0.417032 
160.989899 1.603015 
162.294281 0.534431 
163.977081 20.167442 
164.966736 0.52561 
165.938187 1.331601 
166.982483 6.081825 
167.920334 6.299554 
168.916794 2.473913 
168.961609 14.654633 
168.982651 3.265963 
169.917511 1.022322 
169.953812 0.475447 
170.907059 0.495268 
170.917297 2.684894 
170.962326 0.755802 
170.977936 0.531062 
171.949615 0.602114 
172.005615 2.463902 
172.913696 0.691155 
173.078537 13.106369 
173.984634 0.508356 
174.005478 1.789281 
174.989349 0.770392 
176.001465 0.918054 
176.989227 16.110466 
177.937134 0.407759 
179.086929 0.475524 
179.963409 1.249944 
180.331116 0.582721 
180.960922 0.585258 
181.101395 0.709021 
181.988647 0.468733 
182.977386 1.013748 
185.930801 15.749774 
185.961441 19.064001 
186.919235 0.555377 
186.92778 11.864291 
187.927872 4.897727 
187.977158 12.412591 
188.926987 4.267352 
188.967209 0.674519 
190.924454 3.117456 
191.88063 0.522643 
191.97168 7.261614 
192.921982 0.588273 
192.95256 0.92028 
192.961655 60.776249 
192.970718 1.373318 
193.101166 7.402802 
193.96376 1.018477 
194.115799 0.74181 
194.962128 3.969873 
194.999969 27.125004 
195.11734 0.47949 
196.044159 0.436857 
196.956772 2.227603 
197.97435 16.596981 
198.768723 0.5388 
203.0522 1.967182 
203.941788 0.663001 
205.987686 70.682175 
206.977753 11.617548 
206.988251 8.070401 
209.09581 0.69373 
210.972305 39.617939 
211.112213 0.567571 
212.569901 0.525016 
212.949875 1.821865 
212.972504 16.092375 
213.010712 0.528176 
214.968109 5.764209 
215.533463 0.828985 
215.545731 14.822562 
215.553574 4.305988 
215.562637 1.311697 
215.947083 0.818543 
215.98465 2.180575 
216.447235 0.644624 
216.96579 0.549991 
219.174393 14.259616 
220.903061 1.663751 
221.132721 10.634535 
221.903122 0.408679 
222.898666 36.195198 
224.899002 3.416641 
225.885757 1.230622 
227.901245 0.759301 
229.895874 27.256083 
232.959442 1.898463 
233.891327 4.80177 
234.899643 1.338167 
235.008087 1.359664 
237.127396 1.785246 
238.913849 6.253818 
239.143127 0.745133 
239.886169 0.559361 
239.93187 0.574306 
240.909073 60.266048 
241.910477 1.521188 
242.909637 15.406081 
244.904572 3.901348 
246.898651 1.206635 
247.906204 19.674458 
247.979675 0.777409 
248.935883 0.454637 
249.906937 2.04657 
250.894135 7.436674 
250.97049 0.536826 
251.125305 1.256864 
253.593689 0.603315 
255.137726 1.520106 
256.062378 0.876897 
257.896729 0.514908 
260.058838 0.928166 
260.889618 0.449203 
262.894653 0.644306 
262.913788 4.043368 
263.836304 0.463471 
263.901825 0.567818 
263.913971 0.623176 
264.909058 43.976639 
265.911652 0.940524 
265.939728 0.619589 
265.99115 2.561255 
266.909454 7.486663 
267.159027 0.562093 
268.904816 2.53188 
270.078308 3.363231 
274.07251 1.825921 
274.971008 0.767579 
275.901855 1.64317 
276.908875 1.28532 
278.899384 0.510822 
279.896454 5.574784 
280.924713 3.076886 
281.896484 4.302162 
281.911987 13.223111 
282.919373 43.58799 
283.130157 0.583641 
283.921844 1.679684 
284.094696 0.619133 
284.919769 13.029491 
285.009827 1.517008 
285.18335 0.783262 
285.921967 0.527533 
286.9151 3.28996 
288.088989 1.946088 
288.909393 1.614604 
290.945953 0.687859 
297.907135 1.390837 
302.800171 0.481809 
304.92392 0.80944 
305.92276 0.755943 
306.919434 20.800222 
307.922272 0.53635 
308.919678 1.368159 
309.080841 2.296331 
309.615906 0.621371 
312.837952 1.715643 
318.82959 0.597153 
319.835693 0.636018 
324.325806 0.76627 
324.929871 3.625602 
325.199097 0.661786 
327.827087 0.771869 
329.192993 5.728669 
331.208557 0.741371 
333.147797 0.575305 
333.185547 0.716782 
336.838623 0.669793 
337.234802 6.030168 
340.392914 0.579425 
344.828033 3.850618 
349.18277 3.883876 
363.196869 0.598423 
368.42453 28.018503 
369.428467 7.286197 
369.836609 4.404383 
371.23996 15.521036 
377.855499 0.49593 
END IONS

