BEGIN IONS
PEPMASS=427.245
CHARGE=1+
COMPOUNDNAME=Lovastatin
LIBRARYQUALITY=3
SMILES=N/A
INCHIKEY=PCZOHLXUXFIOCF-BXMDZJJMSA-N
INCHI=InChI=1S/C24H36O5/c1-5-15(3)24(27)29-21-11-14(2)10-17-7-6-16(4)20(23(17)21)9-8-19-12-18(25)13-22(26)28-19/h6-7,10,14-16,18-21,23,25H,5,8-9,11-13H2,1-4H3/t14-,15-,16-,18+,19+,20-,21-,23-/m0/s1
MSLEVEL=2
SOURCE_INSTRUMENT=N/A-ESI-QFT
FILENAME=library_mgf.mgf
SEQ=*..*
IONMODE=positive
ORGANISM=MONA
NAME=Lovastatin [M+Na]+
PI=MoNA
DATACOLLECTOR=MoNA:VF-NPL-QEHF002551
PUBMED=N/A
SUBMITUSER=mwang87
TAGS=
SPECTRUMID=CCMSLIB00004693614
SCANS=2551
50.942802 0.008051 
51.01149 0.00319 
51.110172 0.005984 
51.205574 0.014905 
51.439121 0.005705 
51.709984 0.003334 
51.920799 0.014631 
52.097717 0.016452 
52.147152 0.015007 
52.31057 0.002153 
52.317417 0.001602 
52.615498 0.005919 
52.708099 0.005574 
52.874298 0.002712 
52.930759 0.009901 
53.393066 0.003338 
53.697552 0.001281 
53.802052 0.001475 
55.03397 0.005431 
55.1231 0.005605 
55.140507 0.010897 
55.32951 0.009835 
55.567493 0.010501 
55.751766 0.003459 
56.454861 0.002891 
56.594196 0.006413 
56.851879 0.013607 
58.364983 0.015394 
58.450634 0.004867 
58.512733 0.002295 
58.540104 0.004265 
58.882359 0.015132 
59.067116 0.01421 
59.484875 0.002332 
59.520485 0.003146 
59.629089 0.007474 
59.893063 0.006075 
60.090988 0.003433 
60.353508 0.006219 
61.981392 0.005357 
62.033901 0.005155 
62.117935 0.014868 
62.656452 0.001467 
63.456581 0.003301 
63.487553 0.004954 
64.63372 0.018907 
64.816727 0.015535 
65.25428 0.007745 
65.81115 0.00536 
66.033188 0.005352 
66.46608 0.004569 
66.483215 0.003413 
66.683754 0.005687 
68.503311 0.005833 
68.602303 0.004921 
69.099792 0.002186 
69.276344 0.014086 
69.691109 0.014568 
70.475624 0.001929 
70.857346 0.007327 
71.036819 0.017833 
71.064285 0.004779 
71.8498 0.010177 
72.324333 0.00578 
72.690025 0.005485 
73.047455 0.001383 
73.052887 0.001836 
73.184258 0.016099 
74.088181 0.005334 
74.213562 0.002511 
74.375061 0.007831 
75.107941 0.003211 
75.110764 0.003338 
75.366928 0.003327 
75.729416 0.017533 
77.570045 0.002008 
77.780312 0.001791 
78.086868 0.002413 
78.313705 0.001258 
78.598335 0.009663 
79.058403 0.002518 
79.44043 0.007311 
79.662964 0.013877 
79.931557 0.01475 
80.151176 0.013579 
80.67263 0.002544 
81.070297 0.008839 
82.308601 0.00153 
82.661369 0.006715 
86.85582 0.009161 
87.608177 0.007193 
88.37027 0.004864 
89.134499 0.005321 
89.45031 0.00629 
89.454742 0.010083 
89.840729 0.002257 
90.760872 0.001599 
92.089058 0.003085 
92.360039 0.017597 
92.489319 0.015195 
92.49659 0.017324 
92.586952 0.002994 
92.750351 0.090216 
93.895004 0.002217 
94.066628 0.012273 
97.183815 0.011291 
98.975693 0.034254 
99.737305 0.008841 
99.953766 0.007067 
100.784142 0.017602 
101.06031 0.004702 
103.020775 0.016805 
104.946754 0.010401 
105.070557 0.011709 
106.547028 0.010356 
106.731918 0.003358 
106.750542 0.001602 
107.424438 0.004325 
107.76017 0.005927 
107.828102 0.003515 
109.08094 0.001432 
109.69474 0.016635 
109.700829 0.003004 
110.372627 0.008126 
110.88047 0.016775 
111.005455 1.286103 
111.183212 0.00236 
111.360222 0.00521 
112.094025 0.001735 
112.289337 0.01906 
117.372566 0.01062 
118.183243 0.004004 
119.282478 0.015957 
119.9179 0.007823 
121.701843 0.014542 
122.046318 0.017678 
123.968964 0.006026 
125.057297 0.587007 
126.07869 0.016469 
126.307213 0.007913 
127.169853 0.007764 
127.397316 0.005455 
127.562798 0.005498 
129.491913 0.006167 
129.711212 0.00137 
129.836746 0.009045 
130.35704 0.003359 
130.925064 0.017058 
131.493042 0.016961 
131.768616 0.004701 
132.219574 0.003326 
134.771698 0.010739 
135.609909 0.018111 
137.310501 0.005939 
137.527481 0.016987 
140.237549 0.004869 
141.952805 0.012851 
142.081787 0.005035 
142.157135 0.007712 
144.418045 0.017082 
144.654922 0.001904 
148.184021 0.013177 
150.177612 0.016895 
150.942657 0.005717 
152.330307 0.00417 
152.769135 0.014508 
153.186768 0.010677 
157.101074 0.007353 
157.499222 0.004516 
157.848053 0.00372 
159.116638 0.362323 
161.912537 0.001309 
162.115372 0.002849 
164.839981 0.007243 
168.66362 0.010334 
171.117096 0.001657 
172.276901 0.006455 
172.731674 0.014655 
173.132263 0.252249 
174.136292 0.00705 
176.388794 0.008767 
177.642609 0.004935 
177.943344 0.003329 
179.849182 0.006705 
181.177582 0.008419 
181.312622 0.015393 
182.610229 0.003918 
183.288589 0.017423 
185.983734 0.005773 
187.617706 0.014606 
191.971603 0.006832 
192.961395 0.024526 
194.061478 0.002445 
196.409775 0.001469 
199.147888 0.171171 
200.151505 0.012155 
201.15509 0.017673 
201.684616 0.018451 
212.405518 0.016137 
213.709885 0.017676 
213.725342 0.372106 
213.735062 0.24084 
213.744339 0.244188 
214.804337 0.003726 
216.048264 0.002801 
217.264038 0.005519 
217.516754 0.00951 
217.912003 0.003642 
219.275513 0.013197 
220.461121 0.005659 
223.736496 0.005642 
224.710144 0.001921 
225.163284 0.029023 
225.338608 0.011464 
225.81691 0.002564 
226.100525 0.002088 
226.167511 0.023022 
227.967819 0.008358 
228.039719 0.002522 
228.051971 0.006435 
229.969131 0.015066 
233.629898 0.006385 
235.293854 0.00703 
241.057465 0.004196 
241.536911 0.010767 
243.143295 0.004603 
247.941696 0.005168 
248.102844 0.003442 
249.1633 0.016957 
249.819641 0.016206 
250.022278 0.001627 
250.508362 0.014765 
251.345108 0.005051 
251.975128 0.002553 
254.642563 0.0065 
255.002289 0.01699 
258.624329 0.008772 
260.000641 0.001857 
262.452484 0.003368 
262.807556 0.007454 
263.900848 0.005014 
264.909088 0.00296 
270.6987 0.007162 
272.936676 0.174844 
281.91153 0.051112 
284.760834 0.011144 
286.480042 0.006396 
286.855164 0.002448 
287.545654 0.005586 
288.908936 0.173272 
288.951538 0.004998 
290.92923 0.002947 
290.947021 0.400828 
292.669556 0.004061 
295.088928 0.003212 
295.130005 1.559899 
296.133331 0.105148 
299.128235 0.00167 
299.442017 0.015214 
301.739441 0.001373 
303.978333 0.013173 
306.919342 0.4623 
307.921417 0.024718 
308.921051 0.017545 
308.957184 0.007268 
309.278473 0.081965 
310.153351 2.233502 
311.157166 0.31218 
317.906799 0.001429 
320.050873 0.016169 
323.161285 1.087483 
323.922241 0.036426 
323.972443 0.014904 
323.996124 0.00282 
324.164398 0.07976 
324.323181 0.004902 
324.374512 0.006359 
324.929779 0.034662 
325.176819 100.0 
326.180206 19.583326 
327.182709 1.435041 
329.154175 0.001958 
331.678955 0.006612 
339.229645 0.231822 
342.143433 0.936231 
343.14679 0.033936 
345.845459 0.003003 
365.931183 0.004992 
367.571991 0.004289 
379.991241 0.00183 
398.950256 0.001526 
402.868744 0.001549 
405.86322 0.003347 
408.278442 0.014029 
420.589966 0.005443 
427.245026 60.965378 
428.248413 15.975169 
429.250824 1.62843 
429.282654 0.002409 
429.319244 0.001609 
434.757416 0.001962 
440.777466 0.002064 
441.353699 0.004085 
452.174103 0.005594 
END IONS

