BEGIN IONS
PEPMASS=353.079
CHARGE=1+
COMPOUNDNAME=Massbank:BML00405 Griseofulvin
LIBRARYQUALITY=3
SMILES=CC1CC(=O)C=C(C12C(=O)C3=C(O2)C(=C(C=C3OC)OC)Cl)OC
INCHIKEY=DDUHZTYCFQRHIY-UHFFFAOYSA-N
INCHI=1S/C17H17ClO6/c1-8-5-9(19)6-12(23-4)17(8)16(20)13-10(21-2)7-11(22-3)14(18)15(13)24-17/h6-8H,5H2,1-4H3
MSLEVEL=2
SOURCE_INSTRUMENT=ESI-LC-ESI-QTOF
FILENAME=Massbank_ESI_positive_8_1_2014_peaks.mgf
SEQ=*..*
IONMODE=Positive
ORGANISM=MASSBANK
NAME=Massbank:BML00405 Griseofulvin [M+H]+
PI=Putative Massbank Match
DATACOLLECTOR=Massbank
PUBMED=N/A
SUBMITUSER=mwang87
TAGS=
SPECTRUMID=CCMSLIB00000204903
SCANS=163
165.0532 251.0 
199.9853 35.0 
215.0106 397.0 
285.0487 285.0 
321.0467 93.0 
353.0797 536.0 
END IONS

