BEGIN IONS
PEPMASS=173.11
CHARGE=1+
COMPOUNDNAME=ReSpect:PS101107 trans-Aconitic acid|trans-Aconitate|trans-Propene-1,2,3-tricarboxylic acid|trans-1,2,3-Propenetricarboxylic acid|(E)-2-Carboxyglutaconic Acid|Citridic Acid|Achilleic Acid
LIBRARYQUALITY=3
SMILES=C(C(=CC(=O)O)C(=O)O)C(=O)O
INCHIKEY=GTZCVFVGUGFEME-UHFFFAOYSA-N
INCHI=N/A
MSLEVEL=2
SOURCE_INSTRUMENT=ESI-Flow-injection QqQ/MS
FILENAME=respect_8_1_2014_GNPS_peaks.mgf
SEQ=*..*
IONMODE=Positive
ORGANISM=RESPECT
NAME=ReSpect:PS101107 trans-Aconitic acid|trans-Aconitate|trans-Propene-1,2,3-tricarboxylic acid|trans-1,2,3-Propenetricarboxylic acid|(E)-2-Carboxyglutaconic Acid|Citridic Acid|Achilleic Acid [M+H]
PI=Putative ReSpect Match
DATACOLLECTOR=ReSpect
PUBMED=N/A
SUBMITUSER=mwang87
TAGS=
SPECTRUMID=CCMSLIB00000219315
SCANS=5364
85.0 120.0 
128.0 31.0 
129.0 606.0 
172.0 127.0 
173.0 999.0 
END IONS

