BEGIN IONS
PEPMASS=180.102
CHARGE=1+
COMPOUNDNAME=Massbank:BML00612 Fusaric acid
LIBRARYQUALITY=3
SMILES=CCCCC1=CN=C(C=C1)C(=O)O
INCHIKEY=DGMPVYSXXIOGJY-UHFFFAOYSA-N
INCHI=1S/C10H13NO2/c1-2-3-4-8-5-6-9(10(12)13)11-7-8/h5-7H,2-4H2,1H3,(H,12,13)
MSLEVEL=2
SOURCE_INSTRUMENT=ESI-LC-ESI-QTOF
FILENAME=Massbank_ESI_positive_8_1_2014_peaks.mgf
SEQ=*..*
IONMODE=Positive
ORGANISM=MASSBANK
NAME=Massbank:BML00612 Fusaric acid [M+H]+
PI=Putative Massbank Match
DATACOLLECTOR=Massbank
PUBMED=N/A
SUBMITUSER=mwang87
TAGS=
SPECTRUMID=CCMSLIB00000204968
SCANS=228
105.0704 107.0 
106.0644 262.0 
107.0842 209.0 
115.0537 291.0 
116.059 29.0 
117.069 391.0 
118.0662 182.0 
119.073 304.0 
132.0789 200.0 
133.0818 30.0 
134.0956 3102.0 
134.1319 122.0 
134.175 21.0 
134.2021 48.0 
152.1071 46.0 
162.0917 58.0 
166.1156 27.0 
END IONS

