BEGIN IONS
PEPMASS=414.155
CHARGE=1+
COMPOUNDNAME=MoNA:633320 6,7-dimethoxy-3-(4-methoxy-6-methyl-7,8-dihydro-5H-[1,3]dioxol[4,5-g]isoquinolin-5-yl)phthalide
LIBRARYQUALITY=3
SMILES=N/A
INCHIKEY=AKNNEGZIBPJZJG-UHFFFAOYSA-N
INCHI=InChI=1S/C22H23NO7/c1-23-8-7-11-9-14-20(29-10-28-14)21(27-4)15(11)17(23)18-12-5-6-13(25-2)19(26-3)16(12)22(24)30-18/h5-6,9,17-18H,7-8,10H2,1-4H3
MSLEVEL=2
SOURCE_INSTRUMENT=LC-ESI-QFT-LC-ESI-QFT
FILENAME=output_mgf.mgf
SEQ=*..*
IONMODE=
ORGANISM=MONA
NAME=MoNA:633320 6,7-dimethoxy-3-(4-methoxy-6-methyl-7,8-dihydro-5H-[1,3]dioxol[4,5-g]isoquinolin-5-yl)phthalide [M+H]+
PI=MoNA
DATACOLLECTOR=MoNA
PUBMED=N/A
SUBMITUSER=mwang87
TAGS=
SPECTRUMID=CCMSLIB00000565948
SCANS=3200
65.0385 0.285478 
79.0542 0.434183 
91.0541 6.218523 
93.0697 0.474942 
94.0649 0.433813 
95.049 2.170034 
103.0541 1.616545 
105.0332 0.258256 
105.0446 0.23889 
105.0696 0.291731 
106.0408 0.234676 
106.065 0.338063 
107.0489 0.471178 
115.0541 0.386388 
118.0412 0.25481 
118.0646 0.520772 
119.0489 1.915399 
120.0804 0.376686 
121.0647 6.742359 
121.0884 1.023334 
122.036 1.007877 
130.0411 1.465531 
131.0489 1.530909 
133.0285 0.24136 
133.0521 0.289083 
133.0646 1.460695 
134.036 0.939482 
134.0601 0.274804 
135.0438 0.899024 
135.0677 0.293162 
136.0518 0.866211 
137.0601 0.209594 
145.0645 0.293443 
146.036 0.489349 
146.06 0.484254 
147.044 1.238282 
147.0677 2.828069 
148.0755 3.727123 
149.0595 1.550342 
149.0832 1.28533 
150.0308 0.345264 
151.0389 0.273115 
151.0754 0.487408 
152.0618 0.965756 
153.0697 0.546405 
158.0356 0.533542 
159.0678 1.17368 
160.0518 1.080646 
160.076 0.334648 
161.0597 0.339359 
162.0308 0.472231 
162.0543 0.30201 
162.0912 0.909824 
163.0388 1.07562 
164.0467 1.5575 
165.0544 2.007248 
165.0697 2.05384 
166.0774 0.500989 
167.0852 0.303918 
174.0308 1.629169 
174.0548 2.133089 
175.0387 0.377336 
175.0626 2.720939 
176.0468 1.362601 
176.0618 1.242395 
176.0704 2.658832 
177.0544 3.744482 
177.0698 1.3887 
177.0782 1.455469 
178.0775 3.776016 
179.0492 0.304819 
179.0701 3.519669 
179.085 1.051973 
181.0645 3.819087 
182.0723 0.268334 
183.0799 1.110799 
188.0466 4.366802 
188.0704 1.244469 
189.0542 1.063203 
189.0696 2.358924 
190.0496 0.460313 
190.0774 1.25907 
190.0856 0.367976 
191.0489 0.44714 
191.0574 8.83855 
191.0703 1.411782 
191.085 1.112034 
192.0566 1.547196 
192.0648 0.561859 
193.0493 1.409543 
193.0646 2.009534 
193.0727 0.446306 
194.0723 2.474871 
195.0802 2.574805 
196.0523 0.335215 
196.0879 0.455128 
202.0772 0.392176 
203.0576 3.684441 
203.0857 0.305664 
204.0567 1.440797 
204.0654 6.26851 
205.0653 5.242508 
205.0732 100.0 
206.0723 2.643185 
206.0809 18.002314 
207.0438 0.643287 
207.0801 2.538208 
208.0519 0.260562 
208.088 0.886489 
209.0595 5.194912 
209.096 0.533668 
210.0669 0.44276 
211.075 1.302592 
216.0568 1.093029 
217.0643 0.98347 
218.0722 2.388376 
218.0816 2.97066 
219.044 0.979085 
219.08 3.010282 
219.0891 0.661085 
220.0517 4.258789 
220.0966 58.136928 
221.0594 6.767908 
222.0671 3.499726 
223.0751 5.489012 
224.0828 3.517192 
225.0908 0.359306 
226.0621 0.285612 
231.043 0.333317 
231.0801 0.219028 
232.0514 2.461936 
233.0594 7.370126 
234.0673 7.416023 
235.0387 0.889435 
235.075 6.283924 
236.0471 2.229453 
236.0829 2.1595 
237.0543 14.255158 
237.091 1.260798 
238.0624 1.328037 
239.0701 2.758303 
239.1066 0.29457 
244.0524 0.490966 
245.0593 1.342601 
246.0311 0.229328 
246.0673 2.474367 
247.0387 1.602078 
247.0752 3.291484 
248.0461 2.351077 
248.0832 1.298871 
249.0544 12.886882 
249.0911 1.083628 
250.0622 4.145789 
251.07 10.606578 
252.0416 0.492079 
252.0778 5.107372 
253.0487 0.267473 
253.0859 1.542515 
254.0567 0.246371 
254.0935 0.89209 
255.065 1.473243 
259.0391 0.747133 
260.0465 1.131611 
261.0544 6.775421 
262.0623 8.245044 
263.07 9.182805 
264.0413 1.982471 
264.0645 0.359668 
264.0777 4.956385 
265.0492 23.217952 
265.0858 3.477358 
266.0571 2.905858 
266.0806 0.319195 
266.0934 0.310682 
267.0648 3.883979 
267.1018 0.898242 
269.0804 0.919198 
269.1169 0.287456 
273.0543 0.865378 
274.0621 1.726652 
275.0703 2.120638 
276.0414 1.101171 
276.0777 1.785458 
277.0494 7.323337 
277.0852 1.715308 
278.0569 2.725698 
279.0648 10.240812 
280.0367 1.946351 
280.0728 17.146056 
281.0806 5.312749 
282.0522 0.275355 
282.089 0.44146 
283.0596 2.422449 
285.0756 0.492327 
289.0494 3.704237 
290.0569 2.197427 
291.0648 4.966091 
292.0362 1.24589 
292.0727 2.08551 
293.0446 3.906085 
293.0807 3.140159 
294.0523 1.909266 
294.0749 0.328976 
294.089 0.335719 
295.0598 10.283375 
295.0962 3.994558 
297.0754 0.973727 
298.0831 0.327022 
302.0572 1.173193 
303.066 0.400946 
304.0371 0.414321 
304.0733 0.343042 
305.0441 2.361796 
305.0814 2.022232 
306.0521 4.594514 
307.0598 14.346038 
308.0685 1.85484 
308.0915 0.354597 
309.0754 5.026559 
310.0835 3.378517 
311.0556 0.332902 
312.0982 0.376298 
313.0713 0.395983 
317.0441 0.292555 
319.0599 3.772892 
320.0679 0.533646 
320.0908 0.380918 
321.0762 1.881067 
322.0474 0.362934 
322.0833 1.381211 
323.0544 4.162332 
323.0916 1.498795 
325.07 0.459065 
325.1066 0.548153 
335.0555 1.214231 
336.0851 0.370467 
337.0703 2.809636 
338.0792 0.345122 
338.102 0.886352 
351.0734 0.35161 
366.0967 1.357915 
END IONS

