BEGIN IONS
PEPMASS=547.247
CHARGE=1+
COMPOUNDNAME=(2E,4E)-1-[(2R,6S,14S,22S,25R)-25-(3,3-dimethyloxiran-2-yl)-15-methyl-1,3,13,15-tetraazaheptacyclo[18.4.1.0�,?.0?,��.0?,��.0�?,��.0�?,��]pentacosa-7,9,11,16(21),17,19-hexaen-3-yl]hexa-2,4-dien-1-one
LIBRARYQUALITY=3
SMILES=N/A
INCHIKEY=XZFSMUXVAYCHFO-QREHLELFSA-N
INCHI=InChI=1S/C32H36N4O2/c1-5-6-7-15-24(37)35-18-16-31-21-12-8-9-13-22(21)33-28-32(31)17-19-36(29(31)35)26(27-30(2,3)38-27)20-11-10-14-23(25(20)32)34(28)4/h5-15,26-29,33H,16-19H2,1-4H3/b6-5+,15-7+/t26-,27?,28+,29+,31-,32-/m1/s1
MSLEVEL=2
SOURCE_INSTRUMENT=N/A-ESI-QFT
FILENAME=library_mgf.mgf
SEQ=*..*
IONMODE=positive
ORGANISM=MONA
NAME=(2E,4E)-1-[(2R,6S,14S,22S,25R)-25-(3,3-dimethyloxiran-2-yl)-15-methyl-1,3,13,15-tetraazaheptacyclo[18.4.1.0�,?.0?,��.0?,��.0�?,��.0�?,��]pentacosa-7,9,11,16(21),17,19-hexaen-3-yl]hexa-2,4-dien-1-one [M+K]+
PI=MoNA
DATACOLLECTOR=MoNA:VF-NPL-QEHF021751
PUBMED=N/A
SUBMITUSER=mwang87
TAGS=
SPECTRUMID=CCMSLIB00004712814
SCANS=21751
50.359482 0.104238 
50.40612 0.016339 
50.463997 0.017654 
50.806038 0.01561 
51.870525 0.060131 
52.974594 0.111802 
53.359375 0.021248 
53.40147 0.069648 
54.037628 0.021887 
54.064087 0.052197 
54.245243 0.053908 
54.399841 0.033547 
55.05452 0.164503 
55.174026 0.03851 
55.435959 0.064029 
55.492939 0.038751 
55.90786 0.031534 
56.245846 0.018809 
56.280453 0.033114 
56.528461 0.022759 
56.576866 0.048127 
57.033745 0.687995 
57.07016 3.026865 
58.080528 0.020068 
58.775673 0.017623 
59.04937 0.254659 
59.082432 0.054746 
60.906345 0.023103 
61.010857 0.581973 
61.201885 0.031035 
61.363857 0.124195 
61.850948 0.024923 
62.752289 0.077155 
65.038773 0.301854 
66.760345 0.021821 
67.054367 11.136323 
67.457115 0.037866 
67.803963 0.044871 
68.057625 0.158745 
68.281616 0.016598 
69.069946 0.171365 
69.688354 0.027888 
70.690422 0.075643 
71.049202 0.021041 
71.085579 2.72775 
72.080818 0.04709 
73.028465 0.036782 
73.046814 0.183293 
73.064827 0.021047 
73.145943 0.034683 
73.584282 0.030583 
73.694099 0.027218 
75.27803 0.081927 
75.406883 0.029155 
76.083611 0.467541 
77.284836 0.027106 
78.968048 0.046357 
79.021164 0.232104 
80.413834 0.076569 
81.069839 0.524029 
82.073601 0.029772 
82.95256 0.035744 
83.049133 0.547224 
83.085556 0.101106 
83.371773 0.134917 
83.676559 0.04605 
83.777168 0.08549 
85.028397 1.364383 
85.064873 0.134406 
85.101158 1.311686 
86.031914 0.025293 
86.096497 0.03645 
86.911812 0.029748 
87.044106 0.558916 
87.268219 0.031427 
89.059723 4.355352 
89.902946 0.038908 
90.505829 0.084633 
91.05732 1.316041 
91.546326 0.075597 
93.06974 0.059782 
94.266319 0.070416 
95.049133 40.225498 
95.052788 0.271008 
95.085442 0.208998 
95.117126 0.048153 
95.120575 0.075229 
95.382881 0.02146 
96.052475 2.246213 
96.12088 0.091195 
97.065163 0.018865 
97.101196 0.090844 
98.473869 0.12472 
100.641815 0.017588 
100.700333 0.080338 
100.864601 0.03152 
101.003525 0.125647 
102.094101 0.117501 
102.224121 0.029282 
102.598236 0.069406 
103.54628 0.031437 
105.033463 0.071591 
105.569366 0.025179 
107.049149 15.248923 
107.053482 0.040614 
107.085533 0.122976 
108.052353 0.156489 
109.101288 0.033162 
109.340607 0.033815 
109.370193 0.040262 
111.044014 0.763846 
112.075348 0.025499 
112.645912 0.079782 
115.911308 0.081145 
117.599129 0.112388 
118.026054 0.0338 
119.085236 0.01967 
120.752808 0.058354 
121.064781 1.397082 
121.101318 0.027851 
121.226295 0.075337 
121.663124 0.023845 
122.142479 0.028252 
123.11673 0.167259 
123.598091 0.071006 
124.075623 0.024688 
129.054657 0.064275 
130.065201 2.335962 
130.572067 0.047967 
131.068436 0.079552 
131.073135 0.102939 
132.080612 0.06322 
133.050034 0.222957 
133.085938 1.365884 
135.116867 0.022872 
138.091309 0.063958 
142.978271 0.109074 
143.073151 0.864194 
144.066666 0.118539 
144.080841 5.515412 
145.084152 1.017275 
145.390442 0.031164 
146.057632 100.0 
146.087784 0.0287 
146.414276 0.048564 
146.894913 0.048544 
146.974228 0.02011 
147.054962 0.534372 
147.060837 17.459249 
147.080566 0.033762 
148.062836 0.165727 
149.045258 0.037038 
149.059738 8.392439 
149.559464 0.020447 
150.063034 0.038641 
150.950851 0.167987 
152.951828 0.050399 
153.959305 0.101877 
154.941147 0.028792 
156.045837 0.088129 
156.080841 0.154574 
157.076202 0.498022 
158.060394 0.092951 
158.08429 0.261479 
158.096481 0.428654 
158.994949 0.104632 
159.065933 0.049709 
159.091721 31.923073 
160.036804 2.40066 
160.094971 7.463043 
160.990143 0.039442 
161.040298 0.037372 
161.098282 1.038653 
161.105774 0.023455 
162.031479 7.335734 
162.052505 5.249545 
162.091354 0.024543 
163.005859 0.027388 
163.034836 0.165399 
163.111649 1.426416 
164.068115 0.913913 
164.9879 0.689941 
165.090942 0.142987 
166.983429 0.029934 
167.035828 0.02175 
167.05542 0.731562 
167.07019 0.404332 
168.055313 0.025329 
168.08075 1.677364 
168.961639 0.028589 
169.015564 0.028233 
169.075989 1.085501 
169.083878 0.572669 
170.0793 0.02484 
170.096481 0.417326 
171.091827 2.846274 
171.099426 0.147767 
172.075546 0.070941 
172.094986 0.202565 
172.112518 0.103523 
172.121811 0.032676 
173.010559 0.426156 
173.107513 0.235445 
173.646591 0.044372 
174.98999 0.176405 
175.0867 0.076707 
176.987732 0.918575 
177.005432 0.363369 
178.235306 0.055904 
178.983215 0.120796 
179.003357 0.262945 
180.999435 0.02663 
181.050583 0.189316 
181.073914 0.332386 
181.088608 1.076957 
182.08403 0.113294 
182.091919 0.527819 
183.09166 5.391985 
184.06424 0.024724 
184.075668 0.279496 
184.094635 1.769271 
184.11351 0.03765 
185.010757 0.027326 
185.070877 1.757449 
185.107346 24.442114 
186.042847 0.03064 
186.078827 1.296304 
186.091446 0.072516 
186.110809 8.347043 
187.026367 0.18873 
187.08667 2.8656 
187.114212 1.45996 
187.122421 0.031834 
188.069992 0.02423 
188.089905 0.202846 
189.005615 0.563134 
191.001587 0.417761 
191.021378 0.08394 
192.341141 0.081846 
192.961548 0.234067 
192.998795 0.024675 
194.160568 0.096463 
194.963028 0.031818 
195.067566 0.030822 
195.091476 0.240104 
196.075958 0.077099 
196.099289 0.196812 
196.111969 0.335161 
196.950821 1.596988 
197.070663 0.057813 
197.107315 6.813566 
197.116226 0.329682 
198.091782 0.431881 
198.114044 5.204781 
199.003235 0.39734 
199.025848 0.055766 
199.086487 1.184868 
199.095917 0.126402 
199.119446 3.21353 
199.299561 0.089696 
200.093979 0.092824 
200.106888 0.306706 
200.124496 0.807103 
200.956512 0.067326 
201.042282 0.021408 
201.102173 2.037996 
202.105408 0.149702 
203.0215 0.143309 
205.017212 0.058215 
205.060883 0.638178 
205.122345 0.248743 
205.987854 0.084858 
207.031433 0.021029 
207.091476 1.820724 
207.875732 0.02511 
208.099564 1.25847 
208.11087 0.024125 
208.977798 0.323914 
209.068359 0.10886 
209.083359 0.099182 
209.106857 0.152166 
210.127884 0.702824 
210.185562 0.12671 
210.972321 0.258498 
211.086517 0.081335 
211.121597 0.067847 
211.132294 0.394749 
212.09491 0.066773 
212.106689 0.11411 
212.133591 0.023557 
212.914429 2.155536 
212.921158 1.797822 
212.929504 1.601217 
213.102188 0.485012 
215.026657 0.444443 
215.08165 0.043651 
215.117905 1.848839 
216.121414 0.578146 
217.134232 0.039264 
217.989792 0.083607 
219.174454 0.188795 
220.005737 0.037113 
221.107193 1.347161 
222.078308 0.136144 
222.113922 0.160444 
222.898621 0.167809 
223.086594 5.436086 
223.122803 0.138129 
224.093872 1.649956 
224.106735 0.116605 
224.246979 0.032465 
224.878067 0.023099 
225.042358 0.029006 
225.089874 0.037519 
225.102051 4.335361 
225.886246 0.098797 
226.10733 0.025637 
226.122879 0.374321 
227.127457 0.034043 
227.153336 0.058487 
228.102539 0.024904 
229.109833 0.09355 
229.896149 0.601834 
231.021622 2.486344 
231.113388 0.037544 
231.149445 0.574732 
231.896469 0.020981 
232.025085 0.028015 
232.885406 0.02328 
233.037292 0.089875 
233.108612 0.028494 
233.128647 0.084511 
234.89917 3.327201 
235.123093 0.876502 
235.90033 0.340463 
236.149033 0.085174 
236.33136 0.053096 
236.89946 0.031335 
237.00946 0.023111 
237.102448 0.359491 
237.138855 0.99463 
238.110001 0.123867 
238.122726 0.54298 
238.14325 0.827599 
238.89502 0.024062 
239.095352 0.033232 
239.116867 0.199863 
239.127899 0.02266 
239.154144 1.063773 
239.901825 0.093421 
240.138046 0.462602 
240.15683 0.07229 
240.909195 0.508236 
241.056351 0.028821 
241.096664 0.033232 
241.131683 0.068531 
241.142929 0.18187 
242.145355 0.03843 
243.112793 0.192803 
244.116699 0.126755 
245.001587 0.024683 
246.89917 0.925822 
246.936096 0.038299 
247.084396 0.737012 
247.205124 0.143859 
247.906418 0.279222 
248.086578 0.111217 
248.262405 0.024185 
248.878403 0.533291 
248.91481 0.33914 
249.138672 0.191567 
249.878662 0.034903 
250.122055 0.022134 
250.893997 0.363598 
251.118088 0.372013 
251.905975 0.023535 
252.121216 0.020935 
252.909409 0.131672 
253.13356 3.923357 
253.902481 0.190788 
254.138763 0.359882 
254.906647 0.022497 
255.112305 0.047974 
255.1492 3.312785 
255.89772 0.043148 
256.152588 2.877072 
256.642517 0.048939 
257.037323 0.222548 
257.092041 0.035477 
257.128571 0.360408 
257.155426 0.853091 
258.136261 0.608882 
258.89917 1.946002 
259.053528 0.036258 
259.107208 0.026328 
259.142242 0.065788 
259.90033 0.083159 
260.043152 0.054258 
260.914917 0.085076 
261.078033 0.031845 
261.100098 3.55705 
261.124054 0.028196 
262.103546 0.873821 
262.892151 0.021646 
262.914917 0.073092 
262.930206 0.278635 
263.078644 0.04912 
263.117523 0.383639 
263.903595 0.025435 
263.933289 0.079827 
264.909546 3.656719 
265.133789 0.583154 
265.910767 0.391352 
266.889008 0.309804 
266.907532 0.029043 
266.925018 0.038925 
267.113708 0.053561 
267.148499 0.031749 
267.882233 0.074792 
268.941284 0.051667 
269.891724 0.100075 
270.899689 0.557128 
271.052063 0.027595 
271.125092 0.136922 
272.092865 0.073681 
272.916077 0.052008 
273.03241 0.025003 
274.894073 3.068086 
274.914276 0.432212 
274.930267 0.057416 
275.115509 1.517563 
275.897827 0.165846 
276.123474 7.975986 
276.147278 0.45609 
276.90976 11.332135 
277.130219 6.97847 
277.149811 0.08212 
277.911133 1.404255 
278.140747 1.627996 
278.910187 0.094778 
278.925446 1.126822 
279.147552 0.038659 
279.897766 0.109337 
279.927063 0.064151 
280.924255 0.030345 
280.940552 0.027996 
281.896759 0.182377 
281.91214 0.239125 
281.947662 0.028759 
282.875916 0.02013 
282.902191 0.029267 
282.919891 0.954953 
283.12149 0.039552 
283.891815 0.083448 
285.103455 0.033359 
285.136566 0.053586 
285.815369 0.12409 
286.130646 0.020959 
286.894958 0.024569 
286.914703 0.12684 
287.139313 0.786973 
288.115082 0.047661 
288.14267 1.266586 
288.909393 2.500568 
289.145569 0.40877 
289.910919 0.141428 
290.925934 0.12271 
290.944916 0.028024 
290.96228 0.119282 
291.2323 0.106814 
292.096985 1.534884 
292.117157 0.576714 
292.158142 0.093019 
292.905212 0.10941 
292.941223 0.565213 
293.100952 0.169539 
293.127411 1.449047 
294.135681 0.409922 
294.920288 0.304627 
294.95636 0.07789 
295.124725 0.068332 
295.142883 0.297342 
295.927917 0.062791 
296.143768 0.023982 
296.935211 0.053073 
297.139221 0.643301 
298.1409 0.120197 
298.914825 0.15056 
299.153961 0.079487 
300.156921 0.077604 
300.889343 0.043237 
300.910004 5.489347 
301.159485 0.059994 
301.910919 0.270173 
303.1604 0.792077 
303.931519 0.063689 
304.118439 0.087282 
304.187225 0.047325 
304.905243 0.028188 
304.924255 0.259256 
304.942322 0.033238 
305.122467 0.052913 
306.919617 2.638123 
306.957092 0.061145 
307.922211 0.1152 
308.91983 0.073471 
308.972229 2.070982 
309.068848 0.200563 
309.136993 0.536494 
309.279022 0.067261 
309.943085 0.725616 
309.973511 0.528645 
310.141815 0.248625 
310.915436 0.217528 
310.974213 0.066449 
311.085724 0.092975 
311.106476 0.764978 
311.151703 0.267276 
311.8302 0.024545 
312.111206 0.023328 
312.149994 0.415418 
313.154999 0.079218 
313.167328 0.049114 
313.205414 0.086214 
313.917847 0.146322 
314.162018 0.02293 
316.904633 0.377251 
316.925201 0.492537 
317.821594 0.029112 
317.949097 0.461859 
318.920166 12.6236 
318.955536 1.485406 
319.921844 1.62127 
319.958282 0.218519 
320.919647 0.30809 
320.954437 0.050862 
322.914948 0.230452 
322.933441 0.071189 
322.951965 0.584263 
323.154175 0.807863 
323.955658 0.036425 
324.157288 1.486626 
324.930481 3.826351 
325.063232 0.033617 
325.084869 0.042967 
325.160797 1.361782 
325.932129 0.494322 
326.165436 2.709815 
326.931 0.032931 
326.982178 0.118498 
327.079437 1.007326 
327.09964 0.06637 
327.148651 0.090067 
327.168182 1.700203 
328.083069 0.034864 
328.1474 0.07318 
328.172485 0.877985 
328.925415 0.024563 
329.116913 0.691363 
329.147919 0.033457 
329.176605 0.390296 
330.121185 0.058698 
330.921722 0.559538 
331.176331 0.046028 
331.215271 0.040822 
331.928314 5.321634 
332.929749 0.895321 
333.139923 0.048804 
334.843903 0.299685 
334.972137 0.052388 
336.839417 0.31878 
336.931549 2.095262 
336.966919 7.991286 
337.18338 0.041806 
337.935608 0.232098 
337.968201 2.104832 
338.127869 0.142718 
338.96814 0.247138 
339.169891 0.074949 
340.05191 0.02792 
340.145935 0.211449 
340.180603 1.974108 
341.081329 0.038192 
341.183716 2.093666 
342.166534 0.384427 
342.187042 1.912567 
343.095978 0.09417 
343.170898 0.376653 
343.191681 4.504623 
343.927551 0.161177 
344.194855 3.866624 
345.198273 2.657406 
346.194305 0.070809 
349.131256 0.084747 
349.188507 0.083539 
350.164978 0.216268 
351.119659 0.134544 
351.845459 0.15413 
351.953491 0.064493 
352.83316 0.035319 
353.842194 0.059342 
354.205719 0.06141 
355.11084 0.126782 
355.192719 0.064106 
355.928436 3.27051 
356.929108 0.447569 
357.20755 0.347286 
358.211823 0.18111 
358.844208 0.285313 
359.214691 0.038362 
360.839386 1.600736 
360.968536 0.132794 
361.838318 0.026742 
361.938538 3.617178 
362.858673 0.027357 
362.940155 0.281859 
363.936646 0.036829 
364.834503 0.180187 
364.961884 0.426011 
365.962433 0.022267 
366.16095 0.416669 
367.17923 0.045713 
367.839355 0.178484 
368.181213 0.115837 
368.829498 0.273993 
369.16925 0.042798 
369.836578 0.207678 
370.156433 0.080086 
371.182434 0.062647 
372.838745 0.042807 
373.848602 0.024335 
373.939056 0.305708 
376.834564 0.042194 
377.840118 0.27145 
378.849579 0.339457 
378.978455 1.031597 
379.152802 1.496749 
379.980194 0.031337 
380.156372 0.922375 
381.171021 5.173638 
381.195709 0.651785 
382.172577 1.08405 
382.199738 1.346212 
382.844177 0.042457 
382.954468 0.084898 
383.182861 0.463185 
383.204437 1.865828 
384.206055 0.270634 
384.674194 0.040112 
384.860962 0.17448 
385.16922 0.028457 
385.202759 0.048202 
385.237396 0.028861 
385.844879 0.068537 
386.8396 0.211789 
386.862915 0.061655 
387.216217 0.053528 
388.184753 0.112942 
388.832031 0.032386 
388.857056 0.244937 
389.234192 0.094473 
389.858093 0.063088 
390.85202 0.260719 
391.18103 2.368723 
392.183777 0.292032 
392.849426 0.355578 
393.176636 0.513451 
394.844879 2.970262 
395.186859 0.038962 
395.84964 0.307147 
397.111328 0.116849 
397.202515 0.029184 
399.181549 1.265283 
399.223755 0.021002 
399.798828 0.085744 
400.184509 0.19474 
400.22937 0.039239 
402.852203 0.070247 
404.850342 0.068006 
406.845154 1.099326 
407.846771 0.112275 
408.200439 0.046028 
408.257385 0.119421 
408.860931 0.934996 
409.192505 0.623498 
409.853882 0.066823 
410.193237 0.03812 
410.272095 0.490474 
410.861328 0.368395 
411.126465 0.331244 
411.185944 0.212285 
411.862 0.502595 
412.188385 0.034816 
412.857147 1.875625 
413.105957 0.676383 
413.19754 0.1851 
413.859985 0.290622 
414.126434 0.026775 
414.855988 0.07494 
415.121307 1.538185 
415.859619 0.414989 
416.124603 0.238663 
417.097046 0.037791 
419.851532 0.027098 
420.859589 0.073878 
422.862427 0.024122 
423.217804 0.272247 
424.856995 0.079481 
425.198151 0.920377 
425.233215 0.069843 
426.20459 0.224002 
427.120667 0.186784 
427.212372 1.327427 
427.856842 0.154512 
428.216309 4.775427 
428.873047 0.033928 
429.136414 0.127566 
429.219177 10.406293 
429.873474 0.501664 
430.22171 2.049882 
430.868805 0.652947 
431.870209 0.099001 
435.218567 0.120961 
437.198212 0.803797 
437.23288 2.988588 
437.87262 0.02693 
438.201172 0.72027 
438.236389 2.011032 
438.873047 0.208363 
439.210144 0.184106 
439.241669 0.353057 
441.19165 1.971805 
441.222992 0.038121 
442.194641 1.65529 
443.206635 1.834436 
443.826965 0.023541 
444.210541 0.3355 
447.148773 0.103044 
448.783051 0.031894 
449.232788 0.040178 
450.002838 0.105363 
453.124023 0.312848 
453.229736 0.69476 
453.858429 0.034125 
454.235016 0.109079 
455.204742 0.09723 
455.237122 0.614979 
456.212891 0.340034 
457.223236 1.689034 
457.255585 0.025045 
457.531372 0.129675 
457.871277 0.563258 
458.227936 0.160179 
459.218048 0.059792 
459.869568 0.117119 
461.126129 0.045729 
461.197632 0.142565 
461.231201 6.070437 
461.862946 1.996602 
462.864899 0.199117 
463.879333 2.131811 
464.881775 0.122743 
467.910461 0.217206 
469.155579 1.813813 
470.15799 0.04204 
470.233093 0.564772 
470.878082 0.027104 
471.15329 0.377517 
471.238464 3.91673 
472.242615 18.258726 
472.878326 0.09201 
473.245209 68.145119 
474.249359 20.772589 
475.180603 0.425262 
475.211395 7.828151 
475.249359 2.788367 
476.215881 5.246091 
477.227173 8.054583 
477.896301 0.372577 
478.22998 0.049061 
478.898315 0.041894 
481.890137 0.949007 
482.788635 0.291716 
482.891846 0.078992 
485.254517 0.098593 
486.258575 0.30682 
487.167114 0.038492 
487.261078 3.112439 
488.262024 0.498904 
488.809692 0.121536 
488.885681 0.389807 
489.162537 0.467406 
489.226135 0.339956 
490.886688 0.857696 
491.281067 0.039968 
495.905609 0.997726 
496.90744 0.164426 
506.897675 2.630489 
507.799316 0.068453 
507.899719 0.241668 
509.290466 0.08731 
510.261566 0.046085 
511.142944 0.080144 
511.26886 0.094043 
513.258911 0.04036 
518.211243 0.032066 
524.907104 0.607379 
527.292786 1.370338 
528.276489 0.564073 
529.257019 1.605825 
530.263916 0.507887 
531.274719 17.76491 
545.251587 18.466621 
545.293396 5.693123 
545.402466 12.888125 
546.185486 0.077952 
546.25415 48.984043 
546.293396 6.432397 
546.405212 7.139727 
547.248474 42.56834 
547.377808 9.207889 
547.900208 0.03936 
548.249451 14.841311 
548.383423 2.57374 
548.612854 0.667821 
549.198303 0.216696 
549.284424 37.050976 
549.359314 0.541553 
557.09668 0.062136 
562.840942 0.091233 
563.233215 0.728963 
564.235291 0.460519 
565.248657 3.112149 
565.911072 1.084999 
566.251587 0.885597 
566.911682 0.089658 
567.20636 0.082178 
567.259155 0.040348 
END IONS

