BEGIN IONS
PEPMASS=345.134
CHARGE=1+
COMPOUNDNAME=gibberellic acid
LIBRARYQUALITY=3
SMILES=N/A
INCHIKEY=IXORZMNAPKEEDV-OBDJNFEBSA-N
INCHI=InChI=1S/C19H22O6/c1-9-7-17-8-18(9,24)5-3-10(17)19-6-4-11(20)16(2,15(23)25-19)13(19)12(17)14(21)22/h4,6,10-13,20,24H,1,3,5,7-8H2,2H3,(H,21,22)/t10-,11+,12-,13-,16-,17+,18+,19-/m1/s1
MSLEVEL=2
SOURCE_INSTRUMENT=N/A-ESI-QTOF
FILENAME=library_mgf.mgf
SEQ=*..*
IONMODE=negative
ORGANISM=MONA
NAME=gibberellic acid [M-H]-
PI=MoNA
DATACOLLECTOR=MoNA:VF-NPL-QTOF001988
PUBMED=N/A
SUBMITUSER=mwang87
TAGS=
SPECTRUMID=CCMSLIB00004719761
SCANS=1985
43.0187 1.103 
60.993099 0.136872 
71.050201 4.45642 
73.027802 0.282719 
73.031097 0.361588 
83.050003 4.130754 
83.132103 0.101255 
143.085999 20.650009 
143.163101 0.105256 
143.191803 0.560061 
143.230698 0.177988 
143.242493 0.135807 
143.300995 0.13833 
143.343002 0.124975 
144.089905 0.190951 
155.083496 0.206015 
161.0961 1.403432 
185.094696 0.236929 
197.121002 0.108989 
197.134506 0.146048 
201.127106 1.125193 
213.126801 1.333618 
215.144806 0.228416 
221.132904 9.883436 
221.249603 0.131365 
221.263794 0.225414 
221.310699 0.136735 
222.132202 0.18265 
227.107101 2.979366 
237.124695 0.202589 
239.143295 46.8549 
239.276505 1.317853 
239.313599 0.319549 
239.332901 0.410626 
239.351303 0.330719 
239.378601 0.38485 
239.391602 0.152453 
239.424896 0.145606 
239.436005 0.313988 
239.460999 0.222385 
239.489899 0.233542 
239.537094 0.193566 
239.559097 0.156184 
239.585297 0.223596 
239.603104 0.109116 
239.646896 0.121291 
239.692505 0.100953 
239.712601 0.141519 
239.755005 0.171954 
239.807404 0.111341 
239.883698 0.141529 
239.922607 0.13653 
240.146194 1.130866 
240.348999 0.115155 
255.131897 0.135016 
257.153015 2.670577 
271.095795 1.470281 
273.147003 0.163571 
283.133209 3.679897 
283.242706 0.110783 
283.264191 0.117373 
284.131104 0.156259 
301.143311 4.457869 
301.294006 0.12101 
302.142395 0.149609 
327.123291 0.655323 
345.133514 100.0 
345.295502 1.102001 
345.346191 0.305207 
345.374603 0.131513 
345.407715 0.106333 
345.464813 0.221924 
345.495392 0.12656 
345.523804 0.166921 
345.544495 0.140337 
345.574799 0.174955 
345.618896 0.211445 
345.668915 0.232546 
345.716888 0.176515 
345.761505 0.113876 
345.786285 0.204099 
345.862793 0.118204 
345.882202 0.11507 
345.908386 0.107604 
345.954803 0.145204 
346.050415 0.268744 
346.13739 2.370761 
346.230499 0.117193 
346.25531 0.142841 
346.285797 0.113287 
346.31311 0.132365 
346.35611 0.132042 
346.459595 0.128923 
346.609314 0.104761 
346.698792 0.18241 
346.801208 0.125899 
347.017303 0.126113 
347.269501 0.107613 
347.344788 0.111248 
END IONS

