BEGIN IONS
TITLE=Scan Number: 1489
PEPMASS=436.19699
CHARGE=1+
COMPOUNDNAME=Himeic acid A_120102
LIBRARYQUALITY=2
SMILES=O=C1C=C(/C=C/CCCCCCCCC(O)=O)OC=C1C(NC(C[C@H](C)C(O)=O)=O)=O
INCHIKEY=OKGLROPOZIVCCZ-HQPKTYMTSA-N
INCHI=N/A
MSLEVEL=2
SOURCE_INSTRUMENT=LC-ESI-qToF
FILENAME=P1_C3_conc_GA3_01_2409.mzXML
SEQ=*..*
NOTES=
IONMODE=Positive
ORGANISM=GNPS-LIBRARY
NAME=Himeic acid A_120102 M+H
SPECTRUMID=CCMSLIB00000478060
ACTIVATION=CID
INSTRUMENT=ion trap
SCANS=1489
93.069977 280.0 
95.085739 296.0 
105.069344 480.0 
107.048515 696.0 
107.087051 480.0 
109.025291 292.0 
109.101585 600.0 
115.03978 288.0 
117.076645 252.0 
121.02948 584.0 
121.100723 368.0 
123.045746 976.0 
123.116776 264.0 
129.070511 468.0 
131.084717 520.0 
132.090271 352.0 
133.028046 860.0 
133.064484 416.0 
133.099899 280.0 
135.045013 700.0 
135.117996 444.0 
137.021362 828.0 
137.059143 272.0 
145.097504 392.0 
147.043579 676.0 
147.080948 404.0 
147.115219 808.0 
149.0233 8688.0 
149.058807 800.0 
149.094559 560.0 
149.131027 428.0 
150.028168 568.0 
151.037323 1652.0 
161.059402 1468.0 
161.131973 292.0 
162.062469 556.0 
163.038681 1024.0 
163.074753 872.0 
165.05481 360.0 
166.048248 368.0 
167.032135 3596.0 
168.03688 412.0 
171.116592 284.0 
173.059204 864.0 
173.134552 396.0 
174.055588 384.0 
175.036606 448.0 
175.074554 1104.0 
176.073349 360.0 
177.055359 672.0 
177.090759 500.0 
179.03093 604.0 
180.068008 272.0 
181.050888 632.0 
187.080124 432.0 
189.052933 1016.0 
189.090958 500.0 
189.127213 744.0 
191.03334 3532.0 
191.068146 780.0 
191.141968 272.0 
193.047485 360.0 
195.060944 408.0 
199.072296 420.0 
199.111053 884.0 
203.068436 628.0 
203.140991 252.0 
205.049179 816.0 
205.085373 272.0 
213.12825 492.0 
217.053955 428.0 
217.087921 472.0 
217.121185 1644.0 
218.120605 316.0 
219.134216 484.0 
231.136627 980.0 
232.144531 396.0 
241.122009 1068.0 
242.123276 380.0 
250.049759 420.0 
259.134491 1884.0 
260.134033 552.0 
276.161804 436.0 
278.146942 376.0 
286.139557 584.0 
287.126526 3356.0 
288.127533 480.0 
304.152832 8672.0 
305.141174 3776.0 
306.142548 1376.0 
307.146179 456.0 
322.164673 33952.0 
323.168121 7548.0 
324.167908 1220.0 
325.175323 300.0 
350.116028 392.0 
350.14856 480.0 
360.111664 264.0 
365.173126 560.0 
378.119568 520.0 
379.128754 344.0 
393.169556 496.0 
400.172272 468.0 
414.098602 356.0 
414.594086 272.0 
418.186432 1776.0 
419.184418 452.0 
436.194092 2560.0 
437.153809 544.0 
437.200073 808.0 
END IONS

