BEGIN IONS
PEPMASS=926.511
CHARGE=1+
COMPOUNDNAME=MoNA:688753 Nystatin
LIBRARYQUALITY=3
SMILES=N/A
INCHIKEY=VQOXZBDYSJBXMA-NQTDYLQESA-N
INCHI=InChI=1S/C47H75NO17/c1-27-17-15-13-11-9-7-5-6-8-10-12-14-16-18-34(64-46-44(58)41(48)43(57)30(4)63-46)24-38-40(45(59)60)37(54)26-47(61,65-38)25-36(53)35(52)20-19-31(49)21-32(50)22-33(51)23-39(55)62-29(3)28(2)42(27)56/h5-6,8,10-18,27-38,40-44,46,49-54,56-58,61H,7,9,19-26,48H2,1-4H3,(H,59,60)/b6-5+,10-8+,13-11+,14-12+,17-15+,18-16+/t27-,28-,29-,30+,31+,32+,33+,34-,35+,36+,37-,38-,40+,41-,42+,43+,44-,46-,47+/m0/s1
MSLEVEL=2
SOURCE_INSTRUMENT=LC-ESI-QFT-LC-ESI-QFT
FILENAME=output_mgf.mgf
SEQ=*..*
IONMODE=
ORGANISM=MONA
NAME=MoNA:688753 Nystatin [M+H]+
PI=MoNA
DATACOLLECTOR=MoNA
PUBMED=N/A
SUBMITUSER=mwang87
TAGS=
SPECTRUMID=CCMSLIB00000566960
SCANS=4211
128.0621 100.0 
129.0656 4.063972 
129.0699 61.240143 
130.0734 2.39462 
130.0779 6.077136 
131.0492 14.297527 
131.0856 18.242801 
132.057 2.521803 
132.0888 0.504412 
133.0285 1.637281 
133.0649 10.66339 
133.1012 2.596037 
135.0442 3.948444 
135.0806 1.794851 
137.0596 0.778707 
139.0391 1.665443 
139.0544 1.537335 
141.0699 52.944245 
142.0732 1.591969 
142.078 13.635094 
143.0857 15.976791 
144.057 4.296178 
144.0889 0.298488 
144.0937 1.479115 
145.065 23.918872 
145.1013 4.267692 
146.0682 0.811532 
147.0442 11.158667 
147.0805 5.246356 
148.0475 0.340171 
149.0234 0.339435 
149.0601 2.362572 
149.0964 0.309178 
151.0391 6.425914 
151.0756 0.476495 
152.0622 33.464801 
153.0701 44.488377 
154.078 18.405027 
155.0495 2.108644 
155.0605 12.168793 
155.0856 24.367773 
156.0573 0.460929 
156.0941 2.670378 
157.0649 9.163204 
157.1014 4.997899 
158.0729 0.800593 
159.0443 1.481904 
159.0806 2.17816 
159.1171 0.406162 
160.052 0.787043 
161.06 2.016969 
161.0959 0.375304 
163.0388 0.485383 
163.0542 0.58884 
164.0623 1.642077 
165.07 67.791913 
166.0781 19.154718 
167.0857 21.964075 
168.0571 2.640848 
168.0941 4.157659 
169.0649 9.007112 
169.1013 7.605339 
170.073 0.538759 
170.1093 0.419494 
171.0806 4.162999 
171.1169 0.447849 
173.06 2.118065 
173.0964 0.663967 
175.0391 2.626854 
175.0753 1.285714 
176.062 1.62143 
177.0547 0.518266 
177.07 3.344202 
178.0778 42.305479 
179.0859 23.721648 
180.094 4.685111 
181.065 7.51484 
181.1014 8.841289 
182.1095 0.716452 
183.0807 3.470073 
183.117 1.919286 
185.06 1.935075 
185.0964 0.585645 
187.0757 0.420244 
189.0701 13.085982 
190.078 9.929469 
191.0857 21.077838 
192.0937 8.87154 
193.1015 9.748296 
194.0728 2.558191 
194.109 1.333138 
195.0807 5.15348 
195.1168 3.135592 
196.0889 0.523045 
197.0596 1.296908 
197.0962 1.634718 
197.1326 0.423364 
199.0752 0.663652 
201.0546 0.351796 
201.0913 0.332388 
202.0778 20.934319 
203.0857 21.167856 
204.094 6.992215 
205.065 1.831744 
205.1016 7.724918 
206.0727 1.672112 
206.1088 1.78374 
207.0808 3.394497 
207.1172 2.75407 
208.0883 0.598954 
208.1253 0.375561 
209.0595 0.395188 
209.0963 0.763438 
209.1328 0.478215 
210.0677 0.278261 
211.0752 0.549985 
213.0545 0.382894 
215.0858 16.904033 
216.094 6.973755 
217.1014 8.875006 
218.0726 1.639439 
218.1096 2.268282 
219.0806 4.082777 
219.1171 2.536455 
220.0879 0.424304 
221.096 2.113319 
221.1331 0.38729 
223.0756 0.546956 
223.1115 0.390207 
226.0781 3.070663 
227.0701 0.341953 
227.0856 3.520968 
228.0938 7.479398 
229.1014 7.252875 
230.1089 2.011629 
231.0807 1.822866 
231.1169 3.615499 
232.0886 1.351474 
233.0958 0.7982 
233.1324 0.69662 
235.1117 0.439453 
235.1484 0.401747 
237.1271 0.330205 
239.0856 5.495422 
240.0934 3.197743 
241.1015 5.404467 
242.1096 2.262948 
243.0806 0.504489 
243.117 1.929419 
244.0889 0.494066 
244.1253 0.521488 
245.0965 1.691687 
245.1324 0.825938 
246.1037 0.417619 
252.0937 3.903123 
253.1017 4.65741 
254.1079 0.586329 
255.1169 2.685809 
256.1241 0.480778 
257.0965 1.278808 
257.1326 1.031168 
259.1121 0.398851 
265.1017 2.780634 
266.1093 1.498142 
267.1178 2.38839 
268.1234 0.538927 
269.0957 0.496891 
269.1322 0.742897 
271.1109 0.39515 
271.1485 0.326914 
278.1085 0.494018 
279.1166 1.441086 
281.1325 0.557285 
283.1104 0.384201 
283.1477 0.334777 
END IONS

