BEGIN IONS
PEPMASS=1255.64
CHARGE=1+
COMPOUNDNAME=Dactinomycin
LIBRARYQUALITY=3
SMILES=N/A
INCHIKEY=RJURFGZVJUQBHK-UHFFFAOYSA-N
INCHI=InChI=1S/C62H86N12O16/c1-27(2)42-59(84)73-23-17-19-36(73)57(82)69(13)25-38(75)71(15)48(29(5)6)61(86)88-33(11)44(55(80)65-42)67-53(78)35-22-21-31(9)51-46(35)64-47-40(41(63)50(77)32(10)52(47)90-51)54(79)68-45-34(12)89-62(87)49(30(7)8)72(16)39(76)26-70(14)58(83)37-20-18-24-74(37)60(85)43(28(3)4)66-56(45)81/h21-22,27-30,33-34,36-37,42-45,48-49H,17-20,23-26,63H2,1-16H3,(H,65,80)(H,66,81)(H,67,78)(H,68,79)
MSLEVEL=2
SOURCE_INSTRUMENT=N/A-ESI-QFT
FILENAME=library_mgf.mgf
SEQ=*..*
IONMODE=positive
ORGANISM=MONA
NAME=Dactinomycin [M+H]+
PI=MoNA
DATACOLLECTOR=MoNA:VF-NPL-QEHF000892
PUBMED=N/A
SUBMITUSER=mwang87
TAGS=
SPECTRUMID=CCMSLIB00004691955
SCANS=892
86.673096 0.009476 
87.10022 0.121842 
87.606445 0.010847 
88.058006 0.010498 
88.087456 0.009145 
89.056351 0.007909 
90.37413 0.007029 
91.77285 0.011291 
92.383446 0.011395 
92.444626 0.00806 
93.820343 0.009913 
93.955177 0.013518 
95.720886 0.012227 
97.30249 0.010065 
98.06041 0.192396 
98.096771 0.234669 
98.411697 0.009368 
98.475044 0.010361 
99.349304 0.012716 
100.03968 16.844296 
101.043015 0.363977 
103.293198 0.013242 
104.772171 0.013772 
106.052475 0.013889 
106.142632 0.010115 
110.096725 0.034423 
110.17466 0.008622 
112.112312 2.541159 
112.240173 0.009855 
113.115547 0.012642 
114.091545 1.614925 
114.313896 0.013252 
114.731934 0.011588 
114.906425 0.019303 
115.218506 0.010134 
118.591095 0.010346 
121.69912 0.01036 
122.096527 0.011109 
123.091766 0.083139 
124.112144 6.622501 
125.107269 0.504363 
125.115402 0.252749 
126.054993 0.260674 
126.091309 0.241897 
126.110199 0.006222 
126.127708 0.005794 
128.106796 0.013102 
129.102127 0.139456 
131.068054 0.009738 
132.101822 8.825176 
133.105103 0.205701 
138.090439 0.009815 
139.08638 0.315059 
139.122665 0.01207 
139.371078 0.011918 
139.740417 0.008989 
140.104935 0.011177 
140.299683 0.006245 
141.101852 0.04309 
141.460983 0.009953 
142.08609 1.642516 
142.122543 0.141564 
143.089279 0.011691 
143.796661 0.009139 
146.330246 0.010321 
147.509552 0.007185 
147.852768 0.011732 
149.738388 0.01175 
150.091309 0.00822 
151.086411 0.752042 
151.334442 0.007922 
151.919495 0.010877 
152.070572 0.025507 
152.106796 0.302997 
153.102066 4.191928 
153.386139 0.013496 
154.086044 2.408569 
154.105377 0.080189 
155.118118 0.021583 
156.582214 0.013539 
157.133347 0.929132 
157.869156 0.012887 
160.89209 0.011419 
161.558304 0.013271 
167.081329 0.269536 
167.117798 0.197581 
169.097015 12.289724 
169.133377 2.931656 
170.100403 0.641596 
170.117432 0.202709 
170.136627 0.025328 
171.112457 0.038359 
172.658844 0.011256 
173.526932 0.00977 
174.390671 0.01261 
177.544113 0.011757 
179.117615 0.083151 
180.101639 0.241113 
181.132309 0.00632 
181.176529 0.008978 
182.428253 0.008371 
183.112762 0.063531 
183.162827 0.010357 
185.128281 4.047236 
186.13176 0.043579 
187.107574 5.257213 
188.11116 0.143162 
190.601746 0.00646 
191.15416 0.038911 
193.884567 0.01264 
194.668045 0.012608 
194.67662 0.008122 
195.11264 0.710515 
195.149078 0.099832 
195.907013 0.012138 
197.128326 4.282155 
198.131866 0.127271 
200.085632 0.009738 
200.364151 0.009594 
203.13884 40.180363 
204.142487 2.484428 
204.290253 0.012568 
205.55864 0.011247 
209.466492 0.013947 
210.161194 0.011306 
210.280609 0.011672 
211.144104 0.044517 
212.528503 0.010601 
212.986481 0.008993 
213.055099 0.00833 
213.123154 1.511315 
214.12616 0.012652 
217.936066 0.010075 
218.001617 0.014333 
219.148895 0.245182 
221.130798 0.011321 
221.164566 0.032726 
221.756653 0.011343 
223.107422 0.370037 
223.14444 0.010882 
223.180756 0.012791 
223.436966 0.009107 
224.836823 0.006407 
229.117966 0.090629 
235.1436 0.122739 
236.175613 0.008697 
236.331833 0.008838 
238.190704 0.105796 
239.50177 0.009275 
240.133865 0.060701 
240.169937 0.013769 
240.68425 0.010764 
241.154251 0.399723 
245.464462 0.01129 
245.831345 0.011085 
250.717621 0.005837 
251.138718 0.152788 
251.17218 0.013719 
253.500549 0.012012 
254.18602 0.082705 
257.185516 0.023699 
260.580078 0.010671 
263.139221 0.059415 
264.170258 0.141738 
266.150421 0.013569 
268.165039 3.103838 
269.168549 0.185128 
280.164673 0.018393 
281.148987 0.07064 
282.180664 10.215371 
282.196564 0.147062 
283.184479 1.029835 
283.418182 0.011039 
284.159454 0.065756 
284.196228 0.255719 
285.255463 0.009805 
286.175659 0.616201 
293.056335 0.054948 
294.144073 0.164348 
300.191162 27.78216 
301.194824 2.792056 
304.111481 0.017137 
306.606049 0.011948 
307.227753 0.011392 
310.078094 0.009639 
311.06604 0.027098 
312.190491 0.027457 
319.140167 0.007238 
322.082336 0.069609 
324.191528 0.013439 
326.207214 0.02528 
328.09552 0.011921 
329.077087 0.018178 
336.227875 0.016066 
338.206696 0.768276 
348.097626 0.683474 
349.10379 0.230723 
349.51004 0.01266 
350.112732 1.244665 
351.117157 0.050023 
353.616241 0.010983 
353.749329 0.011585 
354.237915 2.657349 
355.196594 0.018457 
355.241608 0.211613 
360.133636 0.443885 
365.123291 0.014786 
366.107727 2.433113 
367.111389 0.246151 
368.124054 0.053379 
371.228241 0.060293 
372.120544 1.676129 
373.124176 0.146077 
375.108734 0.034436 
376.091522 1.157179 
377.095612 0.050133 
377.12323 0.030107 
378.107544 0.359609 
381.223328 0.012375 
381.24881 0.949027 
382.251587 0.009242 
386.136566 0.670582 
387.116882 0.033526 
387.144196 5.086325 
388.147583 0.809127 
393.118622 1.194557 
394.102692 14.882682 
395.105774 2.253487 
395.64682 0.01257 
397.243805 0.06395 
399.259277 2.046667 
400.262329 0.192304 
403.103149 0.279134 
403.139282 0.508112 
403.172943 0.010386 
404.110504 0.815127 
405.11853 2.874427 
405.151001 0.097967 
406.121918 0.276732 
413.440094 0.011838 
414.144073 0.038703 
415.139404 0.135909 
416.120453 0.011866 
417.153473 0.010821 
419.134735 0.008885 
419.171112 0.037564 
421.149811 0.635107 
421.183563 0.024628 
422.156616 0.028219 
429.154602 0.051044 
431.134186 17.259869 
432.138489 4.085077 
433.113129 1.589933 
433.149048 2.40986 
434.11734 0.14825 
434.152466 0.276866 
437.27475 0.075053 
439.247742 0.007558 
443.134674 0.250092 
445.150269 1.022809 
445.18219 0.009482 
446.15271 0.016399 
447.132324 0.051293 
447.16507 1.13114 
448.168945 0.070535 
449.144806 8.028283 
450.147766 1.64865 
451.154877 0.013971 
458.145416 0.410967 
459.128906 100.0 
460.132294 18.941063 
461.13559 0.907012 
464.192383 0.083776 
465.176086 0.679438 
466.178864 0.018271 
468.274933 0.006798 
473.143982 0.048085 
474.17804 0.007601 
475.15976 0.322985 
476.156189 0.39233 
476.19223 0.214488 
477.139618 4.267476 
478.142853 0.782154 
479.197113 0.011292 
486.177368 0.044554 
486.212677 0.183929 
490.202637 0.016019 
492.184021 0.012529 
493.170349 0.529489 
497.180969 0.354054 
498.182129 0.014158 
502.207092 1.108692 
503.21283 0.202779 
504.18631 0.535562 
504.223938 0.213207 
505.189209 0.014044 
512.153992 0.027889 
512.191895 0.965164 
513.195251 0.044411 
514.20752 0.861149 
515.210754 0.033706 
520.218567 0.417554 
520.46875 0.009214 
521.227173 0.013592 
529.222656 0.010576 
530.202698 21.050611 
531.206055 4.963453 
532.176208 0.035175 
532.215698 0.157201 
537.267334 0.00682 
540.186707 0.683025 
541.176514 0.008246 
544.218201 0.029418 
548.213196 1.027201 
549.21759 0.067012 
549.441162 0.008969 
558.197449 8.711001 
559.200684 2.120166 
560.211731 0.012667 
576.207703 0.926938 
577.212036 0.09349 
583.267212 0.012971 
585.285156 0.012201 
588.313843 0.013884 
590.22168 0.03375 
601.276001 1.012225 
602.279724 0.049452 
608.881836 0.0109 
611.260193 0.046132 
613.277344 0.011633 
622.044495 0.009831 
627.211487 0.012264 
629.271973 1.479873 
630.274109 0.323529 
633.266052 0.210624 
647.281616 0.268924 
655.249878 0.888568 
656.251099 0.07788 
657.265564 0.299479 
661.258789 0.015488 
673.260498 0.304501 
690.019958 0.013205 
708.929565 0.019021 
708.991455 0.012282 
709.094116 0.011311 
709.457703 0.014658 
709.513489 0.03352 
713.789429 0.007582 
726.280212 0.010676 
727.279297 0.007575 
730.318237 0.177469 
732.334229 0.041375 
733.690125 0.011293 
740.91571 0.013413 
744.296509 1.227165 
744.588379 0.01292 
745.30011 0.321819 
758.312805 0.023002 
781.44043 0.010359 
795.648804 0.013323 
797.36499 0.012521 
801.391479 0.067826 
802.39386 0.009323 
803.377991 0.016185 
815.371887 0.219171 
819.4021 0.026594 
829.385803 0.818273 
830.389832 0.222729 
831.398865 0.0072 
857.381897 1.053612 
858.384155 0.255793 
858.813171 0.013582 
876.559448 0.012693 
883.31543 0.009406 
900.459229 0.015982 
900.83783 0.013236 
923.915833 0.013884 
928.452942 0.883273 
929.456787 0.232156 
993.141357 0.01238 
1131.623169 0.008089 
1137.155762 0.014056 
1147.773193 0.006069 
1162.934082 0.011882 
1170.208496 0.012531 
1182.310181 0.011648 
1191.312256 0.01131 
1204.985596 0.007679 
1251.468872 0.006971 
1251.600586 0.015646 
1262.370728 0.014177 
1284.610596 0.014476 
END IONS

