BEGIN IONS
PEPMASS=506.276
CHARGE=1+
COMPOUNDNAME=(2E,6E,12E)-18-(2,6-dioxopiperidin-4-yl)-9,11-dihydroxy-8-methoxy-10,12,14-trimethyl-15-oxooctadeca-2,6,12-trienoic acid
LIBRARYQUALITY=3
SMILES=N/A
INCHIKEY=YQDJUXPUIRGKNV-MNOLRWOYSA-N
INCHI=InChI=1S/C27H41NO8/c1-17(21(29)11-9-10-20-15-23(30)28-24(31)16-20)14-18(2)26(34)19(3)27(35)22(36-4)12-7-5-6-8-13-25(32)33/h7-8,12-14,17,19-20,22,26-27,34-35H,5-6,9-11,15-16H2,1-4H3,(H,32,33)(H,28,30,31)/b12-7+,13-8+,18-14+
MSLEVEL=2
SOURCE_INSTRUMENT=N/A-ESI-QFT
FILENAME=library_mgf.mgf
SEQ=*..*
IONMODE=negative
ORGANISM=MONA
NAME=(2E,6E,12E)-18-(2,6-dioxopiperidin-4-yl)-9,11-dihydroxy-8-methoxy-10,12,14-trimethyl-15-oxooctadeca-2,6,12-trienoic acid [M-H]-
PI=MoNA
DATACOLLECTOR=MoNA:VF-NPL-QEHF001648
PUBMED=N/A
SUBMITUSER=mwang87
TAGS=
SPECTRUMID=CCMSLIB00004692711
SCANS=1648
50.237804 0.016093 
50.654079 0.0112 
50.776089 0.012814 
50.783672 0.011755 
50.963882 0.015171 
51.577969 0.014094 
51.95948 0.018276 
52.000832 0.010215 
52.124493 0.014753 
52.465363 0.012653 
52.497017 0.012165 
52.510681 0.016231 
52.646809 0.008553 
53.01403 0.013059 
53.647713 0.013018 
54.55896 0.013266 
54.612801 0.013053 
54.708355 0.01433 
54.824715 0.013622 
55.588017 0.0122 
55.635426 0.015206 
55.866081 0.01131 
56.040276 0.012523 
56.830059 0.01241 
57.033283 1.294111 
57.115425 0.012505 
57.748421 0.012161 
57.934509 0.013342 
58.004765 0.023837 
58.028481 33.017487 
58.036545 0.014762 
58.293762 0.011554 
58.993618 0.007806 
59.012516 0.286261 
59.017475 0.008411 
59.031876 0.339773 
59.034767 0.042358 
59.209961 0.009001 
59.257931 0.01162 
59.377167 0.014181 
59.881016 0.014322 
61.512154 0.011692 
61.667477 0.019803 
61.711868 0.013229 
61.731213 0.010324 
62.408478 0.012681 
63.125179 0.014506 
63.687592 0.013704 
64.319855 0.01129 
64.445389 0.017246 
64.50975 0.012538 
64.6203 0.012856 
65.015289 0.009136 
65.091316 0.013421 
66.607765 0.008097 
66.945007 0.009971 
67.170517 0.01248 
67.207451 0.017629 
67.250092 0.014046 
67.440201 0.0119 
67.562599 0.011801 
68.608688 0.013841 
68.727394 0.013732 
68.751991 0.013459 
69.033188 0.020708 
69.416527 0.013391 
69.816101 0.013104 
71.048866 0.09171 
71.167046 0.019501 
71.622452 0.011275 
71.673233 0.011682 
71.856987 0.011826 
71.908073 0.011806 
71.980415 0.013736 
72.044006 0.014259 
72.355316 0.017474 
72.757095 0.013743 
73.028168 0.414983 
73.762054 0.01045 
74.14753 0.01345 
75.165298 0.009645 
76.158577 0.01357 
76.250275 0.018937 
77.345139 0.011699 
77.736038 0.008739 
78.239876 0.009222 
78.535515 0.013182 
79.163918 0.010316 
80.619484 0.013989 
81.033195 0.013183 
82.228203 0.013554 
82.562233 0.013138 
83.018661 0.019257 
83.246231 0.012075 
83.423996 0.014056 
83.632576 0.015122 
84.010399 0.01387 
84.020363 0.398166 
84.044189 2.076326 
84.451561 0.012526 
85.028191 100.0 
85.388153 0.015503 
85.570885 0.01333 
85.642975 0.014954 
86.031548 3.499334 
86.582748 0.010478 
87.032684 0.014323 
87.107346 0.012159 
88.888756 0.016641 
89.148041 0.01638 
89.59259 0.015592 
90.043053 0.012449 
90.799538 0.01544 
92.215393 0.011513 
92.570137 0.015443 
92.591347 0.013533 
93.033119 0.012135 
93.069801 0.037982 
93.280296 0.015018 
94.356445 0.012774 
95.048973 7.429237 
96.044273 0.334091 
96.052292 0.116916 
96.420792 0.012495 
97.028275 0.548065 
97.064613 4.134183 
98.259712 0.012193 
99.043884 1.806486 
99.088882 0.013638 
99.169212 0.01561 
99.767746 0.012855 
100.047646 0.008601 
100.328506 0.015558 
100.499191 0.014128 
101.073586 0.011644 
101.252808 0.010411 
102.289429 0.012449 
102.773438 0.00894 
102.802895 0.015172 
102.848991 0.011588 
103.595032 0.009505 
103.964363 0.013204 
105.909508 0.010285 
106.594902 0.009791 
107.049217 0.012331 
108.538467 0.015937 
109.06485 0.038015 
110.023643 0.649728 
110.536827 0.013298 
110.962265 0.013607 
111.08036 0.287577 
112.0756 1.375775 
113.059746 0.01453 
113.323875 0.013328 
113.894157 0.012117 
115.573151 0.013343 
117.305443 0.013767 
117.645424 0.010419 
118.519524 0.013977 
119.04911 0.033266 
120.275337 0.015237 
121.064743 4.467983 
122.068153 0.068262 
122.660538 0.013893 
123.043999 0.042823 
123.080444 0.01711 
124.039276 5.182544 
124.312454 0.014001 
124.416702 0.018216 
125.042778 0.012728 
125.096092 0.445961 
126.573029 0.01403 
127.381149 0.015365 
127.926521 0.009816 
128.393814 0.013377 
129.144592 0.011261 
131.301224 0.013737 
131.498871 0.014304 
133.101151 5.637068 
133.455429 0.014459 
133.933533 0.013625 
134.104584 0.264512 
135.080505 1.66188 
135.453629 0.014341 
135.905762 0.014393 
136.039429 0.268711 
136.075607 0.071523 
136.164719 0.010133 
136.724258 0.013636 
137.059799 1.010299 
137.096085 0.128346 
137.607224 0.015713 
138.055038 0.843813 
138.067719 0.259553 
138.658432 0.014501 
139.075516 0.025849 
139.510345 0.008123 
140.318848 0.013666 
141.619965 0.016618 
142.097046 0.017362 
146.207443 0.008982 
147.564438 0.01448 
148.177399 0.017142 
149.059982 0.015978 
149.148865 0.008836 
149.619431 0.017881 
151.07547 1.272933 
151.111954 0.731484 
151.233002 0.019043 
151.390991 0.013114 
152.107147 0.893436 
153.09111 0.693365 
154.086365 13.034423 
154.093246 0.18655 
154.674393 0.012264 
155.08989 0.788841 
157.52356 0.017056 
158.571075 0.013863 
159.893738 0.01206 
160.50119 0.014559 
161.096283 0.38326 
162.054916 0.023163 
162.222977 0.01075 
164.479568 0.014822 
165.054916 0.128809 
165.649353 0.016177 
166.683792 0.012369 
167.699905 0.014649 
168.738632 0.012596 
169.086197 0.424698 
170.010254 0.016092 
170.287109 0.015844 
171.682129 0.010032 
171.892059 0.0123 
172.129608 0.014354 
173.096268 3.118599 
174.099518 0.071502 
175.112137 0.052753 
175.307129 0.01282 
175.350861 0.01484 
175.584137 0.011293 
177.091248 0.036656 
178.099167 0.356198 
178.824738 0.009277 
179.070618 0.087891 
179.143463 0.199407 
179.75679 0.012785 
180.065811 21.56987 
181.069214 1.779962 
182.081635 0.41507 
183.113922 0.012934 
185.517197 0.011423 
185.922379 0.016309 
189.127731 0.013726 
191.107071 11.307041 
192.110519 1.208321 
193.122864 0.179019 
194.117294 0.012562 
194.883759 0.014689 
196.067856 0.009129 
196.247742 0.010642 
196.907547 0.016011 
197.081223 9.911436 
197.424973 0.00811 
198.084702 0.766211 
198.136917 0.016348 
200.072357 0.013078 
200.519806 0.017619 
201.09169 0.484169 
201.684265 0.021287 
205.158951 0.04487 
205.796677 0.010177 
206.731308 0.009486 
207.308655 0.0143 
208.133743 0.224469 
208.748413 0.00968 
210.113037 2.926898 
210.669296 0.015011 
210.939178 0.015035 
211.116684 0.050298 
211.45932 0.011973 
213.127945 0.308002 
213.294434 0.269821 
213.306396 0.999373 
213.313828 0.618322 
213.325897 0.253162 
215.107315 0.109588 
216.139023 0.155988 
216.983475 0.013479 
219.102341 0.075411 
219.299561 0.00832 
220.250061 0.015821 
222.11319 0.615206 
225.274734 0.012037 
227.479324 0.015217 
228.152908 0.015359 
229.018433 0.00879 
229.160019 0.028385 
229.651688 0.012007 
231.13887 12.807512 
231.882721 0.016896 
232.132614 3.974879 
232.143616 0.148467 
233.093979 0.009384 
233.137634 0.366638 
234.981598 0.014448 
236.847687 0.014345 
237.112961 2.031336 
238.115356 0.014529 
240.018051 0.013491 
240.377808 0.009087 
240.694595 0.018477 
241.370941 0.017233 
246.112946 0.022535 
246.186264 0.057057 
247.170334 0.143124 
247.264938 0.014897 
248.129318 0.014813 
248.165649 0.320424 
250.144791 64.89341 
251.148407 9.267722 
252.151077 0.239795 
255.12381 0.37969 
256.667938 0.014243 
259.401978 0.014191 
259.544495 0.013378 
260.129181 1.692206 
261.133942 0.026845 
264.197601 0.016105 
265.181702 0.027398 
266.595093 0.015502 
268.83667 0.013219 
272.165985 1.526998 
273.168854 0.041896 
276.37738 0.017592 
278.139923 0.640589 
278.471375 0.009008 
278.955505 0.013423 
279.142426 0.037253 
279.283569 0.01721 
279.764526 0.019715 
290.176331 89.736229 
291.179962 16.169481 
292.183136 1.087706 
296.408112 0.013204 
298.198364 0.019364 
298.975311 0.014471 
304.908173 0.015099 
305.265594 0.015519 
308.186951 2.208327 
309.190552 0.13038 
314.497864 0.01476 
314.512512 0.01098 
315.938141 0.017863 
319.820312 0.018208 
321.165131 0.015149 
329.554352 0.017189 
329.995972 0.015805 
334.280884 0.015434 
340.787292 0.015542 
346.988617 0.016447 
348.891052 0.014815 
350.287079 0.015258 
360.125061 0.01775 
360.431793 0.014066 
390.986267 0.012067 
393.995911 0.013623 
404.146973 0.020091 
411.472687 0.015023 
413.715973 0.014912 
419.647339 0.014511 
420.052521 0.015456 
438.40567 0.012337 
442.863556 0.013951 
445.98941 0.019346 
451.199677 0.014114 
460.326935 0.012448 
473.051575 0.016992 
474.506409 0.014807 
475.290314 0.012182 
489.039886 0.01829 
490.873199 0.013616 
499.696716 0.010283 
502.085938 0.013392 
502.588654 0.013025 
512.469055 0.014441 
514.135803 0.0121 
517.798645 0.015984 
529.643677 0.014787 
533.177124 0.017474 
533.592712 0.012673 
END IONS

