BEGIN IONS
PEPMASS=309.0
CHARGE=1+
COMPOUNDNAME=MoNA:2480799 GNF-Pf-2016
LIBRARYQUALITY=3
SMILES=N/A
INCHIKEY=RXWNCPJZOCPEPQ-NVWDDTSBSA-N
INCHI=InChI=1S/C22H29N7O5/c1-28(2)19-17-20(25-10-24-19)29(11-26-17)22-18(31)16(15(9-30)34-22)27-21(32)14(23)8-12-4-6-13(33-3)7-5-12/h4-7,10-11,14-16,18,22,30-31H,8-9,23H2,1-3H3,(H,27,32)/t14-,15+,16+,18+,22+/m0/s1
MSLEVEL=2
SOURCE_INSTRUMENT=LC-ESI-IT-LC-ESI-IT
FILENAME=output_mgf.mgf
SEQ=*..*
IONMODE=
ORGANISM=MONA
NAME=MoNA:2480799 GNF-Pf-2016 [M+H]+
PI=MoNA
DATACOLLECTOR=MoNA
PUBMED=N/A
SUBMITUSER=mwang87
TAGS=
SPECTRUMID=CCMSLIB00000567442
SCANS=4693
86.0 0.06141 
89.1 0.006219 
90.1 0.10613 
91.1 2.069711 
93.1 0.924883 
94.2 0.065566 
95.2 0.051666 
96.1 0.354862 
97.1 0.946392 
99.1 0.013089 
100.2 0.029581 
102.1 0.026896 
103.1 0.358494 
105.1 0.231954 
106.0 0.004818 
107.2 0.233905 
108.1 0.220829 
109.1 0.017112 
112.1 0.07315 
114.1 0.254232 
115.1 0.155982 
117.1 0.796247 
118.1 7.653096 
119.1 0.243079 
120.0 0.020943 
121.1 9.175481 
122.1 0.020307 
123.1 0.756053 
124.0 0.904909 
126.2 0.068961 
127.9 0.054675 
129.9 0.017938 
132.1 0.249323 
133.0 0.333101 
134.0 0.175701 
135.1 0.789138 
136.1 0.116582 
137.1 0.075128 
142.1 1.816261 
143.1 0.040231 
144.1 0.146632 
147.0 0.052413 
148.0 0.018212 
149.1 0.125977 
150.1 100.0 
150.9 0.049093 
159.1 0.014724 
160.1 7.501009 
161.0 0.515529 
162.1 0.056034 
163.1 0.056147 
165.0 0.030892 
166.1 0.140203 
167.1 0.009452 
174.1 0.260535 
174.9 0.0489 
176.1 0.122668 
178.1 0.910703 
179.0 0.114228 
182.0 0.010803 
184.0 0.011757 
186.0 0.050052 
186.9 0.031108 
188.0 0.121358 
189.2 0.109877 
190.1 0.066604 
192.1 1.610741 
195.1 0.134555 
196.1 0.103865 
197.1 0.011475 
198.1 0.107116 
199.1 0.112137 
200.0 0.027713 
202.1 3.758638 
204.1 0.108908 
205.1 0.050548 
206.2 0.077871 
207.0 0.091192 
210.1 0.167121 
211.1 0.034048 
211.9 0.061439 
213.1 0.057382 
214.1 0.184594 
216.1 0.423336 
217.0 0.111704 
218.0 0.029848 
219.1 0.008873 
220.1 0.2227 
222.1 0.693348 
224.4 0.007151 
225.8 0.028615 
228.1 0.477793 
229.1 0.198536 
229.9 0.071417 
231.2 0.167809 
232.1 1.761705 
233.1 0.182855 
234.1 0.107115 
244.2 0.145082 
245.1 0.078904 
246.1 0.949285 
249.2 0.013073 
250.1 0.421188 
255.0 0.012197 
256.2 0.157223 
261.3 0.068878 
262.1 2.3719 
263.1 0.80194 
264.1 2.114839 
273.2 0.446014 
274.1 1.467556 
275.2 0.011281 
279.1 0.034411 
281.2 0.514779 
282.2 0.039978 
291.2 11.234681 
292.2 9.597329 
293.1 0.015931 
309.2 0.212633 
337.1 0.035103 
339.9 0.009903 
347.2 0.020951 
389.8 0.015651 
391.2 0.091766 
418.9 0.008587 
473.2 0.016089 
503.2 0.007498 
END IONS

