BEGIN IONS
PEPMASS=345.134
CHARGE=1+
COMPOUNDNAME=gibberellic acid
LIBRARYQUALITY=3
SMILES=N/A
INCHIKEY=IXORZMNAPKEEDV-OBDJNFEBSA-N
INCHI=InChI=1S/C19H22O6/c1-9-7-17-8-18(9,24)5-3-10(17)19-6-4-11(20)16(2,15(23)25-19)13(19)12(17)14(21)22/h4,6,10-13,20,24H,1,3,5,7-8H2,2H3,(H,21,22)/t10-,11+,12-,13-,16-,17+,18+,19-/m1/s1
MSLEVEL=2
SOURCE_INSTRUMENT=N/A-ESI-QFT
FILENAME=library_mgf.mgf
SEQ=*..*
IONMODE=negative
ORGANISM=MONA
NAME=gibberellic acid [M-H]-
PI=MoNA
DATACOLLECTOR=MoNA:VF-NPL-QEHF000259
PUBMED=N/A
SUBMITUSER=mwang87
TAGS=
SPECTRUMID=CCMSLIB00004691322
SCANS=259
51.276146 0.020336 
52.142395 0.025646 
52.912334 0.020709 
52.950863 0.021804 
53.238815 0.019353 
54.284477 0.018736 
54.601986 0.021032 
54.983494 0.023667 
55.017536 0.053092 
55.408546 0.019334 
55.410191 0.019319 
55.449612 0.016982 
55.804008 0.021501 
56.314182 0.019192 
56.807499 0.017185 
57.033211 0.62457 
58.768299 0.017418 
58.876827 0.020766 
59.012501 0.464124 
59.178177 0.021436 
59.183384 0.022706 
59.32074 0.020838 
59.561707 0.021299 
60.991749 0.294955 
61.622555 0.024523 
63.1395 0.020358 
63.354511 0.037526 
64.385849 0.019467 
64.471077 0.019544 
65.97316 0.020878 
67.348221 0.019871 
68.533478 0.021365 
68.547379 0.02477 
69.033241 0.236913 
69.63089 0.025275 
70.731232 0.01953 
71.016594 0.022425 
71.048904 24.676014 
72.052261 1.09489 
72.519371 0.019235 
72.887886 0.018138 
72.993263 0.023121 
73.028175 5.558004 
73.701424 0.018953 
75.756516 0.019505 
77.082085 0.023461 
78.259216 0.02006 
80.095222 0.019971 
80.571747 0.024243 
82.056213 0.020015 
82.426964 0.019767 
82.808617 0.019722 
83.019684 0.024628 
83.048927 17.73311 
84.052261 0.961175 
85.028275 0.022246 
87.171448 0.022382 
88.734711 0.018681 
91.137627 0.022251 
92.853218 0.024734 
93.211517 0.020894 
93.856911 0.02311 
94.103645 0.022707 
95.048889 0.210951 
96.42498 0.020568 
96.983543 0.019289 
97.064224 0.024699 
97.250282 0.019742 
98.952469 0.022446 
102.104576 0.024754 
104.298195 0.019008 
104.592484 0.02173 
105.014969 0.020376 
105.069702 0.498633 
107.048904 0.098235 
108.588066 0.019195 
113.581169 0.032986 
113.874588 0.022696 
114.865417 0.021875 
119.085579 0.045895 
121.711014 0.019391 
122.829582 0.019828 
123.071182 0.020421 
123.639076 0.019394 
124.931473 0.02378 
127.91404 0.019975 
133.064636 0.13742 
134.649338 0.021282 
136.474594 0.022551 
138.260361 0.019615 
140.043777 0.020145 
141.288788 0.021364 
142.070374 0.019337 
143.085556 100.0 
144.088913 12.068233 
145.065155 0.026047 
145.092209 0.543771 
145.100662 0.025748 
146.072601 0.066063 
147.347 0.02102 
148.165894 0.021092 
148.537613 0.024023 
149.095718 0.04476 
155.085587 0.522918 
157.064804 0.10827 
158.887253 0.02366 
159.080475 1.033278 
160.08374 0.022596 
161.059982 0.070758 
161.089066 0.046984 
161.096237 7.014024 
161.114899 0.023879 
162.099594 0.814301 
169.06488 0.032012 
169.101379 0.245365 
171.080536 0.440358 
171.213394 0.023353 
173.096329 0.836996 
175.075653 0.029171 
183.080765 0.86481 
183.116928 0.189441 
184.083679 0.026102 
184.651489 0.027539 
185.096375 1.250622 
186.099808 0.022923 
187.07576 0.169395 
187.112274 0.025232 
189.090012 0.02356 
189.429092 0.023683 
193.101303 0.135356 
193.324875 0.022173 
196.712082 0.021252 
197.09639 0.808632 
197.132965 1.398019 
198.068283 0.097384 
198.136307 0.02477 
198.560928 0.023495 
199.075729 0.194683 
199.112259 1.803992 
200.115631 0.046965 
201.091446 0.08541 
201.127853 3.506013 
202.131042 0.434064 
203.106003 0.029414 
204.971069 0.022021 
209.096527 0.075765 
211.112335 0.24758 
212.116226 0.025111 
213.128021 4.11233 
213.227341 0.019835 
213.890518 0.022259 
214.131088 0.625892 
215.107224 0.136269 
215.1436 0.636155 
215.579849 0.12762 
215.601257 0.709259 
215.619629 0.146122 
216.148315 0.027321 
218.443207 0.019445 
218.710632 0.021129 
219.117355 0.101062 
221.133072 41.845093 
222.136429 7.54541 
223.112473 0.219941 
223.139236 0.441823 
223.149689 0.026658 
224.119141 0.020031 
225.091446 0.100465 
227.107422 18.592108 
228.110687 3.188328 
228.37059 0.02068 
228.645264 0.022472 
229.12381 0.027159 
234.796692 0.024639 
235.11232 0.224001 
237.128281 1.692905 
238.131424 0.054694 
239.143951 19.424452 
240.147324 3.705259 
241.12326 0.214501 
241.149536 0.052323 
242.12851 0.023955 
243.065933 0.230108 
245.117844 0.066809 
251.107513 0.153889 
253.123154 1.627082 
254.126373 0.123754 
255.102539 0.173484 
255.139221 1.889336 
256.142059 0.155405 
257.118256 0.184292 
257.154755 7.194814 
258.158173 1.382747 
259.17041 0.336427 
265.123413 0.528523 
271.097656 7.245476 
271.13324 0.096476 
272.101257 1.311015 
273.113922 0.311677 
273.149658 0.664056 
283.134033 4.39371 
283.265564 0.051523 
284.137695 0.905279 
285.150299 0.184846 
301.1091 0.052857 
301.144745 5.502274 
301.180511 0.022304 
301.369812 0.025189 
302.14801 1.117402 
303.159882 0.178248 
322.710632 0.023167 
325.18454 1.95554 
326.187592 0.234618 
327.123718 0.999181 
327.560944 0.020704 
327.793884 0.023087 
329.138092 0.118809 
333.624817 0.021575 
339.200012 0.654569 
339.282928 0.021826 
340.202087 0.027781 
345.134338 11.223527 
345.170074 0.075728 
346.137939 2.339336 
347.150635 1.70241 
347.186768 0.348954 
348.153748 0.171854 
348.190002 0.023965 
361.165436 0.056507 
363.181915 0.580104 
378.932465 0.029904 
379.500732 0.02294 
385.52356 0.025294 
END IONS

