BEGIN IONS
PEPMASS=271.061
CHARGE=1+
COMPOUNDNAME=Massbank:FIO00060 Emodin
LIBRARYQUALITY=3
SMILES=Cc(c3)cc(c(=O)1)c(c(O)3)c(=O)c(c(O)2)c(cc(O)c2)1
INCHIKEY=RHMXXJGYXNZAPX-UHFFFAOYSA-N
INCHI=1S/C15H10O5/c1-6-2-8-12(10(17)3-6)15(20)13-9(14(8)19)4-7(16)5-11(13)18/h2-5,16-18H,1H3
MSLEVEL=2
SOURCE_INSTRUMENT=ESI-LC-ESI-QTOF
FILENAME=Massbank_ESI_positive_8_1_2014_peaks.mgf
SEQ=*..*
IONMODE=Positive
ORGANISM=MASSBANK
NAME=Massbank:FIO00060 Emodin [M+H]+
PI=Putative Massbank Match
DATACOLLECTOR=Massbank
PUBMED=N/A
SUBMITUSER=mwang87
TAGS=
SPECTRUMID=CCMSLIB00000213694
SCANS=6425
115.0543 628.0 
135.044 537.0 
137.0235 300.0 
141.0699 2568.0 
142.0733 283.0 
145.0648 534.0 
151.0542 151.0 
152.062 101.0 
155.0493 272.0 
159.0803 105.0 
168.0566 299.0 
169.0647 4029.0 
170.0679 442.0 
173.0595 1333.0 
174.0631 148.0 
179.0495 153.0 
183.0439 217.0 
187.0386 135.0 
196.052 121.0 
197.0595 9580.0 
198.0629 1201.0 
201.0543 1058.0 
202.058 128.0 
203.0701 100.0 
225.0543 5130.0 
226.0578 662.0 
229.0494 1081.0 
230.0534 139.0 
243.0648 219.0 
253.0497 277.0 
271.0601 3354.0 
272.0631 532.0 
END IONS

