BEGIN IONS
TITLE=Scan Number: 1
PEPMASS=219.108
CHARGE=1+
COMPOUNDNAME=N-acetyl-5-hydroxytryptamine
LIBRARYQUALITY=3
SMILES=OC1=CC=C(NC=C2CCNC(C)=O)C2=C1
INCHIKEY=PIJVFDBKTWXHHD-UHFFFAOYSA-N
INCHI=InChI=1S/C15H21N3O2/c1-15-7-8-17(3)13(15)18(4)12-6-5-10(9-11(12)15)20-14(19)16-2/h5-6,9,13H,7-8H2,1-4H3,(H,16,19)
MSLEVEL=2
SOURCE_INSTRUMENT=DI-ESI-qTof
FILENAME=f.rsilva/q_tof_25_05/gnps_Physostigmine_pos_MplusHminus57.mgf;
SEQ=*..*
NOTES=
IONMODE=Positive
ORGANISM=GNPS-LIBRARY
NAME=N-acetyl-5-hydroxytryptamine M+H
SPECTRUMID=CCMSLIB00000081266
ACTIVATION=CID
INSTRUMENT=ion trap
SCANS=1
147.060715 3755.0 
158.990845 1013.0 
162.084854 138267.0 
163.08905 8483.0 
219.107986 8708.0 
END IONS

