BEGIN IONS
PEPMASS=339.253
CHARGE=1+
COMPOUNDNAME=Aphidicolin
LIBRARYQUALITY=3
SMILES=N/A
INCHIKEY=NOFOAYPPHIUXJR-APNQCZIXSA-N
INCHI=InChI=1S/C20H34O4/c1-17(11-21)15-4-3-13-9-14-10-19(13,7-8-20(14,24)12-22)18(15,2)6-5-16(17)23/h13-16,21-24H,3-12H2,1-2H3/t13-,14+,15-,16+,17-,18-,19-,20-/m0/s1
MSLEVEL=2
SOURCE_INSTRUMENT=N/A-ESI-QFT
FILENAME=library_mgf.mgf
SEQ=*..*
IONMODE=positive
ORGANISM=MONA
NAME=Aphidicolin [M+H]+
PI=MoNA
DATACOLLECTOR=MoNA:VF-NPL-QEHF004581
PUBMED=N/A
SUBMITUSER=mwang87
TAGS=
SPECTRUMID=CCMSLIB00004695644
SCANS=4581
50.016064 0.049164 
50.042095 0.057707 
50.906525 0.061848 
51.07819 0.05862 
51.958485 0.059259 
52.480766 0.037169 
52.728302 0.048902 
53.002995 0.677104 
53.039375 2.197432 
53.343735 0.036009 
53.362713 0.04434 
53.549503 0.044852 
53.697075 0.070947 
54.194862 0.064419 
54.527615 0.060237 
54.73275 0.059643 
55.018639 6.577257 
55.053558 0.245 
55.055031 21.785669 
55.08667 0.063432 
55.860596 0.048544 
55.961857 0.065419 
56.050251 2.752987 
56.058353 0.587004 
56.14341 0.051738 
56.583534 0.03555 
56.965538 0.975276 
57.034294 1.783243 
57.057953 0.073183 
57.070675 10.759815 
57.542084 0.051542 
57.999222 0.062007 
58.065922 30.514727 
58.073971 0.07054 
58.489914 0.062802 
59.049927 1.95985 
59.061092 0.128424 
59.069283 0.441135 
59.123798 0.058046 
59.83707 0.053255 
59.963184 0.063574 
60.045193 0.127481 
60.08157 6.403229 
60.769276 0.043358 
60.935711 0.062012 
61.011402 2.149519 
61.029457 0.078782 
62.019249 0.120478 
62.053406 0.040957 
62.060825 0.065418 
62.121796 0.058008 
62.161648 0.052432 
62.549152 0.039455 
62.982273 0.079208 
62.990555 0.086336 
64.933228 0.059255 
65.039299 0.764489 
65.084625 0.055589 
65.271362 0.057567 
65.559166 0.059996 
66.150185 0.063836 
66.792915 0.04119 
67.054977 15.159096 
67.219688 0.041742 
67.406593 0.080595 
67.932442 0.063792 
68.050194 1.568475 
68.058266 0.336139 
68.997726 0.176405 
69.009293 0.039056 
69.034225 5.208162 
69.070618 10.741222 
70.02948 0.245028 
70.065842 6.724557 
70.433388 0.0507 
70.980988 0.054375 
71.030617 0.04476 
71.049835 2.564004 
71.086243 2.762595 
71.316124 0.065258 
71.980827 0.042178 
72.04509 2.547655 
72.081474 0.417545 
72.537857 0.048069 
73.008507 0.052556 
73.028603 0.045358 
73.047501 0.924949 
73.065521 0.108371 
73.22213 0.056415 
74.097 0.033134 
74.700714 0.064914 
77.039238 0.086422 
77.733238 0.03958 
79.02179 0.558285 
79.054909 15.122185 
79.866325 0.035952 
80.01384 0.040365 
80.050095 2.035935 
80.058212 0.610435 
81.034058 1.784653 
81.057861 0.560552 
81.070541 14.672157 
82.029335 0.059084 
82.065788 5.099623 
82.073776 0.490053 
82.463097 0.065914 
83.049751 3.568003 
83.073639 0.319507 
83.086182 6.467336 
83.588547 0.037412 
84.044937 0.635586 
84.066231 0.062586 
84.081383 15.936296 
84.089478 0.080416 
84.143661 0.058082 
84.574493 0.06123 
84.917229 0.036002 
85.003311 0.063882 
85.029015 0.295526 
85.065346 1.450394 
85.084717 0.225083 
85.10186 0.102931 
85.405121 0.066847 
86.060593 0.455872 
86.096977 0.474311 
86.749176 0.054886 
86.752708 0.057491 
86.787498 0.061226 
87.00808 0.069939 
87.044586 0.825264 
88.040062 0.119058 
89.060318 0.213648 
90.055511 1.132398 
90.456261 0.064514 
91.054779 14.030073 
91.057899 4.174786 
91.066002 0.065721 
91.987381 0.058908 
92.049484 0.049792 
92.057999 0.547373 
92.983299 0.058216 
93.033989 0.059879 
93.070427 10.716617 
93.452667 0.067453 
94.029228 0.533859 
94.047661 0.041595 
94.065666 6.125984 
94.073677 0.457595 
94.538834 0.055893 
94.949799 0.043496 
94.978661 0.04734 
95.013275 0.568974 
95.049652 6.091491 
95.060593 0.056229 
95.073357 0.417892 
95.086006 10.867566 
95.887573 0.03733 
96.044991 0.818192 
96.081284 7.715926 
96.08931 0.426317 
97.028778 0.187638 
97.065277 3.990248 
97.076538 0.105943 
97.084831 0.075852 
97.08902 0.062652 
97.101616 1.150047 
98.024193 0.237467 
98.060493 0.642331 
98.068367 0.049466 
98.084229 0.127567 
98.096886 3.869945 
99.044548 0.346361 
99.080742 0.076437 
99.804146 0.072521 
100.076233 0.203321 
100.112465 1.465699 
100.871346 0.065392 
100.948868 0.070023 
101.060097 0.214202 
101.429764 0.047305 
101.950279 2.014717 
102.091728 0.360075 
102.954674 0.049764 
103.039368 0.128177 
103.054604 2.817887 
105.033875 0.290494 
105.045128 0.566159 
105.070305 25.01973 
105.483322 0.04933 
105.671562 0.048468 
106.065506 2.568088 
106.07357 1.525393 
106.571968 0.058801 
107.049545 24.573563 
107.069099 0.047694 
107.073288 1.020308 
107.085915 5.422424 
108.044685 0.254519 
108.052933 0.686158 
108.081062 2.556145 
108.088943 0.079949 
109.028755 0.424183 
109.065063 2.717357 
109.08886 0.450625 
109.101501 2.885847 
109.634819 0.060079 
110.024025 3.435893 
110.060242 1.992105 
110.068695 0.052263 
110.096695 1.002432 
111.044365 0.862493 
111.080727 0.584317 
111.092041 0.060859 
111.713852 0.053747 
112.039383 0.09811 
112.706841 0.058685 
113.060333 0.070447 
113.644241 0.042176 
114.091896 0.103715 
115.054489 2.32372 
116.034538 2.423621 
116.038605 0.052421 
117.057617 0.44527 
117.070236 5.442064 
117.515808 0.039299 
118.065445 0.747279 
119.049461 3.110934 
119.074135 0.065454 
119.085838 5.046803 
119.96067 0.901491 
120.044586 0.37373 
120.081009 4.039379 
120.089226 0.055549 
121.028717 0.574463 
121.065002 2.864886 
121.084175 0.192453 
121.088768 0.222484 
121.101456 1.805724 
122.060234 3.291752 
122.09671 5.668046 
123.044205 1.515054 
123.068138 0.708173 
123.080666 1.149794 
123.099846 0.224434 
123.117249 0.043658 
124.039497 0.700159 
124.076096 0.333305 
124.112267 2.57538 
124.474342 0.064321 
125.059975 0.135699 
125.096214 0.062239 
125.115974 0.069626 
125.728218 0.061136 
126.055359 0.1731 
126.583794 0.042255 
128.062134 1.214152 
129.070084 4.762663 
130.065353 1.132381 
130.077835 0.178594 
130.48143 0.070792 
131.049271 7.476085 
131.073151 0.412285 
131.085632 5.069372 
131.881897 0.058582 
132.044556 0.155915 
132.05191 0.053643 
132.080795 2.100409 
133.052383 0.518395 
133.064835 1.894985 
133.088974 0.116499 
133.101242 2.851381 
133.876007 0.053027 
134.060272 5.35461 
134.096573 1.493673 
134.104477 0.069855 
135.044022 0.272504 
135.067841 0.076592 
135.080475 0.663091 
135.117065 0.685518 
136.039551 0.045664 
136.061783 0.497009 
136.075668 2.407284 
136.112167 2.382263 
137.01181 2.695471 
137.05957 0.069449 
137.083618 0.17305 
137.096298 0.208655 
137.97113 0.335748 
138.054977 0.423536 
138.127762 1.10573 
139.03894 0.053437 
139.111496 0.075537 
140.034378 0.071814 
141.069962 1.079514 
142.065262 0.247578 
142.077789 1.991789 
143.048965 0.147633 
143.073563 0.062284 
143.085556 2.226133 
143.528992 0.045714 
143.536163 0.053885 
143.541687 0.044712 
144.057251 0.054763 
144.080795 0.668221 
145.028458 1.911648 
145.052063 0.245929 
145.064819 4.496531 
145.101288 4.665496 
146.060104 4.477747 
146.096664 0.466406 
146.10437 0.280815 
147.044083 0.135478 
147.068024 0.803441 
147.080399 1.200547 
147.116898 2.062422 
148.07576 14.556576 
148.112259 0.308406 
149.059692 0.175499 
149.078079 0.071567 
149.083801 0.920975 
149.095932 0.243416 
149.107224 0.080913 
150.055206 0.353345 
150.091385 3.107297 
150.097733 0.055662 
150.127823 0.895969 
150.950882 0.044948 
151.514114 0.047707 
152.062195 0.140942 
152.070908 0.13482 
152.10675 0.10905 
153.069916 0.170043 
153.091858 0.074473 
154.065186 0.193952 
154.077576 0.787368 
154.122498 0.15301 
155.022324 1.792489 
155.060272 0.079356 
155.072784 0.288724 
155.085602 0.230438 
156.043961 0.065754 
156.08075 0.471793 
156.093063 0.078847 
157.05278 0.048024 
157.064865 1.132673 
157.101288 2.153939 
158.060196 4.291512 
158.096512 0.120684 
159.044174 1.074316 
159.068146 0.327835 
159.080475 0.814456 
159.116852 1.389853 
159.615707 0.074989 
160.07576 9.177593 
160.112137 0.385901 
161.059799 1.055802 
161.096161 0.470001 
162.055023 8.214417 
162.091385 2.179137 
162.127548 0.067162 
163.039352 0.067817 
163.07515 0.334539 
163.099304 0.358626 
163.111053 0.075389 
164.070602 0.328141 
164.10701 0.134046 
165.069885 0.146195 
165.114227 0.079055 
166.065125 0.231774 
166.122726 0.07904 
167.073608 0.204393 
167.085648 0.472398 
168.138275 0.168124 
169.051285 0.053118 
169.101212 0.494569 
170.060074 3.626817 
170.072693 0.125729 
171.044067 1.127525 
171.068024 5.066239 
171.104446 0.075229 
172.075882 5.115643 
173.059738 0.141711 
173.083832 0.289854 
174.055069 1.057187 
174.0914 1.923752 
175.063416 0.044399 
175.07518 0.065381 
175.111816 0.289998 
176.071045 0.571599 
176.107086 0.50195 
177.05394 0.054721 
177.12706 0.151837 
178.122849 0.39131 
179.085464 0.059416 
179.131104 0.136503 
180.017914 0.099312 
180.080872 0.40429 
181.064453 0.082747 
181.110275 0.087113 
181.134186 0.060758 
182.059937 0.087378 
183.067841 1.070462 
184.075729 2.869201 
184.110291 0.056992 
185.059891 0.240593 
185.095825 0.332489 
186.054993 2.33299 
186.091476 2.218179 
187.039185 0.470156 
187.062866 0.521401 
187.075943 0.054809 
187.11174 0.251153 
188.07077 6.056954 
188.079727 0.098205 
188.107086 0.277562 
189.054794 0.292358 
189.547302 0.058123 
190.086258 0.07281 
190.122894 0.10496 
190.368637 0.05121 
192.102051 0.161074 
194.060242 0.372529 
194.155197 0.074618 
195.079666 0.140339 
196.075851 0.571908 
197.083374 0.154741 
198.055038 2.25145 
198.091339 1.997623 
198.229202 0.064373 
199.038788 0.764038 
199.063034 0.134137 
200.070877 0.78484 
200.107025 0.43816 
202.086288 6.027793 
203.057999 0.062029 
203.106201 0.070502 
204.065582 2.906234 
204.081345 0.048544 
204.138351 0.993572 
206.117615 0.233363 
207.145584 0.085567 
208.075287 0.165721 
208.111496 0.049902 
210.0914 1.030381 
211.062851 0.085409 
212.070801 2.396056 
212.107361 0.314719 
214.086411 1.045183 
215.207855 0.04889 
216.065598 100.0 
216.138351 0.261711 
217.069031 8.201235 
218.081787 0.109837 
218.892181 0.047304 
219.081665 0.057869 
219.999603 0.383084 
220.009766 0.40659 
220.018921 0.058979 
220.02565 0.080088 
223.065918 0.047639 
224.070724 7.753518 
224.107285 0.295827 
225.07843 0.483727 
226.086136 3.128701 
226.123779 0.100289 
228.065735 0.507557 
228.101929 0.641516 
230.081177 24.638613 
231.084518 1.762316 
232.932678 0.086124 
234.149826 0.119526 
235.075531 0.056829 
238.050583 0.132389 
238.086212 0.712772 
239.093796 0.068064 
240.102402 0.142237 
240.909103 0.268689 
241.073242 0.325445 
242.081192 1.520364 
244.09697 11.405404 
245.100204 0.532293 
246.223373 0.069998 
248.069946 0.065188 
250.009094 0.061538 
250.086761 0.179316 
251.09375 0.06236 
252.101562 0.188824 
253.606949 0.050833 
254.081085 0.187033 
256.096527 4.228085 
257.099701 0.148883 
258.112427 3.044528 
260.201202 0.181277 
263.094452 0.132188 
265.073456 1.143846 
265.101196 0.796534 
266.291016 0.058265 
270.111328 0.113401 
275.09433 0.071883 
276.097137 0.207731 
276.195557 0.2159 
277.101379 1.820241 
278.080963 2.91177 
278.106476 0.073118 
279.08725 10.032923 
280.086975 18.23098 
281.090759 0.418482 
281.099701 0.357859 
281.186951 0.064649 
281.813873 0.074827 
282.075714 0.118428 
284.051117 0.058292 
288.121155 0.069829 
288.19574 0.444902 
289.199249 0.073115 
291.088409 0.389026 
291.109711 0.043002 
292.058716 0.060038 
292.096069 2.993811 
293.100159 6.042366 
294.076141 0.250797 
294.102875 26.854656 
294.126923 0.075804 
295.082977 0.111758 
295.106445 2.070033 
296.05603 0.268464 
296.127838 0.60614 
297.123444 0.239398 
304.114655 0.053066 
305.100128 0.998782 
306.076233 0.049373 
306.080078 0.051559 
306.102875 10.879653 
307.083435 5.361645 
307.105408 0.739596 
308.083191 8.813255 
308.349396 0.057402 
309.091156 1.436313 
319.079559 0.476114 
320.082397 10.448933 
321.096222 3.519206 
322.097778 39.112362 
323.079346 0.224522 
323.102142 4.17285 
324.123169 6.871795 
325.126465 0.961747 
328.729614 0.056906 
338.093842 0.18169 
338.278046 0.076564 
339.206787 0.377698 
339.337036 0.996425 
340.39209 0.052792 
345.712189 0.077503 
347.291718 0.046857 
361.074493 0.054044 
END IONS

