BEGIN IONS
PEPMASS=547.247
CHARGE=1+
COMPOUNDNAME=(2E,4E)-1-[(2R,6S,14S,22S,25R)-25-(3,3-dimethyloxiran-2-yl)-15-methyl-1,3,13,15-tetraazaheptacyclo[18.4.1.0�,?.0?,��.0?,��.0�?,��.0�?,��]pentacosa-7,9,11,16(21),17,19-hexaen-3-yl]hexa-2,4-dien-1-one
LIBRARYQUALITY=3
SMILES=N/A
INCHIKEY=XZFSMUXVAYCHFO-QREHLELFSA-N
INCHI=InChI=1S/C32H36N4O2/c1-5-6-7-15-24(37)35-18-16-31-21-12-8-9-13-22(21)33-28-32(31)17-19-36(29(31)35)26(27-30(2,3)38-27)20-11-10-14-23(25(20)32)34(28)4/h5-15,26-29,33H,16-19H2,1-4H3/b6-5+,15-7+/t26-,27?,28+,29+,31-,32-/m1/s1
MSLEVEL=2
SOURCE_INSTRUMENT=N/A-ESI-QFT
FILENAME=library_mgf.mgf
SEQ=*..*
IONMODE=positive
ORGANISM=MONA
NAME=(2E,4E)-1-[(2R,6S,14S,22S,25R)-25-(3,3-dimethyloxiran-2-yl)-15-methyl-1,3,13,15-tetraazaheptacyclo[18.4.1.0�,?.0?,��.0?,��.0�?,��.0�?,��]pentacosa-7,9,11,16(21),17,19-hexaen-3-yl]hexa-2,4-dien-1-one [M+K]+
PI=MoNA
DATACOLLECTOR=MoNA:VF-NPL-QEHF021752
PUBMED=N/A
SUBMITUSER=mwang87
TAGS=
SPECTRUMID=CCMSLIB00004712815
SCANS=21752
50.145664 0.047945 
50.764229 0.049035 
51.368912 0.401129 
51.622875 0.047172 
51.645138 0.047556 
51.657764 0.177806 
52.814072 0.400082 
53.975998 0.138906 
55.018177 0.084053 
55.040936 0.046453 
55.054531 1.180831 
55.940495 0.055759 
56.173882 0.114872 
56.401081 0.189848 
56.965092 0.53603 
57.033775 4.353919 
57.070145 4.550808 
57.465492 0.047864 
58.037117 0.239107 
58.039627 0.306305 
59.049423 0.589209 
59.380779 0.052335 
59.5224 0.611174 
60.683578 0.126109 
60.778679 0.054197 
61.010872 2.989286 
61.213444 0.120016 
62.027485 0.126682 
62.581085 0.129458 
62.721607 0.058933 
63.154709 0.219922 
64.391586 0.277193 
65.038727 3.386769 
65.988716 0.045742 
66.749748 0.051845 
67.054359 42.525757 
68.057709 0.993628 
69.033585 0.058396 
69.069962 0.508015 
69.456551 0.048182 
69.560356 0.221788 
69.805626 0.513978 
69.948021 0.117071 
71.085571 2.600444 
71.501228 0.434325 
73.046814 0.487879 
73.161041 0.251427 
73.480629 0.295985 
74.420235 0.199241 
74.898651 0.309487 
74.994736 0.047073 
76.083618 1.017442 
78.415749 0.135853 
79.021194 0.117649 
79.054237 0.066546 
80.023705 0.046156 
80.26564 0.050854 
80.759758 0.471188 
80.762909 0.047046 
81.069878 0.767828 
81.146645 0.058293 
81.660858 0.203118 
81.880936 0.060319 
82.143211 0.338404 
82.738342 0.202808 
83.049179 2.510728 
83.085632 0.053939 
84.052551 0.213318 
85.028488 4.973305 
85.064781 0.224799 
85.101227 0.793367 
85.813789 0.252605 
86.031822 0.437954 
86.184647 0.49399 
87.044136 0.783942 
87.54808 0.205408 
88.016441 0.122253 
89.059738 3.974244 
90.947777 0.153482 
91.054398 0.19177 
91.05735 2.146619 
92.092346 0.462557 
93.069824 0.309282 
93.725136 0.054755 
93.757072 0.156497 
94.065437 0.060584 
94.765953 0.460135 
95.049126 77.327766 
95.085625 0.373625 
96.052444 3.703437 
98.060104 0.047823 
100.997421 0.612759 
102.948151 0.725939 
105.03376 0.233751 
106.278725 0.053459 
106.327019 0.642878 
107.049149 25.418474 
107.085617 0.086619 
107.92189 0.360516 
108.052742 0.07263 
109.028694 0.144324 
109.101151 0.121646 
110.882103 0.542769 
111.044022 1.661067 
111.393585 0.405305 
111.88826 0.595909 
112.047409 0.147842 
112.075729 0.077211 
112.261139 0.358588 
112.808502 0.214012 
113.261871 0.523144 
113.281281 0.206373 
116.038551 0.552832 
116.192436 0.528626 
116.741867 0.067744 
116.963448 0.096557 
117.589439 0.04666 
118.065224 0.065101 
119.085693 0.128365 
120.958755 0.167658 
121.065002 1.769602 
123.143646 0.551299 
124.076485 0.128653 
125.482651 0.164655 
125.98111 0.498127 
128.963669 0.175812 
130.06514 10.327342 
130.979462 0.210899 
131.000168 0.074798 
131.060608 0.060331 
131.068375 1.187549 
131.073166 0.578651 
132.080795 0.478226 
132.942825 0.145306 
132.958313 0.053637 
133.085541 0.151942 
134.955963 0.057607 
134.974136 0.070328 
134.996185 0.127051 
135.043884 0.124893 
135.080933 0.048199 
136.404419 0.504316 
136.725967 0.554843 
136.848984 0.054374 
137.116928 0.592411 
137.995026 0.05092 
138.091385 0.155261 
140.412918 0.056155 
141.737976 0.445852 
142.065475 0.053922 
143.000275 0.054681 
143.072998 1.82762 
144.080872 15.230922 
144.995285 0.086369 
145.015686 0.36859 
145.03157 0.052525 
145.084244 1.967978 
145.411163 0.423691 
146.057617 100.0 
146.974396 1.890221 
147.054901 0.089707 
147.060883 17.470215 
147.080215 0.188374 
147.200272 0.13599 
148.063354 0.050146 
148.972015 0.123023 
149.044891 0.052847 
149.059677 3.695176 
150.661179 0.200583 
150.95108 0.371593 
151.074768 0.052768 
151.439453 0.347556 
152.951584 0.827272 
153.959335 2.012969 
154.065216 0.253538 
155.438553 0.051777 
155.954407 0.258202 
156.080688 1.786451 
156.799255 0.333468 
157.076218 2.152216 
157.083282 0.14804 
158.06015 0.234377 
158.084 1.115229 
158.096359 1.878062 
158.995667 0.083962 
159.091751 60.349915 
160.036667 0.401691 
160.075684 0.14163 
160.088074 0.147095 
160.094955 14.539368 
160.990036 0.848426 
161.011353 0.057882 
161.091568 0.077246 
161.098312 1.348908 
162.052551 3.26854 
163.00563 0.218957 
163.086456 0.071577 
163.11174 1.276575 
163.976944 0.065462 
164.067337 0.688906 
164.987869 0.925983 
165.055618 0.052553 
165.183487 0.417783 
167.055527 1.108664 
167.073059 0.122949 
167.693344 0.051453 
168.068436 0.06756 
168.080917 8.677493 
168.982635 0.062908 
169.076035 5.26484 
169.084213 3.44334 
170.079498 0.214793 
170.087845 0.080838 
170.096512 2.599771 
170.961899 0.078793 
171.031113 0.067581 
171.091995 5.666834 
171.099396 0.768185 
172.075958 0.436906 
172.095001 0.661469 
172.112091 0.332799 
172.36673 0.151012 
173.01059 0.265847 
173.107437 0.418814 
174.091309 0.067191 
174.990021 0.74305 
175.087051 0.057884 
176.598175 0.138452 
176.987915 1.680307 
177.005508 0.561679 
178.569061 0.148054 
178.587677 0.051864 
178.982925 0.543515 
179.001328 0.147307 
179.573441 0.118567 
180.080643 0.547662 
180.917694 0.162346 
181.051208 0.072434 
181.075012 0.319327 
181.088684 2.304718 
182.060257 0.06538 
182.083893 1.17722 
182.096359 2.53902 
183.068176 0.057471 
183.091812 14.531813 
183.099686 0.82427 
184.062714 0.066569 
184.075562 0.770811 
184.095352 4.400067 
184.110535 0.173908 
185.010849 0.086872 
185.047287 0.059318 
185.070786 3.638082 
185.107437 39.891014 
185.949265 0.660376 
186.043518 0.082439 
186.078934 1.642543 
186.091156 0.335138 
186.110931 9.425708 
187.086441 4.659319 
187.094345 0.057126 
187.114349 1.355217 
187.976257 0.321571 
188.08989 0.279197 
189.0056 1.508248 
191.001266 1.061509 
191.880707 0.44136 
192.9617 0.151764 
193.076706 0.166634 
194.096542 0.627513 
195.091553 1.536273 
195.101227 0.073499 
196.076035 0.502618 
196.099152 0.841277 
196.111694 1.244509 
197.071259 0.359115 
197.10733 11.247311 
197.115997 0.627256 
198.080261 0.062867 
198.091187 0.672771 
198.114502 7.794657 
198.126709 0.361041 
198.878616 0.067401 
199.026535 0.082227 
199.086548 0.866254 
199.096039 0.21883 
199.120773 3.776657 
200.106674 0.288789 
200.123169 0.730806 
201.102066 2.884357 
201.110626 0.058495 
201.994232 0.06439 
203.021423 0.239059 
203.082336 0.063816 
205.06076 0.603074 
205.987656 2.697717 
206.094055 0.054005 
207.091553 3.48941 
207.875916 0.206894 
208.005386 0.062868 
208.099564 5.223369 
208.111404 0.553727 
208.713272 0.483739 
208.883514 1.43404 
209.07106 0.145121 
209.107056 2.170677 
209.891434 0.692641 
210.079788 0.156239 
210.091171 0.34198 
210.115723 0.40554 
210.127945 0.897564 
210.899567 0.141608 
210.97226 0.200939 
211.086639 1.232551 
211.098755 0.063667 
211.121658 0.170956 
211.131943 0.193149 
212.094406 1.183574 
212.106506 0.146882 
212.917114 9.904346 
212.922531 10.717009 
213.101974 1.523987 
214.105713 0.05746 
215.026703 0.087409 
215.081207 0.084075 
215.117935 4.063742 
215.578644 0.231256 
216.121216 0.870834 
216.889053 0.09095 
217.00563 0.171598 
217.09758 0.053695 
217.990005 0.278738 
219.174515 0.437399 
219.378937 0.215085 
220.005768 0.099746 
220.099304 0.15548 
220.112198 0.143654 
220.903427 0.097757 
221.070847 0.133215 
221.084656 0.056846 
221.107315 5.796085 
221.117218 0.136438 
222.078735 0.391068 
222.091293 0.115323 
222.101608 0.65511 
222.113586 1.202388 
222.898621 2.777229 
223.001205 0.132986 
223.086487 18.3339 
223.09874 0.082138 
223.122299 0.828967 
224.094315 7.198037 
224.106689 0.34351 
224.117767 0.065585 
224.878189 0.221823 
225.042435 0.0836 
225.102158 4.220331 
225.886246 1.092703 
226.12262 0.771688 
226.894073 0.096546 
227.154541 0.066799 
228.889099 0.07077 
229.006058 0.124263 
229.097122 0.072743 
229.895996 1.396485 
230.024963 0.091034 
230.143616 0.139636 
231.021362 7.082188 
231.149338 0.422073 
231.896362 0.087527 
232.024734 0.322827 
232.883484 1.340798 
232.904587 0.251006 
233.037582 0.085846 
233.107254 0.229588 
233.891403 0.812445 
234.899216 17.548037 
235.086487 0.303989 
235.111252 0.150649 
235.122894 8.001952 
235.899933 2.094621 
236.094513 0.18399 
236.13002 0.065335 
236.149521 0.079098 
236.898804 0.364039 
237.10228 0.749831 
237.138748 1.141721 
237.885864 0.237086 
238.109314 0.317659 
238.122696 0.446322 
238.143158 0.766477 
238.894058 0.482199 
238.914215 0.097782 
239.095139 0.067922 
239.117218 0.369687 
239.154541 1.408569 
239.90123 0.524731 
240.138031 0.203608 
240.157776 0.123747 
240.728043 0.574983 
240.909241 3.672861 
241.005859 0.066257 
241.13179 0.130557 
242.223541 0.242325 
243.020874 0.077765 
243.112228 0.146017 
245.000702 0.314616 
246.899033 1.581306 
247.907028 1.52731 
248.878677 3.451101 
248.899811 0.08264 
248.91507 0.556346 
248.99585 0.072046 
249.032486 0.085099 
249.101135 0.069274 
249.138519 0.600729 
249.878525 0.162114 
250.003891 0.073239 
250.893921 4.848786 
251.081024 0.087578 
251.118179 1.225625 
251.89389 0.24263 
252.909866 0.753314 
253.133545 0.672376 
253.902161 0.38418 
254.137924 0.064434 
254.924423 0.085959 
255.021927 0.061868 
255.149155 2.338666 
255.897552 0.186892 
256.152802 2.72796 
256.904755 0.09036 
257.037109 0.902591 
257.106934 0.0651 
257.155731 0.892223 
258.899353 5.013405 
259.017639 0.07096 
259.083984 0.06834 
259.108002 0.065008 
259.123627 0.074443 
259.900116 0.470444 
260.900909 0.062442 
261.032837 0.129452 
261.05481 0.065856 
261.10025 1.844877 
262.10379 0.175174 
262.895111 0.080302 
262.915344 0.200478 
262.930603 0.523338 
263.118042 1.470663 
263.902344 0.671254 
264.272522 0.051817 
264.909698 5.34107 
265.133575 1.133398 
265.713104 0.135717 
265.910583 0.88136 
266.889191 2.074669 
266.906433 0.082782 
267.148743 0.058183 
267.889496 0.095676 
268.905579 0.346305 
269.00061 0.084113 
269.107849 0.059506 
269.891968 0.564154 
270.243195 0.073551 
270.677094 0.518344 
270.900116 2.351501 
271.121857 0.386329 
272.128998 0.127719 
272.918304 0.287621 
273.138702 0.065721 
274.894073 4.082124 
274.914429 1.651945 
275.047699 0.134651 
275.116974 0.550668 
275.900818 0.823361 
276.123657 1.383612 
276.150238 0.127613 
276.909698 31.981844 
277.132599 5.621155 
277.910858 3.728246 
278.141022 3.401424 
278.91037 0.32708 
278.926056 1.387567 
279.111664 0.076404 
279.897003 0.836447 
279.914551 0.25525 
280.92511 0.064653 
281.105988 0.061673 
281.896301 0.311763 
281.912109 1.116556 
282.114868 0.080614 
282.904175 0.072583 
282.919647 1.886006 
283.122437 1.188243 
283.892181 0.231984 
283.922058 0.06666 
284.128601 0.72206 
284.460968 0.347325 
285.136566 0.737455 
285.816162 0.11975 
286.140778 0.302074 
286.895477 0.091713 
286.914337 0.143529 
287.926788 0.235123 
288.141327 0.063052 
288.909698 2.326592 
288.927826 0.06569 
289.918274 2.679813 
290.920685 0.079406 
291.89621 0.140591 
292.156799 0.209819 
292.904785 0.16776 
293.109894 0.069192 
293.128662 0.585523 
294.113617 0.184219 
294.135895 1.032716 
294.919128 0.057243 
295.122894 1.28238 
295.14267 0.163051 
295.928528 0.56059 
296.128387 1.262227 
296.932953 0.053468 
297.102295 0.070382 
297.139282 3.353596 
297.907501 0.260414 
298.140503 1.782074 
298.914124 0.208026 
299.139282 0.522679 
299.154816 0.421784 
299.907257 0.093851 
300.14328 0.171397 
300.155579 0.189814 
300.889954 0.075838 
300.90979 2.517295 
301.158203 0.199033 
303.160461 0.424811 
303.933624 0.070894 
304.906555 0.062267 
304.924561 0.44146 
305.042389 0.142726 
306.919708 2.814313 
307.122101 0.553639 
307.922394 0.173217 
308.130127 0.38779 
308.91983 0.077279 
309.138428 3.628405 
310.110901 0.084094 
310.141266 3.876125 
310.915253 0.595253 
311.047607 0.064721 
311.105743 1.260264 
311.144562 2.795008 
312.149109 3.221086 
312.837952 0.055438 
313.154419 2.364803 
313.204315 0.934402 
313.833466 0.062538 
314.160065 1.306861 
315.165741 0.704731 
316.144012 0.056527 
316.904755 1.931749 
316.924225 0.182818 
318.920166 6.715864 
319.923889 0.449891 
320.935425 0.189708 
321.138428 0.07555 
322.952118 1.179326 
323.118042 0.535553 
323.153809 1.469691 
323.830048 0.061435 
323.954102 0.060569 
323.977478 0.237415 
324.157837 2.1069 
324.93042 3.777195 
325.134918 0.068046 
325.160004 2.524069 
325.831268 0.062723 
325.93222 0.395398 
326.084106 0.087991 
326.165283 9.879311 
327.080719 0.451486 
327.101654 0.139569 
327.14856 0.621796 
327.168091 9.717665 
327.827454 0.451864 
328.147949 0.247769 
328.171112 6.259762 
329.117218 1.563954 
329.175842 1.495343 
330.920593 0.880561 
331.215759 0.273001 
331.837738 0.095729 
331.928345 8.247826 
331.984039 0.513454 
332.929779 0.910695 
333.13678 0.069368 
334.843628 0.682547 
335.117981 0.072736 
335.829498 0.086131 
336.054779 0.146901 
336.150604 0.39235 
336.839417 1.023796 
336.930542 0.287708 
336.967682 0.32246 
337.133453 0.162231 
337.843567 0.145355 
337.938599 1.15618 
337.969849 0.062131 
338.129089 0.806228 
338.164795 0.070076 
339.170227 0.083 
340.14566 0.324392 
340.18161 1.221867 
340.834167 0.058385 
341.080383 0.071108 
341.183319 1.149682 
342.164337 0.27061 
342.187103 1.096908 
342.834259 0.070744 
342.851837 0.071923 
343.191345 13.542725 
344.194763 19.738951 
345.198273 15.277182 
346.201324 1.847364 
346.82547 0.230826 
348.839813 0.092003 
349.133301 0.078717 
350.131409 0.075495 
350.166473 0.524049 
350.947388 0.060926 
351.122192 0.182723 
351.847443 0.417029 
352.123962 0.072119 
352.145111 1.031788 
352.854034 0.187715 
353.841614 1.636417 
354.159454 0.252993 
354.848907 0.179225 
356.177704 0.075534 
356.847137 0.069752 
357.206238 0.071021 
358.84375 0.136331 
359.091492 0.978771 
360.096954 0.094642 
360.196899 0.060192 
360.838654 1.513089 
361.938721 1.540256 
364.144958 1.010317 
364.834564 0.317178 
366.159882 1.060945 
366.833405 0.109259 
367.178375 0.187215 
367.839355 0.988089 
368.180481 0.780062 
368.828522 0.821034 
369.167969 0.693697 
369.837769 2.189042 
370.1745 0.219743 
370.721039 0.346737 
371.182434 0.159753 
373.84903 0.075137 
378.851044 0.199032 
379.154907 0.110582 
381.170685 7.380501 
381.195496 0.673803 
382.174286 1.374772 
382.199402 0.698449 
382.846069 0.08981 
383.184174 1.102511 
383.205475 0.734038 
383.852325 0.141159 
384.200653 0.294981 
384.861816 0.37281 
385.203064 0.259067 
385.541626 0.224553 
385.846619 0.107157 
386.841278 1.061015 
387.754333 0.064812 
387.84375 0.07128 
388.835175 0.284564 
394.844299 1.082216 
397.200714 0.07323 
397.239044 0.175236 
399.181152 2.708305 
399.20874 0.103772 
400.184143 0.084168 
402.851685 0.147875 
404.850647 0.118296 
406.84491 1.638486 
410.547546 0.23616 
410.839172 0.093517 
411.18338 0.177548 
411.975708 0.125711 
412.191498 0.164216 
412.856781 0.265666 
413.10495 0.339588 
413.195953 0.447028 
415.123138 0.061664 
415.859192 0.196597 
418.191345 0.177606 
420.861145 0.442585 
421.19986 0.088088 
425.198029 0.653642 
427.212341 2.360945 
427.927643 0.526863 
428.216003 10.527157 
429.219086 25.086918 
430.222229 5.292334 
434.876678 0.060594 
435.217682 0.130748 
437.199554 0.140794 
437.232971 0.365097 
438.19986 0.10089 
438.237396 0.966888 
438.870178 0.065977 
439.241669 0.073619 
441.1922 1.166255 
442.195221 1.43363 
443.205444 0.325471 
444.212341 0.068931 
453.228638 0.185011 
453.89505 0.067334 
455.23465 0.418698 
457.223297 0.586813 
457.87207 0.175508 
458.226776 0.08336 
461.199188 0.057639 
461.230835 1.40378 
461.863647 0.683299 
462.366516 0.05927 
463.880829 0.161011 
469.15625 0.221019 
471.238678 1.292217 
472.242065 7.621786 
473.245392 31.688587 
474.248932 10.13836 
475.211365 1.039997 
475.249786 0.805067 
476.218903 1.751503 
477.226746 2.481354 
478.231049 0.058927 
488.253754 0.081395 
489.229553 0.268838 
489.338318 0.160107 
495.906982 0.241504 
502.627686 0.328504 
506.899811 0.075835 
515.985962 0.071312 
529.258789 1.800205 
530.262512 0.46699 
531.274048 4.624424 
542.143799 0.698366 
544.313293 0.231432 
545.252014 0.087704 
545.294495 0.160176 
545.401855 4.94419 
546.253113 2.051022 
546.292969 0.653528 
546.404602 2.716208 
547.192139 0.072332 
547.269226 9.087949 
547.380493 5.802921 
548.271729 2.161798 
548.385254 0.629146 
548.614075 0.140821 
549.282471 7.349544 
549.360107 0.148217 
565.250183 0.073884 
569.895874 0.056356 
END IONS

