BEGIN IONS
TITLE=Scan Number: 896
PEPMASS=342.08801
CHARGE=1+
COMPOUNDNAME=Violacein; 3-(1,2-dihydro-5-(5-hydroxy-1H-indole-3-yl)-2-oxo-3H-pyrrol-3-ylidene)-1,3-dihydro-2H-indole-2-one
LIBRARYQUALITY=3
SMILES=C1=CC=C2C(=C1)C(=C3C=C(NC3=O)C4=CNC5=C4C=C(C=C5)O)C(=O)N2
INCHIKEY=XAPNKXIRQFHCHN-QGOAFFKASA-N
INCHI=InChI=1S/C20H13N3O3/c24-10-5-6-15-12(7-10)14(9-21-15)17-8-13(19(25)23-17)18-11-3-1-2-4-16(11)22-20(18)26/h1-9,21,24H,(H,22,26)(H,23,25)/b18-13+
MSLEVEL=2
SOURCE_INSTRUMENT=LC-ESI-Orbitrap
FILENAME=f.rmenezes/MS2_spectra/020518_RM_neg_Violacein_Jchromo_ref_2ul_ms2.mzXML;
SEQ=*..*
NOTES=
IONMODE=Negative
ORGANISM=GNPS-LIBRARY
NAME=Violacein; 3-(1,2-dihydro-5-(5-hydroxy-1H-indole-3-yl)-2-oxo-3H-pyrrol-3-ylidene)-1,3-dihydro-2H-indole-2-one M-H
SPECTRUMID=CCMSLIB00004721991
ACTIVATION=CID
INSTRUMENT=ion trap
SCANS=896
98.781067 4369.120605 
119.555084 3864.682861 
122.920395 4081.794678 
132.045395 8682.564453 
140.050674 5768.39502 
156.046219 20054.564453 
157.041 212673.890625 
165.045761 7704.11084 
167.173203 3688.174561 
181.041595 12221.71875 
182.02623 9454.132812 
183.05658 20986.697266 
184.040802 33695.8125 
188.970657 7633.873047 
198.804047 4347.466797 
202.107864 3981.815674 
209.035843 283074.84375 
243.933472 3870.632324 
270.105347 5425.476562 
271.082611 5391.844238 
286.24707 6157.569336 
291.458557 10533.234375 
297.090424 19603.783203 
298.045929 4228.857422 
298.098419 771638.375 
298.932098 56134.8125 
298.965576 7122.660156 
299.082703 255298.8125 
314.094391 7192.098145 
324.189056 5210.389648 
342.088562 787911.0 
346.632019 4411.462891 
END IONS

