BEGIN IONS
PEPMASS=353.136
CHARGE=1+
COMPOUNDNAME=Gibberellin A4&A7
LIBRARYQUALITY=3
SMILES=N/A
INCHIKEY=SEEGHKWOBVVBTQ-UKJRIFTCSA-N
INCHI=InChI=1S/C19H22O5/c1-9-7-18-8-10(9)3-4-11(18)19-6-5-12(20)17(2,16(23)24-19)14(19)13(18)15(21)22/h5-6,10-14,20H,1,3-4,7-8H2,2H3,(H,21,22)/t10-,11-,12+,13-,14-,17+,18+,19-/m1/s1
MSLEVEL=2
SOURCE_INSTRUMENT=N/A-ESI-QFT
FILENAME=library_mgf.mgf
SEQ=*..*
IONMODE=positive
ORGANISM=MONA
NAME=Gibberellin A4&A7 [M+Na]+
PI=MoNA
DATACOLLECTOR=MoNA:VF-NPL-QEHF006592
PUBMED=N/A
SUBMITUSER=mwang87
TAGS=
SPECTRUMID=CCMSLIB00004697655
SCANS=6592
50.25956 0.061378 
51.424847 0.063711 
51.462807 0.058747 
52.10078 0.064344 
52.480999 0.060895 
53.002956 0.243931 
53.039494 0.155835 
53.067486 0.068389 
53.197289 0.039418 
53.305119 0.054588 
53.468929 0.06833 
53.826031 0.055572 
54.815937 0.057402 
55.018616 3.94493 
55.055 14.967607 
56.050285 0.558243 
56.251549 0.082027 
56.460648 0.055719 
56.965542 0.164839 
57.034245 4.180085 
57.070641 35.580959 
57.182411 0.067374 
58.065887 9.070233 
58.073997 1.127013 
59.049873 6.40854 
59.061108 1.53322 
59.116215 0.051389 
59.537003 0.038658 
60.045109 2.227566 
60.224625 0.036915 
60.466042 0.059233 
61.011368 0.647498 
61.127022 0.044675 
62.019165 0.454962 
62.060795 0.838879 
62.348988 0.062868 
62.982441 2.286132 
63.428337 0.05221 
64.043518 0.052827 
64.275101 0.067941 
65.039337 0.105353 
65.408943 0.057759 
65.702553 0.049685 
66.03463 0.068011 
66.997253 0.06543 
67.054939 32.594429 
67.62825 0.05434 
68.058281 0.853769 
69.034172 4.481681 
69.045387 0.352298 
69.070564 30.432886 
69.30854 0.057727 
69.896873 0.058615 
69.956367 0.071418 
70.029427 0.143021 
70.065804 2.948398 
70.073906 0.464922 
71.013382 0.051466 
71.049805 7.281662 
71.086205 40.740669 
71.442223 0.065557 
71.513397 0.034974 
72.045059 0.474408 
72.081451 1.969119 
72.089561 1.853864 
72.133339 0.073755 
72.478096 0.057285 
72.546181 0.062454 
73.029099 0.203358 
73.043663 0.064881 
73.04747 4.876405 
73.065399 3.673556 
73.347847 0.045975 
73.504761 0.050567 
73.724983 0.049809 
74.060677 0.413308 
74.097069 2.581034 
75.044487 0.077044 
75.055923 0.062863 
75.790237 0.056972 
76.039879 0.080545 
76.076332 3.228376 
78.060928 0.060333 
79.02182 5.845493 
79.05484 11.648322 
79.511543 0.062479 
80.050163 0.107933 
80.058182 0.071267 
80.244118 0.08339 
80.610832 0.043677 
80.822601 0.071906 
81.019066 0.675289 
81.034134 1.469305 
81.05378 0.051068 
81.070465 54.756416 
81.619415 0.063892 
82.065857 0.196882 
82.073822 2.702848 
83.049744 7.001668 
83.086098 33.156036 
83.675301 0.052035 
84.044983 1.127457 
84.081367 1.552538 
84.08947 1.281869 
84.17881 0.044885 
84.881172 0.04335 
85.028976 2.279822 
85.065346 8.47535 
85.101761 22.95541 
85.138695 0.05756 
85.180489 0.064141 
86.060585 1.117406 
86.096977 7.725121 
86.105064 1.288999 
87.04464 5.729394 
88.025948 0.061086 
88.039848 0.411151 
88.076195 0.823076 
89.060265 64.703651 
90.055626 0.081363 
90.063599 3.073796 
90.066422 0.062702 
91.054726 9.38885 
91.057854 28.095306 
91.810158 0.065941 
92.058304 0.148963 
92.485756 0.041652 
93.037201 0.132616 
93.070396 20.354486 
94.06562 0.242414 
94.073784 0.790746 
95.049606 6.78968 
95.085983 58.764584 
95.128922 0.03632 
96.044937 0.679465 
96.081314 0.267637 
96.08931 3.556314 
96.47319 0.033493 
97.028809 0.910117 
97.039917 0.078891 
97.065269 10.855447 
97.101654 29.51692 
98.060455 1.118146 
98.09684 0.925952 
98.105019 1.099046 
98.975731 0.143666 
99.04451 4.143264 
99.080849 15.538068 
99.117233 1.127702 
100.076088 5.118747 
100.084152 0.411033 
100.112602 0.73205 
100.689781 0.057418 
100.911385 0.047204 
101.023773 0.088526 
101.060104 4.392307 
101.096581 0.519786 
101.799629 0.035344 
102.055374 0.475361 
103.075737 6.221918 
103.727501 0.043163 
105.033936 0.345449 
105.070213 11.277911 
105.210777 0.037557 
106.07354 0.431264 
107.049461 4.44032 
107.07061 4.504042 
107.085846 25.169407 
107.089844 0.237383 
107.276695 0.052992 
108.081062 0.428287 
108.08918 1.394812 
109.028732 0.543853 
109.065041 8.131066 
109.101494 38.811035 
109.105728 0.239235 
110.024185 0.064854 
110.060333 1.682439 
110.071777 0.246016 
110.09671 0.185674 
110.10482 2.395503 
111.005371 0.312526 
111.044289 4.584937 
111.080704 9.879733 
111.117096 7.916567 
111.607498 0.074557 
112.039665 0.450883 
112.075989 1.558055 
112.083771 0.067038 
112.112488 0.325235 
113.023758 0.086527 
113.059959 3.648332 
113.096344 3.542706 
113.135284 0.044179 
113.669212 0.071563 
113.863914 0.056081 
114.055183 0.89544 
114.091644 0.889289 
114.128021 0.074362 
114.73513 0.054958 
115.039261 0.917647 
115.075554 1.059299 
115.086884 0.903599 
115.661255 0.052772 
116.052986 1.553705 
116.070862 1.406716 
116.986015 0.467715 
117.070129 5.443048 
117.091217 0.118128 
117.695854 0.03487 
118.073555 0.070518 
118.086288 0.20846 
119.049408 0.158714 
119.085747 15.327003 
120.080978 3.070121 
120.088974 0.919756 
121.028641 0.080722 
121.039642 0.198417 
121.064926 6.037384 
121.084221 0.719649 
121.101334 22.833004 
122.060272 0.373187 
122.068153 0.192816 
122.096664 0.198031 
122.104752 1.403348 
123.044128 2.415531 
123.055977 0.044212 
123.080589 15.191804 
123.116974 17.002937 
124.039452 0.646557 
124.075813 1.761322 
124.083908 0.200686 
124.112045 0.532757 
124.120384 0.938568 
125.059814 7.566916 
125.096214 15.560144 
125.132675 1.180749 
126.055161 0.224969 
126.091446 3.123434 
126.099556 0.617526 
127.038925 0.385724 
127.075478 2.020882 
127.086494 0.074116 
127.111824 3.19778 
127.143509 0.070739 
127.166023 0.057837 
128.070648 0.645898 
128.107117 0.414975 
128.143265 0.453686 
128.591293 0.050602 
129.054672 1.045425 
129.069992 2.18938 
129.090973 0.307076 
130.049805 0.359919 
130.086319 0.364903 
131.04924 0.224657 
131.085526 10.363921 
132.065262 0.075672 
132.088959 0.40922 
132.102448 0.074324 
132.606186 0.060755 
133.064682 2.982881 
133.085953 17.513611 
133.095535 0.1114 
133.101166 18.680971 
133.106674 0.201017 
134.089386 0.745649 
134.096375 1.583683 
134.104523 1.198141 
134.996445 0.867158 
135.044052 1.585433 
135.075409 0.110605 
135.080414 11.699698 
135.11084 0.079612 
135.116776 16.069714 
136.075623 2.515384 
136.083771 0.262669 
136.112061 0.290754 
136.120255 0.953393 
136.149506 0.051751 
136.95813 0.370242 
137.011383 0.20381 
137.059723 6.068056 
137.096069 12.590904 
137.132401 6.693919 
137.173553 0.051517 
137.343994 0.06116 
138.054962 1.077411 
138.091431 1.743526 
138.099335 0.263904 
138.127594 0.360691 
139.03891 0.363192 
139.050186 0.096914 
139.075317 13.373941 
139.111618 5.4952 
139.13559 0.300355 
140.070343 0.210251 
140.106949 0.573254 
140.143387 0.262777 
141.05452 0.857061 
141.070114 0.318378 
141.09082 1.98288 
141.102066 0.183555 
141.127365 4.771012 
141.163818 0.218956 
141.22496 0.035234 
142.049927 0.224073 
142.086441 0.228642 
142.122574 0.522549 
142.13028 0.057877 
142.159027 10.489557 
142.475021 0.05023 
142.938507 0.827921 
143.070221 1.350955 
143.081146 3.209788 
143.085831 1.819211 
143.106674 0.58708 
143.16243 0.540399 
145.064713 1.986292 
145.10112 10.99461 
145.403061 0.072728 
146.059891 0.421506 
146.096313 0.068168 
146.104446 0.365804 
146.976288 0.062387 
147.043686 0.146367 
147.080383 6.214727 
147.090729 0.064226 
147.11676 11.904247 
148.075851 0.311372 
148.083221 0.047424 
148.112228 0.441685 
148.120239 0.627655 
149.05954 4.124784 
149.096085 11.070192 
149.132431 8.85904 
150.055176 0.345891 
150.091324 1.220077 
150.099213 0.363056 
150.128265 0.152713 
150.136093 0.287311 
151.038513 0.127644 
151.075272 5.066718 
151.096436 2.967971 
151.111664 8.594046 
151.148102 2.739964 
151.943665 1.185067 
152.031891 0.357998 
152.070526 1.281546 
152.077835 0.123306 
152.10054 0.225782 
152.106949 2.348471 
152.114182 0.161158 
152.142975 0.068611 
152.98938 0.529468 
153.007523 0.05909 
153.054504 1.223408 
153.091003 10.028701 
153.102173 0.196452 
153.127167 3.359111 
154.085495 0.712496 
154.094131 0.464372 
154.122589 2.093978 
154.968414 1.127034 
155.022308 0.070131 
155.045288 0.054553 
155.070053 0.918291 
155.08551 1.568202 
155.106506 1.872419 
155.14299 1.878716 
156.101807 0.654575 
156.13829 0.861516 
156.174667 0.089121 
157.064484 0.204552 
157.085922 0.232578 
157.10141 5.485972 
158.117844 0.149957 
159.080399 3.657924 
159.100845 0.06829 
159.11673 8.653694 
159.123672 0.080222 
160.060364 3.218411 
160.075928 0.07407 
160.119934 0.465134 
160.274673 0.069402 
161.059662 1.164455 
161.096024 7.858034 
161.132355 8.565777 
161.848495 0.065412 
162.055374 0.170818 
162.091446 0.521604 
162.099182 0.164011 
162.135696 0.475507 
163.038773 0.372915 
163.075119 4.622611 
163.111633 7.003149 
163.14801 4.517058 
164.070511 0.67249 
164.078476 0.068144 
164.107056 2.201953 
164.114655 0.363193 
165.054459 0.864022 
165.09111 5.505153 
165.127365 4.906466 
165.163788 0.794879 
166.086212 2.955722 
166.094162 0.140948 
166.122604 1.311709 
166.130264 0.071598 
167.070099 2.247218 
167.085312 0.192478 
167.106583 6.112865 
167.117935 0.443427 
167.143127 1.365356 
168.065582 0.149242 
168.101822 2.11476 
168.109558 0.295719 
168.13855 0.355857 
168.174652 2.481589 
169.047546 0.058957 
169.084641 1.579598 
169.101242 2.295496 
169.122269 0.508201 
169.158615 0.456166 
169.954346 1.868307 
170.080872 0.065568 
170.117538 0.674719 
171.044159 0.72759 
171.080536 1.435655 
171.101364 0.250686 
171.116745 5.010381 
172.133148 0.664167 
172.978928 0.158915 
173.059723 0.291699 
173.096161 6.16475 
173.117432 0.287678 
173.132416 5.978623 
174.091385 0.462822 
174.100082 0.06447 
174.135971 0.086629 
174.18161 0.038272 
174.518768 0.043459 
175.075348 3.457119 
175.096619 0.192159 
175.111786 5.962183 
175.148102 4.972304 
176.070679 0.546518 
176.10701 0.75671 
176.115265 0.097461 
176.143188 0.254185 
176.151581 0.06012 
177.054749 0.319768 
177.091049 6.012773 
177.112106 2.066853 
177.127289 5.411119 
177.163773 2.007771 
178.086365 1.0251 
178.094742 0.148862 
178.122543 1.736397 
178.130615 0.237035 
179.070023 1.671592 
179.085861 0.157243 
179.093918 0.068557 
179.106628 5.514146 
179.143036 2.380377 
179.179504 0.243698 
180.06543 0.361839 
180.093994 0.063755 
180.101852 2.569299 
180.10994 0.159155 
180.138397 0.938634 
180.146698 0.077199 
181.049271 0.06354 
181.085449 1.816042 
181.101395 1.274792 
181.122314 2.921566 
181.158722 0.49486 
182.081207 1.430193 
182.117371 0.873562 
182.153976 2.035031 
182.3237 0.07314 
183.06427 0.149217 
183.080521 0.160908 
183.100861 0.550425 
183.116745 3.780654 
184.096878 0.488066 
184.133316 0.455856 
185.059601 0.066821 
185.096024 3.199332 
185.11496 3.044214 
185.132645 6.426414 
186.135742 0.14984 
187.075439 1.03472 
187.094009 1.042616 
187.111633 4.275203 
187.148041 4.147202 
188.070404 0.401856 
188.106888 0.521789 
188.115524 0.106013 
188.152206 0.078963 
189.054886 0.042588 
189.076096 0.070483 
189.091003 4.414795 
189.11203 3.302618 
189.12738 4.271822 
189.163788 2.335732 
190.086166 0.563421 
190.122574 0.75375 
191.069717 1.110647 
191.106689 7.575986 
191.116165 0.264977 
191.143143 2.379363 
191.153854 0.064623 
191.179337 0.802371 
192.065353 0.452875 
192.101685 2.741056 
192.110596 0.457935 
192.137939 0.968678 
192.961838 0.233958 
193.085785 3.656638 
193.101059 0.515681 
193.122299 4.555713 
193.132172 0.081788 
193.158691 1.304649 
193.195557 0.173451 
194.080917 0.823089 
194.117188 2.262413 
194.126541 0.129681 
194.15332 0.082845 
195.064545 0.693631 
195.100769 2.856966 
195.114166 0.141947 
195.123489 2.860934 
195.138351 1.280472 
195.149399 3.29836 
195.174423 0.647756 
196.059799 0.155524 
196.073837 0.504593 
196.087204 0.075203 
196.096725 1.97569 
196.133575 0.870669 
196.542358 0.05491 
196.96138 1.371383 
197.014969 1.360569 
197.078644 2.24566 
197.096298 1.344803 
197.117447 0.073938 
197.132538 2.323246 
198.091278 0.068579 
198.11235 3.116323 
198.136078 0.06562 
199.075424 0.157633 
199.111725 3.575471 
199.148315 1.971438 
200.070801 0.262256 
200.106216 0.074631 
200.146347 0.18518 
200.677689 0.047929 
201.03685 1.963059 
201.089355 2.908774 
201.127274 3.146678 
201.163666 2.989082 
202.085938 0.14648 
202.122482 0.075345 
203.052414 0.592729 
203.070267 0.846957 
203.106476 4.462269 
203.127289 0.084998 
203.143173 2.342225 
203.179413 1.401368 
204.065369 0.179804 
204.101669 0.637131 
204.138062 0.345903 
204.995163 0.041565 
205.085861 1.583175 
205.098389 0.085268 
205.12236 8.219685 
205.158646 1.602159 
205.195206 0.395761 
206.080826 0.661507 
206.117111 3.791735 
206.126617 0.328372 
206.153656 0.656935 
207.063873 0.204983 
207.101166 2.898559 
207.115372 0.276367 
207.126648 0.109734 
207.137741 2.81123 
207.174698 0.207099 
207.211182 0.081504 
208.060318 0.064158 
208.09639 0.574985 
208.132324 2.648404 
209.079559 0.604939 
209.096085 1.000414 
209.116211 4.278879 
209.132248 0.907687 
209.153809 0.605957 
209.189941 0.42139 
210.11203 0.41459 
210.148895 0.606575 
210.185074 2.841063 
210.971848 0.144721 
211.057846 0.249287 
211.094208 3.125376 
211.111679 4.479418 
211.132416 0.407555 
211.148224 0.747953 
211.270981 0.044603 
212.116287 0.070988 
212.97226 0.041813 
213.091171 0.5918 
213.127365 7.291497 
213.163986 1.838309 
213.968445 0.0629 
214.085648 0.160155 
214.61911 0.250301 
214.629532 2.316569 
214.647781 1.775623 
214.658661 0.201234 
214.971695 8.356967 
214.989105 0.857836 
215.025543 0.525163 
215.105621 4.001195 
215.143066 4.668378 
215.179398 0.56055 
215.946991 5.668761 
216.101959 0.199939 
216.137772 0.062998 
216.968277 1.353551 
217.085999 1.384623 
217.105835 0.055009 
217.122177 5.865112 
217.158569 1.030603 
217.195358 0.29441 
218.117432 0.686882 
218.126846 0.358842 
218.153809 0.813124 
219.065353 0.163963 
219.101379 2.163171 
219.113586 0.240524 
219.137817 3.774913 
219.174271 5.365851 
219.211166 0.309382 
220.096664 0.534654 
220.132965 1.972349 
220.177505 0.139427 
221.080338 1.063955 
221.116898 2.477519 
221.130661 0.720948 
221.153687 2.217467 
221.180679 0.057518 
221.19017 0.070196 
222.075394 0.122748 
222.112 0.832472 
222.148529 0.783469 
222.921249 0.066918 
223.095505 0.593605 
223.111496 1.119284 
223.132706 1.962457 
223.147232 0.994866 
223.169418 0.241202 
224.091141 0.192198 
224.107483 0.079554 
224.127579 0.489985 
224.163879 0.142978 
224.20108 0.084609 
225.07312 11.155777 
225.090912 0.349539 
225.110123 1.916489 
225.127258 1.527217 
225.16362 1.139935 
226.07605 0.178404 
226.14386 0.074264 
227.089386 0.507819 
227.105377 2.025514 
227.126633 0.160279 
227.143112 1.458776 
227.17926 0.3366 
228.987625 0.159528 
229.084503 0.21118 
229.122223 2.700079 
229.158783 1.123197 
229.194687 0.296803 
230.104919 0.065562 
231.101257 0.593954 
231.137741 8.895284 
231.174164 2.363798 
231.210724 0.16282 
232.096939 0.30638 
232.13269 0.337139 
232.95929 0.240066 
232.9823 1.121536 
232.999313 0.801273 
233.080948 0.246736 
233.11705 1.10214 
233.153519 1.714073 
233.190186 0.337321 
233.957687 0.911455 
234.112381 0.619269 
234.148315 0.488059 
234.978851 1.563278 
234.998566 0.038228 
235.095306 0.649315 
235.111237 0.323147 
235.131683 3.220057 
235.145386 0.349294 
235.169205 0.341895 
235.206299 0.101686 
236.090912 0.195846 
236.128036 1.398177 
236.164108 0.52178 
237.090591 0.266859 
237.110489 2.182745 
237.125717 0.981881 
237.14827 2.19909 
237.16246 0.525324 
237.680603 0.086228 
238.10643 0.267002 
238.142914 2.934716 
238.180054 0.09041 
239.08992 0.305459 
239.106247 0.626737 
239.126617 0.782209 
239.142868 1.215272 
239.178589 0.265204 
240.910385 0.074167 
240.932495 0.097292 
241.0858 0.085 
241.108902 0.047745 
241.121719 2.562227 
241.158615 2.382571 
241.195068 0.275762 
242.080963 0.076521 
243.100708 0.334128 
243.137756 1.432824 
243.149719 0.446679 
243.174225 1.083633 
243.210815 1.55307 
244.167038 0.105298 
245.117249 1.299651 
245.153259 2.738261 
245.190094 0.676069 
245.227371 0.070483 
246.148621 27.585747 
247.092346 8.625246 
247.132874 0.844207 
247.147751 0.404701 
247.169159 1.412939 
247.205795 0.291372 
247.74733 0.079785 
248.127563 0.304499 
248.163406 0.219829 
248.201736 0.096094 
249.086411 0.057633 
249.111572 0.288623 
249.126221 0.376985 
249.147888 0.927266 
249.194244 4.346702 
249.946075 0.03712 
249.96138 0.08219 
250.106369 0.064581 
250.143494 0.986694 
250.178024 0.406675 
250.197037 0.129168 
250.96965 0.217537 
250.985077 0.065122 
251.000229 2.192668 
251.106171 0.29274 
251.12616 0.130795 
251.142426 0.280313 
251.163101 0.061333 
251.200653 0.069281 
252.965149 0.082015 
253.121216 0.807262 
253.141113 0.08713 
253.157257 1.305059 
253.194824 0.132607 
254.13739 0.344941 
254.156616 0.056064 
255.100006 1.63722 
255.13797 1.52199 
255.174149 0.889691 
255.211014 0.083573 
256.13266 0.166858 
257.117249 0.427672 
257.153595 2.184372 
257.190094 0.933668 
258.14743 0.09794 
259.118958 0.069538 
259.132385 2.65069 
259.168945 5.753468 
259.204987 0.579442 
260.127563 0.158628 
260.163544 0.078441 
261.148254 1.740318 
261.184753 0.985365 
261.22287 0.071205 
262.143463 0.261755 
262.180359 0.196026 
262.216187 0.203193 
263.12735 0.068385 
263.142181 0.17103 
263.175537 4.435074 
263.200531 0.276334 
263.924133 0.213631 
264.159058 2.346098 
264.195557 0.080072 
265.015991 3.233041 
265.104156 0.084373 
265.122162 0.270638 
265.161316 0.070414 
265.177429 1.424396 
265.482391 0.071754 
266.099762 3.15116 
266.114105 0.06775 
266.138428 0.342581 
266.998718 0.078784 
267.102753 1.438457 
267.138031 0.112583 
268.217682 0.083291 
268.978333 1.775457 
269.076324 0.344736 
269.153229 0.926208 
269.189911 1.060911 
270.149811 0.044519 
271.132904 0.59191 
271.168823 3.374103 
271.205017 0.872177 
272.16449 0.280238 
272.200348 0.737929 
273.11087 0.311379 
273.148285 2.034813 
273.169464 0.04639 
273.184418 4.063914 
273.2211 0.639684 
274.117584 0.087952 
274.143555 1.225943 
274.179596 0.609356 
274.217285 0.065991 
275.104095 0.078149 
275.128052 0.240838 
275.144409 0.165561 
275.162201 1.35166 
275.175751 2.470952 
275.200317 4.310535 
276.123474 0.133171 
276.158875 1.483499 
276.180328 0.155732 
276.195435 0.684552 
276.971741 0.649285 
277.143036 0.765931 
277.15976 0.058998 
277.17923 4.12549 
277.215942 0.84264 
278.138397 8.448023 
278.153503 0.20027 
278.174164 0.252898 
278.210693 0.156308 
279.122498 0.08278 
279.15683 0.122581 
279.172821 0.091517 
280.133514 0.184147 
280.153198 0.067852 
281.153076 0.514122 
281.189636 0.297717 
281.934631 0.294362 
282.918976 0.040679 
283.133026 0.107657 
283.168732 0.479281 
283.206604 0.086231 
285.009491 15.578024 
285.148712 0.187829 
287.128357 0.095662 
287.163879 3.117205 
287.19928 6.510692 
288.138062 0.079605 
288.159576 0.924838 
288.196625 1.325239 
289.143005 0.319279 
289.162109 0.089693 
289.177551 4.432857 
289.197174 0.078519 
289.216034 2.293831 
290.155304 0.308491 
290.177277 1.703439 
290.210815 8.098327 
290.293365 0.059852 
291.099121 0.460609 
291.118103 0.058956 
291.136047 0.498758 
291.157074 0.578281 
291.194214 5.600777 
291.212128 0.438999 
291.232025 0.186585 
291.972412 0.25142 
292.117645 0.08692 
292.132904 0.089643 
292.154053 0.385208 
292.171509 0.092826 
292.199615 14.740865 
292.227386 0.067775 
292.947693 0.320005 
293.114471 2.666234 
293.134552 0.061366 
293.152466 0.673637 
293.171143 0.383537 
293.186157 0.355786 
293.210236 1.714743 
293.781586 0.045997 
293.945953 0.146036 
293.96933 0.085668 
294.116974 0.061336 
294.150452 0.155903 
294.170135 0.418606 
294.20636 0.409228 
294.990173 8.323195 
295.121399 0.461433 
295.15097 0.232021 
295.166199 0.806964 
297.184906 1.182395 
298.184631 0.168497 
299.147247 0.086706 
299.163208 0.892629 
299.20047 3.021474 
299.273163 0.432598 
300.197906 0.112668 
301.14386 0.079368 
301.179932 1.558129 
301.216309 1.572479 
301.288635 0.316342 
302.138428 0.321078 
302.175262 0.535592 
303.020264 2.826649 
303.158539 0.302943 
303.195099 0.345268 
305.139587 0.042398 
305.171295 3.359893 
305.187805 2.045735 
305.210358 0.767066 
305.223602 3.39211 
305.865143 0.057439 
306.150909 0.243244 
306.172974 1.707329 
306.207031 1.735956 
306.226837 0.539914 
307.152252 0.067501 
307.188324 3.458924 
307.207275 0.18375 
307.22641 0.625541 
307.300385 0.161807 
308.129395 0.142931 
308.164337 0.298271 
308.188934 0.961602 
308.221466 5.947983 
309.005554 7.502902 
309.108948 0.758709 
309.145752 0.158662 
309.165161 0.091092 
309.203156 0.062457 
309.224884 0.244474 
309.316681 0.093271 
310.144257 0.133625 
310.179108 0.758027 
310.958496 0.173401 
311.956604 0.075939 
312.05423 0.081577 
312.838928 1.359732 
312.952789 0.054941 
313.131317 0.596383 
313.840515 0.171418 
315.176971 0.0801 
315.194672 1.669732 
315.209351 0.082928 
316.118347 0.087183 
316.154816 1.440913 
316.190338 5.951362 
317.156464 0.086584 
317.187286 3.869338 
317.211273 3.54709 
317.283722 1.994382 
318.169403 0.712048 
318.207214 1.170072 
318.287781 0.079567 
319.153534 0.231218 
319.189301 2.566682 
319.22583 0.480475 
319.299591 0.68495 
320.148682 0.676366 
320.186066 0.893278 
320.221436 0.107387 
321.109436 0.770459 
321.130859 0.06932 
321.165527 2.61018 
321.203369 0.168252 
321.253235 0.650791 
322.165222 0.290288 
322.199646 0.288912 
322.216827 0.097927 
322.235657 0.230578 
323.197083 6.015328 
324.326263 0.279808 
326.175323 0.109016 
327.825897 0.448249 
328.834595 0.573108 
333.167358 2.531198 
333.218292 9.804298 
334.167053 2.659838 
334.200989 4.898822 
334.220337 2.931943 
334.239075 0.468653 
334.310699 0.110424 
335.089752 0.074136 
335.125793 0.063177 
335.145782 0.420363 
335.162842 0.492502 
335.18277 2.8234 
335.202484 0.445858 
335.220703 0.851315 
335.294464 3.851857 
336.159943 0.259912 
336.178833 0.555775 
336.196991 0.357261 
336.21698 1.915934 
336.297424 0.423931 
336.326141 1.604939 
337.104126 0.447236 
337.197205 0.436201 
337.328644 0.101849 
337.842804 0.259175 
344.82959 0.36835 
351.1409 0.418801 
351.178345 30.039242 
351.214569 25.269325 
351.249756 0.048664 
351.266907 0.074772 
351.336273 0.642322 
352.082001 0.55039 
352.117798 0.682927 
352.151276 4.140134 
352.18103 18.30727 
352.214722 13.263999 
352.264435 0.802103 
352.283997 0.943376 
352.320435 0.362969 
352.357544 2.760556 
352.393585 0.994101 
353.099609 3.658225 
353.135559 25.240946 
353.155945 10.391322 
353.19281 82.433174 
353.229431 50.851471 
353.264313 2.532236 
353.325073 0.087695 
353.351868 6.999016 
353.389374 0.093846 
354.100433 0.373722 
354.13623 6.249752 
354.166992 2.957955 
354.205017 34.581608 
354.232849 9.479729 
354.26178 7.803916 
354.29837 0.072661 
354.316101 0.631556 
354.33667 0.229194 
354.374023 3.245734 
354.409088 4.621252 
355.01123 6.275848 
355.073669 0.189861 
355.114502 28.986128 
355.15097 4.502087 
355.16925 7.031644 
355.209076 53.929974 
355.243042 2.946771 
355.281708 100.0 
END IONS

