BEGIN IONS
PEPMASS=601.356
CHARGE=1+
COMPOUNDNAME=deferrioxamine E
LIBRARYQUALITY=3
SMILES=N/A
INCHIKEY=NHKCCADZVLTPPO-UHFFFAOYSA-N
INCHI=InChI=1S/C27H48N6O9/c34-22-10-14-26(38)32(41)20-8-3-6-18-30-24(36)12-15-27(39)33(42)21-9-2-5-17-29-23(35)11-13-25(37)31(40)19-7-1-4-16-28-22/h40-42H,1-21H2,(H,28,34)(H,29,35)(H,30,36)
MSLEVEL=2
SOURCE_INSTRUMENT=N/A-ESI-QFT
FILENAME=library_mgf.mgf
SEQ=*..*
IONMODE=positive
ORGANISM=MONA
NAME=deferrioxamine E [M+H]+
PI=MoNA
DATACOLLECTOR=MoNA:VF-NPL-QEHF004063
PUBMED=N/A
SUBMITUSER=mwang87
TAGS=
SPECTRUMID=CCMSLIB00004695126
SCANS=4063
50.169819 0.006536 
50.372589 0.014613 
50.448189 0.01253 
50.521378 0.010963 
51.361015 0.012395 
51.825775 0.010881 
52.288746 0.007344 
52.342548 0.012939 
52.59547 0.012874 
53.17947 0.011369 
53.741493 0.01129 
54.256672 0.006944 
54.870113 0.016302 
55.018818 0.048639 
55.055103 0.204939 
55.490948 0.012411 
55.994358 0.010814 
56.050289 1.192615 
56.271473 0.013636 
57.982388 0.010274 
58.173801 0.01081 
58.36636 0.011498 
58.463825 0.012404 
58.47039 0.013215 
58.967667 0.009575 
59.116207 0.01286 
59.186684 0.014651 
59.321873 0.01211 
59.471348 0.011158 
59.537064 0.012914 
60.023174 0.01239 
60.167683 0.006805 
60.395634 0.01311 
60.601425 0.018347 
60.706699 0.01359 
60.894119 0.012318 
60.919838 0.011519 
61.558426 0.011148 
61.618847 0.01099 
61.880024 0.012763 
62.136589 0.009651 
62.969349 0.009776 
63.658436 0.012082 
63.798424 0.012603 
63.814552 0.010287 
64.89994 0.011214 
65.266792 0.009985 
65.704994 0.00641 
65.865631 0.008154 
66.124519 0.012257 
66.843292 0.010573 
67.054977 1.255502 
68.357361 0.013639 
68.447525 0.009467 
68.796631 0.012151 
69.070679 0.815214 
70.065857 0.278776 
70.391029 0.011683 
70.710831 0.008385 
70.808372 0.010754 
71.179268 0.010621 
71.4217 0.010033 
72.045105 0.115671 
72.081467 0.260312 
72.216743 0.012103 
73.471809 0.011948 
75.701561 0.011667 
75.988884 0.012992 
76.08889 0.010637 
76.916969 0.011496 
78.129646 0.013733 
78.38372 0.014179 
79.55217 0.014459 
79.715622 0.010333 
80.050125 0.278552 
80.099846 0.011604 
80.488045 0.011802 
80.645714 0.008584 
81.302238 0.011984 
82.065788 1.024749 
82.381042 0.013021 
82.524544 0.009599 
83.768372 0.012886 
84.045052 0.96049 
84.081383 57.984756 
84.923897 0.009953 
85.084801 2.463436 
85.089188 1.677414 
85.598427 0.009202 
86.097061 1.625245 
86.517097 0.007506 
86.703079 0.012283 
86.812378 0.01324 
88.329811 0.014182 
88.381119 0.012386 
89.858292 0.01225 
89.973656 0.013412 
90.892937 0.011189 
91.664017 0.011673 
93.304482 0.013108 
94.273338 0.011554 
94.631546 0.008919 
95.288002 0.009564 
96.081207 0.0258 
96.305679 0.008453 
97.668968 0.013662 
98.060486 0.014793 
98.096893 0.714878 
99.092247 0.144155 
100.039787 20.759111 
100.07621 1.450881 
100.749237 0.010868 
101.023788 0.719517 
101.043182 0.570633 
101.107803 0.23095 
101.497932 0.009251 
102.091827 27.681658 
102.123405 0.007856 
103.095131 1.102032 
104.360329 0.012203 
104.625366 0.012475 
105.558403 0.012428 
106.672035 0.013526 
106.81205 0.009629 
107.431778 0.011212 
108.648491 0.009633 
110.060654 0.041996 
110.096764 1.072775 
111.921562 0.014524 
112.039688 4.752844 
112.076073 0.232138 
112.112419 0.877112 
113.04287 0.033623 
113.668251 0.012832 
113.829185 0.01131 
114.091743 0.01527 
114.341202 0.012455 
114.81546 0.013444 
114.9888 0.014359 
115.154587 0.015874 
115.255997 0.00915 
115.272629 0.008049 
116.034569 0.081505 
118.684364 0.01151 
118.867973 0.015841 
119.118202 1.044114 
119.203995 0.011771 
119.417213 0.011374 
120.081078 0.743879 
120.326897 0.014486 
121.496445 0.010488 
121.57621 0.009428 
122.096748 2.597215 
122.101448 0.014648 
123.099861 0.041836 
124.075966 0.339309 
124.660774 0.009807 
125.192299 0.013149 
125.369743 0.016221 
126.091499 0.024177 
128.034454 0.209647 
128.521439 0.014996 
129.338257 0.008613 
129.488922 0.01389 
129.783142 0.012765 
130.049988 0.333294 
130.065109 0.041842 
131.854919 0.014613 
132.62561 0.009094 
133.921814 0.01118 
135.295074 0.011115 
135.75412 0.009942 
136.075699 0.324862 
137.107407 4.306764 
137.127716 0.008826 
137.858932 0.012182 
137.939911 0.012075 
138.091415 6.752822 
138.110718 0.167457 
139.09465 0.35188 
139.577194 0.010383 
140.070648 2.490868 
140.106934 0.024834 
140.155762 0.009205 
140.277878 0.012461 
141.073669 0.013566 
142.086319 0.38285 
144.033859 0.015473 
144.101959 0.826555 
148.075745 0.624283 
148.302139 0.010767 
150.837112 0.010529 
153.066666 0.011874 
153.102371 0.374334 
153.220291 0.011532 
154.086304 14.688741 
155.0896 1.032379 
155.117889 0.039918 
156.101929 0.697357 
156.541855 0.012281 
156.672638 0.013168 
158.87532 0.013819 
161.128555 0.303233 
161.275726 0.013111 
161.554611 0.012457 
163.111984 0.015736 
163.47226 0.010958 
163.634338 0.009515 
164.382965 0.00873 
164.54599 0.015168 
165.102341 17.476679 
166.08638 8.864462 
166.098526 0.023925 
166.105469 1.259505 
166.197861 0.010698 
166.465485 0.011311 
167.089767 0.776529 
167.117645 0.009905 
167.162842 0.015686 
168.102005 5.454582 
168.288162 0.013653 
169.105453 0.301192 
171.112778 0.06981 
171.754974 0.009866 
172.097031 0.081559 
172.200546 0.016605 
177.046234 0.013029 
181.097214 0.843934 
182.099976 0.013767 
183.1129 20.104509 
184.096954 5.749269 
184.116333 1.608797 
184.250839 0.007424 
185.10022 0.366018 
185.128571 0.971886 
185.338043 0.013268 
186.112732 0.16301 
186.463425 0.007117 
187.055328 0.01317 
187.752899 0.016382 
189.183914 0.008634 
199.01297 0.007562 
199.107864 0.429187 
200.116043 0.031687 
200.139755 0.020457 
200.42337 0.015209 
201.10701 0.02019 
201.12352 100.0 
202.08667 0.010328 
202.10791 0.410266 
202.127045 7.988987 
203.128647 0.15385 
203.139389 0.014423 
207.429443 0.008651 
211.107651 0.342186 
211.144104 0.742111 
212.745697 0.163615 
212.764893 0.922619 
212.776108 0.682335 
213.125092 0.013847 
215.10257 0.028511 
218.178482 0.01347 
219.134079 2.219696 
219.144943 0.020072 
220.136795 0.030801 
228.736618 0.01624 
228.778137 0.009954 
236.66626 0.010029 
237.123245 0.7388 
237.395081 0.011552 
240.500198 0.015671 
241.118454 0.04171 
243.133957 1.937738 
246.935516 0.014036 
251.022415 0.012616 
251.26622 0.01393 
255.131561 0.011256 
258.938019 0.016134 
265.118134 0.461183 
267.133484 0.06451 
270.154877 0.014629 
270.185394 0.008781 
273.15509 0.009972 
275.959167 0.011624 
277.859192 0.012894 
282.144592 0.530918 
283.128784 11.921442 
284.13208 1.466854 
284.19516 0.009974 
285.133606 0.009626 
287.411591 0.01342 
291.015503 0.014117 
297.160217 0.008529 
301.139374 1.477244 
301.223175 0.09305 
302.142792 0.02344 
319.233551 0.73744 
324.759399 0.010834 
333.352844 0.016211 
339.238983 0.100379 
341.828156 0.015414 
345.223206 0.012698 
354.978851 0.01358 
355.230438 0.014031 
358.199097 0.007531 
361.243927 0.007711 
363.258728 0.014413 
376.948456 0.011618 
383.228485 0.884384 
384.230804 0.017155 
388.756958 0.014008 
401.239227 9.85232 
401.970123 0.011751 
402.242615 1.758111 
403.2453 0.009015 
403.88266 0.012622 
418.677185 0.013143 
421.782166 0.01503 
432.680084 0.008107 
433.488464 0.010478 
454.384064 0.011194 
466.579956 0.016141 
478.681824 0.013406 
479.402863 0.008262 
483.246887 0.031669 
488.199066 0.013723 
495.076538 0.010942 
503.996857 0.014946 
506.766205 0.010489 
513.27124 0.008857 
517.721741 0.012384 
526.655945 0.016913 
558.430908 0.012602 
598.537476 0.014237 
601.354431 0.307348 
602.359497 0.045407 
608.959839 0.015632 
623.397644 0.014876 
END IONS

