BEGIN IONS
PEPMASS=499.28
CHARGE=1+
COMPOUNDNAME=(3E,5S,7R,8R,11E,13S,15R,16R)-3,5,7,11,13,15-hexamethyl-8,16-bis(1,3-oxazol-5-ylmethyl)-1,9-dioxacyclohexadeca-3,11-diene-2,10-dione
LIBRARYQUALITY=3
SMILES=N/A
INCHIKEY=LAJRJVDLKYGLOO-HLRFMGGZSA-N
INCHI=InChI=1S/C28H38N2O6/c1-17-7-19(3)25(11-23-13-29-15-33-23)35-28(32)22(6)10-18(2)8-20(4)26(12-24-14-30-16-34-24)36-27(31)21(5)9-17/h9-10,13-20,25-26H,7-8,11-12H2,1-6H3/b21-9+,22-10+/t17-,18-,19+,20+,25+,26+/m0/s1
MSLEVEL=2
SOURCE_INSTRUMENT=N/A-ESI-QFT
FILENAME=library_mgf.mgf
SEQ=*..*
IONMODE=positive
ORGANISM=MONA
NAME=(3E,5S,7R,8R,11E,13S,15R,16R)-3,5,7,11,13,15-hexamethyl-8,16-bis(1,3-oxazol-5-ylmethyl)-1,9-dioxacyclohexadeca-3,11-diene-2,10-dione [M+H]+
PI=MoNA
DATACOLLECTOR=MoNA:VF-NPL-QEHF019220
PUBMED=N/A
SUBMITUSER=mwang87
TAGS=
SPECTRUMID=CCMSLIB00004710283
SCANS=19220
50.033596 0.083046 
50.092587 0.035427 
50.428337 0.02734 
50.519176 0.063979 
50.559723 0.073551 
50.669346 0.031985 
51.101566 0.062701 
51.493568 0.05715 
52.023205 0.053311 
52.311035 0.100535 
52.832294 0.027723 
52.846264 0.03428 
53.457611 0.031343 
53.585003 0.032059 
54.000195 0.08933 
54.034058 0.406859 
54.529991 0.081267 
55.05447 2.045001 
55.172169 0.082921 
56.082966 0.031205 
56.551601 0.084617 
56.867119 0.075964 
56.896778 0.060089 
56.981491 0.030154 
57.033695 8.249825 
57.070095 0.356221 
57.565834 0.084226 
58.863506 0.07777 
58.867645 0.072044 
58.934395 0.113889 
59.023178 0.027835 
59.049316 100.0 
60.052616 1.071172 
61.824223 0.040338 
62.558613 0.042425 
63.008369 0.099812 
63.17033 0.037539 
63.284271 0.039034 
63.424164 0.039593 
64.097824 0.110972 
64.667725 0.041099 
65.038887 0.050939 
65.215187 0.065829 
65.391998 0.082876 
66.545174 0.030945 
66.576958 0.040328 
66.79245 0.067827 
67.05426 11.962989 
67.919624 0.038212 
68.049278 0.041724 
68.541351 0.050546 
68.743156 0.094263 
68.900299 0.066856 
69.03347 4.153623 
69.069862 5.991669 
69.371376 0.043487 
69.448914 0.061341 
70.129738 0.075045 
71.048996 0.226763 
74.73632 0.093884 
75.364166 0.084568 
76.124084 0.089138 
77.948959 0.087887 
78.115402 0.032107 
78.510597 0.029725 
79.054153 4.125204 
79.426552 0.089491 
79.550575 0.095822 
79.854614 0.104562 
79.943542 0.075545 
79.9916 0.10096 
80.049355 0.879501 
81.069801 12.29708 
81.508575 0.052091 
82.028656 38.252625 
82.031418 0.522623 
82.064865 0.311745 
82.562767 0.09716 
82.578438 0.093164 
83.031921 0.553773 
83.03656 0.105369 
83.048973 1.485371 
83.085464 1.547939 
84.044319 4.480422 
84.453789 0.034278 
84.966721 0.079902 
85.0233 0.066311 
85.064606 0.636181 
86.327194 0.086076 
88.790703 0.0441 
88.856369 0.032064 
90.363091 0.090885 
91.019623 0.094894 
91.054146 3.818574 
91.143242 0.044633 
93.069778 16.983015 
93.142944 0.046337 
93.582695 0.090364 
93.634773 0.074785 
94.065002 11.123801 
94.07299 0.328598 
94.767166 0.075496 
95.049057 14.294794 
95.080063 0.064166 
95.082245 0.409471 
95.085426 34.646732 
95.088898 0.115325 
95.553642 0.089348 
95.606735 0.041353 
96.044266 21.436787 
96.080582 1.659089 
96.088661 1.404835 
96.372849 0.088153 
96.652008 0.100839 
97.047668 0.050996 
97.064667 1.81789 
97.357132 0.070953 
98.059784 0.161211 
98.760719 0.050998 
99.08046 0.069433 
99.496613 0.07972 
101.194344 0.10454 
103.05394 0.128 
103.667358 0.097293 
105.069756 7.602153 
105.266266 0.085791 
106.073212 0.173149 
106.675957 0.073759 
107.048988 1.277396 
107.085396 33.110947 
108.044205 0.641765 
108.080559 2.374198 
108.088737 1.963266 
109.064651 10.481985 
109.101082 19.454554 
109.607613 0.089644 
109.69706 0.119886 
110.059921 12.010508 
110.067902 0.249433 
110.096146 0.32164 
110.104301 0.294901 
111.043877 0.222264 
111.080254 3.715817 
112.027039 0.09554 
112.083778 0.086063 
113.054878 0.091845 
113.059555 7.994874 
113.063522 0.040334 
113.449356 0.072019 
114.646767 0.09537 
114.784531 0.040589 
114.974831 0.12143 
115.075119 0.40581 
116.65519 0.095576 
117.060188 0.1054 
117.069748 5.647548 
117.090858 3.938467 
118.065025 0.126145 
118.322136 0.045195 
119.085434 9.451894 
119.786461 0.088796 
119.947586 0.073741 
120.04435 0.823526 
120.080704 0.965632 
120.0886 0.149462 
121.064705 4.113747 
121.101028 59.4534 
122.023514 0.797316 
122.059914 31.433981 
122.096703 0.130578 
122.104362 4.945187 
122.108841 4.977884 
123.06321 1.370183 
123.080215 4.273762 
123.116692 1.122083 
123.13662 0.044843 
124.075607 3.798492 
125.095825 0.042253 
125.360649 0.093989 
125.76931 0.032217 
126.409447 0.094914 
126.633904 0.043602 
126.786339 0.091492 
128.818695 0.072318 
129.069962 0.20996 
131.085403 7.981862 
131.15744 0.121072 
132.080627 0.245822 
132.088257 0.10513 
133.100998 8.754501 
134.059845 7.503278 
134.096222 1.427895 
134.104263 0.178718 
134.611404 0.085271 
134.871597 0.03595 
135.080246 3.565239 
135.116669 22.596029 
135.642822 0.045771 
136.039062 0.101792 
136.075592 11.437522 
136.12001 1.265045 
137.078262 0.096253 
137.095947 6.670464 
137.309769 0.11352 
137.597198 0.081296 
137.733688 0.08751 
138.054901 0.196987 
138.091202 21.935625 
138.108063 0.14299 
138.858459 0.072665 
139.094452 0.935587 
139.112076 0.145756 
139.317734 0.064296 
140.114929 0.093737 
140.349625 0.073437 
142.769547 0.092714 
143.085373 0.31738 
143.263611 0.041115 
143.587997 0.116437 
144.079987 0.12623 
144.093185 3.125304 
145.064575 0.07316 
145.101105 5.493249 
146.096436 0.078241 
147.08017 0.297436 
147.116531 0.753201 
148.075485 8.773243 
148.111664 0.415545 
149.078522 0.184894 
149.095901 6.920479 
149.13237 7.73747 
150.091217 3.792771 
150.097305 0.04469 
150.136551 0.047022 
152.861557 0.106812 
153.61647 0.067996 
157.100922 0.486096 
159.080322 0.191357 
159.116562 38.567909 
160.11235 1.077422 
160.119934 4.318304 
161.095978 0.954967 
161.132477 0.184302 
162.09108 5.350356 
162.127457 0.745696 
163.11145 11.785015 
164.114822 0.599767 
167.106583 0.950502 
168.065445 0.330513 
169.100937 1.204673 
170.764084 0.090417 
172.087799 0.479152 
172.11171 0.099331 
172.770706 0.073223 
173.851242 0.091263 
174.091141 1.013377 
175.111282 0.33239 
176.070969 0.053779 
176.106812 4.413144 
176.143127 6.018097 
177.127167 7.759558 
177.146408 0.136858 
177.346466 0.083701 
182.081055 4.827046 
183.052307 1.815861 
184.060608 0.039878 
186.075912 0.10307 
186.127441 2.99842 
187.029846 0.124518 
187.111542 7.368475 
188.106216 0.178046 
188.115112 0.163773 
190.122375 10.821449 
191.125916 0.258043 
194.08075 0.114648 
198.075821 26.738295 
198.510452 0.111669 
199.079224 1.797989 
199.729706 0.096891 
204.007919 0.048793 
204.138077 20.683517 
205.122269 0.799407 
205.141525 2.244345 
206.153702 0.148066 
209.103729 0.109963 
210.075699 0.218761 
210.112762 0.078105 
210.7202 0.051721 
210.730637 0.050743 
212.091217 2.129386 
213.09346 0.041485 
213.132324 6.293084 
214.122238 3.546728 
219.795273 0.04556 
224.127762 3.433739 
232.132874 7.916046 
233.136505 0.217231 
238.817123 0.042389 
239.828079 0.048353 
249.10965 0.040206 
250.143265 4.399047 
251.225891 0.055591 
252.12262 1.562683 
259.479736 0.049462 
260.65799 0.05073 
262.405151 0.094459 
265.424988 0.035193 
280.0672 0.039822 
293.342957 0.10851 
295.079773 0.089509 
304.184326 0.076551 
324.535126 0.063891 
324.830078 0.047361 
330.541016 0.051379 
333.552521 0.074578 
346.607727 0.044255 
353.39563 0.032876 
358.778046 0.121202 
360.024902 0.123579 
366.360168 0.093698 
372.431885 0.147179 
378.531494 0.131208 
389.336273 0.048395 
399.167267 0.044897 
419.604431 0.078178 
424.945679 0.076304 
454.738007 0.037327 
457.350952 0.069173 
459.322296 0.036074 
462.946686 0.109516 
464.945068 0.045376 
476.156708 0.100049 
478.260712 0.051532 
492.569092 0.051215 
498.789764 0.122248 
500.124847 0.104923 
500.353912 0.22391 
505.538971 0.078083 
END IONS

