BEGIN IONS
PEPMASS=243.0
CHARGE=1+
COMPOUNDNAME=Massbank:KO003265 Kanamycin
LIBRARYQUALITY=3
SMILES=NCC(O1)C(O)C(O)C(O)C1OC(C(N)3)C(O)C(C(N)C3)OC(O2)C(O)C(N)C(O)C(CO)2
INCHIKEY=SBUJHOSQTJFQJX-UHFFFAOYSA-N
INCHI=1S/C18H36N4O11/c19-2-6-10(25)12(27)13(28)18(30-6)33-16-5(21)1-4(20)15(14(16)29)32-17-11(26)8(22)9(24)7(3-23)31-17/h4-18,23-29H,1-3,19-22H2/t4-,5+,6-,7-,8+,9-,10-,11-,12+,13-,14-,15+,16-,17-,18-/m1/s1
MSLEVEL=2
SOURCE_INSTRUMENT=ESI-LC-ESI-QQ
FILENAME=Massbank_ESI_positive_8_1_2014_peaks.mgf
SEQ=*..*
IONMODE=Positive
ORGANISM=MASSBANK
NAME=Massbank:KO003265 Kanamycin [M+2H]++
PI=Putative Massbank Match
DATACOLLECTOR=Massbank
PUBMED=N/A
SUBMITUSER=mwang87
TAGS=
SPECTRUMID=CCMSLIB00000219050
SCANS=9067
52.8 9901.0 
59.8 29703.0 
61.0 34653.5 
68.2 94059.5 
68.9 84158.5 
71.9 49505.0 
84.0 143564.5 
84.9 133663.5 
96.3 19802.0 
97.2 24752.5 
98.0 29703.0 
101.7 34653.5 
102.3 44554.5 
105.4 29703.0 
109.3 24752.5 
110.2 34653.5 
115.4 69307.0 
117.3 14851.5 
132.0 34653.5 
133.9 79208.0 
143.6 29703.0 
145.5 19802.0 
157.4 14851.5 
159.1 1846536.5 
163.3 34653.5 
201.2 89109.0 
226.2 574258.0 
END IONS

