BEGIN IONS
PEPMASS=373.091
CHARGE=1+
COMPOUNDNAME=MITOMYCIN C
LIBRARYQUALITY=3
SMILES=N/A
INCHIKEY=NWIBSHFKIJFRCO-WUDYKRTCSA-N
INCHI=InChI=1S/C15H18N4O5/c1-5-9(16)12(21)8-6(4-24-14(17)22)15(23-2)13-7(18-13)3-19(15)10(8)11(5)20/h6-7,13,18H,3-4,16H2,1-2H3,(H2,17,22)/t6-,7+,13+,15-/m1/s1
MSLEVEL=2
SOURCE_INSTRUMENT=N/A-ESI-QFT
FILENAME=library_mgf.mgf
SEQ=*..*
IONMODE=positive
ORGANISM=MONA
NAME=MITOMYCIN C [M+K]+
PI=MoNA
DATACOLLECTOR=MoNA:VF-NPL-QEHF027735
PUBMED=N/A
SUBMITUSER=mwang87
TAGS=
SPECTRUMID=CCMSLIB00004721316
SCANS=27735
50.078133 0.655536 
50.190872 0.597942 
50.617405 0.701076 
51.00124 0.652189 
51.61507 0.601814 
51.627441 0.73741 
51.659248 0.628736 
51.770691 0.762982 
51.940315 8.420267 
52.137695 0.800047 
52.330639 0.647024 
53.222404 0.452055 
53.2785 0.705804 
53.521568 0.48572 
53.934696 0.539021 
54.372162 0.763542 
54.51524 0.901983 
54.88879 0.940395 
55.013081 0.607691 
55.054462 0.825702 
55.570705 0.528752 
55.7542 0.678091 
55.990036 0.712885 
56.049793 18.51375 
56.092094 0.710457 
56.27457 0.688257 
56.965092 19.12059 
57.070168 45.903324 
57.294273 0.806665 
57.402527 0.860154 
57.644867 1.0485 
57.935085 52.783398 
58.065418 4.719411 
58.736252 0.548759 
59.670292 0.66798 
59.743565 0.710113 
59.930511 12.55588 
60.044762 0.862205 
60.125256 0.578873 
60.434853 0.440447 
60.610111 0.899157 
60.843307 0.462638 
60.895302 0.447869 
61.010838 18.718065 
61.012608 0.760555 
61.262535 0.741084 
61.762749 0.659132 
62.018684 8.178933 
63.59528 0.785298 
63.65416 0.661015 
63.872097 0.848569 
63.933708 0.684595 
65.80143 0.867798 
66.066116 0.726377 
67.05439 0.599132 
67.306877 1.375465 
67.765213 0.433856 
68.54863 0.721191 
69.069992 1.635297 
69.467873 0.689899 
69.621544 0.551276 
69.75135 0.934281 
69.882942 0.686805 
70.37101 0.654019 
70.778137 0.456616 
71.085602 10.967131 
71.150444 0.702942 
71.297432 0.817731 
71.877472 0.587631 
72.515495 0.707415 
72.95002 0.844597 
73.028633 1.279238 
73.04686 40.23135 
73.446075 0.620279 
73.876579 0.662841 
74.049973 0.448879 
74.060059 8.0305 
75.352631 0.438875 
75.446564 0.704043 
75.481682 0.622857 
75.564819 0.530609 
75.718117 0.4623 
77.532272 0.45099 
77.857025 0.637145 
78.997734 0.79158 
80.087456 0.642877 
81.070152 1.530526 
81.738846 0.67722 
82.407127 0.757961 
85.101044 0.640514 
85.805405 0.835112 
85.817848 0.645635 
86.706581 1.006609 
87.043907 1.639476 
88.075783 100.0 
88.847504 0.697552 
89.009331 0.758931 
89.059715 1.669649 
89.099731 1.349825 
91.054527 1.111163 
91.057381 37.429825 
91.355652 0.650463 
91.465103 0.470657 
91.476402 0.627977 
92.057137 0.582712 
92.201836 1.409685 
95.085526 2.699694 
96.292351 0.691537 
96.430374 0.926231 
96.756805 0.945676 
97.35569 0.757741 
98.975342 9.216126 
99.635437 0.770814 
101.77375 0.706876 
102.107544 0.852196 
102.502388 1.005345 
102.828323 0.642252 
102.948029 0.579746 
103.690826 1.537958 
104.103333 0.80232 
104.282433 0.991405 
104.490646 0.836779 
105.04483 14.387723 
105.070045 0.541776 
106.734077 1.443015 
108.626259 0.927808 
108.631592 0.958187 
109.440422 0.646785 
109.64373 1.363027 
111.30249 0.795544 
112.039459 0.791801 
112.230148 0.649937 
113.126175 0.998712 
113.515129 0.551449 
113.869873 4.40906 
116.15239 0.72036 
116.37722 0.483278 
117.062614 0.918061 
117.317787 0.462515 
117.616257 1.257043 
117.795326 0.711148 
118.002029 1.724969 
118.086258 5.251362 
118.275177 0.757742 
119.060448 1.652419 
121.022774 0.53428 
121.109962 1.432887 
122.032547 0.564513 
123.055351 2.645407 
123.205093 0.783602 
124.824074 1.482179 
125.16021 0.741439 
125.630905 0.935829 
126.436111 0.745499 
128.963593 0.691825 
129.400253 1.319599 
129.725693 1.0235 
130.740021 0.786322 
131.060379 0.947474 
132.013992 0.996671 
132.062958 0.77575 
132.068176 1.449158 
132.958191 9.952868 
133.544434 0.464571 
134.979172 2.022901 
136.314621 0.9089 
136.662109 0.911919 
138.151947 0.753646 
140.290314 0.800625 
145.504837 0.552407 
146.974609 3.498881 
147.055084 2.024563 
147.10762 0.544739 
147.494568 0.587599 
147.752533 0.864312 
148.239777 0.676998 
148.441696 0.581566 
148.847565 0.738169 
150.968918 4.343006 
152.135986 0.687389 
152.952118 3.049973 
153.959961 0.634428 
154.715317 0.464492 
154.96698 0.608068 
156.321899 0.903644 
157.07637 0.615952 
157.245316 0.839 
159.055161 4.953822 
159.091553 10.33019 
159.925369 0.770307 
160.42778 0.743584 
160.830139 0.740338 
162.286423 0.571381 
164.783463 0.701563 
167.965836 0.646267 
168.638596 0.656495 
172.167358 0.711223 
174.692261 0.65416 
175.050888 0.625631 
175.868973 0.868156 
177.065247 0.548152 
177.248611 0.738148 
181.689285 1.411654 
182.164352 0.775198 
182.88829 5.021502 
183.888367 1.268524 
185.070801 3.836304 
186.558258 0.68282 
189.072083 0.932312 
189.099609 1.760278 
189.923416 0.958344 
191.32402 0.588992 
194.999527 0.476718 
197.875656 18.983494 
198.413345 0.792242 
198.58757 0.680462 
198.809982 1.002764 
199.549713 0.727318 
199.870895 2.274262 
199.890915 3.206185 
200.081802 0.609205 
201.066269 0.786493 
201.539581 0.874189 
201.690262 0.87228 
202.388702 0.881511 
203.081512 4.594827 
203.773148 0.558313 
206.452637 0.713395 
207.896927 0.77744 
212.070679 0.725974 
212.572128 0.888443 
215.08136 2.680948 
217.902008 0.77139 
218.016479 0.811985 
219.856995 10.059834 
219.879776 0.884698 
220.554688 1.057478 
221.876129 0.494676 
225.102142 6.750145 
227.255478 0.895781 
228.076828 48.977619 
229.084427 2.47302 
230.092224 10.039567 
234.568222 0.815822 
237.05719 1.473105 
237.092819 0.488424 
237.923798 0.663123 
239.550797 0.849007 
239.886353 45.973312 
241.88176 5.221908 
242.09256 17.689686 
244.843338 0.60682 
245.94606 1.355657 
246.778351 0.633154 
249.907059 5.900334 
253.699875 0.901267 
257.004395 0.869694 
257.89682 14.474424 
258.500366 0.800876 
258.91333 0.549877 
259.056519 0.904482 
259.892151 1.789795 
260.298218 0.74883 
261.07196 7.210734 
261.472076 0.827337 
263.071167 0.700755 
268.037415 0.608616 
268.978363 3.786358 
269.978394 0.855827 
270.073425 0.821665 
270.974701 0.522345 
277.066772 12.674891 
281.497894 0.744149 
281.896545 4.552978 
283.263275 0.600325 
284.05246 0.856556 
284.394623 0.819872 
286.06601 0.939153 
288.082764 31.402243 
301.21814 0.967696 
307.55072 0.488145 
308.275452 1.052492 
309.047791 1.140365 
312.84137 0.772663 
313.427429 1.582205 
314.434265 0.959852 
323.386078 0.830422 
335.816315 0.605391 
337.598511 0.743105 
340.046844 0.705226 
353.053314 0.81107 
362.982483 1.495202 
367.998474 0.771212 
369.343079 0.837012 
384.091034 1.115622 
385.506653 0.784529 
386.292847 0.617875 
390.721741 0.627511 
393.535065 0.842836 
END IONS

