BEGIN IONS
PEPMASS=924.496
CHARGE=1+
COMPOUNDNAME=MoNA:688734 Nystatin
LIBRARYQUALITY=3
SMILES=N/A
INCHIKEY=VQOXZBDYSJBXMA-NQTDYLQESA-N
INCHI=InChI=1S/C47H75NO17/c1-27-17-15-13-11-9-7-5-6-8-10-12-14-16-18-34(64-46-44(58)41(48)43(57)30(4)63-46)24-38-40(45(59)60)37(54)26-47(61,65-38)25-36(53)35(52)20-19-31(49)21-32(50)22-33(51)23-39(55)62-29(3)28(2)42(27)56/h5-6,8,10-18,27-38,40-44,46,49-54,56-58,61H,7,9,19-26,48H2,1-4H3,(H,59,60)/b6-5+,10-8+,13-11+,14-12+,17-15+,18-16+/t27-,28-,29-,30+,31+,32+,33+,34-,35+,36+,37-,38-,40+,41-,42+,43+,44-,46-,47+/m0/s1
MSLEVEL=2
SOURCE_INSTRUMENT=LC-ESI-QFT-LC-ESI-QFT
FILENAME=output_mgf.mgf
SEQ=*..*
IONMODE=
ORGANISM=MONA
NAME=MoNA:688734 Nystatin [M-H]-
PI=MoNA
DATACOLLECTOR=MoNA
PUBMED=N/A
SUBMITUSER=mwang87
TAGS=
SPECTRUMID=CCMSLIB00000566991
SCANS=4242
65.0396 0.872027 
67.0189 1.205818 
67.0553 1.277827 
69.0346 22.436445 
70.0298 0.811279 
71.0138 13.806328 
72.0091 0.657415 
72.9931 0.761146 
73.0295 4.06987 
74.0248 0.166015 
81.0346 0.924647 
83.0502 12.843018 
85.0295 11.342862 
86.0247 6.009201 
87.0088 2.971483 
87.0452 0.696604 
88.0404 34.539242 
93.0346 9.446842 
95.0139 0.166169 
95.0503 2.090861 
96.0454 0.105847 
97.0295 2.038007 
97.0658 0.135408 
99.0451 0.68009 
100.0404 1.186192 
102.056 0.149791 
105.0346 0.871147 
105.071 0.306488 
107.0502 0.730639 
107.0867 0.783258 
109.0294 0.391599 
109.0659 0.946768 
110.0374 0.473223 
111.0452 100.0 
112.0485 0.843303 
113.0608 0.660851 
115.0401 40.212789 
118.051 0.311181 
119.0503 0.452968 
119.0867 0.116316 
121.0297 0.162214 
121.0659 1.300614 
122.0611 0.161558 
123.0452 27.889715 
124.0484 0.166772 
125.0608 1.428654 
127.04 1.008605 
129.071 2.191497 
131.0502 2.287619 
131.0713 0.370103 
133.0659 0.452328 
133.1022 0.175845 
135.0452 0.29602 
135.0815 1.125842 
137.0607 9.184836 
138.0562 0.801959 
139.0399 0.372545 
139.0764 4.002959 
141.0557 9.878492 
143.0502 0.120761 
144.0666 0.482071 
145.0505 0.578288 
145.0659 1.624982 
145.1022 0.166483 
147.0816 5.963051 
148.0529 0.162508 
149.0607 14.396168 
150.0688 1.078264 
151.0763 0.394891 
153.0921 0.413895 
155.0715 0.961358 
155.1075 0.789122 
157.0868 0.439805 
159.0664 0.180845 
159.0814 0.168614 
159.1177 0.127965 
161.0609 0.148376 
161.0971 0.119611 
162.0772 4.303469 
163.0765 11.09369 
165.092 16.934257 
167.0712 9.331732 
171.0815 0.180343 
171.1179 0.378989 
173.0607 0.649072 
173.097 4.546725 
175.0762 0.360283 
181.087 2.562729 
183.1026 6.781795 
185.0818 0.162581 
185.1333 0.526055 
187.0762 0.105052 
187.1128 0.351414 
189.092 1.675713 
191.0714 2.407222 
197.1336 0.143395 
199.0973 0.290137 
199.1127 1.721784 
205.1235 0.408113 
207.1026 2.048406 
209.0819 4.223777 
213.1284 0.645287 
215.1077 0.450627 
223.1344 0.297407 
225.1137 0.482327 
225.1647 0.352524 
227.0924 43.109057 
228.0958 0.697954 
233.118 1.188316 
238.1363 0.16184 
239.1441 2.466023 
239.1805 0.550871 
245.1029 8.002639 
248.1052 0.385969 
249.1133 0.594946 
249.1496 0.292667 
257.1909 0.592631 
263.1135 1.13613 
265.1962 0.431499 
267.1236 1.730319 
267.1754 6.795627 
275.129 0.315262 
279.2121 0.153728 
285.1343 0.482364 
285.1854 0.645437 
291.1756 0.175825 
291.2122 0.649643 
293.1393 2.45591 
293.1908 4.098969 
307.2069 0.817762 
311.1499 0.766807 
329.1605 0.142834 
333.2223 5.199445 
338.2125 4.55051 
351.2327 1.60134 
369.2428 1.671158 
377.2483 0.305912 
387.2539 1.929564 
395.2591 1.779576 
404.2584 0.736976 
409.276 0.141109 
413.2481 1.614707 
422.2698 0.411193 
435.29 1.636895 
437.2695 2.006486 
440.2809 0.664444 
453.301 0.816897 
455.2802 0.770888 
458.2913 0.120836 
463.2851 2.301258 
477.3009 0.596432 
489.3019 0.466477 
496.3064 0.309105 
503.3173 1.017404 
514.3191 0.202572 
515.319 0.383732 
521.3257 0.513378 
529.3336 0.482297 
547.3454 0.100504 
557.3269 0.179556 
575.3379 0.661753 
592.3489 0.771226 
601.3549 0.45219 
619.3657 0.31195 
627.3713 0.292614 
645.3786 0.954215 
663.3895 0.371787 
838.4608 0.138893 
END IONS

