BEGIN IONS
TITLE=Scan Number: 1
PEPMASS=271.00601
CHARGE=1+
COMPOUNDNAME=Emodin
LIBRARYQUALITY=3
SMILES=CC1=CC(O)=C2C(C(C(C=C(O)C=C3O)=C3C2=O)=O)=C1
INCHIKEY=RHMXXJGYXNZAPX-UHFFFAOYSA-N
INCHI=InChI=1S/C15H10O5/c1-6-2-8-12(10(17)3-6)15(20)13-9(14(8)19)4-7(16)5-11(13)18/h2-5,16-18H,1H3
MSLEVEL=2
SOURCE_INSTRUMENT=DI-ESI-qTof
FILENAME=f.10mauriz/22_br_pos_H_30eV.mgf;
SEQ=*..*
NOTES=
IONMODE=Positive
ORGANISM=GNPS-LIBRARY
NAME=Emodin M+H
SPECTRUMID=CCMSLIB00000424790
ACTIVATION=CID
INSTRUMENT=ion trap
SCANS=1
141.070236 148.0 
145.058136 251.0 
169.065933 209.0 
197.054901 617.0 
201.053406 222.0 
225.051483 396.0 
229.049469 236.0 
271.059967 1887.0 
272.053406 199.0 
765.731873 264.0 
END IONS

