BEGIN IONS
PEPMASS=245.093
CHARGE=1+
COMPOUNDNAME=N-acetyltryptophan
LIBRARYQUALITY=3
SMILES=N/A
INCHIKEY=DZTHIGRZJZPRDV-UHFFFAOYSA-N
INCHI=InChI=1S/C13H14N2O3/c1-8(16)15-12(13(17)18)6-9-7-14-11-5-3-2-4-10(9)11/h2-5,7,12,14H,6H2,1H3,(H,15,16)(H,17,18)
MSLEVEL=2
SOURCE_INSTRUMENT=N/A-ESI-QFT
FILENAME=library_mgf.mgf
SEQ=*..*
IONMODE=negative
ORGANISM=MONA
NAME=N-acetyltryptophan [M-H]-
PI=MoNA
DATACOLLECTOR=MoNA:VF-NPL-QEHF000852
PUBMED=N/A
SUBMITUSER=mwang87
TAGS=
SPECTRUMID=CCMSLIB00004691915
SCANS=852
50.025154 0.042663 
50.981659 0.04978 
51.178509 0.051686 
51.770481 0.056708 
52.241238 0.066535 
52.328419 0.060714 
52.393429 0.055067 
52.595646 0.044125 
52.901215 0.051507 
54.067665 0.059506 
54.257439 0.048713 
54.314384 0.058281 
54.574947 0.053159 
54.578571 0.044697 
54.942711 0.072419 
56.82785 0.057962 
56.96212 0.04434 
57.13744 0.0601 
57.436687 0.055306 
57.821339 0.039755 
58.028488 39.779377 
58.998528 0.043963 
59.012535 0.306868 
59.031937 0.277759 
59.181149 0.059648 
59.593231 0.055086 
59.862106 0.058476 
60.201153 0.063416 
60.850731 0.044678 
61.132797 0.044499 
61.783897 0.061241 
61.987038 1.405804 
62.425064 0.06136 
62.627792 0.056231 
62.803482 0.057788 
63.082363 0.048393 
64.204582 0.061529 
64.77459 0.054285 
66.219864 0.05913 
68.994049 0.070841 
69.063431 0.047256 
69.31031 0.058399 
69.708542 0.042541 
69.89579 0.056775 
69.902672 0.043915 
70.028519 4.549611 
71.041008 0.060014 
71.938316 0.063862 
72.007797 7.980927 
72.044167 3.99974 
72.312569 0.067852 
72.478935 0.048427 
73.886429 0.063589 
73.994926 0.073849 
74.011314 0.066755 
74.023438 100.0 
74.035362 0.15974 
74.407867 0.058852 
74.743935 0.042074 
75.026779 1.776655 
76.027557 0.045495 
76.698204 0.063583 
79.133797 0.045651 
79.686165 0.065768 
79.857101 0.059805 
81.061501 0.060245 
82.419907 0.054312 
83.22258 0.048139 
84.044243 0.139516 
84.800728 0.045058 
86.023308 0.045465 
86.336105 0.060956 
86.777863 0.082709 
89.147743 0.054122 
89.400925 0.052608 
90.275627 0.059459 
90.643173 0.043013 
90.708954 0.0441 
90.880768 0.060207 
91.933304 0.056435 
92.579323 0.055177 
94.524574 0.068768 
94.725845 0.053609 
95.318268 0.067795 
98.023491 27.941751 
99.026863 0.517197 
99.924583 0.254513 
100.523399 0.057773 
100.721779 0.055716 
101.119247 0.064449 
101.262787 0.046168 
107.922661 0.046156 
109.72184 0.061685 
111.502411 0.065633 
113.25396 0.0673 
116.026398 0.089 
116.049416 55.989689 
117.052773 4.884005 
117.657784 0.072788 
125.097153 0.063922 
127.012611 0.050588 
128.824478 0.069435 
129.057281 0.06411 
130.06517 8.217098 
131.068298 0.056234 
131.732147 0.070226 
132.080185 0.046793 
133.598038 0.075147 
134.421295 0.064289 
137.902466 0.072223 
142.065155 14.072712 
143.068649 1.21677 
144.374695 0.050101 
147.919083 0.06097 
149.428436 0.069206 
149.974243 0.053724 
153.252243 0.053993 
153.416763 0.069205 
154.737106 0.045415 
155.600449 0.059633 
155.784058 0.044559 
156.045349 0.055356 
156.080872 0.618387 
157.076111 0.072493 
158.706024 0.052595 
159.007584 0.049261 
159.091812 3.364084 
160.095245 0.060696 
163.871597 0.070677 
164.428131 0.067764 
171.397491 0.079536 
172.868484 0.058551 
178.753769 0.055883 
181.044205 0.044422 
182.540253 0.042093 
183.092072 0.732866 
185.315338 0.055211 
186.055344 0.247383 
191.789032 0.050656 
192.954346 0.06215 
193.69278 0.071102 
198.144211 0.043923 
201.349686 0.055964 
201.971512 0.081431 
203.082169 3.141555 
203.759705 0.068973 
204.084641 0.057045 
205.835251 0.067973 
207.660736 0.063527 
219.73114 0.058153 
219.745026 0.434904 
233.380371 0.073514 
233.447449 0.041893 
243.733414 0.05521 
245.142471 0.078208 
253.572861 0.053396 
253.639648 0.069654 
255.477402 0.062136 
260.60495 0.063418 
261.635651 0.057107 
268.486267 0.06774 
END IONS

