BEGIN IONS
PEPMASS=273.076
CHARGE=1+
COMPOUNDNAME=Massbank:PB000123 Naringenin|5,7-dihydroxy-2-(4-hydroxyphenyl)chroman-4-one
LIBRARYQUALITY=3
SMILES=C1C(OC2=CC(=CC(=C2C1=O)O)O)C3=CC=C(C=C3)O
INCHIKEY=FTVWIRXFELQLPI-UHFFFAOYSA-N
INCHI=1S/C15H12O5/c16-9-3-1-8(2-4-9)13-7-12(19)15-11(18)5-10(17)6-14(15)20-13/h1-6,13,16-18H,7H2
MSLEVEL=2
SOURCE_INSTRUMENT=ESI-LC-ESI-QTOF
FILENAME=Massbank_ESI_positive_8_1_2014_peaks.mgf
SEQ=*..*
IONMODE=Positive
ORGANISM=MASSBANK
NAME=Massbank:PB000123 Naringenin|5,7-dihydroxy-2-(4-hydroxyphenyl)chroman-4-one [M+H]+
PI=Putative Massbank Match
DATACOLLECTOR=Massbank
PUBMED=N/A
SUBMITUSER=mwang87
TAGS=
SPECTRUMID=CCMSLIB00000221553
SCANS=10303
119.051 467.616 
123.044 370.662 
147.044 6078.145 
148.048 113.113 
151.039 125.695 
153.018 10000.0 
154.023 270.265 
179.036 141.192 
189.058 176.358 
255.067 169.007 
273.076 5286.093 
274.081 246.689 
END IONS

