BEGIN IONS
PEPMASS=271.061
CHARGE=1+
COMPOUNDNAME=MoNA:2856256 Naringenin
LIBRARYQUALITY=3
SMILES=N/A
INCHIKEY=FTVWIRXFELQLPI-UHFFFAOYSA-N
INCHI=InChI=1S/C15H12O5/c16-9-3-1-8(2-4-9)13-7-12(19)15-11(18)5-10(17)6-14(15)20-13/h1-6,13,16-18H,7H2
MSLEVEL=2
SOURCE_INSTRUMENT=LC-ESI-QTOF-LC-ESI-QTOF
FILENAME=output_mgf.mgf
SEQ=*..*
IONMODE=
ORGANISM=MONA
NAME=MoNA:2856256 Naringenin [M-H]-
PI=MoNA
DATACOLLECTOR=MoNA
PUBMED=N/A
SUBMITUSER=mwang87
TAGS=
SPECTRUMID=CCMSLIB00000569313
SCANS=6564
107.0128 12.272389 
108.022 1.198132 
109.0285 1.475665 
117.0344 2.897177 
119.0496 100.0 
119.0798 2.958099 
119.1019 1.529818 
119.1237 0.731063 
119.1512 1.482434 
119.1861 0.507683 
121.0323 0.629527 
143.0492 2.944561 
145.0264 1.834428 
151.0026 4.508224 
157.0614 0.812293 
161.0603 1.238746 
177.0175 1.13721 
185.0583 0.534759 
187.043 2.633182 
201.0573 0.60245 
END IONS

