BEGIN IONS
PEPMASS=995.556
CHARGE=1+
COMPOUNDNAME=Massbank:EA299211 Microcystin-LR|(5R,8R,11R,12S,15S,18S,19S,22R)-15-{3-[(Diaminomethylene)amino]propyl}-8-isobutyl-18-[(1E,3E,5S,6S)-6-methoxy-3,5-dimethyl-7-phenyl-1,3-heptadien-1-yl]-1,5,12,19-tetramethyl-2-methylene
LIBRARYQUALITY=3
SMILES=CC1C(NC(=O)C(NC(=O)C(C(NC(=O)C(NC(=O)C(NC(=O)C(=C)N(C(=O)CCC(NC1=O)C(=O)O)C)C)CC(C)C)C(=O)O)C)CCCN=C(N)N)C=CC(=CC(C)C(CC2=CC=CC=C2)OC)C
INCHIKEY=ZYZCGGRZINLQBL-UHFFFAOYSA-N
INCHI=1S/C49H74N10O12/c1-26(2)23-37-46(66)58-40(48(69)70)30(6)42(62)55-35(17-14-22-52-49(50)51)45(65)54-34(19-18-27(3)24-28(4)38(71-10)25-33-15-12-11-13-16-33)29(5)41(61)56-36(47(67)68)20-21-39(60)59(9)32(8)44(64)53-31(7)43(63)57-37/h11-13,15-16,18-19,24,26,28-31,34-38,40H,8,14,17,20-23,25H2,1-7,9-10H3,(H,53,64)(H,54,65)(H,55,62)(H,56,61)(H,57,63)(H,58,66)(H,67,68)(H,69,70)(H4,50,51,52)/b19-18+,27-24+/t28-,29-,30-,31+,34-,35-,36+,37-,38-,40+/m0/s1
MSLEVEL=2
SOURCE_INSTRUMENT=ESI-LC-ESI-ITFT
FILENAME=Massbank_ESI_positive_8_1_2014_peaks.mgf
SEQ=*..*
IONMODE=Positive
ORGANISM=MASSBANK
NAME=Massbank:EA299211 Microcystin-LR|(5R,8R,11R,12S,15S,18S,19S,22R)-15-{3-[(Diaminomethylene)amino]propyl}-8-isobutyl-18-[(1E,3E,5S,6S)-6-methoxy-3,5-dimethyl-7-phenyl-1,3-heptadien-1-yl]-1,5,12,19-tetramethyl-2-methylene [M+H]+
PI=Putative Massbank Match
DATACOLLECTOR=Massbank
PUBMED=N/A
SUBMITUSER=mwang87
TAGS=
SPECTRUMID=CCMSLIB00000213072
SCANS=6120
70.065 14026.7 
84.0443 5136.9 
86.0962 7059.9 
91.0538 3732.0 
93.0698 5775.1 
95.0599 1902.1 
103.0541 16413.2 
105.0697 19961.3 
107.0854 26104.8 
112.0868 11949.6 
114.1025 2247.4 
115.0866 5745.3 
117.0698 11052.2 
120.0804 1673.0 
127.0864 44355.5 
130.0493 2656.7 
131.0857 1939.7 
133.101 1885.3 
135.0802 54910.9 
135.1166 15798.4 
138.0548 1886.5 
140.0817 2488.7 
141.0658 4209.7 
155.0814 6498.2 
157.1082 2999.8 
163.1121 2919.6 
167.0812 6570.7 
174.1341 3246.7 
195.0757 3378.4 
196.0996 2835.7 
200.1132 3595.6 
213.0867 7174.6 
223.1191 1748.0 
239.0664 2007.7 
END IONS

