BEGIN IONS
PEPMASS=890.526
CHARGE=1+
COMPOUNDNAME=Pesticide4_Avermectin B1b_C48H72O14_(1'R,2S,4'S,5S,6R,8'R,10'E,12'S,13'S,14'E,16'E,20'R,21'R,24'S)-6-[(2S)-2-Butanyl]-21',24'-dihydroxy-5,11',13',22'-tetramethyl-2'-oxo-5,6-dihydrospiro[pyran-2,6'-[3,7,19]trioxatetracyclo[15.6.1.1~4,8~.0~20,24~]pentacosa[10,14,16,22]tetraen]-12'-yl 2,6-dideoxy-4-O-(2,6-dideoxy-3-O-methyl-alpha-L-arabino-hexopyranosyl)-3-O-methyl-alpha-L-arabino-hexopyranoside
LIBRARYQUALITY=1
SMILES=CCC(C)C1C(C=CC2(O1)CC3CC(O2)CC=C(C(C(C=CC=C4COC5C4(C(C=C(C5O)C)C(=O)O3)O)C)OC6CC(C(C(O6)C)OC7CC(C(C(O7)C)O)OC)OC)C)C
INCHIKEY=RRZXIRBKKLTSOM-XPNPUAGNSA-N
INCHI=InChI=1S/C48H72O14/c1-11-25(2)43-28(5)17-18-47(62-43)23-34-20-33(61-47)16-15-27(4)42(26(3)13-12-14-32-24-55-45-40(49)29(6)19-35(46(51)58-34)48(32,45)52)59-39-22-37(54-10)44(31(8)57-39)60-38-21-36(53-9)41(50)30(7)56-38/h12-15,17-19,25-26,28,30-31,33-45,49-50,52H,11,16,20-24H2,1-10H3/b13-12+,27-15+,32-14+/t25-,26-,28-,30-,31-,33+,34-,35-,36-,37-,38-,39-,40+,41-,42-,43+,44-,45+,47+,48+/m0/s1
MSLEVEL=2
SOURCE_INSTRUMENT=-Q-Exactive Plus Orbitrap Res 70k
FILENAME=Pesticide_Mix4_pos.mzXML
SEQ=*..*
IONMODE=positive
ORGANISM=GNPS-COLLECTIONS-PESTICIDES-POSITIVE
NAME=Pesticide4_Avermectin B1b_C48H72O14_(1'R,2S,4'S,5S,6R,8'R,10'E,12'S,13'S,14'E,16'E,20'R,21'R,24'S)-6-[(2S)-2-Butanyl]-21',24'-dihydroxy-5,11',13',22'-tetramethyl-2'-oxo-5,6-dihydrospiro[pyran-2,6'-[3,7,19]trioxatetracyclo[15.6.1.1~4,8~.0~20,24~]pentacosa[10,14,16,22]tetraen]-12'-yl 2,6-dideoxy-4-O-(2,6-dideoxy-3-O-methyl-alpha-L-arabino-hexopyranosyl)-3-O-methyl-alpha-L-arabino-hexopyranoside M+NH4
PI=Dorrestein/Touboul
DATACOLLECTOR=lfnothias
PUBMED=n/a
SUBMITUSER=mwang87
TAGS=
SPECTRUMID=CCMSLIB00001058620
SCANS=3001
70.16127 1564.154785 
71.049667 46858.652344 
71.086044 1678.654785 
71.600616 1602.070557 
72.204224 1687.862427 
72.484093 1571.081299 
73.065308 53083.09375 
73.502373 1694.745117 
75.044449 1733.7677 
77.060188 2970.010498 
77.291054 1766.581787 
78.27932 1663.505371 
78.66703 1637.307739 
79.054626 83881.09375 
79.180954 1836.867676 
81.033852 9203.230469 
81.07019 199997.609375 
83.049416 17655.947266 
83.085815 14901.310547 
85.028656 109712.5625 
85.065094 59802.492188 
87.044266 49202.605469 
88.637428 1802.647217 
89.055855 2128.56665 
91.054459 27608.708984 
92.890411 1789.66626 
93.070061 107578.054688 
94.749802 1934.661987 
95.046844 2910.80957 
95.049255 724904.375 
95.085754 55998.785156 
97.028595 7243.92041 
97.065094 236300.734375 
97.10144 15785.080078 
97.327545 1833.646118 
97.928917 1828.044067 
99.044174 9014.868164 
99.080643 7641.763184 
101.059898 23911.771484 
105.045029 2526.600098 
105.070045 63920.527344 
107.049286 33987.347656 
107.085815 92345.203125 
109.065079 114471.0 
109.10154 341760.9375 
111.044403 33427.035156 
111.080772 16633.896484 
112.076019 3783.025879 
113.059891 764605.5 
115.054375 2573.179932 
115.23896 2368.915039 
117.070206 26526.556641 
119.049538 4467.980469 
119.085869 82553.914062 
121.064896 55002.113281 
121.101532 118617.132812 
123.044449 9581.706055 
123.080719 56509.570312 
123.116989 440595.0 
125.060005 13491.298828 
125.096237 3491.258789 
125.132736 2199.302246 
127.075615 99856.398438 
128.062363 3556.280518 
129.070023 8537.546875 
130.086563 17071.476562 
131.085815 35770.570312 
133.065109 14417.882812 
133.101456 51884.832031 
135.044388 7608.444336 
135.080841 59661.226562 
135.11705 27439.205078 
135.302719 1706.194702 
137.059937 26404.576172 
137.096466 61539.390625 
137.133011 3504.888672 
139.075714 2515.020752 
141.070328 4291.166016 
143.070404 13642.991211 
143.085968 47494.257812 
145.064987 20021.955078 
145.086487 573567.3125 
145.10144 33988.609375 
147.080688 34984.015625 
147.117035 23326.4375 
149.060196 8718.012695 
149.096436 19015.216797 
149.132721 3559.4021 
151.075851 26261.017578 
151.11203 195971.40625 
151.11554 2468.067871 
153.055069 4560.646973 
153.091446 4331.800293 
153.127716 14546.166992 
155.086212 10659.141602 
156.093704 8397.509766 
157.101593 23595.498047 
158.073135 3301.05957 
159.080704 14202.369141 
159.117477 27689.029297 
161.060318 2652.674072 
161.081161 2537.53833 
161.096573 16047.46582 
161.133041 10633.342773 
162.112839 39232.328125 
163.039459 2128.288086 
163.075928 34402.757812 
163.112061 2357.654053 
163.148621 7505.524902 
165.091599 31395.273438 
165.127808 9928.282227 
167.05867 2277.875977 
167.0858 2822.77124 
169.101852 17573.744141 
169.122635 202747.328125 
169.402527 1675.459473 
171.080673 8906.371094 
171.117279 43873.78125 
173.060547 1883.177124 
173.096741 16773.294922 
173.132828 16764.373047 
174.589249 2034.671875 
175.112289 4624.283691 
175.148544 35678.269531 
177.05484 4063.014404 
177.127487 9908.886719 
177.163834 2585.025146 
179.107162 8276.446289 
179.143555 8444.991211 
181.085983 17648.722656 
181.10173 7624.204102 
182.073135 3037.236572 
183.102097 19114.857422 
183.117523 10721.324219 
185.096603 2130.531494 
185.133072 13428.666016 
187.075775 3118.888916 
187.112335 16369.551758 
187.14856 14342.21582 
189.054825 6747.119141 
189.091812 11199.085938 
189.128189 4528.550781 
189.163971 8062.424316 
193.122986 4164.320312 
193.159241 236170.53125 
197.096542 17250.8125 
197.132797 13003.667969 
198.24527 2146.390625 
199.111893 98948.117188 
199.148544 27226.693359 
201.127808 3190.288086 
203.143524 13163.635742 
205.159332 9364.461914 
207.101898 16346.331055 
207.116684 1999.561157 
209.133011 3688.39917 
211.149109 3161.20874 
213.127335 2241.667236 
215.070648 2605.018799 
215.107452 22472.876953 
215.143372 10769.55957 
217.122742 10422.123047 
217.15921 22939.404297 
219.13887 17645.917969 
221.118286 3566.98291 
221.154236 31034.203125 
225.091125 15286.243164 
225.113007 25171.9375 
225.164261 2116.31665 
227.106766 16499.828125 
229.123077 3282.649658 
235.16983 3355.321777 
239.128052 31541.119141 
241.158707 2089.671387 
243.101852 22460.941406 
245.117752 123378.234375 
247.148727 1952.261475 
249.127625 8522.355469 
251.371216 2541.072266 
253.195618 7396.09375 
257.139008 4020.160645 
261.112213 34725.253906 
263.106567 3163.431152 
265.121857 2202.77124 
267.174896 2257.543213 
269.190063 7773.461914 
271.205902 12792.898438 
272.213776 2219.080566 
283.132721 2134.908447 
287.201202 30248.792969 
288.20816 33320.875 
289.216339 31308.632812 
293.154297 8904.379883 
305.211487 1041220.125 
305.459503 1972.809326 
307.226776 149287.25 
311.164124 3467.097656 
321.148834 7817.708008 
327.276855 1944.253662 
339.159851 13191.875 
357.170685 20598.833984 
357.186737 2285.485107 
383.72287 2287.63623 
383.993927 2058.551025 
447.347351 83771.710938 
448.351379 21661.712891 
449.355347 2472.557129 
468.182526 2144.668213 
521.918152 2062.579102 
531.311462 2446.210938 
549.321106 32636.753906 
562.052551 2169.558838 
565.317993 19889.169922 
567.331848 12699.945312 
573.143677 2317.955078 
586.3703 1983.032227 
589.426025 2334.994141 
626.308289 2006.026733 
656.210449 2067.606445 
747.848267 2613.480469 
END IONS

