BEGIN IONS
PEPMASS=639.311
CHARGE=1+
COMPOUNDNAME=deferrioxamine E
LIBRARYQUALITY=3
SMILES=N/A
INCHIKEY=NHKCCADZVLTPPO-UHFFFAOYSA-N
INCHI=InChI=1S/C27H48N6O9/c34-22-10-14-26(38)32(41)20-8-3-6-18-30-24(36)12-15-27(39)33(42)21-9-2-5-17-29-23(35)11-13-25(37)31(40)19-7-1-4-16-28-22/h40-42H,1-21H2,(H,28,34)(H,29,35)(H,30,36)
MSLEVEL=2
SOURCE_INSTRUMENT=N/A-ESI-QFT
FILENAME=library_mgf.mgf
SEQ=*..*
IONMODE=positive
ORGANISM=MONA
NAME=deferrioxamine E [M+K]+
PI=MoNA
DATACOLLECTOR=MoNA:VF-NPL-QEHF004058
PUBMED=N/A
SUBMITUSER=mwang87
TAGS=
SPECTRUMID=CCMSLIB00004695121
SCANS=4058
50.886395 1.288913 
51.118004 1.352288 
51.768383 0.547658 
52.430004 0.115367 
52.432976 0.015897 
53.544537 1.046726 
53.850533 0.991137 
54.109241 1.127797 
54.532558 0.584212 
55.0187 0.214527 
55.055107 0.458434 
55.293301 0.625669 
55.603363 1.027083 
55.935299 0.029129 
56.050297 0.28959 
56.965603 2.410572 
57.034363 0.025872 
57.070721 1.719238 
57.18417 1.21553 
57.20462 1.333499 
57.415394 0.120339 
58.042145 0.020052 
58.066036 0.018508 
58.104588 1.003985 
58.473949 0.126845 
59.049946 0.032657 
59.061279 0.027039 
59.285305 0.115881 
59.3349 1.375367 
59.454418 0.850471 
59.873714 1.544573 
59.932476 0.046165 
59.968384 1.260757 
60.045216 0.035378 
61.907944 1.135802 
62.69577 1.582335 
63.580296 0.108648 
64.053589 0.013352 
64.489067 0.10524 
65.032188 1.07963 
65.190117 0.0139 
65.217659 0.630397 
66.088928 0.115972 
67.055023 0.844126 
67.263168 1.479272 
68.050308 0.024108 
68.70076 1.504417 
69.070641 2.458295 
69.072639 0.02217 
69.648705 0.013911 
70.065872 1.152336 
70.067787 0.023054 
70.074074 0.02914 
70.276443 0.253488 
70.286865 1.008262 
71.049957 0.024926 
71.077225 1.344872 
71.086258 0.91768 
71.586304 1.507468 
72.045135 0.15596 
72.081604 0.077315 
72.937874 0.081155 
73.029106 0.279938 
73.065567 0.154677 
74.060905 0.055987 
74.09729 0.067852 
74.516815 1.147011 
76.040047 0.023619 
76.196037 0.119875 
76.382698 1.263762 
76.609398 0.016298 
76.887222 1.527275 
77.093407 1.449835 
77.687309 1.472509 
78.233246 0.016154 
79.054939 0.062931 
79.326828 0.247161 
79.713707 1.298858 
80.05027 0.06084 
80.055328 0.267006 
80.612541 0.052273 
80.730637 0.050174 
81.070526 0.990238 
81.949219 0.113458 
82.065826 0.542329 
82.965134 0.632232 
83.086227 0.195108 
83.173187 1.513888 
83.176842 0.105824 
83.449173 0.913479 
84.044991 0.347485 
84.081421 30.507761 
84.486046 1.271498 
85.06546 0.139278 
85.08477 0.495889 
85.089218 0.117604 
85.101807 0.464226 
86.060699 0.018697 
86.097084 1.320929 
86.849876 0.050794 
86.878365 1.423562 
87.044746 1.005741 
87.584549 1.196583 
87.832748 0.644619 
88.013016 1.245211 
88.039955 0.029479 
88.076447 0.061412 
88.727486 0.837953 
89.060272 4.039698 
89.286247 0.249574 
90.063522 0.243568 
90.439713 0.015069 
90.948341 0.166877 
91.054955 0.024387 
91.058098 0.024286 
91.454315 0.231075 
91.579819 0.995211 
93.070572 0.070459 
93.081146 1.050285 
94.065857 0.032052 
94.812355 1.35502 
95.049767 0.087545 
95.08609 0.110822 
95.969856 0.118707 
96.045097 0.027159 
96.062836 1.259411 
96.081291 0.109365 
96.214653 1.495965 
96.909676 1.289196 
97.065025 0.893431 
97.076508 0.145005 
97.101761 0.086513 
98.060631 0.036656 
98.096886 0.21771 
99.044769 0.022481 
99.080994 0.023998 
99.092392 0.038123 
100.039848 8.342802 
100.076172 0.813434 
100.150368 1.472275 
101.022018 0.591324 
101.043297 0.073101 
101.060326 0.02323 
101.079865 0.01433 
101.963966 0.176613 
102.09185 7.461746 
102.570213 1.556924 
102.666656 1.479501 
103.095222 0.21993 
104.944527 1.100389 
105.070343 0.028345 
106.063103 11.994805 
106.1875 0.654868 
106.26178 0.118018 
106.371445 0.051934 
106.760323 0.63105 
107.070747 0.017924 
107.085991 0.093603 
107.875931 1.122495 
107.887604 0.111063 
108.042351 0.021502 
108.156395 0.562611 
108.958649 0.024843 
109.065208 0.034332 
109.07653 0.01406 
109.101601 0.115699 
109.562096 1.348197 
110.060501 0.107636 
110.084152 0.017913 
110.096909 0.095187 
110.649872 0.014435 
110.854401 0.625042 
111.092155 0.024264 
111.130409 0.014939 
112.039665 0.707569 
112.076149 0.155469 
112.112526 0.028528 
113.060417 0.024046 
113.71711 1.004548 
114.091904 0.172768 
114.46154 0.886587 
115.039291 0.949818 
115.087097 0.023056 
116.034637 0.071493 
116.042702 0.173958 
116.071312 0.032197 
116.348396 1.298659 
117.043663 0.077708 
117.959 0.018305 
118.058144 1.874785 
118.150162 1.130211 
119.061462 0.253812 
120.082451 0.326085 
121.065163 0.069759 
121.076462 0.037753 
121.101593 0.025815 
121.142654 0.050042 
122.057678 0.881319 
122.096779 0.435489 
122.847145 0.052316 
123.005447 12.648678 
123.044151 0.096425 
123.089584 3.603816 
124.073502 0.201436 
124.093071 0.018714 
124.112373 0.056418 
124.544975 1.241157 
125.10508 0.023803 
126.05513 0.035764 
126.091759 0.063715 
126.750954 0.119062 
128.034531 0.096878 
128.1073 0.227646 
129.102982 0.060223 
130.017746 0.288983 
130.050079 0.120565 
133.085968 0.369259 
133.550507 1.391349 
134.089157 0.016367 
134.486984 0.052174 
135.099365 0.046353 
135.823959 0.949657 
136.075775 0.064286 
136.702225 1.632406 
137.107483 0.405303 
137.119095 0.112147 
137.985794 1.278792 
138.055237 0.018754 
138.091431 5.089964 
138.102127 0.112947 
138.127792 0.213326 
138.975449 0.655691 
139.075424 0.070862 
139.086258 0.285335 
139.094955 0.07596 
139.111969 0.058114 
139.451904 1.406803 
140.031982 0.026172 
140.070618 0.622953 
140.10701 0.285546 
140.143417 0.120583 
140.404541 0.053164 
141.054611 0.031408 
141.090973 0.033722 
141.099716 1.884662 
141.995483 0.016727 
142.01709 0.135915 
142.086456 0.02413 
142.122818 0.710375 
144.10202 0.93809 
144.958679 0.021324 
145.989807 0.112104 
146.012299 0.030261 
147.245117 0.118354 
148.00325 1.297958 
148.028168 0.519821 
148.075653 0.086985 
148.355591 1.502176 
149.107452 0.019512 
149.525757 1.454135 
150.090637 0.023543 
150.305237 1.227543 
150.984421 1.022793 
151.018036 0.028184 
151.084991 0.028137 
151.12326 0.090997 
152.070786 0.095988 
152.107269 0.015683 
152.259201 1.123446 
153.033493 0.243098 
153.040344 0.260572 
153.102188 0.138094 
153.894638 0.630287 
153.929352 0.269911 
154.049667 0.015831 
154.086349 2.491377 
155.049149 3.229427 
155.068771 0.014514 
155.089874 0.075459 
155.261719 0.293216 
155.97467 0.017497 
155.996994 2.022651 
156.102264 0.032817 
156.138535 0.035953 
157.990143 0.029621 
158.012085 0.075439 
158.273682 0.602823 
159.847748 0.058619 
159.969803 0.014804 
160.005585 0.038883 
160.028168 0.060077 
161.985413 0.02867 
162.043991 0.01574 
162.968826 0.018472 
163.086441 0.027622 
163.752472 1.272872 
164.106476 0.017685 
165.055542 0.061362 
165.102386 3.401807 
165.139084 0.08947 
166.039185 0.031273 
166.048065 0.256226 
166.086349 9.438807 
166.105011 0.112519 
167.04982 0.149116 
167.055939 0.149398 
167.082077 0.023892 
167.090256 0.425992 
167.118195 0.135356 
167.267548 0.131765 
167.310501 0.616615 
168.102005 3.506132 
168.764877 0.113536 
169.028381 0.093048 
169.10556 0.063298 
169.314072 0.055 
169.990005 0.097822 
170.012909 0.016731 
170.081711 0.020623 
171.021545 0.655559 
171.043991 0.079443 
171.073471 0.234901 
172.005783 0.164747 
173.021545 0.12682 
173.037338 0.359516 
173.059723 3.172119 
173.900497 0.256291 
173.985336 0.02835 
174.007538 1.385283 
174.02153 0.089071 
174.044144 0.131685 
174.242783 0.132305 
175.053055 0.024518 
176.000488 0.029314 
177.10025 0.033293 
178.084976 0.016572 
179.115936 0.730134 
180.063156 0.408673 
180.101944 0.14651 
181.058533 0.024864 
181.097321 0.145869 
182.080963 0.17356 
182.117935 0.160305 
182.558746 0.113508 
183.044052 1.466357 
183.112946 0.617636 
184.064606 0.02405 
184.09697 2.883731 
184.116348 0.057387 
185.029907 0.022426 
185.038147 0.021874 
185.059784 0.549426 
185.100388 0.093937 
185.128433 0.458348 
185.261139 0.053568 
185.985886 0.015937 
186.021225 0.059643 
186.080383 0.274913 
186.597565 1.509915 
187.016815 0.027608 
187.038864 0.023774 
187.075851 0.026297 
188.023819 0.057517 
188.996338 0.101081 
189.601059 1.307966 
189.718719 1.417447 
189.803726 1.307607 
189.979904 0.155114 
190.085709 0.01999 
191.711639 0.272622 
191.968918 1.497116 
192.01857 0.139363 
193.065155 0.119347 
193.082458 0.633672 
193.09584 0.063355 
193.36734 1.114869 
194.02713 0.020411 
194.079544 0.028084 
195.080566 0.438489 
195.111847 0.080232 
196.095444 0.082099 
196.144485 0.022499 
197.001816 0.020478 
197.037415 0.058833 
197.059952 0.05924 
197.129303 0.021554 
198.042526 0.024579 
198.112762 0.030415 
198.160431 0.063489 
199.016815 0.067357 
199.075165 0.146801 
200.000961 0.023437 
200.02388 0.136292 
200.037003 0.153086 
200.692535 0.881347 
200.995895 0.020665 
201.031937 0.17373 
201.055328 0.107643 
201.123444 4.78952 
202.075195 0.254501 
202.126877 0.373708 
202.433304 1.219039 
203.033081 0.019217 
203.070267 0.019928 
203.129318 0.033766 
204.091156 2.310915 
204.131516 0.021444 
205.0952 0.821146 
206.079117 11.482395 
207.082306 0.026331 
207.110641 0.304422 
207.990723 0.070874 
208.094757 0.221587 
209.037659 0.03329 
209.059998 0.381651 
209.090729 0.02169 
209.127136 0.02406 
210.021515 0.063427 
210.110794 0.079111 
211.017136 0.018047 
211.052597 0.0168 
211.075592 21.068729 
211.107391 0.021935 
211.568985 1.092205 
212.037155 0.3723 
212.059738 0.229564 
212.078537 0.251684 
213.031464 0.101539 
213.091248 21.013504 
213.123749 0.066558 
213.302643 0.965564 
214.039505 0.088229 
214.052658 0.152597 
214.074905 0.654579 
214.094604 0.185752 
215.012497 0.016539 
215.048279 0.075555 
215.069916 0.239996 
215.107101 0.189777 
215.12558 0.028017 
216.053726 0.024788 
216.090591 0.249221 
216.970367 0.017904 
217.063812 0.071233 
217.086044 0.022444 
218.033539 0.02294 
219.043961 0.022211 
219.111816 0.021014 
220.136841 1.496293 
221.037094 0.01847 
221.059937 0.605962 
221.127914 0.02445 
222.10141 0.37585 
222.121689 0.054427 
222.227905 0.878622 
223.016953 0.033425 
223.075165 0.214945 
223.10524 18.346474 
223.572769 1.621941 
224.059982 0.017819 
224.089355 4.642012 
224.110092 0.03347 
224.13768 0.02433 
225.032028 0.165405 
225.09108 0.384649 
225.122223 0.213197 
226.016083 0.025924 
227.011398 0.027238 
227.048172 0.194431 
227.070419 0.449179 
227.106842 0.322075 
227.139053 0.027981 
228.031677 0.100514 
228.054581 0.150152 
229.063843 0.465004 
229.08606 7.051977 
230.070312 0.383368 
231.079559 0.139741 
231.101654 2.44598 
233.117172 0.234588 
235.10585 0.276617 
236.109573 0.265677 
236.137253 0.364646 
237.032303 0.619629 
237.054352 0.286352 
237.120987 0.692889 
237.159912 0.027439 
238.036362 0.032187 
238.105927 0.028785 
239.048447 0.867626 
239.070404 66.021057 
239.100586 1.888721 
239.13913 0.0227 
240.026672 1.330781 
240.053421 0.351765 
240.074051 0.617341 
240.107666 0.265017 
240.121933 0.026342 
241.026947 0.618487 
241.063446 0.306999 
241.086151 3.168832 
241.117706 0.583855 
242.069534 0.451587 
243.042755 0.218002 
243.065826 0.016674 
243.101746 0.319019 
243.134613 0.072919 
244.026291 0.023313 
244.086212 0.018088 
245.021164 0.01778 
245.058395 0.028334 
245.080429 0.08153 
245.795059 0.599211 
246.064163 0.090232 
248.08107 0.024614 
248.137543 0.271642 
248.812088 0.054579 
249.090714 0.020866 
249.121994 0.02638 
251.048187 0.084948 
251.101318 0.70769 
251.137131 0.023374 
251.225342 0.304222 
252.043259 0.151257 
252.103348 0.018119 
252.132065 0.031298 
253.026459 0.110008 
253.085693 0.569812 
254.058044 0.08991 
255.042953 2.531266 
255.06514 2.250326 
255.079254 0.031719 
255.101257 0.216865 
255.231964 0.105863 
256.026093 0.028902 
256.046692 0.025628 
256.073456 0.325086 
257.048157 1.41663 
257.058655 1.125693 
257.08078 100.0 
258.042786 0.05028 
258.062805 0.212508 
258.084167 5.589382 
259.096741 3.525217 
259.132507 0.058843 
260.080994 0.024111 
260.10022 0.019246 
260.436401 1.362248 
261.121338 0.024893 
262.188934 0.08875 
264.896759 0.12442 
265.02655 0.019509 
265.063171 0.020287 
265.116638 0.0321 
265.153931 0.022675 
266.112091 0.018435 
266.147644 0.033274 
267.043152 0.06014 
267.06485 0.365227 
267.101807 1.014034 
267.133514 0.06265 
269.023529 0.018675 
269.058624 0.079434 
269.08078 0.815295 
269.095154 0.064751 
269.116943 1.238379 
270.052704 0.024817 
271.000885 0.066515 
271.037598 0.070271 
271.074524 0.025536 
271.096405 1.170555 
272.079132 0.017375 
274.084747 2.290129 
275.0914 3.088563 
277.086121 0.150194 
277.117188 0.023074 
278.060059 0.026246 
278.149475 0.026184 
279.042419 0.024159 
279.101349 0.031251 
279.132568 0.062846 
280.075623 0.017634 
281.024139 1.123712 
281.058533 0.021681 
283.075073 0.020935 
283.097382 0.028364 
283.128815 0.523608 
283.263306 2.250333 
284.13092 0.021361 
284.266724 0.026496 
285.056671 0.062365 
285.074982 1.047173 
285.112457 2.090774 
287.127716 0.31207 
289.116791 0.025224 
293.059875 0.241688 
293.079987 0.253926 
293.148956 0.715389 
294.089386 0.017093 
294.17984 0.031621 
295.075623 0.347674 
295.096527 5.750975 
295.126953 0.033593 
295.48056 1.257201 
297.054291 0.025418 
297.074982 0.065976 
297.111908 0.166772 
298.687012 1.325879 
299.068939 0.205608 
299.089325 0.019146 
301.084534 0.020626 
305.110626 1.327061 
305.195374 0.745035 
305.740448 1.318916 
306.115173 0.026678 
306.179382 5.328248 
307.126862 0.060786 
307.182892 0.038072 
307.210297 0.032596 
308.195526 0.029219 
308.783539 0.968822 
309.053192 0.429739 
310.056732 0.099015 
310.085114 0.060237 
310.142731 0.148325 
311.069977 0.228754 
311.091187 0.210922 
311.294586 0.761444 
312.072876 0.026204 
312.100098 0.022508 
313.085144 0.065 
313.1073 1.123825 
315.086456 0.030624 
316.118652 0.06478 
319.144531 0.025364 
319.908173 1.56949 
322.085266 0.025269 
322.142731 0.294672 
322.972656 0.904629 
323.069916 0.060469 
323.090942 0.793419 
323.121643 6.521986 
323.2052 0.600964 
324.191315 0.421433 
325.047882 0.299349 
325.704102 0.620978 
327.064331 0.639149 
328.06778 0.071123 
330.438782 0.279395 
331.09787 1.108822 
334.984436 0.125944 
336.157745 0.158029 
337.048218 0.021704 
337.136719 0.036139 
338.080566 0.022516 
339.063965 0.03769 
339.085297 0.119756 
339.201111 0.077574 
341.101685 0.380611 
342.104736 0.128045 
344.090149 1.443356 
346.328522 1.392493 
347.170746 0.020168 
348.15387 0.075205 
351.200775 0.020781 
352.11908 0.130616 
356.090881 0.020518 
357.09549 0.03197 
358.128265 1.514939 
360.590424 1.761797 
360.839874 0.027434 
362.168488 0.14849 
362.205688 0.022463 
366.134094 2.533157 
366.164764 0.030286 
369.121521 0.134486 
371.283691 1.500949 
376.131958 0.025788 
376.183868 0.024198 
377.190552 0.021571 
378.201385 0.020146 
379.198822 0.021102 
379.231293 0.02428 
380.149597 0.249193 
383.241302 1.480413 
386.338806 0.056116 
390.200317 0.069106 
391.208252 0.28476 
393.131744 0.022303 
394.902252 0.109283 
395.22583 0.020064 
404.128143 0.016983 
405.211212 11.698846 
406.193665 0.819872 
406.220459 0.022326 
407.197662 0.039025 
407.2258 0.023473 
409.217651 0.02336 
410.194977 0.027858 
422.232574 0.024254 
423.193665 1.467845 
423.222015 10.076183 
423.75061 1.246588 
424.227814 0.030067 
433.207245 0.136334 
433.238983 0.021611 
433.478729 1.13814 
433.875031 1.243468 
434.207855 0.070588 
435.221436 0.020214 
437.235687 0.022935 
438.24176 0.019203 
439.217773 0.022669 
443.814728 1.649518 
447.347809 0.035543 
451.217163 0.059458 
455.42926 1.631647 
465.231018 0.55309 
466.23465 0.024695 
487.592194 1.377029 
502.828247 1.729789 
505.227081 1.5304 
506.297333 0.028968 
515.191833 0.13615 
519.038635 0.016731 
523.238098 0.058862 
537.253418 0.01987 
564.164185 0.017631 
588.093262 0.589478 
601.037598 0.267026 
605.327637 0.023442 
606.311096 13.170034 
607.313354 0.446841 
608.316284 0.019856 
611.634399 0.116764 
611.844482 0.122832 
634.612854 0.600998 
639.310852 12.712326 
649.379944 0.589006 
652.597961 1.130621 
654.018494 1.636164 
669.81427 1.01413 
END IONS

