BEGIN IONS
PEPMASS=363.064
CHARGE=1+
COMPOUNDNAME=(4R,6S,8S,9Z,11E)-16-chloro-17,19-dihydroxy-4-methyl-3,7-dioxatricyclo[13.4.0.0?,?]nonadeca-1(15),9,11,16,18-pentaene-2,13-dione
LIBRARYQUALITY=3
SMILES=N/A
INCHIKEY=WYZWZEOGROVVHK-RPJJWQTDSA-N
INCHI=InChI=1S/C18H17ClO6/c1-9-6-15-14(25-15)5-3-2-4-10(20)7-11-16(18(23)24-9)12(21)8-13(22)17(11)19/h2-5,8-9,14-15,21-22H,6-7H2,1H3/b4-2+,5-3-/t9-,14+,15+/m1/s1
MSLEVEL=2
SOURCE_INSTRUMENT=N/A-ESI-QFT
FILENAME=library_mgf.mgf
SEQ=*..*
IONMODE=negative
ORGANISM=MONA
NAME=(4R,6S,8S,9Z,11E)-16-chloro-17,19-dihydroxy-4-methyl-3,7-dioxatricyclo[13.4.0.0?,?]nonadeca-1(15),9,11,16,18-pentaene-2,13-dione [M-H]-
PI=MoNA
DATACOLLECTOR=MoNA:VF-NPL-QEHF022105
PUBMED=N/A
SUBMITUSER=mwang87
TAGS=
SPECTRUMID=CCMSLIB00004713168
SCANS=22105
50.108601 0.029844 
50.449677 0.026713 
50.798889 0.038256 
52.216629 0.057227 
52.663101 0.035389 
53.869156 0.031346 
54.809704 0.054691 
54.974754 0.035254 
55.6637 0.052173 
56.387356 0.050228 
56.489048 0.051141 
56.921993 0.049897 
57.033138 2.005543 
57.197495 0.048048 
57.483067 0.048699 
58.386635 0.043342 
58.418098 0.045298 
58.784378 0.052429 
59.502071 0.050025 
59.600716 0.037358 
61.245731 0.04791 
62.626759 0.043138 
62.851952 0.047168 
62.913982 0.02587 
63.782688 0.029539 
63.971249 0.026088 
64.058731 0.048048 
64.689682 0.036841 
65.0019 0.034848 
65.038208 0.057132 
65.233459 0.035037 
65.38871 0.049257 
65.452675 0.047151 
66.405327 0.037976 
67.452805 0.041129 
68.014214 0.050587 
68.58268 0.030557 
68.996727 0.340002 
69.033142 0.246871 
69.202866 0.049375 
69.30304 0.032445 
69.772507 0.039362 
70.248482 0.036595 
70.327301 0.043831 
71.215355 0.028904 
72.427795 0.035186 
72.689888 0.036278 
76.743019 0.035838 
80.652641 0.04679 
81.033119 0.995292 
81.990906 0.046388 
83.048775 0.623426 
83.734154 0.033498 
84.510796 0.053761 
85.543755 0.030038 
87.056061 0.055275 
87.951317 0.048223 
89.264977 0.052538 
90.598709 0.037133 
91.729248 0.037879 
92.025116 0.057403 
92.157761 0.052536 
93.03318 2.977862 
95.048866 0.366997 
95.852531 0.043913 
97.191002 0.048858 
97.969917 0.031593 
98.944344 0.050077 
99.235733 0.058411 
99.509003 0.030857 
99.534569 0.037696 
101.484566 0.033509 
102.049828 0.052838 
105.03315 0.215022 
107.048851 1.128568 
107.068924 0.033524 
108.020042 0.054167 
109.028107 0.707972 
109.064629 0.122691 
110.945587 0.029896 
113.625099 0.044615 
113.636787 0.031724 
114.994209 2.698537 
116.568222 0.049447 
116.991379 0.038614 
117.033173 0.180221 
117.540192 0.033392 
119.012505 2.77102 
119.048843 0.235692 
119.280289 0.041411 
120.020035 0.038878 
120.503647 0.045752 
121.02816 3.123851 
121.064331 0.057249 
121.713409 0.03781 
122.914993 0.038607 
123.043808 1.681762 
125.154472 0.037383 
125.175499 0.031696 
127.517731 0.044588 
129.010071 0.366047 
129.069458 0.110763 
130.019257 0.043923 
130.041351 0.148898 
131.049011 0.691871 
132.020493 1.097579 
133.028198 1.35511 
133.064636 0.546819 
135.043961 1.006561 
135.080383 0.567388 
136.065979 0.048585 
136.127609 0.031623 
137.023163 0.058006 
137.534164 0.05585 
138.99437 1.768483 
139.053848 0.06722 
139.061157 0.036255 
139.253311 0.037756 
139.670654 0.055317 
141.033432 0.879803 
141.069733 0.341282 
141.334717 0.049343 
143.04895 3.510113 
144.020538 1.526156 
144.400208 0.048175 
145.028336 2.443055 
145.064728 1.602641 
146.036087 0.550819 
147.007538 3.597581 
147.043915 1.184786 
148.015411 0.060221 
149.023163 4.396014 
151.054352 0.043475 
153.069504 0.080734 
153.203003 0.044062 
154.989304 2.856088 
155.049026 1.852744 
155.335724 0.033165 
155.997391 0.102145 
156.056686 0.050091 
157.005035 6.674308 
157.028336 1.674235 
157.064743 1.741202 
157.266251 0.056875 
158.008057 0.063439 
158.036057 0.676467 
159.001785 0.521106 
159.043976 2.682569 
159.0802 0.047582 
160.015442 4.647443 
161.023361 7.955773 
161.059662 1.021161 
162.031387 0.502016 
163.002609 0.047362 
163.038971 1.535832 
165.018188 1.224804 
166.022095 0.037739 
167.049103 6.144424 
168.057205 0.426269 
169.028488 0.586236 
169.064835 4.079771 
170.036179 0.263889 
170.068542 0.091134 
170.465897 0.031785 
171.044037 8.634231 
171.08046 2.397946 
172.01564 0.372183 
172.052322 0.560915 
173.023392 0.728284 
173.059845 5.778991 
174.031174 5.060525 
174.063309 0.050504 
174.72525 0.048751 
175.002472 0.34951 
175.038986 2.429764 
175.075119 0.178496 
177.055679 0.047585 
178.989624 0.485859 
178.998154 0.049437 
179.895935 0.051668 
179.997299 6.974053 
180.057175 0.180977 
180.967926 0.049347 
181.005463 0.295174 
181.028656 0.28321 
181.065048 0.623275 
181.976624 5.496425 
181.994339 0.545334 
182.036331 1.59045 
182.984421 54.906223 
183.020782 0.203742 
183.044189 7.739617 
183.080597 1.654371 
183.973907 0.260511 
183.987686 3.992329 
184.052078 1.156153 
184.084427 0.062926 
184.981613 6.377383 
185.000168 0.934745 
185.023407 3.478861 
185.059982 4.833827 
186.031235 0.172162 
187.002762 1.427457 
187.039215 1.693654 
187.075546 1.72172 
187.111771 0.04847 
188.010635 3.762262 
188.047043 0.236658 
189.018448 1.055039 
189.054886 0.667467 
190.01796 0.921296 
190.026825 0.252972 
191.025665 0.399918 
191.034927 0.049722 
191.778854 0.044903 
191.99733 0.144624 
193.005463 2.21192 
193.064896 1.044235 
193.878204 0.061163 
193.9767 0.243241 
194.072815 0.063131 
194.984497 22.673841 
195.04422 14.035391 
195.080688 2.408772 
195.992844 6.071956 
196.052795 4.361757 
196.981659 2.660277 
197.00032 0.391171 
197.02356 1.361379 
197.060089 7.320261 
197.096207 2.747341 
197.989334 0.346438 
198.031509 4.255552 
198.065643 0.180284 
198.099945 0.067066 
198.426773 0.056254 
199.039566 5.951255 
199.075653 2.26445 
199.987885 0.216437 
200.01062 23.257614 
200.046631 1.602861 
200.995453 2.72377 
201.017639 2.387766 
201.054886 2.157426 
202.025528 0.055273 
203.02533 0.03882 
203.034454 0.294425 
204.034409 0.114769 
204.416183 0.047999 
206.012863 0.149952 
207.021149 11.775686 
207.992432 5.853982 
208.024384 0.826214 
208.051865 0.059126 
209.000656 5.288832 
209.018051 1.024912 
209.036743 0.24496 
209.060089 1.961247 
209.096451 0.919729 
209.989563 0.28444 
210.004044 0.102682 
210.031311 0.595551 
210.067963 0.511462 
210.588379 0.037438 
210.979523 2.47177 
210.997299 0.339081 
211.039444 23.113407 
211.075745 5.476891 
211.112244 0.347579 
212.04747 9.921765 
212.079559 0.096622 
213.018738 0.610138 
213.055283 10.647796 
213.091461 2.565734 
214.026306 0.889685 
214.062057 2.082437 
214.394836 1.979233 
214.405487 0.955955 
215.034592 0.934723 
215.070648 8.767054 
215.10704 0.517443 
215.230606 0.049464 
216.07399 0.534648 
217.005371 2.337317 
218.012527 0.362235 
218.984711 0.119502 
219.021332 1.479702 
219.080322 0.101214 
219.992462 0.262531 
221.000443 1.22316 
221.034164 0.059704 
221.060287 1.104578 
221.096573 0.303224 
221.972046 1.240482 
222.008636 0.068905 
222.068359 0.116212 
222.97966 0.695957 
223.01535 0.034807 
223.039444 1.55904 
223.075867 0.956438 
223.987625 41.209236 
224.047241 2.972076 
224.981369 0.074227 
224.995499 16.582108 
225.018463 5.464466 
225.054962 1.545799 
225.091507 0.907417 
225.98465 4.995907 
225.998276 1.313369 
226.02655 4.709423 
226.062363 0.348537 
226.992325 1.85564 
227.034546 3.228428 
227.070923 2.977994 
227.107147 1.667732 
228.041595 0.504515 
229.050156 0.157515 
230.013504 0.68843 
231.021332 6.122009 
231.101562 0.140053 
232.028534 1.761719 
233.000687 9.390191 
233.018494 0.172669 
233.037003 4.108177 
233.048401 0.055007 
233.97226 0.070748 
234.006516 1.248657 
234.040878 0.253648 
234.980103 0.869217 
234.997665 0.828881 
235.016205 2.297544 
235.034241 0.058269 
235.988495 0.141396 
236.047073 0.049687 
236.99559 1.701292 
237.055283 4.351135 
237.091461 2.872804 
238.026749 1.306301 
238.062241 1.201354 
238.992386 0.057758 
239.034622 13.252535 
239.070999 9.80384 
239.107437 1.382457 
240.042419 20.91025 
240.075943 1.138714 
241.050064 8.621428 
241.086487 5.870735 
242.056595 0.893611 
242.089951 0.33809 
242.281509 0.039196 
243.067169 0.049285 
243.102173 0.927218 
245.001083 0.044214 
245.737289 0.057629 
246.008591 1.941732 
246.979736 0.15128 
247.016418 20.929684 
247.077194 0.040934 
247.987885 0.86076 
248.007553 0.057624 
248.023727 6.451431 
248.995621 2.460301 
249.013199 2.560354 
249.031403 3.327958 
250.003098 1.083238 
250.022736 0.175031 
250.062958 0.048637 
251.011154 2.836775 
251.033051 0.309968 
251.048447 0.046347 
252.014832 0.056093 
253.010025 0.072198 
253.050201 0.943383 
253.086578 2.474564 
254.057602 0.37999 
254.092667 0.060342 
255.066193 8.320248 
255.102219 5.003982 
256.069519 0.58093 
256.105652 0.313295 
257.000885 0.240456 
257.081085 0.199629 
258.008575 0.601949 
259.016418 6.532336 
259.097504 2.512512 
259.988495 0.131274 
260.022339 1.069659 
260.996094 8.247184 
261.011963 0.480483 
262.003479 4.539374 
262.019318 0.041595 
262.993652 0.318422 
263.010925 2.414312 
263.071106 0.142482 
264.001129 0.176614 
264.018372 0.119456 
264.043243 0.061995 
265.050446 2.075854 
265.086853 2.966866 
266.029327 0.034238 
266.057404 0.23477 
266.089874 0.127326 
267.029785 2.550538 
267.066162 0.320112 
268.037659 6.34174 
269.041412 0.431998 
269.081421 0.053428 
271.097687 1.115131 
272.08313 0.028734 
272.324341 0.041396 
273.03241 8.013323 
273.11319 0.304296 
274.003754 1.634356 
274.036316 0.891916 
274.116119 0.056325 
275.011688 31.816509 
275.047333 1.482354 
276.018768 15.982628 
276.051025 0.089525 
276.993591 0.054634 
277.008545 3.572576 
277.026581 11.621016 
277.063202 0.460472 
278.016052 1.222986 
278.031067 1.108944 
279.023987 0.682373 
281.045166 0.084141 
281.081665 3.415403 
282.052185 0.143467 
282.087128 0.080086 
283.061188 6.163317 
283.07843 0.179585 
283.097443 7.177421 
284.065063 0.484611 
284.10083 0.5638 
285.076996 0.527898 
286.003662 0.131543 
287.011261 0.316515 
287.092621 1.81123 
289.026672 0.195855 
289.064148 0.034939 
289.997559 0.063405 
291.042694 2.751125 
291.062286 0.170372 
292.045227 0.149853 
292.18457 0.061853 
293.057556 0.032198 
295.073822 0.205599 
299.048157 0.203828 
299.092072 5.326243 
300.095398 0.403622 
301.027405 4.671842 
302.031433 0.303744 
302.066559 0.068988 
303.006226 0.987696 
303.023621 0.078879 
304.014069 11.472477 
304.200073 0.074779 
305.018158 1.612079 
306.011902 1.06963 
307.074188 0.050507 
309.076385 3.094212 
310.08139 0.065166 
316.013977 0.667505 
317.020935 0.828251 
317.058167 3.493834 
318.01001 0.058596 
318.028717 0.047617 
318.06073 0.247637 
319.019318 0.587176 
319.037567 18.486776 
319.072845 2.633199 
319.250122 0.055092 
320.041229 3.236095 
320.077454 0.072671 
321.034821 2.5661 
327.087555 4.831386 
328.091156 0.299147 
335.046143 0.047752 
335.069 9.664768 
336.072571 1.345385 
337.066437 1.110991 
345.053314 20.259211 
346.056824 3.736642 
347.050629 2.778353 
350.944183 0.040983 
361.04837 4.132543 
362.052887 2.818284 
363.06424 100.0 
364.067596 19.097176 
365.06076 14.459542 
END IONS

