BEGIN IONS
PEPMASS=335.135
CHARGE=1+
COMPOUNDNAME=MITOMYCIN C
LIBRARYQUALITY=3
SMILES=N/A
INCHIKEY=NWIBSHFKIJFRCO-WUDYKRTCSA-N
INCHI=InChI=1S/C15H18N4O5/c1-5-9(16)12(21)8-6(4-24-14(17)22)15(23-2)13-7(18-13)3-19(15)10(8)11(5)20/h6-7,13,18H,3-4,16H2,1-2H3,(H2,17,22)/t6-,7+,13+,15-/m1/s1
MSLEVEL=2
SOURCE_INSTRUMENT=N/A-ESI-QFT
FILENAME=library_mgf.mgf
SEQ=*..*
IONMODE=positive
ORGANISM=MONA
NAME=MITOMYCIN C [M+H]+
PI=MoNA
DATACOLLECTOR=MoNA:VF-NPL-QEHF027726
PUBMED=N/A
SUBMITUSER=mwang87
TAGS=
SPECTRUMID=CCMSLIB00004721307
SCANS=27726
50.142605 0.057107 
50.275867 0.052602 
50.415928 0.054231 
50.550076 0.062289 
51.363102 0.047512 
51.363697 0.061468 
51.390263 0.058439 
51.7813 0.049566 
51.870087 0.063608 
52.049389 0.069795 
52.376308 0.056813 
52.383621 0.074902 
53.19902 0.046469 
53.564098 0.060205 
54.034191 0.501909 
54.364052 0.052721 
55.260101 0.052264 
55.4729 0.064642 
55.614529 0.048834 
56.049767 1.025315 
56.052998 0.056136 
56.603031 0.063009 
56.661266 0.053421 
56.753292 0.052102 
56.831905 0.04601 
57.652229 0.056828 
58.305771 0.054875 
58.455009 0.05959 
58.741108 0.062774 
59.356552 0.071765 
59.425228 0.051546 
59.504177 0.088036 
59.539783 0.064444 
59.708366 0.074398 
59.75069 0.061046 
59.94585 0.054648 
60.044628 0.098668 
60.131584 0.067947 
61.723442 0.071557 
61.862411 0.038975 
61.89349 0.051146 
62.635597 0.04684 
63.313553 0.068556 
63.943104 0.078939 
63.96677 0.04598 
64.18364 0.069858 
64.297127 0.082483 
64.842155 0.055352 
65.038628 0.24351 
65.149696 0.041977 
65.293686 0.056 
65.576431 0.063687 
65.661446 0.042992 
65.842339 0.067646 
65.986382 0.05788 
67.785332 0.078477 
67.811989 0.05881 
68.049606 0.085383 
68.075371 0.043127 
68.598297 0.064572 
69.406639 0.056026 
69.753738 0.050851 
70.664482 0.049526 
71.08062 0.047692 
71.287872 0.047323 
71.923279 0.073472 
72.211937 0.085818 
72.688461 0.06529 
72.929688 0.051683 
73.179085 0.081409 
73.232307 0.071199 
73.43869 0.063897 
73.692352 0.051192 
74.592377 0.078723 
75.389877 0.072198 
75.715599 0.056045 
76.030098 0.074838 
77.618744 0.062198 
77.643387 0.062873 
77.957474 0.050063 
78.034073 0.051607 
78.641159 0.048425 
79.054176 0.079671 
79.218338 0.050851 
79.26429 0.062527 
79.765564 0.044555 
79.953941 0.076878 
80.049454 0.445561 
80.38073 0.06458 
80.399033 0.051679 
80.913063 0.054204 
81.875885 0.05886 
82.028755 2.915469 
83.012756 0.107622 
83.050995 0.052699 
83.465057 0.050125 
83.500778 0.051343 
83.58326 0.054916 
84.044418 0.322703 
84.320984 0.042643 
84.619438 0.113156 
85.315559 0.051246 
85.728447 0.088389 
86.059944 0.134101 
87.309303 0.0639 
87.851509 0.066809 
88.495758 0.095925 
89.838646 0.047613 
91.054176 0.599736 
91.618095 0.046057 
92.049553 0.852502 
93.057121 0.168001 
93.712173 0.061921 
94.028786 0.06184 
94.065033 0.143533 
94.236969 0.052089 
94.704033 0.064962 
94.716988 0.067883 
94.762199 0.066807 
94.886276 0.053785 
95.048828 0.085458 
95.551933 0.087166 
96.044426 1.352811 
96.187271 0.070533 
97.081879 0.050719 
97.670975 0.051984 
98.642349 0.076843 
99.083893 0.066013 
100.491615 0.065134 
100.520782 0.075572 
100.720062 0.038255 
100.724014 0.043825 
100.727997 0.045129 
101.192368 0.054449 
102.195137 0.036369 
102.564423 0.052081 
103.054245 0.396679 
103.299866 0.064853 
103.581352 0.046829 
104.049469 3.955564 
105.057205 0.062328 
106.065125 2.222361 
106.468864 0.051939 
107.060394 0.495668 
107.606293 0.060961 
108.068176 1.066857 
109.121597 0.063149 
109.493927 0.058181 
109.527184 0.064098 
110.060036 3.418276 
110.308052 0.053886 
110.396477 0.05784 
110.413116 0.059268 
111.209831 0.077009 
112.049576 0.057622 
112.126015 0.059596 
114.122742 0.050392 
115.05426 4.581623 
116.049637 0.319319 
116.171928 0.063801 
117.057274 1.617588 
117.069756 0.283366 
117.428322 0.061743 
117.965225 0.083047 
118.052521 1.630574 
118.065056 4.572825 
118.747246 0.062121 
119.06031 0.973287 
119.751854 0.052588 
120.044357 2.038637 
120.080475 0.085355 
120.937271 0.091794 
122.059334 0.087528 
123.175446 0.080094 
127.49379 0.067842 
128.049484 1.029873 
130.065125 3.286974 
131.060425 26.799637 
131.072845 0.47897 
131.299393 0.06235 
132.044312 4.617589 
132.068253 41.055477 
132.080658 2.64958 
133.03952 0.149831 
133.046967 0.074882 
133.071381 2.507661 
133.07608 15.587373 
134.060043 3.580186 
134.079193 0.153898 
135.055222 2.723152 
136.634781 0.062287 
137.07103 4.423346 
138.196457 0.059751 
140.061905 0.039866 
142.065231 5.452364 
143.060471 1.49935 
143.073135 0.316872 
144.04454 1.102978 
144.055939 0.08444 
144.068542 0.863346 
144.080872 6.732204 
145.076111 6.851914 
146.060104 2.327563 
146.083969 0.932907 
147.055222 4.615344 
147.091751 0.073964 
148.063019 0.084106 
148.075729 0.608306 
148.644608 0.054591 
149.07103 9.560431 
150.946289 0.062705 
151.203857 0.057554 
151.884384 0.058333 
151.944473 0.052895 
153.992218 0.056422 
154.065094 1.218562 
155.060333 2.232068 
156.068314 10.249902 
156.080444 0.121495 
156.53035 0.059047 
157.063675 0.053575 
157.076248 6.119549 
158.060226 0.603788 
158.071365 2.288492 
158.084015 1.532659 
159.055374 40.907551 
159.091766 10.417435 
159.098816 0.060051 
159.396988 0.086616 
160.058502 2.652156 
160.075623 2.069379 
160.09491 0.210197 
161.071136 9.408117 
161.107361 0.086591 
161.9534 0.060006 
162.054886 0.541828 
162.079102 0.070139 
163.996109 0.061196 
166.103104 0.0628 
168.068283 4.906251 
168.309097 0.054787 
168.565735 0.05709 
169.076111 36.089939 
170.060226 1.368485 
170.071304 2.445481 
170.084549 6.976609 
171.055328 1.485268 
171.079483 6.44468 
171.091797 32.958488 
172.063126 2.696884 
172.075592 0.050383 
172.087769 0.088026 
172.095108 3.29398 
172.893341 0.061995 
173.071182 7.168408 
174.055023 0.165051 
174.065964 0.116288 
174.078979 1.913552 
174.602936 0.053971 
174.802139 0.06975 
175.062881 2.743625 
175.086807 7.557409 
176.057724 0.068538 
176.070679 3.720871 
176.089661 0.096328 
176.904724 0.074706 
177.065948 0.687933 
177.074966 0.060734 
178.049118 0.047864 
179.060669 0.060401 
180.760468 0.086768 
181.063965 0.07666 
181.076324 0.220866 
181.667068 0.055584 
182.070602 0.058899 
182.084122 0.066565 
183.079208 0.714405 
184.063232 0.861325 
184.087051 2.423594 
184.837936 0.05786 
185.071091 10.113325 
185.094681 0.623456 
186.055405 0.712447 
186.066116 2.742468 
186.078735 1.228017 
186.102631 3.634642 
187.050415 0.451194 
187.08667 17.863703 
188.058197 0.982861 
188.070694 1.807173 
188.090027 0.992807 
189.056732 0.06285 
189.065918 4.265906 
190.050369 0.06784 
190.507156 0.089292 
192.065933 0.048304 
196.086945 2.866304 
197.070892 29.379707 
197.094467 0.593671 
198.055298 0.297459 
198.065903 0.634838 
198.079025 11.13906 
198.102539 1.822739 
199.050705 0.286662 
199.06337 0.087679 
199.07431 13.205905 
199.086349 13.509493 
199.599289 0.051869 
200.058182 6.313143 
200.069397 0.641102 
200.080734 0.838154 
200.0905 0.282509 
200.162796 0.052451 
201.065475 2.858257 
201.088577 0.059852 
202.073639 17.03064 
203.081635 5.909181 
204.053268 0.520372 
204.065186 0.396184 
205.06102 0.39056 
206.068726 1.594042 
212.081818 5.00708 
213.065842 10.291203 
213.089798 7.323396 
214.073975 10.676298 
214.097488 34.918919 
215.081543 65.458015 
215.10054 3.501128 
216.052536 0.111633 
216.085556 6.800053 
217.060608 3.193426 
217.097229 3.169958 
218.236313 0.058442 
219.07634 1.804768 
219.881973 0.719385 
220.909012 0.074103 
223.082153 0.065507 
224.082367 0.06305 
225.065857 5.872474 
225.09079 0.057279 
226.060791 0.229336 
226.072891 3.021039 
227.068695 3.555671 
227.081345 4.516142 
228.07634 2.286622 
229.060669 0.067109 
229.084488 4.49549 
230.068665 1.692761 
230.092072 2.011023 
231.075134 0.102213 
236.922348 0.077813 
240.076691 7.99188 
241.061142 0.085211 
241.084457 11.871716 
242.092331 100.0 
243.096085 13.993451 
244.10849 0.122209 
248.183151 0.054112 
249.542847 0.082005 
250.845306 0.05847 
251.298111 0.055887 
256.071564 0.222203 
256.156372 0.076419 
257.07782 0.210421 
258.082916 0.06465 
260.045807 0.068882 
262.261047 0.073889 
263.877441 0.081199 
265.302643 0.105672 
274.84903 0.047497 
275.143799 0.058787 
287.272247 0.051324 
296.497925 0.087373 
298.846649 0.054641 
300.933624 0.0491 
301.78653 0.05768 
302.022552 0.056567 
304.180908 0.058928 
307.775757 0.056401 
321.677155 0.057294 
323.940674 0.059472 
325.242798 0.059955 
329.132324 0.059363 
329.237244 0.062219 
332.72464 0.059559 
334.069122 0.049403 
335.265717 0.047851 
341.311951 0.059558 
341.389771 0.070685 
344.550964 0.05826 
348.111725 0.094171 
349.021759 0.088266 
349.262878 0.052374 
359.549164 0.069104 
END IONS

