BEGIN IONS
PEPMASS=283.051
CHARGE=1+
COMPOUNDNAME=BIOTIN
LIBRARYQUALITY=3
SMILES=N/A
INCHIKEY=YBJHBAHKTGYVGT-ZKWXMUAHSA-N
INCHI=InChI=1S/C10H16N2O3S/c13-8(14)4-2-1-3-7-9-6(5-16-7)11-10(15)12-9/h6-7,9H,1-5H2,(H,13,14)(H2,11,12,15)/t6-,7-,9-/m0/s1
MSLEVEL=2
SOURCE_INSTRUMENT=N/A-ESI-QFT
FILENAME=library_mgf.mgf
SEQ=*..*
IONMODE=positive
ORGANISM=MONA
NAME=BIOTIN [M+K]+
PI=MoNA
DATACOLLECTOR=MoNA:VF-NPL-QEHF028122
PUBMED=N/A
SUBMITUSER=mwang87
TAGS=
SPECTRUMID=CCMSLIB00004721703
SCANS=28122
50.053181 0.085739 
50.23568 0.1977 
50.236996 0.183647 
50.41737 0.143401 
50.727833 0.107587 
50.990578 0.131666 
51.334187 0.317135 
51.510765 0.161133 
51.819221 0.108781 
51.940228 7.125526 
52.83646 0.086262 
52.853474 0.220215 
53.385815 0.104641 
53.562897 0.138148 
53.673756 0.299501 
53.742847 0.102806 
53.9944 0.194988 
53.995296 0.293386 
54.766823 0.22696 
55.054466 0.778918 
55.346603 0.183827 
55.552315 0.141001 
55.670555 0.127304 
56.049648 0.242816 
56.481445 0.068123 
56.555996 0.211667 
56.751926 0.085278 
56.963543 1.042757 
56.965012 100.0 
57.070084 9.803147 
57.078106 0.21184 
57.247517 0.199215 
57.839973 0.134028 
57.91156 0.236184 
58.065323 0.980144 
58.215454 0.155426 
58.745045 0.129785 
59.009987 0.100364 
59.038708 0.111879 
59.250504 0.149656 
60.080948 19.135513 
60.132656 0.07644 
60.171253 0.134988 
60.206341 0.196103 
60.286915 0.057403 
60.44899 0.154201 
61.010799 32.416164 
61.088009 0.129674 
62.018616 9.325931 
62.281609 0.186313 
62.82246 0.173093 
63.00655 0.558747 
63.280491 0.092949 
64.132835 0.11387 
64.343796 0.092802 
65.164505 0.09035 
65.214516 0.096937 
65.59024 0.053515 
65.615295 0.171336 
66.913582 0.130814 
67.054169 0.363301 
67.245171 0.10647 
67.602196 0.179136 
67.82093 0.179268 
67.924377 0.572263 
67.93486 0.756868 
68.045418 0.207896 
68.060219 0.127951 
68.255417 0.285655 
68.942703 0.36006 
69.070023 0.329587 
70.39534 0.096331 
70.922836 0.13922 
71.085518 1.218729 
71.34803 0.081357 
71.350716 0.088203 
71.462929 0.105972 
71.699387 0.093685 
71.951874 0.173722 
72.130264 0.113087 
73.0467 1.188029 
73.126816 0.156711 
73.254044 0.288422 
73.991295 0.793095 
74.23761 0.096052 
74.97541 1.534822 
75.214363 0.057579 
75.31778 0.082001 
76.021675 0.218351 
77.005592 0.098019 
77.708527 0.206862 
77.77404 0.224151 
78.496368 0.162988 
79.021057 0.127949 
79.053864 0.101863 
79.148102 0.393876 
79.661049 0.140597 
80.230911 0.266267 
80.314423 0.109845 
80.340454 0.19918 
80.948883 0.66929 
80.979156 0.307945 
81.022728 0.134609 
81.069756 0.30794 
81.26001 0.081507 
81.288216 0.164355 
81.441414 0.24145 
81.949814 0.29156 
82.161636 0.091911 
82.945145 0.187908 
82.947662 5.933691 
83.350014 0.119108 
83.929733 0.272616 
83.975708 0.576167 
85.010551 3.27471 
85.049477 0.090094 
85.052025 0.136841 
85.945351 0.139128 
86.145988 0.06254 
86.922302 0.218084 
87.521255 0.10686 
87.821693 0.085861 
88.367188 0.197306 
88.452904 0.113495 
89.05687 0.09414 
89.059547 5.271642 
89.493217 0.098935 
90.874229 0.204274 
91.054161 1.0902 
91.05722 2.643793 
91.622589 0.13559 
91.659599 0.090774 
92.057076 0.154756 
92.428719 0.201704 
92.985626 0.104036 
94.612228 0.078649 
95.085419 0.056753 
95.25531 0.088563 
95.55278 0.19313 
97.561668 0.198294 
97.937332 0.08222 
98.870255 0.075472 
98.975235 3.433878 
98.986366 0.193946 
99.146866 0.143739 
99.152687 0.208136 
100.295258 0.142912 
100.587929 0.290695 
100.990891 3.612756 
102.948189 0.11462 
104.485878 0.092886 
105.293365 0.217471 
105.57354 0.182302 
106.358414 0.204516 
106.613495 0.26069 
106.619659 0.133466 
107.125656 0.208977 
108.322601 0.096514 
110.580078 0.29593 
110.975227 1.062737 
112.096947 0.2252 
113.195496 0.118837 
113.748634 0.21179 
113.968346 15.231735 
114.309486 0.104561 
114.9478 0.144911 
115.191055 0.098725 
116.3601 0.120211 
116.436501 0.087632 
116.611076 0.300327 
116.985786 0.657246 
116.99691 0.146882 
118.896645 0.32709 
118.942696 0.105339 
119.001457 0.416434 
119.016975 0.186876 
119.831306 0.222097 
120.604744 0.112902 
121.028503 0.100991 
121.205803 0.141338 
122.467056 0.094668 
122.986389 13.235156 
123.011887 0.172394 
126.022209 0.258339 
126.937218 0.158733 
127.006134 0.138473 
127.099571 0.129736 
127.94503 0.339215 
128.002045 0.1234 
128.98555 1.184822 
129.509247 0.15411 
129.858047 0.265556 
129.906906 0.864753 
131.973892 0.128612 
131.978867 9.080382 
132.93895 1.165887 
133.200928 0.145681 
134.978546 11.434036 
134.996552 0.148485 
135.377441 0.163133 
136.759796 0.200215 
137.0271 0.118607 
140.073914 0.171337 
140.996979 27.616455 
142.949097 0.178789 
142.983749 2.561427 
143.322433 0.057602 
144.94809 1.175533 
145.017014 1.066112 
145.938019 1.918633 
145.975891 0.179854 
146.720871 0.161735 
146.920532 0.157064 
146.996414 0.435587 
147.340485 0.155657 
148.139725 0.100412 
149.989532 0.150097 
150.022034 0.331022 
150.949615 8.00727 
151.902206 0.146685 
152.038086 0.431275 
152.818909 0.097034 
152.839233 0.056774 
152.884918 0.182184 
152.989182 5.209727 
152.996857 6.198464 
153.022095 0.213868 
155.012589 12.336625 
155.037933 0.246694 
155.048218 0.126642 
155.961868 0.197543 
156.911133 0.174988 
157.016815 1.599329 
157.46109 0.237406 
157.795044 0.274258 
157.958084 1.094898 
157.994568 6.015167 
158.973251 0.147354 
159.007629 21.089914 
159.964706 0.214616 
160.961487 4.50499 
160.994247 1.3134 
161.011642 0.209208 
161.739044 0.09117 
162.165466 0.299363 
162.319687 0.266838 
162.949387 0.154788 
162.958603 1.018868 
163.043213 0.411759 
164.676834 0.112274 
164.930801 0.125613 
165.022263 3.55155 
167.012558 0.379783 
167.037689 0.238246 
168.032806 0.427441 
168.041412 0.193616 
168.069336 0.652581 
169.325851 0.232353 
170.048752 0.667774 
171.00737 2.392418 
171.032669 2.232975 
172.05423 0.151159 
172.063873 0.15489 
172.599716 0.058574 
173.023285 6.898209 
173.047256 0.212507 
174.450668 0.215989 
174.925735 0.163928 
175.027634 5.252035 
175.722198 0.163066 
175.968475 1.190965 
176.005066 1.269159 
176.964874 1.671942 
176.97319 0.179211 
177.018158 0.658467 
178.053772 1.662014 
178.164764 0.22125 
178.946548 0.152203 
179.004868 0.148807 
179.954041 0.767202 
181.02832 1.864013 
181.053329 0.53572 
182.048874 6.470235 
183.032761 15.195896 
184.016891 0.156632 
185.022873 0.210911 
185.048447 1.525688 
186.009354 0.140969 
186.02597 3.738454 
186.080399 0.448487 
187.009796 0.306804 
187.028152 0.253947 
187.864182 0.104719 
188.005219 0.338507 
188.294235 0.062553 
189.04332 0.782038 
189.927383 0.107002 
191.033051 0.111206 
191.579712 0.216801 
192.181595 0.283741 
192.706665 0.102488 
192.961884 13.764349 
193.028458 0.470026 
193.037949 0.838016 
194.048615 4.080937 
196.064362 0.495607 
197.030838 0.988471 
197.048355 0.92494 
197.746094 0.302227 
198.043472 1.033886 
198.079498 0.788699 
198.321259 0.30651 
199.038727 6.30468 
200.059158 15.469593 
200.20314 0.108783 
201.043228 10.482813 
201.062332 0.178327 
202.386826 0.110714 
202.969223 0.117584 
203.004517 0.76747 
203.058899 0.947519 
204.03595 2.331976 
205.019989 0.257485 
206.048523 14.43394 
206.848755 0.106048 
206.905258 0.212539 
207.032532 3.224942 
207.938126 0.472338 
208.078522 0.05599 
209.005524 1.171464 
209.247299 0.085359 
209.661835 0.099797 
210.043503 1.249392 
210.419205 0.181492 
211.038483 2.138574 
211.196182 0.142802 
212.059006 8.496648 
212.317612 0.100295 
213.025757 0.231024 
215.041031 0.606662 
215.058655 0.105299 
217.048523 0.353958 
218.069672 3.466134 
219.044006 0.341898 
219.480377 0.229349 
219.917084 2.965035 
219.935623 0.398868 
221.753418 0.166519 
222.02533 0.237557 
223.009689 4.385219 
224.047897 0.35254 
224.059036 24.016315 
225.015671 0.139127 
225.043152 0.409067 
225.82988 0.149123 
226.038132 0.258117 
227.015656 24.957569 
227.037109 0.265958 
228.053894 3.613841 
229.001099 0.395882 
229.085571 8.886911 
229.599243 0.155202 
230.069153 0.692523 
231.035614 0.596841 
232.089737 0.163015 
233.187744 0.138161 
237.054382 24.517859 
238.057388 0.506099 
238.324509 0.26633 
240.036163 15.370967 
241.020157 12.983146 
241.041016 0.176579 
242.069366 1.534505 
242.73175 0.318504 
244.454971 0.244164 
244.942398 0.232713 
245.026413 50.701057 
246.029236 1.669434 
246.065094 0.269201 
247.022003 0.498441 
247.096375 1.800399 
249.054565 0.980149 
251.137238 0.137994 
254.056854 0.138188 
254.962402 3.642507 
255.064941 33.69976 
255.652985 0.177177 
255.960983 0.205059 
256.03186 0.145708 
256.068329 0.873702 
258.046875 35.183475 
259.030762 0.613665 
259.050385 0.56896 
260.624237 0.158801 
262.917236 0.317911 
263.036987 15.571379 
263.674957 0.105961 
265.031708 0.315955 
266.998749 1.944507 
267.064819 5.702807 
267.998932 1.858829 
268.549744 0.232663 
268.978241 1.441132 
268.995148 0.948867 
269.777802 0.120112 
269.977264 0.108538 
270.9935 0.670491 
273.0755 2.685891 
275.218262 0.289844 
276.057739 4.416952 
280.931549 0.130427 
283.042023 15.557538 
284.030182 0.068524 
284.070557 0.114357 
284.330872 0.995247 
289.005035 0.07899 
293.083466 0.343238 
298.220947 0.21673 
298.456116 0.246605 
300.60202 0.1389 
301.05249 32.359547 
301.506622 0.107108 
302.055115 2.190594 
303.479156 0.100925 
307.509796 0.06401 
308.142181 0.246617 
309.865692 0.266189 
END IONS

