BEGIN IONS
PEPMASS=914.526
CHARGE=1+
COMPOUNDNAME=Pesticide4_Avermectin B1b_C48H72O14_(1'R,2S,4'S,5S,6R,8'R,10'E,12'S,13'S,14'E,16'E,20'R,21'R,24'S)-6-[(2S)-2-Butanyl]-21',24'-dihydroxy-5,11',13',22'-tetramethyl-2'-oxo-5,6-dihydrospiro[pyran-2,6'-[3,7,19]trioxatetracyclo[15.6.1.1~4,8~.0~20,24~]pentacosa[10,14,16,22]tetraen]-12'-yl 2,6-dideoxy-4-O-(2,6-dideoxy-3-O-methyl-alpha-L-arabino-hexopyranosyl)-3-O-methyl-alpha-L-arabino-hexopyranoside
LIBRARYQUALITY=1
SMILES=CCC(C)C1C(C=CC2(O1)CC3CC(O2)CC=C(C(C(C=CC=C4COC5C4(C(C=C(C5O)C)C(=O)O3)O)C)OC6CC(C(C(O6)C)OC7CC(C(C(O7)C)O)OC)OC)C)C
INCHIKEY=RRZXIRBKKLTSOM-XPNPUAGNSA-N
INCHI=InChI=1S/C48H72O14/c1-11-25(2)43-28(5)17-18-47(62-43)23-34-20-33(61-47)16-15-27(4)42(26(3)13-12-14-32-24-55-45-40(49)29(6)19-35(46(51)58-34)48(32,45)52)59-39-22-37(54-10)44(31(8)57-39)60-38-21-36(53-9)41(50)30(7)56-38/h12-15,17-19,25-26,28,30-31,33-45,49-50,52H,11,16,20-24H2,1-10H3/b13-12+,27-15+,32-14+/t25-,26-,28-,30-,31-,33+,34-,35-,36-,37-,38-,39-,40+,41-,42-,43+,44-,45+,47+,48+/m0/s1
MSLEVEL=2
SOURCE_INSTRUMENT=-Maxis HD qTOF
FILENAME=Pesticide_mix4_BA4_01_8694.mzXML
SEQ=*..*
IONMODE=positive
ORGANISM=GNPS-COLLECTIONS-PESTICIDES-POSITIVE
NAME=Pesticide4_Avermectin B1b_C48H72O14_(1'R,2S,4'S,5S,6R,8'R,10'E,12'S,13'S,14'E,16'E,20'R,21'R,24'S)-6-[(2S)-2-Butanyl]-21',24'-dihydroxy-5,11',13',22'-tetramethyl-2'-oxo-5,6-dihydrospiro[pyran-2,6'-[3,7,19]trioxatetracyclo[15.6.1.1~4,8~.0~20,24~]pentacosa[10,14,16,22]tetraen]-12'-yl 2,6-dideoxy-4-O-(2,6-dideoxy-3-O-methyl-alpha-L-arabino-hexopyranosyl)-3-O-methyl-alpha-L-arabino-hexopyranoside M+ACN+H
PI=Dorrestein/Touboul
DATACOLLECTOR=lfnothias
PUBMED=n/a
SUBMITUSER=mwang87
TAGS=
SPECTRUMID=CCMSLIB00001059009
SCANS=678
70.008247 267.0 
70.038101 652.0 
70.064201 127.0 
70.203186 247.0 
70.280815 203.0 
70.444733 158.0 
70.489784 272.0 
70.513847 267.0 
70.68367 135.0 
70.915054 132.0 
71.014381 373.0 
71.048615 3258.0 
71.086159 331.0 
71.243454 485.0 
71.460915 266.0 
71.532486 232.0 
71.599297 117.0 
71.664955 407.0 
71.694107 160.0 
71.852524 93.0 
72.043449 348.0 
72.327003 247.0 
72.392693 336.0 
72.566383 258.0 
72.634773 198.0 
72.716515 366.0 
72.746506 132.0 
72.907288 89.0 
72.937782 363.0 
73.064819 5782.0 
73.116142 203.0 
73.42527 141.0 
73.461754 272.0 
73.474182 364.0 
73.7705 189.0 
73.860535 180.0 
73.871994 254.0 
74.067764 652.0 
74.423218 115.0 
74.588905 200.0 
75.04467 152.0 
75.27298 358.0 
75.385132 119.0 
75.446671 251.0 
75.532692 251.0 
75.702225 197.0 
75.85376 442.0 
75.989731 439.0 
76.099007 273.0 
76.227074 179.0 
76.312752 170.0 
76.419937 273.0 
76.912407 178.0 
76.929787 170.0 
77.37944 207.0 
77.407585 175.0 
77.731804 150.0 
77.75106 239.0 
78.089127 135.0 
78.306091 160.0 
78.445122 170.0 
78.540054 292.0 
78.568161 392.0 
78.682442 258.0 
78.752869 175.0 
78.837044 142.0 
78.958015 323.0 
79.05439 3550.0 
79.197227 215.0 
79.297066 97.0 
79.673111 145.0 
79.692703 86.0 
79.953667 191.0 
79.97728 357.0 
80.029327 150.0 
80.045189 268.0 
80.275208 180.0 
80.351852 291.0 
80.374519 573.0 
80.593102 365.0 
81.001366 230.0 
81.032616 598.0 
81.069725 7023.0 
81.143974 103.0 
81.166595 102.0 
81.49958 207.0 
81.591843 138.0 
81.752213 110.0 
81.806099 88.0 
81.912933 220.0 
81.955147 195.0 
82.016968 194.0 
82.036652 260.0 
82.066154 1501.0 
82.316284 260.0 
82.462486 112.0 
82.493835 231.0 
82.604401 152.0 
82.650513 230.0 
82.735229 321.0 
82.782188 106.0 
82.984673 146.0 
83.04789 2378.0 
83.084816 1771.0 
83.233398 335.0 
83.283524 214.0 
83.331146 94.0 
83.485565 181.0 
83.50647 196.0 
83.528526 183.0 
83.55928 220.0 
83.896812 232.0 
83.914055 303.0 
83.949448 238.0 
84.00042 144.0 
84.044342 12537.0 
84.080933 7177.0 
84.390472 205.0 
84.460602 188.0 
84.591324 101.0 
84.775116 188.0 
85.002663 240.0 
85.025703 649.0 
85.050156 826.0 
85.06488 4944.0 
85.083977 973.0 
85.1007 1012.0 
85.577774 99.0 
85.597336 127.0 
86.06105 2553.0 
86.228882 297.0 
86.450783 219.0 
86.754791 103.0 
86.866936 219.0 
86.94799 121.0 
86.986641 200.0 
87.043678 3688.0 
87.263687 207.0 
87.316277 169.0 
87.438255 147.0 
87.696686 264.0 
87.910355 203.0 
88.0467 370.0 
88.075653 3503.0 
88.110703 145.0 
88.230209 137.0 
88.342598 83.0 
88.388359 210.0 
88.56501 186.0 
88.603394 139.0 
88.761818 78.0 
88.991776 237.0 
89.062157 1111.0 
89.292358 157.0 
89.504707 148.0 
89.744186 107.0 
89.917831 151.0 
90.345016 193.0 
90.388855 205.0 
90.630653 470.0 
90.700096 137.0 
90.733116 139.0 
90.756836 108.0 
90.894958 262.0 
90.952309 94.0 
90.968102 240.0 
91.035515 86.0 
91.055817 2411.0 
91.508545 164.0 
91.681068 165.0 
91.751381 186.0 
91.857498 324.0 
92.013199 191.0 
92.055824 759.0 
92.185425 202.0 
92.207184 254.0 
92.369301 230.0 
92.48848 447.0 
92.549385 216.0 
92.674553 218.0 
92.701393 139.0 
92.779938 129.0 
93.033531 474.0 
93.069801 10730.0 
93.100243 116.0 
93.117088 132.0 
93.37973 231.0 
93.478294 86.0 
93.498215 100.0 
93.610123 280.0 
93.706818 136.0 
93.964508 161.0 
93.983109 174.0 
94.065353 78012.0 
94.129631 152.0 
94.205101 235.0 
94.240746 205.0 
94.278099 274.0 
94.388962 266.0 
94.493172 211.0 
94.664742 188.0 
94.7089 89.0 
94.738258 131.0 
94.764786 140.0 
94.863113 141.0 
94.937988 280.0 
94.965042 145.0 
95.01207 224.0 
95.049301 71682.0 
95.067749 6265.0 
95.085358 2909.0 
95.1791 81.0 
95.23613 209.0 
95.396561 149.0 
95.433304 239.0 
95.499634 181.0 
95.591537 142.0 
95.612633 297.0 
95.921471 209.0 
95.964561 290.0 
95.98774 107.0 
96.053696 5287.0 
96.081123 10856.0 
96.247147 244.0 
96.782707 226.0 
96.900047 244.0 
97.009697 96.0 
97.028877 1726.0 
97.064865 26925.0 
97.100525 1747.0 
97.132027 383.0 
97.189362 175.0 
97.361816 349.0 
97.581291 313.0 
97.676414 231.0 
97.705109 194.0 
97.776573 89.0 
97.812683 288.0 
97.877769 224.0 
97.894409 224.0 
98.023445 267.0 
98.060524 9615.0 
98.09758 1455.0 
98.154907 298.0 
98.266922 201.0 
98.367058 209.0 
98.496216 229.0 
98.601151 155.0 
98.633698 114.0 
98.680946 145.0 
98.711067 127.0 
98.760963 203.0 
99.012375 244.0 
99.044472 456.0 
99.080658 10728.0 
99.336945 88.0 
99.370529 143.0 
99.456131 118.0 
99.537498 137.0 
99.627342 190.0 
99.750542 302.0 
99.778603 148.0 
99.923798 135.0 
100.01651 233.0 
100.046082 195.0 
100.076324 5198.0 
100.567108 175.0 
100.6185 302.0 
101.001785 90.0 
101.059471 1454.0 
101.701843 99.0 
102.06353 165.0 
102.094032 147.0 
102.207367 135.0 
102.415833 205.0 
102.453598 426.0 
102.646896 149.0 
102.725243 266.0 
102.903488 117.0 
103.056816 725.0 
103.076797 181.0 
103.274841 99.0 
103.422577 148.0 
103.557556 93.0 
103.644859 146.0 
103.796913 242.0 
103.921844 96.0 
103.995644 348.0 
104.15625 146.0 
104.184433 218.0 
104.273216 91.0 
104.794342 106.0 
104.865204 128.0 
104.906914 213.0 
104.970848 169.0 
105.045731 1545.0 
105.070251 9965.0 
105.607704 167.0 
105.668068 106.0 
106.030502 186.0 
106.050468 214.0 
106.073051 455.0 
106.24884 165.0 
106.30307 166.0 
106.610664 114.0 
106.839897 425.0 
107.049812 2004.0 
107.085609 8484.0 
107.23494 132.0 
107.384033 121.0 
107.411301 191.0 
107.499176 176.0 
107.535606 232.0 
107.615776 240.0 
107.953186 172.0 
108.047852 282.0 
108.077759 549.0 
108.093552 732.0 
108.146812 186.0 
108.207184 301.0 
108.505615 129.0 
108.540749 155.0 
108.590088 132.0 
108.648209 130.0 
108.824982 140.0 
109.021484 260.0 
109.064743 7972.0 
109.101036 21970.0 
109.547264 202.0 
110.006691 396.0 
110.060326 120271.0 
110.10463 1349.0 
110.27092 119.0 
110.297699 215.0 
110.768822 137.0 
110.850204 168.0 
110.945213 196.0 
111.04509 4890.0 
111.063683 7042.0 
111.11647 125.0 
111.257568 192.0 
111.404335 309.0 
111.476173 263.0 
111.505684 246.0 
111.539375 88.0 
111.612915 224.0 
111.694901 227.0 
111.741791 190.0 
111.776245 151.0 
111.809967 134.0 
111.862831 342.0 
111.917084 133.0 
111.953964 607.0 
111.985199 117.0 
112.075912 758268.0 
112.107643 298.0 
112.129059 449.0 
112.175186 150.0 
112.214401 256.0 
112.234924 140.0 
112.254471 450.0 
112.283005 392.0 
112.339912 377.0 
112.392616 185.0 
112.436661 322.0 
112.466042 165.0 
112.542671 167.0 
112.578865 209.0 
112.643837 339.0 
112.702896 214.0 
112.720039 159.0 
112.74147 130.0 
112.83696 98.0 
113.001312 126.0 
113.059906 144221.0 
113.078125 39754.0 
113.138405 134.0 
113.227905 193.0 
113.245728 329.0 
113.288551 105.0 
113.326462 161.0 
113.381325 261.0 
113.410118 261.0 
113.444557 116.0 
113.499969 247.0 
113.619484 158.0 
113.804749 89.0 
113.952316 162.0 
113.980965 93.0 
114.018875 372.0 
114.063301 8481.0 
114.18544 234.0 
114.218994 120.0 
114.268715 106.0 
114.372803 169.0 
114.429802 162.0 
114.566711 214.0 
114.680672 180.0 
114.906853 207.0 
114.932861 171.0 
114.949265 184.0 
115.004738 89.0 
115.058426 963.0 
115.626244 137.0 
115.703827 148.0 
116.069046 902.0 
116.107353 166.0 
116.306023 215.0 
116.354103 160.0 
116.586342 173.0 
116.79332 128.0 
116.902618 172.0 
117.028137 114.0 
117.070183 2633.0 
117.25721 150.0 
117.53727 101.0 
117.586494 161.0 
117.764099 136.0 
118.014854 253.0 
118.072189 347.0 
118.429756 130.0 
118.965729 224.0 
119.05217 2433.0 
119.084862 9585.0 
119.294777 219.0 
119.319252 169.0 
119.352417 254.0 
119.542801 161.0 
119.848572 136.0 
119.876762 164.0 
119.925064 210.0 
120.055214 218.0 
120.08522 2433.0 
120.158875 206.0 
120.217766 252.0 
120.336464 219.0 
120.395081 605.0 
120.464851 98.0 
120.490013 256.0 
120.829903 253.0 
120.962479 119.0 
121.064125 7095.0 
121.101212 23876.0 
121.23951 218.0 
121.588951 102.0 
121.638969 238.0 
122.008507 356.0 
122.064041 1097.0 
122.101608 1796.0 
122.498703 118.0 
122.636162 106.0 
122.671829 121.0 
122.945763 307.0 
123.009781 191.0 
123.043747 2388.0 
123.080597 10849.0 
123.117195 51518.0 
123.151535 187.0 
123.292641 83.0 
123.561371 166.0 
123.652939 110.0 
124.046227 358.0 
124.08268 1796.0 
124.120872 5866.0 
124.401901 141.0 
124.836128 138.0 
125.03125 267.0 
125.059746 1852.0 
125.09285 361.0 
125.267395 82.0 
125.484947 138.0 
125.684837 161.0 
125.818794 342.0 
125.977371 305.0 
126.055489 2636.0 
126.091576 50861.0 
126.180634 240.0 
126.206451 161.0 
126.230209 96.0 
126.250122 114.0 
126.280777 284.0 
126.311386 102.0 
126.448608 92.0 
126.528053 168.0 
126.949265 255.0 
126.99382 123.0 
127.040138 198.0 
127.07534 14109.0 
127.094933 4198.0 
127.135048 159.0 
127.150574 175.0 
127.216782 207.0 
127.333214 139.0 
127.379585 105.0 
127.517181 186.0 
127.72123 171.0 
127.963371 101.0 
128.004181 381.0 
128.03862 415.0 
128.068436 8127.0 
128.101608 870.0 
128.151306 158.0 
128.251312 210.0 
128.471222 231.0 
128.779999 339.0 
129.070496 3211.0 
129.157562 123.0 
129.236496 119.0 
129.366364 242.0 
129.505981 247.0 
129.837021 273.0 
130.083542 2049.0 
130.200378 247.0 
130.270721 192.0 
130.309158 154.0 
130.417328 161.0 
130.788879 343.0 
130.960617 108.0 
131.047882 223.0 
131.085632 4307.0 
131.172455 140.0 
131.871658 190.0 
132.091888 1175.0 
132.774017 243.0 
132.888092 281.0 
133.064789 4710.0 
133.101669 10388.0 
133.236008 211.0 
133.284348 198.0 
133.311722 341.0 
133.406509 183.0 
133.557327 227.0 
133.617493 183.0 
134.071136 122.0 
134.101349 1533.0 
134.748932 191.0 
135.017807 176.0 
135.045074 1091.0 
135.081528 6734.0 
135.11731 4391.0 
135.479172 297.0 
135.721313 284.0 
136.027817 184.0 
136.076431 16505.0 
136.118042 95.0 
136.17572 236.0 
136.200821 505.0 
136.435425 183.0 
136.456207 127.0 
136.49469 179.0 
137.02124 122.0 
137.060928 2148.0 
137.095764 5268.0 
137.129944 207.0 
137.5298 149.0 
137.575226 228.0 
137.677856 157.0 
137.971252 257.0 
138.066605 386.0 
138.092697 4561.0 
138.249161 146.0 
138.28244 88.0 
138.392685 332.0 
138.48848 95.0 
138.955109 149.0 
139.010559 149.0 
139.041443 314.0 
139.074402 275.0 
139.094986 404.0 
139.571716 154.0 
139.633652 178.0 
139.761597 160.0 
139.876801 176.0 
139.967667 86.0 
140.110489 307.0 
140.169647 254.0 
140.3517 214.0 
140.775711 143.0 
140.830215 142.0 
141.059891 2858.0 
141.068649 2635.0 
141.124557 228.0 
141.568237 143.0 
141.793457 357.0 
141.821045 181.0 
141.902191 364.0 
141.942673 167.0 
142.019073 775.0 
142.086685 144396.0 
142.38118 148.0 
142.43335 152.0 
142.556305 305.0 
142.661316 115.0 
142.706085 280.0 
142.79155 151.0 
142.862366 95.0 
142.950653 104.0 
143.086578 43593.0 
143.152985 354.0 
143.225616 414.0 
143.274811 365.0 
143.314011 86.0 
143.35112 107.0 
143.397644 164.0 
143.46051 84.0 
143.544327 137.0 
143.568619 423.0 
143.627716 109.0 
143.66008 304.0 
143.683746 276.0 
143.748871 370.0 
143.769714 271.0 
143.824066 143.0 
143.875687 119.0 
143.938293 366.0 
143.962265 755.0 
143.991776 1228.0 
144.102386 852444.0 
144.192139 595.0 
144.239868 259.0 
144.27478 249.0 
144.312164 437.0 
144.337128 234.0 
144.405334 739.0 
144.507095 247.0 
144.551285 451.0 
144.590881 161.0 
144.62326 110.0 
144.784378 351.0 
144.837814 138.0 
145.007553 199.0 
145.06575 10829.0 
145.104843 64478.0 
145.196762 211.0 
145.254532 117.0 
145.434601 174.0 
145.97049 88.0 
146.003967 260.0 
146.072525 1668.0 
146.104904 4370.0 
146.13237 358.0 
146.185669 332.0 
146.205017 379.0 
146.245865 154.0 
146.263611 233.0 
146.288101 448.0 
146.338898 336.0 
146.378998 214.0 
146.513123 117.0 
146.553223 180.0 
146.585037 129.0 
146.610535 135.0 
146.667114 137.0 
146.722595 268.0 
147.013138 126.0 
147.048492 332.0 
147.080276 7114.0 
147.11676 5040.0 
147.369095 207.0 
147.486252 209.0 
147.520126 146.0 
147.655518 122.0 
147.876984 94.0 
148.050522 215.0 
148.080383 843.0 
148.120621 149.0 
148.374329 156.0 
148.689407 174.0 
148.764542 120.0 
148.919785 168.0 
148.977753 94.0 
149.059708 2519.0 
149.096619 4975.0 
149.130844 1097.0 
149.230499 162.0 
149.275208 81.0 
149.313766 96.0 
149.365005 198.0 
149.489243 173.0 
149.845947 118.0 
149.890305 153.0 
150.055008 110.0 
150.097626 1263.0 
150.133209 634.0 
150.198257 104.0 
150.674438 247.0 
150.720963 89.0 
150.76976 139.0 
150.920212 91.0 
150.98436 531.0 
151.038834 2087.0 
151.075745 11816.0 
151.112289 41274.0 
151.155106 471.0 
151.236588 183.0 
151.309784 285.0 
151.409241 99.0 
151.535446 137.0 
151.641922 174.0 
151.757736 115.0 
151.941071 147.0 
151.961319 161.0 
152.071671 25799.0 
152.108994 9389.0 
152.279663 120.0 
152.314163 115.0 
152.498947 113.0 
152.60228 144.0 
152.750977 140.0 
152.781342 154.0 
152.81134 275.0 
152.86293 216.0 
152.961136 162.0 
152.989227 143.0 
153.064926 3214.0 
153.109116 853.0 
153.123016 849.0 
153.388672 407.0 
153.439056 157.0 
153.467606 400.0 
153.525391 138.0 
153.638718 226.0 
153.694382 212.0 
153.752625 327.0 
153.841141 383.0 
153.866943 233.0 
153.897293 213.0 
153.973267 1113.0 
154.086914 1250733.0 
154.18486 301.0 
154.208832 453.0 
154.237442 628.0 
154.290039 423.0 
154.340088 272.0 
154.359085 256.0 
154.385605 142.0 
154.409851 299.0 
154.450317 427.0 
154.480164 460.0 
154.527664 209.0 
154.586838 262.0 
154.669174 398.0 
154.702332 280.0 
154.733078 119.0 
154.777588 159.0 
154.80513 105.0 
154.930191 128.0 
154.972214 235.0 
155.010544 385.0 
155.036407 626.0 
155.090118 103609.0 
155.140411 244.0 
155.178223 136.0 
155.35936 209.0 
155.477768 179.0 
155.512589 153.0 
155.84761 186.0 
155.913956 200.0 
155.958923 189.0 
156.015198 102.0 
156.092804 16625.0 
156.152374 447.0 
156.242981 307.0 
156.275635 447.0 
156.330307 673.0 
156.370499 202.0 
156.455978 342.0 
156.569427 120.0 
156.609238 117.0 
156.645187 95.0 
156.676376 159.0 
156.956116 229.0 
156.996704 206.0 
157.065109 1736.0 
157.10228 8905.0 
157.414536 151.0 
157.900513 97.0 
157.99942 144.0 
158.072647 2319.0 
158.10907 1214.0 
158.652344 99.0 
158.698288 132.0 
158.837448 110.0 
159.05098 168.0 
159.08139 4859.0 
159.117401 6360.0 
159.41333 221.0 
159.802307 109.0 
160.058777 210.0 
160.117416 2369.0 
160.437592 97.0 
160.798233 242.0 
160.859131 100.0 
161.012878 166.0 
161.060593 2679.0 
161.09697 10509.0 
161.133957 3521.0 
161.29126 366.0 
161.918243 146.0 
162.021729 259.0 
162.07045 527.0 
162.094177 3957.0 
162.141983 92.0 
162.460037 118.0 
162.895126 227.0 
162.934464 245.0 
163.039261 1516.0 
163.075241 17783.0 
163.149368 622.0 
163.658859 248.0 
163.763245 182.0 
163.830048 174.0 
164.029099 271.0 
164.047775 427.0 
164.080429 3023.0 
164.107666 1832.0 
164.603912 309.0 
164.757217 188.0 
165.068497 3226.0 
165.088272 1512.0 
165.129852 1510.0 
165.161377 341.0 
165.65625 92.0 
165.937119 192.0 
165.998474 91.0 
166.079056 6114.0 
166.137466 200.0 
166.263214 173.0 
166.309128 223.0 
166.388214 111.0 
166.503204 210.0 
167.086304 490.0 
167.110474 318.0 
167.139252 331.0 
167.22731 190.0 
167.289398 141.0 
167.311996 184.0 
167.452026 125.0 
167.86795 341.0 
168.027252 119.0 
168.055374 134.0 
168.101776 1543.0 
168.35379 220.0 
168.968811 95.0 
169.064453 641.0 
169.101944 4630.0 
169.122498 6800.0 
169.226974 233.0 
169.403488 218.0 
169.967728 102.0 
170.024323 84.0 
170.080734 6768.0 
170.127167 845.0 
170.250534 123.0 
170.361191 94.0 
170.451462 272.0 
170.646072 114.0 
170.85672 101.0 
170.922134 87.0 
170.991501 152.0 
171.081543 8895.0 
171.117294 66008.0 
171.161316 144.0 
171.215439 252.0 
171.310959 113.0 
171.496674 112.0 
171.700333 198.0 
171.855377 93.0 
171.928192 196.0 
172.049042 151.0 
172.097733 2682.0 
172.121414 8944.0 
172.995422 242.0 
173.056839 868.0 
173.092484 4296.0 
173.130951 1710.0 
173.785736 95.0 
174.069595 585.0 
174.093109 946.0 
174.13121 230.0 
174.920029 197.0 
175.075211 836.0 
175.110199 1197.0 
175.149429 7467.0 
175.406647 233.0 
175.70816 346.0 
176.083328 89.0 
176.107346 827.0 
176.15332 1160.0 
176.243896 153.0 
176.307098 223.0 
177.030746 113.0 
177.05748 1548.0 
177.092621 915.0 
177.128128 1539.0 
177.432617 100.0 
177.640121 136.0 
178.05249 315.0 
178.087433 1765.0 
178.123245 3529.0 
178.170074 113.0 
178.233673 104.0 
178.951416 236.0 
179.050461 400.0 
179.090393 1265.0 
179.143799 2918.0 
179.917892 220.0 
179.994736 111.0 
180.071228 674.0 
180.102066 13351.0 
180.146408 555.0 
180.189438 109.0 
180.583771 275.0 
181.102921 9500.0 
181.165131 78.0 
181.214767 124.0 
182.073303 1140.0 
182.110886 2030.0 
182.509979 205.0 
182.672577 119.0 
183.079163 2299.0 
183.116272 1798.0 
183.17572 222.0 
183.243607 120.0 
183.312042 113.0 
184.027573 349.0 
184.097198 63393.0 
184.311569 198.0 
184.367508 110.0 
184.406372 133.0 
184.604996 174.0 
184.793228 136.0 
184.885696 362.0 
184.938644 170.0 
185.001053 274.0 
185.034698 414.0 
185.097183 6570.0 
185.133316 1055.0 
185.159302 610.0 
185.244476 147.0 
185.38121 292.0 
185.452011 102.0 
185.534393 82.0 
185.582687 393.0 
185.646652 424.0 
185.696243 353.0 
185.73053 130.0 
185.772919 255.0 
185.80275 296.0 
185.850403 248.0 
185.917969 570.0 
185.942429 683.0 
185.987091 506.0 
186.113113 1041373.0 
186.162888 628.0 
186.191254 470.0 
186.212036 508.0 
186.258377 237.0 
186.284058 380.0 
186.306549 507.0 
186.345963 341.0 
186.409943 386.0 
186.501373 246.0 
186.536758 486.0 
186.558762 496.0 
186.64827 296.0 
186.669754 469.0 
186.726974 163.0 
186.773483 334.0 
186.859238 548.0 
186.977997 183.0 
187.014206 254.0 
187.046387 325.0 
187.116333 89056.0 
187.223358 127.0 
187.25351 237.0 
187.332596 150.0 
188.113861 12454.0 
188.152679 300.0 
188.18985 193.0 
188.222107 155.0 
188.351562 294.0 
188.391113 155.0 
188.460434 266.0 
188.493713 367.0 
188.531296 179.0 
188.549942 237.0 
188.636032 617.0 
188.735046 657.0 
188.876862 100.0 
189.004257 235.0 
189.054718 3554.0 
189.092407 3779.0 
189.121323 1965.0 
189.154648 457.0 
189.562164 302.0 
190.059555 228.0 
190.088913 542.0 
190.127777 374.0 
190.362411 100.0 
190.5634 88.0 
191.039062 154.0 
191.071045 833.0 
191.107483 581.0 
191.14389 371.0 
191.988388 126.0 
192.100357 135.0 
192.898346 178.0 
192.923172 138.0 
193.054886 249.0 
193.099808 1491.0 
193.159241 73654.0 
193.491013 87.0 
193.676453 186.0 
194.02742 132.0 
194.116669 866.0 
194.163177 7400.0 
194.348282 103.0 
195.079544 804.0 
195.117294 866.0 
195.15831 178.0 
195.714371 104.0 
195.916061 90.0 
196.089706 253.0 
196.11145 254.0 
196.464691 341.0 
196.971802 119.0 
197.09668 9751.0 
197.130524 666.0 
197.348434 82.0 
197.600754 108.0 
197.994781 110.0 
198.055481 360.0 
198.099365 2297.0 
198.141693 494.0 
198.398956 91.0 
198.571915 250.0 
198.797775 140.0 
198.848282 269.0 
198.923447 300.0 
198.975739 443.0 
199.019775 876.0 
199.11261 276787.0 
199.152634 1042.0 
199.372528 145.0 
199.411636 71.0 
199.437408 196.0 
199.626648 151.0 
199.781723 140.0 
199.952454 129.0 
200.010239 202.0 
200.032913 335.0 
200.05397 234.0 
200.115784 32645.0 
200.257889 97.0 
200.357803 172.0 
200.389328 114.0 
201.056824 191.0 
201.092514 1029.0 
201.122879 1776.0 
201.167603 350.0 
201.361588 154.0 
201.646194 314.0 
201.779709 312.0 
201.830002 94.0 
202.062759 705.0 
202.10672 2852.0 
202.165054 187.0 
202.349167 100.0 
202.44339 108.0 
203.070877 842.0 
203.108688 779.0 
203.145325 1275.0 
204.101181 1540.0 
204.123199 3003.0 
205.050262 119.0 
205.084152 425.0 
205.104736 336.0 
205.158905 508.0 
206.044601 113.0 
206.069855 311.0 
206.118454 11725.0 
206.54158 122.0 
206.683151 114.0 
207.102753 2150.0 
207.119644 2175.0 
208.059601 113.0 
208.09816 423.0 
208.133728 624.0 
209.098312 985.0 
209.13414 789.0 
209.609665 244.0 
209.70697 291.0 
209.99649 357.0 
210.067261 93.0 
210.106674 720.0 
211.047699 109.0 
211.0755 235.0 
211.10965 1667.0 
211.151031 612.0 
212.078812 320.0 
212.129761 676.0 
213.091446 1027.0 
213.126511 434.0 
213.166504 460.0 
213.619537 105.0 
214.099014 287.0 
214.126846 153.0 
214.166779 288.0 
215.07196 1199.0 
215.107285 3740.0 
215.146942 431.0 
215.178253 134.0 
215.919052 106.0 
216.103989 436.0 
216.488403 166.0 
216.553268 143.0 
217.081161 637.0 
217.122543 4817.0 
217.159973 898.0 
217.64006 222.0 
217.798386 91.0 
218.083069 132.0 
218.125275 978.0 
218.162033 439.0 
219.068085 80.0 
219.138733 1404.0 
220.097 164.0 
220.132446 1801.0 
220.626358 124.0 
221.04393 128.0 
221.154785 12430.0 
221.62532 228.0 
221.736511 148.0 
221.858032 79.0 
222.083527 434.0 
222.11235 6460.0 
222.161041 924.0 
223.010727 207.0 
223.07576 498.0 
223.114624 1115.0 
223.158203 457.0 
224.128571 7552.0 
224.915329 214.0 
225.030502 541.0 
225.091522 20637.0 
225.128281 1785.0 
225.170273 150.0 
225.298752 156.0 
225.467865 112.0 
226.09491 2661.0 
226.129242 516.0 
226.171051 161.0 
226.710876 201.0 
227.104538 1004.0 
227.14064 301.0 
227.893799 89.0 
228.072144 354.0 
228.114014 351.0 
229.073257 219.0 
229.125992 787.0 
230.091782 150.0 
230.120453 871.0 
230.161392 206.0 
230.754303 250.0 
231.105515 362.0 
231.137985 618.0 
231.175476 1087.0 
231.652634 137.0 
232.087753 256.0 
232.12558 413.0 
232.182281 338.0 
232.982025 87.0 
233.057526 145.0 
233.132507 1169.0 
233.187759 99.0 
233.248413 220.0 
234.025879 244.0 
234.091919 349.0 
234.146927 242.0 
235.095947 785.0 
235.151123 127.0 
235.926605 230.0 
236.126495 635.0 
237.067322 154.0 
237.094559 865.0 
237.127853 1140.0 
237.162415 345.0 
238.145691 1351.0 
239.070847 232.0 
239.111908 710.0 
239.141006 474.0 
239.177429 228.0 
240.145798 249.0 
241.050293 346.0 
241.08168 384.0 
241.101944 494.0 
241.188995 267.0 
241.456726 196.0 
242.110397 90.0 
242.907166 135.0 
243.004837 196.0 
243.102264 43027.0 
243.294113 97.0 
243.620239 150.0 
244.106979 6426.0 
244.185486 303.0 
244.508682 93.0 
244.642197 197.0 
245.04567 264.0 
245.117615 9439.0 
246.121307 854.0 
247.074966 111.0 
247.114258 228.0 
247.148743 1030.0 
248.052048 146.0 
248.130264 6275.0 
248.170059 150.0 
248.904404 220.0 
249.129944 3066.0 
249.183014 420.0 
250.140625 240.0 
251.107315 575.0 
251.141556 1455.0 
251.17334 443.0 
252.07312 158.0 
252.10907 317.0 
252.146637 678.0 
252.187866 127.0 
252.621033 102.0 
253.090927 853.0 
253.158798 447.0 
253.198761 354.0 
253.336655 89.0 
253.972626 241.0 
254.133057 373.0 
254.357941 101.0 
255.051086 142.0 
255.107452 616.0 
255.139557 164.0 
255.173462 184.0 
255.211304 210.0 
256.108276 130.0 
256.16153 207.0 
256.214996 122.0 
257.05069 174.0 
257.087494 102.0 
257.124695 386.0 
257.1586 183.0 
258.134644 171.0 
258.314423 105.0 
259.100922 329.0 
259.1474 416.0 
259.216156 452.0 
260.075226 126.0 
260.124481 508.0 
260.181335 207.0 
260.35965 150.0 
260.823792 115.0 
261.032898 161.0 
261.113495 21444.0 
261.315125 107.0 
261.429108 102.0 
261.459381 156.0 
261.496307 197.0 
262.117889 3044.0 
263.015228 83.0 
263.104736 657.0 
263.14209 936.0 
263.179749 276.0 
264.10791 180.0 
264.151215 155.0 
264.593903 89.0 
265.084717 322.0 
265.12677 996.0 
265.157715 882.0 
265.265717 110.0 
265.458679 130.0 
265.645752 208.0 
265.91806 147.0 
266.042084 405.0 
266.091278 1586.0 
266.139587 58032.0 
266.210968 243.0 
266.556671 87.0 
266.715118 100.0 
267.083954 229.0 
267.141541 6747.0 
267.179504 391.0 
267.361633 100.0 
268.032593 134.0 
268.089417 138.0 
268.146515 664.0 
268.842682 93.0 
268.891846 121.0 
269.049377 246.0 
269.104736 211.0 
269.144562 532.0 
269.191833 671.0 
269.403809 253.0 
270.109283 587.0 
270.152588 977.0 
270.199768 1810.0 
271.0914 147.0 
271.164856 170.0 
271.206085 507.0 
272.117981 117.0 
272.644928 113.0 
273.111267 382.0 
273.155579 226.0 
274.16275 132.0 
274.2854 199.0 
274.797638 171.0 
275.141693 1280.0 
275.181671 185.0 
275.204224 250.0 
275.661957 194.0 
276.141724 177.0 
276.178467 147.0 
277.058502 208.0 
277.157928 1194.0 
277.305786 248.0 
277.901672 85.0 
278.125244 549.0 
278.162109 261.0 
278.21521 132.0 
279.023041 204.0 
279.100128 323.0 
279.138824 1154.0 
280.101105 104.0 
280.157684 2842.0 
281.126617 445.0 
281.156738 853.0 
282.100861 211.0 
282.15448 116.0 
283.134155 596.0 
283.750702 242.0 
284.130615 230.0 
284.598083 152.0 
285.141388 336.0 
285.174103 232.0 
285.249084 108.0 
286.051575 84.0 
287.145782 538.0 
287.201324 5229.0 
287.390778 122.0 
288.101776 283.0 
288.208405 5319.0 
288.737122 154.0 
289.023438 166.0 
289.120667 441.0 
289.162323 646.0 
289.183167 562.0 
289.215515 2055.0 
289.614807 174.0 
289.994293 125.0 
290.213531 519.0 
291.093018 319.0 
291.13504 572.0 
291.18631 112.0 
291.227478 302.0 
292.111328 108.0 
292.699738 153.0 
293.093842 180.0 
293.154144 1676.0 
294.156342 348.0 
294.250244 206.0 
294.687561 121.0 
295.134888 1415.0 
295.168762 2072.0 
295.231628 119.0 
295.488678 127.0 
296.135742 85.0 
296.163116 230.0 
296.328094 147.0 
296.657684 130.0 
296.800262 105.0 
297.115082 250.0 
297.15451 852.0 
297.224548 448.0 
297.383881 237.0 
297.501892 129.0 
297.582916 166.0 
297.761017 107.0 
297.894928 331.0 
297.971588 217.0 
298.014679 503.0 
298.048737 459.0 
298.165833 374486.0 
298.236084 387.0 
298.277496 148.0 
298.330383 315.0 
298.402771 83.0 
298.463959 230.0 
298.619995 160.0 
298.668549 150.0 
298.725769 172.0 
298.817444 137.0 
299.056152 341.0 
299.169189 42922.0 
299.488251 104.0 
299.604309 133.0 
300.121948 140.0 
300.1716 4705.0 
300.608093 93.0 
301.08905 81.0 
301.162628 295.0 
301.271027 230.0 
301.380157 137.0 
301.458252 261.0 
303.068054 142.0 
303.138977 2014.0 
303.175812 511.0 
304.15036 178.0 
305.058319 135.0 
305.111938 353.0 
305.144684 554.0 
305.212708 40421.0 
305.375977 186.0 
306.214355 5922.0 
307.224426 4732.0 
308.129333 83.0 
308.188477 145.0 
308.232666 794.0 
308.330536 102.0 
308.401672 86.0 
309.118896 124.0 
309.162872 293.0 
310.215149 158.0 
311.118896 307.0 
311.171295 104.0 
311.237 99.0 
312.180206 183.0 
313.106995 217.0 
313.14682 1463.0 
313.185608 458.0 
313.248901 209.0 
313.473999 116.0 
314.160797 272.0 
315.164154 608.0 
315.230103 348.0 
316.148621 260.0 
316.447876 120.0 
317.125061 246.0 
317.250244 437.0 
318.138153 168.0 
319.131531 480.0 
319.170715 175.0 
319.20871 258.0 
319.240967 403.0 
320.160004 180.0 
320.578857 114.0 
321.146149 1391.0 
321.287048 96.0 
322.164032 359.0 
322.403229 91.0 
323.132507 122.0 
323.235962 134.0 
324.231506 126.0 
325.10907 95.0 
325.155609 256.0 
326.149689 112.0 
326.231812 211.0 
327.094086 90.0 
327.130981 167.0 
327.175079 294.0 
328.180542 149.0 
328.209076 203.0 
328.574158 146.0 
329.153656 334.0 
329.919373 309.0 
330.031128 286.0 
330.066132 232.0 
330.10376 591.0 
330.192261 83855.0 
330.532837 114.0 
330.596283 121.0 
330.771149 96.0 
331.053864 107.0 
331.099182 189.0 
331.195709 9966.0 
331.293488 104.0 
332.201111 1111.0 
333.152405 124.0 
333.202271 334.0 
333.348389 112.0 
333.52594 244.0 
334.153473 261.0 
335.801453 221.0 
336.192505 138.0 
337.139923 145.0 
337.246979 106.0 
338.258606 140.0 
339.160126 3095.0 
340.145569 132.0 
341.109528 113.0 
341.17514 377.0 
341.219177 158.0 
342.180237 115.0 
343.183044 238.0 
344.17157 168.0 
345.080261 125.0 
345.153381 395.0 
345.194672 554.0 
345.255463 110.0 
346.186554 402.0 
347.168518 552.0 
347.19455 355.0 
348.155701 110.0 
348.206177 1080.0 
348.563049 90.0 
349.211914 126.0 
350.11734 89.0 
351.170502 191.0 
352.191315 191.0 
353.115295 118.0 
353.196533 368.0 
354.706329 141.0 
355.165924 103.0 
355.218719 202.0 
355.275024 418.0 
356.86676 209.0 
357.170349 1937.0 
357.20816 367.0 
358.181 401.0 
359.248596 103.0 
361.182343 530.0 
363.192566 591.0 
365.216644 467.0 
366.134552 115.0 
367.171082 78.0 
369.118896 133.0 
369.21814 320.0 
369.334381 144.0 
371.160797 431.0 
372.180786 138.0 
372.212341 188.0 
373.19281 184.0 
374.21637 148.0 
375.175842 440.0 
375.238831 112.0 
376.17868 246.0 
377.14859 92.0 
377.183929 170.0 
378.163513 163.0 
379.197144 198.0 
380.202637 114.0 
381.143829 137.0 
381.172943 311.0 
381.211639 877.0 
383.183746 301.0 
383.25174 297.0 
385.196136 315.0 
387.19455 90.0 
389.183655 835.0 
390.168182 89.0 
390.213135 156.0 
391.19165 132.0 
395.214874 316.0 
397.219238 288.0 
399.216217 428.0 
400.253601 348.0 
401.109161 134.0 
401.27417 123.0 
402.239471 187.0 
403.266846 98.0 
404.809113 321.0 
405.204681 99.0 
405.420776 116.0 
407.193176 547.0 
408.191559 181.0 
409.212555 133.0 
411.245819 296.0 
412.21225 93.0 
413.250366 94.0 
413.314148 148.0 
413.500244 98.0 
415.181335 185.0 
415.287964 136.0 
416.19574 118.0 
416.267212 104.0 
417.207458 248.0 
417.268768 213.0 
419.055878 163.0 
420.166901 102.0 
421.229004 199.0 
421.297028 267.0 
422.114594 150.0 
423.207825 72.0 
424.219238 146.0 
425.22641 274.0 
427.202148 223.0 
427.239227 290.0 
427.641907 195.0 
428.23642 441.0 
429.205902 117.0 
430.192871 89.0 
431.2836 277.0 
433.187958 250.0 
433.296661 158.0 
436.237549 137.0 
436.274811 145.0 
436.909637 225.0 
437.241516 221.0 
438.263702 361.0 
439.251038 907.0 
440.264282 354.0 
441.205383 279.0 
441.256683 155.0 
441.333954 116.0 
442.151398 151.0 
443.277863 199.0 
445.243195 638.0 
446.240509 103.0 
448.228149 545.0 
449.244385 92.0 
449.284424 305.0 
450.192413 312.0 
450.311401 137.0 
451.206879 115.0 
451.311646 689.0 
452.186218 80.0 
454.233032 96.0 
455.158386 86.0 
455.251953 418.0 
456.280762 369.0 
457.108124 248.0 
457.25824 90.0 
460.212311 145.0 
460.305817 202.0 
461.348145 169.0 
462.258667 107.0 
463.206757 241.0 
463.241852 501.0 
464.26239 184.0 
465.217133 308.0 
465.271393 118.0 
466.250092 114.0 
467.329437 207.0 
468.052216 136.0 
468.307007 923.0 
469.30838 1425.0 
470.309875 349.0 
472.327271 197.0 
474.332184 118.0 
475.334747 112.0 
477.276978 299.0 
479.256104 113.0 
480.202576 118.0 
480.284271 1219.0 
481.16626 98.0 
481.258026 700.0 
483.247772 356.0 
484.25354 228.0 
485.201904 99.0 
485.309723 411.0 
486.322754 231.0 
487.324371 950.0 
488.331268 463.0 
490.346191 96.0 
492.296753 109.0 
492.335541 328.0 
493.262421 129.0 
493.339325 111.0 
495.281219 440.0 
496.399506 199.0 
498.264191 159.0 
498.30484 433.0 
499.217987 106.0 
499.270081 142.0 
500.257629 90.0 
501.246277 117.0 
504.325989 107.0 
504.36319 300.0 
505.330383 246.0 
506.259827 96.0 
506.333923 398.0 
509.249969 127.0 
509.928192 195.0 
510.517242 87.0 
513.217712 91.0 
513.302307 2990.0 
514.202881 119.0 
514.246826 112.0 
514.315002 1092.0 
515.329407 155.0 
516.282288 189.0 
520.317383 298.0 
521.298645 144.0 
522.278015 213.0 
524.162842 146.0 
524.256653 206.0 
525.247681 107.0 
525.295105 452.0 
528.161438 205.0 
531.312195 3629.0 
532.320923 1002.0 
533.319397 199.0 
538.281677 131.0 
539.243835 131.0 
541.211609 86.0 
542.177246 135.0 
542.268494 587.0 
543.291687 444.0 
544.271729 87.0 
548.328064 169.0 
549.323486 10712.0 
550.221802 121.0 
550.329102 2500.0 
551.192566 159.0 
551.244934 122.0 
551.333801 589.0 
554.5979 86.0 
560.277161 276.0 
560.359131 93.0 
563.346375 319.0 
564.282104 101.0 
565.272278 188.0 
565.318665 1692.0 
566.327454 452.0 
567.121338 158.0 
567.284241 446.0 
567.337646 6191.0 
568.22821 258.0 
568.341248 2035.0 
569.349121 172.0 
570.308289 225.0 
570.350464 207.0 
571.806335 117.0 
572.500427 135.0 
575.27301 116.0 
577.29425 164.0 
578.307617 81.0 
584.346375 193.0 
585.350525 993.0 
585.468811 124.0 
586.343872 407.0 
586.698181 114.0 
588.34491 125.0 
589.266846 99.0 
591.063293 115.0 
600.706116 83.0 
604.377319 117.0 
605.30835 89.0 
607.218689 98.0 
610.308899 146.0 
611.374023 107.0 
617.407715 144.0 
618.028503 82.0 
618.205017 108.0 
618.256226 144.0 
618.318298 152.0 
618.395203 172.0 
622.393372 112.0 
625.358826 591.0 
628.418945 130.0 
629.445923 186.0 
634.651672 87.0 
636.307861 131.0 
636.413025 200.0 
637.383118 114.0 
637.428528 340.0 
642.295288 94.0 
642.376221 237.0 
643.365662 734.0 
644.221924 312.0 
644.378235 194.0 
648.357178 176.0 
654.265137 147.0 
657.398315 325.0 
661.38916 324.0 
662.380554 139.0 
673.43396 119.0 
674.803101 109.0 
675.339539 189.0 
675.911926 148.0 
677.033752 111.0 
679.403381 143.0 
684.381592 192.0 
686.371216 80.0 
693.4021 1251.0 
694.377563 293.0 
695.665039 244.0 
696.299805 117.0 
696.759583 179.0 
697.089355 142.0 
698.417908 276.0 
699.407104 120.0 
700.281494 101.0 
703.045654 88.0 
703.491577 292.0 
704.370483 479.0 
711.127319 90.0 
711.348938 352.0 
711.410217 611.0 
711.524109 120.0 
712.417175 291.0 
716.357056 100.0 
716.402466 336.0 
716.456604 211.0 
717.408142 164.0 
718.418945 114.0 
722.377808 365.0 
724.393433 121.0 
729.426392 687.0 
730.438904 121.0 
734.273132 188.0 
734.429871 1069.0 
734.530457 104.0 
735.430481 330.0 
736.329712 115.0 
738.605408 158.0 
743.430054 201.0 
752.443665 209.0 
765.675476 186.0 
770.424438 144.0 
776.847046 174.0 
779.917358 195.0 
787.730835 148.0 
791.988586 99.0 
792.707275 233.0 
792.971008 112.0 
797.686951 154.0 
798.50647 125.0 
804.386658 115.0 
814.060913 197.0 
816.499451 323.0 
820.460388 142.0 
825.458435 128.0 
828.427063 188.0 
829.481567 108.0 
829.676086 153.0 
830.100342 87.0 
833.367615 116.0 
834.489197 94.0 
834.68811 467.0 
842.47467 197.0 
843.482117 87.0 
846.481445 538.0 
848.479248 138.0 
853.841309 142.0 
854.071045 212.0 
856.329285 115.0 
860.416687 117.0 
860.488831 1052.0 
861.412292 126.0 
861.492126 597.0 
862.529907 183.0 
864.480347 314.0 
864.51709 371.0 
865.486328 186.0 
867.852051 196.0 
867.95282 176.0 
878.135193 249.0 
878.518677 1844.0 
879.504089 577.0 
879.579041 275.0 
879.700317 85.0 
880.514221 117.0 
881.877502 259.0 
882.455566 80.0 
884.46106 106.0 
889.3573 246.0 
895.470032 116.0 
895.820312 147.0 
896.222717 94.0 
896.303894 243.0 
896.45752 435.0 
896.517761 3589.0 
897.2995 88.0 
897.460693 170.0 
897.515686 1213.0 
898.097412 161.0 
898.514526 329.0 
907.709778 235.0 
912.503662 123.0 
913.000488 143.0 
913.490295 666.0 
914.486572 361.0 
914.615479 273.0 
916.465759 130.0 
916.60553 118.0 
916.661316 216.0 
919.158752 285.0 
925.474976 222.0 
928.978943 119.0 
929.177795 125.0 
929.782593 191.0 
930.160217 184.0 
946.775085 205.0 
946.881104 306.0 
949.277954 256.0 
949.682251 275.0 
951.802979 268.0 
953.946777 252.0 
954.701782 91.0 
955.265137 165.0 
955.834778 120.0 
958.048523 167.0 
958.308838 180.0 
963.893921 85.0 
964.680359 159.0 
966.345581 200.0 
977.183594 112.0 
980.357971 149.0 
980.652832 134.0 
985.951355 131.0 
988.572327 107.0 
988.703735 187.0 
989.268188 110.0 
989.573303 230.0 
991.198792 150.0 
992.064453 90.0 
992.19165 70.0 
998.876404 224.0 
END IONS

