BEGIN IONS
PEPMASS=407.221
CHARGE=1+
COMPOUNDNAME=MoNA:950301 Lincomycin
LIBRARYQUALITY=3
SMILES=N/A
INCHIKEY=OJMMVQQUTAEWLP-UHFFFAOYSA-N
INCHI=InChI=1S/C18H34N2O6S/c1-5-6-10-7-11(20(3)8-10)17(25)19-12(9(2)21)16-14(23)13(22)15(24)18(26-16)27-4/h9-16,18,21-24H,5-8H2,1-4H3,(H,19,25)
MSLEVEL=2
SOURCE_INSTRUMENT=LC-ESI-QFT-LC-ESI-QFT
FILENAME=output_mgf.mgf
SEQ=*..*
IONMODE=
ORGANISM=MONA
NAME=MoNA:950301 Lincomycin [M+H]+
PI=MoNA
DATACOLLECTOR=MoNA
PUBMED=N/A
SUBMITUSER=mwang87
TAGS=
SPECTRUMID=CCMSLIB00000568615
SCANS=5866
51.0229 0.114407 
53.0022 2.522701 
53.0386 1.128254 
53.9975 0.866486 
54.0338 1.430692 
55.0417 1.56553 
55.0543 18.919486 
56.0495 3.947918 
57.0573 1.42386 
57.0699 0.602017 
58.0652 11.060303 
61.0107 1.354332 
65.0386 1.958757 
67.0417 5.66806 
67.0542 14.210307 
68.0495 44.925427 
69.0573 1.533452 
69.0699 26.195995 
70.0651 73.469616 
71.0128 0.183433 
71.073 0.543869 
72.0808 0.483026 
77.0385 0.156984 
79.0542 0.947676 
80.0494 1.777361 
81.0574 1.890009 
82.0652 100.0 
83.0729 48.048229 
84.0808 12.333474 
85.1011 0.262094 
91.0543 0.732287 
93.07 1.890593 
94.0652 1.882005 
95.0492 0.421493 
95.0856 3.989129 
96.0808 15.058887 
97.0887 5.234145 
98.0964 2.201327 
108.0808 0.130245 
111.1042 0.9636 
124.1122 5.522739 
126.1278 64.188896 
END IONS

