BEGIN IONS
PEPMASS=192.99
CHARGE=1+
COMPOUNDNAME=Patulin
LIBRARYQUALITY=3
SMILES=N/A
INCHIKEY=ZRWPUFFVAOMMNM-UHFFFAOYSA-N
INCHI=InChI=1S/C7H6O4/c8-6-3-4-5(11-6)1-2-10-7(4)9/h1,3,7,9H,2H2
MSLEVEL=2
SOURCE_INSTRUMENT=N/A-ESI-QFT
FILENAME=library_mgf.mgf
SEQ=*..*
IONMODE=positive
ORGANISM=MONA
NAME=Patulin [M+K]+
PI=MoNA
DATACOLLECTOR=MoNA:VF-NPL-QEHF025936
PUBMED=N/A
SUBMITUSER=mwang87
TAGS=
SPECTRUMID=CCMSLIB00004716999
SCANS=25936
50.698345 0.025607 
50.785213 0.021176 
51.137402 0.014374 
51.940281 0.300959 
52.234222 0.027813 
52.306545 0.037857 
52.316559 0.014992 
53.13203 0.025261 
53.297493 0.028553 
53.767685 0.0304 
53.844341 0.025238 
54.154125 0.016497 
54.281727 0.024419 
55.054523 0.668414 
55.177116 0.025476 
56.049763 0.016608 
56.851463 0.024245 
56.96508 0.862657 
57.033779 0.339767 
57.070114 0.465222 
57.17812 0.024964 
57.935097 0.728718 
58.065392 0.148676 
59.049381 0.660106 
59.262058 0.036261 
60.044605 0.340136 
60.055939 0.017811 
61.010864 100.0 
61.373463 0.027406 
62.014286 0.01891 
62.018673 3.763013 
62.424988 0.03712 
62.981937 0.07231 
63.006638 0.361271 
64.014397 0.022882 
65.915543 0.021503 
66.396568 0.015693 
67.054352 2.660845 
67.934921 0.329715 
68.057587 0.022997 
68.16021 0.024674 
68.177132 0.017204 
68.935013 0.0247 
69.069946 0.875249 
69.269035 0.021446 
69.961105 0.027098 
70.022675 0.016536 
70.065186 0.087965 
70.36879 0.022714 
70.370338 0.051712 
70.901367 0.040229 
70.957985 0.29101 
71.049164 0.739863 
72.044472 0.237904 
72.427109 0.044346 
72.948074 0.01666 
72.958305 0.253957 
73.064575 0.026477 
73.635231 0.043508 
74.060013 0.058849 
75.157394 0.029895 
75.187523 0.028744 
75.622025 0.040427 
75.943321 0.046358 
75.945427 1.498169 
77.420601 0.036084 
79.021187 1.151561 
79.054253 1.918291 
80.942841 0.027879 
81.018555 0.472282 
81.033615 0.078365 
81.069893 5.170813 
81.913254 0.024938 
82.065056 0.091863 
82.949921 0.016637 
83.049088 0.499824 
83.08551 0.943126 
83.752876 0.018545 
83.929787 0.438033 
83.995674 0.028507 
84.937698 0.028922 
84.959671 0.081425 
85.028473 0.030548 
85.064789 0.69858 
85.945335 0.096581 
86.060097 0.022209 
87.037804 0.045855 
87.04406 2.995892 
88.075722 0.113613 
89.0597 10.268619 
89.37677 0.027605 
89.794769 0.023462 
89.879898 0.041403 
90.94767 0.048691 
91.054214 2.321985 
91.408714 0.025636 
91.795776 0.03079 
93.066994 0.035019 
93.069885 5.140046 
93.227158 0.030357 
93.955856 2.008005 
94.026268 0.530782 
94.073158 0.243552 
94.077667 0.437195 
94.261131 0.038953 
95.049088 0.41337 
95.085533 7.159281 
95.2276 0.039739 
96.080856 0.048907 
96.088791 0.182498 
97.061523 0.042858 
97.064796 2.07297 
97.076286 0.041587 
97.101135 0.06956 
98.060326 0.048873 
98.06839 0.022556 
98.072594 0.498664 
98.09642 0.932403 
98.099525 0.024746 
98.379578 0.050356 
98.975327 0.05723 
99.080467 0.280204 
100.075592 0.925177 
100.452042 0.0206 
101.928345 0.017295 
101.940376 0.284401 
102.914711 0.557492 
102.948112 0.341441 
102.979385 0.032471 
103.039169 0.058335 
103.955986 0.022741 
103.976654 0.355305 
104.930336 3.410821 
105.069931 1.96764 
105.731865 0.019423 
105.917007 0.047798 
105.955994 0.164911 
106.049759 0.019969 
106.873077 0.0173 
107.024239 0.01994 
107.070099 0.077617 
107.085526 4.919726 
107.971428 0.019417 
108.088737 0.150527 
109.064728 0.902584 
109.076004 0.714118 
109.101212 3.00465 
110.104477 0.107547 
111.080421 1.49715 
111.609192 0.042287 
112.043816 0.018786 
113.096146 0.054174 
113.604012 0.025103 
114.091263 0.1379 
114.970352 0.118318 
116.005241 0.056363 
116.106857 0.500169 
116.431854 0.029906 
117.069794 0.4129 
118.670715 0.023601 
118.942802 0.210236 
118.971542 0.690341 
119.018982 0.096306 
119.049171 12.961325 
119.054085 0.097786 
119.085556 3.54135 
119.881554 0.031244 
119.91787 0.045629 
119.950859 1.16458 
120.05246 0.985371 
120.088928 0.104355 
120.92527 0.59578 
121.02758 0.029309 
121.101128 2.19467 
121.137329 0.043949 
122.104393 0.078517 
122.363495 0.021131 
122.94088 28.720325 
123.080414 0.512214 
123.116814 0.085582 
123.915611 0.042423 
128.106781 0.05349 
129.110168 0.362459 
130.942993 0.820262 
131.070572 0.064825 
131.085419 2.736024 
131.950974 0.091442 
131.961319 1.685898 
132.088791 0.156833 
132.101822 1.270428 
132.936218 0.206005 
132.958298 1.673391 
132.980698 0.466171 
133.085815 1.546484 
133.101074 3.732462 
134.060242 0.017247 
134.096481 0.160802 
134.104416 0.024383 
134.11734 0.069654 
134.940887 1.401039 
134.958679 4.051755 
134.978653 2.256362 
135.044266 0.103763 
135.080505 0.612022 
135.116699 2.259421 
135.888367 0.022209 
135.928131 0.01714 
135.94873 1.794657 
135.966507 4.494549 
135.976242 0.045218 
136.07579 0.020142 
136.08699 0.472152 
136.120377 0.08186 
136.956558 6.579465 
137.01178 1.252171 
137.030045 0.017977 
137.096085 0.425786 
137.107071 0.047607 
137.927963 3.01536 
137.954346 0.61642 
138.011963 0.019323 
138.054947 0.321427 
138.076843 0.033153 
138.935745 0.178356 
140.951447 3.986503 
144.942734 0.017657 
144.958572 0.195898 
144.987305 0.15732 
145.101013 0.682861 
145.957092 0.045385 
145.987701 0.034808 
146.941071 0.050047 
146.974976 0.066208 
146.983383 0.026229 
147.116791 3.56402 
147.974747 2.789918 
147.980789 0.07635 
148.112152 0.049983 
148.119965 0.252733 
148.971786 14.150125 
149.02327 0.019269 
149.059631 0.058907 
149.096085 1.897555 
149.107574 0.061316 
149.132462 2.438362 
149.971756 2.065971 
149.981995 0.045638 
150.13504 0.024539 
150.951096 0.261411 
150.97258 10.15572 
150.991241 0.610624 
151.111862 0.046254 
152.951401 60.279942 
152.969131 13.515335 
152.988998 1.623392 
153.310226 0.043942 
153.959213 71.826981 
154.946732 0.671429 
154.966965 1.556679 
155.022278 0.467593 
155.964554 0.500355 
156.138153 0.939037 
156.945908 0.032396 
156.962357 0.131997 
161.011612 1.847408 
161.071045 0.019358 
161.188675 0.030442 
162.013565 0.04835 
162.091507 0.022098 
162.903717 0.028923 
162.997787 0.382061 
163.068161 0.044056 
163.111633 0.800983 
163.147903 0.158036 
163.998688 0.968551 
164.930908 0.047114 
164.951431 5.869434 
164.967697 0.095621 
165.016235 0.132057 
165.054031 0.020567 
165.113419 0.148832 
165.985092 0.052186 
166.440231 0.017507 
166.96698 0.935465 
166.982269 3.511876 
167.938431 0.322512 
167.956268 1.024566 
167.974792 1.150204 
167.982452 0.063359 
168.982666 34.112846 
169.917862 0.063629 
169.944153 0.17188 
170.961914 28.641666 
170.979462 1.463928 
172.689087 0.016926 
172.957458 0.199568 
173.132401 7.040352 
174.127808 0.209599 
174.135651 1.123772 
174.148819 4.103984 
175.075439 0.254663 
175.147949 8.460843 
175.637085 0.045574 
176.055359 0.025603 
176.106842 0.345962 
176.143204 0.775141 
176.151489 1.01786 
176.941406 0.350599 
177.937973 0.888579 
178.978256 1.408837 
179.022186 19.449383 
179.938538 1.523118 
179.953949 0.510586 
180.023087 2.583939 
180.961884 0.028642 
181.019318 1.279549 
181.480835 0.029328 
182.009186 0.11862 
182.953171 0.149103 
182.962006 8.123807 
182.998383 0.503582 
183.375107 0.023273 
184.977814 0.113504 
185.949081 23.902691 
185.958466 0.424066 
187.954315 0.244655 
191.070175 0.153289 
191.080444 0.030208 
191.119446 0.048425 
191.129211 1.685523 
191.142715 8.506311 
191.162399 0.072811 
191.180206 0.049821 
191.915039 0.018758 
191.96463 1.442281 
192.065109 0.133526 
192.074692 0.026157 
192.102005 2.932197 
192.112198 0.415436 
192.12355 1.970733 
192.138138 17.434029 
192.147934 1.666106 
192.159195 4.602346 
192.174515 4.070296 
192.184296 0.018954 
192.961472 3.433681 
193.013214 0.043336 
193.038147 0.188372 
193.049988 0.146044 
193.060562 0.680843 
193.084946 0.198048 
193.096878 0.155899 
193.106689 0.0553 
193.132874 0.532784 
193.142258 2.012831 
193.158661 8.019669 
193.169708 0.585478 
193.178192 0.177211 
194.061127 0.218362 
194.080551 0.323684 
194.096436 0.127682 
194.116089 7.431997 
194.128601 4.259722 
194.137558 0.321285 
194.15387 28.356785 
194.190109 0.111664 
194.952011 1.024558 
194.961914 10.946935 
195.064926 0.077389 
195.122131 0.171137 
195.157257 0.308607 
195.879196 0.027878 
195.948593 1.233715 
197.032806 2.799751 
197.949005 3.825444 
198.034744 0.024452 
198.811951 0.051224 
199.030289 0.026466 
199.964767 0.218346 
207.811829 0.034051 
207.905121 0.033529 
207.978241 0.055985 
208.975159 0.145009 
209.975189 1.081619 
210.971985 2.258646 
211.027023 0.030757 
211.928101 0.119769 
212.97258 20.395166 
END IONS

