BEGIN IONS
PEPMASS=405.207
CHARGE=1+
COMPOUNDNAME=MoNA:951664 Lincomycin
LIBRARYQUALITY=3
SMILES=N/A
INCHIKEY=OJMMVQQUTAEWLP-UHFFFAOYSA-N
INCHI=InChI=1S/C18H34N2O6S/c1-5-6-10-7-11(20(3)8-10)17(25)19-12(9(2)21)16-14(23)13(22)15(24)18(26-16)27-4/h9-16,18,21-24H,5-8H2,1-4H3,(H,19,25)
MSLEVEL=2
SOURCE_INSTRUMENT=LC-ESI-QFT-LC-ESI-QFT
FILENAME=output_mgf.mgf
SEQ=*..*
IONMODE=
ORGANISM=MONA
NAME=MoNA:951664 Lincomycin [M-H]-
PI=MoNA
DATACOLLECTOR=MoNA
PUBMED=N/A
SUBMITUSER=mwang87
TAGS=
SPECTRUMID=CCMSLIB00000569155
SCANS=6406
50.0036 46.090645 
51.0239 12.701604 
52.0193 22.10902 
53.0032 31.60426 
55.0189 100.0 
56.9804 25.872566 
57.0346 19.313786 
58.006 3.496375 
59.0138 44.6385 
60.9754 31.027777 
63.9625 5.006265 
64.0193 8.039878 
65.0033 10.651905 
65.0397 13.160024 
65.9985 16.208435 
66.0349 48.05429 
67.019 69.474233 
68.0142 52.062326 
68.9982 91.917176 
69.0346 49.7765 
70.0299 11.165979 
71.0139 50.769421 
71.9675 2.439758 
72.9754 23.832357 
72.9933 11.244795 
73.9832 33.584151 
76.0193 13.283395 
77.0033 3.205721 
80.014 3.242877 
80.0506 11.376047 
80.9804 5.315739 
81.022 27.070087 
81.0346 9.593197 
82.0298 13.531263 
82.9962 10.36495 
84.9754 2.681675 
85.0295 3.580017 
87.0087 4.181592 
90.0349 4.398577 
94.0298 88.940021 
95.0138 3.096022 
97.0295 8.99516 
98.0248 4.904126 
105.022 9.240777 
106.0298 2.431555 
108.0216 15.331968 
109.017 4.204594 
118.03 3.744083 
122.0248 15.377649 
END IONS

