BEGIN IONS
TITLE=Scan Number: 13863
PEPMASS=269.04501
CHARGE=1+
COMPOUNDNAME=Emodin
LIBRARYQUALITY=3
SMILES=CC1=CC(=C2C(=C1)C(=O)C3=CC(=CC(=C3C2=O)O)O)O
INCHIKEY=RHMXXJGYXNZAPX-UHFFFAOYSA-N
INCHI=InChI=1S/C15H10O5/c1-6-2-8-12(10(17)3-6)15(20)13-9(14(8)19)4-7(16)5-11(13)18/h2-5,16-18H,1H3
MSLEVEL=2
SOURCE_INSTRUMENT=LC-ESI-qTof
FILENAME=f.kbkang/Rhamnaceae/Standards/171208_Emodin.mzXML;
SEQ=*..*
NOTES=
IONMODE=Negative
ORGANISM=GNPS-LIBRARY
NAME=Emodin M-H
SPECTRUMID=CCMSLIB00004679278
ACTIVATION=CID
INSTRUMENT=ion trap
SCANS=13863
99.926834 30.0 
101.044418 20.0 
105.032784 159.0 
106.039589 87.0 
107.052147 28.0 
115.052513 34.0 
117.034851 59.0 
122.127037 18.0 
127.053589 34.0 
130.043503 24.0 
132.018936 21.0 
132.940399 30.0 
133.032394 22.0 
134.033585 42.0 
135.004181 30.0 
139.052933 20.0 
139.059204 21.519424 
141.067978 30.597351 
141.073578 37.397552 
141.395401 18.0 
141.908493 18.0 
143.050049 103.0 
145.066177 20.0 
152.06192 31.0 
152.068268 43.0 
153.060669 51.564697 
153.069016 102.094238 
153.574722 25.0 
154.038437 70.050659 
154.053192 61.0 
155.047592 78.0 
156.054108 23.0 
157.068787 209.111816 
157.192139 25.0 
159.040512 48.0 
160.050171 25.0 
164.624084 24.0 
166.046188 22.0 
167.05191 75.306396 
168.046112 32.0 
168.058304 207.0 
169.063232 189.0 
169.30368 19.0 
170.034302 35.0 
171.043945 381.091309 
171.050919 131.969604 
172.043381 56.305847 
172.050888 71.694153 
173.054901 34.0 
174.054733 22.0 
174.064331 21.231705 
175.045303 61.0 
178.04097 21.0 
179.045349 242.0 
180.057678 563.0 
181.063828 973.295898 
181.472977 22.0 
182.036194 1249.157227 
182.06163 72.481445 
182.071594 133.8573 
183.04039 385.0 
184.051422 42.534332 
184.060471 42.0 
185.058746 602.272949 
185.066132 174.149658 
186.061325 165.0 
186.072235 34.0 
195.043137 668.709473 
195.280106 18.0 
196.050339 319.944824 
196.058792 375.611816 
197.059616 1235.731445 
197.127121 45.0 
197.433945 20.0 
198.024673 21.0 
198.0401 29.0 
198.058304 143.802368 
198.06546 99.778503 
199.035843 27.0 
199.048523 25.0 
199.070557 18.0 
200.047836 32.0 
200.420532 23.0 
201.022125 18.0 
201.048447 71.229126 
201.053818 30.0 
207.040314 127.0 
208.046539 45.0 
210.031311 773.0 
211.026154 23.0 
211.038086 131.0 
212.048569 78.0 
213.035248 35.0 
213.053009 374.441162 
214.057343 74.492859 
214.064545 58.451843 
214.327606 60.0 
216.210922 39.0 
223.043671 56.0 
224.043564 501.503906 
224.052155 433.510742 
225.023483 21.0 
225.055099 3817.3125 
225.100082 27.0 
225.318283 20.0 
226.026428 35.0 
226.04863 148.063843 
226.058517 672.681641 
227.03479 464.711426 
227.064728 52.0 
227.236877 20.0 
227.576813 19.0 
228.038177 113.05542 
228.058487 39.0 
236.772369 40.0 
240.043945 1013.0 
241.025833 47.0 
241.04895 1728.921875 
241.897263 23.0 
242.051834 312.625 
242.063141 37.374969 
243.051285 45.815643 
243.060455 21.0 
244.31282 24.0 
250.735962 23.0 
251.036057 27.0 
252.035385 44.0 
268.043182 42.0 
269.019745 56.021118 
269.044281 2790.816406 
270.048981 418.109375 
271.051453 116.304382 
380.380951 23.0 
394.859039 18.0 
1194.806274 21.0 
END IONS

