BEGIN IONS
PEPMASS=1117.54
CHARGE=1+
COMPOUNDNAME=N-[(3S,6S,9S,11R,15S,18S,20R,21R,24S,25S,26S)-3-[(1R)-2-carbamoyl-1-hydroxyethyl]-6-[(1S,2S)-1,2-dihydroxy-2-(4-hydroxyphenyl)ethyl]-11,20,21,25-tetrahydroxy-15-[(1R)-1-hydroxyethyl]-26-methyl-2,5,8,14,17,23-hexaoxo-1,4,7,13,16,22-hexaazatricyclo[22.3.0.0?,��]heptacosan-18-yl]-10,12-dimethyltetradecanamide
LIBRARYQUALITY=3
SMILES=N/A
INCHIKEY=DFQUSLQYURJBIT-MFKXNLKNSA-N
INCHI=InChI=1S/C51H82N8O17/c1-6-25(2)19-26(3)13-11-9-7-8-10-12-14-37(66)53-32-21-35(64)47(72)57-49(74)41-42(67)27(4)23-59(41)51(76)39(34(63)22-36(52)65)55-48(73)40(44(69)43(68)29-15-17-30(61)18-16-29)56-46(71)33-20-31(62)24-58(33)50(75)38(28(5)60)54-45(32)70/h15-18,25-28,31-35,38-44,47,60-64,67-69,72H,6-14,19-24H2,1-5H3,(H2,52,65)(H,53,66)(H,54,70)(H,55,73)(H,56,71)(H,57,74)/t25?,26?,27-,28+,31+,32-,33-,34+,35+,38-,39-,40-,41-,42-,43-,44-,47+/m0/s1
MSLEVEL=2
SOURCE_INSTRUMENT=N/A-ESI-QFT
FILENAME=library_mgf.mgf
SEQ=*..*
IONMODE=positive
ORGANISM=MONA
NAME=N-[(3S,6S,9S,11R,15S,18S,20R,21R,24S,25S,26S)-3-[(1R)-2-carbamoyl-1-hydroxyethyl]-6-[(1S,2S)-1,2-dihydroxy-2-(4-hydroxyphenyl)ethyl]-11,20,21,25-tetrahydroxy-15-[(1R)-1-hydroxyethyl]-26-methyl-2,5,8,14,17,23-hexaoxo-1,4,7,13,16,22-hexaazatricyclo[22.3.0.0?,��]heptacosan-18-yl]-10,12-dimethyltetradecanamide [M+K]+
PI=MoNA
DATACOLLECTOR=MoNA:VF-NPL-QEHF024868
PUBMED=N/A
SUBMITUSER=mwang87
TAGS=
SPECTRUMID=CCMSLIB00004715931
SCANS=24868
79.054321 0.278247 
80.049576 0.057084 
80.089294 0.032321 
81.069954 1.284179 
82.065224 0.502701 
82.073364 0.036905 
83.049225 0.038731 
83.085609 0.479258 
83.928261 0.030845 
84.044518 3.737933 
84.080841 0.094888 
84.854012 0.14684 
85.028503 0.11397 
85.101265 0.263942 
85.990387 0.031822 
86.060158 39.755474 
86.096489 0.287669 
87.044189 0.571865 
87.063515 1.186285 
88.800262 0.094544 
89.059799 1.427351 
91.057503 31.11915 
91.099777 0.046662 
92.05706 1.172117 
92.060738 0.598125 
92.712273 0.075979 
93.036781 0.450771 
93.054352 0.411662 
93.069939 0.391614 
93.415527 0.125926 
94.722939 0.064685 
94.765198 0.076553 
95.049263 0.144553 
95.085579 1.792156 
95.784164 0.138864 
96.044434 0.054725 
97.064804 0.046762 
97.101318 0.440367 
98.272118 0.031278 
98.389587 0.139454 
98.681564 0.031418 
98.703514 0.038113 
99.009727 0.032253 
99.055206 0.044826 
99.080475 0.099458 
100.039391 1.656026 
100.075806 14.803977 
100.574173 0.027272 
100.934166 0.031834 
101.071068 0.085811 
101.079193 0.391306 
102.055077 0.29779 
103.529671 0.04071 
104.107109 2.299296 
104.158356 0.047939 
104.7117 0.034535 
104.901665 0.035112 
105.069862 0.21474 
105.073395 0.047289 
105.166504 0.14355 
105.986069 0.089319 
106.018852 0.128474 
106.065208 0.145119 
107.049316 0.425972 
107.085609 0.403237 
107.555946 0.036795 
107.659111 0.128226 
109.039757 0.292861 
109.064415 0.038469 
109.068542 0.036262 
109.10128 1.660673 
110.024178 0.16412 
110.059654 0.030648 
112.039528 0.11336 
112.087074 0.089175 
112.800644 0.043111 
113.071022 0.131758 
113.486992 0.02852 
114.055176 0.041141 
114.102798 0.030849 
116.052849 0.063742 
116.070656 0.091266 
117.06588 0.365865 
117.134392 0.030076 
117.424004 0.08209 
118.093452 0.03871 
119.049187 0.05421 
119.085815 0.166862 
121.028717 0.037087 
121.101326 0.196464 
122.060188 0.052578 
123.116898 0.295138 
124.076057 0.038164 
125.07103 0.250105 
125.096031 0.224372 
125.132729 0.034593 
127.049721 0.035042 
127.086739 0.09108 
127.1119 0.444947 
129.065506 0.03829 
129.082184 0.131392 
130.049866 0.215519 
130.888062 0.076269 
131.081528 3.025997 
133.086121 0.408327 
133.101288 0.252252 
135.116959 0.225766 
135.704453 0.031048 
136.03952 0.169549 
136.075958 0.133476 
136.087051 0.033574 
136.293869 0.028447 
137.07106 0.036691 
138.696533 0.045775 
139.086731 0.093778 
139.111725 0.048113 
139.171478 0.12731 
140.070801 0.06362 
141.065903 2.995431 
142.086472 0.140938 
143.081421 0.397877 
143.959915 0.034171 
144.641525 0.086898 
145.060699 0.047306 
145.09729 24.39967 
146.044601 0.07461 
146.060135 0.033681 
146.100647 1.21633 
146.131516 0.145754 
147.044144 2.204158 
147.117142 0.07666 
148.075623 0.065575 
149.045044 6.861738 
149.071396 0.161543 
149.096573 0.048141 
149.132828 0.085152 
150.04422 0.04327 
151.050201 0.29044 
151.086761 1.073976 
151.112 0.446264 
152.070312 0.033055 
153.065872 0.333869 
155.04541 0.064897 
155.081665 0.374885 
155.885208 0.033453 
157.097244 0.501493 
162.055191 0.129082 
162.788162 0.031103 
163.071579 0.709983 
163.111725 0.039531 
164.070557 0.343311 
165.066025 3.209846 
166.069916 0.036304 
166.086212 0.036465 
167.055603 28.507236 
167.081512 4.162032 
168.055573 1.420409 
168.06604 0.035317 
168.085358 0.100337 
168.232285 0.140403 
169.052277 0.637129 
169.060684 0.670931 
169.07666 0.040756 
169.097244 1.775801 
169.122604 0.130816 
171.076508 0.700917 
171.26445 0.091097 
171.294739 0.087467 
172.115402 0.189138 
172.313843 0.084842 
173.022125 0.082298 
173.117432 0.031502 
174.05513 0.709592 
175.039276 0.224492 
177.06601 0.608722 
177.424789 0.035993 
179.08168 2.427513 
181.043533 0.079658 
181.07106 0.064818 
181.09697 0.071978 
183.076645 0.566702 
183.1129 0.459933 
184.073364 1.418533 
184.082214 0.037088 
185.09201 2.105483 
186.096436 0.10739 
187.107727 1.278887 
188.07074 0.392024 
189.112305 0.029845 
190.691574 0.126661 
191.081879 0.282106 
192.065521 0.597856 
193.060837 0.38133 
193.070068 0.030767 
193.096283 0.036293 
195.076569 2.396146 
195.445724 0.12665 
197.092072 2.423318 
199.017395 0.035953 
200.797562 0.04311 
202.119095 0.196108 
203.012924 0.04169 
203.081696 0.090912 
204.006989 0.122666 
206.092987 0.02927 
207.03241 0.078087 
208.108551 0.298755 
209.09227 1.739873 
211.071335 0.228013 
211.108078 0.283673 
213.087128 1.262163 
213.503433 0.047752 
214.070892 0.043168 
214.119461 0.03617 
215.102997 1.307344 
216.065063 0.046388 
216.07695 0.04194 
217.027161 0.120545 
219.076675 0.780649 
220.096786 0.186856 
221.08374 2.051 
221.6409 0.050422 
222.085464 0.101056 
223.016129 0.034382 
223.06369 0.11362 
224.101227 1.323533 
224.139771 0.187688 
224.534485 0.029447 
225.04306 8.621071 
225.055023 0.110797 
225.086975 1.115685 
226.043304 0.741714 
226.118362 0.092466 
227.022293 0.718232 
227.039932 0.098808 
227.103119 0.862656 
227.12915 0.050343 
228.097214 0.042607 
232.39415 0.157731 
236.103195 2.242815 
237.087845 3.544802 
237.513855 0.045839 
238.091125 0.037606 
238.118835 0.129984 
238.884033 0.043559 
239.095032 14.959108 
240.044098 0.037987 
240.095856 2.167549 
240.23262 0.265609 
241.02536 0.072427 
241.092392 0.397275 
241.303604 0.036696 
242.021484 0.072247 
243.017715 0.707887 
245.055756 0.051294 
245.090118 0.063115 
246.122818 0.193613 
247.205917 0.136762 
248.090775 0.050778 
250.119202 0.040889 
251.102798 0.101926 
252.989227 0.067281 
253.028107 0.04855 
253.12999 0.672777 
254.021408 0.047153 
254.113937 1.875794 
255.028656 0.145886 
255.076523 0.051848 
255.082428 0.048241 
255.097946 7.712447 
256.037964 1.930218 
256.101288 0.463771 
256.264069 0.104745 
257.091705 0.081577 
259.108124 6.861117 
259.169952 0.049112 
260.03299 0.311934 
260.102478 4.287219 
261.107422 0.199691 
261.123596 0.448449 
262.119019 0.740853 
264.099518 0.050365 
264.13501 0.048634 
264.910156 0.03714 
264.990326 0.045828 
265.026764 0.198496 
265.610504 0.066592 
266.022308 0.161359 
266.114349 0.076827 
267.027649 0.040957 
268.038879 0.043171 
268.094299 0.048134 
268.979858 0.047428 
270.108551 0.238358 
270.279602 1.123131 
271.000763 0.371278 
271.014343 0.041555 
271.049683 0.086057 
271.140381 1.057657 
272.033295 0.047733 
272.103668 0.166745 
272.124573 0.773096 
272.141357 0.034445 
273.087494 1.955583 
274.048828 0.493323 
274.072723 0.043216 
276.047974 0.066797 
276.911194 0.037294 
277.11853 2.849907 
277.215851 0.119069 
278.113129 2.031874 
278.925262 0.088485 
279.118652 0.040495 
279.134369 1.354892 
280.092194 0.036197 
280.129639 0.584712 
280.942169 0.036753 
281.05188 0.295989 
282.017273 0.479007 
282.108887 0.859881 
282.279541 1.522448 
283.001953 0.159528 
283.031097 0.407774 
283.049133 0.118716 
283.071655 0.642713 
283.263519 0.130078 
283.282837 0.094254 
284.033112 1.335506 
284.05368 0.045834 
285.009949 2.942985 
285.065002 0.269514 
285.08844 0.036895 
286.011414 0.779852 
286.049774 0.044391 
287.007935 0.506181 
287.102875 1.984315 
288.105988 0.041498 
289.118683 0.419047 
289.15097 0.299744 
290.113831 0.382368 
292.061523 0.085209 
292.092407 0.03613 
292.129913 0.592438 
292.263702 0.112436 
292.5961 0.093931 
293.211029 0.035911 
294.956146 0.096546 
295.103455 0.036824 
296.033569 0.138286 
296.294403 0.079088 
297.089355 0.067376 
297.120026 0.450694 
298.012207 0.394637 
298.085266 0.054295 
298.102051 0.053143 
299.045288 0.368876 
299.061859 7.995365 
299.136292 0.04726 
300.028687 0.538951 
300.062897 1.293656 
300.098328 1.155839 
301.059814 0.583392 
301.082153 0.997245 
301.100403 0.486685 
301.601105 0.123824 
303.020844 0.303036 
303.098083 0.053392 
304.129059 1.500821 
304.181274 0.490296 
305.113312 7.495894 
305.130219 0.289903 
306.11499 0.737603 
308.035645 0.273113 
308.055725 3.406647 
308.075287 0.080155 
308.124298 1.451994 
308.2948 0.041804 
308.975098 0.048078 
309.061066 0.052054 
309.088379 0.048523 
309.121246 0.085265 
310.049835 0.306642 
310.070984 0.164018 
310.104645 0.274894 
311.044708 2.149138 
311.094238 0.048062 
311.132751 0.95539 
312.028107 0.058294 
312.047913 0.044887 
312.104584 0.04032 
313.043213 4.280401 
313.060516 0.839421 
313.114807 0.039102 
313.159424 0.147707 
313.27356 0.123901 
314.044281 0.275449 
315.040771 0.395868 
315.059998 0.19449 
317.056671 1.255675 
318.108459 0.855082 
318.957214 0.107692 
319.059143 0.110491 
319.092804 0.46149 
320.033234 0.340947 
322.014374 0.048002 
322.049072 0.308224 
322.071503 0.043557 
322.139648 3.066114 
322.951477 0.411766 
323.044952 0.248658 
323.124146 0.041962 
323.144775 0.044785 
324.028442 1.031845 
324.047974 0.156639 
324.98703 0.036658 
325.036407 0.409334 
325.059296 0.1437 
326.044098 2.686541 
326.065704 16.466999 
326.96521 0.04243 
327.028229 0.0496 
327.070404 0.654755 
327.107178 3.277015 
327.129486 2.051561 
328.132202 0.110305 
329.055206 1.735757 
329.073181 0.06156 
329.71286 0.037812 
330.074768 0.128088 
331.07016 7.731085 
331.135468 0.038274 
332.072906 0.423778 
333.151733 0.227421 
333.234894 0.082139 
334.05072 0.041602 
335.167114 0.338139 
336.027771 1.496217 
336.047546 0.04639 
336.119415 1.020199 
336.967834 1.619791 
337.0448 0.051914 
337.12262 0.073409 
337.274353 0.106401 
337.969086 0.101122 
338.044128 3.074747 
338.064819 0.375079 
338.847382 0.164701 
339.040436 1.432101 
339.076233 0.2136 
340.02301 0.214899 
340.071136 0.496277 
340.093048 0.472374 
341.019043 0.05313 
341.038055 2.795595 
341.056854 0.823361 
341.092285 0.189548 
342.038452 2.08514 
342.279541 0.948702 
342.997192 0.860362 
343.044281 0.18169 
343.071198 0.885472 
344.076447 1.849628 
344.124115 0.131704 
344.159393 0.039928 
344.976562 6.238842 
345.976471 1.326895 
346.974518 0.376524 
347.066681 0.336711 
348.028259 0.251703 
349.099701 0.050214 
350.044037 0.894083 
350.270447 0.035681 
351.040283 0.247289 
352.022217 0.04001 
352.044403 0.096408 
353.054749 0.892561 
353.951843 0.036546 
354.038391 5.095463 
354.061981 0.040719 
355.022034 1.878373 
355.070221 1.188496 
356.066376 5.793072 
356.088837 0.064354 
357.049011 4.825953 
357.109009 0.140069 
357.610413 0.059336 
358.053192 0.09384 
358.140167 0.166444 
359.028351 3.845169 
360.027863 1.680607 
360.289612 0.379303 
360.839294 0.651541 
361.028015 0.236841 
361.056946 0.075777 
361.288269 0.048648 
362.044617 0.129344 
362.135559 0.097462 
364.022491 1.408566 
364.962067 0.091798 
365.053589 0.799659 
365.076233 4.61813 
365.771484 0.048176 
366.038177 3.135188 
366.085419 2.388847 
367.034454 0.081605 
367.069763 0.051678 
367.092133 0.060586 
368.08902 0.185553 
369.049744 0.491387 
369.086548 0.110552 
369.155548 0.045936 
370.140015 0.048845 
371.066528 0.239194 
372.06601 0.051956 
374.080841 2.404663 
375.036987 0.045582 
376.022675 0.326812 
376.080322 1.137152 
377.054291 1.574207 
378.039062 0.377502 
379.070953 0.102963 
379.093933 0.703188 
379.120728 0.257927 
379.62384 0.103371 
380.017731 0.227536 
380.05661 0.118621 
380.085754 0.112929 
381.049377 1.464357 
381.085602 0.456065 
381.136841 0.125069 
382.034241 0.744102 
382.081024 14.682511 
382.449432 0.098702 
383.028656 0.399376 
383.085663 2.014436 
384.084167 0.110143 
386.079346 0.377677 
386.134583 0.927136 
387.166809 0.202846 
387.300293 0.043023 
388.125854 0.048664 
389.054443 0.302924 
390.076996 0.967641 
391.031769 0.046302 
391.071594 0.053012 
391.226715 0.042146 
392.017334 0.687073 
392.072235 0.343171 
392.095703 0.04504 
392.124695 0.290878 
393.023071 0.078021 
393.049377 5.963423 
393.078064 0.31498 
394.032257 1.627024 
394.074951 0.061778 
394.169891 1.336441 
395.071411 0.57562 
395.1008 0.041598 
396.060364 0.337747 
396.095184 0.433351 
397.091675 6.178994 
397.116699 0.96287 
398.073639 0.115721 
398.09549 0.048754 
398.116486 0.073603 
398.220276 0.567741 
399.164154 0.045249 
399.301208 0.325205 
400.059784 0.722127 
400.090881 0.468329 
400.149628 0.150049 
400.985748 0.69039 
401.092133 0.045651 
402.963715 0.082193 
403.055664 0.044089 
403.161865 0.2459 
403.295593 1.533934 
404.053314 0.550938 
404.145386 0.096109 
404.299072 0.19221 
405.047607 3.831191 
405.073242 14.565493 
405.175323 0.110091 
405.31134 0.228968 
406.050385 0.281657 
406.076996 2.466288 
406.117859 0.85732 
407.063293 0.341456 
407.088928 0.708431 
408.061768 0.500389 
408.095459 2.375624 
408.185394 0.051405 
409.047852 0.106897 
409.080292 2.806576 
409.211456 0.041391 
409.23764 0.155827 
410.029358 0.332592 
410.071014 0.181548 
410.111145 0.626029 
410.139801 0.735293 
411.061157 1.142774 
411.091431 1.339988 
411.922089 0.058184 
412.061829 0.288595 
412.090912 2.516732 
413.087097 29.419914 
413.145416 1.656214 
414.089447 3.280167 
414.125183 0.168089 
415.088043 1.724398 
415.161469 0.191706 
416.054932 0.054982 
416.142365 0.087605 
417.049011 0.081024 
418.032593 0.686042 
418.070312 1.425966 
418.100525 0.054768 
418.996124 6.976579 
419.028442 1.928154 
419.853394 0.77225 
419.996643 1.878984 
420.047241 4.324026 
420.095001 0.110908 
420.120056 0.164368 
420.854736 0.042567 
420.993561 1.04487 
421.044403 16.271076 
421.214661 0.128881 
422.047211 1.996823 
422.075684 0.073932 
422.112396 5.413288 
422.415741 0.152426 
423.082825 25.430592 
423.227783 0.039891 
424.087708 5.571034 
424.117371 0.164351 
425.085999 2.575839 
426.109344 7.428807 
427.111542 0.393864 
428.109863 1.458275 
428.143616 0.051284 
429.084656 0.205023 
430.070251 2.915398 
430.299866 0.081721 
431.10376 0.550765 
431.156708 6.985944 
432.089081 0.329855 
432.15979 1.008642 
433.04422 2.219266 
433.170044 0.316895 
433.308228 0.044037 
433.904602 0.124707 
434.067383 1.355932 
434.135193 3.799547 
435.059601 0.715993 
435.137207 0.15564 
435.229584 0.039446 
436.088318 0.323071 
437.071991 0.047046 
437.864166 0.070882 
438.071533 1.350334 
438.105774 0.808599 
439.062836 0.328071 
439.225128 0.407342 
439.915009 0.043509 
440.089966 0.103696 
440.124329 0.047724 
441.096161 0.070281 
443.32666 0.04549 
444.117462 1.804171 
444.183746 0.062972 
444.32547 0.046441 
444.359528 0.038792 
445.085938 0.037877 
445.171783 0.348958 
446.074158 0.0895 
446.134796 0.093463 
446.338806 0.045012 
447.101257 0.896521 
447.34668 0.186497 
448.088684 3.703204 
448.150726 0.038096 
449.040344 0.2778 
449.089691 0.108179 
449.122314 0.146257 
449.168457 2.334059 
450.073639 0.520674 
450.106445 2.011024 
450.170166 0.090183 
451.054077 0.91632 
451.106415 0.29903 
451.180359 0.060994 
452.053864 0.050893 
452.085938 0.062804 
453.310608 0.232945 
454.069855 0.115029 
454.102448 0.785461 
455.183533 0.097005 
456.085419 2.248799 
457.085876 0.112609 
457.164337 0.110231 
457.204071 0.226277 
458.973022 0.038321 
460.952301 3.291141 
461.110138 2.889505 
461.901001 0.415447 
461.952637 0.967935 
462.065491 0.063317 
462.094696 1.464876 
462.371399 0.066548 
462.901123 0.038593 
462.949615 0.355264 
463.096619 1.215639 
463.142517 3.314218 
463.226532 0.117889 
463.314606 0.126016 
464.085724 6.684486 
464.14505 0.492973 
465.118011 6.338706 
466.101654 16.301062 
466.364441 0.042675 
467.103485 1.622344 
467.135223 5.764053 
467.173065 0.060805 
467.947815 0.354622 
468.083649 0.390132 
468.115417 0.064639 
468.139801 0.306014 
470.062744 0.128553 
471.15863 0.045333 
472.081421 0.749996 
473.08313 0.045903 
474.071869 0.070857 
474.103882 0.091673 
475.06369 0.043867 
475.125732 1.481021 
475.437439 0.05878 
475.849701 0.052339 
476.08551 0.543573 
476.124268 0.221959 
476.232422 0.046814 
476.733765 0.045831 
477.080383 1.313639 
478.064758 0.075181 
478.101807 0.608595 
478.235931 0.071995 
478.963501 3.034083 
479.12088 100.0 
479.962708 0.835154 
480.123566 17.255938 
480.249847 0.0634 
480.321625 0.29965 
480.960724 0.344541 
481.113129 4.215052 
481.132904 3.421195 
481.201263 0.068672 
482.063019 0.037547 
482.133942 1.877753 
483.129517 36.059479 
483.270752 0.059488 
484.082184 0.692082 
484.131805 6.487265 
485.131348 3.76933 
485.235962 0.055103 
485.739258 0.055394 
486.107208 0.15152 
488.147186 1.348874 
489.080322 0.106457 
489.156769 0.196241 
490.066376 0.124936 
490.364136 0.185512 
491.090149 0.246856 
491.121124 1.034942 
492.078522 1.833598 
492.117981 0.240497 
492.251953 0.040093 
493.075684 2.315216 
493.107147 0.37357 
493.137573 3.702527 
494.096161 4.427957 
494.134888 0.427964 
495.092957 12.358447 
495.218872 0.047921 
495.26535 0.249764 
495.942505 0.140538 
496.09552 1.607588 
496.271179 0.041903 
497.174622 0.454075 
498.332703 0.837975 
499.125244 0.204603 
500.078705 0.05106 
500.347687 0.304273 
501.104919 0.052042 
502.101868 0.730737 
502.236023 1.532686 
503.118958 0.518065 
504.118286 5.131411 
504.24646 0.101452 
505.119659 0.21988 
506.102509 0.117101 
506.230652 2.788289 
506.26709 0.281096 
506.749969 0.050767 
507.091217 1.644559 
507.250763 0.127043 
507.754333 0.038712 
508.112854 1.588947 
509.105133 6.330418 
509.370422 0.11034 
509.793274 0.085932 
510.110931 0.790281 
511.114014 0.073224 
512.817383 0.053211 
513.141602 2.75265 
514.125244 3.486971 
515.123413 0.141913 
515.16156 0.688599 
516.116577 0.11486 
516.254089 0.49164 
516.756531 0.042115 
518.361267 0.051612 
520.113037 1.048753 
520.247131 1.68588 
521.108337 1.738401 
521.252014 0.140255 
529.111023 0.161699 
530.09552 0.213752 
530.224976 0.061877 
530.267761 0.345173 
531.152283 63.954887 
532.157166 12.008117 
533.171326 1.330191 
534.184204 0.109737 
534.262024 0.263644 
534.970459 4.893671 
535.130249 0.057095 
535.258667 0.088463 
535.970398 1.913999 
536.969177 0.82351 
537.138489 0.063471 
539.140137 1.693065 
541.110413 0.164353 
542.142578 0.065943 
543.129517 0.383613 
544.109436 0.468494 
545.105469 2.171491 
546.089966 1.516396 
546.132935 0.052971 
546.218567 1.401863 
546.261292 0.065323 
547.121704 6.535072 
548.106079 7.934144 
548.279602 0.246421 
549.164368 23.560497 
549.273376 0.278811 
550.166382 4.99331 
551.171387 0.296066 
552.981445 0.784335 
553.979736 0.210071 
554.163879 0.063359 
557.106567 0.047153 
557.23468 0.103834 
557.279297 0.112367 
558.263062 0.654772 
559.122803 5.110116 
559.261658 0.309769 
560.111694 1.171989 
560.155334 0.265485 
560.234009 0.707905 
561.128418 0.888847 
561.163086 1.764208 
561.273499 0.061746 
562.122253 1.975969 
562.191162 3.107552 
563.11792 13.852357 
563.199646 0.629253 
564.137146 4.189611 
565.134277 26.103584 
566.136902 6.373168 
567.137512 1.183774 
573.273315 2.27016 
574.257629 1.723663 
575.117371 2.148879 
575.287109 0.822014 
576.149475 0.846054 
576.273438 2.464767 
577.133911 10.065897 
577.218018 0.066839 
577.268616 5.05024 
578.130249 1.51376 
578.254395 0.847213 
579.133728 0.621855 
579.177551 0.675688 
584.145813 0.236679 
585.274841 0.940154 
586.273438 0.045917 
587.287903 1.244606 
588.283325 0.149199 
589.266235 4.064293 
590.17981 0.168309 
591.283081 3.116665 
592.269043 3.061326 
592.962036 0.05162 
593.128357 0.724789 
593.276428 0.322652 
594.141907 0.052677 
594.281616 0.315007 
594.937073 4.965452 
595.135132 2.052617 
595.27771 1.680713 
595.937317 1.998503 
596.263855 1.681631 
596.93634 1.184193 
597.130249 0.061721 
597.934204 0.060785 
599.156128 0.058085 
600.285339 0.048964 
601.17041 0.344275 
601.267883 0.103272 
603.236084 0.553216 
603.284424 1.703881 
604.286194 0.468903 
605.29718 0.510948 
606.299438 0.062115 
607.233154 0.682317 
607.288635 0.149297 
609.294312 0.802263 
610.28418 0.430331 
612.947449 1.017407 
613.268555 0.89478 
613.94751 0.435972 
614.278076 0.063485 
614.945312 0.115227 
615.284607 0.593157 
616.281555 0.411909 
617.256897 2.278075 
618.265503 0.264464 
619.21283 1.665086 
619.279846 0.470816 
620.288269 0.054644 
621.294861 0.600794 
621.382202 0.348532 
622.296936 0.041528 
623.208191 0.963119 
628.278625 0.186286 
629.267761 0.053224 
630.296936 0.145503 
631.278748 1.789713 
632.140686 0.120372 
632.283203 0.205227 
633.250916 2.403269 
633.304382 0.133283 
633.38147 0.192889 
634.293762 0.605027 
635.343567 0.794284 
637.359192 3.11177 
638.362122 0.321117 
640.852051 0.492335 
641.850037 0.167305 
642.293274 0.292509 
643.184204 0.050072 
644.109192 0.067214 
644.302612 0.305119 
646.290344 1.326341 
647.269043 2.536747 
647.398804 0.062285 
648.267151 0.285647 
648.308655 0.188386 
649.223267 8.703738 
649.288818 0.632351 
649.359253 0.448325 
650.22644 2.138942 
650.294434 0.043257 
654.309082 0.238844 
654.903992 2.913584 
655.904175 1.318887 
656.899109 0.784334 
659.160095 1.662596 
660.303345 0.533342 
661.377747 0.280593 
662.311584 0.049653 
663.239746 1.078865 
664.336487 0.072007 
666.20929 0.109477 
668.955444 1.972432 
669.955627 1.053341 
670.289124 1.232475 
670.952759 0.375 
671.291321 0.165992 
672.301331 1.250538 
672.914185 0.268515 
673.306946 0.081344 
673.914124 0.180585 
674.284363 3.06901 
677.352966 3.982812 
678.308167 0.04175 
678.356689 0.976854 
679.368713 3.175381 
680.370789 1.108283 
685.336487 0.221249 
685.434692 0.460067 
686.322876 1.009866 
687.321777 0.435571 
688.299744 2.550504 
689.307617 0.644911 
690.272888 0.396981 
694.263977 0.062999 
695.17627 0.062353 
701.336182 0.061789 
702.328125 0.052028 
702.405273 0.467034 
703.348206 2.877813 
703.406311 0.15762 
704.287354 0.160136 
704.354248 1.3582 
705.333252 1.377863 
706.244019 3.186181 
706.321472 0.204154 
707.249207 0.750758 
707.312134 1.461851 
708.568726 0.124059 
708.713684 0.207796 
710.240479 1.529443 
712.890503 0.117887 
713.33136 0.061021 
713.89032 0.048506 
714.872864 1.212352 
715.254883 0.084908 
715.872009 0.44606 
716.292969 0.104662 
716.868042 0.183918 
718.382141 2.002948 
719.381836 0.105272 
721.326904 0.223591 
723.337463 1.090577 
724.340759 0.107411 
725.321472 1.456541 
728.923401 3.365138 
729.269409 0.374922 
729.92334 2.244819 
730.921814 1.304932 
731.22937 2.330319 
731.338928 0.085285 
731.920105 0.180024 
732.230713 0.17796 
734.292664 0.139122 
734.374023 0.602016 
735.375 0.185633 
739.346619 0.139287 
744.33783 0.721225 
746.396667 0.26605 
746.93042 0.055363 
748.330017 0.490418 
749.319641 0.049699 
750.269531 2.970358 
751.277039 0.47151 
753.362732 0.281548 
754.358276 0.204485 
755.357605 0.060452 
756.393188 0.37781 
757.361267 0.215723 
759.280518 1.338541 
760.351624 0.307847 
761.355164 0.127422 
762.366699 5.316674 
763.37085 1.366929 
765.322571 0.061086 
767.342468 0.071065 
767.415894 0.057541 
771.37207 0.14295 
772.370361 1.39244 
773.294312 1.673847 
773.368591 0.207244 
774.299805 0.418645 
774.412781 0.43043 
775.254578 8.318958 
776.259399 2.474907 
780.359985 0.054492 
781.360596 0.402312 
782.354431 0.190394 
785.375305 0.143436 
788.888245 0.247565 
789.890442 0.059169 
793.414246 0.906472 
794.420593 0.279981 
796.367859 0.80336 
797.355042 2.769228 
798.365723 2.064261 
799.362671 2.919081 
800.362549 3.764651 
800.44165 0.178673 
801.347534 6.079249 
802.291809 0.049033 
803.253601 0.236229 
803.400269 0.166286 
811.396179 0.242787 
813.352539 0.048144 
814.37854 3.139716 
815.367126 4.850171 
816.382202 3.131224 
817.384338 0.571187 
818.26123 2.523182 
818.377014 2.178678 
818.459229 0.655835 
819.263611 0.452845 
821.405945 0.271468 
826.397583 1.844559 
827.403503 0.449549 
828.301636 0.047538 
829.399902 2.728258 
830.398682 0.340602 
832.384766 2.301479 
832.473572 0.129617 
833.389099 0.359205 
834.443237 4.481229 
835.441162 1.673212 
836.443848 0.230146 
838.457886 0.156056 
842.439392 0.17459 
844.285828 0.117783 
846.311951 1.574162 
850.387512 0.118001 
852.41333 0.174175 
854.448242 0.08131 
858.428894 0.994294 
860.327026 0.766286 
860.460327 0.3623 
861.32489 0.12288 
861.474121 0.095832 
862.287598 12.438099 
862.491882 1.578182 
863.28949 3.552617 
863.494141 0.12466 
864.288879 0.402609 
868.448975 0.583069 
868.703613 0.112456 
869.455322 0.349285 
870.427124 11.893268 
871.428772 4.576483 
872.423218 0.481711 
876.459167 0.68521 
877.504822 0.257952 
878.466919 12.064724 
879.467773 4.599126 
880.464783 0.273381 
881.448364 0.047632 
882.447388 1.405611 
883.45343 0.306856 
886.42395 2.048685 
896.406677 0.906281 
898.440002 2.01285 
899.443359 0.584823 
901.431335 0.910671 
903.459595 0.182557 
906.460388 0.824871 
912.454895 1.97277 
913.464417 1.410826 
914.416687 26.059298 
915.421143 11.504214 
916.417786 2.079092 
921.473328 3.935366 
922.476196 1.467012 
927.460693 0.245929 
929.475342 0.272318 
934.512451 0.044816 
938.803223 0.173639 
944.469971 0.200682 
945.456299 5.878274 
946.460693 2.756694 
947.478149 1.021984 
948.488525 0.420998 
949.514832 0.665989 
953.50769 0.089901 
954.515991 1.469352 
955.436401 0.348149 
955.520996 0.224682 
963.487 0.56556 
964.524475 0.116277 
965.496765 13.569245 
966.500671 6.134131 
967.506104 1.677858 
968.48175 1.052651 
970.502258 1.661021 
981.531677 0.054685 
984.523071 3.114993 
985.524231 2.858085 
986.485596 19.992634 
987.488892 9.058721 
988.489441 2.126419 
994.4953 1.011267 
995.498047 0.432287 
996.521667 0.303663 
997.538147 0.961049 
998.542725 3.498116 
999.542114 1.144138 
1000.529724 0.054406 
1010.508118 0.189042 
1011.532898 0.07367 
1012.504211 4.230939 
1013.502625 2.253558 
1014.534241 3.523252 
1015.53656 1.197036 
1028.554932 5.828281 
1029.554565 6.766357 
1030.511597 56.259171 
1031.516357 27.627686 
1032.517334 7.783677 
1041.544434 0.689265 
1042.544678 0.084281 
1043.542969 0.186521 
1054.560669 0.064637 
1055.511353 0.674407 
1056.52063 0.756385 
1057.53894 1.240831 
1058.508423 5.565565 
1059.512085 2.650355 
1060.518921 0.383804 
1071.553711 1.915137 
1072.553101 1.933254 
1073.518311 20.465361 
1074.520874 11.130232 
1075.520874 2.791126 
1081.521973 0.89679 
1082.522583 0.228799 
1083.549927 0.383324 
1084.567627 0.343395 
1085.572266 3.973724 
1086.573364 1.538762 
1097.562378 0.087797 
1098.560181 0.044829 
1099.531616 4.082675 
1100.537842 2.292913 
1101.57019 8.153802 
1102.570923 4.095919 
1103.57251 0.395555 
1115.572388 5.512319 
1115.750122 2.553687 
1116.56958 7.879652 
1116.757935 1.68762 
1117.542114 85.81311 
1117.735718 3.91205 
1118.545044 46.634132 
1118.734253 1.926963 
1119.548218 13.562882 
1119.743164 0.043971 
END IONS

