BEGIN IONS
PEPMASS=241.135
CHARGE=1+
COMPOUNDNAME=Huperzine A
LIBRARYQUALITY=3
SMILES=N/A
INCHIKEY=ZRJBHWIHUMBLCN-UHFFFAOYSA-N
INCHI=InChI=1S/C15H18N2O/c1-3-11-10-6-9(2)8-15(11,16)12-4-5-14(18)17-13(12)7-10/h3-6,10H,7-8,16H2,1-2H3,(H,17,18)
MSLEVEL=2
SOURCE_INSTRUMENT=N/A-ESI-QFT
FILENAME=library_mgf.mgf
SEQ=*..*
IONMODE=negative
ORGANISM=MONA
NAME=Huperzine A [M-H]-
PI=MoNA
DATACOLLECTOR=MoNA:VF-NPL-QEHF027218
PUBMED=N/A
SUBMITUSER=mwang87
TAGS=
SPECTRUMID=CCMSLIB00004720799
SCANS=27218
50.529057 0.158207 
50.537426 0.120079 
50.834629 0.151145 
51.181885 0.104584 
51.216549 0.132164 
51.330849 0.118523 
51.525101 0.067442 
51.764694 0.148091 
51.930038 0.129441 
52.295567 0.158075 
53.340012 0.072271 
53.445152 0.137868 
53.521389 0.146237 
54.112556 0.088986 
55.032337 0.07139 
55.861607 0.156774 
56.148731 0.11108 
56.895218 0.092444 
57.098202 0.066916 
57.89756 0.063567 
58.941257 0.124802 
59.012478 14.982999 
59.179077 0.091047 
59.293377 0.068352 
59.667816 0.090048 
60.692429 0.138562 
61.029797 0.106407 
61.101669 0.092166 
61.806396 0.086183 
61.986988 3.100844 
62.144791 0.093914 
63.03125 0.106742 
63.161232 0.083735 
63.368492 0.077766 
63.605198 0.072565 
64.060097 0.066708 
65.440773 0.10366 
66.009758 0.163273 
66.910172 0.114288 
66.965233 0.082038 
69.03717 0.073066 
70.459274 0.131626 
71.072014 0.098616 
71.365334 0.104532 
72.511887 0.068512 
73.127007 0.070356 
74.791801 0.153594 
74.989418 8.875817 
75.988907 0.519716 
76.986336 0.364777 
77.108841 0.144206 
77.303307 0.132973 
78.648071 0.070379 
79.628891 0.160596 
79.955986 2.48738 
80.605217 0.080591 
80.963791 0.068796 
81.209785 0.064928 
81.362328 0.089229 
81.519432 0.061629 
82.582924 0.139454 
83.34008 0.072058 
84.941757 0.812222 
86.728203 0.125521 
88.097237 0.109376 
88.627975 0.06971 
88.725052 0.101868 
88.885933 0.064238 
89.023048 2.218797 
89.26738 0.133663 
89.8554 0.155201 
90.117424 0.061561 
90.961472 0.05859 
91.020798 19.042503 
92.020332 3.761113 
92.023911 0.93027 
92.071144 0.086584 
92.999992 2.012408 
93.01757 2.001399 
93.999908 0.079873 
94.914246 0.084097 
96.575623 0.073862 
96.958748 1.707412 
99.007332 0.243001 
100.30883 0.066691 
100.680344 0.150767 
101.059464 0.409459 
101.734879 0.073848 
103.07399 0.0659 
103.737717 0.144204 
103.918846 0.349569 
108.044205 5.875708 
109.028183 0.184131 
109.10656 0.168293 
109.823463 0.06507 
111.080185 0.10543 
111.160828 0.083639 
112.500511 0.071208 
113.03418 0.165255 
113.66935 0.148198 
114.44677 0.075031 
116.024315 0.226418 
117.019348 4.1146 
117.112694 0.111494 
117.303185 0.068404 
119.023804 0.479894 
127.210342 0.068318 
128.034363 0.217187 
128.921967 0.107268 
128.931702 0.20821 
131.324677 0.116584 
132.03212 0.104638 
132.080811 0.067609 
133.03952 8.53297 
134.597443 0.074585 
135.007523 0.440838 
137.685638 0.123179 
139.039246 0.118171 
139.827347 0.073299 
140.898834 0.656908 
142.259048 0.06276 
142.337158 0.068496 
142.777954 0.110311 
144.084595 0.098009 
145.010437 0.144616 
148.114594 0.102811 
149.008484 2.93562 
150.008041 0.757042 
150.627472 0.062439 
150.987808 7.911022 
151.005417 0.245368 
151.012146 0.064409 
151.987411 0.096051 
152.966949 0.643813 
153.127243 0.145842 
154.05545 0.093895 
154.0625 1.016753 
155.43483 0.089936 
155.756119 0.10339 
156.019424 0.258376 
160.025558 2.711918 
160.11441 0.071395 
164.304474 0.138941 
166.174576 0.069838 
167.143356 0.135624 
170.909637 8.212025 
176.993271 3.88591 
178.945023 0.075707 
178.997803 2.490646 
180.996689 0.0705 
181.158997 85.082817 
182.162354 5.046234 
182.66684 0.108003 
184.001022 46.580528 
184.015076 1.756376 
184.075348 0.388761 
184.328537 0.154723 
184.502869 7.538834 
184.998825 1.934186 
185.071259 12.503367 
185.501328 0.237047 
186.07933 0.104433 
189.193359 0.154418 
191.009079 0.489923 
193.03479 0.126392 
195.138367 1.771971 
196.142044 0.334456 
196.487152 0.074544 
197.071152 1.32789 
197.095993 0.076389 
197.154099 2.052214 
198.185608 5.081142 
199.086746 0.106537 
199.974625 0.100369 
200.500748 0.147828 
204.351639 0.12461 
206.15448 0.240663 
207.996353 0.698045 
208.976089 1.138395 
208.993744 0.310593 
210.091949 1.599006 
210.955109 2.99091 
211.086227 0.17668 
211.74469 0.075142 
216.572693 2.909109 
218.830292 0.151585 
222.092499 0.333118 
222.240707 0.112503 
222.990997 0.10411 
223.027924 26.783493 
223.087112 15.291448 
223.266068 0.099366 
224.027786 96.347969 
224.071503 0.10488 
224.090515 0.869949 
224.107742 0.550531 
224.165207 17.448854 
224.275696 0.15645 
224.97081 2.386147 
225.024338 57.760342 
225.102875 38.498604 
225.14917 100.0 
226.025223 6.053922 
226.106461 4.725764 
226.152466 7.875577 
226.906982 0.073617 
229.309845 0.115797 
232.663559 0.098698 
237.161514 0.128518 
239.118561 0.660755 
240.022812 0.099503 
240.063858 0.090987 
240.077744 0.128338 
240.102905 2.977212 
240.650955 0.155628 
240.82283 0.070519 
241.002228 0.121785 
241.071869 4.518052 
241.090729 0.337153 
241.134308 76.096535 
241.21698 15.950575 
241.573364 0.136884 
242.037338 0.119239 
242.138 10.519634 
242.175995 40.356812 
242.22049 1.688409 
242.981766 0.147361 
243.160034 7.58853 
243.179199 2.294526 
245.358459 0.099243 
246.128098 0.095036 
246.730682 0.141419 
252.099014 0.118689 
258.79364 0.156198 
261.233093 0.127595 
END IONS

