BEGIN IONS
PEPMASS=430.151
CHARGE=1+
COMPOUNDNAME=(5S,8S)-8-benzoyl-2-[(Z,1S,2S)-1,2-dihydroxyhex-3-enyl]-9-hydroxy-8-methoxy-3-methyl-1-oxa-7-azaspiro[4.4]non-2-ene-4,6-dione
LIBRARYQUALITY=3
SMILES=N/A
INCHIKEY=SLYDIPAXCVVRNY-BBJHAQHQSA-N
INCHI=InChI=1S/C22H25NO8/c1-4-5-11-14(24)15(25)16-12(2)17(26)21(31-16)19(28)22(30-3,23-20(21)29)18(27)13-9-7-6-8-10-13/h5-11,14-15,19,24-25,28H,4H2,1-3H3,(H,23,29)/b11-5-/t14-,15-,19?,21+,22+/m0/s1
MSLEVEL=2
SOURCE_INSTRUMENT=N/A-ESI-QFT
FILENAME=library_mgf.mgf
SEQ=*..*
IONMODE=negative
ORGANISM=MONA
NAME=(5S,8S)-8-benzoyl-2-[(Z,1S,2S)-1,2-dihydroxyhex-3-enyl]-9-hydroxy-8-methoxy-3-methyl-1-oxa-7-azaspiro[4.4]non-2-ene-4,6-dione [M-H]-
PI=MoNA
DATACOLLECTOR=MoNA:VF-NPL-QEHF020442
PUBMED=N/A
SUBMITUSER=mwang87
TAGS=
SPECTRUMID=CCMSLIB00004711505
SCANS=20442
50.002178 4.726532 
50.537006 0.53126 
51.425549 0.573211 
51.764065 0.725793 
52.782372 0.591308 
52.802711 0.543924 
53.565819 0.538927 
53.801476 0.747451 
54.232311 0.537208 
54.529667 0.809361 
54.732742 0.657031 
55.017536 19.2096 
55.36055 0.627083 
56.038555 0.622947 
56.736885 0.69036 
57.033176 11.992627 
57.263947 0.731279 
57.375832 0.732218 
57.533928 0.69056 
57.918655 0.563591 
58.169613 0.579507 
58.391525 0.559461 
58.522625 0.769734 
58.669613 0.80576 
58.97147 0.5446 
59.012447 3.326658 
59.284649 0.553685 
60.248589 0.923206 
60.382217 0.725961 
60.749699 0.765013 
61.044739 0.565044 
61.114868 0.71557 
61.338116 0.724819 
61.458237 0.599801 
61.532425 0.707695 
61.62553 0.658493 
61.784271 0.717794 
61.854702 0.674219 
61.969444 0.580711 
61.986973 40.514328 
62.254871 0.72203 
62.704514 0.688575 
62.79932 0.749179 
62.843353 0.568666 
62.88364 0.740547 
63.62849 0.653357 
63.747028 0.608083 
63.840492 0.53128 
63.961044 3.146272 
63.993 0.753247 
65.038177 2.622363 
65.147034 0.737667 
65.333237 0.5955 
65.997131 7.816269 
66.930771 0.897717 
67.01757 5.252685 
67.156357 0.712873 
68.169853 0.730413 
68.884636 0.559248 
68.996811 24.111059 
69.030594 0.62068 
69.030991 0.652321 
69.033211 99.534973 
69.593895 0.726271 
69.748322 0.700818 
70.108444 1.467128 
70.287544 0.874597 
70.536598 0.70467 
71.012489 0.780741 
71.085938 0.819331 
72.991776 9.241483 
73.028244 0.978224 
73.280396 0.827663 
74.215042 0.724069 
75.083801 0.727026 
75.605042 0.868595 
78.033546 3.767977 
78.304062 0.800443 
78.845909 0.813748 
78.984604 2.035889 
79.007874 0.627913 
79.017563 10.003223 
79.897667 0.838348 
79.989021 13.436291 
80.540451 0.574569 
80.59285 0.680783 
80.596878 0.745096 
81.033195 10.23467 
82.028275 0.803029 
82.049538 0.644694 
82.717049 0.711165 
83.048859 100.0 
83.840363 0.866923 
84.052559 0.688823 
85.028145 62.289795 
86.88073 0.697408 
87.077675 0.611022 
87.741783 0.552206 
88.989197 0.805306 
90.558159 0.554004 
91.243034 0.71267 
92.04937 0.74014 
92.171043 0.77295 
93.033272 22.304085 
93.414383 0.587003 
94.049515 0.801461 
95.012596 2.195908 
95.171028 0.883657 
95.503471 0.759995 
96.007729 8.267964 
97.028145 34.521221 
99.007645 0.899476 
99.04377 0.842054 
100.296005 0.625618 
100.867851 0.821615 
101.038437 3.881683 
101.609535 0.610796 
101.936287 0.558493 
102.033546 1.477751 
103.263481 0.635961 
103.460709 0.806054 
103.539757 0.772047 
104.049309 0.908606 
104.158859 0.735757 
105.250092 0.568691 
106.442245 0.523823 
108.020454 1.483737 
108.186195 0.663618 
108.559082 0.626592 
109.015343 4.915294 
109.028198 32.670631 
110.022987 0.664175 
110.330017 0.795773 
110.740768 0.875726 
111.043877 50.776672 
111.358673 0.583594 
112.527115 0.778657 
113.023041 10.039576 
113.269936 0.873419 
113.572273 0.622443 
114.595345 0.735524 
115.181381 0.872707 
115.949715 0.758604 
115.989098 0.530452 
116.049362 24.256832 
116.948166 0.656848 
117.252792 0.839624 
119.048973 9.99839 
120.044174 3.346061 
121.028297 52.554199 
121.36734 0.88615 
122.036057 3.075486 
123.007744 1.387881 
124.015266 11.709979 
124.03923 1.953263 
125.02317 38.420139 
125.614151 0.63498 
127.410667 0.807983 
129.480988 0.808338 
131.036545 9.74106 
131.047989 0.582857 
132.00264 0.68627 
132.044434 2.966203 
133.015884 1.087324 
136.039185 1.389448 
137.023315 9.545231 
137.047134 1.350667 
138.018463 1.17308 
138.031464 0.606001 
139.038925 4.146733 
142.065231 9.85111 
144.044342 22.641775 
145.028259 28.865046 
146.023392 1.495768 
147.031738 4.267112 
147.043945 1.779256 
148.039246 7.742831 
149.023254 2.206786 
150.018814 1.587755 
150.090897 0.784949 
153.938507 0.613966 
156.044403 21.260082 
156.080795 7.11184 
156.109451 0.617091 
158.036865 0.78165 
158.060242 14.51176 
159.044586 0.626463 
159.311554 0.809277 
160.039413 8.944249 
162.03093 0.623497 
162.054794 3.360513 
164.03421 0.827325 
166.226761 0.714834 
167.598465 0.9135 
169.065491 0.618777 
170.060226 2.361984 
170.087006 0.717523 
172.039398 0.977488 
173.023392 1.487347 
173.228561 0.74703 
174.794083 0.575848 
175.98111 0.731849 
176.0336 0.94001 
183.175842 0.887839 
184.039368 0.670953 
185.046875 1.347235 
186.055145 0.641438 
188.034317 2.409323 
190.866943 0.713353 
194.756317 0.596325 
197.675766 0.866796 
198.055099 3.498058 
199.063095 9.981602 
200.07106 2.568067 
200.258148 0.662919 
203.558456 0.561804 
210.36911 0.718448 
212.070953 2.263189 
212.617157 0.571723 
214.747665 0.89328 
215.739594 0.782888 
217.209747 0.585448 
219.657623 12.597851 
220.292892 0.587388 
221.392319 0.570578 
226.939575 0.885926 
227.057144 1.524639 
229.03688 0.698745 
229.947754 0.667701 
235.754059 0.593083 
236.054474 0.651284 
236.705551 0.731185 
240.064636 0.663405 
241.543579 0.794798 
247.082977 0.812565 
254.454742 0.866216 
255.214462 0.873246 
258.629242 0.679746 
264.985382 0.630779 
270.350281 0.69919 
286.585907 0.661464 
286.728424 0.62383 
291.803558 0.702426 
296.399933 0.669298 
297.632355 1.008878 
299.364502 0.635462 
300.19754 0.609524 
301.790222 0.988848 
317.556885 0.834238 
335.247833 0.623265 
338.803162 0.668357 
351.513275 0.776762 
353.08075 1.059003 
363.414215 0.835568 
376.765259 0.809142 
377.24173 0.784465 
377.669983 0.598246 
391.332489 0.726286 
394.58551 0.651866 
394.746155 0.617506 
396.749023 0.737234 
398.039246 0.700538 
422.766022 0.755868 
426.179413 0.899856 
428.478729 0.962219 
433.013367 0.699966 
END IONS

