BEGIN IONS
PEPMASS=267.159
CHARGE=1+
COMPOUNDNAME=(1S,8R,9R)-8-hydroxy-4-(propan-2-ylidene)-10-oxatricyclo[7.2.1.01,5]dodecane-8-carboxylic acid
LIBRARYQUALITY=3
SMILES=N/A
INCHIKEY=IOYVXXQKVQKQIG-ZJPTYJIISA-N
INCHI=InChI=1S/C15H22O4/c1-9(2)10-3-5-14-7-12(19-8-14)15(18,13(16)17)6-4-11(10)14/h11-12,18H,3-8H2,1-2H3,(H,16,17)/t11?,12-,14-,15-/m1/s1
MSLEVEL=2
SOURCE_INSTRUMENT=N/A-ESI-QFT
FILENAME=library_mgf.mgf
SEQ=*..*
IONMODE=positive
ORGANISM=MONA
NAME=(1S,8R,9R)-8-hydroxy-4-(propan-2-ylidene)-10-oxatricyclo[7.2.1.01,5]dodecane-8-carboxylic acid [M+H]+
PI=MoNA
DATACOLLECTOR=MoNA:VF-NPL-QEHF021474
PUBMED=N/A
SUBMITUSER=mwang87
TAGS=
SPECTRUMID=CCMSLIB00004712537
SCANS=21474
50.342529 0.034959 
50.350384 0.051595 
51.023373 0.065078 
51.327885 0.040129 
51.940342 0.303774 
52.872292 0.027432 
52.888378 0.019855 
53.002571 1.045838 
53.038952 4.276637 
53.210785 0.018157 
53.939423 2.679504 
53.940693 0.047868 
53.997753 0.056105 
54.034191 0.444989 
54.042351 0.094742 
54.16713 0.043735 
54.937859 0.164208 
54.947273 0.132208 
55.0182 3.966838 
55.054585 15.14984 
55.160416 0.0171 
55.374481 0.040363 
55.9347 0.654639 
56.046684 0.04442 
56.04982 0.996598 
56.057934 0.549996 
56.533974 0.040284 
56.942513 0.022705 
56.965099 1.725956 
57.032387 0.099302 
57.033813 8.937407 
57.070213 5.502673 
57.795109 0.030794 
57.910336 0.0177 
57.935097 0.457236 
58.065456 0.696187 
58.073555 0.021137 
59.049438 3.9377 
59.06871 0.022459 
59.583214 0.042838 
59.875332 0.019789 
59.930443 0.096046 
60.044685 0.068826 
60.360371 0.031565 
61.010918 46.744133 
61.028671 0.154678 
62.01873 2.657396 
62.919071 0.032477 
63.026535 2.44662 
63.822315 0.018039 
64.382996 0.01902 
65.038757 1.84631 
65.130249 0.022626 
65.390503 0.023039 
65.998199 0.047287 
66.149979 0.017729 
66.417679 0.039959 
67.054398 23.157438 
67.098694 0.02107 
67.909401 0.019633 
68.049629 0.750399 
68.057747 1.118166 
68.060661 0.104402 
68.155266 0.025894 
68.292648 0.022986 
68.294678 0.019078 
68.962669 21.314224 
68.997246 0.979285 
69.033646 4.280566 
69.044807 0.041343 
69.070023 11.198931 
69.656326 0.023005 
69.934097 1.269699 
70.028893 1.536777 
70.036957 0.026582 
70.065277 3.748928 
70.073372 0.512911 
70.941925 7.249225 
70.957977 0.541971 
71.012878 0.534216 
71.049286 2.409995 
71.068512 0.046651 
71.08564 4.086292 
71.54998 0.018115 
71.820847 0.019244 
71.949791 0.133464 
72.044518 0.083148 
72.080887 1.198636 
72.937233 1.271208 
72.957687 0.07371 
73.028557 0.947308 
73.046883 0.43196 
73.064865 1.17366 
73.318611 0.054219 
73.870262 0.052645 
74.060181 0.184446 
75.333542 0.019367 
76.083679 0.064207 
76.329674 0.024682 
77.038696 0.21687 
77.420654 0.040194 
77.470337 0.017052 
77.696243 0.052718 
79.021301 0.969786 
79.054306 20.439804 
79.404396 0.018422 
79.749275 0.054342 
80.049568 0.949902 
80.057701 1.205741 
80.060013 0.023688 
81.033592 2.505671 
81.044815 0.344736 
81.069962 22.61517 
81.322861 0.04448 
81.927124 0.041535 
82.036964 0.136673 
82.052605 0.045616 
82.065201 0.925821 
82.073303 0.884718 
82.075706 0.022089 
83.012825 0.803271 
83.04924 10.794061 
83.060371 0.10095 
83.085594 3.315329 
83.520432 0.053556 
84.044456 0.755954 
84.052597 0.887595 
84.080864 0.923516 
84.088615 0.023556 
84.957634 0.076341 
85.028519 1.794002 
85.039688 0.026021 
85.064857 1.572445 
85.101273 0.127075 
85.911209 1.046017 
86.003693 0.020245 
86.060158 0.266046 
86.096603 0.120386 
86.919098 0.411657 
86.970299 0.036242 
86.973221 8.796297 
87.044189 1.385951 
87.944649 0.870383 
88.076202 0.017583 
88.952423 7.130437 
88.968544 0.105425 
89.008118 0.022008 
89.059799 1.163604 
89.960335 0.026242 
90.553856 0.045243 
90.947792 0.950921 
90.958954 0.047546 
91.054367 21.614138 
91.057373 2.063893 
92.049538 0.023089 
92.057709 2.220193 
92.060585 0.113821 
92.972145 0.02602 
93.033669 0.021328 
93.036865 0.02844 
93.044914 0.028806 
93.057404 0.098451 
93.070007 18.868977 
93.073235 0.182727 
94.065247 1.219831 
94.073296 1.092801 
94.077232 0.023258 
94.375717 0.019861 
95.009209 0.020787 
95.012741 0.078879 
95.04924 6.649737 
95.060471 0.568502 
95.085602 9.89225 
96.044502 1.729278 
96.052528 0.486936 
96.05584 0.053956 
96.080818 0.447427 
96.088989 0.393125 
97.028549 0.806887 
97.047829 0.277404 
97.061539 0.022237 
97.064926 3.953271 
97.101295 0.344797 
97.956612 0.039437 
98.060219 0.37165 
98.068092 0.095073 
98.071533 0.041793 
98.096451 0.085163 
98.22261 0.049862 
98.984314 3.968919 
99.044159 1.187981 
99.080605 0.769952 
100.075775 0.347466 
100.820999 0.020013 
100.934433 0.026181 
100.952499 0.438983 
101.059746 0.461383 
101.541206 0.018161 
102.546761 0.025993 
102.726578 0.057441 
102.956375 0.028508 
102.968185 1.596271 
103.03894 0.02388 
103.054329 2.017387 
103.156952 0.019042 
103.918266 0.057337 
103.921791 2.651997 
104.057716 0.075348 
104.062111 0.071548 
104.258537 0.017174 
104.92968 0.382985 
104.983818 0.761155 
105.033531 0.275062 
105.044899 1.042665 
105.070015 21.271105 
105.955215 0.660739 
106.065186 0.403039 
106.073318 2.5523 
106.07682 0.186167 
106.963051 1.549648 
106.966614 0.026656 
107.049232 2.941457 
107.072952 0.091173 
107.085632 9.742619 
108.044464 0.6851 
108.052483 0.131348 
108.05677 0.110603 
108.080757 0.467682 
108.088921 0.786446 
108.493362 0.057458 
108.958298 0.08037 
109.028549 0.194556 
109.052353 20.017525 
109.064827 3.777729 
109.076248 0.141592 
109.101311 3.744483 
110.049232 0.406255 
110.055725 11.923092 
110.060135 24.098536 
110.071449 1.456797 
110.096397 0.060745 
110.104286 0.062137 
110.543938 0.04798 
111.026688 0.021411 
111.044235 1.697927 
111.056686 0.856 
111.063408 14.629998 
111.080482 2.666801 
112.04744 0.043055 
112.063972 0.175067 
112.0672 0.145669 
112.075653 0.118278 
112.0839 0.171343 
112.952637 0.108838 
113.023003 0.019373 
113.059753 0.354741 
113.096085 0.024832 
113.101028 0.082528 
114.107597 0.367151 
115.054375 2.714602 
115.531639 0.059838 
115.921791 0.65375 
115.964066 0.026293 
116.049332 0.031778 
116.057678 0.13759 
116.062057 0.926117 
116.905762 0.049021 
116.929565 1.232878 
116.963356 0.081542 
116.972084 0.218694 
117.057167 0.032082 
117.069954 7.977871 
117.48304 0.046 
117.97979 1.576469 
118.065018 0.057228 
118.073196 0.926369 
118.077454 0.030885 
118.945358 3.642787 
119.035454 0.215479 
119.049339 0.635466 
119.060509 0.447695 
119.08567 10.514843 
119.207367 0.040329 
120.044617 0.02226 
120.056366 0.022087 
120.080978 1.286637 
120.088844 1.239035 
120.978584 0.372606 
121.02845 0.046322 
121.064896 2.906383 
121.076035 0.065811 
121.084084 0.086979 
121.088478 0.120715 
121.093109 0.024064 
121.101418 3.366474 
121.932327 0.54178 
121.950081 0.022115 
122.060181 2.454706 
122.068024 0.115461 
122.072624 0.970969 
122.096451 0.184149 
122.104385 0.106296 
122.565285 0.033399 
122.940468 0.518951 
123.044121 0.420071 
123.063484 0.338014 
123.067955 0.956252 
123.080429 3.613766 
123.091682 0.031934 
123.116898 0.722901 
123.965805 0.754285 
124.039543 0.140146 
124.04734 0.021326 
124.051872 0.121543 
124.071152 0.09392 
124.07589 0.173392 
124.08374 0.486467 
124.088089 0.026526 
124.112106 0.03297 
125.023544 0.433959 
125.055 0.035315 
125.059853 0.676016 
125.071014 0.066443 
125.090294 0.04134 
125.096336 0.860342 
126.055107 0.325399 
127.039055 0.258513 
127.075401 0.117618 
128.06218 2.651076 
128.107224 0.128439 
128.963531 0.032116 
129.065414 0.60218 
129.069977 4.337327 
130.065216 0.259179 
130.073151 0.622636 
130.077896 1.192552 
130.945419 0.026323 
130.963043 17.387272 
131.04921 0.220425 
131.074112 0.039925 
131.085709 6.967149 
131.583344 0.041538 
131.953049 3.690203 
132.044785 0.038781 
132.056961 0.082786 
132.080841 0.333042 
132.088806 1.091391 
132.924622 0.193883 
132.96106 2.06715 
133.064911 2.208557 
133.076324 0.030023 
133.088562 0.026204 
133.095764 0.025026 
133.101288 4.633795 
133.932327 1.643767 
134.060135 0.518256 
134.068024 0.136401 
134.096466 0.396889 
134.104584 0.418479 
134.940155 0.78019 
134.958374 0.052444 
134.973938 0.033977 
135.044037 0.256605 
135.06813 0.105954 
135.080536 3.463426 
135.104523 0.02505 
135.116867 1.380055 
135.990341 0.04809 
136.061966 25.121979 
136.075607 3.795186 
136.088211 0.841386 
136.11264 0.033992 
136.120087 0.024651 
136.955963 2.956222 
137.011826 0.943844 
137.046051 0.286404 
137.059662 1.465981 
137.065353 0.532748 
137.079086 0.883767 
137.08432 0.028161 
137.096268 4.088014 
137.107697 0.040406 
138.055038 1.506817 
138.067612 0.260035 
138.091644 0.039757 
138.099457 0.43209 
138.984665 0.038057 
139.021027 0.02732 
139.039047 1.149144 
139.058472 0.70755 
139.0755 1.746752 
139.123062 0.0228 
140.042099 0.021545 
140.049347 0.027859 
140.070663 0.035603 
140.078751 0.275959 
140.951492 0.022688 
140.985275 0.048387 
141.054642 1.515521 
141.069962 1.481031 
142.058304 0.042742 
142.077972 1.515389 
142.110336 0.020064 
143.085876 3.476546 
144.080887 0.081953 
144.08844 0.210777 
144.093613 0.808677 
144.958725 0.025627 
145.064987 1.304069 
145.10141 2.962234 
145.932022 0.063782 
145.967316 0.032554 
146.060104 0.1493 
146.073074 0.30236 
146.096863 0.126463 
146.10463 0.382581 
146.976578 62.297028 
147.044388 0.13129 
147.068008 0.167114 
147.074768 0.031211 
147.080597 3.071879 
147.091049 0.026999 
147.104019 0.028921 
147.116974 1.56662 
147.935593 0.051137 
147.965729 2.877485 
147.972153 0.023797 
148.075714 1.174404 
148.083572 0.315542 
148.088989 0.026597 
148.112198 0.192181 
148.955994 2.875162 
148.973587 27.880579 
149.059967 0.53556 
149.071564 0.039336 
149.083817 0.869388 
149.096222 1.369699 
149.107452 0.028842 
149.132141 0.030433 
149.963669 4.18752 
150.055435 0.102088 
150.091675 1.563643 
150.099228 0.048386 
150.127548 0.064283 
150.935043 0.234802 
150.951462 0.077785 
150.971512 2.83365 
151.039032 0.024883 
151.075409 1.36229 
151.087753 0.033347 
151.094803 1.031034 
151.111893 0.634339 
151.942978 0.814786 
152.062454 0.089591 
152.070908 0.192383 
152.078369 0.078395 
152.107178 0.091165 
152.115448 0.03037 
152.95163 0.572051 
153.054672 0.478176 
153.069794 0.273906 
153.090897 0.061744 
153.959457 0.140124 
154.065445 0.541587 
154.077652 0.287495 
155.022446 0.384667 
155.06044 0.543721 
155.085663 1.065451 
156.08136 0.037493 
156.093658 0.863299 
157.065247 0.256726 
157.076508 0.029474 
157.101547 1.336843 
158.072723 0.281412 
158.096634 0.097718 
158.103867 0.071828 
159.080612 1.254813 
159.117004 1.454256 
160.07608 0.134 
160.088547 0.10638 
160.112091 0.335367 
160.11998 0.088356 
161.059875 0.381138 
161.084427 0.034623 
161.09642 1.73447 
161.132523 0.380422 
161.970245 0.031236 
162.055206 0.083414 
162.06752 0.0935 
162.091553 0.550552 
162.09874 0.123491 
162.128571 0.047316 
162.55835 0.039183 
162.90419 0.046949 
163.063385 0.065582 
163.075531 0.213866 
163.099396 0.054634 
163.111877 0.404737 
163.357895 0.047679 
163.942963 2.857556 
163.969513 0.020161 
163.977203 0.555149 
164.003433 0.018792 
164.070908 0.103813 
164.08342 0.035177 
164.107132 4.892755 
164.987198 15.589674 
165.055099 0.053124 
165.069977 0.194472 
165.078583 0.048881 
165.091141 5.639619 
165.110367 0.500099 
165.453033 0.035062 
165.976334 2.070773 
166.051147 0.020691 
166.086838 0.093588 
166.094528 0.879824 
166.122711 0.320036 
166.966492 0.844505 
166.984314 0.370255 
167.060699 0.264292 
167.070572 0.528921 
167.085663 0.214259 
167.106949 0.020559 
167.835907 0.051834 
168.080124 0.054653 
168.093506 0.051372 
168.101822 0.4343 
168.945618 0.02007 
169.076172 1.165528 
169.101486 0.341866 
169.977921 0.027982 
170.097183 0.023277 
170.109192 0.027195 
170.96196 0.138692 
171.055389 0.18392 
171.080719 0.180409 
171.117065 0.43461 
172.075821 0.247234 
172.088486 0.215837 
172.112534 0.154874 
172.332382 0.042814 
173.059906 0.028499 
173.096405 1.270173 
173.132706 0.212768 
174.09169 0.150678 
174.099167 0.08462 
174.127869 0.604472 
174.387955 0.04818 
175.075607 1.086957 
175.111923 0.333739 
175.148254 0.127408 
175.942978 6.357221 
176.070938 0.044078 
176.08226 0.065327 
176.107208 0.330715 
176.115067 0.039422 
176.142899 0.044513 
177.054794 0.060702 
177.091217 0.089068 
177.127426 0.031213 
178.078522 0.053518 
178.086395 0.922026 
178.12262 0.165013 
178.966278 0.215894 
178.97821 0.057066 
179.07048 1.810487 
179.085556 0.16275 
179.106735 0.927955 
180.073624 0.127381 
180.102036 0.025812 
180.110306 0.035505 
180.888824 0.09841 
181.064896 0.049981 
181.086441 0.170704 
181.101517 0.143761 
181.953568 1.691698 
181.987778 0.08328 
183.055511 0.200189 
183.080566 0.08071 
183.117249 0.188651 
184.075974 0.031507 
184.940735 0.47167 
184.990005 0.031117 
185.062286 0.052914 
185.071136 1.235533 
185.0961 0.024374 
185.132797 0.114053 
186.128128 0.027812 
187.063522 0.023801 
187.112244 0.119531 
187.148224 0.029215 
188.083023 0.021806 
188.106491 0.03962 
189.091217 0.508085 
190.095993 0.086287 
190.123077 0.071328 
190.966446 2.788345 
191.02179 0.033069 
191.07045 0.14783 
191.107117 0.062802 
192.093231 0.026574 
192.138397 0.171615 
192.466599 0.034092 
193.086151 0.408985 
193.101273 0.079761 
193.378952 0.019268 
193.913696 0.035637 
193.953583 8.373287 
194.095657 0.17492 
194.117447 0.034677 
194.873505 0.056484 
194.960663 0.062118 
195.081039 0.024826 
195.091431 0.095969 
195.117172 0.060563 
196.076447 0.052706 
196.111694 0.053285 
196.97583 0.022602 
197.071075 0.123242 
199.111649 0.055639 
202.122849 2.421804 
203.127045 0.215386 
204.138351 0.550041 
205.085999 0.103792 
205.170944 0.021516 
206.083237 0.139998 
206.117722 0.522802 
206.153992 1.163391 
207.101883 0.023834 
207.158051 0.038444 
208.133286 0.056039 
208.977081 2.134774 
209.096115 0.049096 
209.117615 0.11422 
210.091888 0.0297 
211.111923 0.023058 
211.123352 0.156197 
211.92424 0.023313 
212.970718 0.024493 
214.985977 7.310391 
215.900986 0.029497 
215.985886 0.907223 
216.965622 0.169222 
216.982925 0.124161 
219.361603 0.328021 
219.393402 0.021955 
220.133469 6.233072 
220.169907 0.307476 
221.011398 0.022509 
221.137436 0.746597 
221.173355 0.735047 
222.091568 0.024659 
222.148071 0.031033 
222.185623 0.833008 
223.027298 2.730101 
223.086578 0.279541 
223.123215 0.027415 
224.01503 0.035102 
224.027298 2.205698 
224.917511 0.022046 
225.006882 0.443646 
225.024323 0.909951 
226.062561 0.021655 
227.022476 0.679403 
228.022369 0.546517 
229.001617 7.798558 
229.019608 0.372672 
230.001694 1.559042 
230.980972 2.123359 
230.998322 0.500851 
232.996613 4.252867 
233.996475 0.295259 
234.97583 0.667502 
234.993652 0.036659 
239.094482 0.022276 
239.966934 0.023469 
240.947189 20.740566 
241.038971 0.02037 
241.087311 0.020736 
241.947006 4.069685 
242.912872 0.045352 
242.926666 1.362242 
242.944321 1.944345 
243.017365 16.277462 
244.01738 2.516637 
244.997025 0.138348 
245.014282 0.670778 
247.012314 2.327043 
248.012177 0.320741 
248.991516 2.782636 
249.006943 0.056989 
249.99205 0.311948 
250.969879 0.216415 
250.987167 0.058467 
251.444733 0.042754 
252.947784 0.096598 
253.955276 0.725473 
254.963058 0.751174 
255.934296 0.047463 
256.942291 4.076139 
257.942383 0.727899 
258.922272 0.126829 
258.942535 0.251639 
258.957825 15.972808 
259.957367 3.259945 
260.937256 5.379208 
260.954926 1.502846 
261.028076 4.506701 
261.936737 0.044202 
262.028229 0.434583 
262.917389 0.042901 
263.007324 0.421302 
263.024445 0.041354 
265.199432 1.38754 
266.082764 0.021043 
266.138947 0.310649 
266.175812 0.032675 
266.202911 0.028437 
266.984009 0.098006 
266.999268 5.39766 
267.999298 8.110457 
268.132843 0.025887 
268.205872 0.035225 
268.978729 100.0 
269.005798 0.093517 
269.978577 22.370228 
269.995209 0.318613 
270.957947 20.610731 
270.9758 9.60441 
271.957794 1.136998 
272.937317 0.378201 
272.955017 0.328116 
274.952789 4.554392 
275.952759 0.789988 
276.93222 1.243334 
276.950836 0.216515 
276.968475 1.617664 
277.968536 0.16498 
278.947449 0.204008 
279.50882 0.020908 
284.031342 0.075972 
284.973511 0.217966 
285.01001 2.81306 
285.026459 0.086284 
286.010101 1.331855 
286.989197 1.398285 
287.006683 0.522115 
287.832001 0.119233 
287.989075 0.180465 
288.968353 5.936476 
289.968384 0.075949 
END IONS

