BEGIN IONS
TITLE=Scan Number: 1422
PEPMASS=583.255
CHARGE=1+
COMPOUNDNAME=Okaramine D_120149
LIBRARYQUALITY=2
SMILES=CC(/C=C\N1/C(C(N2[C@]([C@H](OC)[C@@]3(O)[C@]24N(C(C)(C)[C@@H]4CO)C5=C3C=CC=C5)(O)C1=O)=O)=C\6)(C)C7=C6C8=CC=CC=C8N7
INCHIKEY=VIKRIYAAOWJXCT-RSWHNJNYSA-N
INCHI=N/A
MSLEVEL=2
SOURCE_INSTRUMENT=LC-ESI-qToF
FILENAME=P1_C5_conc_GA5_01_2411.mzXML
SEQ=*..*
NOTES=
IONMODE=Positive
ORGANISM=GNPS-LIBRARY
NAME=Okaramine D_120149 M+H
SPECTRUMID=CCMSLIB00000478069
ACTIVATION=CID
INSTRUMENT=ion trap
SCANS=1422
103.051819 456.0 
126.018326 424.0 
127.049263 484.0 
130.027969 436.0 
130.064911 1064.0 
131.069305 272.0 
132.045151 384.0 
132.075562 420.0 
133.048813 260.0 
143.075821 1064.0 
144.08017 3740.0 
146.064529 296.0 
148.040405 544.0 
152.065018 436.0 
154.062912 592.0 
155.046219 452.0 
156.081467 504.0 
157.08989 460.0 
158.060379 3196.0 
158.096313 6324.0 
159.100571 612.0 
160.074463 1988.0 
161.046387 720.0 
161.07579 568.0 
162.054947 1708.0 
163.058609 648.0 
167.067886 936.0 
168.079865 1540.0 
169.083206 656.0 
170.065308 276.0 
170.095688 10824.0 
171.065155 448.0 
171.099213 1524.0 
172.072784 372.0 
172.105316 868.0 
174.051559 344.0 
174.09166 268.0 
176.069687 4340.0 
177.073044 1124.0 
180.079071 1256.0 
181.086945 1468.0 
182.058945 412.0 
182.095108 2924.0 
183.067139 1672.0 
183.098587 1032.0 
184.072708 660.0 
184.111252 1280.0 
185.069595 660.0 
185.110474 320.0 
186.058014 500.0 
186.090744 27124.0 
187.093704 3764.0 
188.067947 416.0 
188.102753 644.0 
189.065918 344.0 
190.065933 284.0 
191.076248 544.0 
193.061569 2168.0 
194.066162 564.0 
194.095673 3608.0 
195.054703 1024.0 
195.101532 2448.0 
196.070541 572.0 
196.110977 4060.0 
197.034332 532.0 
197.07666 316.0 
197.112518 856.0 
198.090103 11444.0 
199.094788 2424.0 
200.103806 1136.0 
201.064026 1096.0 
202.086563 748.0 
205.076126 364.0 
206.085876 996.0 
207.087479 776.0 
208.103241 1376.0 
209.068069 596.0 
209.105713 864.0 
210.083862 296.0 
210.093292 260.0 
210.112595 668.0 
211.089188 684.0 
212.057663 260.0 
212.106491 1252.0 
213.065109 536.0 
215.041336 432.0 
216.101242 8800.0 
217.106277 3068.0 
218.101471 408.0 
219.087234 400.0 
220.102234 364.0 
221.070358 512.0 
221.107193 9132.0 
222.092209 3816.0 
223.091476 1232.0 
223.122803 7876.0 
224.124893 1036.0 
226.078995 452.0 
226.120651 1548.0 
227.084183 272.0 
227.124176 588.0 
229.060898 932.0 
230.11525 352.0 
232.103775 468.0 
233.104095 720.0 
234.090149 1552.0 
235.088348 1468.0 
235.1147 604.0 
236.098892 1208.0 
237.069336 836.0 
237.102142 1696.0 
238.058685 652.0 
238.105469 348.0 
239.081436 1172.0 
239.114868 956.0 
240.077957 540.0 
241.062469 280.0 
241.134796 300.0 
242.11676 540.0 
244.132843 2384.0 
245.108871 572.0 
245.134628 652.0 
246.091629 408.0 
247.084 768.0 
247.122894 476.0 
248.097244 652.0 
249.101562 7372.0 
250.106918 1620.0 
251.067551 676.0 
251.118927 1952.0 
252.096634 624.0 
253.094894 376.0 
253.137833 364.0 
254.185349 332.0 
255.107849 456.0 
257.054901 1464.0 
258.060791 364.0 
260.119232 588.0 
261.101532 516.0 
262.105133 480.0 
262.134399 564.0 
263.115692 2600.0 
264.117188 1240.0 
265.095581 772.0 
266.092896 1852.0 
267.084991 676.0 
267.111755 1316.0 
267.150604 548.0 
268.113678 364.0 
269.12677 996.0 
271.084747 356.0 
273.102264 364.0 
274.092285 608.0 
275.072021 336.0 
275.106018 720.0 
275.116699 568.0 
276.113342 512.0 
277.096161 1652.0 
278.059448 416.0 
278.123657 1512.0 
279.070496 332.0 
279.115234 732.0 
280.115479 1420.0 
281.095764 276.0 
282.08786 296.0 
288.108704 936.0 
289.119843 1132.0 
290.093292 500.0 
290.127228 1308.0 
291.06189 288.0 
291.106598 2360.0 
292.119751 684.0 
293.093079 676.0 
293.113556 444.0 
294.086334 6528.0 
294.121521 1176.0 
295.088745 1808.0 
295.145691 452.0 
296.088074 380.0 
296.154266 376.0 
297.118866 1192.0 
298.12439 564.0 
302.09433 396.0 
303.100647 384.0 
304.106628 412.0 
305.116058 2096.0 
306.123657 8132.0 
307.101196 2376.0 
307.125916 1972.0 
308.106537 808.0 
309.127594 396.0 
310.079651 920.0 
312.172974 284.0 
315.091553 356.0 
316.106201 576.0 
318.085632 340.0 
318.124786 2444.0 
319.096466 828.0 
319.125854 708.0 
320.10434 1104.0 
320.136078 2348.0 
321.115265 492.0 
321.138519 532.0 
322.117676 4700.0 
323.136871 1984.0 
324.111053 288.0 
324.142914 416.0 
325.134735 384.0 
332.105194 336.0 
332.13559 428.0 
333.120544 432.0 
334.118591 20004.0 
335.121857 5316.0 
336.129364 1464.0 
337.144684 256.0 
348.13324 3504.0 
349.140808 6152.0 
350.148712 47424.0 
350.246429 432.0 
351.151978 10252.0 
352.156586 1632.0 
353.149109 572.0 
358.156677 448.0 
360.130524 392.0 
362.149872 436.0 
363.090576 456.0 
365.10965 724.0 
366.143372 3020.0 
367.145935 928.0 
372.170105 252.0 
374.128571 472.0 
375.106323 268.0 
375.143524 408.0 
376.131012 480.0 
378.13147 412.0 
385.151398 348.0 
386.168091 320.0 
387.126923 388.0 
388.134827 436.0 
390.121704 476.0 
390.1763 464.0 
393.089081 392.0 
393.161499 400.0 
400.114746 348.0 
400.169159 360.0 
401.143463 332.0 
404.131409 416.0 
405.131744 512.0 
406.147003 484.0 
408.166016 400.0 
409.1026 344.0 
415.156769 748.0 
416.157715 320.0 
417.166931 716.0 
419.147949 5000.0 
420.153442 1536.0 
421.161591 1252.0 
423.108215 316.0 
430.169006 372.0 
431.151184 344.0 
431.177399 296.0 
431.966583 272.0 
432.12265 416.0 
433.123779 452.0 
433.211334 300.0 
434.142334 292.0 
435.171661 324.0 
436.153534 1020.0 
437.159637 1124.0 
438.155334 448.0 
442.145233 372.0 
444.150879 264.0 
445.165436 468.0 
446.13031 308.0 
447.143341 3708.0 
448.147644 1352.0 
449.154694 296.0 
450.159515 432.0 
451.175354 1136.0 
452.175323 556.0 
456.183105 284.0 
457.15976 440.0 
457.198059 460.0 
459.152435 368.0 
459.221619 704.0 
461.159119 584.0 
462.162933 568.0 
463.210449 364.0 
464.148651 576.0 
471.211517 476.0 
472.198547 816.0 
473.19873 700.0 
474.189484 512.0 
475.17041 1488.0 
476.176117 516.0 
477.159943 596.0 
479.169769 8280.0 
480.1716 2116.0 
481.181183 836.0 
486.201935 324.0 
487.214081 1392.0 
488.214844 488.0 
489.193634 904.0 
490.194916 708.0 
491.159393 344.0 
495.17746 304.0 
497.182983 14180.0 
498.183136 3836.0 
499.192261 1040.0 
503.209839 568.0 
504.222626 572.0 
507.202087 8176.0 
508.203461 3696.0 
509.205414 716.0 
513.179565 820.0 
515.207458 1480.0 
516.208618 608.0 
517.227234 972.0 
518.226562 284.0 
519.236206 692.0 
521.240967 300.0 
525.212646 17012.0 
526.214722 5764.0 
527.214478 1036.0 
529.222839 1632.0 
530.218994 708.0 
531.223145 252.0 
533.215271 1280.0 
534.225769 504.0 
535.231628 1756.0 
536.23877 360.0 
537.236816 340.0 
547.233521 9684.0 
548.236206 4192.0 
549.237793 848.0 
553.243835 308.0 
565.243774 52328.0 
565.815002 316.0 
566.247375 20668.0 
567.248108 4784.0 
568.249084 404.0 
581.302307 264.0 
581.338623 272.0 
582.238647 272.0 
583.058289 264.0 
583.253723 39416.0 
584.256653 17560.0 
585.260681 3680.0 
586.261353 604.0 
587.103882 260.0 
587.253906 272.0 
END IONS

