BEGIN IONS
PEPMASS=466.252
CHARGE=1+
COMPOUNDNAME=TOBRAMYCIN
LIBRARYQUALITY=3
SMILES=N/A
INCHIKEY=NLVFBUXFDBBNBW-PBSUHMDJSA-N
INCHI=InChI=1S/C18H37N5O9/c19-3-9-8(25)2-7(22)17(29-9)31-15-5(20)1-6(21)16(14(15)28)32-18-13(27)11(23)12(26)10(4-24)30-18/h5-18,24-28H,1-4,19-23H2/t5-,6+,7+,8-,9+,10+,11-,12+,13+,14-,15+,16-,17+,18+/m0/s1
MSLEVEL=2
SOURCE_INSTRUMENT=N/A-ESI-QFT
FILENAME=library_mgf.mgf
SEQ=*..*
IONMODE=negative
ORGANISM=MONA
NAME=TOBRAMYCIN [M-H]-
PI=MoNA
DATACOLLECTOR=MoNA:VF-NPL-QEHF011812
PUBMED=N/A
SUBMITUSER=mwang87
TAGS=
SPECTRUMID=CCMSLIB00004702875
SCANS=11812
54.480022 0.027943 
56.723427 0.031647 
57.033234 0.224479 
57.893517 0.028417 
57.995274 0.028499 
59.012436 18.233412 
60.015858 0.254908 
61.978088 0.026749 
61.986942 22.354399 
61.995266 0.03166 
62.635208 0.033119 
63.961021 14.495715 
64.822403 0.024615 
64.995979 0.027808 
65.746178 0.027334 
69.033218 1.335101 
71.012482 1.085594 
71.048882 0.112016 
71.205467 0.029694 
71.21479 0.029482 
71.435684 0.0259 
71.539749 0.031315 
72.007858 0.035974 
72.991737 2.797123 
73.028137 0.899819 
73.218796 0.027151 
73.654243 0.025616 
74.023453 0.137354 
75.007408 2.398932 
76.114204 0.031972 
78.083969 0.026256 
78.95768 0.842529 
78.98455 37.568394 
78.996811 0.042526 
79.955986 2.967593 
79.983902 0.103151 
79.987946 0.082122 
80.963829 3.397647 
80.980293 0.176579 
81.033241 1.158375 
81.951538 0.033419 
83.048866 7.953474 
85.028137 3.628208 
86.765816 0.029198 
87.007416 0.666366 
87.043755 0.189566 
88.039154 0.120361 
89.023064 7.668111 
89.041428 0.344519 
90.026382 0.159824 
91.020767 0.073763 
91.038475 0.174573 
92.879829 0.026282 
92.926735 0.757 
94.442863 0.025663 
94.92379 0.360277 
94.979492 7.088923 
95.04882 0.070719 
96.940712 0.084935 
96.958748 100.0 
96.975327 0.183731 
97.028236 0.032311 
97.064453 0.528433 
97.958176 0.520155 
97.962975 0.036993 
98.023567 0.03598 
98.954559 3.424421 
98.962967 0.529259 
99.007523 1.483228 
99.044075 0.034299 
99.92437 0.41266 
100.72364 0.029173 
100.932213 0.083746 
101.02301 0.487007 
101.059471 0.046395 
103.038651 0.260308 
103.918861 1.227646 
104.03392 1.04374 
105.993095 0.026056 
108.090111 0.027395 
109.028275 0.029996 
110.974365 0.203224 
111.080193 0.779052 
113.023132 0.68168 
114.597542 0.026682 
115.019508 0.198672 
115.038803 0.21475 
115.075333 0.139937 
115.389336 0.030199 
115.919373 1.6988 
116.070435 0.168417 
116.927238 1.507977 
116.971062 0.636009 
117.018005 0.465508 
117.03521 0.17957 
118.94075 0.186428 
118.968193 0.271934 
119.016106 0.02815 
119.945686 1.099426 
120.370384 0.027581 
121.028252 3.562276 
121.878036 0.025586 
121.942696 0.082086 
122.03157 0.050396 
122.349548 0.029998 
122.893181 0.037533 
124.893623 0.038349 
125.023109 0.033832 
125.096062 1.393946 
125.872353 0.064341 
127.07515 0.036037 
128.034058 0.372551 
128.780319 0.029155 
129.05455 0.662379 
129.090668 0.038353 
130.079208 0.02991 
130.942993 0.689091 
131.943604 0.027894 
132.995209 0.147366 
135.044281 0.060708 
135.645477 0.028309 
136.943298 0.177976 
139.00029 0.032919 
139.11171 0.034794 
141.015686 0.798632 
141.090927 0.0964 
141.127884 0.03011 
142.874954 0.046558 
143.069992 0.038542 
143.900528 0.116185 
143.990051 0.0401 
145.049332 0.128151 
145.191544 0.031213 
145.964371 0.348567 
146.964905 0.036779 
146.981735 0.208591 
147.768356 0.028523 
149.008224 0.144055 
150.059891 1.292619 
150.987854 0.189522 
151.056076 4.518401 
151.062607 0.049081 
151.075836 0.02945 
152.938278 0.072549 
154.946152 0.53038 
157.086136 0.2481 
157.12233 0.150032 
157.862061 0.062615 
158.933395 0.177057 
159.064972 0.130393 
159.101456 0.174101 
159.892746 0.035665 
160.392242 0.026769 
160.841324 0.273549 
160.891022 0.070641 
160.987961 1.990224 
161.00824 0.049044 
162.838043 0.199338 
162.893372 0.028508 
163.060226 0.111445 
163.962357 0.032859 
164.835068 0.097147 
164.960449 0.076058 
164.967056 3.967545 
165.03981 0.393305 
165.966522 0.098683 
166.909637 0.974585 
167.031464 0.083252 
167.070923 0.032178 
167.106659 0.375091 
167.907944 0.767423 
168.539764 0.031222 
168.998001 0.082687 
169.013107 0.03236 
169.905167 0.032778 
171.101715 1.208291 
171.137939 0.039296 
172.95665 0.380102 
173.9422 0.029629 
175.042267 6.448172 
175.050674 0.045945 
175.938751 0.042787 
176.045746 0.029426 
176.746704 0.035508 
176.899628 0.895839 
178.896179 0.228501 
179.018982 0.028067 
180.032578 0.225722 
180.90004 0.03736 
180.960159 0.825706 
180.998001 0.037595 
181.071136 0.03959 
181.158707 0.041042 
181.896591 0.704776 
181.924103 0.178513 
181.990982 0.036264 
182.977646 2.764984 
183.876404 0.205877 
184.875961 0.225782 
184.88501 0.033956 
184.920258 0.173408 
185.117432 0.170233 
185.874451 0.153463 
186.112396 0.479546 
186.928513 0.125941 
187.096588 0.238256 
188.110382 0.238493 
190.496826 0.029986 
190.520615 0.029264 
191.95256 0.307153 
192.908447 0.045031 
193.083847 0.16573 
193.904602 0.052226 
194.376862 0.028048 
194.9272 0.03565 
195.06543 0.154796 
199.131989 0.059802 
199.169525 0.208109 
200.000854 0.029376 
200.944305 1.912411 
201.036469 0.077223 
201.148651 0.071236 
201.956802 0.178451 
202.886703 0.052433 
202.939514 0.03443 
203.031387 0.03303 
203.918381 0.090284 
203.972778 0.030849 
204.538773 0.031737 
205.158447 0.117559 
205.89267 0.254973 
207.011978 0.081742 
207.068695 0.518445 
207.912369 0.09705 
208.094315 0.369644 
208.92067 0.347054 
209.078445 0.22846 
209.153961 0.036099 
209.190689 0.037398 
209.91922 0.1849 
209.962997 0.029858 
210.899963 0.117082 
210.918289 0.035405 
211.915695 0.035481 
213.185257 0.053165 
213.671875 0.76424 
213.68045 0.565037 
213.684952 0.69427 
214.595612 0.028376 
215.12796 0.047135 
215.164658 0.169685 
216.867813 0.032481 
217.001968 0.099139 
219.938736 0.031158 
219.976807 0.099457 
220.91658 0.644826 
220.935196 0.489057 
221.003967 0.264724 
221.084366 0.698385 
221.153427 0.072923 
222.926834 0.036271 
223.028091 1.238462 
224.027298 0.036253 
225.007385 1.390101 
225.023865 0.125199 
225.148788 0.034525 
225.185196 0.168892 
226.006424 0.107942 
226.931381 0.423184 
227.106812 0.441726 
227.201096 1.238699 
227.919647 0.028332 
228.109619 0.040465 
228.964813 0.032488 
229.180664 0.031289 
232.780319 0.032926 
232.924835 0.042914 
232.974319 0.035654 
235.997925 0.029915 
237.220886 0.030729 
238.053772 0.031847 
238.931839 0.041755 
239.020142 0.031463 
239.201019 0.038551 
241.216995 1.690246 
243.195541 0.372082 
248.079468 0.120594 
250.947662 0.075137 
252.072327 0.186021 
253.216553 0.814828 
254.051407 0.040266 
254.065857 0.033825 
255.23288 8.208898 
256.235565 0.875412 
257.153717 0.075951 
258.251953 1.229237 
259.2547 0.170265 
260.872986 3.418729 
261.874817 0.067703 
262.868256 0.319491 
263.165619 0.036756 
264.157745 0.862322 
265.147461 0.950375 
265.160645 0.029442 
266.149536 0.034102 
267.232758 0.08001 
269.248474 1.041444 
270.921387 0.036029 
272.901825 0.027863 
274.881226 0.035343 
275.94046 0.028635 
279.232239 0.067519 
279.856049 0.05092 
280.930328 0.052336 
281.248566 3.013487 
282.250946 0.558491 
282.994171 0.559804 
283.264282 14.316479 
283.993713 0.031971 
284.267731 3.830051 
284.974304 1.042639 
285.040741 0.034914 
285.269897 0.330068 
285.973755 0.045969 
287.896271 0.091393 
293.178406 0.307119 
294.993896 0.143681 
295.227661 0.10688 
297.045898 0.067725 
297.151855 0.445651 
297.242432 0.711188 
297.279236 0.154589 
298.989075 0.200437 
299.025055 0.396148 
299.042908 0.03157 
301.022858 0.034948 
301.217377 1.15475 
302.21933 0.131184 
303.231903 0.433005 
303.845978 0.03292 
306.942535 0.451828 
307.194824 0.039601 
311.168579 1.635631 
311.294678 0.113038 
312.171906 0.105835 
313.237335 0.300092 
318.174774 0.478883 
319.17218 2.192048 
320.173431 0.039363 
321.208862 0.193722 
323.167877 0.239456 
323.837494 0.034419 
324.965973 0.700045 
325.18396 14.974344 
325.309814 0.030766 
326.187347 2.261621 
327.542725 0.032654 
328.199036 0.121041 
328.219818 0.040341 
331.248627 0.03551 
333.186249 0.033785 
337.183563 0.304836 
337.346344 0.339189 
339.199768 1.643539 
340.202423 0.074867 
342.961548 0.07463 
346.919556 0.049308 
347.822418 0.033129 
348.898895 0.278672 
351.199585 0.043136 
353.216217 0.119007 
355.958984 0.032847 
357.013123 0.521121 
358.012817 0.084301 
358.991608 0.118492 
362.949524 0.082382 
367.356201 0.416742 
368.200134 0.075664 
368.361053 0.340357 
370.214233 0.70794 
371.217896 0.069686 
375.026398 0.029992 
381.229126 0.135418 
381.371338 0.034668 
382.376648 1.136025 
383.213043 0.034911 
383.352997 1.851555 
383.378357 0.226215 
383.999176 0.153236 
384.355438 0.33622 
384.932159 0.183599 
385.000214 0.258266 
385.189209 0.041637 
385.235931 0.034483 
385.998871 0.076342 
402.742737 0.036486 
404.26593 0.037386 
405.409302 0.130722 
405.927429 0.053835 
406.087769 0.081715 
407.118073 0.078097 
409.405334 0.038696 
416.870758 0.038693 
421.309692 0.032991 
421.403137 0.04111 
421.438904 0.090221 
423.152008 0.059047 
424.151428 0.044777 
424.511932 0.038839 
432.901367 0.22551 
435.17746 0.044211 
435.38147 0.039037 
446.971161 0.457811 
447.924408 0.862116 
448.924408 0.106826 
449.397766 0.045054 
453.141296 0.030601 
456.944397 0.03262 
464.327179 0.088057 
464.359161 0.046149 
464.452667 0.150602 
464.980499 0.030946 
465.302094 54.973484 
465.339233 35.561634 
465.375793 0.228455 
465.39679 0.074322 
465.428772 2.858847 
465.465546 7.018271 
466.305389 16.776312 
466.342621 11.35734 
466.43161 0.99486 
466.468964 2.328141 
467.304199 3.50092 
467.342407 1.809305 
467.409668 0.296475 
467.444763 2.294197 
467.477234 0.100423 
468.30365 0.225389 
468.344879 0.036213 
468.445923 0.04414 
END IONS

