BEGIN IONS
PEPMASS=823.436
CHARGE=1+
COMPOUNDNAME=MoNA:746314 Nodularin
LIBRARYQUALITY=3
SMILES=N/A
INCHIKEY=IXBQSRWSVIBXNC-HSKGSTCASA-N
INCHI=InChI=1S/C41H60N8O10/c1-8-31-38(54)48-34(40(57)58)26(5)36(52)46-29(15-12-20-44-41(42)43)37(53)45-28(25(4)35(51)47-30(39(55)56)18-19-33(50)49(31)6)17-16-23(2)21-24(3)32(59-7)22-27-13-10-9-11-14-27/h8-11,13-14,16-17,21,24-26,28-30,32,34H,12,15,18-20,22H2,1-7H3,(H,45,53)(H,46,52)(H,47,51)(H,48,54)(H,55,56)(H,57,58)(H4,42,43,44)/b17-16+,23-21+,31-8-/t24-,25-,26-,28-,29-,30+,32-,34+/m0/s1
MSLEVEL=2
SOURCE_INSTRUMENT=LC-ESI-QFT-LC-ESI-QFT
FILENAME=output_mgf.mgf
SEQ=*..*
IONMODE=
ORGANISM=MONA
NAME=MoNA:746314 Nodularin [M-H]-
PI=MoNA
DATACOLLECTOR=MoNA
PUBMED=N/A
SUBMITUSER=mwang87
TAGS=
SPECTRUMID=CCMSLIB00000566784
SCANS=4035
58.0298 2.53145 
58.0411 0.944637 
66.0349 2.97633 
67.0189 0.371849 
67.0302 2.342581 
69.0346 0.398605 
70.0299 0.431037 
70.0662 0.32894 
71.0503 0.284628 
72.0092 0.875259 
72.0455 9.385452 
73.0295 4.476214 
74.0247 13.7201 
80.0506 1.136555 
81.022 0.32062 
81.0459 0.4428 
82.0298 13.511825 
83.0615 1.115147 
84.0455 26.153846 
85.0295 1.169371 
86.0248 0.371927 
86.0612 1.349682 
91.0554 1.614787 
94.0298 0.799485 
94.0663 0.362258 
95.0378 1.016679 
95.0614 0.377032 
96.0455 3.901453 
96.082 0.409682 
97.0408 0.358902 
98.0247 0.839481 
98.0612 5.34875 
100.0041 1.661792 
100.0405 1.047649 
101.072 2.111358 
102.056 2.351207 
106.0661 0.417972 
107.0249 0.250424 
107.0502 0.290259 
108.0455 1.899537 
108.0567 0.306017 
108.0819 1.671534 
109.0407 1.677721 
110.0248 40.622061 
110.0612 2.330988 
111.0326 2.09337 
111.0563 1.657033 
112.0404 21.389457 
112.0768 3.142631 
112.088 1.404749 
113.0721 40.10587 
114.0561 2.229695 
121.0406 0.793986 
121.0532 1.306573 
122.0486 4.555456 
122.0611 2.533968 
122.0975 1.423439 
123.0325 2.127769 
123.0565 1.007546 
124.0404 4.137191 
124.0767 1.35334 
125.0355 0.23303 
125.0719 0.219527 
126.0559 0.387831 
127.0513 5.290415 
128.0353 100.0 
129.0389 0.288886 
130.0509 3.548918 
130.0986 1.708764 
131.0866 9.903397 
135.0564 1.051176 
136.0403 0.385975 
136.0516 1.00154 
136.0767 2.349166 
137.072 23.359707 
138.056 13.879762 
138.0672 6.50345 
139.0513 7.488463 
139.0876 1.468554 
140.0717 2.704761 
140.0827 1.443926 
141.0668 1.642225 
142.0509 0.777673 
145.0616 0.472922 
146.0459 0.37747 
149.0719 4.367727 
150.0558 1.362312 
150.0924 0.341522 
151.0877 2.107788 
152.0718 1.187175 
153.1031 1.742213 
154.0985 1.777523 
155.0825 1.946635 
155.0937 0.302914 
156.0779 1.029846 
163.0875 1.738657 
164.0717 2.280412 
166.0744 0.201188 
168.1139 2.529306 
169.0978 0.232762 
171.118 0.393194 
176.108 0.868425 
178.0984 0.896024 
179.0825 0.862648 
180.1143 3.979058 
181.0982 5.285661 
198.1246 0.81725 
206.0937 0.229873 
END IONS

