BEGIN IONS
PEPMASS=599.455
CHARGE=1+
COMPOUNDNAME=deferrioxamine E
LIBRARYQUALITY=3
SMILES=N/A
INCHIKEY=NHKCCADZVLTPPO-UHFFFAOYSA-N
INCHI=InChI=1S/C27H48N6O9/c34-22-10-14-26(38)32(41)20-8-3-6-18-30-24(36)12-15-27(39)33(42)21-9-2-5-17-29-23(35)11-13-25(37)31(40)19-7-1-4-16-28-22/h40-42H,1-21H2,(H,28,34)(H,29,35)(H,30,36)
MSLEVEL=2
SOURCE_INSTRUMENT=N/A-Linear Ion Trap
FILENAME=library_mgf.mgf
SEQ=*..*
IONMODE=negative
ORGANISM=MONA
NAME=deferrioxamine E M-H
PI=MoNA
DATACOLLECTOR=MoNA:VF-NPL-LTQ001799
PUBMED=N/A
SUBMITUSER=mwang87
TAGS=
SPECTRUMID=CCMSLIB00004685954
SCANS=1575
265.059998 100.0 
END IONS

