BEGIN IONS
PEPMASS=1051.58
CHARGE=1+
COMPOUNDNAME=Tomatine
LIBRARYQUALITY=3
SMILES=N/A
INCHIKEY=REJLGAUYTKNVJM-SGXCCWNXSA-N
INCHI=InChI=1S/C50H83NO21/c1-20-7-12-50(51-15-20)21(2)32-28(72-50)14-26-24-6-5-22-13-23(8-10-48(22,3)25(24)9-11-49(26,32)4)65-45-40(63)37(60)41(31(18-54)68-45)69-47-43(71-46-39(62)36(59)34(57)29(16-52)66-46)42(35(58)30(17-53)67-47)70-44-38(61)33(56)27(55)19-64-44/h20-47,51-63H,5-19H2,1-4H3/t20-,21-,22-,23-,24+,25-,26-,27+,28-,29+,30+,31+,32-,33-,34+,35+,36-,37+,38+,39+,40+,41-,42-,43+,44-,45+,46-,47-,48-,49-,50-/m0/s1
MSLEVEL=2
SOURCE_INSTRUMENT=N/A-ESI-QFT
FILENAME=library_mgf.mgf
SEQ=*..*
IONMODE=positive
ORGANISM=MONA
NAME=Tomatine [M+NH4]+
PI=MoNA
DATACOLLECTOR=MoNA:VF-NPL-QEHF026718
PUBMED=N/A
SUBMITUSER=mwang87
TAGS=
SPECTRUMID=CCMSLIB00004719788
SCANS=26718
72.790001 0.021539 
73.028435 31.742918 
73.687157 0.039019 
73.843727 0.078487 
73.882538 0.163331 
74.031776 0.207852 
74.747673 0.08586 
74.787529 0.100464 
77.038597 0.679735 
77.044968 0.143729 
77.218689 0.110667 
78.046425 0.029248 
79.054253 24.829617 
80.049477 4.047426 
80.057579 0.91061 
81.033516 20.979155 
81.052826 0.039357 
81.057304 0.251575 
81.069901 21.371855 
81.930725 0.104809 
82.036797 0.713159 
82.065201 3.487551 
82.073219 0.645919 
83.012779 1.683752 
83.049133 1.175283 
83.085548 1.969259 
83.540421 0.075729 
84.080833 13.490113 
84.083694 0.043804 
85.028442 100.0 
85.084114 0.376728 
85.377335 0.083087 
85.472343 0.114771 
86.031784 4.940949 
86.09642 0.54591 
86.710915 0.095516 
87.0326 0.028501 
87.044113 3.878995 
87.836174 0.033508 
88.028961 0.098793 
88.1968 0.08296 
88.884911 0.091079 
89.783295 0.110724 
90.026588 0.023171 
90.620003 0.033983 
90.933571 0.110321 
91.039001 3.764493 
91.054253 31.224323 
91.120422 0.087294 
91.553864 0.110327 
92.04232 0.021248 
92.057556 2.007949 
93.053215 0.018813 
93.057358 0.088527 
93.069946 19.764856 
94.065163 8.193426 
94.073219 1.215123 
94.159935 0.073328 
95.049156 8.972675 
95.068726 0.302151 
95.072945 2.808467 
95.085556 13.910105 
95.350533 0.088366 
95.406425 0.019891 
96.019257 0.114296 
96.052544 0.089443 
96.076851 0.030139 
96.080788 6.137895 
96.088829 0.749561 
97.028458 58.940193 
97.064873 0.169738 
97.084183 0.256131 
97.088501 0.020273 
97.101242 0.047538 
98.031776 3.874677 
98.096481 4.019601 
98.975243 0.188752 
99.04409 6.207002 
99.076736 0.109711 
99.099792 0.019468 
99.933975 0.029934 
101.0233 2.086779 
101.819832 0.167487 
101.926201 0.098228 
102.932259 0.104279 
103.00415 0.030847 
103.039062 0.368506 
103.054192 1.201115 
103.912872 0.109637 
105.044739 1.665174 
105.069931 51.646854 
105.428329 0.115945 
106.065163 0.13082 
106.07325 5.026372 
107.049011 0.034699 
107.072937 0.089991 
107.085518 16.945129 
107.08934 0.081904 
108.080711 4.81818 
108.08886 0.738669 
109.024208 0.042392 
109.028458 12.060593 
109.032356 0.132471 
109.064796 1.445814 
109.084358 0.156347 
109.088593 3.515122 
109.097 0.038292 
109.101158 8.380253 
110.031776 0.462546 
110.092201 0.184596 
110.096336 2.90105 
110.104553 0.222186 
110.35022 0.089238 
111.043938 0.236089 
111.100014 0.041022 
111.104073 0.036248 
112.075768 0.563361 
112.112076 0.201398 
113.647682 0.07776 
114.086884 0.027154 
114.091354 8.023049 
115.039017 3.904503 
115.054268 1.436053 
115.094727 0.20077 
115.605095 0.10937 
116.062027 0.260154 
116.985596 0.042182 
117.069885 10.578968 
117.413216 0.085156 
117.981201 0.159351 
118.073128 0.490293 
118.638138 0.113162 
119.0606 0.097066 
119.080879 0.221042 
119.085564 23.84911 
119.261185 0.114877 
120.080841 0.153557 
120.088844 2.508833 
120.296928 0.11317 
121.044296 0.077381 
121.064812 0.043123 
121.08847 0.039998 
121.101212 6.470947 
122.09642 2.336938 
122.104454 0.290487 
122.527603 0.100623 
123.04393 0.028081 
123.080467 0.128923 
123.104286 0.305878 
123.116707 0.583155 
124.107262 0.055544 
124.11216 16.664682 
125.023407 0.022063 
125.110649 0.020963 
125.115402 0.684942 
125.119972 0.305792 
126.127747 17.047335 
127.039017 10.254036 
127.111549 0.030346 
127.131203 0.722715 
128.042297 0.089219 
128.062057 1.627259 
128.106796 0.077692 
128.533264 0.156402 
128.608093 0.158881 
128.986069 0.080515 
129.065186 0.027249 
129.069824 4.035232 
130.073166 0.027413 
130.077759 1.051098 
130.486572 0.075017 
130.854538 0.124139 
131.019638 0.097803 
131.085587 12.454511 
132.088867 0.848269 
132.093658 0.022533 
133.075897 0.020674 
133.101181 11.136473 
134.096252 0.450784 
134.104462 0.558803 
135.080673 0.029255 
135.11676 2.549995 
136.075226 0.104388 
136.112167 0.63503 
136.788956 0.105516 
137.096298 0.021879 
137.115265 0.019974 
138.127731 7.009521 
138.396637 0.126417 
138.478714 0.085703 
138.671143 0.020601 
139.038956 0.076513 
139.130844 0.370484 
139.136322 0.025003 
139.884811 0.099876 
139.965057 0.119563 
140.143494 0.466458 
141.069962 0.402949 
141.146545 0.028785 
141.420166 0.100498 
142.077789 0.842556 
142.12326 0.028965 
143.080002 0.022666 
143.085571 4.667288 
143.447983 0.104742 
143.611649 0.145104 
144.088242 0.042522 
144.093643 0.801523 
145.049622 0.815491 
145.101257 17.529053 
146.104523 2.232669 
146.626114 0.130417 
147.116821 17.974352 
147.411621 0.096147 
148.106308 0.023767 
148.112167 2.436077 
148.120071 1.665191 
148.447083 0.121582 
149.096069 0.026973 
149.114777 0.023707 
149.120621 0.027816 
149.132523 1.664141 
149.456543 0.018218 
150.127914 3.033806 
151.11171 0.032736 
151.131134 0.040398 
152.143173 0.19979 
152.533737 0.071758 
155.060852 0.11238 
155.085602 0.713133 
156.279022 0.13795 
156.932648 0.036455 
157.101303 4.451554 
159.021912 0.037284 
159.116852 14.013955 
160.120056 1.537887 
161.095703 0.035387 
161.132523 35.201847 
162.127792 3.051923 
162.135818 5.003402 
162.773697 0.143395 
163.111633 0.037434 
163.13118 0.039652 
164.143631 2.768428 
165.146896 0.041847 
166.159012 0.042893 
166.214737 0.153299 
168.09407 0.019117 
168.186249 0.098468 
168.523422 0.147899 
169.101074 0.540808 
170.109222 0.024505 
171.116776 2.853807 
173.132599 7.717769 
174.12822 0.032262 
174.135849 0.410093 
175.148056 0.123372 
176.143234 0.834597 
176.15213 0.09817 
178.159241 0.277557 
180.113754 0.099193 
180.90033 0.099921 
181.100632 0.023773 
182.10907 0.024671 
183.11705 0.597704 
184.564468 0.089579 
185.132553 1.916199 
186.140472 0.034285 
187.148178 0.670139 
188.143539 0.066336 
190.158722 0.024705 
195.11705 0.02945 
196.615402 0.106727 
197.132446 0.290416 
198.139801 0.024924 
199.148163 2.143515 
200.1427 0.022683 
200.151886 0.044284 
202.158585 0.029578 
205.674438 0.144104 
210.214462 0.117065 
211.148026 0.165167 
211.400574 0.11202 
212.155563 0.026106 
213.164139 0.321246 
213.478729 0.103447 
213.75679 0.140833 
213.800827 0.100684 
215.180191 0.026663 
216.174423 0.033238 
219.592102 1.055496 
225.164108 0.03886 
227.178894 0.166678 
227.34787 0.158912 
234.18158 0.074534 
237.028351 0.044153 
239.687454 0.142742 
250.704254 0.019378 
250.751495 0.152478 
251.179672 0.027518 
253.195068 0.205392 
255.000946 0.042114 
255.210602 3.073777 
256.101562 0.144361 
256.214172 0.095452 
257.495148 0.116525 
263.907928 0.02595 
266.929138 0.110166 
267.02948 0.089811 
276.470978 0.141057 
276.82193 0.136123 
278.269806 0.105481 
291.205414 0.15422 
291.268799 0.133768 
300.074158 0.084779 
301.114532 0.137337 
303.695129 0.156522 
305.475616 0.121776 
310.975433 0.119028 
316.585449 0.092574 
325.045135 0.075364 
328.811035 0.142581 
330.394623 0.155623 
337.332947 0.10695 
342.112152 0.039347 
357.594788 0.18593 
362.658569 0.038585 
368.293243 0.100915 
372.857727 0.087199 
378.315002 0.042021 
380.330078 1.940024 
381.334686 0.441568 
396.325806 0.583699 
398.341583 6.745023 
399.345459 1.392718 
400.348358 0.024745 
406.166107 0.174962 
408.705383 0.037877 
410.320282 0.093069 
411.376373 0.105246 
412.321045 0.038987 
412.354095 0.165078 
414.336487 0.592113 
415.342041 0.047832 
419.217957 0.037793 
420.113037 0.115744 
426.337738 0.041308 
434.861542 0.035948 
447.346283 0.40427 
448.349731 0.023617 
451.80658 0.090754 
462.337067 0.10817 
473.678711 0.111848 
477.756714 0.110336 
478.036957 0.084043 
479.404907 0.080737 
489.572662 0.090534 
528.784058 0.039158 
549.976257 0.115152 
550.850159 0.085592 
560.393677 3.322065 
561.396851 0.557523 
562.398315 0.024484 
568.89209 0.020242 
576.38739 0.024633 
588.559692 0.157241 
630.393494 0.088846 
669.22113 0.095379 
709.793518 0.108465 
712.796997 0.094885 
722.447937 0.042255 
723.450256 0.037529 
724.468079 0.102684 
762.568848 0.021983 
778.094055 0.131913 
780.191711 0.093863 
780.436523 0.167304 
788.559509 0.183019 
791.508667 0.092981 
794.765076 0.089908 
813.935303 0.099291 
819.61499 0.1074 
868.391296 0.125989 
872.390381 0.117588 
884.504395 0.024864 
884.98645 0.157523 
885.507751 0.022433 
887.8974 0.122907 
902.603027 0.167351 
910.471191 0.093614 
939.617981 0.128871 
952.375244 0.142602 
965.893616 0.133315 
968.559082 0.024203 
971.578064 0.116282 
984.001038 0.038312 
996.09613 0.118024 
996.402466 0.149403 
1004.02124 0.128561 
1012.334473 0.108321 
1048.311646 0.127997 
1057.591919 0.021016 
1073.785034 0.090871 
END IONS

