BEGIN IONS
PEPMASS=639.311
CHARGE=1+
COMPOUNDNAME=deferrioxamine E
LIBRARYQUALITY=3
SMILES=N/A
INCHIKEY=NHKCCADZVLTPPO-UHFFFAOYSA-N
INCHI=InChI=1S/C27H48N6O9/c34-22-10-14-26(38)32(41)20-8-3-6-18-30-24(36)12-15-27(39)33(42)21-9-2-5-17-29-23(35)11-13-25(37)31(40)19-7-1-4-16-28-22/h40-42H,1-21H2,(H,28,34)(H,29,35)(H,30,36)
MSLEVEL=2
SOURCE_INSTRUMENT=N/A-ESI-QFT
FILENAME=library_mgf.mgf
SEQ=*..*
IONMODE=positive
ORGANISM=MONA
NAME=deferrioxamine E [M+K]+
PI=MoNA
DATACOLLECTOR=MoNA:VF-NPL-QEHF004059
PUBMED=N/A
SUBMITUSER=mwang87
TAGS=
SPECTRUMID=CCMSLIB00004695122
SCANS=4059
50.62785 0.146263 
51.452427 0.813042 
51.737526 0.019373 
51.852215 0.143077 
52.372623 0.871853 
52.405918 1.796582 
52.806408 0.070997 
52.930634 2.189155 
52.966633 0.353808 
53.003059 0.099255 
53.039429 0.042398 
53.235497 2.070217 
53.422379 0.075483 
53.496098 1.648719 
54.034733 0.052573 
54.124599 0.02049 
54.169636 0.152573 
55.018684 3.04342 
55.055038 2.851326 
55.056431 0.033846 
55.935196 0.825579 
56.022179 0.027275 
56.048752 2.572203 
56.050285 3.09619 
56.148552 0.020314 
56.942844 0.082214 
56.965584 100.0 
57.034267 0.182958 
57.05373 0.025406 
57.070679 3.054434 
57.072273 0.020733 
57.097473 1.798759 
57.572945 0.167224 
57.600853 0.065599 
57.676506 0.018918 
58.065987 0.032206 
58.504025 1.519428 
59.037132 1.273511 
59.049908 0.043409 
59.061268 0.045629 
59.63044 0.076689 
59.648781 1.74617 
59.821499 1.48424 
59.961899 0.158497 
60.045235 0.13507 
60.141083 1.201221 
60.735821 0.023539 
61.342274 0.074277 
61.51347 0.858495 
62.512016 1.421674 
62.627628 1.794255 
62.635601 1.554047 
62.660686 0.158529 
63.750786 2.101738 
64.729698 1.850754 
65.039368 0.130659 
65.298798 1.847731 
65.499847 1.686957 
65.844154 0.069163 
65.989525 2.147066 
66.02787 1.47211 
66.173355 1.857491 
67.055008 3.966835 
67.333649 1.857439 
67.930038 1.976262 
68.003769 1.702304 
68.050194 0.152691 
68.063011 0.021992 
68.142609 0.076204 
68.843681 0.020558 
69.034248 0.04325 
69.070625 9.193959 
69.235718 1.891746 
69.238564 1.056481 
70.015816 0.179882 
70.029434 0.039541 
70.065872 3.528511 
70.073959 0.191733 
70.180725 2.314758 
70.584877 0.839166 
70.958618 0.029198 
70.981163 0.10006 
71.049927 0.130069 
71.069382 0.032384 
71.08625 0.992317 
71.576569 0.817111 
71.612366 2.265926 
71.926369 1.872221 
71.930016 0.183607 
71.952675 0.352328 
72.045128 1.684611 
72.08149 0.259801 
72.937889 3.968985 
72.960457 0.298691 
73.029129 0.917 
73.065552 0.041797 
73.922798 1.396926 
74.097168 0.226048 
74.166069 1.69157 
74.487206 1.956265 
74.668716 2.021217 
74.976257 0.284233 
76.040115 0.053775 
76.062515 1.91271 
76.324409 0.078449 
78.163048 1.523634 
78.627403 0.366444 
79.054947 1.157612 
80.05014 0.490995 
80.23893 1.500939 
80.549408 1.544342 
80.640205 0.157757 
81.019165 0.040097 
81.045471 0.02889 
81.070686 3.372587 
81.913254 0.020851 
82.029434 0.081825 
82.065788 2.615389 
83.049805 0.040508 
83.069283 0.035411 
83.086273 0.224064 
83.386223 1.943581 
83.796059 1.793626 
83.912971 0.973125 
83.976364 0.12048 
84.015198 0.355501 
84.045052 2.370947 
84.047661 0.02763 
84.081421 43.409054 
84.523483 0.867662 
84.60923 1.790469 
84.852768 0.023311 
85.048485 0.049 
85.065445 0.112547 
85.08477 1.312218 
85.089272 2.180728 
85.09185 0.022657 
85.101685 0.156937 
86.060646 0.052729 
86.092667 0.041564 
86.097031 3.951541 
86.824707 1.757492 
87.044632 0.896995 
88.03994 0.038721 
88.048241 0.025452 
88.076347 0.12763 
88.991776 0.028287 
89.060303 0.84294 
89.964241 0.523958 
90.063446 0.524466 
90.459923 1.793452 
90.948311 1.662092 
91.054832 0.277323 
91.0578 0.147737 
91.066887 0.02913 
92.694679 0.156294 
92.986694 0.029808 
93.070328 0.279609 
93.548981 2.519086 
93.933647 1.111057 
94.065765 0.444509 
94.360802 0.160077 
94.37413 0.154458 
95.04966 0.291827 
95.060959 0.029444 
95.086014 0.273751 
96.044846 0.318111 
96.068733 0.031082 
96.081146 0.384871 
96.730492 1.953067 
97.065193 0.436244 
97.076508 0.320196 
97.097961 0.166595 
97.101822 0.030764 
97.117363 0.023354 
97.775757 0.069354 
97.99176 0.550238 
98.060471 0.249042 
98.096848 0.767551 
99.044548 0.036716 
99.055801 0.029993 
99.092255 0.098402 
99.100731 0.022739 
99.818428 0.169815 
99.94841 0.473136 
100.007332 0.289295 
100.039841 15.24839 
100.076225 1.29255 
100.688087 0.144377 
100.852325 1.704297 
101.023811 0.29734 
101.043228 0.163275 
101.060295 0.02542 
101.594627 1.163156 
101.964157 0.88302 
102.091812 10.808072 
102.192116 1.499693 
103.095123 0.375294 
103.771103 0.920924 
104.091232 0.792041 
104.09861 0.02304 
104.413536 1.611243 
105.070351 0.100104 
105.815369 0.448298 
105.963692 1.905245 
106.065575 0.021582 
107.049309 0.037391 
107.085976 0.031079 
107.120308 1.372602 
108.042419 0.05116 
108.081146 0.114367 
108.490395 1.68452 
108.958611 0.32864 
109.065163 0.041584 
109.076408 0.032108 
109.102303 2.016005 
109.991875 0.407107 
110.060387 1.253781 
110.084244 0.031122 
110.096916 0.576257 
110.645607 0.208032 
111.063515 0.025802 
111.080605 0.032942 
111.091484 0.187718 
111.834312 0.147722 
111.919525 0.360637 
112.007187 0.279055 
112.039642 1.421969 
112.076042 0.39512 
112.112427 0.091466 
112.173088 0.177434 
113.964005 0.181828 
114.05558 0.026124 
114.091736 0.198944 
114.935417 0.11154 
115.00708 3.194115 
115.039345 0.540148 
115.979576 0.704496 
116.002174 0.053047 
116.0345 0.238742 
116.042648 0.196419 
116.070816 0.026606 
116.963814 0.044444 
117.02282 0.175912 
117.04364 0.031592 
117.958832 0.820138 
118.017822 0.04701 
118.058083 1.477438 
119.061493 0.10048 
119.451653 0.075341 
119.495102 0.878271 
119.974571 0.046539 
120.081116 0.95978 
120.958122 0.161516 
121.016029 1.701781 
121.028877 0.039349 
121.065262 0.104443 
121.076477 0.028754 
121.084518 0.032006 
121.101776 0.039273 
122.057793 0.931485 
122.096817 0.454642 
122.974091 0.03205 
123.005501 0.050334 
123.055573 0.028174 
123.092117 0.239589 
123.377258 1.389153 
124.039574 0.028314 
124.076073 0.179524 
124.099739 0.032567 
124.112061 0.026605 
124.977005 2.205986 
125.009865 1.941387 
125.053337 0.369088 
125.060081 0.022107 
125.071335 0.04236 
125.45005 0.155399 
126.055222 0.219296 
126.091568 0.089848 
126.811478 0.179208 
127.925629 0.073477 
127.979424 0.270552 
128.002014 1.220497 
128.034317 0.148618 
128.10733 0.087086 
128.920654 1.415447 
128.963501 0.334552 
128.986099 0.596259 
129.070007 0.021905 
129.958679 0.196434 
129.995193 0.024863 
130.017746 7.986711 
130.050156 0.294591 
130.966568 0.028073 
131.085846 0.034754 
131.974442 0.934125 
132.033569 0.032704 
132.081161 0.02475 
133.017395 1.476655 
133.270691 1.947257 
133.953629 0.049167 
133.989929 0.044718 
134.012634 0.046264 
134.060623 0.027823 
134.096741 0.038588 
134.974106 0.056183 
134.996674 0.041287 
135.032913 0.859949 
135.091766 0.091195 
135.969391 0.107645 
136.076019 0.179559 
136.9888 2.088604 
137.071182 0.036405 
137.107468 0.794778 
137.986328 0.099027 
138.055069 0.174521 
138.0914 6.361879 
138.102905 0.036408 
138.11087 0.039662 
138.12796 0.112144 
139.075928 0.033628 
139.087051 0.173615 
139.095154 0.127786 
139.979523 0.199423 
140.001587 0.283525 
140.070541 0.188458 
140.107224 0.18239 
140.143326 0.308198 
141.995087 0.185419 
142.017609 3.279569 
142.12291 0.25016 
142.979019 0.027602 
143.974228 1.276642 
144.033371 3.40282 
144.102066 0.113344 
144.958069 0.187171 
144.969666 0.084269 
145.989914 1.279025 
146.012558 1.120299 
146.973969 0.04292 
146.996429 2.737942 
147.118759 1.955925 
147.969254 0.190597 
148.028091 22.904358 
148.07579 0.038607 
148.094055 2.004771 
148.989487 0.112525 
149.107712 0.046428 
149.985031 0.286548 
150.091125 0.054329 
150.519287 0.161052 
150.956619 0.028953 
151.01799 3.348292 
151.12326 0.114633 
151.978104 0.025543 
152.021606 0.157596 
152.07016 0.053721 
153.033585 1.361681 
153.102707 0.043187 
153.995087 0.562032 
154.086441 0.266363 
154.990036 0.126689 
155.049133 7.611933 
155.090363 0.027101 
155.974243 0.29119 
155.996719 15.57288 
156.010696 0.522502 
156.033096 4.587628 
156.102158 0.107239 
157.065079 0.424183 
157.990036 0.665869 
158.012329 0.257546 
158.02655 0.183482 
158.048996 1.056075 
158.672989 2.199577 
159.969131 0.265407 
160.005646 0.558181 
160.028122 3.978801 
160.977173 0.046386 
161.984909 0.312225 
162.043869 1.399343 
162.649414 2.301852 
162.968933 0.031593 
163.123474 0.040083 
164.000565 0.570293 
164.022797 0.027467 
164.105972 0.02252 
164.879562 0.076432 
165.033798 0.162204 
165.102524 1.041829 
165.139023 0.083751 
166.038818 1.071032 
166.047775 0.365494 
166.086365 6.894875 
167.049118 0.602787 
167.082748 0.025368 
167.090393 0.138091 
167.117798 0.12258 
168.102036 1.088448 
169.006226 0.074779 
169.028534 1.194542 
169.064651 0.077087 
169.363495 1.682509 
169.451263 0.076144 
169.883453 2.093126 
169.990128 0.122103 
170.048584 0.158639 
170.985077 0.293915 
171.021652 1.794735 
171.044113 1.194648 
171.969238 0.054438 
172.005585 0.879448 
172.02832 0.40473 
172.064285 0.033336 
172.999847 0.040099 
173.02327 0.026528 
173.037399 0.96861 
173.059723 3.694655 
173.984909 0.439155 
174.007446 16.050598 
174.02124 0.098554 
174.04393 4.239077 
175.053009 0.409212 
176.0009 0.032574 
176.023056 0.03874 
176.059494 0.511928 
176.733932 1.803982 
177.101593 0.032739 
178.01683 0.041993 
178.039124 0.320409 
178.639252 1.720907 
178.987946 0.028518 
179.055237 0.160153 
179.117035 0.110999 
179.995132 0.026788 
180.054688 0.033149 
180.06279 0.044414 
181.006073 0.106345 
182.049026 0.446787 
183.022064 0.04665 
183.044189 3.970692 
183.507828 0.411109 
184.005905 0.101078 
184.06459 1.18539 
184.096664 0.747906 
185.000961 0.328137 
185.037582 0.121167 
185.059708 4.67237 
185.100983 0.034541 
185.984879 0.249444 
186.021423 0.302058 
186.044357 0.3909 
186.07991 2.915112 
187.029587 0.031653 
187.075211 0.439047 
187.984528 0.182966 
188.000412 0.148375 
188.023285 0.229877 
188.059509 0.696044 
188.995728 0.56249 
189.345245 2.190757 
189.979813 1.685877 
191.297882 1.859185 
192.01828 1.101811 
192.054321 0.341848 
193.065109 0.41304 
193.09552 0.04095 
194.048798 0.029317 
195.021164 0.037273 
195.079666 2.266595 
195.111557 0.032783 
196.064484 0.211175 
197.000854 0.084735 
197.060059 0.521248 
197.98494 0.035508 
198.021515 0.110879 
198.080185 0.698766 
199.015945 0.543482 
199.074966 0.032319 
200.001205 0.039817 
200.023178 0.487623 
200.037033 0.580621 
200.059753 0.217431 
200.995255 0.035792 
201.032028 0.224533 
201.054993 0.557278 
201.123077 0.02888 
202.016815 0.027963 
202.038788 0.034637 
202.075089 4.25141 
202.343323 1.483987 
203.070343 0.810911 
203.995377 0.085079 
204.032394 0.029738 
204.054672 0.207368 
204.091232 7.352927 
205.094543 1.669249 
206.034073 0.040537 
207.990341 0.928824 
209.037186 0.043525 
209.059692 1.393335 
209.964066 0.077613 
210.021378 0.190593 
210.304016 1.592801 
211.052216 0.03363 
211.075424 40.213783 
211.486877 0.164475 
212.00116 0.033232 
212.037216 0.637493 
212.059433 0.507558 
212.078766 0.389417 
213.008835 0.028661 
213.031006 0.101521 
213.055252 0.08122 
213.090698 3.916842 
214.038742 0.135792 
214.052505 0.488388 
214.075638 2.190675 
215.011841 0.027885 
215.070328 0.050943 
215.107101 0.171882 
216.090927 1.682596 
217.063034 0.127039 
218.03363 0.966823 
218.06871 0.025153 
219.0056 0.028942 
219.588821 17.622969 
219.613373 0.917945 
220.085892 0.027669 
220.751846 1.262427 
221.037155 0.244335 
221.059921 0.038925 
221.081223 0.075086 
221.334198 1.518268 
222.005569 0.024886 
222.101532 1.106958 
223.016312 0.045358 
223.075607 0.23202 
224.05896 0.029703 
225.032135 0.196575 
225.090958 0.643173 
226.016083 0.044436 
226.074554 0.028112 
227.011292 0.033536 
227.04776 0.228994 
227.070496 0.559384 
228.032593 0.047926 
228.054352 0.274325 
229.064407 0.091656 
229.08609 22.806618 
230.048309 0.028556 
230.069748 2.168886 
230.089264 0.127855 
230.669724 0.910094 
231.080063 0.267492 
231.102005 0.435329 
233.117508 0.077812 
236.070923 0.171439 
237.031952 0.447413 
238.566055 0.197801 
239.047791 0.844344 
239.070557 7.557358 
240.051849 0.038639 
241.026947 0.047327 
241.063919 0.036222 
241.085983 1.321418 
241.123047 0.131908 
242.070007 0.367156 
243.042831 0.04223 
243.102661 2.442636 
248.080612 0.422109 
251.107117 0.041205 
253.026215 0.04711 
255.042694 0.24829 
255.06485 0.030526 
255.102158 0.029241 
256.046478 0.026647 
256.07428 0.09839 
257.058411 0.515144 
257.08136 5.468727 
259.096649 0.840543 
259.709442 0.976006 
263.154663 0.198033 
267.101044 0.055655 
269.081573 0.031725 
269.117188 0.479891 
271.097351 0.032736 
274.297943 0.025028 
281.402405 1.095304 
285.111481 0.029574 
291.657043 0.074271 
293.056915 1.514699 
294.233582 2.10447 
294.610077 0.164143 
295.096741 0.054933 
298.939117 0.071918 
302.791199 2.3465 
302.850708 0.025734 
305.442474 2.284709 
310.632263 0.167643 
311.521362 1.838559 
315.468475 1.679897 
316.99704 1.969294 
330.474335 0.935241 
335.19519 0.908727 
336.196899 1.857795 
342.217163 0.996363 
356.606628 3.040723 
359.185272 0.851309 
370.240997 2.544244 
374.637299 0.075903 
376.113373 1.696084 
380.487122 0.955789 
381.933075 1.681681 
404.31131 1.847698 
405.39975 2.229021 
409.262451 1.630212 
413.626434 1.623597 
414.134186 1.362088 
419.828064 2.078752 
420.232178 1.579131 
429.45108 0.087233 
432.515503 1.266867 
447.347809 0.126773 
454.03418 2.773802 
457.724731 1.890391 
464.619598 0.026608 
464.991852 1.045615 
472.102234 1.921038 
487.171143 2.274403 
497.054962 0.34519 
501.407257 0.174894 
529.349915 0.086916 
531.624878 0.167761 
532.380798 1.6437 
538.558594 0.432831 
542.026917 0.997473 
568.609314 0.087219 
572.528809 2.128813 
610.035461 1.442349 
629.338196 1.319623 
632.422058 2.000919 
639.764099 0.085036 
652.009155 0.078634 
654.644226 1.951685 
656.934692 1.820063 
END IONS

