BEGIN IONS
PEPMASS=403.035
CHARGE=1+
COMPOUNDNAME=(4R,6S,8S,9Z,11E)-16-chloro-17,19-dihydroxy-4-methyl-3,7-dioxatricyclo[13.4.0.0?,?]nonadeca-1(15),9,11,16,18-pentaene-2,13-dione
LIBRARYQUALITY=3
SMILES=N/A
INCHIKEY=WYZWZEOGROVVHK-RPJJWQTDSA-N
INCHI=InChI=1S/C18H17ClO6/c1-9-6-15-14(25-15)5-3-2-4-10(20)7-11-16(18(23)24-9)12(21)8-13(22)17(11)19/h2-5,8-9,14-15,21-22H,6-7H2,1H3/b4-2+,5-3-/t9-,14+,15+/m1/s1
MSLEVEL=2
SOURCE_INSTRUMENT=N/A-ESI-QFT
FILENAME=library_mgf.mgf
SEQ=*..*
IONMODE=positive
ORGANISM=MONA
NAME=(4R,6S,8S,9Z,11E)-16-chloro-17,19-dihydroxy-4-methyl-3,7-dioxatricyclo[13.4.0.0?,?]nonadeca-1(15),9,11,16,18-pentaene-2,13-dione [M+K]+
PI=MoNA
DATACOLLECTOR=MoNA:VF-NPL-QEHF022113
PUBMED=N/A
SUBMITUSER=mwang87
TAGS=
SPECTRUMID=CCMSLIB00004713176
SCANS=22113
51.557953 0.491191 
51.940262 0.205288 
52.031918 0.345531 
52.861977 0.44064 
53.002594 0.24824 
53.038872 9.519504 
54.937904 0.17183 
55.018135 9.017855 
55.05452 21.031075 
55.93465 3.422098 
56.049801 1.05126 
56.869114 0.30175 
56.942448 0.268523 
56.96505 16.353842 
57.033775 1.234427 
57.070137 37.513645 
57.935036 1.587241 
58.065357 0.743454 
58.073353 0.271752 
58.752811 0.306171 
59.930511 0.21988 
60.338936 0.384887 
60.420406 0.465191 
60.930946 0.513324 
61.010876 16.439131 
61.341297 0.418668 
61.969765 0.333895 
62.44244 0.445492 
62.605705 0.341237 
64.000626 0.412598 
64.64267 0.486606 
64.856888 0.389951 
65.038704 9.066121 
65.282806 0.346822 
67.018021 1.126414 
67.054367 38.36274 
67.899986 0.31972 
68.049561 15.860405 
68.057831 0.681066 
68.800316 0.481163 
68.997215 5.139464 
69.033577 32.71096 
69.069954 6.263107 
70.028709 2.165083 
70.036713 0.37301 
70.06517 2.087206 
70.957886 3.652953 
71.049187 21.432035 
71.085533 12.006572 
71.551994 0.446133 
71.895889 0.282284 
71.951782 0.356772 
72.044487 0.581967 
72.937134 6.086407 
73.028336 1.375074 
74.562492 0.395866 
74.831657 0.19192 
74.930885 4.649281 
75.494133 0.308441 
76.131767 0.262207 
76.927925 0.297154 
77.038528 1.684357 
77.778534 0.527897 
79.021179 3.924901 
79.05423 16.81708 
79.404205 0.369349 
79.775749 0.509643 
80.049423 6.739513 
80.057487 0.230731 
80.080391 0.179917 
80.302193 0.27005 
81.033524 7.515787 
81.057312 0.719831 
81.069878 13.078162 
81.853043 0.289917 
82.065132 0.926803 
83.049133 3.69138 
83.085533 0.394304 
83.358978 0.303648 
84.044365 1.298187 
84.080673 0.417597 
85.028358 1.259065 
85.101189 1.924275 
86.060066 2.545551 
86.754959 0.262544 
87.044106 0.360063 
88.968323 0.583005 
90.947647 1.942822 
91.054237 32.051552 
92.049507 0.656095 
92.057503 1.455254 
92.060501 0.465355 
93.033524 4.836878 
93.057182 1.301669 
93.069878 16.194035 
93.2481 0.268621 
93.687813 0.48814 
94.036903 0.277615 
94.065109 23.827345 
94.073059 0.918966 
95.045639 0.235525 
95.049103 39.31498 
95.06839 0.789421 
95.085457 7.338163 
95.899513 0.460598 
96.04435 15.672634 
96.052391 0.340515 
96.055588 0.305489 
97.028343 1.213117 
97.064728 2.449209 
98.97551 0.298054 
100.705399 0.441202 
103.054298 5.005016 
103.28508 0.283291 
103.431831 0.440947 
105.044762 4.099115 
105.069901 5.286539 
105.174438 0.307514 
106.065048 4.733625 
107.049072 2.644076 
107.085587 0.268439 
108.601006 0.305072 
108.958382 0.260289 
109.028389 0.567924 
109.064789 0.402241 
110.036362 0.338023 
110.060013 9.86769 
110.096298 1.770919 
111.007729 0.825989 
111.044052 3.490349 
115.054199 3.117173 
116.963272 1.442044 
116.984688 0.221697 
117.03318 0.267328 
117.069992 2.285869 
117.139694 0.180574 
118.842621 0.480294 
118.9804 0.194293 
119.04921 1.284904 
119.08548 1.661256 
120.044426 2.3464 
120.080765 19.695246 
120.940567 0.326523 
121.028381 37.571987 
121.032936 0.89723 
121.064728 8.111596 
121.084045 2.804405 
122.031662 0.992675 
122.068443 0.390636 
122.940926 0.284937 
124.237663 0.447329 
125.023346 2.527436 
125.059975 0.314874 
126.98362 0.192361 
128.963699 1.073885 
129.018143 2.977002 
129.069809 0.775734 
129.982651 0.394267 
130.587189 0.435899 
130.979141 1.120461 
131.000076 0.897327 
131.049088 4.268129 
132.958145 1.237165 
133.064713 4.27904 
134.060028 0.826631 
134.956207 2.377873 
135.043991 2.882669 
135.080353 0.326553 
137.023438 0.341455 
137.880203 0.422856 
138.984192 0.674774 
139.038879 9.555473 
139.054321 0.339904 
140.98465 0.205396 
141.070602 0.63783 
142.979095 0.224674 
143.293671 0.35593 
144.044342 0.256796 
144.618118 0.273279 
145.004944 0.447672 
145.028381 3.773389 
145.064743 1.198972 
146.974289 5.808427 
147.002136 1.339412 
147.043945 4.339232 
147.080582 0.361288 
147.974777 0.2232 
148.051895 1.898743 
148.972031 8.064792 
149.023453 1.201036 
150.055161 2.8719 
150.951096 2.711569 
150.969482 0.701213 
151.039001 0.717502 
152.951797 0.672143 
152.966415 0.408946 
153.054672 1.006155 
153.069595 0.246939 
153.959305 2.120679 
154.989365 32.167465 
155.007263 1.945511 
155.049515 0.215735 
155.992508 5.98816 
156.986496 57.027416 
156.993637 0.759042 
157.005157 2.887809 
157.064941 0.372237 
157.989914 2.988687 
158.184937 0.286453 
159.001877 6.44197 
160.051712 2.196803 
161.059753 21.704735 
162.030594 0.32463 
162.054626 0.187553 
162.063034 1.491046 
162.203964 0.327197 
163.038925 8.685413 
164.0466 6.265377 
164.070328 0.356244 
165.069931 0.579867 
166.979507 0.180278 
167.03363 2.331826 
167.226807 0.526401 
168.1521 0.189426 
168.961288 0.327309 
168.995514 0.24339 
169.005127 1.794441 
169.064194 0.82432 
171.001999 5.694624 
171.043549 0.284786 
172.636398 0.26477 
173.059982 0.742487 
174.618088 0.478397 
175.039948 0.276508 
176.046844 1.992921 
177.054642 1.856451 
180.888092 1.91519 
181.00502 2.938999 
181.049484 0.894238 
181.075989 0.388301 
182.009216 0.78566 
182.083862 5.939422 
182.984421 3.054359 
183.002197 13.770512 
183.091675 6.611563 
184.00621 0.808984 
184.9814 5.792148 
185.059753 2.539285 
187.03862 0.642351 
189.05452 100.0 
189.068924 0.453722 
190.0578 18.607677 
191.033829 0.586142 
191.059052 1.083575 
191.070618 0.192696 
192.041595 27.812437 
192.961792 0.299614 
193.046158 5.937958 
195.044632 0.198988 
196.99971 3.446113 
197.017776 0.196347 
197.05983 0.636192 
198.004883 0.660237 
198.996872 10.40152 
199.015396 2.048128 
199.127121 0.477281 
200.000839 1.532498 
200.019974 2.59444 
200.137833 0.431605 
200.976349 0.405371 
200.994827 13.493418 
201.012466 19.279114 
201.054001 0.448592 
201.998383 3.885517 
202.016357 0.603006 
202.991852 36.278538 
203.995682 1.730798 
204.041626 1.284932 
205.048874 0.188559 
206.057404 0.404913 
207.06517 8.997412 
208.03653 5.296237 
208.069061 0.48787 
208.099365 0.46829 
209.000381 0.232232 
209.106995 0.457971 
210.979446 12.401452 
210.996841 3.457253 
211.982483 5.870019 
212.070053 1.222699 
212.080276 0.200929 
212.976181 32.211971 
213.054626 0.795693 
213.979767 1.956093 
214.061874 1.748751 
216.041595 0.744469 
217.712021 0.365462 
219.052658 0.479325 
219.06514 52.998615 
219.689438 2.396563 
219.703476 2.482022 
220.068604 10.721104 
220.304596 0.483211 
221.070297 0.337799 
222.113388 0.470273 
222.898666 22.144915 
222.910065 0.268328 
222.919342 0.277993 
223.015839 0.406126 
223.059662 1.607074 
223.900497 0.213033 
224.898972 2.315046 
225.012711 0.341117 
226.894669 0.294308 
227.010178 1.265572 
228.014191 1.205342 
228.041229 0.499634 
229.007599 12.164221 
229.049042 0.232239 
229.896225 0.236858 
230.055923 0.205212 
233.0177 0.267561 
233.044388 0.425165 
233.107361 12.176 
233.273804 0.459703 
235.059799 0.208859 
235.086258 0.775016 
237.098068 0.51491 
238.690247 0.332412 
239.714874 0.483023 
240.909241 26.466249 
241.006973 1.610053 
241.908478 0.824831 
242.057312 0.709231 
242.909637 7.185172 
243.065903 0.203831 
244.060013 0.248849 
244.904602 0.324281 
245.107712 1.085514 
249.013168 0.340515 
249.478867 0.466722 
251.057922 0.347773 
252.439682 0.291518 
252.935013 0.214914 
256.16861 0.472402 
259.086823 0.365893 
259.988647 0.493962 
260.98407 0.416761 
262.999847 0.249603 
263.971039 0.553481 
267.231079 0.319796 
268.772186 0.400326 
270.944794 0.617294 
272.984772 0.183389 
273.624451 0.445922 
281.908417 0.573085 
281.961639 0.191777 
283.263062 1.132698 
285.096039 0.178894 
292.071533 0.362873 
295.860291 0.312378 
296.800262 0.531633 
298.940887 0.259924 
299.970917 2.477715 
306.339691 0.333999 
337.225647 0.521376 
361.084106 0.593383 
366.161102 0.503139 
371.458862 0.310693 
377.80426 0.183208 
385.394531 0.540552 
388.088867 0.186876 
394.720428 0.454925 
404.333252 0.199139 
414.904816 0.183039 
426.287628 0.19573 
428.988983 0.191106 
END IONS

