BEGIN IONS
PEPMASS=268.104
CHARGE=1+
COMPOUNDNAME=Adenosine
LIBRARYQUALITY=3
SMILES=N/A
INCHIKEY=OIRDTQYFTABQOQ-KQYNXXCUSA-N
INCHI=InChI=1S/C10H13N5O4/c11-8-5-9(13-2-12-8)15(3-14-5)10-7(18)6(17)4(1-16)19-10/h2-4,6-7,10,16-18H,1H2,(H2,11,12,13)/t4-,6-,7-,10-/m1/s1
MSLEVEL=2
SOURCE_INSTRUMENT=N/A-ESI-QFT
FILENAME=library_mgf.mgf
SEQ=*..*
IONMODE=positive
ORGANISM=MONA
NAME=Adenosine [M+H]+
PI=MoNA
DATACOLLECTOR=MoNA:VF-NPL-QEHF000391
PUBMED=N/A
SUBMITUSER=mwang87
TAGS=
SPECTRUMID=CCMSLIB00004691454
SCANS=391
50.126373 0.004489 
51.282883 0.010548 
51.807137 0.005078 
51.840073 0.010328 
52.804405 0.007046 
53.122292 0.007652 
53.861233 0.00926 
55.018642 0.268412 
56.957684 0.068927 
57.034241 0.562586 
58.830677 0.006829 
59.04995 0.037405 
59.696583 0.01008 
61.011391 6.49268 
61.029152 0.01879 
62.010796 0.012441 
62.01474 0.09342 
63.007229 0.273386 
63.59697 0.00564 
65.960419 0.005981 
67.128471 0.004687 
67.511032 0.01118 
68.862717 0.010637 
69.034195 0.100699 
70.037277 0.004413 
71.013466 0.040614 
72.05455 0.010132 
72.073029 0.00458 
73.029099 0.333401 
74.359291 0.008828 
75.332191 0.011395 
76.481445 0.00514 
76.989647 0.00514 
78.285454 0.005189 
78.3461 0.005469 
80.022873 0.007578 
80.054565 0.008818 
81.49485 0.009039 
81.812546 0.00933 
84.896072 0.008212 
85.028946 0.481947 
85.872086 0.009575 
86.523895 0.0104 
87.044601 0.068112 
89.945175 0.008795 
91.181664 0.004774 
91.70079 0.008045 
93.070427 0.007117 
97.028755 0.143504 
97.468857 0.010784 
98.975769 0.923514 
99.235619 0.008543 
99.286377 0.007739 
101.003563 0.06143 
103.039398 0.099008 
106.653389 0.005058 
107.522179 0.011666 
109.341133 0.010842 
110.36615 0.004749 
110.981392 0.004519 
111.148766 0.005695 
111.614929 0.004683 
113.758087 0.00696 
114.948456 0.032069 
115.039223 0.455393 
116.986191 0.537655 
117.245605 0.005668 
119.035385 0.020433 
122.941216 0.022383 
124.112259 0.319407 
124.99614 0.00915 
128.489716 0.010723 
132.958466 0.116218 
133.049576 0.546265 
133.408737 0.009946 
133.948792 0.033481 
134.955994 0.005339 
134.996597 0.102893 
136.061752 100.0 
137.058807 1.876902 
137.065079 5.55093 
137.074051 0.012109 
138.062317 0.045127 
138.068115 0.051559 
138.07756 0.010692 
138.951263 0.009347 
141.528305 0.012346 
145.017456 0.011376 
146.976334 0.197629 
147.974915 0.032114 
148.971817 4.09266 
149.97261 0.033402 
149.97435 0.028409 
150.077423 0.157746 
150.951096 0.282146 
150.967972 0.245261 
152.951294 0.165648 
152.967422 0.013755 
153.959366 0.02468 
154.947067 0.032989 
155.847778 0.01311 
157.75029 0.01201 
161.787811 0.006156 
162.951111 0.187168 
164.951248 0.10087 
165.938065 0.120227 
166.982361 0.729685 
167.954239 0.007391 
168.816559 0.0064 
168.917038 0.126832 
168.96167 0.02577 
168.982544 0.176457 
170.913666 0.011323 
170.977661 0.020953 
174.640747 0.009885 
175.123001 0.01069 
176.989151 0.468268 
177.938263 0.183905 
179.963974 0.006431 
180.961441 0.310401 
181.393188 0.010706 
182.241684 0.010677 
182.962326 0.089487 
183.948944 0.051112 
184.956985 0.030889 
185.964218 0.072282 
186.92778 0.467618 
187.190002 0.010149 
188.458374 0.006674 
188.924774 0.099728 
190.966232 0.838935 
191.964447 0.536226 
191.996231 0.006806 
192.961594 13.211335 
193.473923 0.01071 
193.964218 0.626198 
194.961929 0.571845 
194.99054 0.00869 
194.999802 0.545667 
195.9487 0.096856 
195.959824 0.011668 
196.957352 0.333744 
196.995239 0.013256 
197.974167 0.008329 
200.563675 0.009288 
202.204926 0.009439 
207.991257 0.10735 
208.976715 0.466676 
209.974915 0.42781 
210.972153 7.552334 
211.974472 0.460973 
212.972824 1.182918 
213.009811 0.005755 
213.946167 0.060733 
213.97438 0.007462 
214.967865 0.538681 
216.963409 0.234924 
216.978149 0.09045 
216.994553 0.013364 
224.987839 0.101043 
225.738419 0.009608 
229.201324 0.007855 
243.499207 0.00918 
248.545441 0.010379 
248.984283 0.00964 
250.177689 0.040577 
258.226013 0.013243 
261.130676 0.421652 
268.103912 1.571866 
269.106598 0.113671 
269.135498 0.186371 
271.347229 0.010649 
273.166534 0.037258 
274.143982 0.008438 
275.146301 0.027801 
284.330872 0.010733 
287.804993 0.011669 
289.161682 0.03191 
289.828522 0.00843 
289.848785 0.008583 
290.174835 0.914508 
291.177582 0.112397 
310.644379 0.009632 
END IONS

