BEGIN IONS
PEPMASS=155.034
CHARGE=1+
COMPOUNDNAME=Patulin
LIBRARYQUALITY=3
SMILES=N/A
INCHIKEY=ZRWPUFFVAOMMNM-UHFFFAOYSA-N
INCHI=InChI=1S/C7H6O4/c8-6-3-4-5(11-6)1-2-10-7(4)9/h1,3,7,9H,2H2
MSLEVEL=2
SOURCE_INSTRUMENT=N/A-ESI-QFT
FILENAME=library_mgf.mgf
SEQ=*..*
IONMODE=positive
ORGANISM=MONA
NAME=Patulin [M+H]+
PI=MoNA
DATACOLLECTOR=MoNA:VF-NPL-QEHF025928
PUBMED=N/A
SUBMITUSER=mwang87
TAGS=
SPECTRUMID=CCMSLIB00004716991
SCANS=25928
50.156437 0.009372 
50.224941 0.012163 
50.601593 0.009554 
51.476551 0.045384 
51.729939 0.01 
53.00251 0.348713 
53.038887 0.40078 
53.05574 0.008114 
54.593933 0.008383 
55.018116 0.628557 
55.054512 0.355818 
55.055901 0.009528 
55.330296 0.008338 
56.021408 0.016424 
56.025951 0.016042 
56.049751 0.204223 
56.965038 1.933973 
57.033787 0.054081 
57.070198 0.061543 
57.343956 0.008623 
57.632713 0.009436 
57.713398 0.007746 
58.06538 0.273309 
58.29644 0.009571 
58.988148 0.579159 
59.930454 0.05567 
60.481663 0.278039 
60.930706 0.009132 
61.010845 2.143216 
61.649658 0.011098 
62.018654 1.045391 
62.661316 0.007931 
62.990086 0.522521 
63.006565 0.011051 
63.185562 0.008908 
63.238373 0.010057 
63.997871 3.260806 
64.938362 0.007879 
66.010132 0.013443 
66.360558 0.007938 
66.541687 0.00865 
66.8218 0.008015 
66.85202 0.0082 
67.017937 0.233918 
67.054321 0.840906 
67.992981 1.520838 
67.997292 0.008104 
68.494774 0.013865 
68.991043 0.104942 
68.997169 0.132995 
69.033569 1.769551 
69.069908 0.285713 
69.352058 0.008127 
69.486526 0.916624 
69.968559 0.009441 
69.989655 0.010665 
70.036804 0.010138 
70.065247 0.029424 
70.484581 0.033502 
70.98027 0.0118 
71.012787 0.473151 
71.049171 1.760495 
71.051239 0.018534 
71.08548 0.009997 
71.483215 0.024904 
71.903801 0.00918 
71.942657 0.009308 
72.153961 0.012603 
72.657143 0.009932 
72.982567 0.008233 
73.04689 0.062028 
73.076057 0.354821 
73.705208 0.008313 
74.953796 0.008184 
74.97538 0.450239 
75.000931 0.026742 
75.043839 0.100562 
76.92794 0.145313 
76.998222 9.993129 
77.497849 0.067306 
77.500053 0.414836 
77.987915 0.154582 
77.996185 1.098896 
78.000351 0.012824 
78.013466 0.24786 
78.407394 0.012447 
78.491837 1.337813 
78.600716 0.007604 
78.81797 0.009525 
78.994774 0.393724 
79.01696 0.042833 
79.021194 67.967346 
79.054222 0.152089 
79.293327 0.008017 
79.48954 0.024284 
80.024635 0.011952 
80.049278 0.008432 
80.057693 0.017579 
80.590836 0.009237 
81.017052 0.038517 
81.033531 0.323905 
81.069893 0.209189 
82.065163 0.066439 
82.25544 0.008832 
82.467361 0.05761 
82.971283 0.106344 
83.01268 0.374446 
83.04908 0.0585 
83.060471 0.010344 
83.085464 0.150167 
84.006096 0.438571 
84.020592 1.672888 
84.080627 0.009491 
85.003929 0.009665 
85.023888 0.011205 
85.028435 0.697327 
85.49971 0.01266 
86.003532 33.168289 
86.060005 0.250662 
86.50293 0.138098 
86.505455 1.323664 
87.001465 3.427936 
87.005714 0.328708 
87.04406 0.019252 
87.497063 0.522227 
87.722519 0.015777 
88.000008 1.470011 
88.00296 0.009645 
88.997803 0.011963 
89.790535 0.012757 
89.979103 0.325019 
89.999107 0.022307 
90.482796 2.866782 
90.499062 0.010054 
90.977135 0.050228 
90.984703 0.146604 
91.054268 0.07451 
91.05735 0.486356 
91.480698 0.781654 
91.976479 0.395614 
92.05703 0.047493 
92.479332 0.10171 
92.974258 0.053022 
92.985771 0.010798 
93.011368 1.796657 
93.05423 0.422662 
93.069855 0.285664 
93.141953 0.012637 
93.513329 0.009953 
94.009148 0.097713 
94.065132 0.028481 
94.073257 0.033602 
95.008881 9.117089 
95.012566 0.867294 
95.04924 0.023608 
95.060379 0.138723 
95.085442 0.476912 
95.510605 0.301273 
96.006752 0.980144 
96.010399 0.030282 
96.080917 0.009443 
97.005348 0.371747 
97.028412 0.901173 
97.064941 0.120433 
97.101456 0.010301 
97.511665 0.116879 
97.994522 3.310042 
98.031776 0.03589 
98.059723 0.009899 
98.496422 0.249302 
98.984322 1.019937 
98.992447 1.033703 
99.007736 0.281948 
99.044083 2.286454 
99.48822 31.882776 
99.982224 0.131441 
99.990372 2.432715 
100.047302 0.060012 
100.486183 9.276465 
100.489983 0.426668 
100.981766 0.421185 
100.987923 0.124969 
101.107689 0.009702 
101.484619 2.147754 
101.488083 0.030843 
101.594017 0.008207 
101.979645 0.099167 
102.016678 0.374641 
102.482613 0.043798 
102.978233 0.008627 
103.483017 0.025545 
104.013855 0.046497 
106.492516 0.013909 
106.496033 1.310559 
106.651161 0.011945 
106.999954 38.837601 
107.085403 0.087926 
107.493736 0.247023 
107.501884 4.393713 
107.989685 1.678671 
107.997902 12.676846 
108.001472 0.509668 
108.493408 100.0 
108.502373 0.098063 
108.987015 0.255829 
108.995285 9.066474 
109.028442 0.600105 
109.076279 0.015734 
109.101044 0.198847 
109.491386 28.846214 
109.495285 1.796168 
109.986801 0.107235 
109.992844 0.855503 
109.997368 0.010006 
110.064461 0.013494 
110.071259 1.975544 
110.096306 0.189971 
110.48983 7.339342 
110.991577 0.091328 
110.995926 0.194647 
111.007553 0.018105 
111.043999 0.132347 
111.080391 0.068548 
111.487785 0.512762 
111.491829 0.015996 
111.993958 0.026978 
112.015488 0.883873 
112.086929 0.020594 
112.488434 0.214149 
112.84066 0.008693 
112.947044 0.014519 
113.019173 0.009911 
113.023376 0.237921 
114.00782 1.864476 
114.08213 0.011977 
114.509422 0.104637 
114.9972 0.027013 
115.005745 0.59195 
115.485901 0.009218 
115.501366 5.404709 
115.997917 0.060377 
116.005219 77.385376 
116.485451 0.014986 
116.499046 1.164526 
116.506599 9.968596 
117.003059 25.296026 
117.012878 0.01498 
117.498726 15.708071 
117.50396 1.089471 
117.508667 0.016793 
118.001534 7.285242 
118.131126 0.00846 
118.496696 4.604142 
118.501076 0.286903 
118.507736 0.185671 
118.999428 0.570615 
119.495049 1.103275 
119.505898 0.011431 
119.955521 0.019507 
119.996758 0.013566 
120.001137 0.781491 
120.493156 0.034914 
120.503593 0.014477 
120.999466 0.087261 
121.493736 0.008124 
122.060028 0.22489 
122.509132 0.022165 
122.931175 0.025762 
122.947449 0.009503 
123.007912 0.32174 
123.012917 4.030916 
123.514702 0.57576 
124.010948 1.505734 
124.506577 0.740273 
124.512047 0.009417 
125.01049 4.452405 
125.02327 0.580772 
125.490356 0.022204 
125.504501 0.076468 
125.511963 0.548463 
126.008362 1.506344 
126.026573 0.05034 
126.503731 0.049974 
126.760277 0.008778 
127.006882 0.279268 
127.038872 4.924678 
127.513222 0.404359 
128.014633 0.016357 
128.042297 0.243418 
128.510956 0.043303 
128.870529 0.011448 
129.509369 0.01664 
130.020798 0.011582 
130.981873 0.076075 
131.033707 0.053864 
132.018341 0.086694 
132.737701 0.009836 
133.016632 0.015522 
133.672775 0.00795 
134.978745 0.246758 
137.001923 0.011704 
137.023102 0.014727 
137.107208 0.355847 
137.917679 0.030867 
138.495407 0.008752 
139.012222 0.009276 
140.010315 0.240599 
140.984375 0.08888 
141.018265 0.486215 
141.063736 0.008335 
142.02124 0.013737 
142.515823 0.011105 
143.028488 0.01031 
143.034027 0.05282 
148.99353 0.012667 
152.941513 0.045254 
152.989166 0.262735 
153.018341 0.015237 
153.056656 0.144828 
153.073929 0.010058 
153.959427 0.037025 
154.049698 0.073773 
154.086136 0.107673 
154.097473 0.053548 
154.122498 0.604394 
154.158966 0.041089 
155.033722 2.756603 
155.053482 0.013338 
155.117752 0.340803 
155.129013 0.023751 
155.154144 0.432356 
155.164413 0.012942 
155.928558 0.070682 
155.954834 0.019817 
155.961716 0.017224 
156.037216 0.11991 
156.076324 0.045775 
156.081192 0.031372 
156.10173 0.795407 
156.113174 0.011746 
156.138245 0.357736 
156.174744 0.064064 
157.08345 0.080213 
157.104324 0.011882 
157.169998 0.168415 
157.951492 0.010377 
165.426041 0.012792 
170.045151 0.012796 
170.952057 0.295322 
171.028748 0.219108 
171.960236 0.011266 
172.152893 0.011226 
END IONS

