BEGIN IONS
PEPMASS=101.036
CHARGE=1+
COMPOUNDNAME=CYCLOSERINE
LIBRARYQUALITY=3
SMILES=N/A
INCHIKEY=DYDCUQKUCUHJBH-UWTATZPHSA-N
INCHI=InChI=1S/C3H6N2O2/c4-2-1-7-5-3(2)6/h2H,1,4H2,(H,5,6)/t2-/m1/s1
MSLEVEL=2
SOURCE_INSTRUMENT=N/A-ESI-QFT
FILENAME=library_mgf.mgf
SEQ=*..*
IONMODE=negative
ORGANISM=MONA
NAME=CYCLOSERINE [M-H]-
PI=MoNA
DATACOLLECTOR=MoNA:VF-NPL-QEHF027815
PUBMED=N/A
SUBMITUSER=mwang87
TAGS=
SPECTRUMID=CCMSLIB00004721396
SCANS=27815
51.054218 0.012905 
51.226761 0.018728 
51.312023 0.015645 
51.449944 0.015457 
51.493404 0.021339 
51.596432 0.014857 
52.134418 0.013239 
52.159729 0.013044 
52.277138 0.015942 
52.325916 0.015359 
52.615719 0.013644 
53.03751 0.014883 
53.459976 0.012673 
54.646893 0.012881 
54.676666 0.015541 
54.899742 0.01466 
56.340572 0.013538 
57.033169 0.106772 
57.896912 0.013757 
57.992027 3.787271 
58.028378 0.01518 
59.012348 0.01444 
59.805206 0.014035 
60.320152 0.013948 
60.565464 0.01291 
60.99176 0.012835 
61.88615 0.014724 
61.951389 0.014415 
62.138493 0.012296 
62.541756 0.013774 
62.782036 0.01388 
62.817848 0.011657 
67.089363 0.016039 
67.095856 0.014115 
68.254494 0.020785 
68.883133 0.01329 
69.649467 0.013799 
70.285957 0.016116 
70.762688 0.013031 
72.13353 0.020197 
72.377815 0.021654 
72.487793 0.018827 
76.897453 0.015586 
78.685493 0.014372 
78.825851 0.015627 
79.955986 0.107744 
81.95179 2.544735 
81.96022 0.181428 
82.074303 0.015425 
82.952759 0.071951 
83.709129 0.015949 
83.788162 0.012786 
83.929565 0.032256 
84.702339 0.01311 
84.949707 0.022076 
85.122192 0.014147 
85.683182 0.015026 
86.53096 0.012045 
88.186996 0.015431 
88.50029 0.012909 
88.979637 0.014565 
90.225487 0.014991 
90.777245 0.016178 
91.563492 0.016491 
93.945358 0.014718 
94.152336 0.023526 
95.112701 0.013644 
97.929962 0.073858 
98.937798 0.608612 
98.948135 3.174573 
98.954651 39.131683 
98.962807 7.978701 
98.972916 0.134135 
99.007622 0.019274 
99.018646 0.746129 
99.043373 0.016682 
99.906647 0.045095 
99.924454 28.959417 
99.943092 0.056201 
99.958916 0.059118 
99.962448 0.017596 
100.688179 0.016966 
100.705864 0.01442 
100.91423 0.024226 
100.92469 3.21035 
100.932289 43.965752 
100.944733 4.222707 
100.95063 0.076058 
100.953865 0.200792 
100.958916 1.483317 
101.034294 1.798527 
101.055725 0.020544 
101.059418 2.038867 
101.404579 0.01563 
101.922737 0.260881 
101.932411 5.021559 
102.014915 0.014528 
102.018349 0.960639 
102.062912 0.045929 
102.930634 0.360059 
102.936554 0.019518 
103.039024 0.016281 
104.812576 0.015256 
104.955208 0.016716 
105.246407 0.016441 
107.514107 0.017738 
113.924881 1.084175 
114.692986 0.012369 
115.897682 0.460936 
115.919441 100.0 
115.943398 0.459464 
116.919594 11.499011 
116.926689 1.784906 
117.917847 1.071744 
117.923515 0.395698 
117.927734 0.018487 
119.080711 0.019528 
121.198296 0.021146 
122.815475 0.017 
124.034355 0.012935 
END IONS

