BEGIN IONS
PEPMASS=224.5
CHARGE=1+
COMPOUNDNAME=Massbank:KO004040 Sisomicin|Antibiotic 6640|Dehydrogentamicin Cla|Rickamicin
LIBRARYQUALITY=3
SMILES=NCC(=C3)O[C@@H]([C@H](N)C3)O[C@H]([C@@H](N)1)[C@H](O)[C@@H](O[C@@H](O2)[C@H](O)[C@@H](NC)[C@](C)(O)C2)[C@H](N)C1
INCHIKEY=URWAJWIAIPFPJE-GYHYWALZSA-N
INCHI=1S/C19H37N5O7/c1-19(27)7-28-18(13(26)16(19)24-2)31-15-11(23)5-10(22)14(12(15)25)30-17-9(21)4-3-8(6-20)29-17/h3,9-18,24-27H,4-7,20-23H2,1-2H3/t9-,10+,11-,12+,13-,14-,15+,16-,17-,18-,19+/m1/s1
MSLEVEL=2
SOURCE_INSTRUMENT=ESI-LC-ESI-QQ
FILENAME=Massbank_ESI_positive_8_1_2014_peaks.mgf
SEQ=*..*
IONMODE=Positive
ORGANISM=MASSBANK
NAME=Massbank:KO004040 Sisomicin|Antibiotic 6640|Dehydrogentamicin Cla|Rickamicin [M+2H]++
PI=Putative Massbank Match
DATACOLLECTOR=Massbank
PUBMED=N/A
SUBMITUSER=mwang87
TAGS=
SPECTRUMID=CCMSLIB00000220601
SCANS=9832
30.4 29703.0 
40.9 69307.0 
41.3 24752.5 
42.1 391089.5 
42.9 212871.5 
44.1 559406.5 
45.0 74257.5 
53.3 138614.0 
55.3 549505.5 
56.2 1024753.5 
57.2 688119.5 
58.1 2400992.5 
59.0 113861.5 
60.3 351485.5 
65.1 1559407.5 
66.1 29703.0 
67.0 1237625.0 
68.2 3608914.5 
69.0 584159.0 
70.1 2069309.0 
71.0 2297032.0 
72.2 5445550.0 
72.9 445545.0 
74.0 524753.0 
76.9 54455.5 
78.6 34653.5 
79.0 138614.0 
80.2 5054460.5 
81.1 1678219.5 
82.2 7490106.5 
83.2 1128714.0 
84.3 6742581.0 
84.9 608911.5 
86.2 3405944.0 
87.3 237624.0 
88.1 569307.5 
92.1 4257430.0 
93.1 589109.5 
94.3 623763.0 
95.2 321782.5 
96.1 846535.5 
97.2 212871.5 
98.1 1000001.0 
99.1 2891092.0 
100.0 2990102.0 
101.2 460396.5 
102.0 1034654.5 
106.1 84158.5 
107.1 118812.0 
108.1 272277.5 
109.4 4529707.5 
110.3 5658421.5 
111.0 316832.0 
112.2 3094062.5 
113.2 589109.5 
114.2 683169.0 
118.2 509901.5 
118.6 113861.5 
120.4 113861.5 
121.2 148515.0 
123.3 74257.5 
124.0 123762.5 
126.5 79208.0 
127.1 1945546.5 
128.2 198020.0 
128.8 34653.5 
129.2 44554.5 
130.7 19802.0 
131.5 19802.0 
132.1 34653.5 
133.8 44554.5 
134.2 34653.5 
135.2 113861.5 
136.3 74257.5 
138.8 44554.5 
140.0 59406.0 
142.1 277228.0 
145.3 242574.5 
146.1 143564.5 
147.2 44554.5 
149.1 29703.0 
149.5 24752.5 
156.4 34653.5 
158.1 49505.0 
159.1 29703.0 
160.2 103960.5 
161.3 24752.5 
163.1 202970.5 
173.3 1074258.5 
174.3 34653.5 
175.4 29703.0 
190.0 9901.0 
199.0 19802.0 
201.1 44554.5 
226.0 34653.5 
226.4 44554.5 
END IONS

