BEGIN IONS
PEPMASS=285.154
CHARGE=1+
COMPOUNDNAME=N-acetyltryptophan
LIBRARYQUALITY=3
SMILES=N/A
INCHIKEY=DZTHIGRZJZPRDV-UHFFFAOYSA-N
INCHI=InChI=1S/C13H14N2O3/c1-8(16)15-12(13(17)18)6-9-7-14-11-5-3-2-4-10(9)11/h2-5,7,12,14H,6H2,1H3,(H,15,16)(H,17,18)
MSLEVEL=2
SOURCE_INSTRUMENT=N/A-Linear Ion Trap
FILENAME=library_mgf.mgf
SEQ=*..*
IONMODE=positive
ORGANISM=MONA
NAME=N-acetyltryptophan M-H
PI=MoNA
DATACOLLECTOR=MoNA:VF-NPL-LTQ000466
PUBMED=N/A
SUBMITUSER=mwang87
TAGS=
SPECTRUMID=CCMSLIB00004684732
SCANS=353
191.490005 2.452152 
211.960007 7.038571 
220.449997 0.997026 
222.929993 12.843893 
226.0 12.811784 
233.5 14.680793 
240.979996 2.837585 
246.5 1.756727 
255.320007 1.409452 
255.529999 100.0 
263.079987 1.791123 
264.829987 9.841901 
275.929993 4.212319 
END IONS

