BEGIN IONS
PEPMASS=176.104
CHARGE=1+
COMPOUNDNAME=HMDB:HMDB00904-1286 Citrulline
LIBRARYQUALITY=3
SMILES=N[C@@H](CCCNC(N)=O)C(O)=O
INCHIKEY=RHGKLRLOHDJJDR-BYPYZUCNSA-N
INCHI=InChI=1S/C6H13N3O3/c7-4(5(10)11)2-1-3-9-6(8)12/h4H,1-3,7H2,(H,10,11)(H3,8,9,12)/t4-/m0/s1
MSLEVEL=2
SOURCE_INSTRUMENT=Positive-Quattro_QQQ:10eV
FILENAME=hmdb_intermediate.mgf
SEQ=*..*
IONMODE=Positive
ORGANISM=HMDB
NAME=HMDB:HMDB00904-1286 Citrulline M+H
PI=HMDB
DATACOLLECTOR=HMDB
PUBMED=N/A
SUBMITUSER=mwang87
TAGS=
SPECTRUMID=CCMSLIB00000425414
SCANS=386
70.112 14.954 
113.013 18.493 
114.973 10.502 
158.913 100.0 
175.911 12.329 
END IONS

