BEGIN IONS
PEPMASS=582.274
CHARGE=1+
COMPOUNDNAME=Massbank: Streptomycin
LIBRARYQUALITY=3
SMILES=[H]N([H])C(N([H])[H])=NC([H])(C([H])(O[H])1)C([H])(O[H])C([H])(N=C(N([H])[H])N([H])[H])C([H])(OC([H])(O2)C([H])(OC([H])(O3)C([H])(N([H])C([H])([H])[H])C([H])(O[H])C([H])(O[H])C([H])(C([H])([H])O[H])3)C(O[H])(C([H])=O)C([H])(C([H])([H])[H])2)C([H])(O[H])1
INCHIKEY=UCSJYZPVAKXKNQ-UHFFFAOYSA-N
INCHI=1S/C21H39N7O12/c1-5-21(36,4-30)16(40-17-9(26-2)13(34)10(31)6(3-29)38-17)18(37-5)39-15-8(28-20(24)25)11(32)7(27-19(22)23)12(33)14(15)35/h4-18,26,29,31-36H,3H2,1-2H3,(H4,22,23,27)(H4,24,25,28)/t5-,6-,7+,8-,9-,10-,11+,12-,13-,14+,15+,16-,17-,18-,21+/m0/s1
MSLEVEL=2
SOURCE_INSTRUMENT=ESI-LC-ESI-QTOF
FILENAME=Massbank_ESI_positive_8_1_2014_peaks.mgf
SEQ=*..*
IONMODE=Positive
ORGANISM=MASSBANK
NAME=Massbank: Streptomycin [M+H]+
PI=Putative Massbank Match
DATACOLLECTOR=Massbank
PUBMED=N/A
SUBMITUSER=mwang87
TAGS=
SPECTRUMID=CCMSLIB00000206380
SCANS=1639
60.054 270.568 
70.0636 152.027 
72.0455 154.776 
74.0603 780.754 
82.0608 123.546 
84.0478 163.483 
85.0266 312.513 
86.0626 991.893 
97.0442 258.583 
98.0609 1079.662 
99.0546 162.742 
104.0637 119.069 
108.0472 198.696 
109.0302 287.064 
110.0587 829.75 
114.0549 292.281 
116.0742 155.763 
126.0571 501.234 
127.0538 261.086 
127.0703 102.855 
128.0764 451.181 
139.0625 154.776 
140.069 269.087 
142.0866 381.036 
144.065 475.15 
145.0499 118.576 
150.0686 115.333 
151.0514 345.224 
152.0676 123.546 
156.069 154.776 
158.081 969.686 
161.0887 194.184 
167.0977 156.997 
168.0759 514.981 
169.0688 237.117 
170.0837 118.576 
176.0919 3947.832 
179.1007 470.568 
185.1026 338.209 
186.0856 2080.367 
187.0722 226.401 
188.1023 191.963 
192.0759 153.014 
199.0783 314.522 
200.0915 546.704 
203.1115 1084.244 
204.0984 2139.232 
216.0935 155.763 
217.0947 2502.996 
218.103 539.655 
221.1232 4571.731 
228.103 192.21 
229.0912 560.804 
230.1115 150.758 
236.09 115.333 
240.0792 150.511 
244.1059 152.027 
245.121 292.563 
246.1184 8297.497 
249.1167 164.751 
256.1097 101.586 
258.0944 261.332 
261.1234 118.576 
263.1455 10000.0 
270.115 303.772 
271.1016 152.027 
274.1202 227.635 
284.1052 124.075 
286.1126 118.576 
287.1541 645.4 
288.1267 983.081 
301.16 229.397 
302.1228 484.667 
303.136 457.173 
304.1241 221.643 
305.1506 222.171 
320.141 316.003 
321.142 118.576 
328.1302 123.546 
330.1206 451.886 
346.1427 151.498 
347.1533 485.372 
348.1428 454.001 
363.1592 189.954 
365.1628 1488.192 
390.1663 1513.923 
407.1913 1691.223 
523.2291 116.32 
540.2383 523.088 
582.2707 400.775 
END IONS

