BEGIN IONS
PEPMASS=193.026
CHARGE=1+
COMPOUNDNAME=terrein
LIBRARYQUALITY=3
SMILES=N/A
INCHIKEY=MHOOPNKRBMHHEC-HZIBQTDNSA-N
INCHI=InChI=1S/C8H10O3/c1-2-3-5-4-6(9)8(11)7(5)10/h2-4,7-8,10-11H,1H3/b3-2+/t7-,8-/m0/s1
MSLEVEL=2
SOURCE_INSTRUMENT=N/A-ESI-QFT
FILENAME=library_mgf.mgf
SEQ=*..*
IONMODE=positive
ORGANISM=MONA
NAME=terrein [M+K]+
PI=MoNA
DATACOLLECTOR=MoNA:VF-NPL-QEHF021231
PUBMED=N/A
SUBMITUSER=mwang87
TAGS=
SPECTRUMID=CCMSLIB00004712294
SCANS=21231
50.251762 0.017854 
50.623703 0.014881 
50.707394 0.017534 
51.592365 0.016857 
51.940285 1.301613 
52.260208 0.018817 
52.309273 0.01355 
52.434917 0.026277 
52.435299 0.024485 
52.437927 0.02675 
52.605217 0.011667 
52.940338 0.027033 
53.038868 0.045091 
53.954247 0.017162 
54.100609 0.021048 
54.384953 0.017364 
54.937756 0.131606 
55.018089 0.025541 
55.052933 0.016953 
55.054523 0.169566 
55.212852 0.017514 
55.465591 0.02264 
55.934639 0.858849 
56.049835 0.013213 
56.942516 0.033485 
56.965054 5.805789 
57.621502 0.023651 
57.659706 0.024171 
57.707767 0.024547 
57.935051 46.066006 
58.065361 0.144583 
58.241249 0.020743 
58.457748 0.029857 
58.805923 0.012451 
58.96096 0.010848 
59.010002 0.023315 
59.049339 0.614353 
59.31292 0.027568 
59.499443 0.028546 
59.925522 0.02341 
60.138012 0.030324 
60.293083 0.020937 
60.779362 0.02315 
61.010853 27.552395 
61.391708 0.015711 
61.760899 0.009234 
61.869732 0.01443 
62.018661 1.477661 
62.068233 0.013911 
62.680061 0.010354 
62.682323 0.012716 
63.026466 0.48528 
63.121441 0.025616 
63.466957 0.032153 
63.884106 0.01069 
63.975883 0.019316 
63.997952 0.111053 
64.369209 0.016176 
64.387665 0.012656 
64.51236 0.020316 
64.533783 0.018878 
65.342651 0.012341 
65.960594 0.02639 
66.595505 0.022487 
67.054321 0.400192 
67.93499 0.235222 
67.972984 0.027801 
68.265518 0.014171 
68.643745 0.02491 
68.703697 0.021525 
68.791183 0.022455 
69.61396 0.013818 
69.785126 0.015344 
69.961014 2.409887 
70.06514 0.149715 
70.320625 0.019841 
70.896988 0.019268 
70.943329 0.012519 
70.957939 8.947782 
71.245583 0.012579 
71.884041 0.01434 
71.929337 0.046412 
71.940239 0.147815 
71.944473 0.015732 
71.958076 0.014706 
72.044388 0.058255 
72.247101 0.012473 
72.937164 4.247446 
72.95829 5.913446 
73.312431 0.022923 
73.483849 0.027749 
73.929703 2.401753 
74.060188 0.013874 
74.195541 0.020624 
74.714294 0.019202 
74.774323 0.016545 
74.937546 1.886734 
75.076324 0.025486 
75.178368 0.02508 
75.476463 0.020944 
75.945351 21.492441 
76.551582 0.03288 
76.569626 0.03458 
76.684898 0.020395 
76.998367 0.025932 
77.867516 0.022712 
78.44191 0.012432 
79.021179 1.623451 
79.05423 1.927623 
79.426582 0.028503 
80.049469 0.291692 
80.581535 0.018736 
81.069824 0.910458 
81.230453 0.012584 
81.255318 0.02378 
82.322777 0.039432 
82.426811 0.013757 
83.597221 0.026566 
83.85984 0.012795 
83.929718 0.234026 
84.044434 0.044317 
84.959671 0.779283 
85.1922 0.022636 
85.263893 0.019389 
85.542587 0.023322 
85.591515 0.014351 
85.66819 0.01872 
86.003387 0.038027 
86.006775 0.025261 
86.011864 0.019085 
86.059845 0.04006 
86.239983 0.033299 
86.952713 0.033107 
87.04406 0.049389 
87.2855 0.017634 
87.674103 0.0162 
87.760414 0.017842 
87.929298 0.010911 
87.945374 0.210873 
88.914368 0.016437 
88.936852 0.059699 
88.968414 1.218509 
89.059654 0.287353 
89.3106 0.01866 
89.939796 0.019524 
90.077522 0.024433 
90.157173 0.021199 
90.282341 0.024237 
90.947662 1.523364 
90.968773 1.091802 
91.05423 0.931847 
91.8368 0.017923 
91.940315 0.394554 
92.078255 0.012816 
92.206589 0.012941 
92.413185 0.014072 
92.646729 0.021433 
92.948074 0.275039 
93.069748 0.42273 
93.359238 0.019406 
93.530464 0.029472 
93.587646 0.01193 
93.95594 12.316777 
94.044914 0.030383 
94.832657 0.024479 
95.08548 0.210166 
97.081123 0.028744 
98.059845 0.015709 
98.342598 0.025805 
98.361458 0.014394 
98.595955 0.021134 
98.861885 0.019224 
98.975266 1.051748 
101.008369 4.599024 
101.769455 0.025176 
102.009048 0.196168 
102.054909 0.411326 
102.914711 6.613442 
102.930077 0.015367 
102.947815 0.050311 
103.054222 1.782393 
103.679077 0.021405 
103.951447 0.288017 
103.976791 0.061883 
104.930382 4.722239 
104.962898 0.014797 
105.069901 1.124067 
105.917046 0.057443 
105.955894 1.925962 
107.049118 1.336864 
107.085632 0.041771 
107.443199 0.018957 
107.832458 0.017776 
107.971504 0.099503 
108.269394 0.01405 
108.564713 0.023788 
108.979263 0.036845 
109.028229 0.114666 
109.064682 0.03715 
112.404579 0.026567 
113.946167 0.023552 
113.951157 0.024545 
114.329109 0.019739 
114.423065 0.022345 
114.72908 0.016628 
114.765404 0.028601 
114.894127 0.027981 
115.023048 0.024716 
115.036697 0.033941 
116.577576 0.018831 
116.985847 0.112586 
117.069855 0.027774 
117.422127 0.029697 
117.5466 0.014029 
117.90094 0.029207 
117.916748 0.034592 
117.955818 1.703368 
118.05674 0.025882 
118.065063 0.016343 
118.924713 0.41321 
118.935608 0.021556 
118.943161 0.018799 
119.001129 1.114987 
119.018967 10.785823 
119.049095 1.021413 
119.060257 0.036773 
119.072876 0.017192 
119.08535 0.041458 
119.218224 0.022253 
119.917381 0.27715 
119.951256 0.014309 
120.019676 0.865699 
120.027946 0.018868 
120.052345 0.029138 
120.112213 0.01859 
120.678352 0.022245 
120.925232 2.218027 
120.940437 0.436125 
121.016342 0.484926 
121.414581 0.01572 
121.933167 0.074726 
122.146957 0.027452 
122.168358 0.029614 
122.481308 0.034866 
122.940849 21.250288 
122.945702 0.169417 
123.055092 0.022554 
123.912376 0.2121 
123.948662 0.869984 
124.039528 0.020413 
124.050545 0.218015 
124.599442 0.020452 
124.993713 0.024601 
128.731796 0.019142 
130.069199 0.02195 
131.049011 0.142319 
131.085327 0.023453 
131.192108 0.028891 
131.961273 4.567616 
132.080856 0.078413 
132.132141 0.013847 
132.145325 0.021181 
132.403534 0.014533 
132.93631 0.199852 
132.958145 7.375683 
133.088562 2.524482 
133.100845 0.068274 
133.338257 0.030125 
133.583557 0.035292 
133.948212 0.765872 
134.29567 0.012785 
134.802887 0.022426 
134.940857 0.078491 
134.958588 12.725848 
134.978516 0.940141 
135.080246 0.025099 
135.117386 0.013775 
135.784698 0.028091 
135.92749 0.021452 
135.948822 1.514221 
135.966461 4.040443 
136.075378 0.01897 
136.495163 0.022371 
136.934921 0.04473 
136.956635 0.517905 
137.011749 6.085142 
137.029434 1.308778 
137.059402 0.208368 
137.927994 26.920694 
138.012405 0.290786 
138.588303 0.029255 
138.935791 7.536855 
138.950775 0.01351 
139.006851 0.033836 
139.265167 0.021019 
140.951477 0.744713 
141.922943 0.063971 
143.126465 0.023883 
143.338257 0.029831 
144.073715 0.037132 
144.108795 0.022279 
145.616013 0.021375 
145.988235 1.31831 
146.09642 0.205408 
147.0914 0.025917 
147.103989 0.051554 
147.466507 0.023785 
147.97493 0.108976 
148.075348 0.025907 
148.112015 10.517754 
148.453568 0.033656 
148.971848 3.420922 
149.115417 0.191833 
149.408569 0.029114 
149.495102 0.018726 
149.944397 0.017266 
149.961227 0.141169 
149.971878 2.715997 
150.515625 0.018194 
150.950867 0.026839 
150.968719 5.028359 
151.409485 0.01353 
151.959122 0.171802 
151.99884 1.618476 
152.951447 10.460772 
152.969223 20.789694 
152.98909 0.119278 
153.219894 0.020956 
153.43692 0.019374 
153.959229 100.0 
155.006424 0.02038 
155.022186 1.684538 
156.94635 5.708656 
158.45163 0.022487 
159.96843 0.026162 
160.026993 0.036818 
160.23587 0.025779 
161.011841 0.312296 
162.635071 0.026403 
163.532684 0.017563 
163.998764 10.734869 
164.999786 1.112266 
165.938019 0.047102 
165.996002 0.49424 
166.93457 0.0286 
166.941956 0.869235 
166.983078 0.111978 
167.001526 0.196065 
167.05632 0.015732 
167.938583 0.576338 
167.95639 0.302878 
167.974945 0.573402 
167.982559 0.015661 
168.982742 0.240734 
169.917816 1.841287 
170.009323 0.047703 
170.962006 2.059528 
170.979935 1.257808 
174.833618 0.030956 
175.500381 0.024739 
176.069504 0.015978 
176.106308 0.029313 
176.974701 0.052878 
177.937973 0.045402 
179.022278 3.198611 
179.729309 0.042015 
180.023331 0.131343 
180.092026 0.013306 
180.144974 0.030822 
182.009415 1.844015 
183.010422 0.033321 
183.51503 0.025072 
185.01207 0.081085 
185.949081 24.086254 
186.354599 0.037964 
189.164169 0.037015 
189.808441 0.022442 
191.429199 0.027443 
192.101974 0.52989 
192.137955 0.06719 
193.10553 0.013726 
193.794128 0.035617 
194.103775 0.044171 
194.117218 0.034925 
194.129272 0.015368 
194.154022 3.99442 
195.158356 0.025586 
195.825073 0.019829 
196.899048 0.026421 
197.03299 0.02977 
197.949051 0.071578 
204.900711 0.029457 
205.881866 0.029724 
END IONS

