BEGIN IONS
PEPMASS=375.128
CHARGE=1+
COMPOUNDNAME=Griseofulvin
LIBRARYQUALITY=3
SMILES=N/A
INCHIKEY=DDUHZTYCFQRHIY-RBHXEPJQSA-N
INCHI=InChI=1S/C17H17ClO6/c1-8-5-9(19)6-12(23-4)17(8)16(20)13-10(21-2)7-11(22-3)14(18)15(13)24-17/h6-8H,5H2,1-4H3/t8-,17+/m1/s1
MSLEVEL=2
SOURCE_INSTRUMENT=N/A-Linear Ion Trap
FILENAME=library_mgf.mgf
SEQ=*..*
IONMODE=positive
ORGANISM=MONA
NAME=Griseofulvin M-H
PI=MoNA
DATACOLLECTOR=MoNA:VF-NPL-LTQ000682
PUBMED=N/A
SUBMITUSER=mwang87
TAGS=
SPECTRUMID=CCMSLIB00004684926
SCANS=547
171.119995 0.630716 
241.990005 4.602214 
255.199997 1.194871 
256.950012 3.05305 
259.01001 3.515682 
265.779999 1.099037 
270.019989 2.838231 
283.970001 3.635208 
286.130005 2.566747 
295.910004 2.080521 
301.070007 4.173755 
302.049988 24.305944 
305.279999 0.684661 
312.049988 20.951082 
316.049988 12.574631 
320.160004 1.380024 
329.109985 1.917188 
331.130005 2.415838 
334.029999 10.000087 
339.23999 1.816709 
342.140015 2.258415 
344.119995 100.0 
348.200012 4.088995 
356.279999 3.091388 
END IONS

