BEGIN IONS
PEPMASS=734.258
CHARGE=1+
COMPOUNDNAME=ERYTHROMYCIN
LIBRARYQUALITY=3
SMILES=N/A
INCHIKEY=ULGZDMOVFRHVEP-RWJQBGPGSA-N
INCHI=InChI=1S/C37H67NO13/c1-14-25-37(10,45)30(41)20(4)27(39)18(2)16-35(8,44)32(51-34-28(40)24(38(11)12)15-19(3)47-34)21(5)29(22(6)33(43)49-25)50-26-17-36(9,46-13)31(42)23(7)48-26/h18-26,28-32,34,40-42,44-45H,14-17H2,1-13H3/t18-,19-,20+,21+,22-,23+,24+,25-,26+,28-,29+,30-,31+,32-,34+,35-,36-,37-/m1/s1
MSLEVEL=2
SOURCE_INSTRUMENT=N/A-Linear Ion Trap
FILENAME=library_mgf.mgf
SEQ=*..*
IONMODE=positive
ORGANISM=MONA
NAME=ERYTHROMYCIN M+H
PI=MoNA
DATACOLLECTOR=MoNA:VF-NPL-LTQ006443
PUBMED=N/A
SUBMITUSER=mwang87
TAGS=
SPECTRUMID=CCMSLIB00004689922
SCANS=5543
408.019989 3.68859 
464.070007 4.966661 
522.219971 77.160454 
558.210022 100.0 
END IONS

