BEGIN IONS
PEPMASS=324.172
CHARGE=1+
COMPOUNDNAME=ERGONOVINE MALEATE
LIBRARYQUALITY=3
SMILES=N/A
INCHIKEY=WVVSZNPYNCNODU-XTQGRXLLSA-N
INCHI=InChI=1S/C19H23N3O2/c1-11(10-23)21-19(24)13-6-15-14-4-3-5-16-18(14)12(8-20-16)7-17(15)22(2)9-13/h3-6,8,11,13,17,20,23H,7,9-10H2,1-2H3,(H,21,24)/t11-,13+,17+/m0/s1
MSLEVEL=2
SOURCE_INSTRUMENT=N/A-ESI-QFT
FILENAME=library_mgf.mgf
SEQ=*..*
IONMODE=negative
ORGANISM=MONA
NAME=ERGONOVINE MALEATE [M-H]-
PI=MoNA
DATACOLLECTOR=MoNA:VF-NPL-QEHF027713
PUBMED=N/A
SUBMITUSER=mwang87
TAGS=
SPECTRUMID=CCMSLIB00004721294
SCANS=27713
50.109249 0.039198 
50.491508 0.034256 
50.671555 0.034569 
50.900997 0.030396 
51.23177 0.043351 
51.875782 0.029721 
52.782093 0.033704 
54.198879 0.031299 
54.523384 0.027164 
55.445454 0.045987 
56.141064 0.045052 
56.961639 0.045591 
56.967236 0.033434 
57.265411 0.036611 
58.759644 0.041738 
61.129154 0.031274 
62.052658 0.036573 
62.966194 0.040342 
63.929611 0.026479 
64.238922 0.030453 
64.377159 0.037099 
64.912331 0.040555 
65.629028 0.047727 
66.331627 0.033842 
67.074028 0.031198 
67.082878 0.040194 
68.604019 0.030441 
69.481377 0.043444 
69.870338 0.036501 
70.028435 0.295414 
70.495079 0.037012 
70.562012 0.034035 
71.675232 0.035491 
72.004715 0.033879 
72.044098 0.720913 
72.13372 0.037281 
72.429169 0.039446 
72.803185 0.030579 
73.428085 0.045006 
73.644058 0.04036 
73.702507 0.043441 
73.767067 0.03177 
74.059708 0.433455 
74.185577 0.030981 
75.358772 0.029819 
75.96154 0.040059 
76.846786 0.038128 
77.803246 0.035191 
77.866104 0.034585 
79.178894 0.031579 
79.865303 0.035217 
79.956154 0.087333 
80.421928 0.031203 
80.779381 0.031078 
81.915718 0.036977 
82.020523 0.047881 
82.191811 0.037941 
82.99543 0.036451 
83.823997 0.032851 
84.982773 0.034251 
85.042282 0.032017 
85.567513 0.030124 
86.603981 0.040653 
87.133865 0.036113 
87.138206 0.039413 
87.452187 0.03936 
87.949982 0.040199 
88.005745 0.033678 
88.374672 0.048258 
88.915184 0.032273 
89.578438 0.035895 
89.629776 0.031773 
89.730713 0.038971 
90.0019 0.035702 
90.180038 0.036975 
91.037552 0.036217 
93.440918 0.042938 
94.691444 0.030355 
96.32296 0.038227 
96.958633 0.189704 
97.528465 0.036019 
97.595032 0.037858 
97.614792 0.029597 
98.023537 0.039789 
98.593185 0.037712 
99.927139 0.035233 
100.038887 0.162345 
100.819183 0.052032 
101.023125 0.034126 
102.17823 0.037928 
103.239334 0.030532 
103.508575 0.032619 
104.930946 0.037746 
108.094284 0.050934 
109.344231 0.042231 
110.561813 0.037589 
112.199112 0.039973 
112.232826 0.043976 
115.634575 0.031557 
116.049614 0.07943 
118.919922 0.035667 
119.089348 0.044042 
122.106918 0.039185 
124.757095 0.042711 
125.753487 0.036054 
126.054749 0.147492 
126.568245 0.038556 
128.070435 0.40798 
129.057266 0.051511 
132.187744 0.04011 
139.391144 0.04546 
139.768845 0.040214 
140.012482 0.047463 
140.070435 0.333332 
142.086212 0.812502 
147.419388 0.039975 
150.01387 0.037557 
150.556931 0.035846 
151.365631 0.033546 
153.46814 0.037384 
153.78392 0.038256 
163.537262 0.036041 
164.595917 0.036268 
166.065201 0.109231 
168.080948 0.056458 
170.003448 0.137072 
170.546951 0.034536 
175.892349 0.034071 
178.065216 0.262859 
179.040085 0.044668 
179.060608 0.215611 
179.07312 2.432927 
180.06842 11.78025 
180.080933 8.521388 
181.07666 0.611544 
181.084488 0.719369 
182.084106 0.076089 
183.011292 11.329157 
184.019302 2.625242 
187.211044 0.045081 
187.283798 0.045625 
188.575104 0.032268 
190.74231 0.04926 
192.081116 0.338089 
193.076324 0.842926 
194.06044 2.114721 
194.084305 0.320554 
194.095932 0.255205 
195.092056 12.419136 
195.728165 0.041866 
196.095413 1.499106 
196.112411 0.267427 
196.818878 0.033756 
197.027084 10.987758 
197.177765 0.03044 
198.03508 5.827875 
200.199387 0.035055 
203.882172 0.038522 
203.996338 0.046144 
204.068848 0.054538 
204.643692 0.030976 
206.084335 0.101085 
206.551788 0.04327 
206.839386 0.031211 
207.0923 1.841366 
208.013809 0.035279 
208.100021 2.155965 
208.232635 0.028353 
208.602448 0.046103 
209.071655 0.196721 
209.104218 0.047405 
210.777023 0.035309 
211.043304 0.172868 
212.050629 0.363478 
214.995026 1.107444 
215.260483 0.04207 
219.092468 0.559631 
221.108047 3.427643 
222.07962 0.050617 
222.091354 0.219497 
222.111099 0.124518 
223.088135 0.038974 
223.123642 29.556398 
224.127151 4.589881 
226.067337 0.034064 
227.203186 0.034201 
230.025162 0.654267 
234.079498 0.407429 
235.086563 0.047476 
237.103241 0.333583 
240.462677 0.039902 
248.095062 0.245355 
249.103149 6.2047 
250.106384 0.68724 
251.11879 0.479812 
254.044296 0.034966 
255.113632 0.122925 
256.45224 0.038314 
261.087708 0.034473 
263.082672 0.252547 
266.129852 0.047876 
268.095764 0.052224 
273.038544 0.039376 
281.129364 3.151656 
282.132812 0.130334 
285.484894 0.038975 
289.057312 0.033707 
292.343292 0.039229 
293.377686 0.045276 
296.473999 0.040458 
317.505035 0.05158 
322.157623 0.065276 
323.168518 1.37761 
323.187256 0.043878 
324.171692 3.959019 
325.184204 100.0 
326.187347 12.571648 
326.210327 0.046922 
331.406464 0.034186 
335.799225 0.046475 
339.721832 0.040321 
343.313293 0.037405 
343.715973 0.051816 
END IONS

