BEGIN IONS
PEPMASS=343.115
CHARGE=1+
COMPOUNDNAME=MYCOPHENOLIC ACID
LIBRARYQUALITY=3
SMILES=N/A
INCHIKEY=HPNSFSBZBAHARI-RUDMXATFSA-N
INCHI=InChI=1S/C17H20O6/c1-9(5-7-13(18)19)4-6-11-15(20)14-12(8-23-17(14)21)10(2)16(11)22-3/h4,20H,5-8H2,1-3H3,(H,18,19)/b9-4+
MSLEVEL=2
SOURCE_INSTRUMENT=N/A-ESI-QFT
FILENAME=library_mgf.mgf
SEQ=*..*
IONMODE=positive
ORGANISM=MONA
NAME=MYCOPHENOLIC ACID [M+Na]+
PI=MoNA
DATACOLLECTOR=MoNA:VF-NPL-QEHF011297
PUBMED=N/A
SUBMITUSER=mwang87
TAGS=
SPECTRUMID=CCMSLIB00004702360
SCANS=11297
50.406612 0.42981 
51.361046 0.165267 
51.662766 0.224418 
51.701088 0.400012 
51.912472 0.136071 
52.456738 0.189189 
52.466312 0.368841 
52.862549 0.226242 
52.916462 0.50875 
52.92387 0.385738 
53.664635 0.194128 
54.05299 0.372498 
54.581264 0.239745 
54.756817 0.742815 
54.880192 0.234199 
54.96983 0.50745 
57.207752 0.269666 
57.382927 0.654412 
57.49255 0.215751 
57.815098 0.188589 
58.655708 0.467794 
58.82373 0.397262 
58.841152 0.519096 
58.881363 0.636893 
59.324665 0.637103 
61.050056 0.147023 
61.543995 0.164528 
62.167713 0.208144 
62.173252 0.398106 
62.247242 0.440011 
62.636539 0.145059 
63.0317 0.324821 
63.385372 0.162215 
64.271423 0.407747 
64.479347 0.392204 
64.77272 0.19393 
65.073639 0.202767 
66.191399 0.154911 
66.432533 0.671779 
66.95446 0.603083 
67.413925 0.611404 
67.508553 0.232629 
67.934349 0.425398 
68.846939 0.175596 
69.051376 0.221327 
69.548996 0.459522 
70.352562 0.140959 
71.226135 0.237659 
71.878586 0.334283 
73.506538 0.670911 
75.157257 0.229719 
75.43618 0.529196 
75.642548 0.85148 
76.134689 0.679826 
76.752487 0.720903 
78.817337 0.433385 
79.735832 0.19739 
79.985222 0.166965 
80.950775 0.638066 
81.090454 0.674502 
81.223976 0.639851 
84.787086 0.210092 
85.124786 0.324321 
85.653419 0.65018 
85.874825 0.136449 
87.064674 0.132434 
87.246033 0.196359 
88.417023 0.312885 
88.567062 0.804035 
89.060356 0.15603 
89.681137 0.180398 
89.991585 0.180979 
90.385246 0.454831 
90.637093 0.250654 
91.501694 0.632311 
93.952965 0.664774 
95.39093 0.429434 
96.237961 0.222608 
97.00338 0.201866 
97.67469 0.658439 
98.34938 0.251904 
98.35714 0.156697 
98.367188 0.228867 
98.76796 0.688915 
100.288628 0.566519 
100.889618 0.142902 
101.025398 0.251269 
101.042122 0.891934 
104.791573 0.429209 
105.19133 0.239374 
105.27887 0.587151 
105.912361 0.557494 
106.135925 0.251535 
106.409714 0.535884 
106.67543 0.197473 
106.989006 0.477174 
107.898285 0.280684 
108.766098 0.255149 
109.344597 0.271784 
110.03595 0.371399 
111.656029 0.713311 
113.875481 0.654324 
115.057846 0.686938 
117.537025 0.259787 
118.809723 0.147565 
119.25695 0.271827 
121.827179 0.520488 
123.875748 0.248146 
126.840202 0.60232 
127.247452 0.58646 
127.536957 0.573754 
127.954376 0.215105 
128.461334 0.634566 
129.253693 0.471513 
130.045593 0.462906 
132.121384 0.259575 
133.047287 0.712933 
136.304886 0.679294 
139.552887 0.214533 
140.377106 0.322617 
141.650131 0.353889 
144.019501 0.142708 
145.091812 0.226162 
145.611572 0.35946 
146.933029 0.441468 
147.374863 0.696218 
149.044479 0.206299 
153.334534 0.647361 
154.846359 0.191976 
158.42363 0.194365 
159.256668 0.59267 
159.510376 0.176742 
159.891724 0.686547 
162.994003 0.215975 
164.138733 0.47284 
168.085999 0.527143 
169.912048 0.135579 
171.030334 0.605709 
172.96669 0.751661 
174.657394 0.132261 
175.139618 0.27635 
176.3741 0.208379 
178.492828 0.178433 
179.689896 0.662688 
181.506577 0.634157 
181.91568 0.279316 
182.073975 0.26358 
184.381927 0.797316 
187.366501 0.647468 
189.415833 0.572422 
194.809891 0.431039 
195.880753 0.188893 
199.03598 0.781854 
204.162506 0.501566 
205.288818 0.425736 
212.420807 0.326531 
214.652878 2.756375 
214.664581 22.949223 
217.502289 0.588572 
217.624557 0.551538 
218.360977 0.670519 
220.241928 0.275544 
221.59285 0.142575 
222.734528 0.264536 
227.774521 0.262343 
229.047028 100.0 
230.050644 7.558502 
233.127533 0.677473 
234.263062 0.696905 
237.448318 0.167052 
237.67038 0.170411 
241.462753 0.348897 
246.023544 0.787271 
246.156387 0.497767 
252.562775 0.455365 
254.328461 0.374275 
260.307281 0.212976 
262.214142 0.736965 
264.582031 0.8452 
267.5242 0.141872 
274.344147 0.719433 
281.10553 0.136886 
291.056274 0.28983 
292.329773 0.314356 
293.295441 0.37711 
295.326141 0.578843 
295.776276 0.270274 
298.374359 0.474774 
300.739563 0.205465 
304.113617 0.246644 
304.621918 0.528582 
304.950226 0.302606 
309.235229 0.591163 
309.357605 0.609946 
309.44577 0.177408 
310.654419 0.270736 
329.636444 0.550942 
330.54248 0.162035 
332.543091 0.243781 
336.90448 0.588148 
341.197205 0.665141 
343.115112 20.133781 
344.11911 0.590514 
369.848175 0.209483 
END IONS

