BEGIN IONS
PEPMASS=1444.74
CHARGE=1+
COMPOUNDNAME=BACITRACIN
LIBRARYQUALITY=3
SMILES=N/A
INCHIKEY=CLKOFPXJLQSYAH-NVOBBBONSA-N
INCHI=InChI=1S/C66H103N17O16S/c1-9-35(6)52(69)66-81-48(32-100-66)63(97)76-43(26-34(4)5)59(93)74-42(22-23-50(85)86)58(92)83-53(36(7)10-2)64(98)75-40-20-15-16-25-71-55(89)46(29-49(68)84)78-62(96)47(30-51(87)88)79-61(95)45(28-39-31-70-33-72-39)77-60(94)44(27-38-18-13-12-14-19-38)80-65(99)54(37(8)11-3)82-57(91)41(21-17-24-67)73-56(40)90/h12-14,18-19,31,33-37,40-48,52-54H,9-11,15-17,20-30,32,67,69H2,1-8H3,(H2,68,84)(H,70,72)(H,71,89)(H,73,90)(H,74,93)(H,75,98)(H,76,97)(H,77,94)(H,78,96)(H,79,95)(H,80,99)(H,82,91)(H,83,92)(H,85,86)(H,87,88)/t35?,36?,37?,40-,41+,42+,43-,44+,45-,46-,47+,48?,52?,53-,54-/m0/s1
MSLEVEL=2
SOURCE_INSTRUMENT=N/A-ESI-QFT
FILENAME=library_mgf.mgf
SEQ=*..*
IONMODE=positive
ORGANISM=MONA
NAME=BACITRACIN [M+Na]+
PI=MoNA
DATACOLLECTOR=MoNA:VF-NPL-QEHF027773
PUBMED=N/A
SUBMITUSER=mwang87
TAGS=
SPECTRUMID=CCMSLIB00004721354
SCANS=27773
100.075638 0.022686 
100.112259 0.022018 
101.107391 0.322717 
102.055 6.199785 
102.091377 0.093549 
103.054314 1.01279 
103.058067 0.232179 
105.069954 0.191387 
106.06517 0.077687 
107.060425 0.165396 
108.044327 0.011238 
108.055634 0.325052 
108.080795 0.291821 
109.039787 0.010262 
109.063622 0.314098 
109.076096 0.648165 
110.024124 0.009951 
110.064339 0.097187 
110.07119 100.0 
110.096016 0.665166 
111.051178 0.011088 
111.055305 0.516557 
111.068237 0.967536 
111.074547 5.263109 
111.087662 0.016482 
111.091606 2.466446 
112.075516 1.043605 
112.086906 0.45968 
112.095116 0.037867 
112.112045 0.213243 
113.034569 0.023603 
113.04174 0.010201 
113.070915 0.287951 
113.107285 0.605904 
114.055084 0.023868 
114.091492 0.219029 
114.102638 0.51912 
114.932632 0.008914 
115.050301 0.037104 
115.054306 0.184377 
115.086609 6.637702 
116.01664 0.014238 
116.070663 0.144327 
116.089882 0.278248 
117.070168 0.011359 
117.559517 0.008897 
118.064888 0.101937 
119.060425 0.091691 
120.055687 0.779441 
120.08078 10.8251 
120.431435 0.008228 
121.03965 1.009456 
121.076164 0.24858 
121.08403 0.88267 
121.338402 0.009848 
121.344154 0.009317 
122.06002 0.088533 
122.071251 1.277251 
122.083557 0.022883 
122.096428 0.073364 
123.055267 1.162997 
123.074249 0.014169 
123.091637 0.512314 
124.039413 0.054091 
124.075752 0.15284 
124.086906 0.597119 
124.094925 0.009546 
124.112129 0.249145 
125.03463 0.0388 
125.070976 0.490316 
125.107391 0.425683 
126.036949 0.009978 
126.066147 0.013644 
126.091347 0.089074 
126.127785 0.025549 
127.050247 0.181482 
127.086563 0.468767 
127.122864 0.10413 
128.052887 0.019985 
128.070679 0.057043 
128.118164 0.050933 
129.011688 0.090908 
129.061447 0.009787 
129.06572 0.510669 
129.102158 12.413468 
129.995758 0.138239 
130.04985 0.389409 
130.065002 0.705974 
130.086288 0.162629 
130.100204 0.009532 
130.105515 0.767799 
131.027405 0.278682 
131.049179 0.083265 
131.117798 0.145293 
132.053162 0.031927 
132.080658 0.450229 
133.063507 0.520029 
133.076309 0.046934 
133.084488 0.008432 
134.07135 0.147812 
134.096436 0.127037 
135.091599 0.956827 
136.050537 0.285414 
136.075745 1.56143 
136.086914 3.721405 
136.099701 0.02422 
136.112061 0.229248 
137.070908 0.47949 
137.082581 0.113581 
137.090271 0.191083 
137.107239 1.450516 
138.054688 0.017696 
138.066177 3.773518 
138.091354 0.446648 
138.102448 0.238716 
138.110809 0.011336 
138.12767 1.149827 
139.050232 0.122498 
139.069626 0.112036 
139.086548 7.350357 
139.092712 0.133042 
139.122833 0.279661 
140.034042 0.010515 
140.053085 0.03764 
140.082535 0.044519 
140.089905 0.452722 
140.106918 0.619109 
140.118134 0.261004 
140.143219 0.104213 
141.011658 0.190739 
141.06575 0.05772 
141.102188 1.119842 
142.043304 0.020912 
142.061188 0.096144 
142.068573 0.142793 
142.086121 0.014157 
142.097427 0.054104 
142.105759 0.009841 
143.02739 0.157986 
143.04509 0.735322 
143.072968 0.008792 
143.081345 0.225045 
143.117905 0.010401 
144.080414 0.038962 
145.076065 0.027553 
146.06015 0.026347 
146.07135 0.074654 
146.096359 0.20317 
146.128693 0.876646 
147.055283 0.010187 
147.091614 0.149718 
147.099304 0.009921 
147.112854 0.054567 
147.701172 0.008871 
148.050491 0.460009 
148.07547 0.052218 
148.087006 0.446789 
148.111908 0.021927 
149.03476 0.012463 
149.07103 0.120972 
149.107407 0.33605 
150.018387 0.011372 
150.055222 0.012448 
150.066162 0.150337 
150.091095 0.060595 
150.10257 0.192795 
150.127747 0.022827 
151.050476 0.019487 
151.086502 0.396168 
151.097565 0.011476 
151.122925 0.236877 
152.016327 0.012319 
152.052856 0.073669 
152.081909 0.14346 
152.10704 0.4101 
152.118332 0.208099 
152.143372 0.684683 
152.97438 0.009143 
153.048569 0.00919 
153.065964 0.064807 
153.102203 1.153565 
153.138657 0.218903 
153.146423 0.010951 
154.061264 0.051068 
154.068481 0.248159 
154.086151 0.13286 
154.097244 0.016678 
154.133835 0.471798 
154.15892 0.431372 
155.081604 0.069701 
155.092636 1.986732 
155.117752 2.028933 
155.154297 0.010566 
155.161362 0.012166 
156.076492 1.168661 
156.08934 0.011001 
156.096176 0.021924 
156.102081 0.078757 
156.113113 2.409155 
156.120377 0.16086 
156.138092 0.011831 
157.061005 0.0376 
157.079727 0.012506 
157.097183 0.294769 
157.116348 0.094276 
159.09166 0.335975 
160.075455 0.009617 
160.087036 0.120067 
161.107147 0.100651 
162.066132 0.491427 
162.102478 3.056386 
163.086502 3.491997 
163.098099 0.269894 
163.105621 0.184726 
163.12294 0.620507 
164.045609 0.043044 
164.070511 2.921166 
164.081955 1.694787 
164.089401 0.236596 
164.106522 0.024015 
164.118301 0.741887 
165.077255 2.070532 
165.084854 0.070761 
165.102249 1.548735 
165.11377 0.105851 
165.138657 0.683964 
166.061066 7.655075 
166.068985 0.141407 
166.086456 0.264981 
166.097412 0.373432 
166.105118 0.046821 
166.122681 0.381653 
166.133774 0.762744 
167.044952 0.213865 
167.057037 0.03761 
167.064331 0.626869 
167.073273 0.014522 
167.08139 0.995894 
167.093475 0.008782 
167.117737 0.670003 
167.154114 0.334236 
168.067154 0.009999 
168.101868 0.57991 
168.113205 0.091426 
168.138184 0.021106 
168.149597 0.197723 
168.157074 0.010415 
169.042938 0.011726 
169.079269 0.197269 
169.097168 0.139781 
169.133499 0.533923 
170.055756 0.02707 
170.063553 0.043556 
170.117569 0.304695 
171.076263 0.009285 
171.094757 0.031873 
171.113098 0.024253 
172.071548 0.036607 
172.078873 0.540061 
172.086731 0.078589 
172.111954 0.261386 
174.066193 0.07578 
174.102646 0.099206 
174.126572 0.019251 
175.086533 0.613378 
175.097626 0.010525 
175.123093 0.060424 
176.069748 0.017158 
176.081772 0.142934 
176.118149 1.542889 
177.075104 0.026895 
177.102234 0.136029 
177.11319 0.020555 
177.121368 0.051833 
177.138519 1.006546 
178.059723 0.009124 
178.097534 0.207525 
178.125046 0.01908 
178.133804 2.323143 
178.141739 0.123347 
179.081665 0.142935 
179.092712 0.385839 
179.117874 0.980439 
179.129044 0.037547 
179.136887 0.040063 
179.154297 0.274171 
180.076462 0.631146 
180.103882 0.027209 
180.112991 1.405688 
180.12088 0.053353 
180.139954 0.023225 
180.149368 0.656292 
181.071732 0.016035 
181.097198 7.410164 
181.108215 6.576055 
181.13327 1.694373 
181.169952 0.099248 
182.000916 0.061893 
182.081177 0.215355 
182.092407 0.066227 
182.100723 0.52931 
182.111801 0.432361 
182.128845 0.487613 
182.136932 0.064222 
182.165054 1.396224 
183.058807 0.009683 
183.088303 0.032137 
183.112762 1.299788 
183.149139 2.893186 
183.168304 0.032242 
184.042648 0.053775 
184.071442 0.093547 
184.097488 0.034943 
184.107864 0.329745 
184.133118 0.010935 
184.15242 0.252987 
184.180847 0.094358 
185.055542 1.570928 
185.074158 0.175127 
185.092026 0.241101 
185.106598 0.012675 
185.127869 0.02431 
185.245056 0.010386 
186.058594 0.179243 
186.091248 0.012138 
186.127701 0.412324 
187.089432 0.58452 
188.091568 0.01819 
188.118134 0.120846 
188.143372 0.737944 
189.077133 0.466396 
189.085556 0.011505 
189.104477 0.436576 
189.113525 0.552219 
189.137833 0.008943 
189.147034 0.010293 
190.060944 0.96942 
190.088989 0.010742 
190.097397 0.518405 
190.106903 0.053116 
190.133667 0.785974 
191.064148 0.027302 
191.081589 0.769533 
191.092636 2.17192 
191.101654 0.083862 
191.117783 1.446016 
191.127701 0.078849 
191.138718 0.011865 
191.154404 0.107871 
192.07666 0.237158 
192.087341 0.012004 
192.096008 0.031489 
192.113037 0.503105 
192.121796 0.041843 
192.149307 1.944244 
193.071747 0.232235 
193.080292 0.028885 
193.097214 0.453129 
193.107407 0.091896 
193.13353 3.65615 
193.143509 0.070001 
193.154922 0.051353 
193.169266 0.012344 
194.092422 0.438094 
194.118759 0.027154 
194.128693 0.41849 
194.137161 0.317463 
194.165192 0.392183 
194.899612 0.009226 
195.040024 0.389071 
195.05899 0.012296 
195.076294 0.105014 
195.092148 0.234616 
195.112762 0.788218 
195.122269 0.034603 
195.149277 0.420646 
196.04361 0.048454 
196.089539 0.053378 
196.098633 0.011928 
196.107956 0.206857 
196.144287 1.273438 
196.180771 0.636628 
197.05574 0.010775 
197.074219 1.732456 
197.091843 0.011364 
197.108887 0.06412 
197.128433 1.935272 
197.138992 0.032025 
197.148331 0.023359 
197.164703 0.486336 
197.184265 0.021962 
198.05838 0.626839 
198.077789 0.061363 
198.106216 0.027253 
198.123581 5.027014 
198.133469 0.138626 
198.159973 0.013482 
198.168335 0.010466 
199.053619 0.049096 
199.072815 0.020134 
199.089905 7.333358 
199.107605 0.624946 
199.126755 0.470098 
200.037476 0.216987 
200.073914 0.175278 
200.093369 0.602887 
200.140411 0.010853 
200.175797 0.468764 
201.085876 0.175901 
201.104095 0.009427 
201.123398 0.191697 
202.082275 0.440041 
202.122498 0.012964 
203.066422 0.026124 
203.118591 0.030592 
203.129044 0.316603 
203.154099 0.047813 
204.113327 0.22606 
204.149506 0.196954 
205.097137 0.105807 
205.10788 0.022942 
205.133759 0.153988 
205.144775 0.081411 
205.168594 0.011301 
205.612549 0.008723 
206.092636 0.101281 
206.103561 0.201534 
206.128586 0.879067 
206.165085 2.313808 
206.175125 0.014497 
207.076767 0.021974 
207.08725 1.695569 
207.112534 0.707896 
207.124146 2.095801 
207.149368 0.80777 
207.15979 0.119233 
207.172119 0.23679 
208.071762 0.574527 
208.090546 0.078352 
208.107864 2.237272 
208.126923 0.129561 
208.144302 1.933691 
208.18074 0.979538 
209.074539 0.168257 
209.092133 1.452664 
209.102432 0.132742 
209.111328 0.126256 
209.128387 1.208292 
209.139252 0.017765 
209.147781 0.097551 
209.164841 0.258176 
209.183716 0.01056 
210.086868 0.043841 
210.106262 0.023883 
210.123428 0.944216 
210.160004 7.004347 
211.052994 0.11154 
211.107681 0.425496 
211.126587 0.168985 
211.144302 0.920581 
211.163376 0.79465 
212.012207 0.010285 
212.06662 0.445185 
212.085388 0.134038 
212.10585 0.042651 
212.118195 8.062732 
212.175507 0.015625 
213.05072 0.689858 
213.069016 1.173033 
213.087189 0.030284 
213.103836 0.011298 
213.121994 1.07267 
213.140594 0.020942 
214.053131 2.201547 
214.071777 0.020591 
214.100311 0.156292 
214.134384 0.045724 
214.154999 0.242709 
215.056442 0.099057 
215.084412 0.224768 
215.128006 0.075331 
215.139069 3.300136 
215.151489 0.084608 
216.048996 0.028385 
216.067642 0.010084 
216.087738 0.012112 
216.113113 0.048688 
216.142014 0.213611 
217.07196 0.952182 
217.098328 0.44185 
217.108612 0.482071 
217.133545 0.366632 
217.144531 0.106601 
217.1698 0.122532 
218.056137 0.296613 
218.074875 0.009895 
218.092361 0.010875 
218.128647 0.327241 
218.1651 0.396687 
219.05925 0.012105 
219.08783 0.021143 
219.112671 0.095634 
219.123779 0.042575 
219.149185 0.303752 
219.160141 0.027772 
220.106812 0.252026 
220.144363 0.526782 
220.1548 0.011941 
220.16893 0.024352 
220.180725 5.276985 
221.077011 0.731773 
221.089233 0.065648 
221.111404 0.010217 
221.128235 0.246846 
221.139511 0.232135 
221.164749 0.206275 
221.188614 1.38592 
222.004593 0.040736 
222.10289 0.395912 
222.123367 0.304811 
222.159653 0.342346 
222.196396 4.266837 
223.07341 0.010238 
223.0905 0.009502 
223.107407 0.287157 
223.144073 0.115058 
223.155151 0.055923 
223.180511 0.568739 
223.19986 0.361625 
224.06601 0.011678 
224.085007 0.064411 
224.118301 1.929288 
224.138718 0.922289 
224.175247 0.932046 
225.069168 1.781359 
225.097931 1.604797 
225.12294 0.839047 
225.134674 0.510396 
225.159622 0.149505 
225.171005 0.443879 
226.072372 0.026347 
226.106171 0.085206 
226.118378 1.966689 
226.137222 0.055728 
226.154633 0.719947 
227.084808 2.661975 
227.102966 0.105553 
227.121033 0.125086 
227.139282 0.046105 
227.152084 0.043635 
228.088272 0.121951 
228.133972 0.016538 
228.170593 1.525731 
229.081039 0.026581 
229.100845 0.016175 
229.133026 0.061292 
229.154953 0.013552 
229.173904 0.098796 
230.077011 0.987856 
230.126984 0.009159 
230.216568 0.011212 
231.061798 0.069653 
231.080246 0.010262 
231.124069 0.153705 
231.149078 0.339168 
232.082062 0.012795 
232.107697 0.113334 
232.1436 0.112095 
232.180878 0.287388 
233.091522 0.135746 
233.128159 0.150117 
233.140045 0.085037 
233.164749 1.330999 
233.175735 0.034806 
234.098557 1.571383 
234.123459 0.613895 
234.134827 0.032387 
234.159302 1.27419 
234.196182 0.149628 
235.082443 8.790662 
235.104996 0.060777 
235.118149 0.183557 
235.143982 0.644213 
235.155396 0.476879 
236.066666 0.772066 
236.086578 0.923483 
236.102142 0.937668 
236.138901 1.292032 
236.161667 0.02087 
236.175613 0.572111 
237.031631 0.010542 
237.069305 0.085373 
237.086853 0.19454 
237.098389 0.136926 
237.108231 0.01232 
237.131973 0.705888 
237.142792 0.134851 
237.159103 0.089515 
237.171021 0.02865 
238.101624 0.071877 
238.117844 0.267873 
238.136826 0.408355 
238.154922 1.405743 
238.191467 0.011224 
239.084702 0.200237 
239.102753 0.0115 
239.117493 0.010408 
239.128891 0.72893 
239.140488 0.027758 
239.158646 0.1075 
239.173965 0.00914 
240.061874 0.036741 
240.079544 0.013237 
240.113007 0.927802 
240.133179 0.148596 
240.152756 0.597456 
241.045853 0.123233 
241.101868 0.039703 
241.117615 0.463153 
241.131622 0.029263 
241.144638 0.239029 
241.156403 0.016612 
242.095001 0.23331 
242.128723 0.031398 
242.149597 0.135229 
242.186111 0.443369 
243.088013 0.066077 
243.133789 2.883504 
243.147766 0.977796 
243.181442 2.137318 
244.093857 0.02438 
244.138123 0.070408 
244.152893 0.03334 
244.184372 0.164713 
245.077744 0.050092 
245.09108 0.023591 
245.127945 0.011566 
245.138687 0.012955 
245.164185 0.038843 
246.098877 0.148338 
246.123489 0.071167 
246.159592 0.172969 
247.056747 0.033208 
247.142715 0.072151 
247.155518 0.114039 
247.191879 0.042873 
248.071243 0.009893 
248.102814 0.084634 
248.139191 0.152122 
248.175552 3.112589 
249.072372 0.52342 
249.121552 0.012946 
249.134933 0.089798 
249.158905 0.827719 
249.179779 0.22359 
249.20694 0.012418 
250.097305 0.203484 
250.118576 0.338822 
250.135101 0.013916 
250.154022 0.16785 
250.191452 0.546591 
251.10051 0.045087 
251.121399 0.188876 
251.137741 0.022746 
251.150681 0.060796 
251.174835 0.198945 
251.18782 0.014692 
252.043076 0.012793 
252.059372 0.018807 
252.109009 5.228983 
252.134018 0.377694 
252.152969 0.677618 
252.170547 0.952944 
253.093124 20.161356 
253.117447 0.127923 
253.16568 4.001802 
254.096207 2.162 
254.113373 0.763099 
254.130096 0.00985 
254.151459 0.081617 
254.168839 1.778032 
254.184509 0.032392 
255.040665 0.034668 
255.097778 0.197687 
255.123474 0.058913 
255.151993 0.129155 
255.171326 0.130091 
256.109253 0.012256 
256.129486 0.010921 
256.165558 0.146654 
257.139526 7.482356 
258.053345 0.012878 
258.143555 0.999566 
258.158722 0.076941 
259.118927 0.014363 
259.143677 0.030661 
259.212769 0.012671 
260.101929 0.256086 
260.114655 0.295559 
260.139008 0.113513 
260.173462 0.615657 
261.072784 0.009627 
261.086578 0.126447 
261.134216 0.022268 
261.158783 0.485961 
261.172821 0.066506 
262.093262 0.54585 
262.117584 0.037044 
262.154724 0.555727 
262.191315 0.078592 
263.077454 2.642549 
263.101166 0.016793 
263.121918 0.053034 
263.13678 0.025948 
263.150482 0.351604 
263.173798 0.069132 
263.186798 0.025207 
264.043152 0.021581 
264.08075 0.313384 
264.097198 0.049196 
264.116821 0.070117 
264.133881 0.070499 
264.153076 0.032395 
264.170135 0.462848 
265.137695 1.088046 
265.164307 0.055868 
265.202271 0.024667 
266.081329 0.01056 
266.09671 0.012366 
266.114502 0.036103 
266.13205 0.104 
266.150513 0.198178 
266.167725 0.059087 
266.185974 0.481411 
267.124512 3.863933 
267.151733 0.383634 
267.17984 0.054299 
268.108063 8.971312 
268.127136 0.834921 
268.147461 0.415872 
268.201874 0.012503 
269.096466 0.017272 
269.111725 1.507933 
269.139069 0.491793 
269.197327 0.20573 
270.054199 0.011961 
270.119843 1.283688 
270.143677 0.057824 
270.161926 0.073465 
270.180237 0.026728 
271.103973 0.171618 
271.124573 0.06781 
271.142578 2.137606 
271.178223 0.013219 
272.05246 0.013254 
272.106659 0.012714 
272.124664 0.121973 
272.148163 0.145619 
273.071716 0.009843 
273.087341 0.013143 
273.134552 0.414885 
273.205994 0.01023 
274.067841 0.139143 
274.118591 0.012115 
274.152344 0.01238 
274.166473 0.15311 
274.190887 0.039819 
275.074097 0.011478 
275.111938 0.074893 
275.149902 0.028924 
275.172882 0.012086 
275.187378 0.222994 
275.223572 0.023408 
276.096039 0.012672 
276.148102 0.01361 
276.170502 0.559789 
276.207062 0.061383 
277.09314 0.108916 
277.12973 0.414413 
277.153442 0.145135 
277.166534 0.021316 
277.202606 0.097522 
278.112946 2.363135 
278.128418 0.337558 
278.149597 0.139181 
278.186371 0.347969 
279.097412 0.737209 
279.116791 0.514059 
279.145935 0.068594 
279.182098 0.34848 
279.218109 0.074144 
280.075134 0.048582 
280.103394 0.625574 
280.129181 0.052743 
280.147491 0.696895 
280.16571 0.715334 
280.181 0.040447 
280.201691 0.024534 
281.088501 2.716156 
281.131744 7.920895 
281.160614 0.031181 
281.194977 0.234056 
282.07486 0.056584 
282.091217 0.321848 
282.108398 0.151085 
282.135529 1.106748 
282.164307 1.505067 
282.180695 0.052517 
283.034058 0.010378 
283.073151 0.022315 
283.126221 0.097908 
283.146362 0.40141 
283.165649 0.046141 
283.201508 0.081898 
284.104584 0.011091 
284.124573 0.011746 
284.150604 0.625171 
284.178986 0.333536 
285.134399 18.894726 
285.160919 1.571701 
286.093323 0.013676 
286.138397 3.093486 
286.166046 0.230902 
287.140472 0.144506 
288.109009 0.40945 
288.133575 0.042504 
288.170441 0.103193 
289.092682 0.093031 
289.152863 0.030572 
289.202271 0.061036 
290.089355 0.088176 
290.131866 0.030011 
290.161499 0.389713 
290.185455 0.079574 
291.074524 0.011713 
291.094879 0.010791 
291.144531 0.014252 
291.181213 0.135443 
291.217834 0.116615 
292.100159 0.022927 
292.147827 0.581919 
292.164856 0.024174 
292.201416 0.171149 
293.138855 0.590902 
293.158112 0.060585 
293.198456 0.027258 
293.233307 0.032588 
294.144714 0.578474 
294.163025 0.461592 
294.181335 0.454423 
294.197083 0.31859 
294.216187 0.110323 
295.118958 1.504357 
295.14032 2.28179 
295.179352 0.10111 
296.123779 2.55443 
296.142548 0.582515 
296.196381 0.073332 
297.065369 0.0341 
297.10141 0.205563 
297.126984 0.446177 
297.14389 0.20493 
297.193542 0.087539 
298.049225 0.040275 
298.084961 0.080629 
298.10437 0.009801 
298.139709 0.235605 
298.158112 0.586962 
299.103363 0.027986 
299.139557 0.221687 
299.176483 0.023488 
300.100952 0.035584 
300.119385 0.04078 
300.171112 0.082084 
301.153809 0.016741 
301.201752 0.013205 
302.114929 0.049248 
302.161865 0.222444 
302.22287 0.0124 
303.113922 0.460746 
303.144684 0.095102 
303.181976 0.080666 
303.218689 0.041134 
304.103485 2.843136 
304.145691 0.07293 
304.162933 0.037578 
304.187592 0.015447 
304.200775 0.064457 
305.08844 0.037454 
305.107025 0.427312 
305.125549 0.115656 
305.161041 0.885071 
305.197235 0.120884 
306.120117 0.683636 
306.143768 0.114272 
306.163116 0.482432 
306.181519 0.01368 
307.121582 0.021034 
307.140533 0.035239 
307.176392 0.181567 
307.194061 0.024206 
307.21167 0.056942 
308.124207 0.039461 
308.142578 0.355462 
308.160706 0.079305 
308.178558 0.356124 
308.196747 0.153517 
309.126282 1.319078 
309.173981 0.574614 
310.104706 0.032272 
310.139221 0.102605 
310.157257 0.730388 
310.211975 0.12927 
311.059143 0.17508 
311.139984 0.059221 
311.190399 0.014662 
312.120789 0.009317 
312.15451 0.49117 
312.173615 0.29851 
312.205719 0.135754 
313.074738 0.041449 
313.129395 0.702703 
313.150421 3.563643 
313.190247 0.718892 
314.058014 0.105229 
314.084564 0.011005 
314.134247 0.283326 
314.153961 0.517123 
314.193207 0.036738 
315.117035 0.010733 
315.138885 0.010747 
316.132233 0.181682 
316.165039 0.391946 
317.19632 0.112168 
318.156128 0.056614 
318.179932 0.063444 
319.121948 0.022301 
319.17627 0.050202 
319.212891 0.278469 
319.24823 0.048266 
320.12384 0.011306 
320.177856 0.143915 
320.245636 0.029771 
321.130981 0.391015 
321.154114 0.109814 
321.173248 0.099888 
321.191895 0.141602 
321.228394 0.181125 
322.114563 1.123429 
322.136963 0.246213 
322.15741 0.02932 
322.188171 0.384699 
323.08017 0.097572 
323.117004 0.031417 
323.13562 0.789626 
323.170471 0.911451 
324.118896 0.318886 
324.139038 0.203443 
324.173706 0.057032 
324.206238 0.011479 
325.119385 0.117052 
325.150238 0.061319 
325.169189 0.108929 
325.203461 0.157051 
326.08136 0.142875 
326.134247 0.046636 
326.153412 0.162744 
326.187683 0.18934 
327.130493 0.029689 
327.167084 0.108754 
327.188263 0.013158 
328.132446 0.112619 
328.152435 0.064723 
328.176086 0.411007 
329.178955 0.015936 
329.198669 0.014658 
330.126953 0.053968 
330.147858 2.80893 
330.217224 0.014734 
331.114136 0.462907 
331.15097 0.331514 
331.175262 0.01235 
331.212952 0.116489 
331.249298 0.05043 
332.098724 1.358257 
332.138733 0.025443 
332.1716 0.039738 
333.101349 0.139449 
333.121277 0.039467 
333.15506 0.179861 
333.191162 0.167132 
333.22876 0.012281 
333.264801 0.283176 
334.120453 0.013097 
334.159088 0.058981 
334.194214 0.035215 
334.221588 0.240886 
335.04007 0.072089 
335.088043 0.076343 
335.135345 0.041325 
335.187622 0.926296 
335.20636 0.115035 
336.085785 0.023526 
336.145905 0.093491 
336.19046 0.448958 
336.21109 0.061002 
337.129517 0.310968 
337.149719 0.076473 
337.16861 0.024627 
337.201416 0.041236 
337.224304 0.031425 
338.083008 0.028287 
338.134796 0.066287 
338.159241 0.410227 
338.206085 0.125868 
338.254852 0.388679 
339.053436 0.025971 
339.141083 1.041137 
339.164459 0.244412 
339.214966 0.217606 
339.259735 0.010269 
339.41095 0.011375 
340.099762 0.190677 
340.164246 0.107926 
340.200165 1.821882 
341.145752 0.825175 
341.184784 0.494176 
341.205414 0.164701 
342.093781 0.047363 
342.149048 0.026767 
342.188263 0.013622 
343.211273 0.013528 
344.095154 0.015628 
344.126923 0.064176 
344.158234 0.126971 
345.165375 0.031869 
345.191528 0.057584 
345.227844 0.034183 
346.105713 0.01121 
346.148895 0.100847 
347.207672 0.114197 
347.244141 0.342716 
348.096161 0.020401 
348.139435 0.030416 
348.174927 0.012919 
348.20874 0.151729 
348.239655 0.401704 
349.125214 7.810945 
349.164062 0.015064 
349.187683 0.082999 
349.222443 0.070365 
350.108765 3.705834 
350.12854 0.7498 
350.182892 0.26484 
350.217163 0.668089 
350.249786 0.036811 
351.110748 0.605087 
351.131348 0.194035 
351.164886 0.042685 
351.184998 0.012296 
351.22049 0.121109 
352.112152 0.051229 
352.213257 0.116375 
352.23526 0.013996 
353.217163 0.065793 
354.109924 0.055577 
354.131195 0.01238 
354.155151 0.110614 
354.202698 0.025091 
354.228027 0.488583 
355.139801 0.268017 
355.209747 0.013853 
355.232239 0.03984 
356.126984 0.821831 
356.170746 0.024015 
356.215515 0.017426 
356.265594 0.164778 
357.130737 0.038011 
357.225952 0.725493 
358.171844 0.746485 
358.21048 0.297997 
359.110138 0.064257 
359.1763 0.043465 
359.20755 0.014085 
360.093658 0.629679 
360.13443 0.120084 
360.2005 0.084499 
361.095734 0.014001 
361.119812 0.347753 
361.184631 0.583963 
361.222351 0.027408 
361.259491 0.716253 
362.150024 0.012419 
362.183563 0.152562 
362.259735 0.012907 
363.145447 0.012412 
363.180511 0.250084 
363.203064 0.222617 
364.140015 0.497675 
364.184174 0.071923 
364.205475 0.014519 
364.223145 0.012315 
365.123901 1.332361 
365.184967 0.022498 
365.235443 0.011559 
366.126923 0.203296 
366.15097 0.015335 
366.192993 0.120568 
366.249573 0.415802 
367.136017 4.393666 
367.197662 0.143967 
367.251404 0.024113 
368.117493 0.072386 
368.139282 0.500668 
368.193176 0.349003 
368.236023 0.02803 
369.140045 0.41111 
369.197968 0.037694 
369.225525 0.416615 
370.149872 0.179414 
370.225067 0.110827 
371.181763 0.305513 
371.20517 0.013769 
372.165771 0.050691 
373.188599 0.013342 
374.14505 0.014317 
375.199036 0.107807 
375.239166 0.084054 
376.107025 0.149812 
376.133636 0.012961 
376.204681 0.040484 
376.235931 0.074844 
377.090973 0.257742 
377.119904 0.906194 
377.146637 0.035436 
377.185852 0.036223 
377.22467 0.075721 
378.103394 1.347955 
378.145538 0.365329 
378.171936 0.013231 
378.211212 0.496945 
378.24762 0.878509 
379.10498 0.162524 
379.130157 0.094813 
379.207367 0.561929 
379.249725 0.148614 
380.133118 0.012871 
380.207703 1.591624 
381.166382 0.010881 
381.212372 0.696537 
382.095856 0.010313 
382.150452 2.53947 
382.213593 0.012584 
383.132233 0.178571 
383.154602 0.449683 
384.096252 0.010418 
384.159851 0.041996 
384.202087 0.186378 
385.148285 0.042756 
385.22522 0.013583 
386.166779 0.251161 
387.177185 0.700417 
388.16037 0.477985 
388.185455 0.025838 
388.232056 0.174151 
389.164642 0.052471 
389.191711 0.200971 
390.249756 0.078365 
391.171448 0.104712 
391.198792 0.034244 
391.233551 0.029884 
392.205444 0.929318 
392.230957 0.012813 
393.209442 0.275497 
394.17984 0.013313 
394.209656 0.226516 
394.244873 0.022152 
395.130829 0.878159 
395.237305 2.17539 
396.132843 0.014807 
396.200714 0.011735 
396.240692 0.636523 
397.160248 0.030841 
398.146088 0.012493 
398.218384 1.390544 
399.176849 0.460806 
399.221313 0.200001 
400.161163 7.338274 
401.164001 1.527545 
402.167542 0.05832 
402.190521 0.014991 
403.168427 0.01273 
404.1633 0.019603 
404.227814 0.045118 
405.187531 1.590242 
405.214722 0.210989 
406.191132 0.210717 
407.229401 0.026494 
408.165253 0.04366 
408.199036 0.052617 
408.259796 0.06933 
409.16095 0.067256 
409.209045 0.020143 
410.145599 0.984366 
411.149109 0.192539 
412.125366 0.013008 
413.186157 0.015967 
414.185394 0.105462 
414.248474 0.087005 
415.171753 1.581353 
415.199127 0.136273 
415.234619 0.062844 
416.175568 0.180852 
417.187073 0.298719 
417.249023 0.012903 
418.179657 0.053234 
418.244354 0.212955 
419.167419 0.096226 
419.20047 0.059439 
420.192596 0.187339 
421.187134 0.011498 
421.253784 0.013082 
422.141357 0.01238 
422.204224 0.026537 
423.205872 0.109036 
424.141052 0.012256 
425.184967 0.011172 
426.142395 0.245221 
426.212616 0.060711 
427.141144 0.235278 
427.172729 0.168007 
427.207611 0.010902 
428.157471 0.577418 
428.233002 0.012479 
429.157898 0.094714 
429.190247 0.012241 
432.155548 0.964832 
432.198029 0.544552 
432.226105 0.014015 
433.183197 3.605533 
433.255585 0.014099 
434.148804 0.208646 
434.185699 0.65146 
434.241821 0.014903 
435.200256 0.227057 
435.270782 0.184754 
436.223145 0.028402 
436.255463 0.100778 
437.223816 0.586865 
437.257874 0.013243 
438.168365 0.069563 
438.196045 0.035749 
438.227783 0.0309 
439.171173 0.071125 
439.202698 0.032016 
440.211456 0.012665 
440.274933 0.012442 
441.187744 0.015011 
441.217804 0.035314 
442.180298 0.098444 
443.16861 0.01582 
443.231262 0.188848 
444.23642 0.013597 
445.181 0.01177 
446.175598 0.026353 
447.139496 0.011955 
447.198608 0.021979 
447.271118 0.046771 
447.34668 0.133081 
448.197357 0.010544 
448.221985 0.01428 
449.247528 0.02938 
450.141968 0.016016 
450.175842 0.017303 
450.208374 1.09603 
451.171326 0.310824 
451.20816 0.128224 
451.3349 0.010442 
452.296844 0.291787 
453.144745 0.013183 
453.190521 0.370438 
453.282043 0.19889 
454.232574 0.03968 
455.224823 0.728944 
456.192902 0.025147 
456.227112 0.071708 
457.252899 0.074563 
460.150635 0.661384 
460.192505 0.513453 
460.223907 0.013354 
460.257812 0.041002 
461.120453 0.011705 
461.152313 0.384113 
461.184753 0.015664 
462.14325 0.182848 
462.207336 0.014778 
462.306946 0.012552 
463.199219 0.235134 
463.24118 0.518884 
463.336395 0.264109 
464.245483 0.115624 
464.295227 0.236657 
464.338287 0.051083 
465.212646 0.121291 
465.251129 0.013042 
465.29715 0.038363 
466.213074 0.027218 
467.273712 0.013193 
469.147125 0.017385 
469.182129 0.946357 
470.182587 0.187743 
470.309296 0.025692 
471.134094 0.013731 
471.257263 0.012991 
472.252625 0.232998 
473.212341 0.019983 
474.170319 0.012238 
474.203308 0.015104 
474.278717 0.165788 
475.263184 0.720215 
476.263489 0.06871 
477.218536 0.277794 
478.163879 0.029427 
478.205566 0.359049 
478.273041 0.027408 
479.166809 0.646476 
479.204071 0.047265 
480.15683 0.042374 
483.223785 0.027049 
484.220734 0.01479 
484.303314 0.014856 
485.219055 0.011671 
486.209259 0.331922 
487.203064 0.073363 
487.246918 0.026149 
488.186462 0.223945 
489.186829 0.026958 
489.221069 0.020439 
489.255768 0.018649 
490.20755 0.016331 
490.301605 0.035109 
491.162628 0.013924 
491.230133 0.091008 
491.304565 0.057419 
492.180878 0.013722 
492.229218 0.037171 
492.29071 2.142954 
493.232605 0.016583 
493.292755 0.745353 
494.244843 0.011893 
494.293701 0.227615 
495.232208 0.390082 
496.192352 0.336925 
496.231903 0.032005 
497.177643 0.745797 
497.320038 0.10382 
498.180237 0.146325 
499.232208 0.034405 
501.212891 0.011933 
502.274353 0.070992 
505.211121 0.192261 
506.19989 0.258156 
506.28479 2.738526 
507.162048 0.017134 
507.20285 0.013632 
507.288635 1.257714 
508.291077 0.159967 
508.356384 0.032592 
509.316772 0.059836 
510.318939 0.015712 
512.256592 0.067681 
512.29718 0.061872 
513.245667 0.837319 
514.204346 0.930089 
514.246338 0.219419 
515.203308 0.15259 
516.207458 0.012187 
516.266113 0.011474 
517.212585 0.023371 
517.275024 0.013926 
518.279297 0.025967 
523.226685 0.485001 
524.187683 0.186149 
524.232605 0.038282 
524.281677 0.046703 
525.174255 0.056905 
526.269958 0.03983 
530.418884 0.014301 
531.267761 0.024032 
533.298035 0.026614 
534.279175 0.234824 
535.2276 0.255784 
535.280579 0.04641 
536.229004 0.01441 
537.28949 0.028727 
538.314392 0.01141 
539.403687 0.011055 
542.200378 0.014571 
542.241943 0.012056 
544.228088 0.014182 
544.279541 0.167992 
545.241028 0.064548 
546.242859 0.047787 
546.299316 0.028894 
550.299866 0.029614 
551.306091 0.778526 
552.254883 0.35599 
552.307922 0.27413 
553.256226 0.058197 
553.312561 0.01354 
556.259033 0.06687 
556.410278 0.247646 
557.255615 0.010549 
559.367615 0.013343 
560.30127 0.01433 
560.353638 0.083018 
562.240295 0.384882 
563.243713 0.05198 
565.26239 0.011214 
567.323853 0.019781 
567.450439 0.010188 
572.182983 0.01402 
572.277222 0.034543 
573.279602 0.011811 
574.270813 0.1081 
575.304871 0.012417 
577.321472 0.844416 
577.378174 0.681003 
578.325928 0.339586 
578.381592 0.311355 
579.262756 0.020233 
579.382751 0.030481 
580.250916 0.411533 
580.382935 0.02678 
581.25354 0.063652 
582.265503 0.168252 
583.269897 0.032339 
584.256042 0.027472 
585.234619 0.028617 
586.288147 0.013916 
587.289246 0.023553 
587.362244 0.07167 
590.260559 0.117435 
590.367798 0.011685 
591.256653 0.046211 
591.301941 0.033687 
592.245544 0.028323 
592.289062 0.158487 
592.33728 0.01189 
593.277039 0.023796 
594.338318 0.049825 
595.339417 0.014566 
598.395935 0.009756 
602.264709 0.124263 
604.25177 0.0632 
604.310852 0.0389 
604.388733 0.03237 
605.313171 0.029084 
605.374695 0.018384 
607.262268 0.039311 
609.313599 0.091261 
610.259766 0.077563 
610.309204 0.028961 
610.404419 0.630619 
611.361877 0.305955 
611.409546 0.229157 
612.364929 0.130241 
617.347717 0.024034 
620.276733 0.023979 
620.384094 0.060128 
621.277222 0.029498 
621.334167 0.054425 
622.336975 0.010912 
622.3974 0.060943 
627.286072 0.065727 
631.295105 0.015076 
632.325256 0.012359 
634.379883 0.28586 
635.246582 0.012048 
635.381531 0.149439 
636.382996 0.026473 
646.358521 0.012356 
649.306641 0.263059 
650.308594 0.025896 
653.270691 0.026948 
660.357666 0.01091 
663.336121 0.025303 
666.332336 0.058501 
667.336609 0.019214 
667.412231 0.013914 
675.33374 0.01417 
678.337952 0.023551 
679.404358 0.024377 
680.405334 0.013055 
690.395325 0.02589 
691.370117 0.06702 
702.326416 0.030646 
703.328003 0.012293 
705.330261 0.01332 
705.415466 0.023675 
706.428528 0.06773 
707.421997 0.397855 
708.427185 0.138519 
709.425476 0.024428 
710.663208 0.017122 
710.898376 0.067057 
714.371704 0.01375 
717.39856 0.028983 
718.344299 0.116996 
719.353882 0.141727 
720.347839 0.082911 
721.338684 0.014443 
724.338806 0.013414 
724.448425 1.141346 
725.452271 0.785149 
726.450867 0.202847 
728.343445 0.012679 
729.350098 0.012015 
731.399963 0.092488 
732.397949 0.072928 
733.391907 0.026836 
734.417969 0.152407 
735.420471 0.027439 
739.356934 0.013035 
747.465088 0.964982 
748.41217 0.222367 
748.468567 0.417943 
749.420227 0.275488 
750.354614 0.015499 
750.426025 0.084467 
751.446472 0.017637 
757.446594 0.082483 
758.449585 0.052992 
760.343567 0.011342 
760.397461 0.012286 
769.467224 0.012338 
771.35791 0.012108 
773.441833 0.032954 
775.451111 0.011617 
787.375977 0.132776 
788.371826 0.121446 
789.379822 0.055279 
790.423889 0.017208 
792.48407 0.093555 
793.492432 0.024936 
802.468201 0.028137 
803.369934 0.012478 
803.46698 0.011846 
815.395081 0.131544 
816.402954 0.22989 
817.402405 0.051768 
818.416992 0.030803 
818.500061 0.113642 
819.430786 0.012979 
819.504822 0.081653 
820.454041 0.012058 
827.460449 0.014694 
828.479675 0.044667 
829.476868 0.011816 
832.396057 0.228471 
833.401489 0.417726 
834.405396 0.261822 
835.412476 0.03678 
836.458862 0.011625 
843.491211 0.023606 
844.482239 0.527658 
845.484192 0.389717 
846.41156 0.017172 
846.494446 0.033076 
847.412537 0.067105 
847.494324 0.058336 
849.453796 0.015362 
851.447815 0.014158 
858.486633 0.012489 
861.508606 1.306966 
862.51001 1.007244 
863.507751 0.316886 
870.416687 0.014145 
871.486084 0.013922 
872.483459 0.044543 
873.419983 0.016034 
873.502563 0.014638 
874.412659 0.012298 
874.500488 0.01659 
878.494324 0.01135 
888.514282 0.024956 
889.499512 0.104859 
890.495789 0.084569 
891.439941 0.247856 
892.443298 0.140506 
894.174683 0.009484 
899.512939 0.012798 
901.500977 0.079558 
906.526123 0.156888 
907.519836 0.031375 
913.424622 0.056649 
914.424316 0.017987 
915.515991 0.081176 
916.521484 0.077758 
917.511414 0.018355 
929.452271 0.075155 
930.454102 0.218532 
931.454834 0.121305 
932.540039 0.316372 
933.540039 0.137211 
942.521729 0.033761 
945.478271 0.011213 
955.507202 0.01511 
957.529724 0.013256 
958.510986 0.011498 
959.502808 0.10024 
960.51709 0.070375 
972.521606 0.013176 
973.512268 0.026575 
976.532654 0.070021 
977.538818 0.012832 
984.483093 0.011278 
986.515015 0.102778 
987.509827 0.098954 
988.506836 0.031543 
990.532593 0.011228 
997.516113 0.016092 
998.508972 0.014405 
999.499512 0.013573 
1004.526062 0.61095 
1005.526794 0.235061 
1006.535767 0.012319 
1007.513306 0.012075 
1014.530334 0.01055 
1015.542969 0.071331 
1016.538391 0.087426 
1018.544678 0.014483 
1020.575562 0.026501 
1029.216187 0.01288 
1043.588745 0.031375 
1044.556274 0.032861 
1047.56311 0.012555 
1048.56665 0.135991 
1049.570923 0.109654 
1059.545898 0.015207 
1103.623779 0.012193 
1104.579712 0.012987 
1115.598633 0.016797 
1141.602539 0.012617 
1145.587036 0.031615 
1146.585571 0.020813 
1157.632446 0.072785 
1162.606812 0.083553 
1163.612915 0.059858 
1171.629761 0.012043 
1185.624023 0.142388 
1186.625366 0.128784 
1187.579224 0.041875 
1188.591309 0.01222 
1256.661011 0.026893 
1272.638062 0.015854 
1282.646851 0.011854 
1283.65332 0.046741 
1300.661377 0.062527 
1301.66687 0.011318 
END IONS

