BEGIN IONS
PEPMASS=264.124
CHARGE=1+
COMPOUNDNAME=ANISOMYCIN
LIBRARYQUALITY=3
SMILES=N/A
INCHIKEY=YKJYKKNCCRKFSL-BFHYXJOUSA-N
INCHI=InChI=1S/C14H19NO4/c1-9(16)19-14-12(15-8-13(14)17)7-10-3-5-11(18-2)6-4-10/h3-6,12-15,17H,7-8H2,1-2H3/t12-,13+,14+/m0/s1
MSLEVEL=2
SOURCE_INSTRUMENT=N/A-ESI-QFT
FILENAME=library_mgf.mgf
SEQ=*..*
IONMODE=negative
ORGANISM=MONA
NAME=ANISOMYCIN [M-H]-
PI=MoNA
DATACOLLECTOR=MoNA:VF-NPL-QEHF027594
PUBMED=N/A
SUBMITUSER=mwang87
TAGS=
SPECTRUMID=CCMSLIB00004721175
SCANS=27594
50.186882 0.019028 
51.150955 0.0131 
51.163071 0.015613 
51.207478 0.018229 
51.333061 0.02637 
51.790791 0.012203 
51.816868 0.018723 
51.95517 0.015637 
52.348946 0.016582 
52.856564 0.014492 
53.085217 0.011893 
53.306267 0.010213 
54.067802 0.01407 
54.27597 0.014696 
54.70742 0.013762 
55.255119 0.016319 
56.765175 0.017818 
58.028687 0.012504 
58.093262 0.019704 
58.36861 0.019533 
59.012508 0.47342 
59.362968 0.011113 
60.040768 0.019281 
60.963978 0.026454 
61.986992 1.7293 
62.403233 0.013224 
63.060684 0.016012 
63.457291 0.015573 
64.414757 0.024133 
65.016594 0.023195 
65.698822 0.024197 
67.633934 0.015621 
69.670914 0.02281 
69.925644 0.024805 
72.904587 0.085556 
72.906479 0.336568 
72.91787 0.014197 
73.265297 0.023442 
74.038269 0.023567 
74.162613 0.015082 
75.238052 0.01211 
75.54216 0.017476 
75.829582 0.018589 
78.957764 0.286498 
79.956047 5.285939 
80.858749 0.026316 
80.963905 0.314799 
82.02845 0.015093 
82.494499 0.014031 
87.047501 0.012769 
87.82502 0.018689 
88.871582 0.017315 
93.033432 0.016945 
94.469254 0.013468 
95.012917 0.025608 
95.016769 0.021305 
95.951042 1.055634 
96.680359 0.023005 
96.9403 0.264501 
96.942673 0.214413 
96.958817 100.0 
96.976166 0.759871 
97.958206 0.291419 
98.642395 0.015019 
99.825378 0.019858 
99.987259 0.015188 
105.770851 0.022637 
107.049088 0.244381 
110.223969 0.028614 
110.463348 0.016892 
117.033264 0.101385 
117.223236 0.014238 
118.855072 0.017003 
118.940926 0.154864 
120.850029 0.014581 
120.936722 0.151813 
121.028214 0.365659 
122.922676 0.022757 
127.750542 0.017141 
128.695038 0.021759 
130.052567 0.018692 
130.184036 0.011575 
130.31163 0.013125 
132.277496 0.024082 
132.673126 0.016649 
134.05632 0.02222 
138.856369 0.016289 
139.922394 0.017589 
140.305679 0.01497 
141.85112 0.018197 
143.048798 0.015671 
145.919632 0.012971 
146.897415 0.0683 
147.461563 0.021021 
149.024734 0.016121 
149.05986 0.018784 
150.676407 0.021625 
152.267578 0.011942 
152.915924 0.014507 
153.048264 0.022339 
154.339417 0.024257 
159.499924 0.02232 
159.920563 0.025539 
164.034332 1.51456 
165.042267 0.03683 
170.060013 0.022421 
170.144211 0.012745 
176.897186 0.017092 
178.050262 1.349611 
178.950119 0.022487 
179.053116 0.015844 
184.001129 0.164634 
185.128082 0.013794 
190.366043 0.018015 
197.032318 0.107343 
197.154144 0.062281 
202.990982 0.01469 
211.09317 0.022424 
215.652893 0.013071 
217.939713 0.013895 
219.330429 0.012642 
219.797897 0.125381 
219.827194 0.023607 
222.940613 0.02131 
229.00946 0.013184 
231.676987 0.027901 
239.755661 0.022898 
242.811493 0.013549 
245.764008 0.019065 
249.093872 0.125076 
256.067963 0.019201 
264.160767 0.502203 
265.148438 0.768945 
265.162323 0.043148 
278.219696 0.024016 
278.687897 0.025215 
END IONS

