BEGIN IONS
PEPMASS=364.142
CHARGE=1+
COMPOUNDNAME=ERGONOVINE MALEATE
LIBRARYQUALITY=3
SMILES=N/A
INCHIKEY=WVVSZNPYNCNODU-XTQGRXLLSA-N
INCHI=InChI=1S/C19H23N3O2/c1-11(10-23)21-19(24)13-6-15-14-4-3-5-16-18(14)12(8-20-16)7-17(15)22(2)9-13/h3-6,8,11,13,17,20,23H,7,9-10H2,1-2H3,(H,21,24)/t11-,13+,17+/m0/s1
MSLEVEL=2
SOURCE_INSTRUMENT=N/A-ESI-QFT
FILENAME=library_mgf.mgf
SEQ=*..*
IONMODE=positive
ORGANISM=MONA
NAME=ERGONOVINE MALEATE [M+K]+
PI=MoNA
DATACOLLECTOR=MoNA:VF-NPL-QEHF027720
PUBMED=N/A
SUBMITUSER=mwang87
TAGS=
SPECTRUMID=CCMSLIB00004721301
SCANS=27720
51.109676 0.061364 
51.354588 0.062572 
51.609409 0.064781 
51.940292 11.919994 
52.938915 0.051912 
52.940449 1.24516 
53.938629 0.159855 
54.416367 0.056581 
55.018139 0.137018 
55.054527 0.659496 
55.934677 0.353958 
56.965076 31.315367 
57.070133 0.955644 
57.192295 0.060247 
57.93507 19.687462 
58.065388 3.126144 
58.932888 1.020088 
58.96117 0.054578 
59.272812 0.065747 
59.930489 2.685087 
60.000317 0.056584 
60.00806 0.058799 
60.030457 0.065655 
60.957878 0.19105 
61.010876 11.686597 
62.018703 14.595877 
62.34671 0.055826 
62.62381 0.054765 
62.952461 0.059373 
63.02198 0.181833 
63.026405 0.144694 
63.486835 0.05776 
63.642994 0.056074 
63.665833 0.061935 
63.997898 0.230179 
64.01442 0.255677 
64.192131 0.059302 
65.346359 0.060944 
65.627022 0.068306 
65.940491 0.278525 
66.228615 0.068284 
66.948509 0.063026 
67.054314 0.610271 
67.934967 0.92195 
68.942787 0.543857 
68.997169 0.557251 
69.069992 0.190569 
69.442482 0.057735 
69.741707 0.06328 
69.942978 0.067642 
70.065239 0.453413 
70.403862 0.073428 
70.958031 0.139798 
70.980309 0.064344 
71.951988 0.406468 
71.974686 0.07841 
72.080811 0.077846 
72.438362 0.062796 
72.93708 0.245229 
73.548553 0.058531 
73.948067 0.055549 
73.956154 0.094751 
74.22982 0.061488 
74.352287 0.070851 
74.729568 0.055515 
74.9375 0.412125 
74.975441 0.536727 
75.50843 0.05753 
75.945511 0.177253 
76.287659 0.056792 
77.351204 0.057055 
78.61647 0.057762 
79.02124 4.953962 
79.054237 0.162176 
80.049118 0.076709 
80.86306 0.058052 
80.956863 0.057375 
81.044945 0.074859 
81.069885 0.442946 
81.93557 0.07775 
82.065117 0.08274 
83.049057 0.061978 
83.350761 0.069589 
83.929626 0.059953 
84.080757 0.279213 
84.172981 0.061442 
84.611984 0.060895 
84.93763 0.348567 
84.959602 0.154121 
86.096535 0.098711 
88.075974 0.089251 
88.338379 0.068545 
88.378456 0.060129 
88.710831 0.065126 
88.835793 0.065766 
90.250183 0.071553 
90.947693 0.355871 
91.054237 3.955172 
91.057289 0.411238 
91.139984 0.077005 
92.05751 0.915533 
92.681305 0.05635 
92.948074 0.488523 
92.961922 1.045842 
93.044716 0.151271 
93.070015 0.090326 
93.945984 0.197996 
93.955872 0.817518 
94.065163 0.082023 
94.222244 0.063297 
94.768135 0.064092 
94.943367 0.151563 
95.085503 0.164626 
95.830132 0.059596 
95.951576 0.074616 
96.535088 0.071705 
96.538803 0.067799 
96.621399 0.06359 
97.152328 0.064291 
97.538208 0.066216 
98.096474 0.079414 
98.416954 0.064174 
98.670235 0.06189 
98.966209 0.067257 
98.97538 8.693513 
99.978737 0.080451 
100.953506 0.071465 
100.991058 1.507143 
101.137627 0.070335 
101.826645 0.059343 
102.948151 3.553185 
102.968254 0.609337 
103.098396 0.060827 
104.39502 0.066365 
104.741264 0.060265 
105.033661 0.111154 
105.069824 0.405757 
105.7276 0.056469 
106.06514 0.410586 
108.896461 0.059901 
108.958687 0.070292 
109.070717 0.076348 
110.972282 0.267275 
111.563255 0.058836 
112.075768 0.073646 
115.006683 1.03535 
115.246872 0.067592 
115.279114 0.063779 
116.948669 0.177381 
116.985878 10.680887 
117.069763 0.153403 
117.956352 1.328938 
117.980026 0.060472 
117.981369 0.075245 
117.982368 0.078869 
117.989212 0.121749 
118.53685 0.060924 
118.943123 0.59429 
118.980026 0.22659 
119.00164 1.072657 
119.049156 0.062763 
119.085495 0.6961 
119.951004 1.000572 
119.971497 0.158453 
120.080795 0.325516 
120.088844 0.230417 
120.809814 0.066309 
120.958862 0.262184 
120.978897 0.491968 
122.940781 0.491935 
123.938896 0.066741 
124.93647 0.318649 
126.969376 6.734771 
128.019287 0.069853 
128.715256 0.061172 
128.875778 0.079809 
128.963699 1.995862 
128.9702 0.068574 
128.985611 0.39295 
130.017609 0.381724 
130.936661 0.061564 
131.000366 1.070428 
131.951096 0.07868 
131.997711 0.091231 
132.03334 0.06389 
132.958313 0.114239 
132.978668 0.063401 
132.995544 0.195187 
133.017227 1.786209 
133.064697 0.126832 
134.096069 0.065867 
134.95842 0.075061 
134.973251 0.104156 
134.978714 3.877859 
134.996445 10.152169 
136.992355 0.073735 
137.012115 0.222582 
137.927994 0.500704 
138.989319 0.581738 
139.245743 0.062551 
140.984482 0.55099 
142.964478 0.080033 
142.979858 0.131852 
142.9888 0.06315 
143.000168 0.158857 
144.958801 2.467591 
144.979935 39.984238 
145.016205 0.072554 
146.01207 0.138766 
146.873459 0.774766 
146.974365 13.655496 
146.99617 0.763641 
147.243683 0.06049 
147.974426 1.064282 
148.028214 0.10476 
148.851151 0.056646 
148.972275 1.380214 
148.988449 0.176921 
149.01239 0.320991 
149.271698 0.065541 
149.945847 0.360066 
149.985992 0.069431 
150.951309 0.135229 
150.968964 0.386428 
151.028458 0.083591 
151.970001 0.487208 
152.951416 1.279854 
152.96933 0.069348 
152.989319 6.045912 
153.007111 0.999896 
153.069901 0.555571 
153.423752 0.061268 
153.878601 0.062958 
153.959305 3.32003 
153.966736 0.563129 
154.018112 0.067815 
154.065155 0.417234 
154.946808 1.898762 
155.954697 0.99222 
155.961685 1.155725 
155.995529 0.179945 
156.493088 0.060585 
156.945038 0.257169 
156.993454 0.155071 
157.990494 0.070753 
158.012787 0.167079 
158.060257 0.066305 
158.974289 0.21441 
158.995499 0.995367 
159.990967 0.057955 
160.989532 0.429956 
161.480652 0.073053 
163.97673 0.092016 
165.006989 0.958874 
165.069778 0.140495 
165.968582 0.066589 
166.59761 0.057863 
167.072983 0.481764 
167.995209 0.072863 
168.080688 0.532851 
169.977371 0.295991 
170.0112 0.205052 
170.961838 0.302853 
171.000168 0.347852 
171.008392 0.184137 
171.062668 0.468466 
172.00679 0.074584 
172.923309 0.075128 
172.957718 0.963804 
173.984833 0.469563 
174.006088 1.113883 
174.692215 0.061006 
174.967682 0.070149 
175.00386 1.328879 
175.975189 0.163941 
176.001129 1.027808 
176.022964 0.164414 
176.969589 1.295458 
177.960526 0.074198 
178.065201 0.317771 
178.964584 0.190766 
179.954178 0.0694 
180.08075 6.366536 
180.888138 0.510572 
181.064728 0.083212 
181.075638 0.070455 
182.084015 0.333004 
182.096466 0.167553 
183.017334 0.159343 
183.091171 0.079025 
184.063721 0.067325 
184.358719 0.068117 
185.949173 1.867345 
186.0065 0.076353 
186.021713 0.063867 
186.947327 0.265654 
187.944626 0.101353 
188.0215 0.088927 
189.01944 0.517845 
189.907181 0.090377 
189.991165 0.209232 
190.015884 0.081856 
190.064865 0.087359 
191.072861 3.220941 
191.386475 0.062686 
191.783707 0.072233 
191.886932 0.222192 
192.06813 1.266969 
192.080673 3.164049 
192.23494 0.062378 
192.894989 0.141919 
193.076019 14.379145 
193.881058 0.629108 
194.060654 0.075687 
194.079559 1.361842 
194.096283 0.613724 
194.88826 0.074585 
195.091751 3.097207 
195.099152 0.063262 
195.896622 0.078774 
196.9207 0.143398 
197.107574 0.385233 
197.891205 0.088516 
199.086594 0.071718 
199.241013 0.062929 
200.895721 0.06264 
202.873352 0.693521 
203.031662 0.069034 
203.073059 0.077183 
203.143753 0.091098 
203.881363 2.704207 
204.080719 1.654127 
204.880371 0.071821 
204.982941 1.003185 
205.075989 9.560025 
205.879257 0.06617 
206.083374 1.783619 
206.09523 0.077034 
206.977615 1.802818 
207.067947 3.23572 
207.091644 3.701673 
207.881683 7.742107 
208.075668 6.16241 
208.099457 1.891386 
208.889832 0.266315 
209.876083 9.018678 
209.897186 2.029911 
210.874496 1.608583 
210.884384 0.653394 
210.905136 0.220755 
211.871689 2.254705 
211.881775 0.393361 
211.89183 2.699376 
211.912292 0.440359 
212.889725 0.945384 
212.900375 0.288641 
213.079529 0.06564 
213.887344 0.528472 
213.907562 0.678705 
214.894485 0.167609 
215.089127 1.707073 
215.88681 0.075392 
215.9021 0.358457 
216.891708 0.253701 
217.076111 0.454253 
217.088608 0.211674 
217.104813 0.211052 
218.083984 0.274504 
218.868561 2.591575 
218.889206 0.202794 
219.091721 7.120616 
219.174194 0.201296 
219.877228 1.409932 
219.891296 0.499302 
220.075684 2.196249 
220.099503 5.044631 
220.884186 6.232019 
221.059341 0.16212 
221.070679 0.577634 
221.082809 0.19076 
221.107346 9.421217 
221.450897 0.069298 
221.883484 0.314696 
221.894089 0.111462 
222.054962 0.641376 
222.078384 0.337655 
222.09108 0.254687 
222.111069 1.39417 
222.882751 0.806369 
222.898605 0.950048 
223.086624 0.418962 
223.123077 1.934262 
224.070526 0.679437 
225.890991 0.067448 
226.900345 0.308657 
227.057999 0.065088 
227.887085 0.102649 
227.907715 0.666428 
227.935104 0.241998 
228.893829 0.737347 
229.90271 0.807836 
229.923157 0.143725 
230.889084 0.181818 
231.091461 0.08121 
231.91806 0.151939 
232.063812 0.074421 
232.075607 1.47969 
232.960709 0.202914 
233.070969 1.702291 
233.083069 0.49319 
233.897369 4.142495 
234.07869 0.46565 
234.091339 1.11387 
234.905396 6.972118 
235.063049 0.934125 
235.086426 3.435744 
235.891724 3.181212 
236.038345 0.08802 
236.070496 4.55967 
236.878342 0.176815 
236.900101 0.424444 
237.065536 0.069368 
237.07756 1.055981 
237.102493 0.070097 
237.887115 0.310204 
238.085831 2.569805 
239.902618 0.087893 
240.065079 0.082667 
240.90947 2.301667 
242.907578 0.074962 
243.657318 0.063739 
244.086594 0.068858 
244.885757 0.074941 
246.054886 0.411334 
246.091095 0.640624 
246.883057 0.25699 
246.905411 0.312455 
247.086136 0.081256 
247.098938 0.286056 
248.070526 5.383321 
248.118744 0.0935 
248.878937 0.225625 
249.064835 0.289622 
249.077911 1.846485 
249.89209 0.18088 
250.050003 0.528879 
250.086212 3.037284 
250.900085 0.412629 
250.9711 0.066581 
251.08252 0.074591 
251.886475 0.262476 
251.90773 8.664942 
252.065979 0.523237 
252.10173 0.680967 
252.894836 0.46893 
252.915497 2.471927 
253.902847 5.104381 
253.923416 0.749516 
254.048691 4.327878 
254.902176 0.200544 
255.052399 0.720253 
255.897888 0.812751 
255.917786 0.764399 
256.064392 0.305763 
256.915955 0.075742 
257.870453 0.079806 
258.963867 0.066793 
259.114929 1.823075 
260.070648 2.862323 
261.07843 4.776959 
261.131378 0.075732 
261.892456 0.070427 
262.08606 7.781155 
262.894043 0.530865 
263.057678 2.558293 
263.079865 0.477692 
263.092957 2.087736 
263.895325 0.066744 
264.064819 1.904251 
264.078339 0.20321 
264.101624 0.769255 
264.893616 1.843611 
265.07312 1.90507 
266.050995 0.153283 
266.068634 2.164015 
266.894073 0.254655 
267.04422 0.080098 
268.063934 0.102094 
268.9263 0.113287 
269.06839 0.295165 
269.918243 0.261578 
270.904877 0.163689 
272.059082 1.395131 
273.078064 0.101706 
273.096619 0.073035 
274.049896 0.401637 
274.085999 1.655159 
275.05603 0.406761 
275.093445 1.187779 
275.90799 3.419607 
276.06488 6.260092 
276.101807 2.855278 
277.073669 4.399884 
277.902649 0.409631 
278.044739 0.959589 
278.079193 7.343945 
278.094055 1.397222 
279.047729 0.261238 
279.085022 0.355047 
280.046783 0.191816 
280.061798 0.209709 
280.812744 0.208106 
280.849701 0.069826 
281.096008 1.348295 
282.137268 0.074852 
285.099762 0.081699 
285.816986 0.065138 
287.83197 0.136849 
288.065186 1.883006 
288.102539 0.081215 
289.072754 3.095681 
290.080933 13.327528 
291.052307 6.878174 
291.086578 6.594745 
292.057617 1.077107 
292.095581 3.626096 
293.022308 0.097518 
293.067322 1.30561 
293.102814 0.466901 
293.918365 0.795858 
294.029541 0.067414 
294.07547 0.070532 
295.07547 1.765259 
296.079437 0.181758 
297.018921 0.062842 
298.039062 0.084176 
298.863281 0.066389 
299.10733 0.395454 
300.00354 0.259159 
301.00058 0.099395 
302.04483 1.184558 
302.080719 1.985276 
302.818268 0.164552 
303.04953 1.161335 
303.087921 1.07567 
304.060944 7.035726 
304.096252 10.456013 
305.067719 8.183022 
305.100891 2.490448 
306.075836 100.0 
306.112122 9.324365 
307.079254 18.893843 
307.115265 1.615968 
307.998657 0.515729 
308.091949 2.258152 
309.053314 0.173123 
313.024689 0.080332 
313.085602 0.51854 
316.059845 0.469564 
316.096252 0.160488 
317.067657 1.434286 
318.075775 13.47765 
319.046967 1.659837 
319.080322 8.368854 
320.056915 0.461819 
320.091736 23.906406 
320.127716 2.410585 
321.062744 0.72333 
321.095398 5.184487 
321.131409 0.197092 
322.118683 1.031772 
322.825012 0.376523 
326.445068 0.078979 
330.075958 2.938622 
331.080139 0.788081 
331.838196 0.076682 
332.056061 6.032278 
332.091309 15.262707 
332.127228 0.888911 
333.060883 6.47804 
333.095795 4.11636 
334.07077 40.381905 
334.106995 2.294546 
335.074646 9.214954 
335.111664 0.183177 
336.086853 6.716389 
344.829254 0.07204 
346.070831 9.974338 
346.107819 0.97934 
347.074738 5.184617 
348.0867 28.237947 
348.122467 7.403727 
349.090546 6.712094 
349.126251 1.482118 
349.903748 0.078474 
350.099945 0.108261 
367.168701 0.077092 
379.601135 0.079124 
END IONS

