BEGIN IONS
PEPMASS=335.05
CHARGE=1+
COMPOUNDNAME=MITOMYCIN C
LIBRARYQUALITY=3
SMILES=N/A
INCHIKEY=NWIBSHFKIJFRCO-WUDYKRTCSA-N
INCHI=InChI=1S/C15H18N4O5/c1-5-9(16)12(21)8-6(4-24-14(17)22)15(23-2)13-7(18-13)3-19(15)10(8)11(5)20/h6-7,13,18H,3-4,16H2,1-2H3,(H2,17,22)/t6-,7+,13+,15-/m1/s1
MSLEVEL=2
SOURCE_INSTRUMENT=N/A-Linear Ion Trap
FILENAME=library_mgf.mgf
SEQ=*..*
IONMODE=positive
ORGANISM=MONA
NAME=MITOMYCIN C M-H
PI=MoNA
DATACOLLECTOR=MoNA:VF-NPL-LTQ007710
PUBMED=N/A
SUBMITUSER=mwang87
TAGS=
SPECTRUMID=CCMSLIB00004690988
SCANS=6609
214.970001 1.534273 
241.990005 100.0 
END IONS

