BEGIN IONS
PEPMASS=454.147
CHARGE=1+
COMPOUNDNAME=(5S,8S)-8-benzoyl-2-[(Z,1S,2S)-1,2-dihydroxyhex-3-enyl]-9-hydroxy-8-methoxy-3-methyl-1-oxa-7-azaspiro[4.4]non-2-ene-4,6-dione
LIBRARYQUALITY=3
SMILES=N/A
INCHIKEY=SLYDIPAXCVVRNY-BBJHAQHQSA-N
INCHI=InChI=1S/C22H25NO8/c1-4-5-11-14(24)15(25)16-12(2)17(26)21(31-16)19(28)22(30-3,23-20(21)29)18(27)13-9-7-6-8-10-13/h5-11,14-15,19,24-25,28H,4H2,1-3H3,(H,23,29)/b11-5-/t14-,15-,19?,21+,22+/m0/s1
MSLEVEL=2
SOURCE_INSTRUMENT=N/A-ESI-QFT
FILENAME=library_mgf.mgf
SEQ=*..*
IONMODE=positive
ORGANISM=MONA
NAME=(5S,8S)-8-benzoyl-2-[(Z,1S,2S)-1,2-dihydroxyhex-3-enyl]-9-hydroxy-8-methoxy-3-methyl-1-oxa-7-azaspiro[4.4]non-2-ene-4,6-dione [M+Na]+
PI=MoNA
DATACOLLECTOR=MoNA:VF-NPL-QEHF020443
PUBMED=N/A
SUBMITUSER=mwang87
TAGS=
SPECTRUMID=CCMSLIB00004711506
SCANS=20443
50.750099 0.022423 
50.812359 0.002789 
51.150299 0.005685 
51.774101 0.01349 
51.791092 0.007264 
52.08429 0.005897 
52.593742 0.006872 
52.844856 0.018915 
52.956902 0.006852 
53.091019 0.016312 
53.816402 0.012132 
54.27861 0.008586 
54.327988 0.01109 
54.340755 0.016387 
54.696125 0.005506 
55.906231 0.011136 
56.002361 0.002625 
57.070114 0.077213 
58.525841 0.003643 
59.568409 0.016933 
59.936279 0.008192 
60.044529 0.014476 
60.590317 0.003052 
60.835762 0.008201 
61.329239 0.004244 
63.393101 0.006003 
63.558292 0.007614 
63.894367 0.006048 
66.027824 0.008778 
67.05426 0.019732 
67.306847 0.018439 
68.042747 0.010448 
68.849396 0.007609 
69.374413 0.002773 
70.676918 0.01984 
70.870567 0.016625 
70.995102 0.019099 
71.085518 0.017282 
72.044472 0.009613 
72.565796 0.009257 
72.819359 0.019963 
73.428474 0.02302 
74.318146 0.005355 
74.783272 0.002708 
75.680931 0.016509 
77.50071 0.021226 
78.410713 0.020715 
78.538712 0.019642 
79.021141 0.012557 
79.883728 0.006017 
80.536469 0.015381 
81.069977 0.007211 
81.35363 0.017648 
81.752579 0.008301 
82.02636 2.312402 
82.486526 0.008343 
83.11158 0.006931 
83.248199 0.006748 
83.36158 0.015128 
84.439293 0.019738 
84.820595 0.016213 
85.036819 0.019138 
85.064545 0.019172 
85.16851 0.01477 
86.071106 0.004149 
86.505707 0.019269 
88.134132 0.005441 
89.059647 0.01262 
89.392159 0.002767 
89.794296 0.008355 
90.233582 0.013951 
93.07019 0.005367 
93.184319 0.019924 
93.538597 0.002829 
93.900421 0.01575 
94.557175 0.009306 
94.578293 0.005813 
94.776756 0.018296 
95.016853 0.007389 
95.049576 0.004058 
95.173759 0.007858 
95.459549 0.005246 
95.698883 0.006486 
96.057831 0.008546 
96.154243 0.007976 
96.312943 0.017496 
97.947563 0.015482 
98.021248 0.019608 
98.682243 0.005241 
98.866608 0.003073 
99.466911 0.005397 
100.440781 0.017234 
100.550499 0.017454 
101.120483 0.004682 
101.220795 0.00566 
101.851448 0.016665 
102.063263 0.016312 
102.982788 0.007935 
103.043419 0.005215 
105.033539 1.687669 
106.036812 0.060635 
106.458778 0.003007 
106.655907 0.01619 
109.23278 0.005476 
109.730576 0.013137 
111.043808 0.003304 
113.564293 0.008378 
114.230675 0.008211 
115.031654 0.003288 
117.147415 0.007912 
117.42617 0.00397 
118.040916 0.003352 
118.702858 0.021533 
119.526672 0.0031 
121.064629 0.008641 
123.87809 0.014616 
125.690819 0.004155 
127.30777 0.006315 
129.311584 0.008748 
131.371277 0.015515 
133.83638 0.006125 
134.059769 0.009322 
134.838638 0.017558 
135.133575 0.016848 
136.309814 0.006692 
139.038757 0.02022 
141.591873 0.01635 
142.216888 0.0199 
142.907669 0.004857 
145.01767 0.004263 
145.358871 0.011123 
147.589478 0.017621 
148.413712 0.003667 
149.020828 0.556081 
150.822601 0.010957 
151.933517 0.005538 
152.441391 0.003157 
155.033707 0.114546 
156.04184 5.510982 
157.025925 11.223794 
157.045013 0.071471 
157.049591 0.066917 
157.47023 0.010873 
157.927032 0.007 
158.029236 0.754983 
158.30722 0.010893 
159.934677 0.011462 
162.055283 0.003803 
162.541275 0.00682 
163.157364 0.005574 
164.071228 0.007115 
165.557358 0.017117 
169.601044 0.016888 
171.054291 0.009166 
175.000031 0.265863 
176.007889 0.760826 
176.208435 0.005805 
177.015808 1.887725 
177.054626 0.080627 
177.108871 0.018979 
178.023544 0.974913 
179.031326 1.204961 
179.7314 0.009382 
180.549576 0.018345 
181.840546 0.021626 
184.036819 21.940472 
184.862732 0.008685 
185.039825 1.751665 
186.052521 4.244975 
187.055862 0.198913 
187.192764 0.007111 
188.068222 1.257581 
189.015732 0.355306 
190.824265 0.018532 
191.0896 0.005557 
192.01799 0.023637 
192.026566 1.809544 
193.010849 0.077795 
193.034637 0.089749 
194.081055 0.129667 
195.084091 0.004188 
198.051926 0.066053 
199.060349 0.051837 
199.085907 0.005906 
200.067947 0.017482 
200.46698 0.01694 
202.046936 0.052496 
204.821991 0.007029 
210.972931 0.004499 
211.02417 0.010133 
212.031998 0.208958 
213.006821 0.004723 
213.039642 1.423658 
213.194366 0.716642 
213.206512 1.074914 
214.047195 0.828448 
215.044907 0.047524 
215.723145 0.021766 
216.06311 100.0 
217.013901 0.019274 
217.066498 10.08486 
217.864929 0.019028 
217.89035 0.014705 
218.068756 0.323375 
218.818817 0.020302 
221.04277 0.008753 
222.039291 0.011471 
224.031967 0.200371 
224.186951 0.018338 
224.885849 0.00581 
225.810196 0.008125 
227.962601 0.004105 
228.026886 0.021833 
229.060379 0.006564 
230.065674 0.016247 
230.692841 0.008222 
231.016983 0.009639 
232.021362 1.320951 
233.025894 0.026244 
234.075714 0.003197 
235.093903 1.316835 
239.055145 0.500318 
242.042145 0.337803 
243.230164 0.009331 
243.484406 0.006987 
243.60817 0.019511 
247.044952 0.835925 
250.032654 0.048692 
255.159363 0.011166 
255.367645 0.008252 
256.202576 0.006529 
258.728943 0.018507 
260.090424 0.003937 
261.07309 18.797197 
262.076508 2.45039 
263.088867 7.336393 
264.047241 0.034999 
264.092529 0.932591 
264.457031 0.019513 
266.055267 0.055075 
267.061676 0.048292 
267.617218 0.006612 
275.443024 0.008754 
275.465515 0.008809 
276.064911 0.004812 
276.357239 0.006845 
278.099854 0.293996 
279.083557 51.624199 
280.087036 6.583204 
281.088989 0.476539 
286.130463 0.017893 
289.044952 0.020865 
289.989471 0.01398 
293.065979 0.051136 
293.961426 0.006174 
294.049652 1.389229 
294.067535 0.023647 
295.057434 2.797109 
295.194122 0.033094 
296.061066 0.254112 
296.197449 0.032677 
304.169434 0.01091 
304.184662 0.022577 
307.106598 0.007692 
308.052612 1.146821 
308.084412 0.009312 
309.05835 0.158014 
310.068298 0.3699 
311.073456 0.00648 
313.204926 0.512335 
314.208252 0.377811 
314.913391 0.009432 
315.208679 0.004186 
317.197693 0.020776 
320.052643 0.180491 
320.11026 0.501971 
323.226959 0.014892 
328.223267 0.009487 
331.180878 0.015499 
331.215454 0.120781 
332.218994 0.070372 
334.0896 1.159068 
335.092529 0.012697 
335.922729 0.003587 
336.047974 0.086109 
337.055237 3.194588 
337.07547 0.028932 
338.062988 4.4815 
339.066437 0.689564 
339.119751 0.314133 
341.23584 0.117917 
346.283447 0.013004 
347.934753 0.003258 
354.057861 0.039566 
354.450012 0.013193 
359.247162 0.011576 
360.079742 0.021912 
360.838501 0.052547 
368.071869 0.027396 
369.081543 2.020227 
370.089172 6.079498 
371.092621 1.089363 
375.704498 0.023599 
377.005585 0.008763 
378.128906 0.024463 
379.114838 1.788306 
380.117676 0.269274 
394.126129 0.487438 
398.919495 0.00659 
401.530609 0.017774 
404.066254 0.003731 
411.144897 0.052302 
420.863281 0.017436 
422.120453 6.141602 
423.123901 1.320717 
423.349121 0.013298 
444.869232 0.01589 
445.100769 0.017358 
445.943237 0.006534 
450.416595 0.009175 
453.180573 0.013733 
453.212128 0.004848 
453.955688 0.014191 
454.146332 1.455795 
455.148987 0.234183 
455.334045 0.043368 
463.587524 0.021564 
463.870331 0.005847 
465.575287 0.004324 
471.19339 0.017652 
472.199066 0.0046 
475.59079 0.006998 
484.161926 0.022836 
END IONS

