BEGIN IONS
PEPMASS=423.0
CHARGE=1+
COMPOUNDNAME=Massbank:KO002471 Blasticidin S
LIBRARYQUALITY=3
SMILES=NC(=N)N(C)CC[C@@H](N)CC(=O)N[C@@H](C=2)[C@@H](C(O)=O)O[C@H](C2)N(C=1)C(=O)N=C(N)C1
INCHIKEY=CXNPLSGKWMLZPZ-QOBDMFJFSA-N
INCHI=1S/C17H26N8O5/c1-24(16(20)21)6-4-9(18)8-12(26)22-10-2-3-13(30-14(10)15(27)28)25-7-5-11(19)23-17(25)29/h2-3,5,7,9-10,13-14H,4,6,8,18H2,1H3,(H3,20,21)(H,22,26)(H,27,28)(H2,19,23,29)
MSLEVEL=2
SOURCE_INSTRUMENT=ESI-LC-ESI-QQ
FILENAME=Massbank_ESI_positive_8_1_2014_peaks.mgf
SEQ=*..*
IONMODE=Positive
ORGANISM=MASSBANK
NAME=Massbank:KO002471 Blasticidin S [M+H]+
PI=Putative Massbank Match
DATACOLLECTOR=Massbank
PUBMED=N/A
SUBMITUSER=mwang87
TAGS=
SPECTRUMID=CCMSLIB00000217437
SCANS=8273
62.6 19802.0 
74.2 613862.0 
80.0 108911.0 
81.0 826733.5 
82.4 14851.5 
85.1 29703.0 
90.2 34653.5 
94.0 89109.0 
95.9 44554.5 
98.0 79208.0 
106.3 39604.0 
106.9 34653.5 
108.4 14851.5 
111.5 24752.5 
112.1 1366338.0 
119.9 39604.0 
124.3 712872.0 
128.2 79208.0 
129.0 118812.0 
134.3 9901.0 
135.4 9901.0 
142.4 39604.0 
154.3 440594.5 
163.2 693070.0 
171.2 212871.5 
172.0 44554.5 
176.3 29703.0 
185.4 74257.5 
188.3 64356.5 
189.5 64356.5 
202.3 44554.5 
204.2 39604.0 
207.6 29703.0 
222.2 504951.0 
233.1 34653.5 
260.6 19802.0 
END IONS

