BEGIN IONS
PEPMASS=279.155
CHARGE=1+
COMPOUNDNAME=Lotaustralin
LIBRARYQUALITY=3
SMILES=N/A
INCHIKEY=WEWBWVMTOYUPHH-GXUZYPEDSA-N
INCHI=InChI=1S/C11H19NO6/c1-3-11(2,5-12)18-10-9(16)8(15)7(14)6(4-13)17-10/h6-10,13-16H,3-4H2,1-2H3/t6-,7-,8+,9-,10+,11?/m1/s1
MSLEVEL=2
SOURCE_INSTRUMENT=N/A-ESI-QFT
FILENAME=library_mgf.mgf
SEQ=*..*
IONMODE=positive
ORGANISM=MONA
NAME=Lotaustralin [M+NH4]+
PI=MoNA
DATACOLLECTOR=MoNA:VF-NPL-QEHF007872
PUBMED=N/A
SUBMITUSER=mwang87
TAGS=
SPECTRUMID=CCMSLIB00004698935
SCANS=7872
50.074581 0.107804 
50.230988 0.108672 
50.330509 0.085818 
50.740566 0.151041 
51.285549 0.407316 
51.852242 0.077633 
51.940739 0.194111 
52.037926 0.429623 
52.272331 0.091475 
53.002964 0.974966 
53.039371 7.817538 
53.438225 0.099128 
54.035191 0.083166 
54.868134 0.107939 
55.017288 0.226379 
55.01862 9.451425 
55.053532 0.12981 
55.054996 26.805241 
55.056477 0.177065 
55.103249 0.118225 
55.519772 0.079024 
55.521744 0.102369 
55.682442 0.089773 
56.050255 1.126727 
56.092152 0.143404 
56.311329 0.108698 
56.462044 0.116095 
56.895222 0.097353 
56.965557 38.111618 
56.967144 0.175749 
57.034267 15.478748 
57.070637 23.226786 
57.935574 0.766338 
57.96479 0.225015 
58.065884 1.449724 
58.073997 0.324988 
58.26112 0.220135 
59.049904 3.37561 
59.764229 0.429484 
59.930988 7.986783 
60.931252 0.086165 
60.952259 0.456938 
61.011379 32.982189 
61.029163 19.095085 
61.928566 1.729762 
62.014736 0.223934 
62.019199 0.709581 
62.929798 2.105937 
62.982422 0.086235 
62.990665 0.236743 
63.007183 4.869199 
63.02702 0.263937 
63.92812 2.639449 
63.964928 0.076008 
63.990837 0.078915 
64.927917 0.22578 
65.034866 0.07835 
65.03933 1.349121 
66.260902 0.166204 
66.975166 0.37698 
67.054924 37.614998 
67.396011 0.424102 
68.050148 0.345455 
68.05822 0.679891 
68.373062 0.121357 
68.972206 0.108511 
69.034195 40.153137 
69.070564 14.061784 
70.037506 0.139971 
70.065826 4.61904 
70.073944 0.241185 
70.782578 0.082 
71.013443 0.321952 
71.049835 5.97705 
71.086197 7.941189 
72.045097 0.092013 
72.081383 0.671043 
72.499161 0.141222 
73.02906 7.80695 
73.047417 8.154605 
73.065437 13.78214 
74.060852 0.130028 
74.342583 0.083719 
74.975937 0.323415 
75.188477 0.398012 
76.933739 0.49599 
77.009224 0.140812 
77.839096 0.08452 
77.941383 0.314789 
78.952721 1.521441 
79.021759 8.404133 
79.054832 16.906094 
80.050072 1.066737 
80.058113 0.228993 
80.94957 0.103292 
81.000938 0.128692 
81.034088 16.962194 
81.07045 31.36614 
81.830673 0.419125 
82.065697 1.038589 
82.073792 1.207764 
82.205185 0.238036 
82.533218 0.136716 
83.013351 0.490289 
83.049698 2.245078 
83.08606 4.262475 
84.044899 0.491517 
84.081329 1.342651 
84.960243 4.062384 
85.028954 100.0 
85.065453 0.480615 
85.101669 0.2536 
86.032333 3.594173 
86.060753 0.399041 
86.096878 0.096029 
87.044624 4.12134 
88.07618 0.855518 
88.394173 0.088117 
88.930244 0.08476 
89.060287 4.05913 
89.399994 0.12334 
90.28273 0.087748 
91.039474 0.315235 
91.054688 13.150768 
91.057838 32.905209 
91.746132 0.451396 
91.87661 0.239787 
92.057976 0.169747 
92.910629 9.3352 
92.948463 0.244031 
93.033852 0.100363 
93.037163 0.236112 
93.057701 0.456487 
93.070335 15.008957 
93.936043 0.178297 
93.956268 0.107495 
94.065605 0.867618 
94.073669 0.196002 
94.944031 4.806352 
95.008873 0.112612 
95.016251 0.152326 
95.049606 3.655369 
95.060944 0.209008 
95.085968 22.02758 
95.170242 0.087184 
95.375366 0.102076 
95.951767 2.117481 
96.045105 0.128371 
96.081062 0.37078 
96.089188 1.205725 
96.286133 0.11293 
96.941765 0.103503 
96.963264 0.107791 
96.995865 0.095118 
97.025391 0.115773 
97.028847 26.916111 
97.065186 1.059513 
97.101631 1.034217 
97.853622 0.084634 
97.949333 0.977391 
98.032173 0.182166 
98.060371 1.702711 
98.096832 2.090672 
98.351379 0.205932 
98.975777 18.867786 
99.044418 3.942584 
99.080963 0.101845 
99.948914 2.622256 
100.076195 0.681489 
101.023705 0.229818 
101.064636 0.113914 
102.970512 0.294812 
103.960724 0.094145 
105.070183 7.023599 
106.065453 1.193726 
106.073486 0.11886 
106.321465 0.260245 
107.049461 4.640532 
107.073158 0.231101 
107.085861 9.326526 
108.044777 0.106648 
108.080902 0.12641 
108.92543 0.531447 
109.004852 0.08629 
109.028702 7.011631 
109.065025 1.139374 
109.101555 5.573341 
109.285339 0.07948 
109.64447 0.08567 
109.967285 0.100148 
110.060333 0.239013 
110.567238 0.48093 
110.920998 19.600031 
110.958633 0.126254 
110.975594 4.949344 
111.044189 0.103698 
112.394402 0.123895 
112.918503 1.121663 
112.94606 0.08637 
112.95433 0.565495 
112.991272 0.238538 
114.138168 0.167971 
115.054504 0.266913 
115.871407 0.112552 
116.070824 0.111435 
116.986137 17.176205 
117.070152 1.435528 
117.102608 0.122679 
118.065399 0.146642 
118.612419 0.12578 
119.001831 0.246431 
119.018646 0.112005 
119.049538 0.212861 
119.085724 5.294162 
120.080971 1.745628 
120.980965 0.217532 
121.028587 2.702109 
121.039352 0.085313 
121.064957 0.511192 
121.101471 2.761407 
121.267494 0.085275 
122.060356 0.276453 
123.08046 0.487453 
123.116982 0.325902 
123.928627 3.340949 
123.948555 0.085493 
124.075623 0.10892 
124.936043 0.337205 
125.911415 0.12226 
126.934441 0.701471 
127.03907 3.898516 
128.061951 0.228265 
128.931519 4.667016 
128.985977 12.098851 
129.069794 0.293834 
130.928726 0.216497 
131.001526 2.39022 
131.085587 2.002359 
132.081009 0.099571 
133.101166 1.557342 
133.466476 0.435403 
134.060196 0.091803 
134.096497 0.65347 
134.97905 0.138601 
134.996521 11.329357 
135.116867 0.222388 
135.167801 0.128471 
136.075592 0.289366 
136.112152 0.1028 
136.920166 4.278326 
137.011734 1.348861 
137.096634 0.105449 
137.927994 0.293111 
138.012115 0.232578 
138.915634 43.217148 
138.95166 0.120373 
139.008759 0.343098 
139.342377 0.274799 
139.915848 1.427458 
139.923447 8.039218 
139.929779 0.11989 
140.912918 4.203282 
140.952072 0.170274 
140.985413 0.159561 
141.069717 0.309405 
141.920929 1.34135 
141.942596 0.521004 
142.947556 0.092696 
143.001617 2.881014 
143.085632 0.09998 
143.920654 1.569737 
143.929947 0.736436 
145.101105 0.954881 
145.518112 0.085881 
145.928101 0.324553 
146.096008 0.099355 
146.943909 0.499504 
146.996429 16.821793 
147.032944 0.133633 
147.116409 0.250873 
148.075638 0.181531 
149.012329 6.412393 
149.023285 15.448827 
150.026581 0.101414 
150.091354 0.097767 
152.061996 0.628745 
152.931335 0.105274 
152.985306 0.366851 
153.00708 0.395624 
153.018219 0.15792 
153.939072 4.881395 
154.930756 2.328583 
154.964462 0.116567 
155.022125 0.288979 
155.954742 4.266561 
156.023132 0.262437 
156.138214 0.347082 
156.656097 0.083958 
156.918976 0.196929 
156.926178 29.617334 
156.944366 0.302811 
156.955231 0.306759 
156.965622 0.998191 
157.018326 0.459358 
157.926529 0.311375 
157.95195 9.158738 
158.01796 0.100483 
158.923462 2.817353 
158.944366 2.353358 
158.953506 16.099014 
158.962006 6.038267 
158.99646 2.242872 
159.952103 17.579672 
160.951553 4.872622 
161.012054 5.64121 
161.048203 0.083956 
161.132416 0.213182 
162.091064 0.219724 
162.938934 0.101451 
162.991119 0.087548 
163.027527 0.561314 
163.977066 2.585746 
165.007156 2.057001 
165.069946 2.057859 
167.022644 1.136519 
167.085602 0.220037 
168.057007 0.093266 
169.065063 0.293668 
169.192825 0.100477 
169.954742 0.290736 
170.996414 2.635037 
171.035599 0.09522 
171.913132 0.354895 
171.949631 3.239266 
173.048996 0.09218 
173.94751 0.227213 
174.936752 1.405345 
174.954468 0.433649 
174.974899 0.144313 
175.027542 0.106506 
175.909668 0.116431 
175.952225 0.101278 
176.954483 2.18545 
176.972733 0.26285 
177.007065 1.584693 
177.141434 0.097808 
178.077866 1.035865 
178.734161 0.09434 
179.084976 0.31852 
180.057236 0.202237 
180.888138 4.871607 
181.064468 0.479507 
181.14505 0.091577 
181.987473 0.285209 
183.457352 0.08776 
187.777451 0.25273 
187.944748 0.51816 
188.944901 0.091718 
189.006851 0.58102 
189.941727 2.746808 
191.085495 0.135163 
191.941772 6.453532 
192.34375 0.264991 
194.072556 0.094692 
195.080368 0.413881 
196.750885 0.1235 
197.06015 0.106661 
198.898712 0.656789 
199.52652 0.087152 
201.007401 0.123521 
201.043564 0.093168 
203.143143 0.957568 
203.943176 0.469321 
205.065308 0.121151 
206.072083 0.110811 
207.080444 0.56308 
209.059357 0.268675 
219.017593 1.629771 
219.056885 2.796927 
219.174438 0.756941 
219.449493 1.116278 
219.483704 0.243517 
219.493805 0.205831 
220.028473 0.114579 
220.533691 0.227509 
221.059784 0.955301 
222.065262 0.567203 
222.898651 5.191395 
223.027191 5.95441 
223.075043 0.317857 
223.674164 0.087143 
224.228409 0.124583 
225.042801 9.436925 
225.054108 0.21818 
227.021942 3.953487 
229.001465 1.116313 
233.873581 0.089917 
234.06749 0.161101 
235.075027 2.072316 
236.083267 0.382039 
237.028107 3.24104 
237.054413 0.165605 
237.090973 0.279029 
238.062134 0.13393 
238.967926 0.108737 
240.909164 12.002133 
241.91214 0.089813 
245.2117 0.122714 
247.012009 0.49315 
247.25148 0.074344 
247.916931 0.232313 
248.988434 0.108012 
249.09053 0.09733 
250.094894 0.105187 
250.872696 0.153797 
252.983215 0.161868 
254.044785 0.18162 
254.060364 0.189212 
254.961746 0.118575 
263.070587 0.592063 
263.189972 0.427995 
264.076599 0.252166 
265.019592 0.171662 
266.611969 0.545275 
266.998871 42.390583 
268.978027 0.59328 
269.014221 0.272634 
283.03009 8.88179 
285.009186 2.383517 
293.085754 0.096912 
299.061035 0.308648 
303.020203 0.098405 
END IONS

