BEGIN IONS
PEPMASS=245.095
CHARGE=1+
COMPOUNDNAME=BIOTIN
LIBRARYQUALITY=3
SMILES=N/A
INCHIKEY=YBJHBAHKTGYVGT-ZKWXMUAHSA-N
INCHI=InChI=1S/C10H16N2O3S/c13-8(14)4-2-1-3-7-9-6(5-16-7)11-10(15)12-9/h6-7,9H,1-5H2,(H,13,14)(H2,11,12,15)/t6-,7-,9-/m0/s1
MSLEVEL=2
SOURCE_INSTRUMENT=N/A-ESI-QFT
FILENAME=library_mgf.mgf
SEQ=*..*
IONMODE=positive
ORGANISM=MONA
NAME=BIOTIN [M+H]+
PI=MoNA
DATACOLLECTOR=MoNA:VF-NPL-QEHF028113
PUBMED=N/A
SUBMITUSER=mwang87
TAGS=
SPECTRUMID=CCMSLIB00004721694
SCANS=28113
50.017036 0.041984 
50.427963 0.03387 
50.612556 0.029373 
50.700485 0.031518 
50.960304 0.028381 
51.43293 0.041271 
52.168545 0.04424 
52.586117 0.039991 
52.633213 0.042534 
52.640614 0.039276 
52.992462 0.042481 
53.038834 0.487024 
54.034065 0.47056 
54.447121 0.042343 
54.868465 0.041502 
54.871525 0.028094 
55.018066 0.657247 
55.054462 17.580025 
55.184067 0.048853 
55.822731 0.049011 
56.049702 4.775598 
56.057747 0.070869 
56.063568 0.03062 
56.185326 0.047775 
56.218815 0.031112 
56.230774 0.034758 
56.494286 0.060911 
56.833717 0.058603 
56.899807 0.060468 
57.033749 0.264153 
57.070091 1.497994 
57.121334 0.033988 
57.157684 0.056035 
57.801437 0.042603 
58.055183 0.038928 
58.065304 0.510627 
58.995178 5.246629 
59.049316 0.944613 
59.315125 0.032257 
59.511356 0.040003 
60.23597 0.042119 
61.010799 5.183559 
61.039799 8.461291 
62.346302 0.053108 
62.585987 0.051633 
62.961437 0.027868 
63.366478 0.05712 
63.645672 0.029289 
63.747932 0.039567 
63.917194 0.030015 
64.414116 0.027826 
64.623085 0.041217 
65.038673 0.556217 
65.348251 0.026588 
65.858963 0.044325 
65.875542 0.02938 
66.185196 0.04052 
66.727859 0.047931 
67.041771 0.04222 
67.054276 19.148088 
67.351265 0.032528 
67.361115 0.032977 
67.791748 0.050165 
68.049507 2.634036 
68.057617 0.318615 
68.311119 0.03134 
69.033531 0.134304 
69.044769 0.172976 
69.069908 5.679341 
69.419296 0.045862 
69.977654 0.048933 
69.99218 0.032788 
70.028694 1.081802 
70.065094 0.048149 
70.144188 0.027705 
70.163734 0.030892 
70.995003 0.099956 
71.049118 3.090025 
71.721176 0.044108 
72.108574 0.043295 
72.207832 0.044664 
72.284988 0.04811 
72.884453 0.039283 
72.974686 0.049877 
73.010597 4.389955 
74.003616 0.030169 
74.005814 5.334396 
74.947121 0.042285 
75.006287 0.030689 
75.446198 0.04533 
75.732826 0.052521 
76.021484 14.238853 
76.254639 0.034198 
76.256592 0.052815 
76.73349 0.049336 
77.038712 0.081467 
77.533737 0.045123 
77.538086 0.028602 
78.289894 0.05375 
79.051636 0.111909 
79.054161 23.562401 
79.076363 0.051172 
80.049416 2.609068 
80.057495 0.847106 
80.773933 0.03835 
81.057243 0.234938 
81.069824 15.916826 
82.028664 12.855919 
82.065041 2.500176 
82.073112 0.188286 
83.031982 0.104661 
83.049042 5.427339 
83.625771 0.036675 
84.044365 0.62016 
84.080872 0.037024 
85.010597 12.840334 
85.028206 0.262283 
85.039581 1.842174 
85.064705 1.169948 
85.274857 0.041459 
86.005806 2.004266 
86.113327 0.034888 
87.026253 4.971885 
88.021477 0.072481 
88.272034 0.062193 
88.294121 0.03149 
88.59977 0.033021 
91.054146 9.608761 
91.539665 0.030875 
92.057358 0.113572 
93.033379 0.03604 
93.069824 5.789408 
93.112747 0.048979 
93.389053 0.033742 
94.064995 3.63815 
94.162933 0.036806 
94.453484 0.033645 
95.049049 1.42416 
95.085464 6.6105 
95.355362 0.045429 
95.595139 0.028265 
96.044312 0.77471 
96.080635 2.325903 
96.088661 0.050405 
97.007004 0.607231 
97.010574 46.520283 
97.039581 100.0 
97.064713 1.113892 
97.088493 2.787463 
97.869682 0.029677 
98.013893 2.100933 
98.036781 0.09197 
98.042908 3.727037 
98.096367 4.838463 
98.371956 0.068018 
99.006241 0.31861 
99.013931 0.058501 
99.026207 6.299501 
99.055168 2.485026 
100.021461 10.707407 
100.029411 0.103619 
100.075455 0.073819 
101.005264 0.139296 
101.024902 0.049995 
101.029526 0.033769 
101.04187 5.459843 
101.059616 0.102557 
101.124352 0.055223 
102.000694 4.541847 
102.03038 0.030147 
102.045456 0.049711 
103.054123 0.828488 
104.04937 0.041281 
104.774773 0.066569 
105.069824 46.95245 
105.236984 0.031344 
106.065041 1.999701 
106.073135 3.539137 
106.07682 0.093783 
107.048897 0.044772 
107.07283 0.333139 
107.085403 4.983741 
108.044121 0.701987 
108.08062 10.494206 
108.679039 0.032187 
109.064667 2.288424 
109.084038 0.065036 
109.794449 0.033956 
110.046997 0.049179 
110.06015 0.061835 
110.096252 0.717346 
110.989723 0.698685 
111.026192 11.993879 
111.055107 2.515213 
111.988815 0.03808 
112.021446 8.432438 
112.029404 0.217652 
112.528984 0.046827 
113.041847 8.498251 
114.000809 0.757666 
114.037048 1.061865 
114.045082 0.032926 
115.053757 4.560538 
115.057869 3.669355 
116.06163 0.400315 
117.057243 0.096693 
117.143517 0.041867 
118.065018 0.667775 
120.044319 0.151426 
120.080658 4.488557 
121.001656 0.027449 
121.064682 5.27641 
122.046837 0.045658 
122.05986 0.624228 
122.096344 8.957382 
123.026138 77.739899 
123.05513 0.924255 
123.099304 0.041822 
123.104073 0.140959 
124.029617 5.368898 
124.063118 0.045508 
124.07563 1.335886 
125.021973 1.060079 
125.029282 4.1967 
125.04184 10.884481 
125.406311 0.056352 
126.00061 1.190356 
126.036987 0.110659 
126.045151 0.18543 
126.091202 0.194597 
127.057373 0.029924 
128.016342 0.65943 
128.052826 0.0485 
130.068359 0.065459 
130.981705 0.720434 
131.027176 2.033073 
131.07254 0.051644 
131.203812 0.040538 
132.080688 5.278407 
133.064636 4.355209 
133.08844 9.353184 
133.154755 0.056878 
134.018402 0.451874 
134.059952 1.390532 
134.091766 0.436183 
134.487411 0.037285 
136.0215 0.243442 
136.075638 1.626416 
137.041855 2.278415 
137.070786 1.091479 
138.000702 6.232437 
138.037079 6.651792 
138.091171 0.199716 
138.983505 0.03225 
139.00412 0.039912 
139.021088 0.28059 
139.040787 0.101236 
139.057419 36.149239 
139.850006 0.033476 
140.016266 0.831822 
140.052689 1.133104 
140.060806 2.650005 
141.011566 1.567263 
141.053467 0.165249 
142.032028 0.662206 
142.068314 0.495278 
142.397308 0.030217 
143.027267 5.332087 
143.052048 0.046589 
143.164291 0.046941 
144.997314 2.232413 
146.248856 0.027186 
147.947937 0.051816 
148.0755 2.103308 
149.041809 12.223123 
149.071091 0.293022 
150.037201 0.034451 
150.045074 0.492784 
150.091263 3.968447 
151.044189 0.042695 
151.086487 11.461048 
152.089127 0.064771 
152.094833 0.503883 
153.102051 4.784582 
154.068207 2.894675 
154.105637 0.061593 
155.027161 3.072267 
155.093018 0.032964 
156.047546 2.03982 
156.083969 4.786066 
157.043243 0.089667 
157.050598 0.063737 
159.3237 0.02732 
160.399277 0.052901 
161.452301 0.047885 
163.086365 2.569656 
163.305176 0.038843 
163.440063 0.036644 
163.529907 0.03033 
164.016266 1.081167 
164.052612 3.572966 
165.057602 0.032841 
165.102066 3.676572 
165.836426 0.043654 
166.032059 0.196237 
166.068253 33.461113 
166.727722 0.042794 
167.052322 19.385548 
167.071686 2.91436 
168.055725 1.211528 
168.06366 0.253585 
170.251419 0.053932 
172.56073 0.042657 
173.195679 0.04702 
175.086533 0.39216 
175.351395 0.039983 
176.54007 0.029841 
181.096954 0.184304 
181.653198 0.061839 
182.063187 3.869736 
183.058716 0.12165 
183.066574 0.039257 
184.042297 0.050604 
184.078857 17.518206 
184.093857 0.054575 
185.065994 0.028013 
185.074066 5.950891 
185.082214 1.196627 
186.077301 0.028284 
186.438797 0.055064 
188.449219 0.045226 
190.440048 0.034365 
191.78772 0.049076 
192.047485 8.812614 
192.931976 0.032605 
193.050781 0.279254 
193.09639 0.238241 
199.089752 18.554844 
200.092987 1.161994 
203.174362 0.046404 
205.450775 0.046033 
207.732391 0.04616 
208.147736 0.037886 
209.074127 9.80143 
209.231033 0.038065 
209.988434 0.050171 
210.058273 0.280632 
210.077423 0.391975 
210.445221 0.060304 
211.669724 0.031051 
217.409058 0.028855 
218.568527 0.054705 
218.947098 0.052808 
220.176056 0.350383 
220.186752 0.927598 
227.08461 40.971668 
228.088226 4.450568 
229.080338 0.259018 
229.323334 0.044767 
231.9953 0.035422 
243.910965 0.050593 
243.948517 0.033676 
251.861404 0.030015 
252.090652 0.065148 
253.852646 0.03971 
254.195648 0.048365 
254.443527 0.038096 
257.833405 0.037736 
258.618134 0.03657 
262.257141 0.034931 
266.596191 0.047316 
END IONS

