BEGIN IONS
PEPMASS=245.093
CHARGE=1+
COMPOUNDNAME=N-acetyltryptophan
LIBRARYQUALITY=3
SMILES=N/A
INCHIKEY=DZTHIGRZJZPRDV-UHFFFAOYSA-N
INCHI=InChI=1S/C13H14N2O3/c1-8(16)15-12(13(17)18)6-9-7-14-11-5-3-2-4-10(9)11/h2-5,7,12,14H,6H2,1H3,(H,15,16)(H,17,18)
MSLEVEL=2
SOURCE_INSTRUMENT=N/A-ESI-QFT
FILENAME=library_mgf.mgf
SEQ=*..*
IONMODE=negative
ORGANISM=MONA
NAME=N-acetyltryptophan [M-H]-
PI=MoNA
DATACOLLECTOR=MoNA:VF-NPL-QEHF000850
PUBMED=N/A
SUBMITUSER=mwang87
TAGS=
SPECTRUMID=CCMSLIB00004691913
SCANS=850
51.204163 0.014789 
51.223732 0.010992 
51.368366 0.017711 
52.224571 0.015607 
52.83688 0.019625 
52.983597 0.011712 
53.018574 0.012091 
53.746864 0.014469 
55.809238 0.015782 
55.896873 0.015433 
56.062305 0.011723 
56.103176 0.011326 
56.285976 0.025811 
56.88855 0.014646 
57.103374 0.011778 
57.23185 0.017861 
57.974171 0.013808 
58.028488 20.694195 
58.46423 0.01255 
58.762672 0.014593 
59.012566 0.451933 
59.031876 0.22031 
59.139938 0.017198 
59.223194 0.014552 
59.868896 0.015694 
61.728233 0.015583 
61.987022 0.677179 
62.372025 0.016503 
62.547058 0.016149 
63.397163 0.014537 
63.507366 0.013375 
64.125359 0.015903 
65.075043 0.017033 
65.976974 0.020526 
66.863586 0.015543 
68.025879 0.020151 
68.300682 0.01425 
68.315216 0.011039 
69.25235 0.016039 
70.028503 20.934265 
71.031891 0.637912 
71.173981 0.019308 
71.605316 0.0172 
71.960846 0.017346 
72.007812 2.057852 
72.009949 0.020879 
72.044174 3.686148 
73.04763 0.016774 
73.060112 0.011252 
73.334755 0.014133 
73.430237 0.011692 
73.733513 0.016481 
74.023453 100.0 
75.020454 0.148049 
75.026802 1.989575 
75.440521 0.016036 
75.535278 0.012825 
76.088089 0.013075 
77.086174 0.016623 
78.951881 0.017799 
78.963257 0.016631 
79.214394 0.017622 
79.667267 0.017565 
80.345428 0.02091 
80.68885 0.018591 
81.557076 0.017718 
84.04422 0.247245 
85.633537 0.016849 
86.023476 0.043981 
86.501648 0.01782 
87.548538 0.013544 
89.3713 0.017342 
90.707512 0.014816 
91.390877 0.014824 
91.928001 0.015476 
93.744003 0.01704 
96.041565 0.024849 
96.958954 0.013067 
98.023483 20.713373 
99.026909 0.712536 
102.005882 0.016629 
102.484497 0.017031 
103.544243 0.011112 
106.71479 0.013182 
108.273956 0.016534 
109.640739 0.014096 
109.659492 0.016549 
112.171097 0.022669 
114.995384 0.01659 
116.034126 20.962566 
116.04937 17.90362 
117.037567 0.863512 
117.052727 1.417379 
117.17585 0.016659 
117.328232 0.017807 
119.720955 0.012275 
120.148254 0.014678 
121.903206 0.015434 
122.376328 0.019581 
124.738251 0.014956 
129.057327 0.352809 
130.065048 2.865027 
130.363525 0.014945 
130.756912 0.01667 
131.068665 0.047999 
131.651794 0.01504 
138.070206 0.01349 
142.06514 3.22565 
143.068558 0.207686 
145.143326 0.014374 
152.994736 0.039603 
153.21785 0.015549 
155.247849 0.015974 
155.441147 0.012918 
156.080917 0.212128 
156.593185 0.016091 
157.076355 0.181224 
158.060196 0.04678 
159.091873 6.787229 
160.095428 0.552286 
161.047424 0.036601 
168.339676 0.016478 
168.410431 0.02055 
171.004974 0.019286 
172.075058 0.027258 
172.233017 0.017792 
172.238632 0.016653 
175.447174 0.013789 
178.214661 0.016231 
183.048706 0.018097 
183.092117 2.493727 
184.095428 0.117548 
186.023834 0.015396 
186.05545 2.194194 
187.059097 0.065825 
192.542557 0.01682 
192.718918 0.016201 
194.680191 0.019072 
197.906021 0.068079 
197.984177 0.017833 
199.0867 0.021912 
199.850647 0.101421 
201.102783 11.505774 
202.106308 1.3546 
202.535782 0.018739 
203.082001 96.497604 
204.085648 11.010961 
205.087967 0.313676 
207.681305 0.021788 
208.534317 0.01379 
212.804855 0.018778 
213.445633 0.018023 
214.075195 0.017003 
216.431198 0.293411 
216.446198 0.096273 
216.726013 0.016447 
219.065796 0.843857 
220.44986 0.022705 
221.562515 0.015692 
223.379837 0.020384 
227.834641 0.018605 
233.34227 0.015859 
233.716019 0.01278 
239.691956 0.014671 
241.143234 0.018339 
241.255493 0.021356 
243.181046 0.015522 
244.663254 0.016052 
245.092957 14.465925 
246.096634 1.91676 
247.097427 0.020104 
253.702515 0.020184 
264.89035 0.019343 
END IONS

