BEGIN IONS
PEPMASS=289.108
CHARGE=1+
COMPOUNDNAME=dehydrocurvularin
LIBRARYQUALITY=3
SMILES=N/A
INCHIKEY=AVIRMQMUBGNCKS-GQCTYLIASA-N
INCHI=InChI=1S/C16H18O5/c1-10-5-3-2-4-6-13(18)16-11(8-15(20)21-10)7-12(17)9-14(16)19/h4,6-7,9-10,17,19H,2-3,5,8H2,1H3/b6-4+
MSLEVEL=2
SOURCE_INSTRUMENT=N/A-ESI-QFT
FILENAME=library_mgf.mgf
SEQ=*..*
IONMODE=negative
ORGANISM=MONA
NAME=dehydrocurvularin [M-H]-
PI=MoNA
DATACOLLECTOR=MoNA:VF-NPL-QEHF016194
PUBMED=N/A
SUBMITUSER=mwang87
TAGS=
SPECTRUMID=CCMSLIB00004707257
SCANS=16194
50.627956 0.105158 
50.67828 0.145199 
51.702442 0.145768 
52.653088 0.098884 
53.483849 0.13591 
53.696571 0.140074 
53.997448 0.155076 
54.030418 0.095495 
54.03487 0.106702 
54.054771 0.102846 
54.123833 0.159988 
54.730587 0.144488 
54.774181 0.179703 
54.841164 0.101853 
54.946629 0.097192 
55.122379 0.085316 
56.451111 0.081444 
57.033138 1.144225 
57.497303 0.09967 
58.294132 0.13523 
59.012451 2.930404 
61.086788 0.14769 
61.411091 0.147985 
61.785282 0.119191 
62.506027 0.158998 
63.022629 0.355596 
63.53783 0.108633 
64.915352 0.102095 
65.001984 0.491751 
65.456131 0.131024 
65.866272 0.111745 
66.138329 0.097966 
67.43679 0.106458 
67.50042 0.14445 
68.203835 0.140034 
68.223114 0.101415 
68.418365 0.140975 
69.01313 0.13849 
70.811836 0.15519 
71.369232 0.096145 
71.503723 0.115745 
71.870384 0.140314 
72.677925 0.099225 
72.946465 0.102937 
73.479996 0.183857 
74.366379 0.094718 
75.611908 0.126569 
75.630585 0.113332 
75.814674 0.158326 
75.832329 0.092489 
76.376945 0.110174 
77.949394 0.122123 
78.465073 0.136286 
78.525398 0.172902 
79.053871 0.122319 
79.063675 0.082977 
79.427246 0.113179 
79.672516 0.084658 
79.955917 4.784526 
80.344887 0.116271 
80.564232 0.136611 
80.963776 0.60667 
81.033195 11.782435 
82.708359 0.140208 
83.900589 0.103135 
84.802055 0.105163 
86.04213 0.142129 
88.655334 0.105535 
88.722969 0.10267 
89.325943 0.143177 
89.899887 0.140087 
91.818649 0.11001 
91.895508 0.118235 
93.033058 0.159276 
93.737869 0.159144 
94.979424 4.115881 
95.048759 0.123944 
96.958733 1.316117 
97.551788 0.10694 
97.840996 0.094427 
97.979836 0.101734 
98.157913 0.113781 
98.503342 0.155595 
99.924431 6.542598 
100.551025 0.11058 
100.924591 0.135373 
100.977463 0.100314 
101.052719 0.137644 
101.174286 0.104519 
103.116348 0.107678 
105.033287 7.855639 
106.169296 0.10943 
107.012505 0.691154 
107.049019 0.097092 
107.566513 0.141492 
108.70842 0.108875 
108.737045 0.155873 
110.956352 0.101934 
110.974411 0.179905 
112.137291 0.1172 
113.77153 0.14775 
113.994789 0.15655 
115.453552 0.163255 
115.50264 0.135156 
115.756943 0.09517 
115.919449 0.53074 
115.948395 0.100436 
116.539894 0.13831 
116.629646 0.112798 
116.892891 0.164212 
117.553787 0.169432 
118.965767 0.17741 
119.049034 0.141306 
120.243492 0.145462 
121.028435 0.294626 
121.844086 0.096806 
122.035889 1.082514 
123.043892 11.460057 
123.192574 0.155939 
126.172401 0.141002 
129.410248 0.089741 
130.041336 0.313823 
131.049011 6.591797 
131.55864 0.136674 
131.878876 0.733279 
131.8965 0.997832 
132.425034 0.126988 
132.904327 1.435906 
133.028503 0.663569 
134.114914 0.117535 
134.404556 0.104131 
135.043472 0.148697 
135.250168 0.100689 
135.791199 0.171817 
139.095917 0.113062 
141.906845 0.13866 
142.980713 0.134801 
143.04921 0.273896 
144.057068 0.380662 
144.926392 0.122886 
145.064667 0.369989 
146.036133 3.550336 
146.223007 0.14506 
147.043945 4.615317 
148.951736 0.136382 
149.023148 8.097004 
152.686203 0.157312 
154.134964 0.091983 
154.859818 0.141462 
155.085968 0.102107 
155.198639 0.14274 
155.606186 0.107273 
155.750076 0.119466 
157.064743 0.113526 
158.035965 0.102939 
158.125031 0.096821 
159.043976 5.574736 
159.434921 0.132629 
160.645416 0.147769 
161.023285 18.89805 
161.46283 0.098125 
161.989166 0.119805 
162.031342 3.011111 
162.270935 0.12415 
164.736847 0.175935 
165.140915 0.129528 
171.044113 7.376005 
172.052017 2.959725 
173.023788 0.253763 
173.059631 1.483731 
173.629959 0.125757 
174.031189 6.821786 
175.039017 29.524311 
176.042236 0.921242 
177.018387 5.183838 
183.081223 0.191836 
185.059875 1.308643 
185.096313 0.1237 
185.761765 0.150031 
187.039154 7.408478 
188.047287 11.826427 
189.054871 3.967875 
190.02626 34.89518 
191.03331 1.589257 
192.019699 0.156851 
194.020813 0.116195 
195.927963 0.117296 
201.054901 2.31655 
201.09024 0.164381 
201.127167 0.143297 
203.03418 24.153694 
203.107315 0.331762 
204.042419 15.858808 
204.694626 0.118082 
205.04541 0.160065 
205.826889 0.11293 
209.194611 0.108474 
212.047241 1.193056 
215.034363 100.0 
215.871414 0.173375 
216.037689 11.787816 
217.04982 0.953028 
219.485428 0.887008 
219.496155 0.345578 
220.036926 0.20572 
227.872086 0.180459 
228.918564 0.110803 
229.050049 13.629487 
229.086761 0.106523 
230.057739 8.162723 
231.062927 0.104083 
232.174423 0.103508 
235.809814 0.096134 
236.032166 1.091226 
239.265884 0.180406 
242.565353 0.099433 
243.065857 10.713405 
244.069229 0.178177 
244.661911 0.128215 
245.080902 0.659398 
245.118942 0.155276 
247.096375 0.431094 
249.814972 0.113843 
252.270218 0.176177 
252.464172 0.147123 
256.0448 0.112704 
257.571289 0.109312 
261.876923 0.127366 
262.147186 0.115326 
265.433716 0.125596 
268.086853 0.098742 
276.759705 0.134614 
278.78479 0.121526 
289.107849 1.312106 
290.925659 0.156088 
293.162811 0.09634 
294.4216 0.122137 
306.772217 0.102197 
END IONS

