BEGIN IONS
PEPMASS=141.0
CHARGE=1+
COMPOUNDNAME=MoNA:2262720 Ectoine
LIBRARYQUALITY=3
SMILES=N/A
INCHIKEY=WQXNXVUDBPYKBA-UHFFFAOYSA-N
INCHI=InChI=1S/C6H10N2O2/c1-4-7-3-2-5(8-4)6(9)10/h5H,2-3H2,1H3,(H,7,8)(H,9,10)
MSLEVEL=2
SOURCE_INSTRUMENT=LC-ESI-QQ-LC-ESI-QQ
FILENAME=output_mgf.mgf
SEQ=*..*
IONMODE=
ORGANISM=MONA
NAME=MoNA:2262720 Ectoine [M-H]-
PI=MoNA
DATACOLLECTOR=MoNA
PUBMED=N/A
SUBMITUSER=mwang87
TAGS=
SPECTRUMID=CCMSLIB00000565464
SCANS=2716
44.7 0.099701 
59.1 90.76105 
79.0 0.166168 
86.0 1.495513 
93.3 0.132935 
95.5 0.664673 
96.7 0.432037 
99.0 0.232635 
112.8 0.066467 
122.8 0.265869 
141.1 100.0 
END IONS

