BEGIN IONS
PEPMASS=1893.57
CHARGE=1+
COMPOUNDNAME=Teichomycin
LIBRARYQUALITY=3
SMILES=N/A
INCHIKEY=BJNLLBUOHPVGFT-QRZIFLFXSA-N
INCHI=InChI=1S/C88H97Cl2N9O33/c1-3-4-5-6-7-8-9-10-60(108)94-68-74(113)71(110)58(32-101)129-87(68)132-78-55-26-40-27-56(78)126-52-18-14-38(24-47(52)90)77(131-86-67(92-34(2)103)73(112)70(109)57(31-100)128-86)69-84(121)98-66(85(122)123)45-29-42(105)30-54(127-88-76(115)75(114)72(111)59(33-102)130-88)61(45)44-23-37(13-15-49(44)106)63(81(118)99-69)96-83(120)65(40)97-82(119)64-39-21-41(104)28-43(22-39)124-53-25-36(12-16-50(53)107)62(91)80(117)93-48(79(116)95-64)20-35-11-17-51(125-55)46(89)19-35/h11-19,21-30,48,57-59,62-77,86-88,100-102,104-107,109-115H,3-10,20,31-33,91H2,1-2H3,(H,92,103)(H,93,117)(H,94,108)(H,95,116)(H,96,120)(H,97,119)(H,98,121)(H,99,118)(H,122,123)/t48-,57-,58-,59-,62-,63-,64+,65-,66-,67-,68-,69+,70-,71-,72-,73-,74-,75+,76+,77-,86+,87+,88+/m1/s1
MSLEVEL=2
SOURCE_INSTRUMENT=N/A-ESI-QFT
FILENAME=library_mgf.mgf
SEQ=*..*
IONMODE=positive
ORGANISM=MONA
NAME=Teichomycin [M+NH4]+
PI=MoNA
DATACOLLECTOR=MoNA:VF-NPL-QEHF027960
PUBMED=N/A
SUBMITUSER=mwang87
TAGS=
SPECTRUMID=CCMSLIB00004721541
SCANS=27960
131.084534 0.042299 
132.044205 0.302819 
133.0522 0.49469 
135.077774 0.037444 
135.116684 0.047951 
137.132553 0.16679 
138.054916 100.0 
138.434052 0.039614 
139.058472 6.573307 
140.058105 0.04649 
141.069824 3.294586 
142.072968 0.089664 
144.065445 78.96167 
145.069061 4.509977 
146.069977 0.101575 
147.044052 0.205397 
147.080048 0.033826 
147.475967 0.036277 
148.039322 0.040733 
149.963806 0.039506 
150.055069 0.100475 
150.92424 0.041509 
151.018417 0.054786 
152.025757 0.056754 
152.062012 0.129342 
153.033936 3.306408 
155.03096 0.4261 
155.049408 0.059716 
155.297119 0.040563 
156.065796 0.056467 
157.064713 1.075548 
158.810349 0.038696 
160.484421 0.042171 
161.335831 0.042019 
162.075943 0.194868 
164.026062 0.496261 
164.92099 0.046877 
166.005188 0.04487 
166.066208 0.042043 
167.05571 0.04954 
167.860703 0.037549 
168.020935 1.109222 
168.057526 0.479173 
168.065353 3.41455 
168.080292 0.088209 
168.252228 0.038234 
169.064636 13.535004 
170.017731 0.075916 
170.067902 1.060697 
171.043549 0.242153 
172.075546 0.447177 
172.169525 0.956936 
173.060165 0.043204 
173.824432 0.043665 
173.970718 0.037414 
176.107697 0.040956 
178.893402 0.044751 
181.064667 0.397329 
184.075226 0.101025 
184.762543 0.037928 
185.059647 2.444146 
185.461685 0.039416 
186.075989 0.785827 
186.184952 0.550471 
187.075226 1.779631 
191.043304 0.0456 
193.488861 0.038313 
194.059723 0.289638 
196.0755 1.911495 
197.059525 18.735718 
198.044891 0.040317 
198.054443 1.191034 
198.063278 2.213951 
199.039032 0.055396 
199.063049 0.094231 
199.075104 0.397139 
200.070602 0.532676 
203.537384 0.03639 
204.086823 0.515141 
208.635742 0.035067 
209.059799 0.075395 
210.054672 0.051971 
212.070419 6.406523 
213.042862 0.041242 
213.054474 11.856597 
213.073822 0.412099 
214.058136 1.125505 
214.086014 5.126576 
214.633545 0.040518 
215.070038 19.757208 
215.088638 0.404603 
216.073547 2.506109 
216.250214 0.038678 
216.93959 0.046776 
219.456482 0.040248 
220.022949 0.497861 
220.043564 0.091503 
220.074295 0.044425 
222.05481 1.023742 
223.06366 0.048869 
224.070435 3.327396 
225.043015 0.48878 
225.054276 4.528542 
225.07753 0.970587 
226.060349 0.332383 
226.085892 0.362239 
227.070145 2.414932 
230.080811 0.711197 
231.084473 0.045853 
236.070206 0.495489 
237.054123 0.091396 
238.049698 2.276505 
239.057205 0.250498 
239.081284 2.293539 
240.044266 0.102356 
240.065369 29.337 
240.08815 2.371412 
240.494492 0.042102 
241.049591 3.362837 
241.069427 4.738607 
241.096481 1.692578 
242.052475 0.069705 
242.05954 0.062846 
242.080994 39.052052 
242.095551 0.532869 
243.065567 0.081794 
243.084442 5.880064 
244.087296 0.076399 
248.164276 0.086452 
250.049194 0.055907 
250.179993 14.360468 
251.183533 2.678222 
252.0392 0.048449 
252.06514 5.268864 
253.049362 4.429216 
253.069916 0.37788 
254.052979 0.26303 
254.080734 1.252079 
255.028732 0.254083 
255.04303 0.04684 
255.07605 0.554841 
255.305679 0.043464 
255.353302 0.042419 
256.059723 0.044622 
257.058716 0.039984 
257.091827 10.738513 
258.075806 2.232954 
258.094971 1.359476 
259.059906 0.038766 
259.079773 0.064214 
259.109161 0.038279 
260.108185 0.042583 
262.047302 0.668957 
263.081604 0.042402 
264.06366 1.327878 
264.195648 8.914877 
265.070648 0.457156 
265.199341 0.605646 
266.045441 0.041111 
266.078583 1.366335 
267.076721 0.755288 
268.060211 10.484186 
268.083771 0.061284 
269.044495 0.90129 
269.065277 2.004332 
269.09137 0.333724 
270.051941 0.045239 
270.075958 0.589324 
275.031372 0.060098 
277.058075 0.068556 
278.043976 0.139881 
278.378571 0.040214 
279.074432 1.676029 
280.059387 0.78627 
280.078247 0.18687 
281.090149 0.955058 
282.075989 0.215903 
282.093903 0.05624 
283.070892 0.927097 
285.086731 2.821394 
286.070831 6.46881 
286.088196 0.216287 
287.073975 0.586599 
287.439636 0.041299 
289.036896 0.040648 
289.999817 0.04104 
290.042725 0.043669 
291.0737 0.045638 
292.058929 0.133162 
292.079285 0.042341 
295.071198 0.537556 
296.057007 0.048048 
296.983093 0.041025 
297.060577 0.282212 
297.086578 0.112882 
297.731415 0.044287 
298.998505 0.057774 
299.102203 0.742641 
301.036987 0.056053 
303.097046 0.952103 
307.069611 0.410419 
308.054413 0.296395 
308.075409 0.333455 
309.086487 0.082464 
311.810425 0.048776 
313.993805 0.058756 
314.019287 0.042236 
314.993225 0.103938 
316.048309 0.042641 
316.096558 0.04364 
316.544159 0.040863 
316.867371 0.039417 
317.007233 0.052153 
320.099548 0.112949 
321.083588 0.288565 
322.079559 0.229182 
324.098053 0.083255 
325.081787 0.043105 
326.850891 0.040395 
329.076691 3.608958 
330.080475 0.267272 
334.079407 0.148988 
335.061859 0.044124 
336.09552 0.277358 
337.19278 0.035188 
338.110382 0.897082 
339.093872 0.344527 
339.115601 0.051549 
339.591827 0.04264 
340.061829 0.047243 
345.318634 0.041973 
347.513367 0.042186 
349.079163 0.270641 
356.088226 0.045659 
363.063232 0.041911 
364.090851 0.047011 
365.07312 0.17399 
366.105652 1.486972 
367.108856 0.102436 
368.557556 0.04625 
369.471039 0.047235 
375.065857 0.056664 
380.078003 0.048701 
380.105621 0.044634 
382.099487 0.190367 
388.971924 0.036829 
390.076904 0.047612 
391.085114 0.092687 
392.089233 0.13254 
400.990784 0.044009 
401.068726 0.100868 
403.087646 0.053565 
414.027313 0.058415 
414.452484 0.040025 
417.067963 0.046719 
421.730438 0.048758 
422.681183 0.043671 
427.062134 0.138285 
429.058228 0.123077 
431.264954 0.037801 
432.086243 0.041655 
442.095764 0.052286 
443.421783 0.040244 
445.509155 0.043392 
447.344513 0.104041 
452.916748 0.03985 
454.070892 0.052266 
455.057587 0.04991 
456.085602 0.137863 
458.084412 0.151202 
463.020844 0.139078 
463.126709 0.061032 
464.023468 0.055111 
464.111267 0.115832 
466.029175 0.037796 
466.127716 0.163087 
478.959259 0.0515 
479.122681 0.05513 
483.089661 0.050112 
491.123535 0.118539 
493.030914 0.115628 
495.029022 0.109701 
495.516724 0.03675 
503.122986 0.099124 
507.113556 0.049746 
510.053986 0.062838 
519.332275 0.035131 
524.067505 0.045964 
527.093384 0.053261 
565.28186 0.047565 
568.470093 0.04196 
578.105103 0.050626 
590.072815 0.039889 
591.408142 0.046132 
607.104553 0.04519 
610.093506 0.045341 
620.062622 0.043723 
621.872986 0.04014 
622.079834 0.043743 
625.112854 0.187525 
626.117065 0.039053 
628.128357 0.047556 
629.055542 0.042757 
635.094055 0.108614 
636.102295 0.046665 
640.072083 0.040073 
642.134094 0.103828 
643.130005 0.051457 
649.085083 0.04464 
651.09845 0.298549 
652.119141 0.05171 
653.10968 0.192928 
654.11731 0.169669 
657.13916 0.056273 
660.154236 0.046259 
661.089844 0.477521 
662.091858 0.051224 
663.093811 0.290552 
664.092773 0.165991 
665.088135 0.293354 
666.109131 0.059269 
667.099243 0.291131 
668.113586 0.190891 
669.098511 0.043399 
670.128052 0.044226 
676.103088 0.415448 
677.085693 0.565992 
678.109314 1.182213 
679.096313 0.305654 
680.117065 1.100233 
681.10437 0.105479 
682.114441 0.169437 
684.110474 0.055948 
688.097107 0.360037 
689.086548 0.505271 
690.097473 0.15418 
691.085632 0.407736 
692.09375 0.140373 
693.082947 0.336774 
694.104614 0.075363 
695.080505 0.045075 
696.115112 0.04235 
697.128906 0.045711 
704.0979 1.039006 
705.100891 0.202109 
706.108093 2.354856 
707.106445 0.716908 
708.108032 1.094897 
709.113281 0.202568 
710.106873 0.149849 
716.090027 0.392597 
717.081909 0.155374 
718.09137 0.142451 
720.106567 0.092166 
721.124573 0.327182 
722.115967 0.08302 
723.124573 0.423747 
724.115723 0.154619 
726.10321 0.068477 
732.091736 0.439191 
733.094666 0.243495 
734.101196 0.865281 
735.108948 0.265311 
736.102722 0.477171 
738.122375 0.057285 
739.116333 0.048775 
744.093018 0.070027 
745.079285 0.100742 
746.08783 0.185894 
747.077454 0.075419 
747.116699 0.058102 
749.114868 0.234263 
751.11554 0.177375 
752.101013 0.105822 
759.080078 0.052689 
760.084045 2.408971 
761.085876 1.171502 
762.083069 2.99857 
763.086914 1.387156 
764.085144 0.651985 
772.091553 0.098789 
773.106873 0.243618 
773.202271 0.04388 
774.095459 0.097588 
775.109985 0.417765 
777.111694 2.476595 
778.111511 1.179369 
779.109802 2.745626 
780.112793 1.31556 
781.1073 0.560372 
782.106812 0.051931 
783.106812 0.047313 
788.076355 0.212786 
789.100647 0.198178 
790.075012 0.679377 
791.087341 0.298211 
792.086548 0.050151 
792.141846 0.123962 
793.093262 0.091165 
802.100037 0.049197 
803.094055 0.054583 
804.084656 0.058108 
805.103333 0.872666 
806.099915 0.195602 
807.103271 0.933164 
808.109741 0.311607 
809.106384 0.251187 
818.123779 0.06795 
821.104248 0.0478 
833.098694 0.393815 
834.110168 0.249357 
835.097351 0.529893 
836.103394 0.2568 
837.113098 0.055483 
852.119263 0.211544 
856.732849 0.050759 
862.124268 0.051367 
877.165649 0.055436 
880.469421 0.047891 
885.127869 0.045632 
887.182007 0.044631 
894.164062 0.047255 
900.135437 0.096547 
902.14679 0.114401 
903.150208 0.055686 
913.125732 0.048112 
928.134521 0.104421 
929.153381 0.11809 
930.15332 0.136067 
931.146423 0.069979 
933.163635 0.049928 
940.152588 0.046887 
943.138123 0.070748 
945.167664 0.050812 
946.150757 0.04959 
949.155334 0.061974 
956.138794 0.0525 
959.146301 0.044581 
961.158325 0.059628 
972.132324 0.058997 
974.17981 0.044452 
989.145386 0.044295 
1013.14386 0.054301 
1036.763428 0.045284 
1045.179565 0.058684 
1057.143188 0.05484 
1058.143311 0.049639 
1059.151123 0.220817 
1070.158081 0.122131 
1071.15979 0.061214 
1087.170288 0.048196 
1088.188721 0.055114 
1114.171753 0.054947 
1115.183838 0.114793 
1116.15625 0.060422 
1117.173706 0.059487 
1131.17627 0.228477 
1132.181396 0.078003 
1133.20459 0.056088 
1134.197144 0.045799 
1159.178711 0.221184 
1160.178101 0.135759 
1161.176758 0.104344 
1162.17749 0.057871 
1178.203003 0.118149 
1232.795044 0.049221 
1311.692749 0.045824 
1405.286011 0.048439 
1422.983643 0.044651 
1440.049927 0.045532 
1509.414185 0.044685 
1532.028931 0.047952 
1565.999634 0.046005 
1681.669922 0.047029 
1698.829834 0.043785 
1765.735718 0.047288 
1821.912231 0.045316 
END IONS

