BEGIN IONS
PEPMASS=266.122
CHARGE=1+
COMPOUNDNAME=ANISOMYCIN
LIBRARYQUALITY=3
SMILES=N/A
INCHIKEY=YKJYKKNCCRKFSL-BFHYXJOUSA-N
INCHI=InChI=1S/C14H19NO4/c1-9(16)19-14-12(15-8-13(14)17)7-10-3-5-11(18-2)6-4-10/h3-6,12-15,17H,7-8H2,1-2H3/t12-,13+,14+/m0/s1
MSLEVEL=2
SOURCE_INSTRUMENT=N/A-Linear Ion Trap
FILENAME=library_mgf.mgf
SEQ=*..*
IONMODE=positive
ORGANISM=MONA
NAME=ANISOMYCIN M+H
PI=MoNA
DATACOLLECTOR=MoNA:VF-NPL-LTQ007695
PUBMED=N/A
SUBMITUSER=mwang87
TAGS=
SPECTRUMID=CCMSLIB00004690977
SCANS=6598
149.919998 100.0 
170.929993 47.950855 
END IONS

