BEGIN IONS
PEPMASS=348.181
CHARGE=1+
COMPOUNDNAME=Gibberellin A4&A7
LIBRARYQUALITY=3
SMILES=N/A
INCHIKEY=SEEGHKWOBVVBTQ-UKJRIFTCSA-N
INCHI=InChI=1S/C19H22O5/c1-9-7-18-8-10(9)3-4-11(18)19-6-5-12(20)17(2,16(23)24-19)14(19)13(18)15(21)22/h5-6,10-14,20H,1,3-4,7-8H2,2H3,(H,21,22)/t10-,11-,12+,13-,14-,17+,18+,19-/m1/s1
MSLEVEL=2
SOURCE_INSTRUMENT=N/A-ESI-QFT
FILENAME=library_mgf.mgf
SEQ=*..*
IONMODE=positive
ORGANISM=MONA
NAME=Gibberellin A4&A7 [M+NH4]+
PI=MoNA
DATACOLLECTOR=MoNA:VF-NPL-QEHF006599
PUBMED=N/A
SUBMITUSER=mwang87
TAGS=
SPECTRUMID=CCMSLIB00004697662
SCANS=6599
50.049202 0.046713 
50.357407 0.068712 
51.928246 0.061021 
53.379368 0.051104 
53.482738 0.030379 
55.018654 1.029291 
55.035347 0.034775 
55.054947 3.822338 
55.872086 0.053831 
55.945103 0.050385 
56.050346 0.111946 
56.365482 0.03587 
56.965408 0.062818 
57.034283 0.869257 
57.07061 4.627932 
57.356705 0.046011 
57.893188 0.044952 
58.06588 9.615872 
58.145199 0.0559 
58.681389 0.034717 
59.049889 0.198913 
59.990936 0.108281 
60.045139 1.638816 
60.084343 0.07139 
60.764267 0.038438 
60.867065 0.04544 
60.985115 0.055269 
61.011345 0.065893 
61.564499 0.032944 
61.657986 0.035075 
61.98539 0.043502 
62.724159 0.055464 
62.982418 0.283434 
63.482594 0.029167 
63.580566 0.064815 
64.366753 0.069168 
64.750816 0.057076 
65.039352 0.074222 
65.274628 0.041537 
65.358833 0.050135 
66.626312 0.037489 
66.65403 0.052057 
67.054871 5.074904 
67.587608 0.032914 
67.638908 0.038542 
68.00605 0.031577 
68.049988 0.031608 
68.058403 0.040753 
68.852303 0.074929 
69.034172 0.623538 
69.070503 4.109174 
69.933182 0.05448 
70.065765 0.318316 
70.492714 0.056221 
70.786797 0.061948 
71.04982 1.169099 
71.086136 3.70506 
71.904572 0.056838 
72.045166 0.042963 
72.076729 0.035144 
72.081406 0.68826 
72.119247 0.061779 
72.27169 0.042859 
72.618912 0.05772 
72.748672 0.048435 
72.830345 0.063461 
73.788475 0.062532 
74.010216 0.063272 
74.097069 0.787015 
74.1203 0.071643 
74.488243 0.07012 
76.598671 0.053807 
78.426544 0.03707 
78.802925 0.055234 
78.841362 0.061961 
79.021812 0.546021 
79.054787 4.973866 
79.068123 0.06738 
80.023766 0.100667 
80.049896 0.04287 
80.058266 0.078593 
80.91404 0.046264 
81.033997 0.09567 
81.070457 9.752682 
81.948135 0.033233 
82.066017 0.042634 
82.073769 0.162181 
83.049721 1.322757 
83.086052 2.920883 
84.04493 0.244367 
84.081337 0.366429 
85.028923 0.262273 
85.065331 0.867268 
85.101738 0.588215 
85.122238 0.034704 
86.060455 0.054013 
86.084541 0.069178 
86.096931 0.578014 
86.212135 0.057673 
87.044556 0.583836 
88.009674 0.039587 
88.022057 0.793051 
88.076195 0.211702 
89.060181 1.631818 
90.656769 0.045734 
90.871994 0.057715 
91.054703 13.846767 
91.057793 0.115977 
91.419746 0.048984 
91.836449 0.033997 
92.058022 0.381969 
93.070328 8.377744 
93.073303 0.053332 
94.057632 0.041339 
94.065468 0.035704 
94.073814 0.1137 
94.413254 0.040181 
95.049568 1.586589 
95.085999 8.950803 
96.018456 1.893738 
96.045082 0.045663 
96.089134 0.131256 
96.139442 0.059582 
96.189491 0.051516 
97.028793 0.051497 
97.06514 1.418922 
97.101593 1.792239 
97.78846 0.051562 
98.096855 0.143974 
99.044403 0.425212 
99.080811 0.806608 
100.076218 0.400689 
101.060059 0.194364 
101.232002 0.075118 
101.809662 0.044528 
102.730247 0.071599 
103.054581 0.132249 
105.07019 6.720084 
105.704941 0.045947 
106.073502 0.241037 
106.347549 0.044654 
107.049507 0.879185 
107.085838 6.423241 
108.08123 0.197254 
108.08931 0.131516 
109.025993 0.049991 
109.028946 0.042901 
109.065033 1.934547 
109.101364 4.908978 
109.237946 0.038281 
109.851364 0.054015 
110.060326 0.134002 
110.096619 0.05298 
110.104744 0.082069 
111.044334 2.73399 
111.080673 1.042918 
111.801514 0.034928 
111.929092 0.039796 
112.112068 0.080307 
113.060081 0.27023 
113.096626 0.046365 
114.325844 0.047314 
115.049911 0.050221 
115.05455 0.11584 
115.71032 0.057922 
116.052994 3.399355 
116.665985 0.058584 
117.069984 5.095063 
118.073074 0.040938 
118.086067 0.152576 
119.049248 0.185174 
119.085701 10.76934 
119.666084 0.037862 
119.761719 0.040802 
120.080933 4.251445 
120.088943 0.458681 
120.125542 0.071043 
120.338715 0.073341 
121.064911 2.28597 
121.10125 4.498588 
122.060158 0.071933 
123.044273 0.358921 
123.080521 1.89646 
123.116989 0.633426 
124.039459 0.149779 
124.075836 0.232756 
124.349457 0.059604 
125.059731 0.710217 
125.096298 1.027647 
126.09153 0.460472 
127.075455 0.089521 
127.86322 0.05693 
128.143509 0.09508 
129.069992 1.070096 
129.09169 0.053745 
129.155136 0.049644 
130.153641 0.056595 
130.158997 4.312779 
130.36882 0.044196 
130.979752 0.048939 
131.049149 0.244876 
131.085495 4.740242 
131.16275 0.05977 
132.080933 0.059091 
132.088943 0.188596 
132.50795 0.033237 
133.064758 4.296695 
133.101135 4.363175 
134.06012 0.043779 
134.068314 0.21177 
134.096558 0.088234 
134.978561 0.248658 
135.041946 1.175028 
135.080368 3.222644 
135.116776 1.942087 
135.583481 0.070833 
135.886368 0.051884 
136.049362 1.718045 
136.075272 0.071871 
136.11232 0.067395 
136.120178 0.038783 
137.059692 0.510448 
137.096085 0.754889 
137.323074 0.057733 
138.091675 0.047201 
138.127548 0.038448 
139.038681 0.049697 
139.075226 3.777041 
139.111801 0.108083 
139.687775 0.03863 
140.474762 0.078642 
141.009842 0.036202 
141.070038 0.284833 
142.08606 0.042805 
142.791443 0.058942 
143.085373 4.087074 
143.460739 0.036154 
144.007416 0.036701 
144.088821 0.089103 
144.101379 0.036563 
145.064697 0.515634 
145.101044 3.927555 
145.625351 0.033754 
145.881958 0.068417 
146.059921 0.065331 
146.097137 0.046219 
146.104324 0.087093 
146.974304 0.188085 
147.044113 0.088205 
147.080368 1.356365 
147.116791 2.474815 
148.075928 0.075771 
148.112015 0.038626 
148.119827 0.091027 
149.059448 0.692081 
149.096039 1.229771 
149.132324 0.222394 
150.04039 0.541247 
150.091568 0.093119 
151.075455 0.361784 
151.111588 0.413068 
152.263809 0.070426 
152.989044 0.177046 
153.069977 0.112284 
153.090759 0.816504 
154.086456 0.080447 
155.085281 2.568407 
157.026566 0.058603 
157.06514 0.043993 
157.10112 2.844888 
157.305862 0.073737 
157.590836 0.041949 
158.059586 0.054727 
158.104233 0.05936 
158.218597 0.062111 
159.080215 1.046207 
159.116653 2.004591 
160.075851 0.041807 
160.111969 0.037466 
160.541138 0.068862 
161.059494 0.164747 
161.083466 0.102083 
161.096039 1.293985 
161.132385 0.577123 
162.055222 0.065689 
162.091171 0.538499 
162.12674 0.038882 
163.036423 0.283052 
163.074524 0.846009 
163.111603 0.880782 
163.501633 0.058118 
164.069916 0.039144 
164.106735 0.260351 
165.054321 0.0825 
165.070435 0.043313 
165.090912 0.881748 
165.127731 0.048204 
166.077545 0.044564 
166.086029 0.053785 
166.876663 0.060202 
166.933746 0.037885 
167.07045 0.097854 
167.08551 0.502877 
167.106323 0.049242 
168.027405 0.037579 
169.101089 2.445924 
171.080322 0.504205 
171.116837 1.792216 
171.715134 0.063998 
172.11496 0.053046 
173.059265 0.041403 
173.096161 1.105563 
173.13237 0.99058 
174.063293 0.040258 
174.091446 0.050826 
174.127655 0.048299 
174.377579 0.059098 
174.972153 0.058238 
175.075333 0.492973 
175.111725 0.605284 
175.148438 0.046982 
176.106766 0.116577 
177.090988 0.356655 
177.102036 0.154659 
177.126999 0.100556 
178.059616 0.149769 
178.122131 0.116577 
179.085495 1.030201 
179.106232 0.173898 
180.045029 0.051867 
180.093155 0.074623 
180.101562 0.573591 
181.049393 0.03609 
181.086044 0.067496 
181.100967 5.745625 
181.109177 0.055799 
182.042542 0.376516 
182.081192 0.109955 
182.104568 0.147397 
183.080811 0.108297 
183.116791 2.708921 
183.501556 0.047921 
183.913757 0.041116 
184.120132 0.089727 
185.095901 3.314901 
185.132523 1.447206 
186.099716 0.085302 
186.135773 0.060643 
187.075241 0.803231 
187.111801 0.802288 
187.148239 0.281047 
189.090759 0.412681 
189.126877 0.056194 
190.122833 0.056614 
191.068741 0.060495 
191.106644 0.39889 
192.101654 0.171379 
192.137848 0.059839 
192.788834 0.05225 
193.101059 1.63369 
193.122559 0.05356 
193.896759 0.046018 
194.105972 0.102595 
194.72789 0.041572 
195.080063 0.257031 
195.116638 4.524064 
195.158936 0.079134 
196.120239 0.171599 
197.096161 1.054148 
197.132401 1.982319 
197.743301 0.068182 
197.983765 0.063534 
198.089722 0.04966 
198.13623 0.107703 
199.075455 0.108643 
199.111816 0.887182 
199.14801 0.729659 
200.070648 0.051375 
201.090805 0.676907 
201.12735 0.460953 
202.12236 0.714275 
203.070374 0.045143 
203.106659 0.434101 
203.143021 8.67872 
204.087524 1.690923 
204.146378 0.639921 
205.122177 0.304851 
206.082825 0.403143 
206.978012 0.042796 
207.117065 0.056271 
208.123795 0.044476 
208.453461 0.054401 
209.095764 0.798949 
209.132355 1.486768 
209.810852 0.05997 
210.028152 0.050164 
210.073883 0.054961 
211.075241 0.046075 
211.111511 1.031604 
211.148041 1.421882 
211.205627 0.132858 
212.115326 0.043619 
212.237198 0.584837 
212.757477 0.065624 
213.090607 0.120856 
213.127274 0.76531 
213.163681 0.67256 
214.667282 1.385845 
214.676208 2.207805 
214.686722 0.334042 
215.106598 0.361561 
215.1259 0.269227 
215.143066 0.190301 
217.122482 0.045566 
218.117172 0.073439 
219.17424 100.0 
220.097351 0.054827 
220.132874 0.119459 
220.177628 14.414203 
221.13208 0.576364 
221.180313 0.157746 
222.112778 0.362853 
222.136444 0.044837 
223.111572 0.474046 
223.147781 5.999216 
224.151367 0.630056 
224.58786 0.047093 
225.090881 0.281166 
225.127014 0.365165 
225.163696 0.062861 
226.130859 0.049639 
226.447708 0.058068 
227.106186 0.757687 
227.142776 0.280429 
227.179214 1.473942 
228.181641 0.057247 
229.122421 0.19129 
229.158112 0.1584 
229.194931 1.266068 
229.245026 0.07474 
229.957108 0.038589 
230.116241 0.056568 
230.198608 0.066059 
231.126465 0.046922 
231.174149 0.212921 
231.793564 0.04106 
233.891678 0.037896 
234.14946 0.043359 
235.111862 0.044923 
236.035599 0.049941 
237.090256 0.048786 
237.12735 0.266 
237.163757 1.882927 
238.167389 0.184683 
239.106796 0.412625 
239.142715 2.630242 
239.179214 1.426658 
239.419235 0.038414 
240.182571 0.057491 
240.267853 0.062141 
241.121964 0.389019 
241.158157 0.291996 
241.194611 0.356468 
243.174454 0.042675 
243.960648 0.041693 
244.345947 0.067453 
244.978149 0.08708 
245.116013 0.052248 
245.18956 0.187371 
245.372101 0.036905 
246.135269 0.044315 
248.393982 0.050664 
249.126114 0.10094 
249.185028 0.293844 
249.57518 0.048401 
251.106888 0.041376 
251.142532 1.731548 
254.247177 0.181307 
255.137207 0.61485 
255.173981 4.816694 
256.177002 0.459676 
256.263397 0.106127 
257.152771 0.073063 
257.189697 0.992748 
258.975861 0.04361 
261.718018 0.077518 
262.14389 0.298174 
265.158112 0.479848 
267.137909 1.665863 
267.173828 0.271152 
268.140991 0.141416 
269.152344 0.076398 
271.082733 0.042485 
273.184662 0.529365 
275.092285 0.057251 
276.217804 0.051264 
279.099915 0.039491 
283.132935 0.046491 
283.168976 4.499825 
284.172058 0.210969 
285.147949 0.22638 
285.184174 0.784648 
286.017365 0.360663 
286.180725 0.100557 
286.439026 0.045784 
287.024872 0.039456 
288.159332 0.064112 
288.194183 0.061831 
289.154327 0.190966 
289.215637 0.041731 
293.150879 0.038723 
295.132385 1.307648 
299.101196 0.05482 
299.56723 0.07384 
301.179352 0.881505 
302.026855 0.044922 
304.112518 0.092268 
304.189972 0.061161 
305.156586 0.05692 
305.308624 0.050406 
305.936768 0.051208 
310.843414 0.309574 
311.832245 0.046971 
312.838501 0.700277 
314.174255 0.099408 
315.177094 0.138202 
316.175995 3.699821 
317.179443 0.247776 
325.83194 0.047779 
327.825134 0.274642 
329.172394 0.05495 
330.132324 0.041356 
330.206299 0.049733 
330.278992 0.612334 
331.152466 0.38232 
332.220886 0.043203 
336.838806 0.046881 
342.832458 0.062853 
344.827667 0.161461 
346.309631 0.584569 
346.346405 1.639881 
346.974274 0.441321 
347.145355 0.245758 
347.182404 0.585636 
347.20282 0.832414 
347.227173 0.057031 
347.307953 0.250524 
347.349457 0.403206 
347.973969 0.048401 
348.201965 0.149966 
348.252655 0.106648 
348.289459 0.190038 
348.326202 0.217428 
349.182343 55.362434 
349.236481 0.068575 
350.185364 5.697937 
350.94635 0.036953 
354.083099 0.076279 
357.253357 0.066508 
360.83667 0.070687 
361.163696 0.056895 
366.319916 0.057977 
367.58606 0.039756 
371.93512 0.052738 
END IONS

