BEGIN IONS
PEPMASS=291.123
CHARGE=1+
COMPOUNDNAME=dehydrocurvularin
LIBRARYQUALITY=3
SMILES=N/A
INCHIKEY=AVIRMQMUBGNCKS-GQCTYLIASA-N
INCHI=InChI=1S/C16H18O5/c1-10-5-3-2-4-6-13(18)16-11(8-15(20)21-10)7-12(17)9-14(16)19/h4,6-7,9-10,17,19H,2-3,5,8H2,1H3/b6-4+
MSLEVEL=2
SOURCE_INSTRUMENT=N/A-ESI-QFT
FILENAME=library_mgf.mgf
SEQ=*..*
IONMODE=positive
ORGANISM=MONA
NAME=dehydrocurvularin [M+H]+
PI=MoNA
DATACOLLECTOR=MoNA:VF-NPL-QEHF016206
PUBMED=N/A
SUBMITUSER=mwang87
TAGS=
SPECTRUMID=CCMSLIB00004707269
SCANS=16206
50.085125 0.008731 
50.17337 0.044505 
50.264439 0.009167 
50.35009 0.009838 
50.502617 0.007919 
50.672421 0.032904 
50.954388 0.031234 
50.994232 0.016643 
51.023354 0.10458 
51.032242 0.05595 
51.196831 0.015893 
51.286259 0.023263 
51.940323 0.036295 
52.015083 0.007893 
52.043308 0.048318 
52.095322 0.032892 
52.282139 0.036124 
53.00259 0.691116 
53.01672 0.049811 
53.038937 12.611668 
53.141594 0.057772 
53.94281 0.059401 
54.042252 0.06982 
54.184418 0.014312 
54.191429 0.01036 
54.280308 0.012712 
54.937752 0.07533 
54.941887 0.008846 
55.018173 5.413745 
55.054554 31.429197 
55.362064 0.068106 
55.399273 0.050162 
55.467072 0.049878 
55.620609 0.01731 
55.763496 0.064952 
55.827656 0.009709 
55.934689 1.091087 
56.036034 0.009617 
56.057896 1.119453 
56.366188 0.057426 
56.502029 0.047672 
56.783623 0.019299 
56.90868 0.018242 
56.965084 40.295006 
57.033802 2.527933 
57.070171 3.221401 
57.211864 0.061274 
57.935051 1.363883 
58.110851 0.024607 
58.137852 0.067827 
58.260075 0.03952 
58.46323 0.014206 
58.59549 0.056324 
58.610897 0.007636 
58.750374 0.009919 
58.796654 0.019742 
58.895512 0.039982 
59.003792 0.017678 
59.049473 0.143934 
59.21056 0.024901 
59.364262 0.020408 
59.455399 0.009812 
59.537678 0.009328 
59.815151 0.056858 
59.930473 0.110873 
60.258488 0.035669 
60.451077 0.009932 
60.470284 0.053284 
60.476269 0.019493 
60.598038 0.055308 
61.010899 5.287008 
61.574123 0.009444 
62.817909 0.049007 
62.87561 0.025216 
63.026398 0.057542 
63.136955 0.056325 
63.556488 0.025655 
63.828339 0.008266 
63.959332 0.011844 
63.997974 0.056309 
64.2416 0.011832 
64.399132 0.010157 
64.434349 0.056451 
64.767288 0.008286 
64.845924 0.054556 
64.925179 0.057075 
65.028831 0.063842 
65.038765 4.812246 
65.247055 0.056045 
65.339409 0.050423 
65.553185 0.03757 
65.59507 0.062123 
65.844322 0.025349 
66.046623 0.320088 
66.667847 0.009301 
66.74028 0.009365 
66.821129 0.015463 
67.054405 30.305918 
67.730339 0.02708 
67.735741 0.051208 
67.742348 0.024001 
68.057716 0.605844 
68.10759 0.013224 
68.834465 0.009628 
68.997215 5.861335 
69.033676 0.387295 
69.07 2.658144 
69.272957 0.025468 
69.813103 0.031248 
69.961052 0.795965 
70.065239 0.677635 
70.318993 0.009291 
70.690498 0.008935 
70.957962 3.826061 
70.980507 0.96781 
71.013008 0.067194 
71.049309 0.441449 
71.08548 0.273148 
71.682976 0.028702 
71.870628 0.060347 
71.929329 0.243594 
72.105286 0.051765 
72.508003 0.034039 
72.911156 0.057851 
72.93718 0.963102 
73.599136 0.05876 
73.828232 0.054541 
74.448975 0.009308 
74.975441 1.866466 
75.21373 0.011049 
75.265038 0.010954 
75.440643 0.00882 
75.912277 0.044013 
76.513702 0.012244 
76.680153 0.055407 
77.038658 0.163226 
77.288673 0.047801 
77.416115 0.0106 
79.02124 0.923586 
79.054291 43.931503 
79.165817 0.049001 
79.295502 0.021549 
79.319374 0.054745 
79.402725 0.062365 
79.712181 0.055719 
79.898659 0.027747 
80.057617 2.292095 
80.099075 0.010084 
80.153023 0.056084 
81.033546 6.957751 
81.069946 100.0 
81.909187 0.023064 
81.968475 0.010576 
81.971344 0.010119 
82.07328 6.34802 
82.438232 0.010288 
82.886574 0.062378 
82.892609 0.048825 
83.049217 1.571255 
83.114708 0.008874 
83.296631 0.065535 
83.39328 0.008564 
84.196556 0.019457 
85.064835 0.32087 
86.145897 0.035789 
86.719788 0.009437 
86.97538 0.365086 
87.117943 0.059523 
88.075729 0.477424 
88.101128 0.010861 
88.391754 0.008431 
88.936829 0.313842 
88.968384 0.189246 
88.990952 0.155908 
89.719391 0.008459 
90.044579 0.010331 
90.728249 0.02098 
90.813774 0.057665 
90.947731 0.398101 
91.054291 6.896798 
91.526093 0.039066 
91.678612 0.020437 
91.895027 0.066391 
92.449188 0.064852 
92.985863 0.010982 
93.033585 0.837193 
93.069931 7.969653 
93.082886 0.022866 
93.382065 0.029906 
93.606918 0.041549 
93.84214 0.02305 
94.359291 0.053258 
94.678467 0.02271 
94.978081 0.009342 
95.049194 7.726977 
95.085579 22.210773 
96.05233 0.014666 
96.088852 0.884429 
96.675217 0.0563 
97.064804 0.476515 
97.307129 0.022278 
98.975395 0.182822 
99.044189 0.028278 
99.080513 2.30248 
100.083672 0.009264 
101.100868 0.012904 
101.259415 0.040899 
102.07518 0.055138 
102.948883 0.009235 
102.978592 0.045175 
103.054268 3.979957 
104.057648 0.081226 
105.033852 0.23974 
105.044807 0.327604 
105.069984 8.049324 
105.403557 0.012393 
105.444351 0.042815 
105.840851 0.057071 
105.91732 0.043118 
106.07338 0.2512 
106.595901 0.012323 
106.939575 0.010144 
106.983559 0.0543 
107.049171 7.174855 
107.085526 0.130692 
107.415993 0.013992 
108.012222 0.016411 
108.216812 0.026041 
109.064835 1.178364 
109.619888 0.009016 
110.140076 0.032327 
110.251366 0.013657 
110.982567 0.017917 
111.039925 0.159053 
111.044098 20.955303 
112.047394 0.681571 
112.254486 0.056919 
114.360466 0.011678 
114.401825 0.009103 
114.641365 0.017478 
115.054306 3.132147 
116.432236 0.009086 
116.563126 0.017121 
116.985863 0.128797 
117.069855 1.634576 
117.646935 0.017763 
118.947266 0.066761 
119.049149 3.562245 
119.085594 0.558495 
119.918404 0.031616 
119.980644 0.009637 
120.080917 0.026775 
120.387558 0.06035 
120.560646 0.061249 
120.940598 0.577022 
121.028458 29.682892 
121.039513 0.078407 
121.06485 6.189777 
121.982529 0.056769 
122.031815 1.578292 
122.068184 0.033069 
122.94091 0.176176 
123.04409 29.582897 
123.08049 1.099339 
124.047386 1.131953 
124.186394 0.053539 
124.79834 0.037063 
124.935638 0.008742 
125.037315 0.009368 
125.059769 1.797257 
125.357086 0.061109 
126.063446 0.01205 
126.638481 0.012781 
127.963402 0.051889 
128.062073 0.438604 
128.449905 0.010527 
128.963852 0.106922 
129.06987 2.52548 
130.11734 0.016384 
130.254501 0.064029 
130.398468 0.025982 
131.049179 5.389483 
131.085617 1.043253 
131.961517 0.042964 
132.052368 0.013748 
132.958267 0.023137 
133.064819 3.746435 
133.100922 0.013567 
133.510666 0.037365 
133.606216 0.055592 
133.948517 0.141909 
134.942352 10.919415 
134.955811 0.133388 
134.978729 43.125687 
134.996567 0.041156 
135.044113 6.47422 
135.08046 0.266199 
135.927368 0.034077 
136.392563 0.018709 
136.922043 0.040124 
136.935822 0.067959 
137.01181 1.35902 
137.023453 0.743008 
137.059723 2.538291 
137.302231 0.066611 
137.928177 0.279063 
138.177979 0.010792 
138.350815 0.010169 
138.794861 0.014055 
139.039062 1.454279 
141.069931 1.441698 
141.690079 0.06104 
141.725296 0.053384 
142.077835 0.048537 
143.049316 0.093712 
143.085556 0.155334 
143.80452 0.009276 
144.057159 0.383337 
145.025146 0.033941 
145.064819 1.983321 
146.068832 0.00959 
146.217529 0.012135 
146.974472 2.2065 
147.044159 11.960941 
147.080505 0.896598 
147.347031 0.058279 
147.974854 1.507019 
148.046936 0.017931 
148.052216 1.179268 
148.689056 0.036568 
148.971985 6.495312 
148.978821 0.043753 
149.010712 0.058944 
149.023453 5.077203 
149.059845 13.870406 
149.408478 0.029224 
149.582581 0.041168 
149.60733 0.010319 
149.97197 0.080096 
150.063141 0.633656 
150.613708 0.026399 
150.723175 0.023611 
150.951004 0.427942 
150.969009 0.069129 
151.027542 0.042535 
151.039017 11.940304 
151.958801 0.071815 
152.042313 0.330573 
152.062225 0.04406 
152.297989 0.021741 
152.952972 38.006435 
152.968933 0.01268 
152.989334 27.819529 
153.054581 1.481916 
153.069992 0.615301 
153.959412 9.205166 
153.965485 0.009975 
154.337646 0.043809 
154.932281 1.549019 
154.948669 0.400944 
155.022156 0.244625 
155.211487 0.009584 
155.324295 0.039267 
156.787247 0.012062 
157.064865 2.21039 
157.101151 0.076472 
158.004944 0.045233 
159.043961 0.782803 
159.080338 0.499006 
159.814835 0.030914 
160.051956 4.516648 
160.084946 0.06288 
160.358536 0.061234 
161.05986 21.837837 
161.096207 0.063777 
161.83374 0.035772 
162.062912 1.598176 
163.039108 4.93256 
163.075363 1.335789 
163.756393 0.056654 
164.047211 0.023008 
165.018723 0.071277 
165.054794 7.562028 
165.07016 0.349716 
165.181625 0.014518 
166.058258 0.118559 
166.077545 0.107876 
166.129105 0.008639 
166.454941 0.03169 
166.982498 0.756987 
167.03392 87.067917 
167.88623 0.157325 
168.037308 7.589185 
169.037537 0.065413 
169.064819 0.544924 
170.038345 0.04409 
170.072815 0.059268 
170.642242 0.065947 
170.963531 96.013222 
170.999817 2.108466 
171.01329 0.015218 
171.044022 0.218909 
172.163849 0.045277 
172.17189 0.00998 
172.942886 4.307062 
172.959381 3.293945 
172.96759 0.41913 
173.059891 3.110342 
173.096603 0.015571 
173.871948 0.049042 
174.06781 0.059376 
175.039078 7.023218 
175.075348 4.370835 
175.082581 0.068141 
176.046921 1.51557 
177.01825 0.908154 
177.054703 17.342875 
178.058075 1.410031 
179.034225 0.087325 
180.880371 0.008885 
180.887985 1.007997 
181.049393 0.425086 
181.064896 0.751243 
181.1008 0.054969 
181.787079 0.055387 
181.837418 0.05778 
182.214783 0.057005 
182.457993 0.049367 
182.952652 0.056448 
183.094727 0.017946 
183.768478 0.038816 
184.051132 0.012464 
184.705643 0.0242 
184.979568 0.044036 
185.059845 3.551177 
185.939163 0.060517 
185.949051 2.442055 
186.067474 0.096903 
186.936081 0.152867 
187.038895 0.103144 
187.075455 2.023843 
187.290207 0.015412 
187.922684 0.032104 
188.047363 0.31134 
188.083023 0.116032 
188.974075 51.704071 
189.054672 16.350918 
189.343903 0.05725 
189.976166 0.088191 
190.059296 0.74838 
190.953232 1.597708 
190.969757 1.270224 
190.979095 0.019522 
191.07019 0.236514 
192.041351 0.014209 
192.949371 0.010116 
193.049637 5.22852 
193.902634 0.019995 
194.053513 0.048759 
194.072815 0.031343 
195.080673 0.0854 
195.46138 0.03297 
197.059784 2.265682 
197.890915 0.324685 
198.067657 4.641052 
198.898285 0.05216 
199.075516 1.234568 
200.488968 0.049462 
200.974686 0.014034 
201.054642 0.594467 
201.090912 0.343476 
201.984268 0.038199 
202.169846 0.070404 
203.033401 0.158967 
203.070312 2.711277 
203.106781 0.353444 
203.143021 0.813201 
203.883484 0.066215 
205.049591 4.595801 
206.052429 0.053627 
206.868225 0.082287 
206.984787 1.452436 
207.978897 0.025727 
208.55455 0.017928 
208.909531 0.010254 
208.938004 0.015353 
209.096298 0.170625 
209.191223 0.017154 
209.891586 0.09131 
210.959656 0.020369 
211.075928 0.134594 
212.083191 2.005855 
212.96936 0.011438 
213.054916 0.253861 
213.090363 0.02793 
213.886246 0.043682 
213.906433 0.011604 
214.004135 0.018212 
214.062347 0.091401 
214.8936 0.063382 
215.070374 0.215616 
215.901733 0.153367 
215.9823 0.018502 
216.96553 0.012512 
218.997238 0.0102 
219.17453 0.859193 
219.424927 0.070887 
219.438675 0.347406 
219.446823 0.302924 
219.878799 0.032978 
220.902969 0.013868 
221.865417 0.013116 
222.898804 3.126264 
223.900558 0.227729 
224.878357 0.146013 
224.899078 0.183364 
227.106888 0.340938 
230.90712 0.069883 
230.967148 0.33875 
232.885635 0.029664 
234.560623 0.057237 
236.850082 0.011214 
237.961212 0.038024 
238.914062 0.110559 
240.446075 0.054379 
240.909317 6.30938 
241.886139 0.070519 
241.91095 0.754679 
242.909775 0.864624 
243.907928 0.067493 
244.909836 0.585741 
245.117416 0.131419 
248.037918 0.030634 
249.020828 0.012802 
251.908646 0.010321 
255.896072 0.013258 
258.643555 0.028779 
259.003998 0.04663 
259.646881 0.009139 
259.897247 0.035264 
260.029022 0.056824 
261.083588 0.17217 
267.358002 0.013619 
267.924286 0.044106 
268.794342 0.016897 
269.520538 0.030877 
269.820862 0.300731 
273.01355 0.016801 
274.980682 0.05837 
284.808105 0.400368 
285.815918 0.53767 
285.835144 0.199448 
286.523468 0.042356 
286.823181 0.043009 
287.83136 2.216011 
287.950287 0.05073 
288.837128 0.018572 
291.1297 0.588032 
293.037292 0.068592 
298.657867 0.010856 
299.81546 0.055357 
301.810303 0.662678 
302.818481 2.039628 
303.819092 0.011396 
306.104004 0.054898 
END IONS

