BEGIN IONS
PEPMASS=578.355
CHARGE=1+
COMPOUNDNAME=destruxin A
LIBRARYQUALITY=3
SMILES=N/A
INCHIKEY=XIYSEKITPHTMJT-UHFFFAOYSA-N
INCHI=InChI=1S/C29H47N5O7/c1-9-12-21-27(38)34-16-11-13-20(34)26(37)31-23(18(5)10-2)28(39)33(8)24(17(3)4)29(40)32(7)19(6)25(36)30-15-14-22(35)41-21/h9,17-21,23-24H,1,10-16H2,2-8H3,(H,30,36)(H,31,37)
MSLEVEL=2
SOURCE_INSTRUMENT=N/A-ESI-QFT
FILENAME=library_mgf.mgf
SEQ=*..*
IONMODE=positive
ORGANISM=MONA
NAME=destruxin A [M+H]+
PI=MoNA
DATACOLLECTOR=MoNA:VF-NPL-QEHF017769
PUBMED=N/A
SUBMITUSER=mwang87
TAGS=
SPECTRUMID=CCMSLIB00004708832
SCANS=17769
50.314838 0.041318 
50.321384 0.046048 
50.322685 0.040935 
50.361618 0.041769 
52.629894 0.033082 
52.728889 0.028042 
53.022797 0.030965 
53.038944 1.119879 
53.149387 0.049991 
53.314678 0.025864 
54.155964 0.052121 
54.912674 0.033257 
55.016792 0.157837 
55.018181 21.425161 
55.019691 0.117241 
55.054565 2.2204 
55.470551 0.055109 
56.021442 0.089376 
56.049801 1.989188 
56.257126 0.044403 
56.4412 0.025027 
57.070248 0.030653 
57.455708 0.034066 
58.065426 100.0 
58.589638 0.034986 
59.068745 2.63169 
59.154251 0.028154 
59.295223 0.03488 
59.873959 0.027213 
60.041553 0.033191 
60.119274 0.042465 
60.626839 0.051673 
60.702747 0.033726 
60.789562 0.040147 
61.028633 0.410334 
61.708385 0.042204 
62.561363 0.041985 
62.757965 0.030299 
62.900482 0.047467 
63.293919 0.042947 
63.794239 0.047214 
64.077858 0.027389 
64.22718 0.029407 
64.233101 0.042091 
64.488632 0.045345 
64.901474 0.030554 
65.194725 0.039892 
65.326874 0.023964 
65.384811 0.039862 
65.452217 0.056998 
67.007401 0.037265 
67.290199 0.027678 
67.554649 0.037128 
68.049606 9.603809 
68.4067 0.033771 
68.534996 0.026901 
69.057739 0.04371 
69.069984 0.423999 
69.276932 0.042647 
69.699623 0.041156 
70.065239 36.826847 
70.067421 0.512986 
71.049217 7.840275 
71.068542 0.88693 
71.073082 0.377704 
71.181831 0.037659 
71.426155 0.038215 
71.471664 0.048233 
72.044464 7.645574 
72.713875 0.063042 
73.028465 0.474152 
73.76889 0.036889 
73.933342 0.046769 
75.063431 0.041588 
75.227867 0.040829 
75.523323 0.029307 
75.593117 0.038073 
75.669754 0.038195 
76.330734 0.041453 
77.093353 0.044773 
77.179512 0.027372 
78.076355 0.026531 
78.510445 0.028763 
79.620979 0.028703 
80.147995 0.043955 
80.474525 0.029379 
80.56768 0.038201 
81.033562 7.193475 
81.059952 0.028849 
81.86647 0.036383 
82.06517 0.258833 
83.049149 0.058571 
83.79583 0.035147 
83.963257 0.044321 
84.080841 0.870974 
84.74823 0.039007 
85.044281 0.046263 
86.060112 7.670819 
86.096489 17.605883 
86.419243 0.034963 
86.633995 0.033363 
87.063332 0.045226 
87.099907 0.36579 
87.28968 0.037472 
88.234306 0.04271 
91.947273 0.045096 
92.613144 0.044736 
94.065384 0.02981 
94.690727 0.036034 
95.2761 0.03922 
96.044434 4.149255 
96.080849 0.042546 
96.819153 0.043069 
97.075844 0.05616 
98.06015 1.149279 
98.096497 1.071114 
98.123131 0.046102 
99.005272 0.036617 
99.044106 2.266894 
100.039352 13.326502 
100.075745 0.377763 
100.686325 0.037583 
101.041931 0.038437 
103.086647 0.214162 
103.293434 0.048284 
103.566345 0.038919 
104.53746 0.039834 
106.620087 0.038346 
106.735954 0.041486 
108.080879 0.265236 
108.481735 0.034104 
108.974342 0.032885 
109.584686 0.041642 
110.060333 0.025833 
110.441399 0.031234 
111.531158 0.03085 
112.075714 0.354499 
112.27478 0.036284 
112.820251 0.030081 
113.059723 3.872273 
113.071037 0.069725 
113.10717 0.027441 
113.690765 0.02541 
113.959213 0.047939 
114.055061 16.890442 
114.091469 1.087755 
114.588524 0.030421 
115.058533 0.263922 
115.086525 0.339034 
115.509949 0.032972 
116.223206 0.02514 
119.062721 0.044289 
119.975487 0.036658 
120.048172 0.025646 
120.932228 0.031861 
122.096397 3.349574 
122.730682 0.040942 
125.059769 1.085601 
125.070824 0.310785 
125.078506 0.035914 
126.055054 2.388745 
126.1278 1.864206 
127.579063 0.038318 
128.070572 0.234533 
128.619217 0.035197 
128.709946 0.027292 
129.799835 0.040353 
131.321472 0.040606 
132.081146 0.03355 
132.987915 0.028902 
133.81105 0.039546 
134.452393 0.036377 
134.490158 0.041118 
135.388199 0.040024 
135.641388 0.042818 
136.075867 0.382512 
138.091415 0.492996 
138.127762 0.167621 
138.34346 0.039425 
138.558487 0.059279 
139.122314 0.035763 
139.995514 0.044542 
140.106995 0.328052 
140.294708 0.029028 
141.054611 4.695142 
142.609451 0.036475 
146.507889 0.041322 
147.382172 0.025244 
147.479309 0.035141 
147.494598 0.029647 
150.09137 8.645132 
151.094711 0.311917 
153.054764 0.2437 
156.29599 0.04264 
157.097198 7.284867 
157.388794 0.043516 
158.100845 0.070499 
160.075714 0.05212 
160.394165 0.034049 
162.294205 0.039648 
162.682404 0.038959 
165.138565 0.075802 
165.640182 0.040894 
165.7108 0.028227 
166.086288 2.383237 
167.506805 0.039323 
167.821198 0.028675 
168.101929 15.839638 
168.109375 0.340105 
168.761414 0.047929 
169.097351 0.167035 
169.105316 1.014302 
170.081238 5.068975 
171.084778 0.080465 
177.10228 0.078476 
177.670212 0.037256 
178.077499 0.172847 
178.086273 31.977533 
179.089661 2.936557 
180.102097 0.044972 
180.977829 0.033496 
181.109818 0.070986 
181.887009 0.047604 
183.149353 0.146807 
183.62204 0.041452 
186.707672 0.032983 
192.860916 0.030661 
195.113556 0.043573 
196.09668 0.282396 
198.775772 0.039515 
203.481735 0.025483 
204.836548 0.041115 
208.665833 0.031485 
209.876083 0.02807 
213.22847 0.039694 
214.499695 0.03499 
215.126297 0.031295 
216.370987 0.031967 
217.404449 0.027926 
217.570709 0.04564 
219.58577 0.469835 
219.597183 0.341918 
219.623566 0.052407 
221.482895 0.039538 
226.6772 0.032471 
236.204468 0.043988 
239.139023 0.499527 
240.262817 0.037579 
241.688309 0.031485 
244.395126 0.045143 
247.193451 0.038089 
253.255783 0.046592 
257.471161 0.044095 
264.241516 0.051787 
268.099152 0.025289 
273.078979 0.060338 
274.234131 0.059473 
275.47937 0.057223 
280.937897 0.025201 
285.125641 0.040451 
288.425293 0.04836 
298.340057 0.034887 
308.19516 0.047494 
313.235474 0.047462 
314.885284 0.046969 
314.978241 0.043105 
315.425018 0.045992 
324.791016 0.043009 
325.007721 0.039251 
325.226562 0.058599 
333.513092 0.055884 
335.797668 0.033955 
337.492615 0.040586 
342.988678 0.050652 
343.723541 0.048564 
348.062378 0.030881 
351.337097 0.045526 
352.113373 0.037806 
361.081573 0.046881 
374.937134 0.044666 
383.285126 0.05001 
392.121857 0.034821 
394.513397 0.047798 
413.285645 0.043547 
418.874054 0.04461 
419.286407 0.040232 
419.388275 0.04633 
432.258636 0.047828 
437.175934 0.053878 
438.295349 0.046978 
446.083282 0.057745 
451.434601 0.065297 
452.669495 0.05042 
455.59021 0.04975 
491.229126 0.049189 
499.334747 0.052115 
503.077576 0.041518 
503.155518 0.044823 
509.233978 0.055321 
514.30658 0.030234 
519.270142 0.042625 
525.403992 0.044227 
528.272583 0.042511 
531.878601 0.045153 
565.776367 0.048385 
590.367004 0.047662 
595.150818 0.046181 
605.399109 0.035353 
END IONS

