BEGIN IONS
PEPMASS=353.136
CHARGE=1+
COMPOUNDNAME=Gibberellin A4&A7
LIBRARYQUALITY=3
SMILES=N/A
INCHIKEY=SEEGHKWOBVVBTQ-UKJRIFTCSA-N
INCHI=InChI=1S/C19H22O5/c1-9-7-18-8-10(9)3-4-11(18)19-6-5-12(20)17(2,16(23)24-19)14(19)13(18)15(21)22/h5-6,10-14,20H,1,3-4,7-8H2,2H3,(H,21,22)/t10-,11-,12+,13-,14-,17+,18+,19-/m1/s1
MSLEVEL=2
SOURCE_INSTRUMENT=N/A-ESI-QFT
FILENAME=library_mgf.mgf
SEQ=*..*
IONMODE=positive
ORGANISM=MONA
NAME=Gibberellin A4&A7 [M+Na]+
PI=MoNA
DATACOLLECTOR=MoNA:VF-NPL-QEHF006594
PUBMED=N/A
SUBMITUSER=mwang87
TAGS=
SPECTRUMID=CCMSLIB00004697657
SCANS=6594
50.039852 0.091875 
50.823566 0.14529 
50.939369 0.07656 
51.001389 0.092675 
51.320541 0.096246 
52.305519 0.096391 
52.840588 0.149631 
53.002991 4.156094 
53.035339 0.095028 
53.039379 8.859823 
53.122169 0.078808 
53.998188 0.103166 
55.018623 25.971102 
55.055008 90.197746 
55.850098 0.08654 
55.935329 0.086911 
56.022148 0.11565 
56.050278 8.781241 
56.058365 2.971099 
56.965542 9.684556 
57.034267 9.16158 
57.062889 0.08997 
57.070652 52.033928 
57.237514 0.074929 
57.737827 0.081266 
58.065887 20.569427 
58.074013 1.160261 
58.217384 0.093878 
58.352585 0.08395 
58.995888 0.137591 
59.049915 9.624367 
59.061172 0.371854 
59.11063 0.057197 
59.421787 0.147435 
59.991013 0.199716 
60.045147 3.016084 
60.361942 0.151205 
60.656265 0.095235 
60.798637 0.117403 
60.8307 0.091262 
61.011387 5.156489 
62.019253 0.348242 
62.982479 0.887459 
63.860664 0.131539 
63.998478 0.390192 
64.089012 0.102873 
64.381424 0.077316 
65.03933 5.982668 
65.152252 0.089711 
66.231918 0.108332 
67.054939 100.0 
67.116028 0.129096 
68.050217 3.35036 
68.058304 4.16544 
68.373955 0.082832 
68.99781 0.619797 
69.034195 13.394736 
69.045441 0.144847 
69.063721 0.097266 
69.070557 56.242138 
69.208061 0.090575 
69.802505 0.113367 
70.029465 1.186204 
70.065819 11.766719 
70.070572 0.103479 
70.073914 1.326552 
70.143616 0.102668 
70.403305 0.11262 
70.841171 0.109723 
71.013428 0.120356 
71.049835 11.849226 
71.086182 25.915173 
71.304512 0.086786 
71.952583 0.55225 
72.045105 1.373011 
72.081459 1.62119 
72.089577 0.266461 
72.531967 0.102522 
72.557129 0.091328 
72.677162 0.154231 
73.029114 0.592431 
73.047478 3.821143 
73.065414 3.159061 
73.159492 0.093181 
73.672684 0.105089 
73.755814 0.085384 
74.060707 2.558973 
74.097046 0.846262 
74.311256 0.080172 
74.358437 0.101824 
75.782127 0.131864 
76.076347 0.788815 
77.009064 0.379407 
77.039345 0.363074 
77.427536 0.164783 
77.70256 0.098846 
77.976074 0.081169 
78.009583 0.202329 
79.021812 6.83529 
79.054817 72.961121 
80.050072 4.275357 
80.058189 4.147258 
80.340675 0.109568 
80.876343 0.119183 
81.00087 0.199719 
81.034111 7.211602 
81.045425 0.289263 
81.058022 0.100337 
81.07045 95.911659 
81.943947 0.093201 
82.029327 0.130886 
82.065773 6.537696 
82.071388 0.106844 
82.073845 4.706031 
82.821098 0.107561 
83.01342 0.735352 
83.049736 16.998907 
83.060944 0.538689 
83.086098 25.238895 
84.044952 4.507486 
84.06881 0.745075 
84.081367 5.437876 
84.089325 0.386899 
85.028984 3.351775 
85.032303 0.089498 
85.065353 5.519808 
85.101776 5.000223 
86.060585 3.283039 
86.097015 5.22635 
87.044601 3.889547 
87.32608 0.083358 
87.46376 0.101827 
87.546928 0.094776 
87.915222 0.150348 
88.022141 0.607809 
88.039841 1.435355 
88.076241 0.462446 
88.117561 0.083581 
88.148567 0.09508 
89.039459 0.0905 
89.060249 11.145346 
89.249207 0.092789 
89.5877 0.133156 
90.063629 0.244618 
90.301308 0.162441 
91.054733 63.748528 
91.057884 27.52009 
92.058029 4.08347 
93.033836 0.327264 
93.036964 0.370337 
93.045586 0.116719 
93.057816 0.31518 
93.070343 60.083099 
94.029205 0.306361 
94.065659 5.523611 
94.073654 3.411587 
94.078209 0.88826 
95.013351 0.205864 
95.019485 0.074519 
95.049614 27.306885 
95.060921 0.780676 
95.085976 68.761681 
96.044807 3.271888 
96.053123 0.671419 
96.081253 4.954759 
96.089256 3.033353 
97.028893 2.45609 
97.04007 0.922108 
97.065277 13.653297 
97.076477 2.841986 
97.101624 9.365664 
97.939293 0.148505 
98.060478 2.691184 
98.068718 0.168901 
98.084373 3.088414 
98.096901 4.404553 
98.10498 0.141031 
98.975723 0.606536 
99.044502 2.172213 
99.062996 0.096493 
99.080872 2.372575 
99.390976 0.092715 
100.076157 0.860955 
100.112465 0.472463 
101.02356 0.106836 
101.060165 1.348653 
101.992943 0.104285 
102.055397 0.905183 
102.724052 0.100084 
103.054581 5.56143 
103.075882 0.239124 
103.924171 0.090621 
104.057915 0.259519 
104.071274 0.159977 
105.034012 0.808096 
105.045059 2.762837 
105.070244 47.173801 
106.065521 3.365881 
106.073593 2.850758 
106.756561 0.079942 
107.049484 13.270867 
107.060905 0.158805 
107.073479 0.292295 
107.081978 0.19589 
107.085861 35.114826 
107.239059 0.077969 
108.044724 2.49017 
108.057388 0.111125 
108.068359 0.439658 
108.081085 7.237156 
108.089241 2.31424 
108.925583 0.29875 
109.02874 2.288143 
109.048325 0.10441 
109.052391 0.12122 
109.065071 16.291054 
109.076347 0.929461 
109.101463 19.695959 
109.350082 0.098436 
110.023994 0.66814 
110.060356 7.679995 
110.071815 0.399558 
110.096779 1.951928 
110.104813 0.344531 
111.044304 5.527851 
111.080711 7.680545 
112.039986 0.149876 
112.075943 1.557126 
112.11219 0.194704 
112.999237 0.089396 
113.059982 0.988957 
113.096581 0.100812 
114.055252 3.272512 
114.091904 0.092883 
114.875877 0.146166 
115.054489 6.272589 
116.062294 0.59522 
116.986153 1.694155 
117.057526 0.605523 
117.065895 0.35054 
117.070091 19.309647 
117.074219 0.18079 
118.06543 1.78781 
118.073311 0.912601 
118.077873 0.09566 
118.947685 0.461927 
119.049416 2.12103 
119.060585 0.631303 
119.085724 30.554533 
120.044495 0.309145 
120.081001 9.158346 
120.089066 1.705914 
120.975433 0.100394 
121.028687 0.524936 
121.039902 1.199539 
121.06498 11.934932 
121.076347 0.735995 
121.084343 1.617752 
121.089066 0.245834 
121.101364 14.520904 
122.060188 6.418471 
122.068184 0.262056 
122.072845 0.154084 
122.08387 0.113544 
122.096573 2.081262 
122.10466 0.432478 
122.525635 0.159105 
123.04422 5.261395 
123.068092 1.131831 
123.080635 11.458984 
123.117035 2.020848 
123.886665 0.080806 
124.039452 1.520456 
124.075851 7.155915 
124.112167 1.901193 
124.605835 0.132238 
125.02372 0.531982 
125.059792 3.275323 
125.071396 0.285822 
125.09623 2.395016 
126.054947 0.290847 
126.091476 2.828157 
126.127647 0.271917 
126.869179 0.088811 
126.959099 0.086758 
127.050377 0.132814 
127.086784 0.135271 
127.143555 0.103839 
128.062256 5.697414 
128.638245 0.086893 
129.069946 14.206976 
129.332825 0.130257 
130.065231 1.397715 
130.073242 0.127129 
130.077881 1.412534 
131.049149 0.905768 
131.073135 0.794861 
131.080826 0.320304 
131.085541 22.45421 
132.056549 0.098004 
132.065536 7.857604 
132.080978 2.868161 
132.08876 0.74456 
133.064896 7.106271 
133.07608 0.819295 
133.101135 15.223679 
133.730515 0.097968 
134.060074 2.672054 
134.083984 0.190156 
134.096344 4.116279 
134.104675 0.530906 
134.978348 0.100279 
134.99649 2.711154 
135.044083 3.149169 
135.080429 11.38449 
135.091766 0.323509 
135.116852 3.850437 
136.039413 0.438917 
136.07576 7.071118 
136.083572 0.326185 
136.112106 1.196722 
136.920197 2.256247 
136.958023 2.119235 
137.011688 2.434838 
137.059784 2.525276 
137.071075 0.091951 
137.083893 0.118994 
137.096115 3.001429 
137.927887 0.331784 
138.054962 1.851102 
138.09137 3.035628 
138.127701 0.556991 
139.075394 7.116788 
139.087326 0.129173 
140.034195 0.247608 
140.070328 0.298763 
141.069916 5.251665 
141.091614 0.081738 
141.14653 0.102541 
142.073059 3.30763 
142.078369 3.867762 
142.159363 0.172129 
143.049149 0.118845 
143.085739 12.191141 
144.04451 0.10805 
144.080887 1.19477 
144.088364 0.118772 
144.093719 0.507924 
144.29068 0.101911 
145.064774 5.766183 
145.101151 14.729378 
146.06012 2.339381 
146.072861 0.318172 
146.09639 3.041622 
146.104446 0.972534 
147.04393 0.776612 
147.08049 8.02882 
147.09166 1.255648 
147.10437 0.150542 
147.116867 4.75732 
148.075714 3.635032 
148.082962 0.094692 
148.111984 2.567421 
149.059677 3.515248 
149.070755 0.115427 
149.096161 5.431038 
149.107071 0.344772 
149.132477 0.188481 
150.054871 0.890659 
150.067612 0.794907 
150.09137 4.163649 
150.098679 0.108798 
150.127533 0.750149 
151.039078 0.141057 
151.075394 1.391366 
151.111694 1.8 
151.942719 0.072098 
152.062073 0.118552 
152.070602 1.590396 
152.106934 1.051081 
152.989456 0.197933 
153.006989 0.245776 
153.054703 0.191227 
153.069977 1.557535 
153.091187 0.589217 
153.958923 0.132099 
154.077744 1.31194 
154.085632 0.350191 
154.122681 0.62665 
154.930725 2.087122 
154.968491 7.145891 
155.022217 2.118845 
155.085602 7.22437 
156.080933 0.111691 
156.093445 2.59494 
156.677994 0.100423 
157.064896 1.594892 
157.101257 9.746716 
158.0728 0.441185 
158.096466 1.194397 
159.080627 5.89722 
159.091797 0.31736 
159.10495 0.125054 
159.116776 7.00523 
160.060425 1.913645 
160.075745 2.045028 
160.088303 0.171724 
160.112183 0.52627 
161.046967 0.121306 
161.059677 1.564081 
161.071121 0.224231 
161.083817 0.128653 
161.0961 8.580874 
161.107101 0.506581 
161.132553 0.938748 
161.381744 0.106193 
162.054794 1.153818 
162.091293 6.556017 
162.097565 0.104658 
162.128067 0.164543 
163.039246 0.097369 
163.075256 1.952685 
163.099335 0.164964 
163.111649 1.087284 
163.148514 0.096289 
164.070496 1.828125 
164.106918 1.464649 
164.143219 0.14238 
164.510345 0.122269 
165.054657 0.10984 
165.069901 3.317874 
165.091049 0.582202 
165.12767 0.140909 
166.077744 1.512157 
166.085968 0.686959 
166.122574 1.154098 
167.08551 3.151033 
167.106018 0.139448 
167.977127 0.129234 
168.080994 0.519495 
168.093918 0.570718 
168.10231 0.173844 
168.17482 0.405997 
168.984009 0.125 
169.065186 0.359026 
169.101212 4.204343 
169.953918 0.259148 
170.059937 0.132644 
170.096329 0.403236 
170.10907 4.017384 
171.080399 2.235222 
171.116867 3.505159 
172.075638 0.475474 
172.088303 0.361103 
172.112045 0.549509 
172.979156 1.758998 
172.988647 0.177567 
173.059937 0.297767 
173.096176 3.464121 
173.106537 0.081189 
173.132584 1.187561 
173.507294 0.106337 
174.006409 0.090465 
174.055496 0.144424 
174.09137 2.638905 
174.127823 0.350487 
175.039124 0.104339 
175.075256 1.08908 
175.112213 1.329135 
176.070587 0.893251 
176.106873 3.994964 
176.114456 0.112023 
176.143311 0.121445 
177.090881 0.233546 
177.127411 0.492001 
177.138626 0.108693 
178.077927 1.071972 
178.08606 0.735038 
178.122635 1.16507 
178.551529 0.109365 
179.085663 3.100903 
180.06546 0.267465 
180.081039 0.188174 
180.093552 0.978736 
180.101944 0.963958 
180.888321 0.147 
181.064911 0.494441 
181.101181 3.040715 
182.072525 0.162594 
182.096771 0.122063 
183.080292 1.505395 
183.116882 2.339272 
183.239899 0.164647 
184.076462 0.148632 
184.088379 0.218511 
185.096161 1.430594 
185.132477 1.692292 
186.091202 0.502671 
187.074951 0.171226 
187.099472 0.166402 
187.111847 1.391082 
188.070953 0.121673 
188.107071 4.028003 
189.091003 0.487506 
189.127472 0.334051 
190.086243 0.340291 
190.12236 1.322902 
190.158493 0.106318 
191.154022 0.405501 
192.093231 1.116577 
192.102005 0.142502 
192.13826 0.307559 
192.543564 0.170699 
193.086105 0.12896 
193.100891 1.966306 
194.096878 0.10908 
194.10936 0.10023 
194.117737 0.239337 
194.452744 0.123408 
195.080612 1.020159 
195.102234 0.104821 
195.116852 1.121377 
196.07518 0.143958 
196.088058 0.18558 
196.112228 0.268658 
196.91861 0.088421 
197.015152 0.462269 
197.059341 0.101743 
197.096146 0.828678 
197.133057 0.589489 
198.09079 0.113448 
198.10376 0.486857 
199.111771 0.619482 
199.147583 0.12424 
200.070343 0.138408 
200.106613 0.791151 
200.142395 0.111283 
201.0905 0.542797 
201.962479 0.094975 
202.076981 0.115204 
202.122391 0.390533 
203.085114 0.111451 
203.143021 0.983786 
204.102081 0.304512 
204.138168 0.87888 
205.101883 0.381023 
205.132706 0.246852 
205.546143 0.152255 
206.117142 0.149715 
206.153824 0.414482 
206.926361 0.423581 
207.11647 0.107345 
208.113892 0.115675 
208.959396 0.73834 
209.096359 0.530731 
210.090881 0.121885 
211.111755 0.941385 
213.091385 0.286724 
213.12648 0.115761 
213.208221 0.165636 
214.122498 0.188578 
215.025925 0.221722 
215.14325 0.102714 
216.102509 0.333492 
217.101273 0.272956 
217.133514 0.130676 
217.976273 0.492139 
218.14296 0.1405 
218.153854 1.911789 
218.756516 0.137189 
219.174362 0.882884 
220.059616 0.79916 
220.067932 0.855068 
220.133163 0.130087 
221.060425 0.132915 
222.898163 0.216785 
223.111359 0.271828 
224.106064 0.126317 
224.936996 0.321389 
226.085861 0.097586 
227.09317 0.118663 
228.138412 0.438302 
231.125397 2.186005 
231.605804 0.141958 
232.959763 0.216521 
232.999374 0.082862 
233.096375 0.090908 
236.573013 0.170619 
238.086319 0.112762 
238.122589 0.113446 
238.158615 0.130507 
240.137833 0.50988 
240.909241 1.366215 
241.120819 0.106573 
241.177139 0.116407 
241.910828 0.108318 
243.149338 0.237885 
246.14888 4.131442 
246.91217 0.082611 
249.139664 0.110614 
249.893082 0.116153 
252.137817 0.309094 
254.153549 1.311443 
257.423126 0.115437 
257.631805 0.114117 
258.957031 0.131004 
260.05072 0.110415 
260.745422 0.113314 
266.15448 0.225234 
268.168518 0.098409 
268.978302 10.85263 
274.124695 0.188006 
285.009552 0.375146 
285.815094 0.268288 
287.113403 0.101836 
287.832397 0.127745 
292.169434 0.136044 
298.178314 0.12362 
299.152679 0.14708 
299.372101 0.157542 
302.818024 1.33654 
308.200897 3.604988 
312.839081 0.128996 
317.33136 0.102593 
317.393127 0.142287 
318.185486 0.12079 
322.631622 0.129153 
329.342834 0.089191 
329.478302 0.122421 
332.475189 0.085256 
336.195343 0.300763 
351.221954 0.110906 
352.262695 0.143797 
353.352722 0.702171 
354.206726 0.140095 
358.251923 0.091646 
363.188477 0.107618 
366.921814 0.145307 
369.513428 0.127404 
END IONS

