BEGIN IONS
PEPMASS=618.382
CHARGE=1+
COMPOUNDNAME=deferrioxamine E
LIBRARYQUALITY=3
SMILES=N/A
INCHIKEY=NHKCCADZVLTPPO-UHFFFAOYSA-N
INCHI=InChI=1S/C27H48N6O9/c34-22-10-14-26(38)32(41)20-8-3-6-18-30-24(36)12-15-27(39)33(42)21-9-2-5-17-29-23(35)11-13-25(37)31(40)19-7-1-4-16-28-22/h40-42H,1-21H2,(H,28,34)(H,29,35)(H,30,36)
MSLEVEL=2
SOURCE_INSTRUMENT=N/A-ESI-QFT
FILENAME=library_mgf.mgf
SEQ=*..*
IONMODE=positive
ORGANISM=MONA
NAME=deferrioxamine E [M+NH4]+
PI=MoNA
DATACOLLECTOR=MoNA:VF-NPL-QEHF004060
PUBMED=N/A
SUBMITUSER=mwang87
TAGS=
SPECTRUMID=CCMSLIB00004695123
SCANS=4060
50.376122 0.02096 
50.560005 0.012204 
51.018559 0.030048 
51.852173 0.010653 
52.697784 0.01054 
53.137421 0.009289 
53.355114 0.023374 
54.358036 0.011781 
54.594872 0.010032 
55.018776 0.049215 
55.05492 0.193825 
56.050163 0.537437 
57.070587 0.451763 
57.261101 0.01993 
57.396706 0.019609 
59.227829 0.019372 
60.00106 0.015725 
60.645947 0.02318 
61.033936 0.026813 
61.692188 0.010906 
62.36018 0.020272 
62.550533 0.022919 
63.132553 0.016626 
63.296921 0.014217 
66.551155 0.021695 
66.836678 0.01418 
67.054848 0.313958 
68.311707 0.020251 
69.070465 0.583325 
69.129402 0.030602 
69.209496 0.019762 
69.231865 0.010917 
69.233597 0.012057 
69.504333 0.027622 
69.961578 0.012671 
70.06572 0.664664 
70.067581 0.018227 
70.506721 0.02251 
71.217789 0.016042 
71.593491 0.011412 
71.666344 0.027264 
72.04496 0.093356 
72.081436 0.046359 
72.534737 0.02254 
72.869011 0.015665 
73.02877 0.024485 
73.550308 0.018291 
74.552094 0.013397 
74.580788 0.023103 
74.908951 0.021114 
75.118294 0.01115 
75.419495 0.014009 
75.788734 0.018799 
75.870926 0.01614 
76.789642 0.010014 
78.460709 0.020767 
80.050034 0.048707 
80.238197 0.021139 
80.607895 0.013999 
80.659645 0.021243 
80.730888 0.0186 
81.03672 0.00943 
82.065697 4.354132 
82.14901 0.009345 
82.699486 0.018369 
83.06868 0.04194 
84.044853 0.192861 
84.081329 21.661617 
84.083954 0.18347 
84.447182 0.023733 
84.9524 0.018715 
85.065216 0.674171 
85.078552 0.014113 
85.084572 0.974026 
85.089073 0.213721 
85.330742 0.01575 
85.476303 0.01211 
86.048943 0.021629 
86.06041 0.013674 
86.096985 4.878076 
86.797485 0.016256 
87.044556 0.177376 
87.099937 0.053169 
87.385437 0.021317 
87.877815 0.024861 
88.076019 0.10721 
88.111443 0.015511 
88.552376 0.015021 
89.060204 1.160454 
89.448967 0.017343 
90.661453 0.023896 
91.782043 0.022139 
92.783257 0.017282 
95.187714 0.020828 
96.474236 0.012022 
96.771873 0.015906 
97.338181 0.011432 
98.060318 0.009814 
98.096817 0.122585 
98.282761 0.024007 
98.554405 0.0182 
99.012833 0.013158 
99.092117 2.713695 
100.039719 9.988784 
100.076134 10.488527 
100.095528 0.015434 
100.341743 0.01731 
100.6007 0.011495 
101.023552 0.495779 
101.0429 0.301789 
101.079247 0.290827 
101.082565 0.011023 
101.107605 0.069321 
101.278603 0.022028 
101.688606 0.013466 
102.091751 9.18962 
102.421432 0.011781 
103.094963 0.221689 
103.1231 0.013816 
105.336189 0.018338 
106.063072 1.531308 
106.13118 0.025077 
107.00248 0.024415 
108.143059 0.022227 
109.049149 0.02315 
110.096573 0.087863 
111.579422 0.023088 
112.039444 1.543673 
113.339142 0.015332 
114.091629 0.112497 
114.474808 0.022338 
115.039192 1.92352 
115.765442 0.020587 
116.034546 0.013567 
116.070709 0.969765 
117.077148 0.53022 
118.083382 2.523829 
118.094398 0.011989 
119.085922 0.018048 
119.118034 1.914822 
119.122749 0.024534 
120.080803 0.051538 
120.760384 0.024745 
121.065002 0.069495 
121.450974 0.012283 
122.05751 0.041596 
122.096458 0.685562 
122.124237 0.021627 
123.00518 1.136578 
123.009918 0.025689 
123.089272 0.599485 
123.329018 0.028121 
123.876236 0.01213 
124.075027 0.03497 
124.645309 0.012318 
126.909805 0.01516 
127.090141 0.01316 
128.034103 0.026948 
128.107086 0.010957 
129.847488 0.014885 
130.049988 0.01737 
130.353348 0.010381 
131.300522 0.011222 
131.621887 0.01473 
133.085983 0.369512 
133.244553 0.022339 
136.075592 0.116542 
137.107117 1.155106 
137.967163 0.013887 
138.091431 2.513313 
139.094589 0.031352 
140.070419 0.994239 
140.106842 0.02597 
141.504044 0.0225 
142.005737 0.01329 
142.086487 0.025107 
142.122604 0.014671 
144.101913 0.038148 
146.283691 0.025261 
147.080521 0.014514 
148.075333 0.032522 
150.833847 0.018508 
151.086227 0.011472 
153.102249 4.877649 
154.086243 6.726139 
154.105301 0.20511 
155.089386 0.096418 
156.101151 0.04287 
157.131729 0.024804 
158.482681 0.010595 
159.772446 0.009356 
159.825439 0.023771 
162.526642 0.011009 
163.086563 0.162391 
163.295212 0.017153 
164.070282 0.081667 
164.480255 0.013302 
165.102295 6.786733 
166.086273 4.942921 
166.105392 0.469887 
167.062973 0.023341 
167.089432 0.245287 
167.117737 0.711384 
167.492828 0.027829 
168.101913 9.615509 
168.110153 0.026705 
168.827637 0.017501 
169.09787 0.03961 
169.10498 0.868514 
170.080826 0.013724 
170.11734 0.807638 
170.149567 0.010418 
172.097015 0.028253 
175.365967 0.013314 
179.115051 0.464461 
181.097137 9.566408 
181.106369 0.044604 
182.081161 0.404717 
182.100693 0.786712 
183.112823 4.907862 
183.121185 0.022964 
183.4823 0.01113 
184.096817 6.10943 
184.116074 0.148576 
185.10025 0.609913 
185.128448 6.426099 
185.704346 0.022976 
186.112396 0.945626 
186.131866 0.475745 
187.107651 0.884729 
189.120163 0.161413 
195.110092 0.02755 
197.874435 0.023893 
198.112488 0.059863 
199.107697 5.322382 
200.091522 0.195015 
200.111313 0.164289 
201.123383 48.766201 
202.107376 0.792525 
202.126862 4.417614 
203.128693 0.093182 
203.139191 0.10347 
203.179153 0.02049 
205.094467 0.910811 
205.876831 0.022502 
206.078598 1.147579 
206.334152 0.019208 
207.110413 0.222551 
211.107574 0.050352 
213.159164 0.010488 
214.149078 0.026047 
215.102463 0.474239 
215.138184 0.037209 
216.108093 0.603646 
216.121704 0.013435 
217.115311 2.06398 
217.125336 0.04245 
218.118912 0.042608 
219.133881 10.716169 
220.096558 0.044864 
220.137253 0.94054 
220.639725 0.024604 
223.105194 2.052147 
225.121353 0.074341 
226.648758 0.025731 
227.139252 0.045695 
227.306091 0.014338 
228.807709 0.021914 
231.289871 0.021441 
233.137497 0.073009 
233.149567 5.7405 
233.189972 0.219192 
234.153244 0.399503 
235.103577 0.024579 
236.301163 0.021867 
237.120926 0.923897 
238.105438 0.025797 
239.047073 0.011686 
239.070145 0.540823 
239.138763 0.057138 
239.647812 0.025086 
241.103073 0.017636 
241.154694 0.095734 
243.133743 0.514591 
247.00824 0.024138 
252.130707 0.017656 
255.042709 0.04577 
255.131561 0.024155 
257.080658 1.356831 
261.120789 0.378104 
261.633514 0.015138 
262.188263 0.028647 
263.239716 0.019796 
265.119019 0.013539 
266.126038 0.35014 
266.149719 0.102779 
266.873871 0.021269 
267.13382 4.402182 
267.168701 0.022398 
267.403625 0.011243 
268.137177 0.501125 
270.104858 0.031151 
272.648895 0.010005 
273.145752 0.024927 
277.115326 0.195917 
277.216064 0.10739 
280.048279 0.028633 
281.911926 0.25428 
282.91275 0.03325 
283.128693 10.22149 
284.131989 1.597953 
284.526367 0.016539 
285.144958 0.050908 
285.229187 0.016006 
288.167816 0.089324 
289.115936 0.247921 
297.836884 0.022822 
298.138092 0.011582 
299.160034 0.118402 
301.139221 4.893855 
302.1427 0.35102 
303.131287 0.014544 
303.238556 0.676471 
304.904785 0.0123 
305.110779 2.853175 
305.981415 0.018624 
306.178711 1.501768 
307.126221 0.779589 
309.050995 0.010702 
309.158966 0.012267 
311.069794 0.01265 
312.050964 0.024547 
315.154419 1.668518 
316.15094 0.297544 
316.333069 0.018043 
318.141876 0.110394 
319.233429 1.245264 
320.154449 1.682709 
320.657532 0.031553 
321.129425 0.160081 
322.137482 0.063132 
322.914459 1.366674 
323.121124 1.763298 
323.916748 0.743841 
324.917969 0.042552 
327.062164 0.012969 
334.137085 0.869309 
335.16571 0.013987 
337.047485 0.012577 
337.136963 0.114121 
337.390442 0.013387 
338.204193 0.086163 
340.902557 0.017409 
348.152435 0.267669 
360.839233 0.219466 
361.84079 0.208056 
362.167145 0.021401 
363.176331 0.042186 
367.233307 0.164786 
376.184387 0.196108 
377.191833 0.055799 
378.848175 0.016325 
379.851166 0.025301 
385.244049 1.698654 
386.246765 0.124476 
388.183868 0.302 
389.215363 0.054613 
390.199585 5.528985 
391.207489 3.162279 
392.125122 0.034774 
394.843811 0.019888 
395.84552 0.01461 
396.195221 0.023625 
401.239136 0.674198 
405.210327 19.263332 
406.193542 1.206261 
407.225677 0.057945 
409.481415 0.016521 
410.137909 0.021825 
414.798676 0.022573 
417.208954 0.153394 
419.22525 0.834193 
419.250366 0.211836 
419.851959 1.026546 
420.854156 1.136792 
421.854584 0.226369 
422.932465 0.023428 
423.220856 0.170958 
433.205353 10.870142 
433.236786 0.186783 
433.264313 0.184024 
436.853943 0.014091 
437.236633 1.870253 
437.861176 0.47937 
438.864532 0.480211 
439.865845 0.031372 
445.809631 0.015573 
447.345306 0.02446 
448.664795 0.015028 
453.856689 0.101877 
454.860077 0.15889 
455.065796 0.028078 
461.236725 2.976668 
469.672394 0.010365 
471.221405 0.86087 
477.231781 0.445605 
478.865326 0.319548 
479.867676 0.660249 
480.869507 0.039555 
484.794891 0.024436 
487.215363 0.047913 
488.223816 2.447992 
489.983429 0.025549 
496.876434 0.019553 
497.877747 0.099529 
505.226196 100.0 
516.281128 0.014616 
534.048157 0.024831 
537.25293 1.513097 
540.96228 0.019286 
544.310425 0.58117 
551.590942 0.014841 
554.237854 0.022425 
561.558533 0.01628 
575.419983 0.023857 
576.337097 0.074523 
580.125305 0.022562 
584.745361 0.015557 
588.2995 12.513532 
617.324707 0.017627 
617.457153 0.02631 
618.315552 0.029616 
619.229919 0.430593 
619.28717 0.176307 
619.439026 0.418179 
620.325806 24.209242 
630.072693 0.017369 
END IONS

