BEGIN IONS
PEPMASS=288.121
CHARGE=1+
COMPOUNDNAME=ANISOMYCIN
LIBRARYQUALITY=3
SMILES=N/A
INCHIKEY=YKJYKKNCCRKFSL-BFHYXJOUSA-N
INCHI=InChI=1S/C14H19NO4/c1-9(16)19-14-12(15-8-13(14)17)7-10-3-5-11(18-2)6-4-10/h3-6,12-15,17H,7-8H2,1-2H3/t12-,13+,14+/m0/s1
MSLEVEL=2
SOURCE_INSTRUMENT=N/A-ESI-QFT
FILENAME=library_mgf.mgf
SEQ=*..*
IONMODE=positive
ORGANISM=MONA
NAME=ANISOMYCIN [M+Na]+
PI=MoNA
DATACOLLECTOR=MoNA:VF-NPL-QEHF027597
PUBMED=N/A
SUBMITUSER=mwang87
TAGS=
SPECTRUMID=CCMSLIB00004721178
SCANS=27597
50.085812 0.046542 
50.340607 0.058465 
50.494408 0.182328 
51.386246 0.052475 
51.940331 0.363866 
51.997524 0.065081 
52.377068 0.061861 
53.001308 0.070619 
53.002529 2.358899 
53.039055 0.071233 
53.713112 0.333499 
53.997791 0.271987 
54.918777 0.331144 
55.054539 3.055866 
55.934696 0.338123 
56.049736 0.537757 
56.321751 0.196808 
56.598213 0.289251 
56.707478 0.047044 
56.840225 0.368549 
56.965096 0.756101 
57.070183 86.171082 
57.350945 0.407756 
57.64801 0.202843 
57.676064 0.374968 
58.065418 21.237612 
58.073517 2.25784 
59.068817 0.318253 
60.04464 0.614282 
60.081009 0.083947 
60.723923 0.392808 
61.010902 0.259753 
62.018776 0.160802 
62.060242 2.244308 
62.349854 0.245105 
63.02776 0.053961 
63.531845 0.350892 
63.879082 0.058537 
64.988777 0.358509 
65.011505 0.381214 
67.05439 1.328546 
67.156105 0.056405 
67.519424 0.378026 
68.049614 1.768791 
68.350998 0.359613 
69.033623 0.056154 
69.069984 1.20956 
70.065231 100.0 
70.957977 0.416305 
71.068604 2.444745 
71.085625 23.541794 
72.080833 0.360049 
72.089005 0.818941 
72.709145 0.283694 
72.937256 0.107606 
74.060143 0.201297 
74.563057 0.347576 
75.230103 0.052857 
75.277878 0.052151 
75.367729 0.361777 
75.887146 0.059701 
79.054321 0.123449 
81.069977 0.372008 
83.085648 0.14578 
84.080925 0.15327 
84.08873 0.058644 
85.039673 0.355957 
85.064857 0.06393 
85.101257 3.95616 
86.060066 0.932329 
86.881195 0.393467 
87.942848 0.063378 
88.07576 80.808105 
88.684471 0.058851 
89.072693 0.062872 
89.079056 2.142417 
90.947662 0.261326 
91.054321 0.613544 
91.758949 0.060167 
92.401802 0.061426 
92.418022 0.056062 
93.069893 0.20365 
95.085823 0.082587 
95.433998 0.054663 
95.993675 0.054316 
96.360161 0.053026 
96.932137 0.438502 
98.096336 0.078467 
98.138222 0.361937 
98.975471 5.958446 
99.939522 0.051565 
100.075752 0.303123 
102.091438 9.268485 
103.094589 0.118902 
104.070549 0.05804 
106.086365 29.603142 
106.599915 0.293027 
107.073074 0.074154 
107.089661 0.428715 
114.396133 0.050377 
115.60051 0.377422 
115.853134 0.057869 
116.431915 0.051495 
116.560135 0.058599 
116.985893 2.04216 
120.555252 0.054228 
121.064903 10.869744 
121.82589 0.333264 
122.068153 0.217952 
124.112206 0.062279 
127.622192 0.194332 
128.030472 0.049176 
129.066513 0.261769 
134.996384 0.956876 
135.079575 0.059167 
138.909897 0.058187 
143.086227 0.059309 
146.974518 0.517139 
147.960754 0.055052 
148.532776 0.351235 
150.968826 0.368787 
152.946747 0.358874 
153.008133 0.050879 
153.959579 0.211976 
154.240845 0.273186 
155.085922 0.061387 
155.934402 0.052856 
159.453415 0.053818 
160.075912 0.0738 
170.957214 1.880302 
172.112198 0.064194 
178.239517 0.065163 
180.888321 1.676409 
181.066086 0.065575 
182.533707 0.395197 
183.067688 0.071225 
184.482437 0.065308 
184.522888 0.061579 
185.096344 0.087573 
186.317688 0.050733 
190.159286 0.213917 
194.97467 0.423263 
198.067627 4.570056 
198.704407 0.079944 
198.899033 0.0855 
204.888214 0.12665 
205.121506 0.205388 
207.013199 0.057382 
209.109253 0.05235 
213.07959 0.160281 
213.091156 1.619813 
213.102356 0.75072 
216.173782 0.056643 
216.772537 0.058886 
217.190857 0.05186 
219.747925 2.269808 
220.903641 0.666697 
222.89888 8.780897 
223.205566 0.057145 
225.102219 0.769089 
229.895737 0.242636 
236.807281 0.053974 
238.914078 1.205031 
240.909286 10.872568 
242.623749 0.223144 
244.263733 0.29111 
246.480957 0.193065 
247.906448 0.070475 
249.142502 0.061957 
254.735825 0.053283 
255.896652 0.06152 
258.768494 0.480552 
263.311005 0.063518 
270.279205 0.548801 
275.039917 0.057061 
276.740234 0.380209 
284.202026 0.36129 
286.403351 0.057067 
286.598907 0.054409 
288.269531 0.082249 
288.289398 0.842192 
289.293365 0.084895 
298.686798 0.218871 
299.057526 0.055414 
300.358795 0.213209 
300.966949 0.3024 
306.646515 0.067504 
END IONS

