BEGIN IONS
TITLE=Scan Number: 1
PEPMASS=632.362
CHARGE=1+
COMPOUNDNAME=Thuggacin A
LIBRARYQUALITY=1
SMILES=N/A
INCHIKEY=CGUNOWXWUXNOPE-SWBALTNESA-N
INCHI=InChI=1S/C35H53NO7S/c1-7-9-10-12-15-26-19-27-21-44-34(36-27)24(5)29(38)20-28(37)16-13-11-14-17-30(43-35(26)42)33(41)32(40)25(6)31(39)23(4)18-22(3)8-2/h8,11,13-14,16,18-19,21,24-25,28-33,37-41H,7,9-10,12,15,17,20H2,1-6H3/b14-11-,16-13+,22-8+,23-18+,26-19+/t24-,25?,28-,29+,30+,31?,32-,33-/m1/s1
MSLEVEL=2
SOURCE_INSTRUMENT=DI-ESI-qTof
FILENAME=thuggacinA_CID-30eV.mgf
SEQ=*..*
NOTES=
IONMODE=Positive
ORGANISM=GNPS-LIBRARY
NAME=Thuggacin A M+H
SPECTRUMID=CCMSLIB00000427306
ACTIVATION=CID
INSTRUMENT=ion trap
SCANS=1
102.440559 11.0 
104.044449 10.0 
105.174004 11.0 
105.993813 13.0 
107.217567 11.0 
107.811409 11.0 
108.697701 15.0 
113.335938 11.0 
114.34716 14.0 
114.46463 15.0 
116.321854 13.0 
120.074837 14.0 
124.704689 10.0 
127.478104 10.0 
128.939804 10.0 
129.745193 14.0 
130.626755 10.0 
131.13353 21.0 
132.122437 15.0 
132.383606 12.0 
142.066483 10.0 
142.097336 13.0 
143.238678 10.0 
144.147324 13.0 
146.263855 10.0 
147.385452 13.0 
152.719223 13.0 
154.685745 13.0 
155.67688 16.0 
160.367188 10.0 
163.109238 10.0 
163.226593 11.0 
163.670746 15.0 
163.719604 15.0 
163.789505 16.0 
164.159927 18.0 
165.130997 14.0 
167.162903 11.0 
168.140274 17.0 
169.91832 15.0 
170.26181 13.0 
170.586746 13.0 
174.763046 11.0 
174.904526 16.0 
177.231796 13.0 
178.280746 12.0 
179.527817 11.0 
181.049652 15.0 
181.420761 11.0 
184.354141 14.0 
185.220978 15.0 
185.84053 12.0 
189.128601 32.0 
192.793686 11.0 
193.249313 11.0 
193.538406 11.0 
195.192963 11.0 
196.219116 11.0 
199.89566 12.0 
201.245728 13.0 
207.141937 32.0 
207.251923 12.0 
207.775894 13.0 
207.957962 11.0 
208.297485 14.0 
212.143875 13.0 
212.342224 11.0 
214.462921 11.0 
215.006165 13.0 
215.779083 12.0 
222.098434 109.0 
222.894455 14.0 
223.104233 17.0 
223.150696 18.0 
223.526917 13.0 
223.69899 10.0 
224.960266 10.0 
225.151306 11.0 
225.314117 13.0 
225.785324 12.0 
226.155273 16.0 
226.782974 15.0 
227.148636 22.0 
228.803055 11.0 
228.914246 10.0 
232.02475 11.0 
233.155685 16.0 
244.026825 16.0 
245.690918 12.0 
248.116592 30.0 
249.93132 14.0 
250.101898 13.0 
250.108795 12.0 
250.131363 3889.0 
250.175369 15.0 
250.78183 17.0 
251.134415 646.0 
251.701813 11.0 
252.128204 217.0 
252.423874 11.0 
254.425049 16.0 
258.555023 10.0 
260.070374 12.0 
261.315247 13.0 
262.179871 11.0 
263.186401 18.0 
263.607544 13.0 
265.363281 10.0 
266.126312 178.0 
266.230682 15.0 
267.133698 78.0 
267.666595 13.0 
267.863678 12.0 
268.142029 780.0 
269.144989 122.0 
269.195312 14.0 
270.138031 31.0 
270.714783 17.0 
271.777618 10.0 
273.137268 13.0 
273.696381 14.0 
275.184601 95.0 
276.149292 14.0 
276.184387 14.0 
276.640991 12.0 
278.126587 1481.0 
278.173981 15.0 
278.743469 22.0 
279.129913 270.0 
280.122375 69.0 
280.131256 20.0 
283.211914 226.0 
284.213989 16.0 
286.909363 13.0 
287.493958 11.0 
288.105774 16.0 
288.147308 24.0 
289.151337 16.0 
290.599915 17.0 
291.097595 15.0 
293.196289 218.0 
294.156311 13.0 
294.200684 57.0 
294.534027 10.0 
296.137238 388.0 
297.140961 79.0 
298.164032 10.0 
298.904846 11.0 
300.148834 20.0 
301.2229 38.0 
304.14209 61.0 
305.112915 14.0 
306.964569 11.0 
310.189575 13.0 
310.875427 17.0 
311.20639 375.0 
311.750671 11.0 
311.808655 23.0 
312.199432 10.0 
312.210815 50.0 
312.627289 11.0 
313.220551 10.0 
314.134552 11.0 
314.162537 21.0 
315.125977 11.0 
315.161774 11.0 
315.528442 12.0 
319.758362 11.0 
320.137665 166.0 
320.465424 14.0 
320.932373 14.0 
321.226837 14.0 
322.154846 56.0 
323.15506 15.0 
325.597382 16.0 
326.159546 14.0 
326.634766 18.0 
327.070251 12.0 
327.779297 14.0 
328.725189 12.0 
329.217102 87.0 
330.196594 16.0 
332.078827 15.0 
332.175201 80.0 
332.220917 16.0 
332.490173 11.0 
333.178955 23.0 
334.151154 16.0 
335.114471 11.0 
336.170471 14.0 
336.260193 16.0 
338.149506 35.0 
340.038177 10.0 
340.131592 11.0 
340.16394 15.0 
340.179901 15.0 
342.808594 12.0 
343.605499 10.0 
344.17627 22.0 
346.14502 24.0 
346.164642 16.0 
346.189667 44.0 
348.530365 16.0 
350.615875 14.0 
352.17868 31.0 
352.194122 10.0 
353.889557 14.0 
354.195465 616.0 
354.645264 16.0 
355.198486 134.0 
356.192841 24.0 
356.937408 12.0 
357.720428 13.0 
357.894318 15.0 
358.189758 208.0 
358.22171 15.0 
359.190094 40.0 
359.199158 14.0 
359.859619 10.0 
360.198792 17.0 
360.801483 11.0 
363.593445 10.0 
366.193146 29.0 
368.208771 15.0 
370.190002 149.0 
370.406525 14.0 
370.496582 10.0 
371.195587 64.0 
372.169922 67.0 
372.206238 754.0 
373.209198 285.0 
373.917847 18.0 
374.188141 68.0 
374.203979 29.0 
375.188873 16.0 
375.960632 13.0 
376.2005 19.0 
376.329468 10.0 
376.721741 16.0 
378.198608 31.0 
378.533508 11.0 
378.910645 16.0 
380.003418 16.0 
380.205292 12.0 
380.54126 12.0 
382.189789 229.0 
382.909454 14.0 
383.195923 47.0 
384.205902 475.0 
384.698853 11.0 
385.21109 95.0 
386.2211 99.0 
387.227753 17.0 
387.815582 17.0 
388.200928 232.0 
389.042542 14.0 
389.205536 48.0 
390.199127 11.0 
390.216949 111.0 
390.389008 16.0 
391.22168 16.0 
392.403137 13.0 
393.426453 15.0 
396.206726 428.0 
396.715271 11.0 
397.207886 176.0 
398.182404 38.0 
398.221863 150.0 
398.633301 11.0 
400.201508 346.0 
401.205353 74.0 
401.297394 10.0 
401.414642 15.0 
402.216614 247.0 
403.218964 64.0 
405.15802 14.0 
405.181213 13.0 
405.55191 14.0 
406.189484 83.0 
407.197632 35.0 
407.372711 10.0 
409.591492 17.0 
411.521729 12.0 
412.201843 141.0 
412.233734 11.0 
413.203644 42.0 
413.938995 11.0 
414.186829 20.0 
414.217163 733.0 
415.220093 252.0 
416.21579 21.0 
416.230347 107.0 
416.44458 13.0 
416.691498 14.0 
417.215698 30.0 
417.235596 16.0 
417.254242 11.0 
418.212128 109.0 
419.217804 29.0 
419.869446 14.0 
420.226318 59.0 
420.285065 15.0 
422.296173 12.0 
422.331299 14.0 
423.384308 14.0 
423.785889 13.0 
424.041626 12.0 
424.201874 482.0 
424.242371 23.0 
424.703369 13.0 
425.204559 156.0 
426.091064 15.0 
426.188293 18.0 
426.213287 118.0 
426.327911 12.0 
427.224091 10.0 
428.207306 14.0 
428.401093 16.0 
429.263153 15.0 
429.333435 12.0 
429.974457 15.0 
430.212463 330.0 
431.216614 109.0 
432.038239 16.0 
432.201569 15.0 
432.226624 338.0 
433.229584 56.0 
434.163544 11.0 
434.219604 43.0 
434.903107 14.0 
435.228394 21.0 
435.472717 11.0 
435.684998 14.0 
436.237946 165.0 
437.240356 36.0 
437.257141 11.0 
437.551331 10.0 
438.239777 13.0 
438.735901 13.0 
439.25412 21.0 
439.550262 13.0 
441.128052 11.0 
442.174316 14.0 
442.21283 1791.0 
443.019623 13.0 
443.21579 580.0 
444.210938 52.0 
444.224701 288.0 
445.212616 37.0 
445.591156 16.0 
445.683014 20.0 
445.724152 16.0 
446.110901 12.0 
448.226379 77.0 
448.264313 15.0 
449.012909 14.0 
449.231995 36.0 
449.780029 11.0 
450.251068 11.0 
450.488281 11.0 
451.773041 11.0 
452.233795 191.0 
453.033569 12.0 
453.23764 92.0 
453.734558 10.0 
454.249451 329.0 
454.312012 14.0 
454.971863 16.0 
455.252838 131.0 
456.25 16.0 
457.885498 10.0 
458.19458 15.0 
458.209198 69.0 
458.779327 11.0 
460.189148 15.0 
460.223846 4855.0 
460.271301 31.0 
461.226501 1527.0 
461.256439 10.0 
461.531128 12.0 
462.177551 16.0 
462.225739 436.0 
462.285278 13.0 
462.45932 15.0 
463.131073 10.0 
463.225037 138.0 
463.900787 16.0 
464.23349 52.0 
465.192352 20.0 
465.240265 18.0 
466.12851 13.0 
466.153198 13.0 
467.625031 15.0 
468.266205 12.0 
470.243988 131.0 
471.113068 15.0 
471.24588 60.0 
472.260132 274.0 
473.26178 85.0 
474.221283 16.0 
474.240875 203.0 
474.271637 12.0 
474.625854 11.0 
475.245056 68.0 
476.219452 48.0 
476.244629 23.0 
476.865753 15.0 
477.220032 23.0 
478.235321 349.0 
479.106781 23.0 
479.236755 158.0 
479.743256 17.0 
482.246857 80.0 
482.749268 15.0 
483.248505 20.0 
483.354523 10.0 
484.858124 11.0 
484.886261 15.0 
486.247955 21.0 
488.253204 15.0 
489.461273 11.0 
489.515564 11.0 
490.248779 13.0 
490.270233 161.0 
491.275146 35.0 
491.949982 16.0 
492.278076 20.0 
492.304169 14.0 
494.32077 13.0 
495.663086 12.0 
496.295685 13.0 
496.748871 15.0 
498.241608 26.0 
499.241821 10.0 
500.176422 14.0 
500.256897 71.0 
500.701324 14.0 
501.207977 15.0 
502.279419 23.0 
503.892944 11.0 
504.405212 10.0 
505.516724 15.0 
508.309631 13.0 
508.699585 11.0 
508.744507 13.0 
510.458954 16.0 
511.319214 14.0 
512.295654 16.0 
513.604004 16.0 
514.690247 14.0 
516.253113 41.0 
516.298889 56.0 
517.248596 13.0 
518.265259 86.0 
518.316284 50.0 
518.426819 12.0 
518.764343 10.0 
519.267944 28.0 
521.014954 14.0 
521.21637 10.0 
521.265076 11.0 
524.079651 18.0 
524.30658 58.0 
525.700989 13.0 
526.257874 13.0 
528.249451 25.0 
529.417603 16.0 
529.44696 11.0 
530.284058 11.0 
532.33075 52.0 
532.694153 17.0 
533.563049 13.0 
534.312012 32.0 
537.951416 11.0 
538.307556 12.0 
538.774414 11.0 
539.247009 11.0 
540.29364 28.0 
540.522461 14.0 
541.386414 14.0 
542.318359 665.0 
542.506836 13.0 
543.322266 232.0 
544.321167 90.0 
544.702087 14.0 
545.31134 11.0 
547.895752 10.0 
548.953674 17.0 
551.576477 15.0 
551.999023 16.0 
552.329102 20.0 
552.389099 11.0 
552.834839 10.0 
553.029907 10.0 
555.202881 13.0 
556.278076 15.0 
557.587463 15.0 
557.733398 15.0 
558.312256 41.0 
558.477295 14.0 
558.501465 17.0 
559.324829 12.0 
560.272217 11.0 
560.329285 1569.0 
561.332825 698.0 
562.331421 213.0 
563.334534 46.0 
563.740723 13.0 
564.335083 21.0 
566.425476 14.0 
568.617737 14.0 
572.154053 19.0 
574.364319 16.0 
576.325684 97.0 
577.328918 52.0 
578.12384 21.0 
578.249573 11.0 
578.340149 4018.0 
578.389526 13.0 
578.455505 12.0 
578.950562 13.0 
579.165955 15.0 
579.34314 1859.0 
580.344421 555.0 
581.342224 143.0 
582.303406 14.0 
583.083191 10.0 
584.266907 16.0 
585.320679 21.0 
585.529968 11.0 
585.69635 13.0 
586.292419 13.0 
587.432434 10.0 
587.488037 14.0 
588.879456 18.0 
590.605713 11.0 
590.795898 14.0 
590.922729 12.0 
592.334656 13.0 
592.357361 34.0 
592.850464 14.0 
593.297791 13.0 
593.323669 15.0 
593.356689 13.0 
594.305603 17.0 
594.335266 266.0 
594.938721 11.0 
595.339355 109.0 
595.430237 18.0 
595.550171 16.0 
595.582825 10.0 
595.859619 11.0 
595.947754 12.0 
595.989807 15.0 
596.053711 20.0 
596.162231 15.0 
596.201538 19.0 
596.222778 34.0 
596.24585 16.0 
596.264404 17.0 
596.297363 59.0 
596.313538 22.0 
596.351013 15948.0 
596.412109 30.0 
596.440125 17.0 
596.763977 16.0 
597.242126 17.0 
597.275208 13.0 
597.298035 14.0 
597.31366 12.0 
597.35437 6424.0 
597.402771 20.0 
598.291382 38.0 
598.35437 1780.0 
599.354431 552.0 
600.304688 31.0 
600.355896 79.0 
600.460754 11.0 
604.266968 15.0 
610.330322 87.0 
610.366943 578.0 
610.451538 17.0 
610.573181 13.0 
611.334595 63.0 
611.369629 440.0 
612.270508 13.0 
612.347046 626.0 
612.372437 16.0 
613.34906 328.0 
613.438782 16.0 
613.688721 15.0 
614.142883 13.0 
614.163208 11.0 
614.252808 23.0 
614.291321 39.0 
614.313538 54.0 
614.361877 10268.0 
614.454041 13.0 
615.276855 27.0 
615.308899 18.0 
615.36499 4367.0 
616.309937 57.0 
616.364624 1203.0 
617.365479 340.0 
618.320312 252.0 
618.367981 73.0 
619.326538 77.0 
628.259705 29.0 
628.342773 422.0 
628.377258 1052.0 
628.472351 56.0 
629.345276 342.0 
629.380371 880.0 
629.446533 62.0 
629.464539 13.0 
629.494202 15.0 
629.903259 14.0 
629.962646 10.0 
630.231201 13.0 
630.280396 140.0 
630.315308 51.0 
630.356689 1354.0 
630.38739 35.0 
630.485046 13.0 
630.693481 32.0 
631.033386 20.0 
631.285767 57.0 
631.327942 14.0 
631.359985 584.0 
631.385071 30.0 
631.417725 27.0 
631.43573 35.0 
632.263306 18.0 
632.298767 163.0 
632.336914 136.0 
632.36908 434.0 
632.401001 23.0 
632.427002 15.0 
632.520386 20.0 
632.85675 20.0 
633.130737 13.0 
633.300171 94.0 
633.34082 83.0 
633.373962 200.0 
633.434143 42.0 
633.458923 34.0 
634.277527 55.0 
634.317688 77.0 
634.373901 40.0 
634.578979 19.0 
634.709656 14.0 
635.293823 27.0 
635.32251 37.0 
635.380737 17.0 
635.396729 12.0 
635.441895 58.0 
636.294617 30.0 
636.343994 558.0 
636.445801 16.0 
637.347839 141.0 
637.448242 15.0 
646.513367 14.0 
655.358093 17.0 
693.230713 10.0 
696.645935 12.0 
740.239258 10.0 
775.147705 11.0 
776.414368 10.0 
END IONS

