BEGIN IONS
PEPMASS=448.0
CHARGE=1+
COMPOUNDNAME=Massbank:KO009245 Sisomicin|Antibiotic 6640|Dehydrogentamicin Cla|Rickamicin
LIBRARYQUALITY=3
SMILES=NCC(=C3)O[C@@H]([C@H](N)C3)O[C@H]([C@@H](N)1)[C@H](O)[C@@H](O[C@@H](O2)[C@H](O)[C@@H](NC)[C@](C)(O)C2)[C@H](N)C1
INCHIKEY=URWAJWIAIPFPJE-GYHYWALZSA-N
INCHI=1S/C19H37N5O7/c1-19(27)7-28-18(13(26)16(19)24-2)31-15-11(23)5-10(22)14(12(15)25)30-17-9(21)4-3-8(6-20)29-17/h3,9-18,24-27H,4-7,20-23H2,1-2H3/t9-,10+,11-,12+,13-,14-,15+,16-,17-,18-,19+/m1/s1
MSLEVEL=2
SOURCE_INSTRUMENT=ESI-LC-ESI-IT
FILENAME=Massbank_ESI_positive_8_1_2014_peaks.mgf
SEQ=*..*
IONMODE=Positive
ORGANISM=MASSBANK
NAME=Massbank:KO009245 Sisomicin|Antibiotic 6640|Dehydrogentamicin Cla|Rickamicin [M+H]+
PI=Putative Massbank Match
DATACOLLECTOR=Massbank
PUBMED=N/A
SUBMITUSER=mwang87
TAGS=
SPECTRUMID=CCMSLIB00000221359
SCANS=10209
123.2 17.25 
126.1 167.04 
127.1 814.07 
127.9 215.52 
142.1 2245.41 
145.0 664.33 
146.1 136.04 
149.1 13.17 
150.1 18.56 
151.1 883.35 
160.1 21926.01 
161.0 108.54 
163.1 17683.58 
164.1 107.45 
168.9 166.27 
173.1 232.97 
174.6 27.0 
187.1 1087.89 
192.1 99.9 
199.2 149.35 
201.1 71.14 
202.1 36.0 
205.1 7047.99 
206.2 188.05 
211.0 67.89 
214.2 225.02 
226.2 80.31 
237.0 280.71 
250.2 180.97 
251.2 525.77 
253.0 30.06 
254.2 15041.26 
255.1 666.55 
260.1 13.03 
268.1 324.87 
270.1 78.31 
271.2 11118.11 
272.1 381.22 
273.2 346.28 
274.1 90.03 
277.2 69.09 
278.2 411.46 
283.3 34.2 
287.9 136.96 
289.2 2493.54 
290.1 174.02 
291.0 99.65 
295.3 2792.14 
296.2 1558.33 
302.1 45.33 
304.2 195.05 
313.2 8060.75 
314.3 161.82 
321.3 3991.24 
322.2 392140.07 
323.2 3001.45 
330.1 86.54 
331.2 1996.69 
332.3 20.58 
363.2 242.55 
371.1 55.59 
381.2 262.67 
382.1 20.67 
394.3 101.92 
396.0 23.92 
399.3 599.46 
401.0 48.28 
408.4 86.95 
412.4 1828.62 
413.2 70909.06 
414.1 939.5 
417.2 163.04 
429.3 5187.4 
430.2 176134.75 
431.1 5341.84 
431.8 23.72 
432.7 214.38 
434.4 42.45 
436.8 126.14 
447.2 1504.07 
448.1 47148.4 
449.1 2257.9 
450.7 158.38 
481.6 52.5 
490.7 18.95 
497.3 24.86 
END IONS

