BEGIN IONS
PEPMASS=427.246
CHARGE=1+
COMPOUNDNAME=LOVASTATIN
LIBRARYQUALITY=3
SMILES=N/A
INCHIKEY=PCZOHLXUXFIOCF-BXMDZJJMSA-N
INCHI=InChI=1S/C24H36O5/c1-5-15(3)24(27)29-21-11-14(2)10-17-7-6-16(4)20(23(17)21)9-8-19-12-18(25)13-22(26)28-19/h6-7,10,14-16,18-21,23,25H,5,8-9,11-13H2,1-4H3/t14-,15-,16-,18+,19+,20-,21-,23-/m0/s1
MSLEVEL=2
SOURCE_INSTRUMENT=N/A-ESI-QFT
FILENAME=library_mgf.mgf
SEQ=*..*
IONMODE=positive
ORGANISM=MONA
NAME=LOVASTATIN [M+Na]+
PI=MoNA
DATACOLLECTOR=MoNA:VF-NPL-QEHF003457
PUBMED=N/A
SUBMITUSER=mwang87
TAGS=
SPECTRUMID=CCMSLIB00004694520
SCANS=3457
50.175335 0.007184 
51.270298 0.009447 
51.275318 0.00999 
51.610638 0.009822 
51.673115 0.00443 
52.672478 0.013952 
53.039101 0.014693 
53.148621 0.005668 
53.164993 0.014332 
53.420273 0.005809 
53.438477 0.003879 
54.625805 0.010635 
57.028107 0.002121 
57.263588 0.006078 
57.536995 0.013275 
57.959957 0.002308 
58.259895 0.015204 
58.450012 0.006341 
58.472111 0.005078 
58.589001 0.005132 
59.049767 0.003585 
59.116203 0.005215 
59.164825 0.015173 
59.23167 0.013903 
60.475204 0.004465 
61.132214 0.015158 
61.687538 0.011727 
61.702732 0.004114 
61.967991 0.005069 
62.286667 0.010187 
62.491608 0.010894 
62.520718 0.00555 
64.43425 0.00577 
64.593033 0.013119 
64.681763 0.003844 
64.831238 0.013383 
67.497116 0.005839 
68.145432 0.014001 
68.476456 0.01527 
68.652 0.003606 
68.762299 0.007756 
69.691063 0.005768 
69.928497 0.010156 
71.835342 0.010322 
71.946922 0.012549 
72.735168 0.00607 
72.972496 0.012388 
73.325424 0.011984 
73.793633 0.003988 
74.781319 0.00463 
75.233292 0.006422 
76.377586 0.00289 
76.451416 0.003882 
76.607452 0.015403 
77.249413 0.00201 
78.021027 0.003033 
78.286919 0.011318 
79.054916 0.004528 
79.51017 0.008563 
80.181641 0.003382 
80.340385 0.010587 
80.599792 0.016955 
81.070267 0.003262 
81.590897 0.009501 
82.056664 0.012723 
82.392982 0.015939 
82.95443 0.004953 
83.344627 0.002191 
83.750832 0.007162 
84.315109 0.006063 
84.672989 0.006686 
87.141983 0.011044 
87.379242 0.015116 
87.811966 0.015091 
88.174171 0.003412 
88.487854 0.005967 
88.70443 0.004226 
88.951088 0.008258 
89.08255 0.006262 
89.486084 0.002007 
89.753929 0.013339 
89.957603 0.004269 
90.24765 0.015285 
91.99485 0.006743 
92.118927 0.011612 
92.750259 0.064171 
93.250069 0.00242 
93.590416 0.006247 
95.693054 0.007687 
96.363739 0.004135 
97.033447 0.008619 
97.216743 0.01083 
97.786011 0.015694 
98.783707 0.010438 
99.888336 0.00973 
100.678726 0.011701 
101.014107 0.003905 
103.175278 0.006544 
104.89135 0.00599 
105.070259 0.003663 
106.567741 0.016701 
106.888535 0.00625 
106.949471 0.016798 
107.262718 0.01125 
108.176079 0.002255 
108.408066 0.00505 
110.735046 0.008647 
111.005524 1.335317 
112.779854 0.00199 
113.358444 0.004396 
113.400581 0.002164 
113.542351 0.015901 
114.013 0.011687 
114.766449 0.003944 
117.134789 0.004296 
118.826591 0.014871 
119.010468 0.004181 
120.70977 0.015204 
120.902245 0.007035 
125.057274 0.516521 
125.656715 0.01586 
126.446182 0.011546 
126.872406 0.009011 
128.633896 0.006149 
129.250305 0.010009 
130.624573 0.013184 
131.08551 0.00335 
137.393723 0.003064 
137.882919 0.016572 
138.543182 0.006603 
139.41893 0.014143 
140.082535 0.005184 
141.204636 0.007433 
144.247604 0.007562 
144.952972 0.003067 
145.100647 0.014077 
145.215286 0.006765 
145.897827 0.007076 
146.855484 0.005226 
148.617874 0.011119 
152.492218 0.012082 
155.371796 0.006089 
157.100754 0.003654 
158.191254 0.008534 
159.116623 0.275229 
159.624893 0.016499 
159.923248 0.007139 
161.165756 0.014172 
161.233337 0.010679 
163.900589 0.005421 
165.578476 0.005144 
165.936737 0.005787 
170.209106 0.002232 
170.805878 0.012582 
171.492203 0.0037 
172.313705 0.014699 
172.3564 0.0148 
173.132416 0.218406 
173.990158 0.015449 
174.13559 0.003011 
174.29213 0.014041 
175.66304 0.01564 
178.063721 0.016015 
178.251343 0.007852 
179.420975 0.014678 
183.205124 0.004199 
185.133408 0.016248 
191.394287 0.006303 
195.458191 0.004343 
195.646652 0.013147 
196.166504 0.013409 
197.068253 0.010249 
199.148041 0.101175 
200.151138 0.002509 
201.163651 0.018531 
202.311371 0.01357 
204.058426 0.007614 
206.83223 0.014199 
212.232788 0.015296 
213.769119 0.60168 
213.77951 0.479473 
213.786423 0.382619 
215.789703 0.003874 
219.139038 0.011295 
224.321381 0.01594 
225.163849 0.024513 
228.326721 0.004034 
230.200226 0.003161 
232.189285 0.003843 
232.926422 0.006561 
236.231064 0.006674 
238.164688 0.002264 
238.200409 0.00711 
244.514862 0.004092 
244.829315 0.002096 
245.42482 0.013124 
254.094742 0.011012 
256.063599 0.009846 
264.058716 0.01483 
269.219421 0.016064 
270.713531 0.011596 
279.198792 0.014913 
281.911255 0.013037 
284.216064 0.012838 
288.908752 0.022447 
290.94696 0.030673 
295.130096 1.454506 
296.133606 0.101554 
297.073059 0.005082 
297.647247 0.004805 
300.003876 0.016147 
304.103546 0.061163 
306.707977 0.007683 
306.919159 0.114494 
307.922699 0.006304 
308.919495 0.002875 
310.15329 2.840963 
311.156616 0.440501 
311.617889 0.005021 
313.442139 0.005286 
313.801666 0.00312 
313.87793 0.012569 
314.189697 0.010463 
318.052917 0.00782 
318.970734 0.01717 
320.180389 0.004262 
320.466675 0.01056 
323.161255 0.944353 
323.921783 0.004711 
324.1651 0.073431 
324.325623 0.135537 
324.929443 0.014903 
325.176758 100.0 
326.180145 19.553493 
327.182556 1.337049 
332.223511 0.005313 
335.738342 0.003164 
336.036835 0.00656 
339.228973 0.276102 
342.143494 0.282411 
342.328217 0.005677 
343.145325 0.018176 
354.176727 0.007214 
358.389893 0.004157 
359.908203 0.006923 
363.459167 0.010327 
370.362946 0.012265 
371.591278 0.011243 
376.010773 0.015151 
382.622986 0.017729 
402.726929 0.012941 
409.493225 0.003505 
410.196564 0.016006 
414.282013 0.010487 
419.010559 0.010775 
427.244812 64.703865 
428.248108 16.612185 
428.295959 0.045436 
429.220551 0.003068 
429.250946 1.614927 
449.792633 0.008139 
END IONS

