BEGIN IONS
PEPMASS=465.349
CHARGE=1+
COMPOUNDNAME=3-Epilupeol
LIBRARYQUALITY=3
SMILES=N/A
INCHIKEY=MQYXUWHLBZFQQO-ISZJTHHZSA-N
INCHI=InChI=1S/C30H50O/c1-19(2)20-11-14-27(5)17-18-29(7)21(25(20)27)9-10-23-28(6)15-13-24(31)26(3,4)22(28)12-16-30(23,29)8/h20-25,31H,1,9-18H2,2-8H3/t20-,21+,22-,23+,24+,25+,27+,28-,29+,30+/m0/s1
MSLEVEL=2
SOURCE_INSTRUMENT=N/A-ESI-QFT
FILENAME=library_mgf.mgf
SEQ=*..*
IONMODE=positive
ORGANISM=MONA
NAME=3-Epilupeol [M+K]+
PI=MoNA
DATACOLLECTOR=MoNA:VF-NPL-QEHF005655
PUBMED=N/A
SUBMITUSER=mwang87
TAGS=
SPECTRUMID=CCMSLIB00004696718
SCANS=5655
50.972305 0.089322 
51.026985 0.08769 
51.940823 0.155973 
52.119499 0.089342 
52.132629 0.084105 
52.217182 0.090194 
53.002979 0.83309 
53.039356 1.757426 
53.135189 0.103981 
53.162125 0.093788 
53.636505 0.087298 
55.0186 3.506176 
55.054989 20.861294 
55.935406 0.100468 
56.050259 4.660791 
56.058376 0.242326 
56.73893 0.105521 
56.757713 0.087733 
56.964054 0.182543 
56.965553 33.593189 
57.034241 3.617006 
57.070633 46.549969 
57.241989 0.084788 
57.37524 0.089616 
57.79073 0.09077 
57.849297 0.083449 
57.935589 0.441944 
58.06588 4.057831 
58.073963 0.364195 
59.049866 3.372762 
59.061111 0.958529 
59.095844 0.090796 
59.378807 0.096076 
59.523277 0.08193 
59.567726 0.08814 
59.583019 0.086955 
59.630211 0.078251 
59.639633 0.094164 
59.99099 4.232058 
60.045151 1.276719 
60.328053 0.094793 
60.958344 0.09903 
61.011383 9.725009 
61.029228 0.357624 
61.20467 0.084187 
61.362598 0.080887 
62.019184 1.686852 
62.758381 0.090416 
62.982426 0.462681 
62.990677 0.227521 
63.52314 0.082657 
63.998478 3.440801 
64.436203 0.093877 
64.978157 0.088831 
65.039299 2.060321 
66.264633 0.078112 
66.27356 0.09325 
66.557777 0.100871 
66.859619 0.103402 
67.054916 26.962914 
67.25042 0.083923 
67.277916 0.082777 
67.349922 0.08681 
67.935669 0.105931 
68.050133 0.531881 
68.054039 0.086216 
68.058273 0.407789 
68.305519 0.087299 
68.647697 0.084545 
69.034164 4.069804 
69.070564 17.3556 
69.141449 0.078315 
69.194244 0.078134 
69.331894 0.084097 
69.982208 0.085482 
70.065788 4.546027 
70.073776 0.229798 
70.205521 0.089141 
70.370659 0.093178 
70.555199 0.078344 
70.981232 0.12357 
71.049812 3.763326 
71.086189 6.381835 
71.77066 0.089501 
71.952568 0.38024 
72.045052 2.565207 
72.081467 1.65471 
72.652405 0.105727 
72.960388 0.187523 
73.029037 10.384248 
73.047462 1.360695 
73.065384 0.456335 
73.312721 0.09926 
74.060646 0.270441 
74.097061 4.780903 
74.516823 0.087856 
74.671799 0.082746 
74.931503 2.851713 
74.976051 0.354938 
75.044456 0.093687 
75.994057 0.090412 
76.0261 0.07863 
76.076393 0.103707 
76.193001 0.08332 
76.519371 0.08013 
76.928566 0.660443 
77.008942 2.236121 
77.191757 0.094426 
77.824173 0.083896 
77.826904 0.107789 
77.841003 0.086891 
78.452408 0.098699 
78.556618 0.0899 
78.870041 0.071632 
79.021805 18.357853 
79.05484 15.593598 
79.06942 0.096901 
79.935654 0.086526 
80.050011 0.375559 
80.058067 0.306087 
80.105789 0.078738 
80.469032 0.089792 
80.948418 1.246955 
81.000839 0.298249 
81.034058 0.822503 
81.070473 29.264137 
82.065697 0.782002 
82.073875 0.328501 
83.049683 3.739167 
83.086075 5.900844 
84.044769 0.244671 
84.081383 0.624554 
84.869499 0.080385 
84.960266 0.098816 
85.028961 1.635077 
85.065407 1.428095 
85.080376 0.098004 
85.101692 1.639203 
85.892151 0.086902 
86.060577 0.111826 
86.096985 1.946663 
87.044563 3.505631 
88.022018 2.825807 
88.039398 0.098975 
88.076103 0.380213 
88.080978 0.094485 
88.917534 0.086849 
89.060226 4.053676 
89.801338 0.090751 
90.038513 0.088446 
90.948196 0.142508 
91.054695 18.442705 
91.057861 19.855049 
92.057571 2.020924 
92.061142 0.297292 
92.839485 0.105633 
92.986526 0.10987 
93.033913 0.10077 
93.037277 2.688592 
93.054626 0.812909 
93.07032 21.851084 
93.209351 0.095165 
93.396133 0.090909 
94.065521 0.839599 
94.073608 0.425607 
94.129395 0.093031 
95.019417 0.169322 
95.049583 7.522935 
95.085938 28.584782 
96.052689 0.155184 
96.081261 0.610409 
96.089294 0.299809 
96.234131 0.107007 
96.995552 0.697557 
97.016853 0.101811 
97.065186 2.505696 
97.101547 1.492628 
97.240631 0.122879 
97.259544 0.085655 
98.060631 0.271172 
98.096779 4.815481 
98.975746 5.060845 
99.044487 0.786238 
99.128197 0.083844 
99.205589 0.080081 
99.616386 0.100409 
100.076103 0.543267 
101.059982 1.770333 
101.104538 0.099465 
101.424187 0.090282 
101.950211 0.744538 
102.517159 0.096469 
102.925789 0.10588 
103.038971 0.125188 
103.054558 1.48545 
104.521355 0.090586 
104.775383 0.093783 
105.033653 0.094279 
105.045105 0.706069 
105.070183 20.479712 
106.065392 1.141081 
106.073532 0.915364 
106.086639 0.241383 
106.918549 0.092258 
107.019569 0.089715 
107.049416 2.436012 
107.073647 0.093903 
107.082169 0.303009 
107.085869 22.057795 
107.518723 0.096376 
108.08094 0.313821 
108.08918 0.772849 
109.065079 4.298602 
109.101456 13.705384 
110.060219 0.233166 
110.096832 0.094967 
110.104736 0.247415 
110.538689 0.100441 
111.044418 0.233096 
111.080635 1.177743 
111.117073 0.19296 
111.129974 0.089535 
111.86013 0.09525 
112.485046 0.090383 
112.83461 0.086843 
113.059868 0.121832 
114.09166 0.191669 
114.450752 0.089992 
115.054436 2.799722 
115.43998 0.089804 
116.053139 2.196697 
116.062454 0.10734 
116.070694 0.108201 
116.107269 0.574861 
116.986115 10.25713 
117.070061 4.358691 
117.969795 0.154168 
118.717857 0.098097 
118.980141 0.091267 
119.002037 0.113121 
119.049309 1.698174 
119.085709 21.144373 
119.960701 0.373946 
120.080963 2.537141 
120.089081 0.978827 
121.028534 3.173545 
121.064941 3.914097 
121.101372 13.05745 
121.402359 0.088597 
121.64711 0.085928 
122.43177 0.084865 
123.043999 0.375837 
123.080559 3.626407 
123.116982 4.267149 
124.06337 0.101621 
125.059761 0.658845 
125.096214 0.365564 
127.03701 0.109737 
128.062164 14.947325 
128.067001 0.143355 
128.91629 0.103782 
129.065384 0.2326 
129.070053 5.634268 
129.090714 0.111182 
129.407959 0.097978 
130.077942 0.115432 
130.196396 0.092385 
130.932755 0.115513 
131.000473 0.862331 
131.049271 1.493951 
131.085541 7.458426 
131.30423 0.091565 
132.080627 0.111722 
132.258698 0.083181 
132.995132 0.092154 
133.027893 0.10209 
133.064697 0.911796 
133.101212 12.72171 
134.060318 0.097831 
134.078979 0.090809 
134.569199 0.094007 
134.581192 0.089569 
134.753189 0.086505 
134.955688 0.097563 
134.97908 0.126852 
134.996414 20.63975 
135.044052 2.368063 
135.08046 4.61273 
135.111649 0.09905 
135.116806 7.422848 
135.465683 0.116894 
136.075623 0.251673 
136.112015 0.185564 
136.119995 0.117644 
137.011887 1.193447 
137.059494 0.81992 
137.09613 1.948326 
137.132355 1.007696 
137.970947 2.242105 
138.988998 0.101171 
139.568253 0.09806 
139.68515 0.09261 
140.958939 0.115848 
141.069901 2.005852 
142.049591 0.099394 
142.077911 1.490294 
142.773865 0.101288 
143.085526 15.905295 
144.088562 0.269172 
144.093842 0.253326 
145.064743 2.388405 
145.101212 9.53414 
146.012299 0.205955 
146.104614 0.146556 
146.381271 0.095434 
146.974152 0.306992 
146.996384 0.46598 
147.0439 7.077254 
147.080383 2.153592 
147.116745 7.100583 
147.162567 0.108051 
148.943344 0.441016 
149.011948 2.725104 
149.045654 0.097783 
149.059875 0.106625 
149.096024 1.375009 
149.132446 1.711671 
150.836212 0.112665 
150.950638 0.354736 
151.02739 0.112338 
151.111435 0.106756 
152.06221 0.893978 
152.95163 0.17249 
152.989182 1.940164 
153.007126 3.724085 
153.069839 6.251657 
153.640625 0.103948 
153.959152 0.68419 
154.078476 0.111947 
154.122437 0.190875 
154.968369 0.770702 
155.059937 0.116905 
155.085434 3.70433 
155.151749 0.096216 
155.981644 0.958328 
156.056915 0.366755 
156.093552 0.680116 
156.138214 0.690011 
157.015778 0.087678 
157.065033 1.3021 
157.101151 5.157841 
157.556091 0.085678 
158.109238 0.124487 
159.032776 0.326178 
159.043991 3.519101 
159.080429 2.294765 
159.116837 6.626342 
160.028305 0.354309 
161.011887 0.520355 
161.096054 1.863459 
161.132446 2.390918 
163.027679 0.506784 
163.111542 0.379922 
163.147888 0.438596 
164.071472 0.083856 
164.92038 0.317184 
164.953979 0.10772 
165.054428 0.495849 
165.070038 0.889805 
167.023285 0.09336 
167.055344 0.590206 
167.085876 0.316135 
168.056396 0.10572 
168.093536 0.264639 
169.034622 0.638602 
169.064743 0.393037 
169.101151 2.029495 
170.109467 0.390185 
170.963135 4.69477 
171.031921 0.304048 
171.044098 2.615449 
171.080368 14.661643 
171.116714 3.616215 
171.137817 7.798709 
172.083633 0.393016 
172.200317 0.089625 
172.860153 0.088918 
172.951797 0.269325 
172.978958 0.132814 
173.048859 0.117667 
173.059875 0.105588 
173.096039 1.908233 
173.132477 2.42655 
173.341766 0.089232 
173.787262 0.093031 
174.043701 0.115635 
174.972504 1.70495 
175.038971 100.0 
175.111816 0.850165 
175.148315 1.004023 
176.042252 9.231591 
177.043182 0.103866 
179.39299 0.104565 
180.887924 0.218359 
181.064636 7.501838 
181.101242 0.309023 
182.069168 0.105668 
182.108521 0.117417 
182.158371 0.113035 
183.080322 0.571136 
183.116913 0.934499 
183.128952 0.108987 
184.027405 0.092302 
184.051926 6.205137 
185.059677 2.762725 
185.095779 0.281449 
185.132614 1.225273 
185.880447 0.450757 
185.949005 0.261734 
186.879227 0.309071 
187.038635 0.709557 
187.075867 0.474855 
187.111603 0.813318 
187.148239 1.266521 
188.974045 9.142008 
189.006271 0.111733 
189.018417 1.747415 
189.043884 0.206754 
189.054504 4.289256 
189.127121 0.319599 
189.163574 0.995555 
190.953873 1.424072 
190.962631 0.2692 
191.989792 0.131351 
192.006653 0.296489 
193.101105 0.370808 
194.713745 0.102674 
194.924698 0.969906 
194.999725 5.012406 
195.079117 0.12569 
195.117065 0.86154 
197.012482 0.198992 
197.09642 0.356511 
197.132309 1.152621 
197.974533 0.538901 
199.038834 8.839332 
199.06543 0.672257 
199.075241 12.888775 
199.111206 0.328173 
199.147934 0.385951 
200.078903 0.287473 
201.126968 0.327026 
201.16272 0.103938 
202.892715 0.247826 
202.971878 0.090631 
203.033798 2.456159 
203.070175 0.536658 
203.142838 0.409676 
203.890701 2.946926 
203.998734 0.107669 
204.888809 1.279573 
205.887573 0.099318 
206.8647 0.09155 
206.926758 1.47133 
208.927002 0.115311 
208.96492 0.226978 
209.015854 0.097999 
209.059875 0.18285 
209.132278 0.525805 
209.272156 0.119296 
209.925491 0.233168 
211.111893 0.305807 
211.148132 0.547041 
212.046738 0.286615 
212.935257 0.643851 
213.010086 10.450489 
213.127151 0.486419 
215.069901 0.867559 
215.142731 0.425228 
216.980637 0.123237 
217.074951 0.28264 
217.085861 7.205481 
218.003693 0.511814 
218.088409 0.133129 
220.121887 0.254582 
220.135803 0.530454 
220.144547 0.802885 
220.160324 0.860412 
220.343384 0.108964 
220.903076 0.264881 
221.90126 0.598429 
222.898727 6.642788 
223.026489 0.12778 
223.112259 0.14235 
223.148514 0.141067 
223.898956 0.203687 
223.928619 0.249886 
224.936646 0.642796 
225.042816 20.804777 
225.128448 0.245828 
226.042587 11.343931 
226.920822 0.586494 
227.022095 9.773583 
227.039642 6.312362 
227.070099 27.727831 
227.935104 1.726639 
228.022141 5.014688 
228.073914 3.414557 
228.900589 0.165432 
228.933197 0.097998 
229.019028 2.686343 
229.075211 0.111584 
229.895569 0.190487 
231.983582 1.693007 
235.148972 0.114073 
237.996078 0.110946 
238.913879 1.596289 
240.90892 14.444407 
240.932159 0.102531 
241.910767 0.114669 
244.48494 0.1116 
244.931473 2.269421 
245.080643 15.771582 
245.131454 0.125764 
245.908295 0.13519 
246.084091 1.215742 
246.910034 1.479722 
247.906891 0.409029 
248.939514 0.110284 
248.990692 0.108962 
249.643433 0.094792 
250.088776 0.096217 
250.956436 0.165544 
251.025711 3.565066 
252.109406 0.10256 
252.949905 1.444125 
253.49791 0.1111 
254.965958 0.167312 
258.94873 0.094433 
260.134216 0.109172 
264.31369 0.0983 
264.921173 0.213688 
265.939056 0.547179 
266.998901 3.875287 
267.999207 3.977589 
268.357849 0.094278 
268.978973 0.334152 
268.995514 1.466168 
269.036102 0.112749 
269.978943 0.229673 
272.976532 1.100249 
274.137543 0.104031 
275.152405 0.465439 
277.00473 0.3202 
281.911743 0.255639 
282.136505 0.106458 
282.81131 0.118463 
282.918945 0.122223 
283.029999 0.942297 
283.259399 0.096554 
283.84729 3.039046 
284.030396 1.119309 
284.152863 0.116286 
284.84552 1.10338 
285.027832 0.557023 
285.835846 1.240207 
286.462921 0.105047 
286.843353 0.261787 
286.937653 0.366939 
288.968903 0.151368 
290.947174 0.162797 
291.846222 0.113063 
292.833008 0.333048 
292.926819 0.630561 
294.906006 0.350148 
300.822693 0.348112 
300.860199 0.227111 
301.857971 3.432451 
302.323486 0.09138 
302.856354 1.800798 
303.855621 0.224782 
304.894989 0.117392 
304.94812 0.589433 
305.045868 0.374735 
308.829437 0.113766 
308.847046 0.391579 
308.908508 0.119384 
309.835815 4.989919 
310.843323 20.805321 
311.845917 0.123458 
312.839264 0.615891 
318.635925 0.095928 
321.121521 0.101904 
322.908264 0.095036 
324.822662 1.341003 
324.8591 0.213511 
325.830231 1.484126 
326.838196 2.683468 
327.18454 0.102804 
327.825958 0.116334 
327.8461 3.655734 
328.852966 0.117881 
333.835907 1.031861 
334.843536 0.690969 
341.898041 0.102212 
342.833252 11.361934 
344.953918 0.096528 
349.851288 0.090913 
351.845978 11.578615 
352.849213 0.379239 
354.911163 0.11339 
361.280426 0.345097 
362.281952 0.976701 
363.277893 0.326632 
364.003326 0.097607 
368.924194 0.272341 
369.857056 0.68155 
378.110046 0.10968 
389.218353 0.094842 
391.660736 0.097641 
397.282623 0.095297 
403.175842 0.100732 
403.358246 0.101986 
447.34613 1.40999 
448.351807 0.238799 
449.516388 0.102533 
451.827301 0.109015 
452.738068 0.114436 
462.809845 0.085773 
465.333038 4.442629 
466.338043 0.487759 
466.709381 0.095233 
474.870758 0.105063 
478.034637 0.103749 
489.171387 0.110351 
491.941498 0.09542 
END IONS

