BEGIN IONS
PEPMASS=271.061
CHARGE=1+
COMPOUNDNAME=naringenin
LIBRARYQUALITY=3
SMILES=N/A
INCHIKEY=FTVWIRXFELQLPI-ZDUSSCGKSA-N
INCHI=InChI=1S/C15H12O5/c16-9-3-1-8(2-4-9)13-7-12(19)15-11(18)5-10(17)6-14(15)20-13/h1-6,13,16-18H,7H2/t13-/m0/s1
MSLEVEL=2
SOURCE_INSTRUMENT=N/A-ESI-QTOF
FILENAME=library_mgf.mgf
SEQ=*..*
IONMODE=negative
ORGANISM=MONA
NAME=naringenin [M-H]-
PI=MoNA
DATACOLLECTOR=MoNA:VF-NPL-QTOF002114
PUBMED=N/A
SUBMITUSER=mwang87
TAGS=
SPECTRUMID=CCMSLIB00004719909
SCANS=2111
63.026699 0.707004 
65.003502 0.10933 
65.005699 0.932845 
83.016098 1.007274 
93.037003 3.696 
93.124496 0.07561 
107.015999 3.096525 
107.109299 0.053616 
119.052498 10.024581 
119.131699 0.062456 
119.1474 0.225287 
119.184097 0.068127 
119.197098 0.06241 
119.220497 0.054636 
119.234001 0.050067 
120.054703 0.085596 
121.0289 0.074361 
125.026703 0.588785 
143.050797 0.056663 
145.031097 0.367306 
151.005997 34.616356 
151.112793 0.93432 
151.1492 0.261769 
151.162704 0.072877 
151.1716 0.069761 
151.182907 0.08392 
151.197296 0.064491 
151.214798 0.093661 
151.226898 0.061986 
151.239807 0.072427 
151.258606 0.068144 
151.269699 0.074548 
151.2883 0.05834 
151.300003 0.081882 
151.321793 0.063864 
151.343399 0.100213 
151.358002 0.082233 
151.377396 0.052485 
151.470306 0.053088 
151.487595 0.062696 
151.779099 0.052285 
152.007797 0.271631 
152.013199 0.074748 
161.063507 0.069523 
165.021606 1.226825 
177.0215 5.200246 
177.129501 0.081578 
177.1436 0.12655 
185.060699 0.227961 
187.042603 0.161182 
227.074402 0.503218 
229.0513 0.114543 
253.051804 0.198009 
271.06369 100.0 
271.205505 0.475283 
271.755493 0.052805 
271.789215 0.057293 
271.863892 0.064874 
271.920013 0.068441 
271.952789 0.05312 
272.067505 1.609193 
272.174286 0.100532 
272.206207 0.050085 
272.222107 0.050177 
272.2854 0.053498 
272.30899 0.058997 
272.337097 0.05889 
272.418304 0.077745 
272.476288 0.066453 
272.521515 0.052308 
272.592407 0.074199 
272.950897 0.079162 
273.0755 0.053828 
273.36499 0.056128 
END IONS

