BEGIN IONS
PEPMASS=283.051
CHARGE=1+
COMPOUNDNAME=BIOTIN
LIBRARYQUALITY=3
SMILES=N/A
INCHIKEY=YBJHBAHKTGYVGT-ZKWXMUAHSA-N
INCHI=InChI=1S/C10H16N2O3S/c13-8(14)4-2-1-3-7-9-6(5-16-7)11-10(15)12-9/h6-7,9H,1-5H2,(H,13,14)(H2,11,12,15)/t6-,7-,9-/m0/s1
MSLEVEL=2
SOURCE_INSTRUMENT=N/A-ESI-QFT
FILENAME=library_mgf.mgf
SEQ=*..*
IONMODE=positive
ORGANISM=MONA
NAME=BIOTIN [M+K]+
PI=MoNA
DATACOLLECTOR=MoNA:VF-NPL-QEHF028120
PUBMED=N/A
SUBMITUSER=mwang87
TAGS=
SPECTRUMID=CCMSLIB00004721701
SCANS=28120
50.247105 0.007109 
50.30109 0.014705 
50.819149 0.012943 
50.924744 0.005342 
51.103149 0.005198 
51.270813 0.006819 
51.437145 0.017943 
51.940247 0.007718 
51.945274 0.009165 
52.435028 0.00486 
52.509018 0.015876 
52.760223 0.013972 
53.109688 0.009079 
53.410763 0.016891 
53.562065 0.015027 
54.105728 0.016366 
54.306023 0.013321 
54.389378 0.010015 
55.064056 0.015141 
55.123764 0.006299 
55.16481 0.027028 
55.543659 0.00657 
56.049828 0.015139 
56.348179 0.00482 
56.664276 0.009457 
56.935238 0.013362 
56.956703 0.012033 
56.965103 0.07594 
57.070171 0.334891 
57.096668 0.016336 
57.803391 0.015674 
58.350662 0.010158 
59.049305 0.009026 
59.281857 0.009755 
59.780724 0.007632 
59.996449 0.007718 
60.081013 0.147791 
60.324867 0.006081 
60.380775 0.009635 
60.636314 0.007393 
60.955734 0.011378 
61.010803 5.513883 
61.560635 0.018909 
61.648834 0.010325 
61.706619 0.010571 
61.783596 0.019222 
62.014114 0.057009 
62.01862 1.908858 
62.786896 0.00836 
63.006569 0.308036 
63.026455 0.045389 
64.591057 0.015386 
65.048836 0.010349 
65.6185 0.012658 
66.084373 0.014843 
66.436058 0.014621 
66.682411 0.009199 
67.953613 0.014209 
68.405518 0.007482 
68.900566 0.012912 
68.986923 0.007977 
69.069946 0.01716 
69.686607 0.017349 
69.898811 0.006043 
70.065163 0.006271 
70.203873 0.012167 
70.539574 0.011365 
70.64135 0.008664 
71.049164 0.016449 
71.08876 0.017969 
71.831032 0.017618 
72.184525 0.006899 
72.470947 0.01251 
73.299973 0.013364 
74.04055 0.006327 
74.048065 0.014221 
74.096466 0.048763 
74.581833 0.007376 
74.971863 0.012193 
75.001427 0.015839 
76.339462 0.012274 
77.464485 0.008401 
77.825211 0.008971 
78.03315 0.008636 
78.216316 0.009499 
79.021263 0.085702 
79.406693 0.015405 
79.499405 0.007441 
79.937828 0.010766 
81.069878 0.012322 
81.366974 0.015422 
82.793617 0.004798 
83.085518 0.027836 
83.301857 0.015758 
83.669594 0.004908 
84.283585 0.015085 
85.010582 0.469093 
85.101173 0.022894 
86.087616 0.016522 
86.096237 0.009822 
86.191277 0.015945 
86.477089 0.017042 
86.764481 0.010286 
86.797188 0.013936 
87.044067 0.26468 
87.762756 0.015724 
89.059616 10.038845 
89.085579 0.015521 
89.800407 0.006217 
90.063019 0.25532 
90.573578 0.016239 
91.054138 0.048775 
91.057297 0.027079 
91.206795 0.004363 
91.297409 0.006522 
91.362877 0.018482 
91.366959 0.013691 
92.397942 0.011883 
92.563065 0.008499 
93.069618 0.004916 
93.383476 0.009552 
93.545219 0.011787 
93.651283 0.009737 
93.830002 0.006642 
94.026985 0.013529 
94.559982 0.005891 
95.08551 0.0672 
95.635857 0.016408 
96.458717 0.014438 
97.101082 0.006178 
97.929543 0.012906 
97.963539 0.006552 
98.495705 0.009784 
98.975258 0.671548 
99.978508 0.01375 
100.991348 0.016577 
101.003075 0.032521 
101.200447 0.014784 
101.966339 0.00912 
102.131104 0.008795 
102.948204 0.100407 
103.472961 0.010784 
103.859596 0.010522 
104.488754 0.008134 
104.992241 0.763848 
105.033363 0.056487 
107.07016 0.037932 
107.761894 0.009778 
108.940979 0.006025 
109.100716 0.005969 
109.950455 0.015541 
110.212112 0.015157 
112.161682 0.009082 
112.513634 0.006075 
114.099159 0.00773 
116.985756 0.365304 
117.05442 0.012764 
119.167297 0.010709 
119.662949 0.016541 
119.854637 0.010624 
122.658768 0.015232 
125.532494 0.013287 
126.077126 0.006681 
128.246765 0.012966 
130.309769 0.013958 
131.406754 0.013924 
131.95108 0.006722 
132.601898 0.009061 
132.938934 0.097561 
133.0858 2.104234 
133.878677 0.014687 
134.08931 0.018768 
134.401779 0.007035 
134.687149 0.008092 
134.978561 3.638286 
134.996094 0.062071 
135.401672 0.018661 
136.127243 0.018911 
137.05983 0.007869 
138.966736 0.01596 
140.890533 0.007772 
141.985336 0.010183 
143.051041 0.004237 
143.950836 0.080032 
146.92009 0.060497 
146.974213 0.067943 
146.996216 0.180646 
148.059448 0.010502 
148.112045 0.076453 
149.281906 0.004925 
149.495087 0.020484 
149.961166 0.017688 
150.949509 1.09689 
151.722382 0.015888 
152.950516 0.01058 
152.989105 2.182682 
153.591385 0.015125 
153.676575 0.006692 
154.475571 0.006647 
155.368164 0.008224 
155.663177 0.00808 
157.936264 0.006706 
157.958572 0.024493 
158.63063 0.007283 
158.96254 0.008258 
159.964218 0.02814 
160.550262 0.004758 
160.961487 0.484736 
161.741287 0.006697 
161.94342 0.058752 
161.961243 0.093415 
162.951157 0.206461 
163.976486 0.007832 
164.930771 0.180046 
165.006866 0.341389 
166.06723 0.015555 
170.051102 0.014472 
171.000259 0.018477 
171.062546 0.045343 
174.875854 0.013699 
174.940613 0.091225 
174.95137 0.193778 
175.637985 0.008105 
175.959167 0.251904 
175.968903 0.026822 
176.016052 0.0159 
176.437195 0.010015 
176.965195 0.25881 
177.112167 0.020334 
179.004913 0.032114 
179.022186 0.11611 
179.274261 0.016853 
179.953918 1.140453 
180.099091 0.008593 
180.962357 0.017685 
182.048447 0.160204 
183.01767 0.058784 
184.970551 0.014703 
185.58342 0.008255 
187.520706 0.015583 
188.989212 0.032688 
190.945984 0.717523 
190.967117 0.047876 
191.974838 0.044752 
192.952255 0.061209 
192.961807 2.951397 
193.107971 0.015819 
193.969788 3.332756 
194.970078 0.141465 
196.162354 0.01765 
200.059113 0.922076 
200.896423 0.004973 
202.95224 0.265547 
203.953995 0.722555 
204.951111 3.476424 
205.029282 0.021577 
205.039001 0.01039 
205.650482 0.008525 
205.954407 0.021491 
205.969437 0.292319 
206.234573 0.00625 
206.857727 0.015028 
206.948685 0.008963 
206.977234 0.009481 
206.999725 0.491993 
208.003708 0.03763 
208.096558 0.456866 
208.130066 0.011525 
209.099594 0.020553 
210.151733 0.007539 
210.220795 0.005628 
210.971863 0.00901 
210.985321 0.123965 
212.059128 0.018445 
212.106827 0.122786 
213.001389 0.020047 
213.996933 0.018408 
215.707886 0.390744 
215.718155 0.542874 
217.444977 0.011859 
218.069733 0.23576 
220.962906 0.093899 
221.15329 0.061617 
221.964569 0.320995 
221.976974 0.005725 
222.055511 0.010512 
222.96167 1.779532 
223.009979 0.011063 
223.964844 0.007338 
223.979935 0.32626 
224.059372 0.101346 
224.669678 0.016638 
224.951935 0.036849 
225.010117 1.30882 
225.99704 0.124775 
227.015747 0.327449 
227.084839 0.052579 
232.007202 0.141158 
232.476196 0.010194 
233.890808 0.026031 
233.950134 0.595701 
235.311417 0.016177 
237.054291 1.253422 
238.056961 0.021258 
240.036392 0.739178 
240.231903 0.491766 
240.532898 0.015367 
240.96907 0.006414 
241.020309 0.855922 
241.990265 0.014058 
242.552277 0.007182 
243.020782 0.063691 
243.356842 0.019802 
245.009583 0.005882 
245.026428 1.046213 
245.986435 0.053888 
246.915665 0.005687 
249.054123 0.082967 
250.177399 26.401775 
251.180923 3.895551 
252.183243 0.153604 
254.409988 0.009706 
254.962265 0.013249 
255.064789 4.044234 
255.841553 0.015826 
256.068085 0.201512 
258.046967 3.084592 
259.031097 0.086252 
259.049988 0.086861 
263.036804 0.175407 
263.136322 0.017689 
264.194305 0.065717 
265.031708 0.394786 
265.061432 0.539912 
265.099945 0.052358 
266.063354 0.034151 
266.835449 0.014107 
266.999023 0.018475 
267.016235 0.005423 
267.064911 0.657259 
267.591583 0.00713 
268.000214 0.006483 
268.071777 0.025176 
268.97821 0.209155 
268.992981 0.021278 
269.977325 0.017869 
270.993439 0.285012 
272.002106 0.190088 
273.075378 1.103925 
273.982086 0.010622 
275.07312 0.040056 
276.057373 0.432129 
280.353607 0.016424 
281.050385 0.013571 
281.092804 1.325811 
281.14624 0.007154 
281.171478 0.086897 
281.294647 0.066049 
282.050659 0.018351 
282.095551 0.380754 
282.13681 0.017814 
282.203796 1.520256 
282.220123 0.048291 
282.278534 0.229239 
282.314423 0.037715 
282.977875 0.007752 
282.99411 2.068989 
283.041656 15.046213 
283.071289 3.656211 
283.095184 0.73209 
283.11145 0.036252 
283.150421 0.034188 
283.187134 0.011858 
283.206909 0.145599 
283.223846 0.245579 
283.262421 1.777021 
284.001953 0.858196 
284.028992 0.523729 
284.045258 1.67831 
284.07486 0.323142 
284.099518 0.047136 
284.237 0.163266 
284.265411 0.159433 
284.330811 14.785839 
284.990295 0.049389 
285.009277 0.008409 
285.025513 0.064802 
285.03717 0.051368 
285.07196 0.012941 
285.130096 0.048984 
285.166534 0.049615 
285.202698 0.406196 
285.333923 0.409588 
289.003571 0.007311 
293.084198 0.023628 
295.884735 0.020519 
297.395569 0.011588 
299.061523 1.391053 
300.061615 1.606597 
300.148132 0.136313 
301.052399 100.0 
302.055634 11.720202 
303.047058 2.908145 
END IONS

