BEGIN IONS
PEPMASS=333.166
CHARGE=1+
COMPOUNDNAME=SPECTINOMYCIN
LIBRARYQUALITY=3
SMILES=N/A
INCHIKEY=UNFWWIHTNXNPBV-WXKVUWSESA-N
INCHI=InChI=1S/C14H24N2O7/c1-5-4-6(17)14(20)13(21-5)22-12-10(19)7(15-2)9(18)8(16-3)11(12)23-14/h5,7-13,15-16,18-20H,4H2,1-3H3/t5-,7-,8+,9+,10+,11-,12-,13+,14+/m1/s1
MSLEVEL=2
SOURCE_INSTRUMENT=N/A-ESI-QFT
FILENAME=library_mgf.mgf
SEQ=*..*
IONMODE=positive
ORGANISM=MONA
NAME=SPECTINOMYCIN [M+H]+
PI=MoNA
DATACOLLECTOR=MoNA:VF-NPL-QEHF003418
PUBMED=N/A
SUBMITUSER=mwang87
TAGS=
SPECTRUMID=CCMSLIB00004694481
SCANS=3418
50.127052 0.008718 
50.195507 0.010411 
50.649078 0.013087 
51.115318 0.011181 
51.148521 0.0115 
51.566109 0.009551 
52.05822 0.009277 
52.059456 0.012355 
52.357864 0.007881 
53.039455 0.012948 
53.125664 0.01157 
53.372181 0.010518 
55.055 0.114857 
55.223751 0.010905 
56.050232 0.657393 
56.091057 0.008459 
57.034237 0.436841 
57.145332 0.011747 
57.397087 0.011573 
57.51244 0.013911 
58.029476 0.023302 
58.065845 0.433612 
58.132313 0.011505 
58.42963 0.007586 
58.433872 0.01155 
59.037289 0.223507 
59.361404 0.013201 
59.531387 0.009761 
59.871513 0.012178 
60.045147 0.205428 
60.04752 0.010596 
61.991173 0.010159 
62.124905 0.005973 
62.255802 0.012547 
62.288498 0.011613 
63.441666 0.011556 
65.24807 0.009756 
65.322495 0.00892 
65.684586 0.012544 
65.868393 0.008383 
65.97361 0.012545 
66.011559 0.010699 
66.560516 0.009831 
66.612251 0.013177 
66.971092 0.009517 
68.050156 0.324035 
68.322128 0.00997 
68.360344 0.011395 
68.63063 0.009383 
68.781525 0.011259 
69.034142 1.691772 
69.572632 0.008498 
69.575539 0.009371 
70.065765 2.195226 
70.373001 0.005514 
71.049774 1.501318 
71.069351 0.016196 
71.08567 0.012145 
71.327927 0.009336 
71.396767 0.011784 
72.045036 5.659665 
72.742828 0.009429 
72.846184 0.006897 
73.048286 0.008677 
73.052841 1.312345 
73.21637 0.010588 
74.060677 6.075354 
74.559357 0.012847 
74.675766 0.01175 
74.694984 0.013414 
75.002281 0.012629 
75.064079 0.020289 
75.392235 0.007306 
75.86039 0.005773 
75.907623 0.009439 
76.264221 0.0136 
77.522743 0.011036 
77.959351 0.012871 
78.017036 0.009766 
78.244698 0.012661 
78.400513 0.014009 
80.050011 0.059457 
80.073494 0.010226 
80.204445 0.012478 
80.761086 0.012802 
81.031609 0.01111 
81.034042 1.092381 
81.309631 0.009725 
81.338181 0.014016 
81.949738 0.009971 
82.065681 2.137 
83.049683 0.831286 
83.068901 0.012212 
83.073418 0.029745 
84.04493 1.123221 
84.081352 0.143149 
84.111931 0.009252 
84.886803 0.008851 
85.028946 1.047851 
85.052711 0.039525 
85.076569 2.0064 
85.610268 0.007642 
86.060555 4.138303 
86.084328 0.104997 
87.044563 0.055195 
87.092171 0.290868 
88.03994 0.020467 
88.076172 1.080259 
89.34938 0.012676 
89.447891 0.009204 
90.05545 0.082429 
92.646675 0.009229 
93.962746 0.013076 
94.065544 4.564092 
94.957092 0.009171 
95.049248 0.00915 
95.068832 0.08865 
95.662483 0.016939 
96.044792 0.549847 
96.081161 0.876529 
96.148323 0.010845 
96.320976 0.008826 
96.32795 0.00867 
96.833527 0.008238 
97.028679 0.062036 
97.065231 0.007909 
97.077103 0.012715 
98.060448 30.270283 
98.08419 0.009589 
98.675514 0.007926 
99.044441 5.936987 
99.063934 1.25655 
99.068161 1.092208 
99.73967 0.006696 
100.039696 2.358227 
100.047775 0.132815 
100.07605 11.235967 
101.060081 0.422076 
101.079422 0.457697 
101.283829 0.00934 
101.484512 0.009082 
102.055283 2.176049 
103.087502 0.010825 
103.635429 0.014151 
105.625229 0.009752 
105.692909 0.011106 
105.806793 0.009192 
106.412369 0.009841 
107.866844 0.010623 
108.044533 0.016522 
109.028664 1.942808 
109.346642 0.010707 
110.060295 1.627903 
110.083977 0.057463 
111.044365 0.250529 
111.067909 0.021883 
111.091927 0.023806 
111.359734 0.013117 
112.039528 0.864389 
112.075905 6.645187 
112.099754 1.302229 
112.393166 0.01332 
113.079254 0.237324 
114.055168 2.87944 
114.059242 0.009898 
114.091553 0.765832 
115.058121 0.010345 
115.063072 0.045914 
115.804504 0.010119 
116.070786 22.808775 
116.386917 0.011767 
117.074165 0.93637 
117.219215 0.013013 
118.147301 0.007855 
119.87648 0.010202 
119.986168 0.012187 
120.081932 0.008542 
120.846565 0.011204 
122.060188 10.481281 
122.06514 0.107579 
122.900215 0.012487 
123.063492 0.641553 
123.067986 0.152124 
123.091721 0.36603 
124.075829 2.175791 
124.291634 0.012743 
125.07917 0.033701 
125.107376 0.682721 
126.05497 0.468557 
126.091393 0.297189 
126.538727 0.009966 
127.039032 1.234956 
127.086296 0.022791 
128.070679 1.372629 
128.094208 0.010728 
128.710419 0.008836 
129.054672 1.972813 
130.049805 0.021657 
130.086258 0.570688 
130.121033 0.009698 
131.318207 0.012332 
132.065567 0.462275 
132.101883 0.564949 
133.048752 0.008673 
135.09166 3.031501 
136.0755 0.056486 
136.094971 0.038228 
136.817017 0.012374 
137.968674 0.011755 
138.054901 1.847016 
138.078064 0.011521 
138.084213 0.011564 
138.091217 0.079526 
138.255859 0.013149 
139.062805 0.371181 
140.07048 22.464073 
140.405975 0.010582 
141.054367 0.031572 
141.067902 0.015245 
141.073517 1.331738 
141.206558 0.009485 
142.086227 3.289869 
143.089371 0.058809 
143.098343 0.011461 
143.606125 0.013724 
144.06546 0.033124 
145.049393 1.020337 
145.055634 0.010969 
146.709961 0.013752 
148.064697 0.009927 
150.05394 0.012953 
150.644485 0.019503 
151.086517 0.023346 
151.097733 0.014716 
151.798279 0.008118 
152.070496 0.216529 
153.053986 0.010931 
153.102142 5.551851 
153.108963 0.034557 
153.287094 0.014039 
153.605835 0.008221 
154.049805 0.019238 
154.086166 0.947738 
154.105499 0.292116 
154.134354 0.011535 
156.065399 2.216452 
156.101898 0.164065 
157.073502 0.028279 
157.169632 0.012979 
157.631866 0.012621 
158.0811 12.185791 
159.084457 0.672929 
159.790527 0.008566 
160.096802 0.634393 
162.053741 0.013196 
163.445053 0.014169 
164.901077 0.012389 
165.806351 0.008233 
166.049561 0.010549 
166.338196 0.008304 
166.888474 0.011441 
168.065338 0.107821 
168.10202 0.036043 
169.097076 0.152278 
170.081039 1.31428 
170.117355 0.024216 
171.065002 0.035764 
171.084351 0.01511 
171.112717 1.272367 
172.096695 1.233024 
172.116089 0.008106 
174.075958 0.214508 
174.277069 0.014499 
176.091568 0.573766 
176.989059 0.058577 
177.523682 0.01138 
178.086136 0.008297 
180.101776 0.295753 
182.044479 0.022462 
182.081116 1.323687 
183.08371 0.012602 
183.112518 0.134471 
183.586029 0.011701 
184.060318 0.210841 
184.096725 0.864356 
186.075897 0.070114 
186.099884 0.03097 
187.10759 2.79029 
188.111145 0.079266 
189.123215 22.455631 
190.126816 1.677387 
194.99971 0.069803 
196.060226 0.013324 
196.096786 0.664944 
197.351715 0.012966 
198.075943 0.220213 
198.112427 0.422033 
199.06015 0.056589 
199.107635 1.002018 
199.11824 0.085013 
200.091675 3.342123 
200.111832 0.006003 
200.127869 0.199004 
201.095139 0.174903 
201.123398 0.037192 
202.141449 0.014405 
204.047897 0.011221 
205.108658 0.009405 
205.118134 1.179661 
207.065033 0.011836 
207.133835 5.676796 
208.096802 0.039075 
208.136475 0.014057 
209.080994 0.013963 
211.83667 0.006937 
212.091583 0.220037 
212.15155 0.066319 
214.107269 0.706131 
214.227402 0.008023 
214.409515 0.010749 
214.919235 0.475354 
214.931488 0.364564 
214.939377 0.296753 
217.118149 1.217963 
217.873718 0.014322 
218.31662 0.013985 
219.133759 0.108451 
220.097397 0.022363 
222.800293 0.016383 
223.060455 0.01404 
224.091476 0.596096 
225.075592 0.027114 
226.107239 0.798843 
227.102371 0.424573 
227.138733 1.504059 
228.08638 2.62167 
229.090149 0.166358 
229.11792 0.055211 
230.102219 0.212291 
231.134064 0.022358 
233.113068 0.760368 
235.128708 0.41448 
238.107101 0.324754 
238.130768 0.09033 
239.187897 0.011225 
240.086334 0.203525 
240.123428 0.015826 
241.07077 0.009798 
242.102066 1.595607 
243.106262 0.006077 
243.133652 4.399474 
244.117584 1.004513 
244.137344 0.342837 
245.112717 1.628455 
245.15033 0.008463 
245.946838 0.009928 
246.119827 0.145735 
247.128647 0.995625 
248.422516 0.00843 
251.814163 0.008069 
253.070679 0.034128 
253.096115 0.014897 
253.154297 0.259051 
255.133545 0.008456 
256.117676 0.523379 
256.141571 0.030053 
258.097046 0.824821 
259.101593 0.012882 
260.112549 0.17998 
266.102173 0.76086 
269.149353 0.466321 
269.588287 0.010856 
271.129181 0.034175 
271.165009 0.933507 
273.107788 0.385768 
273.143982 0.030006 
274.112244 0.006589 
274.128357 0.181083 
275.124207 0.013202 
276.288147 0.011209 
279.44693 0.008364 
284.112549 4.593179 
285.116089 0.519144 
286.12854 0.251234 
287.160034 1.250103 
289.13916 1.156649 
289.175568 0.478748 
290.141266 0.036298 
291.118134 1.308312 
292.120575 0.03814 
297.144135 0.252237 
299.159821 0.335263 
302.123016 6.128396 
303.126251 0.870861 
304.108063 0.011213 
305.17041 3.937338 
306.174011 0.445062 
308.069855 0.014015 
312.892975 0.007418 
315.154816 3.483759 
316.158264 0.410483 
317.170502 1.308735 
320.071869 0.00802 
321.255554 0.012583 
332.854706 0.013366 
333.165192 100.0 
334.168671 15.688063 
334.500549 0.009582 
335.181488 14.099646 
353.129272 0.013936 
353.668274 0.011948 
END IONS

