BEGIN IONS
PEPMASS=1277.62
CHARGE=1+
COMPOUNDNAME=DACTINOMYCIN
LIBRARYQUALITY=3
SMILES=N/A
INCHIKEY=RJURFGZVJUQBHK-IIXSONLDSA-N
INCHI=InChI=1S/C62H86N12O16/c1-27(2)42-59(84)73-23-17-19-36(73)57(82)69(13)25-38(75)71(15)48(29(5)6)61(86)88-33(11)44(55(80)65-42)67-53(78)35-22-21-31(9)51-46(35)64-47-40(41(63)50(77)32(10)52(47)90-51)54(79)68-45-34(12)89-62(87)49(30(7)8)72(16)39(76)26-70(14)58(83)37-20-18-24-74(37)60(85)43(28(3)4)66-56(45)81/h21-22,27-30,33-34,36-37,42-45,48-49H,17-20,23-26,63H2,1-16H3,(H,65,80)(H,66,81)(H,67,78)(H,68,79)/t33-,34-,36+,37+,42-,43-,44+,45+,48+,49+/m1/s1
MSLEVEL=2
SOURCE_INSTRUMENT=N/A-ESI-QFT
FILENAME=library_mgf.mgf
SEQ=*..*
IONMODE=positive
ORGANISM=MONA
NAME=DACTINOMYCIN [M+Na]+
PI=MoNA
DATACOLLECTOR=MoNA:VF-NPL-QEHF002893
PUBMED=N/A
SUBMITUSER=mwang87
TAGS=
SPECTRUMID=CCMSLIB00004693956
SCANS=2893
88.571777 0.007091 
89.333809 0.019526 
89.419518 0.024393 
90.122894 0.003157 
90.178978 0.023925 
90.254974 0.021611 
90.96888 0.027621 
91.084908 0.028825 
92.527374 0.0039 
96.434113 0.025744 
98.771355 0.003356 
99.223045 0.00435 
99.522034 0.025966 
100.039536 0.634678 
100.578697 0.021342 
101.585442 0.00366 
101.765007 0.023188 
103.415756 0.028632 
106.790344 0.012948 
108.534576 0.003403 
109.049721 0.014171 
109.14679 0.02708 
110.276184 0.02672 
112.112106 0.012843 
112.259598 0.016661 
113.733849 0.025157 
114.091255 0.031593 
115.732635 0.025865 
116.072517 0.00325 
116.357147 0.0154 
116.548012 0.028896 
117.175964 0.002895 
118.200935 0.014278 
118.825073 0.024974 
120.603294 0.027157 
121.130821 0.017396 
121.984421 0.004173 
122.126762 0.002957 
123.324776 0.003785 
123.808395 0.011587 
124.112 0.572783 
125.115189 0.018579 
127.101883 0.003243 
128.817947 0.022169 
129.20993 0.02189 
131.035492 0.004232 
131.089188 0.003251 
132.101807 0.401276 
132.106552 0.004898 
132.65303 0.003105 
133.104828 0.011483 
134.943832 0.020555 
140.545975 0.003597 
141.248535 0.002761 
142.085938 0.058776 
142.466537 0.025552 
143.198608 0.017663 
145.235016 0.004273 
146.018799 0.014587 
148.28598 0.035259 
150.292221 0.00725 
152.07045 0.024637 
152.540817 0.003482 
153.10199 0.032627 
154.085922 0.032648 
156.343155 0.0134 
156.656097 0.02562 
157.133255 0.009979 
159.055008 0.02505 
161.95372 0.005153 
164.684799 0.002955 
166.199799 0.002866 
167.8293 0.026304 
168.43689 0.002885 
169.096832 0.301412 
169.133026 0.089325 
170.100006 0.014686 
170.136078 0.003418 
171.919266 0.026645 
173.243881 0.004429 
175.723343 0.015751 
176.010635 0.00278 
177.504654 0.006974 
177.997299 0.023543 
178.768768 0.025703 
180.1008 0.003997 
182.824692 0.003391 
183.407623 0.002697 
185.128082 0.112038 
187.107315 0.148349 
187.213287 0.026697 
187.673477 0.003139 
191.390167 0.017255 
193.503006 0.01613 
193.651581 0.003437 
196.445221 0.01152 
197.127884 0.119772 
198.131958 0.005016 
199.659668 0.007489 
203.138718 2.242724 
204.142059 0.242617 
205.144409 0.003496 
207.804352 0.027768 
208.604309 0.025179 
209.089249 0.720532 
213.032028 0.013949 
214.794876 0.029588 
214.885696 0.003369 
217.324509 0.002846 
220.763763 0.025752 
220.795074 0.01442 
222.123581 0.0289 
225.964172 0.014603 
228.784668 0.029804 
229.080399 0.003178 
235.807785 0.002857 
237.133377 0.026126 
238.537598 0.024158 
241.359131 0.006763 
249.001678 0.003054 
249.753799 0.009251 
254.656281 0.029594 
254.944992 0.003367 
258.239838 0.020936 
261.618896 0.021726 
262.056915 0.003203 
264.127777 0.003332 
268.165222 0.090942 
268.252716 0.004398 
275.803101 0.021275 
276.167938 0.058999 
282.18045 0.183812 
283.183655 0.029869 
283.721069 0.021783 
284.001221 0.015236 
286.857666 0.022649 
287.102478 0.005676 
289.20105 0.007704 
290.147308 0.009488 
298.137634 0.004086 
300.191132 1.25806 
300.266418 0.017993 
301.194672 0.253845 
302.149261 0.003215 
302.196899 0.024226 
304.09314 0.126623 
304.115387 0.064563 
304.161957 0.085852 
308.157593 3.489395 
309.160645 0.028724 
313.07962 0.004098 
313.493958 0.012109 
314.448517 0.003514 
315.210846 0.003775 
316.16272 0.023061 
318.141998 0.022575 
320.157257 1.646585 
320.339966 0.004083 
322.173126 0.286626 
325.176788 0.015945 
333.189209 0.028728 
333.287659 0.018567 
334.137238 3.901728 
334.172791 3.230581 
335.139709 0.139882 
335.175751 0.122314 
338.487183 0.028544 
345.647675 0.030146 
346.137329 0.016833 
347.204895 0.026899 
347.462189 0.003622 
354.109741 0.008852 
354.237762 0.01883 
355.24176 0.005082 
358.01236 0.0041 
359.832336 0.003645 
366.108582 0.004776 
371.375763 0.028225 
373.183411 0.158097 
374.557709 0.015752 
378.1073 0.035842 
378.527039 0.004222 
379.110687 0.018232 
384.145294 0.003806 
387.870789 0.024591 
390.198486 0.04316 
391.194244 23.626713 
392.197235 2.884498 
394.10199 0.050564 
395.104858 0.032612 
399.535522 0.033988 
400.608734 0.023063 
401.250305 0.02399 
403.230713 0.868702 
403.264954 0.054285 
404.227142 0.091526 
405.118439 0.004778 
411.224304 0.004525 
416.084198 0.920424 
417.086182 0.005239 
417.173767 3.067948 
418.175171 0.168461 
421.240692 1.127615 
428.943787 0.026715 
429.210571 0.032181 
429.245392 0.24232 
431.134186 0.040059 
431.342865 0.004242 
432.136444 0.013871 
433.147217 0.007669 
441.254333 0.015219 
443.167999 1.920967 
444.041443 0.008001 
444.172729 0.070917 
445.113983 0.006675 
447.22168 0.418763 
447.256592 0.795334 
449.146637 0.009309 
450.150024 0.004964 
450.189178 0.003592 
453.178284 0.138669 
453.87439 0.029157 
455.129578 0.003738 
459.129059 0.662719 
460.133026 0.440125 
460.288635 0.27246 
461.137024 0.220527 
462.140778 0.035565 
463.171631 0.003894 
471.161438 0.206981 
476.87558 0.00497 
477.133636 0.007804 
479.125366 0.034617 
479.160126 0.017605 
480.128174 0.003774 
486.268097 0.284906 
487.157623 1.389177 
488.162476 0.035503 
489.175171 0.005798 
490.175049 0.035575 
498.005524 0.005406 
498.173676 0.086241 
499.180542 0.016318 
499.589478 0.01779 
502.587952 0.024202 
504.278503 9.0328 
504.588043 0.004487 
505.281158 1.534115 
505.358063 0.021975 
512.19043 0.226702 
515.152649 0.663776 
516.153625 0.004582 
524.187195 0.047299 
525.204346 0.124149 
526.164856 0.072504 
526.205444 4.516536 
527.210388 1.827279 
528.216797 0.037089 
530.205933 0.203735 
530.257385 1.325944 
531.206299 0.067712 
531.259399 0.081996 
532.110291 0.028292 
532.210327 0.022976 
533.216064 0.007614 
534.424316 0.00491 
538.883545 0.004242 
539.953369 0.004765 
540.22168 0.078779 
542.199036 0.100183 
544.495728 0.027365 
546.198364 0.003829 
552.18512 1.456876 
553.188049 0.098158 
553.682251 0.024796 
554.198853 0.061084 
559.20166 0.016765 
560.206604 0.015121 
561.210449 0.003958 
562.193726 0.006629 
568.216675 0.491022 
572.122559 0.005127 
572.210449 0.293235 
578.401978 0.028265 
584.120911 0.010039 
584.210388 0.385648 
585.216064 0.017997 
586.226501 3.860625 
587.228821 0.803883 
594.250122 0.026344 
596.240723 0.093062 
598.223633 0.010642 
599.258423 0.89391 
600.710876 0.020619 
603.472229 0.003919 
604.005737 0.003704 
607.799561 0.003439 
611.258362 1.889139 
612.20636 1.833852 
612.258728 0.352026 
613.209534 0.162618 
613.276123 0.028088 
623.258057 2.403541 
624.261536 0.485085 
625.237854 1.288881 
626.239807 0.04952 
627.242004 0.003691 
630.21582 0.437498 
633.240356 0.003701 
635.424255 0.003471 
639.253235 9.646782 
640.256348 2.41265 
641.229126 0.279825 
643.248108 0.509982 
644.247498 0.010681 
648.012878 0.013903 
649.848999 0.02845 
651.254089 1.036274 
652.241821 0.123683 
653.255432 0.035687 
655.24762 1.406779 
656.251648 0.089731 
657.263611 12.366576 
658.266663 3.120702 
662.200378 0.030346 
665.231384 1.042905 
666.235229 0.076033 
667.248596 1.545005 
668.25293 0.326242 
669.264343 10.363968 
669.728149 0.031151 
670.267273 2.543938 
678.257996 0.031281 
681.298584 0.596396 
682.256287 0.381373 
683.242981 16.970596 
684.245544 4.258886 
685.256775 1.236708 
686.265381 0.003511 
693.302673 0.031385 
694.437988 0.022838 
695.243103 6.348495 
695.302124 0.312652 
696.276001 2.786651 
697.269226 0.912356 
698.266602 0.003278 
700.268433 0.189171 
701.253479 1.754495 
702.257446 0.201755 
706.206177 0.003824 
708.347717 0.802258 
709.270935 0.004244 
709.549255 0.042579 
709.733032 0.018175 
709.755188 0.019833 
709.783875 0.030515 
709.830811 0.048307 
709.897217 0.035252 
709.998657 0.006893 
710.059387 0.043726 
710.101074 0.112722 
710.159302 0.073694 
712.27063 1.660388 
713.271118 0.217889 
721.296997 0.00442 
722.290649 1.700752 
723.279358 1.096053 
724.342834 2.635159 
725.345032 0.572146 
732.312378 0.034109 
734.327942 2.443786 
735.326294 0.706843 
736.263977 0.031366 
738.285156 2.811967 
739.290283 2.053396 
740.303467 13.650728 
741.306946 3.813957 
742.299561 0.005368 
747.308472 0.004934 
748.266968 0.019923 
750.320496 0.340423 
752.336914 13.547798 
753.339294 4.303719 
754.338318 0.131579 
756.296082 0.13366 
765.294617 0.554587 
766.276367 33.195267 
767.279114 9.670472 
768.333435 1.520991 
769.335938 0.345878 
770.347534 2.085239 
771.35083 0.252133 
778.317444 1.750143 
779.314453 0.762423 
783.305481 0.004342 
784.289307 0.083627 
793.344238 0.343067 
794.309692 1.601294 
795.324524 0.365435 
796.32666 24.068762 
797.329468 7.84426 
798.333618 0.443882 
808.385315 0.230875 
809.353027 0.125306 
810.342773 0.338095 
812.322266 0.58297 
813.325867 0.01931 
814.337341 0.783045 
815.341858 0.013059 
819.340332 0.151972 
820.328918 0.405209 
821.150513 0.020839 
821.347656 1.234466 
821.847717 0.003666 
822.353577 0.11594 
825.353882 0.079855 
832.399292 0.004094 
835.37262 0.908601 
836.367004 0.234581 
837.353638 29.026575 
838.35675 10.034659 
839.360535 1.140329 
847.375183 0.050731 
848.32019 0.030015 
850.383057 0.174431 
851.371582 0.548523 
852.37616 0.377366 
853.385681 1.845565 
854.386169 0.35767 
855.366394 0.039515 
863.369324 0.069607 
865.348206 6.900012 
866.350586 2.419277 
867.352417 0.067162 
870.686951 0.004211 
878.375366 0.072743 
879.364136 10.206021 
880.367859 3.521752 
881.373047 0.023483 
883.359314 4.678602 
884.362427 1.527511 
891.363159 0.141765 
892.364624 0.051089 
903.928467 0.027963 
906.447571 0.241444 
909.373901 8.323491 
910.376221 2.998233 
911.382385 0.006764 
918.410034 1.407561 
919.4104 0.278452 
922.411133 0.055171 
932.422791 0.045484 
933.420715 0.018555 
934.406738 1.847522 
935.410461 0.457063 
936.393494 2.375608 
937.403015 0.546681 
941.703857 0.004679 
946.405029 0.004264 
950.437866 7.20418 
951.441833 2.723497 
952.44696 0.220959 
962.399109 2.77455 
963.394348 1.828744 
964.401855 0.364772 
968.449341 0.005353 
970.131226 0.004989 
978.431824 1.840196 
979.434265 0.712011 
980.410461 61.696136 
981.413879 24.883451 
982.41803 2.88926 
989.443542 0.01514 
993.443237 1.48409 
994.44751 0.322786 
996.441162 1.192916 
997.44165 0.157825 
1005.445557 0.160947 
1006.456482 0.004461 
1007.42804 3.847044 
1008.432373 1.630382 
1031.495117 0.098795 
1032.504395 0.005581 
1033.151978 0.022654 
1033.436523 2.285215 
1034.431152 1.836269 
1035.437622 0.455351 
1036.454224 0.045236 
1045.746704 0.003618 
1047.484131 0.079929 
1049.497803 1.36288 
1050.504761 0.241844 
1051.447388 100.0 
1052.451294 44.082615 
1053.455078 5.318043 
1064.480957 3.097679 
1065.48584 1.749479 
1066.499756 0.006623 
1075.485596 1.519329 
1076.48645 0.610833 
1077.506714 0.00453 
1093.495117 10.052992 
1094.497803 4.742605 
1095.500854 0.340549 
1118.545654 0.022531 
1120.53064 2.083085 
1121.531616 0.964799 
1135.246948 0.019803 
1136.536011 1.963485 
1137.539307 0.896378 
1146.52002 1.735253 
1147.519897 0.865796 
1148.513062 0.060256 
1164.530884 28.696012 
1165.53418 14.409861 
1166.536011 1.991066 
1177.561157 0.155335 
1211.033447 0.016216 
1249.619019 0.26424 
1250.623657 0.044717 
1261.553345 0.018776 
1277.617188 1.992128 
1278.619873 1.229322 
1289.012451 0.004684 
END IONS

