BEGIN IONS
PEPMASS=268.0
CHARGE=1+
COMPOUNDNAME=MoNA:2450946 9-beta-D-Ribofuranosyladenine
LIBRARYQUALITY=3
SMILES=N/A
INCHIKEY=OIRDTQYFTABQOQ-KQYNXXCUSA-N
INCHI=InChI=1S/C10H13N5O4/c11-8-5-9(13-2-12-8)15(3-14-5)10-7(18)6(17)4(1-16)19-10/h2-4,6-7,10,16-18H,1H2,(H2,11,12,13)/t4-,6-,7-,10-/m1/s1
MSLEVEL=2
SOURCE_INSTRUMENT=LC-ESI-IT-LC-ESI-IT
FILENAME=output_mgf.mgf
SEQ=*..*
IONMODE=
ORGANISM=MONA
NAME=MoNA:2450946 9-beta-D-Ribofuranosyladenine [M+H]+
PI=MoNA
DATACOLLECTOR=MoNA
PUBMED=N/A
SUBMITUSER=mwang87
TAGS=
SPECTRUMID=CCMSLIB00000567253
SCANS=4504
119.1 48.764867 
136.0 100.0 
137.0 60.201281 
137.9 7.502287 
181.1 58.73742 
END IONS

