BEGIN IONS
PEPMASS=388.178
CHARGE=1+
COMPOUNDNAME=Roquefortine C
LIBRARYQUALITY=3
SMILES=N/A
INCHIKEY=SPWSUFUPTSJWNG-LIMLNZRCSA-N
INCHI=InChI=1S/C22H23N5O2/c1-4-21(2,3)22-10-17-18(28)25-16(9-13-11-23-12-24-13)19(29)27(17)20(22)26-15-8-6-5-7-14(15)22/h4-9,11-12,17,20,26H,1,10H2,2-3H3,(H,23,24)(H,25,28)/b16-9-/t17-,20-,22+/m0/s1
MSLEVEL=2
SOURCE_INSTRUMENT=N/A-ESI-QFT
FILENAME=library_mgf.mgf
SEQ=*..*
IONMODE=negative
ORGANISM=MONA
NAME=Roquefortine C [M-H]-
PI=MoNA
DATACOLLECTOR=MoNA:VF-NPL-QEHF016403
PUBMED=N/A
SUBMITUSER=mwang87
TAGS=
SPECTRUMID=CCMSLIB00004707466
SCANS=16403
50.215511 0.01356 
50.281475 0.020036 
51.952927 0.014875 
52.455463 0.01427 
52.688801 0.018917 
53.342808 0.021545 
53.374905 0.020329 
53.755657 0.020079 
54.201153 0.021169 
54.248615 0.024641 
55.174809 0.013456 
55.30357 0.018697 
56.259651 0.017962 
56.472363 0.013656 
56.831497 0.02019 
57.784115 0.017714 
58.906963 0.014353 
59.01244 0.165128 
59.188629 0.025218 
59.348412 0.02151 
59.790764 0.013064 
59.941177 0.021717 
59.966122 0.024744 
60.414413 0.024576 
60.654697 0.025117 
61.487103 0.023133 
61.905514 0.019899 
62.117367 0.01421 
62.605907 0.021156 
63.44791 0.024137 
65.299835 0.011425 
65.306107 0.02197 
65.506866 0.019766 
65.5886 0.025257 
65.733978 0.016496 
66.241081 0.015728 
66.436256 0.014087 
66.725937 0.012506 
66.997215 0.028103 
67.028732 0.249626 
68.080177 0.020958 
68.096367 0.019685 
68.189323 0.023496 
68.246758 0.020937 
68.47464 0.022172 
68.881607 0.020323 
69.267639 0.024515 
69.338524 0.014879 
69.975174 0.024897 
70.570099 0.017434 
70.63443 0.021946 
70.653549 0.015025 
71.007217 0.013944 
72.309525 0.018588 
72.390366 0.020337 
72.470192 0.012546 
72.678749 0.014818 
73.333687 0.020404 
74.556061 0.022204 
75.38134 0.018048 
76.115036 0.023812 
76.753014 0.025799 
76.939011 0.019967 
77.773041 0.017425 
77.784348 0.024412 
78.353264 0.020754 
78.411781 0.020442 
78.984566 0.016535 
79.776817 0.014643 
80.036446 0.019763 
80.269951 0.013773 
80.281708 0.014733 
80.922249 0.019192 
80.963707 0.045711 
83.266769 0.020717 
83.459427 0.021614 
83.788155 0.015539 
84.09166 0.017149 
84.224518 0.019728 
84.886688 0.013378 
85.151451 0.013347 
85.525711 0.017719 
86.468819 0.021315 
86.52623 0.021998 
86.68766 0.017743 
86.741371 0.014632 
87.034698 0.024425 
87.609596 0.011482 
88.02858 0.012559 
88.667679 0.027566 
88.991905 0.013841 
89.362183 0.022146 
90.310417 0.024526 
91.028748 0.031204 
91.331627 0.02033 
91.427391 0.013452 
92.024033 0.017318 
93.578362 0.026138 
94.979378 0.085189 
95.023666 0.433627 
95.265862 0.015174 
95.351425 0.020543 
96.195282 0.020345 
96.634979 0.014252 
97.00296 1.366006 
97.529121 0.012069 
97.736221 0.011206 
98.018341 0.02417 
98.495934 0.017964 
98.572769 0.017045 
98.849586 0.020289 
99.727463 0.01958 
100.69046 0.017362 
102.039848 0.011708 
105.031937 1.766063 
106.03968 0.862 
107.047531 1.893129 
107.333519 0.015574 
107.337204 0.014455 
108.031631 0.050908 
108.055275 0.121706 
108.466011 0.020419 
109.469917 0.019949 
110.01075 0.112478 
110.185463 0.014308 
111.018623 1.480075 
114.44175 0.023293 
114.635155 0.018599 
115.15966 0.021738 
116.680458 0.015726 
118.039696 0.827874 
118.846397 0.018715 
119.023468 0.018838 
119.047234 0.026394 
120.031555 1.057006 
120.05545 0.09698 
122.587662 0.016164 
123.013885 0.038611 
123.018669 7.040013 
123.851624 0.015226 
123.891525 0.011839 
124.022125 0.054551 
124.279076 0.019558 
124.512093 0.014037 
127.493858 0.016524 
129.363464 0.025084 
132.929123 0.015996 
133.026871 0.249085 
133.546768 0.025844 
134.034637 2.525232 
135.042831 0.123546 
136.045792 0.026986 
136.670731 0.013919 
137.854614 0.019349 
140.322891 0.023428 
145.552856 0.017675 
145.574768 0.013918 
146.034729 0.097149 
147.042633 1.577135 
147.091461 0.014157 
149.022125 0.021658 
149.06813 0.020552 
150.053497 0.762188 
150.964111 0.020883 
151.438065 0.02007 
152.138992 0.013996 
152.342667 0.018221 
156.068237 0.875745 
156.654953 0.021 
156.818024 0.018365 
157.451599 0.012431 
157.621414 0.014443 
159.88295 0.014838 
161.045807 0.762153 
162.029617 0.05056 
162.053741 0.038026 
163.037231 0.051854 
173.959137 0.018864 
174.029907 1.103687 
174.521118 0.017372 
175.06163 0.083146 
175.094299 0.023993 
175.20697 0.025886 
176.033005 1.868727 
177.040894 3.853338 
177.140762 0.022445 
178.043945 0.103021 
178.609756 0.016112 
181.304733 0.015925 
183.055527 0.242762 
184.112213 0.182187 
186.72789 0.024438 
189.040909 19.561949 
189.999939 0.032127 
190.048706 100.0 
190.098007 0.142553 
191.052673 7.42593 
196.21582 0.019949 
199.856033 0.025724 
200.201065 0.015231 
201.080734 0.016731 
201.137711 0.022819 
202.123077 0.018976 
203.056656 3.022779 
204.060547 0.068059 
204.5867 0.02099 
205.036102 0.195763 
206.104401 0.015099 
206.503403 0.015609 
208.138245 0.026832 
210.459137 0.021187 
213.779465 0.026255 
213.790985 0.024081 
214.033859 0.68375 
214.045197 0.485079 
218.934021 0.020117 
220.373352 0.022199 
222.17868 0.021011 
228.70752 0.014743 
231.030701 0.020302 
234.562393 0.016454 
238.123077 0.022939 
238.75322 0.024242 
244.706482 0.022527 
245.06723 0.013875 
247.098373 0.074927 
253.857803 0.016135 
256.020599 0.020162 
256.104248 0.023642 
258.363068 0.013022 
260.185425 0.016824 
262.178467 0.027303 
266.078491 0.016833 
267.554901 0.015223 
267.900238 0.016656 
271.627716 0.016129 
272.13559 0.025965 
275.093201 0.074887 
277.145355 0.013471 
279.764862 0.01706 
279.847229 0.014671 
289.302246 0.02562 
295.61142 0.012981 
296.703308 0.02441 
310.172546 0.026331 
312.431885 0.012224 
318.099213 4.391462 
319.10318 0.706351 
322.12912 0.023579 
322.419006 0.019634 
330.176147 0.028312 
331.428009 0.022203 
331.497833 0.023574 
335.863556 0.028395 
340.464142 0.02461 
343.788086 0.016873 
344.221222 0.022922 
346.143127 0.011742 
351.763397 0.015904 
383.924316 0.022536 
388.177582 2.688243 
389.181 0.390334 
393.360077 0.016102 
412.55069 0.014809 
413.533051 0.02279 
END IONS

