BEGIN IONS
TITLE=Scan Number: 2562
PEPMASS=561.36102
CHARGE=1+
COMPOUNDNAME=Deferoxamine
LIBRARYQUALITY=3
SMILES=CC(=O)N(CCCCCNC(=O)CCC(=O)N(CCCCCNC(=O)CCC(=O)N(CCCCCN)O)O)O
INCHIKEY=UBQYURCVBFRUQT-UHFFFAOYSA-N
INCHI=
MSLEVEL=2
SOURCE_INSTRUMENT=LC-ESI-Orbitrap
FILENAME=f.ktahlan/KT-1/MUN/Methanol/SC/1_180806215001 SC on SA meth-pos.mzXML;
SEQ=*..*
NOTES=
IONMODE=Positive
ORGANISM=GNPS-LIBRARY
NAME=Deferoxamine M+H
SPECTRUMID=CCMSLIB00005435927
ACTIVATION=CID
INSTRUMENT=ion trap
SCANS=2562
70.065514 115002.335938 
71.069107 6033.488281 
72.04464 21231.292969 
72.081116 34142.496094 
76.039536 47672.667969 
80.049606 6307.463867 
82.065056 27965.248047 
84.044525 72183.742188 
84.080948 1230463.375 
85.084167 6465.807617 
85.08873 80469.757812 
86.096573 138247.3125 
88.039383 100616.921875 
94.576698 3453.769775 
98.096336 5245.30957 
100.039337 582832.25 
101.107307 14804.913086 
102.091393 1398527.875 
110.059952 8515.612305 
110.07135 16003.636719 
110.09626 19833.683594 
111.09166 3579.104492 
112.039345 119283.382812 
112.112297 5019.177734 
115.086411 6371.338379 
117.193886 3697.259033 
119.117943 82192.78125 
120.080872 55433.625 
122.096321 76629.90625 
124.076004 8482.392578 
125.094299 5134.603516 
126.090759 3563.474609 
129.101944 42538.644531 
130.049957 24384.070312 
130.065308 18358.541016 
130.086639 16542.001953 
131.117264 4182.367676 
132.080856 16335.477539 
132.102478 4694.408691 
136.075989 18858.621094 
137.107361 147185.15625 
138.091324 187519.96875 
140.07045 47451.8125 
141.102585 4489.62793 
142.086899 7369.237305 
143.045334 5642.811035 
143.117691 4239.228027 
144.10202 670825.875 
147.113251 8881.749023 
148.075668 16918.984375 
154.086395 267555.59375 
155.081284 4006.318604 
155.118286 7629.852051 
156.101883 5906.124023 
159.091629 37488.011719 
165.102386 366530.15625 
166.086288 58856.179688 
168.10199 69267.414062 
173.054977 3912.421387 
173.128845 15317.836914 
183.112885 140487.03125 
184.096558 37795.3125 
185.128937 6955.709473 
187.086807 4778.650391 
187.107285 4706.836914 
201.123383 2508339.25 
202.12558 5221.79834 
215.138794 4869.02832 
219.134369 6806.130859 
243.134048 1291609.75 
274.119049 9362.640625 
283.128784 35577.65625 
288.17157 4811.07666 
299.562317 4342.192871 
299.707245 4987.194824 
301.139832 4778.02002 
302.114105 14118.470703 
319.233978 518419.90625 
333.193817 18023.912109 
339.474213 4179.987305 
361.244171 70329.328125 
383.22876 5054.588867 
395.836334 4269.641602 
401.239868 104560.71875 
402.002502 4450.027832 
443.188446 5336.20752 
443.25 145064.125 
530.416626 4417.438965 
561.361755 1388980.5 
562.364685 15892.009766 
END IONS

