BEGIN IONS
PEPMASS=359.089
CHARGE=1+
COMPOUNDNAME=MYCOPHENOLIC ACID
LIBRARYQUALITY=3
SMILES=N/A
INCHIKEY=HPNSFSBZBAHARI-RUDMXATFSA-N
INCHI=InChI=1S/C17H20O6/c1-9(5-7-13(18)19)4-6-11-15(20)14-12(8-23-17(14)21)10(2)16(11)22-3/h4,20H,5-8H2,1-3H3,(H,18,19)/b9-4+
MSLEVEL=2
SOURCE_INSTRUMENT=N/A-ESI-QFT
FILENAME=library_mgf.mgf
SEQ=*..*
IONMODE=positive
ORGANISM=MONA
NAME=MYCOPHENOLIC ACID [M+K]+
PI=MoNA
DATACOLLECTOR=MoNA:VF-NPL-QEHF011300
PUBMED=N/A
SUBMITUSER=mwang87
TAGS=
SPECTRUMID=CCMSLIB00004702363
SCANS=11300
50.017609 0.212361 
51.022274 0.667187 
51.458244 2.119734 
51.49226 0.254826 
51.619663 0.294825 
53.155209 0.727955 
53.368423 2.102537 
53.419773 2.052777 
53.542206 1.411425 
53.729069 0.277659 
53.848316 0.681971 
53.967743 1.784076 
54.739048 0.288732 
55.055042 0.290695 
56.965595 1.263209 
57.070625 3.061704 
57.34296 0.327783 
57.567093 1.984374 
57.982895 0.242985 
58.065815 1.794847 
58.306553 1.171703 
59.041206 1.995635 
59.068439 1.813652 
61.13385 0.238727 
61.766739 1.484509 
61.899403 0.250661 
62.281319 0.821682 
62.580318 2.118707 
63.70969 1.587899 
64.165688 0.369437 
64.661011 0.245006 
64.79837 1.665632 
64.966568 0.637809 
65.933319 0.34039 
66.284157 1.520378 
67.054825 0.437461 
67.528549 1.967239 
67.861633 1.240075 
67.914276 1.168182 
68.307106 0.269457 
68.594833 1.938171 
69.146461 1.606345 
69.2826 1.431171 
69.306496 0.255769 
69.404388 0.702146 
69.714699 0.662858 
70.065735 4.158838 
70.378571 1.920204 
70.771103 0.265096 
71.086235 0.878876 
71.275902 0.642685 
71.783524 0.86581 
72.59864 0.934424 
73.04744 0.845336 
73.517586 0.32923 
73.987244 0.277518 
74.982323 1.074969 
75.210831 0.303618 
75.550598 0.581012 
76.964264 0.295276 
77.427429 0.930123 
78.987274 0.60471 
79.021866 1.062454 
79.24498 0.935738 
79.837685 0.85266 
80.072098 1.005205 
80.364258 1.250161 
81.176079 0.238574 
82.146843 2.213198 
83.346939 0.93932 
84.55162 1.135854 
85.167053 1.1283 
85.613884 0.243563 
86.096901 1.022007 
87.044571 2.714286 
87.409637 2.14323 
88.076187 12.55212 
88.799011 1.710429 
88.969048 1.208359 
89.060104 1.498462 
89.248222 1.336378 
89.808083 0.803828 
90.948357 2.335988 
91.036964 1.241988 
91.054726 6.488963 
91.057793 0.93986 
91.741478 2.066794 
92.238403 0.316015 
95.085876 0.451073 
95.395622 2.001115 
96.348679 0.990164 
97.121002 1.191297 
98.651085 0.600092 
100.013596 0.317345 
100.740219 0.657211 
101.23159 0.2639 
102.091644 1.252568 
102.857643 0.682203 
103.191231 2.324474 
104.643402 0.604196 
105.21817 0.945986 
105.514961 2.134748 
106.086487 5.234171 
106.676071 1.672837 
108.317368 0.908827 
108.408852 0.94083 
109.879402 0.671532 
110.405106 0.265825 
111.539207 1.709112 
111.721611 0.359071 
112.561852 0.644461 
112.791565 1.03001 
113.674866 1.440297 
114.327843 0.298445 
114.422379 2.239621 
116.986092 0.30925 
118.053146 0.65813 
119.085487 1.025288 
119.872192 0.235984 
125.394432 0.731529 
126.085846 0.979539 
128.178055 1.453028 
129.313812 1.876486 
129.328903 0.743402 
130.502853 0.928353 
132.101913 1.228178 
132.369736 0.999936 
133.301743 0.565816 
133.620377 2.081074 
136.001144 0.581835 
136.158798 0.271186 
137.550293 0.622258 
140.468201 1.129096 
142.5112 0.934475 
143.560867 1.359822 
144.8452 1.984187 
145.266495 2.301058 
146.052567 1.614643 
146.531174 1.136902 
149.911835 0.602369 
151.785553 1.350867 
154.914673 1.458354 
155.803055 0.729792 
156.213989 1.885238 
157.328995 0.80857 
162.045197 0.355562 
162.098633 0.660865 
162.154022 1.902462 
162.890228 1.94146 
163.233871 0.895797 
168.679504 2.064752 
169.612579 0.321757 
171.032913 0.925418 
173.601578 1.255303 
173.75415 1.707439 
176.053818 0.284434 
177.054657 0.333115 
178.893219 0.250899 
180.887894 0.78758 
182.961014 0.899005 
183.564178 1.236752 
183.759735 0.900992 
184.285004 1.64444 
185.529785 0.255807 
186.401306 1.754857 
187.87561 0.903849 
189.043427 16.86108 
191.599442 1.37124 
192.344025 1.307435 
192.49826 2.705057 
192.539413 0.284438 
194.91452 0.223583 
195.065201 0.335133 
201.918488 2.584232 
203.106277 0.725707 
204.241348 0.297915 
204.888184 0.416081 
207.032654 1.15161 
207.053848 6.905274 
207.065353 8.603704 
214.460495 0.337321 
214.47522 28.838324 
214.482651 100.0 
218.208923 1.74779 
220.484894 2.165579 
220.90274 0.424152 
222.353073 2.202824 
222.89856 11.324195 
228.477753 0.304584 
229.046402 1.510545 
231.026505 5.879749 
231.47258 1.061203 
232.033234 0.390188 
233.012909 0.270627 
233.120911 0.356184 
233.991776 1.57813 
238.575348 1.89394 
238.913528 2.006818 
239.717712 1.037419 
239.827515 0.553468 
240.909042 27.638144 
242.101166 0.625682 
246.005066 0.26189 
247.096207 2.972858 
250.851974 0.669136 
251.02272 9.067657 
251.701736 1.795618 
255.321777 1.097681 
256.856415 2.452113 
260.178528 0.335317 
263.994263 0.374222 
267.017273 4.767337 
268.026978 0.273292 
268.297882 0.243973 
268.86731 0.255207 
268.896057 2.081668 
269.032867 41.193184 
270.035522 0.659372 
274.074402 2.28713 
275.01886 1.030051 
281.032898 13.087341 
282.005402 0.331175 
283.048462 11.381613 
285.028046 1.696804 
285.072968 5.553158 
285.111603 2.451015 
286.031891 1.958015 
287.043365 6.572154 
295.048828 4.286217 
297.757782 2.112708 
299.043152 3.481511 
301.05896 1.101725 
302.638367 0.708682 
308.028046 1.49423 
310.159882 1.238385 
310.842377 0.882066 
311.831451 0.673641 
312.838196 10.964987 
313.058594 0.418385 
317.035126 0.69651 
317.840851 9.451663 
319.835663 42.840782 
322.607208 2.466506 
325.830353 1.01365 
326.389374 2.373534 
327.825775 7.303094 
328.833008 0.86488 
330.846924 0.318985 
333.100586 2.596307 
335.850983 3.133702 
336.838318 7.115613 
337.24411 0.338162 
337.846283 25.266346 
338.260834 1.552336 
340.356598 3.850019 
343.102295 0.302551 
344.828247 6.266556 
344.975677 1.533951 
347.537292 0.332868 
348.156464 1.468099 
350.891205 3.004706 
351.110931 26.805733 
351.394287 0.685217 
351.826447 0.991704 
352.115265 0.322043 
354.84845 0.373086 
355.936005 1.477037 
357.260681 8.25622 
358.26532 0.747997 
358.367523 23.050251 
358.926941 0.401949 
359.080597 1.946541 
359.109741 3.152235 
359.371124 2.176307 
360.361786 1.829383 
360.838013 0.859328 
367.668976 2.574607 
367.840668 2.957905 
369.121429 4.600651 
369.835907 20.882732 
377.089386 1.026334 
END IONS

