BEGIN IONS
PEPMASS=895.481
CHARGE=1+
COMPOUNDNAME=Pesticide4_Avermectin B1b_C48H72O14_(1'R,2S,4'S,5S,6R,8'R,10'E,12'S,13'S,14'E,16'E,20'R,21'R,24'S)-6-[(2S)-2-Butanyl]-21',24'-dihydroxy-5,11',13',22'-tetramethyl-2'-oxo-5,6-dihydrospiro[pyran-2,6'-[3,7,19]trioxatetracyclo[15.6.1.1~4,8~.0~20,24~]pentacosa[10,14,16,22]tetraen]-12'-yl 2,6-dideoxy-4-O-(2,6-dideoxy-3-O-methyl-alpha-L-arabino-hexopyranosyl)-3-O-methyl-alpha-L-arabino-hexopyranoside
LIBRARYQUALITY=1
SMILES=CCC(C)C1C(C=CC2(O1)CC3CC(O2)CC=C(C(C(C=CC=C4COC5C4(C(C=C(C5O)C)C(=O)O3)O)C)OC6CC(C(C(O6)C)OC7CC(C(C(O7)C)O)OC)OC)C)C
INCHIKEY=RRZXIRBKKLTSOM-XPNPUAGNSA-N
INCHI=InChI=1S/C48H72O14/c1-11-25(2)43-28(5)17-18-47(62-43)23-34-20-33(61-47)16-15-27(4)42(26(3)13-12-14-32-24-55-45-40(49)29(6)19-35(46(51)58-34)48(32,45)52)59-39-22-37(54-10)44(31(8)57-39)60-38-21-36(53-9)41(50)30(7)56-38/h12-15,17-19,25-26,28,30-31,33-45,49-50,52H,11,16,20-24H2,1-10H3/b13-12+,27-15+,32-14+/t25-,26-,28-,30-,31-,33+,34-,35-,36-,37-,38-,39-,40+,41-,42-,43+,44-,45+,47+,48+/m0/s1
MSLEVEL=2
SOURCE_INSTRUMENT=-Q-Exactive Plus Orbitrap Res 70k
FILENAME=Pesticide_Mix4_pos.mzXML
SEQ=*..*
IONMODE=positive
ORGANISM=GNPS-COLLECTIONS-PESTICIDES-POSITIVE
NAME=Pesticide4_Avermectin B1b_C48H72O14_(1'R,2S,4'S,5S,6R,8'R,10'E,12'S,13'S,14'E,16'E,20'R,21'R,24'S)-6-[(2S)-2-Butanyl]-21',24'-dihydroxy-5,11',13',22'-tetramethyl-2'-oxo-5,6-dihydrospiro[pyran-2,6'-[3,7,19]trioxatetracyclo[15.6.1.1~4,8~.0~20,24~]pentacosa[10,14,16,22]tetraen]-12'-yl 2,6-dideoxy-4-O-(2,6-dideoxy-3-O-methyl-alpha-L-arabino-hexopyranosyl)-3-O-methyl-alpha-L-arabino-hexopyranoside M+Na
PI=Dorrestein/Touboul
DATACOLLECTOR=lfnothias
PUBMED=n/a
SUBMITUSER=mwang87
TAGS=
SPECTRUMID=CCMSLIB00001058624
SCANS=2988
71.049561 6098.40625 
73.065193 66624.242188 
73.834366 6792.293457 
79.054619 51192.84375 
81.070221 138642.453125 
83.085861 6299.982422 
85.064957 11076.803711 
85.878174 6183.963379 
91.054512 7188.998047 
93.070107 107022.609375 
95.010635 13678.606445 
95.049294 115538.445312 
95.085785 37723.816406 
97.064911 11139.779297 
105.070351 14345.680664 
107.085861 44681.003906 
109.026237 46302.773438 
109.062691 65344.332031 
109.06485 13952.28125 
109.101532 93236.890625 
110.070564 15576.258789 
113.059914 98868.226562 
119.085938 13069.521484 
121.064949 8811.387695 
121.101616 53562.683594 
123.080757 16029.553711 
123.117012 324455.5 
125.021332 10948.479492 
127.075676 14961.583984 
132.054993 8857.883789 
133.101501 30240.111328 
135.041855 83515.070312 
137.057693 11226.975586 
138.759338 6590.69873 
139.07341 337079.40625 
145.086548 31112.333984 
149.057663 15401.711914 
149.21962 7280.469727 
151.036774 40821.144531 
151.073303 140430.796875 
151.112045 110638.671875 
153.052429 289443.75 
154.060455 9850.015625 
157.802094 7751.544922 
167.068451 151280.765625 
169.047623 9397.666992 
169.122696 11955.380859 
173.057907 15558.370117 
183.063477 430637.90625 
185.078644 56571.28125 
186.981842 7371.669434 
191.104919 195301.046875 
193.159348 13012.194336 
211.073547 27056.9375 
225.110687 44647.113281 
225.447433 7034.625977 
237.144073 7025.154785 
239.089706 7880.300293 
240.112442 244740.0 
241.120605 61114.042969 
251.125778 41909.914062 
253.141266 11552.113281 
257.115662 14732.349609 
268.100098 6895.765625 
270.237396 6799.927246 
271.130829 15065.135742 
279.999237 6621.25293 
281.135925 9043.327148 
285.110016 10150.765625 
287.125244 16866.589844 
288.220947 7895.342285 
301.10376 12223.847656 
303.120972 32562.080078 
305.172455 175969.890625 
309.14624 8093.868652 
309.182312 41666.160156 
311.146027 123058.6875 
319.152161 7346.702148 
327.142242 10924.600586 
327.194061 250620.1875 
329.15799 36951.296875 
335.162476 14588.154297 
353.174225 30501.488281 
353.544403 7680.29541 
377.20993 50120.207031 
384.667664 7021.989258 
385.199554 15731.389648 
390.554108 6695.623535 
395.205658 11723.024414 
404.659241 8170.760254 
415.209473 9861.626953 
439.210236 8083.029785 
449.251526 270571.8125 
455.242493 154060.875 
487.015808 7406.483398 
497.251617 36659.957031 
503.277161 10113.992188 
509.260254 7212.740723 
521.288452 37017.363281 
524.802979 7439.526855 
559.640198 7111.248047 
589.31427 8596.664062 
603.329285 7168.049316 
607.327087 53855.882812 
641.333069 11665.826172 
653.591675 8053.158691 
686.609741 7707.109375 
689.399902 8521.949219 
700.894958 7862.55127 
751.406067 149016.765625 
755.944824 7730.50293 
779.193542 8149.899902 
895.484924 2544447.5 
899.341797 9224.87207 
END IONS

