BEGIN IONS
PEPMASS=353.079
CHARGE=1+
COMPOUNDNAME=GRISEOFULVIN
LIBRARYQUALITY=3
SMILES=N/A
INCHIKEY=DDUHZTYCFQRHIY-RBHXEPJQSA-N
INCHI=InChI=1S/C17H17ClO6/c1-8-5-9(19)6-12(23-4)17(8)16(20)13-10(21-2)7-11(22-3)14(18)15(13)24-17/h6-8H,5H2,1-4H3/t8-,17+/m1/s1
MSLEVEL=2
SOURCE_INSTRUMENT=N/A-ESI-QFT
FILENAME=library_mgf.mgf
SEQ=*..*
IONMODE=positive
ORGANISM=MONA
NAME=GRISEOFULVIN [M+H]+
PI=MoNA
DATACOLLECTOR=MoNA:VF-NPL-QEHF002914
PUBMED=N/A
SUBMITUSER=mwang87
TAGS=
SPECTRUMID=CCMSLIB00004693977
SCANS=2914
50.226227 0.011229 
50.430779 0.009092 
51.396206 0.010772 
51.495075 0.012262 
51.610764 0.009226 
51.619511 0.008593 
51.701893 0.011803 
51.789867 0.009499 
52.201054 0.010399 
52.668957 0.008276 
52.805092 0.00949 
53.002956 0.467748 
53.15641 0.009429 
53.309509 0.010163 
53.361813 0.009404 
53.364273 0.008213 
53.65435 0.008614 
53.977779 0.008072 
54.047718 0.022169 
54.05254 0.013046 
54.610821 0.009393 
55.018429 0.007613 
55.047298 0.012831 
55.521412 0.008938 
55.579647 0.015831 
55.605232 0.009365 
55.803108 0.009579 
55.899639 0.011642 
56.214542 0.00975 
56.526215 0.008091 
56.542618 0.009819 
56.835255 0.010563 
57.626587 0.007885 
58.222073 0.009616 
58.231087 0.009765 
58.266731 0.010126 
58.882164 0.011896 
59.421314 0.010943 
59.550316 0.007774 
60.225163 0.008565 
60.952419 0.007405 
61.235405 0.009433 
61.266018 0.008883 
61.578495 0.00838 
62.936481 0.007181 
64.124466 0.011524 
64.591614 0.007561 
65.387383 0.008342 
65.647621 0.007389 
65.983109 0.00999 
66.215729 0.012072 
66.554855 0.008554 
67.597122 0.011394 
67.811989 0.010549 
68.162376 0.009384 
68.471764 0.007492 
68.997826 0.010006 
69.034157 99.897774 
69.171844 0.009956 
69.216805 0.008658 
69.503952 0.009102 
69.628464 0.008815 
69.689133 0.009384 
70.0355 0.020381 
70.037491 3.408412 
71.900749 0.009555 
72.213005 0.0114 
72.2407 0.009986 
72.271019 0.011469 
72.536613 0.007562 
72.691093 0.007785 
72.957664 0.012378 
73.050758 0.011319 
73.120895 0.008315 
73.182648 0.010005 
73.645355 0.009794 
73.71067 0.007592 
73.871559 0.00921 
73.968498 0.007363 
75.941048 0.009407 
76.122269 0.011628 
76.242996 0.014574 
76.331169 0.008163 
76.493698 0.010483 
76.54142 0.008643 
76.67691 0.008962 
77.117508 0.010749 
77.635277 0.011961 
77.99511 0.009344 
78.332382 0.009512 
78.479111 0.010595 
78.555679 0.008596 
79.781372 0.009483 
79.935478 0.008656 
80.327126 0.008381 
82.474419 0.009553 
82.540009 0.011162 
82.761635 0.012582 
83.813972 0.008952 
84.290077 0.008793 
84.51619 0.009003 
85.746078 0.009455 
86.011948 0.012157 
86.285744 0.010029 
86.714256 0.010646 
86.748444 0.008962 
87.284355 0.010032 
87.35054 0.008992 
87.444344 0.011541 
88.303421 0.010971 
89.8283 0.013362 
90.610794 0.012281 
90.870796 0.009175 
94.476387 0.008188 
96.681763 0.009712 
98.091927 0.013008 
98.245331 0.012402 
98.636703 0.011623 
99.044434 1.197162 
100.09285 0.009002 
101.946449 0.010575 
102.375809 0.012824 
103.787239 0.01243 
104.232475 0.010842 
105.585968 0.010179 
105.657806 0.011782 
105.759369 0.012411 
106.265656 0.01156 
106.282104 0.01586 
106.713959 0.012661 
107.049538 0.043914 
107.560143 0.009291 
107.581284 0.010557 
107.816826 0.010835 
108.23954 0.008867 
108.255867 0.00924 
109.065025 0.085382 
109.71402 0.008924 
111.291306 0.008947 
111.29673 0.009807 
113.538445 0.009995 
113.612846 0.010763 
113.694534 0.013952 
116.242622 0.007911 
116.273483 0.009308 
116.461014 0.012814 
117.570221 0.008733 
117.779137 0.015307 
118.163017 0.008785 
119.470222 0.011257 
120.058456 0.014088 
121.687561 0.010308 
121.820114 0.008443 
122.036354 0.11279 
123.739929 0.013018 
124.618736 0.009303 
125.06002 0.011678 
125.180237 0.01284 
125.818695 0.009227 
127.141403 0.008044 
130.44191 0.009076 
130.720032 0.011971 
132.505051 0.010512 
133.82074 0.012172 
134.356857 0.008022 
135.141342 0.013068 
135.463913 0.009158 
135.544754 0.013628 
135.601639 0.010854 
135.734573 0.008918 
137.059616 0.032347 
137.373749 0.009736 
138.7715 0.012454 
139.07518 0.280537 
143.398972 0.009509 
143.485168 0.010711 
144.901443 0.008543 
147.889786 0.008888 
148.11998 0.012921 
149.881424 0.013177 
150.031265 0.174148 
150.544754 0.011773 
152.868103 0.008036 
153.406601 0.011658 
155.615265 0.007895 
156.34639 0.012592 
156.543915 0.007886 
156.564758 0.009878 
156.98587 0.013052 
158.922241 0.013267 
159.189575 0.009761 
162.940247 0.008324 
164.103668 0.009328 
164.788116 0.008551 
164.875854 0.008454 
165.05455 100.0 
165.208221 0.008729 
166.057846 8.060786 
166.769836 0.009805 
167.059753 0.047157 
167.06987 0.029094 
168.12149 0.013866 
168.877167 0.008564 
170.238815 0.015654 
170.714783 0.00921 
174.390945 0.009355 
174.447647 0.008434 
174.473511 0.008808 
174.937561 0.010274 
176.904999 0.008122 
177.84816 0.008473 
180.078018 0.008702 
183.065094 0.763789 
183.966248 0.008732 
188.628204 0.013678 
188.87442 0.010112 
190.062592 0.009702 
195.405426 0.00999 
197.036301 0.937704 
198.474289 0.009885 
199.987137 0.500577 
201.642944 0.010646 
203.551422 0.009917 
204.188248 0.008303 
205.47435 0.011967 
211.287354 0.012561 
212.375443 0.008054 
213.128204 0.011228 
214.111176 0.012773 
214.193436 0.008432 
214.628998 0.358264 
214.637817 0.324531 
214.642853 0.518034 
215.010422 81.198967 
215.995865 0.014535 
216.013763 7.038107 
217.007294 9.314355 
217.068344 0.009734 
217.824203 0.010017 
217.839447 0.009849 
217.997467 0.487119 
218.806305 0.014245 
219.305817 0.009095 
219.702545 0.009846 
222.088165 0.150766 
222.456985 0.009467 
222.542221 0.013064 
224.022095 0.012148 
224.627151 0.009871 
224.84903 0.01488 
225.030807 0.137591 
226.038391 0.08441 
228.12088 0.013556 
238.095352 0.008787 
241.178146 0.011805 
243.083221 0.013114 
243.721848 0.011674 
243.921951 0.013612 
244.736115 0.009672 
253.026001 3.110948 
254.029282 0.206819 
254.05307 0.010474 
254.65329 0.014802 
254.97197 0.010319 
255.005661 0.031635 
255.022812 0.238497 
255.04158 0.465703 
256.982056 0.011444 
257.021301 0.012015 
257.057159 3.888244 
257.185974 0.011188 
258.060608 0.2482 
258.087616 0.041299 
259.054108 0.287003 
259.963959 0.012642 
264.713654 0.01297 
265.062225 1.564021 
266.066803 0.009793 
267.059052 0.063008 
269.255219 0.011864 
270.028625 1.487478 
274.124329 0.009736 
277.025787 0.067182 
277.449371 0.010136 
278.033569 0.970839 
279.041412 1.316983 
279.058167 0.00956 
279.725525 0.012294 
279.977234 0.01024 
280.044983 0.009113 
281.03595 0.009856 
281.277252 0.014366 
283.036438 1.016692 
284.039948 0.01006 
285.051971 47.200344 
286.055481 6.603867 
287.048676 5.735888 
289.225006 0.01401 
290.182495 0.009711 
290.576508 0.008616 
293.057159 4.376739 
294.060577 0.548436 
295.053955 0.329309 
302.104675 0.009937 
305.610748 0.010529 
306.028473 2.213646 
306.049408 0.012181 
307.03183 0.065485 
308.025421 0.027412 
311.031921 0.518684 
311.067719 3.941445 
312.071014 0.452205 
313.064758 0.316982 
317.897736 0.009119 
321.052094 5.002244 
322.055328 0.77677 
323.048737 0.485868 
323.068512 0.017288 
328.768951 0.011037 
335.06723 0.220937 
336.880951 0.01432 
351.984619 0.01221 
353.078094 2.832064 
354.081573 0.346074 
355.074951 0.244525 
361.316528 0.009979 
363.983124 0.010735 
367.581451 0.023998 
371.426117 0.012244 
373.618469 0.007897 
376.978912 0.009693 
377.362518 0.011116 
END IONS

