BEGIN IONS
PEPMASS=597.394
CHARGE=1+
COMPOUNDNAME=Astaxanthin
LIBRARYQUALITY=3
SMILES=N/A
INCHIKEY=MQZIGYBFDRPAKN-QISQUURKSA-N
INCHI=InChI=1S/C40H52O4/c1-27(17-13-19-29(3)21-23-33-31(5)37(43)35(41)25-39(33,7)8)15-11-12-16-28(2)18-14-20-30(4)22-24-34-32(6)38(44)36(42)26-40(34,9)10/h11-24,35-36,41-42H,25-26H2,1-10H3/b12-11+,17-13+,18-14+,23-21+,24-22+,27-15+,28-16+,29-19+,30-20+
MSLEVEL=2
SOURCE_INSTRUMENT=N/A-ESI-QFT
FILENAME=library_mgf.mgf
SEQ=*..*
IONMODE=positive
ORGANISM=MONA
NAME=Astaxanthin [M+H]+
PI=MoNA
DATACOLLECTOR=MoNA:VF-NPL-QEHF003105
PUBMED=N/A
SUBMITUSER=mwang87
TAGS=
SPECTRUMID=CCMSLIB00004694168
SCANS=3105
50.011257 0.189671 
50.048294 0.010169 
50.104229 0.010761 
51.045582 0.016582 
51.295071 0.012071 
52.623146 0.175054 
53.003029 0.128014 
53.03936 3.802553 
53.71162 0.035303 
54.089184 0.010199 
55.018597 0.69395 
55.054981 14.333813 
55.722664 0.212746 
55.837521 0.012804 
56.050346 0.11238 
56.857708 0.033505 
56.965462 0.047562 
56.979462 0.009629 
57.034176 0.034826 
57.070656 5.952871 
57.272461 0.010772 
57.510551 0.054256 
57.537876 0.174017 
58.420654 0.138674 
59.049847 0.674649 
59.317001 0.033084 
60.658249 0.017208 
61.011395 0.013135 
61.291992 0.194906 
61.645355 0.017122 
61.970776 0.050362 
62.982494 0.648931 
64.323669 0.018117 
65.039314 3.862505 
67.054916 28.154213 
68.058334 0.6192 
68.28653 0.205533 
68.638947 0.137537 
69.034203 1.396584 
69.070572 7.808529 
70.065712 0.040706 
70.3778 0.05502 
72.669891 0.05398 
76.986107 0.056298 
76.990883 0.052049 
77.039307 0.351503 
78.046898 0.114913 
79.021713 0.012702 
79.054848 22.99497 
79.770203 0.01773 
80.058151 0.426377 
80.062523 0.182387 
80.948311 0.184995 
81.062912 0.010132 
81.070427 20.53195 
81.984016 0.036587 
82.073799 0.208091 
83.010796 0.069167 
83.049751 2.336034 
83.080269 0.202699 
83.08606 2.595019 
83.097969 0.222167 
84.90773 0.21864 
85.060112 0.153957 
85.065445 1.00174 
85.216675 0.265253 
85.222389 0.019866 
85.800819 0.150223 
87.41227 0.138599 
88.665817 0.146787 
88.978714 0.016055 
89.455925 0.021404 
89.706573 0.142742 
90.257896 0.190895 
91.054733 50.700951 
92.058022 3.004139 
93.070335 24.510168 
94.073776 0.642726 
94.827698 0.214901 
95.049568 11.367121 
95.08596 11.90802 
95.215462 0.039707 
96.089432 0.05216 
97.06517 0.994352 
97.137901 0.020343 
98.165138 0.009848 
98.293221 0.011495 
98.455597 0.011635 
98.580009 0.138436 
102.502342 0.135683 
103.054626 4.635858 
103.075874 0.010628 
104.062431 0.340886 
104.700722 0.155983 
104.992523 0.015832 
105.045204 2.590441 
105.070251 62.848091 
105.215065 0.010383 
106.069611 0.087611 
106.073647 5.038679 
106.077789 0.349459 
106.384842 0.173383 
107.049492 0.561998 
107.085846 41.361511 
107.315155 0.175745 
107.707664 0.167563 
108.049706 0.057648 
108.08931 2.3812 
108.910416 0.01127 
109.065086 7.345595 
109.101479 16.582771 
109.174767 0.201484 
110.068718 0.011643 
110.104828 0.679313 
110.963036 0.160012 
111.041649 0.01665 
111.080544 0.637665 
112.144264 0.041115 
113.059601 0.021204 
113.416138 0.218457 
115.054436 6.212868 
116.062233 1.601743 
116.818962 0.135947 
116.865189 0.155408 
117.070145 19.343163 
118.073463 0.788807 
118.077942 0.03861 
119.049446 0.132558 
119.06073 1.320278 
119.08577 100.0 
120.089142 8.430817 
120.093376 1.451072 
120.856735 0.035496 
121.06501 3.734154 
121.101379 10.201767 
122.07267 0.409018 
123.080605 3.698408 
123.283089 0.20105 
124.088074 0.020647 
125.096275 2.273102 
125.969864 0.142941 
127.036629 0.053029 
128.062119 13.263436 
128.953506 0.012279 
129.065369 0.719299 
129.069977 17.434717 
130.073029 1.679475 
130.07785 7.399296 
131.085526 23.536928 
132.08873 1.752051 
132.093674 1.05217 
133.064835 5.110986 
133.101181 18.717115 
133.510818 0.050429 
134.104416 0.739999 
134.472534 0.246123 
135.080444 5.713403 
135.116898 4.833114 
135.3461 0.236798 
137.096252 0.154078 
139.026917 0.090675 
139.088394 0.206072 
141.069809 9.181735 
142.077713 19.973551 
143.085663 24.550188 
144.088043 0.378966 
144.093704 5.91664 
145.06485 3.110783 
145.101181 19.602598 
146.104019 0.933204 
147.080475 1.645808 
147.116806 15.539726 
148.120026 0.986182 
149.096207 1.000056 
153.069839 4.605548 
154.077667 3.529436 
155.060196 0.249685 
155.067566 0.019599 
155.085541 14.193849 
156.093521 13.50676 
157.101303 17.498535 
158.072678 0.452839 
158.102859 0.259537 
158.109222 6.476436 
159.080505 4.771 
159.117004 7.898941 
159.336182 0.211722 
161.095917 0.62781 
161.132431 1.200752 
161.802902 0.034404 
161.892426 0.150322 
164.920288 0.21526 
165.069824 7.902712 
166.077866 2.719473 
167.085541 9.752958 
168.093445 4.914983 
169.101273 12.131067 
170.109161 5.445572 
171.062973 0.022841 
171.080475 1.825405 
171.116882 6.657645 
172.088501 0.171944 
172.124603 0.262761 
173.096405 1.28326 
173.132431 4.782614 
175.075119 0.413961 
175.111771 0.195649 
177.009827 0.056798 
178.077774 1.651157 
179.085373 9.46833 
180.093384 5.860487 
181.101242 11.309362 
182.109131 5.449106 
182.301743 0.038743 
183.080261 0.250329 
183.116989 6.159872 
184.123825 0.206395 
185.096024 0.509049 
185.132355 0.717478 
186.104034 1.159494 
189.885254 0.219321 
190.291931 0.036996 
191.085876 0.252478 
192.093292 2.620117 
193.101334 9.156408 
194.108917 4.637611 
195.08049 0.576699 
195.117004 8.06967 
195.99762 0.050649 
196.124634 0.78615 
197.096268 0.291803 
197.132385 3.221009 
197.411011 0.020213 
197.909622 0.093119 
199.14798 0.248569 
201.127243 0.552328 
203.084976 0.24791 
204.093567 0.394865 
205.101059 1.858664 
205.167099 0.041866 
206.109161 3.933711 
207.116882 6.05404 
208.124069 1.243145 
209.096359 0.202856 
209.132568 2.756355 
210.104294 0.01338 
210.139877 0.024818 
211.111725 0.528005 
211.148544 0.609118 
212.356247 0.093481 
217.100922 1.388247 
218.109131 0.872397 
219.116547 2.512638 
219.246902 0.177955 
219.258987 0.151516 
220.12442 0.990402 
220.2173 0.271 
220.229828 0.945018 
220.239044 0.196767 
220.243713 0.213926 
220.250046 0.246658 
220.258545 0.285108 
221.132248 1.77891 
223.113708 0.172395 
223.147903 0.675161 
224.118744 0.165643 
225.042801 0.250511 
229.100342 0.281207 
230.108078 0.497202 
231.116745 2.153267 
232.123047 0.625615 
233.132385 0.933251 
233.89093 0.014427 
234.136688 0.4442 
234.898788 0.015957 
235.147659 0.176254 
240.070389 0.198517 
240.908661 0.024268 
241.444412 0.151555 
243.116898 0.484787 
244.122986 0.134125 
244.912964 0.164141 
245.132004 0.451952 
245.424835 0.156594 
247.149353 0.194948 
248.837402 0.163061 
249.83287 0.061115 
256.334808 0.087504 
257.13208 0.547019 
259.149017 0.119056 
260.15564 0.207459 
277.005371 0.673675 
280.964569 0.025359 
287.2677 0.145039 
289.607849 0.172648 
291.019836 0.038057 
291.509796 0.140216 
301.663574 0.096879 
305.389618 0.192826 
306.447998 0.159948 
324.85434 0.217419 
326.3078 0.088408 
331.74527 0.137808 
335.5336 0.165173 
354.549408 0.161667 
354.96582 0.171692 
356.141235 0.019166 
361.909668 0.075615 
375.002747 0.164952 
384.335663 0.102752 
393.578461 0.0917 
393.941467 0.044099 
401.167175 0.044073 
402.962799 0.014434 
403.913391 0.223729 
417.215881 0.021257 
419.176575 0.472906 
437.188782 0.041978 
439.155365 0.038718 
485.418945 0.011907 
509.448456 0.061936 
523.609253 0.060678 
538.549561 0.061812 
542.693115 0.094364 
554.070862 0.097849 
621.590149 0.098214 
END IONS

