BEGIN IONS
PEPMASS=444.42
CHARGE=1+
COMPOUNDNAME=3-Epilupeol
LIBRARYQUALITY=3
SMILES=N/A
INCHIKEY=MQYXUWHLBZFQQO-ISZJTHHZSA-N
INCHI=InChI=1S/C30H50O/c1-19(2)20-11-14-27(5)17-18-29(7)21(25(20)27)9-10-23-28(6)15-13-24(31)26(3,4)22(28)12-16-30(23,29)8/h20-25,31H,1,9-18H2,2-8H3/t20-,21+,22-,23+,24+,25+,27+,28-,29+,30+/m0/s1
MSLEVEL=2
SOURCE_INSTRUMENT=N/A-ESI-QFT
FILENAME=library_mgf.mgf
SEQ=*..*
IONMODE=positive
ORGANISM=MONA
NAME=3-Epilupeol [M+NH4]+
PI=MoNA
DATACOLLECTOR=MoNA:VF-NPL-QEHF005656
PUBMED=N/A
SUBMITUSER=mwang87
TAGS=
SPECTRUMID=CCMSLIB00004696719
SCANS=5656
50.465492 0.005954 
50.637287 0.014207 
50.996635 0.024012 
52.458012 0.010935 
52.914886 0.011162 
52.962898 0.010712 
53.986603 0.017588 
55.055031 0.499263 
55.416218 0.008662 
57.034248 1.027284 
57.070625 2.280299 
57.186455 0.01925 
57.61491 0.008572 
58.06591 0.075873 
58.584568 0.017674 
59.037109 0.016182 
59.049892 6.065894 
59.061138 3.50998 
59.148655 0.025274 
59.565197 0.020853 
60.036232 0.007258 
60.045143 0.394421 
60.053234 0.605049 
60.056328 0.03057 
60.0816 0.041663 
60.635094 0.007766 
61.011322 0.095347 
61.163231 0.010571 
61.447758 0.013762 
61.985603 0.016029 
62.019211 0.030598 
62.060627 0.005808 
62.1385 0.012649 
62.139717 0.004772 
62.382668 0.023789 
62.440376 0.01954 
62.773556 0.018677 
62.862629 0.012097 
63.234131 0.015785 
63.797993 0.011424 
63.929836 0.023183 
64.3899 0.006633 
65.018562 0.018013 
65.171364 0.018327 
65.400848 0.014026 
66.201584 0.013386 
67.054939 0.918329 
67.067062 0.009003 
67.559944 0.015032 
68.072304 0.014997 
68.328545 0.010799 
68.416245 0.011653 
69.03418 0.074413 
69.070564 1.780609 
69.090736 0.008518 
69.368484 0.015802 
70.065819 0.023726 
70.419273 0.010501 
70.489487 0.005478 
70.515121 0.017913 
70.538345 0.020937 
70.677277 0.018129 
71.049812 0.530257 
71.086212 0.600664 
71.515785 0.006283 
72.045212 0.018119 
72.071518 0.006326 
72.081642 0.006188 
72.433891 0.018495 
72.738869 0.01623 
73.02906 2.770045 
73.047447 3.103335 
73.065353 0.064979 
73.587578 0.024403 
74.047394 0.018154 
74.060616 0.022074 
74.097061 0.480846 
74.147949 0.007982 
74.601852 0.018622 
74.885925 0.022145 
74.982864 0.015373 
75.026749 0.032467 
75.03756 0.02004 
75.39344 0.00663 
75.448112 0.015965 
75.836472 0.006761 
75.945442 0.013894 
76.076324 0.213551 
76.929665 0.013065 
77.165947 0.005702 
77.347183 0.012522 
78.919266 0.018656 
79.02179 1.387428 
79.054893 0.322991 
79.603912 0.011156 
79.887642 0.012418 
80.055016 0.332732 
80.178619 0.018828 
80.212547 0.019873 
80.429054 0.007355 
80.452698 0.017427 
80.49366 0.007501 
80.948463 0.113778 
81.070465 4.518668 
81.731155 0.019436 
81.801338 0.005773 
82.073822 0.083265 
83.049728 0.283132 
83.086121 1.763944 
84.089317 0.015904 
85.028938 0.087284 
85.065338 3.115563 
85.101707 0.179303 
86.096992 0.129296 
86.599937 0.005902 
86.691673 0.005724 
87.044571 4.793476 
87.597382 0.022847 
87.677956 0.014809 
87.903015 0.014776 
88.022057 0.433553 
88.039917 0.019647 
88.076202 0.022939 
88.230423 0.011965 
88.905731 0.015873 
89.060219 9.857633 
89.06321 0.150521 
89.410683 0.019685 
90.063713 0.052189 
91.054909 0.718557 
91.057861 10.520248 
92.057556 0.081681 
92.061089 0.031567 
92.485909 0.012817 
93.037308 0.776905 
93.070328 2.757784 
93.161156 0.018697 
93.234016 0.012491 
93.590668 0.016961 
93.781082 0.022471 
93.951134 0.00769 
94.505516 0.015624 
94.685791 0.008044 
95.049622 0.118629 
95.085976 11.749021 
95.429718 0.017636 
96.089294 0.777982 
96.247787 0.018025 
96.53624 0.023272 
96.922333 0.107656 
97.065208 0.818827 
97.101585 1.284439 
98.975876 0.007818 
98.989944 0.011769 
99.04451 0.142701 
99.080864 0.597202 
100.076057 0.268798 
100.112495 0.05831 
101.003555 0.266937 
101.060112 0.1578 
101.370537 0.019457 
101.721291 0.02644 
102.067886 0.219765 
103.039368 2.094502 
103.075714 0.315421 
103.88028 0.016418 
104.020355 0.013169 
104.474632 0.024989 
104.992676 0.016139 
105.070152 1.594083 
105.073334 0.048426 
106.1147 0.018112 
107.070541 0.056289 
107.085876 6.123264 
107.336502 0.005228 
107.358536 0.011341 
107.828331 0.014984 
108.089119 0.227119 
109.046394 0.011851 
109.065102 0.378708 
109.101463 13.310487 
110.104828 1.161932 
111.006775 0.023556 
111.04425 0.02566 
111.080772 1.936454 
111.117142 1.458006 
111.725067 0.01946 
112.464722 0.022258 
112.563461 0.017642 
112.992233 0.018448 
113.059967 0.15348 
113.096405 0.505823 
113.138336 0.006188 
113.321312 0.017328 
113.328949 0.006609 
114.072495 0.076646 
114.133308 0.020931 
115.055977 0.022925 
115.075752 0.110923 
115.463913 0.0184 
116.053093 2.228619 
116.107552 0.020933 
116.97747 0.028821 
116.986313 0.028018 
117.091255 0.810207 
117.889687 0.00535 
118.094604 0.109706 
118.329391 0.017957 
118.730453 0.018628 
119.049263 0.029303 
119.070129 0.016481 
119.085732 6.137415 
120.089188 0.473584 
120.216988 0.010901 
120.897697 0.018587 
121.060829 0.021985 
121.064972 1.454817 
121.096725 0.027669 
121.101395 7.27051 
121.341537 0.018098 
122.104759 0.472421 
123.080681 0.705816 
123.116989 6.297209 
123.121811 0.051644 
123.940811 0.013136 
124.080872 0.036304 
124.120415 0.398985 
124.786324 0.014522 
125.060272 0.035772 
125.09626 0.53319 
125.132622 0.005743 
125.989311 0.011235 
126.419731 0.024669 
126.789589 0.009014 
127.111885 2.018178 
128.11528 0.027619 
128.246231 0.016542 
129.122406 0.012912 
129.929428 0.015572 
131.070358 0.843409 
131.085632 1.446311 
132.088791 0.02084 
133.064926 0.011755 
133.085953 4.028273 
133.101242 6.908532 
133.126068 0.005764 
134.089127 0.026951 
134.104614 0.656457 
134.508209 0.016447 
134.996872 0.03315 
135.080505 0.444693 
135.116852 13.013185 
136.120178 1.363739 
137.09613 0.83681 
137.126968 0.047402 
137.132492 8.665357 
137.38858 0.007353 
138.135803 0.879048 
138.629166 0.015943 
139.07518 0.049346 
139.111771 0.47468 
140.068192 0.007457 
140.706635 0.013672 
140.95932 0.485306 
142.160141 0.006595 
142.358322 0.023376 
142.938583 0.016833 
143.085617 0.342828 
145.101181 3.417086 
146.104721 0.164386 
147.065155 0.064529 
147.080505 1.615783 
147.086136 0.024679 
147.11673 6.709988 
148.025726 0.011151 
148.120163 0.608333 
149.044952 1.030232 
149.096161 0.54044 
149.132492 8.029954 
150.135849 0.790569 
150.278793 0.02109 
151.074722 0.02079 
151.097183 0.040128 
151.111725 1.629645 
151.148163 1.434375 
151.811111 0.011975 
151.963013 0.020975 
152.989304 0.009983 
153.090927 0.020113 
153.12735 0.905168 
153.957443 0.020155 
154.159027 0.021876 
154.628754 0.013349 
155.085571 0.043965 
155.189026 0.026242 
155.323334 0.018107 
156.041306 0.015695 
156.138428 0.103816 
156.93335 0.20823 
157.101288 0.995895 
157.75705 0.020645 
157.934891 0.01902 
158.603912 0.022975 
158.69841 0.013738 
159.047516 0.026202 
159.080597 0.029156 
159.116806 4.665982 
160.096985 0.078556 
160.120087 0.386047 
160.577347 0.008753 
161.011688 0.007805 
161.096176 0.773268 
161.132446 6.72179 
162.100235 0.005564 
162.135803 0.85491 
163.111816 1.069389 
163.140656 0.028936 
163.148026 5.255759 
164.151535 0.490386 
164.920731 0.457074 
165.091049 0.839515 
165.127533 0.801869 
165.164276 0.0337 
167.055435 4.876738 
167.106644 0.021263 
167.143097 0.017498 
168.055328 0.030902 
169.101227 0.226535 
169.523788 0.014748 
169.968567 0.011837 
170.955566 0.007901 
171.116791 1.514614 
172.120438 0.042292 
172.906921 0.024185 
173.078796 0.021748 
173.096313 0.006788 
173.132462 3.024564 
174.136139 0.181998 
175.096512 0.295056 
175.111771 0.648032 
175.148148 6.118723 
176.151596 0.783313 
176.967361 0.241152 
177.00647 0.012091 
177.056885 0.019568 
177.091248 0.021422 
177.112717 0.420971 
177.127411 7.799624 
177.163696 4.559762 
178.130859 0.933565 
178.158752 0.013931 
178.167252 0.617974 
179.107544 0.007533 
179.143188 0.699681 
179.179001 0.01881 
180.894592 0.200478 
181.12178 0.019629 
182.891693 0.01561 
183.117004 0.866538 
184.073486 0.027132 
184.120102 0.022669 
185.014008 0.02093 
185.132492 3.252984 
186.136032 0.28138 
187.111816 0.441977 
187.148148 12.119829 
188.151489 1.82518 
188.593307 0.008522 
188.973663 0.009795 
189.006607 0.032333 
189.127335 2.018252 
189.163696 15.699093 
190.13063 0.111985 
190.167099 2.424144 
190.964264 0.006247 
191.106659 0.302947 
191.143173 1.189177 
191.179352 4.780152 
192.182861 0.729975 
192.961731 0.015289 
193.122681 0.044044 
193.158859 0.696182 
195.000168 0.121915 
196.025558 0.012217 
197.132584 0.897511 
197.974167 0.008373 
199.039505 0.009448 
199.075867 0.032327 
199.148132 3.482683 
200.132843 0.023342 
200.151596 0.352715 
200.391159 0.023312 
201.127548 1.039294 
201.163834 7.33253 
202.167358 1.233636 
203.107635 0.015732 
203.132355 0.125226 
203.143051 20.028946 
203.179474 22.578011 
204.146378 2.826976 
204.182861 3.729378 
205.122223 0.050626 
205.149017 0.073498 
205.1586 4.805407 
205.195099 1.790412 
206.162216 0.527779 
206.198669 0.063415 
206.977936 0.405573 
207.157242 0.010568 
207.174347 6.688526 
208.177933 1.031752 
209.015366 0.018231 
209.117096 0.029066 
209.13269 0.087817 
210.447266 0.020964 
211.148331 1.049249 
212.972595 0.007249 
213.128174 0.019074 
213.163727 2.976967 
213.645676 1.168357 
213.653763 0.893289 
213.794891 0.023211 
213.970551 0.00843 
214.167389 0.382537 
214.954437 0.017196 
214.973038 0.007676 
215.143204 1.51807 
215.179443 2.586063 
216.101929 0.021446 
216.18277 0.235501 
217.121735 0.035847 
217.158722 3.309484 
217.195251 1.647586 
217.223892 0.018571 
218.162125 0.347729 
218.198578 0.069265 
218.900284 0.007018 
219.018051 0.015883 
219.137955 0.016679 
219.174576 1.441662 
220.177734 0.154723 
221.117859 0.033811 
221.153809 0.94559 
221.189972 2.696563 
222.193695 0.22094 
223.063477 0.089013 
223.147858 0.157013 
225.04274 1.876208 
225.164032 0.823733 
226.951981 0.023775 
227.022278 0.015181 
227.070145 15.738607 
227.142929 0.246467 
227.179382 2.63647 
228.073395 1.84595 
228.182953 0.240453 
229.075912 0.020234 
229.158737 1.454867 
229.195099 1.838534 
230.163895 0.025375 
230.198715 0.123514 
230.285461 0.009014 
230.409286 0.011559 
230.966751 0.443817 
231.137909 0.03794 
231.174332 1.992387 
231.210815 0.07127 
232.177689 0.121117 
232.947357 0.006496 
232.949615 0.006418 
232.964554 0.281372 
233.015228 0.009346 
233.156586 0.011498 
233.189957 0.604349 
234.979813 0.007399 
235.168671 0.013382 
237.027817 0.113278 
237.163528 0.300248 
238.967422 0.018334 
239.17923 1.993935 
240.182663 0.164517 
240.555405 0.021884 
241.158585 0.270783 
241.194855 1.748132 
242.164001 0.020566 
242.198517 0.068976 
243.138092 0.062106 
243.174606 1.378973 
243.210892 0.584256 
244.962234 0.720483 
245.081375 0.017809 
245.190094 1.428621 
246.1931 0.058382 
247.205658 0.196983 
248.937149 0.005696 
248.977524 0.189485 
248.990662 0.075475 
250.177948 0.009452 
250.974884 0.137742 
251.025787 0.4962 
251.179489 0.281821 
251.935745 0.005808 
253.194885 3.642144 
253.94986 0.031666 
254.198563 0.502666 
254.928848 0.030404 
255.174438 1.210255 
255.210724 2.414925 
256.177277 0.075354 
256.21405 0.310453 
257.189789 4.941158 
257.226471 0.079148 
258.193542 1.01672 
259.20578 0.995361 
261.027435 0.031741 
262.973633 0.122857 
264.877441 0.034519 
265.195099 0.469793 
265.939484 0.186374 
266.355652 0.020837 
267.174164 0.026361 
267.210968 1.254697 
268.214111 0.073396 
268.94754 0.007015 
268.998596 0.684918 
269.036072 0.136036 
269.190155 2.226812 
269.226349 1.295574 
269.94577 0.019101 
269.996521 0.354214 
270.193298 0.314282 
270.229675 0.045584 
270.899689 0.142141 
270.993744 0.057477 
271.205536 8.250162 
271.900513 0.007647 
272.20874 1.655282 
273.082581 0.011982 
273.181366 0.024147 
273.221497 2.061393 
274.224762 0.183398 
276.499481 0.014423 
277.2164 0.063655 
279.036774 0.01446 
279.210724 1.543259 
279.227356 0.007883 
280.214111 0.223943 
281.226318 1.014103 
282.230133 0.074511 
282.888031 0.057771 
283.205383 3.114159 
283.24118 0.035838 
283.891022 0.007783 
283.950531 0.012369 
284.153198 0.066761 
284.209351 0.516622 
284.914703 0.042494 
285.009827 0.020383 
285.156738 0.015653 
285.221619 1.409588 
286.133636 0.015543 
286.223846 0.061335 
286.975006 0.03397 
287.008484 0.236678 
287.237274 0.072876 
289.917175 0.006659 
290.947601 0.017653 
292.926849 0.019999 
293.226471 1.197392 
294.229279 0.072087 
295.205566 0.13208 
295.242401 0.180204 
297.221069 4.98623 
298.224823 1.171415 
299.0625 0.018778 
299.237091 0.963652 
299.570251 0.009324 
300.240112 0.07114 
302.350708 0.024111 
302.925476 0.009513 
303.18399 0.017122 
304.928711 0.524155 
304.985138 0.239817 
305.22644 0.316803 
305.94278 0.008515 
305.987671 0.006694 
306.925262 0.028944 
307.242218 0.209192 
307.924133 0.061591 
307.950256 0.011069 
308.936462 0.008478 
309.079224 0.137646 
309.221527 1.213829 
309.259338 0.019364 
310.224518 0.013361 
311.236664 5.136812 
311.293976 0.64198 
312.240356 1.190114 
312.29837 0.022225 
313.252228 0.288456 
316.905151 0.020033 
319.241852 0.273665 
321.257416 0.009767 
322.938629 0.11655 
322.996429 0.191795 
323.236755 3.025285 
323.954559 0.064876 
324.240601 0.6448 
324.880646 0.209063 
324.936798 0.009704 
324.986633 0.366364 
325.25235 0.931771 
325.329468 0.029285 
325.886444 0.007715 
325.934845 0.046973 
325.970367 0.05595 
326.257507 0.01435 
326.962769 0.026061 
327.267761 0.024457 
328.964935 0.400643 
329.00293 0.289369 
329.963501 0.498488 
330.173004 0.015845 
330.961853 0.020566 
331.962799 0.023557 
333.257843 0.295421 
334.098419 0.048235 
336.839691 0.28148 
337.071777 0.021387 
337.252533 1.463874 
337.290009 0.011235 
338.255524 0.133907 
339.268463 0.127624 
340.274689 0.06085 
340.320862 0.102121 
341.017578 0.09508 
341.230988 0.019937 
341.282074 0.015732 
341.890411 0.014359 
342.861176 0.119673 
342.891937 0.076171 
342.997009 1.683596 
343.859314 0.226915 
343.91748 0.041516 
343.996185 0.115679 
346.954773 0.243782 
346.976379 0.098613 
347.01358 0.063463 
347.274597 0.0359 
347.974121 0.137744 
348.93515 0.240317 
351.268036 2.928194 
352.11026 0.023282 
352.271667 0.72742 
353.276764 0.013844 
354.034302 0.016477 
354.849091 0.00898 
355.297424 0.025998 
357.413635 0.023314 
359.027832 4.815245 
360.029114 1.052542 
360.840973 0.016631 
360.871368 0.092961 
361.86969 0.033994 
363.266846 0.055194 
363.304718 0.359217 
364.964478 0.030633 
365.146759 0.014421 
365.169617 0.014723 
365.209259 0.013356 
365.24762 0.015662 
365.283569 0.398507 
365.32074 0.041764 
366.945526 0.369955 
368.941101 0.01567 
374.823669 0.024341 
376.470154 0.022344 
379.25943 0.024664 
381.279633 0.060098 
381.315002 1.287775 
382.318817 0.173268 
382.958588 0.006591 
384.992279 0.020803 
385.178741 0.188481 
385.473602 0.022761 
385.926086 0.008745 
388.810944 0.027383 
389.319672 5.194251 
390.229919 0.019463 
390.323456 1.558695 
391.055206 0.036947 
391.328888 0.013608 
394.29892 0.05853 
395.330322 0.238713 
399.290344 0.2843 
399.325592 0.961119 
400.328033 0.091647 
401.16687 0.979291 
402.16983 0.039517 
404.850159 0.243718 
407.330292 24.423517 
408.264832 0.024222 
408.303589 0.044763 
408.333832 7.975733 
409.032654 0.018374 
409.065399 0.366919 
409.274261 0.072642 
409.308502 0.029433 
409.337799 1.181116 
410.024963 0.023447 
419.177612 1.08479 
420.180542 0.03767 
421.001801 0.018743 
425.270325 0.142915 
425.308411 0.444288 
425.340729 9.255215 
425.512726 0.008857 
426.273743 0.020235 
426.299469 0.008591 
426.344177 2.934886 
427.037903 0.103276 
427.285461 0.207809 
427.320007 0.731957 
427.349579 0.21657 
428.037354 0.068243 
428.318054 0.027256 
428.384949 0.023383 
438.913574 0.025078 
440.00473 0.021363 
440.991455 0.021154 
442.374023 0.088814 
442.404541 0.193404 
442.440521 0.021426 
443.136932 0.111709 
443.278412 0.105747 
443.35202 100.0 
443.408691 0.123871 
444.355011 33.22728 
444.427948 0.041039 
444.45401 0.516978 
445.205353 0.023385 
445.241821 0.034318 
445.27713 10.321517 
445.311646 0.867734 
445.359741 5.076117 
445.417328 0.049544 
445.458038 0.090281 
446.280334 1.874936 
446.363525 0.23811 
447.346802 0.198443 
448.350067 0.006259 
449.187866 0.029787 
449.711304 0.011904 
451.347687 0.016973 
461.16806 0.029964 
463.044586 0.009433 
END IONS

