BEGIN IONS
PEPMASS=537.236
CHARGE=1+
COMPOUNDNAME=(3E,5S,7R,8R,11E,13S,15R,16R)-3,5,7,11,13,15-hexamethyl-8,16-bis(1,3-oxazol-5-ylmethyl)-1,9-dioxacyclohexadeca-3,11-diene-2,10-dione
LIBRARYQUALITY=3
SMILES=N/A
INCHIKEY=LAJRJVDLKYGLOO-HLRFMGGZSA-N
INCHI=InChI=1S/C28H38N2O6/c1-17-7-19(3)25(11-23-13-29-15-33-23)35-28(32)22(6)10-18(2)8-20(4)26(12-24-14-30-16-34-24)36-27(31)21(5)9-17/h9-10,13-20,25-26H,7-8,11-12H2,1-6H3/b21-9+,22-10+/t17-,18-,19+,20+,25+,26+/m0/s1
MSLEVEL=2
SOURCE_INSTRUMENT=N/A-ESI-QFT
FILENAME=library_mgf.mgf
SEQ=*..*
IONMODE=positive
ORGANISM=MONA
NAME=(3E,5S,7R,8R,11E,13S,15R,16R)-3,5,7,11,13,15-hexamethyl-8,16-bis(1,3-oxazol-5-ylmethyl)-1,9-dioxacyclohexadeca-3,11-diene-2,10-dione [M+K]+
PI=MoNA
DATACOLLECTOR=MoNA:VF-NPL-QEHF019228
PUBMED=N/A
SUBMITUSER=mwang87
TAGS=
SPECTRUMID=CCMSLIB00004710291
SCANS=19228
50.827957 0.025056 
51.013817 0.014376 
51.165012 0.014561 
51.222622 0.021407 
51.557507 0.015524 
52.657089 0.018999 
53.098045 0.012854 
53.261433 0.021141 
53.545376 0.015078 
54.511673 0.018238 
54.898151 0.01489 
54.942478 0.020359 
55.018021 0.086138 
55.054401 0.633204 
55.362968 0.024115 
55.681301 0.015948 
56.049744 0.037664 
56.96492 0.102364 
57.033691 12.802925 
57.070007 0.718586 
57.371704 0.013807 
58.03701 0.045452 
58.065277 0.607199 
58.849422 0.014942 
58.890366 0.01527 
59.049297 3.144058 
59.248474 0.020134 
59.510044 0.027854 
60.055725 0.255089 
60.080887 0.120669 
61.010719 0.170892 
61.715973 0.015016 
63.879795 0.026296 
64.724518 0.01302 
65.262375 0.025845 
66.323708 0.017033 
66.534767 0.020359 
67.054199 0.540439 
67.609047 0.016138 
68.671524 0.021956 
69.033417 0.107693 
69.069801 1.279793 
69.249504 0.026196 
69.992462 0.012881 
70.065048 0.729584 
70.969612 0.015729 
71.049034 0.287946 
71.085426 0.222393 
71.380699 0.01967 
72.044167 0.014432 
72.080643 0.223947 
72.747383 0.027152 
73.04673 1.40967 
73.064636 0.200765 
73.408066 0.02399 
73.551605 0.019872 
73.613853 0.019561 
74.059868 0.035372 
74.096176 0.016686 
75.043892 0.116064 
75.61557 0.013857 
75.927696 0.020585 
76.026741 0.020836 
76.315216 0.015697 
76.679008 0.021751 
76.764519 0.01712 
76.899422 0.016085 
77.892342 0.028504 
78.276611 0.020608 
78.792961 0.013328 
79.021011 0.085052 
79.05407 0.430006 
79.488136 0.026994 
79.708435 0.013506 
80.049301 1.002949 
80.226822 0.017013 
81.069794 2.187377 
82.02858 0.455012 
82.073227 0.022776 
82.087631 0.012613 
82.55751 0.017187 
82.668633 0.022172 
83.048943 0.847305 
83.085327 0.674699 
84.04422 0.10002 
84.08075 0.071693 
84.790771 0.018648 
85.028175 0.043469 
85.064636 1.336479 
85.101013 0.068725 
86.013138 0.028866 
86.096268 0.264191 
87.043869 0.801382 
87.080208 0.078887 
88.075562 0.16393 
88.162804 0.017336 
88.506149 0.020712 
88.995476 0.012293 
89.059563 1.754158 
89.779556 0.032134 
89.936607 0.031612 
90.727081 0.017036 
91.054268 0.507815 
91.057243 4.220215 
92.056908 0.020868 
93.036263 0.015647 
93.069717 1.419373 
93.652763 0.014461 
93.700439 0.02696 
94.065041 0.176382 
94.073135 0.014518 
95.048935 1.23361 
95.085411 2.934645 
95.144775 0.024406 
95.17012 0.019407 
96.044128 0.228636 
96.088684 0.047583 
97.064705 1.739249 
97.100975 0.205571 
97.589119 0.022921 
98.059807 0.042948 
98.096352 0.016764 
99.043831 0.0873 
99.080292 2.346824 
99.083679 0.026425 
99.78614 0.017394 
100.075356 0.026005 
100.162834 0.023101 
100.649208 0.018283 
100.657654 0.026159 
101.059532 0.51078 
101.070587 0.022668 
101.221252 0.015077 
101.322983 0.020262 
102.091225 0.068743 
102.719521 0.021646 
103.053978 0.016061 
104.541672 0.017374 
105.033333 0.147178 
105.069786 1.840957 
105.073135 0.028859 
105.934517 0.015785 
106.073364 0.033494 
106.473442 0.023502 
106.612114 0.014423 
107.085403 2.897006 
108.088631 0.086147 
109.064644 1.861655 
109.101059 2.257421 
109.669365 0.026921 
110.059753 0.45164 
110.067749 0.023746 
110.104424 0.023236 
110.843491 0.015228 
111.080238 1.442887 
111.116394 0.089363 
113.059494 1.52074 
113.095734 0.078718 
113.853729 0.016228 
114.091209 0.191388 
115.006813 0.020808 
115.075226 3.140816 
116.070778 0.030097 
117.069801 0.060483 
117.090782 0.014528 
117.93914 0.014405 
119.085312 0.965656 
119.40229 0.018733 
120.080406 0.035395 
120.711922 0.02552 
121.064651 0.330724 
121.100998 3.061564 
122.059837 0.800912 
122.068573 0.028803 
122.096252 0.016909 
122.104271 0.289788 
123.018494 0.014679 
123.080261 2.474842 
123.116508 0.880396 
124.075447 0.28184 
125.059509 0.054976 
125.095856 0.822186 
125.215965 0.022083 
125.603966 0.016301 
126.054527 0.023693 
126.90818 0.022627 
127.038765 0.016567 
127.075157 0.330768 
127.111137 0.019304 
127.814255 0.020821 
128.514465 0.016437 
128.796371 0.027249 
129.069611 0.194611 
129.090607 0.018858 
131.048798 0.125907 
131.085251 0.257788 
131.267822 0.016887 
131.570206 0.019285 
132.101395 0.01913 
133.085724 0.16427 
133.100861 1.265412 
133.698425 0.014575 
133.812912 0.024612 
134.059921 0.04432 
135.080124 0.532086 
135.116623 1.717026 
136.039047 0.074298 
136.075592 0.396929 
136.083984 0.021362 
136.120224 0.032451 
137.059296 0.016672 
137.095825 0.746285 
137.132233 0.10326 
138.09108 0.542817 
138.234711 0.01566 
139.074997 0.143767 
139.11142 0.16797 
139.117493 0.018548 
139.850327 0.013899 
140.070847 0.104851 
141.054565 0.053211 
141.090714 0.095911 
142.077896 0.021304 
143.085281 0.218836 
143.373215 0.017713 
145.100861 0.868745 
146.511505 0.014641 
147.080002 0.117619 
147.116547 0.965835 
148.075592 0.047663 
148.11174 0.047774 
148.120102 0.016784 
149.044708 1.506267 
149.059311 0.059922 
149.095795 0.891608 
149.132263 0.488694 
149.739212 0.019682 
149.852524 0.013708 
150.091141 0.067265 
151.11142 0.428846 
152.070282 0.02609 
152.106262 0.02513 
153.090836 0.023695 
153.12706 0.038518 
155.067795 0.024465 
155.085281 0.039092 
155.106445 0.023474 
155.892792 0.01663 
157.100922 1.370585 
157.107758 0.019753 
157.121948 1.186538 
158.012207 0.03839 
159.079956 0.071615 
159.116547 3.555671 
160.075775 0.026992 
160.112457 0.017443 
160.119827 0.282528 
161.095703 0.223615 
161.132095 0.729292 
162.091248 0.034993 
162.12764 0.019309 
162.994217 0.022844 
163.075043 0.026612 
163.111374 0.82356 
163.147736 0.036168 
163.494858 0.020399 
164.968506 0.026647 
165.090591 0.071293 
165.127029 0.141542 
166.097885 0.016537 
167.055115 5.744559 
167.068787 0.02189 
167.106339 0.182444 
168.054779 0.2609 
168.065125 1.098798 
168.092361 0.017477 
168.121323 0.027553 
169.052094 0.109935 
169.100784 0.557055 
169.122162 0.030799 
170.080917 0.016959 
171.11644 0.798902 
173.095535 0.090491 
173.132217 0.2787 
174.09082 0.04088 
175.111389 0.267806 
175.147964 0.105024 
176.106674 0.044733 
176.142792 0.042746 
177.127075 0.832271 
178.130203 0.016113 
179.106277 0.059287 
179.142914 0.026211 
179.594452 0.013971 
181.085602 0.26532 
182.080994 17.734913 
183.084213 0.736061 
183.08902 0.77288 
183.097748 0.040323 
183.116364 0.130392 
184.060135 0.177168 
184.072983 0.092241 
184.096619 0.081769 
184.641098 0.016975 
185.096039 0.140529 
185.13237 0.088583 
186.07579 1.062058 
186.869751 0.049292 
186.879211 0.68009 
187.027466 0.59721 
187.111481 0.947998 
187.14798 0.016081 
189.042618 0.01814 
189.127167 0.161328 
190.122238 0.64029 
191.105988 0.075545 
191.125305 0.028453 
192.033356 0.022468 
192.13768 0.049634 
193.122543 0.05323 
194.048737 0.154517 
194.081024 0.092339 
195.116486 0.040028 
196.060501 0.017938 
196.096405 1.400087 
197.067886 0.025177 
197.091873 0.173293 
197.132141 0.0922 
198.075836 7.720417 
198.656631 0.029516 
199.027206 0.039936 
199.079285 0.183425 
199.147751 0.066665 
199.728775 0.027573 
200.054932 0.028441 
201.043121 0.025305 
201.126236 0.02098 
201.163269 0.065924 
201.746689 0.016757 
203.880951 0.168402 
204.075714 0.199734 
204.123917 0.026251 
204.137863 1.666946 
204.888474 0.104364 
205.037628 0.069292 
205.121948 0.137204 
205.141312 0.195219 
205.851181 0.033776 
206.080872 0.482895 
206.153381 0.067774 
207.088577 0.054939 
207.102661 0.023008 
208.007736 0.016106 
208.096436 1.229639 
208.13295 2.615158 
209.031723 0.022347 
209.091812 0.020567 
209.136047 0.367172 
209.870544 0.01765 
210.043503 0.099435 
210.07579 1.832742 
210.112167 0.093727 
210.147018 0.016397 
211.086502 2.128132 
211.111465 0.093674 
212.059235 1.236783 
212.091431 9.937238 
212.237015 2.651452 
213.016113 1.300387 
213.027466 0.995755 
213.094849 0.490044 
214.070618 1.368812 
214.121567 0.020581 
215.073624 0.018165 
219.088226 0.028938 
220.096588 0.372503 
220.154373 0.061761 
221.084259 0.073856 
221.10437 0.778597 
222.07547 0.051054 
222.112106 1.253106 
222.14859 0.020435 
222.898438 0.299484 
223.063248 0.5243 
223.085587 0.102836 
223.147018 0.017907 
224.091293 0.214223 
224.127625 0.582304 
225.042526 0.872201 
226.106873 0.33896 
226.142212 0.017876 
226.21666 0.020901 
228.202621 0.020216 
229.12175 0.04448 
230.069656 0.19259 
232.132889 1.240845 
232.945465 0.064543 
233.078064 1.046016 
233.136017 0.131779 
234.080872 0.017827 
234.112137 0.734802 
235.115417 0.018896 
236.091309 0.097887 
236.127853 2.132707 
236.302414 0.015302 
236.361252 0.014966 
237.09845 0.028017 
237.129532 0.047614 
238.107101 1.552351 
238.142929 0.134291 
238.25174 0.026743 
239.094757 1.057027 
239.142075 0.024232 
240.096085 0.016674 
240.122284 0.125244 
240.231781 0.766692 
240.268448 0.243159 
240.908539 0.51281 
241.075226 0.058268 
241.096786 5.953997 
241.186951 0.021142 
242.100586 0.439438 
243.895218 0.028519 
244.10054 0.01906 
245.890411 1.546706 
246.112274 0.022422 
246.146042 0.646799 
246.898239 0.537088 
247.04718 0.015252 
247.537659 0.013611 
248.093262 0.018707 
248.127777 0.452329 
248.913635 0.201832 
250.106949 0.453601 
250.143265 1.021211 
251.146439 0.078542 
252.122498 2.20133 
253.109879 0.021573 
253.125748 0.044506 
254.101639 0.076598 
254.24707 0.027429 
255.138031 0.016157 
255.170654 0.052116 
256.117279 0.064681 
256.263 4.798486 
256.884338 0.0222 
257.266602 0.089609 
258.808624 0.101526 
260.127106 0.168591 
261.905731 1.129291 
262.109619 1.009004 
262.142578 0.310556 
262.894196 0.03039 
262.912903 0.405919 
263.114227 0.112137 
263.900848 10.831086 
264.065094 0.038191 
264.122528 0.980612 
264.143677 0.019197 
264.15863 0.0457 
264.90918 4.601373 
265.124695 0.023616 
265.910278 0.083503 
266.102295 0.095448 
266.138153 0.226723 
266.924286 0.513741 
267.002747 0.031053 
268.117493 0.032937 
270.182465 0.865607 
271.149719 0.02049 
272.125519 1.141172 
273.165771 0.044529 
274.109009 0.01415 
274.143097 0.054185 
275.522491 0.030717 
276.121765 0.609856 
276.158203 0.120573 
277.075531 0.039989 
277.917053 0.11224 
278.103973 0.195462 
278.138367 0.110489 
278.908356 0.213023 
278.9245 0.728868 
279.089996 0.726375 
279.10553 0.018885 
279.118927 0.016785 
279.915985 6.581879 
280.118805 0.805751 
280.903656 2.564491 
280.920624 0.478924 
281.050537 0.757879 
281.123016 0.044941 
281.911469 54.61359 
282.13324 0.05537 
282.279022 0.052254 
282.916687 4.304637 
283.029053 0.021316 
283.916077 0.189031 
285.00943 0.034793 
285.132202 0.018159 
286.143158 0.067429 
288.09021 2.994308 
288.120483 0.167803 
288.158783 0.459229 
289.093658 0.294585 
289.189178 0.040541 
290.135742 55.421005 
290.173981 0.557855 
293.931305 0.068084 
295.085083 0.311157 
295.927002 1.488265 
296.088287 0.017931 
296.934662 0.524424 
297.100494 0.254439 
299.061218 10.847449 
299.833374 0.037688 
300.061615 2.564592 
300.157593 0.025524 
300.289185 4.622085 
301.058197 1.321277 
301.293121 0.137483 
301.826996 0.389435 
302.137756 0.069977 
302.908417 0.481081 
303.917725 0.020193 
304.154144 0.168647 
304.168793 0.027914 
304.18985 0.067771 
304.903534 5.066465 
304.922424 0.129833 
305.908752 0.47976 
306.100769 34.746452 
306.168518 0.532708 
306.918976 0.247695 
307.104126 4.904339 
307.408691 0.014481 
307.92334 0.07184 
308.107391 0.069877 
308.133453 0.441319 
308.761322 0.022562 
309.265747 0.018312 
310.093903 0.018325 
312.157166 0.057114 
314.173828 0.067798 
314.203674 0.018674 
316.153687 0.054669 
316.19046 0.087632 
316.7341 0.014524 
317.821991 0.347309 
318.826965 0.028788 
318.918091 0.03187 
319.835632 0.036269 
320.115997 0.702593 
320.148865 0.020731 
320.918701 9.851512 
321.921417 0.818394 
322.914185 83.856346 
323.916443 6.547254 
324.111359 33.011898 
324.14325 0.031736 
324.918213 0.258334 
325.114655 4.535751 
325.134399 0.024782 
326.11618 0.217386 
326.17392 0.085601 
328.190033 0.372061 
329.76712 0.023768 
330.205658 0.219595 
330.705475 0.014146 
332.185883 0.017299 
332.221802 0.017869 
334.934265 0.034478 
335.830627 0.508616 
336.180634 0.021692 
336.838501 0.550483 
336.929718 1.745474 
337.162384 0.026588 
337.93457 0.075621 
338.126617 0.579854 
339.177307 0.228534 
342.121857 0.225261 
342.165619 0.020093 
342.357178 0.028932 
344.184601 0.350296 
344.315399 4.458336 
344.975708 2.528155 
345.318542 0.287145 
345.976471 0.610919 
346.201324 0.056524 
346.973572 0.240634 
349.180695 0.018106 
351.845581 0.104303 
352.172882 0.02459 
353.841339 1.131906 
354.844116 0.040805 
355.071167 0.023212 
356.064453 0.015532 
356.278564 0.209026 
357.836761 0.03212 
358.164673 0.019738 
358.843323 7.829085 
359.027649 0.890489 
359.828766 0.408972 
359.846863 0.510198 
360.027771 0.06918 
360.179657 0.027898 
360.216583 0.086289 
360.838501 43.329201 
361.841034 4.235253 
369.836792 0.079808 
374.838562 0.112842 
375.845703 0.635113 
376.210083 0.019623 
376.833282 0.867821 
376.856506 1.788954 
377.840393 3.883432 
378.84903 11.601048 
379.850708 0.943859 
380.866699 0.030534 
385.185516 0.148287 
386.231354 0.020821 
387.845917 0.043417 
388.341278 5.51735 
389.252106 0.014856 
389.344696 0.430318 
389.436981 0.021805 
392.846954 3.747708 
393.853912 0.291423 
394.843689 20.729359 
395.8078 0.02138 
395.847992 3.159647 
396.282196 0.032772 
396.851715 0.150278 
400.207733 0.055271 
402.163055 0.106096 
402.227356 0.120786 
407.019318 0.015019 
408.858704 0.507918 
410.859039 0.560605 
411.699127 0.0351 
411.847046 0.591453 
412.854523 4.029733 
413.817932 0.040703 
413.856567 0.257734 
415.035919 0.257207 
415.182526 0.055194 
416.182922 0.023235 
416.20639 0.024794 
416.781097 0.025526 
417.85611 16.168077 
418.858154 3.099947 
419.851685 95.19136 
420.853485 11.013114 
431.258392 0.016332 
432.367126 2.172449 
433.193329 0.019275 
434.858002 0.331583 
435.868073 4.555805 
436.568573 0.029937 
436.8526 2.515881 
437.862 27.133648 
438.863831 2.984619 
445.276031 0.186693 
447.291199 0.03058 
447.346161 0.087452 
449.882355 0.126531 
451.315887 0.018856 
451.407928 0.016105 
451.874664 1.032935 
453.856934 7.176972 
454.860077 0.858642 
456.203857 0.027904 
460.877197 0.036616 
461.265961 0.19705 
464.266571 0.02351 
467.870758 0.0611 
471.867523 0.329249 
473.307007 0.020262 
476.394012 1.148098 
476.869415 1.17569 
477.397919 0.044034 
477.872314 0.122901 
478.864807 7.798007 
479.867126 0.972839 
481.262268 0.02388 
489.328186 0.14115 
494.879272 0.126851 
496.875 0.991882 
497.878479 0.036905 
499.136169 0.01886 
503.317902 19.934027 
504.321442 9.166507 
505.323853 1.77978 
506.285309 0.386316 
506.325531 0.021543 
510.394684 0.034301 
511.27652 0.202057 
520.419678 0.97365 
521.258728 0.086415 
521.423157 0.024376 
527.270996 0.019623 
528.174011 0.024631 
535.270569 0.075444 
535.34259 11.29772 
536.242737 0.194293 
536.280334 0.199085 
536.346008 5.100922 
536.611877 1.081409 
537.228577 0.064114 
537.338684 28.321522 
537.61438 0.228535 
538.267029 1.052723 
538.343079 8.172457 
538.383789 0.324712 
538.429749 6.086347 
538.591187 0.016207 
539.195129 0.054736 
539.271362 100.0 
539.370667 0.04604 
539.432495 0.145995 
554.126343 0.033732 
END IONS

