BEGIN IONS
PEPMASS=1255.64
CHARGE=1+
COMPOUNDNAME=Dactinomycin
LIBRARYQUALITY=3
SMILES=N/A
INCHIKEY=RJURFGZVJUQBHK-UHFFFAOYSA-N
INCHI=InChI=1S/C62H86N12O16/c1-27(2)42-59(84)73-23-17-19-36(73)57(82)69(13)25-38(75)71(15)48(29(5)6)61(86)88-33(11)44(55(80)65-42)67-53(78)35-22-21-31(9)51-46(35)64-47-40(41(63)50(77)32(10)52(47)90-51)54(79)68-45-34(12)89-62(87)49(30(7)8)72(16)39(76)26-70(14)58(83)37-20-18-24-74(37)60(85)43(28(3)4)66-56(45)81/h21-22,27-30,33-34,36-37,42-45,48-49H,17-20,23-26,63H2,1-16H3,(H,65,80)(H,66,81)(H,67,78)(H,68,79)
MSLEVEL=2
SOURCE_INSTRUMENT=N/A-ESI-QFT
FILENAME=library_mgf.mgf
SEQ=*..*
IONMODE=positive
ORGANISM=MONA
NAME=Dactinomycin [M+H]+
PI=MoNA
DATACOLLECTOR=MoNA:VF-NPL-QEHF000894
PUBMED=N/A
SUBMITUSER=mwang87
TAGS=
SPECTRUMID=CCMSLIB00004691957
SCANS=894
87.100189 0.660904 
87.412086 0.040662 
87.85128 0.017721 
89.834206 0.026731 
92.284927 0.027124 
93.678619 0.03126 
94.06543 0.07645 
95.073128 0.035317 
96.044647 0.03323 
96.081093 0.490205 
96.826073 0.030704 
96.922333 0.023315 
97.517799 0.020641 
97.768448 0.034469 
98.060356 1.913129 
98.096764 1.816356 
99.416939 0.019212 
100.023514 0.037781 
100.039688 11.711359 
100.076019 0.074338 
100.297203 0.036184 
101.895058 0.019221 
102.289864 0.01751 
102.305504 0.025657 
102.855614 0.026782 
105.450661 0.039617 
106.049881 0.031246 
108.080925 0.309158 
110.060341 0.066181 
110.096672 0.619405 
110.140671 0.030382 
112.112228 0.987847 
112.350021 0.027957 
113.114883 0.020925 
114.039032 0.035673 
114.054878 0.064539 
114.091576 8.766353 
114.731064 0.028728 
115.094734 0.036242 
115.788795 0.01991 
120.978531 0.030739 
122.096397 0.150097 
123.054916 0.044328 
123.091705 0.48201 
123.143135 0.027605 
123.313713 0.029087 
123.855751 0.025271 
124.075882 0.020984 
124.112122 8.236573 
125.107368 0.77642 
125.115273 0.110495 
126.054794 0.045714 
126.091454 3.288198 
126.248878 0.03637 
127.969604 0.040042 
128.106918 0.059613 
128.148132 0.032024 
132.101822 23.687061 
132.32193 0.030532 
132.414398 0.031527 
133.104965 0.570298 
135.526169 0.034616 
135.633652 0.032079 
136.006241 0.04264 
136.387375 0.030152 
138.091019 0.057641 
138.473877 0.02655 
138.592636 0.017209 
139.086258 1.027735 
139.123199 0.03478 
139.62616 0.022081 
139.923386 0.021945 
140.233963 0.016875 
141.102051 0.033283 
142.085968 0.416538 
142.122406 1.080958 
142.343796 0.039288 
144.358337 0.033221 
146.047852 0.043492 
149.015884 0.030742 
151.086273 0.114655 
151.121964 0.030083 
152.107178 0.030061 
153.101852 0.34083 
154.086105 1.141079 
155.866241 0.030031 
157.133621 0.073248 
157.150711 0.028332 
157.854523 0.033794 
161.959366 0.036056 
163.02327 0.031618 
164.354706 0.032388 
165.552521 0.038734 
167.117676 0.038731 
167.146866 0.034723 
177.884415 0.021689 
181.513321 0.033941 
185.127762 0.032859 
187.107193 0.029838 
195.112747 0.10899 
202.137665 0.029953 
203.138779 2.21745 
203.642548 0.036811 
210.768112 0.033018 
211.070633 0.036029 
219.832397 0.147784 
219.843903 0.254709 
219.873016 0.03342 
220.846695 0.032374 
223.353531 0.021229 
223.479279 0.020613 
225.764923 0.029463 
225.909973 0.034577 
228.297104 0.033676 
229.569199 0.030051 
234.604614 0.022389 
236.861191 0.019211 
237.065048 0.031863 
239.081207 0.81151 
239.213821 0.033679 
239.828323 0.028346 
240.088623 0.115991 
241.09758 0.02328 
242.081757 0.034173 
250.096008 0.034648 
250.124115 0.038502 
251.082062 0.0627 
253.045029 0.019439 
253.060211 0.64006 
254.552719 0.033082 
255.076721 0.031857 
257.093262 0.037343 
258.075104 0.060952 
264.076263 0.067576 
265.060394 0.899007 
265.097168 0.038443 
266.067688 0.036119 
266.777618 0.031122 
267.07605 7.222254 
268.079376 0.284526 
271.070099 0.245304 
271.113617 0.033264 
271.17572 0.02327 
272.656067 0.025527 
275.080627 0.041537 
275.907166 0.030057 
276.075775 0.059833 
277.083069 0.80488 
277.097931 0.197434 
278.091644 1.926772 
279.075684 0.19912 
279.098633 0.047843 
283.070801 1.158341 
283.523804 0.032032 
285.086334 4.481349 
286.089264 0.085214 
288.338806 0.043318 
290.093231 0.037883 
291.074951 0.025923 
292.071136 0.146034 
292.108093 0.156038 
293.055023 22.988636 
293.092896 0.098469 
293.109436 0.066714 
294.058594 2.565067 
294.086548 2.090998 
294.355377 0.029949 
295.070953 2.571548 
295.090973 0.284785 
297.085724 0.036957 
298.081055 0.033883 
299.066406 0.120671 
301.080963 0.045108 
302.091949 0.080344 
303.074982 0.066032 
304.069672 0.037236 
305.077942 7.554015 
306.085388 2.161126 
306.122772 0.033224 
306.721954 0.037389 
306.905243 0.023785 
307.093597 0.032346 
309.073486 4.891138 
310.081024 3.811046 
311.065521 1.789144 
311.084808 0.122518 
312.070587 0.042016 
312.232239 0.033733 
313.081116 0.940224 
318.08667 0.36439 
318.330261 0.037403 
319.093933 0.640883 
319.334106 0.038044 
320.102478 26.83667 
321.08667 0.983625 
321.105957 3.712476 
322.08136 4.606542 
322.117249 0.965573 
323.08609 0.238426 
324.096375 0.154902 
324.995117 0.037427 
325.068237 1.198637 
326.076355 0.047171 
328.091492 0.19225 
328.573303 0.030345 
329.076141 3.616681 
329.099457 0.450266 
330.085388 1.003947 
330.107697 0.025111 
330.901581 0.037585 
331.09314 0.226913 
331.117249 0.027594 
332.102142 2.417911 
333.073456 9.198027 
333.108765 0.061772 
333.960358 0.035923 
334.081024 7.98833 
334.117706 0.417509 
335.089172 4.159675 
336.073944 0.144716 
336.096313 2.560915 
337.080902 2.460049 
337.104523 2.424201 
337.232758 0.043284 
338.076965 0.953552 
338.110962 0.287171 
339.083557 0.366413 
340.091766 1.573478 
343.117859 0.102515 
344.08783 0.300954 
344.125641 0.179474 
345.111023 0.457274 
345.132202 0.026436 
346.081726 0.070053 
346.115967 0.063541 
347.088776 0.075048 
347.111694 0.047063 
348.097107 100.0 
349.101135 15.07649 
349.867828 0.033369 
350.079041 0.038016 
350.112244 2.731712 
351.118896 0.061052 
352.092072 0.912568 
353.099335 0.756616 
357.097198 4.928043 
357.134003 0.14646 
358.081207 1.704664 
358.104645 2.866814 
358.13974 0.041194 
359.085266 0.060613 
359.112091 1.393302 
359.149414 1.598533 
360.133148 0.385975 
361.126373 0.063963 
362.112244 0.163575 
364.127747 0.086486 
366.107666 19.052145 
367.111176 3.005852 
370.118256 0.482245 
371.112122 6.699947 
372.120422 9.142981 
373.125092 1.284506 
375.107391 0.069143 
375.144745 0.147376 
376.0914 2.498586 
376.115997 2.135443 
377.095398 0.160561 
377.122437 0.218263 
378.106354 0.038118 
380.126221 0.03633 
385.128723 2.418693 
386.110809 0.052069 
386.135895 1.027951 
387.117035 0.044625 
387.144135 3.724448 
388.149048 0.070252 
394.102722 27.732824 
395.105774 4.173454 
401.160706 0.526876 
403.14032 0.498694 
403.173798 0.030305 
408.209991 0.035154 
423.757782 0.034959 
423.892975 0.020837 
431.130463 0.049271 
437.91983 0.02971 
438.139099 0.054709 
443.859924 0.035546 
447.163849 0.050812 
454.241089 0.038408 
456.531067 0.035833 
464.839813 0.038444 
469.135651 0.040207 
491.07077 0.030503 
493.689667 0.031127 
499.069061 0.025238 
510.834778 0.029777 
511.139832 0.033336 
526.47113 0.024632 
615.353577 0.037463 
618.96106 0.033509 
624.619934 0.034149 
649.238708 0.034011 
651.849609 0.037742 
655.586121 0.038337 
657.626099 0.031066 
709.508057 0.017692 
715.585205 0.03007 
720.391968 0.035964 
758.40271 0.032191 
802.536255 0.021912 
807.439453 0.039755 
861.112732 0.034124 
862.509033 0.041623 
899.67218 0.042098 
945.112854 0.034094 
945.613892 0.035268 
1069.120361 0.048385 
1082.135498 0.042056 
1100.468872 0.022501 
1194.341797 0.036145 
1195.560547 0.022552 
1272.146973 0.023263 
END IONS

