BEGIN IONS
PEPMASS=734.469
CHARGE=1+
COMPOUNDNAME=Massbank:CE000004 Erythromycin
LIBRARYQUALITY=3
SMILES=CC[C@@H]1[C@@]([C@@H]([C@H](C(=O)[C@@H](C[C@@]([C@@H]([C@H]([C@@H]([C@H](C(=O)O1)C)O[C@H]2C[C@@]([C@H]([C@@H](O2)C)O)(C)OC)C)O[C@H]3[C@@H]([C@H](C[C@H](O3)C)N(C)C)O)(C)O)C)C)O)(C)O
INCHIKEY=ULGZDMOVFRHVEP-RWJQBGPGSA-N
INCHI=1S/C37H67NO13/c1-14-25-37(10,45)30(41)20(4)27(39)18(2)16-35(8,44)32(51-34-28(40)24(38(11)12)15-19(3)47-34)21(5)29(22(6)33(43)49-25)50-26-17-36(9,46-13)31(42)23(7)48-26/h18-26,28-32,34,40-42,44-45H,14-17H2,1-13H3/t18-,19-,20+,21+,22-,23+,24+,25-,26+,28-,29+,30-,31+,32-,34+,35-,36-,37-/m1/s1
MSLEVEL=2
SOURCE_INSTRUMENT=ESI-LC-ESI-ITFT
FILENAME=Massbank_ESI_positive_8_1_2014_peaks.mgf
SEQ=*..*
IONMODE=Positive
ORGANISM=MASSBANK
NAME=Massbank:CE000004 Erythromycin [M+H]+
PI=Putative Massbank Match
DATACOLLECTOR=Massbank
PUBMED=N/A
SUBMITUSER=mwang87
TAGS=
SPECTRUMID=CCMSLIB00000205618
SCANS=878
354.606018 1272.880615 
469.603546 1267.511963 
481.499146 1323.180298 
576.36731 1776.489258 
END IONS

