BEGIN IONS
PEPMASS=357.094
CHARGE=1+
COMPOUNDNAME=bisdethiobis(methylthio)gliotoxin
LIBRARYQUALITY=3
SMILES=N/A
INCHIKEY=OVBAGMZLGLXSBN-UOVKNHIHSA-N
INCHI=InChI=1S/C15H20N2O4S2/c1-16-12(20)14(22-2)7-9-5-4-6-10(19)11(9)17(14)13(21)15(16,8-18)23-3/h4-6,10-11,18-19H,7-8H2,1-3H3/t10-,11-,14+,15+/m0/s1
MSLEVEL=2
SOURCE_INSTRUMENT=N/A-ESI-QFT
FILENAME=library_mgf.mgf
SEQ=*..*
IONMODE=positive
ORGANISM=MONA
NAME=bisdethiobis(methylthio)gliotoxin [M+H]+
PI=MoNA
DATACOLLECTOR=MoNA:VF-NPL-QEHF024560
PUBMED=N/A
SUBMITUSER=mwang87
TAGS=
SPECTRUMID=CCMSLIB00004715623
SCANS=24560
50.15715 0.110102 
50.872669 0.133762 
51.928799 0.109565 
52.027939 0.223826 
52.237133 0.110922 
52.855537 0.11873 
53.038963 0.627862 
53.289024 0.107009 
53.291725 0.116562 
54.801243 0.140673 
55.018208 2.157886 
55.042027 1.398795 
55.054565 9.52719 
55.934643 0.155223 
56.048508 0.264737 
56.049812 10.770318 
56.058002 0.469631 
56.185249 0.132014 
56.401058 0.217475 
56.965157 0.298633 
57.03381 2.290533 
57.070206 12.264829 
57.901646 0.194676 
58.028996 0.281908 
58.06546 8.975619 
59.049446 7.378656 
60.044643 0.59371 
60.055874 0.303596 
61.010941 21.389999 
61.02866 1.167999 
61.795959 0.116392 
62.018719 4.613564 
62.060268 0.332812 
62.390457 0.190956 
63.026531 9.253796 
64.590118 0.443829 
65.038795 0.687192 
65.500183 0.195469 
65.549637 0.213007 
66.094276 0.284508 
67.05439 5.494271 
67.50869 0.140292 
68.049622 1.961235 
68.350716 0.130927 
69.033623 5.450186 
69.045036 0.268461 
69.070015 9.431538 
70.028877 1.765698 
70.065269 69.052124 
70.073448 0.141555 
71.036659 5.88119 
71.049278 3.758953 
71.060555 0.44998 
71.06855 1.334183 
71.071732 0.179995 
71.085609 6.960778 
71.900795 0.267358 
72.044495 21.779209 
72.080879 4.187806 
72.121017 0.140381 
72.123741 0.13443 
72.937164 0.192431 
73.028557 0.787358 
73.046906 24.116163 
73.064842 0.614969 
73.262321 0.154627 
73.264664 0.150972 
74.046432 1.008349 
74.050224 0.407285 
74.060127 1.085447 
74.990028 0.858809 
75.04406 2.425309 
75.276237 0.279289 
77.038948 0.201965 
79.021233 4.604776 
79.054321 5.247852 
80.049591 1.809448 
80.738113 0.205145 
81.0336 14.011038 
81.044762 0.203751 
81.069946 8.902489 
81.564636 0.236556 
82.065208 6.238598 
82.873581 0.437835 
83.049217 12.308643 
83.060425 1.958834 
83.085564 2.905705 
83.566994 0.140739 
84.044456 6.219827 
84.052666 0.207923 
84.080872 22.345308 
85.028473 5.152035 
85.039749 1.499724 
85.064842 0.781633 
85.084412 0.622887 
85.101181 1.037914 
86.028152 0.298466 
86.060104 5.76805 
86.096466 7.891345 
87.041328 0.891466 
87.044182 59.687057 
88.02166 4.737026 
88.047485 0.763929 
88.075806 10.711124 
88.512695 0.224756 
89.005615 1.170924 
89.059837 25.193724 
90.037254 3.130359 
90.947708 0.440558 
91.054344 8.927302 
91.057434 41.719955 
92.057159 3.34442 
92.060661 0.900524 
92.844223 0.432221 
92.982857 0.62205 
93.054283 1.448329 
93.057526 0.216931 
93.069977 4.478691 
94.007484 0.115723 
94.028603 0.12883 
94.065216 2.467539 
95.013107 0.416319 
95.049194 9.47982 
95.060555 1.170481 
95.085648 8.120425 
96.044434 2.303648 
96.080879 2.688453 
96.08889 0.301669 
97.010895 0.148963 
97.028496 8.980146 
97.064896 1.929166 
97.075966 0.18839 
97.088547 0.260423 
97.101204 1.126306 
98.023811 0.644626 
98.060158 7.255475 
98.096451 1.99504 
98.975464 2.654229 
99.044174 3.280854 
99.055321 1.987351 
99.08065 0.209983 
99.842262 0.130485 
100.039352 5.811323 
100.075722 7.050838 
100.148239 0.113886 
101.047447 0.568087 
101.059807 2.731183 
102.037338 5.313772 
102.055061 0.172463 
102.091461 2.004564 
103.039093 7.405882 
103.054382 0.725437 
103.075363 0.18785 
104.049591 3.572084 
104.107018 0.796937 
105.033585 2.459336 
105.069977 7.689633 
106.065254 18.103655 
106.086342 6.641068 
107.049194 18.978197 
107.052979 0.277436 
107.06852 0.109155 
107.085556 2.180756 
108.044518 2.450307 
108.052704 0.23587 
108.080887 1.980894 
109.028572 3.791836 
109.064873 1.28536 
109.076561 0.269718 
109.101303 2.04537 
110.036209 0.336417 
110.060158 4.882506 
110.071907 0.132214 
110.096581 1.292122 
111.044197 21.223232 
111.05542 30.793488 
112.039497 0.379015 
112.075783 2.464478 
112.086929 2.507784 
112.204758 0.119344 
112.69017 0.263086 
113.034668 0.377505 
113.059654 0.421993 
113.070969 0.834832 
114.055077 0.35798 
114.09137 3.224558 
114.102661 0.405669 
115.038948 0.192305 
115.086716 0.231122 
115.435654 0.131897 
116.001877 0.121304 
116.049301 0.309953 
116.070709 1.691623 
116.247635 0.246958 
116.986053 1.319197 
117.000282 0.136941 
117.057564 0.336634 
117.069923 0.757475 
117.711578 0.11649 
118.032265 0.12911 
118.06517 19.317802 
118.086342 6.214255 
119.049248 2.401484 
119.068291 0.134276 
119.085464 0.46443 
120.044067 0.33224 
120.048073 3.916629 
120.080994 4.140885 
120.460777 0.13686 
120.696373 0.218378 
121.028435 2.407146 
121.064949 10.58427 
121.075821 0.191901 
121.101326 0.75697 
122.060143 10.332431 
122.071396 1.956347 
122.096558 2.620373 
123.044167 8.259922 
123.079552 2.251212 
123.091644 0.701394 
123.117126 0.329948 
124.039436 3.369506 
124.047272 0.173536 
124.052261 1.023429 
124.075821 6.275612 
124.560913 0.234512 
124.828621 0.121114 
125.023529 0.178342 
125.042595 0.193414 
125.05986 0.170382 
125.071007 1.222949 
125.107452 0.198075 
126.018684 11.669161 
126.055115 6.862643 
126.091431 1.88519 
127.039146 1.066108 
127.050339 21.87937 
127.086685 0.45906 
128.024719 0.216374 
128.033768 0.241833 
128.070511 1.245691 
128.143646 0.12603 
129.054367 0.185652 
129.070068 0.587401 
129.101547 0.129003 
130.032104 0.131389 
130.06517 13.644703 
130.0867 0.294252 
131.04924 1.984858 
131.070267 5.610692 
132.011215 0.486659 
132.04451 26.976572 
132.080811 2.453462 
133.047562 0.524344 
133.052368 4.840484 
133.064926 1.774844 
133.076141 0.17515 
133.085876 3.602716 
133.10141 0.559986 
133.960175 0.111033 
134.012543 0.123771 
134.060104 42.691757 
134.096451 5.436651 
134.956406 1.363554 
134.996307 0.259593 
135.043961 1.250636 
135.063354 1.708983 
135.080704 0.242958 
135.091476 0.147596 
135.116913 0.222671 
136.039337 1.564453 
136.06189 0.330064 
136.075699 8.61202 
137.042465 0.132281 
137.059952 6.905148 
137.070923 0.458451 
137.095596 0.596519 
138.055038 1.940539 
138.091507 1.967075 
139.021011 0.159336 
139.039505 0.511593 
139.050293 59.230362 
139.075424 0.219477 
139.086639 1.132408 
140.034241 1.07905 
140.05336 0.744009 
140.070374 1.206743 
141.054657 0.339768 
141.065857 1.932916 
141.102203 0.301308 
142.064224 0.316228 
142.086365 1.495279 
143.02739 0.547731 
143.045242 0.950737 
143.060104 0.246686 
144.034973 0.17292 
144.044464 36.794212 
144.080917 3.066522 
144.101746 0.129589 
145.04805 2.077191 
145.065018 0.735635 
145.076141 0.295478 
145.989792 0.138855 
146.060135 28.981075 
146.096375 0.698845 
146.974335 0.571092 
147.044083 1.022132 
147.063293 0.810843 
147.067444 0.242827 
147.091751 9.676618 
147.097641 0.141137 
148.039459 3.675897 
148.062042 0.495007 
148.075851 7.628818 
148.112335 0.539679 
148.971985 0.819633 
149.047424 0.754419 
149.060028 1.368324 
149.071075 2.370597 
149.083008 0.227502 
149.107468 0.943179 
149.953613 0.199068 
150.055115 43.607483 
150.091476 7.033302 
150.951202 7.156467 
151.039001 0.632106 
151.050522 0.122814 
151.058273 1.443198 
151.075455 1.570233 
151.086868 3.452784 
151.099319 0.151422 
151.112167 0.156772 
151.123093 12.889733 
151.769302 0.125047 
152.070724 6.889004 
152.10733 2.093641 
152.951889 0.667991 
153.029831 0.368135 
153.036926 2.683937 
153.054749 0.256743 
153.065948 0.41382 
153.1026 0.615681 
153.959244 1.594627 
154.032303 0.149144 
154.049606 0.170823 
154.086426 0.83251 
154.122589 0.1563 
154.946487 0.511078 
155.033661 0.55038 
155.044983 0.426122 
155.080963 0.154957 
155.11763 0.13808 
156.013565 0.43461 
156.044724 0.93806 
156.080765 1.400614 
156.102112 0.601297 
157.043121 20.049849 
157.065262 0.376522 
157.076096 0.751456 
158.060165 7.116915 
158.082047 0.147289 
158.096817 1.023162 
159.044403 0.184743 
159.067535 0.172691 
159.091751 6.624495 
159.637421 0.136839 
160.039383 44.084679 
160.075851 5.336089 
161.042374 1.269275 
161.047943 0.415504 
161.059875 2.278002 
161.071136 2.187102 
161.107834 0.411973 
162.055038 30.002415 
162.062302 0.164538 
162.078308 0.151485 
162.091415 24.059288 
163.05069 0.300669 
163.057785 0.143091 
163.075363 1.304168 
163.086777 1.473386 
163.095139 0.24369 
163.976944 0.244044 
164.034256 0.329919 
164.057877 0.278065 
164.070709 6.763192 
164.08223 0.84377 
164.093567 0.278056 
164.107208 4.151519 
165.054764 0.891106 
165.066086 4.628974 
165.091171 0.233566 
165.102554 1.537813 
165.930374 0.205592 
166.032272 1.393981 
166.049942 1.652232 
166.086441 1.928609 
166.097885 0.942577 
166.122421 0.463576 
167.045425 4.79277 
167.081482 1.202717 
167.118332 0.149179 
168.053177 0.49979 
168.065674 3.486979 
168.101944 0.758202 
168.961884 2.065088 
169.060837 1.884098 
169.076218 7.831306 
169.097183 0.270906 
169.457993 0.290599 
170.060257 0.24987 
170.096283 0.622405 
170.118103 0.146595 
171.055191 0.236505 
171.091888 1.266988 
172.039413 13.626356 
172.075882 1.254691 
172.11261 0.713407 
173.071091 2.428552 
173.108215 0.267272 
174.055069 17.734041 
174.078781 1.792827 
174.091904 1.250127 
175.058792 0.256978 
175.086792 41.477081 
175.09552 3.296868 
176.034592 0.686596 
176.070786 6.232578 
176.089935 1.562458 
176.106995 2.294108 
176.9879 0.145283 
177.055115 0.382913 
177.065979 13.876781 
177.102554 2.832831 
178.050034 38.188839 
178.073624 2.176057 
178.086426 9.436093 
178.095612 0.440577 
178.123184 0.499547 
179.053314 1.656692 
179.070694 0.137713 
179.081726 0.76846 
179.954269 0.517407 
180.047852 1.106795 
180.065643 1.3496 
180.102386 3.527423 
180.113541 0.630375 
180.139389 0.246834 
180.299393 0.466799 
180.944321 0.198897 
181.060638 0.207767 
181.133911 0.82758 
182.063568 0.362429 
182.081299 0.457133 
182.118164 1.516605 
184.063293 2.382508 
184.075821 2.008198 
184.112152 0.550746 
184.785492 0.138204 
185.038101 5.961531 
185.061096 0.169831 
185.071198 8.193389 
185.636322 0.222081 
186.055344 3.173995 
186.07869 5.65046 
186.091446 2.032269 
187.050034 0.167984 
187.086792 17.755777 
187.094955 0.241545 
187.123001 0.338683 
188.034393 0.97522 
188.058243 1.37279 
188.070587 5.736886 
188.0905 0.962027 
188.107666 0.626839 
189.05484 9.373595 
189.065842 4.986835 
189.102249 0.984975 
190.049881 7.035918 
190.058151 0.140355 
190.073654 1.177248 
190.086365 2.907507 
191.071457 0.661212 
191.081741 6.493183 
191.11792 0.201581 
192.047607 0.407856 
192.065872 4.657509 
192.07663 0.279736 
192.089569 0.311754 
192.101944 2.980201 
192.961914 0.662779 
193.061111 3.544235 
193.097366 4.095079 
193.106232 0.169269 
194.027298 0.436056 
194.044815 1.194611 
194.081482 1.408379 
194.117691 5.117959 
195.092072 2.049575 
195.113022 0.314099 
195.12233 0.239364 
195.149704 0.175797 
196.042618 0.161775 
196.060944 1.326671 
196.076279 0.164173 
196.096832 0.392366 
197.071152 6.611558 
197.129333 0.241616 
197.139755 0.230801 
197.165283 0.244483 
198.091599 1.535955 
198.112762 4.263066 
198.160446 0.596417 
198.95488 0.282015 
199.086853 3.149927 
200.058319 8.697898 
200.069214 0.422647 
200.10704 1.548513 
201.066177 5.82158 
201.10228 0.676918 
202.050171 2.027538 
202.073837 17.159685 
202.085403 1.983212 
202.096298 0.172273 
202.122971 0.256601 
203.045181 0.532201 
203.08165 100.0 
204.066269 0.785368 
204.0867 8.259528 
204.101196 1.691515 
205.061172 4.878848 
205.097305 8.504806 
205.970566 0.815086 
206.068939 0.775405 
206.081131 1.27788 
206.118027 0.297734 
206.301224 0.139944 
206.978378 0.733555 
207.07666 3.99246 
207.091614 0.137475 
207.112976 0.834485 
208.043198 0.614475 
208.060928 0.18077 
208.09726 0.727781 
208.975098 0.205938 
209.092743 0.211799 
209.105469 0.135109 
209.128616 1.639683 
210.077652 0.29416 
210.089325 1.207877 
210.112732 0.230199 
211.087112 1.8239 
211.122818 0.225087 
211.14476 2.025162 
212.054062 0.140909 
212.070938 0.170765 
212.092133 0.787044 
212.106873 1.401155 
212.128464 6.958236 
213.066071 19.310329 
213.090622 0.176628 
213.103439 0.173196 
213.160095 0.58135 
214.074142 26.536409 
214.0858 2.516075 
214.106949 0.207814 
214.122757 0.515633 
214.134338 0.228094 
214.392349 0.135042 
214.456116 5.719957 
214.465454 3.664231 
215.081863 45.362873 
216.053543 6.595805 
216.064896 0.583948 
216.085938 6.814942 
216.101837 0.940224 
217.060822 3.223066 
217.097549 13.772636 
218.069077 0.714732 
218.081268 0.636624 
218.092621 0.349279 
218.117661 0.240081 
219.076782 7.358601 
219.175003 1.931599 
219.991837 0.185964 
220.084488 2.876311 
220.096558 0.653527 
220.108582 0.534307 
220.903748 1.812351 
221.081238 13.702633 
221.09259 6.21755 
221.129333 0.171298 
222.084793 0.601153 
222.112717 0.596448 
222.898972 7.247454 
223.108963 0.292927 
223.981125 2.96167 
224.107376 2.292304 
224.898697 0.207131 
225.066467 0.132675 
226.085083 0.390665 
227.081757 5.477708 
227.117157 0.238839 
228.102188 1.071356 
229.061157 5.176558 
229.097794 0.804149 
230.069 9.94972 
230.080872 0.499088 
230.117752 0.999297 
231.076721 95.777596 
231.112701 0.433671 
232.083221 15.356373 
232.096924 1.113361 
232.144989 0.614513 
233.056183 0.423379 
233.092514 24.713947 
234.045761 0.80561 
234.097855 2.033516 
235.054016 0.19696 
235.071945 2.167979 
235.086716 1.759268 
235.10788 0.626477 
236.023743 0.690198 
236.039352 0.241871 
236.061554 1.311147 
237.102234 0.333292 
237.138092 0.162526 
238.085632 0.445023 
238.120316 0.494017 
238.91423 3.533609 
239.082718 0.487331 
239.117722 0.262009 
240.101562 0.164279 
240.909485 12.087564 
241.061111 0.198044 
241.910995 0.411771 
242.06871 3.270112 
242.117508 1.88801 
242.91008 1.965583 
243.076645 18.216156 
243.090103 0.39541 
243.112579 0.241676 
244.062286 0.305397 
244.082809 2.956783 
244.096756 0.200007 
244.120667 0.159576 
245.038742 0.193463 
245.055832 1.124942 
245.092499 4.85899 
245.128769 0.46751 
246.045807 0.929972 
246.112381 0.494778 
247.071747 5.710086 
247.107819 0.238405 
247.144318 0.440483 
248.079178 1.345424 
248.105209 0.219493 
248.150482 0.817831 
249.070145 1.86502 
249.087143 13.320904 
249.101135 0.310704 
250.053131 0.246081 
250.093155 0.182591 
250.122406 0.305858 
250.143524 0.16007 
251.084991 11.50035 
251.102417 1.203461 
251.117874 0.187809 
252.088348 0.447464 
252.101822 0.243425 
253.13414 0.597781 
254.082001 0.234936 
254.118011 0.211346 
255.113113 0.35629 
255.148682 0.402416 
257.056763 0.206381 
258.112976 0.162564 
259.014893 0.134748 
259.071716 9.716399 
260.078979 3.044283 
260.128448 1.155151 
261.069885 2.105053 
261.087128 2.142008 
262.04126 2.729056 
262.094696 1.281978 
263.048309 2.465663 
263.065552 0.679473 
263.084778 1.209043 
263.102081 0.583378 
264.088104 0.178339 
264.90979 0.989358 
265.08197 0.15913 
265.097504 0.244592 
265.118591 6.929981 
265.131165 0.166736 
265.882721 0.194855 
266.102753 0.287346 
266.1185 1.080822 
266.90976 0.422492 
267.079559 2.089121 
267.113251 0.859118 
268.097046 0.418882 
268.133057 0.203791 
268.979095 1.64619 
269.128204 0.688867 
269.259735 0.154864 
269.979126 0.788776 
270.112915 0.416183 
272.12851 0.501418 
276.123077 0.184952 
277.064484 4.27822 
278.034271 0.164956 
279.079895 0.508147 
279.098022 0.335313 
279.113281 0.193992 
280.098236 0.322178 
281.095398 0.472813 
281.113525 5.041721 
281.912262 3.150997 
282.12027 0.390658 
283.144196 0.269885 
283.913147 0.87403 
284.083282 0.261205 
284.920349 0.421721 
285.010254 6.259614 
285.993286 0.168122 
286.010223 6.359901 
287.008301 2.190044 
290.13916 0.20404 
291.043854 5.404986 
292.047455 3.659049 
292.814667 1.438202 
293.039612 0.211078 
293.091522 0.335519 
295.144531 0.165119 
296.129059 0.235643 
297.160889 0.217614 
298.10791 0.257551 
299.10611 27.682756 
299.138519 1.208801 
300.109619 2.503181 
310.191681 0.310462 
310.844238 1.750531 
311.139343 0.290447 
311.175476 1.54854 
312.123749 0.311077 
312.207733 0.786387 
312.892609 0.140377 
314.140686 0.283987 
315.84549 0.278747 
316.812897 0.1829 
317.044708 1.184422 
317.841309 11.516573 
320.148407 0.180587 
322.825256 0.412005 
322.939728 0.180212 
323.233276 0.442649 
323.832367 3.975311 
324.142792 0.22608 
325.831238 1.967169 
326.838287 0.393598 
328.129913 0.232704 
328.529663 0.133858 
334.824036 0.334743 
334.844604 1.747601 
335.056488 0.330941 
335.852509 6.099582 
338.121826 0.163045 
338.14151 0.248646 
338.160004 0.695027 
340.139008 0.275229 
340.156769 0.230864 
340.176697 0.554269 
340.358124 4.851363 
341.186371 0.862919 
341.841675 0.151911 
342.197052 5.279063 
342.83374 0.87089 
342.997894 0.469997 
343.204376 2.585474 
344.977112 6.609216 
347.663177 0.307819 
347.831085 0.158395 
355.165955 3.468168 
355.203186 0.750683 
355.282349 0.139558 
356.149628 2.677901 
356.170227 4.623379 
356.202209 0.588792 
357.145203 3.677369 
357.181305 11.338312 
357.220673 0.753372 
357.261658 4.710575 
358.126404 0.242745 
358.148163 0.833015 
358.178436 9.098734 
358.228516 90.814423 
358.368195 18.939386 
359.160339 0.572096 
359.198517 3.787777 
359.232056 10.827884 
359.372742 0.466329 
365.842407 1.3627 
367.8414 6.735004 
379.375427 0.24192 
381.879272 0.134466 
383.853333 0.435512 
END IONS

