BEGIN IONS
PEPMASS=276.087
CHARGE=1+
COMPOUNDNAME=norlichexanthone
LIBRARYQUALITY=3
SMILES=N/A
INCHIKEY=AQZHBCDRWFMXIN-UHFFFAOYSA-N
INCHI=InChI=1S/C14H10O5/c1-6-2-7(15)4-10-12(6)14(18)13-9(17)3-8(16)5-11(13)19-10/h2-5,15-17H,1H3
MSLEVEL=2
SOURCE_INSTRUMENT=N/A-ESI-QFT
FILENAME=library_mgf.mgf
SEQ=*..*
IONMODE=positive
ORGANISM=MONA
NAME=norlichexanthone [M+NH4]+
PI=MoNA
DATACOLLECTOR=MoNA:VF-NPL-QEHF017956
PUBMED=N/A
SUBMITUSER=mwang87
TAGS=
SPECTRUMID=CCMSLIB00004709019
SCANS=17956
50.2878 0.010929 
50.462498 0.018893 
50.938923 0.020161 
52.27816 0.020061 
52.920597 0.009812 
53.280403 0.010346 
53.346718 0.019029 
53.507706 0.011186 
53.616814 0.022718 
53.791481 0.022181 
54.884338 0.019322 
55.054604 0.069497 
55.745777 0.018035 
55.900303 0.013489 
56.128441 0.020752 
56.59285 0.010953 
56.675045 0.013575 
56.832333 0.012535 
56.965099 0.034998 
56.97147 0.010246 
57.022053 0.018766 
57.054676 0.01076 
57.070194 1.569604 
57.176838 0.018735 
57.242325 0.014096 
57.661083 0.010633 
57.860771 0.023796 
57.954361 0.014075 
58.111217 0.012437 
58.279827 0.010834 
58.865955 0.015702 
58.921085 0.011422 
59.235966 0.013372 
59.930832 0.02545 
60.084564 0.011298 
60.768421 0.013799 
60.912605 0.014791 
61.010891 85.870766 
61.130585 0.019624 
61.676884 0.010906 
62.010269 1.07262 
62.014202 3.325333 
62.018734 0.079715 
62.041004 0.011637 
62.283218 0.020477 
62.697414 0.011347 
63.006634 12.785063 
63.360687 0.012443 
63.451839 0.011859 
64.010002 0.047113 
64.082512 0.019928 
64.435951 0.011005 
65.68557 0.02035 
66.749886 0.017954 
67.05439 0.127446 
67.403488 0.012887 
68.238983 0.014785 
69.033592 0.03673 
69.069954 0.181699 
69.465553 0.012327 
70.502167 0.028258 
70.589058 0.01969 
71.085587 1.110453 
72.080963 0.013635 
73.956375 0.021169 
74.992668 0.01999 
75.803673 0.015564 
75.970413 0.01104 
76.509422 0.017517 
77.102814 0.010829 
77.434639 0.026346 
77.80471 0.025182 
78.086029 0.010668 
79.021263 3.465309 
79.151054 0.01244 
81.064476 0.014647 
81.069939 0.299843 
81.076744 0.021577 
81.690933 0.01086 
82.537094 0.012137 
83.085442 0.095551 
85.039619 0.053143 
85.101181 0.471633 
85.22364 0.020318 
85.944916 0.012156 
87.044136 0.482004 
87.459 0.014521 
87.933395 0.018871 
88.075684 0.03299 
89.059692 0.01749 
91.506271 0.011969 
91.944664 0.012848 
92.183006 0.012866 
92.588058 0.019938 
92.986084 0.015575 
93.113525 0.016294 
94.804535 0.011154 
95.085472 0.344652 
96.080872 0.034106 
96.997925 0.010581 
97.101173 0.032985 
97.310059 0.01977 
98.164764 0.020837 
98.876503 0.015145 
98.975372 0.824684 
99.043327 0.010943 
99.239471 0.019435 
100.639084 0.018322 
100.983116 0.010819 
100.991531 0.012889 
101.00325 0.172544 
101.84893 0.019341 
102.591949 0.016688 
103.375816 0.013845 
104.80452 0.015857 
104.930489 0.048711 
105.011406 0.567714 
105.092178 0.010384 
105.351234 0.011773 
106.925819 1.892558 
108.291 0.020454 
108.659859 0.019848 
108.750374 0.01907 
108.923561 0.019542 
109.101059 0.077568 
111.245766 0.019676 
112.650551 0.0196 
112.990814 0.01689 
113.060165 0.014241 
113.601959 0.020172 
114.016678 1.573825 
114.617943 0.01321 
114.985901 0.010938 
115.540878 0.013688 
115.82135 0.02102 
116.005379 0.012022 
116.985985 0.137105 
117.917236 0.012575 
117.946182 0.023972 
118.116974 0.02253 
118.517616 0.013525 
118.943634 0.144358 
118.947586 0.737384 
120.414932 0.012848 
120.941589 0.021169 
121.101303 0.01429 
121.988548 0.012808 
122.093414 0.023489 
122.921371 0.022099 
122.940834 0.978097 
123.021935 0.129251 
123.93885 0.342925 
124.376457 0.011929 
124.558983 0.019612 
124.93647 7.953837 
124.941452 0.034138 
125.935814 0.07794 
126.933578 0.757714 
127.036652 0.048573 
127.12252 0.021161 
129.973602 0.020353 
131.001633 2.684987 
134.443604 0.021892 
134.958817 0.074086 
134.978607 0.140324 
135.795395 0.020733 
135.949432 0.019661 
135.956802 0.244942 
135.967316 0.013796 
136.920151 0.737273 
136.936447 0.76968 
136.947571 0.065712 
136.954178 0.597999 
137.011673 0.087808 
137.928085 0.099869 
137.939133 0.025607 
137.944336 1.434492 
137.961899 0.704348 
138.915665 0.055773 
138.952103 4.276492 
139.135498 0.647071 
139.923355 0.070603 
139.942139 0.034473 
140.143875 0.016821 
140.949142 0.353252 
141.558411 0.019234 
142.946808 0.10623 
143.798599 0.02276 
143.939209 0.01394 
148.500076 0.010954 
148.936295 0.328933 
149.012161 1.95025 
149.225845 0.012475 
149.961746 0.045761 
150.951157 0.036039 
150.972153 1.809248 
151.572296 0.019381 
151.943649 5.520428 
151.95929 0.064075 
151.970016 8.458786 
152.941467 1.144024 
152.95195 2.781539 
152.967575 15.704366 
152.973434 1.568914 
153.311462 0.018319 
153.939133 1.454211 
153.949356 0.053257 
153.959137 1.206822 
153.965958 3.339702 
154.567703 0.012328 
154.946884 23.96455 
154.964417 2.556668 
155.94754 0.872421 
155.954697 9.046408 
156.944244 3.169605 
156.954575 0.065618 
156.962448 0.021957 
157.371506 0.021492 
157.907654 0.022244 
157.951813 1.144835 
158.953445 1.040258 
159.781616 0.023376 
160.735916 0.021167 
162.64122 0.013745 
162.951126 0.307772 
163.020111 0.013549 
163.127075 0.018445 
163.958817 0.962596 
164.923431 0.021114 
164.942932 0.396345 
164.951416 2.042457 
165.938019 0.636179 
165.949265 1.423732 
166.946884 18.337988 
167.022537 0.0298 
167.94603 0.84084 
168.917068 0.021695 
168.936523 0.153885 
168.943985 2.446242 
168.96257 0.166581 
168.982651 2.179099 
169.358154 0.012526 
169.934311 0.050108 
169.953964 0.484618 
169.980347 0.849365 
170.951874 0.852758 
170.960678 0.063706 
170.978149 19.688585 
171.06279 2.706707 
171.948837 0.012641 
171.977768 0.733609 
172.066071 0.017508 
172.957565 3.261187 
172.9655 0.053093 
172.975494 2.79322 
172.992462 0.018697 
173.078476 0.378736 
173.367538 0.023728 
174.954498 0.237127 
178.523376 0.01389 
178.97818 0.031182 
180.93663 0.12011 
180.961685 0.259241 
180.973816 2.556644 
181.93428 0.984755 
181.969818 0.033569 
182.933868 0.203358 
182.96199 1.326975 
182.97049 0.195926 
183.074142 0.021813 
183.94902 0.029379 
183.959763 1.476807 
184.940201 0.121155 
184.957413 12.266799 
184.993881 0.067057 
185.650452 0.017469 
185.956726 0.61108 
186.946716 0.029931 
186.954681 1.790678 
187.057785 0.520093 
187.944519 1.314673 
189.941605 0.024803 
191.641663 0.022555 
194.962036 11.308883 
195.710419 0.021798 
195.949524 0.168011 
195.959702 14.80915 
196.957352 100.0 
197.015045 0.360003 
197.119049 0.021123 
197.936569 0.700034 
197.955582 8.83209 
198.339386 0.021232 
198.954559 14.936549 
198.970596 0.019076 
199.932663 0.098212 
199.944458 0.402979 
199.956955 0.148139 
201.054703 0.02548 
203.08783 0.015184 
204.619186 0.024487 
206.977051 0.013366 
209.015594 2.352224 
212.972672 8.756527 
213.97023 10.674397 
214.967926 79.960182 
215.08905 0.115265 
215.177856 0.013423 
215.601639 0.620255 
215.6147 0.429072 
215.94809 1.546215 
215.966599 7.741825 
215.98587 0.066442 
216.945465 0.231772 
216.965088 12.48838 
216.985016 0.128526 
217.086472 0.012011 
217.10463 3.094902 
217.943405 0.287663 
217.968903 0.117204 
218.001236 0.025879 
218.108139 0.068449 
220.075272 0.012167 
222.898346 0.142899 
226.988586 0.023576 
227.025146 0.011581 
227.986084 0.047776 
228.983582 1.264759 
229.0495 1.292885 
229.982895 0.024664 
230.052658 0.059225 
230.981369 0.069969 
231.031708 0.02004 
231.083893 2.014047 
231.79718 0.011437 
232.087585 0.016585 
232.978607 1.025778 
232.999771 0.250332 
233.04483 0.015875 
233.070709 0.014966 
234.977188 0.137481 
237.871338 0.019967 
240.909042 0.104388 
242.739197 0.01972 
245.099716 0.022894 
248.368073 0.02207 
251.589142 0.017949 
253.531769 0.014586 
253.600174 0.022806 
256.620392 0.013139 
257.044495 6.830564 
258.047943 0.953358 
259.051178 0.01305 
259.143402 0.01251 
260.031311 0.020322 
261.501801 0.021005 
263.485748 0.015535 
263.90155 0.015219 
264.827332 0.022157 
274.170532 0.539887 
274.216888 0.114104 
274.252502 0.036524 
274.273529 0.020663 
275.054871 61.134422 
275.109985 63.054382 
275.145721 8.441416 
276.058289 8.95808 
276.113373 7.546128 
276.149292 0.841083 
276.19577 0.025309 
276.232086 0.109706 
276.268372 0.631498 
277.05954 0.78467 
277.12674 4.64934 
277.153259 0.043256 
277.176819 0.285843 
277.271332 0.016425 
278.1297 0.054176 
281.911682 0.136091 
284.419922 0.025039 
294.230804 0.02236 
298.461823 0.021078 
END IONS

