BEGIN IONS
TITLE=Scan Number: 2020
PEPMASS=407.22101
CHARGE=1+
COMPOUNDNAME=Lincomycin A
LIBRARYQUALITY=3
SMILES=O[C@@H]1[C@@H](O)[C@@H](SC)O[C@@]([C@@](NC([C@@H]2C[C@@H](CCC)CN2C)=O)([H])[C@H](O)C)([H])[C@@H]1O
INCHIKEY=OJMMVQQUTAEWLP-RLXLMRCASA-N
INCHI=InChI=1S/C18H34N2O6S/c1-5-6-10-7-11(20(3)8-10)17(25)19-12(9(2)21)16-14(23)13(22)15(24)18(26-16)27-4/h9-16,18,21-24H,5-8H2,1-4H3,(H,19,25)/t9-,10-,11+,12-,13+,14-,15-,16-,18?/m1/s1
MSLEVEL=2
SOURCE_INSTRUMENT=LC-ESI-Orbitrap
FILENAME=f.zdenek/QEactinomyces/STDS/std_mix7-25.mzXML;
SEQ=*..*
NOTES=
IONMODE=Positive
ORGANISM=GNPS-LIBRARY
NAME=Lincomycin A M+H
SPECTRUMID=CCMSLIB00004721938
ACTIVATION=CID
INSTRUMENT=ion trap
SCANS=2020
70.066017 3069495.75 
72.796257 761356.3125 
76.51667 597375.0 
82.066254 1889595.75 
83.073952 2280509.0 
84.081299 1369125.625 
84.445198 561692.875 
95.086227 736528.875 
103.609451 612730.5 
104.13562 725806.0625 
105.112083 657500.125 
121.225723 638155.8125 
124.112106 1641416.5 
126.128433 722329536.0 
138.429626 696800.875 
150.817871 734353.5625 
172.133682 3362164.75 
198.076965 862194.5625 
205.928833 673484.5 
216.089188 947313.25 
234.095535 1229567.5 
256.222443 706366.8125 
288.18219 744431.9375 
299.198059 2034773.0 
317.207825 3360118.25 
359.217194 36300912.0 
375.639343 690570.5 
380.506195 665140.5625 
389.213745 9195498.0 
407.22226 143805680.0 
END IONS

