BEGIN IONS
PEPMASS=352.162
CHARGE=1+
COMPOUNDNAME=MITOMYCIN C
LIBRARYQUALITY=3
SMILES=N/A
INCHIKEY=NWIBSHFKIJFRCO-WUDYKRTCSA-N
INCHI=InChI=1S/C15H18N4O5/c1-5-9(16)12(21)8-6(4-24-14(17)22)15(23-2)13-7(18-13)3-19(15)10(8)11(5)20/h6-7,13,18H,3-4,16H2,1-2H3,(H2,17,22)/t6-,7+,13+,15-/m1/s1
MSLEVEL=2
SOURCE_INSTRUMENT=N/A-ESI-QFT
FILENAME=library_mgf.mgf
SEQ=*..*
IONMODE=positive
ORGANISM=MONA
NAME=MITOMYCIN C [M+NH4]+
PI=MoNA
DATACOLLECTOR=MoNA:VF-NPL-QEHF027737
PUBMED=N/A
SUBMITUSER=mwang87
TAGS=
SPECTRUMID=CCMSLIB00004721318
SCANS=27737
50.095135 0.033602 
50.823853 0.036834 
52.518925 0.038924 
52.916382 0.038369 
53.096298 0.035452 
53.851425 0.039655 
54.018719 0.040573 
54.868507 0.037801 
55.002453 0.045317 
55.054485 0.055333 
56.04974 0.08243 
56.143398 0.038479 
56.854225 0.043279 
56.965046 0.256918 
57.052486 0.035658 
58.065426 0.110317 
58.75145 0.024064 
58.874447 0.032913 
59.051479 0.034743 
59.277466 0.042945 
59.496162 0.023526 
59.698921 0.041468 
60.031319 0.051493 
60.044655 0.058748 
60.635204 0.041006 
60.945873 0.046195 
61.010864 0.522596 
61.484314 0.04366 
61.65366 0.026481 
61.925476 0.030726 
61.958885 0.033848 
62.018681 0.168855 
62.261757 0.044566 
62.266392 0.032313 
62.534191 0.030155 
63.12439 0.035045 
63.387238 0.045116 
63.87603 0.025368 
65.029816 0.036149 
65.686623 0.046843 
65.738701 0.037556 
65.800217 0.024083 
65.84655 0.038379 
66.365517 0.030103 
66.933487 0.035203 
67.135033 0.032054 
67.203857 0.033386 
67.517311 0.030232 
67.529533 0.023311 
68.049561 0.237354 
68.23101 0.040323 
68.506851 0.034787 
68.82795 0.035447 
69.799675 0.037768 
70.525841 0.037484 
71.072205 0.045598 
71.164619 0.024409 
71.647316 0.03805 
71.954689 0.043423 
72.783051 0.041556 
72.790703 0.035244 
72.859428 0.037234 
73.038559 0.036099 
74.155357 0.03428 
74.847382 0.037445 
74.969276 0.038069 
74.976143 0.038171 
75.012383 0.034999 
76.248756 0.030801 
76.273384 0.039233 
76.447517 0.035036 
77.198463 0.033702 
77.524643 0.038251 
77.652359 0.033453 
77.725128 0.034476 
77.753838 0.033403 
78.269562 0.040888 
78.489304 0.035191 
78.533447 0.032038 
79.730812 0.045992 
80.772079 0.037794 
81.069923 0.034197 
81.408562 0.044041 
81.823006 0.039472 
82.068291 0.030896 
83.437355 0.046284 
84.044449 0.035516 
84.264893 0.044782 
84.664833 0.027071 
86.06002 4.071362 
86.964989 0.036685 
88.659828 0.040686 
89.085831 0.040443 
89.400406 0.033876 
90.096573 0.043824 
90.181999 0.035692 
90.871674 0.040701 
90.88755 0.035933 
90.947746 0.102209 
91.154945 0.031588 
91.487953 0.031257 
92.049324 0.181546 
93.044823 0.067379 
94.06514 0.077248 
94.097847 0.043092 
95.060371 0.049757 
95.085411 0.063018 
95.557884 0.043868 
96.044456 0.204639 
98.036171 0.134266 
98.975372 9.629249 
98.979095 0.062045 
99.97052 0.041409 
102.665207 0.037466 
102.678314 0.040598 
104.049263 0.043592 
105.044731 3.49434 
105.55101 0.033008 
105.633926 0.042632 
106.355408 0.039589 
106.62146 0.044226 
106.703987 0.041541 
107.060387 1.881929 
108.044327 1.003083 
109.039536 0.027627 
109.076004 0.043614 
109.31218 0.026431 
110.060005 0.949284 
110.94902 0.037421 
111.276688 0.045645 
111.477264 0.036747 
112.039276 0.483758 
112.435921 0.04017 
112.694221 0.039782 
113.659477 0.049439 
114.965179 0.052245 
115.257736 0.036289 
116.981903 0.068341 
116.985924 4.0257 
117.720634 0.041024 
118.065147 0.157193 
118.087738 0.041019 
118.352783 0.035142 
119.060341 0.929091 
119.39389 0.035535 
120.044327 0.048689 
120.064117 0.034907 
120.425232 0.034701 
121.039497 0.048489 
121.478577 0.04494 
121.838287 0.044758 
122.012573 0.040915 
122.060074 0.23701 
122.266991 0.047093 
123.000839 0.035929 
123.055275 5.606438 
123.162506 0.042242 
123.879539 0.042316 
124.039078 0.046505 
124.075912 0.185228 
126.054962 0.064635 
126.45607 0.038607 
127.090279 0.042559 
130.064865 0.041164 
131.060333 0.546254 
132.04425 0.494497 
132.068283 0.453013 
132.074387 0.035902 
132.958252 1.245993 
133.039642 1.463125 
133.052628 0.039489 
133.076096 0.196961 
134.996414 1.028316 
135.055206 1.175459 
135.574982 0.041568 
136.039383 0.157747 
138.054993 0.916415 
139.050201 0.437406 
139.063049 0.032418 
139.086777 0.088409 
140.855621 0.03669 
142.015182 0.037904 
142.064682 0.056191 
144.080887 0.049796 
145.07634 0.078747 
146.060211 0.128653 
146.974625 0.084367 
147.055237 0.759459 
148.06311 0.135326 
148.075531 0.172615 
148.971756 0.078501 
149.059784 0.29663 
149.070892 0.374727 
150.054886 0.86603 
150.968918 0.407185 
151.050217 3.872587 
151.694611 0.036161 
152.03418 0.530949 
152.053253 0.032375 
153.065796 0.089829 
153.959641 0.025763 
154.050171 0.031858 
154.69046 0.032747 
155.573532 0.044267 
155.814026 0.043406 
156.794708 0.044006 
157.060791 0.15957 
157.075989 0.65845 
157.365128 0.034216 
158.071106 0.058894 
158.083374 0.051649 
158.344788 0.034278 
159.055206 3.028653 
159.091568 0.461366 
159.523071 0.042821 
160.064148 0.042841 
160.075302 0.045276 
160.286026 0.035425 
161.070923 0.895684 
162.043396 0.039597 
162.054825 0.536287 
163.050339 0.16977 
163.086395 0.762218 
163.977448 0.041843 
164.034668 0.048245 
164.070618 0.448667 
164.50209 0.039638 
164.885666 0.040359 
165.053986 0.045654 
165.065887 0.728099 
165.288773 0.035866 
165.9664 0.042906 
166.774033 0.033153 
166.827682 0.047704 
169.07605 0.927994 
170.083466 0.040163 
171.079056 0.132118 
171.091415 0.767341 
172.453186 0.044136 
173.070969 0.40962 
174.102798 0.033237 
175.050156 1.47696 
175.086426 0.209899 
176.057877 1.233114 
176.070511 0.028184 
176.082581 0.043719 
176.690659 0.041631 
177.066025 3.508856 
178.070145 0.03449 
178.097336 0.032183 
179.314713 0.042696 
181.908554 0.038139 
182.044846 0.808735 
182.553619 0.03676 
184.086945 0.489094 
185.055786 0.078597 
185.070908 3.438068 
185.115738 0.044688 
185.750854 0.040799 
186.065903 0.197512 
186.0784 0.189325 
186.102615 0.493802 
186.878159 0.805425 
187.050217 0.355338 
187.08667 2.415916 
187.886688 0.043246 
188.070541 1.677937 
188.081146 0.046548 
188.966705 0.045117 
189.065887 1.50799 
189.078247 2.220384 
189.102692 0.059275 
190.050018 0.043568 
190.073532 0.837717 
190.096649 0.045701 
191.081421 3.384317 
191.901627 0.160699 
192.065277 0.030379 
192.084824 0.049772 
192.113373 0.027315 
192.961823 0.145924 
193.06073 0.477536 
194.591614 0.043965 
195.896881 0.043832 
196.08551 0.042705 
196.398956 0.044854 
196.469803 0.028849 
196.917938 0.091952 
197.070862 0.857539 
197.185623 0.035933 
199.074066 0.133125 
199.085495 0.074207 
199.100922 0.046242 
200.081726 1.323272 
200.964737 0.042317 
201.065735 2.733621 
201.831573 0.037876 
202.061172 0.112018 
202.073593 0.366185 
202.086349 0.471192 
202.097214 1.256541 
202.873642 0.037059 
203.081314 2.442975 
203.115799 0.04439 
204.052948 10.233491 
204.063965 0.074018 
204.076431 2.611482 
204.888031 6.116207 
205.058151 0.517073 
205.099457 0.036529 
206.081161 0.101405 
206.108261 0.054656 
206.926315 0.210564 
206.977615 2.361666 
207.076447 0.104566 
209.876068 3.548757 
210.883881 0.082842 
211.891678 0.036823 
212.081848 1.514501 
212.800446 0.042525 
213.065826 3.861899 
213.089203 0.041648 
214.073196 1.786675 
214.097519 3.588883 
214.537704 2.129246 
214.646057 0.039049 
214.990494 0.049492 
215.070053 0.431533 
215.081451 6.230113 
216.065598 0.049396 
216.076523 0.701845 
216.113922 0.04841 
217.060547 0.277745 
217.085342 0.056605 
217.097061 0.410457 
217.724579 0.037788 
218.068451 0.376398 
218.080704 0.045593 
218.092148 0.122127 
219.07637 100.0 
219.867508 0.040839 
220.079941 11.902675 
220.883942 0.078973 
220.903152 0.605007 
221.04921 0.039753 
221.082138 0.511088 
221.875656 0.048087 
222.89859 60.134216 
222.923904 0.037505 
223.419159 0.040118 
223.900055 3.381775 
224.027802 0.041557 
225.065948 0.091348 
226.793884 0.033475 
227.08078 0.044513 
228.076721 6.274996 
229.060776 2.665865 
229.08432 0.685584 
229.096802 0.907836 
229.895905 44.382496 
230.06842 2.462153 
230.092117 7.434132 
230.897781 3.685273 
231.076416 5.76705 
231.097229 0.490253 
231.867218 0.038589 
232.04834 0.041252 
232.0811 0.213197 
232.108002 1.155976 
232.884186 0.058379 
233.092056 1.894439 
233.104858 0.129593 
234.076218 0.085321 
235.071671 0.27358 
235.891113 0.132861 
236.898468 0.031008 
236.913116 0.029816 
237.293091 0.029876 
237.884735 0.051584 
237.921921 0.253504 
238.893463 0.163492 
238.913696 0.516432 
239.886887 0.084666 
240.076599 3.354843 
240.909256 56.426773 
241.060715 0.952653 
241.082474 0.459389 
241.910431 3.348139 
242.069244 0.261394 
242.092422 26.337023 
242.199478 0.046348 
242.913269 0.189152 
243.07634 1.409031 
244.07132 0.109321 
244.107895 0.86274 
244.98172 0.0427 
245.09201 4.689757 
245.104584 0.044156 
245.554382 0.049058 
246.06369 0.07546 
246.086823 0.092992 
246.095306 0.045453 
246.122696 0.073794 
246.664398 0.037963 
246.898499 4.106059 
247.071243 48.231609 
247.90654 21.178289 
248.074905 6.917761 
248.908875 1.230043 
249.077438 0.062105 
249.193832 0.044728 
249.84758 0.044131 
249.908386 0.089311 
250.938232 0.087894 
251.887314 0.028523 
253.902161 0.129292 
254.924667 0.162413 
255.254181 0.044488 
256.072876 0.032162 
257.078979 0.266772 
257.473663 0.045685 
258.063568 0.288723 
258.087494 7.300102 
259.09082 0.420696 
259.454376 0.040381 
259.732361 0.046446 
260.102997 2.737414 
261.086914 1.868787 
261.10379 0.111398 
261.885681 0.733167 
261.983276 0.045293 
262.917603 0.035131 
263.570435 0.04418 
263.886444 1.344385 
263.90152 0.120128 
263.924103 0.043881 
264.088318 0.044892 
264.909271 30.521206 
265.086426 0.036423 
265.911377 2.491631 
268.038391 0.041141 
268.671722 0.047427 
273.087097 4.211886 
274.089813 0.051528 
275.070801 0.094279 
275.934204 0.042402 
277.04953 0.095386 
278.113617 0.040841 
278.924957 0.456355 
279.896362 3.966992 
280.086121 0.037545 
281.911713 2.12112 
282.919647 16.011839 
283.901825 0.038078 
283.921539 1.234337 
284.9245 0.030993 
286.049774 3.143701 
288.909241 5.981285 
290.113312 3.824244 
291.097748 0.130143 
291.116425 0.163814 
291.14444 0.041311 
292.076233 0.040977 
292.199127 0.18009 
292.947815 0.060252 
293.439667 0.047183 
293.945068 0.231459 
296.934509 0.088493 
297.906769 0.491855 
298.049103 0.324348 
299.033234 0.045024 
300.028809 0.259196 
301.930542 0.049596 
302.212402 0.040854 
302.522186 0.033987 
304.060486 5.398046 
304.127228 0.040998 
306.116669 0.036046 
306.919556 16.565189 
307.921814 1.213857 
309.943329 0.049161 
311.334717 0.042885 
316.060425 2.014951 
318.039978 0.320901 
318.075836 0.557261 
321.146667 0.555524 
322.070831 0.675957 
324.930054 1.969415 
326.150085 0.040453 
329.94162 0.039562 
330.039001 0.049199 
334.070435 2.333336 
336.086151 0.572652 
347.644897 0.045967 
348.049774 0.087716 
350.186432 2.723459 
351.163361 0.0893 
351.188141 2.398542 
352.191742 0.053634 
354.133209 0.823174 
357.58783 0.048105 
361.276611 0.041875 
362.859344 0.041369 
END IONS

