BEGIN IONS
PEPMASS=331.151
CHARGE=1+
COMPOUNDNAME=SPECTINOMYCIN
LIBRARYQUALITY=3
SMILES=N/A
INCHIKEY=UNFWWIHTNXNPBV-WXKVUWSESA-N
INCHI=InChI=1S/C14H24N2O7/c1-5-4-6(17)14(20)13(21-5)22-12-10(19)7(15-2)9(18)8(16-3)11(12)23-14/h5,7-13,15-16,18-20H,4H2,1-3H3/t5-,7-,8+,9+,10+,11-,12-,13+,14+/m1/s1
MSLEVEL=2
SOURCE_INSTRUMENT=N/A-ESI-QFT
FILENAME=library_mgf.mgf
SEQ=*..*
IONMODE=negative
ORGANISM=MONA
NAME=SPECTINOMYCIN [M-H]-
PI=MoNA
DATACOLLECTOR=MoNA:VF-NPL-QEHF003417
PUBMED=N/A
SUBMITUSER=mwang87
TAGS=
SPECTRUMID=CCMSLIB00004694480
SCANS=3417
50.085884 0.007946 
50.099693 0.131636 
50.120724 0.108269 
50.516239 0.045197 
50.612595 0.035736 
51.022804 0.235219 
51.053246 0.017304 
51.154282 0.017115 
51.162586 0.232577 
51.270962 0.026961 
51.311615 0.147841 
51.636589 0.007743 
52.308842 0.122639 
52.942776 0.016511 
53.026428 0.124691 
54.481983 0.019873 
54.77309 0.181032 
54.885101 0.006695 
55.017593 1.166225 
55.222843 0.068636 
55.518894 0.129778 
55.625221 0.136683 
55.793259 0.067913 
55.820541 0.129785 
56.343643 0.062619 
57.030586 0.167693 
57.03323 0.695059 
57.154312 0.018541 
57.220425 0.145826 
57.601624 0.060113 
57.81831 0.010753 
57.952278 0.121415 
58.004658 2.6777 
58.028469 2.448962 
58.25993 0.00638 
58.319111 0.00773 
58.931332 0.00935 
59.011063 0.194569 
59.012455 11.017467 
59.241253 0.20536 
59.355556 0.008573 
59.652279 0.087648 
59.750538 0.129006 
60.513466 0.036516 
60.551792 0.064183 
60.658375 0.009919 
60.724339 0.062192 
61.578831 0.022016 
62.252529 0.111591 
64.234085 0.010253 
64.285591 0.082828 
64.92469 0.050469 
65.513641 0.019342 
65.547852 0.074058 
66.033592 0.173575 
66.870872 0.018969 
66.937309 0.120646 
67.017563 3.123567 
68.044044 0.017028 
68.063377 0.007737 
68.391281 0.085069 
68.632935 0.040689 
69.033226 100.0 
69.624176 0.011132 
70.028442 3.815143 
70.036568 3.338021 
71.012474 30.741194 
71.048866 19.866335 
71.33593 0.019233 
71.932114 0.008981 
72.044136 0.073332 
72.991676 1.582315 
73.016525 0.011725 
73.028152 71.751808 
73.265663 0.104818 
73.635025 0.047709 
74.023338 0.246039 
74.031532 0.907044 
74.390831 0.008081 
74.78228 0.009996 
74.982063 0.010279 
75.007408 10.250905 
75.502762 0.228957 
75.790207 0.020076 
75.796188 0.040242 
76.791168 0.00755 
77.65657 0.016105 
78.242065 0.121369 
78.330299 0.086763 
79.017548 8.166617 
79.094009 0.007266 
79.955971 0.148613 
80.96347 0.012362 
80.973923 0.128409 
81.020546 0.308971 
81.033211 7.455683 
81.393776 0.124066 
81.396881 0.008663 
82.022247 0.070763 
82.136803 0.11819 
83.01252 0.01475 
83.04882 0.125722 
83.093513 0.124422 
83.761551 0.258183 
84.020279 0.413505 
84.044136 4.807356 
84.169632 0.069342 
85.015602 11.257339 
85.028152 32.165447 
86.031464 0.09946 
86.059868 0.362923 
87.007431 0.985911 
87.0438 1.285664 
88.039009 0.274936 
89.809929 0.205379 
91.318787 0.177827 
92.175552 0.018687 
92.926704 0.252509 
94.028496 0.025536 
94.403114 0.036714 
94.923729 0.888907 
94.979401 0.075607 
95.012634 1.100932 
95.255653 0.079279 
95.392639 0.036262 
95.970474 0.176919 
96.044151 1.761803 
96.303459 0.124127 
96.44725 0.008348 
96.920837 0.23533 
96.958855 0.07979 
97.010132 0.010205 
97.028198 74.472595 
97.220764 0.00778 
98.02388 0.050599 
98.031593 2.259007 
98.851944 0.165349 
98.908928 0.069639 
99.03125 0.740718 
99.043884 7.108506 
99.45829 0.082086 
99.924522 0.063026 
100.011475 0.198533 
100.039101 25.829695 
100.342644 0.011549 
100.932266 0.152982 
101.070953 0.243358 
101.29184 0.116751 
101.344185 0.207537 
102.054764 14.773253 
102.511223 0.159423 
103.096466 0.050707 
104.986847 0.129541 
105.975357 0.143244 
107.036697 0.18729 
108.044212 0.041097 
108.57869 0.111544 
110.620941 0.011222 
110.695595 0.009302 
111.353561 0.093071 
112.039131 0.920308 
112.208496 0.035478 
112.695107 0.007436 
113.023094 0.31471 
113.290108 0.12724 
113.871208 0.210904 
114.054909 1.377026 
114.129257 0.079189 
115.038902 10.59216 
115.352913 0.00687 
115.919533 0.250034 
116.668205 0.00695 
116.776901 0.01063 
116.927368 0.06195 
117.589119 0.00912 
117.657104 0.042092 
119.4916 0.125438 
119.671684 0.021018 
120.893883 0.006521 
121.051582 0.008197 
121.935295 0.165778 
123.007439 0.013682 
123.53257 0.019506 
124.015572 0.023569 
124.038574 0.294278 
124.058907 0.126014 
124.43866 0.203745 
124.823936 0.069848 
125.023285 11.567009 
125.096046 0.019847 
125.871811 0.008479 
129.254822 0.149475 
130.049789 14.344467 
130.873947 0.126443 
131.416351 0.073548 
135.044128 0.009983 
135.702621 0.009108 
137.100845 0.202052 
137.649857 0.029175 
137.858078 0.02033 
138.271652 0.008793 
138.499115 0.038173 
138.791962 0.023834 
139.4039 0.03849 
139.8983 0.045054 
140.657196 0.124672 
141.867035 0.053217 
142.026077 2.526839 
143.033859 10.881615 
143.864151 0.214892 
145.756302 0.012707 
145.861221 0.015852 
147.418045 0.017345 
148.051498 0.012003 
148.754822 0.020274 
149.773605 0.257418 
150.097595 0.22087 
152.966797 0.043353 
155.011078 0.019842 
156.304214 0.039742 
156.401703 0.009783 
159.877823 0.0105 
159.911331 0.080597 
160.841187 0.089785 
161.47081 0.02458 
162.838181 0.553726 
162.87915 0.008176 
164.057404 0.008525 
164.835251 0.50054 
165.037521 0.072672 
172.249878 0.044293 
173.098892 0.022682 
173.761292 0.188542 
174.728073 0.009441 
176.440506 0.045193 
176.857895 0.008055 
180.697266 0.024317 
182.518646 0.009428 
184.048065 0.011154 
187.407196 0.134621 
190.917145 0.050028 
192.251389 0.047641 
193.280014 0.052119 
194.727402 0.216039 
198.282684 0.198049 
198.715149 0.010864 
199.804001 0.009779 
205.430115 0.009329 
205.526825 0.073349 
205.938049 0.204184 
207.462341 0.071053 
208.976898 0.008013 
209.742737 0.028937 
211.604996 0.134398 
212.321793 0.052182 
214.026352 0.195681 
218.859711 0.213925 
220.146606 0.015435 
220.205521 1.710293 
220.232193 0.040632 
220.298492 0.077163 
221.154312 0.073704 
221.780167 0.082926 
221.99115 0.028875 
222.087311 0.027215 
222.158585 0.013577 
228.286545 0.050027 
228.77951 0.134872 
228.837234 0.077329 
233.779251 0.129702 
233.907761 0.133359 
236.428955 0.007981 
237.508224 0.026125 
238.740936 0.08496 
239.788132 0.183494 
239.876663 0.035223 
240.461426 0.070514 
240.56749 0.009695 
240.86908 0.039103 
240.884613 0.240594 
241.160446 0.008469 
242.850906 0.019999 
242.863983 2.459329 
243.566116 0.017056 
243.863968 0.224094 
244.843613 0.46234 
244.860779 0.61399 
245.842773 0.009065 
245.859985 0.014275 
246.840271 0.012563 
247.825867 0.008807 
248.140945 0.209393 
248.189163 0.030535 
248.862762 0.010847 
249.215454 0.211554 
249.843964 0.180284 
250.968063 0.157996 
252.977234 0.081383 
254.864761 0.008943 
255.730148 0.146675 
257.010315 0.010342 
257.887421 0.230923 
258.333191 0.020916 
258.895508 0.051788 
259.677338 0.021213 
259.88443 0.026088 
260.830139 0.050159 
260.889374 0.008718 
262.82605 0.010972 
268.275757 0.029458 
268.88028 0.043795 
272.716003 0.052899 
275.898163 0.10297 
276.954803 0.020779 
277.663818 0.124725 
278.589844 0.036656 
280.905762 0.036019 
286.501099 0.019016 
288.30545 0.009309 
293.881439 0.134778 
294.964508 0.009656 
296.179779 0.009459 
297.351471 0.237644 
298.104401 0.160833 
300.163269 0.21174 
301.559052 0.051749 
303.16687 0.076159 
305.908936 0.120681 
306.561768 0.053857 
306.935333 0.222495 
316.882568 0.014933 
318.060181 0.008418 
320.811951 0.008291 
321.015686 0.151324 
324.77536 0.230128 
333.880402 0.02291 
344.77597 0.06592 
344.896515 0.02055 
350.470093 0.008737 
354.311096 0.039547 
END IONS

