BEGIN IONS
PEPMASS=174.088
CHARGE=1+
COMPOUNDNAME=L-citrulline
LIBRARYQUALITY=3
SMILES=N/A
INCHIKEY=RHGKLRLOHDJJDR-BYPYZUCNSA-N
INCHI=InChI=1S/C6H13N3O3/c7-4(5(10)11)2-1-3-9-6(8)12/h4H,1-3,7H2,(H,10,11)(H3,8,9,12)/t4-/m0/s1
MSLEVEL=2
SOURCE_INSTRUMENT=N/A-ESI-QFT
FILENAME=library_mgf.mgf
SEQ=*..*
IONMODE=negative
ORGANISM=MONA
NAME=L-citrulline [M-H]-
PI=MoNA
DATACOLLECTOR=MoNA:VF-NPL-QEHF000502
PUBMED=N/A
SUBMITUSER=mwang87
TAGS=
SPECTRUMID=CCMSLIB00004691565
SCANS=502
50.016636 0.008453 
51.843971 0.009468 
51.876816 0.008907 
52.684589 0.005807 
53.735172 0.00412 
53.923931 0.008958 
55.085587 0.010418 
55.175552 0.003842 
55.915417 0.008438 
56.396523 0.008352 
57.087849 0.00744 
58.365379 0.01485 
58.41246 0.009096 
58.448402 0.00571 
58.615971 0.008194 
58.825123 0.010565 
59.012482 0.015977 
59.273705 0.003166 
59.919563 0.003822 
60.974091 0.003828 
63.961128 0.198209 
65.680466 0.008409 
66.97654 0.008087 
67.994766 0.005326 
68.009903 0.009768 
69.154221 0.007602 
69.356445 0.01003 
70.138878 0.003507 
70.830986 0.010379 
72.358841 0.00882 
73.564812 0.009319 
73.820122 0.003413 
76.00985 0.010181 
78.730377 0.007396 
78.984596 1.917164 
78.986984 0.016769 
79.953384 0.007864 
79.956039 2.993324 
80.51033 0.007885 
80.608536 0.010092 
80.96386 0.748155 
80.980309 0.026269 
81.951843 0.068373 
82.713005 0.009132 
82.887794 0.010371 
83.530174 0.00904 
86.788094 0.007389 
87.607742 0.007325 
89.29184 0.00809 
89.924278 0.011723 
93.000496 0.018117 
93.971687 1.366071 
95.967361 0.013477 
95.975822 0.004022 
96.767639 0.009945 
96.958717 0.22558 
97.446068 0.009436 
99.924576 0.016258 
100.932396 0.1015 
102.604881 0.008252 
102.757339 0.019714 
102.760666 0.015385 
103.139633 0.008064 
104.785553 0.007916 
104.817589 0.009326 
104.922745 0.00778 
105.03363 0.009751 
109.512245 0.007453 
109.94883 0.007612 
109.966698 0.159279 
111.080353 0.053024 
113.070717 0.007441 
114.054749 0.108146 
115.919456 0.194802 
116.927322 0.163147 
117.999069 0.007308 
118.968971 0.011198 
119.474731 0.007774 
121.594444 0.003792 
124.936089 0.123554 
125.289665 0.008698 
125.961411 0.00869 
126.951881 0.552052 
127.106773 0.015478 
127.111717 2.147441 
128.115189 0.135029 
130.943237 0.021322 
131.072357 0.336056 
131.081421 100.0 
131.495209 0.010718 
132.07872 0.67052 
132.084641 5.165581 
132.709045 0.00897 
133.085953 0.107605 
135.173325 0.009223 
135.369339 0.009039 
140.94873 0.004175 
141.889679 0.005036 
141.95639 0.111556 
142.897171 0.073495 
142.923752 0.031335 
142.943039 0.725079 
143.897903 0.129155 
143.943222 0.006521 
144.896591 0.120312 
145.122086 0.020254 
145.87822 0.010708 
145.897766 0.020956 
154.946243 0.45662 
155.107208 0.007315 
155.945465 0.005298 
157.060684 0.435188 
157.91626 0.442751 
157.933853 0.107197 
159.912445 0.021443 
172.096725 0.006081 
172.10524 0.044516 
172.907959 0.045021 
172.939804 0.36417 
172.957474 50.733734 
173.024979 0.006321 
173.080627 0.072316 
173.117386 10.833808 
173.908539 0.276795 
173.937073 0.023172 
173.96077 0.875205 
174.087433 1.717617 
174.120728 1.076539 
174.907471 0.247462 
174.924942 0.009253 
174.933762 0.41141 
174.953323 4.647449 
174.961594 0.533827 
175.091003 0.038836 
175.122604 0.004863 
175.908783 0.059469 
175.933929 0.00427 
175.957169 0.012087 
179.161682 0.009107 
179.611008 0.00989 
183.966217 0.010816 
187.127289 0.009851 
188.606857 0.007418 
194.753677 0.007718 
END IONS

