BEGIN IONS
PEPMASS=283.165
CHARGE=1+
COMPOUNDNAME=ANISOMYCIN
LIBRARYQUALITY=3
SMILES=N/A
INCHIKEY=YKJYKKNCCRKFSL-BFHYXJOUSA-N
INCHI=InChI=1S/C14H19NO4/c1-9(16)19-14-12(15-8-13(14)17)7-10-3-5-11(18-2)6-4-10/h3-6,12-15,17H,7-8H2,1-2H3/t12-,13+,14+/m0/s1
MSLEVEL=2
SOURCE_INSTRUMENT=N/A-ESI-QFT
FILENAME=library_mgf.mgf
SEQ=*..*
IONMODE=positive
ORGANISM=MONA
NAME=ANISOMYCIN [M+NH4]+
PI=MoNA
DATACOLLECTOR=MoNA:VF-NPL-QEHF027601
PUBMED=N/A
SUBMITUSER=mwang87
TAGS=
SPECTRUMID=CCMSLIB00004721182
SCANS=27601
50.295185 0.007309 
51.023594 0.013922 
52.571896 0.007245 
53.732613 0.010453 
53.794567 0.007947 
54.018848 0.009647 
54.534458 0.009122 
55.018154 0.215952 
55.054684 0.009962 
55.438053 0.009589 
56.021496 0.023617 
56.049789 1.864177 
56.901039 0.007372 
56.916187 0.007025 
56.971828 0.006802 
57.033798 3.755214 
57.046906 0.007608 
57.053123 0.460553 
57.07016 0.339964 
57.236858 0.007962 
57.901657 0.006222 
58.029041 0.015431 
58.037125 1.01603 
58.065468 0.025388 
59.037933 0.081528 
59.258064 0.005613 
59.610622 0.00751 
59.65263 0.007934 
59.921448 0.007538 
60.044636 6.629284 
60.08102 0.355847 
60.161785 0.010527 
61.010883 0.856485 
61.041618 0.106944 
61.047981 1.020859 
61.35181 0.01131 
61.5788 0.011304 
62.014194 0.010164 
62.018669 0.236902 
62.048832 0.119247 
62.323608 0.010231 
63.006676 0.023428 
64.141167 0.006287 
67.054436 0.008748 
67.361137 0.007718 
68.049614 0.999268 
68.051476 0.010721 
68.202553 0.007077 
68.662102 0.009593 
69.013786 0.007521 
69.052902 0.321192 
69.07003 0.021877 
70.065231 1.926485 
70.94693 0.009911 
71.06221 0.008723 
71.068588 0.67577 
71.868141 0.009406 
72.044441 0.884214 
72.511177 0.010244 
73.047829 0.142951 
74.060097 1.243186 
74.754227 0.007377 
75.044167 0.020935 
75.055321 0.108757 
75.063416 0.317069 
75.47924 0.01133 
76.237854 0.008419 
77.038826 0.036848 
77.098976 0.007903 
77.864868 0.007751 
78.046684 0.14885 
79.049957 0.037809 
80.049469 0.49509 
80.94783 0.011247 
81.018555 0.097138 
81.033592 0.044195 
81.036598 0.008305 
81.052826 0.149147 
81.070053 0.030707 
81.150398 0.010332 
83.085541 0.049193 
84.044464 0.693926 
84.080795 0.024514 
84.109573 0.007834 
84.237137 0.006336 
84.896912 0.010949 
85.039658 0.276134 
85.047737 0.185577 
85.101227 0.089195 
86.060059 0.12127 
86.615639 0.006265 
87.055351 0.760253 
87.28949 0.005904 
88.039299 0.018656 
88.058975 0.00846 
88.114494 0.010827 
88.433846 0.008569 
88.470078 0.010061 
89.059669 0.044464 
89.908142 0.009905 
90.054955 0.08224 
90.869293 0.009273 
91.051277 0.007272 
91.054253 0.497045 
92.05761 0.340642 
93.069878 0.074854 
93.381828 0.010441 
93.430214 0.008935 
93.986969 0.010462 
94.073303 0.043694 
94.367767 0.011819 
94.931259 0.006374 
95.049423 0.008618 
95.085556 0.079741 
96.052498 0.005976 
96.257278 0.01051 
97.129288 0.009495 
98.06012 7.598299 
99.057419 0.077673 
99.063461 3.599761 
100.039337 0.110331 
100.06414 0.195966 
100.06723 0.022996 
101.003532 0.014358 
101.87957 0.010405 
104.992378 0.412366 
105.033821 0.010748 
105.089653 0.007519 
105.284325 0.008095 
106.041168 0.018111 
106.065323 0.018866 
106.073532 0.00921 
107.048943 0.008259 
107.715126 0.010917 
109.064873 0.06838 
109.101089 0.008375 
109.301125 0.011979 
109.522881 0.011651 
110.068359 0.019678 
114.054649 0.00594 
115.036606 0.009973 
115.054504 0.007922 
115.980537 0.00835 
116.058075 0.00886 
116.070656 0.76951 
117.065933 0.855916 
117.073738 0.348534 
117.862068 0.010312 
118.065048 0.10595 
118.069176 0.01036 
118.074081 0.009152 
118.090622 0.008938 
119.049225 0.03907 
119.060448 0.007165 
119.068626 0.103711 
119.085571 0.024246 
120.052536 0.07461 
120.064102 0.007793 
120.180519 0.010339 
121.056961 0.022331 
121.06488 100.0 
122.068153 97.319778 
122.438965 0.010417 
123.071091 6.256495 
123.517487 0.010903 
124.072357 0.317749 
124.083679 0.018796 
124.423729 0.009517 
124.59462 0.006395 
128.070419 0.009106 
130.073441 0.017404 
131.059982 0.010935 
133.060074 0.024634 
133.06488 0.040784 
134.06813 0.020689 
134.769135 0.00968 
134.97876 0.485968 
135.002838 0.129994 
135.080399 0.38059 
136.076263 0.007892 
136.083817 0.33532 
137.059814 0.22983 
140.070847 0.006472 
142.330688 0.008908 
142.897888 0.009457 
144.056961 0.789824 
145.065323 3.799306 
146.068146 6.26459 
146.835983 0.00907 
146.974915 0.008658 
146.996613 0.007835 
147.070999 0.471087 
147.080566 4.07124 
148.071594 0.469012 
148.083755 6.385203 
148.445465 0.010127 
148.617355 0.009882 
149.087036 0.531511 
149.096115 0.702404 
150.09137 3.156664 
150.099457 1.1364 
150.520721 0.009668 
151.07547 0.282443 
151.088699 0.147643 
151.094711 4.312519 
152.078629 0.361826 
152.09787 0.390176 
152.989365 0.39947 
155.355896 0.008739 
156.080719 0.049036 
157.083572 0.077035 
157.089401 0.025731 
158.092041 0.246324 
159.080475 5.958687 
159.267685 0.009106 
159.963913 0.010059 
160.083801 11.341184 
160.96167 0.051172 
161.079163 0.242433 
161.086945 1.469367 
161.09613 1.642516 
161.136047 0.013162 
162.091339 0.601912 
162.099304 3.10987 
163.075394 0.417461 
163.094803 0.745981 
163.101944 0.297635 
164.078827 0.758101 
164.102844 0.13076 
164.920593 0.084716 
165.007065 0.026378 
165.080948 0.008433 
166.086121 0.046227 
169.89502 0.012525 
171.000549 0.01055 
171.080551 0.986856 
172.075592 0.012393 
172.083817 2.535028 
173.083923 0.586524 
174.067627 0.012196 
174.086899 1.2523 
174.941147 0.010772 
175.071426 0.023373 
175.089905 0.048477 
175.108307 0.006941 
176.107117 0.101901 
177.091095 0.698106 
177.110519 0.481626 
178.094467 1.479174 
178.123032 0.019115 
179.022293 0.016686 
179.097092 0.207433 
179.126221 0.105178 
179.783356 0.007574 
179.954407 0.099794 
183.527237 0.010381 
184.192398 0.007106 
186.091385 0.091673 
187.094788 0.329303 
188.107101 7.227355 
189.091187 1.116835 
189.110504 18.424677 
189.967484 0.01133 
190.094513 2.597119 
190.113617 3.169861 
190.945892 0.007576 
191.096939 0.505836 
191.115646 0.082944 
192.097977 0.098162 
192.95285 0.006389 
192.962097 0.425257 
193.970169 0.417348 
194.115662 0.020504 
195.109283 0.006804 
199.006332 0.414236 
202.952408 0.024907 
203.174713 0.012057 
203.331909 0.010348 
203.41124 0.010006 
203.954315 0.104316 
204.101822 0.006767 
204.157928 0.011927 
204.595566 0.010884 
204.951553 0.441354 
206.117691 25.091003 
207.000214 0.04552 
207.121078 73.106148 
208.123734 15.034264 
208.146408 0.010903 
209.126007 1.021448 
215.57753 0.265006 
215.586029 0.121279 
220.96286 0.012129 
221.136978 0.11795 
221.153137 0.023959 
221.174637 0.034726 
221.965408 0.03198 
222.111938 0.082648 
222.122421 0.094085 
222.146393 0.01143 
222.962524 0.261421 
223.11586 0.152144 
223.980515 0.011115 
224.128067 3.787005 
224.762238 0.011775 
225.010147 0.213717 
225.131561 12.749109 
226.133942 2.982438 
227.136185 0.154484 
237.433533 0.010498 
240.232117 0.713604 
245.713715 0.010565 
248.822556 0.010055 
249.532288 0.00925 
250.177765 78.878441 
251.100235 0.010396 
251.181274 11.715476 
251.266861 0.017944 
252.125488 0.009605 
252.157669 0.611518 
252.183792 0.971707 
263.1474 0.057283 
264.109222 0.007051 
264.193634 0.474594 
265.140381 0.020182 
268.074615 0.009999 
268.991943 0.007056 
280.63913 0.009942 
281.15802 32.939365 
282.0737 0.012183 
282.132507 0.0895 
282.160461 11.777223 
282.203888 4.719262 
282.278839 0.065895 
282.315399 0.029041 
283.096588 0.319817 
283.137085 0.007795 
283.151093 0.346878 
283.165161 0.919842 
283.19223 0.008872 
283.207397 0.746356 
283.224274 0.212435 
283.263 2.436459 
284.03479 0.022562 
284.13974 0.073607 
284.166107 0.042144 
284.18399 0.012461 
284.22168 0.035059 
284.239624 0.014938 
284.266663 0.391494 
284.331177 17.407194 
285.129944 0.012492 
285.168365 0.051215 
285.203583 0.121632 
285.291626 0.048857 
285.334595 1.106665 
END IONS

