BEGIN IONS
PEPMASS=343.082
CHARGE=1+
COMPOUNDNAME=MoNA:2874481 Usnic acid
LIBRARYQUALITY=3
SMILES=N/A
INCHIKEY=CUCUKLJLRRAKFN-UHFFFAOYSA-N
INCHI=InChI=1S/C18H16O7/c1-6-14(22)12(8(3)20)16-13(15(6)23)18(4)10(25-16)5-9(21)11(7(2)19)17(18)24/h5,11,22-23H,1-4H3
MSLEVEL=2
SOURCE_INSTRUMENT=LC-ESI-QTOF-LC-ESI-QTOF
FILENAME=output_mgf.mgf
SEQ=*..*
IONMODE=
ORGANISM=MONA
NAME=MoNA:2874481 Usnic acid [M-H]-
PI=MoNA
DATACOLLECTOR=MoNA
PUBMED=N/A
SUBMITUSER=mwang87
TAGS=
SPECTRUMID=CCMSLIB00000569358
SCANS=6609
103.437 2.340234 
105.8617 2.610261 
139.0438 2.250225 
141.071 2.790279 
142.047 3.870387 
143.0844 1.980198 
145.0638 11.161116 
149.0573 1.980198 
159.0452 3.240324 
159.083 2.250225 
160.0514 5.580558 
161.0566 9.990999 
169.0679 3.60036 
170.0726 4.950495 
171.0421 10.441044 
173.055 3.690369 
185.0564 7.110711 
186.0276 4.050405 
187.0443 4.140414 
187.0797 3.870387 
188.0431 6.840684 
189.0542 27.0027 
189.0806 1.980198 
199.062 2.970297 
203.0745 9.0009 
203.9254 2.250225 
207.245 2.160216 
213.049 10.621062 
213.0678 3.060306 
214.02 3.060306 
214.0344 5.40054 
215.034 24.932493 
215.0531 3.240324 
215.9843 1.890189 
216.0411 2.520252 
216.0823 2.070207 
217.061 4.050405 
226.0652 1.890189 
229.047 42.394239 
231.0136 2.430243 
231.0639 51.125113 
231.1114 2.250225 
240.0361 2.790279 
241.0476 12.691269 
242.0651 2.970297 
243.0259 1.890189 
245.0404 4.050405 
255.0683 4.140414 
257.0421 37.083708 
257.1889 2.160216 
257.4896 2.160216 
259.0549 2.340234 
259.0782 2.070207 
262.6561 2.790279 
268.0323 1.890189 
269.0473 13.951395 
269.346 1.890189 
285.0408 12.961296 
286.0508 2.160216 
297.0778 3.690369 
299.045 2.160216 
299.0701 4.050405 
306.8661 3.060306 
313.0361 100.0 
313.087 6.480648 
313.1148 3.870387 
313.1378 2.430243 
314.2166 2.070207 
327.0465 6.120612 
327.1437 4.680468 
328.059 17.641764 
END IONS

