BEGIN IONS
PEPMASS=873.499
CHARGE=1+
COMPOUNDNAME=Pesticide4_Avermectin B1b_C48H72O14_(1'R,2S,4'S,5S,6R,8'R,10'E,12'S,13'S,14'E,16'E,20'R,21'R,24'S)-6-[(2S)-2-Butanyl]-21',24'-dihydroxy-5,11',13',22'-tetramethyl-2'-oxo-5,6-dihydrospiro[pyran-2,6'-[3,7,19]trioxatetracyclo[15.6.1.1~4,8~.0~20,24~]pentacosa[10,14,16,22]tetraen]-12'-yl 2,6-dideoxy-4-O-(2,6-dideoxy-3-O-methyl-alpha-L-arabino-hexopyranosyl)-3-O-methyl-alpha-L-arabino-hexopyranoside
LIBRARYQUALITY=1
SMILES=CCC(C)C1C(C=CC2(O1)CC3CC(O2)CC=C(C(C(C=CC=C4COC5C4(C(C=C(C5O)C)C(=O)O3)O)C)OC6CC(C(C(O6)C)OC7CC(C(C(O7)C)O)OC)OC)C)C
INCHIKEY=RRZXIRBKKLTSOM-XPNPUAGNSA-N
INCHI=InChI=1S/C48H72O14/c1-11-25(2)43-28(5)17-18-47(62-43)23-34-20-33(61-47)16-15-27(4)42(26(3)13-12-14-32-24-55-45-40(49)29(6)19-35(46(51)58-34)48(32,45)52)59-39-22-37(54-10)44(31(8)57-39)60-38-21-36(53-9)41(50)30(7)56-38/h12-15,17-19,25-26,28,30-31,33-45,49-50,52H,11,16,20-24H2,1-10H3/b13-12+,27-15+,32-14+/t25-,26-,28-,30-,31-,33+,34-,35-,36-,37-,38-,39-,40+,41-,42-,43+,44-,45+,47+,48+/m0/s1
MSLEVEL=2
SOURCE_INSTRUMENT=-Q-Exactive Plus Orbitrap Res 14k
FILENAME=Pesticide_Mix4_pos_14k.mzXML
SEQ=*..*
IONMODE=positive
ORGANISM=GNPS-COLLECTIONS-PESTICIDES-POSITIVE
NAME=Pesticide4_Avermectin B1b_C48H72O14_(1'R,2S,4'S,5S,6R,8'R,10'E,12'S,13'S,14'E,16'E,20'R,21'R,24'S)-6-[(2S)-2-Butanyl]-21',24'-dihydroxy-5,11',13',22'-tetramethyl-2'-oxo-5,6-dihydrospiro[pyran-2,6'-[3,7,19]trioxatetracyclo[15.6.1.1~4,8~.0~20,24~]pentacosa[10,14,16,22]tetraen]-12'-yl 2,6-dideoxy-4-O-(2,6-dideoxy-3-O-methyl-alpha-L-arabino-hexopyranosyl)-3-O-methyl-alpha-L-arabino-hexopyranoside M+H
PI=Dorrestein/Touboul
DATACOLLECTOR=lfnothias
PUBMED=n/a
SUBMITUSER=mwang87
TAGS=
SPECTRUMID=CCMSLIB00001058852
SCANS=4502
71.012932 1977.692871 
71.049225 22337.59375 
73.065193 27587.455078 
75.044624 1098.3927 
76.824463 1311.560303 
79.054314 38012.007812 
79.058983 1726.254517 
80.287987 1050.374634 
81.033524 4459.598633 
81.070206 84978.390625 
83.049225 7834.212402 
83.085854 2901.273193 
85.028687 34608.074219 
85.065125 25044.673828 
87.044289 28098.958984 
88.643585 1177.828613 
91.053879 12767.837891 
93.060295 1229.774414 
93.069679 33441.320312 
95.049301 281106.40625 
95.085426 17870.542969 
97.064697 89221.226562 
97.10096 2904.855957 
99.0802 6404.523926 
101.054115 1263.906128 
101.059479 9471.030273 
103.05381 1235.255493 
105.045052 1666.916626 
105.063438 1783.960083 
105.069534 24896.212891 
107.049278 11126.222656 
107.085022 23358.828125 
109.065086 52419.574219 
109.100891 47917.824219 
111.043739 22036.457031 
111.080521 2302.797607 
113.059929 303045.3125 
115.055275 1146.870972 
117.070221 6868.101562 
119.04863 4454.293945 
119.085548 21635.724609 
121.065277 13270.193359 
121.101646 34182.230469 
123.043495 1948.559082 
123.080978 16281.832031 
123.117264 56732.125 
125.059105 4072.689453 
127.075676 43769.875 
128.062378 2372.325928 
129.070389 5256.426758 
131.08551 16091.504883 
133.065063 6674.089844 
133.101486 16006.347656 
135.043655 5256.756836 
135.080887 12770.302734 
135.116608 15590.68457 
137.059174 1459.603638 
137.095718 6646.716797 
142.077057 2745.212402 
143.070129 4774.33252 
143.084732 17282.679688 
145.066208 11132.378906 
145.086151 231032.96875 
145.101028 20048.396484 
147.080566 13782.753906 
147.116226 6408.908691 
149.059784 1585.010498 
149.096054 2260.29834 
149.132324 2030.592529 
151.075272 8946.197266 
151.112534 27409.650391 
153.055099 7282.350098 
153.089233 1328.083862 
153.127304 10764.427734 
154.076767 2038.532959 
155.084869 2020.607422 
156.09375 4698.145508 
157.100861 9190.664062 
159.080856 7630.92334 
159.116821 10892.853516 
161.059387 4620.353516 
161.096222 6838.851074 
163.075058 5550.647949 
164.083206 2067.668213 
165.054413 2033.020996 
165.090622 7438.740723 
166.078918 2305.315186 
169.049683 1343.80957 
169.06427 1259.953857 
169.101486 10661.836914 
171.079651 5246.682129 
171.117722 15122.328125 
173.096756 8113.536133 
173.133484 2198.043213 
175.147507 5435.714844 
177.053757 1942.457764 
179.086746 1779.373169 
179.107208 2626.071533 
179.141327 2144.145264 
181.101776 6244.425781 
182.072006 1938.586914 
183.1017 6850.479004 
183.118149 5088.33252 
185.132477 2033.127686 
187.075821 2546.223633 
187.112244 7023.018066 
189.054871 6017.601074 
189.091858 7758.333984 
191.07048 2328.967529 
193.159348 84710.835938 
195.116943 1624.016968 
197.096695 11897.935547 
197.133377 1701.954346 
199.111694 17667.224609 
199.149246 1823.166016 
201.093353 1731.005493 
201.125824 2763.105469 
203.143097 2425.949463 
207.1026 7484.105469 
209.095779 1761.353149 
213.125168 1501.352295 
215.10701 13436.74707 
217.12355 7060.048828 
219.137283 5959.249512 
221.116791 1638.348999 
221.154221 1881.421875 
225.089828 6904.387207 
225.112244 6383.647461 
227.108505 2108.681152 
239.12912 6978.173828 
243.101196 8484.708984 
245.117661 78804.601562 
247.146957 1679.567871 
249.12677 2312.947266 
261.111023 16468.111328 
269.187012 1543.319336 
271.204895 1728.757568 
277.125061 1549.228882 
277.155701 1579.768311 
287.202637 13107.918945 
288.206787 28456.113281 
289.218811 13378.913086 
293.152008 2604.148193 
295.132904 2302.188477 
305.210541 8317.824219 
307.226898 7692.915527 
321.147552 2787.426025 
339.1604 7076.76709 
357.17215 10017.851562 
369.337311 1280.094971 
447.345581 42172.550781 
448.353119 13042.578125 
567.325256 1647.791748 
660.464478 1517.753418 
END IONS

