BEGIN IONS
PEPMASS=271.061
CHARGE=1+
COMPOUNDNAME=naringenin
LIBRARYQUALITY=3
SMILES=N/A
INCHIKEY=FTVWIRXFELQLPI-UHFFFAOYSA-N
INCHI=InChI=1S/C15H12O5/c16-9-3-1-8(2-4-9)13-7-12(19)15-11(18)5-10(17)6-14(15)20-13/h1-6,13,16-18H,7H2
MSLEVEL=2
SOURCE_INSTRUMENT=N/A-ESI-QFT
FILENAME=library_mgf.mgf
SEQ=*..*
IONMODE=negative
ORGANISM=MONA
NAME=naringenin [M-H]-
PI=MoNA
DATACOLLECTOR=MoNA:VF-NPL-QEHF013127
PUBMED=N/A
SUBMITUSER=mwang87
TAGS=
SPECTRUMID=CCMSLIB00004704190
SCANS=13127
50.163776 0.037666 
50.662712 0.034782 
50.767788 0.037313 
50.885143 0.033709 
51.195824 0.033691 
51.513546 0.036483 
51.761845 0.039297 
52.270145 0.034999 
52.353668 0.034874 
52.684692 0.036723 
52.940598 0.042168 
53.509739 0.030933 
53.671078 0.032779 
53.864414 0.039252 
54.8736 0.037329 
55.106743 0.036468 
55.216019 0.041726 
55.45277 0.037963 
55.628529 0.035406 
56.028976 0.044419 
56.09021 0.030114 
56.888538 0.036468 
57.069988 0.032145 
57.174545 0.030391 
57.566513 0.037926 
57.691238 0.037012 
57.718819 0.039803 
57.967857 0.040998 
57.974304 0.273146 
57.983631 0.034797 
57.987152 0.027853 
58.026348 0.03093 
58.787895 0.028015 
59.012516 8.254027 
59.174294 0.0465 
59.473377 0.028532 
59.997231 0.034844 
60.476131 0.03205 
60.480179 0.039479 
60.496315 0.035153 
60.590385 0.036346 
60.747875 0.039352 
61.131481 0.029587 
61.188042 0.032519 
61.321342 0.056295 
61.71928 0.036859 
61.987045 6.920599 
62.227318 0.042205 
62.530209 0.078464 
63.022697 6.530815 
63.36282 0.039895 
63.558266 0.033816 
63.694729 0.038803 
63.862949 0.045151 
63.961079 0.627757 
64.026115 0.066238 
64.034218 0.039269 
64.2882 0.040713 
64.534325 0.034861 
64.838699 0.044126 
64.95118 0.142495 
65.001968 12.243924 
65.240593 0.0385 
65.290123 0.039729 
65.360504 0.029696 
65.778114 0.028173 
65.911095 0.040869 
65.996925 0.0306 
66.432251 0.033586 
66.787819 0.037093 
67.156151 0.038252 
68.248726 0.037664 
68.380066 0.042081 
68.670235 0.038316 
68.814331 0.040499 
69.406387 0.039429 
69.817581 0.030376 
70.550255 0.032586 
71.062981 0.038997 
71.195946 0.039513 
72.633453 0.037878 
73.114311 0.029747 
73.434677 0.030347 
73.492096 0.044756 
73.881325 0.037307 
74.061691 0.046329 
74.639915 0.031684 
74.790695 0.040489 
74.989616 0.227615 
75.023125 0.03887 
76.271141 0.031665 
76.411942 0.034916 
76.578987 0.036961 
76.587608 0.037128 
76.741196 0.040746 
76.870972 0.040792 
76.951202 0.076238 
76.976967 0.03476 
77.197655 0.039952 
77.564827 0.040575 
78.202461 0.048981 
78.662041 0.032005 
78.957619 0.037085 
78.966782 0.040107 
78.984581 1.854113 
79.956039 10.413568 
80.772392 0.036731 
80.96386 2.963317 
80.994835 0.034806 
81.351913 0.036432 
81.762733 0.041283 
81.782921 0.03547 
81.951958 0.215988 
82.624886 0.031154 
83.012558 10.445225 
84.918007 0.034379 
85.61425 0.035473 
86.796288 0.031215 
87.201347 0.038775 
87.617409 0.033028 
88.554924 0.032651 
89.169769 0.031962 
89.576744 0.040949 
89.83326 0.038313 
90.82531 0.040729 
90.984718 0.043815 
91.021111 0.036277 
91.153793 0.042819 
93.03334 13.516584 
93.490654 0.038627 
94.036629 0.185061 
94.796051 0.035966 
94.979614 9.214841 
95.095024 0.036337 
95.45269 0.036375 
95.507202 0.035712 
95.828011 0.033487 
95.933121 0.052376 
95.951225 0.038877 
96.958862 100.0 
96.975914 0.041614 
97.660271 0.040189 
97.88118 0.03585 
97.958191 0.180058 
98.211639 0.032735 
98.761131 0.035129 
98.95462 3.966182 
98.962997 0.148041 
99.9543 0.030489 
100.28508 0.037202 
100.842133 0.03827 
101.48069 0.039802 
105.833435 0.030346 
107.012619 30.475527 
107.017174 0.041575 
108.015968 1.315607 
108.492805 0.0414 
108.701027 0.035375 
109.057899 0.04194 
110.530991 0.033389 
110.84166 0.03592 
110.956772 6.394137 
110.974518 0.273117 
113.772453 0.036892 
114.523552 0.034559 
115.513664 0.038436 
118.77182 0.032432 
118.979408 0.062027 
119.049011 74.670021 
120.052383 6.150474 
121.02832 0.350637 
121.964859 0.038795 
122.022758 0.03134 
123.367241 0.041826 
123.853554 0.037807 
123.867218 0.0337 
124.774994 0.041085 
125.023163 0.979067 
125.680267 0.032203 
126.025787 0.038879 
127.121399 0.039874 
129.196869 0.042936 
129.309402 0.041786 
130.942581 1.487491 
131.209763 0.03926 
132.056808 0.042579 
133.028442 0.412816 
134.310898 0.038607 
134.317978 0.038945 
135.043976 1.052343 
135.380936 0.049148 
136.939407 0.042762 
136.987 0.172913 
137.82019 0.030854 
137.925278 0.047334 
138.49263 0.040106 
138.662598 0.043672 
139.003265 0.038341 
140.708221 0.039091 
141.180038 0.046699 
141.268951 0.039998 
142.039307 0.037872 
142.74704 0.03231 
143.049118 0.273182 
144.524231 0.037482 
145.028412 0.951531 
147.945358 0.220832 
148.565063 0.044912 
149.255295 0.036363 
149.64241 0.038316 
150.414383 0.03976 
151.002655 75.253471 
152.005951 5.786444 
152.916641 6.369179 
153.007462 0.135968 
153.264099 0.040501 
153.933029 0.043518 
154.912399 0.039698 
154.965546 0.041397 
156.860291 0.042764 
159.509277 0.040793 
160.841202 0.554606 
161.023849 0.038356 
161.059891 0.697308 
162.838348 0.627342 
164.835388 0.051843 
164.982147 0.493241 
165.018539 3.728853 
165.956116 0.333126 
166.317078 0.035463 
166.909348 0.044055 
167.903839 0.227657 
168.889145 0.086151 
169.013428 1.154468 
170.889572 0.659412 
171.887451 0.889542 
172.884979 0.141003 
172.953094 0.18816 
176.908615 0.043731 
176.993225 0.338166 
177.018524 9.185272 
178.022003 0.166295 
179.396164 0.039615 
180.712952 0.043395 
183.01152 0.405729 
184.001053 9.698896 
184.019424 0.042723 
184.502869 1.531512 
184.999023 0.253618 
185.060013 1.288021 
185.891296 0.056966 
186.171936 0.036655 
186.964066 0.041863 
187.03949 1.985652 
187.087769 0.051015 
187.627365 0.045913 
189.73703 0.032577 
191.008621 0.041007 
191.24733 0.039528 
194.87529 0.042472 
194.927521 2.789518 
194.9935 0.042574 
197.31604 0.052044 
197.902145 1.600316 
198.033997 0.042522 
199.876221 0.240653 
202.346527 0.040403 
203.003372 0.031503 
205.858963 0.049194 
206.487473 0.040784 
207.011765 0.815404 
207.85759 0.046447 
210.901474 0.037738 
211.229019 0.040882 
212.532166 0.054551 
214.899734 0.049364 
214.91716 0.037614 
216.925507 0.038241 
216.940491 0.541501 
216.951645 0.281938 
216.958633 0.438435 
216.96524 0.424265 
216.974243 0.700374 
216.989212 0.403851 
216.993958 0.406979 
217.002014 0.13089 
220.745667 0.044471 
220.853424 0.031671 
222.343063 0.039629 
222.643158 0.043711 
222.850632 0.042518 
227.070923 0.632464 
229.050446 0.140939 
230.894699 2.988258 
232.874146 6.91274 
234.386734 0.03043 
234.869751 0.045138 
237.149979 0.040553 
237.222137 0.08692 
241.6548 0.041262 
242.686234 0.040002 
243.870316 0.041858 
245.40062 0.031696 
249.151001 0.040599 
249.821136 0.03795 
250.885071 0.217958 
254.85614 0.827487 
255.233047 17.079334 
256.23642 2.915113 
258.247345 0.034953 
258.271088 0.052269 
262.407562 0.043606 
264.266144 0.037981 
264.57077 0.036139 
265.148071 13.748289 
266.151428 1.477629 
267.14386 0.053777 
268.240875 0.033359 
269.122345 0.08171 
269.248199 0.118782 
271.046204 0.040503 
271.06131 5.677296 
272.064636 0.349706 
272.673004 0.037296 
272.828949 0.174504 
275.168854 1.253035 
279.163666 3.1318 
281.120911 0.078782 
281.248993 0.255356 
283.110779 0.537692 
283.137421 2.344691 
283.264221 43.811993 
284.267731 8.25685 
285.023865 0.037021 
285.040527 4.620794 
285.270782 0.14146 
285.543945 0.043781 
286.044403 0.129848 
293.179352 15.256179 
293.697968 0.045918 
294.1828 2.092542 
295.137756 0.674253 
297.573639 0.057832 
300.002655 0.036785 
300.653778 0.045075 
311.154144 0.048549 
317.092194 0.033727 
318.352448 0.034766 
END IONS

