BEGIN IONS
PEPMASS=1240.8
CHARGE=1+
COMPOUNDNAME=CYCLOSPORINE
LIBRARYQUALITY=3
SMILES=N/A
INCHIKEY=PMATZTZNYRCHOR-KMSBSJHKSA-N
INCHI=InChI=1S/C62H111N11O12/c1-25-27-28-40(15)52(75)51-56(79)65-43(26-2)58(81)67(18)33-48(74)68(19)44(29-34(3)4)55(78)66-49(38(11)12)61(84)69(20)45(30-35(5)6)54(77)63-41(16)53(76)64-42(17)57(80)70(21)46(31-36(7)8)59(82)71(22)47(32-37(9)10)60(83)72(23)50(39(13)14)62(85)73(51)24/h25,27,34-47,49-52,75H,26,28-33H2,1-24H3,(H,63,77)(H,64,76)(H,65,79)(H,66,78)/b27-25+/t40-,41?,42?,43?,44?,45?,46?,47?,49?,50?,51?,52-/m1/s1
MSLEVEL=2
SOURCE_INSTRUMENT=N/A-ESI-QFT
FILENAME=library_mgf.mgf
SEQ=*..*
IONMODE=positive
ORGANISM=MONA
NAME=CYCLOSPORINE [M+K]+
PI=MoNA
DATACOLLECTOR=MoNA:VF-NPL-QEHF028197
PUBMED=N/A
SUBMITUSER=mwang87
TAGS=
SPECTRUMID=CCMSLIB00004721778
SCANS=28197
87.444626 0.969459 
87.466156 1.798121 
87.602539 1.561446 
87.704659 0.995371 
87.734306 0.967932 
88.154045 1.279625 
89.16378 2.570942 
89.220863 1.485805 
89.693466 1.612847 
89.791786 1.067631 
90.542198 1.383767 
90.75753 1.561184 
91.412849 0.881411 
92.095284 1.495184 
93.407898 2.099493 
93.522736 0.952264 
96.124451 1.431872 
98.063927 1.300818 
98.096466 1.208612 
99.611809 1.938271 
100.111954 100.0 
100.411957 1.049652 
100.845703 1.145306 
101.452011 1.774595 
102.304344 1.621205 
102.978172 1.389763 
103.007339 1.776073 
103.650375 1.631844 
104.42231 0.930668 
108.698898 2.180593 
108.834854 1.096544 
110.173515 1.77537 
111.090828 1.35029 
111.326141 1.456745 
111.85672 1.157269 
112.037186 0.781058 
112.549637 1.486334 
112.628716 1.423802 
115.03199 1.67505 
116.001526 1.503174 
116.887817 0.821161 
121.073433 1.49416 
121.113831 2.216397 
122.071159 5.248759 
123.091476 11.536147 
124.330078 1.539617 
124.549644 1.090943 
125.137749 1.417938 
127.370964 1.546099 
127.61071 1.067941 
128.106628 4.393579 
128.151627 2.111965 
128.917984 1.388014 
131.966553 1.20108 
132.163895 0.880381 
132.28598 2.019024 
132.887802 0.71919 
134.682297 1.696026 
134.868744 1.589398 
135.259277 1.504347 
135.841232 1.597962 
136.332321 1.149576 
138.054169 0.977744 
141.115021 1.629736 
142.339111 1.077762 
142.810165 1.395809 
143.415405 0.751802 
145.205566 2.621153 
145.312057 2.589199 
146.566559 1.345719 
146.846558 1.489154 
150.888275 1.436601 
151.050323 1.173608 
151.488937 0.760331 
153.38382 1.534321 
154.080597 2.118203 
154.291107 1.846134 
154.803253 1.354209 
157.939346 1.578226 
160.076736 1.363413 
162.59819 1.018351 
163.083832 0.782514 
166.894119 0.71622 
167.881134 1.047825 
171.554016 1.815288 
174.080231 3.347713 
177.960434 1.333492 
179.954086 1.612749 
180.046478 1.376709 
180.7155 1.259008 
186.0159 2.099075 
187.852066 1.078869 
188.331253 1.470832 
189.236649 1.404437 
191.079651 1.698028 
191.09523 1.363262 
191.351685 1.04988 
193.095062 1.237311 
195.82634 1.509975 
197.432327 1.880747 
198.357941 1.859759 
205.25209 1.335285 
206.136032 1.861207 
211.448181 0.798533 
214.011978 1.019356 
215.902145 1.410647 
215.974213 1.42231 
217.189148 1.143502 
217.900681 1.292835 
218.493881 2.179769 
219.699738 27.017071 
219.719681 2.025214 
220.845551 2.519633 
221.125748 2.701002 
225.638931 1.071551 
228.356812 2.537928 
230.509796 1.387055 
231.225311 0.933921 
233.127106 1.000209 
236.376663 1.37146 
243.061951 1.482596 
252.127365 0.723643 
257.987579 1.174521 
264.168762 0.808177 
271.439636 0.825381 
274.677734 1.857133 
274.90741 2.232096 
276.078827 1.720233 
278.135498 2.789237 
278.182343 1.309861 
278.655243 1.773322 
279.457245 1.868884 
280.427368 1.096288 
282.325989 1.691989 
284.851013 1.377124 
286.840881 0.87947 
292.199066 22.379852 
307.18045 0.946928 
311.686279 1.46031 
317.705048 1.499599 
318.034027 1.696046 
320.194702 1.860475 
330.089294 1.642739 
330.529846 1.059721 
337.805115 1.778124 
346.21048 3.453005 
350.276917 1.913793 
360.153412 1.482738 
362.118378 0.827867 
377.252106 12.472272 
381.223358 1.068812 
389.768585 1.972969 
391.267487 15.126525 
392.270386 1.253613 
400.003815 2.023214 
400.108093 2.093498 
402.954071 2.272127 
403.231293 2.836687 
417.246643 2.206371 
418.430664 1.434104 
419.299591 3.170233 
437.431763 2.073824 
455.488251 1.480532 
455.938446 1.677856 
477.252167 1.30165 
490.335846 9.137628 
491.232544 1.261086 
509.32312 1.625747 
516.984558 1.680356 
518.367615 1.934231 
521.031799 1.475063 
553.577087 2.33031 
593.27887 1.258192 
603.31427 1.077883 
618.1427 1.837886 
626.009155 2.233322 
643.101685 2.375977 
662.723022 1.857466 
684.377869 1.589815 
691.099792 2.237769 
717.118652 1.506493 
771.150208 1.157913 
790.143738 2.000353 
793.82959 1.579755 
798.256958 1.33987 
817.716125 2.042325 
822.070251 1.680516 
859.968323 2.326422 
874.118286 1.091946 
936.993896 2.151322 
946.805969 1.711456 
976.237976 1.691734 
1003.820251 1.87683 
1058.021484 1.804686 
1072.086426 0.946057 
1081.458984 1.655298 
1153.058716 1.810568 
1172.724243 1.601026 
1200.303711 0.937485 
1241.135132 1.64342 
1248.533936 2.04403 
END IONS

