BEGIN IONS
PEPMASS=243.08
CHARGE=0+
COMPOUNDNAME=BIOTIN
LIBRARYQUALITY=1
SMILES=C1C2C(C(S1)CCCCC(=O)O)NC(=O)N2
INCHIKEY=YBJHBAHKTGYVGT-UHFFFAOYSA-N
INCHI=N/A
MSLEVEL=2
SOURCE_INSTRUMENT=LC-ESI-Q-Exactive Plus
FILENAME=IROA_PLATE_neg_6_E.mzXML
SEQ=*..*
IONMODE=Negative
ORGANISM=GNPS-EMBL-MCF
NAME=BIOTIN M-H
PI=Alexandrov Theodore
DATACOLLECTOR=Prasad
PUBMED=171548
SUBMITUSER=pphapale
TAGS=
SPECTRUMID=CCMSLIB00000578365
SCANS=2228
55.001816 14938.107422 
55.004154 5217.422363 
59.012333 4582.77002 
59.023502 4709.647461 
67.495262 4776.465332 
68.049171 69879.507812 
71.98983 9732.680664 
72.576546 8263.255859 
74.005501 167434.328125 
83.048935 5806.30127 
83.281212 4893.718262 
95.023674 29213.425781 
97.039284 34708.589844 
97.986542 4767.158203 
111.043648 10872.614258 
111.055016 23766.757812 
120.080696 85253.78125 
122.096237 253734.859375 
139.057373 52402.113281 
153.102219 17763.224609 
154.086349 6588.864746 
156.084244 326635.8125 
156.097153 11019.782227 
157.087753 10666.388672 
165.102432 205017.859375 
166.086487 1332715.875 
167.089859 67499.867188 
179.081665 8311.739258 
191.081909 23786.445312 
197.092499 108676.320312 
199.090485 225855.984375 
200.074554 1924145.125 
201.077972 91221.421875 
209.09288 180710.09375 
243.080902 2964998.0 
244.083817 161315.671875 
END IONS

