BEGIN IONS
PEPMASS=361.068
CHARGE=1+
COMPOUNDNAME=rabelomycin
LIBRARYQUALITY=3
SMILES=N/A
INCHIKEY=JJOLHRYZQSDLSA-UHFFFAOYSA-N
INCHI=InChI=1S/C19H14O6/c1-19(25)6-8-5-11(21)15-16(13(8)12(22)7-19)17(23)9-3-2-4-10(20)14(9)18(15)24/h2-5,20-21,25H,6-7H2,1H3
MSLEVEL=2
SOURCE_INSTRUMENT=N/A-ESI-QFT
FILENAME=library_mgf.mgf
SEQ=*..*
IONMODE=positive
ORGANISM=MONA
NAME=rabelomycin [M+Na]+
PI=MoNA
DATACOLLECTOR=MoNA:VF-NPL-QEHF000945
PUBMED=N/A
SUBMITUSER=mwang87
TAGS=
SPECTRUMID=CCMSLIB00004692008
SCANS=945
50.06509 0.125294 
50.516483 0.097022 
51.940712 2.217023 
52.867931 0.08948 
53.002972 0.866827 
53.039295 1.606155 
53.121498 0.174024 
53.302128 0.08878 
53.939827 0.113091 
54.080769 0.090397 
55.018551 5.171183 
55.019852 0.089419 
55.054951 16.531521 
55.235355 0.090136 
55.935116 6.374964 
56.050201 4.434317 
56.187077 0.161669 
56.561333 0.168264 
56.860569 0.156385 
56.942966 0.495426 
56.965504 6.928932 
57.034229 2.105196 
57.070583 13.559143 
57.93557 0.207162 
58.065834 33.767746 
58.883644 0.101113 
58.995708 0.123058 
59.049843 4.235446 
59.0611 11.520732 
59.062584 0.099238 
59.069164 0.522241 
59.750519 0.087436 
59.930862 0.11748 
60.005043 0.139858 
60.045113 3.634451 
60.247524 0.107944 
60.381992 0.17897 
60.485237 0.079225 
60.827442 0.085136 
61.011349 24.919847 
62.014618 0.095277 
62.019184 8.592635 
62.990582 0.477552 
63.007168 0.391777 
63.027012 3.605507 
63.998425 3.768505 
64.933311 0.144141 
65.039238 4.086732 
66.327042 0.096039 
66.776253 0.088346 
67.054901 19.725794 
67.129128 0.153287 
67.26963 0.085541 
68.05011 0.909001 
68.058327 0.096498 
68.847717 0.08976 
68.94339 0.111684 
69.034149 2.502232 
69.070496 12.727308 
70.065781 15.123137 
70.073883 0.212862 
70.942497 0.338449 
70.958488 5.656788 
71.049759 4.990324 
71.069183 0.167141 
71.073586 2.172261 
71.086174 4.28496 
71.929947 1.831989 
72.045006 0.719747 
72.081406 3.691807 
72.105667 0.120674 
72.444115 0.158727 
72.937729 13.220522 
72.960403 0.158093 
73.029068 0.694873 
73.047447 2.82398 
73.065361 0.160272 
73.288689 0.089893 
73.581223 0.093533 
74.060738 0.736432 
74.479073 0.124858 
75.044281 0.119353 
76.039894 0.581298 
76.992561 0.151694 
77.039375 0.139279 
79.021744 19.384035 
79.054802 11.920528 
80.050026 1.170197 
80.119667 0.084726 
80.180428 0.156191 
81.000916 0.149753 
81.017784 0.126981 
81.03405 2.208383 
81.067917 0.184134 
81.070419 18.573803 
81.072685 0.304312 
81.548157 0.099811 
82.042 0.105037 
82.065659 1.513751 
82.073601 0.278499 
83.049698 3.03277 
83.086098 3.744327 
83.709076 0.088722 
83.71653 0.154352 
84.044884 2.139222 
84.081268 26.852785 
84.453468 0.090207 
85.028954 1.717064 
85.040268 0.115542 
85.065315 1.997054 
85.084641 0.946587 
85.089134 6.583606 
85.116997 0.093645 
86.057701 0.141188 
86.06057 1.169069 
86.092392 0.108581 
86.096939 3.792383 
86.414566 0.134143 
86.577583 0.107532 
87.044571 11.702794 
87.906731 0.096395 
88.04789 2.37795 
88.076157 8.4333 
88.952782 0.397368 
88.96891 3.46235 
89.060211 3.992153 
89.940521 0.573424 
89.96418 4.961783 
90.948158 14.475779 
91.054718 100.0 
91.057755 10.430099 
92.057953 8.366416 
92.061089 0.532387 
92.707527 0.112222 
93.054596 0.683468 
93.070328 11.904656 
93.073204 0.105511 
94.06562 1.105428 
94.073723 0.118427 
95.049561 5.241843 
95.06089 0.526941 
95.085922 11.440184 
96.044739 0.381883 
96.081184 1.035313 
96.797852 0.111926 
97.065269 1.564089 
97.101624 0.89807 
98.060432 0.543846 
98.093719 0.089762 
98.09687 1.470453 
98.12262 0.108399 
98.246689 0.107111 
98.975739 3.059131 
99.044533 0.675219 
99.081017 0.129859 
99.581963 0.102466 
99.948647 0.397608 
100.039696 3.218131 
100.076042 0.517104 
100.156441 0.137587 
101.008476 0.174316 
101.023735 0.402168 
101.060043 0.108451 
101.403664 0.13468 
102.091721 13.864513 
102.509689 0.166162 
102.948463 0.981131 
103.039429 1.461014 
103.054619 3.063883 
103.095184 0.449595 
103.146866 0.092067 
104.042564 0.160885 
104.062401 0.413673 
104.963783 1.295592 
105.033829 0.675306 
105.045067 1.16689 
105.07016 10.703312 
105.073814 0.40064 
105.192581 0.130921 
106.065521 1.164974 
107.049484 1.364191 
107.085869 6.116467 
107.950798 0.47078 
107.974571 0.648552 
108.073761 0.153242 
108.081123 0.217374 
108.089539 0.113051 
108.958481 3.050403 
109.065163 1.762796 
109.101433 3.746613 
109.381638 0.160285 
109.746536 0.084712 
110.060249 0.906107 
110.09697 0.110789 
111.044418 0.577544 
111.080872 0.347708 
112.039703 0.13172 
112.07618 0.096344 
112.112595 0.087581 
113.059517 0.100426 
113.083763 0.086661 
113.214371 0.152811 
113.963997 0.463155 
114.091736 0.130538 
115.054543 1.563767 
115.060837 0.091575 
116.071136 0.094306 
116.675102 0.086672 
116.799736 0.084969 
116.963638 1.573044 
116.985909 2.503734 
117.070068 7.792256 
117.958481 0.224363 
118.065361 0.527934 
118.943069 0.491679 
118.979996 0.206679 
119.049141 0.148321 
119.085678 37.041855 
120.044502 0.098049 
120.081062 3.879033 
120.089111 3.014757 
120.940811 1.675172 
120.958794 0.13001 
121.028564 2.011144 
121.065025 2.059249 
121.101379 1.266081 
122.060242 0.858327 
122.096458 0.136304 
122.442749 0.124052 
122.974045 0.275392 
123.04435 0.097917 
123.068008 0.110003 
123.080772 0.877096 
123.116852 0.127283 
124.075989 0.231746 
124.935997 0.087691 
124.977257 0.098868 
125.096474 0.107852 
125.961182 0.852434 
126.424782 0.091107 
126.922104 0.128507 
126.984146 0.121769 
128.062149 1.093371 
128.96344 2.440229 
129.069962 1.451144 
130.065308 0.473209 
130.979019 1.574868 
131.000305 0.598341 
131.049194 0.145162 
131.085587 1.850622 
131.97435 1.620701 
132.08078 0.315902 
132.958328 3.7651 
133.064804 0.820017 
133.075409 0.182841 
133.101318 1.282557 
133.457703 0.088587 
134.096573 0.831789 
134.198227 0.152058 
134.919678 1.092486 
134.956284 2.016373 
134.97403 0.721914 
134.978622 0.811894 
134.996292 1.779929 
135.044434 0.101541 
135.080322 0.808739 
135.104355 0.094833 
135.927582 0.264223 
136.075745 0.599878 
136.111938 0.251575 
136.953308 0.127934 
137.011566 1.640554 
137.05983 0.368078 
137.096359 0.138048 
137.107483 0.261104 
138.091354 0.227862 
138.951172 1.786649 
138.984177 0.507498 
140.143295 2.782683 
141.00058 0.113889 
141.069901 0.107519 
141.102478 0.122319 
141.979614 0.119021 
142.122787 0.087053 
142.913132 0.109355 
142.979187 0.621429 
143.001114 0.094393 
143.085571 0.914235 
143.97377 0.299213 
144.080811 0.629749 
144.958344 1.051449 
144.979965 0.115954 
144.994339 0.457839 
145.064957 0.288195 
145.101273 0.491902 
145.98996 0.325718 
146.059814 0.418446 
146.096725 0.269018 
146.974197 4.296273 
147.080475 0.409929 
147.381638 0.156201 
147.974396 0.245033 
148.111832 0.657043 
148.95575 0.128856 
148.971802 7.115775 
148.989594 1.058736 
149.011612 0.108196 
149.023392 0.150711 
149.095825 0.118547 
149.107544 0.196471 
149.21991 0.144207 
149.375931 0.135933 
149.960571 0.089058 
149.971863 0.13001 
149.984848 0.160076 
150.950912 8.359412 
150.968674 6.399817 
150.984406 0.157934 
151.978058 0.140908 
152.177628 0.10934 
152.93042 0.200833 
152.945572 0.152302 
152.966904 0.696211 
152.989075 1.103491 
153.132904 0.096067 
153.938538 0.117791 
153.959396 0.579356 
154.085815 0.163008 
154.138824 0.408976 
154.543701 0.091531 
155.022095 0.498202 
155.084854 0.113683 
156.990601 0.107852 
157.101242 0.427263 
157.989883 0.161903 
158.19017 0.158511 
158.973907 0.243641 
159.010101 0.113924 
159.797073 0.162347 
159.969055 0.16681 
160.112091 0.118563 
160.989594 0.469011 
161.071381 0.136558 
161.096161 0.113805 
161.985184 0.103936 
162.877731 0.182771 
162.968689 0.221485 
163.005371 0.147687 
163.999329 0.252965 
164.107117 0.12047 
164.91571 0.198611 
164.984512 0.313438 
164.999893 0.162628 
165.035889 0.145703 
165.069916 0.466623 
165.10173 0.092624 
165.937866 0.108474 
166.086578 0.102334 
166.606354 0.154762 
166.982208 0.858822 
168.961517 3.005073 
168.990494 2.451252 
169.988464 4.062851 
170.010834 0.127582 
170.026047 0.11799 
170.09552 0.143396 
170.98613 0.919008 
171.063034 0.381583 
172.005661 1.10075 
172.876907 0.137282 
173.059448 0.454583 
173.98494 0.40825 
174.006287 0.181761 
176.930634 0.123599 
177.938141 0.117766 
178.087128 0.118724 
178.892426 0.160994 
179.000443 0.105389 
179.022629 0.177389 
180.887909 26.082861 
181.065475 0.147382 
181.888428 0.348597 
182.383011 0.150004 
182.471466 0.153226 
182.640015 0.114599 
184.005264 0.25219 
184.075867 0.267305 
184.956406 0.72625 
184.98938 0.264729 
185.083069 0.111786 
185.948547 0.106722 
186.091461 0.147313 
186.927902 0.169248 
187.999725 0.371686 
189.070114 0.74394 
191.085266 0.352456 
192.174515 1.14014 
192.80957 0.155059 
192.961716 0.557734 
192.994781 0.116103 
194.605209 0.140834 
194.903702 1.316184 
195.118362 0.195482 
195.87532 1.371164 
195.949081 0.199632 
196.976593 0.14751 
197.014282 0.230079 
197.891022 0.908271 
198.720535 0.094327 
198.854263 2.403427 
198.898514 6.435211 
199.854492 0.12909 
200.851578 1.483836 
202.077881 0.216453 
203.085663 0.172295 
204.175888 0.122501 
204.889145 0.190347 
205.065186 0.334836 
206.926071 1.143652 
206.977875 0.2495 
206.996048 1.135492 
207.252579 0.178525 
208.883392 0.263059 
208.956772 0.121026 
210.020844 0.119694 
210.971786 0.154534 
212.914429 0.179479 
213.885559 4.061161 
214.894257 0.14506 
214.997116 0.241619 
215.088531 2.034728 
215.901505 0.482915 
216.528625 0.18125 
216.864716 0.697628 
216.965973 0.133755 
218.072266 1.309604 
218.862122 0.447256 
218.944244 1.579932 
219.080276 3.741966 
220.089127 0.101322 
220.109116 0.696327 
220.118271 0.180508 
220.884659 0.111141 
220.959778 0.576707 
221.059662 0.387114 
222.898331 15.902212 
223.074753 0.127284 
223.901443 0.139349 
224.877853 0.133301 
226.076508 0.108647 
226.894165 2.111292 
226.966461 0.173379 
228.067505 0.101702 
228.892258 0.106885 
230.963211 0.107613 
230.980957 0.136255 
231.080032 0.324998 
231.896851 0.273888 
232.959854 1.282559 
233.06012 0.110307 
234.067947 0.137933 
234.858337 0.102174 
234.939194 0.85382 
236.914841 0.610147 
236.954742 4.333584 
237.091476 0.294707 
238.913757 0.112031 
239.032272 0.199271 
239.901169 0.15527 
240.137924 0.098982 
240.908997 21.992878 
241.910049 0.561335 
241.954529 0.132957 
242.909286 0.345563 
243.066559 0.118512 
243.079559 0.184538 
244.883713 0.155517 
244.904846 4.373965 
246.067566 0.562779 
247.074921 8.222023 
248.955063 0.275122 
248.992569 0.130482 
249.054596 0.663108 
250.062698 1.054138 
250.970657 0.118263 
251.07048 0.744383 
252.949692 5.330593 
253.049347 0.138548 
254.925125 0.625779 
254.963348 0.113799 
257.059998 0.136925 
257.868134 0.120369 
259.115723 1.679165 
259.863983 0.485834 
262.894806 1.056063 
263.070404 1.132554 
264.077393 0.47479 
264.894836 0.096263 
265.085846 1.319509 
266.964966 0.138177 
266.999268 0.249766 
267.999115 0.417337 
268.300049 2.250834 
268.978241 0.266831 
269.820892 0.726453 
271.0755 0.438975 
273.058594 0.098323 
274.062317 2.559572 
275.069885 7.791146 
276.047546 0.100596 
276.078339 0.169305 
277.050018 1.213556 
277.826019 0.132374 
278.056885 3.615239 
279.065216 0.351703 
282.137024 1.728798 
284.807556 2.653058 
285.815369 8.466648 
286.823151 1.690113 
287.830933 2.604435 
288.838837 0.640426 
291.010345 0.102652 
291.065094 2.474308 
292.072998 2.566545 
293.080231 6.632774 
294.828888 0.740333 
296.808319 0.130287 
299.831146 0.373346 
300.148071 1.216487 
301.810455 0.630036 
302.056915 5.072814 
302.117645 0.144168 
302.818146 10.330296 
303.064789 5.005487 
303.822113 0.20122 
305.026917 0.128185 
305.044647 2.748041 
305.157532 0.573796 
306.052795 0.450462 
310.824127 0.405048 
311.831329 0.479072 
312.104156 0.156673 
312.838593 13.627696 
312.856049 0.359573 
313.841187 0.41112 
315.929993 0.401547 
316.300293 0.134182 
316.925446 0.1357 
319.061127 0.266465 
319.492798 0.166003 
319.836548 0.603112 
320.067932 0.161073 
321.075073 0.451023 
325.831329 0.210924 
326.817474 4.977809 
326.853119 0.102897 
327.825531 19.229921 
327.965942 0.397223 
328.831055 1.870529 
328.963745 0.175729 
330.960541 0.174273 
333.940277 0.394808 
334.936523 0.226778 
337.021759 0.098987 
337.846039 0.143059 
341.841858 0.48097 
343.199921 1.739828 
344.089386 0.131614 
344.12912 0.126086 
344.164368 0.310692 
344.202942 0.117134 
344.828186 18.427488 
344.975616 0.463246 
345.833191 1.520449 
345.975677 16.002762 
346.834473 0.123857 
346.953247 0.166517 
346.973328 10.145051 
347.974121 1.893159 
348.974152 0.229958 
360.112305 0.842454 
360.36264 0.110572 
361.60022 0.176601 
369.83609 1.507148 
380.911896 0.098385 
387.848541 0.244966 
END IONS

