BEGIN IONS
PEPMASS=266.089
CHARGE=0+
COMPOUNDNAME=ADENOSINE
LIBRARYQUALITY=1
SMILES=C1=NC2=C(C(=N1)N)N=CN2C3C(C(C(O3)CO)O)O
INCHIKEY=OIRDTQYFTABQOQ-UHFFFAOYSA-N
INCHI=N/A
MSLEVEL=2
SOURCE_INSTRUMENT=LC-ESI-Q-Exactive Plus
FILENAME=IROA_PLATE_neg_4_B.mzXML
SEQ=*..*
IONMODE=Negative
ORGANISM=GNPS-EMBL-MCF
NAME=ADENOSINE M-H
PI=Alexandrov Theodore
DATACOLLECTOR=Prasad
PUBMED=60961
SUBMITUSER=pphapale
TAGS=
SPECTRUMID=CCMSLIB00000578272
SCANS=627
52.13718 712.043152 
59.012405 10161.892578 
64.005249 1573.577271 
68.69632 780.815369 
70.383537 727.395813 
71.012421 1626.558472 
72.242676 2592.052979 
89.022957 1056.706665 
92.02401 4642.771973 
96.958435 1111.614746 
100.039085 1654.481323 
101.023102 5163.769043 
107.034821 17248.882812 
116.724854 887.615906 
119.033585 3837.856445 
123.490906 982.502808 
134.046021 3513275.75 
135.050217 67725.585938 
148.061813 3955.699707 
176.056885 5514.793457 
248.097183 1074.738525 
265.170013 1014.722473 
266.089874 193994.0625 
267.090942 8474.506836 
END IONS

