BEGIN IONS
PEPMASS=193.026
CHARGE=1+
COMPOUNDNAME=terrein
LIBRARYQUALITY=3
SMILES=N/A
INCHIKEY=MHOOPNKRBMHHEC-HZIBQTDNSA-N
INCHI=InChI=1S/C8H10O3/c1-2-3-5-4-6(9)8(11)7(5)10/h2-4,7-8,10-11H,1H3/b3-2+/t7-,8-/m0/s1
MSLEVEL=2
SOURCE_INSTRUMENT=N/A-ESI-QFT
FILENAME=library_mgf.mgf
SEQ=*..*
IONMODE=positive
ORGANISM=MONA
NAME=terrein [M+K]+
PI=MoNA
DATACOLLECTOR=MoNA:VF-NPL-QEHF021230
PUBMED=N/A
SUBMITUSER=mwang87
TAGS=
SPECTRUMID=CCMSLIB00004712293
SCANS=21230
50.010098 0.021569 
50.080097 0.019689 
50.094193 0.025169 
50.591236 0.022288 
50.643463 0.020214 
50.747292 0.020254 
50.982903 0.025657 
51.570007 0.023555 
51.610226 0.025126 
51.882877 0.020663 
51.940327 0.111104 
53.147156 0.026796 
53.74176 0.022729 
53.77037 0.014595 
54.00304 0.026657 
54.033661 0.011595 
54.322308 0.016197 
54.461815 0.014874 
54.587627 0.020006 
54.615837 0.015431 
55.054523 0.013402 
55.458302 0.013945 
55.787045 0.012926 
55.826893 0.017388 
55.934635 0.052809 
56.942356 0.019792 
56.96505 2.411955 
57.033749 0.010051 
57.0578 0.018797 
57.935055 3.954983 
57.93644 0.024071 
58.065357 0.211874 
58.72084 0.029682 
59.00412 0.017025 
59.049358 0.551963 
59.441803 0.013896 
59.909321 0.012487 
60.137039 0.033862 
60.292007 0.026174 
60.43 0.017965 
60.662018 0.012585 
60.753979 0.013106 
60.873322 0.012669 
61.010853 55.125874 
61.012787 0.481886 
61.046539 0.013811 
61.573433 0.015875 
61.595737 0.010781 
61.82719 0.018587 
62.01424 0.014337 
62.018661 1.771676 
62.068092 0.019666 
62.241299 0.022677 
63.006615 0.104081 
63.026527 0.031185 
63.057365 0.019418 
63.093163 0.012895 
63.532932 0.018111 
63.868755 0.036578 
63.881832 0.018024 
63.957294 0.02774 
63.998104 0.01345 
64.84375 0.015101 
64.853966 0.011719 
64.986221 0.020648 
66.677017 0.017441 
66.785118 0.014368 
66.788124 0.01636 
67.054245 0.035397 
67.275192 0.011298 
67.638367 0.010625 
67.934952 0.138857 
68.772133 0.023021 
68.859283 0.017549 
69.049194 0.027067 
69.07032 0.030631 
69.925117 0.031381 
69.961021 0.177315 
70.065201 0.019886 
70.957939 2.480095 
71.049072 0.015755 
71.210686 0.017003 
71.5522 0.011917 
71.78627 0.012018 
72.724754 0.021322 
72.77375 0.014833 
72.937126 0.424284 
72.958275 1.298259 
73.433189 0.016933 
73.454063 0.026767 
73.695709 0.024685 
73.726295 0.02955 
73.794319 0.019332 
73.929787 0.05714 
74.388763 0.016584 
74.456818 0.018554 
75.112579 0.016107 
75.507347 0.021526 
75.945328 5.763778 
76.030083 0.025639 
76.095978 0.022617 
77.597015 0.023849 
77.605423 0.025008 
77.655334 0.02414 
78.01152 0.021929 
78.196693 0.019484 
78.935814 0.026831 
79.021225 2.423971 
79.054214 0.091995 
79.784637 0.021414 
80.049408 0.086425 
80.609482 0.013864 
80.863007 0.024003 
81.069855 0.272334 
81.481155 0.011124 
81.492172 0.025525 
81.718925 0.027461 
82.769249 0.012664 
83.226456 0.023331 
83.583572 0.011136 
83.817017 0.018185 
83.929848 0.237941 
84.032547 0.024444 
84.79792 0.030216 
84.959633 0.646369 
85.372292 0.022289 
85.850548 0.032899 
85.899422 0.033358 
85.94545 0.014423 
85.953445 0.026863 
86.060013 0.122549 
86.682457 0.03505 
87.043999 0.157639 
87.097549 0.031746 
88.075424 0.013231 
88.618385 0.039573 
88.968491 0.07068 
89.059715 1.943384 
89.937729 0.015014 
89.940025 0.030508 
89.985901 0.017279 
90.947624 0.305353 
90.968719 0.048969 
91.054153 0.119631 
91.283714 0.018733 
91.311539 0.019119 
91.949699 0.029283 
92.642059 0.016373 
93.069786 0.111252 
93.172073 0.013161 
93.901939 0.014442 
93.955933 3.191199 
94.85495 0.018628 
95.085495 0.208226 
95.118408 0.017221 
95.914009 0.018871 
96.343346 0.020212 
97.408882 0.018099 
97.602264 0.01152 
97.907845 0.019425 
98.975334 1.215108 
99.484489 0.010946 
99.551659 0.027473 
101.008415 0.513582 
101.166763 0.016271 
101.372551 0.032776 
101.940468 0.042912 
102.054924 0.35489 
102.914688 2.012373 
102.929375 0.020534 
102.947937 0.047548 
103.054176 0.609125 
103.176636 0.01615 
103.976677 0.291633 
104.035515 0.012689 
104.661301 0.014399 
104.930374 6.108712 
105.069885 0.207991 
105.377022 0.014152 
105.917015 0.039253 
105.955856 0.58889 
107.049118 0.724548 
107.085594 0.065249 
108.200699 0.018847 
109.028374 0.325557 
109.064598 0.013955 
109.100967 0.012636 
109.271553 0.016507 
109.493797 0.02153 
110.957504 0.016427 
111.672798 0.016387 
112.492882 0.017808 
112.566612 0.017506 
112.697784 0.021329 
113.428017 0.023608 
113.817833 0.035811 
114.144356 0.036408 
114.854942 0.025637 
115.211296 0.021038 
116.985817 0.203926 
117.720764 0.038147 
117.876434 0.036079 
117.917252 0.020473 
117.956062 0.1818 
119.001122 0.744562 
119.018906 1.55272 
119.036079 0.019014 
119.049149 1.495862 
119.085556 0.077848 
119.901245 0.024735 
119.917488 0.034439 
120.052788 0.028816 
120.106705 0.019734 
120.92527 0.669278 
120.940407 0.272226 
121.064865 0.039149 
121.604675 0.011807 
122.94088 25.704357 
123.055397 0.038295 
123.948677 0.048562 
124.02774 0.013152 
124.039032 0.019805 
124.835121 0.031506 
125.101196 0.018593 
126.570618 0.017152 
128.235931 0.013028 
129.164108 0.027094 
130.138214 0.013729 
130.796143 0.019858 
130.942902 0.062497 
131.049118 0.835718 
131.085724 0.012273 
131.309769 0.020863 
131.961273 3.427748 
132.088638 0.014531 
132.936493 0.295695 
132.953369 0.016732 
132.958191 4.112657 
133.052368 0.043697 
133.088654 0.057772 
133.101242 0.099517 
133.948425 0.300707 
134.096466 0.066807 
134.940842 0.893104 
134.958633 11.109556 
134.978622 1.829168 
135.116806 0.064844 
135.948853 1.723529 
135.966507 4.947914 
135.971283 0.020915 
136.956635 3.484492 
137.011765 5.185319 
137.029037 0.020816 
137.054382 0.018454 
137.059647 1.219988 
137.779907 0.015863 
137.928009 8.443717 
138.01265 0.240698 
138.063278 0.04501 
138.7323 0.022296 
138.935883 0.545816 
139.009369 0.070918 
140.930099 0.014263 
140.951492 1.072037 
141.61937 0.020433 
145.98822 0.655054 
146.254654 0.020697 
147.974899 2.029734 
148.075485 0.013207 
148.112076 13.554825 
148.233383 0.017841 
148.971802 13.307901 
148.990982 0.041448 
149.030899 0.019894 
149.115463 0.313461 
149.637314 0.022163 
149.961121 0.087358 
149.971893 1.773366 
150.951233 0.107084 
150.972794 4.026175 
151.958603 0.017618 
152.951492 43.345222 
152.969162 14.881009 
152.989182 0.520292 
153.959229 100.0 
155.022202 1.062832 
155.963608 0.022174 
156.94632 0.040367 
158.428497 0.031933 
161.011749 3.113375 
162.012192 0.083905 
162.456238 0.012553 
162.94693 0.031579 
163.954453 0.031372 
163.998703 5.45367 
164.930359 0.018651 
164.951569 1.260727 
164.999741 0.339838 
165.937897 0.058862 
165.996292 0.138119 
166.967087 0.12621 
166.98259 1.634439 
167.001526 0.312401 
167.938629 0.645436 
167.956497 0.661659 
167.974869 0.612426 
168.742172 0.018026 
168.982788 8.58623 
169.917831 0.134832 
170.962006 8.391855 
170.979675 0.89423 
171.351364 0.021283 
171.990692 0.022927 
172.654724 0.018812 
173.132523 0.035056 
175.148285 0.050113 
176.070786 0.072833 
176.10759 0.0145 
176.114563 0.028263 
176.941299 0.365086 
177.100861 0.035679 
177.938187 1.043895 
178.083252 0.016985 
178.978348 0.294408 
179.022278 18.042501 
179.137482 0.040289 
179.938522 1.008289 
179.953064 0.021596 
179.965836 0.017905 
180.023361 2.298338 
181.019516 1.393591 
181.983566 0.021147 
182.00946 0.552791 
182.657104 0.023672 
182.847717 0.034328 
182.952881 0.012422 
182.962128 0.792291 
184.225861 0.017498 
185.0121 0.127003 
185.949051 21.849569 
190.193771 0.026201 
191.965469 0.055571 
192.101852 1.192406 
192.13829 0.521756 
192.149979 0.012851 
192.173798 0.019888 
192.961594 0.467405 
193.095673 0.213312 
193.106369 0.105085 
193.13324 0.041528 
193.159164 0.012629 
194.081039 0.038554 
194.103729 0.711111 
194.117584 1.672976 
194.12825 0.196325 
194.153915 5.874695 
194.952194 0.382459 
194.962051 2.000216 
195.120804 0.020894 
195.149048 0.343056 
195.15773 0.053085 
195.948669 0.802219 
196.069138 0.030076 
196.211075 0.018244 
196.850082 0.02709 
197.032913 1.275165 
197.948929 2.010228 
198.035156 0.04089 
199.05127 0.023974 
199.964966 0.014382 
202.024094 0.03371 
204.607941 0.013452 
207.890533 0.018375 
209.005615 0.020299 
210.972168 0.040294 
211.027298 0.028419 
211.928528 0.011515 
212.031128 0.014965 
212.178192 0.014098 
212.972534 2.445723 
END IONS

