BEGIN IONS
PEPMASS=273.076
CHARGE=1+
COMPOUNDNAME=Naringenin
LIBRARYQUALITY=3
SMILES=N/A
INCHIKEY=FTVWIRXFELQLPI-UHFFFAOYSA-N
INCHI=InChI=1S/C15H12O5/c16-9-3-1-8(2-4-9)13-7-12(19)15-11(18)5-10(17)6-14(15)20-13/h1-6,13,16-18H,7H2
MSLEVEL=2
SOURCE_INSTRUMENT=N/A-ESI-QFT
FILENAME=library_mgf.mgf
SEQ=*..*
IONMODE=positive
ORGANISM=MONA
NAME=Naringenin [M+H]+
PI=MoNA
DATACOLLECTOR=MoNA:VF-NPL-QEHF013815
PUBMED=N/A
SUBMITUSER=mwang87
TAGS=
SPECTRUMID=CCMSLIB00004704878
SCANS=13815
50.012562 0.009682 
50.247166 0.022573 
50.316856 0.01077 
51.112392 0.012209 
51.36919 0.014447 
52.012112 0.015178 
52.174847 0.02089 
52.383434 0.013227 
52.463768 0.020599 
52.474979 0.04466 
53.039272 0.012189 
53.360474 0.011559 
53.460354 0.012366 
54.220943 0.013864 
54.368301 0.043927 
54.837097 0.012083 
55.018429 0.014411 
55.020756 0.009761 
55.054924 0.725098 
55.286572 0.011495 
55.759758 0.060529 
55.93512 7.696778 
56.013916 0.011276 
56.050255 0.028423 
56.268253 0.023191 
56.350517 0.015442 
56.788082 0.100172 
56.823925 0.014562 
56.88937 0.128172 
56.902386 0.013774 
56.935539 0.021803 
56.942913 1.102009 
56.965675 0.0934 
56.975365 0.010264 
57.07056 0.352585 
57.272076 0.011339 
57.379265 0.013136 
57.676804 0.012543 
57.802139 0.022298 
57.896389 0.010155 
57.935509 10.064928 
58.065845 0.503444 
58.503845 0.016162 
58.744354 0.012027 
59.014462 0.086826 
59.799965 0.014667 
59.930954 1.64005 
59.96714 0.02148 
60.48032 0.010459 
61.011345 100.0 
61.973965 0.011487 
62.010738 2.359676 
62.014706 6.629968 
62.019173 3.593968 
62.161388 0.023843 
62.186878 0.012699 
62.225643 0.01267 
62.307972 0.015046 
62.500397 0.044532 
62.665203 0.1192 
63.007141 13.973269 
63.027012 3.214857 
63.558842 0.120924 
63.653915 0.014575 
63.697327 0.015427 
64.014984 0.326396 
65.022743 0.324843 
65.362633 0.015659 
65.403008 0.014697 
67.01844 0.147276 
67.054893 0.553157 
67.245438 0.075146 
68.288109 0.015423 
68.518288 0.026666 
68.997726 0.122136 
69.034134 0.026943 
69.070534 0.508889 
69.293159 0.013846 
69.396774 0.015177 
69.634178 0.011338 
69.961601 0.010288 
70.942421 0.22461 
70.958504 42.452374 
71.086159 0.086621 
71.769913 0.013038 
71.929947 5.209996 
71.958984 4.473439 
71.961823 1.431369 
72.081413 0.011735 
72.877762 0.017654 
72.937759 26.14296 
72.956764 0.017249 
72.958916 2.065861 
73.40303 0.048976 
73.69709 0.0141 
73.799423 0.01492 
73.930374 0.439136 
73.938179 1.121204 
73.945602 0.405103 
74.089806 0.052768 
74.936081 0.011348 
74.938377 0.010662 
74.953476 1.028097 
75.201485 0.013716 
75.862061 0.012045 
75.925453 0.033765 
75.943726 0.020629 
75.945969 8.767903 
76.093117 0.022262 
76.881332 0.015141 
77.941414 1.260054 
78.969734 0.060285 
79.021828 0.066527 
79.054771 0.238678 
80.236412 0.011474 
80.264282 0.011568 
80.978371 0.013088 
81.070435 0.450522 
81.45137 0.070128 
82.530075 0.110158 
83.08609 0.206447 
83.102531 0.134083 
83.37188 0.100676 
83.951302 0.012792 
85.101738 0.014019 
85.689034 0.046781 
85.788284 0.102984 
85.91156 0.440819 
86.475533 0.110863 
86.953293 1.574673 
87.376694 0.009916 
87.886765 0.014008 
87.90696 11.584207 
88.320099 0.116144 
88.907539 0.019474 
88.914886 0.914182 
88.952835 0.394363 
88.968971 6.208204 
89.151672 0.014476 
89.299675 0.122604 
89.546257 0.010373 
89.699646 0.060112 
89.840408 0.017159 
89.902588 0.117275 
89.940369 3.889464 
89.964119 0.010649 
89.969353 0.235218 
90.75293 0.015842 
90.940933 0.014848 
90.948158 14.370586 
91.05468 0.479345 
91.571411 0.010918 
91.76532 0.014507 
91.948463 0.393323 
92.058006 0.012333 
92.989136 0.011251 
93.070267 0.256486 
93.942078 0.106917 
93.956421 3.687813 
95.085884 0.314842 
95.821663 0.021731 
95.951683 0.104614 
96.695221 0.011579 
97.065208 0.031239 
97.101624 0.028425 
97.401108 0.0135 
98.108437 0.114745 
98.975662 0.414735 
99.203171 0.085926 
99.920097 0.010051 
100.075912 0.037357 
101.650597 0.112821 
101.834862 0.009714 
102.534332 0.016658 
102.915062 3.443323 
102.930374 1.080195 
102.948029 2.62947 
103.977051 0.018101 
104.070908 0.017986 
104.910316 0.139415 
104.930664 5.7505 
104.963646 1.997602 
104.999725 0.104968 
105.033813 0.03527 
105.913483 0.055879 
105.917328 8.967241 
105.934906 0.013922 
105.956116 0.447019 
106.925949 1.326214 
106.979225 0.101075 
107.08577 0.057779 
107.912872 0.175118 
107.950729 1.020867 
108.958557 1.442345 
111.157944 0.011136 
114.826485 0.020393 
114.914093 0.017163 
114.947975 0.359258 
115.912376 0.464756 
116.909386 6.779925 
117.059235 0.063065 
117.917152 5.782938 
117.956146 0.238145 
118.530746 0.104322 
118.925026 3.397702 
118.943314 0.061619 
118.947617 0.403274 
118.963394 0.017106 
119.04924 0.834139 
119.91301 0.134835 
119.917053 0.078096 
119.932701 0.01938 
120.05262 0.031519 
120.650726 0.088365 
120.920685 0.016153 
120.925468 0.405247 
120.940666 7.325084 
120.958565 0.029484 
121.028046 0.02082 
121.101562 0.028055 
121.649185 0.014371 
121.743797 0.016552 
121.748184 0.023457 
121.940613 0.305116 
122.936424 1.428674 
122.940979 21.371798 
122.973991 0.025194 
123.631866 0.010749 
123.879372 0.146642 
123.927635 0.873853 
123.948936 0.016452 
124.342705 0.100049 
124.606758 0.010222 
124.936432 4.452693 
125.410721 0.142355 
125.96106 0.094688 
127.171371 0.066665 
131.961288 0.915979 
132.924393 0.814981 
132.945908 0.018296 
132.958206 34.958862 
133.512909 0.016505 
133.922958 1.352502 
133.948334 5.710864 
133.958191 1.595675 
133.961899 1.70081 
134.919708 20.306847 
134.941147 0.289475 
134.9478 0.027983 
134.958755 6.205399 
135.59285 0.012139 
135.927536 7.725902 
135.943787 0.875684 
135.948929 0.826349 
135.966476 4.187009 
136.92749 0.016018 
136.935425 1.120289 
136.956619 1.706352 
137.023514 0.012417 
137.584671 0.015383 
137.922653 0.527186 
137.927948 11.604486 
137.943863 0.050029 
137.961731 0.192855 
138.935822 1.063418 
138.951111 2.670841 
139.92334 2.475963 
140.931137 0.075817 
140.946304 0.017788 
140.951477 0.573267 
141.070847 0.014021 
141.528702 0.022501 
145.028534 0.016412 
146.318954 0.018076 
146.973816 0.338483 
147.043945 0.308071 
147.927673 0.183316 
147.975143 0.025578 
148.97171 57.416367 
149.943512 0.02783 
149.961136 4.832967 
149.972687 8.297015 
149.974808 8.784879 
150.935394 0.015674 
150.95108 8.267751 
150.968201 40.816284 
151.942719 0.028465 
151.952057 0.016818 
151.958862 2.883301 
151.969406 3.365732 
152.930222 5.615794 
152.951431 22.155718 
152.968933 13.140539 
152.976059 0.149011 
153.018051 2.6789 
153.345245 0.019667 
153.938324 2.973294 
153.959152 86.138733 
154.021378 0.21103 
154.453369 0.014608 
154.940628 0.012408 
154.946869 4.559981 
154.963638 3.11926 
155.954651 17.862362 
155.961884 0.337252 
156.946518 0.327423 
159.73114 0.136793 
162.230453 0.01063 
164.95137 0.120647 
164.984314 0.217881 
165.938126 4.008022 
166.945953 0.018038 
166.96701 0.174371 
166.982208 10.163923 
167.871567 0.017805 
167.954605 1.069481 
167.974564 1.861932 
167.984238 1.592541 
167.993256 0.050766 
168.961624 2.259902 
168.977203 0.938033 
168.9832 2.109864 
169.682693 0.066925 
169.917648 0.16707 
169.97023 0.054614 
170.858276 0.012458 
170.961899 5.34545 
170.978943 1.470357 
171.02829 0.015177 
172.180542 0.099419 
172.957611 0.311767 
175.38533 0.111888 
176.998016 0.127125 
177.937988 6.035367 
178.338669 0.010921 
178.939896 1.072629 
179.933792 0.861613 
179.942368 0.173641 
180.997925 0.023101 
181.101288 0.011852 
182.962173 0.067449 
183.688568 0.025483 
183.948868 0.69913 
184.041977 0.098267 
185.949036 22.321878 
185.964325 2.073011 
186.497849 0.113724 
186.94696 0.071249 
187.944443 4.932805 
188.438293 0.066831 
192.439941 0.014779 
192.961563 1.987741 
193.041855 0.011627 
193.965195 0.167389 
194.957825 0.105606 
195.154617 0.015485 
195.948654 5.384872 
196.44664 0.083623 
196.950607 1.215135 
197.945175 1.409844 
199.090576 0.014323 
199.964722 0.10704 
202.274551 0.087373 
207.525757 0.012707 
210.972214 0.389445 
212.972076 0.228524 
213.549744 0.010984 
219.764297 0.444208 
222.697266 0.092538 
227.735992 0.012102 
229.971268 0.072313 
234.557617 0.016612 
235.132111 0.011189 
235.265472 0.151978 
239.660126 0.012024 
244.343155 0.016066 
249.861572 0.0161 
253.402069 0.113026 
254.744385 0.011193 
255.900024 0.102023 
256.38736 0.014786 
258.498138 0.066964 
259.433472 0.066834 
262.146912 0.010625 
264.766541 0.023093 
271.059906 0.536521 
271.787018 0.011575 
272.063385 0.345136 
273.805237 0.060478 
274.128418 0.0122 
275.108521 0.152125 
275.260925 0.149217 
285.575714 0.071743 
285.930664 0.090331 
293.4151 0.015518 
293.461456 0.049917 
293.748199 0.016963 
299.30484 0.132748 
END IONS

