BEGIN IONS
TITLE=Scan Number: 3596
PEPMASS=425.23099
CHARGE=0+
COMPOUNDNAME=Lovastatin related molecule observed in standard
LIBRARYQUALITY=3
SMILES=O=C(O[C@@H]1[C@H]3C(=C/[C@H](C)C1)\C=C/[C@@H]([C@@H]3CC[C@H]2OC(=O)C[C@H](O)C2)C)[C@@H](C)CC
INCHIKEY=PCZOHLXUXFIOCF-BXMDZJJMSA-N
INCHI=
MSLEVEL=2
SOURCE_INSTRUMENT=LC-ESI-qTof
FILENAME=f.lfnothias/1904_statins_standards/Mevinolin_1uL.mzML;
SEQ=*..*
NOTES=
IONMODE=Positive
ORGANISM=GNPS-LIBRARY
NAME=Lovastatin related molecule observed in standard M+Na
SPECTRUMID=CCMSLIB00005435666
ACTIVATION=CID
INSTRUMENT=ion trap
SCANS=3596
77.394768 1464.786011 
78.981232 1148.523315 
81.717072 1601.044312 
90.976944 2907.013184 
107.207657 1335.714233 
115.862007 1309.821045 
201.179245 1401.21875 
219.341141 1436.529663 
220.935379 1939.473145 
254.887894 1462.857422 
262.858795 1715.196411 
323.162231 28001.794922 
357.134308 1540.543701 
425.230896 107487.273438 
END IONS

