BEGIN IONS
PEPMASS=345.0
CHARGE=1+
COMPOUNDNAME=MoNA:2291159 Gibberellin
LIBRARYQUALITY=3
SMILES=N/A
INCHIKEY=IXORZMNAPKEEDV-UHFFFAOYSA-N
INCHI=InChI=1S/C19H22O6/c1-9-7-17-8-18(9,24)5-3-10(17)19-6-4-11(20)16(2,15(23)25-19)13(19)12(17)14(21)22/h4,6,10-13,20,24H,1,3,5,7-8H2,2H3,(H,21,22)
MSLEVEL=2
SOURCE_INSTRUMENT=LC-ESI-QQ-LC-ESI-QQ
FILENAME=output_mgf.mgf
SEQ=*..*
IONMODE=
ORGANISM=MONA
NAME=MoNA:2291159 Gibberellin [M-H]-
PI=MoNA
DATACOLLECTOR=MoNA
PUBMED=N/A
SUBMITUSER=mwang87
TAGS=
SPECTRUMID=CCMSLIB00000565142
SCANS=2394
41.0 0.110063 
43.1 1.210692 
44.9 0.188679 
45.9 0.09434 
57.0 0.377358 
59.2 0.235849 
69.1 0.188679 
70.9 10.09434 
73.2 1.792453 
78.6 0.235849 
79.3 0.157233 
83.2 7.924528 
84.9 0.157233 
91.1 0.078616 
95.2 0.267296 
96.8 0.172956 
105.0 1.556604 
107.0 0.471698 
109.3 0.09434 
110.2 0.04717 
119.2 0.86478 
121.0 0.172956 
122.9 0.078616 
128.0 0.314465 
128.7 0.188679 
130.5 0.125786 
133.1 0.503145 
133.9 0.141509 
134.3 0.125786 
135.3 0.314465 
137.3 0.078616 
140.9 0.157233 
142.1 0.518868 
143.2 100.0 
144.0 0.314465 
145.0 0.487421 
146.4 0.927673 
149.2 0.361635 
151.9 0.031447 
155.1 0.267296 
156.3 0.125786 
159.2 0.455975 
160.2 0.09434 
161.1 1.100629 
162.2 0.141509 
164.6 0.04717 
167.2 0.220126 
169.1 0.471698 
170.3 0.314465 
171.4 0.487421 
172.3 0.125786 
173.7 0.172956 
175.1 0.110063 
177.4 0.345912 
177.6 0.062893 
179.5 0.81761 
180.9 0.440252 
183.4 0.927673 
184.1 0.204403 
185.2 0.896226 
189.3 0.078616 
192.2 0.157233 
193.3 2.374214 
193.7 0.283019 
195.0 0.110063 
195.4 0.125786 
197.5 1.289308 
199.0 0.503145 
201.2 0.487421 
205.4 2.893082 
206.2 0.786164 
209.0 1.336478 
211.2 0.503145 
212.0 0.172956 
213.5 0.314465 
216.9 0.09434 
219.3 4.198113 
221.3 13.584906 
222.8 0.110063 
223.6 0.157233 
225.5 0.110063 
227.2 4.732704 
229.1 0.078616 
237.2 0.235849 
237.5 0.078616 
239.3 0.361635 
240.2 0.125786 
247.4 0.04717 
253.2 0.110063 
253.7 0.141509 
255.1 0.283019 
257.5 0.188679 
273.3 0.204403 
273.7 0.235849 
283.3 0.141509 
END IONS

