BEGIN IONS
PEPMASS=262.129
CHARGE=1+
COMPOUNDNAME=Lotaustralin
LIBRARYQUALITY=3
SMILES=N/A
INCHIKEY=WEWBWVMTOYUPHH-GXUZYPEDSA-N
INCHI=InChI=1S/C11H19NO6/c1-3-11(2,5-12)18-10-9(16)8(15)7(14)6(4-13)17-10/h6-10,13-16H,3-4H2,1-2H3/t6-,7-,8+,9-,10+,11?/m1/s1
MSLEVEL=2
SOURCE_INSTRUMENT=N/A-ESI-QFT
FILENAME=library_mgf.mgf
SEQ=*..*
IONMODE=positive
ORGANISM=MONA
NAME=Lotaustralin [M+H]+
PI=MoNA
DATACOLLECTOR=MoNA:VF-NPL-QEHF007875
PUBMED=N/A
SUBMITUSER=mwang87
TAGS=
SPECTRUMID=CCMSLIB00004698938
SCANS=7875
50.546089 0.278448 
51.451046 0.35082 
51.923275 0.301023 
52.97847 0.368984 
53.00304 0.436675 
53.039326 1.384793 
53.765381 0.317976 
54.316933 0.110958 
55.018646 1.59384 
55.053459 0.167429 
55.054989 26.827368 
55.14436 0.411095 
55.32753 0.152896 
55.616081 0.317915 
55.730267 0.346742 
56.050255 1.680575 
56.058369 1.787879 
56.319061 0.096815 
56.965546 16.180454 
56.966972 0.256751 
57.034279 1.894289 
57.070641 8.37875 
58.06588 0.89204 
58.685528 0.380104 
58.832993 0.10096 
59.049854 0.321048 
60.045181 1.233059 
60.958504 0.2709 
60.983311 0.321086 
61.011395 5.652148 
61.012981 0.10312 
61.029182 0.909561 
61.533733 0.308543 
62.01923 0.199353 
62.860989 0.160182 
63.348682 0.332337 
63.798363 0.481253 
64.997833 0.367428 
65.039375 0.10432 
66.238281 0.183599 
66.773972 0.102909 
67.054932 9.276707 
67.196472 0.240486 
68.050117 0.422853 
69.034187 8.149006 
69.070572 2.754817 
69.132782 0.333352 
69.13475 0.336476 
70.065849 18.993126 
71.049789 0.645074 
71.069115 0.773799 
71.086197 0.665394 
72.045052 0.409964 
72.081406 0.192547 
72.362808 0.302679 
73.029129 0.503627 
73.06543 0.680189 
73.832069 0.303456 
74.060677 0.209542 
74.196053 0.289179 
74.439117 0.259698 
74.931465 4.922441 
75.185249 0.28459 
76.998245 0.448172 
79.004227 0.300474 
79.021805 12.947259 
79.054825 6.661407 
80.050072 0.650211 
80.115257 0.350844 
80.955986 0.339344 
81.034073 2.672349 
81.07045 9.872381 
81.241768 0.403901 
82.065727 0.334151 
82.349434 0.326566 
83.049683 2.006472 
83.086151 0.425484 
84.045021 1.740586 
84.081352 1.319398 
84.398125 0.341284 
85.028938 10.285713 
85.06543 0.119148 
86.032349 0.221099 
86.096924 0.442558 
87.04454 0.747595 
88.076256 1.858464 
91.05471 13.95267 
91.944267 0.331587 
92.049942 0.375796 
92.058044 0.132564 
92.435089 0.344959 
93.057938 0.13597 
93.070328 5.778484 
93.550201 0.337366 
93.754494 0.115469 
94.065651 0.138107 
94.523003 0.269596 
95.049606 2.386934 
95.08593 4.251478 
95.951851 0.534721 
96.04493 0.47275 
96.922134 0.281664 
97.028877 6.718933 
97.065208 0.111809 
97.662552 0.354249 
98.06044 100.0 
98.97583 0.910663 
99.044533 0.609972 
99.057655 0.453838 
99.063805 22.221626 
99.067314 0.520339 
100.040276 0.102873 
100.076172 1.09772 
100.933617 0.341876 
101.950287 4.346982 
102.968597 2.133086 
103.054588 0.442203 
103.117577 0.202288 
105.044937 0.125987 
105.070267 11.399258 
105.943092 15.495121 
106.065582 1.055755 
106.086891 0.116777 
106.965584 3.501734 
107.049461 0.170812 
107.073242 0.142078 
107.085815 1.305842 
108.048279 0.351878 
108.081528 0.119755 
109.028732 0.217003 
109.045158 0.131025 
109.065231 0.20264 
109.101562 0.760063 
110.060478 1.069337 
111.044304 0.120979 
112.076088 0.407725 
114.091469 0.101519 
115.05452 0.808397 
116.062248 0.384513 
117.070122 1.07986 
117.277084 0.328637 
117.665398 0.377257 
118.04155 0.468733 
118.065468 0.194674 
119.00209 0.172896 
119.019264 1.210543 
119.049477 0.141126 
119.085587 2.006673 
119.150108 0.370766 
119.960632 1.580046 
120.080963 0.195856 
120.979004 3.498254 
121.064926 0.204152 
121.10141 0.481766 
121.881523 0.389042 
122.060265 0.109138 
122.427597 0.20022 
122.921356 0.147152 
123.04438 0.166757 
123.080734 0.226933 
123.886696 0.356544 
123.953506 8.979186 
123.961189 0.349327 
124.076035 0.200364 
124.633179 0.103821 
124.936539 3.17074 
124.975929 3.213773 
126.206787 0.383015 
127.899872 0.102556 
128.061935 0.188074 
129.070114 0.534905 
129.192276 0.413702 
129.582932 0.170025 
130.527328 0.17313 
131.001251 0.125505 
131.018997 2.580536 
131.049133 0.475625 
131.085602 8.666664 
131.295364 0.350925 
132.080948 0.108017 
132.089081 0.156919 
132.636673 0.436865 
133.101227 0.215847 
134.096451 0.144521 
134.188385 0.433278 
134.99617 0.195114 
136.075592 0.173735 
137.011765 2.113686 
137.971115 1.088893 
138.091675 0.115325 
138.989426 1.457861 
139.078339 0.320092 
140.07074 1.164401 
140.129089 0.121496 
141.06987 0.516479 
141.963867 6.26885 
142.077698 0.113859 
142.946945 0.162878 
142.986694 1.557337 
143.085419 0.212733 
145.064651 0.21875 
145.100845 0.203682 
146.590591 0.100948 
146.996231 0.119382 
147.116745 0.212541 
149.012207 1.02271 
149.029678 0.142765 
149.048645 0.314215 
150.969101 0.118417 
153.069962 0.261271 
154.947037 2.570047 
155.022324 1.099714 
155.981857 0.157946 
157.020126 0.107618 
157.027359 1.1954 
157.065155 0.113976 
157.381134 0.410984 
158.797195 0.099066 
159.006668 1.027836 
159.07988 0.120091 
159.974365 1.217734 
161.012131 0.143783 
161.756989 0.380376 
162.752274 0.321331 
165.069992 0.195025 
166.085999 0.118893 
167.828644 0.344533 
168.245132 0.26062 
169.06485 1.491108 
172.95752 1.025292 
175.038757 0.487062 
175.998383 0.584325 
178.078217 0.130861 
180.879959 0.131547 
180.888062 4.969189 
181.725372 0.459384 
185.993469 5.268494 
188.574829 0.304872 
189.069946 0.237573 
190.077591 0.1455 
191.022141 0.135276 
191.0849 0.137853 
191.492844 0.371195 
195.258163 0.360749 
196.513626 0.365222 
197.059677 0.752468 
198.380585 0.376764 
198.88974 0.097878 
198.898575 1.101547 
199.104248 0.379071 
201.017471 0.741688 
201.967133 0.475033 
203.143112 0.508239 
203.162521 0.406119 
205.064911 0.986652 
206.083771 0.151397 
206.449814 0.409487 
207.080795 0.153386 
211.42865 0.100223 
214.635529 0.426335 
215.901047 0.124889 
216.395248 0.344992 
218.072906 0.232263 
218.190018 0.461057 
219.080505 0.526613 
219.174698 0.180854 
219.443024 2.153973 
219.455826 0.670534 
220.087982 0.199317 
220.903473 0.225282 
222.898483 3.89203 
227.088516 0.189749 
228.147049 0.408367 
235.086411 0.372436 
235.303162 0.100836 
235.983368 0.356349 
238.914093 0.623335 
240.895401 0.17892 
240.909149 13.227693 
240.946075 0.325177 
246.185211 0.508969 
247.076111 0.533572 
247.233887 0.41201 
251.493851 0.406407 
251.911163 0.347016 
253.583023 0.405128 
261.131134 3.499482 
261.762878 0.26438 
262.072937 0.1245 
264.136566 0.187654 
280.011688 0.111848 
END IONS

