BEGIN IONS
PEPMASS=547.247
CHARGE=1+
COMPOUNDNAME=(2E,4E)-1-[(2R,6S,14S,22S,25R)-25-(3,3-dimethyloxiran-2-yl)-15-methyl-1,3,13,15-tetraazaheptacyclo[18.4.1.0�,?.0?,��.0?,��.0�?,��.0�?,��]pentacosa-7,9,11,16(21),17,19-hexaen-3-yl]hexa-2,4-dien-1-one
LIBRARYQUALITY=3
SMILES=N/A
INCHIKEY=XZFSMUXVAYCHFO-QREHLELFSA-N
INCHI=InChI=1S/C32H36N4O2/c1-5-6-7-15-24(37)35-18-16-31-21-12-8-9-13-22(21)33-28-32(31)17-19-36(29(31)35)26(27-30(2,3)38-27)20-11-10-14-23(25(20)32)34(28)4/h5-15,26-29,33H,16-19H2,1-4H3/b6-5+,15-7+/t26-,27?,28+,29+,31-,32-/m1/s1
MSLEVEL=2
SOURCE_INSTRUMENT=N/A-ESI-QFT
FILENAME=library_mgf.mgf
SEQ=*..*
IONMODE=positive
ORGANISM=MONA
NAME=(2E,4E)-1-[(2R,6S,14S,22S,25R)-25-(3,3-dimethyloxiran-2-yl)-15-methyl-1,3,13,15-tetraazaheptacyclo[18.4.1.0�,?.0?,��.0?,��.0�?,��.0�?,��]pentacosa-7,9,11,16(21),17,19-hexaen-3-yl]hexa-2,4-dien-1-one [M+K]+
PI=MoNA
DATACOLLECTOR=MoNA:VF-NPL-QEHF021753
PUBMED=N/A
SUBMITUSER=mwang87
TAGS=
SPECTRUMID=CCMSLIB00004712816
SCANS=21753
50.016838 0.153703 
50.356579 0.645073 
51.168262 0.048884 
51.940281 2.653846 
52.078091 0.231693 
52.568848 0.529294 
52.685329 0.168054 
52.73872 0.153739 
52.904045 0.351316 
53.002579 0.251757 
53.038963 0.255326 
53.292065 0.139202 
54.366245 0.586798 
54.937805 0.220243 
55.018154 1.018129 
55.032341 0.173376 
55.05455 6.592637 
55.921997 0.169339 
55.934666 2.236008 
56.049728 0.43139 
56.319897 0.15699 
56.550381 0.154838 
56.965061 10.78546 
57.033806 9.499038 
57.07019 5.767638 
57.127865 0.59865 
57.425026 0.054371 
57.935043 1.460649 
58.037144 0.897924 
58.065346 0.141062 
58.969265 0.055067 
58.976788 0.056613 
59.038036 0.07963 
59.049427 0.965164 
59.930481 0.522972 
60.321594 0.485829 
60.735706 0.06476 
61.010868 4.055207 
62.092522 0.227291 
62.582916 0.13251 
62.998077 0.131022 
64.480446 0.127539 
64.611794 0.055768 
65.038734 15.260275 
66.042191 0.084952 
66.262695 0.070995 
66.475533 0.059488 
67.054359 100.0 
67.935059 0.08712 
68.057693 3.379102 
68.942833 0.61452 
69.033546 0.194397 
69.069977 1.284621 
69.96096 0.077678 
70.065292 0.270205 
70.670708 0.182013 
70.88102 0.06123 
70.957947 0.615846 
71.049072 0.069862 
71.085594 1.052312 
72.164528 0.077242 
72.937172 4.391892 
73.028358 0.123374 
73.046822 0.472085 
73.064827 0.075253 
73.464119 0.533279 
74.066872 0.59819 
74.108269 0.059537 
74.524574 0.172739 
74.670517 0.524768 
75.049194 0.637179 
75.270599 0.156022 
76.083687 1.369208 
76.553925 0.567194 
77.038872 0.05972 
77.087006 0.426237 
78.84362 0.299625 
79.021217 0.948269 
79.054283 0.969851 
80.049553 0.059553 
80.075172 0.167846 
81.069901 1.874573 
82.065239 0.068381 
82.484947 0.64505 
82.642349 0.148225 
83.049179 3.913157 
84.052589 0.189491 
84.197716 0.71209 
84.674133 0.06141 
84.72142 0.059996 
84.937706 0.857247 
85.028427 5.179449 
85.064842 0.075405 
85.100914 0.062632 
85.963814 0.61694 
86.031807 0.342496 
86.096329 0.088603 
87.032822 0.063125 
87.044121 0.277192 
88.50235 0.59778 
88.968407 0.28123 
89.059784 0.175626 
89.964027 0.068735 
90.3881 0.393886 
90.609474 0.062815 
90.947746 3.195599 
91.054253 1.453382 
91.057426 2.984064 
91.737213 0.644336 
92.057098 0.069135 
93.069939 0.732265 
93.955879 0.222488 
94.065163 0.521372 
95.049164 54.832714 
95.085716 0.462586 
96.052528 1.937879 
96.992836 0.588873 
97.319931 0.069973 
97.323547 0.061796 
98.437065 0.154935 
98.975395 0.065919 
99.313904 0.138585 
101.421425 0.184576 
101.517052 0.252394 
101.972137 0.613284 
102.948265 6.65237 
103.054298 0.785112 
103.948318 0.304432 
104.464561 0.05251 
105.033699 0.353302 
105.069839 0.578581 
106.065109 1.25073 
107.049164 29.537743 
107.085426 0.306037 
107.536888 0.058229 
108.052605 0.086483 
108.080833 0.084256 
108.958344 0.67005 
109.028389 0.390815 
109.428642 0.064 
111.044006 0.415358 
114.94838 0.22549 
115.054222 2.271153 
116.057838 0.09217 
116.963715 0.966644 
116.985001 1.288384 
117.057327 1.072518 
117.069923 0.958293 
118.065018 1.722203 
118.943108 1.56283 
119.068481 0.132507 
119.085625 0.087978 
119.943504 0.09294 
119.950943 1.189112 
120.080658 0.070041 
120.940437 0.418529 
120.958878 1.165576 
121.064865 0.899401 
121.958702 0.07215 
121.966476 0.071721 
122.096771 0.145506 
122.561073 0.59319 
122.66964 0.151905 
122.940933 0.476521 
124.07563 0.163235 
128.062057 0.097673 
128.963745 4.558605 
129.069855 1.619838 
129.089584 0.062772 
129.580353 0.369849 
130.060501 0.321213 
130.065094 47.274956 
130.979492 1.715819 
131.000198 0.780295 
131.060394 3.010258 
131.068497 7.498262 
131.072845 0.958144 
131.085327 0.065621 
131.950897 0.962196 
132.063644 0.096157 
132.071991 0.412331 
132.08075 4.234873 
132.958466 0.899178 
133.084152 0.717465 
133.412415 0.258223 
134.059235 0.060971 
134.17244 0.063487 
134.673889 0.162948 
134.974289 0.134873 
134.996063 0.749633 
135.937317 0.066317 
137.61113 0.672751 
137.927963 0.523628 
138.951279 0.325449 
139.46611 0.561877 
140.984512 0.264853 
141.022278 0.080216 
141.07016 0.160314 
142.065125 1.879147 
142.97908 0.225612 
143.000153 0.483023 
143.073151 5.124864 
143.434464 0.657144 
144.080887 26.758368 
144.980042 0.658006 
144.995453 0.17488 
145.015808 0.113281 
145.065109 0.097915 
145.076263 0.180317 
145.084137 4.340435 
145.966568 1.405603 
145.989716 0.081965 
146.059143 1.179756 
146.087769 0.167989 
146.096619 0.177022 
146.974365 27.64769 
147.08046 0.561938 
147.974213 1.756331 
148.35614 0.307371 
148.97258 0.898555 
148.98999 0.346401 
149.05986 1.30411 
150.950989 0.644995 
150.968826 0.73725 
152.951523 2.025082 
152.96698 0.071693 
153.95932 9.132591 
154.065155 5.096067 
154.946884 0.079154 
154.999939 0.068819 
155.060379 1.168813 
155.067459 0.277605 
155.073792 0.100377 
155.954651 1.217013 
156.06871 0.808747 
156.080994 6.599393 
156.946503 0.165035 
157.016083 0.261065 
157.07634 4.641679 
157.083359 0.609785 
157.089172 0.846579 
157.836319 0.536542 
158.060013 1.244958 
158.084213 1.697462 
158.096695 5.651732 
158.974609 0.100766 
159.091766 39.574806 
159.098984 1.350933 
160.075684 1.496762 
160.088181 0.17929 
160.094879 10.465219 
160.972519 0.076104 
160.990082 0.794644 
161.010956 0.078305 
161.098343 0.945618 
161.990585 0.073798 
162.971481 0.074315 
163.005539 0.087595 
163.111771 2.36522 
163.228088 0.405225 
163.977112 4.773708 
166.065063 0.554376 
167.055237 0.101715 
167.073029 3.674761 
168.068359 3.043613 
168.080856 29.20698 
169.076035 16.370241 
169.084274 10.584311 
170.060196 0.958712 
170.079132 0.551681 
170.084549 1.564169 
170.096558 3.913581 
170.96225 0.416745 
171.055237 0.67029 
171.092072 8.594018 
171.099533 0.877561 
172.075745 1.207554 
172.095062 0.397275 
172.112228 0.195705 
172.293381 0.071704 
173.071152 0.184238 
173.107239 0.182921 
174.164032 0.260414 
174.990082 1.18571 
175.086853 0.070421 
175.90596 0.688345 
176.986862 0.280062 
177.102844 0.06352 
177.994568 0.360648 
178.964508 0.372124 
180.080765 4.290002 
180.888199 2.145325 
181.076126 2.643918 
181.088776 6.254852 
181.988052 1.05554 
182.060242 0.32487 
182.084305 4.804476 
182.096756 5.965056 
183.067947 0.658418 
183.091934 26.910892 
183.100021 2.008296 
184.063141 0.977498 
184.076004 2.142164 
184.087585 0.183357 
184.095367 8.133516 
185.071121 4.725325 
185.078598 0.085987 
185.107635 27.055534 
185.949203 2.001356 
186.044022 0.594116 
186.079163 0.203901 
186.091385 0.535937 
186.110947 6.140794 
187.086746 2.810138 
187.114182 0.916754 
187.944489 0.288333 
188.071091 0.081264 
188.090851 0.214868 
188.985046 0.107514 
189.006424 0.29914 
189.99498 0.080261 
190.873398 0.234751 
191.001099 0.092924 
191.073364 0.075365 
191.880905 5.198267 
192.081085 0.380548 
192.880051 0.081856 
192.888824 1.40293 
193.076035 3.447506 
193.088593 0.066066 
193.88913 0.095168 
194.086227 0.162058 
194.096436 4.150243 
195.091705 7.032077 
195.101532 0.811433 
196.075867 2.335379 
196.098434 1.097507 
196.111801 2.358828 
197.07106 1.0837 
197.083786 0.154991 
197.097397 0.117217 
197.107529 11.293375 
197.116165 0.992859 
197.890549 0.160487 
198.044174 0.086746 
198.091782 0.65531 
198.111359 3.420997 
198.127106 0.369597 
198.898712 0.115576 
199.086609 0.911763 
199.095901 0.145037 
199.113922 0.670439 
199.12294 0.869423 
200.070709 0.085235 
201.102173 0.845743 
201.994858 0.220279 
202.105957 0.076927 
203.14325 0.151132 
203.278168 0.42757 
204.011063 0.377634 
204.080872 0.204464 
204.889114 0.212218 
205.017776 0.084811 
205.061066 0.219962 
205.076233 0.069345 
205.08812 0.177211 
205.987823 2.205661 
206.048264 0.070282 
206.084305 0.911816 
206.096436 1.833566 
206.868149 3.505897 
206.888214 0.099504 
206.927094 0.072904 
206.987274 0.07963 
207.068314 0.088084 
207.091583 5.326548 
207.876434 1.61563 
207.896545 0.156995 
208.006729 0.111954 
208.075638 0.713025 
208.099426 8.258052 
208.111267 1.085724 
208.883636 9.582067 
209.071075 2.655157 
209.107407 3.352236 
209.116989 0.083625 
209.87442 0.092066 
209.891861 8.246609 
210.091278 0.293058 
210.112869 0.251936 
210.127533 0.366644 
210.89006 0.267022 
210.900406 2.062681 
211.021667 0.607525 
211.086838 1.588756 
211.122101 0.080797 
211.293243 0.415893 
211.738815 0.630019 
211.89978 0.239104 
212.093826 0.091734 
212.106552 0.259384 
213.102417 0.510425 
213.826523 0.070525 
213.887299 0.148804 
214.893936 0.679824 
215.049362 0.134277 
215.118134 2.544082 
215.901672 0.446813 
216.121826 0.378732 
216.889008 0.310693 
217.989944 0.342621 
218.096695 0.763521 
218.868607 0.940966 
218.905029 0.366183 
219.09169 1.847384 
219.174713 0.196742 
219.74649 0.424766 
219.759232 1.513377 
219.768921 0.910424 
219.877243 0.214488 
219.897446 0.065586 
220.005966 0.415016 
220.099747 1.372438 
220.112076 0.490453 
220.39975 0.636124 
220.883911 0.083596 
220.903519 0.975158 
221.071259 0.316607 
221.107452 10.689656 
222.079498 0.457355 
222.091293 0.110918 
222.102341 0.630513 
222.112625 1.275523 
222.898743 8.965336 
223.086502 19.721201 
223.122864 0.807916 
224.094421 9.132148 
224.106781 0.539226 
224.878448 5.338447 
224.898956 0.097739 
225.101517 1.335513 
225.138657 0.075003 
225.887131 3.11801 
226.123459 0.076401 
226.894943 1.488214 
227.894363 0.081472 
228.88942 1.508418 
228.910828 0.079024 
229.006042 1.398224 
229.027649 0.075041 
229.896378 1.319932 
230.025421 0.180509 
231.021622 3.166533 
231.896439 0.119448 
232.024475 0.097389 
232.883743 3.286745 
232.904404 1.317043 
233.059464 0.191884 
233.107483 0.694927 
233.89151 3.435887 
233.903595 0.206211 
234.114975 0.594678 
234.899216 29.835649 
235.087036 0.695 
235.123093 7.742803 
235.899612 2.475042 
236.094101 0.066802 
236.130127 0.07222 
236.154205 0.602581 
236.899567 0.462385 
236.917938 0.061625 
237.102463 1.606705 
237.138748 0.50017 
237.886765 0.10535 
238.110016 0.076795 
238.894424 0.243781 
238.914261 1.75359 
239.117767 0.120326 
239.155975 0.082432 
239.900681 0.217657 
239.913147 0.103263 
240.895798 0.222121 
240.909271 14.801934 
241.005432 0.066152 
241.088852 0.080463 
241.911362 0.086271 
242.464249 0.064187 
242.909805 0.224459 
244.100357 0.077743 
244.905731 0.17815 
245.00058 0.093056 
245.106842 0.071751 
246.114822 0.066726 
246.883865 0.155634 
246.898636 0.087747 
247.016479 0.267138 
247.122543 0.182617 
247.907288 3.641483 
248.878311 6.743105 
248.899643 0.198586 
249.102005 0.159892 
249.139099 0.654893 
249.878738 0.22445 
250.004196 0.078163 
250.880493 0.10844 
250.893997 13.908739 
251.118027 1.681346 
251.894501 1.053222 
252.909698 1.106577 
253.133224 0.181146 
253.9021 0.181491 
253.918304 0.200836 
254.097183 0.072726 
255.021576 0.129248 
255.150284 0.06598 
255.897049 0.692379 
256.099731 1.69686 
256.90564 0.084056 
257.106171 1.947366 
257.896912 0.236719 
258.112 0.380972 
258.725525 0.435062 
258.899933 0.372181 
259.032166 0.42398 
259.122955 0.546652 
259.892273 0.077631 
260.900055 0.175936 
261.102112 0.758578 
262.895508 0.208109 
262.91333 0.147171 
263.117828 1.154591 
263.902557 1.019458 
264.909332 1.476931 
265.135193 0.086612 
265.918701 0.541001 
266.888916 4.990225 
267.889557 0.216121 
268.099121 0.17251 
268.904877 1.856705 
269.00116 0.303364 
269.106842 2.760248 
269.892242 0.091813 
270.114929 2.026833 
270.900238 0.351579 
271.016937 0.086302 
271.076019 0.069136 
271.122314 3.9604 
272.126617 2.648306 
273.129028 0.921745 
274.894165 0.506254 
274.914032 0.08874 
275.117889 0.148293 
275.902313 1.401328 
276.877472 0.076903 
276.910095 3.522908 
277.006836 0.070943 
277.133301 1.15254 
277.915771 0.066158 
278.55545 0.265638 
279.89798 0.419236 
280.099365 0.654519 
280.813354 0.384501 
281.107361 3.120334 
281.896149 0.414354 
282.068237 0.161792 
282.113647 2.299561 
282.919434 0.204795 
283.123444 6.337612 
284.126984 3.711696 
285.102783 0.205538 
285.133698 1.463079 
285.81665 0.199353 
286.106903 0.071814 
286.139618 0.913712 
286.822784 0.08369 
287.146637 0.127876 
287.813293 0.090236 
287.83197 0.28416 
288.926544 0.414095 
289.918152 3.663938 
290.918732 0.283805 
291.897217 0.183352 
293.107239 3.361798 
294.112244 4.070102 
295.123779 9.945344 
295.928223 1.423519 
296.097382 0.087914 
296.127502 7.752085 
296.808624 0.41398 
297.102325 0.888716 
297.136902 3.97944 
297.816895 0.112311 
298.110565 0.099031 
298.13797 4.735908 
299.138214 2.809494 
300.140656 0.81309 
300.150848 0.511267 
300.822144 0.163407 
301.154846 0.217693 
302.156952 0.180478 
302.818787 0.798089 
306.115021 0.236687 
307.122589 3.143202 
308.127869 3.115237 
309.103516 0.381304 
309.137238 4.435559 
309.818909 0.072641 
310.112427 0.236505 
310.139923 5.509605 
310.843811 0.803744 
311.118561 0.186527 
311.142303 4.700684 
311.832458 0.096696 
312.122772 0.077139 
312.14917 5.931969 
312.838989 2.827749 
313.152832 6.152466 
314.156891 3.830591 
315.166229 1.081433 
315.186462 0.075633 
316.170868 0.193958 
316.903259 0.167821 
317.824249 0.182185 
318.829346 0.089596 
319.124481 0.085509 
321.102966 0.309909 
321.139618 0.598536 
322.110077 0.139183 
322.138763 0.558132 
322.824493 0.416647 
323.117401 0.726217 
323.152252 1.099238 
323.832306 0.100001 
324.152466 1.644919 
325.13446 0.108248 
325.156311 1.704517 
325.831787 0.780123 
325.867523 0.65482 
326.164764 4.284672 
326.818604 0.108254 
326.835541 0.436461 
327.168243 5.583512 
327.826752 2.865515 
328.171631 4.627177 
328.832703 0.116735 
329.176208 0.825338 
329.8237 0.10855 
331.838318 0.325515 
333.139679 0.47102 
334.134949 0.225526 
334.327393 0.717316 
335.118591 0.407767 
335.151611 0.082696 
335.832397 0.203091 
336.114807 0.241559 
336.150848 0.219055 
336.839264 0.243459 
337.847137 0.191379 
338.129181 1.296341 
338.165771 0.118755 
341.176636 0.172913 
342.180115 0.336759 
342.833618 0.603334 
343.192047 4.412081 
344.195007 9.260976 
344.829803 2.179041 
345.198151 9.570389 
346.20166 0.729465 
347.11908 0.096064 
350.130493 0.558717 
352.146545 0.519739 
353.842163 1.342501 
356.989105 0.147958 
364.145111 0.337139 
364.833588 0.175013 
367.841675 0.321048 
369.171753 0.133944 
369.814972 0.077651 
369.837738 1.794592 
370.065277 0.094042 
383.852539 0.218241 
387.848022 0.15735 
399.181122 0.066066 
403.789642 0.172781 
405.056183 0.073996 
405.694397 0.610234 
406.844147 0.083016 
420.860931 0.198107 
422.405731 0.431337 
429.219879 0.25269 
444.751862 0.066323 
447.347351 0.20716 
487.480408 0.635392 
496.732239 0.516572 
END IONS

