BEGIN IONS
PEPMASS=448.0
CHARGE=1+
COMPOUNDNAME=Massbank:KO004034 Sisomicin|Antibiotic 6640|Dehydrogentamicin Cla|Rickamicin
LIBRARYQUALITY=3
SMILES=NCC(=C3)O[C@@H]([C@H](N)C3)O[C@H]([C@@H](N)1)[C@H](O)[C@@H](O[C@@H](O2)[C@H](O)[C@@H](NC)[C@](C)(O)C2)[C@H](N)C1
INCHIKEY=URWAJWIAIPFPJE-GYHYWALZSA-N
INCHI=1S/C19H37N5O7/c1-19(27)7-28-18(13(26)16(19)24-2)31-15-11(23)5-10(22)14(12(15)25)30-17-9(21)4-3-8(6-20)29-17/h3,9-18,24-27H,4-7,20-23H2,1-2H3/t9-,10+,11-,12+,13-,14-,15+,16-,17-,18-,19+/m1/s1
MSLEVEL=2
SOURCE_INSTRUMENT=ESI-LC-ESI-QQ
FILENAME=Massbank_ESI_positive_8_1_2014_peaks.mgf
SEQ=*..*
IONMODE=Positive
ORGANISM=MASSBANK
NAME=Massbank:KO004034 Sisomicin|Antibiotic 6640|Dehydrogentamicin Cla|Rickamicin [M+H]+
PI=Putative Massbank Match
DATACOLLECTOR=Massbank
PUBMED=N/A
SUBMITUSER=mwang87
TAGS=
SPECTRUMID=CCMSLIB00000220590
SCANS=9826
81.3 29703.0 
84.1 79208.0 
100.1 128713.0 
100.9 19802.0 
102.1 29703.0 
109.2 1079209.0 
110.0 123762.5 
110.6 34653.5 
112.2 1594061.0 
114.1 351485.5 
118.2 2049507.0 
120.3 84158.5 
123.0 69307.0 
124.3 29703.0 
127.2 1009902.0 
129.0 29703.0 
131.7 19802.0 
136.1 34653.5 
142.2 1237625.0 
144.8 74257.5 
151.3 336634.0 
160.2 5326738.0 
163.3 3039607.0 
164.2 34653.5 
169.4 153465.5 
173.3 272277.5 
175.4 118812.0 
187.2 108911.0 
199.2 74257.5 
201.5 123762.5 
205.2 633664.0 
215.4 74257.5 
217.5 54455.5 
219.5 59406.0 
225.1 44554.5 
227.0 69307.0 
228.2 94059.5 
230.4 29703.0 
231.4 54455.5 
236.1 49505.0 
237.1 103960.5 
241.1 14851.5 
243.5 59406.0 
253.2 24752.5 
254.4 5871293.0 
258.6 19802.0 
268.3 44554.5 
271.6 5297035.0 
272.4 658416.5 
273.0 29703.0 
278.6 277228.0 
283.5 84158.5 
289.6 148515.0 
295.4 589109.5 
296.4 455446.0 
313.7 584159.0 
322.6 608911.5 
331.7 89109.0 
413.8 549505.5 
430.9 237624.0 
END IONS

