BEGIN IONS
PEPMASS=526.172
CHARGE=1+
COMPOUNDNAME=DAUNORUBICIN
LIBRARYQUALITY=3
SMILES=N/A
INCHIKEY=STQGQHZAVUOBTE-VGBVRHCVSA-N
INCHI=InChI=1S/C27H29NO10/c1-10-22(30)14(28)7-17(37-10)38-16-9-27(35,11(2)29)8-13-19(16)26(34)21-20(24(13)32)23(31)12-5-4-6-15(36-3)18(12)25(21)33/h4-6,10,14,16-17,22,30,32,34-35H,7-9,28H2,1-3H3/t10-,14-,16-,17-,22+,27-/m0/s1
MSLEVEL=2
SOURCE_INSTRUMENT=N/A-ESI-QFT
FILENAME=library_mgf.mgf
SEQ=*..*
IONMODE=negative
ORGANISM=MONA
NAME=DAUNORUBICIN [M-H]-
PI=MoNA
DATACOLLECTOR=MoNA:VF-NPL-QEHF003437
PUBMED=N/A
SUBMITUSER=mwang87
TAGS=
SPECTRUMID=CCMSLIB00004694500
SCANS=3437
50.381016 0.02372 
50.381748 0.036407 
51.41597 0.035668 
51.936714 0.027186 
52.058071 0.02223 
52.403061 0.03608 
52.620804 0.039856 
52.910706 0.027629 
53.274273 0.048682 
53.519958 0.035047 
53.779804 0.03895 
54.183353 0.023839 
54.216358 0.037609 
54.23003 0.045821 
54.609322 0.045646 
54.697041 0.024041 
55.166519 0.030348 
55.506142 0.026573 
55.831902 0.037188 
56.634953 0.023275 
56.764938 0.024387 
56.840385 0.037058 
57.36692 0.024417 
57.492134 0.025674 
57.582104 0.033528 
57.588009 0.02698 
57.891624 0.031074 
58.10104 0.028311 
58.555058 0.051915 
59.012455 2.62872 
60.091602 0.027418 
60.218533 0.028768 
60.507442 0.023231 
60.645138 0.021317 
60.686771 0.026725 
62.3074 0.021824 
62.452389 0.033027 
63.003979 0.030971 
63.384205 0.038773 
64.892342 0.04703 
65.243576 0.038565 
66.072685 0.026342 
66.367088 0.04349 
67.288132 0.050461 
67.330917 0.043436 
67.426941 0.04189 
67.965851 0.044661 
67.995483 0.044668 
68.062172 0.024509 
68.319115 0.037096 
68.343727 0.02506 
68.897491 0.028581 
69.41375 0.042223 
69.417923 0.04174 
69.626671 0.053186 
69.822044 0.040636 
71.418221 0.039998 
71.430244 0.043707 
72.347466 0.043236 
72.923401 0.024797 
74.537872 0.038217 
74.9646 0.022183 
75.067894 0.03607 
75.390213 0.031314 
75.795944 0.036729 
75.86824 0.04001 
75.941154 0.052075 
76.154022 0.031994 
76.161079 0.038039 
77.565819 0.046895 
77.703613 0.026846 
77.992645 0.032563 
78.181664 0.024398 
78.193092 0.025731 
78.198257 0.029368 
78.653946 0.030974 
79.790588 0.03026 
80.608284 0.039652 
80.612892 0.023181 
81.890953 0.052054 
82.138428 0.040797 
83.012474 0.384587 
84.461044 0.044725 
85.028183 0.055353 
85.339203 0.044118 
86.466469 0.041103 
87.055534 0.023532 
87.113647 0.032905 
88.245628 0.032456 
88.283913 0.026852 
88.567383 0.023211 
88.733574 0.039778 
88.931931 0.040591 
89.210876 0.052544 
90.611656 0.034748 
91.389145 0.039655 
91.612831 0.023262 
91.777283 0.023394 
92.175957 0.025578 
93.149162 0.025503 
93.657005 0.03585 
94.173973 0.042997 
94.178001 0.055457 
94.299164 0.02408 
94.327919 0.023719 
94.697327 0.030365 
95.219368 0.041075 
95.238998 0.029284 
97.601303 0.025387 
97.954315 0.026825 
98.68914 0.023158 
99.094131 0.02573 
99.124771 0.024943 
99.268044 0.041908 
99.484352 0.036129 
99.813332 0.027068 
100.077003 0.027012 
100.540024 0.035779 
101.11953 0.025501 
101.695969 0.029795 
101.840561 0.036016 
103.506905 0.039273 
103.647316 0.023367 
106.311493 0.044205 
107.612106 0.030416 
108.371231 0.026023 
109.856987 0.029625 
111.115837 0.046299 
111.898903 0.027137 
112.534081 0.041394 
113.67395 0.035754 
114.193634 0.036871 
114.728699 0.026588 
115.093704 0.041248 
115.366692 0.03143 
116.300873 0.031702 
116.396187 0.043012 
117.104462 0.057875 
117.434853 0.028053 
118.995552 0.039741 
119.659561 0.041428 
120.605942 0.035246 
120.725952 0.049442 
122.641014 0.046292 
125.487434 0.033006 
125.73925 0.033792 
126.07296 0.023453 
126.944542 0.024047 
128.081757 0.035977 
128.131058 0.048019 
128.394867 0.026281 
129.331223 0.025274 
129.511459 0.028303 
130.151688 0.027781 
131.204117 0.04554 
131.768707 0.049649 
131.943497 0.024295 
133.081024 0.025141 
133.577286 0.024962 
135.284149 0.034951 
137.307816 0.023147 
139.485764 0.030599 
143.364761 0.027943 
144.79834 0.050536 
146.373764 0.040358 
149.125366 0.033263 
149.338211 0.023179 
150.259445 0.024717 
153.564575 0.036419 
154.109467 0.023377 
157.899521 0.040535 
160.093185 0.030071 
162.482147 0.030773 
164.105576 0.047408 
164.814865 0.035175 
165.995605 0.03615 
168.508072 0.031775 
169.883713 0.041514 
171.958832 0.026262 
172.078629 0.053548 
172.779663 0.047747 
173.63121 0.024283 
176.851654 0.028134 
182.421997 0.04808 
182.59816 0.026019 
182.808243 0.026929 
182.96669 0.030739 
183.421982 0.023327 
189.822815 0.024232 
194.888229 0.02964 
196.550903 0.024591 
198.960434 0.037168 
200.532059 0.053375 
201.120346 0.043168 
206.367142 0.030801 
209.165955 0.032241 
210.880707 0.050024 
210.991501 0.040873 
213.181595 2.985795 
213.188705 2.503107 
215.745865 0.025884 
218.688721 0.024965 
219.269821 0.027901 
223.692062 0.03072 
227.559738 0.028437 
228.736847 0.030431 
229.114609 0.046238 
232.769958 0.05476 
233.22261 0.034676 
234.300751 0.037137 
235.132431 0.036526 
237.815765 0.039594 
239.870621 0.024871 
243.562103 0.029138 
249.055054 0.025067 
250.673843 0.068537 
251.161697 0.047623 
251.887985 0.047233 
253.915131 0.044296 
255.355301 0.04846 
259.503174 0.029828 
260.28241 0.029552 
262.593842 0.031007 
263.130585 0.032886 
266.057983 0.065286 
268.037048 0.046024 
269.04538 1.100151 
270.163483 0.026385 
271.775696 0.033218 
274.065216 0.032306 
276.042877 0.476505 
277.050476 0.883151 
278.527039 0.02528 
279.012848 0.027011 
280.648468 0.055808 
281.080688 0.041795 
283.060822 0.085529 
284.068787 0.037964 
285.141266 0.030538 
286.032104 0.042259 
287.662994 0.028022 
290.058289 1.392916 
291.066437 4.059655 
291.187805 0.038164 
292.03775 8.277103 
292.071503 0.566487 
293.045441 16.349167 
293.076477 0.088244 
293.669586 0.025962 
294.052917 10.837655 
295.059021 2.60064 
298.047363 0.036351 
298.79715 0.026441 
300.126282 0.036549 
301.71524 0.04607 
302.057861 0.366847 
304.037689 4.794443 
305.044617 2.580333 
305.081451 0.330621 
306.050995 0.224713 
307.024719 0.272708 
307.061462 3.734311 
307.096558 0.026593 
308.032715 0.827892 
308.068298 2.908866 
309.037689 0.028101 
309.076752 8.887241 
310.080597 0.854897 
314.427734 0.035703 
315.065796 0.081049 
317.04538 0.978567 
317.081421 0.089896 
318.053375 9.531444 
318.794647 0.054519 
319.025574 0.044118 
319.060883 13.353181 
320.032806 4.179764 
320.066528 3.521687 
321.040497 100.0 
322.046112 29.141991 
322.647034 0.033624 
323.054321 4.54104 
324.057404 0.044615 
325.121582 0.051015 
326.046356 0.045355 
328.037933 0.275857 
329.044861 0.2513 
331.085144 0.039627 
332.067322 0.044804 
333.076752 3.018783 
334.080383 0.160187 
335.056274 44.902241 
336.028107 0.361324 
336.062805 22.457409 
337.071045 10.667197 
338.044098 0.032602 
338.074677 0.914882 
343.061157 1.160424 
345.040497 1.278154 
346.048096 11.994732 
347.054871 6.056578 
348.059967 0.412985 
349.03537 8.078835 
350.039886 1.671178 
351.050171 0.169962 
351.087402 0.029724 
361.072021 12.556322 
362.075775 2.49333 
362.210846 0.027034 
363.051331 7.289888 
364.058319 5.837984 
364.732483 0.034751 
365.065552 3.400506 
366.072266 0.165823 
379.082458 1.015381 
380.088074 0.091117 
381.061707 0.435602 
381.724915 0.062768 
392.357056 0.027871 
396.086487 0.07851 
408.329437 0.038318 
413.371643 0.047512 
421.703522 0.044998 
424.591919 0.043449 
430.241028 0.045384 
431.108978 0.047498 
443.444672 0.027142 
470.287231 0.037156 
470.651428 0.044551 
471.962433 0.036162 
472.67807 0.041586 
473.460632 0.037902 
476.031158 0.030357 
477.50415 0.030916 
483.043579 0.040416 
491.610199 0.049703 
492.391235 0.055594 
496.086945 0.049787 
522.71698 0.041491 
524.631836 0.050221 
525.68689 0.048521 
END IONS

