BEGIN IONS
PEPMASS=369.11
CHARGE=1+
COMPOUNDNAME=Gibberellin A4&A7
LIBRARYQUALITY=3
SMILES=N/A
INCHIKEY=SEEGHKWOBVVBTQ-UKJRIFTCSA-N
INCHI=InChI=1S/C19H22O5/c1-9-7-18-8-10(9)3-4-11(18)19-6-5-12(20)17(2,16(23)24-19)14(19)13(18)15(21)22/h5-6,10-14,20H,1,3-4,7-8H2,2H3,(H,21,22)/t10-,11-,12+,13-,14-,17+,18+,19-/m1/s1
MSLEVEL=2
SOURCE_INSTRUMENT=N/A-ESI-QFT
FILENAME=library_mgf.mgf
SEQ=*..*
IONMODE=positive
ORGANISM=MONA
NAME=Gibberellin A4&A7 [M+K]+
PI=MoNA
DATACOLLECTOR=MoNA:VF-NPL-QEHF006595
PUBMED=N/A
SUBMITUSER=mwang87
TAGS=
SPECTRUMID=CCMSLIB00004697658
SCANS=6595
50.027096 0.018374 
50.443245 0.010274 
50.457787 0.025493 
50.483925 0.00852 
50.486576 0.020157 
51.529682 0.018766 
51.599045 0.007147 
51.831825 0.00807 
52.192581 0.020749 
53.431774 0.02061 
53.974785 0.019054 
54.185123 0.014651 
54.549278 0.009635 
55.008224 0.009993 
55.018581 0.408367 
55.031155 0.014703 
55.054993 1.579718 
56.050243 0.039042 
56.058205 0.008249 
56.128117 0.020423 
56.303093 0.015507 
56.566628 0.01417 
56.658192 0.022424 
57.034214 0.404001 
57.070644 2.33984 
57.187515 0.016123 
57.278233 0.01664 
57.919712 0.019227 
58.065876 1.798302 
58.067417 0.011726 
58.548794 0.015627 
58.728184 0.007017 
59.04987 0.700382 
59.061089 0.292226 
59.115868 0.017021 
59.841373 0.01329 
60.045097 0.10461 
60.081512 1.375281 
60.365417 0.008338 
60.840054 0.014919 
61.0112 0.036023 
62.060738 0.02795 
62.237583 0.010943 
62.667953 0.007843 
62.822224 0.015379 
62.871613 0.015209 
62.980816 0.022686 
62.982441 1.031025 
63.229519 0.020997 
64.563507 0.015061 
65.110077 0.013026 
66.79686 0.009385 
67.054932 2.914878 
67.4748 0.012666 
67.652016 0.012846 
68.050163 0.011725 
68.05825 0.023856 
68.868683 0.019714 
69.034142 0.457308 
69.070549 2.289633 
70.029358 0.013794 
70.065773 0.364075 
70.073677 0.00952 
70.185646 0.01375 
70.320244 0.023721 
71.049789 0.727217 
71.086182 2.652112 
72.04493 0.026783 
72.078064 0.011464 
72.081474 0.094857 
72.089424 0.015258 
73.047478 1.800104 
73.06546 0.074901 
74.089317 0.007982 
74.581879 0.016626 
75.165726 0.015274 
75.390045 0.015133 
75.434738 0.018743 
76.039894 0.013607 
76.076302 0.020263 
76.330269 0.021565 
76.540176 0.020949 
78.956215 0.012761 
79.021751 0.446914 
79.054802 1.555361 
79.508301 0.012462 
80.058121 0.03238 
80.610802 0.019591 
81.019135 0.061898 
81.034027 0.175422 
81.070465 4.106193 
81.628082 0.018867 
82.065605 0.043653 
82.073761 0.052791 
82.16758 0.013812 
83.049667 0.845349 
83.086067 2.60162 
84.044899 0.135759 
84.081314 0.240708 
84.089417 0.042008 
84.393227 0.024491 
84.639824 0.009126 
84.839668 0.021102 
85.028931 0.236147 
85.040184 0.010298 
85.065262 0.905855 
85.101692 0.600592 
86.060585 0.095426 
86.096909 0.744168 
86.764 0.009804 
87.044548 0.417387 
87.047165 0.011306 
87.527939 0.017668 
87.775093 0.020056 
87.988312 0.01105 
88.039734 0.063458 
88.07618 0.130548 
88.670769 0.021238 
88.72863 0.014192 
89.060158 0.893361 
89.508209 0.018702 
89.717964 0.021401 
90.055038 0.010262 
90.071465 0.017948 
91.054688 1.466397 
91.057808 6.278314 
91.061066 0.024278 
92.057671 0.034637 
92.19825 0.015307 
92.230927 0.014557 
93.037048 0.05073 
93.070312 2.404098 
93.073326 0.025086 
93.502831 0.021076 
94.065437 0.009335 
94.07357 0.017081 
95.049561 0.714891 
95.085999 4.394619 
96.032913 0.012449 
96.044724 0.015617 
96.089241 0.175229 
97.028717 0.078525 
97.065208 1.17794 
97.101593 2.907209 
98.060463 0.091539 
98.096596 0.044664 
98.10479 0.07434 
98.926582 0.010612 
98.995979 0.010323 
99.04438 0.400534 
99.062317 0.01305 
99.080856 2.129379 
99.25531 0.012745 
100.076065 1.005658 
100.084412 0.008797 
100.112419 0.043403 
100.689346 0.009081 
100.696915 0.017631 
101.003502 0.467862 
101.023727 0.021919 
101.060074 0.858502 
101.385674 0.015 
102.091537 0.219298 
102.597427 0.012878 
102.999191 0.021016 
103.039062 0.012407 
103.283195 0.013743 
104.070854 0.017964 
105.033638 0.061826 
105.070091 1.466548 
105.324326 0.020732 
106.08696 0.015101 
106.890053 0.02034 
107.002029 0.020408 
107.049423 0.590427 
107.070419 0.01036 
107.085846 2.912895 
107.41996 0.009978 
108.044273 0.009981 
108.081078 0.015249 
108.089188 0.151118 
108.140877 0.021008 
108.297501 0.019723 
108.367729 0.018789 
108.574966 0.015872 
109.065018 0.984521 
109.10141 3.544847 
109.960442 0.00812 
110.060287 0.178762 
110.071976 0.025013 
110.097023 0.017239 
110.104805 0.1118 
111.00547 0.035229 
111.04055 0.008235 
111.044312 0.577944 
111.080696 1.202816 
111.084579 0.015703 
111.116989 0.144733 
112.075897 0.490524 
112.112335 0.150518 
113.059929 0.511003 
113.096275 0.281006 
113.981422 0.012382 
114.054901 0.027612 
114.127914 0.012562 
115.039154 0.039675 
115.056068 0.029989 
115.0755 0.111171 
115.110901 0.012446 
116.053146 0.196476 
116.070854 0.109627 
117.069992 0.577722 
119.049255 0.025233 
119.085716 1.963128 
119.511604 0.021597 
120.080818 0.076011 
120.088913 0.077036 
120.118996 0.021521 
121.064919 1.025466 
121.101326 2.499395 
122.059891 0.015608 
122.104568 0.062533 
123.044075 0.17875 
123.080482 1.319221 
123.116905 1.0286 
124.0392 0.034939 
124.075668 0.028686 
124.12011 0.012395 
125.059776 1.055691 
125.096222 3.343703 
126.091347 0.442264 
126.099442 0.092657 
126.350067 0.013908 
127.038742 0.033923 
127.075409 0.127026 
127.111839 0.048225 
127.557976 0.024585 
127.617577 0.013547 
128.070602 0.072418 
129.054504 0.123117 
129.069824 0.150989 
130.037674 0.019832 
130.049805 0.029292 
130.065216 0.030236 
130.086182 0.048196 
130.186615 0.014334 
131.049332 0.017601 
131.08551 1.268417 
131.743134 0.02458 
132.088669 0.058092 
132.869812 0.007592 
133.064728 0.268006 
133.085892 0.134169 
133.101212 2.75608 
134.059921 0.011359 
134.096298 0.02287 
134.104492 0.081559 
134.978729 0.099954 
135.044022 0.066837 
135.080444 1.776688 
135.116791 1.612906 
136.075424 0.074883 
136.084183 0.026771 
136.120178 0.009174 
136.498047 0.00949 
137.059799 0.546784 
137.096069 1.410948 
137.132355 0.08495 
138.055008 0.015776 
138.063416 0.00971 
138.091125 0.103179 
138.09938 0.026804 
138.12796 0.034037 
139.036514 0.4361 
139.04982 0.0254 
139.075333 1.505922 
139.111664 0.605281 
140.034088 0.010714 
140.078629 0.011624 
140.106888 0.02187 
140.143143 0.040526 
141.054581 0.01209 
141.090881 0.271524 
141.12709 0.085031 
142.086304 0.037379 
142.122635 0.025056 
142.158997 0.11347 
142.938416 0.036049 
143.07019 0.247888 
143.085464 0.381483 
143.106476 0.035939 
145.064667 0.13107 
145.101089 1.410059 
146.059753 0.022239 
146.104218 0.008901 
147.0439 0.035844 
147.065033 0.024064 
147.080353 0.668329 
147.116714 1.32708 
147.646271 0.009184 
148.076736 0.009766 
148.111969 1.361128 
148.11882 0.025166 
149.059616 0.255331 
149.096039 1.607694 
149.115402 0.749134 
149.132401 0.461808 
149.40831 0.01403 
149.749435 0.022499 
150.091248 0.077183 
150.099167 0.035414 
150.127518 0.010761 
150.135361 0.013938 
151.03833 0.011777 
151.075317 0.548341 
151.111649 1.144568 
151.147964 0.050386 
151.60289 0.014274 
152.070526 0.077556 
152.106735 0.161641 
152.114212 0.036381 
152.143585 0.029932 
152.989136 0.303505 
153.054596 0.047284 
153.090912 2.113011 
153.126999 0.085211 
154.050095 0.016823 
154.094086 0.011231 
154.122528 0.798958 
155.022278 0.0096 
155.031281 0.512532 
155.070007 0.05741 
155.085205 0.104062 
155.106552 0.368814 
156.138412 0.022455 
157.023529 0.881941 
157.06395 0.02999 
157.0858 0.074303 
157.101196 0.627518 
158.060089 0.011073 
158.15448 0.015456 
159.080521 0.235323 
159.11673 1.010053 
160.11998 0.032288 
161.044495 0.071416 
161.059753 0.17793 
161.096008 1.044052 
161.132477 0.669212 
162.091354 0.026077 
162.099396 0.012965 
162.136002 0.031917 
163.038834 0.134204 
163.07518 0.437644 
163.111679 1.315344 
163.147873 0.141424 
163.546936 0.014924 
164.106873 0.069397 
164.114822 0.032105 
164.481842 0.020505 
165.054291 0.024144 
165.090836 0.761361 
165.127197 0.216302 
165.163574 0.010687 
166.086121 0.085306 
166.122635 0.081449 
167.055389 0.157795 
167.06871 0.438407 
167.106659 0.754809 
167.118393 0.014529 
168.102142 0.03617 
168.138229 0.023544 
168.174866 0.009223 
169.047287 0.016285 
169.086349 0.025806 
169.101257 0.164759 
169.121872 0.075922 
169.435974 0.016794 
169.445526 0.02687 
170.117477 0.040417 
171.080124 0.0861 
171.101593 0.15076 
171.116714 0.44954 
171.820114 0.015507 
172.132782 0.020462 
173.096008 0.704799 
173.117004 0.24813 
173.132385 0.55308 
174.663742 0.023049 
175.036865 0.087066 
175.075073 0.265784 
175.096298 0.021801 
175.111649 0.65143 
175.148148 0.544908 
176.069855 0.020275 
176.10704 0.11153 
177.054276 0.036161 
177.090866 0.58694 
177.127335 0.414247 
177.163483 0.012355 
178.086182 0.123637 
178.12265 0.067027 
179.069916 0.102788 
179.085052 0.023049 
179.106262 0.661411 
179.142883 0.047456 
180.101562 0.509068 
180.138351 0.126908 
181.049469 0.05741 
181.084915 0.185171 
181.100998 0.254479 
181.122253 0.225236 
182.08107 0.811395 
182.117599 0.070543 
182.153763 0.026102 
183.039856 0.041306 
183.064758 0.02036 
183.10022 0.11394 
183.116669 0.60552 
185.096237 0.217324 
185.132492 0.548173 
187.075256 0.05741 
187.111694 0.552574 
187.148026 0.23505 
188.070526 0.012122 
188.106918 0.019994 
189.054108 0.010062 
189.090836 0.270395 
189.112076 0.975762 
189.127258 0.334226 
189.163589 0.06042 
190.086441 0.018138 
191.070236 0.094752 
191.106522 0.792307 
191.142838 0.090268 
191.445847 0.023759 
192.101593 0.04459 
192.110107 0.018939 
192.137436 0.01341 
192.885376 0.010323 
193.085632 0.218162 
193.101166 0.050225 
193.122375 0.709164 
193.131622 0.013795 
193.158691 0.212149 
193.536713 0.024398 
194.080414 0.025619 
194.117416 0.18599 
194.126419 0.014796 
195.062271 0.022307 
195.080368 0.012272 
195.099808 0.766185 
195.116531 0.114642 
195.138031 0.084296 
196.096542 0.057171 
196.132904 0.023624 
197.079208 0.053604 
197.096115 0.112678 
197.11705 0.029025 
197.13237 0.657707 
198.112198 0.076643 
198.135925 0.034259 
198.148422 0.099701 
199.075546 0.028631 
199.095093 0.028762 
199.111694 0.349709 
199.130478 0.555819 
199.147888 0.136872 
199.796997 0.020557 
200.146378 0.500486 
201.049652 0.18669 
201.090988 0.280145 
201.109604 0.042798 
201.127319 0.46262 
201.163681 0.068005 
202.13089 0.01536 
202.178711 0.012724 
203.070328 0.041913 
203.106537 0.351265 
203.142609 0.188767 
203.179306 0.023932 
204.063904 0.053907 
204.101822 0.017396 
205.0681 0.022745 
205.085922 0.087142 
205.122101 0.35596 
205.158752 0.430682 
206.117325 0.24224 
206.977859 0.011974 
207.10083 0.351341 
207.116913 0.021944 
207.13739 0.321361 
208.022263 0.011293 
208.039093 0.057115 
208.096603 0.043657 
208.132736 0.330584 
209.080307 0.032421 
209.09581 0.05457 
209.11647 0.3931 
209.128738 0.044002 
210.111786 0.089734 
210.148758 0.025551 
210.185333 0.014436 
211.094376 0.356958 
211.111725 0.143487 
211.132812 0.1757 
211.147614 0.053503 
212.956085 0.030354 
213.090607 0.034907 
213.127197 0.241287 
213.162766 0.118657 
214.412338 0.346739 
214.421875 0.606921 
214.43338 0.382973 
214.935333 0.019061 
215.070007 0.015763 
215.092606 0.01833 
215.106476 0.295 
215.142593 0.071645 
215.179031 0.00905 
217.085785 0.142473 
217.122452 0.267176 
217.1586 0.010601 
219.101425 0.154706 
219.137726 0.225667 
219.17424 2.827327 
220.096542 0.028277 
220.132629 0.034046 
220.177658 2.526841 
220.766296 0.020395 
221.079376 0.040094 
221.117065 0.193775 
221.131058 0.011783 
221.153259 0.213579 
221.180466 0.024968 
221.51149 0.0211 
222.102158 0.011934 
222.112137 0.416753 
222.148529 0.064866 
223.095123 0.051083 
223.111969 0.068697 
223.132904 0.096137 
223.146301 0.097701 
223.168701 0.018826 
224.127823 0.071575 
224.151215 0.00873 
225.073166 0.225171 
225.091064 0.028168 
225.109802 0.718285 
225.126785 0.272643 
225.163177 0.04197 
227.088593 0.060397 
227.1064 0.437942 
227.127594 0.272589 
227.142334 0.1168 
227.178909 0.014971 
229.074036 0.028953 
229.086029 0.020155 
229.122284 0.189804 
229.158157 0.075693 
229.194916 0.023548 
230.96669 2.159006 
231.053665 0.082453 
231.100876 0.064485 
231.137726 0.089395 
231.174286 0.128483 
232.132751 0.009397 
232.94606 1.7017 
232.958832 0.021533 
233.080673 0.337467 
233.116653 0.195602 
233.153229 0.111231 
234.148575 0.011123 
235.111282 0.031288 
235.13147 0.72568 
235.145752 0.012275 
236.092255 0.0139 
236.162674 0.020468 
237.126221 0.046525 
237.147568 0.201147 
237.161499 0.015307 
238.105515 0.078211 
239.089233 0.177364 
239.105881 0.062079 
239.127487 0.012752 
239.142776 0.072469 
239.163925 0.012038 
239.178665 0.032949 
240.182678 0.01439 
241.105209 0.097787 
241.121719 0.3243 
241.158371 0.131302 
241.195526 0.03949 
243.101395 0.070288 
243.137787 0.156977 
243.174088 0.026743 
243.21138 0.009542 
244.132462 0.013384 
244.898224 0.022087 
245.116623 0.031304 
245.153381 0.175373 
245.190063 0.044039 
246.11174 0.018639 
246.148392 0.104042 
247.085846 0.011673 
247.097 0.015789 
247.131943 0.034494 
247.169022 0.059385 
247.20549 0.013406 
248.052963 0.270815 
248.977249 1.331937 
249.064468 0.01598 
249.110748 0.062155 
249.147751 0.076573 
250.069 0.095891 
250.144791 0.01228 
250.178146 0.201373 
250.956467 1.467409 
251.106232 0.041322 
251.125595 0.783125 
251.139252 0.057064 
251.163971 0.011121 
251.179092 0.042839 
252.122787 0.082657 
252.158676 0.024483 
253.12088 0.093479 
253.144028 0.01088 
253.159683 0.025237 
255.101898 0.036402 
255.1371 0.071553 
255.171249 0.398265 
257.116058 0.029972 
257.153351 0.083433 
257.189636 0.051087 
259.132782 0.02712 
259.168976 0.492911 
259.205109 0.089374 
261.146729 0.256596 
261.184937 0.126356 
263.162567 0.01484 
263.200104 0.037397 
265.121979 0.068973 
265.577057 0.020511 
265.93927 0.315279 
266.026978 0.662259 
266.13736 0.01984 
266.999359 0.01446 
267.120483 0.037218 
267.173737 0.049389 
268.247437 0.047573 
268.263306 6.516504 
268.520691 0.016033 
268.97818 0.357409 
269.116821 0.297154 
269.153076 0.051922 
269.189667 0.237778 
271.095184 0.011053 
271.13269 0.011321 
271.154449 0.025432 
271.168732 0.155964 
273.11203 0.147708 
273.148193 0.029578 
273.18454 0.29226 
273.220764 0.056722 
274.186401 0.023798 
275.163452 0.109305 
275.200378 0.219404 
276.195557 0.037013 
277.179352 0.144174 
277.216003 0.095053 
278.13736 0.281271 
279.10144 0.018543 
279.140503 0.013654 
279.156647 1.218296 
279.172943 0.030416 
280.160492 0.123092 
281.154846 0.02934 
282.162292 0.062899 
283.03125 0.013931 
283.94989 0.023143 
285.00946 3.881886 
285.184143 0.153757 
286.188202 0.123938 
287.126892 0.059784 
287.163757 0.420579 
287.181763 0.014295 
287.200348 1.068816 
288.20285 0.038076 
289.155426 1.337331 
289.178986 0.196617 
289.215942 0.069366 
290.139191 0.015282 
290.15802 0.133038 
290.175323 0.02739 
290.211029 0.042174 
291.158203 0.041841 
291.19458 0.475525 
292.194305 0.011286 
293.18689 0.012275 
293.210663 0.222965 
294.165466 0.019759 
294.979767 0.013726 
296.169952 0.010442 
297.184875 0.234354 
298.343903 0.013206 
299.061523 0.519576 
299.199005 0.025756 
303.019836 0.419713 
303.158447 0.014241 
303.195312 0.193124 
304.106628 0.043067 
304.190552 0.03419 
304.226776 0.495839 
305.172302 1.504444 
305.210754 0.803804 
305.228058 0.019622 
305.930786 0.019153 
306.175232 0.245503 
306.206299 0.700797 
307.130371 0.048511 
307.166138 1.643862 
307.186218 0.251282 
307.208557 0.029018 
307.22699 0.0126 
307.949127 0.025846 
308.067413 0.10259 
308.168396 0.258043 
308.222351 0.019428 
309.129913 0.014198 
310.087799 0.021209 
310.144684 0.01975 
310.606628 0.011898 
311.294128 0.216868 
312.838837 0.097779 
313.17923 0.015646 
313.215546 0.009568 
314.146606 0.010583 
314.179077 0.051279 
314.21106 0.017313 
315.158295 0.034383 
315.195374 0.756985 
316.196533 0.011054 
317.174591 0.012764 
319.18924 0.013883 
322.20163 0.048887 
322.237579 0.684201 
323.088654 0.042934 
323.161743 0.438437 
323.182434 4.955015 
323.216797 0.025744 
324.161255 0.042611 
324.185791 1.696676 
324.325562 4.892354 
325.177063 3.037894 
325.197266 0.610978 
325.328979 0.924097 
326.078186 0.113355 
326.18042 0.479977 
327.077667 0.086237 
329.194031 0.018956 
331.18985 0.105245 
331.227448 0.029225 
332.186401 0.204363 
332.221161 0.709911 
333.205444 0.631178 
333.224487 0.033203 
333.276794 0.010796 
334.206268 0.033275 
335.146088 0.02814 
335.182953 0.624828 
335.217896 0.051206 
335.265411 0.01319 
336.177765 4.641081 
337.104858 0.06308 
337.180328 0.684997 
338.378113 0.014167 
339.167908 2.986079 
339.189575 0.111797 
340.171051 1.03585 
341.162506 0.030963 
348.480774 0.01261 
349.175781 0.560989 
349.198181 0.385572 
349.237549 0.031611 
350.176117 0.11856 
350.197327 0.157483 
350.232605 0.361849 
350.305298 0.219432 
351.086121 0.042543 
351.11972 0.016486 
351.15625 1.074479 
351.177887 0.09108 
351.194489 0.013824 
351.215698 0.420921 
352.156647 0.072531 
352.211548 0.046524 
352.247986 0.016557 
352.393799 0.054413 
353.135132 0.168606 
353.171753 1.468008 
353.841736 0.045673 
355.069977 0.034744 
358.366577 0.011714 
360.637115 0.019286 
367.116608 0.203709 
367.171997 6.080414 
367.208649 8.667786 
367.243652 1.230098 
367.334442 0.03966 
368.121429 0.030163 
368.146759 0.681145 
368.17627 2.471744 
368.212128 3.550494 
368.246735 0.405863 
368.278046 0.16593 
368.38736 0.048216 
368.424835 79.179108 
369.095612 0.049231 
369.110016 0.037369 
369.166931 100.0 
369.223236 8.167522 
369.297211 3.474348 
369.384521 0.785844 
369.427856 21.66131 
370.128754 0.070779 
370.170319 22.406921 
370.19281 0.517683 
370.225647 1.452125 
370.275909 0.080862 
370.301331 0.720917 
370.346497 0.255882 
370.387756 0.060138 
370.431305 2.610405 
371.108948 0.116385 
371.16272 4.184539 
371.183136 6.285911 
371.239532 2.500235 
371.275696 1.64726 
380.815399 0.025617 
381.009125 0.024164 
387.176392 0.288791 
389.172729 0.02167 
END IONS

