BEGIN IONS
PEPMASS=329.0
CHARGE=1+
COMPOUNDNAME=MoNA:2564416 Gibberellin A7
LIBRARYQUALITY=3
SMILES=N/A
INCHIKEY=SEEGHKWOBVVBTQ-NFMPGMCNSA-N
INCHI=InChI=1S/C19H22O5/c1-9-7-18-8-10(9)3-4-11(18)19-6-5-12(20)17(2,16(23)24-19)14(19)13(18)15(21)22/h5-6,10-14,20H,1,3-4,7-8H2,2H3,(H,21,22)/t10-,11-,12+,13-,14-,17-,18+,19-/m1/s1
MSLEVEL=2
SOURCE_INSTRUMENT=LC-ESI-QQ-LC-ESI-QQ
FILENAME=output_mgf.mgf
SEQ=*..*
IONMODE=
ORGANISM=MONA
NAME=MoNA:2564416 Gibberellin A7 [M-H]-
PI=MoNA
DATACOLLECTOR=MoNA
PUBMED=N/A
SUBMITUSER=mwang87
TAGS=
SPECTRUMID=CCMSLIB00000574429
SCANS=11680
211.349 1.431674 
223.164 53.495763 
240.989 1.305614 
255.032 3.989407 
267.386 1.712394 
284.682 1.758475 
328.427 6.001059 
329.103 100.0 
END IONS

