BEGIN IONS
PEPMASS=283.051
CHARGE=1+
COMPOUNDNAME=BIOTIN
LIBRARYQUALITY=3
SMILES=N/A
INCHIKEY=YBJHBAHKTGYVGT-ZKWXMUAHSA-N
INCHI=InChI=1S/C10H16N2O3S/c13-8(14)4-2-1-3-7-9-6(5-16-7)11-10(15)12-9/h6-7,9H,1-5H2,(H,13,14)(H2,11,12,15)/t6-,7-,9-/m0/s1
MSLEVEL=2
SOURCE_INSTRUMENT=N/A-ESI-QFT
FILENAME=library_mgf.mgf
SEQ=*..*
IONMODE=positive
ORGANISM=MONA
NAME=BIOTIN [M+K]+
PI=MoNA
DATACOLLECTOR=MoNA:VF-NPL-QEHF028121
PUBMED=N/A
SUBMITUSER=mwang87
TAGS=
SPECTRUMID=CCMSLIB00004721702
SCANS=28121
50.545616 0.076191 
51.02227 0.041504 
51.040886 0.038985 
51.15379 0.045091 
51.168221 0.061372 
51.173187 0.046813 
51.222301 0.024103 
51.275772 0.071286 
51.918701 0.093324 
51.940201 0.095743 
52.263103 0.046732 
52.747444 0.038196 
53.292187 0.022813 
53.304977 0.057792 
53.672447 0.034722 
53.687508 0.038877 
53.878426 0.064244 
55.054432 0.018538 
55.203613 0.023306 
55.577393 0.01955 
55.953739 0.066229 
56.131912 0.083259 
56.399578 0.048244 
56.601345 0.079171 
56.651928 0.094947 
56.732826 0.017003 
56.964966 2.008038 
57.070045 1.336112 
57.3927 0.08251 
58.009224 0.04932 
58.065285 0.232479 
58.147369 0.079652 
58.309464 0.027716 
58.794708 0.065046 
59.177059 0.085961 
59.182468 0.048457 
59.50647 0.064832 
60.002731 0.027628 
60.058022 0.091136 
60.080929 2.785777 
61.010796 12.863512 
61.012463 0.08549 
61.186867 0.041195 
62.01408 0.021278 
62.018616 3.460012 
62.214924 0.088894 
62.455452 0.057139 
62.650085 0.026234 
63.006405 0.39643 
63.0247 0.062132 
63.141003 0.045883 
63.25996 0.057817 
64.064484 0.059352 
64.104889 0.093781 
64.764244 0.017109 
65.05423 0.033255 
65.114006 0.045611 
66.645523 0.040962 
66.994873 0.07031 
67.415855 0.035275 
68.538338 0.057508 
69.069901 0.036734 
69.156967 0.045954 
69.417473 0.073748 
69.434509 0.029404 
69.906631 0.044446 
70.147957 0.09178 
70.919891 0.023773 
71.049324 0.07065 
71.085464 0.28216 
71.233864 0.069585 
71.875671 0.03119 
73.04673 0.188591 
73.064857 0.067352 
73.383781 0.025037 
74.130646 0.036893 
74.726044 0.066844 
75.117424 0.03867 
76.294357 0.063373 
76.544853 0.064941 
77.134438 0.063745 
77.76075 0.028225 
78.101669 0.061239 
78.947838 0.064188 
79.021004 0.124144 
79.154259 0.070268 
79.401474 0.026565 
79.926338 0.018475 
80.592056 0.079801 
80.824394 0.028174 
81.395729 0.083379 
82.110901 0.090666 
82.947334 0.043048 
83.578896 0.06001 
83.929459 0.033067 
83.977371 0.037797 
84.022591 0.065958 
84.492043 0.044545 
84.987122 0.028125 
85.010536 0.980538 
85.065094 0.05862 
85.101044 0.13696 
85.366974 0.039967 
85.569 0.038981 
86.096649 0.045892 
86.150856 0.04163 
87.043861 0.139804 
87.139839 0.045116 
87.421242 0.041523 
88.966904 0.062976 
89.059616 9.131801 
89.537964 0.070557 
89.588478 0.024931 
89.842979 0.068812 
90.911942 0.043549 
91.054146 0.040258 
91.057205 0.221824 
92.538139 0.089063 
92.596924 0.043673 
93.58358 0.029055 
94.752701 0.040592 
95.085228 0.152002 
96.405067 0.063993 
98.975182 1.074399 
99.043472 0.02636 
99.112503 0.063805 
100.191299 0.026097 
100.434204 0.044875 
100.452332 0.032789 
100.612831 0.02893 
100.990761 0.734803 
102.162651 0.113026 
102.947952 0.046373 
104.992119 0.036981 
109.065582 0.01859 
109.345634 0.057386 
109.976997 0.017305 
110.071236 0.060442 
113.40139 0.055672 
113.968987 0.074564 
116.859413 0.071188 
116.985588 0.516244 
117.628677 0.067873 
118.662437 0.070125 
119.042107 0.026725 
119.88546 0.026737 
120.839096 0.04534 
120.94619 0.018399 
122.515137 0.030489 
124.187164 0.029198 
124.192429 0.029401 
124.986031 0.063797 
125.388336 0.030731 
127.288116 0.027593 
128.398178 0.064158 
128.985489 0.048881 
132.938583 0.160615 
133.085724 0.224263 
133.100739 0.0314 
134.978546 6.440223 
134.996323 0.042884 
136.431488 0.100831 
137.034866 0.041306 
140.107147 0.034323 
140.996582 0.08792 
141.12056 0.025127 
141.918503 0.03557 
142.999756 0.040836 
146.130432 0.074492 
146.930313 0.041011 
146.974396 0.026988 
146.996109 0.226002 
147.853683 0.018852 
149.693161 0.035322 
149.982285 0.033736 
150.911041 0.023595 
150.949493 2.50049 
150.955643 0.030279 
152.989136 3.059783 
152.99556 0.03924 
153.789536 0.041306 
153.92012 0.079251 
154.649963 0.028219 
155.012192 0.115881 
157.518555 0.038493 
157.591827 0.045138 
157.935577 0.025229 
157.958252 0.374379 
158.962799 0.059706 
159.007324 0.12758 
159.367767 0.071069 
159.550827 0.09419 
159.963943 0.175011 
160.492874 0.02763 
160.845978 0.035411 
160.961426 1.775028 
161.943787 0.030764 
164.930634 0.160465 
165.00679 0.509701 
165.375183 0.06949 
168.041931 0.06164 
168.069199 0.058601 
173.02298 0.111101 
174.940735 0.104599 
174.951263 0.539843 
175.968506 0.146547 
176.964981 0.264084 
179.954132 0.29697 
180.373245 0.018518 
182.048584 1.892549 
183.032532 0.226807 
186.025742 0.12524 
189.707993 0.048527 
190.093109 0.028305 
190.945724 0.02766 
190.967209 0.074212 
192.952438 0.049675 
192.961868 8.710382 
193.692627 0.058627 
193.892487 0.037221 
193.969879 1.156059 
194.047653 0.027888 
194.96991 0.090558 
196.871964 0.031403 
197.435043 0.026254 
200.049622 0.07466 
200.059174 5.236019 
201.042892 0.150209 
201.062225 0.117101 
203.953461 0.134794 
204.037109 0.084365 
204.633011 0.078561 
204.951004 1.508786 
206.048538 0.541227 
207.033173 0.1858 
207.938263 0.052238 
209.005402 0.047567 
210.042862 0.033036 
210.57045 0.125463 
212.058945 0.501124 
212.106384 0.044123 
213.985245 0.030625 
214.181854 0.074189 
214.254166 0.028466 
215.705566 1.218403 
215.715424 2.309708 
217.020493 0.073899 
217.310867 0.061166 
218.069611 1.461574 
221.964233 0.046284 
222.027313 0.069396 
222.961655 0.552711 
223.009491 0.328651 
224.058975 2.514356 
225.043091 0.038686 
227.015961 4.900279 
228.208908 0.042454 
228.488144 0.029261 
229.084808 0.088638 
233.950134 0.134238 
237.054337 7.736677 
238.058014 0.062749 
240.036194 5.162335 
240.232239 0.077689 
241.020309 3.712312 
241.039276 0.048881 
245.026581 9.394299 
245.50528 0.075505 
246.029373 0.048871 
249.054184 0.924974 
250.177368 5.202715 
251.181137 0.255505 
251.20578 0.081562 
252.831741 0.038536 
254.056778 0.103602 
254.962509 0.054257 
255.064789 17.059708 
256.068207 0.625687 
257.20401 0.039854 
258.046967 17.153032 
259.03064 0.519811 
259.050018 0.95963 
263.036926 1.860929 
263.301758 0.054609 
265.031555 1.349675 
265.06131 0.033836 
266.998657 0.492873 
267.06485 2.629916 
267.999146 0.163222 
268.071594 0.120386 
268.978149 0.755056 
268.995819 0.11002 
269.039551 0.025324 
269.978394 0.029951 
270.977509 0.033522 
270.993866 0.886283 
273.075317 3.366608 
274.078247 0.068409 
275.072815 0.262461 
275.579773 0.046085 
276.057281 2.946936 
276.975342 0.060389 
281.293579 0.055593 
282.276581 0.067177 
282.993927 0.696199 
283.042053 26.738075 
283.071472 0.555457 
283.096405 0.07987 
283.262482 0.131262 
284.029358 0.830481 
284.045258 2.366043 
284.237152 0.056374 
284.330872 15.693088 
285.027344 0.149854 
291.362061 0.053638 
293.083679 0.215997 
299.061066 0.243016 
300.062012 0.185927 
300.755524 0.040224 
301.052338 100.0 
302.055664 11.213114 
303.048126 2.298144 
303.260223 0.030451 
END IONS

