BEGIN IONS
PEPMASS=249.077
CHARGE=1+
COMPOUNDNAME=Citrinin
LIBRARYQUALITY=3
SMILES=N/A
INCHIKEY=CQIUKKVOEOPUDV-IYSWYEEDSA-N
INCHI=InChI=1S/C13H14O5/c1-5-7(3)18-4-8-9(5)6(2)11(14)10(12(8)15)13(16)17/h4-5,7,15H,1-3H3,(H,16,17)/t5-,7-/m1/s1
MSLEVEL=2
SOURCE_INSTRUMENT=N/A-ESI-QFT
FILENAME=library_mgf.mgf
SEQ=*..*
IONMODE=negative
ORGANISM=MONA
NAME=Citrinin [M-H]-
PI=MoNA
DATACOLLECTOR=MoNA:VF-NPL-QEHF027293
PUBMED=N/A
SUBMITUSER=mwang87
TAGS=
SPECTRUMID=CCMSLIB00004720874
SCANS=27293
50.199505 0.067444 
50.533497 0.041561 
50.900768 0.056235 
50.977528 0.069009 
51.759808 0.043185 
51.8605 0.038287 
52.458611 0.044038 
52.699467 0.047646 
52.729637 0.060729 
53.260735 0.038475 
53.295753 0.047064 
53.449883 0.057019 
53.63533 0.055617 
54.132252 0.052126 
54.177643 0.042676 
54.224518 0.05069 
54.540154 0.033729 
54.9687 0.05514 
55.627888 0.069424 
55.778549 0.063365 
56.380512 0.040657 
56.706909 0.03815 
56.900303 0.069447 
58.091255 0.044889 
58.327541 0.039991 
58.478729 0.052013 
58.997494 0.04236 
59.621441 0.042233 
59.79248 0.056696 
59.849827 0.041605 
60.022755 0.051134 
60.175453 0.052443 
60.912766 0.039836 
61.474812 0.059859 
62.61726 0.050005 
62.801949 0.055611 
62.911648 0.053853 
63.178791 0.043582 
63.389385 0.058636 
63.408459 0.060824 
64.043648 0.034032 
64.384209 0.058331 
64.563477 0.051169 
64.762817 0.039313 
65.037025 0.058183 
65.142502 0.042849 
65.416862 0.046019 
66.082695 0.042264 
66.403503 0.05374 
66.592323 0.060967 
66.862717 0.057525 
67.330154 0.069305 
67.464333 0.064339 
67.531319 0.038989 
68.031387 0.056966 
68.661774 0.054903 
68.885231 0.032567 
68.996803 0.606429 
71.392197 0.059091 
72.300751 0.058262 
72.631378 0.048852 
73.063217 0.045604 
73.492317 0.0579 
74.69651 0.050154 
75.532883 0.050156 
76.586601 0.046734 
76.733879 0.050423 
77.483833 0.039102 
78.852905 0.067262 
80.989006 0.045944 
81.445976 0.054106 
81.454597 0.037331 
83.948814 0.038903 
84.794243 0.047407 
84.846428 0.041905 
85.826508 0.042774 
86.951157 0.044502 
87.807343 0.072127 
88.011505 0.071572 
89.387383 0.06305 
91.765846 0.060434 
92.99144 0.036679 
93.127594 0.075766 
93.152885 0.051105 
93.223526 0.041456 
94.585548 0.044362 
95.649734 0.056615 
96.015297 0.041444 
97.991631 0.035933 
98.164238 0.064632 
99.845673 0.041865 
102.806419 0.0461 
103.176743 0.051649 
103.293396 0.037579 
104.025681 0.090196 
104.122314 0.038329 
104.201393 0.052462 
105.029602 0.045862 
105.033226 4.148624 
105.069603 0.643398 
106.036446 0.044814 
110.57943 0.058826 
111.18792 0.060959 
111.369408 0.04688 
112.37307 0.048881 
113.73114 0.064201 
115.955421 0.052589 
116.313408 0.072478 
116.353432 0.060753 
117.65036 0.043061 
118.217796 0.045191 
118.314865 0.072133 
119.085487 0.078289 
119.999657 0.038809 
120.056587 0.186802 
120.257515 0.051826 
120.833 0.036601 
121.851898 0.044401 
122.696213 0.052099 
123.012802 0.042717 
123.702705 0.044022 
123.716858 0.040556 
124.156944 0.04341 
129.858429 0.048769 
130.936264 0.049902 
133.100967 1.769469 
133.579163 0.043413 
135.080276 10.093604 
136.062363 0.053727 
136.08345 0.207723 
137.095886 2.148149 
140.048889 0.06243 
143.085419 0.067651 
143.11911 0.05864 
144.326492 0.041396 
145.064468 0.126318 
146.072556 1.147335 
147.410721 0.065852 
148.051758 1.419206 
149.059631 0.303461 
149.095947 0.054557 
152.29686 0.047289 
153.819656 0.045883 
154.076004 0.050421 
157.963593 0.061788 
159.080475 0.597536 
160.051483 0.051954 
161.059509 0.236845 
161.096008 23.073231 
161.257751 0.050047 
162.067612 0.34023 
162.099396 2.213022 
162.859467 0.069582 
163.075317 22.716295 
165.409348 0.064245 
169.34819 0.073415 
169.890808 0.036067 
170.348526 0.045651 
174.121994 0.064699 
175.039047 16.216833 
175.075455 0.145532 
176.042084 0.317117 
177.091095 47.211414 
178.094421 5.060532 
179.194656 0.035355 
184.836258 0.082785 
185.399994 0.036399 
187.075638 0.776306 
187.972977 0.045241 
188.301224 0.038543 
188.842163 0.071246 
189.054749 8.552547 
190.062714 3.906607 
190.367233 0.063061 
191.066223 0.065164 
192.58606 0.037283 
200.241272 0.038562 
203.070587 1.028217 
203.310883 0.045228 
205.086288 100.0 
205.137711 0.053619 
206.089676 13.070284 
206.514786 0.069546 
207.065674 1.246282 
207.091873 0.145996 
207.102005 1.928062 
208.445435 0.056525 
209.34024 0.069066 
211.696609 0.043174 
212.50441 0.069562 
216.34967 2.400984 
217.789673 0.05499 
221.033417 0.064605 
223.362625 0.069067 
229.873306 0.045584 
231.065765 9.540997 
232.069046 1.011979 
233.081482 5.727853 
234.527176 0.058117 
240.850601 0.051328 
249.076447 16.16996 
249.891815 0.050603 
250.079742 1.773966 
251.0923 8.379607 
254.325409 0.064723 
257.192352 0.06906 
258.595337 0.074966 
262.673157 0.070294 
269.246765 0.047807 
274.438812 0.064238 
END IONS

