BEGIN IONS
PEPMASS=282.17
CHARGE=1+
COMPOUNDNAME=Isocycloheximide
LIBRARYQUALITY=3
SMILES=N/A
INCHIKEY=YPHMISFOHDHNIV-UHFFFAOYSA-N
INCHI=InChI=1S/C15H23NO4/c1-8-3-9(2)15(20)11(4-8)12(17)5-10-6-13(18)16-14(19)7-10/h8-12,17H,3-7H2,1-2H3,(H,16,18,19)
MSLEVEL=2
SOURCE_INSTRUMENT=N/A-ESI-QFT
FILENAME=library_mgf.mgf
SEQ=*..*
IONMODE=positive
ORGANISM=MONA
NAME=Isocycloheximide [M+H]+
PI=MoNA
DATACOLLECTOR=MoNA:VF-NPL-QEHF023916
PUBMED=N/A
SUBMITUSER=mwang87
TAGS=
SPECTRUMID=CCMSLIB00004714979
SCANS=23916
50.28196 0.028719 
50.663284 0.063616 
51.3755 0.078017 
51.660782 0.077103 
51.869347 0.046805 
52.333561 0.050946 
52.983097 0.100679 
53.03894 3.010922 
53.069931 0.044642 
53.269897 0.098326 
54.526207 0.067316 
54.598652 0.078757 
55.001118 0.075247 
55.018188 4.666113 
55.054577 10.691699 
55.788731 0.040243 
56.05788 0.071204 
56.863132 0.029804 
57.03384 0.899435 
57.070232 1.725201 
57.318245 0.077663 
57.368717 0.10981 
58.003448 0.07906 
58.657616 0.094642 
60.044659 0.715596 
60.644356 0.064791 
61.010944 0.401873 
61.112083 0.058623 
61.540974 0.071077 
61.795414 0.0466 
62.626114 0.040209 
65.038757 4.543706 
65.103882 0.03682 
66.114517 0.029599 
66.784317 0.078066 
67.054382 15.862285 
67.537689 0.072694 
67.719856 0.101283 
68.049652 1.597892 
68.057732 0.626778 
69.03363 6.486294 
69.05957 0.10543 
69.070023 10.701969 
69.083038 0.095182 
70.065254 0.45067 
70.073479 0.19608 
71.012932 0.323608 
71.049271 1.939894 
71.519569 0.049603 
72.044502 2.136301 
72.201736 0.099538 
72.803383 0.071847 
73.341537 0.070959 
73.892357 0.106675 
74.212212 0.028952 
74.351067 0.080668 
74.494492 0.028949 
75.311539 0.041922 
75.44487 0.044604 
75.494644 0.031372 
75.600288 0.090721 
76.036301 0.066383 
76.242081 0.087061 
76.992096 0.082168 
77.038712 0.26261 
77.131195 0.090159 
77.67025 0.108365 
78.23819 0.10149 
78.459526 0.075992 
78.967148 3.964331 
79.054298 21.165586 
79.298935 0.083818 
80.049454 0.093814 
80.057632 1.325101 
80.864838 0.029878 
80.905151 0.099628 
81.033562 4.857813 
81.069962 18.263624 
82.065216 1.276288 
82.073349 0.831146 
83.049225 8.502286 
83.085602 3.017377 
84.044487 3.192359 
84.052849 0.162412 
84.094009 0.032166 
85.028458 1.592289 
85.064926 0.121954 
85.623375 0.087453 
85.694397 0.078329 
89.059738 0.058243 
89.333015 0.10347 
91.054306 20.064529 
91.261032 0.088593 
92.057671 1.839731 
92.060631 0.115342 
92.107697 0.05382 
92.982887 0.038156 
93.033592 4.312134 
93.07 22.196045 
93.381279 0.089602 
94.065147 1.041933 
94.07328 1.996203 
94.077766 0.119132 
95.01281 3.176349 
95.049232 14.85309 
95.060379 0.7166 
95.085609 30.278225 
95.850151 0.067541 
96.044479 100.0 
96.051964 0.303471 
96.080978 0.088879 
96.088921 1.928531 
96.091942 0.137108 
97.028481 1.674923 
97.047882 4.96806 
97.050896 0.118391 
97.064911 3.978952 
97.10125 0.286672 
98.059784 0.051367 
98.83062 0.03239 
99.044159 0.50487 
100.415108 0.088726 
101.838013 0.049125 
103.054359 1.046424 
103.400131 0.090268 
103.68869 0.067328 
103.782356 0.067491 
105.033455 0.091237 
105.044838 0.637255 
105.070007 27.149281 
105.792381 0.102927 
106.073341 2.454618 
106.106766 0.036494 
107.04924 23.335299 
107.085587 33.697586 
108.052643 1.334479 
108.056931 3.077592 
108.08886 3.147503 
108.092506 0.177738 
109.028442 0.788786 
109.061234 0.143718 
109.06485 5.34075 
109.10128 3.696231 
110.060097 2.283214 
110.067856 0.217819 
110.369987 0.066881 
111.044113 1.986167 
111.08049 1.207899 
111.11277 0.09422 
111.445023 0.083986 
112.039345 4.491653 
112.097946 0.082278 
113.023361 0.62069 
114.055099 13.378527 
114.420288 0.086689 
115.05423 0.789521 
115.05835 0.226324 
115.07682 0.09424 
116.062172 0.102708 
117.069954 25.981188 
117.850105 0.047258 
118.07328 2.926047 
119.049339 0.625367 
119.060318 0.394324 
119.085648 32.720741 
120.080498 0.107984 
120.088936 3.550544 
121.028488 9.072618 
121.064919 15.48804 
121.101257 6.700806 
122.031776 0.2811 
122.060143 2.537066 
122.0681 1.303834 
123.044037 3.785336 
123.080475 41.551937 
123.085136 0.516964 
124.048027 0.119258 
124.08371 4.906009 
124.298004 0.049188 
125.059746 1.750211 
125.096199 8.100105 
125.458527 0.080231 
126.055069 0.655254 
126.099335 0.262214 
128.061951 2.758101 
129.069901 8.466348 
129.954041 0.075036 
130.07309 0.627659 
130.077789 1.43625 
131.049149 2.831008 
131.085632 28.011072 
132.088898 3.471741 
133.064774 6.24897 
133.101166 8.669976 
134.068161 0.185234 
134.10437 0.287924 
135.044052 3.170065 
135.080505 9.05641 
135.116806 1.643813 
136.075806 0.179258 
136.083893 0.747436 
137.05957 0.284291 
137.088287 0.097417 
137.096115 0.665 
137.815201 0.094753 
138.03334 0.093896 
138.054916 6.177534 
138.906509 0.079869 
140.07048 0.148192 
141.06987 3.953376 
142.077911 14.393736 
143.0858 19.066376 
143.996201 0.094967 
144.088165 1.40183 
144.094147 5.472489 
145.064911 6.342116 
145.101349 18.364595 
146.072952 0.13921 
146.104523 2.656289 
147.080444 5.967754 
147.116913 1.410804 
147.328796 0.076299 
148.076141 0.184033 
148.083466 0.253889 
149.059753 4.371171 
149.096161 2.259508 
149.132538 1.861944 
150.054337 0.061686 
150.872147 0.034374 
151.075562 0.07261 
152.070435 0.034068 
152.114624 0.071518 
153.05481 0.687811 
153.070038 0.67808 
154.077606 2.156806 
155.085709 5.243298 
156.065506 0.43462 
156.088211 0.088284 
156.093948 0.84099 
157.101257 37.62394 
158.072601 0.554945 
158.103912 5.702671 
159.080566 10.11909 
159.116898 41.783741 
160.083481 0.885805 
160.11264 0.163876 
160.119873 5.824917 
161.096191 6.189737 
161.123611 0.070788 
161.132629 0.524137 
162.091476 0.750149 
162.098785 0.229052 
163.075409 1.398409 
163.111725 8.346022 
164.115173 0.642066 
164.454498 0.058184 
165.054855 0.085355 
165.069016 0.086092 
166.077667 0.084444 
167.085648 1.279077 
168.093582 7.544942 
169.076035 0.055307 
169.101562 11.574704 
169.288162 0.054052 
170.097122 0.09787 
170.104416 1.26234 
171.080536 0.470807 
171.116867 1.067244 
172.088379 3.276362 
172.505814 0.10378 
173.096237 3.08042 
173.132645 12.358169 
174.099945 0.0941 
174.135925 1.611877 
175.075943 0.03834 
175.111877 4.479788 
176.115387 0.478404 
177.090851 0.104635 
177.127457 11.455753 
178.122681 0.035723 
178.130936 1.151143 
179.483139 0.113914 
181.065628 0.132828 
181.101227 0.359257 
182.105484 0.117117 
183.11705 10.078235 
184.120758 1.866928 
185.096237 9.267315 
186.101227 0.691098 
186.12796 0.368577 
186.936081 0.222549 
187.075302 0.190678 
187.111862 19.382566 
188.115631 3.322986 
189.090317 0.10148 
191.143234 0.688658 
192.106567 0.082175 
193.101639 0.170929 
193.954376 0.106349 
194.666077 0.0741 
195.304916 0.045723 
196.088455 0.57081 
198.857971 0.093532 
199.111496 0.224489 
201.118073 0.129645 
201.127426 7.258621 
201.886734 0.071658 
202.131424 0.925659 
203.106842 1.167994 
204.111084 0.120728 
204.138412 0.314876 
205.122528 3.909252 
205.884735 0.087443 
207.738876 0.107087 
209.289413 0.07785 
209.895111 0.095043 
210.45285 0.084075 
211.112015 0.712501 
219.138306 0.230312 
219.549408 0.681766 
219.583252 0.084119 
224.072784 0.088947 
229.122543 2.926408 
230.125702 0.317721 
230.689911 0.049509 
240.417603 0.092692 
241.50441 0.031648 
245.723999 0.110006 
247.133133 0.319394 
254.565048 0.100605 
258.517914 0.036232 
258.666077 0.030331 
259.129211 0.079122 
262.082916 0.060508 
262.756561 0.077426 
266.117523 0.078799 
266.999329 0.13578 
267.57428 0.092152 
280.650208 0.090684 
294.908508 0.094396 
298.884735 0.074244 
END IONS

