BEGIN IONS
PEPMASS=477.107
CHARGE=1+
COMPOUNDNAME=MoNA:962714 Chlortetracycline
LIBRARYQUALITY=3
SMILES=N/A
INCHIKEY=DHPRQBPJLMKORJ-UHFFFAOYSA-N
INCHI=InChI=1S/C22H23ClN2O8/c1-21(32)7-6-8-15(25(2)3)17(28)13(20(24)31)19(30)22(8,33)18(29)11(7)16(27)12-10(26)5-4-9(23)14(12)21/h4-5,7-8,15,26-27,30,32-33H,6H2,1-3H3,(H2,24,31)
MSLEVEL=2
SOURCE_INSTRUMENT=LC-ESI-QFT-LC-ESI-QFT
FILENAME=output_mgf.mgf
SEQ=*..*
IONMODE=
ORGANISM=MONA
NAME=MoNA:962714 Chlortetracycline [M-H]-
PI=MoNA
DATACOLLECTOR=MoNA
PUBMED=N/A
SUBMITUSER=mwang87
TAGS=
SPECTRUMID=CCMSLIB00000571813
SCANS=9064
50.0036 20.717437 
53.0031 6.315327 
55.0189 6.685976 
57.0345 1.669367 
59.0138 16.264052 
62.0161 1.644619 
63.024 90.079505 
64.0192 2.75637 
65.0033 79.221851 
65.0397 62.354554 
65.9985 100.0 
67.0071 9.367907 
67.0189 12.225011 
68.0142 10.388011 
68.9982 60.844312 
69.0345 3.144226 
71.0139 2.173039 
73.0084 2.169945 
75.024 15.075734 
77.0032 1.864649 
77.0397 13.854161 
78.0348 1.658926 
79.0189 12.068979 
79.0553 14.27218 
81.0345 21.072618 
83.0139 1.673041 
83.0503 12.374082 
84.0091 17.192122 
86.0247 1.920526 
89.0034 18.055228 
89.0397 42.706718 
90.0349 6.499201 
91.0189 52.332358 
91.0553 2.782859 
93.0345 85.273839 
95.0139 10.624669 
95.0501 20.536077 
96.0091 37.671161 
97.0294 2.475822 
101.0395 2.724467 
103.019 2.488389 
104.0267 1.92942 
105.0346 15.559105 
107.0138 1.998252 
107.0503 12.791714 
108.0217 20.351043 
109.0295 37.73632 
111.0452 5.712662 
113.0396 9.160831 
115.019 13.664874 
115.0555 3.470404 
117.0346 48.453796 
118.0301 6.13068 
119.0138 7.689839 
119.0502 10.106883 
121.0295 20.428189 
122.0248 2.058963 
122.0371 3.372763 
123.0089 2.148484 
123.0452 15.632577 
124.9799 76.721861 
126.9956 69.596792 
129.0346 1.942761 
131.0138 1.912986 
132.0216 10.502086 
133.0295 21.784719 
134.0248 19.210676 
135.0087 8.159868 
135.0451 21.477102 
137.0397 2.772224 
139.0149 14.682851 
139.0551 2.23549 
141.0347 19.325718 
143.0501 9.01988 
145.0295 15.67086 
147.0452 3.733551 
149.024 2.822688 
150.9957 19.661177 
158.0372 2.561668 
159.0451 2.943917 
161.0243 6.668574 
162.0198 3.391325 
167.0502 17.430907 
169.0062 20.743539 
169.0296 22.979996 
170.0375 2.162598 
171.0451 6.593555 
178.0419 2.534406 
178.9902 6.297539 
179.05 1.999412 
180.0576 2.623346 
182.0373 14.699479 
183.0451 9.883179 
185.0241 2.53692 
191.0504 7.254612 
193.0293 6.977545 
194.0369 2.778218 
194.9854 14.208182 
195.045 21.037622 
196.0526 2.827329 
197.0244 7.70492 
197.0603 2.846083 
198.0319 2.761204 
199.0403 1.751733 
205.0055 2.01894 
209.0608 2.31747 
210.0321 3.732971 
211.0398 10.419333 
219.0449 2.477949 
223.0407 1.607689 
226.0269 2.204168 
229.0066 1.958809 
235.0402 2.741675 
245.0004 2.760237 
END IONS

