BEGIN IONS
PEPMASS=926.511
CHARGE=1+
COMPOUNDNAME=MoNA:692831 Nystatin
LIBRARYQUALITY=3
SMILES=N/A
INCHIKEY=VQOXZBDYSJBXMA-NQTDYLQESA-N
INCHI=InChI=1S/C47H75NO17/c1-27-17-15-13-11-9-7-5-6-8-10-12-14-16-18-34(64-46-44(58)41(48)43(57)30(4)63-46)24-38-40(45(59)60)37(54)26-47(61,65-38)25-36(53)35(52)20-19-31(49)21-32(50)22-33(51)23-39(55)62-29(3)28(2)42(27)56/h5-6,8,10-18,27-38,40-44,46,49-54,56-58,61H,7,9,19-26,48H2,1-4H3,(H,59,60)/b6-5+,10-8+,13-11+,14-12+,17-15+,18-16+/t27-,28-,29-,30+,31+,32+,33+,34-,35+,36+,37-,38-,40+,41-,42+,43+,44-,46-,47+/m0/s1
MSLEVEL=2
SOURCE_INSTRUMENT=LC-ESI-QFT-LC-ESI-QFT
FILENAME=output_mgf.mgf
SEQ=*..*
IONMODE=
ORGANISM=MONA
NAME=MoNA:692831 Nystatin [M+H]+
PI=MoNA
DATACOLLECTOR=MoNA
PUBMED=N/A
SUBMITUSER=mwang87
TAGS=
SPECTRUMID=CCMSLIB00000566702
SCANS=3954
67.0542 0.917729 
69.0332 0.22637 
69.0698 0.651276 
71.0124 0.191304 
71.049 1.996332 
79.0541 1.139437 
81.0334 1.548113 
81.0697 1.438634 
83.049 0.329353 
83.0855 0.21395 
85.0284 0.287763 
85.0647 0.751512 
91.054 1.725562 
93.0698 2.929681 
95.0126 0.243679 
95.049 1.530114 
95.0855 2.338798 
97.0282 0.363172 
97.0646 0.906572 
97.101 1.119556 
99.0439 0.914733 
105.0699 2.287109 
107.049 0.333796 
107.0855 5.064086 
109.0647 0.663603 
109.1011 8.244574 
110.1046 0.236469 
111.0439 0.257631 
111.0803 1.781419 
113.023 0.195909 
113.0595 0.862659 
113.096 3.162084 
117.0697 2.357785 
119.0854 3.591574 
121.0647 0.995597 
121.1011 4.817783 
123.0439 0.991242 
123.0802 1.735526 
123.1167 3.786824 
125.0594 0.639001 
125.096 10.970399 
127.0752 0.277169 
129.0544 0.750754 
129.0697 1.384212 
131.0855 3.258565 
133.0645 1.089512 
133.1012 3.162031 
135.0803 1.554526 
135.1167 7.817132 
136.12 0.18855 
137.0596 0.317203 
137.0959 1.020677 
137.1324 0.64336 
139.0387 0.811426 
139.0753 1.412597 
139.1115 1.300936 
141.0545 1.31551 
141.0696 0.585181 
141.0907 0.297639 
143.0855 1.47557 
145.0647 0.618715 
145.1012 3.228764 
146.0815 0.177406 
147.0441 0.223051 
147.0805 0.712736 
147.1168 2.922307 
148.1199 0.222373 
149.0596 0.244094 
149.0961 1.069753 
149.1325 1.131574 
151.0754 1.606689 
151.1117 10.453763 
152.1148 0.299442 
153.0908 1.336525 
153.1272 0.287191 
155.0701 1.416938 
155.0855 1.543715 
157.0648 0.230336 
157.0859 0.335799 
157.1011 2.095585 
159.065 0.746768 
159.0802 0.618736 
159.1168 3.478757 
161.1324 7.383502 
162.1358 0.196206 
163.0753 1.678491 
163.1115 0.756429 
163.1482 0.582041 
165.0547 0.197993 
165.0912 1.156273 
165.1271 0.190273 
167.0702 3.28943 
167.0852 0.781744 
169.0858 1.446459 
169.1011 1.849945 
171.0797 0.24343 
171.1166 2.531739 
173.0959 0.977003 
173.1325 3.752127 
175.0754 1.334518 
175.1115 0.361755 
175.1481 2.825506 
177.0907 0.743009 
177.1273 0.959693 
177.1633 0.141969 
179.0705 1.659084 
179.085 0.437446 
179.1431 1.951247 
181.0857 3.740535 
181.1011 1.150728 
183.0799 0.230693 
183.1015 0.286389 
183.1167 1.704581 
184.1212 0.183732 
185.0594 0.175734 
185.0808 1.059756 
185.0959 0.593702 
185.1325 3.350328 
187.0758 0.59205 
187.111 0.297499 
187.1481 2.594984 
189.0908 1.332629 
189.1273 0.279456 
189.1635 1.04854 
191.0701 0.632363 
191.1066 1.412938 
193.0861 2.020871 
193.1008 0.257891 
195.0654 0.309062 
195.1016 0.797262 
195.1168 1.710833 
197.0807 4.629443 
197.0954 0.398396 
197.1326 2.226191 
199.075 0.539184 
199.0965 4.858059 
199.1109 1.073877 
199.148 4.236581 
201.0907 1.369972 
201.1272 0.609976 
201.1637 3.371174 
203.1064 0.317094 
203.1429 0.887435 
203.1795 0.82301 
205.0861 0.756739 
205.1012 0.190518 
207.0643 0.197728 
207.0799 0.146446 
207.1017 2.485939 
207.1169 1.133843 
209.0809 1.572926 
209.0959 0.242415 
209.117 0.272416 
209.1325 1.419989 
211.0752 0.19254 
211.0964 2.017632 
211.112 0.259077 
211.148 2.126675 
213.0912 0.62189 
213.1273 0.963806 
213.1638 4.346834 
215.0916 2.982777 
215.1068 1.282908 
215.1431 0.68639 
215.1794 2.281589 
217.0864 1.259598 
217.1221 0.298719 
217.1585 2.108243 
219.1014 1.108374 
219.1172 0.744245 
221.0798 0.135917 
221.0963 0.20878 
221.1326 1.308954 
223.0964 0.209442 
223.1116 0.744491 
223.1485 1.385111 
224.1513 0.166562 
225.0908 0.334104 
225.1121 5.815962 
225.1267 0.614238 
225.1638 2.741595 
226.1155 0.3632 
227.1065 0.551908 
227.1279 0.839428 
227.1794 2.81563 
229.1071 3.809859 
229.1227 0.258695 
229.1584 0.672286 
229.1949 0.419894 
231.1012 0.939762 
231.1743 2.282521 
233.1172 1.473715 
233.1321 0.83825 
235.0965 1.624369 
235.1334 0.15827 
235.1476 1.168198 
237.1119 1.029066 
237.1276 0.724281 
237.1637 1.94372 
239.1065 0.191822 
239.1434 0.26887 
239.1794 2.817864 
241.0861 0.192606 
241.1221 0.730422 
241.1587 0.726417 
241.1952 2.321267 
243.1016 1.26525 
243.1745 1.306299 
245.1175 0.734836 
245.1325 0.251519 
247.0968 0.293753 
247.1479 0.724256 
249.0914 0.190306 
249.1124 0.850491 
249.1273 0.66789 
249.1638 1.228665 
251.1069 0.288794 
251.1278 2.537739 
251.1795 2.006831 
253.1069 3.507371 
253.1219 0.69155 
253.1587 0.224914 
253.195 1.658168 
255.1019 0.333633 
255.1226 2.086252 
255.1741 0.805287 
257.117 0.698749 
257.1539 0.162354 
257.1899 1.399279 
259.0971 0.160286 
259.1328 0.412432 
259.1478 0.207982 
261.1121 2.463858 
261.1636 0.806317 
263.1067 0.18774 
263.1279 0.786135 
263.1421 0.321481 
263.1789 1.286847 
265.1222 0.618347 
265.1585 0.606351 
265.1954 1.91713 
267.1014 0.734665 
267.1229 1.616952 
267.1381 0.934325 
267.1744 0.929516 
267.2107 1.853688 
269.1167 0.746464 
269.1385 9.419503 
269.1902 2.099597 
271.1331 0.626939 
271.1478 0.201849 
273.1484 0.499464 
273.1629 0.435615 
275.128 1.255213 
275.1422 0.390423 
275.1793 0.664232 
277.1071 0.796061 
277.1222 0.587433 
277.1585 0.228241 
277.195 0.603294 
279.1228 17.535694 
279.1381 0.996527 
280.1257 1.172135 
281.117 0.505815 
281.1539 0.917355 
281.1904 0.758935 
283.1325 0.673636 
283.1694 0.298471 
283.2057 1.653886 
285.112 1.691699 
285.1485 0.261262 
285.1634 0.264483 
286.1153 0.246604 
287.1282 0.775102 
289.1072 0.302513 
289.1438 0.787785 
289.1585 0.306256 
289.1953 0.786521 
291.1383 0.632529 
291.1745 0.320862 
291.2105 2.020493 
293.1176 0.286358 
293.1379 0.52791 
293.1538 0.784513 
293.1897 0.323485 
293.2264 1.092666 
295.1174 1.017683 
295.1332 0.642144 
295.1695 0.184274 
295.206 0.342356 
297.1333 77.381221 
298.1367 4.432489 
299.1285 0.247564 
299.1791 0.291951 
301.1068 0.562712 
301.1428 0.57245 
301.1602 0.62564 
303.1226 5.553605 
303.1374 0.497152 
303.1745 0.348979 
305.1378 0.749388 
305.1536 0.883476 
305.1908 0.311295 
305.2261 0.292771 
307.1334 0.286339 
307.1691 0.591177 
307.2054 0.573209 
309.1487 0.940378 
309.1849 0.643222 
309.2213 1.72691 
311.1269 0.263307 
311.1646 0.641093 
311.2002 0.215309 
311.2372 0.707839 
313.1439 0.647218 
313.1962 0.290148 
315.1438 26.541546 
317.1375 0.719878 
317.1906 0.297157 
317.2262 1.470659 
319.1171 2.582853 
319.1329 0.271097 
319.1697 0.708216 
319.2418 0.273672 
321.1332 26.99325 
323.128 0.202373 
323.1645 0.514001 
323.2006 0.17864 
325.1434 0.341837 
327.1589 0.722289 
327.1755 0.190051 
329.1381 0.844563 
329.227 0.297916 
331.1168 2.854249 
333.1859 0.426105 
333.2209 0.780846 
335.1644 0.764722 
335.237 5.276951 
337.1276 4.306463 
337.144 0.433108 
337.1792 0.419792 
337.2523 0.985196 
339.1437 38.230195 
341.1374 0.269606 
341.1744 0.540606 
341.2259 0.302768 
343.1691 0.658837 
343.2062 0.333918 
343.2412 0.217866 
345.1513 0.238873 
345.1856 0.354021 
345.2199 0.181876 
347.1658 0.218162 
347.2002 0.549548 
349.1277 4.13968 
349.18 0.767398 
349.2154 0.300802 
350.1325 0.284926 
351.1602 0.254584 
353.1747 0.932455 
353.2473 14.257523 
355.1381 7.539007 
355.2426 0.454604 
357.1332 0.692893 
359.1671 0.22698 
359.2004 0.702464 
359.2366 1.72783 
361.1809 0.330386 
361.2169 0.63365 
361.2526 0.849538 
363.1601 0.363093 
363.1959 0.232434 
365.175 0.756878 
367.138 5.707367 
369.2222 0.694178 
371.2009 0.571876 
373.1791 0.633017 
373.2163 0.574539 
375.1955 0.31149 
375.2322 0.299494 
377.2474 10.291353 
379.1544 0.257227 
379.19 0.686354 
379.2623 1.145457 
381.1689 0.763553 
385.2544 0.214899 
387.1959 0.676673 
387.232 2.042536 
389.247 0.221323 
391.154 0.245637 
391.1919 0.272934 
393.2074 0.261255 
393.2414 0.644899 
395.2578 6.990853 
397.1639 1.132803 
397.2187 0.18408 
397.2538 0.230192 
399.2317 0.596196 
399.2678 0.323971 
401.2138 0.203968 
401.2482 1.222663 
403.2258 0.261429 
403.2631 0.968146 
405.1681 0.502608 
405.2421 4.394942 
413.2108 0.182067 
413.2464 0.533489 
415.2255 0.332315 
423.1789 0.64041 
425.2478 0.782658 
427.2632 0.905417 
429.1894 2.98426 
429.2789 0.186288 
431.2212 0.281169 
431.258 0.587258 
433.1859 3.957308 
439.2627 0.362972 
441.2422 0.950501 
443.2567 1.805618 
445.1849 3.287079 
445.2734 2.137171 
453.2767 0.203183 
455.2565 0.260879 
455.2931 0.596061 
459.2535 1.22141 
463.2839 3.946528 
471.2536 0.260019 
475.2116 0.711321 
475.2838 1.721164 
477.2291 0.277744 
477.2632 1.254674 
481.2731 0.826917 
483.2535 0.179935 
483.2883 0.768181 
485.2678 0.567388 
493.2208 1.337929 
499.2857 1.712653 
501.2996 1.958684 
507.2872 2.132208 
509.3039 0.342806 
515.2437 0.896374 
517.2938 1.263414 
525.2994 2.487223 
527.3166 1.012446 
535.2812 1.542306 
537.2995 0.26728 
543.3106 3.367005 
553.295 3.684044 
555.3125 0.248257 
571.3057 6.232957 
581.2867 1.981376 
589.3154 6.507792 
593.3232 2.058577 
599.2995 3.431355 
601.3294 2.305845 
607.3264 5.793789 
609.358 3.111354 
611.335 5.543095 
611.3754 2.380805 
617.3107 4.7184 
619.3415 5.820777 
627.3671 3.319236 
629.3853 4.357632 
637.3522 16.432856 
647.3559 6.876594 
655.3629 43.890487 
673.3732 90.377385 
674.3764 17.571346 
691.3838 100.0 
692.3873 18.513687 
709.3944 59.559292 
710.3975 11.334089 
727.4051 56.6698 
728.4087 12.064498 
745.4155 14.091754 
890.4901 3.557108 
908.5004 18.206233 
909.5051 4.347483 
END IONS

