BEGIN IONS
PEPMASS=365.079
CHARGE=1+
COMPOUNDNAME=(4R,6S,8S,9Z,11E)-16-chloro-17,19-dihydroxy-4-methyl-3,7-dioxatricyclo[13.4.0.0?,?]nonadeca-1(15),9,11,16,18-pentaene-2,13-dione
LIBRARYQUALITY=3
SMILES=N/A
INCHIKEY=WYZWZEOGROVVHK-RPJJWQTDSA-N
INCHI=InChI=1S/C18H17ClO6/c1-9-6-15-14(25-15)5-3-2-4-10(20)7-11-16(18(23)24-9)12(21)8-13(22)17(11)19/h2-5,8-9,14-15,21-22H,6-7H2,1H3/b4-2+,5-3-/t9-,14+,15+/m1/s1
MSLEVEL=2
SOURCE_INSTRUMENT=N/A-ESI-QFT
FILENAME=library_mgf.mgf
SEQ=*..*
IONMODE=positive
ORGANISM=MONA
NAME=(4R,6S,8S,9Z,11E)-16-chloro-17,19-dihydroxy-4-methyl-3,7-dioxatricyclo[13.4.0.0?,?]nonadeca-1(15),9,11,16,18-pentaene-2,13-dione [M+H]+
PI=MoNA
DATACOLLECTOR=MoNA:VF-NPL-QEHF022117
PUBMED=N/A
SUBMITUSER=mwang87
TAGS=
SPECTRUMID=CCMSLIB00004713180
SCANS=22117
50.174145 0.02944 
50.394863 0.018667 
51.373497 0.036632 
52.411907 0.011018 
52.583248 0.025552 
53.038872 1.437434 
54.47665 0.013514 
55.015778 0.090843 
55.018143 0.846758 
55.054501 3.013928 
55.31892 0.015887 
55.992222 0.013986 
56.612316 0.034187 
57.033718 0.392389 
57.070168 0.135568 
57.579575 0.027407 
57.592987 0.037901 
57.955837 0.037044 
58.616085 0.023477 
58.64143 0.016579 
59.022369 0.020568 
59.049328 0.122975 
59.671379 0.010373 
60.748886 0.027183 
61.010864 0.020388 
62.033176 0.01112 
62.540497 0.03247 
63.545834 0.019277 
64.373291 0.026457 
65.23175 0.034409 
65.712738 0.033654 
66.407677 0.020376 
66.846245 0.026915 
66.856377 0.035008 
67.054321 2.177263 
69.033562 17.306787 
69.035782 0.233297 
69.069916 0.314294 
69.345131 0.018128 
69.909172 0.037089 
70.03685 0.729914 
70.545479 0.030027 
70.644844 0.034354 
71.049194 2.05445 
71.462997 0.01947 
72.316185 0.029121 
72.320496 0.01683 
72.490547 0.035107 
73.979034 0.026548 
74.211853 0.033557 
75.419556 0.040351 
75.540871 0.03446 
75.58905 0.012053 
75.789894 0.028776 
77.038704 0.080558 
79.054222 4.0032 
80.057549 0.033649 
81.030884 0.014478 
81.033485 5.173053 
81.065887 0.025997 
81.069878 4.424023 
82.86702 0.037031 
83.049118 5.675669 
83.085434 0.382944 
84.052536 0.336046 
85.028412 0.042098 
85.064713 0.104657 
85.375786 0.038861 
86.421013 0.021568 
87.044067 0.369659 
89.059624 0.083956 
91.054199 3.419774 
92.057388 0.045402 
92.308655 0.01143 
92.550575 0.038464 
93.069893 10.668094 
94.065002 0.046654 
94.073204 0.512919 
95.049133 9.0791 
95.08548 1.009361 
96.052383 0.408714 
97.028343 0.040268 
97.064812 2.064638 
97.100616 0.041754 
97.306839 0.029317 
98.782555 0.019908 
98.992195 0.01699 
98.997368 0.025424 
99.043999 0.982086 
99.169746 0.029466 
99.818993 0.021868 
101.059608 0.131614 
102.213486 0.039533 
103.054161 1.218092 
103.769249 0.018596 
105.03376 0.030027 
105.044586 0.113858 
105.063232 0.036972 
105.06987 0.438012 
107.049049 0.904829 
107.085587 0.249937 
109.028381 0.486714 
109.064667 1.066195 
109.101059 0.26012 
111.043945 1.410738 
111.080368 0.545702 
112.384216 0.037992 
112.998444 0.033736 
113.047371 0.010679 
114.688248 0.017973 
117.069695 0.16039 
117.652534 0.026791 
119.049149 0.883169 
119.08548 0.47085 
120.080696 1.253165 
121.028381 0.381628 
121.064804 23.530994 
122.068024 1.478063 
122.07254 0.884653 
123.080399 0.028993 
125.059669 0.994148 
126.18428 0.010817 
126.390411 0.045012 
126.830002 0.027214 
127.243736 0.027446 
129.306107 0.015018 
129.615173 0.029275 
131.049133 0.431505 
131.211014 0.029203 
131.477188 0.019735 
132.057419 0.03165 
133.064682 0.267256 
133.084473 0.037068 
135.043793 1.083894 
135.080383 3.026327 
136.083496 0.063384 
137.059464 0.108507 
137.096039 1.175496 
138.091171 0.303147 
139.038895 3.646127 
139.075165 1.262371 
139.107422 0.03516 
140.042267 0.513392 
145.064804 0.371486 
147.04393 0.321052 
147.08075 0.027459 
147.604034 0.029268 
150.780502 0.031288 
153.054779 0.050044 
154.98996 0.069429 
155.07077 0.027147 
155.309769 0.029601 
156.985794 0.037593 
156.998779 0.012853 
157.00499 1.657256 
158.145248 0.012194 
159.001999 0.275477 
159.044037 0.400742 
159.08075 0.018778 
160.051834 0.013264 
161.059616 0.427391 
162.360458 0.044443 
163.075256 0.239394 
164.053802 0.036285 
168.462021 0.042623 
169.005142 0.066896 
169.064774 0.223173 
171.933319 0.01972 
173.059814 0.267219 
173.983856 0.035466 
174.067932 0.038529 
175.039429 0.022233 
175.968246 0.02003 
177.054764 0.03935 
179.026962 0.042343 
179.773361 0.023084 
180.206955 0.027983 
181.004929 1.65805 
182.008896 0.055292 
183.001999 0.567092 
183.020645 0.608831 
183.04425 0.019116 
183.079666 0.042896 
183.091919 0.034703 
183.636276 0.038098 
184.676224 0.020346 
184.999908 0.972212 
185.041779 0.082619 
185.059647 1.574312 
187.075745 0.021634 
189.054581 2.758639 
190.057938 0.356651 
191.025848 0.016861 
192.041336 0.156793 
192.960861 0.011995 
195.020706 3.434679 
195.222275 0.039137 
196.024384 0.180427 
196.999939 16.421478 
197.016861 0.499846 
197.036591 0.021119 
197.059555 0.912343 
198.00325 1.689074 
198.067368 0.699336 
198.979599 1.871491 
198.996872 3.470981 
199.014954 0.030604 
199.039307 0.038013 
199.982666 0.036619 
200.083481 0.03104 
200.976822 0.303997 
200.994888 9.129046 
201.054337 0.130594 
201.998535 0.559875 
202.062286 0.040613 
202.99176 2.024667 
203.052673 0.650881 
205.049774 0.042293 
207.020721 0.889964 
207.065216 16.106783 
208.068527 5.399355 
209.000092 2.490213 
209.018219 0.029893 
209.036346 3.24083 
209.070419 0.370577 
209.096191 0.08367 
210.003876 0.322336 
210.039825 0.194285 
210.979218 10.910883 
210.996384 1.428226 
211.015381 1.088016 
211.033112 0.368701 
211.075211 0.387126 
211.982788 1.027641 
212.047333 0.018372 
212.976212 2.73954 
212.994583 1.321453 
213.005356 0.010617 
213.054504 2.098311 
214.062531 2.184632 
214.349182 0.78936 
214.360275 0.542215 
214.991852 0.186889 
215.069275 0.247335 
215.088394 0.062787 
216.347122 0.021151 
219.065186 100.0 
220.068527 36.322792 
221.036346 1.15644 
221.070572 3.786318 
222.007645 0.141556 
222.040619 0.029933 
222.073288 0.141657 
223.015671 5.391702 
223.033386 0.043967 
223.052078 0.857337 
223.074982 0.092984 
224.019348 0.509268 
224.083374 0.052514 
224.994827 14.953243 
225.012726 1.052335 
225.054077 0.032428 
225.090729 0.114919 
225.998581 1.720507 
226.062134 0.345829 
226.098267 0.028261 
226.991913 2.980226 
227.010468 9.019262 
227.069244 0.076736 
228.000961 0.030244 
228.014069 0.819774 
228.041733 0.219118 
228.077393 0.058543 
228.989975 1.434962 
229.007446 1.755032 
229.048538 0.059184 
230.056396 0.031135 
230.986679 0.023047 
231.020721 1.341443 
231.895584 0.04145 
232.024078 0.084281 
233.017273 0.076524 
233.036255 1.254709 
233.890884 1.917925 
234.899506 0.037295 
235.015442 1.14489 
235.03447 0.028056 
235.051559 0.267634 
235.075195 0.325204 
236.081879 0.059182 
236.995132 0.233695 
237.013596 0.031438 
237.015976 0.032857 
237.031052 3.212058 
237.04454 0.027594 
237.09079 0.782311 
238.034805 0.215757 
238.097946 0.116073 
239.010345 7.174457 
239.026291 0.385001 
239.069839 0.193291 
240.013977 0.708651 
240.07782 0.275595 
240.990555 0.199951 
241.007401 1.529887 
241.046997 6.257154 
241.085114 0.04769 
242.056686 0.965462 
243.062561 0.103768 
245.036331 0.087417 
246.024109 0.021796 
247.01535 1.049877 
247.052124 0.033065 
247.074936 0.238514 
248.021561 0.191919 
248.082764 0.120464 
248.878082 0.035032 
248.994659 0.675249 
249.011703 0.167467 
249.01413 0.169389 
249.031067 4.364063 
249.046448 0.020854 
249.050339 0.015606 
250.034866 0.549969 
250.09848 0.096142 
250.993149 0.021125 
251.010422 6.122756 
251.027725 1.072446 
251.046661 3.123702 
251.069336 0.030548 
251.906693 0.029627 
252.014282 0.71889 
252.051056 0.216934 
252.990463 0.497017 
253.007553 1.245371 
253.026184 0.494744 
253.043045 0.463372 
253.085678 0.334635 
254.021683 0.095291 
254.091797 0.032036 
255.005173 1.94448 
255.021652 0.03754 
255.101593 1.643006 
256.00708 0.068809 
256.07254 0.326839 
256.104736 0.591151 
257.002167 0.177596 
257.079803 0.786077 
258.084473 0.153111 
258.480011 0.022406 
259.015564 0.813372 
259.051666 0.297952 
259.115234 0.083327 
260.021973 0.080279 
260.446716 0.028956 
261.03125 1.879878 
261.045013 0.04172 
262.036652 0.236394 
263.010468 6.338451 
263.026337 0.226778 
263.046631 0.016557 
263.069824 0.168002 
264.014221 1.151496 
264.077087 0.523856 
264.909088 0.027388 
264.98999 15.376615 
265.006836 1.494302 
265.024292 2.282694 
265.084412 0.776868 
265.993286 6.983672 
266.029602 0.090679 
266.09317 0.701939 
266.986481 16.562157 
267.022675 0.320466 
267.041473 1.046405 
267.063812 0.024568 
267.101135 0.998939 
267.990021 2.120953 
268.108704 1.013316 
269.02063 0.052142 
269.112427 0.034841 
270.054108 0.046814 
271.0961 0.083526 
273.031006 0.070213 
273.06723 0.200427 
273.112 2.717244 
274.115631 1.612459 
274.892761 0.012188 
275.010223 0.328842 
275.028412 0.098066 
275.046539 0.922023 
275.118103 0.064778 
275.9021 0.964612 
276.078308 0.124306 
277.010162 0.242446 
277.026031 9.745532 
277.04306 0.456466 
277.062225 0.19302 
278.029755 1.753878 
278.048737 0.024507 
279.023071 2.463352 
279.041748 3.935511 
280.028809 0.030994 
280.045197 0.438518 
281.021454 0.312816 
281.0383 0.839029 
281.081055 0.075838 
282.087738 0.479269 
282.475525 0.020261 
282.920074 0.022303 
283.052124 0.387354 
283.094116 0.32789 
285.031494 0.032541 
286.036499 0.080507 
287.010376 0.788287 
287.046478 0.498191 
288.015045 0.043338 
289.02594 0.179575 
289.062225 0.046561 
290.03186 0.049202 
291.00528 0.151376 
291.041656 0.444546 
291.058502 0.090805 
291.148254 0.015159 
292.045258 0.149087 
292.072693 0.28328 
293.020691 1.018739 
293.038391 0.634228 
293.077972 0.341102 
294.088287 0.263554 
295.018799 0.19736 
295.03653 3.542545 
295.055054 0.060007 
296.040222 0.269168 
297.033447 0.495365 
299.047211 0.22649 
299.09079 1.23103 
300.050293 0.258846 
300.076172 0.032115 
300.094696 0.730919 
301.025116 0.060683 
301.04425 0.563227 
301.062683 1.561712 
301.106903 0.887623 
302.031311 0.021451 
302.066254 0.151101 
302.110107 0.4545 
303.02356 0.055097 
303.041748 0.978888 
303.060089 0.106538 
303.077759 2.295039 
303.518585 0.01374 
304.011627 0.071098 
304.046204 0.040212 
304.081665 0.273858 
304.167603 0.04313 
304.185913 0.02589 
305.003326 0.089015 
305.020874 4.692113 
305.039398 0.40739 
305.057007 0.872425 
305.075226 0.229698 
305.922607 0.08068 
306.00769 0.071858 
306.025482 0.495864 
306.919952 0.100955 
307.017883 0.843565 
309.959656 0.022465 
310.083313 0.233489 
310.519409 0.014763 
311.0466 0.692394 
311.087219 0.055209 
312.051361 0.094633 
313.043488 0.015454 
317.057159 0.321376 
317.357025 0.025002 
318.061157 0.441203 
319.035034 0.044937 
319.054535 0.876505 
319.073059 0.314115 
320.039978 0.016637 
321.033936 0.440099 
321.052277 0.103004 
323.03125 0.386819 
323.934662 0.016045 
327.04187 0.176274 
327.086212 0.583146 
328.0466 0.223998 
328.089478 0.378256 
329.038483 0.589722 
329.057709 1.744476 
330.062775 0.051516 
331.054718 0.01503 
331.083069 0.04313 
333.350922 0.04598 
345.05249 0.662543 
345.096832 1.086121 
346.056335 1.495598 
346.100616 0.803801 
347.047363 1.898716 
347.068695 0.927887 
348.052765 0.301118 
349.065704 0.041093 
357.697174 0.031267 
363.162048 1.989112 
363.201263 0.183837 
364.165344 0.750962 
364.204254 0.133939 
364.240906 0.074454 
365.111572 1.104577 
365.179108 0.102169 
365.229645 0.020896 
366.094849 0.179604 
366.116913 0.048814 
366.184235 0.018581 
367.202911 0.146284 
367.24469 0.079549 
367.274323 0.884311 
382.572662 0.018607 
END IONS

