BEGIN IONS
PEPMASS=1277.6
CHARGE=1+
COMPOUNDNAME=Dactinomycin
LIBRARYQUALITY=3
SMILES=N/A
INCHIKEY=RJURFGZVJUQBHK-UHFFFAOYSA-N
INCHI=InChI=1S/C62H86N12O16/c1-27(2)42-59(84)73-23-17-19-36(73)57(82)69(13)25-38(75)71(15)48(29(5)6)61(86)88-33(11)44(55(80)65-42)67-53(78)35-22-21-31(9)51-46(35)64-47-40(41(63)50(77)32(10)52(47)90-51)54(79)68-45-34(12)89-62(87)49(30(7)8)72(16)39(76)26-70(14)58(83)37-20-18-24-74(37)60(85)43(28(3)4)66-56(45)81/h21-22,27-30,33-34,36-37,42-45,48-49H,17-20,23-26,63H2,1-16H3,(H,65,80)(H,66,81)(H,67,78)(H,68,79)
MSLEVEL=2
SOURCE_INSTRUMENT=N/A-Linear Ion Trap
FILENAME=library_mgf.mgf
SEQ=*..*
IONMODE=positive
ORGANISM=MONA
NAME=Dactinomycin M-H
PI=MoNA
DATACOLLECTOR=MoNA:VF-NPL-LTQ000612
PUBMED=N/A
SUBMITUSER=mwang87
TAGS=
SPECTRUMID=CCMSLIB00004684859
SCANS=480
534.539978 3.632286 
590.72998 2.798168 
591.5 7.151532 
647.539978 7.368556 
669.190002 2.286785 
669.23999 14.156852 
683.179993 3.371902 
695.200012 4.739238 
740.210022 0.725687 
740.289978 14.968998 
756.26001 0.759982 
766.280029 8.769938 
796.280029 1.821775 
814.419983 0.80221 
837.309998 11.629934 
838.48999 1.635671 
857.369995 1.778648 
858.359985 1.88373 
865.299988 10.718184 
866.340027 1.591898 
909.299988 1.35408 
950.419983 2.67777 
978.349976 4.975175 
980.400024 18.187244 
981.409973 5.539464 
1051.410034 64.029137 
1069.48999 0.80441 
1146.469971 0.991453 
1163.959961 8.784253 
1164.560059 100.0 
1249.619995 2.666591 
1255.430054 4.862958 
END IONS

