BEGIN IONS
PEPMASS=289.108
CHARGE=1+
COMPOUNDNAME=dehydrocurvularin
LIBRARYQUALITY=3
SMILES=N/A
INCHIKEY=AVIRMQMUBGNCKS-GQCTYLIASA-N
INCHI=InChI=1S/C16H18O5/c1-10-5-3-2-4-6-13(18)16-11(8-15(20)21-10)7-12(17)9-14(16)19/h4,6-7,9-10,17,19H,2-3,5,8H2,1H3/b6-4+
MSLEVEL=2
SOURCE_INSTRUMENT=N/A-ESI-QFT
FILENAME=library_mgf.mgf
SEQ=*..*
IONMODE=negative
ORGANISM=MONA
NAME=dehydrocurvularin [M-H]-
PI=MoNA
DATACOLLECTOR=MoNA:VF-NPL-QEHF016192
PUBMED=N/A
SUBMITUSER=mwang87
TAGS=
SPECTRUMID=CCMSLIB00004707255
SCANS=16192
50.150303 0.009081 
50.433384 0.010851 
50.99387 0.00835 
51.001007 0.007848 
51.123383 0.011963 
51.488197 0.01014 
51.650284 0.00885 
52.174091 0.010153 
52.373707 0.010606 
52.49707 0.008338 
52.594227 0.008125 
52.925385 0.01228 
53.729553 0.007253 
54.839439 0.007879 
55.165516 0.009285 
55.41069 0.00849 
56.378941 0.01096 
56.53931 0.011154 
57.033123 0.07102 
57.121666 0.011311 
58.008972 0.009391 
58.223507 0.009346 
59.012432 1.103667 
59.701725 0.010252 
59.715427 0.011176 
60.263638 0.008984 
61.085072 0.011758 
62.317505 0.010443 
63.196411 0.010332 
63.309204 0.011953 
63.322151 0.012754 
64.863129 0.011109 
64.944 0.010063 
64.95105 0.016719 
65.355911 0.010123 
65.601662 0.008179 
66.451973 0.008525 
66.807953 0.010761 
67.240669 0.010952 
67.688148 0.008936 
68.008232 0.009111 
68.028076 0.011064 
68.306122 0.008123 
68.343719 0.008993 
68.705467 0.010586 
70.09285 0.008231 
70.741592 0.010337 
73.476456 0.008171 
74.659462 0.012429 
74.915695 0.010606 
75.440987 0.01066 
77.258255 0.012521 
78.005402 0.010576 
79.633972 0.006888 
79.955894 0.216452 
80.062271 0.007673 
80.072693 0.01192 
80.601883 0.009538 
80.963707 0.209982 
81.033318 0.011984 
81.661545 0.010163 
84.966103 0.009432 
85.746849 0.007329 
86.193665 0.012173 
86.639488 0.012427 
87.025986 0.04739 
87.143875 0.011203 
89.107864 0.011051 
90.384384 0.012259 
92.918716 0.007208 
94.979424 0.933061 
96.958679 0.358216 
99.162582 0.007451 
99.924385 0.558089 
100.924469 0.00824 
100.932442 0.021013 
100.95401 0.010368 
103.873886 0.008957 
104.829994 0.010718 
105.033142 0.008061 
106.325653 0.007659 
106.979706 0.006853 
107.53524 0.014784 
108.283379 0.010647 
109.066292 0.009523 
109.151405 0.009557 
110.956581 0.038602 
110.974297 0.163835 
111.332413 0.009543 
112.220146 0.006784 
112.24865 0.009737 
113.059456 0.011906 
114.42186 0.009856 
115.901413 0.012807 
115.919342 0.156796 
115.956978 0.010645 
116.002617 0.008193 
116.92717 0.020516 
118.773819 0.012687 
118.898438 0.025446 
119.394447 0.008091 
120.433571 0.00775 
121.063942 0.011596 
122.199089 0.009267 
123.043861 1.503706 
124.936005 0.022015 
125.628494 0.014586 
126.951416 0.00694 
128.796738 0.011392 
131.027313 0.008809 
131.878815 0.432558 
131.89653 0.241906 
132.904404 0.7411 
133.766861 0.011459 
133.904434 0.042808 
134.8936 0.035299 
135.043686 0.009682 
135.052795 0.00988 
135.080582 0.011558 
136.611176 0.014851 
137.428818 0.008157 
137.704178 0.008739 
139.075165 0.226583 
141.385452 0.007687 
143.900528 0.009344 
146.036163 0.094495 
146.225998 0.010999 
146.524841 0.010923 
146.920135 0.127901 
147.043839 0.09872 
147.873795 0.072666 
149.023148 1.386237 
149.987747 0.008705 
150.026459 0.011501 
151.038544 0.047688 
152.214737 0.010226 
155.99881 0.012912 
156.615585 0.008025 
158.679413 0.008251 
159.044296 0.037953 
159.0802 0.023302 
161.02327 0.381967 
163.038696 0.011336 
163.886353 0.022018 
164.894562 0.010321 
165.054306 0.032225 
166.735672 0.011759 
170.977814 0.051485 
172.051987 0.137389 
172.939484 0.087314 
172.95726 0.208113 
173.059875 0.038652 
174.031158 0.341108 
175.038956 3.970559 
175.905273 0.051208 
176.042236 0.265137 
177.018341 0.242374 
177.05484 0.043311 
177.127319 0.024061 
182.841354 0.00705 
185.060989 0.014394 
186.067215 0.014292 
187.038757 0.022993 
188.046951 0.510343 
188.991623 0.009275 
189.054779 0.321266 
190.026276 11.528928 
190.062683 0.196053 
191.033478 1.43356 
191.478027 0.008896 
192.037796 0.052894 
192.710739 0.008675 
193.529556 0.011372 
196.021561 0.010799 
196.263428 0.010787 
197.222778 0.010883 
201.054688 0.068345 
201.091232 0.762686 
201.12767 1.048552 
202.095108 0.011507 
202.131149 0.04691 
203.034134 1.575889 
203.070465 0.063715 
203.106934 0.53542 
204.042175 5.049113 
205.045532 0.519977 
209.385666 0.009674 
210.882477 0.029684 
212.046417 0.00924 
213.054901 0.00836 
215.034378 2.487687 
215.372925 0.183996 
215.384857 0.228729 
216.042267 1.362891 
216.896149 0.007389 
217.048721 0.133275 
217.12262 0.093127 
221.117798 0.989274 
221.357681 0.010426 
222.121384 0.027214 
224.913986 0.008673 
227.070786 0.085413 
227.106979 1.077051 
227.971603 0.01293 
228.110428 0.045191 
229.050171 0.194513 
229.086365 0.452969 
230.058014 7.289009 
230.894531 0.438392 
230.94281 0.008356 
231.061279 0.958493 
236.032242 1.643522 
237.035629 0.066439 
239.161438 0.011176 
243.065826 0.209891 
243.102249 0.112797 
244.073486 0.332439 
245.08165 6.40206 
245.117874 7.709543 
246.084793 0.915373 
246.121521 1.186274 
246.533936 0.007297 
247.09726 2.498256 
247.12114 0.008296 
248.10054 0.263568 
250.247849 0.009395 
250.591919 0.011421 
256.96048 0.134424 
261.112976 3.395235 
262.048218 0.013099 
262.116486 0.515951 
271.097504 1.085031 
272.101105 0.094131 
274.050201 0.011837 
282.021515 0.010948 
283.702728 0.009421 
287.092163 0.175798 
288.095703 0.008831 
289.077942 0.113506 
289.107849 100.0 
290.111481 17.507437 
291.113525 1.194275 
291.199554 0.03925 
299.176758 0.008823 
301.702118 0.010634 
305.670593 0.008144 
END IONS

