BEGIN IONS
PEPMASS=359.089
CHARGE=1+
COMPOUNDNAME=Mycophenolic Acid
LIBRARYQUALITY=3
SMILES=N/A
INCHIKEY=HPNSFSBZBAHARI-RUDMXATFSA-N
INCHI=InChI=1S/C17H20O6/c1-9(5-7-13(18)19)4-6-11-15(20)14-12(8-23-17(14)21)10(2)16(11)22-3/h4,20H,5-8H2,1-3H3,(H,18,19)/b9-4+
MSLEVEL=2
SOURCE_INSTRUMENT=N/A-ESI-QFT
FILENAME=library_mgf.mgf
SEQ=*..*
IONMODE=positive
ORGANISM=MONA
NAME=Mycophenolic Acid [M+K]+
PI=MoNA
DATACOLLECTOR=MoNA:VF-NPL-QEHF004799
PUBMED=N/A
SUBMITUSER=mwang87
TAGS=
SPECTRUMID=CCMSLIB00004695862
SCANS=4799
50.050785 1.122562 
51.31081 0.342921 
51.990204 0.136315 
52.780991 0.105514 
53.052387 0.399227 
53.13958 0.676244 
53.472958 1.068943 
53.703754 0.419385 
54.463596 0.47242 
54.708828 1.062774 
54.722511 0.507966 
54.905342 0.522081 
54.995853 0.99053 
55.252556 0.963609 
56.125034 1.02472 
56.415993 1.081057 
56.522366 0.125027 
56.543114 0.594876 
56.549606 0.322846 
56.627804 0.734087 
58.065922 0.162725 
58.49329 1.002011 
59.375816 0.830076 
59.631378 0.321068 
59.881401 0.135812 
60.35313 0.119611 
60.429737 0.808917 
62.290096 0.893655 
62.349823 0.45749 
62.35878 0.130671 
62.824924 0.143602 
62.859303 0.982279 
62.990372 1.007496 
63.086308 0.839674 
63.213627 0.148426 
63.609093 0.354646 
63.937801 0.671496 
65.64875 0.982934 
66.262245 0.116285 
66.285378 0.115421 
66.859192 1.08947 
67.23468 0.225499 
67.25708 0.197567 
67.29158 0.142296 
67.619843 0.150578 
68.161705 0.160089 
68.581207 0.993579 
68.831558 1.061478 
68.959625 0.576886 
69.08741 0.119693 
69.273094 0.119342 
70.183067 0.94854 
70.356689 0.894248 
70.589912 0.643568 
70.617249 0.61539 
71.147469 1.081319 
71.259995 0.393064 
72.18692 0.89554 
72.215576 0.965298 
72.471008 0.973505 
73.689957 1.034777 
74.173897 0.966999 
74.226463 0.785181 
74.242088 1.227401 
74.595421 1.140673 
75.044785 0.404408 
75.553047 0.598939 
75.663231 1.429031 
75.695007 0.131842 
77.041191 0.127892 
77.69516 1.111521 
77.757088 0.734579 
77.76149 0.89666 
78.731903 1.367317 
78.837273 1.047212 
79.273537 1.071333 
79.340302 0.399368 
79.358276 0.136963 
79.670273 0.682231 
79.892532 0.976147 
80.450325 0.605957 
81.06601 1.19487 
81.29879 0.120259 
81.752121 0.208337 
84.774727 0.431356 
86.47171 0.158807 
87.044769 0.266859 
87.873306 0.736069 
88.092155 1.145619 
88.298157 1.092227 
88.573097 0.760224 
88.591537 0.69353 
88.677025 0.325616 
89.390617 0.200365 
89.504463 1.047301 
90.412613 0.481816 
90.537766 0.21695 
90.56472 0.421398 
90.925079 1.217296 
91.225739 0.576026 
91.229065 0.592657 
91.47715 0.415764 
91.538567 0.939594 
92.713936 0.143216 
93.025139 1.080881 
93.183655 0.824768 
93.669868 1.051276 
93.933907 0.131395 
93.986237 0.581051 
94.293533 0.21899 
94.323723 1.1401 
95.381256 0.141052 
95.972801 0.13563 
98.64077 0.148625 
99.637718 0.544994 
100.022293 0.138096 
100.51506 1.129662 
102.090416 1.018847 
102.382904 0.113235 
102.461418 0.163316 
102.487206 0.469074 
105.302277 0.419478 
106.278648 1.203836 
106.400856 0.82017 
107.004486 0.410735 
107.515633 0.326734 
107.535858 0.25077 
108.350044 0.242845 
108.698509 0.159656 
109.226852 0.911827 
111.86702 0.161578 
112.162994 0.78158 
112.612625 0.95829 
112.616608 0.418603 
113.129684 0.126508 
114.130394 0.218233 
114.719414 0.948914 
115.73159 0.416457 
115.740067 0.331317 
116.661324 0.356656 
117.238762 1.196243 
118.247047 0.133859 
119.438072 0.144963 
119.490456 0.952965 
120.59864 1.092035 
123.855133 0.996381 
124.709549 0.128328 
124.780762 0.850211 
128.122192 0.807789 
128.246613 0.509547 
129.307251 1.210518 
133.479675 0.14446 
134.250488 0.60993 
137.996857 0.538496 
140.346146 0.355629 
140.424454 0.947749 
141.296021 0.802531 
142.406937 1.261766 
143.964035 1.136985 
144.231232 0.548479 
148.061462 0.523359 
149.141144 0.546193 
150.746567 1.237201 
151.515945 0.129951 
153.663422 0.135782 
159.232941 0.142897 
159.76712 0.437319 
161.164291 1.089728 
162.13443 1.119794 
162.892685 0.368992 
163.256317 0.239873 
166.642868 1.269058 
166.855301 0.140007 
167.568481 0.600719 
168.408707 1.025728 
169.534149 0.1533 
170.129852 0.733523 
171.462769 0.16065 
176.938812 0.133878 
179.714874 0.548112 
182.548645 1.046653 
188.594711 0.137458 
189.043442 0.402543 
191.839966 0.454534 
195.08313 0.922149 
197.34137 0.349666 
198.152679 0.895837 
198.682297 0.730527 
199.036591 0.582782 
202.041809 0.933404 
202.681274 0.925351 
203.022766 0.134831 
203.289886 0.96376 
205.385086 1.015441 
205.826675 1.254763 
206.291977 1.084172 
207.0327 0.131788 
207.065155 0.36249 
208.94397 0.143076 
211.264374 0.362728 
212.732498 1.042615 
213.825302 0.353048 
214.416412 0.127015 
214.470779 11.082908 
214.482132 39.306572 
215.154114 0.809705 
215.799149 1.089048 
220.837051 0.350211 
222.898499 0.627359 
229.047226 100.0 
230.050446 12.208275 
232.940247 1.107181 
238.084137 0.128358 
239.576797 1.403262 
240.908707 0.974768 
243.862015 1.151749 
245.577652 1.136622 
251.022934 0.511778 
253.187057 1.016935 
254.535995 0.980392 
263.019043 0.63293 
263.333252 0.646598 
266.42392 1.288973 
267.016785 0.380043 
267.412415 0.163162 
269.033325 2.031533 
271.11145 0.962596 
275.223206 0.154819 
279.879761 0.594363 
280.103577 0.571718 
281.033081 0.409492 
283.048798 0.19925 
286.479156 0.485016 
292.90506 0.131638 
294.261139 0.137921 
295.049377 0.406808 
296.278992 0.381698 
301.676819 0.619314 
303.189117 0.601821 
303.484467 0.272038 
304.301056 1.068299 
304.361877 0.680042 
306.65799 1.234947 
309.813354 0.712158 
312.034546 0.954573 
312.839966 0.187286 
314.148651 0.992267 
319.83667 4.015862 
324.511688 1.058088 
326.238525 0.669437 
327.829071 0.20354 
335.851959 0.138309 
336.839539 0.225573 
337.661041 1.039856 
337.846985 0.878417 
341.351685 0.855015 
343.47113 0.369866 
344.976837 0.174334 
346.277161 1.087074 
350.247864 0.152076 
351.11145 1.245304 
352.007721 1.137581 
354.022858 1.023907 
355.470154 0.425611 
356.471497 0.829416 
357.131104 1.718417 
357.884705 1.216523 
358.368073 0.525812 
366.176392 0.561269 
369.122101 0.171484 
369.8367 0.213751 
377.087891 0.153957 
END IONS

