BEGIN IONS
PEPMASS=268.105
CHARGE=1+
COMPOUNDNAME=ReSpect:PT100400 Adenosine|9-beta-D-Ribofuranosyladenine|Adenine riboside|Sandesin|Boniton|Myocol|Nucleocardyl|Adenocard|(2R,3R,4S,5R)-2-(6-aminopurin-9-yl)-5-(hydroxymethyl)oxolane-3,4-diol
LIBRARYQUALITY=3
SMILES=C1=NC2=C(C(=N1)N)N=CN2C3C(C(C(O3)CO)O)O
INCHIKEY=OIRDTQYFTABQOQ-UHFFFAOYSA-N
INCHI=1/C10H13N5O4/c11-8-5-9(13-2-12-8)15(3-14-5)10-7(18)6(17)4(1-16)19-10/h2-4,6-7,10,16-18H,1H2,(H2,11,12,13)/t4-,6-,7-,10-/m1/s1/f/h11H2
MSLEVEL=2
SOURCE_INSTRUMENT=ESI-LC-Q-TOF/MS
FILENAME=respect_8_1_2014_GNPS_peaks.mgf
SEQ=*..*
IONMODE=Positive
ORGANISM=RESPECT
NAME=ReSpect:PT100400 Adenosine|9-beta-D-Ribofuranosyladenine|Adenine riboside|Sandesin|Boniton|Myocol|Nucleocardyl|Adenocard|(2R,3R,4S,5R)-2-(6-aminopurin-9-yl)-5-(hydroxymethyl)oxolane-3,4-diol [M+H]
PI=Putative ReSpect Match
DATACOLLECTOR=ReSpect
PUBMED=N/A
SUBMITUSER=mwang87
TAGS=
SPECTRUMID=CCMSLIB00000220745
SCANS=6086
136.063797 311.0 
268.104614 999.0 
END IONS

