BEGIN IONS
PEPMASS=421.0
CHARGE=1+
COMPOUNDNAME=MoNA:2235919 Blasticidin S
LIBRARYQUALITY=3
SMILES=N/A
INCHIKEY=CXNPLSGKWMLZPZ-UHFFFAOYSA-N
INCHI=InChI=1S/C17H26N8O5/c1-24(16(20)21)6-4-9(18)8-12(26)22-10-2-3-13(30-14(10)15(27)28)25-7-5-11(19)23-17(25)29/h2-3,5,7,9-10,13-14H,4,6,8,18H2,1H3,(H3,20,21)(H,22,26)(H,27,28)(H2,19,23,29)
MSLEVEL=2
SOURCE_INSTRUMENT=LC-ESI-QQ-LC-ESI-QQ
FILENAME=output_mgf.mgf
SEQ=*..*
IONMODE=
ORGANISM=MONA
NAME=MoNA:2235919 Blasticidin S [M-H]-
PI=MoNA
DATACOLLECTOR=MoNA
PUBMED=N/A
SUBMITUSER=mwang87
TAGS=
SPECTRUMID=CCMSLIB00000567125
SCANS=4376
72.9 4.918033 
96.1 12.295082 
96.5 9.016393 
105.2 5.737705 
110.0 100.0 
116.3 5.737705 
117.2 5.737705 
120.0 18.852459 
127.2 2.459016 
136.2 4.918033 
138.5 9.016393 
139.8 4.098361 
145.0 6.557377 
145.3 4.918033 
147.2 26.229508 
148.7 13.114754 
164.1 5.737705 
168.4 25.409836 
168.8 2.459016 
170.3 1.639344 
176.9 4.098361 
178.8 4.918033 
180.3 3.278689 
186.0 24.590164 
186.4 14.754098 
187.4 9.836066 
190.3 13.934426 
207.0 11.47541 
210.1 36.065574 
218.8 2.459016 
222.0 7.377049 
222.5 3.278689 
224.6 65.57377 
227.0 8.196721 
228.2 24.590164 
248.5 5.737705 
258.8 8.196721 
266.2 36.885246 
268.2 4.918033 
274.5 6.557377 
289.1 2.459016 
292.7 4.098361 
295.3 1.639344 
304.1 9.836066 
310.5 13.114754 
316.6 5.737705 
334.7 4.098361 
335.7 13.114754 
421.4 26.229508 
END IONS

