BEGIN IONS
PEPMASS=446.0
CHARGE=1+
COMPOUNDNAME=MoNA:2355046 Sissomicin
LIBRARYQUALITY=3
SMILES=N/A
INCHIKEY=URWAJWIAIPFPJE-YFMIWBNJSA-N
INCHI=InChI=1S/C19H37N5O7/c1-19(27)7-28-18(13(26)16(19)24-2)31-15-11(23)5-10(22)14(12(15)25)30-17-9(21)4-3-8(6-20)29-17/h3,9-18,24-27H,4-7,20-23H2,1-2H3/t9-,10+,11-,12+,13-,14-,15+,16-,17-,18-,19+/m1/s1
MSLEVEL=2
SOURCE_INSTRUMENT=LC-ESI-QQ-LC-ESI-QQ
FILENAME=output_mgf.mgf
SEQ=*..*
IONMODE=
ORGANISM=MONA
NAME=MoNA:2355046 Sissomicin [M-H]-
PI=MoNA
DATACOLLECTOR=MoNA
PUBMED=N/A
SUBMITUSER=mwang87
TAGS=
SPECTRUMID=CCMSLIB00000571862
SCANS=9113
58.5 20.0 
58.7 100.0 
69.5 6.666667 
72.1 68.888889 
72.5 15.555556 
75.1 11.111111 
84.2 48.888889 
96.8 37.777778 
102.3 40.0 
107.7 8.888889 
125.6 15.555556 
END IONS

