BEGIN IONS
PEPMASS=823.436
CHARGE=1+
COMPOUNDNAME=MoNA:748135 Nodularin
LIBRARYQUALITY=3
SMILES=N/A
INCHIKEY=IXBQSRWSVIBXNC-HSKGSTCASA-N
INCHI=InChI=1S/C41H60N8O10/c1-8-31-38(54)48-34(40(57)58)26(5)36(52)46-29(15-12-20-44-41(42)43)37(53)45-28(25(4)35(51)47-30(39(55)56)18-19-33(50)49(31)6)17-16-23(2)21-24(3)32(59-7)22-27-13-10-9-11-14-27/h8-11,13-14,16-17,21,24-26,28-30,32,34H,12,15,18-20,22H2,1-7H3,(H,45,53)(H,46,52)(H,47,51)(H,48,54)(H,55,56)(H,57,58)(H4,42,43,44)/b17-16+,23-21+,31-8-/t24-,25-,26-,28-,29-,30+,32-,34+/m0/s1
MSLEVEL=2
SOURCE_INSTRUMENT=LC-ESI-QFT-LC-ESI-QFT
FILENAME=output_mgf.mgf
SEQ=*..*
IONMODE=
ORGANISM=MONA
NAME=MoNA:748135 Nodularin [M-H]-
PI=MoNA
DATACOLLECTOR=MoNA
PUBMED=N/A
SUBMITUSER=mwang87
TAGS=
SPECTRUMID=CCMSLIB00000566764
SCANS=4016
58.0298 10.997552 
58.041 4.557789 
65.9985 0.746291 
66.0349 10.466428 
67.019 2.684297 
67.0302 4.753441 
68.0142 0.489257 
68.0506 1.190215 
69.0346 0.622387 
70.0298 2.104468 
70.0663 0.843407 
71.0503 2.085804 
72.0092 3.109664 
72.0455 34.365848 
73.0295 10.000865 
74.0247 28.800142 
80.0507 2.76697 
81.022 1.045696 
81.0459 2.373979 
82.0299 26.905238 
83.0614 5.274013 
84.0455 51.997582 
85.0294 1.244123 
85.0659 2.484596 
86.0612 2.683779 
91.0553 2.397382 
94.0298 2.52414 
95.0251 3.086181 
95.0377 2.832373 
95.0615 0.73656 
96.0091 0.622506 
96.0329 1.579184 
96.0455 8.622219 
96.0821 0.622334 
98.0247 2.035215 
98.0611 5.367346 
99.0563 0.693724 
100.0041 0.88019 
100.0404 0.479275 
101.0719 2.265713 
102.056 3.339591 
106.0663 1.049851 
107.0376 0.832774 
107.0502 0.585683 
108.0327 0.536912 
108.0456 4.525811 
108.0818 3.3481 
109.0169 1.066073 
109.0408 5.631508 
110.0248 95.078504 
110.0611 5.84966 
111.0326 2.793333 
111.0565 4.488563 
112.0404 34.932323 
112.0769 8.595657 
113.0721 56.527335 
114.056 2.144238 
120.0819 1.243765 
121.0407 2.908157 
121.0531 3.122699 
122.0486 13.915135 
122.0611 3.872694 
122.0975 7.655307 
123.0326 10.803586 
123.0564 2.521671 
124.0279 0.910761 
124.0403 3.210298 
124.0767 3.123496 
125.0719 0.819592 
126.0563 0.617608 
127.0513 9.556582 
128.0354 100.0 
130.0513 0.557488 
130.0985 7.942327 
131.0867 6.543371 
135.0565 3.861516 
136.0403 2.508848 
136.0516 0.689848 
136.0767 4.034855 
137.072 22.447499 
138.056 19.626156 
138.0672 3.153908 
139.0514 9.533564 
139.0875 1.921785 
140.0715 3.243059 
140.0828 1.148627 
141.0664 0.655546 
141.1033 0.886854 
147.0565 0.643201 
148.0403 0.775813 
148.0638 0.64867 
149.0482 1.284796 
149.0718 2.706266 
150.0559 1.19445 
150.0927 0.512819 
151.0874 4.28249 
152.0714 1.952329 
152.0829 0.668715 
153.1032 5.956135 
154.0984 3.619775 
155.0826 0.608834 
155.1186 0.568665 
156.0777 0.84496 
162.0555 0.557899 
163.0874 2.133114 
164.0716 3.290767 
166.0745 0.85615 
168.114 5.417536 
169.098 0.756791 
180.1142 6.418458 
181.0982 8.747955 
198.125 0.590501 
END IONS

