BEGIN IONS
PEPMASS=1301.72
CHARGE=1+
COMPOUNDNAME=POLYMYXIN B SULFATE
LIBRARYQUALITY=3
SMILES=N/A
INCHIKEY=HFMDLUQUEXNBOP-UHFFFAOYSA-N
INCHI=InChI=1S/C56H98N16O13.H2O4S/c1-7-32(4)13-11-12-16-44(75)63-36(17-23-57)51(80)72-46(34(6)74)56(85)68-39(20-26-60)48(77)67-41-22-28-62-55(84)45(33(5)73)71-52(81)40(21-27-61)65-47(76)37(18-24-58)66-53(82)42(29-31(2)3)69-54(83)43(30-35-14-9-8-10-15-35)70-49(78)38(19-25-59)64-50(41)79;1-5(2,3)4/h8-10,14-15,31-34,36-43,45-46,73-74H,7,11-13,16-30,57-61H2,1-6H3,(H,62,84)(H,63,75)(H,64,79)(H,65,76)(H,66,82)(H,67,77)(H,68,85)(H,69,83)(H,70,78)(H,71,81)(H,72,80);(H2,1,2,3,4)
MSLEVEL=2
SOURCE_INSTRUMENT=N/A-ESI-QFT
FILENAME=library_mgf.mgf
SEQ=*..*
IONMODE=positive
ORGANISM=MONA
NAME=POLYMYXIN B SULFATE [M+H]+
PI=MoNA
DATACOLLECTOR=MoNA:VF-NPL-QEHF027918
PUBMED=N/A
SUBMITUSER=mwang87
TAGS=
SPECTRUMID=CCMSLIB00004721499
SCANS=27918
91.054176 8.591438 
93.069862 2.014876 
94.065086 4.640821 
95.049065 1.637132 
95.06031 6.480467 
95.085457 0.507905 
96.044327 1.954838 
96.080734 1.867614 
97.076012 2.65774 
98.060013 0.989019 
98.071228 4.159412 
98.096359 3.608451 
99.055229 4.655331 
99.091667 1.095712 
100.075653 2.753542 
100.086868 16.235691 
101.070908 93.530754 
101.090355 0.065911 
102.054909 6.162853 
102.074211 3.146669 
102.09153 0.080999 
103.054184 9.761936 
104.049606 0.065887 
105.0448 0.180759 
105.069794 4.60236 
106.065086 0.282344 
107.060249 0.674571 
108.044258 0.838184 
108.06852 0.052226 
109.075958 5.771759 
110.059937 5.162894 
110.071175 3.864075 
110.096153 0.048941 
111.055214 15.198966 
111.085014 0.048051 
111.091545 5.310415 
112.039238 1.06563 
112.058495 0.243788 
112.075569 3.943874 
112.0868 8.668964 
112.094955 0.052054 
112.11187 0.51776 
113.070808 9.219123 
114.054893 0.072716 
115.054276 0.327339 
115.086533 2.446208 
116.049606 0.064773 
117.057114 0.215907 
117.069756 0.205123 
118.065018 1.820221 
118.097305 0.295848 
119.060287 2.428632 
119.07373 0.381049 
119.081459 26.244781 
120.080696 100.0 
121.075951 15.799419 
121.083817 6.918577 
121.873436 0.044441 
122.059929 1.982908 
122.071205 1.238627 
122.079201 0.61054 
122.083755 1.114277 
123.05513 18.543476 
123.091545 5.709629 
123.116676 5.666443 
124.039307 0.410258 
124.05854 0.578663 
124.063148 0.102865 
124.075638 1.257792 
124.086929 0.694228 
124.099541 0.070229 
124.112076 0.514237 
124.120308 0.08841 
125.070786 3.391432 
125.107262 0.117173 
126.054764 0.904277 
126.066139 0.909066 
126.078667 0.043877 
126.102486 1.854507 
127.05043 0.054229 
127.086456 9.969072 
128.061966 0.31994 
128.070496 1.51775 
128.08165 6.511777 
128.089996 0.108288 
129.065536 6.679387 
130.049713 0.588801 
130.064941 3.467497 
130.097275 0.105888 
131.048935 0.762732 
131.080994 0.049205 
131.117844 0.686633 
132.080597 9.359112 
133.075897 1.364774 
133.084015 0.440071 
134.041931 0.038565 
134.071121 0.428555 
134.096191 0.212412 
135.055206 0.247717 
135.091248 0.26593 
136.0755 0.041134 
136.086884 4.079749 
137.070831 21.694689 
137.108475 0.060552 
138.054932 1.054012 
138.066116 3.087737 
138.074127 0.890267 
138.102432 16.244848 
139.050095 1.954412 
139.086487 14.469479 
139.097916 0.150062 
139.10553 0.650267 
139.110992 0.057407 
140.070541 2.535939 
140.081711 10.621123 
140.088715 0.344955 
140.0952 0.051731 
140.118073 3.443598 
140.650742 0.045397 
141.065582 6.090824 
141.085312 0.043521 
141.102097 2.317267 
141.138474 0.056415 
142.097336 0.207231 
142.122528 0.144864 
143.085907 0.223036 
143.854492 0.043781 
144.044342 0.222078 
144.080734 0.219134 
145.07605 0.0526 
145.097061 0.981747 
146.060043 0.046685 
146.071106 0.094024 
146.096283 0.817652 
147.055328 0.04605 
147.091537 1.889532 
148.045853 0.0456 
148.086716 7.561269 
149.070786 19.268604 
149.089798 0.061722 
149.094833 0.114751 
149.106995 0.043898 
150.066483 0.532894 
150.074097 1.018165 
150.102448 3.398314 
151.051102 0.053621 
151.086411 2.935142 
151.105255 0.045739 
151.122803 0.633603 
152.081818 2.513767 
152.089417 0.041545 
152.106796 0.053194 
152.118027 0.19173 
153.06572 0.4569 
153.101913 0.095388 
153.849899 0.041685 
154.09729 3.457203 
155.08136 2.585202 
156.080704 0.735786 
156.113007 3.919396 
157.097 4.971098 
157.108246 5.256852 
157.144821 0.041173 
158.060028 0.819767 
158.0923 4.235349 
158.097366 0.321555 
158.111435 0.054473 
158.153824 4.053186 
159.091614 0.095593 
159.112686 0.064915 
160.086761 1.091247 
160.111679 0.110539 
161.070679 0.345894 
161.571259 0.041871 
162.102432 1.255925 
162.966339 0.042991 
163.086548 0.360613 
163.097549 0.048395 
164.081665 4.8873 
165.065689 1.917946 
165.101929 0.526433 
165.113373 2.435332 
166.089096 0.144341 
166.097305 23.417049 
166.158966 2.101374 
166.65712 0.044629 
167.081345 17.580656 
167.093445 0.217045 
167.100647 0.919916 
167.117737 0.875653 
167.128464 0.047925 
168.065414 0.084161 
168.076508 3.354811 
168.084381 0.261268 
168.113022 2.126983 
168.149506 0.174269 
169.096893 0.771871 
169.108124 0.110822 
169.133392 1.891558 
170.096344 0.767991 
170.136871 0.049735 
172.396194 0.049007 
173.106888 0.052462 
174.091171 0.044887 
174.102432 2.76938 
174.123703 0.093502 
174.310104 0.044971 
175.08638 4.649482 
175.099045 0.054067 
175.12326 0.045061 
175.591965 0.042429 
176.081711 1.781939 
176.090057 0.100539 
176.106781 0.05172 
176.118088 1.398815 
177.065659 0.119258 
177.076935 0.05133 
177.102112 1.23815 
177.113449 1.017078 
178.09726 3.183038 
178.134003 0.045447 
179.081512 0.645431 
179.118225 0.110952 
179.128708 0.072353 
180.076431 0.163974 
180.113098 0.829802 
181.108185 0.352793 
181.132919 0.046659 
181.169662 0.054378 
182.092316 2.304417 
182.12915 0.060478 
182.139404 0.09885 
183.076553 0.289456 
183.091476 0.286405 
183.123947 25.292267 
183.133011 0.435548 
184.075577 0.702543 
184.098724 0.159928 
184.10788 20.717072 
184.127426 1.265022 
185.092209 3.490074 
185.10672 5.623353 
186.091187 6.250033 
186.100983 0.295124 
186.110565 0.107654 
187.086105 0.422304 
187.094894 0.322419 
187.12291 2.57823 
187.307739 0.044925 
188.080856 0.048832 
188.117828 0.238243 
188.143127 0.161431 
191.09259 0.050127 
191.129257 0.051157 
192.076523 0.528491 
192.11319 1.434816 
193.098251 0.732547 
193.108261 3.810846 
193.116821 0.05245 
194.092255 7.774455 
194.12886 1.264179 
195.076645 0.659801 
195.095856 0.12107 
195.123856 6.269579 
195.185379 4.343283 
196.098877 0.087387 
196.107773 3.430645 
196.144379 1.252622 
196.169434 2.639798 
197.107483 0.139773 
197.128662 0.779329 
197.139114 0.69608 
197.172913 0.058965 
198.128326 0.047417 
200.11824 0.42826 
200.229492 0.043672 
201.102173 1.322342 
201.134506 4.972529 
202.096985 0.205527 
202.118546 2.941089 
202.133575 7.815288 
203.117798 5.488501 
203.128204 0.21623 
203.137283 0.500595 
204.076172 0.047821 
204.102478 0.043905 
204.112885 1.87085 
204.149246 1.081678 
205.108337 2.425222 
205.144577 0.046318 
206.092377 1.921925 
206.128708 0.360692 
207.075851 0.051208 
208.107635 0.190601 
209.103165 3.119503 
209.139725 0.930609 
210.087189 0.861172 
210.123764 0.666304 
211.086914 0.043662 
211.118713 8.968481 
212.102829 4.307151 
212.118729 1.056734 
213.101929 4.137805 
213.13443 0.125516 
213.170975 0.50237 
214.096298 0.094397 
214.133484 0.047316 
214.154663 0.400877 
214.166656 0.038957 
215.117661 0.263057 
215.154999 0.041296 
215.684662 0.038912 
217.170319 0.05331 
219.12384 1.536234 
219.780258 0.490519 
219.807465 0.043655 
220.107925 1.749666 
220.143143 0.049755 
221.102997 0.484311 
221.139633 1.3562 
221.504395 0.048882 
222.087189 0.046668 
222.123413 1.815944 
222.134537 0.608481 
223.118744 2.418138 
223.155151 0.347718 
223.18045 2.655256 
224.102814 1.10039 
224.118683 0.043474 
224.139313 2.618713 
224.164368 0.12959 
224.184052 0.050294 
225.102463 0.048678 
228.113312 0.268922 
229.647614 0.041606 
230.128662 14.521689 
231.112793 4.217269 
231.12355 1.11605 
231.133408 0.325629 
232.10759 0.928359 
232.881165 0.049581 
233.164764 1.691516 
234.196808 0.067187 
236.103622 0.047778 
236.11795 0.042224 
237.134537 1.666422 
238.118759 1.145975 
238.133438 1.067917 
239.114944 0.047891 
239.150101 5.742827 
240.144943 5.003444 
240.206711 0.227706 
241.129456 2.239307 
241.14856 0.092107 
241.16835 0.058031 
241.190674 1.273957 
242.163132 0.045577 
242.174973 0.198957 
243.148834 1.380693 
246.30423 0.052325 
248.138763 5.230429 
248.149384 0.415741 
249.134293 2.144226 
249.171082 0.054698 
250.118149 1.116491 
250.13063 0.235834 
250.154358 0.348516 
251.11322 0.055269 
251.186569 0.182471 
251.810165 0.043692 
252.148483 0.046081 
252.170319 0.046 
252.206802 1.834806 
253.19072 0.629568 
255.209259 0.043803 
255.405045 0.039174 
256.143951 0.200424 
257.127991 0.054333 
257.160736 0.600503 
258.123474 2.352475 
258.15918 0.088959 
259.125336 0.05108 
261.171692 0.070537 
265.129211 0.496896 
265.176697 0.042426 
266.161041 2.758574 
267.14502 1.737466 
267.160675 0.452314 
268.143768 1.226046 
268.180328 0.04977 
269.164124 0.593631 
270.15976 1.633283 
271.143555 0.693875 
273.511383 0.050468 
276.146393 0.337173 
277.128357 0.090235 
278.22226 0.053905 
279.181 0.046643 
279.206512 0.620192 
280.181061 0.432823 
280.201263 0.810339 
281.184998 0.20419 
283.154449 0.151701 
284.139191 1.361539 
284.171387 3.074172 
285.047974 0.044761 
285.155365 0.060896 
285.170654 3.985838 
286.154755 1.124185 
286.173767 0.18803 
292.140289 0.043108 
294.155487 0.230187 
295.155426 1.216541 
295.188782 0.040508 
296.138336 0.242325 
296.207916 0.667992 
296.232941 0.505295 
297.144775 0.053756 
297.170258 0.04206 
297.191742 0.040876 
297.216736 2.260896 
297.234528 0.05602 
297.883392 0.040753 
298.191772 0.156067 
298.220245 0.060513 
303.181274 0.430343 
304.139557 0.045081 
306.155518 0.048314 
306.217957 0.051673 
308.174561 0.046833 
309.169525 0.045269 
310.090942 0.046917 
311.149628 0.049406 
312.182068 0.400395 
313.16571 0.481912 
314.149292 0.845514 
321.170654 0.894086 
322.20108 0.054532 
323.181885 0.274808 
326.185486 0.889702 
326.240295 0.042891 
330.191132 0.100637 
332.328918 0.045271 
339.18042 0.050911 
340.575104 0.045961 
341.209198 0.119089 
342.191711 0.166517 
353.926086 0.047805 
365.140656 0.040643 
369.094727 0.040726 
380.763092 0.04996 
416.074066 0.052101 
416.595215 0.045201 
447.345764 0.4005 
459.069977 0.041788 
463.821442 0.063856 
464.271942 0.042959 
470.483185 0.057022 
477.150208 0.044372 
478.811768 0.040833 
490.085083 0.042912 
537.559265 0.040342 
562.604919 0.040158 
564.005127 0.045392 
566.420837 0.113296 
571.235657 0.0421 
600.642639 0.047231 
622.724854 0.043412 
626.285461 0.044156 
647.473145 0.052934 
649.763123 0.045241 
688.637756 0.052131 
699.744385 0.04719 
705.578186 0.044378 
708.638916 0.048971 
711.986938 0.046779 
755.571899 0.042807 
793.297974 0.043311 
808.246216 0.05458 
894.103027 0.043696 
954.55188 0.044895 
1081.407471 0.045975 
1137.018311 0.041886 
1222.884033 0.045225 
1275.64978 0.051915 
1280.92334 0.044257 
1319.834473 0.042162 
1341.198364 0.047529 
END IONS

