BEGIN IONS
PEPMASS=925.416
CHARGE=1+
COMPOUNDNAME=NYSTATIN
LIBRARYQUALITY=3
SMILES=N/A
INCHIKEY=VQOXZBDYSJBXMA-NQTDYLQESA-N
INCHI=InChI=1S/C47H75NO17/c1-27-17-15-13-11-9-7-5-6-8-10-12-14-16-18-34(64-46-44(58)41(48)43(57)30(4)63-46)24-38-40(45(59)60)37(54)26-47(61,65-38)25-36(53)35(52)20-19-31(49)21-32(50)22-33(51)23-39(55)62-29(3)28(2)42(27)56/h5-6,8,10-18,27-38,40-44,46,49-54,56-58,61H,7,9,19-26,48H2,1-4H3,(H,59,60)/b6-5+,10-8+,13-11+,14-12+,17-15+,18-16+/t27-,28-,29-,30+,31+,32+,33+,34-,35+,36+,37-,38-,40+,41-,42+,43+,44-,46-,47+/m0/s1
MSLEVEL=2
SOURCE_INSTRUMENT=N/A-Linear Ion Trap
FILENAME=library_mgf.mgf
SEQ=*..*
IONMODE=positive
ORGANISM=MONA
NAME=NYSTATIN M+H
PI=MoNA
DATACOLLECTOR=MoNA:VF-NPL-LTQ006343
PUBMED=N/A
SUBMITUSER=mwang87
TAGS=
SPECTRUMID=CCMSLIB00004689832
SCANS=5453
303.140015 11.660138 
321.140015 24.996864 
587.380005 6.206851 
609.409973 13.724204 
627.400024 20.180237 
653.299988 41.167999 
671.299988 62.231232 
808.450012 21.96579 
826.340027 100.0 
852.320007 33.889061 
874.380005 7.259823 
892.409973 15.625246 
END IONS

