BEGIN IONS
PEPMASS=595.381
CHARGE=1+
COMPOUNDNAME=destruxin A
LIBRARYQUALITY=3
SMILES=N/A
INCHIKEY=XIYSEKITPHTMJT-UHFFFAOYSA-N
INCHI=InChI=1S/C29H47N5O7/c1-9-12-21-27(38)34-16-11-13-20(34)26(37)31-23(18(5)10-2)28(39)33(8)24(17(3)4)29(40)32(7)19(6)25(36)30-15-14-22(35)41-21/h9,17-21,23-24H,1,10-16H2,2-8H3,(H,30,36)(H,31,37)
MSLEVEL=2
SOURCE_INSTRUMENT=N/A-ESI-QFT
FILENAME=library_mgf.mgf
SEQ=*..*
IONMODE=positive
ORGANISM=MONA
NAME=destruxin A [M+NH4]+
PI=MoNA
DATACOLLECTOR=MoNA:VF-NPL-QEHF017780
PUBMED=N/A
SUBMITUSER=mwang87
TAGS=
SPECTRUMID=CCMSLIB00004708843
SCANS=17780
50.418678 0.084688 
50.853203 0.077555 
51.890598 0.079416 
52.042664 0.046711 
52.227436 0.070011 
52.493996 0.089623 
52.891369 0.112578 
53.038921 7.179714 
54.5037 0.07843 
55.018169 2.327563 
55.054546 0.942344 
55.578682 0.080934 
56.049782 0.687108 
57.070198 0.516342 
57.351349 0.082805 
57.571365 0.077561 
57.943554 0.096226 
58.065414 93.070107 
58.315163 0.084875 
59.068729 0.186853 
59.137199 0.06863 
59.179028 0.089264 
59.364723 0.100573 
59.70752 0.044144 
60.196827 0.100089 
60.38345 0.08439 
60.845898 0.07656 
60.935726 0.083798 
61.067738 0.074845 
61.090504 0.089092 
61.880192 0.075061 
61.883701 0.054875 
61.930473 0.077267 
61.988384 0.050891 
62.11808 0.058977 
62.477501 0.092807 
62.764458 0.09803 
62.893532 0.075635 
63.123325 0.093615 
63.699482 0.078685 
63.951878 0.093635 
64.902206 0.088629 
64.908455 0.083374 
65.063179 0.045253 
65.734444 0.090824 
67.054291 0.165271 
67.899635 0.124663 
69.033745 0.059015 
69.069977 1.229344 
69.365936 0.046116 
70.065224 29.481043 
70.585602 0.075978 
70.713928 0.058253 
71.049217 0.737377 
71.068359 0.076728 
71.166077 0.075753 
71.197762 0.084724 
71.793579 0.090602 
72.044418 0.806246 
73.02845 0.164437 
73.046829 0.103399 
73.569595 0.059106 
73.877281 0.084003 
73.882935 0.0818 
74.109604 0.081681 
74.40889 0.093282 
75.357948 0.053631 
76.481552 0.058522 
76.646927 0.093158 
77.331619 0.085757 
78.51786 0.074055 
80.049507 0.223374 
80.457855 0.053787 
80.54512 0.050883 
81.033539 22.979555 
81.069878 0.069634 
82.721359 0.049959 
83.049179 2.952588 
83.765327 0.085054 
83.84568 0.091308 
84.080704 0.251194 
86.060089 5.013984 
86.096474 36.727108 
86.23188 0.096158 
86.81044 0.095395 
87.044075 0.687752 
87.099808 0.175123 
89.059769 1.934859 
89.541466 0.092422 
89.98938 0.087117 
90.503166 0.089471 
91.054276 0.046416 
91.057533 0.076676 
91.290817 0.059025 
93.069763 0.193081 
94.070335 0.076903 
95.048958 0.055737 
95.085388 0.134126 
96.227005 0.039251 
96.529388 0.098029 
97.02858 0.061783 
97.065208 0.074303 
98.096436 0.129791 
98.429237 0.074896 
98.984482 0.063958 
99.009132 0.089696 
99.238205 0.087653 
99.654938 0.087668 
100.03933 2.345843 
100.117378 0.068989 
100.134628 0.076883 
100.654366 0.066185 
101.002151 0.082545 
101.834122 0.09889 
101.839516 0.043582 
102.320686 0.054374 
102.668404 0.081017 
105.070015 0.139439 
106.467201 0.047395 
107.085693 0.113247 
108.278259 0.04606 
108.651382 0.08619 
108.920586 0.08629 
108.981003 0.057317 
110.433678 0.077661 
110.461884 0.058826 
110.510117 0.070199 
111.780853 0.090615 
112.112785 0.083231 
112.635925 0.090262 
113.070953 0.151379 
114.055008 5.795216 
114.091301 1.233753 
114.26329 0.089826 
118.334267 0.098421 
119.375244 0.080586 
121.309776 0.110352 
122.096336 0.403346 
123.758369 0.09425 
124.075798 0.145577 
124.112343 0.196153 
125.059891 0.160611 
125.070938 0.197103 
126.127731 0.512035 
126.153519 0.049275 
127.643532 0.082576 
128.888016 0.09631 
129.402222 0.093462 
131.034973 0.078258 
131.30452 0.047774 
131.587463 0.100367 
132.874374 0.051454 
133.085983 0.152883 
135.026321 0.093878 
135.313507 0.106468 
136.075729 2.648013 
137.423889 0.085384 
137.893021 0.093405 
138.05481 0.093017 
138.127762 0.456463 
140.071228 0.056922 
140.107056 0.613868 
140.959702 0.082305 
141.05452 0.595325 
141.065811 0.70104 
141.937561 0.095478 
142.049911 2.160352 
145.233139 0.087463 
145.281235 0.087676 
145.590698 0.122931 
146.176147 0.091797 
146.192795 0.099034 
147.180862 0.094382 
147.660217 0.08575 
148.847794 0.050816 
150.091339 14.14294 
152.106537 0.149028 
153.054596 0.352954 
153.102188 0.173091 
153.138535 0.126204 
154.105286 0.076866 
154.196686 0.108798 
155.082321 0.09167 
155.117599 0.085975 
155.996857 0.906046 
156.670425 0.107351 
157.097107 16.325899 
157.901978 0.089938 
158.100372 0.204018 
159.076263 0.055611 
159.565704 0.112559 
161.681396 0.085408 
161.92955 0.090905 
162.319687 0.051407 
163.551285 0.078617 
164.10704 0.082305 
164.482071 0.077144 
166.086227 6.589702 
166.12265 0.668696 
166.96199 0.054802 
167.461548 0.09495 
168.101868 20.9209 
169.061584 0.097934 
169.097 0.149202 
169.379333 0.054069 
169.70813 0.057692 
170.081146 2.978454 
171.062454 0.144526 
173.378937 0.10863 
174.007446 0.202411 
175.107666 7.307749 
177.102234 0.22063 
178.086212 22.276466 
178.160233 0.080855 
179.089157 0.155541 
179.399658 0.09935 
179.821106 0.089257 
180.43634 0.047715 
181.109787 0.067264 
181.133392 2.409217 
183.149246 1.659352 
184.06929 0.100911 
184.096909 1.287211 
184.133545 0.067604 
184.811646 0.078945 
185.709564 0.120619 
186.076431 0.078621 
188.091553 0.238985 
189.588608 3.545378 
191.993576 0.072292 
192.852386 0.116691 
193.435898 0.098832 
194.081253 6.9154 
194.117508 4.016595 
194.894608 0.118354 
195.044556 0.344082 
195.08432 0.085795 
195.112198 0.055602 
195.148849 0.087363 
196.096848 4.018166 
197.889389 0.060953 
198.593994 6.505886 
198.721664 0.087456 
199.814972 0.096305 
204.600388 0.085339 
205.109726 0.130888 
208.405579 0.104972 
210.148926 14.201022 
212.091339 0.51989 
212.388397 0.050686 
212.535934 4.462345 
212.547226 7.416554 
213.05481 5.479932 
216.611938 0.192262 
216.87178 0.085877 
218.117386 0.190745 
218.979034 0.051057 
219.125916 0.088914 
219.49231 0.059104 
219.917358 0.075314 
220.607162 0.1069 
222.080978 0.047603 
224.09967 0.060163 
224.12323 0.119889 
225.041153 0.060664 
225.106873 0.105079 
225.123047 0.112404 
225.617447 1.912014 
226.560989 0.103488 
227.138824 0.759729 
229.120163 0.097057 
230.117554 0.139323 
230.608719 0.167596 
230.888367 0.050675 
231.065125 12.021201 
231.622879 1.231298 
232.114853 0.114485 
233.060181 0.111039 
234.111877 0.445241 
237.108398 0.074099 
237.123932 1.69736 
239.109512 0.091765 
239.138885 2.583339 
239.614716 0.95189 
240.628098 0.584713 
241.049149 0.264358 
245.551117 0.117822 
246.130798 1.201789 
247.634598 0.077792 
249.075653 0.699099 
249.159683 0.802459 
249.371933 0.088101 
250.107498 0.263476 
250.133392 2.923908 
251.044708 0.094783 
251.070267 5.186939 
255.133804 5.371113 
256.136566 0.083856 
258.609863 0.249196 
259.060394 0.332451 
259.138428 8.765287 
263.175354 3.798596 
263.638794 1.981586 
264.130432 1.228706 
266.747406 0.09214 
267.133881 1.43185 
267.633453 8.414552 
268.142303 0.144137 
269.08078 2.022198 
271.09729 0.078815 
272.127777 0.425525 
272.607544 2.263116 
272.643707 16.286901 
273.13562 1.893189 
274.877045 0.052222 
275.804138 0.079348 
276.094391 0.096103 
276.373016 0.097607 
277.605225 0.098665 
278.644348 0.144482 
279.169922 0.386459 
279.614563 0.287508 
281.649109 2.571484 
283.059479 0.170511 
283.12912 0.129813 
284.159119 0.05047 
285.145508 0.069453 
290.66922 0.066142 
295.097351 0.086894 
296.127136 0.18255 
299.649719 0.090119 
301.06955 0.063116 
303.14035 0.197824 
304.185394 0.074448 
308.128265 0.092531 
308.654449 100.0 
312.973846 0.121822 
313.107239 0.471385 
319.132935 6.431088 
321.148712 0.205932 
322.176178 0.218363 
325.130432 0.089415 
326.13858 11.665242 
327.717041 0.094911 
330.657654 0.050261 
331.133667 0.121048 
334.257843 0.064756 
337.143616 3.806373 
340.186371 0.413354 
344.1492 6.058021 
349.143341 0.647357 
352.223389 0.412554 
353.429718 0.108158 
354.134094 0.588732 
360.159454 4.357189 
365.139832 0.187467 
365.15799 0.059137 
367.873932 0.097317 
368.185242 0.473803 
368.216522 0.065001 
370.197266 0.067284 
378.170166 12.414515 
386.418488 0.090834 
386.864563 0.083749 
390.381317 0.08138 
394.166107 0.129972 
396.179871 0.455143 
403.191162 0.838624 
416.221649 1.457768 
416.867432 0.108788 
418.164459 0.132111 
419.230286 0.104272 
422.195862 1.230428 
425.298889 0.087011 
432.216827 2.058879 
434.316589 0.12383 
436.487366 0.058286 
439.222046 2.983475 
449.206512 1.068604 
450.226349 0.394586 
453.266327 0.054573 
460.211792 16.248896 
475.223541 0.381212 
476.254608 0.100256 
478.222046 7.203409 
479.450012 0.112564 
491.252716 0.288915 
491.293457 0.095579 
497.66925 0.092921 
510.086121 0.112607 
512.461609 0.055319 
517.268188 0.220696 
536.274902 7.443264 
545.265015 0.373316 
591.064758 0.098269 
595.337952 0.723012 
595.384033 1.767174 
596.344727 0.123279 
597.352844 0.062939 
616.301697 0.38932 
619.98999 0.089122 
621.657654 0.060159 
END IONS

