BEGIN IONS
PEPMASS=214.059
CHARGE=1+
COMPOUNDNAME=Citrulline
LIBRARYQUALITY=3
SMILES=N/A
INCHIKEY=RHGKLRLOHDJJDR-BYPYZUCNSA-N
INCHI=InChI=1S/C6H13N3O3/c7-4(5(10)11)2-1-3-9-6(8)12/h4H,1-3,7H2,(H,10,11)(H3,8,9,12)/t4-/m0/s1
MSLEVEL=2
SOURCE_INSTRUMENT=N/A-ESI-QFT
FILENAME=library_mgf.mgf
SEQ=*..*
IONMODE=positive
ORGANISM=MONA
NAME=Citrulline [M+K]+
PI=MoNA
DATACOLLECTOR=MoNA:VF-NPL-QEHF026475
PUBMED=N/A
SUBMITUSER=mwang87
TAGS=
SPECTRUMID=CCMSLIB00004718012
SCANS=26475
50.047928 0.022829 
50.111671 0.030874 
50.906113 0.022254 
51.194187 0.025164 
51.260899 0.027145 
51.639961 0.021828 
51.724098 0.024583 
51.940311 0.018375 
52.437611 0.035825 
52.842426 0.030484 
52.847134 0.037961 
53.002613 0.087307 
53.038975 0.045271 
53.241051 0.02929 
53.952747 0.028145 
54.119698 0.023289 
54.334579 0.021699 
55.054531 1.494514 
55.778778 0.030775 
55.837265 0.017371 
55.934715 0.056009 
56.049843 0.049968 
56.153282 0.022767 
56.19849 0.031917 
56.851986 0.017443 
56.960327 0.01613 
56.96513 8.595961 
56.968842 0.047744 
56.976303 0.019202 
57.070183 8.135642 
57.491882 0.018398 
57.528339 0.017567 
57.893028 0.020795 
57.900677 0.025662 
57.9081 0.021386 
57.915272 0.032858 
57.919079 0.039336 
57.922855 0.041266 
57.926838 0.108381 
57.930836 0.215196 
57.935104 76.969879 
57.939178 0.203658 
57.940033 0.170522 
57.943031 0.114388 
57.947365 0.034675 
57.951321 0.024286 
57.954529 0.023034 
58.065426 0.678248 
58.073513 0.082882 
58.427788 0.029683 
58.750031 0.028468 
58.816292 0.017627 
58.932907 1.156478 
58.942951 0.105049 
58.953773 0.030703 
59.060558 0.022612 
59.256447 0.022198 
59.930523 19.920551 
59.940746 0.054375 
59.995312 0.024519 
60.337269 0.022631 
60.957958 0.116546 
61.010914 5.166228 
61.039925 0.018056 
61.422432 0.015855 
61.439884 0.032725 
62.018711 0.130218 
63.960365 0.018582 
63.99794 0.45634 
64.551643 0.021536 
64.723404 0.021959 
64.753731 0.02265 
65.730614 0.027076 
67.054367 0.9561 
67.10984 0.016521 
67.161331 0.016474 
67.884613 0.013961 
68.049759 0.018413 
68.706078 0.017091 
68.818344 0.019312 
69.070007 0.480777 
70.065239 1.108157 
70.275955 0.023067 
71.049248 0.019816 
71.069557 0.019035 
71.085625 1.898668 
71.75956 0.013751 
71.929459 0.018187 
72.080856 0.109402 
72.589157 0.022902 
72.69828 0.030609 
72.90728 0.016367 
72.93737 0.026888 
72.956154 0.086476 
72.958328 8.446274 
73.463959 0.031613 
73.606773 0.031694 
73.698509 0.016178 
73.929764 3.980932 
73.956207 1.219642 
74.505638 0.031731 
74.708435 0.012948 
74.937637 0.117725 
74.953796 2.078926 
75.110817 0.017607 
75.925194 0.681956 
75.935455 0.420689 
75.945427 15.627111 
76.401596 0.026468 
76.995949 0.026838 
77.940865 3.63549 
78.052132 0.028476 
79.021278 11.084659 
79.054321 0.069159 
79.894966 0.024124 
80.275192 0.018258 
80.575165 0.034744 
81.017059 0.051136 
81.069977 0.638471 
81.650871 0.04878 
82.065147 0.047711 
83.78476 0.021638 
83.827332 0.033416 
83.95031 0.018554 
83.975723 0.882312 
84.080856 0.051258 
84.274712 0.031344 
84.364372 0.031105 
84.554375 0.018086 
85.101212 0.13436 
85.297226 0.026456 
85.965729 0.023845 
85.991875 0.019365 
86.096336 0.015712 
86.326675 0.015214 
87.043076 0.013731 
87.136978 0.0169 
87.401711 0.025638 
87.945389 0.030478 
88.076889 0.023281 
88.675629 0.021628 
89.906967 0.136811 
90.671356 0.025354 
90.826996 0.018961 
90.904564 0.037623 
90.914772 0.239584 
90.947983 0.021911 
90.968887 2.02805 
91.912567 0.078588 
91.922707 0.016309 
91.940308 1.362704 
91.966812 0.142077 
92.647713 0.025791 
92.948158 0.070013 
92.964386 0.233346 
93.069847 0.098829 
93.461555 0.016922 
93.946022 0.034006 
93.956001 9.392821 
94.916588 0.038236 
95.04937 0.206739 
95.085587 0.842543 
95.951408 2.291744 
95.961464 0.031482 
96.201485 0.018864 
96.509285 0.034358 
97.088219 0.035711 
97.874512 0.033579 
97.991501 0.021747 
98.975426 1.374408 
99.202446 0.026973 
99.241501 0.025382 
99.386566 0.02622 
100.075684 0.210443 
101.961098 0.078996 
102.578194 0.033589 
102.914787 4.503744 
102.96833 1.323282 
103.465973 0.015703 
103.912628 0.297327 
103.922531 0.498434 
103.951508 0.196206 
103.976677 0.431443 
104.722633 0.028273 
104.910263 1.074142 
104.930435 2.018314 
105.044876 0.067615 
105.538345 0.026747 
105.557854 0.031764 
105.928352 0.467111 
105.938507 0.026149 
105.956055 0.78697 
106.925964 0.214643 
107.085793 0.021198 
107.128868 0.031737 
107.917915 0.02908 
107.971649 0.033307 
108.428963 0.024863 
108.925385 0.082484 
108.979393 0.589246 
109.101311 0.035066 
110.975037 0.054063 
111.700745 0.021086 
113.994553 0.01545 
114.022667 0.017304 
116.001747 0.020379 
116.985695 0.4199 
116.98941 0.028278 
119.086357 0.036201 
119.254532 0.0192 
119.687904 0.023314 
119.907295 0.032336 
119.917526 1.017868 
120.100998 0.016642 
120.718735 0.016889 
120.925316 2.515937 
120.940178 0.020727 
120.978996 0.48334 
121.922997 0.111292 
121.933151 1.527488 
121.9431 0.0264 
122.920944 0.226614 
122.931 0.197927 
122.941025 9.741289 
123.912422 1.189247 
123.928703 0.163208 
123.938934 2.299615 
123.94883 2.768682 
124.517715 0.019969 
124.936508 2.812764 
125.07106 0.023481 
125.908096 0.046795 
125.944397 0.356332 
126.367477 0.025364 
130.95842 0.016667 
131.183762 0.024878 
132.9366 0.023649 
132.959335 0.024689 
133.22261 0.035016 
134.940994 0.019672 
134.979218 0.020027 
135.948898 2.315858 
135.956573 0.351583 
136.580338 0.118532 
136.920197 0.400322 
136.931503 0.024038 
136.956696 0.189293 
137.011948 0.01735 
137.081955 0.056569 
137.82785 0.023695 
137.886154 0.026396 
137.899826 0.02504 
137.91333 0.102004 
137.928055 35.922371 
137.944443 0.376807 
137.954453 0.475439 
137.964371 1.126036 
138.529572 0.030981 
138.726624 0.028159 
138.926529 0.135496 
138.935944 19.394695 
138.99147 0.030724 
139.009354 0.052135 
139.923553 10.465309 
139.954437 0.735972 
139.960236 0.046121 
140.931366 5.391433 
140.951355 0.313583 
141.033386 0.138088 
141.257721 0.017111 
141.92305 0.308148 
141.949554 0.020229 
142.017609 0.313566 
143.049286 0.549503 
144.378647 0.022155 
144.48735 0.028491 
145.585922 0.0179 
148.972382 0.059166 
151.018021 0.629128 
151.480988 0.028761 
151.908447 0.040207 
151.943695 0.094004 
152.951584 6.868842 
153.746429 0.019912 
153.812347 0.023889 
153.827301 0.022619 
153.844589 0.031517 
153.860123 0.03565 
153.873596 0.028203 
153.893768 0.040222 
153.911026 0.057123 
153.925186 0.131235 
153.93924 0.171433 
153.942719 0.243972 
153.95929 100.0 
153.978851 0.194813 
153.994247 0.082155 
153.99968 0.071871 
154.011566 0.042208 
154.02713 0.036292 
154.060349 0.020959 
154.20932 0.019502 
154.666733 0.023908 
154.946945 1.691038 
154.962952 1.566514 
154.977692 1.269396 
155.030914 0.018412 
155.9384 0.027059 
155.954803 29.227793 
155.961807 0.601636 
155.976685 0.038608 
156.480423 0.033059 
156.946472 18.021418 
157.01944 0.020659 
157.964981 0.327402 
158.941925 5.34232 
159.044281 0.026113 
160.028305 0.139559 
161.060089 0.081903 
161.376633 0.018284 
162.816116 0.017093 
163.954636 0.189588 
164.871933 0.024908 
165.778137 0.030385 
166.105103 0.033203 
166.916412 0.016429 
166.942047 3.077699 
167.012344 0.029169 
167.938522 0.514166 
167.974945 1.207982 
168.937302 0.799609 
168.982697 0.1597 
169.028458 2.012763 
169.917862 2.095221 
169.934189 0.037141 
169.970322 0.047103 
170.9254 0.037083 
170.962143 1.742905 
171.043961 1.801661 
171.443024 0.025684 
171.913422 0.369738 
172.100174 0.022708 
172.26358 0.02919 
172.952423 0.032273 
172.957199 0.035357 
172.98851 1.034379 
174.091476 0.094527 
174.535126 0.026293 
176.860764 0.016475 
185.949234 20.040636 
185.971954 0.02722 
186.94725 0.131471 
187.039246 0.216117 
187.464478 0.02803 
187.944687 5.759977 
188.936203 0.118664 
189.054794 2.663876 
192.069611 0.037325 
193.431519 0.033283 
198.4599 0.034475 
198.938843 0.037954 
199.965134 0.046517 
200.094391 0.142856 
201.268875 0.045595 
204.831696 0.034449 
206.00621 0.034657 
206.376099 0.020812 
207.065674 0.028054 
211.701218 0.03139 
214.253143 2.075048 
214.601593 0.027187 
215.256775 0.131411 
216.645142 0.025118 
219.326782 0.461686 
219.349197 0.046831 
219.351654 0.046337 
219.354721 0.048525 
219.365616 0.034541 
220.4431 0.019496 
233.803436 0.03111 
234.029907 0.026069 
237.997284 0.01759 
239.785904 0.033201 
END IONS

