BEGIN IONS
PEPMASS=309.016
CHARGE=1+
COMPOUNDNAME=Emodin
LIBRARYQUALITY=3
SMILES=N/A
INCHIKEY=RHMXXJGYXNZAPX-UHFFFAOYSA-N
INCHI=InChI=1S/C15H10O5/c1-6-2-8-12(10(17)3-6)15(20)13-9(14(8)19)4-7(16)5-11(13)18/h2-5,16-18H,1H3
MSLEVEL=2
SOURCE_INSTRUMENT=N/A-ESI-QFT
FILENAME=library_mgf.mgf
SEQ=*..*
IONMODE=positive
ORGANISM=MONA
NAME=Emodin [M+K]+
PI=MoNA
DATACOLLECTOR=MoNA:VF-NPL-QEHF011219
PUBMED=N/A
SUBMITUSER=mwang87
TAGS=
SPECTRUMID=CCMSLIB00004702282
SCANS=11219
50.707176 0.050609 
51.368004 0.043561 
53.002979 0.228213 
54.39571 0.046147 
55.018654 0.851725 
55.054974 6.414922 
55.419411 0.042748 
56.050243 0.393047 
56.678551 0.051139 
56.965572 0.357041 
57.034233 2.572833 
57.070621 15.812618 
57.641834 0.043689 
57.913639 0.047602 
58.065918 1.33844 
58.073994 0.509745 
58.353718 0.052341 
58.854633 0.043311 
58.919865 0.04921 
59.049881 10.98409 
60.045181 0.100513 
60.906479 0.039443 
61.01136 14.123569 
62.014709 0.124519 
62.019146 0.143777 
62.982483 0.582593 
63.007141 0.25625 
63.747196 0.042142 
63.858868 0.040955 
63.99847 0.467103 
65.496063 0.041132 
66.477699 0.048094 
66.564674 0.045282 
66.811188 0.043603 
67.054901 5.776258 
67.846756 0.040984 
68.05825 0.05638 
69.034187 2.080185 
69.070541 8.213519 
70.065826 0.841173 
71.049789 1.311616 
71.086166 11.491344 
71.337646 0.049738 
71.484756 0.047035 
72.019051 0.044321 
72.045013 3.700585 
72.081413 0.504053 
72.089546 0.332853 
73.029091 0.996645 
73.065453 0.43136 
73.230515 0.043415 
73.874153 0.045932 
74.060593 0.049636 
74.097145 0.497187 
74.931496 31.910412 
75.044518 0.05784 
76.928558 5.416785 
79.021782 14.657791 
79.054832 2.756188 
79.342285 0.055189 
80.025063 0.113273 
80.050079 0.255067 
80.948418 2.0494 
81.017441 0.05358 
81.034073 0.540492 
81.045166 0.051197 
81.053413 0.152966 
81.070435 8.188194 
82.065727 0.454623 
82.073761 0.217543 
82.540466 0.042753 
82.945473 0.443351 
83.049683 1.048326 
83.08606 5.838388 
84.044945 1.395787 
84.081314 1.847834 
84.084053 0.050184 
84.535477 0.040002 
85.028992 0.433934 
85.065361 1.147202 
85.101692 8.129566 
85.422897 0.04173 
86.024323 0.056181 
86.060555 0.120186 
86.096954 1.833891 
86.105049 0.180349 
87.044571 1.482544 
88.022018 0.340605 
88.076248 0.153904 
89.060173 20.184914 
90.063637 0.718243 
90.091927 0.179315 
91.054718 1.906542 
92.942123 1.006786 
93.07029 3.808366 
94.065598 0.050106 
95.049599 0.873028 
95.060913 0.166353 
95.082825 0.088794 
95.085938 7.585242 
95.323029 0.04665 
96.044785 0.106069 
96.081268 0.177952 
96.089249 0.107443 
96.279312 0.053688 
96.677139 0.045415 
96.921959 0.052013 
96.995598 0.26223 
97.028801 0.482084 
97.065216 1.508507 
97.101578 2.974059 
98.060547 0.28758 
98.097122 0.058729 
98.104622 0.056439 
99.044411 1.123668 
99.080833 0.682644 
99.117157 0.123772 
100.07605 1.812741 
100.112419 0.160972 
101.003593 1.480238 
101.06012 1.64402 
101.477875 0.045217 
102.055527 0.051135 
103.050575 0.141898 
103.34082 0.055334 
103.984512 0.04326 
104.992569 0.086155 
105.070198 2.102235 
106.0653 0.049694 
107.049301 0.33034 
107.070549 0.911782 
107.085815 2.93387 
107.967125 0.859524 
108.081009 0.107063 
108.089432 0.057364 
109.065079 0.912767 
109.101395 3.919602 
110.060555 0.158638 
110.071442 0.062368 
110.096893 0.06916 
110.104713 0.06077 
110.952652 0.293955 
111.04438 0.416961 
111.055298 0.05128 
111.080688 0.62377 
111.117088 0.256962 
111.559555 0.051725 
112.112061 0.049909 
113.060074 0.432419 
113.096214 0.076752 
113.66555 0.045407 
114.05526 0.067511 
114.091591 0.181452 
115.050575 0.124609 
115.075699 0.049847 
115.636009 0.044067 
116.053062 1.248579 
116.070961 0.110676 
116.985405 0.267069 
117.003654 0.139705 
117.069939 0.193534 
117.091217 0.062629 
118.001671 0.049539 
118.032387 0.058658 
118.048866 0.060961 
118.980179 0.079236 
119.049339 0.282232 
119.085701 1.762884 
120.080956 1.323588 
120.422394 0.048485 
121.039879 0.624501 
121.064888 0.47043 
121.101379 2.587977 
122.060059 0.051516 
122.096413 0.120818 
122.104553 0.071291 
122.695839 0.059073 
122.941071 0.51181 
123.044189 0.42761 
123.080505 1.083018 
123.116928 1.171122 
124.075157 0.055573 
124.112099 0.173795 
125.0597 0.120318 
125.096176 0.654531 
126.091728 0.066529 
127.038773 0.059386 
128.070709 0.397459 
128.107056 0.202785 
128.143692 0.064044 
128.963486 0.056878 
129.070404 0.043479 
130.04982 0.602758 
130.086395 0.475491 
130.999985 0.098879 
131.043732 0.048706 
131.052505 0.910464 
131.085632 0.730105 
131.890198 0.049286 
132.080704 0.432825 
132.995483 0.05267 
133.085938 0.93696 
133.101135 1.435491 
134.096207 0.045248 
134.978653 0.288894 
134.996231 0.167143 
135.01088 0.168817 
135.044128 0.115194 
135.080383 0.471387 
135.116837 1.328682 
136.075638 2.401324 
136.919891 0.099033 
136.973923 0.07462 
136.991196 0.056386 
137.011642 0.063168 
137.096039 0.444994 
137.132462 1.311608 
137.921463 0.378812 
137.927597 0.081412 
138.054794 0.057279 
138.091049 0.093341 
138.950989 0.057804 
139.049805 0.047447 
139.111649 0.108167 
139.668991 0.043444 
140.106628 0.123855 
140.959183 0.058771 
141.328064 0.05857 
141.977203 0.053304 
142.050156 0.052454 
142.086426 0.052642 
142.122482 0.098945 
142.159012 0.320648 
142.938431 0.267377 
145.101181 0.516778 
145.271332 0.050827 
147.033112 0.059286 
147.044083 0.267658 
147.08046 0.058363 
147.11676 0.644463 
148.120712 0.058291 
149.012466 0.062307 
149.023529 0.050634 
149.096115 0.198932 
149.132477 0.48146 
149.954208 1.666004 
150.951004 8.382345 
151.096497 0.280164 
151.111771 0.140694 
151.943695 0.281257 
152.036301 0.043472 
152.070175 0.11795 
152.107559 0.050104 
152.944824 8.809524 
152.951431 7.491219 
152.989166 1.464564 
153.938217 0.049223 
153.959305 0.056189 
154.122772 0.060527 
154.521103 0.049452 
154.930267 0.066904 
154.941696 1.765744 
154.984848 0.754273 
155.022736 0.049066 
155.275726 0.047637 
155.931885 0.271475 
158.99501 0.254008 
159.046997 0.59146 
159.116623 0.348131 
159.992355 0.055158 
160.990646 0.12906 
161.068161 0.067412 
161.095993 0.115019 
161.132004 0.198971 
162.091293 0.122831 
163.111435 0.073345 
164.07048 0.057961 
164.106812 0.131014 
164.920319 2.893116 
164.966965 0.148877 
165.054596 0.464625 
165.127213 0.520866 
165.980316 0.045944 
166.916565 0.044269 
166.967056 0.391326 
167.106537 0.057487 
167.964691 1.519126 
168.137024 0.052667 
168.961502 5.907544 
168.98291 0.073688 
169.954086 0.415491 
170.913986 0.549459 
170.955231 88.728455 
171.000168 0.055567 
171.013916 1.798034 
171.116028 0.053488 
171.958939 1.380707 
172.952194 19.038734 
172.994812 0.27606 
173.010849 0.322133 
173.132141 0.119523 
173.942307 0.227743 
174.972275 2.053686 
174.98996 0.377144 
175.006454 0.136138 
175.038879 1.928483 
175.111359 0.052119 
176.98555 0.202074 
177.057571 0.585146 
177.091003 0.0591 
177.127304 0.289229 
177.660889 0.050761 
179.1064 0.198159 
180.138077 0.172096 
181.986023 0.062894 
182.154144 0.059422 
182.977158 0.395285 
184.970871 4.752064 
186.927551 0.761256 
186.968048 0.806973 
187.039246 0.049299 
188.924591 4.781244 
188.965866 100.0 
189.018005 1.12934 
189.054382 0.570198 
189.09108 0.060435 
189.925659 0.052526 
189.969147 1.973281 
190.962631 23.039007 
191.022812 0.137649 
192.961365 0.056982 
193.122345 0.207891 
194.999527 0.127346 
195.064972 0.06687 
197.014435 0.058639 
197.030029 0.056335 
198.954651 0.078989 
199.651749 0.05363 
202.08577 0.069531 
202.906067 0.050857 
202.940002 0.164962 
202.9814 5.636061 
203.070129 1.725239 
203.11409 0.061537 
204.074203 0.061893 
204.137817 0.050381 
204.842331 0.057773 
204.978333 1.081822 
206.658585 0.054486 
206.933746 0.054164 
206.976532 4.67239 
207.028717 0.264273 
208.059662 0.061087 
208.973328 0.476486 
209.0289 0.205833 
210.955307 0.06633 
212.987717 0.051952 
213.009933 0.858437 
213.05452 1.897093 
215.087662 0.051878 
215.159256 0.110124 
215.169693 1.677727 
215.180679 0.205217 
215.946304 0.106097 
217.049316 2.132918 
218.020859 0.395519 
219.174194 2.060534 
220.177475 1.829017 
220.902496 0.130999 
221.136963 0.050792 
222.898468 3.993612 
226.045715 0.05129 
226.086304 0.058021 
227.021591 0.208797 
227.070419 0.306601 
229.001205 2.600896 
229.895889 0.762741 
229.927612 0.059304 
230.001389 0.198426 
230.958023 0.258078 
230.980515 2.69345 
230.998352 0.233902 
231.064667 4.789349 
232.068253 0.268622 
232.805191 0.049131 
233.044495 0.554387 
233.914902 0.106527 
234.913864 0.166429 
236.9133 0.048587 
236.973969 0.048039 
237.111649 0.513999 
238.913589 0.691378 
239.070618 0.066158 
239.901382 0.234218 
240.065323 0.331294 
240.908936 9.100172 
240.921677 0.106937 
240.954239 0.046356 
241.049286 2.140323 
241.909729 0.06312 
244.996155 0.071176 
245.080963 0.990591 
245.3452 0.044345 
246.186905 0.055127 
246.938614 0.169744 
247.011932 1.226808 
247.906052 1.072173 
248.010971 0.107602 
248.939392 3.180869 
248.95433 0.069644 
248.968826 0.18975 
248.977905 0.164369 
248.990936 7.19944 
249.005066 0.057157 
249.06218 0.060176 
249.937302 2.34139 
250.934799 0.498508 
251.02562 1.426075 
251.046768 0.264402 
251.92598 0.149679 
253.049591 0.053219 
254.080551 0.063136 
254.92421 0.296632 
255.063904 0.23681 
262.954926 0.06428 
263.006348 0.1562 
263.901459 0.197755 
264.125122 0.056114 
265.073029 1.070401 
266.949799 0.721905 
267.051941 0.320985 
267.064972 0.139849 
268.036163 0.114469 
268.06015 3.361301 
268.978516 0.056865 
269.03595 0.272016 
272.200745 0.426313 
273.075653 0.675209 
275.132141 0.278866 
276.124756 0.189263 
276.230591 0.052003 
278.208862 0.638004 
279.063843 0.06451 
279.91629 0.115014 
281.080475 0.256012 
281.911499 3.645233 
282.051819 2.515984 
282.075226 0.399736 
283.059753 6.225594 
283.095062 0.060396 
284.062714 0.227358 
284.807007 0.0677 
285.81485 0.215558 
286.822662 0.064087 
287.831024 1.350552 
288.838684 0.429193 
290.210785 1.479286 
290.227997 0.055605 
290.24704 0.426571 
291.086121 0.765534 
293.067566 1.598916 
294.071075 0.059871 
295.046844 0.060391 
295.927094 0.070877 
297.04837 0.055456 
300.651428 0.045957 
301.809082 0.078071 
302.818207 1.823843 
307.059753 0.489012 
307.096283 1.908214 
307.162262 5.447763 
307.186615 0.080897 
307.238831 0.16852 
307.282349 0.071041 
307.31012 0.927087 
308.062683 0.148946 
308.091187 10.115856 
308.164673 0.832463 
308.185577 0.07168 
308.221039 0.594019 
308.238861 0.079204 
308.257568 0.493088 
308.294434 0.915146 
308.843994 0.05874 
309.075775 2.938465 
309.095764 2.829083 
309.129822 0.163526 
309.166199 1.77335 
309.202026 0.139446 
309.259155 0.053712 
309.278137 0.901562 
309.325867 1.15864 
310.070587 28.054773 
310.140533 0.050029 
310.217346 0.131602 
310.233612 0.057684 
310.252991 0.588818 
310.27298 0.392005 
310.310303 3.522728 
310.34613 0.542453 
310.824097 0.059313 
311.072601 7.545859 
311.092224 0.082011 
311.198639 0.080692 
311.254669 0.074461 
311.293701 1.231918 
312.838531 3.922313 
313.839417 0.093497 
320.938995 0.049925 
326.817749 0.36544 
326.933807 0.047708 
328.833557 1.594135 
330.849701 0.080006 
END IONS

