BEGIN IONS
PEPMASS=1299.71
CHARGE=1+
COMPOUNDNAME=POLYMYXIN B SULFATE
LIBRARYQUALITY=3
SMILES=N/A
INCHIKEY=HFMDLUQUEXNBOP-UHFFFAOYSA-N
INCHI=InChI=1S/C56H98N16O13.H2O4S/c1-7-32(4)13-11-12-16-44(75)63-36(17-23-57)51(80)72-46(34(6)74)56(85)68-39(20-26-60)48(77)67-41-22-28-62-55(84)45(33(5)73)71-52(81)40(21-27-61)65-47(76)37(18-24-58)66-53(82)42(29-31(2)3)69-54(83)43(30-35-14-9-8-10-15-35)70-49(78)38(19-25-59)64-50(41)79;1-5(2,3)4/h8-10,14-15,31-34,36-43,45-46,73-74H,7,11-13,16-30,57-61H2,1-6H3,(H,62,84)(H,63,75)(H,64,79)(H,65,76)(H,66,82)(H,67,77)(H,68,85)(H,69,83)(H,70,78)(H,71,81)(H,72,80);(H2,1,2,3,4)
MSLEVEL=2
SOURCE_INSTRUMENT=N/A-ESI-QFT
FILENAME=library_mgf.mgf
SEQ=*..*
IONMODE=negative
ORGANISM=MONA
NAME=POLYMYXIN B SULFATE [M-H]-
PI=MoNA
DATACOLLECTOR=MoNA:VF-NPL-QEHF027919
PUBMED=N/A
SUBMITUSER=mwang87
TAGS=
SPECTRUMID=CCMSLIB00004721500
SCANS=27919
89.776215 0.003346 
89.868057 0.00445 
89.980988 0.003968 
90.580399 0.001641 
91.566315 0.002708 
92.412239 0.001658 
92.872757 0.002101 
93.026527 0.002155 
94.647369 0.003625 
94.979469 1.114354 
95.837013 0.002018 
95.840515 0.001855 
96.695946 0.008642 
96.698997 0.004364 
96.782745 0.007159 
96.821083 0.003071 
96.941383 0.215579 
96.958725 100.0 
96.976723 0.15546 
97.055298 0.004658 
97.222603 0.007184 
97.958153 0.548719 
97.962936 0.05138 
98.472084 0.004367 
98.954529 1.472454 
98.962914 0.271415 
99.04969 0.002881 
99.201599 0.003481 
100.685837 0.001689 
100.809273 0.004299 
100.94001 0.001912 
103.674362 0.004373 
105.769577 0.003993 
106.865967 0.003255 
107.282516 0.003714 
111.630646 0.004885 
113.392517 0.003077 
114.152603 0.00344 
114.875046 0.003716 
115.331192 0.003528 
116.901398 0.003798 
118.507545 0.002256 
119.182732 0.006319 
121.384598 0.003636 
121.573006 0.002541 
125.004639 0.003325 
125.196213 0.004241 
126.274986 0.006243 
129.025925 0.002558 
129.509659 0.004 
129.992645 0.004225 
131.129898 0.00194 
131.394867 0.004307 
132.611938 0.00426 
141.261887 0.005118 
141.703934 0.00457 
142.228424 0.003127 
143.032898 0.003997 
143.936905 0.004848 
146.523911 0.00317 
147.315125 0.002789 
148.524368 0.002687 
148.574158 0.001857 
151.910416 0.004448 
152.891815 0.006933 
154.032639 0.006564 
161.882736 0.004017 
162.532608 0.003769 
164.327057 0.001985 
166.847305 0.004798 
170.914368 0.004237 
171.065475 0.002775 
173.102997 0.003508 
173.944275 0.004726 
175.482529 0.002597 
176.621033 0.003268 
178.277863 0.008293 
179.008774 0.002238 
180.561234 0.003421 
182.958878 0.001483 
185.529984 0.004261 
189.505569 0.004504 
191.231277 0.0048 
196.22934 0.004559 
198.201813 0.004559 
199.12265 0.005429 
199.200241 0.004587 
203.642776 0.00515 
211.501678 0.005514 
211.540207 0.001674 
212.273224 0.003136 
214.27829 0.004384 
216.567139 0.001848 
217.451035 0.00675 
218.516663 0.00372 
220.356659 0.003175 
222.295593 0.002001 
224.218414 0.003998 
229.811508 0.00156 
231.407959 0.002495 
234.418579 0.002767 
236.489288 0.003098 
238.12886 0.002056 
242.033478 0.006478 
242.947525 0.001897 
249.666931 0.003642 
253.303314 0.001713 
253.812088 0.001837 
254.368393 0.001875 
254.739563 0.003783 
260.38028 0.004826 
262.616028 0.001682 
265.480316 0.004594 
265.975128 0.004108 
269.733002 0.002981 
276.683929 0.004847 
276.808136 0.007513 
294.066437 0.00394 
295.432404 0.003993 
301.161316 0.002122 
304.200317 0.010073 
304.223938 0.003117 
311.616272 0.003191 
316.347748 0.00277 
320.556885 0.00197 
325.18515 0.001679 
327.645081 0.002706 
330.591614 0.003459 
337.168213 0.002872 
338.604919 0.002223 
339.312256 0.003805 
359.208923 0.005831 
361.125275 0.007031 
374.618988 0.004394 
376.761536 0.004562 
387.781219 0.004249 
401.497772 0.00218 
419.21756 0.001682 
423.677765 0.001739 
426.903473 0.004021 
444.440063 0.004287 
451.17038 0.001964 
451.582001 0.004203 
453.769867 0.006912 
475.126282 0.001944 
476.298889 0.076893 
478.57724 0.005266 
486.314606 0.004483 
488.154816 0.004136 
488.805603 0.003722 
496.703857 0.001766 
505.427063 0.003152 
515.356567 0.00254 
516.294861 0.002693 
539.388245 0.005195 
547.562439 0.006766 
573.532898 0.007634 
575.928101 0.004546 
578.399963 0.002671 
600.055054 0.005323 
627.098267 0.00329 
629.910645 0.004049 
633.959351 0.003371 
640.132874 0.003788 
645.167786 0.007693 
657.501221 0.002728 
669.625183 0.003829 
671.184998 0.002361 
673.810364 0.003104 
678.538574 0.003372 
689.301453 0.004456 
702.631836 0.005066 
709.7099 0.007984 
709.773621 0.004509 
710.016541 0.009741 
710.203735 0.012934 
710.303223 0.012491 
716.423401 0.225437 
717.426514 0.071828 
737.420166 0.003095 
778.725708 0.003563 
781.838867 0.005407 
783.780457 0.007787 
792.595093 0.005734 
797.714417 0.003137 
808.290588 0.003699 
816.486938 0.050556 
817.489624 0.019293 
818.127869 0.008723 
832.406494 0.004387 
873.508301 0.007949 
881.187866 0.00386 
894.433899 0.003242 
902.302063 0.00435 
905.602356 0.003871 
1018.856262 0.003068 
1021.338135 0.005046 
1022.409058 0.004935 
1101.272949 0.001994 
1113.691772 0.102376 
1114.695068 0.054273 
1128.025635 0.002809 
1174.005371 0.002064 
1201.202026 0.00828 
1219.95105 0.002171 
1286.874146 0.007064 
1293.287842 0.001797 
END IONS

