BEGIN IONS
PEPMASS=245.096
CHARGE=1+
COMPOUNDNAME=Massbank:BML00287 Biotin
LIBRARYQUALITY=3
SMILES=C1C2C(C(S1)CCCCC(=O)O)NC(=O)N2
INCHIKEY=YBJHBAHKTGYVGT-UHFFFAOYSA-N
INCHI=1S/C10H16N2O3S/c13-8(14)4-2-1-3-7-9-6(5-16-7)11-10(15)12-9/h6-7,9H,1-5H2,(H,13,14)(H2,11,12,15)
MSLEVEL=2
SOURCE_INSTRUMENT=ESI-LC-ESI-QTOF
FILENAME=Massbank_ESI_positive_8_1_2014_peaks.mgf
SEQ=*..*
IONMODE=Positive
ORGANISM=MASSBANK
NAME=Massbank:BML00287 Biotin [M+H]+
PI=Putative Massbank Match
DATACOLLECTOR=Massbank
PUBMED=N/A
SUBMITUSER=mwang87
TAGS=
SPECTRUMID=CCMSLIB00000204859
SCANS=119
100.022 31.0 
100.0761 26.0 
123.0173 90.0 
123.0307 48.0 
130.0655 21.0 
143.0236 24.0 
147.0265 26.0 
165.1 24.0 
166.0714 68.0 
167.0469 26.0 
167.06 25.0 
185.0689 21.0 
199.091 75.0 
209.0769 48.0 
227.0844 655.0 
227.1158 27.0 
END IONS

