BEGIN IONS
PEPMASS=595.381
CHARGE=1+
COMPOUNDNAME=destruxin A
LIBRARYQUALITY=3
SMILES=N/A
INCHIKEY=XIYSEKITPHTMJT-UHFFFAOYSA-N
INCHI=InChI=1S/C29H47N5O7/c1-9-12-21-27(38)34-16-11-13-20(34)26(37)31-23(18(5)10-2)28(39)33(8)24(17(3)4)29(40)32(7)19(6)25(36)30-15-14-22(35)41-21/h9,17-21,23-24H,1,10-16H2,2-8H3,(H,30,36)(H,31,37)
MSLEVEL=2
SOURCE_INSTRUMENT=N/A-ESI-QFT
FILENAME=library_mgf.mgf
SEQ=*..*
IONMODE=positive
ORGANISM=MONA
NAME=destruxin A [M+NH4]+
PI=MoNA
DATACOLLECTOR=MoNA:VF-NPL-QEHF017779
PUBMED=N/A
SUBMITUSER=mwang87
TAGS=
SPECTRUMID=CCMSLIB00004708842
SCANS=17779
50.041325 0.007332 
50.57806 0.003932 
50.938999 0.003883 
51.72876 0.007268 
51.919266 0.00254 
52.265285 0.005972 
52.416794 0.004087 
52.815228 0.004623 
52.831215 0.003933 
53.038918 0.062845 
53.133972 0.005568 
53.346283 0.002632 
53.384529 0.003498 
53.654907 0.003544 
53.71339 0.005582 
53.735126 0.005772 
53.883526 0.005647 
53.963062 0.006468 
55.018162 0.044121 
55.054489 0.022121 
56.049652 0.007411 
56.775963 0.004239 
56.787834 0.006027 
56.80167 0.006079 
57.070145 0.047089 
57.45216 0.004184 
58.065395 5.269256 
58.193626 0.004263 
58.252113 0.006227 
58.616447 0.00773 
58.904942 0.00486 
59.047588 0.003421 
59.068645 0.017482 
59.128574 0.004057 
59.344524 0.006407 
60.029102 0.006116 
60.309235 0.007056 
60.969784 0.007746 
61.124603 0.004564 
61.195511 0.005316 
61.566814 0.006618 
61.612907 0.006258 
61.63961 0.007464 
62.249359 0.004285 
62.464237 0.006177 
62.521259 0.004452 
62.711262 0.003257 
62.811863 0.003405 
63.500744 0.004276 
63.695549 0.004077 
65.020432 0.00563 
65.640396 0.005899 
65.893524 0.00484 
67.054321 0.021806 
67.065376 0.006604 
67.253708 0.006473 
68.166237 0.006089 
68.388741 0.002931 
68.457283 0.005482 
69.009666 0.005833 
69.069878 0.061295 
69.444397 0.006601 
70.065208 1.268355 
70.204727 0.003121 
71.049141 0.018992 
71.085571 0.030973 
71.15448 0.005745 
71.55024 0.003493 
71.967392 0.007496 
72.127533 0.005781 
72.22139 0.005713 
72.68399 0.006577 
73.028381 0.009103 
73.046791 0.038288 
73.737495 0.006843 
73.872772 0.004639 
74.554771 0.006812 
75.42057 0.006146 
76.955185 0.003834 
77.824829 0.007788 
77.933907 0.005127 
78.07827 0.005656 
78.377167 0.00531 
78.464989 0.005864 
79.053993 0.00339 
79.159935 0.006545 
80.049469 0.008123 
80.08136 0.005881 
80.567322 0.006053 
80.575516 0.002897 
80.5979 0.002701 
80.807808 0.005139 
81.033524 0.707132 
81.069771 0.028838 
81.126968 0.006579 
81.99218 0.003651 
83.049156 0.087229 
83.446106 0.004846 
84.080719 0.020419 
84.769135 0.004915 
85.101059 0.010339 
85.983055 0.00645 
86.016335 0.006984 
86.060036 0.733001 
86.096436 3.417648 
86.099411 0.010181 
86.725357 0.006267 
87.044052 0.203793 
87.099785 0.064427 
87.916451 0.008229 
89.059708 0.68608 
89.062347 0.005357 
89.204033 0.003083 
89.414131 0.006854 
89.49321 0.005602 
90.67868 0.007377 
90.766144 0.007185 
90.821022 0.003431 
91.054222 0.00333 
91.057297 0.021907 
92.364471 0.008047 
92.712425 0.004559 
93.069817 0.009643 
93.909485 0.006962 
95.085449 0.035929 
95.115059 0.005982 
97.064827 0.012637 
97.844917 0.00622 
98.1353 0.003442 
98.530266 0.006146 
98.792404 0.006766 
98.984322 0.005169 
99.079819 0.004397 
99.98291 0.004964 
100.039284 0.088638 
101.059601 0.066677 
101.747925 0.005387 
103.086685 0.006809 
103.209488 0.006348 
103.38765 0.006671 
103.908264 0.003484 
107.085388 0.00402 
108.930283 0.006948 
109.06543 0.003982 
109.101044 0.019567 
109.315086 0.006426 
110.92984 0.003779 
114.05497 1.951862 
114.091316 0.165247 
114.155441 0.006497 
115.058167 0.021509 
115.096664 0.00618 
118.442429 0.007543 
119.085701 0.00941 
120.694008 0.006198 
121.101097 0.007566 
121.628571 0.005472 
123.080299 0.010132 
125.0597 0.021721 
126.127609 0.03352 
126.434822 0.007063 
126.919479 0.007371 
129.610397 0.00626 
129.866196 0.006414 
130.086639 0.00335 
130.561081 0.005995 
131.556015 0.007114 
132.800095 0.005717 
132.978683 0.007522 
133.085876 0.230077 
133.344193 0.003673 
135.171844 0.003599 
135.448303 0.005504 
135.722733 0.005842 
135.805237 0.005038 
136.075684 0.053825 
136.103867 0.005949 
137.016403 0.00636 
139.062775 0.006047 
140.107086 0.012419 
141.054367 0.015171 
141.065811 0.029588 
142.049866 0.26034 
142.08638 0.08934 
142.094681 0.006275 
143.319427 0.006312 
143.840805 0.003991 
146.535767 0.006624 
148.934723 0.004931 
149.200287 0.004932 
150.091293 0.594395 
150.097366 0.006179 
150.540924 0.006841 
150.835999 0.005444 
152.106995 0.004492 
152.883469 0.00269 
153.054596 0.060574 
153.102234 0.150252 
154.159653 0.005377 
154.765305 0.007113 
155.010315 0.014656 
155.081406 0.026815 
155.339233 0.006316 
156.529297 0.006353 
157.097137 2.612471 
158.100494 0.110323 
160.560165 0.003839 
162.946686 0.007137 
163.123154 0.005736 
164.030869 0.006784 
166.086365 0.618457 
166.122528 0.047044 
167.055725 0.007251 
167.090302 0.007909 
168.094254 0.004487 
168.101974 1.021796 
169.060608 0.004316 
169.097351 0.020225 
169.105164 0.003568 
170.08107 0.134467 
170.138519 0.004042 
171.094528 0.006752 
171.369766 0.006945 
173.092911 0.007786 
175.107712 1.740225 
175.835617 0.007641 
176.111084 0.043367 
177.102814 0.006569 
178.086258 2.780984 
179.089493 0.121504 
180.550812 0.004726 
181.097305 0.008428 
181.133591 0.110597 
181.172501 0.003009 
182.081238 0.012177 
182.248886 0.007293 
182.998383 0.005558 
183.112823 0.00478 
183.14917 0.352722 
184.096756 0.034043 
184.13353 0.012743 
184.45311 0.006975 
186.074661 0.007886 
188.091812 0.067904 
188.107101 0.00398 
189.588623 0.044246 
191.771179 0.004407 
192.102127 0.003652 
192.157944 0.007965 
193.096848 0.009565 
194.081192 1.279024 
194.117615 0.709491 
195.084534 0.065906 
196.096893 0.818504 
197.101822 0.004931 
198.593857 0.098454 
199.144882 0.006589 
200.004883 0.005884 
203.003967 0.005889 
209.128571 0.086363 
210.148911 1.007175 
211.143646 0.034416 
212.091721 0.131653 
212.128204 0.054055 
212.431351 0.006737 
212.523346 0.028149 
212.534821 0.438553 
212.546356 0.350328 
212.689575 0.006181 
213.054611 0.080724 
214.106964 0.003028 
214.80864 0.004355 
215.077393 0.002863 
220.096161 0.01006 
221.113678 0.005628 
225.159698 0.007795 
226.14415 0.00854 
227.138931 0.169167 
228.444229 0.005728 
228.914062 0.006436 
230.609848 0.032379 
231.065353 0.330154 
234.114655 0.007139 
234.576645 0.006941 
235.180313 0.122596 
236.093475 0.007132 
236.297348 0.003934 
237.12355 0.149213 
238.107254 0.017749 
239.037262 0.002923 
239.139084 0.356498 
239.614319 0.042138 
241.118881 0.004993 
242.186615 0.019056 
243.951752 0.007364 
243.990585 0.006718 
246.130707 0.014371 
249.160019 0.258639 
250.107635 0.195317 
250.133133 0.09895 
251.071426 0.008898 
251.10675 0.006646 
252.112091 0.026368 
253.118347 0.004627 
255.134094 1.424973 
255.17067 0.026759 
255.346085 0.006617 
256.118164 0.075515 
256.137482 0.104774 
257.607208 0.005526 
258.36972 0.005799 
258.60849 0.00694 
259.138519 0.322968 
261.159821 0.115784 
262.588837 0.005057 
263.175446 1.306976 
263.638519 0.229971 
264.130859 0.459917 
265.118988 0.040862 
267.134125 0.44369 
267.148346 0.008256 
267.633575 1.385387 
268.641113 0.005953 
270.181274 0.035166 
271.128693 0.110582 
271.320282 0.002918 
272.494415 0.004707 
272.607544 0.064438 
272.643799 1.32233 
273.134338 0.649098 
279.133972 0.045407 
279.170288 0.523962 
279.615295 0.00418 
280.173889 0.003893 
281.18631 0.022701 
281.648834 0.238527 
282.141144 0.164229 
283.059845 0.039414 
283.128693 0.145568 
283.634979 0.007365 
284.131042 0.008775 
285.143646 0.00295 
285.985413 0.002923 
286.141693 0.00589 
286.459473 0.006487 
287.127777 0.009926 
287.630646 0.007233 
289.154358 0.0192 
291.171326 0.007527 
293.649139 0.007511 
293.89859 0.007089 
294.4505 0.007183 
294.657104 0.440248 
296.319763 0.006718 
297.183044 0.005365 
297.216431 0.006679 
299.649292 0.075788 
300.665558 0.178276 
301.070251 0.026938 
301.165649 0.00273 
302.258179 0.004699 
304.650421 0.007173 
305.149963 0.00727 
307.165497 0.086364 
308.150909 0.006087 
308.654205 100.0 
309.156189 0.376523 
309.180328 0.017528 
310.857635 0.007269 
313.107025 0.01053 
317.659576 0.827467 
319.133087 0.014011 
320.94342 0.0039 
322.17572 0.289509 
322.212036 0.00931 
324.191528 0.562132 
324.669067 0.007136 
325.175171 0.032934 
326.13855 0.578716 
326.159058 0.009199 
329.540161 0.006962 
333.180176 0.012259 
333.245331 0.005497 
335.256561 0.003124 
337.143311 0.005116 
337.273224 0.005394 
338.687439 0.006755 
340.186768 0.734794 
341.189362 0.043702 
342.201355 0.004476 
344.149323 0.18817 
350.171112 0.324221 
350.207581 0.068756 
351.172424 0.032988 
352.186646 0.341833 
352.2229 0.790805 
353.16861 0.007302 
353.225708 0.039417 
354.131592 0.00977 
360.159729 0.096877 
368.181335 0.558002 
368.218079 0.484426 
368.255157 0.024026 
369.184113 0.024081 
369.21936 0.022583 
370.197205 0.324467 
378.169678 0.454363 
378.19928 0.043531 
380.217682 0.049648 
388.451904 0.003348 
394.843445 0.011348 
396.186005 0.005575 
396.212494 0.550718 
397.21579 0.048151 
398.228638 0.070481 
404.255096 0.036063 
404.849915 0.009504 
416.221527 0.011449 
417.675018 0.005991 
420.249084 0.003876 
422.195465 0.022094 
431.871246 0.004692 
432.215363 0.008399 
435.260406 0.435829 
436.26236 0.053026 
437.275818 1.778876 
438.279205 0.136093 
439.222748 0.115221 
444.970154 0.006149 
445.852264 0.006338 
447.224823 0.00884 
449.206757 0.16136 
452.766907 0.00623 
453.270966 1.73914 
453.857758 0.007379 
454.273926 0.395376 
455.251099 0.006428 
455.285034 0.487053 
456.290009 0.026569 
460.211609 1.686337 
462.240112 0.008036 
462.690399 0.004985 
463.254333 0.064049 
464.256836 0.003386 
465.270508 0.577321 
465.303436 0.022572 
466.273438 0.008362 
474.628021 0.007316 
475.222717 0.01108 
476.253662 0.027177 
478.222382 0.683046 
478.25708 0.005423 
480.662659 0.006788 
481.265717 0.470993 
482.171295 0.006362 
482.268463 0.048877 
483.280121 0.152088 
483.31723 0.003906 
488.714996 0.003138 
492.249603 0.007989 
509.302002 0.009182 
517.263794 0.006171 
527.252502 0.010843 
531.826477 0.043366 
536.275208 0.518205 
545.263428 0.125746 
559.246399 0.007947 
574.289062 0.059717 
583.338562 0.008316 
588.307861 0.005237 
593.365784 0.054071 
594.370117 0.034841 
595.338867 1.27796 
595.382507 1.48445 
596.343994 0.37805 
596.385071 0.513978 
597.328674 0.972339 
616.301147 2.498039 
END IONS

