BEGIN IONS
PEPMASS=338.16
CHARGE=1+
COMPOUNDNAME=Mycophenolic Acid
LIBRARYQUALITY=3
SMILES=N/A
INCHIKEY=HPNSFSBZBAHARI-RUDMXATFSA-N
INCHI=InChI=1S/C17H20O6/c1-9(5-7-13(18)19)4-6-11-15(20)14-12(8-23-17(14)21)10(2)16(11)22-3/h4,20H,5-8H2,1-3H3,(H,18,19)/b9-4+
MSLEVEL=2
SOURCE_INSTRUMENT=N/A-ESI-QFT
FILENAME=library_mgf.mgf
SEQ=*..*
IONMODE=positive
ORGANISM=MONA
NAME=Mycophenolic Acid [M+NH4]+
PI=MoNA
DATACOLLECTOR=MoNA:VF-NPL-QEHF004802
PUBMED=N/A
SUBMITUSER=mwang87
TAGS=
SPECTRUMID=CCMSLIB00004695865
SCANS=4802
50.364899 0.019466 
50.518646 0.030505 
51.055527 0.028159 
52.656658 0.02349 
52.660114 0.02121 
52.839783 0.035896 
53.012138 0.026329 
53.457386 0.024224 
53.501659 0.023331 
53.799465 0.037448 
54.724529 0.035781 
54.73888 0.032616 
54.770153 0.034424 
54.9244 0.019486 
55.018681 0.07991 
55.120312 0.03151 
55.135902 0.032359 
56.174446 0.024344 
56.722279 0.038228 
56.767727 0.033986 
58.023994 0.031689 
58.154675 0.016567 
58.360306 0.033937 
58.690872 0.032742 
59.047142 0.027552 
59.849518 0.03471 
61.290291 0.02815 
61.627647 0.029833 
61.704575 0.028792 
62.07814 0.017949 
63.209518 0.03057 
64.510681 0.030073 
65.104782 0.025484 
65.847473 0.021785 
66.056206 0.03087 
66.485428 0.041331 
66.552773 0.023456 
66.688614 0.023608 
67.214828 0.031845 
67.981682 0.034278 
68.356361 0.027554 
68.501053 0.034213 
68.5261 0.02013 
69.375664 0.031256 
70.064713 0.033825 
70.472168 0.016643 
71.135246 0.025246 
71.330582 0.020244 
72.16227 0.024828 
72.247696 0.029395 
72.329559 0.020938 
72.942696 0.03449 
73.2808 0.028312 
73.631973 0.030857 
74.069923 0.022086 
74.306412 0.029701 
74.980621 0.029217 
75.914017 0.019216 
76.601593 0.033606 
76.79966 0.03283 
77.294556 0.030711 
77.727974 0.019302 
78.035049 0.030076 
78.721581 0.025926 
79.054916 0.0217 
79.266716 0.022262 
79.565056 0.035193 
79.841942 0.031002 
79.969742 0.033661 
80.575081 0.025232 
80.766548 0.022374 
81.070526 1.834382 
82.073616 0.038086 
82.132866 0.019513 
82.135635 0.020074 
83.226654 0.019646 
83.75827 0.039503 
83.869202 0.028175 
85.122345 0.032584 
86.343361 0.024693 
86.516739 0.025262 
87.150818 0.024459 
88.252441 0.020709 
88.839989 0.023001 
89.10817 0.035637 
89.843849 0.024198 
90.031425 0.028199 
90.050865 0.023648 
90.850403 0.033932 
91.054939 0.034465 
92.045738 0.027109 
92.43708 0.030646 
92.491219 0.036549 
95.623772 0.020585 
95.722603 0.028978 
95.870888 0.025805 
95.942772 0.028723 
96.546967 0.024883 
99.56398 0.019924 
100.003517 0.024056 
100.663078 0.044485 
101.333626 0.023165 
102.271843 0.024249 
102.827652 0.019775 
103.07682 0.040158 
103.174538 0.032925 
103.475067 0.037161 
103.966782 0.029803 
105.245186 0.063088 
105.746971 0.020295 
108.642136 0.023345 
108.75766 0.02691 
109.065201 0.203293 
109.282852 0.018962 
109.818909 0.03665 
110.659378 0.028038 
110.811775 0.021937 
114.635368 0.039003 
116.338142 0.028936 
116.449326 0.034865 
117.998962 0.024188 
118.782448 0.031768 
119.250183 0.02575 
119.655914 0.030535 
121.220131 0.019849 
123.261818 0.018212 
124.338089 0.034601 
125.138824 0.024181 
126.711311 0.019853 
128.085541 0.02119 
128.845886 0.021154 
130.168991 0.025802 
130.327438 0.018081 
131.55809 0.019977 
132.182587 0.019476 
132.845978 0.030957 
133.221039 0.026775 
133.865845 0.02623 
134.019348 0.024769 
134.457092 0.026662 
135.08049 0.248611 
135.803085 0.031616 
135.856522 0.028249 
136.058929 0.025248 
136.083832 0.073013 
136.955566 0.022442 
137.169083 0.033415 
139.142487 0.037026 
139.697571 0.028542 
140.798431 0.030833 
141.405319 0.025571 
143.576981 0.040945 
147.613403 0.021984 
148.226913 0.040928 
149.572342 0.025798 
150.890091 0.026084 
151.377975 0.035772 
152.15773 0.032203 
154.810989 0.038783 
155.927902 0.035548 
156.128693 0.028241 
157.12117 0.034152 
157.60788 0.031632 
158.478149 0.041258 
158.728989 0.037825 
159.044205 6.826113 
159.789062 0.034555 
160.047577 4.229282 
160.340591 0.034512 
160.46347 0.024823 
160.894531 0.028989 
161.049744 0.120202 
161.058945 0.037674 
161.419891 0.046659 
164.035385 0.021172 
168.161102 0.030026 
168.270111 0.030205 
168.644821 0.032992 
169.234924 0.039709 
171.300049 0.021626 
172.445557 0.036704 
175.075165 0.064831 
176.079086 0.064539 
176.183426 0.033457 
177.054764 11.466307 
177.063171 0.037568 
177.473495 0.035982 
178.058075 6.776297 
179.060898 0.389482 
179.070435 0.071931 
182.47966 0.020719 
182.655975 0.031451 
182.954315 0.030889 
184.125229 0.030905 
185.503937 0.037838 
185.776993 0.022428 
186.746353 0.036146 
188.020874 0.036244 
190.905609 0.018736 
192.275482 0.036153 
193.049393 0.032771 
194.286591 0.028736 
195.065384 4.62838 
196.068726 1.659854 
197.07077 0.218153 
197.974319 0.026997 
198.843246 0.027707 
199.659042 0.026224 
202.897049 0.022671 
207.065338 100.0 
208.06868 53.402534 
209.070648 13.943165 
210.073456 0.996809 
211.307266 0.024584 
214.467514 0.035702 
214.769287 1.584262 
214.787292 0.33731 
215.106827 0.517515 
216.109894 0.103564 
217.856232 0.025357 
219.065079 0.106383 
222.084732 0.035779 
223.060242 0.202735 
224.063049 0.035753 
225.792404 0.025711 
230.762787 0.027479 
234.310837 0.03556 
237.754654 0.038417 
238.096039 0.020341 
238.627396 0.040245 
240.109299 0.038281 
243.263351 0.032401 
245.694229 0.036355 
247.949112 0.025127 
248.467911 0.038064 
249.133148 0.032298 
253.56459 0.034747 
259.096527 0.027395 
260.100128 0.037976 
260.210663 0.03401 
261.111633 0.03684 
263.09201 0.035647 
264.673309 0.033054 
265.213593 0.039738 
269.386414 0.039943 
271.776825 0.02853 
275.127808 0.933305 
275.321411 0.029436 
275.685364 0.037725 
276.131348 0.542564 
277.133667 0.048248 
277.718231 0.020322 
280.191925 0.025832 
285.112061 1.332648 
285.250336 0.025498 
285.506775 0.02152 
286.115631 1.262588 
287.117645 0.106976 
287.841675 0.030803 
288.230865 0.031168 
295.659485 0.03067 
296.080048 0.038176 
296.635162 0.033243 
301.123322 0.032174 
311.213135 0.0171 
311.409515 0.02615 
319.084595 0.027579 
323.657135 0.054075 
336.710052 0.039628 
337.467987 0.030818 
339.321136 0.021549 
343.785797 0.022202 
347.3302 0.039794 
347.569824 0.031347 
350.082672 0.022351 
357.660461 0.035811 
364.159882 0.043586 
364.302429 0.025147 
END IONS

