BEGIN IONS
PEPMASS=343.213
CHARGE=1+
COMPOUNDNAME=ERGONOVINE MALEATE
LIBRARYQUALITY=3
SMILES=N/A
INCHIKEY=WVVSZNPYNCNODU-XTQGRXLLSA-N
INCHI=InChI=1S/C19H23N3O2/c1-11(10-23)21-19(24)13-6-15-14-4-3-5-16-18(14)12(8-20-16)7-17(15)22(2)9-13/h3-6,8,11,13,17,20,23H,7,9-10H2,1-2H3,(H,21,24)/t11-,13+,17+/m0/s1
MSLEVEL=2
SOURCE_INSTRUMENT=N/A-ESI-QFT
FILENAME=library_mgf.mgf
SEQ=*..*
IONMODE=positive
ORGANISM=MONA
NAME=ERGONOVINE MALEATE [M+NH4]+
PI=MoNA
DATACOLLECTOR=MoNA:VF-NPL-QEHF027723
PUBMED=N/A
SUBMITUSER=mwang87
TAGS=
SPECTRUMID=CCMSLIB00004721304
SCANS=27723
50.176186 0.04617 
50.582382 0.097797 
50.587589 0.075086 
51.940304 7.684632 
52.940395 0.321666 
53.226086 0.069975 
54.996597 0.047744 
55.018139 1.016843 
56.04977 3.690784 
56.964989 0.10476 
57.033768 0.69815 
57.036045 0.090836 
57.070148 0.760896 
57.079506 0.096031 
57.935085 0.537889 
58.065372 1.438338 
59.0494 1.613782 
59.930447 0.40254 
60.044617 1.752561 
60.51413 0.046618 
60.590214 0.063109 
61.010834 1.067127 
61.240677 0.06726 
61.242962 0.064878 
62.018658 0.567004 
62.210793 0.097947 
62.723534 0.087418 
63.388302 0.076668 
64.473869 0.055332 
65.026527 0.047617 
65.850113 0.066288 
65.852928 0.089777 
65.973236 0.091978 
66.024864 0.065829 
66.121544 0.100768 
66.547523 0.04426 
66.6334 0.095609 
67.605484 0.04445 
67.926979 0.048839 
67.93502 0.499796 
68.049545 0.445453 
68.942772 3.231279 
70.065178 0.558703 
70.448715 0.058518 
70.688072 0.043804 
71.141769 0.088859 
72.112007 0.047001 
72.956734 0.043494 
73.469086 0.094404 
73.798439 0.101591 
73.858345 0.081052 
73.980843 0.084393 
74.060036 3.203328 
75.044037 0.342332 
75.935188 0.04949 
76.075668 0.45541 
76.530815 0.045778 
77.951065 0.062167 
79.021202 0.354164 
79.153915 0.095649 
80.049408 0.074188 
80.294456 0.096323 
81.069832 0.056825 
83.929832 0.3258 
83.954025 0.053582 
84.044365 0.077146 
84.59671 0.049501 
84.937637 0.620309 
85.173386 0.093746 
85.204811 0.085348 
85.446526 0.065286 
87.789581 0.049851 
89.059708 0.760566 
89.754463 0.050355 
90.152977 0.092428 
90.168121 0.084052 
90.617188 0.051741 
91.054596 0.046336 
92.07058 0.644374 
94.065002 0.413894 
94.909607 0.047989 
94.939301 0.088378 
96.014244 0.045322 
97.672607 0.061419 
98.975349 0.223447 
100.674736 0.115167 
101.137901 0.080433 
101.940292 0.130574 
102.054977 0.294297 
102.948212 0.543527 
102.968689 0.054728 
104.645782 0.108527 
106.502991 0.075308 
110.9534 0.354241 
112.48819 0.085321 
113.094833 0.095362 
115.05442 0.093363 
116.963692 1.577353 
116.984856 0.211834 
117.029732 0.055272 
117.971306 0.06474 
118.943153 0.299288 
119.666161 0.086745 
119.950912 0.052964 
121.597267 0.049548 
122.940727 0.221897 
128.070541 6.627578 
128.963776 8.082403 
129.069748 0.73936 
129.964203 0.176808 
130.065125 1.770145 
130.979797 0.831005 
131.00029 0.0502 
132.689972 0.10871 
133.784348 0.078982 
135.1026 0.111165 
137.28862 0.045365 
137.954178 0.197292 
139.146088 0.10662 
139.482452 0.08307 
140.984879 0.046333 
141.069809 0.132043 
144.081039 0.423789 
144.586578 0.043697 
144.981232 0.108763 
144.997284 0.048565 
145.966202 0.058402 
146.974365 15.174584 
147.974442 1.559412 
148.427551 0.125244 
152.062271 1.085062 
152.951523 0.864761 
153.058411 0.118074 
153.06987 13.422229 
153.959229 0.366589 
154.065079 8.719552 
154.072586 1.437676 
154.946701 0.069123 
154.966965 0.063331 
155.068268 0.379514 
155.693222 0.101657 
155.878082 0.050599 
155.965195 0.114034 
155.995224 0.167115 
156.080795 2.702866 
157.084 0.063948 
158.060318 0.08244 
159.013016 0.167771 
161.971939 0.169198 
163.977448 0.129222 
165.069824 5.900547 
166.065216 0.094851 
166.072632 0.242207 
167.072922 17.653938 
167.085358 3.483247 
168.081436 10.044335 
168.088394 0.224895 
169.064911 0.076883 
169.084076 1.022893 
170.011139 0.179311 
170.060059 0.193794 
170.096359 0.219194 
171.480713 0.093908 
172.939621 0.094075 
172.989731 0.107919 
174.005981 0.599245 
175.886047 0.114431 
178.065063 2.941258 
179.072922 3.036042 
179.085388 0.182143 
179.830826 0.098685 
180.080765 100.0 
181.064957 5.83941 
181.075333 1.488476 
181.084045 13.47243 
181.572311 0.045799 
182.060013 0.649264 
182.068619 0.438639 
182.083878 12.305052 
182.096619 11.838073 
183.068451 0.162139 
183.087082 1.061859 
183.099884 1.7349 
184.075989 0.227755 
184.349411 0.042438 
184.956497 0.050315 
187.278244 0.108397 
188.022446 0.057098 
188.427246 0.049554 
188.859772 0.09421 
189.02005 0.05709 
190.065125 10.216104 
191.072937 39.922245 
192.080994 39.855618 
193.075912 8.291636 
193.08519 5.402593 
194.059799 3.580707 
194.080856 0.634343 
194.096375 16.672247 
195.091171 1.146287 
195.10318 3.302969 
195.913437 0.044439 
196.075607 10.134164 
196.099228 2.21244 
196.111816 3.487377 
196.722687 0.120699 
197.079529 0.836478 
197.107254 16.607872 
197.116943 0.402527 
198.078751 3.749703 
198.089874 0.19553 
198.110657 2.022277 
198.880814 0.304239 
199.081604 0.116432 
200.896561 2.821627 
201.896057 0.12051 
204.889145 0.576043 
205.075974 3.615072 
206.059998 1.884394 
206.083817 8.419399 
206.095734 1.42563 
207.067947 56.482185 
207.091644 65.424454 
208.062851 0.045174 
208.075851 94.846039 
208.09964 52.98864 
209.079315 16.904371 
209.102539 8.843675 
210.081696 0.927195 
210.091751 0.098293 
210.108429 0.192335 
211.122894 0.431198 
211.872269 0.069522 
212.524094 0.047063 
212.896469 0.087268 
213.102631 0.326517 
213.904419 0.212556 
214.912659 0.638576 
216.891541 2.88262 
218.868362 5.871969 
219.091827 0.242801 
219.867767 0.349049 
219.921967 0.764175 
220.075745 1.350663 
220.099548 14.037725 
221.10733 54.814793 
221.437119 0.045604 
222.078537 0.053253 
222.11113 9.528968 
223.086731 3.378688 
223.123032 39.936867 
224.070602 2.482927 
224.094086 3.239907 
224.126343 7.39413 
225.073975 0.08921 
225.098526 0.106149 
225.129562 0.089737 
227.60144 0.144894 
228.889465 1.996278 
230.907059 0.044588 
235.086746 0.066894 
236.879486 0.057882 
237.102051 0.780369 
239.117859 2.721467 
240.891434 0.165814 
242.288422 0.077011 
249.102295 0.156984 
255.481079 0.094553 
256.346039 0.046486 
256.921478 0.056918 
258.362854 0.088323 
281.128418 0.323675 
285.016937 0.050276 
287.83786 0.048227 
288.927063 0.04687 
295.126495 0.047879 
298.824066 0.050406 
311.353424 0.13078 
322.153412 0.159299 
339.062714 0.056057 
346.877563 0.092117 
357.410919 0.045152 
358.735168 0.053506 
367.4104 0.115173 
END IONS

