BEGIN IONS
PEPMASS=414.155
CHARGE=1+
COMPOUNDNAME=Massbank:PB005907 S,R-Noscapine|(3S)-6,7-dimethoxy-3-[(5R)-4-methoxy-6-methyl-7,8-dihydro-5H-[1,3]dioxolo[4,5-g]isoquinolin-5-yl]-3H-2-benzofuran-1-one
LIBRARYQUALITY=3
SMILES=CN1CCC2=CC3=C(C(=C2C1C4C5=C(C(=C(C=C5)OC)OC)C(=O)O4)OC)OCO3
INCHIKEY=AKNNEGZIBPJZJG-UHFFFAOYSA-N
INCHI=1S/C22H23NO7/c1-23-8-7-11-9-14-20(29-10-28-14)21(27-4)15(11)17(23)18-12-5-6-13(25-2)19(26-3)16(12)22(24)30-18/h5-6,9,17-18H,7-8,10H2,1-4H3/t17-,18+/m1/s1
MSLEVEL=2
SOURCE_INSTRUMENT=ESI-LC-ESI-QTOF
FILENAME=Massbank_ESI_positive_8_1_2014_peaks.mgf
SEQ=*..*
IONMODE=Positive
ORGANISM=MASSBANK
NAME=Massbank:PB005907 S,R-Noscapine|(3S)-6,7-dimethoxy-3-[(5R)-4-methoxy-6-methyl-7,8-dihydro-5H-[1,3]dioxolo[4,5-g]isoquinolin-5-yl]-3H-2-benzofuran-1-one [M+H]+
PI=Putative Massbank Match
DATACOLLECTOR=Massbank
PUBMED=N/A
SUBMITUSER=mwang87
TAGS=
SPECTRUMID=CCMSLIB00000222351
SCANS=10692
165.053 10.01 
179.068 290.29 
180.072 30.03 
191.067 10.01 
193.05 10.01 
204.065 10.01 
205.071 190.19 
206.078 270.27 
207.08 20.02 
210.145 10.01 
218.079 80.08 
219.085 110.11 
220.094 10000.0 
221.098 1061.061 
222.1 30.03 
236.088 10.01 
248.089 150.15 
249.089 20.02 
263.066 10.01 
264.077 10.01 
265.075 10.01 
276.072 10.01 
277.08 20.02 
279.09 10.01 
280.071 20.02 
281.083 10.01 
291.061 20.02 
292.069 40.04 
293.073 20.02 
294.08 10.01 
295.091 70.07 
296.098 20.02 
297.104 20.02 
302.053 10.01 
303.062 10.01 
304.068 10.01 
305.076 30.03 
306.061 20.02 
307.087 80.08 
308.093 50.05 
309.091 20.02 
310.079 30.03 
312.094 40.04 
313.102 20.02 
319.059 10.01 
320.066 30.03 
321.073 50.05 
322.079 110.11 
323.087 430.43 
324.093 230.23 
325.101 180.18 
326.103 20.02 
327.116 50.05 
332.063 20.02 
334.079 180.18 
335.086 150.15 
336.091 40.04 
337.1 50.05 
338.085 60.06 
339.114 50.05 
340.103 10.01 
341.097 30.03 
343.113 10.01 
348.091 10.01 
349.099 20.02 
350.074 390.39 
351.079 90.09 
352.091 180.18 
353.097 3843.844 
354.1 630.631 
355.111 140.14 
356.121 20.02 
363.108 10.01 
364.104 10.01 
365.097 1021.021 
366.099 210.21 
367.111 50.05 
368.138 20.02 
371.107 60.06 
372.112 10.01 
378.128 80.08 
379.123 20.02 
381.116 180.18 
382.119 30.03 
383.107 120.12 
384.113 20.02 
396.139 230.23 
397.142 40.04 
399.127 10.01 
414.149 2182.182 
415.153 450.45 
416.156 20.02 
END IONS

