BEGIN IONS
PEPMASS=383.053
CHARGE=1+
COMPOUNDNAME=USNIC ACID
LIBRARYQUALITY=3
SMILES=N/A
INCHIKEY=CUCUKLJLRRAKFN-UHFFFAOYSA-N
INCHI=InChI=1S/C18H16O7/c1-6-14(22)12(8(3)20)16-13(15(6)23)18(4)10(25-16)5-9(21)11(7(2)19)17(18)24/h5,11,22-23H,1-4H3
MSLEVEL=2
SOURCE_INSTRUMENT=N/A-ESI-QFT
FILENAME=library_mgf.mgf
SEQ=*..*
IONMODE=positive
ORGANISM=MONA
NAME=USNIC ACID [M+K]+
PI=MoNA
DATACOLLECTOR=MoNA:VF-NPL-QEHF003237
PUBMED=N/A
SUBMITUSER=mwang87
TAGS=
SPECTRUMID=CCMSLIB00004694300
SCANS=3237
50.34465 0.115573 
51.224003 0.09629 
51.74078 0.098822 
51.870972 0.070554 
51.940792 0.305932 
52.30241 0.099585 
52.428234 0.072092 
53.002998 1.213281 
53.039368 5.151201 
53.264191 0.067655 
53.355091 0.095079 
53.7883 0.100493 
53.899319 0.118569 
54.034653 0.091657 
54.744267 0.061873 
54.935734 0.112516 
55.018627 8.317708 
55.055016 51.890873 
55.229431 0.112023 
55.905197 0.065377 
55.935154 0.858904 
56.050259 49.292858 
56.058369 2.044674 
56.43985 0.064826 
56.467854 0.078498 
56.965546 13.300527 
57.034283 4.504388 
57.053665 1.112995 
57.070656 19.236229 
57.478809 0.118296 
57.935623 0.253925 
58.065922 3.218948 
58.07394 0.339803 
58.140606 0.083559 
58.450569 0.106881 
58.906971 0.067636 
59.049919 11.631261 
59.06115 2.497864 
59.592022 0.067562 
59.930969 0.109029 
60.033131 0.064269 
60.045174 0.635479 
60.048145 0.064181 
60.081554 3.434549 
60.891857 0.059711 
60.977345 0.07118 
61.011414 5.588346 
61.676197 0.092637 
62.019222 3.005093 
62.068108 0.06101 
62.982479 4.664225 
63.222973 0.060536 
63.514065 0.103634 
63.707741 0.07616 
63.981632 0.0622 
63.998528 0.083235 
64.193146 0.065183 
64.861984 0.068675 
65.039314 3.702504 
65.073547 0.071008 
66.388344 0.06389 
66.421494 0.062239 
67.018532 0.462193 
67.054924 100.0 
67.429459 0.05603 
68.050186 1.650766 
68.058273 5.738481 
69.034195 4.04318 
69.070564 40.165237 
70.051636 0.114411 
70.065834 8.258074 
70.073944 1.529035 
70.865417 0.06955 
71.049797 6.361034 
71.086212 4.983826 
71.92997 0.178154 
72.045044 1.327633 
72.079155 0.110635 
72.081459 1.139383 
72.150749 0.091387 
72.937851 0.920192 
73.029037 0.202745 
73.06543 0.377782 
74.094719 0.06201 
74.097099 1.946958 
74.789505 0.109914 
74.862923 0.056877 
75.015907 0.055215 
75.058548 0.064279 
75.104042 0.067819 
75.412933 0.11894 
75.423981 0.101059 
75.862206 0.05518 
76.551231 0.061355 
77.039238 0.558322 
79.021873 3.260982 
79.054825 47.347336 
79.166901 0.075457 
80.05011 2.262736 
80.058266 2.878142 
80.06266 0.098303 
80.606277 0.109599 
80.948395 1.2379 
81.019165 0.864379 
81.034126 2.238857 
81.070457 74.003555 
82.065727 2.823973 
82.073753 4.809453 
82.217316 0.077256 
82.234436 0.072891 
83.013496 0.112785 
83.049728 6.483446 
83.083496 0.08869 
83.086105 20.4356 
84.045036 0.261762 
84.08136 4.044295 
84.089417 0.590387 
84.245384 0.062187 
85.029022 0.469052 
85.065384 3.636892 
85.101624 0.476572 
86.060577 1.888926 
86.097031 0.600643 
86.540245 0.11971 
87.04467 0.823832 
88.076057 0.116368 
88.978516 0.080914 
89.060287 0.435181 
90.943031 0.067531 
90.94828 1.625738 
91.054733 42.075249 
91.422676 0.070052 
92.05806 2.955588 
92.948486 0.144722 
93.045578 0.137737 
93.070343 56.004208 
93.249474 0.065416 
93.956284 0.222832 
93.959717 0.100118 
94.026917 0.525677 
94.06562 3.110798 
94.073723 4.371517 
94.078568 0.079991 
95.049614 14.082433 
95.060844 0.095709 
95.085991 63.560665 
96.044823 0.30809 
96.05294 0.124946 
96.081253 1.116934 
96.089355 4.739626 
97.040077 0.249025 
97.065231 7.330452 
97.101624 6.681182 
97.154045 0.064758 
97.271858 0.118719 
97.316833 0.075055 
98.060303 0.114739 
98.09697 1.603312 
98.914368 0.099252 
98.975769 1.77185 
99.044533 0.323491 
99.080948 0.537092 
99.092445 0.111787 
100.000404 0.077306 
100.076088 1.777004 
100.112488 0.273448 
101.060127 0.172422 
101.068352 0.0801 
102.969315 1.147597 
103.054604 0.533522 
104.948425 0.610071 
104.984901 0.700866 
104.992714 0.083142 
105.034096 0.161764 
105.04512 2.596494 
105.070251 23.383623 
105.073944 0.185088 
105.215332 0.084366 
106.073586 1.925079 
106.964195 0.505587 
107.049469 2.149757 
107.082146 0.10633 
107.085884 24.664803 
108.081184 1.624634 
108.089195 1.89142 
108.145966 0.0993 
108.618507 0.102173 
108.958794 0.889735 
109.065163 4.306743 
109.101486 29.637033 
109.524925 0.069691 
110.060326 0.414358 
110.096771 10.390182 
110.104843 2.245409 
110.357185 0.06882 
111.044296 0.590526 
111.080788 8.979948 
111.100327 0.081876 
111.117126 0.234307 
112.075836 0.072683 
112.112358 0.706841 
114.092133 0.089261 
115.054497 0.523352 
115.907578 0.074904 
116.06189 0.074519 
116.844429 0.062113 
116.985832 4.236265 
117.070122 7.312944 
117.260651 0.065426 
118.07357 0.169418 
118.980171 0.450819 
119.049492 0.880323 
119.060715 0.139193 
119.085785 18.921608 
119.090347 0.133905 
119.951248 0.119023 
120.080986 1.465839 
120.089027 1.213363 
121.039894 1.537709 
121.065086 2.523934 
121.101425 13.101402 
121.381111 0.070411 
121.782562 0.111599 
122.09668 0.579653 
122.104637 0.571899 
123.044357 0.335072 
123.055702 0.089037 
123.080673 2.872886 
123.117081 2.131641 
123.468346 0.06245 
124.112442 0.477563 
124.378975 0.074037 
124.989861 0.073451 
125.01548 0.300534 
125.060478 0.304634 
125.096291 1.527782 
126.127876 0.693886 
127.013115 0.12496 
128.062454 0.638458 
128.61586 0.073497 
128.963943 0.11747 
129.069992 3.537694 
130.077988 0.163663 
130.124481 0.069366 
130.884308 0.117836 
131.000458 0.648835 
131.085632 10.054259 
131.971634 2.711496 
132.088852 0.470359 
132.958374 1.287121 
132.979492 0.562047 
132.996124 0.14189 
133.064835 0.515622 
133.077377 0.069712 
133.101242 8.099477 
133.967026 0.648799 
134.012527 0.202176 
134.096451 0.625736 
134.104599 0.467085 
134.919846 0.455723 
134.958664 4.492092 
134.979095 0.098212 
134.996399 4.178103 
135.044418 0.488179 
135.080521 1.894189 
135.116821 5.299941 
136.075867 0.118031 
136.112106 2.928774 
136.1203 0.084257 
136.954239 0.675503 
137.059616 0.433481 
137.09613 4.643712 
138.054947 3.108969 
139.05014 0.255706 
139.076599 0.107751 
140.068268 2.015173 
140.106934 2.728798 
140.985916 0.064028 
141.054749 0.074321 
141.070099 0.130749 
142.078018 0.520877 
142.999786 0.083811 
143.085648 2.986115 
144.080353 0.156744 
144.745255 0.063729 
144.958664 0.096221 
145.064774 0.360435 
145.101151 6.521991 
146.011703 0.306692 
146.096542 0.10892 
146.104248 0.071147 
146.974182 2.366577 
146.996796 0.109073 
147.080612 0.646012 
147.116882 2.905283 
147.227432 0.066835 
147.491791 0.096236 
147.990356 0.081763 
148.006836 0.077724 
148.039291 0.731026 
148.112152 0.160059 
148.973541 0.788222 
149.012146 0.642783 
149.060196 0.126313 
149.09613 1.098899 
149.132523 0.483926 
150.95108 0.525777 
150.968979 1.270844 
150.990005 0.073498 
152.062042 3.622352 
152.930313 0.392849 
152.969193 3.04802 
152.989288 0.937973 
153.007126 0.199372 
153.070038 1.909011 
154.122543 24.591167 
154.964447 0.26465 
155.085373 0.131852 
155.126053 2.271581 
157.034271 0.076338 
157.101273 1.721259 
158.06015 0.080775 
158.995316 0.682171 
159.067581 0.073397 
159.081039 0.2111 
159.116974 2.344186 
159.98999 0.282168 
160.075775 1.023712 
161.047318 0.084402 
161.095917 0.420858 
161.132339 0.393566 
161.985794 0.42681 
162.054565 0.114727 
162.968765 0.074582 
162.978195 0.062405 
163.038834 0.135317 
163.111465 0.475642 
163.961304 0.168407 
164.920319 0.075559 
165.127472 0.072492 
166.983459 0.18674 
167.466949 0.080226 
168.057068 0.518684 
168.138428 0.405133 
168.96196 0.07756 
169.064926 0.153352 
169.100708 0.085738 
171.0327 1.268256 
171.116989 0.570488 
171.698257 0.064555 
172.147247 0.112541 
172.974426 1.691955 
173.048584 0.446295 
173.132828 0.273322 
174.005859 2.638405 
174.323792 0.078833 
174.990265 0.263457 
175.027023 0.086517 
175.111465 0.150479 
176.001343 2.810125 
176.984558 0.088454 
177.007034 0.705204 
177.054749 0.065885 
177.12738 0.190878 
177.998962 1.261261 
179.02121 0.107066 
180.023224 0.133167 
181.704376 0.118837 
182.154037 0.221825 
182.190506 0.141681 
183.032944 0.189029 
183.193024 0.094308 
183.332718 0.066484 
185.132019 0.107049 
185.964432 0.446721 
187.916855 0.084188 
188.059921 0.248677 
188.071747 0.119161 
188.924484 0.078357 
189.043472 2.999277 
189.054504 0.064177 
189.149109 0.087018 
190.017822 0.113651 
190.961746 0.129366 
190.98494 0.477223 
191.058624 0.173484 
191.482086 0.069476 
192.01442 0.181936 
193.055649 0.064563 
193.08577 0.134682 
193.755798 0.109688 
196.005478 0.082327 
196.169739 0.88543 
198.080246 3.044356 
198.585388 0.065126 
199.064407 0.29441 
199.148895 0.085858 
201.04361 0.640545 
203.038315 0.071344 
204.029282 0.128568 
205.025925 0.179775 
205.215042 0.076922 
206.926285 0.095949 
208.064514 0.197032 
208.585312 0.102175 
208.883987 0.140777 
209.048325 0.187552 
209.891541 0.32514 
210.079742 0.230814 
210.185135 6.749541 
211.18895 0.747464 
212.059769 0.133246 
212.611023 0.094714 
213.622299 0.068179 
215.025787 0.116484 
215.403717 0.096069 
216.09079 1.817054 
218.106339 0.556552 
219.032257 0.186366 
220.037064 0.891035 
220.073502 0.104178 
222.898804 3.38159 
224.937607 0.074613 
225.005585 0.089395 
225.053909 0.067581 
226.074951 12.400849 
227.005997 0.190068 
227.059036 4.143489 
227.078262 0.214537 
227.189713 0.117509 
228.091248 1.976662 
233.036087 2.540961 
235.027985 0.15829 
236.117188 0.113108 
237.043335 0.084196 
239.118576 0.104631 
240.696304 0.093108 
240.909119 6.941072 
241.910553 0.092428 
242.105896 0.071538 
243.033279 0.325354 
244.085571 15.888256 
245.014221 0.145386 
245.047928 0.250911 
245.069534 2.651075 
245.088669 0.825248 
246.101212 0.58522 
247.027191 0.094354 
249.044205 0.072595 
249.060028 0.077407 
250.894089 0.221123 
251.046692 0.692837 
251.115906 0.108248 
254.106598 0.086945 
254.816071 0.075936 
255.032562 0.104261 
256.121979 0.656044 
258.101105 0.279013 
259.02829 0.304395 
260.184875 0.104555 
261.043304 0.730092 
261.79953 0.133898 
262.096436 2.151326 
263.02243 1.455615 
263.097778 0.069557 
264.912598 0.462562 
265.038544 0.214105 
265.055969 0.25791 
265.358185 0.074998 
267.112793 0.210385 
269.011383 0.073742 
269.14798 0.119062 
269.154388 0.120148 
271.027802 2.739598 
271.043396 0.070306 
272.032257 0.074829 
273.044922 0.250618 
273.060059 0.238276 
274.132599 0.246831 
275.023071 0.291368 
277.003052 0.076446 
277.037903 0.107962 
277.115997 0.071076 
279.053192 0.06451 
281.033081 1.900334 
281.911926 0.815724 
283.194153 0.076692 
284.371643 0.107514 
287.0224 2.601596 
287.076141 0.070206 
289.038116 14.566003 
290.041473 1.480899 
291.071045 0.663209 
299.077057 0.079225 
301.252441 0.122113 
302.045135 0.248149 
303.01712 0.14895 
303.053528 0.521251 
305.03302 0.075599 
307.027771 0.082445 
307.04837 7.538487 
308.051636 0.496479 
313.001678 0.47804 
317.033295 0.463668 
319.06604 0.176778 
319.357086 0.086586 
321.028992 0.181649 
321.064087 0.081969 
325.05899 0.811564 
326.680756 0.079262 
330.040527 0.17264 
331.011871 1.779097 
331.048187 0.320358 
335.043915 2.471538 
337.409576 0.06534 
347.257477 1.187558 
348.050507 0.082992 
348.261536 0.091947 
353.05423 0.155076 
353.240356 0.112164 
357.407471 0.109312 
361.786499 0.102973 
362.048767 0.072159 
368.309418 0.100055 
371.030243 0.115117 
386.191956 0.105856 
389.632294 0.070221 
403.54892 0.124967 
END IONS

