BEGIN IONS
PEPMASS=243.0
CHARGE=1+
COMPOUNDNAME=MoNA:2232890 5-(2-Oxohexahydro-1H-thieno[3,4-D]imidazol-4-yl)pentanoate
LIBRARYQUALITY=3
SMILES=N/A
INCHIKEY=YBJHBAHKTGYVGT-ZKWXMUAHSA-N
INCHI=InChI=1S/C10H16N2O3S/c13-8(14)4-2-1-3-7-9-6(5-16-7)11-10(15)12-9/h6-7,9H,1-5H2,(H,13,14)(H2,11,12,15)/t6-,7-,9-/m0/s1
MSLEVEL=2
SOURCE_INSTRUMENT=LC-ESI-QQ-LC-ESI-QQ
FILENAME=output_mgf.mgf
SEQ=*..*
IONMODE=
ORGANISM=MONA
NAME=MoNA:2232890 5-(2-Oxohexahydro-1H-thieno[3,4-D]imidazol-4-yl)pentanoate [M-H]-
PI=MoNA
DATACOLLECTOR=MoNA
PUBMED=N/A
SUBMITUSER=mwang87
TAGS=
SPECTRUMID=CCMSLIB00000573987
SCANS=11238
33.1 3.783784 
42.0 100.0 
42.9 0.27027 
46.1 3.423423 
46.8 1.981982 
52.2 0.630631 
59.1 6.756757 
68.2 8.018018 
71.0 0.990991 
72.0 5.045045 
72.8 3.783784 
73.9 7.387387 
74.4 0.630631 
77.0 0.36036 
78.7 0.540541 
80.7 0.630631 
82.3 3.873874 
83.5 2.162162 
85.1 1.891892 
86.9 0.540541 
92.8 0.630631 
93.7 0.45045 
94.2 0.990991 
95.3 6.666667 
97.1 1.711712 
98.1 0.720721 
100.5 1.171171 
102.8 5.135135 
105.3 0.810811 
106.7 0.630631 
110.3 0.810811 
115.4 0.45045 
122.1 0.900901 
126.6 0.36036 
129.8 0.540541 
132.3 0.18018 
134.2 0.36036 
135.4 2.612613 
139.4 0.900901 
144.9 0.630631 
152.8 0.810811 
154.3 0.990991 
END IONS

