BEGIN IONS
PEPMASS=245.093
CHARGE=1+
COMPOUNDNAME=N-acetyltryptophan
LIBRARYQUALITY=3
SMILES=N/A
INCHIKEY=DZTHIGRZJZPRDV-UHFFFAOYSA-N
INCHI=InChI=1S/C13H14N2O3/c1-8(16)15-12(13(17)18)6-9-7-14-11-5-3-2-4-10(9)11/h2-5,7,12,14H,6H2,1H3,(H,15,16)(H,17,18)
MSLEVEL=2
SOURCE_INSTRUMENT=N/A-ESI-QFT
FILENAME=library_mgf.mgf
SEQ=*..*
IONMODE=negative
ORGANISM=MONA
NAME=N-acetyltryptophan [M-H]-
PI=MoNA
DATACOLLECTOR=MoNA:VF-NPL-QEHF000851
PUBMED=N/A
SUBMITUSER=mwang87
TAGS=
SPECTRUMID=CCMSLIB00004691914
SCANS=851
50.862511 0.034138 
51.658291 0.024903 
51.833904 0.028378 
51.855785 0.025956 
52.863708 0.026289 
53.762531 0.038919 
55.530838 0.046123 
55.909409 0.032246 
57.22506 0.033849 
58.027054 0.096929 
58.028484 29.637836 
58.036263 0.033385 
58.31773 0.034936 
58.864212 0.024166 
59.012512 0.317825 
59.031837 0.224546 
59.418484 0.032308 
60.838432 0.032682 
61.176895 0.030683 
61.331367 0.036359 
61.375999 0.034037 
61.46339 0.035953 
61.510746 0.035189 
61.987076 0.625661 
62.584511 0.035544 
64.464165 0.034474 
65.174629 0.024859 
65.361816 0.035457 
65.599411 0.029712 
66.007935 0.039897 
67.139778 0.032758 
67.260536 0.034984 
67.96431 0.029856 
68.351585 0.036218 
69.026215 0.028809 
69.364166 0.03144 
69.397346 0.025485 
69.999992 0.035464 
70.028511 11.674153 
71.115883 0.026573 
72.007797 6.009239 
72.044189 4.694113 
72.41922 0.027242 
74.011566 0.186414 
74.02343 100.0 
74.035042 0.115533 
75.020462 0.036498 
75.026794 2.050996 
76.027649 0.04253 
76.417007 0.03153 
76.789841 0.030504 
77.780426 0.038244 
78.903793 0.033875 
79.38121 0.034302 
79.885445 0.043351 
80.944649 0.040118 
80.975182 0.031505 
81.489059 0.025173 
81.951797 0.037235 
84.044205 0.043739 
84.18029 0.025652 
85.915092 0.037487 
86.188034 0.032509 
90.040916 0.027532 
92.281548 0.026348 
93.848473 0.032556 
94.07283 0.031399 
94.271622 0.023219 
95.717239 0.038711 
96.958763 0.029656 
98.023499 25.402069 
99.026962 0.798006 
101.369614 0.039538 
101.698654 0.034945 
104.400963 0.03199 
106.156601 0.04217 
108.835068 0.034691 
109.302673 0.038976 
110.808327 0.02943 
113.881973 0.026253 
114.581253 0.039368 
114.840324 0.045038 
116.034149 6.299782 
116.049408 31.534599 
116.300003 0.025041 
117.037621 0.045202 
117.052734 2.311286 
121.478035 0.037188 
121.574181 0.045804 
123.606087 0.040705 
128.009995 0.038359 
128.514542 0.034834 
129.057388 0.419807 
130.06514 4.400508 
130.164352 0.03911 
131.068619 0.088759 
131.25946 0.037386 
132.912155 0.034682 
136.848541 0.040893 
138.866226 0.032476 
139.872101 0.038627 
140.19162 0.03757 
142.065186 7.535082 
142.653275 0.039172 
142.811279 0.039672 
143.068756 0.444523 
151.125809 0.036185 
152.803909 0.028124 
152.895508 0.040601 
156.081024 0.326638 
157.076447 0.077321 
158.059326 0.030764 
159.091797 9.431142 
160.095428 0.673576 
162.742065 0.025247 
164.554718 0.045595 
167.944519 0.040151 
168.068924 0.035209 
168.586594 0.041704 
169.292862 0.029348 
173.284912 0.046536 
178.001923 0.02646 
181.487 0.037442 
183.036148 0.036184 
183.092072 2.107224 
184.612717 0.032631 
186.055496 1.999531 
187.05835 0.035266 
188.797745 0.035727 
192.568268 0.038714 
199.501755 0.039198 
201.102783 3.262112 
201.79866 0.02975 
202.106064 0.107696 
203.082108 41.253815 
204.085632 4.69235 
214.081696 0.044764 
216.423157 0.327021 
216.432846 0.642571 
219.066055 0.066644 
222.131317 0.036781 
223.777679 0.035581 
225.639725 0.030739 
230.18988 0.036898 
231.309921 0.02606 
231.606583 0.038333 
245.093399 0.915444 
247.659821 0.0386 
249.126755 0.038462 
252.413727 0.031292 
256.459015 0.043769 
END IONS

