BEGIN IONS
PEPMASS=247.108
CHARGE=1+
COMPOUNDNAME=N-acetyltryptophan
LIBRARYQUALITY=3
SMILES=N/A
INCHIKEY=DZTHIGRZJZPRDV-UHFFFAOYSA-N
INCHI=InChI=1S/C13H14N2O3/c1-8(16)15-12(13(17)18)6-9-7-14-11-5-3-2-4-10(9)11/h2-5,7,12,14H,6H2,1H3,(H,15,16)(H,17,18)
MSLEVEL=2
SOURCE_INSTRUMENT=N/A-ESI-QFT
FILENAME=library_mgf.mgf
SEQ=*..*
IONMODE=positive
ORGANISM=MONA
NAME=N-acetyltryptophan [M+H]+
PI=MoNA
DATACOLLECTOR=MoNA:VF-NPL-QEHF000856
PUBMED=N/A
SUBMITUSER=mwang87
TAGS=
SPECTRUMID=CCMSLIB00004691919
SCANS=856
50.02533 0.010819 
50.199989 0.008441 
50.35807 0.017676 
50.537304 0.008642 
51.131142 0.01474 
51.344585 0.009987 
52.096088 0.007772 
52.396114 0.010622 
53.302364 0.015962 
53.352943 0.008954 
53.412476 0.011235 
53.74493 0.008749 
53.809261 0.017864 
55.018589 0.131996 
55.054974 0.039842 
55.605331 0.008239 
55.615719 0.006914 
56.187725 0.010313 
56.735546 0.008635 
56.96574 0.007021 
57.034271 0.048829 
57.070683 0.091256 
57.579971 0.008248 
58.065842 0.012341 
59.0499 0.332624 
59.506714 0.007517 
60.045147 0.393048 
60.830315 0.008403 
61.011398 0.112533 
62.019196 0.10046 
62.060822 0.091417 
62.904404 0.008262 
63.431705 0.007235 
63.638397 0.006939 
63.829254 0.006736 
64.203499 0.00815 
64.952644 0.008659 
65.665932 0.0092 
65.689835 0.007902 
67.055069 0.01554 
67.42662 0.008661 
67.875404 0.008937 
68.474152 0.015282 
68.563316 0.009484 
68.626099 0.008718 
68.871017 0.008387 
68.905655 0.013789 
69.034325 0.008953 
69.070511 0.079032 
69.549255 0.006636 
69.615402 0.00742 
70.065811 0.186511 
70.106293 0.010939 
70.268242 0.008549 
71.042175 0.008727 
71.049606 0.007349 
71.08625 0.010735 
71.112305 0.009415 
71.183868 0.006054 
71.319176 0.008246 
71.562859 0.017471 
71.946617 0.008722 
72.045006 0.017472 
72.081451 0.544917 
72.559067 0.008536 
72.614899 0.007902 
73.029068 0.011928 
74.0243 0.157733 
74.060677 0.040689 
76.424431 0.012633 
77.039703 0.015763 
77.848747 0.008778 
78.589447 0.007712 
78.801155 0.017091 
78.982506 0.008023 
80.589981 0.009174 
81.816078 0.013687 
83.086143 0.035654 
84.04493 0.026077 
84.081276 0.040124 
84.744179 0.007102 
85.029037 0.018351 
85.040192 0.066745 
85.576668 0.012935 
86.06057 0.019206 
86.096977 2.118743 
86.929695 0.009394 
87.100334 0.058209 
87.103195 0.012877 
87.300346 0.007225 
88.039825 2.123881 
88.044792 0.011305 
88.103485 0.017957 
90.904083 0.034939 
91.054924 0.011808 
92.741684 0.018524 
93.070328 0.023699 
93.999168 0.008553 
95.085999 0.169719 
95.26503 0.013165 
97.101555 0.080166 
98.104797 0.009644 
98.984711 0.054991 
99.427902 0.01033 
100.076309 0.014402 
100.278603 0.012019 
100.70826 0.009459 
101.003494 0.007187 
101.670486 0.007443 
102.055344 0.039448 
104.110252 0.013514 
105.38623 0.009479 
106.562401 0.00922 
106.681229 0.010933 
107.085846 0.010741 
108.914314 0.056351 
109.101669 0.078739 
111.930557 0.00752 
112.039474 0.036702 
113.059982 0.618172 
113.697746 0.009377 
115.055 0.042468 
116.070869 0.087486 
117.057846 0.030872 
117.235283 0.007675 
117.917847 0.017403 
118.065338 0.803669 
123.051704 0.010823 
124.087112 0.236076 
124.098885 0.007788 
124.842323 0.012663 
125.096153 0.084749 
125.515274 0.007828 
126.028755 0.010396 
126.976768 0.009335 
127.956085 0.011133 
128.545471 0.013388 
128.616928 0.011434 
128.905853 0.013733 
130.050049 0.439722 
130.065201 23.093809 
131.048721 0.008557 
131.06842 2.083242 
131.073578 0.0098 
132.044388 0.034302 
132.072266 0.013929 
132.080826 4.810573 
132.10202 0.011181 
133.084198 0.303123 
134.978683 0.062259 
135.043533 0.011477 
135.433548 0.006873 
137.095917 0.13911 
137.891266 0.010155 
138.118973 0.011058 
138.892136 0.006541 
140.345428 0.007195 
141.141586 0.006426 
142.065155 0.400597 
143.034256 0.014006 
143.07312 0.067575 
144.044296 0.133914 
144.080795 2.325449 
145.084015 0.118067 
145.966492 0.383256 
146.059998 12.355929 
146.11731 0.11421 
146.360641 0.007667 
147.057297 0.011712 
147.063232 1.117599 
147.601746 0.008281 
149.826981 0.01012 
149.871429 0.009804 
151.639832 0.017763 
152.896072 0.017472 
152.95163 0.100303 
153.102478 0.01648 
153.390839 0.010769 
153.893692 0.460257 
154.122543 0.120913 
154.977921 0.008668 
155.261841 0.007342 
155.996521 0.008706 
156.069962 0.013901 
156.080765 0.464803 
156.13829 0.053068 
157.076096 1.032675 
157.082397 0.008414 
158.060028 0.542412 
158.066574 0.008544 
158.084122 0.735395 
158.096451 0.484789 
158.363602 0.011042 
158.545044 0.012638 
159.091675 82.670975 
159.108109 0.034162 
159.773605 0.007383 
160.075653 3.388967 
160.089066 0.435441 
160.094986 8.081817 
161.079086 0.3156 
161.097717 0.036496 
161.114899 0.043406 
162.12146 0.032526 
163.977066 0.196812 
166.921173 0.016992 
167.920303 1.121189 
167.953827 0.042487 
168.080902 0.015915 
168.137939 0.007796 
168.917084 15.304462 
169.076035 1.903322 
169.084351 0.057697 
169.917084 0.649376 
170.059967 8.188248 
170.078674 0.040196 
170.913727 2.819204 
171.0634 0.851833 
171.904053 0.501204 
172.075653 0.047789 
172.988403 0.023867 
173.900833 0.0264 
174.091507 0.74123 
174.148529 0.041577 
175.086761 0.147953 
175.118805 0.028394 
177.524033 0.017037 
181.985886 0.016578 
183.091675 2.090881 
184.075714 3.918813 
184.095184 0.178356 
184.932297 0.021257 
185.070816 0.048588 
185.079178 0.473788 
185.513306 0.008947 
185.930771 1.122315 
185.962006 0.425966 
186.054596 0.009339 
186.09137 0.037074 
186.148987 0.092706 
186.927734 23.689548 
187.061325 0.013599 
187.086609 10.944154 
187.928009 1.033943 
187.977097 0.579147 
188.070511 100.0 
188.735214 0.012982 
188.924484 4.908747 
189.073975 11.211866 
189.111786 0.013962 
190.076385 0.289314 
190.232773 0.012559 
199.086838 0.036393 
200.106903 0.016924 
200.943436 0.744654 
201.102188 38.794106 
202.086472 0.509843 
202.105713 4.806577 
202.940323 0.034923 
203.081238 0.951489 
203.108871 0.029162 
203.940994 0.02346 
204.065353 0.028474 
204.084747 0.259615 
204.938278 0.214776 
205.086731 0.088381 
205.097153 5.846741 
205.987656 1.474187 
206.033173 0.00909 
206.100632 0.609712 
206.977356 0.036303 
210.303787 0.019646 
211.086548 0.942338 
212.069946 0.009602 
212.089523 0.009977 
215.089172 0.93381 
216.092453 0.009367 
216.333679 0.020966 
216.34613 0.284131 
216.35675 0.137746 
216.37233 0.044352 
228.101273 0.021997 
229.096893 1.436185 
230.081085 1.326933 
230.100571 0.102896 
230.117157 0.206596 
230.152832 0.0113 
231.084152 0.038449 
231.120026 0.020097 
235.21991 0.008227 
236.154282 0.015614 
245.099701 0.338844 
245.136261 0.954389 
245.266602 0.126044 
245.993576 0.012898 
246.075714 0.249957 
246.090607 0.059512 
246.112457 0.157081 
246.139008 0.071164 
246.149979 0.034132 
246.221603 0.028281 
246.242615 0.131411 
246.931198 0.070803 
247.094879 0.0202 
247.115997 1.979307 
247.141846 0.068241 
247.165085 0.008972 
248.008881 0.248872 
248.09166 1.254255 
248.105286 0.033497 
248.12764 0.15108 
248.141541 0.012103 
248.163864 0.084391 
248.185257 0.032485 
248.200241 0.029471 
248.237106 0.114211 
248.929062 0.019431 
263.420135 0.00832 
264.575623 0.007279 
264.923004 0.007761 
265.990295 0.01766 
END IONS

