BEGIN IONS
PEPMASS=405.264
CHARGE=1+
COMPOUNDNAME=Lovastatin
LIBRARYQUALITY=3
SMILES=N/A
INCHIKEY=PCZOHLXUXFIOCF-BXMDZJJMSA-N
INCHI=InChI=1S/C24H36O5/c1-5-15(3)24(27)29-21-11-14(2)10-17-7-6-16(4)20(23(17)21)9-8-19-12-18(25)13-22(26)28-19/h6-7,10,14-16,18-21,23,25H,5,8-9,11-13H2,1-4H3/t14-,15-,16-,18+,19+,20-,21-,23-/m0/s1
MSLEVEL=2
SOURCE_INSTRUMENT=N/A-ESI-QFT
FILENAME=library_mgf.mgf
SEQ=*..*
IONMODE=positive
ORGANISM=MONA
NAME=Lovastatin [M+H]+
PI=MoNA
DATACOLLECTOR=MoNA:VF-NPL-QEHF002558
PUBMED=N/A
SUBMITUSER=mwang87
TAGS=
SPECTRUMID=CCMSLIB00004693621
SCANS=2558
50.153282 0.049037 
50.509472 0.065097 
50.953575 0.049284 
51.035637 0.056306 
51.058971 0.044325 
51.338875 0.061687 
51.662094 0.066352 
51.699604 0.045483 
52.44223 0.057375 
52.59914 0.061577 
52.60693 0.058333 
52.780895 0.054934 
53.060715 0.061378 
53.17321 0.054437 
53.232868 0.058162 
53.476379 0.054627 
53.492558 0.062787 
53.764755 0.057879 
53.958542 0.060888 
54.012596 0.054275 
54.243557 0.050846 
54.42342 0.069398 
54.494411 0.050403 
54.51078 0.051834 
55.0186 0.702255 
55.054977 4.069875 
55.242607 0.050192 
56.073921 0.04783 
56.177071 0.046845 
56.420017 0.050437 
56.431404 0.051038 
56.676907 0.069819 
56.88229 0.05995 
57.033989 0.067093 
57.070576 0.894334 
57.193253 0.057359 
57.433697 0.072709 
57.589668 0.045903 
58.208801 0.060064 
58.297195 0.054359 
58.36692 0.06107 
58.949745 0.049631 
59.026497 0.063711 
59.169727 0.058948 
59.416058 0.067782 
59.432644 0.044988 
60.091656 0.053296 
60.368774 0.040294 
60.407658 0.058792 
61.808826 0.055555 
61.907104 0.051257 
62.097183 0.073288 
62.136051 0.047603 
62.411407 0.054403 
62.572472 0.055108 
62.792973 0.060897 
62.900105 0.046656 
63.141342 0.039338 
63.422424 0.036656 
63.498219 0.063323 
63.637207 0.046197 
64.532738 0.057312 
65.551926 0.052522 
65.716118 0.061352 
65.81002 0.060142 
65.834366 0.03802 
65.853928 0.046964 
65.875954 0.060894 
66.256844 0.059443 
66.300598 0.064332 
66.311874 0.071434 
66.329796 0.043982 
66.470772 0.055745 
66.617653 0.058816 
66.928574 0.074538 
67.054893 3.748385 
67.189384 0.058069 
67.220352 0.067915 
67.717499 0.058642 
67.737236 0.061024 
68.225571 0.037683 
68.730865 0.064295 
68.997826 0.260171 
69.070518 5.094656 
69.260262 0.059447 
70.061897 0.046663 
71.013359 0.802879 
71.049721 0.279189 
71.95134 0.058042 
72.142021 0.059033 
73.105713 0.055916 
73.133133 0.070904 
73.570808 0.089018 
74.060066 0.051422 
74.538063 0.077175 
74.66465 0.062694 
75.330002 0.04999 
75.4804 0.043438 
75.880348 0.040725 
76.052681 0.045241 
79.054779 20.950165 
80.058243 0.136402 
80.082283 0.048371 
80.332695 0.052894 
81.070419 22.681494 
81.789917 0.044678 
81.845139 0.052887 
82.073837 0.511948 
82.175781 0.06008 
82.552872 0.054604 
83.049652 8.690702 
83.085884 0.282628 
84.381248 0.062814 
85.014366 0.055617 
85.065308 4.297747 
85.621315 0.061089 
86.163612 0.056558 
86.33873 0.056605 
86.724686 0.06406 
86.912605 0.058431 
87.26265 0.050435 
88.24025 0.05597 
88.921036 0.038521 
89.023766 2.109745 
89.061722 0.055988 
89.570656 0.070164 
89.680527 0.063161 
90.636589 0.046844 
90.725548 0.049389 
91.054688 2.825758 
91.179893 0.062132 
91.454987 0.066712 
93.070305 9.500714 
93.494743 0.055841 
94.070152 0.069778 
94.556419 0.061126 
95.049484 0.133429 
95.085899 6.330331 
95.727402 0.053071 
95.808899 0.057715 
95.829041 0.06357 
96.271263 0.073171 
97.015633 0.071041 
97.065193 8.754293 
97.419991 0.051519 
97.802078 0.063123 
97.913513 0.046557 
97.937889 0.063456 
98.362366 0.066835 
98.39183 0.068116 
99.074921 0.065424 
100.711494 0.062829 
100.824913 0.057789 
101.734375 0.056095 
102.63282 0.055332 
102.644615 0.055966 
102.952385 0.076835 
104.736801 0.068501 
104.777267 0.060993 
105.070206 18.871275 
105.073624 0.126591 
106.073425 0.357447 
106.15728 0.063111 
107.049438 0.714118 
107.085808 17.271599 
107.159103 0.049765 
107.53624 0.055983 
108.089294 0.338326 
109.064957 0.674637 
109.091957 0.070871 
109.101357 1.228774 
109.516533 0.061261 
110.452888 0.058827 
110.553284 0.051851 
111.081032 0.06998 
111.469566 0.067265 
112.283546 0.068497 
113.699234 0.074646 
115.488831 0.068283 
116.634674 0.046208 
116.752228 0.068904 
117.07 2.260514 
117.240677 0.060842 
117.804222 0.064085 
119.081604 0.096546 
119.085655 11.24569 
120.088791 0.250912 
120.695908 0.070431 
121.101357 7.144109 
121.162148 0.061537 
121.345886 0.062527 
122.10466 0.096473 
122.39608 0.05984 
122.623077 0.067916 
123.080521 0.063983 
123.146072 0.04933 
123.217979 0.043836 
124.665596 0.054556 
125.059822 0.756234 
125.413261 0.05031 
126.736771 0.064793 
126.938545 0.046177 
127.63385 0.067303 
128.06218 0.540378 
128.535217 0.059221 
129.069855 2.244864 
130.015121 0.064541 
130.139282 0.073765 
131.080475 0.210738 
131.085526 24.399239 
132.088791 1.384829 
133.101105 6.355357 
133.5802 0.066074 
133.76358 0.059704 
134.072113 0.063139 
134.104782 0.064494 
134.497055 0.081431 
134.94339 0.058016 
134.963364 0.064272 
135.080414 0.282776 
135.11673 0.357783 
138.569229 0.047715 
138.890823 0.062208 
141.06958 0.507563 
142.077744 1.876469 
143.070679 0.043713 
143.085449 50.601105 
144.088699 4.329771 
144.094315 0.216816 
144.871017 0.052141 
145.101059 30.786524 
146.104309 2.208972 
147.080231 0.064996 
147.116714 2.332756 
149.095978 0.232066 
150.260544 0.054946 
151.075195 0.482743 
151.319977 0.059625 
151.689865 0.041709 
154.981705 0.063587 
155.085403 10.735244 
155.569931 0.06499 
156.093353 3.385541 
157.101105 26.898144 
157.592606 0.084583 
158.103104 0.518226 
158.109146 5.384999 
159.11673 39.988102 
160.120071 4.166934 
160.569809 0.073459 
160.591614 0.08666 
161.095932 0.063583 
161.132248 0.247409 
161.408218 0.049922 
162.831177 0.050404 
163.111618 0.274176 
165.069885 0.065353 
165.090668 0.234838 
165.439224 0.053288 
167.085373 0.141746 
168.092957 0.140493 
169.101059 27.865396 
169.438583 0.060683 
170.104355 2.375956 
171.116684 30.562656 
172.120041 2.728671 
173.095673 0.056922 
173.13237 81.994049 
174.135727 11.122749 
175.479507 0.058798 
176.838989 0.072334 
177.090897 0.226775 
178.228546 0.053866 
178.991638 0.056649 
179.085068 0.091976 
181.101074 3.932712 
181.728958 0.050335 
181.876114 0.048594 
181.95108 0.070381 
182.108932 0.0723 
183.11673 20.586872 
184.119965 1.252462 
185.132477 5.144478 
186.229507 0.053644 
187.111511 0.391592 
187.148697 0.063481 
187.503311 0.062896 
187.838379 0.064424 
191.106567 4.821744 
192.093719 0.070613 
193.101151 3.931657 
195.116791 2.169722 
195.514114 0.07199 
196.124405 0.4372 
197.132446 15.424532 
198.136032 0.963411 
199.071304 0.050547 
199.148026 100.0 
199.480255 0.049021 
200.151291 14.849178 
201.163742 13.894286 
201.362381 0.060629 
201.575119 0.059909 
202.166977 1.177739 
203.620728 0.051493 
204.708115 0.060216 
205.123291 0.068724 
205.213699 0.050936 
207.116699 6.162526 
208.123337 0.046855 
209.131912 0.149545 
210.028458 0.060894 
210.140167 0.582354 
211.111603 3.031067 
211.148041 5.185313 
212.038498 0.04807 
213.7211 0.052373 
213.902557 0.064582 
213.990326 0.634976 
214.004623 2.369048 
214.016129 0.969468 
215.179382 1.233201 
216.865402 0.071356 
219.11702 0.331666 
220.124191 0.266948 
221.132217 1.153834 
222.321854 0.077142 
222.679855 0.063386 
223.14798 13.355761 
224.151566 1.486418 
225.127441 1.012375 
225.163513 53.351437 
226.166977 9.554226 
227.82402 0.050542 
228.05455 0.055372 
229.122223 0.993872 
230.130402 0.063492 
234.140121 1.538293 
237.048401 0.061059 
237.478485 0.053798 
239.143158 0.385225 
239.179321 6.555565 
240.182053 0.317709 
240.908813 0.064718 
243.138306 0.144296 
243.161346 0.082483 
243.174088 5.884203 
244.17868 0.055462 
245.492798 0.05302 
247.832947 0.059623 
248.807343 0.047546 
249.163422 7.510858 
250.167084 0.324644 
254.559357 0.058554 
256.334839 0.048508 
257.093719 0.069442 
259.465576 0.066321 
267.173889 0.856518 
269.014374 0.062157 
272.506653 0.072121 
272.842163 0.045443 
273.780731 0.079539 
274.139191 0.055131 
278.249451 0.058601 
280.224304 0.049138 
280.898468 0.077882 
282.106293 0.049125 
284.529633 0.072405 
285.184601 0.968533 
285.21579 0.071959 
288.222107 0.048511 
291.159821 0.050407 
293.605988 0.062094 
296.551208 0.063764 
298.906281 0.070945 
300.197845 0.076466 
302.732941 0.05172 
303.370361 0.057609 
306.244324 0.051126 
307.621185 0.057731 
308.173431 0.084814 
310.004517 0.056889 
312.798553 0.051292 
313.686188 0.068562 
319.198578 0.05713 
335.360168 0.047214 
349.759888 0.054248 
353.008331 0.058555 
369.899017 0.071249 
376.765015 0.073788 
378.799347 0.079929 
379.27829 0.067038 
382.562225 0.073834 
383.419281 0.06584 
387.407715 0.04408 
396.123383 0.073487 
402.394073 0.065948 
416.454407 0.049448 
421.69812 0.054286 
429.38797 0.072596 
429.774597 0.059186 
431.947571 0.071827 
END IONS

