BEGIN IONS
PEPMASS=331.151
CHARGE=1+
COMPOUNDNAME=SPECTINOMYCIN
LIBRARYQUALITY=3
SMILES=N/A
INCHIKEY=UNFWWIHTNXNPBV-WXKVUWSESA-N
INCHI=InChI=1S/C14H24N2O7/c1-5-4-6(17)14(20)13(21-5)22-12-10(19)7(15-2)9(18)8(16-3)11(12)23-14/h5,7-13,15-16,18-20H,4H2,1-3H3/t5-,7-,8+,9+,10+,11-,12-,13+,14+/m1/s1
MSLEVEL=2
SOURCE_INSTRUMENT=N/A-ESI-QFT
FILENAME=library_mgf.mgf
SEQ=*..*
IONMODE=negative
ORGANISM=MONA
NAME=SPECTINOMYCIN [M-H]-
PI=MoNA
DATACOLLECTOR=MoNA:VF-NPL-QEHF003416
PUBMED=N/A
SUBMITUSER=mwang87
TAGS=
SPECTRUMID=CCMSLIB00004694479
SCANS=3416
50.637733 0.063815 
51.195141 0.051753 
51.72995 0.007756 
51.771908 0.035082 
51.813885 0.034127 
51.896839 0.052719 
51.976727 0.01448 
52.246727 0.047902 
52.369213 0.019598 
52.599895 0.042044 
53.645832 0.08352 
54.924404 0.017221 
55.004684 0.006894 
55.017616 0.479225 
55.067696 0.00334 
55.584385 0.066033 
55.644314 0.012625 
56.594475 0.051859 
56.742657 0.006342 
57.033203 0.012752 
57.262135 0.002911 
57.719147 0.011122 
57.800213 0.006605 
57.901093 0.040799 
58.004662 0.830346 
58.028488 0.885406 
58.156445 0.042973 
58.163834 0.003026 
58.31197 0.018887 
58.554211 0.017946 
58.882744 0.010371 
59.012455 4.3944 
59.522175 0.048147 
59.600464 0.05695 
59.662609 0.074408 
60.014481 0.044834 
60.08923 0.004284 
60.116608 0.003963 
60.48185 0.055068 
60.910019 0.00723 
61.043129 0.010559 
61.921341 0.019472 
62.488873 0.002904 
62.621704 0.02266 
63.824867 0.013838 
64.527016 0.004038 
64.654373 0.004087 
65.561264 0.070089 
66.266151 0.018958 
66.385384 0.041774 
66.708504 0.017046 
66.811241 0.031106 
67.01757 1.209428 
67.052803 0.017864 
67.097893 0.066443 
67.396919 0.071203 
67.408905 0.04755 
67.473389 0.016994 
67.651947 0.045891 
67.698769 0.014954 
67.884354 0.004012 
68.118935 0.028626 
68.30365 0.014088 
68.520576 0.00925 
68.544594 0.003318 
68.814484 0.010401 
68.996872 0.008009 
69.02282 0.017101 
69.033234 52.657154 
69.043617 0.003322 
69.296188 0.064737 
69.408295 0.05775 
69.992317 0.009585 
70.028458 1.718197 
70.036598 2.029942 
70.203255 0.00332 
70.679382 0.00679 
70.738388 0.010873 
71.012466 8.370379 
71.048874 13.427855 
71.415398 0.080835 
71.730545 0.032765 
72.04406 0.358016 
72.052002 0.053464 
72.444031 0.003407 
72.761826 0.050074 
72.991745 0.32542 
73.028152 53.424946 
73.03978 0.0122 
73.063316 0.067561 
73.509468 0.032437 
74.023354 0.373689 
74.031487 0.947708 
74.277321 0.003372 
74.416344 0.065103 
75.007423 7.740022 
75.784561 0.056597 
76.81131 0.052706 
77.068283 0.011869 
79.017586 4.843266 
79.170975 0.056958 
79.398849 0.081788 
79.955879 0.005657 
80.101852 0.02431 
80.771591 0.003887 
80.956284 0.010549 
81.033226 6.148317 
82.152016 0.014341 
82.250465 0.013888 
82.252419 0.003484 
82.46035 0.032213 
82.540062 0.018373 
82.783295 0.088493 
83.012466 0.267972 
83.048882 0.114484 
83.306519 0.082517 
83.986259 0.008277 
84.044159 1.154599 
84.551346 0.053345 
85.015541 0.570212 
85.028152 23.243097 
85.567566 0.0528 
86.031563 0.415835 
86.059822 1.555321 
86.718544 0.079554 
87.007362 0.160216 
87.0438 3.406043 
87.462898 0.048909 
88.009209 0.076697 
88.039223 0.147482 
88.140968 0.029154 
88.272179 0.075792 
88.756477 0.007498 
91.922379 0.010011 
92.129295 0.00423 
92.440308 0.003719 
92.926765 0.105098 
93.290627 0.003713 
93.917221 0.088087 
94.017555 0.047159 
94.920792 0.007703 
94.923729 0.4386 
94.979568 0.011326 
95.012543 3.747573 
95.148186 0.059597 
95.751839 0.01019 
96.044197 0.914267 
96.130257 0.006591 
96.920799 0.16475 
96.928001 0.103421 
96.958862 0.005237 
97.009117 0.101988 
97.028206 100.0 
97.045799 0.113739 
97.1092 0.003282 
97.823753 0.068679 
98.03154 4.845334 
98.035042 0.085099 
98.059875 0.060415 
98.641647 0.056792 
99.007629 0.008948 
99.031525 0.12395 
99.043869 10.826717 
99.924629 0.003771 
100.039093 15.991112 
100.047333 0.140638 
100.932343 0.044586 
101.042458 0.036936 
101.059624 0.125869 
101.070763 0.888008 
101.277504 0.077133 
102.054779 7.0853 
102.7556 0.007786 
103.684273 0.059156 
103.83606 0.043543 
104.714355 0.019629 
107.916016 0.048611 
108.083443 0.010594 
108.289413 0.083737 
108.327019 0.026136 
109.220856 0.008445 
110.059875 0.140789 
112.039192 0.82167 
112.695786 0.019049 
113.02327 0.613502 
113.434784 0.056077 
113.794327 0.030393 
114.054893 3.445734 
114.263641 0.028126 
114.531044 0.030037 
114.820557 0.007281 
115.038864 29.94248 
115.448318 0.003707 
115.487518 0.054731 
115.91951 0.075815 
116.042259 0.755414 
116.462082 0.007905 
116.63987 0.019337 
116.92746 0.02778 
119.233284 0.058922 
119.454453 0.048525 
119.872688 0.012082 
120.954475 0.028478 
122.060028 0.094059 
122.284569 0.050115 
123.007462 0.059307 
123.852364 0.003573 
124.039291 0.283836 
124.783234 0.004158 
124.95269 0.084483 
125.023254 33.528477 
125.09597 0.016279 
125.235039 0.002856 
126.026711 1.556104 
127.038986 0.096655 
127.086647 0.324186 
128.606842 0.011826 
128.849319 0.053018 
129.32869 0.009459 
130.04982 14.66063 
130.086487 0.005496 
130.942993 0.011361 
131.052917 0.146987 
133.92244 0.074746 
136.038773 0.007968 
137.346893 0.007655 
138.055023 0.058307 
138.79892 0.030864 
138.914597 0.00819 
139.676346 0.044169 
141.867126 0.009066 
142.026047 5.385385 
142.049957 0.256911 
143.033875 16.443798 
143.039566 0.344198 
143.864151 0.015421 
144.037201 0.427242 
145.050064 0.009906 
146.32045 0.04683 
150.055252 0.003651 
151.086746 0.008013 
154.050003 0.086061 
154.325455 0.025204 
156.295731 0.07178 
156.895508 0.040691 
158.490173 0.003987 
160.841263 0.033611 
161.875168 0.004201 
162.838013 0.136975 
164.835327 0.195073 
166.832581 0.004404 
167.08165 0.794641 
169.598572 0.021496 
171.102005 0.022615 
173.117432 0.011622 
174.860275 0.005415 
176.551636 0.058062 
176.857925 0.003264 
177.042648 0.060635 
177.907959 0.071613 
180.830429 0.011187 
182.240128 0.075057 
183.087799 0.007195 
184.910446 0.073048 
185.092651 0.432882 
185.312195 0.047231 
186.145172 0.059054 
187.108047 1.316939 
192.885284 0.02028 
196.373566 0.014333 
198.224319 0.049668 
199.804596 0.050277 
199.850952 0.003026 
200.045563 0.01789 
200.923538 0.097861 
202.871613 0.0071 
203.015823 0.008015 
205.118835 3.64789 
205.128006 0.066239 
207.897949 0.092687 
214.961548 1.962511 
214.966583 2.201715 
217.083298 0.003548 
220.146667 0.026082 
220.180496 0.033703 
221.154266 0.067074 
223.057678 0.031525 
229.145157 0.004041 
230.756363 0.007711 
236.105499 0.048238 
237.074036 0.033339 
240.778809 0.034341 
240.870392 0.003391 
240.884552 0.011737 
241.314133 0.00382 
242.549072 0.006626 
242.863922 0.394571 
242.906479 0.053618 
243.864136 0.027828 
244.843536 0.035649 
244.861191 0.062707 
246.191483 0.064896 
247.814835 0.019609 
248.163483 0.008518 
249.507141 0.003534 
253.470596 0.05765 
254.86438 0.050064 
257.887482 0.439736 
258.888 0.008982 
258.895813 0.014341 
259.515228 0.015167 
259.884583 0.067989 
263.382507 0.015005 
266.475403 0.015451 
268.0961 0.054122 
268.148285 0.03051 
268.880341 0.037873 
269.739319 0.00428 
271.734863 0.152778 
273.721924 0.067907 
273.903778 0.00445 
275.854095 0.091882 
275.898132 0.879282 
275.915009 0.01336 
276.898285 0.093974 
277.85083 0.032719 
277.894897 0.187475 
278.89566 0.00551 
279.177307 0.027797 
282.428741 0.030047 
284.004669 0.037955 
285.059509 0.05832 
287.322693 0.004402 
293.865143 0.047265 
293.88208 0.007963 
294.895569 0.009022 
295.861267 0.018244 
297.588959 0.053472 
299.735046 0.056142 
300.271698 0.010896 
304.943695 0.0055 
305.221344 0.008879 
310.08606 0.059556 
310.938263 0.003658 
314.299225 0.00437 
316.883301 0.039391 
317.950989 0.081256 
324.211731 0.088611 
324.232941 0.105127 
331.906006 0.004943 
334.845734 0.030626 
335.303833 0.079927 
340.004181 0.076325 
353.091461 0.061686 
END IONS

