BEGIN IONS
PEPMASS=1202.85
CHARGE=1+
COMPOUNDNAME=CYCLOSPORINE
LIBRARYQUALITY=3
SMILES=N/A
INCHIKEY=PMATZTZNYRCHOR-KMSBSJHKSA-N
INCHI=InChI=1S/C62H111N11O12/c1-25-27-28-40(15)52(75)51-56(79)65-43(26-2)58(81)67(18)33-48(74)68(19)44(29-34(3)4)55(78)66-49(38(11)12)61(84)69(20)45(30-35(5)6)54(77)63-41(16)53(76)64-42(17)57(80)70(21)46(31-36(7)8)59(82)71(22)47(32-37(9)10)60(83)72(23)50(39(13)14)62(85)73(51)24/h25,27,34-47,49-52,75H,26,28-33H2,1-24H3,(H,63,77)(H,64,76)(H,65,79)(H,66,78)/b27-25+/t40-,41?,42?,43?,44?,45?,46?,47?,49?,50?,51?,52-/m1/s1
MSLEVEL=2
SOURCE_INSTRUMENT=N/A-ESI-QFT
FILENAME=library_mgf.mgf
SEQ=*..*
IONMODE=positive
ORGANISM=MONA
NAME=CYCLOSPORINE [M+H]+
PI=MoNA
DATACOLLECTOR=MoNA:VF-NPL-QEHF028188
PUBMED=N/A
SUBMITUSER=mwang87
TAGS=
SPECTRUMID=CCMSLIB00004721769
SCANS=28188
83.049118 1.666788 
83.085457 1.783663 
84.044395 0.034782 
84.080765 7.09731 
86.059967 2.965878 
86.096359 14.414848 
87.481178 0.058136 
88.0392 0.175839 
90.054741 0.070175 
91.054176 2.786818 
91.848991 0.054243 
93.069817 0.143839 
93.659912 0.063754 
94.065063 2.217813 
95.049088 0.238955 
95.072968 0.096105 
95.085442 1.797257 
96.080734 5.460538 
97.064743 0.184856 
97.076088 0.071226 
97.101082 0.515662 
97.284454 0.046345 
98.059952 1.404744 
98.096336 2.828943 
99.055214 0.034044 
99.080276 0.133512 
99.091637 0.993053 
99.872925 0.041799 
100.039238 22.51689 
100.075645 4.828982 
100.112015 100.0 
100.664787 0.024861 
101.042519 0.182168 
101.083496 0.139616 
101.115356 4.661218 
105.069847 1.760458 
105.662086 0.028108 
106.657471 0.044069 
107.085434 10.235356 
108.08065 4.300232 
108.088722 0.232365 
108.876389 0.052879 
109.064613 0.278851 
109.088516 2.981628 
109.101097 6.515793 
110.059952 1.96638 
110.084114 0.022253 
110.096367 2.961591 
110.731331 0.050607 
111.067787 2.835746 
111.091522 0.2515 
111.104118 1.189179 
112.075562 1.123974 
112.111946 1.007807 
113.070839 0.233506 
113.613579 0.020395 
113.779716 0.049138 
114.054924 0.044633 
114.09127 13.582292 
114.241768 0.052396 
114.495926 0.041635 
115.086517 0.58193 
115.094597 0.308296 
118.036888 0.031284 
118.722832 0.048861 
119.606766 0.031399 
120.080734 0.379234 
121.088539 0.942482 
122.059845 0.105901 
122.096352 1.549157 
123.091667 0.031139 
123.104172 1.839483 
124.075684 2.792048 
124.107574 0.030676 
124.11203 0.526855 
125.070915 1.506234 
125.096031 7.067215 
125.107239 0.364628 
125.344002 0.02 
125.755501 0.032518 
126.054878 6.997567 
126.078651 0.038214 
126.099159 0.077469 
126.127541 0.055677 
126.65229 0.038904 
127.058174 0.033836 
127.086502 3.030704 
127.455788 0.048479 
127.736069 0.0279 
128.070648 0.021043 
128.106842 44.567673 
128.112442 0.587842 
128.413773 0.04255 
129.102081 2.174721 
129.11026 2.477274 
130.791489 0.048083 
132.871506 0.040586 
134.744598 0.053138 
135.080353 1.148802 
136.083801 0.023473 
136.112015 10.42756 
137.096176 0.052145 
137.11528 0.163467 
137.120209 0.033355 
138.054794 5.800979 
138.091339 0.086026 
138.12764 15.346696 
138.133438 0.150405 
139.06279 0.54922 
139.086411 1.551283 
139.099258 0.048185 
139.122849 0.541132 
139.131012 0.637027 
140.070541 2.989178 
140.107193 0.045087 
140.14328 0.466359 
141.102249 0.0879 
142.086121 0.105643 
142.574615 0.020941 
143.081482 0.682257 
148.112289 0.066423 
148.163727 0.039905 
148.766418 0.040678 
150.069839 0.027408 
150.127579 0.05785 
151.086517 0.024342 
151.099152 0.112341 
151.123047 0.190023 
152.070496 7.582412 
152.428299 0.025981 
152.808975 0.087973 
153.073944 0.055603 
153.102219 2.721273 
153.386551 0.028163 
154.122528 0.653672 
155.08168 0.111853 
155.11792 0.443346 
156.101837 7.280235 
156.138199 36.211555 
156.495514 0.041857 
157.097107 1.089023 
157.104553 0.018096 
157.141586 2.680618 
161.107071 0.023019 
162.841522 0.027953 
164.107224 0.075508 
165.101944 0.051683 
166.122513 6.291776 
167.094025 1.361951 
167.117874 0.510789 
167.125763 0.101565 
167.458115 0.037843 
168.101852 2.712311 
168.138306 0.086832 
169.13356 1.914171 
169.898758 0.053054 
170.11731 4.040848 
171.148987 6.257697 
172.152618 0.130842 
172.945099 0.036905 
176.935074 0.018742 
177.705826 0.018 
178.192123 0.032756 
178.907181 0.04091 
179.474274 0.040784 
182.117508 5.052786 
182.1418 0.070163 
183.120804 0.05709 
183.334747 0.045843 
184.109787 0.049324 
184.133224 0.085314 
189.725418 0.020264 
191.175522 0.040939 
193.133087 0.113183 
193.925552 0.048223 
194.075348 0.024824 
194.116364 0.028824 
195.184082 0.022293 
197.818695 0.043657 
198.184891 0.027327 
199.143997 3.051159 
199.153992 0.047568 
199.758743 0.045488 
205.727692 0.039248 
206.11496 0.049054 
208.330154 0.045955 
209.164856 0.740326 
210.148849 1.834067 
211.476807 0.039364 
211.550812 0.024382 
215.079956 0.047792 
215.127533 0.040053 
215.475571 0.039811 
215.640533 0.048975 
217.238617 0.022943 
219.595001 0.581664 
222.13913 0.04292 
222.779373 0.045966 
223.180252 0.909456 
224.164322 1.587184 
224.175552 0.082802 
224.614014 0.042184 
225.51181 0.048528 
226.179916 0.228866 
229.427124 0.028912 
230.282547 0.037596 
239.868561 0.026724 
241.191345 0.246565 
243.936813 0.04647 
245.226471 0.066228 
246.217361 0.023268 
255.863113 0.058518 
256.84848 0.026296 
259.957031 0.021666 
262.238312 0.042709 
265.155731 0.030359 
269.473236 0.046241 
276.861389 0.054173 
283.132111 0.047619 
287.976593 0.019396 
290.622894 0.060912 
291.950317 0.023051 
296.039917 0.039775 
314.916962 0.041265 
316.699951 0.030502 
321.491974 0.030283 
322.015717 0.025978 
325.482391 0.0199 
325.715179 0.027833 
334.736328 0.021933 
359.323029 0.06849 
374.604218 0.022834 
376.241669 0.023773 
377.207367 0.047332 
382.278717 0.018066 
385.04715 0.039648 
397.498627 0.040086 
400.800232 0.044157 
407.646149 0.030749 
410.226105 0.020213 
421.942352 0.046556 
428.090485 0.056452 
439.709015 0.054317 
447.349579 0.026078 
449.772705 0.043752 
452.060883 0.054147 
456.231354 0.020377 
461.386047 0.041578 
469.515533 0.044239 
472.634277 0.046118 
481.15921 0.021498 
484.435547 0.04348 
489.807068 0.036088 
491.88382 0.048812 
518.513672 0.038369 
523.191162 0.040583 
534.520264 0.020543 
537.813477 0.033575 
547.854858 0.029358 
549.926208 0.043443 
568.882202 0.040832 
573.981934 0.061557 
581.683167 0.029882 
586.803467 0.026125 
628.069946 0.04966 
628.858276 0.040791 
629.27478 0.029877 
634.924072 0.048421 
636.658813 0.028722 
645.585938 0.042702 
735.849426 0.027771 
756.610657 0.019702 
763.497742 0.032362 
780.783508 0.049897 
781.932556 0.050433 
784.475098 0.030281 
788.597534 0.034011 
789.55957 0.029533 
794.478516 0.033163 
807.096191 0.038959 
814.621948 0.01917 
831.801636 0.032613 
851.864807 0.026906 
882.268799 0.054995 
892.770752 0.046237 
902.196533 0.044517 
938.345581 0.03308 
990.449097 0.052748 
1046.548462 0.022872 
1058.334595 0.032282 
1107.866089 0.047875 
1120.4646 0.02415 
1130.390869 0.049159 
1177.169189 0.045538 
1190.459473 0.028424 
1196.505737 0.025053 
1215.465576 0.037899 
END IONS

