BEGIN IONS
PEPMASS=1034.55
CHARGE=1+
COMPOUNDNAME=Tomatine
LIBRARYQUALITY=3
SMILES=N/A
INCHIKEY=REJLGAUYTKNVJM-SGXCCWNXSA-N
INCHI=InChI=1S/C50H83NO21/c1-20-7-12-50(51-15-20)21(2)32-28(72-50)14-26-24-6-5-22-13-23(8-10-48(22,3)25(24)9-11-49(26,32)4)65-45-40(63)37(60)41(31(18-54)68-45)69-47-43(71-46-39(62)36(59)34(57)29(16-52)66-46)42(35(58)30(17-53)67-47)70-44-38(61)33(56)27(55)19-64-44/h20-47,51-63H,5-19H2,1-4H3/t20-,21-,22-,23-,24+,25-,26-,27+,28-,29+,30+,31+,32-,33-,34+,35+,36-,37+,38+,39+,40+,41-,42-,43+,44-,45+,46-,47-,48-,49-,50-/m0/s1
MSLEVEL=2
SOURCE_INSTRUMENT=N/A-ESI-QFT
FILENAME=library_mgf.mgf
SEQ=*..*
IONMODE=positive
ORGANISM=MONA
NAME=Tomatine [M+H]+
PI=MoNA
DATACOLLECTOR=MoNA:VF-NPL-QEHF026704
PUBMED=N/A
SUBMITUSER=mwang87
TAGS=
SPECTRUMID=CCMSLIB00004719692
SCANS=26704
71.754829 0.016811 
72.249611 0.016895 
73.028465 9.279912 
74.031792 0.013718 
74.051605 0.00923 
74.299973 0.011358 
76.262245 0.012464 
76.91291 0.021353 
78.288086 0.020179 
78.704567 0.012829 
79.054337 0.210682 
80.041885 0.021623 
80.243179 0.016909 
80.53801 0.015564 
80.584961 0.01176 
81.033539 0.987168 
81.069939 1.023915 
81.178665 0.021672 
81.779228 0.018426 
82.260277 0.024749 
82.297836 0.022492 
82.630318 0.017816 
83.085579 0.023438 
83.432663 0.019825 
85.028473 20.738754 
85.06768 0.020721 
85.212059 0.011822 
86.031807 0.462599 
86.096466 0.023561 
87.044151 0.970585 
87.535309 0.017683 
88.190971 0.020076 
88.470955 0.016964 
89.994987 0.019067 
90.133865 0.018833 
91.039055 3.1032 
91.054298 0.243506 
91.386292 0.018441 
91.664291 0.014205 
91.797394 0.021736 
91.940804 0.011536 
93.070061 0.290626 
93.503166 0.009866 
94.178482 0.023431 
94.497856 0.021683 
95.08551 0.529037 
96.080788 0.318378 
97.028488 12.53905 
97.044304 0.023674 
97.064941 0.020597 
97.784332 0.023037 
98.031853 0.353637 
98.096519 0.183737 
99.044121 1.215713 
99.080544 0.093947 
100.291649 0.011108 
101.023537 0.01253 
102.900871 0.010446 
103.038979 0.213612 
103.765472 0.011999 
103.81942 0.010835 
105.070007 0.753231 
106.277695 0.020694 
107.085609 1.184332 
108.051689 0.017291 
109.028503 1.861359 
109.101234 1.113236 
110.032906 0.022002 
113.797523 0.020024 
114.091431 4.200749 
115.039047 8.656667 
115.094246 0.022562 
115.348633 0.01976 
116.042442 0.111149 
117.070007 0.184632 
117.557533 0.018545 
118.099983 0.011241 
118.750061 0.019884 
119.085609 0.462315 
120.351807 0.021688 
121.093735 0.025095 
121.101318 0.931593 
123.08007 0.009774 
123.117165 0.021867 
124.112213 4.32856 
125.115601 0.058021 
126.122665 0.134312 
126.127792 9.041433 
127.039047 8.962438 
127.111763 1.063739 
127.131073 0.45925 
128.042328 0.310378 
128.153076 0.020788 
129.965683 0.016146 
131.085739 0.378099 
131.593948 0.019921 
133.049545 1.985973 
133.101273 1.023486 
135.116898 0.576973 
136.934402 0.016338 
143.085236 0.052457 
144.138428 0.723846 
145.049591 12.827883 
145.101089 2.009346 
146.053024 0.439213 
146.104645 0.019597 
147.116837 3.148857 
148.120178 0.050617 
149.132721 0.406024 
151.111893 0.358581 
153.128128 0.0192 
153.899353 0.012694 
154.45314 0.019619 
157.101334 0.284677 
158.647766 0.020318 
159.116882 1.95754 
161.132431 5.921781 
161.170929 0.011069 
162.135925 0.436362 
163.060059 3.150883 
163.112061 0.13637 
163.147827 0.02561 
164.06311 0.013176 
164.155899 0.016151 
166.742783 0.022869 
167.285019 0.021762 
168.138184 0.092211 
169.024826 0.010803 
169.049622 0.061928 
171.116852 0.130759 
173.132553 1.601493 
175.148163 0.098945 
182.203445 0.011123 
185.132599 0.176878 
185.887695 0.021373 
187.060684 0.024132 
187.148041 0.134105 
189.851822 0.013272 
193.049606 0.024064 
194.102524 0.085283 
197.850143 0.016189 
199.148224 0.27277 
205.864716 0.010411 
206.964859 0.020432 
211.060959 0.018122 
211.148209 0.016702 
213.163971 0.136552 
215.179306 0.07562 
215.300629 0.015824 
216.267349 0.017071 
217.5354 0.027907 
223.060318 0.213716 
227.179276 0.024413 
229.071457 0.019348 
233.724625 0.025864 
241.070923 0.654008 
246.96373 0.017348 
253.195175 1.363439 
254.198685 0.26801 
254.941254 0.018247 
255.210785 16.275484 
256.214081 2.409028 
259.081543 0.215202 
261.026459 0.013837 
271.205627 0.286538 
271.689209 0.017257 
273.22113 5.373389 
274.025299 0.020006 
274.225037 0.766288 
295.103577 0.016704 
304.189514 0.017492 
304.253845 0.019247 
318.649597 0.020367 
318.899841 0.011367 
324.008667 0.015176 
325.005188 0.020067 
335.847351 0.018482 
356.180115 0.027201 
363.23764 0.021296 
363.305237 0.026883 
378.315521 0.11226 
380.331299 1.690705 
381.312836 0.02804 
381.336609 0.089792 
387.361755 0.026027 
395.964569 0.018786 
396.326508 0.377656 
396.769989 0.014575 
398.341583 3.165889 
399.079498 0.016813 
399.34552 0.626806 
401.159454 0.010728 
401.642975 0.023696 
414.336853 0.301951 
416.352203 4.058848 
417.356384 0.963657 
431.304291 0.024842 
435.274902 0.738406 
436.112732 0.022006 
447.388611 0.020203 
455.653442 0.011894 
458.363007 0.019541 
462.576569 0.024117 
465.984711 0.017016 
474.674103 0.013061 
487.108643 0.018598 
495.948059 0.011053 
498.020996 0.011195 
512.731384 0.012753 
530.601135 0.011107 
540.765991 0.02164 
543.867554 0.012339 
560.395264 0.802375 
561.398315 0.121 
576.383484 0.027305 
578.40509 1.252366 
579.408508 0.259233 
585.029114 0.019479 
608.422241 0.018788 
615.805603 0.022072 
621.623535 0.013979 
631.226379 0.021333 
667.273071 0.018895 
667.336914 0.019561 
688.534912 0.013387 
694.844299 0.024978 
705.891052 0.011641 
707.124573 0.030334 
707.219543 0.021429 
707.715271 0.027335 
707.763 0.039714 
707.825378 0.019159 
713.060425 0.020401 
740.456482 0.035306 
745.40802 0.01803 
756.99115 0.012943 
757.102295 0.01971 
803.821106 0.024442 
813.262329 0.020293 
824.83844 0.028844 
854.490112 0.109237 
855.492249 0.012349 
872.499451 0.191543 
873.496887 0.018055 
884.49823 0.250577 
902.509949 0.993026 
903.513672 0.126133 
948.497437 0.021912 
949.282471 0.012407 
995.573486 0.024328 
1009.118347 0.023727 
1014.526184 2.163747 
1015.529907 1.551148 
1016.541321 44.420349 
1017.545227 21.272081 
1018.547791 1.72148 
1019.555603 0.097186 
1032.537231 4.637516 
1033.540894 3.195281 
1034.552368 100.0 
1035.555786 47.901718 
1036.558838 5.398904 
1037.561401 0.452344 
1068.816895 0.011761 
END IONS

