BEGIN IONS
PEPMASS=338.16
CHARGE=1+
COMPOUNDNAME=Mycophenolic acid
LIBRARYQUALITY=3
SMILES=CC1=C(C(=C(C2=C1COC2=O)O)C/C=C(\C)/CCC(=O)O)OC
INCHIKEY=HPNSFSBZBAHARI-RUDMXATFSA-N
INCHI=N/A
MSLEVEL=2
SOURCE_INSTRUMENT=LC-ESI-qTof
FILENAME=Mycophenolic.mgf
SEQ=*..*
IONMODE=Positive
ORGANISM=GNPS-SELLECKCHEM-FDA-PART1
NAME=Mycophenolic acid  M+NH4
PI=Sirenas
DATACOLLECTOR=Ed Esquenazi
PUBMED=N/A
SUBMITUSER=mwang87
TAGS=
SPECTRUMID=CCMSLIB00000005125
SCANS=10
114.089447 17.45192 
123.119781 9.375 
159.043625 57.96854 
197.276398 9.003788 
207.064423 194.995193 
207.310226 6.677381 
207.456146 3.185606 
208.531708 4.041667 
275.127563 74.849808 
275.648712 7.840517 
276.522064 19.69697 
279.398468 18.15238 
279.788177 1.666667 
281.174896 80.740753 
285.114655 89.009407 
301.189423 7.001812 
301.214355 21.44511 
301.364532 13.51111 
301.52771 20.93939 
301.595093 15.3818 
302.249939 7.166667 
302.430878 7.382936 
302.585724 9.469697 
303.075226 11.05482 
303.122467 2045.479004 
303.186462 39.648659 
303.229553 6.043478 
303.257843 22.232361 
303.276031 19.00198 
303.30014 1.6875 
303.332581 14.46897 
303.361023 31.01667 
303.397156 7.700269 
303.470215 32.352379 
303.492035 15.00198 
303.560974 12.5 
303.726959 17.797569 
304.314392 7.190217 
304.592743 15.34167 
305.546082 6.070402 
306.586731 5.375 
321.129852 186.748199 
321.655182 4.8 
336.566864 3.761364 
338.331177 6.666667 
508.285339 24.74612 
END IONS

