BEGIN IONS
PEPMASS=265.145
CHARGE=1+
COMPOUNDNAME=(1S,8R,9R)-8-hydroxy-4-(propan-2-ylidene)-10-oxatricyclo[7.2.1.01,5]dodecane-8-carboxylic acid
LIBRARYQUALITY=3
SMILES=N/A
INCHIKEY=IOYVXXQKVQKQIG-ZJPTYJIISA-N
INCHI=InChI=1S/C15H22O4/c1-9(2)10-3-5-14-7-12(19-8-14)15(18,13(16)17)6-4-11(10)14/h11-12,18H,3-8H2,1-2H3,(H,16,17)/t11?,12-,14-,15-/m1/s1
MSLEVEL=2
SOURCE_INSTRUMENT=N/A-ESI-QFT
FILENAME=library_mgf.mgf
SEQ=*..*
IONMODE=negative
ORGANISM=MONA
NAME=(1S,8R,9R)-8-hydroxy-4-(propan-2-ylidene)-10-oxatricyclo[7.2.1.01,5]dodecane-8-carboxylic acid [M-H]-
PI=MoNA
DATACOLLECTOR=MoNA:VF-NPL-QEHF021461
PUBMED=N/A
SUBMITUSER=mwang87
TAGS=
SPECTRUMID=CCMSLIB00004712524
SCANS=21461
50.939941 0.059918 
54.20507 0.058433 
54.418007 0.058173 
55.149681 0.04925 
57.033184 7.691965 
59.613647 0.048132 
60.33622 0.054527 
62.343376 0.055337 
62.950306 0.056458 
64.900238 0.047505 
65.397392 0.060648 
65.792931 0.049112 
65.987045 0.049016 
66.689018 0.047849 
67.959503 0.048061 
68.505333 0.042857 
68.757805 0.044899 
69.033157 0.325536 
69.125008 0.043393 
69.542892 0.057759 
70.023315 0.061097 
70.05603 0.057064 
70.075188 0.052599 
70.440399 0.047472 
70.566956 0.069083 
73.028137 0.068647 
75.966476 0.052688 
77.014549 0.05053 
77.166039 0.054117 
77.770546 0.049998 
78.117722 0.058963 
78.895164 0.058456 
80.78756 0.054044 
81.033195 1.327065 
81.105003 0.056078 
81.108154 0.05082 
81.550018 0.051915 
81.653625 0.055607 
82.929321 0.052485 
83.048866 0.62827 
83.157173 0.039141 
84.020325 0.214637 
84.938339 0.055733 
84.995163 0.049075 
85.02816 0.554204 
85.806854 0.065353 
88.845154 0.054143 
91.459312 0.051007 
91.643082 0.056174 
92.660995 0.05466 
92.828621 0.056427 
96.958786 2.879973 
98.035965 0.907083 
98.674377 0.061341 
99.087288 0.038778 
105.636162 0.050382 
107.085213 0.133539 
107.445808 0.07312 
108.693069 0.052045 
109.731804 0.063899 
112.553253 0.052547 
113.025429 0.051264 
121.040962 0.05318 
121.376244 0.043601 
121.610695 0.05378 
124.05024 0.047037 
124.765366 0.057363 
125.758972 0.056572 
127.06974 0.057619 
131.909134 0.09284 
134.897797 0.054175 
135.080322 0.970834 
137.096161 0.894248 
139.349258 0.064653 
143.627472 0.057381 
147.116577 0.416987 
149.132172 0.077306 
150.070663 0.055257 
154.518417 0.048324 
160.074417 0.067253 
161.084518 0.042593 
161.096191 1.154386 
161.878769 0.056935 
162.450897 0.049961 
163.111755 4.774445 
163.703827 0.046327 
164.115189 0.296307 
169.101913 0.117576 
171.116882 2.952587 
173.13266 0.10931 
182.224091 0.051787 
186.675858 0.042086 
189.127762 8.686147 
190.130936 0.755418 
191.143372 0.913637 
192.146515 0.052152 
201.128235 0.43632 
203.143036 0.084009 
203.976257 0.055643 
213.613266 0.074259 
215.767532 1.430708 
217.123093 1.825434 
218.126694 0.060644 
219.138565 35.919083 
220.141937 5.104854 
221.989899 0.055619 
223.450714 0.058912 
227.479416 0.050543 
229.850037 0.057754 
245.502411 0.052096 
246.561646 0.046307 
247.13382 0.464237 
261.560425 0.055905 
264.27536 0.054123 
264.654266 0.055108 
265.144531 100.0 
266.034973 0.048145 
266.14798 16.47768 
267.150269 0.388211 
277.430542 0.057529 
278.897522 0.052806 
285.03302 0.062501 
286.865845 0.052829 
289.312592 0.074242 
END IONS

