BEGIN IONS
PEPMASS=345.134
CHARGE=1+
COMPOUNDNAME=GIBBERELLIC ACID
LIBRARYQUALITY=3
SMILES=N/A
INCHIKEY=IXORZMNAPKEEDV-SNTJWBGVSA-N
INCHI=InChI=1S/C19H22O6/c1-9-7-17-8-18(9,24)5-3-10(17)19-6-4-11(20)16(2,15(23)25-19)13(19)12(17)14(21)22/h4,6,10-13,20,24H,1,3,5,7-8H2,2H3,(H,21,22)/t10-,11+,12-,13-,16+,17+,18+,19-/m1/s1
MSLEVEL=2
SOURCE_INSTRUMENT=N/A-ESI-QFT
FILENAME=library_mgf.mgf
SEQ=*..*
IONMODE=negative
ORGANISM=MONA
NAME=GIBBERELLIC ACID [M-H]-
PI=MoNA
DATACOLLECTOR=MoNA:VF-NPL-QEHF006366
PUBMED=N/A
SUBMITUSER=mwang87
TAGS=
SPECTRUMID=CCMSLIB00004697429
SCANS=6366
50.142647 0.03419 
50.740063 0.033805 
51.054199 0.034459 
51.218388 0.034728 
51.419495 0.029571 
51.528549 0.032006 
51.94429 0.033878 
52.449219 0.035697 
52.539726 0.033257 
52.762249 0.0324 
53.111908 0.02741 
53.13953 0.030713 
53.993401 0.034208 
54.577293 0.030279 
54.804672 0.084742 
54.807407 0.054097 
55.017529 0.700937 
55.125931 0.037826 
55.29496 0.036993 
56.044697 0.031946 
56.148937 0.036226 
56.223778 0.030836 
57.033142 0.16809 
58.310768 0.035069 
58.689121 0.027913 
59.729137 0.033455 
61.313896 0.034625 
62.9725 0.026419 
63.333302 0.025966 
63.92268 0.030651 
64.241936 0.031187 
64.478844 0.029494 
65.522743 0.030275 
65.895294 0.029579 
65.938583 0.025581 
66.579437 0.037478 
66.636749 0.029989 
69.033188 0.365972 
69.697319 0.040763 
69.809494 0.031734 
70.550278 0.032025 
71.048843 11.656191 
72.052132 0.091199 
72.613762 0.02556 
73.028107 3.395966 
74.217827 0.027917 
74.752411 0.026584 
75.952705 0.034092 
76.825912 0.034073 
78.261353 0.032835 
79.452789 0.035885 
79.561478 0.035378 
79.574936 0.036219 
79.605362 0.038202 
79.756622 0.034132 
80.608833 0.039292 
80.750595 0.031925 
81.124649 0.038558 
81.68148 0.033602 
82.256775 0.030932 
82.642632 0.040496 
83.048859 8.280145 
83.768898 0.031399 
84.052254 0.036293 
84.361084 0.032669 
85.848747 0.039451 
86.421494 0.031279 
86.910851 0.037694 
88.191147 0.032936 
89.653717 0.033581 
90.624016 0.033341 
91.885277 0.035426 
92.33049 0.032758 
92.697136 0.025863 
93.259109 0.031087 
95.048882 0.175601 
95.566414 0.029869 
96.121071 0.031881 
96.294815 0.037086 
96.491585 0.032726 
97.064392 0.031844 
98.463905 0.035432 
99.854301 0.030167 
100.316551 0.035423 
100.691933 0.029037 
102.570198 0.029542 
102.957153 0.02485 
105.069611 2.410391 
105.651077 0.034121 
107.048935 0.146929 
108.719696 0.034181 
109.825989 0.037132 
110.553757 0.029414 
110.663551 0.032477 
111.051933 0.031454 
113.351608 0.04199 
113.671478 0.042642 
113.855377 0.037803 
114.091988 0.031674 
115.085434 0.033649 
116.099525 0.036452 
118.068848 0.040564 
119.085327 0.481699 
119.397209 0.034823 
120.596642 0.032473 
121.064613 0.358068 
121.231323 0.037543 
121.45089 0.03482 
124.316605 0.030638 
124.46994 0.037327 
125.241623 0.03394 
126.622505 0.034653 
128.037338 0.037857 
128.062103 0.039158 
128.195984 0.032125 
129.069366 0.037592 
130.921722 0.036671 
131.085831 0.034475 
132.294174 0.042291 
133.064651 0.352809 
133.100845 0.035987 
134.69281 0.034943 
138.08493 0.027283 
139.84903 0.033446 
141.063583 0.027039 
142.077332 0.112496 
143.050964 0.086448 
143.085464 100.0 
143.117004 0.097973 
143.325958 0.03532 
144.056961 0.250136 
144.088791 10.678728 
145.064835 0.244672 
145.092361 0.040811 
146.07254 0.990672 
149.096115 0.041819 
150.22052 0.035965 
151.927277 0.038549 
152.428772 0.033125 
155.08551 0.308205 
156.057419 0.038734 
157.064774 0.197331 
158.277878 0.031974 
158.609772 0.035004 
159.080368 0.292629 
159.640091 0.033266 
161.096146 1.421658 
162.099045 0.033338 
162.193344 0.029377 
163.92482 0.035795 
169.101288 0.08071 
170.0728 0.040406 
171.080521 0.990679 
172.088287 0.036927 
173.096085 0.039012 
179.085785 0.639808 
180.826157 0.033737 
181.100891 0.126574 
181.672592 0.035742 
181.731689 0.027172 
182.666351 0.032021 
183.080505 1.533602 
183.116882 0.119753 
183.838974 0.038075 
184.052444 0.041125 
185.096207 0.85928 
187.095657 0.04038 
188.677231 0.033995 
189.817535 0.034485 
189.956604 0.039928 
193.101501 3.059631 
194.104477 0.034369 
194.587555 0.042903 
197.096481 0.124118 
197.132553 0.543936 
197.278137 0.038938 
198.067429 0.028709 
198.465118 0.034087 
199.07576 0.42152 
199.11203 0.177782 
201.127533 0.308029 
201.428146 0.031137 
205.101746 3.751437 
206.107651 0.408055 
207.612091 0.040861 
209.09671 3.416174 
210.099991 0.128212 
211.075714 0.39814 
212.72702 0.031189 
213.127716 0.096797 
215.938385 0.0288 
218.281586 0.036432 
218.495026 0.030591 
219.117416 4.045197 
220.003662 0.080897 
220.018631 0.299766 
220.058975 0.03694 
220.120392 0.246643 
221.133057 13.841009 
222.136185 2.211043 
227.107315 8.69153 
228.110519 0.850111 
229.383682 0.036137 
230.864166 0.033137 
236.490555 0.033321 
237.127518 0.078432 
245.84256 0.032829 
246.223557 0.03278 
246.399384 0.038641 
248.701477 0.037163 
255.138199 0.082301 
263.128784 0.032513 
265.314789 0.033183 
268.754608 0.038593 
272.232239 0.042664 
273.444 0.035937 
278.365692 0.038056 
279.318451 0.034544 
291.516357 0.033009 
293.736481 0.034994 
294.817505 0.031715 
299.294373 0.040262 
304.804474 0.033174 
305.47818 0.038436 
312.720551 0.0363 
316.441589 0.037203 
339.131439 0.027401 
340.490753 0.032391 
340.736542 0.028162 
345.962463 0.03393 
351.4552 0.039017 
355.233307 0.031714 
357.494873 0.029604 
364.936829 0.033381 
END IONS

