BEGIN IONS
PEPMASS=1339.68
CHARGE=1+
COMPOUNDNAME=POLYMYXIN B SULFATE
LIBRARYQUALITY=3
SMILES=N/A
INCHIKEY=HFMDLUQUEXNBOP-UHFFFAOYSA-N
INCHI=InChI=1S/C56H98N16O13.H2O4S/c1-7-32(4)13-11-12-16-44(75)63-36(17-23-57)51(80)72-46(34(6)74)56(85)68-39(20-26-60)48(77)67-41-22-28-62-55(84)45(33(5)73)71-52(81)40(21-27-61)65-47(76)37(18-24-58)66-53(82)42(29-31(2)3)69-54(83)43(30-35-14-9-8-10-15-35)70-49(78)38(19-25-59)64-50(41)79;1-5(2,3)4/h8-10,14-15,31-34,36-43,45-46,73-74H,7,11-13,16-30,57-61H2,1-6H3,(H,62,84)(H,63,75)(H,64,79)(H,65,76)(H,66,82)(H,67,77)(H,68,85)(H,69,83)(H,70,78)(H,71,81)(H,72,80);(H2,1,2,3,4)
MSLEVEL=2
SOURCE_INSTRUMENT=N/A-ESI-QFT
FILENAME=library_mgf.mgf
SEQ=*..*
IONMODE=positive
ORGANISM=MONA
NAME=POLYMYXIN B SULFATE [M+K]+
PI=MoNA
DATACOLLECTOR=MoNA:VF-NPL-QEHF027927
PUBMED=N/A
SUBMITUSER=mwang87
TAGS=
SPECTRUMID=CCMSLIB00004721508
SCANS=27927
93.06987 0.579576 
94.065079 5.504839 
95.04921 0.404469 
95.060318 7.090314 
96.04435 1.138823 
96.08075 0.704288 
97.076019 3.274223 
98.060005 0.472302 
98.071243 3.904429 
98.096321 2.988871 
99.055222 4.516676 
100.075684 1.67305 
100.086899 15.927127 
101.070946 89.269516 
101.074715 1.316921 
102.054878 5.654198 
102.074272 3.64928 
103.054176 12.402786 
105.044479 0.104421 
105.069809 4.661579 
107.060303 0.506629 
108.044403 0.510261 
108.989281 0.100041 
109.075958 6.542179 
109.101128 0.811211 
110.05999 5.644739 
110.071167 3.99347 
111.055229 15.466509 
111.091568 5.141989 
112.039101 0.53634 
112.058678 0.250633 
112.075539 4.01006 
112.086876 8.245612 
112.111954 0.115982 
113.034531 0.114707 
113.070885 9.642952 
113.075325 0.142173 
113.106873 0.100209 
113.662498 0.097211 
115.054291 0.465454 
115.086533 2.054906 
116.049446 0.103852 
118.065109 1.459801 
118.081573 0.100901 
119.060394 1.751929 
119.081467 24.210819 
120.080742 100.0 
121.075996 16.447809 
121.083923 8.643626 
122.059998 1.150014 
122.071228 1.070537 
122.079208 0.250952 
122.083778 0.247994 
123.055199 17.80278 
123.091591 5.997444 
123.116669 5.177503 
123.507835 0.094698 
124.039261 0.11024 
124.075623 0.24259 
124.086823 0.462369 
124.112228 0.098118 
124.18869 0.087015 
125.070877 3.423486 
125.107353 0.122481 
126.054893 0.642038 
126.066101 0.439528 
126.102547 1.172733 
127.086517 9.551708 
128.001404 0.122332 
128.062027 0.214767 
128.070496 0.97499 
128.08168 6.639875 
129.065598 6.213266 
129.085236 0.084031 
130.049911 0.122632 
130.064926 3.662669 
130.097488 0.115803 
131.01268 0.351421 
131.048965 0.5409 
131.085587 0.090629 
131.117874 0.112856 
132.080627 8.633908 
132.335831 0.103346 
133.075974 0.723085 
133.083969 0.214851 
134.071442 0.099245 
134.438599 0.082414 
136.086884 4.0574 
137.065323 0.292914 
137.070877 22.430696 
138.054932 1.50957 
138.066223 3.101973 
138.074158 0.694678 
138.102463 15.622453 
139.050034 1.460582 
139.086502 14.120158 
139.105682 0.112556 
140.001389 0.124126 
140.070557 1.719086 
140.081757 10.081147 
140.089279 0.10108 
140.118118 2.650899 
141.065628 5.644892 
141.085358 0.09659 
141.102066 1.945917 
142.097519 0.32044 
143.081116 0.107023 
144.080688 0.115863 
144.138107 0.226578 
145.096756 0.199941 
145.448151 0.088893 
146.012146 0.200714 
146.059631 0.114817 
146.096359 0.631871 
147.091568 1.331711 
148.075897 0.096878 
148.086777 8.377259 
149.070847 19.627134 
150.066467 0.301356 
150.074005 0.622511 
150.102493 3.510171 
151.086487 2.024257 
151.122986 0.126832 
152.08168 2.540028 
153.066193 0.210146 
153.075989 0.098358 
153.085236 0.085708 
153.138565 0.126812 
153.958542 0.088396 
154.050171 0.107086 
154.097336 3.510618 
155.012756 0.779311 
155.081436 2.567192 
156.080887 0.826608 
156.113037 3.982787 
157.028336 11.686054 
157.097092 5.261026 
157.108276 5.236002 
158.012299 2.681573 
158.060165 0.374545 
158.092117 4.547432 
158.153885 2.842057 
159.043762 0.239166 
159.112656 0.282697 
160.028061 0.669103 
160.086685 0.634371 
161.411621 0.090349 
162.102524 0.523188 
163.086411 0.232808 
164.081711 4.837765 
165.039261 0.08649 
165.06575 1.96094 
165.102356 0.192961 
165.113373 1.747541 
166.085815 0.115685 
166.097351 22.74612 
166.159088 1.237777 
167.012436 0.316272 
167.081375 18.216808 
167.093475 0.116058 
167.100632 1.151013 
167.117584 0.453069 
168.076843 3.104723 
168.084641 0.251188 
168.113052 1.444565 
169.028381 0.106073 
169.097046 0.486411 
169.133316 1.511479 
170.059769 0.222542 
170.092468 0.361368 
171.043747 0.1117 
173.023376 1.361605 
174.10257 2.221344 
174.808716 0.098498 
175.038895 11.67737 
175.086517 4.239321 
176.081696 1.278541 
176.118164 0.543321 
177.065506 0.245647 
177.102127 1.024131 
177.112579 0.442824 
177.584793 0.112908 
178.097305 2.757752 
178.134216 0.096373 
179.081375 0.143169 
179.119415 0.10116 
180.075668 0.213441 
180.113007 0.490272 
181.108185 0.112607 
181.169586 0.377565 
181.81015 0.085867 
182.092392 2.647361 
183.076416 0.377817 
183.091843 0.34389 
183.123993 25.739042 
184.039307 0.788795 
184.075577 0.51559 
184.10791 20.51248 
184.127487 1.317696 
185.023285 2.515158 
185.059341 0.233795 
185.091949 3.545974 
185.107071 5.128673 
186.091309 5.802156 
186.101959 0.371674 
186.111145 0.106908 
187.038101 0.138333 
187.122772 1.271671 
188.059219 0.12974 
188.070374 1.57675 
192.076187 0.104173 
192.113113 1.390969 
193.04924 0.212654 
193.098419 0.517232 
193.108292 4.074512 
194.092285 7.638121 
194.128891 0.660871 
195.12384 6.335249 
195.185516 3.492929 
196.039261 0.419209 
196.108047 2.135137 
196.144592 0.811797 
196.169495 1.515721 
197.128998 0.282041 
197.139404 0.216786 
198.055054 0.549924 
199.186813 0.091155 
200.033936 1.014747 
200.1185 0.201548 
201.102448 0.695442 
201.13446 5.992173 
202.118454 3.634726 
202.133636 7.681467 
202.20462 0.079588 
203.034149 0.13052 
203.117783 5.606889 
203.136765 0.109784 
203.996948 0.099709 
204.075882 0.086398 
204.112701 1.130367 
204.149628 0.693892 
205.097122 0.098669 
205.108047 1.986659 
206.048645 0.218418 
206.069473 0.089076 
206.080872 0.241424 
206.092224 1.78719 
206.128616 0.122684 
207.123444 0.103042 
208.107712 0.25903 
209.103073 2.548214 
209.139648 0.446429 
210.054749 0.219481 
210.087158 0.601054 
210.124237 0.27897 
211.03894 1.133033 
211.11879 9.385875 
212.034668 0.09293 
212.102844 4.435651 
212.119675 0.577048 
213.065704 0.225896 
213.102264 4.131055 
213.134552 0.111702 
213.171051 0.595914 
214.049713 4.855366 
214.154922 0.238749 
215.070206 0.330171 
215.118393 0.1348 
218.044357 0.105804 
218.838882 0.098306 
219.123657 0.898036 
219.877197 1.215973 
219.89325 0.150962 
219.910858 0.100567 
220.108002 1.745315 
221.059128 0.205246 
221.10347 0.382882 
221.139771 1.746837 
222.043701 0.452404 
222.054733 0.709984 
222.123398 1.246852 
222.134293 0.172943 
223.11853 2.60883 
223.180496 1.558394 
224.06955 0.14388 
224.102585 1.486693 
224.139221 2.44157 
227.021225 0.097002 
227.149994 0.115676 
227.25412 0.093152 
228.064987 0.127156 
228.111603 0.113795 
229.049866 0.223134 
230.128632 14.872769 
231.076233 0.239726 
231.112549 3.451407 
231.123611 0.56053 
231.133469 0.267265 
232.060532 1.836653 
232.107666 0.577965 
232.121735 1.161108 
233.164612 3.43374 
237.134506 0.533456 
238.118607 0.664131 
238.133224 0.366956 
239.081833 0.611248 
239.137238 0.20087 
239.15004 6.589985 
240.065399 0.896779 
240.145081 6.053279 
240.20787 0.102224 
241.129318 2.187146 
241.190765 0.642797 
242.081299 0.601053 
243.149231 0.87645 
248.138992 6.496092 
248.151901 0.139521 
249.134003 1.629182 
249.791351 0.120585 
250.118011 0.908169 
250.13176 1.02113 
251.1147 0.101981 
251.151016 0.10944 
252.146744 0.099677 
252.206741 0.739031 
252.707031 0.102733 
253.08519 0.573061 
255.076401 0.353005 
256.144135 0.20475 
256.367615 0.084969 
257.055267 0.111976 
257.091797 3.871638 
257.126953 0.133666 
257.160614 0.892863 
258.091827 0.512293 
258.123322 2.227616 
265.129333 0.135619 
266.161224 2.881819 
266.186188 0.095087 
267.075928 0.239042 
267.14505 1.729615 
267.160278 0.325176 
268.058899 0.099098 
268.144409 0.784374 
269.164703 0.359887 
270.112244 1.08067 
270.159393 0.938762 
271.096039 0.127624 
271.143555 0.274622 
271.169647 0.151549 
276.145782 0.100559 
277.128937 0.100679 
278.091858 0.21149 
279.076385 0.241391 
279.206024 0.110117 
279.643433 0.104359 
280.139374 0.222587 
280.181854 0.12561 
280.202118 0.179526 
283.155304 0.242184 
284.138855 0.990014 
284.171539 3.7389 
285.170929 4.522336 
286.154663 0.658603 
289.179321 0.314572 
294.155762 0.107142 
295.155487 0.578368 
296.102997 0.714054 
296.208313 0.892439 
296.23291 0.798469 
297.148132 2.070752 
297.216675 1.560035 
302.182098 0.122734 
303.181122 0.48062 
306.216797 0.092513 
309.169739 0.104284 
312.9823 0.10004 
313.164978 0.367479 
314.102142 0.093571 
314.14856 0.218924 
315.157867 0.720179 
321.170654 0.470559 
323.149139 0.186771 
323.182343 0.254929 
326.185852 0.615549 
330.059631 0.09828 
339.180389 0.10989 
345.587158 0.100811 
346.891449 0.099273 
347.140411 0.100364 
348.168884 0.090525 
349.199432 0.103722 
354.167236 0.091575 
356.208832 0.081654 
363.475586 0.099352 
366.306091 0.109884 
376.624756 0.091642 
399.171234 0.110857 
403.245758 0.094039 
406.755554 0.089263 
407.888641 0.093495 
433.247894 0.127613 
436.828125 0.092935 
439.248413 0.120333 
457.573425 0.09672 
495.750305 0.101976 
546.605103 0.087183 
592.984619 0.100918 
609.900208 0.084401 
638.52771 0.094207 
663.987244 0.109132 
678.81012 0.105513 
815.845459 0.101848 
836.421692 0.099308 
841.943054 0.093108 
847.041382 0.098235 
856.71344 0.111077 
858.905334 0.095634 
872.304565 0.098091 
890.468811 0.101745 
895.628296 0.100844 
920.576782 0.115866 
943.335205 0.107853 
1138.276978 0.097246 
1140.011108 0.097311 
1225.831055 0.096008 
1248.748291 0.096627 
1249.769531 0.09107 
1255.96228 0.105539 
END IONS

