BEGIN IONS
PEPMASS=268.104
CHARGE=1+
COMPOUNDNAME=Massbank:CE000143 Adenosine
LIBRARYQUALITY=3
SMILES=C1=NC2=C(C(=N1)N)N=CN2[C@H]3[C@@H]([C@@H]([C@H](O3)CO)O)O
INCHIKEY=OIRDTQYFTABQOQ-KQYNXXCUSA-N
INCHI=1S/C10H13N5O4/c11-8-5-9(13-2-12-8)15(3-14-5)10-7(18)6(17)4(1-16)19-10/h2-4,6-7,10,16-18H,1H2,(H2,11,12,13)/t4-,6-,7-,10-/m1/s1
MSLEVEL=2
SOURCE_INSTRUMENT=ESI-LC-ESI-ITFT
FILENAME=Massbank_ESI_positive_8_1_2014_peaks.mgf
SEQ=*..*
IONMODE=Positive
ORGANISM=MASSBANK
NAME=Massbank:CE000143 Adenosine [M+H]+
PI=Putative Massbank Match
DATACOLLECTOR=Massbank
PUBMED=N/A
SUBMITUSER=mwang87
TAGS=
SPECTRUMID=CCMSLIB00000205727
SCANS=987
76.423012 1164.474609 
79.144173 972.286438 
88.860359 1310.202271 
106.183556 1195.565674 
135.887161 3993.299072 
135.992874 3979.442627 
136.034454 2340.972656 
136.041092 1992.728271 
136.061371 568236.125 
136.08461 4257.030762 
136.130478 2980.912598 
136.228577 1192.598145 
136.234634 1166.915161 
197.613419 1193.385498 
203.694138 1189.134888 
219.079987 21971.183594 
237.09053 180033.921875 
292.21759 1154.94812 
293.092346 1334.223755 
293.587189 1281.828003 
END IONS

