BEGIN IONS
PEPMASS=465.349
CHARGE=1+
COMPOUNDNAME=(1R,3aR,5aR,5bR,9S,11aR)-3a,5a,5b,8,8,11a-hexamethyl-1-prop-1-en-2-yl-1,2,3,4,5,6,7,7a,9,10,11,11b,12,13,13a,13b-hexadecahydrocyclopenta[a]chrysen-9-ol
LIBRARYQUALITY=3
SMILES=N/A
INCHIKEY=MQYXUWHLBZFQQO-KIIHVYTKSA-N
INCHI=InChI=1S/C30H50O/c1-19(2)20-11-14-27(5)17-18-29(7)21(25(20)27)9-10-23-28(6)15-13-24(31)26(3,4)22(28)12-16-30(23,29)8/h20-25,31H,1,9-18H2,2-8H3/t20-,21?,22?,23?,24-,25?,27+,28-,29+,30+/m0/s1
MSLEVEL=2
SOURCE_INSTRUMENT=N/A-ESI-QFT
FILENAME=library_mgf.mgf
SEQ=*..*
IONMODE=positive
ORGANISM=MONA
NAME=(1R,3aR,5aR,5bR,9S,11aR)-3a,5a,5b,8,8,11a-hexamethyl-1-prop-1-en-2-yl-1,2,3,4,5,6,7,7a,9,10,11,11b,12,13,13a,13b-hexadecahydrocyclopenta[a]chrysen-9-ol [M+K]+
PI=MoNA
DATACOLLECTOR=MoNA:VF-NPL-QEHF009283
PUBMED=N/A
SUBMITUSER=mwang87
TAGS=
SPECTRUMID=CCMSLIB00004700346
SCANS=9283
51.015099 0.07056 
51.363029 0.082462 
51.482944 0.074047 
51.671883 0.069661 
51.82262 0.075637 
51.927898 0.069292 
53.315853 0.068665 
53.736797 0.070686 
55.018585 0.090463 
55.055046 4.197148 
55.165901 0.065857 
55.843887 0.078512 
55.880795 0.075972 
56.050426 0.285455 
57.034317 2.126916 
57.070702 18.008472 
57.154652 0.068669 
58.065937 0.24584 
58.074146 0.108799 
59.049965 5.275929 
59.061192 0.518129 
59.800434 0.077266 
59.991074 0.168185 
60.045204 0.072952 
61.011456 3.611326 
62.019283 3.765258 
62.050495 0.082315 
62.060833 0.350492 
62.745842 0.072132 
62.982533 4.41117 
63.99852 0.080065 
65.146362 0.070438 
65.261955 0.080377 
65.602821 0.0769 
67.055 3.906412 
67.514603 0.087099 
68.224091 0.070988 
69.034286 0.370492 
69.070656 5.119393 
70.06591 0.921247 
70.299156 0.072528 
70.911957 0.071125 
71.049904 1.652975 
71.086266 11.058069 
71.331024 0.074159 
72.089821 0.090809 
72.15712 0.071082 
73.029144 2.278701 
73.047546 3.696089 
73.065498 4.252099 
74.047127 0.174346 
75.044701 0.260953 
77.042366 0.114843 
78.956322 0.913852 
78.959305 0.07992 
79.021919 13.19717 
79.054916 1.115799 
79.270103 0.070804 
79.92939 0.074922 
79.994415 0.074765 
80.436401 0.079184 
80.579086 0.067033 
81.070549 6.75856 
82.073799 0.086281 
83.049774 0.797011 
83.086205 6.176679 
84.081329 0.085581 
84.736168 0.06707 
85.029076 0.185005 
85.065445 0.663977 
85.10183 7.055008 
85.187881 0.082338 
85.589325 0.080062 
86.060776 0.386073 
86.097282 0.088714 
87.044678 21.4352 
88.04805 1.297525 
88.143692 0.070022 
88.612541 0.067324 
89.011627 0.075356 
89.060318 100.0 
90.063675 5.500909 
90.951347 0.070468 
91.054832 2.571603 
91.057953 12.131223 
91.064598 0.661138 
92.011551 0.074403 
92.057579 1.146545 
92.06115 0.348022 
92.983292 1.12916 
93.037407 2.488305 
93.054855 0.167452 
93.070419 5.899816 
94.012741 0.085749 
94.073868 0.068662 
94.152969 0.08282 
95.001183 0.070513 
95.049698 0.749332 
95.086113 7.238264 
95.468719 0.075481 
96.081207 0.117262 
96.089447 0.099457 
97.065247 0.787067 
97.101707 3.547481 
97.797371 0.073358 
98.096992 18.675522 
98.984695 5.481817 
99.044533 2.592592 
99.081017 0.709017 
99.10025 0.420974 
99.117538 0.21093 
99.270126 0.07839 
99.647858 0.080683 
100.076187 0.092492 
101.003685 3.810094 
101.060234 4.602155 
101.096619 5.888774 
102.063461 0.155855 
102.999512 0.095255 
103.039505 1.375774 
103.054726 0.091863 
103.075851 0.465462 
103.311378 0.069376 
105.037231 0.541047 
105.07029 1.41638 
106.858521 0.071228 
107.049377 0.980971 
107.052956 0.690718 
107.070747 3.013251 
107.085983 3.560622 
107.103935 0.075454 
107.454567 0.077861 
107.723778 0.087098 
108.074081 0.078998 
108.96981 0.094556 
109.065216 1.833818 
109.101624 6.445317 
110.096878 0.07453 
110.105011 0.084531 
110.99366 1.053073 
111.044571 0.200078 
111.080803 1.287126 
111.11718 0.928166 
112.040932 0.085085 
112.07621 0.118995 
113.060204 0.609162 
113.350761 0.07299 
114.055244 0.092614 
114.091713 0.824613 
115.056473 1.021607 
115.075722 0.876992 
115.681931 0.068448 
116.053215 1.673871 
116.107414 0.444663 
116.982872 0.080399 
117.055 2.158049 
117.070374 0.254898 
117.091316 0.324381 
119.049339 0.915196 
119.070618 0.08854 
119.085785 3.599833 
121.028625 4.799282 
121.065125 26.23745 
121.085808 0.1054 
121.101524 3.468252 
121.932884 0.077909 
122.06839 2.211726 
123.080765 0.712115 
123.091797 0.108202 
123.117111 1.967267 
124.658836 0.070016 
124.964714 1.690252 
125.000191 1.133126 
125.096352 1.886157 
125.936089 3.192365 
126.091476 0.180579 
126.943787 0.80932 
127.11219 0.081409 
128.020187 0.705664 
128.143661 1.736795 
128.269531 0.076452 
130.159256 0.970267 
131.070465 3.643293 
131.085846 0.637562 
133.065292 1.373066 
133.086044 24.729933 
133.101349 1.546956 
134.08934 3.16911 
134.978516 0.085187 
135.044189 0.105888 
135.080582 3.35831 
135.090073 0.221657 
135.116898 3.776247 
137.059784 6.307832 
137.096054 0.388115 
137.132706 0.430682 
137.612808 0.073145 
138.063324 0.230627 
138.127853 2.290037 
139.038452 0.086477 
139.111664 0.186312 
140.070389 0.090503 
140.949875 0.438024 
140.959412 3.843406 
141.054535 0.074374 
142.159073 0.096032 
142.184998 0.080592 
142.917694 0.202907 
142.938583 0.708037 
144.014893 1.385009 
145.06485 0.443071 
145.086044 0.737112 
145.101135 0.708628 
145.122406 6.471498 
145.468948 0.075535 
147.043945 5.593971 
147.080597 7.226709 
147.116959 2.156946 
148.047318 0.194344 
148.083664 0.481345 
148.92569 4.021378 
149.044846 1.01901 
149.059952 1.69342 
149.096283 2.189056 
149.132553 1.128095 
149.139969 0.071758 
150.05603 0.083099 
150.951248 1.456951 
151.075394 0.675827 
151.096802 1.029527 
151.849976 0.077599 
152.98938 0.262548 
153.054688 0.298356 
153.127625 0.090709 
153.336014 0.094564 
153.478226 0.079198 
154.122833 1.365186 
155.070328 0.415204 
155.10762 0.095691 
156.138474 71.645439 
156.861755 0.077783 
156.93663 2.243738 
156.954315 3.394219 
157.101471 0.282895 
157.141785 6.180821 
157.45401 0.080453 
158.117599 0.098273 
158.915863 0.8749 
159.081192 0.951839 
159.117081 0.564439 
160.182266 0.069283 
161.096222 0.4383 
161.13266 0.623751 
162.951797 0.741177 
163.060623 2.94239 
163.0755 0.861936 
163.096619 0.108689 
163.111847 0.2951 
163.148224 0.488621 
164.06015 0.235737 
164.899658 0.783549 
164.9207 13.603784 
165.054825 37.277679 
165.062836 0.269187 
165.09108 6.406763 
165.128326 0.087597 
166.058212 3.546394 
166.094345 0.373302 
166.158966 0.084241 
166.91626 0.192848 
167.055573 4.57688 
167.107285 0.090932 
168.055054 0.593899 
168.961472 0.162839 
169.026184 0.21192 
169.052917 0.079644 
169.985718 0.106496 
170.276413 0.076882 
170.942993 0.099017 
170.952362 2.11152 
170.960693 0.066693 
171.062973 0.409373 
171.117065 0.578727 
171.138077 2.981377 
172.115692 0.524005 
172.93158 3.742413 
172.948044 0.08512 
172.993881 0.32175 
173.060074 1.191516 
173.096207 0.857396 
173.132721 0.17349 
174.149002 1.266682 
175.075607 0.396498 
175.096741 1.150738 
175.148468 0.159298 
176.004745 0.524729 
176.967484 0.26542 
177.091202 0.795601 
177.112427 2.399402 
177.127411 0.405284 
177.163864 0.095347 
179.106781 0.169551 
179.954437 0.753395 
180.078659 0.166661 
180.894501 7.820414 
180.944061 0.716467 
180.962448 0.11075 
181.071167 9.843165 
181.08548 0.212375 
182.070648 2.009124 
182.154129 3.9733 
182.891922 0.299422 
182.969711 0.107189 
183.067902 1.534885 
183.117523 0.083732 
183.157806 0.185767 
184.871307 0.085892 
185.154007 0.186842 
185.961655 0.072948 
186.947342 0.142304 
187.036819 4.954092 
187.112061 0.07482 
187.147919 0.177375 
188.906067 0.088085 
189.112274 0.581196 
189.164032 1.138666 
191.070297 5.336045 
191.106842 3.260394 
191.179733 0.337711 
191.999588 0.2156 
192.110626 0.081024 
192.961838 1.564161 
193.086395 0.106343 
194.043472 0.074664 
195.101974 0.102788 
195.12326 0.916298 
196.868668 1.745115 
196.96106 0.201502 
198.953323 0.523532 
199.180969 0.171994 
200.929428 1.411529 
201.163849 0.078969 
202.924164 0.116226 
202.942017 0.934592 
203.106812 0.091063 
203.128418 0.231372 
203.141144 0.098723 
203.179352 0.160969 
204.90358 0.850546 
204.912933 0.447204 
204.962219 2.58235 
205.963181 0.114027 
206.97847 0.494106 
207.174515 0.987689 
208.168915 0.079736 
209.081009 11.284922 
209.117447 1.810241 
210.084457 0.880464 
210.185349 7.137159 
210.954788 0.092145 
210.972427 0.991809 
212.024307 0.086602 
212.916489 0.11567 
212.933685 0.258829 
213.444229 0.607437 
213.454086 2.674385 
213.46431 1.720639 
214.868546 0.155737 
214.912949 0.075791 
214.972031 0.78366 
214.985718 0.069219 
215.089279 2.143956 
215.143021 0.080008 
216.96907 0.07524 
217.105209 0.109266 
217.158157 0.081527 
218.918961 0.309619 
218.937698 0.201681 
219.174576 2.384034 
220.109909 0.451571 
220.887115 2.792425 
221.97496 0.848164 
222.099731 0.074692 
223.063705 4.554563 
224.063965 2.496161 
225.043121 8.553451 
225.060822 1.186392 
226.042938 4.371317 
227.022125 0.304965 
227.039917 2.134177 
227.128082 0.602116 
227.199051 0.083147 
227.212418 0.284985 
228.33934 0.091917 
229.068405 0.106756 
229.896149 0.087752 
230.944702 0.100831 
231.083893 0.128198 
232.928177 0.168062 
233.15416 0.09145 
234.91394 0.365249 
235.096695 7.812161 
235.132996 0.481568 
236.100449 0.405429 
236.861465 0.1997 
236.90947 0.149797 
237.079132 0.168145 
237.111588 0.11744 
237.994415 0.533737 
238.078552 0.105664 
238.120422 0.588684 
238.218124 0.08066 
239.148697 0.198527 
240.909332 0.108853 
242.943924 0.122374 
243.099335 6.295923 
244.924667 0.200078 
246.93959 0.320099 
247.847916 0.084426 
248.923828 0.113051 
250.893311 0.20592 
250.908035 0.119728 
252.010315 0.979712 
253.1073 7.288014 
254.110336 0.516751 
255.136108 0.091426 
255.231857 1.220203 
256.913452 0.111333 
257.914276 0.242752 
258.926147 0.07929 
258.958344 1.788259 
259.115784 1.414975 
260.905304 0.078869 
260.932739 0.156877 
261.90863 0.098725 
262.939026 0.822514 
262.955383 0.089269 
264.909607 0.273274 
265.14505 0.074075 
265.991821 0.140198 
272.900421 0.172375 
273.094849 0.627745 
274.894287 0.219572 
274.917542 0.397631 
275.110199 0.29391 
275.901978 0.090258 
276.913086 0.935502 
276.954987 0.08235 
278.913849 0.15957 
278.928619 0.110334 
279.122833 1.757491 
280.949768 0.332577 
281.051727 0.461851 
281.91214 0.886844 
282.052368 0.417085 
282.919006 0.090205 
283.048248 0.112552 
285.009674 1.255369 
286.010101 0.99652 
286.894684 1.441606 
287.006805 0.221712 
288.892273 0.130682 
288.909546 0.58589 
292.885315 0.118704 
292.905182 1.33889 
294.884308 1.08222 
294.903046 1.63419 
297.133179 4.530272 
298.045715 0.122347 
298.13678 0.101448 
299.043518 0.245495 
299.061829 10.230579 
300.062012 11.763213 
301.057983 6.678651 
302.059326 0.713093 
302.075531 0.099139 
303.141296 0.566439 
304.888 0.18458 
306.851807 0.968082 
306.867035 0.129213 
306.902985 1.096925 
306.920013 5.33997 
308.903656 0.11705 
310.858093 0.083805 
311.196625 0.085768 
311.868713 0.374697 
312.87619 0.097617 
316.90567 0.263537 
317.12085 2.035194 
317.352875 0.079216 
319.136566 0.632005 
322.804871 0.101632 
322.825958 0.614989 
322.914734 0.283318 
324.931122 0.706067 
326.892639 0.397283 
329.178223 0.105879 
332.937469 0.090042 
333.836273 0.646246 
334.843811 4.078333 
334.864899 0.076008 
336.839325 0.127748 
336.876251 0.093371 
341.159607 3.071589 
344.976379 1.320024 
345.97702 1.712568 
346.093536 0.217476 
346.821991 0.099836 
346.974152 0.951713 
348.110138 0.330651 
349.183289 0.56814 
350.947113 2.383193 
351.846893 3.551376 
352.852692 0.225973 
354.887634 0.397722 
355.931213 0.105359 
358.843597 0.997704 
359.027557 0.509304 
360.029633 0.366785 
360.839325 1.384358 
361.026123 0.489594 
361.119995 0.337558 
361.146576 2.441629 
363.162689 0.593325 
365.636566 0.087153 
366.906982 0.103491 
367.840057 0.187012 
374.838074 0.394882 
375.847412 0.74354 
376.318085 0.109844 
376.563568 0.085415 
378.848022 0.125039 
382.904358 0.078085 
384.91864 0.083577 
385.185425 2.738201 
385.29184 0.407287 
385.349884 0.194652 
386.187256 0.094588 
388.893921 0.096155 
389.18103 0.533149 
390.853607 1.423333 
392.848877 21.394808 
393.852722 2.286652 
395.331207 0.077864 
396.791168 0.081703 
402.963928 0.106643 
403.164734 1.021608 
404.94693 0.101609 
405.174683 0.090246 
405.788269 0.087586 
405.838226 0.093765 
406.84201 0.267548 
406.866302 0.899123 
407.18927 0.715954 
408.862915 0.382222 
410.859467 4.510104 
411.862 0.096263 
418.995056 1.098006 
420.93634 0.116717 
429.211853 21.648035 
430.215118 5.411809 
431.218445 0.329012 
433.204437 0.163452 
435.184723 0.107301 
435.219421 0.555185 
447.347015 1.056003 
449.215485 0.306383 
463.265503 1.489364 
463.354584 0.201247 
463.949982 1.692731 
464.216217 0.335961 
464.26944 4.951711 
464.303955 1.046285 
464.35498 0.285455 
464.448425 0.36209 
464.951111 0.08922 
465.194336 24.89649 
465.231964 14.846702 
465.280884 12.131379 
465.333801 6.555591 
466.197754 4.498054 
466.234985 3.345706 
466.285828 2.541509 
466.337555 2.304266 
466.371277 0.085994 
466.436646 0.168862 
466.499542 0.626766 
466.534393 9.914289 
466.569366 0.128278 
467.107788 9.562171 
467.211243 7.780739 
467.24646 73.95713 
467.349792 0.307849 
467.5383 0.477025 
481.961578 1.164425 
482.919769 0.734249 
483.921234 0.185456 
484.899414 0.104891 
END IONS

