BEGIN IONS
PEPMASS=357.117
CHARGE=1+
COMPOUNDNAME=MITOMYCIN C
LIBRARYQUALITY=3
SMILES=N/A
INCHIKEY=NWIBSHFKIJFRCO-WUDYKRTCSA-N
INCHI=InChI=1S/C15H18N4O5/c1-5-9(16)12(21)8-6(4-24-14(17)22)15(23-2)13-7(18-13)3-19(15)10(8)11(5)20/h6-7,13,18H,3-4,16H2,1-2H3,(H2,17,22)/t6-,7+,13+,15-/m1/s1
MSLEVEL=2
SOURCE_INSTRUMENT=N/A-ESI-QFT
FILENAME=library_mgf.mgf
SEQ=*..*
IONMODE=positive
ORGANISM=MONA
NAME=MITOMYCIN C [M+Na]+
PI=MoNA
DATACOLLECTOR=MoNA:VF-NPL-QEHF027731
PUBMED=N/A
SUBMITUSER=mwang87
TAGS=
SPECTRUMID=CCMSLIB00004721312
SCANS=27731
50.072811 0.015066 
50.520832 0.017657 
50.652225 0.036827 
51.187138 0.047674 
51.204102 0.025781 
51.326412 0.049687 
51.841141 0.065901 
52.664284 0.012744 
52.937832 0.04248 
54.008049 0.028549 
54.011539 0.050829 
54.20237 0.024045 
54.298054 0.069756 
55.470009 0.011803 
56.049778 0.441877 
56.471363 0.027388 
56.992424 0.012036 
57.327641 0.05335 
57.750668 0.054003 
58.055946 0.041538 
58.426651 0.038572 
58.940304 0.046857 
59.038231 0.017758 
59.95314 0.038296 
60.04464 0.5347 
60.130959 0.064232 
60.280224 0.057089 
62.383705 0.034448 
62.773113 0.031859 
63.4324 0.017277 
63.80735 0.029762 
63.832291 0.014934 
64.940735 0.059985 
65.104813 0.054312 
65.198502 0.0518 
65.28315 0.027793 
65.681442 0.028141 
65.74221 0.033898 
65.850945 0.038072 
65.925568 0.047256 
66.16938 0.016107 
66.595688 0.014567 
67.584457 0.029288 
68.758163 0.037715 
69.50769 0.062192 
69.946281 0.081363 
70.138092 0.014367 
70.199905 0.060822 
70.44297 0.014963 
70.811676 0.031242 
71.200142 0.03988 
71.927536 0.012231 
72.510986 0.065356 
73.046898 0.030654 
73.08976 0.059793 
73.256973 0.087437 
73.789886 0.014528 
74.891823 0.046103 
74.954498 0.046128 
75.141975 0.029091 
75.944328 0.027962 
76.360756 0.040807 
76.914734 0.065157 
77.074692 0.027272 
78.139198 0.054033 
78.166283 0.012147 
80.652657 0.014066 
80.83696 0.014566 
80.860435 0.057615 
81.562134 0.032897 
81.735168 0.02376 
81.789215 0.039003 
81.970589 0.014232 
82.332466 0.037634 
82.352058 0.052883 
82.581673 0.052187 
83.343193 0.037562 
83.74865 0.022831 
84.005646 1.096021 
84.044502 0.130254 
84.116959 0.053416 
84.520531 0.050093 
85.248199 0.015852 
86.323769 0.049419 
87.044075 0.084232 
87.756126 0.048429 
87.913483 0.05926 
87.954193 0.023521 
88.337151 0.031984 
89.276115 0.061244 
89.482559 0.047301 
89.74585 0.046766 
89.912209 0.033841 
90.536156 0.029027 
90.827126 0.074667 
92.297371 0.028949 
92.512749 0.016543 
92.625244 0.024948 
92.937187 0.056329 
93.912392 0.012109 
95.903694 0.06072 
96.580162 0.022893 
96.699524 0.042805 
98.060112 0.081808 
98.975327 0.133976 
100.863075 0.058831 
102.383186 0.069819 
103.740417 0.034692 
103.771469 0.017995 
103.982735 0.01524 
105.501984 0.044888 
106.129196 0.029267 
106.291992 0.028844 
107.655342 0.012737 
108.363487 0.016417 
108.830032 0.043366 
109.087166 0.018282 
109.539253 0.058032 
110.060081 7.009825 
110.367569 0.029756 
111.063469 0.058876 
111.896172 0.048421 
111.963936 0.016798 
113.927338 0.064422 
114.556198 0.028288 
116.758354 0.049437 
118.418472 0.030513 
118.674255 0.015145 
118.881615 0.018971 
119.289558 0.013535 
119.534248 0.055863 
119.988487 0.015559 
121.095619 0.016406 
121.219612 0.029046 
122.060112 0.040409 
125.849556 0.06767 
125.872467 0.063988 
127.099991 0.016471 
131.129349 0.012725 
132.06221 0.065038 
132.897217 0.032866 
134.170547 0.029331 
134.799118 0.064597 
135.306503 0.056269 
135.558075 0.042144 
137.071014 5.168796 
138.074753 0.132394 
140.078201 0.060654 
142.040482 0.055887 
142.078613 0.05829 
142.226791 0.045315 
143.662094 0.016755 
144.231873 0.033558 
146.168564 0.018564 
151.281448 0.047751 
151.483276 0.032096 
153.050919 0.047395 
159.055359 0.867765 
159.776962 0.064804 
161.787064 0.056447 
162.054581 0.033963 
165.066025 1.503652 
169.076431 0.072416 
171.091782 0.482719 
171.408798 0.025557 
173.070862 0.203343 
174.054718 0.022114 
175.086884 0.215638 
175.291977 0.072313 
175.961517 0.060892 
176.070465 0.061145 
177.065994 0.307647 
177.258301 0.011419 
177.658966 0.041398 
179.119919 0.043088 
180.643463 0.030451 
182.542068 0.012482 
184.07579 0.080941 
184.193512 0.056412 
185.071106 1.356888 
186.103134 0.164758 
187.086884 0.447268 
189.065826 1.487979 
191.081772 0.394259 
191.121155 0.064308 
196.045486 0.067571 
197.071091 0.760324 
198.102386 0.208506 
199.075287 0.03989 
200.620758 0.033193 
201.066086 0.17597 
201.10318 0.062592 
201.226578 0.011224 
202.073776 8.934427 
202.09816 0.023669 
202.405472 0.053942 
203.081268 1.476294 
203.875122 0.065373 
204.053116 0.102409 
204.065765 0.089675 
206.068604 0.600345 
207.076065 0.015751 
207.112305 0.015516 
208.345352 0.067825 
210.857178 0.030528 
212.070724 0.593566 
213.065643 2.631104 
213.090439 0.016372 
214.073105 0.742024 
214.097595 3.353228 
214.443527 1.458388 
214.4487 1.551061 
215.081573 13.994782 
215.100479 0.111847 
216.075912 0.679997 
216.086182 0.454051 
216.742737 0.015432 
216.827454 0.018177 
217.06015 0.181619 
217.096863 0.034515 
218.068527 0.758098 
219.076385 4.498448 
220.080521 0.143703 
221.092087 1.066708 
225.066116 0.801626 
226.073334 0.687121 
226.854095 0.04445 
227.081528 0.228554 
227.117966 0.83219 
229.084717 0.035953 
229.097656 0.096116 
230.068695 1.644601 
230.092407 1.106436 
231.076431 7.54822 
231.099396 0.993224 
232.082626 0.355989 
233.092224 0.01762 
233.83786 0.016869 
241.084442 0.410738 
242.069077 2.923983 
242.092331 100.0 
243.074188 0.071248 
243.095993 13.793388 
243.217331 0.074713 
244.071365 0.106754 
244.097076 0.017422 
244.688171 0.069075 
245.078857 0.022498 
245.092178 8.98134 
246.095322 0.559182 
246.123932 0.32886 
252.074448 0.139485 
256.008881 0.065244 
256.485535 0.057389 
257.09198 4.543033 
258.09726 0.014056 
259.095245 3.080164 
260.360687 0.018562 
262.654327 0.063306 
264.074432 0.325065 
265.43985 0.056463 
268.10672 0.155727 
269.249023 0.062965 
270.388306 0.01772 
270.464874 0.016987 
271.590485 0.031582 
274.118622 12.132051 
275.121826 1.414985 
279.061493 0.865716 
280.064758 0.270204 
281.100922 1.403839 
282.10434 0.07423 
289.825623 0.035239 
291.161896 0.032233 
293.594482 0.015797 
296.1008 0.376949 
296.134033 0.064271 
299.468658 0.05519 
303.209625 0.017568 
314.111267 0.268543 
315.298798 0.057623 
319.031769 0.050519 
326.845123 0.025431 
329.370789 0.042158 
342.89975 0.023349 
351.07428 0.056384 
354.533081 0.035704 
357.116608 0.511633 
357.141693 0.017233 
358.217896 0.017987 
358.366943 0.110948 
358.928192 0.069348 
372.596497 0.055808 
373.180725 0.05765 
END IONS

