BEGIN IONS
PEPMASS=639.311
CHARGE=1+
COMPOUNDNAME=deferrioxamine E
LIBRARYQUALITY=3
SMILES=N/A
INCHIKEY=NHKCCADZVLTPPO-UHFFFAOYSA-N
INCHI=InChI=1S/C27H48N6O9/c34-22-10-14-26(38)32(41)20-8-3-6-18-30-24(36)12-15-27(39)33(42)21-9-2-5-17-29-23(35)11-13-25(37)31(40)19-7-1-4-16-28-22/h40-42H,1-21H2,(H,28,34)(H,29,35)(H,30,36)
MSLEVEL=2
SOURCE_INSTRUMENT=N/A-ESI-QFT
FILENAME=library_mgf.mgf
SEQ=*..*
IONMODE=positive
ORGANISM=MONA
NAME=deferrioxamine E [M+K]+
PI=MoNA
DATACOLLECTOR=MoNA:VF-NPL-QEHF004057
PUBMED=N/A
SUBMITUSER=mwang87
TAGS=
SPECTRUMID=CCMSLIB00004695120
SCANS=4057
50.10392 0.001891 
50.849182 0.00407 
51.010017 0.01709 
51.035015 0.001753 
53.826149 0.001712 
54.390385 0.015693 
54.668545 0.000906 
54.694427 0.014675 
54.904755 0.024656 
55.018597 0.001708 
55.055096 0.003328 
55.12867 0.023558 
56.050301 0.005624 
56.210487 0.010042 
57.034363 0.001018 
57.070683 0.068622 
57.36615 0.011411 
57.664433 0.00194 
58.091228 0.001767 
58.670605 0.020509 
59.0499 0.004886 
59.061192 0.002768 
60.045223 0.001211 
61.374828 0.005188 
61.498409 0.000767 
62.14397 0.009471 
62.155109 0.001012 
62.432285 0.023505 
64.488281 0.000733 
64.976425 0.002132 
65.105476 0.016528 
66.382378 0.02166 
66.527306 0.020669 
66.668823 0.010622 
67.054962 0.008185 
69.055222 0.00072 
69.070564 0.026981 
69.432526 0.004554 
69.714905 0.017452 
70.06588 0.053222 
71.08625 0.076045 
71.511635 0.00443 
72.081398 0.001504 
72.205254 0.021908 
72.21096 0.011275 
72.727592 0.019011 
73.02906 0.009865 
73.05957 0.002157 
73.065483 0.01088 
74.097054 0.009864 
75.139282 0.001836 
75.250587 0.02089 
75.911461 0.012569 
78.823975 0.000652 
79.317253 0.021826 
80.050102 0.001751 
80.055061 0.003409 
80.271744 0.021389 
80.342117 0.004353 
81.070473 0.012764 
81.625046 0.001618 
82.065712 0.014251 
83.08622 0.009005 
83.736374 0.022974 
84.044922 0.00228 
84.081429 1.445847 
84.089287 0.015647 
85.065407 0.004038 
85.084816 0.037642 
85.089264 0.001675 
85.101784 0.040073 
86.094368 0.000804 
86.097023 0.038269 
86.228226 0.00466 
86.341049 0.001018 
87.044617 0.064598 
88.063416 0.024027 
88.076302 0.003444 
88.15509 0.013673 
88.993004 0.021914 
89.060303 0.369286 
89.063347 0.001261 
89.085327 0.019568 
89.562645 0.000943 
90.063614 0.005657 
90.948296 0.001258 
91.057892 0.002486 
91.783928 0.000819 
92.042107 0.01583 
92.78933 0.017053 
93.070267 0.000927 
94.122643 0.022864 
94.228241 0.024152 
95.049713 0.000853 
95.085899 0.006007 
95.467392 0.00182 
96.081215 0.005595 
96.271393 0.021383 
96.350052 0.000954 
96.981224 0.000749 
97.065125 0.012308 
97.076454 0.007841 
97.101624 0.008909 
98.096886 0.01901 
99.044632 0.001017 
99.092308 0.003702 
99.117134 0.000795 
99.437355 0.018559 
100.039886 0.186375 
100.058441 0.000682 
100.076157 0.033395 
100.65728 0.019124 
101.023705 0.003293 
101.043015 0.002442 
101.060051 0.002609 
101.5327 0.023023 
102.067924 0.001456 
102.091858 0.149766 
102.165604 0.029925 
103.039452 0.001287 
103.095169 0.007828 
106.063087 1.836268 
107.066734 0.002696 
107.070587 0.004261 
109.065414 0.001192 
109.076263 0.000778 
109.10141 0.001127 
109.342972 0.00196 
109.898926 0.022703 
110.06031 0.000895 
110.096832 0.001372 
110.851006 0.001933 
111.11721 0.001048 
111.428848 0.001733 
112.039581 0.010787 
112.075974 0.003377 
112.11219 0.001251 
113.06012 0.001785 
114.091599 0.008419 
114.774742 0.002044 
115.039345 0.060654 
115.087006 0.005358 
115.397064 0.024518 
116.034851 0.000901 
116.042595 0.00601 
116.071037 0.00116 
116.888931 0.001597 
117.043282 0.001453 
117.091324 0.007137 
117.545059 0.023109 
118.05809 0.078158 
118.785828 0.004043 
119.061394 0.00786 
119.118225 0.004551 
120.081017 0.00141 
121.064972 0.001768 
121.076355 0.001624 
121.101395 0.00547 
122.096741 0.010713 
123.005486 1.222476 
123.043823 0.000735 
123.089478 0.778738 
124.073616 0.056307 
124.112122 0.002492 
124.999428 0.001786 
125.104919 0.00199 
126.054947 0.001158 
126.09156 0.002936 
128.034409 0.000885 
128.107117 0.017725 
128.697739 0.015896 
128.825409 0.027538 
128.957367 0.004512 
130.049973 0.003079 
131.070114 0.004121 
133.085953 0.104515 
134.089142 0.000946 
134.527451 0.021145 
136.075867 0.00107 
137.107162 0.010637 
138.091354 0.1629 
138.102615 0.005854 
138.127701 0.008467 
138.625214 0.010499 
139.075424 0.002513 
139.084457 0.063112 
139.094864 0.003149 
139.111664 0.006404 
140.03157 0.001167 
140.070663 0.018106 
140.076157 0.000836 
140.106857 0.012114 
140.143143 0.006977 
140.578827 0.023343 
141.054428 0.006248 
141.06601 0.000901 
141.090897 0.00124 
141.100281 0.008814 
142.086243 0.008693 
142.122635 0.037906 
144.101959 0.041785 
145.175217 0.001986 
146.04866 0.010578 
147.004868 0.001018 
148.028076 0.002216 
148.075958 0.000796 
150.41803 0.018976 
151.122787 0.00258 
152.070602 0.004395 
153.102234 0.006037 
154.086227 0.156599 
155.049393 0.052221 
155.055511 0.000998 
155.079163 0.000802 
155.089615 0.004426 
155.424133 0.025161 
155.996399 0.025498 
156.138412 0.001147 
156.470673 0.022608 
157.027832 0.002233 
160.005905 0.001022 
160.027725 0.000952 
165.054565 0.00104 
165.102356 0.276764 
165.669983 0.024552 
166.086319 0.864426 
166.105652 0.014871 
167.055176 0.001271 
167.089981 0.030065 
167.117599 0.005525 
168.06546 0.001212 
168.094177 0.001142 
168.101913 0.200215 
169.10553 0.003738 
169.989792 0.00106 
171.021378 0.009212 
172.107376 0.022314 
173.037247 0.014941 
173.059906 0.022737 
174.007217 0.017862 
176.070023 0.000751 
177.112213 0.008538 
177.489838 0.021258 
179.115524 0.098388 
179.375717 0.0273 
180.101868 0.01057 
180.149597 0.004258 
181.097031 0.044262 
181.134293 0.001268 
181.791611 0.024051 
181.836182 0.015464 
182.081268 0.002492 
182.117813 0.008891 
183.0215 0.000975 
183.044342 0.001158 
183.113007 0.12864 
184.0047 0.0011 
184.096817 0.155511 
184.116333 0.012423 
185.060226 0.001004 
185.100494 0.008595 
185.128403 0.068125 
185.608337 0.019738 
187.038467 0.017559 
187.1073 0.00156 
188.834473 0.024726 
188.995941 0.002853 
189.977844 0.002055 
192.018265 0.004458 
195.112762 0.001765 
196.096649 0.011557 
196.144592 0.004849 
197.001129 0.00206 
197.06015 0.003256 
197.128479 0.001743 
198.112534 0.016018 
198.122696 0.000904 
198.160172 0.011749 
199.016586 0.004287 
199.029404 0.000941 
199.075302 0.004779 
199.107773 0.006422 
199.144241 0.002297 
200.036865 0.007164 
200.092117 0.001305 
201.031845 0.001708 
201.054626 0.001369 
201.123322 1.685155 
202.108826 0.000848 
202.126938 0.185786 
203.04863 0.001127 
203.128891 0.026493 
203.138809 0.000758 
204.090591 0.026312 
204.130844 0.002644 
204.414993 0.018236 
205.094894 0.062842 
206.078857 1.059423 
207.082733 0.000897 
207.110962 0.004445 
208.095291 0.003157 
209.037613 0.001369 
209.059586 0.001121 
209.091354 0.001282 
209.128448 0.002431 
211.049393 0.030387 
211.075531 0.359722 
211.144012 0.001101 
212.037064 0.006516 
212.060257 0.000849 
212.078781 0.000867 
213.032272 0.001181 
213.080887 0.001741 
213.091171 0.626501 
213.123413 0.036827 
214.052353 0.002854 
214.095459 0.001049 
215.047974 0.002511 
215.069824 0.004906 
215.106689 0.088766 
215.139145 0.002337 
215.709045 0.002157 
216.069427 0.00426 
216.121933 0.000902 
216.80574 0.002443 
217.0634 0.010445 
217.086014 0.003316 
219.112549 0.000798 
219.141815 0.001957 
219.174301 0.002533 
219.319077 0.027436 
220.096573 0.001017 
220.13327 0.001229 
220.145172 0.001086 
220.287506 0.000762 
221.036469 0.001462 
221.059464 0.058027 
221.08905 0.001793 
221.127838 0.001249 
222.121124 0.048729 
223.016586 0.006162 
223.075653 0.003633 
223.105225 2.182469 
224.078568 0.001673 
224.089355 0.408239 
224.108704 0.030914 
225.031662 0.005948 
225.090744 0.021568 
225.121078 0.037589 
225.541885 0.002057 
226.016129 0.002005 
226.038239 0.001111 
227.047623 0.014122 
227.069656 0.006669 
227.106613 0.005387 
227.121765 0.026668 
227.139008 0.036309 
228.031296 0.002773 
228.054611 0.00765 
228.53476 0.023207 
229.063583 0.011334 
229.086166 0.165806 
229.118088 0.000848 
230.06955 0.006868 
231.042267 0.000876 
231.079056 0.008896 
231.102005 0.141763 
233.11673 0.003958 
234.487595 0.025432 
236.070175 0.004492 
237.032211 0.031373 
237.054932 0.03122 
237.087021 0.000803 
237.12146 0.099593 
237.15947 0.004967 
238.035294 0.001288 
238.106171 0.007208 
238.118637 0.007618 
238.143784 0.017096 
239.047775 0.03075 
239.069839 4.25832 
239.100174 0.671061 
239.138672 0.00598 
239.175339 0.002856 
240.031418 0.001082 
240.053497 0.014162 
240.073822 0.205245 
240.086594 0.013887 
240.107758 0.054191 
240.122528 0.034616 
240.133438 0.002649 
241.026764 0.029101 
241.048584 0.002181 
241.063782 0.01081 
241.086044 0.198087 
241.102219 0.003516 
241.115967 0.277994 
241.154373 0.023828 
242.032089 0.00098 
242.046692 0.000874 
242.069626 0.016404 
243.042343 0.011152 
243.101517 0.007487 
243.134155 0.077391 
244.049438 0.002788 
244.136993 0.000881 
245.058563 0.001313 
245.080566 0.001364 
245.116776 0.00389 
245.71405 0.000998 
246.064102 0.000832 
247.683121 0.025684 
248.081635 0.003154 
250.411346 0.002193 
251.034698 0.01814 
251.046829 0.00136 
251.07077 0.005387 
251.099808 0.014114 
251.137451 0.012981 
252.043106 0.009744 
252.131927 0.012539 
253.026733 0.005583 
253.063766 0.0011 
253.085907 0.09799 
253.10202 0.001799 
254.058243 0.002876 
254.081619 0.008238 
255.042542 0.049732 
255.064926 0.216566 
255.07782 0.002404 
255.096375 0.014674 
255.169769 0.001117 
255.23175 0.014305 
256.045502 0.003439 
256.072906 0.016615 
256.082642 0.024441 
256.097382 0.010513 
256.51532 0.00492 
257.058441 0.039598 
257.08078 9.507725 
258.042358 0.002295 
258.064636 0.036504 
258.084595 0.580806 
259.096466 0.70324 
259.132111 0.003623 
260.100433 0.005202 
261.073608 0.001063 
262.188751 0.010079 
263.324432 0.027782 
265.087646 0.001198 
265.11557 0.004608 
266.072235 0.000824 
267.043121 0.001512 
267.065002 0.035688 
267.101868 0.21592 
267.133728 0.038885 
267.96051 0.020129 
268.105499 0.03368 
268.120209 0.030846 
268.824829 0.011183 
269.016541 0.024658 
269.080505 0.11602 
269.095947 0.002257 
269.11734 0.09577 
270.053406 0.007084 
270.085449 0.002134 
270.112 0.016319 
271.037445 0.005619 
271.073639 0.001271 
271.096344 0.417481 
273.075592 0.019189 
274.059448 0.001349 
274.083344 0.093598 
274.106354 0.001097 
275.013458 0.02345 
275.091309 0.793203 
276.092255 0.028321 
278.150055 0.001391 
279.042938 0.001052 
279.102264 0.004222 
279.131683 0.033396 
279.216125 0.028268 
280.073547 0.002546 
280.16568 0.00761 
281.058746 0.004912 
281.081116 0.00557 
281.115021 0.000955 
281.150055 0.001199 
282.067078 0.001243 
283.038025 0.001552 
283.074402 0.001217 
283.096466 0.077266 
283.128723 0.58047 
283.263062 0.226053 
284.132355 0.041586 
284.266357 0.009661 
285.054169 0.002911 
285.075714 0.258114 
285.112366 0.377445 
285.134644 0.001603 
286.427917 0.011061 
287.091705 0.002555 
287.12796 0.003687 
288.095459 0.002096 
292.132843 0.00407 
293.058228 0.018141 
293.0802 0.008044 
293.117096 0.002802 
294.063629 0.002997 
294.091248 0.001296 
295.074402 0.04009 
295.096497 0.846153 
296.077606 0.001634 
296.099579 0.006851 
296.127533 0.001166 
296.159821 0.000983 
297.053589 0.007887 
297.075073 0.009534 
297.112671 0.015909 
297.144867 0.000982 
298.084442 0.007962 
299.068878 0.017903 
299.089294 0.038692 
299.12616 0.002326 
301.106842 0.016853 
302.159668 0.001642 
304.095825 0.053259 
304.133514 0.002763 
305.110931 0.115224 
305.194214 0.007434 
306.1138 0.00088 
306.178864 1.452596 
306.197449 0.002261 
307.094269 0.000869 
307.126587 0.004251 
307.181885 0.034758 
307.210449 0.017802 
308.067535 0.001268 
308.128174 0.007023 
308.159912 0.00092 
308.445221 0.026029 
309.053406 0.024772 
309.07135 0.002279 
309.279785 0.001256 
310.057281 0.007173 
310.085419 0.009674 
310.144348 0.002617 
311.068878 0.024628 
311.091736 0.045714 
311.294495 0.086452 
312.075165 0.005888 
312.099579 0.007067 
312.216858 0.018144 
312.297607 0.005396 
313.086151 0.008722 
313.106934 0.594504 
314.088684 0.001323 
314.111389 0.005173 
315.086731 0.00425 
315.122406 0.007908 
317.101654 0.001585 
318.173645 0.007184 
318.921661 0.001077 
319.03833 0.001286 
319.143341 0.00327 
319.177155 0.011269 
319.234161 0.004748 
319.703705 0.019852 
320.106537 0.000965 
320.177856 0.001154 
320.238068 0.001769 
321.054962 0.006068 
321.075806 0.014967 
321.160309 0.009797 
322.084473 0.007893 
322.143707 0.048338 
323.069946 0.004783 
323.091309 0.225565 
323.121338 1.458716 
323.205353 1.812335 
324.097443 0.00405 
324.124695 0.077865 
324.159119 0.003444 
324.189301 0.453167 
324.209229 0.13581 
325.047852 0.016288 
325.192383 0.009363 
325.219116 0.008216 
326.05304 0.002496 
327.063934 0.040334 
328.067108 0.016816 
329.101654 0.004002 
331.553009 0.023549 
332.165009 0.002793 
334.106354 0.003462 
334.136353 0.003385 
336.063965 0.002086 
336.101135 0.003044 
336.12204 0.003503 
337.047516 0.006656 
337.069122 0.001362 
337.136292 0.027797 
338.07959 0.012592 
338.100677 0.004265 
338.117279 0.001814 
338.136871 0.003152 
338.206482 0.018307 
339.063843 0.018825 
339.08783 0.245061 
339.17923 2.491015 
339.200653 0.730536 
340.094299 0.024136 
340.116211 0.003104 
340.133545 0.001108 
340.153717 0.00604 
340.182281 0.190799 
340.20459 0.003603 
341.101868 0.143751 
341.129761 0.001971 
341.176422 0.029919 
347.549377 0.017689 
351.199677 0.002527 
351.23642 0.014311 
352.117615 0.00768 
352.321472 0.027391 
353.125488 0.003222 
354.134094 0.004677 
356.089569 0.010275 
356.112701 0.003863 
357.096558 0.320493 
358.101105 0.005675 
361.579163 0.01327 
362.138428 0.004128 
363.23941 0.003218 
364.131531 0.002901 
364.154999 0.0013 
364.190308 0.005725 
365.216919 0.001454 
366.133789 1.052031 
366.163361 0.034816 
367.139221 0.049964 
367.164368 0.003553 
369.121246 0.010765 
374.13739 0.003246 
375.172333 0.025323 
376.131592 0.002191 
376.898254 0.021845 
377.1875 0.07912 
377.211975 0.000854 
378.147064 0.005194 
378.195709 0.002344 
379.146332 0.0015 
379.231445 0.018427 
380.149139 0.221491 
381.154755 0.003575 
381.189148 0.645498 
382.129761 0.147025 
382.164581 0.005186 
383.135223 0.003469 
385.245056 0.001438 
388.184235 0.031056 
389.18869 0.001939 
390.198608 0.002807 
391.116455 0.00251 
391.144012 0.001523 
392.124451 0.003692 
392.150818 0.002129 
392.185394 0.00618 
393.156342 0.001067 
393.184113 0.034422 
394.164917 0.017149 
395.171204 0.002355 
395.202332 0.050759 
396.144867 0.006468 
397.154022 0.037721 
398.275726 0.010311 
399.200348 0.096148 
401.240417 0.001825 
402.110229 0.001483 
403.165131 0.056428 
404.125122 0.004986 
405.128448 0.003348 
405.182251 0.032315 
405.210938 2.813693 
406.165619 0.03733 
406.191833 1.685085 
407.19812 0.208845 
407.224609 0.038406 
408.151978 0.001283 
408.181274 0.071131 
408.207245 0.003994 
409.183594 0.003028 
409.215698 0.258995 
410.16217 0.164967 
410.19632 0.242515 
411.139191 0.001316 
411.16748 0.006172 
411.197571 0.005808 
413.144165 0.01875 
416.919312 0.000878 
419.136597 0.003181 
419.226135 0.001799 
419.400085 0.004484 
419.851807 0.000896 
420.141022 0.003244 
421.12384 0.001784 
421.179016 0.668947 
421.206146 0.001346 
422.167358 0.031646 
422.239136 0.028189 
423.166046 0.001525 
423.191437 0.64429 
423.221588 4.210166 
423.633362 0.016849 
424.151154 0.001164 
424.19931 0.067559 
424.227692 0.646068 
425.206421 0.006398 
425.231232 0.00326 
431.378082 0.026543 
433.206848 0.07222 
437.147034 0.002638 
437.205719 0.000966 
437.238007 0.480785 
438.241577 0.005152 
439.193695 6.297152 
440.197479 1.377995 
441.199799 0.248465 
441.231293 0.041721 
446.920013 0.022904 
451.186981 0.010641 
451.217194 0.044405 
454.151276 0.002506 
454.975189 0.002279 
455.211029 0.002131 
457.205353 0.187648 
457.699493 0.027617 
459.332245 0.018399 
463.163239 0.001904 
463.366852 0.030308 
465.233643 0.093372 
465.536194 0.023703 
466.2341 0.010738 
467.182648 0.004045 
479.21817 0.034745 
479.252075 0.001606 
481.205048 0.04711 
489.236816 0.005632 
495.213501 0.167967 
495.306061 0.020879 
496.215332 0.00297 
499.215576 0.124318 
504.016388 0.004963 
505.227661 0.880962 
505.310211 0.00194 
506.232574 0.249666 
506.294891 2.018818 
506.448608 0.033774 
507.236359 0.00243 
507.298187 0.492393 
508.301392 0.005588 
522.203735 0.332417 
522.262634 0.055981 
523.200989 0.562958 
523.238403 2.206552 
524.24176 0.438393 
525.241333 0.003265 
528.850708 0.022733 
534.11377 0.011806 
536.239929 0.011427 
537.253235 0.8305 
538.256775 0.069475 
538.321106 0.09066 
539.212891 0.592901 
539.294312 8.023336 
540.214844 0.018822 
540.297546 2.164091 
541.298462 0.393457 
557.791687 0.017196 
562.323608 0.06689 
564.272278 0.010552 
566.249268 0.090966 
567.25177 0.004532 
567.725098 0.027061 
580.261292 0.001123 
581.306702 0.706326 
588.298706 0.002027 
592.23938 0.005552 
592.302429 0.230266 
593.305176 0.042537 
595.321716 2.036392 
596.325195 0.553849 
598.49292 0.032328 
604.300354 0.005444 
605.326294 1.013826 
606.311096 10.52346 
607.311462 3.453672 
608.316772 0.712493 
609.325562 0.0093 
619.228821 0.001261 
619.306213 0.011943 
620.231934 0.004169 
620.26239 0.003519 
620.313477 0.120694 
621.303711 0.527831 
622.29718 0.27352 
637.302124 0.577028 
637.357666 0.044724 
638.288879 0.229525 
638.34198 1.233347 
639.311401 100.0 
640.314392 30.296812 
640.409363 0.012884 
641.317688 11.531737 
END IONS

