BEGIN IONS
PEPMASS=243.149
CHARGE=1+
COMPOUNDNAME=Huperzine A
LIBRARYQUALITY=3
SMILES=N/A
INCHIKEY=ZRJBHWIHUMBLCN-UHFFFAOYSA-N
INCHI=InChI=1S/C15H18N2O/c1-3-11-10-6-9(2)8-15(11,16)12-4-5-14(18)17-13(12)7-10/h3-6,10H,7-8,16H2,1-2H3,(H,17,18)
MSLEVEL=2
SOURCE_INSTRUMENT=N/A-ESI-QFT
FILENAME=library_mgf.mgf
SEQ=*..*
IONMODE=positive
ORGANISM=MONA
NAME=Huperzine A [M+H]+
PI=MoNA
DATACOLLECTOR=MoNA:VF-NPL-QEHF027216
PUBMED=N/A
SUBMITUSER=mwang87
TAGS=
SPECTRUMID=CCMSLIB00004720797
SCANS=27216
50.206799 0.048797 
50.294998 0.049823 
51.349228 0.046569 
51.736237 0.052441 
52.063457 0.048325 
52.077152 0.05568 
53.00589 0.053329 
53.039055 0.064293 
53.053001 0.052955 
54.861107 0.063275 
55.018124 0.338783 
55.054512 0.306161 
55.898136 0.049275 
55.985119 0.053008 
56.489929 0.0536 
57.070282 0.049707 
57.593506 0.045538 
58.951698 0.051927 
59.901012 0.047161 
60.61903 0.057194 
61.231167 0.051169 
61.33691 0.045813 
63.457878 0.048187 
63.878994 0.057338 
64.071846 0.054371 
64.452194 0.057226 
64.490303 0.050144 
65.038696 1.09332 
65.066666 0.043853 
65.531845 0.051628 
66.033936 0.494257 
66.526237 0.051663 
67.05426 0.708033 
67.621002 0.047807 
68.118103 0.05096 
68.97258 0.052288 
69.069954 0.116361 
69.70256 0.049742 
71.830872 0.053288 
72.044312 0.072875 
72.056709 0.047794 
72.158226 0.055165 
72.775711 0.04931 
72.93219 0.049985 
74.097168 0.049778 
74.097794 0.049012 
74.098427 0.044916 
74.455612 0.055517 
75.708878 0.049578 
76.42115 0.052592 
77.038788 0.07339 
77.899422 0.052589 
79.05423 3.969399 
80.049408 2.041648 
80.106544 0.04963 
80.59613 0.052971 
81.033478 0.055014 
81.069801 0.563631 
81.376282 0.058136 
82.003807 0.067006 
82.029068 0.106975 
82.789383 0.052988 
83.15197 0.05876 
84.040337 0.057674 
85.528763 0.05426 
86.19239 0.057308 
86.805336 0.056701 
87.022919 0.051092 
87.027771 0.053838 
89.038536 0.067181 
89.50975 0.054356 
91.054192 2.545809 
91.466469 0.05192 
92.049461 3.508406 
92.61908 0.050447 
92.802147 0.058667 
93.069824 0.802141 
93.580238 0.0474 
93.721832 0.047172 
95.049126 0.112988 
96.044189 0.116759 
96.14006 0.051668 
96.142677 0.047388 
97.481567 0.045235 
99.087982 0.056799 
99.570724 0.052645 
100.655609 0.053627 
103.427361 0.051812 
103.868126 0.056878 
103.886032 0.052009 
103.913605 0.05899 
104.049072 0.115489 
104.391731 0.044639 
105.069862 2.413281 
105.821213 0.064439 
106.06517 4.807785 
106.37484 0.057509 
106.401573 0.061944 
107.085503 0.482853 
107.504906 0.050522 
108.080643 0.656257 
109.052254 0.182398 
110.060104 18.433084 
111.06324 0.418189 
112.18824 0.047462 
115.054253 1.887491 
116.049446 0.527526 
116.544441 0.048173 
117.057152 0.210621 
117.069771 1.309778 
118.065033 1.045472 
119.060593 0.071535 
119.073029 7.387302 
119.085579 0.057238 
119.257584 0.060217 
119.468842 0.050943 
120.076363 0.098125 
120.080734 1.708904 
120.898254 0.052104 
121.061188 0.048995 
124.039299 0.061781 
125.027298 0.054958 
125.698799 0.050279 
126.055038 0.439238 
128.061996 1.211811 
129.069855 3.162102 
130.065033 1.182739 
130.073105 0.079552 
131.085419 0.328435 
132.044388 0.68786 
132.08075 0.711637 
133.052155 1.070712 
134.060013 4.118622 
134.096436 25.416203 
135.055237 3.90628 
135.099426 1.675961 
135.104492 0.467448 
136.075653 0.343674 
137.070816 2.052869 
139.604477 0.0639 
140.049423 0.190108 
140.345078 0.052028 
140.403152 0.04845 
141.069717 1.584382 
142.065094 1.198113 
142.077835 3.381502 
143.060516 0.369429 
143.073013 0.281483 
143.085678 2.92997 
144.08078 0.935606 
145.036606 0.055319 
145.064789 0.073476 
146.059967 2.626048 
146.860596 0.055472 
147.067917 0.227333 
149.293808 0.046871 
152.061966 1.159107 
153.069916 4.900745 
154.065125 5.344475 
154.078186 0.072856 
155.060425 0.244812 
155.072906 2.074703 
155.085419 2.769345 
156.080811 3.381579 
156.093185 0.524115 
157.076691 0.178605 
157.088562 1.401045 
157.101089 0.702928 
158.060028 6.217561 
158.096466 0.627931 
159.06279 0.054985 
160.06308 0.880822 
160.075562 2.632125 
161.070938 5.295465 
161.33223 0.055001 
161.481049 0.051264 
165.069809 9.947698 
166.065613 5.876141 
166.077774 17.184662 
166.340195 0.058877 
167.073013 1.222064 
167.080399 1.108121 
167.086334 0.220951 
168.068253 0.065778 
168.080872 9.517529 
168.093307 2.073898 
169.075821 2.582401 
169.088898 8.100313 
169.101151 0.576799 
170.059998 4.737131 
170.096725 6.4571 
171.098648 0.068158 
171.104446 0.307458 
171.116516 0.078421 
172.075668 4.903686 
172.082977 0.080751 
172.111862 2.019222 
173.070862 1.944997 
173.852631 0.060503 
174.078903 0.08166 
175.086746 0.480322 
176.976883 0.052429 
177.057236 0.099214 
178.065048 5.712602 
178.676208 0.056063 
179.073059 0.47188 
179.085464 7.969753 
180.080856 8.760041 
180.088882 0.742878 
181.088638 0.577063 
181.101166 22.412474 
182.060135 8.867294 
182.073776 0.067841 
182.096313 4.578887 
182.104736 2.4029 
183.068192 7.725656 
183.076767 0.079085 
183.091339 0.178357 
183.104416 8.325637 
183.114105 0.085204 
183.129837 0.055031 
184.075775 20.32262 
184.112549 3.506684 
185.070648 2.475498 
185.0793 2.122227 
185.119232 0.133164 
186.091309 1.217255 
187.086609 15.357669 
188.090393 0.536561 
190.065002 0.671374 
190.077881 0.055058 
191.072922 4.035673 
191.085236 0.940942 
191.678085 0.055631 
192.080841 6.973201 
192.090851 0.278058 
192.551559 0.05364 
193.08873 30.739862 
194.072586 1.372658 
194.091766 3.625571 
194.981598 0.0555 
195.06749 0.0638 
195.091599 1.417211 
196.075684 64.661087 
196.086578 0.740523 
196.111862 0.864881 
197.083878 33.964844 
197.119995 0.07214 
198.078354 0.065933 
198.092163 9.49478 
198.127731 5.681678 
199.086411 1.222208 
199.095184 0.479798 
199.131577 0.131459 
201.102264 1.115154 
202.344864 0.066324 
206.096497 7.198334 
207.103989 3.258023 
208.112183 29.993261 
208.123413 0.217317 
209.084259 1.400724 
209.096161 6.04021 
209.106567 0.7482 
209.115921 4.098116 
210.091415 100.0 
210.115082 1.237566 
211.099213 24.800325 
211.116669 0.076037 
212.09375 0.055907 
212.107117 6.730202 
213.10202 12.46392 
214.105515 0.916815 
216.911118 0.057322 
219.77832 0.404404 
219.786728 0.273436 
221.641891 0.054135 
223.257523 0.061496 
224.106979 22.104364 
225.110764 3.211562 
225.13829 0.328174 
226.122635 73.057724 
227.116974 43.674591 
228.123825 9.379098 
229.128983 0.533829 
235.088257 0.054164 
241.133713 0.135189 
243.149109 30.084927 
244.152725 4.914159 
248.092209 0.062515 
251.026016 0.054088 
251.422028 0.054937 
252.142227 0.059898 
259.162903 0.065407 
END IONS

