BEGIN IONS
PEPMASS=323.0
CHARGE=1+
COMPOUNDNAME=Massbank:KO008918 Chloramphenicol
LIBRARYQUALITY=3
SMILES=OC[C@H](NC(=O)C(Cl)Cl)[C@@H](O)c(c1)ccc(c1)[N+1]([O-1])=O
INCHIKEY=WIIZWVCIJKGZOK-IUCAKERBSA-N
INCHI=1S/C11H12Cl2N2O5/c12-10(13)11(18)14-8(5-16)9(17)6-1-3-7(4-2-6)15(19)20/h1-4,8-10,16-17H,5H2,(H,14,18)/t8-,9-/m0/s1
MSLEVEL=2
SOURCE_INSTRUMENT=ESI-LC-ESI-IT
FILENAME=Massbank_ESI_positive_8_1_2014_peaks.mgf
SEQ=*..*
IONMODE=Positive
ORGANISM=MASSBANK
NAME=Massbank:KO008918 Chloramphenicol [M+H]+
PI=Putative Massbank Match
DATACOLLECTOR=Massbank
PUBMED=N/A
SUBMITUSER=mwang87
TAGS=
SPECTRUMID=CCMSLIB00000221162
SCANS=10110
96.1 18.03 
97.0 13.05 
109.2 59.65 
111.1 59.75 
114.1 52.11 
115.9 27.72 
127.9 58.62 
131.1 195.86 
132.1 69.78 
139.0 47.62 
139.9 9.67 
149.0 35.1 
150.1 133.73 
161.2 13.49 
165.1 15.75 
166.1 41.82 
171.2 81.34 
173.0 77.11 
177.1 139.88 
178.1 108.08 
180.2 48.31 
187.2 99.64 
188.1 10.56 
195.1 205.32 
206.0 52.67 
208.2 105.76 
211.1 55.06 
218.0 215.04 
221.0 52.55 
229.2 16.26 
234.0 22.11 
235.0 184.48 
237.1 33.18 
241.0 2725.58 
246.0 34.77 
247.1 121.93 
253.3 77.14 
258.0 21.13 
262.0 75.44 
265.1 13.41 
273.2 95.08 
275.0 40118.89 
275.8 21.1 
277.9 8.62 
279.0 226.31 
280.0 19.98 
282.9 159.18 
287.0 1657.83 
291.1 48.29 
293.1 257.54 
297.9 70.49 
299.2 65.53 
304.2 1596.06 
305.0 356985.88 
306.0 4905.31 
307.1 2333.3 
308.2 851.61 
309.6 71.85 
310.4 95.0 
311.6 643.08 
312.5 125.45 
313.7 63.83 
316.8 81.88 
317.8 280.99 
321.2 30.75 
322.2 661.09 
323.1 2044.69 
324.2 77.45 
325.1 503.47 
325.8 9.33 
327.0 111.88 
327.9 79.06 
329.6 70.23 
341.4 55.6 
346.2 100.9 
347.1 149.86 
348.6 12.77 
END IONS

