BEGIN IONS
PEPMASS=280.155
CHARGE=1+
COMPOUNDNAME=MoNA:2875920 Cycloheximide
LIBRARYQUALITY=3
SMILES=N/A
INCHIKEY=YPHMISFOHDHNIV-UHFFFAOYSA-N
INCHI=InChI=1S/C15H23NO4/c1-8-3-9(2)15(20)11(4-8)12(17)5-10-6-13(18)16-14(19)7-10/h8-12,17H,3-7H2,1-2H3,(H,16,18,19)
MSLEVEL=2
SOURCE_INSTRUMENT=LC-ESI-QTOF-LC-ESI-QTOF
FILENAME=output_mgf.mgf
SEQ=*..*
IONMODE=
ORGANISM=MONA
NAME=MoNA:2875920 Cycloheximide [M-H]-
PI=MoNA
DATACOLLECTOR=MoNA
PUBMED=N/A
SUBMITUSER=mwang87
TAGS=
SPECTRUMID=CCMSLIB00000569352
SCANS=6603
110.0239 100.0 
110.0453 2.929099 
110.0587 3.503969 
110.0761 1.478237 
110.1032 0.711744 
110.1224 1.560361 
111.0461 2.436354 
112.0394 15.192992 
113.0191 3.038598 
121.8877 1.313989 
123.0809 7.99343 
123.0941 0.57487 
125.0967 54.202026 
125.1175 0.602245 
125.1317 3.202847 
125.1468 0.958117 
125.1613 0.793868 
125.2844 0.57487 
125.4624 0.629619 
137.0247 1.040241 
151.1127 18.669587 
152.8844 0.602245 
154.0497 76.485081 
154.0878 2.956474 
154.1292 0.684369 
154.1663 1.122365 
154.3352 0.602245 
167.102 0.875992 
167.4392 0.848618 
168.1368 1.231864 
177.127 5.474952 
193.1304 0.684369 
220.1407 1.040241 
262.136 0.57487 
END IONS

