BEGIN IONS
PEPMASS=526.172
CHARGE=1+
COMPOUNDNAME=DAUNORUBICIN
LIBRARYQUALITY=3
SMILES=N/A
INCHIKEY=STQGQHZAVUOBTE-VGBVRHCVSA-N
INCHI=InChI=1S/C27H29NO10/c1-10-22(30)14(28)7-17(37-10)38-16-9-27(35,11(2)29)8-13-19(16)26(34)21-20(24(13)32)23(31)12-5-4-6-15(36-3)18(12)25(21)33/h4-6,10,14,16-17,22,30,32,34-35H,7-9,28H2,1-3H3/t10-,14-,16-,17-,22+,27-/m0/s1
MSLEVEL=2
SOURCE_INSTRUMENT=N/A-ESI-QFT
FILENAME=library_mgf.mgf
SEQ=*..*
IONMODE=negative
ORGANISM=MONA
NAME=DAUNORUBICIN [M-H]-
PI=MoNA
DATACOLLECTOR=MoNA:VF-NPL-QEHF003436
PUBMED=N/A
SUBMITUSER=mwang87
TAGS=
SPECTRUMID=CCMSLIB00004694499
SCANS=3436
50.045906 0.02051 
50.149132 0.017841 
51.470589 0.020266 
51.541088 0.015865 
51.715801 0.017574 
51.765118 0.022607 
52.800613 0.013968 
53.004028 0.015133 
53.116905 0.014908 
53.149536 0.016185 
53.603821 0.012751 
53.914558 0.014178 
55.694874 0.02474 
55.798103 0.018018 
55.805843 0.026449 
55.955151 0.022378 
56.299141 0.018555 
56.39526 0.013029 
56.414539 0.01462 
56.480412 0.014446 
56.745548 0.025989 
57.165203 0.014265 
57.197319 0.01328 
57.434902 0.019378 
57.473415 0.018528 
57.580864 0.023756 
58.707718 0.013096 
58.724121 0.02294 
58.844116 0.018163 
58.919807 0.016317 
59.012455 4.310894 
59.269394 0.021355 
59.806408 0.02323 
59.870121 0.023402 
59.899094 0.021573 
60.156033 0.014404 
60.418259 0.017265 
61.090252 0.022228 
61.156956 0.020536 
61.527126 0.019851 
61.801453 0.028813 
62.085941 0.012673 
62.117256 0.02384 
62.989189 0.015527 
64.696373 0.019924 
64.887085 0.01475 
65.403313 0.020949 
65.458672 0.019547 
67.086983 0.021178 
67.137794 0.021203 
67.399048 0.025845 
67.945259 0.014298 
69.057098 0.026388 
69.159355 0.012837 
69.859131 0.016489 
70.245613 0.015302 
71.465591 0.015416 
72.195389 0.013798 
72.565315 0.026648 
72.679443 0.029687 
72.800217 0.014117 
73.008667 0.023651 
74.207916 0.016687 
75.303131 0.015593 
75.361626 0.029116 
75.467163 0.015578 
75.610405 0.017469 
75.699883 0.024056 
75.935112 0.018907 
75.96093 0.014399 
76.279694 0.013723 
76.300537 0.016426 
76.390709 0.013773 
77.388374 0.014652 
77.499191 0.015065 
78.517029 0.014676 
80.346558 0.022538 
80.533257 0.013629 
80.610367 0.029378 
81.163879 0.022766 
81.733482 0.015451 
82.637054 0.014599 
82.80014 0.014661 
83.012466 1.586383 
84.067413 0.02232 
84.422455 0.015583 
85.028091 0.213919 
86.333618 0.015931 
86.476311 0.014516 
88.601295 0.014417 
89.058708 0.013819 
90.073425 0.01597 
91.445351 0.023299 
91.452896 0.022119 
91.715469 0.012825 
91.901054 0.014229 
92.454292 0.02888 
93.30542 0.014201 
95.74527 0.022909 
96.51799 0.023276 
96.696381 0.014744 
97.442459 0.026874 
98.045311 0.021572 
99.682922 0.013974 
100.363052 0.018787 
101.03875 0.017838 
101.325722 0.017857 
102.838493 0.021178 
103.30304 0.014828 
104.975868 0.014566 
104.999527 0.020008 
106.59446 0.025576 
107.077637 0.020502 
108.482704 0.017635 
109.593452 0.014178 
110.555748 0.02319 
111.025948 0.021857 
112.128166 0.023299 
112.542328 0.016954 
114.030708 0.021791 
114.046852 0.015069 
114.544815 0.02595 
114.868835 0.026654 
116.046326 0.014496 
116.633804 0.022512 
122.650375 0.025547 
122.808907 0.019736 
126.330383 0.025366 
126.627243 0.013951 
127.917938 0.015712 
129.011353 0.018835 
129.034851 0.019092 
130.863892 0.01715 
131.076523 0.013105 
133.570297 0.01503 
134.387253 0.024766 
139.266113 0.015224 
139.761322 0.015377 
141.157562 0.019102 
141.300613 0.022277 
145.079605 0.027376 
146.595047 0.020802 
147.466827 0.019032 
152.602661 0.012803 
153.11087 0.024341 
154.864197 0.02189 
159.957626 0.020196 
160.185013 0.023655 
160.366302 0.013842 
165.554077 0.025388 
169.216919 0.015038 
171.086166 0.023492 
171.559448 0.013977 
171.778839 0.023839 
173.457062 0.023914 
177.148605 0.024948 
178.029541 0.022048 
178.354935 0.017735 
178.726334 0.017674 
178.820053 0.022371 
182.854446 0.01488 
187.125153 0.018609 
188.863312 0.014906 
189.480835 0.020616 
193.738739 0.01492 
193.823593 0.024498 
197.035217 0.018855 
199.187057 0.014894 
201.043991 0.01343 
201.054901 0.07463 
202.408142 0.022057 
204.406403 0.01745 
208.115356 0.014596 
211.716934 0.021086 
211.737244 0.020828 
213.176895 1.127626 
213.183655 0.997625 
213.199127 1.16403 
216.832352 0.022173 
217.683945 0.025724 
219.423325 0.029344 
221.929855 0.030738 
227.571274 0.02159 
229.730408 0.023153 
230.125183 0.016908 
235.594757 0.017217 
235.747375 0.023814 
237.758408 0.017517 
238.952225 0.026482 
240.33139 0.017205 
251.823273 0.021072 
252.686417 0.022894 
256.614777 0.014988 
268.520355 0.015954 
269.045593 0.239145 
269.820312 0.013389 
269.909332 0.028954 
270.238068 0.018103 
277.050323 0.240595 
278.058472 0.024798 
279.067566 0.024454 
280.421173 0.02558 
281.879517 0.025076 
283.06134 0.646471 
284.068726 0.417784 
284.338806 0.022919 
285.633209 0.023884 
286.101349 0.029559 
290.05838 0.312722 
291.066559 2.580194 
292.037811 5.315321 
292.073486 1.056995 
292.717834 0.028688 
292.974274 0.023398 
293.045441 8.503638 
293.081757 0.092743 
294.052856 3.904425 
295.060181 1.660439 
295.407227 0.014641 
299.516052 0.016959 
301.050476 0.062091 
302.058258 0.759829 
304.019104 0.015855 
304.03772 2.019805 
305.044983 1.619711 
305.081635 1.038068 
306.052307 0.122028 
306.086365 0.039561 
307.025238 0.031864 
307.061432 11.658123 
307.096466 0.57831 
308.03299 0.088717 
308.068695 9.161789 
309.076813 18.579531 
310.047638 0.016066 
310.080444 2.919089 
311.081421 0.047587 
312.494415 0.014192 
313.79718 0.018201 
315.066376 0.042947 
315.105164 0.017081 
316.297791 0.015415 
317.044891 0.136021 
317.081879 0.989732 
318.053558 4.697933 
319.061188 20.383854 
320.032806 1.005069 
320.066925 6.69386 
321.040588 74.388756 
321.075623 1.940418 
322.046265 24.135773 
322.079163 0.035111 
323.055145 5.327556 
323.091583 0.258948 
324.060211 0.337906 
325.0466 0.014703 
328.037262 0.098035 
329.044861 0.019153 
332.068787 0.047504 
333.076965 5.484247 
333.972992 0.013651 
334.047272 0.029378 
334.081177 1.15636 
335.056427 45.977188 
335.09201 2.385367 
336.063812 100.0 
337.044617 0.028981 
337.070892 52.512619 
338.074768 7.307535 
339.076721 0.07522 
343.061157 2.496084 
343.539764 0.026339 
344.065491 0.212571 
344.734772 0.024746 
345.040619 0.413822 
345.075562 0.024739 
346.048248 13.904888 
347.054535 5.522374 
348.060364 0.293405 
349.035553 7.192242 
349.071777 0.564117 
349.953918 0.014855 
350.039795 1.498001 
350.078705 0.341382 
351.051392 2.387954 
351.087311 4.408446 
352.055206 0.175305 
352.090942 0.627149 
361.072052 50.019463 
362.075714 11.217345 
363.051666 8.286816 
363.078217 0.964155 
364.058838 22.705952 
365.065704 14.978773 
366.069672 1.553975 
378.074585 4.980176 
379.082214 34.02335 
380.087708 11.317121 
381.061646 1.621372 
381.091827 1.095665 
382.06488 0.050139 
386.506561 0.02632 
396.085175 3.407976 
397.088684 0.195915 
448.176178 0.028429 
451.165192 0.018202 
454.326721 0.019079 
485.756775 0.01908 
486.411438 0.026538 
495.359711 0.021675 
510.52597 0.028138 
511.858612 0.021474 
512.872864 0.028719 
543.544373 0.028445 
544.809998 0.022281 
547.213623 0.015636 
END IONS

