BEGIN IONS
PEPMASS=273.076
CHARGE=1+
COMPOUNDNAME=naringenin
LIBRARYQUALITY=3
SMILES=N/A
INCHIKEY=FTVWIRXFELQLPI-ZDUSSCGKSA-N
INCHI=InChI=1S/C15H12O5/c16-9-3-1-8(2-4-9)13-7-12(19)15-11(18)5-10(17)6-14(15)20-13/h1-6,13,16-18H,7H2/t13-/m0/s1
MSLEVEL=2
SOURCE_INSTRUMENT=N/A-ESI-QTOF
FILENAME=library_mgf.mgf
SEQ=*..*
IONMODE=positive
ORGANISM=MONA
NAME=naringenin [M+H]+
PI=MoNA
DATACOLLECTOR=MoNA:VF-NPL-QTOF002118
PUBMED=N/A
SUBMITUSER=mwang87
TAGS=
SPECTRUMID=CCMSLIB00004719914
SCANS=2115
41.040901 0.360283 
55.019001 0.482299 
61.013699 0.37254 
65.0382 0.352667 
67.015099 0.424824 
67.021103 0.615908 
68.996201 0.461729 
69.002403 0.262196 
69.030701 0.51461 
69.037102 0.329094 
79.017601 0.357374 
91.0522 0.531645 
91.056198 1.453625 
95.046997 0.478607 
107.045799 1.025676 
107.051804 1.03001 
111.006401 0.652837 
111.010902 0.31447 
119.0438 0.965621 
119.048698 7.76991 
119.052498 0.545889 
121.054802 0.283055 
121.065498 0.28208 
123.038902 1.180464 
123.044403 3.100327 
123.070801 0.275486 
146.990799 0.424847 
147.044098 51.160583 
147.096497 0.349718 
147.102402 0.361084 
147.109406 0.288678 
147.125 0.707404 
147.144608 1.011117 
147.156998 0.765994 
147.185501 0.602049 
147.195602 0.305351 
147.213104 0.319946 
147.224396 0.414445 
147.249603 0.288655 
147.261002 0.338593 
147.2742 0.277865 
147.308807 0.265464 
147.356903 0.263246 
147.468994 0.293106 
150.949005 0.418593 
151.001602 0.43258 
151.034302 0.613378 
151.043106 0.613694 
153.018005 100.0 
153.079102 0.88917 
153.097504 0.504536 
153.1073 0.625121 
153.116104 0.369071 
153.126801 2.301863 
153.155106 0.637948 
153.165298 0.835455 
153.180099 0.54866 
153.190704 0.679582 
153.204697 0.400898 
153.218002 0.426724 
153.228806 0.61633 
153.243301 0.383774 
153.253998 0.452358 
153.276306 0.326828 
153.297699 0.440074 
153.322006 0.359319 
153.339401 0.288936 
153.352707 0.533842 
153.362701 0.302971 
153.378296 0.310224 
153.393097 0.328933 
153.417496 0.284228 
153.430298 0.428765 
153.492096 0.262971 
153.505997 0.266695 
153.6315 0.302136 
153.767303 0.260044 
161.055405 0.35762 
164.870895 0.340527 
179.023407 0.31431 
179.032303 1.007085 
189.049301 0.98836 
194.937607 0.387189 
194.983597 0.337139 
195.082397 0.268304 
231.060104 0.67713 
231.072693 0.289308 
255.066406 0.732916 
273.075104 23.45155 
273.151001 0.839167 
273.173492 0.518071 
273.191986 0.48181 
273.223999 0.679721 
273.263794 0.407572 
273.281708 0.269904 
273.317291 0.261288 
273.34021 0.325142 
273.444702 0.364806 
1479.109985 0.268339 
END IONS

