BEGIN IONS
PEPMASS=299.197
CHARGE=1+
COMPOUNDNAME=Isocycloheximide
LIBRARYQUALITY=3
SMILES=N/A
INCHIKEY=YPHMISFOHDHNIV-UHFFFAOYSA-N
INCHI=InChI=1S/C15H23NO4/c1-8-3-9(2)15(20)11(4-8)12(17)5-10-6-13(18)16-14(19)7-10/h8-12,17H,3-7H2,1-2H3,(H,16,18,19)
MSLEVEL=2
SOURCE_INSTRUMENT=N/A-ESI-QFT
FILENAME=library_mgf.mgf
SEQ=*..*
IONMODE=positive
ORGANISM=MONA
NAME=Isocycloheximide [M+NH4]+
PI=MoNA
DATACOLLECTOR=MoNA:VF-NPL-QEHF023912
PUBMED=N/A
SUBMITUSER=mwang87
TAGS=
SPECTRUMID=CCMSLIB00004714975
SCANS=23912
50.076168 0.216423 
50.91349 0.175656 
51.326176 0.143698 
51.329861 0.204069 
53.148094 0.122434 
53.458946 0.12708 
53.55563 0.235829 
53.602062 0.229693 
53.870178 0.238732 
55.018147 0.717299 
55.054577 7.584014 
57.033817 7.184525 
57.070248 0.763376 
57.389839 0.206942 
57.927341 0.325202 
59.027237 0.178433 
60.044636 2.238795 
60.267612 0.227747 
60.563591 0.235797 
61.010906 7.072696 
62.01862 0.230388 
62.74287 0.141438 
62.990124 0.212413 
63.42585 0.195839 
63.607452 0.128826 
63.812119 0.229098 
66.327324 0.125441 
66.973412 0.229636 
67.054382 8.782872 
68.132225 0.248663 
69.033646 6.020203 
69.069992 15.684001 
69.519783 0.193745 
70.065193 0.242929 
70.072365 0.161469 
71.049309 0.338677 
72.146255 0.206548 
72.425575 0.129563 
72.937233 0.192805 
74.477837 0.234602 
76.250381 0.215913 
76.618469 0.20573 
78.011269 0.221614 
78.967064 0.901874 
79.021294 0.300984 
79.054291 16.402786 
79.073784 0.189792 
79.386932 0.192102 
80.057549 1.45597 
80.642265 0.249891 
81.033531 2.02255 
81.069923 21.091122 
81.725967 0.198956 
82.065254 0.638741 
82.073204 1.786238 
83.049217 10.366944 
83.085571 5.61626 
83.892014 0.248762 
84.044243 0.228091 
84.052666 0.556848 
84.696159 0.250638 
85.058899 0.177018 
85.064789 0.940488 
85.171356 0.125777 
87.044243 0.335503 
87.952919 0.248673 
88.468582 0.26997 
88.569633 0.267503 
89.059776 20.675072 
89.844109 0.137771 
91.054337 11.101662 
91.237129 0.229705 
92.057716 0.966883 
93.033531 1.235018 
93.069969 15.264653 
93.747108 0.222497 
93.926842 0.107229 
94.073326 1.256272 
95.012817 0.320885 
95.049187 19.911308 
95.085579 42.426373 
96.041191 1.018771 
96.044456 100.0 
96.052368 1.981982 
96.088951 9.402407 
96.091988 0.696186 
96.122162 0.221398 
96.835197 0.224361 
97.028488 3.181725 
97.041878 0.199573 
97.047829 29.0084 
97.050903 3.66147 
97.064903 4.580886 
97.10128 8.848436 
98.048531 0.797644 
98.051338 0.288645 
98.068268 0.250268 
99.044205 0.999002 
99.080429 0.404593 
99.379448 0.162799 
99.425385 0.239929 
99.824585 0.245067 
101.163345 0.223772 
102.929726 0.25841 
103.02375 0.109308 
105.069992 22.129107 
105.70829 0.197306 
105.848854 0.107283 
106.073303 2.844079 
107.018471 0.250567 
107.049255 23.824837 
107.085594 79.272141 
108.052429 4.527032 
108.088699 19.133459 
109.064842 4.90823 
109.092545 0.207807 
109.101234 12.201112 
110.067993 0.276624 
111.080414 2.028741 
111.967857 0.188814 
112.039398 11.408267 
112.043495 0.286861 
113.059769 2.91706 
113.594246 0.22854 
114.18679 0.225504 
115.74128 0.136609 
117.069939 13.891813 
118.073273 3.904322 
118.134315 0.176911 
118.670647 0.216429 
119.049698 0.25302 
119.08567 34.471413 
119.435822 0.200942 
120.088943 10.51544 
120.363228 0.225306 
120.713585 0.195624 
121.028465 30.193865 
121.064911 19.796734 
121.101326 16.739586 
122.03183 3.540932 
122.060158 1.077384 
122.068085 2.564341 
122.104584 0.753854 
123.044174 14.197792 
123.080498 69.119904 
124.047401 0.42063 
124.075714 0.81698 
124.083748 29.318924 
125.059814 6.806788 
125.096161 63.819485 
126.054985 6.024387 
126.063164 0.252937 
126.099365 13.155063 
126.103859 0.125361 
126.573151 0.241432 
127.075111 0.562678 
128.062851 0.189068 
128.070618 2.316671 
129.069702 2.562796 
129.074387 0.326426 
130.570404 0.210479 
130.716995 0.215114 
130.811935 0.208904 
131.049133 0.234372 
131.085556 17.138531 
131.374161 0.139828 
132.088837 4.584049 
133.064911 4.319023 
133.08606 1.360449 
133.101242 12.733588 
134.104431 1.680902 
134.97052 0.223662 
135.043991 1.729652 
135.08046 7.340824 
135.116959 1.964098 
136.083511 0.689971 
137.059769 1.559567 
137.096191 1.322072 
137.239487 0.208068 
138.054977 11.847998 
138.091125 0.791342 
138.099258 0.242051 
139.075378 2.401111 
139.111755 0.544193 
140.070694 9.805454 
140.078506 0.307346 
141.054642 3.715886 
141.070038 0.357203 
142.049377 0.193906 
142.077805 0.796829 
143.085648 45.296448 
144.088669 15.919893 
145.064865 4.611897 
145.092453 0.253114 
145.101379 20.620544 
145.107101 0.147109 
146.067673 0.230232 
146.098755 0.247539 
146.104675 7.945678 
147.08046 10.105672 
147.116791 2.926544 
147.676041 0.216673 
148.075775 0.291781 
148.08345 0.480547 
148.956116 0.416442 
149.05983 8.437298 
149.096161 2.443958 
149.132507 2.116589 
149.954147 0.300028 
150.055145 2.153423 
150.062851 0.511688 
150.944656 0.164375 
150.951157 21.641891 
151.039047 0.207466 
151.075439 2.67181 
152.070892 0.638993 
153.05455 1.740533 
153.620682 0.102372 
154.266739 0.107108 
155.070358 3.106935 
155.085587 2.594704 
156.065521 3.070034 
157.101196 57.819443 
157.859818 0.214277 
158.104401 35.473816 
159.080414 11.943322 
159.109467 4.839195 
159.116898 92.537788 
160.029877 0.230986 
160.083878 2.202211 
160.12001 46.413715 
160.971588 0.111733 
161.089249 0.281377 
161.096268 14.313673 
161.123749 3.646912 
161.132523 2.93825 
162.091812 0.243611 
162.099396 1.622735 
162.135666 0.70442 
163.075333 5.274117 
163.111618 9.451385 
164.071091 0.331274 
164.078583 1.14393 
164.115097 1.46638 
164.501724 0.240417 
165.054474 0.824221 
165.091049 5.792224 
165.255478 0.128806 
166.086334 1.018821 
166.094254 1.018631 
167.070282 5.371022 
168.065582 1.345893 
168.073715 1.29752 
168.093414 1.361656 
168.961731 5.413568 
169.101517 22.135967 
169.567612 1.631474 
169.803177 0.161348 
170.081223 5.147548 
170.09671 5.11769 
170.104706 11.708578 
170.754517 0.160699 
171.085342 0.835076 
171.108475 0.261935 
171.116974 0.703421 
171.314926 0.245925 
172.084427 0.7456 
172.119888 0.227764 
172.814026 0.111704 
173.096191 3.22322 
173.132584 62.373459 
173.140854 0.24097 
174.099701 1.920516 
174.13591 36.989033 
174.274155 0.214814 
175.104187 0.284199 
175.111832 12.819676 
175.139664 3.057487 
175.148041 0.693973 
175.35347 0.185991 
175.493668 0.196216 
176.115417 4.684295 
177.09108 3.527812 
177.119705 0.547887 
177.127426 39.993408 
178.093826 0.325766 
178.124054 0.629063 
178.130753 18.359844 
178.572586 3.009979 
179.133942 0.23588 
180.10202 1.128436 
180.607758 0.246301 
183.116928 42.866196 
184.044281 3.533423 
184.120377 27.198368 
185.096115 43.628017 
185.123856 2.790966 
185.132797 0.560827 
185.591263 0.108801 
186.099518 33.144173 
186.128052 0.776194 
187.075302 0.595545 
187.10318 5.493267 
187.111816 74.292747 
188.106384 0.26084 
188.115234 47.679058 
188.561844 0.242359 
189.091064 15.295758 
189.118607 6.031265 
189.127411 0.24733 
190.086044 0.601182 
190.094482 1.241007 
190.131531 0.247499 
190.293076 0.255565 
191.106537 0.537845 
191.143066 7.078398 
192.146988 0.601641 
193.050049 0.584862 
193.086288 1.979473 
194.105667 0.165997 
194.328094 0.185409 
199.111786 1.749531 
200.143112 0.718228 
201.127502 69.669464 
202.131042 41.385567 
203.10672 8.551077 
203.134216 2.827329 
203.143631 1.645961 
204.110535 2.846948 
204.138168 4.10641 
204.147568 0.322252 
205.086258 0.560075 
205.122482 42.663601 
205.142242 0.825104 
206.126144 24.019865 
206.977982 6.800247 
207.101852 0.754505 
207.129288 2.722822 
210.043839 0.211228 
211.086777 2.790079 
211.111847 9.47147 
211.377441 0.105195 
212.023102 0.710447 
212.11557 6.699068 
212.217941 0.254234 
213.118362 0.47492 
214.158539 0.109405 
215.22905 6.311212 
217.122543 2.24788 
218.154221 9.181701 
219.138123 38.139481 
219.157288 0.666015 
220.131577 2.621066 
220.142624 18.541471 
220.406784 0.227626 
221.117584 1.735333 
221.145126 2.003552 
222.587769 0.238567 
223.086136 0.299684 
228.138458 8.468072 
229.122437 59.081223 
229.142075 1.424422 
230.033936 4.508303 
230.125977 42.424091 
231.129272 13.404162 
232.13385 0.18559 
233.154114 1.457642 
234.157608 1.289466 
234.50177 0.244554 
234.899414 1.946454 
236.1642 0.203681 
237.148529 0.150965 
237.363937 0.252214 
239.721375 0.228178 
243.138077 1.598653 
244.142319 0.58293 
245.145676 0.128182 
246.149063 73.277718 
247.133041 77.569336 
247.152557 15.699464 
248.136871 32.619705 
248.15654 0.574044 
248.878448 0.164973 
249.139679 4.943845 
261.148621 3.926806 
262.152405 7.294328 
263.155487 0.263166 
263.239471 0.156928 
264.159393 21.327333 
265.143463 6.174457 
265.163574 1.753876 
266.148102 0.193541 
267.111786 0.50848 
267.926514 0.248001 
273.911591 0.122215 
278.056641 0.269613 
283.356873 0.236125 
283.515656 0.202824 
286.568878 0.241933 
296.508179 0.210792 
298.210876 0.294754 
298.346497 1.384512 
301.188721 0.27045 
317.454559 0.160439 
END IONS

