BEGIN IONS
PEPMASS=177.052
CHARGE=1+
COMPOUNDNAME=terrein
LIBRARYQUALITY=3
SMILES=N/A
INCHIKEY=MHOOPNKRBMHHEC-HZIBQTDNSA-N
INCHI=InChI=1S/C8H10O3/c1-2-3-5-4-6(9)8(11)7(5)10/h2-4,7-8,10-11H,1H3/b3-2+/t7-,8-/m0/s1
MSLEVEL=2
SOURCE_INSTRUMENT=N/A-ESI-QFT
FILENAME=library_mgf.mgf
SEQ=*..*
IONMODE=positive
ORGANISM=MONA
NAME=terrein [M+Na]+
PI=MoNA
DATACOLLECTOR=MoNA:VF-NPL-QEHF021226
PUBMED=N/A
SUBMITUSER=mwang87
TAGS=
SPECTRUMID=CCMSLIB00004712289
SCANS=21226
50.070221 0.004123 
50.106152 0.003933 
50.686115 0.007484 
50.744282 0.005134 
50.763638 0.005086 
51.074234 0.007141 
51.166729 0.006295 
51.634823 0.006324 
51.672211 0.004691 
52.004295 0.006047 
52.912037 0.002424 
53.080082 0.003959 
53.519756 0.002776 
53.975262 0.00594 
54.068027 0.004642 
54.211533 0.004043 
54.498348 0.005291 
54.655499 0.004581 
54.986008 0.098248 
54.987484 0.00595 
55.00518 0.003928 
55.207699 0.005901 
55.575554 0.003819 
55.634731 0.002628 
56.278126 0.006455 
56.64043 0.007034 
56.674194 0.005961 
56.762062 0.002914 
56.947414 0.00499 
56.965061 1.831388 
57.180637 0.002258 
57.187855 0.003492 
57.201561 0.00256 
57.332809 0.006472 
57.931362 0.004271 
57.96357 0.006705 
58.522163 0.004813 
58.988167 0.131273 
59.915371 0.006408 
60.014946 0.007939 
61.010853 0.072029 
61.113476 0.002974 
61.249947 0.00594 
62.018734 0.011679 
62.664478 0.006641 
63.142456 0.005858 
63.998013 0.008025 
64.142242 0.006275 
64.175095 0.003484 
64.544312 0.006191 
65.000626 0.003548 
65.070663 0.003954 
65.350357 0.00562 
65.417595 0.004769 
65.553246 0.00312 
65.891106 0.00274 
66.637177 0.003696 
66.904694 0.005994 
67.567009 0.005018 
67.993317 0.41582 
68.238846 0.004776 
68.487152 0.002647 
69.486908 0.010893 
69.626396 0.002568 
69.874298 0.003413 
70.065208 0.031081 
70.239174 0.007766 
71.951958 0.09347 
72.103714 0.006053 
72.878876 0.00792 
73.681137 0.005717 
73.721458 0.002709 
73.883148 0.00238 
74.293091 0.004124 
74.354637 0.002628 
74.595261 0.004285 
75.143692 0.005156 
75.278214 0.004033 
75.480911 0.003139 
75.507004 0.005517 
75.675018 0.005888 
75.715996 0.005752 
76.458939 0.002526 
76.627266 0.002392 
76.703789 0.007339 
76.996124 0.008347 
76.998177 0.970402 
77.287216 0.002656 
77.456558 0.002562 
77.597588 0.006535 
77.978897 0.002711 
77.996269 0.003923 
79.021217 1.252494 
79.932465 0.002867 
80.392754 0.005105 
80.581322 0.007604 
80.928001 0.002911 
81.017189 0.01602 
81.069839 0.012519 
81.764603 0.002543 
82.104538 0.005394 
82.129356 0.006853 
82.282265 0.002824 
82.920151 0.007618 
83.128342 0.003801 
83.922157 0.004034 
84.893929 0.006502 
85.281754 0.00279 
85.438103 0.023443 
85.783714 0.005062 
86.003593 0.475075 
86.086136 0.005737 
86.794235 0.002702 
86.940277 0.004199 
87.496597 0.006744 
87.574425 0.00451 
88.219193 0.003306 
88.409409 0.004367 
89.189278 0.004574 
89.287552 0.004196 
89.775917 0.004464 
89.808884 0.006022 
89.899574 0.006008 
89.979088 0.107826 
90.069397 0.004394 
90.482864 0.90434 
91.2696 0.002681 
91.480972 0.013199 
92.251251 0.003967 
92.692261 0.006995 
93.784851 0.003772 
93.969955 0.003697 
94.155991 0.005893 
95.00872 0.035316 
95.133965 0.005927 
95.808922 0.003092 
96.050995 0.006722 
96.736458 0.002853 
96.858078 0.006621 
97.035667 0.005365 
97.683144 0.005186 
97.990929 0.006264 
97.994629 4.345403 
98.008865 0.007004 
98.496559 0.042957 
98.598518 0.005118 
98.969666 0.016398 
98.975342 100.0 
98.99247 0.139586 
99.488152 3.076722 
99.505898 0.006652 
99.978668 2.031692 
99.990486 0.018051 
100.486115 0.214303 
100.900795 0.004209 
100.97139 0.234724 
100.979576 0.081322 
101.003143 2.631158 
101.008339 0.00759 
101.484589 0.003678 
101.82486 0.00688 
102.091919 0.006442 
102.614685 0.002643 
103.855179 0.004319 
103.861382 0.006391 
103.879135 0.002881 
104.197815 0.002464 
104.349533 0.007777 
104.551041 0.004357 
104.797592 0.006642 
106.968185 0.00677 
106.999893 32.779675 
107.385872 0.002516 
107.501923 1.303333 
107.848068 0.005337 
107.98951 0.036467 
107.997833 3.342999 
108.001846 0.207845 
108.284256 0.007204 
108.305779 0.005985 
108.493446 6.953633 
108.497665 0.085073 
108.823158 0.006823 
108.996284 0.807264 
109.028404 0.153191 
109.172768 0.003007 
109.317505 0.007159 
109.491409 0.651251 
109.495255 0.012611 
110.083115 0.005795 
110.353386 0.00484 
110.489975 0.0411 
110.841164 0.006298 
112.338547 0.004992 
113.070839 0.004048 
114.007782 0.432926 
115.204529 0.004612 
115.501434 0.027738 
115.997925 0.055281 
116.005234 75.336334 
116.07019 0.004081 
116.507217 3.085772 
116.690727 0.006706 
116.985886 25.581083 
117.003098 7.798574 
117.007278 0.661827 
117.05455 0.054133 
117.498734 1.492734 
117.504021 0.240539 
117.963593 0.006855 
117.98922 0.482961 
118.001572 1.921812 
118.496704 0.043614 
118.508026 0.008796 
118.982025 0.018195 
118.99012 0.031979 
118.999603 0.008454 
119.019409 0.003086 
119.454697 0.006277 
121.613167 0.006256 
122.361404 0.004867 
122.713066 0.002979 
122.758202 0.006554 
123.013031 1.500231 
123.141701 0.007401 
123.514687 0.013378 
123.636276 0.003982 
123.810791 0.004728 
123.974258 0.002737 
124.010887 0.039288 
124.989342 0.005176 
125.010498 7.821393 
125.271088 0.006646 
125.512085 0.265846 
125.613457 0.007062 
126.008347 0.809675 
126.012749 0.016003 
127.006882 0.102258 
127.513107 0.029701 
129.28006 0.004292 
129.489899 0.982384 
130.046707 0.004913 
130.06488 0.004506 
130.487747 0.064952 
130.971252 0.007026 
131.001556 0.419734 
132.01825 0.046795 
132.080734 0.16056 
132.464691 0.003684 
132.958145 0.183919 
134.557526 0.006963 
134.86644 0.005998 
134.978668 1.077736 
134.996399 3.289025 
135.130203 0.003984 
135.999756 0.005527 
136.011551 0.003113 
136.710754 0.007619 
136.974792 0.007288 
137.001633 2.697254 
137.059738 0.838393 
137.502991 0.072008 
137.840622 0.006244 
137.999512 0.302398 
138.063004 0.050988 
138.495178 2.08409 
138.997116 0.035877 
139.493057 0.234868 
140.491547 0.004869 
140.966904 0.002501 
142.775055 0.007299 
143.01088 0.004618 
143.082687 0.006506 
143.321426 0.002761 
143.563278 0.002513 
145.651001 0.006599 
146.006866 3.903989 
146.508255 0.210587 
146.557541 0.002557 
147.00473 0.576588 
148.003143 0.040249 
149.378036 0.007086 
149.726639 0.002883 
150.968826 0.016005 
152.989243 0.127122 
153.007233 0.011113 
153.736694 0.004042 
155.021301 0.004177 
155.166901 0.005745 
158.178925 0.006989 
158.180923 0.005647 
158.827057 0.005546 
159.076492 0.031163 
159.091492 0.008035 
160.455063 0.006805 
160.935364 0.038221 
161.965836 0.107995 
163.238693 0.004555 
163.951004 0.003123 
163.998932 0.064688 
164.681381 0.003959 
167.120575 0.006014 
168.679672 0.006264 
169.567841 0.004853 
171.030746 0.002815 
171.856094 0.006327 
172.044998 0.005583 
173.328247 0.005426 
173.799316 0.00598 
175.148087 0.00825 
175.506363 0.002816 
175.941223 0.004115 
176.070648 0.006644 
176.128067 0.135905 
176.382797 0.003492 
176.657639 0.006205 
176.989197 4.402588 
177.102203 0.218131 
177.992523 0.097025 
178.085724 0.003156 
178.105911 0.0032 
178.123932 0.011013 
178.133743 0.454833 
178.142822 0.022781 
178.21669 0.003444 
178.374466 0.005522 
178.945908 0.012382 
178.985168 0.039857 
179.117844 0.168222 
179.976166 0.01124 
184.718506 0.004661 
185.061508 0.003209 
186.588165 0.006722 
191.275436 0.002828 
192.139084 0.005284 
193.016953 0.020705 
194.999893 2.364054 
196.003845 0.019528 
196.038712 0.008645 
196.062485 0.006342 
196.995865 0.006171 
197.518097 0.005037 
199.509033 0.002574 
199.569427 0.005059 
END IONS

