BEGIN IONS
PEPMASS=910.492
CHARGE=1+
COMPOUNDNAME=MoNA:1030444 (5R,8S,11R,12S,15S,18S,19S,22R)-18-[(1E,3E,5S,6S)-6-methoxy-3,5-dimethyl-7-phenylhepta-1,3-dienyl]-1,5,12,15,19-pentamethyl-2-methylidene-8-(2-methylpropyl)-3,6,9,13,16,20,25-heptaoxo-1,4,7,10,14,17,21-heptazacyclopentacosane-11,22-dicarboxylic acid
LIBRARYQUALITY=3
SMILES=N/A
INCHIKEY=DIAQQISRBBDJIM-DRSCAGMXSA-N
INCHI=InChI=1S/C46H67N7O12/c1-24(2)21-35-44(60)52-38(46(63)64)28(6)40(56)47-29(7)41(57)49-33(18-17-25(3)22-26(4)36(65-11)23-32-15-13-12-14-16-32)27(5)39(55)50-34(45(61)62)19-20-37(54)53(10)31(9)43(59)48-30(8)42(58)51-35/h12-18,22,24,26-30,33-36,38H,9,19-21,23H2,1-8,10-11H3,(H,47,56)(H,48,59)(H,49,57)(H,50,55)(H,51,58)(H,52,60)(H,61,62)(H,63,64)/b18-17+,25-22+/t26-,27-,28-,29-,30+,33-,34+,35-,36-,38+/m0/s1
MSLEVEL=2
SOURCE_INSTRUMENT=LC-ESI-QFT-LC-ESI-QFT
FILENAME=output_mgf.mgf
SEQ=*..*
IONMODE=
ORGANISM=MONA
NAME=MoNA:1030444 (5R,8S,11R,12S,15S,18S,19S,22R)-18-[(1E,3E,5S,6S)-6-methoxy-3,5-dimethyl-7-phenylhepta-1,3-dienyl]-1,5,12,15,19-pentamethyl-2-methylidene-8-(2-methylpropyl)-3,6,9,13,16,20,25-heptaoxo-1,4,7,10,14,17,21-heptazacyclopentacosane-11,22-dicarboxylic acid [M+H]+
PI=MoNA
DATACOLLECTOR=MoNA
PUBMED=N/A
SUBMITUSER=mwang87
TAGS=
SPECTRUMID=CCMSLIB00000570370
SCANS=7621
65.0385 0.830351 
67.0542 0.806403 
68.0495 0.21848 
69.0334 3.130246 
69.0698 1.000161 
70.0651 0.949365 
74.0234 0.299783 
79.0542 6.389334 
80.0494 0.610334 
81.0699 0.919059 
82.0287 0.529545 
82.065 4.849717 
83.0491 0.219226 
84.0443 15.53185 
84.0806 1.23459 
85.0283 0.146915 
85.0649 0.211214 
86.0964 66.470625 
88.0393 0.131494 
89.0709 2.65687 
90.0549 0.182799 
91.0541 22.131163 
93.0698 13.668846 
94.065 1.086516 
94.0732 0.520186 
95.0491 3.188187 
95.0855 3.133963 
96.0807 1.304679 
97.0761 0.151357 
98.0601 0.120546 
99.0916 3.907003 
100.0757 0.516125 
101.0709 0.525015 
102.0549 3.093802 
103.0542 20.918027 
104.0575 0.572918 
105.0698 24.92807 
106.0732 0.745882 
107.0855 100.0 
108.0807 0.722421 
109.0647 2.061128 
109.1011 0.361537 
110.06 4.819377 
110.0962 0.261395 
112.0392 0.70178 
112.0756 1.086762 
112.1121 1.249189 
113.0235 0.97163 
113.071 0.432685 
114.0549 0.217989 
115.0542 2.643839 
116.0618 0.218671 
117.0698 10.450792 
119.0603 0.427011 
119.0855 3.518857 
120.0568 0.544064 
120.0806 0.633799 
120.0932 0.173831 
121.0646 1.164855 
121.0758 0.785596 
121.1011 2.227619 
122.0598 0.797921 
122.0964 1.990383 
123.0804 0.688092 
123.0917 0.735612 
124.0757 4.309642 
124.112 8.103042 
125.0709 0.895843 
125.1073 0.14114 
125.1153 0.139714 
126.0549 0.450166 
126.1271 0.112177 
127.0865 80.926325 
128.0623 0.863381 
128.0705 3.905305 
128.0899 2.558153 
129.0655 0.166159 
129.0696 2.450178 
130.0498 4.340987 
130.0651 0.595312 
130.0774 0.260566 
131.0854 7.714659 
131.1178 0.875263 
132.0809 0.786044 
132.0889 0.105696 
133.0648 0.527559 
133.1011 4.272351 
134.0964 0.23736 
134.1046 0.181719 
135.0804 90.23714 
135.1166 75.258342 
136.0758 1.086273 
136.0836 4.385268 
137.0708 0.30675 
137.0958 0.468368 
138.0547 18.110903 
139.0582 0.484448 
139.0863 0.755851 
140.0704 1.897563 
141.0651 0.279997 
141.0699 0.442822 
141.1019 1.078217 
142.0774 0.149592 
143.0855 5.228137 
145.1011 6.538727 
146.0964 3.219622 
146.1091 1.453257 
147.0802 0.666378 
147.0997 0.110898 
147.1168 0.731433 
148.0754 0.231266 
148.1117 0.128695 
149.0708 3.302619 
149.0959 0.18875 
150.0548 0.479693 
150.0912 0.547431 
150.1277 1.11241 
151.0864 1.108016 
152.0704 2.103948 
152.1069 0.771011 
153.1023 0.841181 
154.1225 0.145333 
155.0813 48.478275 
156.0653 3.442451 
156.0788 0.1908 
156.0844 1.728509 
157.1011 0.778604 
157.1334 7.966264 
158.0965 0.214223 
158.1369 0.226744 
159.0802 0.694171 
159.1167 2.831183 
160.1119 0.83837 
160.119 0.191301 
161.096 4.429616 
161.132 0.966811 
162.0911 0.425417 
162.0987 0.324411 
162.1276 3.077199 
163.1116 41.243795 
164.1148 2.635607 
165.1019 0.196378 
167.0812 21.219643 
168.0655 1.852937 
168.0846 0.747552 
169.1008 0.778464 
169.1335 0.221604 
170.0809 0.734896 
171.0801 1.441871 
171.1165 2.093174 
171.1491 0.19349 
172.1127 0.182299 
173.0917 30.583076 
174.0954 0.886197 
174.1036 0.950123 
175.1119 0.267655 
176.0703 0.563775 
176.1068 0.481214 
177.1015 0.19909 
178.0861 0.470783 
178.1224 0.733188 
178.135 0.62282 
179.0858 0.289263 
180.0932 0.396125 
180.1381 0.996844 
181.1016 2.33781 
181.1334 2.344906 
182.0812 0.914278 
183.0762 0.937728 
183.1168 0.822595 
183.1491 1.647205 
185.0923 0.562509 
185.1279 1.097362 
186.0761 0.21556 
186.0913 0.593176 
187.1116 1.316011 
188.107 1.426605 
188.1432 1.68455 
189.1273 0.498561 
190.1226 1.562424 
190.159 1.256862 
191.1071 0.206597 
192.0928 0.131554 
192.1134 0.133404 
193.0972 0.871577 
194.1087 0.449848 
194.165 0.806147 
195.0761 15.099372 
195.1165 3.397026 
196.0601 3.518804 
196.0794 0.731571 
196.1197 0.223893 
197.0631 0.131801 
197.1279 1.117789 
198.0753 0.137377 
198.1119 0.123528 
200.102 0.888599 
200.1432 0.306663 
201.0866 13.638492 
202.0901 0.225181 
202.1583 0.210955 
204.1378 0.353198 
206.1082 0.116037 
206.1537 0.192857 
207.1165 0.615569 
208.1244 0.213404 
209.1311 3.671721 
210.1234 0.191618 
210.1345 0.122217 
211.071 0.748318 
211.1079 0.181519 
212.1029 0.515861 
213.0867 62.781514 
214.0711 0.822559 
214.0906 2.54184 
215.1063 0.473741 
215.1391 0.180923 
216.1382 0.266643 
218.1131 2.372878 
218.1537 6.95112 
219.1575 0.514463 
220.1074 0.960439 
221.0921 0.9676 
222.1597 0.879416 
223.1076 1.268955 
225.1233 0.58338 
226.1587 7.441529 
227.162 0.724983 
228.1384 0.799657 
232.0963 0.645417 
232.1236 0.40187 
234.1486 0.503557 
235.1077 0.30684 
236.164 0.191355 
237.1233 1.312369 
237.1635 6.123656 
238.1177 0.219661 
238.1668 0.198745 
239.0659 6.065697 
239.1023 1.020967 
240.0688 0.212577 
240.1706 0.125469 
241.118 0.200295 
243.1338 5.084472 
244.1346 0.202443 
246.1485 5.034057 
247.1068 0.180977 
247.1474 0.835781 
248.1029 0.198335 
250.1548 0.761205 
251.1017 0.45315 
251.1384 1.054879 
251.1748 0.210568 
254.1893 0.483734 
256.1297 0.141907 
257.1282 0.438645 
258.185 1.521611 
259.1796 1.224687 
262.1433 0.191483 
263.2119 0.154766 
264.1581 0.191011 
264.1715 0.213949 
265.1584 1.603736 
266.1133 0.904021 
266.1622 0.209067 
267.0968 0.184756 
268.1652 1.414982 
269.1132 1.192103 
269.1489 0.165279 
279.1333 0.163745 
282.1851 1.125069 
284.1236 0.248015 
285.196 0.156259 
293.1127 0.858936 
294.1444 0.154041 
296.1604 0.136971 
297.1442 0.190556 
302.1498 0.194591 
306.1848 0.141416 
313.1884 0.186022 
319.2012 1.229334 
320.16 0.457352 
320.2005 0.662563 
329.1859 0.944009 
347.1964 1.476918 
375.1918 1.72773 
376.1947 0.239177 
384.2271 0.964429 
400.2228 0.181848 
END IONS

