BEGIN IONS
TITLE=Scan Number: 1644
PEPMASS=457.26001
CHARGE=0+
COMPOUNDNAME=Communesin A (identified trough in silico generated spectrum)
LIBRARYQUALITY=3
SMILES=CC(=O)N6CCC57(c8ccccc8(NC2N(C)c4cccc3C(C1OC1(C)(C))N(CCC25(c34))C67))
INCHIKEY=QKUUVGNHUMKUAN-UHFFFAOYSA-N
INCHI=
MSLEVEL=2
SOURCE_INSTRUMENT=LC-ESI-Hybrid FT
FILENAME=f.pmallard/Pexp/SecondScreen/ddMS2pos/150409_PMA_JJ1_27_12_ddMS2_pos.mzXML;
SEQ=*..*
NOTES=
IONMODE=Positive
ORGANISM=GNPS-LIBRARY
NAME=Communesin A (identified trough in silico generated spectrum) M+H
SPECTRUMID=CCMSLIB00000478120
ACTIVATION=CID
INSTRUMENT=ion trap
SCANS=1644
53.278046 117521.0 
55.827812 116786.929688 
63.65308 116459.476562 
65.920166 160369.609375 
65.926147 1206977.625 
71.534836 125620.085938 
130.065308 194039.234375 
144.081192 140934.96875 
156.080307 167318.71875 
156.741989 140467.390625 
159.091736 2435267.75 
168.081085 621874.0 
181.088943 589518.125 
183.091522 1311269.0 
184.099106 653435.4375 
185.107483 4414908.0 
195.272964 115894.101562 
197.107407 3139012.75 
197.123474 223355.71875 
198.115265 3915466.75 
199.123001 320808.6875 
201.102402 1552939.875 
210.12767 644095.0 
220.110748 148887.796875 
226.123444 210477.875 
237.140244 304645.4375 
238.122772 307516.40625 
238.146286 257046.875 
240.138336 166715.03125 
249.565979 117248.1875 
255.149185 1349307.25 
296.131592 171750.640625 
297.139557 227426.765625 
299.154968 211372.546875 
309.139801 587663.6875 
311.154663 219697.6875 
323.154175 1072079.0 
326.165619 765694.0625 
340.183167 558415.5 
341.164825 167458.578125 
358.192078 161133.578125 
363.185028 156370.625 
368.176849 304972.0625 
381.196289 1426964.25 
382.190002 893593.4375 
385.202301 41713340.0 
399.217285 1910727.75 
400.200806 147387.46875 
439.249451 778144.1875 
440.232727 703069.5 
457.261261 260186.609375 
END IONS

