BEGIN IONS
PEPMASS=299.197
CHARGE=1+
COMPOUNDNAME=Isocycloheximide
LIBRARYQUALITY=3
SMILES=N/A
INCHIKEY=YPHMISFOHDHNIV-UHFFFAOYSA-N
INCHI=InChI=1S/C15H23NO4/c1-8-3-9(2)15(20)11(4-8)12(17)5-10-6-13(18)16-14(19)7-10/h8-12,17H,3-7H2,1-2H3,(H,16,18,19)
MSLEVEL=2
SOURCE_INSTRUMENT=N/A-ESI-QFT
FILENAME=library_mgf.mgf
SEQ=*..*
IONMODE=positive
ORGANISM=MONA
NAME=Isocycloheximide [M+NH4]+
PI=MoNA
DATACOLLECTOR=MoNA:VF-NPL-QEHF023911
PUBMED=N/A
SUBMITUSER=mwang87
TAGS=
SPECTRUMID=CCMSLIB00004714974
SCANS=23911
51.09956 0.071826 
52.468632 0.062004 
52.962582 0.070296 
53.010956 0.07256 
53.11319 0.047399 
54.420769 0.064452 
54.810081 0.070548 
55.054604 0.56696 
55.323582 0.039914 
55.743317 0.067599 
56.933208 0.059915 
57.033813 3.73302 
57.07021 0.199592 
57.579617 0.071424 
57.877964 0.063613 
58.198242 0.061746 
58.865665 0.05849 
59.095055 0.082766 
60.044636 0.875895 
61.010914 1.886226 
61.336376 0.072691 
61.391148 0.061431 
63.074211 0.042209 
63.301189 0.06921 
64.087021 0.043028 
64.717262 0.03695 
65.229057 0.061945 
66.824997 0.056934 
67.035378 0.07414 
67.054413 1.226485 
67.268898 0.059101 
69.033623 0.946047 
69.07 3.538551 
69.295624 0.05752 
69.908623 0.057913 
69.986671 0.05829 
70.073296 0.097657 
70.076393 0.054978 
70.627708 0.029023 
71.049271 0.069515 
71.091064 0.060121 
71.438332 0.059454 
71.444298 0.066378 
71.792366 0.07241 
71.81456 0.051822 
72.312225 0.082129 
72.506676 0.086413 
74.218498 0.06891 
74.330826 0.054594 
75.584511 0.040934 
76.881393 0.059442 
76.996216 0.062123 
77.971794 0.087466 
78.96711 0.355307 
79.021263 0.207513 
79.054283 2.547929 
80.057648 0.247273 
80.5364 0.056322 
80.669678 0.078152 
81.033478 0.085297 
81.069916 5.95475 
82.065208 0.707738 
82.073296 0.257994 
83.049187 5.207027 
83.085533 2.020091 
83.483871 0.063178 
84.052612 0.541451 
84.088753 0.081684 
84.734085 0.06346 
85.0317 0.031077 
85.064957 0.319754 
85.222168 0.084676 
87.044189 0.377243 
88.090454 0.042735 
88.690086 0.079059 
89.059776 16.656237 
90.304741 0.036795 
90.339081 0.077012 
90.806885 0.076199 
91.054413 2.228592 
92.355797 0.064318 
92.974609 0.095431 
92.982765 0.476056 
93.069946 3.105567 
95.049187 5.081544 
95.082611 0.166346 
95.085564 13.932461 
96.044449 39.583954 
96.052315 0.509426 
96.055832 0.079213 
96.088913 2.975532 
96.091949 0.185575 
96.250732 0.045207 
97.028435 0.656868 
97.042015 0.186735 
97.047821 11.903085 
97.050903 1.736596 
97.064911 1.563804 
97.101234 4.750263 
97.615952 0.063193 
98.048576 0.551154 
98.068184 0.135297 
98.10466 0.093891 
98.108261 0.067047 
99.044029 0.168782 
99.080338 0.253176 
100.05677 0.058074 
101.721207 0.056991 
103.081055 0.069832 
103.47644 0.064975 
103.497894 0.067438 
105.07 5.56459 
105.344398 0.05751 
106.073273 0.847976 
106.280502 0.04913 
106.532211 0.031106 
106.811485 0.04985 
107.04924 5.657871 
107.070435 0.03636 
107.085609 28.868923 
107.392189 0.08376 
108.05246 0.607783 
108.088715 6.652335 
108.092255 0.743378 
108.375877 0.070713 
108.837837 0.081299 
109.064896 1.920635 
109.10125 4.599056 
109.560005 0.046445 
110.889343 0.0715 
111.043777 0.078156 
111.080544 1.039569 
112.039345 3.977991 
113.059715 2.873385 
113.063721 0.069755 
114.389465 0.066269 
114.782784 0.062501 
115.055489 0.070985 
115.758682 0.061846 
116.152954 0.064896 
117.069984 1.195451 
118.073433 0.142415 
118.497368 0.10527 
119.085617 9.472057 
119.416039 0.07227 
120.088921 2.204206 
120.296143 0.071553 
121.028511 8.745859 
121.064873 4.233198 
121.101257 6.211614 
122.031738 1.065376 
122.068031 0.41341 
122.104378 0.502182 
122.939285 0.115579 
123.044098 5.048866 
123.048378 0.07628 
123.080498 26.56072 
123.116837 0.323317 
123.674614 0.066812 
124.047516 0.508089 
124.075737 0.360334 
124.083748 11.663384 
124.955002 0.35273 
125.059792 4.139695 
125.08802 0.096348 
125.096191 35.632164 
126.055 1.967397 
126.06292 0.116636 
126.098892 8.808345 
127.039146 0.10107 
127.075447 0.874274 
127.111771 0.60895 
127.742569 0.066466 
128.062622 0.068898 
128.070694 0.599715 
129.054825 0.132297 
129.069733 0.081527 
131.085617 2.536236 
132.088898 0.565258 
133.007751 0.07265 
133.064941 0.787186 
133.085938 6.606182 
133.101257 3.078851 
134.104584 0.203755 
135.080429 1.171144 
135.11673 0.483654 
135.436005 0.078872 
135.876953 0.056353 
136.075912 0.090507 
137.059494 0.701068 
137.096191 0.470523 
137.266876 0.029019 
138.055038 3.729896 
138.062561 0.0707 
139.038834 0.092674 
139.075424 1.76698 
139.111588 0.312174 
139.61412 0.077985 
140.070679 6.265595 
140.078506 0.101116 
141.054626 3.365081 
141.073944 0.078711 
141.903534 0.039086 
142.05809 0.13167 
142.086533 0.317019 
143.070587 0.9162 
143.085587 20.406414 
143.294022 0.087302 
144.088623 9.124516 
144.30925 0.064539 
145.064774 0.798881 
145.101242 5.042359 
145.82811 0.068238 
146.104477 1.507028 
147.024567 0.07031 
147.080399 2.585002 
147.11673 1.03376 
148.083939 0.146604 
148.955887 0.388631 
148.972 0.182873 
149.059799 2.413726 
149.096268 0.381696 
149.132599 0.284158 
149.954208 0.43664 
150.055054 0.765113 
150.063065 0.218485 
150.091324 0.070737 
150.951141 12.064396 
151.038391 0.145812 
151.07547 2.694316 
152.070602 0.58464 
153.054642 1.26485 
153.091049 0.178937 
154.058167 0.08832 
154.086304 0.263175 
154.321136 0.081028 
155.070282 5.607033 
155.085556 0.232614 
156.065598 4.735808 
156.073196 0.971774 
157.068771 0.484004 
157.086044 0.097036 
157.101227 25.169828 
157.641159 0.053133 
157.853317 0.089059 
157.96637 0.081394 
158.104431 16.127232 
159.080444 2.877877 
159.109253 2.005726 
159.116867 31.588978 
160.083939 0.727596 
160.11998 17.246582 
161.096024 4.307586 
161.124084 1.806155 
161.132462 2.874664 
161.367401 0.062038 
162.099396 0.706539 
162.13591 0.708069 
163.075516 2.255062 
163.111847 2.358403 
164.070541 0.081271 
164.078339 0.168372 
164.107513 0.043692 
164.115494 0.192891 
164.188416 0.068204 
165.054581 0.40566 
165.091049 5.398719 
165.772507 0.030402 
166.086502 0.694157 
166.094498 2.61278 
167.070358 4.241374 
167.095978 0.083687 
168.065582 3.846134 
168.073273 0.805485 
168.101944 0.182806 
168.586899 0.058281 
168.96167 3.724256 
169.048752 0.091243 
169.068512 0.055354 
169.086243 1.075227 
169.101212 8.864152 
169.567337 1.398601 
170.081253 11.731043 
170.09639 2.283202 
170.104767 4.979387 
171.084991 9.852697 
171.09967 0.060384 
171.108292 0.176525 
171.116974 0.634057 
172.085663 2.727604 
173.096603 1.135826 
173.132584 27.80942 
174.099945 0.315715 
174.135864 16.733374 
174.189743 0.082129 
175.039139 0.514519 
175.075836 0.189459 
175.103775 0.154651 
175.11171 5.284093 
175.139816 1.410827 
175.148361 0.965635 
176.115311 2.248206 
176.151794 0.138254 
177.091019 1.191794 
177.112091 0.401385 
177.127365 16.902987 
178.09433 0.094105 
178.122375 0.212271 
178.130875 8.652142 
178.564835 0.069443 
178.572647 3.627699 
179.106598 0.254293 
179.134445 0.398595 
180.101913 0.741843 
181.086014 0.186599 
183.116959 16.67252 
184.044296 7.413709 
184.120361 11.847318 
185.086746 0.07289 
185.096161 20.870464 
185.123825 1.10555 
185.132675 0.278206 
186.099579 17.600801 
186.136246 0.093558 
186.265503 0.081421 
187.076065 0.066448 
187.103088 2.942673 
187.111786 31.443373 
188.106354 1.422785 
188.115234 22.438404 
189.091034 11.154107 
189.118866 3.609148 
189.127457 0.090151 
190.08606 0.684441 
190.094788 1.889352 
191.106583 0.538776 
191.143112 2.832062 
192.101807 0.674405 
192.146988 1.428868 
192.963745 0.055606 
193.049728 2.92102 
193.086029 3.626058 
193.122665 0.235089 
194.117508 0.943533 
194.277206 0.079667 
194.977509 0.16351 
195.065704 0.234816 
198.809296 0.09508 
199.111893 0.929088 
200.115189 0.101665 
200.143631 0.694005 
201.127518 37.653034 
202.131012 24.952595 
203.106796 7.510479 
203.134186 3.374541 
203.143265 2.939844 
204.110565 3.748708 
204.138245 3.378513 
204.14769 1.683884 
204.961899 1.191806 
205.015549 0.147392 
205.086227 0.45477 
205.112213 0.378278 
205.122498 24.48912 
205.14122 1.260878 
206.090912 0.082254 
206.12619 17.676153 
206.977905 2.701579 
207.101669 1.603669 
207.129425 3.659689 
207.985626 2.684072 
210.112564 0.329034 
210.638824 0.074672 
211.086517 1.219417 
211.111908 6.245293 
212.022491 0.142963 
212.115509 4.420117 
213.118698 0.114535 
215.219238 1.320317 
215.233398 1.457331 
216.434738 0.076355 
217.122437 2.664994 
218.125519 0.082874 
218.154144 9.311994 
219.138153 39.351318 
219.157761 2.797653 
220.106659 0.110035 
220.14238 25.66206 
220.159744 0.095397 
221.117447 3.307929 
221.145584 5.145692 
222.121246 0.222773 
222.147995 0.114069 
222.972321 1.188514 
225.112305 3.509076 
227.106918 0.257072 
228.138489 6.349634 
229.122467 48.686562 
229.142426 2.169129 
230.033783 1.404994 
230.126083 45.987621 
231.101364 0.069188 
231.129196 13.335592 
232.132736 0.960234 
233.140396 0.054454 
233.153748 6.605276 
234.157822 8.804852 
234.899307 1.510769 
235.133072 1.265134 
235.160507 1.598951 
235.975204 0.082175 
236.13681 0.091888 
236.164185 3.970525 
237.148544 1.947267 
237.168152 0.325745 
238.091476 3.004314 
238.152512 0.390853 
239.081619 0.875394 
239.751022 0.070174 
240.436218 0.062273 
243.137955 3.819249 
244.142181 3.82383 
245.11734 2.614626 
245.142761 0.082975 
246.126175 0.104551 
246.149048 100.0 
247.133011 86.455215 
247.152664 24.591942 
248.136871 54.12912 
248.155304 3.649887 
248.879272 0.044494 
249.112289 0.097947 
249.139526 14.65799 
249.156967 0.087461 
250.142776 0.900459 
251.164536 0.082305 
252.16803 2.660338 
253.171204 0.753292 
258.283203 0.093601 
261.14859 14.85203 
261.317566 0.066023 
262.152863 22.100922 
263.12793 1.715569 
263.156097 5.924979 
263.173187 0.070663 
264.159393 65.979866 
265.143524 24.122938 
265.1633 14.229091 
266.1474 5.459692 
266.165344 1.329824 
267.113037 2.896124 
267.151215 0.063854 
276.910004 1.03894 
279.159241 4.276224 
280.163361 8.982669 
281.16629 3.545256 
281.185272 0.06529 
282.169678 11.341941 
282.676971 0.069242 
282.994446 0.052304 
283.174377 2.205256 
292.099976 0.396688 
297.911194 0.074967 
298.214447 0.134012 
298.347107 2.853993 
299.35199 0.047046 
300.119171 0.039042 
300.168579 0.078276 
300.756256 0.093555 
301.191193 0.921584 
302.835693 0.087954 
304.073395 0.078281 
304.186188 0.07695 
308.639099 0.063917 
309.426636 0.093525 
310.111664 0.083168 
312.883759 0.079356 
END IONS

