BEGIN IONS
PEPMASS=313.105
CHARGE=1+
COMPOUNDNAME=dehydrocurvularin
LIBRARYQUALITY=3
SMILES=N/A
INCHIKEY=AVIRMQMUBGNCKS-GQCTYLIASA-N
INCHI=InChI=1S/C16H18O5/c1-10-5-3-2-4-6-13(18)16-11(8-15(20)21-10)7-12(17)9-14(16)19/h4,6-7,9-10,17,19H,2-3,5,8H2,1H3/b6-4+
MSLEVEL=2
SOURCE_INSTRUMENT=N/A-ESI-QFT
FILENAME=library_mgf.mgf
SEQ=*..*
IONMODE=positive
ORGANISM=MONA
NAME=dehydrocurvularin [M+Na]+
PI=MoNA
DATACOLLECTOR=MoNA:VF-NPL-QEHF016197
PUBMED=N/A
SUBMITUSER=mwang87
TAGS=
SPECTRUMID=CCMSLIB00004707260
SCANS=16197
50.24876 0.021648 
50.281086 0.01589 
50.349796 0.012242 
50.467113 0.021534 
50.854324 0.025695 
51.301571 0.018648 
51.313396 0.016077 
51.596432 0.019511 
51.670479 0.013922 
51.940331 4.864757 
52.254963 0.022916 
52.609604 0.014955 
52.701744 0.012923 
52.940472 0.08796 
52.989906 0.017203 
53.002556 1.080711 
53.038952 2.076013 
53.241638 0.017917 
53.997757 0.068014 
53.999668 0.013812 
54.448849 0.016006 
54.522392 0.041921 
54.725361 0.012889 
54.771889 0.013284 
54.937832 0.222419 
54.94418 0.017498 
55.00948 0.018138 
55.018204 2.020952 
55.019527 0.02844 
55.054569 16.73947 
55.079666 0.013588 
55.275959 0.020216 
55.934715 3.314659 
56.016991 0.017322 
56.021488 0.027071 
56.04982 0.710404 
56.057915 0.620042 
56.062386 0.191624 
56.212116 0.01815 
56.247246 0.024703 
56.829144 0.015505 
56.942558 0.195106 
56.965115 1.101887 
57.00938 0.014682 
57.029633 0.023293 
57.03384 2.138638 
57.05328 0.02131 
57.070198 14.713242 
57.444283 0.021497 
57.882523 0.015891 
57.935097 4.604924 
58.065434 1.515369 
58.073544 0.158951 
58.134602 0.020736 
58.365002 0.017805 
58.894512 0.013514 
58.932919 0.126745 
58.995319 1.346886 
59.049431 4.322206 
59.308044 0.014535 
59.506916 0.015817 
59.510349 0.023804 
59.871357 0.013741 
59.930504 8.990192 
59.965 0.015354 
59.966736 0.220104 
59.990494 0.028539 
60.081078 4.636068 
60.173969 0.021071 
60.210583 0.013381 
60.930767 0.690201 
61.010918 94.96183 
61.072849 0.020728 
61.084404 0.015491 
61.266766 0.013623 
61.310863 0.015165 
61.676731 0.016576 
61.735291 0.013986 
61.805717 0.015944 
61.926064 0.015517 
61.928059 2.707147 
62.010315 2.482113 
62.014236 7.176708 
62.017059 0.200684 
62.0187 9.472709 
62.060322 0.217654 
62.085976 0.020304 
62.85561 0.014069 
62.929291 0.393749 
62.990154 8.835626 
63.006664 20.728003 
63.022026 0.05968 
63.36729 0.018064 
63.83736 0.012749 
63.927635 0.230183 
63.943821 0.406303 
63.997959 1.537273 
64.01004 1.438316 
64.014473 0.383808 
64.080605 0.014397 
64.130219 0.023282 
64.235687 0.013789 
64.416687 0.016008 
64.620567 0.020172 
64.702888 0.013934 
64.927505 0.019904 
64.985779 0.057778 
65.005806 0.631725 
65.038795 1.425911 
65.274506 0.016465 
65.800911 0.013159 
66.127106 0.013466 
66.215218 0.014466 
66.390427 0.015231 
66.669434 0.025041 
66.858116 0.01677 
67.018036 0.028162 
67.029587 0.013795 
67.054413 14.883493 
67.935028 0.204244 
68.049667 0.082813 
68.057709 0.518888 
68.106644 0.01355 
68.942825 0.503427 
68.997292 0.226403 
69.033638 1.482514 
69.07 10.287254 
69.706154 0.014901 
69.727234 0.01856 
70.000305 0.014395 
70.065254 0.696564 
70.073349 0.233943 
70.078018 0.039606 
70.475662 0.024383 
70.551224 0.025434 
70.652534 0.014463 
70.941948 0.195525 
70.944237 0.013232 
70.957993 1.473313 
71.049271 2.024024 
71.085617 4.066667 
71.392723 0.022938 
71.728165 0.016158 
71.92942 1.129983 
71.940338 0.209178 
71.958275 0.023818 
72.044464 0.179134 
72.080864 1.689053 
72.93721 5.758389 
72.939445 0.037873 
73.01078 0.202247 
73.028534 0.083792 
73.04689 0.780861 
73.064796 0.099332 
73.392487 0.013321 
73.937706 0.139485 
73.95623 0.049547 
74.060959 0.016429 
74.067841 0.027282 
74.096573 0.083117 
74.70311 0.016446 
74.740776 0.012151 
74.937653 1.343661 
74.953819 0.877582 
75.022926 0.019151 
75.026321 0.084934 
75.044189 0.108504 
75.788048 0.014603 
75.93544 0.351034 
75.945526 1.780154 
75.954094 0.067266 
75.979271 0.025143 
76.038864 0.014968 
76.131386 0.018292 
76.933029 3.032923 
76.951363 0.377124 
77.005615 1.173008 
77.008102 0.038735 
77.041824 0.270949 
77.76915 0.019366 
77.94091 3.759881 
77.959328 2.71714 
78.013451 0.115941 
78.830864 0.04638 
78.853867 0.015302 
78.92421 0.028686 
78.930618 0.087198 
78.952126 0.058086 
78.967117 7.08239 
78.984917 1.297619 
79.021286 16.066774 
79.054306 8.007879 
79.626373 0.015179 
79.729805 0.015325 
79.93853 0.352622 
80.024673 0.090388 
80.049477 0.110859 
80.057632 0.288145 
80.178139 0.01655 
80.223984 0.013612 
80.946503 0.025896 
80.962967 0.276538 
80.982796 0.060663 
81.000542 1.466504 
81.017036 0.595345 
81.033546 0.751797 
81.069946 14.816702 
81.255707 0.018929 
81.34166 0.014509 
82.065254 0.164449 
82.073326 2.004264 
82.662506 0.014696 
82.797119 0.016842 
83.012833 0.283531 
83.049217 1.539996 
83.076553 0.02931 
83.085602 3.039445 
83.929878 0.059814 
84.044449 0.147412 
84.080811 0.095102 
84.088921 0.048586 
84.102318 0.023043 
84.937897 0.066263 
85.028526 0.472716 
85.039818 0.029196 
85.064873 0.892892 
85.101234 0.485652 
85.22023 0.017693 
85.431946 0.014529 
85.94558 0.031093 
86.05986 0.048568 
86.096504 1.295276 
86.253006 0.038442 
86.434021 0.018924 
87.044167 4.078336 
87.122841 0.020193 
87.358192 0.015388 
87.360268 0.022071 
87.906517 0.223573 
87.961426 0.015901 
88.07576 0.030866 
88.114349 0.016677 
88.429298 0.02808 
88.758102 0.029221 
88.90715 0.026092 
88.952408 0.064416 
88.968498 1.032756 
89.059799 1.297561 
89.850311 0.015072 
89.902397 0.027112 
89.94017 0.233159 
89.950737 0.03727 
89.963791 2.117473 
89.974823 0.02485 
90.055031 3.323839 
90.904526 0.022198 
90.947769 6.77073 
90.950783 0.042077 
90.967186 0.678787 
91.054337 10.349488 
91.057457 6.057385 
91.151466 0.017512 
91.594643 0.015666 
91.792747 0.01434 
91.916191 0.016381 
91.94825 0.2141 
91.966873 0.021228 
92.057335 0.639145 
92.060646 0.117572 
92.937904 0.026872 
92.948257 1.064582 
92.964371 0.361652 
92.982811 5.172045 
93.033569 0.070503 
93.036736 0.170531 
93.054337 0.147623 
93.069969 5.806876 
93.38694 0.014275 
93.936043 0.019927 
93.946068 0.431587 
93.952736 0.023076 
93.956017 6.59255 
94.041245 0.029529 
94.065208 0.059187 
94.073448 0.071321 
94.414871 0.016299 
94.943634 2.69769 
94.953781 0.265186 
94.962006 0.491517 
94.978577 0.069841 
95.013023 0.052883 
95.015686 0.018359 
95.049194 5.375392 
95.060593 0.035671 
95.085587 8.878139 
95.107704 0.023439 
95.393417 0.016098 
95.943939 0.028435 
95.951447 13.591098 
95.954826 0.035199 
96.044487 0.455722 
96.052559 0.038488 
96.088936 0.389894 
96.907112 0.01763 
96.941254 0.159275 
96.951721 0.328052 
97.028603 0.131527 
97.064873 1.21545 
97.10125 0.500358 
97.735962 0.030094 
97.949036 1.698449 
98.060173 0.055035 
98.096565 0.213897 
98.975426 0.164116 
98.984726 0.015766 
99.044136 1.014453 
99.080544 0.366883 
99.099777 0.034603 
99.948395 0.020018 
100.075706 0.108221 
100.083664 0.015884 
100.112183 0.203562 
100.433006 0.031155 
100.90065 0.01868 
100.921768 0.014491 
100.953728 0.01694 
101.003265 0.045744 
101.059845 0.146223 
101.940132 0.019279 
102.070786 0.012076 
102.311256 0.027693 
102.914787 1.212356 
102.94825 1.118061 
102.967369 0.078912 
103.03907 0.059087 
103.054337 0.558329 
103.902298 0.036289 
103.912994 0.051279 
103.956024 0.031335 
103.9767 0.670642 
104.873131 0.018528 
104.874237 0.023968 
104.910286 5.1036 
104.930473 1.198735 
104.955299 0.021423 
104.963646 0.055599 
105.033638 0.575811 
105.044724 0.134223 
105.069977 4.204714 
105.149643 0.04069 
105.529259 0.01549 
105.91053 0.118761 
105.917252 0.27715 
105.928284 0.480708 
105.934853 0.050317 
105.95594 0.267111 
105.972198 2.456888 
106.065704 0.0261 
106.073166 0.029319 
106.759499 0.014137 
106.907639 0.400974 
106.925873 4.952658 
106.942772 0.01782 
106.9627 0.01712 
106.975777 0.052385 
106.998451 0.063568 
107.049232 1.182553 
107.052414 0.58118 
107.085625 2.360847 
107.135101 0.029749 
107.474403 0.032402 
107.628693 0.038595 
107.85923 0.015481 
107.951233 1.57706 
107.969963 1.998739 
107.974121 0.259312 
108.056755 0.027225 
108.08065 0.062703 
108.923492 0.882819 
108.958412 2.293814 
108.977768 0.115105 
108.994316 0.168536 
109.02845 0.346779 
109.064941 1.530168 
109.068542 0.030652 
109.101273 1.900652 
109.931358 0.831269 
109.958549 0.024222 
109.966988 0.252248 
110.060188 0.098461 
110.104736 0.027651 
110.21138 0.014984 
110.939262 8.332159 
110.94857 0.047883 
110.953674 0.016122 
110.958786 0.071518 
110.974945 0.735769 
111.044197 0.466729 
111.080521 0.083891 
111.946938 0.137368 
111.95668 0.072728 
111.964615 0.027593 
111.974968 0.023246 
112.935097 0.377245 
112.954185 0.313969 
112.972404 0.573692 
113.416328 0.01514 
113.963875 0.120829 
114.986275 1.176007 
115.054367 0.68728 
115.063606 0.014454 
115.98127 0.999113 
116.062187 0.074447 
116.460968 0.015171 
116.479759 0.800112 
116.909332 0.156343 
116.963379 0.186094 
116.986008 0.369263 
117.069923 1.23545 
117.958664 0.03643 
118.666039 0.034667 
118.943115 0.569157 
118.95488 0.023498 
119.049171 0.495645 
119.073441 0.017319 
119.085655 2.425807 
119.917603 0.106379 
119.943565 0.131455 
119.951057 0.787121 
119.956551 0.405568 
120.080894 0.36275 
120.91526 0.069855 
120.920982 0.018727 
120.925369 1.605914 
120.940514 2.486845 
120.958839 0.161209 
121.028458 0.2525 
121.064896 1.008876 
121.101257 0.902669 
121.700539 0.032307 
121.703957 0.0759 
121.913071 1.175561 
121.923271 0.373979 
121.940506 0.351584 
122.060272 0.019797 
122.263641 0.014633 
122.920853 5.833929 
122.936638 1.221911 
122.940987 20.659458 
122.974144 0.041792 
122.993675 0.110578 
123.044151 1.963725 
123.080582 0.319408 
123.117065 0.067455 
123.493057 0.730222 
123.584534 0.028183 
123.910309 0.193585 
123.920982 0.028878 
123.928024 0.134369 
123.939018 13.097143 
123.944672 0.742887 
123.947166 1.295317 
123.991531 1.702658 
124.047569 0.707287 
124.075874 0.02179 
124.154343 0.018402 
124.491264 0.035743 
124.918297 0.164947 
124.936523 66.660522 
124.972679 0.243827 
124.977341 0.029977 
125.01754 0.022763 
125.059769 0.236275 
125.91098 0.068964 
125.936279 3.537953 
125.944542 0.207608 
125.961014 0.384267 
126.915482 0.04884 
126.933884 10.681634 
126.968826 0.020671 
127.01561 2.262527 
127.941307 0.578111 
128.062164 0.692607 
128.929138 0.017162 
128.933746 0.48805 
128.963669 1.484927 
129.069992 0.829769 
129.305206 0.04513 
129.992249 0.027509 
130.065567 0.067572 
130.999817 0.033222 
131.049164 0.177441 
131.060394 0.118623 
131.073318 0.020357 
131.085648 1.048112 
131.950958 0.176969 
131.974228 0.45646 
132.958389 0.335884 
133.028625 0.053205 
133.064896 0.382101 
133.101196 0.767475 
133.671066 0.014484 
133.959381 0.372454 
134.060287 0.088817 
134.919739 2.020656 
134.940933 0.019797 
134.956223 1.283718 
134.973816 0.207649 
134.99649 0.807212 
135.044067 0.299771 
135.080414 0.28713 
135.306046 0.020849 
135.927673 0.802886 
135.939194 0.085014 
136.075745 0.104684 
136.256241 0.013598 
136.927933 0.041512 
136.936478 1.116159 
136.952621 0.160438 
137.011719 0.165237 
137.05986 0.524696 
137.918381 0.018593 
137.928177 9.558503 
137.936676 0.032776 
137.944351 0.087139 
137.954346 0.194518 
137.967194 0.165822 
138.128006 0.028097 
138.242599 0.013683 
138.682785 0.014848 
138.919403 0.014394 
138.92627 0.971182 
138.936188 0.194519 
138.945312 0.028687 
138.951279 3.511628 
139.076004 0.026914 
139.923508 33.768826 
139.950943 0.655311 
139.959915 0.024715 
140.372437 0.013318 
140.92334 2.897779 
140.931351 1.548659 
140.946716 0.920054 
140.951843 4.337593 
140.956757 0.013181 
141.069809 0.345274 
141.903564 0.479187 
141.920975 11.01587 
141.943344 0.085007 
141.949448 9.201725 
142.077957 0.084729 
142.929642 0.104829 
142.947052 15.579692 
143.060089 0.055386 
143.0858 0.564245 
143.591705 0.019629 
143.920807 0.855743 
143.930511 0.020825 
143.946655 0.548636 
143.974533 0.102727 
144.044464 0.140291 
144.056625 0.0191 
144.926331 0.356969 
144.94429 2.367861 
144.95871 1.606503 
144.979996 0.459697 
145.065018 0.486454 
145.101334 0.641491 
145.9664 0.052723 
145.990082 0.069049 
146.060242 0.058109 
146.133072 0.01374 
146.56749 0.015016 
146.94458 0.023605 
146.957062 0.025196 
146.974442 7.966377 
147.0439 0.228378 
147.08049 0.430129 
147.116867 0.796926 
147.974747 0.168876 
148.075455 0.025235 
148.956238 0.095409 
148.972321 0.316346 
148.98941 0.02805 
149.023499 0.084797 
149.059937 0.256455 
149.095932 0.044927 
149.954193 0.318654 
149.971939 0.021972 
149.985367 0.035608 
150.951157 8.477165 
150.968674 0.846856 
151.039398 0.03078 
151.075806 0.029267 
151.944214 0.030618 
151.951385 1.628581 
151.970062 0.209774 
152.006592 0.017538 
152.062286 0.046744 
152.930679 1.220786 
152.951797 29.306623 
152.966553 1.468222 
152.989227 0.084607 
153.0065 0.016891 
153.070038 0.244411 
153.938385 1.040169 
153.949112 8.869698 
153.955017 2.603096 
153.965256 0.024668 
154.077255 0.029632 
154.946991 100.0 
155.022354 0.109659 
155.08551 0.209249 
155.919052 0.028787 
155.93428 0.258485 
155.946945 3.827527 
155.954971 2.338385 
155.965759 0.03471 
156.048309 0.015027 
156.649429 0.015741 
156.94429 12.57498 
156.955246 0.19624 
156.966125 0.548469 
157.06485 0.151184 
157.10144 0.119118 
157.926514 0.029538 
157.934067 0.78189 
157.952087 2.922579 
157.989853 0.031736 
158.023605 0.023318 
158.661316 0.014263 
158.712875 0.018288 
158.903488 0.025363 
158.923386 0.037165 
158.942123 1.427436 
158.953552 2.853424 
158.974243 0.031782 
159.080414 0.216919 
159.117126 0.029741 
159.95224 0.155203 
159.9599 0.071886 
159.969284 0.146629 
160.07637 0.028231 
160.953217 0.056618 
161.059677 0.334483 
161.867569 0.015372 
161.984604 0.037234 
162.054932 0.043195 
163.038788 0.112169 
163.075592 0.022348 
163.111832 0.029163 
163.977127 0.704958 
164.070175 0.034225 
164.500702 0.015954 
164.569687 0.014257 
164.967422 0.133224 
165.054672 0.239388 
165.069946 0.439996 
165.332886 0.019349 
166.050003 0.019274 
166.967087 0.228048 
166.979492 0.069357 
167.033966 0.29576 
167.055679 0.020637 
167.086151 0.033022 
167.953934 0.499312 
167.964813 0.065943 
168.037399 0.076253 
168.093704 0.029674 
168.701675 0.021714 
168.961853 5.3724 
169.038559 0.066788 
169.064774 0.26016 
169.100403 0.037832 
169.422668 0.017579 
169.458405 0.013934 
169.917847 2.346151 
169.962509 0.826426 
170.915726 0.618905 
170.962463 18.582415 
170.978455 0.331768 
171.055298 1.992805 
171.080429 0.230412 
171.905533 0.056464 
171.913361 9.159793 
171.933151 0.039318 
171.959412 9.285759 
172.005447 0.110711 
172.038422 0.020111 
172.059174 0.031659 
172.913773 0.478963 
172.957657 63.389877 
172.975571 0.351434 
173.096359 0.024651 
173.541092 0.014171 
173.749832 0.01773 
173.910629 2.913636 
173.929062 2.422146 
173.95755 2.854208 
173.98497 0.065363 
174.919617 0.095891 
174.929489 0.492271 
174.954773 8.819503 
174.986603 0.014778 
175.038864 0.029181 
175.075165 0.104593 
175.701752 0.014898 
175.910583 0.065078 
175.926346 2.797852 
176.070831 0.0479 
176.914322 0.371946 
177.926117 0.138034 
178.077576 0.043418 
178.142563 0.016139 
178.964279 0.233657 
179.085876 0.064968 
179.851501 0.017939 
179.863342 0.014102 
179.953827 0.033806 
180.321442 0.016543 
180.888214 0.778581 
181.064758 0.205477 
181.275391 0.014646 
181.926758 0.055125 
181.987518 0.030562 
182.924622 0.076049 
183.055466 0.369263 
183.080246 0.170943 
183.942169 0.506718 
184.052032 0.096056 
184.939972 0.070135 
184.978119 0.022119 
185.059814 0.073988 
185.095612 0.044235 
185.938095 0.028937 
185.949341 0.943886 
185.964462 1.332603 
186.021423 0.030813 
186.935898 0.755044 
186.94577 0.026651 
186.973297 0.068286 
187.075714 0.031006 
187.086014 0.021959 
187.935608 0.044455 
187.944672 2.60546 
187.954117 0.237185 
188.936157 0.126232 
188.94545 0.485056 
188.967178 0.090508 
188.974289 0.022428 
189.030762 0.064781 
189.091095 0.053154 
189.88652 0.031536 
189.924332 0.585793 
189.933914 1.5252 
189.942261 2.370469 
189.970596 0.103624 
190.049942 0.040352 
190.931747 5.31138 
191.880997 0.016217 
191.931198 1.960101 
191.941238 0.09419 
192.928925 5.810701 
192.96785 0.059 
194.924759 3.880651 
194.974014 0.029741 
195.080444 0.140395 
197.03241 0.017662 
197.059769 0.186917 
197.875565 0.016098 
197.890564 0.040971 
198.898514 0.043293 
199.040359 0.03178 
199.050385 1.86362 
199.075516 0.784543 
199.112701 0.026022 
200.468201 0.016802 
200.897308 0.021709 
201.054703 0.026699 
201.866394 0.025381 
201.952744 0.374398 
203.046829 3.291966 
203.143204 0.488155 
203.852463 0.014651 
203.881882 0.187947 
203.923904 0.145929 
203.938232 0.040237 
204.890381 0.031912 
205.880463 0.03756 
205.91893 5.075842 
205.965744 0.02081 
206.234467 0.015751 
206.642349 0.048215 
206.888718 0.222232 
206.919174 1.373623 
206.946823 0.361622 
206.977844 5.000642 
207.896912 0.433915 
207.915894 5.452852 
207.94487 0.498335 
207.978928 0.293835 
207.995987 0.014543 
208.075409 0.028619 
208.942352 6.412362 
208.959351 0.015264 
209.891495 0.644747 
209.915787 0.411174 
209.942459 2.142625 
210.202179 0.018492 
210.494003 0.018631 
210.939362 6.871424 
210.968445 0.059084 
211.027618 0.137767 
211.075455 0.172337 
211.428543 0.04908 
211.793839 0.014547 
212.082794 0.063459 
212.252853 0.030118 
212.935333 2.280182 
212.985046 0.059928 
213.054749 0.062639 
213.078018 0.035561 
213.090546 0.07317 
213.869324 0.030325 
213.885925 0.070662 
214.085648 0.02997 
215.107132 0.0296 
215.901779 0.150099 
216.423157 0.015305 
216.487595 0.014373 
216.762604 0.047671 
216.874435 0.184768 
216.891876 0.081128 
217.901398 0.146069 
218.071167 0.025458 
218.331131 0.030958 
218.868652 3.848868 
218.901932 0.019029 
218.904846 0.015931 
218.909012 0.015248 
219.084366 0.014969 
219.174988 0.406958 
219.450577 0.026142 
219.460251 0.093214 
219.47049 0.024204 
219.482468 0.054747 
219.491714 0.111747 
219.710892 0.019526 
219.876572 0.822764 
219.898071 0.485697 
220.884033 0.230322 
221.057602 0.01966 
221.487442 0.017183 
222.884857 0.028911 
222.898056 0.09612 
223.028229 0.018212 
223.075378 0.047098 
223.209412 0.016049 
223.891663 0.031474 
225.043182 1.451512 
225.090775 0.118423 
225.886444 0.015353 
226.043503 0.378906 
226.085754 0.029184 
227.0224 1.551592 
227.04512 2.589954 
227.070419 0.205443 
227.403397 0.014715 
228.022675 0.384964 
228.049377 0.118238 
228.889572 0.198816 
229.002258 0.061301 
229.01918 0.14446 
229.050049 0.060573 
231.896835 0.205942 
232.398193 0.015081 
233.553787 0.029457 
233.682602 0.016981 
233.912033 0.019555 
234.913574 0.183263 
235.91153 0.997697 
236.879181 0.395935 
236.91066 1.230198 
236.984344 0.024299 
237.908524 2.231802 
238.085724 0.043384 
238.967575 1.30302 
239.071167 0.032217 
239.093674 0.038705 
239.909821 0.097357 
239.968597 0.033475 
240.909683 0.456537 
241.051346 0.01932 
241.085403 0.035842 
245.056305 0.106385 
246.905426 0.077989 
247.012177 0.020197 
248.899536 0.16516 
249.890579 0.045689 
250.892899 0.071263 
250.934677 0.111226 
251.888016 0.222778 
251.93576 0.180652 
252.932083 0.796224 
252.95961 0.098106 
253.61232 0.016392 
253.922226 0.354102 
254.922531 0.307905 
254.977936 0.015561 
255.065887 0.030934 
255.87587 0.016491 
255.919144 1.263491 
257.919312 0.018905 
259.946136 0.017087 
261.290527 0.017279 
261.892914 0.01531 
262.894989 0.126115 
263.902283 0.021336 
265.195526 0.015344 
266.999298 2.595379 
267.999298 0.288782 
268.036194 0.141189 
268.978851 0.165916 
268.998047 0.039258 
269.014771 0.246415 
269.211975 0.014549 
270.015564 0.013494 
273.571228 0.024437 
275.131592 0.017208 
276.876312 0.501271 
278.818451 0.016059 
279.805389 0.016058 
280.813995 0.270228 
281.020477 0.027912 
281.821259 0.134168 
283.03067 1.013795 
283.819183 0.01817 
284.030396 0.061949 
285.009979 0.093963 
287.81369 0.029682 
287.831451 0.723693 
288.37027 0.014934 
288.832275 0.017519 
289.831482 0.070217 
291.806824 0.06972 
295.821747 0.018561 
297.054596 0.023982 
297.816406 0.621763 
298.827637 0.231391 
300.822906 0.038136 
301.810638 0.179152 
301.8508 0.014685 
301.899231 0.025192 
302.818512 0.047803 
308.807892 0.028854 
309.816315 0.511306 
312.363556 0.024203 
313.810486 0.069739 
316.437531 0.014785 
320.834564 0.014741 
322.824738 0.014906 
323.22403 0.017665 
325.771454 0.02073 
327.820404 0.016807 
328.660553 0.029952 
330.411224 0.015801 
335.48938 0.017927 
335.5513 0.020537 
337.126556 0.015902 
END IONS

