BEGIN IONS
PEPMASS=167.101
CHARGE=1+
COMPOUNDNAME=Orsellinic Acid
LIBRARYQUALITY=3
SMILES=N/A
INCHIKEY=AMKYESDOVDKZKV-UHFFFAOYSA-N
INCHI=InChI=1S/C8H8O4/c1-4-2-5(9)3-6(10)7(4)8(11)12/h2-3,9-10H,1H3,(H,11,12)
MSLEVEL=2
SOURCE_INSTRUMENT=N/A-Linear Ion Trap
FILENAME=library_mgf.mgf
SEQ=*..*
IONMODE=negative
ORGANISM=MONA
NAME=Orsellinic Acid M-H
PI=MoNA
DATACOLLECTOR=MoNA:VF-NPL-LTQ006492
PUBMED=N/A
SUBMITUSER=mwang87
TAGS=
SPECTRUMID=CCMSLIB00004689954
SCANS=5575
123.059998 100.0 
END IONS

