BEGIN IONS
PEPMASS=174.088
CHARGE=1+
COMPOUNDNAME=Citrulline
LIBRARYQUALITY=3
SMILES=N/A
INCHIKEY=RHGKLRLOHDJJDR-BYPYZUCNSA-N
INCHI=InChI=1S/C6H13N3O3/c7-4(5(10)11)2-1-3-9-6(8)12/h4H,1-3,7H2,(H,10,11)(H3,8,9,12)/t4-/m0/s1
MSLEVEL=2
SOURCE_INSTRUMENT=N/A-ESI-QFT
FILENAME=library_mgf.mgf
SEQ=*..*
IONMODE=negative
ORGANISM=MONA
NAME=Citrulline [M-H]-
PI=MoNA
DATACOLLECTOR=MoNA:VF-NPL-QEHF026465
PUBMED=N/A
SUBMITUSER=mwang87
TAGS=
SPECTRUMID=CCMSLIB00004717896
SCANS=26465
50.200443 0.006658 
51.49437 0.007917 
52.6236 0.005415 
52.909004 0.005252 
53.375877 0.00862 
54.124184 0.006363 
55.758305 0.007508 
56.541161 0.007147 
57.033264 0.013742 
58.228329 0.00581 
58.450798 0.004454 
58.475796 0.007004 
59.012474 0.27245 
59.023731 0.008058 
59.220772 0.004456 
59.56805 0.005993 
59.81366 0.004546 
59.913834 0.007156 
60.244858 0.004283 
61.153034 0.005958 
61.896107 0.006174 
61.98698 3.442385 
62.061863 0.006247 
64.362892 0.006098 
67.603683 0.008099 
67.937286 0.006185 
68.18869 0.00717 
69.647942 0.006764 
69.813911 0.004394 
69.900047 0.005335 
72.27507 0.006901 
73.129761 0.005019 
74.016159 0.007155 
74.989304 0.009757 
75.362274 0.008087 
75.592026 0.005679 
76.788933 0.005683 
76.842087 0.005598 
77.297989 0.007343 
78.04509 0.007391 
79.133949 0.005252 
81.020058 0.006355 
83.048965 0.014774 
83.060059 0.258414 
83.349648 0.007576 
85.075821 0.159726 
86.10714 0.005499 
86.623108 0.007522 
86.660675 0.005479 
87.934418 0.006844 
89.023056 0.319499 
89.924438 0.038025 
90.477242 0.004236 
90.932076 0.023767 
91.020729 0.185623 
91.989746 0.004735 
93.173859 0.006221 
95.310898 0.005508 
96.907684 0.005553 
97.637627 0.005884 
97.72567 0.007442 
99.147652 0.006057 
99.626915 0.005963 
99.924507 0.207926 
100.924438 0.00762 
101.059685 0.02007 
104.006485 0.008137 
106.806694 0.006263 
107.697395 0.006098 
111.080307 0.572606 
113.070786 0.284589 
113.509964 0.006367 
113.939735 0.007419 
114.054794 0.229644 
115.280373 0.008565 
115.447853 0.00583 
115.919479 0.010501 
116.919434 0.006178 
116.938713 0.006977 
117.918282 0.005138 
118.131744 0.007209 
121.142166 0.005867 
122.586868 0.005931 
125.92923 0.007466 
126.999794 0.007283 
127.111717 0.253441 
128.942795 0.006909 
129.05452 0.008944 
129.090942 0.189441 
129.406982 0.005622 
129.878189 0.007716 
130.671799 0.012546 
130.954239 0.034607 
131.055206 0.441558 
131.072205 0.377151 
131.08139 100.0 
131.110153 0.513327 
131.49678 0.007678 
132.057251 0.005369 
132.078629 0.669526 
132.084671 5.023306 
132.691193 0.009357 
133.085846 0.103754 
134.131561 0.006748 
134.845627 0.005502 
134.864899 0.007562 
137.399246 0.007971 
140.307419 0.005151 
141.831207 0.006506 
142.897034 0.740896 
143.578308 0.008382 
143.837387 0.006613 
143.897797 1.223291 
144.592224 0.008519 
144.896683 1.285149 
145.89798 0.568244 
154.185974 0.005884 
154.946289 0.471856 
157.060333 0.006835 
157.834381 0.006881 
159.823883 0.006028 
161.024918 0.007382 
163.722977 0.00744 
172.142349 0.005997 
172.251846 0.006509 
172.829773 0.03885 
172.908051 0.081821 
173.0811 0.076616 
173.117462 0.065039 
173.516159 0.00707 
173.908691 0.28269 
174.088196 0.006139 
174.907608 0.289372 
175.095856 0.006069 
175.908905 0.057612 
180.323837 0.007546 
183.957977 0.008271 
184.516891 0.006502 
186.269211 0.006294 
190.304932 0.007802 
191.181717 0.007671 
193.950699 0.008049 
END IONS

