BEGIN IONS
PEPMASS=1253.62
CHARGE=1+
COMPOUNDNAME=DACTINOMYCIN
LIBRARYQUALITY=3
SMILES=N/A
INCHIKEY=RJURFGZVJUQBHK-IIXSONLDSA-N
INCHI=InChI=1S/C62H86N12O16/c1-27(2)42-59(84)73-23-17-19-36(73)57(82)69(13)25-38(75)71(15)48(29(5)6)61(86)88-33(11)44(55(80)65-42)67-53(78)35-22-21-31(9)51-46(35)64-47-40(41(63)50(77)32(10)52(47)90-51)54(79)68-45-34(12)89-62(87)49(30(7)8)72(16)39(76)26-70(14)58(83)37-20-18-24-74(37)60(85)43(28(3)4)66-56(45)81/h21-22,27-30,33-34,36-37,42-45,48-49H,17-20,23-26,63H2,1-16H3,(H,65,80)(H,66,81)(H,67,78)(H,68,79)/t33-,34-,36+,37+,42-,43-,44+,45+,48+,49+/m1/s1
MSLEVEL=2
SOURCE_INSTRUMENT=N/A-ESI-QFT
FILENAME=library_mgf.mgf
SEQ=*..*
IONMODE=negative
ORGANISM=MONA
NAME=DACTINOMYCIN [M-H]-
PI=MoNA
DATACOLLECTOR=MoNA:VF-NPL-QEHF002892
PUBMED=N/A
SUBMITUSER=mwang87
TAGS=
SPECTRUMID=CCMSLIB00004693955
SCANS=2892
87.387474 0.19441 
87.487862 0.212363 
87.541199 0.191745 
87.939583 0.166077 
88.544327 0.106917 
89.331528 0.2194 
89.344528 0.251616 
90.35424 0.16214 
91.586746 0.229844 
91.865028 0.183137 
92.454491 0.103064 
93.052292 0.201654 
94.785378 0.235216 
95.023895 0.676289 
96.191475 0.183294 
98.023132 0.12266 
99.469414 0.091405 
99.91243 0.208733 
100.039185 1.348164 
101.400108 0.103855 
101.60981 0.10268 
104.336609 0.109272 
105.302223 0.188068 
105.782936 0.202297 
105.966721 0.185112 
107.424835 0.206513 
108.031746 0.227528 
108.075195 0.229243 
108.46904 0.237505 
109.039467 0.235656 
109.247566 0.097267 
109.543144 0.131276 
109.906509 0.195603 
110.047211 1.349671 
112.039146 2.860246 
112.072357 0.258562 
113.729233 0.112103 
113.747955 0.218732 
114.055008 0.280017 
115.086273 0.529828 
116.026161 0.215815 
118.028595 2.145229 
120.080681 0.191705 
120.592331 0.16513 
120.898705 0.197187 
121.056465 0.208361 
121.550804 0.204177 
123.055321 0.236115 
123.452728 0.199187 
124.026566 15.180143 
124.038979 2.06151 
125.034454 1.559048 
125.070885 2.539529 
126.054756 3.000301 
126.660027 0.204509 
127.08654 13.481093 
127.58416 0.157892 
128.674484 0.226266 
129.063156 0.20918 
129.882401 0.204732 
130.086166 32.363556 
130.505096 0.223208 
131.773575 0.190432 
132.044342 0.658103 
134.06485 0.178452 
136.0392 0.302311 
136.998215 0.740534 
137.034439 0.302529 
137.070908 0.383868 
137.107101 0.800647 
137.39061 0.182879 
138.042282 3.798182 
138.055054 2.345931 
138.188675 0.209948 
139.050125 32.173611 
139.086777 0.781622 
139.310272 0.106916 
140.057434 0.146022 
140.79866 0.113127 
141.065796 1.921418 
141.102203 0.799045 
144.080978 0.451196 
144.189316 0.127111 
144.567795 0.228669 
148.535004 0.147329 
148.71402 0.113107 
149.07132 0.22299 
149.874557 0.168343 
150.042206 0.420734 
151.05011 0.634027 
151.085754 0.220255 
152.057983 7.946634 
152.720032 0.17512 
153.066055 2.817235 
153.101959 0.829142 
160.02951 0.114664 
161.298798 0.123837 
162.426651 0.143811 
163.086807 0.135751 
163.288422 0.118299 
164.070724 3.134779 
164.710876 0.119635 
165.065796 0.804974 
165.073975 0.204672 
167.009521 0.236936 
167.045166 17.675758 
167.081696 10.234819 
167.857193 0.10044 
168.061829 0.20517 
168.081512 0.56518 
168.089417 10.780466 
168.691162 0.252006 
169.096512 0.11732 
171.096497 0.204909 
171.696335 0.170476 
172.990204 0.220149 
173.035156 0.21971 
174.042709 0.553698 
174.779266 0.201657 
175.050873 0.710749 
176.045807 0.114158 
179.045471 2.072169 
180.102371 0.416074 
181.061142 0.880813 
181.097412 4.591252 
183.112991 10.200344 
184.076126 0.469957 
185.184555 0.161223 
189.065613 0.240743 
189.101288 0.0979 
193.06102 0.23634 
193.097107 0.738903 
195.076859 40.308323 
195.113266 18.337809 
196.063126 0.256674 
196.075897 0.344779 
196.158096 0.127562 
197.592102 0.230407 
201.06665 0.196129 
202.852356 0.210223 
203.839371 0.211799 
204.077545 0.140857 
207.055359 0.10695 
209.392975 0.233969 
212.071243 7.970086 
212.164078 0.24659 
216.05397 0.185573 
216.962067 0.22945 
217.864288 0.184094 
217.912506 0.228737 
219.125153 0.108881 
219.484421 0.201747 
220.218353 3.888157 
221.035202 0.62164 
221.071365 1.897029 
221.128845 0.241092 
222.055084 0.147437 
222.088104 10.878355 
223.051666 0.240526 
223.063354 3.571766 
224.058807 5.52438 
224.070877 1.287267 
224.410339 0.206658 
228.645798 0.153673 
228.723724 0.19955 
230.387512 0.132872 
231.077972 0.112505 
232.07196 0.20885 
233.034775 0.115846 
233.634079 0.192911 
235.051102 0.468751 
235.319 0.196069 
235.488815 0.171117 
235.8479 0.235913 
236.058746 6.428471 
236.070282 0.134595 
236.087662 0.193798 
236.516754 0.192375 
236.738785 0.224428 
237.066696 33.141766 
237.07869 0.734058 
238.073517 1.851896 
238.087036 3.251422 
239.08226 37.974335 
240.088226 0.717159 
241.06131 0.858096 
244.408859 0.207649 
245.626297 0.110067 
248.059586 0.260554 
249.066696 5.167736 
249.831406 0.217857 
250.074554 17.630793 
250.087463 0.630949 
250.262299 0.210936 
251.046249 1.365221 
251.082138 12.895525 
252.08963 0.728106 
253.098267 1.218182 
258.05188 0.658469 
258.529358 0.257404 
259.741547 0.24835 
261.101593 0.220896 
262.061554 7.326235 
262.074799 0.50527 
262.087921 0.636246 
262.11911 0.356035 
263.082336 6.154496 
264.077362 14.308721 
264.135254 0.192362 
265.061951 4.253427 
265.082916 0.193722 
265.098206 2.716618 
266.15094 0.17323 
267.077942 0.823506 
267.274841 0.268247 
275.068939 1.19414 
275.083649 0.460432 
276.04126 1.327391 
276.077423 5.707887 
277.084473 6.545277 
277.098755 6.482929 
277.182587 0.103068 
278.055786 0.23017 
278.06955 7.248693 
278.092957 1.398135 
279.077179 7.048263 
279.113922 5.078377 
280.072113 3.434243 
280.166534 20.187893 
280.533936 0.188744 
281.075317 0.11046 
281.092285 0.154381 
281.169922 0.112988 
282.06131 0.213507 
288.077972 0.860138 
289.09903 1.127168 
289.462372 0.109936 
290.071564 0.107731 
290.09317 1.363409 
291.078369 0.330274 
291.099487 0.330854 
292.072235 15.676164 
292.109161 12.185663 
293.079773 13.603734 
293.095367 1.251478 
294.088196 12.717791 
301.087036 0.203786 
302.093201 2.263535 
303.031006 0.223465 
303.115509 0.134695 
304.053192 0.216609 
304.072479 7.28165 
304.109406 0.804002 
305.079193 6.904479 
305.094788 3.129716 
305.111298 0.197046 
306.087616 18.311829 
307.095337 9.414017 
307.61084 0.20629 
308.102539 0.923733 
310.082977 0.564885 
310.116302 0.163009 
314.093658 0.163561 
316.108459 0.65521 
317.065796 0.222498 
318.08905 6.387909 
319.082855 11.370302 
319.822784 0.168704 
320.068787 0.417621 
320.103699 91.73996 
321.11087 53.966496 
322.083496 0.677294 
322.118683 26.444345 
323.122772 0.485515 
329.104248 1.022916 
330.088165 2.327115 
331.083282 1.711665 
332.090973 10.616621 
332.375702 0.22408 
333.076141 0.237203 
333.111694 0.681354 
333.562134 0.182648 
334.119507 18.211077 
335.126251 2.878872 
335.511017 0.216925 
336.099365 0.117707 
337.093903 0.309042 
338.115021 9.251859 
342.074585 0.447871 
344.08905 0.12532 
345.098755 13.313704 
346.105438 28.087433 
347.11438 100.0 
348.116974 6.372734 
348.136749 5.266882 
349.094086 0.225111 
349.140015 0.226879 
351.085571 1.879419 
352.093781 6.507176 
356.092468 0.268319 
357.099304 0.621549 
359.115112 3.752526 
360.253082 0.22424 
361.128693 0.240636 
363.108948 0.252206 
364.11734 0.815177 
365.125519 4.130728 
367.120117 1.007648 
369.098114 0.391682 
369.136292 0.520382 
370.106781 9.288778 
371.11438 3.333983 
372.121735 0.156042 
373.131012 0.435714 
375.109528 1.115285 
375.147003 0.184886 
376.116241 0.438736 
377.124908 3.949793 
384.12207 0.267084 
385.130341 8.641732 
386.129486 0.2665 
386.428619 0.244636 
387.146271 8.976184 
388.142334 1.195694 
389.097046 0.122121 
389.125214 1.542596 
389.807434 0.199095 
398.114075 0.217674 
399.143463 0.207898 
399.679626 0.155482 
403.14093 2.556186 
404.149261 0.18458 
405.156799 11.474671 
406.158752 0.234948 
423.751862 0.164082 
434.469269 0.253413 
439.318604 0.225372 
443.275146 0.225882 
444.166473 0.234953 
450.182281 0.255024 
457.8396 0.183367 
469.507904 0.220004 
479.528473 0.130957 
490.226044 0.10488 
507.529633 0.213062 
509.986176 0.124451 
510.238159 0.218269 
511.056946 0.212996 
524.1875 0.196326 
526.042175 0.124712 
530.905762 0.261963 
538.191589 0.215441 
548.851501 0.166036 
557.88916 0.225378 
562.749756 0.228937 
564.570679 0.108375 
572.386841 0.125228 
579.142578 0.192811 
594.045593 0.205336 
606.615417 0.208444 
648.192078 0.180219 
663.896851 0.217308 
674.773743 0.262765 
712.625488 0.238958 
721.619385 0.200726 
728.347961 0.231187 
729.003174 0.095792 
737.081482 0.22334 
737.705933 0.203988 
757.510498 0.239825 
760.281067 0.204968 
761.692017 0.177098 
775.154907 0.222681 
775.648865 0.192624 
788.953125 0.194211 
797.134949 0.230184 
802.174316 0.210381 
806.532776 0.229607 
815.789307 0.201807 
827.04718 0.218412 
839.405762 0.137537 
844.816345 0.241546 
895.212097 0.236149 
896.921387 0.237093 
908.024963 0.247457 
916.746338 0.227437 
954.56189 0.263897 
979.625427 0.298766 
1027.570801 0.257138 
1041.285522 0.102877 
1070.03064 0.255645 
1073.309082 0.219743 
1100.639771 0.162523 
1103.014771 0.281351 
1138.238525 0.207464 
1204.528442 0.248153 
1214.019653 0.283673 
1232.533203 0.239812 
1233.651611 0.219289 
1239.326782 0.194868 
1241.668579 0.249671 
1243.74353 0.234548 
1254.045532 0.281765 
1279.116455 0.267062 
1296.310303 0.263903 
END IONS

