BEGIN IONS
PEPMASS=339.253
CHARGE=1+
COMPOUNDNAME=Aphidicolin
LIBRARYQUALITY=3
SMILES=N/A
INCHIKEY=NOFOAYPPHIUXJR-APNQCZIXSA-N
INCHI=InChI=1S/C20H34O4/c1-17(11-21)15-4-3-13-9-14-10-19(13,7-8-20(14,24)12-22)18(15,2)6-5-16(17)23/h13-16,21-24H,3-12H2,1-2H3/t13-,14+,15-,16+,17-,18-,19-,20-/m0/s1
MSLEVEL=2
SOURCE_INSTRUMENT=N/A-ESI-QFT
FILENAME=library_mgf.mgf
SEQ=*..*
IONMODE=positive
ORGANISM=MONA
NAME=Aphidicolin [M+H]+
PI=MoNA
DATACOLLECTOR=MoNA:VF-NPL-QEHF004579
PUBMED=N/A
SUBMITUSER=mwang87
TAGS=
SPECTRUMID=CCMSLIB00004695642
SCANS=4579
50.275467 0.036694 
51.685066 0.026832 
51.693508 0.026919 
52.156708 0.019036 
53.862671 0.027067 
54.186905 0.021884 
54.209263 0.024117 
55.01878 0.375844 
55.055073 2.526576 
55.317787 0.028808 
55.597626 0.030376 
56.011307 0.030089 
56.050365 0.154746 
56.632187 0.028834 
56.712376 0.030029 
57.034454 0.646352 
57.070705 3.968328 
57.125263 0.028387 
57.350563 0.024923 
58.063202 0.045531 
58.064281 0.039903 
58.065922 8.857898 
58.067463 0.171739 
58.0742 0.027123 
58.109764 0.027722 
58.538231 0.032799 
59.049988 1.359497 
59.061245 0.379501 
59.069427 0.092461 
59.554192 0.041202 
59.635002 0.025966 
59.968315 0.037698 
60.045361 0.070874 
60.08168 0.180304 
61.011501 0.294736 
61.479771 0.027556 
61.974747 0.034009 
62.060982 0.514333 
62.497269 0.020989 
62.982529 0.24515 
63.257431 0.02311 
63.427494 0.02047 
64.930687 0.025384 
65.932587 0.037608 
67.055 2.810557 
69.034256 2.463004 
69.07061 4.376329 
69.30558 0.02185 
70.065826 2.015561 
70.074181 0.075431 
71.04998 1.3207 
71.086258 3.08833 
71.112671 0.032255 
72.045174 1.66698 
72.081627 0.520615 
72.089462 0.02063 
73.029289 0.167656 
73.047508 1.477367 
73.065697 0.185641 
73.972549 0.035685 
74.060814 0.031854 
74.097137 0.030245 
75.018158 0.036067 
76.039787 0.021031 
76.33474 0.032133 
77.80365 0.033642 
78.48275 0.031298 
79.021912 0.766816 
79.05497 1.474236 
79.269119 0.026998 
79.434227 0.025627 
79.914749 0.030118 
80.382385 0.03203 
80.584618 0.033734 
81.034225 0.266919 
81.070526 5.730456 
81.340004 0.02439 
81.924942 0.020673 
82.065857 1.143011 
82.073967 0.157724 
83.049881 1.09976 
83.086143 5.199409 
83.815987 0.026804 
84.045013 0.175458 
84.08139 6.166617 
84.089554 0.160724 
85.029015 0.065229 
85.065346 1.868837 
85.084831 0.068124 
85.096848 0.060807 
85.101837 0.614103 
85.885033 0.032639 
86.060753 0.627679 
86.097031 0.69953 
87.008453 0.063656 
87.044662 2.062631 
88.039879 0.205664 
89.060295 2.470622 
89.790634 0.028912 
90.055542 7.420137 
90.255714 0.025329 
91.054909 1.913126 
91.058128 3.881275 
91.458633 0.025124 
91.474159 0.034903 
92.983192 0.10326 
93.070419 3.25851 
94.06562 0.23701 
94.121849 0.031202 
95.049728 1.116705 
95.086044 5.573313 
96.044922 0.03372 
96.081329 1.014697 
96.089584 0.214581 
96.234398 0.029374 
96.334045 0.024479 
96.799011 0.025511 
97.029022 0.138394 
97.065292 2.408539 
97.101692 3.544192 
97.736832 0.037447 
98.060638 0.245387 
98.096909 0.814961 
98.104782 0.0788 
99.044693 0.818247 
99.080902 2.144791 
100.039886 0.231206 
100.076279 1.094662 
100.084084 0.029859 
100.112549 6.230275 
101.003532 0.0733 
101.060242 1.668832 
101.115959 0.042234 
101.415833 0.026127 
101.857727 0.034458 
101.950363 0.028649 
102.055542 0.231283 
102.091873 1.11685 
102.402977 0.039573 
103.039452 1.396631 
103.075569 0.03538 
103.156364 0.030993 
105.034027 0.037978 
105.07032 7.325392 
106.073685 0.094159 
107.049675 0.81678 
107.085938 3.40777 
107.221031 0.019632 
107.544235 0.034463 
108.0812 0.38052 
108.08934 0.039511 
108.371208 0.037363 
108.559967 0.035431 
109.016159 0.035732 
109.028854 0.040998 
109.065277 1.368531 
109.101578 3.944469 
110.06044 0.68095 
110.096893 0.477135 
110.104912 0.102527 
111.044609 0.407092 
111.080879 1.573102 
111.117218 1.079042 
112.040337 0.027707 
112.076233 0.150334 
112.112312 0.02772 
112.222763 0.032694 
112.289223 0.037043 
113.06015 0.731977 
113.096497 0.265502 
114.055305 0.248848 
114.091843 0.771697 
114.507782 0.027552 
115.039299 0.031708 
115.075821 0.151971 
115.086945 0.16829 
116.107529 0.18894 
117.055298 0.031283 
117.070366 0.674943 
117.577286 0.027023 
118.245499 0.029251 
119.049683 0.061354 
119.085838 2.004557 
119.508553 0.037601 
119.78022 0.036694 
120.081177 0.346429 
121.028793 0.098416 
121.065247 1.254914 
121.101456 2.840685 
122.096725 0.721847 
122.105095 0.095368 
122.409637 0.03843 
123.044334 0.232674 
123.080765 1.408993 
123.117126 1.894619 
123.972725 0.031301 
124.039833 0.125122 
124.076012 0.291431 
124.11235 1.631254 
124.421371 0.033222 
125.060036 0.554294 
125.096344 2.092944 
125.132729 0.076248 
126.055275 0.227641 
126.09156 2.445845 
127.075684 0.085163 
127.112106 0.104051 
128.0345 1.10842 
128.070801 0.118449 
128.107254 0.44806 
128.370499 0.031479 
128.410599 0.029476 
129.054993 0.202626 
129.070053 0.436812 
130.050156 0.190192 
130.086716 0.122848 
131.07048 0.089826 
131.085648 1.860316 
131.185455 0.034521 
133.065063 0.223872 
133.086212 0.490171 
133.101257 5.457498 
134.06012 0.029234 
134.096893 0.026367 
134.10466 0.403841 
135.04361 0.029333 
135.080597 1.108657 
135.116898 2.864853 
136.061935 0.43174 
136.07576 0.186821 
136.082977 0.025371 
136.112274 0.737744 
136.120239 0.042041 
137.011734 0.056497 
137.059814 0.446033 
137.096237 1.16113 
137.13269 1.329184 
137.760193 0.025101 
138.054993 0.125373 
138.061951 0.028499 
138.091461 0.070401 
138.12793 0.654929 
138.136139 0.035168 
139.039078 0.065162 
139.049728 0.021024 
139.075439 0.374855 
139.111938 0.824983 
139.335846 0.032807 
140.034424 0.036057 
140.107101 0.035469 
141.054901 0.061519 
141.091064 0.234863 
141.127502 0.041852 
142.122818 0.401626 
142.132233 0.022947 
142.159073 0.033192 
142.460159 0.031997 
142.938675 0.178509 
143.08577 0.960274 
143.972122 0.025779 
144.101913 0.035441 
145.06488 0.427916 
145.101135 3.157811 
146.060135 0.033413 
146.10466 0.145465 
147.080719 0.90207 
147.116928 3.678145 
147.314606 0.028313 
148.075745 0.033835 
148.083374 0.028471 
148.111359 0.028392 
148.120224 0.209804 
149.059921 0.42837 
149.096252 1.423641 
149.107529 0.056662 
149.126312 0.028724 
149.132599 1.677302 
150.091415 3.662332 
150.12822 0.108508 
150.136124 0.11202 
150.432434 0.026823 
150.951065 0.08329 
151.075455 0.562014 
151.095215 0.066361 
151.111954 1.222189 
151.1483 0.034871 
152.070633 0.140839 
152.107376 0.374838 
152.143143 0.045661 
152.983475 0.037313 
153.054611 0.118989 
153.091202 0.657065 
153.127487 0.236328 
154.05014 0.134618 
154.122772 0.409833 
154.159256 0.036454 
155.021973 0.023155 
155.106796 0.187775 
155.685287 0.030118 
156.029282 0.158331 
156.138382 0.206611 
156.779297 0.026471 
157.065201 0.026399 
157.101349 1.965907 
158.044876 0.408608 
158.48233 0.03209 
159.080612 0.475286 
159.116898 2.43338 
160.027832 0.072605 
160.075851 2.013931 
161.059875 0.410585 
161.096191 1.286279 
161.13269 0.566311 
162.022141 0.075413 
162.055328 0.081734 
162.091492 0.577225 
163.075562 1.523854 
163.111908 1.165758 
163.148285 0.502188 
163.959381 0.027692 
164.070969 0.033447 
164.078476 0.036377 
164.920609 0.910896 
165.054825 0.189869 
165.091309 0.549965 
165.12764 0.534817 
166.086594 0.144529 
166.122818 0.644225 
167.08551 0.156047 
167.106628 0.168322 
167.118011 2.917383 
168.066071 0.025081 
168.102112 0.342864 
168.122971 0.033541 
168.138474 0.514324 
169.101395 1.380203 
169.122375 0.038557 
170.117752 0.372727 
171.08049 0.083079 
171.117081 0.47982 
172.076004 0.090722 
173.096359 0.645877 
173.132889 0.212079 
174.039886 0.440211 
174.091537 0.504852 
175.047501 0.027754 
175.075439 0.261249 
175.111816 3.224395 
175.148041 0.15593 
176.037567 0.075765 
176.071045 0.18113 
176.1073 0.089618 
176.115463 0.198414 
177.054855 0.525784 
177.091064 0.865527 
177.127502 2.210419 
177.163239 0.034202 
177.635757 0.025415 
178.038788 0.02986 
178.086624 0.061217 
178.122711 0.211145 
178.855087 0.04647 
179.070129 0.041796 
179.106888 0.387577 
179.143143 0.151363 
179.963409 0.027248 
179.980347 0.03737 
180.065735 0.059426 
180.101669 0.040257 
180.138321 0.312138 
180.231583 0.033367 
180.894485 0.227479 
181.08551 0.035608 
181.122284 0.107888 
181.158447 0.037266 
181.611954 0.024403 
182.117828 0.268484 
182.154266 0.143322 
184.075653 0.04155 
185.096207 3.302065 
185.132172 0.100554 
186.054565 0.027288 
186.091354 0.268496 
186.099747 0.196163 
186.959335 0.030242 
187.07576 0.297029 
187.111923 4.092551 
188.070801 0.028853 
188.091522 0.026706 
188.108505 0.025064 
188.115143 0.111026 
188.14566 0.025742 
189.091263 0.735759 
189.112686 0.030982 
189.127533 0.562099 
189.164276 0.122444 
190.038498 1.054247 
190.049362 0.092751 
190.086243 0.187601 
191.070404 0.164859 
191.106812 0.521512 
191.179993 0.028759 
192.05394 0.037975 
192.102081 0.030498 
192.138687 0.036502 
193.085632 0.1397 
193.122559 0.342204 
193.862671 0.038505 
194.081512 0.098835 
195.06572 0.066774 
195.080597 0.119967 
195.137726 0.042234 
196.133499 0.149721 
196.868469 0.66424 
197.096252 0.564282 
197.974594 1.779752 
198.055084 0.600946 
198.091263 0.327447 
198.867233 0.024686 
198.954819 0.031252 
199.970306 0.948402 
200.038376 0.029031 
200.074295 0.608735 
200.108017 0.029448 
201.127365 0.133049 
201.163254 0.038801 
201.967422 0.244643 
202.086319 5.990701 
202.096298 0.036397 
203.070328 0.034345 
203.090408 0.274856 
203.106659 2.779438 
203.142197 0.031903 
204.065552 2.051775 
204.111023 0.0701 
204.138596 0.229831 
204.821609 0.024314 
205.122437 3.517244 
205.13266 0.053777 
206.080963 0.056857 
206.117157 0.705391 
206.127014 0.048183 
206.153595 0.069828 
206.977829 0.035372 
207.101639 0.12096 
207.138 0.184944 
207.628708 0.045031 
208.048981 1.915603 
208.096863 0.056909 
208.133255 0.513897 
209.117935 0.103974 
209.128601 1.721656 
210.063995 0.022264 
210.132172 0.032074 
212.070557 0.063923 
213.091049 2.129002 
213.123566 0.53177 
213.164764 0.032925 
214.086273 0.042978 
214.14325 0.030419 
214.743805 0.151932 
214.755157 0.910498 
214.766647 0.627902 
215.106796 2.169961 
215.178833 0.03036 
215.985184 0.603106 
216.065598 100.0 
216.138321 0.064091 
216.692764 0.026788 
217.069092 8.16578 
217.980606 0.117818 
218.033447 0.239894 
218.081696 0.041382 
218.154419 0.039918 
219.138962 0.026341 
219.174347 0.711916 
220.097031 0.065002 
220.133011 0.144471 
221.117355 0.201379 
222.112244 0.374818 
222.148407 0.204493 
223.132858 0.299164 
224.07077 0.090342 
224.127716 0.118427 
225.112534 0.066595 
226.059402 0.976267 
226.086868 0.036962 
228.077576 0.038929 
229.177979 0.034501 
229.93634 0.043753 
230.081192 27.394297 
231.085052 2.489765 
231.101456 3.510081 
232.105988 0.18364 
232.134521 0.041452 
233.117416 3.594979 
233.152802 0.056562 
233.165024 0.238123 
234.121231 0.040331 
234.148941 6.104398 
234.184006 0.03849 
235.152542 0.800098 
235.180389 0.044768 
236.043945 0.62103 
236.163895 0.043011 
237.124161 0.068179 
238.143539 0.18269 
242.081238 0.714467 
243.119522 0.02524 
243.1745 0.113593 
244.096878 16.505222 
244.131943 0.10706 
245.100235 1.734048 
245.189316 0.042897 
246.148361 0.034425 
246.18515 0.03911 
246.61467 0.029674 
246.940186 0.039853 
246.962036 0.639344 
247.062103 0.028134 
247.169098 0.034412 
248.128662 0.037718 
248.164459 1.273379 
248.202774 0.038687 
248.918182 0.038397 
248.940353 0.031114 
249.112152 2.274331 
250.115692 0.097905 
250.144592 0.038326 
250.178391 0.06863 
251.127762 2.793209 
251.175232 1.131911 
251.211609 0.116033 
252.180283 0.040458 
253.190948 0.056489 
254.081406 0.077439 
255.059647 0.027478 
256.096802 5.633678 
256.132782 0.143809 
257.100433 0.121615 
258.112457 10.304909 
258.148071 0.134156 
259.115845 0.914168 
259.167755 0.033942 
260.164551 0.042211 
261.185333 0.10035 
262.143219 0.033433 
262.179077 0.049622 
262.732819 0.026184 
264.159943 0.040078 
264.972076 0.267832 
265.939453 0.149112 
266.119049 0.040963 
266.154419 0.028446 
268.116516 0.023145 
268.135254 0.021357 
270.112366 1.111882 
272.127899 0.876501 
272.5383 0.041826 
274.143829 1.545503 
274.180145 0.183472 
275.163391 0.081327 
276.158752 0.045997 
276.195831 1.425381 
277.192291 0.082436 
278.153137 0.040008 
278.211243 0.048659 
279.109833 0.03177 
279.207001 0.029278 
280.190338 0.331851 
282.914764 0.070261 
283.262939 1.023799 
284.128113 2.950218 
285.221588 0.04072 
285.677246 0.039122 
288.19574 2.439821 
289.179077 0.085506 
289.199463 0.044361 
292.096558 0.391125 
292.154083 0.129425 
292.190338 0.422597 
293.100311 1.367275 
293.160645 0.035966 
293.193756 0.391423 
293.230164 0.050537 
294.103119 6.803607 
294.129669 0.05017 
294.168854 0.039072 
294.206146 0.736549 
295.106537 0.218324 
295.181335 0.049594 
296.055389 9.734375 
296.127869 0.435324 
296.164551 0.233545 
296.219452 0.039693 
296.294617 0.682702 
297.123108 3.302259 
297.180176 0.126982 
298.14212 0.040772 
302.138397 0.256363 
302.175201 0.456087 
302.211273 1.113462 
302.240875 0.028865 
302.283905 0.194591 
303.30484 0.032355 
304.190582 6.45477 
305.164856 0.021828 
305.193359 0.929547 
305.222565 8.480103 
306.073822 0.037019 
306.104095 0.976474 
306.170593 0.114699 
306.205963 2.218105 
306.225372 0.939878 
307.08017 0.301575 
307.146637 0.044309 
307.187286 0.026998 
307.213593 0.032579 
307.236237 0.084715 
308.082153 2.17876 
310.070679 0.100032 
310.165039 0.045752 
320.112549 0.039529 
320.14859 0.738745 
320.185394 1.387371 
320.22168 2.747039 
320.25708 0.132955 
321.095154 0.573623 
321.157623 0.037726 
321.194946 1.112741 
321.222198 0.357271 
321.25705 0.072766 
322.099243 11.154101 
322.143524 0.045314 
322.163849 0.038613 
322.200562 2.898991 
322.236206 0.113936 
323.10553 35.051186 
323.174896 1.228994 
323.20285 0.167896 
324.085846 0.045085 
324.108337 2.272442 
324.120697 1.927489 
324.986969 0.083966 
325.129791 0.645215 
337.196991 0.028894 
337.235016 0.517228 
337.2565 3.238953 
338.06546 0.62345 
338.129333 83.480026 
338.173645 4.084635 
338.196136 0.209045 
338.211304 2.127159 
338.233124 4.375137 
338.260498 2.119701 
338.304321 0.084398 
338.341278 0.450917 
339.068481 0.093215 
339.105042 0.058599 
339.134338 9.295531 
339.179413 0.3032 
339.206451 83.936272 
339.266235 1.020106 
339.33667 3.563313 
340.080902 0.067662 
340.116699 0.607501 
340.155914 20.967793 
340.19046 96.368454 
340.210175 13.889939 
340.228149 3.100413 
340.320496 0.182811 
340.356903 1.046411 
340.393463 21.187969 
341.118103 0.093302 
341.156494 3.122162 
341.191162 16.899431 
341.220001 1.286128 
341.265137 2.172259 
341.352936 0.186091 
341.396881 2.047815 
342.996429 0.622601 
359.027374 0.849604 
END IONS

