BEGIN IONS
PEPMASS=227.0
CHARGE=1+
COMPOUNDNAME=MoNA:2466870 1swk
LIBRARYQUALITY=3
SMILES=N/A
INCHIKEY=YBJHBAHKTGYVGT-ZKWXMUAHSA-N
INCHI=InChI=1S/C10H16N2O3S/c13-8(14)4-2-1-3-7-9-6(5-16-7)11-10(15)12-9/h6-7,9H,1-5H2,(H,13,14)(H2,11,12,15)/t6-,7-,9-/m0/s1
MSLEVEL=2
SOURCE_INSTRUMENT=LC-ESI-IT-LC-ESI-IT
FILENAME=output_mgf.mgf
SEQ=*..*
IONMODE=
ORGANISM=MONA
NAME=MoNA:2466870 1swk [M+H]+
PI=MoNA
DATACOLLECTOR=MoNA
PUBMED=N/A
SUBMITUSER=mwang87
TAGS=
SPECTRUMID=CCMSLIB00000567295
SCANS=4546
67.2 3.11113 
69.2 0.105631 
70.2 0.386049 
74.1 0.426312 
76.1 0.972939 
77.1 0.549942 
79.2 3.410496 
80.4 0.93315 
81.1 2.244296 
82.3 0.342471 
83.1 0.932676 
84.1 0.255314 
85.1 2.270348 
86.0 0.331576 
87.0 0.331576 
91.1 1.698143 
92.2 0.152999 
93.1 0.528153 
94.2 0.269524 
95.1 1.158621 
96.2 0.152999 
97.1 57.353171 
98.1 1.755932 
99.1 3.191656 
100.1 2.066192 
101.0 0.316892 
102.0 0.382733 
103.0 0.357155 
105.1 4.044753 
107.1 2.437557 
108.1 6.354417 
109.1 0.775888 
111.1 6.470942 
112.0 0.131209 
113.1 5.851842 
114.0 0.174788 
115.1 5.902526 
117.0 0.597784 
118.1 0.23684 
120.1 3.607073 
121.1 5.526898 
122.0 2.951974 
123.1 13.5103 
124.1 2.641713 
125.0 16.08333 
126.0 1.111253 
127.0 0.291313 
129.0 2.717976 
131.0 2.230085 
132.1 3.136709 
133.1 7.269093 
134.1 0.458996 
136.1 1.985666 
137.0 0.914676 
138.0 2.000351 
139.1 15.744175 
140.0 0.805256 
141.0 5.848053 
142.1 0.149209 
143.0 8.671186 
144.1 0.677836 
144.9 0.404523 
147.0 0.371839 
149.0 20.59371 
150.1 7.524406 
151.1 5.498477 
152.1 1.209779 
153.1 2.186033 
154.1 0.626679 
156.0 3.129604 
158.1 0.397417 
159.0 0.269524 
163.0 2.943921 
164.0 2.266085 
165.0 4.7548 
166.1 72.295879 
167.1 40.054852 
168.0 0.160104 
174.1 0.043579 
175.0 2.758238 
176.0 1.257147 
180.1 0.287997 
181.1 2.827396 
182.1 1.446619 
183.1 1.042096 
184.1 26.444605 
185.0 0.764993 
192.0 16.727535 
193.1 11.918262 
199.1 22.99811 
208.4 0.611995 
209.1 100.0 
209.9 2.196928 
227.1 4.110121 
245.1 10.176067 
247.0 0.349576 
250.8 0.094736 
254.1 0.189472 
272.1 0.389839 
END IONS

