BEGIN IONS
PEPMASS=305.115
CHARGE=1+
COMPOUNDNAME=(1S,8R,9R)-8-hydroxy-4-(propan-2-ylidene)-10-oxatricyclo[7.2.1.01,5]dodecane-8-carboxylic acid
LIBRARYQUALITY=3
SMILES=N/A
INCHIKEY=IOYVXXQKVQKQIG-ZJPTYJIISA-N
INCHI=InChI=1S/C15H22O4/c1-9(2)10-3-5-14-7-12(19-8-14)15(18,13(16)17)6-4-11(10)14/h11-12,18H,3-8H2,1-2H3,(H,16,17)/t11?,12-,14-,15-/m1/s1
MSLEVEL=2
SOURCE_INSTRUMENT=N/A-ESI-QFT
FILENAME=library_mgf.mgf
SEQ=*..*
IONMODE=positive
ORGANISM=MONA
NAME=(1S,8R,9R)-8-hydroxy-4-(propan-2-ylidene)-10-oxatricyclo[7.2.1.01,5]dodecane-8-carboxylic acid [M+K]+
PI=MoNA
DATACOLLECTOR=MoNA:VF-NPL-QEHF021468
PUBMED=N/A
SUBMITUSER=mwang87
TAGS=
SPECTRUMID=CCMSLIB00004712531
SCANS=21468
50.086063 0.024735 
50.165974 0.0159 
50.474304 0.013879 
51.023285 0.250459 
51.542618 0.017592 
51.592739 0.022653 
51.667992 0.021517 
51.940319 0.072628 
52.031315 0.004977 
52.600479 0.030347 
53.002525 1.054403 
53.038921 7.955049 
53.519932 0.019365 
53.997753 0.078146 
54.042339 0.005764 
54.092793 0.005067 
54.495308 0.017544 
54.937729 0.012132 
55.018173 1.780613 
55.054543 5.301117 
55.934704 0.229448 
56.049774 0.096601 
56.05777 0.009303 
56.871487 0.019242 
56.942516 0.041602 
56.965092 0.679203 
57.033783 1.167881 
57.070179 7.666398 
57.071819 0.056483 
57.096893 0.021845 
57.935055 0.544089 
58.065372 1.12618 
58.073498 0.145725 
58.677021 0.025841 
59.049408 2.024471 
59.385578 0.012544 
59.930473 0.458493 
60.044514 0.00845 
61.010876 1.520497 
61.028591 0.00977 
61.927891 0.006437 
62.014111 0.027653 
62.018677 0.050416 
62.068279 0.005598 
62.563801 0.012669 
63.006676 0.026998 
63.997822 0.005881 
64.416687 0.025026 
64.828476 0.020637 
64.906387 0.02205 
64.933517 0.017105 
65.038734 1.421965 
65.040565 0.007837 
65.357849 0.01809 
67.017952 0.050143 
67.041626 0.019698 
67.054359 8.764245 
68.025803 0.901067 
68.049637 0.047847 
68.057716 0.13376 
68.060387 0.006696 
68.789833 0.013201 
68.997192 1.141855 
69.033607 3.662168 
69.044762 0.010278 
69.069992 2.807075 
69.07209 0.015444 
69.379044 0.028248 
69.960831 0.007048 
70.065224 0.67951 
70.073196 0.007425 
70.503212 0.027918 
70.610435 0.022698 
70.704292 0.017041 
70.957985 0.124125 
71.012901 0.027079 
71.04924 0.816486 
71.068939 0.02205 
71.085609 1.631742 
71.145531 0.020519 
71.929306 0.010244 
72.080917 0.079441 
72.089134 0.012074 
72.937172 0.414706 
72.958664 0.005565 
73.028397 0.027512 
73.06266 0.021569 
73.064857 3.276529 
73.067108 0.027384 
74.060051 0.008402 
74.937469 0.006166 
75.945328 0.011345 
76.531754 0.029641 
76.933121 0.048619 
76.956924 0.015172 
77.038612 0.221941 
77.040787 0.010276 
77.517532 0.021939 
77.940842 0.078436 
78.046593 0.018532 
79.017937 0.683982 
79.021202 0.463081 
79.050423 0.019288 
79.054283 9.916162 
79.759277 0.021194 
80.049522 41.167484 
80.061951 0.030354 
80.922035 0.025442 
81.033539 1.134066 
81.044693 0.467656 
81.052917 2.264371 
81.069931 6.817283 
81.072472 0.07865 
81.582947 0.014033 
82.041328 0.024577 
82.065109 0.145647 
82.073212 0.164086 
83.012856 0.909582 
83.049179 100.0 
83.085518 0.513397 
83.258057 0.007227 
84.04438 0.00695 
84.052406 0.009519 
84.080818 0.152601 
84.239914 0.039942 
85.028442 0.754836 
85.039642 0.153523 
85.059608 0.01893 
85.06485 1.186097 
85.101204 0.101793 
85.842934 0.022805 
86.003502 0.050043 
86.060158 0.019642 
86.096184 0.038426 
86.122314 0.013243 
87.044052 0.157762 
88.075737 0.145706 
88.968414 0.053443 
90.451157 0.021807 
90.947754 0.208122 
91.054276 15.717352 
92.049614 0.040069 
92.057632 0.376364 
92.062103 0.052952 
93.033516 0.187724 
93.044708 0.011355 
93.057365 0.054817 
93.069969 6.081463 
93.956108 0.078234 
93.959175 0.006544 
94.041389 0.061556 
94.065231 0.324184 
94.07325 0.151852 
94.077682 0.025331 
95.012711 0.026031 
95.036255 0.021636 
95.049194 4.315122 
95.060448 0.029668 
95.085564 3.589677 
95.861275 0.021482 
95.951347 0.144286 
96.044449 0.14203 
96.052422 0.012051 
96.056915 0.081608 
96.080818 0.038041 
96.088844 0.037309 
96.753288 0.024935 
97.028496 0.339055 
97.064888 2.477466 
97.101288 0.022814 
97.948639 0.005763 
98.060097 0.018648 
98.096191 0.038748 
98.454521 0.023325 
99.044128 1.877833 
99.080429 0.165927 
99.488213 0.033925 
101.059792 1.625588 
101.674965 0.023301 
103.054306 1.511934 
103.874916 0.011791 
104.061951 0.058763 
104.867714 0.014195 
104.910332 0.016028 
105.033653 0.106433 
105.044785 0.670919 
105.069977 13.081978 
105.114899 0.020962 
105.836029 0.013794 
106.0411 0.006193 
106.065231 0.54106 
106.073326 0.333858 
106.077423 0.041464 
106.747566 0.021684 
106.925858 0.071909 
106.999908 0.021391 
107.049179 2.079734 
107.072937 0.376537 
107.085548 7.986454 
107.932449 0.013647 
107.950768 0.006392 
108.044128 0.021941 
108.056816 0.53547 
108.076775 0.015401 
108.080711 0.505606 
108.088768 0.011154 
108.092987 0.015098 
108.443169 0.005485 
108.493477 0.206302 
108.958244 0.031185 
109.028511 0.433173 
109.052116 0.041571 
109.064865 2.934003 
109.076012 0.02507 
109.097137 0.00556 
109.101303 1.544626 
110.060135 0.228763 
110.072533 0.062842 
110.104378 0.007206 
110.699554 0.021152 
111.044151 2.267727 
111.080536 1.267277 
113.059761 0.602082 
113.096375 0.005344 
113.480713 0.013448 
113.96386 0.007615 
114.640953 0.02228 
115.054298 2.648011 
115.08728 0.024918 
116.005325 0.114877 
116.057701 0.026412 
116.062042 0.78426 
116.963463 0.005897 
116.984741 0.108653 
117.003357 0.006613 
117.057411 0.120468 
117.069916 6.110025 
117.498817 0.009188 
117.650421 0.023714 
117.823509 0.025215 
118.065155 0.476208 
118.073135 0.009193 
118.077705 0.098546 
119.049324 0.964132 
119.060516 0.410488 
119.072914 0.027656 
119.085617 6.041348 
119.833298 0.021349 
120.044411 0.033977 
120.05687 0.11014 
120.080933 1.044007 
120.088821 0.126459 
120.093216 0.019057 
120.567474 0.006955 
120.669563 0.018913 
120.940643 0.007641 
121.028473 0.083835 
121.06485 2.511612 
121.088631 0.286501 
121.10128 1.236153 
121.736389 0.027175 
122.036621 0.017546 
122.060089 0.477308 
122.07267 0.333384 
122.096497 0.096776 
122.920738 0.028776 
122.940918 0.372094 
123.044136 0.517597 
123.054955 0.007204 
123.067825 0.121123 
123.080429 3.021284 
123.116898 0.405317 
123.938644 0.009904 
124.051971 0.103841 
124.075737 0.094119 
124.083664 0.008108 
124.088211 0.010843 
124.936401 1.421063 
125.023415 0.240598 
125.059822 0.782675 
125.096207 1.260512 
126.055061 0.005688 
126.933792 0.021969 
127.039085 1.579734 
127.054482 0.030995 
127.074913 0.012181 
127.856941 0.022756 
128.062073 6.647 
128.963608 0.058443 
128.984238 0.010651 
129.054688 0.324612 
129.069855 7.793818 
130.065231 0.574469 
130.077789 2.741342 
130.835022 0.022452 
130.979416 0.01027 
131.000168 0.023821 
131.049179 0.561389 
131.073227 0.485645 
131.085617 7.706254 
132.044479 0.099339 
132.056961 0.184199 
132.080902 1.040187 
132.088867 0.081568 
132.093323 0.096178 
132.600189 0.006169 
132.958069 0.039722 
133.052139 0.033294 
133.064835 1.846542 
133.076035 0.098633 
133.088364 0.057546 
133.101181 2.669403 
134.060043 0.539388 
134.06749 0.007172 
134.0728 0.032515 
134.096512 0.623061 
134.104202 0.008019 
134.919479 0.00894 
134.955963 0.009146 
134.996048 0.013727 
135.044159 0.620141 
135.08046 7.335486 
135.116745 0.147289 
136.052017 0.043235 
136.075806 0.574962 
136.08844 0.164822 
136.112671 0.006306 
136.215088 0.024622 
136.952972 0.006233 
137.01178 0.00885 
137.059769 2.086694 
137.083328 0.030024 
137.096268 0.720779 
137.928024 0.180745 
138.054977 0.055522 
138.067657 0.400101 
138.951202 0.005578 
138.983963 0.044461 
139.038986 16.519485 
139.075363 1.399864 
139.923508 0.848773 
140.236633 0.026624 
140.951294 0.006738 
140.98439 0.232573 
141.054916 0.525471 
141.069839 8.486179 
141.42337 0.025066 
141.920914 0.026056 
141.949142 0.009785 
142.077866 4.534615 
142.946899 0.035048 
142.979492 0.038188 
143.048859 0.023154 
143.060654 0.035097 
143.085587 8.184587 
144.044174 0.008343 
144.057159 0.57207 
144.080978 0.617278 
144.09343 4.691271 
144.958099 0.008224 
145.06485 3.148356 
145.075485 0.040079 
145.088791 0.072059 
145.101242 7.099289 
146.060043 0.382686 
146.0728 0.714992 
146.096588 0.734371 
146.103394 0.031449 
146.109604 0.025224 
146.591278 0.021835 
146.974274 0.229206 
147.010468 0.005871 
147.044006 0.236374 
147.067978 0.097493 
147.080475 1.956072 
147.091492 0.008021 
147.104538 0.125 
147.116943 0.876745 
148.051422 0.01676 
148.075714 1.548445 
148.088348 0.129085 
148.111923 0.165924 
148.955521 0.007188 
148.97197 0.012712 
148.989532 0.008234 
149.05983 0.840397 
149.083694 0.081369 
149.09613 1.726244 
149.13269 0.009034 
150.054947 0.041826 
150.091812 0.047612 
150.951035 0.102781 
150.96846 0.0425 
151.039032 0.166334 
151.062836 0.065675 
151.075363 1.248669 
151.111832 0.216944 
152.062042 0.480983 
152.07048 0.154697 
152.08284 0.036326 
152.95163 0.724314 
152.966888 0.007731 
153.054825 0.177376 
153.069962 2.572417 
153.091187 0.271508 
153.949081 0.01227 
153.959656 0.417431 
153.992172 0.150497 
154.065826 0.007508 
154.077744 6.985808 
154.122726 0.016365 
154.946976 2.776529 
155.000153 0.176239 
155.049286 0.012815 
155.060547 0.494077 
155.070358 0.056244 
155.085495 4.980591 
155.947662 0.030956 
155.954773 1.881408 
155.960693 0.021591 
156.043839 0.006198 
156.056854 0.025218 
156.08139 0.039017 
156.09343 7.521829 
156.242126 0.027846 
156.944336 0.128016 
156.995499 0.035994 
157.064911 1.266819 
157.076248 0.00855 
157.089355 0.074763 
157.101257 3.31662 
157.951553 0.045061 
158.060349 0.120886 
158.072678 2.622085 
158.096542 0.427737 
158.109314 0.673297 
158.941681 0.021999 
158.994858 0.006627 
159.043991 0.023376 
159.068954 0.029852 
159.080475 6.349064 
159.104919 0.112943 
159.116882 5.832922 
160.05162 0.024789 
160.075882 0.43809 
160.088455 1.572007 
160.099808 0.007894 
160.112167 0.635623 
160.124847 0.029143 
161.059723 0.843794 
161.083832 0.080902 
161.096054 2.893959 
161.120056 0.024465 
161.132675 0.209775 
162.055023 0.059154 
162.067429 0.238765 
162.091415 0.37193 
162.103745 0.170939 
162.127243 0.024625 
162.511505 0.024408 
163.038559 0.010212 
163.062683 0.014916 
163.075424 1.201572 
163.099014 0.019431 
163.11174 0.876568 
164.070862 0.056266 
164.107071 0.029248 
165.054871 0.093705 
165.069885 0.968827 
165.09111 0.388346 
166.039703 0.02178 
166.078033 0.398367 
166.979645 0.00577 
167.000153 0.256691 
167.033951 0.027335 
167.070389 0.543854 
167.085648 1.384259 
167.92865 0.014601 
168.056854 0.068839 
168.078522 0.136925 
168.093475 0.402368 
168.264771 0.013626 
168.805603 0.027863 
168.91716 0.060636 
168.925003 0.006926 
168.961884 0.010141 
168.995041 0.010445 
169.016006 0.084572 
169.064896 1.260279 
169.101212 7.869838 
170.072861 0.191836 
170.096283 0.051584 
170.109131 1.547106 
170.402924 0.024597 
170.962234 0.120054 
170.994537 0.026067 
171.055573 0.029636 
171.080475 3.200704 
171.092972 0.009568 
171.103958 0.041698 
171.116913 2.359886 
171.904526 0.022746 
171.9133 0.03713 
171.959335 0.009558 
172.075546 0.101878 
172.088333 3.819988 
172.112091 0.205535 
172.124985 0.062728 
172.957703 0.92288 
172.989456 0.007131 
173.05983 0.476575 
173.096207 10.673244 
173.13266 0.382188 
174.055023 0.334781 
174.067642 0.356121 
174.091431 0.275827 
174.104187 1.33003 
174.127808 0.053301 
174.954727 0.034316 
175.0383 0.005779 
175.062881 0.060652 
175.0755 1.898156 
175.09906 0.009192 
175.111938 1.322863 
175.147812 0.008019 
176.070602 0.196097 
176.083389 0.54445 
176.106964 0.229741 
176.119766 0.062771 
176.129196 0.017564 
176.143631 0.961249 
177.05481 0.339553 
177.07811 0.012194 
177.091217 0.7039 
177.127335 0.306102 
178.062332 0.104343 
178.077744 0.268454 
178.085602 0.031432 
178.122833 0.083325 
179.06105 0.035904 
179.07048 0.283704 
179.085678 1.039253 
179.106766 0.166198 
179.130417 0.143463 
180.093323 0.033778 
180.888245 0.714991 
181.015976 0.06204 
181.06485 0.838298 
181.075241 0.047959 
181.08577 0.043721 
181.101181 0.260955 
182.072784 1.708292 
183.080597 1.856341 
183.089828 0.022282 
183.116867 0.074157 
184.075638 0.007413 
184.088409 0.517823 
184.112457 0.046527 
184.125092 0.008765 
184.989685 0.006966 
185.010468 0.010525 
185.059875 0.597177 
185.070541 0.148515 
185.096191 0.933819 
185.11969 0.028171 
185.132568 0.493878 
185.929169 0.010601 
185.93895 0.425529 
185.948822 0.136389 
186.055328 0.00872 
186.067612 0.238868 
186.092911 0.098481 
186.104034 3.277607 
186.127747 0.113825 
186.136185 0.008347 
186.927734 0.194429 
186.935944 0.594432 
187.075699 1.460303 
187.097885 0.031113 
187.111816 3.616699 
187.944748 0.631 
188.070969 0.405129 
188.083191 0.626232 
188.107529 0.175125 
188.119766 1.654984 
188.143692 0.277138 
188.647797 0.021305 
189.054779 0.052827 
189.078705 0.023939 
189.091034 2.093268 
189.127548 0.335566 
189.13652 0.008441 
189.151123 0.039746 
189.294907 0.025107 
190.062531 0.177661 
190.086349 0.177381 
190.098907 0.61053 
190.122543 0.072491 
190.158966 0.006637 
190.883835 0.009329 
191.000061 0.127389 
191.070496 0.420032 
191.106689 0.388951 
191.143204 0.13897 
191.880417 0.008041 
192.065048 0.00698 
192.102036 0.019197 
192.138123 0.031868 
192.995209 0.05387 
193.073685 0.190581 
193.08551 0.009486 
195.080719 0.214174 
195.10199 0.106581 
195.116302 0.009769 
196.088486 0.363415 
196.953735 0.014178 
197.010071 0.009856 
197.060272 0.04242 
197.071152 0.028395 
197.096222 2.868061 
197.131454 0.005506 
197.890915 0.052058 
198.067291 0.011691 
198.092209 0.022042 
198.104156 0.422 
198.127365 0.008933 
198.898911 0.041948 
199.075394 2.502352 
199.111755 0.329296 
199.147476 0.009527 
200.071167 0.074993 
200.083313 0.718457 
200.106995 0.045206 
200.117554 0.006745 
200.143326 0.037431 
201.080582 0.028472 
201.091324 1.423218 
201.12764 1.099556 
202.086411 0.364603 
202.098984 0.4707 
202.122849 0.087087 
202.134293 0.028418 
202.158859 0.047392 
203.070312 0.342131 
203.091782 0.006821 
203.106674 0.438602 
203.131897 0.0172 
203.143494 0.368413 
203.165283 0.026086 
203.939285 0.02882 
203.949661 0.102327 
204.008316 0.009788 
204.065994 0.025781 
204.078247 1.481424 
204.102249 0.110529 
204.114594 0.380463 
204.138351 0.376651 
204.174942 0.051379 
204.888077 0.00983 
204.946732 0.029793 
205.015518 0.03619 
205.086273 1.832803 
205.122482 0.396276 
205.14624 0.060978 
206.07164 0.168677 
206.081909 0.061856 
206.190018 0.010977 
206.915207 0.008349 
207.079636 0.008582 
207.87561 0.009161 
208.087189 0.043465 
208.883926 0.012719 
208.894791 0.038625 
209.01091 0.041728 
209.8759 0.026869 
209.893753 0.030312 
210.066772 0.007632 
211.075806 0.048914 
211.111679 0.04933 
212.083023 0.102247 
213.05484 0.009987 
213.091049 0.521981 
213.127747 0.089838 
213.886063 0.009474 
213.905106 0.048989 
214.087448 0.175934 
214.099014 1.476528 
214.122818 0.069312 
215.070145 0.074965 
215.095215 0.010582 
215.107239 1.162697 
215.901474 0.021928 
216.10228 0.464268 
216.113617 0.124742 
216.138336 0.027016 
217.015106 0.005611 
217.086182 0.594021 
217.107819 0.024007 
217.122757 0.049412 
218.093903 0.028761 
218.1539 0.042143 
219.101929 0.664963 
219.138321 0.053149 
219.174667 0.010189 
219.403793 0.173915 
219.915161 0.010119 
220.990952 0.005978 
221.107391 0.016715 
222.898743 2.129628 
223.880493 0.024211 
223.900543 0.028528 
224.082748 0.006823 
225.091034 0.106983 
225.886017 0.034379 
226.098267 0.007597 
227.070511 0.400511 
227.106308 0.008407 
228.078445 0.007101 
228.101883 0.060003 
228.138351 0.010318 
229.086243 0.015697 
229.109634 0.008707 
229.122559 0.240764 
229.920258 0.006919 
230.11795 0.115128 
230.153671 0.010326 
230.919022 0.200846 
231.101685 0.381393 
231.12384 0.016939 
231.159103 0.014758 
231.915985 0.443002 
232.097015 0.031982 
232.109161 0.086066 
232.132645 0.020799 
232.169846 0.006747 
233.082199 0.044544 
233.117706 0.009103 
234.07724 0.006162 
234.089447 0.007404 
235.097931 0.145115 
238.913254 0.012624 
239.901611 0.058876 
240.909271 2.802945 
241.085678 0.030979 
241.909927 0.085226 
242.093857 0.096829 
242.118195 0.068277 
243.065735 0.03258 
244.132782 0.026136 
244.169678 0.007118 
246.113159 0.028568 
246.148438 0.047293 
246.185287 0.29913 
246.40358 0.028493 
246.939224 0.01151 
248.929535 0.027973 
250.894257 0.007915 
251.925491 0.01421 
256.095856 0.042219 
258.185364 0.019535 
258.559052 0.025913 
259.153442 0.014134 
260.091858 0.055898 
260.129211 0.054022 
260.201233 0.317624 
261.077179 0.148203 
269.821808 0.007146 
270.185059 0.015837 
280.813507 0.010535 
281.821014 0.019566 
281.91217 0.008761 
285.815308 0.008442 
286.180084 0.008373 
287.83136 0.042474 
288.195892 0.200989 
294.175598 0.00828 
296.546356 0.022183 
297.816254 0.048434 
298.871246 0.024918 
302.818146 0.069729 
304.226776 0.024063 
304.30014 0.173177 
305.157623 0.023425 
306.207001 0.239432 
313.810455 0.031904 
325.337006 0.021988 
END IONS

