BEGIN IONS
PEPMASS=269.09
CHARGE=1+
COMPOUNDNAME=N-acetyltryptophan
LIBRARYQUALITY=3
SMILES=N/A
INCHIKEY=DZTHIGRZJZPRDV-UHFFFAOYSA-N
INCHI=InChI=1S/C13H14N2O3/c1-8(16)15-12(13(17)18)6-9-7-14-11-5-3-2-4-10(9)11/h2-5,7,12,14H,6H2,1H3,(H,15,16)(H,17,18)
MSLEVEL=2
SOURCE_INSTRUMENT=N/A-ESI-QFT
FILENAME=library_mgf.mgf
SEQ=*..*
IONMODE=positive
ORGANISM=MONA
NAME=N-acetyltryptophan [M+Na]+
PI=MoNA
DATACOLLECTOR=MoNA:VF-NPL-QEHF000853
PUBMED=N/A
SUBMITUSER=mwang87
TAGS=
SPECTRUMID=CCMSLIB00004691916
SCANS=853
50.350636 0.00782 
50.416546 0.017654 
51.06781 0.01343 
51.704231 0.009435 
53.115219 0.013228 
53.77021 0.016483 
53.933292 0.006465 
54.575497 0.00914 
54.623978 0.014994 
55.541515 0.01319 
55.553909 0.014795 
55.885082 0.009567 
57.018669 0.007301 
57.205887 0.010104 
57.722336 0.013913 
58.029911 0.007358 
58.388226 0.006781 
58.553493 0.011456 
59.049809 0.140642 
61.011341 31.942505 
62.006432 0.010253 
62.01469 0.010842 
62.135761 0.00667 
62.323231 0.008893 
62.384525 0.013327 
63.566719 0.008033 
64.365479 0.012966 
64.553604 0.012349 
67.876671 0.008586 
69.383301 0.009291 
69.634361 0.007276 
70.094566 0.015309 
70.278511 0.009027 
70.958694 0.194629 
72.367645 0.007869 
72.493179 0.009112 
73.033043 0.010571 
74.645271 0.012915 
75.328598 0.008396 
75.582718 0.007487 
75.639435 0.007889 
75.739563 0.008263 
75.972984 0.008392 
76.419273 0.014084 
76.974808 0.011162 
77.286079 0.008271 
77.370056 0.012803 
80.216316 0.008413 
80.247589 0.007786 
81.919518 0.012295 
82.91169 0.007882 
83.491898 0.009172 
84.159241 0.007856 
87.222855 0.006604 
89.060135 0.081278 
90.291061 0.008419 
90.948219 0.030024 
92.640556 0.007926 
93.136688 0.007275 
93.632652 0.016156 
95.434563 0.009042 
96.049606 0.009127 
96.601944 0.008022 
96.93026 0.015017 
97.432335 0.010395 
100.076118 0.041744 
100.112541 0.125041 
101.060051 1.416526 
103.039391 0.028918 
103.594276 0.006413 
109.423004 0.008374 
110.190598 0.009568 
110.801704 0.013461 
111.012817 0.009871 
112.399368 0.00895 
113.951416 0.00862 
114.940033 0.009428 
114.94854 0.708058 
115.469215 0.007676 
117.792252 0.006857 
120.309586 0.009148 
120.940582 0.150739 
121.414734 0.008894 
122.282753 0.008093 
123.575836 0.008636 
123.859314 0.014244 
123.870567 0.014529 
124.657402 0.007628 
128.107071 0.018541 
130.153534 0.008538 
130.963318 0.008928 
131.296341 0.008551 
131.961365 0.103981 
132.91713 0.008717 
132.94043 0.078002 
132.953217 0.007317 
132.958191 0.864243 
133.948395 0.552056 
133.990707 0.010134 
134.267426 0.014045 
134.956238 0.010373 
134.978439 0.025027 
136.061722 0.030914 
137.267227 0.007917 
139.158768 0.009902 
140.070343 0.021617 
141.001175 0.008888 
144.958313 0.028902 
145.234253 0.009121 
146.168121 0.013259 
146.976334 2.765725 
147.97464 0.782418 
147.980759 0.015213 
148.971725 25.677917 
149.176239 0.007553 
149.972336 0.008382 
150.950974 0.588164 
150.968643 0.341154 
160.701019 0.007754 
160.955673 0.077486 
161.954132 0.020279 
162.068069 0.008568 
162.950928 1.889017 
164.059967 0.009358 
164.98703 0.183133 
166.982254 2.736386 
167.070038 0.029037 
167.875473 0.007654 
169.04834 0.010237 
169.593536 0.007884 
175.942612 0.071988 
176.941132 0.048715 
177.161682 0.010265 
177.938019 1.350869 
178.668198 0.008692 
178.965942 0.048891 
179.022232 0.037404 
180.7883 0.011881 
180.961502 1.490267 
180.998199 0.031047 
181.073715 0.011132 
185.700119 0.008326 
190.966187 10.724326 
190.975952 0.163596 
191.954514 0.011039 
191.96431 4.707585 
192.945816 0.100467 
192.961533 100.0 
193.132629 0.010057 
194.266388 0.009608 
194.369583 0.008416 
194.951248 0.011037 
195.948776 0.561581 
197.114532 0.035459 
197.209961 0.009406 
204.887558 0.010591 
208.965851 0.032697 
208.976776 3.444031 
209.974976 2.077786 
210.15979 0.108745 
210.971954 31.862471 
212.975067 0.006776 
215.802628 0.174548 
215.815628 0.148184 
215.825989 0.073196 
221.797653 0.014471 
222.993134 0.038511 
223.225815 0.008275 
223.990494 0.012499 
224.987579 1.199142 
234.329132 0.014924 
236.162048 0.009037 
238.154709 0.241081 
238.17424 0.013701 
241.273163 0.01032 
245.662476 0.008568 
247.011734 0.014676 
250.143845 0.010031 
252.158005 0.007223 
255.148346 0.009822 
259.753357 0.009147 
268.165955 0.013377 
268.263397 0.145625 
268.978119 0.17549 
269.0896 0.262925 
269.107056 0.040798 
269.13559 0.952292 
269.981354 0.015174 
270.138519 0.022306 
270.181152 0.886874 
270.279205 0.008439 
270.315369 0.022268 
270.789673 0.014468 
270.957703 0.051414 
270.975067 0.027037 
271.150726 0.009577 
271.18515 0.009629 
272.699738 0.008829 
280.319977 0.015236 
280.665314 0.008294 
284.910461 0.008313 
290.553925 0.009995 
291.438446 0.00884 
END IONS

