BEGIN IONS
PEPMASS=198.085
CHARGE=1+
COMPOUNDNAME=Citrulline
LIBRARYQUALITY=3
SMILES=N/A
INCHIKEY=RHGKLRLOHDJJDR-BYPYZUCNSA-N
INCHI=InChI=1S/C6H13N3O3/c7-4(5(10)11)2-1-3-9-6(8)12/h4H,1-3,7H2,(H,10,11)(H3,8,9,12)/t4-/m0/s1
MSLEVEL=2
SOURCE_INSTRUMENT=N/A-ESI-QFT
FILENAME=library_mgf.mgf
SEQ=*..*
IONMODE=positive
ORGANISM=MONA
NAME=Citrulline [M+Na]+
PI=MoNA
DATACOLLECTOR=MoNA:VF-NPL-QEHF026470
PUBMED=N/A
SUBMITUSER=mwang87
TAGS=
SPECTRUMID=CCMSLIB00004717956
SCANS=26470
50.048553 0.030775 
50.614693 0.036619 
50.704342 0.020005 
50.87648 0.029627 
51.051483 0.022955 
51.222366 0.036051 
51.571503 0.038109 
51.998718 0.028277 
52.286964 0.026357 
53.042843 0.032182 
53.431229 0.031127 
53.531391 0.031722 
53.776119 0.018774 
54.026012 0.032238 
54.669205 0.027946 
54.747807 0.025239 
54.926235 0.030537 
54.957291 0.020648 
55.05463 0.419597 
55.248722 0.023526 
55.594212 0.033511 
56.163673 0.030836 
56.411976 0.026055 
56.698776 0.029548 
56.785053 0.033058 
56.883072 0.028217 
56.965088 0.225423 
57.070229 0.391882 
57.107059 0.027129 
57.144463 0.039757 
57.228603 0.034801 
57.79969 0.03168 
57.924484 0.034878 
57.935211 0.0618 
58.073357 0.021246 
58.08506 0.023851 
58.657543 0.024447 
58.768162 0.024008 
59.130005 0.02319 
59.754578 0.033047 
59.930573 0.443167 
60.102478 0.031461 
60.380424 0.034347 
60.420979 0.028117 
60.956295 0.038743 
61.01091 97.711411 
61.226738 0.021724 
62.010303 1.451781 
62.014263 4.33305 
62.128448 0.034488 
62.186573 0.02556 
63.006687 17.816507 
64.498741 0.024058 
64.592751 0.023509 
65.328812 0.028832 
65.724373 0.023317 
66.03035 0.033304 
66.7864 0.02834 
67.05439 0.372747 
67.609482 0.023101 
68.013283 0.018557 
68.049774 0.032167 
68.423859 0.027926 
68.676498 0.021985 
69.063896 0.037633 
69.070015 0.927236 
69.39048 0.030179 
69.993446 0.026506 
70.065269 0.476234 
70.539513 0.026444 
70.57901 0.027212 
71.08567 0.128734 
71.154938 0.031809 
71.550873 0.03141 
71.596191 0.0201 
72.023346 0.034967 
72.417137 0.027449 
72.858498 0.031546 
73.95623 0.291501 
74.096504 0.268853 
74.155045 0.031776 
74.51783 0.029972 
74.709923 0.027001 
74.794487 0.029918 
74.953789 0.199811 
75.945534 0.127549 
77.012901 0.038992 
77.940979 2.383645 
78.848152 0.036564 
79.021286 5.119443 
79.054291 0.025134 
81.069954 1.688798 
82.065147 0.03057 
82.313576 0.03545 
82.390579 0.027468 
83.049118 0.035585 
83.085594 1.662353 
84.04451 0.784784 
84.080879 0.114852 
84.186157 0.03621 
84.389923 0.036445 
85.064888 0.057913 
86.06002 0.099338 
86.624733 0.02329 
86.643349 0.029625 
87.031403 0.02391 
88.324112 0.030796 
89.221298 0.033178 
89.25946 0.030775 
90.395836 0.036172 
92.047119 2.053431 
92.758888 0.027828 
93.069962 0.154749 
93.082779 0.044633 
93.851135 0.044883 
93.956131 0.028852 
94.533913 0.033102 
95.085571 1.870322 
95.524757 0.041963 
95.951385 0.873246 
96.114037 0.03525 
96.331367 0.024988 
97.064987 0.128746 
97.101318 0.613254 
97.180458 0.034882 
98.748177 0.037679 
100.075783 0.606585 
101.268433 0.029366 
101.920715 0.035978 
103.069305 0.029038 
103.105309 0.035142 
103.803329 0.037459 
104.910278 0.660983 
105.182823 0.029397 
105.928276 0.157533 
106.925888 6.443365 
107.085777 0.221375 
107.829514 0.026198 
107.951439 0.414947 
108.10878 0.04412 
108.50753 0.028591 
108.923325 0.223116 
109.101051 0.036649 
109.182716 0.019166 
109.942093 0.034076 
110.026199 0.026458 
110.243858 0.027517 
110.673447 0.032711 
110.931915 0.032153 
110.957298 0.033696 
111.080132 0.035325 
111.11692 0.028921 
112.435905 0.027394 
112.807976 0.034956 
112.9711 0.026857 
114.091492 0.112611 
114.425148 0.028122 
114.842285 0.035069 
115.646591 0.024997 
117.950645 0.036682 
119.95118 0.037592 
120.08522 0.034107 
120.26516 0.032594 
120.602631 0.03117 
120.866402 0.02008 
121.101692 0.073509 
121.913246 0.081026 
122.920868 0.291532 
122.940956 0.721031 
123.938904 1.142516 
124.362854 0.021124 
124.936531 29.967278 
124.941826 0.594007 
125.589394 0.039816 
125.936081 0.560916 
126.933876 3.844257 
127.575203 0.067926 
127.636391 0.035527 
127.726814 0.024326 
127.836189 0.026586 
130.218796 0.039525 
134.932129 0.404521 
134.958557 0.592777 
135.116638 0.132326 
135.938751 0.035808 
135.949326 0.02757 
135.956619 1.328651 
135.966507 0.06397 
136.58049 1.542128 
136.920273 0.597523 
136.936554 2.029799 
136.954224 8.546995 
137.068756 4.011529 
137.13269 0.484384 
137.33197 0.030851 
137.92807 0.450583 
137.94455 1.918106 
137.954544 1.838005 
137.962036 4.700022 
138.052704 66.416809 
138.493805 0.02066 
138.91539 0.109553 
138.934967 0.028694 
138.952103 8.032638 
139.050308 0.159747 
139.055954 3.49025 
139.110947 0.032085 
139.923553 3.575554 
139.941788 0.028735 
139.952301 0.044399 
139.959946 0.217838 
140.616135 0.028207 
140.930954 0.030168 
140.949234 0.500616 
141.018906 0.039506 
141.28537 0.024745 
141.763016 0.027775 
141.844482 0.032722 
142.83548 0.038523 
142.947098 1.208044 
144.02803 0.03174 
145.585754 0.227477 
149.132492 0.126375 
149.464371 0.032666 
149.95372 0.153262 
150.738571 0.039993 
150.951431 0.159548 
150.979004 0.018945 
151.943634 0.203333 
151.970276 2.455951 
151.975922 0.024882 
152.951828 1.013747 
152.96785 15.539611 
152.97377 3.136782 
153.063553 100.0 
153.949265 0.133663 
153.95932 12.302519 
153.966248 7.901654 
154.060532 0.37622 
154.066803 5.021341 
154.561829 0.037723 
154.947052 75.321686 
154.964447 12.538183 
155.068497 0.038347 
155.079132 23.867956 
155.954819 88.690079 
156.082657 0.809258 
156.944351 10.939626 
156.954636 3.33899 
156.962738 0.771892 
157.166138 0.031451 
157.576843 0.276646 
157.701721 0.028558 
157.95224 12.867027 
157.959351 0.052439 
158.953644 0.805277 
161.117264 0.037284 
161.133133 0.147244 
162.292007 0.029157 
163.147964 0.061064 
164.031799 1.189983 
164.942749 0.276688 
165.494583 0.032821 
165.609848 0.028944 
165.950439 0.085082 
166.406067 0.031661 
166.582047 0.381991 
166.947006 6.694271 
167.590088 0.021877 
168.944214 0.573852 
168.962494 0.396566 
169.93399 0.459782 
169.952072 0.459263 
169.970581 0.539859 
169.980469 0.155995 
170.617172 0.034234 
170.775208 0.027504 
170.932083 0.036152 
170.978287 25.785564 
171.076492 0.045347 
171.977142 1.395419 
172.001785 0.028126 
172.957703 14.516765 
172.975388 5.089953 
173.958099 0.072873 
174.954819 2.13494 
175.587769 0.06249 
176.993118 0.034908 
178.159134 0.2105 
179.266739 0.025761 
179.460327 0.030485 
180.066193 0.036329 
180.074432 3.213257 
180.138748 0.021743 
180.973938 2.109698 
181.058365 40.049362 
181.158905 0.023524 
181.934036 2.231022 
182.062088 2.293379 
182.953903 0.038715 
183.930969 0.031722 
184.957581 5.116572 
185.540497 0.03736 
185.949234 1.557511 
186.94696 0.315067 
186.955338 0.234871 
187.94458 14.638795 
188.943573 0.800337 
189.941711 1.840879 
196.169647 94.187019 
196.918198 0.352197 
196.947968 0.034402 
196.957397 12.258898 
197.014969 0.031212 
197.173187 22.650288 
197.956223 0.718435 
198.084976 89.939293 
198.149017 0.780798 
198.185287 77.277199 
198.954697 1.795795 
199.088577 4.988462 
199.188766 9.814225 
199.94455 3.189899 
200.089325 0.064372 
200.20134 0.182547 
200.237396 0.383866 
201.941803 0.097478 
205.287445 0.030633 
207.438919 0.033115 
211.503571 0.041798 
214.967957 14.077577 
215.967285 0.984931 
216.94899 0.02872 
216.965378 2.222299 
217.645233 0.326349 
217.65657 0.5507 
END IONS

