BEGIN IONS
PEPMASS=245.1
CHARGE=0+
COMPOUNDNAME=BIOTIN
LIBRARYQUALITY=1
SMILES=C1C2C(C(S1)CCCCC(=O)O)NC(=O)N2
INCHIKEY=YBJHBAHKTGYVGT-UHFFFAOYSA-N
INCHI=N/A
MSLEVEL=2
SOURCE_INSTRUMENT=LC-ESI-Q-Exactive Plus
FILENAME=IROA_PLATE_pos_6_E.mzXML
SEQ=*..*
IONMODE=Positive
ORGANISM=GNPS-EMBL-MCF
NAME=BIOTIN M+H
PI=Alexandrov Theodore
DATACOLLECTOR=Prasad
PUBMED=171548
SUBMITUSER=pphapale
TAGS=
SPECTRUMID=CCMSLIB00000578087
SCANS=1964
54.015877 1320.203491 
54.795177 1650.14856 
56.050247 8302.609375 
58.065926 19752.923828 
59.529724 1467.747681 
59.982014 1402.38562 
61.040447 10914.845703 
67.054924 2828.988525 
68.050179 1974.142944 
69.07058 1974.68457 
70.06588 6459.994141 
71.061066 2797.676514 
71.401779 2832.179443 
71.403458 17844.974609 
71.678482 1501.257324 
72.045166 2934.11377 
72.081413 3138.489014 
74.006821 1631.431519 
74.097008 2048.741699 
75.092262 9795.69043 
76.022186 3652.077881 
79.054665 2253.168213 
82.029495 1820.697144 
82.065575 2368.03125 
83.060982 19725.423828 
84.068565 2485.095459 
84.081184 6424.446777 
85.074104 1791.071411 
85.076561 46368.609375 
86.060585 2497.662354 
87.044609 1606.129639 
87.092194 86879.59375 
96.711136 3341.472412 
96.995491 13947.123047 
97.010994 7123.747559 
97.040062 63816.402344 
97.076462 21755.837891 
98.060272 1470.995361 
98.084152 3273.59375 
99.092072 100616.382812 
100.021973 2538.280273 
100.039597 2727.672607 
100.076057 48300.523438 
101.107681 109441.148438 
102.001038 1759.001343 
104.1185 15668.613281 
105.070145 3570.526855 
107.08564 3700.725586 
108.080925 7143.746094 
111.026405 2263.508057 
111.091888 108843.195312 
112.099686 2406.965576 
112.112297 37690.152344 
113.042206 6653.330566 
113.103539 2214.780762 
113.107536 57960.605469 
114.102623 2767.918457 
115.039047 6655.091309 
115.057617 5950.712402 
116.11853 2607.394775 
118.08651 2439.79248 
118.099686 5921.121582 
118.134064 21611.027344 
120.972557 1392.199341 
121.064751 7120.961426 
123.026329 32447.765625 
125.041916 7750.76416 
125.107231 10021.381836 
126.055061 2327.601562 
126.09127 1578.82373 
126.102692 15617.886719 
127.122993 8358.128906 
128.118256 107519.265625 
129.102173 2329.462402 
129.138687 51213.292969 
130.133881 47832.476562 
131.027496 2221.279053 
133.064926 3255.006104 
138.612289 1897.815796 
139.05748 20697.316406 
139.114426 2705.626709 
139.620468 14639.392578 
140.118118 7618.683105 
141.011871 1692.252808 
141.102158 7610.383301 
141.138214 1959.638184 
142.133789 51526.707031 
143.027191 3646.958984 
144.149368 22133.722656 
147.16011 5991.380859 
147.565048 1476.844482 
149.041931 12034.702148 
150.091095 12338.746094 
151.086655 2857.615234 
154.133682 13770.303711 
156.084015 2207.488525 
156.149384 3811.930176 
159.047089 6084.824219 
159.160385 2035.182861 
161.128296 1927.005737 
161.175949 47380.097656 
165.102692 1852.214844 
166.06842 52477.757812 
166.571945 1621.297241 
167.052475 69559.984375 
167.171814 1471.889648 
168.149261 6363.410156 
171.149094 35922.351562 
171.160339 10252.889648 
173.176041 7487.020508 
175.086472 2104.148193 
178.040176 1440.368042 
182.063248 6082.493164 
184.079041 46997.277344 
184.144318 2378.340332 
185.074219 3001.283691 
185.175919 28182.111328 
186.053207 9207.862305 
190.053284 2570.953125 
192.047333 18856.705078 
193.097183 9567.883789 
199.089783 63783.300781 
200.05687 2960.758789 
201.064301 1648.018433 
202.048416 1668.082275 
202.089279 3012.661377 
203.032806 2219.706543 
204.18161 2674.472168 
209.074173 94036.617188 
210.058044 3667.210938 
216.08783 5998.251465 
226.202881 9992.603516 
226.974045 2014.246704 
227.084839 3172670.5 
227.206055 3249.939453 
228.068924 3150.401367 
228.088379 99515.390625 
228.217834 11084.730469 
236.651169 1892.582397 
244.106308 5562.564453 
244.212784 3284.480713 
244.232071 6155.23877 
245.095276 195063.984375 
245.129501 4356.835449 
245.149414 105874.203125 
245.160385 3790.563965 
245.196945 5938.895508 
245.208099 2927.548096 
245.233368 9493.794922 
245.244812 48016.78125 
246.078949 8304.858398 
246.098785 6578.587402 
246.121964 18878.238281 
246.153381 1832.120605 
252.21788 2268.293701 
END IONS

