BEGIN IONS
PEPMASS=804.489
CHARGE=1+
COMPOUNDNAME=MoNA:603812 Tacrolimus
LIBRARYQUALITY=3
SMILES=N/A
INCHIKEY=QJJXYPPXXYFBGM-LJIGMGMYSA-N
INCHI=InChI=1S/C44H69NO12/c1-10-13-31-19-25(2)18-26(3)20-37(54-8)40-38(55-9)22-28(5)44(52,57-40)41(49)42(50)45-17-12-11-14-32(45)43(51)56-39(29(6)34(47)24-35(31)48)27(4)21-30-15-16-33(46)36(23-30)53-7/h10,19,21,26,28-34,36-40,46-47,52H,1,11-18,20,22-24H2,2-9H3/b25-19-,27-21+/t26-,28+,29+,30-,31+,32-,33+,34-,36+,37-,38-,39+,40+,44+/m0/s1
MSLEVEL=2
SOURCE_INSTRUMENT=LC-ESI-QFT-LC-ESI-QFT
FILENAME=output_mgf.mgf
SEQ=*..*
IONMODE=
ORGANISM=MONA
NAME=MoNA:603812 Tacrolimus [M+H]+
PI=MoNA
DATACOLLECTOR=MoNA
PUBMED=N/A
SUBMITUSER=mwang87
TAGS=tacrolimus[Molecular Family]
SPECTRUMID=CCMSLIB00000572558
SCANS=9809
56.0495 0.979238 
57.0335 0.288329 
57.0699 0.562213 
59.0492 1.051568 
65.0386 0.23885 
67.0542 3.797969 
69.0335 5.035976 
69.0699 3.396378 
71.0128 0.543248 
71.0491 3.504131 
74.0964 0.411162 
75.0441 0.299207 
79.0542 6.273029 
81.0699 9.761514 
82.0651 1.080598 
83.0491 3.807434 
83.0856 1.098327 
84.0808 100.0 
85.0648 12.810089 
91.0542 4.382503 
93.07 11.392918 
95.0493 6.738897 
95.0856 14.129678 
97.0649 5.727026 
97.1012 0.338515 
99.0441 0.877595 
99.0805 2.464182 
101.0598 0.53728 
105.0699 10.160951 
107.0493 2.417281 
107.0856 18.925533 
109.0284 15.421755 
109.0649 8.789057 
109.1013 6.756167 
110.0601 6.752 
111.044 1.766916 
111.0805 17.832256 
112.0757 1.059902 
113.0598 1.13587 
117.0698 2.042919 
119.0492 1.234016 
119.0856 13.864906 
121.0649 4.93571 
121.1012 8.69808 
123.0442 2.943118 
123.0804 7.085005 
123.1168 0.572385 
125.0597 3.500175 
125.0961 2.261356 
127.039 1.305145 
127.0754 1.421161 
128.0707 29.858622 
129.0699 3.256699 
130.0864 57.467861 
131.0856 9.330115 
133.0647 2.008733 
133.1012 13.148709 
135.0442 1.483885 
135.0805 6.681154 
135.1169 14.625707 
136.112 0.53064 
137.0599 3.440878 
137.0962 4.767283 
137.1327 2.232572 
138.0554 0.325235 
139.0391 1.752966 
139.0754 2.992491 
139.1117 1.922806 
140.0704 0.985736 
141.0547 0.940495 
141.0699 0.9845 
141.0913 0.949501 
143.0856 10.804676 
145.1013 19.589248 
147.0805 5.004755 
147.1169 10.63805 
149.0599 2.597434 
149.0961 6.39625 
149.1327 2.453622 
150.0917 0.342046 
151.039 1.270816 
151.0756 3.004499 
151.1118 3.933693 
152.1071 6.054239 
153.0547 3.159718 
153.091 1.794711 
155.0857 1.724041 
156.0655 2.414067 
156.0937 1.244576 
157.0651 1.195626 
157.1012 9.11408 
158.1095 0.323999 
159.0803 2.663371 
159.117 14.445095 
161.0962 8.656406 
161.1326 24.432851 
163.0753 3.090743 
163.1118 9.550459 
163.1481 2.953007 
164.1069 0.253471 
165.0548 1.47502 
165.0912 2.311047 
165.1278 1.908502 
167.0704 1.06912 
167.0859 0.57747 
167.1069 2.125773 
168.1017 0.439416 
168.1384 0.477841 
169.1013 6.757121 
170.1092 0.28395 
171.0806 3.359048 
171.1169 49.762581 
173.0963 5.516359 
173.1326 13.754328 
175.0755 4.872457 
175.1118 5.452047 
175.1482 7.448666 
176.1072 0.250822 
177.0552 0.364014 
177.0912 3.310699 
177.1274 3.724545 
178.0863 0.348368 
179.0703 1.661954 
179.0854 0.305882 
179.1068 2.230418 
179.1432 3.268318 
180.1019 12.385824 
181.0863 0.425995 
181.1011 2.992809 
181.1227 1.852525 
182.1181 0.242064 
183.117 8.05944 
184.1247 0.334736 
185.0964 2.714192 
185.1326 22.64923 
186.1405 0.429174 
187.0755 1.036734 
187.1118 5.924484 
187.1482 12.992996 
189.091 6.468156 
189.1275 30.802684 
190.1227 0.911924 
191.0702 0.523117 
191.1068 1.844155 
191.143 3.749267 
192.102 30.414196 
193.0862 1.161898 
193.101 2.405874 
194.1097 0.35808 
195.117 7.617941 
196.0971 1.621763 
196.1335 3.676584 
197.081 1.342969 
197.0959 1.558262 
197.1325 8.713937 
199.0753 1.014555 
199.1119 4.842226 
199.1482 10.16759 
201.0911 1.387434 
201.1275 8.398626 
201.1635 2.712603 
203.1072 1.696847 
203.1433 22.335614 
204.1018 0.587536 
205.0865 0.925203 
205.1225 2.152049 
205.1589 1.715706 
206.1096 0.264384 
206.1179 2.45507 
207.1019 1.260468 
207.117 6.472076 
207.138 6.994381 
208.097 19.936627 
209.0963 1.294585 
209.1328 5.45346 
210.1127 5.192042 
210.14 0.32354 
211.112 6.868511 
211.1482 4.392215 
213.0911 0.972104 
213.1276 17.677072 
213.1639 4.625379 
214.1359 0.290554 
215.107 2.101087 
215.1432 9.571013 
217.086 1.022325 
217.1224 1.983198 
217.1588 5.209136 
218.1177 1.43158 
218.167 1.538697 
219.1018 1.126157 
219.1167 0.265867 
219.1381 1.478587 
219.1746 3.678421 
220.097 30.180255 
221.1329 2.40824 
221.1538 12.745458 
222.1128 2.078343 
223.1121 2.577091 
223.1482 6.260668 
224.1283 9.991429 
225.0912 0.470565 
225.1274 4.201185 
225.1638 3.357388 
226.1075 1.583338 
226.1348 0.283137 
227.1068 1.436383 
227.1432 5.687153 
227.1795 5.61719 
228.152 0.347521 
229.1224 5.096439 
229.1588 3.894809 
231.1383 8.445068 
231.1748 1.900415 
232.1338 1.888548 
233.1183 0.287552 
233.1326 1.270145 
233.1538 2.02904 
234.1127 35.775372 
235.1119 1.165465 
235.1481 2.000256 
236.092 6.131089 
236.1285 3.237204 
237.0914 1.011942 
237.1271 2.200222 
237.1639 6.221254 
238.1077 5.343164 
239.1067 2.61654 
239.1428 2.717971 
239.1796 4.88722 
241.1223 2.188144 
241.1588 4.895943 
243.1375 0.985736 
243.1742 1.92217 
245.1322 0.408937 
245.1538 4.507949 
246.1128 2.630243 
247.1484 4.019125 
248.0921 6.319965 
248.1283 1.915813 
249.1639 13.180989 
250.1074 2.179244 
251.1067 0.357197 
251.1433 2.094235 
251.1793 2.262204 
253.1224 1.443305 
253.1588 3.037838 
254.1025 13.815779 
255.1372 0.897585 
255.1746 10.392101 
257.1177 1.89872 
257.1536 1.031402 
257.1903 3.042076 
259.1478 0.535867 
259.1697 1.301436 
261.1641 1.83363 
262.1076 7.006636 
263.1428 0.900481 
263.1644 2.19217 
263.1795 2.577692 
265.1588 15.853578 
265.1954 1.326017 
266.1024 23.378564 
267.1381 1.467957 
267.1744 10.238754 
269.1535 1.599831 
269.191 1.835714 
273.1635 0.933396 
275.1432 2.118569 
275.1797 1.389694 
277.1223 0.357974 
277.159 1.906595 
277.1957 0.451212 
278.1023 2.286926 
279.1744 1.927609 
280.1183 2.108044 
281.1902 5.785017 
283.1695 15.894334 
285.185 5.699337 
286.1441 2.214102 
289.1588 0.35967 
289.1954 2.090244 
290.1022 0.54844 
291.1744 2.835047 
291.2108 1.320578 
292.1178 1.782138 
293.1538 14.546314 
293.1899 1.161333 
294.1334 0.539964 
295.1704 3.111757 
297.1848 1.89208 
299.2006 4.185857 
301.1942 0.702246 
303.211 1.188845 
304.1172 1.919345 
304.1547 1.004172 
306.134 2.616117 
307.206 2.045816 
309.185 4.77191 
309.2208 0.370795 
310.1281 1.081799 
311.1644 13.134724 
313.2159 0.478265 
315.1954 2.697028 
317.2113 3.386913 
319.1694 4.163678 
321.221 0.963734 
322.1288 0.48049 
327.1955 5.167144 
329.1747 3.536022 
331.2428 0.581461 
332.1496 5.484821 
336.1442 0.569453 
337.1799 6.117386 
338.1587 0.413776 
339.1598 3.674394 
343.1904 5.394127 
346.1653 1.570977 
349.2525 2.630455 
355.1907 3.589068 
362.1603 1.341309 
368.1857 0.384674 
372.1799 0.403145 
375.2166 2.83699 
386.1954 2.282688 
394.2381 8.42974 
399.2896 2.025649 
404.222 1.773309 
407.2928 0.278476 
412.2483 1.675621 
413.2665 23.573338 
414.2699 21.976015 
422.2327 9.411027 
424.2473 0.386228 
426.2649 2.438048 
440.2434 3.97851 
448.2483 0.96052 
450.2282 1.025892 
458.29 3.561344 
465.246 0.346673 
466.2596 2.940363 
468.2379 2.247088 
470.2906 2.143997 
472.2697 1.123473 
476.2991 0.285009 
479.2942 1.941489 
480.2746 0.337102 
482.2541 0.346179 
484.2692 1.049519 
486.2844 3.622973 
488.3012 1.715883 
494.2526 0.55455 
498.284 0.92047 
500.2638 3.43498 
502.3152 1.901757 
504.2962 0.909663 
511.3206 0.501503 
512.2629 1.142792 
512.3007 1.33919 
514.2795 1.037441 
514.3163 3.28799 
516.297 0.510474 
526.2795 0.376975 
529.3307 1.065518 
530.3103 1.818408 
532.2921 1.96833 
544.2904 0.545614 
548.3199 0.314181 
558.3067 2.486926 
561.3575 0.453295 
576.3161 1.223597 
579.3665 0.5139 
658.4097 0.322516 
672.4301 0.364579 
700.4212 0.380471 
706.4677 1.556214 
736.4414 0.514323 
768.467 0.488507 
END IONS

