BEGIN IONS
PEPMASS=172.097
CHARGE=1+
COMPOUNDNAME=terrein
LIBRARYQUALITY=3
SMILES=N/A
INCHIKEY=MHOOPNKRBMHHEC-HZIBQTDNSA-N
INCHI=InChI=1S/C8H10O3/c1-2-3-5-4-6(9)8(11)7(5)10/h2-4,7-8,10-11H,1H3/b3-2+/t7-,8-/m0/s1
MSLEVEL=2
SOURCE_INSTRUMENT=N/A-ESI-QFT
FILENAME=library_mgf.mgf
SEQ=*..*
IONMODE=positive
ORGANISM=MONA
NAME=terrein [M+NH4]+
PI=MoNA
DATACOLLECTOR=MoNA:VF-NPL-QEHF021234
PUBMED=N/A
SUBMITUSER=mwang87
TAGS=
SPECTRUMID=CCMSLIB00004712297
SCANS=21234
50.044559 0.088715 
50.112812 0.091558 
50.722099 0.083544 
51.49897 0.095163 
51.910587 0.165515 
51.940254 0.287162 
52.3465 0.091448 
52.551582 0.096861 
52.575977 0.088061 
52.643818 0.098308 
52.790234 0.113377 
52.803143 0.091978 
53.00246 0.362202 
53.038895 9.781182 
53.37064 0.207929 
53.603352 0.088317 
53.694302 0.106959 
54.622368 0.088072 
54.949772 0.112729 
55.018105 1.669729 
55.029064 0.089343 
55.054523 44.364826 
55.923946 0.096817 
56.049744 2.868235 
56.057869 0.978886 
56.92569 0.08785 
56.96505 17.922325 
57.033783 1.161425 
57.070152 11.127684 
57.176685 0.092957 
57.350754 0.088228 
57.935036 16.17399 
58.011703 0.09972 
58.015697 0.162583 
58.025215 0.239082 
58.063931 0.105158 
58.065376 8.352041 
58.21146 0.095063 
58.361286 0.097752 
58.417316 0.215563 
58.537109 0.109335 
58.8456 0.09064 
58.93288 2.535332 
58.960651 0.254258 
59.049377 2.368936 
59.489307 0.079138 
59.930481 15.495121 
59.99062 0.125876 
60.044605 6.190447 
60.373863 0.100385 
60.76387 0.087119 
60.930691 3.939257 
61.010876 13.97659 
61.589142 0.206332 
61.786728 0.081241 
61.927986 18.502392 
62.018696 18.543743 
62.896454 0.192391 
62.929218 13.085071 
62.99007 5.239504 
63.006573 0.656999 
63.598015 0.08294 
63.652092 0.114795 
63.896072 0.091553 
63.927551 1.936963 
63.942455 1.460455 
63.997818 1.125083 
64.549187 0.161545 
64.580566 0.107442 
64.927383 1.815371 
65.038696 4.469843 
65.21759 0.105029 
65.255066 0.15289 
67.017921 0.108757 
67.041763 1.120788 
67.054344 32.978275 
67.43042 0.088638 
68.049561 3.824613 
68.057678 0.558202 
68.221947 0.101972 
68.962799 0.198716 
69.033539 3.569105 
69.038445 0.09139 
69.058495 0.191327 
69.069939 7.998324 
70.065193 44.686268 
70.123817 0.105388 
70.462372 0.091247 
71.049156 2.461495 
71.06543 0.098579 
71.068504 0.302282 
71.137985 0.097122 
71.320305 0.090323 
72.044418 37.593468 
72.080803 8.005509 
72.937096 0.107463 
73.047653 0.220837 
73.084435 0.094879 
73.329575 0.084716 
73.671028 0.091963 
73.833084 0.104269 
73.956062 0.247925 
74.47953 0.102461 
75.840332 0.093262 
75.945404 0.772563 
76.222313 0.096904 
76.998108 0.144245 
77.008522 0.111966 
77.940849 0.32557 
78.474945 0.098671 
78.873108 0.086484 
79.02121 19.942904 
79.054245 51.677219 
79.275246 0.104637 
79.938324 0.416142 
80.049477 0.456264 
80.057457 0.851939 
80.748009 0.185584 
80.945061 10.315943 
80.947487 0.206945 
81.017014 1.108417 
81.033516 7.304227 
81.069908 84.605537 
81.072647 0.434884 
82.065132 14.011285 
82.073189 2.658325 
82.075897 0.295412 
83.049133 17.912893 
83.085533 10.426427 
83.247002 0.105081 
84.044312 0.128331 
84.080818 38.746181 
84.699066 0.092941 
85.028412 17.064611 
85.064812 3.029778 
85.075996 1.335211 
85.084076 0.419334 
86.003494 1.412785 
86.059952 1.516359 
87.044014 1.057212 
87.908012 0.262242 
89.07093 7.530934 
89.78495 0.102005 
90.947662 0.549845 
91.05423 28.311365 
91.364288 0.245994 
91.96656 0.129986 
92.057457 0.318718 
92.342499 0.097546 
92.49781 0.235551 
92.900505 0.93901 
92.903603 9.797239 
93.069824 3.915386 
93.495911 0.712354 
93.901466 4.181387 
93.955894 1.579882 
94.065094 3.904858 
94.844009 0.238901 
94.899147 0.658291 
95.008781 0.422126 
95.049156 23.354279 
95.060272 0.097281 
95.085487 4.610401 
95.204353 0.105605 
95.431969 0.102838 
95.685829 0.091929 
95.898682 0.294473 
95.951363 0.43975 
96.080795 0.141231 
96.088753 0.121686 
96.451736 0.09866 
97.061752 0.098808 
97.076172 0.118761 
97.948906 1.898825 
98.096451 2.894594 
98.141754 0.119464 
98.955574 1.579272 
99.055504 0.190295 
99.948418 0.104145 
100.009468 0.900211 
100.504822 0.321716 
100.509575 0.384283 
100.599335 0.085875 
100.998779 0.097493 
101.004654 0.485255 
101.007874 1.390605 
101.503281 11.67109 
101.506744 0.121174 
101.880409 0.233713 
101.997429 0.744396 
102.00296 6.865215 
102.501419 17.294739 
103.003082 0.727762 
103.02388 0.114621 
103.499397 0.374262 
103.538521 0.141028 
103.575546 0.171399 
104.39846 0.099501 
105.044769 1.110738 
105.069916 2.841359 
105.367203 0.096287 
107.085381 0.27889 
107.944092 0.108984 
108.016296 0.396501 
108.080704 1.078037 
108.433563 0.088912 
108.493393 1.059891 
108.516937 1.056385 
108.549164 0.109277 
108.995209 0.203716 
109.014984 14.193576 
109.064812 22.210051 
109.076057 100.0 
109.101151 2.624026 
109.208427 0.100233 
109.510468 0.103942 
109.514778 10.324696 
109.555473 0.237315 
110.013084 19.800177 
110.016899 0.62718 
110.0597 0.171386 
110.06823 0.338084 
110.079407 4.465057 
110.083687 6.132734 
110.508575 0.24092 
110.514816 1.635984 
110.91423 0.293117 
111.0112 0.856864 
111.044037 20.758522 
111.091827 0.242187 
111.506569 0.54785 
111.911942 0.131639 
112.047256 0.122088 
112.075684 0.713627 
112.086823 1.13459 
112.112076 1.393317 
112.543388 0.087001 
112.910606 0.105977 
112.972229 0.094846 
113.05986 0.126736 
113.176758 0.09188 
113.550247 0.11818 
113.626862 0.101271 
113.838058 0.165968 
114.054817 0.453734 
114.091347 6.191602 
114.562462 0.114698 
114.970894 2.498019 
115.556564 0.280386 
115.969894 2.219896 
116.022392 0.103099 
116.062027 0.253083 
116.070435 0.153266 
116.106934 1.63 
116.522987 0.126289 
116.966171 43.633869 
116.985703 0.134552 
117.020836 0.281688 
117.069809 2.614051 
117.888741 0.106085 
117.965912 0.434542 
118.5065 0.175198 
118.962997 0.440965 
119.049187 1.009479 
119.085182 0.470173 
120.689514 0.178291 
120.925255 0.16871 
121.329231 0.173574 
121.643562 0.166186 
122.049469 0.101697 
122.30471 0.176839 
122.931664 0.106693 
122.94088 1.344083 
123.091644 58.976128 
124.094826 2.291614 
124.917259 0.112738 
124.936348 0.273106 
126.09111 0.102972 
126.93364 1.651001 
127.154434 0.094538 
127.539253 0.102725 
127.57489 1.009293 
128.934006 0.213327 
128.986282 0.947225 
129.069702 0.253264 
129.102173 7.047966 
129.572449 0.09766 
129.908463 0.248208 
129.985626 1.095936 
130.158356 0.164096 
130.390656 0.217865 
130.956238 0.103249 
130.96286 0.464644 
130.981873 28.543753 
131.08551 18.120173 
131.953232 8.278041 
131.981339 0.274022 
132.92453 0.133017 
132.978577 3.891447 
133.915543 0.186817 
134.012833 0.10478 
134.182251 0.170801 
134.996414 0.109515 
135.091599 1.086596 
136.075912 0.179203 
136.580246 8.001014 
137.011703 2.301295 
137.059677 9.219137 
137.082062 0.154528 
137.927948 31.816301 
138.925873 0.628574 
138.935883 0.121234 
139.453262 0.246951 
139.570007 0.090617 
139.923447 10.086737 
140.923309 0.330357 
140.930832 0.11366 
141.9207 2.127438 
142.122482 0.111228 
142.928558 0.704969 
142.981506 0.100597 
143.001465 0.17418 
143.751129 0.099652 
143.930038 3.756904 
144.943787 0.117582 
144.96109 4.989999 
144.997452 9.736716 
145.088303 0.138411 
145.101028 3.420296 
145.585526 0.867187 
145.997116 0.111396 
146.087524 0.128264 
146.976334 2.309949 
146.994492 0.097602 
147.726028 0.105843 
147.976654 0.093616 
148.260086 0.157452 
148.955704 0.264979 
148.973495 0.799673 
150.968872 0.519813 
152.951569 0.29786 
152.989365 0.276505 
153.102097 8.519179 
155.021729 0.19556 
155.070267 0.107403 
155.883591 0.110936 
155.893417 0.221308 
156.033371 0.13225 
156.946014 2.375231 
156.953644 0.115465 
156.997269 0.341003 
157.951813 2.83494 
158.080643 0.099027 
158.942047 0.445501 
158.953506 4.330833 
159.012955 1.674307 
159.039902 0.123122 
160.027924 0.11858 
160.93898 3.120581 
166.966248 0.103453 
167.060486 0.101218 
168.286362 0.093948 
169.917679 3.866757 
170.048904 0.10417 
170.081787 0.343623 
170.523315 0.2382 
170.915939 0.589796 
171.03183 0.106216 
171.112579 5.470429 
171.148575 0.220706 
171.913071 0.605578 
172.111954 0.556923 
172.169983 0.365969 
173.0784 5.863882 
173.107315 0.468456 
173.132309 1.657062 
173.904282 2.367057 
174.04361 0.130665 
174.12764 3.660692 
174.902206 1.704028 
175.900711 0.879117 
183.969711 0.203502 
183.984421 0.111374 
184.064407 0.630936 
184.283539 0.094401 
184.857254 0.09691 
187.537766 0.249777 
188.060211 0.144674 
189.941635 1.554446 
191.914551 0.116137 
192.083267 0.17453 
192.913605 0.388389 
194.708328 0.113112 
END IONS

