BEGIN IONS
PEPMASS=477.107
CHARGE=1+
COMPOUNDNAME=MoNA:945706 Chlortetracycline
LIBRARYQUALITY=3
SMILES=N/A
INCHIKEY=DHPRQBPJLMKORJ-UHFFFAOYSA-N
INCHI=InChI=1S/C22H23ClN2O8/c1-21(32)7-6-8-15(25(2)3)17(28)13(20(24)31)19(30)22(8,33)18(29)11(7)16(27)12-10(26)5-4-9(23)14(12)21/h4-5,7-8,15,26-27,30,32-33H,6H2,1-3H3,(H2,24,31)
MSLEVEL=2
SOURCE_INSTRUMENT=LC-ESI-QFT-LC-ESI-QFT
FILENAME=output_mgf.mgf
SEQ=*..*
IONMODE=
ORGANISM=MONA
NAME=MoNA:945706 Chlortetracycline [M-H]-
PI=MoNA
DATACOLLECTOR=MoNA
PUBMED=N/A
SUBMITUSER=mwang87
TAGS=
SPECTRUMID=CCMSLIB00000568456
SCANS=5707
50.0035 0.262335 
57.0346 0.300368 
59.0138 2.864902 
63.024 7.044733 
65.0033 2.472517 
65.0397 4.632001 
65.9985 4.304185 
67.019 0.846378 
68.0142 0.222823 
68.9982 4.900531 
69.0347 0.266861 
71.0138 0.340482 
75.0241 0.751125 
77.0396 0.296754 
78.0349 0.177546 
79.0189 0.739991 
79.0553 2.255407 
81.0219 0.231703 
81.0345 1.883966 
83.0139 0.390715 
83.0502 2.447925 
84.0091 9.861105 
86.0247 0.899003 
87.0087 0.287323 
89.0396 1.301731 
90.035 0.313791 
91.0189 2.666601 
91.0553 0.897231 
93.0346 6.199078 
95.0139 2.464515 
95.0503 2.055455 
96.0091 2.166849 
96.9931 2.2499 
97.0295 0.753913 
99.0087 0.750196 
100.077 0.294327 
103.0553 0.927312 
104.0268 0.252044 
105.0345 3.83121 
107.0138 2.057003 
107.0502 6.287808 
108.0216 2.851031 
109.0295 8.568582 
111.0087 0.384021 
111.0452 5.677058 
115.0189 0.263523 
117.0346 8.39921 
118.03 0.906111 
119.0139 5.268548 
119.0503 1.854642 
120.009 0.291918 
120.0218 0.332686 
120.0457 0.213685 
121.0295 3.779342 
121.0659 3.188502 
122.0008 0.226747 
122.0249 0.391972 
122.0372 0.725622 
123.0088 1.07655 
123.0452 7.401805 
124.004 0.913786 
124.0165 0.841387 
124.0768 0.292572 
124.98 3.072856 
124.9879 0.346454 
125.0243 0.362613 
125.072 0.636565 
125.9877 0.96691 
126.0197 0.345473 
126.0561 4.045102 
126.9956 44.977594 
129.0347 0.689964 
130.0422 0.442515 
131.0138 1.966965 
131.0504 1.408461 
132.0217 1.764432 
133.0295 10.184378 
134.0248 5.660003 
134.0371 0.692425 
135.0088 15.557902 
135.0452 8.275734 
136.0165 1.140671 
136.0403 1.19691 
137.0242 1.986154 
137.0607 0.340534 
137.996 0.287358 
138.0323 0.395035 
139.0149 7.803758 
140.0037 0.240497 
141.9828 2.291581 
142.9987 0.840148 
143.0135 0.283692 
143.0502 0.856617 
145.0294 3.793625 
146.0373 0.733675 
147.0452 3.8383 
148.0165 0.322912 
149.0243 3.515147 
149.0608 3.873183 
149.9958 0.954984 
150.0198 1.081953 
150.9957 10.916212 
152.0353 0.891586 
153.0113 3.373844 
153.0556 0.214752 
154.9908 0.736033 
157.0292 0.288751 
158.0374 0.929962 
159.0088 0.94046 
159.0451 1.209421 
160.0166 4.551101 
161.0245 5.79358 
162.0197 5.284811 
163.0038 6.41858 
163.0272 0.410798 
163.0401 1.233892 
164.0115 1.162888 
164.0354 0.858166 
165.0114 0.181487 
165.0429 0.30806 
166.9904 0.345266 
167.0502 1.181525 
169.0062 100.0 
170.0374 0.359498 
170.9855 0.817639 
171.0451 2.933342 
172.0165 0.214959 
172.0531 0.353578 
173.0242 1.103069 
174.0321 0.943213 
175.0325 0.329124 
175.0401 1.854917 
176.0115 0.342444 
177.0112 1.063918 
177.0306 0.736876 
178.9905 5.744603 
179.9983 1.815835 
180.0301 0.265657 
180.0579 1.07371 
181.006 0.857856 
181.066 1.534742 
182.0375 1.05299 
183.0454 1.268964 
184.0527 0.391645 
185.0245 0.425925 
185.0607 0.407184 
186.0322 0.267722 
187.0401 1.814028 
188.0479 0.351754 
189.0194 0.371114 
190.0274 0.658041 
191.0266 1.723422 
191.0341 0.195702 
191.05 0.367483 
191.9985 1.253666 
193.006 2.333278 
193.0656 0.912444 
194.037 0.919757 
194.9854 72.606266 
195.9934 0.308817 
196.0528 1.349434 
197.0012 1.2537 
197.0245 0.432912 
197.0608 1.325823 
198.0321 5.071435 
199.0401 0.867425 
199.0766 1.368037 
201.0111 0.399991 
201.0198 0.416976 
203.027 2.524299 
205.0061 1.497295 
206.014 10.815023 
207.0218 9.598822 
207.0451 0.984395 
207.9935 1.924855 
208.0532 1.247264 
209.024 0.227831 
209.0609 3.174012 
210.032 1.549645 
211.0402 3.90798 
211.0764 0.283124 
212.0479 2.779183 
213.0556 0.217557 
214.0272 0.232288 
215.0267 0.751005 
215.036 0.348226 
217.0056 0.792324 
217.0426 2.610259 
219.0218 4.056184 
219.0451 1.08703 
220.0297 4.234384 
220.0531 0.918604 
221.0011 4.240924 
221.0373 1.279995 
221.0608 1.116733 
222.0323 3.072925 
223.0763 0.2189 
224.0482 1.384524 
225.0556 0.762105 
226.0271 1.214721 
227.0352 0.905698 
229.0061 3.566671 
229.0417 0.229501 
230.0134 1.423915 
231.0215 1.688419 
231.9936 0.21816 
233.0014 0.21649 
233.0373 0.353234 
233.0607 0.659022 
235.017 2.493719 
235.04 2.858827 
235.0529 1.272286 
235.9877 0.741058 
236.0476 0.835054 
238.004 3.739279 
238.0269 1.449591 
240.043 5.544186 
243.0215 4.938133 
245.0013 1.689847 
245.0373 3.901767 
246.0087 0.304876 
247.0167 4.327968 
247.0402 0.877027 
248.0244 3.920731 
248.0478 1.077341 
248.9964 0.259307 
249.0552 0.957566 
250.0266 0.730148 
251.0349 1.288738 
253.0049 0.263316 
253.0161 0.266001 
253.0506 1.177188 
255.0206 0.684217 
257.0375 2.924807 
258.0072 0.882758 
258.0172 1.299975 
259.0162 2.165472 
259.9875 0.375692 
260.0251 0.406875 
260.0493 0.232787 
260.996 0.216594 
261.0322 1.294399 
263.0351 0.637838 
263.0481 0.392264 
264.043 0.43391 
265.0273 0.206974 
265.05 0.410248 
266.0215 1.109608 
268.0377 1.079217 
269.0007 0.814455 
271.0168 10.827723 
272.9961 0.435528 
273.0325 1.557716 
274.0038 0.955415 
275.012 0.367053 
275.0349 0.238553 
276.0434 0.189266 
278.0218 1.055451 
283.0161 1.82974 
284.033 0.21563 
284.9959 0.947808 
285.0322 2.51492 
286.0036 0.931425 
287.0109 1.029689 
289.0268 1.247728 
296.0331 0.657783 
300.0274 0.764721 
301.0272 1.463272 
301.9987 0.256364 
308.996 0.238312 
311.0113 0.325717 
328.023 1.234116 
329.0221 0.25984 
END IONS

