BEGIN IONS
PEPMASS=174.2
CHARGE=1+
COMPOUNDNAME=ReSpect:PS118907 L-Citrulline|Cit|Orn(carbamoyl)|N5-Carbamoyl-L-ornithine|delta-Ureidonorvaline|L-2-Amino-5-ureidovaleric acid|(S)-2-Amino-5-ureidopentanoic acid|Sitrulline
LIBRARYQUALITY=3
SMILES=C(CC(C(=O)O)N)CNC(=O)N
INCHIKEY=RHGKLRLOHDJJDR-UHFFFAOYSA-N
INCHI=N/A
MSLEVEL=2
SOURCE_INSTRUMENT=ESI-Flow-injection QqQ/MS
FILENAME=respect_8_1_2014_GNPS_peaks.mgf
SEQ=*..*
IONMODE=Positive
ORGANISM=RESPECT
NAME=ReSpect:PS118907 L-Citrulline|Cit|Orn(carbamoyl)|N5-Carbamoyl-L-ornithine|delta-Ureidonorvaline|L-2-Amino-5-ureidovaleric acid|(S)-2-Amino-5-ureidopentanoic acid|Sitrulline [M+H]
PI=Putative ReSpect Match
DATACOLLECTOR=ReSpect
PUBMED=N/A
SUBMITUSER=mwang87
TAGS=
SPECTRUMID=CCMSLIB00000220195
SCANS=5809
131.0 466.0 
173.0 106.0 
174.0 999.0 
END IONS

