BEGIN IONS
PEPMASS=397.193
CHARGE=1+
COMPOUNDNAME=Kasugamycin
LIBRARYQUALITY=3
SMILES=N/A
INCHIKEY=PVTHJAPFENJVNC-UQTMRZPGSA-N
INCHI=InChI=1S/C14H25N3O9/c1-3-5(17-12(16)13(23)24)2-4(15)14(25-3)26-11-9(21)7(19)6(18)8(20)10(11)22/h3-11,14,18-22H,2,15H2,1H3,(H2,16,17)(H,23,24)/t3-,4+,5+,6?,7+,8+,9-,10+,11?,14-/m1/s1
MSLEVEL=2
SOURCE_INSTRUMENT=N/A-ESI-QFT
FILENAME=library_mgf.mgf
SEQ=*..*
IONMODE=positive
ORGANISM=MONA
NAME=Kasugamycin [M+NH4]+
PI=MoNA
DATACOLLECTOR=MoNA:VF-NPL-QEHF013463
PUBMED=N/A
SUBMITUSER=mwang87
TAGS=
SPECTRUMID=CCMSLIB00004704526
SCANS=13463
50.342571 0.022629 
51.110104 0.017559 
51.134773 0.021914 
51.843018 0.018724 
52.192226 0.026552 
52.411652 0.020897 
53.039314 2.019939 
53.399155 0.023261 
53.512352 0.018441 
53.788261 0.021425 
53.900543 0.01959 
54.35265 0.023096 
55.449558 0.019705 
55.463566 0.019751 
56.05024 0.252828 
56.12674 0.019513 
56.694817 0.02254 
56.944134 0.021228 
57.045506 0.044672 
57.070637 0.137485 
57.869534 0.023412 
58.065838 0.051334 
58.382313 0.023717 
58.499161 0.02117 
59.032768 0.019639 
59.061077 4.036788 
59.117596 0.017734 
59.235626 0.020312 
59.88126 0.022184 
60.032795 0.020707 
61.196499 0.019806 
61.404228 0.019792 
62.590462 0.017904 
63.325825 0.022801 
63.583485 0.021501 
64.539871 0.01993 
65.759827 0.022066 
66.656769 0.022412 
67.02536 0.019581 
67.054863 0.120808 
67.106621 0.024431 
67.573036 0.025716 
67.712715 0.025808 
68.050186 0.219442 
68.261688 0.021981 
69.070465 0.027354 
69.998283 0.019983 
70.065765 100.0 
70.663078 0.017981 
71.062836 0.103651 
71.069115 4.486116 
71.720871 0.017826 
72.988724 0.020178 
73.04744 0.214867 
74.060699 0.360213 
74.800713 0.017865 
75.336838 0.02011 
76.261856 0.020537 
78.181236 0.018922 
78.687859 0.024471 
79.021576 0.041605 
79.249855 0.019587 
79.551025 0.023989 
79.954903 0.018564 
79.957581 0.019773 
81.034065 0.308119 
81.04528 0.498191 
82.065697 0.974798 
83.049805 0.11053 
83.060883 1.648686 
84.044952 0.022889 
84.081284 0.456993 
86.591103 0.019408 
86.609856 0.02372 
86.616127 0.024202 
89.035019 2.976483 
89.060219 0.0516 
89.594284 0.020201 
89.986176 0.022541 
90.101578 0.025723 
91.057777 0.274786 
93.070557 0.021672 
93.409134 0.025425 
93.894012 0.022866 
94.065544 1.871701 
94.264481 0.018806 
95.04953 2.756764 
95.06076 0.460869 
95.069 0.03057 
95.085968 0.021981 
96.052963 0.022191 
96.081055 0.097446 
96.327034 0.021702 
97.076416 0.053458 
97.101776 0.020685 
98.060448 0.44536 
98.975723 0.218045 
99.055679 0.431777 
99.215523 0.022491 
99.766335 0.024996 
100.733757 0.023165 
100.835228 0.02149 
102.493164 0.021701 
104.832314 0.02015 
106.301445 0.017849 
106.747261 0.022909 
106.847954 0.022364 
107.583504 0.020727 
108.868843 0.020981 
109.028671 0.469422 
109.10125 0.024758 
109.837029 0.026824 
111.091911 1.070516 
112.07589 67.084526 
112.295166 0.020079 
113.06002 0.155507 
113.071396 0.361381 
113.079247 4.399304 
115.686356 0.019306 
116.321678 0.023364 
116.986076 0.082614 
118.769989 0.02023 
119.700294 0.020276 
120.416245 0.027357 
121.076195 0.382634 
121.101295 0.030678 
122.060242 0.079457 
123.116913 0.024218 
129.102066 0.032446 
130.360062 0.027932 
130.469818 0.021214 
131.004318 0.019256 
131.206558 0.020853 
131.685669 0.027528 
131.89505 0.025301 
133.017044 0.022644 
133.700378 0.020485 
135.194412 0.022243 
136.079193 0.022172 
136.943405 0.022722 
137.276825 0.023405 
137.319336 0.029187 
138.102753 0.030262 
138.28154 0.023728 
139.086517 0.847747 
141.033112 0.026616 
142.049667 0.084777 
146.190979 0.024982 
149.023361 0.534291 
154.122757 0.021214 
154.994354 0.023703 
155.919022 0.023726 
156.113113 4.208546 
156.690582 0.031747 
157.116821 0.062523 
157.148758 0.025905 
168.032547 0.025407 
171.453629 0.02832 
177.597916 0.024274 
178.095078 0.092749 
181.842285 0.026068 
183.076355 0.057557 
194.465225 0.022151 
194.999512 0.021551 
195.044022 0.058979 
196.934799 0.020626 
200.103043 0.776719 
203.052933 0.03274 
205.969955 0.023969 
207.316635 0.025157 
212.070587 0.109924 
213.054688 0.498191 
213.397842 0.023668 
215.047729 0.117444 
215.062347 0.675934 
215.070648 0.762088 
215.08316 0.154253 
215.091476 0.027114 
222.89827 0.022587 
227.113235 0.030764 
228.806824 0.031912 
230.082001 0.024341 
237.028275 0.029624 
239.888763 0.02769 
250.517441 0.023025 
251.501816 0.021536 
255.038284 0.321327 
256.059875 0.082356 
260.531616 0.021031 
263.803894 0.025711 
266.038605 0.027283 
272.601746 0.022746 
274.07074 0.10568 
274.559357 0.025625 
274.974457 0.089877 
284.332123 0.022823 
289.047821 0.023708 
292.985291 0.024361 
295.955872 0.025411 
301.462677 0.022328 
302.15506 0.021965 
313.202179 0.018304 
318.489227 0.026283 
320.888763 0.025144 
328.447906 0.024138 
335.118713 0.020821 
358.158234 0.550009 
360.839478 0.09545 
367.448914 0.024136 
383.886169 0.020692 
387.124542 0.025073 
393.209412 0.158865 
418.992798 0.02162 
425.610077 0.020148 
427.273193 0.02712 
430.147919 0.023247 
438.65799 0.031088 
447.34726 0.115376 
448.731171 0.02387 
END IONS

