BEGIN IONS
PEPMASS=273.076
CHARGE=1+
COMPOUNDNAME=naringenin
LIBRARYQUALITY=3
SMILES=N/A
INCHIKEY=FTVWIRXFELQLPI-ZDUSSCGKSA-N
INCHI=InChI=1S/C15H12O5/c16-9-3-1-8(2-4-9)13-7-12(19)15-11(18)5-10(17)6-14(15)20-13/h1-6,13,16-18H,7H2/t13-/m0/s1
MSLEVEL=2
SOURCE_INSTRUMENT=N/A-ESI-QTOF
FILENAME=library_mgf.mgf
SEQ=*..*
IONMODE=positive
ORGANISM=MONA
NAME=naringenin [M+H]+
PI=MoNA
DATACOLLECTOR=MoNA:VF-NPL-QTOF002119
PUBMED=N/A
SUBMITUSER=mwang87
TAGS=
SPECTRUMID=CCMSLIB00004719915
SCANS=2116
39.0219 0.531572 
39.0256 0.962092 
41.035 0.978295 
41.037998 1.754655 
41.040298 2.018671 
41.042301 1.348376 
43.0145 0.530682 
43.017101 1.740946 
43.0196 2.779937 
43.024502 0.85031 
53.0415 0.585064 
55.0173 3.498175 
55.020699 1.772026 
61.0075 0.675886 
65.034698 1.502943 
65.038803 6.032375 
65.041397 1.95204 
67.017899 12.873358 
67.020699 7.227131 
67.061401 0.604772 
68.994003 2.185258 
68.996803 10.970154 
68.999901 5.999216 
69.028099 1.465771 
69.032204 7.870324 
69.035004 8.988774 
69.055702 0.529968 
69.067101 0.717997 
69.073502 0.92268 
77.036797 3.629294 
77.042297 2.427808 
79.015503 1.44786 
79.019501 1.13683 
81.030098 0.661712 
81.0345 0.831808 
83.009903 2.64086 
83.0149 1.310828 
91.050797 2.2178 
91.054901 53.037716 
91.090401 0.699433 
91.098999 0.529981 
91.110397 0.994105 
91.114899 1.027788 
91.122498 0.558966 
91.131897 0.676472 
91.138901 0.89477 
91.163002 0.650634 
92.994904 1.208295 
95.0457 3.205381 
95.050797 3.659765 
95.080399 0.566422 
97.022697 0.975608 
97.026398 4.557751 
97.030701 3.882385 
103.006104 0.591517 
107.007004 0.999954 
107.043701 1.744633 
107.048698 3.41078 
107.056 0.893592 
111.004402 2.126067 
111.0131 0.766956 
115.049599 0.649812 
119.046402 7.152074 
119.049004 35.990707 
119.089203 0.845837 
119.096603 0.571127 
119.1147 0.570923 
119.121803 0.607976 
119.133003 0.539686 
119.140701 0.700698 
119.147797 0.747682 
119.172401 0.57139 
119.184196 0.543893 
121.0625 0.525107 
123.041298 3.371147 
123.048302 0.557469 
125.020699 1.679803 
128.059601 0.626113 
135.001907 0.597864 
143.042801 0.692092 
147.040802 7.416774 
147.046005 5.365594 
152.0616 0.693592 
153.017807 100.0 
153.079803 1.013125 
153.093994 0.86389 
153.102295 0.935222 
153.118896 1.801506 
153.128006 2.168819 
153.151398 0.644854 
153.173904 1.070633 
153.187607 0.530366 
153.196594 0.564682 
153.228897 0.841565 
153.240402 0.690626 
153.295303 0.528265 
153.311707 0.539169 
157.055099 0.552174 
181.062897 0.81526 
END IONS

