BEGIN IONS
PEPMASS=276.0
CHARGE=1+
COMPOUNDNAME=Massbank:KO002828 Eserine|Physostigmine
LIBRARYQUALITY=3
SMILES=CNC(=O)Oc(c3)cc(c(c3)1)C(C)(C2)C(N(C)C2)N(C)1
INCHIKEY=PIJVFDBKTWXHHD-UHFFFAOYSA-N
INCHI=1S/C15H21N3O2/c1-15-7-8-17(3)13(15)18(4)12-6-5-10(9-11(12)15)20-14(19)16-2/h5-6,9,13H,7-8H2,1-4H3,(H,16,19)/t13-,15+/m1/s1
MSLEVEL=2
SOURCE_INSTRUMENT=ESI-LC-ESI-QQ
FILENAME=Massbank_ESI_positive_8_1_2014_peaks.mgf
SEQ=*..*
IONMODE=Positive
ORGANISM=MASSBANK
NAME=Massbank:KO002828 Eserine|Physostigmine [M+H]+
PI=Putative Massbank Match
DATACOLLECTOR=Massbank
PUBMED=N/A
SUBMITUSER=mwang87
TAGS=
SPECTRUMID=CCMSLIB00000218156
SCANS=8630
44.2 2445547.0 
56.0 400990.5 
58.2 316832.0 
66.6 14851.5 
69.3 64356.5 
83.1 64356.5 
90.8 69307.0 
96.9 14851.5 
101.0 103960.5 
101.9 103960.5 
102.9 64356.5 
105.2 133663.5 
106.2 24752.5 
107.2 84158.5 
109.3 24752.5 
111.2 79208.0 
116.9 24752.5 
119.1 94059.5 
121.0 376238.0 
130.0 49505.0 
131.0 103960.5 
131.8 29703.0 
132.9 128713.0 
134.2 1831685.0 
135.0 34653.5 
142.1 29703.0 
144.1 405941.0 
145.2 356436.0 
146.1 762377.0 
147.0 14712886.0 
148.1 188119.0 
158.2 99010.0 
160.3 797030.5 
161.1 6316838.0 
162.3 44802025.0 
169.6 39604.0 
171.2 24752.5 
172.3 108911.0 
173.2 930694.0 
174.2 306931.0 
176.3 8440602.5 
188.3 3495053.0 
189.2 74257.5 
219.5 69307.0 
259.6 14851.5 
END IONS

