BEGIN IONS
PEPMASS=926.511
CHARGE=1+
COMPOUNDNAME=MoNA:686832 Nystatin
LIBRARYQUALITY=3
SMILES=N/A
INCHIKEY=VQOXZBDYSJBXMA-NQTDYLQESA-N
INCHI=InChI=1S/C47H75NO17/c1-27-17-15-13-11-9-7-5-6-8-10-12-14-16-18-34(64-46-44(58)41(48)43(57)30(4)63-46)24-38-40(45(59)60)37(54)26-47(61,65-38)25-36(53)35(52)20-19-31(49)21-32(50)22-33(51)23-39(55)62-29(3)28(2)42(27)56/h5-6,8,10-18,27-38,40-44,46,49-54,56-58,61H,7,9,19-26,48H2,1-4H3,(H,59,60)/b6-5+,10-8+,13-11+,14-12+,17-15+,18-16+/t27-,28-,29-,30+,31+,32+,33+,34-,35+,36+,37-,38-,40+,41-,42+,43+,44-,46-,47+/m0/s1
MSLEVEL=2
SOURCE_INSTRUMENT=LC-ESI-QFT-LC-ESI-QFT
FILENAME=output_mgf.mgf
SEQ=*..*
IONMODE=
ORGANISM=MONA
NAME=MoNA:686832 Nystatin [M+H]+
PI=MoNA
DATACOLLECTOR=MoNA
PUBMED=N/A
SUBMITUSER=mwang87
TAGS=
SPECTRUMID=CCMSLIB00000566923
SCANS=4174
65.0385 6.185034 
67.0542 50.008862 
69.0334 11.490767 
69.0698 14.811712 
71.0127 5.577376 
71.0491 41.54104 
73.0284 2.309689 
74.0965 0.285922 
77.0384 5.228102 
79.0542 68.238429 
81.0335 41.045186 
81.0698 44.320311 
83.0491 13.595107 
83.0855 5.609372 
84.0443 1.943733 
85.0284 13.781414 
85.0648 7.805395 
87.0439 2.438788 
89.0233 2.843907 
91.0542 100.0 
93.0698 85.820312 
95.0127 9.748276 
95.0491 66.062052 
95.0854 35.052813 
97.0283 18.720007 
97.0647 12.441512 
97.1011 2.342254 
99.044 38.18334 
100.0474 1.154416 
101.0233 1.687962 
101.0597 3.379962 
103.0542 9.192557 
105.0698 96.913647 
106.0732 3.897211 
107.0491 33.368466 
107.0855 69.560647 
108.0888 2.330456 
109.0284 6.311372 
109.0647 16.656938 
109.1011 25.452471 
110.1045 0.407058 
111.044 14.600282 
111.0804 6.788605 
113.0233 3.25239 
113.0596 15.034283 
113.096 1.438904 
115.0389 2.759209 
115.0541 13.474683 
116.062 2.818238 
117.0698 64.1075 
118.0731 2.175779 
119.0491 11.307436 
119.0854 57.001286 
120.0888 1.917673 
121.0283 5.83509 
121.0647 27.683707 
121.1011 22.131983 
122.0681 1.207792 
122.1044 1.026382 
123.0439 48.669406 
123.0803 13.919865 
123.1167 6.84769 
125.0232 3.692953 
125.0596 5.597234 
125.096 7.090038 
127.039 4.440308 
127.0754 0.478133 
128.0619 14.484969 
129.0546 3.403737 
129.0698 65.617779 
130.0731 2.547338 
130.0778 5.220913 
131.0491 13.944761 
131.0855 58.24543 
132.057 0.563471 
132.0888 2.272131 
132.0934 1.026809 
133.0647 39.990838 
133.1011 25.565247 
134.0681 1.672614 
134.0726 0.40118 
134.1044 1.318997 
135.0439 10.277603 
135.0804 17.7372 
135.1168 20.438782 
136.0839 1.034483 
137.0597 14.900747 
137.096 5.765598 
139.0389 5.927808 
139.0753 9.090864 
139.1118 0.647849 
141.0546 7.091872 
141.0698 24.364281 
142.0731 0.715442 
142.0779 6.194205 
143.0856 45.703004 
144.0568 1.147095 
144.0936 2.236853 
145.0648 22.342104 
145.1012 35.703436 
146.0679 0.480855 
146.073 0.495322 
146.0812 0.435392 
146.1046 1.737775 
146.1095 0.40765 
147.044 13.167328 
147.0804 32.21458 
147.1168 10.512821 
148.084 1.320193 
148.1202 0.528999 
149.0231 1.952697 
149.0597 16.702088 
149.0961 6.076896 
149.1325 1.132904 
151.039 16.752917 
151.0753 19.454172 
151.1117 3.933055 
152.062 1.701891 
153.0546 4.290756 
153.0698 8.853044 
153.091 1.0382 
154.0778 6.297102 
155.0704 5.302135 
155.0855 37.14852 
156.0886 1.654921 
156.0941 4.140117 
157.0648 16.117869 
157.1012 25.238668 
158.0727 1.118234 
158.109 1.341857 
159.0441 3.947141 
159.0804 10.695087 
159.1168 14.704455 
161.0596 8.945678 
161.0961 8.310344 
161.1325 12.881884 
162.1357 1.163105 
163.039 2.997886 
163.0753 12.187851 
163.1116 3.832103 
165.0547 7.40723 
165.0698 10.37889 
165.0909 8.896557 
166.0779 6.516867 
167.0704 15.06097 
167.0855 27.30253 
168.0572 0.276028 
168.087 0.267495 
168.0939 4.021767 
169.0648 4.499768 
169.0862 2.704319 
169.1011 30.615909 
171.0439 1.235208 
171.0804 16.784746 
171.1167 17.863318 
173.0597 10.432803 
173.0961 14.762146 
173.1325 6.81449 
174.1 1.138314 
175.039 4.760322 
175.0753 16.635651 
175.1115 2.050514 
175.1481 1.539572 
176.0787 0.586547 
177.0547 4.328544 
177.0909 3.416265 
177.1275 1.22157 
178.0777 3.504614 
179.0703 4.758178 
179.0855 19.002754 
180.0938 3.814943 
181.0494 1.623374 
181.0649 3.581468 
181.0862 1.684998 
181.1012 27.745136 
182.0727 1.811828 
182.1091 2.845054 
183.0806 11.598207 
183.1169 20.230419 
184.089 0.515088 
184.1254 0.69375 
185.0597 4.605981 
185.0817 1.842328 
185.0962 8.356869 
185.1326 7.753632 
186.1356 0.347729 
187.0753 6.657701 
187.1117 6.688195 
187.1481 3.262544 
189.0548 2.949824 
189.0911 10.623841 
190.0776 0.709221 
190.0946 0.530327 
191.0704 9.486092 
191.0853 7.127466 
191.1066 7.337738 
192.0938 3.317951 
193.0864 9.481209 
193.1012 16.390826 
194.0725 1.127664 
194.0898 0.542804 
194.1096 2.777441 
195.0805 8.737196 
195.1169 17.315209 
196.088 1.651268 
196.125 1.292455 
197.0596 2.800944 
197.0961 14.75383 
197.1325 10.061981 
198.0995 0.497111 
199.0753 10.545023 
199.1116 5.72818 
199.1481 4.775565 
200.1515 0.294598 
201.0545 3.559997 
201.0909 7.789911 
201.1276 1.411787 
201.1639 1.773759 
202.0776 1.417139 
203.0703 4.172947 
203.0853 4.494419 
203.1061 2.416676 
204.0939 2.895968 
205.1012 12.192933 
205.1221 0.623965 
206.1097 2.591427 
207.0659 2.215752 
207.0808 4.482389 
207.1019 4.510716 
207.1168 15.422521 
208.0886 0.561329 
208.1243 1.663611 
209.06 1.209902 
209.081 4.215024 
209.0961 9.92829 
209.1173 1.62683 
209.1325 8.36763 
210.14 1.145138 
211.0754 4.535121 
211.0967 2.608651 
211.1117 5.10994 
211.148 4.785409 
212.1562 0.574222 
213.0911 4.953577 
213.1275 2.645734 
213.1638 2.389238 
214.172 0.310429 
215.0703 2.811022 
215.0853 2.6974 
215.1068 7.886405 
216.0937 2.80773 
217.086 6.246148 
217.1012 7.615961 
217.1228 1.148121 
218.0896 0.425334 
218.1094 3.561959 
219.0654 2.43066 
219.0804 3.122352 
219.1017 4.748763 
219.117 12.673104 
220.0884 1.603427 
220.1248 2.676295 
221.0961 7.661323 
221.1325 11.173126 
222.1392 1.548026 
223.0753 3.989234 
223.1117 7.097901 
223.1482 5.536228 
225.091 8.602663 
225.1125 1.060905 
225.1275 4.008695 
225.1635 3.635232 
227.0699 2.146572 
227.1066 3.625215 
227.143 1.237363 
227.18 0.467437 
228.0931 0.657298 
229.0867 2.000096 
229.1002 3.906324 
229.1221 0.596521 
230.1091 2.558658 
231.0805 1.494916 
231.102 1.705309 
231.117 7.896378 
232.0885 0.535976 
232.1238 1.289442 
233.0808 0.562836 
233.0964 4.54065 
233.1174 6.654179 
233.1324 7.910517 
234.1037 1.477741 
235.0757 1.598301 
235.0968 2.137203 
235.1118 6.587781 
235.1325 0.64075 
235.1482 5.440995 
237.0911 3.924219 
237.1126 1.387128 
237.1275 4.598216 
237.1638 3.602847 
239.0709 0.649117 
239.0852 0.394664 
239.1066 6.327852 
239.1431 1.539015 
239.18 1.502475 
240.1115 0.365729 
241.0863 2.9629 
241.1011 2.578653 
241.1223 2.144753 
241.1592 0.439018 
242.1091 1.90383 
243.102 5.967894 
243.117 5.577513 
243.1381 0.429848 
244.1063 0.315731 
244.1248 2.326947 
245.0962 2.254991 
245.1187 0.615046 
245.1323 7.577952 
246.1038 1.394296 
247.0973 0.780654 
247.1121 4.892607 
247.1479 4.194602 
248.1195 0.59252 
248.1556 1.30894 
249.091 3.50462 
249.1272 3.577369 
249.164 3.363533 
250.1356 0.29809 
251.1068 4.167186 
251.1282 0.385518 
251.1432 2.423267 
251.1796 1.93059 
253.0864 2.307735 
253.1024 1.273513 
253.122 2.715011 
253.159 1.113242 
254.1087 0.440994 
255.1017 1.600936 
255.1167 3.411456 
255.1382 0.93927 
256.1255 1.904367 
257.0808 0.475799 
257.096 1.48214 
257.1174 2.178122 
257.1326 5.195581 
258.1031 0.878407 
258.1391 1.527407 
259.0968 1.16641 
259.1121 3.505066 
259.1485 3.182357 
260.1191 1.611665 
260.1552 0.578399 
261.0912 1.381388 
261.1125 5.74603 
261.1272 4.140484 
261.1635 2.47575 
262.1153 0.386534 
263.1066 3.486527 
263.1427 2.078993 
263.1793 1.335215 
264.1133 0.347879 
265.0866 0.898377 
265.1004 0.332774 
265.1229 2.577101 
265.1581 0.383489 
265.1957 0.400387 
266.109 0.305155 
267.1018 2.981169 
267.1168 1.890461 
267.1386 0.999545 
268.1245 1.296845 
269.0968 0.418677 
269.1172 1.622626 
269.1327 3.57937 
269.1535 0.286312 
270.1043 0.450428 
270.1405 1.428387 
271.0967 1.783157 
271.112 1.724446 
271.1339 0.637793 
271.1477 4.323847 
272.1189 0.61198 
273.0916 0.456388 
273.1271 2.881842 
273.1632 2.435891 
274.1347 0.534403 
275.1057 2.268375 
275.1426 2.536431 
275.1798 1.696531 
277.1219 2.913863 
277.1591 1.187409 
277.1956 1.025895 
279.1017 1.041796 
279.1224 4.098057 
279.1386 2.25993 
280.1251 0.9941 
281.1174 1.028473 
281.1326 2.290473 
281.154 0.395825 
282.1406 0.997841 
283.113 0.969113 
283.1326 1.150956 
283.1486 3.315832 
284.12 0.332477 
285.1123 1.835296 
285.1277 2.939604 
285.1641 2.083031 
287.1069 0.576941 
287.1286 0.436952 
287.1433 1.394603 
287.1795 1.465298 
289.1081 0.775408 
289.1225 1.86301 
289.1591 1.713225 
289.1953 0.474328 
291.1021 0.4205 
291.1377 1.878793 
291.1744 0.374483 
291.211 0.341363 
293.117 0.888185 
293.133 1.154319 
293.1543 0.488556 
294.1407 0.414202 
295.0962 0.432434 
295.1119 0.365199 
295.1333 1.001595 
295.1491 1.472748 
295.1691 0.325766 
297.1342 2.255362 
297.1632 2.446345 
298.1353 0.432384 
299.1438 1.918284 
299.1793 0.538431 
301.1225 1.718419 
301.1592 1.35258 
301.1951 0.464072 
302.1635 0.353948 
303.1225 0.518029 
303.1375 1.970006 
303.1741 1.14183 
305.1175 0.38079 
305.1544 1.550675 
305.1895 0.396138 
307.1336 1.07904 
307.1492 0.513606 
307.169 0.515341 
309.1283 0.414641 
309.1483 0.941326 
309.1646 0.542702 
311.1437 1.207159 
313.1069 0.590605 
313.1233 0.34531 
313.142 0.279157 
313.1591 1.331074 
313.1949 0.655578 
315.1383 1.247822 
315.1749 0.600611 
316.1451 0.342861 
317.1536 0.634274 
319.1326 0.49904 
319.1689 0.550447 
321.1481 0.533019 
321.1651 0.417825 
323.1799 0.397292 
325.1223 0.298287 
325.16 0.654117 
325.1966 0.413083 
327.139 0.405566 
327.2104 0.33579 
329.155 0.564045 
329.1915 0.442771 
331.1178 1.205566 
331.1696 1.079485 
333.1859 0.546453 
335.163 0.357178 
339.1587 0.410112 
339.2112 0.403497 
343.1325 0.462975 
343.2057 0.331997 
345.1866 0.408125 
347.1636 0.343175 
349.1279 1.1648 
369.2225 0.378876 
373.1811 0.300353 
475.2851 0.296446 
END IONS

