BEGIN IONS
PEPMASS=908.477
CHARGE=1+
COMPOUNDNAME=MoNA:749182 Microcystin-LA
LIBRARYQUALITY=3
SMILES=N/A
INCHIKEY=DIAQQISRBBDJIM-DRSCAGMXSA-N
INCHI=InChI=1S/C46H67N7O12/c1-24(2)21-35-44(60)52-38(46(63)64)28(6)40(56)47-29(7)41(57)49-33(18-17-25(3)22-26(4)36(65-11)23-32-15-13-12-14-16-32)27(5)39(55)50-34(45(61)62)19-20-37(54)53(10)31(9)43(59)48-30(8)42(58)51-35/h12-18,22,24,26-30,33-36,38H,9,19-21,23H2,1-8,10-11H3,(H,47,56)(H,48,59)(H,49,57)(H,50,55)(H,51,58)(H,52,60)(H,61,62)(H,63,64)/b18-17+,25-22+/t26-,27-,28-,29-,30+,33-,34+,35-,36-,38+/m0/s1
MSLEVEL=2
SOURCE_INSTRUMENT=LC-ESI-QFT-LC-ESI-QFT
FILENAME=output_mgf.mgf
SEQ=*..*
IONMODE=
ORGANISM=MONA
NAME=MoNA:749182 Microcystin-LA [M-H]-
PI=MoNA
DATACOLLECTOR=MoNA
PUBMED=N/A
SUBMITUSER=mwang87
TAGS=
SPECTRUMID=CCMSLIB00000566828
SCANS=4079
65.9987 0.113743 
66.0349 0.573241 
68.0506 0.126254 
70.0299 0.409189 
71.0138 0.179764 
71.0504 0.154912 
72.0091 0.31595 
72.0455 3.911729 
73.0295 2.600506 
74.0248 6.067451 
80.0506 0.657127 
81.0459 0.143384 
82.0298 3.387162 
82.0662 1.92837 
83.0252 0.115301 
83.0504 0.106515 
84.0455 7.434048 
85.0294 0.17457 
85.0408 0.535195 
86.0248 0.385152 
86.0612 0.422156 
87.0564 6.269536 
88.0404 1.145499 
91.0554 0.60763 
94.0298 0.564057 
94.0663 0.504556 
95.0248 0.11418 
96.0329 0.260943 
96.0455 1.125054 
96.0819 0.538613 
97.0408 3.34322 
98.0119 0.131277 
98.0247 1.188239 
98.0611 2.302612 
99.0564 13.965045 
100.004 1.088268 
100.0404 3.131264 
100.0767 0.175587 
101.0721 0.681781 
102.056 0.936441 
106.0661 0.123186 
107.0612 0.111339 
108.0328 0.405066 
108.0455 0.598372 
109.0169 0.499036 
109.0407 1.068092 
109.0771 1.281778 
110.0248 12.873773 
110.0611 1.545393 
111.02 1.042964 
111.0564 8.027279 
112.0404 5.863623 
112.0768 2.087332 
113.0357 5.886877 
114.0926 0.19401 
119.0502 0.364031 
120.0455 0.166827 
120.0818 0.13983 
121.0295 0.715952 
121.0533 0.461554 
121.0772 0.178626 
122.0248 0.198743 
122.0484 0.125594 
122.0611 1.164745 
122.0975 0.944007 
123.0326 1.514367 
123.0564 5.180072 
124.0403 12.270494 
125.0356 1.267823 
125.0436 0.215162 
125.072 3.998168 
126.0561 0.951012 
127.0513 4.607264 
127.0877 1.316008 
128.0353 100.0 
129.0386 1.740835 
129.1034 18.264096 
130.0509 1.675922 
130.0873 2.747741 
130.1066 0.353978 
131.0865 4.616197 
134.0608 0.120313 
135.0565 1.20013 
136.0403 0.634898 
136.0641 0.341398 
136.0767 0.669307 
136.1131 0.881353 
137.072 8.090816 
138.0437 1.381851 
138.056 8.227836 
139.0513 1.299036 
139.0876 12.065728 
140.0717 1.351071 
140.1082 0.409112 
141.067 1.020937 
141.1035 0.544123 
142.051 0.776838 
143.0826 0.366635 
145.062 0.407337 
148.0768 0.435386 
149.072 0.783208 
150.0559 2.724662 
150.0924 0.193395 
151.051 0.138466 
151.0876 1.080025 
152.0719 0.855791 
152.0828 0.927692 
153.0668 12.093261 
153.1032 1.696039 
154.0695 0.128467 
154.0984 0.479648 
155.0825 8.241012 
155.1189 1.519592 
157.0978 0.360394 
157.1346 0.447579 
161.0718 0.173204 
163.0512 2.510211 
163.0873 0.689694 
164.0351 0.640749 
164.0595 0.125331 
164.0718 0.176255 
164.0831 0.11747 
165.0669 1.518886 
165.1031 13.975406 
166.0871 0.532247 
166.0984 0.627242 
167.0825 2.650776 
167.1187 0.468095 
169.0983 0.100311 
169.1346 0.255904 
170.0934 2.607057 
171.0775 0.383346 
171.113 0.353955 
171.1195 0.224628 
172.1092 0.179793 
175.051 0.128685 
177.0672 0.119255 
177.1027 0.105121 
178.0627 0.100126 
179.1188 0.199514 
180.0777 0.520395 
180.1028 0.553252 
180.1142 4.624337 
181.0619 2.37276 
181.0978 0.649838 
182.1296 7.906005 
183.0775 0.146238 
183.1137 1.485224 
194.1301 0.382593 
195.0778 0.138684 
195.1138 0.377854 
198.1246 1.471555 
200.1404 3.909019 
208.1094 0.196653 
211.0724 0.113001 
212.1408 0.18874 
END IONS

