BEGIN IONS
PEPMASS=537.236
CHARGE=1+
COMPOUNDNAME=(3E,5S,7R,8R,11E,13S,15R,16R)-3,5,7,11,13,15-hexamethyl-8,16-bis(1,3-oxazol-5-ylmethyl)-1,9-dioxacyclohexadeca-3,11-diene-2,10-dione
LIBRARYQUALITY=3
SMILES=N/A
INCHIKEY=LAJRJVDLKYGLOO-HLRFMGGZSA-N
INCHI=InChI=1S/C28H38N2O6/c1-17-7-19(3)25(11-23-13-29-15-33-23)35-28(32)22(6)10-18(2)8-20(4)26(12-24-14-30-16-34-24)36-27(31)21(5)9-17/h9-10,13-20,25-26H,7-8,11-12H2,1-6H3/b21-9+,22-10+/t17-,18-,19+,20+,25+,26+/m0/s1
MSLEVEL=2
SOURCE_INSTRUMENT=N/A-ESI-QFT
FILENAME=library_mgf.mgf
SEQ=*..*
IONMODE=positive
ORGANISM=MONA
NAME=(3E,5S,7R,8R,11E,13S,15R,16R)-3,5,7,11,13,15-hexamethyl-8,16-bis(1,3-oxazol-5-ylmethyl)-1,9-dioxacyclohexadeca-3,11-diene-2,10-dione [M+K]+
PI=MoNA
DATACOLLECTOR=MoNA:VF-NPL-QEHF019229
PUBMED=N/A
SUBMITUSER=mwang87
TAGS=
SPECTRUMID=CCMSLIB00004710292
SCANS=19229
50.31604 0.029404 
50.648785 0.026124 
51.222866 0.027071 
51.430225 0.025428 
51.5704 0.024563 
51.816914 0.023614 
53.002506 0.112043 
53.038879 0.031625 
53.216187 0.028318 
53.939491 0.020254 
54.057308 0.022846 
54.271587 0.02345 
54.327747 0.038014 
54.543808 0.028547 
55.018204 0.041535 
55.054451 1.62292 
55.244713 0.037574 
55.596985 0.034068 
55.676395 0.022713 
56.049671 0.165206 
56.197289 0.028851 
56.965008 2.56265 
57.033703 9.120017 
57.03524 0.039844 
57.070057 1.66689 
57.203045 0.036795 
57.568176 0.031951 
57.964184 0.025914 
58.065308 0.989265 
58.302834 0.019902 
58.663372 0.035963 
59.049313 2.743133 
59.370914 0.028009 
59.516605 0.025165 
59.608402 0.033857 
60.055714 0.122031 
60.080879 0.06351 
60.183681 0.021321 
60.658855 0.024061 
60.733505 0.026223 
61.01078 0.139952 
61.124947 0.023801 
61.533707 0.026845 
62.687092 0.018492 
62.743561 0.024037 
62.954735 0.024263 
64.633469 0.030558 
65.490547 0.025876 
65.806297 0.026628 
66.561234 0.026639 
67.05426 1.590793 
67.525963 0.025361 
67.761833 0.02008 
69.033508 0.322578 
69.069855 2.091487 
69.625435 0.033723 
70.020134 0.035138 
70.065117 3.494214 
70.487732 0.032872 
71.049088 0.370304 
71.085487 0.687606 
72.044434 0.069451 
72.080696 0.785991 
72.215965 0.043877 
73.046738 2.334262 
73.064735 0.168805 
73.189178 0.038087 
73.361191 0.021641 
74.059891 0.106955 
74.096268 0.02493 
74.397606 0.033768 
75.043938 0.169148 
75.358894 0.032853 
75.537964 0.041904 
75.676964 0.022401 
78.0886 0.026811 
79.021034 0.112008 
79.054146 1.425598 
80.049294 1.032916 
80.466934 0.034511 
80.735527 0.036343 
81.069801 3.187562 
82.028671 1.04542 
82.065338 0.054968 
82.073334 0.027713 
82.323418 0.025695 
83.010178 0.093717 
83.012848 0.033111 
83.048996 0.716763 
83.085434 0.942091 
83.975662 0.166776 
84.044403 0.029143 
84.08065 1.013919 
84.699356 0.020889 
84.959518 0.03779 
85.028351 0.058204 
85.062096 0.047751 
85.064705 1.781837 
85.10112 0.108124 
86.059669 0.028215 
86.096275 1.090873 
87.043938 0.524258 
88.075546 1.157638 
88.386711 0.036349 
89.059563 1.518942 
89.354118 0.025881 
91.054131 1.241749 
91.057251 6.567178 
91.575531 0.021503 
92.057083 0.08983 
92.060677 0.037457 
93.069763 2.377402 
93.596809 0.033271 
94.065041 0.531203 
94.068192 0.024487 
94.445076 0.021594 
95.049019 1.653653 
95.085411 3.72642 
95.312828 0.028013 
95.754074 0.022858 
96.044273 0.313565 
96.080589 0.077312 
96.088799 0.04817 
97.064713 1.933754 
97.101006 0.075602 
98.059914 0.300609 
98.067719 0.028885 
98.748566 0.02361 
99.043961 0.155644 
99.080345 0.726624 
99.153885 0.021676 
99.228012 0.021403 
100.075439 0.058204 
100.611145 0.022594 
101.059624 0.145816 
101.219589 0.034455 
101.774033 0.035681 
102.091225 0.54621 
103.05423 0.095726 
103.95578 0.02352 
104.235046 0.040508 
105.03347 0.102927 
105.045021 0.027485 
105.069794 3.978812 
105.07325 0.026871 
105.548523 0.031244 
105.939285 0.044149 
106.073059 0.3421 
106.199234 0.027464 
106.882759 0.019708 
107.048958 0.094136 
107.085403 3.848973 
108.080551 0.097692 
108.088379 0.10465 
108.491196 0.028615 
109.064636 1.850786 
109.101105 2.322324 
110.059944 0.369599 
110.104187 0.056287 
111.041336 0.286857 
111.080284 1.265461 
113.059532 1.091335 
113.09594 0.025234 
113.998878 0.026004 
114.091217 1.015595 
114.897644 0.043425 
114.925499 0.036449 
114.959312 0.021214 
115.075165 0.829306 
116.070343 0.026293 
117.069771 0.201763 
118.186172 0.02827 
119.085419 1.933791 
119.862328 0.048806 
120.080559 0.054901 
120.088715 0.021722 
121.064583 0.478394 
121.101036 3.375003 
121.628242 0.023382 
121.909592 0.025189 
121.971497 0.021617 
122.059906 0.694042 
122.096375 0.039328 
122.10437 0.137993 
122.935669 0.022779 
123.080292 2.348958 
123.116676 0.401576 
124.0755 0.143974 
124.083549 0.029262 
124.11203 0.026188 
125.059654 0.020791 
125.095917 0.365303 
126.091209 0.31662 
127.036293 0.556291 
127.075638 0.026589 
127.923584 0.023912 
128.061935 0.024254 
129.069626 0.360655 
130.077469 0.036918 
130.811066 0.043348 
130.827148 0.024811 
131.048935 0.3921 
131.085373 0.704805 
132.1017 0.442051 
132.119247 0.02749 
132.957794 0.02412 
133.100983 1.473895 
134.078445 0.022745 
134.096191 0.038795 
134.104141 0.027349 
135.043869 0.025636 
135.080063 0.430721 
135.116592 1.461816 
135.283783 0.037128 
136.039169 0.094666 
136.075562 0.318181 
137.058929 0.045238 
137.095932 0.552159 
137.132141 0.03068 
137.374222 0.039946 
138.091187 0.39941 
138.249771 0.044521 
139.074265 0.054377 
140.001465 0.071238 
140.070374 0.400684 
141.05394 0.04695 
141.588745 0.03505 
142.077621 0.029704 
143.085449 0.35241 
143.536606 0.029194 
144.065598 0.061659 
144.092834 0.042063 
144.867752 0.03539 
145.100967 1.16778 
145.759232 0.036186 
146.117416 0.375517 
147.08017 0.039318 
147.116638 0.729977 
148.075287 0.029966 
149.038681 0.027167 
149.044708 1.594441 
149.095978 0.533057 
149.132324 0.148153 
150.044662 0.043069 
150.968735 0.03039 
151.06221 0.072338 
151.111481 0.136213 
152.070206 0.032316 
152.988647 0.028016 
153.344894 0.023699 
154.049789 0.02477 
154.086044 0.317796 
154.402542 0.033498 
155.067551 0.325027 
155.078293 0.023488 
156.09314 0.07467 
157.100998 1.262616 
158.012177 0.380008 
159.032822 0.031111 
159.080734 0.063546 
159.116562 3.51949 
159.491043 0.025596 
160.119995 0.172346 
160.280121 0.025005 
161.011642 0.078902 
161.095718 0.142501 
161.132278 0.29544 
162.09169 0.025768 
163.06308 0.026501 
163.075714 0.032648 
163.11145 0.689544 
164.106934 0.062558 
167.038147 0.043765 
167.055099 5.761526 
167.092941 0.02833 
167.107193 0.030469 
168.057205 0.154375 
168.065338 3.012791 
169.016937 0.438171 
169.052444 0.116673 
169.073334 0.150946 
169.100967 0.659585 
170.025162 0.108024 
171.03299 0.041984 
171.0625 0.37691 
171.116501 0.659082 
172.060425 0.02514 
173.048447 0.024191 
173.095734 0.054446 
173.132462 0.140234 
175.028122 0.040282 
175.11145 0.177431 
175.171844 0.027841 
176.12796 0.027069 
176.472046 0.030893 
177.127075 0.15331 
179.057693 0.027006 
181.073334 0.0369 
181.085297 0.037342 
181.846832 0.026446 
182.066483 0.054573 
182.080994 22.115261 
183.032547 0.090865 
183.052322 0.40431 
183.083939 0.933499 
183.089706 0.834974 
184.059921 0.064277 
184.087143 0.026605 
184.096466 0.077736 
185.048248 0.246807 
185.081009 0.032361 
185.097122 0.066233 
186.075882 1.800223 
186.369339 0.02363 
186.878876 0.98404 
187.027573 4.349266 
187.11171 0.180847 
188.0354 1.60376 
188.143707 0.027174 
189.00531 0.056734 
189.043198 0.331541 
189.078415 0.041506 
190.122147 0.07385 
190.142929 0.055617 
191.02124 0.025698 
191.450241 0.025919 
192.033493 0.042282 
192.06543 0.136763 
193.053146 0.051636 
193.100754 0.029373 
194.048752 1.349149 
194.080933 0.074574 
195.025085 0.037344 
195.090973 0.290235 
196.096741 1.433671 
197.068085 0.68923 
197.091675 0.022536 
197.100693 0.024879 
197.132156 0.048063 
197.201859 0.025071 
198.043274 0.063415 
198.066559 0.054749 
198.075836 6.157455 
199.028183 0.072657 
199.079422 0.112252 
199.093582 0.504626 
199.245819 0.025128 
201.043045 0.23043 
203.058029 0.059649 
203.881561 0.04054 
204.065292 0.025814 
204.075546 0.070828 
204.138153 0.425385 
204.370789 0.04544 
204.888168 0.328374 
205.038361 1.209246 
205.073578 0.027797 
205.552383 0.028855 
206.045853 0.111579 
206.080887 1.330692 
206.793228 0.026073 
207.015884 0.02612 
207.031982 0.031811 
207.054321 0.028906 
207.089554 0.101237 
208.096497 1.166919 
208.133026 0.886544 
209.042999 0.028704 
209.098358 0.033518 
209.100906 0.038952 
209.103455 0.031572 
210.043564 1.077407 
210.076477 0.966573 
210.112381 0.138184 
211.086319 4.154981 
212.059174 4.206835 
212.091385 7.529881 
212.236862 2.374048 
213.019333 1.953472 
213.026993 1.279425 
213.063446 0.10783 
213.095261 0.247742 
214.070786 0.571611 
214.255676 0.031752 
215.088837 0.151851 
218.105972 0.035899 
218.383011 0.02571 
219.05394 0.08558 
219.088638 0.207118 
219.174316 0.040534 
220.096725 0.469852 
220.903168 0.657134 
221.104538 0.667621 
222.076721 0.097484 
222.112122 0.777443 
222.898315 6.315332 
223.06398 0.13763 
223.085449 0.207494 
223.89978 0.174976 
224.091446 0.130542 
224.128113 0.442761 
225.042648 1.347522 
226.107376 0.026559 
228.054565 0.02616 
229.583984 0.026731 
229.89563 0.366979 
230.030487 0.025401 
230.069626 0.923738 
232.132935 0.113282 
233.079086 0.020907 
233.507812 0.02274 
234.112274 0.391959 
235.100418 0.171375 
236.091232 0.067071 
236.127914 1.270474 
236.265854 0.045507 
236.913269 0.084356 
237.079422 0.032921 
237.746078 0.027544 
237.904861 0.039845 
237.922012 0.236007 
238.107193 0.808092 
238.252716 0.245331 
238.893295 0.139684 
238.913315 0.86764 
239.094757 0.484264 
239.428818 0.023354 
239.901077 1.199666 
240.231689 0.185069 
240.268143 0.112308 
240.908813 8.829364 
241.074478 0.198312 
241.096725 1.71007 
241.504913 0.022358 
241.909531 0.182708 
242.100464 0.032347 
243.120163 0.056296 
243.895966 0.083068 
244.100082 0.365039 
245.890488 1.346044 
246.076248 0.021179 
246.11171 0.037134 
246.146759 0.091697 
246.898193 0.571533 
247.906189 0.157673 
248.127594 0.094143 
248.91391 0.279498 
249.09906 0.025514 
250.073563 0.032722 
250.10701 0.173744 
250.143951 0.053313 
250.894043 0.031651 
251.079086 0.035583 
251.095322 0.021907 
252.122604 1.539601 
252.743179 0.036811 
253.109909 0.07689 
254.246506 0.030804 
254.924423 0.144965 
255.08992 0.288613 
256.263031 2.948423 
257.104736 0.028556 
257.2659 0.035496 
258.112183 0.0581 
258.808289 0.082838 
259.113953 0.031646 
260.094666 0.152919 
261.079376 0.421239 
261.599365 0.037001 
261.90564 1.976498 
262.11087 2.068227 
262.14267 0.122183 
262.396179 0.034903 
262.893127 0.036769 
262.913239 0.403879 
263.114227 0.043836 
263.900848 19.702042 
264.122131 0.262072 
264.909088 5.198762 
265.076294 0.029346 
265.91156 0.229925 
266.101013 0.036826 
266.137695 0.03129 
266.923889 0.546455 
266.999207 0.064314 
267.465546 0.02983 
269.104889 0.02333 
270.182343 0.036128 
271.14975 0.036842 
272.12616 0.025364 
273.100037 0.037589 
274.105896 0.031358 
275.117798 0.028457 
276.122131 0.141051 
277.916687 0.435523 
278.105072 0.251238 
278.908569 0.324852 
278.9245 0.414661 
279.089935 1.818717 
279.156586 0.10732 
279.916046 11.514837 
280.09201 0.032043 
280.120789 0.585716 
280.903595 3.995911 
280.920502 0.708881 
281.050842 0.349441 
281.911469 100.0 
282.132141 0.02839 
282.914642 7.271267 
283.029846 1.659363 
283.916138 0.562967 
284.030243 0.165477 
285.009979 0.033093 
287.14621 0.197468 
288.089935 1.767538 
288.121796 0.023965 
288.160919 0.031538 
289.094238 0.036634 
290.135895 16.199213 
293.931427 0.152641 
295.927094 2.912545 
296.93335 0.21782 
297.100708 0.416237 
299.061188 7.457666 
300.061798 1.696739 
300.289215 1.930337 
301.058258 0.483897 
301.825073 0.786577 
302.908936 0.038276 
303.140564 0.124575 
304.155334 0.030339 
304.188995 0.065377 
304.903503 1.151507 
304.926147 0.230342 
306.100739 19.160044 
306.919312 0.360098 
307.104126 2.654983 
308.688477 0.027715 
311.111603 0.026209 
316.515869 0.028467 
316.555145 0.027877 
317.82132 0.243566 
318.828613 0.380091 
319.084045 0.028881 
319.834991 0.367917 
320.116669 0.089154 
320.918671 2.028159 
321.921875 0.159706 
322.025726 0.030602 
322.914154 21.248201 
323.916443 1.398513 
324.111359 18.480129 
325.114502 2.603227 
328.834198 0.037767 
331.173401 0.06263 
333.836212 0.397697 
334.843018 0.833146 
335.830505 2.811626 
336.838379 6.091071 
336.930084 0.418507 
337.841675 0.359755 
337.946411 0.023995 
338.126373 0.080287 
338.267365 0.066121 
338.935272 0.029398 
339.177551 0.066418 
341.546143 0.036047 
342.12326 0.033672 
344.315247 1.383176 
344.95343 0.026172 
344.975891 1.945916 
345.975861 0.320991 
351.845917 1.32781 
352.831604 0.083756 
352.852936 0.058593 
353.841461 8.298304 
354.847107 1.21975 
357.835175 0.037226 
358.843353 13.301752 
359.829651 0.455753 
359.846954 0.944134 
360.83847 73.695442 
361.840698 6.919301 
362.807465 0.037245 
367.467407 0.029817 
367.858521 0.090372 
369.836304 0.590348 
370.343109 0.024454 
370.844086 0.475159 
371.85144 0.758266 
375.845642 0.169786 
376.835876 0.376278 
376.854706 3.362782 
377.84024 1.654878 
378.84906 19.605576 
379.850739 1.430457 
387.125336 0.03676 
387.846283 0.238856 
388.341492 1.546951 
390.867737 0.07111 
392.845856 1.71329 
392.869141 0.136632 
393.851837 0.151196 
394.843597 14.034251 
395.847717 1.582456 
396.854126 0.029327 
400.621124 0.052752 
401.865662 0.044599 
404.400024 0.028451 
408.859222 0.416902 
410.558289 0.02618 
410.859222 0.154877 
411.846069 0.028705 
412.854614 2.271089 
413.85556 0.120876 
416.185638 0.035288 
417.856171 3.180982 
418.856567 0.393738 
419.851685 20.00396 
420.853333 2.15462 
432.36792 0.183127 
433.190491 0.037174 
435.867249 0.682874 
436.858215 0.02907 
437.86203 4.97596 
438.863373 0.582412 
445.2771 0.06064 
447.290924 0.281136 
447.346466 0.072689 
451.87677 0.092262 
453.85498 0.039497 
465.245941 0.051508 
476.089844 0.039948 
476.391998 0.061729 
477.058441 0.041573 
481.26001 0.031112 
482.397461 0.03783 
489.330048 0.126489 
494.021057 0.029067 
503.31781 15.074694 
504.321259 7.718443 
505.323181 1.181626 
506.328583 0.037125 
523.976196 0.050847 
535.339783 1.697191 
536.344666 0.480122 
536.61322 0.156017 
537.338623 9.584031 
537.381653 0.073913 
537.613586 0.056456 
538.342285 2.931556 
538.383362 0.072649 
538.422485 0.060356 
539.270264 4.389832 
539.345642 0.087393 
539.506897 0.027927 
END IONS

