BEGIN IONS
TITLE=Scan Number: 1697
PEPMASS=567.263
CHARGE=1+
COMPOUNDNAME=Okaramine B_120148
LIBRARYQUALITY=2
SMILES=CC(/C=C\N1/C(C(N2[C@]([C@H](OC)[C@@]3(O)[C@]24N(C(C)(C)[C@@H]4C)C5=C3C=CC=C5)(O)C1=O)=O)=C\6)(C)C7=C6C8=CC=CC=C8N7
INCHIKEY=PNJDFZNVNWQTFD-CWOOBJQPSA-N
INCHI=N/A
MSLEVEL=2
SOURCE_INSTRUMENT=LC-ESI-qToF
FILENAME=P1_C4_conc_GA4_01_2410.mzXML
SEQ=*..*
NOTES=
IONMODE=Positive
ORGANISM=GNPS-LIBRARY
NAME=Okaramine B_120148 M+H
SPECTRUMID=CCMSLIB00000478068
ACTIVATION=CID
INSTRUMENT=ion trap
SCANS=1697
102.03421 344.0 
104.051376 428.0 
105.038315 260.0 
106.065384 348.0 
115.055511 336.0 
117.057419 684.0 
118.066849 388.0 
120.044571 3012.0 
120.082146 256.0 
121.048775 296.0 
129.070206 480.0 
130.028549 1944.0 
130.064713 2236.0 
131.07164 536.0 
132.043243 2532.0 
132.076843 444.0 
133.051117 424.0 
134.061295 312.0 
134.095093 540.0 
136.97258 252.0 
143.073181 1684.0 
144.043777 540.0 
144.080536 3184.0 
145.085602 496.0 
146.059128 1768.0 
146.094254 364.0 
147.060165 376.0 
148.038818 592.0 
148.076096 260.0 
149.033279 872.0 
150.042984 256.0 
153.026428 404.0 
153.072174 392.0 
154.062912 592.0 
155.043579 1016.0 
155.217285 256.0 
156.048416 320.0 
156.080063 1256.0 
157.088562 5852.0 
158.059555 3876.0 
158.095795 11072.0 
159.028992 300.0 
159.063934 1020.0 
159.097519 460.0 
160.037003 1260.0 
160.07486 4780.0 
160.113068 1256.0 
161.046921 4716.0 
161.078339 916.0 
161.115128 304.0 
162.054855 14476.0 
162.087158 876.0 
163.057129 1684.0 
167.062668 2200.0 
168.076904 1372.0 
169.078796 1480.0 
170.060867 492.0 
170.094284 2376.0 
171.054352 692.0 
171.098083 348.0 
172.074646 1496.0 
172.11171 61912.0 
173.075958 412.0 
173.114777 8464.0 
174.092697 908.0 
174.121597 652.0 
174.914139 256.0 
176.070374 53836.0 
177.073135 5028.0 
178.075974 1100.0 
179.073822 316.0 
180.078949 1836.0 
181.087051 7248.0 
182.047012 952.0 
182.095032 13340.0 
182.591995 320.0 
183.054443 504.0 
183.099854 4432.0 
184.064865 2316.0 
184.111679 2308.0 
185.075562 1604.0 
185.112274 1044.0 
186.049149 360.0 
186.090759 3360.0 
186.126266 1136.0 
187.093262 348.0 
187.129044 348.0 
188.068939 1748.0 
188.106934 4404.0 
189.066864 880.0 
190.077545 456.0 
190.12355 384.0 
191.075455 744.0 
192.078094 872.0 
193.060089 2944.0 
193.086624 996.0 
194.060837 548.0 
194.096405 11604.0 
195.05542 5320.0 
195.102829 7536.0 
196.063782 724.0 
196.111313 31452.0 
197.033127 2860.0 
197.070999 5772.0 
197.11377 3436.0 
198.03743 576.0 
198.083008 2004.0 
198.654312 292.0 
199.085983 2276.0 
199.121033 648.0 
200.057159 496.0 
200.106537 52740.0 
201.065186 13332.0 
201.111328 12024.0 
202.068954 904.0 
202.115005 1348.0 
203.080124 1664.0 
203.117249 260.0 
204.081345 408.0 
205.076447 548.0 
206.084732 11972.0 
207.089005 3928.0 
208.101456 6128.0 
209.068924 2448.0 
209.107407 3224.0 
210.040207 2104.0 
210.08989 4288.0 
211.049759 5124.0 
211.089249 1984.0 
211.121521 808.0 
212.051514 1152.0 
212.103775 1292.0 
213.063965 2388.0 
213.104935 1004.0 
213.134964 280.0 
214.050049 1632.0 
214.122452 5084.0 
215.048294 1740.0 
215.082626 584.0 
215.124756 924.0 
216.053162 464.0 
216.1008 772.0 
217.105759 440.0 
217.13562 392.0 
218.114563 1428.0 
219.093048 1484.0 
220.098923 5292.0 
221.069351 1552.0 
221.107346 75836.0 
222.09343 19284.0 
222.181076 448.0 
223.044739 428.0 
223.09201 3728.0 
223.122955 50532.0 
223.880005 352.0 
224.045898 260.0 
224.125595 7500.0 
225.02916 364.0 
225.065216 27596.0 
225.102386 700.0 
225.132065 476.0 
226.067688 4968.0 
226.11998 696.0 
227.078629 1008.0 
227.115753 620.0 
228.05188 368.0 
228.098877 540.0 
228.136765 3084.0 
229.059937 6100.0 
229.139359 968.0 
230.064972 1432.0 
230.097473 432.0 
231.075638 1668.0 
232.079239 1048.0 
233.076645 400.0 
233.105682 2776.0 
234.08931 5364.0 
235.086365 5692.0 
235.121353 1792.0 
236.095016 2024.0 
237.065491 828.0 
237.100174 1636.0 
238.0616 812.0 
238.088425 740.0 
238.110901 656.0 
239.079453 3976.0 
239.117447 3976.0 
240.081161 1192.0 
240.120117 1396.0 
241.059738 2160.0 
241.092911 564.0 
241.132233 896.0 
242.061325 420.0 
242.093201 760.0 
243.077057 2260.0 
244.078995 720.0 
244.131104 1204.0 
245.110214 688.0 
246.105515 320.0 
246.148376 35708.0 
247.086334 1824.0 
247.152115 4600.0 
248.092285 964.0 
248.15271 356.0 
249.102386 45464.0 
250.104538 9004.0 
251.073792 1692.0 
251.116058 7192.0 
252.03624 404.0 
252.113022 1408.0 
253.057785 760.0 
253.099655 420.0 
253.129318 1216.0 
254.058685 320.0 
254.136276 672.0 
255.068192 444.0 
255.150848 532.0 
256.042999 384.0 
256.078796 376.0 
257.055786 7200.0 
257.124146 596.0 
258.058167 736.0 
258.100433 544.0 
259.080627 696.0 
259.111938 416.0 
260.08371 924.0 
260.114685 896.0 
261.100128 1376.0 
262.058289 264.0 
262.10437 1140.0 
263.074677 548.0 
263.116882 5184.0 
264.088013 936.0 
264.113892 1832.0 
265.097504 2148.0 
266.056946 836.0 
266.094879 2640.0 
266.123474 820.0 
266.803741 276.0 
267.11264 6208.0 
268.073853 588.0 
268.116791 1760.0 
269.128632 380.0 
270.089752 452.0 
271.084717 468.0 
271.142303 292.0 
272.089294 344.0 
272.118927 412.0 
273.101288 1000.0 
274.098572 916.0 
275.082489 1176.0 
275.112457 1212.0 
276.086304 1412.0 
276.112244 2272.0 
277.096619 5764.0 
278.060211 752.0 
278.098022 2296.0 
278.125946 3004.0 
279.074493 1328.0 
279.115753 1628.0 
280.0755 1104.0 
280.117401 1540.0 
281.076508 1120.0 
281.128235 15040.0 
282.086609 1440.0 
282.130768 3468.0 
283.089172 656.0 
283.132721 556.0 
284.067017 896.0 
286.105957 736.0 
287.07309 268.0 
287.115295 692.0 
287.159363 368.0 
288.078857 464.0 
288.114044 1100.0 
289.122589 648.0 
290.057739 640.0 
290.096863 1696.0 
290.125671 1724.0 
291.06189 440.0 
291.1091 3664.0 
292.073364 924.0 
292.11377 2260.0 
293.121765 1016.0 
294.086639 13696.0 
294.123016 6716.0 
295.090302 2504.0 
295.129211 1312.0 
296.09671 456.0 
296.148956 388.0 
297.121582 1988.0 
298.096008 584.0 
298.129578 536.0 
299.139252 572.0 
300.114777 944.0 
300.158966 400.0 
301.088165 568.0 
301.123383 696.0 
302.092041 2656.0 
303.067596 1256.0 
303.102997 1476.0 
303.14502 304.0 
304.069946 1576.0 
304.109314 1384.0 
304.141663 932.0 
305.077698 480.0 
305.116089 4972.0 
306.122498 13680.0 
307.123383 3508.0 
308.06662 368.0 
308.111328 1740.0 
309.114716 500.0 
310.086975 872.0 
311.084473 360.0 
311.154144 468.0 
314.089081 388.0 
314.12912 404.0 
315.109467 584.0 
315.138306 292.0 
316.068146 396.0 
316.108887 1244.0 
317.115265 1372.0 
318.087555 31848.0 
318.122253 5136.0 
319.091858 7140.0 
320.100281 1828.0 
320.136444 2664.0 
321.117126 604.0 
321.139923 724.0 
321.198608 296.0 
321.41861 280.0 
322.117981 20880.0 
323.131836 6976.0 
324.136414 1992.0 
325.137878 520.0 
326.092957 328.0 
327.099731 516.0 
328.109985 332.0 
328.142517 772.0 
329.147614 604.0 
330.082642 1476.0 
330.13916 476.0 
331.090912 664.0 
332.102325 1356.0 
332.139862 1440.0 
333.113434 788.0 
333.140869 1420.0 
334.118774 43540.0 
334.480957 388.0 
335.123016 12088.0 
336.126251 2448.0 
337.108887 480.0 
337.211578 288.0 
338.096161 660.0 
338.134155 368.0 
340.136749 304.0 
341.150879 308.0 
342.123444 820.0 
343.092773 404.0 
343.129028 968.0 
344.10318 436.0 
344.137787 1220.0 
345.106323 308.0 
345.144348 284.0 
346.12439 376.0 
347.116608 568.0 
348.13324 4580.0 
349.139893 7752.0 
350.149353 31268.0 
351.150665 4816.0 
352.095642 316.0 
352.151855 1004.0 
353.107513 336.0 
353.142029 644.0 
355.078735 280.0 
356.140015 364.0 
358.125702 904.0 
358.149963 972.0 
359.123566 1204.0 
359.15451 280.0 
360.135712 1200.0 
361.113281 812.0 
362.114624 1068.0 
362.145905 936.0 
363.08725 1512.0 
364.094879 1752.0 
365.10318 1160.0 
366.143555 3716.0 
367.146484 688.0 
368.101166 364.0 
368.148773 332.0 
370.145416 384.0 
372.136047 372.0 
373.142944 664.0 
374.149261 2116.0 
375.129486 956.0 
376.142609 2064.0 
377.108154 396.0 
377.145508 796.0 
378.122742 772.0 
379.118713 1040.0 
380.105347 328.0 
380.17511 340.0 
381.098938 1404.0 
381.144104 488.0 
382.119171 612.0 
383.144409 340.0 
384.16507 308.0 
385.139252 304.0 
386.11618 512.0 
386.149628 344.0 
387.138519 628.0 
387.163544 948.0 
388.134064 968.0 
388.152557 948.0 
389.143372 1036.0 
390.121948 760.0 
390.178894 2368.0 
391.086029 1036.0 
391.156677 2232.0 
392.088989 628.0 
392.136566 1988.0 
393.100464 940.0 
394.105011 1272.0 
395.114227 1544.0 
396.116211 568.0 
396.171173 344.0 
399.148071 472.0 
400.144989 980.0 
401.140747 1620.0 
402.125519 1176.0 
403.135864 992.0 
404.128082 9076.0 
404.354431 292.0 
404.682404 360.0 
405.104218 3692.0 
405.131348 3580.0 
406.131165 1352.0 
407.114288 456.0 
407.151031 956.0 
408.12677 552.0 
408.168213 1956.0 
409.094055 864.0 
409.128723 1404.0 
409.168427 272.0 
410.114258 288.0 
410.182739 288.0 
412.139435 260.0 
413.14328 268.0 
413.186615 604.0 
414.15509 332.0 
414.189819 456.0 
415.156525 1536.0 
416.159912 1912.0 
417.13678 1464.0 
417.170013 2332.0 
418.165619 1124.0 
419.149933 40200.0 
420.153931 16248.0 
421.156189 5184.0 
422.161102 1152.0 
423.110107 816.0 
423.179138 720.0 
424.108307 636.0 
424.16507 660.0 
426.160706 288.0 
427.126221 304.0 
428.133667 384.0 
428.205841 328.0 
429.134552 1196.0 
430.144867 964.0 
430.194 840.0 
431.122253 772.0 
431.154358 1236.0 
431.186676 1788.0 
432.121307 4528.0 
432.157806 2944.0 
433.129028 4916.0 
433.162109 3624.0 
434.136871 2048.0 
434.166168 1500.0 
435.17926 1012.0 
436.151672 4348.0 
437.157562 3348.0 
438.160522 740.0 
439.174683 396.0 
441.128296 444.0 
441.184998 508.0 
442.143585 1628.0 
443.148102 2804.0 
444.154694 584.0 
445.129883 6716.0 
446.132721 2644.0 
446.169464 1976.0 
447.144348 33840.0 
447.981812 256.0 
448.150238 13336.0 
449.152344 4168.0 
450.155945 1184.0 
450.847931 352.0 
451.048065 348.0 
451.174286 8868.0 
452.180145 2404.0 
453.183594 620.0 
454.19635 272.0 
455.151184 312.0 
455.219208 580.0 
456.196808 972.0 
457.169708 628.0 
457.19931 1004.0 
458.190735 912.0 
459.177979 3920.0 
459.862274 440.0 
460.152679 21112.0 
461.159149 28356.0 
462.16095 9688.0 
463.164795 1700.0 
464.148285 2596.0 
464.236511 464.0 
465.153229 3060.0 
466.161285 568.0 
469.160278 644.0 
471.214996 1068.0 
472.211975 940.0 
473.198975 1260.0 
474.09906 864.0 
474.205231 1516.0 
474.611023 324.0 
474.889191 396.0 
474.996368 444.0 
475.069183 348.0 
475.178558 232132.0 
475.294189 316.0 
475.349548 280.0 
475.481506 276.0 
475.598938 632.0 
475.666962 440.0 
475.75943 328.0 
475.893951 2060.0 
476.024384 316.0 
476.092651 316.0 
476.180145 107568.0 
476.590424 464.0 
476.902924 292.0 
477.182709 16692.0 
478.188538 1672.0 
478.311523 428.0 
478.670502 328.0 
478.799988 272.0 
478.891083 272.0 
478.961365 332.0 
479.06012 312.0 
479.171295 96316.0 
479.718811 272.0 
480.032959 420.0 
480.174866 31064.0 
481.176544 4988.0 
482.186188 712.0 
482.544525 340.0 
483.184418 936.0 
484.186981 1936.0 
485.190735 1000.0 
486.18335 684.0 
487.168976 860.0 
487.25058 524.0 
488.179901 976.0 
489.192017 4720.0 
490.194611 2416.0 
491.205902 6416.0 
492.209198 2876.0 
493.188995 1008.0 
494.185303 344.0 
495.173218 492.0 
496.529694 476.0 
496.608215 392.0 
497.097351 504.0 
497.183472 197304.0 
497.668365 448.0 
497.804993 328.0 
497.911957 1088.0 
497.992981 308.0 
498.185211 64300.0 
498.324005 268.0 
498.756622 284.0 
499.021881 252.0 
499.206512 14024.0 
499.794189 276.0 
500.096436 276.0 
500.21286 5188.0 
501.193756 4616.0 
501.286346 364.0 
502.131927 288.0 
502.196045 2168.0 
503.195068 772.0 
504.214355 468.0 
507.196289 716.0 
508.194366 464.0 
509.218353 908.0 
510.212799 460.0 
515.201111 580.0 
516.214294 1904.0 
517.220764 14772.0 
518.225464 4932.0 
519.227295 740.0 
519.967407 260.0 
520.24353 392.0 
521.251282 284.0 
530.167847 292.0 
530.584473 544.0 
530.846619 668.0 
531.051025 424.0 
531.121582 316.0 
531.240112 212104.0 
531.638245 348.0 
531.676331 744.0 
531.938599 340.0 
531.995239 600.0 
532.242188 66740.0 
533.24408 14624.0 
534.245239 1596.0 
534.96814 316.0 
535.241028 592.0 
535.468201 376.0 
536.240723 292.0 
548.139099 280.0 
549.146118 392.0 
549.250793 187288.0 
549.543274 268.0 
549.757263 528.0 
549.807068 272.0 
549.978638 284.0 
550.021912 320.0 
550.251953 65044.0 
550.432983 260.0 
550.558167 272.0 
550.711304 412.0 
551.255127 14828.0 
552.257874 1596.0 
553.273071 392.0 
554.494934 276.0 
565.479675 388.0 
565.676514 372.0 
565.732666 468.0 
566.119873 316.0 
566.193298 512.0 
566.637939 392.0 
566.866882 376.0 
567.092712 532.0 
567.131958 600.0 
567.262451 227368.0 
567.574768 388.0 
567.706116 412.0 
567.745117 296.0 
567.866272 304.0 
568.043884 3672.0 
568.111023 368.0 
568.185425 608.0 
568.264343 177872.0 
568.434021 264.0 
568.835938 308.0 
569.118225 376.0 
569.184204 376.0 
569.264587 32876.0 
569.586792 304.0 
569.875366 252.0 
569.939331 304.0 
570.267883 2860.0 
570.836792 304.0 
570.921143 452.0 
571.114929 424.0 
571.260254 340.0 
571.344727 352.0 
571.433472 300.0 
571.553894 464.0 
571.593262 512.0 
571.897705 288.0 
571.997009 312.0 
572.492126 420.0 
572.590027 288.0 
572.66095 268.0 
572.71521 544.0 
END IONS

