BEGIN IONS
PEPMASS=355.079
CHARGE=1+
COMPOUNDNAME=bisdethiobis(methylthio)gliotoxin
LIBRARYQUALITY=3
SMILES=N/A
INCHIKEY=OVBAGMZLGLXSBN-UOVKNHIHSA-N
INCHI=InChI=1S/C15H20N2O4S2/c1-16-12(20)14(22-2)7-9-5-4-6-10(19)11(9)17(14)13(21)15(16,8-18)23-3/h4-6,10-11,18-19H,7-8H2,1-3H3/t10-,11-,14+,15+/m0/s1
MSLEVEL=2
SOURCE_INSTRUMENT=N/A-ESI-QFT
FILENAME=library_mgf.mgf
SEQ=*..*
IONMODE=negative
ORGANISM=MONA
NAME=bisdethiobis(methylthio)gliotoxin [M-H]-
PI=MoNA
DATACOLLECTOR=MoNA:VF-NPL-QEHF024547
PUBMED=N/A
SUBMITUSER=mwang87
TAGS=
SPECTRUMID=CCMSLIB00004715610
SCANS=24547
50.769001 0.030542 
51.378288 0.027028 
53.040001 0.031182 
53.105976 0.044026 
53.826069 0.026388 
54.017426 0.040308 
54.856556 0.05019 
55.413837 0.03148 
55.735195 0.034534 
56.193485 0.030959 
56.979076 0.052828 
57.033215 0.162154 
57.973129 0.035096 
57.974518 0.563055 
58.028484 0.318446 
58.709259 0.029341 
59.012447 12.0691 
60.649532 0.03994 
60.904179 0.025943 
60.974072 1.081893 
61.986958 10.920271 
63.217972 0.031514 
63.667435 0.05242 
63.959694 0.044858 
63.961128 1.402464 
64.530182 0.025651 
65.032608 0.041715 
65.770775 0.035236 
66.179993 0.039053 
66.368629 0.031828 
67.112984 0.032289 
67.193893 0.041775 
67.698563 0.027458 
67.980339 0.032534 
68.420105 0.038044 
68.996635 0.052202 
69.033226 0.193242 
69.157104 0.02956 
69.208534 0.038181 
69.216141 0.026549 
69.633995 0.03177 
70.028755 0.047856 
70.290833 0.031212 
70.47364 0.055 
70.785591 0.044452 
71.012505 2.715799 
71.049164 0.047766 
72.991745 1.387256 
73.028175 0.522478 
73.285477 0.043984 
73.90564 0.028543 
74.023293 0.199846 
74.989578 0.048965 
75.007439 2.873332 
77.00531 0.483081 
77.083916 0.054347 
77.547379 0.031675 
78.957687 1.198191 
78.966888 0.695601 
78.984512 6.042388 
79.669823 0.043828 
79.956062 2.007268 
80.013092 0.04719 
80.593338 0.029591 
80.963844 5.584764 
80.97979 0.05371 
82.028427 0.162359 
83.012589 0.207362 
83.048981 0.191851 
83.565887 0.033386 
84.044228 0.071024 
84.937393 0.541231 
85.02816 1.251621 
85.399078 0.043163 
85.937729 0.051649 
86.023453 0.079777 
87.007431 2.009395 
88.039124 0.159129 
88.161583 0.031921 
88.550034 0.031455 
89.023064 7.156223 
89.041496 0.411729 
89.938141 0.041238 
89.97644 0.048182 
90.521683 0.043311 
90.932213 0.168558 
92.928291 0.027574 
93.033287 0.715755 
93.309753 0.025382 
93.614761 0.051672 
94.028687 0.039914 
94.9795 5.115182 
95.012527 0.185052 
96.044296 0.052538 
96.245918 0.028603 
96.958778 14.887408 
96.968056 0.112756 
96.975174 0.054611 
97.028145 0.416092 
97.039474 2.048641 
97.520142 0.024031 
97.930122 0.101335 
98.023415 0.342109 
98.954491 0.299015 
99.007416 0.847477 
99.043907 0.091062 
99.111115 0.033921 
99.5961 0.026004 
99.924446 10.503398 
100.039261 0.059462 
100.066315 0.024606 
100.601082 0.039934 
100.778824 0.023503 
100.924637 0.561251 
100.932312 3.478116 
101.023186 1.155746 
101.221504 0.029409 
101.932335 0.203962 
102.000473 0.04855 
102.018402 0.111979 
102.024521 0.047934 
102.763031 0.046008 
103.002304 0.165185 
103.038643 0.042928 
104.124474 0.025972 
105.000328 0.061955 
105.029678 0.033958 
107.031342 0.046761 
107.036499 0.425285 
107.737579 0.04754 
108.020325 0.168331 
108.044258 0.915375 
109.028305 1.517766 
109.189392 0.031459 
110.02356 0.27009 
111.00753 3.231006 
111.043976 0.923655 
111.077568 0.029269 
112.039124 3.754829 
112.935921 0.194678 
113.023209 1.018757 
113.034523 0.11211 
114.054619 0.237754 
114.100563 0.030707 
114.508705 0.030121 
114.900635 0.156525 
114.932892 0.351046 
115.919479 7.064928 
115.927063 0.040172 
116.04924 3.700592 
116.070404 0.147443 
116.919746 0.617453 
116.927261 17.129719 
117.917686 0.027464 
117.923302 0.035352 
117.927361 1.337028 
117.935173 0.165044 
118.028717 0.50825 
118.898445 0.200822 
118.92572 0.135061 
119.0336 0.046876 
119.049088 0.053151 
120.044365 0.053099 
121.028275 2.783445 
122.023544 0.481217 
122.059631 0.05083 
122.774101 0.050322 
122.974487 0.300895 
123.007477 4.955484 
123.031326 0.224953 
123.043732 0.050411 
123.054939 0.103944 
124.015427 2.458711 
124.039185 2.911087 
124.891914 0.037196 
125.023239 0.354787 
125.034363 0.645628 
125.121567 0.043701 
126.018456 0.499579 
126.055199 0.053211 
126.903839 0.678931 
127.013588 0.04186 
128.016357 2.046283 
128.034027 0.397822 
129.018295 0.11285 
129.797195 0.036822 
130.031662 0.097849 
130.086243 0.589628 
130.552261 0.034841 
130.942932 1.015523 
131.036591 0.038039 
131.303589 0.032945 
132.044464 1.264534 
133.028152 0.133841 
134.02356 1.850139 
134.059982 0.243705 
134.083939 0.051566 
134.893707 0.035065 
135.043976 0.144846 
135.055466 0.037956 
136.039368 0.328827 
137.023209 0.423438 
137.034592 0.051941 
138.018402 0.311991 
138.054825 0.344127 
139.038696 0.304605 
139.050156 1.261694 
139.99295 0.037857 
140.03421 0.101842 
141.029434 0.446271 
141.282639 0.048977 
141.508179 0.050093 
141.995865 0.325534 
142.94342 0.048498 
142.990982 0.316547 
144.044342 0.297155 
144.082596 0.044106 
144.242813 0.055014 
145.012436 0.064481 
146.023361 0.066344 
146.060104 0.411256 
146.081131 3.348232 
147.031433 6.444374 
147.044403 0.060573 
148.039322 1.442032 
148.892014 0.046039 
149.034607 0.054108 
149.890106 0.046075 
150.018494 3.017025 
150.054901 0.279157 
150.868317 0.05678 
151.038666 0.049252 
151.050369 0.238202 
152.033691 0.060637 
152.994705 1.253291 
153.029755 0.238219 
153.065689 0.105965 
155.003494 0.217019 
155.712723 0.024929 
155.97789 0.097843 
155.987457 0.054668 
155.998856 0.409707 
156.01181 0.087917 
157.006821 0.707028 
158.060226 0.111741 
159.022186 0.285098 
159.841309 0.028729 
159.994522 0.031546 
160.039276 9.119857 
161.061172 0.101674 
161.071548 0.047277 
161.23494 0.032223 
161.892883 0.035468 
162.018417 0.151127 
162.055313 0.850752 
162.07753 2.131955 
162.892517 0.158027 
163.039322 0.047888 
163.050125 0.17502 
164.016754 0.056399 
164.034012 0.195467 
164.069992 0.049614 
164.894302 0.124797 
165.029724 0.264631 
165.06601 0.533563 
166.050064 0.530301 
166.086227 0.327849 
168.063751 0.033505 
168.199173 0.027064 
169.006821 1.557072 
170.014603 3.459986 
170.986633 0.035535 
171.005585 0.058778 
171.101425 0.153445 
171.994629 0.059963 
172.039749 0.044183 
172.075241 0.050459 
173.063568 0.043234 
173.07106 4.461435 
173.117828 0.040011 
174.055359 0.227444 
175.026627 0.408313 
175.0504 0.634368 
176.016632 0.481675 
176.0345 1.93728 
176.058716 0.050217 
176.071045 0.098303 
176.908264 0.186823 
177.065796 0.286436 
178.049866 0.200683 
178.679642 0.024073 
179.045502 0.134112 
179.072403 0.04075 
180.065689 0.057977 
181.037857 0.043345 
181.050369 0.056956 
181.061264 0.086168 
181.070724 0.254426 
182.044876 0.056432 
183.0112 2.670833 
183.550964 0.022784 
183.99408 0.154125 
184.018845 0.034483 
184.039642 0.331583 
184.953766 0.036147 
185.00177 0.204247 
185.037415 0.73148 
187.040359 0.04572 
187.050598 0.294957 
187.087051 0.07078 
188.034546 0.611645 
188.058395 0.356736 
189.055908 0.046197 
189.065994 3.357519 
190.036621 0.060305 
190.050308 0.396832 
191.021622 0.433174 
191.045502 2.895425 
191.055908 1.937743 
191.081665 1.046962 
192.011703 0.939821 
192.029465 1.02077 
192.06601 1.123031 
192.957672 0.043262 
193.050812 0.462492 
193.060837 3.571352 
194.015228 0.385298 
194.02739 0.094162 
194.044846 0.622081 
194.081451 0.103947 
195.022415 0.168806 
195.055954 0.057812 
197.027328 0.044752 
197.071457 0.299162 
197.138 0.033637 
199.050598 1.077677 
199.850418 0.176459 
199.991196 0.046514 
200.859497 0.031457 
201.066223 8.040603 
201.866501 0.03531 
202.050858 0.052432 
203.045715 2.254423 
203.081802 0.692916 
204.029572 0.339775 
204.053207 0.549926 
205.061157 2.634914 
206.044266 0.058481 
207.02269 0.438154 
207.040451 0.181824 
207.077423 0.155593 
207.113953 0.049995 
207.126083 0.04947 
208.030731 3.55603 
209.002441 0.074605 
209.037918 0.037297 
209.056046 0.351763 
209.071411 0.061538 
210.009872 0.691997 
210.076431 0.044795 
211.074081 0.044285 
212.058701 5.022787 
212.068344 0.049098 
213.066376 1.086576 
214.037857 2.213526 
214.071533 0.047036 
214.086563 0.412845 
214.4944 1.619424 
214.509323 1.301676 
215.045609 1.247729 
215.081894 0.084027 
215.845428 0.027857 
216.053436 1.468397 
216.589554 0.044276 
217.043396 3.102285 
217.061279 4.827648 
217.118729 0.350674 
217.276535 0.032788 
218.069351 5.124322 
218.080399 0.108665 
219.022003 0.055143 
219.040482 0.363016 
219.076996 18.767084 
220.008011 0.051645 
220.03067 0.148314 
220.30603 0.050325 
221.037659 0.09894 
221.056274 0.511605 
222.010178 0.468072 
222.022171 0.438595 
222.102676 0.029917 
222.993469 0.044248 
223.072479 1.037381 
225.032837 0.047936 
225.066879 0.201361 
226.290359 0.045443 
226.986511 0.059331 
227.016632 0.207108 
227.045898 1.750114 
227.080292 0.04836 
227.346832 0.025577 
228.053726 3.464221 
228.248947 0.055657 
228.965515 0.804953 
229.061432 7.703133 
229.652039 0.038991 
229.672653 0.034336 
230.069244 1.504109 
231.023071 0.51478 
231.04071 0.878675 
231.077133 17.908972 
232.030716 2.040994 
232.048141 0.273868 
233.038773 11.38702 
233.056183 1.974236 
234.046524 0.434021 
235.018097 0.707334 
235.053772 0.097775 
235.071945 1.161121 
236.025803 15.8546 
236.105469 0.033235 
237.032379 0.342285 
238.018127 0.535709 
240.03302 0.183073 
240.067154 0.048108 
241.061523 2.197359 
241.073853 0.041934 
242.032867 0.106483 
243.023148 2.956423 
243.042068 2.418104 
243.077271 1.725563 
244.03093 3.974273 
244.046646 0.521063 
245.001297 0.11737 
245.056503 6.54514 
246.010193 0.27646 
246.064377 6.19341 
247.017883 1.270257 
247.072067 6.059404 
247.679184 0.026997 
248.025803 3.199661 
249.015823 0.899846 
249.033508 2.373475 
249.054626 0.49104 
250.041504 0.762297 
251.012253 0.096295 
251.049332 0.72999 
252.021286 0.090596 
255.011368 0.485123 
255.077042 0.048622 
255.232819 17.813303 
256.236237 4.424146 
257.039703 0.180825 
257.056702 1.655393 
257.239014 0.274785 
258.063141 0.661621 
259.018219 1.478405 
259.036011 0.807897 
259.054443 2.977341 
259.071655 1.75906 
260.026001 22.118368 
260.04187 1.309762 
261.033875 93.426369 
262.005798 0.129286 
262.024261 0.463771 
262.041687 12.276018 
262.057495 0.41346 
263.012939 0.288607 
263.048584 1.196552 
263.067078 0.924622 
264.020844 1.093846 
264.037872 0.31592 
264.997711 0.121111 
265.011688 0.978693 
265.028473 0.467774 
265.43457 0.028758 
266.015106 0.042969 
266.035797 0.647427 
266.115784 0.048778 
266.964691 0.045117 
267.06601 3.915988 
268.051941 0.043677 
268.07016 0.314786 
271.069489 0.046909 
271.227905 0.245621 
272.10498 0.027119 
273.052704 0.046064 
273.795959 0.033007 
274.005951 0.049434 
274.040863 0.085482 
274.995483 0.030191 
275.013031 3.81808 
275.03241 0.02871 
275.049622 3.096183 
275.066254 0.449748 
275.106598 2.3063 
276.004242 0.07403 
276.020874 6.954922 
276.037384 0.14146 
276.040253 0.136333 
276.057068 8.67899 
277.028687 3.460115 
277.049011 0.250501 
277.065033 5.555411 
277.079865 0.046406 
277.122772 1.76264 
278.03653 35.439659 
279.044403 65.257378 
279.684753 0.02908 
280.014954 0.106364 
280.061951 0.102408 
281.006012 1.871467 
281.056732 0.029959 
281.248322 0.545111 
282.994507 0.378894 
283.264099 0.969885 
284.974365 1.49221 
288.022186 0.03124 
289.027679 0.064179 
289.047882 0.050887 
290.035522 0.089132 
290.990143 0.84588 
291.007599 0.465444 
291.04425 1.395911 
291.061798 0.053095 
291.441956 0.05919 
291.997559 1.89274 
292.015625 13.516887 
292.033997 0.060852 
292.052399 0.514776 
292.988007 0.315562 
293.005768 6.470626 
293.022034 1.792004 
293.045074 1.362669 
293.060486 1.128084 
294.012726 1.353329 
294.031464 17.365635 
294.06781 3.430492 
295.003052 0.035269 
295.039001 0.030948 
295.227264 0.05842 
296.029083 0.51004 
296.965088 0.060773 
297.152679 4.605723 
298.071808 0.798344 
298.156219 0.063746 
299.026398 0.081969 
299.883118 0.05375 
305.023529 0.045711 
305.298523 0.031611 
306.012939 0.094299 
306.031433 0.765485 
306.984955 0.078216 
307.003021 0.21875 
307.020538 0.127892 
307.038696 2.349704 
307.093445 0.628591 
308.010315 3.42816 
308.029266 7.599178 
308.046906 1.940663 
309.000458 7.678777 
309.034485 1.077556 
309.055054 5.245432 
309.315399 0.051343 
310.007751 0.038408 
310.025818 0.620204 
310.059601 0.057576 
310.088409 0.035194 
310.980316 0.167539 
311.055115 0.314137 
311.168457 0.33355 
312.024353 0.077252 
312.082092 0.038206 
318.741882 0.049916 
319.094696 0.050719 
320.046478 0.037303 
321.049988 0.047311 
321.154663 0.04161 
322.007721 0.041775 
322.063873 0.050242 
322.979797 2.240356 
323.222412 0.103474 
323.983154 1.047441 
324.024078 10.244044 
324.043854 0.055142 
324.9758 0.200198 
325.013672 0.706636 
325.049438 0.054875 
325.146545 0.080155 
326.133881 0.055496 
327.011017 0.044473 
327.976501 0.039795 
329.198212 0.051174 
329.894318 0.033646 
338.003876 0.434823 
338.036346 0.034267 
338.938995 0.052721 
339.005341 0.501265 
339.046753 0.120013 
340.019257 5.220074 
341.022369 0.19697 
342.012268 0.318867 
342.03479 20.21516 
342.929657 0.036883 
343.157837 0.35667 
353.178192 18.567394 
353.200104 24.063595 
353.217682 8.353721 
353.305084 0.047111 
353.34198 3.707074 
353.998199 0.695158 
354.18222 6.98609 
354.203369 5.911259 
354.220795 3.062422 
354.3461 0.677741 
355.001984 0.095876 
355.026825 0.310158 
355.062592 0.107448 
355.158905 5.021616 
355.194763 100.0 
355.321899 0.130841 
355.84317 0.041982 
356.159882 0.87909 
356.197998 20.190998 
357.014069 5.953524 
357.079498 15.17188 
357.103699 0.247 
357.172699 0.928983 
357.193695 1.263078 
358.993256 3.181995 
371.868042 0.306434 
375.023499 0.2061 
END IONS

