BEGIN IONS
TITLE=Scan Number: 1
PEPMASS=347.155
CHARGE=1+
COMPOUNDNAME=Gibberellic acid
LIBRARYQUALITY=3
SMILES=C=C1C[C@@]23[C@@H](C(O)=O)[C@]4([H])[C@@]5(C)[C@@H](O)C=C[C@@]4(OC5=O)[C@]2([H])CC[C@]1(O)C3
INCHIKEY=IXORZMNAPKEEDV-OYEYCCDTSA-N
INCHI=InChI=1S/C19H22O6/c1-9-7-17-8-18(9,24)5-3-10(17)19-6-4-11(20)16(2,15(23)25-19)13(19)12(17)14(21)22/h4,6,10-13,20,24H,1,3,5,7-8H2,2H3,(H,21,22)/t10-,11+,12?,13-,16-,17+,18+,19-/m1/s1
MSLEVEL=2
SOURCE_INSTRUMENT=DI-ESI-qTof
FILENAME=f.rsilva/q_tof_25_05/gnps_Gibberellic_acid_pos_MplusH.mgf;
SEQ=*..*
NOTES=
IONMODE=Positive
ORGANISM=GNPS-LIBRARY
NAME=Gibberellic acid M+H
SPECTRUMID=CCMSLIB00000081270
ACTIVATION=CID
INSTRUMENT=ion trap
SCANS=1
145.100067 101.0 
155.087585 136.0 
165.0746 124.0 
178.082825 144.0 
179.087997 215.0 
180.098984 214.0 
181.10202 119.0 
193.104706 494.0 
195.121216 150.0 
201.093948 229.0 
209.134476 197.0 
221.136154 1671.0 
222.13945 177.0 
223.15358 133.0 
237.130646 278.0 
239.149414 10862.0 
240.152283 1501.0 
255.143051 382.0 
265.130066 663.0 
267.144501 2508.0 
271.899353 101.0 
283.140686 4538.0 
285.156677 2565.0 
301.150116 2576.0 
303.170807 121.0 
309.066986 154.0 
311.132416 6797.0 
329.146942 18038.0 
334.994263 102.0 
347.155457 526.0 
END IONS

