BEGIN IONS
PEPMASS=421.0
CHARGE=1+
COMPOUNDNAME=MoNA:2232465 Blasticidin S
LIBRARYQUALITY=3
SMILES=N/A
INCHIKEY=CXNPLSGKWMLZPZ-UHFFFAOYSA-N
INCHI=InChI=1S/C17H26N8O5/c1-24(16(20)21)6-4-9(18)8-12(26)22-10-2-3-13(30-14(10)15(27)28)25-7-5-11(19)23-17(25)29/h2-3,5,7,9-10,13-14H,4,6,8,18H2,1H3,(H3,20,21)(H,22,26)(H,27,28)(H2,19,23,29)
MSLEVEL=2
SOURCE_INSTRUMENT=LC-ESI-QQ-LC-ESI-QQ
FILENAME=output_mgf.mgf
SEQ=*..*
IONMODE=
ORGANISM=MONA
NAME=MoNA:2232465 Blasticidin S [M-H]-
PI=MoNA
DATACOLLECTOR=MoNA
PUBMED=N/A
SUBMITUSER=mwang87
TAGS=
SPECTRUMID=CCMSLIB00000573837
SCANS=11088
41.9 16.666667 
59.3 10.526316 
67.3 10.526316 
72.5 15.789474 
78.6 25.438596 
81.4 5.263158 
82.3 7.894737 
92.4 5.263158 
93.0 11.403509 
93.9 4.385965 
95.8 26.315789 
96.2 53.508772 
96.8 15.789474 
100.1 14.912281 
101.4 4.385965 
103.9 6.140351 
104.4 2.631579 
108.1 4.385965 
110.1 100.0 
115.7 7.894737 
120.1 11.403509 
122.8 3.508772 
137.9 12.280702 
144.1 8.77193 
145.1 12.280702 
146.3 6.140351 
148.5 3.508772 
148.9 7.017544 
168.1 10.526316 
186.2 10.526316 
198.0 2.631579 
224.2 10.526316 
END IONS

