BEGIN IONS
PEPMASS=414.155
CHARGE=1+
COMPOUNDNAME=(S,R)-Nosapine
LIBRARYQUALITY=3
SMILES=N/A
INCHIKEY=AKNNEGZIBPJZJG-MSOLQXFVSA-N
INCHI=InChI=1S/C22H23NO7/c1-23-8-7-11-9-14-20(29-10-28-14)21(27-4)15(11)17(23)18-12-5-6-13(25-2)19(26-3)16(12)22(24)30-18/h5-6,9,17-18H,7-8,10H2,1-4H3/t17-,18+/m1/s1
MSLEVEL=2
SOURCE_INSTRUMENT=N/A-ESI-QFT
FILENAME=library_mgf.mgf
SEQ=*..*
IONMODE=positive
ORGANISM=MONA
NAME=(S,R)-Nosapine [M+H]+
PI=MoNA
DATACOLLECTOR=MoNA:VF-NPL-QEHF000047
PUBMED=N/A
SUBMITUSER=mwang87
TAGS=
SPECTRUMID=CCMSLIB00004691110
SCANS=47
50.351887 0.011312 
50.630825 0.009835 
50.670879 0.011358 
50.740467 0.010481 
50.952305 0.011173 
51.198307 0.011494 
51.372177 0.011679 
51.577599 0.011104 
51.700157 0.015654 
51.839943 0.012775 
53.134697 0.008282 
53.556629 0.01076 
53.857712 0.011263 
54.282261 0.013645 
54.673141 0.010791 
55.049911 0.012059 
55.149597 0.011693 
56.11834 0.011507 
56.526531 0.013172 
57.595222 0.011965 
58.286518 0.011036 
58.404011 0.009969 
58.499214 0.012144 
59.100967 0.013268 
59.18166 0.012342 
60.338043 0.011888 
60.484154 0.01146 
61.597984 0.011983 
61.744183 0.011831 
62.039528 0.00829 
62.098583 0.011005 
62.193645 0.012432 
62.890156 0.010353 
63.334782 0.013018 
63.775837 0.008294 
63.892796 0.01125 
64.316879 0.011797 
64.760635 0.012222 
65.187584 0.012701 
65.281174 0.015312 
65.429428 0.012699 
66.753845 0.008402 
66.911415 0.009012 
67.1185 0.012625 
67.786873 0.012009 
67.907532 0.010604 
68.12532 0.009599 
68.729996 0.061512 
69.145699 0.012994 
69.652725 0.010488 
70.589088 0.010697 
70.820557 0.012329 
71.360542 0.010214 
71.363373 0.012026 
71.458672 0.013303 
72.37915 0.011831 
72.412567 0.011584 
73.262711 0.009201 
73.562561 0.011367 
74.803032 0.013056 
75.215729 0.011475 
75.563499 0.011231 
77.024765 0.007997 
77.331718 0.011496 
77.738602 0.011081 
79.709007 0.012544 
79.789795 0.011286 
80.142342 0.013965 
80.198151 0.009231 
80.213982 0.011301 
81.418472 0.010596 
82.187714 0.013535 
82.925148 0.011862 
83.192101 0.00951 
83.246269 0.011234 
83.381462 0.011488 
83.569847 0.011133 
83.709961 0.01161 
84.980919 0.012132 
85.980988 0.012481 
86.117661 0.011736 
86.415268 0.012441 
87.383972 0.011118 
88.151253 0.01162 
88.208542 0.013092 
88.812706 0.011387 
89.496048 0.011823 
89.644081 0.012849 
89.712479 0.012479 
91.054459 0.012207 
91.692108 0.01296 
92.232033 0.011824 
93.180458 0.010656 
94.663345 0.012497 
95.171532 0.012339 
96.601776 0.011606 
97.900665 0.009042 
99.370399 0.010041 
101.843529 0.012101 
102.021591 0.011938 
102.108566 0.011905 
103.99559 0.013023 
104.885483 0.014343 
105.049202 0.014939 
105.275963 0.014679 
107.190872 0.014 
107.296844 0.012464 
108.908096 0.012947 
109.955994 0.013002 
110.867455 0.013532 
112.446693 0.01404 
112.659195 0.014766 
117.865524 0.012699 
118.347313 0.010576 
118.951675 0.010425 
119.983154 0.013083 
121.065033 0.129194 
121.782799 0.01129 
123.112511 0.011564 
127.726318 0.012037 
130.174393 0.012735 
131.881531 0.011856 
134.066711 0.013145 
138.012085 0.011434 
139.429337 0.013445 
139.908295 0.011785 
140.484802 0.013161 
140.503357 0.012866 
141.694122 0.013352 
145.489197 0.014548 
145.889786 0.013793 
146.14447 0.009134 
147.875137 0.012897 
149.059616 0.038741 
157.212982 0.012946 
158.457077 0.010349 
159.528458 0.014695 
160.001663 0.01248 
160.061859 0.015115 
164.046661 0.013971 
165.054642 0.41466 
166.387756 0.012409 
166.550934 0.012904 
166.912796 0.013875 
167.433838 0.014303 
169.339661 0.009893 
171.3228 0.015001 
171.554306 0.013069 
171.892776 0.011585 
174.952118 0.013496 
175.075958 0.03509 
178.085999 0.012871 
179.061737 0.04804 
179.070236 8.138232 
180.073578 0.61006 
181.075256 0.0145 
181.221329 0.016952 
183.467148 0.012538 
185.694839 0.01304 
189.054108 0.02572 
189.651749 0.01135 
190.08667 0.014014 
191.070068 0.090074 
191.330093 0.013853 
192.337296 0.011692 
193.049561 0.288287 
204.06546 0.025619 
204.274872 0.013843 
205.049713 0.082609 
205.073364 1.10455 
205.211182 0.011202 
206.081253 4.626249 
206.092224 0.014136 
207.084366 0.273296 
210.328735 0.014281 
214.318436 0.01421 
214.521973 0.554393 
217.197144 0.015006 
218.081131 0.928219 
219.089035 1.527371 
220.096741 100.0 
221.100174 10.363614 
222.10257 0.061947 
233.310989 0.013565 
241.261108 0.013289 
242.948364 0.014738 
248.091797 1.192538 
249.093689 0.016894 
257.389404 0.012605 
260.497925 0.015924 
263.07074 0.031311 
264.077789 0.036542 
267.101685 0.037877 
268.828217 0.013474 
274.062531 0.030717 
274.97113 0.010903 
275.296417 0.0104 
276.07782 0.064568 
276.210358 0.013096 
277.085571 0.149254 
279.102325 0.051927 
280.072632 0.163657 
281.082733 0.012255 
282.087463 0.011806 
288.395966 0.012154 
291.064606 0.241845 
292.07251 0.509298 
292.405029 0.012417 
293.042694 0.012412 
293.079346 0.171939 
294.086945 0.01827 
295.06488 0.014026 
295.09613 1.218435 
295.823486 0.012865 
296.10083 0.124387 
297.111389 0.110589 
302.057556 0.017941 
302.583588 0.01319 
303.064209 0.022146 
304.072174 0.117321 
305.080658 0.364588 
306.052124 0.29309 
306.086609 0.074075 
306.394989 0.01567 
307.059357 0.281102 
307.096222 1.037284 
308.068054 0.128811 
308.102997 0.310858 
309.074982 0.137248 
309.110809 0.014674 
310.08313 0.429317 
312.098907 0.139315 
313.105896 0.08168 
317.500275 0.013245 
319.059723 0.032818 
320.067566 0.173625 
321.075378 0.624654 
322.083313 1.514657 
323.091095 6.357735 
323.232941 0.011969 
324.097382 2.522131 
325.106506 2.557148 
326.110138 0.335108 
327.086365 0.013608 
327.122314 0.232016 
327.828156 0.011862 
332.067505 0.24813 
334.083496 2.233388 
335.05481 0.135787 
335.090363 1.355235 
336.096161 0.144392 
337.069305 0.047512 
337.106781 0.282248 
338.014862 0.014727 
338.077881 1.031117 
338.111908 0.033505 
338.137726 0.029688 
339.083405 0.053369 
339.121979 0.17155 
340.094727 0.013104 
341.101715 0.05401 
347.11438 0.010521 
349.106598 0.054902 
349.213959 0.014575 
350.078308 4.83897 
351.082458 0.973404 
352.093933 1.566997 
352.117218 0.410887 
353.101685 27.969275 
354.105133 5.379819 
355.116699 0.82488 
356.120544 0.013859 
356.548889 0.013474 
363.109619 0.135855 
364.117462 0.018535 
365.101807 5.942492 
366.103821 1.480312 
367.119415 0.035908 
368.119812 0.014286 
368.14856 0.048535 
371.112671 0.063094 
375.334656 0.015859 
376.897522 0.012064 
377.935425 0.012948 
378.133301 0.517021 
379.136322 0.039641 
380.112915 0.015128 
381.120453 2.117852 
382.123474 0.30441 
383.112183 0.41566 
384.114288 0.02847 
391.938507 0.015353 
396.143341 1.336881 
397.146973 0.137057 
402.359467 0.014384 
411.835968 0.009929 
414.154175 4.174299 
415.157135 0.819713 
426.074463 0.010434 
427.308502 0.012374 
427.915863 0.013019 
END IONS

