BEGIN IONS
PEPMASS=345.134
CHARGE=1+
COMPOUNDNAME=gibberellic acid
LIBRARYQUALITY=3
SMILES=N/A
INCHIKEY=IXORZMNAPKEEDV-OBDJNFEBSA-N
INCHI=InChI=1S/C19H22O6/c1-9-7-17-8-18(9,24)5-3-10(17)19-6-4-11(20)16(2,15(23)25-19)13(19)12(17)14(21)22/h4,6,10-13,20,24H,1,3,5,7-8H2,2H3,(H,21,22)/t10-,11+,12-,13-,16-,17+,18+,19-/m1/s1
MSLEVEL=2
SOURCE_INSTRUMENT=N/A-ESI-QFT
FILENAME=library_mgf.mgf
SEQ=*..*
IONMODE=negative
ORGANISM=MONA
NAME=gibberellic acid [M-H]-
PI=MoNA
DATACOLLECTOR=MoNA:VF-NPL-QEHF000260
PUBMED=N/A
SUBMITUSER=mwang87
TAGS=
SPECTRUMID=CCMSLIB00004691323
SCANS=260
51.816631 0.044316 
51.990288 0.046518 
53.441677 0.048629 
53.574543 0.03859 
55.017445 0.046809 
56.192978 0.042038 
56.487949 0.041084 
56.520126 0.049033 
57.033226 0.254735 
57.400124 0.062096 
58.601471 0.040853 
59.012466 0.043136 
59.298794 0.046197 
59.521908 0.042347 
59.739677 0.044516 
60.430832 0.042842 
60.991756 0.058298 
61.529278 0.043558 
62.530853 0.054554 
63.150223 0.042984 
63.273724 0.04361 
64.279259 0.038081 
65.708511 0.039928 
66.003502 0.039701 
66.121101 0.041067 
66.413078 0.040949 
69.033249 0.125094 
69.826645 0.041673 
69.890236 0.043667 
71.048904 19.817011 
71.141434 0.045416 
72.052254 0.700046 
72.552002 0.050754 
73.028168 5.256986 
74.031647 0.044792 
74.7948 0.04784 
75.742119 0.042999 
76.201439 0.042119 
76.76384 0.040151 
78.301666 0.041468 
78.505806 0.046338 
80.667191 0.047118 
83.046104 0.141464 
83.04892 12.360324 
83.459587 0.043488 
83.930191 0.050581 
84.052223 0.222194 
85.622795 0.045778 
86.503456 0.048173 
86.726326 0.050167 
89.32901 0.046455 
89.715263 0.039799 
89.885445 0.053607 
89.921303 0.047927 
90.201012 0.047236 
95.018654 0.046239 
97.194633 0.042578 
98.538383 0.040001 
100.644295 0.04076 
101.835098 0.044404 
103.492302 0.043036 
105.069664 1.231128 
107.048302 0.038597 
107.856865 0.047025 
108.124992 0.037641 
111.40876 0.043822 
112.92836 0.039655 
113.489326 0.039259 
113.80452 0.049647 
114.587486 0.047876 
114.907738 0.039643 
115.105026 0.048224 
117.229759 0.046242 
119.085442 0.063427 
119.190361 0.044335 
119.480331 0.043955 
121.671371 0.039384 
123.013275 0.038185 
124.062103 0.045485 
126.295082 0.045548 
127.182625 0.049585 
128.008789 0.041856 
128.174026 0.042351 
132.282333 0.039408 
132.543655 0.045614 
133.06485 0.11111 
135.005646 0.043956 
135.892426 0.049847 
136.136841 0.046289 
142.241379 0.04927 
143.052368 0.083314 
143.085526 100.0 
144.088867 12.133596 
145.065002 0.088208 
145.092255 0.217577 
145.101395 0.190447 
146.072754 0.282572 
149.095825 0.116524 
155.085861 0.061186 
155.275177 0.045335 
158.460617 0.046521 
159.080444 0.897802 
161.096146 4.657149 
162.099731 0.183376 
164.325165 0.046492 
166.210922 0.046894 
167.337555 0.045951 
169.101395 0.047878 
171.080704 0.182133 
171.186569 0.04999 
173.096283 0.825256 
176.462173 0.047714 
180.096466 0.047008 
180.607071 0.042965 
183.01149 0.373684 
183.080719 0.71857 
183.117111 0.279381 
185.096359 0.744399 
188.131104 0.05183 
192.355347 0.045909 
193.101624 1.02039 
196.190186 0.045385 
197.096481 0.13356 
197.132904 1.49979 
198.068115 0.077619 
198.135925 0.089796 
199.075928 0.31797 
199.112137 0.961905 
201.127792 3.085773 
202.131119 0.110017 
203.658508 0.053038 
205.101227 0.352107 
209.09671 0.401305 
211.113266 0.057601 
212.713638 0.046463 
213.092072 0.04124 
213.128021 1.610091 
214.131393 0.124272 
215.14389 0.298878 
215.590271 0.944344 
215.600098 0.689425 
215.604019 0.66833 
216.038513 0.046982 
217.12326 0.136284 
217.827362 0.050483 
219.117386 0.859762 
221.133102 36.269745 
222.136642 6.356007 
223.139191 0.116175 
227.107407 21.126068 
228.110703 3.476137 
228.71521 0.043326 
229.11293 0.051819 
237.128204 0.715422 
239.143951 4.510465 
240.08728 0.046565 
240.147675 0.525989 
240.761353 0.041702 
241.123444 0.131491 
243.065674 0.123381 
247.562256 0.052007 
253.123901 0.052724 
255.138855 1.721952 
256.14325 0.051628 
257.118225 0.054731 
257.154816 2.629591 
258.158325 0.061949 
261.940704 0.04684 
265.123199 0.113102 
265.643555 0.04792 
271.097656 2.872209 
272.10141 0.066677 
272.849182 0.048442 
273.112701 0.064028 
276.192291 0.050513 
278.066742 0.045226 
283.134125 1.995281 
284.137054 0.062758 
285.815033 0.045629 
287.457092 0.044627 
296.205414 0.046619 
298.232941 0.044498 
301.144592 0.74108 
303.668274 0.054923 
325.184479 0.615403 
339.199768 0.113094 
345.13501 0.307773 
346.440155 0.053379 
347.148865 0.041722 
365.08493 0.047513 
380.634796 0.04984 
381.830322 0.045784 
385.606079 0.04787 
END IONS

