BEGIN IONS
PEPMASS=345.0
CHARGE=1+
COMPOUNDNAME=MoNA:2581238 Gibb-tabs
LIBRARYQUALITY=3
SMILES=N/A
INCHIKEY=IXORZMNAPKEEDV-OBDJNFEBSA-N
INCHI=InChI=1S/C19H22O6/c1-9-7-17-8-18(9,24)5-3-10(17)19-6-4-11(20)16(2,15(23)25-19)13(19)12(17)14(21)22/h4,6,10-13,20,24H,1,3,5,7-8H2,2H3,(H,21,22)/t10-,11+,12-,13-,16-,17+,18+,19-/m1/s1
MSLEVEL=2
SOURCE_INSTRUMENT=LC-ESI-QQ-LC-ESI-QQ
FILENAME=output_mgf.mgf
SEQ=*..*
IONMODE=
ORGANISM=MONA
NAME=MoNA:2581238 Gibb-tabs [M-H]-
PI=MoNA
DATACOLLECTOR=MoNA
PUBMED=N/A
SUBMITUSER=mwang87
TAGS=
SPECTRUMID=CCMSLIB00000574430
SCANS=11681
54.626 1.310638 
64.328 2.306383 
65.235 1.655319 
70.469 6.638298 
71.199 1.826596 
73.619 1.006915 
74.45 1.31383 
80.375 1.632979 
82.65 9.159574 
93.991 1.028723 
103.508 2.190426 
104.489 1.333511 
113.146 1.792553 
119.296 1.336702 
122.646 1.497872 
142.879 100.0 
145.419 2.592553 
151.085 1.012234 
152.079 1.035638 
154.766 3.859043 
160.516 2.461702 
161.31 5.531915 
169.287 1.305319 
170.282 1.230851 
172.544 1.339894 
180.79 2.328191 
182.482 7.478723 
183.543 2.597872 
185.618 1.232447 
199.56 1.573404 
200.55 3.01117 
201.157 6.914894 
208.163 1.104255 
209.096 1.42234 
211.601 2.533511 
213.091 6.845745 
218.194 0.975532 
219.151 3.180851 
220.616 19.473404 
221.208 48.409574 
226.491 1.994681 
227.027 32.845745 
227.691 1.724468 
230.674 1.3 
237.241 2.113298 
238.421 4.278191 
239.208 53.829787 
257.329 12.425532 
258.769 1.144681 
267.874 0.977128 
270.441 6.351064 
273.356 1.90266 
283.207 11.638298 
296.192 1.293085 
300.641 12.994681 
301.378 3.112766 
315.337 2.081383 
318.786 5.238298 
326.951 1.156383 
327.525 1.477128 
335.027 1.157979 
344.628 5.43617 
345.217 19.340426 
353.267 1.81117 
363.194 1.246809 
372.33 1.354255 
373.225 1.0 
392.309 1.391489 
393.177 1.135106 
END IONS

