BEGIN IONS
PEPMASS=414.155
CHARGE=1+
COMPOUNDNAME=NOSCAPINE
LIBRARYQUALITY=3
SMILES=N/A
INCHIKEY=AKNNEGZIBPJZJG-MSOLQXFVSA-N
INCHI=InChI=1S/C22H23NO7/c1-23-8-7-11-9-14-20(29-10-28-14)21(27-4)15(11)17(23)18-12-5-6-13(25-2)19(26-3)16(12)22(24)30-18/h5-6,9,17-18H,7-8,10H2,1-4H3/t17-,18+/m1/s1
MSLEVEL=2
SOURCE_INSTRUMENT=N/A-ESI-QFT
FILENAME=library_mgf.mgf
SEQ=*..*
IONMODE=positive
ORGANISM=MONA
NAME=NOSCAPINE [M+H]+
PI=MoNA
DATACOLLECTOR=MoNA:VF-NPL-QEHF002758
PUBMED=N/A
SUBMITUSER=mwang87
TAGS=
SPECTRUMID=CCMSLIB00004693821
SCANS=2758
50.150269 0.005803 
50.213985 0.005447 
50.790531 0.006134 
50.947929 0.005658 
51.899246 0.005576 
52.683704 0.007736 
53.016003 0.00629 
53.209259 0.006428 
54.527008 0.007206 
54.771393 0.007518 
55.077438 0.006883 
55.173763 0.007026 
55.242382 0.006685 
55.51252 0.006213 
55.906384 0.007563 
55.910728 0.007372 
56.005394 0.00704 
58.367664 0.00729 
58.66481 0.006966 
59.964108 0.007075 
60.548386 0.007762 
60.614468 0.00691 
60.943836 0.007527 
61.570988 0.007063 
62.614944 0.006448 
63.416916 0.006625 
64.321526 0.007239 
65.082436 0.005605 
65.173279 0.006865 
65.236275 0.007991 
65.491425 0.009205 
65.620117 0.007781 
66.851105 0.007783 
66.915108 0.007119 
67.07431 0.007381 
67.116928 0.006684 
67.317917 0.007568 
67.94281 0.005948 
68.728035 0.00592 
68.729881 0.101816 
68.737793 0.005737 
68.985123 0.007487 
69.062378 0.005539 
69.217331 0.006015 
70.574066 0.009191 
72.019966 0.0054 
72.759254 0.008015 
74.189339 0.006416 
74.589195 0.00556 
76.480408 0.006476 
77.809319 0.006394 
78.55307 0.00703 
79.052483 0.008067 
79.927361 0.006719 
80.346092 0.006877 
80.50798 0.006169 
80.978951 0.006691 
81.041992 0.007872 
81.080315 0.007624 
81.473442 0.00684 
81.746529 0.006356 
83.104797 0.007136 
83.522095 0.006958 
84.461235 0.007832 
85.097748 0.006662 
85.588326 0.006861 
85.6306 0.006561 
87.833916 0.006479 
88.472839 0.007275 
88.908333 0.005954 
90.033432 0.00663 
90.053299 0.008049 
90.869873 0.006497 
91.054672 0.02162 
92.247665 0.006581 
92.985909 0.006917 
96.911293 0.007614 
98.355766 0.007732 
98.942497 0.007154 
101.861137 0.007359 
102.754463 0.007375 
103.025589 0.00696 
104.084892 0.007702 
104.185768 0.012241 
104.78997 0.007229 
105.347092 0.007488 
107.073639 0.007352 
107.669708 0.007505 
108.941711 0.006969 
109.111816 0.006888 
110.609154 0.007868 
111.10688 0.006864 
111.759666 0.006626 
111.81546 0.0074 
113.679382 0.008761 
114.81118 0.006556 
115.186607 0.006963 
116.099754 0.00883 
117.624794 0.007843 
118.139954 0.006955 
118.484978 0.00782 
118.667465 0.006965 
119.049072 0.016587 
121.011208 0.007659 
121.064949 0.222452 
122.157326 0.008289 
122.80793 0.006958 
123.616447 0.005636 
125.056541 0.00701 
125.785255 0.006755 
125.848244 0.006239 
125.927971 0.006818 
128.106674 0.007476 
129.405655 0.007495 
130.373154 0.007691 
130.968826 0.007675 
132.945099 0.008303 
134.080276 0.007476 
134.247452 0.008269 
135.575714 0.005883 
136.520798 0.006198 
136.722946 0.005888 
137.273224 0.006978 
140.140594 0.01037 
140.151367 0.00842 
140.267639 0.007156 
140.441498 0.007663 
142.20256 0.007333 
143.492645 0.008926 
144.900803 0.006267 
145.044449 0.006626 
148.80162 0.006528 
149.059616 0.111875 
150.206619 0.060087 
153.84407 0.006589 
157.599716 0.006536 
159.410431 0.006803 
162.031357 0.007618 
165.054565 0.499045 
165.574799 0.007033 
165.595657 0.006413 
169.284103 0.007143 
169.695297 0.007589 
169.846786 0.006411 
170.488266 0.007604 
174.998276 0.007861 
175.0755 0.053787 
175.656418 0.006777 
175.892014 0.007602 
175.933807 0.006833 
179.070206 8.15807 
179.284042 0.006798 
180.073563 0.732208 
180.081558 0.006077 
185.252258 0.007924 
185.667297 0.006874 
187.942627 0.007141 
188.163086 0.007885 
189.054291 0.082225 
190.086029 0.008232 
191.070023 0.208558 
192.357742 0.009229 
193.04953 0.334535 
195.065063 0.022687 
195.477478 0.007682 
195.842773 0.008797 
199.672028 0.007945 
200.477112 0.007617 
201.19165 0.007408 
203.070816 0.025816 
203.163223 0.00706 
204.065506 0.06247 
205.049591 0.124886 
205.073349 1.075959 
206.081177 4.77304 
206.092209 0.011864 
206.124695 0.007509 
207.084412 0.449124 
207.39151 0.007152 
209.081009 0.006556 
213.999786 0.34042 
214.01413 0.264011 
216.370331 0.00812 
216.857285 0.006831 
217.049179 0.032275 
218.081268 1.041905 
218.957291 0.005999 
219.089066 1.471054 
220.076706 0.201362 
220.096649 100.0 
221.100159 11.232493 
222.102158 0.132799 
223.764008 0.007563 
224.4729 0.006922 
224.994095 0.006863 
227.156204 0.006876 
227.456573 0.006692 
229.287247 0.006416 
229.989319 0.00672 
236.091293 0.009423 
237.089874 0.006671 
239.107605 0.008219 
240.426346 0.008534 
242.653381 0.007692 
248.09166 1.14584 
248.668015 0.006979 
248.900284 0.007541 
249.093338 0.098995 
259.973267 0.007383 
263.054291 0.0076 
263.070099 0.142202 
263.985016 0.008424 
264.077484 0.108828 
265.084778 0.049913 
267.101532 0.045039 
267.779175 0.006744 
268.056946 0.007261 
268.382965 0.009191 
269.11676 0.020683 
274.062225 0.028256 
275.130646 0.006913 
276.077759 0.188775 
277.084991 0.18474 
278.092865 0.008658 
279.064606 0.023225 
279.10144 0.102339 
280.072754 0.395006 
281.078583 0.026098 
290.058472 0.007717 
291.064728 0.28938 
292.072266 0.604689 
293.079224 0.199339 
294.087097 0.075839 
294.908539 0.007933 
295.060852 0.007408 
295.096161 1.201832 
295.654083 0.007018 
296.100922 0.18517 
297.111694 0.12709 
302.057129 0.06578 
303.064545 0.026977 
304.073364 0.0136 
304.110779 0.021581 
305.080597 0.504535 
306.051819 0.446474 
306.086395 0.108404 
307.016083 0.008726 
307.059479 0.370231 
307.096375 1.048719 
307.478027 0.00674 
308.066986 0.224131 
308.1026 0.528403 
309.074585 0.193643 
309.110107 0.066358 
310.082916 0.339965 
311.24295 0.007915 
312.098755 0.356537 
313.105896 0.112051 
314.012482 0.007852 
314.696045 0.006038 
315.788391 0.007751 
316.072479 0.006165 
316.258667 0.008092 
316.616241 0.007874 
317.043732 0.008318 
317.1651 0.008896 
318.436829 0.007505 
319.059784 0.117982 
320.067505 0.334913 
321.054718 0.007823 
321.074738 0.689173 
321.924103 0.006376 
322.083313 1.495121 
323.091034 6.52839 
324.09726 2.481565 
325.106445 2.56185 
326.110046 0.390013 
327.086517 0.007559 
327.122314 0.414614 
332.067657 0.350966 
333.073883 0.025832 
334.083405 2.272116 
334.106079 0.013327 
334.132721 0.006739 
335.054871 0.172945 
335.090271 1.510472 
335.112244 0.021021 
336.060181 0.010965 
336.095856 0.227764 
337.069885 0.09333 
337.106659 0.438413 
338.078033 0.977399 
338.113739 0.154506 
338.137054 0.024832 
339.082397 0.114932 
339.122192 0.294762 
340.093628 0.037483 
341.101685 0.183521 
343.117004 0.020044 
347.088745 0.008787 
349.106476 0.139986 
350.078308 5.04812 
350.099213 0.159927 
351.082275 1.126443 
352.093475 1.641498 
352.117737 0.456305 
353.101593 29.799425 
354.10495 5.829999 
355.118073 0.952052 
356.120361 0.069922 
362.105621 0.008666 
363.109436 0.200374 
364.116547 0.029428 
365.101685 6.369446 
366.103851 1.642249 
366.131348 0.011559 
366.313446 0.00628 
367.117615 0.070511 
368.087799 0.018971 
368.148193 0.108992 
370.340454 0.006874 
371.11203 0.151722 
378.132965 0.671633 
378.156769 0.007735 
379.136963 0.066914 
380.636719 0.00768 
381.1203 2.240644 
382.123993 0.460555 
383.111481 0.581392 
384.114746 0.027707 
385.743408 0.007497 
388.759125 0.006899 
392.727844 0.007355 
395.044922 0.006484 
396.143738 1.39397 
397.146851 0.289148 
399.130615 0.00825 
412.319 0.006802 
414.154144 4.700905 
415.157501 1.009024 
415.574493 0.007208 
426.879547 0.00825 
429.527832 0.009111 
432.13382 0.006858 
END IONS

