BEGIN IONS
PEPMASS=270.5
CHARGE=1+
COMPOUNDNAME=Massbank:KO002244 Apramycin sulfate|Apramycin
LIBRARYQUALITY=3
SMILES=OC[C@@H](O1)[C@@H](N)[C@H](O)[C@@H](O)[C@H]1O[C@H](O2)[C@@H](NC)[C@@H](O)[C@@H](O3)[C@@H](C[C@@H](N)[C@@H](O[C@H]([C@@H](N)4)[C@H](O)[C@@H](O)[C@H](N)C4)3)2
INCHIKEY=XZNUGFQTQHRASN-UXNWEDNLSA-N
INCHI=1S/C21H41N5O11/c1-26-11-14(30)18-8(33-20(11)37-21-16(32)13(29)10(25)9(4-27)34-21)3-7(24)19(36-18)35-17-6(23)2-5(22)12(28)15(17)31/h5-21,26-32H,2-4,22-25H2,1H3/t5-,6+,7-,8-,9-,10-,11+,12+,13+,14-,15-,16-,17-,18+,19+,20+,21-/m1/s1
MSLEVEL=2
SOURCE_INSTRUMENT=ESI-LC-ESI-QQ
FILENAME=Massbank_ESI_positive_8_1_2014_peaks.mgf
SEQ=*..*
IONMODE=Positive
ORGANISM=MASSBANK
NAME=Massbank:KO002244 Apramycin sulfate|Apramycin [M+2H]++
PI=Putative Massbank Match
DATACOLLECTOR=Massbank
PUBMED=N/A
SUBMITUSER=mwang87
TAGS=
SPECTRUMID=CCMSLIB00000216978
SCANS=8046
60.0 316832.0 
68.1 232673.5 
68.9 123762.5 
70.0 118812.0 
71.0 94059.5 
72.2 480198.5 
72.9 74257.5 
74.1 69307.0 
79.9 158416.0 
81.0 108911.0 
82.1 623763.0 
83.3 69307.0 
84.1 2405943.0 
85.0 435644.0 
86.0 242574.5 
87.0 79208.0 
88.1 89109.0 
88.9 39604.0 
90.0 2470299.5 
91.9 29703.0 
94.0 49505.0 
96.0 1816833.5 
97.0 599010.5 
97.7 732674.0 
98.7 222772.5 
99.9 128713.0 
100.2 74257.5 
100.8 183168.5 
101.9 1603962.0 
105.7 19802.0 
107.9 306931.0 
109.1 277228.0 
110.0 480198.5 
111.0 603961.0 
112.2 89109.0 
114.1 361386.5 
114.4 118812.0 
115.7 24752.5 
116.2 569307.5 
117.1 49505.0 
118.3 282178.5 
118.5 14851.5 
119.7 24752.5 
121.8 54455.5 
124.3 64356.5 
126.1 2029705.0 
126.8 242574.5 
128.1 554456.0 
131.9 74257.5 
132.7 14851.5 
133.3 24752.5 
134.9 39604.0 
136.2 74257.5 
137.7 34653.5 
140.8 44554.5 
141.8 123762.5 
144.1 4311885.5 
144.9 1168318.0 
146.1 257426.0 
150.0 133663.5 
150.3 44554.5 
150.9 54455.5 
153.3 118812.0 
153.9 19802.0 
156.1 44554.5 
162.1 11014862.5 
163.3 12480210.5 
164.1 747525.5 
168.0 217822.0 
169.1 84158.5 
171.8 267327.0 
172.7 69307.0 
175.1 64356.5 
180.4 603961.0 
181.2 514852.0 
182.0 455446.0 
183.4 44554.5 
184.1 29703.0 
187.0 118812.0 
187.6 19802.0 
190.1 465347.0 
195.0 19802.0 
197.5 44554.5 
199.4 2262378.5 
200.3 1188120.0 
201.4 589109.5 
202.3 44554.5 
211.3 69307.0 
213.3 74257.5 
216.5 24752.5 
217.3 18925761.5 
218.3 1202971.5 
219.2 34653.5 
225.3 89109.0 
226.8 49505.0 
229.0 69307.0 
230.1 39604.0 
235.5 54455.5 
236.8 34653.5 
239.1 84158.5 
241.9 49505.0 
243.2 113861.5 
253.2 237624.0 
254.4 94059.5 
255.2 143564.5 
256.5 24752.5 
259.5 59406.0 
262.6 237624.0 
265.0 24752.5 
267.7 9901.0 
270.7 118812.0 
271.2 1663368.0 
272.5 138614.0 
273.6 118812.0 
277.4 89109.0 
280.4 39604.0 
283.5 24752.5 
285.8 14851.5 
289.5 910892.0 
290.6 143564.5 
295.5 207921.0 
307.8 24752.5 
308.7 277228.0 
309.5 44554.5 
312.4 64356.5 
313.6 277228.0 
326.7 490099.5 
327.7 54455.5 
331.5 39604.0 
343.3 94059.5 
344.5 2138616.0 
345.4 306931.0 
361.5 287129.0 
362.6 2500002.5 
363.6 168317.0 
378.5 282178.5 
379.5 500000.5 
380.6 19802.0 
END IONS

