BEGIN IONS
PEPMASS=267.077
CHARGE=1+
COMPOUNDNAME=BIOTIN
LIBRARYQUALITY=3
SMILES=N/A
INCHIKEY=YBJHBAHKTGYVGT-ZKWXMUAHSA-N
INCHI=InChI=1S/C10H16N2O3S/c13-8(14)4-2-1-3-7-9-6(5-16-7)11-10(15)12-9/h6-7,9H,1-5H2,(H,13,14)(H2,11,12,15)/t6-,7-,9-/m0/s1
MSLEVEL=2
SOURCE_INSTRUMENT=N/A-ESI-QFT
FILENAME=library_mgf.mgf
SEQ=*..*
IONMODE=positive
ORGANISM=MONA
NAME=BIOTIN [M+Na]+
PI=MoNA
DATACOLLECTOR=MoNA:VF-NPL-QEHF028119
PUBMED=N/A
SUBMITUSER=mwang87
TAGS=
SPECTRUMID=CCMSLIB00004721700
SCANS=28119
50.116199 9.30599 
50.191013 2.606832 
50.663513 5.049248 
50.795319 4.419326 
50.869228 3.006471 
51.8423 9.025645 
52.70187 9.394252 
52.857494 4.983715 
53.520546 4.328845 
54.313396 7.317507 
54.388435 4.952895 
54.88612 9.290748 
54.941429 1.76426 
55.002064 8.196772 
55.18779 6.14482 
55.276207 8.539468 
55.49527 0.860172 
56.46043 2.262375 
56.563618 2.065113 
56.965042 5.623136 
57.958225 1.671331 
58.363262 8.719733 
58.985161 9.552146 
59.085094 7.893999 
59.327461 5.371592 
59.329132 3.954873 
60.10817 2.827925 
60.13686 4.154779 
60.581322 8.952508 
61.010872 10.581025 
61.016796 9.483793 
61.132999 9.658184 
61.77158 7.159752 
61.914051 2.743405 
62.01862 1.749308 
62.149967 2.940543 
62.249939 4.676235 
62.531952 5.334427 
63.428028 8.730099 
63.440426 8.988313 
63.824509 1.040054 
64.419418 9.465753 
64.451591 1.871113 
64.640129 1.88261 
64.922897 4.520386 
65.395081 10.045009 
65.476669 4.411681 
66.072021 6.574141 
67.342056 4.24812 
67.710884 4.5806 
67.951927 10.767289 
68.865891 4.346771 
69.365891 3.177128 
71.414825 1.927226 
71.700668 4.360243 
71.94249 6.607291 
72.275246 7.91501 
72.873055 0.978231 
73.054131 8.98252 
73.224754 1.004592 
73.591705 1.864799 
73.920219 6.685613 
74.879257 5.228375 
74.998032 1.804595 
75.551208 8.947665 
75.717247 9.496902 
76.898277 4.436895 
78.26059 8.931104 
78.827812 4.721718 
79.657616 0.85197 
79.904816 9.650316 
81.100876 8.840767 
81.427284 9.082124 
81.581856 1.792482 
81.632706 9.801374 
82.760597 6.001078 
82.927574 0.822418 
83.48053 8.177328 
84.61277 9.152266 
84.667435 4.373756 
85.221977 7.465438 
86.021622 10.760296 
86.30658 5.333174 
86.604576 7.065089 
87.319275 2.86899 
88.21534 7.476719 
88.684189 7.274453 
89.084312 2.607582 
89.559357 0.797168 
90.331947 4.825402 
90.586075 4.518805 
90.669365 2.076248 
91.733368 5.181568 
91.805603 9.790958 
91.852303 8.850875 
92.6371 2.820926 
93.235573 5.691644 
93.607834 4.918091 
94.034386 4.209816 
94.36499 4.40266 
94.668198 4.425416 
94.99334 3.759089 
95.104393 0.913457 
96.063171 8.227079 
96.306694 9.382553 
97.05407 8.179306 
97.130447 2.953188 
98.984055 6.753747 
99.751167 4.279963 
101.38427 2.94526 
102.866821 10.889858 
103.160645 9.781645 
104.738327 8.203024 
105.467064 0.874416 
106.555473 2.130564 
107.382088 1.061045 
109.192184 4.830153 
110.691872 6.002198 
112.033325 1.668731 
112.737755 0.850783 
113.653984 3.456234 
114.032372 1.892782 
114.046638 5.124289 
114.088585 2.426758 
114.140999 8.826117 
114.461082 6.983431 
117.239967 10.675814 
117.599335 3.980124 
117.642372 6.914695 
118.194366 3.800401 
118.295364 5.261238 
118.530769 4.74925 
119.591331 0.932046 
119.921913 10.482625 
120.988167 1.793366 
121.100502 7.234325 
121.117828 2.403855 
121.225029 10.665288 
121.69751 2.377717 
122.391418 1.809306 
124.779083 2.150794 
124.988258 11.070426 
125.069283 4.830383 
125.401123 0.936693 
125.794151 4.893246 
127.236786 2.093909 
128.964081 0.967371 
129.10112 11.314222 
129.501083 7.069208 
129.570068 11.901355 
130.43837 3.14115 
130.730011 1.755211 
135.53833 7.184179 
136.174255 11.570658 
136.223877 3.202578 
137.924805 2.584857 
138.406952 8.723477 
139.53157 4.457711 
139.75592 5.468944 
140.068665 4.13672 
140.265915 5.842552 
140.827347 3.959595 
141.160965 0.998466 
141.597824 4.608275 
144.378159 9.694905 
144.958405 1.296602 
146.227158 5.189756 
146.973557 10.349711 
150.371048 4.903141 
151.60704 4.767801 
151.750397 9.763227 
154.629517 1.675478 
155.42012 2.7514 
156.257111 2.894694 
156.414215 7.814806 
158.83139 8.067854 
158.942917 10.093501 
159.150818 7.050364 
160.616074 1.016965 
162.938705 5.048376 
164.252136 9.620242 
164.522385 3.960426 
165.421387 1.854204 
166.019547 2.176408 
167.354782 4.842822 
168.410477 1.726406 
168.650284 9.122327 
170.846985 8.458286 
171.423782 3.261762 
171.435837 4.474793 
172.327042 1.940497 
173.013458 0.937096 
174.335892 10.498195 
176.992035 1.646722 
178.030685 13.109956 
178.118683 2.882851 
181.489136 2.3486 
185.885086 2.239447 
186.766235 8.176258 
187.803879 3.23926 
190.025772 5.464694 
191.270966 9.681881 
191.829178 10.751409 
192.82283 8.829237 
200.833008 8.963252 
204.366028 10.171497 
205.241898 4.933995 
206.941879 1.7286 
209.479965 7.363184 
209.511932 7.747998 
211.861526 5.657765 
212.579346 10.224694 
214.030701 12.130552 
215.928452 11.83181 
220.022629 100.0 
221.247131 10.607404 
222.978531 4.824547 
224.614532 9.911529 
225.36969 5.977696 
230.624268 4.981665 
237.077271 3.05978 
238.554489 5.251149 
241.256775 10.524668 
246.602737 5.753276 
254.702789 9.645443 
254.851578 1.79484 
254.982758 2.249803 
256.685303 4.816254 
257.071533 2.286298 
258.266602 1.960043 
259.366821 3.043438 
261.290039 2.372325 
263.29718 0.96687 
263.398315 1.814193 
264.127747 0.888222 
265.204742 1.93201 
266.671906 7.929743 
268.977905 8.916494 
270.29187 5.675496 
273.450409 5.490434 
283.331421 8.623731 
283.703308 0.939496 
286.314362 6.035975 
END IONS

