BEGIN IONS
PEPMASS=243.081
CHARGE=1+
COMPOUNDNAME=Biotin
LIBRARYQUALITY=3
SMILES=N/A
INCHIKEY=YBJHBAHKTGYVGT-ZKWXMUAHSA-N
INCHI=InChI=1S/C10H16N2O3S/c13-8(14)4-2-1-3-7-9-6(5-16-7)11-10(15)12-9/h6-7,9H,1-5H2,(H,13,14)(H2,11,12,15)/t6-,7-,9-/m0/s1
MSLEVEL=2
SOURCE_INSTRUMENT=N/A-ESI-QTOF
FILENAME=library_mgf.mgf
SEQ=*..*
IONMODE=negative
ORGANISM=MONA
NAME=Biotin [M-H]-
PI=MoNA
DATACOLLECTOR=MoNA:VF-NPL-QTOF002086
PUBMED=N/A
SUBMITUSER=mwang87
TAGS=
SPECTRUMID=CCMSLIB00004719876
SCANS=2083
32.974701 0.470295 
32.976101 0.828344 
32.977699 1.032958 
32.980301 0.361136 
40.0168 1.481044 
40.022499 0.333943 
41.9963 100.0 
42.036701 0.627819 
42.0522 0.638108 
42.053902 1.341508 
42.068802 0.801511 
42.074402 0.957085 
42.0825 0.334226 
42.0895 0.425074 
42.0966 0.205462 
42.099098 0.243695 
42.1077 0.22221 
42.116501 0.377937 
42.1213 0.305282 
42.126999 0.204356 
42.132099 0.268938 
42.136398 0.297752 
42.148899 0.314492 
42.157299 0.301449 
42.195801 0.234824 
42.206001 0.214731 
42.262001 0.324573 
42.326401 0.249992 
42.429501 0.190608 
45.9841 2.256417 
45.986 2.142105 
46.031101 0.254152 
46.991501 1.227028 
46.993801 1.593959 
52.014702 0.811277 
52.0182 0.417905 
56.043598 0.437729 
59.0089 0.325867 
59.015598 1.736249 
59.019501 0.893754 
59.022499 0.69233 
59.046101 0.317304 
66.028503 0.1936 
66.032402 0.676392 
68.009804 2.078251 
68.013 0.98657 
68.043404 1.375856 
68.0476 1.460878 
68.069603 0.237122 
70.977097 0.269884 
71.9888 4.596976 
71.997398 0.243702 
72.0047 0.201472 
72.030403 0.251293 
72.995598 1.903732 
73.000504 0.288595 
73.005402 0.214669 
73.031197 0.223205 
74.003197 5.414835 
74.044601 0.207107 
75.021301 0.27246 
82.0093 0.260952 
82.017601 0.347009 
82.059402 0.210523 
82.064499 0.589562 
83.020599 1.370552 
85.005501 0.575589 
85.009697 0.309244 
94.056602 0.317761 
94.063797 0.230594 
95.021599 4.286677 
95.026703 0.465819 
96.038498 0.63477 
96.071999 0.267646 
97.054398 0.378971 
97.061798 0.340275 
97.071297 0.262195 
100.017097 0.245803 
101.038902 0.256707 
103.054001 3.419598 
103.1287 0.216983 
108.040703 0.194774 
111.049797 0.644204 
111.060501 0.212086 
123.050102 0.233707 
123.060097 0.249191 
130.061295 0.800242 
136.986404 0.196539 
139.053894 0.831112 
148.078293 0.259013 
152.093307 0.190587 
153.093506 0.34379 
154.0849 0.255549 
156.084595 0.232049 
194.920807 0.207337 
445.458496 0.262653 
1007.99353 0.227128 
1402.66394 0.210068 
1672.483643 0.204422 
END IONS

