BEGIN IONS
PEPMASS=1255.64
CHARGE=1+
COMPOUNDNAME=DACTINOMYCIN
LIBRARYQUALITY=3
SMILES=N/A
INCHIKEY=RJURFGZVJUQBHK-IIXSONLDSA-N
INCHI=InChI=1S/C62H86N12O16/c1-27(2)42-59(84)73-23-17-19-36(73)57(82)69(13)25-38(75)71(15)48(29(5)6)61(86)88-33(11)44(55(80)65-42)67-53(78)35-22-21-31(9)51-46(35)64-47-40(41(63)50(77)32(10)52(47)90-51)54(79)68-45-34(12)89-62(87)49(30(7)8)72(16)39(76)26-70(14)58(83)37-20-18-24-74(37)60(85)43(28(3)4)66-56(45)81/h21-22,27-30,33-34,36-37,42-45,48-49H,17-20,23-26,63H2,1-16H3,(H,65,80)(H,66,81)(H,67,78)(H,68,79)/t33-,34-,36+,37+,42-,43-,44+,45+,48+,49+/m1/s1
MSLEVEL=2
SOURCE_INSTRUMENT=N/A-ESI-QFT
FILENAME=library_mgf.mgf
SEQ=*..*
IONMODE=positive
ORGANISM=MONA
NAME=DACTINOMYCIN [M+H]+
PI=MoNA
DATACOLLECTOR=MoNA:VF-NPL-QEHF002899
PUBMED=N/A
SUBMITUSER=mwang87
TAGS=
SPECTRUMID=CCMSLIB00004693962
SCANS=2899
86.740059 0.008212 
86.853165 0.010528 
87.100273 0.041775 
88.498848 0.009735 
89.568176 0.010077 
89.634079 0.012366 
89.807701 0.008232 
90.496094 0.006904 
90.695175 0.009436 
90.696167 0.009002 
90.697021 0.009132 
91.179985 0.014184 
91.850082 0.012264 
91.968491 0.007004 
92.273354 0.010356 
93.94957 0.00697 
94.17144 0.008439 
94.758026 0.011131 
95.112579 0.008331 
95.620201 0.010942 
95.733727 0.010817 
96.025543 0.00826 
96.077652 0.010619 
96.081284 0.008614 
96.601105 0.00713 
98.060478 0.190005 
98.096756 0.233553 
99.241615 0.009097 
99.834076 0.006514 
100.039673 16.230959 
100.043678 0.169766 
100.26236 0.010151 
100.356544 0.008666 
101.027817 0.006827 
101.042999 0.21384 
101.645012 0.009959 
101.959885 0.010309 
104.728157 0.012006 
104.759888 0.008625 
104.921104 0.009086 
105.224228 0.010572 
107.465019 0.011481 
109.174332 0.015014 
109.290154 0.007308 
109.616394 0.00671 
110.096771 0.01834 
110.219856 0.011634 
111.199417 0.010789 
112.112297 2.651072 
112.147186 0.012791 
112.478699 0.010292 
114.091568 1.671158 
116.323997 0.008882 
118.178123 0.010194 
118.184593 0.010291 
119.635765 0.008145 
119.954102 0.010189 
122.096352 0.014268 
122.594208 0.009751 
122.739334 0.01124 
123.091766 0.031808 
124.107574 0.169753 
124.112198 6.696902 
125.107338 0.469606 
125.115486 0.132553 
125.97493 0.009037 
126.055046 0.238427 
126.09137 0.227964 
126.128006 0.011979 
126.363647 0.008593 
126.954567 0.008021 
127.396027 0.011934 
128.106964 0.022522 
129.10228 0.129579 
129.391281 0.009793 
131.851395 0.010202 
132.101883 8.904739 
132.143829 0.013193 
132.622787 0.008729 
133.104996 0.133298 
135.746475 0.007874 
136.240128 0.009607 
138.091309 0.011598 
138.333023 0.011523 
139.086426 0.257143 
139.123123 0.013252 
139.494034 0.008508 
140.155624 0.011824 
140.248123 0.00972 
140.345413 0.007957 
140.857468 0.009207 
141.34491 0.009213 
142.086182 1.656844 
142.122482 0.079919 
142.228989 0.010447 
143.835327 0.010024 
144.64743 0.009938 
145.329788 0.0078 
146.290192 0.006669 
147.676437 0.007759 
149.773376 0.007312 
150.233704 0.010295 
150.73938 0.008455 
151.086548 0.688295 
151.122513 0.013508 
151.137787 0.008866 
151.274368 0.009084 
152.013382 0.008773 
152.106766 0.279137 
153.102127 4.129139 
153.13913 0.011424 
154.086151 2.479602 
154.105423 0.044479 
156.281464 0.00968 
157.133408 1.007726 
157.582962 0.010066 
159.574448 0.007166 
159.898819 0.010171 
160.930023 0.009176 
165.627426 0.011063 
167.081467 0.218847 
167.117783 0.208672 
167.738297 0.010244 
169.097031 12.076074 
169.133362 2.989607 
170.100372 0.336529 
170.11734 0.149872 
171.112549 0.037282 
173.771866 0.009579 
175.296921 0.006923 
176.204254 0.008383 
177.677124 0.011371 
179.117554 0.084822 
179.197662 0.009099 
180.101715 0.214728 
181.133636 0.017251 
183.112457 0.036562 
185.128326 4.140973 
186.132172 0.010486 
186.923691 0.011927 
187.10759 5.146886 
187.116714 0.013164 
188.032944 0.011964 
188.110931 0.049052 
191.154449 0.01204 
194.786697 0.007203 
195.04567 0.008411 
195.112778 0.595677 
195.149124 0.063766 
196.37413 0.011113 
197.128342 4.274237 
197.20726 0.007073 
198.131454 0.035227 
203.138885 40.108902 
204.142502 2.010315 
204.542694 0.008576 
206.001907 0.01039 
207.133118 0.010251 
207.148453 0.01178 
208.018494 0.009714 
209.996384 0.006698 
211.14418 0.019726 
211.184464 0.011342 
212.425644 0.01278 
213.123154 1.469344 
218.791656 0.007477 
219.149033 0.193502 
220.485901 0.010789 
221.961945 0.009859 
221.99852 0.010365 
223.107529 0.298074 
223.180954 0.022942 
225.122284 0.012931 
226.16893 0.007182 
226.584442 0.007569 
228.20256 0.010747 
229.11792 0.055456 
229.387772 0.0076 
232.722061 0.010529 
233.08992 0.00689 
235.143753 0.106373 
236.362473 0.007202 
236.748947 0.009187 
238.191376 0.037058 
240.134232 0.054216 
240.169785 0.007914 
240.197311 0.010137 
240.422546 0.010986 
241.154404 0.371389 
241.649323 0.008754 
243.217789 0.01085 
244.935883 0.006176 
245.655411 0.01064 
245.667389 0.015409 
251.138672 0.07867 
251.261047 0.00797 
253.154312 0.017846 
254.18634 0.048045 
255.692291 0.008778 
257.184753 0.010359 
257.750305 0.006746 
259.064331 0.008035 
262.998718 0.009896 
263.138397 0.079453 
264.169983 0.091916 
264.201111 0.013592 
264.540466 0.006194 
265.985901 0.01061 
266.147675 0.011881 
267.054077 0.01038 
267.075684 0.007399 
268.165283 3.128247 
269.168213 0.071551 
270.231171 0.013176 
275.648682 0.007218 
276.019287 0.011432 
277.487732 0.008651 
278.323639 0.009885 
280.165497 0.055637 
280.853424 0.009832 
282.180908 10.195289 
283.184021 0.858942 
283.81073 0.013763 
284.160004 0.046795 
284.196411 0.324903 
284.832306 0.008577 
284.928558 0.009137 
286.175629 0.5627 
288.231812 0.011327 
290.447388 0.007424 
293.057159 0.105006 
294.14447 0.138869 
300.191467 27.503426 
301.194824 2.37803 
301.352997 0.00781 
302.330139 0.010851 
302.42218 0.010615 
304.093903 0.015569 
304.118927 0.009319 
310.08313 0.019819 
311.025665 0.013164 
311.484528 0.011696 
312.528076 0.011323 
314.216217 0.007042 
316.815826 0.011178 
320.91214 0.009419 
322.082245 0.067981 
323.071716 0.0106 
324.190765 0.008693 
328.51416 0.012101 
329.075439 0.021026 
329.625732 0.008679 
338.206848 0.700683 
348.097839 0.757618 
349.104431 0.201842 
350.112518 1.258844 
350.715546 0.007733 
351.116455 0.010355 
352.100342 0.014084 
353.699615 0.008048 
354.238037 2.631801 
354.992279 0.009737 
355.241852 0.087616 
358.106049 0.008682 
360.133698 0.382769 
361.678528 0.009721 
364.539948 0.012971 
365.123688 0.02187 
366.107941 2.524141 
367.111511 0.151817 
368.123322 0.047969 
371.12616 0.010599 
371.228424 0.035834 
372.12088 1.748764 
372.202911 0.008504 
373.124817 0.060814 
375.108215 0.032675 
376.093536 0.852097 
377.098083 0.007973 
377.123322 0.019439 
378.107635 0.295658 
381.248901 0.891981 
386.13681 0.526083 
387.144409 5.033655 
388.148132 0.573159 
389.474945 0.013185 
391.139069 0.008104 
393.118622 1.061751 
394.102753 15.626775 
395.105896 2.012458 
395.130341 0.029079 
397.244843 0.02368 
399.259521 2.025061 
400.262695 0.094371 
403.103729 0.320371 
403.138916 0.431608 
404.110748 0.858733 
405.118591 2.966805 
405.149933 0.067933 
406.122162 0.238177 
406.585449 0.00727 
415.139069 0.10694 
416.705841 0.012403 
417.154816 0.035087 
417.364685 0.011741 
419.137817 0.012869 
419.169495 0.014991 
421.14975 0.58514 
423.13208 0.012474 
423.368713 0.013892 
423.560455 0.011514 
429.154877 0.068709 
430.877563 0.008161 
431.134308 17.471836 
432.138428 3.728737 
433.113281 1.561175 
433.149658 2.3247 
434.118896 0.00877 
434.153107 0.104458 
437.274994 0.060081 
443.134491 0.269033 
445.14975 1.087732 
445.181885 0.011066 
446.15033 0.014529 
447.131805 0.045241 
447.165375 1.105716 
449.144897 8.26836 
450.148041 1.259193 
450.690918 0.00749 
458.145325 0.32722 
459.128937 100.0 
460.132416 15.912166 
460.187347 0.029808 
461.143982 0.012676 
464.191681 0.043769 
465.176208 0.694942 
467.156677 0.021217 
473.14386 0.009949 
474.178925 0.010281 
475.159454 0.252419 
476.156464 0.267889 
476.191803 0.027926 
477.104401 0.019683 
477.139893 4.326919 
478.1427 0.574436 
481.810699 0.00795 
486.178345 0.028629 
486.212708 0.146297 
493.170288 0.45175 
496.279327 0.010162 
497.180939 0.32108 
498.329315 0.014385 
502.20755 1.149772 
503.212952 0.187768 
504.186707 0.478268 
504.224213 0.156954 
512.154297 0.033728 
512.191895 0.932759 
513.432373 0.012674 
514.207458 0.843703 
515.212219 0.032399 
520.218323 0.415964 
521.221802 0.011672 
530.202637 21.348999 
531.206299 4.266518 
532.180481 0.035968 
532.219971 0.044628 
535.838928 0.01039 
540.187012 0.539588 
543.16748 0.009629 
544.221008 0.02842 
548.212891 1.03739 
549.216736 0.03442 
550.233337 0.012686 
551.165283 0.007837 
553.107178 0.008955 
556.185242 0.027448 
558.197693 9.064092 
559.2005 1.810576 
561.316162 0.013647 
562.603149 0.013199 
566.926697 0.008191 
572.213074 0.012335 
573.431763 0.01241 
573.746887 0.011956 
576.207397 0.942763 
577.211548 0.03192 
582.489319 0.01075 
587.067993 0.01177 
590.22583 0.008937 
601.275452 0.967053 
602.28064 0.068006 
609.242371 0.008389 
611.261963 0.026556 
622.305725 0.009705 
627.258179 0.014299 
629.271606 1.455756 
630.274475 0.182671 
633.263367 0.134895 
647.282288 0.359681 
653.099731 0.008891 
655.249329 0.951032 
656.252197 0.065891 
657.265259 0.218826 
661.272278 0.011468 
673.260437 0.223673 
674.263733 0.012324 
690.689514 0.011314 
709.403809 0.011041 
709.466919 0.008949 
709.543884 0.022664 
709.80249 0.02315 
709.890808 0.018228 
709.969116 0.054714 
710.640686 0.013025 
714.526428 0.010982 
724.690918 0.007302 
729.102661 0.0125 
730.318542 0.192079 
732.335999 0.054527 
733.048157 0.01372 
733.315979 0.012071 
741.202881 0.012315 
744.296631 1.302564 
745.299622 0.203002 
757.63324 0.013054 
760.44458 0.011706 
764.903748 0.011961 
765.681274 0.015121 
788.370544 0.011655 
801.390259 0.027367 
803.597961 0.010665 
807.905212 0.010742 
815.368896 0.187246 
823.073181 0.01333 
829.385864 0.906645 
830.389771 0.096547 
857.38092 1.176177 
858.383606 0.212557 
878.324768 0.010942 
893.947571 0.01404 
898.840698 0.010362 
900.460693 0.036984 
900.555115 0.008494 
915.062073 0.008168 
928.453247 0.999615 
929.456787 0.218902 
960.052795 0.012072 
972.394104 0.011734 
1000.753662 0.011069 
1002.709351 0.009994 
1033.991089 0.01135 
1080.956055 0.011404 
1084.482178 0.014655 
1088.658325 0.0093 
1089.582764 0.010545 
1105.470337 0.011531 
1129.097534 0.01034 
1134.637451 0.009935 
1143.669922 0.008899 
1202.601929 0.013089 
1232.912109 0.010332 
1255.888428 0.010761 
1284.99231 0.010265 
END IONS

