BEGIN IONS
TITLE=Scan Number: 2408
PEPMASS=344.16101
CHARGE=1+
COMPOUNDNAME=Porothramycin hemiaminal
LIBRARYQUALITY=3
SMILES=[H][C@]1(CC(/C=C/C(N(C)C)=O)=CN21)C(O)NC3=C(OC)C=CC=C3C2=O
INCHIKEY=OQMYRVPMCIOFHL-SXAOPLEXSA-N
INCHI=InChI=1S/C18H21N3O4/c1-20(2)15(22)8-7-11-9-13-17(23)19-16-12(18(24)21(13)10-11)5-4-6-14(16)25-3/h4-8,10,13,17,19,23H,9H2,1-3H3/b8-7+/t13-,17?/m0/s1
MSLEVEL=2
SOURCE_INSTRUMENT=LC-ESI-Orbitrap
FILENAME=f.zdenek/QEactinomyces/STDS/std_mix7-25.mzXML;
SEQ=*..*
NOTES=
IONMODE=Positive
ORGANISM=GNPS-LIBRARY
NAME=Porothramycin hemiaminal M+H
SPECTRUMID=CCMSLIB00004721939
ACTIVATION=CID
INSTRUMENT=ion trap
SCANS=2408
71.894516 103994.796875 
72.045082 2865528.5 
73.297813 120119.625 
77.039276 246435.578125 
79.77494 103537.734375 
92.050232 3543779.0 
94.065536 375401.0 
95.049347 955410.3125 
104.049988 464882.1875 
106.065491 716784.375 
107.049911 248099.046875 
110.060898 241438.4375 
116.049988 153546.859375 
119.03775 163231.859375 
120.044418 14256822.0 
122.060493 334966.15625 
132.044373 2294002.25 
134.060501 1301028.5 
135.031479 179729.390625 
135.043396 151315.359375 
136.076355 295176.375 
140.070786 181630.0625 
144.043518 361363.6875 
147.030945 161020.546875 
148.039185 585211.375 
150.05481 18114744.0 
155.416031 129601.25 
160.039444 535978.4375 
162.055435 18055610.0 
164.034073 222516.1875 
165.043106 248458.984375 
165.101517 1485160.5 
176.034973 844421.3125 
177.101318 441318.34375 
180.066528 429221.96875 
180.080292 237472.34375 
183.067001 134203.5625 
188.070465 264844.28125 
190.065308 364093.84375 
193.075714 287026.96875 
195.068207 192853.390625 
201.066574 148056.40625 
205.076828 956695.0625 
206.083069 520153.46875 
207.091507 689171.75 
208.075699 235820.296875 
209.069336 560941.125 
210.078613 1112969.625 
211.062576 378463.1875 
213.104431 117648.226562 
217.074738 264656.1875 
220.062973 249605.328125 
221.050964 206046.65625 
221.069656 874461.8125 
222.058151 186979.375 
222.079727 869210.8125 
225.066956 231034.421875 
225.102188 517291.25 
226.085648 333796.4375 
227.082047 203509.375 
233.070038 914051.9375 
234.078522 314855.34375 
235.086731 1548207.375 
236.071548 302643.75 
236.095642 290694.9375 
237.065369 2438376.5 
237.103592 320269.96875 
238.072678 6518129.0 
239.058334 234152.21875 
239.08287 714001.875 
245.070572 1344590.625 
248.05899 449268.46875 
249.065216 873174.375 
250.072128 872991.0625 
251.079926 873185.9375 
252.087357 200333.1875 
253.096542 9024662.0 
254.080795 220190.796875 
261.06723 133905.765625 
262.074402 461020.46875 
263.083282 11545335.0 
263.111664 281297.40625 
264.065552 153631.5 
264.089996 213384.109375 
265.061493 419159.96875 
266.06723 6099387.5 
281.091003 75701472.0 
282.094879 131840.921875 
326.147858 1932343.875 
330.852081 130395.171875 
END IONS

