BEGIN IONS
PEPMASS=926.511
CHARGE=1+
COMPOUNDNAME=MoNA:688785 Nystatin
LIBRARYQUALITY=3
SMILES=N/A
INCHIKEY=VQOXZBDYSJBXMA-NQTDYLQESA-N
INCHI=InChI=1S/C47H75NO17/c1-27-17-15-13-11-9-7-5-6-8-10-12-14-16-18-34(64-46-44(58)41(48)43(57)30(4)63-46)24-38-40(45(59)60)37(54)26-47(61,65-38)25-36(53)35(52)20-19-31(49)21-32(50)22-33(51)23-39(55)62-29(3)28(2)42(27)56/h5-6,8,10-18,27-38,40-44,46,49-54,56-58,61H,7,9,19-26,48H2,1-4H3,(H,59,60)/b6-5+,10-8+,13-11+,14-12+,17-15+,18-16+/t27-,28-,29-,30+,31+,32+,33+,34-,35+,36+,37-,38-,40+,41-,42+,43+,44-,46-,47+/m0/s1
MSLEVEL=2
SOURCE_INSTRUMENT=LC-ESI-QFT-LC-ESI-QFT
FILENAME=output_mgf.mgf
SEQ=*..*
IONMODE=
ORGANISM=MONA
NAME=MoNA:688785 Nystatin [M+H]+
PI=MoNA
DATACOLLECTOR=MoNA
PUBMED=N/A
SUBMITUSER=mwang87
TAGS=
SPECTRUMID=CCMSLIB00000566825
SCANS=4076
128.0621 99.8049 
129.0699 100.0 
130.0732 3.960359 
130.0778 10.727877 
131.0492 19.814547 
131.0855 42.498154 
132.057 2.269194 
132.0889 1.137188 
132.0936 0.76594 
133.0285 2.813649 
133.0648 26.521851 
133.1012 11.271595 
134.0681 0.60745 
134.0727 0.660758 
135.0441 10.366126 
135.0805 8.62821 
135.1169 1.014182 
137.0598 6.625659 
137.0961 1.062236 
139.039 3.423233 
139.0541 1.75872 
139.0753 1.32591 
141.0699 63.922188 
142.0733 2.287639 
142.0779 20.829743 
143.0492 2.489654 
143.0857 36.218588 
144.0571 6.111233 
144.0888 1.844675 
144.0936 3.880066 
145.0649 32.252661 
145.1013 18.808918 
146.0729 0.931067 
147.0442 18.057769 
147.0805 18.506037 
147.1169 2.048961 
148.0473 0.449246 
149.0234 0.838903 
149.0599 9.148912 
149.096 2.145794 
151.0391 14.363512 
151.0755 3.994347 
152.0622 26.902005 
153.07 46.909591 
154.0779 25.495436 
155.0496 3.442297 
155.0604 12.959273 
155.0856 48.693348 
156.0569 0.501081 
156.0941 6.403712 
157.0649 18.686983 
157.1013 15.568003 
158.0727 2.618776 
158.1096 0.763739 
159.044 4.846878 
159.0805 8.127328 
159.1168 4.153686 
160.052 0.456844 
161.0598 5.61896 
161.0962 3.499686 
161.1323 0.682108 
163.0389 2.214217 
163.0539 0.690448 
163.0753 3.186989 
164.0618 0.777605 
165.07 67.651287 
166.078 26.296711 
167.0857 40.397913 
168.0569 2.578732 
168.087 0.626027 
168.094 9.176689 
169.065 12.385537 
169.1013 20.417491 
170.0726 2.691316 
170.1091 1.955209 
171.0439 0.71415 
171.0805 13.199606 
171.1168 7.033122 
173.0598 6.746326 
173.0962 5.868508 
173.1325 0.61145 
175.0392 5.707189 
175.0753 6.564969 
175.112 0.385035 
176.0618 1.774857 
177.0545 1.839029 
177.0701 3.172274 
178.0778 40.247803 
179.0858 38.727042 
180.0938 9.826718 
181.0648 13.686046 
181.1012 25.084838 
182.0733 4.471287 
183.0807 10.995609 
183.1172 8.408559 
184.0885 0.649259 
184.1252 0.574722 
185.06 5.135083 
185.0963 4.008936 
185.1326 2.281368 
187.0754 2.283598 
187.1117 0.805844 
187.1481 0.370085 
189.055 1.109741 
189.0702 9.422882 
189.0909 2.152891 
190.0778 11.695803 
191.0857 23.455837 
192.0937 14.528161 
193.0863 1.610172 
193.1014 20.311553 
194.0726 4.212687 
194.1096 4.229911 
195.0806 11.609142 
195.117 9.701456 
196.088 2.386472 
196.1243 0.850425 
197.0598 3.00855 
197.0963 8.056311 
197.1322 2.827249 
199.0752 3.606646 
199.1115 0.833464 
199.1478 0.624223 
201.0546 2.182782 
201.0908 2.140543 
202.0778 21.338453 
203.0857 25.16771 
204.0939 14.109223 
205.0651 2.267693 
205.1014 17.826176 
206.0725 1.081449 
206.1094 5.633795 
207.0807 7.126177 
207.1171 9.832801 
208.089 3.249155 
208.1247 0.779235 
209.0597 0.878893 
209.0965 5.224061 
209.1323 2.862235 
210.0679 1.771126 
211.0751 1.92332 
211.1116 2.121221 
211.1479 0.562351 
212.0837 0.494219 
213.0546 0.520736 
213.091 1.099687 
215.0857 15.808622 
216.0939 10.214473 
217.1014 15.38801 
218.0726 2.683858 
218.1096 5.93818 
219.0806 6.59633 
219.1169 9.821092 
220.0879 2.049798 
220.1244 0.758563 
221.0962 7.121183 
221.1328 4.942891 
222.14 0.596802 
223.0755 3.430462 
223.1116 3.035904 
223.1479 0.963577 
225.0909 1.05652 
225.1266 0.471632 
226.0774 2.724602 
227.0697 0.390362 
227.0856 4.781749 
227.107 0.425508 
228.0934 6.99701 
229.1014 12.29402 
230.1095 4.728124 
231.0803 4.889348 
231.117 6.384581 
232.0882 2.679194 
232.1251 3.51475 
233.0961 4.550644 
233.1332 4.622735 
234.0672 0.433417 
234.104 1.786628 
235.0755 0.747105 
235.1116 2.483568 
235.148 1.010245 
236.1563 0.44663 
237.0908 0.970565 
237.1274 1.035742 
239.0855 5.239758 
240.0929 3.072895 
241.0864 0.845498 
241.1014 8.045907 
242.1093 5.43902 
243.0803 0.578242 
243.117 6.892932 
244.0882 0.945687 
244.1238 2.587044 
245.0963 3.85928 
245.1327 4.343041 
246.1038 1.045345 
246.1401 0.806127 
247.0749 1.029449 
247.1122 3.252659 
247.1474 0.625481 
249.0908 1.049611 
249.1265 0.776552 
251.1071 1.37181 
252.094 3.130331 
253.1015 5.646499 
254.1087 2.905421 
255.117 5.758511 
257.0956 2.329011 
257.1324 3.922768 
258.1035 0.821158 
258.1399 0.468478 
259.1116 2.604876 
259.1478 1.7648 
261.0908 0.573848 
261.1268 0.793846 
261.1633 0.762305 
263.1064 0.726913 
265.1013 2.577172 
266.1083 1.975477 
267.1168 4.069753 
268.1242 1.03954 
269.0961 1.006139 
269.1324 2.431288 
270.1397 0.805805 
271.1115 1.057338 
271.1484 1.013645 
272.1189 0.488285 
273.0915 0.634026 
275.1426 0.669961 
279.1163 2.491379 
280.1242 0.74345 
281.1325 0.862095 
282.1398 0.57154 
283.1477 0.759907 
285.1281 0.657865 
287.1419 0.464504 
293.1326 0.663349 
295.1477 0.593573 
297.1638 0.470072 
305.1329 0.650104 
END IONS

