BEGIN IONS
PEPMASS=455.0
CHARGE=1+
COMPOUNDNAME=Massbank:KO003958 Ribostamycin|Vistamycin
LIBRARYQUALITY=3
SMILES=NC[C@@H](O1)[C@@H](O)[C@H](O)[C@@H](N)[C@H]1O[C@H]([C@@H](N)2)[C@H](O[C@H](O3)[C@H](O)[C@H](O)[C@@H](CO)3)[C@@H](O)[C@H](N)C2
INCHIKEY=NSKGQURZWSPSBC-VVPCINPTSA-N
INCHI=1S/C17H34N4O10/c18-2-6-10(24)12(26)8(21)16(28-6)30-14-5(20)1-4(19)9(23)15(14)31-17-13(27)11(25)7(3-22)29-17/h4-17,22-27H,1-3,18-21H2/t4-,5+,6-,7-,8-,9+,10-,11-,12-,13-,14-,15-,16-,17-/m1/s1
MSLEVEL=2
SOURCE_INSTRUMENT=ESI-LC-ESI-QQ
FILENAME=Massbank_ESI_positive_8_1_2014_peaks.mgf
SEQ=*..*
IONMODE=Positive
ORGANISM=MASSBANK
NAME=Massbank:KO003958 Ribostamycin|Vistamycin [M+H]+
PI=Putative Massbank Match
DATACOLLECTOR=Massbank
PUBMED=N/A
SUBMITUSER=mwang87
TAGS=
SPECTRUMID=CCMSLIB00000220433
SCANS=9750
143.1 64356.5 
161.1 544555.0 
163.3 1331684.5 
166.0 24752.5 
198.9 19802.0 
239.4 306931.0 
259.5 19802.0 
275.4 29703.0 
277.4 34653.5 
289.0 227723.0 
290.3 84158.5 
293.4 79208.0 
295.7 1262377.5 
308.0 153465.5 
323.5 564357.0 
333.1 49505.0 
379.3 118812.0 
419.3 29703.0 
438.6 39604.0 
455.7 5292084.5 
END IONS

