BEGIN IONS
PEPMASS=319.131
CHARGE=1+
COMPOUNDNAME=(1R,2E,7R,10E,12S,13S,15R)-12,15-dihydroxy-7-methyl-8-oxabicyclo[11.3.0]hexadeca-2,10-dien-9-one
LIBRARYQUALITY=3
SMILES=N/A
INCHIKEY=KQNZDYYTLMIZCT-SWGFJCPHSA-N
INCHI=InChI=1S/C16H24O4/c1-11-5-3-2-4-6-12-9-13(17)10-14(12)15(18)7-8-16(19)20-11/h4,6-8,11-15,17-18H,2-3,5,9-10H2,1H3/b6-4+,8-7+/t11-,12+,13-,14+,15+/m1/s1
MSLEVEL=2
SOURCE_INSTRUMENT=N/A-ESI-QFT
FILENAME=library_mgf.mgf
SEQ=*..*
IONMODE=positive
ORGANISM=MONA
NAME=(1R,2E,7R,10E,12S,13S,15R)-12,15-dihydroxy-7-methyl-8-oxabicyclo[11.3.0]hexadeca-2,10-dien-9-one [M+K]+
PI=MoNA
DATACOLLECTOR=MoNA:VF-NPL-QEHF022876
PUBMED=N/A
SUBMITUSER=mwang87
TAGS=
SPECTRUMID=CCMSLIB00004713939
SCANS=22876
50.475807 0.020344 
50.5504 0.014888 
50.685753 0.022133 
50.781803 0.014626 
51.610935 0.018603 
51.872459 0.017132 
51.940323 0.030115 
52.961197 0.02637 
53.414551 0.0251 
55.054577 0.731614 
55.055859 0.02092 
55.934715 0.176388 
56.434582 0.017286 
56.96508 0.5226 
57.033783 0.10264 
57.070179 1.345198 
57.934975 0.016694 
58.065437 0.662331 
59.020893 0.014598 
59.049438 0.041975 
60.044682 0.217229 
61.010891 2.712238 
61.830181 0.015193 
62.018745 0.262997 
63.997925 0.159736 
64.155617 0.021708 
65.03875 0.551183 
67.054382 1.654739 
68.108131 0.017002 
68.211082 0.024059 
68.927223 0.017287 
68.942787 0.090954 
69.033592 0.085305 
69.069984 1.084567 
69.558006 0.022537 
70.065224 0.254874 
70.851959 0.015243 
70.957932 0.022202 
71.04921 0.252478 
71.085602 0.743078 
72.05574 0.023721 
72.080841 0.480539 
72.428543 0.018925 
72.937202 1.145958 
73.028419 0.032256 
73.064812 0.068424 
74.059853 0.018858 
75.807083 0.024617 
76.6213 0.016598 
77.651054 0.016604 
77.876106 0.022194 
78.644341 0.01882 
78.695366 0.01944 
79.021271 5.17092 
79.054253 0.682657 
79.718758 0.018666 
79.756912 0.023783 
80.012703 0.022311 
80.02462 0.019112 
80.049553 0.17263 
81.017052 0.069278 
81.03363 0.035715 
81.069923 3.080528 
82.073318 0.061351 
82.789612 0.018373 
83.049263 0.136901 
83.085571 1.02397 
84.080826 0.084365 
84.459129 0.024966 
84.93766 0.624531 
84.971924 0.140862 
85.039711 0.611787 
85.064896 0.259538 
85.10125 0.419642 
85.979698 0.271324 
86.060165 0.018222 
86.096458 0.286194 
87.044098 0.214939 
88.047913 0.024449 
88.075745 0.212641 
88.968674 0.038531 
89.038734 0.021253 
89.059784 0.819143 
89.079201 0.018683 
89.963753 0.062276 
90.9478 1.060914 
91.054283 100.0 
92.057625 4.313098 
92.060921 0.05999 
93.069954 1.129867 
94.073601 0.020629 
95.049194 0.109902 
95.06015 0.032936 
95.085571 3.366683 
95.634399 0.015937 
96.088943 0.089776 
97.047668 0.021746 
97.064842 0.145794 
97.10125 0.769851 
99.044044 0.111923 
99.080513 0.159661 
99.880905 0.019445 
100.075722 0.03267 
100.814522 0.023069 
101.003151 0.050149 
102.948273 3.110512 
103.642326 0.02324 
103.948334 0.284412 
104.107208 0.022866 
105.033508 0.023481 
105.069977 0.751748 
106.086327 0.376657 
107.049126 0.651026 
107.085701 0.852141 
107.089378 0.045819 
108.958366 0.265169 
109.064705 0.088752 
109.101234 1.580132 
111.043945 0.020047 
111.080421 0.167634 
111.116837 0.168039 
111.791183 0.017484 
113.059525 0.067209 
113.096306 0.056347 
113.963966 0.043871 
114.091141 0.024485 
114.948402 0.321637 
115.074867 0.018314 
116.023354 0.025131 
116.963799 1.288834 
116.985443 0.052894 
117.069878 0.254211 
117.963959 0.027897 
118.943146 0.507489 
119.08564 0.71292 
119.732056 0.025046 
119.951004 0.216146 
120.080879 17.103718 
120.958809 0.90615 
121.064812 0.818144 
121.084152 0.789563 
121.101273 0.953362 
121.718925 0.019788 
121.959335 0.017089 
123.08033 0.168117 
123.116829 0.803383 
125.023636 0.022535 
125.096222 0.079029 
125.960968 0.018933 
126.054794 0.056769 
127.036491 0.060931 
128.963547 0.49203 
129.069962 0.082058 
130.775879 0.01726 
130.959152 0.023643 
130.97937 0.551242 
131.085602 0.470661 
131.951004 0.519676 
132.101776 0.079199 
132.958786 0.304845 
133.064575 0.094177 
133.08606 0.033457 
133.095749 0.024658 
133.101288 0.517485 
133.959259 0.046382 
133.966309 0.161361 
134.096603 0.022942 
134.109116 0.028225 
134.956207 0.362207 
134.974091 0.384813 
134.979156 0.06451 
134.996597 0.019355 
135.080444 0.205404 
135.116791 0.4806 
136.111969 0.068485 
137.011673 0.0621 
137.05983 0.041762 
137.09613 0.333868 
137.132477 0.131549 
138.983963 0.074561 
140.984497 0.094996 
142.534271 0.026605 
142.979462 0.102835 
143.085724 0.16592 
143.951004 0.052476 
143.974106 0.021682 
144.92038 0.058222 
144.958542 0.150501 
144.994934 0.377216 
145.101273 0.301997 
146.974289 1.940498 
147.01239 0.01552 
147.080521 0.121375 
147.11676 0.279337 
147.97467 0.106061 
148.112152 0.034727 
148.719162 0.015931 
148.955795 0.460508 
148.971985 0.25346 
148.98996 0.230243 
149.059769 0.020694 
149.096207 0.13876 
149.132584 0.191451 
149.954239 0.2209 
149.960815 0.063942 
150.127563 0.028137 
150.951096 2.01593 
150.968933 0.175811 
150.983963 0.090569 
151.07518 0.052953 
151.111801 0.04648 
152.070511 0.071954 
152.951508 0.65205 
152.966766 0.230245 
152.989441 0.244213 
152.998795 0.021599 
153.959686 0.070796 
154.946945 0.745472 
154.967072 0.05465 
155.000244 0.101159 
155.022034 0.016617 
155.106308 0.061296 
155.300476 0.022467 
155.955215 0.023428 
156.543289 0.022577 
156.94458 0.056731 
156.96257 0.193989 
156.995209 0.063503 
157.015793 0.059757 
157.101074 0.132745 
157.576843 0.023283 
157.945251 0.023253 
157.990692 0.01983 
158.011093 0.050425 
158.944168 0.125797 
158.974152 0.196998 
158.995544 0.057447 
159.080292 0.031675 
159.116821 0.31414 
159.943832 0.588321 
159.982193 0.059999 
160.112183 0.01967 
160.941727 0.084445 
160.952148 0.07415 
160.990143 0.944609 
161.011154 0.084668 
161.096161 0.034253 
161.132599 0.134501 
161.546188 0.021231 
161.961548 0.025405 
162.091187 0.05423 
162.971405 0.575604 
163.005692 0.746555 
163.075272 0.044228 
163.111465 0.017669 
163.147903 0.112492 
163.96756 0.717937 
163.976181 0.065046 
164.106812 0.127351 
164.966614 0.037223 
164.985931 0.021903 
164.999664 0.061119 
165.091049 0.476968 
165.563202 0.048488 
165.962997 0.214943 
166.12207 0.035965 
166.581848 0.062851 
166.966507 0.311506 
166.999786 0.025061 
167.117569 0.023752 
167.964813 0.044065 
168.138245 0.149863 
168.961823 1.189643 
168.981171 0.020619 
168.994736 0.445917 
169.016205 0.225834 
170.961945 0.170293 
170.975098 0.018784 
170.99469 0.023601 
171.032593 0.027498 
171.054306 0.038343 
171.062729 4.860485 
171.116867 0.04356 
172.005722 0.023357 
172.026688 0.016775 
172.066223 0.288841 
172.95752 0.244274 
172.990097 0.075406 
173.010803 0.079139 
173.078491 0.516528 
173.132523 0.101099 
173.984955 0.030279 
174.005798 0.073753 
174.127197 0.027517 
174.99025 0.093791 
175.00589 0.029901 
175.111389 0.028497 
175.148087 0.17793 
176.001511 0.031519 
176.021179 0.02153 
176.985245 0.030812 
177.091248 0.018874 
177.127548 0.0211 
177.954437 0.158336 
177.992523 0.167502 
178.016769 0.023459 
178.462631 0.018495 
179.001175 0.428338 
179.022507 0.123048 
179.962967 0.051344 
180.004883 0.097623 
180.023529 0.057642 
180.961212 0.020647 
180.982208 0.743538 
180.993805 0.025064 
181.017319 0.173168 
181.100296 0.027831 
181.978226 0.035083 
181.987869 0.027527 
181.996735 1.401573 
182.117783 0.644221 
182.943436 0.021285 
182.962128 0.024955 
182.976913 0.076939 
182.997192 0.078643 
183.010712 0.028792 
183.101761 0.138831 
183.514481 0.024269 
184.939941 0.081056 
184.958389 0.024811 
184.9897 0.047181 
185.011337 0.059806 
185.132385 0.108305 
185.949127 0.021106 
185.998108 0.056058 
186.021759 0.030197 
186.878311 0.054398 
186.990189 0.119783 
187.005295 0.059744 
187.027206 0.2996 
187.057953 0.102998 
188.000336 0.052044 
188.021637 0.049165 
188.14325 0.025549 
188.96701 0.019861 
189.005783 0.312739 
189.091064 0.02206 
189.12735 0.022519 
190.017151 0.036295 
190.873215 0.196287 
190.966095 0.04772 
191.000732 0.42176 
191.036514 0.019623 
191.880814 1.425545 
192.138779 0.020765 
192.880402 0.106171 
192.88913 0.100117 
192.961777 0.840041 
192.979599 0.053594 
192.994598 0.063266 
194.943283 0.227085 
196.041885 0.027583 
196.990829 0.022649 
197.012222 2.516822 
197.022339 0.029073 
197.047485 0.100584 
197.061493 0.025875 
198.015472 1.104843 
198.878754 0.052017 
199.006729 0.109909 
199.027771 0.194906 
199.111908 0.024104 
199.132874 0.885741 
199.14827 0.215782 
199.16922 0.135335 
200.007446 0.795801 
200.954941 0.029699 
201.00563 0.314684 
201.112503 0.049747 
201.138519 0.059305 
202.999222 0.021749 
203.143021 0.019085 
204.007721 0.025833 
204.888947 0.026177 
204.924469 0.035384 
205.016541 0.142918 
205.030792 0.028711 
205.988007 0.021448 
206.118149 0.023912 
206.867889 0.260662 
206.977646 0.817311 
207.010727 0.065051 
207.031509 0.066651 
207.069199 0.166027 
207.875839 0.691827 
208.883728 2.604957 
208.97551 0.018905 
209.010925 0.034635 
209.891724 2.732627 
209.927032 0.287054 
209.973099 1.290659 
210.881744 0.02205 
210.890671 0.111026 
210.899841 0.198234 
210.97226 0.565513 
211.026703 0.017898 
211.122879 0.070663 
211.148773 0.025133 
211.890213 0.041922 
211.909668 0.022546 
211.968521 0.536122 
212.10701 0.033204 
212.933319 0.052868 
212.954132 0.025037 
212.972427 0.040477 
212.984634 0.13821 
213.043228 0.023181 
213.128662 0.024596 
213.138794 0.606089 
214.0392 0.024364 
214.873764 0.038731 
214.915359 0.282659 
214.92453 0.392692 
214.937531 0.191396 
214.949738 0.028622 
215.022919 1.224465 
215.03566 0.136711 
215.089096 12.519727 
215.154465 0.66555 
216.026245 0.440405 
216.092392 1.046237 
216.888855 0.539149 
216.99472 0.029238 
217.05101 0.113218 
217.104767 1.253963 
218.904007 0.096147 
219.016678 0.022566 
219.174149 0.262643 
220.169312 0.267432 
220.903412 0.640438 
220.954987 0.061258 
222.898773 1.614789 
223.006134 0.024291 
223.026901 0.020482 
223.041733 0.034747 
224.073425 0.037864 
224.878571 0.597781 
225.007202 0.019405 
225.021133 0.138176 
225.079681 0.041593 
225.886566 1.107191 
226.122711 0.030857 
226.894577 0.707766 
227.022049 0.025063 
227.90123 0.732059 
227.982819 0.122622 
228.998505 0.023579 
229.132843 0.022135 
229.89595 2.392498 
229.920395 0.306491 
229.979187 0.027956 
230.153992 0.030123 
231.031448 0.084119 
231.053207 0.046411 
231.08403 0.313248 
231.137177 0.022623 
231.897034 0.020346 
232.883698 1.532884 
232.904755 0.033839 
232.919617 0.042812 
232.95845 0.019665 
233.047836 0.029885 
233.069382 0.029125 
233.892014 1.35453 
233.90419 0.058395 
234.899384 10.507755 
235.005234 0.020045 
235.026413 0.02094 
235.870514 0.020192 
235.889786 0.32108 
235.901459 1.109937 
236.62059 0.020157 
236.89949 0.411012 
237.887512 0.366263 
237.908035 0.025015 
238.894547 0.091723 
238.914307 1.085384 
238.967651 0.087973 
239.005447 0.080868 
239.912445 0.034316 
240.008484 0.051146 
240.895844 0.026281 
240.909302 2.504793 
241.001236 0.023773 
241.015305 0.068075 
241.051056 0.211406 
241.911621 0.034446 
241.948334 0.04367 
241.999847 0.565872 
242.034515 0.025509 
242.047043 0.777585 
242.910461 1.089897 
242.944031 0.709439 
243.031265 0.152463 
244.904037 0.149118 
244.921158 0.208893 
244.989349 0.017242 
245.153305 0.208227 
245.911499 0.559801 
245.93129 0.287462 
246.063965 0.024039 
246.898727 0.642483 
246.919769 0.093795 
247.11557 0.024331 
247.906738 2.044441 
248.878357 2.852719 
248.914322 0.243947 
249.879059 0.350298 
250.880508 0.091822 
250.89415 5.309761 
251.051712 0.028426 
251.894165 0.764297 
252.895187 0.183735 
252.90979 0.712782 
252.950439 0.018617 
253.067703 0.05571 
253.902328 2.608238 
254.070724 0.019677 
254.902893 0.254901 
255.067917 0.026801 
255.897598 1.127124 
255.918228 0.01956 
256.897919 0.042917 
257.015472 0.606854 
258.018646 0.890096 
258.063721 0.230778 
258.148804 0.075495 
258.182861 0.034049 
258.808685 0.054664 
258.899231 1.638866 
258.938904 0.358074 
258.959534 0.108784 
259.011566 0.378521 
259.025787 0.04829 
259.047699 0.393595 
259.06189 1.156052 
259.085052 0.12492 
259.115387 0.648118 
259.958008 0.502305 
260.010986 0.039484 
260.057922 3.412344 
260.20047 0.089607 
260.921417 0.777265 
260.938965 0.195588 
260.954468 1.755577 
261.009094 0.117502 
261.042084 1.217997 
261.061523 0.261996 
261.130951 1.673919 
261.157837 0.028642 
261.887146 0.024235 
261.905975 0.025612 
262.133698 0.034961 
262.180237 0.91312 
262.897858 0.026078 
262.91391 2.43766 
262.930603 0.983865 
263.184174 0.026114 
263.899292 0.026205 
263.914581 0.155783 
264.19577 0.168483 
264.909454 3.887794 
264.92865 0.32063 
265.910645 0.135615 
266.888947 2.088823 
266.908447 0.071558 
267.889832 0.235678 
268.888367 0.02061 
268.904602 0.652083 
269.820923 0.160551 
269.905304 0.021902 
270.11438 0.027631 
271.060364 0.018848 
271.077026 0.02286 
271.913116 0.141171 
273.076935 0.1558 
273.093414 0.025704 
273.907288 0.049516 
274.894012 2.145723 
274.929932 0.04387 
275.0401 0.025643 
275.094482 0.048452 
275.110138 0.401729 
275.131805 0.135156 
275.151947 0.023698 
275.811462 0.25947 
275.90274 1.322987 
276.029724 0.04534 
276.090118 0.01946 
276.818604 0.127804 
276.909912 6.844649 
276.927094 0.237722 
277.095764 0.127387 
277.825104 0.054469 
277.900299 2.306045 
278.902649 0.330764 
278.927429 0.164297 
279.804871 0.021281 
279.897522 1.620348 
279.916779 0.684574 
280.813171 0.532151 
280.898163 0.033702 
280.924561 1.67509 
281.118011 0.031623 
281.82077 0.147142 
281.91098 0.736096 
282.115051 0.549832 
282.919678 2.216726 
284.80719 0.059238 
284.920227 0.095304 
285.197021 0.02611 
285.815948 0.461496 
286.823181 0.100093 
286.914093 0.053118 
287.83139 0.662284 
288.081146 0.047035 
288.838867 0.027777 
288.909363 2.205188 
289.126038 0.415581 
289.147156 0.057207 
289.911377 0.187251 
290.910156 0.02788 
291.14447 0.101279 
291.806 0.051003 
291.896301 0.053261 
292.121094 0.026924 
292.904419 0.26634 
292.94104 0.149497 
293.820892 0.093465 
294.693634 0.024 
294.828613 0.980547 
294.920258 0.394537 
294.939453 0.123255 
295.819641 0.031982 
295.83609 0.165134 
295.912079 0.825641 
295.928741 0.41011 
296.808228 0.071629 
296.912048 0.116944 
296.933533 0.017016 
297.816071 0.716917 
297.907715 0.735439 
298.109344 0.030642 
298.909485 0.025936 
299.128662 0.189372 
300.125519 1.335308 
300.197144 0.035702 
301.110931 0.246124 
301.128601 0.041643 
301.810608 0.085302 
302.175079 0.033669 
302.211304 0.362556 
302.247498 0.124743 
302.818054 0.638249 
303.034637 0.06194 
303.170868 0.065228 
304.122955 0.061214 
304.177521 0.025644 
304.190826 0.023989 
304.22699 0.029175 
304.924377 0.661475 
305.922852 0.6896 
306.82901 0.027417 
306.9198 6.322048 
307.921478 0.364861 
307.947357 0.066522 
308.809204 0.086402 
309.816895 0.067647 
309.835388 0.025387 
310.216064 0.018894 
310.824646 0.057294 
310.843445 0.399871 
310.914948 0.538224 
311.830536 1.786298 
311.915161 0.028763 
312.838989 11.173829 
313.839905 0.947344 
314.840576 0.324843 
315.826355 0.030794 
317.135834 0.341075 
317.159149 0.277366 
317.192139 0.87186 
317.223511 0.570872 
317.324341 1.572101 
317.841156 0.109625 
318.090973 0.285389 
318.134399 0.193267 
318.152405 0.071226 
318.169952 0.199912 
318.193939 0.104678 
318.206421 0.291896 
318.242615 3.416052 
318.278015 0.994461 
318.313812 0.104396 
318.827484 0.027194 
319.136322 92.669403 
319.172333 6.061857 
319.241394 0.895233 
319.27475 0.856703 
319.299164 0.186214 
319.836487 1.341582 
320.090515 0.071056 
320.139984 12.154691 
320.184631 1.703555 
320.221527 0.914021 
320.257935 2.554416 
320.293732 0.934656 
320.920227 0.139365 
321.04541 0.045386 
321.152283 6.115362 
321.196533 4.165962 
321.21637 0.318518 
321.256622 0.222835 
322.824127 0.292015 
322.935577 0.038017 
323.83075 0.054533 
323.934753 0.039498 
324.930695 3.259938 
325.830231 0.437963 
325.931946 0.303732 
326.817963 2.371662 
327.82608 3.355691 
328.832306 0.446363 
329.842041 1.233959 
330.849487 0.43191 
333.816956 0.028808 
335.095093 0.027497 
335.830902 0.180167 
336.83902 2.555836 
337.132782 0.171476 
337.846619 0.963465 
338.818512 0.031869 
339.218689 0.025935 
339.826965 0.067796 
342.833679 0.13459 
343.835205 0.027083 
344.829132 8.908875 
END IONS

