BEGIN IONS
PEPMASS=180.0
CHARGE=1+
COMPOUNDNAME=Massbank:KO002884 Butyl pyridine-2-carboxylate|2-Pyridinecarboxylic acid, butyl ester|Butyl 2-pyridinecarboxylate|Fusaric acid
LIBRARYQUALITY=3
SMILES=CCCCc(c1)cnc(c1)C(O)=O
INCHIKEY=DGMPVYSXXIOGJY-UHFFFAOYSA-N
INCHI=1S/C10H13NO2/c1-2-3-4-8-5-6-9(10(12)13)11-7-8/h5-7H,2-4H2,1H3,(H,12,13)
MSLEVEL=2
SOURCE_INSTRUMENT=ESI-LC-ESI-QQ
FILENAME=Massbank_ESI_positive_8_1_2014_peaks.mgf
SEQ=*..*
IONMODE=Positive
ORGANISM=MASSBANK
NAME=Massbank:KO002884 Butyl pyridine-2-carboxylate|2-Pyridinecarboxylic acid, butyl ester|Butyl 2-pyridinecarboxylate|Fusaric acid [M+H]+
PI=Putative Massbank Match
DATACOLLECTOR=Massbank
PUBMED=N/A
SUBMITUSER=mwang87
TAGS=
SPECTRUMID=CCMSLIB00000218272
SCANS=8686
36.3 54455.5 
45.1 14851.5 
45.8 84158.5 
54.2 1673269.0 
57.1 64356.5 
59.3 14851.5 
72.1 455446.0 
73.2 59406.0 
76.3 59406.0 
78.1 178218.0 
79.2 49505.0 
80.3 19802.0 
87.1 138614.0 
88.3 133663.5 
89.0 519802.5 
90.8 54455.5 
94.2 44554.5 
95.9 292079.5 
98.9 64356.5 
99.7 34653.5 
100.9 495050.0 
101.4 99010.0 
106.0 4445549.0 
106.9 1915843.5 
108.4 34653.5 
112.9 64356.5 
116.2 683169.0 
117.2 371287.5 
118.2 440594.5 
119.8 138614.0 
121.2 54455.5 
124.2 56539660.5 
131.0 326733.0 
134.2 4217826.0 
145.1 193069.5 
148.4 435644.0 
162.3 297030.0 
163.3 30544585.0 
180.2 301490400.5 
END IONS

