BEGIN IONS
PEPMASS=345.134
CHARGE=1+
COMPOUNDNAME=gibberellic acid
LIBRARYQUALITY=3
SMILES=N/A
INCHIKEY=IXORZMNAPKEEDV-OBDJNFEBSA-N
INCHI=InChI=1S/C19H22O6/c1-9-7-17-8-18(9,24)5-3-10(17)19-6-4-11(20)16(2,15(23)25-19)13(19)12(17)14(21)22/h4,6,10-13,20,24H,1,3,5,7-8H2,2H3,(H,21,22)/t10-,11+,12-,13-,16-,17+,18+,19-/m1/s1
MSLEVEL=2
SOURCE_INSTRUMENT=N/A-ESI-QFT
FILENAME=library_mgf.mgf
SEQ=*..*
IONMODE=negative
ORGANISM=MONA
NAME=gibberellic acid [M-H]-
PI=MoNA
DATACOLLECTOR=MoNA:VF-NPL-QEHF000261
PUBMED=N/A
SUBMITUSER=mwang87
TAGS=
SPECTRUMID=CCMSLIB00004691324
SCANS=261
50.527477 0.048343 
51.656578 0.042613 
52.252953 0.049596 
53.342602 0.051015 
54.179176 0.059174 
54.682194 0.056433 
54.86977 0.065442 
55.01762 0.739651 
55.270084 0.048003 
55.310249 0.06215 
55.849499 0.054594 
56.219433 0.04764 
56.492565 0.061284 
57.033234 0.164555 
58.135838 0.044486 
59.012428 0.06718 
59.481281 0.050105 
59.623116 0.054339 
59.661476 0.04559 
61.248638 0.046948 
61.49662 0.066778 
64.409668 0.04905 
64.553932 0.053986 
65.122536 0.048792 
65.404709 0.051243 
67.048637 0.048866 
69.033272 0.379224 
69.216652 0.052838 
69.339218 0.048725 
69.70118 0.049099 
69.997879 0.051391 
70.696228 0.057102 
71.048897 9.992719 
71.701149 0.054876 
71.924591 0.056132 
71.950836 0.05184 
72.052391 0.055678 
72.455467 0.049142 
73.028145 2.880399 
74.02346 0.054047 
80.006721 0.050466 
80.672165 0.052109 
81.643661 0.051967 
81.778 0.056473 
83.048927 8.12468 
84.052231 0.057816 
86.77523 0.058128 
86.793953 0.046163 
88.49041 0.051012 
89.560593 0.064499 
89.602295 0.049729 
90.487183 0.053357 
94.237389 0.046818 
102.737366 0.054909 
105.069633 1.750035 
107.049042 0.209866 
111.308945 0.056144 
111.941566 0.057354 
114.126015 0.045827 
115.85685 0.049673 
117.548744 0.053297 
119.085419 0.256571 
120.051514 0.054909 
121.064743 0.295636 
121.57711 0.054602 
121.603745 0.050081 
123.03569 0.068299 
124.739395 0.048473 
128.061874 0.047692 
131.964951 0.062232 
133.064835 0.479579 
137.069641 0.054572 
142.145218 0.048229 
143.085495 100.0 
144.056824 0.207693 
144.088837 11.948649 
144.997726 0.046522 
145.092377 0.181226 
145.101288 0.219228 
146.072601 0.437644 
149.095963 0.055755 
155.085495 0.18538 
156.833206 0.057953 
157.064972 0.128658 
159.080765 0.116506 
161.096252 0.991808 
169.101395 0.141776 
170.037994 0.054799 
171.080841 0.808635 
171.881226 0.050824 
173.09639 0.049171 
174.098404 0.056858 
176.890198 0.056942 
178.154282 0.060153 
179.085861 0.625314 
183.011353 1.810799 
183.080826 1.636779 
183.117111 0.109232 
184.236786 0.061074 
185.096375 0.60819 
187.223206 0.059652 
189.244324 0.052718 
190.023376 0.05047 
192.094864 0.098623 
193.101562 3.317963 
194.104767 0.121745 
197.026993 0.27665 
197.096664 0.212385 
197.132965 0.514817 
199.075851 0.369449 
199.112534 0.159873 
201.128326 0.073473 
202.119858 0.058357 
205.101715 4.408293 
205.834229 0.053568 
206.109161 0.343039 
209.09671 3.586502 
209.354095 0.055691 
211.07579 0.148409 
213.12825 0.130001 
214.131271 0.050384 
219.117462 4.161252 
220.120422 0.412488 
220.522263 0.239679 
220.533661 0.220195 
220.545822 0.232562 
220.55365 0.100625 
221.133194 14.127773 
222.136459 2.618926 
226.65152 0.058277 
227.107391 7.917434 
228.110794 0.940366 
229.086792 0.056916 
237.128113 0.058047 
240.116791 0.053918 
249.881454 0.053433 
250.630112 0.058308 
255.892227 0.050324 
259.461639 0.073213 
271.093048 0.056121 
279.935608 0.054448 
280.376953 0.054669 
286.755219 0.063881 
292.943726 0.05135 
301.258942 0.050749 
302.404327 0.047155 
313.91861 0.048052 
327.989532 0.063805 
331.14505 0.060006 
332.248047 0.046632 
335.915253 0.059601 
338.794739 0.054736 
367.345734 0.050876 
382.949127 0.059728 
386.546875 0.051774 
END IONS

