BEGIN IONS
PEPMASS=477.107
CHARGE=1+
COMPOUNDNAME=MoNA:938463 Chlortetracycline
LIBRARYQUALITY=3
SMILES=N/A
INCHIKEY=DHPRQBPJLMKORJ-UHFFFAOYSA-N
INCHI=InChI=1S/C22H23ClN2O8/c1-21(32)7-6-8-15(25(2)3)17(28)13(20(24)31)19(30)22(8,33)18(29)11(7)16(27)12-10(26)5-4-9(23)14(12)21/h4-5,7-8,15,26-27,30,32-33H,6H2,1-3H3,(H2,24,31)
MSLEVEL=2
SOURCE_INSTRUMENT=LC-ESI-QFT-LC-ESI-QFT
FILENAME=output_mgf.mgf
SEQ=*..*
IONMODE=
ORGANISM=MONA
NAME=MoNA:938463 Chlortetracycline [M-H]-
PI=MoNA
DATACOLLECTOR=MoNA
PUBMED=N/A
SUBMITUSER=mwang87
TAGS=
SPECTRUMID=CCMSLIB00000568575
SCANS=5826
50.0036 1.740209 
55.0188 0.731633 
57.0346 0.928176 
59.0138 6.979586 
63.024 26.346926 
65.0033 11.433627 
65.0397 13.799075 
65.9985 12.654553 
67.0062 4.831099 
67.0189 2.194461 
68.0142 2.157445 
68.9982 15.660609 
69.0346 2.059613 
71.0139 0.713147 
75.024 3.072096 
77.0397 2.500296 
78.0349 0.58146 
79.019 2.617976 
79.0553 5.2165 
81.0346 5.595446 
83.0138 1.870491 
83.0502 6.667999 
84.009 12.829185 
86.0247 0.463824 
89.0397 8.806738 
90.0349 0.672969 
91.019 9.822998 
91.0553 1.005282 
93.0346 19.975454 
95.0138 5.795896 
95.0503 6.655177 
96.0091 8.432666 
96.9931 2.757874 
97.0293 1.492775 
103.019 0.605172 
103.0555 0.771109 
105.0345 10.81559 
107.0139 4.475557 
107.0502 12.409007 
108.0217 7.291613 
109.0295 19.84346 
111.0091 0.658523 
111.0452 10.473002 
115.0189 4.075974 
115.0555 0.478008 
117.0346 21.79637 
118.03 1.977764 
119.0139 8.975485 
119.0501 3.31795 
120.009 0.511028 
121.0295 9.338404 
121.0659 2.883765 
122.0248 0.811989 
122.0372 2.495159 
123.0452 20.590901 
124.004 0.702828 
124.98 18.083447 
125.9876 0.791176 
126.056 4.815643 
126.9956 82.2086 
129.0348 0.606884 
130.0425 0.615139 
131.0138 2.583243 
131.0502 2.632422 
132.0217 4.465458 
133.0295 25.449005 
134.0248 13.21419 
135.0088 17.765756 
135.0452 15.204468 
136.0161 0.904947 
136.0402 2.189982 
137.0244 3.925888 
138.0324 0.703882 
139.0149 12.591235 
141.0345 0.857876 
141.9826 3.176208 
143.0139 0.626732 
143.0501 3.481165 
145.0294 7.057703 
146.0372 0.856514 
147.0451 4.557494 
149.0242 3.947404 
149.0609 2.65609 
149.9959 0.467689 
150.0197 2.138827 
150.9956 30.356596 
153.0114 5.617796 
153.0176 0.49623 
154.9905 0.848171 
157.0294 0.727067 
158.0371 2.750717 
159.0089 2.815485 
159.045 2.185372 
160.0165 6.03108 
161.0245 7.003956 
162.0198 6.537322 
163.0037 3.167689 
163.0275 0.501543 
163.0397 0.811506 
166.9903 0.467864 
167.0503 4.638113 
169.0062 100.0 
170.0373 1.863114 
171.0452 6.709582 
173.0244 2.15582 
174.0322 0.531973 
175.04 1.93965 
176.0116 0.83917 
177.0114 2.087057 
177.0306 1.806733 
178.0425 0.439015 
178.9905 7.965899 
179.0501 0.841365 
179.9983 0.873815 
180.0581 3.357689 
181.0659 2.605857 
182.0373 5.625085 
183.0451 5.982383 
184.0525 0.888788 
185.0245 1.865134 
187.0401 2.399434 
190.0273 0.595643 
191.027 1.632936 
191.0499 2.388676 
191.9984 3.631997 
193.0061 2.772277 
193.0295 0.81076 
194.9854 74.267071 
195.0451 7.51718 
196.053 3.635553 
197.0009 0.596038 
197.0245 3.557964 
197.0608 2.896762 
198.0323 9.787299 
199.0399 0.69611 
199.0762 0.611231 
201.0113 2.047713 
203.0269 1.725938 
205.0063 4.54454 
206.014 10.6951 
207.0217 6.216864 
207.045 3.407527 
207.9933 1.494926 
209.0246 0.798245 
209.061 3.063753 
211.0403 7.552352 
212.048 3.955879 
215.0272 0.909953 
217.0059 0.772119 
217.0429 0.993163 
219.0223 2.992267 
219.045 3.877016 
220.0295 0.786258 
220.0528 0.833944 
221.0014 3.873503 
221.0608 0.961328 
222.0322 6.234867 
223.0403 3.866346 
224.0483 3.11447 
225.0561 1.527639 
226.0275 1.747849 
227.0351 0.95057 
229.0063 4.903683 
230.0135 0.840355 
231.0214 1.00155 
231.9935 0.489424 
235.0169 3.349039 
235.0402 5.820925 
236.0469 0.532456 
237.0557 3.45113 
238.0039 4.050023 
240.0429 5.963985 
243.0215 4.992469 
245.001 2.830634 
245.0376 1.926213 
247.0169 2.131669 
247.0399 1.824034 
248.0476 1.55864 
249.055 0.664143 
250.0267 0.806852 
253.0503 0.530129 
257.0369 2.076167 
258.0084 0.549493 
259.0167 1.693445 
260.0474 0.541502 
260.9952 0.507384 
261.0325 0.610968 
263.0344 2.125039 
269.0002 0.67477 
271.0166 6.206238 
272.9955 0.769396 
273.0326 0.442221 
283.0164 0.642452 
END IONS

