BEGIN IONS
PEPMASS=303.157
CHARGE=1+
COMPOUNDNAME=(1R,2E,7R,10E,12S,13S,15R)-12,15-dihydroxy-7-methyl-8-oxabicyclo[11.3.0]hexadeca-2,10-dien-9-one
LIBRARYQUALITY=3
SMILES=N/A
INCHIKEY=KQNZDYYTLMIZCT-SWGFJCPHSA-N
INCHI=InChI=1S/C16H24O4/c1-11-5-3-2-4-6-12-9-13(17)10-14(12)15(18)7-8-16(19)20-11/h4,6-8,11-15,17-18H,2-3,5,9-10H2,1H3/b6-4+,8-7+/t11-,12+,13-,14+,15+/m1/s1
MSLEVEL=2
SOURCE_INSTRUMENT=N/A-ESI-QFT
FILENAME=library_mgf.mgf
SEQ=*..*
IONMODE=positive
ORGANISM=MONA
NAME=(1R,2E,7R,10E,12S,13S,15R)-12,15-dihydroxy-7-methyl-8-oxabicyclo[11.3.0]hexadeca-2,10-dien-9-one [M+Na]+
PI=MoNA
DATACOLLECTOR=MoNA:VF-NPL-QEHF022875
PUBMED=N/A
SUBMITUSER=mwang87
TAGS=
SPECTRUMID=CCMSLIB00004713938
SCANS=22875
50.16552 0.075647 
50.554646 0.119646 
51.213337 0.093874 
51.940327 1.661364 
51.982479 0.093319 
52.017944 0.062941 
52.378014 0.115165 
53.002514 0.505331 
53.038948 1.048641 
53.389641 0.086896 
54.937809 0.11668 
55.018036 0.05856 
55.054546 1.987125 
55.369602 0.076355 
55.462437 0.120974 
55.927269 0.091103 
55.934692 5.909848 
56.049694 0.068726 
56.942497 0.868596 
56.965092 1.899916 
57.070175 16.485388 
57.935085 6.367805 
58.065411 2.13716 
59.021645 0.05877 
59.049435 0.067041 
59.930477 1.636293 
60.112293 0.101372 
61.010868 50.550838 
62.010258 1.410007 
62.014217 4.166344 
62.018684 10.264233 
63.006638 8.792483 
63.009674 0.143282 
63.026497 0.456886 
63.997826 0.121644 
64.014343 0.156721 
64.443291 0.098194 
64.897568 0.099172 
65.013969 0.061104 
65.976944 0.108643 
66.131737 0.060509 
67.05439 1.125944 
68.942841 0.238362 
69.069954 0.611877 
69.945274 0.061421 
69.950264 0.061553 
70.065216 0.613977 
70.94207 0.123825 
70.95797 3.768906 
71.085609 4.269619 
71.717995 0.116182 
71.929382 3.017873 
71.940292 0.332868 
72.937187 10.900732 
72.958252 0.115074 
73.929863 0.108643 
73.937599 0.516568 
73.945053 0.425001 
73.953514 0.109488 
74.757912 0.095413 
74.93766 0.894247 
75.945343 3.097601 
76.73481 0.093035 
77.940933 0.402216 
79.021294 5.004716 
79.054314 1.294442 
80.049492 100.0 
81.052902 2.590062 
81.069954 1.051284 
85.101318 0.285995 
86.45462 0.102588 
87.906563 1.410845 
87.960678 0.416099 
88.07579 0.270903 
88.914261 0.093064 
88.952568 0.077938 
88.968437 0.873151 
89.940025 2.339414 
89.950943 0.084034 
90.947769 10.902908 
91.054237 9.67865 
92.057487 0.151842 
92.948235 0.193686 
92.971931 0.098645 
93.069916 0.623418 
93.955933 3.340369 
94.659637 0.110309 
94.810188 0.091108 
95.085609 0.386333 
95.951393 0.56255 
96.04451 0.343133 
98.975327 2.69166 
101.313728 0.108076 
101.760803 0.108495 
102.91478 2.090388 
102.929985 0.334091 
102.947823 0.955998 
103.257607 0.114892 
103.710701 0.101551 
103.9767 0.388552 
104.910217 0.256791 
104.930397 2.234373 
104.963531 0.208385 
105.069908 0.793351 
105.917099 4.057969 
105.928436 0.115762 
105.934731 0.277906 
105.95594 0.984497 
105.971245 0.112392 
106.925385 0.715195 
107.085297 0.128474 
107.95063 0.925408 
108.958313 1.609827 
114.839897 0.098143 
114.947884 0.11708 
116.963303 0.517191 
116.985809 1.871228 
117.917114 1.268921 
118.924919 5.99258 
118.942703 0.407606 
119.085136 0.105524 
119.932518 0.142131 
120.925362 0.107579 
120.940567 5.675528 
121.940331 0.436192 
122.920837 0.170411 
122.936432 1.04308 
122.940918 17.248417 
123.927711 0.357492 
123.939041 0.935405 
123.944489 0.080134 
124.936234 5.552774 
125.817329 0.103993 
125.96096 0.089439 
128.963638 1.100437 
130.978943 0.448859 
132.940323 0.066728 
132.958221 10.966136 
132.982513 0.100281 
133.948395 1.920927 
133.959305 0.128243 
133.966003 0.110295 
134.919891 0.122943 
134.940704 0.241649 
134.956085 4.448705 
134.973846 0.079173 
134.996384 0.519373 
135.927673 3.909481 
136.927612 0.149628 
136.935471 4.237554 
136.952209 0.220887 
137.012268 0.080112 
137.92804 11.774385 
138.935928 1.028623 
138.95108 2.990832 
138.984085 0.166862 
139.923431 3.368757 
139.951035 0.099454 
140.931396 0.08695 
140.946365 0.467829 
140.951675 1.138666 
141.950378 0.109141 
142.947052 0.148374 
142.979355 0.363819 
144.958542 0.171415 
146.748611 0.120232 
146.917969 0.074967 
146.974289 3.157131 
147.104584 0.329251 
148.971802 17.689142 
149.95433 0.677402 
149.960709 0.171526 
149.971512 0.124041 
150.951111 19.592628 
150.968719 13.847165 
151.951553 3.174244 
151.959396 1.768019 
151.969818 0.080163 
152.951767 32.694412 
152.966461 3.337186 
153.938431 2.482391 
153.94902 1.301691 
153.959305 29.085222 
154.940125 0.152904 
154.946899 10.107823 
154.96225 0.400048 
155.000183 0.195744 
155.954773 8.568544 
156.946457 1.630648 
158.94191 0.268397 
160.111618 0.074137 
160.935516 1.072893 
160.971909 0.075219 
161.106995 0.128355 
161.119629 0.122485 
161.729721 0.069548 
162.950943 0.574338 
162.968826 0.206598 
164.984711 0.079488 
165.93837 1.146651 
166.930206 0.088367 
166.982498 2.918417 
168.961609 7.2565 
169.918243 0.130412 
169.962357 1.367105 
170.278442 0.122738 
170.454086 0.113138 
170.962646 9.726824 
171.011703 0.071442 
171.959641 0.472528 
172.957565 3.34456 
173.520325 0.065429 
177.840515 0.061578 
177.938431 0.692353 
178.893158 0.619191 
178.946091 2.262019 
180.833282 0.060484 
180.888123 5.811872 
180.961685 2.263289 
182.265091 0.100203 
184.940506 2.893255 
185.949265 5.615767 
186.878113 0.119467 
186.936539 0.121589 
187.944763 1.413306 
189.151215 0.42795 
189.986298 0.060951 
191.880646 0.232791 
192.961792 4.521173 
193.965866 0.097489 
195.949112 0.879051 
197.891235 0.849186 
198.899048 0.672579 
201.943512 0.155491 
202.055054 0.069875 
202.951096 0.125063 
204.888199 0.224329 
206.926727 0.148879 
207.876175 0.894594 
208.133118 0.063679 
208.884064 0.279367 
209.186203 0.11334 
209.876175 0.369255 
209.891876 0.876279 
209.913025 0.06995 
210.899857 0.104167 
210.972244 2.674328 
211.899338 0.120729 
211.909775 0.2076 
213.885986 0.203278 
213.90625 0.06759 
215.901703 0.428441 
219.621506 0.427535 
220.903748 2.127349 
222.886719 0.12066 
222.898636 13.956087 
224.878677 0.224111 
225.886856 1.182489 
229.920364 2.596456 
234.899124 0.079087 
235.901154 0.104074 
238.347321 0.070187 
238.913879 4.004579 
239.901703 0.700794 
240.909103 22.627045 
242.911682 0.095441 
250.894699 0.334501 
261.031677 0.907286 
269.821289 0.079535 
271.143036 0.130082 
280.814087 0.612176 
281.821777 0.396603 
281.912628 0.109981 
284.808044 0.634012 
285.815796 1.717355 
287.831879 0.617414 
288.839722 0.502539 
296.808563 0.211842 
297.816345 2.089095 
298.815308 0.09056 
299.815186 0.080726 
302.818481 2.78061 
304.227081 0.927193 
304.300446 0.289276 
306.925842 0.105164 
310.216095 0.111186 
313.809723 0.098863 
316.3927 0.106115 
328.169159 0.123681 
END IONS

