BEGIN IONS
PEPMASS=908.477
CHARGE=1+
COMPOUNDNAME=MoNA:767388 Microcystin-LA
LIBRARYQUALITY=3
SMILES=N/A
INCHIKEY=DIAQQISRBBDJIM-DRSCAGMXSA-N
INCHI=InChI=1S/C46H67N7O12/c1-24(2)21-35-44(60)52-38(46(63)64)28(6)40(56)47-29(7)41(57)49-33(18-17-25(3)22-26(4)36(65-11)23-32-15-13-12-14-16-32)27(5)39(55)50-34(45(61)62)19-20-37(54)53(10)31(9)43(59)48-30(8)42(58)51-35/h12-18,22,24,26-30,33-36,38H,9,19-21,23H2,1-8,10-11H3,(H,47,56)(H,48,59)(H,49,57)(H,50,55)(H,51,58)(H,52,60)(H,61,62)(H,63,64)/b18-17+,25-22+/t26-,27-,28-,29-,30+,33-,34+,35-,36-,38+/m0/s1
MSLEVEL=2
SOURCE_INSTRUMENT=LC-ESI-QFT-LC-ESI-QFT
FILENAME=output_mgf.mgf
SEQ=*..*
IONMODE=
ORGANISM=MONA
NAME=MoNA:767388 Microcystin-LA [M-H]-
PI=MoNA
DATACOLLECTOR=MoNA
PUBMED=N/A
SUBMITUSER=mwang87
TAGS=
SPECTRUMID=CCMSLIB00000566503
SCANS=3755
65.9987 2.546914 
66.0349 15.033032 
67.019 2.972723 
68.0506 2.932734 
69.0346 1.086327 
70.0299 7.918012 
71.0139 0.654221 
71.0251 4.425632 
71.0503 1.443632 
72.0091 5.921205 
72.0455 25.927475 
73.0295 10.255897 
74.0248 29.304704 
80.0507 7.774244 
81.022 3.815514 
81.0459 3.14425 
82.0173 3.026714 
82.0299 24.158179 
82.0662 23.121075 
83.0251 2.412219 
83.0502 0.842151 
84.0455 54.879789 
84.0819 6.447377 
85.0295 0.951428 
85.0408 4.183304 
85.066 1.308748 
86.061 1.312325 
87.0564 51.35994 
88.0405 5.711754 
92.0506 2.364524 
94.0298 5.481873 
94.0539 1.143197 
94.0662 4.730226 
95.0251 6.131005 
95.0375 1.782645 
96.0091 0.779595 
96.0329 6.762702 
96.0455 7.602091 
96.082 10.729488 
97.0408 20.303302 
98.0121 3.21111 
98.0249 5.150625 
98.061 4.225197 
99.0564 45.370857 
100.0404 1.007964 
100.0765 1.03408 
101.0721 3.325099 
102.0561 1.389132 
106.0662 1.251253 
107.0615 3.031294 
108.0216 1.353724 
108.033 10.860504 
108.0455 6.828036 
109.0169 8.241568 
109.0408 23.936238 
109.0772 4.126709 
110.0248 90.700359 
110.0485 5.057227 
110.0611 7.430941 
111.02 11.84068 
111.0282 1.452124 
111.0564 17.297586 
112.0404 17.228239 
112.0768 22.983704 
113.0357 20.189285 
113.072 1.156444 
114.0924 1.358028 
120.0453 1.121356 
120.082 0.685732 
121.0294 2.838769 
121.0407 2.567969 
121.0532 1.208603 
122.0249 0.787957 
122.0486 6.245255 
122.0612 3.607997 
122.0975 4.966883 
123.0202 2.212787 
123.0326 18.885117 
123.0438 5.520945 
123.0564 15.401636 
124.0279 2.522252 
124.0404 32.039141 
124.0514 5.825248 
125.0355 6.577012 
125.0594 22.099282 
125.072 14.328688 
126.0561 3.500625 
127.0513 11.832813 
127.0878 4.861489 
128.0354 100.0 
129.1034 64.279662 
130.0873 5.217573 
130.1067 1.358232 
131.0863 0.642778 
135.0327 3.901743 
135.0565 5.775619 
136.0399 0.996404 
136.0516 0.707442 
136.0642 1.067874 
136.0769 0.825502 
136.1131 1.39665 
137.0481 0.817955 
137.072 12.514241 
138.0435 13.227936 
138.056 14.224006 
139.0514 4.332976 
139.0876 24.975015 
140.0714 1.128191 
140.0912 0.643694 
140.1082 1.159338 
141.0669 0.689833 
141.1033 0.873517 
149.0716 0.801451 
150.0559 15.26098 
151.0882 0.760299 
151.124 0.59549 
152.0826 2.976721 
153.0669 9.303073 
153.1032 7.359123 
154.0986 0.914392 
155.0826 7.849044 
155.119 10.564926 
157.1343 2.445649 
163.0514 6.086131 
163.0876 0.753029 
164.083 1.304866 
165.0669 1.697826 
165.1031 21.690442 
166.0988 0.934779 
166.1069 0.607632 
167.0824 2.333275 
169.1346 3.85082 
180.1141 7.516022 
181.0984 1.210755 
182.1297 45.91474 
183.1132 1.384508 
183.1335 0.900316 
193.0728 1.179608 
200.1403 1.344156 
208.1092 1.01903 
END IONS

