BEGIN IONS
PEPMASS=180.0
CHARGE=1+
COMPOUNDNAME=Massbank:KO002886 Butyl pyridine-2-carboxylate|2-Pyridinecarboxylic acid, butyl ester|Butyl 2-pyridinecarboxylate|Fusaric acid
LIBRARYQUALITY=3
SMILES=CCCCc(c1)cnc(c1)C(O)=O
INCHIKEY=DGMPVYSXXIOGJY-UHFFFAOYSA-N
INCHI=1S/C10H13NO2/c1-2-3-4-8-5-6-9(10(12)13)11-7-8/h5-7H,2-4H2,1H3,(H,12,13)
MSLEVEL=2
SOURCE_INSTRUMENT=ESI-LC-ESI-QQ
FILENAME=Massbank_ESI_positive_8_1_2014_peaks.mgf
SEQ=*..*
IONMODE=Positive
ORGANISM=MASSBANK
NAME=Massbank:KO002886 Butyl pyridine-2-carboxylate|2-Pyridinecarboxylic acid, butyl ester|Butyl 2-pyridinecarboxylate|Fusaric acid [M+H]+
PI=Putative Massbank Match
DATACOLLECTOR=Massbank
PUBMED=N/A
SUBMITUSER=mwang87
TAGS=
SPECTRUMID=CCMSLIB00000218278
SCANS=8688
29.3 64356.5 
40.9 2698022.5 
43.3 84158.5 
45.0 1351486.5 
46.2 118812.0 
55.3 311881.5 
57.2 8232681.5 
59.1 103960.5 
62.9 74257.5 
66.8 24752.5 
69.8 306931.0 
72.3 158416.0 
73.2 49505.0 
73.8 995050.5 
77.9 60658476.5 
79.1 74257.5 
80.0 534654.0 
84.2 331683.5 
84.6 49505.0 
87.7 54455.5 
88.3 222772.5 
88.9 480198.5 
90.6 19802.0 
94.4 19802.0 
96.0 33950529.0 
98.2 138614.0 
99.3 44554.5 
100.8 34653.5 
101.3 49505.0 
106.0 46757472.5 
107.1 74257.5 
111.1 69307.0 
113.1 64356.5 
115.4 34653.5 
117.1 89109.0 
120.0 19802.0 
124.2 12559418.5 
130.2 44554.5 
133.1 39604.0 
145.1 69307.0 
148.2 29703.0 
155.1 14851.5 
163.0 69307.0 
END IONS

