BEGIN IONS
PEPMASS=321.005
CHARGE=1+
COMPOUNDNAME=MoNA:642885 2,2-bis(chloranyl)-N-[(1R,2R)-1-(4-nitrophenyl)-1,3-bis(oxidanyl)propan-2-yl]ethanamide
LIBRARYQUALITY=3
SMILES=N/A
INCHIKEY=WIIZWVCIJKGZOK-RKDXNWHRSA-N
INCHI=InChI=1S/C11H12Cl2N2O5/c12-10(13)11(18)14-8(5-16)9(17)6-1-3-7(4-2-6)15(19)20/h1-4,8-10,16-17H,5H2,(H,14,18)/t8-,9-/m1/s1
MSLEVEL=2
SOURCE_INSTRUMENT=LC-ESI-QFT-LC-ESI-QFT
FILENAME=output_mgf.mgf
SEQ=*..*
IONMODE=
ORGANISM=MONA
NAME=MoNA:642885 2,2-bis(chloranyl)-N-[(1R,2R)-1-(4-nitrophenyl)-1,3-bis(oxidanyl)propan-2-yl]ethanamide [M-H]-
PI=MoNA
DATACOLLECTOR=MoNA
PUBMED=N/A
SUBMITUSER=mwang87
TAGS=
SPECTRUMID=CCMSLIB00000572303
SCANS=9554
61.9884 0.233226 
70.9462 0.50292 
78.035 1.263561 
82.9461 2.548501 
84.0091 1.674156 
86.0248 0.179179 
98.0248 0.599032 
105.0219 0.162349 
106.0297 0.205811 
118.0425 0.770699 
121.0296 11.612129 
122.0248 1.110222 
125.952 1.543335 
126.936 4.007871 
134.0013 0.224963 
135.0326 0.139468 
136.0405 0.408852 
148.0405 5.031355 
150.0198 1.328751 
151.0275 32.683998 
152.0353 100.0 
153.0541 0.156133 
159.0324 1.218217 
160.0401 0.259356 
161.0361 0.168352 
162.0197 0.524822 
164.0358 0.166152 
166.0145 0.630859 
175.0514 0.472823 
176.0352 16.855029 
179.0462 0.936313 
191.0468 0.137652 
192.0303 0.102903 
194.0459 5.380515 
207.0412 0.173334 
219.0411 1.874511 
237.0524 0.129053 
249.0518 1.713899 
257.0334 3.689522 
321.005 0.869108 
END IONS

