BEGIN IONS
PEPMASS=351.064
CHARGE=1+
COMPOUNDNAME=Griseofulvin
LIBRARYQUALITY=3
SMILES=N/A
INCHIKEY=DDUHZTYCFQRHIY-RBHXEPJQSA-N
INCHI=InChI=1S/C17H17ClO6/c1-8-5-9(19)6-12(23-4)17(8)16(20)13-10(21-2)7-11(22-3)14(18)15(13)24-17/h6-8H,5H2,1-4H3/t8-,17+/m1/s1
MSLEVEL=2
SOURCE_INSTRUMENT=N/A-ESI-QFT
FILENAME=library_mgf.mgf
SEQ=*..*
IONMODE=negative
ORGANISM=MONA
NAME=Griseofulvin [M-H]-
PI=MoNA
DATACOLLECTOR=MoNA:VF-NPL-QEHF001067
PUBMED=N/A
SUBMITUSER=mwang87
TAGS=
SPECTRUMID=CCMSLIB00004692130
SCANS=1067
50.464886 0.014651 
51.238506 0.025431 
52.252815 0.018964 
52.76746 0.040449 
53.042408 0.02047 
53.525913 0.04557 
55.049084 0.019989 
55.513863 0.046362 
57.033176 0.087035 
57.166054 0.01383 
57.431484 0.054877 
57.760075 0.035926 
58.068115 0.014169 
58.562901 0.042735 
59.01247 1.2123 
60.741787 0.023484 
61.986988 2.238834 
62.563755 0.039137 
62.703754 0.019274 
63.105045 0.015051 
63.627052 0.041326 
63.961052 0.118068 
63.986103 0.037388 
64.398979 0.038143 
64.59819 0.027101 
66.875092 0.036841 
67.042114 0.016946 
67.936592 0.017223 
68.174202 0.029192 
68.356712 0.021573 
68.996742 0.115372 
69.033218 0.028259 
70.010986 0.016275 
70.413544 0.023072 
70.955238 0.014316 
71.012299 0.022155 
72.101707 0.035263 
72.328049 0.037355 
72.962364 0.037203 
72.991608 0.084135 
73.02816 0.023572 
73.370567 0.014068 
74.409653 0.019705 
74.892593 0.025136 
75.823601 0.041324 
76.812042 0.034267 
77.327309 0.01564 
78.33564 0.034957 
78.957451 0.024825 
78.984482 0.553638 
79.617844 0.019293 
79.955902 0.938048 
80.963768 0.054263 
81.033241 0.24518 
81.459908 0.028199 
82.326088 0.035067 
82.785126 0.036965 
83.264236 0.01883 
83.440269 0.046375 
83.509796 0.032721 
84.086708 0.016996 
84.301323 0.044471 
84.681763 0.015358 
85.028076 0.060448 
85.757179 0.036338 
87.007454 0.04667 
87.282768 0.046483 
89.977798 0.042385 
90.144821 0.021597 
90.824608 0.043766 
91.053741 0.046758 
92.579422 0.022268 
93.033226 1.068335 
95.012405 0.032207 
96.479286 0.024944 
96.49472 0.016047 
96.833488 0.031781 
96.958786 7.616576 
98.954422 0.074767 
99.839775 0.047962 
99.947029 0.045756 
100.428978 0.025527 
100.984505 0.045423 
101.168213 0.040523 
102.784752 0.054103 
106.320908 0.039974 
106.881126 0.021034 
107.048943 3.035876 
107.064743 0.019092 
108.051712 0.014608 
109.02816 0.298011 
110.184792 0.023087 
111.007736 0.035004 
111.428154 0.043957 
111.518456 0.042473 
113.03598 0.041152 
115.372284 0.0463 
115.608276 0.038352 
115.787437 0.040397 
116.65522 0.051798 
117.033295 5.852832 
117.260841 0.024793 
118.036552 0.100777 
119.048973 0.151835 
120.896431 0.02266 
121.028137 0.21204 
121.06456 0.054892 
122.036034 0.118365 
122.974693 0.083275 
123.043877 0.47855 
124.015732 0.056857 
125.023193 0.200492 
125.059669 0.046338 
125.608528 0.029883 
126.792419 0.027704 
126.891533 0.026386 
129.492371 0.047414 
130.761749 0.015856 
131.248962 0.040402 
132.056519 0.026587 
133.028351 3.445017 
134.031876 0.037061 
134.415039 0.043679 
134.593033 0.045408 
135.043945 55.528591 
135.613342 0.040363 
136.01535 0.162831 
136.047104 3.889409 
137.023285 0.159537 
137.059555 1.410338 
138.062561 0.021657 
142.492554 0.032998 
143.334442 0.017179 
143.575943 0.021737 
145.027954 0.025904 
145.064636 0.069152 
146.12149 0.026245 
146.956787 0.021545 
147.043976 3.740985 
147.080231 0.018153 
149.023285 1.11617 
149.059631 0.734208 
149.994705 0.204775 
150.031265 0.052609 
150.054977 0.082171 
151.039017 0.808108 
152.010361 0.122235 
154.317291 0.046994 
155.120483 0.041151 
155.701859 0.014919 
157.064682 0.067167 
158.485687 0.042828 
158.627396 0.025285 
159.044159 0.409169 
160.790543 0.04066 
161.023331 100.0 
161.058548 0.105844 
162.026382 8.191124 
162.690964 0.037241 
163.002579 0.210626 
163.03891 2.48346 
163.111511 0.05293 
163.472168 0.045136 
164.01062 0.367307 
164.042068 0.017372 
166.026733 0.049245 
167.463699 0.035441 
168.9254 0.015218 
172.359848 0.045373 
173.024078 0.046603 
173.060165 0.090421 
173.243637 0.042451 
174.031372 0.076734 
174.46138 0.022659 
174.571289 0.041779 
175.00264 0.3123 
175.039139 1.082509 
175.0755 0.085344 
176.010544 1.495289 
176.03389 0.056715 
177.0186 0.209429 
177.054886 1.116394 
177.091217 0.145159 
178.988464 0.042688 
179.034103 59.117039 
179.070755 0.028498 
179.143402 0.015787 
180.037384 4.928799 
183.011276 0.545371 
183.043106 0.01483 
183.062943 0.016326 
184.617432 0.029571 
185.059372 0.024481 
186.62207 0.019626 
187.039703 0.026662 
188.0112 0.015038 
189.018723 3.501601 
189.054977 0.307738 
190.026215 0.168973 
191.03421 1.150888 
191.070435 0.072882 
191.143219 0.042146 
193.013504 0.335602 
193.049606 0.084421 
194.021515 0.02854 
197.027603 0.138759 
198.032471 0.021822 
199.039078 0.073563 
199.076828 0.036352 
202.024826 0.044871 
203.034225 0.797799 
203.14389 0.017818 
203.973602 0.041876 
204.040527 0.029846 
205.013626 0.782518 
205.049896 0.706211 
205.085129 0.025084 
205.123016 0.024003 
207.028854 0.102932 
207.08046 0.032464 
207.103058 0.018572 
207.138779 0.124286 
211.040207 0.099049 
212.048019 0.02564 
214.710968 0.216721 
214.723083 0.874763 
214.732681 0.249755 
215.03508 0.080979 
215.070312 0.01904 
216.040543 0.022285 
217.049896 0.188487 
217.159164 0.565542 
218.045624 0.070139 
218.26741 0.042855 
219.138626 0.130504 
219.482422 0.020802 
223.024887 0.117862 
223.060989 0.056733 
224.047745 0.02226 
229.050385 0.015883 
229.123032 1.384798 
230.126434 0.097044 
231.101913 0.019147 
231.138718 0.130301 
232.037064 0.290728 
232.263184 0.049329 
233.044464 0.06896 
233.117996 0.215596 
233.154404 1.621336 
235.123474 0.257281 
236.579437 0.021807 
242.167969 0.037019 
243.065277 0.01912 
244.10997 0.042575 
245.081635 0.257509 
245.118042 0.101858 
245.154297 0.155725 
245.227646 0.039658 
247.060257 0.04148 
247.13353 1.418351 
248.141113 0.893159 
249.1129 0.286639 
249.148804 0.504332 
249.984619 0.044084 
253.2173 0.016174 
255.029327 0.468159 
255.232849 0.833045 
256.033936 0.95122 
259.133759 0.614727 
261.149628 3.502986 
262.152649 0.219709 
263.128967 1.262894 
263.165283 2.711721 
264.168823 0.241049 
265.147491 0.482535 
266.151245 0.017772 
269.12146 0.072076 
269.248444 0.458932 
271.061554 0.394984 
271.13443 0.120008 
272.106506 0.02945 
273.113098 0.58723 
274.116882 0.060248 
275.092773 0.083353 
275.12915 3.2937 
275.165375 1.374638 
275.985138 0.024461 
276.132446 0.195993 
276.169312 0.027512 
277.10791 1.642071 
277.144592 2.597161 
279.159607 0.017021 
283.008087 0.016349 
283.024811 1.07687 
283.264221 0.201227 
284.027954 2.078839 
285.030731 0.122692 
286.043976 0.026583 
287.128815 3.381983 
287.200439 0.060487 
288.132202 0.279325 
289.14444 2.651126 
289.218475 0.017733 
290.148071 0.191282 
291.123779 0.027792 
292.131195 0.113835 
301.108337 0.454461 
301.143982 0.887123 
302.111725 0.019305 
303.087402 1.174148 
303.123749 1.770106 
305.139648 0.781869 
307.154968 4.342234 
308.158783 0.526938 
312.023163 0.20283 
312.104126 0.016395 
319.11853 0.128977 
319.155182 0.470898 
320.998505 0.03271 
321.097656 0.639745 
321.134308 0.709999 
322.002045 0.295119 
324.384308 0.029602 
331.118347 0.073271 
333.134521 1.821676 
333.170074 0.021273 
333.4245 0.01679 
334.137329 0.148157 
335.113037 0.018129 
348.993561 0.887189 
349.241272 0.117555 
349.996429 3.212112 
350.998505 0.35497 
351.091248 0.017882 
351.145081 1.617125 
351.199829 0.240222 
351.220795 2.482298 
352.008057 0.022301 
352.147705 0.113983 
352.224609 0.039962 
353.217041 4.509117 
367.260681 0.016227 
369.227966 0.023906 
END IONS

