BEGIN IONS
PEPMASS=1255.64
CHARGE=1+
COMPOUNDNAME=DACTINOMYCIN
LIBRARYQUALITY=3
SMILES=N/A
INCHIKEY=RJURFGZVJUQBHK-IIXSONLDSA-N
INCHI=InChI=1S/C62H86N12O16/c1-27(2)42-59(84)73-23-17-19-36(73)57(82)69(13)25-38(75)71(15)48(29(5)6)61(86)88-33(11)44(55(80)65-42)67-53(78)35-22-21-31(9)51-46(35)64-47-40(41(63)50(77)32(10)52(47)90-51)54(79)68-45-34(12)89-62(87)49(30(7)8)72(16)39(76)26-70(14)58(83)37-20-18-24-74(37)60(85)43(28(3)4)66-56(45)81/h21-22,27-30,33-34,36-37,42-45,48-49H,17-20,23-26,63H2,1-16H3,(H,65,80)(H,66,81)(H,67,78)(H,68,79)/t33-,34-,36+,37+,42-,43-,44+,45+,48+,49+/m1/s1
MSLEVEL=2
SOURCE_INSTRUMENT=N/A-ESI-QFT
FILENAME=library_mgf.mgf
SEQ=*..*
IONMODE=positive
ORGANISM=MONA
NAME=DACTINOMYCIN [M+H]+
PI=MoNA
DATACOLLECTOR=MoNA:VF-NPL-QEHF002900
PUBMED=N/A
SUBMITUSER=mwang87
TAGS=
SPECTRUMID=CCMSLIB00004693963
SCANS=2900
87.100426 0.143459 
87.430466 0.024512 
87.692604 0.033965 
87.862747 0.026703 
87.880753 0.025053 
89.008385 0.023464 
89.936516 0.036035 
90.209427 0.025457 
92.856216 0.032176 
93.078461 0.038432 
93.371269 0.04454 
95.467255 0.024387 
96.045258 0.024893 
96.081039 0.115897 
97.089134 0.039526 
97.561096 0.036697 
97.643799 0.026184 
98.043869 0.030466 
98.060486 0.880454 
98.096825 1.528867 
98.399773 0.038218 
98.833809 0.036619 
98.901878 0.039255 
100.039688 31.117283 
101.043152 0.177835 
101.467705 0.031307 
102.377037 0.045825 
102.799133 0.029357 
104.69754 0.035128 
105.243217 0.03327 
105.359261 0.026001 
105.678261 0.037294 
106.08165 0.038354 
108.968422 0.036592 
109.452835 0.03078 
109.554405 0.037674 
110.096718 0.181006 
110.32592 0.025625 
110.845016 0.034984 
112.112297 4.121207 
112.24868 0.025317 
113.123962 0.042929 
113.671783 0.038951 
114.091568 7.357751 
114.586868 0.022549 
114.892555 0.033253 
115.094658 0.040417 
115.515182 0.02476 
116.738754 0.025733 
117.661186 0.02993 
117.810097 0.040193 
118.339584 0.038786 
119.766571 0.041373 
120.03936 0.032382 
120.093163 0.02353 
121.566986 0.024211 
122.096573 0.075956 
123.091873 0.073017 
123.744041 0.037422 
124.112198 13.837156 
125.10743 0.916034 
125.115402 0.042045 
126.023476 0.038726 
126.055153 0.247909 
126.091438 1.600113 
126.978409 0.037275 
128.107254 0.162884 
129.066086 0.040348 
130.313034 0.045789 
130.620987 0.042095 
130.763748 0.026271 
132.101868 35.855846 
133.105392 0.502615 
133.762054 0.032669 
135.589447 0.041293 
136.640579 0.023206 
139.086456 0.97571 
141.102127 0.125978 
142.086227 3.605353 
142.122559 0.580721 
144.101807 0.03392 
144.115387 0.030632 
148.607895 0.025676 
149.266602 0.037776 
151.086517 0.76444 
152.106873 0.47692 
152.131226 0.033684 
153.102188 3.97731 
154.038864 0.035458 
154.086151 4.255907 
154.745422 0.02428 
155.117767 0.084916 
156.243164 0.045357 
157.133514 1.32689 
157.370667 0.028607 
160.162033 0.030911 
161.91983 0.03349 
167.080994 0.082339 
167.117737 0.097162 
167.545975 0.035328 
168.984711 0.032615 
169.097 7.189749 
169.133484 3.713983 
170.117523 0.175005 
170.796783 0.03677 
172.612579 0.041814 
174.098236 0.022704 
179.117462 0.041863 
180.101898 0.067983 
180.642303 0.031692 
183.112244 0.038265 
185.128326 4.508474 
186.133636 0.034053 
186.843796 0.035715 
187.107605 4.312421 
191.154099 0.035383 
195.080475 0.023297 
195.112808 1.205215 
196.408295 0.026533 
197.12851 2.160053 
200.18042 0.037488 
203.138885 48.134686 
204.142532 1.80592 
206.531448 0.029662 
207.112518 0.028075 
207.151566 0.02242 
207.897552 0.027412 
209.12825 0.042583 
213.123093 0.419312 
214.026535 0.035472 
214.044571 0.029186 
214.846008 0.029822 
220.355988 0.033367 
223.107346 0.078145 
224.063385 0.02619 
227.165527 0.042744 
229.117203 0.029289 
231.204468 0.029795 
231.292496 0.033594 
233.212601 0.034629 
234.489212 0.033871 
234.657684 0.031214 
237.011658 0.036284 
240.931335 0.049398 
241.154266 0.143062 
244.34053 0.032159 
244.503891 0.026834 
245.265488 0.026274 
248.195145 0.034008 
249.436539 0.037581 
252.618423 0.043551 
254.936371 0.044379 
256.208923 0.031948 
265.351013 0.034539 
267.076141 0.308922 
268.568329 0.027552 
275.501099 0.028856 
282.181122 2.318746 
287.750244 0.053579 
290.65506 0.028607 
292.239532 0.040058 
293.055969 2.381699 
295.071289 0.130322 
300.191528 4.729921 
301.95755 0.03678 
303.516724 0.035444 
304.093872 0.042211 
304.116913 0.14458 
304.883514 0.026046 
310.081665 0.32281 
311.067261 0.212541 
312.530426 0.034753 
315.59552 0.041188 
320.103424 0.186444 
322.081909 3.141747 
322.118927 0.144827 
324.190369 0.038978 
326.41449 0.032881 
328.09259 0.083272 
329.076355 1.022482 
329.582275 0.037443 
332.053436 0.039388 
332.102295 0.088438 
334.083099 0.101081 
337.083893 0.038483 
338.076111 0.123776 
338.20639 0.042638 
339.085785 0.038674 
340.092438 0.979087 
347.113129 0.037928 
348.097198 16.089415 
349.103638 4.14244 
350.112671 5.091532 
351.095215 0.02823 
351.114929 0.124158 
352.580536 0.039607 
354.238373 0.047491 
357.098175 0.484417 
358.104919 0.747826 
359.112579 0.234649 
360.133759 2.546806 
360.540497 0.038094 
361.131531 0.048036 
362.113708 0.035269 
364.127808 0.034054 
365.124786 0.137265 
366.10791 25.474613 
367.111542 3.336634 
368.123627 0.712314 
370.118469 0.181525 
371.124908 0.137827 
372.12088 16.368553 
373.124756 2.050822 
375.108307 0.323827 
375.144135 0.043145 
376.092194 2.473226 
376.116211 1.122341 
377.095734 0.038749 
377.123383 0.953314 
378.107513 1.119742 
384.118683 0.042328 
385.128784 0.309496 
386.136414 3.621462 
387.144409 27.462282 
387.448578 0.043469 
388.147858 3.572174 
389.120026 0.03744 
393.11908 0.906774 
394.102753 100.0 
395.105988 12.472772 
398.689178 0.043897 
401.161407 0.45753 
403.109131 0.178182 
403.139404 4.52934 
403.171387 0.032797 
404.110809 2.456656 
404.140533 0.19207 
405.118652 5.569494 
405.15036 0.561361 
406.122314 0.32617 
410.173492 0.025585 
414.142609 0.028927 
414.485596 0.035676 
415.140778 0.160636 
419.169739 0.554497 
421.149841 1.678627 
422.154999 0.032477 
424.921478 0.04453 
425.039825 0.040827 
429.155609 1.054501 
431.134338 36.796249 
431.316772 0.053234 
432.137848 6.99974 
433.115692 0.146505 
433.149323 1.593809 
438.782806 0.037409 
445.150024 0.134979 
447.16571 3.18889 
448.168091 0.085279 
449.145294 6.149681 
449.178894 0.068613 
450.147949 0.390913 
458.144165 0.077814 
459.128967 47.376972 
460.132507 7.336736 
462.844574 0.032937 
465.176392 1.446922 
466.182098 0.046338 
476.152802 0.044643 
476.1922 0.121814 
477.140747 0.723832 
486.211334 0.043537 
499.137726 0.040035 
500.832886 0.037065 
501.411926 0.046692 
502.207581 1.828425 
503.212585 0.091532 
512.193054 0.277977 
520.218262 0.161123 
528.033997 0.03848 
530.202698 12.317566 
531.205933 1.80748 
538.754517 0.047173 
541.966553 0.041284 
555.51239 0.02702 
561.278564 0.040383 
564.924316 0.029484 
603.964355 0.036852 
618.099854 0.026823 
629.194824 0.045183 
629.610657 0.040232 
662.952148 0.05032 
673.945129 0.046745 
699.187561 0.046655 
709.428284 0.059424 
709.559692 0.073245 
709.752563 0.0739 
709.7948 0.110314 
709.96051 0.132429 
710.022827 0.294555 
733.77417 0.034153 
749.408936 0.041709 
787.612488 0.044337 
789.109436 0.047186 
814.507385 0.028638 
851.506714 0.044276 
863.12262 0.032141 
867.816895 0.036993 
921.652588 0.04177 
982.944153 0.034508 
984.270752 0.035064 
1005.85321 0.048557 
1017.978333 0.043716 
1038.726196 0.040853 
1069.829224 0.03862 
1114.075439 0.044792 
1139.513672 0.040436 
1147.588501 0.036953 
1208.029053 0.027503 
1232.520752 0.037356 
1259.770142 0.033482 
END IONS

