BEGIN IONS
PEPMASS=477.107
CHARGE=1+
COMPOUNDNAME=MoNA:992635 Chlortetracycline
LIBRARYQUALITY=3
SMILES=N/A
INCHIKEY=DHPRQBPJLMKORJ-UHFFFAOYSA-N
INCHI=InChI=1S/C22H23ClN2O8/c1-21(32)7-6-8-15(25(2)3)17(28)13(20(24)31)19(30)22(8,33)18(29)11(7)16(27)12-10(26)5-4-9(23)14(12)21/h4-5,7-8,15,26-27,30,32-33H,6H2,1-3H3,(H2,24,31)
MSLEVEL=2
SOURCE_INSTRUMENT=LC-ESI-QFT-LC-ESI-QFT
FILENAME=output_mgf.mgf
SEQ=*..*
IONMODE=
ORGANISM=MONA
NAME=MoNA:992635 Chlortetracycline [M-H]-
PI=MoNA
DATACOLLECTOR=MoNA
PUBMED=N/A
SUBMITUSER=mwang87
TAGS=
SPECTRUMID=CCMSLIB00000569820
SCANS=7071
57.0345 0.147345 
59.0138 2.431365 
63.0239 0.153079 
65.0395 0.194451 
65.9985 1.089379 
67.007 1.229925 
68.9981 0.976263 
79.0552 0.144491 
81.0218 0.164987 
81.0345 0.17801 
83.0138 0.229233 
84.009 3.607985 
86.0247 0.836391 
87.0087 1.620445 
91.019 0.128479 
91.0554 0.170794 
93.0345 0.569964 
95.0137 0.257582 
95.0504 0.177361 
96.0091 0.209741 
96.9931 0.795166 
97.0294 0.158923 
99.0088 1.621535 
100.0767 1.302795 
102.0561 0.99437 
105.0345 0.250427 
107.0501 1.08378 
108.0216 0.686424 
109.0294 3.457724 
111.0089 0.973335 
111.0453 1.199039 
117.0349 0.560604 
119.0138 0.607024 
119.0501 0.305619 
120.0454 0.162427 
121.0294 0.272969 
121.0658 1.462232 
122.0008 0.153753 
123.0088 0.507433 
123.0452 1.278121 
124.004 0.837408 
124.0165 0.776237 
124.0769 0.597504 
124.9878 0.333405 
125.072 5.928219 
125.9877 0.235971 
126.0196 0.940882 
126.056 4.184209 
126.9956 12.868537 
131.0502 0.322489 
133.0295 3.238819 
134.0245 0.230323 
135.0088 5.110193 
135.0452 2.852146 
136.0165 0.337399 
136.0403 2.380192 
137.0242 1.598086 
139.0152 1.434532 
139.0401 0.168932 
140.0036 0.234182 
141.9828 1.271224 
142.0146 2.661786 
142.9986 2.565394 
145.0295 0.909629 
146.0375 0.886229 
147.0452 4.508744 
148.0768 0.189036 
149.0244 2.969059 
149.0607 5.553675 
149.9958 0.209447 
150.0196 0.263475 
151.04 0.28685 
152.0354 2.097458 
152.0719 0.306575 
153.0112 1.368927 
153.0557 0.20266 
154.0384 1.258691 
154.9907 0.666944 
160.0166 1.65008 
161.0243 4.771471 
162.0196 6.557479 
163.0038 9.407419 
163.0401 1.833469 
164.0115 0.914002 
164.0353 0.826467 
164.0715 0.711784 
165.0429 0.689045 
165.0555 0.229306 
165.067 0.275775 
166.0872 1.141226 
166.9905 0.694056 
167.0222 0.987338 
169.0062 49.912986 
169.0618 2.962113 
170.9854 6.023081 
173.0241 1.044833 
174.0323 0.612892 
175.0036 0.661419 
175.04 5.643329 
177.0426 0.177643 
178.087 0.189367 
178.9906 2.64804 
179.9989 1.016925 
180.0302 13.575175 
181.0062 0.523715 
181.0143 0.66861 
181.0381 0.726032 
181.0506 0.197134 
182.0142 0.282489 
185.0608 0.336823 
187.0395 0.162598 
189.0193 0.655502 
189.0557 0.234354 
191.0267 0.221686 
191.0349 2.32032 
192.0667 0.717272 
192.1031 0.26557 
193.0064 2.278458 
193.0505 4.979509 
194.014 0.709125 
194.9854 71.569018 
195.9926 1.1905 
197.001 30.162215 
199.0398 0.264749 
199.0764 2.886474 
203.0271 0.264675 
205.0059 0.689499 
206.0139 6.158542 
207.0218 10.513962 
207.9931 3.075204 
209.0608 0.97962 
209.0931 5.439886 
211.0759 0.254066 
212.0478 0.251689 
215.0358 0.241631 
217.0053 0.178525 
217.0424 3.43463 
219.0217 2.568898 
220.0296 4.443249 
221.0012 2.116227 
221.0375 17.583064 
222.0089 0.94822 
223.0166 2.342862 
223.0764 0.669701 
224.0248 0.140154 
224.0474 0.276351 
225.0561 0.327781 
227.0713 1.994646 
229.0056 0.313435 
229.0427 0.535476 
230.014 0.253024 
231.0217 3.832329 
233.0009 0.166972 
233.0373 1.153857 
235.0168 4.004336 
235.0531 25.26387 
236.0479 0.171284 
236.0929 0.731594 
237.0323 0.576199 
237.0555 0.723765 
238.0039 1.718393 
239.0715 0.896422 
243.0215 1.986523 
244.0298 0.318654 
245.0374 14.395088 
246.0087 0.632947 
247.0168 4.170586 
247.0525 1.200889 
248.0245 19.833258 
248.9961 0.261968 
249.0325 1.527764 
250.0036 0.563764 
251.0118 1.039198 
251.0351 0.260118 
252.0428 0.998058 
253.0508 1.464193 
254.0219 0.901592 
255.0207 0.228338 
257.0374 5.247603 
258.0169 0.88112 
259.0163 1.374305 
259.0533 1.973378 
260.0249 1.367996 
261.0322 3.937065 
263.048 44.646002 
263.9828 0.654889 
264.0197 0.779656 
264.0428 0.237747 
265.0272 2.285882 
265.0505 0.185839 
267.0215 0.291383 
267.0665 0.823662 
270.01 0.217839 
271.0167 9.223271 
271.0527 0.587801 
273.0324 4.183866 
273.0558 0.578503 
274.0038 2.163676 
275.0118 0.537743 
275.048 4.956942 
276.0428 0.537228 
276.991 0.742571 
277.0503 0.258746 
277.9988 0.2733 
278.0222 0.950401 
279.0066 2.784372 
279.0424 0.997151 
281.0374 1.318342 
283.0166 1.946364 
283.0529 0.171885 
284.0231 0.565712 
285.0323 9.319701 
286.0043 0.924538 
286.0412 0.225165 
287.0117 5.203486 
287.0478 0.826529 
288.0199 1.392964 
288.0796 3.786265 
289.0273 15.054792 
290.0356 0.319855 
291.0427 1.740323 
292.0143 0.311536 
292.0381 1.06615 
292.1112 1.223787 
293.0462 0.242905 
296.0329 2.022456 
297.0325 1.117605 
299.0108 0.258354 
299.0481 2.316008 
300.0273 1.160644 
300.0435 0.722638 
301.0272 6.154058 
302.0352 0.926241 
303.0428 5.079479 
304.1106 0.779165 
305.0223 4.59819 
306.0906 2.053807 
307.0378 24.623829 
309.0324 0.936042 
310.0044 0.282501 
311.0112 1.234102 
312.0195 2.421185 
312.0792 0.550374 
313.0273 0.898958 
313.9992 0.659349 
314.059 0.652659 
315.0064 0.752078 
315.0428 0.283408 
318.0536 1.074444 
319.0377 8.10743 
320.0323 1.445191 
322.012 0.241092 
324.0274 0.513755 
325.0271 3.233514 
327.0067 1.640733 
327.0435 1.607654 
328.0745 3.318415 
329.0221 5.544438 
329.9935 0.533357 
330.0903 3.155364 
331.0379 0.802859 
332.0703 0.2813 
334.0852 0.212926 
338.0001 0.339812 
338.043 2.722344 
341.0256 0.349919 
341.994 1.357742 
342.0544 0.777046 
343.0382 2.824286 
344.0461 0.316731 
345.0162 0.152515 
346.0848 0.817512 
347.0328 5.081207 
348.1008 0.922885 
351.0069 0.518606 
352.0218 1.719202 
353.0215 1.250445 
354.0536 0.520934 
354.0909 0.294127 
356.0091 1.211952 
356.0704 1.263689 
356.1139 0.31161 
357.989 1.106053 
359.0338 0.225839 
364.0953 2.359206 
368.0162 0.319157 
369.0174 1.158831 
370.0331 4.813223 
370.0855 1.086083 
371.0324 2.268289 
373.0115 0.265398 
387.0275 1.281931 
388.0954 1.329882 
389.0432 0.642221 
392.0906 100.0 
397.0114 0.291297 
398.0802 0.190249 
399.0759 0.311769 
399.9988 3.194837 
415.0228 1.005911 
416.0908 0.913561 
460.0812 0.26176 
END IONS

