BEGIN IONS
PEPMASS=245.147
CHARGE=1+
COMPOUNDNAME=N-acetyltryptophan
LIBRARYQUALITY=3
SMILES=N/A
INCHIKEY=DZTHIGRZJZPRDV-UHFFFAOYSA-N
INCHI=InChI=1S/C13H14N2O3/c1-8(16)15-12(13(17)18)6-9-7-14-11-5-3-2-4-10(9)11/h2-5,7,12,14H,6H2,1H3,(H,15,16)(H,17,18)
MSLEVEL=2
SOURCE_INSTRUMENT=N/A-Linear Ion Trap
FILENAME=library_mgf.mgf
SEQ=*..*
IONMODE=negative
ORGANISM=MONA
NAME=N-acetyltryptophan M-H
PI=MoNA
DATACOLLECTOR=MoNA:VF-NPL-LTQ000468
PUBMED=N/A
SUBMITUSER=mwang87
TAGS=
SPECTRUMID=CCMSLIB00004684733
SCANS=354
115.959999 100.0 
END IONS

