BEGIN IONS
PEPMASS=1079.59
CHARGE=1+
COMPOUNDNAME=N-[(3S,6S,9S,11R,15S,18S,20R,21R,24S,25S,26S)-3-[(1R)-2-carbamoyl-1-hydroxyethyl]-6-[(1S,2S)-1,2-dihydroxy-2-(4-hydroxyphenyl)ethyl]-11,20,21,25-tetrahydroxy-15-[(1R)-1-hydroxyethyl]-26-methyl-2,5,8,14,17,23-hexaoxo-1,4,7,13,16,22-hexaazatricyclo[22.3.0.0?,��]heptacosan-18-yl]-10,12-dimethyltetradecanamide
LIBRARYQUALITY=3
SMILES=N/A
INCHIKEY=DFQUSLQYURJBIT-MFKXNLKNSA-N
INCHI=InChI=1S/C51H82N8O17/c1-6-25(2)19-26(3)13-11-9-7-8-10-12-14-37(66)53-32-21-35(64)47(72)57-49(74)41-42(67)27(4)23-59(41)51(76)39(34(63)22-36(52)65)55-48(73)40(44(69)43(68)29-15-17-30(61)18-16-29)56-46(71)33-20-31(62)24-58(33)50(75)38(28(5)60)54-45(32)70/h15-18,25-28,31-35,38-44,47,60-64,67-69,72H,6-14,19-24H2,1-5H3,(H2,52,65)(H,53,66)(H,54,70)(H,55,73)(H,56,71)(H,57,74)/t25?,26?,27-,28+,31+,32-,33-,34+,35+,38-,39-,40-,41-,42-,43-,44-,47+/m0/s1
MSLEVEL=2
SOURCE_INSTRUMENT=N/A-ESI-QFT
FILENAME=library_mgf.mgf
SEQ=*..*
IONMODE=positive
ORGANISM=MONA
NAME=N-[(3S,6S,9S,11R,15S,18S,20R,21R,24S,25S,26S)-3-[(1R)-2-carbamoyl-1-hydroxyethyl]-6-[(1S,2S)-1,2-dihydroxy-2-(4-hydroxyphenyl)ethyl]-11,20,21,25-tetrahydroxy-15-[(1R)-1-hydroxyethyl]-26-methyl-2,5,8,14,17,23-hexaoxo-1,4,7,13,16,22-hexaazatricyclo[22.3.0.0?,��]heptacosan-18-yl]-10,12-dimethyltetradecanamide [M+H]+
PI=MoNA
DATACOLLECTOR=MoNA:VF-NPL-QEHF024876
PUBMED=N/A
SUBMITUSER=mwang87
TAGS=
SPECTRUMID=CCMSLIB00004715939
SCANS=24876
75.572151 0.035896 
75.675255 0.040748 
76.953369 0.037619 
77.413918 0.035644 
78.471405 0.030755 
79.054329 0.21566 
79.401779 0.041833 
79.980461 0.037083 
80.049568 1.231231 
81.044762 0.082874 
81.069946 1.165422 
82.028786 1.419092 
82.065216 6.386527 
83.012718 0.102909 
83.060478 0.944829 
83.068748 0.042065 
83.085609 0.173379 
84.044479 36.425873 
84.080879 0.107956 
84.284447 0.042171 
85.028923 0.040753 
85.03978 0.126853 
85.047806 1.018372 
86.023834 0.042452 
86.060127 100.0 
87.056946 0.040932 
87.063507 3.221085 
88.641785 0.036 
91.054367 1.092052 
92.574547 0.035218 
93.11898 0.04755 
93.456917 0.037556 
94.028854 2.024853 
94.065224 2.203319 
94.432785 0.041576 
95.049103 0.115327 
95.060448 0.564358 
95.068512 0.033596 
95.085579 1.456432 
95.330322 0.034759 
96.044456 2.587985 
96.08094 0.04085 
96.090576 0.025042 
97.039673 0.058868 
97.10128 0.103883 
98.060127 1.090028 
99.055397 1.153749 
100.039406 7.617821 
100.075768 46.601959 
101.07103 0.821202 
101.07917 2.043722 
102.055084 0.986083 
102.178429 0.041528 
103.362099 0.028877 
105.997581 0.033567 
106.065269 0.620537 
107.049263 2.808632 
107.060394 0.140973 
108.044434 0.367149 
108.081154 0.053354 
108.364189 0.047269 
108.420364 0.04315 
108.460449 0.039856 
108.811905 0.028413 
109.039757 3.303969 
109.076172 0.081647 
109.101295 0.333481 
109.829185 0.038849 
110.023705 2.655035 
110.06012 1.055014 
110.792778 0.041009 
111.055397 3.18666 
111.091919 0.025416 
111.270111 0.042143 
112.039444 2.272117 
112.07576 1.756462 
113.071014 3.975683 
114.055084 0.936486 
114.091148 0.038434 
117.465797 0.038066 
118.011864 0.03638 
118.065262 0.499733 
119.049255 4.034323 
119.060883 0.046119 
120.052643 0.037357 
121.028732 0.125856 
121.07621 1.496481 
122.060104 1.696976 
122.304359 0.034871 
123.055359 3.173116 
123.091866 0.502937 
124.039642 0.110641 
124.075821 0.360737 
124.502075 0.041534 
124.741066 0.036299 
125.071098 2.027281 
125.701668 0.034245 
126.055122 0.496017 
126.183449 0.039337 
127.021187 0.036618 
127.050362 0.645099 
128.034256 0.279551 
128.070801 0.159425 
129.065643 0.19628 
130.049973 0.377824 
131.049316 0.602998 
131.081589 0.764707 
133.051453 0.036779 
133.076202 0.077602 
134.060242 1.75738 
135.055313 0.41429 
135.454468 0.039886 
135.462952 0.031511 
136.075806 1.545654 
136.631714 0.032287 
137.034729 0.205039 
137.071136 0.599965 
138.05513 0.535126 
138.091492 0.036984 
139.050293 1.580686 
139.0867 2.30646 
139.2677 0.035778 
140.070786 0.914745 
141.059174 0.036368 
141.065918 3.840112 
141.434464 0.034211 
142.069397 0.035594 
142.086243 0.121586 
142.42572 0.039292 
143.081665 1.262498 
143.318542 0.032442 
144.876343 0.035334 
144.921982 0.041492 
145.075699 0.042348 
145.09729 6.375894 
145.944534 0.033935 
146.044983 0.410224 
146.060089 4.049892 
146.080963 0.035715 
146.100647 0.092376 
146.976501 0.031799 
147.044159 7.403557 
147.055267 0.472902 
147.062241 0.046744 
147.591385 0.03856 
148.047806 0.194673 
148.075882 0.689791 
149.03508 0.230083 
149.048935 0.042306 
149.071091 3.736719 
149.345627 0.038451 
150.055145 0.446392 
151.050339 2.893242 
151.086716 0.453414 
152.071213 0.106954 
153.065933 0.168958 
155.045319 0.337853 
155.081696 0.405093 
156.101776 0.028598 
157.097137 0.258123 
158.060242 0.109327 
159.448776 0.033874 
160.075912 0.986188 
161.071167 0.585335 
163.052475 0.031844 
163.086655 0.492784 
163.290939 0.039788 
164.070724 1.873007 
165.029816 0.256896 
165.066025 2.274338 
165.10257 0.443172 
166.086472 0.201917 
167.045288 0.181358 
167.081482 5.132579 
168.066071 0.03668 
168.085358 0.040232 
169.06102 1.213575 
169.097321 0.754817 
171.076447 0.14072 
172.076172 0.083269 
173.07106 0.147159 
174.055054 4.100917 
174.091446 0.03263 
175.039078 5.346371 
175.059204 0.080144 
175.086731 0.05769 
175.677917 0.03609 
176.042343 0.113582 
176.070862 0.096205 
177.066208 0.354473 
179.045212 0.190332 
179.08168 0.167123 
179.161972 0.035489 
181.097168 3.793487 
182.101273 0.042888 
182.604019 0.03823 
183.113327 0.043501 
184.076492 0.115589 
184.37825 0.036862 
185.092468 0.297798 
186.055389 0.288219 
186.092514 0.038105 
187.087173 0.038602 
188.070801 0.131297 
189.066467 0.055587 
189.102356 0.036434 
191.081711 2.145737 
192.065842 1.060599 
193.097458 0.85096 
195.076889 0.900797 
195.112976 0.079319 
196.124634 0.0284 
197.092377 0.417207 
199.086655 0.213895 
200.071045 0.073063 
201.038895 0.037634 
201.067093 0.034486 
202.050323 0.393826 
203.081711 2.561362 
204.066238 0.072483 
204.101776 0.040695 
208.109222 0.042968 
208.538757 0.025901 
209.092117 2.538582 
210.087006 0.038369 
212.070984 0.234271 
213.08728 0.0359 
214.049957 0.043581 
219.076706 0.180138 
219.599823 0.596783 
219.612442 0.095876 
221.092346 0.564537 
223.071136 0.034274 
223.08519 0.037734 
224.071198 0.116604 
227.081635 0.822429 
227.10321 0.040166 
228.065384 0.095992 
229.097488 0.307788 
231.077942 0.042545 
232.061966 0.0375 
232.09787 0.074684 
233.055679 0.037761 
236.102692 0.070598 
236.689392 0.037092 
237.08725 1.461755 
255.023712 0.042512 
255.07634 0.408768 
256.264465 0.195699 
259.108398 1.737585 
260.09137 0.043901 
260.114868 0.043266 
267.120514 0.040102 
273.087067 0.209483 
274.042999 0.026361 
279.716919 0.041167 
283.072052 0.174173 
284.894775 0.03866 
287.101959 0.069412 
288.657288 0.036283 
293.89624 0.035257 
297.125183 0.038828 
300.272003 0.038777 
302.71637 0.04248 
303.252777 0.035103 
322.800232 0.045865 
323.967712 0.04016 
325.50415 0.04116 
327.595001 0.049027 
332.202271 0.044939 
340.71344 0.027264 
350.537537 0.038217 
351.830841 0.042913 
351.979004 0.038226 
379.862213 0.040045 
399.224304 0.044302 
400.706787 0.044858 
405.269714 0.036601 
413.250519 0.039413 
427.202606 0.040998 
430.342133 0.097138 
446.982452 0.040348 
456.756287 0.038485 
464.680084 0.031545 
468.006287 0.034495 
476.972687 0.034705 
495.635559 0.052576 
529.549377 0.058309 
533.170288 0.047708 
551.808716 0.035724 
566.833557 0.040083 
568.504883 0.040063 
569.071228 0.043044 
606.004944 0.039432 
637.080627 0.051003 
643.791626 0.033768 
679.168152 0.051139 
776.596375 0.037008 
820.407898 0.039824 
820.768555 0.042743 
862.145203 0.036373 
865.371948 0.05142 
875.710938 0.040111 
883.408203 0.036986 
905.479187 0.031162 
957.106201 0.04885 
993.524353 0.047491 
1027.979736 0.0273 
1034.522705 0.038701 
END IONS

