BEGIN IONS
PEPMASS=1032.54
CHARGE=1+
COMPOUNDNAME=Tomatine
LIBRARYQUALITY=3
SMILES=N/A
INCHIKEY=REJLGAUYTKNVJM-SGXCCWNXSA-N
INCHI=InChI=1S/C50H83NO21/c1-20-7-12-50(51-15-20)21(2)32-28(72-50)14-26-24-6-5-22-13-23(8-10-48(22,3)25(24)9-11-49(26,32)4)65-45-40(63)37(60)41(31(18-54)68-45)69-47-43(71-46-39(62)36(59)34(57)29(16-52)66-46)42(35(58)30(17-53)67-47)70-44-38(61)33(56)27(55)19-64-44/h20-47,51-63H,5-19H2,1-4H3/t20-,21-,22-,23-,24+,25-,26-,27+,28-,29+,30+,31+,32-,33-,34+,35+,36-,37+,38+,39+,40+,41-,42-,43+,44-,45+,46-,47-,48-,49-,50-/m0/s1
MSLEVEL=2
SOURCE_INSTRUMENT=N/A-ESI-QFT
FILENAME=library_mgf.mgf
SEQ=*..*
IONMODE=negative
ORGANISM=MONA
NAME=Tomatine [M-H]-
PI=MoNA
DATACOLLECTOR=MoNA:VF-NPL-QEHF026708
PUBMED=N/A
SUBMITUSER=mwang87
TAGS=
SPECTRUMID=CCMSLIB00004719720
SCANS=26708
71.871346 0.055147 
72.015808 1.389353 
72.364578 0.147812 
72.597786 0.106614 
72.991844 0.760504 
73.028137 21.952595 
73.059265 0.042027 
73.136459 0.145661 
73.465286 0.127246 
74.031387 0.190998 
74.730698 0.167303 
75.552971 0.103157 
77.251274 0.113631 
78.62439 0.137014 
79.18573 0.070486 
79.826111 0.069764 
81.033241 4.000364 
81.452858 0.048568 
82.184914 0.061409 
83.012512 17.168394 
83.103844 0.123099 
83.281532 0.157472 
83.657677 0.119235 
83.791801 0.067232 
84.380486 0.062946 
84.822945 0.074384 
85.028168 64.138771 
85.136215 0.154343 
85.280197 0.105974 
85.999634 6.332793 
86.031555 1.380943 
87.007469 24.641361 
87.673523 0.074232 
88.005829 0.139355 
88.010635 0.153213 
88.443016 0.120506 
88.802704 0.128817 
89.023117 24.016256 
89.041504 0.168396 
89.347641 0.069784 
89.792328 0.081377 
89.999008 0.118362 
91.051521 0.108875 
93.432129 0.054065 
93.880974 0.126035 
95.012543 23.793718 
95.487106 0.152268 
96.015785 0.159456 
96.04998 0.061321 
96.958786 0.631912 
97.028236 26.724613 
98.031578 0.136716 
98.466301 0.100603 
98.560242 0.149768 
99.0075 11.075991 
99.043846 0.696355 
99.135323 0.151109 
99.590508 0.127865 
100.011368 0.104231 
100.644066 0.046786 
101.02317 93.237541 
102.026474 1.970769 
103.251205 0.118837 
103.940826 0.070118 
105.261162 0.072084 
106.091026 0.109021 
107.012894 0.049643 
107.100891 0.122388 
108.438438 0.048201 
108.496048 0.060294 
109.193542 0.124598 
109.671616 0.115843 
109.98555 0.106354 
110.988853 0.125844 
111.007591 0.786439 
112.015358 2.307007 
112.36673 0.188047 
113.023201 100.0 
114.026512 3.779794 
115.03875 2.003424 
115.114059 0.123505 
117.017632 0.153677 
118.07518 0.083662 
118.13575 0.082888 
119.033691 2.255851 
121.748604 0.075533 
121.835579 0.129443 
123.417435 0.108 
124.015404 0.714273 
124.964256 0.149096 
125.023216 22.819155 
125.750252 0.120903 
126.026413 0.296942 
126.073318 0.143216 
126.917107 0.053298 
129.537704 0.08204 
129.821976 0.073575 
130.315689 0.115083 
131.033844 4.731158 
132.964661 0.137362 
135.044266 0.29619 
137.811417 0.074074 
139.038101 0.121735 
140.727417 0.081426 
140.798401 0.185514 
143.033829 17.203363 
144.042633 0.080206 
145.718964 0.104164 
146.834229 0.13374 
146.984879 0.075276 
149.043884 0.06235 
152.794342 0.139844 
153.054474 0.198654 
159.028229 0.089156 
161.044495 35.486324 
162.048019 0.2894 
166.690308 0.110891 
167.166275 0.120538 
168.364487 0.060116 
173.923843 0.117898 
180.864609 0.150626 
181.049911 0.128246 
185.718933 0.142961 
187.153549 0.06556 
193.39949 0.145543 
208.395584 0.044825 
209.69046 0.059347 
212.830795 0.047712 
214.005981 0.11286 
215.962051 0.048045 
221.066086 0.46102 
221.300827 0.123316 
225.749634 0.132437 
225.935486 0.045822 
228.212036 0.118515 
228.261368 0.053048 
229.609009 0.068644 
231.050446 0.075873 
231.703156 0.117958 
233.83107 0.051797 
234.482513 0.063249 
238.272156 0.128856 
239.109055 0.139637 
240.429276 0.158591 
240.677292 0.113524 
241.205399 0.0707 
242.244064 0.16371 
252.813965 0.050512 
253.570526 0.153176 
259.475494 0.140977 
262.689575 0.18002 
265.822632 0.093518 
267.779541 0.134901 
270.943359 0.115828 
274.93811 0.113788 
275.097015 0.139407 
280.485748 0.146639 
282.040588 0.060015 
284.976562 0.176184 
287.434143 0.121743 
288.412689 0.049395 
298.59317 0.129349 
304.200287 0.150247 
304.221893 0.076647 
308.669067 0.170724 
312.530151 0.119945 
352.225159 0.109487 
366.435211 0.054315 
374.028229 0.081903 
375.550507 0.119122 
407.259064 0.128284 
407.598419 0.093657 
407.913635 0.080141 
410.159424 0.060154 
421.348816 0.153569 
428.097321 0.12867 
442.378693 0.136791 
445.175079 0.050125 
456.348297 2.981373 
460.947876 0.05664 
465.965027 0.094801 
475.024567 0.146741 
483.014374 0.14443 
484.343414 1.670451 
485.3479 0.075856 
494.246246 0.076029 
510.361969 0.049632 
516.693848 0.17632 
531.262756 0.052693 
533.459167 0.13874 
534.205017 0.054451 
544.686646 0.127713 
546.074097 0.046371 
555.239868 0.083166 
576.340027 0.099079 
576.390381 33.462509 
577.394165 10.497494 
579.305847 0.065538 
600.408142 0.127309 
601.97168 0.064426 
616.822998 0.055236 
617.314575 0.133273 
631.448181 0.156672 
636.106506 0.045141 
648.898132 0.115266 
651.907532 0.07139 
672.414185 0.083508 
688.141052 0.061332 
708.010254 0.199648 
708.098145 0.267341 
708.198059 0.193549 
708.309326 0.554413 
708.993958 0.128242 
719.744934 0.082823 
720.067932 0.177951 
729.667236 0.140923 
796.141418 0.190622 
820.059814 0.146824 
826.789062 0.062225 
834.585938 0.174094 
845.067505 0.077368 
862.954102 0.16334 
872.984253 0.055877 
899.327026 0.082101 
1005.698669 0.084482 
1016.453735 0.155236 
1035.355591 0.192651 
1063.962036 0.136169 
1073.777588 0.051793 
END IONS

