BEGIN IONS
PEPMASS=323.02
CHARGE=1+
COMPOUNDNAME=Chloramphenicol
LIBRARYQUALITY=3
SMILES=N/A
INCHIKEY=WIIZWVCIJKGZOK-RKDXNWHRSA-N
INCHI=InChI=1S/C11H12Cl2N2O5/c12-10(13)11(18)14-8(5-16)9(17)6-1-3-7(4-2-6)15(19)20/h1-4,8-10,16-17H,5H2,(H,14,18)/t8-,9-/m1/s1
MSLEVEL=2
SOURCE_INSTRUMENT=N/A-ESI-QFT
FILENAME=library_mgf.mgf
SEQ=*..*
IONMODE=positive
ORGANISM=MONA
NAME=Chloramphenicol [M+H]+
PI=MoNA
DATACOLLECTOR=MoNA:VF-NPL-QEHF000409
PUBMED=N/A
SUBMITUSER=mwang87
TAGS=
SPECTRUMID=CCMSLIB00004691472
SCANS=409
50.981464 0.097486 
52.101994 0.07917 
54.034721 0.099051 
55.018635 7.730842 
55.044601 0.08065 
55.055016 8.924265 
55.320801 0.070803 
55.848042 0.084237 
55.935158 1.566926 
56.058304 0.077578 
56.062832 0.615943 
56.221516 0.075927 
56.781345 0.076197 
56.943176 0.119271 
56.965691 0.258854 
57.034286 0.338675 
57.069157 0.130342 
57.070675 8.747421 
57.538216 0.088305 
58.065929 7.661935 
58.484562 0.081766 
59.049908 1.83553 
59.061089 1.910251 
59.238304 0.08424 
59.365337 0.093377 
60.045101 0.657527 
60.129826 0.091181 
60.16507 0.081293 
60.182606 0.093786 
60.914013 0.079678 
61.011387 31.171286 
61.302044 0.074797 
62.014599 0.147532 
62.019203 13.957088 
63.007187 0.827113 
63.998428 0.380196 
65.619934 0.06605 
66.840927 0.078388 
67.054977 3.360598 
67.576088 0.078281 
67.90229 0.079968 
69.070564 13.714599 
69.874084 0.101483 
70.030022 0.083257 
70.065933 0.26687 
70.073837 0.085152 
70.078377 0.772707 
70.439056 0.084545 
70.94268 0.098494 
70.958611 0.471239 
71.049881 0.298853 
71.086189 5.082306 
71.93 0.877546 
72.04509 0.208411 
72.081451 0.073043 
72.937836 6.519089 
73.047852 0.091264 
74.931709 0.077137 
74.953316 0.212689 
77.222725 0.091667 
78.014076 0.542868 
79.02182 40.304844 
79.054955 0.205913 
79.108231 0.087263 
79.138382 0.075674 
80.025192 0.382453 
80.050102 2.662679 
81.017601 1.02472 
81.070465 4.356397 
82.53389 0.097931 
83.050095 0.078523 
83.083679 0.103434 
83.086113 9.103554 
85.065437 0.374376 
85.101791 1.958356 
86.060501 0.107063 
86.096992 19.756271 
87.04451 0.917826 
87.071358 0.085804 
87.100365 0.348934 
87.136581 0.100735 
87.906998 0.105164 
88.076431 0.288937 
88.952942 0.094742 
88.969032 0.283743 
89.034859 0.077236 
89.060242 6.700848 
89.911819 0.079052 
89.94043 1.787442 
89.964195 3.768239 
90.919868 0.082094 
90.948189 5.685698 
91.054771 5.959978 
91.057838 0.270239 
91.271484 0.076193 
93.070343 1.080349 
93.131493 0.079944 
93.511993 0.08099 
94.00174 0.07746 
94.190903 0.076008 
95.086006 5.235445 
95.572441 0.081349 
96.089439 0.096473 
96.64325 0.083758 
97.065376 0.464147 
97.101669 4.921493 
98.738602 0.100469 
98.975822 29.482988 
99.080887 0.084161 
99.463852 0.072442 
99.979172 0.274219 
100.075996 0.442916 
100.757324 0.078297 
101.003616 2.303403 
101.060226 0.241054 
101.263123 0.074668 
101.300858 0.07885 
101.950325 2.980798 
102.948135 0.730521 
102.968552 0.289913 
102.998764 0.076117 
103.076012 0.125783 
103.982742 0.086466 
104.070877 0.092722 
104.964439 0.078957 
105.070213 0.073504 
105.917381 1.081779 
105.981369 0.28358 
106.086494 0.205699 
107.000343 0.116052 
107.085884 1.533087 
107.21019 0.081435 
107.974937 0.08862 
108.958527 0.866063 
109.101463 3.500881 
109.994362 0.084746 
111.080772 0.397522 
111.117172 0.860138 
111.611626 0.080533 
111.769058 0.074051 
112.853325 0.08643 
113.060028 25.523479 
113.964287 0.115606 
114.063385 0.886145 
114.091614 0.220774 
114.94841 0.210852 
114.986542 3.4832 
115.486526 0.092374 
115.74926 0.123303 
116.005547 3.405842 
116.714027 0.099427 
116.963524 1.73668 
116.986168 17.333076 
117.003265 0.21671 
117.917198 0.684145 
118.463379 0.080322 
118.542992 0.064416 
118.92527 0.101155 
118.942848 0.701503 
119.085732 3.06229 
119.956512 0.279467 
119.960739 0.406572 
120.883415 0.080825 
120.958397 0.108754 
120.978981 0.136299 
121.101288 1.355705 
122.99395 0.113372 
123.117058 1.262025 
123.492935 0.096253 
123.553581 0.071265 
123.991653 8.017178 
125.096436 0.275143 
125.378799 0.088605 
126.984543 0.105207 
127.829155 0.07725 
128.96344 5.050663 
130.979095 1.513616 
131.000214 0.190973 
131.974365 0.539235 
132.653427 0.078522 
132.958221 3.69972 
133.085876 1.929728 
133.101303 0.603116 
133.948486 0.837639 
133.959213 0.195074 
134.956192 8.017365 
134.973434 0.113032 
134.978638 1.046999 
134.996521 4.789081 
135.116821 1.139912 
135.927643 1.361166 
136.062103 0.230053 
136.202728 0.074979 
136.95256 0.180086 
137.001526 0.19696 
137.476074 4.247761 
137.529358 0.084172 
137.971252 0.082336 
138.018082 0.099396 
138.474426 0.100361 
139.112061 0.111465 
139.718277 0.076375 
139.991776 0.074474 
142.122955 0.089913 
142.978973 0.711891 
143.068069 0.085128 
143.974243 0.574109 
143.990143 0.447701 
144.010452 0.575164 
144.340775 0.082945 
144.958542 1.794574 
144.987823 17.173956 
144.994049 0.389098 
145.488922 0.930423 
145.966934 0.193898 
145.985733 1.852577 
146.006775 0.517242 
146.117477 0.15938 
146.481339 2.056755 
146.973969 4.020953 
146.983673 0.11187 
147.005478 0.096571 
147.116653 0.293243 
147.927612 0.082364 
148.949539 0.089716 
148.955811 4.500655 
148.971741 9.66328 
148.989685 0.909217 
149.132523 0.365414 
149.889908 0.082709 
149.954056 2.091261 
149.960831 0.151124 
150.95108 77.695206 
150.968826 4.086901 
151.076019 0.100499 
151.547028 0.349443 
151.944305 0.201462 
151.951218 1.096636 
151.959091 0.219417 
152.89917 0.082685 
152.945572 3.041024 
152.95192 5.145126 
152.966705 4.017564 
152.989212 0.242345 
153.00705 0.126868 
153.938171 0.311499 
153.959229 0.936796 
153.993011 1.254085 
154.123398 0.152889 
154.522995 0.080808 
154.94101 0.214844 
154.94696 2.007533 
154.992096 0.075411 
155.954819 0.268574 
156.234802 0.089959 
156.994904 0.109204 
157.08403 0.093447 
157.990158 0.197582 
158.011002 0.235459 
158.555222 1.677485 
158.974213 0.277654 
158.995209 0.645644 
159.01001 0.096604 
159.969315 0.461371 
160.005783 0.260187 
160.552414 0.091288 
160.935303 0.607883 
160.971909 0.957367 
160.990005 0.733221 
161.011581 1.423721 
161.132019 0.094462 
162.951111 4.099669 
162.973618 0.506537 
163.959076 3.815592 
163.976791 1.094111 
164.966873 3.679222 
164.984573 0.259529 
165.065796 4.388319 
165.563034 1.592142 
165.938187 9.641423 
166.921692 0.122603 
166.966461 2.007568 
166.9823 1.354584 
167.125229 0.084566 
167.920227 4.103734 
167.965317 0.120267 
168.91713 13.245684 
168.924164 0.500631 
168.961639 32.845058 
168.982544 0.207972 
169.917282 1.284437 
169.977615 0.32364 
169.989883 0.337537 
170.010818 0.118387 
170.026123 0.359823 
170.914185 3.545875 
170.955231 6.643043 
171.011292 0.098306 
171.973907 0.112835 
172.005554 0.999123 
172.026917 0.34245 
172.570633 1.391729 
172.913757 0.855901 
172.952072 1.411767 
172.989899 0.363371 
173.011734 0.170274 
173.132812 0.080462 
173.961929 0.766502 
173.984894 0.785166 
174.005707 0.751804 
174.022095 0.185893 
174.989899 0.675614 
175.00618 0.113413 
175.958832 12.345717 
176.001389 0.188419 
176.911179 0.170954 
176.930847 0.101924 
176.989334 78.67749 
177.938065 0.341356 
177.992828 2.922767 
178.908264 0.175103 
178.946152 2.661792 
178.965912 0.245588 
178.98497 3.619897 
178.992859 0.259925 
179.000366 0.477343 
179.014664 1.035986 
179.022263 12.696059 
179.051941 0.087825 
179.142776 0.096318 
179.578186 0.201435 
179.66362 0.067644 
179.954178 2.863241 
179.963684 15.43517 
180.023239 1.408237 
180.943848 0.27751 
180.961548 8.624594 
180.98291 2.527937 
181.019318 1.831541 
181.031204 0.341374 
181.959457 0.361058 
181.969391 0.71381 
181.988266 0.097695 
181.996689 4.89771 
182.977356 4.895483 
182.997711 0.343738 
183.948608 2.692918 
183.967056 0.375359 
183.99411 0.426737 
184.00499 0.099362 
184.932419 1.789822 
184.990005 0.071434 
185.010742 0.17519 
185.930817 8.426561 
185.961472 18.819862 
186.021378 0.669082 
186.92775 32.819702 
186.961914 1.384129 
187.005203 0.864459 
187.927597 3.330257 
187.959625 0.192348 
187.977142 2.885052 
188.000244 0.732352 
188.021896 0.25788 
188.648071 2.896392 
188.915894 0.330554 
188.924454 12.280328 
188.966354 3.34916 
189.005402 0.741706 
189.149796 0.186674 
189.925888 0.445109 
189.976593 0.091315 
190.923737 1.677467 
190.966187 6.307327 
191.000488 0.207514 
191.922745 0.083431 
191.963867 3.167515 
191.972275 10.109893 
192.210266 0.081525 
192.92038 0.29188 
192.961639 52.382751 
193.083633 0.24324 
193.960754 0.222571 
193.969849 4.082492 
194.115555 0.26971 
194.922287 0.087072 
194.959 0.661618 
194.977676 0.834433 
194.999786 100.0 
195.948792 0.342023 
196.00351 3.921373 
196.042007 1.498321 
196.918045 0.083524 
196.93866 0.126755 
196.957092 0.840823 
196.995728 4.858119 
197.012741 0.198716 
197.032761 1.201794 
197.653122 5.274867 
197.97435 53.742653 
198.057938 0.090306 
198.154922 0.660764 
198.916412 0.081497 
198.955261 0.602667 
198.978119 0.236715 
198.992828 2.023883 
199.026657 0.069637 
199.041809 0.095783 
199.970184 2.482222 
200.007263 2.071021 
200.036423 0.08971 
201.966797 0.531148 
202.016083 0.260613 
203.000153 0.260385 
203.941376 0.416077 
203.993256 0.193775 
204.938339 0.084508 
204.961731 4.609915 
204.998138 2.966275 
205.015976 0.872644 
205.640244 0.112636 
205.970459 0.084919 
205.987595 15.480761 
206.658539 4.882855 
206.926254 1.101243 
206.977875 13.67913 
206.988083 1.468244 
207.03154 0.108861 
207.159882 0.293184 
207.478928 0.082585 
207.976669 0.38954 
207.986374 1.528015 
208.884201 0.117249 
208.976547 3.436623 
209.015671 0.88325 
209.935104 0.213215 
209.964188 0.289508 
209.974731 3.476845 
209.983292 0.571064 
210.057648 0.182734 
210.954437 1.182059 
210.972061 30.91728 
211.974411 1.09734 
211.989944 0.236295 
212.237244 1.921011 
212.972229 2.544386 
213.01033 7.862834 
213.9048 0.224549 
214.052322 0.103946 
214.968033 0.77011 
215.036545 1.964857 
215.804703 1.060386 
215.814362 0.695607 
215.822983 2.098348 
215.839005 0.435271 
215.984894 12.927565 
215.995255 0.112244 
216.032333 0.09964 
217.981506 0.093731 
219.031128 0.177454 
219.174301 0.735405 
219.97757 0.096476 
220.903625 0.195876 
221.625488 0.181638 
222.89856 4.787751 
222.960754 0.099554 
222.971771 3.317665 
223.006912 0.100686 
223.979919 5.582908 
224.073486 0.228811 
224.899063 0.132605 
224.937164 0.123286 
224.985931 0.078283 
225.020935 3.146181 
226.052795 0.09367 
227.036331 2.799114 
227.65477 2.001902 
227.900253 0.199131 
227.930542 0.668794 
227.953842 0.342575 
228.031357 0.302288 
228.067825 0.201199 
228.156647 0.199323 
228.928513 3.4312 
228.96463 0.094495 
229.052567 0.226182 
229.895889 5.287119 
229.926956 0.109733 
230.898056 0.178866 
230.916916 0.324432 
230.927216 0.156446 
231.915894 1.617305 
232.883316 0.246829 
232.958817 0.525066 
233.891678 0.486424 
233.987778 0.545201 
234.89917 0.339231 
235.178329 0.087779 
235.641083 3.841725 
236.142715 0.187763 
238.913452 0.480017 
238.967514 1.14603 
239.097412 0.092916 
239.90123 0.814895 
240.05191 0.110514 
240.232315 2.046648 
240.268524 1.038509 
240.909241 8.64468 
241.015579 0.09589 
241.051575 0.193085 
242.000122 1.025293 
242.047012 9.113213 
242.06868 0.085185 
242.084244 0.567514 
242.909546 1.021955 
243.031372 6.664514 
243.051483 2.181397 
243.065872 0.113301 
244.035263 0.103216 
244.049866 0.718866 
244.062927 1.463407 
244.085464 1.112465 
244.905396 3.516916 
245.046844 28.719408 
245.89212 0.104882 
245.911316 0.18249 
246.041855 1.717168 
246.051727 0.942339 
246.899353 0.837352 
246.940643 8.356272 
247.047089 1.229643 
247.906418 3.193487 
247.980377 3.421671 
248.928467 1.319046 
248.937912 1.794226 
249.024017 0.993976 
249.041931 0.940095 
249.193817 1.83402 
249.979218 0.260711 
250.894135 1.664747 
250.969513 0.337265 
251.02478 0.102188 
251.125198 28.34481 
251.974762 16.407282 
252.128555 3.561283 
252.977249 0.67208 
253.019211 0.086304 
253.970703 0.37047 
254.084045 0.253205 
254.977188 2.222042 
255.00354 0.117415 
255.067551 0.664628 
256.062592 1.556224 
256.099213 0.946553 
257.067352 0.108319 
257.083069 0.08432 
257.977722 0.954207 
257.995331 0.177098 
258.062866 2.01096 
258.077728 0.538436 
258.279358 0.209408 
259.04776 0.10844 
259.061951 2.947072 
260.057739 40.71983 
260.954956 0.329959 
261.041931 8.666983 
261.060699 4.461012 
261.073975 0.076211 
262.044586 0.146388 
262.058746 1.734247 
262.914673 3.445622 
263.0578 1.705906 
263.901093 0.46819 
263.914154 0.125832 
263.996307 0.542975 
264.052338 0.120503 
264.909088 16.325363 
265.056793 0.223649 
265.911224 0.389882 
265.939514 1.778775 
265.990906 26.127693 
266.085144 0.096554 
266.909851 1.890352 
266.946411 0.246819 
266.992065 3.932677 
267.034271 1.305801 
267.067627 0.628852 
267.939117 1.344355 
267.987366 0.933524 
268.099091 0.599007 
268.264313 0.221133 
268.90451 0.488466 
269.082306 0.106813 
269.135498 0.812102 
269.891907 0.331794 
270.078461 2.29597 
270.11496 1.906147 
270.902924 0.092292 
271.151093 0.321563 
272.078674 0.076219 
272.094055 1.140925 
272.936279 0.195358 
272.987701 1.581228 
273.077942 1.972989 
273.130676 0.763137 
274.072998 4.695984 
274.894318 0.365975 
274.969574 5.659882 
274.998108 0.875672 
275.901733 0.648964 
275.971497 0.889857 
276.193054 0.225296 
276.909546 1.280327 
276.93161 1.365225 
276.968384 0.9039 
276.994995 0.394751 
278.050293 0.102982 
278.208954 0.23028 
279.052521 0.117894 
279.74054 0.087332 
279.896301 0.702995 
279.915588 0.2259 
280.811371 0.082347 
280.924011 0.973587 
281.049438 0.077484 
281.895966 0.269589 
281.911224 7.122738 
282.115082 1.224447 
282.902405 0.668454 
282.919495 13.682809 
283.921448 0.236271 
284.093811 0.371629 
284.130676 1.094532 
284.153198 0.457169 
284.920166 1.900408 
285.026123 0.12243 
285.078156 0.114076 
286.109711 0.139532 
286.915039 0.738922 
287.093842 0.243095 
287.146545 1.015465 
288.072266 0.103525 
288.08902 3.383059 
288.909546 1.902209 
290.21228 0.085346 
290.924774 0.107223 
290.947662 1.435145 
292.980133 1.56212 
294.902435 0.682252 
294.941498 0.166726 
294.97879 0.098115 
295.926697 0.215105 
296.130798 0.083202 
298.109924 3.240226 
298.146454 0.96709 
298.346466 0.278632 
299.061066 1.472932 
300.125397 3.369158 
300.14679 0.109764 
300.973785 0.115719 
301.128448 0.114016 
301.161987 6.084009 
302.164459 0.677646 
303.034607 0.795936 
303.141663 3.386235 
303.177521 15.82257 
304.299377 10.505561 
304.924164 0.800043 
304.967682 0.095935 
305.049774 0.102867 
305.156677 51.118385 
305.30304 1.944253 
305.924347 0.329046 
306.160095 6.913311 
306.919464 10.320953 
307.134888 0.707643 
307.161926 0.276293 
307.921753 0.419573 
308.920258 0.261835 
308.957062 0.120888 
309.151184 0.13095 
312.161438 0.589292 
312.362152 0.497895 
312.837097 0.091133 
313.198456 4.345459 
313.234222 0.473493 
314.201904 0.12078 
315.177734 4.81627 
316.120178 1.539295 
316.224487 1.709223 
316.320618 1.102919 
316.904205 0.09329 
317.156799 4.399805 
317.19278 4.203306 
317.948883 0.687291 
318.15979 0.092983 
318.240143 3.783901 
318.949402 0.207339 
319.137024 2.162978 
319.172485 25.618507 
319.241943 0.116849 
320.175873 3.659367 
320.255554 1.423276 
323.14621 82.977028 
324.149139 14.052924 
324.930054 1.635667 
325.151154 1.272911 
325.197723 0.71471 
326.176788 0.724318 
326.377655 0.382271 
327.160767 0.171972 
327.250641 0.39656 
329.193024 1.856754 
331.135223 0.451616 
331.172363 4.797435 
331.208344 6.725086 
332.217773 2.166485 
332.330872 3.882286 
333.152161 3.307108 
333.187897 31.337732 
333.33429 0.27322 
334.191406 4.679969 
334.234955 3.130154 
335.166382 4.774734 
335.190399 0.325941 
335.23587 0.098824 
336.169067 0.404133 
336.250397 1.597655 
337.181915 0.127747 
337.234406 0.84333 
338.178131 0.102551 
338.266815 0.544919 
340.393036 2.102099 
340.551605 0.10533 
341.15686 3.720408 
341.193604 0.302352 
341.233795 0.091931 
341.266083 1.671225 
342.160278 0.092209 
342.269196 0.135456 
342.997345 0.082058 
343.208954 0.111129 
344.828674 0.122106 
344.975525 0.291858 
345.18808 3.151753 
347.166901 0.169928 
347.203705 15.207274 
347.2276 0.134392 
355.191589 0.344929 
END IONS

