BEGIN IONS
PEPMASS=345.0
CHARGE=1+
COMPOUNDNAME=MoNA:2563836 Gibb-tabs
LIBRARYQUALITY=3
SMILES=N/A
INCHIKEY=IXORZMNAPKEEDV-OBDJNFEBSA-N
INCHI=InChI=1S/C19H22O6/c1-9-7-17-8-18(9,24)5-3-10(17)19-6-4-11(20)16(2,15(23)25-19)13(19)12(17)14(21)22/h4,6,10-13,20,24H,1,3,5,7-8H2,2H3,(H,21,22)/t10-,11+,12-,13-,16-,17+,18+,19-/m1/s1
MSLEVEL=2
SOURCE_INSTRUMENT=LC-ESI-QQ-LC-ESI-QQ
FILENAME=output_mgf.mgf
SEQ=*..*
IONMODE=
ORGANISM=MONA
NAME=MoNA:2563836 Gibb-tabs [M-H]-
PI=MoNA
DATACOLLECTOR=MoNA
PUBMED=N/A
SUBMITUSER=mwang87
TAGS=
SPECTRUMID=CCMSLIB00000574442
SCANS=11693
82.87 2.052068 
142.966 10.056687 
221.154 5.572118 
226.81 1.789838 
238.381 3.038001 
239.128 43.250052 
239.686 1.350619 
276.213 1.17342 
283.237 2.95612 
301.339 1.438379 
344.623 69.158094 
345.382 100.0 
END IONS

