BEGIN IONS
PEPMASS=175.024
CHARGE=1+
COMPOUNDNAME=Aconitic Acid
LIBRARYQUALITY=3
SMILES=N/A
INCHIKEY=GTZCVFVGUGFEME-IWQZZHSRSA-N
INCHI=InChI=1S/C6H6O6/c7-4(8)1-3(6(11)12)2-5(9)10/h1H,2H2,(H,7,8)(H,9,10)(H,11,12)/b3-1-
MSLEVEL=2
SOURCE_INSTRUMENT=N/A-ESI-QFT
FILENAME=library_mgf.mgf
SEQ=*..*
IONMODE=positive
ORGANISM=MONA
NAME=Aconitic Acid [M+H]+
PI=MoNA
DATACOLLECTOR=MoNA:VF-NPL-QEHF026285
PUBMED=N/A
SUBMITUSER=mwang87
TAGS=
SPECTRUMID=CCMSLIB00004717348
SCANS=26285
50.145683 0.017348 
50.265266 0.022977 
50.396751 0.006804 
50.500046 0.009048 
51.702221 0.005273 
51.823689 0.006625 
52.228821 0.00874 
52.589794 0.01763 
53.479336 0.008854 
54.662632 0.016457 
54.751896 0.00576 
55.05452 0.022899 
55.571686 0.022361 
56.144077 0.008695 
56.59763 0.021168 
56.748184 0.020296 
56.918678 0.008802 
56.965103 1.156811 
57.070148 0.102409 
57.387943 0.01602 
58.056095 0.016947 
58.065395 0.129938 
58.342876 0.015848 
58.988224 0.318312 
59.049332 0.04511 
60.055866 0.482669 
60.517128 0.005951 
60.788071 0.017448 
61.010876 0.371238 
61.039833 0.007186 
62.018726 0.186931 
62.981953 1.660242 
62.990074 0.019672 
63.105091 0.0219 
64.474342 0.02418 
64.582054 0.02108 
64.62188 0.024962 
64.764648 0.017949 
66.302414 0.01534 
66.705338 0.014882 
67.041824 0.024348 
67.05439 0.150387 
67.70005 0.00564 
67.993217 0.859615 
68.529526 0.005307 
68.6567 0.005641 
68.779709 0.015943 
68.871948 0.005371 
69.069962 0.036857 
69.256889 0.006111 
69.395462 0.02479 
69.48671 0.089981 
69.884193 0.006596 
70.065224 3.601287 
71.06852 0.008395 
71.427589 0.006187 
71.745201 0.022209 
72.080788 0.204361 
72.286636 0.005841 
72.706253 0.019865 
73.627602 0.0106 
74.060013 0.018159 
74.096207 0.007697 
74.592552 0.02169 
75.967545 0.015516 
76.998268 3.217533 
77.071091 0.023799 
77.931015 0.006376 
78.013512 0.09165 
78.571381 0.017513 
79.021263 0.566296 
79.05426 0.19334 
80.248558 0.006102 
80.776588 0.015608 
81.069969 0.384841 
81.7444 0.017985 
82.97142 0.019195 
84.18631 0.011105 
85.224281 0.017264 
86.003609 5.279557 
86.096382 0.008458 
86.505478 0.025961 
87.044014 0.032101 
87.130432 0.008795 
87.535027 0.011447 
88.145653 0.011579 
88.549301 0.006038 
88.758682 0.009294 
89.407944 0.026706 
89.808578 0.005378 
89.979126 0.065383 
90.48291 2.030006 
90.976952 0.018627 
91.054276 0.479883 
91.487282 0.023577 
91.80822 0.021796 
91.829025 0.00997 
91.976639 0.041697 
92.227127 0.009009 
92.722687 0.015637 
93.066948 0.00574 
93.069885 0.376637 
93.118629 0.006354 
93.462891 0.016548 
95.008919 1.316072 
95.085526 0.267801 
95.702431 0.006923 
96.080811 0.006156 
97.547768 0.007633 
97.994682 5.00507 
98.096451 0.209392 
98.496216 0.035357 
98.975433 20.200514 
98.984467 0.141347 
98.992447 0.059269 
99.148956 0.018052 
99.488243 16.043045 
99.989891 0.156194 
100.486259 0.805359 
100.98204 0.008681 
101.808426 0.018482 
103.561707 0.025789 
105.069916 0.631584 
105.40683 0.005672 
106.496155 0.139212 
106.999962 46.48494 
107.08551 0.065577 
107.501846 1.590102 
107.989616 0.592167 
107.997917 2.141738 
108.001495 0.056183 
108.160286 0.021763 
108.420151 0.007173 
108.493484 43.836048 
108.995506 1.137296 
109.10099 0.007872 
109.491486 2.082781 
109.495338 0.091555 
109.510574 0.006448 
109.975227 0.010639 
111.488342 0.006351 
112.066856 0.019182 
112.075577 0.038556 
112.236473 0.017853 
112.290085 0.022199 
112.409081 0.009909 
112.887421 0.006058 
113.070953 1.811028 
114.007866 0.662895 
114.055038 0.310239 
114.091454 0.047846 
114.144981 0.022186 
114.807449 0.010419 
114.986229 0.299768 
115.075279 0.017961 
115.086655 0.120823 
115.187424 0.0091 
115.501389 1.004954 
115.513954 0.016465 
115.684883 0.009841 
115.748955 0.011547 
115.876808 0.00794 
116.005295 100.0 
116.07061 0.806349 
116.106941 0.124157 
116.199501 0.008547 
116.500267 0.021161 
116.507248 3.880212 
116.981178 0.055852 
116.985939 7.008296 
116.995453 0.020091 
117.003189 4.755682 
117.007378 0.538407 
117.069885 0.125759 
117.49881 9.539972 
117.692047 0.018102 
118.000519 0.074897 
118.496674 0.115565 
118.508057 0.050967 
119.085594 0.841642 
120.088959 0.019434 
120.852982 0.020306 
121.101036 0.01033 
121.111862 0.007257 
123.013077 2.364103 
123.359406 0.015494 
123.514694 0.01314 
123.991585 0.215435 
124.506714 0.025908 
125.010574 9.462065 
125.51226 0.250399 
126.0084 0.323211 
126.012901 0.024783 
126.684265 0.022806 
127.513252 0.029889 
128.216812 0.022663 
128.423492 0.00612 
128.591675 0.016903 
128.964966 0.006092 
129.006027 0.005786 
129.489899 0.11968 
130.097565 0.038368 
130.486938 0.010185 
131.085587 1.389507 
132.01799 0.024137 
132.088974 0.077817 
132.958206 0.006706 
133.101288 0.71151 
133.338638 0.024994 
133.396317 0.006879 
134.096451 0.243845 
134.919861 0.016142 
134.979019 0.03513 
134.996475 1.178047 
137.001648 0.138486 
138.019073 0.02001 
138.032196 0.011336 
138.4953 0.343245 
139.524338 0.017672 
139.528015 0.007065 
145.101227 0.181685 
146.006851 0.286767 
147.116852 0.189858 
148.344452 0.019423 
148.965225 0.010643 
148.972 0.007372 
150.066406 0.029653 
150.583466 0.024964 
150.951172 0.091822 
150.968399 0.022079 
153.95874 0.007502 
154.518372 0.018285 
156.138382 0.301785 
156.395844 0.016615 
157.130219 0.021407 
158.975723 0.019468 
159.068985 0.056681 
159.076279 0.697681 
159.091309 0.015746 
161.00235 0.417683 
161.887756 0.007478 
164.89592 0.020226 
166.518295 0.021851 
167.862152 0.020139 
168.553391 0.005982 
168.961884 0.062767 
170.291397 0.009065 
173.078537 0.782135 
173.10759 0.028301 
173.132553 0.870739 
173.952545 0.009157 
174.055069 0.248622 
174.082687 0.049282 
174.091492 0.139836 
174.127869 0.243269 
174.136002 0.078446 
174.149002 1.11383 
174.184921 0.015744 
174.710129 0.018762 
174.997864 0.025056 
175.112106 0.008116 
175.148056 1.060891 
175.91925 0.017683 
176.071075 0.007659 
176.107391 0.098758 
176.118378 0.314825 
176.127518 0.007172 
176.143539 0.469088 
176.151276 0.044822 
176.989578 0.026384 
177.102249 0.034786 
179.446716 0.006709 
180.037476 0.007135 
183.61412 0.009093 
183.638184 0.008982 
185.151291 0.021148 
185.299561 0.017885 
185.965057 0.009928 
188.760391 0.007605 
196.659302 0.020218 
END IONS

