BEGIN IONS
PEPMASS=380.166
CHARGE=1+
COMPOUNDNAME=Kasugamycin
LIBRARYQUALITY=3
SMILES=N/A
INCHIKEY=PVTHJAPFENJVNC-UQTMRZPGSA-N
INCHI=InChI=1S/C14H25N3O9/c1-3-5(17-12(16)13(23)24)2-4(15)14(25-3)26-11-9(21)7(19)6(18)8(20)10(11)22/h3-11,14,18-22H,2,15H2,1H3,(H2,16,17)(H,23,24)/t3-,4+,5+,6?,7+,8+,9-,10+,11?,14-/m1/s1
MSLEVEL=2
SOURCE_INSTRUMENT=N/A-ESI-QFT
FILENAME=library_mgf.mgf
SEQ=*..*
IONMODE=positive
ORGANISM=MONA
NAME=Kasugamycin [M+H]+
PI=MoNA
DATACOLLECTOR=MoNA:VF-NPL-QEHF013460
PUBMED=N/A
SUBMITUSER=mwang87
TAGS=
SPECTRUMID=CCMSLIB00004704523
SCANS=13460
50.056854 0.025315 
50.180664 0.017215 
51.182972 0.010304 
51.740112 0.018379 
51.859035 0.019487 
52.035366 0.015306 
52.968697 0.012901 
53.039326 1.810387 
53.839577 0.012953 
54.227123 0.01866 
54.279263 0.014189 
54.320892 0.011021 
56.050205 0.254673 
56.123428 0.015118 
56.163136 0.013541 
56.633499 0.012133 
56.886124 0.01405 
57.04538 0.040084 
57.070648 0.119232 
57.416878 0.01561 
58.065849 0.061207 
58.636608 0.011623 
59.061089 4.272401 
59.208065 0.015601 
59.587482 0.014528 
59.673553 0.01241 
60.08147 0.022373 
60.204788 0.011315 
61.082386 0.013515 
61.819534 0.016983 
61.850105 0.012663 
62.299046 0.017601 
62.349167 0.013332 
62.98579 0.017325 
63.408184 0.012576 
63.95393 0.015655 
65.264481 0.030449 
65.461365 0.019064 
65.870468 0.014763 
66.142929 0.021385 
66.819862 0.013518 
66.890648 0.03643 
67.054855 0.083204 
67.153984 0.018087 
67.411171 0.01478 
68.050072 0.054952 
68.291389 0.012894 
68.366798 0.018326 
68.577148 0.02016 
70.065773 100.0 
70.269936 0.016916 
70.44957 0.015269 
71.062813 0.07589 
71.069107 4.173864 
71.086143 0.029012 
71.885796 0.021515 
72.044937 0.03651 
72.192482 0.0137 
72.722771 0.013861 
73.047455 0.58275 
74.060669 0.354155 
74.590538 0.015066 
74.894974 0.011054 
75.507614 0.014603 
75.68911 0.018727 
75.694557 0.023682 
75.755547 0.020684 
76.850761 0.020659 
78.988457 0.018573 
79.021828 0.015364 
79.57679 0.023007 
79.824509 0.015374 
81.034058 0.149202 
81.04525 0.422135 
81.070473 0.022239 
82.065666 0.857847 
82.454231 0.018059 
83.049736 0.07648 
83.060936 1.597133 
83.790398 0.01825 
84.044937 0.01637 
84.081299 0.390561 
85.817116 0.014272 
85.839867 0.021807 
88.000778 0.01048 
88.249863 0.019517 
88.34346 0.018332 
88.359589 0.015585 
88.364197 0.01574 
89.035019 3.215721 
89.087196 0.018251 
89.225235 0.010899 
89.419617 0.020927 
89.553207 0.015812 
90.677711 0.025444 
91.05497 0.01548 
91.057838 0.819504 
92.304985 0.016862 
92.421959 0.01389 
93.329056 0.019621 
93.696465 0.01157 
94.065567 1.972105 
95.049545 2.949984 
95.060799 0.402721 
95.082573 0.02024 
95.241074 0.022654 
95.712761 0.013942 
96.052826 0.044374 
96.081223 0.037759 
97.064774 0.019751 
97.076492 0.093812 
97.589676 0.01422 
98.060364 0.487536 
98.9758 0.118095 
99.055641 0.443742 
101.732796 0.020245 
101.903893 0.019791 
102.148666 0.019893 
102.495575 0.029886 
104.120644 0.016431 
105.475441 0.019717 
107.173569 0.015224 
107.83429 0.022784 
108.781395 0.016261 
108.915215 0.014418 
109.028671 0.468988 
109.191498 0.022156 
109.291 0.01472 
109.78521 0.019722 
110.731277 0.017025 
111.091904 0.978216 
112.075912 83.870949 
112.160141 0.012091 
113.059998 0.163519 
113.071632 0.434706 
113.079247 5.334954 
113.75666 0.019396 
114.366302 0.018435 
114.799446 0.017125 
115.10788 0.02099 
116.986221 0.035975 
118.033157 0.013624 
118.08622 0.036394 
118.433357 0.015646 
121.020447 0.017697 
121.07621 0.283619 
121.491402 0.013785 
122.060425 0.040828 
122.250595 0.014628 
123.56884 0.022472 
123.764687 0.019121 
123.81958 0.022306 
124.75013 0.013841 
124.856636 0.017002 
127.049606 0.023266 
128.079071 0.020098 
128.112106 0.016806 
128.170059 0.021004 
128.683243 0.021625 
128.704422 0.018536 
128.795639 0.025532 
129.102402 0.023167 
129.73584 0.018886 
131.179626 0.017541 
135.513824 0.017008 
137.258652 0.022705 
137.623718 0.02121 
138.10257 0.1184 
138.538452 0.022427 
138.622894 0.012037 
139.086578 1.049803 
139.35051 0.017419 
140.723251 0.017896 
140.976318 0.015744 
141.340897 0.018115 
142.017303 0.017463 
142.0495 0.023473 
143.892273 0.01094 
145.365204 0.022454 
145.508774 0.018658 
148.154221 0.018841 
149.023346 0.530574 
153.047638 0.015005 
154.271805 0.01984 
155.874725 0.015182 
155.883957 0.016762 
156.113098 5.400677 
157.116455 0.1172 
160.668884 0.023715 
161.342957 0.019856 
165.066879 0.020458 
165.574905 0.016412 
171.114365 0.020071 
176.027359 0.017928 
178.085831 0.025725 
178.095093 0.639485 
178.628998 0.016748 
180.369797 0.020335 
183.076691 0.057996 
186.960602 0.023832 
187.411987 0.020481 
188.149673 0.020631 
188.400833 0.014908 
188.454803 0.016758 
188.549896 0.017208 
190.106506 0.015804 
195.548386 0.015021 
198.079498 0.017005 
198.28038 0.016669 
200.102966 1.328624 
203.052673 0.640332 
207.219864 0.019869 
207.55191 0.011484 
208.448959 0.022742 
211.744202 0.01703 
212.070557 0.025073 
213.054657 0.072345 
214.817886 0.023805 
214.829208 0.019814 
215.243713 0.039027 
215.260971 0.709133 
215.27475 0.575728 
215.286652 0.139949 
215.953186 0.020196 
216.420471 0.016269 
218.163315 0.028238 
218.269547 0.021025 
223.012802 0.01745 
227.776093 0.012652 
230.080902 0.018461 
232.191513 0.014581 
247.406845 0.021109 
247.43924 0.020776 
254.146957 0.015407 
255.038483 0.104233 
255.212387 0.023428 
255.758987 0.018667 
256.060699 0.046501 
258.996307 0.032443 
260.866058 0.013913 
261.030792 0.02117 
261.255402 0.015812 
268.977081 0.021376 
269.469879 0.019694 
271.03006 0.016641 
271.061462 0.018379 
272.65741 0.0197 
274.071075 0.044717 
274.128387 0.046021 
275.991577 0.020263 
278.181641 0.015341 
284.819855 0.016887 
285.009521 0.069814 
289.46994 0.019413 
295.600433 0.01549 
302.729797 0.024298 
319.837616 0.017585 
328.702026 0.016148 
337.848175 0.013176 
351.274506 0.0188 
358.158051 1.714873 
359.16153 0.028592 
362.023834 0.019917 
364.874054 0.020025 
366.670227 0.011707 
368.425293 0.191956 
369.428802 0.021364 
369.838104 0.021707 
373.066376 0.022912 
393.210449 0.044081 
398.445709 0.016455 
420.069366 0.01556 
425.798523 0.020713 
END IONS

