BEGIN IONS
PEPMASS=1323.71
CHARGE=1+
COMPOUNDNAME=POLYMYXIN B SULFATE
LIBRARYQUALITY=3
SMILES=N/A
INCHIKEY=HFMDLUQUEXNBOP-UHFFFAOYSA-N
INCHI=InChI=1S/C56H98N16O13.H2O4S/c1-7-32(4)13-11-12-16-44(75)63-36(17-23-57)51(80)72-46(34(6)74)56(85)68-39(20-26-60)48(77)67-41-22-28-62-55(84)45(33(5)73)71-52(81)40(21-27-61)65-47(76)37(18-24-58)66-53(82)42(29-31(2)3)69-54(83)43(30-35-14-9-8-10-15-35)70-49(78)38(19-25-59)64-50(41)79;1-5(2,3)4/h8-10,14-15,31-34,36-43,45-46,73-74H,7,11-13,16-30,57-61H2,1-6H3,(H,62,84)(H,63,75)(H,64,79)(H,65,76)(H,66,82)(H,67,77)(H,68,85)(H,69,83)(H,70,78)(H,71,81)(H,72,80);(H2,1,2,3,4)
MSLEVEL=2
SOURCE_INSTRUMENT=N/A-ESI-QFT
FILENAME=library_mgf.mgf
SEQ=*..*
IONMODE=positive
ORGANISM=MONA
NAME=POLYMYXIN B SULFATE [M+Na]+
PI=MoNA
DATACOLLECTOR=MoNA:VF-NPL-QEHF027922
PUBMED=N/A
SUBMITUSER=mwang87
TAGS=
SPECTRUMID=CCMSLIB00004721503
SCANS=27922
92.303818 0.111844 
92.445473 0.103031 
92.449539 0.108541 
94.378517 0.09654 
94.425819 0.094963 
95.70327 0.095098 
96.595718 0.096392 
96.846619 0.101816 
96.850632 0.102522 
98.071381 0.553539 
98.678413 0.10446 
99.283806 0.095929 
99.391121 0.106975 
100.07579 0.10575 
100.086868 4.722265 
100.645264 0.11709 
100.96154 0.106896 
101.070953 100.0 
101.074753 1.751013 
101.908028 0.118158 
102.05497 1.055342 
102.07428 3.719472 
103.054092 0.367387 
103.649796 0.117108 
103.863548 0.110973 
104.469841 0.098554 
105.687241 0.105619 
106.658249 0.119227 
110.008064 0.099051 
111.055153 0.660818 
111.192627 0.11056 
112.075729 0.253162 
112.086823 0.111616 
113.070862 2.067316 
113.509537 0.120096 
115.876579 0.108205 
117.662323 0.095635 
119.08152 18.984037 
119.649841 0.099239 
120.08075 36.936317 
120.149536 0.109818 
121.076126 0.364607 
121.084122 1.919116 
123.055298 2.239697 
123.092003 0.132208 
123.116745 2.185064 
123.401405 0.116336 
127.08651 7.17821 
128.081741 0.236111 
128.580292 0.099617 
129.039078 0.108459 
129.065933 0.258171 
130.350571 0.105565 
136.970413 0.103049 
137.070908 1.608295 
138.102402 0.536035 
139.049942 0.106753 
139.086639 4.822641 
140.081787 2.784483 
140.118744 0.111968 
141.065826 1.393484 
145.372894 0.11361 
148.086929 0.260775 
149.045563 0.109096 
149.070923 3.349986 
149.102203 0.106182 
155.081512 0.135668 
156.11319 3.473624 
157.097107 13.559041 
157.108337 1.98591 
158.092422 5.917794 
158.153366 0.249866 
160.727997 0.102507 
161.345901 0.103408 
165.102615 0.213627 
166.097443 8.136167 
167.055145 0.99234 
167.081573 5.408242 
168.07692 0.230263 
169.097183 0.118796 
169.133575 1.56398 
170.092453 0.150134 
170.122681 0.097199 
174.123779 5.826748 
178.097092 0.105442 
182.093277 0.435104 
183.124023 29.418297 
184.098709 0.161064 
184.107925 38.427872 
184.127655 1.376762 
185.084076 0.13228 
185.092072 7.256845 
185.11171 1.618603 
186.159912 0.510685 
186.703445 0.108336 
188.102921 0.440245 
190.110443 0.099464 
193.292053 0.129284 
194.09227 2.161283 
194.692764 0.11151 
196.107803 0.27534 
197.240707 0.108424 
201.102478 0.107453 
201.134567 34.394348 
202.11853 79.51152 
202.137115 0.210112 
203.121841 5.912503 
204.149918 0.115379 
205.042343 0.107328 
205.108551 0.373358 
205.51619 0.121194 
206.092133 0.342603 
208.656708 0.123736 
209.102905 0.129628 
209.128601 4.535068 
209.164688 1.831194 
210.123795 0.118053 
210.911316 0.115643 
211.119034 4.964832 
211.964951 0.113079 
212.103012 2.773406 
212.499512 0.116967 
213.102615 0.448832 
213.134583 1.392319 
213.171509 0.231231 
214.154877 15.877361 
215.15834 0.878005 
219.145996 3.873986 
220.108978 0.109809 
221.890732 0.109478 
222.135803 0.136757 
223.11882 1.380931 
223.155304 0.111101 
223.180283 9.508645 
223.218811 0.129168 
224.103043 0.54119 
224.139389 2.308508 
224.184189 0.347394 
224.339966 0.107891 
225.043152 1.103808 
226.117661 0.119529 
227.175507 5.325426 
230.128815 8.288632 
231.112808 0.608754 
231.13298 0.115048 
232.106796 0.138405 
233.164597 51.79208 
233.836014 0.111332 
234.168411 7.906597 
235.948807 0.10057 
238.118744 1.060289 
239.095306 0.491527 
239.150192 6.74737 
240.133545 0.25901 
240.145248 6.785876 
240.207031 1.234769 
241.114807 0.102189 
241.129379 6.770848 
241.190887 20.330009 
242.175156 0.247928 
242.194489 1.735936 
243.91275 0.115927 
243.98584 0.110337 
247.143723 0.184891 
248.138977 13.948477 
249.133759 1.011936 
249.14473 0.146353 
250.11824 1.496001 
252.208481 0.121564 
254.048584 0.120791 
255.144913 0.121031 
256.176178 0.111407 
256.235291 0.100316 
256.281677 0.114145 
256.543854 0.116915 
257.1604 8.360108 
258.123596 1.982003 
258.156555 0.773671 
261.159607 38.29493 
262.163086 5.698014 
265.130157 0.256871 
266.161194 8.064205 
266.186462 0.465408 
267.145142 12.752736 
268.146393 0.378825 
269.159363 0.12357 
270.157562 0.249269 
271.143127 0.640119 
273.796173 0.103234 
276.821075 0.109066 
278.187683 0.118023 
280.125458 0.748265 
280.18512 0.117716 
280.201965 5.675344 
282.218842 0.098748 
282.606964 0.130885 
283.185333 0.119756 
284.142212 0.242968 
284.171448 51.689507 
285.009644 0.739831 
285.15564 20.529791 
285.174072 7.672524 
286.158264 2.30658 
287.442017 0.115609 
288.166595 0.586537 
294.155884 1.538858 
296.102631 2.606096 
296.208374 7.367202 
296.233002 2.944003 
297.192169 5.259101 
297.216278 3.778008 
298.194824 0.12666 
299.062195 1.314366 
299.175751 0.117179 
301.198059 0.320004 
301.983337 0.117206 
302.182007 84.220604 
303.185211 11.139318 
306.156464 0.586019 
306.217316 0.628097 
306.677185 0.147728 
307.20105 0.116355 
310.211731 0.289099 
311.576965 0.1093 
312.166107 1.606824 
312.183472 0.321661 
313.094971 0.11584 
313.167358 0.232957 
314.112732 0.512361 
314.1828 0.156456 
314.218689 1.319162 
315.792725 0.111415 
316.201385 1.147999 
320.171997 0.121971 
322.198517 0.329594 
323.182709 3.577353 
324.166412 1.491503 
324.228485 1.588846 
325.21283 0.2548 
326.186127 5.704274 
327.190674 0.108468 
328.223022 0.130027 
330.192963 0.84114 
331.176819 0.229131 
332.171387 0.444503 
341.193176 1.991019 
341.701996 0.094406 
342.238525 1.532057 
343.212952 5.193672 
344.196411 2.206733 
344.486847 0.097014 
345.197021 0.129316 
349.198181 2.126586 
350.182068 1.690075 
352.235504 0.114349 
358.901489 0.103521 
359.02948 0.459247 
359.170746 0.140495 
359.202087 0.760824 
360.23938 2.756698 
361.222992 27.027832 
362.226288 5.659348 
362.252625 1.519718 
366.224609 1.834185 
367.208466 9.436209 
368.191711 1.41939 
371.183777 0.265246 
371.206696 9.042119 
372.212311 0.604384 
373.004791 0.114273 
375.801819 0.104601 
376.174194 0.103142 
378.154572 0.522513 
379.279877 0.282701 
380.265381 0.605616 
383.204742 0.132762 
384.235016 9.665628 
385.21756 12.474626 
386.221222 2.250933 
387.213104 0.169475 
395.203613 0.116383 
396.166321 1.429203 
399.170715 3.842474 
399.242462 0.117815 
402.245544 15.774457 
403.227509 7.994897 
404.231659 1.212924 
405.224579 0.137792 
405.293335 0.108939 
407.264557 0.548737 
408.2388 0.360184 
410.275818 1.717654 
411.155884 0.139514 
411.259399 0.144295 
412.232117 0.103848 
412.667725 0.112587 
413.23111 0.66751 
414.213867 0.910736 
414.248871 0.113053 
415.187164 0.119802 
416.2659 0.107497 
420.245514 0.172002 
422.206848 0.142192 
423.25058 0.288312 
423.746704 0.159381 
424.230988 0.137018 
424.291779 7.991241 
425.27301 3.04995 
426.249237 1.120221 
426.278992 0.187613 
427.302673 0.631486 
428.286194 0.27502 
431.240051 10.448743 
431.271912 0.147157 
432.222015 0.13506 
432.245911 0.225391 
441.257233 1.022365 
441.318939 4.485857 
442.240631 2.044911 
442.301666 4.413756 
443.275879 22.455421 
444.258179 9.659784 
445.263153 1.585023 
447.270477 0.736628 
449.250092 16.114361 
450.252777 4.347355 
453.258667 0.632539 
455.766235 0.150609 
460.303467 1.129862 
461.201233 0.120814 
461.28653 49.700581 
462.290344 11.262751 
463.290649 0.45796 
464.279694 0.472139 
464.776215 0.431905 
467.273468 2.246607 
468.25705 0.627401 
471.270996 3.359721 
473.286011 0.581786 
480.318848 0.124587 
481.22403 1.521685 
482.229248 0.258459 
482.284882 0.288718 
483.257843 2.360435 
484.255219 0.237028 
485.28241 10.557817 
486.277924 0.755908 
491.210968 0.266497 
495.268402 0.128645 
496.268463 0.119706 
498.374573 0.567371 
499.232971 3.090507 
499.302124 1.033874 
500.299072 1.442385 
503.292603 12.307648 
504.297241 2.152368 
506.345062 0.126886 
507.205566 1.124878 
508.303253 1.081972 
509.288055 0.567943 
510.339203 1.597583 
513.290771 0.146311 
516.330017 0.608012 
517.310913 0.11756 
518.272705 0.258144 
520.316528 0.118751 
521.83252 0.147734 
522.269043 1.054241 
524.354553 9.52133 
525.327576 1.539724 
525.362122 0.17026 
526.31543 4.595181 
527.298767 1.771043 
531.303711 1.521976 
532.295227 0.135371 
534.33905 0.274479 
536.289124 0.164139 
537.296875 0.127337 
538.245911 0.316575 
542.363281 0.308532 
543.338684 17.499348 
544.322144 11.403363 
545.32373 0.960206 
546.342346 0.125397 
549.31427 0.724609 
550.313721 0.13318 
553.32312 0.458598 
558.14679 0.122291 
561.351013 7.262023 
562.33374 10.895593 
563.335754 0.86555 
564.336243 0.112188 
566.302734 0.132683 
581.372864 0.26327 
582.349121 2.148649 
583.33551 0.708984 
584.869019 0.111571 
585.346375 3.534191 
586.343262 0.127932 
589.382202 0.149253 
590.36731 0.118513 
593.377869 0.767318 
593.875977 0.145682 
598.381531 0.138534 
600.359924 3.793587 
601.358643 0.481954 
603.357666 3.307414 
604.363403 0.257196 
606.405334 0.229802 
607.391785 3.781814 
608.368225 1.156885 
609.356445 0.310087 
609.657288 0.112705 
610.340454 0.618528 
611.386658 0.896818 
614.338623 1.182322 
615.338806 0.134887 
616.392029 0.160565 
617.374939 0.1165 
625.401428 6.249238 
626.378174 4.254966 
627.362732 5.488568 
628.360474 0.766688 
629.3974 2.883566 
630.372375 0.141979 
631.364441 0.139417 
632.351929 3.298392 
633.35199 0.437636 
636.331665 0.286975 
643.412231 11.07371 
644.385742 25.073715 
645.383667 10.193205 
646.386597 0.982161 
648.380798 1.168658 
649.380737 0.137348 
650.361877 5.104948 
651.36438 0.391575 
652.3255 0.616082 
653.360291 0.1378 
654.368774 0.614126 
656.316895 0.792996 
662.397949 34.010509 
663.340149 0.116226 
663.399658 12.29275 
664.402893 3.434087 
665.393127 0.823174 
666.379272 0.131467 
669.351685 0.603064 
674.388611 0.165634 
680.387878 0.916831 
682.414185 6.445984 
683.40625 2.732542 
685.434631 2.812009 
686.442688 0.181372 
689.444641 0.141216 
690.427124 0.706965 
691.406738 0.341588 
692.390015 0.181218 
699.430481 1.072276 
700.425049 5.067417 
700.791138 0.115166 
701.418518 1.203379 
707.457947 1.81645 
708.433899 5.007227 
709.4198 4.006507 
709.524353 0.205785 
709.59375 0.196974 
709.831665 0.396405 
709.896484 0.151989 
709.917664 0.159866 
709.996887 0.456988 
710.08728 0.288468 
710.40387 1.778009 
711.452576 1.652036 
712.435059 0.513061 
716.457703 0.457318 
717.441711 0.667464 
718.41748 0.301022 
725.46875 7.684316 
726.441101 15.872512 
727.427734 15.582601 
728.424866 5.833849 
729.462585 1.228939 
730.435425 3.709861 
731.430237 0.77133 
732.41449 0.320178 
738.371521 0.170875 
743.03186 0.129994 
743.477783 7.3743 
744.450684 77.247513 
745.449768 38.716545 
746.449585 10.281023 
747.448181 1.338941 
748.444946 3.026379 
749.448303 0.162799 
754.434875 0.481712 
756.380615 0.568345 
756.44989 0.148617 
762.461182 49.972576 
763.463928 20.16218 
764.464844 4.460688 
765.458313 0.176605 
766.43634 0.325645 
766.780518 0.119336 
768.421265 0.145453 
774.462097 0.169239 
780.451111 5.930951 
781.452087 1.61849 
782.478149 0.126599 
784.443604 1.795 
785.444763 0.139748 
789.512939 0.136852 
792.449646 0.494732 
809.482117 0.59597 
810.468567 0.668992 
811.512634 0.429716 
825.52948 4.573363 
826.523376 2.41536 
827.490967 1.636772 
828.481689 1.450979 
829.522278 0.362401 
843.541626 5.053912 
844.521179 5.397712 
845.503357 6.955627 
846.497314 2.984328 
847.503601 0.133467 
849.493408 0.124357 
854.517883 0.338296 
857.50116 0.124796 
862.530396 0.310455 
863.510864 7.073872 
864.513062 1.491575 
865.50946 0.329713 
866.502136 0.415896 
872.534729 1.432998 
883.524109 1.597592 
884.509033 5.41347 
885.512024 0.607439 
890.543701 0.814602 
891.547729 0.180974 
895.454346 0.123875 
901.535034 4.975291 
902.534119 1.605499 
903.55011 0.140277 
909.538818 0.191298 
910.531616 1.123258 
911.514893 0.468217 
927.550964 7.554176 
928.5448 6.708043 
929.541077 2.029685 
931.546021 0.97629 
945.562195 20.516451 
946.561768 12.6765 
947.560547 3.876946 
948.567749 0.127206 
949.552612 0.249842 
951.568542 0.120498 
963.570984 11.861838 
964.574524 5.844763 
965.579895 0.64873 
966.617615 0.147045 
968.58606 0.189058 
971.611755 0.158989 
972.593628 0.444221 
973.591858 0.142951 
985.627075 0.568845 
986.427673 0.132044 
986.604431 0.352735 
988.624695 0.131608 
1003.629761 0.776729 
1024.635986 0.265655 
1049.662842 0.157893 
1052.644409 0.113567 
1053.652466 0.149137 
1054.640625 0.323181 
1055.644165 0.134773 
1067.670898 2.818923 
1068.662476 2.809552 
1069.659302 0.556214 
1071.665527 2.966255 
1072.662842 1.571679 
1073.66333 0.151613 
1080.675049 0.13005 
1084.673706 0.115835 
1085.68396 7.978813 
1086.678833 5.607972 
1087.679199 2.231502 
1088.671631 0.993032 
1089.674316 5.207965 
1090.677002 1.673088 
1091.679321 1.042159 
1092.68103 0.78812 
1101.656006 0.1354 
1103.694336 9.641853 
1104.694702 6.202458 
1104.821533 0.136696 
1105.696533 5.835947 
1106.693359 3.946656 
1107.686523 1.575356 
1109.693237 3.904939 
1110.689819 2.459022 
1111.690796 0.284785 
1117.694702 0.133253 
1118.673096 0.289097 
1119.677124 0.576027 
1120.685303 0.129121 
1121.700073 0.132178 
1123.709473 10.811923 
1124.710938 8.618253 
1125.701416 2.933921 
1126.701294 0.602877 
1127.706299 1.33541 
1128.717285 0.323703 
1130.684814 0.115754 
1131.708984 0.165522 
1132.707153 1.121731 
1133.710083 0.163799 
1134.699219 0.1353 
1135.703857 3.36483 
1136.699463 3.2567 
1137.697144 2.817437 
1138.705688 0.430483 
1139.703735 0.584595 
1140.713989 1.028003 
1141.725586 5.062069 
1142.726807 2.991168 
1143.726685 0.482555 
1148.695801 0.703578 
1149.723022 9.129837 
1150.720703 9.646628 
1151.717285 5.347821 
1152.701904 1.037009 
1153.719604 16.096548 
1154.718628 13.654322 
1155.710815 5.331763 
1157.721436 1.429198 
1158.710693 0.297645 
1159.726685 0.146203 
1163.703735 2.415652 
1164.703369 0.861585 
1165.712891 0.163675 
1166.710205 2.450061 
1167.734009 33.818611 
1168.73291 31.30369 
1169.728516 15.241759 
1170.726318 4.817681 
1171.729126 34.325657 
1172.7323 22.552649 
1173.732544 7.853684 
1174.728638 0.689078 
1175.717407 0.322448 
1179.723145 0.156354 
1180.701172 0.354788 
1181.712891 13.468885 
1182.714233 7.569351 
1183.721924 2.861229 
1184.720459 0.807156 
1185.744507 75.832756 
1186.747192 56.210197 
1187.745972 22.02022 
1188.747314 6.778988 
1189.741333 21.169306 
1190.741089 12.068804 
1191.741455 2.981417 
1194.72583 0.1416 
1197.739014 1.652377 
1198.741089 1.095073 
1201.737305 0.521849 
1202.741943 0.446077 
1203.754761 43.865959 
1204.757324 29.150753 
1205.76123 11.178162 
1206.759277 1.717749 
1207.728027 5.943318 
1208.725342 2.412637 
1211.719727 4.229399 
1212.724487 1.995465 
1224.715454 0.321095 
1225.737183 58.51199 
1226.740234 36.038895 
1227.745117 9.785517 
1241.71875 0.140368 
1321.877563 59.660664 
1322.878662 60.788399 
1323.877197 28.878441 
1324.875488 8.243533 
END IONS

