BEGIN IONS
PEPMASS=734.469
CHARGE=1+
COMPOUNDNAME=ERYTHROMYCIN
LIBRARYQUALITY=3
SMILES=N/A
INCHIKEY=ULGZDMOVFRHVEP-RWJQBGPGSA-N
INCHI=InChI=1S/C37H67NO13/c1-14-25-37(10,45)30(41)20(4)27(39)18(2)16-35(8,44)32(51-34-28(40)24(38(11)12)15-19(3)47-34)21(5)29(22(6)33(43)49-25)50-26-17-36(9,46-13)31(42)23(7)48-26/h18-26,28-32,34,40-42,44-45H,14-17H2,1-13H3/t18-,19-,20+,21+,22-,23+,24+,25-,26+,28-,29+,30-,31+,32-,34+,35-,36-,37-/m1/s1
MSLEVEL=2
SOURCE_INSTRUMENT=N/A-ESI-QFT
FILENAME=library_mgf.mgf
SEQ=*..*
IONMODE=positive
ORGANISM=MONA
NAME=ERYTHROMYCIN [M+H]+
PI=MoNA
DATACOLLECTOR=MoNA:VF-NPL-QEHF003380
PUBMED=N/A
SUBMITUSER=mwang87
TAGS=
SPECTRUMID=CCMSLIB00004694443
SCANS=3380
51.917587 0.016183 
52.039062 0.016331 
52.346615 0.017596 
52.57373 0.017777 
53.002975 0.282628 
53.039349 0.28067 
53.071003 0.021233 
53.939278 0.015552 
54.018471 0.021256 
54.843857 0.01865 
54.945419 0.018392 
55.018635 0.120111 
55.054996 6.617394 
55.092152 0.0201 
55.341515 0.017909 
55.45533 0.016334 
55.863338 0.02006 
56.050217 0.148502 
56.070877 0.018261 
56.216942 0.01931 
57.058041 1.077949 
57.070614 0.043651 
57.0751 0.017022 
57.454414 0.017146 
58.06588 1.292267 
59.049896 5.813085 
59.33876 0.018012 
59.882141 0.02318 
60.053406 0.017373 
60.655384 0.019125 
61.028988 0.021725 
61.673649 0.016014 
62.158531 0.018449 
62.201267 0.016167 
62.328678 0.018937 
62.879215 0.017293 
63.564228 0.018071 
63.950703 0.014768 
64.667946 0.019219 
65.199646 0.017251 
65.408508 0.015478 
66.163086 0.016375 
67.054901 0.088302 
68.050301 0.020138 
68.254601 0.018634 
69.034157 0.166394 
69.070541 0.26397 
69.4813 0.016343 
70.065826 1.138829 
71.049789 0.410265 
71.073631 0.353422 
71.086197 0.213999 
71.471924 0.018556 
72.081444 29.846247 
72.276939 0.017069 
73.052879 0.505386 
73.065437 0.546198 
73.084793 0.584734 
74.392097 0.018472 
75.398979 0.0157 
76.397926 0.01621 
76.644516 0.016254 
77.013374 0.01592 
78.543976 0.015535 
79.054817 0.377451 
80.606323 0.015975 
80.91378 0.017385 
81.07048 2.086549 
81.5494 0.017108 
81.97879 0.01859 
82.055046 0.015902 
82.073807 0.023043 
82.268951 0.016187 
82.721207 0.017084 
82.953896 0.016639 
83.04969 100.0 
83.073463 0.023071 
84.053055 2.934488 
84.081314 2.065214 
85.028954 0.547444 
85.065376 0.295434 
85.666466 0.01587 
86.060608 0.212033 
86.096992 0.047114 
87.044586 14.541031 
87.068398 0.062247 
87.109566 0.018766 
88.047874 0.097545 
88.073242 0.027793 
88.076195 7.054765 
89.079597 0.039132 
89.55471 0.017395 
90.310127 0.019432 
93.438293 0.016886 
93.633881 0.018604 
94.188751 0.016552 
95.049576 0.649477 
95.816704 0.022207 
95.835121 0.018865 
96.518646 0.017008 
97.065208 1.641153 
98.060493 0.375418 
98.096848 31.86854 
98.297295 0.016596 
99.080849 0.917151 
99.100235 1.095574 
99.104584 1.117984 
99.908661 0.016035 
100.076088 3.34355 
101.083862 0.083124 
101.251747 0.019753 
101.389236 0.018451 
104.9767 0.019759 
105.703438 0.018374 
106.776863 0.020396 
108.326736 0.015526 
109.065117 0.780167 
109.101463 0.024957 
110.096649 0.043336 
110.986755 0.018459 
112.700241 0.018237 
113.032318 0.020049 
113.06002 7.800527 
113.292023 0.019983 
114.063377 0.060062 
114.091606 3.173565 
115.075569 1.098023 
116.070854 36.397114 
116.107224 24.187775 
117.074196 1.148301 
117.110565 0.595793 
121.101311 0.246758 
121.442421 0.019264 
121.470551 0.019077 
121.588242 0.020966 
123.080605 4.83941 
123.947128 0.018625 
124.083961 0.044644 
125.096458 0.054474 
125.874969 0.019512 
127.075485 2.404718 
127.099159 0.018739 
127.91169 0.016703 
128.093719 0.016633 
128.107117 0.441562 
128.910233 0.018385 
129.957016 0.01766 
130.198135 0.019277 
130.548248 0.017899 
130.708435 0.020989 
135.566574 0.020049 
136.200989 0.017972 
137.096024 0.510332 
137.350922 0.019433 
138.40979 0.019253 
139.592407 0.017893 
140.106873 0.404052 
140.817978 0.017019 
143.152359 0.018401 
143.239838 0.017258 
146.170395 0.016238 
146.218124 0.01872 
146.961105 0.017406 
147.897583 0.015067 
149.13205 0.021317 
149.667679 0.02032 
158.117538 44.627144 
158.999832 0.020071 
159.12088 2.113205 
159.475525 0.01771 
162.785217 0.019122 
163.177155 0.017501 
165.545486 0.01759 
168.659027 0.016118 
169.746353 0.017181 
171.605362 0.019175 
172.233612 0.017327 
174.520004 0.019936 
175.042252 0.019044 
176.128647 0.020248 
176.253052 0.01865 
185.936707 0.022426 
187.073273 0.019305 
197.718704 0.01929 
198.671082 0.018691 
199.175827 0.017891 
200.73764 0.019386 
202.110138 0.017644 
207.75499 0.017678 
208.104355 0.017973 
208.73291 0.019236 
210.380493 0.019455 
216.273621 0.018597 
217.617172 0.01695 
217.774338 0.018845 
218.126785 0.019037 
221.202393 0.018296 
223.008682 0.019765 
223.031921 0.015933 
223.572388 0.020244 
223.910568 0.017873 
227.473999 0.020322 
233.154358 0.03865 
234.366104 0.018318 
234.646423 0.020971 
238.726654 0.021842 
240.299927 0.018591 
245.214127 0.017912 
246.385773 0.017852 
252.630753 0.02055 
255.531906 0.018004 
255.854584 0.017227 
260.191742 0.017488 
264.321167 0.018767 
265.277283 0.021074 
265.995087 0.017871 
266.071777 0.018288 
267.025299 0.017744 
286.235413 0.019044 
287.9245 0.017483 
288.46286 0.017245 
289.145752 0.016303 
291.739258 0.019945 
297.370697 0.018909 
299.177612 0.019552 
304.117065 0.016759 
308.06723 0.019926 
312.11145 0.021289 
316.692657 0.020185 
318.716064 0.019392 
328.626312 0.017998 
335.233673 0.019471 
343.983582 0.017102 
344.079132 0.016499 
347.139221 0.01904 
361.50238 0.022331 
365.444946 0.019074 
369.369171 0.022955 
370.200439 0.019969 
372.004608 0.021348 
401.868225 0.017731 
402.740234 0.01728 
412.863678 0.022642 
447.347839 0.036598 
448.560486 0.01903 
466.707886 0.02408 
488.39682 0.019101 
488.790894 0.018013 
495.891602 0.019964 
510.600952 0.019057 
514.835693 0.017684 
525.426208 0.018446 
534.259399 0.020089 
537.963318 0.020412 
548.060669 0.019063 
565.124512 0.020979 
565.833008 0.019555 
568.729675 0.021034 
570.538696 0.017816 
573.977417 0.018991 
578.532532 0.021683 
585.124756 0.018613 
603.361206 0.018291 
606.234497 0.018183 
618.909729 0.019481 
633.031982 0.019327 
639.190979 0.019964 
647.561768 0.021504 
652.011963 0.021395 
700.043152 0.01856 
709.108765 0.036052 
709.169556 0.023755 
709.601379 0.026653 
729.068298 0.020797 
733.053284 0.023256 
733.552917 0.020172 
734.181152 0.017648 
740.1651 0.019138 
741.626526 0.019755 
749.146667 0.021532 
END IONS

