BEGIN IONS
PEPMASS=192.05
CHARGE=1+
COMPOUNDNAME=Aconitic Acid
LIBRARYQUALITY=3
SMILES=N/A
INCHIKEY=GTZCVFVGUGFEME-IWQZZHSRSA-N
INCHI=InChI=1S/C6H6O6/c7-4(8)1-3(6(11)12)2-5(9)10/h1H,2H2,(H,7,8)(H,9,10)(H,11,12)/b3-1-
MSLEVEL=2
SOURCE_INSTRUMENT=N/A-ESI-QFT
FILENAME=library_mgf.mgf
SEQ=*..*
IONMODE=positive
ORGANISM=MONA
NAME=Aconitic Acid [M+NH4]+
PI=MoNA
DATACOLLECTOR=MoNA:VF-NPL-QEHF026298
PUBMED=N/A
SUBMITUSER=mwang87
TAGS=
SPECTRUMID=CCMSLIB00004717361
SCANS=26298
50.619392 0.031647 
50.829239 0.043134 
51.933594 0.051447 
51.940323 7.218393 
51.970547 0.045056 
52.72438 0.045313 
52.940426 0.591355 
52.966156 0.054632 
53.002602 0.052061 
53.03894 0.335646 
53.09549 0.056871 
53.90966 0.040479 
53.939388 0.223334 
54.508827 0.059183 
54.54541 0.019953 
54.93779 0.464623 
55.013687 0.057318 
55.018169 1.420185 
55.054554 4.431856 
55.05584 0.057929 
55.091457 0.018957 
55.18819 0.046925 
55.251362 0.045057 
55.340885 0.046129 
55.51564 0.044512 
55.851814 0.017881 
55.934692 12.550304 
56.049782 0.295307 
56.528717 0.020324 
56.942505 1.630362 
56.960388 0.037846 
56.965061 0.339623 
57.002861 0.036276 
57.033775 0.518068 
57.037315 0.041451 
57.070175 3.437101 
58.065395 0.783057 
58.636654 0.040478 
58.932842 0.055679 
59.049412 2.393018 
59.20789 0.055681 
59.475582 0.03995 
59.546036 0.041311 
59.578434 0.046635 
59.973675 0.039176 
59.990486 0.028019 
60.044643 0.428576 
60.771976 0.053969 
61.010902 59.323696 
61.5341 0.038242 
61.536694 0.036118 
61.927856 0.03159 
61.946426 0.041276 
62.014145 0.273533 
62.0187 10.372363 
62.508606 0.031463 
63.006725 0.076697 
63.026512 8.701084 
63.959171 0.046077 
64.038536 0.048546 
64.263519 0.036931 
64.329803 0.045353 
64.383591 0.037486 
65.038734 2.575142 
65.189285 0.039169 
66.805542 0.045104 
67.052246 0.030753 
67.054375 11.944497 
67.522141 0.036947 
67.934944 2.224907 
68.019798 0.04816 
68.049774 0.024248 
68.743195 0.017611 
68.942772 0.079968 
68.962677 6.27966 
69.033485 0.169857 
69.069954 2.5257 
69.258385 0.046462 
69.961052 4.748 
70.065224 3.206844 
70.31192 0.048264 
70.528069 0.045094 
70.941879 2.270494 
70.957939 100.0 
71.049225 0.240367 
71.355011 0.041716 
71.929359 3.36948 
71.940262 0.67224 
71.958359 1.117549 
71.961273 0.292605 
72.044441 12.177566 
72.080727 0.161803 
72.93718 41.445957 
73.028435 0.027994 
73.047981 0.082775 
73.937477 0.070244 
73.945107 0.497906 
74.023659 0.200811 
74.060051 0.166643 
74.73172 0.048272 
74.952873 0.327829 
76.090454 0.054356 
76.767036 0.043113 
77.022903 0.047035 
77.844666 0.048472 
78.000839 1.561461 
79.021202 0.370485 
79.054268 9.704529 
79.727486 0.042851 
79.860634 0.049289 
80.049492 0.584126 
80.057594 0.119902 
81.069939 10.876022 
81.227547 0.044846 
81.232178 0.0425 
82.065186 0.098964 
82.073105 0.057133 
82.451698 0.04498 
83.049164 0.462836 
83.085472 0.704344 
83.546761 0.041474 
83.92981 1.888401 
84.044304 0.20853 
84.080818 0.922486 
84.825272 0.042422 
85.028389 0.077523 
85.064865 0.319636 
85.898926 0.049124 
85.945358 0.142473 
86.060074 1.473008 
86.09626 0.028558 
86.952866 1.22242 
86.973152 1.401638 
87.044106 3.067142 
87.906487 3.788868 
88.039284 0.150691 
88.075706 0.399457 
88.383286 0.046484 
88.914284 1.641073 
88.952438 1.498217 
88.968468 28.566511 
89.586914 0.054478 
89.704971 0.044451 
89.84745 0.019031 
89.939919 2.822456 
89.950912 0.049624 
89.968895 0.079106 
90.044823 0.042439 
90.947731 30.577339 
91.013283 0.035812 
91.054276 29.476801 
91.147163 0.053333 
92.057571 1.123799 
92.626411 0.052489 
93.057358 0.718101 
93.069916 9.759248 
93.491302 0.048488 
94.06517 0.524572 
94.073181 0.029831 
95.049171 2.29934 
95.082436 0.134484 
95.085571 10.213082 
96.080727 0.021194 
97.06485 2.180722 
98.060028 0.277428 
98.096504 0.268997 
99.080437 0.026647 
100.006699 0.046094 
100.075699 3.388803 
100.684013 0.046354 
101.008469 1.447329 
101.023415 0.050975 
101.94046 0.379441 
102.561958 0.042915 
102.92997 0.814128 
102.947906 2.35903 
102.968361 0.076187 
102.9841 0.211762 
103.054314 0.095234 
103.817383 0.053242 
103.883469 0.048502 
104.157249 0.045172 
104.963409 3.888216 
105.044853 0.14233 
105.069954 7.615122 
105.177155 0.038896 
105.917114 5.929962 
105.934837 0.095411 
106.065178 0.598516 
106.073212 0.065968 
106.656731 0.051355 
106.924889 0.777512 
106.962791 0.028421 
106.979088 1.863803 
107.049324 0.277904 
107.073059 1.836029 
107.085571 6.073135 
107.950523 1.204579 
108.04406 0.030618 
108.055588 0.052843 
108.080711 0.272589 
108.088852 0.072336 
108.161377 0.052751 
108.958298 3.695531 
109.064842 19.99279 
109.101204 1.942828 
110.059967 0.11926 
110.068169 0.899763 
110.096397 0.412744 
111.055847 0.041856 
111.080498 0.91104 
112.075836 0.143848 
112.766281 0.048144 
112.777855 0.047043 
113.023094 0.047047 
114.091377 0.244527 
114.717491 0.020305 
114.947868 0.816041 
115.925911 0.07451 
116.079552 0.047275 
116.909607 0.045692 
116.92955 0.10954 
116.946312 0.092488 
117.070007 1.301934 
117.917053 1.944395 
118.065109 0.500871 
118.086517 0.048848 
118.92495 6.734633 
118.92926 0.055039 
118.944801 0.050955 
119.001305 0.061419 
119.018982 7.817822 
119.049248 98.63604 
119.060173 10.516115 
119.065338 0.046294 
119.085602 5.15211 
119.95092 1.036891 
120.019737 0.180313 
120.052551 7.905386 
120.057205 0.030361 
120.063759 0.650039 
120.080833 1.4134 
120.089279 0.039008 
120.940582 10.372249 
120.958458 0.051775 
121.064713 0.024817 
121.088745 1.492714 
121.101181 1.454336 
121.716522 0.036548 
122.059715 0.024155 
122.071793 0.035654 
122.096947 0.034714 
122.372299 0.053473 
122.973869 0.300896 
123.080399 0.355368 
123.927689 0.558163 
123.966461 0.021706 
124.410873 0.045418 
124.935661 0.28961 
125.961098 0.451513 
126.860374 0.053183 
126.944603 0.021287 
128.107025 14.962103 
129.069763 0.045001 
129.110336 1.411069 
130.086288 0.213989 
130.943695 0.043931 
130.962875 4.349754 
131.08551 5.345562 
131.765442 0.048214 
131.952972 0.180732 
131.961441 6.790519 
132.08078 0.462353 
132.101944 0.086636 
132.958313 66.814774 
133.064362 0.020673 
133.088486 0.037503 
133.101166 2.802108 
133.94838 12.194184 
133.961502 0.085363 
134.064011 0.118239 
134.096451 1.626374 
134.919815 0.232653 
134.931076 0.062839 
134.956223 4.101829 
135.080414 0.199738 
135.104355 0.319771 
135.116776 0.75743 
135.927689 3.346424 
136.075867 0.138916 
136.112152 0.13831 
136.872665 0.042095 
136.935501 3.846872 
137.011703 3.677105 
137.029434 1.380357 
137.09668 0.042472 
137.107452 0.161288 
138.012253 0.056046 
138.951126 5.254757 
140.83873 0.039764 
145.101181 0.921339 
145.374451 0.050839 
145.988373 0.231422 
146.096588 0.453261 
146.975342 2.846666 
147.116898 1.728866 
147.415817 0.022601 
147.927979 0.051751 
147.974869 0.927847 
148.075867 0.085665 
148.112213 0.897264 
148.120453 0.036679 
148.971939 43.766331 
149.096222 0.370489 
149.120102 0.284536 
149.132538 0.183404 
149.435333 0.046118 
149.961121 5.41658 
149.971619 7.067737 
150.091354 0.025069 
150.127869 0.061637 
150.327835 0.058221 
150.951126 2.426074 
150.968842 72.003685 
151.121918 0.035983 
151.958954 9.972956 
151.970062 0.462094 
151.998901 0.83964 
152.960526 0.054818 
152.966812 4.211812 
153.938232 0.669031 
154.420914 0.056927 
154.49144 0.052311 
155.022263 1.346401 
155.866333 0.023776 
155.974564 0.055023 
158.124802 0.03438 
158.388672 0.049077 
158.607254 0.050855 
160.112289 0.027687 
162.127945 0.050383 
162.282043 0.050323 
162.95134 0.051182 
163.311508 0.051149 
163.99884 7.088517 
164.985046 0.760576 
164.999664 0.075991 
165.36348 0.039851 
165.938187 3.664808 
166.283157 0.055213 
166.982376 8.243106 
167.056549 0.087307 
167.483353 0.036981 
167.971558 2.566525 
167.982864 0.041753 
168.337509 0.052879 
168.961685 0.030702 
168.979492 0.995146 
169.674591 0.043799 
170.009705 0.049421 
172.380997 0.045444 
173.107193 0.025773 
173.132599 1.133032 
174.127792 0.256859 
175.111435 0.022562 
175.148285 0.293398 
176.14389 0.102003 
177.078583 0.149709 
177.127655 0.057471 
177.702682 0.03755 
177.755447 0.039943 
177.938126 3.8327 
178.25856 0.047611 
179.022278 2.208589 
182.009415 1.432945 
182.952209 0.167589 
183.948746 0.455697 
186.936249 0.028079 
187.235977 0.059014 
190.122833 0.081372 
190.143539 0.114414 
190.159119 2.015814 
191.117554 0.244269 
191.143951 0.099756 
191.153778 0.027185 
191.162766 0.106142 
192.10202 0.672738 
192.11264 0.237687 
192.138153 3.727348 
192.174805 4.344019 
192.756134 0.047971 
193.099503 0.043306 
193.142044 0.145801 
193.178024 0.034389 
193.353348 0.045293 
193.953049 0.059366 
194.096603 0.093516 
194.129364 0.044668 
194.153992 12.420539 
194.192032 0.020835 
195.122223 0.048654 
195.948685 4.605794 
197.033173 0.042455 
201.200455 0.021655 
205.963608 0.043416 
206.636917 0.046209 
212.21196 0.053537 
END IONS

