BEGIN IONS
PEPMASS=177.052
CHARGE=1+
COMPOUNDNAME=terrein
LIBRARYQUALITY=3
SMILES=N/A
INCHIKEY=MHOOPNKRBMHHEC-HZIBQTDNSA-N
INCHI=InChI=1S/C8H10O3/c1-2-3-5-4-6(9)8(11)7(5)10/h2-4,7-8,10-11H,1H3/b3-2+/t7-,8-/m0/s1
MSLEVEL=2
SOURCE_INSTRUMENT=N/A-ESI-QFT
FILENAME=library_mgf.mgf
SEQ=*..*
IONMODE=positive
ORGANISM=MONA
NAME=terrein [M+Na]+
PI=MoNA
DATACOLLECTOR=MoNA:VF-NPL-QEHF021228
PUBMED=N/A
SUBMITUSER=mwang87
TAGS=
SPECTRUMID=CCMSLIB00004712291
SCANS=21228
50.165607 0.009346 
50.223137 0.011789 
50.53817 0.009482 
50.835629 0.006483 
51.167107 0.009769 
51.242397 0.008828 
51.278667 0.008446 
51.301941 0.010208 
51.314548 0.007943 
51.31535 0.004682 
51.339878 0.013947 
51.873573 0.009137 
52.01516 0.011084 
52.122242 0.005692 
52.406288 0.011082 
52.700905 0.009283 
52.907997 0.013705 
53.678898 0.01223 
53.949963 0.005445 
54.985893 0.119315 
55.146465 0.012848 
55.200363 0.008584 
55.213165 0.013464 
55.28743 0.014778 
55.917988 0.012627 
56.009556 0.014391 
56.571491 0.005373 
56.965061 28.388517 
56.988235 0.010693 
57.023132 0.009017 
57.199135 0.014186 
57.504009 0.014228 
57.68417 0.008423 
57.954674 0.009659 
57.982265 0.011479 
58.115723 0.012537 
58.339722 0.013019 
58.434402 0.011015 
58.637299 0.013619 
58.728481 0.015824 
58.988049 0.18646 
59.481819 0.009406 
60.308201 0.008764 
60.481522 0.060175 
60.690224 0.007453 
61.003582 0.008842 
61.010864 0.249348 
61.035233 0.005186 
61.107311 0.012754 
61.168926 0.013891 
61.378914 0.004712 
61.384499 0.005415 
61.577957 0.005656 
61.700222 0.005073 
61.813126 0.012959 
61.816196 0.007939 
62.018574 0.006971 
62.574623 0.007631 
62.990108 0.085387 
63.997906 0.534065 
64.219307 0.014103 
64.369011 0.016062 
64.585602 0.013149 
64.628677 0.014189 
64.801811 0.007317 
64.887627 0.012154 
65.105522 0.014812 
65.171143 0.007483 
65.281952 0.011384 
65.592087 0.012302 
65.728302 0.015263 
65.947502 0.00848 
66.050827 0.004091 
66.299095 0.009036 
66.696747 0.014209 
67.001656 0.013402 
67.545601 0.007718 
67.57785 0.004731 
67.625816 0.013839 
67.646896 0.009819 
67.99305 2.568229 
68.452988 0.008737 
68.712578 0.012881 
68.745224 0.017069 
68.991135 0.023646 
69.276184 0.011119 
69.402046 0.007978 
69.486641 0.742389 
70.065186 0.1491 
70.958046 0.014718 
70.980469 0.060221 
71.019241 0.00479 
71.126091 0.011288 
71.193085 0.009933 
71.227882 0.008476 
71.604546 0.088341 
71.827156 0.012582 
71.951904 3.222823 
72.086052 0.015067 
72.597382 0.013576 
72.603676 0.006874 
72.712883 0.014476 
72.868568 0.009323 
72.937035 0.020537 
74.032738 0.005781 
74.517784 0.009479 
74.752899 0.008853 
74.975388 0.591252 
75.282784 0.006476 
75.393944 0.00683 
75.472633 0.015475 
76.034981 0.009617 
76.341743 0.008397 
76.803673 0.010525 
76.998276 17.518682 
77.161987 0.010684 
77.500053 0.174996 
77.950851 0.010097 
77.996231 0.787446 
78.00045 0.012602 
78.061806 0.006834 
78.491859 0.884783 
78.627708 0.009703 
78.994637 0.167132 
79.021217 2.832918 
79.054214 0.079559 
79.219902 0.010677 
79.42308 0.008906 
79.665077 0.009388 
80.373398 0.008672 
80.412308 0.013971 
80.634003 0.008115 
81.016983 0.025005 
81.069885 0.110608 
82.740639 0.010578 
83.013252 0.012388 
83.215889 0.006967 
84.006088 0.114841 
84.088348 0.013702 
84.155533 0.011382 
84.339432 0.005397 
84.398148 0.004978 
85.458221 0.009887 
85.60659 0.013608 
85.688683 0.014722 
85.791832 0.007968 
86.003548 33.330898 
86.371597 0.008 
86.5028 0.023003 
86.505371 0.43878 
87.001495 1.62931 
87.005722 0.114229 
87.142563 0.010138 
87.497047 0.076325 
87.50309 0.011966 
87.966423 0.010073 
88.000008 0.577051 
88.588623 0.008112 
88.936897 0.02157 
89.043823 0.013649 
89.979027 0.011607 
90.160828 0.010277 
90.320084 0.01538 
90.326149 0.016116 
90.482933 1.978832 
91.480865 0.083262 
91.510674 0.009128 
91.844986 0.012357 
91.917267 0.005753 
91.976341 0.038442 
92.55217 0.014296 
93.011391 0.490709 
94.909523 0.012145 
95.008835 9.288608 
95.073235 0.009781 
95.085579 0.005626 
95.644165 0.014237 
95.777115 0.017035 
96.006721 0.288141 
96.730217 0.007807 
97.005371 0.041081 
97.994736 0.670779 
97.997841 0.010778 
98.7491 0.011216 
98.975365 100.0 
98.985062 0.023354 
99.488197 19.309912 
99.978699 2.036146 
99.989998 0.352674 
100.486183 1.978759 
100.489594 0.03128 
100.971436 0.166389 
100.981834 0.148529 
101.003151 0.04574 
101.008453 0.069822 
101.484673 0.339885 
102.016724 0.018414 
102.458992 0.009256 
103.061455 0.01038 
104.01413 0.033417 
104.390244 0.0157 
105.850616 0.007726 
106.496178 0.120518 
106.999931 6.570934 
107.501678 0.074052 
107.989586 0.639245 
107.997864 0.44284 
108.493439 47.331966 
108.995506 1.335341 
109.028252 0.092997 
109.487259 0.018141 
109.491417 4.860824 
109.495499 0.345897 
109.9748 0.016347 
109.987106 0.019689 
109.992279 0.03582 
110.489861 1.021555 
110.579117 0.013994 
111.092812 0.008874 
112.057053 0.014962 
112.296234 0.01507 
112.437073 0.014288 
112.6306 0.011221 
113.522469 0.015967 
115.107483 0.010005 
115.4972 0.004748 
115.501328 0.798826 
115.929504 0.005796 
116.00528 12.734769 
116.184647 0.006179 
116.260536 0.012317 
116.499283 0.012915 
116.506935 0.424277 
116.985901 26.510738 
116.99453 0.006227 
117.003159 1.334314 
117.057083 0.016213 
117.370239 0.00708 
117.498795 10.007753 
117.989311 0.384135 
118.001083 0.208233 
118.295525 0.013504 
118.49675 0.983671 
118.500893 0.005445 
118.982056 0.014455 
119.018837 0.03984 
119.091995 0.012939 
119.213127 0.009409 
119.495361 0.058961 
120.001472 0.036249 
120.418221 0.004951 
121.650238 0.012736 
122.521217 0.013849 
123.012901 0.093502 
123.026001 0.016218 
124.350891 0.008346 
124.506592 0.006909 
125.010529 1.096863 
125.056808 0.014679 
125.925552 0.007821 
126.008301 0.005614 
126.131271 0.010169 
128.677963 0.01012 
128.87468 0.013685 
128.916153 0.00486 
129.534607 0.004304 
129.985352 0.011679 
130.065109 0.119798 
131.001587 0.246492 
132.06218 0.017664 
132.080673 0.167521 
132.958206 0.270376 
134.875336 0.006128 
134.978699 0.633133 
134.996445 3.38639 
135.287109 0.013488 
136.000031 0.010957 
136.409302 0.006078 
136.546326 0.012475 
137.059692 0.144527 
138.653931 0.004371 
140.178528 0.010561 
145.275772 0.014972 
146.585281 0.010907 
147.484863 0.009484 
147.735321 0.014588 
147.964203 0.009042 
149.907288 0.006422 
150.968643 0.043753 
150.980621 0.006847 
152.989578 0.032646 
153.007202 0.029515 
154.59491 0.010944 
154.685135 0.011714 
154.84549 0.005438 
156.053741 0.004945 
159.091553 0.007054 
161.640991 0.012521 
165.626266 0.006059 
167.460907 0.00893 
167.674103 0.009014 
167.693832 0.008773 
169.059479 0.011007 
171.315643 0.007794 
171.56636 0.015298 
171.922699 0.005244 
172.091888 0.006472 
172.281738 0.015486 
174.638596 0.019727 
175.37999 0.008019 
176.223724 0.013032 
176.78894 0.01618 
177.10228 0.012475 
177.122437 0.014199 
178.133804 0.347282 
179.380264 0.012857 
181.893265 0.010659 
183.599014 0.00819 
183.784836 0.006462 
185.342117 0.01431 
185.560471 0.007461 
186.549759 0.004318 
189.049667 0.008968 
189.389221 0.01044 
189.603638 0.014447 
190.336899 0.005274 
191.250168 0.005731 
191.530212 0.00951 
192.233719 0.010581 
193.629211 0.01297 
194.546585 0.00812 
195.832352 0.006115 
197.897934 0.006493 
198.044968 0.013298 
198.596191 0.009394 
198.929138 0.010881 
199.109863 0.008073 
199.257751 0.01437 
199.279648 0.014601 
199.725159 0.014078 
199.773819 0.008054 
END IONS

