BEGIN IONS
PEPMASS=159.08
CHARGE=1+
COMPOUNDNAME=Massbank:KNA00440 L-Citrulline|2-Amino-5-ureidovaleric acid|Citrulline
LIBRARYQUALITY=3
SMILES=NC(=O)NCCC[C@H](N)C(O)=O
INCHIKEY=RHGKLRLOHDJJDR-BYPYZUCNSA-N
INCHI=1S/C6H13N3O3/c7-4(5(10)11)2-1-3-9-6(8)12/h4H,1-3,7H2,(H,10,11)(H3,8,9,12)/t4-/m0/s1
MSLEVEL=2
SOURCE_INSTRUMENT=ESI-LC-ESI-ITFT
FILENAME=Massbank_ESI_positive_8_1_2014_peaks.mgf
SEQ=*..*
IONMODE=Positive
ORGANISM=MASSBANK
NAME=Massbank:KNA00440 L-Citrulline|2-Amino-5-ureidovaleric acid|Citrulline [M+H]
PI=Putative Massbank Match
DATACOLLECTOR=Massbank
PUBMED=N/A
SUBMITUSER=mwang87
TAGS=
SPECTRUMID=CCMSLIB00000216502
SCANS=7812
69.942619 7749.554199 
71.979507 33.49802 
74.111168 9.172441 
85.995094 18.55085 
86.995987 247.879913 
97.059998 1322.749756 
97.970062 68.905571 
107.075485 39.10878 
113.059845 7805.597168 
114.076202 2193.030762 
115.019852 13892.857422 
116.053452 524.560242 
116.969025 91.05938 
117.9552 38.46452 
131.003769 222.227325 
141.005569 2111.407959 
142.037048 339.970428 
144.046555 48.744572 
END IONS

