BEGIN IONS
PEPMASS=443.219
CHARGE=1+
COMPOUNDNAME=LOVASTATIN
LIBRARYQUALITY=3
SMILES=N/A
INCHIKEY=PCZOHLXUXFIOCF-BXMDZJJMSA-N
INCHI=InChI=1S/C24H36O5/c1-5-15(3)24(27)29-21-11-14(2)10-17-7-6-16(4)20(23(17)21)9-8-19-12-18(25)13-22(26)28-19/h6-7,10,14-16,18-21,23,25H,5,8-9,11-13H2,1-4H3/t14-,15-,16-,18+,19+,20-,21-,23-/m0/s1
MSLEVEL=2
SOURCE_INSTRUMENT=N/A-ESI-QFT
FILENAME=library_mgf.mgf
SEQ=*..*
IONMODE=positive
ORGANISM=MONA
NAME=LOVASTATIN [M+K]+
PI=MoNA
DATACOLLECTOR=MoNA:VF-NPL-QEHF003460
PUBMED=N/A
SUBMITUSER=mwang87
TAGS=
SPECTRUMID=CCMSLIB00004694523
SCANS=3460
50.058731 0.009091 
50.25518 0.05644 
50.281036 0.068282 
50.699795 0.040821 
51.150867 0.028748 
51.165588 0.005001 
51.278214 0.06997 
51.871559 0.033202 
52.194389 0.075129 
52.309616 0.042722 
52.760975 0.094124 
53.09882 0.062906 
53.370583 0.00634 
53.431194 0.055356 
53.955612 0.006732 
54.138561 0.046559 
54.197788 0.050483 
54.546345 0.073164 
54.861603 0.08731 
55.023964 0.070156 
55.044159 0.005705 
55.055103 0.080247 
55.386719 0.073269 
55.492622 0.025412 
55.599598 0.079298 
55.630928 0.033244 
55.797737 0.079198 
55.913742 0.048773 
56.264561 0.025912 
56.827511 0.006026 
56.965546 0.823798 
57.034241 5.133163 
57.035736 0.014153 
57.070633 2.023507 
57.613701 0.041324 
58.037594 0.023358 
58.065979 0.12279 
58.09026 0.026198 
58.167294 0.064454 
58.182106 0.052288 
58.359299 0.07397 
58.897491 0.06393 
59.049896 47.36417 
59.06105 0.105599 
59.486538 0.076167 
59.688393 0.079662 
59.810123 0.006245 
60.045128 0.017248 
60.05323 1.157672 
60.159805 0.051073 
61.011414 0.037694 
61.414146 0.005643 
61.491306 0.006414 
61.518753 0.008709 
61.772343 0.010729 
62.060795 0.046892 
62.389446 0.072867 
62.492542 0.006462 
62.682396 0.032692 
63.627853 0.072144 
64.798485 0.032329 
65.574074 0.084869 
66.116829 0.005295 
66.402618 0.075032 
66.96312 0.024718 
67.054924 0.031395 
67.229729 0.006602 
67.381157 0.010612 
67.599281 0.031832 
67.944168 0.070659 
68.583008 0.004717 
69.034538 0.066265 
69.070572 0.199292 
69.429695 0.005213 
70.632545 0.079683 
70.891228 0.079899 
70.94091 0.027443 
71.049736 0.015847 
71.086098 0.181334 
72.374184 0.040842 
73.029053 0.2818 
73.047409 2.967323 
73.446053 0.035923 
73.639427 0.026334 
74.027222 0.063676 
74.25148 0.071098 
75.307556 0.075998 
75.785744 0.040129 
76.653793 0.038995 
76.686417 0.005894 
77.885086 0.031535 
78.159714 0.028116 
78.673386 0.079361 
78.816605 0.075821 
79.021667 0.072565 
79.05481 0.121324 
80.054985 0.103642 
80.297607 0.084899 
80.835808 0.005387 
80.923515 0.076772 
81.070488 0.796531 
81.554237 0.005609 
82.07473 0.005252 
83.064674 0.084121 
83.086166 0.101927 
83.263687 0.005956 
83.352173 0.051496 
83.509666 0.083711 
84.425026 0.038461 
84.752892 0.006273 
85.065392 0.007906 
85.101608 0.00581 
87.044556 0.772524 
87.208916 0.082392 
88.076195 0.022716 
88.2286 0.00626 
88.5383 0.033806 
89.060211 4.879523 
89.401131 0.032548 
90.138649 0.087356 
90.497215 0.026178 
91.054916 0.274115 
91.057869 10.604144 
91.591011 0.076163 
92.593628 0.074076 
93.070358 0.086707 
94.208466 0.034238 
94.404015 0.053825 
94.520348 0.109492 
95.085945 0.274832 
96.272453 0.055208 
96.681671 0.009958 
97.065109 0.1413 
97.101257 0.103045 
97.203377 0.005976 
98.409843 0.084679 
99.080894 0.536405 
100.084038 0.005398 
100.683128 0.006698 
101.060051 0.027871 
101.096519 0.077095 
101.727127 0.005263 
102.06794 0.024668 
102.091644 0.044538 
105.070129 0.429739 
105.073608 0.006324 
106.082451 0.005137 
107.085777 0.162836 
107.780502 0.056147 
108.063812 0.052262 
108.748215 0.005408 
109.064888 0.005874 
109.101433 0.055999 
109.886513 0.078667 
110.193291 0.058745 
110.229446 0.030775 
110.849403 0.03109 
111.005516 2.051697 
111.044456 0.010859 
111.057587 0.026196 
111.597588 0.080993 
111.92691 0.077193 
112.06263 0.063495 
112.251205 0.073967 
112.294724 0.006278 
112.578156 0.030374 
113.593231 0.028256 
114.752693 0.005669 
115.075546 1.121779 
115.08799 0.026081 
115.440865 0.026232 
115.501526 0.035227 
116.078697 0.019783 
116.7938 0.023214 
117.055061 0.006768 
117.070114 0.784266 
117.091217 9.171836 
117.777779 0.055775 
117.933342 0.082136 
118.094498 0.232032 
119.085602 0.181572 
121.065025 1.353917 
121.101341 0.074201 
121.883965 0.076831 
122.480553 0.007651 
123.07975 0.006406 
123.116982 0.044565 
124.039413 0.303153 
124.236465 0.007003 
124.890251 0.030675 
127.112183 0.006465 
127.668808 0.081015 
127.678131 0.07533 
128.10701 0.006599 
128.322144 0.077198 
128.948593 0.009868 
129.291595 0.039158 
131.070236 0.008588 
131.085602 1.511827 
131.14798 0.064626 
132.089401 0.006567 
132.712433 0.084503 
133.085922 1.613756 
133.100845 0.006943 
134.124496 0.006239 
134.571381 0.07855 
135.117004 0.006234 
136.46431 0.079593 
137.132584 0.006951 
137.496506 0.027843 
138.778595 0.006791 
139.036423 1.595498 
141.022476 0.012272 
141.052124 6.592055 
143.085495 0.343085 
143.331024 0.039394 
143.956924 0.006394 
144.203812 0.030936 
144.389481 0.04752 
144.605682 0.030134 
145.101059 1.066316 
147.080124 0.090482 
147.116867 0.011501 
148.460434 0.075499 
149.044876 0.633477 
150.639282 0.047947 
151.075653 0.007805 
152.095016 0.035304 
152.751617 0.079881 
156.306747 0.005778 
157.101044 1.121416 
157.122025 0.042352 
159.032806 0.959885 
159.080338 0.007306 
159.116898 1.664341 
163.331589 0.047237 
163.720337 0.095623 
164.348587 0.087495 
165.090988 0.795842 
165.229034 0.040818 
165.253998 0.097412 
167.055344 5.238522 
168.961029 0.006984 
169.101059 0.318424 
169.109314 0.005074 
171.116577 0.440888 
171.846024 0.025085 
173.124603 0.009423 
173.132492 9.47921 
174.135818 1.038835 
175.11142 0.202027 
175.132828 0.798715 
176.136246 0.005588 
176.967468 0.182611 
177.043396 10.439472 
177.111954 0.027225 
178.046814 0.051044 
182.238159 0.045803 
182.595673 0.029983 
183.116852 0.196062 
185.131744 0.011428 
187.111786 0.061352 
191.05925 0.10865 
195.053986 5.358628 
197.13269 0.37856 
197.594009 0.032353 
199.111374 0.013457 
199.148178 3.735288 
200.151398 0.330844 
201.126114 0.006249 
202.779602 0.010577 
203.059296 0.040277 
203.920807 0.080503 
204.478897 0.079228 
206.977676 0.634589 
207.470764 0.057405 
209.11731 0.017564 
209.132553 0.008269 
211.209396 0.083286 
213.169083 0.010326 
213.676147 1.758622 
213.683701 1.841179 
213.691818 1.809004 
217.611267 0.029091 
218.497299 0.034824 
219.175446 0.008497 
220.153961 0.077139 
221.010742 0.087492 
221.087112 0.092716 
222.031998 0.010501 
223.06424 0.013769 
223.148026 0.038224 
224.123978 0.009043 
224.35585 0.028294 
225.042877 1.720068 
225.163834 0.056063 
229.893036 0.09672 
231.63559 0.105381 
233.174698 0.00562 
233.189743 0.04213 
238.96756 0.054715 
243.173721 0.0743 
244.829285 0.042248 
245.152527 0.035126 
253.155746 0.033301 
258.11084 0.005672 
260.182495 0.059244 
262.893829 0.007884 
263.646851 0.024783 
263.996643 0.08613 
265.330658 0.039778 
267.191772 0.007068 
270.899658 0.196965 
272.164551 0.02263 
273.115234 0.347869 
276.219666 0.070833 
277.216553 0.019756 
279.171692 0.059814 
279.482239 0.006194 
281.121002 3.232762 
282.124939 0.113072 
283.262604 0.04811 
284.076263 0.041287 
284.266418 0.196336 
284.914917 0.117758 
287.131073 0.011966 
288.870697 0.042239 
288.908966 0.029809 
291.126434 0.306701 
292.000214 0.077622 
293.189636 0.005778 
295.130188 0.301687 
297.115417 0.218068 
297.152069 0.01425 
298.983002 0.027002 
299.131561 33.564346 
299.385864 0.081939 
300.135132 5.852677 
304.923767 0.04533 
306.919434 0.554187 
308.93689 0.026728 
309.203308 0.493222 
309.278595 0.03206 
310.153564 1.36654 
311.124237 0.086365 
311.160065 0.112047 
311.182251 0.337444 
311.233246 0.090776 
311.294128 2.481109 
313.146667 1.052786 
315.127563 0.008617 
315.161804 0.186224 
317.14209 13.390417 
318.145386 2.269392 
319.051178 0.089393 
323.161377 8.099864 
324.165222 1.224925 
324.325714 4.029363 
324.931549 0.044056 
324.986328 0.049121 
325.177155 100.0 
325.310425 0.019788 
325.328918 0.479927 
326.147919 0.112023 
326.180511 29.621628 
327.183258 2.578995 
327.370026 0.036832 
328.044922 0.011646 
331.15741 0.234913 
331.801575 0.04558 
337.509613 0.055371 
339.156158 4.212845 
339.214355 0.606635 
340.15976 2.96748 
340.228851 0.438795 
340.320953 0.20252 
341.016357 0.016953 
341.145264 2.081278 
341.17215 38.14872 
341.208618 0.564721 
341.22937 9.670208 
341.324219 0.694157 
342.14621 0.520706 
342.175415 7.254797 
342.233063 1.426184 
342.327118 0.016939 
342.996704 1.416193 
343.152863 4.203683 
343.187805 45.772869 
350.376373 0.006832 
352.394226 0.015962 
353.958557 0.442062 
355.188171 0.32833 
355.226349 0.059813 
357.172974 1.471548 
358.173523 0.124006 
359.027863 5.836325 
359.152496 1.747199 
360.156281 0.152499 
368.939484 0.045137 
371.966522 0.091211 
375.183319 0.097667 
376.277069 0.050653 
377.162903 0.007545 
381.931549 0.013081 
382.952667 0.0135 
383.188995 0.007779 
383.254913 0.078455 
394.637146 0.063588 
397.845856 0.054787 
399.219482 0.014934 
409.231079 0.02569 
411.272552 0.014129 
413.163239 0.562236 
414.23288 0.05944 
416.262299 0.030919 
425.199097 0.330959 
426.203247 0.060307 
427.244415 0.390301 
441.224243 5.056207 
441.255371 0.092376 
441.319916 0.16061 
441.354279 2.551656 
441.411896 0.018758 
442.028992 0.086896 
442.227814 6.37622 
442.277008 0.236189 
442.35849 0.656813 
442.441101 0.081865 
443.217041 38.50816 
443.24173 39.682278 
443.297546 3.682914 
443.332886 36.492107 
444.22052 10.541916 
444.24527 10.332315 
444.301025 0.749446 
444.336395 9.068782 
444.422333 0.019787 
444.455963 0.251666 
445.185883 0.110227 
445.21814 3.989503 
445.253632 15.395449 
445.278107 15.308377 
445.312531 2.373104 
445.340729 0.279494 
447.346344 0.033102 
452.474121 0.075335 
453.910065 0.041203 
END IONS

