BEGIN IONS
PEPMASS=153.019
CHARGE=1+
COMPOUNDNAME=Patulin
LIBRARYQUALITY=3
SMILES=N/A
INCHIKEY=ZRWPUFFVAOMMNM-UHFFFAOYSA-N
INCHI=InChI=1S/C7H6O4/c8-6-3-4-5(11-6)1-2-10-7(4)9/h1,3,7,9H,2H2
MSLEVEL=2
SOURCE_INSTRUMENT=N/A-ESI-QFT
FILENAME=library_mgf.mgf
SEQ=*..*
IONMODE=negative
ORGANISM=MONA
NAME=Patulin [M-H]-
PI=MoNA
DATACOLLECTOR=MoNA:VF-NPL-QEHF025930
PUBMED=N/A
SUBMITUSER=mwang87
TAGS=
SPECTRUMID=CCMSLIB00004716993
SCANS=25930
50.043404 0.012741 
50.506023 0.013141 
50.51524 0.011211 
51.022766 0.011775 
51.523331 0.01187 
51.69593 0.011902 
52.565834 0.010583 
52.804821 0.012121 
53.001904 0.080227 
53.0383 0.450626 
53.69558 0.011559 
53.72604 0.0123 
53.85178 0.011013 
53.93766 0.013056 
55.017529 3.815683 
55.211796 0.011488 
55.441299 0.012074 
55.619438 0.012377 
55.777046 0.010344 
56.49691 0.010426 
57.013371 0.012708 
57.033203 0.085668 
57.04438 0.010162 
57.469151 0.01341 
57.503284 0.012226 
57.518997 0.013925 
57.600517 0.0114 
57.822044 0.011469 
59.012463 0.032503 
59.29496 0.013218 
60.241119 0.012082 
60.892101 0.01395 
61.245464 0.012302 
62.025341 0.013277 
62.584362 0.026285 
62.885262 0.014502 
63.007156 0.013122 
63.022621 1.232949 
63.781914 0.009806 
64.026123 0.012371 
64.245926 0.010685 
64.97184 0.011519 
65.029564 0.012363 
65.038284 8.965366 
66.041679 0.341205 
67.01754 3.897275 
67.15313 0.010508 
68.020935 0.025508 
68.199913 0.011624 
68.996811 8.111323 
69.033211 2.768557 
69.22242 0.013309 
69.584419 0.01092 
70.00016 0.128551 
70.063469 0.011178 
71.012451 4.486717 
72.015907 0.011155 
72.243759 0.011774 
72.455597 0.014537 
72.741562 0.010659 
72.991646 0.012987 
74.060593 0.01407 
74.226357 0.012695 
74.876404 0.014772 
74.991684 0.012806 
75.865196 0.012488 
76.470131 0.012315 
76.534485 0.0132 
79.017586 5.499877 
79.191284 0.0123 
79.437447 0.015019 
79.947731 0.013114 
80.021027 0.171387 
80.025414 0.575809 
80.596039 0.013132 
81.028976 0.160084 
81.033234 100.0 
81.992935 0.010889 
82.036575 5.231282 
82.304405 0.015518 
82.353958 0.015196 
83.012482 24.454391 
83.037247 0.012424 
83.048904 0.031194 
83.910522 0.013427 
84.015862 1.013745 
84.224136 0.010988 
85.028145 0.56575 
85.725586 0.011402 
87.001755 0.014444 
87.331978 0.015103 
87.840332 0.009485 
88.32177 0.014349 
90.358261 0.014926 
90.955177 0.012526 
91.830269 0.014256 
92.869385 0.012292 
93.033386 0.027583 
95.012535 1.60873 
95.632889 0.011618 
95.908539 0.010839 
95.963226 0.01423 
97.028145 3.37849 
97.555756 0.011732 
97.999832 0.016989 
98.031487 0.043755 
99.007454 0.884651 
99.043785 1.877259 
102.470955 0.012261 
107.012566 2.257415 
107.055801 0.013986 
108.016342 0.040082 
108.02037 2.178179 
109.021538 0.025909 
109.028175 97.917892 
109.781036 0.014247 
110.031586 6.194304 
111.007484 1.173493 
111.018692 1.134056 
111.032524 0.013791 
111.043945 0.030427 
111.981674 0.011303 
115.113647 0.011671 
115.491669 0.011758 
116.114502 0.013191 
118.430252 0.013405 
122.711891 0.015435 
122.905731 0.014949 
123.0075 5.419907 
123.044014 0.094797 
124.01078 0.212849 
124.015411 0.519668 
124.471802 0.013101 
125.023201 14.554741 
125.059563 0.012851 
126.026581 0.88421 
127.038879 1.125141 
128.393341 0.01163 
128.452515 0.011576 
128.664169 0.014772 
129.045685 0.013392 
129.939758 0.014257 
131.604736 0.014287 
131.655518 0.013859 
132.977097 0.01119 
133.874741 0.012951 
135.007568 7.469416 
135.821915 0.010724 
136.01088 0.564147 
136.051025 0.011385 
137.223755 0.01325 
138.030991 0.268159 
139.796661 0.011637 
140.916138 0.010601 
141.018204 0.468536 
143.278961 0.013933 
143.917953 0.013858 
151.002548 1.169968 
151.038971 0.465526 
151.119675 0.011805 
151.30658 0.014877 
151.511612 0.013045 
152.005814 0.017253 
152.042892 0.011424 
153.018219 35.406803 
153.054291 0.142094 
153.867233 0.018332 
154.021606 2.695394 
154.498688 0.028214 
155.03389 0.704794 
155.500809 0.011474 
156.932892 0.013933 
159.444626 0.012955 
159.546387 0.013232 
162.531662 0.011585 
165.132248 0.014113 
168.076187 0.012174 
168.765839 0.015305 
173.917847 0.013619 
174.583344 0.015375 
END IONS

