BEGIN IONS
TITLE=Scan Number: 1
PEPMASS=414.15399
CHARGE=1+
COMPOUNDNAME=Narcotine
LIBRARYQUALITY=3
SMILES=CN1[C@]([C@]2([H])C(C=CC(OC)=C3OC)=C3C(O2)=O)([H])C4=C(OC)C5=C(OCO5)C=C4CC1
INCHIKEY=AKNNEGZIBPJZJG-MSOLQXFVSA-N
INCHI=InChI=1S/C22H23NO7/c1-23-8-7-11-9-14-20(29-10-28-14)21(27-4)15(11)17(23)18-12-5-6-13(25-2)19(26-3)16(12)22(24)30-18/h5-6,9,17-18H,7-8,10H2,1-4H3/t17-,18+/m1/s1
MSLEVEL=2
SOURCE_INSTRUMENT=DI-ESI-qTof
FILENAME=f.10mauriz/5_br_pos_H_30eV.mgf;
SEQ=*..*
NOTES=
IONMODE=Positive
ORGANISM=GNPS-LIBRARY
NAME=Narcotine M+H
SPECTRUMID=CCMSLIB00000424771
ACTIVATION=CID
INSTRUMENT=ion trap
SCANS=1
165.05658 1371.0 
179.069626 18184.0 
180.07402 1426.0 
191.067734 1116.0 
193.055328 984.0 
205.072525 8750.0 
206.079865 12633.0 
207.083725 704.0 
218.081116 2411.0 
219.088013 3418.0 
220.097305 250517.0 
221.100342 17110.0 
248.092834 3823.0 
280.073792 901.0 
291.07431 760.0 
292.074951 1120.0 
293.074188 812.0 
295.094757 2110.0 
306.060577 875.0 
307.083252 1706.0 
308.095398 1232.0 
320.070862 1149.0 
321.077576 1134.0 
322.083557 2318.0 
323.092194 9434.0 
324.097778 3575.0 
325.105133 3757.0 
327.117737 945.0 
330.110352 727.0 
334.082672 3359.0 
335.085938 3004.0 
337.099365 888.0 
338.089478 1269.0 
339.115662 1101.0 
350.07962 7050.0 
351.081177 1192.0 
352.098419 3316.0 
353.101135 68676.0 
354.103394 7500.0 
355.11676 2175.0 
365.102264 16489.0 
366.105347 2725.0 
367.113739 851.0 
371.110565 893.0 
378.131256 1076.0 
381.120758 3149.0 
383.111725 1627.0 
396.141937 3501.0 
414.154144 24975.0 
415.15567 2868.0 
END IONS

