BEGIN IONS
PEPMASS=290.102
CHARGE=1+
COMPOUNDNAME=Naringenin
LIBRARYQUALITY=3
SMILES=N/A
INCHIKEY=FTVWIRXFELQLPI-UHFFFAOYSA-N
INCHI=InChI=1S/C15H12O5/c16-9-3-1-8(2-4-9)13-7-12(19)15-11(18)5-10(17)6-14(15)20-13/h1-6,13,16-18H,7H2
MSLEVEL=2
SOURCE_INSTRUMENT=N/A-ESI-QFT
FILENAME=library_mgf.mgf
SEQ=*..*
IONMODE=positive
ORGANISM=MONA
NAME=Naringenin [M+NH4]+
PI=MoNA
DATACOLLECTOR=MoNA:VF-NPL-QEHF013816
PUBMED=N/A
SUBMITUSER=mwang87
TAGS=
SPECTRUMID=CCMSLIB00004704879
SCANS=13816
51.27684 0.011722 
51.447636 0.037149 
52.396935 0.034215 
53.026939 0.014882 
53.383881 0.029856 
53.792297 0.03071 
53.908554 0.012297 
55.055027 0.211173 
55.559238 0.010442 
56.166721 0.027427 
56.491627 0.013601 
56.965702 0.030628 
57.034279 0.065028 
57.070686 1.398258 
57.307102 0.016064 
58.065952 0.68753 
59.049946 1.129777 
59.061199 1.265887 
59.707775 0.035381 
60.045204 0.041056 
60.081608 0.152376 
60.335354 0.033372 
60.618641 0.009943 
61.011433 88.649529 
61.076981 0.02771 
61.097363 0.010437 
61.256443 0.01047 
61.291912 0.027357 
61.48756 0.025564 
62.010841 0.693219 
62.014797 1.96911 
62.019268 0.580899 
62.060822 0.042543 
62.66254 0.041936 
62.78529 0.015815 
62.982399 0.030717 
63.00724 3.996925 
63.015865 0.014661 
63.027073 0.074247 
63.274166 0.024545 
64.943657 0.030528 
66.404114 0.014926 
67.05497 0.289492 
68.326225 0.013085 
68.526657 0.034613 
69.070648 0.518833 
69.746384 0.011985 
70.065849 0.283679 
70.393867 0.011628 
70.7257 0.035979 
70.958733 0.440123 
71.049866 0.064775 
71.061066 0.039525 
71.081429 0.012989 
71.086258 0.838048 
71.471916 0.02851 
71.730598 0.027265 
72.045105 0.159951 
72.081413 0.027685 
72.937935 0.055568 
72.973305 0.015521 
73.029137 0.037462 
73.047493 0.042478 
73.065468 0.051746 
73.503052 0.014963 
73.763557 0.027561 
73.838219 0.034588 
74.060684 0.028592 
74.587692 0.034915 
76.25396 0.032948 
76.729919 0.028824 
77.180687 0.039397 
78.014038 0.375566 
78.177956 0.03876 
78.967812 0.035774 
79.021904 0.861212 
79.032402 0.011909 
79.054817 0.074496 
80.050148 0.300791 
80.948509 0.114963 
81.019203 0.399517 
81.070526 0.745304 
82.065178 0.01256 
82.94548 0.019764 
83.049782 0.034827 
83.086166 0.430259 
84.044945 0.017654 
84.685303 0.03369 
85.029121 0.02037 
85.040237 0.990939 
85.065422 0.175964 
85.101753 0.319202 
86.060593 0.076889 
86.097 0.139288 
87.044647 0.21931 
87.302246 0.02937 
88.076263 0.745937 
88.969093 0.030567 
89.060303 0.573614 
89.980133 0.018053 
90.71183 0.010304 
90.948425 0.039667 
91.054832 0.671323 
91.057816 0.064937 
91.357819 0.010776 
92.193375 0.037066 
93.070328 0.224417 
94.026695 0.038955 
95.049675 0.041436 
95.086037 0.94621 
95.504303 0.011339 
96.081261 0.019688 
97.065338 0.101565 
97.089195 0.017382 
97.101692 0.246573 
97.104767 0.011266 
98.975868 1.681419 
98.98465 0.372957 
99.044617 0.050481 
99.080971 0.359744 
100.07608 0.148208 
101.00367 2.059175 
101.060135 0.137424 
101.071465 0.015744 
101.104752 0.037126 
101.950294 0.036143 
102.80439 0.012609 
103.03949 0.027168 
103.075836 0.597534 
104.071053 0.054249 
104.930817 0.307708 
104.99276 0.47143 
105.07029 0.06411 
105.917488 0.267501 
106.086708 2.155758 
106.577965 0.014607 
106.92627 0.043647 
107.049553 0.088429 
107.08596 0.289359 
107.96727 0.067691 
108.089981 0.024743 
109.10154 0.511794 
110.486671 0.012793 
111.044243 0.016324 
111.08075 0.106144 
111.117294 0.045089 
112.656471 0.037499 
112.783508 0.038451 
113.059929 0.017061 
113.096115 0.015862 
114.556023 0.012271 
114.948631 0.726502 
115.160774 0.035107 
116.070923 0.022049 
116.986252 0.740029 
117.917297 0.220475 
119.049629 0.015887 
119.085831 0.09297 
120.940849 0.526223 
121.06469 0.076578 
121.101479 0.343664 
121.575233 0.031137 
121.678352 0.033895 
122.9412 3.027878 
123.044571 0.05038 
123.080788 0.019227 
123.117104 0.161094 
123.273399 0.03513 
124.07605 0.011333 
124.936615 1.240105 
125.071213 0.017903 
125.096306 0.101526 
126.934006 0.047696 
131.085754 0.059367 
131.961594 0.253668 
132.941238 0.030671 
132.958405 1.732584 
133.06543 0.013277 
133.085861 0.098831 
133.101151 0.07411 
133.942963 0.037724 
133.948792 0.840937 
134.919937 0.471761 
134.95694 0.069076 
134.97876 0.430226 
134.996567 0.040165 
135.080582 0.018851 
135.117126 0.158268 
135.927887 0.407613 
135.948975 0.055874 
135.966553 0.107921 
136.087097 0.247159 
136.920334 0.208296 
136.956772 1.492885 
137.096313 0.061933 
137.132339 0.035533 
137.927887 0.020716 
138.951797 0.772316 
139.111755 0.016352 
139.36824 0.015664 
140.107941 0.01507 
140.642044 0.012516 
142.70546 0.016515 
143.106461 0.012934 
145.101196 0.039446 
146.976593 3.226186 
147.044144 2.356443 
147.080399 0.041021 
147.101898 0.017171 
147.11705 0.070451 
147.346313 0.032865 
147.974945 1.417801 
148.047516 0.100686 
148.971909 51.589577 
149.023468 0.120178 
149.096207 0.035489 
149.13266 0.108819 
149.972488 1.30949 
150.951263 3.381774 
150.967728 1.943817 
150.972687 2.181547 
151.111603 0.019694 
151.7677 0.017955 
151.943832 1.626113 
151.970047 0.668885 
152.944977 1.622581 
152.95163 7.086894 
152.96759 1.840312 
152.989441 0.113315 
153.018372 4.300672 
153.025497 0.035457 
153.938889 0.865867 
153.953491 0.038395 
153.959427 3.414307 
154.021683 0.16403 
154.122635 0.045616 
154.947266 2.915845 
154.964722 0.124004 
155.954849 1.403611 
156.944443 0.301711 
157.083572 0.077425 
158.331497 0.038446 
161.012482 0.032282 
161.095886 0.011517 
161.132385 0.020999 
162.483688 0.035262 
162.951172 2.260429 
163.101212 0.039363 
163.148315 0.107711 
163.942795 0.039944 
163.959152 0.054297 
163.976868 0.038806 
164.951645 3.588987 
164.987137 0.322145 
165.018417 1.459664 
165.127335 0.016662 
165.38446 0.034921 
165.938309 2.301632 
166.02153 0.034767 
166.947098 1.544567 
166.982468 7.965262 
167.645523 0.03476 
167.953995 0.53172 
167.984894 0.095633 
168.029236 0.049261 
168.917236 0.028311 
168.944504 0.080413 
168.961823 1.153733 
168.982971 6.3227 
168.990494 0.025349 
169.954254 0.217171 
170.532059 0.031495 
170.955368 2.868947 
170.96228 1.450572 
170.978287 2.679962 
171.02887 0.1416 
171.063019 0.040535 
171.949539 0.053282 
172.952209 0.755047 
172.958679 0.124844 
172.975677 0.206925 
173.012192 0.042034 
173.079727 0.024177 
173.132324 0.037197 
174.974152 0.03721 
175.148468 0.034533 
175.873505 0.011385 
175.958633 0.035875 
176.885803 0.039708 
176.941422 0.074935 
176.98938 0.879042 
177.938248 2.303043 
178.978333 0.089767 
179.034027 0.241518 
179.964233 0.392887 
180.174942 0.012299 
180.454849 0.039246 
180.961777 2.976559 
180.998001 0.165885 
182.962341 4.000803 
183.029114 0.347916 
183.948883 1.136516 
184.169907 0.093543 
184.957596 1.771546 
185.008118 0.076746 
185.949142 0.348125 
185.963623 1.294783 
186.927872 0.105092 
186.954453 0.107796 
187.977295 0.19051 
188.648224 0.038963 
188.966156 1.068113 
189.054382 0.077305 
190.966507 6.219948 
191.17981 0.015368 
191.964523 3.929786 
192.713104 0.034051 
192.961838 100.0 
193.13176 0.066309 
193.964203 5.168569 
194.001099 0.034315 
194.115433 0.54805 
194.962723 13.288452 
195.000015 1.037201 
195.029449 0.043436 
195.937943 0.15876 
195.948868 1.854276 
195.960022 0.779346 
196.170288 0.124391 
196.957687 6.275684 
196.96759 0.045641 
197.042587 0.01851 
197.653458 0.08358 
197.947266 0.099408 
197.959015 0.10542 
197.974472 0.840977 
198.18544 0.016458 
198.954697 1.020958 
200.38736 0.035748 
200.924149 0.014664 
200.954361 0.088313 
201.891708 0.034554 
204.961899 0.07324 
205.988037 1.217529 
206.658676 0.01457 
206.977997 1.168242 
206.987946 0.093393 
207.065445 0.181479 
207.099487 0.050229 
207.985672 0.362001 
208.13063 0.083868 
208.97702 2.908978 
209.975311 2.744389 
210.111389 0.013696 
210.185226 0.33256 
210.323746 0.032677 
210.972336 49.6661 
211.97467 2.824536 
212.237442 0.236068 
212.933151 0.016265 
212.972778 21.820595 
213.073425 0.045298 
213.946899 0.678268 
213.970428 0.892026 
214.968155 8.740012 
215.089569 0.020637 
215.947296 0.341181 
215.969589 0.488986 
216.606461 0.087074 
216.624725 0.192856 
216.638962 0.441817 
216.647919 0.27153 
216.965088 1.354213 
217.104996 0.209687 
218.151733 0.09469 
218.964951 0.148438 
221.32724 0.010811 
221.896561 0.119499 
222.898712 0.15063 
223.979996 0.062673 
224.988113 1.238785 
225.04306 0.044854 
226.180237 0.064286 
226.19574 0.031917 
226.964951 0.040546 
226.988037 0.237196 
227.930557 0.033869 
228.108017 0.040067 
228.927628 0.040063 
228.983948 0.090691 
229.664993 0.037638 
229.896332 0.044191 
230.399658 0.038521 
230.557434 0.024253 
230.958862 0.219473 
230.983154 0.150277 
231.113419 0.036425 
232.097046 1.644015 
232.133072 0.248617 
232.956329 0.048269 
233.98793 0.076717 
234.898712 0.053947 
236.136993 0.080851 
236.162354 0.152506 
237.121277 0.055342 
240.232315 1.493775 
240.90918 0.235431 
241.235199 0.075677 
242.083572 0.013585 
244.085754 0.404627 
246.042374 0.113187 
246.938812 0.051956 
248.162552 0.044104 
248.936203 0.043718 
249.123459 0.184836 
250.107285 0.250585 
250.177948 4.782123 
251.180817 0.613831 
254.212296 0.013207 
257.136047 0.201735 
258.973999 0.030051 
259.114746 0.106309 
263.901428 0.027746 
264.157776 0.021319 
264.909088 0.064416 
265.019928 0.038008 
265.990875 0.224427 
266.172729 1.850803 
266.999512 0.426363 
267.131378 0.191793 
267.156891 0.087724 
267.176056 0.146343 
267.999115 0.071032 
268.152557 0.039504 
268.238312 0.018024 
268.263672 0.266061 
268.978485 2.734387 
268.993744 0.094455 
269.013672 0.035672 
269.135193 0.171946 
269.978302 0.579432 
270.279083 0.25024 
270.317078 0.047531 
270.957642 1.110399 
270.975311 0.320014 
270.993561 0.117334 
271.060242 16.141752 
271.115356 0.025335 
271.15152 0.897646 
271.187775 0.531025 
271.95752 0.161345 
272.063293 2.569006 
272.258881 0.153858 
272.936676 0.074063 
272.954651 0.072378 
273.061279 0.021355 
273.076904 1.123349 
273.093109 0.030472 
273.131195 0.957599 
273.167328 5.866398 
274.079559 0.133198 
274.170593 0.70256 
275.110199 2.286905 
275.146637 0.811734 
275.17334 0.016857 
276.113708 0.12392 
276.197083 0.016432 
276.232574 0.022829 
276.268677 0.033098 
276.908539 0.017647 
278.209839 0.169947 
279.205719 0.019192 
279.915131 0.012855 
280.152069 0.313974 
280.188873 0.068454 
281.014618 0.13578 
281.050507 0.277869 
281.172241 0.062261 
281.912079 0.525402 
282.051605 0.014014 
282.16745 0.110167 
282.203094 0.038708 
282.994263 1.327551 
283.011627 0.048769 
283.030487 1.787421 
283.096497 0.618656 
283.151611 0.173357 
283.263092 0.138643 
283.99408 0.266912 
284.030487 0.29981 
284.331268 9.758243 
284.973145 0.015097 
284.992279 0.121697 
285.009766 1.491982 
285.027527 0.218858 
285.045502 0.054859 
285.076019 0.081568 
285.130768 0.0236 
285.167236 0.040603 
285.334625 1.836889 
286.010376 0.249219 
286.046112 0.018681 
286.310028 0.040946 
286.336853 0.035752 
287.007355 0.143177 
287.109467 0.229492 
287.127686 0.321818 
287.146088 0.455217 
287.183472 0.025287 
288.156067 0.05439 
288.289764 8.051549 
288.96759 0.044962 
289.125763 0.667649 
289.162262 14.02505 
289.293152 1.429674 
290.16568 1.79155 
290.947418 0.132908 
291.141479 0.487179 
291.168488 0.061675 
294.131104 0.154901 
294.204376 0.072731 
295.151978 0.021905 
296.294525 0.014715 
297.046326 0.304907 
297.167236 0.0555 
298.045471 0.014583 
298.346924 0.065941 
299.061768 5.343426 
299.147308 0.028678 
299.18219 0.190619 
299.219299 0.037469 
300.062073 1.322286 
300.289001 0.013982 
301.058014 0.277195 
301.071899 0.321175 
301.125366 0.230435 
301.162079 0.794405 
301.198975 0.082691 
302.058685 0.022302 
303.141205 0.497346 
303.177917 0.360582 
304.300018 4.295691 
305.122833 0.062298 
305.157135 12.565176 
305.303497 0.870074 
306.160492 1.71039 
306.206207 0.021154 
307.16275 0.117178 
309.166321 0.044452 
311.294586 0.496526 
312.296143 0.017143 
312.362518 0.418664 
313.106781 0.099003 
313.1633 0.046934 
313.198212 0.096914 
313.234802 0.642233 
313.364929 0.01325 
315.177704 0.316671 
318.46759 0.046544 
END IONS

