BEGIN IONS
PEPMASS=405.207
CHARGE=1+
COMPOUNDNAME=MoNA:957330 Lincomycin
LIBRARYQUALITY=3
SMILES=N/A
INCHIKEY=OJMMVQQUTAEWLP-UHFFFAOYSA-N
INCHI=InChI=1S/C18H34N2O6S/c1-5-6-10-7-11(20(3)8-10)17(25)19-12(9(2)21)16-14(23)13(22)15(24)18(26-16)27-4/h9-16,18,21-24H,5-8H2,1-4H3,(H,19,25)
MSLEVEL=2
SOURCE_INSTRUMENT=LC-ESI-QFT-LC-ESI-QFT
FILENAME=output_mgf.mgf
SEQ=*..*
IONMODE=
ORGANISM=MONA
NAME=MoNA:957330 Lincomycin [M-H]-
PI=MoNA
DATACOLLECTOR=MoNA
PUBMED=N/A
SUBMITUSER=mwang87
TAGS=
SPECTRUMID=CCMSLIB00000569005
SCANS=6256
50.0036 0.388133 
51.0239 0.337682 
52.0192 0.400036 
53.0033 0.909301 
55.0189 16.021103 
57.0346 28.173835 
58.0061 2.144371 
58.0298 3.619108 
59.0138 33.174626 
60.9754 1.771983 
63.024 0.29678 
63.9624 0.320108 
64.0193 0.179946 
65.0032 0.786143 
65.0397 3.792007 
65.9985 2.174267 
66.0349 5.444594 
67.019 5.115215 
68.0142 5.276189 
68.0505 0.439144 
68.9982 18.652752 
69.0346 54.11204 
70.0299 11.208037 
71.0139 100.0 
71.9677 0.395389 
72.9754 1.12966 
72.9932 3.515619 
73.0296 6.145649 
73.9833 6.12075 
75.0088 1.360849 
78.035 2.700978 
79.019 2.650737 
80.0506 9.427715 
81.022 27.418403 
81.0346 31.078017 
82.0298 12.243293 
82.9962 1.724315 
83.0139 4.012645 
83.0503 10.01805 
84.0091 2.053647 
84.0216 6.667528 
84.0454 3.720698 
85.0295 49.877301 
85.0407 2.934695 
86.0247 0.215362 
86.991 0.843139 
87.0087 13.778077 
88.9703 2.516339 
89.0033 1.607411 
90.0349 2.282973 
92.0503 0.319782 
93.0346 1.363865 
94.0298 23.99027 
95.0138 4.305524 
95.0503 0.44697 
96.0089 0.196111 
96.0455 3.801755 
97.0294 20.025328 
98.0247 4.01728 
98.0611 0.483679 
98.0973 0.219578 
98.9909 1.087978 
99.0086 0.438608 
99.0452 1.828758 
99.9987 1.729079 
100.0406 0.207163 
101.9781 5.907309 
103.9937 0.31807 
104.0144 0.259058 
105.022 14.698361 
106.0298 3.346365 
107.0139 0.266104 
107.0376 3.07792 
107.0502 0.262005 
108.0217 22.502466 
108.0456 3.240396 
109.0169 13.222471 
109.0294 3.720127 
109.0658 4.157384 
110.007 0.318862 
110.0248 2.394706 
110.0611 1.527122 
110.991 1.040123 
111.0086 0.272021 
111.0325 0.325943 
111.0451 1.006815 
112.0405 0.30958 
113.0245 0.269866 
114.9859 0.344949 
118.03 0.731336 
119.0374 0.221616 
120.0456 0.944729 
122.0248 15.813568 
123.009 0.342888 
123.0326 3.009568 
123.0817 0.275282 
124.0403 6.808622 
125.0241 0.426065 
125.072 0.31404 
125.097 1.013197 
126.0561 0.89104 
126.0926 2.197163 
126.9859 2.042839 
133.0169 0.414908 
134.0248 1.393225 
135.0323 0.187457 
136.0408 0.229698 
137.0972 0.360439 
138.0019 7.129102 
138.0195 0.716661 
139.0095 0.350167 
139.1129 0.272032 
139.9938 0.214733 
145.0403 0.248915 
147.0325 0.827172 
149.0355 0.185862 
150.0196 0.231399 
152.108 0.362477 
165.9965 0.827266 
166.1237 0.266791 
168.1394 1.229363 
169.1346 10.023757 
170.1188 2.854231 
182.1549 0.254295 
186.0554 0.225541 
193.1349 1.925224 
195.1502 2.472701 
197.1293 0.84477 
209.1656 1.233101 
221.1655 0.235125 
223.1454 0.309498 
END IONS

