BEGIN IONS
PEPMASS=414.155
CHARGE=1+
COMPOUNDNAME=NOSCAPINE
LIBRARYQUALITY=3
SMILES=N/A
INCHIKEY=AKNNEGZIBPJZJG-MSOLQXFVSA-N
INCHI=InChI=1S/C22H23NO7/c1-23-8-7-11-9-14-20(29-10-28-14)21(27-4)15(11)17(23)18-12-5-6-13(25-2)19(26-3)16(12)22(24)30-18/h5-6,9,17-18H,7-8,10H2,1-4H3/t17-,18+/m1/s1
MSLEVEL=2
SOURCE_INSTRUMENT=N/A-ESI-QFT
FILENAME=library_mgf.mgf
SEQ=*..*
IONMODE=positive
ORGANISM=MONA
NAME=NOSCAPINE [M+H]+
PI=MoNA
DATACOLLECTOR=MoNA:VF-NPL-QEHF002759
PUBMED=N/A
SUBMITUSER=mwang87
TAGS=
SPECTRUMID=CCMSLIB00004693822
SCANS=2759
50.117847 0.017325 
50.789131 0.022112 
51.105228 0.017235 
52.707607 0.019439 
53.799999 0.015791 
55.150024 0.019958 
55.258766 0.017844 
56.481697 0.018911 
56.625832 0.019487 
56.853222 0.016364 
57.6134 0.018505 
57.781162 0.017107 
57.786888 0.020551 
57.979736 0.020729 
58.274136 0.017168 
58.514652 0.019937 
59.274754 0.019752 
59.479298 0.017583 
60.176998 0.016246 
60.872395 0.019221 
61.143364 0.01661 
61.233921 0.016746 
61.896301 0.018934 
62.872696 0.017002 
65.43972 0.021372 
65.534683 0.017534 
66.578453 0.017294 
67.123383 0.017354 
67.445473 0.017967 
68.004211 0.017964 
68.503426 0.017802 
69.181427 0.01849 
69.236519 0.017219 
69.342171 0.016803 
69.365105 0.016207 
70.000626 0.01559 
72.148392 0.016115 
72.239594 0.01646 
72.309502 0.019563 
72.485207 0.016148 
72.736671 0.015171 
72.761032 0.021023 
72.910782 0.015014 
73.290962 0.017308 
73.838936 0.021603 
74.123512 0.019751 
74.630196 0.019948 
75.494545 0.018746 
76.575287 0.016601 
77.275932 0.016766 
77.408798 0.016964 
78.257492 0.021389 
80.094589 0.016082 
80.42083 0.017551 
80.619545 0.017701 
80.852005 0.01835 
81.936554 0.018248 
82.493698 0.017573 
83.363411 0.019494 
83.618607 0.015787 
84.83239 0.018142 
86.504791 0.017542 
88.175079 0.02025 
88.582527 0.018518 
89.54818 0.01809 
90.374634 0.020178 
90.614578 0.019376 
91.054749 0.372173 
91.608574 0.019522 
91.649193 0.016756 
93.495949 0.016512 
93.720695 0.0213 
93.842598 0.016127 
94.296188 0.015886 
95.421577 0.017032 
96.657234 0.017575 
97.275543 0.017182 
97.571533 0.021755 
98.741852 0.018003 
99.101013 0.019185 
99.728561 0.016518 
99.907867 0.020527 
100.026451 0.018074 
100.705582 0.021733 
102.397842 0.018809 
102.902168 0.015718 
103.544022 0.017983 
104.6464 0.017529 
105.692017 0.018265 
107.484749 0.019382 
111.04216 0.01769 
113.502518 0.018778 
115.815765 0.018369 
116.600288 0.019551 
116.679893 0.016726 
118.934303 0.018688 
119.049286 0.30383 
121.064964 1.492258 
122.98558 0.02092 
123.561005 0.017634 
126.567535 0.0182 
126.680061 0.017441 
128.234634 0.018804 
129.743927 0.020975 
132.665939 0.018608 
134.036591 0.023251 
135.029922 0.017991 
137.840591 0.020418 
139.940979 0.01707 
143.750916 0.021249 
148.487228 0.017301 
148.796661 0.01915 
149.059647 0.320132 
149.477524 0.021423 
149.632492 0.019724 
151.075195 0.077706 
151.901489 0.020544 
153.621246 0.019847 
155.166962 0.017719 
156.627533 0.018857 
163.038681 0.020822 
163.245682 0.019264 
164.046768 0.064351 
165.054611 0.951087 
166.274704 0.019513 
166.44165 0.018291 
167.142731 0.018836 
168.09848 0.019506 
169.044128 0.018066 
169.500641 0.017056 
172.086884 0.021658 
173.715973 0.02155 
173.936432 0.020441 
175.07547 0.127189 
176.230148 0.019748 
177.055603 0.019603 
177.532639 0.020235 
177.651871 0.017967 
179.070206 7.987121 
180.073624 0.519544 
182.411575 0.020281 
186.594391 0.018573 
186.604095 0.021975 
187.33989 0.017637 
188.050308 0.019873 
188.998169 0.019282 
189.054413 0.184479 
190.086609 0.020141 
191.070038 0.428023 
193.049561 0.91536 
194.054276 0.018788 
197.650589 0.019958 
202.790421 0.020517 
202.919266 0.01845 
203.057678 0.053394 
203.069244 0.037226 
204.065521 0.492251 
205.049545 0.190805 
205.073318 8.948472 
206.081284 8.65798 
207.084335 0.498204 
207.521484 0.019846 
211.436783 0.01826 
211.8069 0.019792 
212.025955 0.021398 
214.000748 1.587005 
214.01828 0.022378 
218.081314 1.837301 
219.089249 2.044926 
220.096664 100.0 
221.100204 10.969042 
222.067337 0.02334 
223.074936 0.025703 
224.082474 0.025256 
224.731369 0.019148 
227.912003 0.017201 
230.46991 0.020015 
234.067368 0.076511 
235.075089 0.222169 
236.082062 0.058116 
237.091217 0.025665 
238.085281 0.018214 
238.428207 0.020843 
238.480194 0.018085 
239.105637 0.024608 
240.071457 0.020017 
241.043365 0.018206 
243.513016 0.020294 
243.67305 0.020272 
244.309143 0.016964 
246.067215 0.130604 
247.075134 0.191639 
248.092117 0.716669 
249.054428 0.095619 
249.090683 0.304208 
251.069962 0.221925 
252.07756 0.271473 
261.055145 0.027708 
262.062439 0.495684 
263.07016 1.584093 
263.386353 0.018841 
264.077515 1.265797 
265.049438 0.204458 
265.085083 0.765689 
265.517548 0.019992 
266.091614 0.087635 
266.49823 0.018797 
267.06485 0.028885 
267.101288 0.886037 
268.105255 0.042608 
269.117737 0.053641 
271.465424 0.021217 
274.062439 0.540572 
275.06958 0.496034 
276.077423 0.884835 
277.049164 0.230993 
277.085175 1.225346 
278.056458 0.068987 
278.091919 0.10927 
279.064728 0.897827 
279.101654 0.332419 
279.300812 0.017998 
279.976379 0.019797 
280.072754 3.688935 
281.079041 0.978727 
282.087494 0.176135 
283.037994 0.020323 
289.049377 0.039554 
289.390686 0.018201 
290.057037 0.281564 
290.948883 0.017967 
291.064606 1.407176 
292.072205 1.937691 
293.043884 0.020169 
293.079895 1.537353 
294.08725 0.773716 
295.060028 0.557275 
295.096252 5.949539 
296.100281 1.237977 
296.49173 0.017683 
296.94223 0.018281 
297.111328 0.173595 
302.056763 0.573908 
303.064117 0.41051 
304.106995 0.099966 
305.045532 0.05171 
305.080719 1.859447 
305.09845 0.018601 
306.051971 2.200635 
306.08606 0.398105 
307.059784 3.615067 
307.095734 1.575916 
308.066895 1.902625 
308.102875 0.39108 
309.055939 0.018985 
309.074982 1.808811 
309.111145 0.019116 
310.083252 2.607035 
311.08783 0.198595 
312.098633 0.476351 
313.105316 0.13308 
314.38559 0.018965 
316.577454 0.020222 
317.838898 0.018212 
319.059937 1.490069 
320.067047 1.10873 
320.088867 0.044997 
320.367401 0.017099 
320.490448 0.020582 
321.075317 1.680012 
322.083252 4.747155 
323.054718 1.053924 
323.091034 14.419933 
324.060455 0.077238 
324.096222 3.733004 
325.072876 0.067919 
325.106506 5.329675 
326.076721 0.020841 
326.109985 0.648957 
327.12265 0.10709 
332.067596 0.824252 
333.073059 0.052512 
333.300812 0.018253 
334.046722 0.037882 
334.083374 3.150408 
334.106049 0.106545 
335.054688 1.391817 
335.089661 1.314005 
336.060089 0.207894 
336.095947 0.12578 
337.070374 1.352938 
337.10614 0.115563 
338.078003 3.432852 
338.100128 0.157038 
339.081787 0.429085 
340.093262 0.024537 
348.085999 0.061203 
349.105652 0.02614 
350.078308 5.342198 
350.099091 0.158003 
350.891113 0.022574 
351.081757 1.003586 
352.093506 1.658693 
352.117554 0.97787 
353.101593 15.515507 
354.105164 2.901031 
354.12854 0.133868 
355.116821 0.135985 
358.593109 0.019299 
362.101959 0.023661 
363.109406 0.074672 
365.101685 2.010364 
365.513153 0.019429 
366.09671 2.764711 
367.099976 0.200451 
369.253113 0.022209 
378.134155 0.020499 
378.320099 0.020611 
381.120178 1.483818 
382.123627 0.067906 
390.654999 0.018347 
396.144287 0.066761 
399.131775 0.019681 
400.810638 0.020582 
411.235229 0.020542 
414.153198 0.020902 
426.992188 0.021373 
428.704346 0.019109 
435.133728 0.021615 
436.378876 0.019893 
END IONS

