BEGIN IONS
PEPMASS=910.492
CHARGE=1+
COMPOUNDNAME=MoNA:1026612 (5R,8S,11R,12S,15S,18S,19S,22R)-18-[(1E,3E,5S,6S)-6-methoxy-3,5-dimethyl-7-phenylhepta-1,3-dienyl]-1,5,12,15,19-pentamethyl-2-methylidene-8-(2-methylpropyl)-3,6,9,13,16,20,25-heptaoxo-1,4,7,10,14,17,21-heptazacyclopentacosane-11,22-dicarboxylic acid
LIBRARYQUALITY=3
SMILES=N/A
INCHIKEY=DIAQQISRBBDJIM-DRSCAGMXSA-N
INCHI=InChI=1S/C46H67N7O12/c1-24(2)21-35-44(60)52-38(46(63)64)28(6)40(56)47-29(7)41(57)49-33(18-17-25(3)22-26(4)36(65-11)23-32-15-13-12-14-16-32)27(5)39(55)50-34(45(61)62)19-20-37(54)53(10)31(9)43(59)48-30(8)42(58)51-35/h12-18,22,24,26-30,33-36,38H,9,19-21,23H2,1-8,10-11H3,(H,47,56)(H,48,59)(H,49,57)(H,50,55)(H,51,58)(H,52,60)(H,61,62)(H,63,64)/b18-17+,25-22+/t26-,27-,28-,29-,30+,33-,34+,35-,36-,38+/m0/s1
MSLEVEL=2
SOURCE_INSTRUMENT=LC-ESI-QFT-LC-ESI-QFT
FILENAME=output_mgf.mgf
SEQ=*..*
IONMODE=
ORGANISM=MONA
NAME=MoNA:1026612 (5R,8S,11R,12S,15S,18S,19S,22R)-18-[(1E,3E,5S,6S)-6-methoxy-3,5-dimethyl-7-phenylhepta-1,3-dienyl]-1,5,12,15,19-pentamethyl-2-methylidene-8-(2-methylpropyl)-3,6,9,13,16,20,25-heptaoxo-1,4,7,10,14,17,21-heptazacyclopentacosane-11,22-dicarboxylic acid [M+H]+
PI=MoNA
DATACOLLECTOR=MoNA
PUBMED=N/A
SUBMITUSER=mwang87
TAGS=
SPECTRUMID=CCMSLIB00000570036
SCANS=7287
67.0541 0.144833 
69.0334 0.762827 
69.0697 0.33292 
70.065 0.626063 
74.0236 0.546745 
79.0541 1.117012 
81.0696 0.201196 
82.065 1.292406 
84.0443 5.084447 
86.0963 67.152468 
89.0708 2.080794 
91.0541 9.357207 
93.0698 3.006312 
95.049 0.796524 
95.0854 2.290978 
96.0807 0.280112 
98.06 0.165064 
99.0801 0.232073 
99.0916 0.758726 
102.0549 2.460127 
103.0541 5.345326 
104.0578 0.150849 
105.0698 7.583605 
107.0854 48.225945 
108.0807 0.247665 
109.0647 0.500779 
109.101 0.188295 
110.06 0.979989 
110.0965 0.191011 
112.0389 0.190865 
112.0755 0.272447 
112.112 0.127598 
115.054 0.791875 
115.0865 0.278838 
117.0698 2.552437 
119.0853 1.636885 
120.0807 0.213351 
121.0647 0.594686 
121.1011 0.930462 
122.0601 0.13998 
122.0964 0.932477 
123.0805 0.97422 
123.0917 0.211712 
124.0756 2.503245 
124.112 13.1467 
125.1153 0.510512 
126.0548 0.680513 
127.0864 30.17477 
128.0704 1.037918 
128.0898 1.219901 
129.0696 1.06289 
130.0498 3.198263 
131.0855 5.189145 
131.1178 1.157414 
132.0808 0.189896 
133.0644 0.510859 
133.1011 2.046585 
134.096 0.189898 
135.0803 96.807423 
135.1166 42.272676 
136.0754 0.260131 
136.0836 4.270313 
136.12 2.179246 
138.0547 13.93292 
139.058 0.240375 
139.0866 0.14168 
140.0704 1.043962 
141.0697 0.198041 
141.1019 0.169112 
143.0856 5.056689 
144.0886 0.185853 
145.1011 2.787854 
146.0963 0.776936 
147.0804 0.442698 
147.1167 0.856254 
149.0707 0.795903 
149.0959 0.279387 
150.0914 0.22222 
150.1278 0.912955 
152.0704 1.652897 
152.1068 0.234518 
153.0651 0.131495 
153.1021 0.283218 
154.1224 0.128857 
155.0813 53.508971 
156.0653 0.937188 
156.0784 0.205772 
156.0843 1.674644 
157.1011 1.354228 
157.1334 9.788511 
158.1367 0.199288 
159.0802 0.523119 
159.1166 1.740063 
160.1118 0.268173 
161.0961 6.565562 
162.0991 0.452736 
162.1275 2.322547 
163.1115 82.093176 
164.1148 4.894339 
165.0909 0.864261 
167.0811 6.180628 
168.0652 1.084801 
169.1008 1.458869 
170.0808 0.701808 
171.0804 1.660982 
171.1164 2.038305 
171.1489 0.564573 
172.1078 1.952278 
173.0916 37.168569 
174.0955 0.999218 
174.1037 0.489383 
175.1114 1.723528 
176.0704 0.170799 
176.1069 0.138206 
178.1226 1.173855 
178.1349 0.186491 
179.0852 0.141866 
180.138 1.902852 
181.1006 0.748653 
181.1219 0.22825 
181.1333 0.514267 
182.0811 0.877244 
183.076 1.067077 
183.1166 0.497777 
183.149 0.818135 
185.0919 1.952708 
185.128 8.699369 
186.0758 0.59531 
186.0908 0.128829 
187.1115 2.707671 
188.1067 0.793315 
188.1428 0.675768 
189.1276 0.456306 
190.1224 2.688719 
190.1587 0.220102 
191.1067 0.492036 
193.0972 0.61469 
193.1218 0.229403 
194.1647 0.268728 
195.076 15.575835 
195.1166 2.549408 
196.0601 2.033446 
196.0794 0.783676 
196.1195 0.223963 
197.1278 1.830112 
197.1643 0.237792 
198.0756 0.882987 
198.1489 0.166078 
200.1025 4.27868 
201.0865 34.807634 
202.0903 1.311781 
203.1063 0.453363 
204.1379 1.209048 
206.1536 0.208274 
207.1173 0.813548 
209.096 0.352463 
209.1314 4.647407 
210.0756 0.22644 
210.1233 0.446069 
211.0706 0.5629 
211.1437 1.158779 
213.0867 100.0 
214.0708 0.784129 
214.0903 4.728766 
215.1054 0.624084 
216.1377 0.284254 
218.1132 33.343546 
218.1536 11.026277 
219.0971 0.65735 
219.1572 0.907735 
220.1078 0.523873 
221.0915 0.840055 
222.1601 0.480193 
223.1072 2.744969 
223.1438 0.220826 
225.1245 1.119102 
226.1586 8.304522 
227.1025 0.175817 
227.1619 0.680268 
228.138 1.451662 
232.0966 0.625996 
232.1336 0.179915 
234.1486 0.527458 
235.1073 0.832225 
235.1477 0.660145 
236.1639 0.150783 
237.1231 9.842042 
237.1634 18.942994 
238.1178 0.667574 
238.1668 2.0948 
239.0659 7.547255 
239.102 0.685558 
240.0693 0.267569 
240.1704 1.084144 
241.1181 0.18551 
241.1585 0.250098 
243.1336 8.659299 
244.134 0.734785 
246.1485 21.257124 
247.1071 0.241423 
247.149 2.946977 
248.1026 0.327091 
248.1635 0.406219 
250.1433 0.251805 
250.1545 2.630329 
251.1021 2.313695 
251.1387 1.196039 
251.1749 1.479057 
253.1182 0.153184 
254.1899 0.522858 
256.1295 0.244923 
257.1279 0.611413 
258.1849 16.390916 
259.1446 0.121749 
259.1799 1.403446 
259.1899 0.932277 
262.1428 0.653682 
263.1424 0.455916 
263.1757 0.159967 
263.2111 0.204358 
264.159 2.897144 
264.1724 0.287848 
265.1583 13.678596 
266.1132 1.932408 
266.1615 1.53348 
267.0964 0.230888 
268.1651 27.065079 
269.1129 4.225068 
269.1487 0.270656 
269.1689 1.960106 
272.1236 1.967639 
272.1639 0.172039 
274.1433 2.770693 
279.1329 0.627707 
282.1848 7.160612 
284.124 3.414085 
285.193 0.599616 
286.1757 3.881021 
287.1756 1.320121 
288.1585 0.17515 
290.1383 0.965448 
291.1716 0.162916 
292.154 7.198126 
293.1128 4.896117 
293.1576 0.607618 
294.1443 0.947396 
296.1605 0.851251 
297.1842 2.395871 
301.1908 0.609511 
302.1495 0.156126 
303.1333 0.800746 
310.1031 1.816782 
312.1187 0.250556 
313.1867 4.549269 
314.1708 9.12759 
314.2098 1.529439 
316.154 0.445348 
317.1863 0.500417 
319.2012 2.456207 
320.16 1.628672 
320.2006 2.626278 
322.1397 1.20526 
324.1921 0.809032 
325.2234 0.149611 
329.1855 7.77701 
330.1288 0.271754 
331.1975 7.692131 
332.1825 0.141899 
332.201 0.644667 
340.1499 1.242395 
342.1666 0.234331 
345.1812 0.705593 
347.1962 16.001113 
348.1968 3.611686 
351.2025 3.557984 
352.1864 0.677052 
352.2265 0.461182 
357.1808 1.865012 
357.2129 1.537671 
364.1495 0.824011 
366.166 0.284886 
366.2063 0.541519 
369.2134 0.248713 
375.1912 56.611184 
376.1943 5.640175 
379.1975 0.936718 
380.182 0.229496 
380.2192 2.45817 
384.2271 3.693955 
385.2084 2.838301 
394.2014 0.498877 
397.208 18.347425 
398.2115 1.629551 
400.2232 2.013711 
402.2342 1.934018 
407.229 0.18216 
418.2333 0.529698 
428.2178 2.21648 
431.2325 0.833219 
433.2464 0.469911 
437.2029 0.465197 
440.2493 0.715399 
446.2283 9.140816 
447.2304 1.640842 
449.2438 1.12872 
450.2356 0.597892 
462.2337 0.571877 
463.226 0.160469 
463.257 1.409823 
467.2619 1.18697 
468.2446 3.814146 
469.2475 0.620495 
475.2898 0.200322 
477.2387 2.866681 
478.2421 0.178301 
480.2469 0.279442 
481.2711 0.236632 
486.2738 0.1754 
491.2538 0.325467 
493.3023 0.456728 
508.2407 1.459336 
509.2647 2.259863 
513.3073 1.033939 
518.3014 1.387967 
519.3048 0.259428 
534.2553 0.163825 
551.2812 0.449274 
559.3127 0.618135 
562.2901 0.199962 
579.2773 0.180062 
626.3573 0.194645 
647.3779 0.242433 
671.3463 0.209336 
714.4184 0.725622 
741.3807 0.687537 
758.4079 0.711532 
776.4172 0.197726 
END IONS

