BEGIN IONS
PEPMASS=101.036
CHARGE=1+
COMPOUNDNAME=CYCLOSERINE
LIBRARYQUALITY=3
SMILES=N/A
INCHIKEY=DYDCUQKUCUHJBH-UWTATZPHSA-N
INCHI=InChI=1S/C3H6N2O2/c4-2-1-7-5-3(2)6/h2H,1,4H2,(H,5,6)/t2-/m1/s1
MSLEVEL=2
SOURCE_INSTRUMENT=N/A-ESI-QFT
FILENAME=library_mgf.mgf
SEQ=*..*
IONMODE=negative
ORGANISM=MONA
NAME=CYCLOSERINE [M-H]-
PI=MoNA
DATACOLLECTOR=MoNA:VF-NPL-QEHF027816
PUBMED=N/A
SUBMITUSER=mwang87
TAGS=
SPECTRUMID=CCMSLIB00004721397
SCANS=27816
50.208939 0.045476 
51.023033 0.065421 
51.403004 0.042278 
51.481224 0.064327 
53.37878 0.066363 
53.983528 0.043466 
54.798161 0.048197 
54.960262 0.053323 
55.86113 0.049127 
55.938862 0.057405 
56.498955 0.065255 
57.033241 0.044755 
57.816364 0.046549 
57.992031 7.141164 
58.013187 0.057994 
58.028561 0.05641 
58.321888 0.040272 
58.323612 0.04223 
58.559563 0.067846 
59.607491 0.047808 
59.623974 0.052901 
62.796673 0.039734 
63.056858 0.040464 
63.360081 0.059208 
64.136177 0.049394 
64.823601 0.044332 
65.882164 0.043873 
66.342735 0.066909 
67.164856 0.04412 
67.571922 0.062517 
69.293137 0.043108 
69.419418 0.051635 
71.062431 0.059948 
71.26123 0.070091 
72.686249 0.065349 
72.834557 0.068264 
73.365318 0.053309 
76.432213 0.05261 
79.819595 0.055981 
79.922348 0.046913 
79.956001 0.480309 
80.02523 0.056162 
81.488197 0.046002 
81.949188 0.058907 
81.951782 11.889975 
81.960197 0.803933 
82.952751 0.267168 
83.271629 0.04755 
83.858047 0.041184 
83.929527 0.291148 
84.750671 0.045507 
84.949791 0.162864 
87.292107 0.043192 
89.698601 0.044371 
90.050919 0.060683 
90.892487 0.078366 
91.596191 0.051354 
97.567261 0.052935 
97.71727 0.043844 
97.930031 0.720612 
98.937706 0.175335 
98.947952 5.659218 
98.954613 69.331009 
98.962845 13.355834 
98.971214 0.119314 
99.018669 0.191143 
99.905678 0.218661 
99.924484 100.0 
99.942467 0.164377 
100.665733 0.052099 
100.92466 10.917381 
100.932297 65.647591 
100.944756 7.647394 
100.953552 0.558091 
100.958969 1.873758 
101.034355 0.540576 
101.059486 0.718364 
101.922798 0.862198 
101.932411 7.419357 
102.01828 0.056814 
102.333206 0.0488 
102.930634 0.133599 
105.467239 0.042847 
106.085983 0.057292 
106.267372 0.049432 
109.051933 0.044907 
110.497169 0.052691 
110.846382 0.062677 
112.89241 0.054046 
113.924896 0.664435 
115.731842 0.063823 
115.896538 0.229227 
115.919449 99.096321 
115.942856 0.076575 
116.919601 11.7191 
116.927216 1.655032 
117.917877 0.528904 
117.923553 0.111447 
118.495743 0.046049 
124.701439 0.051531 
END IONS

