BEGIN IONS
PEPMASS=639.172
CHARGE=1+
COMPOUNDNAME=3-{[(2S,3R,4S,5R,6R)-3-{[(2S,3S,4R,5R,6S)-3,5-dihydroxy-4-methoxy-6-methyloxan-2-yl]oxy}-4,5-dihydroxy-6-methyloxan-2-yl]oxy}-8-hydroxy-15-methyl-11,18-dioxapentacyclo[10.6.2.0�,?.0?,�?.0�?,�?]icosa-1,3,5,7,9(19),12(20),13,15-octaene-10,17-dione
LIBRARYQUALITY=3
SMILES=N/A
INCHIKEY=PONPPNYZKHNPKZ-BAHCCNBTSA-N
INCHI=InChI=1S/C32H32O14/c1-10-8-9-15-18-16(10)29(38)45-26-17-13(23(35)20(19(18)26)30(39)43-15)6-5-7-14(17)44-32-28(24(36)21(33)11(2)42-32)46-31-25(37)27(40-4)22(34)12(3)41-31/h5-9,11-12,21-22,24-25,27-28,31-37H,1-4H3/t11-,12+,21+,22-,24+,25+,27-,28-,31+,32+/m1/s1
MSLEVEL=2
SOURCE_INSTRUMENT=N/A-ESI-QFT
FILENAME=library_mgf.mgf
SEQ=*..*
IONMODE=negative
ORGANISM=MONA
NAME=3-{[(2S,3R,4S,5R,6R)-3-{[(2S,3S,4R,5R,6S)-3,5-dihydroxy-4-methoxy-6-methyloxan-2-yl]oxy}-4,5-dihydroxy-6-methyloxan-2-yl]oxy}-8-hydroxy-15-methyl-11,18-dioxapentacyclo[10.6.2.0�,?.0?,�?.0�?,�?]icosa-1,3,5,7,9(19),12(20),13,15-octaene-10,17-dione [M-H]-
PI=MoNA
DATACOLLECTOR=MoNA:VF-NPL-QEHF001569
PUBMED=N/A
SUBMITUSER=mwang87
TAGS=
SPECTRUMID=CCMSLIB00004692632
SCANS=1569
50.083401 0.026926 
50.472099 0.025429 
50.708588 0.050559 
51.182373 0.045691 
51.59956 0.043332 
51.658871 0.024844 
51.665314 0.048768 
52.162537 0.053541 
52.358562 0.054259 
52.447666 0.03005 
52.675858 0.023228 
53.445461 0.04698 
53.807346 0.021017 
53.868008 0.047378 
53.985313 0.026993 
54.083004 0.037033 
54.219807 0.042464 
54.43713 0.037707 
54.905357 0.054497 
54.917862 0.052222 
55.033875 0.048195 
55.140385 0.038737 
55.9049 0.038405 
56.224285 0.036005 
56.348907 0.050853 
56.468632 0.045204 
56.599392 0.035122 
56.914387 0.039178 
56.93528 0.040457 
57.002918 0.035413 
58.298458 0.049529 
58.376492 0.03913 
59.541573 0.041308 
60.715019 0.034296 
61.013332 0.020019 
61.335728 0.032949 
61.515316 0.021767 
61.986958 0.046651 
62.258423 0.035958 
62.261597 0.037696 
62.61898 0.036544 
62.871204 0.031236 
62.921246 0.024271 
63.006779 0.034203 
63.278412 0.026042 
64.030495 0.050291 
64.501068 0.019958 
64.629692 0.023852 
64.692322 0.043542 
65.144348 0.044422 
65.524818 0.040817 
65.890076 0.042483 
66.44281 0.056764 
67.999077 0.036282 
68.187057 0.037245 
68.914093 0.023371 
69.742867 0.024727 
69.825768 0.02303 
69.886276 0.031316 
69.941139 0.054188 
70.550728 0.033518 
71.126518 0.029083 
71.247849 0.028734 
71.957169 0.039281 
72.190346 0.059971 
72.209541 0.028683 
72.542145 0.024217 
72.83757 0.054079 
72.9403 0.022394 
73.028069 0.038971 
73.693764 0.02515 
74.650444 0.022934 
75.053596 0.0231 
75.347549 0.022559 
75.406319 0.023575 
75.436935 0.025262 
75.732971 0.040081 
76.567757 0.021676 
76.658821 0.037072 
76.695259 0.056413 
76.702003 0.025493 
77.459595 0.038503 
77.508698 0.049882 
77.70211 0.021788 
77.878616 0.056364 
77.977859 0.050288 
78.331062 0.051515 
78.485016 0.028795 
78.637589 0.020785 
79.955956 0.686131 
81.753021 0.024499 
81.965897 0.022671 
82.210884 0.060902 
83.668724 0.037237 
83.995949 0.019809 
84.691338 0.062292 
84.982933 0.054325 
85.564987 0.038611 
85.609634 0.032728 
86.290268 0.024846 
86.73616 0.037195 
87.097069 0.043241 
87.523849 0.023984 
87.67659 0.028136 
88.874809 0.038101 
90.457039 0.056842 
91.360535 0.066282 
91.369537 0.056608 
91.440468 0.042037 
91.712921 0.030911 
92.043167 0.05873 
92.542679 0.033873 
92.599236 0.025908 
93.408203 0.042884 
93.712914 0.048721 
93.850693 0.021579 
94.979454 0.877874 
94.999008 0.056194 
95.089088 0.027922 
95.885155 0.041123 
95.982941 0.042021 
96.022476 0.024851 
96.428391 0.065694 
96.958809 2.561773 
97.327286 0.05626 
97.433037 0.02563 
97.454041 0.036469 
97.494865 0.054364 
97.744095 0.049914 
98.198647 0.031871 
99.858231 0.051019 
100.58831 0.021054 
100.695152 0.022571 
100.822456 0.050812 
101.114571 0.037406 
102.556152 0.046391 
102.998375 0.046846 
103.204346 0.026561 
103.461639 0.056461 
104.315392 0.030635 
104.613571 0.032892 
104.665207 0.040377 
106.159233 0.027868 
107.57962 0.043206 
107.749046 0.033304 
109.041626 0.037085 
110.647377 0.036578 
110.974464 0.238183 
111.82505 0.024453 
113.54776 0.036857 
114.843582 0.055795 
115.267662 0.031378 
115.652046 0.053526 
115.92009 0.027745 
116.778725 0.039685 
118.404419 0.037349 
119.1726 0.026654 
119.509338 0.050868 
120.56456 0.034133 
121.019585 0.042518 
121.429405 0.039252 
121.573891 0.036663 
123.479591 0.057251 
123.953224 0.023618 
124.971512 0.018528 
125.265305 0.04561 
126.905396 0.056622 
127.219337 0.038418 
127.290771 0.024218 
127.419075 0.027662 
128.029099 0.027885 
129.530029 0.040859 
129.754318 0.024212 
131.434219 0.053519 
131.522415 0.049485 
132.062531 0.043277 
132.198822 0.04986 
133.390244 0.022887 
133.837173 0.046646 
134.919113 0.021396 
135.38237 0.060978 
135.842682 0.032297 
136.766327 0.035156 
139.895187 0.03364 
140.984085 0.021532 
141.334244 0.045892 
146.136429 0.026814 
147.416733 0.061205 
148.418167 0.064381 
148.462723 0.028061 
148.478424 0.021113 
151.985611 0.055223 
152.64563 0.023712 
156.550217 0.022991 
160.163239 0.035707 
163.384491 0.062048 
163.404327 0.041412 
164.107635 0.025006 
170.388733 0.035596 
170.528442 0.039225 
173.473785 0.026335 
174.864212 0.042294 
176.127487 0.036354 
176.296082 0.057238 
177.065109 0.04138 
178.550629 0.040306 
179.640701 0.026621 
180.057281 0.063409 
184.33226 0.041476 
184.628128 0.030327 
186.506882 0.042721 
188.120895 0.022944 
188.82782 0.061404 
189.949905 0.043168 
191.105408 0.044013 
194.425934 0.036513 
196.661621 0.022397 
198.533264 0.029592 
203.676147 0.041671 
205.363815 0.049892 
205.515472 0.049064 
205.585098 0.051896 
206.533173 0.057836 
208.052383 0.595092 
210.585098 0.027073 
215.828339 0.037436 
218.142731 0.030782 
220.025513 0.325912 
220.030396 0.300775 
220.033051 0.302055 
220.052567 5.416434 
221.05632 0.125167 
221.544876 0.027238 
224.047318 1.203767 
225.019043 0.059616 
225.624573 0.025996 
227.840729 0.051822 
231.783295 0.026023 
232.052612 1.561549 
233.059784 0.484101 
234.955582 0.067899 
235.039429 0.151873 
236.046982 0.170306 
237.018982 2.853129 
238.324875 0.025154 
239.38858 0.063219 
243.160721 0.046343 
245.06015 0.118202 
247.038666 0.105161 
248.047592 26.622458 
248.208099 0.028832 
248.972137 0.034191 
249.050949 3.934391 
251.03476 0.941964 
251.070343 0.037329 
252.042511 13.103745 
252.722519 0.025892 
253.045929 1.313901 
258.639587 0.069087 
259.040741 0.040003 
260.047791 2.953232 
261.054504 0.404353 
262.058899 0.041437 
264.042786 4.417608 
265.046936 0.090894 
266.058441 3.502141 
267.061646 0.149088 
273.040527 0.030127 
276.042694 18.832211 
276.298401 0.049344 
277.046478 2.893258 
278.04953 0.077184 
279.029694 4.72356 
279.066162 0.797344 
280.036682 2.531497 
281.139252 0.030085 
288.042938 12.056828 
289.049591 6.384111 
290.053101 0.120608 
290.599152 0.025086 
294.053558 30.140713 
295.056335 4.960015 
296.059845 0.120693 
300.050049 0.021696 
304.037659 54.044205 
305.041016 9.108085 
306.044189 0.068681 
308.032501 0.060835 
322.567291 0.065581 
332.032501 100.0 
333.036133 18.257225 
334.038971 1.156031 
337.308655 0.026936 
341.312103 0.041384 
341.949463 0.029408 
343.401794 0.033573 
351.271362 0.043721 
371.300415 0.028947 
371.668915 0.035623 
395.073883 0.025805 
401.070557 0.046486 
412.11911 0.023499 
418.766144 0.050206 
420.506866 0.052432 
428.155182 0.028993 
448.119324 0.026388 
465.853241 0.027208 
476.048126 0.027028 
483.987366 0.025364 
485.884064 0.025626 
487.488251 0.043699 
502.000305 0.026284 
503.205597 0.027455 
503.234344 0.044647 
524.989319 0.027308 
528.540405 0.025693 
539.865967 0.077631 
550.148132 0.025781 
554.498169 0.034779 
559.321838 0.031681 
569.792786 0.055417 
573.134399 0.027076 
588.143188 0.047785 
592.139282 0.056526 
617.181274 0.022901 
631.778687 0.04333 
633.426086 0.027188 
634.605042 0.04678 
635.235107 0.054716 
645.967529 0.028952 
END IONS

