BEGIN IONS
PEPMASS=333.166
CHARGE=1+
COMPOUNDNAME=Massbank: Spectinomycin
LIBRARYQUALITY=3
SMILES=[H]C([H])([H])N([H])C([H])(C([H])(O[H])1)C([H])(O[H])C([H])(O2)C([H])(OC(O[H])(C(=O)3)C([H])(OC([H])(C([H])([H])[H])C([H])([H])3)2)C([H])(N([H])C([H])([H])[H])1
INCHIKEY=UNFWWIHTNXNPBV-UHFFFAOYSA-N
INCHI=1S/C14H24N2O7/c1-5-4-6(17)14(20)13(21-5)22-12-10(19)7(15-2)9(18)8(16-3)11(12)23-14/h5,7-13,15-16,18-20H,4H2,1-3H3
MSLEVEL=2
SOURCE_INSTRUMENT=ESI-LC-ESI-QTOF
FILENAME=Massbank_ESI_positive_8_1_2014_peaks.mgf
SEQ=*..*
IONMODE=Positive
ORGANISM=MASSBANK
NAME=Massbank: Spectinomycin [M+H]+
PI=Putative Massbank Match
DATACOLLECTOR=Massbank
PUBMED=N/A
SUBMITUSER=mwang87
TAGS=
SPECTRUMID=CCMSLIB00000206374
SCANS=1633
55.0548 102.422 
56.0501 135.727 
57.0341 310.9 
58.0656 175.606 
60.0447 109.602 
67.0534 102.076 
68.0495 291.09 
69.0337 1018.166 
70.0655 1465.398 
71.0491 1650.519 
72.0449 3574.394 
73.0525 665.311 
74.0605 2481.834 
80.05 112.716 
81.0343 1077.855 
82.0658 1259.516 
83.0503 626.211 
84.0445 751.038 
84.0825 292.993 
85.03 1006.92 
85.0749 729.844 
86.0611 1969.723 
87.0075 146.799 
87.0457 124.827 
87.0923 130.882 
88.0766 348.702 
94.0658 3142.734 
95.051 152.855 
96.0444 489.187 
96.0821 522.924 
97.041 270.329 
97.0595 281.574 
98.0605 10000.0 
99.0453 5486.159 
99.0795 158.391 
100.0377 1419.55 
100.0765 3351.211 
101.0566 210.813 
102.0555 1198.097 
109.0293 1120.242 
110.0605 1224.913 
111.0568 645.242 
112.0363 1106.401 
112.0768 4671.28 
112.1127 101.99 
113.0291 138.668 
113.0592 110.986 
114.0553 1744.81 
114.096 237.197 
115.0614 186.332 
116.0707 3711.073 
122.0602 5166.955 
123.0785 588.149 
124.0763 1061.419 
125.0251 123.183 
125.0613 109.948 
125.1065 309.602 
126.0549 307.439 
126.0935 119.118 
127.0399 786.073 
128.0685 839.706 
129.055 1711.073 
130.0484 133.564 
130.0864 298.183 
132.0655 158.045 
135.092 1044.118 
136.0764 131.228 
138.0567 936.851 
138.0955 100.173 
139.0621 511.851 
140.0707 7753.46 
141.0604 361.592 
142.0859 743.858 
144.0854 119.896 
145.0493 310.035 
152.0748 344.291 
153.1025 1147.059 
154.0853 640.225 
156.0658 832.007 
157.0683 189.446 
158.0812 2089.1 
160.0948 112.716 
168.0713 224.654 
170.082 654.931 
171.0642 107.958 
171.1123 219.291 
172.0964 504.412 
176.0894 122.405 
178.0694 126.73 
180.0941 172.059 
182.0805 651.125 
184.0793 242.561 
186.0814 160.467 
187.1058 150.173 
189.1231 2416.09 
196.0882 279.412 
198.0854 192.734 
199.1076 199.827 
200.0918 998.27 
205.1183 169.81 
207.1335 509.429 
212.0933 149.567 
214.1001 177.163 
217.1167 130.45 
224.0888 138.927 
227.1161 232.007 
228.0865 497.751 
233.1172 105.277 
238.1136 198.616 
240.0868 142.82 
242.0987 239.446 
243.1322 744.118 
244.1148 137.197 
245.1109 245.502 
247.128 175.519 
256.1172 144.81 
258.0973 307.526 
266.1018 189.879 
284.1106 733.478 
287.1575 127.595 
289.1432 136.592 
291.1141 155.45 
302.1223 743.512 
305.1697 301.817 
315.1533 318.339 
333.1642 4661.765 
END IONS

