BEGIN IONS
PEPMASS=308.149
CHARGE=1+
COMPOUNDNAME=dehydrocurvularin
LIBRARYQUALITY=3
SMILES=N/A
INCHIKEY=AVIRMQMUBGNCKS-GQCTYLIASA-N
INCHI=InChI=1S/C16H18O5/c1-10-5-3-2-4-6-13(18)16-11(8-15(20)21-10)7-12(17)9-14(16)19/h4,6-7,9-10,17,19H,2-3,5,8H2,1H3/b6-4+
MSLEVEL=2
SOURCE_INSTRUMENT=N/A-ESI-QFT
FILENAME=library_mgf.mgf
SEQ=*..*
IONMODE=positive
ORGANISM=MONA
NAME=dehydrocurvularin [M+NH4]+
PI=MoNA
DATACOLLECTOR=MoNA:VF-NPL-QEHF016203
PUBMED=N/A
SUBMITUSER=mwang87
TAGS=
SPECTRUMID=CCMSLIB00004707266
SCANS=16203
50.417355 0.009493 
50.897964 0.001281 
51.20705 0.027426 
51.75985 0.041671 
51.922173 0.042016 
51.940346 0.007336 
52.025139 0.001175 
52.079391 0.003982 
52.094505 0.008645 
52.139145 0.001583 
52.331314 0.030675 
53.002541 0.011461 
53.038952 1.61554 
53.053394 0.036799 
53.321892 0.004891 
53.362606 0.027234 
53.793633 0.026031 
54.033787 0.001505 
54.37125 0.041244 
54.937862 0.068096 
55.018188 0.308459 
55.054585 27.350958 
55.218616 0.004824 
55.265594 0.031237 
55.617435 0.052615 
55.934731 0.989216 
55.965202 0.009648 
56.005013 0.004408 
56.049824 30.40049 
56.05505 0.019448 
56.057907 0.950351 
56.060818 0.007984 
56.089035 0.007765 
56.204041 0.015818 
56.965111 1.89726 
56.966591 0.001454 
57.033817 1.383806 
57.053146 0.362814 
57.059036 0.001255 
57.07019 0.237133 
57.080624 0.03514 
57.153442 0.043115 
57.79274 0.037583 
57.799297 0.03813 
57.823185 0.026896 
57.935108 2.378857 
58.430412 0.038732 
58.986172 0.043659 
59.049419 0.48969 
59.216591 0.001264 
59.806232 0.024026 
59.930527 0.015959 
60.027863 0.001156 
60.115433 0.041851 
60.275429 0.046654 
60.389332 0.006364 
60.878571 0.032886 
61.01091 100.0 
61.113567 0.001307 
61.492397 0.004742 
62.010319 0.201753 
62.014233 1.90366 
62.018692 3.760206 
62.082798 0.037027 
62.088676 0.02114 
62.809864 0.039457 
63.00666 1.816426 
64.064072 0.007114 
64.079483 0.001234 
64.169342 0.001282 
64.314575 0.04053 
65.038803 0.409657 
65.069214 0.016174 
65.089951 0.00183 
65.443977 0.003887 
65.769081 0.001399 
65.826393 0.001186 
66.451378 0.003309 
67.054382 3.802644 
67.118111 0.001331 
67.966255 0.003301 
68.057701 0.029243 
68.278587 0.002704 
68.44648 0.001205 
68.48542 0.002812 
68.514259 0.018521 
68.942917 0.001241 
68.948807 0.001477 
68.997276 0.274877 
69.033653 0.005187 
69.07003 0.713176 
69.462257 0.044561 
69.47905 0.001306 
69.786079 0.023813 
69.832695 0.002846 
69.948486 0.043399 
70.065231 1.729756 
70.368629 0.040386 
70.388 0.020712 
70.611725 0.008712 
70.924698 0.046078 
70.941826 0.099513 
70.957993 5.309471 
70.959969 0.00786 
70.980545 1.059592 
71.049263 0.705773 
71.08564 0.056457 
71.121689 0.040093 
71.92942 1.644963 
71.940338 1.871906 
71.951965 0.001375 
72.937241 5.609053 
72.958351 1.188537 
72.960358 0.003454 
72.972107 0.024674 
73.010857 0.002764 
73.06485 0.012376 
73.069847 0.022102 
73.901169 0.022788 
73.94532 0.003793 
73.956169 0.006459 
74.116531 0.030206 
74.465775 0.001576 
74.623466 0.001295 
74.931007 0.140604 
74.975449 0.024486 
75.00972 0.003156 
75.041458 0.049895 
75.044373 0.001218 
75.123695 0.006822 
75.44986 0.00275 
75.480515 0.008034 
75.945511 0.229554 
76.546547 0.018119 
76.575287 0.007905 
77.035599 0.039656 
77.333572 0.027828 
77.365944 0.010115 
78.18705 0.008174 
78.557129 0.001234 
78.620125 0.00139 
78.967216 0.012779 
79.021294 1.0338 
79.054306 7.420023 
79.058449 0.002139 
79.281776 0.004789 
79.938492 0.009048 
79.948151 0.001259 
80.04953 0.006934 
80.057632 0.153457 
81.033638 0.079054 
81.069969 40.777313 
81.33773 0.029945 
81.456116 0.00279 
82.073334 2.298123 
82.075775 0.001561 
82.284164 0.01508 
82.362411 0.042784 
82.613716 0.017031 
83.049225 1.054549 
83.085632 0.012388 
83.141708 0.040314 
85.028679 0.058993 
85.064804 0.001933 
86.060089 0.001342 
86.353867 0.001546 
86.35981 0.038755 
86.573914 0.044438 
86.707657 0.02877 
87.044144 0.001496 
87.281998 0.018181 
87.429771 0.028783 
87.658516 0.001414 
87.906586 1.35815 
88.187851 0.034102 
88.498894 0.029018 
88.614868 0.001445 
88.863869 0.037673 
88.914253 0.032489 
88.952454 0.001217 
88.968552 0.227255 
88.991127 0.069778 
89.720215 0.040117 
89.729919 0.001489 
89.794884 0.016162 
89.804741 0.015398 
89.806946 0.003671 
89.81282 0.01627 
89.939987 0.217779 
89.950935 0.027242 
90.94783 3.245153 
90.968819 0.103635 
91.054367 1.240184 
91.836662 0.006277 
91.96685 0.007915 
92.057701 0.00263 
92.178276 0.001677 
92.456924 0.001332 
92.630386 0.018159 
92.777473 0.028816 
92.956612 0.042635 
92.982994 0.003386 
93.033836 0.003494 
93.070045 0.317444 
93.304253 0.009429 
93.956093 0.241488 
94.073524 0.036791 
94.360901 0.042871 
94.655823 0.040109 
94.92942 0.00286 
95.01535 0.019144 
95.049202 1.283445 
95.085625 3.101563 
95.089668 0.005816 
95.421944 0.040448 
95.975311 0.028733 
96.08886 0.001667 
96.320969 0.008904 
96.62674 0.001367 
96.752434 0.028561 
96.90741 0.01628 
97.064796 0.008088 
97.101578 0.001622 
97.700333 0.044365 
98.096512 41.756313 
98.176674 0.0019 
98.975395 0.149326 
99.026062 0.038462 
99.080536 4.420284 
99.099846 2.520404 
99.337311 0.045958 
99.458336 0.001923 
100.083794 0.001428 
100.689995 0.049825 
100.792999 0.001455 
100.829826 0.002584 
101.799393 0.001256 
101.85041 0.004039 
101.906746 0.059491 
101.933174 1.383327 
102.208786 0.010556 
102.480949 0.008639 
102.735138 0.001423 
102.904907 0.006565 
102.91478 1.015381 
102.930061 1.984876 
102.967453 0.002934 
103.054161 0.005099 
103.342735 0.043801 
103.624443 0.001743 
103.889816 0.001569 
103.976028 0.001299 
104.044708 0.01771 
104.108665 0.017763 
104.930511 0.893955 
105.0336 0.00402 
105.044785 0.001644 
105.070015 0.559949 
105.418861 0.036231 
105.917191 1.667273 
105.952423 0.045495 
105.9561 0.006426 
106.96331 0.001316 
106.99839 0.007254 
107.001839 0.006067 
107.049248 0.117202 
107.08564 0.009757 
107.165009 0.001563 
107.961548 0.020439 
107.971603 0.008266 
108.670486 0.027167 
108.958351 0.02255 
108.979546 0.044526 
109.028343 0.002787 
109.065231 0.061426 
109.101288 0.005891 
109.617943 0.001745 
109.92289 0.003235 
109.987015 0.024875 
110.059822 0.001875 
110.759552 0.001772 
111.044197 2.185375 
111.921959 0.014932 
112.928093 0.037871 
113.635063 0.008392 
113.925438 0.048667 
115.039078 0.001383 
115.054497 0.010534 
116.051476 0.029319 
116.90934 1.402593 
116.966576 0.002967 
116.986023 0.182432 
117.070122 0.005897 
117.312904 0.01769 
117.748039 0.033329 
117.91703 1.026862 
118.464439 0.042964 
118.945442 0.303669 
119.049278 0.571261 
119.085564 0.014993 
119.917587 0.107006 
119.94368 4.771726 
119.951118 0.001346 
120.008171 0.014325 
120.065994 0.001777 
120.915176 0.005285 
120.926338 0.531049 
120.940613 11.569575 
121.028519 2.580342 
121.064995 0.015925 
121.236565 0.006439 
121.694542 0.001793 
121.879005 0.067252 
122.031647 0.001371 
122.130043 0.001322 
122.822792 0.001965 
122.940987 5.050786 
123.044144 21.778711 
123.080452 0.009045 
123.094727 0.005256 
123.939064 0.004071 
123.948868 0.086243 
124.047516 0.810823 
124.158844 0.037386 
124.649986 0.044662 
124.935562 0.001456 
126.059837 0.009319 
126.606438 0.044079 
128.040283 0.016576 
128.062073 0.003736 
129.070175 0.048768 
129.21817 0.00184 
129.841949 0.037816 
131.049149 0.081257 
131.086151 0.032663 
131.943741 0.664027 
132.94072 0.168277 
133.064713 0.05633 
133.101334 0.001422 
133.209991 0.040027 
133.484299 0.048412 
133.774811 0.028104 
133.95932 0.031344 
134.9198 2.866483 
134.930801 0.162574 
134.941238 0.001356 
134.956207 0.937147 
134.978882 0.973329 
134.996536 0.161701 
135.043976 0.014419 
135.080597 0.001656 
135.927643 5.691793 
136.051941 0.055635 
136.956879 0.003847 
137.011856 0.008596 
137.023514 0.099408 
137.059891 0.283247 
137.918747 0.057988 
137.92804 9.309391 
137.95433 1.002172 
138.036911 0.007562 
138.925842 0.003253 
138.937119 0.222122 
138.951065 4.513201 
139.039017 0.031629 
140.157562 0.003117 
140.951385 0.134331 
140.976242 0.002121 
141.069946 0.001931 
141.105438 0.021996 
142.061035 0.040168 
142.800308 0.024569 
142.862411 0.011356 
143.085373 0.002218 
145.014725 0.017996 
145.064804 0.008933 
145.987076 0.023108 
146.163223 0.039792 
146.663147 0.043954 
146.974289 0.107538 
147.044159 0.872301 
147.050125 0.001489 
147.080643 0.004293 
147.643478 0.0015 
147.651123 0.017094 
147.759872 0.009482 
147.974884 0.001899 
148.050522 0.149587 
148.955963 1.612347 
148.971817 3.111823 
149.023468 0.235529 
149.059357 0.096027 
149.708817 0.001275 
149.954285 7.923016 
150.9151 0.111131 
150.951172 30.061165 
150.971893 0.0139 
151.039337 0.299112 
151.470779 0.020318 
151.943268 0.010834 
151.951096 0.165142 
151.970215 0.060795 
152.930588 0.207822 
152.941299 0.02372 
152.951691 4.135437 
152.966934 0.210769 
152.98941 0.341539 
152.998062 0.002969 
153.007202 0.018898 
153.05455 0.001199 
153.069641 0.00448 
153.322479 0.047328 
153.637833 0.015458 
153.938385 2.725588 
153.95929 5.221443 
154.91362 0.055705 
154.930984 0.007558 
154.968552 0.001934 
155.928558 0.007559 
155.954819 0.015045 
155.9646 0.002009 
156.940781 0.028163 
156.947922 0.179448 
157.064514 0.005208 
157.734985 0.001376 
158.953781 0.005475 
159.080994 0.002957 
159.876572 0.045713 
160.052612 0.007051 
160.139587 0.04302 
161.059921 0.481129 
161.610825 0.002027 
162.063309 0.016817 
162.091888 0.04523 
162.679642 0.009361 
163.039108 0.151173 
163.075867 0.003454 
163.913345 0.00123 
163.977356 0.008018 
164.215591 0.006755 
164.633377 0.038342 
165.018539 0.083143 
165.054749 16.192774 
165.062363 0.127475 
166.058563 0.885054 
166.07753 0.001227 
166.825821 0.03139 
166.96669 0.438743 
166.982925 0.024187 
167.005493 0.007158 
167.034027 13.597482 
167.496368 0.048024 
167.928284 0.056722 
167.964951 1.908416 
168.037521 0.356436 
168.925308 8.799784 
168.947876 0.083057 
168.961731 9.973532 
168.982971 0.464602 
169.90773 0.032457 
169.917923 0.531323 
169.933578 0.112657 
169.961685 0.001391 
169.980331 0.003688 
170.432739 0.003413 
170.925934 0.327881 
170.955032 0.013431 
170.963028 2.314439 
171.000259 0.007975 
171.781693 0.023799 
171.925446 0.016322 
171.933502 4.570648 
171.948563 0.00163 
172.923889 0.020658 
173.059967 0.014011 
174.918579 0.00705 
174.958633 0.0619 
175.039154 0.483149 
175.074814 0.066025 
175.119843 0.049186 
176.045303 1.755546 
177.052185 1.259713 
178.060959 0.134092 
178.187714 0.0017 
178.893036 0.001409 
179.067657 0.009794 
179.947037 0.011602 
180.186295 0.002008 
180.888336 0.122465 
180.944168 0.458248 
181.05423 0.015946 
181.065414 0.004057 
181.987564 0.001656 
185.928421 4.381776 
185.939346 2.429809 
185.949142 1.244763 
185.97493 0.001526 
186.066483 0.026885 
186.935928 41.130703 
186.958466 0.092245 
187.935959 1.365845 
188.245407 0.018988 
188.936737 6.52064 
188.965881 0.001901 
188.974182 0.247144 
189.054886 0.494646 
189.934402 2.485231 
190.05838 0.069044 
190.44754 0.003603 
191.034515 0.004205 
191.479752 0.003886 
193.050018 0.851671 
194.05545 0.006325 
195.061874 0.014224 
195.895111 0.751216 
197.892166 0.015469 
198.067963 0.00156 
198.899017 0.01903 
198.954971 0.18723 
199.074997 0.001435 
199.115906 0.04275 
200.44519 0.051819 
201.905212 4.175985 
202.403717 0.040888 
203.034744 0.008135 
203.070526 0.001591 
203.107117 0.001891 
203.901886 0.044158 
203.92363 3.012584 
203.939011 5.340206 
203.94931 0.79677 
204.039551 0.051945 
204.888351 0.001602 
204.903687 0.001508 
204.946533 5.937086 
204.969315 0.097645 
205.047913 0.053995 
205.988068 0.00127 
206.947098 4.025364 
207.065247 0.016318 
207.945007 0.194166 
208.034103 0.040173 
209.87616 0.008637 
213.521729 0.005532 
213.886505 0.010768 
213.905136 8.402914 
214.894089 0.001367 
214.90596 0.155851 
215.106552 0.001499 
215.480804 0.001783 
215.903763 0.315463 
216.903091 0.003755 
219.445007 0.071569 
219.458786 0.197024 
219.4832 0.005678 
219.915894 3.094185 
220.903641 0.002512 
220.917038 0.041791 
222.898804 0.477207 
223.900192 0.024423 
224.900848 0.001601 
224.957886 0.001933 
225.377182 0.045158 
228.929123 1.411441 
229.175735 0.033502 
230.919189 0.135136 
231.915787 30.396128 
232.915939 1.908779 
233.153168 0.055397 
233.913345 2.796153 
234.830811 0.050642 
234.913956 0.944827 
236.121567 0.001738 
236.900284 0.001227 
237.492996 0.005856 
238.165497 0.050137 
238.914246 0.009386 
239.882767 0.015927 
240.740433 0.006727 
240.9095 0.911815 
241.911926 0.016663 
242.166824 0.016144 
242.910034 0.028861 
244.909012 0.00132 
246.939301 3.810708 
247.894577 0.062272 
248.939499 0.351999 
249.926529 2.007416 
251.927048 0.580807 
252.924774 0.034547 
253.054184 0.045127 
254.829742 0.001346 
254.881561 0.038566 
255.21196 0.020493 
256.907715 0.003222 
260.156189 0.001627 
263.152771 0.037925 
263.381805 0.038208 
263.905853 0.04918 
267.827515 0.003746 
269.820709 0.040813 
270.864166 0.045888 
274.269409 0.010385 
275.299622 0.015741 
278.193939 0.038544 
279.895996 0.001843 
281.915924 0.082177 
282.812012 0.00153 
283.822723 0.002106 
284.808014 0.093721 
284.82431 0.001624 
284.91629 0.054082 
285.505371 0.02017 
285.81604 0.216495 
285.834351 0.022281 
286.823273 0.019345 
287.725311 0.001485 
287.831665 0.212508 
287.908569 0.001345 
288.71283 0.001407 
288.746735 0.00725 
288.839447 0.003908 
290.736481 0.048535 
291.732849 0.053016 
293.477875 0.047114 
297.816803 0.011606 
299.815796 0.00831 
300.234985 0.005188 
300.823273 0.022048 
301.81073 0.08173 
302.818787 0.515024 
302.837463 0.002221 
303.823029 0.00921 
312.83905 0.00693 
315.414734 0.008128 
319.369934 0.04353 
321.911591 0.010742 
326.10791 0.009234 
326.312042 0.03258 
327.421143 0.001558 
327.513275 0.001516 
327.596436 0.008113 
333.652954 0.009465 
END IONS

