BEGIN IONS
PEPMASS=141.006
CHARGE=1+
COMPOUNDNAME=CYCLOSERINE
LIBRARYQUALITY=3
SMILES=N/A
INCHIKEY=DYDCUQKUCUHJBH-UWTATZPHSA-N
INCHI=InChI=1S/C3H6N2O2/c4-2-1-7-5-3(2)6/h2H,1,4H2,(H,5,6)/t2-/m1/s1
MSLEVEL=2
SOURCE_INSTRUMENT=N/A-ESI-QFT
FILENAME=library_mgf.mgf
SEQ=*..*
IONMODE=positive
ORGANISM=MONA
NAME=CYCLOSERINE [M+K]+
PI=MoNA
DATACOLLECTOR=MoNA:VF-NPL-QEHF027822
PUBMED=N/A
SUBMITUSER=mwang87
TAGS=
SPECTRUMID=CCMSLIB00004721403
SCANS=27822
52.045914 0.059837 
52.884941 0.111246 
53.595379 0.05432 
53.679016 0.069343 
53.876701 0.056648 
54.034184 0.116485 
54.425678 0.05592 
55.029366 0.297676 
55.054523 1.535274 
55.303799 0.060294 
56.049747 2.119609 
56.965015 2.088514 
57.044827 0.050257 
57.070164 0.07433 
57.37402 0.060274 
57.646156 0.105062 
57.935043 0.401475 
58.06535 0.701018 
58.206924 0.057566 
58.362194 0.052509 
58.433765 0.056335 
58.541908 0.049855 
58.932865 0.778871 
59.886852 0.088149 
59.930458 0.712647 
60.463032 0.050338 
60.765812 0.054568 
60.837852 0.061646 
60.957859 7.396075 
60.984573 0.086935 
61.010838 3.403186 
61.928001 0.156324 
62.018658 6.420061 
62.990086 3.535372 
63.006611 0.056684 
63.997864 3.187662 
64.014435 0.259928 
64.578796 0.064808 
64.954842 0.710066 
64.985962 0.18742 
65.551956 0.107211 
65.593567 0.058346 
65.993675 0.239615 
66.033943 0.71735 
66.334778 0.060908 
66.634834 0.065675 
66.757484 0.065056 
67.029182 1.324894 
67.993118 0.051684 
68.012978 0.052293 
68.049492 0.382931 
68.858688 0.060356 
68.991081 0.120199 
68.995247 0.05784 
69.044769 0.421457 
69.069916 0.471396 
69.182877 0.101423 
69.989548 1.310388 
70.028793 0.069331 
70.065201 0.680333 
70.665306 0.051551 
71.036598 1.103374 
71.454666 0.099666 
71.483009 1.262859 
71.675949 0.052061 
71.988121 0.083454 
72.080719 0.050502 
72.274277 0.059922 
72.567421 0.052639 
72.936211 0.06026 
73.039574 0.122469 
73.244064 0.05776 
74.020828 0.048798 
74.047188 0.056738 
74.096413 0.508565 
74.125221 0.106318 
74.927429 0.060237 
75.745407 0.059754 
75.935356 0.225427 
75.939423 0.057308 
76.286285 0.053487 
76.998283 1.584559 
77.438225 0.056968 
77.446831 0.064788 
77.950951 0.146738 
77.996216 4.283946 
78.013329 0.560359 
78.037239 0.122173 
78.101013 0.094559 
78.491859 0.488065 
78.496498 0.094228 
78.703949 0.061062 
78.968193 0.860764 
78.994705 23.340557 
79.02121 6.09696 
79.054283 0.071748 
79.489738 0.670276 
79.49427 0.135769 
79.49659 0.310752 
79.555534 0.056627 
79.984337 0.390432 
79.992615 1.802011 
80.488281 6.698214 
80.990753 0.11864 
80.99324 5.337401 
81.016991 0.849683 
81.044769 3.624902 
81.069931 0.212471 
81.486176 0.136781 
82.052521 2.516373 
82.065147 0.564911 
82.486794 0.37355 
83.060371 10.568524 
83.291718 0.053432 
84.063751 0.50195 
84.080727 0.290135 
84.537323 0.059276 
85.599174 0.053427 
86.003525 10.632933 
86.505394 0.151908 
87.001488 18.314999 
87.004784 0.150017 
87.00576 0.131652 
87.055328 0.130601 
87.496628 0.186496 
87.501633 0.510623 
88.000008 100.0 
88.166534 0.051552 
88.494972 0.316249 
88.499313 0.822231 
88.501976 3.178849 
88.949623 0.061653 
88.952232 0.062774 
88.989601 0.060719 
88.997887 10.372851 
89.001854 0.575991 
89.490814 0.064562 
89.493523 2.725462 
89.499496 0.058991 
89.932945 0.058024 
89.998528 21.65283 
90.490959 0.054874 
90.500488 0.084084 
90.530716 0.062564 
90.690964 0.101102 
90.996399 0.301016 
91.466537 0.053138 
91.491959 0.124544 
91.912514 0.069048 
92.445015 0.056432 
92.479424 0.249605 
92.571487 0.065704 
92.576073 0.058081 
92.961716 0.056409 
93.044701 5.945177 
93.069778 0.262907 
93.945923 0.524199 
94.009354 0.198291 
94.048042 0.207089 
95.008194 5.531069 
95.060318 1.831532 
95.129318 0.099811 
96.006744 6.285651 
96.068237 0.213518 
96.507187 0.241347 
97.005287 35.158543 
97.039635 2.948369 
97.063484 0.452566 
97.075912 0.238627 
97.500633 0.08456 
97.507057 1.024779 
97.560783 0.097778 
98.003189 3.856867 
98.00676 0.181698 
98.071251 0.235203 
98.096405 0.825788 
98.274094 0.093843 
99.003784 7.692516 
99.508034 0.279641 
99.584267 0.100834 
100.001656 0.077245 
100.48616 0.784854 
101.484573 7.986246 
101.48822 0.155515 
101.986305 0.053886 
102.482536 2.340089 
102.977951 0.085786 
103.435989 0.058133 
103.483162 1.844145 
104.012985 0.768651 
104.976662 0.062056 
105.198875 0.062542 
106.010712 0.697487 
107.998314 0.058731 
108.481789 0.06492 
108.9963 0.634458 
109.039658 0.991422 
109.043755 0.05714 
109.491394 5.221007 
109.697426 0.059664 
109.817398 0.05431 
109.923111 0.207054 
109.986 0.6428 
109.994133 0.116108 
110.047424 21.60733 
110.489861 31.520229 
110.991356 1.784836 
111.031662 0.109494 
111.055206 7.796153 
111.487793 7.222169 
111.956444 0.086913 
111.983902 0.131809 
112.058632 0.932492 
112.488457 7.806536 
113.486465 0.349346 
115.054451 0.053792 
116.059898 0.105216 
116.966125 0.453367 
117.002975 0.062954 
117.497658 1.30873 
118.001572 2.303917 
118.496613 0.892408 
118.999321 0.112181 
119.354401 0.060675 
119.495171 6.830876 
119.907516 0.383081 
119.995049 0.132321 
120.000381 0.302194 
120.493126 1.466761 
121.039574 6.03697 
121.493752 1.576705 
122.043007 0.953211 
122.749275 0.053505 
124.111984 0.087839 
125.058609 0.168257 
126.380127 0.062828 
126.502831 0.1023 
127.933983 0.064074 
129.880112 0.064887 
130.595474 0.05555 
130.951904 0.056769 
130.981796 0.059293 
133.013992 0.056298 
134.469894 0.056884 
135.312775 0.065306 
135.455322 0.05664 
135.779327 0.104018 
136.665421 0.054128 
137.917953 0.980873 
138.104111 0.051869 
139.050079 0.576388 
139.122681 0.185594 
139.318024 0.0563 
140.107315 0.0688 
141.82666 0.091998 
142.061554 0.189076 
142.068756 0.05425 
142.122589 6.04451 
142.188507 0.062163 
144.228668 0.053547 
144.613464 0.060736 
145.057297 0.058931 
148.913467 0.055208 
151.551056 0.055804 
155.928482 1.136708 
155.955093 0.091198 
160.646027 0.057597 
163.50177 0.058464 
164.708084 0.061286 
END IONS

