BEGIN IONS
PEPMASS=231.059
CHARGE=1+
COMPOUNDNAME=sorbicillin
LIBRARYQUALITY=3
SMILES=N/A
INCHIKEY=RKKPUBAAIGFXOG-YTXTXJHMSA-N
INCHI=InChI=1S/C14H16O3/c1-4-5-6-7-12(15)11-8-9(2)13(16)10(3)14(11)17/h4-8,16-17H,1-3H3/b5-4+,7-6+
MSLEVEL=2
SOURCE_INSTRUMENT=N/A-Linear Ion Trap
FILENAME=library_mgf.mgf
SEQ=*..*
IONMODE=negative
ORGANISM=MONA
NAME=sorbicillin M-H
PI=MoNA
DATACOLLECTOR=MoNA:VF-NPL-LTQ005957
PUBMED=N/A
SUBMITUSER=mwang87
TAGS=
SPECTRUMID=CCMSLIB00004689493
SCANS=5114
136.949997 70.27375 
176.039993 8.256713 
186.990005 100.0 
END IONS

