BEGIN IONS
PEPMASS=345.0
CHARGE=1+
COMPOUNDNAME=MoNA:2263057 Gibberellin
LIBRARYQUALITY=3
SMILES=N/A
INCHIKEY=IXORZMNAPKEEDV-UHFFFAOYSA-N
INCHI=InChI=1S/C19H22O6/c1-9-7-17-8-18(9,24)5-3-10(17)19-6-4-11(20)16(2,15(23)25-19)13(19)12(17)14(21)22/h4,6,10-13,20,24H,1,3,5,7-8H2,2H3,(H,21,22)
MSLEVEL=2
SOURCE_INSTRUMENT=LC-ESI-QQ-LC-ESI-QQ
FILENAME=output_mgf.mgf
SEQ=*..*
IONMODE=
ORGANISM=MONA
NAME=MoNA:2263057 Gibberellin [M-H]-
PI=MoNA
DATACOLLECTOR=MoNA
PUBMED=N/A
SUBMITUSER=mwang87
TAGS=
SPECTRUMID=CCMSLIB00000565724
SCANS=2976
46.0 0.10797 
58.8 0.157048 
71.0 0.745976 
83.2 2.502945 
134.1 0.157048 
135.4 0.078524 
140.6 0.10797 
143.3 21.113074 
155.1 0.157048 
157.4 0.157048 
161.2 0.785238 
173.4 0.058893 
181.9 0.049077 
183.0 0.30428 
185.5 0.245387 
195.2 0.068708 
197.0 0.490773 
201.1 0.392619 
202.8 0.029446 
211.3 0.078524 
213.2 0.73616 
215.7 0.157048 
221.3 9.462112 
224.1 0.029446 
225.1 0.402434 
227.1 1.118963 
237.5 0.402434 
239.3 100.0 
241.5 0.088339 
242.7 0.039262 
251.3 0.117786 
255.0 0.30428 
255.5 0.206125 
257.3 2.012171 
263.4 0.058893 
264.9 0.019631 
271.6 0.638005 
273.5 3.347075 
283.3 13.142913 
285.7 0.078524 
299.4 0.559482 
301.8 4.711425 
327.3 0.451512 
345.4 76.953278 
END IONS

