BEGIN IONS
PEPMASS=257.046
CHARGE=1+
COMPOUNDNAME=norlichexanthone
LIBRARYQUALITY=3
SMILES=N/A
INCHIKEY=AQZHBCDRWFMXIN-UHFFFAOYSA-N
INCHI=InChI=1S/C14H10O5/c1-6-2-7(15)4-10-12(6)14(18)13-9(17)3-8(16)5-11(13)19-10/h2-5,15-17H,1H3
MSLEVEL=2
SOURCE_INSTRUMENT=N/A-ESI-QFT
FILENAME=library_mgf.mgf
SEQ=*..*
IONMODE=negative
ORGANISM=MONA
NAME=norlichexanthone [M-H]-
PI=MoNA
DATACOLLECTOR=MoNA:VF-NPL-QEHF017949
PUBMED=N/A
SUBMITUSER=mwang87
TAGS=
SPECTRUMID=CCMSLIB00004709012
SCANS=17949
50.453506 0.054913 
51.619999 0.0589 
51.815899 0.056927 
52.722321 0.053793 
52.738998 0.044332 
53.165146 0.054195 
54.044151 0.059748 
54.689884 0.061014 
56.471519 0.044999 
56.751842 0.054673 
56.8675 0.052036 
57.138348 0.052525 
57.974216 0.03941 
58.082916 0.049333 
59.163029 0.046545 
59.787399 0.048447 
59.837078 0.043386 
60.011421 0.051073 
60.171547 0.054431 
61.870007 0.050897 
62.302181 0.057041 
62.826702 0.039842 
63.022778 0.056384 
63.405941 0.061178 
63.413113 0.050735 
63.525249 0.044195 
63.531506 0.051501 
64.045876 0.061513 
64.370262 0.055924 
64.820381 0.046966 
64.822502 0.064846 
64.929276 0.050299 
65.0019 0.771355 
65.017143 0.042491 
65.188972 0.041226 
66.25798 0.048063 
66.934937 0.058305 
67.461281 0.049684 
67.570229 0.045975 
67.730942 0.044604 
70.376305 0.055926 
71.368843 0.048313 
72.050491 0.054815 
73.965561 0.053899 
74.448479 0.043936 
74.63118 0.051901 
74.671089 0.053409 
75.292969 0.048997 
76.081703 0.041871 
76.416496 0.049894 
76.766365 0.053776 
76.851257 0.05643 
77.91732 0.049148 
78.680954 0.044152 
78.999725 0.052883 
79.408173 0.055463 
80.16156 0.046007 
80.658936 0.061029 
81.350388 0.065504 
81.96122 0.056516 
83.176041 0.050906 
87.40757 0.046743 
87.694527 0.046066 
88.611946 0.044028 
89.001938 0.178118 
91.079269 0.053758 
92.747581 0.052426 
92.778786 0.047463 
93.033325 0.760883 
93.813255 0.042527 
95.008209 0.056338 
96.454063 0.046308 
97.681427 0.045528 
100.889343 0.054052 
101.066238 0.053923 
101.292061 0.056164 
102.078094 0.052058 
102.567657 0.045325 
105.033279 5.295823 
105.781586 0.046525 
105.810303 0.047834 
105.835838 0.04367 
105.902557 0.056286 
106.368118 0.052575 
107.012581 0.528685 
107.091515 0.047162 
108.18866 0.044484 
108.36042 0.048236 
108.829453 0.049782 
113.952072 0.063397 
114.740158 0.048606 
115.054001 0.597357 
115.311829 0.055741 
115.797653 0.042666 
118.096466 0.05954 
119.05674 0.041419 
119.606384 0.056028 
120.711998 0.047513 
120.845993 0.050231 
121.982918 0.063013 
123.044044 1.335056 
123.688232 0.042186 
123.824913 0.045619 
125.876228 0.051548 
126.58754 0.0424 
127.251953 0.048698 
128.439529 0.044601 
129.069702 0.545252 
130.926453 0.052289 
131.048737 0.07704 
131.730682 0.055321 
133.704849 0.06189 
135.575058 0.055024 
136.101105 0.054273 
137.522415 0.047277 
137.529282 0.050613 
139.054169 0.058501 
139.737442 0.044108 
141.070007 0.771921 
142.0728 0.056486 
143.049118 3.62218 
144.481033 0.051902 
144.514816 0.049344 
145.064774 1.153366 
145.582474 0.052154 
146.036301 0.753017 
147.044128 4.798862 
149.023361 33.436424 
150.026779 2.513508 
151.002594 1.116875 
151.525131 0.048322 
153.25882 0.057631 
154.041428 0.532218 
154.722076 0.067996 
155.800201 0.044429 
156.057053 0.129044 
157.05777 0.084584 
157.064926 21.775047 
158.068253 2.088996 
159.044113 4.152366 
160.047913 0.061361 
161.052963 0.05981 
161.059875 6.112361 
161.363586 0.044718 
161.779572 0.052658 
162.063446 0.082598 
162.363007 0.045749 
164.941376 0.073929 
165.767914 0.057876 
167.049316 1.516832 
168.057175 0.624401 
169.06514 1.239126 
169.901382 0.061641 
170.036423 0.480277 
170.538712 0.056858 
170.88765 0.064063 
171.044266 3.732551 
172.137634 0.053772 
172.197266 0.056811 
173.023849 0.068938 
173.060013 0.828941 
174.031754 0.178798 
177.887161 0.059609 
180.225891 0.044954 
183.044312 3.970589 
183.475739 0.057345 
184.052399 0.219789 
185.060043 25.97518 
185.069199 0.208053 
185.637543 0.05957 
186.063446 2.701741 
186.516663 0.040207 
186.650864 0.056563 
187.039154 0.610446 
189.054962 15.021348 
189.95607 0.057834 
190.058426 0.831803 
190.378738 0.052767 
191.155594 0.058741 
196.052231 0.072027 
197.720535 0.053692 
198.031479 1.641267 
199.034164 0.065349 
201.055008 4.123055 
201.951401 0.056883 
202.05867 0.117885 
211.039581 2.344826 
212.047379 2.977865 
213.055176 100.0 
214.02626 0.257369 
214.058487 14.209133 
215.034515 21.694242 
216.037781 2.394996 
216.714478 0.052376 
217.712967 0.058018 
219.585007 1.075183 
227.024658 0.044826 
228.042343 0.082221 
229.050323 1.9791 
230.782013 0.045063 
231.398987 0.044482 
235.651291 0.046598 
237.924179 0.06635 
239.035049 0.589402 
239.997009 0.056519 
242.021713 2.081226 
249.204575 0.051012 
250.193726 0.048877 
256.037689 3.189021 
257.045502 63.517502 
257.123016 0.056637 
258.049011 10.585867 
259.863068 0.057599 
261.946381 0.062647 
264.578979 0.054418 
273.927216 0.049805 
END IONS

