BEGIN IONS
PEPMASS=308.0
CHARGE=1+
COMPOUNDNAME=Massbank:KO003610 Neomycin|Fradiomycin B|Streptothricin B|Neomycin B
LIBRARYQUALITY=3
SMILES=NC[C@H](O1)[C@@H](O)[C@H](O)[C@@H](N)[C@H]1O[C@H]([C@@H](CO)4)[C@@H](O)[C@@H](O4)O[C@H]([C@@H](O)3)[C@@H]([C@@H](N)C[C@@H](N)3)O[C@@H](O2)[C@H](N)[C@@H](O)[C@H](O)[C@@H](CN)2
INCHIKEY=PGBHMTALBVVCIT-VCIWKGPPSA-N
INCHI=1S/C23H46N6O13/c24-2-7-13(32)15(34)10(28)21(37-7)40-18-6(27)1-5(26)12(31)20(18)42-23-17(36)19(9(4-30)39-23)41-22-11(29)16(35)14(33)8(3-25)38-22/h5-23,30-36H,1-4,24-29H2
MSLEVEL=2
SOURCE_INSTRUMENT=ESI-LC-ESI-QQ
FILENAME=Massbank_ESI_positive_8_1_2014_peaks.mgf
SEQ=*..*
IONMODE=Positive
ORGANISM=MASSBANK
NAME=Massbank:KO003610 Neomycin|Fradiomycin B|Streptothricin B|Neomycin B [M+2H]++
PI=Putative Massbank Match
DATACOLLECTOR=Massbank
PUBMED=N/A
SUBMITUSER=mwang87
TAGS=
SPECTRUMID=CCMSLIB00000219751
SCANS=9412
42.9 44554.5 
44.0 74257.5 
55.0 123762.5 
56.2 178218.0 
56.9 89109.0 
57.5 54455.5 
58.3 49505.0 
59.2 49505.0 
60.1 371287.5 
68.0 811882.0 
69.1 331683.5 
69.9 326733.0 
71.2 123762.5 
71.9 326733.0 
73.3 435644.0 
78.1 69307.0 
80.1 2787131.5 
80.8 74257.5 
82.3 326733.0 
83.1 376238.0 
84.1 1103961.5 
85.0 336634.0 
86.2 410891.5 
91.4 14851.5 
95.1 89109.0 
96.1 1227724.0 
97.0 1163367.5 
98.1 1004951.5 
102.1 1143565.5 
105.1 89109.0 
106.6 34653.5 
107.1 143564.5 
108.2 1024753.5 
109.4 103960.5 
110.1 381188.5 
112.1 64356.5 
113.1 34653.5 
114.0 3900994.0 
115.4 94059.5 
121.4 24752.5 
123.3 39604.0 
124.1 29703.0 
125.2 891090.0 
126.3 326733.0 
126.8 19802.0 
127.9 99010.0 
129.1 19802.0 
131.9 44554.5 
133.0 54455.5 
134.2 183168.5 
137.2 34653.5 
140.0 29703.0 
142.9 133663.5 
144.2 465347.0 
145.3 396040.0 
146.3 128713.0 
160.8 74257.5 
161.3 509901.5 
162.0 44554.5 
163.4 1930695.0 
164.3 19802.0 
167.4 19802.0 
169.1 19802.0 
173.2 207921.0 
185.2 79208.0 
187.3 89109.0 
197.2 24752.5 
203.4 133663.5 
203.8 19802.0 
205.1 24752.5 
241.1 103960.5 
257.4 19802.0 
270.7 24752.5 
305.2 9901.0 
END IONS

