BEGIN IONS
PEPMASS=262.122
CHARGE=1+
COMPOUNDNAME=BIOTIN
LIBRARYQUALITY=3
SMILES=N/A
INCHIKEY=YBJHBAHKTGYVGT-ZKWXMUAHSA-N
INCHI=InChI=1S/C10H16N2O3S/c13-8(14)4-2-1-3-7-9-6(5-16-7)11-10(15)12-9/h6-7,9H,1-5H2,(H,13,14)(H2,11,12,15)/t6-,7-,9-/m0/s1
MSLEVEL=2
SOURCE_INSTRUMENT=N/A-ESI-QFT
FILENAME=library_mgf.mgf
SEQ=*..*
IONMODE=positive
ORGANISM=MONA
NAME=BIOTIN [M+NH4]+
PI=MoNA
DATACOLLECTOR=MoNA:VF-NPL-QEHF028125
PUBMED=N/A
SUBMITUSER=mwang87
TAGS=
SPECTRUMID=CCMSLIB00004721706
SCANS=28125
50.173168 1.104946 
50.407845 1.212506 
50.533253 0.789777 
51.305225 1.208104 
51.609985 1.195365 
51.831833 0.481685 
51.94022 0.557624 
53.423817 0.903786 
53.801189 0.592632 
54.209461 0.26484 
54.290283 0.455 
54.346527 1.00775 
54.666515 0.464793 
55.017925 0.499163 
55.054474 3.399272 
55.304447 0.584878 
55.505508 1.346814 
55.68832 0.696953 
55.785225 1.208807 
55.93465 1.620862 
56.034771 0.510765 
56.04969 2.719104 
56.187378 1.633718 
56.847267 1.374594 
56.965034 16.095154 
56.966442 0.363961 
57.070091 21.598036 
57.58057 0.566924 
57.701565 0.37595 
57.934998 5.643378 
58.065422 0.310004 
58.131607 1.239168 
58.288017 0.3026 
58.505882 1.306203 
58.525177 1.030939 
58.932682 0.264388 
59.000252 0.364383 
59.612572 1.469574 
59.645508 0.487876 
59.857445 0.300179 
59.930367 0.272652 
59.940693 0.5574 
59.967159 0.511954 
60.415394 0.318788 
60.445618 0.592243 
60.478687 0.308984 
60.60231 1.173488 
60.957836 15.152156 
61.010796 21.777346 
61.304703 0.168604 
61.595669 0.419621 
61.720604 1.298761 
62.01857 1.224006 
62.525501 0.316892 
62.989998 0.341409 
63.006596 1.729922 
64.954811 10.720027 
65.970123 0.860755 
66.757828 0.251613 
67.054276 5.047291 
68.893509 0.372499 
68.901352 1.573274 
69.06987 3.139979 
70.065125 0.896446 
70.947189 0.425265 
71.129471 1.315256 
71.247101 0.240717 
71.538254 0.587829 
71.543854 1.009618 
72.052055 0.420334 
72.255096 0.535875 
72.937126 2.665915 
73.425323 0.588508 
73.578224 0.231689 
74.005829 0.934147 
74.059837 0.613018 
74.139534 1.392857 
74.156479 0.650457 
74.897926 0.938867 
74.912254 0.552472 
74.930801 4.783632 
75.649887 0.642325 
75.944618 0.273455 
77.718002 0.998432 
77.77169 1.06286 
78.288322 1.44813 
78.841743 0.376752 
78.92067 1.225311 
78.961052 0.297107 
79.021156 69.970139 
79.054176 6.026353 
79.135422 0.388495 
79.434044 1.219376 
79.4701 0.643065 
79.770828 0.864131 
79.885117 0.589089 
80.589188 0.398398 
80.592697 0.268344 
81.017006 3.020086 
81.069748 4.528294 
81.983231 0.851873 
84.04425 1.443514 
84.207787 1.676867 
84.980537 1.253094 
85.039467 5.406927 
85.046654 0.498233 
85.08075 1.347171 
85.210976 0.844993 
85.418762 1.195118 
88.722046 0.487055 
89.012482 0.413029 
90.232582 1.190609 
90.2938 0.4032 
90.813324 0.452514 
90.947403 0.805288 
91.054123 2.725246 
92.016357 1.131054 
92.778999 0.295528 
93.069778 2.091617 
93.128792 1.663567 
93.6371 1.351741 
93.741272 0.974344 
94.989731 0.525905 
95.049088 0.67316 
95.085419 6.614832 
95.951424 0.734254 
96.04895 0.941585 
97.010941 1.13525 
97.039589 33.406178 
97.695801 0.427689 
98.270737 0.985801 
98.975227 4.244661 
99.006592 0.418671 
99.97966 0.622602 
100.263924 1.813507 
100.671608 0.264556 
101.622536 1.229658 
101.949539 0.561719 
102.759232 0.584929 
102.968155 100.0 
102.97995 0.729629 
103.287476 1.247371 
104.910034 1.33182 
104.972504 0.415512 
104.976875 1.296829 
105.069717 3.518984 
105.201698 1.647996 
105.558235 0.645809 
105.942543 4.089781 
106.441277 1.559229 
106.965202 91.079155 
107.08535 0.257144 
107.5868 1.166951 
108.080414 0.707874 
110.595154 0.962972 
110.874153 1.403134 
111.0261 0.568914 
114.721802 0.632484 
114.978928 0.484237 
116.985588 3.707658 
117.662643 0.43907 
118.924782 2.948543 
119.084808 0.19826 
119.795013 1.490763 
120.080826 0.74996 
120.978683 67.775642 
122.920471 0.728004 
122.982834 0.638932 
123.026161 2.441826 
123.043571 0.415504 
123.953316 0.682208 
124.936295 21.671328 
124.975754 68.855049 
125.878944 1.425527 
126.18148 0.32795 
126.933105 0.419056 
127.139473 1.366269 
130.908371 0.18851 
131.772324 0.557264 
132.958176 5.711522 
134.996109 0.874722 
136.934921 0.199328 
137.029114 0.552933 
137.041962 0.685617 
137.070389 0.183879 
137.321289 1.262655 
138.091751 0.263778 
138.989365 30.653582 
139.578659 0.833568 
139.635498 0.250259 
139.992386 0.283522 
140.33696 0.976344 
140.993362 0.204221 
141.262878 0.544582 
141.308868 1.38668 
141.963257 0.324593 
142.986267 29.78977 
143.219345 1.302984 
144.004776 1.021143 
145.848251 0.590184 
146.973999 1.804894 
147.032654 2.05004 
147.080322 0.400685 
149.048492 2.337081 
149.870544 1.057083 
150.968704 8.609913 
152.210861 0.617233 
152.951569 0.4105 
153.102036 5.454151 
154.94664 42.170685 
155.954636 0.258879 
156.271439 0.324656 
156.943558 0.214496 
156.961487 0.325821 
156.999847 3.180902 
157.027084 4.77341 
159.006409 0.921698 
159.261597 0.713308 
160.996765 2.091755 
163.086288 0.887722 
167.98291 0.636743 
171.18425 0.532882 
172.548843 1.315104 
172.957321 10.631143 
173.376801 0.447136 
177.198944 1.387988 
177.321213 0.285243 
179.232864 0.190761 
179.990799 0.346272 
180.743439 1.264558 
180.887878 24.938301 
183.993439 0.451236 
185.993622 11.503389 
190.744141 0.349358 
194.831863 0.265615 
196.113007 0.281998 
196.17659 0.200882 
196.237091 0.250318 
198.898376 1.324317 
200.4729 0.235538 
201.016571 1.889763 
203.142914 3.737646 
203.639038 1.545862 
203.654495 0.662751 
205.817123 0.281971 
206.166199 0.598126 
206.68869 0.635602 
207.207687 0.875002 
211.844162 0.294238 
214.231873 0.41989 
214.832855 1.344107 
215.085037 0.581361 
215.90094 0.247421 
219.173798 2.988483 
219.896896 12.715457 
219.903473 9.019815 
219.930527 3.178856 
221.199722 0.267015 
221.747498 1.853965 
222.472839 0.392103 
222.898422 27.924969 
223.59845 0.184429 
225.549759 0.972012 
229.894775 0.567562 
230.748444 0.496029 
231.528549 1.55627 
232.700867 0.189618 
234.539719 0.526369 
240.90892 47.117447 
241.753418 0.293406 
241.79303 1.463382 
244.711594 0.490354 
247.157867 0.418007 
247.906143 0.942141 
253.152145 1.520559 
255.895599 0.73558 
261.130524 13.485517 
271.496674 0.262739 
274.135712 0.415655 
276.552216 1.126232 
277.019562 0.570167 
278.427948 0.621816 
278.45343 0.834924 
279.93927 0.594362 
280.047119 1.166715 
END IONS

