BEGIN IONS
PEPMASS=241.0
CHARGE=1+
COMPOUNDNAME=MoNA:2455571 2,2-Dichloro-N-[(1s,2s)-1,3-Dihydroxy-1-(4-Nitrophenyl)propan-2-Yl]acetamide
LIBRARYQUALITY=3
SMILES=N/A
INCHIKEY=WIIZWVCIJKGZOK-IUCAKERBSA-N
INCHI=InChI=1S/C11H12Cl2N2O5/c12-10(13)11(18)14-8(5-16)9(17)6-1-3-7(4-2-6)15(19)20/h1-4,8-10,16-17H,5H2,(H,14,18)/t8-,9-/m0/s1
MSLEVEL=2
SOURCE_INSTRUMENT=LC-ESI-IT-LC-ESI-IT
FILENAME=output_mgf.mgf
SEQ=*..*
IONMODE=
ORGANISM=MONA
NAME=MoNA:2455571 2,2-Dichloro-N-[(1s,2s)-1,3-Dihydroxy-1-(4-Nitrophenyl)propan-2-Yl]acetamide [M+H]+
PI=MoNA
DATACOLLECTOR=MoNA
PUBMED=N/A
SUBMITUSER=mwang87
TAGS=
SPECTRUMID=CCMSLIB00000567241
SCANS=4492
128.0 1.585173 
132.0 27.264968 
170.1 52.347275 
197.9 8.230704 
206.0 100.0 
241.0 57.499085 
END IONS

