BEGIN IONS
PEPMASS=87.0446
CHARGE=1+
COMPOUNDNAME=HMDB:HMDB00549-773 Gamma-Butyrolactone
LIBRARYQUALITY=3
SMILES=O=C1CCCO1
INCHIKEY=YEJRWHAVMIAJKC-UHFFFAOYSA-N
INCHI=InChI=1S/C4H6O2/c5-4-2-1-3-6-4/h1-3H2
MSLEVEL=2
SOURCE_INSTRUMENT=Positive-Quattro_QQQ:10eV
FILENAME=hmdb_intermediate.mgf
SEQ=*..*
IONMODE=Positive
ORGANISM=HMDB
NAME=HMDB:HMDB00549-773 Gamma-Butyrolactone M+H
PI=HMDB
DATACOLLECTOR=HMDB
PUBMED=N/A
SUBMITUSER=mwang87
TAGS=
SPECTRUMID=CCMSLIB00000426626
SCANS=1598
87.1 100.0 
END IONS

