BEGIN IONS
PEPMASS=369.184
CHARGE=1+
COMPOUNDNAME=Gibberellin A4&A7
LIBRARYQUALITY=3
SMILES=N/A
INCHIKEY=SEEGHKWOBVVBTQ-UKJRIFTCSA-N
INCHI=InChI=1S/C19H22O5/c1-9-7-18-8-10(9)3-4-11(18)19-6-5-12(20)17(2,16(23)24-19)14(19)13(18)15(21)22/h5-6,10-14,20H,1,3-4,7-8H2,2H3,(H,21,22)/t10-,11-,12+,13-,14-,17+,18+,19-/m1/s1
MSLEVEL=2
SOURCE_INSTRUMENT=N/A-Linear Ion Trap
FILENAME=library_mgf.mgf
SEQ=*..*
IONMODE=positive
ORGANISM=MONA
NAME=Gibberellin A4&A7 M-H
PI=MoNA
DATACOLLECTOR=MoNA:VF-NPL-LTQ002218
PUBMED=N/A
SUBMITUSER=mwang87
TAGS=
SPECTRUMID=CCMSLIB00004686325
SCANS=1946
279.170013 1.155837 
289.160004 17.109346 
291.130005 47.782284 
323.160004 7.546574 
337.109985 25.757223 
339.149994 20.341253 
END IONS

