BEGIN IONS
PEPMASS=449.192
CHARGE=1+
COMPOUNDNAME=(5S,8S)-8-benzoyl-2-[(Z,1S,2S)-1,2-dihydroxyhex-3-enyl]-9-hydroxy-8-methoxy-3-methyl-1-oxa-7-azaspiro[4.4]non-2-ene-4,6-dione
LIBRARYQUALITY=3
SMILES=N/A
INCHIKEY=SLYDIPAXCVVRNY-BBJHAQHQSA-N
INCHI=InChI=1S/C22H25NO8/c1-4-5-11-14(24)15(25)16-12(2)17(26)21(31-16)19(28)22(30-3,23-20(21)29)18(27)13-9-7-6-8-10-13/h5-11,14-15,19,24-25,28H,4H2,1-3H3,(H,23,29)/b11-5-/t14-,15-,19?,21+,22+/m0/s1
MSLEVEL=2
SOURCE_INSTRUMENT=N/A-ESI-QFT
FILENAME=library_mgf.mgf
SEQ=*..*
IONMODE=positive
ORGANISM=MONA
NAME=(5S,8S)-8-benzoyl-2-[(Z,1S,2S)-1,2-dihydroxyhex-3-enyl]-9-hydroxy-8-methoxy-3-methyl-1-oxa-7-azaspiro[4.4]non-2-ene-4,6-dione [M+NH4]+
PI=MoNA
DATACOLLECTOR=MoNA:VF-NPL-QEHF020450
PUBMED=N/A
SUBMITUSER=mwang87
TAGS=
SPECTRUMID=CCMSLIB00004711513
SCANS=20450
50.404308 0.019589 
50.560925 0.01878 
50.687389 0.018006 
51.023338 0.036023 
51.774048 0.01482 
51.848629 0.016426 
52.255249 0.031415 
52.280624 0.029882 
52.523788 0.01339 
52.712326 0.013355 
53.038898 3.28881 
53.401825 0.015809 
53.706718 0.019663 
53.940853 0.023755 
53.998722 0.019891 
54.395195 0.016958 
54.850769 0.017699 
54.894398 0.034921 
55.018131 0.222359 
55.054504 1.606355 
55.375587 0.015921 
55.934628 0.021521 
55.982101 0.013957 
56.049774 0.073475 
56.119766 0.033729 
56.247105 0.01784 
56.422401 0.035844 
56.965065 8.220098 
57.033768 0.563172 
57.070141 3.561891 
57.18961 0.016437 
57.348812 0.033271 
57.508678 0.032252 
57.698631 0.023573 
58.029015 0.015734 
58.033993 0.020396 
58.06538 2.385209 
58.116165 0.016092 
58.157806 0.017722 
58.185619 0.033631 
58.467182 0.030276 
59.0494 0.260076 
59.060604 0.050903 
59.966564 0.021572 
60.044617 4.410716 
60.081017 0.067685 
61.010841 3.670024 
61.063511 0.014116 
61.56134 0.017058 
61.744183 0.030066 
62.018654 0.302102 
62.243404 0.031248 
62.386826 0.029915 
62.900894 0.029757 
63.304764 0.032013 
63.63905 0.021729 
63.706142 0.014872 
63.998112 0.017698 
64.012505 0.020867 
64.300323 0.024624 
64.327744 0.020182 
65.038841 0.031601 
65.061691 0.014285 
66.017395 0.024252 
66.040474 0.013995 
66.195442 0.020006 
67.015213 0.014949 
67.054337 4.23894 
67.52681 0.017468 
67.775879 0.028659 
68.049644 0.03833 
68.080261 0.019561 
68.378891 0.022096 
69.033569 0.399498 
69.069984 0.964114 
69.39576 0.035414 
70.06517 1.059593 
70.980453 0.037294 
71.049171 0.817089 
71.085533 0.10775 
71.193909 0.027134 
71.435104 0.027745 
71.463676 0.015701 
72.044487 0.055015 
72.080795 0.634115 
72.75238 0.026319 
72.93718 0.022433 
73.028641 0.018879 
73.046875 0.354186 
73.064903 0.045344 
73.17527 0.029069 
73.645737 0.021284 
73.776581 0.015935 
73.808754 0.018942 
73.904213 0.015671 
74.955284 0.01903 
74.975418 0.081067 
74.983757 0.026765 
75.043686 0.016767 
76.030945 0.016466 
77.038635 0.515008 
78.098083 0.02006 
78.662048 0.036037 
79.018791 0.030509 
79.021217 2.18426 
79.054245 1.421522 
79.19104 0.017537 
80.049637 0.07782 
81.033508 1.736153 
81.035934 0.01731 
81.069908 1.476914 
81.445633 0.036305 
82.026344 0.185051 
82.065079 0.072967 
83.010338 0.838105 
83.012772 0.157527 
83.049141 2.868236 
83.085419 0.105813 
83.56234 0.036166 
83.938553 0.017796 
84.044327 0.098349 
84.080811 0.325524 
84.252609 0.021549 
84.829582 0.035816 
84.959724 1.913606 
85.028381 0.154904 
85.064819 3.569245 
85.10099 0.019597 
85.596695 0.0254 
86.06012 0.040564 
86.09642 0.723619 
87.044067 0.893898 
88.075577 0.14364 
88.732918 0.034721 
88.798264 0.029426 
88.990929 0.036757 
89.0597 0.872509 
90.004311 0.033279 
90.947609 0.032724 
90.977058 0.016906 
91.05423 2.533417 
91.057365 1.299596 
91.359039 0.017878 
92.056999 0.051185 
92.060387 0.018112 
92.985901 0.211463 
93.054306 0.072561 
93.069916 0.980114 
93.272903 0.021453 
94.065041 0.152885 
94.277405 0.019484 
94.953674 0.017712 
95.049171 5.65636 
95.060539 0.030694 
95.085518 0.670761 
96.08078 0.932217 
96.966309 0.029095 
97.028412 0.064696 
97.064827 0.388886 
97.076035 0.021731 
97.377846 0.031091 
97.559128 0.027898 
98.033821 0.029176 
98.060036 0.134798 
98.096329 0.036928 
98.975388 1.147176 
99.044067 0.221502 
99.080414 0.137861 
99.710197 0.027789 
100.075745 0.067099 
100.200035 0.021871 
100.591194 0.017927 
100.668678 0.019345 
101.02314 0.017801 
101.059746 0.440815 
101.092468 0.016699 
101.318733 0.014278 
101.965202 0.021357 
102.054901 0.113243 
102.189018 0.017976 
102.264687 0.01762 
102.956245 0.01685 
102.970299 0.020699 
103.054314 0.413046 
103.179352 0.029741 
103.785141 0.018239 
103.954147 0.030539 
104.04937 0.098213 
105.033539 100.0 
105.044441 2.223065 
105.069923 0.884699 
105.073364 0.015772 
106.036911 2.654505 
106.040695 0.035261 
106.065163 3.494928 
106.680054 0.034775 
107.049194 0.266575 
107.085526 0.575708 
107.942963 0.01808 
108.080757 0.072796 
108.993004 0.035077 
109.028526 0.160827 
109.064774 1.30164 
109.101242 0.28102 
110.060112 0.248152 
110.071281 0.019012 
110.301193 0.019177 
110.616699 0.017636 
110.737831 0.018577 
111.041351 1.670673 
111.044304 3.04567 
111.080345 0.071996 
111.166969 0.019354 
112.049507 0.13387 
112.075607 0.093097 
112.111931 0.052454 
113.02375 0.017649 
113.059784 0.11492 
113.647705 0.019919 
113.736786 0.015728 
114.055351 0.022469 
114.374367 0.017829 
115.054382 0.042091 
116.034454 0.040048 
116.049446 0.11744 
116.070427 0.056947 
116.107025 0.035045 
116.529236 0.025048 
116.985794 0.868799 
117.032967 0.019214 
117.056786 0.031307 
117.069855 0.166957 
117.262039 0.028925 
117.57534 0.020064 
118.041313 0.03654 
118.065102 0.694883 
119.049217 1.281272 
119.085571 0.420658 
119.255226 0.029595 
119.960419 0.037473 
120.080795 0.257836 
121.028366 0.075649 
121.064857 3.174727 
121.076393 0.017045 
121.101273 0.175526 
122.060349 0.061362 
122.104225 0.01575 
122.940414 0.043169 
123.044044 0.284614 
123.05526 0.019898 
123.080353 0.37831 
123.091637 0.106449 
124.03952 0.035161 
124.075615 0.174642 
124.990974 0.342172 
125.023552 0.066789 
125.031151 0.038635 
125.059822 0.056964 
125.070778 0.048116 
125.096352 0.097251 
126.052582 0.057402 
126.091347 0.3326 
126.938896 0.026692 
127.036507 2.700419 
127.339165 0.028227 
128.039871 0.018883 
128.070648 0.08005 
128.292587 0.039267 
128.833847 0.037393 
128.985214 0.036706 
129.070923 0.517292 
130.065063 0.22905 
130.518417 0.021432 
130.525665 0.027861 
131.08551 0.246482 
132.044357 2.031563 
132.080734 0.044861 
132.21138 0.021345 
133.018097 0.020262 
133.028381 0.171833 
133.052261 0.639668 
133.064789 0.398018 
133.085037 0.023688 
133.101135 0.148362 
133.177155 0.032028 
134.059982 5.331179 
134.096252 0.141968 
134.528259 0.031885 
134.978775 0.441372 
134.996338 0.393486 
135.043991 0.948213 
135.080368 0.306327 
135.091537 0.019685 
135.116669 0.033775 
135.191559 0.025365 
136.075699 0.281252 
136.112091 0.313969 
137.011826 1.228786 
137.023239 0.122607 
137.059753 0.374744 
137.095825 0.127238 
137.129562 0.020994 
138.054947 0.071252 
138.09108 0.052117 
138.127762 0.45914 
139.033051 0.016882 
139.038956 6.325314 
140.070496 0.135977 
140.144257 0.022075 
141.053635 0.039488 
142.060013 0.111511 
142.291656 0.016552 
142.96579 0.020663 
143.001541 1.550967 
143.08551 0.117476 
143.180771 0.031544 
144.04451 0.056315 
144.079758 0.017088 
144.101593 0.018608 
144.97937 0.014915 
145.028702 0.043976 
145.034607 0.638567 
145.052383 0.09134 
145.07576 0.014999 
145.101242 0.114535 
146.059998 1.598986 
146.095825 0.017596 
147.080307 0.112827 
147.09166 0.023098 
147.116623 0.018969 
147.722748 0.019302 
148.039246 0.01699 
148.075638 0.74259 
148.971817 0.535258 
148.990814 0.053051 
149.059845 0.421255 
149.070801 0.019043 
149.096313 0.064978 
149.106888 0.0155 
150.055099 0.128858 
150.091431 0.194574 
150.668808 0.021814 
150.950958 0.134276 
151.039032 0.430654 
151.075195 0.120404 
151.970078 0.666797 
151.976318 0.024587 
152.070511 0.044142 
152.10701 0.990336 
152.951538 0.653314 
152.967163 0.020176 
152.98938 0.190861 
153.01825 1.134408 
153.054733 0.018916 
153.776062 0.034072 
153.959259 2.435386 
153.992218 1.075021 
154.122635 0.071682 
154.527435 0.022221 
154.990082 0.018759 
155.000687 0.018461 
155.022369 0.345273 
155.033722 18.081289 
155.06778 0.186429 
156.04216 0.026552 
156.075653 0.708389 
156.52478 0.015023 
157.017181 0.217457 
157.025955 0.916898 
157.04953 7.136716 
157.101105 0.074442 
158.061005 0.01645 
158.995041 0.02424 
159.08017 0.021065 
159.091339 0.045039 
159.116623 0.050913 
160.039276 0.494075 
160.075531 0.036615 
160.122635 0.020732 
160.375275 0.020918 
161.012146 1.580883 
161.046967 0.028348 
161.095779 0.081655 
162.038834 0.019909 
162.054947 1.682276 
162.091232 0.154425 
162.127533 0.047744 
162.959534 2.825846 
163.007172 0.043693 
163.075211 0.25098 
163.094879 0.017221 
163.111481 0.023802 
163.122223 0.020718 
163.560196 0.01779 
163.957199 0.085915 
164.070618 2.459274 
164.107132 0.153191 
165.054688 0.719604 
165.090927 0.051318 
165.102539 0.064702 
166.050781 0.119096 
166.086533 0.096132 
166.122772 0.034793 
167.00145 1.188658 
167.055313 0.074425 
168.065506 0.190901 
169.017197 0.036516 
169.034973 0.022241 
169.05101 0.040255 
169.076141 0.023241 
169.977295 0.020527 
170.04451 0.069717 
170.096298 0.042261 
170.962021 0.113209 
170.996277 0.095537 
171.032578 0.036039 
171.044632 0.054097 
171.062744 1.616201 
171.080002 0.03702 
171.992203 0.05334 
172.07576 0.018217 
172.111969 0.081104 
172.525574 0.073979 
172.683914 0.016111 
173.011765 0.066182 
173.058716 0.018711 
174.007584 0.022041 
174.020126 0.025668 
174.055008 0.167813 
174.091278 0.055464 
174.541214 0.040398 
174.990845 0.030113 
175.006363 0.13694 
175.028183 0.079232 
175.038696 0.103611 
175.086685 0.195448 
176.035065 0.382869 
176.070602 0.495024 
176.106705 0.078587 
177.006195 0.032931 
177.042175 0.838849 
177.05426 0.100845 
177.077866 0.026405 
178.050781 0.030325 
178.086304 0.879113 
179.001587 0.26178 
179.023178 0.019173 
179.033539 0.014888 
179.07045 0.017031 
179.533585 0.200261 
179.954147 0.021528 
179.995361 3.340201 
180.017136 0.049128 
180.065292 0.019314 
180.086533 0.021493 
180.101807 0.500038 
180.961594 0.024684 
180.993027 0.082458 
180.99942 0.015663 
181.017212 0.6563 
181.028091 0.059476 
181.484329 0.022637 
181.530975 0.169359 
182.011795 0.052937 
182.023727 0.0486 
182.117477 1.063453 
182.539032 0.030304 
182.977341 0.224779 
182.996445 0.310575 
183.020416 0.018801 
183.031311 0.042154 
183.04422 0.031276 
183.05545 0.094718 
183.064194 0.018348 
183.120728 0.020853 
183.536545 0.027048 
183.959717 0.022869 
184.004715 0.023042 
184.037003 0.226352 
184.062836 0.594687 
184.075424 0.023323 
184.133163 0.351928 
184.525589 0.191846 
185.012054 2.954726 
185.070953 0.600357 
185.949051 0.441448 
185.971054 0.023432 
186.054321 0.019701 
186.086044 0.289821 
186.523407 0.259846 
186.947006 0.020838 
187.027573 0.221471 
187.074799 0.056566 
187.086655 0.101496 
188.065369 0.237481 
188.538025 0.083811 
189.006683 0.33601 
189.043243 0.083153 
189.069122 0.030581 
189.101761 0.023403 
190.03273 0.038402 
190.049744 0.108672 
190.086426 0.019462 
191.00119 0.12737 
191.070099 0.136476 
191.996429 0.024049 
192.033936 0.049468 
192.049545 0.093833 
192.065475 0.455477 
192.101746 0.050109 
192.541214 0.041544 
192.961655 1.188441 
192.993271 0.329165 
193.017151 3.169376 
193.034088 0.029089 
193.086121 0.794444 
193.53093 2.931144 
194.045059 0.083985 
194.081131 6.100633 
194.117813 0.017896 
194.949188 0.063573 
194.962112 0.03273 
194.997116 0.480059 
195.031723 0.022534 
195.050003 0.043491 
195.101517 0.049142 
195.528503 0.181287 
195.747787 0.040997 
195.947235 0.037569 
195.959946 0.721101 
196.005737 0.040144 
196.028275 0.239061 
196.060303 0.030508 
196.075256 0.025578 
196.096649 0.052928 
197.011948 2.870845 
197.028885 0.020371 
197.041733 0.019541 
197.059311 0.041307 
197.128067 0.018881 
197.740891 0.018598 
197.963989 0.558888 
197.972672 0.231728 
198.006165 0.236616 
198.016617 0.039764 
198.091385 0.068505 
199.027817 1.274973 
199.075974 0.126492 
199.085526 1.933548 
199.095413 1.08921 
200.002151 0.084445 
200.071686 0.028617 
200.089417 0.019193 
201.007095 1.14386 
201.055115 0.020244 
201.102036 0.056883 
201.725266 0.018521 
202.016129 0.175266 
202.040573 0.02301 
202.049561 0.023577 
202.086075 0.058047 
202.536179 2.110865 
203.02269 0.792075 
203.070908 0.058995 
203.081421 0.046021 
203.117477 0.041392 
203.983749 0.021328 
204.008011 0.113115 
204.017288 0.038796 
204.051041 0.030899 
204.065201 0.137121 
204.101578 0.01792 
204.534164 0.02266 
205.01619 0.065059 
205.038528 0.092141 
205.531296 0.028385 
206.012604 0.077534 
206.081573 0.045796 
206.976883 0.107765 
207.054062 0.066565 
207.103745 0.036233 
207.990387 0.228972 
208.027939 0.096229 
208.060791 0.206178 
208.096619 0.017942 
209.012207 0.659169 
209.925827 0.026811 
210.006226 2.523815 
210.04393 0.098598 
210.202438 0.017751 
210.972198 0.656201 
210.991516 0.371929 
211.003571 0.267957 
211.027802 7.424643 
211.039078 0.034572 
211.541504 0.136783 
212.022446 0.065559 
212.03418 0.0197 
212.057709 0.020834 
212.070923 0.090756 
212.531342 0.032986 
212.972488 0.122851 
212.988007 0.047818 
213.00705 5.067627 
213.024139 0.024443 
213.042938 0.028568 
213.053955 0.022436 
213.102325 0.069273 
213.344727 1.75733 
213.970398 1.205664 
213.986343 0.155766 
214.014984 0.365699 
214.049637 0.017413 
214.536163 0.104832 
215.022705 1.714386 
215.04039 0.699032 
215.057617 0.02158 
215.070206 0.026065 
215.089325 1.362193 
215.290482 0.019198 
215.982681 0.740196 
216.041885 0.026145 
216.063171 1.351172 
216.137802 0.043135 
217.038208 0.306134 
217.067566 0.019874 
217.086105 0.06263 
217.096252 0.02051 
217.158173 0.10551 
218.012589 1.751316 
218.164459 0.052442 
218.601562 0.032796 
218.671097 0.020139 
218.984741 0.104621 
219.032425 0.036603 
219.065811 0.193651 
219.149231 0.019963 
219.17366 0.018451 
219.991684 0.078227 
220.028168 2.309138 
220.060562 0.688282 
220.097015 0.099656 
220.616516 0.022008 
220.988327 0.523403 
221.032242 0.031584 
221.080795 0.476157 
222.007507 0.247649 
222.978317 0.023202 
223.014542 0.019614 
223.027252 0.345837 
223.064362 0.069478 
223.985321 0.90523 
224.023193 1.171085 
224.983307 1.181135 
225.007126 0.343602 
225.043335 0.283586 
225.083923 0.023042 
226.002213 0.737122 
226.039795 0.021818 
226.086319 0.650668 
227.022629 0.291428 
227.070435 1.452613 
227.091141 0.020578 
228.017181 2.077557 
228.101486 0.055167 
229.001923 2.178174 
229.027084 0.045497 
229.038513 1.077442 
229.061111 0.120185 
229.074799 0.109243 
229.096527 0.077436 
230.03302 0.041311 
230.117752 0.030618 
230.99823 1.172093 
231.017685 12.094306 
231.088058 0.033238 
231.101654 0.018881 
231.137909 0.023952 
231.994934 0.078701 
232.028259 0.760394 
233.048737 0.172334 
234.044434 0.046424 
234.075836 0.05397 
234.894958 0.081169 
235.061081 0.047773 
235.560745 0.041914 
235.892456 1.056535 
236.001373 0.022914 
236.02301 5.416469 
236.1492 0.961414 
237.007401 0.042364 
237.043167 0.268437 
237.691498 0.019066 
237.887329 1.358794 
238.001831 0.358853 
238.038712 1.40864 
239.022858 0.146342 
239.058578 0.03756 
240.018066 0.434896 
240.704224 0.023682 
240.909317 0.097475 
241.03743 0.05186 
241.073654 0.030283 
241.541367 0.029142 
242.033066 0.277434 
242.081177 0.171149 
243.017685 0.771577 
243.031937 0.056557 
243.087006 0.176899 
243.121262 0.231833 
244.01297 1.316476 
244.026367 0.058387 
244.09549 0.078451 
244.998154 0.024987 
245.033539 0.250809 
245.049988 0.710768 
245.067169 0.026478 
245.080963 0.823439 
245.907959 0.137567 
245.993423 0.022461 
246.007599 0.102268 
246.028564 0.651952 
246.90596 0.357474 
246.999008 0.040746 
247.012772 2.173462 
247.02626 0.10923 
247.04747 0.022649 
247.060516 0.224938 
247.122299 0.039693 
247.905594 0.01982 
247.973083 0.080429 
248.023239 0.128938 
248.036163 0.033279 
248.694107 0.023787 
248.977509 0.024536 
249.028259 1.865557 
249.041977 0.159665 
250.003006 0.097084 
250.038528 6.106518 
250.932846 0.034157 
251.058884 0.062689 
251.11763 0.81042 
251.978882 0.029363 
252.017853 0.230674 
252.122559 0.021522 
252.905182 0.780558 
253.037506 0.069375 
253.902878 2.501167 
253.997101 0.038979 
254.033646 1.363183 
254.067307 0.106923 
254.081024 1.098506 
254.900131 0.032331 
255.053284 0.810047 
255.897629 3.335188 
256.012695 0.745143 
256.081818 0.627071 
256.0961 0.023655 
256.898315 0.222558 
257.032806 0.2851 
257.048248 0.14505 
257.065918 0.136283 
257.895172 0.132275 
258.027618 0.082649 
259.013153 0.143277 
259.030579 0.024073 
259.081757 0.029227 
259.115234 0.29487 
260.02063 0.77169 
261.028412 0.824595 
261.043518 0.537144 
261.195984 0.106797 
261.887177 0.077845 
262.018646 0.044834 
262.038635 0.117092 
263.058807 0.023538 
263.077087 0.016979 
264.017883 2.275969 
264.053406 0.07912 
264.907898 0.018174 
265.023254 0.097255 
265.038269 0.069488 
265.072266 0.043008 
265.134003 0.020302 
266.033722 0.145881 
266.07019 0.038391 
266.118134 0.018921 
267.053192 0.089808 
267.112823 0.021016 
268.012726 1.663236 
268.048889 1.999813 
268.942963 0.048816 
269.069031 0.16365 
269.907806 1.050436 
270.028778 0.308893 
270.044037 0.07319 
270.075928 0.11693 
270.905792 0.320644 
271.028046 0.614814 
271.081512 0.103349 
271.988281 0.088025 
272.007568 0.414553 
272.043457 0.063114 
272.076691 0.256155 
272.091919 1.229776 
273.043854 0.572578 
273.060883 1.352053 
273.077057 0.034059 
273.329285 0.029129 
274.03833 0.059436 
274.062408 0.035049 
275.043152 1.620535 
275.058655 0.360729 
275.074707 0.021621 
276.01889 0.034108 
276.0448 0.073482 
277.039246 0.309236 
277.902405 0.515656 
278.03363 0.393152 
278.424011 0.037421 
278.90213 0.054695 
279.053589 0.359603 
279.897675 3.126772 
280.048767 0.022044 
280.898285 0.31825 
281.895325 0.162805 
282.028259 1.302988 
282.044006 0.181008 
282.988434 0.034381 
283.02771 0.022179 
283.04834 0.050034 
284.044586 0.044441 
284.079285 0.3294 
284.594849 0.021273 
284.895294 0.051598 
285.043396 0.350503 
285.06076 0.033908 
286.023438 1.048111 
286.091736 0.316971 
287.078674 0.065898 
287.918457 1.954454 
287.99231 4.003426 
288.017883 0.022432 
288.038391 0.13438 
288.05484 0.112061 
288.916046 2.67135 
289.0383 3.125266 
289.055084 0.335862 
290.032776 0.306584 
290.063232 0.994115 
291.054077 0.341018 
291.070984 12.311068 
291.11142 0.025172 
292.05014 0.110271 
292.073608 2.93686 
293.03302 0.140698 
293.068909 1.415166 
293.128265 0.430647 
294.028351 0.159593 
294.064789 0.847266 
294.13385 0.023773 
294.90741 0.076506 
295.047974 0.113801 
295.175598 0.040427 
295.194122 8.216836 
295.912476 0.064823 
296.043549 0.076526 
296.080811 0.022425 
297.064484 0.544309 
297.908173 0.765214 
298.038757 0.278793 
298.071503 0.01867 
299.088745 0.388528 
299.905762 0.056715 
300.037964 0.123628 
300.054871 0.523622 
300.071716 0.06968 
300.090363 0.021169 
301.038452 1.224266 
301.056946 0.028311 
301.073456 0.032753 
301.096527 0.020457 
302.905823 0.120425 
303.053802 0.558069 
303.071472 0.119329 
303.141418 0.676272 
304.012787 0.455103 
304.0495 0.135656 
305.011414 0.024902 
305.033905 0.492803 
305.055023 0.145632 
305.087219 0.07817 
306.002777 0.102346 
306.028259 0.101717 
307.048828 6.535845 
307.104523 0.020213 
307.142761 0.028649 
308.008148 0.044447 
308.045624 0.033059 
309.081848 1.727466 
309.917572 0.089636 
309.945343 0.023339 
310.038239 0.302461 
310.083649 0.176466 
310.922363 0.034849 
310.941895 0.550303 
311.04361 0.027464 
311.078278 0.02495 
311.918243 1.756127 
312.074249 0.653886 
312.147827 0.736313 
312.916351 1.706054 
313.076355 0.02203 
313.204712 43.597248 
314.033264 0.0491 
316.049316 0.440022 
316.984894 0.021565 
317.033966 0.057168 
318.04187 0.114635 
318.065369 0.0851 
319.048767 0.815338 
319.982452 0.431806 
321.063995 0.20525 
321.124451 0.023276 
322.023376 0.662501 
323.043701 0.027295 
325.059387 1.028641 
326.01593 0.023671 
326.034393 0.731216 
327.220306 0.662457 
328.049194 1.49895 
328.952606 0.595629 
329.033417 0.248179 
329.929047 0.790757 
330.065948 0.0526 
330.098999 0.017736 
330.926849 3.320914 
331.047607 0.059007 
331.215515 17.7064 
332.057068 0.452078 
333.063934 1.398073 
333.159637 0.351545 
334.063812 0.032309 
334.133759 0.621009 
334.159851 0.0201 
335.042267 0.089496 
335.062378 0.019791 
335.138641 0.653709 
336.051453 3.324083 
337.053406 0.684569 
337.089417 0.332982 
337.16214 2.879363 
337.268585 0.026258 
338.050568 0.770539 
338.165192 0.285682 
341.237579 0.02515 
341.475922 0.021918 
342.028992 0.051941 
342.064789 0.053004 
344.044128 1.592867 
345.231171 0.146399 
346.059845 0.338427 
347.043488 0.363534 
347.167145 0.536794 
349.059357 0.23379 
349.183685 0.114237 
349.22757 0.028172 
350.067047 3.853339 
351.074524 7.398887 
352.077148 1.673008 
353.072174 0.995282 
353.842499 0.023585 
354.028625 1.068695 
356.042877 0.136993 
356.062317 0.801515 
357.06366 0.030769 
358.060272 0.101271 
358.84433 0.079824 
360.83905 0.322941 
361.183502 0.018152 
362.055237 0.35943 
363.014038 0.02784 
363.707489 0.035075 
365.052612 0.027723 
367.032532 0.084588 
367.087646 0.047615 
368.044281 0.074627 
370.000122 0.060964 
372.039185 2.416742 
372.06311 0.03749 
372.999176 1.737917 
374.05368 0.107318 
377.19397 0.287258 
380.710968 0.022384 
386.054688 0.811127 
386.127228 0.04097 
389.149933 0.04612 
389.214203 0.28935 
390.050049 0.865106 
390.219574 0.070764 
391.009613 0.051062 
391.148163 0.034774 
391.191681 0.030588 
393.209686 0.168588 
404.065918 0.704705 
405.13858 0.021891 
405.170837 0.233046 
406.843658 0.039594 
408.126373 0.096426 
429.208252 0.028176 
447.220398 0.069009 
447.261993 0.330061 
447.293671 0.364242 
447.347504 0.047429 
448.225311 0.044882 
448.266052 0.186247 
448.298096 0.111266 
449.207672 0.119378 
449.28717 33.226112 
450.203217 0.046056 
450.290863 8.927196 
450.325165 0.029482 
451.214996 1.99351 
451.251221 1.269585 
451.292267 0.596648 
452.337921 0.034232 
470.064117 0.019201 
479.505371 0.019559 
END IONS

