BEGIN IONS
PEPMASS=1422.76
CHARGE=1+
COMPOUNDNAME=BACITRACIN
LIBRARYQUALITY=3
SMILES=N/A
INCHIKEY=CLKOFPXJLQSYAH-NVOBBBONSA-N
INCHI=InChI=1S/C66H103N17O16S/c1-9-35(6)52(69)66-81-48(32-100-66)63(97)76-43(26-34(4)5)59(93)74-42(22-23-50(85)86)58(92)83-53(36(7)10-2)64(98)75-40-20-15-16-25-71-55(89)46(29-49(68)84)78-62(96)47(30-51(87)88)79-61(95)45(28-39-31-70-33-72-39)77-60(94)44(27-38-18-13-12-14-19-38)80-65(99)54(37(8)11-3)82-57(91)41(21-17-24-67)73-56(40)90/h12-14,18-19,31,33-37,40-48,52-54H,9-11,15-17,20-30,32,67,69H2,1-8H3,(H2,68,84)(H,70,72)(H,71,89)(H,73,90)(H,74,93)(H,75,98)(H,76,97)(H,77,94)(H,78,96)(H,79,95)(H,80,99)(H,82,91)(H,83,92)(H,85,86)(H,87,88)/t35?,36?,37?,40-,41+,42+,43-,44+,45-,46-,47+,48?,52?,53-,54-/m0/s1
MSLEVEL=2
SOURCE_INSTRUMENT=N/A-ESI-QFT
FILENAME=library_mgf.mgf
SEQ=*..*
IONMODE=positive
ORGANISM=MONA
NAME=BACITRACIN [M+H]+
PI=MoNA
DATACOLLECTOR=MoNA:VF-NPL-QEHF027768
PUBMED=N/A
SUBMITUSER=mwang87
TAGS=
SPECTRUMID=CCMSLIB00004721349
SCANS=27768
98.005966 0.19524 
98.023651 0.524048 
98.060051 0.591539 
98.096436 0.167839 
99.055374 0.011419 
102.054955 3.011466 
103.054245 2.064978 
103.058006 0.023875 
104.057739 0.009977 
105.069908 0.611097 
106.06514 0.083905 
107.060371 0.594145 
108.044327 0.0709 
108.055634 0.670281 
108.08075 0.671777 
109.039711 0.089286 
109.063469 0.714682 
109.076035 0.842264 
109.088531 0.007527 
110.023834 0.182314 
110.062141 0.14555 
110.064468 0.058514 
110.071198 100.0 
110.0961 0.351012 
111.055298 0.879957 
111.06826 1.374654 
111.074524 7.079238 
111.091568 2.266415 
111.9851 1.379395 
112.021469 0.266872 
112.0504 0.010768 
112.071922 0.009065 
112.075546 1.014022 
112.087021 0.088387 
112.094841 0.050432 
113.070885 0.201353 
113.107292 0.129033 
114.05513 0.007094 
114.06636 0.017829 
114.091393 0.063209 
115.032539 0.032662 
115.054176 1.029892 
115.086571 4.429879 
115.219048 0.011197 
116.016487 0.795304 
116.089851 0.247913 
117.057297 0.043133 
117.069824 0.105213 
118.065086 0.450926 
119.060371 0.237037 
120.055618 2.062727 
120.080765 11.36786 
121.039635 1.927645 
121.058937 0.062774 
121.063484 0.037981 
121.076172 0.426053 
121.084045 1.233873 
121.088387 0.112718 
122.042992 0.039254 
122.060028 0.137353 
122.071236 1.463328 
122.083778 0.073798 
122.096489 0.091929 
123.055229 1.426976 
123.074387 0.008879 
123.091652 0.324256 
124.03933 0.292262 
124.050568 0.083283 
124.058815 0.013571 
124.075996 0.063701 
124.086952 0.422909 
124.112068 0.08825 
125.034645 0.136257 
125.070946 0.491289 
125.107315 0.564665 
126.066231 0.010879 
126.091263 1.978715 
127.050194 0.248876 
127.086601 0.193546 
128.052872 0.11237 
129.011612 0.768934 
129.06572 0.359054 
129.070343 0.007246 
129.102112 3.237827 
129.995651 2.505643 
130.049789 0.049235 
130.059738 0.017147 
130.064972 1.386027 
130.086182 0.031722 
130.105499 0.191168 
130.998917 0.043025 
131.014801 0.009405 
131.027283 1.498753 
131.049133 0.090249 
131.060318 0.008501 
131.068558 0.031178 
131.991684 0.038304 
132.080719 0.611872 
133.0634 1.408242 
133.076004 0.123306 
134.060059 0.012877 
134.066132 0.037112 
134.071304 0.393912 
134.096512 0.013128 
134.398499 0.016835 
135.055222 0.118847 
135.091553 2.005496 
136.050522 0.704666 
136.075684 2.563094 
136.086868 5.418557 
136.09343 0.058516 
136.095032 0.069632 
136.099442 0.033371 
136.11203 0.135937 
137.058517 0.006137 
137.070984 0.701996 
137.078293 0.033974 
137.082733 0.077486 
137.090256 0.536771 
137.107269 1.273261 
137.628769 0.013362 
138.05513 0.073186 
138.066147 1.798315 
138.091309 0.457614 
138.102432 0.061234 
138.127686 0.735602 
139.050171 0.125552 
139.086517 6.118695 
139.12294 0.006477 
140.034286 0.079888 
140.052795 0.012535 
140.082581 0.042831 
140.089996 0.553631 
140.106949 0.114077 
141.011658 1.317872 
141.102219 0.703737 
142.060898 0.017435 
142.097458 0.009906 
143.007233 0.013533 
143.027298 1.258516 
143.045059 0.788874 
144.080704 0.154246 
145.006485 0.012951 
145.076035 0.0405 
146.059952 0.057202 
146.071274 0.306688 
146.096405 0.109939 
146.768143 0.020568 
147.055161 0.084261 
147.091568 0.174717 
148.050522 0.771214 
148.075134 0.014651 
148.086777 0.306544 
148.112747 0.011504 
149.034683 0.054448 
149.070877 0.234595 
149.08226 0.021184 
149.107147 0.239253 
150.018494 0.069896 
150.055328 0.018312 
150.066376 0.054955 
150.090317 0.00937 
150.102386 0.016669 
150.127914 0.023123 
151.050323 0.031434 
151.086533 0.298903 
151.122894 0.012555 
152.052902 0.031494 
152.081879 0.104643 
152.106995 0.197539 
152.118362 0.017183 
152.143341 0.141854 
152.455826 0.009507 
153.102158 2.476818 
153.138885 0.053328 
154.06839 2.480502 
154.105255 0.015396 
154.158981 0.114096 
155.027161 0.171696 
155.072098 0.012519 
155.092728 0.2077 
155.117813 0.315967 
156.080688 0.024075 
156.113159 0.726804 
157.097168 0.016413 
158.06369 0.016875 
159.09166 0.459801 
160.087128 0.063156 
160.095169 0.007929 
161.070816 0.013384 
161.082138 0.159434 
161.107147 0.105711 
162.066025 0.718587 
162.102417 2.277473 
162.109695 0.017738 
163.049774 0.014829 
163.086441 4.066877 
163.098206 0.132324 
163.105591 0.160291 
163.122955 0.517706 
164.04541 0.159721 
164.070435 1.758716 
164.082352 1.318926 
164.089493 0.441335 
164.118271 0.08062 
165.077194 1.343223 
165.084503 0.08517 
165.102219 0.781012 
165.138519 0.733141 
165.605347 0.015109 
166.06102 2.300264 
166.068115 0.009597 
166.08017 0.027791 
166.086533 0.00674 
166.097519 0.132597 
166.105728 0.012899 
166.122559 0.10307 
166.134064 0.006049 
167.035782 0.016458 
167.044952 0.468865 
167.064468 0.185355 
167.081558 0.293788 
167.117874 0.064545 
167.153976 0.021288 
168.080872 0.093737 
169.060226 0.006046 
169.13382 0.007819 
170.063324 0.074161 
170.096588 0.011047 
170.117462 0.194891 
171.093842 0.108951 
172.050491 0.016754 
172.071594 0.05895 
172.079025 1.927988 
172.086945 0.032433 
172.111923 0.038285 
173.082184 0.050096 
174.066147 0.112402 
174.102478 0.051628 
175.086563 0.382064 
175.123154 0.007519 
175.77562 0.005747 
176.069122 0.053907 
176.08194 0.091933 
176.118118 1.065045 
176.81282 0.009606 
177.102173 0.016839 
177.121399 0.015214 
177.13855 0.091719 
178.097305 0.019552 
178.133865 0.773799 
179.082458 0.037659 
179.092773 0.527547 
179.117737 0.283134 
179.154297 0.063921 
180.076599 0.221258 
180.112991 0.711636 
180.149323 0.164298 
181.097214 1.843898 
181.108292 2.52994 
181.133362 0.308171 
182.063538 0.068142 
182.092239 0.006679 
182.100677 0.065632 
182.111572 0.160029 
182.129456 0.010957 
182.154587 0.05256 
182.165146 0.686129 
183.059128 0.033034 
183.091721 0.154713 
183.149216 0.732348 
183.168427 0.035216 
184.042496 0.060308 
184.072235 0.008216 
185.055527 0.857378 
185.074448 0.27605 
185.107208 0.134003 
186.05864 0.15647 
186.091492 0.010713 
186.12767 0.136663 
187.087143 0.265574 
188.11821 0.083753 
188.14328 0.221226 
188.633224 0.012265 
189.077087 0.915235 
189.085434 0.016033 
189.102631 0.059857 
189.113312 0.123354 
190.061035 1.670116 
190.080154 0.018757 
190.097565 0.260332 
190.133926 0.312842 
191.064468 0.103848 
191.081528 0.514413 
191.092636 1.080606 
191.117905 0.787778 
191.126572 0.005272 
192.076385 0.031266 
192.087326 0.011256 
192.095901 0.012129 
192.11293 0.095866 
192.121567 0.011892 
192.149384 0.260462 
193.071991 0.336887 
193.09671 0.010725 
193.133545 1.270218 
194.092239 0.241759 
194.137039 0.082942 
195.039978 0.123614 
195.058395 0.049907 
195.076401 0.01167 
195.091629 0.688136 
195.112625 0.024438 
196.042999 0.067362 
196.086441 0.02719 
196.095901 0.025062 
196.109055 0.00587 
196.144424 0.011566 
197.074158 1.046545 
197.107346 0.086348 
197.128403 0.161343 
198.058228 5.167629 
198.075867 0.019668 
198.123779 0.26094 
199.061615 0.599417 
199.08989 8.04069 
200.037567 0.336837 
200.053894 0.092761 
200.072983 0.051827 
200.093124 0.519793 
202.082611 0.01568 
202.097046 0.006525 
202.353088 0.008421 
203.118637 0.00644 
203.129166 0.414971 
204.076508 0.010364 
204.087936 0.045549 
204.112869 0.013308 
206.103333 0.128144 
206.128342 0.050522 
206.16507 0.1044 
206.479553 0.007764 
207.08754 1.057588 
207.112747 0.151742 
207.123703 0.147171 
207.148865 0.059606 
208.071594 0.15977 
208.090683 0.016157 
208.108047 0.700866 
208.144302 0.379067 
209.0746 0.133674 
209.092239 0.304904 
209.112503 0.009951 
209.128403 0.184986 
210.10347 0.010023 
210.160049 1.323448 
211.109116 0.007707 
211.1633 0.033243 
211.963165 0.011944 
212.037109 0.010439 
212.118073 5.524533 
213.051254 0.029571 
213.069138 3.23186 
213.102448 0.01056 
213.12175 1.148983 
214.053131 36.489792 
214.072083 0.071639 
215.056564 7.534931 
215.083694 0.035804 
215.139069 0.178739 
215.154495 0.010451 
216.048843 3.95377 
216.0578 0.412688 
216.068222 1.693128 
216.114044 0.0074 
217.052322 0.235841 
217.072021 1.007442 
217.097794 0.013285 
217.108459 0.125813 
217.510727 0.006485 
218.055511 0.077869 
218.074921 0.037824 
218.102829 0.007711 
218.12854 0.010088 
219.743546 0.159964 
220.146042 0.014824 
220.180618 0.093954 
221.127563 0.012728 
221.165131 0.036138 
222.102554 0.333439 
222.195938 0.01994 
223.106857 0.011181 
223.277405 0.00626 
224.118118 1.198088 
224.139648 0.017385 
224.467377 0.012921 
225.069138 5.114444 
225.097855 0.409016 
225.121872 0.213121 
226.072693 1.132014 
226.118286 0.164592 
227.064789 0.527943 
227.08461 0.130814 
228.169937 0.016982 
232.119492 0.083248 
233.092636 0.077757 
233.140564 0.016219 
233.164032 0.011852 
234.09816 0.305334 
234.123337 0.053278 
234.15921 0.031708 
235.082474 1.914974 
235.155136 0.0595 
236.066299 0.159068 
236.086304 0.095012 
236.102798 0.654264 
236.139114 0.306064 
237.070343 0.007497 
237.085251 0.020458 
237.106461 0.028357 
237.14299 0.006184 
238.154892 0.010933 
239.084793 1.105087 
239.129074 0.284538 
240.087936 0.220739 
240.112915 0.183066 
240.482742 0.009342 
241.080185 0.024334 
243.087341 0.031787 
243.148788 0.26702 
246.098312 0.10195 
246.12326 0.01173 
247.126144 0.008651 
250.098373 0.026699 
252.1091 0.237518 
253.080246 0.01742 
253.092865 1.520406 
253.16571 0.079383 
254.096039 0.129972 
254.169403 0.005395 
257.139465 0.822652 
258.098267 0.059199 
258.142883 0.043246 
260.101532 0.060276 
260.114655 0.218799 
261.086273 0.021058 
262.093597 0.016121 
262.155243 0.013579 
263.076965 0.468379 
263.121094 0.548115 
264.124115 0.088273 
265.136627 0.915469 
265.283173 0.016218 
266.140289 0.026357 
267.124237 1.443011 
267.152039 0.505653 
268.107819 1.722386 
268.125519 0.211323 
268.151123 0.006358 
269.11145 0.258121 
270.045197 0.009827 
270.136566 0.017869 
270.202026 0.013946 
271.143799 0.136431 
273.134338 0.219838 
273.261414 0.009181 
274.166046 0.022487 
276.490265 0.010847 
277.129852 0.007348 
278.11322 0.276304 
279.097961 0.017093 
279.116028 0.029889 
280.111145 0.010466 
281.08905 0.013137 
281.13147 5.469691 
282.13501 1.937058 
283.127075 0.523823 
283.14679 0.219777 
284.129639 0.010541 
284.178528 0.056616 
285.134827 1.206378 
285.162659 2.541633 
286.137726 0.180198 
286.166626 0.033836 
289.607513 0.011259 
290.16153 0.063079 
293.139282 0.218518 
294.134094 0.016065 
294.162659 0.04344 
294.195068 0.039548 
295.120453 0.036031 
295.139191 0.108373 
296.123871 0.041299 
297.373322 0.011066 
298.157806 0.031769 
304.103882 0.885822 
304.179016 0.015467 
305.107086 0.059444 
307.190186 0.017617 
312.993683 0.016759 
319.212555 0.012624 
324.02417 0.014083 
328.137573 0.011946 
331.031342 0.00892 
334.07605 0.009525 
335.186157 0.076351 
349.125946 0.020996 
364.043182 0.005955 
365.124268 0.046098 
371.247559 0.006729 
375.817871 0.016773 
378.07608 0.005358 
403.80365 0.011484 
406.38855 0.011009 
419.084991 0.012588 
437.262482 0.010442 
438.476227 0.006268 
447.061737 0.015635 
447.346191 0.129466 
474.988739 0.011571 
483.464935 0.008415 
509.685394 0.01167 
515.013428 0.014804 
528.117004 0.007004 
544.463074 0.016607 
556.409607 0.027427 
595.382812 0.01061 
603.775574 0.011881 
625.826721 0.017076 
638.095947 0.011394 
694.585449 0.006689 
715.777222 0.013149 
805.397827 0.013077 
807.449402 0.011063 
843.871948 0.006892 
889.639038 0.009231 
938.698303 0.007019 
961.528992 0.012389 
1019.052551 0.00941 
1026.108887 0.016839 
1060.239502 0.010103 
1062.319824 0.00937 
1121.674927 0.011517 
1131.881104 0.007562 
1132.032104 0.006392 
1194.889038 0.012764 
1201.850098 0.012784 
1228.459473 0.013425 
1375.082397 0.011838 
1399.836548 0.00989 
1452.268921 0.010841 
END IONS

