BEGIN IONS
PEPMASS=143.0
CHARGE=1+
COMPOUNDNAME=Massbank:KO002835 Ectoine
LIBRARYQUALITY=3
SMILES=CC(N1)=NC(CC1)C(O)=O
INCHIKEY=WQXNXVUDBPYKBA-UHFFFAOYSA-N
INCHI=1S/C6H10N2O2/c1-4-7-3-2-5(8-4)6(9)10/h5H,2-3H2,1H3,(H,7,8)(H,9,10)
MSLEVEL=2
SOURCE_INSTRUMENT=ESI-LC-ESI-QQ
FILENAME=Massbank_ESI_positive_8_1_2014_peaks.mgf
SEQ=*..*
IONMODE=Positive
ORGANISM=MASSBANK
NAME=Massbank:KO002835 Ectoine [M+H]+
PI=Putative Massbank Match
DATACOLLECTOR=Massbank
PUBMED=N/A
SUBMITUSER=mwang87
TAGS=
SPECTRUMID=CCMSLIB00000218171
SCANS=8637
42.8 19802.0 
44.2 108911.0 
56.2 722773.0 
62.8 39604.0 
68.0 4950500.0 
70.2 34653.5 
72.9 3628716.5 
73.8 183168.5 
79.8 24752.5 
80.9 14851.5 
83.4 202970.5 
84.2 856436.5 
85.9 198020.0 
87.0 14851.5 
97.1 122604083.0 
98.0 163366.5 
99.9 143564.5 
101.0 14707935.5 
102.0 831684.0 
108.0 34653.5 
109.1 34653.5 
111.0 14851.5 
114.9 14851.5 
125.0 693070.0 
126.2 435644.0 
143.1 109678327.5 
171.6 24752.5 
END IONS

