BEGIN IONS
PEPMASS=279.169
CHARGE=1+
COMPOUNDNAME=(1R,2E,7R,10E,12S,13S,15R)-12,15-dihydroxy-7-methyl-8-oxabicyclo[11.3.0]hexadeca-2,10-dien-9-one
LIBRARYQUALITY=3
SMILES=N/A
INCHIKEY=KQNZDYYTLMIZCT-SWGFJCPHSA-N
INCHI=InChI=1S/C16H24O4/c1-11-5-3-2-4-6-12-9-13(17)10-14(12)15(18)7-8-16(19)20-11/h4,6-8,11-15,17-18H,2-3,5,9-10H2,1H3/b6-4+,8-7+/t11-,12+,13-,14+,15+/m1/s1
MSLEVEL=2
SOURCE_INSTRUMENT=N/A-Linear Ion Trap
FILENAME=library_mgf.mgf
SEQ=*..*
IONMODE=negative
ORGANISM=MONA
NAME=(1R,2E,7R,10E,12S,13S,15R)-12,15-dihydroxy-7-methyl-8-oxabicyclo[11.3.0]hexadeca-2,10-dien-9-one M-H
PI=MoNA
DATACOLLECTOR=MoNA:VF-NPL-LTQ005554
PUBMED=N/A
SUBMITUSER=mwang87
TAGS=
SPECTRUMID=CCMSLIB00004689145
SCANS=4766
137.089996 0.968819 
165.039993 1.290455 
179.139999 1.811952 
217.059998 100.0 
223.130005 5.60428 
243.149994 7.519815 
END IONS

