BEGIN IONS
PEPMASS=343.213
CHARGE=1+
COMPOUNDNAME=ERGONOVINE MALEATE
LIBRARYQUALITY=3
SMILES=N/A
INCHIKEY=WVVSZNPYNCNODU-XTQGRXLLSA-N
INCHI=InChI=1S/C19H23N3O2/c1-11(10-23)21-19(24)13-6-15-14-4-3-5-16-18(14)12(8-20-16)7-17(15)22(2)9-13/h3-6,8,11,13,17,20,23H,7,9-10H2,1-2H3,(H,21,24)/t11-,13+,17+/m0/s1
MSLEVEL=2
SOURCE_INSTRUMENT=N/A-ESI-QFT
FILENAME=library_mgf.mgf
SEQ=*..*
IONMODE=positive
ORGANISM=MONA
NAME=ERGONOVINE MALEATE [M+NH4]+
PI=MoNA
DATACOLLECTOR=MoNA:VF-NPL-QEHF027722
PUBMED=N/A
SUBMITUSER=mwang87
TAGS=
SPECTRUMID=CCMSLIB00004721303
SCANS=27722
50.160854 0.039375 
50.170959 0.023125 
50.380898 0.022116 
51.082417 0.041422 
51.096954 0.034481 
51.998268 0.057834 
52.670296 0.025457 
53.398094 0.022356 
53.419884 0.022673 
54.232132 0.048253 
55.221519 0.041108 
55.658665 0.041477 
56.049831 0.540191 
56.571373 0.047143 
56.773033 0.043937 
57.033791 0.031111 
57.070236 0.045952 
57.387363 0.051288 
57.670876 0.024374 
58.065449 1.018922 
59.015648 0.053061 
59.049431 0.506791 
59.577824 0.046289 
59.708477 0.04386 
59.9305 0.056102 
60.04467 0.472268 
60.673199 0.048875 
60.987225 0.047757 
61.010876 0.472989 
61.586678 0.034765 
61.995037 0.021181 
62.018749 0.125632 
62.332462 0.039688 
62.696232 0.018627 
63.642906 0.046128 
63.729218 0.023612 
63.799145 0.020289 
64.588631 0.046928 
64.916336 0.035471 
65.24971 0.049898 
65.832954 0.045842 
67.933289 0.055714 
68.450798 0.02837 
71.072258 0.023565 
71.092484 0.024491 
73.004341 0.041246 
73.025955 0.030778 
73.445061 0.03241 
73.944725 0.022267 
74.060059 2.735899 
74.804565 0.041751 
74.938515 0.021418 
75.509483 0.023426 
76.075859 0.864499 
78.078346 0.049116 
78.887444 0.039982 
79.021164 0.025026 
82.69458 0.025576 
83.679077 0.024007 
84.717064 0.024336 
85.792412 0.048691 
86.059944 0.02614 
87.417076 0.031409 
88.825836 0.037468 
89.059731 3.378422 
92.070717 1.564969 
93.860641 0.054668 
94.515236 0.02526 
94.932968 0.043142 
95.417168 0.025954 
96.537529 0.036568 
96.92907 0.024542 
100.031746 0.054831 
100.262177 0.024667 
102.055023 0.275938 
102.480492 0.045108 
102.514114 0.052202 
103.438934 0.049405 
105.281883 0.031303 
107.01757 0.026349 
109.343819 0.031284 
110.953239 0.298089 
112.039375 0.248626 
112.075684 0.065605 
116.985832 0.028012 
120.781441 0.039847 
122.940735 0.051968 
125.02076 0.049601 
127.956352 0.026765 
128.070526 6.298797 
128.963699 3.452453 
129.07399 0.099504 
129.727203 0.02263 
130.06517 0.174663 
130.085815 0.037599 
130.14061 0.052355 
130.97963 1.30533 
131.52977 0.045405 
133.085922 0.125243 
133.223007 0.046984 
137.954575 0.032652 
141.190781 0.025523 
141.261169 0.048591 
142.979507 0.050809 
144.080292 0.026376 
145.966995 0.029346 
146.081039 0.18065 
146.97435 5.104539 
147.458466 0.030874 
147.957458 0.02349 
147.974747 0.073262 
150.8405 0.022745 
151.563309 0.044415 
152.897125 0.057315 
152.95137 0.316412 
153.959167 0.111826 
154.06517 0.837968 
154.967743 0.039443 
156.080856 0.364511 
157.605789 0.042366 
158.974258 0.040612 
159.013245 0.027403 
160.162796 0.023133 
160.990051 0.637217 
161.921432 0.035356 
161.972458 0.062798 
162.971924 0.056692 
163.375381 0.050615 
163.526596 0.050708 
163.59288 0.042278 
163.97644 0.035022 
165.070312 0.090039 
166.96698 0.08504 
167.072983 1.420718 
167.964676 0.03727 
168.080902 3.135791 
169.084122 0.322736 
170.011093 0.099874 
172.026428 0.02639 
172.090225 0.03686 
174.005798 0.385365 
176.070145 0.037916 
176.869949 0.036783 
178.065521 0.033077 
180.08075 31.712988 
181.064926 0.050307 
181.083603 4.555 
182.059586 0.188666 
182.084045 0.929772 
182.09642 4.132946 
183.099854 0.414244 
183.174988 0.046956 
187.695312 0.049134 
188.021744 0.105632 
190.065353 0.447563 
191.072983 1.958557 
192.08078 16.744366 
192.421341 0.045314 
193.075516 0.455918 
193.084366 2.418576 
193.459702 0.046223 
193.558655 0.026148 
194.085922 0.106341 
194.096466 9.386264 
194.106033 0.038945 
195.091156 0.09513 
195.100037 1.14573 
196.075745 3.956926 
196.112183 0.76054 
197.079102 0.157515 
197.107346 14.40242 
197.318268 0.057879 
198.078918 1.103658 
198.090637 0.040873 
198.110855 2.227527 
198.881073 0.252914 
202.458328 0.032246 
204.888962 0.288266 
205.987976 0.028936 
206.06012 0.086441 
206.083969 1.087195 
206.095917 0.235995 
206.9776 0.028513 
207.067993 3.710256 
207.091766 4.117499 
208.075806 93.986008 
208.099319 21.26321 
209.079132 16.769899 
209.102371 3.378383 
210.082077 1.632704 
210.092133 0.045099 
210.105942 0.039859 
211.122803 0.377022 
213.102219 1.074228 
213.904312 0.182498 
214.67749 1.553512 
214.912476 0.322235 
215.883774 0.068288 
216.891479 1.045338 
218.868469 0.953649 
219.868973 0.033603 
220.075867 1.815176 
220.099533 2.303826 
221.080963 0.064158 
221.107285 27.527933 
221.975464 0.06305 
222.11264 5.408266 
223.122879 100.0 
224.070496 4.882573 
224.094269 2.037909 
224.126419 18.843216 
224.516464 0.02803 
225.074203 0.427931 
225.101837 0.858668 
225.129379 1.420919 
225.504715 0.032515 
226.086273 0.057733 
226.105469 0.0625 
227.919678 0.093624 
228.243652 0.032093 
228.888855 3.421509 
229.889359 0.355388 
235.122849 0.33643 
236.093903 0.051201 
237.102097 2.198565 
238.106186 0.189406 
239.117783 8.939188 
240.031372 0.031348 
240.121094 1.399589 
240.232101 1.218276 
241.898071 0.029858 
242.90683 0.050762 
243.914825 0.261898 
245.907516 0.126451 
247.907501 0.041151 
249.102203 1.913209 
249.4729 0.044904 
250.105728 0.027563 
250.508499 0.021903 
251.117706 2.884313 
252.120728 0.115841 
253.132935 0.034337 
253.601089 0.066762 
254.104721 0.362948 
254.871597 0.047209 
254.943588 0.170044 
255.914856 0.571554 
256.920258 0.052174 
258.89978 0.238223 
261.925323 0.150427 
264.222412 0.037077 
265.13269 0.029064 
266.0466 0.040917 
267.112396 1.359806 
268.921234 0.054807 
268.959259 0.046784 
269.128265 2.920664 
270.131531 0.255775 
270.899292 2.829458 
271.899994 0.277807 
273.272888 0.047125 
278.9758 0.041709 
281.128235 12.75157 
282.131866 2.580531 
282.29483 0.046906 
282.618195 0.058526 
283.143799 1.276545 
284.147705 0.136409 
284.171234 0.097921 
285.963165 0.031169 
286.932404 0.066317 
288.910248 0.078276 
289.91803 0.034286 
294.563599 0.024811 
295.143799 0.602489 
299.138794 5.764949 
299.166046 0.047706 
300.141968 0.915462 
304.940979 0.047525 
310.303497 0.047881 
311.137634 0.296213 
316.33551 0.046922 
322.154785 0.698233 
322.951874 0.141732 
324.170074 1.118424 
325.173401 0.033874 
327.157471 1.749789 
328.16214 0.046583 
330.920288 0.251418 
339.801605 0.040921 
341.397186 0.065264 
342.181305 5.465528 
343.184113 0.801255 
344.18869 0.05817 
347.861969 0.048221 
368.058411 0.027731 
END IONS

