BEGIN IONS
PEPMASS=214.059
CHARGE=1+
COMPOUNDNAME=Citrulline
LIBRARYQUALITY=3
SMILES=N/A
INCHIKEY=RHGKLRLOHDJJDR-BYPYZUCNSA-N
INCHI=InChI=1S/C6H13N3O3/c7-4(5(10)11)2-1-3-9-6(8)12/h4H,1-3,7H2,(H,10,11)(H3,8,9,12)/t4-/m0/s1
MSLEVEL=2
SOURCE_INSTRUMENT=N/A-ESI-QFT
FILENAME=library_mgf.mgf
SEQ=*..*
IONMODE=positive
ORGANISM=MONA
NAME=Citrulline [M+K]+
PI=MoNA
DATACOLLECTOR=MoNA:VF-NPL-QEHF026474
PUBMED=N/A
SUBMITUSER=mwang87
TAGS=
SPECTRUMID=CCMSLIB00004717999
SCANS=26474
50.42522 0.012771 
50.673481 0.012259 
51.187485 0.019127 
51.36095 0.008484 
51.460762 0.018342 
51.940308 0.014418 
52.116417 0.016004 
52.171246 0.019394 
52.713734 0.013664 
52.730785 0.021957 
52.796093 0.009545 
52.862675 0.012989 
53.381756 0.009237 
53.422176 0.01167 
53.600006 0.009667 
54.164806 0.012415 
54.433159 0.009929 
54.703873 0.017592 
54.746094 0.011759 
55.054562 0.145963 
55.124523 0.016238 
55.506882 0.008249 
55.756634 0.009763 
56.96513 0.959472 
57.070183 3.078154 
57.071651 0.045623 
57.89061 0.0107 
57.935097 7.308382 
58.065468 0.327133 
58.550514 0.010524 
58.567913 0.015434 
58.933052 0.030718 
59.188374 0.017032 
59.411285 0.011778 
59.930519 1.784518 
60.439354 0.007195 
60.91806 0.016024 
61.010902 2.809743 
61.039867 0.075561 
61.776588 0.010066 
62.011845 0.013865 
62.411533 0.009691 
62.689339 0.008322 
62.955585 0.014933 
63.085098 0.01058 
63.231606 0.016862 
63.878616 0.010294 
63.998169 0.017513 
64.060974 0.014346 
64.380623 0.014544 
64.620415 0.010361 
64.662926 0.009393 
64.857933 0.01805 
65.406441 0.010543 
65.565163 0.011188 
65.733253 0.016373 
66.013321 0.018 
67.054398 0.205441 
67.363022 0.009788 
67.528 0.010228 
68.881599 0.01473 
69.070045 0.247085 
69.160225 0.011503 
70.065231 0.350435 
70.846306 0.014522 
71.049255 0.010631 
71.085632 1.484084 
72.080872 0.061586 
72.290474 0.009401 
72.958351 0.97472 
73.089104 0.01057 
73.816589 0.010985 
73.821205 0.014665 
73.851616 0.008444 
73.929779 1.120659 
73.95623 0.07874 
73.977501 0.009831 
74.308388 0.011038 
74.498863 0.010351 
74.953819 0.077305 
75.445045 0.008858 
75.92527 0.059958 
75.945412 4.46613 
77.070953 0.010562 
77.090721 0.018007 
77.94091 1.039573 
78.456123 0.010456 
78.990158 0.014263 
79.021278 5.519811 
79.023529 0.056484 
79.519394 0.017031 
79.597221 0.015081 
79.697906 0.014085 
80.579475 0.014865 
81.017166 0.015883 
81.069939 0.341205 
81.467384 0.014002 
81.485817 0.013372 
82.143036 0.01309 
83.085571 0.108459 
83.975739 0.078174 
84.080887 0.030424 
85.064842 0.047541 
85.10125 0.47164 
85.124207 0.011082 
85.615463 0.009499 
86.089516 0.013591 
86.096474 0.026154 
86.501823 0.010868 
86.536072 0.008112 
87.832054 0.010412 
87.920906 0.009447 
89.129013 0.010481 
89.773514 0.013341 
90.680344 0.019003 
90.969093 0.041385 
91.054123 0.009027 
91.160141 0.010609 
91.550644 0.00952 
91.922394 0.015264 
91.940369 0.089989 
92.938133 0.012049 
92.948318 0.018109 
93.069984 0.026154 
93.956024 2.370875 
95.049194 0.012085 
95.085587 0.996813 
95.603523 0.008811 
95.908264 0.009215 
95.951431 0.468751 
96.443893 0.016846 
96.655708 0.009481 
97.736359 0.014302 
97.838974 0.017759 
98.10598 0.018097 
98.275536 0.009763 
98.97541 0.947607 
99.192299 0.009272 
100.075829 0.06551 
100.476707 0.011946 
100.66143 0.010098 
101.370621 0.016458 
101.960892 0.013237 
102.025017 0.007982 
102.262688 0.010264 
102.914818 0.528589 
102.920609 0.013059 
102.968285 0.932138 
103.9226 0.118358 
103.951591 0.043065 
103.976807 0.290594 
104.910141 0.039636 
104.930466 0.979455 
104.934059 0.01902 
105.303329 0.011926 
105.674927 0.013439 
105.928268 0.121756 
105.956184 0.055361 
106.431473 0.01681 
106.925926 0.092577 
107.085655 0.043813 
107.952042 0.026418 
108.924767 0.018072 
109.101173 0.158399 
110.292267 0.018441 
112.66729 0.016768 
114.054863 0.011308 
115.543327 0.011654 
116.831627 0.008865 
116.985985 0.251659 
117.522682 0.010272 
117.656105 0.01707 
118.067085 0.009766 
119.08577 0.010715 
119.760193 0.013258 
119.917595 0.269312 
120.925476 0.429926 
120.974304 0.009315 
120.978943 0.308905 
121.10125 0.017115 
121.912506 0.010471 
121.933083 0.519848 
122.920761 0.023584 
122.930984 0.026604 
122.941002 4.617454 
123.912437 0.297028 
123.928574 0.046695 
123.938911 0.910345 
123.94883 1.098803 
124.936516 1.410709 
125.20726 0.017326 
125.754311 0.008837 
125.944473 0.114523 
126.022636 0.033477 
127.575172 0.010381 
127.821388 0.008687 
128.070816 0.019205 
129.567276 0.017603 
129.981476 0.02088 
131.437866 0.010587 
132.480972 0.013011 
132.958725 0.019823 
133.187103 0.013211 
133.571106 0.009674 
134.478165 0.008276 
134.940933 0.178201 
134.978683 0.037321 
134.996674 0.014564 
135.117035 0.018802 
135.948914 2.181001 
135.956558 0.439548 
136.580383 0.121991 
136.920395 0.220365 
136.931427 0.013123 
136.95665 0.277951 
137.011597 0.017781 
137.082047 0.03907 
137.918839 0.057436 
137.928101 12.347667 
137.944458 0.530516 
137.954575 0.824196 
137.964417 2.011403 
138.456818 0.015581 
138.54718 0.010432 
138.926239 0.045372 
138.935959 2.96074 
138.951904 0.022655 
138.96228 0.045926 
138.989639 0.024047 
139.923569 3.693202 
139.95993 0.407825 
140.596573 0.021224 
140.923035 0.010545 
140.931366 0.75634 
140.951706 0.099994 
141.000626 0.025558 
141.923187 0.029181 
141.930527 0.01654 
143.049347 0.85258 
144.033691 0.011594 
144.508392 0.013695 
144.926163 0.011115 
145.064972 0.033468 
145.585617 0.069672 
146.087799 0.010868 
146.787292 0.022225 
146.973495 0.010308 
147.918427 0.015315 
148.971497 0.026656 
150.822662 0.010208 
150.951324 0.015338 
150.972382 2.437123 
151.017578 0.026638 
151.943985 0.118511 
151.970108 0.189253 
152.042709 0.016987 
152.951614 12.487362 
152.96759 0.64297 
153.446808 0.022948 
153.95932 100.0 
154.122574 0.03694 
154.930756 0.010166 
154.947235 3.128378 
154.956863 0.27195 
154.963196 1.526929 
154.977844 1.37449 
155.106659 0.084752 
155.134323 0.01037 
155.954803 28.944614 
156.946503 2.374434 
157.761139 0.011032 
158.94191 0.491036 
160.531937 0.022239 
161.059998 0.088754 
163.027893 0.010335 
163.945312 0.02533 
163.95488 0.240465 
166.138535 0.02367 
166.942078 0.238124 
166.96727 0.161069 
167.921204 0.050409 
167.938477 0.970978 
167.974991 1.197743 
168.93692 0.173571 
168.982895 4.467849 
169.028625 0.278613 
169.917694 0.624643 
169.934021 0.063789 
169.944107 0.028925 
169.954132 0.135481 
169.970276 0.078434 
170.060608 0.011139 
170.952988 0.01686 
170.962036 3.048367 
170.97818 1.198205 
171.044174 2.858608 
171.076706 0.094725 
171.913559 0.065207 
172.047379 0.014093 
172.923416 0.011799 
172.957809 0.673356 
172.988693 1.151473 
176.975784 0.017012 
176.989777 0.013638 
178.978394 0.146882 
180.928665 0.927847 
181.92601 0.058855 
181.950806 0.014857 
182.924286 0.017551 
182.944458 1.082147 
183.473953 0.011423 
183.942383 0.187049 
184.94014 0.058508 
185.949188 19.038734 
186.946808 0.215614 
186.954041 0.014751 
187.039307 0.013459 
187.944687 5.532301 
187.953766 0.196546 
188.070847 0.08107 
189.054703 3.440541 
189.585495 0.019886 
190.039093 0.077017 
190.058533 0.013795 
192.96167 0.127552 
196.1698 0.016391 
198.939224 4.337766 
200.552216 0.011891 
200.934769 1.457116 
200.944824 0.021866 
201.951935 0.009827 
203.936035 0.012026 
207.065414 0.62576 
207.422684 0.015335 
208.476532 0.008228 
210.972763 0.016931 
212.23735 0.150829 
213.41217 0.013884 
213.962692 0.444473 
214.253021 20.931433 
215.034149 0.177666 
215.116394 0.185287 
215.126404 1.10685 
215.256546 2.997954 
215.957306 0.03151 
216.949951 3.502799 
217.065674 0.38052 
217.074142 0.397676 
217.95134 0.00916 
218.945435 1.174998 
221.643707 0.011307 
226.310074 0.017887 
226.945236 0.040931 
233.044678 0.124824 
234.999527 0.012701 
END IONS

