BEGIN IONS
TITLE=Scan Number: 2863
PEPMASS=585.32001
CHARGE=0+
COMPOUNDNAME=Desferrioxamine B + Al (M-2H+Al)
LIBRARYQUALITY=3
SMILES=CC(=O)N(CCCCCNC(=O)CCC(=O)N(CCCCCNC(=O)CCC(=O)N(CCCCCN)O)O)O
INCHIKEY=UBQYURCVBFRUQT-UHFFFAOYSA-N
INCHI=
MSLEVEL=2
SOURCE_INSTRUMENT=LC-ESI-Orbitrap
FILENAME=f.ktahlan/KT-1/MUN/Methanol/SC/3 SC onTSB mrth-pos.mzXML;
SEQ=*..*
NOTES=
IONMODE=Positive
ORGANISM=GNPS-LIBRARY
NAME=Desferrioxamine B + Al (M-2H+Al) M+H
SPECTRUMID=CCMSLIB00005435926
ACTIVATION=CID
INSTRUMENT=ion trap
SCANS=2863
70.065453 1225721.0 
71.068871 9092.835938 
72.081093 577637.75 
74.704346 7398.95459 
78.009766 8045.141602 
82.065292 15991.275391 
83.060486 9632.34375 
84.044594 87408.09375 
84.080917 825044.4375 
84.179031 8517.412109 
86.091843 11668.616211 
86.096535 255712.90625 
97.007629 12436.65918 
98.096313 73380.484375 
100.039505 11744.000977 
102.05468 45101.390625 
106.06514 8438.682617 
110.071419 78929.53125 
116.070488 58254.636719 
120.080086 11648.387695 
121.007278 12290.073242 
127.077789 14673.663086 
127.086533 279673.65625 
129.102036 54773.6875 
136.01857 64058.019531 
136.075729 9406.834961 
138.091095 16249.746094 
138.611099 9003.020508 
139.017517 13158.77832 
141.101486 18621.195312 
142.289795 10262.301758 
144.059647 13650.27832 
146.038452 9275.342773 
146.075241 58391.722656 
155.081604 182214.5 
158.039795 16082.124023 
159.070816 12927.285156 
160.01799 11752.643555 
162.071014 10424.874023 
164.049301 10741.720703 
165.102264 48245.523438 
167.080124 9778.001953 
169.133545 60011.390625 
172.054916 12030.614258 
173.054062 8895.533203 
174.035461 10557.913086 
175.029938 16847.199219 
176.013687 12137.813477 
178.028778 13391.801758 
181.097198 177809.6875 
182.075211 9613.839844 
184.090454 8526.176758 
185.090836 66824.992188 
186.07019 52494.261719 
187.065628 15099.079102 
187.106339 20749.257812 
188.085724 13034.602539 
190.063782 11061.408203 
191.080032 10859.823242 
192.856216 10067.683594 
197.087372 18298.472656 
197.12854 21242.900391 
198.070999 30305.144531 
199.107086 95806.4375 
200.086334 123630.8125 
201.081604 41025.46875 
202.101868 95684.820312 
203.101639 625953.0 
204.081223 326195.3125 
209.091751 114349.710938 
213.081589 79648.984375 
215.023331 32380.324219 
215.060684 13216.915039 
215.097244 100368.367188 
216.081436 36735.734375 
217.040176 58708.058594 
217.113373 11788.866211 
218.023453 13505.240234 
218.097122 48097.609375 
220.113327 11951.901367 
223.102142 12256.569336 
224.083572 13878.508789 
225.08255 44947.902344 
227.097672 65210.023438 
229.076324 75809.960938 
229.112854 44102.785156 
231.091934 40317.554688 
239.096802 73968.195312 
240.093323 14274.316406 
241.112671 1041227.875 
242.113876 147210.625 
243.09198 107321.039062 
244.075943 12720.564453 
244.127609 11862.499023 
244.163956 11095.454102 
245.107452 78303.382812 
246.0914 38744.871094 
253.11232 19121.511719 
254.10881 18435.476562 
254.150925 10989.15918 
255.091446 58830.351562 
256.123108 42933.234375 
257.107483 467959.59375 
259.124084 69185.1875 
260.123077 280599.5625 
267.09198 19737.001953 
269.107666 48267.054688 
271.123718 13319.041016 
272.118164 11869.353516 
273.101837 53982.882812 
278.107239 11345.735352 
280.123108 36388.976562 
280.165283 96614.359375 
281.107361 37363.976562 
282.103119 136930.796875 
283.0867 40020.066406 
284.118408 190496.40625 
284.149872 17762.351562 
285.102142 477119.28125 
296.117737 53943.515625 
297.104065 14178.989258 
298.129639 11480.915039 
299.120056 12726.702148 
300.113159 370249.96875 
302.130951 10402.544922 
303.112701 409253.75 
307.161346 16744.806641 
308.158783 53988.109375 
309.138245 10506.566406 
322.135468 9818.512695 
322.171082 52528.441406 
323.157257 68257.578125 
324.112305 92460.375 
324.186798 17289.558594 
326.167999 42913.789062 
339.123627 39164.558594 
339.197205 54982.589844 
340.182129 18541.910156 
341.165405 80868.78125 
342.124054 18291.181641 
343.192108 49453.480469 
344.176636 15444.338867 
349.180481 19613.802734 
350.164734 64432.289062 
352.182587 14982.178711 
359.19223 49422.007812 
361.203156 10549.724609 
363.19696 14875.238281 
365.180695 64355.042969 
366.123962 95779.65625 
367.192535 358885.65625 
368.176147 1786771.75 
369.17688 16469.421875 
379.193726 31358.117188 
380.176788 18680.357422 
381.208221 46115.375 
383.191254 19822.716797 
385.202698 1505652.0 
386.187012 151255.46875 
399.15094 13646.595703 
403.208069 16324.876953 
406.200073 17480.892578 
407.188263 155901.71875 
411.181824 37208.746094 
421.204865 14146.317383 
425.139252 21919.308594 
425.197296 561613.0625 
426.185822 10026.03418 
439.213318 865887.75 
443.207092 92016.867188 
448.215851 15374.569336 
449.196411 151886.6875 
451.255249 63206.558594 
466.225189 60099.097656 
467.207916 968898.4375 
468.274719 99558.492188 
469.221405 16523.927734 
482.220428 60049.175781 
484.235504 11571.958008 
485.220703 40038.726562 
485.301392 15101.038086 
490.257538 15125.240234 
508.273132 38684.097656 
522.288696 12404.444336 
525.299377 34616.34375 
531.28363 17200.078125 
532.270325 101933.765625 
539.314758 37719.324219 
541.326355 20631.486328 
549.298035 88043.046875 
550.279907 97863.765625 
567.309692 170897.546875 
568.291443 203387.296875 
585.31897 9523832.0 
586.321655 148439.59375 
END IONS

