BEGIN IONS
PEPMASS=243.081
CHARGE=1+
COMPOUNDNAME=BIOTIN
LIBRARYQUALITY=3
SMILES=N/A
INCHIKEY=YBJHBAHKTGYVGT-ZKWXMUAHSA-N
INCHI=InChI=1S/C10H16N2O3S/c13-8(14)4-2-1-3-7-9-6(5-16-7)11-10(15)12-9/h6-7,9H,1-5H2,(H,13,14)(H2,11,12,15)/t6-,7-,9-/m0/s1
MSLEVEL=2
SOURCE_INSTRUMENT=N/A-ESI-QFT
FILENAME=library_mgf.mgf
SEQ=*..*
IONMODE=negative
ORGANISM=MONA
NAME=BIOTIN [M-H]-
PI=MoNA
DATACOLLECTOR=MoNA:VF-NPL-QEHF028114
PUBMED=N/A
SUBMITUSER=mwang87
TAGS=
SPECTRUMID=CCMSLIB00004721695
SCANS=28114
50.012836 0.01452 
50.116924 0.019911 
50.565125 0.013936 
50.651695 0.010834 
50.68795 0.01611 
52.017818 0.16613 
52.067383 0.016364 
52.313881 0.018003 
52.44978 0.015274 
52.501476 0.019025 
52.776707 0.017458 
53.191624 0.014096 
53.363892 0.01266 
53.438881 0.01283 
53.717049 0.014703 
53.973335 0.016359 
54.117989 0.017444 
54.126163 0.017035 
54.745293 0.013776 
55.363892 0.015848 
55.392498 0.018085 
56.449451 0.010579 
57.229828 0.015225 
57.616451 0.014964 
57.856869 0.01407 
58.209347 0.015681 
58.3354 0.016396 
59.012409 0.093473 
59.023636 0.128798 
59.453243 0.018065 
59.927422 0.013104 
60.1264 0.015991 
60.475361 0.017417 
60.568169 0.01534 
60.579914 0.016983 
60.868355 0.017625 
61.43475 0.018659 
61.519112 0.014634 
62.156006 0.014533 
62.573883 0.013354 
62.630211 0.01607 
62.94231 0.01721 
63.665211 0.014531 
63.832539 0.017074 
63.946297 0.016149 
64.665276 0.010591 
64.808075 0.015259 
64.832664 0.018084 
65.228683 0.018724 
65.660751 0.014892 
66.033501 0.016992 
66.659409 0.012788 
66.919746 0.015635 
67.792397 0.010927 
67.854538 0.017084 
67.860916 0.017443 
68.049141 3.380491 
68.343521 0.019868 
68.621117 0.015425 
68.772049 0.012908 
69.052299 0.017795 
69.404747 0.016303 
69.758041 0.014864 
70.102722 0.016703 
70.817848 0.018351 
71.0317 0.015036 
71.035233 0.016979 
71.989883 0.869357 
72.359856 0.018102 
73.482414 0.014613 
73.980392 0.015848 
74.005554 7.579806 
74.399292 0.017465 
75.143089 0.01718 
76.214294 0.016841 
76.505913 0.016335 
76.720589 0.016032 
76.735374 0.017051 
76.801697 0.0182 
76.818542 0.015719 
77.623734 0.018087 
78.746674 0.014936 
78.965561 0.016859 
79.337395 0.011595 
79.833237 0.016276 
79.890411 0.013693 
80.169456 0.011948 
82.545547 0.017237 
82.571533 0.016552 
83.048851 0.057118 
83.860489 0.012317 
87.619179 0.013359 
87.762466 0.015083 
88.338058 0.017328 
89.724953 0.017483 
89.763298 0.018137 
89.806152 0.015022 
89.816505 0.019441 
90.506187 0.016583 
90.94693 0.017504 
91.027962 0.016814 
91.165703 0.013129 
91.332497 0.015593 
91.397133 0.012378 
91.694466 0.022442 
91.951843 0.020794 
92.048981 0.020061 
92.355415 0.022717 
93.334732 0.016438 
94.030823 0.0157 
94.640884 0.016767 
95.023613 1.475282 
96.026848 0.02047 
96.182739 0.018323 
97.039284 1.249533 
97.064293 0.018661 
97.077858 0.014728 
98.463112 0.01485 
99.637299 0.014872 
99.924385 0.017982 
100.44635 0.016666 
100.546471 0.015352 
100.608284 0.016797 
102.450203 0.015594 
103.057266 0.205849 
103.837051 0.014152 
105.351929 0.014753 
106.06498 0.01838 
107.25135 0.014205 
109.039146 0.039565 
109.339783 0.016596 
109.70121 0.016791 
110.165329 0.016619 
111.043701 0.763868 
111.05497 1.431469 
111.828918 0.014132 
113.059288 0.019066 
113.433273 0.014142 
113.742661 0.016969 
114.448616 0.016918 
114.525513 0.016604 
115.248177 0.017694 
119.170593 0.017454 
119.579048 0.014714 
119.992043 0.01528 
120.080521 3.779483 
120.832298 0.012338 
121.083847 0.144392 
121.162422 0.017151 
121.578728 0.018323 
122.096146 12.722072 
122.838913 0.013078 
123.099518 0.972138 
124.075813 0.016866 
124.471481 0.015975 
127.736519 0.014579 
128.668427 0.014101 
128.851273 0.0134 
129.871872 0.013933 
130.068222 0.285708 
136.075439 0.060985 
136.873734 0.013915 
136.992523 0.012495 
138.244034 0.01213 
139.057465 3.273278 
140.060822 0.088874 
140.070969 0.021322 
140.132401 0.015214 
140.613831 0.016841 
144.216614 0.01851 
145.751846 0.015312 
148.075653 0.480005 
148.091461 0.017056 
149.471924 0.01896 
150.839493 0.017419 
152.15242 0.014246 
153.102142 1.026976 
154.086105 0.418037 
154.396667 0.014565 
155.337189 0.012173 
156.047791 0.149077 
156.084106 16.472017 
157.021133 0.012542 
157.087509 1.231276 
158.079788 0.158189 
159.520035 0.014319 
162.677383 0.018656 
162.939087 0.018471 
163.051224 0.012648 
163.26384 0.017167 
163.681503 0.016479 
165.095078 0.034347 
165.102264 9.705644 
166.086258 70.266083 
166.10704 0.041611 
167.08963 6.435371 
168.09201 0.050756 
170.909653 0.014797 
172.304245 0.019476 
176.876846 0.015978 
178.463425 0.014457 
179.081512 0.662011 
180.462723 0.018655 
180.885498 0.016998 
181.150726 0.019439 
181.158798 1.212108 
181.183868 0.016655 
183.046875 0.049004 
186.945724 0.024494 
189.846115 0.015115 
191.08168 1.249946 
196.050125 0.023553 
197.092331 4.859525 
197.101318 0.020282 
198.095413 0.132373 
199.079773 0.029813 
199.090134 8.719293 
200.074158 86.452698 
201.077698 7.579853 
202.060242 0.013542 
202.069901 1.976252 
202.079483 0.126068 
206.009476 0.01642 
206.378448 0.020064 
207.065689 0.020313 
208.43425 0.017191 
209.092392 6.381351 
210.095734 0.462925 
216.677155 0.690993 
216.690994 0.380094 
217.74585 0.013687 
219.322357 0.019328 
220.538513 0.021336 
220.954498 0.017925 
223.795395 0.014003 
224.164078 0.021915 
225.024521 0.032172 
225.069504 0.188436 
225.148956 2.172798 
226.152176 0.069925 
229.115219 0.012093 
234.239868 0.015641 
238.25325 0.014638 
238.601547 0.017407 
241.216904 0.271074 
242.175568 2.432041 
243.080261 100.0 
243.179123 0.144712 
243.279434 0.016096 
244.083862 10.456526 
244.311615 0.012167 
245.075272 2.327991 
250.17868 0.016258 
256.814606 0.016332 
261.173798 0.017434 
261.802277 0.018834 
263.523438 0.017282 
264.031097 0.017957 
END IONS

