BEGIN IONS
PEPMASS=485.293
CHARGE=1+
COMPOUNDNAME=TOBRAMYCIN
LIBRARYQUALITY=3
SMILES=N/A
INCHIKEY=NLVFBUXFDBBNBW-PBSUHMDJSA-N
INCHI=InChI=1S/C18H37N5O9/c19-3-9-8(25)2-7(22)17(29-9)31-15-5(20)1-6(21)16(14(15)28)32-18-13(27)11(23)12(26)10(4-24)30-18/h5-18,24-28H,1-4,19-23H2/t5-,6+,7+,8-,9+,10+,11-,12+,13+,14-,15+,16-,17+,18+/m0/s1
MSLEVEL=2
SOURCE_INSTRUMENT=N/A-ESI-QFT
FILENAME=library_mgf.mgf
SEQ=*..*
IONMODE=positive
ORGANISM=MONA
NAME=TOBRAMYCIN [M+NH4]+
PI=MoNA
DATACOLLECTOR=MoNA:VF-NPL-QEHF011821
PUBMED=N/A
SUBMITUSER=mwang87
TAGS=
SPECTRUMID=CCMSLIB00004702884
SCANS=11821
50.173775 0.102819 
50.561913 0.03939 
50.622192 0.096241 
51.887772 0.084486 
52.783806 0.033727 
53.086514 0.093398 
53.424976 0.037801 
53.520344 0.088097 
53.763931 0.059421 
53.943436 0.036646 
54.732044 0.077976 
55.018608 0.055443 
55.054966 1.911124 
55.865974 0.032556 
55.935127 0.080855 
56.050243 0.223481 
56.567341 0.077874 
56.672943 0.081407 
56.993805 0.088398 
57.034241 4.019134 
57.053249 0.057651 
57.070625 19.294821 
57.07412 0.112317 
58.065922 0.372454 
58.07399 0.539614 
58.219906 0.093007 
58.643635 0.063239 
59.049881 34.316826 
59.059204 0.02953 
59.061111 2.837069 
59.259727 0.060433 
59.294559 0.092232 
59.736046 0.074324 
59.990974 0.285289 
60.045147 0.219134 
60.053242 1.041604 
60.529469 0.112534 
61.011383 0.912567 
61.671806 0.066959 
62.01918 1.092838 
62.060745 0.091394 
62.063091 0.074711 
62.982414 2.968097 
63.19381 0.043612 
63.197887 0.037657 
63.279625 0.092534 
63.62043 0.038859 
63.860912 0.037801 
64.340431 0.075458 
65.258179 0.037025 
65.322426 0.09012 
66.093071 0.036497 
66.608231 0.07931 
67.054901 3.828368 
67.972878 0.057802 
68.589973 0.037864 
68.962044 0.057899 
69.03418 0.185043 
69.070518 3.537139 
69.183105 0.053999 
69.232376 0.108687 
69.288834 0.099379 
69.636337 0.037131 
70.065765 0.125204 
70.073975 0.045919 
70.724648 0.067826 
71.011299 0.09723 
71.04985 0.784121 
71.086143 8.120422 
72.045082 0.366875 
72.081482 0.10637 
72.089569 0.433079 
73.02903 2.111756 
73.04747 0.039266 
73.065475 0.819033 
73.198891 0.043735 
74.06076 0.052119 
74.097084 0.502789 
76.076302 0.617596 
77.29422 0.088288 
77.526611 0.039259 
77.555 0.036057 
77.616577 0.033841 
77.969368 0.110953 
78.13427 0.060422 
78.236336 0.095333 
78.349304 0.04107 
78.49675 0.073545 
78.927361 0.04467 
78.956154 0.098042 
79.021767 4.335642 
79.054848 0.756272 
79.7631 0.059805 
80.054985 0.042135 
80.948357 2.063255 
81.019051 0.790881 
81.070412 5.673615 
81.989075 0.054143 
82.073868 0.119156 
82.099953 0.062064 
82.945496 0.212565 
82.9608 0.040811 
83.013618 0.087482 
83.049706 0.369861 
83.086052 4.2311 
84.044884 0.110951 
84.081482 0.143279 
84.19677 0.075928 
84.373901 0.052985 
84.513596 0.089748 
84.915756 0.098902 
85.028992 0.528041 
85.040131 0.457923 
85.065323 0.721918 
85.101692 4.984517 
86.060493 0.042833 
86.097054 0.153651 
86.10511 0.098409 
87.04454 5.814141 
88.00959 0.096534 
88.021996 0.07793 
88.076195 0.045321 
88.193565 0.061308 
88.493484 0.034872 
88.978767 0.079738 
89.060181 18.277321 
89.071533 0.076205 
90.063568 0.628257 
91.006821 0.070323 
91.054733 0.970484 
91.057808 4.263736 
92.159332 0.041413 
93.037193 0.041719 
93.070282 1.699679 
94.026794 0.166808 
94.196327 0.038164 
95.034531 0.047917 
95.049538 0.236086 
95.085915 6.617757 
95.600082 0.101195 
96.922234 0.615502 
97.065147 0.9231 
97.101585 3.482995 
97.213127 0.078549 
98.919319 0.583503 
99.044434 0.312773 
99.08094 0.606865 
99.117233 0.080962 
99.50016 0.101056 
99.721809 0.037918 
100.076027 3.113104 
100.112495 0.60355 
101.003479 3.249218 
101.060051 16.25885 
101.096497 0.051315 
101.340981 0.039901 
102.055397 0.23425 
102.063446 0.379117 
102.067383 0.049109 
102.091621 5.01886 
102.138268 0.102517 
102.476265 0.042095 
103.039299 0.296077 
103.075745 0.305154 
104.992516 0.532606 
105.070183 0.627879 
106.70459 0.108177 
107.070633 0.158074 
107.085831 1.809777 
107.854095 0.035611 
107.872864 0.060629 
107.96727 0.113524 
108.946564 0.062233 
109.065025 0.117316 
109.076157 0.037005 
109.10144 5.012358 
109.694427 0.055002 
110.104942 0.154173 
111.044388 0.161744 
111.080681 0.92692 
111.117203 0.793705 
112.075935 0.056506 
112.593948 0.12035 
112.723701 0.098148 
113.05999 0.667305 
113.096428 0.106007 
113.855927 0.104555 
114.091499 0.114112 
114.425278 0.068919 
114.441734 0.103794 
114.731911 0.063581 
115.075638 0.655689 
115.562431 0.040331 
116.053009 3.133866 
116.676514 0.084083 
117.055473 0.047655 
117.069931 0.096025 
117.091187 3.639623 
118.086563 0.125848 
118.094315 0.102713 
118.971779 0.195045 
119.048492 0.090323 
119.085754 1.213342 
120.081039 0.112254 
121.064972 0.664597 
121.101364 1.674992 
123.080811 0.231231 
123.116982 2.855315 
123.387131 0.048066 
124.111053 0.09898 
124.120628 0.046615 
124.715034 0.092161 
124.977097 0.072927 
125.09623 1.30058 
125.132729 0.04754 
127.039345 0.052421 
128.127747 0.03864 
129.054718 0.252712 
130.159088 0.229019 
130.289948 0.044564 
131.070312 0.303919 
131.085724 0.153002 
131.518539 0.090385 
133.06488 0.204839 
133.085846 6.021312 
133.101135 1.069714 
134.089035 0.054906 
134.996399 0.228296 
135.002884 2.089797 
135.080399 3.911307 
135.116928 1.063969 
136.084183 0.04335 
137.057755 0.09515 
137.09613 0.164189 
137.132492 2.178032 
138.054443 0.041478 
138.299698 0.036322 
139.075211 0.05192 
139.111755 0.04056 
139.353653 0.084606 
140.068024 0.373916 
140.143326 0.193766 
140.959213 0.380167 
141.113449 0.103207 
141.127243 0.101629 
141.16423 0.04627 
142.938385 0.627545 
143.085754 0.104562 
143.959427 0.036131 
144.064896 0.130942 
144.395447 0.082631 
145.101273 0.177771 
145.180267 0.087444 
146.003571 0.088802 
146.401321 0.035705 
147.080154 0.095393 
147.116867 0.622109 
149.059891 0.042916 
149.096329 0.126552 
149.132401 0.725878 
150.358383 0.067133 
150.45047 0.049171 
150.951096 0.394274 
150.969009 0.041637 
151.148621 0.047975 
152.988571 0.047645 
154.122589 1.380752 
154.15918 0.059288 
155.106339 0.050731 
155.995712 0.065836 
156.138245 3.053303 
156.188721 0.056244 
157.101349 0.048912 
159.116882 0.162061 
159.813217 0.038085 
160.045349 0.041478 
160.111954 0.187054 
161.096512 0.04958 
161.132477 0.303601 
162.076019 0.927336 
162.128021 0.04013 
163.10759 4.944698 
163.123123 0.05031 
163.148132 0.218707 
164.92041 8.839213 
164.967957 0.03737 
165.091171 0.14985 
165.126923 0.053443 
166.916885 0.101839 
167.055237 0.196104 
168.693039 0.041559 
168.961761 0.431062 
169.607162 0.102405 
170.117233 0.061227 
170.957062 0.53591 
171.11673 0.124291 
172.115509 1.189621 
173.04248 0.039818 
173.096451 0.076814 
173.117554 0.277502 
173.132492 0.091635 
174.128525 0.040127 
175.096024 0.05242 
175.111755 1.251885 
175.148041 0.139277 
176.987625 0.042124 
177.057953 0.082188 
177.112289 0.506695 
177.164612 0.044178 
180.894257 0.780983 
180.984253 0.040763 
182.154449 0.047918 
184.169968 0.095212 
185.132019 0.045095 
185.962143 0.72345 
186.927841 0.240259 
187.107681 0.203481 
188.021805 0.133236 
188.966003 0.051809 
190.086243 0.212083 
190.125809 0.090378 
191.001373 0.044845 
191.106491 0.107891 
192.961761 0.743071 
194.11525 0.951247 
195.000046 0.2302 
195.099304 0.328749 
197.23999 0.065915 
199.133057 0.043612 
200.860031 0.123519 
201.12735 0.055088 
201.958801 0.068765 
202.695816 0.037567 
203.022202 0.060512 
203.052414 1.044217 
203.42775 0.049432 
203.931168 0.049812 
204.962158 2.855067 
205.118454 0.834265 
206.977631 0.257672 
207.053375 0.298745 
209.117004 0.224985 
210.185379 0.183334 
210.972321 0.711567 
213.517548 1.711094 
213.529205 2.826809 
213.540588 2.873755 
217.540985 0.098868 
219.174179 2.547388 
223.06366 2.370737 
224.063614 0.052215 
225.042938 2.183568 
225.060822 0.82403 
226.011932 0.130069 
226.04274 0.060798 
227.022095 0.535595 
227.040176 0.314009 
227.200516 0.080404 
228.091278 0.039107 
228.160065 0.046916 
229.001511 1.054437 
229.073105 0.089803 
231.174362 0.5455 
232.739395 0.12792 
234.994858 0.718678 
235.266037 0.075318 
237.306381 0.069242 
238.967545 0.040509 
240.067352 0.04492 
240.909607 0.153347 
244.08075 0.560939 
245.022858 0.118438 
246.939713 0.131997 
247.011597 0.578859 
250.177887 3.123609 
251.124863 0.105466 
251.778214 0.046797 
253.005341 0.162019 
255.232559 0.072468 
257.150635 0.131356 
258.808258 0.043084 
260.265625 0.039735 
260.541718 0.075138 
263.902527 0.131348 
264.909882 0.148987 
267.727173 0.116883 
268.97821 0.133497 
270.26532 0.060532 
270.899689 0.502107 
273.007385 0.108261 
275.162323 0.086579 
275.200409 0.324992 
279.131226 0.050258 
279.917236 0.623934 
281.911591 7.011737 
282.137512 0.054012 
282.91864 0.344256 
283.26297 3.069034 
283.916077 0.093959 
284.153381 0.787643 
284.266693 0.760805 
285.009308 0.906604 
286.894287 3.886411 
287.895416 0.613485 
290.947632 0.170463 
291.052765 0.050121 
293.226929 0.084825 
295.276001 0.06354 
295.927338 0.067203 
299.061401 3.747602 
300.061951 0.630655 
300.149017 0.049046 
301.059174 1.690198 
302.059814 0.253308 
302.163788 0.216425 
302.197235 0.104819 
303.056885 0.171631 
303.602539 0.134526 
304.893616 0.942468 
305.906952 0.042584 
306.893005 0.212512 
311.293915 0.138924 
311.832397 0.053662 
312.839783 0.05114 
313.197479 0.113096 
313.235016 1.270148 
313.273468 0.117555 
314.98053 0.112944 
316.101074 0.31983 
316.223328 0.101784 
317.313416 0.066241 
317.821381 0.549906 
319.110535 0.131366 
319.832947 0.052446 
320.919952 0.461127 
322.914062 5.23735 
323.917297 0.168681 
328.905273 0.231227 
329.243042 0.100036 
329.841858 0.051209 
330.920227 2.663038 
331.923218 0.232506 
332.93808 0.049067 
333.835785 1.345269 
334.84317 0.100856 
335.830688 9.884557 
336.83783 2.427528 
344.829681 0.048035 
344.976349 1.556838 
345.230347 0.05332 
345.974701 0.045954 
346.82547 0.045656 
346.886505 0.06433 
348.886169 0.073377 
349.847656 0.198871 
350.946259 7.431446 
351.845825 10.581012 
351.947388 1.019268 
352.849365 0.322514 
352.946198 0.059279 
353.199493 0.281791 
353.841095 53.648399 
354.805725 0.200817 
354.843689 5.000861 
355.845612 0.368412 
358.843323 0.233571 
359.02832 3.238553 
359.83194 0.243142 
360.029327 0.357876 
360.838562 7.373463 
361.026062 0.047847 
361.840179 3.950685 
362.2966 0.10463 
362.84137 11.727299 
363.843964 0.588857 
364.896667 0.591937 
364.962646 1.156924 
365.104767 3.054149 
365.219116 0.050114 
365.863464 0.051766 
366.268616 0.057158 
366.898163 0.093006 
367.356659 0.432097 
367.856964 2.135148 
369.85733 1.397574 
371.851807 10.819291 
372.81546 0.439424 
372.853943 0.159861 
375.169586 0.049834 
375.846832 0.3811 
375.954407 0.078324 
376.853851 0.047349 
377.841125 5.660623 
378.848785 3.912575 
379.851379 1.348108 
380.851349 6.599422 
381.856323 0.103522 
385.171875 1.328154 
386.175903 0.095481 
393.857544 0.101801 
394.299194 0.121046 
394.442505 0.047768 
394.843811 2.015126 
395.809052 0.182612 
395.851715 4.491224 
397.814758 0.102464 
403.182831 0.237726 
410.950073 0.792667 
411.951996 0.051843 
412.855621 0.207547 
413.818604 0.607942 
419.851959 0.049271 
421.855133 2.931597 
423.235413 3.247102 
427.834808 0.046153 
428.248047 0.226447 
430.810669 0.41508 
431.818512 0.530434 
434.317413 0.044252 
439.866119 0.816402 
447.347351 0.522249 
448.352325 0.045055 
453.320618 0.109146 
455.262115 0.786952 
467.173004 0.04845 
469.227112 0.045823 
471.243317 0.231201 
471.815277 0.056204 
472.200928 0.050076 
483.267731 1.158096 
483.32431 0.337621 
483.364441 1.72732 
484.292511 5.778943 
484.32959 0.530947 
484.368011 3.920626 
484.409698 0.209819 
484.449402 0.088163 
484.486053 0.090063 
485.111877 58.528332 
485.182587 0.182932 
485.246918 1.355039 
485.295044 1.002898 
485.349884 4.146223 
485.3815 55.837124 
486.112427 25.524324 
486.251129 0.534532 
486.35083 1.234842 
486.384918 15.013064 
486.427917 0.069465 
486.466736 0.57105 
486.503571 0.625675 
487.110748 10.926355 
487.229675 0.124288 
487.288879 1.97368 
487.32373 9.237846 
487.359161 100.0 
END IONS

