BEGIN IONS
PEPMASS=477.107
CHARGE=1+
COMPOUNDNAME=MoNA:992533 Chlortetracycline
LIBRARYQUALITY=3
SMILES=N/A
INCHIKEY=DHPRQBPJLMKORJ-UHFFFAOYSA-N
INCHI=InChI=1S/C22H23ClN2O8/c1-21(32)7-6-8-15(25(2)3)17(28)13(20(24)31)19(30)22(8,33)18(29)11(7)16(27)12-10(26)5-4-9(23)14(12)21/h4-5,7-8,15,26-27,30,32-33H,6H2,1-3H3,(H2,24,31)
MSLEVEL=2
SOURCE_INSTRUMENT=LC-ESI-QFT-LC-ESI-QFT
FILENAME=output_mgf.mgf
SEQ=*..*
IONMODE=
ORGANISM=MONA
NAME=MoNA:992533 Chlortetracycline [M-H]-
PI=MoNA
DATACOLLECTOR=MoNA
PUBMED=N/A
SUBMITUSER=mwang87
TAGS=
SPECTRUMID=CCMSLIB00000569825
SCANS=7076
67.0068 0.12055 
84.0091 0.172436 
99.0087 0.197944 
100.0767 0.153763 
109.0294 0.205148 
124.004 0.182765 
125.072 0.684254 
126.0197 0.193788 
126.0559 0.278314 
126.9952 0.208598 
135.0087 0.227975 
136.0405 0.444254 
142.0145 1.767138 
142.9984 0.295381 
152.0354 0.30626 
154.0384 0.148243 
161.0245 0.17044 
162.0196 0.183225 
163.0037 0.412356 
166.0873 0.113094 
169.006 1.348585 
169.0618 1.634781 
170.9854 0.195594 
175.0401 0.570735 
180.0302 5.244247 
181.0383 0.136845 
191.0351 0.163435 
192.0667 0.172036 
193.0061 0.136385 
193.0506 0.163151 
194.9853 2.886105 
195.0217 0.533728 
197.001 6.610243 
206.013 0.227608 
207.0218 0.64249 
207.993 0.129074 
209.0932 2.715743 
221.0375 6.46051 
223.0167 1.214599 
235.0167 0.37051 
235.0531 1.3114 
236.0929 1.158658 
245.0372 0.762917 
247.0168 0.173805 
248.0245 0.650549 
251.0119 0.157247 
253.0506 0.141275 
257.0372 0.222003 
259.0155 0.204714 
259.0534 0.137419 
261.0325 0.117089 
263.048 3.75696 
265.0271 0.126811 
271.0169 0.198797 
271.0532 0.198913 
273.0324 0.12928 
275.0486 0.254412 
279.0065 0.492103 
279.0988 0.189834 
285.0319 0.583664 
287.0122 0.169773 
287.0486 0.12825 
288.0797 0.129378 
289.0272 1.760342 
290.0355 0.144885 
291.0433 0.19197 
299.0482 0.496422 
301.0278 0.206199 
303.043 0.852303 
305.0224 1.262632 
306.09 0.129156 
307.0379 8.514843 
309.0329 0.133067 
312.02 0.186079 
315.0437 0.175662 
319.0382 0.978698 
325.0276 0.483766 
327.0074 0.265214 
327.0432 1.261975 
329.0222 1.01191 
331.0373 0.208379 
332.0695 0.127302 
342.0544 0.600633 
343.038 1.003485 
345.0182 0.284939 
345.0537 0.682501 
347.0325 2.247177 
348.1009 0.614963 
353.0221 0.597257 
354.0892 0.332269 
356.0088 0.384152 
356.0694 0.115826 
356.1137 0.166514 
359.0336 0.208926 
360.0649 0.640943 
369.0171 0.489554 
370.0328 0.13527 
370.0855 0.558655 
371.0327 3.262842 
372.1012 1.06032 
373.0122 0.274587 
374.0796 0.793102 
387.0276 1.902898 
388.0959 2.043406 
389.0434 3.842141 
390.1108 0.718709 
392.0908 100.0 
397.012 0.44684 
398.0807 0.436774 
399.9992 0.612336 
404.0538 0.143269 
405.1212 0.152884 
414.0378 0.28998 
415.0226 4.250895 
415.107 0.268427 
416.0906 2.080699 
432.0512 0.287335 
434.1011 4.226993 
442.0699 0.323905 
459.0965 0.526171 
460.0804 5.698128 
477.1072 0.472836 
478.0914 0.456804 
END IONS

