BEGIN IONS
PEPMASS=600.337
CHARGE=1+
COMPOUNDNAME=destruxin A
LIBRARYQUALITY=3
SMILES=N/A
INCHIKEY=XIYSEKITPHTMJT-UHFFFAOYSA-N
INCHI=InChI=1S/C29H47N5O7/c1-9-12-21-27(38)34-16-11-13-20(34)26(37)31-23(18(5)10-2)28(39)33(8)24(17(3)4)29(40)32(7)19(6)25(36)30-15-14-22(35)41-21/h9,17-21,23-24H,1,10-16H2,2-8H3,(H,30,36)(H,31,37)
MSLEVEL=2
SOURCE_INSTRUMENT=N/A-ESI-QFT
FILENAME=library_mgf.mgf
SEQ=*..*
IONMODE=positive
ORGANISM=MONA
NAME=destruxin A [M+Na]+
PI=MoNA
DATACOLLECTOR=MoNA:VF-NPL-QEHF017773
PUBMED=N/A
SUBMITUSER=mwang87
TAGS=
SPECTRUMID=CCMSLIB00004708836
SCANS=17773
50.427387 0.002276 
50.473518 0.005456 
50.791145 0.005344 
51.358025 0.002027 
51.472095 0.004133 
51.528069 0.001931 
51.601379 0.002778 
51.797344 0.005076 
52.305771 0.008741 
53.088226 0.002685 
53.696743 0.004724 
53.930325 0.002554 
54.238434 0.007054 
54.35601 0.003528 
56.027527 0.002387 
56.488186 0.005463 
56.52129 0.008648 
56.74614 0.00401 
57.028072 0.003069 
57.1078 0.003672 
57.396229 0.006555 
57.681507 0.005023 
58.06543 0.008573 
58.426971 0.002243 
58.579514 0.007536 
58.711964 0.005175 
58.74284 0.004136 
58.791283 0.006241 
58.90374 0.005028 
58.929451 0.006898 
59.311646 0.003982 
59.385872 0.001708 
60.413452 0.007773 
60.448067 0.0069 
60.70303 0.005266 
62.368252 0.002341 
62.942219 0.004748 
62.983128 0.007899 
63.080292 0.001985 
65.140205 0.004652 
65.241135 0.007041 
65.362122 0.003985 
66.001251 0.002911 
66.239494 0.007028 
66.665108 0.002561 
66.740189 0.001862 
66.846207 0.005448 
67.890167 0.00467 
68.461075 0.007385 
69.375229 0.001764 
69.582947 0.004295 
69.735542 0.006599 
69.776642 0.004826 
70.211998 0.004623 
70.371117 0.004558 
70.520187 0.004228 
72.123055 0.007059 
72.586586 0.002405 
72.770821 0.004518 
72.99382 0.003984 
73.530594 0.003613 
73.802078 0.002074 
74.362381 0.006081 
74.532631 0.007172 
75.677254 0.008124 
75.887299 0.007083 
76.029686 0.004727 
77.121719 0.004485 
78.792992 0.008036 
79.743057 0.004755 
80.092644 0.002717 
80.620102 0.00343 
81.203491 0.005443 
81.27272 0.007206 
82.326111 0.007137 
84.576279 0.002239 
84.991585 0.007359 
86.096428 0.458462 
86.116455 0.0088 
87.068871 0.005267 
87.555565 0.007022 
87.6922 0.005958 
88.099136 0.005822 
88.704346 0.006007 
89.462288 0.005619 
91.750069 0.004821 
92.372253 0.003906 
93.440788 0.007193 
93.492104 0.004257 
94.079178 0.002971 
94.573776 0.008513 
94.738152 0.007208 
95.00087 0.006757 
95.175819 0.006264 
95.475304 0.007324 
95.828339 0.002155 
96.263245 0.005193 
97.382675 0.002836 
98.483856 0.001965 
98.511032 0.005213 
99.837692 0.004113 
99.995941 0.003433 
100.373909 0.007097 
100.556732 0.004712 
100.639435 0.003628 
100.67382 0.003995 
100.695869 0.007402 
101.460953 0.002112 
102.455406 0.003913 
102.541077 0.00275 
104.036484 0.002535 
104.772385 0.006949 
105.268707 0.008264 
107.249168 0.005919 
107.282776 0.002012 
107.885002 0.004495 
109.21154 0.006097 
109.488045 0.003958 
111.346725 0.003978 
111.921684 0.003461 
114.95195 0.004081 
115.115974 0.003033 
115.172752 0.002901 
117.189003 0.005315 
119.019615 0.00741 
119.819496 0.006056 
120.313835 0.005524 
121.789848 0.004193 
122.313377 0.002446 
122.381653 0.00398 
124.639732 0.002485 
124.644272 0.002028 
125.036636 0.007554 
126.523392 0.007653 
128.401642 0.006307 
128.859802 0.003564 
129.058136 0.003805 
129.797913 0.006387 
130.710342 0.007709 
131.000381 0.004128 
131.052094 0.002029 
132.973541 0.008605 
135.32048 0.005059 
139.09906 0.005519 
142.324036 0.001889 
142.36113 0.005017 
144.834778 0.004206 
145.966049 0.004097 
148.391098 0.007146 
150.207886 0.048354 
150.741394 0.009452 
150.843063 0.00414 
151.159927 0.009339 
153.171814 0.002118 
157.885895 0.002862 
158.009476 0.004823 
158.350311 0.002812 
158.759842 0.003895 
159.098816 0.005811 
159.164474 0.005022 
163.911469 0.002706 
164.017365 0.002192 
167.055405 0.014555 
167.068359 0.004934 
167.622971 0.003903 
168.101883 0.011913 
168.293228 0.008332 
170.36261 0.002313 
172.096329 0.005151 
174.080566 0.004865 
178.086441 0.461386 
179.875275 0.002615 
180.933243 0.00346 
181.816376 0.00373 
182.063187 0.003216 
182.332062 0.002217 
184.675323 0.003352 
190.230438 0.005028 
194.627151 0.003828 
196.35881 0.008466 
197.089859 0.432372 
199.637985 0.007668 
200.068436 0.025305 
201.79361 0.002077 
201.975067 0.007416 
203.466278 0.004929 
208.493851 0.003907 
209.519165 0.003806 
210.306244 0.003553 
210.493347 0.003852 
212.514267 0.493393 
212.529282 0.292781 
213.475311 0.004171 
214.901154 0.006341 
217.094803 0.055852 
218.323242 0.002938 
221.12619 0.126777 
221.220123 0.008417 
225.929062 0.005429 
227.371109 0.008639 
227.911575 0.002429 
232.569626 0.002465 
233.938049 0.005297 
234.316147 0.005911 
235.106354 0.003074 
235.141632 0.014264 
238.153046 0.035476 
239.218079 0.008101 
248.330292 0.003791 
251.948227 0.00214 
252.779205 0.002934 
259.86145 0.002152 
263.175629 0.055091 
268.858337 0.004508 
272.695038 0.007127 
274.473358 0.003187 
275.98111 0.002547 
276.407196 0.002323 
279.131683 0.162136 
281.949646 0.003041 
285.157318 0.854787 
286.161072 0.025739 
289.356964 0.007811 
290.736328 0.003001 
291.169342 0.012227 
293.561188 0.00718 
298.933014 0.007503 
304.370636 0.002606 
308.65451 0.155279 
309.024017 0.002479 
309.156067 0.315443 
309.657288 0.236641 
310.173737 1.887572 
310.65097 0.133919 
311.15509 0.02571 
311.177124 0.218254 
314.395844 0.002049 
317.109375 0.019871 
319.263031 0.002609 
322.915039 0.0059 
326.18338 0.012314 
328.16333 0.194995 
330.535126 0.003075 
331.16272 0.472011 
332.166901 0.018157 
335.641052 0.004568 
335.848083 0.002331 
342.178497 0.008593 
344.194397 1.199436 
345.198029 0.11309 
347.123352 0.004572 
348.848297 0.008437 
349.172058 0.003677 
351.359802 0.004538 
357.17807 0.553088 
358.183289 0.006604 
359.331696 0.0061 
360.83905 0.010809 
374.204895 0.1077 
378.198059 0.003181 
381.254517 0.006929 
382.246887 0.249568 
384.189514 0.464885 
385.194672 0.012509 
386.322449 0.002534 
391.194946 0.068099 
392.764984 0.004539 
393.588806 0.007285 
396.414124 0.010466 
398.242706 0.009026 
402.018524 0.009182 
403.184204 0.048617 
404.254761 0.00891 
407.118164 0.00891 
416.214508 0.027232 
423.257965 0.337332 
424.002747 0.002981 
424.26123 0.012407 
426.236542 0.658559 
427.238159 0.106563 
428.215485 0.025786 
429.96994 0.005229 
430.195526 0.556785 
431.198639 0.037442 
433.242249 0.077508 
434.244446 0.008275 
444.246246 0.035712 
445.243286 0.016769 
449.237488 0.089192 
455.511688 0.002357 
457.243561 0.021927 
457.278137 0.015423 
459.221954 0.249536 
459.25766 0.273904 
460.224548 0.004893 
460.262756 0.015461 
467.302856 0.004565 
469.193146 0.007549 
482.571381 0.008511 
483.294464 0.002403 
486.268799 0.090629 
502.26181 0.009771 
511.289062 0.182936 
512.293579 0.018365 
514.262329 0.004169 
518.295288 0.995962 
519.297546 0.235546 
520.303833 0.011129 
528.24408 0.148359 
528.315369 0.62621 
529.319885 0.082392 
542.260315 0.004234 
543.277039 0.101809 
544.280396 0.008765 
546.886658 0.007087 
549.476868 0.008554 
554.121033 0.007208 
556.346558 0.269193 
557.215393 0.005365 
557.349304 0.015595 
558.925171 0.01043 
560.998169 0.002055 
562.027405 0.005343 
565.823608 0.005807 
571.4151 0.005931 
572.341858 7.09083 
573.34491 2.202159 
574.348328 0.219881 
593.618164 0.003209 
598.523621 0.008093 
599.324829 0.007454 
600.33606 100.0 
601.339355 32.768528 
601.451477 0.0224 
602.342346 4.229994 
620.393188 0.005773 
END IONS

