BEGIN IONS
PEPMASS=321.005
CHARGE=1+
COMPOUNDNAME=MoNA:2870089 Chloramphenicol
LIBRARYQUALITY=3
SMILES=N/A
INCHIKEY=WIIZWVCIJKGZOK-RKDXNWHRSA-N
INCHI=InChI=1S/C11H12Cl2N2O5/c12-10(13)11(18)14-8(5-16)9(17)6-1-3-7(4-2-6)15(19)20/h1-4,8-10,16-17H,5H2,(H,14,18)/t8-,9-/m1/s1
MSLEVEL=2
SOURCE_INSTRUMENT=LC-ESI-QTOF-LC-ESI-QTOF
FILENAME=output_mgf.mgf
SEQ=*..*
IONMODE=
ORGANISM=MONA
NAME=MoNA:2870089 Chloramphenicol [M-H]-
PI=MoNA
DATACOLLECTOR=MoNA
PUBMED=N/A
SUBMITUSER=mwang87
TAGS=
SPECTRUMID=CCMSLIB00000569348
SCANS=6599
105.4466 5.935252 
120.4525 8.273381 
121.0247 4.496403 
122.0053 4.676259 
126.9352 8.81295 
151.0283 21.043165 
152.0347 83.453237 
175.05 3.776978 
176.0322 31.47482 
185.0711 4.316547 
194.0447 74.820144 
194.0765 6.654676 
205.0225 10.071942 
237.0484 3.776978 
237.0621 4.856115 
249.0473 12.230216 
257.0335 68.52518 
260.8936 4.496403 
310.7127 5.755396 
321.0026 100.0 
END IONS

