BEGIN IONS
PEPMASS=321.005
CHARGE=1+
COMPOUNDNAME=MoNA:664263 Amphicol (TN)
LIBRARYQUALITY=3
SMILES=N/A
INCHIKEY=WIIZWVCIJKGZOK-RKDXNWHRSA-N
INCHI=InChI=1S/C11H12Cl2N2O5/c12-10(13)11(18)14-8(5-16)9(17)6-1-3-7(4-2-6)15(19)20/h1-4,8-10,16-17H,5H2,(H,14,18)/t8-,9-/m1/s1
MSLEVEL=2
SOURCE_INSTRUMENT=LC-ESI-QFT-LC-ESI-QFT
FILENAME=output_mgf.mgf
SEQ=*..*
IONMODE=
ORGANISM=MONA
NAME=MoNA:664263 Amphicol (TN) [M-H]-
PI=MoNA
DATACOLLECTOR=MoNA
PUBMED=N/A
SUBMITUSER=mwang87
TAGS=
SPECTRUMID=CCMSLIB00000566230
SCANS=3482
65.9986 0.381247 
71.0137 0.226227 
78.035 7.837811 
79.019 0.447378 
82.9461 11.334426 
84.0091 1.923409 
92.0267 0.452571 
93.0347 1.535306 
105.022 0.608955 
105.0346 0.588217 
106.0299 1.083337 
108.0219 1.199423 
117.0348 1.831695 
121.0296 100.0 
122.0249 3.901589 
123.0331 0.243882 
124.0403 0.963696 
135.0326 2.209946 
136.0405 0.377654 
147.0452 0.546551 
148.0407 1.500125 
151.0275 26.749866 
152.0353 7.177481 
159.0325 2.210466 
161.0357 0.589556 
162.0197 1.045985 
164.0358 0.336272 
END IONS

