BEGIN IONS
PEPMASS=383.053
CHARGE=1+
COMPOUNDNAME=USNIC ACID
LIBRARYQUALITY=3
SMILES=N/A
INCHIKEY=CUCUKLJLRRAKFN-UHFFFAOYSA-N
INCHI=InChI=1S/C18H16O7/c1-6-14(22)12(8(3)20)16-13(15(6)23)18(4)10(25-16)5-9(21)11(7(2)19)17(18)24/h5,11,22-23H,1-4H3
MSLEVEL=2
SOURCE_INSTRUMENT=N/A-ESI-QFT
FILENAME=library_mgf.mgf
SEQ=*..*
IONMODE=positive
ORGANISM=MONA
NAME=USNIC ACID [M+K]+
PI=MoNA
DATACOLLECTOR=MoNA:VF-NPL-QEHF003235
PUBMED=N/A
SUBMITUSER=mwang87
TAGS=
SPECTRUMID=CCMSLIB00004694298
SCANS=3235
51.846714 0.02803 
52.697189 0.051787 
53.155567 0.043546 
53.269131 0.033464 
54.097176 0.033927 
54.510143 0.051897 
54.539783 0.034161 
55.018616 0.313949 
55.055008 4.609342 
55.062706 0.056144 
55.106167 0.028537 
55.98785 0.027916 
56.050259 2.674242 
56.320068 0.035819 
57.034245 2.483024 
57.069191 0.090631 
57.070648 10.473059 
57.072247 0.07705 
57.139297 0.053035 
57.4562 0.035431 
57.80492 0.037139 
58.06588 0.540818 
58.073868 0.103567 
58.740715 0.041977 
59.0499 13.440882 
59.061134 2.989467 
59.369141 0.041466 
60.045101 0.194199 
60.05632 0.039466 
60.081516 0.119115 
60.787418 0.052037 
61.011383 0.723729 
62.009361 0.030162 
62.019203 0.938619 
62.060749 0.107232 
62.965103 0.045826 
62.982452 2.566284 
64.203423 0.043948 
64.892845 0.038546 
65.467545 0.038738 
67.054939 18.63485 
67.05674 0.143689 
67.181549 0.032835 
68.058235 0.648542 
68.477287 0.034583 
69.034187 1.265462 
69.070564 10.909342 
69.855011 0.033576 
70.065804 1.767348 
70.074043 0.290987 
71.049805 3.167591 
71.086189 4.568767 
72.044968 0.229028 
72.081375 0.246799 
72.175278 0.055785 
73.065361 0.351157 
73.651176 0.047888 
74.060745 0.163073 
74.097054 0.117769 
74.725136 0.044399 
74.79644 0.032689 
75.153252 0.056867 
75.796623 0.03695 
76.076332 0.064334 
77.625366 0.053263 
78.290291 0.044055 
79.021812 2.673631 
79.05484 4.544889 
80.049995 0.047432 
80.058273 0.038192 
80.948395 1.884057 
81.019127 8.015583 
81.034027 0.46868 
81.070465 24.533098 
82.022469 0.170387 
82.06575 0.085711 
82.073784 1.323102 
82.945351 0.535634 
83.04966 1.26636 
83.086105 11.691984 
84.045052 0.13341 
84.081306 0.939826 
84.089516 0.27684 
85.029022 0.485893 
85.065323 3.71257 
85.101669 1.942505 
85.647499 0.05238 
86.060539 1.030272 
86.09697 0.410221 
87.044594 1.679097 
87.938316 0.049516 
88.076164 0.11933 
88.997643 0.040279 
89.060242 6.023866 
90.063591 0.177628 
90.091888 0.206223 
90.218018 0.054295 
91.054726 4.96752 
93.070351 11.824401 
93.073578 0.096054 
94.026833 4.634559 
94.065575 0.327889 
94.073677 0.569583 
95.030014 0.198219 
95.034554 0.104787 
95.049538 1.357723 
95.085983 27.009752 
95.08963 0.26261 
96.081322 0.238754 
96.089272 1.927614 
96.922096 0.669432 
96.96003 0.032245 
96.98851 0.037465 
97.065231 4.340199 
97.101616 8.167285 
97.18898 0.034758 
97.296585 0.04527 
98.06031 0.212077 
98.096863 0.537834 
98.104927 0.233152 
99.044472 1.148309 
99.080872 2.519166 
99.092072 0.245373 
100.076065 2.595642 
100.11248 0.471729 
101.003571 1.724828 
101.060074 0.865393 
101.527893 0.035163 
102.05526 0.054541 
102.074829 0.059883 
102.091652 0.052003 
103.03907 0.162791 
103.075691 0.122943 
104.21769 0.048402 
104.932495 0.046706 
104.992584 0.669973 
105.070236 5.926915 
106.073662 0.075706 
107.049431 0.356793 
107.07077 0.06454 
107.085876 11.594231 
107.967056 0.583973 
108.042267 0.673288 
108.089195 0.773604 
109.050049 0.042515 
109.065147 1.628619 
109.083832 0.03582 
109.101486 30.772732 
109.279037 0.039048 
110.096687 1.439329 
110.104752 2.576631 
111.044502 0.116988 
111.08075 4.548801 
111.117096 3.230064 
111.515388 0.032836 
112.075935 0.465269 
112.112251 0.41518 
113.059967 0.723328 
113.096336 0.672811 
114.091606 1.00277 
114.302002 0.058481 
115.075584 2.772427 
115.907028 0.030367 
116.04715 0.06541 
116.053116 0.255007 
116.070778 0.254044 
116.985046 0.101139 
117.055 0.066104 
117.070099 2.869065 
117.091225 2.492003 
118.073311 0.111254 
118.086571 0.056141 
118.971909 0.036414 
119.049309 0.038844 
119.08577 8.883986 
120.003624 0.039876 
120.080933 0.855377 
120.089081 0.578102 
120.142738 0.035957 
120.264198 0.039917 
120.523132 0.054287 
121.039749 0.259741 
121.064964 1.966573 
121.101418 17.837572 
122.057846 0.298061 
122.073006 0.040076 
122.096992 0.054316 
122.104706 1.687853 
123.041748 0.134514 
123.055611 0.055917 
123.080597 2.162564 
123.116997 6.150618 
123.940811 0.705624 
124.013458 0.044068 
124.112282 0.297563 
124.120506 0.164278 
124.242935 0.033519 
125.015472 0.612115 
125.059601 0.211171 
125.096214 3.348014 
125.132759 0.120859 
126.091469 1.293806 
126.12851 0.06217 
127.012512 0.061571 
127.036942 0.396967 
127.075401 0.321882 
127.111961 0.721554 
128.107025 0.81449 
128.143555 0.054335 
128.953476 0.146782 
129.052185 0.088925 
129.069992 0.677608 
129.091125 0.163015 
131.070251 0.116265 
131.085663 7.547399 
132.088928 0.499472 
133.065033 0.068475 
133.085968 1.788452 
133.101181 7.673313 
134.089722 0.046201 
134.096451 0.051841 
134.104553 0.478754 
134.978714 0.098302 
135.003006 0.045127 
135.080551 2.436052 
135.116882 15.021793 
135.122574 0.0774 
136.073395 0.771507 
136.112045 0.803531 
136.120193 1.49423 
137.059601 1.166242 
137.096085 5.199955 
137.132584 2.284192 
137.57312 0.037684 
138.054916 2.840466 
138.091324 0.131278 
138.099319 0.244768 
138.127731 0.287922 
139.050232 1.322031 
139.058212 0.105851 
139.075317 0.647673 
139.111755 2.097824 
139.122864 0.112158 
140.068192 7.396348 
140.106934 8.913494 
140.959122 1.430955 
141.071091 0.172938 
141.091156 0.252757 
141.110168 0.329241 
141.12735 0.467889 
142.122757 0.445847 
142.159088 0.348392 
142.938553 1.633849 
143.085526 1.894802 
143.504501 0.036466 
145.10112 8.446568 
146.104431 0.661267 
147.080414 1.015273 
147.116776 6.417547 
148.120224 0.31943 
149.018585 0.551362 
149.096191 2.779414 
149.132507 8.083815 
149.960724 0.038072 
150.013824 0.332707 
150.08902 1.331235 
150.099396 0.03838 
150.13591 0.560995 
150.951065 1.10066 
151.038895 0.371536 
151.075089 0.174211 
151.111694 1.61516 
151.148117 0.726328 
152.106949 0.557084 
152.742935 0.046792 
152.989258 0.629443 
153.090927 0.524532 
153.127441 0.546197 
153.138519 0.313736 
154.122559 100.0 
154.159134 0.053481 
155.08548 0.167116 
155.106583 1.106013 
155.119385 0.493074 
155.125854 11.186288 
155.878204 0.041292 
156.101883 0.593968 
156.128616 0.107655 
156.138245 0.51816 
156.17511 0.048626 
157.085907 0.048439 
157.101089 2.966743 
157.13356 6.363675 
158.11734 0.046365 
158.136734 0.058887 
159.080673 0.050902 
159.116791 8.652006 
159.511047 0.046021 
160.006393 0.882014 
160.036926 0.383199 
160.120163 1.173798 
160.990112 0.03556 
161.095947 2.007114 
161.132309 4.058816 
162.004196 0.226513 
162.135818 0.213177 
163.074875 0.093249 
163.111664 3.159873 
163.148071 3.398091 
164.104736 0.66647 
164.151566 0.052665 
164.920502 2.031217 
165.054504 0.058449 
165.090683 0.137539 
165.127426 1.252894 
165.771835 0.037143 
166.084198 0.301037 
166.159012 0.19583 
167.106689 0.435503 
167.11792 0.110321 
167.143158 0.461831 
167.95372 0.547993 
168.138245 3.852317 
168.768478 0.047109 
168.810974 0.032877 
168.961761 0.337445 
169.101105 0.132096 
169.12207 0.047725 
170.117554 1.303629 
170.153656 0.064753 
171.062714 20.953812 
171.081589 0.068698 
171.11676 3.454574 
171.149155 43.298782 
171.942352 0.040773 
172.026398 0.061825 
172.066193 1.619474 
172.133301 3.927042 
172.152496 4.856425 
172.974304 2.02241 
173.011475 0.034257 
173.067154 0.045409 
173.078461 3.931632 
173.096207 0.080764 
173.11731 2.436169 
173.132172 5.27923 
174.022263 0.276582 
174.081802 0.045314 
174.135727 0.246282 
174.969803 0.692665 
175.057877 0.231107 
175.096619 0.046193 
175.111649 2.802286 
175.148071 4.171556 
176.001297 0.702892 
176.020523 0.517566 
176.114639 0.113629 
176.152008 0.09862 
176.986465 0.070429 
177.005859 0.083449 
177.054886 0.110682 
177.113525 0.08357 
177.127304 3.130681 
177.163666 0.803516 
177.998703 0.170164 
178.008774 0.053829 
178.017227 1.114474 
178.083954 0.043935 
178.120499 0.415526 
178.130753 0.063812 
178.984222 0.065861 
179.068314 0.157549 
179.106339 0.164441 
179.11554 0.412236 
179.124176 0.067008 
179.143021 0.826738 
179.954361 0.042693 
179.970444 0.19118 
180.014465 0.410022 
180.099457 4.850066 
180.174713 0.339045 
180.894577 0.539135 
181.049332 0.194071 
181.083572 0.05303 
181.102188 0.347926 
181.122177 0.602248 
181.158417 0.448598 
182.153976 6.097779 
183.065048 0.055521 
183.116867 0.406936 
183.137344 0.049582 
183.157593 0.325912 
184.133224 0.327001 
184.169662 0.055048 
184.949722 0.088658 
185.132492 3.693352 
185.16481 0.784312 
185.96434 2.775413 
186.136032 0.289478 
186.148636 0.40187 
187.036346 0.042414 
187.111542 0.132247 
187.148148 2.92134 
187.976608 0.044115 
188.021912 0.062598 
189.005676 0.044649 
189.127411 1.821447 
189.163849 1.66882 
190.01683 0.050821 
190.08638 0.261199 
190.945908 0.03577 
190.98494 1.570029 
191.022491 0.173307 
191.106613 0.184115 
191.143127 0.626097 
191.179321 0.243156 
191.953918 0.043875 
192.014938 0.083476 
192.099808 0.104243 
192.13739 0.196769 
192.961761 1.130558 
192.980453 0.616808 
193.084305 0.648596 
193.122131 0.591727 
193.131287 1.793887 
193.141449 0.051688 
193.158707 1.280293 
193.423309 0.053487 
194.115189 14.556328 
194.153793 0.085139 
194.999893 0.098774 
195.062988 3.372904 
195.099319 1.725506 
195.118271 1.857237 
195.137924 0.495375 
195.175079 0.063846 
195.185898 0.120687 
196.005508 0.038846 
196.094498 0.685086 
196.169571 9.970136 
197.131897 0.224335 
197.173111 0.725147 
198.148895 0.212244 
199.112122 0.124283 
199.148087 2.212153 
199.180664 1.2733 
200.152893 0.060763 
201.127457 0.206251 
201.163849 1.438402 
202.428589 0.0399 
203.143097 1.107335 
203.179337 0.550251 
204.032135 0.036874 
204.96344 0.056365 
205.122192 0.055631 
205.158813 0.542808 
205.92569 0.041073 
205.970123 0.052526 
206.153214 0.310715 
206.977692 0.911712 
207.064484 0.112067 
207.098785 0.034521 
207.138382 0.247035 
207.17424 0.072735 
208.130859 4.826073 
208.169617 0.042175 
208.995346 0.159665 
209.033463 1.515496 
209.04393 0.455485 
209.115311 0.695608 
209.134033 0.298888 
209.153717 0.350626 
209.190445 0.077011 
209.201248 0.993993 
210.109909 4.476639 
210.185135 87.923798 
210.972 0.796605 
211.094315 0.475973 
211.11412 0.094264 
211.148605 0.516616 
211.170959 0.303413 
211.188736 15.1405 
212.164612 1.64023 
212.191513 0.722731 
213.073395 4.191025 
213.10994 0.081746 
213.146179 0.525846 
213.16391 1.427187 
213.195908 1.452993 
214.173843 1.89472 
214.183258 1.314111 
214.378296 0.052375 
215.126404 1.484321 
215.14035 0.263413 
215.17926 0.080353 
217.08107 0.652448 
217.105118 0.072576 
217.158524 1.32172 
217.195374 0.135279 
217.969345 0.298363 
218.076279 0.055027 
219.065308 0.053118 
219.097061 0.243476 
219.138474 0.061025 
219.174377 0.823487 
220.131317 0.186207 
220.168854 0.047745 
221.044312 0.217947 
221.080734 0.049282 
221.152985 0.276862 
221.174271 0.052067 
222.111023 0.066479 
222.146271 4.030945 
223.036011 0.716066 
223.094147 0.042653 
223.130768 0.06494 
223.149643 1.298848 
223.1689 0.386512 
223.963409 0.039834 
224.125626 1.057353 
224.201248 0.182033 
225.005493 2.98974 
225.081329 0.053954 
225.109894 0.04563 
225.164124 0.113843 
225.931946 0.084777 
226.075043 2.346086 
226.141235 0.132415 
226.180191 1.282819 
226.216278 0.068169 
227.006042 9.563484 
227.044739 0.192569 
227.058975 0.427724 
227.126114 0.092078 
227.179443 0.521908 
227.211823 9.030557 
228.090454 1.829549 
228.195724 1.720956 
228.215256 1.586469 
229.00087 0.243851 
229.037216 0.058929 
229.074615 0.171874 
229.158752 0.213707 
230.048431 0.220751 
230.998474 0.038671 
231.174225 1.143804 
231.940857 0.046189 
232.091751 3.282053 
232.130707 0.286871 
232.946411 0.139105 
233.035919 0.063803 
233.080658 0.281829 
233.095413 0.049547 
233.153229 0.098935 
233.189926 0.41457 
234.108017 0.055454 
234.14682 0.056506 
234.184937 0.085316 
235.060043 0.150712 
235.169174 1.212136 
236.125778 0.24531 
236.162399 0.086433 
237.185013 0.315923 
238.14122 0.364651 
241.021545 0.226645 
242.106018 0.157294 
242.211411 1.267428 
244.085403 26.16864 
245.0168 1.590278 
245.047165 0.835705 
245.069366 5.413669 
245.08902 2.352638 
245.189926 1.720998 
245.228409 0.048468 
246.072739 0.079011 
246.101669 1.325751 
246.960617 0.040077 
247.047394 1.409972 
247.169144 0.169146 
247.205215 0.045753 
247.92894 0.138711 
248.042786 2.788017 
248.162033 0.232545 
248.199738 0.091316 
248.936691 0.052846 
248.987854 0.107521 
249.043533 0.386 
249.183899 0.993073 
249.195343 0.391921 
250.037903 0.610836 
250.140991 0.382778 
250.177444 3.531631 
250.894089 0.728011 
250.957367 0.085097 
251.124588 0.037098 
251.181015 0.385119 
252.158127 0.043964 
254.136429 0.216331 
256.121857 1.859102 
258.101044 1.193052 
259.060211 0.162144 
259.086304 0.03219 
260.116516 0.056716 
261.075653 0.472202 
261.183594 0.047426 
262.095978 9.113766 
262.215424 0.039285 
262.992401 0.045048 
263.08017 5.484019 
263.097107 0.345133 
263.200165 1.953181 
263.901123 0.287314 
264.083008 0.102972 
264.157288 0.340459 
264.192749 0.284102 
264.908691 0.220166 
265.058044 0.522425 
265.939941 0.049037 
266.13623 0.326995 
266.172729 3.296118 
267.053101 0.047171 
267.083893 0.637938 
267.114319 0.1938 
267.136719 0.043551 
267.175476 0.071722 
269.034668 0.07917 
269.070404 0.355494 
269.135742 0.089669 
269.225891 0.063581 
270.078522 0.062407 
270.137085 0.24871 
271.059479 0.851904 
272.936768 0.046255 
273.075562 1.913219 
273.257996 0.101465 
273.94397 0.103265 
274.132385 0.971895 
274.893616 0.42797 
275.172668 0.086689 
275.200012 0.052135 
276.112 0.079813 
276.725525 0.046729 
276.908478 0.045879 
277.095551 0.040142 
278.172485 0.214529 
279.167694 1.120661 
280.262024 0.046368 
281.065643 0.053985 
281.099518 3.406801 
281.911713 5.27281 
282.204041 0.161246 
282.916687 0.051917 
283.20578 0.044251 
283.241608 1.003301 
283.262115 0.175335 
284.152863 0.743179 
284.244843 0.113865 
285.221619 0.062421 
285.258453 0.056106 
287.091309 0.740494 
287.20163 0.052497 
287.236633 0.79414 
288.088806 0.268869 
288.153015 0.236934 
289.038239 0.779743 
290.925537 1.338762 
290.947235 1.123329 
291.086029 2.112979 
292.09845 0.29175 
292.187866 0.103236 
292.2258 0.055117 
292.633881 0.051062 
293.032715 0.046725 
293.184387 0.08542 
293.225922 0.225847 
294.167572 0.27684 
295.145355 0.091844 
297.074036 0.047555 
297.147003 0.079172 
298.199432 0.049253 
298.960632 0.071318 
299.022736 1.103676 
299.055115 0.255224 
299.109467 3.391946 
299.195251 0.042305 
300.148865 0.032904 
300.269165 0.049885 
301.212769 0.917304 
301.252441 6.6375 
302.163971 0.241913 
302.214233 0.040247 
302.255493 1.74301 
303.086517 0.101125 
303.232361 0.232453 
303.267883 0.59373 
304.107269 0.113085 
304.964294 0.039295 
304.983704 2.268537 
305.048706 0.060243 
305.07254 0.092304 
305.101898 0.262929 
305.247314 0.259217 
306.10321 0.233505 
306.203857 0.324612 
306.961761 0.916329 
307.04837 1.81099 
308.183563 0.062226 
308.220093 0.056121 
308.957764 0.115969 
309.20343 0.591822 
310.91449 0.249958 
311.039948 0.179331 
311.075226 0.09888 
311.236603 7.09826 
312.043091 0.0416 
312.240204 2.09605 
313.000397 0.043854 
313.038849 0.045056 
315.070862 0.03469 
315.23175 0.308329 
316.120483 0.04891 
317.032776 3.995292 
317.227356 0.505065 
318.036224 0.109348 
318.205261 0.053434 
318.278748 1.051536 
319.06601 1.414553 
319.1987 2.42614 
319.221222 0.041762 
319.262695 3.675125 
320.116302 0.273734 
320.18335 1.329284 
320.201721 0.11936 
320.222015 0.097345 
320.26651 0.441982 
321.118835 0.936385 
321.214783 1.43432 
321.236694 0.039872 
321.966644 0.065331 
322.113861 1.585356 
322.310394 0.927734 
322.914398 3.225952 
322.993683 0.729307 
323.056122 0.828045 
323.091766 0.859998 
323.117126 0.145891 
323.147827 0.15821 
323.175323 3.636024 
323.908264 1.484828 
324.114319 0.65941 
324.178284 0.569078 
324.214996 0.049053 
324.325378 2.867518 
324.973083 0.709162 
325.071136 0.27193 
325.328339 0.209699 
327.077667 20.698547 
327.20697 0.060145 
328.081207 3.52473 
328.263123 4.090224 
329.084961 0.091302 
329.246979 28.131029 
330.040527 0.57521 
330.250458 8.565842 
331.012085 0.302811 
331.048523 0.810762 
331.257324 0.406582 
332.219269 0.920219 
333.063812 0.448953 
335.043549 25.868465 
335.294312 0.661957 
336.047058 3.478765 
336.325806 0.097286 
337.040161 0.046425 
337.077362 0.917794 
338.305328 0.721564 
339.07196 0.239896 
341.03299 0.135191 
341.065399 0.276803 
341.128784 0.995079 
342.130035 0.086191 
343.066284 0.271499 
346.199036 0.323269 
346.273621 5.578079 
347.256653 11.410808 
348.051544 0.1648 
348.21463 1.158648 
348.260925 3.364436 
348.284088 0.097018 
349.058746 1.792541 
349.209595 30.742552 
349.25119 0.227097 
350.061798 0.088265 
350.192322 2.021553 
350.21051 6.006841 
350.233124 6.759661 
350.266083 1.551857 
351.073547 0.546452 
351.175842 0.196023 
351.225952 19.094145 
351.265442 0.505418 
352.102448 0.18994 
352.172607 0.613673 
352.207489 1.681975 
352.229645 2.577469 
353.05365 7.916562 
353.351959 0.171862 
354.057343 0.696178 
355.048187 2.139067 
355.201233 0.726348 
356.051758 0.066901 
357.083252 0.117603 
358.083038 0.057699 
359.04361 0.621872 
363.300354 0.381812 
364.082611 0.988486 
364.209167 0.523442 
364.246033 1.970157 
364.284393 1.591183 
364.393799 0.039749 
365.080078 2.401326 
365.24585 0.249698 
365.284271 0.149897 
365.350372 0.066043 
366.08548 0.040065 
366.227264 0.073504 
366.373718 0.077335 
367.066925 1.41165 
368.069489 0.187453 
368.969147 0.454217 
369.082977 0.100754 
371.138885 0.628102 
373.058899 3.979928 
374.062927 0.347814 
375.093964 0.067569 
378.364075 0.059962 
381.105865 1.246119 
381.130341 6.50526 
381.186768 1.318707 
381.261414 30.825212 
381.308899 0.069766 
382.092255 0.038516 
382.133331 2.979323 
382.189514 0.55165 
382.219421 8.99209 
382.26181 12.656947 
382.292328 0.156036 
382.346985 1.163768 
382.403992 6.824755 
382.439484 2.153078 
383.043793 1.306076 
383.096344 0.339981 
383.136047 0.624727 
383.166718 0.711588 
383.198364 6.858518 
383.241913 1.553088 
383.276306 7.341488 
383.312866 15.888939 
383.361328 0.214365 
383.406799 1.904862 
383.443329 0.310358 
384.140991 0.115641 
384.175201 0.116457 
384.202087 2.969921 
384.235291 10.000604 
384.280426 1.315733 
384.315277 3.307472 
384.361237 0.84054 
384.385834 0.309094 
384.419312 4.264979 
384.919678 0.039322 
385.076385 1.852397 
385.145844 3.984134 
385.178162 6.383854 
385.217407 0.982122 
385.291779 12.189179 
386.079132 0.077485 
387.075317 0.062699 
391.069855 1.707933 
400.986511 0.068286 
401.054382 2.253322 
402.057983 0.090921 
402.963898 0.192432 
END IONS

