BEGIN IONS
PEPMASS=1202.85
CHARGE=1+
COMPOUNDNAME=MLS001333756-01!
LIBRARYQUALITY=1
SMILES=CC[C@@H]1NC(=O)[C@H]([C@H](O)[C@H](C)C/C=C/C)N(C)C(=O)[C@H](C(C)C)N(C)C(=O)[C@H](CC(C)C)N(C)C(=O)[C@H](CC(C)C)N(C)C(=O)[C@@H](C)NC(=O)[C@H](C)NC(=O)[C@H](CC(C)C)N(C)C(=O)[C@@H](NC(=O)[C@H](CC(C)C)N(C)C(=O)CN(C)C1=O)C(C)C
INCHIKEY=PMATZTZNYRCHOR-CGLBZJNRSA-N
INCHI=N/A
MSLEVEL=2
SOURCE_INSTRUMENT=LC-ESI-qTof
FILENAME=p3-G03_GG3_01_18296.mzXML
SEQ=*..*
IONMODE=Positive
ORGANISM=GNPS-NIH-SMALLMOLECULEPHARMACOLOGICALLYACTIVE
NAME=MLS001333756-01! M+H
PI=Dorrestein
DATACOLLECTOR=VP/LMS
PUBMED=N/A
SUBMITUSER=vphelan
TAGS=
SPECTRUMID=CCMSLIB00000085222
SCANS=2732
47.161377 172.0 
47.231117 152.0 
47.924461 144.0 
48.154854 116.0 
48.174194 108.0 
50.582577 212.0 
50.95842 240.0 
51.319969 148.0 
51.995213 232.0 
52.190594 204.0 
52.210728 140.0 
52.328732 196.0 
54.045967 144.0 
54.509361 212.0 
54.833145 216.0 
56.452988 136.0 
57.614956 92.0 
58.69875 132.0 
59.06226 100.0 
59.932785 220.0 
60.05304 232.0 
60.335644 132.0 
62.18169 144.0 
62.845814 108.0 
62.99897 128.0 
65.188393 236.0 
65.824738 204.0 
66.075279 216.0 
67.816208 128.0 
68.159225 168.0 
68.895752 36.0 
68.965157 176.0 
69.047829 132.0 
69.061066 76.0 
69.287865 204.0 
69.825722 92.0 
71.6875 168.0 
71.942207 148.0 
73.534515 172.0 
73.604515 68.0 
74.656754 112.0 
76.39344 220.0 
77.514412 136.0 
77.688004 156.0 
78.104347 172.0 
80.477516 140.0 
80.534668 152.0 
82.553108 112.0 
83.636299 144.0 
84.366013 140.0 
86.46122 188.0 
86.924538 116.0 
87.043343 148.0 
87.273766 132.0 
87.754166 136.0 
89.758728 140.0 
90.683228 108.0 
92.225037 212.0 
92.996971 204.0 
93.8396 116.0 
94.976776 140.0 
95.083496 164.0 
95.988144 80.0 
96.290649 136.0 
97.705994 192.0 
98.413589 180.0 
98.82077 60.0 
100.038239 456.0 
100.113235 548.0 
100.380119 160.0 
101.114159 176.0 
101.485947 188.0 
101.710648 96.0 
102.032082 164.0 
103.379547 212.0 
103.456467 200.0 
104.579063 228.0 
105.176308 128.0 
105.337631 112.0 
105.450508 184.0 
105.632011 228.0 
105.910408 196.0 
107.083275 200.0 
107.714478 140.0 
107.807457 176.0 
108.252243 176.0 
108.864029 148.0 
109.356781 124.0 
110.055183 232.0 
111.212929 212.0 
113.171494 104.0 
113.988182 132.0 
114.091408 752.0 
114.158249 120.0 
114.98275 68.0 
115.089493 356.0 
115.236877 192.0 
115.861633 68.0 
116.099571 224.0 
116.350632 176.0 
116.614861 76.0 
116.782578 64.0 
117.083908 156.0 
120.852646 204.0 
121.089081 144.0 
121.828323 128.0 
122.446449 148.0 
123.386513 256.0 
124.077293 228.0 
124.367912 160.0 
124.963509 160.0 
125.077011 192.0 
125.094795 204.0 
126.554985 168.0 
127.036865 244.0 
127.9133 216.0 
128.057419 108.0 
128.109985 572.0 
128.307556 100.0 
128.731766 180.0 
128.948654 80.0 
130.476562 40.0 
130.515213 176.0 
131.330536 232.0 
132.107224 124.0 
132.860962 60.0 
134.031311 68.0 
135.0811 204.0 
135.158188 44.0 
136.112198 312.0 
136.303726 188.0 
136.820099 108.0 
136.91832 156.0 
137.078644 156.0 
137.374771 268.0 
138.129333 292.0 
138.60228 204.0 
139.205154 80.0 
139.865845 152.0 
139.882324 76.0 
140.148453 216.0 
140.690948 180.0 
141.572937 176.0 
142.084793 1612.0 
142.191727 164.0 
142.490936 76.0 
143.083481 236.0 
143.626526 220.0 
143.877106 68.0 
144.209152 36.0 
145.61322 228.0 
146.113235 104.0 
146.573135 180.0 
147.589401 128.0 
148.107315 224.0 
148.621292 116.0 
148.737793 216.0 
148.776627 132.0 
150.832748 192.0 
151.623352 152.0 
152.047653 132.0 
153.10524 148.0 
154.098984 128.0 
154.619675 180.0 
154.634033 156.0 
154.818832 220.0 
155.463425 248.0 
156.10025 1808.0 
156.135803 1764.0 
156.159088 424.0 
156.206985 140.0 
156.283478 36.0 
157.100204 780.0 
157.138123 112.0 
158.207825 108.0 
158.821793 172.0 
160.007965 216.0 
165.251923 168.0 
165.799942 88.0 
166.124146 276.0 
167.078735 136.0 
167.109604 160.0 
167.549881 192.0 
167.926239 216.0 
168.097122 224.0 
168.429581 188.0 
169.057877 116.0 
169.132935 196.0 
171.105957 56.0 
171.147171 1620.0 
172.146378 504.0 
172.261307 168.0 
174.281342 212.0 
174.533676 156.0 
176.905655 156.0 
177.955566 200.0 
181.115891 160.0 
182.073441 184.0 
182.11409 176.0 
182.16745 116.0 
182.390503 80.0 
182.976974 172.0 
183.122391 268.0 
183.157623 156.0 
184.133804 468.0 
185.127533 180.0 
186.094482 84.0 
186.129791 224.0 
187.440964 76.0 
191.181854 144.0 
192.121475 116.0 
193.102127 156.0 
193.138077 120.0 
194.112946 1420.0 
194.379303 60.0 
194.848572 192.0 
195.112183 240.0 
195.579971 152.0 
195.652344 152.0 
195.769302 236.0 
196.114777 168.0 
196.884857 148.0 
196.912781 112.0 
197.105545 192.0 
197.552917 188.0 
198.118423 76.0 
198.485611 144.0 
198.665115 140.0 
199.029984 184.0 
199.103012 196.0 
199.142258 2264.0 
199.184464 136.0 
199.214661 128.0 
199.468277 52.0 
199.487961 48.0 
199.678085 52.0 
199.772003 156.0 
199.89299 56.0 
200.14592 360.0 
200.374496 200.0 
200.518204 252.0 
201.087952 104.0 
201.150055 148.0 
203.14798 52.0 
203.610672 124.0 
207.078949 216.0 
207.23938 36.0 
209.091644 136.0 
209.414124 96.0 
209.465973 192.0 
209.647491 92.0 
210.146973 1408.0 
210.313751 56.0 
210.389511 148.0 
210.417679 136.0 
210.452332 40.0 
210.51297 136.0 
210.622726 52.0 
210.784515 44.0 
211.007095 40.0 
211.141006 244.0 
211.212418 172.0 
211.698669 104.0 
212.126785 2480.0 
212.77446 96.0 
213.127014 444.0 
213.198563 92.0 
213.306107 40.0 
214.120834 160.0 
214.377213 88.0 
214.496719 88.0 
215.98587 180.0 
216.63002 196.0 
217.107803 184.0 
217.351288 156.0 
217.38356 128.0 
217.412918 156.0 
218.306015 72.0 
219.165604 164.0 
219.283478 156.0 
220.124298 136.0 
222.736633 144.0 
222.867355 184.0 
223.177841 140.0 
223.983032 204.0 
224.163879 3436.0 
224.24823 184.0 
224.288605 48.0 
224.337646 40.0 
224.373962 112.0 
225.038788 56.0 
225.163925 564.0 
225.259796 44.0 
225.289673 176.0 
225.394241 140.0 
225.492859 64.0 
225.73204 56.0 
225.806808 72.0 
226.111984 116.0 
226.170456 252.0 
226.820007 96.0 
226.95079 124.0 
227.13974 184.0 
227.173752 800.0 
228.130661 152.0 
228.18486 160.0 
228.380341 108.0 
228.897995 264.0 
234.381012 144.0 
236.699554 104.0 
237.156052 144.0 
237.177505 152.0 
238.107208 104.0 
241.187988 736.0 
242.014496 148.0 
242.187836 292.0 
242.541183 156.0 
243.652176 84.0 
243.869705 156.0 
244.638062 156.0 
245.625931 100.0 
246.500153 124.0 
247.648361 96.0 
248.419495 116.0 
249.534439 168.0 
249.701111 208.0 
250.664474 116.0 
250.960785 60.0 
251.172211 520.0 
251.209839 132.0 
252.201126 204.0 
252.331116 272.0 
253.155029 252.0 
253.191833 168.0 
253.70517 84.0 
254.104797 156.0 
254.187302 160.0 
255.203339 144.0 
256.219116 172.0 
257.083252 144.0 
257.153473 184.0 
258.303802 208.0 
258.953583 192.0 
259.197083 180.0 
260.461182 208.0 
261.149048 168.0 
261.789551 136.0 
265.226044 132.0 
267.182312 100.0 
268.586395 72.0 
269.082428 112.0 
269.184418 1204.0 
269.520142 68.0 
269.755463 112.0 
270.15094 240.0 
270.182434 1164.0 
271.185944 300.0 
271.563019 64.0 
271.756561 28.0 
272.508484 96.0 
272.942352 240.0 
278.524628 152.0 
279.167725 196.0 
279.20932 152.0 
279.242584 252.0 
279.954834 76.0 
280.173096 176.0 
281.168365 192.0 
281.722687 160.0 
282.170532 156.0 
283.228058 132.0 
283.791077 188.0 
284.191772 204.0 
284.206207 180.0 
287.906677 72.0 
293.223206 148.0 
294.181732 128.0 
295.203369 140.0 
296.264465 92.0 
297.218903 384.0 
298.208527 2712.0 
298.684662 108.0 
299.208801 428.0 
300.232239 208.0 
300.60379 56.0 
300.700409 64.0 
300.98349 72.0 
301.229797 356.0 
302.227905 160.0 
303.211426 36.0 
303.34314 52.0 
303.599731 64.0 
306.202881 176.0 
307.205811 140.0 
308.212341 256.0 
310.165283 160.0 
311.474182 236.0 
312.225677 256.0 
312.356506 92.0 
312.412781 156.0 
313.224518 216.0 
313.377502 208.0 
313.980286 52.0 
314.544861 88.0 
315.696716 132.0 
316.95343 68.0 
316.995941 100.0 
318.702789 76.0 
319.545502 76.0 
320.19339 72.0 
321.88739 52.0 
322.213379 1256.0 
322.323212 56.0 
322.462585 124.0 
322.920227 48.0 
323.229034 1468.0 
323.997742 176.0 
324.177307 148.0 
324.235626 432.0 
324.560455 92.0 
324.700317 64.0 
325.191895 116.0 
326.238647 268.0 
327.241089 200.0 
327.34903 80.0 
338.088043 96.0 
338.249084 76.0 
339.509521 124.0 
340.223236 952.0 
340.269104 184.0 
340.449036 120.0 
340.540863 144.0 
340.687805 72.0 
341.000153 100.0 
341.216919 464.0 
341.584808 28.0 
341.628937 40.0 
342.215302 140.0 
342.785095 84.0 
343.400787 60.0 
343.54834 112.0 
343.699615 104.0 
344.530396 112.0 
346.798828 108.0 
347.588776 152.0 
349.662537 112.0 
350.195648 176.0 
350.273193 180.0 
351.212555 132.0 
351.477448 100.0 
351.693909 60.0 
352.721161 68.0 
353.214294 128.0 
353.220093 140.0 
353.289581 152.0 
354.232971 168.0 
354.269867 528.0 
354.469025 28.0 
354.55899 72.0 
354.832611 40.0 
355.233185 124.0 
355.246246 112.0 
355.284729 268.0 
356.240021 140.0 
356.281342 212.0 
359.481903 84.0 
361.908783 80.0 
363.846283 60.0 
364.290619 176.0 
364.332428 80.0 
365.264648 152.0 
365.709015 84.0 
366.237793 148.0 
366.383057 212.0 
367.244598 204.0 
368.21225 276.0 
368.286316 500.0 
369.03952 56.0 
369.216522 140.0 
369.246033 156.0 
369.285675 184.0 
369.32251 32.0 
370.244934 132.0 
371.256714 228.0 
371.686371 148.0 
371.809174 128.0 
372.269897 208.0 
373.088318 120.0 
373.315186 68.0 
374.296509 116.0 
374.758728 108.0 
374.847351 68.0 
378.24234 200.0 
378.288788 152.0 
379.280487 96.0 
380.238556 112.0 
380.285126 140.0 
381.22113 156.0 
381.248322 152.0 
381.322174 192.0 
381.497101 248.0 
381.582642 128.0 
382.270172 132.0 
383.225159 100.0 
383.270508 132.0 
384.254517 128.0 
384.851715 44.0 
387.448792 40.0 
388.271973 76.0 
388.927246 104.0 
392.30246 128.0 
393.225494 92.0 
396.314117 200.0 
396.706482 136.0 
396.833344 136.0 
397.277283 900.0 
397.690277 80.0 
397.741852 64.0 
397.952271 88.0 
398.278229 260.0 
398.500427 88.0 
398.583862 52.0 
398.862061 52.0 
398.917725 60.0 
398.949524 60.0 
399.287537 164.0 
399.506287 212.0 
400.569214 48.0 
401.007538 120.0 
401.81308 72.0 
401.841003 48.0 
407.303711 188.0 
408.287659 140.0 
410.344238 128.0 
411.268066 116.0 
418.602478 76.0 
419.311371 108.0 
424.30896 252.0 
424.638916 140.0 
424.839905 92.0 
425.061493 124.0 
425.309357 2588.0 
425.52533 44.0 
425.558167 84.0 
425.693665 60.0 
426.316864 668.0 
426.453766 60.0 
426.868988 32.0 
427.305267 132.0 
435.296326 276.0 
436.285858 136.0 
439.335236 236.0 
440.28186 164.0 
440.321991 84.0 
440.977966 52.0 
442.207672 44.0 
442.337433 128.0 
442.86087 112.0 
443.338501 128.0 
444.339966 116.0 
445.978485 116.0 
447.909943 188.0 
448.554657 116.0 
449.060669 64.0 
449.312164 636.0 
449.362701 128.0 
449.820221 88.0 
449.942657 32.0 
450.23822 124.0 
450.310333 308.0 
451.328522 140.0 
452.945251 48.0 
453.301178 116.0 
454.280609 128.0 
454.314331 148.0 
455.295105 236.0 
462.07724 64.0 
462.179932 44.0 
462.449524 188.0 
464.339081 132.0 
465.287415 164.0 
466.339905 136.0 
467.320557 568.0 
467.367767 156.0 
467.45813 88.0 
467.681915 48.0 
468.313629 272.0 
469.330444 68.0 
469.822327 64.0 
470.544434 88.0 
477.307556 132.0 
477.386627 128.0 
478.326416 168.0 
480.361511 148.0 
480.527283 68.0 
482.304749 96.0 
483.336884 76.0 
484.352631 148.0 
488.030426 172.0 
491.351746 124.0 
491.395599 252.0 
492.291687 124.0 
493.666077 120.0 
494.334106 176.0 
495.308167 128.0 
496.346039 500.0 
497.356689 156.0 
507.076202 96.0 
509.397736 172.0 
510.360931 100.0 
510.474792 136.0 
510.726654 48.0 
511.361115 140.0 
513.365967 160.0 
514.430847 56.0 
520.345642 168.0 
522.36145 48.0 
523.403198 136.0 
524.380798 684.0 
525.369019 168.0 
525.38208 256.0 
525.436646 128.0 
527.372375 108.0 
528.388123 120.0 
530.682861 124.0 
533.635193 148.0 
534.403137 152.0 
537.066162 144.0 
538.390747 156.0 
539.401794 140.0 
548.323242 116.0 
548.370422 208.0 
549.396301 376.0 
550.428223 152.0 
550.535645 76.0 
550.829895 164.0 
550.904663 48.0 
551.245728 100.0 
552.406006 344.0 
553.402222 56.0 
554.408447 188.0 
556.769226 64.0 
561.235168 80.0 
561.409668 100.0 
562.406616 176.0 
563.396118 160.0 
564.370544 128.0 
565.439697 156.0 
565.477539 124.0 
566.388245 660.0 
567.045288 44.0 
567.383484 284.0 
568.278259 80.0 
568.399048 124.0 
569.395996 124.0 
570.111267 72.0 
570.206299 88.0 
572.294739 64.0 
572.370911 56.0 
573.619202 32.0 
573.743164 48.0 
575.417847 80.0 
576.369568 328.0 
578.774475 108.0 
579.411499 100.0 
580.415222 420.0 
580.451477 132.0 
581.389893 408.0 
581.443787 152.0 
582.398621 208.0 
585.820435 100.0 
594.412476 140.0 
594.451294 96.0 
595.413208 136.0 
596.471802 144.0 
598.427002 400.0 
599.445251 184.0 
604.446167 112.0 
607.380981 96.0 
608.819092 132.0 
609.412537 148.0 
609.430176 120.0 
617.908997 188.0 
618.44342 176.0 
620.469604 116.0 
620.896057 32.0 
622.638123 152.0 
623.456116 312.0 
624.415466 164.0 
624.449646 120.0 
627.365295 36.0 
628.856812 116.0 
632.115417 164.0 
633.43219 144.0 
635.442627 168.0 
636.476624 124.0 
637.454407 356.0 
638.275574 80.0 
638.460449 516.0 
639.462158 220.0 
640.41449 180.0 
640.530334 44.0 
641.659241 72.0 
643.081848 100.0 
647.484558 156.0 
649.092224 100.0 
649.508118 172.0 
649.609558 36.0 
651.477783 144.0 
652.44342 100.0 
653.440308 120.0 
661.463135 240.0 
662.432556 88.0 
664.497009 88.0 
665.478333 176.0 
666.401917 168.0 
666.494629 100.0 
666.628052 88.0 
667.527649 200.0 
669.266968 88.0 
669.720215 160.0 
674.824158 112.0 
675.471985 856.0 
676.479492 216.0 
676.655823 72.0 
676.717957 68.0 
677.40155 132.0 
677.467163 72.0 
677.536255 108.0 
677.676147 52.0 
678.184021 52.0 
678.370667 80.0 
678.500244 160.0 
678.801025 56.0 
679.462952 116.0 
679.516846 120.0 
680.404358 100.0 
680.456299 84.0 
681.536682 100.0 
685.595703 120.0 
685.778137 96.0 
686.49762 112.0 
687.342712 116.0 
688.292786 128.0 
689.755676 120.0 
690.515198 192.0 
690.796387 112.0 
692.513306 100.0 
693.487793 620.0 
693.613708 100.0 
694.237671 80.0 
694.353027 184.0 
694.493713 1652.0 
694.601562 52.0 
694.704468 68.0 
694.762207 112.0 
695.008789 28.0 
695.495483 308.0 
695.59259 136.0 
696.500671 424.0 
696.794006 168.0 
697.487732 96.0 
698.029297 60.0 
699.476196 88.0 
703.466797 120.0 
703.514343 92.0 
704.480774 136.0 
705.495483 92.0 
707.516418 120.0 
708.496216 44.0 
709.492615 108.0 
710.498108 136.0 
712.060974 148.0 
712.528442 92.0 
713.532959 120.0 
714.575378 104.0 
715.842285 80.0 
716.108582 144.0 
725.524414 108.0 
726.554138 96.0 
728.277344 44.0 
728.465332 128.0 
732.117615 56.0 
733.631714 88.0 
736.517761 120.0 
737.502258 68.0 
737.745544 152.0 
739.146423 136.0 
741.507629 108.0 
743.328552 168.0 
746.029358 208.0 
746.507874 212.0 
750.554504 276.0 
751.513977 116.0 
752.541931 124.0 
757.391113 96.0 
757.566406 64.0 
758.503479 124.0 
762.004883 80.0 
764.506226 128.0 
764.515564 112.0 
764.536743 192.0 
765.519897 84.0 
765.585938 32.0 
770.550537 112.0 
774.284546 52.0 
775.570007 96.0 
776.545898 108.0 
777.588989 112.0 
779.553223 124.0 
780.539001 120.0 
781.568115 124.0 
786.316223 44.0 
788.573059 128.0 
789.564575 124.0 
791.498657 108.0 
791.571472 152.0 
791.627502 56.0 
797.496094 52.0 
802.235962 44.0 
802.567871 156.0 
803.591553 136.0 
806.573486 448.0 
807.579224 400.0 
808.573303 276.0 
809.621155 60.0 
813.618835 132.0 
814.056091 116.0 
814.203735 28.0 
814.260559 136.0 
817.538086 156.0 
817.61499 68.0 
818.599915 156.0 
820.560059 168.0 
821.570496 260.0 
822.605164 420.0 
823.236328 52.0 
823.344788 60.0 
823.609619 128.0 
823.658997 144.0 
823.92749 124.0 
824.593323 108.0 
825.476501 88.0 
826.025574 44.0 
826.677856 36.0 
829.960266 48.0 
831.176392 60.0 
834.599976 76.0 
835.542419 204.0 
835.59845 184.0 
836.584961 80.0 
838.601135 132.0 
839.194946 40.0 
839.587036 152.0 
840.590881 104.0 
841.387451 32.0 
845.537903 80.0 
847.814026 140.0 
848.52124 84.0 
848.585815 88.0 
850.556335 136.0 
851.602722 108.0 
853.212402 128.0 
860.600403 92.0 
861.015076 68.0 
862.797302 52.0 
862.937622 60.0 
863.850037 32.0 
864.643311 136.0 
865.605896 48.0 
866.65448 104.0 
866.924011 52.0 
867.551208 196.0 
867.628357 132.0 
867.990967 72.0 
868.9823 36.0 
877.599304 168.0 
878.59613 160.0 
879.617065 108.0 
880.685852 164.0 
881.631226 148.0 
882.039062 88.0 
887.195374 80.0 
888.612854 120.0 
891.665222 172.0 
901.463074 52.0 
901.690186 100.0 
905.645203 108.0 
906.624878 112.0 
906.675781 176.0 
907.644714 120.0 
910.257324 112.0 
915.627869 92.0 
915.700134 84.0 
919.492554 88.0 
919.667603 52.0 
919.927185 72.0 
920.645691 108.0 
929.235474 60.0 
930.595093 156.0 
932.909912 96.0 
933.67981 136.0 
934.677185 512.0 
934.813721 100.0 
935.00238 96.0 
935.184998 76.0 
935.662292 320.0 
935.7276 212.0 
936.649109 204.0 
937.060669 76.0 
937.633484 160.0 
937.7005 28.0 
937.822449 96.0 
944.172363 120.0 
944.545471 116.0 
944.630859 280.0 
944.676208 140.0 
945.651489 228.0 
946.655396 148.0 
947.631104 136.0 
947.772034 184.0 
948.151978 200.0 
948.642334 180.0 
949.666382 76.0 
952.23822 124.0 
952.674316 80.0 
953.700562 88.0 
955.391663 176.0 
959.659973 84.0 
961.720459 100.0 
962.686096 208.0 
963.665283 100.0 
963.968628 28.0 
964.636108 380.0 
964.680969 128.0 
967.940125 116.0 
969.41449 44.0 
972.608704 132.0 
973.614563 136.0 
975.553284 132.0 
976.175049 44.0 
976.741028 164.0 
977.675842 116.0 
978.035339 88.0 
978.639221 112.0 
978.699341 188.0 
979.112549 80.0 
979.585938 80.0 
979.654419 292.0 
979.711731 224.0 
979.853821 104.0 
980.686218 92.0 
981.642761 156.0 
981.692688 136.0 
986.713074 132.0 
988.736023 156.0 
990.668518 84.0 
992.680542 132.0 
993.684143 124.0 
994.838989 96.0 
995.699219 124.0 
1007.042847 152.0 
1014.104248 80.0 
1015.51825 92.0 
1018.698486 108.0 
1018.774719 88.0 
1019.71521 88.0 
1020.757874 136.0 
1024.946533 108.0 
1025.233276 48.0 
1037.115234 80.0 
1045.291138 68.0 
1045.954102 156.0 
1046.733154 36.0 
1046.829712 92.0 
1052.594971 200.0 
1057.688354 140.0 
1057.780273 172.0 
1058.667358 144.0 
1058.726807 176.0 
1058.829346 76.0 
1059.146729 88.0 
1059.762207 64.0 
1061.78479 136.0 
1062.770874 52.0 
1064.036499 96.0 
1064.380615 48.0 
1071.750122 184.0 
1071.842163 136.0 
1072.070068 136.0 
1072.700806 280.0 
1072.724609 132.0 
1072.743042 240.0 
1072.786499 224.0 
1073.073853 120.0 
1073.767944 104.0 
1074.772827 96.0 
1075.311523 104.0 
1075.738159 100.0 
1076.519287 68.0 
1076.597656 72.0 
1076.706665 132.0 
1076.771973 240.0 
1077.041748 60.0 
1077.21814 84.0 
1077.727783 96.0 
1078.799683 100.0 
1079.734741 60.0 
1079.983276 60.0 
1080.886108 92.0 
1081.448975 88.0 
1084.114746 60.0 
1084.750488 140.0 
1087.772217 144.0 
1088.07666 60.0 
1088.871216 72.0 
1089.774536 292.0 
1089.928955 104.0 
1090.756836 428.0 
1090.973999 44.0 
1091.565796 56.0 
1091.765381 660.0 
1092.788208 116.0 
1094.76416 128.0 
1096.312256 60.0 
1096.391357 72.0 
1096.470459 76.0 
1096.714355 180.0 
1097.274658 56.0 
1099.730591 208.0 
1099.867432 56.0 
1100.765015 240.0 
1101.108765 72.0 
1101.690063 60.0 
1101.752563 240.0 
1102.806885 132.0 
1109.05542 108.0 
1111.85437 124.0 
1117.769165 68.0 
1118.75415 72.0 
1123.73291 60.0 
1126.530273 56.0 
1131.117798 80.0 
1135.936035 112.0 
1136.922485 172.0 
1146.600586 164.0 
1146.829712 120.0 
1149.662476 156.0 
1156.576904 136.0 
1156.861206 100.0 
1157.829468 108.0 
1158.838867 36.0 
1158.906616 76.0 
1159.604614 60.0 
1159.889282 124.0 
1165.413818 96.0 
1170.680664 64.0 
1171.82312 100.0 
1172.797974 104.0 
1173.759277 96.0 
1173.8479 64.0 
1174.884766 100.0 
1174.932495 100.0 
1175.894653 92.0 
1177.424072 36.0 
1179.843018 128.0 
1183.06543 60.0 
1184.846802 708.0 
1185.284546 96.0 
1185.599854 116.0 
1185.840698 436.0 
1186.052246 116.0 
1186.305786 152.0 
1186.436157 68.0 
1186.841919 436.0 
1186.978149 80.0 
1187.039551 172.0 
1187.766479 88.0 
1187.837769 92.0 
1188.315308 32.0 
1188.795654 128.0 
1188.871216 84.0 
1189.883423 132.0 
1190.779907 36.0 
1190.958496 60.0 
1191.453125 48.0 
1192.346436 68.0 
1193.570068 44.0 
1196.384277 88.0 
1197.176147 84.0 
1197.830444 164.0 
1198.22998 88.0 
1199.063843 104.0 
1199.794556 96.0 
1200.860107 108.0 
1201.229004 96.0 
1201.393311 84.0 
1201.456665 124.0 
1201.6698 116.0 
1201.838623 80.0 
1202.464111 84.0 
1202.5802 220.0 
1202.678101 204.0 
1202.852051 2300.0 
1203.026611 120.0 
1203.188965 44.0 
1203.596313 36.0 
1203.845581 1748.0 
1204.003052 144.0 
1204.300781 160.0 
1204.563354 32.0 
1204.696289 128.0 
1204.865234 816.0 
1205.081421 84.0 
1205.188477 92.0 
1205.41748 84.0 
1205.613525 92.0 
1205.856934 284.0 
1206.090454 68.0 
1206.339355 60.0 
1206.429199 36.0 
1206.650513 44.0 
1206.871704 88.0 
1207.224365 56.0 
1207.393188 72.0 
1207.563232 76.0 
1207.729248 56.0 
1208.282715 52.0 
1208.338135 80.0 
1208.718628 84.0 
1208.905518 128.0 
1209.099243 40.0 
1209.445312 60.0 
1209.72229 48.0 
1210.234619 92.0 
1210.546265 108.0 
1210.740112 32.0 
1210.823242 132.0 
1210.900757 64.0 
1211.578247 84.0 
1212.631592 40.0 
1213.359497 36.0 
1213.796387 112.0 
1221.561523 32.0 
1224.815186 152.0 
1224.88208 132.0 
1226.854248 60.0 
1237.789307 48.0 
1275.053955 204.0 
1293.564331 76.0 
1321.084229 160.0 
1325.087891 196.0 
1339.050293 200.0 
1359.808105 108.0 
1361.210327 112.0 
1362.245972 52.0 
1374.173096 84.0 
1395.237549 160.0 
1412.427246 140.0 
1417.698486 156.0 
1432.192017 152.0 
1441.592896 124.0 
1445.525391 164.0 
1462.884277 196.0 
1472.12561 152.0 
END IONS

