BEGIN IONS
PEPMASS=455.0
CHARGE=1+
COMPOUNDNAME=Massbank:KO003959 Ribostamycin|Vistamycin
LIBRARYQUALITY=3
SMILES=NC[C@@H](O1)[C@@H](O)[C@H](O)[C@@H](N)[C@H]1O[C@H]([C@@H](N)2)[C@H](O[C@H](O3)[C@H](O)[C@H](O)[C@@H](CO)3)[C@@H](O)[C@H](N)C2
INCHIKEY=NSKGQURZWSPSBC-VVPCINPTSA-N
INCHI=1S/C17H34N4O10/c18-2-6-10(24)12(26)8(21)16(28-6)30-14-5(20)1-4(19)9(23)15(14)31-17-13(27)11(25)7(3-22)29-17/h4-17,22-27H,1-3,18-21H2/t4-,5+,6-,7-,8-,9+,10-,11-,12-,13-,14-,15-,16-,17-/m1/s1
MSLEVEL=2
SOURCE_INSTRUMENT=ESI-LC-ESI-QQ
FILENAME=Massbank_ESI_positive_8_1_2014_peaks.mgf
SEQ=*..*
IONMODE=Positive
ORGANISM=MASSBANK
NAME=Massbank:KO003959 Ribostamycin|Vistamycin [M+H]+
PI=Putative Massbank Match
DATACOLLECTOR=Massbank
PUBMED=N/A
SUBMITUSER=mwang87
TAGS=
SPECTRUMID=CCMSLIB00000220434
SCANS=9751
80.1 64356.5 
96.0 34653.5 
98.3 69307.0 
102.3 54455.5 
108.0 44554.5 
110.5 19802.0 
114.3 400990.5 
125.9 24752.5 
131.8 14851.5 
143.1 331683.5 
145.2 89109.0 
161.1 1792081.0 
163.3 5188124.0 
165.1 39604.0 
180.7 9901.0 
182.4 24752.5 
187.2 74257.5 
203.0 79208.0 
205.2 153465.5 
239.4 207921.0 
252.9 14851.5 
258.8 19802.0 
259.4 108911.0 
275.1 74257.5 
277.6 89109.0 
288.4 44554.5 
289.3 118812.0 
289.5 34653.5 
290.9 29703.0 
293.7 118812.0 
295.4 940595.0 
301.1 24752.5 
308.7 39604.0 
323.7 227723.0 
455.3 301980.5 
END IONS

