BEGIN IONS
PEPMASS=321.133
CHARGE=1+
COMPOUNDNAME=MYCOPHENOLIC ACID
LIBRARYQUALITY=3
SMILES=N/A
INCHIKEY=HPNSFSBZBAHARI-RUDMXATFSA-N
INCHI=InChI=1S/C17H20O6/c1-9(5-7-13(18)19)4-6-11-15(20)14-12(8-23-17(14)21)10(2)16(11)22-3/h4,20H,5-8H2,1-3H3,(H,18,19)/b9-4+
MSLEVEL=2
SOURCE_INSTRUMENT=N/A-ESI-QFT
FILENAME=library_mgf.mgf
SEQ=*..*
IONMODE=positive
ORGANISM=MONA
NAME=MYCOPHENOLIC ACID [M+H]+
PI=MoNA
DATACOLLECTOR=MoNA:VF-NPL-QEHF011305
PUBMED=N/A
SUBMITUSER=mwang87
TAGS=
SPECTRUMID=CCMSLIB00004702368
SCANS=11305
50.260628 0.003643 
50.489277 0.003906 
50.586498 0.003265 
51.035309 0.002725 
51.222836 0.003296 
51.333805 0.003625 
51.534931 0.004685 
51.638844 0.004101 
51.641014 0.010099 
52.361351 0.002772 
54.187237 0.003842 
55.0186 0.180342 
55.521404 0.004431 
55.679241 0.003108 
55.687805 0.004536 
56.022285 0.003589 
56.155384 0.003933 
57.159935 0.003353 
57.501091 0.003474 
57.859505 0.00335 
58.168419 0.002598 
59.209297 0.004742 
59.261433 0.004802 
60.538044 0.003633 
61.121555 0.004681 
61.649673 0.002765 
62.003868 0.002457 
62.07473 0.002782 
62.14222 0.00303 
62.966503 0.003393 
63.013123 0.002603 
63.088497 0.003615 
63.741634 0.003972 
63.875977 0.003554 
64.500839 0.002496 
64.709641 0.003769 
64.98761 0.003937 
66.023376 0.003714 
66.386314 0.003498 
67.606056 0.004133 
68.426125 0.0036 
68.638496 0.004362 
68.649979 0.00364 
69.400406 0.003173 
70.192978 0.003625 
70.336029 0.003283 
71.076385 0.002839 
71.08783 0.003503 
71.513924 0.004056 
71.709831 0.003954 
71.96611 0.003192 
72.240372 0.003623 
73.367867 0.003534 
73.909019 0.003307 
74.1717 0.002611 
75.916428 0.004056 
76.274544 0.003987 
76.420723 0.003683 
77.359528 0.003581 
77.614357 0.003652 
78.381485 0.00369 
79.05481 0.025334 
79.08165 0.003494 
79.301117 0.003997 
79.635551 0.003201 
79.854843 0.00396 
80.236641 0.003934 
80.767036 0.003443 
81.070442 0.907793 
82.387794 0.004611 
83.049911 0.002846 
83.623352 0.003239 
83.823212 0.003616 
84.851685 0.003787 
85.628609 0.00295 
85.669693 0.003674 
86.087456 0.00469 
88.789162 0.003475 
89.257652 0.003093 
89.463539 0.003571 
89.702972 0.003048 
90.020508 0.007671 
91.055084 0.007644 
91.063393 0.004158 
91.329063 0.0032 
93.07029 0.012443 
95.595016 0.00408 
96.152481 0.004152 
96.482292 0.002784 
97.065018 0.015326 
97.193405 0.004716 
99.554291 0.004736 
99.925545 0.002968 
100.535416 0.004519 
102.108437 0.003777 
102.40184 0.00419 
104.775597 0.003191 
104.836716 0.003968 
106.554893 0.004171 
107.438423 0.00362 
107.984703 0.003479 
109.065063 0.474444 
109.089394 0.004101 
109.996277 0.004255 
111.052071 0.003908 
113.121803 0.004077 
114.986946 0.003836 
115.339836 0.00451 
117.771065 0.004171 
118.111076 0.005416 
123.268791 0.003961 
123.97084 0.003146 
127.075378 0.249768 
128.020966 0.004298 
130.374237 0.003653 
130.550064 0.003565 
132.610214 0.004214 
133.450668 0.003584 
133.746628 0.004589 
134.511261 0.003877 
134.588486 0.003655 
135.080368 0.047125 
140.745651 0.003803 
140.98909 0.002981 
141.667221 0.003939 
143.198044 0.004018 
143.659164 0.003639 
146.380859 0.003639 
146.431366 0.002705 
153.392776 0.003586 
153.800659 0.003925 
154.095093 0.003268 
154.640518 0.002832 
155.182922 0.003628 
156.984985 0.004226 
157.564102 0.004067 
158.557465 0.003656 
158.958511 0.005585 
159.044006 0.904576 
160.047501 0.043485 
161.476624 0.003855 
161.797592 0.00363 
163.107635 0.005145 
163.441162 0.003606 
164.062271 0.004083 
167.292191 0.003952 
169.640732 0.004348 
169.893158 0.005146 
172.077759 0.004214 
175.075165 0.090866 
177.054611 1.498637 
177.976013 0.005565 
178.057831 0.095209 
178.132812 0.00433 
179.070312 0.008291 
186.762238 0.004278 
187.144012 0.005415 
187.370819 0.004209 
187.782944 0.004936 
188.349548 0.003648 
192.041977 0.012924 
193.049347 0.048226 
195.065186 5.038776 
196.068375 0.513254 
196.077606 0.005675 
199.612778 0.004243 
201.355072 0.00416 
203.235626 0.00398 
205.050003 0.004286 
207.046906 0.11448 
207.065125 100.0 
207.394165 0.003533 
208.068436 11.542199 
209.070389 0.554239 
214.995956 0.165542 
215.008209 0.169246 
215.023315 0.056669 
215.106644 0.291961 
216.112 0.009725 
216.45816 0.00405 
218.003296 0.004701 
219.064972 0.562031 
221.080887 0.110351 
222.666351 0.003744 
223.059952 0.959149 
224.063507 0.065708 
231.13736 0.005898 
233.080917 0.055313 
239.091568 0.052599 
239.105789 0.068438 
241.122726 0.063266 
244.975174 0.003364 
245.079773 0.005127 
247.096497 0.129111 
247.707901 0.003542 
250.826447 0.003024 
250.85878 0.0032 
252.656097 0.005422 
254.500916 0.003342 
256.911591 0.004167 
257.11734 0.053342 
259.096527 0.592197 
260.099945 0.043881 
261.112213 0.653035 
262.115936 0.034679 
267.101013 0.013123 
268.104126 0.004851 
269.40509 0.003803 
272.917816 0.002896 
273.111664 0.006924 
274.055023 0.00416 
275.127533 8.499106 
275.83374 0.003716 
276.13089 1.478511 
276.871887 0.004101 
277.133667 0.026987 
277.896362 0.004499 
279.12265 0.004043 
280.848419 0.004702 
285.111755 3.251546 
286.11499 0.594535 
287.314697 0.004231 
303.122284 3.301419 
304.107483 0.016279 
308.456726 0.003806 
312.291534 0.002809 
313.858002 0.00465 
321.132874 2.148453 
322.136658 0.429339 
END IONS

