BEGIN IONS
PEPMASS=390.192
CHARGE=1+
COMPOUNDNAME=Roquefortine C
LIBRARYQUALITY=3
SMILES=N/A
INCHIKEY=SPWSUFUPTSJWNG-LIMLNZRCSA-N
INCHI=InChI=1S/C22H23N5O2/c1-4-21(2,3)22-10-17-18(28)25-16(9-13-11-23-12-24-13)19(29)27(17)20(22)26-15-8-6-5-7-14(15)22/h4-9,11-12,17,20,26H,1,10H2,2-3H3,(H,23,24)(H,25,28)/b16-9-/t17-,20-,22+/m0/s1
MSLEVEL=2
SOURCE_INSTRUMENT=N/A-ESI-QFT
FILENAME=library_mgf.mgf
SEQ=*..*
IONMODE=positive
ORGANISM=MONA
NAME=Roquefortine C [M+H]+
PI=MoNA
DATACOLLECTOR=MoNA:VF-NPL-QEHF016414
PUBMED=N/A
SUBMITUSER=mwang87
TAGS=
SPECTRUMID=CCMSLIB00004707477
SCANS=16414
50.16856 0.009889 
50.544712 0.007957 
50.974957 0.009404 
51.105366 0.006089 
51.293762 0.009218 
51.391781 0.010488 
52.64378 0.011064 
52.647659 0.009833 
52.700336 0.010234 
52.918556 0.011339 
52.933517 0.010943 
53.427567 0.006232 
54.240047 0.010389 
55.528374 0.007438 
56.345695 0.007536 
56.415283 0.011308 
56.952801 0.007429 
57.500435 0.005652 
57.593105 0.005888 
57.694569 0.004339 
57.934093 0.005463 
59.51387 0.007662 
61.336544 0.082464 
61.347225 0.010391 
62.082916 0.010603 
62.088657 0.010134 
63.293758 0.010601 
63.796047 0.009744 
64.323776 0.009574 
64.936462 0.011389 
65.300964 0.008251 
65.366707 0.006502 
65.681763 0.010699 
67.574219 0.009632 
67.796349 0.007337 
68.093369 0.01025 
69.044876 0.351102 
69.070007 2.727085 
69.649132 0.00547 
69.814842 0.008393 
70.073372 0.016346 
70.149902 0.009458 
71.448357 0.010546 
71.991142 0.010838 
72.586159 0.00535 
73.496681 0.008759 
73.500366 0.00558 
73.930916 0.008933 
73.941536 0.006249 
74.030289 0.010951 
74.175125 0.010194 
74.836922 0.005397 
75.193802 0.010769 
75.653763 0.010188 
76.736786 0.011321 
76.882812 0.008367 
77.132454 0.00743 
77.651947 0.010926 
78.471016 0.010286 
79.256027 0.008103 
80.187111 0.008374 
80.908707 0.010005 
81.044968 0.212504 
81.628059 0.010403 
82.05262 0.010614 
82.559677 0.007047 
84.646111 0.009096 
85.039719 0.179016 
85.161606 0.009769 
85.775101 0.007204 
86.917053 0.006181 
88.458244 0.011933 
88.861588 0.00509 
89.096222 0.013403 
89.14566 0.006548 
90.310211 0.009648 
93.858383 0.007232 
95.061913 0.013608 
95.400345 0.005667 
95.922295 0.007104 
96.596397 0.0092 
98.086983 0.006518 
99.891212 0.006446 
100.628952 0.007869 
104.124947 0.01201 
105.471001 0.00787 
106.039894 0.00739 
106.693085 0.00658 
107.04895 0.012055 
108.055695 0.555234 
108.76709 0.009246 
109.491348 0.007864 
110.035294 0.008699 
111.928513 0.010057 
111.998749 0.013641 
114.030495 0.010378 
115.279488 0.009943 
117.763771 0.010583 
118.450264 0.01113 
120.05584 0.053842 
120.871193 0.011007 
120.983345 0.010851 
121.970764 0.012885 
122.043388 0.008972 
122.071449 0.030109 
122.157661 0.006018 
125.460083 0.008545 
125.754883 0.00973 
127.717171 0.006337 
127.789238 0.007202 
130.065201 5.697704 
131.068527 0.482702 
131.862381 0.010163 
132.08075 0.130096 
132.483261 0.0124 
132.510376 0.008784 
133.630142 0.009635 
133.849762 0.009706 
135.942642 0.008223 
136.050781 0.230668 
136.52478 0.010305 
136.625076 0.011496 
137.082382 0.080266 
137.465042 0.01286 
142.06546 0.028877 
142.933548 0.007437 
144.080902 0.247784 
145.032684 0.005915 
145.491241 0.009558 
147.520081 0.008884 
148.353806 0.006962 
149.034897 0.007803 
149.082352 0.413194 
149.692947 0.010592 
150.914001 0.010609 
154.666611 0.013218 
156.080978 0.28996 
159.091888 0.126885 
160.955902 0.01215 
162.029907 3.360013 
163.03363 0.079065 
163.061523 1.452448 
164.045486 0.017735 
165.077179 1.767203 
166.081024 0.01162 
169.088425 0.033068 
170.060196 0.139818 
170.096542 0.009792 
171.091904 0.020969 
173.488693 0.00671 
174.728409 0.010375 
174.960129 0.008139 
175.20137 0.007511 
175.293777 0.011333 
176.045609 0.021469 
177.076996 0.021477 
179.497589 0.009446 
183.104431 0.413345 
186.794739 0.012213 
187.762848 0.006694 
189.124771 0.01023 
189.243469 0.008549 
189.726898 0.011298 
191.056381 5.172664 
192.064285 6.086591 
193.072174 100.0 
194.076202 8.432235 
194.269302 0.005719 
194.664474 0.010925 
195.077591 0.064 
196.112061 0.176354 
196.843292 0.010302 
197.117279 0.006969 
198.127762 15.733672 
199.131195 2.052971 
200.143814 0.024062 
200.509995 0.009812 
205.071991 1.233276 
206.075745 0.011756 
206.795441 0.005994 
213.987396 0.326519 
213.995621 0.262797 
221.121979 0.005763 
225.185135 0.007764 
229.099472 0.010462 
239.687103 0.009647 
242.061539 0.009742 
244.279755 0.006083 
247.550186 0.008093 
248.063309 0.014186 
249.113342 0.060749 
249.73938 0.00813 
252.353699 0.010508 
255.914322 0.006715 
257.253418 0.010371 
260.127075 0.054017 
261.113495 0.068239 
261.134796 0.869239 
261.14917 0.010763 
262.816589 0.011416 
264.376434 0.009673 
267.592804 0.011321 
271.0979 0.006497 
273.115479 0.010111 
277.108826 0.258855 
286.016418 0.013952 
287.564331 0.011831 
289.066284 0.006833 
289.10791 0.044547 
292.119751 0.010924 
299.991241 0.01376 
300.613434 0.005918 
301.256958 0.011906 
302.104828 0.021181 
303.026489 0.011223 
305.103241 0.393211 
306.135529 0.036448 
309.833649 0.010446 
313.105072 0.008632 
316.120422 0.026322 
320.114319 1.485682 
321.118011 0.192187 
322.130005 59.996017 
323.107056 0.014502 
323.133606 12.104596 
324.136505 0.723003 
333.120605 0.005247 
334.130005 4.495559 
335.133667 0.954939 
339.945587 0.007008 
345.563629 0.006584 
348.157379 0.007178 
349.66272 0.013584 
350.497955 0.012831 
350.790405 0.007057 
354.532501 0.010124 
359.897522 0.008158 
360.89566 0.012455 
364.510956 0.012022 
366.414673 0.00665 
369.899658 0.010872 
373.167297 0.008084 
381.991394 0.009211 
386.825806 0.007286 
390.192657 20.719849 
391.196228 5.731116 
392.199005 0.386419 
397.997925 0.008148 
398.020691 0.01145 
413.624298 0.005249 
END IONS

