BEGIN IONS
PEPMASS=321.133
CHARGE=1+
COMPOUNDNAME=Massbank:EA280811 Mycophenolic acid| (E)-6-(4-hydroxy-3-keto-6-methoxy-7-methyl-phthalan-5-yl)-4-methyl-hex-4-enoic acid
LIBRARYQUALITY=3
SMILES=c12c(c(c(C\C=C(\CCC(O)=O)C)c(c1C)OC)O)C(=O)OC2
INCHIKEY=HPNSFSBZBAHARI-RUDMXATFSA-N
INCHI=1S/C17H20O6/c1-9(5-7-13(18)19)4-6-11-15(20)14-12(8-23-17(14)21)10(2)16(11)22-3/h4,20H,5-8H2,1-3H3,(H,18,19)/b9-4+
MSLEVEL=2
SOURCE_INSTRUMENT=ESI-LC-ESI-ITFT
FILENAME=Massbank_ESI_positive_8_1_2014_peaks.mgf
SEQ=*..*
IONMODE=Positive
ORGANISM=MASSBANK
NAME=Massbank:EA280811 Mycophenolic acid| (E)-6-(4-hydroxy-3-keto-6-methoxy-7-methyl-phthalan-5-yl)-4-methyl-hex-4-enoic acid [M+H]+
PI=Putative Massbank Match
DATACOLLECTOR=Massbank
PUBMED=N/A
SUBMITUSER=mwang87
TAGS=
SPECTRUMID=CCMSLIB00000211262
SCANS=5227
67.0543 2350.5 
77.0387 3832.7 
79.0542 5514.4 
81.0699 20765.4 
91.0542 97938.7 
93.0702 3285.2 
95.0493 4532.0 
103.0543 61076.9 
109.0647 6219.0 
131.0492 41655.6 
135.0806 33457.4 
139.0752 3066.2 
144.1014 2291.1 
145.0649 3005.0 
149.0597 9550.9 
159.0441 1322576.5 
161.0595 8134.3 
175.0754 19490.6 
177.0548 228507.2 
179.0702 39767.5 
189.0912 3435.5 
191.0699 4880.9 
192.0408 2506.9 
193.0496 9958.2 
195.0654 89748.5 
207.0653 1899657.7 
215.1066 17051.0 
219.0653 7831.4 
221.0809 13922.2 
223.0599 11634.1 
233.0808 3987.1 
239.1068 11105.6 
241.1231 4206.4 
247.0972 4529.7 
255.0643 1959.8 
257.117 4876.7 
259.0968 2038.0 
261.1121 6791.9 
267.1012 2713.0 
270.0888 11631.2 
275.1284 3922.9 
285.1128 13434.9 
END IONS

