BEGIN IONS
PEPMASS=257.046
CHARGE=1+
COMPOUNDNAME=norlichexanthone
LIBRARYQUALITY=3
SMILES=N/A
INCHIKEY=AQZHBCDRWFMXIN-UHFFFAOYSA-N
INCHI=InChI=1S/C14H10O5/c1-6-2-7(15)4-10-12(6)14(18)13-9(17)3-8(16)5-11(13)19-10/h2-5,15-17H,1H3
MSLEVEL=2
SOURCE_INSTRUMENT=N/A-ESI-QFT
FILENAME=library_mgf.mgf
SEQ=*..*
IONMODE=negative
ORGANISM=MONA
NAME=norlichexanthone [M-H]-
PI=MoNA
DATACOLLECTOR=MoNA:VF-NPL-QEHF017948
PUBMED=N/A
SUBMITUSER=mwang87
TAGS=
SPECTRUMID=CCMSLIB00004709011
SCANS=17948
50.978218 0.012014 
52.356598 0.019056 
53.517986 0.013215 
53.556282 0.015864 
53.631077 0.016 
53.653843 0.015139 
55.098965 0.017973 
55.675083 0.012927 
55.951313 0.011596 
56.143444 0.01539 
56.46455 0.014713 
57.596161 0.01273 
59.534039 0.013675 
60.57362 0.014144 
61.600246 0.015347 
61.806824 0.011043 
62.255142 0.01789 
62.310665 0.01238 
62.763245 0.012994 
62.926926 0.014871 
63.00489 0.013026 
65.470604 0.018022 
65.490166 0.01234 
65.754196 0.011816 
65.95153 0.015023 
67.847275 0.016931 
69.065025 0.01134 
69.929451 0.012338 
70.176224 0.015369 
70.471916 0.012135 
70.825439 0.013613 
71.443916 0.016902 
73.785622 0.014317 
76.313187 0.014675 
76.572678 0.016286 
76.611366 0.012676 
77.781837 0.013572 
78.240204 0.012599 
78.547272 0.015049 
80.008141 0.01574 
81.602234 0.013541 
82.27726 0.018414 
82.341087 0.013527 
82.818054 0.013356 
82.867783 0.013107 
83.320404 0.01459 
84.651794 0.015017 
85.979233 0.016203 
86.762009 0.013831 
87.156448 0.016844 
87.990158 0.013051 
89.191933 0.014472 
90.017097 0.015958 
90.465012 0.013816 
91.823837 0.015515 
94.763123 0.018217 
95.104584 0.015369 
95.800934 0.013671 
96.779526 0.013011 
96.783432 0.015137 
96.862801 0.0148 
97.559509 0.012101 
98.165558 0.013952 
98.193855 0.012773 
98.202301 0.015749 
100.024429 0.014808 
100.660179 0.01518 
101.308479 0.015177 
101.730904 0.014378 
101.916794 0.012759 
105.656235 0.014793 
106.909737 0.015282 
107.493568 0.015901 
108.345367 0.013899 
108.926331 0.016478 
109.918739 0.014663 
111.057617 0.014322 
111.092659 0.017615 
111.337585 0.014427 
111.78997 0.015218 
112.270798 0.016682 
112.526581 0.01405 
113.113907 0.012927 
113.636978 0.017041 
113.999496 0.01283 
115.973518 0.019369 
117.406631 0.013934 
117.567322 0.012368 
119.421616 0.014889 
120.844887 0.015529 
120.949532 0.015318 
122.826614 0.015121 
126.964638 0.016129 
127.475136 0.016924 
127.718315 0.015083 
128.364044 0.012914 
128.69313 0.01424 
129.315674 0.016894 
129.939713 0.014536 
132.298126 0.014986 
132.904922 0.014739 
132.995407 0.016828 
133.069473 0.016794 
134.850266 0.013989 
135.661453 0.012307 
137.437042 0.017194 
139.286118 0.015245 
140.480087 0.012303 
141.209534 0.012923 
142.286026 0.013239 
144.766983 0.013976 
147.854889 0.011709 
149.023392 0.429725 
151.008255 0.018505 
156.356705 0.016099 
157.065018 0.288123 
157.747971 0.012785 
158.918976 0.014228 
159.032745 0.016124 
161.059753 0.232561 
162.52095 0.01172 
168.05722 0.018434 
168.492691 0.013352 
171.575607 0.018038 
173.060074 0.018732 
177.487778 0.019138 
178.268997 0.014994 
181.118149 0.018265 
181.196609 0.017346 
182.130707 0.016011 
183.069809 0.014619 
183.744629 0.014448 
185.06012 1.19174 
189.055008 0.661956 
193.607697 0.016622 
193.742813 0.019238 
194.757706 0.015261 
197.5298 0.012689 
198.8479 0.014451 
200.248779 0.019848 
201.055115 0.218721 
207.637619 0.015577 
209.474304 0.01197 
211.039185 0.057295 
212.047836 0.019406 
213.055145 14.22688 
214.058578 1.954612 
214.116211 0.015845 
215.034424 2.792362 
216.037949 0.163336 
216.061737 0.481022 
219.949326 0.01659 
229.050308 0.907152 
230.053497 0.018669 
232.563187 0.016794 
239.034729 0.128376 
242.02179 0.190479 
243.231659 0.013539 
247.772324 0.015223 
251.183456 0.016284 
252.40535 0.013606 
255.232529 0.47263 
256.037872 0.167735 
256.969757 0.166812 
257.045288 100.0 
257.123413 0.098733 
258.048737 15.704827 
259.050873 0.755455 
261.651031 0.017264 
267.479706 0.018219 
267.542938 0.022448 
275.612549 0.016478 
279.442657 0.013219 
END IONS

