BEGIN IONS
TITLE=Scan Number: 1075
PEPMASS=410.189
CHARGE=1+
COMPOUNDNAME=Ambiguine_E_isonitrile
LIBRARYQUALITY=3
SMILES=C[C@]1([C@@H]2[C@@]3([C@@]([C@]([C@@H](C2)Cl)(C=C)C)([C@H]4O[C@H]4[C@@](c5c3c6c1cccc6[nH]5)(C)C)[N+]#[C-])O)C
INCHIKEY=LYCKQMCCONKVPQ-CXGOSFSJSA-N
INCHI=
MSLEVEL=2
SOURCE_INSTRUMENT=LC-ESI-qTof
FILENAME=f.philipwi/0_WilliamsFreshwaterCyanosStandardsConvertedTo_mzXML_v2/PW-49_P1-F-4_Ambiguine_E_isonitrile_436amu_Scan1072-1079_15564.mzXML;
SEQ=*..*
NOTES=
IONMODE=Positive
ORGANISM=GNPS-LIBRARY
NAME=Ambiguine_E_isonitrile M+H
SPECTRUMID=CCMSLIB00000424894
ACTIVATION=CID
INSTRUMENT=ion trap
SCANS=1075
147.548798 24.0 
182.100861 64.0 
183.7043 28.0 
193.091476 100.0 
215.701721 20.0 
219.117233 96.0 
220.114761 128.0 
221.089935 72.0 
227.159058 80.0 
228.14006 116.0 
228.515717 36.0 
239.760986 32.0 
240.640244 68.0 
242.155533 300.0 
246.079529 32.0 
246.800018 32.0 
253.118759 68.0 
257.099579 60.0 
257.846252 32.0 
258.50177 48.0 
259.804993 52.0 
261.162994 64.0 
262.146545 72.0 
263.134247 64.0 
264.14856 80.0 
265.195984 88.0 
266.145996 108.0 
267.16153 64.0 
268.308838 28.0 
270.128723 60.0 
272.101929 64.0 
276.133423 120.0 
277.130035 76.0 
278.149689 92.0 
280.154236 92.0 
285.307373 44.0 
287.162292 60.0 
287.5513 36.0 
291.129425 20.0 
292.185394 92.0 
293.177765 96.0 
294.138489 76.0 
295.189484 104.0 
298.1539 48.0 
299.134338 80.0 
301.155273 100.0 
301.8526 32.0 
304.149445 88.0 
306.179291 296.0 
307.180756 132.0 
308.814056 36.0 
321.121918 144.0 
322.116486 36.0 
322.265228 104.0 
323.112579 72.0 
323.261536 76.0 
327.170013 36.0 
327.481384 48.0 
330.163086 80.0 
333.216339 92.0 
335.080688 28.0 
336.201813 92.0 
338.191711 60.0 
339.130188 96.0 
348.141327 60.0 
349.157776 112.0 
362.253967 228.0 
363.257172 68.0 
367.13092 112.0 
369.264893 60.0 
374.224457 64.0 
377.16507 52.0 
379.284149 112.0 
380.276001 168.0 
381.273865 20.0 
381.634918 36.0 
382.183044 92.0 
392.197876 100.0 
393.17749 108.0 
407.191284 92.0 
408.307892 80.0 
409.303558 44.0 
410.212036 100.0 
411.233521 304.0 
412.236237 76.0 
423.245178 36.0 
429.261627 76.0 
696.582214 48.0 
795.546814 52.0 
END IONS

