BEGIN IONS
PEPMASS=268.3
CHARGE=1+
COMPOUNDNAME=ReSpect:PS117105 Adenosine|9-beta-D-Ribofuranosyladenine|Adenine riboside|Sandesin|Boniton|Myocol|Nucleocardyl
LIBRARYQUALITY=3
SMILES=C1=NC2=C(C(=N1)N)N=CN2C3C(C(C(O3)CO)O)O
INCHIKEY=OIRDTQYFTABQOQ-UHFFFAOYSA-N
INCHI=N/A
MSLEVEL=2
SOURCE_INSTRUMENT=ESI-Flow-injection QqQ/MS
FILENAME=respect_8_1_2014_GNPS_peaks.mgf
SEQ=*..*
IONMODE=Positive
ORGANISM=RESPECT
NAME=ReSpect:PS117105 Adenosine|9-beta-D-Ribofuranosyladenine|Adenine riboside|Sandesin|Boniton|Myocol|Nucleocardyl [M+H]
PI=Putative ReSpect Match
DATACOLLECTOR=ReSpect
PUBMED=N/A
SUBMITUSER=mwang87
TAGS=
SPECTRUMID=CCMSLIB00000220057
SCANS=5741
57.0 79.0 
68.0 47.0 
116.0 52.0 
135.0 52.0 
136.0 999.0 
137.0 92.0 
END IONS

