BEGIN IONS
PEPMASS=576.34
CHARGE=1+
COMPOUNDNAME=destruxin A
LIBRARYQUALITY=3
SMILES=N/A
INCHIKEY=XIYSEKITPHTMJT-UHFFFAOYSA-N
INCHI=InChI=1S/C29H47N5O7/c1-9-12-21-27(38)34-16-11-13-20(34)26(37)31-23(18(5)10-2)28(39)33(8)24(17(3)4)29(40)32(7)19(6)25(36)30-15-14-22(35)41-21/h9,17-21,23-24H,1,10-16H2,2-8H3,(H,30,36)(H,31,37)
MSLEVEL=2
SOURCE_INSTRUMENT=N/A-ESI-QFT
FILENAME=library_mgf.mgf
SEQ=*..*
IONMODE=negative
ORGANISM=MONA
NAME=destruxin A [M-H]-
PI=MoNA
DATACOLLECTOR=MoNA:VF-NPL-QEHF017770
PUBMED=N/A
SUBMITUSER=mwang87
TAGS=
SPECTRUMID=CCMSLIB00004708833
SCANS=17770
50.371796 0.009644 
50.525898 0.010964 
51.124508 0.004743 
51.294487 0.004962 
51.552391 0.003922 
51.758945 0.011868 
52.90414 0.009686 
52.965248 0.008293 
53.190174 0.009417 
53.586552 0.004357 
53.767578 0.004172 
53.790154 0.007405 
53.861427 0.01096 
53.867825 0.01165 
54.535309 0.010342 
55.504505 0.0047 
55.631607 0.003618 
55.834049 0.010701 
55.865589 0.009478 
56.440495 0.00687 
56.458447 0.004193 
56.66243 0.003222 
57.597382 0.007 
57.893467 0.003537 
57.970963 0.005865 
58.314312 0.004538 
58.693478 0.008401 
58.82555 0.004052 
58.844124 0.009012 
59.012463 0.089806 
59.360538 0.003876 
59.957977 0.006972 
60.128857 0.008696 
60.182648 0.009632 
60.534672 0.004361 
60.821938 0.009548 
60.854462 0.004564 
61.253281 0.006684 
61.319103 0.00859 
61.434601 0.009929 
61.630333 0.004552 
61.986988 1.630464 
62.282013 0.009648 
62.345623 0.003298 
62.716946 0.004056 
62.887993 0.004283 
62.964382 0.008592 
63.093094 0.00598 
63.113518 0.012656 
63.610508 0.003832 
64.786766 0.007397 
64.805016 0.003769 
65.261589 0.006942 
65.384933 0.003487 
65.396202 0.009628 
66.146301 0.01227 
67.042152 0.010026 
67.081757 0.01157 
67.211128 0.003334 
67.408638 0.008173 
68.310776 0.003378 
68.330467 0.008959 
68.66436 0.003929 
68.677406 0.003852 
69.033226 0.153786 
70.028503 0.064757 
70.079712 0.003357 
70.148102 0.0085 
70.8479 0.013543 
71.001823 0.391713 
71.012482 100.0 
71.023972 0.324967 
71.149155 0.009963 
71.96991 0.005747 
72.015816 2.672799 
73.016678 0.058161 
73.028122 0.003954 
73.287949 0.010471 
73.805321 0.009089 
75.018654 0.004821 
75.052261 0.005203 
75.956291 0.009971 
76.141052 0.003698 
77.746887 0.00431 
77.966324 0.014934 
78.069992 0.006666 
78.984619 0.057939 
79.955994 0.007444 
80.470139 0.004478 
80.514557 0.009187 
80.813103 0.009421 
81.033257 0.020828 
81.469063 0.004399 
81.528694 0.009762 
82.064972 0.007931 
83.048874 0.004917 
83.174812 0.004637 
83.953598 0.005952 
84.660057 0.005132 
85.028137 0.558407 
85.427254 0.003861 
85.637558 0.00557 
86.213425 0.008007 
86.490814 0.003995 
86.734253 0.004074 
86.98893 0.005541 
87.007439 0.004201 
88.039062 0.792644 
89.023102 0.004759 
89.795509 0.00488 
92.920074 0.005882 
93.032753 0.007308 
93.840508 0.009479 
94.028519 0.046109 
94.979507 1.224354 
94.982826 0.008319 
95.01255 0.011398 
95.049156 0.004966 
96.044205 0.594453 
96.840775 0.005403 
96.958817 0.395633 
97.028168 0.200108 
97.266373 0.008597 
97.997673 0.003436 
98.156662 0.003877 
99.043846 0.035261 
99.250778 0.005629 
100.140007 0.009555 
100.234436 0.009961 
100.899673 0.010541 
101.070763 3.518188 
101.644798 0.004396 
102.054688 0.050809 
102.074142 0.017716 
102.273216 0.005751 
102.379837 0.009859 
102.649139 0.003702 
104.06546 0.004878 
104.615181 0.006046 
104.860886 0.00963 
105.785744 0.009131 
107.228706 0.007919 
107.965179 0.011895 
108.076195 0.009727 
108.080597 0.125922 
108.267685 0.007206 
108.419334 0.010679 
108.811195 0.009509 
109.274681 0.013441 
110.922134 0.014748 
111.055145 0.192839 
111.754288 0.012856 
112.026604 0.260276 
112.060722 0.004212 
113.023399 0.009573 
113.070641 0.003411 
114.054947 0.131491 
114.259155 0.004462 
114.263062 0.007767 
114.354118 0.006893 
114.800797 0.009757 
116.698265 0.004494 
120.469467 0.005225 
120.853104 0.010151 
121.226456 0.0099 
123.043938 0.037286 
124.075607 1.026936 
125.059593 0.025466 
127.05011 3.292398 
128.034058 0.010297 
128.053467 0.062456 
128.591553 0.00507 
130.086304 0.084778 
131.969543 0.014242 
136.112106 0.203148 
136.809738 0.01097 
137.580154 0.008826 
138.054932 0.041593 
138.091278 0.003796 
139.039001 0.205508 
139.050079 0.010158 
139.086105 0.004248 
139.665375 0.009205 
140.070633 0.028331 
140.106857 0.021081 
141.412384 0.004474 
142.868011 0.003451 
143.11792 0.43605 
149.562469 0.003332 
150.091354 0.666994 
150.422394 0.004546 
150.786911 0.007411 
151.09491 0.004484 
153.078094 0.005415 
153.102448 0.004189 
154.08638 0.035466 
155.081573 0.46784 
156.443436 0.012726 
156.842117 0.004197 
157.277481 0.011471 
157.510025 0.009379 
158.898743 0.011598 
158.950043 0.009052 
159.056549 0.004137 
161.081299 0.004301 
162.091446 0.04936 
165.102356 8.097636 
166.086426 0.271476 
166.105881 0.632049 
167.045486 0.064143 
167.081573 0.03213 
167.118256 0.262072 
167.402969 0.006414 
168.089584 1.404505 
168.102112 0.134561 
168.138443 0.091902 
168.921844 0.008632 
169.097351 2.460483 
169.707001 0.005082 
170.062805 0.009889 
170.100739 0.01802 
170.691238 0.005387 
171.14975 0.035052 
172.107269 0.003598 
172.410568 0.004831 
173.092163 2.088854 
174.09584 0.015978 
176.07103 0.024224 
177.078583 0.008366 
178.08696 0.012661 
179.042786 0.006408 
180.066238 0.055145 
180.102234 0.203314 
181.133514 0.016081 
182.119049 0.004761 
182.128906 0.066237 
185.12886 0.71483 
185.141632 0.003868 
186.175461 0.009393 
189.694962 0.009115 
192.102325 0.384865 
193.097626 0.08944 
194.081558 1.314948 
194.118118 0.036848 
195.076965 0.018605 
195.08519 0.014385 
196.14502 0.691753 
197.129105 0.43534 
198.394287 0.005901 
198.700241 0.009567 
199.72525 0.003153 
199.919632 0.005693 
203.404572 0.004413 
204.102676 0.02904 
205.626709 0.005109 
207.115158 0.005395 
208.121826 0.008844 
208.133438 0.060421 
209.129074 0.396447 
210.137009 0.246179 
211.141006 0.003907 
212.418823 0.006534 
212.640182 0.7824 
212.651779 0.557715 
212.836334 0.010917 
214.155624 1.60656 
215.159454 0.019276 
217.133087 0.013432 
221.129501 0.012882 
221.954315 0.005791 
222.113449 0.093784 
223.145157 0.069758 
225.1604 7.305841 
226.164169 0.78065 
227.219345 0.007108 
233.218002 0.010289 
237.124924 0.004553 
237.926971 0.004056 
238.156784 0.024411 
240.171555 1.387592 
241.174988 0.046079 
243.257996 0.003434 
245.165741 1.687838 
246.169281 0.097448 
246.501892 0.003945 
249.547745 0.004645 
255.710541 0.013717 
258.318329 0.010733 
261.163361 0.011243 
268.167694 0.013278 
272.345337 0.004246 
275.917419 0.004827 
279.776001 0.013614 
280.203766 0.057898 
283.263824 0.008616 
283.555756 0.011174 
284.469666 0.009889 
285.292694 0.004698 
286.17746 0.29564 
289.155884 0.79064 
289.799042 0.005509 
290.161499 0.005727 
290.639526 0.00376 
292.20343 0.017882 
294.182648 0.018593 
296.234009 0.009643 
305.326202 0.011203 
307.167145 0.110636 
309.229279 0.010643 
310.214111 0.210368 
311.169006 0.015882 
314.078949 0.007094 
317.370575 0.008775 
318.018494 0.010141 
320.197937 4.629561 
320.425323 0.007792 
321.20108 0.779586 
321.222351 0.012033 
322.213745 0.557814 
325.346832 0.006355 
331.11145 0.007607 
334.125 0.01086 
337.561859 0.003987 
340.203308 0.00392 
346.178467 0.019468 
346.654175 0.00488 
348.009644 0.004556 
348.956879 0.00505 
352.298676 0.004929 
358.99765 0.004961 
368.456177 0.003665 
372.612274 0.00731 
373.583069 0.006882 
376.261017 0.099768 
378.974426 0.005011 
379.365845 0.006966 
382.290649 0.005952 
387.21637 0.093711 
391.449005 0.007208 
397.981842 0.013534 
402.239807 1.585276 
403.24353 0.32817 
406.210999 0.019912 
406.282532 0.144296 
422.275848 0.004688 
424.29303 0.132987 
449.036865 0.004113 
452.610687 0.011015 
465.459839 0.00406 
471.365234 0.00503 
472.366516 0.003746 
485.366669 0.004165 
485.547485 0.0059 
486.309021 0.762237 
487.312317 0.090592 
487.959808 0.011325 
491.310638 0.010783 
504.319916 0.39348 
505.321564 0.025925 
517.220215 0.00509 
535.301514 0.370693 
536.30011 0.00996 
539.752441 0.00368 
553.102966 0.008418 
562.343079 0.003861 
572.833679 0.011388 
576.340637 0.05884 
END IONS

