BEGIN IONS
PEPMASS=361.235
CHARGE=1+
COMPOUNDNAME=Aphidicolin
LIBRARYQUALITY=3
SMILES=N/A
INCHIKEY=NOFOAYPPHIUXJR-APNQCZIXSA-N
INCHI=InChI=1S/C20H34O4/c1-17(11-21)15-4-3-13-9-14-10-19(13,7-8-20(14,24)12-22)18(15,2)6-5-16(17)23/h13-16,21-24H,3-12H2,1-2H3/t13-,14+,15-,16+,17-,18-,19-,20-/m0/s1
MSLEVEL=2
SOURCE_INSTRUMENT=N/A-ESI-QFT
FILENAME=library_mgf.mgf
SEQ=*..*
IONMODE=positive
ORGANISM=MONA
NAME=Aphidicolin [M+Na]+
PI=MoNA
DATACOLLECTOR=MoNA:VF-NPL-QEHF004571
PUBMED=N/A
SUBMITUSER=mwang87
TAGS=
SPECTRUMID=CCMSLIB00004695634
SCANS=4571
50.016415 0.111094 
50.354492 0.11517 
50.652168 0.118279 
52.785351 0.127914 
52.837326 0.11766 
52.97197 0.124026 
52.985893 0.111571 
53.002983 0.928654 
53.039387 2.150357 
53.11805 0.11937 
53.119572 0.134989 
53.447414 0.110253 
53.629833 0.132764 
53.789047 0.117864 
54.491486 0.104711 
55.018612 8.476938 
55.055023 35.989017 
55.146545 0.1196 
55.935184 0.156221 
56.050243 4.479213 
56.058357 1.368992 
56.18272 0.11846 
56.504272 0.123618 
56.608856 0.117733 
56.965618 0.46476 
56.981522 0.124082 
57.034294 7.583035 
57.048763 0.128949 
57.070656 31.724981 
57.072231 0.242349 
58.062851 0.193164 
58.06591 50.97245 
58.073936 1.395664 
59.0499 8.159207 
59.061142 2.24878 
59.069221 0.685791 
59.167389 0.116365 
59.770866 0.124845 
59.990978 1.532537 
60.045162 34.553829 
60.081554 0.605063 
61.011417 12.416883 
62.019222 2.530192 
62.06076 0.829507 
62.702801 0.131406 
62.982471 0.371068 
62.990646 0.731079 
63.027065 0.321272 
63.998531 0.136341 
64.000542 0.149386 
64.501335 0.114088 
65.03936 1.39138 
65.164597 0.14034 
67.05497 43.007439 
67.162193 0.113532 
67.944489 0.106666 
68.050186 1.033756 
68.058273 1.479667 
69.034195 13.158425 
69.07061 36.076477 
70.029427 1.198609 
70.065842 22.374107 
70.073929 1.179703 
70.076019 0.116771 
70.521034 0.133539 
71.013443 0.495999 
71.049866 14.909341 
71.069077 1.850379 
71.086258 23.573887 
71.489479 0.149803 
72.045059 8.359443 
72.081459 8.279792 
72.089546 1.117373 
73.011353 0.198573 
73.029045 2.610566 
73.065407 2.613408 
74.024292 4.235119 
74.060753 10.507207 
74.068649 0.170251 
74.097076 1.067926 
74.641357 0.128721 
75.044655 0.451132 
76.039909 2.756006 
76.076401 0.13979 
77.039513 0.134628 
78.490135 0.118377 
79.021851 10.255016 
79.024155 0.09894 
79.054886 26.020853 
79.636589 0.127922 
80.050079 1.047249 
80.058167 1.600487 
80.98307 0.116443 
81.034065 7.660089 
81.070511 56.21928 
81.170235 0.131356 
82.065697 2.950064 
82.073776 3.86829 
82.076385 0.121079 
83.049759 45.845699 
83.086143 24.459272 
84.044907 2.476422 
84.053047 1.860856 
84.081383 15.544551 
84.089447 1.102925 
85.011093 0.294267 
85.029015 10.580995 
85.040253 2.280207 
85.065384 11.26016 
85.084808 0.151627 
85.101776 7.50807 
86.060638 6.46791 
86.097038 17.074326 
86.475121 0.118366 
87.026871 0.780311 
87.044647 32.32058 
87.081093 0.128516 
87.100349 0.581099 
88.022133 5.436338 
88.039864 1.909132 
88.047897 1.036097 
88.073425 0.21697 
88.076263 16.070087 
88.079025 0.187758 
88.144341 0.11932 
89.04258 0.137045 
89.048843 0.144698 
89.060272 10.753195 
89.079514 2.372989 
90.686264 0.110818 
90.948227 0.958389 
91.054787 100.0 
91.057739 3.780113 
91.607567 0.12231 
92.058105 8.011408 
92.061058 0.404217 
92.983208 8.331509 
93.057755 0.142209 
93.070396 39.018009 
94.06559 1.563822 
94.073647 2.868027 
95.049637 13.614757 
95.060883 0.162443 
95.086014 53.127758 
96.044853 0.980986 
96.081253 1.841959 
96.089294 4.017509 
96.535706 0.132412 
96.56781 0.153585 
96.810265 0.131576 
97.010994 0.384903 
97.028877 3.832135 
97.04007 0.337099 
97.065285 13.081009 
97.101662 19.068417 
98.060478 4.187814 
98.07196 0.138501 
98.096863 3.130232 
98.104996 0.946518 
99.044533 10.155465 
99.080902 13.570117 
99.888931 0.134408 
99.923317 0.137532 
100.039711 2.094324 
100.076103 5.114855 
100.112595 2.783089 
100.226974 0.122131 
101.003479 1.141266 
101.017578 0.115285 
101.023582 0.371037 
101.060089 6.197403 
102.055359 1.333722 
102.091774 7.408241 
102.095192 0.106253 
103.039322 0.99911 
103.054611 0.73225 
103.094948 0.288887 
103.793259 0.127057 
104.071404 0.117391 
105.033882 2.391423 
105.044716 0.145351 
105.066467 0.211441 
105.070305 28.258068 
105.074196 0.452143 
105.531075 0.112361 
106.06543 1.641375 
106.073631 1.171919 
106.086655 8.796903 
106.107216 0.139775 
107.049538 10.013767 
107.07328 0.246032 
107.085938 33.629864 
107.089836 2.021628 
107.126678 0.137646 
108.044762 0.243952 
108.081131 1.948833 
108.08918 2.210032 
108.958733 0.185305 
109.02877 0.561067 
109.065163 10.867003 
109.097649 0.729961 
109.101547 36.014378 
110.06041 5.358892 
110.06826 0.162742 
110.096657 2.604545 
110.104828 2.153989 
110.93943 3.403205 
111.044319 6.061202 
111.080757 9.783681 
111.117081 0.890844 
112.039742 1.333142 
112.076004 4.525027 
112.112335 1.372262 
113.060005 4.905721 
113.09642 3.808095 
113.644882 0.13112 
114.055214 5.091565 
114.091354 0.556164 
115.039162 1.006454 
115.050438 0.138719 
115.054482 0.31682 
115.075577 1.75502 
116.053146 10.269409 
116.070923 8.883198 
116.107201 2.183181 
116.139313 0.118941 
116.986115 0.209912 
117.056358 0.467888 
117.07019 9.801113 
118.048683 0.151184 
118.065414 0.508843 
118.073311 0.621817 
118.086563 1.301861 
119.049355 1.755364 
119.085815 75.525887 
119.802895 0.146288 
120.044601 0.643289 
120.081055 6.269911 
120.089073 6.638124 
120.935745 0.121059 
121.028709 11.344792 
121.039085 0.15145 
121.060501 0.135817 
121.065041 9.917877 
121.08873 0.177699 
121.101433 23.796898 
121.233704 0.155687 
122.060173 3.966725 
122.096588 2.434914 
122.104546 1.583421 
123.044266 3.47193 
123.080666 13.126667 
123.117119 10.846773 
123.702293 0.128721 
123.946953 0.387088 
124.039398 2.496945 
124.075851 3.204635 
124.083977 0.14818 
124.11219 1.085014 
124.120201 0.193599 
124.81366 0.122808 
124.9552 0.126926 
125.059921 6.017816 
125.070709 0.125878 
125.096306 14.421369 
126.055084 3.537339 
126.091537 2.107475 
126.099586 0.568348 
126.127975 0.174733 
127.039093 4.396832 
127.049751 0.132625 
127.075516 1.439762 
127.111816 1.279868 
127.300491 0.124537 
128.062424 0.322995 
128.070709 0.757571 
128.107193 2.187339 
129.018356 1.764856 
129.054718 2.208856 
129.070023 5.089522 
129.09111 0.292486 
130.050064 1.385986 
130.065201 0.935544 
130.086365 5.577436 
130.122635 0.219791 
130.159348 0.331565 
131.049149 1.788759 
131.070328 0.853384 
131.085571 15.402143 
132.080765 0.773282 
132.088776 0.640418 
132.101929 2.137988 
133.064865 5.212779 
133.085678 0.41962 
133.101257 19.519436 
133.4711 0.129157 
134.060165 1.644889 
134.096451 1.63576 
134.104645 1.404632 
134.919769 0.171707 
134.97879 1.119522 
134.996613 1.157482 
135.044098 1.318853 
135.080505 15.822326 
135.10434 0.166745 
135.116882 14.818269 
136.038956 0.437628 
136.061798 5.121888 
136.075684 3.509181 
136.083694 0.947351 
136.112137 3.736288 
136.120071 0.914096 
137.011856 1.549463 
137.023361 0.138095 
137.059799 3.239183 
137.09613 9.561739 
137.132538 8.847137 
138.054932 3.994318 
138.091309 1.102647 
138.127472 1.041258 
139.039185 0.187641 
139.050674 0.126692 
139.075378 2.313399 
139.111801 7.537181 
140.070633 1.104214 
140.107025 1.706329 
140.14328 1.084084 
141.054626 0.482286 
141.069839 0.385477 
141.090912 1.434439 
141.127411 0.713524 
142.049896 0.432279 
142.077591 0.130562 
142.086212 0.155139 
142.122681 2.378794 
143.063675 0.275043 
143.070023 0.183868 
143.085648 8.04495 
144.029236 0.171466 
144.065567 0.137641 
144.080704 1.512836 
144.093536 0.12919 
144.958206 0.135464 
145.049316 0.156006 
145.064789 2.350556 
145.089188 0.132674 
145.101181 17.246174 
146.060059 4.166204 
146.096527 1.827995 
146.104233 0.931564 
146.974258 0.351985 
147.044067 2.623071 
147.080505 7.116242 
147.104584 0.207812 
147.116882 15.424912 
148.075607 2.651476 
148.08461 0.136942 
148.112061 83.232719 
148.971863 0.951713 
148.989502 0.146008 
149.059799 5.378867 
149.096176 10.342981 
149.115417 7.998561 
149.132492 4.637902 
150.055115 1.214855 
150.063126 0.145576 
150.091248 2.042392 
150.098785 0.220654 
150.127808 17.159712 
150.951004 3.899748 
150.969162 0.20653 
151.039078 0.13384 
151.057724 0.144404 
151.075363 3.468446 
151.111786 6.141021 
152.034698 0.158613 
152.070648 1.562505 
152.107101 1.246606 
152.114639 0.158137 
152.143341 0.199307 
152.952026 0.143321 
152.966537 0.231065 
152.989243 5.209102 
153.054382 0.533486 
153.091064 3.072423 
153.102203 0.496189 
153.127258 2.548142 
154.049911 1.161366 
154.08606 1.070014 
154.099106 0.153736 
154.122696 2.32346 
155.022293 0.533974 
155.070389 0.272486 
155.085541 1.868931 
155.106644 2.992486 
156.065842 0.168702 
156.080551 0.124704 
156.101822 0.41328 
156.138107 0.744035 
156.425598 0.120221 
157.011063 1.519585 
157.101181 6.869777 
158.04509 0.357266 
158.060196 1.283879 
158.096588 0.95586 
158.104507 0.1941 
158.11731 0.347917 
159.00647 0.325884 
159.044128 0.315686 
159.080521 4.172497 
159.116852 9.396196 
160.075699 6.698606 
160.083206 0.126586 
160.112198 1.168245 
160.119385 0.160887 
161.059631 0.848087 
161.078705 0.175478 
161.0961 7.782816 
161.132507 3.867858 
162.023071 0.124049 
162.054794 1.321805 
162.091339 2.587565 
162.127808 6.650457 
163.0392 0.162369 
163.075348 3.59533 
163.111771 8.368784 
163.123871 0.141033 
163.130966 0.142604 
163.148254 0.209479 
163.958618 0.217775 
164.070572 0.804831 
164.107193 1.262241 
164.143661 0.170065 
164.920609 1.670406 
165.054901 0.725999 
165.091064 2.380252 
165.127441 3.44528 
166.05014 0.189163 
166.086197 0.242599 
166.122726 1.651642 
166.159042 0.118506 
167.071106 0.133799 
167.106735 1.286258 
168.06575 0.295003 
168.101959 0.719614 
168.138245 0.84236 
168.961746 2.458756 
169.085785 0.293865 
169.101181 2.183065 
169.121704 0.15606 
169.135757 0.137543 
170.044937 0.135586 
170.117447 0.73907 
170.96106 0.29133 
170.999695 0.435675 
171.063217 0.532086 
171.080673 1.313831 
171.116882 4.306209 
172.039825 0.137666 
172.0755 2.428122 
172.08873 0.144875 
172.096741 0.365677 
172.133209 0.317687 
173.059723 0.561333 
173.079437 0.195349 
173.096176 5.245263 
173.117386 6.924111 
173.132553 3.936192 
174.005936 0.565159 
174.054962 0.47708 
174.091415 2.941568 
174.128006 1.781496 
174.148911 0.941617 
175.03894 5.100021 
175.0755 2.013346 
175.095871 0.137168 
175.111832 7.905921 
175.135513 0.535013 
175.148087 1.760637 
176.070816 1.119549 
176.107071 1.999956 
176.11496 0.147034 
176.143173 2.008529 
176.615448 0.143069 
176.930725 0.176171 
177.054535 0.380841 
177.091003 2.878191 
177.127426 5.179123 
178.049576 0.554198 
178.086334 0.591312 
178.094543 0.141408 
178.122574 1.063291 
179.070892 0.129441 
179.106735 1.456908 
179.117233 0.140093 
179.954086 0.513957 
180.101837 0.177971 
180.138321 0.574423 
180.888153 5.922496 
180.961685 0.148957 
181.085754 0.214659 
181.101501 0.159289 
181.122192 0.708077 
182.081207 0.166383 
182.117462 0.335749 
182.15416 0.161436 
183.101974 0.149851 
183.116776 1.263286 
183.352921 0.162458 
184.075546 1.222847 
185.096313 1.078291 
185.132431 1.439966 
186.055176 0.463219 
186.091248 0.958291 
186.128082 0.366768 
186.878922 0.215327 
186.927917 0.604212 
187.039124 1.37088 
187.075317 3.202529 
187.111938 3.641945 
187.147873 1.199628 
188.022339 0.239702 
188.070801 0.432642 
188.106781 1.257181 
188.143524 1.735542 
188.924713 0.860829 
189.054657 0.152913 
189.091232 2.327108 
189.112137 0.399297 
189.127045 1.633681 
190.050064 6.965956 
190.085938 1.528787 
190.122757 5.69291 
190.131927 0.166218 
190.159027 0.534903 
191.070663 0.14532 
191.090027 0.720089 
191.106644 2.796536 
191.117218 0.161884 
191.143692 0.227344 
192.065628 2.186704 
192.094589 0.383725 
192.102005 0.858248 
192.138245 1.570826 
192.174805 4.970779 
192.961227 0.655658 
193.050354 0.143149 
193.060394 0.129797 
193.068863 0.163145 
193.086212 1.179612 
193.101608 0.425947 
193.122299 2.664842 
193.158279 0.155171 
194.117569 0.540757 
195.077927 0.152564 
195.101685 0.291696 
195.116699 0.456122 
196.133118 1.074877 
197.0961 0.139124 
197.116806 0.127498 
197.132782 0.214501 
198.054947 0.31581 
198.091141 0.817918 
198.898727 2.102195 
199.07576 0.647586 
199.111923 1.449607 
199.14801 0.920831 
200.070648 1.406492 
200.106857 1.200899 
200.142258 0.150172 
201.054047 0.358614 
201.074738 0.15587 
201.091019 0.974717 
201.100479 0.154109 
201.127731 1.293037 
201.164017 0.764379 
202.086273 2.490326 
202.122559 1.23345 
202.158997 0.702159 
203.034241 0.139908 
203.070435 21.220745 
203.106659 1.042892 
203.128876 0.270524 
203.143387 0.752274 
204.065475 4.788079 
204.074768 0.415534 
204.101852 1.394182 
204.138077 1.290519 
204.888336 0.508902 
205.085297 0.231383 
205.122681 0.831767 
206.081055 0.403139 
206.117081 0.176388 
207.117142 0.143606 
207.138107 0.540697 
208.06044 0.157264 
208.133423 0.344601 
208.956207 1.292964 
209.095993 0.328411 
209.117172 1.194735 
209.130737 0.174257 
210.149155 0.489849 
210.972137 0.202283 
211.074554 0.133857 
211.133011 0.203239 
211.14711 0.168311 
212.106705 0.307388 
212.12822 0.140695 
212.165146 0.156487 
213.054749 0.178525 
213.090942 0.538934 
213.127396 0.704146 
213.16362 0.339042 
214.08606 0.31207 
214.122818 0.70475 
214.471283 0.474369 
214.481293 4.661488 
214.492172 1.58587 
215.070251 1.952199 
215.08934 4.364643 
215.106781 0.318012 
215.142822 0.180016 
215.179657 0.514595 
216.065414 16.571114 
216.101501 0.684973 
216.13829 0.591797 
216.989944 0.130142 
217.069153 3.265811 
217.085846 0.346229 
217.106628 0.131644 
217.121826 0.163087 
217.954224 0.150362 
218.043945 0.181276 
218.081558 0.214756 
218.117249 0.692933 
218.1539 0.532558 
218.189789 0.14718 
219.137741 0.289224 
219.174271 5.85822 
219.898422 0.147699 
220.060135 0.520471 
220.095779 0.171422 
220.133163 0.547396 
220.293106 0.121629 
221.117172 0.138086 
221.154007 0.225343 
221.928833 0.724385 
222.898682 36.780975 
223.132889 3.143519 
223.14566 0.155612 
223.900223 0.788228 
225.148834 0.127386 
225.163589 0.162933 
226.086166 0.173085 
226.123001 0.20178 
226.216385 3.402603 
226.966553 0.929672 
227.07019 2.868678 
227.221771 0.152531 
228.020248 0.13237 
228.100922 0.301024 
228.137344 0.307488 
229.085449 0.198748 
229.122955 0.235446 
230.081238 2.79424 
230.117676 0.977198 
230.153946 0.726796 
232.060638 0.331026 
232.097168 0.167084 
232.133011 0.831849 
232.171143 0.173389 
234.149185 0.292621 
235.135376 0.124821 
236.055176 0.142095 
236.128891 0.140386 
236.914413 1.396355 
237.090729 0.168409 
237.128067 0.17488 
238.215698 0.17506 
239.093918 4.728098 
240.100601 0.356388 
240.138428 0.171685 
240.231766 0.503154 
240.268494 1.891096 
240.90918 69.210381 
241.910522 3.498683 
241.954346 2.749937 
242.080902 2.827904 
242.154556 0.288578 
243.06514 4.003542 
243.159241 5.415059 
243.172943 0.141513 
244.097275 0.142073 
244.132599 0.602889 
244.905212 0.161608 
245.080826 1.68163 
245.115234 2.009022 
246.148422 1.428238 
246.186096 0.185273 
248.043976 0.146706 
248.055054 8.815369 
248.12822 0.176026 
248.164337 0.712309 
250.071533 0.159035 
250.179947 0.527872 
251.046707 1.706259 
252.195999 0.545128 
253.133453 1.557235 
254.080856 1.614918 
254.137268 0.808317 
254.924713 4.10277 
255.231705 1.102839 
256.095734 0.180987 
256.133057 0.198643 
257.116913 0.642455 
257.189575 0.427096 
258.112732 0.174746 
258.148895 0.319509 
258.18515 0.934086 
259.115234 5.264239 
259.129639 0.155986 
259.864563 0.308481 
260.091583 0.172819 
260.128235 0.207143 
260.164276 1.209617 
260.201324 0.767866 
261.076965 0.1452 
261.1315 0.943835 
261.172394 0.611559 
262.143097 0.475887 
262.179565 0.428961 
266.944366 0.154416 
267.175964 0.130352 
268.096405 0.384935 
268.169403 0.146197 
268.299835 20.739159 
268.958832 0.211518 
269.283417 0.136596 
269.303223 3.707878 
270.025543 0.14773 
270.184143 0.144608 
271.083771 7.138648 
272.088989 0.27797 
272.163513 0.180415 
274.142853 0.52841 
274.180054 2.375906 
274.217041 0.163469 
275.811096 0.348726 
276.195679 2.514347 
276.231781 0.144955 
277.825623 0.652845 
280.133698 0.124978 
281.910706 0.171091 
282.112366 0.532856 
282.137268 3.645841 
282.168732 0.151923 
282.185944 0.171686 
283.048737 0.145781 
283.084015 1.736078 
284.05304 0.151896 
284.091705 0.1335 
284.152161 0.277162 
284.199799 0.14566 
285.815674 2.504741 
286.143433 0.305374 
286.17984 3.22048 
286.216827 0.154811 
286.823151 0.361893 
287.042542 1.643803 
287.146698 0.141418 
287.831421 1.301748 
288.195618 4.278018 
290.211182 0.403679 
292.227081 0.235219 
293.211212 0.19866 
294.828583 1.318436 
295.836304 1.753284 
296.128082 23.851589 
297.131561 4.766765 
298.143585 2.259273 
298.216827 0.384659 
300.063171 0.158016 
300.147583 11.955929 
300.195465 1.037632 
300.931366 1.803129 
301.152161 1.105507 
301.19046 0.157285 
301.826416 1.510841 
301.956787 0.159707 
302.063354 0.181994 
302.103394 0.187035 
302.174469 0.192991 
302.21109 2.43814 
302.909973 0.267927 
305.157013 13.331758 
306.206512 0.159201 
308.93634 0.514311 
309.81662 0.365508 
309.852448 0.696878 
310.144226 0.755383 
310.162415 0.339421 
310.823792 2.013719 
310.84317 0.927022 
311.830872 7.136269 
312.194916 0.151088 
312.838776 30.650661 
313.198059 0.328293 
313.840088 1.561792 
314.158142 0.187418 
314.174316 0.195941 
314.211578 0.157887 
315.243195 3.247701 
316.153961 0.151092 
316.190521 0.687432 
316.22702 2.87574 
316.245056 0.143913 
317.841125 0.312479 
318.111877 1.124574 
318.158051 3.477165 
318.205383 0.172905 
318.242126 0.142398 
318.844696 0.191527 
319.160522 0.143933 
319.836243 81.93013 
320.837433 7.675155 
324.178314 0.177536 
325.154663 0.320588 
325.191528 0.14734 
325.829926 1.016948 
326.211426 1.666569 
326.818298 4.178974 
326.854797 1.456703 
327.169647 1.239544 
327.216248 0.339911 
327.825897 30.385984 
328.173798 3.220614 
328.226044 0.158383 
328.83371 13.170738 
329.149445 2.457862 
329.175201 0.174438 
329.193695 2.113331 
329.841095 4.130213 
330.153717 0.38608 
330.171051 0.311868 
330.206024 3.68779 
330.242706 0.230778 
330.279236 1.145308 
330.416138 0.161178 
330.849152 0.509244 
331.0849 0.132758 
331.210602 0.303194 
332.091644 0.708614 
333.815582 5.229375 
333.851685 3.056231 
334.823517 0.143345 
336.83847 22.358183 
337.84668 57.137531 
338.848663 5.575134 
339.848267 0.577546 
341.360474 7.756274 
341.841522 1.744965 
342.169281 0.171816 
342.206696 2.203123 
342.242645 1.334449 
342.363892 0.677132 
342.849121 0.179505 
343.202606 0.533483 
343.241913 0.123355 
344.185974 0.782162 
344.221893 19.248884 
344.258575 4.190658 
344.29425 5.347084 
344.329834 0.237229 
344.828766 19.081507 
344.976501 0.789291 
345.226196 6.194817 
345.25238 0.36277 
345.294189 0.769579 
345.834625 3.110994 
345.976501 10.176543 
346.107056 1.765595 
346.97406 7.716714 
347.115143 1.030207 
347.973969 0.478611 
351.825745 4.800663 
351.862427 4.357822 
352.830017 0.158121 
354.849335 4.860623 
359.166504 0.137091 
359.198944 2.609884 
359.23526 1.579826 
359.269653 0.190528 
359.310059 0.141039 
359.348022 0.607276 
359.370941 25.263472 
360.088806 0.251921 
360.113159 14.812033 
360.140381 2.054838 
360.178192 0.4108 
360.197998 1.210646 
360.219208 7.888477 
360.253326 70.865456 
360.290466 3.651189 
360.325653 5.30797 
360.361755 19.769386 
360.838959 6.034775 
360.862122 0.204281 
361.11618 3.533096 
361.145172 0.946935 
361.182709 0.253613 
361.217285 3.078959 
361.25592 20.004612 
361.286804 0.744767 
361.322876 2.414727 
361.364807 5.756255 
361.839905 0.1564 
362.12027 0.179453 
362.175507 0.342565 
362.193909 0.155976 
362.232483 38.024357 
362.268799 23.625198 
362.30542 3.218633 
362.342499 0.551011 
362.375702 0.147914 
363.098053 0.652415 
363.161346 20.659224 
363.19754 0.858812 
363.216217 1.113851 
363.235443 5.636481 
363.267151 6.185985 
363.305603 0.204779 
368.843964 0.234635 
369.836334 56.039429 
370.83847 5.862069 
378.849121 2.031446 
383.852631 3.301524 
387.846802 27.331919 
388.848389 2.006435 
END IONS

