BEGIN IONS
PEPMASS=895.481
CHARGE=1+
COMPOUNDNAME=ABAMECTIN
LIBRARYQUALITY=3
SMILES=N/A
INCHIKEY=RRZXIRBKKLTSOM-XPNPUAGNSA-N
INCHI=InChI=1S/C48H72O14/c1-11-25(2)43-28(5)17-18-47(62-43)23-34-20-33(61-47)16-15-27(4)42(26(3)13-12-14-32-24-55-45-40(49)29(6)19-35(46(51)58-34)48(32,45)52)59-39-22-37(54-10)44(31(8)57-39)60-38-21-36(53-9)41(50)30(7)56-38/h12-15,17-19,25-26,28,30-31,33-45,49-50,52H,11,16,20-24H2,1-10H3/b13-12+,27-15+,32-14+/t25-,26-,28-,30-,31-,33+,34-,35-,36-,37-,38-,39-,40+,41-,42-,43+,44-,45+,47+,48+/m0/s1
MSLEVEL=2
SOURCE_INSTRUMENT=N/A-ESI-QFT
FILENAME=library_mgf.mgf
SEQ=*..*
IONMODE=positive
ORGANISM=MONA
NAME=ABAMECTIN [M+Na]+
PI=MoNA
DATACOLLECTOR=MoNA:VF-NPL-QEHF028042
PUBMED=N/A
SUBMITUSER=mwang87
TAGS=
SPECTRUMID=CCMSLIB00004721623
SCANS=28042
62.350876 0.080035 
62.359325 0.019334 
62.380875 0.011368 
63.279461 0.081476 
64.199593 0.072166 
64.697914 0.039102 
64.745148 0.05461 
66.193329 0.028512 
66.759338 0.042761 
67.054321 1.33252 
67.230431 0.01336 
67.636833 0.011126 
68.170647 0.010837 
68.174393 0.087716 
68.220886 0.062064 
68.847168 0.052756 
68.869316 0.011314 
69.033531 6.490596 
69.069946 0.094147 
69.279884 0.082139 
70.036728 0.061132 
70.689255 0.019753 
71.049141 0.123183 
73.046776 1.948869 
73.064812 1.612042 
73.574181 0.057405 
73.862579 0.028833 
73.993683 0.010569 
74.110062 0.068597 
74.492432 0.053075 
75.110817 0.07378 
75.471771 0.011215 
75.590164 0.056878 
76.894051 0.030666 
77.023094 0.03019 
77.188171 0.017399 
77.351212 0.018421 
77.365295 0.05397 
77.835983 0.064477 
78.759842 0.019336 
79.054192 0.663931 
79.562515 0.03337 
80.023232 0.019371 
80.691078 0.056033 
81.069893 2.03644 
83.15889 0.061137 
83.984642 0.015374 
85.02845 0.07968 
85.064835 0.059464 
85.320847 0.011284 
85.751686 0.057553 
85.925529 0.032893 
86.243256 0.054869 
86.282661 0.081507 
87.044067 0.285294 
87.375565 0.056118 
87.851082 0.080572 
90.828278 0.085508 
91.057358 1.986594 
91.167038 0.036931 
91.223579 0.018411 
92.958763 0.060172 
93.066704 0.011544 
93.069862 3.163001 
93.349838 0.055444 
93.531143 0.025118 
94.548691 0.078086 
94.923889 0.069873 
95.010414 0.356327 
95.049141 5.857881 
95.085541 0.43815 
96.052483 0.130518 
97.064781 0.861696 
99.117744 0.050347 
100.380486 0.046056 
100.483383 0.016917 
101.059616 0.041022 
102.534706 0.015768 
103.742172 0.059908 
104.031975 0.064406 
105.069809 0.155059 
105.693024 0.013548 
105.940285 0.013797 
106.017586 0.017594 
107.085464 0.487164 
108.40567 0.06608 
108.879349 0.02776 
109.026001 2.363739 
109.062302 3.07462 
109.101143 3.46145 
109.231766 0.050125 
110.029602 0.027024 
110.070145 2.186327 
110.685768 0.048208 
110.975349 0.119488 
111.907616 0.018131 
111.995064 0.015904 
113.059616 9.504214 
114.06279 0.246881 
116.887665 0.065863 
117.223351 0.075432 
117.984352 0.053866 
118.340858 0.0131 
119.085495 0.63468 
119.554214 0.011078 
120.054306 0.13826 
121.062271 0.308262 
121.101089 3.608177 
123.08036 0.253836 
123.116776 13.103561 
123.195442 0.077792 
124.008179 0.101292 
124.120186 0.692553 
124.976311 0.058068 
125.020851 2.514558 
127.075218 1.048358 
130.271622 0.070829 
131.046692 0.261242 
132.054581 0.282901 
132.134415 0.018204 
132.293549 0.013443 
133.100998 0.135816 
133.770599 0.015542 
135.041489 6.851042 
135.499237 0.082022 
136.044601 0.018014 
137.057251 0.324341 
137.096115 0.55584 
137.646027 0.064219 
137.941391 0.048349 
138.401199 0.031508 
139.072815 23.185833 
139.337601 0.082584 
139.359634 0.010822 
139.89357 0.052884 
140.076233 0.560499 
141.334839 0.014574 
141.907822 0.030296 
142.065948 0.01928 
142.354462 0.026191 
143.208038 0.059769 
145.08577 7.455152 
145.100876 0.015819 
145.513824 0.029132 
146.021286 0.032198 
146.089371 0.273604 
146.184402 0.017598 
147.041672 0.322694 
147.238968 0.012582 
147.542953 0.018869 
149.044907 0.574775 
149.057266 2.686988 
151.036514 2.703255 
151.072845 15.877401 
151.111649 6.406829 
152.076447 0.278279 
152.101624 0.060355 
152.115005 0.19707 
152.232468 0.045863 
153.021011 0.032336 
153.052124 21.476089 
154.060059 2.812521 
154.20787 0.043414 
154.561172 0.018297 
155.106186 0.046999 
156.968094 0.040568 
159.078308 0.205694 
161.093552 0.104854 
163.388474 0.077032 
163.922699 0.020796 
167.055435 2.034367 
167.067764 16.403399 
167.889526 0.015136 
168.075989 0.785147 
168.957428 0.011812 
169.016815 0.036923 
169.047043 0.796786 
169.122284 3.949441 
171.116989 0.049783 
173.057388 3.881439 
173.441666 0.047283 
173.592773 0.02146 
173.608841 0.016842 
174.453323 0.066504 
175.148209 0.0971 
175.828476 0.015061 
179.067474 0.212979 
180.257584 0.010733 
182.018204 0.014437 
183.06279 63.296768 
183.395569 0.022824 
184.066132 2.8412 
185.078354 7.857644 
187.073883 0.105769 
188.711121 0.057097 
188.716507 0.030743 
191.104095 30.339998 
191.559952 0.018128 
192.107666 2.299557 
193.024109 0.080412 
193.149261 0.055771 
193.158783 3.067701 
194.19458 0.03356 
194.267639 0.052065 
195.607147 0.027731 
195.666367 0.048431 
196.387863 0.01144 
199.11174 0.297723 
200.663895 0.030563 
201.073334 0.904078 
202.023499 0.036389 
209.114883 0.072588 
209.336639 0.027827 
210.426559 0.070125 
211.072952 3.066559 
211.817123 0.062067 
212.08049 0.220294 
212.26506 0.035119 
213.043152 0.045638 
213.07402 0.099886 
213.386429 0.016004 
215.511459 0.083451 
218.916122 0.019573 
221.083572 0.017974 
225.042801 0.085624 
225.109482 4.993835 
226.112595 0.07599 
227.69046 0.045178 
237.449997 0.019848 
237.486816 0.019425 
239.089294 1.719577 
239.104263 0.697144 
240.11171 35.912815 
241.118927 9.121004 
241.952118 0.030171 
242.123276 0.508902 
242.622986 0.076861 
243.135574 0.77672 
243.37291 0.028827 
244.143082 0.15177 
244.884796 0.027748 
248.742889 0.013633 
251.111694 0.021527 
251.125259 5.778647 
251.310455 0.075586 
252.129333 0.049667 
253.040863 0.067967 
253.104599 0.884124 
253.141037 0.145105 
256.208679 0.068972 
257.084625 0.019043 
257.114594 8.94484 
258.119507 0.374422 
262.950897 0.017881 
263.059235 0.051093 
263.124481 0.046119 
263.299622 0.04968 
267.990723 0.025113 
268.902771 0.019356 
269.136688 0.024465 
269.642487 0.052609 
269.959717 0.090377 
271.130615 1.110109 
273.078094 0.051014 
273.97525 0.039795 
275.095276 0.087016 
277.111084 0.834253 
277.708527 0.027295 
278.114807 0.045405 
281.068878 0.043109 
281.106201 0.027099 
281.135925 3.364762 
283.094055 0.586126 
283.151031 0.093492 
283.52594 0.069987 
284.381592 0.068545 
285.010529 0.016624 
285.109772 3.042988 
287.125488 1.570516 
290.943298 0.011722 
295.0849 0.065975 
295.121735 0.660687 
295.151123 0.407606 
296.125214 0.016135 
297.13089 1.567665 
299.061829 0.288103 
299.727295 0.016736 
301.104309 7.453756 
302.110199 0.252989 
302.767273 0.068246 
303.120209 5.710295 
303.155762 0.062498 
303.922546 0.069884 
304.12381 0.079841 
304.163971 0.218704 
304.186523 0.181001 
304.580292 0.070361 
305.17215 29.565517 
306.176117 4.468206 
309.146301 1.732612 
309.182098 7.151834 
309.684906 0.017033 
310.186066 0.429824 
311.146118 28.304846 
311.198303 0.699859 
312.150055 3.604307 
316.313751 0.060608 
319.151459 1.782923 
320.585236 0.046433 
321.809906 0.084959 
323.021179 0.041699 
325.124786 0.012829 
327.142365 8.214096 
327.192627 63.447987 
327.728699 0.033885 
328.145325 0.29929 
328.196075 11.335685 
329.156708 10.293355 
329.206055 0.2493 
330.160645 0.895945 
335.161713 4.710189 
336.165131 0.248923 
337.177521 1.030393 
341.108826 0.034785 
344.976929 0.041137 
345.203766 0.035492 
349.798431 0.045206 
353.172119 11.774692 
354.175812 1.715815 
359.198395 3.500775 
360.20224 0.142206 
361.214172 3.328382 
362.218292 0.190897 
367.833649 0.031575 
369.163971 0.043141 
377.208099 15.243697 
378.212341 3.116237 
379.625183 0.019919 
382.689789 0.044681 
385.173187 0.062713 
385.19812 5.912664 
386.201996 0.601154 
387.214783 0.090561 
393.203033 0.241968 
394.372253 0.046724 
395.101166 0.08635 
395.20285 13.468252 
396.207245 2.215587 
397.162415 0.542802 
397.198883 0.258707 
404.003693 0.045923 
407.656982 0.020503 
413.154724 0.020638 
415.176147 0.155847 
415.20932 3.087931 
421.198456 0.595179 
423.46167 0.053187 
424.212982 0.090065 
425.2146 0.603449 
427.24588 0.015381 
429.188965 0.663387 
431.203979 1.695074 
435.193481 0.014694 
439.208984 3.230015 
440.211243 0.111057 
441.23999 0.581795 
443.255463 0.579721 
447.198883 1.246295 
447.233246 0.127184 
448.204376 0.066617 
449.250427 74.640984 
450.253784 16.663004 
451.257111 0.51706 
455.203308 0.585292 
455.239838 40.174355 
456.243378 9.591258 
457.247528 0.418527 
459.249969 2.159064 
460.254944 0.133263 
460.950531 0.07772 
461.265533 0.371676 
463.230286 3.693978 
464.234711 0.240882 
464.454407 0.082794 
467.402405 0.058025 
469.257629 0.120534 
469.801758 0.079058 
470.938324 0.057552 
473.287109 1.270264 
477.802521 0.034523 
479.24054 3.808807 
479.276764 1.380248 
480.24295 0.357799 
485.250732 0.03729 
497.250458 20.784641 
498.253754 5.558821 
499.258606 0.097468 
503.276367 5.840862 
504.279419 1.143593 
509.301666 5.971555 
510.306671 1.283321 
511.317963 0.961117 
512.322693 0.029199 
521.24762 0.996548 
521.287354 20.931858 
521.331848 0.104391 
522.290222 6.030148 
523.295288 0.108327 
527.313049 6.330493 
528.31665 1.758268 
529.277832 3.911886 
529.325317 0.85751 
530.280701 0.741533 
530.324829 0.089644 
531.291016 0.117167 
534.970947 0.033994 
537.284241 0.051125 
539.297546 0.239183 
541.278442 0.998723 
542.281189 0.069202 
542.457947 0.039909 
545.323608 8.095301 
546.327698 2.402577 
549.609131 0.088541 
553.292175 0.128362 
557.47937 0.05206 
559.288513 4.873473 
560.291016 0.834647 
562.204529 0.080688 
565.277832 0.110092 
571.30304 1.396476 
575.283264 2.564776 
576.286926 0.168459 
583.287415 4.255858 
584.292114 0.460159 
585.31665 0.035768 
587.308167 0.171906 
588.304443 0.091184 
589.313049 7.111605 
590.316772 2.085735 
591.286011 1.387056 
594.936584 0.392667 
595.937012 0.308258 
596.934753 0.107154 
599.318848 2.197153 
600.322021 0.245619 
601.333008 0.096568 
603.329468 2.931797 
604.33313 0.264307 
605.306763 0.305288 
606.313843 0.408282 
607.323486 38.427444 
608.327148 12.671771 
609.330688 0.638779 
617.366028 0.743735 
617.822083 0.032792 
623.313599 1.079446 
623.36145 0.359323 
624.320923 0.022324 
636.946899 0.022715 
637.376404 0.021141 
641.328979 16.005383 
642.332581 5.547513 
643.335754 0.139903 
647.35614 2.21448 
648.358276 0.113726 
650.465088 0.07483 
652.925354 0.057559 
653.59314 0.088308 
665.370422 12.076062 
666.372437 4.638241 
667.374756 0.021182 
671.390991 2.902146 
672.395752 0.509498 
689.402161 11.045752 
690.405396 4.481068 
691.411072 0.058185 
707.982849 0.07753 
708.188965 0.055488 
708.254333 0.076044 
708.309204 0.130095 
708.526001 0.141978 
708.593933 0.048367 
708.88855 0.023623 
714.885315 0.029796 
724.303589 0.085064 
727.366455 3.274024 
728.370361 0.401349 
733.392456 4.534453 
734.39386 1.237184 
735.370544 0.141479 
747.407166 1.765904 
748.40741 0.229212 
751.401733 86.227989 
752.404724 36.371361 
753.408752 6.41898 
762.985779 0.023216 
767.433777 1.765076 
768.436157 0.371007 
783.990234 0.087231 
809.407654 3.716568 
810.411011 0.809613 
815.469604 1.205155 
816.475769 0.223691 
816.694824 0.070997 
833.479736 9.630399 
834.483826 4.530073 
835.484619 0.209905 
849.577148 0.060068 
858.767761 0.033807 
877.469604 3.464101 
878.473328 1.400033 
879.468628 0.12262 
884.027161 0.014176 
893.61731 0.293078 
894.621094 0.196693 
895.480896 100.0 
896.483765 52.50581 
897.486267 12.376463 
909.602478 0.068765 
922.014221 0.082107 
929.0578 0.046141 
END IONS

