BEGIN IONS
PEPMASS=1253.62
CHARGE=1+
COMPOUNDNAME=Dactinomycin
LIBRARYQUALITY=3
SMILES=N/A
INCHIKEY=RJURFGZVJUQBHK-UHFFFAOYSA-N
INCHI=InChI=1S/C62H86N12O16/c1-27(2)42-59(84)73-23-17-19-36(73)57(82)69(13)25-38(75)71(15)48(29(5)6)61(86)88-33(11)44(55(80)65-42)67-53(78)35-22-21-31(9)51-46(35)64-47-40(41(63)50(77)32(10)52(47)90-51)54(79)68-45-34(12)89-62(87)49(30(7)8)72(16)39(76)26-70(14)58(83)37-20-18-24-74(37)60(85)43(28(3)4)66-56(45)81/h21-22,27-30,33-34,36-37,42-45,48-49H,17-20,23-26,63H2,1-16H3,(H,65,80)(H,66,81)(H,67,78)(H,68,79)
MSLEVEL=2
SOURCE_INSTRUMENT=N/A-ESI-QFT
FILENAME=library_mgf.mgf
SEQ=*..*
IONMODE=negative
ORGANISM=MONA
NAME=Dactinomycin [M-H]-
PI=MoNA
DATACOLLECTOR=MoNA:VF-NPL-QEHF000888
PUBMED=N/A
SUBMITUSER=mwang87
TAGS=
SPECTRUMID=CCMSLIB00004691951
SCANS=888
87.541634 0.171277 
89.048729 0.192383 
89.524086 0.282371 
90.743782 0.183782 
91.145966 0.246253 
92.043724 0.179146 
92.829742 0.225345 
93.526199 0.158461 
93.898376 0.159336 
94.028831 0.23104 
95.023834 1.143537 
95.31823 0.149428 
96.007607 0.235809 
96.044258 0.19099 
97.003174 0.210178 
97.01561 0.188752 
98.224403 0.181601 
98.690117 0.14898 
99.054939 0.180093 
100.039085 1.296771 
100.198471 0.134797 
101.046974 0.195594 
103.407028 0.126813 
103.470222 0.154999 
103.538033 0.139578 
104.141937 0.1622 
105.709641 0.157582 
106.2146 0.146446 
106.284447 0.154371 
106.474625 0.146314 
109.039864 0.169813 
109.140205 0.172585 
109.279434 0.134861 
109.695923 0.152626 
109.935448 0.293463 
110.047348 3.019786 
110.773949 0.219049 
111.453743 0.277174 
112.026451 0.14772 
112.039268 3.812009 
113.578522 0.154547 
114.054733 0.953882 
114.279572 0.140373 
114.521248 0.268909 
115.516006 0.164304 
116.905075 0.139981 
118.028641 3.394613 
118.350868 0.146301 
120.044502 0.152237 
120.386543 0.181142 
120.495247 0.175637 
121.694641 0.29773 
122.538071 0.212053 
122.565659 0.168206 
123.018906 0.474735 
123.031143 0.193465 
124.026688 13.957938 
124.039253 3.111869 
125.034561 3.656103 
125.065552 0.273994 
125.070908 2.822955 
126.054901 3.911642 
126.914146 0.183027 
127.086594 11.898702 
129.22937 0.18582 
129.868179 0.26549 
130.086243 31.204018 
130.179443 0.165497 
130.363632 0.16744 
131.354706 0.280477 
131.999588 0.186085 
132.044403 1.086567 
132.839005 0.173993 
136.039093 0.348537 
136.356384 0.269888 
136.799667 0.290072 
136.998291 0.971907 
137.034317 0.21963 
137.107391 0.652474 
138.042511 5.203249 
138.054993 3.100129 
138.968063 0.177571 
139.050232 32.561481 
139.086807 0.970905 
139.218994 0.327578 
139.453293 0.279039 
140.129761 0.28329 
140.863403 0.250237 
141.065979 3.017521 
141.102356 0.703044 
141.171936 0.172151 
142.654922 0.199256 
144.080643 0.653815 
145.325729 0.203569 
147.05545 0.832671 
148.03978 0.237059 
149.071091 0.209464 
151.050293 1.457817 
151.08667 0.189215 
151.336411 0.167038 
152.058289 5.794351 
152.209244 0.183701 
153.029327 0.211937 
153.066071 1.041657 
153.102509 0.209288 
154.356293 0.170759 
158.060471 0.422197 
159.055069 0.208305 
161.034851 0.213451 
164.070755 3.397926 
165.06604 3.000244 
167.045334 20.846603 
167.081787 11.179812 
167.77243 0.164646 
168.082047 0.194135 
168.089615 10.088866 
169.084244 0.195161 
169.097778 0.335163 
174.042557 0.637932 
175.050446 1.064228 
175.846344 0.206488 
176.045837 0.234676 
179.045425 3.686911 
179.08197 1.547934 
179.092087 0.156322 
180.102142 0.352405 
181.061035 0.904316 
181.097473 7.047418 
182.05983 0.167484 
183.113205 10.61892 
184.075943 0.758975 
185.070297 0.179039 
185.079071 0.229702 
188.059357 0.153993 
188.235672 0.173933 
189.054199 0.18591 
189.06604 0.968472 
189.986465 0.296176 
191.045486 0.200567 
193.097672 1.200308 
194.060242 0.206751 
195.076843 40.21743 
195.113312 17.682491 
196.063461 0.575007 
196.079346 0.343501 
196.406906 0.171596 
197.048431 0.172011 
198.234024 0.159426 
201.903107 0.143006 
202.07254 0.131412 
203.082458 0.499677 
204.077606 0.259275 
208.673798 0.148203 
209.071182 0.193005 
209.395493 0.165238 
211.78627 0.14393 
212.071304 9.03051 
213.596146 0.12836 
216.053696 0.275358 
218.530518 0.186254 
219.895813 1.357529 
221.035477 0.908639 
221.071823 2.166229 
222.055298 0.539099 
222.076965 0.175496 
222.088272 10.698486 
223.05098 0.270334 
223.06337 3.84551 
224.058945 7.833553 
224.071091 2.107114 
225.079147 0.422481 
226.02298 0.133006 
231.354416 0.167976 
231.512344 0.239029 
232.072617 1.800948 
233.034561 0.757191 
233.968307 0.179632 
234.038391 0.152509 
234.2845 0.187975 
235.051483 0.583882 
235.087357 0.255843 
236.058807 7.601623 
236.499008 0.186403 
237.066833 34.366234 
237.079147 1.149221 
238.074051 2.313734 
238.087158 4.757354 
239.082397 35.8783 
240.088181 1.630662 
241.061661 0.434472 
241.581894 0.163699 
244.279648 0.16355 
245.433823 0.158868 
246.068848 0.14237 
247.051498 0.183014 
247.087296 0.143824 
248.058334 0.467731 
249.066772 5.278019 
249.103668 0.212285 
250.074844 18.834263 
250.087845 0.942559 
251.045898 1.135258 
251.082489 13.4319 
251.095459 0.2492 
251.251495 0.183683 
251.649139 0.167904 
252.088593 1.180538 
252.10231 0.283706 
253.062149 0.812209 
253.098282 1.914843 
254.311142 0.143008 
258.051788 0.743102 
261.05304 0.180974 
261.61441 0.175595 
262.062012 9.803108 
262.075928 0.711802 
262.558197 0.16959 
263.067841 0.175197 
263.082825 7.597839 
264.077637 12.609378 
264.13501 0.313938 
264.621429 0.205084 
265.062012 4.199546 
265.084015 0.813176 
265.098602 4.024317 
266.069122 0.491388 
266.150482 0.258617 
268.974823 0.153995 
271.073853 0.431098 
274.063507 0.291428 
275.069458 1.699953 
275.084015 0.257508 
276.041412 2.815068 
276.077576 7.572404 
277.048065 0.374479 
277.085083 7.318713 
277.099091 6.889308 
277.169189 0.216931 
278.054443 0.181713 
278.069855 7.94003 
278.092865 2.08175 
279.077667 7.898835 
279.113953 6.852292 
280.072296 4.295823 
280.16684 18.299417 
283.862549 0.222662 
285.858215 0.178146 
287.085052 0.241376 
288.076233 0.416342 
288.334717 0.185938 
289.083923 0.21528 
289.099365 1.808664 
290.093719 1.82449 
291.0784 1.824853 
291.098999 0.238995 
292.072357 13.541656 
292.091003 0.158442 
292.109467 12.007526 
293.063171 0.160258 
293.079346 14.31005 
293.095703 3.592578 
293.131287 0.185848 
294.088379 12.30209 
295.094604 0.994699 
296.068207 0.241899 
300.113037 0.314111 
301.083832 0.172861 
302.093628 2.811438 
302.291473 0.195392 
304.072723 8.966944 
304.109375 3.726217 
305.079254 9.564974 
305.095154 3.359409 
306.087952 18.500259 
307.095642 8.993751 
308.069061 0.277519 
308.103607 1.993873 
311.857483 0.171036 
314.094696 0.453935 
315.100403 0.268955 
316.073395 0.32914 
316.108643 0.89284 
316.483246 0.219639 
317.095795 0.282344 
318.073273 0.847685 
318.089172 7.709704 
319.08197 13.717886 
320.069214 0.382921 
320.084686 1.466016 
320.104309 87.151657 
321.111115 49.571686 
322.083954 0.653771 
322.119354 28.615025 
323.12326 1.065687 
324.09903 1.354018 
329.104553 1.094815 
330.088928 2.751134 
331.083771 3.21644 
332.070557 0.405493 
332.090698 12.051649 
332.140198 0.152151 
332.929749 0.173048 
333.074585 0.447522 
333.112793 0.249224 
334.084778 0.715872 
334.119934 16.834091 
335.090912 0.256123 
335.126953 4.288482 
335.252258 0.190508 
336.098602 0.450169 
337.072327 0.162066 
337.094574 0.461671 
338.114929 5.968775 
342.565765 0.185486 
344.104584 0.531845 
345.099701 13.404305 
346.105835 24.958715 
347.115051 100.0 
347.139374 0.308833 
348.098663 0.183044 
348.117706 10.497668 
348.13736 5.233698 
349.141663 0.381295 
351.086273 2.664662 
352.093903 10.648469 
357.099426 2.275867 
359.115021 5.209213 
360.135559 0.277075 
361.130127 0.628585 
362.115143 0.252343 
363.111176 0.180771 
364.117828 0.863813 
365.125702 6.009904 
367.118439 0.678454 
369.099701 0.403585 
370.107025 12.455088 
371.114014 4.52459 
372.122467 1.243215 
373.096466 0.19635 
373.131622 0.365014 
374.040894 0.160946 
375.110321 1.923763 
375.146606 0.436321 
376.116913 0.354426 
377.125397 3.346282 
381.378723 0.176744 
382.059204 0.199564 
385.131012 9.583292 
386.136536 0.493866 
387.146179 9.682769 
388.143677 1.974088 
389.125793 1.077106 
391.141205 0.483626 
401.122894 0.215383 
403.14151 1.849131 
404.147858 0.437801 
405.157104 11.507648 
406.1604 0.762239 
416.128998 0.223063 
417.584686 0.181148 
420.486053 0.177687 
427.593628 0.145845 
451.826935 0.168392 
458.733093 0.175483 
476.704437 0.160583 
487.762085 0.138665 
499.868286 0.152888 
506.60199 0.316562 
524.619263 0.157872 
536.272217 0.169896 
543.888611 0.179019 
563.457275 0.149314 
586.395081 0.2608 
586.904419 0.156095 
592.426819 0.19478 
601.399048 0.202599 
602.683472 0.303328 
641.562988 0.255127 
649.131042 0.172674 
656.945007 0.176213 
664.265991 0.191971 
675.330566 0.172569 
709.07373 0.181035 
709.282715 0.159182 
711.929626 0.193131 
716.641846 0.207831 
716.986938 0.272211 
731.449951 0.173688 
743.785522 0.196056 
748.06189 0.229364 
760.964478 0.324848 
761.850891 0.188872 
786.934814 0.22185 
795.99353 0.190384 
844.603333 0.302693 
912.618164 0.256934 
941.903442 0.177569 
965.492065 0.316362 
977.60968 0.219363 
999.211731 0.206086 
1013.730469 0.230811 
1015.560059 0.19165 
1035.227051 0.198298 
1138.417603 0.184503 
1170.029663 0.343055 
1179.263062 0.144388 
1235.002563 0.212739 
1236.579224 0.180329 
1240.420044 0.164334 
1271.824585 0.178907 
END IONS

