BEGIN IONS
PEPMASS=414.155
CHARGE=1+
COMPOUNDNAME=(S,R)-Nosapine
LIBRARYQUALITY=3
SMILES=N/A
INCHIKEY=AKNNEGZIBPJZJG-MSOLQXFVSA-N
INCHI=InChI=1S/C22H23NO7/c1-23-8-7-11-9-14-20(29-10-28-14)21(27-4)15(11)17(23)18-12-5-6-13(25-2)19(26-3)16(12)22(24)30-18/h5-6,9,17-18H,7-8,10H2,1-4H3/t17-,18+/m1/s1
MSLEVEL=2
SOURCE_INSTRUMENT=N/A-ESI-QFT
FILENAME=library_mgf.mgf
SEQ=*..*
IONMODE=positive
ORGANISM=MONA
NAME=(S,R)-Nosapine [M+H]+
PI=MoNA
DATACOLLECTOR=MoNA:VF-NPL-QEHF000048
PUBMED=N/A
SUBMITUSER=mwang87
TAGS=
SPECTRUMID=CCMSLIB00004691111
SCANS=48
50.121536 0.014121 
50.354977 0.01535 
50.407074 0.01621 
50.537334 0.013074 
50.539692 0.015008 
51.289207 0.015659 
51.646114 0.013797 
51.650478 0.010095 
52.017593 0.017099 
52.436852 0.015816 
52.440552 0.019229 
53.229 0.015207 
53.569904 0.014655 
53.572472 0.014909 
53.798569 0.014026 
54.365524 0.016839 
54.995987 0.01432 
55.78756 0.015911 
56.046646 0.016606 
56.408127 0.015585 
56.467068 0.0176 
57.057213 0.01473 
57.188133 0.017205 
58.162491 0.012498 
58.213078 0.015811 
58.267853 0.015165 
58.758362 0.017773 
58.915352 0.018155 
59.450764 0.014876 
60.501122 0.016719 
60.840351 0.015177 
60.955196 0.011158 
61.400192 0.019956 
61.50732 0.01383 
62.042747 0.011384 
62.537663 0.015463 
62.888538 0.01217 
63.299431 0.014747 
63.433769 0.011239 
63.556538 0.014712 
64.022125 0.014809 
64.46286 0.015596 
65.139008 0.024231 
65.491577 0.01719 
66.016319 0.01964 
67.751205 0.010166 
67.88047 0.016002 
67.884354 0.015497 
68.294235 0.016857 
69.155701 0.015186 
69.411835 0.015937 
69.505013 0.015029 
70.531761 0.017007 
70.713142 0.018967 
71.127319 0.01796 
71.537842 0.015178 
71.758926 0.022941 
72.063736 0.016179 
72.725754 0.016122 
72.784309 0.018139 
72.885292 0.013228 
73.722031 0.015936 
74.611938 0.016089 
75.112122 0.014414 
75.713844 0.020039 
77.650261 0.012407 
77.652206 0.014608 
78.020493 0.016116 
78.824654 0.016945 
80.159554 0.011783 
80.385094 0.016599 
80.984085 0.016151 
81.134544 0.012957 
83.154678 0.015681 
84.853012 0.016559 
85.239227 0.014006 
86.483582 0.011992 
87.924568 0.016534 
90.270088 0.016386 
91.054672 0.405753 
91.283432 0.018867 
91.320107 0.019163 
93.070168 0.018881 
94.468727 0.015198 
95.565689 0.011272 
95.916382 0.01322 
96.617348 0.018167 
96.903297 0.017654 
97.074348 0.017114 
97.275543 0.015313 
97.299911 0.014028 
97.356544 0.015769 
97.801514 0.016866 
97.991951 0.0174 
98.195633 0.016715 
98.346222 0.01643 
99.028107 0.017524 
99.14978 0.017827 
100.169334 0.018525 
101.613808 0.015728 
102.793716 0.0185 
103.054489 0.024428 
103.173149 0.015981 
103.256744 0.019374 
103.408791 0.012955 
104.592575 0.017309 
108.663376 0.019272 
110.906319 0.018324 
111.408058 0.018003 
111.911491 0.017111 
112.006813 0.016168 
114.804848 0.017179 
114.817551 0.01663 
115.076347 0.017282 
119.049248 0.182411 
121.065002 1.477901 
121.813507 0.018892 
123.469696 0.017763 
123.601593 0.017145 
123.795235 0.015739 
123.915359 0.017597 
127.49025 0.016619 
129.014709 0.015581 
129.198212 0.017197 
131.522781 0.017296 
132.541031 0.018974 
133.297836 0.017851 
135.748108 0.016088 
135.974472 0.015617 
138.032028 0.017432 
138.905518 0.014618 
142.266586 0.042939 
142.278503 0.015554 
145.044678 0.015435 
145.611725 0.016532 
148.790298 0.018316 
148.938492 0.016799 
149.059769 0.512043 
149.981537 0.015112 
151.075363 0.03969 
151.714798 0.018855 
152.378433 0.018688 
152.792114 0.031891 
159.060547 0.01578 
164.046417 0.044297 
164.541809 0.017092 
165.05455 0.995243 
167.724304 0.021987 
168.431976 0.016448 
170.145676 0.016498 
173.305969 0.014749 
175.030304 0.016383 
175.075439 0.039891 
177.054825 0.015394 
177.258545 0.018485 
178.06192 0.019259 
179.070221 8.084115 
180.073425 0.550223 
181.58754 0.022542 
181.963547 0.016935 
182.593796 0.01721 
184.915756 0.017646 
189.054672 0.168048 
189.931046 0.017283 
189.94249 0.018426 
190.086273 0.063742 
190.483749 0.013579 
191.05806 0.033304 
191.07019 0.52522 
193.049591 1.041039 
199.104706 0.017378 
203.057693 0.153668 
203.070267 0.017098 
204.065491 0.547599 
205.049927 0.15826 
205.073395 9.043587 
205.083923 0.096527 
206.081299 8.439018 
207.084518 0.548098 
209.096191 0.020112 
217.049118 0.028782 
217.960052 0.020121 
218.081345 1.635945 
219.089203 2.072755 
220.096725 100.0 
220.883987 0.114799 
220.886948 0.107926 
221.100174 11.229579 
221.586777 0.018069 
222.101334 0.097392 
225.218643 0.018075 
227.135056 0.01867 
231.08046 0.016762 
233.058716 0.021863 
233.335785 0.02086 
234.067322 0.154496 
235.075134 0.213756 
236.585938 0.017926 
237.090515 0.019439 
237.904556 0.017652 
246.06749 0.176836 
247.075119 0.198918 
247.49028 0.019151 
248.079102 0.021175 
248.091995 0.522405 
249.054459 0.085235 
249.091049 0.394127 
250.062271 0.035194 
251.070114 0.310696 
252.077652 0.432785 
253.084641 0.020247 
260.410919 0.020909 
261.054291 0.142804 
262.062103 0.651871 
263.070007 1.571299 
264.077728 1.38555 
265.049438 0.349094 
265.085327 0.886874 
266.09201 0.135312 
267.064423 0.037583 
267.10141 0.690189 
269.116425 0.06193 
274.062378 0.477483 
275.069489 0.386857 
276.077789 0.948936 
277.049011 0.211184 
277.085541 1.153735 
278.056213 0.094314 
278.092041 0.070822 
279.064819 0.888373 
279.10141 0.361637 
280.072693 3.745184 
281.078522 0.921654 
282.087524 0.251281 
289.049042 0.039802 
289.085632 0.017931 
290.057129 0.304115 
291.064911 1.502494 
292.072449 2.109519 
293.043549 0.024327 
293.080048 1.473296 
294.087494 0.869635 
295.060059 0.703024 
295.096283 5.856385 
296.100403 1.13966 
296.400452 0.013394 
297.075531 0.018551 
297.111633 0.168372 
299.274231 0.017384 
299.491791 0.018155 
300.751404 0.018286 
302.057251 0.725168 
303.06485 0.40753 
304.072571 0.902085 
305.080658 1.990116 
306.052094 2.037019 
306.086121 0.475091 
307.059784 3.468511 
307.096039 1.475619 
308.067078 1.953935 
308.1026 0.506812 
309.075165 1.929173 
310.08313 2.67562 
311.087402 0.252489 
312.098633 0.654958 
313.10556 0.136801 
313.577637 0.017391 
319.059967 1.451664 
320.066956 0.980969 
320.089142 0.128493 
321.075165 1.686325 
321.0961 0.023564 
322.083313 4.913683 
323.055176 0.995647 
323.091034 13.485664 
324.058685 0.046773 
324.096436 3.436774 
325.072357 0.024997 
325.106506 5.115911 
326.110382 0.796468 
327.087799 0.021712 
327.122009 0.145132 
332.067474 0.917898 
333.073608 0.049463 
334.083496 3.126112 
334.105743 0.151152 
335.054443 1.326513 
335.089294 1.311681 
335.111694 0.04426 
336.060242 0.108405 
336.097046 0.039956 
337.070709 1.296291 
337.106659 0.172594 
338.078247 3.231638 
338.100006 0.202763 
339.081696 0.413489 
340.094299 0.019511 
341.101013 0.024661 
348.085876 0.039277 
349.069885 0.018287 
349.107452 0.043589 
350.078461 5.167363 
350.101105 0.213991 
351.081879 1.101733 
352.093445 1.382105 
352.117584 1.063274 
353.101654 14.074934 
354.105103 2.814938 
355.117035 0.206095 
355.553741 0.01764 
361.579803 0.01322 
363.110046 0.163845 
363.141907 0.017557 
364.116882 0.041444 
365.10199 1.825824 
366.096802 2.449478 
367.100128 0.195231 
368.066895 0.016945 
378.132874 0.014206 
380.111877 0.022911 
381.120483 1.327968 
382.124207 0.109601 
390.394592 0.016253 
409.832794 0.020599 
414.154022 0.041451 
420.252014 0.019599 
435.379456 0.019244 
436.086731 0.018848 
436.444214 0.017748 
END IONS

