BEGIN IONS
PEPMASS=268.0
CHARGE=1+
COMPOUNDNAME=Massbank:KO002038 Adenosine
LIBRARYQUALITY=3
SMILES=OC[C@@H](O1)[C@@H](O)[C@@H](O)[C@@H]1n(c3)c(n2)c(n3)c(N)nc2
INCHIKEY=OIRDTQYFTABQOQ-KQYNXXCUSA-N
INCHI=1S/C10H13N5O4/c11-8-5-9(13-2-12-8)15(3-14-5)10-7(18)6(17)4(1-16)19-10/h2-4,6-7,10,16-18H,1H2,(H2,11,12,13)/t4-,6-,7-,10-/m1/s1
MSLEVEL=2
SOURCE_INSTRUMENT=ESI-LC-ESI-QQ
FILENAME=Massbank_ESI_positive_8_1_2014_peaks.mgf
SEQ=*..*
IONMODE=Positive
ORGANISM=MASSBANK
NAME=Massbank:KO002038 Adenosine [M+H]+
PI=Putative Massbank Match
DATACOLLECTOR=Massbank
PUBMED=N/A
SUBMITUSER=mwang87
TAGS=
SPECTRUMID=CCMSLIB00000216557
SCANS=7840
45.7 19802.0 
74.0 1490100.5 
77.3 29703.0 
82.2 34653.5 
106.2 39604.0 
121.0 103960.5 
136.0 11064367.5 
137.8 1668318.5 
147.6 34653.5 
149.8 49505.0 
152.9 49505.0 
156.9 24752.5 
163.4 9901.0 
169.7 24752.5 
176.0 39604.0 
177.5 69307.0 
178.9 9901.0 
191.4 34653.5 
192.2 59406.0 
195.3 252475.5 
196.8 9901.0 
204.7 44554.5 
207.9 806931.5 
214.7 19802.0 
218.1 128713.0 
218.7 49505.0 
233.7 69307.0 
236.2 74257.5 
251.4 1856437.5 
268.3 136267463.0 
END IONS

