BEGIN IONS
TITLE=Scan Number: 4641
PEPMASS=734.46698
CHARGE=0+
COMPOUNDNAME=Erythromycin
LIBRARYQUALITY=3
SMILES=CCC1C(C(C(C(=O)C(CC(C(C(C(C(C(=O)O1)C)OC2CC(C(C(O2)C)O)(C)OC)C)OC3C(C(CC(O3)C)N(C)C)O)(C)O)C)C)O)(C)O
INCHIKEY=ULGZDMOVFRHVEP-UHFFFAOYSA-N
INCHI=1S/C37H67NO13/c1-14-25-37(10,45)30(41)20(4)27(39)18(2)16-35(8,44)32(51-34-28(40)24(38(11)12)15-19(3)47-34)21(5)29(22(6)33(43)49-25)50-26-17-36(9,46-13)31(42)23(7)48-26/h18-26,28-32,34,40-42,44-45H,14-17H2,1-13H3/t18-,19-,20+,21+,22-,23+,24+,25-,26+,28-,29+,30-,31+,32-,34+,35-,36-,37-/m1/s1
MSLEVEL=2
SOURCE_INSTRUMENT=LC-ESI-qTof
FILENAME=f.mice/SC_-Fe_+Fe_YEME_Langzeit_Anfang_2015/160113_Erythromycin_V.mzXML;
SEQ=*..*
NOTES=
IONMODE=Positive
ORGANISM=GNPS-LIBRARY
NAME=Erythromycin M+H
SPECTRUMID=CCMSLIB00003739948
ACTIVATION=CID
INSTRUMENT=ion trap
SCANS=4641
72.127731 39.0 
83.101646 87.0 
88.130325 48.0 
99.143074 21.0 
113.11824 54.0 
116.132912 98.0 
116.165848 55.0 
127.141663 36.0 
136.141388 35.0 
144.166992 17.0 
155.205368 8.0 
157.859848 8.0 
158.18364 1073.0 
158.233047 78.0 
158.238541 78.0 
158.331924 13.0 
159.041336 9.0 
159.184525 138.0 
159.399399 7.0 
166.217178 8.0 
170.186081 11.0 
176.189575 27.0 
204.16539 29.0 
206.178909 18.0 
233.233841 61.0 
237.116806 10.0 
284.258789 13.0 
316.284363 92.0 
316.424133 11.0 
317.309998 31.0 
325.267975 13.0 
325.275848 13.0 
334.281586 8.0 
335.296051 21.0 
342.29483 49.0 
347.304504 18.0 
360.319275 28.0 
365.308502 92.0 
383.322876 93.0 
397.08551 52.0 
426.284882 22.0 
431.265747 8.0 
458.434235 65.0 
464.379456 28.0 
482.377838 23.0 
483.375519 14.0 
488.292542 24.0 
500.376587 23.0 
501.412262 13.0 
521.363098 16.0 
522.38031 47.0 
522.420227 553.0 
522.460083 58.0 
523.358582 77.0 
523.418518 115.0 
524.397766 29.0 
524.457764 49.0 
525.397949 35.0 
526.118652 8.0 
535.260193 40.0 
539.906189 20.0 
540.423645 376.0 
540.921021 45.0 
541.317078 7.0 
541.41864 67.0 
541.438965 149.0 
542.414551 37.0 
542.434875 31.0 
543.431824 17.0 
544.205505 9.0 
553.389282 18.0 
553.399536 18.0 
555.013062 8.0 
555.40387 20.0 
556.381714 15.0 
556.577393 7.0 
557.927429 9.0 
558.4328 916.0 
558.763 15.0 
559.361633 13.0 
559.392639 9.0 
559.444214 311.0 
559.568176 11.0 
560.415283 21.0 
560.446289 34.0 
560.601318 11.0 
560.735657 12.0 
560.828735 35.0 
561.056213 8.0 
561.231995 8.0 
561.418213 20.0 
561.438904 12.0 
566.446167 7.0 
569.067505 9.0 
574.066833 7.0 
575.437866 27.0 
575.574036 10.0 
576.160645 17.0 
576.443604 2629.0 
576.548401 22.0 
576.590332 12.0 
576.611328 21.0 
576.674255 22.0 
576.84198 17.0 
577.450317 909.0 
577.83844 6.0 
578.048401 7.0 
578.415833 116.0 
578.447327 188.0 
578.552307 12.0 
578.940918 6.0 
579.44519 19.0 
579.466187 40.0 
581.096191 7.0 
581.10675 7.0 
581.348816 8.0 
582.191223 6.0 
582.791748 6.0 
585.683044 6.0 
586.43335 59.0 
587.099609 19.0 
589.439575 8.0 
591.837402 8.0 
591.848022 8.0 
592.36853 7.0 
595.411194 19.0 
599.391235 10.0 
602.484009 9.0 
631.949768 63.0 
634.036621 11.0 
640.428345 49.0 
656.838684 11.0 
658.417236 18.0 
658.473206 16.0 
663.715149 38.0 
672.980957 240.0 
673.196045 7.0 
673.660583 54.0 
676.712036 7.0 
680.020752 15.0 
689.880798 8.0 
692.715942 9.0 
694.567017 13.0 
694.659058 15.0 
696.593506 7.0 
698.438171 14.0 
698.507446 225.0 
699.453857 22.0 
699.465393 22.0 
699.488464 27.0 
699.523132 111.0 
700.528015 28.0 
701.082764 19.0 
702.007751 37.0 
702.516846 21.0 
702.852356 46.0 
703.512268 42.0 
705.053162 7.0 
707.443115 14.0 
710.732971 7.0 
711.815735 19.0 
713.365662 7.0 
713.377319 7.0 
716.54071 301.0 
717.452454 31.0 
717.522644 102.0 
718.434998 7.0 
718.552063 86.0 
718.715881 43.0 
719.523682 21.0 
720.507629 14.0 
723.38147 7.0 
725.861084 22.0 
726.896484 7.0 
728.427368 61.0 
729.865479 15.0 
731.234253 18.0 
731.56488 9.0 
732.072632 43.0 
732.178955 17.0 
733.041565 9.0 
733.502625 13.0 
733.538086 7.0 
733.975647 7.0 
734.42511 106.0 
734.531555 2734.0 
734.638062 118.0 
734.673584 26.0 
734.720886 10.0 
734.76825 38.0 
734.827393 24.0 
735.08783 24.0 
735.395569 47.0 
735.442871 26.0 
735.537598 1460.0 
735.727051 18.0 
735.821838 44.0 
735.892883 37.0 
735.928406 38.0 
735.963928 9.0 
736.236389 16.0 
736.532532 285.0 
736.591736 32.0 
736.947266 8.0 
737.077637 49.0 
737.302856 99.0 
737.385803 7.0 
737.551819 136.0 
737.705872 24.0 
738.548035 20.0 
738.702271 8.0 
738.832825 9.0 
740.69696 21.0 
740.887085 11.0 
740.994019 5.0 
741.00592 5.0 
742.456421 10.0 
742.884705 9.0 
743.087036 104.0 
744.932678 7.0 
747.783203 10.0 
752.326416 26.0 
753.524292 6.0 
754.627197 7.0 
764.360291 7.0 
775.72345 11.0 
795.976929 64.0 
832.272095 89.0 
835.537231 12.0 
838.01239 10.0 
843.024353 94.0 
860.120605 47.0 
868.025513 99.0 
895.768311 47.0 
915.19696 133.0 
931.300354 74.0 
933.273132 30.0 
949.399536 10.0 
960.136963 44.0 
960.556335 22.0 
1030.30896 39.0 
1047.927734 25.0 
1113.681519 8.0 
1200.993164 12.0 
1272.638428 7.0 
1272.654053 7.0 
1390.086914 16.0 
1460.106323 17.0 
1495.077515 7.0 
1548.722412 8.0 
1858.957764 10.0 
2270.328857 5.0 
2270.349609 5.0 
2863.301514 13.0 
END IONS

