BEGIN IONS
PEPMASS=319.119
CHARGE=1+
COMPOUNDNAME=MoNA:2748065 Mycophenolic (Mycophenolate) [M+H]
LIBRARYQUALITY=3
SMILES=N/A
INCHIKEY=HPNSFSBZBAHARI-RUDMXATFSA-N
INCHI=InChI=1S/C17H20O6/c1-9(5-7-13(18)19)4-6-11-15(20)14-12(8-23-17(14)21)10(2)16(11)22-3/h4,20H,5-8H2,1-3H3,(H,18,19)/b9-4+
MSLEVEL=2
SOURCE_INSTRUMENT=LC-ESI-ITFT-LC-ESI-ITFT
FILENAME=output_mgf.mgf
SEQ=*..*
IONMODE=
ORGANISM=MONA
NAME=MoNA:2748065 Mycophenolic (Mycophenolate) [M+H] [M-H]-
PI=MoNA
DATACOLLECTOR=MoNA
PUBMED=N/A
SUBMITUSER=mwang87
TAGS=
SPECTRUMID=CCMSLIB00000565071
SCANS=2323
179.035 41.705333 
191.035 34.86382 
243.1033 7.417951 
269.0825 6.124432 
275.1291 29.718994 
287.0926 100.0 
END IONS

