BEGIN IONS
PEPMASS=424.221
CHARGE=1+
COMPOUNDNAME=ACTINONIN
LIBRARYQUALITY=3
SMILES=N/A
INCHIKEY=XJLATMLVMSFZBN-VYDXJSESSA-N
INCHI=InChI=1S/C19H35N3O5/c1-4-5-6-8-14(11-16(24)21-27)18(25)20-17(13(2)3)19(26)22-10-7-9-15(22)12-23/h13-15,17,23,27H,4-12H2,1-3H3,(H,20,25)(H,21,24)/t14-,15+,17+/m1/s1
MSLEVEL=2
SOURCE_INSTRUMENT=N/A-ESI-QFT
FILENAME=library_mgf.mgf
SEQ=*..*
IONMODE=positive
ORGANISM=MONA
NAME=ACTINONIN [M+K]+
PI=MoNA
DATACOLLECTOR=MoNA:VF-NPL-QEHF027314
PUBMED=N/A
SUBMITUSER=mwang87
TAGS=
SPECTRUMID=CCMSLIB00004720895
SCANS=27314
50.334854 1.176585 
50.695282 0.658871 
50.714115 0.429389 
50.975567 0.975932 
51.716141 0.47839 
52.052921 0.64783 
52.079449 0.825268 
52.307415 0.605164 
53.552956 0.543436 
54.546139 0.504671 
54.9161 0.596393 
54.918369 0.961693 
54.927017 0.545964 
55.138069 0.554154 
55.655006 0.612653 
55.697235 0.774946 
56.491173 0.945177 
56.552921 0.724247 
56.965004 56.627258 
56.971088 0.474378 
57.07011 1.620407 
57.094509 0.58508 
57.403957 0.456371 
58.065269 0.345725 
58.273357 1.012938 
58.288273 0.662681 
59.195461 0.846242 
59.416801 0.537461 
59.453491 0.335257 
59.904465 0.808277 
60.015865 0.607221 
60.191135 0.927918 
60.25502 0.455564 
60.362301 0.396318 
60.540859 0.991212 
60.913136 0.847287 
61.177349 0.613953 
61.948563 0.96486 
61.995487 0.869348 
62.307049 0.951608 
62.354244 0.444306 
62.618969 0.478705 
62.900612 0.827117 
63.021233 0.36833 
63.079304 0.520931 
63.567398 0.365541 
63.597115 0.617098 
64.137993 0.738996 
67.187202 0.738616 
67.500038 0.623521 
67.56205 0.367288 
67.890541 0.408989 
68.012032 0.685505 
68.120071 0.463573 
68.693855 0.638731 
69.021477 0.414518 
69.668076 0.776009 
70.569221 0.696072 
70.803062 0.70402 
73.811371 0.691715 
74.252556 0.894207 
75.12632 0.501118 
75.24099 0.696155 
75.651863 0.611747 
75.776062 0.476668 
77.3116 0.428041 
77.411858 0.834369 
77.422409 0.507542 
78.490074 0.496605 
79.071648 0.43202 
79.372955 0.940039 
80.060425 0.579916 
80.065559 0.904497 
80.243126 0.433534 
80.764763 0.566433 
81.009232 0.474401 
81.226173 0.610517 
81.249428 0.646926 
81.273193 0.539066 
81.623627 0.540498 
81.886223 0.503645 
83.202026 0.466267 
83.281921 0.472665 
83.648048 0.909544 
83.976265 0.869866 
84.080742 3.338785 
84.191437 0.579296 
84.317398 0.614681 
85.169777 0.561854 
87.119667 0.472094 
87.283737 0.591304 
87.545822 0.4553 
87.670235 0.845326 
88.265717 0.434481 
88.960464 0.605349 
89.059738 0.380166 
89.309662 0.43358 
89.328773 0.982497 
92.849098 0.521998 
92.865578 0.569426 
93.356606 0.779315 
93.554573 0.83794 
93.583252 0.564781 
94.274399 0.616498 
94.64695 0.937367 
95.558685 0.807783 
95.64241 0.863908 
95.880516 0.952073 
97.905479 0.978564 
98.719162 0.375307 
99.932625 0.56168 
100.064384 0.963301 
100.450546 0.588462 
100.491409 0.566302 
101.654625 0.424331 
103.699593 0.763383 
103.942169 0.588484 
105.194313 0.578415 
105.981918 0.410245 
106.18132 0.467409 
106.266518 0.601955 
106.792053 0.89503 
107.584801 0.85424 
108.008057 0.972589 
111.354263 0.530683 
112.075897 1.255322 
113.655281 1.013849 
113.746155 0.751538 
114.165787 0.696334 
115.151939 0.720387 
118.156509 0.961944 
120.498856 0.600722 
121.508057 1.258248 
121.685814 0.663858 
124.310242 0.715657 
124.685883 0.730422 
125.534081 0.499801 
125.839767 0.472556 
128.049744 0.436876 
128.080811 0.951713 
130.047272 0.892737 
130.519241 0.425208 
130.97905 0.703699 
133.637939 0.911998 
134.317368 0.903941 
134.544785 1.070221 
135.837112 0.549096 
136.644135 0.506398 
138.022476 17.953533 
140.049408 0.51634 
140.470276 0.552346 
140.583847 0.844547 
141.023148 0.556689 
143.656784 0.588071 
144.078186 0.939952 
146.974258 4.539134 
150.077454 0.931112 
150.808624 0.711907 
154.017273 11.135167 
154.38504 0.892066 
156.033005 81.644279 
157.03624 0.803259 
158.048721 38.560085 
158.220688 0.429946 
159.692673 0.559534 
160.445786 0.391782 
160.989594 1.379194 
161.80777 0.488579 
166.017914 0.677131 
166.05722 0.327241 
167.743942 0.975142 
168.033081 9.545922 
168.597336 0.521362 
169.506592 1.014598 
170.276688 0.62012 
171.365082 1.018553 
172.027618 2.483157 
174.043564 29.799141 
176.059464 16.406849 
176.967133 0.574019 
178.159851 0.734056 
180.842911 0.567022 
180.851944 0.581398 
181.028244 9.341527 
181.473587 0.750804 
182.352417 0.6065 
184.028183 13.159047 
184.064835 0.654083 
185.024429 0.595614 
186.043671 9.786971 
188.38266 0.922591 
194.873459 0.519472 
195.214417 0.462402 
196.139832 0.808642 
197.906891 0.890429 
198.080048 13.011859 
199.038956 6.779695 
199.501328 0.918638 
199.736679 1.187581 
201.266449 0.79884 
202.038498 3.715109 
204.054047 0.92199 
209.566559 0.851602 
210.080368 3.13083 
210.705551 0.804252 
213.597748 41.921452 
213.608444 25.785986 
216.090576 27.380472 
217.049973 0.635443 
218.185699 0.387739 
218.59816 0.969023 
223.330261 0.742362 
224.851135 0.975213 
225.090683 2.330468 
226.07486 9.907896 
226.731201 0.489675 
228.090591 9.612231 
230.10614 3.347302 
232.315475 0.530473 
233.892548 0.435711 
235.086609 0.675779 
238.818665 0.836812 
240.090195 23.816114 
241.085587 21.344765 
242.088577 0.695168 
242.106445 2.160292 
243.101654 4.363527 
244.0858 3.599452 
247.889542 0.470096 
250.361542 0.911241 
252.126892 4.637797 
256.911987 0.432232 
258.100586 3.329604 
259.096252 100.0 
260.099365 3.679074 
260.116394 2.251331 
261.110565 0.818498 
266.589966 0.677405 
267.138428 1.262535 
270.123077 0.697995 
270.137573 20.643522 
270.271667 1.011596 
270.861237 0.672587 
271.140839 0.644347 
274.893982 4.733961 
275.839386 0.606255 
277.106842 67.248093 
278.110443 1.252597 
279.137878 12.665637 
279.873169 0.733863 
280.697632 0.389308 
282.917603 0.535825 
283.096313 1.748424 
284.204346 0.620261 
284.962402 0.69135 
286.354675 0.762729 
293.884857 0.567752 
295.132599 0.867569 
297.148193 13.985518 
301.106354 2.150478 
301.51944 0.924588 
308.796936 0.386923 
310.126221 0.856047 
313.142365 5.72638 
314.507782 1.35566 
315.042633 0.464388 
316.904968 1.904942 
321.185394 2.355799 
325.142212 0.579859 
331.153564 3.521327 
335.487183 0.524212 
337.725189 0.643349 
341.293091 0.630736 
351.194275 4.889687 
354.271484 0.95437 
361.769867 0.692497 
364.835388 0.926377 
370.439606 1.053061 
371.302124 0.855208 
376.190063 4.137489 
381.206207 0.962536 
389.817902 0.507168 
391.064087 0.685588 
394.733002 0.624626 
399.323059 1.014696 
412.49823 0.594447 
423.217865 3.77087 
425.197906 0.740879 
425.358673 0.497432 
428.930542 0.730262 
432.304626 0.86832 
440.146118 0.79182 
440.245636 0.86422 
445.979462 0.852724 
END IONS

