BEGIN IONS
PEPMASS=260.176
CHARGE=1+
COMPOUNDNAME=Huperzine A
LIBRARYQUALITY=3
SMILES=N/A
INCHIKEY=ZRJBHWIHUMBLCN-UHFFFAOYSA-N
INCHI=InChI=1S/C15H18N2O/c1-3-11-10-6-9(2)8-15(11,16)12-4-5-14(18)17-13(12)7-10/h3-6,10H,7-8,16H2,1-2H3,(H,17,18)
MSLEVEL=2
SOURCE_INSTRUMENT=N/A-ESI-QFT
FILENAME=library_mgf.mgf
SEQ=*..*
IONMODE=positive
ORGANISM=MONA
NAME=Huperzine A [M+NH4]+
PI=MoNA
DATACOLLECTOR=MoNA:VF-NPL-QEHF027226
PUBMED=N/A
SUBMITUSER=mwang87
TAGS=
SPECTRUMID=CCMSLIB00004720807
SCANS=27226
52.035549 0.017577 
52.773769 0.016674 
53.864079 0.016278 
54.044258 0.016176 
54.262547 0.014152 
54.529629 0.015751 
55.054497 0.087163 
55.111038 0.012357 
55.557053 0.011716 
55.688179 0.009487 
56.388664 0.018041 
56.709408 0.014333 
56.89957 0.012157 
57.070152 1.007092 
58.065384 15.406244 
58.096375 0.01489 
58.87487 0.017863 
59.068729 0.643135 
60.813931 0.0128 
61.163193 0.011844 
62.060238 2.290426 
62.388397 0.007646 
63.063519 0.018676 
63.825378 0.010698 
64.288902 0.013789 
65.224434 0.013755 
66.173477 0.018011 
68.193954 0.013485 
69.017403 0.018259 
69.03373 0.020684 
69.037201 0.0091 
69.069954 0.099493 
69.190224 0.008582 
69.388199 0.013155 
69.516663 0.014134 
69.652969 0.022869 
69.892326 0.016139 
70.104492 0.015306 
70.592361 0.010847 
71.085587 0.806036 
71.6502 0.016372 
72.077606 0.019359 
72.140549 0.008415 
74.625221 0.009259 
77.769882 0.012771 
79.021301 0.010654 
79.054153 0.063418 
81.069916 1.089448 
81.815315 0.016903 
82.065117 0.039252 
82.894684 0.012032 
83.085541 0.035417 
83.710609 0.016878 
85.03968 0.141416 
85.101173 0.346011 
85.438332 0.015291 
87.610344 0.017955 
91.629662 0.00861 
93.069885 0.081339 
94.06517 0.023415 
94.386894 0.0126 
94.529343 0.012047 
95.364822 0.019275 
96.080521 0.020379 
96.92189 0.016076 
97.585579 0.015098 
98.975433 0.072099 
99.080414 0.165042 
100.476891 0.017152 
100.835747 0.013089 
101.003204 0.10677 
101.673866 0.011253 
101.869545 0.010966 
102.762512 0.014627 
102.968285 1.979314 
106.065216 0.016978 
107.085449 0.089888 
107.10186 0.014573 
108.080795 0.212125 
108.981247 0.008683 
110.060081 0.14929 
110.332916 0.01631 
112.59201 0.018865 
115.806068 0.010707 
116.985779 0.011171 
120.196922 0.01202 
120.97876 0.546302 
122.023041 0.021462 
124.784645 0.016644 
127.063324 0.012771 
127.235954 0.017451 
129.544037 0.013898 
132.044266 0.048906 
132.080643 0.062734 
134.059982 0.317355 
134.066162 0.013279 
134.091095 0.019021 
134.096359 0.583016 
134.872208 0.013719 
135.055069 0.020078 
135.063156 0.01396 
136.075699 0.519085 
137.078903 0.043195 
137.221954 0.016683 
138.031784 0.017977 
138.98941 0.038281 
140.308655 0.017692 
143.08548 0.021713 
143.310608 0.02162 
144.080688 0.600906 
144.40387 0.016355 
145.356659 0.014787 
146.060028 0.721058 
147.055359 0.642471 
147.063126 0.11294 
149.096085 0.853562 
150.091293 0.605835 
150.099228 0.223033 
152.951416 0.38015 
154.065292 0.019802 
154.946915 0.084204 
154.967239 0.101392 
156.174454 0.021999 
156.962631 0.011921 
157.803162 0.015426 
158.059998 0.476362 
160.063522 0.020647 
160.06813 0.012299 
160.075577 5.797383 
161.070938 3.518483 
161.078812 0.606854 
161.450104 0.008774 
162.054794 0.16427 
162.074173 0.166443 
163.711624 0.016052 
166.077621 0.017756 
169.101349 0.016913 
170.096252 0.982931 
170.962677 0.011358 
171.099976 0.020448 
172.075546 0.836597 
172.112228 0.055174 
173.070984 2.238258 
173.107605 0.033515 
174.055756 0.010423 
174.091278 0.489805 
175.903503 0.016253 
176.070587 0.101435 
176.767059 0.01694 
178.985138 0.035259 
179.085587 0.475169 
180.080841 0.231663 
180.982162 1.131355 
181.088577 0.220901 
181.100296 0.01764 
181.986084 0.011037 
182.060043 0.27769 
182.944077 0.036421 
183.067993 0.531331 
184.075745 1.089486 
184.112625 0.012856 
184.949051 0.016018 
185.070953 1.95456 
185.07901 0.393444 
186.074799 0.013644 
186.091385 1.682807 
186.126862 0.018105 
187.086624 1.452619 
187.094772 0.108993 
188.094421 3.480193 
188.104431 0.014001 
188.107193 0.011434 
188.709503 0.016683 
189.09845 0.095711 
189.144241 0.013222 
191.072891 0.751304 
195.067795 0.289657 
195.104462 0.010071 
196.075699 1.80243 
196.112061 1.610088 
196.995621 0.011428 
197.070908 1.856822 
197.080231 0.132553 
197.096527 0.10562 
197.115646 0.112011 
198.069946 0.141491 
198.078979 2.472671 
198.091263 13.993251 
198.127197 0.017453 
198.570679 0.312252 
198.99263 0.685341 
199.066559 0.053719 
199.086349 7.963892 
199.095215 1.603572 
199.232101 0.017813 
199.425674 0.016315 
200.070648 0.645321 
200.090149 0.85215 
200.106857 3.290348 
201.017578 0.03285 
201.073776 0.017061 
201.102417 0.026612 
201.110535 0.362226 
202.085693 0.010785 
203.081467 0.736998 
206.096481 5.546302 
207.099838 0.797935 
207.356934 0.022112 
209.083511 9.273761 
210.086655 1.22915 
211.076233 0.051513 
211.086426 3.585894 
211.09726 0.175454 
212.094513 14.393171 
212.106705 2.519869 
213.078506 0.8558 
213.101212 2.852099 
213.112244 0.257679 
214.085953 0.641659 
214.105194 0.189711 
214.122498 2.195677 
214.133453 0.023942 
215.117874 13.905245 
216.03891 0.324581 
216.050201 0.343087 
216.121399 2.009153 
217.175598 0.017992 
219.226028 0.018804 
222.898727 0.583534 
223.12291 0.403529 
224.106979 63.563881 
225.111053 10.321888 
226.110031 8.387771 
226.12262 7.044755 
227.093689 0.220893 
227.113678 1.16858 
227.125977 6.039282 
228.101562 0.077036 
228.127945 0.789559 
228.13945 1.264183 
229.104843 0.021334 
229.141815 1.302076 
229.89624 0.050045 
230.143967 0.039126 
236.112015 0.018521 
239.117737 0.660637 
240.100189 0.017026 
240.122849 0.029552 
240.268341 1.222907 
240.909103 0.308654 
241.133347 72.334106 
241.27179 0.300573 
242.117386 11.487709 
242.136703 11.540845 
242.931763 0.017681 
243.12117 1.855924 
243.139633 0.786473 
244.12056 0.016403 
252.44751 0.014073 
255.460114 0.014365 
258.133911 0.270393 
258.148712 18.235384 
258.167542 1.681038 
258.279083 10.950584 
259.143524 100.0 
259.282623 3.7729 
260.147278 16.209848 
260.2005 0.108662 
260.285583 0.212275 
261.130798 15.241802 
261.148743 1.157217 
261.771973 0.017545 
262.11969 0.008783 
262.134064 0.834805 
262.149506 0.016577 
262.216522 0.012726 
264.908905 0.026316 
274.318756 0.017928 
279.314178 0.019703 
END IONS

