BEGIN IONS
PEPMASS=1077.57
CHARGE=1+
COMPOUNDNAME=N-[(3S,6S,9S,11R,15S,18S,20R,21R,24S,25S,26S)-3-[(1R)-2-carbamoyl-1-hydroxyethyl]-6-[(1S,2S)-1,2-dihydroxy-2-(4-hydroxyphenyl)ethyl]-11,20,21,25-tetrahydroxy-15-[(1R)-1-hydroxyethyl]-26-methyl-2,5,8,14,17,23-hexaoxo-1,4,7,13,16,22-hexaazatricyclo[22.3.0.0?,��]heptacosan-18-yl]-10,12-dimethyltetradecanamide
LIBRARYQUALITY=3
SMILES=N/A
INCHIKEY=DFQUSLQYURJBIT-MFKXNLKNSA-N
INCHI=InChI=1S/C51H82N8O17/c1-6-25(2)19-26(3)13-11-9-7-8-10-12-14-37(66)53-32-21-35(64)47(72)57-49(74)41-42(67)27(4)23-59(41)51(76)39(34(63)22-36(52)65)55-48(73)40(44(69)43(68)29-15-17-30(61)18-16-29)56-46(71)33-20-31(62)24-58(33)50(75)38(28(5)60)54-45(32)70/h15-18,25-28,31-35,38-44,47,60-64,67-69,72H,6-14,19-24H2,1-5H3,(H2,52,65)(H,53,66)(H,54,70)(H,55,73)(H,56,71)(H,57,74)/t25?,26?,27-,28+,31+,32-,33-,34+,35+,38-,39-,40-,41-,42-,43-,44-,47+/m0/s1
MSLEVEL=2
SOURCE_INSTRUMENT=N/A-ESI-QFT
FILENAME=library_mgf.mgf
SEQ=*..*
IONMODE=negative
ORGANISM=MONA
NAME=N-[(3S,6S,9S,11R,15S,18S,20R,21R,24S,25S,26S)-3-[(1R)-2-carbamoyl-1-hydroxyethyl]-6-[(1S,2S)-1,2-dihydroxy-2-(4-hydroxyphenyl)ethyl]-11,20,21,25-tetrahydroxy-15-[(1R)-1-hydroxyethyl]-26-methyl-2,5,8,14,17,23-hexaoxo-1,4,7,13,16,22-hexaazatricyclo[22.3.0.0?,��]heptacosan-18-yl]-10,12-dimethyltetradecanamide [M-H]-
PI=MoNA
DATACOLLECTOR=MoNA:VF-NPL-QEHF024863
PUBMED=N/A
SUBMITUSER=mwang87
TAGS=
SPECTRUMID=CCMSLIB00004715926
SCANS=24863
74.840126 0.168867 
76.407486 0.170039 
76.713539 0.221231 
79.073952 0.176188 
81.316048 0.169378 
82.028458 8.306617 
82.567924 0.167543 
83.012482 0.185292 
83.023743 1.965491 
83.283882 0.222183 
84.007782 3.107416 
84.681786 0.198419 
84.753616 0.18124 
85.028114 1.224687 
85.436974 0.176089 
85.800133 0.152712 
86.251167 0.236351 
86.95742 0.157578 
88.302338 0.153248 
88.318542 0.13354 
89.040703 0.166631 
89.393074 0.158882 
90.329651 0.162559 
90.597633 0.145369 
93.219559 0.170095 
93.329147 0.200865 
94.028473 1.530404 
94.70536 0.160235 
94.813858 0.140335 
95.023705 78.99263 
95.245522 0.150177 
96.007744 1.199678 
96.027145 0.249315 
96.044144 4.513476 
96.06002 0.186861 
96.353523 0.150017 
96.572136 0.154187 
97.028152 1.593457 
98.023384 22.935076 
98.059662 0.179607 
99.018669 79.137108 
99.026611 0.242965 
100.021935 0.223145 
100.039085 1.958656 
100.136208 0.154549 
101.300812 0.155034 
101.444946 0.116667 
101.997826 0.15581 
102.07029 0.165107 
102.805161 0.188975 
104.29068 0.170585 
104.468582 0.159596 
104.72023 0.144156 
106.010284 0.16413 
106.844513 0.129714 
107.049118 0.165472 
107.779663 0.156406 
108.0439 0.206395 
109.039436 2.848885 
110.023445 16.671837 
110.109703 0.157675 
110.777168 0.133209 
111.007454 12.180955 
111.018707 6.531559 
111.026642 0.327509 
111.054932 0.20105 
111.154167 0.170814 
112.039085 7.283765 
112.050323 13.50407 
112.088226 0.180544 
112.52459 0.149678 
112.831497 0.151217 
113.023087 0.598865 
113.034348 52.197979 
113.041672 0.191165 
114.05938 0.173094 
114.12706 0.187654 
114.479172 0.142088 
116.25811 0.199107 
117.740471 0.157923 
119.048866 2.662989 
120.228683 0.168628 
121.039604 0.260125 
122.023621 1.660191 
123.055092 1.989363 
123.73423 0.15678 
124.039116 38.277931 
125.023178 8.514246 
125.034378 3.080213 
125.071167 0.183278 
125.878754 0.212344 
126.05455 0.175755 
126.141502 0.187831 
127.050117 0.848933 
127.713608 0.181992 
128.034088 8.62617 
128.045212 2.846198 
128.552383 0.18547 
129.017441 0.181098 
129.065659 30.100903 
130.049713 8.132059 
130.060913 59.854992 
131.045059 0.255924 
131.063965 0.328087 
131.837189 0.160727 
133.39537 0.297401 
133.881897 0.183838 
136.039017 0.492799 
137.034439 1.914402 
137.070572 0.165908 
138.018219 0.349679 
138.029907 0.2077 
138.054886 1.7383 
139.038849 4.31873 
139.050064 7.016711 
140.034027 2.221854 
140.045364 0.701226 
140.807053 0.180294 
140.846268 0.178058 
141.065689 0.847065 
142.049835 1.890367 
142.061188 0.316991 
142.101166 0.138418 
143.081573 0.414049 
143.303528 0.191803 
143.814392 0.159223 
145.159836 0.233302 
147.0439 1.193635 
147.707275 0.180498 
148.039352 0.188053 
149.03447 1.720373 
150.01857 0.902044 
150.029572 0.187118 
151.013611 0.205012 
151.050186 7.137592 
151.341125 0.183854 
151.799988 0.185012 
152.033997 0.808135 
152.045395 9.414703 
153.065079 0.193702 
154.061157 0.22001 
155.032455 0.189124 
155.045059 9.865615 
155.079071 0.246547 
155.679398 0.215085 
156.040329 61.468922 
157.043762 0.365358 
157.060699 9.953426 
163.050232 9.023011 
164.033981 0.398733 
165.066025 0.561399 
166.049835 0.480704 
167.045074 14.5312 
167.187637 0.177 
168.029175 11.935045 
168.040588 0.613923 
168.076675 19.186399 
168.56073 0.197481 
169.015717 0.19824 
169.05307 0.201142 
169.060806 54.98003 
169.07196 25.649506 
170.044388 0.271107 
170.05632 3.169285 
170.063919 1.069219 
172.039734 0.167038 
174.900467 0.190995 
176.129822 0.18791 
177.777695 0.186921 
179.045181 1.186484 
181.060928 10.581358 
182.056244 0.363205 
182.092682 3.629183 
182.302383 0.162375 
183.076523 0.433932 
184.072189 0.550107 
185.055954 3.944023 
185.067062 4.566163 
185.680573 0.15377 
186.039856 0.644365 
186.055252 13.059975 
186.087509 81.53727 
187.072708 2.30373 
187.082687 32.814026 
187.090973 3.38155 
190.050201 1.286661 
191.081955 0.202604 
193.060883 2.018036 
193.198563 0.195925 
194.0569 0.466919 
194.170914 0.218 
196.071976 7.029606 
197.057007 0.207153 
198.08815 0.353293 
198.984055 0.184695 
200.103348 4.082595 
201.066071 2.981495 
204.065384 0.188228 
205.252106 0.141495 
206.057007 0.385736 
206.0896 0.186014 
207.040558 2.562857 
207.087891 0.182648 
207.229446 0.190996 
208.07193 1.69336 
209.067703 0.285792 
209.38205 0.161948 
211.057434 0.235602 
212.067047 3.167214 
213.062332 34.030693 
213.988663 0.192868 
214.06514 0.177404 
214.082764 6.376101 
215.045822 0.18826 
216.417679 0.1818 
217.060715 0.202997 
218.45134 0.18994 
218.913681 0.185781 
219.060852 0.187 
219.077011 3.989128 
220.072098 0.907574 
223.08313 0.12646 
224.067169 6.174875 
225.051178 0.532095 
225.062454 4.406086 
225.08786 0.192148 
225.09877 18.690208 
226.082886 6.793298 
228.053146 0.213591 
228.474014 0.170385 
228.953094 0.178115 
229.97139 0.209823 
231.900864 0.17041 
235.08255 0.130056 
236.462112 0.229548 
237.087555 11.124798 
237.648315 0.13374 
238.082489 1.117642 
239.114334 0.202381 
239.342392 0.189727 
241.09407 1.615212 
242.077866 3.014986 
243.0784 0.375544 
243.109512 37.834641 
245.572067 0.167164 
248.676254 0.195518 
249.37323 0.245909 
251.078568 2.410028 
253.094223 9.949294 
255.031418 0.179284 
255.109848 1.732091 
257.125458 1.884861 
262.082855 1.466997 
265.837097 0.167093 
269.089172 6.962219 
271.104858 3.498002 
272.870026 0.215353 
274.136047 0.179786 
275.861633 0.209076 
276.098572 0.396325 
276.496826 0.19548 
277.713318 0.163466 
281.076324 0.305435 
281.090088 9.262246 
282.120483 21.837498 
283.104889 1.14598 
283.122955 0.406644 
284.045258 0.216659 
286.083435 2.567724 
286.19632 0.179626 
295.104736 3.645122 
296.048126 0.250289 
297.59433 0.202112 
299.099396 2.308499 
300.101562 0.222423 
300.131042 100.0 
301.134338 8.788693 
301.935486 0.16029 
303.621063 0.168059 
304.22226 0.484249 
308.100891 0.20152 
309.119019 0.248117 
312.061615 0.177161 
318.873779 0.184862 
319.400513 0.181025 
323.270905 0.203748 
325.115509 0.373566 
326.110077 1.688832 
330.096527 0.454847 
331.16861 0.1589 
333.08551 0.204321 
339.142181 0.600606 
357.152649 12.068229 
370.245392 0.184618 
374.042664 0.185902 
376.95575 0.172444 
379.027313 0.192035 
381.220032 0.152815 
389.649963 0.157733 
390.77121 0.198948 
395.325958 0.17006 
400.139679 0.185563 
405.029999 0.239753 
408.97049 0.1536 
411.179596 0.243718 
423.170959 0.153174 
426.310699 0.140179 
429.961212 0.276112 
433.720306 0.141513 
434.218445 0.197994 
443.57962 0.213088 
450.233643 0.173475 
450.726715 0.180591 
455.997345 0.187248 
471.73584 0.217119 
483.806427 0.201379 
490.90976 0.174262 
516.815308 0.249303 
528.718567 0.215546 
541.673645 0.16686 
551.462585 0.192716 
572.520813 0.174447 
583.372681 0.176105 
587.950317 0.282553 
603.210144 0.169282 
612.618713 0.212209 
667.395203 0.212869 
668.469849 0.194731 
692.480896 0.158789 
693.396912 0.222251 
697.041687 0.177161 
707.979797 0.233718 
708.049744 0.263534 
708.243713 0.226454 
708.258789 0.229165 
708.299561 0.344194 
708.57428 0.352614 
708.771179 0.374057 
708.784973 0.382885 
716.550293 0.268452 
727.245911 0.208628 
753.480469 0.266712 
758.405396 0.21018 
807.517822 0.263521 
868.392456 0.244741 
913.633484 0.232893 
922.705994 0.167867 
930.255554 0.198888 
944.16748 0.228668 
966.761353 0.173614 
999.238342 0.184609 
1012.835388 0.193991 
1040.096313 0.182102 
1042.730225 0.182515 
1057.820679 0.205192 
END IONS

