BEGIN IONS
PEPMASS=192.99
CHARGE=1+
COMPOUNDNAME=Patulin
LIBRARYQUALITY=3
SMILES=N/A
INCHIKEY=ZRWPUFFVAOMMNM-UHFFFAOYSA-N
INCHI=InChI=1S/C7H6O4/c8-6-3-4-5(11-6)1-2-10-7(4)9/h1,3,7,9H,2H2
MSLEVEL=2
SOURCE_INSTRUMENT=N/A-ESI-QFT
FILENAME=library_mgf.mgf
SEQ=*..*
IONMODE=positive
ORGANISM=MONA
NAME=Patulin [M+K]+
PI=MoNA
DATACOLLECTOR=MoNA:VF-NPL-QEHF025938
PUBMED=N/A
SUBMITUSER=mwang87
TAGS=
SPECTRUMID=CCMSLIB00004717001
SCANS=25938
50.510555 0.068911 
51.101955 0.077799 
51.418083 0.030829 
51.661358 0.042772 
51.940285 3.387101 
52.437458 0.021177 
52.468323 0.028406 
52.486946 0.054952 
52.940392 0.148444 
53.038849 0.439802 
53.050598 0.046128 
53.237156 0.042879 
53.490395 0.037413 
54.034119 0.036191 
54.08387 0.076802 
54.726173 0.036624 
54.937618 0.030921 
55.01812 0.613292 
55.054501 3.604368 
55.267879 0.062641 
55.281986 0.042267 
55.9347 0.579486 
56.049744 0.388408 
56.679012 0.043388 
56.942574 0.05109 
56.965038 4.491089 
57.033707 0.092176 
57.070141 0.4163 
57.098316 0.043222 
57.876995 0.030618 
57.935047 50.290524 
58.065414 0.370419 
58.148376 0.072205 
58.155056 0.08931 
59.049374 1.301251 
59.36351 0.029793 
59.668308 0.038662 
59.940613 0.184412 
60.044514 0.254308 
61.01086 27.087006 
61.052895 0.048697 
61.522854 0.068184 
61.948868 0.081247 
62.018635 2.435537 
62.981865 0.026855 
63.026443 0.212442 
63.759056 0.087282 
64.366066 0.041598 
64.841614 0.041546 
64.979012 0.04828 
65.038658 0.243184 
65.782997 0.04262 
65.970261 0.040119 
66.016487 0.027241 
67.054337 8.241906 
67.934952 0.956251 
68.049561 0.081762 
68.05764 0.061741 
68.543411 0.061641 
68.656425 0.033275 
68.942802 0.034297 
69.033516 0.02715 
69.069893 1.616035 
69.170479 0.040653 
69.625145 0.028226 
69.960999 2.185159 
70.065186 1.824116 
70.957901 6.809566 
70.980461 0.106984 
71.082886 0.031175 
71.239807 0.081902 
71.929413 0.057581 
71.940407 0.076372 
72.044395 1.16859 
72.49987 0.047563 
72.937141 3.363207 
72.95826 5.190561 
73.183846 0.039103 
73.457184 0.028657 
73.803329 0.08842 
73.929672 1.736502 
74.803093 0.024264 
74.937523 1.754935 
74.975311 0.086264 
75.595581 0.043288 
75.945374 19.180664 
75.9478 0.130387 
76.047325 0.027875 
77.602013 0.063109 
78.932602 0.078284 
79.021202 2.535127 
79.05423 7.658043 
80.049446 0.05711 
80.057373 0.052919 
81.069885 8.442135 
82.065094 1.11654 
82.072998 0.134795 
83.049072 0.580114 
83.085503 0.536442 
83.433418 0.077758 
83.929764 0.165897 
84.044258 0.054927 
84.080795 0.382285 
84.959816 0.107294 
85.064804 0.119158 
85.601166 0.072224 
86.003716 0.138687 
86.060371 0.04701 
86.884293 0.050083 
87.044037 0.997755 
87.539787 0.07402 
87.822235 0.027415 
87.906593 0.026464 
87.971313 0.024451 
88.914185 0.049373 
88.968422 1.891595 
89.059685 1.05128 
89.469063 0.083802 
89.489502 0.068357 
89.940155 0.089036 
90.850914 0.079279 
90.947662 2.377828 
90.968819 1.245779 
91.054214 10.4228 
91.454285 0.04165 
91.574272 0.052102 
91.602432 0.066441 
91.940407 0.042795 
92.057617 0.259407 
92.948059 0.771442 
93.057404 0.386827 
93.069893 6.869693 
93.955894 21.992855 
94.065147 0.181441 
94.073189 0.189003 
94.811462 0.050979 
95.049095 1.382603 
95.060249 0.038832 
95.08551 7.771828 
96.077072 0.07019 
96.080688 0.242759 
96.089058 0.090496 
97.064774 2.179365 
97.632286 0.076068 
98.060005 0.455601 
98.067848 0.057468 
98.09642 3.014337 
98.641312 0.0736 
99.08036 0.049324 
100.075783 0.149382 
101.008415 1.092285 
101.940475 0.057258 
102.845963 0.042398 
102.914688 5.909459 
102.948128 0.125386 
103.054161 0.049637 
103.951401 0.320218 
103.976814 0.119354 
104.423523 0.034833 
104.926331 0.033429 
104.930351 2.806505 
105.044861 0.269727 
105.069931 4.83485 
105.374062 0.042443 
105.916779 0.032883 
105.955894 1.335057 
106.065094 0.317605 
106.073151 0.086895 
106.979172 0.064601 
107.049141 0.569008 
107.072937 0.654022 
107.085495 3.884737 
107.971497 0.50688 
108.08078 0.040103 
108.089012 0.030921 
108.979309 1.121335 
109.064743 3.495365 
109.076012 0.455908 
109.101196 1.169949 
110.059975 0.104885 
110.096214 0.031897 
110.467323 0.04644 
111.080421 0.552515 
116.107079 0.049218 
116.144913 0.031124 
116.700226 0.040462 
117.069809 1.057825 
117.955879 1.743809 
118.065567 0.044911 
118.924782 0.08342 
119.018936 6.302156 
119.049187 11.595912 
119.060371 1.772447 
119.085541 3.145272 
119.917366 0.595328 
119.950996 0.337732 
120.019737 0.322233 
120.05249 0.580761 
120.080612 0.304006 
120.088837 0.077769 
120.925247 4.198021 
120.940514 0.365597 
121.064865 0.032627 
121.088623 0.503748 
121.101158 0.582353 
121.478889 0.073951 
121.932945 0.358879 
122.059845 0.027141 
122.940887 24.117184 
122.946007 0.20241 
123.080254 0.101474 
123.091827 0.051863 
123.912445 0.182736 
123.948715 1.108136 
124.935883 0.025516 
125.945732 0.03946 
127.516403 0.078761 
127.797401 0.050323 
128.106888 0.120465 
128.475723 0.052414 
129.110229 0.72778 
130.085907 0.030094 
130.662689 0.075478 
131.085464 3.949495 
131.961273 3.133182 
132.080811 0.14697 
132.088791 0.155781 
132.936523 0.081703 
132.958237 5.097544 
133.034912 0.047179 
133.088501 0.036943 
133.101074 1.552989 
133.94841 0.206364 
134.096313 0.751847 
134.958664 8.936433 
134.978607 0.502279 
135.043655 0.02947 
135.080566 0.079687 
135.091461 0.029101 
135.104156 0.105766 
135.116913 0.208598 
135.948898 2.099123 
135.966507 4.157706 
136.075546 0.032168 
136.086746 0.056797 
136.935211 0.03969 
136.95665 0.561451 
137.011734 3.05576 
137.029495 1.239239 
137.095581 0.04282 
137.107315 0.245241 
137.378342 0.086014 
137.927979 28.44165 
137.95459 0.083977 
138.012466 0.091689 
138.054611 0.03142 
138.935822 6.920039 
139.648071 0.082137 
139.665222 0.039208 
140.95134 2.911943 
142.671997 0.092477 
143.266479 0.077767 
144.666016 0.02901 
145.101395 0.474388 
145.961151 0.057296 
145.98793 0.219685 
146.096436 0.035622 
146.974716 0.039853 
147.116806 1.230262 
147.974716 0.096649 
148.075851 0.038855 
148.112137 1.024476 
148.971893 2.459731 
149.096176 0.411044 
149.132828 0.034202 
149.971939 3.1503 
150.09166 0.025978 
150.127823 0.05225 
150.968628 5.32895 
151.94371 0.109242 
151.958817 0.254735 
151.998795 0.604387 
152.951477 9.334823 
152.969162 26.499847 
153.959198 100.0 
154.166977 0.047277 
154.947113 0.151751 
155.022293 0.924619 
155.963608 0.070454 
156.946426 9.376905 
158.096252 0.032178 
158.136368 0.029718 
161.127274 0.029886 
162.160767 0.054366 
163.111481 0.102457 
163.998703 5.225311 
164.589767 0.02863 
164.965912 0.081289 
164.999374 0.161332 
166.941971 0.655837 
166.983917 0.255643 
167.93869 0.379906 
167.956055 0.601601 
167.974808 1.271778 
168.982437 0.582347 
169.117096 0.046636 
169.917725 2.686269 
170.009354 0.029025 
170.321442 0.056582 
170.953918 0.103728 
170.961899 4.217231 
170.970474 0.023873 
170.972046 0.02457 
170.979645 2.578369 
171.013214 0.030156 
173.132645 0.690377 
174.127487 0.141007 
175.147873 0.061752 
176.118179 0.451914 
176.143585 0.174676 
177.078262 0.385065 
179.022278 1.35007 
179.200058 0.051607 
182.009201 1.116025 
185.949036 30.580042 
191.143188 0.071858 
192.101852 0.255332 
192.112213 0.071748 
192.138306 1.807081 
192.174667 0.970707 
194.095947 0.024451 
194.118896 0.125738 
194.128738 1.275467 
194.153839 12.751816 
194.951019 0.023653 
197.94899 0.04028 
199.964554 0.108024 
200.358826 0.043594 
206.859482 0.055627 
207.969025 0.031973 
209.369461 0.045416 
213.839844 0.084196 
END IONS

