BEGIN IONS
PEPMASS=321.133
CHARGE=1+
COMPOUNDNAME=MYCOPHENOLIC ACID
LIBRARYQUALITY=3
SMILES=N/A
INCHIKEY=HPNSFSBZBAHARI-RUDMXATFSA-N
INCHI=InChI=1S/C17H20O6/c1-9(5-7-13(18)19)4-6-11-15(20)14-12(8-23-17(14)21)10(2)16(11)22-3/h4,20H,5-8H2,1-3H3,(H,18,19)/b9-4+
MSLEVEL=2
SOURCE_INSTRUMENT=N/A-ESI-QFT
FILENAME=library_mgf.mgf
SEQ=*..*
IONMODE=positive
ORGANISM=MONA
NAME=MYCOPHENOLIC ACID [M+H]+
PI=MoNA
DATACOLLECTOR=MoNA:VF-NPL-QEHF011306
PUBMED=N/A
SUBMITUSER=mwang87
TAGS=
SPECTRUMID=CCMSLIB00004702369
SCANS=11306
50.167233 0.00564 
50.83971 0.008407 
51.891605 0.007146 
51.958931 0.007209 
52.16906 0.007133 
52.30423 0.005549 
52.405571 0.006134 
52.499031 0.010884 
52.534462 0.006556 
53.123528 0.005095 
53.217804 0.006682 
53.531937 0.008239 
53.601562 0.005578 
53.740036 0.007656 
53.82225 0.006483 
53.980953 0.00642 
54.126801 0.008095 
54.792812 0.007283 
55.018578 0.325564 
55.055012 0.007878 
55.526295 0.005442 
55.55378 0.006552 
55.802776 0.009104 
55.868233 0.006504 
56.004948 0.005537 
56.185925 0.00739 
56.194515 0.006273 
56.491222 0.007407 
56.674305 0.008442 
56.885445 0.007307 
57.457993 0.005953 
58.07399 0.00768 
58.645321 0.009406 
58.691257 0.005381 
59.171188 0.007329 
59.538441 0.007375 
60.02388 0.007162 
61.581207 0.00782 
62.467506 0.00642 
63.235065 0.007872 
63.813885 0.008805 
64.147392 0.00765 
64.170639 0.007479 
64.202484 0.009234 
64.556458 0.008226 
65.360123 0.006709 
65.550858 0.006226 
66.126541 0.008312 
67.016258 0.006377 
67.054779 0.013161 
67.078262 0.006296 
67.483604 0.008509 
70.778366 0.006415 
72.480751 0.008481 
72.748306 0.005722 
72.930458 0.008004 
73.293335 0.006731 
73.598579 0.007035 
73.661278 0.007129 
74.412079 0.006792 
74.435547 0.008157 
74.975662 0.005958 
75.240555 0.0061 
75.387955 0.008505 
75.774254 0.008291 
76.529289 0.008634 
77.039452 0.009649 
77.462593 0.007325 
79.054787 0.163702 
79.116447 0.006975 
79.330978 0.008268 
79.837563 0.006749 
80.344063 0.008827 
80.935555 0.008178 
81.070442 1.601664 
82.479408 0.007019 
84.206184 0.005412 
84.705452 0.005192 
84.735085 0.005224 
86.303162 0.006893 
87.160553 0.007325 
87.22776 0.007753 
87.692955 0.00735 
87.871437 0.007186 
88.354973 0.006627 
89.390884 0.006319 
89.811401 0.009054 
89.816757 0.006908 
90.148613 0.006577 
91.054733 0.178315 
91.166824 0.006943 
92.021912 0.008385 
93.070099 0.021135 
93.257622 0.007824 
93.440033 0.00793 
94.440628 0.009272 
95.049477 0.018433 
95.31057 0.007815 
95.396446 0.007469 
96.617561 0.007767 
96.81559 0.00737 
97.064987 0.006126 
97.559341 0.006672 
100.693893 0.012979 
101.291336 0.007521 
101.931572 0.006888 
101.972313 0.009247 
102.501549 0.006295 
103.054672 0.086336 
103.906342 0.00612 
104.392693 0.008637 
105.73748 0.006222 
106.807327 0.009457 
106.879745 0.009039 
107.808304 0.008881 
108.992874 0.006036 
109.065033 0.493643 
110.245216 0.007335 
112.236221 0.005471 
113.311142 0.006462 
113.680069 0.006412 
113.992455 0.00707 
114.821442 0.008569 
114.944588 0.009616 
115.905983 0.00676 
116.60659 0.008098 
118.765076 0.008995 
118.92086 0.007247 
119.730003 0.008275 
123.096771 0.008259 
123.355301 0.008173 
126.786819 0.008876 
127.075348 0.120755 
130.988678 0.007767 
131.04924 0.008394 
131.49144 0.00732 
132.00531 0.008939 
134.264114 0.009316 
135.080399 0.628434 
136.514435 0.007667 
142.655838 0.00646 
144.556183 0.006107 
146.073563 0.009722 
146.691589 0.006751 
149.059753 0.024387 
149.087189 0.009382 
149.246445 0.007344 
149.770752 0.005393 
149.922165 0.008458 
150.338013 0.006544 
153.257065 0.006531 
153.400955 0.008069 
153.656036 0.00817 
153.835541 0.008096 
155.282822 0.007706 
157.673782 0.006695 
158.956848 0.019595 
159.044006 6.514895 
159.051544 0.095549 
159.534348 0.005209 
160.04744 0.656904 
161.059418 0.057664 
161.870728 0.006021 
162.667053 0.009581 
163.075027 0.020629 
167.214172 0.005499 
167.805557 0.007146 
168.117844 0.007588 
168.294174 0.007359 
169.049713 0.060779 
172.144531 0.008976 
173.898254 0.008463 
174.381531 0.005878 
175.075287 0.49176 
175.139633 0.008767 
177.054565 11.20721 
178.057892 1.207646 
179.070145 0.453576 
180.07486 0.008562 
181.248215 0.007283 
185.181534 0.009598 
192.042542 0.021565 
193.049438 0.168312 
193.591751 0.008612 
195.065186 4.522461 
196.068436 0.433237 
199.653854 0.008574 
203.358551 0.007949 
204.744827 0.007668 
205.050079 0.016432 
205.704788 0.007541 
206.245682 0.025813 
206.253784 0.008325 
207.046875 0.110334 
207.065125 100.0 
207.890518 0.009464 
208.068451 11.626967 
208.080124 0.129885 
209.07045 0.500584 
212.182022 0.009073 
215.002563 0.297765 
215.01619 0.091666 
215.106598 0.714439 
216.114044 0.00835 
217.954285 0.00649 
219.048187 0.010486 
219.065109 0.526019 
221.08075 0.251138 
222.382736 0.008952 
223.059906 0.780341 
224.063492 0.009609 
225.089417 0.008219 
228.155853 0.009389 
233.081039 0.07024 
239.092087 0.019253 
239.10643 0.315258 
241.122498 0.073533 
242.775467 0.008375 
246.548569 0.006691 
247.096344 0.099718 
250.638733 0.006358 
250.811783 0.00762 
250.841049 0.008353 
252.705963 0.007273 
257.115967 0.029327 
259.096191 0.320982 
260.050629 0.008867 
261.112122 0.499238 
262.380829 0.006042 
266.966583 0.007641 
267.102997 0.008385 
270.08844 0.131874 
275.127502 1.443159 
275.242004 0.008546 
276.131165 0.09768 
276.442596 0.008524 
276.935974 0.007578 
279.30426 0.006582 
279.587128 0.010004 
281.870728 0.00836 
285.111725 1.652148 
286.115051 0.210988 
302.020782 0.007816 
303.122498 0.175308 
320.229279 0.006143 
320.506805 0.009382 
321.133087 0.008541 
322.674286 0.008329 
325.669586 0.00898 
326.800385 0.007013 
332.10611 0.007322 
END IONS

