BEGIN IONS
TITLE=Scan Number: 4940
PEPMASS=524.27399
CHARGE=0+
COMPOUNDNAME=Calcimycin
LIBRARYQUALITY=3
SMILES=CC1CCC2(C(CC(C(O2)C(C)C(=O)C3=CC=CN3)C)C)OC1CC4=NC5=C(O4)C=CC(=C5C(=O)O)NC
INCHIKEY=HIYAVKIYRIFSCZ-UHFFFAOYSA-N
INCHI=1S/C29H37N3O6/c1-15-10-11-29(17(3)13-16(2)27(38-29)18(4)26(33)20-7-6-12-31-20)37-22(15)14-23-32-25-21(36-23)9-8-19(30-5)24(25)28(34)35/h6-9,12,15-18,22,27,30-31H,10-11,13-14H2,1-5H3,(H,34,35)/t15-,16+,17+,18?,22-,27-,29?/m0/s1
MSLEVEL=2
SOURCE_INSTRUMENT=LC-ESI-qTof
FILENAME=f.mice/SC_-Fe_+Fe_YEME_Langzeit_Anfang_2015/160113_CYA_14_org_V.mzXML;
SEQ=*..*
NOTES=
IONMODE=Positive
ORGANISM=GNPS-LIBRARY
NAME=Calcimycin M+H
SPECTRUMID=CCMSLIB00003739947
ACTIVATION=CID
INSTRUMENT=ion trap
SCANS=4940
68.438248 17.0 
81.11895 74.0 
85.150917 44.0 
86.088089 14.0 
94.087433 10.0 
95.140541 45.0 
106.128845 25.0 
109.136124 41.0 
111.101418 16.0 
115.567513 21.0 
118.14415 29.0 
119.142731 50.0 
122.139572 22.0 
123.096725 44.0 
123.130638 67.0 
128.180634 21.0 
133.165817 10.0 
137.160065 74.0 
138.133209 24.0 
144.128174 7.0 
146.158295 61.0 
147.178696 29.0 
149.043518 27.0 
150.111359 76.0 
152.118423 41.0 
159.160019 26.0 
160.180557 84.0 
161.182159 13.0 
163.11113 7.0 
163.183609 28.0 
165.197418 33.0 
167.13887 53.0 
167.150162 28.0 
167.178391 9.0 
174.152954 10.0 
174.158707 10.0 
174.181763 26.0 
174.199036 29.0 
175.208832 8.0 
176.175171 52.0 
177.196472 27.0 
177.609314 37.0 
178.191589 35.0 
179.189484 16.0 
179.557831 21.0 
181.123138 319.0 
182.111526 10.0 
182.878189 6.0 
184.17337 22.0 
187.20726 33.0 
188.212097 177.0 
188.487686 25.0 
189.123535 41.0 
189.129547 41.0 
189.213608 27.0 
191.146133 7.0 
192.149353 13.0 
192.167511 11.0 
193.185547 31.0 
194.13327 27.0 
194.181931 47.0 
197.143585 33.0 
197.186493 68.0 
197.223267 24.0 
205.230057 27.0 
207.129395 61.0 
207.141968 89.0 
208.13588 17.0 
208.148483 50.0 
209.163742 51.0 
211.220718 15.0 
214.571182 31.0 
215.211136 21.0 
219.213028 12.0 
223.24527 13.0 
223.44101 56.0 
224.126709 24.0 
226.183578 26.0 
227.156326 26.0 
228.15094 6.0 
229.174149 10.0 
229.207199 26.0 
230.530945 22.0 
233.229889 33.0 
234.177567 23.0 
234.210968 35.0 
235.180725 22.0 
235.207504 31.0 
240.194794 45.0 
240.30307 24.0 
241.170074 12.0 
242.167679 30.0 
242.323975 17.0 
243.167374 16.0 
245.15239 20.0 
245.166061 15.0 
246.171906 9.0 
246.178757 9.0 
247.172958 20.0 
248.107254 35.0 
251.225082 9.0 
253.944824 10.0 
255.170685 45.0 
255.191605 26.0 
255.247391 16.0 
257.211029 27.0 
259.17514 28.0 
260.237457 61.0 
260.406494 9.0 
260.892792 9.0 
262.220123 13.0 
262.227234 13.0 
267.241882 14.0 
269.150726 69.0 
273.212494 23.0 
273.255798 8.0 
275.207672 46.0 
275.236664 8.0 
278.308777 61.0 
280.841675 17.0 
281.310059 28.0 
282.160065 47.0 
282.240723 50.0 
282.262726 106.0 
283.187622 36.0 
283.268433 29.0 
283.525665 31.0 
284.165527 26.0 
284.180237 17.0 
284.275909 30.0 
285.189362 49.0 
286.200256 18.0 
286.207642 18.0 
286.259338 18.0 
287.26474 16.0 
293.184601 11.0 
293.244385 36.0 
295.236298 7.0 
296.422668 7.0 
298.282043 33.0 
299.074249 9.0 
299.83725 9.0 
299.950653 13.0 
300.26828 98.0 
300.502838 10.0 
301.16156 12.0 
301.191864 191.0 
301.252472 9.0 
301.267639 8.0 
301.639038 13.0 
302.177582 55.0 
302.19278 31.0 
302.238312 16.0 
303.187744 47.0 
303.210571 25.0 
305.938049 16.0 
307.291077 24.0 
308.217743 14.0 
308.716125 63.0 
310.229034 35.0 
311.206299 9.0 
311.22171 13.0 
313.219604 56.0 
313.327789 51.0 
313.343231 45.0 
315.774414 7.0 
317.460022 17.0 
318.26947 195.0 
318.690186 9.0 
319.072174 7.0 
319.204742 55.0 
319.282745 20.0 
319.50119 8.0 
320.297607 23.0 
321.196716 12.0 
324.270996 19.0 
325.215057 28.0 
325.246521 32.0 
325.262268 35.0 
325.301636 65.0 
325.341034 49.0 
326.239288 19.0 
329.226654 15.0 
329.353394 7.0 
332.729126 15.0 
333.183167 37.0 
335.346161 12.0 
337.307648 10.0 
339.266785 34.0 
339.282867 25.0 
340.264587 17.0 
343.242523 48.0 
344.246185 11.0 
345.235046 22.0 
346.274109 73.0 
347.249634 18.0 
348.27536 14.0 
353.32843 25.0 
353.344818 12.0 
354.21521 22.0 
354.420654 12.0 
355.25943 38.0 
355.267639 38.0 
355.284119 70.0 
355.333496 23.0 
356.17337 21.0 
356.255737 18.0 
357.286499 197.0 
358.236053 34.0 
358.277344 13.0 
358.293884 14.0 
359.220001 18.0 
359.294464 21.0 
359.319275 164.0 
359.402039 18.0 
359.824249 87.0 
360.271576 319.0 
360.321289 49.0 
361.208496 28.0 
361.283173 50.0 
364.868347 21.0 
365.260406 222.0 
366.262268 68.0 
366.98114 18.0 
367.232056 14.0 
368.228241 16.0 
369.2258 31.0 
371.267029 46.0 
374.368927 18.0 
374.588593 9.0 
375.281738 11.0 
375.307129 21.0 
376.280304 28.0 
377.305695 14.0 
378.27298 20.0 
378.298462 21.0 
378.366394 11.0 
378.374878 11.0 
381.250549 13.0 
383.281921 183.0 
384.273987 98.0 
384.385254 31.0 
384.393829 31.0 
385.258759 55.0 
385.318726 9.0 
385.85022 13.0 
386.261963 32.0 
386.296265 10.0 
387.266418 39.0 
387.335175 25.0 
389.124298 22.0 
389.356842 11.0 
390.28772 13.0 
391.107483 11.0 
393.294769 122.0 
394.299683 33.0 
394.533783 11.0 
394.620514 21.0 
395.123657 17.0 
395.201752 6.0 
395.262512 20.0 
395.305908 124.0 
395.366669 7.0 
395.531616 8.0 
396.29599 73.0 
396.391602 36.0 
396.835022 6.0 
397.235138 18.0 
397.296021 36.0 
397.496185 22.0 
399.256287 40.0 
399.666382 6.0 
400.819214 12.0 
400.827972 12.0 
400.854187 28.0 
401.168915 7.0 
401.273834 378.0 
402.288879 83.0 
402.315155 9.0 
402.95462 9.0 
402.963379 9.0 
403.261383 35.0 
403.480591 13.0 
405.289032 33.0 
406.309143 6.0 
407.286469 7.0 
407.295288 7.0 
408.406128 28.0 
411.296143 77.0 
411.774353 11.0 
412.270599 28.0 
412.29718 19.0 
413.3172 215.0 
413.414825 27.0 
414.320679 120.0 
414.382904 8.0 
415.316498 14.0 
415.33432 16.0 
416.322479 31.0 
417.25827 7.0 
421.191132 16.0 
421.253845 183.0 
421.280731 254.0 
421.334503 25.0 
422.266937 39.0 
422.293854 33.0 
422.311798 30.0 
423.263275 13.0 
423.28125 24.0 
423.389038 13.0 
423.39801 13.0 
425.250519 21.0 
425.259521 21.0 
428.325867 30.0 
431.203766 11.0 
432.283203 19.0 
432.301361 16.0 
432.546478 7.0 
439.245483 64.0 
439.291229 529.0 
440.270813 32.0 
440.298309 157.0 
440.33493 41.0 
440.87558 12.0 
441.288177 37.0 
441.306519 31.0 
441.57251 22.0 
442.279144 83.0 
442.315887 14.0 
442.885284 20.0 
443.602203 13.0 
443.868866 61.0 
444.292053 25.0 
446.272644 18.0 
446.327972 25.0 
446.770752 22.0 
447.278412 45.0 
447.407684 12.0 
450.311829 76.0 
450.330353 47.0 
451.331451 24.0 
452.305786 31.0 
452.426483 29.0 
453.290466 33.0 
453.309052 20.0 
457.249237 19.0 
457.295898 471.0 
457.389252 21.0 
458.267303 9.0 
458.304657 234.0 
459.249054 17.0 
459.305206 21.0 
459.342621 11.0 
460.147614 24.0 
460.325562 86.0 
460.409882 10.0 
461.262695 30.0 
461.30957 20.0 
462.303986 95.0 
462.332153 231.0 
462.463593 24.0 
463.337097 79.0 
463.384064 21.0 
464.371307 26.0 
466.18869 78.0 
466.358398 13.0 
467.273315 11.0 
470.297913 127.0 
470.316864 127.0 
470.477814 192.0 
471.283051 6.0 
471.311462 37.0 
472.288147 26.0 
472.31662 25.0 
472.42099 12.0 
475.328949 18.0 
477.778168 9.0 
479.306122 50.0 
480.34848 894.0 
480.444153 20.0 
480.597229 33.0 
480.606812 33.0 
481.344025 347.0 
481.36319 348.0 
482.302277 7.0 
482.321442 8.0 
482.359802 95.0 
482.628326 7.0 
483.376678 29.0 
483.770233 7.0 
484.356171 25.0 
487.599335 7.0 
487.811432 6.0 
488.216492 51.0 
488.29364 135.0 
488.322601 666.0 
488.438354 11.0 
488.486603 38.0 
488.602417 18.0 
488.612061 18.0 
488.79541 23.0 
489.326385 425.0 
490.26358 15.0 
490.273224 15.0 
490.302246 43.0 
490.331238 7.0 
491.124237 6.0 
491.327393 8.0 
491.366119 27.0 
491.404816 10.0 
492.295532 6.0 
492.33429 41.0 
492.46991 6.0 
492.528046 17.0 
492.944733 6.0 
493.293732 7.0 
495.35141 8.0 
496.323486 16.0 
497.627594 9.0 
498.777374 7.0 
499.50885 6.0 
500.445953 16.0 
500.993011 8.0 
501.002777 8.0 
501.804352 15.0 
501.814117 15.0 
502.107574 8.0 
502.156494 17.0 
502.224945 7.0 
504.39917 7.0 
504.546265 7.0 
504.899353 8.0 
505.085724 7.0 
505.144592 20.0 
505.321228 17.0 
505.468445 11.0 
505.743286 8.0 
505.998566 12.0 
506.037872 7.0 
506.145905 16.0 
506.24411 12.0 
506.33252 3793.0 
506.460205 13.0 
506.528992 8.0 
506.568298 38.0 
506.656738 9.0 
506.833618 28.0 
507.167816 9.0 
507.334961 1221.0 
507.826721 7.0 
508.240021 37.0 
508.328613 455.0 
508.397491 10.0 
508.43689 11.0 
508.771606 14.0 
509.342865 145.0 
510.022919 10.0 
510.121521 8.0 
510.289154 6.0 
510.308868 19.0 
510.328613 22.0 
510.368042 8.0 
510.427246 11.0 
510.437103 11.0 
510.48642 14.0 
510.515991 30.0 
511.26593 27.0 
511.512695 26.0 
511.96701 19.0 
512.816833 7.0 
512.945374 9.0 
514.013733 12.0 
514.469116 9.0 
514.99408 11.0 
515.063354 6.0 
515.955444 6.0 
516.302612 45.0 
517.116272 9.0 
517.414185 6.0 
517.880981 10.0 
517.9505 6.0 
519.004211 7.0 
520.417419 14.0 
520.507019 10.0 
520.636536 10.0 
520.885559 20.0 
521.403809 8.0 
522.470947 7.0 
522.520874 8.0 
522.560791 16.0 
523.349426 122.0 
523.379395 70.0 
523.429321 14.0 
523.489258 28.0 
523.539185 197.0 
523.669067 7.0 
523.699036 30.0 
523.768982 20.0 
523.978821 16.0 
524.048767 60.0 
524.238708 52.0 
524.338623 13920.0 
524.398621 329.0 
524.468567 41.0 
524.508545 99.0 
524.528564 101.0 
524.578552 28.0 
524.62854 17.0 
524.64856 28.0 
524.668518 37.0 
524.698547 25.0 
524.728516 17.0 
524.748535 18.0 
524.788513 8.0 
524.848572 24.0 
524.918579 110.0 
525.15863 44.0 
525.208679 50.0 
525.278687 101.0 
525.348755 4420.0 
525.398804 214.0 
525.458862 136.0 
525.50885 67.0 
525.538879 37.0 
525.558899 38.0 
525.598938 15.0 
525.618958 22.0 
525.658997 32.0 
525.769043 10.0 
525.829102 39.0 
525.849121 33.0 
525.90918 7.0 
525.93927 26.0 
526.089417 7.0 
526.129517 25.0 
526.219604 10.0 
526.239624 30.0 
526.299744 167.0 
526.329773 1005.0 
526.349792 963.0 
526.429932 25.0 
526.480042 60.0 
526.53009 36.0 
526.57019 23.0 
526.60022 38.0 
526.700439 50.0 
526.900818 44.0 
527.201477 60.0 
527.231506 62.0 
527.271606 16.0 
527.331787 142.0 
527.361877 179.0 
527.532288 66.0 
527.612549 7.0 
527.903381 34.0 
528.134094 20.0 
528.194336 15.0 
528.224426 61.0 
528.294678 20.0 
528.334778 42.0 
528.354797 18.0 
528.4953 55.0 
528.555542 650.0 
528.696045 10.0 
528.736206 31.0 
528.826538 24.0 
528.87677 95.0 
528.957092 8.0 
529.027344 84.0 
529.308533 15.0 
530.2229 13.0 
530.303345 16.0 
530.333496 8.0 
530.524536 13.0 
530.816162 16.0 
531.077698 8.0 
531.138062 17.0 
532.164795 11.0 
532.195007 8.0 
532.275513 10.0 
532.325928 37.0 
532.70874 7.0 
533.908447 8.0 
534.503784 16.0 
536.049072 13.0 
537.17157 12.0 
537.465027 7.0 
537.90033 16.0 
539.207214 21.0 
539.937317 7.0 
540.688232 15.0 
544.389526 13.0 
545.316833 14.0 
548.808838 11.0 
552.71228 8.0 
558.123962 7.0 
559.062866 18.0 
566.550598 16.0 
577.513672 15.0 
578.363708 15.0 
586.476013 22.0 
598.355225 10.0 
625.524292 17.0 
626.496399 16.0 
639.599976 58.0 
639.655151 12.0 
640.605042 23.0 
660.17688 12.0 
672.595581 16.0 
681.615112 6.0 
681.626526 6.0 
681.649353 8.0 
682.242126 33.0 
682.299133 11.0 
683.576904 13.0 
683.611084 22.0 
683.679565 14.0 
684.547363 24.0 
685.598572 13.0 
699.545654 19.0 
701.98407 7.0 
713.656494 21.0 
715.535339 23.0 
717.264648 64.0 
719.265381 16.0 
719.511292 15.0 
719.546387 22.0 
738.618347 29.0 
760.44165 12.0 
760.549988 28.0 
762.815125 35.0 
773.535217 25.0 
794.621277 14.0 
808.563171 14.0 
809.680725 8.0 
825.759399 22.0 
837.618896 7.0 
876.778625 32.0 
876.817383 75.0 
876.843262 30.0 
877.813049 29.0 
877.838928 40.0 
878.809265 16.0 
879.780151 11.0 
879.922607 10.0 
887.501465 35.0 
905.487061 15.0 
907.353394 14.0 
918.221375 11.0 
919.796204 13.0 
927.664307 17.0 
937.930725 7.0 
955.850769 14.0 
957.754761 11.0 
966.095215 20.0 
969.830322 42.0 
969.898315 34.0 
979.862122 10.0 
988.696167 9.0 
996.894287 9.0 
998.838684 7.0 
1013.87854 10.0 
1014.851746 56.0 
1022.822266 8.0 
1129.994995 10.0 
1189.005493 8.0 
1245.108398 7.0 
1273.473511 6.0 
1403.081909 8.0 
1509.0271 22.0 
1671.165405 11.0 
1781.542725 38.0 
1971.325195 15.0 
2191.690918 28.0 
2211.991211 11.0 
2274.848633 13.0 
2350.529297 11.0 
2442.959717 17.0 
2660.838867 48.0 
2692.481201 10.0 
2695.245605 25.0 
2780.077148 17.0 
2806.61084 51.0 
2852.799805 19.0 
2923.959229 12.0 
2944.935059 21.0 
2970.196045 16.0 
2994.107422 28.0 
END IONS

