BEGIN IONS
PEPMASS=600.337
CHARGE=1+
COMPOUNDNAME=destruxin A
LIBRARYQUALITY=3
SMILES=N/A
INCHIKEY=XIYSEKITPHTMJT-UHFFFAOYSA-N
INCHI=InChI=1S/C29H47N5O7/c1-9-12-21-27(38)34-16-11-13-20(34)26(37)31-23(18(5)10-2)28(39)33(8)24(17(3)4)29(40)32(7)19(6)25(36)30-15-14-22(35)41-21/h9,17-21,23-24H,1,10-16H2,2-8H3,(H,30,36)(H,31,37)
MSLEVEL=2
SOURCE_INSTRUMENT=N/A-ESI-QFT
FILENAME=library_mgf.mgf
SEQ=*..*
IONMODE=positive
ORGANISM=MONA
NAME=destruxin A [M+Na]+
PI=MoNA
DATACOLLECTOR=MoNA:VF-NPL-QEHF017775
PUBMED=N/A
SUBMITUSER=mwang87
TAGS=
SPECTRUMID=CCMSLIB00004708838
SCANS=17775
50.883591 0.212924 
51.192764 0.186643 
51.666149 0.195718 
52.759087 0.115659 
53.038914 12.996519 
53.147701 0.255155 
53.535297 0.438856 
53.620991 0.158739 
53.794281 0.278222 
55.054543 3.195129 
55.564774 0.259523 
55.597477 0.350369 
55.673435 0.091415 
56.013569 0.144738 
57.602608 0.34922 
57.627525 0.172571 
58.065411 10.219347 
58.08202 0.346248 
58.182457 0.105654 
58.413647 0.107029 
58.871258 0.095632 
60.633129 0.325808 
60.779213 0.28883 
61.265785 0.23149 
61.300999 0.207286 
62.216381 0.288713 
62.284683 0.216092 
62.376163 0.315961 
62.411629 0.216554 
62.47913 0.20331 
62.572872 0.279454 
62.58749 0.20069 
63.744205 0.361658 
64.068199 0.10283 
64.511932 0.2987 
64.717827 0.233002 
65.018692 0.126207 
65.329948 0.255051 
65.469391 0.359986 
65.881142 0.094648 
66.206528 0.27782 
66.246254 0.336177 
67.206886 0.097784 
67.608032 0.108024 
67.740166 0.30034 
68.585121 0.200575 
69.07 8.976142 
69.146233 0.193513 
69.3536 0.196463 
69.555099 0.287996 
70.065239 100.0 
70.421814 0.262894 
71.068542 0.782081 
71.480476 0.122258 
72.014618 0.261497 
72.336197 0.10678 
72.687675 0.253028 
72.822388 0.26418 
74.89328 0.314832 
74.981903 0.081426 
75.143211 0.279527 
75.279663 0.236848 
76.09539 0.208622 
76.314651 0.119053 
76.551445 0.2492 
77.768089 0.081004 
77.996445 0.226856 
78.321747 0.098747 
78.441719 0.16786 
78.768501 0.186045 
81.033554 69.447731 
81.778175 0.379305 
82.010994 0.162882 
82.036942 0.401866 
83.049088 0.294953 
83.848999 0.164509 
84.08107 0.235835 
85.038826 0.173703 
86.060104 11.507166 
86.096481 69.127365 
86.772247 0.349613 
86.993614 0.076194 
87.100029 0.605612 
87.295471 0.111178 
88.357811 0.360665 
88.491638 0.073202 
90.633118 0.174037 
90.916756 0.261532 
91.270676 0.194475 
92.047455 0.150023 
93.118103 0.28529 
94.395004 0.249534 
95.043526 0.213163 
95.066864 0.147185 
95.948082 0.261599 
96.08075 0.469163 
96.642365 0.283547 
97.39209 0.275949 
97.517487 0.267135 
98.135674 0.218055 
100.030296 0.094201 
100.101112 0.285443 
101.382965 0.112891 
102.387444 0.213908 
104.811478 0.169237 
106.390572 0.367301 
106.933449 0.269602 
107.082039 0.070961 
109.809204 0.416402 
110.059982 0.249344 
110.295212 0.098853 
110.738762 0.236364 
111.679367 0.098522 
112.036987 1.758563 
113.070839 0.469769 
113.616592 0.377002 
114.055016 1.916409 
114.091354 6.675241 
119.412964 0.289147 
120.036957 0.321676 
120.787422 0.070244 
122.021118 0.326788 
122.057549 0.291244 
122.096748 0.392066 
122.255203 0.083945 
123.06562 0.220384 
124.523277 0.102909 
125.070946 3.988904 
128.458603 0.239362 
128.73822 0.239048 
135.052872 2.659696 
135.459167 0.220922 
136.037079 2.756226 
137.980667 0.27579 
138.127777 2.507178 
141.066071 0.512321 
142.609924 0.14185 
143.62999 0.203467 
145.423813 0.121806 
146.532715 0.084121 
146.547256 0.16963 
147.053238 0.272237 
148.746048 0.271873 
149.068542 0.740428 
150.091385 60.587036 
151.083862 1.533534 
151.094711 3.301187 
151.731247 0.340638 
152.894745 0.097134 
153.138168 0.353351 
153.80011 0.106703 
154.084366 0.109165 
154.12207 0.329895 
155.208481 0.239257 
156.36792 0.222875 
159.008072 0.376208 
161.05162 0.217895 
164.264618 0.243047 
165.099594 0.135124 
166.086075 0.711589 
166.891296 0.130658 
167.055359 2.366101 
168.101791 0.768239 
168.310349 0.367564 
171.081406 0.123309 
171.305466 0.254893 
171.841797 0.294565 
172.073273 4.477535 
178.086319 4.430382 
179.079086 0.105419 
179.83548 0.106184 
181.133621 0.27463 
185.845718 0.132758 
187.456482 0.173962 
188.615555 0.172694 
190.083984 7.212608 
191.915283 0.157456 
193.483749 0.361746 
193.864609 0.345439 
194.32515 0.388865 
195.074112 5.781029 
195.483307 0.351619 
195.760452 0.286982 
197.089783 23.637371 
198.977554 0.280888 
199.898285 0.1125 
200.068314 2.065179 
201.111832 0.293272 
202.903366 0.293024 
203.11554 3.569243 
203.642303 0.482305 
203.871887 0.290386 
204.200745 0.110145 
204.759674 0.233822 
205.131256 1.054623 
206.08963 0.789323 
207.510925 0.393683 
210.370483 0.234088 
212.742996 0.084161 
214.506042 0.277469 
218.078979 5.296822 
219.585266 1.894152 
219.598633 2.033945 
220.105804 0.763629 
221.126205 0.927808 
222.898346 0.188663 
226.157455 0.123599 
226.228973 0.296716 
229.092819 0.186111 
231.110413 0.36096 
235.069382 0.424672 
235.141724 0.388327 
238.151428 0.118492 
242.892822 0.330087 
244.093338 0.127484 
244.677536 0.109377 
245.35907 0.112029 
246.570923 0.104564 
249.240601 0.282368 
250.056107 0.247187 
250.374054 0.393751 
254.897781 0.259416 
255.109985 0.081341 
257.125916 2.104853 
259.178711 0.229158 
260.13739 0.820662 
260.39325 0.233461 
261.121094 1.398624 
261.381317 0.28172 
262.153015 0.111202 
263.175629 0.439355 
268.126923 8.489832 
278.721558 0.092106 
284.101898 0.286226 
285.140076 0.269395 
285.157104 23.326622 
286.160797 0.531079 
288.368408 0.24172 
294.354523 0.130089 
306.918823 0.085683 
308.855042 0.186915 
309.957367 0.112444 
310.174316 0.116945 
313.00296 0.130004 
315.910034 0.213104 
317.111511 0.210676 
330.248108 0.304542 
335.583893 0.133082 
337.425842 0.202697 
337.910278 0.223442 
341.496735 0.149735 
341.520294 0.31565 
342.178467 1.353031 
342.972809 0.338415 
344.156921 0.540317 
344.195953 0.181792 
346.36261 0.199139 
350.496063 0.437584 
357.178253 4.019233 
367.116577 0.107686 
371.091064 0.270076 
373.235718 0.447877 
374.206879 0.131825 
375.192535 0.292442 
385.093414 0.359913 
389.064941 0.125431 
389.582184 0.132077 
391.68515 0.227204 
400.184113 1.540395 
407.284546 0.15282 
422.541931 0.345645 
429.211304 0.249192 
430.8573 0.227578 
450.550781 0.199933 
456.216736 0.372698 
456.268341 0.186696 
457.240051 0.9954 
459.257782 0.910557 
480.917877 0.099702 
487.838623 0.457179 
502.974335 0.406675 
508.869751 0.301483 
516.227234 0.24218 
528.240417 0.247551 
546.812866 0.288711 
567.949463 0.100884 
573.29657 0.311019 
END IONS

