BEGIN IONS
PEPMASS=163.0
CHARGE=1+
COMPOUNDNAME=Massbank:KO002714 2-Deoxystreptamine
LIBRARYQUALITY=3
SMILES=N[C@H](C1)[C@H](O)[C@@H](O)[C@H](O)[C@@H](N)1
INCHIKEY=DTFAJAKTSMLKAT-JDCCYXBGSA-N
INCHI=1S/C6H14N2O3/c7-2-1-3(8)5(10)6(11)4(2)9/h2-6,9-11H,1,7-8H2/t2-,3+,4+,5-,6-
MSLEVEL=2
SOURCE_INSTRUMENT=ESI-LC-ESI-QQ
FILENAME=Massbank_ESI_positive_8_1_2014_peaks.mgf
SEQ=*..*
IONMODE=Positive
ORGANISM=MASSBANK
NAME=Massbank:KO002714 2-Deoxystreptamine [M+H]+
PI=Putative Massbank Match
DATACOLLECTOR=Massbank
PUBMED=N/A
SUBMITUSER=mwang87
TAGS=
SPECTRUMID=CCMSLIB00000217929
SCANS=8516
55.3 84158.5 
56.0 103960.5 
57.1 79208.0 
60.1 123762.5 
64.9 79208.0 
67.0 64356.5 
67.9 366337.0 
68.9 138614.0 
71.7 19802.0 
75.1 188119.0 
77.1 2900993.0 
80.0 84158.5 
82.1 193069.5 
83.3 54455.5 
84.2 178218.0 
85.1 94059.5 
86.0 19802.0 
91.2 2074259.5 
93.5 14851.5 
95.3 227723.0 
98.2 14851.5 
101.0 7059413.0 
102.3 435644.0 
110.2 217822.0 
114.1 29703.0 
116.9 143564.5 
118.0 84158.5 
119.2 787129.5 
120.3 94059.5 
127.0 84158.5 
128.0 38564395.0 
129.3 173267.5 
130.2 79208.0 
146.1 4222776.5 
END IONS

