BEGIN IONS
PEPMASS=578.294
CHARGE=1+
COMPOUNDNAME=destruxin A
LIBRARYQUALITY=3
SMILES=N/A
INCHIKEY=XIYSEKITPHTMJT-UHFFFAOYSA-N
INCHI=InChI=1S/C29H47N5O7/c1-9-12-21-27(38)34-16-11-13-20(34)26(37)31-23(18(5)10-2)28(39)33(8)24(17(3)4)29(40)32(7)19(6)25(36)30-15-14-22(35)41-21/h9,17-21,23-24H,1,10-16H2,2-8H3,(H,30,36)(H,31,37)
MSLEVEL=2
SOURCE_INSTRUMENT=N/A-Linear Ion Trap
FILENAME=library_mgf.mgf
SEQ=*..*
IONMODE=negative
ORGANISM=MONA
NAME=destruxin A M+H
PI=MoNA
DATACOLLECTOR=MoNA:VF-NPL-LTQ004617
PUBMED=N/A
SUBMITUSER=mwang87
TAGS=
SPECTRUMID=CCMSLIB00004688312
SCANS=3933
422.200012 18.517336 
437.220001 100.0 
END IONS

