BEGIN IONS
PEPMASS=1293.55
CHARGE=1+
COMPOUNDNAME=DACTINOMYCIN
LIBRARYQUALITY=3
SMILES=N/A
INCHIKEY=RJURFGZVJUQBHK-IIXSONLDSA-N
INCHI=InChI=1S/C62H86N12O16/c1-27(2)42-59(84)73-23-17-19-36(73)57(82)69(13)25-38(75)71(15)48(29(5)6)61(86)88-33(11)44(55(80)65-42)67-53(78)35-22-21-31(9)51-46(35)64-47-40(41(63)50(77)32(10)52(47)90-51)54(79)68-45-34(12)89-62(87)49(30(7)8)72(16)39(76)26-70(14)58(83)37-20-18-24-74(37)60(85)43(28(3)4)66-56(45)81/h21-22,27-30,33-34,36-37,42-45,48-49H,17-20,23-26,63H2,1-16H3,(H,65,80)(H,66,81)(H,67,78)(H,68,79)/t33-,34-,36+,37+,42-,43-,44+,45+,48+,49+/m1/s1
MSLEVEL=2
SOURCE_INSTRUMENT=N/A-Linear Ion Trap
FILENAME=library_mgf.mgf
SEQ=*..*
IONMODE=positive
ORGANISM=MONA
NAME=DACTINOMYCIN M+H
PI=MoNA
DATACOLLECTOR=MoNA:VF-NPL-LTQ006138
PUBMED=N/A
SUBMITUSER=mwang87
TAGS=
SPECTRUMID=CCMSLIB00004689644
SCANS=5265
673.190002 3.667079 
685.200012 9.234613 
699.140015 4.790422 
711.150024 5.69744 
756.23999 20.533607 
782.190002 9.787839 
812.23999 2.570682 
853.200012 3.111223 
881.169983 1.834789 
881.190002 11.230381 
881.349976 4.930524 
895.22998 2.648681 
992.309998 1.172013 
996.280029 21.549318 
1049.310059 3.518058 
1067.319946 100.0 
1109.349976 3.287462 
1152.400024 1.996124 
1162.380005 11.078622 
1178.449951 9.579714 
1273.410034 3.01998 
END IONS

