BEGIN IONS
PEPMASS=497.266
CHARGE=1+
COMPOUNDNAME=(3E,5S,7R,8R,11E,13S,15R,16R)-3,5,7,11,13,15-hexamethyl-8,16-bis(1,3-oxazol-5-ylmethyl)-1,9-dioxacyclohexadeca-3,11-diene-2,10-dione
LIBRARYQUALITY=3
SMILES=N/A
INCHIKEY=LAJRJVDLKYGLOO-HLRFMGGZSA-N
INCHI=InChI=1S/C28H38N2O6/c1-17-7-19(3)25(11-23-13-29-15-33-23)35-28(32)22(6)10-18(2)8-20(4)26(12-24-14-30-16-34-24)36-27(31)21(5)9-17/h9-10,13-20,25-26H,7-8,11-12H2,1-6H3/b21-9+,22-10+/t17-,18-,19+,20+,25+,26+/m0/s1
MSLEVEL=2
SOURCE_INSTRUMENT=N/A-ESI-QFT
FILENAME=library_mgf.mgf
SEQ=*..*
IONMODE=negative
ORGANISM=MONA
NAME=(3E,5S,7R,8R,11E,13S,15R,16R)-3,5,7,11,13,15-hexamethyl-8,16-bis(1,3-oxazol-5-ylmethyl)-1,9-dioxacyclohexadeca-3,11-diene-2,10-dione [M-H]-
PI=MoNA
DATACOLLECTOR=MoNA:VF-NPL-QEHF019224
PUBMED=N/A
SUBMITUSER=mwang87
TAGS=
SPECTRUMID=CCMSLIB00004710287
SCANS=19224
50.161175 0.115336 
50.305481 0.083011 
50.378204 0.079357 
50.424488 0.10421 
50.458176 0.08745 
50.638393 0.089008 
50.67556 0.090095 
51.60638 0.078915 
51.630867 0.091494 
51.809402 0.080144 
52.386539 0.094592 
52.545734 0.087098 
52.673553 0.079535 
52.699528 0.097146 
52.939709 0.085217 
53.000366 0.085275 
53.042011 0.090104 
53.575512 0.079659 
54.41946 0.084536 
54.475227 0.107094 
55.017467 10.166913 
55.475452 0.086685 
55.513901 0.098753 
55.836605 0.104098 
56.079243 0.090526 
56.126244 0.091249 
56.996288 0.078805 
57.033131 7.964844 
57.509266 0.086087 
58.087242 0.086111 
58.150604 0.109549 
58.436249 0.079504 
59.00906 0.099147 
59.012405 5.400046 
59.155426 0.090208 
59.768642 0.095219 
60.257816 0.078909 
60.670704 0.095523 
61.081013 0.082054 
61.819672 0.076803 
61.977627 0.088663 
61.986897 100.0 
61.996101 0.102032 
62.439709 0.098549 
63.50362 0.076916 
63.961014 0.886853 
64.137215 0.087774 
64.666161 0.109408 
65.323616 0.094816 
65.71077 0.08335 
65.952431 0.076182 
65.997032 0.094592 
66.573906 0.080035 
67.017517 0.095207 
67.421356 0.093857 
67.752365 0.090135 
68.613503 0.081595 
68.763321 0.080342 
68.815979 0.08414 
68.996742 0.208078 
69.022911 0.098309 
69.03315 2.192333 
69.340675 0.086032 
69.929268 0.083051 
69.973183 0.078484 
70.719131 0.098657 
71.012405 1.372037 
71.048767 5.834511 
71.067368 0.109511 
71.124405 0.087258 
72.806557 0.103154 
72.991524 0.134588 
73.028084 4.534484 
73.334541 0.076221 
76.51545 0.098465 
78.957626 14.984988 
78.98452 0.114488 
79.942276 0.113803 
79.95591 40.877895 
80.049408 0.107753 
80.237022 0.083179 
80.963837 2.62527 
81.033157 1.841282 
81.849106 0.094073 
81.951714 0.869321 
82.028374 0.089279 
82.104912 0.094314 
83.048798 3.485875 
83.549606 0.111363 
84.021248 0.087641 
84.035561 0.094166 
85.028275 0.387358 
85.064453 11.302457 
86.067749 0.37198 
86.938866 0.100864 
87.007401 0.267766 
87.04377 1.336485 
88.959221 0.099315 
89.022926 0.73705 
89.835091 0.086 
92.049843 0.096749 
93.000305 0.087977 
93.033119 0.985712 
94.918289 0.079393 
94.979385 70.604729 
95.048813 6.053502 
95.933075 2.059884 
95.950821 0.274061 
95.979256 0.134601 
95.982491 0.1051 
96.043884 0.336502 
96.958679 25.798571 
96.968002 0.1248 
96.975212 2.847102 
96.983536 0.09647 
97.028 0.99365 
97.064507 1.262528 
97.589027 0.087563 
98.023476 0.091351 
98.027161 0.086068 
98.95443 0.111492 
99.006676 0.093302 
99.043739 7.254295 
99.080139 1.044099 
99.284935 0.082295 
99.322098 0.082921 
100.136925 0.093768 
100.810181 0.085207 
101.038307 0.086714 
101.432465 0.120421 
101.905968 0.088304 
101.935066 0.081684 
103.380524 0.094712 
104.366104 0.106592 
107.012299 0.087991 
107.035896 0.08782 
107.048813 10.955009 
108.02034 0.613291 
108.044029 4.393183 
108.052597 0.103646 
108.428444 0.098047 
109.027954 0.157699 
109.047478 0.37994 
109.064499 1.00805 
110.023422 1.084959 
110.465096 0.085976 
110.956566 6.568758 
110.974281 5.702286 
111.007278 0.116036 
111.043755 6.432477 
111.080116 2.972618 
112.038673 0.092636 
112.046783 0.221029 
112.703178 0.098424 
113.059464 1.695939 
116.11142 0.132561 
117.033279 1.054383 
117.054291 0.490424 
118.027473 0.084747 
118.517578 0.09213 
119.049004 0.222112 
119.110222 0.119329 
119.474442 0.091242 
121.028366 0.431552 
121.064491 5.111592 
121.083534 0.10807 
122.059319 0.134881 
123.007324 0.283217 
123.080193 21.1703 
124.039032 8.007504 
124.083511 2.882958 
125.022972 0.654036 
125.043205 0.087205 
125.095856 14.072154 
126.099106 0.499668 
126.602386 0.084644 
127.0924 0.099661 
128.387039 0.097076 
129.31218 0.098827 
130.736832 0.089755 
133.039536 7.612332 
133.044357 0.096899 
134.001968 0.080465 
134.042755 1.507208 
134.06015 0.103741 
135.043488 0.101154 
135.080643 0.351143 
136.039154 0.414137 
136.05188 0.103618 
137.023163 0.275467 
137.059631 4.80661 
137.095642 0.188847 
138.018372 9.198782 
138.054749 0.317207 
139.02626 8.05635 
139.038696 0.111408 
139.111038 0.105574 
140.034027 3.778242 
140.642746 0.116089 
140.903778 0.108896 
145.497375 0.091145 
147.514328 0.086486 
149.059784 0.333121 
149.096115 0.349613 
150.018539 0.101512 
151.038788 0.439657 
151.074966 0.347442 
151.261658 0.083727 
151.430664 0.084222 
152.034058 17.197779 
152.046616 1.4034 
152.994568 3.23077 
153.005585 3.490711 
153.042282 0.921533 
154.049866 3.603141 
154.821548 0.111281 
155.893692 0.093798 
157.064865 0.116425 
158.592987 0.098235 
158.675644 0.090585 
161.034576 0.532761 
161.558899 0.104247 
162.037613 0.120358 
163.026688 0.12507 
163.11171 0.105723 
164.083374 0.245668 
165.127304 0.107428 
166.013397 6.358175 
166.049713 1.707633 
166.46637 0.086543 
167.02124 9.026214 
167.057632 0.259096 
167.07016 9.470025 
168.02919 17.450619 
168.073624 1.365334 
169.032242 0.229341 
171.078674 0.093014 
171.98262 0.387675 
172.15181 0.087478 
174.068039 0.120857 
174.931931 0.096097 
175.306122 0.090869 
176.034149 0.121632 
176.814224 0.105966 
177.091171 0.330872 
177.493591 0.087248 
178.049927 0.097022 
179.022156 0.11451 
179.106659 2.102039 
180.029114 9.974469 
180.06517 0.094492 
180.109604 0.253059 
180.204849 0.102582 
181.02269 0.096793 
181.036972 3.394749 
182.044647 0.507785 
183.010956 5.054338 
183.052933 0.40325 
183.138031 1.675151 
183.825165 0.101976 
184.000748 1.394654 
189.531921 0.102201 
190.049881 0.861226 
190.253021 0.094492 
191.081543 1.674334 
191.612534 0.09889 
192.066147 0.11827 
192.084885 0.728276 
195.052078 0.221785 
195.800888 0.113581 
196.926315 0.093446 
197.189697 0.098229 
197.727478 0.083492 
198.036087 0.121124 
198.07869 0.100451 
201.020706 0.084775 
202.497055 0.096012 
204.065643 0.287596 
206.045197 0.121123 
206.081238 0.612033 
208.531738 0.09763 
209.22644 0.08579 
210.633667 0.109366 
215.033615 0.115082 
216.163055 0.097486 
216.337357 0.079319 
220.046387 1.178378 
220.058731 0.693181 
220.073456 0.124392 
231.281616 0.107315 
233.951614 0.104697 
239.729141 0.099196 
242.692352 0.096574 
246.600464 0.109052 
249.064606 0.086231 
262.344482 0.093435 
262.897064 0.09327 
274.284851 0.084206 
276.461823 0.108627 
284.611603 0.10789 
288.650391 0.104203 
292.612427 0.106656 
295.214325 0.106994 
305.57785 0.102096 
305.695038 0.093514 
311.783264 0.09941 
312.686737 0.10827 
325.184448 0.138685 
331.475891 0.096149 
335.267944 0.084152 
338.243774 0.106227 
339.237244 0.089898 
345.639832 0.09174 
348.80011 0.095248 
364.48291 0.09842 
365.562042 0.103529 
376.427582 0.083738 
377.895111 0.097054 
389.79538 0.102124 
409.397827 0.086895 
417.602905 0.111402 
430.977051 0.129257 
436.524048 0.111302 
448.868835 0.096372 
449.712952 0.086799 
453.87384 0.095339 
458.476746 0.104452 
463.95163 0.105447 
490.563263 0.09309 
END IONS

