BEGIN IONS
PEPMASS=312.16
CHARGE=1+
COMPOUNDNAME=Massbank:PB003642 Thebaine|Morphinan, 6,7,8,14-tetradehydro-4,5-epoxy-3,6-dimethoxy-17-methyl-, (5.alpha.)-
LIBRARYQUALITY=3
SMILES=CN1CCC23C4C(=CC=C2C1CC5=C3C(=C(C=C5)OC)O4)OC
INCHIKEY=FQXXSQDCDRQNQE-UHFFFAOYSA-N
INCHI=1S/C19H21NO3/c1-20-9-8-19-12-5-7-15(22-3)18(19)23-17-14(21-2)6-4-11(16(17)19)10-13(12)20/h4-7,13,18H,8-10H2,1-3H3
MSLEVEL=2
SOURCE_INSTRUMENT=ESI-LC-ESI-QQ
FILENAME=Massbank_ESI_positive_8_1_2014_peaks.mgf
SEQ=*..*
IONMODE=Positive
ORGANISM=MASSBANK
NAME=Massbank:PB003642 Thebaine|Morphinan, 6,7,8,14-tetradehydro-4,5-epoxy-3,6-dimethoxy-17-methyl-, (5.alpha.)- [M+H]+
PI=Putative Massbank Match
DATACOLLECTOR=Massbank
PUBMED=N/A
SUBMITUSER=mwang87
TAGS=
SPECTRUMID=CCMSLIB00000222169
SCANS=10603
30.0 93.131 
31.0 17.228 
42.0 13.409 
43.0 40.369 
44.0 211.631 
45.0 11.183 
56.0 62.078 
57.0 17.986 
58.0 10000.0 
59.0 10.375 
126.0 10.922 
152.0 17.89 
153.0 17.695 
165.0 71.455 
166.0 15.401 
167.0 117.529 
168.0 17.288 
177.0 232.105 
178.0 105.323 
179.0 57.727 
180.0 57.072 
181.0 85.723 
182.0 19.62 
183.0 13.959 
184.0 12.856 
185.0 17.005 
189.0 107.087 
190.0 88.09 
191.0 128.405 
192.0 43.67 
193.0 262.015 
194.0 87.737 
195.0 717.101 
196.0 54.769 
197.0 105.519 
198.0 13.04 
199.0 21.146 
201.0 28.08 
202.0 41.566 
203.0 153.2 
204.0 11.588 
205.0 191.682 
206.0 218.019 
207.0 123.648 
208.0 45.505 
209.0 243.819 
210.0 142.917 
211.0 52.334 
212.0 124.824 
213.0 42.666 
216.0 13.917 
217.0 226.381 
218.0 1175.696 
219.0 153.858 
220.0 93.032 
221.0 1794.47 
222.0 154.941 
223.0 795.981 
224.0 235.463 
225.0 227.932 
226.0 42.261 
227.0 153.614 
228.0 32.441 
231.0 49.282 
232.0 82.19 
233.0 118.703 
234.0 718.627 
235.0 288.799 
236.0 219.871 
237.0 459.63 
238.0 127.212 
239.0 403.075 
240.0 192.41 
241.0 91.964 
246.0 17.409 
247.0 15.485 
248.0 147.899 
249.0 1224.603 
250.0 232.604 
251.0 4032.409 
252.0 137.252 
253.0 232.513 
254.0 348.004 
255.0 680.27 
256.0 58.53 
263.0 31.241 
264.0 54.598 
265.0 110.406 
266.0 1874.492 
267.0 97.23 
268.0 63.869 
269.0 82.234 
270.0 12.214 
279.0 16.363 
280.0 158.598 
281.0 950.025 
282.0 107.303 
283.0 19.597 
296.0 78.319 
297.0 203.486 
298.0 14.284 
312.0 1101.383 
313.0 133.361 
END IONS

