BEGIN IONS
PEPMASS=247.11
CHARGE=0+
COMPOUNDNAME=N-ACETYL-D-TRYPTOPHAN
LIBRARYQUALITY=1
SMILES=O=C([C@@H](Cc1c[nH]c2c1cccc2)NC(C)=O)O
INCHIKEY=DZTHIGRZJZPRDV-GFCCVEGCSA-N
INCHI=N/A
MSLEVEL=2
SOURCE_INSTRUMENT=LC-ESI-Q-Exactive Plus
FILENAME=IROA_PLATE_pos_1_H.mzXML
SEQ=*..*
IONMODE=Positive
ORGANISM=GNPS-EMBL-MCF
NAME=N-ACETYL-D-TRYPTOPHAN M+H
PI=Alexandrov Theodore
DATACOLLECTOR=Prasad
PUBMED=439917
SUBMITUSER=pphapale
TAGS=
SPECTRUMID=CCMSLIB00000577920
SCANS=1738
51.023693 1800.691895 
53.222683 2150.657227 
54.356407 1406.086304 
56.05032 2470.118652 
57.070694 16528.669922 
57.25602 1451.51123 
57.741894 1663.895264 
59.629032 1474.04541 
60.045162 3031.578369 
61.631786 1570.9823 
70.065697 2370.183594 
71.086243 11759.413086 
71.37706 1774.800293 
72.11924 11333.817383 
74.024231 3152.995361 
77.039009 1593.905151 
77.225395 1759.244873 
84.044685 2805.858643 
84.081184 2160.397217 
85.076447 11127.351562 
85.101685 7956.930176 
86.060455 3805.032227 
87.092125 24587.787109 
88.039719 54920.296875 
89.03904 1736.02063 
89.060066 2579.876465 
91.05452 1780.514404 
96.995461 13298.344727 
98.084175 2384.197266 
99.091919 19071.837891 
100.075897 15346.181641 
100.095306 1909.105347 
101.10762 1840.858521 
103.086807 1640.308594 
104.678833 1567.791992 
109.076256 1927.272095 
111.091888 14876.888672 
112.095528 1652.736938 
112.099586 3817.62793 
113.107498 19897.537109 
115.050598 2019.430664 
115.054443 10435.089844 
117.056992 1910.481689 
118.06514 27705.759766 
119.107201 1896.983398 
119.609131 2929.436035 
122.487328 1548.122803 
129.102188 7282.050781 
130.049652 21151.478516 
130.065018 714340.5 
130.133682 3776.855957 
131.068344 7920.764648 
131.117844 2078.043457 
132.080582 153032.65625 
133.104675 9333.469727 
140.117737 1634.116089 
141.617828 7094.241699 
142.064713 13868.084961 
142.134232 2756.061523 
143.072372 2629.291016 
143.08139 2850.263672 
143.117874 3480.196533 
144.044357 3040.75293 
144.080521 74284.765625 
146.059784 381606.40625 
147.063187 2415.964111 
155.11795 2265.896484 
156.080551 6827.831055 
156.149643 6500.078613 
157.026566 2375.521484 
158.059845 3296.82251 
158.083405 27844.03125 
159.006058 1466.202881 
159.091537 2289286.75 
160.037704 2940.740479 
160.075363 83233.5 
160.088486 2499.721191 
160.094269 22511.021484 
168.149155 1856.49292 
169.075684 45591.230469 
170.059708 240475.375 
171.063354 2250.769043 
171.137543 2385.217773 
173.045517 2038.325195 
173.176392 1770.322021 
174.091019 23183.207031 
178.048431 3902.604736 
182.164764 2086.751465 
183.091385 56588.066406 
184.075333 100514.1875 
186.053497 8814.178711 
187.086273 301870.59375 
188.070419 2885290.75 
188.155563 2190.538574 
189.073715 38343.066406 
200.14212 1937.58374 
201.01651 8325.513672 
201.101898 1282804.125 
202.087662 3632.995361 
202.105438 19803.46875 
203.031662 13206.828125 
204.0354 2068.268799 
205.027664 6856.415039 
205.096802 237435.6875 
211.086395 33762.695312 
212.139267 1709.039917 
217.095016 2456.299805 
228.181686 3963.546631 
228.217834 3512.058838 
229.096619 62859.554688 
229.20166 3216.814941 
230.080566 34776.636719 
238.110062 10241.709961 
245.09024 54494.449219 
246.247421 1629.15918 
247.085922 3011.731201 
247.106232 67319.921875 
247.126312 9711.163086 
247.16478 16020.924805 
247.212585 3006.961914 
247.223373 2609.700195 
248.116638 2059.286377 
END IONS

