BEGIN IONS
PEPMASS=198.085
CHARGE=1+
COMPOUNDNAME=Citrulline
LIBRARYQUALITY=3
SMILES=N/A
INCHIKEY=RHGKLRLOHDJJDR-BYPYZUCNSA-N
INCHI=InChI=1S/C6H13N3O3/c7-4(5(10)11)2-1-3-9-6(8)12/h4H,1-3,7H2,(H,10,11)(H3,8,9,12)/t4-/m0/s1
MSLEVEL=2
SOURCE_INSTRUMENT=N/A-ESI-QFT
FILENAME=library_mgf.mgf
SEQ=*..*
IONMODE=positive
ORGANISM=MONA
NAME=Citrulline [M+Na]+
PI=MoNA
DATACOLLECTOR=MoNA:VF-NPL-QEHF026472
PUBMED=N/A
SUBMITUSER=mwang87
TAGS=
SPECTRUMID=CCMSLIB00004717981
SCANS=26472
50.028011 0.040629 
50.112946 0.036584 
50.334118 0.040426 
50.440475 0.057067 
50.526001 0.041702 
51.172218 0.047411 
51.292099 0.037145 
51.451427 0.039451 
51.539688 0.034562 
51.936527 0.043856 
52.085903 0.050096 
53.021164 0.045591 
53.035385 0.054117 
53.186333 0.051247 
53.369339 0.055157 
53.428329 0.039507 
53.454262 0.049894 
53.716923 0.036526 
53.952892 0.042169 
55.018154 1.225544 
55.054569 12.568984 
55.469131 0.039827 
56.049774 0.599298 
56.057919 0.15287 
56.130653 0.042512 
56.381474 0.053632 
56.775623 0.04556 
56.965115 2.089701 
57.033733 0.04004 
57.070183 4.398483 
57.20784 0.061661 
57.439178 0.05433 
57.615868 0.048875 
57.623737 0.056759 
57.741718 0.050701 
57.882595 0.037752 
57.935112 10.802624 
58.065636 0.040376 
58.734333 0.029879 
58.827225 0.038569 
58.93293 2.942796 
59.476955 0.035851 
59.491947 0.062679 
59.5233 0.036078 
59.759735 0.050671 
59.885891 0.038149 
59.930534 52.633583 
60.104534 0.047091 
60.1856 0.040898 
60.930763 1.682718 
61.01091 21.810558 
61.703354 0.048852 
61.857403 0.038701 
61.889389 0.037247 
61.92807 7.020143 
62.010345 0.050862 
62.01424 0.367416 
62.229767 0.051595 
62.929276 0.041504 
63.006683 4.200211 
63.065117 0.043754 
63.566738 0.05305 
63.659008 0.044206 
64.093559 0.04871 
64.672081 0.046485 
65.219627 0.041616 
65.421036 0.036357 
65.42704 0.058745 
66.109123 0.041851 
66.748032 0.03647 
66.933456 0.051597 
67.05439 5.97661 
68.04554 0.046495 
68.057785 0.149545 
68.276367 0.054192 
68.654518 0.039011 
68.670349 0.048751 
69.00708 0.051693 
69.07003 8.768948 
69.967377 0.045539 
70.065247 2.123019 
70.073448 0.17516 
70.178604 0.041988 
71.0494 0.112186 
71.085602 0.598448 
71.531387 0.057183 
71.778008 0.061221 
72.044449 0.24866 
72.080894 0.225817 
72.207497 0.05315 
72.958351 0.612376 
73.779404 0.051184 
73.929665 0.051469 
73.956192 6.874779 
74.05687 0.045856 
74.937553 0.170525 
74.953796 6.550121 
74.959473 0.110466 
75.016991 0.044623 
75.301414 0.039196 
75.317856 0.043679 
75.925232 1.22238 
75.935448 1.861672 
75.945435 3.723923 
76.933044 1.975608 
76.951302 0.211635 
77.938347 0.150701 
77.940887 25.328796 
77.943314 0.161742 
78.140854 0.043241 
78.234352 0.050389 
78.447266 0.059477 
78.771622 0.060377 
78.941124 0.460312 
79.021278 4.452772 
79.054306 2.668613 
79.938393 2.744091 
80.05751 0.039239 
81.069962 8.663208 
82.065147 0.310089 
82.073235 0.407442 
83.049103 0.157551 
83.085617 5.234428 
84.044487 4.899916 
84.080879 0.866567 
84.088898 0.043639 
84.537956 0.053794 
85.050484 0.047173 
85.064842 0.061606 
85.077835 0.045595 
85.355087 0.042913 
86.003616 0.054948 
86.060097 0.781289 
86.116165 0.036271 
86.683975 0.042927 
86.864113 0.046585 
87.568985 0.060471 
88.300972 0.034329 
89.648308 0.050889 
89.940758 0.127399 
90.228127 0.064191 
90.50457 0.064157 
91.05423 0.741416 
91.912643 0.409773 
91.966743 0.365164 
92.418816 0.070325 
92.899773 0.047867 
92.96434 0.446904 
93.07 2.566308 
93.945992 0.290941 
93.955925 1.007782 
94.073334 0.115465 
94.132538 0.038683 
94.163429 0.055814 
94.943474 0.116098 
95.049469 0.06259 
95.085602 7.811386 
95.164803 0.047447 
95.541763 0.039078 
95.951424 11.354726 
96.080826 0.352991 
96.088852 0.27077 
96.161957 0.043848 
96.951859 0.076874 
97.064888 0.758005 
97.101295 1.680974 
97.158401 0.045977 
97.949013 1.106053 
98.060188 0.136049 
98.096565 0.164168 
99.170479 0.039719 
100.075806 0.597428 
100.988441 0.041137 
101.940765 0.053288 
103.521889 0.04356 
103.697517 0.046294 
104.910294 7.382043 
105.069885 0.371416 
105.928139 0.126147 
105.946877 0.053639 
105.998299 0.065571 
106.907799 0.07925 
106.925896 5.687516 
106.947533 0.042579 
107.085617 0.575326 
107.700493 0.033744 
107.951431 1.588821 
108.92244 0.057758 
109.101234 0.120983 
110.974945 0.061357 
111.080444 0.233769 
111.597427 0.047799 
112.563293 0.055309 
114.769005 0.061821 
114.82502 0.036158 
116.4123 0.037668 
118.111275 0.040279 
118.980492 0.040366 
119.085564 0.408083 
119.380661 0.042544 
119.615425 0.038951 
119.951447 1.291003 
120.223991 0.052693 
120.939987 0.039972 
120.96978 0.053096 
121.101135 0.158014 
121.167999 0.052242 
121.569435 0.05235 
121.913139 0.17058 
122.920784 1.608399 
122.93074 0.051806 
122.941238 0.249775 
123.333748 0.04817 
123.92865 0.050597 
123.938728 0.190685 
124.927124 0.038884 
124.936523 19.921412 
125.907913 0.100713 
125.93605 0.151961 
125.944283 0.677426 
126.851646 0.032027 
126.933716 1.803885 
127.506088 0.03292 
127.941994 0.055963 
128.107468 0.042463 
129.315369 0.068877 
132.185333 0.071583 
132.469635 0.039293 
132.859009 0.053925 
134.932068 0.116427 
134.958618 0.90084 
135.956696 3.623238 
136.580078 0.103667 
136.954315 13.64867 
136.959763 0.59674 
137.011902 0.038652 
137.724304 0.059817 
137.92807 1.195849 
137.944427 1.529252 
137.954514 0.186908 
137.962006 3.322369 
138.052475 0.063788 
138.935944 0.547584 
138.951813 2.204024 
139.312088 0.055324 
139.923584 29.567858 
140.924393 0.352221 
140.931366 9.090164 
141.526031 0.03601 
141.920822 3.976414 
141.930557 0.052812 
142.928619 0.336083 
142.947144 0.181259 
144.046432 0.06481 
146.592957 0.058054 
149.544052 0.050177 
150.066788 0.053576 
152.968979 1.397482 
153.063553 4.150703 
153.959274 3.88349 
153.966827 3.656132 
154.122894 0.047687 
154.908218 0.044377 
154.947052 8.715469 
154.957779 0.427889 
154.964584 16.227751 
155.954834 100.0 
156.945023 0.454084 
156.954758 3.234361 
156.962448 0.708992 
157.952209 14.440837 
158.94194 6.220289 
158.953339 0.092524 
160.938766 0.127462 
164.513916 0.033324 
165.141769 0.043808 
168.93721 1.815978 
169.951599 0.078501 
169.970337 0.3323 
170.932297 0.439448 
171.913116 0.64658 
172.957611 0.964617 
172.975403 0.542139 
173.556595 0.053125 
174.707153 0.051206 
175.239151 0.038356 
177.025131 0.054325 
177.135223 0.039951 
178.158768 0.121812 
178.906281 0.042113 
182.430756 0.053375 
183.723984 0.04105 
183.827591 0.049496 
184.200302 0.058154 
185.949066 0.111009 
186.947052 0.571629 
187.468658 0.048024 
187.944611 16.485298 
188.823853 0.056939 
188.943069 1.427794 
188.990082 0.041376 
189.941803 1.586565 
191.921295 0.079448 
192.389435 0.064355 
192.879486 0.058007 
196.169693 10.048942 
197.173141 2.398063 
197.364243 0.030952 
198.185379 6.580202 
198.450638 0.059784 
199.188644 0.741696 
200.357224 0.033746 
219.306717 0.619228 
219.311768 0.626939 
219.330185 0.096561 
219.336807 0.072821 
END IONS

