BEGIN IONS
TITLE=Scan Number: 1408
PEPMASS=489.17999
CHARGE=1+
COMPOUNDNAME=Biotin
LIBRARYQUALITY=3
SMILES=O=C1N[C@@H]2[C@@H](SC[C@@H]2N1)CCCCC(=O)O
INCHIKEY=YBJHBAHKTGYVGT-ZKWXMUAHSA-N
INCHI=InChI=1S/C10H16N2O3S/c13-8(14)4-2-1-3-7-9-6(5-16-7)11-10(15)12-9/h6-7,9H,1-5H2,(H,13,14)(H2,11,12,15)/t6-,7-,9-/m0/s1
MSLEVEL=2
SOURCE_INSTRUMENT=LC-ESI-Orbitrap
FILENAME=f.jjjvanderhooft/GlasgowPolyomics_Metabolite_Standards/pHILIC/POSmode/STD_MIX1_60stepped_1E5_Top5_2.mzXML;
SEQ=*..*
NOTES=
IONMODE=Positive
ORGANISM=GNPS-LIBRARY
NAME=Biotin 2M+H
SPECTRUMID=CCMSLIB00004680094
ACTIVATION=CID
INSTRUMENT=ion trap
SCANS=1408
53.038322 514.233093 
53.038506 1396.272217 
53.038689 3404.9104 
53.038872 4784.02002 
53.039055 3979.241943 
53.039238 2243.591797 
53.039421 525.608093 
53.293499 373.397186 
53.293682 684.122314 
53.293865 828.809814 
53.294052 713.566406 
53.294235 425.546295 
54.033611 205.634979 
54.033798 712.251709 
54.033989 1223.854614 
54.034176 1378.116821 
54.034363 1063.970215 
54.034554 540.747681 
55.029099 476.726135 
55.029293 764.835327 
55.029484 835.039062 
55.029678 638.32312 
55.029873 308.848267 
55.053791 543.504028 
55.053986 1370.257935 
55.054176 3829.5896 
55.054371 7299.771484 
55.054565 10778.035156 
55.05476 9953.655273 
55.054955 6008.416016 
55.055145 2329.672607 
55.05534 108.492264 
56.049168 399.605713 
56.049366 1053.369385 
56.049564 1830.503052 
56.049763 2248.899414 
56.049965 2009.945435 
56.050163 1283.028442 
56.050362 544.367249 
57.069843 468.172241 
57.070049 803.671875 
57.070251 900.84668 
57.070457 706.046753 
57.07066 370.793701 
58.994347 342.679962 
58.994564 854.420715 
58.994778 2476.097656 
58.994991 4393.206055 
58.995209 5894.312988 
58.995422 4730.898438 
58.995636 2692.930908 
58.995853 729.466187 
58.996067 466.038452 
60.403866 313.96048 
60.404087 665.807007 
60.404312 878.243713 
60.404533 826.299438 
60.404755 558.605103 
61.010181 358.137238 
61.010406 809.489868 
61.010635 1162.86145 
61.01086 1171.977173 
61.011086 828.364624 
61.011311 370.853577 
61.03912 361.899628 
61.039345 1097.678467 
61.039574 2131.07959 
61.039799 3919.919922 
61.040024 3278.311279 
61.040249 1587.191162 
61.040478 659.354431 
65.038048 419.199066 
65.0383 998.941284 
65.038544 1569.747314 
65.038795 1775.61084 
65.039047 1474.84375 
65.039291 882.68396 
65.039543 357.388733 
67.053299 455.135834 
67.053558 1387.065552 
67.053818 4426.706543 
67.054077 8081.426758 
67.054337 11205.31543 
67.054604 9420.786133 
67.054863 5529.765137 
67.055122 1897.458618 
67.055382 118.378922 
68.048759 364.213135 
68.049019 848.463196 
68.049286 1234.072021 
68.049553 1245.767944 
68.04982 869.366821 
68.050087 381.90564 
69.069038 409.777435 
69.069313 1070.153809 
69.069588 1923.916626 
69.069855 2509.845703 
69.070129 2423.283936 
69.070404 1712.572632 
69.070671 860.841797 
69.070946 352.858063 
70.02816 676.576538 
70.028435 1433.578003 
70.028717 1989.134766 
70.028992 1945.401367 
70.029274 1349.587524 
70.029549 633.348022 
70.49263 435.101776 
70.492912 771.795959 
70.493187 925.645508 
70.493469 798.518188 
70.493752 502.232239 
71.048561 325.463104 
71.048843 798.12207 
71.049126 1091.039062 
71.049416 974.067627 
71.049698 560.18158 
73.009872 663.780396 
73.010162 1376.741333 
73.01046 1988.71875 
73.010757 2105.844482 
73.011055 1650.399658 
73.011345 933.908447 
73.011642 374.029388 
73.1978 374.9664 
73.198097 709.72699 
73.198395 877.53363 
73.198692 772.604248 
73.19899 466.509674 
74.004814 339.3255 
74.005112 857.790955 
74.005417 1749.04541 
74.005722 2489.341797 
74.00602 2544.181641 
74.006325 1878.301514 
74.006622 962.558472 
74.006927 293.339722 
75.894691 329.327942 
75.895004 716.620056 
75.895317 952.203125 
75.89563 828.322754 
75.895943 422.257751 
76.020325 565.968689 
76.020645 1015.964966 
76.020958 3491.746094 
76.021271 6307.289062 
76.021584 8501.96582 
76.021896 6701.695801 
76.022217 3783.646484 
76.02253 998.070129 
76.762146 524.328247 
76.762466 713.3302 
76.762787 797.544189 
76.7631 773.19696 
76.76342 647.939392 
79.052536 360.044434 
79.052864 829.22699 
79.0532 3004.231689 
79.053535 9481.191406 
79.053864 16821.835938 
79.054199 22898.580078 
79.054535 18703.230469 
79.054871 10960.503906 
79.055199 3784.646729 
79.055534 607.493042 
79.596626 486.561127 
79.596962 755.117798 
79.597298 864.087585 
79.597633 721.294067 
79.597969 395.722687 
80.048134 346.09848 
80.04847 975.498352 
80.048813 2747.165771 
80.049149 4682.768555 
80.049492 5674.248535 
80.049835 4081.65918 
80.050171 2157.179932 
80.050514 395.471558 
80.217255 493.481018 
80.21759 816.922607 
80.217934 952.027771 
80.218277 818.628784 
80.218613 495.7276 
81.068649 293.774261 
81.069 1687.138672 
81.069344 4153.054199 
81.069687 6822.277344 
81.070038 7669.989746 
81.070381 5270.773438 
81.070724 2725.898682 
81.071075 617.797302 
82.02726 427.850769 
82.027611 839.541565 
82.027962 2933.62915 
82.02832 5326.950195 
82.028671 7340.637695 
82.029022 6104.026855 
82.029373 3555.029541 
82.029724 1183.879395 
82.030075 591.764038 
83.048203 607.041687 
83.048561 1211.114502 
83.04892 1621.46167 
83.049286 1528.077393 
83.049644 986.940369 
83.050003 385.248718 
85.009323 642.197815 
85.009697 2972.628418 
85.010071 6212.428711 
85.010437 9664.960938 
85.010811 9722.908203 
85.011185 6309.797852 
85.011551 3090.92041 
85.011925 785.442505 
85.038727 728.383423 
85.039101 1566.97522 
85.039467 2223.918213 
85.039841 2219.730469 
85.040215 1563.567017 
85.040588 737.602905 
86.004898 298.819946 
86.005272 852.239136 
86.005653 1294.008667 
86.006027 1293.722534 
86.006409 865.037964 
86.00679 344.153595 
87.025009 336.44751 
87.025391 889.459045 
87.02578 1555.088745 
87.026161 1892.828979 
87.02655 1635.452271 
87.026932 956.824463 
87.027321 318.782257 
87.897781 463.531677 
87.89817 865.022827 
87.89856 1028.168213 
87.898956 833.43219 
87.899345 429.435028 
90.431824 421.101746 
90.432228 805.222717 
90.43264 994.78009 
90.433044 852.234497 
90.433456 474.904358 
91.052872 383.824402 
91.053284 1091.032959 
91.053696 2802.358887 
91.054108 4338.07373 
91.05452 4175.618652 
91.054932 2558.450195 
91.055344 948.00824 
91.055756 299.28418 
94.063866 742.023193 
94.064301 1669.052734 
94.064735 3708.821045 
94.065163 4467.202148 
94.065598 3278.366455 
94.066032 1411.060059 
94.066467 549.911072 
94.472748 454.628235 
94.473183 811.496094 
94.473618 951.278992 
94.47406 782.413086 
94.474495 430.780579 
97.008423 266.197113 
97.008881 1157.716064 
97.009331 4812.146973 
97.009781 14445.289062 
97.010239 24686.347656 
97.010689 31696.396484 
97.011147 24256.757812 
97.011597 14026.970703 
97.012047 4399.60791 
97.012505 877.973816 
97.012955 81.856064 
97.037437 584.427612 
97.037888 2237.036621 
97.038338 8691.831055 
97.038795 25121.160156 
97.039246 42660.808594 
97.039703 53970.160156 
97.040154 40899.316406 
97.040611 23527.257812 
97.041061 7374.194824 
97.041512 1621.955688 
97.041969 389.975739 
97.063713 565.048889 
97.064163 959.039307 
97.064621 1106.473145 
97.065071 893.656372 
97.065529 471.730804 
97.238091 447.983704 
97.238548 819.590454 
97.239006 1085.570068 
97.239456 1038.433716 
97.239914 677.178284 
98.095436 698.060547 
98.095894 1116.546387 
98.096352 1235.566162 
98.096817 947.683289 
98.097275 448.183289 
99.024887 485.94577 
99.025352 1185.936279 
99.025818 1942.078369 
99.026291 2214.327393 
99.026756 1759.02478 
99.027222 904.825317 
99.027687 224.869934 
100.019775 597.110779 
100.020248 1235.648438 
100.020721 3173.041504 
100.021194 5257.575684 
100.021667 5775.668945 
100.022148 4046.872803 
100.022621 2221.165527 
100.023094 602.156799 
100.20694 406.827148 
100.20742 812.003845 
100.207893 1003.432495 
100.208366 843.393677 
100.208847 462.897217 
103.052963 771.131775 
103.053459 1654.761719 
103.053955 2393.059814 
103.054451 2455.09375 
103.054947 1790.01416 
103.055443 897.813843 
103.055939 351.914215 
104.235893 532.016052 
104.236397 978.609619 
104.2369 1250.903076 
104.237404 1158.15271 
104.237907 755.696899 
105.067589 422.61261 
105.0681 1963.509888 
105.068611 6818.952637 
105.069122 14010.477539 
105.069633 21635.283203 
105.070145 21879.332031 
105.070656 14263.070312 
105.071167 7043.641113 
105.071678 1966.360107 
105.072189 367.275513 
106.063919 534.644348 
106.064438 947.016357 
106.064957 1090.986084 
106.065475 867.530334 
106.065994 446.623474 
108.079346 632.205627 
108.07988 1642.639282 
108.080414 3597.184082 
108.08094 4434.916992 
108.081474 3141.890869 
108.082008 1299.1698 
108.082542 431.212616 
109.063347 593.801025 
109.063881 953.119568 
109.064423 1029.819946 
109.064964 759.927734 
109.065506 343.519928 
111.024292 560.793274 
111.024849 1908.570312 
111.025406 4615.64502 
111.025955 7536.256348 
111.026512 8382.524414 
111.027069 5608.584961 
111.027626 2740.309326 
111.028175 477.428375 
111.053642 648.180359 
111.054192 1136.076782 
111.054749 1449.827148 
111.055305 1380.195923 
111.055862 945.0672 
111.056412 414.850067 
112.019501 303.76825 
112.020065 986.980042 
112.02063 2862.164307 
112.021187 4610.824219 
112.021751 4958.380859 
112.022316 3276.762207 
112.022873 1599.07605 
112.023438 547.734924 
113.040184 454.61731 
113.040756 1076.179565 
113.041328 1761.415039 
113.041901 2110.896729 
113.042465 1869.942383 
113.043037 1196.352539 
113.04361 531.826538 
113.172539 557.263367 
113.173103 986.116943 
113.173676 1213.532959 
113.174248 1093.238037 
113.17482 715.665405 
115.05249 628.846313 
115.053078 1593.70874 
115.053658 3554.929199 
115.054245 4212.380371 
115.054832 2882.331543 
115.05542 1437.864502 
115.056 522.681458 
115.056587 954.325317 
115.057175 1879.807373 
115.057755 2314.170654 
115.058342 1858.832397 
115.058929 972.286255 
115.059517 338.740448 
119.987358 543.033875 
119.987984 858.465576 
119.988602 1009.097229 
119.989227 907.503418 
119.989853 601.017151 
120.079659 737.28894 
120.080284 1140.776855 
120.08091 1208.879517 
120.081535 867.509277 
120.082153 353.922607 
121.062881 698.665649 
121.063515 1664.026611 
121.064148 3778.958984 
121.064781 4769.786621 
121.065414 3585.888916 
121.06604 1977.573486 
121.066673 766.096558 
122.094696 347.658173 
122.095337 912.274841 
122.095978 1376.800293 
122.096619 1404.312744 
122.097252 983.596313 
122.097893 434.449219 
123.023148 616.295593 
123.023788 1841.381958 
123.024437 7369.799805 
123.025085 18675.433594 
123.025734 30888.318359 
123.026382 36043.796875 
123.027031 25686.8125 
123.027672 14047.768555 
123.02832 4433.018066 
123.028969 1290.376587 
123.029617 549.553955 
125.028259 804.165894 
125.028923 1268.84436 
125.029579 1360.841553 
125.030243 1004.281311 
125.030907 466.237305 
125.039528 316.49884 
125.040192 948.572021 
125.040855 2619.609863 
125.041519 4408.66748 
125.042183 4831.641113 
125.042847 3132.128418 
125.04351 1403.702393 
125.044167 543.236145 
131.679733 519.599854 
131.68045 912.362671 
131.681168 1061.075806 
131.681885 858.177002 
131.682602 460.70047 
132.079071 633.123169 
132.079803 1292.751343 
132.080521 1741.920654 
132.081238 1656.216553 
132.081955 1095.303101 
132.082672 457.84845 
133.062836 390.677094 
133.063568 972.623718 
133.064285 1538.095337 
133.065018 1716.178345 
133.06575 1387.954224 
133.066467 796.804443 
133.086136 583.862 
133.086853 1750.560547 
133.087585 3838.366455 
133.088318 5900.602051 
133.08905 5354.504883 
133.089767 3191.036377 
133.0905 1193.937988 
133.091232 465.443787 
137.998962 564.933838 
137.999725 1103.934082 
138.000504 1431.620605 
138.001266 1286.802246 
138.002029 756.964111 
138.035095 466.222046 
138.035873 1248.280029 
138.036636 2008.403687 
138.037399 2172.557129 
138.038177 1598.091187 
138.03894 748.944702 
139.054337 208.114197 
139.055115 1400.04187 
139.055893 5126.314453 
139.056671 9361.083008 
139.057449 12746.619141 
139.058228 10328.373047 
139.059006 6080.430176 
139.059784 2140.585449 
139.060562 653.366028 
143.025742 597.199585 
143.026566 1252.519897 
143.027374 1664.553223 
143.028183 1537.065063 
143.028992 994.838989 
143.0298 423.259827 
149.039902 613.5672 
149.040771 1504.04187 
149.041641 2269.721191 
149.042496 2348.324219 
149.043365 1672.391968 
149.04422 757.493042 
150.089508 426.397614 
150.090378 860.972351 
150.091248 1086.86499 
150.092133 923.448486 
150.093002 493.541199 
151.084167 534.889404 
151.085052 1273.391602 
151.085922 2033.62561 
151.086807 2298.492676 
151.087692 1845.328491 
151.088562 998.318481 
151.089447 293.730682 
166.064774 831.293335 
166.065796 3592.662598 
166.066803 9448.509766 
166.067825 15756.169922 
166.068832 18383.294922 
166.069855 12966.082031 
166.070862 6949.375977 
166.071884 1995.980835 
166.072891 483.419861 
167.049301 1405.712769 
167.050323 5657.692871 
167.051346 9998.379883 
167.052368 12832.615234 
167.053406 9627.03125 
167.054428 5372.655273 
167.05545 1712.269043 
167.056473 758.243469 
172.151047 703.330566 
172.152115 1131.747314 
172.153198 1227.457153 
172.154266 913.208069 
172.155334 418.552673 
173.276031 725.593506 
173.277115 1193.703491 
173.278198 1373.646606 
173.279282 1132.700317 
173.280365 641.156311 
180.045975 734.848999 
180.047119 1189.784912 
180.048264 1288.213623 
180.049423 953.649597 
180.050568 435.130432 
182.060974 491.845093 
182.062134 1072.988159 
182.063293 1426.311523 
182.064468 1297.077026 
182.065628 801.493225 
184.07431 285.681 
184.0755 1036.344849 
184.076691 2911.206543 
184.077866 5234.659668 
184.079056 7120.196289 
184.080231 5848.26123 
184.081421 3366.561768 
184.082611 1050.892944 
185.072037 644.245117 
185.073242 1102.869019 
185.074432 1255.776489 
185.075623 974.232727 
185.076813 469.780121 
192.043839 639.001892 
192.045105 1789.130493 
192.046371 3535.403076 
192.047623 5238.208984 
192.048889 4766.247559 
192.050156 2914.648438 
192.051422 1202.393188 
192.052673 431.940552 
199.085068 421.499847 
199.086395 2141.343506 
199.087723 5577.927734 
199.089066 9265.890625 
199.090393 10789.378906 
199.091721 7675.635742 
199.093063 4141.03125 
199.094391 1215.919434 
199.095718 187.664902 
209.069214 389.493225 
209.070648 1319.46521 
209.072083 3253.880859 
209.073517 5284.737793 
209.074951 6054.833496 
209.076385 4377.200684 
209.07782 2428.937256 
209.079254 761.610657 
212.304703 446.045258 
212.306168 896.919922 
212.307632 1088.518433 
212.309097 895.47821 
212.310562 487.248322 
224.150894 573.384094 
224.152496 886.628174 
224.154083 1016.978638 
224.15567 871.870728 
224.157272 524.552307 
227.075699 1939.637695 
227.077316 2155.821045 
227.078949 7305.07959 
227.080566 27804.597656 
227.082184 65066.371094 
227.083817 105426.1875 
227.085434 117269.398438 
227.087067 80899.140625 
227.088684 42962.628906 
227.090302 12876.396484 
227.091934 3593.235596 
227.093552 1985.054199 
227.095169 1536.083252 
227.096802 978.471008 
227.098419 236.771729 
245.085861 1390.282837 
245.087692 2706.754883 
245.089508 10594.249023 
245.091324 36218.765625 
245.09314 68546.789062 
245.094971 99433.257812 
245.096786 89486.765625 
245.098602 55399.582031 
245.100418 23965.03125 
245.102249 6738.274414 
245.104065 2206.983398 
245.105881 1603.838501 
245.107697 591.863098 
300.453888 628.320251 
300.45636 965.40387 
300.458832 1072.536377 
300.461304 903.882202 
300.463776 561.161377 
329.866058 414.862885 
329.868896 847.638855 
329.871765 1121.124146 
329.874603 995.241821 
329.877441 546.388428 
350.894135 377.295074 
350.897247 839.612 
350.90036 1112.513062 
350.903473 972.548157 
350.906586 509.57251 
357.164551 678.815796 
357.167755 1160.546143 
357.170929 1314.000488 
357.174133 1007.482544 
357.177338 473.091644 
423.572144 510.052917 
423.576294 1038.78894 
423.580414 1242.58606 
423.584564 956.865051 
423.588684 422.388519 
484.925293 514.267639 
484.930359 967.696472 
484.935425 1178.686646 
484.940491 974.719482 
484.945526 492.125031 
END IONS

