BEGIN IONS
PEPMASS=446.0
CHARGE=1+
COMPOUNDNAME=MoNA:2354873 Rickamicin
LIBRARYQUALITY=3
SMILES=N/A
INCHIKEY=URWAJWIAIPFPJE-YFMIWBNJSA-N
INCHI=InChI=1S/C19H37N5O7/c1-19(27)7-28-18(13(26)16(19)24-2)31-15-11(23)5-10(22)14(12(15)25)30-17-9(21)4-3-8(6-20)29-17/h3,9-18,24-27H,4-7,20-23H2,1-2H3/t9-,10+,11-,12+,13-,14-,15+,16-,17-,18-,19+/m1/s1
MSLEVEL=2
SOURCE_INSTRUMENT=LC-ESI-QQ-LC-ESI-QQ
FILENAME=output_mgf.mgf
SEQ=*..*
IONMODE=
ORGANISM=MONA
NAME=MoNA:2354873 Rickamicin [M-H]-
PI=MoNA
DATACOLLECTOR=MoNA
PUBMED=N/A
SUBMITUSER=mwang87
TAGS=
SPECTRUMID=CCMSLIB00000574209
SCANS=11460
71.9 7.777778 
84.1 10.0 
86.0 6.666667 
92.6 8.888889 
96.7 7.777778 
99.2 5.555556 
102.0 68.888889 
112.0 2.222222 
124.8 25.555556 
125.4 4.444444 
127.9 22.222222 
139.9 11.111111 
143.3 27.777778 
158.1 6.666667 
161.2 14.444444 
200.7 4.444444 
217.2 13.333333 
217.5 6.666667 
232.3 4.444444 
287.3 100.0 
446.4 18.888889 
END IONS

