BEGIN IONS
PEPMASS=405.264
CHARGE=1+
COMPOUNDNAME=MoNA:687075 MLS000069585-01! M+H
LIBRARYQUALITY=3
SMILES=N/A
INCHIKEY=PCZOHLXUXFIOCF-BXMDZJJMSA-N
INCHI=InChI=1S/C24H36O5/c1-5-15(3)24(27)29-21-11-14(2)10-17-7-6-16(4)20(23(17)21)9-8-19-12-18(25)13-22(26)28-19/h6-7,10,14-16,18-21,23,25H,5,8-9,11-13H2,1-4H3/t14-,15-,16-,18+,19+,20-,21-,23-/m0/s1
MSLEVEL=2
SOURCE_INSTRUMENT=LC-ESI-QFT-LC-ESI-QFT
FILENAME=output_mgf.mgf
SEQ=*..*
IONMODE=
ORGANISM=MONA
NAME=MoNA:687075 MLS000069585-01! M+H [M+H]+
PI=MoNA
DATACOLLECTOR=MoNA
PUBMED=N/A
SUBMITUSER=mwang87
TAGS=
SPECTRUMID=CCMSLIB00000565954
SCANS=3206
57.0699 0.83203 
65.0385 1.212638 
67.0542 8.248417 
68.9971 1.668933 
69.0335 0.677274 
69.0698 5.806407 
71.0127 3.318302 
71.0491 1.143212 
77.0384 1.138636 
79.0542 34.139246 
81.0698 33.10765 
83.0491 11.420489 
83.0854 0.675698 
85.0648 4.152827 
89.0233 1.148995 
91.0541 10.316127 
93.0698 16.332438 
95.0492 2.64609 
95.0855 7.773433 
97.0647 7.800952 
103.0541 1.107923 
105.0699 36.846002 
107.0855 22.036794 
109.0647 2.403842 
109.1012 1.517288 
115.0539 2.077986 
116.0617 0.394843 
117.0698 8.971198 
119.0855 20.926987 
121.0646 1.15874 
121.1011 8.080564 
123.0802 0.339746 
125.0596 1.395495 
128.0619 7.077742 
129.0698 9.749406 
130.0778 2.744857 
131.0855 46.878144 
133.065 1.004748 
133.1011 6.298098 
135.0805 1.152832 
135.1169 1.147641 
141.0698 5.714027 
142.0778 12.719881 
143.0856 100.0 
144.0934 7.969427 
145.1011 49.704021 
147.0806 1.204146 
147.1168 3.211894 
149.0961 1.281255 
151.0752 0.70044 
153.0697 1.501225 
154.0773 2.085806 
155.0855 23.304811 
156.0934 13.830796 
157.1012 38.903988 
158.109 19.549177 
159.1168 43.311686 
160.1245 1.183302 
161.0959 0.439054 
161.1325 0.39626 
163.0752 0.474922 
163.1115 1.210525 
165.0696 0.655539 
165.0911 0.328211 
166.0779 0.655795 
167.0857 2.391358 
168.0933 4.024591 
169.1011 40.509858 
170.109 1.808753 
171.1167 34.374767 
173.1324 62.164646 
177.091 0.341469 
178.0778 0.539867 
179.0854 1.556672 
181.1011 8.201982 
182.109 2.689126 
183.1169 30.243313 
184.1251 2.398553 
185.1325 4.437616 
187.1114 1.441103 
187.1482 0.478846 
191.1067 2.001258 
192.0935 2.938351 
193.1011 5.684429 
194.1093 1.501739 
195.1169 4.992449 
196.1248 3.43821 
197.1324 16.076629 
198.1404 0.637786 
199.1481 64.339874 
201.1637 7.029554 
205.1012 2.088099 
206.1089 0.531832 
207.117 7.236268 
208.1247 1.792098 
209.1326 0.716003 
210.1401 3.756815 
211.1117 2.482475 
211.148 4.788319 
215.1797 0.388731 
219.1167 1.927737 
220.1244 0.576621 
221.1321 2.001249 
223.1481 8.106855 
225.1636 33.400067 
229.1225 0.334731 
234.1406 2.537209 
239.1428 0.78696 
239.1796 2.312467 
243.1746 1.325582 
249.1638 2.355255 
END IONS

