BEGIN IONS
PEPMASS=405.207
CHARGE=1+
COMPOUNDNAME=MoNA:952022 Lincomycin
LIBRARYQUALITY=3
SMILES=N/A
INCHIKEY=OJMMVQQUTAEWLP-UHFFFAOYSA-N
INCHI=InChI=1S/C18H34N2O6S/c1-5-6-10-7-11(20(3)8-10)17(25)19-12(9(2)21)16-14(23)13(22)15(24)18(26-16)27-4/h9-16,18,21-24H,5-8H2,1-4H3,(H,19,25)
MSLEVEL=2
SOURCE_INSTRUMENT=LC-ESI-QFT-LC-ESI-QFT
FILENAME=output_mgf.mgf
SEQ=*..*
IONMODE=
ORGANISM=MONA
NAME=MoNA:952022 Lincomycin [M-H]-
PI=MoNA
DATACOLLECTOR=MoNA
PUBMED=N/A
SUBMITUSER=mwang87
TAGS=
SPECTRUMID=CCMSLIB00000569156
SCANS=6407
55.0188 0.455097 
57.0345 0.781144 
58.006 0.158399 
59.0138 11.180861 
67.0189 0.360632 
68.9982 1.442237 
69.0346 1.608602 
71.0139 74.393591 
72.9932 1.167607 
73.0296 1.140451 
75.0088 0.529724 
79.0189 0.244607 
80.0506 1.149508 
81.0345 9.792835 
83.0138 1.871732 
83.0502 17.461521 
85.0295 25.710181 
87.0087 4.080727 
89.0244 13.605266 
94.0298 0.16775 
95.0138 2.165571 
95.0502 0.370641 
96.0216 0.638876 
97.0294 10.024984 
99.0451 16.165899 
100.0403 0.172946 
101.0243 1.101849 
101.978 0.823087 
107.0139 0.26758 
107.0375 0.140223 
107.0502 0.701545 
108.0216 1.121486 
108.0454 0.198533 
109.017 1.183246 
109.0294 23.225422 
110.0248 0.455345 
111.0086 0.484138 
111.0451 8.463098 
113.0244 3.585474 
115.0401 17.554934 
117.0015 6.455085 
123.0452 0.744284 
124.0403 3.445245 
125.0243 3.976918 
126.056 0.367522 
127.04 81.019976 
129.0556 1.897774 
134.0247 0.174856 
137.0067 0.248554 
139.0401 0.230063 
143.0347 0.182165 
151.0274 0.642146 
151.04 2.491445 
153.0431 0.71694 
154.0334 0.151457 
169.1346 100.0 
170.1186 30.570569 
195.1501 0.669863 
197.1294 2.182115 
207.1501 0.883779 
209.1295 0.32214 
209.1659 4.245892 
211.1452 2.409413 
212.129 0.397757 
223.1452 7.053192 
223.1814 0.794284 
225.1245 1.684154 
225.1608 6.200174 
233.1658 2.7773 
235.1452 5.336861 
237.1608 12.08578 
239.1404 0.360896 
239.1765 2.34676 
241.1557 10.72244 
249.1608 1.933722 
251.1765 0.7309 
253.1557 24.241134 
259.145 14.361074 
260.1529 0.222423 
261.1606 1.798879 
263.176 1.04901 
264.1478 0.281859 
265.1556 4.70453 
267.1713 9.014153 
273.161 0.241341 
277.1556 29.236627 
279.1712 1.596727 
281.1871 0.82533 
292.125 1.968329 
295.1661 1.236828 
297.1817 4.353405 
307.1485 3.237211 
310.1358 1.373354 
321.1821 0.222182 
325.159 15.663844 
339.1922 0.285816 
343.1696 1.595645 
357.2027 0.330235 
361.1805 0.183772 
405.2064 30.232289 
END IONS

