BEGIN IONS
PEPMASS=155.034
CHARGE=1+
COMPOUNDNAME=Patulin
LIBRARYQUALITY=3
SMILES=N/A
INCHIKEY=ZRWPUFFVAOMMNM-UHFFFAOYSA-N
INCHI=InChI=1S/C7H6O4/c8-6-3-4-5(11-6)1-2-10-7(4)9/h1,3,7,9H,2H2
MSLEVEL=2
SOURCE_INSTRUMENT=N/A-ESI-QFT
FILENAME=library_mgf.mgf
SEQ=*..*
IONMODE=positive
ORGANISM=MONA
NAME=Patulin [M+H]+
PI=MoNA
DATACOLLECTOR=MoNA:VF-NPL-QEHF025929
PUBMED=N/A
SUBMITUSER=mwang87
TAGS=
SPECTRUMID=CCMSLIB00004716992
SCANS=25929
51.445835 0.008404 
51.476391 0.077282 
51.905357 0.005915 
52.479092 0.00596 
53.002468 0.442834 
53.038883 0.45857 
53.152172 0.006453 
55.018108 1.177884 
55.054501 0.457243 
55.136135 0.006219 
56.002224 0.047393 
56.025898 0.102629 
56.049713 0.259769 
56.475906 0.007004 
56.566818 0.013157 
56.965042 7.090068 
57.03381 0.015014 
57.070148 0.041545 
57.184513 0.006713 
57.365856 0.007832 
57.492077 0.009228 
57.606033 0.007227 
57.614922 0.007186 
57.651257 0.008753 
57.806541 0.006587 
57.935017 0.08214 
58.065346 0.324809 
58.303886 0.007382 
58.451321 0.006887 
58.573418 0.006593 
58.599396 0.008563 
58.932831 0.029809 
58.961117 0.042203 
58.987877 0.567153 
59.589649 0.0073 
59.930485 0.238061 
59.97757 0.061831 
60.188072 0.006444 
60.481483 0.400988 
60.957844 0.258544 
61.010841 3.197922 
61.479626 0.007903 
61.509846 0.005962 
61.954147 0.008852 
62.017002 0.009949 
62.018642 1.013012 
62.384956 0.007792 
62.742893 0.008917 
62.868149 0.007038 
62.9883 0.014212 
62.99007 1.620197 
63.079845 0.010215 
63.145336 0.009847 
63.160133 0.008691 
63.513203 0.009899 
63.987747 0.008165 
63.997864 8.616508 
64.985794 0.019995 
65.295898 0.006573 
65.843697 0.006473 
65.993652 0.136059 
66.010101 0.149077 
66.959358 0.007278 
67.017937 0.248287 
67.054329 0.658454 
67.990952 0.010502 
67.993019 2.48288 
68.049538 0.01739 
68.494766 0.066103 
68.982681 0.342525 
68.990952 0.28121 
68.997116 0.249349 
69.033562 1.197812 
69.069908 0.192905 
69.486557 2.107287 
69.720741 0.006228 
69.986176 0.007722 
69.989655 0.061551 
70.000336 0.009966 
70.03685 0.019037 
70.065186 0.03908 
70.484512 0.139139 
70.980392 0.06843 
71.012772 0.406734 
71.049187 0.801205 
71.483002 0.025937 
71.723198 0.009077 
73.04686 0.072423 
73.076042 0.336055 
73.861298 0.007321 
74.780518 0.011705 
74.975372 1.32323 
75.000801 0.058384 
75.043762 0.069847 
75.935364 0.015847 
76.49427 0.01837 
76.928017 0.129015 
76.998238 34.011654 
77.042671 0.007641 
77.497894 0.489052 
77.500031 1.701376 
77.987938 0.948149 
77.996201 4.546153 
78.000298 0.269662 
78.013443 0.123819 
78.156609 0.006292 
78.491837 6.453336 
78.968414 0.01131 
78.985985 0.024049 
78.994743 1.830588 
79.01693 0.049614 
79.021187 45.060272 
79.05423 0.183168 
79.489677 0.575124 
79.493965 0.030442 
79.992577 0.049007 
80.020454 0.034467 
80.024597 0.236186 
80.04937 0.021359 
80.057411 0.007221 
80.488304 0.259012 
80.993141 0.009511 
81.016983 0.526262 
81.033508 0.170956 
81.069908 0.186853 
82.05249 0.032672 
82.065155 0.063031 
82.467361 0.027685 
82.971283 0.07157 
83.012688 0.29317 
83.049294 0.010591 
83.060371 0.316488 
83.085556 0.052622 
83.969093 0.01188 
84.006096 1.608842 
84.020576 1.848359 
84.044647 0.007659 
84.080544 0.009687 
84.463913 0.008963 
84.507835 0.044565 
84.995712 0.015535 
85.004051 0.168047 
85.02401 0.017793 
85.028473 0.550038 
85.49971 0.337273 
85.785019 0.017171 
85.998711 0.372362 
86.003525 100.0 
86.060013 0.062392 
86.505417 4.67205 
86.99334 0.067214 
87.001434 13.314548 
87.005501 0.97701 
87.023521 0.007295 
87.497086 2.006939 
87.501564 0.174555 
87.503189 0.109798 
87.999992 5.681346 
88.003067 0.051905 
88.083984 0.008837 
88.226608 0.010807 
88.494934 0.133106 
88.501671 0.048433 
88.506317 0.243288 
88.997849 0.171788 
89.493477 0.040816 
89.979019 0.053344 
89.998558 0.145922 
90.162781 0.007813 
90.166069 0.007818 
90.433578 0.011681 
90.461754 0.007609 
90.482872 1.496507 
90.984726 0.098374 
91.014137 0.010542 
91.054268 0.130933 
91.057373 0.399168 
91.480705 0.479108 
91.976463 0.405446 
92.057045 0.030739 
92.479355 0.068768 
92.974335 0.053784 
92.985893 0.079861 
93.011383 5.471783 
93.044777 0.157912 
93.054237 0.260518 
93.069908 0.170735 
93.513176 0.267207 
93.945992 0.007972 
93.973175 0.011158 
94.009216 0.699049 
94.065132 0.020466 
94.073318 0.026831 
94.5047 0.01981 
95.00882 23.351183 
95.049156 0.070127 
95.060394 0.242408 
95.085419 0.178124 
95.510841 1.058468 
96.006737 3.212604 
96.010635 0.254883 
96.080925 0.006802 
96.502548 0.023826 
96.50724 0.014136 
97.005333 1.445285 
97.028442 0.432788 
97.064842 0.044499 
97.51152 0.623409 
97.994698 0.351774 
98.003197 0.037708 
98.013062 0.012439 
98.496567 0.007884 
98.509331 0.022652 
98.984268 0.716552 
98.992447 0.074269 
99.004128 0.010147 
99.00766 0.177826 
99.044128 0.435081 
99.488205 20.308311 
99.982208 0.122481 
99.990059 1.453468 
100.019066 0.075321 
100.478065 0.012988 
100.486176 6.611951 
100.489998 0.372076 
100.981827 0.677126 
100.987114 0.042735 
101.484634 1.746828 
101.979607 0.152028 
102.016647 1.104747 
102.482658 0.060225 
102.978233 0.01143 
102.982048 0.007983 
103.014702 0.043691 
104.013962 0.390816 
105.011871 0.020533 
106.496017 0.903671 
106.516602 0.011502 
106.999947 3.774976 
107.49398 0.246142 
107.501801 0.504118 
107.989632 1.059145 
107.997849 1.296955 
108.001793 0.044436 
108.080696 0.007373 
108.486656 0.039539 
108.493401 49.393906 
108.527428 0.008724 
108.987213 0.216573 
108.995049 4.434906 
109.024498 0.009123 
109.028427 0.159946 
109.076157 0.008199 
109.101112 0.008243 
109.491386 15.858982 
109.987038 0.434694 
109.992989 0.516685 
109.99762 0.012886 
110.047325 0.006859 
110.071251 1.090285 
110.096344 0.262989 
110.48983 3.949943 
110.984818 0.104523 
110.99176 0.037124 
110.99614 0.108234 
111.007591 0.090559 
111.044113 0.032175 
111.091873 0.013558 
111.487823 0.281136 
111.491692 0.013447 
111.993752 0.016979 
112.015419 1.058947 
112.488594 0.108152 
113.023224 0.02242 
113.902313 0.007226 
114.007912 0.108038 
114.997398 0.019757 
115.005836 0.012226 
115.501305 2.701477 
116.00528 6.243241 
116.499458 0.808783 
116.507133 0.879111 
116.966019 0.009718 
116.991096 0.006762 
116.995125 0.08181 
117.003067 2.035398 
117.007317 0.115121 
117.498711 6.648402 
117.993164 0.008158 
118.001183 0.826156 
118.496674 2.113164 
118.500916 0.130019 
118.809181 0.011853 
118.947449 0.008995 
118.99823 0.01785 
119.495087 0.558406 
119.907158 0.011831 
120.001465 0.313192 
120.493233 0.010965 
120.999496 0.023626 
121.960251 0.00653 
122.060051 0.163501 
123.007942 0.083255 
123.013 0.314864 
123.507332 0.014938 
124.01107 0.02806 
124.506683 0.325728 
125.010452 0.350275 
125.023422 0.137089 
125.22892 0.00646 
125.504585 0.047332 
125.758774 0.012038 
126.008339 0.026562 
126.229973 0.010831 
126.503914 0.010497 
127.038803 1.059664 
128.042542 0.017754 
128.07074 0.007281 
130.981796 0.007114 
133.243149 0.0084 
134.890823 0.010288 
134.978714 0.128709 
137.10733 0.176611 
137.91803 0.087342 
138.26535 0.007404 
138.748566 0.007275 
139.78714 0.008986 
140.010605 0.009671 
140.984497 0.02865 
141.018112 0.128067 
141.495544 0.009852 
143.033646 0.008896 
144.946503 0.006197 
150.353638 0.008073 
152.98941 0.176633 
153.959244 0.016999 
154.025299 0.006827 
154.122787 0.048371 
155.033829 0.189076 
155.11795 0.006588 
155.154266 0.017589 
155.928635 0.061644 
156.080734 0.078098 
156.101822 0.018236 
156.138565 0.018385 
157.88324 0.012004 
159.580963 0.006719 
162.13063 0.009928 
167.622757 0.006604 
169.020096 0.009993 
170.952209 0.017917 
171.028915 0.06545 
174.991379 0.010368 
176.085434 0.006837 
177.147903 0.007095 
END IONS

