BEGIN IONS
PEPMASS=281.175
CHARGE=1+
COMPOUNDNAME=Massbank:FIO00533 Brefeldin-A
LIBRARYQUALITY=3
SMILES=C[C@@H](C2)OC(=O)C=C[C@@H](O)[C@]([H])(C1)[C@]([H])(C=CCC2)C[C@H](O)1
INCHIKEY=KQNZDYYTLMIZCT-XPABHHOTSA-N
INCHI=1S/C16H24O4/c1-11-5-3-2-4-6-12-9-13(17)10-14(12)15(18)7-8-16(19)20-11/h4,6-8,11-15,17-18H,2-3,5,9-10H2,1H3/b6-4+,8-7+/t11-,12+,13-,14+,15+/m0/s1
MSLEVEL=2
SOURCE_INSTRUMENT=ESI-LC-ESI-QTOF
FILENAME=Massbank_ESI_positive_8_1_2014_peaks.mgf
SEQ=*..*
IONMODE=Positive
ORGANISM=MASSBANK
NAME=Massbank:FIO00533 Brefeldin-A [M+H]+
PI=Putative Massbank Match
DATACOLLECTOR=Massbank
PUBMED=N/A
SUBMITUSER=mwang87
TAGS=
SPECTRUMID=CCMSLIB00000214422
SCANS=6786
79.0524 196.0 
81.0684 362.0 
91.0544 678.0 
93.0698 712.0 
95.0858 1044.0 
99.0077 414.0 
101.0244 380.0 
103.0556 230.0 
105.0366 204.0 
105.0705 3108.0 
106.075 172.0 
107.0862 684.0 
109.1019 342.0 
111.0817 146.0 
113.0609 506.0 
115.0551 632.0 
116.0616 242.0 
117.0707 3254.0 
118.0747 386.0 
119.0865 1804.0 
120.0905 242.0 
121.1015 1196.0 
123.117 416.0 
128.0625 980.0 
129.0704 2468.0 
130.0757 346.0 
131.0862 2430.0 
132.0902 440.0 
133.0656 1128.0 
134.1062 132.0 
135.0812 346.0 
137.0615 132.0 
139.0395 254.0 
141.0712 348.0 
142.0781 540.0 
143.0861 1964.0 
144.0913 326.0 
145.1014 1114.0 
146.1049 172.0 
147.081 662.0 
149.0598 238.0 
151.0757 312.0 
152.0647 104.0 
153.07 114.0 
155.087 426.0 
156.0921 244.0 
157.1017 1346.0 
158.1053 370.0 
159.1175 586.0 
160.1242 174.0 
161.0602 286.0 
163.149 322.0 
167.0853 126.0 
169.1015 146.0 
170.1088 238.0 
171.0806 192.0 
171.1166 476.0 
172.0852 112.0 
175.0755 120.0 
176.078 132.0 
179.0895 100.0 
185.1319 326.0 
189.0902 120.0 
199.1485 246.0 
END IONS

