BEGIN IONS
PEPMASS=268.104
CHARGE=1+
COMPOUNDNAME=Adenosine
LIBRARYQUALITY=3
SMILES=N/A
INCHIKEY=OIRDTQYFTABQOQ-KQYNXXCUSA-N
INCHI=InChI=1S/C10H13N5O4/c11-8-5-9(13-2-12-8)15(3-14-5)10-7(18)6(17)4(1-16)19-10/h2-4,6-7,10,16-18H,1H2,(H2,11,12,13)/t4-,6-,7-,10-/m1/s1
MSLEVEL=2
SOURCE_INSTRUMENT=N/A-ESI-QTOF
FILENAME=library_mgf.mgf
SEQ=*..*
IONMODE=positive
ORGANISM=MONA
NAME=Adenosine [M+H]+
PI=MoNA
DATACOLLECTOR=MoNA:VF-NPL-QTOF002039
PUBMED=N/A
SUBMITUSER=mwang87
TAGS=
SPECTRUMID=CCMSLIB00004719821
SCANS=2036
55.017101 0.039591 
55.021099 0.036911 
57.034401 0.244845 
67.033401 0.035222 
71.012497 0.051189 
73.028297 0.068941 
73.0308 0.046404 
85.028999 0.130599 
85.032303 0.056337 
92.022102 0.074816 
92.027298 0.03641 
94.0392 0.098827 
94.044601 0.033092 
97.026497 0.077708 
103.038399 0.05412 
115.0392 0.235867 
119.036201 0.705653 
133.049698 0.186383 
136.062607 100.0 
136.162598 0.706683 
136.566406 0.036563 
136.577301 0.032721 
136.629303 0.040415 
136.659698 0.051094 
136.702103 0.042968 
136.726501 0.041296 
136.748505 0.0344 
136.775406 0.037667 
136.785995 0.034162 
136.812698 0.051554 
136.856293 0.044507 
136.909698 0.047236 
137.065903 0.052834 
137.078995 0.034964 
137.127197 0.046112 
137.1548 0.039787 
137.164993 0.030735 
137.244904 0.03329 
137.293396 0.034857 
137.3647 0.048602 
268.104797 25.221386 
268.245911 0.675764 
268.292206 0.153599 
268.305115 0.249929 
268.334595 0.031461 
268.355896 0.144335 
268.383911 0.07733 
268.399902 0.094827 
268.424988 0.085614 
268.449707 0.076403 
268.465302 0.062 
268.485992 0.030932 
268.507202 0.094957 
268.528198 0.058894 
268.556091 0.05215 
268.576996 0.051063 
268.59259 0.031817 
268.61261 0.082395 
268.651398 0.086569 
268.674896 0.043706 
268.708588 0.094509 
268.741699 0.037804 
268.770905 0.058918 
268.795105 0.048348 
268.829712 0.041136 
268.866913 0.037235 
268.886902 0.045038 
268.934814 0.030218 
268.954102 0.049587 
268.97171 0.053604 
269.026215 0.089522 
269.087585 0.038427 
269.111206 0.049507 
269.13269 0.031474 
269.185608 0.032014 
269.209991 0.033938 
269.280609 0.061911 
269.330994 0.031854 
269.397705 0.035527 
269.536011 0.036855 
269.761108 0.030089 
269.795288 0.036362 
270.178009 0.033043 
END IONS

