BEGIN IONS
PEPMASS=414.155
CHARGE=1+
COMPOUNDNAME=Massbank:CE000165 S,R-Noscapine
LIBRARYQUALITY=3
SMILES=CN1CCC2=CC3=C(C(=C2[C@@H]1[C@@H]4C5=C(C(=C(C=C5)OC)OC)C(=O)O4)OC)OCO3
INCHIKEY=AKNNEGZIBPJZJG-MSOLQXFVSA-N
INCHI=1S/C22H23NO7/c1-23-8-7-11-9-14-20(29-10-28-14)21(27-4)15(11)17(23)18-12-5-6-13(25-2)19(26-3)16(12)22(24)30-18/h5-6,9,17-18H,7-8,10H2,1-4H3/t17-,18+/m1/s1
MSLEVEL=2
SOURCE_INSTRUMENT=ESI-LC-ESI-ITFT
FILENAME=Massbank_ESI_positive_8_1_2014_peaks.mgf
SEQ=*..*
IONMODE=Positive
ORGANISM=MASSBANK
NAME=Massbank:CE000165 S,R-Noscapine [M+H]+
PI=Putative Massbank Match
DATACOLLECTOR=Massbank
PUBMED=N/A
SUBMITUSER=mwang87
TAGS=
SPECTRUMID=CCMSLIB00000205745
SCANS=1005
122.390572 1483.793335 
122.626381 1013.622986 
128.408371 1278.301758 
148.635559 1125.574097 
152.013367 1285.112915 
156.667648 1126.928589 
171.283707 1324.513916 
179.070023 14776.448242 
188.04425 1408.65918 
188.443008 1164.210571 
204.066864 1393.806763 
205.073639 102768.445312 
206.081543 6695.963379 
218.08165 1784.498169 
219.090485 1278.226807 
219.49884 1985.27063 
220.096786 1812702.875 
220.455673 5447.681152 
221.099609 4603.587891 
236.092621 2430.737549 
237.032944 1245.273438 
248.091873 11193.492188 
278.467285 1033.945068 
286.884186 2894.675049 
302.473602 1119.424805 
308.102081 1570.746704 
324.098816 16258.362305 
334.08548 2764.661377 
335.092865 5896.079102 
337.108673 1690.289551 
338.112305 1222.446411 
339.122437 3404.763916 
350.079468 9175.157227 
351.082703 1423.873535 
352.098724 12173.735352 
353.101898 105879.554688 
355.118011 5760.498047 
365.101807 102460.359375 
366.095825 2709.07666 
368.143463 1847.877441 
370.168213 1726.586182 
371.113647 3652.241455 
378.133575 12433.137695 
381.120544 26416.863281 
383.112274 10285.307617 
396.143646 84439.125 
END IONS

