BEGIN IONS
PEPMASS=485.0
CHARGE=1+
COMPOUNDNAME=Massbank:KO009014 Kanamycin
LIBRARYQUALITY=3
SMILES=NCC(O1)C(O)C(O)C(O)C1OC(C(N)3)C(O)C(C(N)C3)OC(O2)C(O)C(N)C(O)C(CO)2
INCHIKEY=SBUJHOSQTJFQJX-UHFFFAOYSA-N
INCHI=1S/C18H36N4O11/c19-2-6-10(25)12(27)13(28)18(30-6)33-16-5(21)1-4(20)15(14(16)29)32-17-11(26)8(22)9(24)7(3-23)31-17/h4-18,23-29H,1-3,19-22H2/t4-,5+,6-,7-,8+,9-,10-,11-,12+,13-,14-,15+,16-,17-,18-/m1/s1
MSLEVEL=2
SOURCE_INSTRUMENT=ESI-LC-ESI-IT
FILENAME=Massbank_ESI_positive_8_1_2014_peaks.mgf
SEQ=*..*
IONMODE=Positive
ORGANISM=MASSBANK
NAME=Massbank:KO009014 Kanamycin [M+H]+
PI=Putative Massbank Match
DATACOLLECTOR=Massbank
PUBMED=N/A
SUBMITUSER=mwang87
TAGS=
SPECTRUMID=CCMSLIB00000221225
SCANS=10141
89.2 10.29 
133.1 9.89 
134.1 583.92 
139.0 42.21 
139.9 24.26 
144.1 2454.94 
145.1 7442.57 
146.1 911.49 
150.0 179.28 
151.0 2102.85 
152.1 314.79 
154.1 10.14 
158.2 90.19 
161.1 90.78 
162.1 11619.54 
163.1 131856.01 
164.0 135.13 
165.1 17.12 
166.9 17.95 
168.0 60.84 
169.1 2504.4 
170.0 70.81 
171.1 6.91 
173.1 486.15 
174.1 23.35 
175.1 30.61 
176.0 26.63 
180.1 615.19 
181.1 104.93 
184.0 45.21 
185.0 119.99 
186.0 1024.52 
187.1 12879.45 
188.0 54.69 
190.1 80.37 
191.1 8.69 
192.1 28.37 
199.2 70.78 
200.1 86.7 
201.9 24.72 
203.1 127.38 
204.1 3360.48 
205.1 30205.86 
206.0 390.93 
209.0 33.29 
210.2 301.25 
211.1 68.58 
212.0 16.66 
213.0 17.26 
215.9 46.92 
217.2 125.99 
219.0 31.81 
221.2 56.01 
222.1 1485.39 
228.1 237.31 
229.1 202.83 
230.2 9.43 
233.0 15.8 
234.1 31.54 
240.1 127.92 
241.2 209.28 
242.2 47.26 
242.9 55.61 
244.1 13.43 
245.9 15.32 
251.1 409.84 
252.1 638.77 
253.2 563.85 
254.2 108.48 
258.1 55.35 
259.3 58.18 
262.1 293.41 
263.1 1369.51 
264.1 1148.36 
267.0 52.8 
269.2 341.02 
270.1 827.87 
271.1 3183.29 
273.1 12.34 
276.1 17.72 
277.3 74.55 
279.0 57.63 
281.1 175.28 
284.2 35.03 
285.0 21.12 
287.1 963.98 
288.0 223.26 
289.2 943.89 
294.1 360.33 
295.1 135.78 
304.4 97.12 
305.1 3514.2 
306.1 623.93 
307.2 568.97 
308.1 67.64 
312.2 855.05 
313.1 237.06 
314.2 26.86 
318.2 15.23 
321.0 17.4 
323.2 9821.1 
324.2 172344.2 
325.2 549.04 
327.2 139.77 
328.4 70.58 
330.2 1865.46 
331.5 54.15 
335.2 47.26 
336.3 36.0 
337.2 22.09 
347.4 307.65 
348.2 21168.55 
350.1 127.8 
352.0 29.66 
360.2 51.52 
365.3 1286.49 
366.2 20906.68 
367.2 76.78 
368.2 112.81 
369.8 7.03 
372.1 177.85 
378.1 110.74 
379.0 75.66 
389.9 65.78 
391.2 18.97 
396.0 203.77 
397.0 62.03 
401.1 148.4 
402.0 1164.39 
404.0 209.69 
405.1 77.29 
408.2 143.13 
409.2 283.01 
410.2 944.99 
412.7 327.45 
414.1 873.22 
424.2 23.43 
431.2 495.45 
432.1 8601.35 
436.0 32.38 
440.2 8.14 
441.0 99.79 
449.2 221.63 
450.1 10014.5 
451.0 40.2 
452.0 144.44 
453.1 47.95 
455.6 78.84 
457.1 44.06 
466.8 910.34 
468.0 4028.1 
468.9 112.29 
469.6 89.33 
476.6 36.17 
482.2 59.87 
484.1 21.95 
485.1 581.14 
508.2 21.89 
513.2 49.18 
END IONS

