BEGIN IONS
TITLE=Scan Number: 3440
PEPMASS=422.29001
CHARGE=0+
COMPOUNDNAME=Lovastatin
LIBRARYQUALITY=3
SMILES=O=C(O[C@@H]1[C@H]3C(=C/[C@H](C)C1)\C=C/[C@@H]([C@@H]3CC[C@H]2OC(=O)C[C@H](O)C2)C)[C@@H](C)CC
INCHIKEY=PCZOHLXUXFIOCF-BXMDZJJMSA-N
INCHI=
MSLEVEL=2
SOURCE_INSTRUMENT=LC-ESI-qTof
FILENAME=f.lfnothias/1904_statins_standards/Mevinolin_1uL.mzML;
SEQ=*..*
NOTES=
IONMODE=Positive
ORGANISM=GNPS-LIBRARY
NAME=Lovastatin M+NH4
SPECTRUMID=CCMSLIB00005435664
ACTIVATION=CID
INSTRUMENT=ion trap
SCANS=3440
71.013275 13945.554688 
71.04969 11894.835938 
79.05455 327414.34375 
81.033684 8828.52832 
81.07019 301105.21875 
83.049431 138063.5625 
83.08564 17241.720703 
85.065002 63275.777344 
87.440643 3870.074463 
88.936592 4276.835449 
89.023476 29498.03125 
90.715538 4032.743164 
91.05439 61451.789062 
93.070045 121662.65625 
95.049347 20533.876953 
95.085732 93565.8125 
97.064964 156574.890625 
99.080376 6940.0625 
101.059998 14666.81543 
103.054283 6686.387695 
105.070091 272072.5625 
107.049362 63942.929688 
107.085693 281865.5625 
109.065292 25863.376953 
109.10154 37878.652344 
111.043884 4852.25293 
111.080643 11218.986328 
115.054382 9715.547852 
116.06234 5996.791992 
117.070061 58652.558594 
119.085785 159422.1875 
121.101379 101389.390625 
121.107719 2890.553955 
123.080727 15197.310547 
123.116554 9758.064453 
125.059982 134552.109375 
127.075569 17772.908203 
128.061768 49756.277344 
129.069916 52239.390625 
130.077866 13156.888672 
131.0858 373262.3125 
133.06546 8089.15332 
133.091675 8386.373047 
133.10141 112020.640625 
135.080627 17027.830078 
135.117264 20201.8125 
137.096481 4740.706543 
139.076111 10547.866211 
141.069824 26423.976562 
142.077759 59197.839844 
143.070648 172493.859375 
143.085831 726155.375 
144.093719 35808.644531 
145.10141 511067.71875 
147.080643 14739.681641 
147.11702 52110.617188 
149.096344 17539.90625 
151.075256 25273.007812 
153.070312 5427.353516 
153.091141 4279.396973 
154.077835 9516.770508 
155.085709 183923.90625 
155.400604 4918.656738 
156.093765 58046.34375 
157.101547 418888.6875 
158.109283 99889.476562 
159.117172 597733.6875 
161.096848 11257.905273 
161.132629 27305.087891 
163.075607 10960.110352 
163.112122 31250.933594 
165.07016 4265.995117 
165.091614 22490.537109 
167.085907 19938.082031 
167.106552 6375.296875 
168.093857 22741.791016 
169.101486 503042.4375 
170.108978 12477.746094 
171.080612 10408.802734 
171.117126 471706.9375 
172.125259 6812.169434 
173.132843 1665782.125 
175.111755 9730.643555 
175.148666 4769.884766 
177.090866 19994.476562 
177.397903 4486.567871 
178.078201 6689.709473 
179.086105 13922.428711 
181.101456 86045.179688 
182.109558 15478.126953 
183.117142 327256.0 
184.124893 17150.998047 
185.096085 5525.291016 
185.132889 114104.460938 
186.140686 5347.901855 
187.111969 25232.636719 
189.091583 35781.230469 
189.127121 6217.90625 
189.163818 6521.87207 
191.106918 148160.75 
192.093048 11687.854492 
193.101486 63975.292969 
193.120361 7132.39209 
194.109512 6528.937012 
195.116898 61545.796875 
196.124771 23400.712891 
197.032883 5154.92041 
197.132812 257083.3125 
198.14093 13341.974609 
199.148499 2938873.25 
201.164047 566076.875 
203.107285 18006.138672 
205.101685 20602.863281 
205.122574 46886.652344 
206.109818 11450.044922 
207.098831 8320.09082 
207.117325 117377.617188 
208.124252 13500.035156 
209.116486 27648.388672 
209.133484 15664.976562 
210.140472 25005.568359 
211.113129 53661.75 
211.148514 127160.695312 
213.164474 18480.095703 
215.107193 12967.953125 
215.143402 4915.304199 
215.179977 71845.539062 
217.122345 5970.421387 
219.118439 22223.142578 
220.125107 15816.93457 
221.13353 37915.855469 
223.148865 356216.625 
224.155975 5039.202637 
225.164276 1747942.25 
226.168854 9232.890625 
227.141785 5299.400879 
229.123093 67738.3125 
234.1409 33633.929688 
239.145203 32109.945312 
239.179932 388195.0625 
241.1586 15022.850586 
241.196045 11961.899414 
243.174835 1053262.0 
249.16423 491848.5 
252.152679 5385.423828 
257.153992 17673.708984 
257.192017 8139.690918 
267.174866 580492.375 
285.185455 936554.1875 
303.196075 236438.28125 
405.26532 13729.462891 
447.349823 22780.052734 
END IONS

