BEGIN IONS
PEPMASS=343.082
CHARGE=1+
COMPOUNDNAME=USNIC ACID
LIBRARYQUALITY=3
SMILES=N/A
INCHIKEY=CUCUKLJLRRAKFN-UHFFFAOYSA-N
INCHI=InChI=1S/C18H16O7/c1-6-14(22)12(8(3)20)16-13(15(6)23)18(4)10(25-16)5-9(21)11(7(2)19)17(18)24/h5,11,22-23H,1-4H3
MSLEVEL=2
SOURCE_INSTRUMENT=N/A-ESI-QFT
FILENAME=library_mgf.mgf
SEQ=*..*
IONMODE=negative
ORGANISM=MONA
NAME=USNIC ACID [M-H]-
PI=MoNA
DATACOLLECTOR=MoNA:VF-NPL-QEHF003234
PUBMED=N/A
SUBMITUSER=mwang87
TAGS=
SPECTRUMID=CCMSLIB00004694297
SCANS=3234
50.19355 0.075567 
50.493126 0.070423 
51.841671 0.073084 
53.251789 0.099517 
53.887871 0.074274 
54.954788 0.072943 
55.229008 0.039163 
55.31369 0.082844 
55.936272 0.113022 
56.989223 0.053203 
56.991013 0.054509 
57.442303 0.074069 
58.231991 0.072366 
59.012486 0.053912 
59.733028 0.083534 
60.03236 0.077719 
60.380833 0.111538 
60.752766 0.105152 
61.252861 0.045092 
61.990601 0.086157 
62.287067 0.083635 
62.693317 0.075553 
62.968727 0.072024 
62.997437 0.058006 
63.213619 0.038472 
63.33868 0.131529 
64.133636 0.064982 
64.663475 0.089679 
65.597115 0.126284 
66.061554 0.037878 
66.481293 0.075458 
67.017639 0.154296 
67.908295 0.060602 
68.340019 0.084713 
70.170082 0.075551 
72.274727 0.089805 
73.420692 0.075234 
77.178802 0.087382 
81.850105 0.104294 
82.283173 0.071609 
82.9991 0.132728 
83.012512 100.0 
83.824814 0.069868 
84.015862 3.45143 
84.170799 0.078831 
84.293678 0.080265 
85.099716 0.055386 
89.896637 0.087326 
89.909348 0.149002 
92.051208 0.03825 
93.042831 0.095376 
93.626373 0.117544 
94.215813 0.123383 
95.048973 1.178391 
95.537888 0.111434 
95.5755 0.082149 
100.693428 0.081597 
103.364525 0.083517 
103.501579 0.094108 
106.989136 0.076176 
108.907341 0.058569 
113.680977 0.0732 
114.65609 0.061287 
116.663467 0.118099 
117.905571 0.081386 
118.513657 0.101335 
118.799133 0.082374 
122.594154 0.092512 
124.208183 0.061941 
127.411728 0.101494 
128.646606 0.109358 
131.049286 0.511087 
133.064819 0.199145 
133.837875 0.040828 
141.44281 0.099374 
143.049088 0.77739 
144.057251 0.085026 
145.064865 4.858226 
145.908127 0.094549 
147.044449 0.108309 
154.394852 0.098509 
157.065033 0.737682 
158.774506 0.089454 
159.044144 0.599009 
159.97966 0.084145 
161.059952 2.675394 
162.064133 0.085907 
163.273682 0.131658 
169.06485 0.210566 
169.391296 0.090068 
169.763748 0.038857 
171.044327 3.82768 
172.052048 0.105446 
173.059937 0.313918 
174.031525 0.049654 
177.009323 0.077289 
180.937622 0.070733 
182.807312 0.118253 
185.060043 1.021834 
185.668243 0.0424 
187.039322 2.875379 
187.075851 2.052215 
187.2267 0.124441 
188.047516 1.069927 
188.928787 0.092567 
189.055115 12.464779 
189.327927 0.062244 
190.058502 0.801934 
197.060135 0.088804 
199.039383 0.389081 
201.055115 0.122258 
203.070938 4.765472 
204.074081 0.190186 
204.462906 0.080638 
205.050247 0.2917 
205.274094 0.100601 
206.334839 0.097725 
207.264404 0.111692 
209.333984 0.086554 
213.055283 4.524937 
214.02684 0.947392 
215.034592 14.092102 
216.038055 1.009895 
217.050232 0.61437 
220.081619 0.917412 
221.992996 0.075686 
229.050446 19.049067 
230.053787 1.831461 
231.066071 30.390383 
231.890808 0.092382 
232.069489 3.744754 
239.034836 0.366361 
239.070801 0.089185 
241.050476 4.721788 
241.642288 0.076438 
243.029892 0.563416 
245.0457 0.811878 
246.573425 0.042983 
255.066116 2.243126 
256.038208 0.179162 
256.790222 0.072221 
257.045471 18.988565 
258.049103 2.443813 
259.061127 0.413444 
260.33255 0.100083 
261.914215 0.09729 
269.045654 9.843741 
269.059967 0.167831 
270.016541 0.167284 
270.049042 0.93684 
271.025696 0.106721 
272.522339 0.129328 
283.06131 0.098214 
285.040375 5.860761 
286.047638 1.995623 
291.841217 0.097003 
292.194244 0.083824 
299.05658 0.933448 
300.063629 0.287037 
305.221313 0.094536 
306.05011 0.065718 
313.035583 41.722549 
314.03891 6.833736 
326.795715 0.078338 
327.050201 0.537986 
328.058441 3.139358 
329.063232 0.101659 
343.056305 0.091687 
356.602905 0.099184 
362.629059 0.088389 
END IONS

