BEGIN IONS
PEPMASS=1318.75
CHARGE=1+
COMPOUNDNAME=POLYMYXIN B SULFATE
LIBRARYQUALITY=3
SMILES=N/A
INCHIKEY=HFMDLUQUEXNBOP-UHFFFAOYSA-N
INCHI=InChI=1S/C56H98N16O13.H2O4S/c1-7-32(4)13-11-12-16-44(75)63-36(17-23-57)51(80)72-46(34(6)74)56(85)68-39(20-26-60)48(77)67-41-22-28-62-55(84)45(33(5)73)71-52(81)40(21-27-61)65-47(76)37(18-24-58)66-53(82)42(29-31(2)3)69-54(83)43(30-35-14-9-8-10-15-35)70-49(78)38(19-25-59)64-50(41)79;1-5(2,3)4/h8-10,14-15,31-34,36-43,45-46,73-74H,7,11-13,16-30,57-61H2,1-6H3,(H,62,84)(H,63,75)(H,64,79)(H,65,76)(H,66,82)(H,67,77)(H,68,85)(H,69,83)(H,70,78)(H,71,81)(H,72,80);(H2,1,2,3,4)
MSLEVEL=2
SOURCE_INSTRUMENT=N/A-ESI-QFT
FILENAME=library_mgf.mgf
SEQ=*..*
IONMODE=positive
ORGANISM=MONA
NAME=POLYMYXIN B SULFATE [M+NH4]+
PI=MoNA
DATACOLLECTOR=MoNA:VF-NPL-QEHF027930
PUBMED=N/A
SUBMITUSER=mwang87
TAGS=
SPECTRUMID=CCMSLIB00004721511
SCANS=27930
91.054176 10.781335 
94.065094 4.329531 
95.04911 0.317698 
95.06028 7.535308 
96.044312 0.855395 
96.080482 0.315828 
97.076057 0.919571 
98.071228 5.191742 
98.096367 2.387698 
99.055237 1.68709 
100.075615 0.439032 
100.086899 13.918309 
101.070938 92.419655 
102.054916 4.034582 
102.074257 2.273962 
103.054222 11.860086 
105.069817 3.573116 
106.065186 0.214504 
108.044304 0.177811 
108.080513 0.203724 
108.495407 0.175789 
109.075966 6.425315 
109.10096 0.73002 
110.059944 5.396771 
110.071228 3.273498 
111.055199 16.329458 
111.091515 4.811916 
112.039207 0.472738 
112.075539 2.89288 
112.086815 8.38138 
112.11187 0.199648 
113.070824 9.473407 
115.086357 0.702688 
118.065231 1.079524 
118.534035 0.155011 
118.647072 0.153318 
119.060387 1.805891 
119.081467 24.816313 
119.872147 0.174296 
120.08075 100.0 
120.08564 1.835276 
121.076004 15.180611 
121.084053 7.951484 
121.288185 0.155423 
122.059921 0.484997 
122.071152 0.521518 
123.055199 16.743233 
123.091568 5.578392 
123.116692 4.465983 
124.058945 0.181618 
124.075485 0.225043 
124.086975 0.239643 
124.111908 0.188652 
124.362755 0.14846 
125.070847 2.98655 
126.066315 0.195038 
126.102119 0.1853 
127.050377 0.215672 
127.086472 10.092932 
128.07045 0.40861 
128.081665 5.878182 
129.065567 5.09534 
130.049911 0.1974 
130.065048 1.977983 
131.068619 0.175664 
132.080643 7.465478 
132.326355 0.162155 
132.512192 0.156447 
132.558685 0.157964 
133.075745 0.573634 
134.071381 0.249835 
135.054977 0.192625 
136.086792 3.038658 
137.070892 20.721764 
138.05513 0.17858 
138.065994 1.421483 
138.074387 0.227324 
138.102402 16.211708 
139.049973 1.008701 
139.086487 12.555726 
139.713577 0.167493 
140.070602 1.322364 
140.08168 9.344427 
140.118042 1.572696 
141.065689 4.033348 
141.102066 0.434094 
141.628677 0.150577 
144.03154 0.17749 
147.091476 1.312183 
148.086807 6.773237 
149.070847 17.194616 
150.073959 0.463948 
150.102417 2.2079 
151.086487 1.453991 
152.081741 1.055686 
153.065964 0.175167 
154.097366 1.802142 
155.081177 1.870287 
156.080704 0.413516 
156.112915 2.214531 
156.31572 0.162816 
157.02832 0.525186 
157.096985 3.461561 
157.108307 4.603783 
158.091599 2.097481 
158.15387 1.700489 
160.086731 0.167095 
161.070816 0.176217 
162.102234 0.36726 
164.081711 2.916451 
165.065689 0.937071 
165.11348 1.629359 
166.06842 0.184166 
166.097366 22.654917 
166.159012 0.230291 
167.081451 17.448477 
168.076553 2.162129 
168.112915 0.384958 
168.271179 0.190631 
169.13356 0.48741 
174.10257 1.288149 
175.086594 2.74816 
175.644547 0.160582 
176.081665 0.194875 
178.097397 2.052459 
178.986053 0.173988 
181.169479 0.181957 
182.092422 1.195878 
183.124054 23.989937 
184.107941 21.800365 
184.127441 0.857567 
185.092026 2.245735 
185.107239 4.319008 
186.091263 3.431275 
186.101654 0.159556 
187.085922 0.168937 
187.122864 0.634918 
191.129318 0.160502 
191.480515 0.193319 
192.076172 0.264691 
192.113022 1.049701 
193.108261 1.774766 
193.995468 0.188728 
194.092285 7.603568 
194.128403 0.230707 
195.123856 5.534952 
195.18541 2.281597 
196.107819 2.707211 
196.14473 0.565579 
196.169159 0.599522 
197.106674 0.213872 
197.128891 0.185557 
197.139511 0.167093 
197.300079 0.155208 
197.365738 0.17661 
201.102402 0.434434 
201.134598 5.075965 
201.20311 0.179338 
202.096725 0.184788 
202.118347 1.731726 
202.133804 7.09523 
203.117813 4.590823 
204.112915 0.41112 
204.150101 0.236857 
205.108307 1.295665 
206.092407 1.218461 
206.129013 0.220081 
208.592056 0.170334 
209.10318 1.934936 
211.118927 8.728159 
212.102859 2.863405 
213.102188 2.569336 
213.133987 0.439035 
214.155899 0.259851 
218.883224 0.16109 
219.123535 0.387223 
219.911102 1.7715 
219.931641 0.168495 
220.107986 0.766278 
222.123779 0.95456 
223.118195 1.179377 
223.180649 0.851629 
224.103516 0.42262 
224.139496 0.551702 
230.128723 15.942485 
231.112625 2.388261 
231.132477 0.518533 
233.164688 0.795997 
234.663284 0.165937 
237.134872 0.374554 
238.131729 0.203156 
239.150101 7.150996 
240.08992 0.175535 
240.145615 4.117867 
240.579117 0.180893 
241.130142 0.773622 
241.189987 0.487388 
242.021301 0.184108 
242.253769 0.15823 
243.149094 0.171492 
244.341095 0.194088 
248.13913 5.667403 
249.134918 0.76154 
251.18866 0.176813 
251.199615 0.178288 
252.206589 0.217751 
255.113098 0.179742 
258.123566 1.250141 
266.160858 1.563563 
267.144928 1.301436 
267.162292 0.188097 
268.144165 0.425268 
269.164948 0.22492 
271.144104 0.169205 
280.200287 0.192021 
283.157867 0.176873 
284.138306 0.506982 
284.171387 2.326957 
285.171051 3.311587 
287.431976 0.173037 
294.157013 0.163089 
295.154602 0.214374 
296.138458 0.177376 
296.207794 0.169922 
296.234009 0.412593 
297.190826 0.190113 
297.217163 1.019702 
301.341583 0.18199 
308.407043 0.169604 
313.167633 0.174307 
314.147461 0.201778 
324.22467 0.174758 
326.186157 0.172567 
330.728851 0.172743 
337.305878 0.193113 
340.574524 0.201799 
347.253113 0.178449 
357.457458 0.162202 
358.790131 0.199798 
368.046997 0.174048 
378.241302 0.192943 
396.648285 0.21084 
398.756653 0.172349 
421.581848 0.161671 
422.644592 0.211296 
425.36264 0.183237 
431.428833 0.171673 
448.979858 0.204836 
453.113129 0.159055 
456.587921 0.164037 
461.768219 0.179811 
467.549744 0.174828 
496.912842 0.186234 
501.318848 0.174378 
509.634125 0.166349 
521.607117 0.178551 
523.868347 0.168241 
576.27478 0.171107 
594.143738 0.170748 
611.878845 0.155171 
613.703979 0.172733 
664.034851 0.173757 
707.258057 0.191533 
765.743713 0.232828 
768.618408 0.171734 
770.938599 0.244658 
771.129089 0.174312 
780.458801 0.192674 
788.429626 0.179564 
816.72229 0.167018 
817.089539 0.176135 
946.077026 0.184596 
961.750854 0.174777 
1034.099121 0.173086 
1047.695435 0.219509 
1082.096191 0.185082 
1111.977783 0.184994 
1147.314331 0.190461 
1180.640991 0.198072 
1224.05603 0.183459 
1230.644653 0.197189 
1284.679688 0.203499 
1322.469116 0.183514 
END IONS

