BEGIN IONS
PEPMASS=321.0
CHARGE=1+
COMPOUNDNAME=MoNA:2246810 2,2-Dichloro-N-[(1s,2s)-1,3-Dihydroxy-1-(4-Nitrophenyl)propan-2-Yl]acetamide
LIBRARYQUALITY=3
SMILES=N/A
INCHIKEY=WIIZWVCIJKGZOK-IUCAKERBSA-N
INCHI=InChI=1S/C11H12Cl2N2O5/c12-10(13)11(18)14-8(5-16)9(17)6-1-3-7(4-2-6)15(19)20/h1-4,8-10,16-17H,5H2,(H,14,18)/t8-,9-/m0/s1
MSLEVEL=2
SOURCE_INSTRUMENT=LC-ESI-QQ-LC-ESI-QQ
FILENAME=output_mgf.mgf
SEQ=*..*
IONMODE=
ORGANISM=MONA
NAME=MoNA:2246810 2,2-Dichloro-N-[(1s,2s)-1,3-Dihydroxy-1-(4-Nitrophenyl)propan-2-Yl]acetamide [M-H]-
PI=MoNA
DATACOLLECTOR=MoNA
PUBMED=N/A
SUBMITUSER=mwang87
TAGS=
SPECTRUMID=CCMSLIB00000565239
SCANS=2491
59.3 0.164489 
76.9 0.42036 
90.9 0.694508 
95.1 0.703646 
99.2 0.082244 
104.5 0.073106 
109.0 2.266289 
113.2 0.319839 
115.0 0.201042 
118.8 0.045691 
123.1 0.47519 
126.1 0.100521 
127.2 1.480398 
131.0 0.091383 
133.6 0.045691 
137.1 0.338116 
141.0 2.439916 
144.9 0.520881 
147.3 4.066527 
149.0 0.027415 
152.0 0.89555 
155.0 0.36553 
157.0 0.182765 
159.1 0.557434 
162.7 0.201042 
164.0 0.045691 
165.0 0.118797 
168.8 0.045691 
173.3 0.063968 
176.3 0.146212 
177.1 0.228457 
181.2 0.091383 
183.0 0.05483 
194.6 1.31591 
195.2 0.127936 
198.9 0.118797 
200.7 0.082244 
203.1 0.091383 
204.2 0.063968 
204.9 0.201042 
206.9 0.045691 
212.8 0.091383 
216.8 0.073106 
223.3 0.904688 
225.0 0.100521 
229.3 2.924244 
231.0 0.164489 
235.1 0.063968 
237.1 0.26501 
239.4 0.292424 
245.1 1.187974 
249.3 0.657955 
257.0 3.8929 
259.1 0.091383 
261.3 4.559993 
261.5 1.452984 
263.1 3.828932 
271.2 0.05483 
275.2 3.180115 
277.3 3.499954 
283.2 0.063968 
285.3 1.187974 
289.1 0.667093 
303.8 0.036553 
321.2 100.0 
END IONS

