BEGIN IONS
PEPMASS=308.5
CHARGE=1+
COMPOUNDNAME=Massbank:KO003901 Paromomycin|Zygomycin A1|Catenulin|Monomycin A|Hydroxymycin|Aminosidin
LIBRARYQUALITY=3
SMILES=OCC(O1)C(O)C(O)C(N)C1OC(C(N)4)C(C(O)C(N)C4)OC(O3)C(O)C(C(CO)3)OC([H])(O2)C(N)C(O)C(O)C(CN)2
INCHIKEY=UOZODPSAJZTQNH-UHFFFAOYSA-N
INCHI=1S/C23H45N5O14/c24-2-7-13(32)15(34)10(27)21(37-7)41-19-9(4-30)39-23(17(19)36)42-20-12(31)5(25)1-6(26)18(20)40-22-11(28)16(35)14(33)8(3-29)38-22/h5-23,29-36H,1-4,24-28H2/t5-,6+,7+,8-,9-,10-,11-,12+,13-,14-,15-,16-,17-,18-,19-,20-,21-,22-,23-/m1/s1
MSLEVEL=2
SOURCE_INSTRUMENT=ESI-LC-ESI-QQ
FILENAME=Massbank_ESI_positive_8_1_2014_peaks.mgf
SEQ=*..*
IONMODE=Positive
ORGANISM=MASSBANK
NAME=Massbank:KO003901 Paromomycin|Zygomycin A1|Catenulin|Monomycin A|Hydroxymycin|Aminosidin [M+2H]++
PI=Putative Massbank Match
DATACOLLECTOR=Massbank
PUBMED=N/A
SUBMITUSER=mwang87
TAGS=
SPECTRUMID=CCMSLIB00000220318
SCANS=9693
42.9 34653.5 
44.2 123762.5 
45.0 34653.5 
55.1 138614.0 
56.2 222772.5 
58.3 64356.5 
60.2 693070.0 
61.1 54455.5 
68.0 757426.5 
69.0 569307.5 
70.0 311881.5 
72.1 1262377.5 
72.9 123762.5 
80.1 975248.5 
80.9 257426.0 
82.3 202970.5 
83.0 79208.0 
84.0 1376239.0 
85.3 658416.5 
86.3 188119.0 
87.0 34653.5 
92.1 39604.0 
92.4 14851.5 
94.4 24752.5 
95.4 49505.0 
96.2 415842.0 
97.2 663367.0 
98.2 504951.0 
99.0 59406.0 
99.4 39604.0 
102.0 396040.0 
106.7 39604.0 
108.3 425743.0 
109.1 113861.5 
110.2 178218.0 
113.0 69307.0 
114.4 262376.5 
119.3 14851.5 
123.0 19802.0 
125.2 252475.5 
126.2 138614.0 
128.2 54455.5 
132.0 44554.5 
132.7 19802.0 
143.4 24752.5 
144.2 128713.0 
145.1 138614.0 
146.4 64356.5 
151.8 19802.0 
161.1 34653.5 
163.1 212871.5 
END IONS

