BEGIN IONS
PEPMASS=425.379
CHARGE=1+
COMPOUNDNAME=(1R,3aR,5aR,5bR,9S,11aR)-3a,5a,5b,8,8,11a-hexamethyl-1-prop-1-en-2-yl-1,2,3,4,5,6,7,7a,9,10,11,11b,12,13,13a,13b-hexadecahydrocyclopenta[a]chrysen-9-ol
LIBRARYQUALITY=3
SMILES=N/A
INCHIKEY=MQYXUWHLBZFQQO-KIIHVYTKSA-N
INCHI=InChI=1S/C30H50O/c1-19(2)20-11-14-27(5)17-18-29(7)21(25(20)27)9-10-23-28(6)15-13-24(31)26(3,4)22(28)12-16-30(23,29)8/h20-25,31H,1,9-18H2,2-8H3/t20-,21?,22?,23?,24-,25?,27+,28-,29+,30+/m0/s1
MSLEVEL=2
SOURCE_INSTRUMENT=N/A-ESI-QFT
FILENAME=library_mgf.mgf
SEQ=*..*
IONMODE=negative
ORGANISM=MONA
NAME=(1R,3aR,5aR,5bR,9S,11aR)-3a,5a,5b,8,8,11a-hexamethyl-1-prop-1-en-2-yl-1,2,3,4,5,6,7,7a,9,10,11,11b,12,13,13a,13b-hexadecahydrocyclopenta[a]chrysen-9-ol [M-H]-
PI=MoNA
DATACOLLECTOR=MoNA:VF-NPL-QEHF009277
PUBMED=N/A
SUBMITUSER=mwang87
TAGS=
SPECTRUMID=CCMSLIB00004700340
SCANS=9277
50.091503 0.016239 
50.205097 0.01276 
50.450325 0.01242 
50.493851 0.013659 
51.513813 0.012752 
51.550697 0.016775 
52.044125 0.012485 
53.027985 0.010307 
53.030697 0.015411 
53.6548 0.013976 
54.99147 0.018788 
55.219296 0.01947 
57.098328 0.011387 
57.487125 0.015665 
57.620079 0.015247 
58.207493 0.016255 
58.87635 0.011172 
58.994831 0.052168 
59.012489 1.535365 
59.5718 0.014059 
59.990772 0.016595 
60.355549 0.011005 
60.974022 0.635344 
61.775948 0.017742 
61.987057 0.160756 
62.264385 0.016585 
63.943428 0.113338 
63.961079 2.630192 
64.196991 0.01121 
64.330612 0.01463 
64.951172 1.859399 
66.310913 0.015361 
66.946983 0.055725 
67.188019 0.018005 
67.916969 0.016334 
68.003548 0.015188 
68.391655 0.016736 
68.782448 0.016384 
68.907173 0.011498 
69.033195 0.021829 
69.120171 0.017396 
69.413307 0.013622 
70.178352 0.015687 
70.860085 0.012509 
71.012482 0.033081 
72.278503 0.013057 
73.678268 0.015209 
74.715714 0.015153 
75.007408 0.039204 
75.031975 0.013716 
76.063522 0.01155 
76.171188 0.017745 
76.951202 1.94055 
77.52771 0.014356 
78.807808 0.012034 
78.947174 0.019817 
78.96685 1.245255 
78.984596 3.87503 
78.988731 0.017545 
79.506844 0.015324 
79.938477 0.04174 
79.942589 0.015019 
79.952087 0.018744 
79.956017 16.171059 
79.988098 0.024128 
80.950394 0.094117 
80.963852 35.001698 
80.977821 0.034665 
80.980476 0.039283 
80.98304 0.014554 
81.033188 0.047011 
81.951866 0.556915 
81.963234 0.205137 
82.031769 0.017119 
82.959679 1.682092 
82.968086 0.113618 
83.048935 0.781685 
83.653397 0.016226 
83.837769 0.015565 
84.511101 0.016587 
87.007507 0.270266 
88.392586 0.015987 
89.023277 0.016268 
90.04026 0.016494 
90.966858 0.195386 
90.984665 0.139592 
92.41581 0.012916 
92.946167 0.701916 
92.982605 0.13528 
93.000313 0.346333 
93.971725 0.209245 
94.979576 10.290643 
95.915482 2.141282 
95.950958 0.164699 
95.982918 0.050908 
96.923302 0.713936 
96.941132 0.234319 
96.958824 13.465088 
96.975296 0.388703 
97.640144 0.016184 
97.798737 0.011219 
97.911301 0.129496 
97.958412 0.015492 
97.986473 0.016435 
98.954704 0.614787 
98.962975 0.019588 
99.007553 0.034623 
99.924568 0.742996 
102.945831 1.023231 
105.985573 0.016789 
106.979568 0.01679 
108.426819 0.016331 
108.736542 0.015503 
108.923386 1.443643 
108.995338 0.071522 
109.82859 0.019923 
110.91938 0.047524 
110.939079 1.557893 
110.956871 2.973913 
110.974556 13.162368 
111.080444 0.043096 
111.428963 0.016405 
111.928185 0.87566 
111.977898 0.019695 
112.665146 0.012967 
112.936081 10.553877 
112.952644 0.209552 
112.970367 0.468478 
112.978767 0.01755 
113.02343 0.027194 
113.642593 0.01753 
113.935196 0.017633 
114.931931 0.845529 
115.00248 0.032548 
115.919548 0.526213 
116.486839 0.015051 
116.927338 0.273678 
117.269394 0.01317 
117.685608 0.016928 
118.923088 0.289455 
118.94088 3.34401 
118.962219 0.01402 
120.943581 0.01374 
120.956589 0.062287 
121.11187 0.020426 
122.956528 0.067451 
122.974442 0.088659 
123.352676 0.014727 
124.936096 0.548128 
124.948021 0.308863 
124.954712 0.141512 
124.972557 1.275045 
124.990273 0.243364 
125.943764 0.020493 
126.306358 0.014164 
126.925316 0.334373 
126.943604 0.117809 
126.951782 100.0 
126.979439 0.095886 
127.86937 0.039137 
127.950943 0.781284 
127.955544 0.506204 
128.034134 0.419163 
128.89534 0.01824 
128.94754 5.274892 
128.955948 0.292377 
130.959396 0.038303 
132.904587 0.830741 
132.956696 0.175462 
132.97731 0.03999 
134.90033 0.092625 
134.918121 3.034228 
134.972321 0.652739 
136.890686 0.020974 
136.913971 0.059479 
136.939407 0.012693 
137.460602 0.01693 
138.951828 1.174457 
138.969772 0.054944 
140.931442 0.01956 
140.947647 0.199336 
140.967453 8.83092 
140.985062 0.177834 
141.867172 0.023111 
141.896805 0.035978 
141.971375 0.032981 
142.911133 0.696091 
142.928848 0.016779 
142.938522 0.108934 
142.943436 0.017918 
142.963242 0.658821 
143.894241 0.160115 
143.900406 5.052362 
144.317535 0.01557 
144.893387 0.038612 
144.901413 0.020526 
144.908218 1.571825 
145.89624 0.564719 
146.168777 0.01887 
146.890152 0.0198 
146.904068 0.073994 
146.919998 0.013968 
147.927948 0.172694 
148.933838 1.186987 
150.892075 0.107779 
150.967194 0.181191 
152.893967 0.336569 
152.916199 0.013781 
152.967453 0.02035 
153.295883 0.013804 
154.557022 0.012554 
154.928787 0.039089 
154.946777 0.108516 
154.98317 0.221778 
156.90834 7.347674 
156.919617 0.031956 
156.926407 0.014285 
156.944839 1.313358 
156.962479 3.26104 
157.862106 0.019136 
157.916245 0.117289 
158.845749 0.530606 
158.903992 0.399476 
158.924026 11.175431 
158.9328 0.188178 
158.939804 0.080977 
158.95813 0.169565 
159.8414 0.021469 
159.859024 0.061613 
160.841095 4.724411 
160.92009 0.025777 
161.001328 0.020556 
161.484482 0.018147 
161.841034 0.012394 
162.838165 3.745198 
162.949661 0.047901 
163.003021 0.014788 
163.886795 0.265051 
164.835129 0.426621 
164.928757 0.206578 
166.890427 0.717851 
166.907974 0.316446 
166.94455 2.258084 
167.034134 0.051906 
168.887772 0.014849 
169.896866 0.064858 
170.889603 0.120352 
170.924026 0.228716 
170.978256 0.224212 
171.260025 0.01629 
171.887436 0.117768 
171.982407 0.01845 
172.867889 0.745156 
172.884918 0.089939 
172.939789 17.114958 
172.957397 3.100337 
173.911255 0.070073 
173.940491 0.018099 
174.430542 0.013368 
174.864731 0.358646 
174.910645 0.588384 
174.935516 0.848898 
175.785309 0.012571 
175.872849 2.264847 
175.90918 0.016728 
177.381241 0.019204 
177.8685 0.135528 
178.733139 0.012703 
178.926483 0.02418 
178.944565 0.412751 
178.963425 0.018729 
179.881775 0.09953 
180.906219 2.401433 
180.92334 0.021623 
180.960419 0.631042 
182.885513 1.544028 
182.903137 3.218497 
183.911835 0.01684 
184.875748 0.016897 
184.918915 7.621151 
184.939819 0.031086 
185.892456 0.014919 
186.866928 0.03627 
186.914413 0.482257 
186.955429 0.422181 
186.973587 0.02185 
187.864883 0.021574 
188.86261 0.030783 
188.88063 0.295227 
188.891846 0.037768 
188.909943 0.016084 
188.917679 0.079521 
188.926468 0.232391 
188.93512 0.31852 
188.952255 0.28904 
189.030823 0.018976 
189.888611 3.01743 
189.937698 0.021003 
190.89563 0.143591 
190.929764 0.019209 
191.034149 0.01613 
191.83078 0.01692 
191.884277 0.396599 
192.923935 0.018087 
194.905197 0.016962 
194.921799 0.479351 
194.93956 0.162013 
196.901291 1.589973 
196.918503 0.599772 
198.86264 0.325042 
198.87999 0.03784 
198.924774 0.016937 
198.934616 1.14796 
199.169708 0.015812 
200.882629 0.092579 
200.892746 0.086217 
200.91391 4.172205 
200.929749 0.101447 
201.880219 0.069177 
202.877869 0.099019 
202.896698 0.068051 
202.932831 0.287395 
204.912323 0.802653 
204.929352 0.281606 
206.900467 0.321771 
206.940811 0.014483 
207.853622 0.015205 
207.895447 0.19438 
208.896469 0.047055 
210.899353 0.279789 
210.916931 0.233571 
210.934753 0.635632 
211.836105 0.019924 
211.854568 0.043636 
212.878677 3.74591 
212.895615 0.448638 
212.9505 0.023323 
213.80278 0.52355 
213.808517 0.477303 
213.820602 0.551923 
213.851974 0.076647 
214.874435 0.589949 
214.899521 0.155205 
214.929733 3.282865 
215.848679 1.479778 
216.859634 0.057109 
216.894394 0.03052 
216.909012 0.219755 
216.925034 0.126369 
217.857605 0.098085 
217.930893 0.016589 
218.839081 0.097621 
218.855392 0.312107 
218.866745 0.183348 
218.883179 0.87745 
220.834824 0.016397 
220.852783 0.716444 
220.864243 0.191084 
220.880875 0.055879 
220.8992 0.844727 
220.916595 0.410894 
221.084793 0.198744 
221.862488 0.01952 
221.871033 0.018018 
222.849976 0.426529 
222.86145 0.031287 
222.881363 0.197749 
222.895889 0.839596 
223.8909 0.030984 
223.978256 0.023258 
224.971161 0.152272 
225.674301 0.01865 
226.894104 0.345532 
226.911728 0.321648 
227.018921 0.016423 
227.849075 0.05445 
228.873505 6.298273 
228.891586 0.505868 
228.946152 0.039497 
230.907135 4.693572 
230.927109 0.117365 
232.855164 0.111719 
232.873505 0.036432 
232.902756 0.205487 
233.008453 0.037196 
233.852844 0.024726 
234.834702 0.018079 
234.849792 0.035592 
234.870163 0.013329 
234.92218 0.014799 
234.932297 0.041573 
236.82988 0.01397 
238.838181 0.091329 
238.873413 0.676248 
238.885483 0.021486 
239.868515 0.016368 
240.838593 0.049449 
242.585403 0.013534 
242.892349 0.021999 
242.907196 1.641848 
244.878265 0.768523 
244.902283 0.089376 
244.922684 0.632744 
244.935822 0.019784 
245.85907 0.106898 
246.423248 0.023339 
246.847549 0.172498 
246.902878 0.0279 
246.918182 0.020084 
247.838425 0.040361 
248.079559 0.041282 
248.867676 0.016227 
248.893265 0.050829 
249.865417 0.013841 
250.846725 0.105463 
250.862228 0.014163 
251.844681 0.017496 
252.842896 0.040639 
252.889236 1.42776 
253.429825 0.013655 
253.468658 0.016939 
253.484528 0.016549 
254.855011 0.031863 
254.868073 0.092948 
254.883911 0.076294 
255.14476 0.017464 
255.232025 0.027882 
255.841003 0.092459 
255.877472 0.024026 
256.83429 0.020104 
257.831238 0.015589 
258.883911 0.507297 
260.125305 0.013996 
260.863617 6.052292 
260.917236 0.158046 
262.859833 0.329518 
262.879028 1.08736 
266.823853 0.207427 
266.86853 0.076586 
268.819855 0.038048 
268.869019 0.123309 
269.966034 0.028518 
270.810608 0.036263 
271.815552 0.102149 
273.826996 0.121228 
274.824219 0.235897 
274.858032 0.019693 
274.8797 1.315544 
275.02475 0.017277 
275.879364 0.017397 
276.8367 0.629987 
276.851166 0.157067 
276.877777 0.089111 
276.895142 1.379525 
276.911133 0.121874 
282.899933 0.325891 
283.264008 0.219816 
283.836029 0.015497 
283.87204 0.096599 
284.861328 0.459282 
284.895081 0.021873 
288.805359 0.015309 
290.856232 0.61556 
290.872223 0.02298 
290.891907 0.024366 
290.911194 0.034233 
290.966583 0.082687 
292.835876 5.361332 
292.888763 0.120245 
292.982849 0.041785 
293.179321 2.460347 
295.833984 0.041288 
298.8125 0.066724 
299.795105 0.042262 
301.839569 0.06655 
301.968811 0.016237 
302.836243 0.016276 
304.871643 0.123111 
306.851105 0.368312 
307.194305 0.318363 
308.033752 0.015747 
309.344666 0.015877 
309.491241 0.014387 
314.817383 0.25806 
314.889771 0.102778 
315.836456 0.016094 
325.184387 1.721267 
325.815735 0.013398 
326.187958 0.096721 
332.162292 0.014412 
344.761108 0.018254 
347.074402 0.014524 
351.050171 0.116755 
351.183929 0.084762 
351.457886 0.018165 
354.821106 0.025836 
361.145111 0.049051 
368.233704 0.030934 
369.914459 0.017825 
370.81427 0.453752 
371.112274 0.016956 
383.113007 0.556043 
384.08493 0.778824 
384.109375 0.032147 
385.01236 0.018182 
386.809052 0.28857 
399.107971 0.690459 
399.651062 0.01908 
406.960602 0.078931 
412.204132 0.020074 
412.916412 0.016896 
414.297546 0.013299 
423.419403 0.150532 
424.329987 0.280088 
424.42276 0.23429 
424.861023 0.015578 
425.221344 0.913936 
425.256897 4.453796 
425.398346 0.020024 
425.427704 0.015855 
426.227631 0.117 
426.260437 0.970697 
426.839813 0.078115 
427.030792 0.611064 
427.10318 1.798371 
427.235382 0.314241 
451.855865 0.013248 
END IONS

