BEGIN IONS
PEPMASS=319.976
CHARGE=1+
COMPOUNDNAME=Isocycloheximide
LIBRARYQUALITY=3
SMILES=N/A
INCHIKEY=YPHMISFOHDHNIV-UHFFFAOYSA-N
INCHI=InChI=1S/C15H23NO4/c1-8-3-9(2)15(20)11(4-8)12(17)5-10-6-13(18)16-14(19)7-10/h8-12,17H,3-7H2,1-2H3,(H,16,18,19)
MSLEVEL=2
SOURCE_INSTRUMENT=N/A-Linear Ion Trap
FILENAME=library_mgf.mgf
SEQ=*..*
IONMODE=positive
ORGANISM=MONA
NAME=Isocycloheximide M-H
PI=MoNA
DATACOLLECTOR=MoNA:VF-NPL-LTQ005740
PUBMED=N/A
SUBMITUSER=mwang87
TAGS=
SPECTRUMID=CCMSLIB00004689308
SCANS=4929
147.880005 4.156697 
175.130005 0.987846 
181.880005 0.853446 
194.0 8.088165 
210.960007 2.891149 
220.130005 0.733782 
229.839996 5.363326 
241.789993 100.0 
243.869995 80.917419 
257.73999 45.823631 
271.76001 15.757228 
275.980011 10.661594 
279.029999 1.414316 
287.059998 9.850349 
289.959991 19.200808 
293.070007 7.171604 
296.429993 0.647795 
301.859985 33.401909 
302.98999 19.931927 
END IONS

