BEGIN IONS
PEPMASS=387.061
CHARGE=1+
COMPOUNDNAME=(4R,6S,8S,9Z,11E)-16-chloro-17,19-dihydroxy-4-methyl-3,7-dioxatricyclo[13.4.0.0?,?]nonadeca-1(15),9,11,16,18-pentaene-2,13-dione
LIBRARYQUALITY=3
SMILES=N/A
INCHIKEY=WYZWZEOGROVVHK-RPJJWQTDSA-N
INCHI=InChI=1S/C18H17ClO6/c1-9-6-15-14(25-15)5-3-2-4-10(20)7-11-16(18(23)24-9)12(21)8-13(22)17(11)19/h2-5,8-9,14-15,21-22H,6-7H2,1H3/b4-2+,5-3-/t9-,14+,15+/m1/s1
MSLEVEL=2
SOURCE_INSTRUMENT=N/A-ESI-QFT
FILENAME=library_mgf.mgf
SEQ=*..*
IONMODE=positive
ORGANISM=MONA
NAME=(4R,6S,8S,9Z,11E)-16-chloro-17,19-dihydroxy-4-methyl-3,7-dioxatricyclo[13.4.0.0?,?]nonadeca-1(15),9,11,16,18-pentaene-2,13-dione [M+Na]+
PI=MoNA
DATACOLLECTOR=MoNA:VF-NPL-QEHF022109
PUBMED=N/A
SUBMITUSER=mwang87
TAGS=
SPECTRUMID=CCMSLIB00004713172
SCANS=22109
50.215431 0.026387 
50.429111 0.029723 
53.03899 0.030901 
53.234165 0.034632 
53.833401 0.016997 
54.752731 0.020362 
55.018196 0.324741 
55.054539 1.349231 
55.860458 0.038235 
55.934715 0.106741 
56.085171 0.031453 
56.942581 0.119265 
57.033794 0.160724 
57.067196 0.037223 
57.070133 1.103799 
58.065357 1.024714 
59.049389 0.108048 
59.275749 0.034395 
60.044636 0.39866 
60.727757 0.031051 
60.909889 0.039234 
60.923702 0.01825 
61.010887 15.140298 
62.014294 0.027471 
62.018749 0.027232 
62.26186 0.031422 
62.479908 0.036055 
63.006672 0.03245 
65.038902 0.022092 
67.054344 2.161837 
67.056206 0.024669 
67.506081 0.027973 
68.785469 0.0193 
68.944412 0.029404 
68.99733 0.032394 
69.033607 2.530051 
69.069954 0.624289 
69.149055 0.030871 
69.432121 0.033751 
70.065224 0.281985 
70.744492 0.03192 
70.95797 0.607467 
71.049202 0.741979 
71.085594 0.460951 
71.126823 0.032833 
71.929451 0.022394 
72.080879 0.017592 
72.316147 0.029329 
72.937172 1.335772 
74.935341 0.037705 
74.952988 0.031103 
75.083549 0.029023 
76.656265 0.019774 
76.900383 0.031427 
77.402534 0.02812 
78.174164 0.038843 
78.496986 0.035266 
79.021225 1.281751 
79.054214 1.031315 
80.049812 0.024539 
81.033508 1.041791 
81.069939 1.871122 
81.24015 0.035894 
82.065369 0.018796 
82.382812 0.018543 
83.049149 0.726054 
83.085526 0.321865 
84.080963 0.022993 
85.028435 0.069057 
85.039665 0.168775 
85.064972 0.086246 
85.101242 0.10154 
85.447502 0.034206 
86.096474 0.097357 
87.044159 0.07019 
87.200874 0.032418 
88.075691 0.020801 
88.952309 0.037552 
88.968513 0.205413 
89.059792 1.313658 
89.939957 0.257125 
89.950882 0.020708 
90.625732 0.040124 
90.682243 0.018648 
90.947708 1.331483 
91.054283 2.705611 
92.057648 0.020443 
92.497864 0.027985 
93.033569 1.304794 
93.069946 2.12122 
93.915161 0.031274 
94.073242 0.117825 
95.049156 4.302782 
95.085495 1.115782 
96.052574 0.056373 
96.080772 0.067515 
97.028496 0.026812 
97.064896 0.17359 
97.101311 0.173919 
99.043999 0.136448 
101.035881 0.03864 
101.059723 0.113979 
101.333916 0.030695 
102.947876 0.106358 
103.054184 0.068297 
103.690369 0.024477 
104.301979 0.017141 
105.044586 0.047193 
105.069923 0.720277 
107.049179 0.226324 
107.085495 0.179258 
107.950584 0.023283 
107.961082 0.033387 
108.958252 0.12323 
109.064827 0.15523 
109.101212 0.284322 
110.06002 0.035188 
111.04409 0.609671 
111.080254 0.077993 
113.059937 0.034584 
114.769531 0.033626 
115.054962 0.033471 
116.963295 0.536313 
117.069893 0.094944 
117.599831 0.033109 
118.92511 0.020431 
118.942635 0.055291 
119.049088 0.024905 
119.085716 0.074074 
120.091904 0.052069 
120.654594 0.034877 
120.940498 0.275065 
121.028473 0.752446 
121.064781 2.041946 
121.101173 0.064873 
122.068039 0.17371 
122.072472 0.032464 
123.04406 0.019664 
123.080353 0.025793 
123.116478 0.04185 
125.059471 0.081784 
126.984055 0.178575 
128.963333 0.275816 
130.978958 0.574507 
131.000183 0.366294 
131.049225 0.126957 
131.08577 0.036747 
132.1017 0.069323 
132.960968 0.887313 
133.064957 0.069463 
133.085999 0.057697 
133.959183 0.939753 
134.9561 8.871048 
134.97403 0.038144 
134.989075 0.029061 
135.080246 0.039663 
136.953201 0.021419 
137.059708 0.024492 
137.629364 0.037784 
138.95105 0.031075 
138.984283 0.034544 
139.038956 4.163922 
139.044571 0.043082 
139.075195 0.130776 
139.134277 0.048941 
140.932571 0.019931 
140.999847 0.232492 
141.054565 4.278614 
141.21019 0.024269 
142.979065 0.207003 
142.999954 0.223589 
144.034348 0.023388 
144.95842 0.07584 
144.994614 0.163999 
145.016113 0.033949 
145.212006 0.021712 
146.265991 0.031027 
146.97406 0.394284 
147.080414 0.268336 
147.974121 0.02029 
148.95578 0.948763 
148.971924 0.175083 
148.989594 0.300802 
149.023819 0.017818 
149.95433 0.21799 
150.054993 3.075919 
150.951126 8.347116 
150.971024 0.315089 
151.020523 1.402227 
151.039215 0.024175 
151.058502 0.086121 
151.970322 0.029303 
152.951752 0.286337 
152.966705 4.732219 
152.999954 0.050534 
153.020874 0.098212 
153.03627 0.079098 
153.054688 2.163614 
153.449844 0.04143 
153.959167 0.3912 
154.946564 0.03905 
154.978729 0.055123 
155.01564 0.027064 
155.070267 0.231235 
155.954742 0.115383 
156.986649 0.205178 
156.994415 0.161945 
157.00502 0.120215 
157.015869 0.095811 
158.974075 0.215371 
159.002625 0.162876 
159.010498 0.332619 
159.044312 0.018616 
159.08078 0.111982 
160.083923 0.041072 
160.989868 0.124197 
161.059799 0.339004 
162.054855 1.375583 
162.968674 0.079897 
163.020325 0.160869 
163.038971 1.137386 
163.058899 0.03325 
163.413727 0.025749 
164.999741 0.139645 
165.036194 1.161799 
165.054749 0.030741 
166.966248 0.03361 
166.982086 0.021045 
167.015259 0.125488 
168.96167 2.415382 
168.994812 0.066192 
169.015793 0.020313 
169.031174 0.021166 
169.065308 0.025279 
171.002075 0.143329 
171.010208 0.095262 
171.031677 0.036546 
172.98996 0.157266 
174.98996 0.241122 
175.005005 0.059618 
175.039337 0.580134 
176.985794 0.083687 
177.05545 0.143205 
178.08522 0.019822 
178.667328 0.033059 
179.000076 0.06055 
179.051575 0.792989 
180.99501 0.10619 
181.049545 8.191765 
182.026855 0.025724 
182.118195 0.02112 
182.667221 0.037208 
183.002121 0.030905 
183.010025 0.138536 
184.989929 0.067164 
185.010422 0.033811 
185.06015 0.173025 
185.94931 0.030229 
187.005493 0.153495 
189.005661 0.200924 
189.054642 16.395975 
190.058105 0.824468 
191.000031 0.064661 
191.051605 0.112406 
191.070328 0.207977 
192.04158 0.333052 
192.961929 0.178584 
192.994705 0.025257 
193.049606 5.121849 
193.067047 0.456923 
195.010742 0.053897 
196.990417 0.022366 
197.000046 0.516689 
197.01738 0.167685 
197.026321 0.068599 
197.06041 0.030168 
198.003952 0.064783 
198.020264 0.023149 
198.996979 6.022566 
199.006332 0.370781 
199.014893 0.070155 
199.026215 0.113385 
200.000641 1.418557 
200.976212 0.081439 
200.985703 0.020533 
200.99498 0.087255 
201.012482 0.136971 
201.055359 0.085329 
202.583389 0.037077 
202.991852 2.145179 
203.021973 0.027767 
203.051346 0.04567 
203.068604 0.025971 
203.73407 0.039506 
203.99585 0.429268 
204.041702 0.15786 
205.016403 0.024592 
205.050064 0.032876 
205.067245 0.099335 
206.97644 0.027032 
207.065292 37.675831 
208.068527 0.401325 
209.87558 0.019081 
210.97168 0.074903 
210.980515 0.086689 
210.99675 0.253611 
211.033447 0.0994 
211.042953 0.022222 
212.002213 0.036659 
212.976044 2.572928 
213.022049 0.06403 
213.035141 0.025294 
213.054504 0.237606 
213.979706 0.477011 
214.03183 1.093346 
214.062225 0.144732 
215.036331 0.500618 
215.052887 0.035226 
215.070969 0.03715 
216.982788 0.033949 
217.036194 0.019479 
217.066971 0.066617 
217.944916 0.03295 
218.415741 0.021884 
219.065338 100.0 
220.068588 8.109437 
221.04747 0.021043 
221.070633 0.533398 
221.797501 0.021752 
222.898605 0.567989 
223.585617 0.028424 
224.898788 0.233114 
224.995392 0.020886 
225.01265 0.359325 
226.016678 0.036148 
226.039795 0.021098 
226.061249 0.044718 
226.895279 0.024175 
226.991867 1.588908 
227.010818 0.1952 
227.036469 0.043217 
227.99588 0.337426 
229.007614 1.473577 
229.051697 0.311883 
229.08754 0.036032 
229.896088 0.072016 
230.011032 0.246737 
231.387802 0.034261 
232.301392 0.040668 
233.044586 0.107733 
233.08139 0.024372 
233.099411 0.036352 
233.891281 0.031015 
234.065735 0.023783 
234.969101 0.057077 
235.033035 0.054431 
235.062042 0.147717 
235.8918 0.091144 
236.133636 0.059972 
237.057098 0.120009 
237.112106 0.242014 
237.886993 0.045845 
238.913727 0.024432 
239.011353 0.021763 
239.029251 0.018644 
239.071869 0.024038 
239.886169 0.018832 
240.908905 0.975682 
241.007767 0.635671 
241.046982 9.424494 
242.010712 0.10783 
242.05011 1.930565 
242.909775 0.753245 
243.052628 0.07302 
243.06691 0.593946 
244.073578 0.020087 
244.90477 0.236888 
244.990112 0.021005 
245.040848 0.045106 
245.081299 0.298979 
245.786453 0.042604 
247.096588 0.101878 
247.733215 0.037547 
247.907013 0.078616 
248.983932 0.037942 
249.07814 0.117547 
249.112167 0.599472 
249.906158 0.030252 
251.028687 0.06302 
251.072784 0.206988 
253.00705 0.061905 
253.0215 0.020646 
253.043976 0.378566 
253.088013 0.169659 
253.901962 0.20077 
254.047119 0.027505 
255.067581 0.334433 
255.082581 0.099966 
255.89769 0.304969 
255.917145 0.066989 
256.086731 0.023951 
256.886475 0.02167 
257.002594 0.205172 
257.045441 0.033924 
257.082977 0.741198 
257.098358 0.196077 
259.097015 0.026409 
259.114319 0.067666 
260.984161 0.171478 
261.076813 0.028877 
261.130981 0.033263 
263.028046 0.033991 
263.094055 0.247433 
263.900818 0.020949 
263.971771 0.081247 
264.004822 0.026097 
264.16391 0.020251 
265.088135 0.232041 
265.288483 0.038213 
265.817749 0.034514 
266.094482 0.021063 
266.119965 0.075407 
266.180573 0.032244 
266.909363 0.352723 
267.10321 0.068901 
267.990295 0.02505 
268.263977 0.035749 
268.904755 0.154675 
268.966248 0.081647 
269.082825 0.275439 
269.247406 0.784208 
270.184418 0.035407 
270.945709 0.132508 
271.098175 0.481147 
272.118866 0.02312 
273.075958 0.07871 
274.964172 0.034022 
274.999817 0.229317 
276.006195 0.677359 
276.113037 0.03268 
277.009583 0.023293 
277.109406 0.126043 
277.819672 0.032212 
277.902039 0.192902 
278.818237 0.172332 
278.901825 0.028617 
278.950439 0.033789 
278.9953 0.314745 
279.023224 0.24175 
279.103333 0.124647 
279.898041 0.280625 
280.813507 0.618151 
281.081177 0.04297 
281.103973 0.018927 
281.120117 0.02496 
281.896149 0.077279 
281.911957 0.168505 
283.060516 0.067378 
283.097931 0.236673 
283.912476 0.812529 
284.130829 0.100646 
284.920166 0.529038 
285.114044 0.114085 
285.907745 0.2292 
286.915985 0.089432 
290.128906 0.062908 
290.21106 0.036196 
290.99469 0.264085 
291.125275 0.063414 
293.010345 0.410787 
294.016022 0.33622 
295.01709 0.037014 
295.096344 0.431929 
295.963074 0.024231 
296.331146 0.187036 
296.961273 0.515218 
297.113373 0.074688 
297.27951 0.053364 
297.963715 0.034993 
298.940125 0.894693 
298.957458 0.096348 
299.129852 0.216899 
299.942017 0.031447 
300.05014 0.047923 
300.9375 0.023849 
301.921722 0.029572 
303.104187 0.526148 
303.122528 0.035953 
305.011688 0.023912 
305.119965 1.564709 
305.139954 0.605454 
306.13916 0.550899 
307.135559 6.123937 
307.15506 0.43204 
307.982147 0.117818 
308.15451 1.907001 
308.935486 0.020964 
308.961395 0.248492 
309.115021 0.088339 
309.151184 4.019558 
309.978851 0.112103 
310.110352 0.450664 
310.17038 0.549285 
311.001984 0.023173 
311.021637 0.106705 
311.167023 0.331413 
314.081055 0.034312 
315.944458 0.035651 
316.951172 0.623561 
318.948669 0.025176 
319.829651 0.095514 
320.828827 0.773598 
321.827484 0.019333 
322.107025 0.134723 
322.824066 2.633768 
323.090027 1.426826 
323.129852 0.198263 
323.149902 0.127218 
323.831177 0.119643 
324.093506 0.233263 
324.149506 0.103252 
324.325592 0.427988 
325.145996 1.979246 
325.165985 0.309686 
325.33017 0.0335 
326.164886 1.119983 
326.934296 0.029306 
327.161957 4.039814 
327.182129 0.251226 
328.120789 0.386451 
328.180847 2.701469 
329.009918 0.105009 
329.177368 3.020819 
329.258759 0.600006 
329.930939 0.037564 
337.842896 0.027086 
338.37738 0.03191 
340.054901 0.022479 
340.118317 0.099974 
344.946075 0.173989 
345.192413 0.042552 
346.191406 1.792354 
346.924683 0.034724 
347.187927 1.800871 
350.10199 0.221185 
351.084778 0.081554 
361.279358 0.21806 
364.834381 0.022637 
368.112976 0.737874 
369.117218 0.020617 
371.801147 0.038462 
385.291718 0.318647 
386.294006 0.067787 
387.203552 0.071413 
387.235046 0.796982 
387.271423 0.181702 
387.300415 0.388055 
388.210724 0.080325 
388.238953 0.063305 
388.834503 0.024341 
389.181091 0.705821 
389.250793 2.142212 
406.84552 0.123389 
407.190094 0.025306 
END IONS

