BEGIN IONS
PEPMASS=470.121
CHARGE=1+
COMPOUNDNAME=(5S,8S)-8-benzoyl-2-[(Z,1S,2S)-1,2-dihydroxyhex-3-enyl]-9-hydroxy-8-methoxy-3-methyl-1-oxa-7-azaspiro[4.4]non-2-ene-4,6-dione
LIBRARYQUALITY=3
SMILES=N/A
INCHIKEY=SLYDIPAXCVVRNY-BBJHAQHQSA-N
INCHI=InChI=1S/C22H25NO8/c1-4-5-11-14(24)15(25)16-12(2)17(26)21(31-16)19(28)22(30-3,23-20(21)29)18(27)13-9-7-6-8-10-13/h5-11,14-15,19,24-25,28H,4H2,1-3H3,(H,23,29)/b11-5-/t14-,15-,19?,21+,22+/m0/s1
MSLEVEL=2
SOURCE_INSTRUMENT=N/A-ESI-QFT
FILENAME=library_mgf.mgf
SEQ=*..*
IONMODE=positive
ORGANISM=MONA
NAME=(5S,8S)-8-benzoyl-2-[(Z,1S,2S)-1,2-dihydroxyhex-3-enyl]-9-hydroxy-8-methoxy-3-methyl-1-oxa-7-azaspiro[4.4]non-2-ene-4,6-dione [M+K]+
PI=MoNA
DATACOLLECTOR=MoNA:VF-NPL-QEHF020447
PUBMED=N/A
SUBMITUSER=mwang87
TAGS=
SPECTRUMID=CCMSLIB00004711510
SCANS=20447
50.279678 0.463783 
50.922092 0.272133 
51.330887 0.315376 
51.646736 0.438328 
51.878418 0.367109 
52.091862 0.34134 
52.346436 0.283738 
52.500168 0.49845 
53.206341 0.492001 
53.300594 0.302236 
53.316463 0.256922 
53.5326 0.267581 
53.807724 0.518645 
53.826965 0.122762 
54.234272 0.16533 
54.955681 0.4534 
55.054459 0.848225 
55.79187 0.160755 
55.871639 0.160944 
55.96439 0.459503 
56.033894 0.366716 
56.049721 0.138145 
56.140999 0.157339 
56.504585 0.285312 
56.67852 0.450946 
56.777184 0.286484 
56.957245 0.491562 
56.965012 2.518603 
57.070126 8.406509 
58.065338 3.295079 
58.23193 0.316215 
58.36618 0.310574 
58.367435 0.341144 
58.779015 0.400043 
58.871376 0.448509 
59.210308 0.325477 
59.222359 0.279076 
59.234562 0.383745 
59.6138 0.313955 
60.024448 0.162212 
60.033672 0.460105 
60.113136 0.42544 
60.349854 0.540079 
60.656132 0.385891 
60.70266 0.352869 
60.912777 0.334653 
61.010822 19.368582 
61.205647 0.380013 
61.70797 0.520431 
62.077969 0.467725 
62.210785 0.57643 
62.259918 0.418889 
62.285702 0.372621 
62.327118 0.273033 
62.824131 0.547881 
63.737785 0.491637 
63.902664 0.160787 
63.942188 0.133198 
64.620979 0.365005 
65.58857 0.552617 
65.919838 0.308045 
65.928467 0.268474 
66.160751 0.294344 
66.185028 0.38419 
66.317093 0.52952 
67.054321 0.430734 
67.955521 0.576643 
68.131836 0.56444 
69.069885 0.14742 
70.065208 0.922906 
70.319298 0.315548 
70.856155 0.553615 
71.085434 0.143009 
71.670525 0.342362 
72.080765 0.338899 
72.217667 0.157164 
73.30455 0.527561 
73.494263 0.467823 
74.901596 0.604466 
75.498474 0.423151 
76.316582 0.168597 
76.693466 0.319862 
77.956978 0.313514 
79.021141 0.564551 
79.773537 0.387246 
79.911827 0.563052 
81.014633 0.444046 
81.069832 0.856127 
81.189995 0.288111 
81.684479 0.488537 
81.816513 0.355064 
81.921959 0.50262 
82.02636 0.38976 
82.496651 0.461141 
83.048943 0.194758 
83.054649 0.473253 
83.085403 0.255624 
83.533066 0.528368 
84.105804 0.352893 
84.173782 0.614192 
84.95961 0.682042 
85.117455 0.294308 
86.096306 1.104196 
86.831146 0.272051 
88.172379 0.308205 
88.312813 0.29673 
88.470924 0.170097 
89.059647 1.416228 
91.354553 0.462577 
91.913834 0.321828 
92.352631 0.655483 
92.841537 0.465553 
93.069664 0.177294 
94.639168 0.442855 
95.049133 0.66716 
95.08551 0.37695 
95.702454 0.159081 
96.080353 0.911513 
96.236565 0.342462 
97.245911 0.420443 
97.338707 0.181038 
98.060112 1.155973 
98.149117 0.396004 
99.426964 0.128138 
100.083687 0.340541 
103.637032 0.567794 
104.26609 0.151993 
105.033508 38.361053 
105.070152 0.20348 
105.94339 0.321455 
107.53846 0.310496 
109.06469 0.209068 
109.144669 0.188148 
109.208496 0.316592 
109.736679 0.14392 
110.844917 0.489952 
112.862053 0.435773 
112.996559 0.283198 
114.454514 0.612317 
114.841385 0.175824 
115.114632 0.325448 
116.984505 0.423329 
118.641068 0.168652 
121.064674 0.580253 
121.689949 0.451479 
122.446251 0.536346 
123.908112 0.321468 
127.603737 0.473147 
129.76593 0.143246 
129.804123 0.497518 
131.000046 1.281668 
135.044312 0.38649 
136.076187 0.300715 
136.558304 0.153245 
136.958298 0.502134 
137.022598 0.406442 
137.954315 9.167427 
138.724991 0.490823 
138.819626 0.456718 
140.680496 0.173614 
140.714478 0.311704 
143.346344 0.283949 
144.997284 0.997103 
145.015732 1.013424 
147.116913 1.284134 
148.135162 0.504038 
149.020996 100.0 
149.026764 0.227533 
150.02417 1.910485 
150.090302 0.133416 
152.951385 14.591361 
153.560776 0.515952 
153.952408 0.669743 
153.959137 37.283478 
154.946899 0.520504 
155.033813 0.934181 
155.213486 0.361581 
155.954559 9.506682 
156.041519 0.170144 
157.015259 0.204135 
157.025909 7.378239 
158.506393 0.135575 
158.995102 0.260543 
163.991348 0.138107 
164.987747 3.589762 
166.983063 0.177724 
169.374832 0.614555 
170.994781 0.191577 
171.189102 0.358173 
173.01062 2.443954 
173.057068 6.306804 
174.411255 0.391035 
174.989853 9.473686 
175.987732 3.215344 
176.007858 2.288192 
176.987473 17.37834 
178.983109 0.88915 
179.032013 0.5085 
179.279617 0.762405 
180.477478 0.413982 
183.875549 0.591853 
184.036606 3.416866 
184.133118 0.216792 
185.01123 0.372254 
185.949005 1.337185 
186.008026 1.785257 
187.025803 0.171998 
187.683533 0.516101 
189.005417 5.786323 
189.33046 0.577414 
190.003006 5.344394 
191.001572 1.083067 
191.573837 0.512843 
191.923553 0.42674 
192.026352 0.838333 
193.010345 8.381808 
193.78598 0.356029 
195.067642 0.19197 
195.148666 0.922471 
196.20491 0.482925 
196.522919 0.309614 
196.650955 0.410877 
197.027908 0.689201 
197.129028 0.634288 
197.565292 0.446716 
198.188293 0.468897 
199.026337 0.443675 
199.086304 0.212369 
200.023819 0.528144 
202.107559 0.587067 
203.021072 0.407733 
206.022156 0.616629 
210.081421 0.465934 
210.788315 0.428872 
211.068665 2.359612 
212.53009 0.471303 
212.985367 0.372339 
213.14357 35.592834 
214.039444 0.464486 
215.044617 0.511455 
216.062943 34.032803 
217.06604 0.828573 
217.585938 0.761852 
218.415955 0.442705 
218.718384 0.46359 
221.731033 0.445988 
222.446991 0.474939 
223.471436 0.550146 
225.096268 0.624021 
226.655441 0.445737 
229.001968 0.371023 
230.998734 0.154971 
234.902344 0.365969 
235.076981 0.21016 
237.341949 0.171073 
251.088623 0.252302 
253.355072 0.517425 
253.500763 0.450746 
255.426239 0.589883 
259.764008 0.458889 
262.108673 0.336414 
263.343719 0.148599 
264.017944 0.572399 
271.378632 0.667252 
277.047638 0.440146 
289.430664 0.426445 
292.917969 0.634784 
294.04892 0.3433 
296.44223 0.308124 
302.538574 0.520456 
302.810364 0.615908 
304.637634 0.197727 
306.235107 0.595361 
308.051849 0.375313 
332.179382 0.555637 
350.697083 0.322864 
354.503204 0.414107 
355.329529 0.198844 
365.611084 0.573465 
368.320557 0.199905 
371.305786 0.532973 
373.932739 0.320036 
377.875366 0.328768 
381.763092 0.573077 
384.46463 0.291787 
390.458649 0.31987 
390.820526 0.506848 
393.827454 0.353169 
408.602844 0.1934 
411.044281 0.299319 
416.443848 0.559753 
430.531525 0.498414 
441.468079 0.452576 
445.126221 0.318857 
450.971619 0.403379 
460.739716 0.426053 
469.385162 0.570796 
471.329254 1.627886 
471.365265 12.983118 
475.987518 0.49971 
497.708954 0.172372 
END IONS

