BEGIN IONS
PEPMASS=304.095
CHARGE=1+
COMPOUNDNAME=ANISOMYCIN
LIBRARYQUALITY=3
SMILES=N/A
INCHIKEY=YKJYKKNCCRKFSL-BFHYXJOUSA-N
INCHI=InChI=1S/C14H19NO4/c1-9(16)19-14-12(15-8-13(14)17)7-10-3-5-11(18-2)6-4-10/h3-6,12-15,17H,7-8H2,1-2H3/t12-,13+,14+/m0/s1
MSLEVEL=2
SOURCE_INSTRUMENT=N/A-ESI-QFT
FILENAME=library_mgf.mgf
SEQ=*..*
IONMODE=positive
ORGANISM=MONA
NAME=ANISOMYCIN [M+K]+
PI=MoNA
DATACOLLECTOR=MoNA:VF-NPL-QEHF027599
PUBMED=N/A
SUBMITUSER=mwang87
TAGS=
SPECTRUMID=CCMSLIB00004721180
SCANS=27599
50.128071 0.058968 
50.665886 0.022417 
51.940239 0.023244 
53.002556 0.164865 
53.038929 0.118626 
53.218037 0.056416 
53.421375 0.061157 
54.534454 0.0241 
55.054535 1.156791 
55.564682 0.056054 
55.572872 0.016283 
55.934731 0.075419 
56.049805 0.754924 
56.139126 0.021195 
56.306866 0.08032 
57.070183 17.089506 
57.457413 0.021355 
58.029182 0.023808 
58.065414 18.120026 
58.067112 0.208654 
58.073555 0.623734 
58.843945 0.053299 
59.068752 0.302773 
59.106071 0.019488 
60.044662 0.589673 
60.337261 0.069798 
60.671368 0.052164 
61.010864 1.113026 
61.540951 0.025231 
61.913036 0.068981 
62.014282 0.027945 
62.018726 1.80781 
62.981937 0.026339 
63.006691 0.080068 
63.021996 0.057019 
63.343033 0.051338 
63.403126 0.026477 
63.556095 0.021592 
64.014481 0.176878 
64.127357 0.020696 
64.303009 0.024571 
64.63504 0.02483 
65.038818 0.130937 
65.969803 0.021662 
66.285789 0.050508 
68.04966 0.052972 
69.04483 4.353363 
69.070015 0.285512 
69.194496 0.059243 
69.227592 0.020098 
69.990356 0.074072 
70.065269 0.710524 
71.049278 0.078947 
71.085609 8.743256 
71.929428 0.054435 
72.044495 0.117304 
72.080864 0.079795 
72.088966 0.288462 
72.878326 0.058795 
72.937241 0.027594 
73.024376 0.05387 
74.060097 0.590749 
75.47245 0.071828 
76.374962 0.074504 
77.164925 0.030439 
79.054382 0.021686 
79.680779 0.025303 
80.049515 100.0 
80.947845 0.092897 
81.033615 0.093993 
81.046738 0.150867 
81.050354 0.040934 
81.052895 4.644581 
81.07 0.142099 
82.065216 0.02789 
82.073006 0.023814 
82.201126 0.054748 
83.00721 0.023929 
83.049187 5.732263 
83.051613 0.110698 
83.060402 1.989007 
83.085548 0.183968 
84.044479 0.454723 
85.039742 0.530022 
85.076126 0.207622 
85.101219 3.963186 
85.103821 0.037555 
86.060074 0.081214 
86.104584 0.093839 
86.573044 0.078645 
88.075706 0.983308 
88.220482 0.063318 
89.939972 0.10841 
90.651955 0.064612 
90.947762 0.49676 
90.968246 0.026952 
91.006645 0.022146 
91.054283 42.250099 
91.942207 0.052211 
92.057617 2.955333 
94.065132 0.385463 
94.518524 0.067337 
95.060341 0.041874 
95.085495 0.283001 
96.04454 0.053165 
96.088875 0.026862 
97.101227 0.057034 
98.060104 0.083331 
99.055321 0.023556 
100.075706 0.084626 
101.00312 0.020628 
102.055138 0.101265 
102.948013 0.026237 
104.61409 0.026536 
105.917015 0.138538 
105.971352 0.027556 
106.42878 0.056548 
107.950485 0.045911 
108.332619 0.021001 
108.958382 0.036987 
109.07637 0.024983 
109.101303 0.071791 
109.557274 0.025983 
110.071358 0.054382 
110.104446 0.078164 
112.050575 0.079382 
112.07592 0.03462 
113.071266 0.025864 
113.881508 0.025815 
116.00518 0.03824 
116.530312 0.026346 
117.982422 0.020716 
118.086288 0.178983 
118.942589 0.025567 
119.049728 0.02768 
120.888542 0.031788 
121.064873 21.079453 
121.241676 0.067548 
122.05529 0.060529 
122.068207 0.423303 
122.081177 0.233507 
123.055099 0.024806 
124.935387 0.022542 
132.608734 0.067639 
132.958221 0.63884 
134.813629 0.062843 
135.003006 0.129038 
135.080505 0.991458 
135.927383 0.02792 
136.112289 0.094272 
136.787949 0.027461 
137.923233 0.02284 
142.060928 0.024321 
142.09761 0.119336 
144.056992 0.659228 
144.102478 0.024586 
144.175034 0.024014 
145.064987 0.271167 
146.918411 0.907325 
146.974396 0.055568 
147.067337 0.022752 
147.080505 1.798991 
148.829697 0.062559 
148.97197 0.131077 
149.173218 0.02388 
149.385849 0.072757 
150.091553 0.049453 
150.968826 1.127819 
151.958817 0.188553 
151.969589 0.028162 
152.951569 1.893855 
153.938721 0.021402 
153.959259 0.229639 
154.947021 0.481049 
158.448486 0.062236 
159.080536 2.065061 
160.075912 0.265935 
160.935333 0.064892 
161.0961 0.728756 
161.567581 0.068046 
162.091492 0.610256 
162.951187 0.311979 
163.07579 0.064544 
163.528763 0.023289 
163.958664 0.025499 
163.977814 0.024076 
164.929184 0.166226 
164.984711 0.03257 
165.938339 0.400345 
166.600677 0.067947 
167.934082 0.068871 
168.917404 0.089607 
169.088837 0.151086 
170.962326 0.350364 
171.080475 0.242524 
171.960144 0.025055 
171.973618 0.153595 
172.957718 0.02019 
173.095154 0.02406 
173.650681 0.023329 
174.091293 0.145121 
175.075378 0.052088 
175.959137 0.344828 
176.107285 0.164953 
176.960861 0.068468 
177.012466 0.028294 
177.954941 0.094642 
178.945892 0.064722 
180.961655 0.804992 
181.962906 0.102422 
182.93956 0.032091 
182.957642 0.192109 
183.08075 0.108568 
183.174454 0.046607 
183.94873 0.134777 
184.169693 0.027806 
184.178024 0.297264 
184.507874 0.0217 
184.932724 0.022004 
185.083435 0.050936 
185.949875 0.029552 
186.091415 0.429024 
186.728424 0.027918 
186.927734 0.498484 
187.099319 0.062996 
188.107086 0.391098 
188.648239 0.118873 
189.091263 0.055035 
189.492264 0.025296 
191.153336 0.020982 
192.961761 1.253064 
193.963379 0.247879 
194.957794 0.316801 
194.97226 0.029555 
195.965271 0.029575 
197.278061 0.024294 
197.653122 0.067443 
198.091492 0.164552 
198.154251 0.022516 
200.10701 4.342845 
201.110489 0.058249 
203.143265 0.119602 
203.631119 0.066947 
203.639252 0.02541 
204.139557 0.022283 
204.175125 0.058224 
205.109756 0.690728 
206.117752 1.143703 
206.65889 0.095154 
210.972183 0.640245 
211.974213 0.213417 
212.23732 12.117598 
212.968338 0.171935 
213.09082 0.617095 
213.240891 1.520325 
215.127899 0.152936 
215.162125 0.459842 
215.171616 0.837687 
216.102066 0.913632 
218.117706 2.599977 
219.119583 0.023125 
219.174377 3.263975 
220.904419 0.020634 
222.112473 0.080649 
222.898529 1.670095 
223.573349 0.065633 
224.128159 2.021102 
224.303802 0.021172 
227.116852 0.023503 
231.10289 0.026302 
234.112411 0.031659 
234.501434 0.024759 
236.12822 1.261602 
236.89711 0.028066 
238.914444 0.03812 
239.901794 0.054211 
240.232193 1.052702 
240.909302 1.999533 
241.235641 7.476503 
241.90976 0.028927 
242.238922 0.69465 
245.128387 0.193246 
246.111526 0.037861 
252.147385 0.024146 
254.666061 0.0181 
256.26355 1.831557 
257.266876 0.130293 
257.646301 0.02216 
258.87674 0.024963 
260.989075 0.019088 
263.139191 0.081146 
263.718353 0.024972 
263.744476 0.065326 
263.901886 0.178351 
271.151428 0.135197 
276.310852 0.05781 
277.154785 2.245746 
278.138733 0.393666 
279.916687 0.028079 
281.730682 0.024906 
281.911926 2.066237 
282.915375 0.026946 
286.097229 0.101439 
286.216705 0.095768 
287.104248 0.16209 
288.108765 0.191593 
288.197021 0.020421 
288.232269 0.59221 
293.627472 0.020183 
297.409515 0.024137 
302.128693 1.063453 
302.177368 0.025246 
302.247498 0.123463 
302.283997 0.116728 
303.131531 0.554468 
303.177551 0.852097 
303.2435 0.090351 
303.288727 0.021178 
304.113617 0.034462 
304.170837 0.02689 
304.226257 0.046114 
304.266022 0.102486 
304.299988 63.33057 
305.124176 0.066591 
305.157013 75.689079 
305.259613 0.245402 
305.303192 13.822681 
306.141785 0.029978 
306.160614 5.662638 
306.180969 2.493549 
306.201874 0.049126 
306.240692 0.036095 
306.281006 0.030604 
306.306427 0.430046 
309.074493 0.020698 
317.555756 0.023864 
320.940155 0.019613 
327.827026 0.032184 
END IONS

