BEGIN IONS
PEPMASS=430.151
CHARGE=1+
COMPOUNDNAME=(5S,8S)-8-benzoyl-2-[(Z,1S,2S)-1,2-dihydroxyhex-3-enyl]-9-hydroxy-8-methoxy-3-methyl-1-oxa-7-azaspiro[4.4]non-2-ene-4,6-dione
LIBRARYQUALITY=3
SMILES=N/A
INCHIKEY=SLYDIPAXCVVRNY-BBJHAQHQSA-N
INCHI=InChI=1S/C22H25NO8/c1-4-5-11-14(24)15(25)16-12(2)17(26)21(31-16)19(28)22(30-3,23-20(21)29)18(27)13-9-7-6-8-10-13/h5-11,14-15,19,24-25,28H,4H2,1-3H3,(H,23,29)/b11-5-/t14-,15-,19?,21+,22+/m0/s1
MSLEVEL=2
SOURCE_INSTRUMENT=N/A-ESI-QFT
FILENAME=library_mgf.mgf
SEQ=*..*
IONMODE=negative
ORGANISM=MONA
NAME=(5S,8S)-8-benzoyl-2-[(Z,1S,2S)-1,2-dihydroxyhex-3-enyl]-9-hydroxy-8-methoxy-3-methyl-1-oxa-7-azaspiro[4.4]non-2-ene-4,6-dione [M-H]-
PI=MoNA
DATACOLLECTOR=MoNA:VF-NPL-QEHF020441
PUBMED=N/A
SUBMITUSER=mwang87
TAGS=
SPECTRUMID=CCMSLIB00004711504
SCANS=20441
50.403206 0.548388 
51.718437 0.592541 
51.748386 0.516393 
51.885017 0.542652 
52.649773 0.398867 
52.90004 0.411057 
53.405174 0.511342 
53.61245 0.550451 
54.275604 0.430976 
54.682571 0.570385 
54.701035 0.606909 
54.732594 0.563264 
54.736221 0.412358 
54.752235 0.529705 
54.893871 0.561521 
54.957314 0.536925 
55.017525 4.333855 
56.108143 0.688769 
56.188622 0.576761 
56.229404 0.635273 
56.527252 0.571993 
57.033142 2.560075 
57.181969 0.507603 
57.299049 0.520562 
57.35236 0.507313 
57.912601 0.468063 
57.920387 0.419997 
58.184715 0.542452 
58.292011 0.367046 
58.477139 0.538998 
58.952934 0.546018 
59.012474 3.589267 
60.242039 0.388392 
60.744232 0.522701 
60.940617 0.577767 
61.909645 0.542023 
61.986992 28.128426 
62.398094 0.402935 
62.892551 0.428029 
64.493187 0.445506 
64.703789 0.435294 
64.911766 0.607613 
65.530304 0.445116 
65.587692 0.418983 
65.743622 0.450661 
65.997078 0.49181 
66.276237 0.564967 
67.793633 0.48819 
68.996826 24.376715 
69.033203 40.343826 
69.2164 0.56353 
69.450317 0.651422 
71.012573 0.806344 
72.434982 0.488624 
72.585205 0.516486 
72.740128 0.426419 
72.816696 0.494226 
72.991745 38.15118 
73.163544 0.625739 
75.329742 0.644384 
75.421669 0.436689 
75.806755 0.45552 
75.816406 0.591138 
75.923759 0.638606 
77.648605 0.407451 
77.990288 0.424123 
78.984505 4.266376 
79.01754 0.423632 
80.836327 0.502429 
81.033195 2.405346 
81.254196 0.493994 
82.028511 0.535664 
82.192207 0.457266 
83.012466 0.561636 
83.048859 90.432442 
83.960045 0.468008 
84.052094 0.504156 
85.011559 0.50023 
85.02813 70.022812 
87.654312 0.521399 
87.736992 0.515175 
92.270416 0.60382 
93.033264 15.88655 
94.036369 0.5844 
95.048935 3.599083 
96.007767 20.491096 
96.020065 0.551799 
96.062569 0.436103 
96.283981 0.604889 
97.015259 0.508654 
97.028137 41.352303 
97.474129 0.490937 
98.031845 0.503417 
99.738434 0.423029 
100.036057 0.61766 
100.133148 0.607339 
100.140854 0.432712 
101.184052 0.534416 
102.251961 0.528205 
103.602821 0.654431 
104.049393 1.730495 
106.061241 0.398917 
106.538956 0.427489 
108.706841 0.567956 
108.949524 0.678821 
109.015656 1.969233 
109.028236 24.887709 
110.023415 3.832744 
110.205032 0.590488 
111.007637 0.405489 
111.039734 0.592914 
111.043839 100.0 
111.181732 0.385686 
111.547729 0.491689 
112.039169 3.741848 
112.047203 0.437333 
113.023125 18.932938 
113.059563 1.134709 
113.141212 0.461955 
115.758308 0.508836 
116.049362 8.554373 
117.630684 0.553262 
118.993729 0.408105 
119.048973 4.68508 
119.388557 0.562683 
119.492035 0.468258 
120.044228 5.292543 
120.238396 0.532286 
120.655731 0.461313 
121.028198 92.393456 
122.023552 0.522709 
122.031456 0.528123 
122.036285 0.559159 
123.03157 0.981901 
123.043953 3.015221 
124.015373 6.883172 
124.039154 19.108767 
125.023117 83.911522 
126.386574 0.501478 
127.038834 0.56706 
128.371353 0.412985 
129.017181 0.512641 
129.427292 0.615579 
130.108154 0.461089 
131.036469 2.688055 
131.049011 0.52995 
132.044281 5.872182 
134.023651 0.591054 
134.05954 0.755792 
136.0392 1.118694 
137.023315 10.893445 
137.047211 1.711426 
138.018494 40.816036 
138.031082 4.772281 
139.03894 92.192268 
140.041824 0.555433 
142.06514 4.652499 
144.04422 16.562298 
144.494904 0.468808 
144.596191 0.480636 
145.028305 29.345854 
147.031723 0.921574 
147.044037 4.201417 
148.039185 44.661926 
148.079361 0.642954 
149.023453 4.675635 
149.04216 0.503297 
150.018677 1.263593 
150.653519 0.543553 
153.005554 4.505121 
153.018326 7.376709 
154.021347 0.444247 
156.044403 32.972725 
156.080795 17.899017 
158.035934 0.512979 
158.060089 38.011482 
159.043961 1.97443 
160.039368 69.884277 
161.043015 0.732601 
161.094864 0.492296 
161.132431 0.47966 
162.054993 23.012146 
163.039001 2.254531 
164.034393 3.514782 
164.804123 0.552884 
165.018478 7.071002 
165.042068 4.851173 
165.535675 0.519015 
166.940155 0.4791 
168.029114 3.120732 
168.383575 0.636558 
169.02063 0.653567 
169.064896 1.022007 
170.060135 3.467503 
170.096573 0.517569 
171.081299 0.572654 
172.039566 2.39113 
172.436005 0.524052 
173.023438 2.254528 
174.054993 5.828434 
175.027573 0.58296 
175.039307 4.555674 
176.03447 25.055178 
177.037674 0.539671 
177.112305 0.55623 
179.269272 0.624529 
181.680832 0.612723 
181.81424 0.577251 
183.080536 0.566257 
183.166534 0.532943 
184.039688 3.98636 
185.047409 1.761768 
186.055328 10.122732 
187.075424 0.59483 
188.034485 59.228947 
188.071365 0.483437 
190.29657 0.636805 
190.680725 0.58912 
191.207703 0.451094 
192.029144 5.038833 
194.236923 0.603749 
195.065445 1.068209 
196.191086 0.504222 
196.609009 0.50648 
198.091782 2.835356 
199.063446 4.325161 
199.617065 0.437942 
200.034607 27.925049 
200.070999 53.379665 
201.07431 2.637013 
201.510086 0.46283 
202.050308 10.697564 
203.14003 0.494302 
207.829544 0.456952 
208.075989 1.878206 
208.376053 0.531941 
212.071152 9.051217 
212.145538 0.479591 
213.206223 0.469498 
213.546417 42.766769 
215.070999 3.093835 
218.448807 0.434526 
221.129211 0.553933 
222.053146 0.472531 
222.900131 0.527558 
223.014069 0.565461 
224.071259 9.324491 
225.394867 0.431904 
226.050339 2.670401 
227.058365 24.127371 
233.179504 0.461693 
236.237045 0.580145 
238.946655 0.498558 
242.081955 6.892576 
251.0923 2.290134 
252.066254 2.767391 
253.050156 1.15995 
253.070526 0.494813 
253.762314 0.553735 
254.110367 1.416017 
254.39032 0.436872 
255.078247 0.491983 
255.263947 0.571916 
264.869843 0.464827 
274.945679 0.553279 
276.758789 0.553068 
280.591309 0.509113 
287.981384 0.452687 
289.919067 0.593057 
290.772247 0.713097 
294.031708 0.60379 
296.30957 0.571085 
300.743103 0.459216 
304.199371 0.628707 
304.222534 0.58825 
310.717926 0.524107 
311.997406 0.590148 
325.204529 0.646059 
325.259766 0.517716 
329.118164 0.432556 
335.554871 0.442843 
342.42688 0.465032 
342.760498 0.692612 
345.192749 0.546842 
345.575439 0.479184 
350.997772 0.558843 
371.197754 0.532686 
380.570435 0.458221 
382.720337 0.587722 
384.929016 0.661733 
393.587311 0.532851 
396.771118 0.526663 
407.746368 0.500366 
409.4888 0.782754 
418.31192 0.707262 
455.022308 0.447653 
455.879578 0.712272 
END IONS

