BEGIN IONS
PEPMASS=333.0
CHARGE=1+
COMPOUNDNAME=Massbank:KO009242 Specitinomycin|Spectinomycin
LIBRARYQUALITY=3
SMILES=CNC(C(O)3)C(O)C([H])(O1)C([H])(C(NC)3)OC(O)(C(=O)2)C([H])(OC(C)C2)1
INCHIKEY=UNFWWIHTNXNPBV-UHFFFAOYSA-N
INCHI=1S/C14H24N2O7/c1-5-4-6(17)14(20)13(21-5)22-12-10(19)7(15-2)9(18)8(16-3)11(12)23-14/h5,7-13,15-16,18-20H,4H2,1-3H3/t5-,7-,8+,9+,10+,11-,12-,13+,14+/m1/s1
MSLEVEL=2
SOURCE_INSTRUMENT=ESI-LC-ESI-IT
FILENAME=Massbank_ESI_positive_8_1_2014_peaks.mgf
SEQ=*..*
IONMODE=Positive
ORGANISM=MASSBANK
NAME=Massbank:KO009242 Specitinomycin|Spectinomycin [M+H]+
PI=Putative Massbank Match
DATACOLLECTOR=Massbank
PUBMED=N/A
SUBMITUSER=mwang87
TAGS=
SPECTRUMID=CCMSLIB00000221358
SCANS=10208
92.2 5.44 
93.2 1.44 
94.1 104.75 
95.1 25.07 
96.1 28.18 
97.1 2.56 
98.1 295.27 
99.1 23.25 
100.1 109.51 
101.0 10.19 
102.1 18.0 
105.1 2.75 
108.1 56.32 
109.1 35.25 
110.1 115.78 
111.0 18.31 
112.1 192.71 
113.1 4.13 
114.1 48.69 
115.1 8.5 
116.1 197.22 
118.2 6.38 
119.0 8.07 
120.0 21.06 
121.1 7.13 
122.1 306.13 
123.1 44.01 
124.1 60.13 
125.0 34.76 
126.1 168.46 
127.0 36.5 
128.1 53.5 
129.2 5.38 
130.1 42.82 
132.0 45.95 
133.1 8.57 
135.1 130.33 
136.1 12.94 
137.0 22.62 
138.0 73.45 
139.1 2.62 
140.0 641.83 
141.1 9.0 
142.1 121.51 
144.1 1.81 
145.1 6.75 
147.0 2.88 
149.1 2.56 
150.0 14.88 
151.0 9.19 
152.1 21.75 
153.1 113.75 
154.1 67.94 
155.1 5.31 
156.0 100.2 
157.1 16.26 
158.0 302.77 
159.2 1.44 
160.1 11.31 
162.1 17.01 
163.0 7.5 
164.1 19.63 
165.1 9.25 
166.1 7.19 
167.0 3.06 
168.1 8.94 
169.1 47.07 
170.1 72.2 
171.1 18.63 
172.0 12.5 
173.1 4.94 
174.1 8.81 
175.9 13.06 
178.1 16.75 
179.1 2.69 
180.1 17.87 
181.1 2.5 
182.0 35.01 
183.1 41.94 
184.0 20.06 
186.1 20.19 
187.1 331.02 
189.1 1558.94 
190.1 3.13 
190.9 16.57 
193.0 6.06 
194.1 5.75 
196.1 27.69 
198.1 34.38 
199.1 159.14 
200.0 49.88 
201.1 26.0 
202.1 29.81 
203.2 5.69 
204.3 6.56 
205.1 63.82 
206.2 4.0 
207.1 138.2 
208.0 8.06 
209.0 0.69 
210.1 36.38 
211.1 4.25 
212.2 34.25 
213.1 10.94 
214.1 8.63 
217.2 13.75 
219.1 60.56 
220.0 3.44 
222.1 41.0 
222.9 7.0 
224.1 19.81 
225.0 5.75 
226.1 13.06 
227.1 227.76 
228.1 65.5 
229.1 24.75 
230.0 2.88 
231.1 17.56 
233.0 32.38 
235.1 15.37 
238.1 5.13 
240.2 2.25 
241.1 1.69 
242.1 20.19 
243.2 119.07 
244.0 29.38 
245.1 130.39 
247.1 16.63 
249.0 7.63 
251.0 3.38 
251.9 0.88 
253.2 28.5 
254.1 9.13 
256.2 18.75 
257.1 28.13 
258.0 4.94 
259.0 1.63 
260.1 10.19 
261.1 7.75 
266.1 32.69 
269.1 67.26 
270.3 15.93 
271.1 106.33 
273.1 59.51 
275.2 21.07 
279.2 3.88 
284.1 98.95 
287.2 124.02 
289.2 240.59 
291.2 34.12 
297.2 76.07 
300.2 4.13 
302.2 147.76 
305.2 178.13 
313.4 1.56 
314.3 5.94 
315.2 264.27 
315.9 5.75 
322.4 5.63 
326.7 3.12 
332.1 3.88 
333.3 154.64 
348.9 1.06 
END IONS

