BEGIN IONS
TITLE=Scan Number: 4793
PEPMASS=410.31699
CHARGE=1+
COMPOUNDNAME=Lyngbyatoxin A M+H-CO putative or close isomer
LIBRARYQUALITY=3
SMILES=CC(C)C1C(=O)NC(CC2=CNC3=C(C=CC(=C23)N1C)C(C)(CCC=C(C)C)C=C)CO
INCHIKEY=KISDGNGREAJPQR-UHFFFAOYSA-N
INCHI=
MSLEVEL=2
SOURCE_INSTRUMENT=LC-ESI-Orbitrap
FILENAME=f.ktahlan/KT-1/MUN/Methanol/SC/2 SC on GSPG meth-pos.mzXML;
SEQ=*..*
NOTES=
IONMODE=Positive
ORGANISM=GNPS-LIBRARY
NAME=Lyngbyatoxin A M+H-CO putative or close isomer M+H
SPECTRUMID=CCMSLIB00005435951
ACTIVATION=CID
INSTRUMENT=ion trap
SCANS=4793
72.04496 75645.492188 
74.060265 103633.171875 
79.054451 260766.109375 
81.070091 2223749.0 
83.0858 51339.285156 
84.774612 52661.523438 
86.096535 394111.6875 
93.069771 117541.109375 
94.065102 416802.78125 
95.085533 1182772.875 
96.080589 445668.0625 
100.413513 79705.007812 
109.10125 218610.90625 
114.091438 2673597.75 
114.099434 98870.609375 
116.107033 116088.664062 
131.073105 49311.164062 
132.06842 121384.015625 
137.132568 676195.6875 
144.081268 71019.109375 
145.076401 297035.6875 
146.083923 1943243.625 
147.091629 505896.78125 
156.068253 327926.875 
157.076355 709754.3125 
157.08783 96552.84375 
158.084274 85144.375 
158.096451 60780.585938 
159.091827 4568659.5 
159.153732 53109.273438 
160.099472 802503.375 
161.107193 912758.125 
168.081299 64277.765625 
169.076141 193647.0 
169.08902 127140.09375 
170.083649 823397.0625 
170.095963 95792.132812 
171.091721 4101130.25 
172.099442 310331.5625 
172.112915 79879.828125 
173.107346 340239.40625 
173.120514 76963.929688 
174.116272 113941.109375 
182.097015 510949.28125 
183.090607 628039.75 
183.105408 428969.4375 
184.099182 1393919.875 
184.112061 135224.25 
185.092255 102329.953125 
185.107376 1664591.875 
185.122208 87865.695312 
186.102402 544046.5625 
186.115936 233004.328125 
187.086609 339756.34375 
187.12265 266538.59375 
188.093903 225499.953125 
188.130569 101457.53125 
195.090408 92693.828125 
195.106262 62900.300781 
196.097626 118535.648438 
196.113052 271857.9375 
196.237823 55060.738281 
197.106384 982598.5625 
198.114731 1137121.625 
199.123016 5679695.0 
200.094009 411685.96875 
200.130646 695962.4375 
201.101761 587834.25 
201.12175 60525.167969 
201.13887 610345.3125 
202.092468 105816.21875 
202.110031 1571550.375 
202.146317 1374956.375 
203.118317 772332.4375 
203.135605 74744.945312 
203.154724 658435.875 
208.099731 215996.171875 
209.107056 994372.875 
210.113297 515171.125 
211.122849 2699775.0 
212.131943 813180.75 
213.103195 869370.9375 
213.138275 1602186.625 
214.146439 1380403.125 
215.154327 940233.875 
217.121307 809239.625 
218.128372 97199.734375 
221.10733 318890.3125 
222.093033 122025.859375 
222.115189 725148.75 
223.123306 2630172.5 
224.130722 514677.78125 
225.11586 192860.078125 
225.138306 1088191.0 
226.14621 511359.1875 
227.15451 709268.6875 
228.162247 74130.117188 
229.170227 98506.320312 
230.128983 1979188.625 
231.149307 242111.453125 
235.123032 1183167.125 
236.130981 250691.6875 
237.122086 62460.3125 
237.142059 863715.25 
238.109497 165393.828125 
238.148605 399086.0625 
239.119293 740357.4375 
239.156296 692563.6875 
240.124954 197362.40625 
240.146317 139682.21875 
240.166138 67508.53125 
241.133743 2030973.75 
241.170135 672525.5 
242.141327 241838.765625 
242.164627 118648.445312 
249.137589 366032.75 
251.156143 581015.5 
252.150635 392876.75 
253.133667 1355905.75 
253.169785 1680339.75 
254.176453 225927.40625 
255.148514 344498.75 
255.185547 1897786.0 
256.157196 1472085.875 
257.164825 1170478.0 
257.201538 81921.179688 
263.154388 129072.671875 
265.17041 453813.5625 
266.165161 113439.132812 
267.149658 342824.125 
267.185455 1268620.25 
268.194275 366855.15625 
269.159943 61234.515625 
269.202179 434602.40625 
270.159882 1806666.125 
271.167236 74643.265625 
273.183685 898006.1875 
274.190704 227899.0 
276.161163 76833.546875 
277.169373 234863.546875 
279.184387 260762.828125 
281.165833 87259.257812 
281.200439 220702.90625 
282.209198 1143228.375 
283.180542 87008.960938 
283.217499 299793.25 
284.175659 130273.03125 
284.801239 62080.945312 
291.184357 112751.484375 
292.194122 128639.21875 
293.200745 540417.0 
295.180573 1326650.125 
295.216675 4249033.5 
297.197968 92092.445312 
297.231903 2414081.75 
305.19989 332580.4375 
306.209229 719922.6875 
307.216217 1389799.375 
308.221741 100269.359375 
309.195251 364098.65625 
309.23233 944273.3125 
310.202148 226196.375 
312.207733 295528.0625 
319.217743 1039075.875 
320.22052 68411.40625 
321.232605 1271935.5 
322.227753 3113726.75 
323.211884 1829065.125 
323.249481 88974.226562 
324.219086 103898.78125 
324.257568 77462.609375 
325.26355 86635.625 
335.245544 295060.15625 
336.217804 131843.984375 
336.253967 74053.734375 
337.226532 354274.59375 
337.264038 799239.4375 
338.232178 95411.226562 
338.270996 596006.3125 
339.242554 2257058.0 
339.280182 2706863.0 
349.265015 445012.84375 
351.279724 11152493.0 
353.246307 1594068.375 
361.264984 439684.15625 
363.279114 92897.257812 
375.281006 76172.453125 
378.269318 87519.539062 
379.273224 111827.335938 
381.290894 786853.125 
392.305908 1512808.125 
392.355011 77942.398438 
393.290253 17561934.0 
395.291107 210344.453125 
410.316742 33556144.0 
END IONS

