BEGIN IONS
PEPMASS=245.095
CHARGE=1+
COMPOUNDNAME=Biotin
LIBRARYQUALITY=3
SMILES=N/A
INCHIKEY=YBJHBAHKTGYVGT-ZKWXMUAHSA-N
INCHI=InChI=1S/C10H16N2O3S/c13-8(14)4-2-1-3-7-9-6(5-16-7)11-10(15)12-9/h6-7,9H,1-5H2,(H,13,14)(H2,11,12,15)/t6-,7-,9-/m0/s1
MSLEVEL=2
SOURCE_INSTRUMENT=N/A-ESI-QTOF
FILENAME=library_mgf.mgf
SEQ=*..*
IONMODE=positive
ORGANISM=MONA
NAME=Biotin [M+H]+
PI=MoNA
DATACOLLECTOR=MoNA:VF-NPL-QTOF002088
PUBMED=N/A
SUBMITUSER=mwang87
TAGS=
SPECTRUMID=CCMSLIB00004719879
SCANS=2085
55.055 0.463755 
61.037601 0.590198 
61.0406 1.038327 
67.053101 1.195618 
67.056503 0.530319 
69.067902 0.313488 
76.020401 0.683146 
76.026001 0.678988 
79.054901 1.630253 
81.067497 0.39937 
81.072502 0.753296 
82.027199 0.495425 
82.064003 0.311218 
83.049301 0.446558 
85.012398 0.398009 
88.951103 0.926252 
91.055 0.697116 
93.067703 0.422877 
97.008904 1.048206 
97.039398 13.283034 
98.093803 0.342651 
99.024101 0.627562 
100.018997 0.409732 
100.022202 0.68937 
101.040802 0.529011 
102.000801 0.371315 
105.069801 3.078309 
105.072601 0.581954 
107.084396 0.436577 
108.076698 0.346959 
108.081802 0.7961 
111.025497 0.635867 
113.037804 0.473877 
113.043602 0.394764 
115.056396 1.505475 
120.080498 0.503205 
121.061996 0.581208 
121.067299 0.514822 
122.094498 0.499672 
123.026199 8.037098 
123.1036 0.372884 
125.039497 1.253696 
125.045601 0.653688 
132.077393 0.461076 
133.0672 0.356641 
133.084595 1.102238 
137.024399 0.418421 
137.996704 0.480473 
138.033203 0.631751 
139.057297 5.247352 
141.010803 0.426637 
143.025604 0.95509 
143.036697 0.355705 
149.042892 1.895765 
150.091003 1.229846 
150.097794 0.421366 
151.083893 1.260136 
151.8974 1.452231 
153.100494 0.622286 
154.064301 0.341025 
155.023407 0.481335 
156.079697 0.882406 
163.086197 0.381165 
164.052094 0.662718 
165.099106 0.890613 
166.068207 9.638062 
166.920593 3.131752 
166.963104 0.411245 
167.0513 8.687114 
175.081604 0.318087 
176.069397 0.327557 
182.061096 1.252874 
184.078293 7.130766 
185.074905 1.378539 
192.046707 2.312407 
193.093307 0.363092 
193.102203 0.663865 
199.089203 7.526475 
209.073395 8.602868 
210.054901 0.367554 
227.084198 100.0 
227.207397 1.533136 
227.216797 1.382953 
227.258804 1.545936 
227.284393 0.59606 
227.304504 0.397446 
227.319199 0.350823 
227.335098 0.446094 
227.353897 0.388659 
227.372803 0.410378 
227.389893 0.375584 
227.410995 0.402196 
227.452698 0.512415 
227.511093 0.513849 
227.620895 0.388893 
227.657593 0.324206 
227.7379 0.312079 
245.089401 0.732209 
245.095795 0.526759 
END IONS

