BEGIN IONS
PEPMASS=723.469
CHARGE=1+
COMPOUNDNAME=MoNA:946648 Nigericin
LIBRARYQUALITY=3
SMILES=N/A
INCHIKEY=DANUORFCFTYTSZ-UHFFFAOYSA-N
INCHI=InChI=1S/C40H68O11/c1-21-11-12-28(46-33(21)26(6)36(42)43)17-29-18-30(45-10)27(7)40(48-29)25(5)19-38(9,51-40)32-13-14-37(8,49-32)35-23(3)16-31(47-35)34-22(2)15-24(4)39(44,20-41)50-34/h21-35,41,44H,11-20H2,1-10H3,(H,42,43)
MSLEVEL=2
SOURCE_INSTRUMENT=LC-ESI-QFT-LC-ESI-QFT
FILENAME=output_mgf.mgf
SEQ=*..*
IONMODE=
ORGANISM=MONA
NAME=MoNA:946648 Nigericin [M-H]-
PI=MoNA
DATACOLLECTOR=MoNA
PUBMED=N/A
SUBMITUSER=mwang87
TAGS=
SPECTRUMID=CCMSLIB00000564857
SCANS=2109
55.0189 11.648311 
57.0346 100.0 
58.006 15.704298 
59.0138 7.731898 
59.0502 0.944224 
61.9883 0.496939 
65.0396 0.706676 
69.0346 5.760017 
71.0139 6.452557 
71.0503 21.22584 
72.0218 0.629502 
73.0296 14.717663 
79.0552 0.625562 
80.0268 0.345024 
81.0345 3.882693 
83.0503 7.866605 
84.0216 0.900365 
85.0295 23.218636 
85.0658 5.095462 
87.0451 75.888299 
93.0347 0.834894 
93.071 0.809865 
94.0424 0.690164 
95.0502 9.125551 
97.0658 11.733828 
99.0451 13.194169 
99.0815 4.653623 
101.0607 29.766907 
105.071 0.779157 
107.0502 5.292859 
109.0658 14.440137 
111.0452 4.91145 
111.0815 22.902813 
113.061 1.752988 
113.0972 2.770331 
120.0581 0.685297 
121.0659 8.685392 
122.0373 0.461422 
123.0816 12.13963 
125.061 1.656694 
125.0972 5.067015 
127.0767 0.841441 
133.0663 0.608181 
133.1023 0.650418 
134.074 0.401108 
135.0816 12.468431 
136.0532 0.589467 
137.0606 3.171092 
137.0973 2.536549 
139.0766 2.021186 
141.0923 1.927152 
147.0817 0.601228 
149.0971 4.453735 
151.0763 2.857644 
151.113 2.53035 
153.0922 4.086115 
161.0967 0.64897 
163.1128 0.942602 
165.1285 0.658066 
175.113 1.962726 
177.1285 0.980726 
END IONS

