BEGIN IONS
PEPMASS=1034.55
CHARGE=1+
COMPOUNDNAME=Tomatine
LIBRARYQUALITY=3
SMILES=N/A
INCHIKEY=REJLGAUYTKNVJM-SGXCCWNXSA-N
INCHI=InChI=1S/C50H83NO21/c1-20-7-12-50(51-15-20)21(2)32-28(72-50)14-26-24-6-5-22-13-23(8-10-48(22,3)25(24)9-11-49(26,32)4)65-45-40(63)37(60)41(31(18-54)68-45)69-47-43(71-46-39(62)36(59)34(57)29(16-52)66-46)42(35(58)30(17-53)67-47)70-44-38(61)33(56)27(55)19-64-44/h20-47,51-63H,5-19H2,1-4H3/t20-,21-,22-,23-,24+,25-,26-,27+,28-,29+,30+,31+,32-,33-,34+,35+,36-,37+,38+,39+,40+,41-,42-,43+,44-,45+,46-,47-,48-,49-,50-/m0/s1
MSLEVEL=2
SOURCE_INSTRUMENT=N/A-ESI-QFT
FILENAME=library_mgf.mgf
SEQ=*..*
IONMODE=positive
ORGANISM=MONA
NAME=Tomatine [M+H]+
PI=MoNA
DATACOLLECTOR=MoNA:VF-NPL-QEHF026706
PUBMED=N/A
SUBMITUSER=mwang87
TAGS=
SPECTRUMID=CCMSLIB00004719705
SCANS=26706
73.028458 48.891739 
73.030579 0.213153 
73.555305 0.169418 
74.646774 0.137569 
77.038704 0.433987 
79.054253 30.634563 
79.196739 0.166545 
79.985527 0.180879 
80.049484 4.087055 
80.954491 0.248269 
81.033516 19.823624 
81.069931 24.83284 
82.065125 2.593155 
83.085487 0.487529 
84.080811 1.320277 
85.028458 100.0 
85.031303 0.932396 
85.883614 0.260236 
86.03186 0.463497 
86.805061 0.190291 
87.044167 2.59348 
87.769585 0.138702 
89.192787 0.254049 
89.669746 0.247638 
90.353447 0.162076 
91.039009 2.477921 
91.054276 37.961636 
92.740646 0.227311 
93.069946 23.351292 
94.065155 3.044399 
94.073029 0.189635 
95.049156 9.257037 
95.073044 2.223616 
95.085541 15.623326 
96.073868 0.26679 
96.080765 3.321518 
96.702385 0.267796 
97.028473 63.019615 
97.894157 0.271685 
98.031891 0.513319 
98.09639 1.158772 
98.128212 0.132242 
99.044121 4.725212 
100.898972 0.253442 
101.023445 0.974424 
101.33847 0.112054 
102.842613 0.194593 
103.05439 0.232866 
104.020859 0.27687 
104.533173 0.208067 
105.044937 0.888423 
105.069939 60.581112 
105.492752 0.283278 
106.073265 0.908565 
107.085556 18.741526 
108.080566 0.934681 
108.769669 0.207135 
109.02845 10.246913 
109.088524 1.050576 
109.101151 9.252669 
109.172684 0.251268 
109.885574 0.232684 
110.096573 0.302566 
114.091324 8.210259 
115.039101 3.214734 
115.054291 1.211215 
115.273613 0.234004 
117.069878 12.359994 
117.449905 0.29122 
117.704224 0.14388 
119.085579 29.042887 
120.088486 0.519476 
121.101242 3.332717 
122.096626 0.167372 
122.653259 0.305001 
124.112213 18.057978 
124.116913 0.320031 
124.777702 0.28329 
125.047768 0.137641 
125.12001 0.290067 
126.127754 24.290726 
127.038971 10.909518 
127.757057 0.29605 
128.061859 0.344068 
128.166565 0.235319 
128.867996 0.127953 
129.069962 2.280459 
130.077637 0.532446 
130.901199 0.214345 
131.085526 15.284708 
132.820724 0.256835 
133.101181 13.080038 
135.116745 1.414994 
138.12764 0.265087 
139.10257 0.196118 
140.504517 0.252055 
142.077469 0.925531 
142.688171 0.272733 
143.085678 2.27469 
143.763855 0.281134 
144.093933 0.237292 
145.101318 18.109741 
147.116943 17.811169 
147.755066 0.260578 
148.112015 1.493018 
149.488876 0.24944 
149.97966 0.219782 
150.127975 2.099671 
152.14299 0.213675 
152.215729 0.145008 
154.457916 0.157734 
154.487335 0.217313 
155.085785 0.193179 
156.5858 0.33394 
157.101303 3.67671 
158.221771 0.265371 
158.909698 0.221982 
159.116882 15.185587 
161.132523 36.414379 
161.453796 0.274673 
162.127899 1.818402 
162.135666 2.506094 
164.001938 0.244141 
164.143524 1.053403 
167.55278 0.176631 
171.116592 0.77819 
171.898758 0.225496 
173.132538 6.000966 
173.851364 0.213183 
174.548279 0.249494 
175.162247 0.196521 
175.679718 0.231934 
178.158722 0.160989 
178.615204 0.209396 
182.152695 0.211076 
185.132553 0.594389 
186.213501 0.207676 
187.148071 0.237666 
191.102859 0.227502 
197.411575 0.330923 
199.148102 1.536752 
199.381561 0.219639 
203.308334 0.222877 
204.330048 0.280178 
207.548187 0.178601 
219.332016 0.296431 
219.465439 1.744392 
219.471603 2.58148 
229.160858 0.221559 
229.526184 0.200575 
234.837173 0.14416 
236.047318 0.198153 
247.975006 0.297464 
249.979431 0.192628 
254.980362 0.244586 
256.343475 0.22948 
257.542297 0.209863 
261.758026 0.194093 
263.589478 0.192436 
264.781372 0.238355 
267.804962 0.171326 
270.713318 0.236863 
273.797974 0.216392 
275.788879 0.269567 
280.720306 0.231962 
283.52356 0.270839 
291.990112 0.272439 
294.576569 0.265592 
327.138428 0.280216 
329.851227 0.243539 
331.03186 0.224803 
332.068939 0.306736 
337.878021 0.291946 
343.301086 0.14982 
351.509552 0.260474 
352.919708 0.252414 
361.19809 0.149335 
363.859344 0.220774 
380.330444 2.800271 
386.540375 0.215108 
387.886932 0.28646 
393.074524 0.211751 
397.28186 0.255666 
398.341095 10.415965 
399.344055 1.31927 
402.945892 0.241953 
439.162323 0.158214 
447.348236 0.150965 
506.547974 0.118581 
519.594177 0.17425 
541.250183 0.239931 
551.147766 0.211276 
553.05188 0.270543 
558.124939 0.124481 
558.906555 0.141161 
560.393433 5.019684 
561.397034 0.208557 
573.162048 0.290303 
585.591736 0.257885 
590.660034 0.233184 
598.428345 0.273585 
624.099609 0.235977 
657.088501 0.300995 
674.698059 0.333803 
687.885071 0.250059 
706.675293 0.237163 
729.494751 0.24582 
738.962341 0.289957 
741.356873 0.171068 
758.09906 0.228399 
773.723938 0.248081 
853.981201 0.218629 
858.096252 0.21303 
866.523621 0.299417 
904.247803 0.267093 
929.116943 0.243833 
974.282654 0.247929 
END IONS

