BEGIN IONS
PEPMASS=425.379
CHARGE=1+
COMPOUNDNAME=3-Epilupeol
LIBRARYQUALITY=3
SMILES=N/A
INCHIKEY=MQYXUWHLBZFQQO-ISZJTHHZSA-N
INCHI=InChI=1S/C30H50O/c1-19(2)20-11-14-27(5)17-18-29(7)21(25(20)27)9-10-23-28(6)15-13-24(31)26(3,4)22(28)12-16-30(23,29)8/h20-25,31H,1,9-18H2,2-8H3/t20-,21+,22-,23+,24+,25+,27+,28-,29+,30+/m0/s1
MSLEVEL=2
SOURCE_INSTRUMENT=N/A-ESI-QFT
FILENAME=library_mgf.mgf
SEQ=*..*
IONMODE=negative
ORGANISM=MONA
NAME=3-Epilupeol [M-H]-
PI=MoNA
DATACOLLECTOR=MoNA:VF-NPL-QEHF005649
PUBMED=N/A
SUBMITUSER=mwang87
TAGS=
SPECTRUMID=CCMSLIB00004696712
SCANS=5649
50.167561 0.059687 
50.525944 0.052288 
51.200848 0.071094 
51.371094 0.052658 
53.219109 0.056849 
53.838337 0.048628 
54.00779 0.048644 
54.411533 0.055721 
55.017624 0.165999 
57.033173 1.115492 
59.010864 0.125045 
59.012428 10.603437 
60.015907 0.066527 
61.040367 0.047812 
61.665958 0.053382 
61.977562 0.38043 
61.986938 100.0 
61.99585 0.696591 
62.069485 0.05225 
62.551594 0.052425 
62.56599 0.050618 
62.984077 0.122439 
63.961025 10.703295 
63.991199 0.562044 
64.861511 0.053221 
64.887848 0.052455 
65.956818 0.139416 
68.689354 0.053326 
69.033195 1.297741 
69.543884 0.049458 
70.797897 0.064114 
71.010452 0.059065 
71.012428 1.866318 
71.048889 0.713907 
72.00766 0.143932 
72.991707 1.207442 
73.028053 0.406938 
74.023346 0.637695 
74.212471 0.059041 
74.989449 0.06144 
75.007332 0.572661 
75.145172 0.056955 
76.968597 1.441213 
77.704994 0.054087 
78.917465 0.054601 
78.957626 0.925252 
78.984528 6.978407 
79.382874 0.052702 
79.955956 40.038349 
79.969345 0.052051 
80.955177 0.06095 
80.963799 8.247493 
80.980316 0.15725 
81.03318 12.400611 
81.051361 0.052573 
81.951744 1.397486 
82.036484 0.218526 
82.959526 0.633519 
83.012375 0.079977 
83.048836 11.56466 
84.052147 0.313015 
85.028091 0.562713 
85.788338 0.051853 
86.307457 0.058794 
86.556282 0.053092 
87.007301 0.307196 
87.385132 0.059281 
87.902771 0.074193 
88.306519 0.050448 
88.309631 0.058162 
89.023026 1.451461 
89.358383 0.049792 
89.924355 0.054523 
91.02066 0.070321 
91.986725 0.057457 
92.308754 0.073384 
92.332779 0.063704 
92.926674 1.1562 
93.000053 1.100421 
93.033249 1.525776 
93.24247 0.052776 
93.962341 0.057793 
94.923706 0.150716 
94.979477 54.671524 
95.012764 0.055384 
95.048965 0.086001 
95.950829 2.049964 
95.978935 0.25377 
95.982712 0.324493 
96.939964 0.128057 
96.958725 55.009663 
96.975243 2.704082 
96.983635 0.061089 
97.028061 0.053773 
97.064529 0.388678 
97.958168 0.351453 
98.644844 0.055706 
98.954582 3.152924 
98.963043 0.584258 
99.007431 0.240504 
99.924461 4.440871 
99.982872 0.058115 
100.924736 0.092211 
100.932243 0.073869 
100.990952 0.057918 
101.023087 0.06708 
101.949524 0.052663 
102.05455 0.084568 
104.033783 0.143867 
104.876709 0.054682 
105.000008 0.159538 
106.979568 0.066093 
107.049026 0.084114 
108.020378 0.380866 
108.898819 0.084652 
109.027985 0.138308 
110.974564 0.312973 
111.04406 0.102521 
111.080322 0.277625 
111.151031 0.057657 
115.019493 0.185958 
115.919411 2.341509 
116.919479 0.118272 
116.927261 1.121075 
118.940788 4.67171 
118.981476 0.271066 
118.985046 0.294241 
119.015755 2.117915 
119.04895 2.982821 
119.94574 0.519903 
120.93663 0.071944 
121.028206 3.999948 
122.307693 0.06317 
122.974464 0.222873 
123.044395 0.069431 
123.080765 0.071208 
124.872444 0.062521 
125.096115 0.081439 
125.87188 0.221382 
127.86882 0.078307 
128.034012 0.079177 
131.438782 0.058332 
132.99501 0.482892 
133.064682 0.264071 
134.036057 0.100804 
134.85083 0.059931 
135.0439 0.275575 
135.08017 0.071013 
136.951492 0.225247 
139.502701 0.055274 
140.363052 0.060577 
141.127319 0.060475 
141.950439 0.064634 
142.875168 0.064328 
143.048965 0.061323 
149.008484 0.883622 
149.023209 0.057273 
149.060059 0.335753 
150.987686 7.499455 
151.987305 0.07228 
152.554138 0.052874 
152.916779 0.11243 
152.966965 2.853151 
154.946411 0.295813 
156.994156 0.065578 
157.032104 0.06476 
157.861877 0.154818 
158.036102 0.158384 
158.372055 0.060135 
158.752625 0.052179 
158.891907 0.265155 
159.043701 0.075397 
159.877502 0.082026 
159.892776 0.2488 
160.840714 0.418285 
162.837952 0.190157 
163.055252 0.059795 
163.076187 0.059865 
163.6716 0.057846 
164.219467 0.05464 
164.835541 0.062398 
164.967346 0.098918 
165.835754 0.060285 
167.377411 0.062422 
168.998413 1.367995 
170.003296 2.89511 
170.97757 0.767312 
171.006805 0.068099 
172.957581 0.068782 
175.042221 5.313848 
176.993103 0.090577 
177.00296 0.074467 
178.982895 0.495693 
180.376572 0.072623 
182.88031 0.060536 
183.011169 98.698845 
184.001236 2.799452 
184.014374 5.172331 
184.501526 0.063835 
184.875656 0.100483 
185.007172 4.455915 
185.015488 0.565119 
185.891205 0.055737 
186.010605 0.078143 
187.01152 0.062726 
187.962097 0.062211 
188.04657 0.118205 
188.855331 0.392989 
189.853714 1.34511 
190.852081 0.156864 
191.107681 0.063659 
193.744751 0.05616 
196.917572 0.057816 
197.026932 7.150862 
198.034378 0.500723 
205.084061 0.058 
205.159546 0.061181 
205.893051 0.468187 
207.012314 0.099357 
208.975693 1.659435 
210.033142 0.114918 
210.955109 1.019649 
211.041977 0.439519 
211.954971 0.058013 
212.047775 0.06023 
212.617416 0.053611 
212.934113 0.141749 
215.126038 0.059472 
216.009079 1.770972 
218.975403 0.136463 
220.168823 0.359712 
221.083496 0.067864 
221.998718 0.590285 
225.00679 0.158206 
225.058472 1.447775 
226.876877 0.103933 
228.459808 0.059888 
228.848938 0.065419 
229.938492 0.0586 
236.102814 0.058507 
236.860382 0.058395 
237.222229 0.059099 
239.074142 1.905301 
240.614029 0.06871 
244.842972 0.347834 
244.98819 0.306838 
247.838516 0.07858 
250.946869 0.060985 
252.929062 0.086416 
253.002396 0.092126 
253.08992 0.278033 
254.093948 0.069864 
254.863495 0.240815 
255.232498 1.88764 
260.873199 0.287081 
263.869507 0.138368 
266.963593 0.259958 
267.106079 0.132252 
268.943054 0.418584 
269.154022 0.171091 
270.922333 1.185721 
271.922943 0.070329 
272.901367 0.609065 
272.918457 0.098322 
273.901703 0.140464 
274.261932 0.067221 
274.881226 2.473657 
274.896729 0.073851 
275.880219 0.953525 
276.878296 0.241135 
278.944122 0.141552 
280.94339 0.172164 
281.120392 0.098804 
282.99469 0.565334 
283.112579 0.574408 
283.263916 0.280944 
284.900574 0.074182 
286.889801 0.294592 
295.684387 0.061896 
297.600861 0.063494 
309.153168 0.340946 
311.168579 1.223236 
312.172668 0.084729 
312.239746 0.070303 
317.991211 0.058071 
318.008118 0.068172 
323.168365 0.206214 
325.184143 5.962145 
326.187073 0.201733 
326.237488 0.067204 
326.623016 0.064339 
337.217072 0.065667 
339.199707 8.566814 
340.202576 2.167324 
341.197601 0.121074 
347.075012 0.303284 
349.89917 0.059407 
351.232269 0.217135 
353.640472 0.060631 
370.868561 1.017456 
374.480896 0.065494 
383.297852 0.060825 
410.845032 0.099506 
435.041443 0.058495 
444.060913 0.05975 
END IONS

