BEGIN IONS
PEPMASS=319.119
CHARGE=1+
COMPOUNDNAME=MoNA:1056529 Mycophenolic acid
LIBRARYQUALITY=3
SMILES=N/A
INCHIKEY=HPNSFSBZBAHARI-RUDMXATFSA-N
INCHI=InChI=1S/C17H20O6/c1-9(5-7-13(18)19)4-6-11-15(20)14-12(8-23-17(14)21)10(2)16(11)22-3/h4,20H,5-8H2,1-3H3,(H,18,19)/b9-4+
MSLEVEL=2
SOURCE_INSTRUMENT=LC-ESI-ITFT-LC-ESI-ITFT
FILENAME=output_mgf.mgf
SEQ=*..*
IONMODE=
ORGANISM=MONA
NAME=MoNA:1056529 Mycophenolic acid [M-H]-
PI=MoNA
DATACOLLECTOR=MoNA
PUBMED=N/A
SUBMITUSER=mwang87
TAGS=
SPECTRUMID=CCMSLIB00000570358
SCANS=7609
135.0457 0.253329 
179.0349 46.788676 
191.0349 37.262135 
192.0426 0.79957 
199.1127 0.983885 
207.0656 0.448342 
215.1084 0.1208 
225.0921 0.195871 
228.0785 0.138441 
229.0512 0.10417 
233.0813 0.693123 
243.0666 0.664219 
243.1025 6.712903 
245.082 0.573531 
259.0978 0.243454 
269.0817 4.259706 
275.1287 39.84827 
285.077 0.883646 
287.0924 100.0 
301.108 0.649926 
END IONS

