BEGIN IONS
PEPMASS=580.0
CHARGE=1+
COMPOUNDNAME=MoNA:2312045 Streptomycin
LIBRARYQUALITY=3
SMILES=N/A
INCHIKEY=UCSJYZPVAKXKNQ-HZYVHMACSA-N
INCHI=InChI=1S/C21H39N7O12/c1-5-21(36,4-30)16(40-17-9(26-2)13(34)10(31)6(3-29)38-17)18(37-5)39-15-8(28-20(24)25)11(32)7(27-19(22)23)12(33)14(15)35/h4-18,26,29,31-36H,3H2,1-2H3,(H4,22,23,27)(H4,24,25,28)/t5-,6-,7+,8-,9-,10-,11+,12-,13-,14+,15+,16-,17-,18-,21+/m0/s1
MSLEVEL=2
SOURCE_INSTRUMENT=LC-ESI-QQ-LC-ESI-QQ
FILENAME=output_mgf.mgf
SEQ=*..*
IONMODE=
ORGANISM=MONA
NAME=MoNA:2312045 Streptomycin [M-H]-
PI=MoNA
DATACOLLECTOR=MoNA
PUBMED=N/A
SUBMITUSER=mwang87
TAGS=
SPECTRUMID=CCMSLIB00000572125
SCANS=9376
40.9 3.703704 
85.9 7.407407 
87.9 16.666667 
96.9 100.0 
119.1 9.259259 
124.0 9.259259 
165.6 16.666667 
202.5 25.925926 
219.2 98.148148 
244.4 12.962963 
259.3 25.925926 
261.1 46.296296 
END IONS

