BEGIN IONS
PEPMASS=1077.57
CHARGE=1+
COMPOUNDNAME=N-[(3S,6S,9S,11R,15S,18S,20R,21R,24S,25S,26S)-3-[(1R)-2-carbamoyl-1-hydroxyethyl]-6-[(1S,2S)-1,2-dihydroxy-2-(4-hydroxyphenyl)ethyl]-11,20,21,25-tetrahydroxy-15-[(1R)-1-hydroxyethyl]-26-methyl-2,5,8,14,17,23-hexaoxo-1,4,7,13,16,22-hexaazatricyclo[22.3.0.0?,��]heptacosan-18-yl]-10,12-dimethyltetradecanamide
LIBRARYQUALITY=3
SMILES=N/A
INCHIKEY=DFQUSLQYURJBIT-MFKXNLKNSA-N
INCHI=InChI=1S/C51H82N8O17/c1-6-25(2)19-26(3)13-11-9-7-8-10-12-14-37(66)53-32-21-35(64)47(72)57-49(74)41-42(67)27(4)23-59(41)51(76)39(34(63)22-36(52)65)55-48(73)40(44(69)43(68)29-15-17-30(61)18-16-29)56-46(71)33-20-31(62)24-58(33)50(75)38(28(5)60)54-45(32)70/h15-18,25-28,31-35,38-44,47,60-64,67-69,72H,6-14,19-24H2,1-5H3,(H2,52,65)(H,53,66)(H,54,70)(H,55,73)(H,56,71)(H,57,74)/t25?,26?,27-,28+,31+,32-,33-,34+,35+,38-,39-,40-,41-,42-,43-,44-,47+/m0/s1
MSLEVEL=2
SOURCE_INSTRUMENT=N/A-ESI-QFT
FILENAME=library_mgf.mgf
SEQ=*..*
IONMODE=negative
ORGANISM=MONA
NAME=N-[(3S,6S,9S,11R,15S,18S,20R,21R,24S,25S,26S)-3-[(1R)-2-carbamoyl-1-hydroxyethyl]-6-[(1S,2S)-1,2-dihydroxy-2-(4-hydroxyphenyl)ethyl]-11,20,21,25-tetrahydroxy-15-[(1R)-1-hydroxyethyl]-26-methyl-2,5,8,14,17,23-hexaoxo-1,4,7,13,16,22-hexaazatricyclo[22.3.0.0?,��]heptacosan-18-yl]-10,12-dimethyltetradecanamide [M-H]-
PI=MoNA
DATACOLLECTOR=MoNA:VF-NPL-QEHF024864
PUBMED=N/A
SUBMITUSER=mwang87
TAGS=
SPECTRUMID=CCMSLIB00004715927
SCANS=24864
75.03627 0.281477 
75.350044 0.18977 
75.449844 0.25698 
75.714401 0.190945 
77.198837 0.210159 
78.088097 0.247286 
78.154167 0.249806 
79.712677 0.24319 
79.938896 0.312052 
81.811577 0.19096 
81.957954 0.183842 
82.028419 24.012039 
82.416748 0.271598 
82.584946 0.217804 
82.600426 0.270854 
82.621208 0.147278 
82.939079 0.209549 
83.012482 0.191766 
83.023666 18.630224 
84.007713 10.189773 
84.044144 0.24159 
84.903397 0.252852 
85.028099 3.439673 
85.039368 5.835379 
85.406776 0.265902 
86.05983 0.462423 
86.468819 0.213231 
87.054985 1.617327 
93.033195 1.986912 
93.290848 0.243319 
94.028458 7.974976 
94.664673 0.237985 
95.023727 100.0 
95.199661 0.234372 
95.529289 0.222893 
96.007751 1.265715 
96.027107 0.536362 
96.044128 13.279157 
97.024704 0.227701 
97.028114 8.97605 
97.039368 0.500077 
97.890373 0.236782 
98.023376 30.660149 
99.018646 90.304153 
99.054741 0.271684 
100.021683 0.253013 
100.038849 0.516949 
101.034363 0.242706 
101.85144 0.196716 
104.332817 0.169892 
104.451447 0.17479 
104.630447 0.194673 
105.50061 0.173911 
106.984474 0.228495 
107.048775 0.174466 
108.044121 2.523856 
108.692413 0.245865 
109.039352 6.643445 
109.35807 0.192878 
110.023422 37.842213 
110.034668 1.616048 
111.007393 8.410019 
111.018639 7.551272 
111.026466 0.242177 
111.055008 6.421617 
111.216499 0.240704 
111.747353 0.236479 
111.920204 0.21334 
111.925217 0.242336 
112.039024 11.181593 
112.050301 87.212997 
113.022896 0.241219 
113.034294 70.344337 
113.053741 0.228089 
113.649719 0.308441 
115.049423 0.239323 
115.262421 0.234883 
116.413193 0.239313 
117.738472 0.202901 
118.028625 0.23578 
118.683929 0.238658 
119.048912 6.460559 
120.05275 0.277692 
121.028046 0.218272 
121.039009 0.205809 
122.023445 4.866762 
123.044197 0.265468 
123.055099 4.680587 
124.039085 32.780754 
124.050369 0.217431 
125.023048 1.65651 
125.034218 6.473955 
125.042549 0.470674 
125.071045 0.296975 
125.17617 0.200615 
125.975777 0.167843 
125.995506 0.271932 
126.165565 0.225362 
127.050056 3.701881 
128.033997 0.509589 
128.045288 7.844613 
129.06572 40.576832 
130.049805 1.031965 
130.060928 85.20034 
130.901764 0.156706 
131.06424 0.272112 
134.058975 0.219182 
135.055099 0.368431 
135.529068 0.229807 
135.962372 0.201131 
136.039078 0.744342 
137.034378 1.488786 
137.933212 0.264439 
138.029709 1.778707 
138.054794 3.660601 
139.039169 0.565748 
139.050095 5.050881 
140.03418 0.229597 
140.045273 1.218732 
141.065872 2.045554 
141.392731 0.171947 
142.060928 1.116563 
142.7043 0.224378 
143.081528 0.829981 
144.076294 0.266869 
147.043976 1.648723 
147.6633 0.233853 
148.039764 0.264798 
149.034149 1.126222 
150.066086 0.257784 
150.269226 0.268732 
151.013977 0.580309 
151.050156 8.411037 
151.87207 0.262387 
152.045471 1.722939 
154.061401 0.278104 
155.045105 3.308653 
156.034012 0.27725 
156.040344 19.616495 
156.4888 0.190383 
156.616852 0.189156 
157.061188 0.266921 
158.059998 0.221353 
159.823029 0.245606 
161.035202 0.22388 
161.350235 0.339625 
162.165756 0.268277 
162.817261 0.226815 
163.050095 7.279057 
166.050415 0.246816 
166.060806 0.826051 
167.045425 0.49431 
167.191208 0.27361 
168.076782 32.261345 
169.060883 36.566238 
169.072021 34.906513 
169.137054 0.244574 
172.038406 0.229127 
175.199646 0.247605 
178.844147 0.235213 
179.854904 0.260721 
181.060287 0.57106 
182.092438 0.51097 
184.071487 0.27683 
184.291382 0.282592 
185.047913 0.250635 
185.217545 0.360942 
186.055191 9.05645 
186.087448 36.650497 
187.082642 6.162646 
191.064896 0.195054 
193.060089 0.175836 
193.676254 0.325281 
195.050797 0.217283 
196.072403 0.225988 
197.378235 0.180548 
197.707047 0.178191 
199.158554 0.288741 
200.10289 0.272797 
201.065994 0.17241 
207.880646 0.255166 
209.358688 0.223821 
210.31543 0.242208 
210.757263 0.245614 
210.865112 0.244449 
211.846603 0.258252 
212.102951 0.296982 
215.045273 0.252032 
216.785156 0.167357 
219.65451 3.68109 
225.098694 8.955802 
231.341919 0.256155 
231.655945 0.283317 
237.08577 0.228426 
243.109222 1.445512 
243.332077 0.224243 
256.968842 0.225788 
277.897095 0.212799 
279.072449 0.224355 
279.119965 0.244854 
285.889221 0.230263 
287.267822 0.219589 
293.608215 0.232033 
295.443054 0.165739 
298.441681 0.237666 
300.131317 0.229948 
307.225922 0.240504 
311.576508 0.157273 
313.57019 0.234926 
315.317566 0.241203 
315.531891 0.24001 
317.506378 0.238238 
325.263245 0.211901 
325.887543 0.246115 
327.973022 0.246189 
330.358276 0.229792 
331.793945 0.211437 
333.707611 0.182152 
339.838928 0.29474 
342.929932 0.253774 
349.992157 0.239932 
351.53006 0.225339 
392.652466 0.219757 
395.1875 0.250993 
397.241425 0.26543 
399.819611 0.252527 
406.434113 0.272641 
420.622314 0.234197 
425.002777 0.250751 
429.407623 0.229812 
447.403381 0.316337 
450.089569 0.272518 
462.036438 0.263941 
465.328918 0.22081 
479.002899 0.238172 
480.968079 0.326053 
493.125702 0.318006 
494.775604 0.321385 
499.058533 0.273473 
502.457977 0.276381 
530.504272 0.190179 
543.02002 0.267401 
553.539551 0.299178 
575.599426 0.301918 
592.638611 0.342758 
594.213623 0.210123 
596.466797 0.23378 
604.223267 0.268115 
621.078186 0.245261 
626.499512 0.240681 
626.789001 0.231755 
634.057922 0.229605 
645.861572 0.222348 
646.348389 0.219815 
646.513794 0.186617 
672.000793 0.265903 
682.8255 0.201614 
706.260803 0.253634 
716.09729 0.238416 
760.877563 0.292954 
762.766235 0.266377 
780.403137 0.224819 
806.061707 0.296766 
820.831787 0.290138 
833.168335 0.288751 
855.284119 0.205511 
873.636536 0.285613 
925.548889 0.336671 
937.449463 0.363456 
966.361084 0.2356 
978.803406 0.348789 
1030.687134 0.270222 
1040.923096 0.270345 
1043.070801 0.375877 
END IONS

