BEGIN IONS
PEPMASS=140.995
CHARGE=1+
COMPOUNDNAME=HMDB:HMDB04110-2365 Phosphonoacetate
LIBRARYQUALITY=3
SMILES=OC(=O)CP(O)(O)=O
INCHIKEY=XUYJLQHKOGNDPB-UHFFFAOYSA-N
INCHI=InChI=1S/C2H5O5P/c3-2(4)1-8(5,6)7/h1H2,(H,3,4)(H2,5,6,7)
MSLEVEL=2
SOURCE_INSTRUMENT=Positive-Quattro_QQQ:25eV
FILENAME=hmdb_intermediate.mgf
SEQ=*..*
IONMODE=Positive
ORGANISM=HMDB
NAME=HMDB:HMDB04110-2365 Phosphonoacetate M+H
PI=HMDB
DATACOLLECTOR=HMDB
PUBMED=N/A
SUBMITUSER=mwang87
TAGS=
SPECTRUMID=CCMSLIB00000427057
SCANS=2029
43.0 18.618 
47.0 5.788 
65.0 38.694 
77.0 12.617 
80.0 7.504 
81.0 90.976 
95.0 17.585 
105.0 100.0 
123.0 21.011 
END IONS

