BEGIN IONS
PEPMASS=537.446
CHARGE=1+
COMPOUNDNAME=HMDB:HMDB00561-782 B-Carotene
LIBRARYQUALITY=3
SMILES=C\C(\C=C\C=C(/C)\C=C\C1=C(C)CCCC1(C)C)=C/C=C/C=C(\C)/C=C/C=C(\C)/C=C/C1=C(C)CCCC1(C)C
INCHIKEY=OENHQHLEOONYIE-JLTXGRSLSA-N
INCHI=InChI=1S/C40H56/c1-31(19-13-21-33(3)25-27-37-35(5)23-15-29-39(37,7)8)17-11-12-18-32(2)20-14-22-34(4)26-28-38-36(6)24-16-30-40(38,9)10/h11-14,17-22,25-28H,15-16,23-24,29-30H2,1-10H3/b12-11+,19-13+,20-14+,27-25+,28-26+,31-17+,32-18+,33-21+,34-22+
MSLEVEL=2
SOURCE_INSTRUMENT=Positive-Quattro_QQQ:10eV
FILENAME=hmdb_intermediate.mgf
SEQ=*..*
IONMODE=Positive
ORGANISM=HMDB
NAME=HMDB:HMDB00561-782 B-Carotene M+H
PI=HMDB
DATACOLLECTOR=HMDB
PUBMED=N/A
SUBMITUSER=mwang87
TAGS=
SPECTRUMID=CCMSLIB00000426852
SCANS=1824
63.188 12.434 
69.648 10.127 
74.766 10.127 
76.473 11.663 
79.154 13.199 
81.957 15.505 
89.635 10.898 
94.145 13.199 
94.511 10.898 
104.017 10.127 
106.089 11.663 
106.211 11.663 
106.333 11.663 
106.699 11.663 
110.111 10.898 
112.793 10.127 
121.569 12.434 
130.588 10.898 
137.049 10.898 
139.73 11.663 
155.211 10.898 
155.698 12.434 
167.401 10.127 
167.888 13.969 
169.107 11.663 
170.57 10.127 
180.078 15.505 
181.663 36.243 
191.415 100.0 
192.025 11.663 
192.147 11.663 
204.825 10.898 
207.995 34.707 
210.189 10.898 
216.406 14.735 
216.894 15.505 
219.698 10.898 
219.82 10.898 
222.502 12.434 
229.695 10.898 
231.889 11.663 
234.45 11.663 
234.693 19.348 
239.448 11.663 
239.57 13.969 
240.789 11.663 
246.763 10.898 
252.25 13.969 
253.225 11.663 
259.321 13.969 
259.565 12.434 
265.417 12.434 
269.928 10.127 
274.318 10.898 
277.488 10.127 
277.61 12.434 
280.414 10.127 
281.877 11.663 
284.194 10.127 
284.804 10.898 
287.73 10.898 
290.778 10.127 
295.777 13.969 
299.801 14.735 
301.874 12.434 
314.555 10.127 
317.725 11.663 
320.164 11.663 
320.53 10.898 
326.627 11.663 
329.431 12.434 
329.553 13.199 
332.358 11.663 
335.406 13.199 
347.601 10.898 
356.99 10.127 
359.673 15.505 
363.453 10.127 
364.673 12.434 
370.16 10.127 
387.843 10.127 
390.648 13.969 
393.697 10.127 
400.404 17.041 
400.526 13.199 
415.405 13.199 
418.21 20.884 
421.503 10.898 
424.186 11.663 
424.308 11.663 
426.381 12.434 
427.113 12.434 
430.284 10.898 
433.577 10.898 
454.067 13.969 
455.286 10.127 
461.019 10.898 
465.044 13.969 
470.532 20.113 
473.459 10.898 
478.094 13.199 
480.899 12.434 
485.412 12.434 
485.534 10.898 
492.608 10.898 
497.487 10.127 
497.609 11.663 
501.39 13.199 
501.512 10.127 
503.586 13.199 
510.172 13.199 
510.294 13.199 
513.466 13.969 
513.588 16.271 
519.198 11.663 
521.272 11.663 
525.663 10.898 
528.346 12.434 
528.59 10.898 
531.03 11.663 
536.763 71.578 
542.252 10.127 
551.034 12.434 
561.036 13.969 
562.622 10.127 
565.306 10.127 
566.647 10.898 
572.502 10.127 
580.309 12.434 
592.385 10.898 
592.507 10.898 
595.435 12.434 
595.679 15.505 
END IONS

