BEGIN IONS
PEPMASS=280.155
CHARGE=1+
COMPOUNDNAME=Isocycloheximide
LIBRARYQUALITY=3
SMILES=N/A
INCHIKEY=YPHMISFOHDHNIV-UHFFFAOYSA-N
INCHI=InChI=1S/C15H23NO4/c1-8-3-9(2)15(20)11(4-8)12(17)5-10-6-13(18)16-14(19)7-10/h8-12,17H,3-7H2,1-2H3,(H,16,18,19)
MSLEVEL=2
SOURCE_INSTRUMENT=N/A-ESI-QFT
FILENAME=library_mgf.mgf
SEQ=*..*
IONMODE=negative
ORGANISM=MONA
NAME=Isocycloheximide [M-H]-
PI=MoNA
DATACOLLECTOR=MoNA:VF-NPL-QEHF023904
PUBMED=N/A
SUBMITUSER=mwang87
TAGS=
SPECTRUMID=CCMSLIB00004714967
SCANS=23904
50.732414 0.054588 
51.122639 0.034677 
51.657818 0.052197 
51.969311 0.056764 
51.983578 0.059128 
52.634998 0.035715 
53.015118 0.054044 
53.047684 0.052795 
53.506744 0.057854 
53.666027 0.043156 
53.832695 0.047467 
55.695286 0.040683 
55.849495 0.039419 
56.01096 0.046733 
56.857483 0.050658 
58.028423 8.385939 
59.012455 2.364913 
61.071129 0.033561 
61.110889 0.044421 
61.211826 0.044463 
61.34729 0.049004 
61.805824 0.048434 
62.332211 0.049268 
63.039154 0.047864 
63.271587 0.055629 
63.94334 0.364074 
63.961086 0.06288 
63.989174 0.058407 
64.005707 0.048834 
64.8368 0.044361 
66.033531 15.213666 
67.01754 3.00432 
67.036835 0.152255 
67.147095 0.06131 
68.471863 0.047681 
69.022789 0.219495 
69.033211 100.0 
69.043701 0.192864 
69.231331 0.038028 
70.03656 4.108478 
70.039536 0.064759 
70.045639 0.049489 
71.081039 0.057777 
72.660988 0.056263 
75.025948 0.589765 
75.381218 0.046868 
75.640251 0.046773 
75.884598 0.059003 
76.951164 0.050761 
77.005112 0.049114 
77.034851 0.049758 
77.346542 0.048324 
77.362213 0.052717 
78.966774 0.99296 
78.984497 0.046107 
79.955978 5.370286 
80.963821 0.706862 
81.033249 0.748634 
81.32473 0.050351 
81.444038 0.05073 
81.95195 0.049652 
82.585327 0.040224 
83.033623 0.053569 
83.048866 4.159009 
83.277451 0.055899 
84.044159 1.191693 
85.028191 0.570036 
85.921532 0.047675 
86.980812 0.052755 
88.346809 0.04119 
89.526169 0.054077 
91.070854 0.054355 
91.32502 0.057173 
91.385696 0.038162 
91.529419 0.0514 
92.160019 0.041199 
92.431946 0.050474 
93.664558 0.043384 
93.936646 0.043534 
93.971542 0.046701 
94.028519 0.392966 
94.9795 0.920563 
95.01252 13.903688 
95.048904 0.573767 
95.827644 0.042309 
95.915405 0.039434 
96.015877 0.376779 
96.820381 0.034942 
96.958771 3.790724 
97.064629 0.048195 
97.810516 0.058217 
97.949196 0.046568 
97.974808 0.049583 
97.988235 0.038175 
98.059746 0.184731 
98.160309 0.04628 
99.9244 0.191959 
100.263367 0.056225 
100.289062 0.041167 
100.476608 0.038 
100.736473 0.057482 
102.236404 0.059877 
103.46402 0.054657 
103.848709 0.0526 
105.095078 0.051214 
106.838318 0.042493 
107.048744 0.067733 
108.018509 0.037171 
109.152779 0.048931 
110.023491 64.134438 
110.137688 0.038026 
111.026718 3.029614 
111.043846 0.235464 
112.039124 2.825331 
112.628464 0.034752 
113.059364 0.045321 
113.453621 0.036146 
116.357742 0.04881 
119.022011 0.055618 
120.377487 0.050402 
120.42495 0.050853 
120.946678 0.040738 
121.065117 0.058784 
123.080322 26.62402 
124.039558 0.107666 
124.083656 1.910277 
125.09597 29.552334 
126.099213 1.780085 
130.587418 0.051079 
131.777176 0.041176 
134.820435 0.039396 
135.079758 0.048902 
135.778107 0.058733 
136.226028 0.049151 
137.179794 0.059863 
140.251541 0.043908 
145.334534 0.044208 
147.259399 0.05217 
149.096115 1.661926 
151.111664 12.111825 
152.115143 0.516749 
154.04982 5.905785 
154.894363 0.062872 
157.746124 0.050761 
158.782516 0.04678 
165.599442 0.059419 
166.954315 0.057848 
167.106888 0.931464 
171.831665 0.049869 
174.655975 0.039978 
177.127457 6.452036 
178.131088 0.353543 
179.686707 0.043744 
187.536865 0.057503 
191.218307 0.047458 
192.354843 0.038018 
193.122147 0.03937 
196.182281 0.045323 
197.301971 0.051096 
197.856567 0.05329 
203.108063 0.047083 
203.326172 0.060036 
204.681747 0.047347 
212.375595 0.054325 
219.590225 0.542413 
219.605103 0.082895 
223.093781 0.058117 
224.763077 0.046852 
230.528824 0.043445 
238.410797 0.037464 
240.289978 0.065229 
241.042938 0.06339 
242.572052 0.052226 
248.166351 0.046519 
248.512039 0.044263 
248.69368 0.061124 
250.141571 0.039896 
252.466324 0.063732 
254.664215 0.04475 
254.88855 0.061091 
264.614624 0.062464 
270.165924 0.044019 
272.108215 0.062737 
281.12088 0.041538 
284.342682 0.055747 
285.293121 0.053849 
297.509186 0.059046 
299.416138 0.064026 
303.427277 0.06723 
303.700378 0.045473 
END IONS

