BEGIN IONS
PEPMASS=568.43
CHARGE=1+
COMPOUNDNAME=Massbank:CA000107 Zeaxanthin
LIBRARYQUALITY=3
SMILES=C(=CC=C(C=CC=C(C)C=CC(=C(C)2)C(C)(C)CC(C2)O)C)C=C(C=CC=C(C)C=CC(=C(C)1)C(C)(C)CC(C1)O)C
INCHIKEY=JKQXZKUSFCKOGQ-UHFFFAOYSA-N
INCHI=1S/C40H56O2/c1-29(17-13-19-31(3)21-23-37-33(5)25-35(41)27-39(37,7)8)15-11-12-16-30(2)18-14-20-32(4)22-24-38-34(6)26-36(42)28-40(38,9)10/h11-24,35-36,41-42H,25-28H2,1-10H3/b12-11+,17-13+,18-14+,23-21+,24-22+,29-15+,30-16+,31-19+,32-20+/t35-,36-/m1/s1
MSLEVEL=2
SOURCE_INSTRUMENT=ESI-FAB-EBEB
FILENAME=Massbank_ESI_positive_8_1_2014_peaks.mgf
SEQ=*..*
IONMODE=Positive
ORGANISM=MASSBANK
NAME=Massbank:CA000107 Zeaxanthin [M]+*
PI=Putative Massbank Match
DATACOLLECTOR=Massbank
PUBMED=N/A
SUBMITUSER=mwang87
TAGS=
SPECTRUMID=CCMSLIB00000205554
SCANS=814
12.023 0.01 
13.0074 0.01 
14.038 0.02 
15.0388 0.16 
16.0461 0.01 
19.0465 0.01 
23.0143 0.01 
25.0239 0.01 
26.0386 0.17 
27.0448 1.56 
28.0484 0.16 
29.0524 2.07 
30.0269 0.02 
31.0298 0.29 
36.221 0.01 
37.027 0.11 
37.6381 0.01 
38.0308 0.28 
38.383 0.01 
38.6289 0.01 
39.0434 2.87 
39.4213 0.01 
40.043 0.23 
41.0478 5.69 
42.0583 0.12 
43.0385 4.06 
43.4565 0.01 
44.0503 0.11 
45.0382 0.19 
49.033 0.03 
50.0157 0.5 
50.3833 0.01 
50.6296 0.01 
51.0208 1.29 
52.0215 0.41 
52.5111 0.01 
53.0223 2.44 
54.0353 0.11 
54.5767 0.01 
55.0275 6.88 
56.0214 0.1 
57.0362 4.37 
58.0076 0.04 
58.2512 0.01 
59.0241 0.7 
60.0022 0.01 
61.0525 0.07 
62.0142 0.4 
62.5053 0.01 
63.0115 1.15 
63.4834 0.02 
64.0118 0.27 
65.0149 2.27 
65.4192 0.01 
66.0149 0.39 
67.02 4.47 
68.0181 0.17 
69.0247 5.9 
70.0495 0.06 
70.3656 0.01 
71.0087 1.4 
71.5583 0.01 
72.0674 0.02 
72.5152 0.01 
73.0186 0.07 
74.0047 0.34 
74.4947 0.02 
75.0137 0.56 
75.5236 0.03 
76.0073 0.34 
76.3248 0.05 
77.0139 8.36 
78.0148 1.62 
79.0262 8.31 
80.0281 0.93 
81.0304 9.75 
81.6599 0.01 
82.0279 0.21 
83.0382 3.29 
84.031 0.07 
84.3431 0.01 
85.0252 5.3 
86.0231 0.19 
86.5072 0.01 
87.0147 0.25 
88.0176 0.11 
89.0319 1.03 
90.0449 0.43 
91.0409 19.43 
92.0354 1.77 
93.0489 13.92 
94.0513 0.88 
95.0564 8.85 
95.7016 0.05 
96.0376 0.3 
96.5621 0.04 
97.056 0.93 
97.5777 0.01 
98.0217 0.13 
98.4375 0.02 
99.0533 0.2 
100.0347 0.07 
101.0351 0.29 
101.3458 0.06 
102.0439 1.09 
103.0506 3.4 
104.0435 1.56 
105.0513 26.42 
106.0437 2.59 
107.0608 12.95 
108.056 0.85 
109.0609 6.55 
109.5546 0.08 
110.0634 0.27 
111.041 0.89 
111.5297 0.02 
111.7122 0.01 
112.0481 0.04 
113.0342 0.31 
114.0244 0.4 
115.039 9.79 
116.0282 3.76 
117.0391 10.28 
118.0394 1.96 
119.0398 28.12 
120.0456 3.01 
121.0489 9.38 
122.0237 0.51 
123.0392 2.17 
124.0438 0.15 
125.0497 0.42 
126.038 0.44 
127.037 3.8 
128.0278 11.19 
129.0252 13.84 
130.0225 5.27 
131.032 15.77 
132.033 2.71 
133.0367 14.33 
134.0442 1.43 
135.0378 6.45 
135.9949 0.48 
137.0262 1.46 
137.984 0.21 
139.0216 1.49 
140.0397 0.59 
141.0283 9.61 
142.0318 9.66 
143.0336 17.62 
144.0406 5.71 
145.0486 19.15 
146.0506 1.79 
147.0633 6.3 
148.0394 0.65 
149.0681 3.71 
150.039 0.37 
151.0822 1.55 
152.0605 3.95 
153.0607 5.58 
154.0702 2.89 
155.0652 10.71 
156.0723 7.74 
157.0788 16.9 
158.0848 3.76 
159.1015 10.59 
160.1007 1.51 
161.0965 3.26 
162.0917 0.44 
163.1103 1.52 
164.0901 0.75 
165.0905 8.7 
166.0958 3.19 
167.0977 7.66 
168.0945 3.52 
169.107 11.55 
170.1075 4.54 
171.1116 9.39 
172.1107 1.88 
173.1205 6.24 
174.1139 0.71 
175.1293 3.97 
176.0843 0.9 
177.0911 1.5 
178.0901 4.73 
179.0869 7.76 
180.0885 3.38 
181.0952 9.07 
182.0953 3.46 
183.096 10.32 
184.0974 2.43 
185.1022 5.16 
186.1063 1.04 
187.1023 2.49 
188.0804 0.47 
189.0833 2.96 
190.0811 1.13 
191.0781 3.36 
192.0813 3.4 
193.0823 6.66 
194.078 3.55 
195.0815 9.78 
196.0942 2.74 
197.0974 7.87 
198.0853 1.08 
199.0967 2.62 
200.0582 0.6 
201.0952 2.09 
202.0721 2.57 
203.0842 3.31 
204.091 1.43 
205.0853 3.6 
206.0816 2.76 
207.087 6.02 
208.103 2.72 
209.0964 6.97 
210.1003 1.57 
210.538 0.13 
211.1178 3.21 
212.101 0.59 
213.1296 1.41 
214.118 0.42 
215.0996 2.91 
216.1063 1.4 
217.1091 3.38 
218.1138 1.42 
219.1161 3.81 
220.1245 1.83 
221.1218 4.19 
222.1355 1.24 
223.1409 2.97 
224.157 0.85 
225.1515 1.77 
226.164 0.75 
227.1316 1.13 
228.1449 1.02 
229.1298 2.42 
230.1171 1.01 
231.1282 2.68 
232.1441 1.45 
233.1457 3.3 
234.1594 1.21 
235.1501 2.96 
236.1558 0.73 
237.1604 1.88 
238.1712 0.52 
239.1633 1.58 
240.1529 0.55 
241.1487 1.36 
242.117 0.65 
243.1472 1.88 
244.1601 0.97 
245.1499 2.09 
246.1415 1.12 
247.1643 2.63 
248.1815 0.7 
249.183 1.89 
250.1774 0.51 
251.1795 1.11 
252.1628 0.66 
253.1581 1.1 
254.192 0.49 
255.1806 1.7 
256.1694 0.76 
257.179 1.71 
258.1801 0.89 
259.1786 1.95 
260.1803 0.72 
261.1823 1.91 
262.189 0.62 
263.2034 1.37 
264.1754 0.26 
265.183 0.89 
266.1127 0.46 
267.1887 1.02 
268.1898 0.5 
269.1867 1.47 
270.1618 0.57 
271.2079 1.29 
272.1865 0.56 
273.188 1.02 
274.1942 0.44 
275.2153 1.0 
276.2117 0.44 
277.2231 0.68 
278.2303 0.34 
279.2009 0.75 
280.1525 0.34 
281.1989 0.93 
282.1909 0.41 
283.2083 1.4 
284.1815 0.61 
285.2112 1.26 
286.2012 0.46 
287.1944 0.94 
288.2352 0.28 
289.2037 0.64 
290.2064 0.3 
291.2137 0.48 
292.1591 0.3 
293.2321 0.53 
294.1705 0.21 
295.2129 0.78 
296.1888 0.43 
297.1945 1.06 
298.1975 0.53 
299.1992 0.65 
300.2249 0.29 
301.2256 0.59 
302.2339 0.27 
303.2098 0.53 
304.2097 0.27 
305.183 0.47 
306.1774 0.29 
307.2164 0.53 
308.1592 0.2 
309.1838 0.55 
310.228 0.37 
311.1906 0.48 
312.1802 0.27 
313.1863 0.41 
314.1912 0.21 
315.2096 0.46 
316.1732 0.21 
317.2277 0.51 
318.2095 0.24 
319.2094 0.43 
320.2094 0.23 
321.2528 0.6 
322.2755 0.25 
323.2479 0.34 
324.2054 0.17 
325.2302 0.27 
326.2373 0.18 
327.1984 0.34 
328.2625 0.17 
329.2239 0.39 
330.2347 0.17 
331.2636 0.4 
332.2184 0.19 
333.2443 0.53 
334.2734 0.15 
335.2445 0.62 
336.2546 0.35 
337.2529 0.6 
338.3036 0.26 
339.2828 0.17 
340.2787 0.13 
341.2403 0.21 
342.2693 0.18 
343.1865 0.31 
344.1949 0.21 
345.2363 0.53 
346.2211 0.22 
347.2733 0.54 
348.2166 0.42 
349.2616 0.74 
350.244 0.33 
351.2655 0.45 
352.2064 0.2 
353.2192 0.23 
353.6614 0.05 
354.2963 0.14 
355.3124 0.21 
356.2419 0.19 
357.2673 0.38 
358.3077 0.23 
359.2484 0.45 
360.2025 0.24 
361.2791 0.6 
362.2587 0.81 
363.3028 0.46 
364.3036 0.39 
365.2912 0.17 
366.2012 0.05 
367.3086 0.09 
367.6927 0.05 
368.3055 0.06 
369.2278 0.19 
370.2056 0.13 
371.2732 0.25 
372.1914 0.31 
373.254 0.73 
374.2698 0.23 
375.2498 0.85 
376.2555 0.36 
377.2298 0.2 
377.7484 0.02 
378.2566 0.07 
379.2775 0.11 
379.6004 0.06 
380.345 0.09 
381.2869 0.12 
382.2439 0.07 
383.3192 0.13 
384.2166 0.1 
384.61 0.05 
385.2668 0.2 
386.2213 0.13 
387.2567 0.46 
388.2503 0.47 
389.1917 0.69 
390.2394 0.11 
391.2513 0.16 
392.2484 0.06 
393.2831 0.17 
394.3658 0.07 
395.3108 0.1 
395.8949 0.05 
396.4626 0.09 
397.3315 0.11 
398.2139 0.09 
399.3122 0.35 
400.2023 0.14 
401.2288 1.05 
402.2765 0.45 
403.2614 0.58 
404.2972 0.19 
405.2194 0.11 
406.309 0.07 
406.6877 0.01 
407.2655 0.07 
408.3164 0.06 
409.3271 0.07 
410.3243 0.5 
411.395 0.09 
411.741 0.04 
412.2547 0.07 
413.3151 0.25 
414.2798 0.3 
415.2641 1.17 
416.2634 0.42 
417.2509 0.91 
418.2564 0.18 
419.2845 0.06 
420.2558 0.05 
421.3872 0.09 
421.7271 0.02 
422.2451 0.09 
423.2963 0.22 
424.2443 0.12 
425.2477 0.09 
426.133 0.08 
427.2415 0.19 
428.3006 0.76 
429.3224 0.29 
430.1586 0.11 
431.2046 0.38 
432.2866 0.17 
433.2084 0.2 
433.7809 0.1 
434.385 0.07 
435.2935 0.08 
436.2395 0.15 
437.3206 0.14 
438.3627 0.1 
441.1163 0.32 
442.3418 0.18 
443.791 0.13 
446.6989 0.44 
448.2072 0.19 
449.2623 0.21 
450.4647 0.11 
451.3744 0.11 
452.3622 0.09 
454.5154 0.22 
457.7891 0.28 
459.9484 0.2 
461.3882 0.51 
462.2851 0.64 
463.0891 0.15 
463.5721 0.09 
464.6432 0.04 
465.3708 0.11 
466.097 0.11 
467.3319 0.08 
468.2982 0.39 
469.0951 0.1 
469.4718 0.05 
470.1997 0.1 
470.8571 0.08 
471.3869 0.06 
472.271 0.12 
474.3396 0.31 
476.3185 28.94 
477.338 0.32 
478.0018 0.2 
479.1311 0.14 
479.9571 0.1 
480.4513 0.11 
481.2834 0.16 
482.2703 0.16 
483.3653 0.1 
484.2935 0.06 
484.5875 0.03 
485.0764 0.03 
486.1007 0.06 
486.4112 0.03 
487.3891 0.19 
488.3221 0.53 
489.3301 0.76 
490.2497 0.06 
490.8258 0.01 
491.2804 0.11 
492.1881 0.08 
493.3375 0.16 
494.1868 0.15 
495.4729 0.1 
496.2323 0.16 
496.564 0.06 
497.3685 0.07 
498.143 0.05 
498.6293 0.06 
498.952 0.02 
499.3558 0.03 
499.8737 0.02 
500.3121 0.03 
501.0132 0.02 
501.5536 0.01 
502.0911 0.03 
502.3253 0.01 
502.7938 0.01 
503.1556 0.02 
504.2202 0.07 
504.5491 0.02 
505.2954 0.06 
506.252 0.08 
506.6199 0.04 
507.2732 0.26 
508.1819 0.33 
508.4297 0.17 
509.3159 0.13 
510.2353 0.26 
511.2036 0.08 
511.6908 0.04 
512.3444 0.13 
512.5843 0.07 
513.4028 0.05 
514.1674 0.04 
514.7657 0.01 
514.9636 0.01 
515.4449 0.03 
515.8707 0.04 
516.1361 0.03 
516.541 0.02 
517.1378 0.04 
517.5082 0.08 
518.0225 0.02 
518.3015 0.04 
519.3392 0.07 
520.2196 0.14 
521.2185 0.15 
522.189 0.32 
523.1955 0.55 
524.2336 0.63 
525.2792 0.07 
526.2829 0.09 
527.0841 0.08 
527.8163 0.05 
528.7122 0.04 
529.8105 0.07 
530.858 0.06 
531.3908 0.09 
532.3258 0.06 
532.7581 0.05 
533.3344 0.06 
534.28 0.16 
535.4028 0.35 
536.2809 0.39 
537.2792 0.23 
538.222 0.56 
539.1288 0.84 
540.1153 0.17 
541.4381 0.12 
550.3956 4.96 
551.3301 1.23 
552.2345 2.68 
553.3339 6.38 
568.3062 99.97 
571.4632 6.08 
573.0637 1.7 
END IONS

