BEGIN IONS
PEPMASS=281.175
CHARGE=1+
COMPOUNDNAME=Massbank:FIO00531 Brefeldin-A
LIBRARYQUALITY=3
SMILES=C[C@@H](C2)OC(=O)C=C[C@@H](O)[C@]([H])(C1)[C@]([H])(C=CCC2)C[C@H](O)1
INCHIKEY=KQNZDYYTLMIZCT-XPABHHOTSA-N
INCHI=1S/C16H24O4/c1-11-5-3-2-4-6-12-9-13(17)10-14(12)15(18)7-8-16(19)20-11/h4,6-8,11-15,17-18H,2-3,5,9-10H2,1H3/b6-4+,8-7+/t11-,12+,13-,14+,15+/m0/s1
MSLEVEL=2
SOURCE_INSTRUMENT=ESI-LC-ESI-QTOF
FILENAME=Massbank_ESI_positive_8_1_2014_peaks.mgf
SEQ=*..*
IONMODE=Positive
ORGANISM=MASSBANK
NAME=Massbank:FIO00531 Brefeldin-A [M+H]+
PI=Putative Massbank Match
DATACOLLECTOR=Massbank
PUBMED=N/A
SUBMITUSER=mwang87
TAGS=
SPECTRUMID=CCMSLIB00000214418
SCANS=6784
91.0559 256.0 
93.0694 320.0 
95.0856 958.0 
99.0081 246.0 
101.023 320.0 
105.0701 798.0 
107.0861 684.0 
109.1019 694.0 
111.0443 210.0 
113.0601 282.0 
117.0703 1316.0 
119.0868 1118.0 
121.1017 1428.0 
123.044 442.0 
123.1177 738.0 
125.0602 184.0 
129.0705 970.0 
131.0857 1492.0 
132.089 200.0 
133.0651 1578.0 
134.1069 184.0 
135.1172 516.0 
137.0591 334.0 
139.0393 588.0 
141.0554 242.0 
143.0855 1266.0 
144.0902 210.0 
145.1014 1404.0 
146.1066 168.0 
147.0812 932.0 
149.0599 1356.0 
149.1327 316.0 
151.076 1852.0 
157.101 1848.0 
158.1048 178.0 
159.117 3254.0 
160.1235 950.0 
161.0603 786.0 
161.1316 504.0 
163.0755 1124.0 
163.1484 2436.0 
164.1519 282.0 
165.0912 384.0 
167.0701 548.0 
171.116 838.0 
172.1205 116.0 
173.1316 722.0 
175.0758 1276.0 
175.1478 234.0 
176.0784 158.0 
177.0906 558.0 
178.0951 112.0 
179.0711 240.0 
181.0886 152.0 
183.1171 456.0 
185.1319 1814.0 
186.136 326.0 
187.1129 118.0 
189.0907 1208.0 
189.1634 528.0 
190.0942 216.0 
191.0884 110.0 
193.0843 194.0 
197.1327 134.0 
199.1479 4874.0 
200.1507 634.0 
201.1628 298.0 
203.1067 790.0 
209.1329 364.0 
217.1582 856.0 
218.1627 170.0 
219.1364 162.0 
227.1427 1230.0 
228.145 118.0 
235.1695 166.0 
245.1534 3166.0 
246.1571 542.0 
247.1568 102.0 
263.1635 314.0 
END IONS

