BEGIN IONS
PEPMASS=321.133
CHARGE=1+
COMPOUNDNAME=Massbank:EA280810 Mycophenolic acid| (E)-6-(4-hydroxy-3-keto-6-methoxy-7-methyl-phthalan-5-yl)-4-methyl-hex-4-enoic acid
LIBRARYQUALITY=3
SMILES=c12c(c(c(C\C=C(\CCC(O)=O)C)c(c1C)OC)O)C(=O)OC2
INCHIKEY=HPNSFSBZBAHARI-RUDMXATFSA-N
INCHI=1S/C17H20O6/c1-9(5-7-13(18)19)4-6-11-15(20)14-12(8-23-17(14)21)10(2)16(11)22-3/h4,20H,5-8H2,1-3H3,(H,18,19)/b9-4+
MSLEVEL=2
SOURCE_INSTRUMENT=ESI-LC-ESI-ITFT
FILENAME=Massbank_ESI_positive_8_1_2014_peaks.mgf
SEQ=*..*
IONMODE=Positive
ORGANISM=MASSBANK
NAME=Massbank:EA280810 Mycophenolic acid| (E)-6-(4-hydroxy-3-keto-6-methoxy-7-methyl-phthalan-5-yl)-4-methyl-hex-4-enoic acid [M+H]+
PI=Putative Massbank Match
DATACOLLECTOR=Massbank
PUBMED=N/A
SUBMITUSER=mwang87
TAGS=
SPECTRUMID=CCMSLIB00000211260
SCANS=5226
81.0699 20451.8 
91.0543 8365.7 
103.0542 3829.8 
109.0648 10939.7 
135.0805 10309.6 
159.0441 208783.0 
175.0755 10092.5 
177.0546 43555.1 
179.0703 7509.9 
193.0496 5617.4 
195.0652 145505.2 
207.0652 3621005.5 
215.1066 15441.1 
219.0651 16639.7 
221.0805 11618.2 
223.06 26370.1 
233.0812 4421.5 
239.1065 7323.1 
241.1226 4850.9 
247.0963 9835.5 
257.1179 6330.9 
259.0964 16175.9 
261.1121 27119.4 
275.1279 124314.5 
285.1121 89933.1 
303.1227 44572.8 
END IONS

