BEGIN IONS
PEPMASS=281.175
CHARGE=1+
COMPOUNDNAME=Massbank:FIO00530 Brefeldin-A
LIBRARYQUALITY=3
SMILES=C[C@@H](C2)OC(=O)C=C[C@@H](O)[C@]([H])(C1)[C@]([H])(C=CCC2)C[C@H](O)1
INCHIKEY=KQNZDYYTLMIZCT-XPABHHOTSA-N
INCHI=1S/C16H24O4/c1-11-5-3-2-4-6-12-9-13(17)10-14(12)15(18)7-8-16(19)20-11/h4,6-8,11-15,17-18H,2-3,5,9-10H2,1H3/b6-4+,8-7+/t11-,12+,13-,14+,15+/m0/s1
MSLEVEL=2
SOURCE_INSTRUMENT=ESI-LC-ESI-QTOF
FILENAME=Massbank_ESI_positive_8_1_2014_peaks.mgf
SEQ=*..*
IONMODE=Positive
ORGANISM=MASSBANK
NAME=Massbank:FIO00530 Brefeldin-A [M+H]+
PI=Putative Massbank Match
DATACOLLECTOR=Massbank
PUBMED=N/A
SUBMITUSER=mwang87
TAGS=
SPECTRUMID=CCMSLIB00000214415
SCANS=6783
95.0853 496.0 
99.081 331.0 
105.0715 379.0 
107.0866 361.0 
109.1017 360.0 
113.0969 719.0 
117.0703 441.0 
119.0863 509.0 
121.1019 732.0 
123.118 715.0 
129.07 276.0 
131.0863 988.0 
133.102 1069.0 
135.1166 429.0 
137.0615 277.0 
139.0401 269.0 
141.0557 284.0 
143.0859 389.0 
145.102 631.0 
147.1171 455.0 
149.06 1324.0 
151.0758 2860.0 
152.079 276.0 
157.1015 680.0 
159.1172 2252.0 
160.1225 407.0 
161.0605 871.0 
161.1331 647.0 
163.1487 6580.0 
164.1523 593.0 
165.0915 677.0 
167.0707 833.0 
171.1168 551.0 
173.1328 857.0 
175.0759 1221.0 
177.0911 459.0 
179.0885 363.0 
181.0862 324.0 
183.1171 605.0 
185.0809 468.0 
185.1327 2352.0 
189.0912 1192.0 
193.0871 268.0 
199.1482 8133.0 
200.1515 1251.0 
201.1629 541.0 
203.1066 669.0 
209.1327 711.0 
217.1586 3480.0 
218.1625 431.0 
219.1383 491.0 
227.1432 3947.0 
228.1462 665.0 
235.169 579.0 
245.1538 25009.0 
246.157 4204.0 
247.1597 368.0 
263.1645 9004.0 
264.1681 1399.0 
281.1749 7000.0 
282.1783 1117.0 
END IONS

