BEGIN IONS
PEPMASS=321.133
CHARGE=1+
COMPOUNDNAME=Mycophenolic Acid
LIBRARYQUALITY=3
SMILES=N/A
INCHIKEY=HPNSFSBZBAHARI-RUDMXATFSA-N
INCHI=InChI=1S/C17H20O6/c1-9(5-7-13(18)19)4-6-11-15(20)14-12(8-23-17(14)21)10(2)16(11)22-3/h4,20H,5-8H2,1-3H3,(H,18,19)/b9-4+
MSLEVEL=2
SOURCE_INSTRUMENT=N/A-ESI-QFT
FILENAME=library_mgf.mgf
SEQ=*..*
IONMODE=positive
ORGANISM=MONA
NAME=Mycophenolic Acid [M+H]+
PI=MoNA
DATACOLLECTOR=MoNA:VF-NPL-QEHF004805
PUBMED=N/A
SUBMITUSER=mwang87
TAGS=
SPECTRUMID=CCMSLIB00004695868
SCANS=4805
50.061756 0.008114 
50.307995 0.007932 
50.516487 0.004763 
50.63892 0.007485 
50.984871 0.006752 
51.326206 0.003505 
51.641006 0.01012 
51.70631 0.004008 
51.708054 0.00412 
51.817902 0.006301 
52.74535 0.004401 
53.076855 0.007199 
54.511845 0.004803 
54.698853 0.004623 
54.744335 0.004232 
54.900532 0.007352 
55.018654 0.392955 
55.098763 0.0073 
56.402344 0.007329 
56.881607 0.005401 
56.902954 0.008983 
57.115597 0.008532 
57.698303 0.007132 
57.979824 0.005748 
58.083096 0.004045 
58.894104 0.004922 
59.400566 0.004734 
60.238277 0.004172 
60.590481 0.005487 
60.702789 0.004855 
61.278744 0.005938 
61.310299 0.007833 
61.521793 0.004077 
62.165169 0.004457 
62.452755 0.004181 
62.549129 0.006785 
63.145897 0.007628 
63.619438 0.005239 
64.016319 0.005103 
64.536514 0.004331 
64.607796 0.004864 
65.352287 0.005346 
65.39225 0.007286 
65.8125 0.006045 
65.955719 0.004437 
66.715202 0.003951 
67.055016 0.020918 
67.527061 0.005707 
67.58432 0.004248 
68.41835 0.007629 
68.544861 0.00422 
69.430573 0.007699 
69.753273 0.006552 
69.785378 0.00766 
70.193741 0.005022 
70.84108 0.004701 
70.923172 0.008126 
70.990494 0.005127 
71.153061 0.005219 
71.293777 0.004847 
71.391449 0.005446 
71.811386 0.004646 
71.818199 0.003209 
73.117348 0.004113 
74.644684 0.007893 
75.355301 0.005444 
75.634987 0.005211 
75.976212 0.004172 
77.033577 0.003794 
77.183357 0.004337 
77.386078 0.004532 
78.800865 0.003332 
79.049232 0.005542 
79.054863 0.201825 
79.571884 0.004069 
81.070518 1.656501 
81.353546 0.00569 
81.362625 0.004476 
82.073547 0.00357 
85.403259 0.004271 
85.76265 0.007356 
85.85556 0.004283 
86.12059 0.005838 
86.907501 0.005321 
87.651237 0.005819 
87.927269 0.007501 
89.617973 0.003726 
89.797043 0.005037 
91.054893 0.1779 
91.53112 0.005811 
92.833786 0.005402 
93.045158 0.005925 
93.070442 0.068027 
93.575096 0.005428 
93.66864 0.00548 
93.710785 0.006214 
95.049744 0.007828 
95.882599 0.006906 
96.409004 0.005085 
96.457367 0.006972 
97.065407 0.007052 
97.249077 0.007869 
97.911606 0.004456 
98.0131 0.006331 
100.444656 0.007906 
100.674767 0.0048 
101.442902 0.004787 
101.660294 0.005597 
101.963043 0.00391 
103.05481 0.037502 
103.219467 0.005642 
103.29023 0.007626 
105.253479 0.005625 
105.341675 0.00488 
106.027351 0.007631 
106.191513 0.004558 
109.065163 0.52793 
109.431854 0.005727 
110.431435 0.005846 
110.829147 0.006057 
111.048164 0.004782 
111.584648 0.006058 
113.24015 0.005601 
113.339142 0.007582 
113.408569 0.00529 
114.409492 0.006151 
115.506462 0.006335 
116.499115 0.005196 
116.7705 0.004091 
119.769356 0.005049 
120.365158 0.005262 
121.322525 0.005532 
121.952721 0.004707 
122.423584 0.005043 
125.047729 0.004988 
125.584526 0.005678 
126.440613 0.005004 
127.075516 0.083808 
128.233551 0.005984 
128.668884 0.008 
129.76123 0.006572 
132.812164 0.007061 
134.889801 0.00558 
135.080551 0.585187 
137.022552 0.008034 
137.91687 0.004287 
139.728424 0.004811 
140.655045 0.004597 
143.067413 0.005901 
145.106659 0.004457 
145.171661 0.004831 
145.444275 0.004379 
146.352402 0.005569 
146.569595 0.003436 
147.021317 0.005128 
147.538818 0.003402 
148.074539 0.003819 
149.059891 0.013454 
149.536774 0.004707 
149.944229 0.00499 
150.439667 0.005109 
150.87619 0.005177 
151.584991 0.004505 
156.052383 0.005452 
156.5383 0.004846 
157.089874 0.006984 
157.599213 0.005516 
157.79628 0.005102 
159.044128 6.242976 
159.726913 0.005609 
160.047562 0.573885 
160.077682 0.005725 
160.366302 0.006018 
161.059784 0.12201 
161.507538 0.00417 
163.075043 0.005964 
163.512405 0.007636 
164.136932 0.00749 
164.717651 0.005217 
165.86084 0.005324 
166.261002 0.00458 
169.049759 0.016848 
171.926651 0.007566 
171.953064 0.005243 
172.141953 0.004586 
172.242691 0.00665 
173.889771 0.007545 
174.958252 0.01032 
175.075455 0.460345 
176.767792 0.008455 
177.054733 10.886001 
177.59729 0.005778 
177.685593 0.005965 
178.058044 1.10401 
179.060974 0.005714 
179.070328 0.412367 
182.260284 0.007809 
185.068054 0.003061 
189.998123 0.005376 
190.762939 0.003933 
191.070389 0.041006 
193.04953 0.235212 
193.787048 0.005461 
195.065353 4.32504 
196.068604 0.368503 
198.199158 0.004036 
202.879639 0.004205 
205.050278 0.025646 
205.820541 0.005702 
207.047104 0.057131 
207.065277 100.0 
207.89238 0.004871 
208.068619 11.709803 
208.080383 0.165148 
209.070572 0.583242 
209.293274 0.005273 
209.584534 0.008873 
211.072357 0.005136 
215.018723 0.158211 
215.029266 0.230181 
215.033035 0.21939 
215.044907 0.013548 
215.09726 0.004527 
215.106781 0.714061 
216.111572 0.017004 
219.065247 0.497481 
220.067642 0.006141 
221.080811 0.216146 
223.06012 0.772067 
224.06488 0.009507 
226.038803 0.006112 
226.997528 0.004749 
227.361771 0.006674 
228.917099 0.009667 
229.122162 0.005694 
230.512558 0.005232 
233.08075 0.064245 
235.141373 0.006359 
237.594086 0.006032 
239.09198 0.017946 
239.106598 0.307586 
239.373947 0.005966 
240.1091 0.006545 
241.122055 0.076889 
244.892273 0.006766 
245.081253 0.007171 
247.096512 0.207484 
248.099655 0.005284 
257.117157 0.086929 
259.09668 0.308237 
259.113495 0.006008 
259.178223 0.004399 
261.112427 0.474045 
267.101471 0.010757 
270.088776 0.08475 
275.127869 1.461624 
276.131165 0.15373 
276.776154 0.004194 
278.932373 0.005389 
279.90509 0.005739 
280.451508 0.005684 
282.166107 0.005042 
285.112 1.644561 
286.115479 0.253014 
287.80423 0.005177 
288.995026 0.005707 
303.122528 0.266999 
307.065796 0.004866 
321.134247 0.014066 
330.171997 0.004445 
338.387268 0.008696 
339.152588 0.006054 
END IONS

