BEGIN IONS
PEPMASS=405.207
CHARGE=1+
COMPOUNDNAME=MoNA:954274 Lincomycin
LIBRARYQUALITY=3
SMILES=N/A
INCHIKEY=OJMMVQQUTAEWLP-UHFFFAOYSA-N
INCHI=InChI=1S/C18H34N2O6S/c1-5-6-10-7-11(20(3)8-10)17(25)19-12(9(2)21)16-14(23)13(22)15(24)18(26-16)27-4/h9-16,18,21-24H,5-8H2,1-4H3,(H,19,25)
MSLEVEL=2
SOURCE_INSTRUMENT=LC-ESI-QFT-LC-ESI-QFT
FILENAME=output_mgf.mgf
SEQ=*..*
IONMODE=
ORGANISM=MONA
NAME=MoNA:954274 Lincomycin [M-H]-
PI=MoNA
DATACOLLECTOR=MoNA
PUBMED=N/A
SUBMITUSER=mwang87
TAGS=
SPECTRUMID=CCMSLIB00000569149
SCANS=6400
50.0036 12.833538 
51.0239 5.235395 
52.0192 11.733221 
53.0032 7.008234 
55.0189 70.005632 
56.9805 6.930574 
57.0346 38.488106 
58.006 6.280214 
58.0297 3.966805 
59.0139 65.80026 
60.9754 9.962415 
63.0239 1.19455 
63.9625 2.266229 
64.0192 1.333487 
65.0032 4.10879 
65.0397 11.147948 
65.9985 8.958553 
66.0349 30.273447 
67.019 31.523115 
68.0142 31.667512 
68.9983 69.549199 
69.0346 83.538807 
70.0299 16.665725 
71.0139 100.0 
71.9676 1.322819 
72.9755 7.732254 
72.9933 10.726884 
73.0296 4.924629 
73.9833 22.879645 
76.0193 4.463942 
77.0034 3.74824 
78.0349 10.088461 
79.0189 3.92007 
80.0142 2.012739 
80.0506 12.712445 
81.022 39.810226 
81.0346 24.82679 
82.0298 17.831002 
82.9962 7.886367 
83.0138 4.227851 
83.0502 7.870111 
84.0092 1.87666 
84.0217 5.327787 
84.0454 2.10875 
85.0295 19.85606 
86.0009 0.913375 
86.991 1.399907 
87.0087 10.583057 
88.9702 4.31529 
89.0033 1.360537 
90.0349 4.934916 
93.0345 2.074905 
94.0298 97.914173 
95.0139 8.423254 
96.009 1.130733 
96.0454 1.123367 
97.0295 13.372775 
98.0247 9.69794 
98.9911 1.054216 
99.9988 1.17785 
101.9781 1.850625 
104.0141 1.806049 
105.022 11.503481 
106.0298 4.230518 
107.0378 1.910315 
108.0217 35.063585 
108.0454 2.050521 
109.017 8.488595 
109.066 1.892281 
110.0247 1.196645 
110.991 4.733115 
118.03 5.04839 
120.0455 1.285862 
122.0248 28.6184 
123.0326 4.93263 
124.04 1.671176 
138.0019 10.385257 
END IONS

