BEGIN IONS
PEPMASS=361.136
CHARGE=1+
COMPOUNDNAME=rabelomycin
LIBRARYQUALITY=3
SMILES=N/A
INCHIKEY=JJOLHRYZQSDLSA-UHFFFAOYSA-N
INCHI=InChI=1S/C19H14O6/c1-19(25)6-8-5-11(21)15-16(13(8)12(22)7-19)17(23)9-3-2-4-10(20)14(9)18(15)24/h2-5,20-21,25H,6-7H2,1H3
MSLEVEL=2
SOURCE_INSTRUMENT=N/A-Linear Ion Trap
FILENAME=library_mgf.mgf
SEQ=*..*
IONMODE=positive
ORGANISM=MONA
NAME=rabelomycin M-H
PI=MoNA
DATACOLLECTOR=MoNA:VF-NPL-LTQ000635
PUBMED=N/A
SUBMITUSER=mwang87
TAGS=
SPECTRUMID=CCMSLIB00004684882
SCANS=503
173.039993 0.856067 
185.039993 10.301033 
262.130005 1.721989 
276.130005 1.946102 
282.98999 7.839786 
287.079987 1.941552 
290.079987 27.457594 
301.170013 4.251027 
304.160004 9.442099 
316.190002 11.438909 
328.149994 8.357792 
329.109985 16.850313 
333.109985 100.0 
343.109985 95.389931 
360.149994 65.402405 
END IONS

