BEGIN IONS
PEPMASS=639.172
CHARGE=1+
COMPOUNDNAME=3-{[(2S,3R,4S,5R,6R)-3-{[(2S,3S,4R,5R,6S)-3,5-dihydroxy-4-methoxy-6-methyloxan-2-yl]oxy}-4,5-dihydroxy-6-methyloxan-2-yl]oxy}-8-hydroxy-15-methyl-11,18-dioxapentacyclo[10.6.2.0�,?.0?,�?.0�?,�?]icosa-1,3,5,7,9(19),12(20),13,15-octaene-10,17-dione
LIBRARYQUALITY=3
SMILES=N/A
INCHIKEY=PONPPNYZKHNPKZ-BAHCCNBTSA-N
INCHI=InChI=1S/C32H32O14/c1-10-8-9-15-18-16(10)29(38)45-26-17-13(23(35)20(19(18)26)30(39)43-15)6-5-7-14(17)44-32-28(24(36)21(33)11(2)42-32)46-31-25(37)27(40-4)22(34)12(3)41-31/h5-9,11-12,21-22,24-25,27-28,31-37H,1-4H3/t11-,12+,21+,22-,24+,25+,27-,28-,31+,32+/m1/s1
MSLEVEL=2
SOURCE_INSTRUMENT=N/A-ESI-QFT
FILENAME=library_mgf.mgf
SEQ=*..*
IONMODE=negative
ORGANISM=MONA
NAME=3-{[(2S,3R,4S,5R,6R)-3-{[(2S,3S,4R,5R,6S)-3,5-dihydroxy-4-methoxy-6-methyloxan-2-yl]oxy}-4,5-dihydroxy-6-methyloxan-2-yl]oxy}-8-hydroxy-15-methyl-11,18-dioxapentacyclo[10.6.2.0�,?.0?,�?.0�?,�?]icosa-1,3,5,7,9(19),12(20),13,15-octaene-10,17-dione [M-H]-
PI=MoNA
DATACOLLECTOR=MoNA:VF-NPL-QEHF001568
PUBMED=N/A
SUBMITUSER=mwang87
TAGS=
SPECTRUMID=CCMSLIB00004692631
SCANS=1568
50.110588 0.006907 
50.491039 0.016538 
51.056393 0.006104 
51.360779 0.005961 
51.399155 0.007504 
51.985344 0.008807 
52.150917 0.012493 
52.170177 0.011457 
52.621407 0.016802 
52.741673 0.009482 
53.25378 0.010748 
53.537136 0.014417 
54.193424 0.01169 
54.259209 0.009613 
54.756443 0.008293 
54.801723 0.006291 
54.985893 0.013892 
54.993645 0.013822 
55.029305 0.012213 
55.104164 0.018716 
55.92128 0.015135 
56.037804 0.009038 
56.223248 0.011561 
56.844074 0.007501 
57.412022 0.005164 
57.468372 0.011218 
57.900776 0.009172 
58.011295 0.006027 
58.138866 0.006293 
58.240368 0.005793 
58.327209 0.011154 
58.498501 0.011601 
58.507011 0.006376 
58.781101 0.006813 
59.425358 0.015536 
60.008602 0.00577 
60.298618 0.014563 
60.974213 0.006051 
61.093811 0.007355 
61.609241 0.008027 
61.927185 0.006895 
62.541073 0.005586 
63.652946 0.005807 
63.929214 0.014736 
63.932285 0.006761 
64.48362 0.005941 
65.11245 0.007592 
65.23172 0.012314 
65.3955 0.00546 
65.523994 0.011548 
65.799149 0.007082 
65.991341 0.0075 
67.239349 0.006945 
67.386238 0.016379 
67.3946 0.01466 
68.069687 0.006454 
68.614464 0.018664 
68.650475 0.012005 
69.01384 0.01137 
69.544647 0.010683 
69.821045 0.005649 
71.275467 0.011996 
72.343407 0.006105 
72.651649 0.016263 
72.959145 0.00606 
73.075287 0.008458 
73.496811 0.006971 
74.050224 0.012927 
74.42569 0.011537 
74.591698 0.008488 
75.134239 0.005794 
75.209335 0.008353 
75.882034 0.010676 
76.080139 0.011103 
76.331596 0.011578 
77.024078 0.007611 
77.6539 0.013123 
78.802582 0.017037 
79.955879 0.031389 
80.440956 0.016003 
80.617966 0.018288 
80.660446 0.008664 
80.932991 0.011058 
80.966576 0.014321 
81.201401 0.014374 
81.261879 0.010353 
81.805344 0.01293 
81.980927 0.018317 
83.045578 0.01869 
83.133102 0.006062 
83.152267 0.011487 
83.686363 0.011857 
84.89341 0.008716 
85.931152 0.00725 
86.012955 0.012948 
86.190094 0.005757 
86.728722 0.011556 
87.008202 0.009617 
87.755508 0.013314 
87.912292 0.011996 
89.146767 0.0101 
90.942917 0.006812 
91.257103 0.008232 
91.624748 0.006742 
92.34127 0.01528 
94.151711 0.0067 
94.979454 0.344809 
95.746056 0.011301 
96.432983 0.006765 
96.451225 0.00599 
96.847008 0.016171 
96.958794 0.721301 
97.668976 0.01115 
98.503349 0.006692 
99.368874 0.01535 
99.799744 0.013226 
100.703926 0.013797 
101.007118 0.012695 
101.541115 0.010483 
103.704956 0.010501 
103.736794 0.007559 
104.401283 0.013434 
106.200058 0.013267 
106.440681 0.006093 
106.637169 0.017827 
106.652382 0.006542 
106.659935 0.011846 
107.643608 0.008948 
109.358459 0.009586 
109.593353 0.018631 
109.838211 0.006657 
110.647514 0.007246 
110.786392 0.013198 
110.974525 0.06572 
111.15963 0.014146 
111.250908 0.018024 
111.509064 0.009792 
111.919838 0.009505 
112.362679 0.008442 
112.761986 0.011596 
113.041466 0.011562 
113.148621 0.014132 
113.909561 0.016345 
114.044228 0.005843 
114.965279 0.013048 
116.060181 0.006925 
117.11338 0.017773 
117.323151 0.009156 
121.900017 0.010802 
123.46022 0.016929 
123.826302 0.012058 
124.482971 0.010974 
125.071083 0.008656 
126.622665 0.018535 
128.521088 0.007582 
129.300552 0.005888 
129.345673 0.007702 
129.526779 0.014322 
130.010376 0.0088 
131.304962 0.011601 
131.443314 0.011786 
131.49292 0.01229 
133.626816 0.008556 
133.740768 0.010652 
134.047699 0.022304 
134.095154 0.007439 
134.397476 0.013247 
136.003738 0.008355 
137.771637 0.006094 
137.932251 0.006857 
139.007004 0.013285 
140.185898 0.005902 
140.524246 0.005855 
144.951233 0.012159 
145.19252 0.011973 
149.455826 0.010365 
150.921829 0.016447 
152.21843 0.00731 
152.957809 0.014965 
153.681549 0.011716 
154.358154 0.006305 
154.649872 0.009314 
157.952225 0.013308 
159.708084 0.005746 
159.940277 0.00652 
160.872711 0.014446 
161.245056 0.006563 
161.908752 0.010769 
162.640991 0.010369 
165.992783 0.011219 
166.184982 0.007362 
169.598495 0.01236 
170.772522 0.007089 
170.83696 0.016549 
172.355331 0.008748 
173.690765 0.008197 
175.358749 0.00838 
175.918243 0.01558 
176.58902 0.008842 
177.021835 0.008336 
177.632935 0.021254 
181.123917 0.006861 
183.676941 0.011933 
186.262115 0.007594 
186.506577 0.016194 
186.874542 0.012378 
187.484024 0.005833 
195.052216 0.020061 
196.609009 0.007035 
196.626678 0.008943 
201.852188 0.008899 
204.270142 0.00689 
211.067383 0.011196 
211.640106 0.014792 
213.849777 0.00619 
216.2724 0.018996 
222.984085 0.006283 
224.960159 0.007613 
225.721069 0.012323 
229.79538 0.012435 
230.144058 0.016351 
231.973465 0.009007 
233.762436 0.010214 
234.038956 0.007205 
234.692825 0.012765 
243.876862 0.008124 
244.193893 0.008124 
245.40004 0.012978 
245.578903 0.008178 
247.876038 0.011126 
248.009995 0.012299 
248.895432 0.015686 
248.975082 0.012455 
249.710129 0.014575 
250.330673 0.012106 
258.618835 0.012572 
259.138489 0.008726 
261.134735 0.009453 
267.31192 0.014823 
269.990234 0.006451 
271.250885 0.007966 
273.470337 0.014876 
274.988495 0.017135 
276.043091 0.03274 
276.959534 0.013885 
277.05069 0.019176 
281.463959 0.008765 
288.042786 0.191348 
289.05072 1.327453 
289.584076 0.007797 
290.053925 0.077368 
294.053589 0.132647 
295.206757 0.006195 
295.816803 0.00801 
304.037415 2.175875 
304.140106 0.012264 
304.813385 0.019798 
305.041748 0.24868 
306.72226 0.007078 
308.736664 0.012177 
317.116943 0.020882 
317.636139 0.007957 
325.423767 0.008877 
329.045166 0.016383 
331.025024 0.063633 
331.997192 0.012944 
332.03244 100.0 
333.036407 20.779745 
334.039764 2.142194 
336.433929 0.007399 
336.567596 0.008874 
337.984619 0.013346 
340.828461 0.013297 
344.280151 0.00616 
346.046814 0.048154 
348.667389 0.007861 
350.963196 0.014224 
356.981049 0.011149 
357.040619 0.445489 
358.045044 0.012524 
359.763794 0.018406 
361.51178 0.009642 
365.785248 0.015397 
378.465546 0.011217 
381.847778 0.012648 
386.115387 0.008725 
386.261078 0.012259 
386.343414 0.015105 
389.071167 0.008014 
393.621643 0.020678 
395.074829 0.010232 
415.609802 0.006873 
426.233215 0.013207 
426.73175 0.007616 
428.978821 0.01331 
429.745026 0.013636 
429.956909 0.015455 
437.470764 0.006772 
440.412201 0.017434 
456.841461 0.008035 
464.50589 0.011463 
464.791321 0.01149 
476.44989 0.014038 
477.113037 0.018225 
479.101776 0.007372 
483.882019 0.006819 
506.108215 0.017063 
512.697693 0.012051 
522.385071 0.014283 
525.141357 0.012669 
525.701843 0.020617 
530.377747 0.008084 
532.937683 0.007636 
534.361145 0.009134 
537.346436 0.017076 
542.999878 0.00741 
543.585876 0.012093 
557.079163 0.008111 
557.691833 0.011313 
573.158875 0.016136 
599.046753 0.011371 
605.719788 0.013409 
613.822754 0.00784 
617.299011 0.012168 
621.961182 0.015 
628.289978 0.009219 
644.129822 0.015377 
650.810974 0.008995 
651.788879 0.010731 
END IONS

