BEGIN IONS
PEPMASS=321.005
CHARGE=1+
COMPOUNDNAME=MoNA:642853 2,2-bis(chloranyl)-N-[(1R,2R)-1-(4-nitrophenyl)-1,3-bis(oxidanyl)propan-2-yl]ethanamide
LIBRARYQUALITY=3
SMILES=N/A
INCHIKEY=WIIZWVCIJKGZOK-RKDXNWHRSA-N
INCHI=InChI=1S/C11H12Cl2N2O5/c12-10(13)11(18)14-8(5-16)9(17)6-1-3-7(4-2-6)15(19)20/h1-4,8-10,16-17H,5H2,(H,14,18)/t8-,9-/m1/s1
MSLEVEL=2
SOURCE_INSTRUMENT=LC-ESI-QFT-LC-ESI-QFT
FILENAME=output_mgf.mgf
SEQ=*..*
IONMODE=
ORGANISM=MONA
NAME=MoNA:642853 2,2-bis(chloranyl)-N-[(1R,2R)-1-(4-nitrophenyl)-1,3-bis(oxidanyl)propan-2-yl]ethanamide [M-H]-
PI=MoNA
DATACOLLECTOR=MoNA
PUBMED=N/A
SUBMITUSER=mwang87
TAGS=
SPECTRUMID=CCMSLIB00000572697
SCANS=9948
61.9884 0.194617 
70.9461 0.708726 
82.9461 0.486498 
84.0092 1.335345 
86.0248 0.213522 
98.0249 0.193734 
121.0296 4.205991 
122.0245 0.969464 
125.9519 3.943758 
126.936 3.923919 
134.0015 0.982693 
148.0405 1.162183 
150.0196 0.9093 
151.0275 12.586186 
152.0353 83.870213 
159.0324 0.208284 
160.0405 0.504296 
164.0356 0.231151 
166.0147 0.180373 
175.0515 0.174947 
176.0353 17.565388 
179.0461 0.102637 
191.0468 0.111562 
194.0458 38.248954 
207.0411 1.530621 
219.041 2.293895 
237.0517 4.386422 
249.0517 11.259733 
257.0335 65.49537 
321.0051 100.0 
END IONS

