BEGIN IONS
PEPMASS=283.165
CHARGE=1+
COMPOUNDNAME=ANISOMYCIN
LIBRARYQUALITY=3
SMILES=N/A
INCHIKEY=YKJYKKNCCRKFSL-BFHYXJOUSA-N
INCHI=InChI=1S/C14H19NO4/c1-9(16)19-14-12(15-8-13(14)17)7-10-3-5-11(18-2)6-4-10/h3-6,12-15,17H,7-8H2,1-2H3/t12-,13+,14+/m0/s1
MSLEVEL=2
SOURCE_INSTRUMENT=N/A-ESI-QFT
FILENAME=library_mgf.mgf
SEQ=*..*
IONMODE=positive
ORGANISM=MONA
NAME=ANISOMYCIN [M+NH4]+
PI=MoNA
DATACOLLECTOR=MoNA:VF-NPL-QEHF027603
PUBMED=N/A
SUBMITUSER=mwang87
TAGS=
SPECTRUMID=CCMSLIB00004721184
SCANS=27603
50.015614 0.005721 
51.023457 0.045754 
51.940296 0.087009 
52.026791 0.005555 
53.00251 0.02705 
53.038914 0.860303 
53.118393 0.005117 
54.034134 0.036814 
54.042236 0.22064 
54.341911 0.022946 
54.664772 0.008729 
55.016827 0.006045 
55.018162 0.478891 
55.054516 0.247968 
55.394684 0.030005 
55.543743 0.02862 
55.980148 0.007261 
56.021454 0.061028 
56.049767 1.00151 
56.0578 0.008392 
56.110558 0.005848 
56.260056 0.006811 
56.392403 0.02092 
56.965092 0.442561 
57.014099 0.020718 
57.033794 5.873873 
57.045002 0.182101 
57.048344 0.023526 
57.053146 0.212338 
57.070171 1.480212 
57.939854 0.023631 
58.029003 0.146621 
58.037128 1.551034 
58.039898 0.006131 
58.065403 0.424894 
58.754608 0.024037 
59.038002 0.136776 
59.181187 0.006539 
59.930382 0.008626 
60.044632 6.778215 
60.081024 3.608996 
60.866405 0.027956 
60.867836 0.033062 
61.010887 0.83164 
61.041615 0.0835 
61.047966 1.035949 
61.223118 0.02092 
61.22485 0.037145 
62.0187 0.172357 
62.048824 0.138563 
62.128887 0.023772 
62.282005 0.025342 
62.351997 0.023956 
62.92915 0.006282 
63.006603 0.021549 
64.031418 0.00771 
64.056068 0.025437 
64.540726 0.018119 
64.814575 0.007883 
65.038765 0.193751 
65.043854 0.029325 
66.042046 0.061644 
66.048187 0.005318 
66.434044 0.007832 
66.599014 0.028144 
66.708832 0.01913 
67.041756 0.096098 
67.054367 0.129705 
67.935028 0.007559 
68.045097 0.016134 
68.049583 0.375742 
69.033607 0.029794 
69.05294 0.078861 
69.069984 0.053805 
69.871063 0.025585 
70.040245 0.005596 
70.063042 0.021222 
70.065208 2.383233 
70.067329 0.013416 
70.62616 0.020709 
71.068581 0.733899 
71.085625 0.431628 
71.377304 0.030671 
72.044449 0.555964 
73.047752 0.057325 
74.060074 0.320739 
75.043999 0.008116 
75.055283 0.045743 
75.063385 0.059386 
75.993744 0.006888 
76.800316 0.024009 
77.038612 0.223074 
78.042091 0.078662 
78.046471 0.739102 
79.049828 0.523659 
79.054283 0.1767 
79.420105 0.021108 
79.968231 0.006587 
80.049477 0.730113 
80.057564 0.066665 
80.178406 0.027002 
81.018761 0.006064 
81.033516 0.151814 
81.052856 0.280758 
81.069992 0.044061 
82.036842 0.043287 
82.947861 0.072968 
83.591278 0.007165 
84.044434 0.810218 
84.080902 0.038577 
85.039619 0.353555 
85.047798 0.176053 
85.101257 0.081704 
86.126534 0.022865 
87.055367 0.375026 
87.057808 0.005716 
87.398216 0.018371 
87.850533 0.008169 
88.253326 0.020993 
88.996368 0.024751 
90.042389 0.008806 
90.046638 0.006266 
90.055077 0.006937 
91.054276 6.995412 
92.057602 5.108866 
92.632492 0.019817 
93.060997 0.267875 
93.069885 0.587839 
93.522461 0.005573 
93.975342 0.027093 
94.041397 0.03403 
94.065018 0.006093 
94.073288 0.41838 
95.04438 0.008644 
95.049179 1.744233 
95.085541 0.041549 
96.052498 0.993707 
97.076111 0.008614 
97.135422 0.021173 
98.060097 0.654792 
99.055328 0.091455 
99.063469 0.216572 
100.039307 0.142175 
100.991142 0.016888 
101.091415 0.024567 
102.046516 0.121448 
102.054993 0.007728 
102.41362 0.006224 
102.947929 0.005146 
103.049835 0.058298 
103.054237 0.205692 
103.463226 0.006042 
104.057571 0.213605 
104.061714 0.007311 
105.033409 0.032217 
105.044769 0.988093 
105.065903 0.008275 
105.069969 0.45791 
106.037567 0.007799 
106.041428 0.339098 
106.048027 0.439404 
106.065071 0.098454 
106.073242 0.369795 
107.044769 0.330574 
107.049179 0.635228 
108.052475 0.452514 
108.056625 0.084362 
109.060745 0.037648 
109.064705 0.368755 
110.068085 0.251012 
110.495979 0.027943 
111.809547 0.008143 
113.643768 0.007863 
115.05426 0.521608 
115.086433 0.026152 
116.057686 0.610004 
116.061996 0.132707 
117.057137 0.0312 
117.061325 0.015852 
117.06562 0.346748 
117.069931 0.370027 
118.06073 0.069816 
118.065186 0.512762 
118.073059 0.415441 
118.16375 0.021675 
118.287827 0.019625 
119.001549 0.015036 
119.049355 0.18278 
119.060616 0.146316 
119.068611 0.429918 
119.072975 0.112787 
119.085686 0.162795 
119.095253 0.00764 
120.011147 0.006759 
120.052582 0.209986 
120.056984 0.034029 
120.063927 0.03672 
120.072052 0.036999 
120.076485 0.123741 
120.080925 0.005297 
120.089081 0.191925 
120.700699 0.014807 
121.056969 0.02322 
121.064865 100.0 
121.431473 0.019589 
121.698975 0.005495 
122.068115 96.961189 
122.089699 0.005022 
122.438286 0.015661 
122.441338 0.009069 
122.534485 0.024703 
123.071159 6.709095 
123.079758 0.06491 
124.072205 0.257229 
124.083588 0.035964 
124.112457 0.008148 
126.037872 0.009248 
126.746201 0.006091 
128.057327 0.022084 
128.062012 0.431885 
129.065277 0.613113 
129.070007 0.234968 
130.041382 0.331885 
130.065079 0.159548 
130.073318 0.381084 
130.944382 0.031079 
131.044678 0.467575 
131.049454 0.061156 
131.06369 0.007781 
131.068329 0.229768 
131.073059 0.565548 
131.08075 0.005413 
131.085648 0.036755 
132.044312 0.185369 
132.052338 0.091644 
132.057098 0.288227 
132.076218 0.584754 
132.088821 0.046294 
133.047668 0.171336 
133.059952 0.320674 
133.065201 0.3068 
133.217865 0.022469 
134.059998 0.373873 
134.068176 0.383349 
134.978699 0.278487 
135.063232 0.312541 
135.068314 0.069797 
135.080353 0.512114 
136.071289 0.045978 
136.083832 0.698053 
137.059692 0.204709 
138.063705 0.007582 
139.064117 0.022236 
141.069855 0.055936 
141.999023 0.023666 
142.073196 0.146106 
144.057037 3.051193 
144.0755 0.008694 
144.081253 0.054494 
144.124725 0.022427 
144.948196 0.031114 
145.060059 4.118624 
145.065094 1.873151 
145.083221 0.03736 
145.088974 0.252826 
145.938217 0.033429 
146.06282 0.253202 
146.0681 3.809588 
146.091873 0.458768 
146.97467 0.009435 
147.067978 0.613007 
147.07518 0.048699 
147.08107 1.059648 
147.094849 0.015046 
148.070892 0.907992 
148.076477 0.09876 
148.083649 1.915973 
149.073441 0.02811 
149.078949 0.184939 
149.084366 0.105931 
149.096176 0.239846 
149.331863 0.0246 
149.778244 0.028817 
150.086243 0.098238 
150.091721 0.241333 
150.099579 0.405841 
150.968948 0.011722 
151.094757 0.366902 
151.101212 0.013939 
152.989334 0.116987 
155.060425 0.192384 
156.057251 0.07179 
156.063751 0.334437 
156.080826 0.172789 
157.06044 0.16541 
157.077393 0.018032 
157.083893 0.325886 
157.089691 0.069162 
158.060043 0.178822 
158.092087 0.397442 
159.063477 0.414061 
159.080475 0.984684 
159.095078 0.007066 
160.068359 0.014186 
160.075958 0.320442 
160.08374 1.945009 
160.961594 0.050503 
161.079193 0.465808 
161.086929 0.155481 
161.095993 0.407061 
162.091461 0.366227 
162.099533 0.719969 
162.958832 0.008433 
163.075699 0.026113 
163.094116 0.352799 
163.101303 0.021032 
164.071182 0.007342 
164.078842 0.121741 
164.102737 0.329272 
164.930527 0.006567 
168.041824 0.02232 
170.283096 0.026008 
171.067764 0.026793 
171.080505 0.458116 
171.777328 0.029046 
172.076187 0.070474 
172.083755 1.085188 
172.091888 0.010376 
173.084076 0.59705 
174.067947 0.032624 
174.086868 1.853292 
175.07103 0.117094 
175.089798 0.11554 
175.099701 0.005747 
176.102524 0.056489 
178.094635 0.033598 
186.091354 0.082707 
187.09462 0.28368 
188.09845 0.021255 
188.107147 0.157348 
189.110489 0.581496 
190.094543 0.045583 
190.113281 0.039506 
191.094955 0.006472 
192.097549 0.065679 
192.962311 0.245181 
193.327515 0.030909 
198.854172 0.010456 
199.006104 0.023239 
199.101395 0.026804 
206.117752 0.218735 
206.155396 0.010169 
207.121094 0.754326 
208.12413 0.067753 
210.642105 0.026714 
212.968887 0.007594 
216.891312 0.00606 
218.549316 0.005644 
219.772278 0.122968 
219.796783 0.008089 
221.177322 0.022419 
224.128708 0.006592 
225.131897 0.149331 
226.134262 0.008064 
238.379303 0.024226 
240.23201 0.00538 
240.432465 0.018879 
251.582809 0.007415 
256.555298 0.025936 
266.377625 0.027391 
267.065186 0.025405 
268.072754 0.008536 
269.123413 0.034383 
271.762695 0.02583 
277.714966 0.007797 
282.083191 0.025991 
284.331329 0.403786 
284.969757 0.006392 
288.77887 0.023986 
303.692383 0.026431 
END IONS

