BEGIN IONS
PEPMASS=321.133
CHARGE=1+
COMPOUNDNAME=Mycophenolic Acid
LIBRARYQUALITY=3
SMILES=N/A
INCHIKEY=HPNSFSBZBAHARI-RUDMXATFSA-N
INCHI=InChI=1S/C17H20O6/c1-9(5-7-13(18)19)4-6-11-15(20)14-12(8-23-17(14)21)10(2)16(11)22-3/h4,20H,5-8H2,1-3H3,(H,18,19)/b9-4+
MSLEVEL=2
SOURCE_INSTRUMENT=N/A-ESI-QFT
FILENAME=library_mgf.mgf
SEQ=*..*
IONMODE=positive
ORGANISM=MONA
NAME=Mycophenolic Acid [M+H]+
PI=MoNA
DATACOLLECTOR=MoNA:VF-NPL-QEHF004806
PUBMED=N/A
SUBMITUSER=mwang87
TAGS=
SPECTRUMID=CCMSLIB00004695869
SCANS=4806
50.030952 0.012111 
50.106384 0.015679 
50.149532 0.012993 
50.318119 0.011315 
50.498428 0.013363 
50.623672 0.021202 
51.023968 0.018247 
51.14003 0.012074 
51.203342 0.011751 
51.27367 0.016352 
51.455936 0.037738 
51.458153 0.126687 
51.607056 0.010523 
51.810486 0.012136 
52.355534 0.011504 
52.355961 0.010999 
52.356373 0.011358 
52.365723 0.011076 
52.539471 0.014502 
52.540939 0.015844 
52.561756 0.012329 
52.597618 0.01126 
52.843803 0.021674 
52.925369 0.013385 
53.018967 0.020282 
53.039425 0.223847 
53.076607 0.010906 
53.30011 0.019543 
53.536797 0.009862 
53.539127 0.015099 
54.044983 0.014295 
54.188782 0.010302 
54.342491 0.019164 
54.400551 0.014489 
54.670834 0.011066 
54.980698 0.017817 
55.018681 1.810963 
55.055035 0.035241 
55.523232 0.007807 
55.775837 0.011829 
55.85955 0.013065 
56.102776 0.019169 
56.401814 0.011511 
56.526463 0.018135 
56.656525 0.010619 
56.686794 0.009742 
57.545658 0.01802 
57.817398 0.021924 
59.033627 0.013274 
60.055149 0.011207 
60.194698 0.011817 
60.294273 0.010389 
61.066422 0.010863 
61.687515 0.015337 
62.29398 0.013163 
62.646328 0.012971 
62.6772 0.012326 
62.796314 0.018049 
62.890148 0.009823 
62.92643 0.011735 
63.114334 0.010586 
63.947254 0.014973 
64.025139 0.012732 
64.086929 0.008997 
64.091232 0.012835 
64.890732 0.011859 
65.023399 0.014308 
65.039413 0.443845 
65.249031 0.014332 
65.537277 0.020403 
65.633186 0.01517 
65.687592 0.012155 
65.71431 0.013124 
66.275261 0.011868 
66.289146 0.019374 
66.473564 0.017097 
66.92308 0.012813 
66.95047 0.011747 
66.988136 0.007537 
67.021584 0.014711 
67.055008 0.636746 
67.235489 0.018165 
67.568947 0.014044 
69.034111 0.033452 
69.75621 0.013029 
69.777512 0.016013 
70.117836 0.019401 
71.66951 0.009894 
72.56881 0.011999 
73.139748 0.011831 
73.745529 0.011475 
74.06147 0.011489 
74.690338 0.017467 
74.963173 0.011206 
75.445381 0.013149 
75.511879 0.010755 
75.634979 0.008911 
75.853806 0.011251 
76.034882 0.012157 
76.464119 0.015096 
76.706451 0.012837 
77.039429 0.33447 
77.115654 0.01127 
77.839378 0.014911 
78.421295 0.018369 
78.599815 0.015383 
78.685646 0.013943 
78.76152 0.013344 
78.893951 0.01022 
79.054893 2.126988 
79.501366 0.013656 
79.943848 0.011874 
80.243889 0.014124 
80.591339 0.015303 
81.070534 4.353461 
81.225258 0.008261 
81.446159 0.019742 
81.461952 0.012649 
81.721504 0.012844 
82.073776 0.048111 
82.402809 0.014764 
82.673424 0.0178 
82.67659 0.012023 
82.885971 0.024702 
84.791771 0.013765 
84.935013 0.011682 
84.987129 0.019961 
85.430122 0.011194 
86.695618 0.023439 
87.325943 0.014079 
89.24604 0.014366 
91.054802 20.148697 
92.053185 0.013482 
92.058121 1.297751 
93.070374 0.569998 
93.323875 0.020114 
94.255875 0.013651 
94.324333 0.020778 
95.04969 1.766606 
95.085968 0.03331 
96.406319 0.018774 
96.645859 0.009284 
97.065468 0.058685 
97.359932 0.018062 
101.20472 0.016401 
101.225098 0.008481 
102.013962 0.014567 
102.047287 0.015655 
103.054726 18.833933 
103.220673 0.008046 
103.409782 0.012302 
104.058006 1.347307 
104.305687 0.012592 
104.561859 0.012321 
105.034027 0.022255 
105.045181 0.103551 
105.070351 0.48151 
105.092682 0.012819 
105.164993 0.02068 
105.581902 0.013691 
105.68354 0.012634 
106.632462 0.010681 
106.986824 0.014218 
109.065155 0.429899 
109.419006 0.022341 
111.496262 0.018187 
114.221695 0.010662 
114.405312 0.009699 
115.304764 0.014528 
115.338135 0.013124 
115.358559 0.013669 
116.666824 0.014012 
117.033829 0.433085 
118.680389 0.0134 
119.085899 0.123527 
119.538132 0.019771 
120.233871 0.01093 
121.065048 0.917231 
121.65493 0.010748 
123.080948 0.034859 
123.497963 0.014718 
125.789207 0.014578 
126.699181 0.013553 
127.817665 0.009357 
128.258347 0.01538 
128.413666 0.01378 
129.309265 0.011348 
131.049347 6.157592 
131.182281 0.015211 
131.240906 0.014861 
131.973419 0.015477 
132.052612 0.225608 
133.065002 0.155406 
135.036499 0.014858 
135.080597 3.670212 
135.283768 0.021283 
136.083847 0.206509 
137.159897 0.015442 
139.075394 0.528399 
139.566223 0.014629 
141.522766 0.020117 
142.07785 0.02423 
142.775238 0.015491 
143.802765 0.013627 
144.109695 0.01504 
145.064865 0.563728 
145.559464 0.013709 
147.044373 0.051053 
148.91861 0.013525 
149.059799 2.33776 
150.063141 0.040119 
151.038925 0.015323 
151.075546 0.041672 
154.722214 0.015154 
154.826416 0.013167 
157.066422 0.011464 
157.101593 0.013561 
158.405426 0.009447 
158.57695 0.012786 
159.044159 86.313675 
160.047531 8.876873 
160.077103 0.01237 
160.841705 0.014898 
161.050613 0.063955 
161.059769 0.988238 
163.075333 0.059213 
163.961655 0.008408 
165.054962 0.121441 
166.556915 0.016111 
166.789185 0.013765 
168.425919 0.007827 
169.049515 0.204861 
169.296829 0.01248 
169.374802 0.019938 
169.681595 0.012651 
169.932587 0.014516 
171.80423 0.019784 
172.392639 0.023615 
173.661896 0.021994 
175.07547 1.670464 
177.054733 100.0 
177.716415 0.013603 
178.058075 10.457841 
178.470627 0.01283 
179.061356 0.241774 
179.070343 4.553552 
180.073715 0.244485 
181.064667 0.01974 
183.028778 0.030115 
185.096252 0.175793 
186.540604 0.017923 
189.091263 0.068461 
189.295486 0.012883 
189.668015 0.016513 
190.311081 0.010096 
191.008377 0.014544 
191.070389 0.160392 
192.042068 0.034965 
193.049606 0.973286 
194.01413 0.016435 
194.291336 0.014511 
195.065399 4.394124 
195.372894 0.01045 
196.068695 0.094242 
196.603027 0.011285 
197.193375 0.013738 
198.563446 0.019623 
198.640274 0.015669 
198.885422 0.013387 
199.075134 0.015618 
200.082321 0.010975 
201.02298 0.022116 
201.246658 0.008334 
202.046204 0.011526 
205.341339 0.015017 
207.065308 65.754135 
208.068619 7.602291 
208.079285 0.043559 
208.086456 0.013068 
208.936356 0.014586 
209.070099 0.125226 
209.097321 0.014676 
210.783432 0.020803 
212.487915 0.023674 
213.531021 0.013466 
214.409897 0.009301 
215.106796 1.21725 
215.501434 0.011163 
216.185257 0.017815 
217.049164 0.017792 
219.06543 0.141773 
219.987167 0.099358 
220.002319 0.145634 
220.020142 0.107896 
221.02356 0.023194 
221.080765 0.173413 
223.060059 0.143648 
224.083664 0.014042 
227.881241 0.011583 
229.402176 0.015809 
232.528656 0.012059 
233.66156 0.014183 
234.661423 0.016634 
239.106445 0.36576 
241.085815 0.172759 
243.629974 0.018586 
243.716644 0.015208 
245.081116 0.015736 
245.893723 0.008934 
251.722946 0.02143 
252.294174 0.010766 
253.027634 0.013266 
255.065536 0.074224 
261.112518 0.015874 
268.106995 0.012829 
268.866821 0.016781 
269.08017 0.01305 
269.390167 0.018323 
270.088501 0.414973 
272.649353 0.013877 
273.014984 0.013313 
274.168854 0.021753 
275.430969 0.014914 
279.49762 0.011259 
279.596741 0.01579 
285.111572 0.086568 
288.606293 0.011362 
294.117676 0.011325 
298.355774 0.009048 
310.930023 0.013162 
312.51181 0.012535 
315.483887 0.013382 
319.183289 0.019254 
325.418427 0.021713 
331.425476 0.01149 
333.224182 0.020073 
338.208344 0.015672 
340.570953 0.012698 
END IONS

