BEGIN IONS
PEPMASS=924.496
CHARGE=1+
COMPOUNDNAME=MoNA:693064 Nystatin
LIBRARYQUALITY=3
SMILES=N/A
INCHIKEY=VQOXZBDYSJBXMA-NQTDYLQESA-N
INCHI=InChI=1S/C47H75NO17/c1-27-17-15-13-11-9-7-5-6-8-10-12-14-16-18-34(64-46-44(58)41(48)43(57)30(4)63-46)24-38-40(45(59)60)37(54)26-47(61,65-38)25-36(53)35(52)20-19-31(49)21-32(50)22-33(51)23-39(55)62-29(3)28(2)42(27)56/h5-6,8,10-18,27-38,40-44,46,49-54,56-58,61H,7,9,19-26,48H2,1-4H3,(H,59,60)/b6-5+,10-8+,13-11+,14-12+,17-15+,18-16+/t27-,28-,29-,30+,31+,32+,33+,34-,35+,36+,37-,38-,40+,41-,42+,43+,44-,46-,47+/m0/s1
MSLEVEL=2
SOURCE_INSTRUMENT=LC-ESI-QFT-LC-ESI-QFT
FILENAME=output_mgf.mgf
SEQ=*..*
IONMODE=
ORGANISM=MONA
NAME=MoNA:693064 Nystatin [M-H]-
PI=MoNA
DATACOLLECTOR=MoNA
PUBMED=N/A
SUBMITUSER=mwang87
TAGS=
SPECTRUMID=CCMSLIB00000566885
SCANS=4136
67.0554 0.215617 
69.0345 2.013719 
71.0138 1.075028 
73.0295 0.642863 
83.0501 1.353407 
85.0295 3.543962 
86.0248 1.93738 
87.0087 0.761113 
88.0404 13.562097 
93.0345 1.12446 
100.0403 0.568887 
111.0451 10.742561 
115.0401 9.234883 
118.0511 0.728528 
123.0452 5.297837 
129.0711 0.125066 
131.0499 0.121742 
135.0816 0.118637 
137.0609 1.098732 
139.0764 0.764845 
141.0558 3.538607 
144.0664 0.941751 
145.0507 0.22913 
147.0814 0.945746 
149.0607 3.443848 
150.0685 0.441285 
155.0712 0.206019 
159.0661 0.469082 
162.0772 28.757902 
163.0761 1.914129 
165.092 3.290125 
167.0712 7.773961 
181.087 1.84865 
183.1026 2.788983 
185.0816 0.7415 
189.0918 0.249166 
191.0716 0.551097 
199.0977 0.996805 
203.0927 1.254806 
205.1235 0.11441 
207.1026 1.951383 
209.0815 1.41135 
223.1337 0.424819 
225.1133 1.691815 
227.0924 89.972548 
228.096 1.29164 
233.1185 0.805329 
245.1029 100.0 
249.1126 0.534949 
249.149 0.768657 
257.1911 0.184392 
263.1135 0.583948 
267.1236 3.705704 
267.1753 2.157084 
275.1292 0.657939 
279.2117 0.141719 
285.1342 4.939831 
293.1393 7.077851 
293.1909 0.809701 
303.1446 7.361147 
311.1498 20.640087 
329.1604 19.658709 
333.2221 2.363384 
338.2124 1.634736 
351.2334 0.950695 
369.2431 6.831896 
387.2536 3.736198 
395.2583 1.603725 
404.2593 0.506494 
409.2754 0.183666 
422.2686 0.266909 
435.2901 7.014602 
437.2698 1.078658 
440.2801 4.463291 
453.3006 4.902166 
455.2799 0.173912 
458.2915 0.182405 
463.2855 1.673574 
477.3 0.42608 
489.3004 0.472629 
496.3075 0.729864 
503.3163 1.175331 
506.3283 0.52032 
514.3168 5.587671 
515.3183 0.613738 
521.3272 0.602341 
529.3307 1.105808 
532.3273 7.534111 
547.3407 0.206292 
557.3295 0.424321 
561.322 0.610056 
575.3388 0.680709 
592.3509 0.212023 
601.3528 0.478642 
616.3853 4.213437 
619.3629 0.546152 
627.3673 2.204385 
645.379 12.686013 
663.3896 12.281333 
681.4004 3.364354 
790.4532 1.001188 
808.4629 3.98984 
826.4739 14.719182 
838.4608 0.484111 
844.4842 8.397373 
906.484 4.111932 
END IONS

