BEGIN IONS
PEPMASS=293.042
CHARGE=1+
COMPOUNDNAME=Emodin
LIBRARYQUALITY=3
SMILES=N/A
INCHIKEY=RHMXXJGYXNZAPX-UHFFFAOYSA-N
INCHI=InChI=1S/C15H10O5/c1-6-2-8-12(10(17)3-6)15(20)13-9(14(8)19)4-7(16)5-11(13)18/h2-5,16-18H,1H3
MSLEVEL=2
SOURCE_INSTRUMENT=N/A-ESI-QFT
FILENAME=library_mgf.mgf
SEQ=*..*
IONMODE=positive
ORGANISM=MONA
NAME=Emodin [M+Na]+
PI=MoNA
DATACOLLECTOR=MoNA:VF-NPL-QEHF011217
PUBMED=N/A
SUBMITUSER=mwang87
TAGS=
SPECTRUMID=CCMSLIB00004702280
SCANS=11217
50.816429 0.024765 
51.167866 0.040401 
52.732742 0.146649 
52.746872 0.029088 
53.002987 0.583872 
53.03936 0.626598 
54.298412 0.023374 
55.018597 1.546724 
55.054985 5.809755 
55.303391 0.025028 
55.524387 0.03566 
55.935146 0.39344 
56.050236 0.51535 
56.05825 0.064437 
56.161137 0.024195 
56.248428 0.023923 
56.965549 24.886454 
57.034229 1.137076 
57.070625 10.33955 
57.935558 0.121341 
57.988365 0.021571 
58.06588 2.405139 
58.074024 0.44253 
58.954239 0.024194 
59.049873 1.72652 
59.051327 0.027058 
59.424057 0.021963 
59.561264 0.034432 
59.990974 0.387201 
60.045094 0.472909 
61.011364 1.142075 
61.029049 0.065773 
61.102356 0.025209 
62.019196 0.106278 
62.930302 0.034972 
62.982449 0.363576 
63.355232 0.03445 
63.998421 0.100394 
65.039307 0.504248 
65.306084 0.034343 
67.054901 7.635923 
67.267654 0.025275 
67.434242 0.02529 
68.050133 0.25713 
68.058342 0.178749 
68.997627 0.043269 
69.034203 2.096073 
69.035965 0.026034 
69.070564 5.873481 
69.181503 0.039208 
70.029449 0.041715 
70.065796 2.342852 
70.07402 0.055581 
70.981117 0.426618 
71.049767 0.576463 
71.086189 2.717556 
71.177597 0.03575 
71.387199 0.024449 
71.416298 0.033931 
71.501595 0.022507 
72.045059 0.363843 
72.081436 0.453788 
72.6446 0.035979 
73.02903 0.173725 
73.065453 0.06067 
73.530869 0.025647 
74.097038 10.010103 
74.975952 1.976497 
75.100426 0.288667 
75.3097 0.027807 
76.349861 0.024017 
77.402222 0.026425 
79.021782 1.161451 
79.05481 4.577841 
79.085617 0.021624 
79.911728 0.023662 
80.050041 0.247319 
80.058052 0.039217 
80.457916 0.026416 
80.598206 0.035097 
80.948433 0.240807 
81.034019 1.8131 
81.07045 7.699056 
82.065674 0.11626 
82.073792 0.312816 
83.049675 1.649815 
83.060905 0.025377 
83.086075 1.494761 
84.044937 1.87681 
84.081337 0.50219 
85.028931 0.442184 
85.065308 0.65211 
85.101669 0.571202 
85.979263 0.023829 
86.096947 2.821828 
87.032005 0.752882 
87.044525 0.120996 
88.022011 1.559176 
88.039795 0.923765 
88.076164 0.0547 
88.621407 0.038258 
88.937256 0.204117 
88.991478 0.114669 
89.060188 2.403637 
89.642906 0.024733 
90.278351 0.034321 
91.054695 4.666758 
91.057571 0.06413 
92.049911 0.240869 
92.986366 0.202861 
93.018814 0.028956 
93.057709 0.226092 
93.070305 5.450847 
93.956367 0.030519 
94.065552 0.334563 
94.073494 0.02977 
95.049553 3.255689 
95.060791 0.198193 
95.085945 6.235489 
95.216316 0.041619 
96.044739 0.13919 
96.053139 0.028254 
96.081108 0.180822 
96.089317 0.15098 
96.736298 0.023904 
96.995682 0.064991 
97.028763 0.617776 
97.065186 1.066671 
97.134979 0.03782 
98.096878 0.541365 
98.608772 0.026097 
98.938141 0.02607 
98.975746 0.038687 
99.044403 0.330481 
99.081017 0.026532 
100.826225 0.029236 
101.060051 0.432673 
101.950256 0.656302 
103.054596 0.66798 
104.0784 0.028119 
104.477783 0.030457 
105.033646 0.030082 
105.070221 5.807627 
106.065437 2.52037 
106.07357 0.281758 
107.049408 0.783925 
107.069344 0.026862 
107.073296 0.451339 
107.085838 4.500926 
108.04451 0.029656 
108.081047 0.456056 
108.089211 0.095386 
108.493843 0.024572 
108.958794 0.031374 
109.028587 0.429466 
109.065094 2.365516 
109.10141 0.862031 
110.060272 0.196629 
110.096619 0.097571 
111.044373 0.080168 
111.080681 0.345212 
111.370079 0.029897 
112.039566 0.359784 
113.096245 0.029598 
114.055305 0.032913 
114.92363 0.023091 
115.05455 0.310367 
116.053093 0.36878 
116.985687 0.249155 
117.070045 1.278316 
117.940659 0.029855 
118.065422 0.207776 
118.562592 0.023499 
118.969727 0.033302 
119.00177 0.117457 
119.049294 0.666496 
119.085716 12.068757 
119.960526 0.37956 
120.021027 0.027611 
120.080978 3.149705 
120.088997 0.848889 
120.973404 0.04384 
121.028419 0.186536 
121.040085 0.037895 
121.064941 1.100274 
121.088852 0.079373 
121.101379 15.417671 
122.060081 0.114921 
122.096428 0.041103 
122.104607 1.573594 
122.301582 0.036113 
122.941055 0.070344 
123.044189 0.032078 
123.080605 2.899431 
124.039558 0.024309 
124.075745 0.067808 
124.112297 0.080643 
124.936249 0.051147 
125.980736 0.022838 
126.091103 0.033913 
126.328529 0.027062 
127.039299 0.02943 
127.075409 0.421417 
128.062164 0.518654 
128.106842 0.124445 
129.069946 1.192387 
129.566803 0.026832 
130.077728 0.128016 
131.000793 0.061126 
131.049118 1.870194 
131.085526 1.622587 
132.056961 0.038079 
132.080765 0.319031 
132.088928 0.038121 
133.028336 0.305949 
133.064865 0.436226 
133.101196 12.710718 
134.036392 0.119674 
134.096436 0.243827 
134.104477 1.282387 
134.15477 0.036318 
134.978699 10.148494 
134.996353 0.558079 
135.043839 0.03368 
135.080414 1.435023 
135.104187 0.025848 
135.116821 2.340709 
135.98201 0.026241 
136.075531 0.607564 
136.083252 0.025045 
136.967255 0.076982 
136.974182 0.08122 
137.011917 0.331282 
137.059998 0.031673 
137.09613 0.093045 
137.927933 0.24262 
137.970963 0.980345 
139.954315 1.154136 
140.143906 0.025478 
140.937866 0.042512 
141.05452 0.026226 
141.069931 0.282571 
141.951385 0.027466 
141.963959 0.03815 
142.077713 0.293597 
143.08551 2.083136 
144.081009 0.02633 
144.088303 0.026604 
144.149658 0.03899 
145.028275 0.315786 
145.064468 0.165033 
145.101227 2.396267 
146.060074 0.121217 
146.073212 0.032548 
146.096222 0.050208 
146.104263 0.026502 
146.108887 0.076557 
147.043884 0.040259 
147.080368 1.87197 
147.086548 0.025311 
147.116699 3.637884 
148.07547 0.039607 
148.11203 0.028142 
148.11998 0.192538 
148.972015 0.050957 
149.012177 0.039159 
149.023209 0.160469 
149.096161 0.542945 
150.968369 0.08652 
151.100632 0.023569 
151.111389 0.040993 
151.970093 0.17572 
152.143875 0.031962 
152.467514 0.04007 
152.952042 0.206851 
152.989197 25.75666 
153.959106 3.818231 
153.992691 0.145044 
154.941513 0.428139 
154.956894 0.215533 
154.977814 5.569086 
154.984634 0.792006 
155.021881 0.036242 
155.06041 0.036901 
155.085602 0.139927 
155.954437 0.823044 
155.980362 0.552495 
156.064072 0.030999 
156.093002 0.14154 
156.945572 0.032457 
156.974854 1.383851 
157.064682 0.182207 
157.101166 1.320908 
157.964813 2.676414 
158.955276 0.027579 
158.965729 0.208127 
159.044022 0.208936 
159.080185 0.265903 
159.11676 1.050384 
159.453644 0.022859 
159.961853 0.416541 
160.027069 0.025288 
160.087997 0.076449 
160.112091 0.036784 
160.124588 1.094033 
160.193436 0.034724 
161.023254 0.763225 
161.059921 0.065388 
161.095993 5.260424 
161.120544 0.0303 
161.132462 9.959352 
162.09906 0.262704 
162.135727 1.249578 
163.027817 0.114966 
163.039688 0.034524 
163.111603 0.926421 
163.976486 0.02311 
164.070572 1.266818 
164.107712 0.023705 
165.070541 0.102899 
165.078247 0.995719 
165.657959 0.025049 
167.004852 0.962268 
167.975388 0.032588 
168.057053 0.037696 
168.993149 0.068585 
169.98082 0.096219 
170.108948 2.49976 
170.955902 0.035568 
170.963379 2.633717 
170.991882 0.038906 
170.999771 4.858225 
171.013763 0.295085 
171.043808 0.098319 
171.112488 0.028913 
172.942932 1.426135 
172.952179 3.224889 
172.959427 0.765327 
172.966934 0.034427 
172.980286 0.07926 
172.988373 11.13403 
173.059219 0.032166 
173.096008 1.205872 
173.132462 0.122461 
173.989227 1.301859 
174.103912 0.271995 
174.956207 0.040161 
174.972549 1.093632 
174.985336 2.919862 
175.027802 0.089055 
175.038895 0.150673 
175.111618 0.938905 
175.148056 5.40734 
175.971664 0.02675 
176.14357 0.051977 
176.151474 0.759714 
176.886017 0.024203 
177.018066 0.511514 
177.12648 0.03669 
180.101929 0.09887 
180.525986 0.027829 
180.888046 0.359709 
185.059738 0.186552 
185.132446 2.276863 
185.949127 1.410029 
186.067398 0.175373 
186.135895 0.072866 
186.946869 0.775814 
186.967667 0.100065 
187.004288 0.315809 
187.111603 4.086441 
187.944336 0.269951 
188.119751 3.91265 
188.973938 4.328691 
189.00032 0.035164 
189.018082 1.19636 
189.054489 0.887427 
189.123093 0.250041 
189.973831 0.04594 
190.953125 3.062816 
190.96254 1.93707 
190.97081 0.837147 
192.966827 0.158553 
194.116608 0.031612 
194.999512 0.028415 
195.028778 0.418868 
197.03244 0.03583 
197.059647 0.068706 
198.898392 0.144533 
200.529388 0.031923 
200.581833 0.039147 
202.989639 0.14008 
203.14299 100.0 
204.146317 15.38956 
204.96875 0.070968 
205.149323 0.832291 
206.155029 0.033383 
206.984314 0.074327 
207.028625 0.161626 
211.822601 0.03058 
213.009705 0.031711 
213.054718 0.759995 
214.059402 0.071963 
214.8936 0.072891 
215.033249 0.026381 
215.901199 0.028568 
216.531265 0.024986 
217.049011 0.137596 
218.02095 0.60952 
219.023117 0.028802 
219.174301 97.175011 
219.831589 0.153788 
219.844513 0.293213 
219.855133 0.046478 
219.860779 0.02964 
220.177658 16.046526 
221.180603 1.10995 
222.898514 1.460005 
226.086563 0.032715 
226.665268 0.041216 
230.139145 0.03882 
230.979874 0.116239 
231.400055 0.024196 
234.159882 0.026335 
237.886749 0.032704 
238.825455 0.027701 
238.913498 0.227369 
240.908966 3.245099 
241.910904 0.030393 
246.22084 0.02902 
247.907562 0.029668 
248.990952 0.426533 
249.019608 0.023589 
250.969452 0.028111 
252.05191 0.042443 
252.065353 0.603761 
255.894806 0.07128 
269.779663 0.025708 
273.356781 0.02553 
274.216125 0.488717 
274.251282 0.044663 
277.049408 0.033242 
280.906403 0.039303 
284.808563 0.025514 
287.830292 0.148624 
288.83844 0.057955 
291.288086 0.044795 
294.075684 0.40523 
302.818359 0.315337 
303.536041 0.030527 
312.837708 0.02451 
END IONS

