BEGIN IONS
PEPMASS=176.104
CHARGE=1+
COMPOUNDNAME=Massbank:PB000434 Citrulline|2-amino-5-(carbamoylamino)pentanoic acid
LIBRARYQUALITY=3
SMILES=C(CC(C(=O)O)N)CNC(=O)N
INCHIKEY=RHGKLRLOHDJJDR-UHFFFAOYSA-N
INCHI=1S/C6H13N3O3/c7-4(5(10)11)2-1-3-9-6(8)12/h4H,1-3,7H2,(H,10,11)(H3,8,9,12)
MSLEVEL=2
SOURCE_INSTRUMENT=ESI-LC-ESI-QTOF
FILENAME=Massbank_ESI_positive_8_1_2014_peaks.mgf
SEQ=*..*
IONMODE=Positive
ORGANISM=MASSBANK
NAME=Massbank:PB000434 Citrulline|2-amino-5-(carbamoylamino)pentanoic acid [M+H]+
PI=Putative Massbank Match
DATACOLLECTOR=Massbank
PUBMED=N/A
SUBMITUSER=mwang87
TAGS=
SPECTRUMID=CCMSLIB00000221744
SCANS=10396
68.051 44.823 
70.067 10000.0 
71.054 80.965 
74.024 18.973 
84.045 42.58 
86.06 272.549 
87.093 38.19 
88.076 38.434 
96.046 129.983 
97.076 89.5 
98.061 49.993 
99.045 26.777 
113.071 6954.547 
114.055 1118.584 
115.087 543.002 
116.073 784.189 
141.066 75.551 
142.05 86.428 
149.023 34.093 
159.078 1414.545 
END IONS

