BEGIN IONS
PEPMASS=1056.53
CHARGE=1+
COMPOUNDNAME=Tomatine
LIBRARYQUALITY=3
SMILES=N/A
INCHIKEY=REJLGAUYTKNVJM-SGXCCWNXSA-N
INCHI=InChI=1S/C50H83NO21/c1-20-7-12-50(51-15-20)21(2)32-28(72-50)14-26-24-6-5-22-13-23(8-10-48(22,3)25(24)9-11-49(26,32)4)65-45-40(63)37(60)41(31(18-54)68-45)69-47-43(71-46-39(62)36(59)34(57)29(16-52)66-46)42(35(58)30(17-53)67-47)70-44-38(61)33(56)27(55)19-64-44/h20-47,51-63H,5-19H2,1-4H3/t20-,21-,22-,23-,24+,25-,26-,27+,28-,29+,30+,31+,32-,33-,34+,35+,36-,37+,38+,39+,40+,41-,42-,43+,44-,45+,46-,47-,48-,49-,50-/m0/s1
MSLEVEL=2
SOURCE_INSTRUMENT=N/A-ESI-QFT
FILENAME=library_mgf.mgf
SEQ=*..*
IONMODE=positive
ORGANISM=MONA
NAME=Tomatine [M+Na]+
PI=MoNA
DATACOLLECTOR=MoNA:VF-NPL-QEHF026711
PUBMED=N/A
SUBMITUSER=mwang87
TAGS=
SPECTRUMID=CCMSLIB00004719740
SCANS=26711
73.028412 1.592125 
73.046844 0.009158 
73.571205 0.014033 
73.794342 0.044209 
76.158249 0.016068 
77.38652 0.00626 
77.723236 0.03694 
77.936775 0.02589 
78.553886 0.006165 
78.696472 0.030654 
79.054306 0.051845 
80.591255 0.024141 
81.033554 0.096635 
81.069885 0.096805 
82.338715 0.028572 
83.085732 0.007511 
84.080917 0.02668 
84.839851 0.00649 
85.028427 4.014304 
86.031784 0.008336 
86.085037 0.031591 
86.278732 0.029564 
87.044044 0.04884 
87.862427 0.029619 
88.197731 0.016177 
90.644997 0.031814 
90.680717 0.029914 
91.038925 0.256745 
91.054276 0.117293 
91.057228 0.015861 
91.231255 0.03229 
91.49337 0.045174 
93.069939 0.081899 
93.625618 0.027364 
94.753723 0.066506 
94.798958 0.062064 
95.085533 0.083319 
95.363457 0.012961 
96.080849 0.007668 
97.028473 2.606969 
97.064781 0.025055 
98.031708 0.010396 
98.096382 0.056861 
99.044075 0.105636 
99.063911 0.04461 
100.290092 0.035414 
102.61071 0.037933 
104.992355 0.26825 
105.069855 0.241763 
105.10289 0.032 
105.271896 0.021441 
105.398056 0.059913 
105.672829 0.006124 
106.503517 0.019172 
107.085579 0.203777 
108.414886 0.036764 
108.974754 0.006242 
109.028496 0.268861 
109.101219 0.091047 
110.096565 0.008092 
112.112236 0.009189 
112.251648 0.061527 
113.987862 0.026592 
114.091316 0.17957 
114.394279 0.037299 
115.03907 0.700823 
116.497017 0.032773 
119.08551 0.065335 
121.101181 0.054085 
121.640465 0.039716 
121.802948 0.031506 
123.250839 0.030696 
124.112099 0.500647 
126.091461 0.014306 
126.127747 1.474383 
127.038956 1.323962 
127.044182 0.00837 
127.112045 0.021807 
128.041992 0.006859 
131.085632 0.088504 
132.057205 0.030349 
133.049072 0.01841 
133.101212 0.0996 
133.760941 0.029689 
135.116776 0.065095 
138.127914 0.092545 
138.159119 0.006261 
140.106781 0.017934 
140.613831 0.018511 
142.738113 0.01766 
143.085678 0.009774 
143.787018 0.006117 
144.495941 0.032112 
144.7715 0.064081 
145.049606 1.031019 
145.101212 0.464059 
146.053009 0.009776 
147.116882 0.850611 
148.120895 0.007594 
149.131866 0.02925 
149.326447 0.06036 
150.111725 0.019571 
150.127991 0.006698 
152.423386 0.045625 
154.122742 0.007689 
155.031403 0.11956 
157.101227 0.008742 
159.116974 0.401832 
159.775024 0.028525 
160.12059 0.00789 
161.132538 1.985586 
161.139923 0.008183 
161.826691 0.015045 
162.110931 0.015049 
162.128922 0.006671 
162.136078 0.050349 
163.060135 0.008652 
163.111664 0.01004 
164.143005 0.009784 
167.031677 0.427848 
167.055267 0.0306 
168.466827 0.006157 
169.72821 0.02962 
171.117249 0.010363 
171.562515 0.057142 
172.071808 0.043137 
173.042267 1.092026 
173.132553 0.180135 
173.334351 0.039255 
174.135925 0.010457 
176.143661 0.008753 
182.398788 0.015786 
185.042175 1.480832 
185.132706 0.013918 
185.224243 0.015819 
186.062775 0.065292 
186.886871 0.025768 
187.147949 0.014466 
189.013443 0.137132 
193.760971 0.014926 
194.563217 0.0289 
194.976624 0.013015 
198.699905 0.027886 
199.147903 0.033624 
202.728851 0.015495 
203.05275 0.19818 
204.577301 0.018121 
207.376099 0.030406 
218.827164 0.061096 
219.373734 0.060581 
219.567474 0.028852 
220.185745 0.005715 
224.191589 0.0642 
224.584869 0.053196 
226.041992 0.007543 
236.900589 0.038741 
236.987579 0.007606 
240.010117 0.027991 
242.998306 0.012827 
243.350922 0.028991 
243.616241 0.014982 
250.936691 0.006543 
253.195572 0.02671 
255.210602 1.332294 
256.213867 0.103603 
257.570526 0.060827 
266.997375 0.046742 
268.380249 0.055289 
269.091431 0.062856 
271.302399 0.045397 
273.22113 0.287936 
273.334076 0.030819 
274.225098 0.007948 
278.998383 0.012093 
280.831421 0.016527 
285.008881 0.026615 
289.568176 0.057798 
293.013916 0.011329 
299.060883 0.00872 
299.073975 0.035186 
301.089905 0.998127 
304.16571 0.060436 
304.187866 0.096605 
305.084747 0.345517 
308.110077 0.0591 
309.994781 0.038988 
313.737549 0.00668 
314.263 0.045728 
317.084747 1.560248 
321.008942 0.027361 
329.084045 9.130578 
330.088104 0.927847 
331.098572 0.056217 
332.624603 0.032129 
341.027069 0.043716 
347.094696 6.394836 
348.09848 0.326788 
349.6026 0.037103 
351.018738 0.010349 
356.619995 0.017292 
364.002075 0.049623 
365.105774 1.234656 
369.028412 0.009222 
377.106262 0.587214 
380.332245 0.025909 
384.002563 0.032437 
398.342133 0.166786 
399.344421 0.007875 
399.589172 0.018642 
407.116669 1.286499 
410.148865 0.017386 
414.256592 0.017851 
414.339111 0.007473 
416.352356 0.453471 
417.35611 0.034432 
428.713867 0.017463 
435.111877 0.102659 
437.126556 2.38458 
437.758362 0.059923 
438.13031 0.072263 
443.200745 0.04801 
449.127075 0.584145 
451.142303 0.287257 
456.090485 0.063419 
460.190613 0.016139 
467.13736 5.012183 
468.140839 0.496743 
479.137085 18.1737 
480.140167 2.968089 
481.141479 0.065748 
497.147614 4.098639 
498.151215 0.321804 
509.147644 4.258732 
510.151489 0.295474 
515.159851 0.048083 
527.157593 4.224738 
528.161865 0.594969 
530.876709 0.016554 
538.529663 0.016651 
539.157837 5.084771 
540.161621 0.686556 
542.057861 0.007081 
551.030701 0.007918 
553.173401 0.17627 
560.394104 0.079845 
561.400635 0.01071 
568.249878 0.034885 
578.404419 0.052776 
599.178894 15.548094 
600.18219 3.286586 
600.386292 4.381418 
601.185486 0.160183 
601.390991 1.193157 
609.748352 0.029888 
622.368652 1.287276 
623.37207 0.086676 
626.0578 0.018153 
638.840088 0.049362 
641.189331 8.141025 
642.193542 1.602088 
643.202637 0.050406 
657.187805 0.083405 
659.19989 12.031924 
660.20343 2.673708 
661.204163 0.126631 
707.420898 0.01167 
707.726807 0.031165 
707.760254 0.078081 
715.217041 0.007282 
726.810425 0.069704 
728.435059 0.04892 
738.030212 0.047198 
748.014771 0.019254 
756.497681 0.05474 
758.605835 0.034474 
760.418396 0.023383 
762.439453 6.287103 
763.442749 2.263025 
772.602173 0.031693 
794.338684 0.079015 
820.017273 0.016205 
845.468079 0.028058 
854.489563 0.012895 
884.503784 0.00976 
885.509094 0.006556 
892.463623 0.506033 
893.471619 0.550467 
894.48175 23.518206 
895.485291 10.113031 
896.488892 1.361699 
901.467224 0.032743 
902.287781 0.018327 
921.220276 0.018175 
922.477295 0.612842 
923.479431 0.79585 
924.491821 30.429153 
925.496399 13.929027 
926.498474 2.58043 
942.495361 0.02998 
991.90625 0.006998 
1016.542603 1.14056 
1017.544189 0.276532 
1018.551453 0.031523 
1019.551758 0.013564 
1028.536499 0.05982 
1029.551392 0.010348 
1030.553345 0.007722 
1034.554443 0.100495 
1035.55896 0.026129 
1046.547363 0.02649 
1047.554932 0.010001 
1054.518921 1.940219 
1055.521606 3.013965 
1056.534058 100.0 
1057.537964 48.502949 
1057.7323 0.431727 
1058.54126 9.874142 
1076.562134 0.031604 
1077.566284 0.012959 
1078.569458 0.00956 
1081.866333 0.051312 
END IONS

