BEGIN IONS
PEPMASS=386.265
CHARGE=1+
COMPOUNDNAME=ACTINONIN
LIBRARYQUALITY=3
SMILES=N/A
INCHIKEY=XJLATMLVMSFZBN-VYDXJSESSA-N
INCHI=InChI=1S/C19H35N3O5/c1-4-5-6-8-14(11-16(24)21-27)18(25)20-17(13(2)3)19(26)22-10-7-9-15(22)12-23/h13-15,17,23,27H,4-12H2,1-3H3,(H,20,25)(H,21,24)/t14-,15+,17+/m1/s1
MSLEVEL=2
SOURCE_INSTRUMENT=N/A-ESI-QFT
FILENAME=library_mgf.mgf
SEQ=*..*
IONMODE=positive
ORGANISM=MONA
NAME=ACTINONIN [M+H]+
PI=MoNA
DATACOLLECTOR=MoNA:VF-NPL-QEHF027305
PUBMED=N/A
SUBMITUSER=mwang87
TAGS=
SPECTRUMID=CCMSLIB00004720886
SCANS=27305
50.279083 0.019333 
50.896114 0.033743 
52.624584 0.01827 
52.981888 0.0214 
53.038902 0.054789 
53.040813 0.021737 
53.913578 0.024907 
54.40229 0.0206 
55.050491 0.01847 
55.054485 7.554628 
55.05595 0.047972 
55.270672 0.022022 
55.388271 0.016141 
55.42078 0.020439 
55.505936 0.023714 
55.555267 0.021439 
55.711178 0.018293 
55.790119 0.014214 
55.94759 0.028501 
56.049721 1.783991 
56.057816 0.083512 
56.866951 0.024576 
57.057537 0.304517 
57.070107 0.832845 
57.105648 0.020362 
58.35144 0.017174 
58.771027 0.01514 
58.823818 0.019618 
58.846203 0.022308 
59.55505 0.01732 
59.64032 0.021217 
59.657555 0.024739 
60.282143 0.016011 
60.466305 0.027259 
60.807503 0.016275 
60.951099 0.024727 
61.266644 0.027116 
62.159676 0.024534 
62.524067 0.017218 
62.697464 0.016081 
63.298374 0.02616 
63.397694 0.02139 
63.750137 0.021708 
65.161819 0.028108 
66.089111 0.018254 
66.320503 0.01255 
67.054283 2.169129 
67.135567 0.020137 
68.29789 0.016571 
68.334465 0.030862 
68.870247 0.02698 
69.047874 0.023142 
70.226341 0.02971 
70.964325 0.026377 
71.706581 0.017997 
72.080757 85.308578 
72.520294 0.026494 
72.824394 0.025014 
73.077766 0.039705 
73.084099 3.520242 
73.240593 0.021173 
74.455215 0.030127 
74.794701 0.019144 
75.524452 0.035915 
75.776375 0.028297 
76.525375 0.034531 
76.816658 0.024086 
76.922989 0.013046 
76.990341 0.017867 
78.268372 0.021509 
78.364975 0.024189 
78.553452 0.023176 
78.682602 0.022318 
78.692032 0.012382 
78.81736 0.025365 
78.954346 0.025315 
79.038406 0.018136 
79.946739 0.014133 
80.254272 0.03544 
81.434471 0.03275 
82.065094 0.264646 
83.049156 0.064404 
83.08548 0.06552 
83.863564 0.014194 
84.080772 12.610302 
85.064743 6.422651 
85.084061 0.374594 
86.068092 0.080272 
86.18293 0.014748 
87.585373 0.017194 
87.676552 0.028042 
88.653595 0.018583 
91.068077 0.0252 
92.829308 0.015787 
94.024109 0.013899 
95.013702 0.021199 
96.326714 0.020525 
96.766808 0.031679 
96.780083 0.023384 
97.101074 0.333265 
97.775719 0.020512 
97.890503 0.020855 
100.07563 1.526333 
100.635574 0.02847 
101.405327 0.024138 
101.644165 0.020406 
102.091324 100.0 
102.666466 0.012338 
102.713402 0.023816 
102.872719 0.024594 
102.974899 0.025873 
103.088463 0.148099 
103.094627 4.972143 
103.475616 0.013415 
105.536758 0.021015 
106.457741 0.014482 
106.757538 0.018751 
108.716064 0.015947 
108.766235 0.022923 
109.54435 0.03504 
110.060165 0.046799 
110.720253 0.030855 
111.044083 0.148826 
111.361969 0.036123 
112.07563 0.311888 
112.321274 0.035783 
113.642754 0.034671 
114.372322 0.016123 
117.265297 0.01401 
119.449738 0.018505 
120.187698 0.022542 
121.837219 0.024555 
122.974586 0.024332 
123.040421 0.015961 
125.096092 0.456209 
128.070465 8.491804 
128.388184 0.028382 
129.073853 0.219292 
131.003983 0.013697 
131.814743 0.013959 
131.98056 0.021137 
133.080139 0.02149 
133.395447 0.024802 
133.736465 0.021365 
134.328033 0.028995 
134.451233 0.019138 
136.793533 0.028866 
137.948944 0.022003 
138.597015 0.020156 
139.866791 0.032898 
141.889679 0.019688 
143.425888 0.027575 
143.590179 0.029613 
145.174377 0.020802 
149.105835 0.020301 
150.712082 0.025983 
151.887756 0.019602 
153.225525 0.022904 
155.534515 0.016922 
156.71315 0.026959 
158.11763 0.177654 
160.592438 0.02304 
161.294022 0.023714 
166.40004 0.017518 
166.604263 0.013658 
167.048355 0.014463 
167.23732 0.014935 
167.716949 0.01407 
169.363922 0.024158 
169.887207 0.021511 
170.117523 1.373733 
171.691544 0.029595 
171.757935 0.014425 
172.687454 0.028477 
176.178299 0.035931 
178.474335 0.02714 
179.152893 0.032969 
184.133041 0.940038 
184.326508 0.026891 
186.11232 3.634168 
186.808792 0.029741 
186.97319 0.024952 
187.115402 0.02772 
188.126434 0.01849 
192.423691 0.026874 
194.537552 0.029971 
202.081223 0.023014 
213.932816 1.345142 
213.941086 0.489405 
224.153442 0.031979 
224.164398 3.389934 
225.167938 0.152614 
227.045349 0.023098 
227.499313 0.017947 
229.629471 0.017524 
234.549316 0.025553 
237.058762 0.030685 
239.107193 0.02224 
239.208542 0.02266 
241.738235 0.021097 
249.833221 0.028818 
258.262573 0.020588 
273.937134 0.030286 
277.07663 0.026143 
278.630249 0.028445 
285.681091 0.022717 
286.648468 0.01793 
287.15921 0.019478 
289.0896 0.021491 
290.086334 0.030865 
292.998444 0.022722 
298.347595 0.025471 
299.781403 0.016789 
304.189484 0.027993 
313.079895 0.022629 
316.551941 0.024565 
318.918304 0.02369 
322.532501 0.016275 
326.066162 0.020202 
329.453217 0.021727 
338.95166 0.015976 
340.974823 0.026147 
343.070465 0.028985 
343.325348 0.016943 
343.990051 0.022057 
355.061157 0.015834 
363.298035 0.02518 
365.899872 0.037512 
376.154694 0.032813 
379.808044 0.015658 
388.833557 0.029488 
395.350586 0.029748 
399.922546 0.024556 
400.202515 0.015315 
END IONS

