BEGIN IONS
TITLE=Scan Number: 3106
PEPMASS=405.26401
CHARGE=1+
COMPOUNDNAME=Lovastatin related ion M+H ; Mevinolin annotated in standard
LIBRARYQUALITY=3
SMILES=CC[C@H](C)C(=O)O[C@H]1C[C@H](C=C2[C@H]1[C@H]([C@H](C=C2)C)CC[C@@H]3C[C@H](CC(=O)O3)O)C
INCHIKEY=PCZOHLXUXFIOCF-BXMDZJJMSA-N
INCHI=InChI=1S/C24H36O5/c1-5-15(3)24(27)29-21-11-14(2)10-17-7-6-16(4)20(23(17)21)9-8-19-12-18(25)13-22(26)28-19/h6-7,10,14-16,18-21,23,25H,5,8-9,11-13H2,1-4H3/t14-,15-,16-,18+,19+,20-,21-,23-/m0/s1
MSLEVEL=2
SOURCE_INSTRUMENT=LC-ESI-Orbitrap
FILENAME=f.lfnothias/1904_statins_standards/Mevinolin_1uL.mzML;
SEQ=*..*
NOTES=
IONMODE=Positive
ORGANISM=GNPS-LIBRARY
NAME=Lovastatin related ion M+H ; Mevinolin annotated in standard M+H
SPECTRUMID=CCMSLIB00005435692
ACTIVATION=CID
INSTRUMENT=ion trap
SCANS=3106
71.049911 2522.842285 
79.05455 21470.101562 
81.07019 20789.367188 
83.049377 9819.382812 
83.086182 2177.737549 
85.065147 4102.679688 
91.054543 6344.657715 
93.070091 10342.213867 
95.049286 2870.762939 
95.085907 6497.824707 
97.065033 11466.517578 
105.070145 24609.701172 
107.049271 3050.401855 
107.085693 20669.050781 
109.065331 1818.344116 
109.101562 2668.066895 
117.070114 4891.79834 
119.085678 13960.989258 
121.101593 8444.351562 
123.080841 1553.591553 
125.060143 8101.095215 
127.243866 1502.058105 
128.062485 5226.510742 
129.070129 3357.609619 
131.085724 29744.392578 
133.101364 9638.614258 
141.070724 5204.063477 
142.078079 6196.310547 
143.070847 7167.586914 
143.085831 62868.949219 
145.101425 39099.941406 
145.112457 2529.921143 
147.080338 1619.980835 
147.117371 4241.532715 
151.075455 2634.681152 
155.085556 14964.032227 
156.093781 4737.202148 
157.101501 30629.816406 
158.108978 7718.336426 
159.104095 2876.836182 
159.117126 45426.859375 
161.132935 2784.822754 
165.090668 2702.922119 
168.094238 1994.327393 
169.101471 38356.28125 
171.117035 34581.265625 
173.132858 110864.476562 
177.12677 2893.259521 
178.076157 1541.463745 
181.101303 7620.583984 
182.109161 2579.047852 
183.116928 25589.689453 
185.132339 9305.608398 
191.107162 7534.040039 
192.093292 1532.361694 
193.101593 6562.601562 
195.117905 4427.80127 
197.132904 22511.068359 
199.148529 197022.578125 
201.146454 2928.053223 
201.164169 37038.398438 
205.122269 2800.819336 
207.116714 9608.763672 
210.141541 2331.209473 
210.926727 1679.925781 
211.111664 4440.784668 
211.148392 8902.628906 
213.163986 1896.338623 
215.17981 4067.159912 
219.117294 2269.512451 
220.124832 2058.14502 
221.132309 1746.6073 
223.148651 28129.166016 
225.164185 123672.976562 
229.123199 5515.335449 
234.140778 2363.152588 
239.143173 2792.821045 
239.179871 26921.199219 
241.159637 1713.497925 
243.138062 2971.932617 
243.174866 59259.390625 
249.164383 32756.414062 
249.190033 2347.505859 
267.174835 25234.839844 
285.155396 3126.392334 
285.185455 41073.0625 
303.195618 10256.758789 
345.751862 1471.350708 
END IONS

