BEGIN IONS
PEPMASS=345.134
CHARGE=1+
COMPOUNDNAME=GIBBERELLIC ACID
LIBRARYQUALITY=3
SMILES=N/A
INCHIKEY=IXORZMNAPKEEDV-SNTJWBGVSA-N
INCHI=InChI=1S/C19H22O6/c1-9-7-17-8-18(9,24)5-3-10(17)19-6-4-11(20)16(2,15(23)25-19)13(19)12(17)14(21)22/h4,6,10-13,20,24H,1,3,5,7-8H2,2H3,(H,21,22)/t10-,11+,12-,13-,16+,17+,18+,19-/m1/s1
MSLEVEL=2
SOURCE_INSTRUMENT=N/A-ESI-QFT
FILENAME=library_mgf.mgf
SEQ=*..*
IONMODE=negative
ORGANISM=MONA
NAME=GIBBERELLIC ACID [M-H]-
PI=MoNA
DATACOLLECTOR=MoNA:VF-NPL-QEHF006364
PUBMED=N/A
SUBMITUSER=mwang87
TAGS=
SPECTRUMID=CCMSLIB00004697427
SCANS=6364
50.212826 0.013224 
50.312531 0.013922 
51.089317 0.016837 
52.007862 0.011842 
52.028641 0.012572 
52.172565 0.014882 
52.29211 0.011675 
52.700363 0.01223 
52.768883 0.015358 
53.194702 0.013006 
53.491856 0.013025 
54.125954 0.014611 
54.167511 0.014307 
54.693089 0.012521 
55.017456 0.012929 
55.243519 0.015088 
56.060665 0.012569 
56.139164 0.012522 
56.175388 0.016234 
56.682564 0.014268 
56.709774 0.017604 
56.865669 0.014436 
56.871643 0.010967 
57.033173 0.524928 
57.287251 0.01317 
57.308525 0.01599 
57.619041 0.015107 
58.032902 0.016742 
58.034904 0.014785 
58.228157 0.014643 
58.955662 0.013812 
59.012444 0.134776 
60.531712 0.017037 
60.655006 0.013688 
60.991692 0.319461 
61.281891 0.012912 
61.857922 0.015709 
63.050838 0.014114 
63.899208 0.019021 
64.351707 0.014899 
64.848785 0.017679 
65.137398 0.015277 
65.709579 0.014395 
65.945587 0.014982 
66.280052 0.010998 
69.03315 0.167574 
69.920158 0.014537 
70.693382 0.011235 
70.762276 0.013855 
70.870102 0.011082 
71.048836 26.033564 
72.052147 0.944268 
73.028107 6.005055 
74.03141 0.019472 
75.913025 0.016352 
76.735153 0.014441 
78.852798 0.014009 
79.778992 0.016726 
80.439423 0.014861 
81.120377 0.013097 
82.189468 0.014868 
82.667305 0.012894 
82.678474 0.015397 
83.048851 16.732376 
83.051895 0.167709 
83.251778 0.01825 
84.05217 0.761235 
84.22438 0.015017 
85.078644 0.014977 
85.990463 0.012865 
86.130234 0.014167 
86.807816 0.021042 
87.38916 0.014767 
89.940109 0.0158 
90.475136 0.013563 
92.759216 0.014239 
93.818596 0.016342 
94.629776 0.014061 
95.048843 0.144366 
96.979774 0.014655 
99.368744 0.015173 
99.879684 0.013111 
99.890953 0.017394 
100.361259 0.01756 
102.894447 0.013694 
104.768211 0.014236 
104.77684 0.014188 
105.069626 0.781956 
107.048981 0.098505 
107.366676 0.012237 
109.064011 0.016078 
109.547607 0.016651 
112.036255 0.014517 
112.117737 0.015012 
112.347313 0.018196 
114.364571 0.013933 
115.13076 0.014191 
116.046165 0.014701 
116.776337 0.01471 
117.045128 0.014746 
117.758759 0.011749 
119.085381 0.033758 
119.296684 0.014407 
119.60881 0.015128 
119.649826 0.019302 
121.064888 0.017824 
124.800476 0.01718 
125.17083 0.013156 
130.789017 0.016696 
132.554184 0.014717 
133.064438 0.119282 
135.935181 0.01664 
136.952209 0.014573 
141.884674 0.014297 
143.000671 0.019649 
143.085464 100.0 
144.088776 10.643531 
145.064728 0.07325 
145.092148 0.154682 
145.271439 0.015792 
146.072632 0.184284 
147.080734 0.017445 
147.877151 0.016187 
149.095947 0.089557 
152.312134 0.01647 
154.83165 0.015503 
155.08548 0.418187 
155.788818 0.015225 
157.06488 0.083924 
157.101028 0.016369 
159.080399 0.736008 
161.09613 8.638531 
162.099457 0.890834 
163.581406 0.016308 
168.763062 0.016754 
169.101227 0.315072 
171.080521 0.270422 
171.117142 0.018286 
173.096146 0.96438 
173.623138 0.015826 
174.098984 0.014365 
174.427216 0.015771 
175.075897 0.037645 
181.030975 0.018973 
182.995728 0.014123 
183.080566 0.645549 
183.116959 0.127118 
184.362747 0.014211 
185.09613 1.517685 
185.260437 0.018345 
186.099579 0.035653 
187.075424 0.19139 
187.112152 0.031435 
189.091187 0.075471 
189.218033 0.015283 
193.101303 0.159228 
195.117065 0.018929 
196.574738 0.016975 
197.096436 0.837841 
197.123734 0.014445 
197.132767 1.304883 
198.067993 0.039618 
198.136597 0.050078 
199.075638 0.230169 
199.112137 1.788925 
200.115494 0.079752 
201.127808 3.789899 
201.295624 0.014506 
202.131271 0.384792 
202.311829 0.0138 
202.711823 0.016866 
206.631088 0.014525 
209.096832 0.089894 
211.112289 0.166152 
213.091354 0.016721 
213.12796 4.296753 
214.131226 0.613791 
214.709061 0.717405 
215.107269 0.087421 
215.143539 0.901107 
216.050446 0.012333 
216.147293 0.016073 
217.122894 0.086678 
219.117691 0.080853 
221.132996 40.120586 
222.136459 6.905085 
223.112015 0.161181 
223.139618 0.121666 
223.502991 0.015949 
224.11998 0.064474 
225.047684 0.015212 
225.091583 0.166815 
227.1073 19.478819 
228.110611 2.94263 
231.802689 0.01647 
233.774719 0.014418 
235.112274 0.257879 
237.128464 1.711459 
237.438217 0.014798 
238.131348 0.170187 
239.063675 0.016619 
239.143723 20.2085 
240.147202 3.548352 
241.122772 0.058646 
243.06604 0.165605 
245.117935 0.060215 
246.30777 0.014625 
251.107452 0.135739 
253.123245 1.827262 
254.126602 0.144345 
255.102921 0.087163 
255.138855 1.791634 
256.142426 0.11134 
257.114655 0.01799 
257.15448 8.195755 
257.875671 0.017349 
258.157837 1.418482 
258.880371 0.017329 
259.591339 0.021694 
265.12323 0.458667 
266.127197 0.018671 
266.822144 0.013978 
269.296234 0.018154 
269.660065 0.014156 
271.097565 7.694929 
271.133423 0.136897 
272.084717 0.017454 
272.100922 1.19185 
273.149719 1.065616 
274.152924 0.047858 
274.668304 0.015984 
276.891571 0.01475 
280.985596 0.016037 
283.13382 4.809179 
284.137238 0.858266 
287.016205 0.016799 
290.62085 0.015921 
294.23587 0.016032 
301.14447 7.046962 
302.14801 1.282363 
305.004883 0.015533 
310.435822 0.016468 
318.930634 0.015102 
318.994934 0.015634 
324.343811 0.019636 
327.123383 1.135908 
328.127869 0.020989 
332.071503 0.011729 
338.361847 0.013588 
338.732544 0.014486 
340.425964 0.014774 
345.134338 13.085068 
346.137665 2.625471 
347.139709 0.017674 
357.069672 0.017781 
357.187561 0.016071 
357.4841 0.014136 
358.022644 0.017607 
359.083344 0.015958 
360.359894 0.016325 
369.409088 0.013604 
END IONS

