BEGIN IONS
PEPMASS=825.451
CHARGE=1+
COMPOUNDNAME=MoNA:745166 Nodularin
LIBRARYQUALITY=3
SMILES=N/A
INCHIKEY=IXBQSRWSVIBXNC-HSKGSTCASA-N
INCHI=InChI=1S/C41H60N8O10/c1-8-31-38(54)48-34(40(57)58)26(5)36(52)46-29(15-12-20-44-41(42)43)37(53)45-28(25(4)35(51)47-30(39(55)56)18-19-33(50)49(31)6)17-16-23(2)21-24(3)32(59-7)22-27-13-10-9-11-14-27/h8-11,13-14,16-17,21,24-26,28-30,32,34H,12,15,18-20,22H2,1-7H3,(H,45,53)(H,46,52)(H,47,51)(H,48,54)(H,55,56)(H,57,58)(H4,42,43,44)/b17-16+,23-21+,31-8-/t24-,25-,26-,28-,29-,30+,32-,34+/m0/s1
MSLEVEL=2
SOURCE_INSTRUMENT=LC-ESI-QFT-LC-ESI-QFT
FILENAME=output_mgf.mgf
SEQ=*..*
IONMODE=
ORGANISM=MONA
NAME=MoNA:745166 Nodularin [M+H]+
PI=MoNA
DATACOLLECTOR=MoNA
PUBMED=N/A
SUBMITUSER=mwang87
TAGS=
SPECTRUMID=CCMSLIB00000566458
SCANS=3710
58.0652 0.235587 
59.0478 0.484279 
60.0557 1.522517 
63.0228 0.136316 
65.0386 2.20308 
67.0542 1.123717 
68.0495 2.558876 
69.0335 1.774765 
69.07 0.413771 
70.0651 83.43557 
71.0491 1.118373 
72.0807 2.07268 
74.0237 0.117655 
74.0601 0.147 
77.0385 2.311281 
78.0463 0.179478 
79.0542 10.605018 
80.0495 0.809643 
81.0334 0.50042 
81.0699 0.664169 
82.0287 1.813628 
82.0651 0.686984 
83.0492 1.383776 
83.0605 0.147357 
84.0444 11.854525 
85.0284 2.069572 
85.076 0.991054 
86.0601 0.652732 
88.0756 0.148381 
91.0542 31.149969 
92.0621 0.470839 
93.0698 10.345583 
94.065 2.65791 
95.0491 21.986721 
95.0603 2.974642 
96.0443 1.230159 
96.0807 0.843966 
97.076 4.683146 
98.06 5.495148 
99.019 1.235218 
100.0756 0.988884 
102.0465 1.681116 
102.055 0.230867 
103.0542 100.0 
104.0576 0.119957 
104.0621 0.114282 
105.0447 4.482832 
105.0699 38.939807 
106.0651 0.454415 
107.0855 25.452648 
108.0808 1.772805 
109.0648 3.546568 
109.076 0.792137 
110.0601 0.228821 
110.0963 0.726218 
111.0554 0.220107 
112.0869 6.355893 
113.0233 2.304894 
113.0709 1.65191 
114.055 0.536529 
114.1027 0.956399 
115.0542 12.238484 
115.0866 3.292178 
116.062 0.937044 
116.0708 0.239569 
117.0698 10.807204 
118.0653 0.121363 
119.0604 0.976463 
119.0855 1.994512 
120.0569 2.218357 
120.0681 0.114559 
120.0807 1.975015 
120.0934 0.533156 
121.0648 0.179804 
121.0762 0.149991 
121.1013 0.184189 
122.06 0.103421 
122.0714 0.153247 
122.0841 0.156419 
122.0964 0.413793 
123.0553 0.425255 
123.0803 0.104369 
123.0915 0.144534 
124.0393 0.442709 
124.0519 0.140329 
124.0757 1.381371 
124.087 0.112294 
125.0709 1.904999 
126.0549 0.180381 
126.0914 0.668168 
127.0865 1.748215 
128.0342 0.135582 
128.0622 0.679013 
129.0696 1.271053 
130.0498 1.66839 
130.0649 0.167376 
130.0778 0.191971 
130.0975 0.882783 
131.0854 1.714478 
132.0809 0.132183 
133.0762 0.178291 
133.1013 0.588321 
135.0804 12.519267 
135.0915 4.970936 
135.1167 2.909511 
136.0755 1.214915 
136.0994 0.836713 
137.071 0.382323 
137.1071 1.097339 
138.0661 0.278486 
138.0914 0.52018 
139.0977 0.170996 
140.0817 0.957986 
141.0655 2.363632 
143.0857 0.392213 
144.0808 0.113691 
145.1013 0.651946 
146.0602 0.172285 
147.0916 0.134126 
148.1125 0.122887 
150.0915 0.170517 
150.1027 0.23683 
151.0867 0.436517 
152.071 0.217941 
153.1022 3.748975 
154.0865 0.430301 
155.0857 0.152908 
157.1085 0.375264 
162.1026 0.205768 
163.0864 2.554069 
163.1119 0.46635 
164.0708 0.60483 
164.1181 0.156638 
165.0697 0.581854 
165.1024 0.658281 
166.0779 0.158587 
170.0965 0.434919 
171.0767 0.178058 
172.1121 0.391937 
173.096 0.114567 
178.0977 0.138175 
179.0855 0.468955 
180.0933 0.232781 
180.1127 0.175488 
181.0969 5.692582 
182.0813 0.751578 
182.1033 0.472123 
192.1134 0.216643 
199.1074 0.196126 
201.0984 0.197044 
208.1086 0.107705 
209.092 1.427407 
219.1133 0.111058 
227.1028 0.217497 
END IONS

