BEGIN IONS
PEPMASS=243.0
CHARGE=1+
COMPOUNDNAME=Massbank:KO003263 Kanamycin
LIBRARYQUALITY=3
SMILES=NCC(O1)C(O)C(O)C(O)C1OC(C(N)3)C(O)C(C(N)C3)OC(O2)C(O)C(N)C(O)C(CO)2
INCHIKEY=SBUJHOSQTJFQJX-UHFFFAOYSA-N
INCHI=1S/C18H36N4O11/c19-2-6-10(25)12(27)13(28)18(30-6)33-16-5(21)1-4(20)15(14(16)29)32-17-11(26)8(22)9(24)7(3-23)31-17/h4-18,23-29H,1-3,19-22H2/t4-,5+,6-,7-,8+,9-,10-,11-,12+,13-,14-,15+,16-,17-,18-/m1/s1
MSLEVEL=2
SOURCE_INSTRUMENT=ESI-LC-ESI-QQ
FILENAME=Massbank_ESI_positive_8_1_2014_peaks.mgf
SEQ=*..*
IONMODE=Positive
ORGANISM=MASSBANK
NAME=Massbank:KO003263 Kanamycin [M+2H]++
PI=Putative Massbank Match
DATACOLLECTOR=Massbank
PUBMED=N/A
SUBMITUSER=mwang87
TAGS=
SPECTRUMID=CCMSLIB00000219046
SCANS=9065
60.3 24752.5 
68.9 29703.0 
71.8 54455.5 
84.3 257426.0 
86.1 19802.0 
99.1 39604.0 
102.2 39604.0 
104.7 39604.0 
114.8 69307.0 
115.1 207921.0 
124.5 24752.5 
141.1 29703.0 
144.2 217822.0 
159.0 99010.0 
162.0 297030.0 
163.3 861387.0 
181.4 9901.0 
183.2 54455.5 
187.0 34653.5 
201.3 113861.5 
205.4 118812.0 
226.2 5391094.5 
243.2 2207923.0 
324.8 39604.0 
END IONS

