BEGIN IONS
PEPMASS=890.526
CHARGE=1+
COMPOUNDNAME=Pesticide4_Avermectin B1b_C48H72O14_(1'R,2S,4'S,5S,6R,8'R,10'E,12'S,13'S,14'E,16'E,20'R,21'R,24'S)-6-[(2S)-2-Butanyl]-21',24'-dihydroxy-5,11',13',22'-tetramethyl-2'-oxo-5,6-dihydrospiro[pyran-2,6'-[3,7,19]trioxatetracyclo[15.6.1.1~4,8~.0~20,24~]pentacosa[10,14,16,22]tetraen]-12'-yl 2,6-dideoxy-4-O-(2,6-dideoxy-3-O-methyl-alpha-L-arabino-hexopyranosyl)-3-O-methyl-alpha-L-arabino-hexopyranoside
LIBRARYQUALITY=1
SMILES=CCC(C)C1C(C=CC2(O1)CC3CC(O2)CC=C(C(C(C=CC=C4COC5C4(C(C=C(C5O)C)C(=O)O3)O)C)OC6CC(C(C(O6)C)OC7CC(C(C(O7)C)O)OC)OC)C)C
INCHIKEY=RRZXIRBKKLTSOM-XPNPUAGNSA-N
INCHI=InChI=1S/C48H72O14/c1-11-25(2)43-28(5)17-18-47(62-43)23-34-20-33(61-47)16-15-27(4)42(26(3)13-12-14-32-24-55-45-40(49)29(6)19-35(46(51)58-34)48(32,45)52)59-39-22-37(54-10)44(31(8)57-39)60-38-21-36(53-9)41(50)30(7)56-38/h12-15,17-19,25-26,28,30-31,33-45,49-50,52H,11,16,20-24H2,1-10H3/b13-12+,27-15+,32-14+/t25-,26-,28-,30-,31-,33+,34-,35-,36-,37-,38-,39-,40+,41-,42-,43+,44-,45+,47+,48+/m0/s1
MSLEVEL=2
SOURCE_INSTRUMENT=-Q-Exactive Plus Orbitrap Res 14k
FILENAME=Pesticide_Mix4_pos_14k.mzXML
SEQ=*..*
IONMODE=positive
ORGANISM=GNPS-COLLECTIONS-PESTICIDES-POSITIVE
NAME=Pesticide4_Avermectin B1b_C48H72O14_(1'R,2S,4'S,5S,6R,8'R,10'E,12'S,13'S,14'E,16'E,20'R,21'R,24'S)-6-[(2S)-2-Butanyl]-21',24'-dihydroxy-5,11',13',22'-tetramethyl-2'-oxo-5,6-dihydrospiro[pyran-2,6'-[3,7,19]trioxatetracyclo[15.6.1.1~4,8~.0~20,24~]pentacosa[10,14,16,22]tetraen]-12'-yl 2,6-dideoxy-4-O-(2,6-dideoxy-3-O-methyl-alpha-L-arabino-hexopyranosyl)-3-O-methyl-alpha-L-arabino-hexopyranoside M+NH4
PI=Dorrestein/Touboul
DATACOLLECTOR=lfnothias
PUBMED=n/a
SUBMITUSER=mwang87
TAGS=
SPECTRUMID=CCMSLIB00001058855
SCANS=4497
71.049706 13777.09375 
71.08564 1616.845459 
73.065086 18986.054688 
73.06813 1178.593384 
75.044006 1361.05127 
77.060043 2027.038086 
79.054321 23073.238281 
79.907211 1140.809937 
81.033524 4823.344238 
81.065361 2282.630127 
81.070213 59591.640625 
83.049225 8162.925293 
83.085854 3058.217285 
85.023468 1636.571167 
85.028755 33433.78125 
85.065117 22633.779297 
85.101601 1314.577637 
87.044312 17899.207031 
91.053802 12140.712891 
93.069695 35497.296875 
95.049286 239848.625 
95.085266 18379.185547 
97.028389 2324.840576 
97.064728 78624.828125 
97.10096 5127.904785 
99.044662 2119.175537 
99.0802 2092.305664 
99.516632 1213.187378 
101.059898 6953.659668 
105.069717 18517.519531 
107.049347 11797.365234 
107.086121 22425.304688 
109.065033 35275.785156 
109.100761 101685.375 
111.037224 1520.532715 
111.043884 8366.520508 
111.080521 5621.587402 
113.059914 257103.234375 
117.070221 6859.781738 
119.04863 1992.347656 
119.085434 27319.654297 
121.065201 13888.177734 
121.101593 29594.910156 
123.043495 2114.196289 
123.081032 13369.058594 
123.117294 146663.53125 
125.059105 2216.667969 
127.075714 31512.753906 
128.062378 1403.900391 
129.070389 4819.376465 
130.086197 2583.003418 
131.08551 11075.894531 
133.065063 1738.033569 
133.10144 16752.996094 
135.080902 19246.050781 
135.116623 8080.091309 
137.059174 6380.224609 
137.095749 18479.90625 
143.070129 5604.205078 
143.086334 11406.426758 
145.066208 5435.943359 
145.086151 177618.140625 
145.101028 9938.263672 
147.08075 9849.189453 
147.116211 5746.624023 
149.059784 1354.502808 
149.096039 5683.715332 
149.132309 1764.021606 
151.075485 8028.646484 
151.112457 57634.4375 
153.053299 1644.063232 
153.091034 2646.25 
155.0867 2048.862793 
156.09375 1664.611328 
157.101364 9677.376953 
159.080856 4974.287109 
159.11702 7431.772949 
161.096222 2715.539795 
161.133087 6367.05957 
162.113815 12739.527344 
163.075058 8145.143066 
163.112595 1648.93689 
163.148163 1637.879517 
165.090622 2957.080322 
165.126846 1747.979736 
169.099731 4048.635254 
169.122726 62012.320312 
171.079651 2860.134277 
171.117767 13668.195312 
173.060043 1439.14563 
173.133484 4922.842773 
173.890091 1243.988525 
175.110138 2101.988281 
175.14743 8988.582031 
177.127533 2662.963135 
179.086746 1310.876709 
179.107208 2792.226318 
179.1436 1395.722046 
181.085587 2026.586792 
181.101776 1712.534668 
183.1017 7509.463379 
183.115799 1887.213257 
184.088013 1323.569702 
185.132477 2261.284668 
187.112228 2939.380127 
187.148651 2409.845703 
189.091858 5198.038574 
191.143158 2058.99707 
193.159348 63563.75 
197.096634 5866.185059 
197.133377 6279.431152 
199.112106 30232.880859 
199.149246 7195.870605 
201.166412 1270.9021 
207.082809 1299.250977 
207.101517 8923.710938 
215.107513 6684.292969 
217.12355 4227.650391 
217.160019 8863.641602 
219.140366 2895.852051 
221.1539 12230.265625 
225.089828 5401.13623 
225.112244 7211.335449 
227.105255 1742.392212 
239.128662 9709.853516 
243.102814 5943.018555 
245.117538 37930.683594 
261.110168 8955.052734 
287.202423 9341.269531 
288.207611 13998.462891 
289.216705 6023.322266 
305.209198 297586.09375 
307.226898 46480.0 
339.1604 2213.705322 
357.170837 7661.282715 
447.345856 38105.917969 
448.350067 11443.123047 
449.35321 1602.330933 
549.321594 8761.792969 
565.318298 7442.473145 
567.325256 2458.4729 
698.200989 1467.409912 
802.71637 1711.363037 
842.328918 1710.392456 
END IONS

