BEGIN IONS
PEPMASS=1444.74
CHARGE=1+
COMPOUNDNAME=BACITRACIN
LIBRARYQUALITY=3
SMILES=N/A
INCHIKEY=CLKOFPXJLQSYAH-NVOBBBONSA-N
INCHI=InChI=1S/C66H103N17O16S/c1-9-35(6)52(69)66-81-48(32-100-66)63(97)76-43(26-34(4)5)59(93)74-42(22-23-50(85)86)58(92)83-53(36(7)10-2)64(98)75-40-20-15-16-25-71-55(89)46(29-49(68)84)78-62(96)47(30-51(87)88)79-61(95)45(28-39-31-70-33-72-39)77-60(94)44(27-38-18-13-12-14-19-38)80-65(99)54(37(8)11-3)82-57(91)41(21-17-24-67)73-56(40)90/h12-14,18-19,31,33-37,40-48,52-54H,9-11,15-17,20-30,32,67,69H2,1-8H3,(H2,68,84)(H,70,72)(H,71,89)(H,73,90)(H,74,93)(H,75,98)(H,76,97)(H,77,94)(H,78,96)(H,79,95)(H,80,99)(H,82,91)(H,83,92)(H,85,86)(H,87,88)/t35?,36?,37?,40-,41+,42+,43-,44+,45-,46-,47+,48?,52?,53-,54-/m0/s1
MSLEVEL=2
SOURCE_INSTRUMENT=N/A-ESI-QFT
FILENAME=library_mgf.mgf
SEQ=*..*
IONMODE=positive
ORGANISM=MONA
NAME=BACITRACIN [M+Na]+
PI=MoNA
DATACOLLECTOR=MoNA:VF-NPL-QEHF027772
PUBMED=N/A
SUBMITUSER=mwang87
TAGS=
SPECTRUMID=CCMSLIB00004721353
SCANS=27772
101.107361 0.217478 
102.054985 5.31843 
102.058357 0.042653 
103.054245 0.533549 
103.058121 0.10351 
105.069733 0.062223 
105.846207 0.013485 
108.055771 0.115995 
108.080849 0.036668 
109.063782 0.075456 
109.076073 0.251328 
109.636086 0.018081 
110.071243 100.0 
110.096268 0.293847 
111.055267 0.135543 
111.064606 0.01916 
111.068275 0.954483 
111.074577 5.18718 
111.078575 0.044223 
111.091637 1.933303 
112.075661 0.777222 
112.086937 0.274224 
112.095085 0.018716 
112.111961 0.204042 
113.070953 0.133372 
113.107292 0.742548 
114.091553 0.022838 
114.102715 0.250293 
115.086632 7.454344 
116.070557 0.140655 
116.08992 0.229089 
119.182335 0.012393 
120.055756 0.275865 
120.080803 8.882934 
120.085518 0.123364 
121.03968 0.357849 
121.084114 0.685262 
122.071297 1.015765 
123.055229 0.691574 
123.091713 0.225791 
124.076019 0.039636 
124.086914 0.394523 
124.112091 0.217 
124.956985 0.016635 
125.070992 0.319797 
125.107368 0.29602 
126.127907 0.030008 
126.791496 0.014002 
127.050224 0.037295 
127.086571 0.274764 
127.123055 0.018606 
128.052475 0.019032 
128.11821 0.01972 
129.012131 0.015388 
129.065659 0.174864 
129.102188 19.312204 
129.107742 0.304493 
130.04982 0.267548 
130.065125 0.238623 
130.086243 0.133137 
130.100388 0.097653 
130.105438 1.372567 
131.117828 0.309168 
132.080643 0.115627 
133.063507 0.045182 
133.084503 0.015786 
133.787933 0.01389 
134.096573 0.04032 
135.091583 0.362953 
136.050476 0.056737 
136.07576 0.836495 
136.086945 2.211391 
136.111877 0.023504 
137.071136 0.12381 
137.081909 0.017153 
137.089966 0.020262 
137.107285 0.977988 
138.066193 4.166705 
138.091293 0.113612 
138.102295 0.062333 
138.12764 1.306747 
138.332825 0.010541 
139.069427 0.100326 
139.086578 6.358936 
139.122986 0.264407 
140.081345 0.018679 
140.089828 0.282703 
140.106995 0.240898 
140.118088 0.304216 
140.143341 0.263213 
141.011765 0.013593 
141.065704 0.020698 
141.102234 0.869001 
142.068008 0.017857 
142.09729 0.043704 
143.045151 0.366445 
143.081528 0.143298 
143.408218 0.017315 
145.349304 0.014022 
146.071457 0.018527 
146.096329 0.061171 
146.128784 1.502908 
147.075836 0.017397 
148.050659 0.060026 
148.086868 0.286047 
149.082153 0.015758 
149.107162 0.082873 
150.127579 0.011139 
151.002426 0.018513 
151.086395 0.033573 
151.123428 0.037678 
152.081604 0.03522 
152.107056 0.204561 
152.118729 0.040217 
152.143433 0.641408 
152.483948 0.018129 
153.102219 0.802401 
153.138992 0.052385 
154.061249 0.108629 
154.085861 0.020253 
154.122375 0.02412 
154.133881 0.819446 
154.158997 0.674417 
155.044128 0.014952 
155.092651 4.22447 
155.117737 1.615716 
156.076645 2.393298 
156.095886 0.109356 
156.102066 0.02226 
156.113129 2.313656 
156.119736 0.027387 
157.080063 0.034631 
157.097153 0.268053 
157.116394 0.031487 
159.091492 0.152951 
162.066055 0.236492 
162.102478 2.469207 
163.086472 2.338292 
163.0979 0.212359 
163.105545 0.085415 
163.12291 0.267144 
164.070465 2.523262 
164.082047 1.151903 
164.089157 0.072241 
164.118378 0.324826 
165.077286 1.670534 
165.102219 1.111161 
165.113678 0.235931 
165.138641 0.343295 
166.061081 7.822328 
166.072937 0.020029 
166.086609 0.096902 
166.09758 0.111428 
166.122635 0.158631 
166.133865 0.567387 
167.044785 0.014506 
167.056549 0.075964 
167.064453 0.591503 
167.081406 1.120977 
167.09285 0.015957 
167.117813 0.434924 
167.154312 0.238113 
168.101776 0.348468 
168.113403 0.033193 
168.149536 0.218793 
169.079346 0.05621 
169.097076 0.133316 
169.105164 0.021209 
169.133469 0.383998 
170.117615 0.065661 
171.094971 0.032271 
172.078903 0.096881 
172.112137 0.289691 
174.065536 0.013129 
174.124771 0.014229 
174.918182 0.018329 
175.086487 0.282811 
176.118134 0.848324 
177.10173 0.014654 
177.138596 1.132791 
178.097794 0.043811 
178.133911 1.748064 
178.141541 0.076522 
179.082901 0.018034 
179.092728 0.136512 
179.117889 0.697482 
179.154099 0.042072 
180.076736 0.610146 
180.113083 1.177926 
180.14949 0.461064 
181.097183 8.697184 
181.108215 6.082162 
181.116791 0.169963 
181.13324 1.817186 
181.1698 0.050881 
182.081177 0.08549 
182.100632 0.742458 
182.111496 0.261818 
182.128723 0.252263 
182.1371 0.042329 
182.165054 1.555718 
183.08728 0.04183 
183.103989 0.016643 
183.112793 1.592261 
183.149185 2.892301 
183.168518 0.012828 
184.071579 0.034734 
184.107895 0.308711 
184.152603 0.177351 
184.180817 0.167999 
184.833069 0.013599 
185.055542 1.075437 
185.074799 0.065106 
185.092056 0.215513 
185.128601 0.035497 
186.127655 0.162668 
186.159302 0.015256 
186.772736 0.010526 
187.089645 0.288286 
188.143326 0.743968 
188.579971 0.009142 
189.077179 0.093549 
189.10466 0.183803 
189.11348 0.422542 
190.060944 0.375611 
190.097473 0.420438 
190.133575 0.415811 
191.082077 0.486117 
191.092606 2.144071 
191.117737 0.947545 
191.154266 0.014705 
192.076721 0.169994 
192.096008 0.021947 
192.113022 0.225721 
192.122131 0.014464 
192.149323 1.138976 
193.071426 0.040379 
193.080566 0.020174 
193.097137 0.22108 
193.107803 0.020421 
193.133575 3.843665 
194.091858 0.077981 
194.118835 0.020442 
194.128555 0.374267 
194.137283 0.258281 
194.165161 0.416866 
195.040222 0.132026 
195.076218 0.039741 
195.094696 0.177077 
195.112854 0.524865 
195.14917 0.495696 
195.920547 0.010841 
196.042953 0.024798 
196.07254 0.017276 
196.107971 0.164768 
196.144363 1.49693 
196.180862 1.930679 
197.074234 1.35411 
197.110397 0.035378 
197.128448 2.037657 
197.148254 0.023178 
197.16481 0.873835 
197.184235 0.039449 
198.058487 0.168598 
198.07753 0.023894 
198.123672 11.896531 
198.15947 0.061659 
198.839859 0.01457 
199.072021 0.016873 
199.089951 5.547481 
199.106995 0.954933 
199.12706 1.119824 
200.037354 0.0178 
200.074005 0.053093 
200.093063 0.351672 
200.17572 0.63787 
201.085724 0.084155 
201.123474 0.07005 
202.082291 0.515287 
204.113556 0.056661 
204.14949 0.046699 
205.133713 0.147462 
205.143311 0.019035 
206.103851 0.035942 
206.128754 0.673456 
206.165131 1.939747 
206.199265 0.019513 
207.087418 1.269737 
207.113052 0.43806 
207.12381 3.770001 
207.149094 0.844947 
207.159241 0.06835 
207.172424 0.231817 
208.071777 0.338382 
208.107986 2.110765 
208.127274 0.306884 
208.144424 2.090279 
208.180801 0.795145 
209.074966 0.054063 
209.0923 1.178639 
209.101715 0.07749 
209.11142 0.291191 
209.128433 1.600137 
209.147827 0.043206 
209.164581 0.218091 
210.08667 0.017619 
210.123703 0.782041 
210.16008 8.996132 
211.052216 0.015897 
211.107834 0.237234 
211.126358 0.172492 
211.14415 1.698344 
211.163437 0.914767 
212.066452 0.38667 
212.105499 0.129333 
212.118225 5.748937 
212.139206 0.016161 
212.937332 0.010504 
213.050644 0.501983 
213.069244 0.734863 
213.121918 0.883315 
214.053268 0.922273 
214.099991 0.026277 
214.154877 0.376387 
215.084839 0.294804 
215.139084 3.067153 
216.142029 0.150411 
217.072281 0.436123 
217.098663 0.340915 
217.108902 0.349172 
217.133469 0.619145 
217.144547 0.015715 
217.169861 0.226063 
218.055969 0.122115 
218.128235 0.072782 
218.165085 0.247493 
219.113739 0.022311 
219.149124 0.443633 
220.107315 0.01795 
220.144409 0.446503 
220.180801 4.303392 
221.07579 0.622193 
221.128464 0.199356 
221.139633 0.34663 
221.164612 0.02427 
221.188675 1.718465 
222.102493 0.181569 
222.123108 0.09911 
222.160294 0.270347 
222.196472 2.590864 
223.107208 0.037792 
223.144196 0.065697 
223.180328 0.286102 
223.200378 0.071955 
224.106644 0.017757 
224.118332 1.567524 
224.138931 1.290798 
224.175522 0.94181 
225.069214 1.849145 
225.098022 1.56583 
225.122803 0.93154 
225.134674 0.938934 
225.159775 0.137122 
225.17099 0.697977 
225.594131 0.017347 
226.073914 0.015125 
226.106476 0.082971 
226.118332 2.389052 
226.137329 0.019742 
226.154785 1.106162 
227.06517 0.017183 
227.084824 5.005423 
227.103256 0.117534 
227.121567 0.127066 
227.138977 0.023673 
227.150238 0.093633 
228.088272 0.305767 
228.134689 0.038093 
228.170532 3.360718 
229.118073 0.03956 
229.132751 0.059958 
229.154587 0.039126 
229.174149 0.217093 
230.077026 2.347597 
231.061234 0.021155 
231.080322 0.083434 
231.123871 0.05819 
231.149109 0.520664 
232.143921 0.017298 
232.180573 0.10131 
233.128342 0.080295 
233.139526 0.012193 
233.164856 2.837316 
234.098587 1.474996 
234.123611 0.460707 
234.158752 1.475445 
234.196503 0.101975 
235.082413 10.005436 
235.105103 0.052471 
235.118851 0.045759 
235.143845 0.743967 
235.155258 0.259426 
236.06665 0.750225 
236.085953 1.028542 
236.102554 0.453361 
236.139084 0.978213 
236.175705 0.478552 
237.069 0.040358 
237.086639 0.109884 
237.09845 0.419818 
237.143585 0.022536 
237.159607 0.075233 
238.11937 0.04196 
238.137421 0.339529 
238.154922 2.07354 
239.084518 0.022865 
239.115097 0.022434 
239.128952 0.759327 
239.158325 0.046517 
240.062332 0.013421 
240.113342 1.016016 
240.133514 0.073743 
240.152893 0.658825 
241.046143 0.034862 
241.117828 0.319238 
241.132385 0.033714 
241.144684 0.739673 
241.156784 0.020432 
242.095184 0.086862 
242.149292 0.398401 
242.186127 2.151779 
243.133789 5.857907 
243.146591 1.293718 
243.181412 8.232937 
244.092789 0.09831 
244.138092 0.274292 
244.150269 0.018133 
244.185196 0.975748 
245.165009 0.071445 
246.098694 0.019509 
246.159821 0.145828 
247.143677 0.170623 
247.155884 0.02051 
247.190521 0.018439 
247.871902 0.020014 
248.138336 0.019443 
248.175613 3.897622 
249.072449 0.721895 
249.134995 0.021851 
249.159561 0.818447 
249.179657 0.207122 
249.207382 0.04883 
250.096909 0.137672 
250.118454 0.139339 
250.154572 0.182499 
250.191559 0.676045 
251.174728 0.186032 
252.109085 8.202504 
252.133545 0.410705 
252.152863 0.885092 
252.1707 1.254764 
253.09314 37.746212 
253.117538 0.294678 
253.133484 0.016783 
253.165756 8.669766 
254.096313 3.803864 
254.113205 0.878203 
254.151398 0.076234 
254.169022 2.505579 
254.183365 0.019521 
255.098038 0.398692 
255.150864 0.014236 
255.170868 0.073543 
256.1651 0.195092 
257.139557 11.276294 
258.143463 1.61501 
259.181 0.099429 
259.212891 0.115242 
260.1026 0.078572 
260.138611 0.022064 
260.17215 1.835121 
261.158997 1.46794 
261.172638 0.106776 
262.093262 0.261428 
262.154816 0.434857 
262.190918 0.017225 
263.077484 2.322471 
263.137421 0.021798 
263.151245 0.079007 
263.187256 0.024652 
264.081024 0.094549 
264.170563 0.374373 
265.136932 1.134249 
265.151062 0.017127 
265.20282 0.117063 
266.133026 0.058582 
266.150085 0.093726 
266.186279 0.678282 
267.125305 2.795377 
267.151245 0.198078 
268.107971 11.138756 
268.125549 0.526347 
268.147675 0.517311 
268.20166 0.020837 
269.111847 2.067725 
269.139282 0.781352 
269.197052 0.433803 
270.119659 4.997375 
270.136536 0.014023 
270.143341 0.030947 
270.15683 0.094269 
270.180847 0.03465 
271.103729 0.806087 
271.124847 0.420236 
271.141754 3.147794 
271.176849 0.101885 
272.089233 0.013691 
272.107147 0.019433 
272.124542 0.231149 
272.145447 0.204063 
273.13443 0.019401 
274.067169 0.040115 
274.153564 0.015722 
275.187195 0.234202 
276.146088 0.021529 
276.170593 0.864643 
276.206268 0.01387 
277.067596 0.019452 
277.13028 0.152743 
277.153961 0.423864 
277.167786 0.01901 
277.202576 0.015703 
278.113129 2.183603 
278.127411 0.323108 
278.148987 0.130484 
278.186432 0.611053 
279.097351 1.344073 
279.116028 0.504325 
279.145508 0.020403 
279.182159 0.293826 
280.103546 0.940314 
280.128845 0.018982 
280.147461 0.627237 
280.165741 0.917923 
281.088135 3.596346 
281.131775 10.17262 
281.159912 0.159184 
282.091461 0.294511 
282.108154 0.249428 
282.135345 1.511197 
282.163605 1.864323 
282.180328 0.224237 
283.12796 0.180684 
283.146942 0.550586 
283.165283 0.109091 
284.150421 0.802788 
284.178925 0.322372 
285.134399 35.346172 
285.162781 1.538665 
286.138245 5.768855 
286.165863 0.150471 
287.140717 0.416963 
288.109131 0.270889 
288.133514 0.020717 
288.170044 0.180601 
289.093079 0.087665 
289.153259 0.082769 
289.203522 0.017373 
290.150604 0.01822 
290.185822 0.013055 
291.181152 0.041819 
292.147675 0.729582 
292.164948 0.175184 
292.201294 0.048627 
293.132141 0.611259 
294.144348 0.438768 
294.163177 0.222184 
294.180023 1.110074 
294.19751 0.09659 
294.217102 0.206126 
295.118591 1.5372 
295.140411 2.815301 
295.177643 0.418623 
296.123596 4.307974 
296.141296 0.591665 
296.160217 0.020009 
296.196808 0.268032 
297.100555 0.109767 
297.127258 0.760409 
297.144073 0.624672 
297.193665 0.133388 
298.140411 0.261457 
298.158203 0.67015 
299.063416 0.017036 
299.117981 0.018845 
299.140045 0.494271 
300.120178 0.070084 
300.155334 0.250116 
300.172119 0.018016 
302.161591 1.374277 
302.181122 0.040894 
303.14505 0.705168 
303.163269 0.044899 
303.18158 0.054549 
303.216797 0.012357 
304.103607 1.540673 
304.14505 0.089971 
304.201019 0.015706 
304.976013 0.025344 
305.107544 0.093726 
305.125183 0.022221 
305.161041 1.304196 
305.197052 0.065549 
306.120453 0.564324 
306.143646 0.100515 
306.16333 0.474473 
307.176392 0.195101 
307.211731 0.01895 
308.124695 0.021066 
308.142883 0.505991 
308.160889 0.171114 
308.178772 0.138953 
308.197418 0.065221 
309.126709 5.975162 
309.174225 0.277009 
310.129425 0.677801 
310.15686 1.173711 
310.212189 0.401804 
310.952271 0.014498 
311.059052 0.058969 
311.141815 0.244167 
311.208099 0.018582 
311.242737 0.037939 
312.155029 1.409533 
312.173584 0.459829 
312.204498 0.150167 
313.129364 2.305234 
313.150909 8.854034 
313.190582 1.002604 
314.133728 0.875573 
314.154449 1.266335 
314.193726 0.03803 
315.078644 0.017457 
315.201416 0.015517 
316.131989 0.150189 
316.165192 0.041715 
317.198181 0.011768 
318.156586 0.030232 
318.179535 0.03832 
319.138885 0.023422 
319.21283 0.349109 
320.17804 0.154287 
320.245026 0.111414 
321.129303 0.390523 
321.154388 0.102161 
321.191376 0.222353 
321.228485 0.331908 
322.114563 2.132337 
322.137939 0.500142 
322.189087 1.088747 
322.208832 0.016701 
323.117188 0.123419 
323.135712 1.269894 
323.170593 2.629167 
323.186859 0.169894 
324.118561 0.945799 
324.137909 0.186129 
324.173981 0.344276 
324.203217 0.051468 
324.239563 0.042966 
325.121185 0.277962 
325.151062 0.190466 
325.185455 0.019627 
325.2034 0.410119 
326.081512 0.06133 
326.134216 0.142031 
326.153168 0.411378 
326.187622 0.452718 
327.130829 0.091799 
327.167114 0.348995 
327.187408 0.045814 
328.080017 0.016769 
328.132141 0.292509 
328.15213 0.250775 
328.175964 0.887076 
328.196991 0.012122 
329.116516 0.081354 
329.154388 0.013185 
329.179291 0.023494 
330.147949 3.211151 
330.18158 0.111947 
330.216187 0.104635 
331.114532 0.301455 
331.151367 0.265229 
332.098969 1.190914 
332.119873 0.092571 
333.10199 0.021441 
333.155334 0.221666 
333.228088 0.046246 
333.26416 0.248691 
334.157288 0.019964 
334.222107 0.107077 
335.038544 0.038886 
335.186432 0.709539 
336.190765 0.627517 
337.129639 0.300466 
337.149506 0.031817 
337.201904 0.10354 
337.223785 0.050323 
338.082062 0.018553 
338.135071 0.015556 
338.158691 0.476741 
338.204468 0.063059 
338.220642 0.174482 
338.254852 1.295513 
339.141357 2.436119 
339.164124 0.285844 
339.213501 0.791812 
339.236267 0.155934 
339.259003 0.124802 
340.098846 0.340626 
340.143188 0.061199 
340.162903 0.57707 
340.199524 5.555568 
341.145508 2.479455 
341.183105 1.138994 
341.204071 0.771408 
342.093933 0.102672 
342.149475 0.288147 
342.185547 0.062407 
342.211548 0.037276 
342.249573 0.040165 
343.160583 0.16292 
344.127441 0.136338 
344.156799 0.02989 
345.204987 0.020049 
345.22818 0.119179 
346.145203 0.248332 
347.207947 0.066016 
347.243988 0.778562 
348.209686 0.062182 
348.240204 0.754045 
349.125183 14.542279 
349.222687 0.019912 
350.108856 6.381757 
350.128815 1.512039 
350.182526 0.50771 
350.220886 0.133816 
351.111633 0.940251 
351.131592 0.373524 
351.166199 0.016219 
352.112122 0.063087 
352.213043 0.067867 
352.235199 0.040441 
353.16626 0.017681 
353.197266 0.14802 
353.218262 0.265486 
354.111664 0.853647 
354.155334 0.212872 
354.202362 0.363225 
354.227814 1.210388 
355.140167 0.398812 
355.161469 0.023714 
355.184479 0.044996 
355.232361 0.155876 
356.127258 5.104895 
356.194824 0.024962 
356.217621 0.603213 
356.265106 1.284404 
356.406219 0.01843 
357.130188 0.808554 
357.187744 0.101732 
357.22464 5.717562 
357.265228 0.083772 
358.127411 0.023054 
358.171936 2.476668 
358.209564 0.902353 
358.230072 0.476987 
359.026825 0.016471 
359.154419 0.209591 
359.17627 0.205223 
359.211761 0.06651 
359.244659 0.016886 
360.093811 0.645838 
361.259521 1.376179 
362.154694 0.038447 
362.262207 0.092422 
363.140808 0.111222 
363.180176 0.373973 
363.20285 0.591955 
364.140656 0.404207 
364.184875 0.308255 
365.12381 1.662409 
365.189728 0.042245 
365.230072 0.011737 
366.12738 0.235813 
366.193207 0.335701 
366.249481 1.11998 
367.135956 19.071444 
367.195496 0.260312 
367.207733 0.296778 
367.253571 0.090607 
368.119202 0.52409 
368.13974 2.52065 
368.192505 1.202394 
368.236237 0.085502 
369.1409 1.541043 
369.195526 0.084815 
369.224854 0.037051 
370.14563 0.108462 
370.223328 0.453658 
371.137756 0.040769 
371.182312 0.271621 
371.228058 0.177999 
372.165894 0.147527 
373.253967 0.028893 
375.173798 0.014064 
375.198639 1.231896 
375.238892 0.960857 
376.106293 0.122053 
376.203644 0.038429 
376.237732 0.2383 
377.092773 0.226687 
377.119965 2.057692 
377.145386 0.014506 
377.183289 0.020827 
377.217926 0.023192 
378.103119 3.064146 
378.144836 0.264863 
378.200348 0.239334 
378.248169 0.116431 
379.106354 0.460088 
379.134399 0.166561 
379.205902 0.145915 
380.134613 0.024728 
380.207672 4.087282 
380.265533 0.029447 
381.149902 0.031363 
381.21283 1.713337 
382.12381 0.048231 
382.150665 4.819006 
382.19278 0.018317 
382.214294 0.020168 
383.131561 0.304511 
383.156189 0.914853 
384.162109 0.258706 
384.201782 1.419935 
385.146759 0.787861 
385.181641 0.020642 
385.224792 0.075421 
386.167694 1.408198 
386.207886 0.03056 
387.174591 0.325067 
388.16098 0.104569 
389.191742 0.153097 
389.219025 0.064255 
390.25 0.280164 
391.171814 0.16587 
391.198029 0.26909 
391.229797 0.020176 
392.26535 0.242492 
393.212677 0.039639 
393.227448 0.04875 
394.12207 0.018502 
394.18158 0.024087 
394.208771 0.393256 
394.247833 0.019647 
395.130829 4.735745 
395.23764 0.233782 
396.111633 0.029283 
396.134216 0.434847 
396.239136 0.055501 
397.161896 0.060344 
397.188782 0.018616 
398.14209 0.023218 
398.218475 8.924069 
398.247345 0.177042 
399.177734 1.81005 
399.221283 2.026005 
400.161163 24.26022 
400.223602 0.069302 
401.164154 5.089204 
401.223999 0.01962 
402.16803 0.770846 
403.167572 0.025524 
403.233856 0.075911 
404.229706 0.023489 
405.187622 1.435913 
405.21344 0.281507 
406.194427 0.430021 
407.228729 0.239263 
408.202484 0.538328 
408.231018 0.021956 
408.25943 0.246583 
409.162231 0.196404 
409.208374 0.486282 
410.145844 2.415936 
410.173065 0.106748 
410.208038 0.047484 
410.221344 0.039347 
411.148529 0.482213 
411.204926 0.022336 
412.127441 0.070647 
412.158203 0.092825 
412.192383 0.085411 
412.220062 0.198788 
413.222931 0.03807 
414.184082 0.180915 
415.171936 2.771717 
415.199432 0.208853 
415.243988 0.48665 
416.175507 0.350265 
416.201996 0.015729 
416.229523 0.094 
417.1875 1.690832 
417.215057 0.025528 
417.258972 0.063922 
418.171051 0.055355 
418.191284 0.020126 
418.24472 0.678829 
419.16687 0.451192 
419.199524 0.255301 
420.188049 0.554208 
421.186768 0.027732 
421.255005 0.018927 
422.170624 0.022694 
422.20462 0.127398 
422.238129 0.016629 
423.204132 0.183607 
424.153198 0.185078 
424.201599 0.011447 
425.154938 0.092871 
425.18927 0.205253 
425.237457 0.478861 
425.286774 0.088295 
426.142212 1.364818 
426.211456 1.06728 
426.319397 0.022911 
427.142853 0.57526 
427.172119 0.894834 
427.204376 0.150445 
428.157471 2.666503 
428.184723 0.248667 
429.158966 0.57599 
429.188568 0.027919 
429.249451 0.021276 
432.198486 2.207241 
432.225464 0.049639 
433.182098 9.238014 
434.152191 0.02295 
434.184814 1.853449 
434.241089 0.018709 
435.196442 0.39595 
435.270233 0.939543 
436.156342 0.016383 
436.191437 0.021985 
436.222626 0.366301 
436.255096 0.61933 
437.214539 1.675012 
438.169037 2.886842 
438.198792 0.603704 
438.281769 0.34577 
439.170959 0.589622 
439.201111 0.812892 
439.23172 0.034822 
439.266571 0.042779 
440.181335 0.05442 
440.212158 0.263698 
440.264893 0.015433 
441.184937 0.13852 
441.216919 0.652491 
441.259033 0.044598 
442.200592 0.879175 
443.166595 0.273704 
443.200806 0.370157 
443.232056 1.081516 
444.199829 0.160107 
444.233154 0.058561 
445.179962 0.073772 
445.211212 0.028051 
446.177612 0.06993 
446.238953 0.050321 
447.198212 0.377726 
447.347504 0.061926 
448.255188 0.025187 
448.294281 0.023591 
449.259613 0.038118 
450.172882 0.037312 
450.208771 8.121945 
450.263611 0.019231 
451.171478 0.436037 
451.211609 1.838226 
451.338837 0.313439 
452.219116 0.212705 
452.297577 2.757186 
453.187988 0.402498 
453.249176 0.053016 
453.28064 1.06137 
454.136475 0.184479 
454.235413 1.244911 
454.280884 0.096035 
455.137085 0.127411 
455.194214 0.414873 
455.224762 4.849492 
456.130707 0.039813 
456.227783 1.064319 
456.291748 0.067662 
458.194794 0.016609 
460.156525 0.042025 
460.192078 1.359848 
461.178436 0.593692 
461.323608 0.063285 
462.138733 0.109552 
462.20874 0.167974 
463.147614 0.01792 
463.199524 0.418557 
463.266266 0.075843 
464.18866 0.298274 
465.211365 0.774801 
465.259369 0.289514 
466.210175 0.158391 
466.299347 0.043352 
467.19577 0.269181 
467.237701 0.323344 
467.271332 0.219552 
467.300934 0.057206 
468.194611 0.053718 
468.240845 0.127321 
469.14328 0.314143 
469.182037 3.654374 
469.213501 0.551409 
469.243561 0.06653 
469.350342 0.141503 
470.184418 0.855449 
470.310638 1.132901 
471.137787 0.0586 
471.187103 0.023631 
471.256134 0.435701 
471.306366 0.043227 
472.252136 3.071681 
473.203156 0.108072 
473.253296 0.509406 
475.263641 0.03576 
475.338379 0.036115 
476.286499 0.621704 
477.219513 1.109693 
477.252869 0.018489 
477.284668 0.1192 
478.204498 2.284529 
479.166962 1.562597 
479.205017 0.434589 
479.239532 0.029312 
480.150513 0.093948 
480.176697 0.020315 
480.218628 0.238658 
480.292145 0.085985 
481.216125 0.228035 
482.234863 0.23054 
483.220673 0.702907 
484.22345 0.204221 
484.303375 1.122152 
485.272675 0.271236 
485.308685 0.327404 
486.20932 3.199789 
486.272095 0.078183 
486.309082 0.025907 
487.210449 0.794557 
487.248993 0.046047 
488.188293 0.671593 
488.285248 0.073147 
489.187531 0.058321 
489.279388 0.021352 
489.320435 0.020483 
490.169128 0.069091 
490.233337 0.031333 
490.267517 0.030293 
490.302795 1.187595 
491.195068 0.241734 
491.230804 0.166018 
491.298401 0.023958 
492.183136 0.176369 
492.289276 1.2799 
493.255005 0.299375 
493.29306 0.390061 
494.248322 0.36627 
494.291412 1.124196 
495.190002 0.032349 
495.231964 2.748343 
495.267792 0.46307 
496.193115 1.970752 
496.233429 0.668868 
496.272003 0.020023 
496.298706 0.026941 
497.138214 0.163678 
497.176697 5.014428 
498.179626 1.387876 
498.279846 0.224093 
499.133392 0.022924 
499.188904 0.059711 
499.227844 1.449125 
500.232697 0.304736 
500.289001 0.02303 
502.235016 0.022421 
503.334137 0.215996 
504.282562 0.014439 
505.211578 1.083213 
505.247223 0.296117 
506.199799 1.478874 
506.285034 0.31075 
507.160614 0.275076 
507.200104 0.168174 
507.291168 0.065083 
508.259827 0.036594 
509.212402 0.124384 
510.277527 0.149928 
511.325775 0.022581 
512.258118 1.721213 
512.298035 2.442293 
513.175537 0.014548 
513.245056 8.907131 
513.300415 0.362631 
514.204773 12.437267 
514.248047 2.627082 
515.209412 2.855914 
515.251953 0.38078 
516.20813 0.372365 
516.253845 0.056033 
517.195496 0.016404 
518.298584 0.128869 
520.276062 0.042172 
522.241455 0.184818 
522.281189 0.463586 
523.226685 3.71409 
523.272705 0.10402 
523.287292 0.086931 
524.188293 1.55191 
524.229492 0.926316 
524.292114 0.409376 
525.170532 1.276667 
525.237854 0.126814 
526.173401 0.173209 
526.271423 0.270612 
530.272034 0.494931 
531.266968 0.180352 
531.329102 0.049884 
532.213257 0.115358 
533.210632 0.067493 
533.275696 0.026746 
534.195862 0.018576 
534.241028 0.0306 
534.279907 0.084402 
535.226807 0.234028 
536.300537 0.166738 
538.275818 0.597969 
538.31604 0.081457 
539.229736 0.012895 
539.276245 0.012481 
539.402832 0.093519 
540.25354 0.07375 
540.293579 0.113082 
541.243042 0.298933 
542.199158 1.726548 
542.240662 0.171895 
543.201111 0.335254 
544.233398 0.094904 
544.279968 2.072471 
545.2146 0.018843 
545.281555 0.297728 
546.278564 0.162919 
547.258728 0.334811 
548.22998 0.021084 
548.354614 0.12837 
549.270813 0.034977 
549.311951 0.022766 
550.299988 0.630089 
551.251282 0.22098 
551.301575 0.328878 
551.367432 0.032033 
552.254944 0.697267 
552.302979 0.047496 
553.256348 0.150536 
553.308228 0.089258 
555.285522 0.032029 
555.338379 0.046028 
556.26178 0.531186 
556.410706 0.096453 
557.248779 0.237226 
558.258728 0.022729 
558.343933 0.012645 
559.260315 0.156711 
561.264404 0.022784 
562.23938 1.684085 
563.244995 0.324153 
563.314453 0.07788 
564.248596 0.101111 
564.292419 0.823753 
565.256592 0.343633 
565.304077 0.017422 
565.381775 0.756698 
566.233887 0.16626 
566.370972 0.211188 
567.274536 0.15791 
567.325134 1.433532 
568.256104 0.281871 
568.312378 0.808033 
569.258606 0.065329 
569.314392 0.119847 
570.276306 0.252198 
572.274902 3.300817 
572.354492 0.047173 
573.280212 1.089478 
574.272583 1.603495 
575.260742 0.645086 
576.287537 0.115708 
577.273193 0.337357 
577.321106 0.420126 
577.376953 0.094293 
578.233643 0.05746 
578.288269 0.05492 
578.331055 0.028529 
579.265137 1.061924 
580.250916 4.443273 
580.337769 0.099232 
580.383484 0.217113 
581.250244 1.22628 
581.325562 0.284243 
582.265808 3.036048 
582.318604 0.031287 
583.270813 1.436289 
583.392517 0.175365 
584.262207 0.272524 
585.234619 0.060551 
585.281982 0.038585 
585.335938 0.566101 
586.284424 0.122424 
586.338135 0.052162 
587.283936 0.141926 
589.251587 0.132167 
590.240112 0.052543 
590.368408 0.116789 
591.298279 2.045571 
592.289185 2.969057 
593.283752 0.764432 
594.266602 0.193243 
595.260376 0.094626 
595.306396 0.043071 
596.24646 0.749182 
597.277954 0.582867 
598.277954 0.065178 
598.394897 0.243055 
599.291748 0.876024 
600.296265 0.675141 
600.348755 0.133707 
601.284424 0.235514 
602.261475 1.274106 
603.266174 0.117576 
603.385986 0.030331 
605.318176 0.014645 
607.258728 0.925518 
608.279541 0.503115 
608.327454 0.039602 
608.376343 0.512488 
609.265503 0.071777 
609.317566 3.830163 
610.258301 4.257069 
610.308533 1.216146 
611.26001 1.794947 
612.264526 0.296704 
612.402222 0.045309 
613.267822 1.182794 
614.270264 0.132712 
617.374939 0.065692 
618.233887 0.056799 
618.297241 0.027057 
619.29126 0.86546 
620.280701 0.945489 
621.235046 0.02389 
621.28125 0.120676 
622.289917 0.022295 
622.390076 0.047578 
623.249023 0.017854 
624.287903 0.555716 
625.271057 1.517015 
625.34021 0.053595 
626.276917 0.341591 
626.338867 0.038319 
627.282227 5.794198 
628.285461 2.006988 
628.340454 0.154909 
629.287048 0.39342 
632.375305 0.027896 
633.318481 0.019492 
634.391479 0.028619 
635.257385 0.412491 
635.320557 0.026201 
636.249878 0.045373 
636.309875 0.112882 
637.267883 0.809244 
637.317017 0.399563 
637.364441 0.016438 
638.260986 0.166312 
639.255493 0.045319 
639.3526 0.503631 
640.395264 0.093627 
642.298279 1.742263 
643.29895 0.713995 
646.356995 0.026733 
647.287537 0.024487 
649.306824 0.745736 
650.309387 0.265763 
650.380066 0.25178 
651.324646 0.108301 
652.282227 0.262291 
653.266479 1.280638 
654.268982 0.134168 
655.275635 0.022202 
655.329346 0.037902 
657.363647 0.219485 
659.323303 0.279453 
660.326782 0.024244 
660.371094 0.029782 
661.313232 0.091106 
662.324402 0.021232 
663.378296 0.045451 
666.332947 0.219496 
666.393127 0.022986 
667.332092 0.069108 
667.479797 0.018183 
668.363037 0.022234 
669.348328 0.113489 
670.293823 0.677566 
670.358337 0.051955 
671.293579 0.154462 
673.335571 0.013794 
674.338013 0.021501 
675.324158 0.619247 
676.323853 0.306247 
676.411255 0.070831 
677.303772 0.148458 
677.390442 0.186911 
678.334595 0.430721 
679.323669 0.951906 
680.331604 0.155028 
680.407654 0.427104 
681.343689 0.017632 
681.402893 0.065245 
682.333862 0.066879 
685.355225 0.020639 
686.371948 0.251038 
687.359619 0.809881 
688.309631 0.027941 
688.357178 0.115361 
689.311646 0.074421 
690.303894 0.020565 
690.370483 0.095218 
691.365295 0.061455 
692.350098 0.492565 
693.337402 1.615933 
693.465393 0.348458 
694.333984 0.998546 
694.420776 0.440771 
695.34259 0.049049 
695.417847 0.106093 
696.348083 1.499481 
697.351074 0.827913 
698.357056 0.105502 
699.361633 0.086999 
701.331726 0.107735 
702.323425 0.348918 
703.323853 0.27724 
703.449646 0.050936 
704.317871 0.497778 
704.383789 1.734331 
705.378418 1.005242 
706.326782 1.602417 
707.318604 1.273524 
708.318237 0.405149 
709.33905 0.066042 
710.320618 0.334671 
710.825317 0.028622 
710.879089 0.075501 
711.3573 0.364214 
711.472595 0.024833 
712.360291 0.05723 
712.434692 0.138064 
713.376343 0.354816 
714.375671 0.280567 
715.360596 0.239675 
716.3125 0.021458 
718.341797 0.133112 
719.345398 0.553397 
720.341248 1.139831 
721.339478 1.50615 
721.45752 0.01614 
722.328064 1.446873 
722.394653 0.403215 
723.348267 0.869733 
724.341492 4.183089 
724.447754 0.31762 
725.343018 1.617551 
725.450317 0.206109 
726.347473 0.176533 
726.446045 0.017968 
727.350769 0.321891 
728.355408 0.019079 
731.323303 0.144438 
732.378723 0.066493 
733.38324 0.098565 
734.32312 0.324903 
734.414062 0.111856 
735.34845 0.074155 
736.354553 0.131486 
737.355774 0.367561 
737.416931 0.020749 
738.361328 2.063843 
739.353943 2.853569 
740.356567 1.093979 
741.36676 2.475418 
742.369202 1.100035 
743.367065 0.223296 
744.379028 0.047184 
745.458679 0.08273 
747.342468 0.03724 
747.46582 0.055451 
748.338806 0.574858 
748.418823 0.053435 
749.337036 0.691976 
749.417175 0.023281 
750.344116 0.1402 
751.348999 0.538434 
752.338074 0.705721 
753.346985 0.165192 
754.367615 0.018633 
755.37854 0.783289 
756.378235 1.696553 
757.378723 0.624128 
758.381226 0.022953 
759.394104 0.024588 
761.344299 0.020394 
762.391296 0.018293 
763.354126 0.039699 
763.465332 0.091381 
764.344971 0.024541 
765.404541 0.178836 
766.351501 1.116099 
767.34906 0.786163 
768.352417 0.096091 
769.359253 0.122347 
770.353394 0.069632 
770.463806 0.030494 
771.388489 0.029984 
772.389587 0.018883 
775.369019 0.19538 
776.370972 0.060709 
776.467773 0.019425 
777.400513 0.024298 
778.414978 0.02273 
779.417664 0.058396 
781.525818 0.04559 
783.37738 0.391376 
784.378601 0.102341 
785.385376 0.018242 
787.379761 0.31502 
788.381226 0.418911 
789.398804 0.837164 
790.396667 0.414794 
790.482239 0.042143 
791.421875 0.025801 
792.412842 0.181721 
793.41217 0.134539 
793.493958 0.093482 
800.376892 0.024998 
800.450562 0.049587 
802.400208 0.096351 
803.380737 0.076603 
803.463684 0.016091 
805.396118 0.054188 
806.432556 0.685789 
807.414429 1.305008 
807.506958 0.596523 
808.422485 0.417991 
808.508911 0.204699 
809.440125 0.345138 
810.430176 0.426761 
811.423218 0.047858 
815.410583 0.269687 
816.412781 1.179277 
817.396606 1.080419 
817.477539 0.059382 
818.399231 0.192514 
818.484009 0.046333 
819.420349 0.017197 
820.405701 0.538512 
821.401794 0.229123 
822.39093 0.013844 
823.450012 0.179601 
824.444153 1.673885 
825.443848 0.695755 
827.461182 0.129515 
828.455933 0.132973 
829.412659 0.016333 
830.39679 0.029684 
831.392517 0.021056 
832.401489 0.387458 
833.411133 1.199276 
834.422668 2.77838 
835.419128 1.925642 
836.419556 0.77744 
837.430664 0.779748 
838.423096 1.235018 
839.420654 0.248031 
841.466675 0.586501 
842.470947 0.257071 
844.405884 0.320038 
844.489624 0.021931 
845.402954 0.037199 
845.491211 0.095625 
846.420959 1.366093 
847.421143 1.141219 
848.420349 0.417847 
849.403015 0.067647 
850.437622 0.53017 
851.4505 3.22408 
852.438721 5.259011 
853.441162 2.177441 
854.441406 0.525436 
855.445068 1.032332 
856.446716 0.32427 
857.420532 0.042531 
858.422241 0.100725 
859.395813 0.04257 
859.512817 0.020204 
861.423462 0.263035 
861.507202 1.216658 
862.420593 0.983366 
862.507874 1.217612 
863.426697 0.262349 
863.514954 0.142432 
864.435303 0.362125 
865.431274 0.219714 
866.421814 0.292093 
867.39447 0.097092 
868.469116 0.035588 
869.463074 4.76063 
870.466797 2.219743 
871.469482 0.448351 
872.485107 0.098559 
873.424438 0.151138 
874.430725 0.452725 
875.428589 0.226957 
876.42511 0.086445 
877.425842 0.021268 
878.427063 0.02269 
879.443787 1.081263 
880.435181 0.829216 
881.447693 0.24896 
883.470459 0.054325 
884.425842 0.156286 
885.414246 0.068204 
888.425903 0.043812 
888.516174 0.028486 
889.414124 0.035888 
889.507935 0.253484 
890.495728 0.438121 
891.440735 2.838075 
892.442627 2.316378 
893.444214 0.888898 
895.408264 0.017334 
896.464294 0.021653 
897.458984 0.260213 
898.46283 0.040607 
900.499695 0.054594 
901.425842 0.469288 
902.430603 0.712658 
903.433899 0.269551 
904.431396 0.079964 
905.454163 0.078326 
906.520203 0.604032 
907.527893 0.397475 
908.514954 0.093709 
912.425293 0.128721 
913.428955 0.274162 
914.427612 0.025125 
915.464172 0.05257 
915.492737 0.054314 
916.533875 0.112935 
917.548279 0.094076 
918.447021 0.019172 
918.508667 0.042366 
919.474609 0.225809 
920.496887 0.400854 
921.495544 0.157415 
922.533142 0.125428 
923.524841 0.072612 
924.504761 0.019586 
928.495117 0.017865 
929.451416 0.970821 
930.455872 1.767778 
931.455566 1.102637 
932.539185 1.303839 
933.550232 1.360841 
934.543457 0.388283 
935.477722 0.027301 
937.509949 0.109139 
938.519043 0.122385 
940.542542 0.028893 
941.472168 0.031977 
942.501831 0.036938 
943.515198 0.1494 
944.515686 0.063403 
945.483154 0.047362 
946.507874 0.432261 
947.502808 0.875797 
948.50824 0.396153 
949.505371 0.0846 
950.51355 0.202528 
951.508606 0.398817 
952.501099 0.162651 
953.491333 0.022018 
954.467041 0.022288 
957.481689 0.076494 
958.501343 0.082646 
959.505432 0.733489 
960.518982 0.957019 
961.520996 0.470447 
962.483398 0.100514 
963.441162 0.159357 
964.53479 0.986416 
965.528687 1.135377 
966.522766 0.44772 
968.5271 0.2353 
969.507446 0.181175 
970.496948 0.190147 
971.487366 0.148475 
972.500061 0.137043 
973.493164 0.097794 
974.519897 0.186638 
975.508057 0.155705 
976.534424 1.084268 
977.536316 1.083579 
978.538452 0.406665 
979.527832 0.22332 
980.482178 0.402698 
981.479492 0.206042 
982.54541 0.857743 
983.544922 0.313005 
984.476929 0.092497 
985.466064 0.156289 
986.520081 1.507093 
987.515259 2.022861 
988.513245 1.296025 
989.512329 0.433309 
990.511108 1.063485 
991.516235 0.361363 
992.52948 0.428548 
993.530396 0.097394 
997.513611 0.382788 
998.502991 0.524838 
999.485657 0.456071 
1000.508606 0.174071 
1001.523743 0.139129 
1002.504517 0.228705 
1003.51001 0.140274 
1004.528442 12.378664 
1005.531128 10.979373 
1006.536804 4.689736 
1007.536621 1.059926 
1008.512085 0.102261 
1009.518616 0.024316 
1014.522339 0.305993 
1015.53125 0.598374 
1016.510193 0.823833 
1017.507019 0.151838 
1018.542847 0.147509 
1019.540283 0.110489 
1020.518066 0.130548 
1021.527466 0.081578 
1025.519165 0.046266 
1026.517944 0.12855 
1027.538696 0.025686 
1028.44519 0.020297 
1030.459961 0.021039 
1034.51001 0.033518 
1035.518066 0.162038 
1036.526245 0.052321 
1037.508057 0.026551 
1042.553589 0.074503 
1043.550171 0.090759 
1044.547607 0.056757 
1045.473389 0.138765 
1045.584839 0.022533 
1046.479126 0.022279 
1047.545898 0.015137 
1048.5625 0.223681 
1049.542236 0.114198 
1051.497192 0.016639 
1052.537598 0.014357 
1053.55188 0.030102 
1055.546631 0.045213 
1058.540649 0.163866 
1059.587769 0.331963 
1060.584961 0.184765 
1061.56604 0.097128 
1062.556641 0.079023 
1063.560303 0.022781 
1066.54895 0.146604 
1067.562744 0.021213 
1071.562012 0.021698 
1075.568237 0.303216 
1076.553101 0.641391 
1077.546387 0.333118 
1078.547241 0.04226 
1079.557983 0.359107 
1080.558838 0.17186 
1081.501587 0.020272 
1084.575195 0.050033 
1085.575317 0.052946 
1087.554565 0.016054 
1089.572754 0.065 
1090.576172 0.022113 
1091.55835 0.029854 
1093.572998 0.839418 
1094.567261 0.975895 
1095.575562 0.386245 
1097.569214 0.219705 
1098.56189 0.201527 
1099.554077 0.026644 
1102.575439 0.026927 
1103.553345 0.069498 
1104.55249 0.142736 
1105.561279 0.178504 
1106.573364 0.07569 
1107.58252 0.020545 
1108.573853 0.02052 
1111.58374 0.846025 
1112.585571 0.524077 
1113.594971 0.044601 
1115.560059 0.489398 
1116.557129 0.569696 
1117.556763 0.322833 
1118.565552 0.170197 
1119.560791 0.146797 
1120.570679 0.068655 
1121.573975 0.237902 
1122.577271 0.154471 
1123.567749 0.03518 
1124.584717 0.027317 
1125.579468 0.028227 
1127.567261 0.140447 
1128.544678 0.026083 
1129.593872 0.051817 
1130.585327 0.08364 
1131.534302 0.178009 
1133.571167 0.993623 
1134.572754 0.909001 
1135.575439 0.559765 
1136.580811 0.077892 
1137.581177 0.101276 
1139.604248 0.022193 
1140.610596 0.025793 
1143.55957 0.174958 
1144.572632 0.210946 
1145.576782 0.594678 
1146.587158 0.491497 
1147.593506 0.585841 
1148.588501 0.294177 
1149.578369 0.057246 
1151.592041 0.024946 
1155.583252 0.018599 
1157.630127 0.022196 
1158.566528 0.027179 
1159.562134 0.097503 
1160.556763 0.033924 
1161.607666 0.264331 
1162.615356 1.400709 
1163.611938 1.090351 
1164.621948 0.525112 
1165.605957 0.544848 
1166.600708 0.071231 
1170.585327 0.046168 
1171.616577 0.1 
1172.59314 0.329923 
1173.588379 0.302352 
1174.573975 0.023002 
1175.594727 0.030189 
1176.57373 0.022027 
1180.650879 0.050548 
1183.568359 0.018756 
1184.626587 0.127595 
1185.623535 0.832056 
1186.62854 0.601337 
1187.584351 0.718274 
1188.582031 0.236839 
1189.621582 0.484115 
1190.614136 0.570571 
1191.610229 0.252076 
1192.628174 0.106237 
1193.62915 0.105158 
1194.623169 0.096248 
1195.610962 0.063254 
1197.647583 0.030424 
1198.619995 0.031148 
1199.606689 0.029854 
1200.616699 0.025991 
1201.62561 0.16947 
1202.643066 0.064016 
1205.639038 0.0268 
1206.653809 0.657961 
1207.6521 0.925373 
1208.638306 0.679506 
1209.634888 0.11862 
1210.646973 0.305422 
1211.641602 0.249634 
1212.634766 0.163972 
1213.621094 0.23413 
1214.625488 0.347706 
1215.639038 0.193886 
1216.620605 0.470544 
1217.627808 0.310958 
1218.643066 0.380444 
1219.625977 0.119006 
1221.623169 0.043729 
1224.664062 0.670342 
1225.67334 0.521719 
1226.593384 0.026229 
1228.64917 0.666245 
1229.641602 0.566671 
1230.639893 0.831788 
1231.636353 0.603876 
1232.643066 1.288064 
1233.635376 0.764753 
1234.643921 0.210031 
1235.64502 0.079094 
1236.623901 0.033168 
1238.640991 0.07704 
1240.633057 0.115866 
1241.639771 0.201924 
1242.64563 0.135205 
1243.64209 0.077161 
1244.63562 0.409581 
1245.618774 0.395495 
1246.654907 3.463748 
1247.658813 1.592115 
1248.651978 0.222076 
1249.63855 0.025155 
1250.641724 0.076035 
1251.642944 0.022395 
1252.664673 0.0295 
1254.622681 0.339815 
1255.627808 0.288193 
1256.655518 0.949629 
1257.660767 0.767617 
1258.644287 0.658102 
1259.639404 0.42708 
1260.636353 0.412206 
1261.645264 0.469826 
1262.64563 0.490543 
1263.647583 0.24204 
1264.634277 0.126813 
1265.634644 0.114528 
1266.638306 0.186082 
1267.640747 0.173386 
1268.649414 0.078034 
1269.650635 0.069527 
1270.619263 0.11027 
1271.648193 0.083406 
1272.636108 0.973153 
1273.634766 0.566836 
1274.642578 0.248684 
1275.657227 0.125962 
1276.662598 0.375492 
1277.654907 0.291369 
1278.65332 0.258053 
1279.660767 0.1395 
1281.657593 0.259029 
1282.64856 1.193345 
1283.652466 1.070411 
1284.661743 0.826253 
1285.66333 0.437481 
1286.650757 0.165634 
1287.654175 0.660587 
1288.643188 0.2302 
1289.617432 0.052281 
1290.636719 0.085369 
1291.623779 0.029976 
1292.635498 0.095197 
1293.631348 0.022564 
1294.640625 0.058455 
1295.651245 0.142841 
1296.661743 0.028867 
1297.647705 0.152326 
1298.654785 0.620831 
1299.672729 2.70845 
1300.6698 4.571552 
1301.678955 2.266673 
1302.687988 0.790464 
1303.67334 0.157088 
1305.642944 0.048528 
1306.632568 0.071112 
1307.650879 0.149941 
1308.647339 0.072509 
1309.655396 0.149188 
1310.647339 0.372309 
1311.65686 0.348116 
1312.661621 0.245372 
1313.652344 0.447564 
1314.638672 0.318277 
1315.661133 0.611476 
1316.659424 0.436007 
1317.641846 0.027551 
1318.623779 0.031284 
1319.658325 0.247661 
1320.645996 0.127443 
1321.640625 0.02566 
1323.625244 0.029753 
1324.618164 0.022263 
1325.655029 0.633266 
1326.669312 0.597451 
1327.667358 0.910854 
1328.656372 1.334924 
1329.654053 1.242161 
1330.648315 0.736611 
1331.657715 0.698885 
1332.647583 0.164903 
1335.658813 0.114937 
1336.668945 0.060269 
1337.672852 0.497692 
1338.675049 0.245534 
1339.66333 0.100948 
1340.657837 0.033202 
1341.636475 0.361813 
1342.63147 0.285504 
1343.637329 0.089151 
1344.691284 0.980852 
1345.694702 1.203466 
1346.690918 0.620146 
1347.705688 0.230688 
1348.622803 0.027517 
1352.682251 0.106053 
1353.686035 0.956795 
1354.700562 1.248327 
1355.708618 1.109441 
1356.709717 0.580806 
1357.649658 0.0334 
1358.633545 0.034846 
1359.646851 2.76781 
1360.647827 1.262985 
1361.642944 0.024622 
1369.697021 0.027656 
1370.711182 2.897807 
1371.711548 3.675547 
1372.730225 2.212907 
1373.746826 1.176535 
1374.730225 0.320925 
1380.678101 0.195836 
1381.696411 0.660004 
1382.702759 0.578752 
1383.699585 0.289579 
1384.688843 0.07607 
1385.687378 0.020439 
1392.720581 0.015783 
1396.686401 0.123252 
1397.678345 1.273169 
1398.684692 1.569383 
1399.706055 1.540483 
1400.714233 0.872855 
1401.705444 0.308783 
1402.707153 0.022157 
1405.714478 0.026316 
1406.703003 0.070196 
1407.674927 0.142448 
1408.6875 0.122942 
1409.69519 0.108896 
1410.729004 0.25455 
1411.736084 0.035425 
1412.710083 0.024845 
1414.699463 1.353384 
1415.702393 1.8507 
1416.716553 1.206462 
1417.721558 0.653239 
1418.730347 0.066844 
1424.684082 1.759986 
1425.678711 3.04506 
1426.687866 2.343609 
1427.704468 2.261356 
1428.708618 1.225304 
1429.702881 0.102871 
1441.690063 0.03579 
1442.695435 11.149932 
1443.692383 15.022407 
1444.712891 11.150403 
1445.726196 6.568333 
1446.728882 2.113875 
END IONS

