BEGIN IONS
PEPMASS=1253.62
CHARGE=1+
COMPOUNDNAME=DACTINOMYCIN
LIBRARYQUALITY=3
SMILES=N/A
INCHIKEY=RJURFGZVJUQBHK-IIXSONLDSA-N
INCHI=InChI=1S/C62H86N12O16/c1-27(2)42-59(84)73-23-17-19-36(73)57(82)69(13)25-38(75)71(15)48(29(5)6)61(86)88-33(11)44(55(80)65-42)67-53(78)35-22-21-31(9)51-46(35)64-47-40(41(63)50(77)32(10)52(47)90-51)54(79)68-45-34(12)89-62(87)49(30(7)8)72(16)39(76)26-70(14)58(83)37-20-18-24-74(37)60(85)43(28(3)4)66-56(45)81/h21-22,27-30,33-34,36-37,42-45,48-49H,17-20,23-26,63H2,1-16H3,(H,65,80)(H,66,81)(H,67,78)(H,68,79)/t33-,34-,36+,37+,42-,43-,44+,45+,48+,49+/m1/s1
MSLEVEL=2
SOURCE_INSTRUMENT=N/A-ESI-QFT
FILENAME=library_mgf.mgf
SEQ=*..*
IONMODE=negative
ORGANISM=MONA
NAME=DACTINOMYCIN [M-H]-
PI=MoNA
DATACOLLECTOR=MoNA:VF-NPL-QEHF002891
PUBMED=N/A
SUBMITUSER=mwang87
TAGS=
SPECTRUMID=CCMSLIB00004693954
SCANS=2891
86.734634 0.109497 
86.767784 0.130788 
87.487183 0.171728 
88.038986 0.326057 
89.067131 0.128507 
89.607124 0.081637 
90.104301 0.105121 
91.165001 0.149242 
92.802521 0.1442 
92.987213 0.101397 
93.274071 0.071835 
93.40242 0.125835 
95.091232 0.120528 
95.297073 0.129503 
95.836334 0.11215 
96.044136 0.372387 
97.427391 0.095747 
100.039047 6.201648 
102.261948 0.129549 
102.367302 0.133377 
102.995918 0.132304 
103.008179 0.126897 
103.127167 0.069902 
104.017448 0.133928 
104.645134 0.13126 
105.601143 0.140423 
106.25898 0.138248 
107.779823 0.134967 
108.044144 0.553138 
108.884895 0.114146 
111.595535 0.153158 
112.039116 2.232224 
113.034119 0.175597 
114.054642 0.707215 
114.150894 0.102313 
115.086189 0.320872 
116.254417 0.158765 
116.852982 0.159669 
117.976128 0.091391 
117.98616 0.14815 
120.962807 0.145848 
121.114998 0.073668 
121.377663 0.146071 
122.31942 0.113351 
123.486145 0.090163 
124.026588 2.063599 
124.039192 2.621133 
125.034409 0.999392 
125.070732 2.006995 
126.054886 3.34277 
127.086555 6.850619 
127.509872 0.103809 
128.773071 0.083242 
130.086166 69.841942 
130.515045 0.135446 
131.089447 0.377202 
133.855942 0.17102 
135.76796 0.152964 
136.522202 0.170411 
136.75383 0.134153 
137.107376 1.508631 
138.042343 0.401114 
138.054855 1.251423 
138.091125 0.134325 
138.16011 0.143161 
139.050156 19.643097 
139.08606 0.167726 
139.514236 0.149904 
139.600143 0.115966 
139.940247 0.163401 
141.065781 7.394 
141.102341 1.352588 
142.785294 0.104441 
146.983414 0.146506 
147.532959 0.144819 
148.217697 0.129513 
149.07074 0.407001 
149.30484 0.136418 
150.917282 0.129549 
151.050568 0.177382 
151.234116 0.08039 
152.058212 4.039176 
152.106796 0.31241 
153.065918 2.559923 
153.10231 1.181536 
154.29129 0.148965 
156.663254 0.108349 
157.402695 0.16118 
158.635559 0.137018 
160.256027 0.187723 
161.415863 0.173722 
161.967514 0.14617 
163.086609 0.162094 
163.728027 0.146847 
164.070679 18.598515 
165.065933 1.329318 
166.181564 0.133906 
167.045227 6.473326 
167.081589 33.196186 
167.330612 0.164496 
167.337631 0.126866 
168.089935 0.388865 
169.097641 0.362535 
169.255432 0.132532 
175.93985 0.134002 
177.066925 0.110022 
177.102341 0.179799 
178.086517 0.11128 
179.045441 0.310491 
179.081757 1.617367 
180.102051 1.029922 
180.852798 0.155973 
181.097305 22.256838 
183.112976 7.139164 
185.092255 0.313976 
189.102432 0.408013 
192.783981 0.076586 
193.097519 7.48216 
195.076721 7.88316 
195.113022 88.145248 
196.116623 2.210407 
196.738205 0.153652 
197.106567 0.149333 
198.113022 0.132221 
202.914108 0.179052 
203.081985 0.12985 
204.077271 2.59131 
204.261581 0.103746 
204.894043 0.083794 
207.076935 3.90427 
207.375534 0.144017 
209.092621 0.18164 
210.126801 0.149602 
211.144836 0.538151 
213.541306 0.140775 
217.097809 2.692724 
220.222595 0.091393 
224.058563 0.182682 
226.154526 0.071829 
232.071976 0.816442 
237.018814 0.15815 
237.066132 0.646408 
238.086945 0.29271 
239.082275 21.360569 
240.087997 0.405853 
248.140579 1.124754 
250.156067 0.433032 
251.082275 0.253674 
251.732391 0.11122 
252.135208 0.094038 
252.149597 0.138595 
253.098022 1.144502 
254.18689 0.081485 
257.093658 0.129813 
262.087585 0.49673 
264.077637 5.05778 
264.135223 3.401967 
265.098022 0.085784 
266.151031 12.186826 
267.113037 0.204002 
274.769684 0.167153 
275.133331 0.160714 
275.733276 0.077002 
276.363403 0.127726 
277.098663 1.491192 
277.412109 0.170496 
278.092499 0.178255 
278.151428 1.381122 
279.077087 0.767292 
279.113617 27.927122 
279.129547 0.203809 
280.098694 0.201959 
280.117371 0.795725 
280.166595 82.076637 
281.092896 0.144488 
281.169861 6.328546 
282.088562 0.274266 
283.094818 0.155646 
284.081848 0.145789 
285.11264 0.097925 
285.133453 0.091476 
289.084534 0.19667 
291.115143 0.159981 
292.109314 8.402103 
292.670258 0.139476 
292.933746 0.072687 
293.080261 10.105224 
294.087494 3.972454 
294.12146 0.157536 
295.109375 0.342523 
304.071777 0.259023 
304.108887 3.88709 
304.143951 1.826278 
305.093903 3.428672 
305.11203 0.109587 
305.129852 0.707649 
306.087799 0.10838 
306.123627 0.338859 
307.094543 0.762055 
308.067322 1.982048 
308.104004 0.95128 
309.074677 0.364852 
310.118835 0.295472 
317.117218 0.153756 
318.072571 0.097663 
318.08963 0.649253 
319.083282 3.371943 
319.109894 0.145076 
320.069489 0.178267 
320.10376 34.532459 
321.111206 42.491322 
322.084961 0.641964 
322.119232 46.986652 
322.139435 0.198622 
323.124054 4.188371 
324.099304 0.955378 
324.135284 0.163704 
330.088135 1.903038 
331.177948 0.099781 
332.104767 1.614176 
332.140442 15.823128 
333.143402 0.559816 
334.082581 0.185934 
334.119812 9.417648 
335.091217 0.16769 
335.126648 3.524911 
336.099152 11.720857 
336.132202 0.152424 
337.095245 2.255932 
338.077667 0.21568 
338.114777 12.269803 
338.376038 0.101968 
339.253632 0.074376 
341.707062 0.170749 
342.704376 0.184802 
344.105469 0.188985 
344.391235 0.146903 
345.099365 5.249819 
346.106171 25.955168 
347.114777 100.0 
348.09787 1.555113 
348.117615 7.892577 
348.137146 3.075789 
349.103821 0.334566 
349.143005 4.182823 
349.188293 2.845456 
350.114441 1.477809 
350.150513 1.859741 
352.093567 6.787631 
358.119873 4.158526 
359.114868 4.982296 
360.136414 0.183455 
361.103912 0.192346 
361.130646 1.193317 
361.224457 0.339767 
362.114258 1.893588 
362.151459 1.710234 
363.110107 7.28898 
363.204041 0.105609 
364.117432 16.916307 
365.125214 48.791847 
366.108459 3.506047 
366.130554 1.780879 
367.118805 1.856559 
370.108093 2.056675 
371.116669 0.170219 
372.119568 0.162746 
373.130615 0.292849 
374.150574 0.413477 
375.109955 5.879821 
375.146729 2.932574 
376.129242 6.205981 
377.125793 7.123235 
378.131653 1.045456 
379.235107 18.548885 
381.132568 0.171736 
384.125 0.125033 
385.130188 19.038588 
386.13681 2.394869 
387.121307 0.912879 
387.146149 64.454086 
388.126556 0.118977 
388.150574 7.057261 
389.127625 1.618753 
389.161804 2.60768 
390.133728 0.071499 
391.141327 2.956972 
399.147034 0.247281 
401.126068 0.788227 
401.164459 0.165795 
402.18277 2.847365 
403.104919 5.479694 
403.140259 17.447163 
403.174164 1.224109 
404.149078 20.362375 
405.156403 38.893753 
406.160919 4.644225 
408.298065 0.159138 
413.124268 0.084237 
414.668915 0.157195 
417.157349 2.630732 
419.171478 0.129004 
420.178467 0.179943 
421.152588 0.816672 
421.363678 0.199497 
421.78717 0.083133 
429.144928 5.051082 
430.152252 0.555696 
431.13559 30.155849 
431.167664 0.912223 
432.139496 3.189567 
442.154053 0.780945 
442.187988 3.200066 
443.160095 0.42835 
443.211609 0.174712 
444.167267 1.313209 
445.890137 0.215449 
448.163239 1.031358 
456.171356 0.096756 
457.182434 0.251514 
458.151031 0.233133 
458.183929 8.370295 
459.194611 0.288881 
460.163239 7.419947 
460.197906 1.306688 
461.16983 0.28062 
465.357117 0.11029 
467.483307 0.178393 
469.190491 0.462288 
469.580505 0.218084 
470.184814 1.586459 
474.178131 7.875152 
475.184875 2.979721 
476.192474 1.619465 
483.204559 0.124259 
484.199097 4.22294 
485.205536 0.329312 
486.180176 1.725176 
486.214569 40.946671 
486.338379 0.175699 
487.218292 6.670514 
488.193909 25.990267 
489.197021 1.812315 
497.954468 0.131833 
502.172821 0.166879 
502.210205 15.589121 
503.216492 6.523645 
512.145203 0.135973 
512.195068 0.192287 
515.230164 0.18078 
543.317505 0.161081 
544.257202 4.854784 
545.26001 0.098893 
546.234375 0.166019 
551.020142 0.156835 
557.225464 0.876722 
559.228149 0.153993 
564.266846 0.163469 
571.231201 1.107818 
572.25 9.029804 
573.251343 0.708425 
578.328308 0.127003 
587.417786 0.084252 
589.280273 0.210276 
599.26355 5.633502 
599.518677 0.117693 
600.26825 0.718279 
615.118652 0.174062 
615.255615 0.226463 
628.257019 0.154585 
639.283081 0.085404 
641.004211 0.138911 
642.270264 0.318904 
643.276794 0.173757 
649.735046 0.172841 
652.288696 0.200751 
653.99707 0.19059 
654.305359 0.335961 
655.284424 0.183485 
656.284241 0.373662 
657.987854 0.141423 
658.302673 0.21137 
668.290405 0.134061 
670.302429 1.186024 
671.305359 0.903817 
672.314087 1.032665 
679.770569 0.120994 
687.334656 0.195119 
698.294373 0.760223 
705.214783 0.125543 
709.465637 0.347291 
709.556396 0.327704 
709.689819 0.286474 
709.746399 0.901785 
709.839661 0.221929 
710.053467 1.350267 
735.739014 0.161042 
753.513306 0.188404 
757.371643 0.140104 
763.082275 0.202456 
769.369629 1.58507 
770.033142 0.177232 
780.262695 0.166977 
785.398865 0.78971 
789.148376 0.144639 
804.2771 0.159717 
825.352173 0.078271 
839.417358 0.11391 
855.063293 0.148197 
860.06665 0.167103 
874.278442 0.226656 
875.104736 0.089694 
889.437073 0.162757 
918.622375 0.107959 
945.025085 0.179569 
948.356567 0.184292 
980.757141 0.163781 
1020.482422 0.18625 
1027.036133 0.161245 
1056.86499 0.162804 
1069.66626 0.168632 
1121.829346 0.17789 
1134.161133 0.189612 
1179.507935 0.170375 
1198.148071 0.170028 
1238.588867 0.233661 
END IONS

