BEGIN IONS
PEPMASS=382.105
CHARGE=1+
COMPOUNDNAME=(4R,6S,8S,9Z,11E)-16-chloro-17,19-dihydroxy-4-methyl-3,7-dioxatricyclo[13.4.0.0?,?]nonadeca-1(15),9,11,16,18-pentaene-2,13-dione
LIBRARYQUALITY=3
SMILES=N/A
INCHIKEY=WYZWZEOGROVVHK-RPJJWQTDSA-N
INCHI=InChI=1S/C18H17ClO6/c1-9-6-15-14(25-15)5-3-2-4-10(20)7-11-16(18(23)24-9)12(21)8-13(22)17(11)19/h2-5,8-9,14-15,21-22H,6-7H2,1H3/b4-2+,5-3-/t9-,14+,15+/m1/s1
MSLEVEL=2
SOURCE_INSTRUMENT=N/A-ESI-QFT
FILENAME=library_mgf.mgf
SEQ=*..*
IONMODE=positive
ORGANISM=MONA
NAME=(4R,6S,8S,9Z,11E)-16-chloro-17,19-dihydroxy-4-methyl-3,7-dioxatricyclo[13.4.0.0?,?]nonadeca-1(15),9,11,16,18-pentaene-2,13-dione [M+NH4]+
PI=MoNA
DATACOLLECTOR=MoNA:VF-NPL-QEHF022114
PUBMED=N/A
SUBMITUSER=mwang87
TAGS=
SPECTRUMID=CCMSLIB00004713177
SCANS=22114
50.671421 0.04387 
51.988033 0.05287 
53.038864 2.277988 
53.701748 0.04804 
53.954353 0.056267 
55.018135 2.941804 
55.054527 30.398054 
55.056061 0.270087 
56.057884 1.093992 
57.033775 3.451128 
57.070141 1.132718 
58.070663 0.06139 
58.276028 0.064914 
58.31144 0.055719 
59.049408 3.731567 
61.010818 1.4229 
61.991306 0.049559 
62.040527 0.073703 
62.068146 0.50113 
62.128727 0.05499 
62.451626 0.045755 
62.841949 0.043639 
63.074436 0.109893 
63.097549 0.05087 
64.289009 0.062769 
65.847466 0.048883 
66.014153 0.07264 
66.706818 0.052151 
66.835152 0.068834 
67.047897 0.064791 
67.054367 5.586593 
68.049583 2.963417 
68.633232 0.050274 
69.033577 29.538481 
69.035706 0.365921 
69.069916 0.938968 
69.312378 0.074918 
70.03688 0.616595 
71.01284 4.433739 
71.04921 6.194747 
71.08564 0.069938 
72.53717 0.040365 
73.064804 4.397815 
74.068054 0.06929 
74.922462 0.068422 
76.119362 0.057604 
77.038612 0.083748 
77.626495 0.071243 
78.869553 0.045722 
79.021179 0.293995 
79.054222 8.066382 
79.726768 0.049847 
80.049667 0.134084 
80.057632 0.069064 
80.880447 0.062564 
80.887367 0.057574 
80.945671 0.071229 
81.033485 9.770089 
81.069893 9.789937 
81.284607 0.046151 
81.895554 0.072611 
81.933922 0.056559 
82.073318 0.06567 
82.396729 0.053624 
83.049156 37.916607 
83.085495 1.117441 
83.256546 0.063945 
84.052498 1.482438 
85.028404 0.531415 
85.064857 0.894926 
87.044075 1.389902 
89.059669 1.224234 
91.054253 10.2221 
92.057518 0.320714 
92.060501 0.574154 
93.069916 20.913897 
93.778572 0.081607 
94.065163 2.14144 
94.073174 1.037444 
94.368523 0.065444 
95.012733 2.190687 
95.049141 17.461292 
95.085495 2.113988 
96.052483 0.532478 
97.028427 0.692896 
97.064835 5.938157 
98.067917 0.180634 
99.044075 3.926275 
99.066345 0.063875 
99.080269 0.570247 
101.059738 55.193638 
101.063812 0.593962 
102.063026 2.550971 
103.054283 1.808733 
103.231598 0.054813 
105.069885 1.637408 
105.507675 0.089365 
105.598434 0.069434 
105.639381 0.070233 
106.665771 0.061473 
107.049118 1.330777 
107.085495 0.779629 
108.575531 0.057205 
109.028404 0.412703 
109.064857 3.831013 
109.101219 0.618122 
110.5924 0.071979 
110.679176 0.056604 
111.04393 0.765969 
111.080482 3.428865 
111.084106 0.062046 
112.083664 0.236601 
112.273163 0.064518 
113.059776 0.084842 
115.776009 0.063065 
117.069786 1.347675 
117.677101 0.067983 
117.745735 0.070723 
119.049088 0.907071 
119.085587 8.200517 
120.056305 0.056765 
120.080818 1.840051 
120.092155 1.609491 
121.028389 0.374749 
121.064842 26.307936 
121.101044 0.056125 
121.803146 0.050295 
122.0681 1.065019 
122.072548 2.445028 
123.043869 0.217067 
123.080353 0.454693 
123.845871 0.069365 
125.059753 4.129424 
125.650726 0.066077 
130.420059 0.043977 
131.049149 0.155267 
133.064468 0.065571 
133.085709 0.061845 
134.956268 0.442697 
135.044052 1.309207 
135.080414 3.019233 
135.266006 0.079619 
136.08815 0.046898 
137.041977 0.554296 
137.059708 3.3457 
137.095978 1.289101 
137.488968 0.053448 
138.091339 2.542403 
138.343872 0.069308 
139.075302 2.13953 
140.366241 0.069009 
142.732407 0.069209 
145.064697 0.691719 
146.054474 0.061572 
147.043991 0.189805 
147.609695 0.061058 
149.332764 0.051378 
150.95105 1.902851 
151.11171 1.916217 
152.114685 0.156719 
152.966873 0.069884 
153.054565 0.220054 
153.091049 0.127976 
154.130554 1.213322 
154.989883 0.106273 
155.13681 0.623196 
156.177124 0.071308 
157.005112 3.164335 
157.11673 0.069537 
158.776505 0.06631 
159.002213 0.304799 
159.0439 0.188323 
159.080582 0.154572 
160.690002 0.075381 
161.059769 0.221948 
161.849655 0.071057 
163.074814 0.069555 
164.771744 0.056808 
169.004578 0.120172 
169.064514 0.23799 
171.062592 5.960883 
171.081116 0.077329 
172.066116 0.254896 
173.059601 0.850059 
173.078339 0.659627 
176.654694 0.049164 
176.966202 0.058926 
178.521347 0.056384 
179.971085 0.069932 
181.005081 3.709946 
182.007935 0.068626 
183.002182 1.087936 
183.020767 0.528972 
183.091934 0.05963 
185.000031 1.254435 
185.059677 1.657283 
187.075607 0.282166 
188.549194 0.05899 
189.054871 0.089983 
192.041397 0.235607 
192.961609 1.675086 
194.117188 0.06342 
195.020798 4.966062 
196.999969 31.650789 
197.016663 0.372383 
197.036591 0.061448 
197.059906 0.87628 
198.003952 2.337948 
198.067429 0.559547 
198.979385 4.772322 
198.996689 3.345585 
199.015625 0.775727 
199.039352 0.073553 
199.075058 0.240138 
199.79303 0.074916 
199.98317 0.151417 
200.083664 0.071132 
200.976532 2.126151 
200.994888 26.41913 
201.054642 2.723833 
201.998627 2.74183 
202.06218 0.870455 
202.991959 10.27821 
203.001373 0.276579 
203.995377 0.312098 
205.511703 0.08442 
206.977493 0.063633 
207.020844 0.663827 
207.065231 0.360196 
209.000061 7.681292 
209.01796 0.088374 
209.036346 4.286659 
210.004669 0.512814 
210.040665 0.142233 
210.97934 31.352142 
210.996109 3.181082 
211.015869 1.768504 
211.075256 0.463861 
211.982819 3.375458 
212.046967 0.077644 
212.976227 14.298004 
212.995087 2.207435 
213.013016 0.214011 
213.054764 2.855832 
213.979736 1.116357 
214.062393 3.019151 
214.130203 0.060981 
214.141953 1.570669 
214.153702 1.394139 
215.069794 0.275217 
219.020645 3.279862 
219.065323 13.19707 
219.077774 0.09238 
220.06871 2.548054 
220.99968 0.090495 
221.018005 0.34136 
221.036499 1.592393 
222.00766 1.372096 
223.015747 15.030626 
223.03363 0.066694 
223.05188 3.749592 
224.01947 1.369926 
224.994858 42.306431 
225.012405 3.678465 
225.055054 0.146883 
225.073349 0.52112 
225.090958 0.120525 
225.998413 3.454551 
226.062469 0.221531 
226.991791 2.639641 
227.010544 24.837355 
227.069901 0.170104 
228.014755 2.76207 
228.078613 0.101529 
228.989853 5.599827 
229.00766 2.414192 
229.049408 4.343151 
229.99411 0.05699 
230.057785 4.472001 
230.986801 1.466883 
231.020859 0.760899 
231.060913 0.076573 
231.402985 0.060058 
232.023834 0.070985 
232.884094 0.146162 
233.03624 2.854312 
234.883713 0.43721 
235.015717 1.35329 
235.052048 1.189372 
235.075317 0.51404 
235.275772 0.074985 
235.892029 0.234283 
236.995087 1.086423 
237.031281 11.113287 
237.090866 0.772424 
238.034866 1.145284 
238.096298 0.157811 
238.991898 0.234443 
239.010574 11.420582 
239.028275 2.473607 
239.07019 0.299422 
240.014633 1.319528 
240.07666 0.065786 
240.991425 0.193627 
241.007736 2.826014 
241.047165 10.743955 
242.052429 0.637083 
242.056473 0.663304 
246.899551 0.086363 
247.015518 7.795596 
247.051712 0.149654 
247.075302 0.242479 
248.019669 0.941378 
248.082886 0.471901 
248.937225 0.189008 
248.994904 6.826177 
249.012604 2.294996 
249.031082 6.426182 
249.089111 0.071861 
249.998138 0.778177 
250.035355 0.253328 
250.894196 1.36281 
250.992325 2.220602 
251.010452 9.253259 
251.025864 0.372135 
251.030991 0.309061 
251.046768 11.682775 
251.069397 0.083922 
251.893097 0.068768 
252.014694 0.650702 
252.050629 0.39508 
252.894348 3.451873 
252.990875 0.379786 
253.007477 1.801415 
253.025818 1.223957 
253.085312 0.499529 
253.903305 0.056106 
254.021637 1.047986 
254.890076 0.453356 
255.005417 9.821993 
256.072601 0.069938 
257.043182 0.155132 
258.051819 0.173865 
259.016083 0.688402 
259.052216 0.238171 
260.023926 0.090045 
261.031494 3.567897 
261.06781 0.080417 
261.905914 0.058083 
262.035492 0.181531 
263.010895 6.966137 
263.025696 0.08183 
263.046753 0.218952 
263.069916 0.430102 
263.90094 1.734959 
264.015533 0.967596 
264.077545 0.44024 
264.909668 0.755904 
264.989929 100.0 
265.024872 11.679806 
265.085632 1.298895 
265.911255 0.062948 
265.993408 16.819382 
266.029419 1.366189 
266.093018 1.113372 
266.986511 50.898136 
267.022797 2.899895 
267.041046 1.532792 
267.100586 0.553071 
267.119446 0.060577 
267.990204 5.3762 
268.109406 0.240094 
269.003418 0.064778 
269.020508 0.442853 
270.051514 0.07191 
270.904724 0.200101 
271.018066 1.039891 
271.051056 0.089893 
272.022125 0.08807 
272.039764 0.920164 
272.938232 0.05311 
273.005249 0.431343 
273.030212 0.302898 
273.046204 0.828076 
273.067291 0.239165 
274.893829 1.318854 
274.998932 11.805528 
275.025421 0.058071 
275.046387 1.53315 
275.062805 0.06499 
275.901031 0.052823 
276.002411 0.420687 
276.016785 0.20164 
276.051025 0.074375 
276.080414 0.084516 
276.904999 0.203116 
277.008545 1.598688 
277.026001 15.166278 
277.042908 0.707489 
277.062225 0.154349 
277.90213 2.656942 
278.029877 1.566481 
278.925293 0.216403 
279.006714 0.864245 
279.024078 1.751757 
279.041656 17.751823 
279.059052 0.169382 
279.112885 0.065066 
279.899475 0.19865 
279.917023 2.623817 
280.02771 0.07621 
280.045471 1.415659 
280.903442 0.131742 
281.004364 0.176689 
281.020721 2.19002 
281.037018 0.095378 
281.080963 0.515743 
281.911774 12.110075 
282.026001 0.084088 
282.088409 0.572285 
282.918488 0.42291 
283.019745 0.155544 
283.051331 0.115188 
285.015198 0.078989 
285.03183 0.258889 
286.038483 0.067427 
287.01062 1.055954 
287.046967 0.541978 
289.026825 0.167854 
289.062042 0.241555 
289.134277 0.053325 
290.92514 2.330918 
290.947357 0.396802 
290.994812 1.02039 
291.04184 1.786087 
291.925507 0.073733 
292.072937 0.611579 
293.023468 7.616484 
293.0401 0.48934 
293.080261 0.163281 
294.025757 0.240894 
294.088135 0.501024 
295.01828 2.133545 
295.036835 5.976371 
295.91217 0.07233 
296.040344 0.353848 
296.929352 0.274053 
297.928436 3.431981 
298.930542 0.145086 
299.04718 2.009311 
299.084656 0.071393 
299.924561 0.426109 
301.02652 0.623744 
301.044312 0.367298 
301.062775 2.191113 
302.067902 0.309663 
303.004211 0.075024 
303.023956 0.079352 
303.041626 2.426313 
303.059357 0.706577 
303.077667 1.208295 
304.013977 0.169572 
304.037506 0.77275 
304.164154 0.087956 
304.187653 0.088458 
304.905884 0.057687 
305.021301 13.795464 
305.039246 1.022784 
305.057068 0.579548 
305.086792 1.057816 
306.025024 0.984086 
307.017914 0.082071 
310.083588 0.477112 
310.106873 0.322693 
310.91568 0.138878 
311.021423 0.292565 
311.046906 1.019218 
313.04425 0.084323 
316.835724 0.066199 
317.057343 2.32457 
319.036957 1.803843 
319.055206 0.265515 
319.073761 0.421628 
320.919434 0.737906 
320.999176 0.080561 
321.033966 0.179843 
321.05249 0.114816 
321.159637 0.398392 
322.914581 6.634883 
323.031464 0.895522 
323.097015 2.79135 
323.918304 0.102068 
327.041748 1.965716 
327.077698 0.462421 
327.140259 0.06645 
329.057434 2.590529 
330.062439 0.791846 
331.054443 1.239892 
339.938934 0.107159 
345.052551 7.254292 
346.056305 1.491544 
346.083618 0.16153 
347.049194 1.905098 
347.068573 2.231118 
348.073364 0.426011 
349.063995 0.336638 
351.083038 0.098767 
363.062958 0.144232 
366.967102 0.190322 
380.160004 1.053293 
380.200104 0.313317 
381.041229 0.205455 
381.09317 0.286009 
381.162811 0.06362 
381.190491 0.197794 
381.217438 12.792987 
381.259857 10.674318 
381.295288 0.248338 
382.220734 3.612202 
382.263763 2.382776 
382.43988 0.072853 
382.978424 0.075558 
383.166962 0.068645 
383.200043 1.065787 
383.237732 0.77261 
383.273773 1.419417 
383.312714 0.687136 
384.141998 0.088085 
384.170227 0.262964 
384.200378 0.051622 
399.053558 0.065551 
403.376221 0.067964 
END IONS

