BEGIN IONS
PEPMASS=363.064
CHARGE=1+
COMPOUNDNAME=(4R,6S,8S,9Z,11E)-16-chloro-17,19-dihydroxy-4-methyl-3,7-dioxatricyclo[13.4.0.0?,?]nonadeca-1(15),9,11,16,18-pentaene-2,13-dione
LIBRARYQUALITY=3
SMILES=N/A
INCHIKEY=WYZWZEOGROVVHK-RPJJWQTDSA-N
INCHI=InChI=1S/C18H17ClO6/c1-9-6-15-14(25-15)5-3-2-4-10(20)7-11-16(18(23)24-9)12(21)8-13(22)17(11)19/h2-5,8-9,14-15,21-22H,6-7H2,1H3/b4-2+,5-3-/t9-,14+,15+/m1/s1
MSLEVEL=2
SOURCE_INSTRUMENT=N/A-ESI-QFT
FILENAME=library_mgf.mgf
SEQ=*..*
IONMODE=negative
ORGANISM=MONA
NAME=(4R,6S,8S,9Z,11E)-16-chloro-17,19-dihydroxy-4-methyl-3,7-dioxatricyclo[13.4.0.0?,?]nonadeca-1(15),9,11,16,18-pentaene-2,13-dione [M-H]-
PI=MoNA
DATACOLLECTOR=MoNA:VF-NPL-QEHF022106
PUBMED=N/A
SUBMITUSER=mwang87
TAGS=
SPECTRUMID=CCMSLIB00004713169
SCANS=22106
50.583454 0.319748 
50.652279 0.293737 
50.830826 0.356499 
51.731167 0.249123 
52.014423 0.375732 
54.049137 0.259053 
54.21505 0.481424 
54.26022 0.343839 
55.112537 0.280812 
55.364555 0.451073 
56.278793 0.446379 
57.033169 1.872732 
57.042183 0.260274 
57.120644 0.50439 
58.433434 0.368173 
58.98555 0.364231 
59.595093 0.252069 
61.295364 0.34645 
61.432884 0.364138 
61.564213 0.281373 
62.191109 0.306605 
62.298183 0.375017 
62.587929 0.345094 
62.838352 0.483149 
63.525913 0.292053 
63.611595 0.408393 
64.904358 0.335276 
65.432129 0.327447 
65.560631 0.43008 
65.982124 0.405974 
66.213615 0.57953 
66.41008 0.414051 
66.649803 0.417556 
70.03009 0.295943 
70.949944 0.378093 
71.845795 0.477577 
71.889725 0.411265 
72.010895 0.307293 
72.629601 0.416002 
73.858543 0.382584 
73.996796 0.465255 
75.54229 0.41089 
75.603745 0.37735 
76.875259 0.377298 
77.889717 0.442881 
78.467323 0.371342 
80.257439 0.485727 
83.114029 0.410203 
83.485733 0.309805 
83.681091 0.240481 
83.929039 0.261466 
85.075569 0.337581 
85.079292 0.370142 
85.251396 0.250824 
86.220581 0.463401 
87.661194 0.370952 
88.015961 0.279764 
88.294594 0.35289 
89.516167 0.271836 
92.025444 0.460283 
93.033195 4.422979 
94.877251 0.348798 
96.137894 0.269985 
96.750229 0.43308 
96.870239 0.444969 
97.578217 0.411225 
98.211906 0.32183 
99.968552 0.444462 
100.224754 0.474895 
102.984138 0.325873 
103.456131 0.316811 
105.617989 0.411384 
106.51767 0.432391 
106.533081 0.504121 
108.015427 0.248681 
108.173912 0.33999 
111.611031 0.429291 
113.286324 0.425371 
113.633469 0.271341 
114.994247 17.594105 
116.441803 0.460991 
117.033112 0.371547 
117.844887 0.377648 
117.861214 0.311781 
118.256554 0.344856 
118.335419 0.467189 
119.012527 21.035452 
119.016869 0.371013 
120.77813 0.312185 
121.028023 2.448156 
122.147385 0.297903 
123.009705 0.374604 
126.515518 0.517651 
126.52562 0.427397 
126.627602 0.328841 
132.020325 4.135453 
133.028076 1.240245 
134.279831 0.312784 
134.321442 0.416236 
134.916199 0.361524 
135.702103 0.375929 
137.514282 0.433993 
138.994354 9.464835 
139.022705 0.332721 
140.251144 0.377045 
140.412704 0.535993 
141.033264 2.942476 
141.069595 0.65188 
143.048935 9.62634 
143.779007 0.304653 
143.796143 0.359835 
144.020264 9.761712 
145.028351 2.297624 
145.553009 0.533688 
147.007507 12.627228 
147.043503 0.283464 
147.646317 0.348619 
149.022995 1.157766 
149.661911 0.302058 
151.72493 0.507307 
154.989365 11.606459 
155.049011 4.676686 
157.004929 1.950641 
157.02832 3.036325 
157.06546 0.886419 
158.036575 0.347991 
159.043884 2.094234 
160.01532 11.36442 
161.023239 12.603615 
165.030899 0.617594 
167.04924 20.693708 
167.302139 0.305274 
168.057251 1.052658 
169.028564 1.984596 
169.06485 7.962457 
169.546036 0.393159 
170.036255 0.726933 
170.501617 0.38115 
171.044052 11.658005 
171.080368 1.166256 
172.015808 0.399773 
172.052704 0.314228 
173.059677 15.732117 
174.031113 3.754894 
175.039124 0.757197 
175.546387 0.409847 
175.800003 0.343301 
178.227432 0.46313 
178.646332 0.327232 
178.989059 0.43149 
179.997345 21.694328 
180.05687 0.412782 
181.028412 1.869558 
181.064438 0.550529 
181.976669 36.555576 
182.036194 3.064744 
182.160995 0.361575 
182.984512 100.0 
183.04425 25.241837 
183.080292 0.748472 
183.09639 0.280581 
183.973709 1.81036 
183.988022 3.240217 
184.052155 3.659188 
184.084061 0.467484 
184.98143 11.392138 
185.023544 4.528145 
185.059967 4.934864 
185.938232 0.407841 
187.039291 1.772515 
187.049637 0.423026 
187.074677 0.384844 
187.72319 0.429918 
187.790573 0.316234 
188.010818 0.302172 
190.018555 0.956026 
191.290192 0.505115 
193.005585 0.372229 
193.065094 0.763937 
194.984619 38.232121 
195.044174 29.192766 
195.992035 3.694924 
196.051956 6.950103 
196.981262 1.818141 
197.023941 0.441076 
197.059875 8.771651 
197.56955 0.325003 
198.031342 8.280684 
198.065582 0.444074 
199.039108 5.818562 
199.075729 1.823849 
200.010727 39.853348 
200.047653 0.72902 
200.995377 2.311127 
201.01799 0.529064 
202.729187 0.408757 
203.72728 0.304274 
207.021027 16.947811 
207.992645 6.412726 
208.052505 0.725425 
209.000275 1.585435 
209.059906 2.593598 
209.297333 0.394691 
210.031616 0.629314 
210.979691 1.322793 
211.039337 47.079384 
211.075882 3.909371 
212.047119 24.201502 
213.018875 0.360217 
213.054764 13.275863 
214.391434 15.399902 
214.40004 7.665416 
215.070526 7.074188 
216.556885 0.389772 
217.005447 4.60381 
218.581543 0.311879 
219.020447 0.512998 
221.058548 0.339932 
222.41011 0.285778 
223.039642 0.512489 
223.987503 45.143089 
224.046494 1.502501 
224.432404 0.326773 
224.994873 8.054603 
225.0186 17.871429 
225.984436 4.474891 
226.026169 3.709647 
226.33786 0.409133 
227.034195 0.889042 
227.070938 2.077233 
229.107239 0.283151 
231.021164 5.178747 
231.205109 0.467815 
232.028198 0.492491 
233.000427 18.575169 
233.037231 1.572124 
234.008026 0.437539 
237.055344 5.516035 
237.934784 0.295868 
239.034485 25.163746 
239.070801 8.629079 
239.298447 0.458967 
240.04216 32.025097 
241.049622 8.003123 
241.086807 1.986096 
242.129929 0.403012 
247.016312 34.195175 
248.023193 7.052654 
249.013367 2.514085 
249.031387 1.035866 
253.084824 0.484175 
254.0242 0.286225 
255.065765 3.188155 
257.034729 0.500696 
259.016327 4.510605 
260.995758 7.048907 
262.002411 0.34331 
264.000885 0.388791 
265.085938 0.413691 
267.029907 0.809074 
267.310791 0.540395 
268.03775 2.240708 
268.169586 0.312977 
268.581573 0.482524 
273.032135 4.272084 
274.152191 0.322086 
275.011566 23.246719 
275.026947 0.334978 
276.018372 10.660887 
277.008179 1.284505 
277.026245 5.783513 
280.857361 0.294289 
283.06076 0.838138 
285.074005 0.385068 
287.010559 0.447806 
290.852814 0.493602 
295.725098 0.431938 
301.027802 0.326135 
304.01358 1.290961 
306.54425 0.275919 
310.357178 0.276732 
312.037537 0.343359 
313.767059 0.453738 
319.038208 0.604335 
337.27832 0.501074 
347.369629 0.522916 
356.589142 0.37641 
363.063751 5.90613 
367.789856 0.445868 
373.548737 0.343186 
375.241058 0.362591 
378.489655 0.507804 
END IONS

