BEGIN IONS
PEPMASS=347.149
CHARGE=1+
COMPOUNDNAME=GIBBERELLIC ACID
LIBRARYQUALITY=3
SMILES=N/A
INCHIKEY=IXORZMNAPKEEDV-SNTJWBGVSA-N
INCHI=InChI=1S/C19H22O6/c1-9-7-17-8-18(9,24)5-3-10(17)19-6-4-11(20)16(2,15(23)25-19)13(19)12(17)14(21)22/h4,6,10-13,20,24H,1,3,5,7-8H2,2H3,(H,21,22)/t10-,11+,12-,13-,16+,17+,18+,19-/m1/s1
MSLEVEL=2
SOURCE_INSTRUMENT=N/A-ESI-QFT
FILENAME=library_mgf.mgf
SEQ=*..*
IONMODE=positive
ORGANISM=MONA
NAME=GIBBERELLIC ACID [M+H]+
PI=MoNA
DATACOLLECTOR=MoNA:VF-NPL-QEHF006377
PUBMED=N/A
SUBMITUSER=mwang87
TAGS=
SPECTRUMID=CCMSLIB00004697440
SCANS=6377
50.462147 0.020559 
50.617702 0.015908 
50.684818 0.016257 
50.982925 0.02025 
51.430489 0.019561 
51.534275 0.021887 
52.792152 0.014963 
52.893959 0.015963 
53.002872 0.264012 
53.005306 0.016179 
53.039288 0.620631 
53.19075 0.020257 
53.325172 0.016073 
53.359753 0.023919 
53.430683 0.019353 
53.483112 0.022126 
53.844707 0.015706 
53.935791 0.020394 
54.00309 0.020538 
54.145229 0.019479 
54.51062 0.014384 
54.5975 0.018205 
55.018581 9.447179 
55.054966 9.60243 
55.789696 0.021866 
55.791615 0.020038 
56.02187 0.054894 
56.0243 0.020649 
56.050213 3.046517 
56.058262 0.258436 
56.072815 0.02015 
56.212116 0.021887 
56.283733 0.017215 
56.451683 0.014169 
56.965504 5.124514 
57.025719 0.015725 
57.034229 3.078114 
57.05352 0.022023 
57.06448 0.020135 
57.070606 7.623272 
57.210186 0.020903 
57.361347 0.021184 
57.478352 0.019257 
57.565269 0.015804 
57.683891 0.021309 
57.80682 0.019483 
57.818939 0.022057 
57.881748 0.018115 
58.037388 0.028547 
58.065849 39.463928 
58.068241 0.114707 
58.073898 0.185002 
58.117462 0.015242 
58.232407 0.015759 
58.404686 0.020088 
58.544685 0.021113 
58.685856 0.019041 
58.995785 0.021688 
59.049858 3.963351 
59.061089 0.500067 
59.06266 0.025353 
59.069141 1.23155 
59.393177 0.020019 
59.67445 0.014685 
59.807697 0.016854 
59.959072 0.015735 
59.990921 0.019908 
60.045094 4.071917 
60.053082 0.019656 
60.056267 0.061437 
60.059803 0.019298 
60.081478 2.74034 
60.196285 0.014358 
60.24593 0.019461 
60.635609 0.022831 
60.736004 0.017294 
61.011303 1.419045 
61.029003 0.043393 
61.134731 0.018429 
61.670631 0.018995 
62.016312 0.024665 
62.019146 0.20245 
62.060635 0.243455 
62.068604 0.287987 
62.460667 0.02214 
62.960304 0.0144 
62.982391 1.304787 
63.44101 0.017976 
63.536335 0.019919 
64.113213 0.014926 
64.325172 0.022119 
65.039253 0.221098 
65.25441 0.018614 
65.4002 0.020829 
65.665375 0.014349 
65.955582 0.01737 
67.042229 0.022281 
67.051086 0.019579 
67.054893 13.387059 
67.357262 0.016786 
67.800491 0.017825 
67.830124 0.01603 
67.846382 0.014397 
68.050049 0.929917 
68.058159 0.265829 
68.231728 0.027664 
68.997749 0.018026 
69.034119 3.849125 
69.070518 11.590604 
70.029305 0.520546 
70.06575 13.289824 
70.073822 0.302129 
70.439468 0.017021 
70.580894 0.020824 
70.951019 0.020194 
70.981201 0.019756 
71.013283 0.070921 
71.049767 5.680167 
71.069008 0.495492 
71.086128 3.142744 
71.359596 0.040894 
71.385262 0.01846 
71.43679 0.015615 
71.952705 0.021686 
72.044968 1.706639 
72.053017 0.044541 
72.081383 7.926601 
72.089546 0.020824 
72.211235 0.021647 
72.293045 0.020633 
72.652832 0.02052 
72.715752 0.014519 
73.029007 2.548648 
73.065361 2.059628 
73.084656 0.171398 
73.387756 0.020027 
74.024162 0.494029 
74.060638 5.625735 
74.096954 0.587036 
74.29493 0.019347 
74.976051 0.371755 
75.044594 0.527186 
75.303711 0.021021 
75.747612 0.026348 
76.039795 0.241519 
76.076286 0.701054 
76.912079 0.019853 
77.005821 0.021998 
77.008865 0.308283 
77.085442 0.018046 
77.527092 0.023812 
77.872726 0.015837 
78.077599 0.014569 
78.341911 0.019469 
78.618393 0.019939 
79.021782 4.513467 
79.05481 9.544533 
79.909866 0.015656 
80.049934 0.563864 
80.058105 0.260333 
80.599205 0.015129 
80.796127 0.017615 
80.839378 0.03672 
80.948212 0.080945 
81.034019 2.02854 
81.036095 0.031122 
81.045105 0.042639 
81.057518 0.024502 
81.070412 21.206907 
81.987625 0.01742 
82.065651 1.829006 
82.0737 1.045602 
83.013268 0.053933 
83.049683 9.280197 
83.060783 0.300446 
83.086067 7.743896 
83.423454 0.021065 
84.044907 8.740488 
84.05291 0.231427 
84.081284 11.940397 
84.089272 0.235137 
84.749443 0.014889 
84.85051 0.017606 
84.960281 0.128908 
85.028915 3.092545 
85.04007 0.200014 
85.048111 0.098361 
85.065315 6.727914 
85.084541 0.427482 
85.087204 0.020706 
85.101624 1.075966 
85.225639 0.015055 
85.923965 0.016798 
86.060555 4.462768 
86.06855 0.092561 
86.096947 18.019796 
86.101265 0.016858 
86.46785 0.020306 
86.515457 0.016193 
86.990471 0.021991 
86.996986 0.019854 
87.044563 4.835343 
87.055603 0.405769 
87.100128 0.882734 
87.102646 0.025183 
87.352364 0.022588 
87.724434 0.020724 
88.021957 0.512028 
88.03981 2.949954 
88.047852 0.132189 
88.076126 1.230939 
88.126656 0.0192 
89.060211 4.439497 
89.768257 0.017644 
90.055359 0.350549 
90.063461 0.713138 
90.484016 0.025245 
90.489136 0.014997 
90.767677 0.019476 
91.05471 10.459782 
91.832176 0.017404 
92.024437 0.017371 
92.057945 0.271626 
92.507286 0.017572 
92.562721 0.021187 
92.986214 0.05366 
93.070328 13.593864 
93.731293 0.014321 
93.950676 0.021793 
94.065559 2.902516 
94.073593 0.691461 
95.012901 0.040627 
95.019356 0.055937 
95.049576 6.140275 
95.060631 0.666302 
95.073227 0.022576 
95.08593 23.003874 
95.08918 0.045151 
95.485168 0.014613 
95.82357 0.015387 
95.940887 0.017475 
96.044731 1.346048 
96.052742 0.129705 
96.081192 2.112932 
96.089165 1.537972 
97.028809 2.260309 
97.040222 0.023812 
97.065208 7.610487 
97.068604 0.023531 
97.076324 0.351542 
97.101601 5.549625 
97.10498 0.036171 
97.284279 0.02049 
97.649269 0.020215 
97.849709 0.01847 
97.996544 0.020841 
98.024078 0.277892 
98.060417 2.481943 
98.068405 0.156469 
98.096802 26.786575 
98.104485 0.139337 
98.975739 2.261123 
98.9841 0.023751 
99.008209 0.029362 
99.044472 3.337324 
99.055435 0.056512 
99.063721 0.02324 
99.080788 3.948984 
99.100044 1.021953 
100.039528 0.72908 
100.047523 0.042666 
100.076073 5.821778 
100.084076 0.149088 
100.112427 1.755788 
100.714828 0.015761 
101.003441 0.099572 
101.02356 0.39437 
101.060066 10.437937 
101.071121 1.065555 
101.079231 0.105261 
101.11055 0.019126 
101.115654 0.080018 
101.419029 0.016081 
102.055252 2.250894 
102.063194 0.203698 
102.091576 0.777681 
103.039253 0.146783 
103.050728 0.203086 
103.054482 1.771306 
103.057892 0.028982 
103.094803 0.048336 
103.629395 0.021491 
104.034187 0.023242 
104.04985 0.023342 
104.057617 0.030673 
104.070793 1.044733 
104.078766 1.075277 
104.107224 1.203601 
104.363289 0.017584 
104.625435 0.017093 
104.908356 0.015883 
105.000557 0.02265 
105.033714 0.554296 
105.070213 8.804652 
105.529793 0.017485 
105.77581 0.023838 
105.933334 0.019569 
106.036552 0.020158 
106.065292 0.404707 
106.07338 0.325827 
106.159637 0.024184 
107.049423 4.596612 
107.060684 0.033223 
107.073288 0.08892 
107.085785 11.858347 
107.776535 0.01433 
108.044579 0.691902 
108.052643 0.051541 
108.081039 2.563125 
108.088997 0.750163 
108.425087 0.019659 
108.570862 0.017919 
109.028549 0.916791 
109.065018 6.639513 
109.076164 0.845593 
109.088837 0.024569 
109.101433 10.923045 
109.361061 0.018082 
110.060303 3.282638 
110.06797 0.038673 
110.07164 0.317287 
110.083878 0.025782 
110.096581 2.017341 
110.10463 0.757404 
110.595924 0.015128 
111.021667 0.016465 
111.044281 8.479382 
111.055405 0.547982 
111.063385 0.026396 
111.068214 0.024816 
111.080666 4.479949 
111.091805 0.298359 
111.116898 0.498949 
111.330154 0.024692 
111.997238 0.022345 
112.022041 0.023778 
112.039383 0.900833 
112.047424 0.213644 
112.075897 2.753564 
112.087433 0.05181 
112.112137 0.909834 
112.804672 0.014996 
113.023361 0.145455 
113.034752 0.03212 
113.042595 0.030712 
113.059921 9.79292 
113.071106 0.393716 
113.079033 0.08631 
113.096329 4.907243 
113.30571 0.023378 
113.659889 0.018801 
114.000641 0.02246 
114.055008 1.371276 
114.062904 0.355789 
114.091438 1.038886 
114.09938 0.113476 
115.039085 1.967935 
115.050331 0.062354 
115.054474 0.201361 
115.075508 2.669258 
115.086624 0.519411 
115.827621 0.018731 
116.006126 0.017582 
116.034386 0.132806 
116.053032 1.296689 
116.056786 0.024266 
116.070763 3.331446 
116.10701 0.166458 
116.986031 4.299355 
117.054665 0.12952 
117.070068 2.945848 
117.074104 0.139013 
118.032455 0.028015 
118.049889 0.217707 
118.065201 0.792056 
118.073082 0.097779 
118.086411 5.747586 
118.443085 0.017325 
119.00148 0.129136 
119.019043 0.250662 
119.049225 1.573989 
119.085663 9.892704 
119.658173 0.020542 
120.003181 0.020839 
120.044403 0.566947 
120.065567 0.127263 
120.080856 5.205027 
120.08886 0.604371 
120.331642 0.015803 
120.422081 0.018883 
120.952385 0.0215 
120.979729 0.018508 
120.995346 0.027391 
121.028313 0.418945 
121.039223 0.029482 
121.064919 5.082408 
121.075951 0.238395 
121.084084 0.144355 
121.088638 0.076888 
121.101242 10.765789 
121.503067 0.01579 
122.060242 2.122892 
122.067871 0.182956 
122.072334 0.025216 
122.096481 1.627033 
122.104507 0.732486 
122.822929 0.015036 
123.044136 2.492954 
123.055099 0.10657 
123.080513 7.319108 
123.09156 0.378 
123.104118 0.018054 
123.11692 3.412906 
123.798698 0.016907 
124.039246 0.93906 
124.075752 3.575233 
124.083618 0.307063 
124.111969 0.917196 
124.120056 0.189593 
125.023247 0.186776 
125.034683 0.022186 
125.059746 4.633831 
125.070877 0.481458 
125.083473 0.023241 
125.09613 4.821834 
125.106941 0.170914 
125.142197 0.015953 
126.054901 1.522451 
126.063141 0.095988 
126.091324 1.935931 
126.099304 0.219995 
126.127625 0.192056 
126.949188 0.015085 
127.038925 0.577646 
127.05024 0.172194 
127.063332 0.025729 
127.075264 1.317974 
127.086418 0.368586 
127.111633 0.679656 
127.888481 0.018542 
128.034042 0.023054 
128.062073 0.092235 
128.070511 2.035282 
128.081573 0.025295 
128.106979 3.207769 
128.143127 0.02173 
128.819305 0.021493 
129.054581 2.67465 
129.065277 0.344454 
129.06987 1.237002 
129.090759 0.268431 
129.10202 0.289733 
129.110184 0.028365 
129.992554 0.014977 
130.049759 2.319682 
130.059799 0.055107 
130.065094 3.115505 
130.086105 1.37075 
130.159012 4.884608 
130.979034 0.01661 
131.001495 0.064768 
131.033554 0.121377 
131.044235 0.08758 
131.048965 1.244389 
131.060394 0.019213 
131.085419 4.87073 
131.562347 0.017583 
132.044266 0.281835 
132.065109 0.071185 
132.080627 2.253003 
132.088959 0.164098 
132.10173 1.123747 
132.836639 0.017495 
133.017166 0.038229 
133.064728 3.67009 
133.076141 0.125659 
133.085602 0.050418 
133.101074 7.679615 
133.832886 0.02394 
134.012863 0.017245 
134.05983 1.023061 
134.068069 0.034924 
134.096176 0.992742 
134.104294 0.387502 
134.283112 0.015013 
134.852112 0.013148 
134.978653 5.049571 
134.996429 8.816598 
135.043915 1.525015 
135.080322 4.982409 
135.091553 0.177386 
135.104126 0.034751 
135.116684 6.181622 
135.999619 0.041545 
136.039108 0.290628 
136.050583 0.046566 
136.061615 0.857355 
136.075623 4.436306 
136.083389 0.213555 
136.088608 0.032616 
136.111908 1.153013 
136.119949 0.357762 
136.23053 0.019529 
136.957855 0.061783 
136.974594 0.089128 
137.011612 3.635666 
137.046112 0.085417 
137.05957 3.367961 
137.070786 0.537348 
137.078659 0.217176 
137.095963 4.74452 
137.107132 0.125604 
137.13237 0.565016 
138.012222 0.291649 
138.054825 1.980019 
138.061478 0.029692 
138.091217 2.960453 
138.099304 0.142535 
138.127472 0.66744 
138.276871 0.019485 
138.82106 0.019314 
138.989258 0.182204 
139.00853 0.486253 
139.038818 0.448758 
139.049911 0.471462 
139.057571 0.02774 
139.075226 3.268573 
139.086197 0.635895 
139.111465 1.573041 
139.331055 0.015466 
139.793106 0.023447 
140.033936 0.190338 
140.070358 1.482298 
140.078247 0.051947 
140.106796 1.607106 
140.143295 0.062805 
141.037506 0.027656 
141.054459 0.410987 
141.065277 0.328411 
141.069962 0.053163 
141.090775 2.428186 
141.101913 0.196406 
141.134125 0.015455 
141.510818 0.019109 
142.049728 0.266982 
142.078369 0.027394 
142.086136 1.99592 
142.092453 0.060218 
142.122437 1.235968 
143.033539 0.078091 
143.055008 0.025225 
143.070084 1.167419 
143.08548 2.233978 
143.106293 0.107775 
143.117676 0.182554 
144.044144 0.532358 
144.065414 0.861971 
144.080612 2.712449 
144.088989 0.033377 
144.10173 1.863867 
145.034439 0.023742 
145.049271 0.061444 
145.064575 1.115525 
145.075745 0.695472 
145.082764 0.047726 
145.100967 5.019837 
146.012421 0.067543 
146.059875 7.192144 
146.068176 0.019849 
146.081253 0.02488 
146.096298 1.192431 
146.104218 0.271493 
146.116699 0.025854 
146.974243 1.026798 
146.996399 0.187791 
147.043854 0.909604 
147.063385 0.240895 
147.080353 2.739983 
147.091095 0.409423 
147.098343 0.027533 
147.103714 0.058152 
147.116669 5.020786 
147.974426 0.028211 
148.012756 0.030863 
148.039078 0.324096 
148.0755 1.98499 
148.082047 0.121503 
148.111832 1.35668 
148.119583 0.191597 
148.261444 0.019818 
149.012085 0.705414 
149.059616 2.303047 
149.070602 0.325076 
149.095978 4.240603 
149.106842 0.275579 
149.132278 2.057961 
150.040466 0.129988 
150.054642 1.3329 
150.062347 0.092959 
150.078247 0.02496 
150.091202 2.375579 
150.09819 0.145785 
150.127579 0.317422 
150.135681 0.09293 
150.950714 0.026331 
151.027328 0.121675 
151.038681 0.268823 
151.049957 0.052382 
151.075226 3.970004 
151.086304 0.634207 
151.105316 0.021767 
151.111542 2.250914 
151.122635 0.215627 
152.033249 0.025575 
152.056488 0.085471 
152.07048 3.615507 
152.106888 2.383769 
152.113724 0.073132 
152.989166 13.79545 
153.006775 1.636871 
153.040726 0.052196 
153.054428 0.920458 
153.065567 0.924667 
153.072998 0.067143 
153.09082 2.395709 
153.10199 0.646412 
153.109528 0.034204 
153.12706 0.574365 
153.889786 0.017855 
153.992798 0.045459 
153.999557 0.019897 
154.049637 0.744021 
154.060913 0.034296 
154.08609 1.194396 
154.093521 0.025885 
154.122467 2.475328 
154.12915 0.029346 
154.968353 0.314109 
154.985046 0.267876 
155.022034 2.285667 
155.044846 0.071103 
155.059387 0.025251 
155.069977 0.520188 
155.085419 0.82146 
155.106384 0.709957 
155.117752 0.294651 
155.125427 0.127274 
156.02301 0.163094 
156.044144 0.0322 
156.065186 0.900201 
156.080734 0.165094 
156.09433 0.020698 
156.101669 1.188791 
156.138107 0.239163 
156.496063 0.023097 
157.018997 0.241205 
157.064819 0.066248 
157.075882 7.708596 
157.086868 0.029659 
157.101044 2.433177 
158.012054 0.129628 
158.059906 3.122921 
158.072205 0.047931 
158.080383 0.841025 
158.096405 0.756335 
158.103317 0.026886 
158.117462 0.539414 
158.644226 0.020675 
159.03244 0.041385 
159.05545 0.029063 
159.06311 0.029792 
159.067993 0.028896 
159.080322 1.493072 
159.091537 5.099908 
159.101196 2.645737 
159.116608 3.379234 
159.830215 0.015248 
160.027817 0.043488 
160.060394 0.05574 
160.075592 2.153939 
160.087433 0.023362 
160.095596 0.429903 
160.111786 0.940389 
160.119217 0.183693 
161.005188 0.016486 
161.011612 0.180516 
161.059418 0.705069 
161.070892 0.375286 
161.079926 0.057442 
161.095856 3.660676 
161.107025 1.653895 
161.132233 2.335731 
162.006744 0.058936 
162.044388 0.016857 
162.054642 0.796974 
162.077835 0.022726 
162.091202 2.095368 
162.098541 0.143075 
162.115051 3.076208 
162.127365 0.663005 
162.135223 0.081915 
162.372833 0.016962 
163.027237 0.2077 
163.038773 0.065454 
163.050079 0.045786 
163.075012 1.596697 
163.086395 0.705483 
163.099319 0.015956 
163.111481 2.48896 
163.122833 0.856255 
163.13501 0.019175 
163.147964 0.422291 
163.656723 0.015705 
164.070389 2.091785 
164.081696 0.033286 
164.107025 2.068275 
164.114273 0.194914 
164.14386 0.042541 
165.006516 0.056335 
165.054398 1.119482 
165.065781 0.129033 
165.090988 2.096874 
165.101669 0.370974 
165.127213 1.093308 
166.04953 0.264928 
166.078049 0.023675 
166.086166 1.888887 
166.093414 0.124287 
166.122482 1.144386 
166.130264 0.024518 
166.15918 0.05338 
167.004822 0.333659 
167.022858 0.06665 
167.045029 0.059143 
167.070038 1.372501 
167.081772 0.155807 
167.106384 0.90689 
167.117722 1.073283 
167.12471 0.025164 
167.142807 0.46467 
167.425797 0.014879 
167.789124 0.026179 
167.976135 0.198126 
168.033386 0.020108 
168.065323 0.869545 
168.088028 0.026195 
168.101776 1.196666 
168.109299 0.023987 
168.13797 0.281335 
168.962219 0.019567 
169.037766 0.056304 
169.060669 0.058118 
169.076218 0.49182 
169.085602 0.448592 
169.101166 1.452219 
169.133774 0.062277 
169.611465 0.024985 
170.044556 0.057931 
170.059875 1.277334 
170.080948 2.193036 
170.096313 0.238104 
170.103638 0.025706 
170.117249 0.769065 
170.153702 0.257769 
170.190063 0.570311 
170.955444 0.139459 
170.999741 2.478265 
171.031982 0.045248 
171.064178 0.053617 
171.080154 1.10109 
171.091736 0.336937 
171.101349 0.157889 
171.116531 1.64789 
171.632904 0.016572 
172.027985 0.03476 
172.061081 0.040637 
172.075409 1.912099 
172.096115 0.222373 
172.111786 0.695231 
172.11998 0.049414 
172.132965 1.280839 
172.943695 0.359514 
173.011719 0.022774 
173.059799 0.088824 
173.070953 2.051448 
173.083374 0.028162 
173.096039 1.683692 
173.107193 0.701498 
173.117188 1.115116 
173.132492 1.180778 
174.054901 3.041208 
174.075912 0.031845 
174.091248 1.712125 
174.098587 0.052299 
174.113464 0.067816 
174.12738 0.366417 
174.148773 0.231908 
174.976227 0.05702 
175.027618 0.455318 
175.075256 0.792753 
175.086395 2.842278 
175.099167 0.033284 
175.111618 1.54433 
175.122772 0.415929 
175.147842 0.873456 
176.022568 0.019362 
176.070267 1.39807 
176.090851 0.021326 
176.106995 1.422554 
176.114761 0.050277 
176.130447 0.064752 
176.143936 0.027262 
176.510986 0.017013 
176.989365 0.299344 
177.043213 0.161365 
177.054657 0.317253 
177.065613 0.207943 
177.090714 1.060444 
177.101852 1.03416 
177.127182 0.886902 
177.138397 0.478985 
177.163574 0.924001 
178.049667 0.210567 
178.086121 1.901085 
178.09433 0.107808 
178.108337 0.033222 
178.122421 1.346942 
179.022141 1.041132 
179.05513 0.176927 
179.070267 0.563401 
179.084579 0.302787 
179.106476 2.061538 
179.117386 0.508211 
179.1259 0.026685 
179.142776 0.410605 
180.017181 0.226117 
180.05661 0.049768 
180.065155 0.743783 
180.093613 0.127801 
180.101624 1.82564 
180.110001 0.127176 
180.137939 0.212953 
180.984055 0.061068 
181.019119 0.087784 
181.038315 0.044803 
181.060577 0.574418 
181.070572 0.054767 
181.085785 0.394704 
181.100128 0.649263 
181.109055 0.026708 
181.122192 0.898795 
181.144852 0.017212 
181.97908 0.015715 
182.044525 0.126992 
182.060287 0.033634 
182.072403 0.027691 
182.081116 0.466899 
182.095291 0.064073 
182.117233 0.847176 
182.153931 0.059923 
183.018295 0.018188 
183.055191 0.110719 
183.079071 0.259303 
183.091293 0.129886 
183.10141 0.163476 
183.116898 1.029486 
183.676529 0.017315 
184.039459 0.08342 
184.061478 0.045277 
184.075409 0.684963 
184.096619 0.442887 
184.111923 0.246579 
184.124969 0.028054 
184.133026 1.090656 
185.011932 0.018397 
185.059875 0.024577 
185.070648 0.90545 
185.080048 0.055824 
185.095917 0.759194 
185.106567 0.088791 
185.11618 0.043925 
185.132217 0.724612 
186.043976 0.041649 
186.054932 0.371777 
186.076126 0.073325 
186.091202 1.532437 
186.09996 0.090037 
186.112534 0.674872 
186.12735 0.132854 
186.135818 0.029249 
186.148727 0.0519 
187.027267 0.064448 
187.075485 0.436391 
187.086319 1.947372 
187.095337 0.064409 
187.111465 1.021406 
187.122726 0.522157 
187.144165 1.139299 
188.060074 0.019988 
188.07045 1.942941 
188.080444 0.210617 
188.091614 0.446323 
188.106766 1.567593 
188.115738 0.058778 
188.129059 0.28634 
188.142838 0.094111 
188.965881 0.230659 
189.006516 0.022588 
189.042786 0.590851 
189.05397 0.102326 
189.065186 0.195715 
189.078033 0.062153 
189.090897 1.321739 
189.102005 2.894554 
189.111771 0.98868 
189.127411 0.863787 
189.138367 0.950522 
189.164352 0.161877 
189.649521 0.017537 
190.038681 0.09862 
190.048218 0.6009 
190.075012 0.17727 
190.086182 1.660805 
190.097244 0.281824 
190.107162 4.463946 
190.122528 1.351646 
190.131393 0.02718 
190.910004 0.019996 
190.953964 1.636705 
191.022156 0.959101 
191.037918 0.020783 
191.055099 3.165224 
191.070267 0.346638 
191.081207 1.294948 
191.10643 1.112425 
191.117584 1.11459 
191.14299 0.247134 
191.179443 0.339107 
192.017578 0.084516 
192.065384 0.964123 
192.07579 0.028551 
192.101593 1.527444 
192.110611 0.118773 
192.137939 0.306971 
192.285706 0.024018 
192.98703 0.103441 
193.017685 0.026557 
193.038284 0.134729 
193.049774 0.030437 
193.086166 0.217993 
193.100876 1.12597 
193.12233 0.483224 
193.133255 0.514955 
194.0811 0.674539 
194.117416 0.69074 
194.154312 0.029695 
194.999786 1.68805 
195.053375 0.019047 
195.068832 0.044106 
195.080215 0.584822 
195.087677 0.152006 
195.1017 0.434711 
195.116348 0.918564 
195.137772 0.215021 
195.148193 0.028128 
195.174149 0.823651 
196.060318 0.081962 
196.075623 0.066564 
196.086472 0.057095 
196.097046 0.349214 
196.111618 0.098351 
196.121078 0.026468 
196.132874 0.393189 
196.961411 0.123106 
197.014008 0.169551 
197.032242 0.037165 
197.04863 0.028389 
197.066238 0.264699 
197.095825 1.041072 
197.106506 0.137122 
197.117233 0.280508 
197.131393 0.499928 
197.974503 0.038332 
198.055634 0.036113 
198.076355 0.231258 
198.091049 0.801455 
198.101212 0.026547 
198.112091 0.274503 
198.127472 0.26099 
198.14859 0.291338 
198.976974 0.052094 
199.027527 0.023571 
199.063766 0.14459 
199.081741 1.061746 
199.09729 0.07804 
199.111252 0.579538 
199.12207 0.111448 
199.132248 0.038402 
199.147812 0.341987 
199.951813 0.02713 
200.060226 0.071298 
200.070389 1.09357 
200.091919 0.060793 
200.106659 1.370487 
200.116776 0.024619 
200.128448 0.23052 
200.142731 0.093534 
200.164902 0.028301 
200.500504 0.038849 
200.866135 0.019108 
200.990433 0.023852 
201.043457 0.047974 
201.065475 0.301033 
201.078354 0.089347 
201.090652 0.730053 
201.101837 1.94602 
201.111496 0.061822 
201.126785 1.229973 
201.138138 0.272985 
201.163651 1.914292 
202.049973 0.48907 
202.059799 0.028126 
202.085968 1.684538 
202.096329 0.219744 
202.107117 0.303947 
202.122284 2.346884 
202.131989 0.153232 
202.167145 0.030628 
202.242172 0.015984 
203.02243 0.08861 
203.058609 0.087978 
203.070572 0.191362 
203.081223 0.920639 
203.092682 0.130041 
203.106201 0.879206 
203.117645 1.260756 
203.127228 0.060578 
203.142975 9.017388 
203.153534 0.433805 
203.179321 0.044337 
204.064957 0.824533 
204.076233 0.059774 
204.090622 0.026674 
204.10202 1.753846 
204.113022 0.3619 
204.125488 3.306104 
204.136993 0.37602 
204.14769 0.08639 
204.162018 0.027708 
205.038116 0.043941 
205.06134 0.026742 
205.071594 0.212316 
205.086166 0.250441 
205.097015 1.681945 
205.109253 0.044968 
205.122284 0.804626 
205.133331 4.788773 
205.157593 0.087535 
206.080582 0.930167 
206.090454 0.028568 
206.106644 0.02705 
206.117218 1.054233 
206.137497 0.197391 
206.154022 0.123959 
206.57399 0.016557 
206.977142 0.048741 
207.016388 0.022124 
207.051941 0.420582 
207.076111 0.129678 
207.101379 0.747642 
207.113144 1.229774 
207.137787 0.393876 
207.148819 0.176162 
208.052292 0.075064 
208.096573 0.38016 
208.132874 0.258908 
208.920166 0.484289 
208.964447 0.737143 
208.978943 0.081616 
209.015991 0.039954 
209.033051 0.323178 
209.048065 0.880159 
209.070526 0.462618 
209.095688 1.022808 
209.117126 1.127226 
209.130447 0.640527 
209.153809 0.075669 
209.189865 1.233048 
210.027878 0.092913 
210.091095 0.309989 
210.1008 0.029738 
210.111084 0.104596 
210.148575 0.383826 
210.193192 0.029382 
210.916199 0.021975 
210.994354 0.040948 
211.027481 0.018131 
211.051315 0.019303 
211.063782 0.122007 
211.075134 0.173481 
211.085052 0.109601 
211.096588 0.088362 
211.111267 1.0308 
211.122375 0.068684 
211.132812 0.047658 
211.147903 0.584351 
212.02301 0.021378 
212.070602 0.309203 
212.092575 0.062643 
212.106628 0.843372 
212.116943 0.059008 
212.127808 0.080486 
212.164215 0.119768 
212.237625 0.092862 
212.992493 2.495142 
213.042603 0.052135 
213.065384 0.103129 
213.079178 0.125286 
213.097046 12.237155 
213.112396 0.09102 
213.127014 0.134749 
213.163773 0.029647 
213.997528 0.02012 
214.04924 0.028459 
214.085922 0.845914 
214.09642 0.093313 
214.107986 0.055392 
214.122162 0.811232 
214.132187 0.036485 
214.143768 0.024729 
214.658859 0.250275 
214.671585 1.0034 
214.682693 1.153736 
214.692307 0.378071 
214.934036 0.301106 
214.95285 0.019998 
214.987839 0.016773 
215.022751 0.071791 
215.058716 0.121917 
215.076477 2.786691 
215.09259 0.094341 
215.106262 0.432319 
215.117416 1.162693 
215.127701 0.303489 
215.140213 0.209354 
215.153564 0.030341 
216.033203 0.064033 
216.065262 0.667877 
216.076248 0.057553 
216.08905 0.104647 
216.101501 1.530214 
216.112518 0.258739 
216.124512 0.139285 
216.138138 0.525396 
216.158569 0.027632 
216.969482 0.764269 
216.986725 3.579012 
217.022705 0.024943 
217.038071 0.139859 
217.060394 0.102885 
217.073883 0.259312 
217.093033 1.609219 
217.108185 0.144002 
217.121872 0.497177 
217.133224 1.226021 
217.144714 0.027502 
218.080627 0.865377 
218.092148 0.037958 
218.105377 0.182057 
218.117096 1.329759 
218.128113 0.246306 
218.138855 0.065362 
218.153625 0.194421 
218.944107 0.143222 
219.002518 0.028179 
219.019852 0.12586 
219.052567 0.021891 
219.076187 2.53852 
219.087814 0.116177 
219.102951 0.203692 
219.112808 0.799456 
219.149048 49.591663 
219.174011 100.0 
220.072311 0.022247 
220.096436 0.67125 
220.111389 0.35269 
220.133011 1.197809 
220.152542 3.451309 
220.163712 0.030412 
220.165726 0.029556 
220.177505 3.695377 
220.903854 0.017171 
221.04451 0.163668 
221.069 0.082364 
221.09343 0.3763 
221.102386 0.292537 
221.11644 0.35247 
221.128998 0.793334 
221.15387 0.036932 
221.912186 0.015758 
222.112488 0.312392 
222.1241 0.20193 
222.136627 0.126149 
222.147842 0.092731 
222.159302 0.030259 
222.898117 0.049621 
222.980408 0.01779 
223.063614 0.022241 
223.073898 0.025656 
223.086044 0.263902 
223.110291 0.646032 
223.132568 0.538427 
223.144318 0.821442 
223.169876 0.026345 
224.057388 0.027035 
224.080765 0.025866 
224.091675 0.045074 
224.104355 0.319535 
224.127411 0.038432 
224.139359 0.030314 
224.164093 0.387569 
224.200806 0.0425 
224.833237 0.016954 
224.936249 0.017584 
225.043915 0.041534 
225.054306 0.026292 
225.079514 4.728653 
225.097427 1.062249 
225.113068 0.186925 
225.133362 0.451362 
225.148987 0.028225 
225.16449 0.034246 
226.074158 0.056285 
226.085495 0.848681 
226.097641 0.154182 
226.122162 0.581522 
226.14389 0.111672 
226.180115 0.13569 
226.216324 0.752538 
226.930389 1.388909 
226.970596 0.019975 
226.989365 0.15651 
227.022842 0.09466 
227.041824 0.039361 
227.058578 0.891994 
227.080887 0.311033 
227.094421 0.205091 
227.113098 1.581487 
227.127716 0.297857 
227.142563 0.041541 
227.179016 0.086204 
227.200333 0.088989 
228.05368 0.133738 
228.065109 0.24029 
228.090042 0.437407 
228.10144 1.057969 
228.112854 0.141964 
228.137939 0.502147 
228.159653 0.044185 
228.195862 0.181469 
228.927002 0.581537 
229.038193 0.020475 
229.074356 1.172302 
229.095917 0.876493 
229.121307 0.513932 
229.133057 1.188872 
229.143661 0.213486 
229.155502 0.778271 
229.19252 0.03168 
229.79744 0.019325 
229.895386 0.019431 
230.047165 0.023191 
230.080505 0.66281 
230.091919 0.129862 
230.104309 0.09076 
230.117218 1.697039 
230.128143 0.136135 
230.139618 0.153331 
230.153549 0.191612 
231.003159 0.205377 
231.053619 0.074354 
231.076324 0.344625 
231.107513 19.203449 
231.124222 0.027239 
231.136063 0.057848 
231.148758 0.797129 
231.222672 0.017319 
232.05896 0.170695 
232.084061 0.238519 
232.096207 1.187028 
232.107803 1.205985 
232.119949 0.171482 
232.132599 0.65138 
232.143951 0.341216 
232.167557 0.028476 
232.944305 0.24511 
232.964478 0.971834 
233.035446 0.019621 
233.088837 3.396223 
233.11586 0.200444 
233.128098 1.594164 
233.142059 0.2715 
233.152908 0.045153 
233.164917 0.029511 
233.891983 0.028028 
234.043625 0.036319 
234.075912 0.151319 
234.099197 0.071172 
234.112061 0.546366 
234.123093 0.031863 
234.148407 0.276761 
234.960007 0.242614 
234.980713 0.336129 
234.997314 7.179058 
235.046204 0.033822 
235.069519 0.100899 
235.082642 0.028744 
235.096268 0.024723 
235.107834 0.366782 
235.131638 0.05882 
235.144379 0.417769 
236.090393 0.062785 
236.106384 0.06227 
236.127869 0.261723 
236.1642 0.198617 
236.95607 0.017468 
236.993164 0.342978 
237.089874 0.045782 
237.1259 0.645608 
237.148315 0.545856 
237.162903 0.18832 
237.184677 0.898001 
238.07164 0.092248 
238.085709 0.041357 
238.107574 0.038001 
238.121353 0.088566 
238.179337 0.034696 
239.058334 0.940814 
239.094681 0.07234 
239.112854 4.903796 
239.141724 0.264315 
239.164948 0.024165 
239.17955 0.033697 
240.060379 1.129697 
240.088867 0.031628 
240.101593 0.574481 
240.11438 1.093022 
240.137405 0.208709 
240.158508 0.032122 
240.174164 0.201201 
240.19545 0.139651 
240.231445 0.030367 
240.578766 0.021903 
240.90918 0.286132 
241.05571 0.887194 
241.074188 0.427893 
241.084717 0.128489 
241.096802 3.370249 
241.109329 0.237111 
241.129715 0.375941 
241.143326 2.352613 
241.15625 0.033292 
241.235138 0.176464 
242.080536 0.358627 
242.10289 0.66493 
242.117065 1.008489 
242.175949 0.029916 
242.211227 0.633536 
242.238327 0.458644 
243.002731 0.020221 
243.053116 0.16168 
243.076569 0.178725 
243.090057 6.466736 
243.110016 1.797822 
243.124466 0.15769 
243.147156 0.870585 
243.186401 0.06002 
243.214691 0.047322 
243.724991 0.018317 
244.084244 0.207834 
244.095947 1.003881 
244.108521 0.100297 
244.119537 0.078672 
244.142792 3.883724 
244.168304 0.024065 
244.941528 0.125623 
245.03183 0.038653 
245.068863 0.39385 
245.091385 0.518931 
245.105331 0.33736 
245.125412 2.261537 
245.164398 0.186358 
246.064758 0.090714 
246.075485 0.065541 
246.100067 0.103766 
246.111969 0.808971 
246.124008 0.065376 
246.134659 0.031439 
246.148071 0.987645 
246.937286 0.043789 
247.084671 0.611469 
247.107193 0.810223 
247.131241 0.392823 
247.143906 1.861997 
247.168228 0.247655 
247.906509 0.026897 
248.057129 0.025503 
248.090729 0.311199 
248.103333 0.08304 
248.12709 0.273457 
248.13942 0.346644 
248.164185 1.585619 
249.013123 0.238467 
249.06073 0.337457 
249.088867 0.292188 
249.12291 0.716882 
249.159103 1.330318 
250.105164 0.143557 
250.118958 0.873339 
250.142548 0.074375 
250.89447 0.019952 
250.974792 0.508233 
251.059647 0.017021 
251.081207 0.081973 
251.11293 3.477079 
251.138824 0.114261 
252.100861 0.090962 
252.11467 0.654612 
252.137177 0.023961 
252.927979 0.020004 
252.97052 0.320459 
253.007935 0.097521 
253.037994 0.149769 
253.073624 0.0308 
253.09227 0.082977 
253.109192 0.062497 
253.131088 0.267625 
253.157928 0.127356 
254.04184 0.025059 
254.080231 0.053517 
254.116791 0.336625 
254.14006 0.032495 
254.247055 0.034871 
254.924362 0.01735 
255.053284 0.046332 
255.076126 0.88083 
255.089752 0.350203 
255.112305 0.391131 
255.136887 0.172769 
255.148987 0.194133 
255.173355 0.14304 
256.081329 0.027014 
256.09613 0.653795 
256.132324 0.310785 
256.154999 0.035156 
256.190765 0.088824 
256.964691 0.039455 
257.068726 0.110236 
257.091522 0.110531 
257.106842 0.161799 
257.123322 7.663367 
257.164551 0.216886 
257.188873 0.030228 
258.077301 0.139897 
258.100342 0.11381 
258.111969 0.392233 
258.124756 1.396891 
258.147888 0.246156 
258.184631 0.029396 
258.997498 0.017967 
259.084686 0.758004 
259.107544 0.6241 
259.12027 0.314608 
259.143585 6.660363 
259.179993 0.130443 
260.091827 0.058689 
260.127502 0.577742 
260.149811 0.063703 
260.1633 0.185198 
260.994965 0.017162 
261.012268 0.030554 
261.086884 0.579807 
261.100281 0.96464 
261.122345 1.695953 
261.158691 0.95488 
261.171112 0.045307 
261.182617 0.028153 
262.094391 0.176523 
262.106079 0.172361 
262.154022 0.745505 
262.89444 0.054688 
263.101654 0.031512 
263.139099 0.522049 
263.97879 0.028599 
264.105804 0.030605 
264.121155 0.030703 
264.170013 0.056799 
264.19519 0.072118 
264.908813 0.138092 
265.121735 0.084056 
265.143127 0.031177 
265.156952 0.030856 
265.179352 0.329888 
265.837646 0.027794 
265.939575 0.426937 
266.117035 0.822718 
267.090088 0.030765 
267.10614 0.219571 
267.135803 0.073495 
267.148865 0.035266 
268.108612 0.215939 
268.132599 0.322556 
268.156616 0.034676 
269.069183 1.330965 
269.091736 3.76016 
269.105957 0.448257 
269.123077 7.856887 
269.138794 0.07879 
269.164124 0.032695 
270.075317 0.137563 
270.097534 0.711174 
270.111664 0.325864 
270.124939 1.445778 
270.147736 0.252492 
270.938141 0.093705 
270.980408 0.020422 
271.048218 0.098434 
271.084991 0.366664 
271.103821 1.245709 
271.120667 0.357543 
271.142792 1.283845 
271.914703 0.020761 
272.052246 0.026227 
272.079712 0.050325 
272.091492 0.066831 
272.113037 0.041208 
272.12735 0.696811 
272.144318 0.024041 
272.163025 0.07523 
272.934052 0.164876 
273.085358 0.265915 
273.100098 4.864068 
273.12326 0.697271 
273.159607 1.087126 
274.106293 0.264704 
274.128937 0.033685 
274.143219 0.51859 
274.974579 1.018195 
275.101929 0.139442 
275.138702 0.51173 
275.175568 0.09688 
276.158936 0.030534 
277.007996 0.11519 
277.119019 0.02528 
277.154419 0.211692 
279.169678 0.523918 
281.15329 0.036246 
282.111572 0.278524 
282.206146 0.275892 
282.919678 0.025104 
283.107788 0.095893 
283.142761 0.420368 
283.169128 0.042694 
283.190552 0.039087 
283.950165 0.022293 
284.127136 0.235716 
284.164764 0.245939 
285.100769 0.124734 
285.121613 0.457176 
285.159424 0.829151 
285.172882 0.223396 
285.195801 0.02709 
285.813965 0.030128 
286.09549 0.073383 
286.105713 0.106968 
286.117645 0.116241 
286.143219 0.253475 
286.167389 0.196211 
286.180237 0.755106 
286.199615 0.035669 
286.957703 0.020685 
287.079865 1.323011 
287.102203 0.751641 
287.116333 0.632481 
287.133698 10.045637 
287.174622 1.592867 
288.074921 0.079815 
288.121002 0.53477 
288.135651 2.400822 
288.158081 0.184602 
288.180359 0.094421 
288.951843 0.037406 
288.991333 0.037639 
289.09549 0.563028 
289.118195 0.270762 
289.130066 0.514113 
289.153717 2.203952 
289.191284 0.142209 
290.102356 0.027197 
290.148895 0.116245 
290.174957 0.044193 
290.213013 0.021695 
290.600952 0.017423 
291.110107 0.998378 
291.133881 0.406867 
291.1698 0.198338 
292.16571 0.937209 
292.985229 0.480894 
293.168976 0.216713 
296.126892 0.035507 
296.164337 0.356147 
298.122253 0.109098 
298.310425 0.064401 
299.138855 0.204908 
299.175751 0.130332 
299.7659 0.019681 
300.122711 0.036349 
300.138123 0.03103 
300.194611 0.02905 
300.245453 0.017454 
301.118164 0.249583 
301.151794 0.745616 
301.168335 0.362509 
301.191132 0.570996 
302.137756 0.256535 
302.171753 0.097382 
302.210144 0.023735 
303.13385 0.32056 
303.169708 1.559066 
303.184692 0.056409 
303.206299 0.210368 
304.09671 0.057186 
304.177551 0.176527 
305.126801 0.097352 
305.155823 0.398591 
305.185425 1.34048 
306.933136 0.046633 
307.174286 0.074523 
309.83548 0.044432 
310.843079 1.025917 
312.123199 0.168923 
312.838654 0.589841 
313.03894 0.023217 
313.154663 0.381298 
313.17334 0.027542 
314.098999 0.033963 
314.153503 0.02855 
314.174286 0.095499 
314.233093 0.07544 
314.486755 0.01821 
315.133759 0.296747 
315.172119 0.713928 
316.115875 0.061047 
316.134155 0.02467 
316.176025 1.456255 
317.149597 0.755021 
317.184875 0.145561 
319.164948 0.088477 
319.201202 0.63457 
320.671875 0.029003 
324.822937 0.025409 
325.83078 0.26752 
327.097015 0.02774 
327.135376 0.022436 
327.169922 0.092769 
327.209198 0.219591 
327.360291 0.019889 
327.825745 1.522619 
328.116852 0.030742 
328.169983 0.117036 
328.19104 0.04175 
328.211304 0.142331 
328.229279 0.038503 
328.263336 0.027973 
329.149567 1.156638 
329.185608 1.367859 
329.223297 0.026426 
330.133301 0.310486 
330.154144 0.097305 
330.167999 0.07517 
330.206604 0.455876 
330.24173 0.025326 
330.278656 0.935688 
330.31604 0.03747 
331.129761 0.0314 
331.165283 2.031473 
331.201111 1.647423 
331.282806 0.02694 
332.187134 0.085336 
334.842957 0.025866 
336.839386 0.038469 
342.833252 1.200707 
344.083496 0.015564 
344.828461 0.3969 
345.151703 0.96394 
345.181122 1.862456 
345.219269 0.855047 
345.248199 0.026036 
345.296844 0.223651 
345.334717 0.029841 
345.976562 0.933888 
346.126068 0.201364 
346.161224 0.316202 
346.180054 0.876815 
346.202332 0.707302 
346.222137 6.109518 
346.245422 0.053397 
346.273834 0.544745 
346.310669 1.473467 
346.346466 2.118691 
346.973633 0.534217 
347.108887 0.170988 
347.127563 0.064555 
347.160217 3.644891 
347.197784 7.572421 
347.225861 0.742217 
347.254761 0.068691 
347.310028 0.132977 
347.349762 0.40219 
347.974426 0.031173 
348.141449 1.148122 
348.162079 0.269642 
348.192841 3.675724 
348.216888 9.750217 
348.253082 0.069091 
348.289246 0.431706 
348.325562 0.220546 
349.182739 74.607277 
349.211395 2.661383 
352.77771 0.027309 
353.837067 0.023978 
362.876312 0.018744 
363.344391 0.019973 
365.732178 0.016476 
370.246735 0.0171 
END IONS

