BEGIN IONS
PEPMASS=273.27
CHARGE=1+
COMPOUNDNAME=ReSpect:PS085704 Naringenin|Nari|4',5,7-trihydroxyflavanone|2,3-Dihydro-5,7-dihydroxy-2-(4-hydroxyphenyl)-4H-1-benzopyran-4-one|Salipurol|naringetol|pelargidanon|Asahina
LIBRARYQUALITY=3
SMILES=C1C(OC2=CC(=CC(=C2C1=O)O)O)C3=CC=C(C=C3)O
INCHIKEY=FTVWIRXFELQLPI-UHFFFAOYSA-N
INCHI=N/A
MSLEVEL=2
SOURCE_INSTRUMENT=ESI-Flow-injection QqQ/MS
FILENAME=respect_8_1_2014_GNPS_peaks.mgf
SEQ=*..*
IONMODE=Positive
ORGANISM=RESPECT
NAME=ReSpect:PS085704 Naringenin|Nari|4',5,7-trihydroxyflavanone|2,3-Dihydro-5,7-dihydroxy-2-(4-hydroxyphenyl)-4H-1-benzopyran-4-one|Salipurol|naringetol|pelargidanon|Asahina [M+H]
PI=Putative ReSpect Match
DATACOLLECTOR=ReSpect
PUBMED=N/A
SUBMITUSER=mwang87
TAGS=
SPECTRUMID=CCMSLIB00000218115
SCANS=4752
91.0 60.0 
107.0 38.0 
119.0 208.0 
146.0 92.0 
147.0 354.0 
151.0 30.0 
152.0 325.0 
153.0 999.0 
273.0 69.0 
END IONS

