BEGIN IONS
PEPMASS=1301.72
CHARGE=1+
COMPOUNDNAME=POLYMYXIN B SULFATE
LIBRARYQUALITY=3
SMILES=N/A
INCHIKEY=HFMDLUQUEXNBOP-UHFFFAOYSA-N
INCHI=InChI=1S/C56H98N16O13.H2O4S/c1-7-32(4)13-11-12-16-44(75)63-36(17-23-57)51(80)72-46(34(6)74)56(85)68-39(20-26-60)48(77)67-41-22-28-62-55(84)45(33(5)73)71-52(81)40(21-27-61)65-47(76)37(18-24-58)66-53(82)42(29-31(2)3)69-54(83)43(30-35-14-9-8-10-15-35)70-49(78)38(19-25-59)64-50(41)79;1-5(2,3)4/h8-10,14-15,31-34,36-43,45-46,73-74H,7,11-13,16-30,57-61H2,1-6H3,(H,62,84)(H,63,75)(H,64,79)(H,65,76)(H,66,82)(H,67,77)(H,68,85)(H,69,83)(H,70,78)(H,71,81)(H,72,80);(H2,1,2,3,4)
MSLEVEL=2
SOURCE_INSTRUMENT=N/A-ESI-QFT
FILENAME=library_mgf.mgf
SEQ=*..*
IONMODE=positive
ORGANISM=MONA
NAME=POLYMYXIN B SULFATE [M+H]+
PI=MoNA
DATACOLLECTOR=MoNA:VF-NPL-QEHF027917
PUBMED=N/A
SUBMITUSER=mwang87
TAGS=
SPECTRUMID=CCMSLIB00004721498
SCANS=27917
91.054375 0.332292 
92.301552 0.056937 
93.069733 0.057198 
94.065155 0.344431 
95.060295 0.431563 
95.085533 0.058392 
95.660568 0.043867 
95.808525 0.049472 
96.080467 0.051603 
96.300095 0.049537 
97.07589 0.165633 
98.071259 1.482054 
98.096352 1.51903 
99.055313 0.709625 
99.091499 0.128609 
99.437622 0.050508 
100.075676 0.519113 
100.086891 13.936321 
101.070923 100.0 
101.090172 0.045018 
101.88562 0.039498 
102.054932 2.954247 
102.067947 0.102222 
102.074242 3.472206 
103.054192 1.5311 
105.069984 0.141125 
105.393227 0.0399 
105.88105 0.043818 
107.093994 0.047164 
109.075958 0.479069 
109.370911 0.05212 
110.059998 0.303815 
110.071167 0.49425 
111.055168 3.963558 
111.09153 2.595381 
112.075577 1.397988 
112.086838 2.424774 
112.569473 0.042888 
113.070839 4.625261 
114.06826 0.046441 
115.086502 1.120177 
118.097466 1.463315 
118.174538 0.041671 
118.837975 0.042579 
119.081444 38.852673 
120.080719 57.170849 
121.076019 3.566902 
121.083969 3.825508 
122.060112 0.092896 
122.079346 0.049242 
122.464935 0.045007 
123.055176 7.716919 
123.091644 2.007454 
123.116714 2.547585 
124.058662 0.063747 
124.075592 0.124425 
124.112289 0.052325 
125.070908 0.748344 
127.08651 9.710869 
128.081726 3.355899 
128.090088 0.045349 
129.065659 2.903764 
130.097473 0.853929 
131.117828 1.306619 
132.075928 0.048666 
132.080658 2.212849 
133.784042 0.047364 
134.293365 0.046617 
136.086975 0.683719 
136.709793 0.045122 
137.070892 6.98351 
138.054382 0.046966 
138.066452 0.15256 
138.074402 0.051116 
138.102432 4.600112 
139.049942 0.049951 
139.086472 9.967126 
139.098007 0.049787 
140.070724 0.272136 
140.081696 8.825535 
140.08786 0.28735 
140.118118 2.043043 
141.010803 0.044859 
141.065704 5.197883 
141.102066 1.908969 
141.138626 0.336971 
142.069427 0.051034 
143.081146 0.124332 
143.117538 0.050615 
143.337006 0.045834 
144.717087 0.042665 
145.097183 0.71799 
145.437027 0.050817 
147.091553 0.060525 
147.465408 0.039832 
148.086838 3.037273 
148.454056 0.04224 
149.070847 11.483546 
149.782104 0.049228 
150.074219 0.285561 
150.102509 1.852019 
151.086578 0.645269 
152.081955 0.215495 
153.065811 0.058121 
154.097473 0.896817 
155.08139 1.038924 
156.113022 6.485069 
156.629547 0.04594 
157.097061 14.421951 
157.108063 6.277963 
157.144699 0.806173 
158.092194 8.443394 
158.098709 0.448521 
158.111679 0.044229 
158.128952 0.222108 
158.15387 3.056871 
158.598358 0.040772 
159.096024 0.043859 
159.11264 0.373224 
160.087036 0.099345 
161.092712 0.0478 
162.102493 0.046039 
164.081863 0.605186 
164.782211 0.042755 
165.065887 0.893402 
165.102188 0.979381 
165.113464 1.653003 
166.097382 18.440966 
166.104919 0.485886 
166.159622 0.04492 
167.08136 11.155392 
167.093475 0.119622 
167.100571 0.554224 
167.129715 0.165069 
168.066284 0.046044 
168.076752 2.370581 
168.084549 0.18184 
168.104858 0.053965 
168.113098 2.157803 
168.149948 0.066759 
169.096954 1.012288 
169.133408 3.444224 
169.229263 0.045464 
170.092331 0.171605 
171.367599 0.041717 
173.218918 0.043013 
174.123611 5.650658 
175.086472 1.499096 
176.081757 0.426732 
176.118286 0.35577 
177.102188 0.534673 
177.113693 0.099011 
178.097366 0.735573 
179.082458 0.063012 
179.118378 0.163803 
179.129013 0.570999 
180.113281 0.133467 
181.108231 0.183644 
182.092407 2.534003 
182.139755 0.273155 
183.076523 0.331809 
183.123962 46.334858 
183.387894 0.048407 
184.075562 0.111159 
184.107925 45.767887 
184.127258 3.311864 
184.353409 0.04954 
184.731445 0.052087 
185.09201 8.716302 
185.111557 2.861556 
185.119858 0.049946 
186.091492 2.048351 
186.102768 0.115086 
186.159973 0.967469 
187.122879 0.48896 
188.11882 0.053159 
188.673172 0.049104 
189.102829 0.047044 
189.547211 0.041894 
192.076111 0.058904 
192.112976 0.155233 
193.098404 0.13956 
193.108398 1.904686 
194.092209 5.951219 
194.12912 0.571115 
195.076462 0.364563 
195.114746 0.048787 
195.123718 3.36101 
195.185684 1.807874 
196.108063 2.747052 
196.144562 1.31817 
196.154984 0.07223 
196.169357 0.341964 
197.10733 0.059353 
197.128464 1.103929 
197.139374 0.815301 
201.102463 0.549994 
201.134476 31.372421 
202.118484 36.682587 
202.133606 4.138899 
203.102509 0.120652 
203.117798 5.472505 
203.138367 0.055682 
204.112885 0.325706 
204.122574 0.11781 
204.149521 2.73759 
205.097656 0.049294 
205.108475 2.198812 
205.144669 0.22189 
206.092453 2.156902 
206.128632 0.304879 
207.077698 0.053588 
209.103302 1.742284 
209.128662 0.055148 
209.138901 0.058539 
210.087326 0.444358 
210.123672 0.546358 
210.13414 0.04683 
211.118637 10.444065 
212.102798 7.482668 
212.121948 0.271753 
212.139282 0.113118 
213.102005 3.252208 
213.134567 2.055575 
213.171036 2.189219 
214.086334 0.143906 
214.117996 0.043303 
214.154846 10.846888 
214.16568 1.191199 
215.117798 0.118962 
215.158447 0.473659 
219.124039 0.577832 
219.144836 3.397405 
220.107941 1.224304 
220.130386 0.057949 
220.144318 0.654063 
221.102768 0.234747 
221.127975 0.105809 
221.139435 1.044341 
222.123703 1.829053 
222.13504 2.747961 
223.118561 4.692516 
223.15506 1.41547 
223.180115 9.215733 
223.997543 0.042289 
224.102707 3.33106 
224.138916 5.972636 
224.164734 0.059317 
224.183792 0.471621 
225.196228 0.04918 
226.155457 0.130141 
227.11412 0.217858 
227.150208 0.340591 
228.116241 0.043131 
228.133698 0.046238 
229.129791 0.691077 
230.128433 20.170448 
231.112885 3.965756 
231.122818 0.370699 
231.132965 1.27466 
231.151306 0.051141 
232.107605 1.125165 
232.145432 0.056775 
233.102951 0.060664 
233.164505 42.621124 
234.168488 4.975914 
237.098083 0.053114 
237.134628 1.125851 
238.118439 2.043371 
238.165222 0.065536 
239.149796 10.628932 
240.133209 0.836457 
240.144989 14.120687 
240.181824 0.346229 
240.20694 3.021586 
241.12912 10.220271 
241.149658 0.365933 
241.166534 0.150376 
241.190704 11.983142 
242.112213 0.050798 
242.132812 0.232901 
242.175018 0.629954 
242.194382 1.120889 
243.149216 1.422847 
245.162964 0.052066 
246.123886 0.048642 
247.119217 0.048401 
248.138687 19.683332 
249.133224 4.416908 
249.173019 0.050432 
250.11792 3.859495 
250.154144 0.182816 
251.113937 0.375469 
251.150284 0.056038 
251.186295 0.173315 
252.170288 0.221414 
252.206818 2.377567 
253.190338 0.456962 
253.210815 0.051972 
254.209793 0.047132 
255.145416 0.280447 
255.949387 0.05191 
256.145416 0.07272 
256.176697 0.605935 
257.091888 0.045562 
257.127594 0.048597 
257.160248 8.239368 
258.123383 6.930237 
258.156799 2.519188 
258.192444 1.855731 
259.107208 0.329417 
259.126923 0.309768 
260.174591 0.108456 
261.13559 0.056295 
261.159332 12.582947 
262.163269 1.047174 
265.105011 0.042904 
265.129364 0.720423 
265.165009 0.04908 
265.177704 0.11777 
266.16095 11.331412 
266.18512 0.05573 
267.144836 13.960245 
267.161438 0.985224 
267.180054 0.061465 
268.128143 0.121309 
268.143463 1.509335 
268.176453 0.106415 
269.162842 0.369722 
269.177094 0.07037 
269.19693 0.109587 
270.159454 1.343685 
270.180786 0.057888 
271.119293 0.052624 
271.143738 2.454495 
271.181335 0.087738 
272.146545 0.055503 
275.149658 0.075586 
276.132629 0.202374 
276.146881 0.299075 
277.129425 0.803285 
278.161591 0.127221 
278.185944 0.114714 
278.222748 0.680616 
279.156555 0.183144 
279.181396 0.683254 
279.206085 0.886226 
279.219971 0.063373 
280.141022 0.341205 
280.16507 0.142733 
280.182495 0.459604 
280.201416 10.065801 
281.185486 0.360135 
281.204651 0.697657 
283.139923 0.049381 
283.187439 0.547941 
284.140961 1.31073 
284.171265 40.579872 
285.155487 12.075006 
285.172943 7.111295 
285.416443 0.05262 
286.156097 2.160481 
286.17453 0.197411 
286.203644 0.051403 
288.145325 0.511539 
288.168427 0.056701 
289.129425 0.164025 
289.409302 0.045687 
292.141632 0.052536 
293.171997 0.112187 
294.155914 2.995207 
295.139557 0.472014 
295.156616 0.940317 
296.139526 0.40064 
296.173187 0.277666 
296.207764 10.490749 
296.232513 4.687869 
297.172333 0.164777 
297.191833 6.18867 
297.215973 7.576633 
298.193024 0.975823 
298.216522 0.518441 
299.175385 1.80819 
301.197876 1.014397 
302.162201 0.072805 
302.181763 17.272358 
303.182617 4.690864 
304.164886 0.110657 
305.172058 1.133286 
306.156097 2.74222 
306.192688 2.431341 
306.217133 3.196325 
307.139252 0.124099 
307.157928 0.076183 
307.1763 0.401707 
307.200317 0.267935 
307.220856 0.050873 
308.206635 0.058869 
310.151215 0.190929 
310.187042 0.064894 
312.165466 1.332197 
312.182312 2.093919 
313.165955 2.744735 
314.149719 2.301343 
314.16803 0.072668 
314.218506 0.848985 
314.242889 0.048686 
314.982025 0.052677 
315.15332 0.047966 
315.177307 0.168102 
315.216614 0.728656 
316.201538 3.68157 
317.204559 0.115297 
320.171936 0.108291 
321.171204 0.638622 
322.199371 0.628616 
323.151794 0.065991 
323.182739 5.363721 
323.244232 0.582818 
324.166626 2.315276 
324.184845 0.279968 
324.205292 0.182631 
324.228027 2.469266 
325.202209 0.118788 
325.630798 0.048072 
326.185852 7.975002 
327.168915 0.179155 
327.189606 0.905138 
327.216187 0.053026 
328.195984 0.058495 
330.192719 3.277673 
331.176697 2.136989 
332.172302 0.634505 
332.28418 0.050273 
333.170044 0.047155 
333.228058 0.076524 
334.15094 0.05334 
334.171661 0.052616 
335.20636 0.054501 
336.266022 0.050504 
337.655029 0.050152 
339.215454 0.050258 
340.176361 0.124668 
340.210693 0.201487 
341.160767 0.265772 
341.192505 2.507967 
341.255188 0.169775 
342.19339 0.917766 
342.238312 2.079925 
343.212677 3.885758 
344.19632 3.233509 
344.217621 0.231174 
345.200073 0.134368 
348.203674 0.130776 
349.198395 3.018238 
350.181976 1.610936 
350.201965 0.08263 
351.18103 0.474571 
351.216431 0.052447 
352.235596 0.576055 
357.224457 0.055396 
358.187714 0.065709 
359.181396 0.062616 
359.202332 1.318032 
359.221069 0.33175 
359.241669 0.076549 
360.20285 0.111465 
360.239532 4.469313 
361.221405 5.046673 
362.228607 0.577163 
362.255249 3.684983 
363.216431 0.050923 
363.237396 0.063787 
363.257629 0.125034 
366.224792 1.382514 
367.181671 0.093486 
367.207214 4.593101 
368.191589 0.436317 
368.211792 0.391266 
369.194183 0.265204 
370.187714 0.05692 
370.221436 0.111574 
370.245422 0.211167 
371.207062 6.448221 
372.210754 0.689428 
377.19162 0.224586 
377.587769 0.047356 
379.246643 0.055699 
379.281403 1.671516 
380.265717 1.627093 
381.248993 0.206074 
384.209198 0.098645 
384.235199 2.826399 
385.216309 3.967138 
386.219757 1.984475 
386.254059 0.057107 
387.214203 1.732006 
388.269928 0.055078 
389.19458 0.054525 
389.253082 0.051008 
394.218658 0.112834 
395.200714 0.053262 
395.220612 0.103661 
396.203217 0.328823 
397.187317 0.067531 
397.228485 0.350715 
398.255646 0.267984 
399.168549 0.064563 
399.238251 0.193238 
400.268372 0.049873 
402.245667 0.552586 
403.229431 2.528602 
403.246918 2.091116 
404.230469 0.527001 
405.225372 1.008102 
405.261658 0.172275 
405.297089 0.349061 
406.222046 0.208453 
406.281281 0.668567 
407.203125 0.064464 
407.263947 0.732158 
408.23999 2.037094 
408.265808 0.051464 
409.223022 0.52671 
412.229828 0.208069 
413.229462 2.153643 
414.213715 1.391346 
415.208984 0.077369 
415.284027 0.056275 
416.263855 0.099027 
417.297302 0.526979 
419.309692 0.047863 
421.230774 0.052253 
423.24469 0.067525 
423.307587 0.385704 
424.233307 0.236463 
424.291382 2.154361 
425.230347 0.099487 
425.270447 1.82926 
426.250519 2.059031 
427.281494 0.126172 
429.261505 0.062389 
431.238953 5.658676 
432.224823 0.164795 
432.244598 0.248454 
433.227783 0.106009 
434.213043 0.044992 
436.339905 0.055913 
441.224396 0.110746 
441.25824 1.141212 
441.318298 3.195849 
442.241852 0.263825 
442.292603 0.741008 
443.275269 13.678583 
444.259888 2.757154 
444.28299 0.73076 
445.262512 0.282331 
445.292297 0.119341 
449.250397 7.226362 
450.251984 1.867682 
451.245453 0.120223 
453.227875 0.051853 
453.260773 1.181297 
454.243439 0.268074 
454.348267 0.054476 
455.27774 0.220041 
459.23642 0.18456 
460.302917 0.701581 
461.286469 3.400708 
462.284973 0.072286 
462.319122 1.478106 
463.302704 0.275405 
464.266144 0.395252 
467.273438 0.745424 
469.254608 0.13152 
470.286377 0.04567 
471.271179 2.403856 
471.307556 0.094403 
472.30542 0.052437 
477.257385 0.05366 
480.329315 0.13441 
481.290344 0.131534 
482.282562 0.205121 
483.272888 0.181465 
484.297882 0.047947 
485.282928 1.335673 
486.282806 0.059805 
487.27243 0.048558 
488.334381 0.12483 
489.315704 0.118197 
490.293976 0.15747 
491.275635 0.056866 
497.288849 0.113097 
498.318726 0.230884 
498.375793 1.246803 
499.302704 1.634017 
500.298676 0.902867 
503.306519 0.535696 
506.344391 0.369877 
507.204559 0.058701 
507.328583 0.303965 
508.259552 0.043198 
508.302521 0.923102 
509.286987 1.802065 
513.291931 0.187059 
516.328491 0.344125 
517.31311 0.633266 
518.312988 0.108034 
523.370483 0.053113 
524.312866 0.054634 
524.354309 4.220582 
525.328979 1.808535 
525.363953 0.067197 
526.313416 2.771002 
527.303223 0.522075 
531.303467 0.344371 
535.344238 0.048596 
536.29657 0.049714 
537.384705 0.068666 
542.272583 0.047393 
542.360718 0.052543 
543.298706 0.048734 
543.338867 5.105504 
544.325745 2.673518 
545.310974 0.066864 
545.357727 0.067772 
546.3172 0.05427 
550.314758 0.184299 
553.323608 0.6976 
554.312073 0.266 
561.345703 0.049205 
562.333435 0.71024 
562.383057 0.046603 
563.316711 0.055015 
563.366028 0.352235 
564.349487 0.050866 
565.324097 0.120241 
582.349121 1.236384 
583.335999 0.620854 
585.347961 0.060234 
589.381409 0.05978 
591.339294 0.134285 
599.158142 0.046647 
599.366882 0.643727 
599.424866 0.051568 
600.359314 0.736903 
603.371765 0.047151 
606.408569 0.175787 
607.393188 0.538022 
608.36908 0.375099 
609.35083 0.405627 
610.344971 0.204846 
614.339539 0.131168 
614.484741 0.050996 
616.337891 0.05209 
617.377502 0.117408 
618.349487 0.058499 
619.331482 0.05083 
625.399658 0.902322 
626.377686 0.652375 
627.364624 0.474944 
632.350891 0.444957 
636.361877 0.179483 
638.373413 0.065741 
641.362793 0.052191 
643.408508 1.09608 
644.388428 2.30994 
645.385986 0.155721 
646.389221 0.06637 
650.359253 0.176948 
654.37384 0.056083 
664.406311 0.505804 
665.387451 0.665554 
680.389954 0.133939 
682.413513 1.037598 
683.400757 0.7358 
687.351501 0.050338 
691.408997 0.103542 
699.430176 0.6581 
700.425049 0.900404 
701.413818 0.119177 
708.436096 0.514727 
709.160889 0.053752 
709.41803 0.595247 
709.581116 0.074309 
709.644226 0.259428 
710.403931 0.050533 
716.460327 0.055669 
726.440308 1.734381 
727.427002 2.162579 
728.42981 0.185396 
744.449402 3.259884 
745.449585 1.417781 
746.442688 0.114271 
746.750122 0.050259 
756.445679 0.048974 
780.452026 0.065057 
789.21759 0.048709 
810.491699 0.052051 
827.493713 0.049025 
868.975769 0.051701 
877.834229 0.048392 
927.543945 0.092988 
928.550964 0.138293 
1009.631958 0.049422 
1022.79718 0.050346 
1035.332397 0.045394 
1083.428101 0.04791 
1107.685913 0.053752 
1108.699463 0.054155 
1120.665771 0.046775 
1123.702148 0.060032 
1152.637451 0.048633 
1168.723267 0.179021 
1179.286377 0.05186 
1189.905518 0.046228 
1214.228271 0.046709 
1221.257202 0.04596 
1225.734863 0.223227 
1226.730957 0.050967 
1299.091064 0.066103 
1303.838989 0.051186 
1324.920288 0.047747 
END IONS

