BEGIN IONS
PEPMASS=245.096
CHARGE=1+
COMPOUNDNAME=MLS000530211-01!
LIBRARYQUALITY=3
SMILES=OC(=O)CCCCC1SCC2NC(=O)NC12
INCHIKEY=YBJHBAHKTGYVGT-UHFFFAOYSA-N
INCHI=N/A
MSLEVEL=2
SOURCE_INSTRUMENT=LC-ESI-qTof
FILENAME=p1-D10_GD10_01_17918.mzXML
SEQ=*..*
IONMODE=Positive
ORGANISM=GNPS-NIH-NATURALPRODUCTSLIBRARY
NAME=MLS000530211-01! M+H
PI=Dorrestein
DATACOLLECTOR=VVP/LMS
PUBMED=N/A
SUBMITUSER=vphelan
TAGS=
SPECTRUMID=CCMSLIB00000079736
SCANS=1379
95.54628 132.0 
96.041054 204.0 
96.470642 144.0 
97.010422 380.0 
97.042694 828.0 
97.179581 60.0 
97.30323 32.0 
97.647102 176.0 
99.012802 180.0 
100.021408 336.0 
100.991119 204.0 
101.993645 204.0 
102.066017 180.0 
102.106239 252.0 
103.056664 332.0 
103.755928 184.0 
104.072426 192.0 
105.070984 800.0 
106.028671 144.0 
106.043015 248.0 
106.075409 332.0 
106.309624 80.0 
108.005196 192.0 
108.114853 164.0 
110.100197 224.0 
111.025703 296.0 
111.060837 148.0 
112.021278 392.0 
112.171051 44.0 
112.466354 124.0 
113.042206 164.0 
114.018799 196.0 
114.035805 252.0 
114.667908 132.0 
115.056114 100.0 
116.044525 148.0 
117.063538 144.0 
117.586861 80.0 
118.059975 144.0 
121.056557 80.0 
122.054962 184.0 
122.089668 220.0 
122.096588 172.0 
122.101524 208.0 
122.426842 184.0 
123.024422 960.0 
123.057472 180.0 
123.079552 180.0 
123.357918 188.0 
124.027786 140.0 
124.807556 160.0 
124.992447 148.0 
125.035332 340.0 
125.105957 144.0 
126.805771 144.0 
127.393379 168.0 
133.087875 364.0 
133.567871 56.0 
134.024231 152.0 
135.0186 172.0 
135.428253 136.0 
136.281937 96.0 
137.028778 256.0 
138.000626 172.0 
138.041382 168.0 
138.331879 32.0 
139.056931 400.0 
140.01535 164.0 
140.036545 120.0 
140.05304 152.0 
141.014679 192.0 
141.192978 116.0 
142.259201 44.0 
143.029358 100.0 
143.072205 144.0 
143.79921 60.0 
144.300842 32.0 
145.352325 72.0 
145.409912 184.0 
148.076401 116.0 
149.005432 60.0 
149.041748 148.0 
149.079102 216.0 
150.044632 160.0 
150.092758 168.0 
151.085785 428.0 
152.089661 120.0 
152.861343 44.0 
153.103195 400.0 
154.03981 144.0 
154.063782 200.0 
154.95018 160.0 
156.090729 212.0 
158.095001 28.0 
162.253586 172.0 
163.079956 152.0 
163.847031 184.0 
164.053772 252.0 
165.101044 204.0 
165.159103 44.0 
166.065063 668.0 
166.111969 232.0 
166.163269 56.0 
167.010971 152.0 
167.051804 528.0 
168.058441 132.0 
169.050583 208.0 
169.893738 96.0 
171.068329 148.0 
173.041946 180.0 
175.090088 48.0 
176.100189 136.0 
178.580978 124.0 
180.260498 52.0 
182.066025 108.0 
183.093323 164.0 
184.078751 668.0 
184.250473 40.0 
185.078857 116.0 
185.899399 32.0 
186.07225 176.0 
188.013855 40.0 
192.050476 136.0 
192.143448 204.0 
193.054932 240.0 
193.558563 28.0 
199.049026 96.0 
199.086914 936.0 
199.12204 172.0 
199.549164 96.0 
200.095444 164.0 
201.104111 112.0 
201.60965 60.0 
201.660522 164.0 
207.75705 116.0 
208.11293 60.0 
209.075745 528.0 
209.92569 160.0 
210.060532 244.0 
226.23201 20.0 
227.084351 1852.0 
227.202957 68.0 
228.064636 208.0 
228.083374 488.0 
229.06073 160.0 
229.790253 160.0 
229.84758 164.0 
230.083008 148.0 
232.865753 52.0 
249.052216 140.0 
301.050568 204.0 
547.597656 72.0 
734.744629 128.0 
833.835571 172.0 
867.906555 156.0 
999.005493 156.0 
1040.954956 136.0 
1093.788696 172.0 
1140.276001 168.0 
1161.130737 176.0 
1223.067261 244.0 
1233.600098 148.0 
1234.830688 64.0 
1243.476074 124.0 
1251.426392 160.0 
1295.566528 196.0 
1310.430664 128.0 
1317.356323 148.0 
1332.170288 124.0 
1390.977295 220.0 
1405.437256 196.0 
1405.967041 152.0 
1421.734985 64.0 
1451.342529 196.0 
1484.558472 152.0 
1489.915771 176.0 
1500.420654 116.0 
END IONS

