BEGIN IONS
PEPMASS=289.047
CHARGE=1+
COMPOUNDNAME=Citrinin
LIBRARYQUALITY=3
SMILES=N/A
INCHIKEY=CQIUKKVOEOPUDV-IYSWYEEDSA-N
INCHI=InChI=1S/C13H14O5/c1-5-7(3)18-4-8-9(5)6(2)11(14)10(12(8)15)13(16)17/h4-5,7,15H,1-3H3,(H,16,17)/t5-,7-/m1/s1
MSLEVEL=2
SOURCE_INSTRUMENT=N/A-ESI-QFT
FILENAME=library_mgf.mgf
SEQ=*..*
IONMODE=positive
ORGANISM=MONA
NAME=Citrinin [M+K]+
PI=MoNA
DATACOLLECTOR=MoNA:VF-NPL-QEHF027300
PUBMED=N/A
SUBMITUSER=mwang87
TAGS=
SPECTRUMID=CCMSLIB00004720881
SCANS=27300
50.196499 0.076281 
50.958481 0.043774 
51.940254 1.010272 
52.242641 0.054396 
52.770962 0.053796 
53.00248 1.777065 
53.038841 0.150944 
53.997692 0.127056 
54.743282 0.055055 
54.784733 0.088796 
55.018127 0.179254 
55.054485 3.41765 
55.818733 0.056189 
56.049667 0.200721 
56.357788 0.050693 
56.570801 0.039606 
56.666164 0.028503 
56.74778 0.037567 
56.965038 100.0 
57.070118 44.478409 
57.566292 0.038002 
57.696472 0.079183 
57.910927 0.043117 
57.935043 0.802061 
58.065346 5.011308 
58.073421 1.476625 
58.9328 0.102176 
58.993435 0.038621 
59.068668 0.291456 
59.410473 0.036774 
59.530796 0.041164 
59.930439 0.08487 
60.044575 0.206411 
60.610653 0.050361 
60.687019 0.036951 
60.728672 0.047724 
60.745514 0.040504 
60.957851 0.258739 
61.010803 3.886968 
62.018661 2.580237 
62.060181 1.120605 
62.916969 0.030305 
62.994438 0.048591 
63.120029 0.047695 
63.997864 2.389159 
64.273758 0.050473 
65.004211 0.055095 
65.038651 0.084247 
65.225075 0.028493 
65.809021 0.042165 
66.46862 0.053136 
66.972824 0.024183 
67.027267 0.03774 
67.054314 0.701652 
67.934891 0.034425 
68.0495 0.602243 
68.1623 0.050254 
68.164337 0.039297 
68.303009 0.07303 
68.803932 0.04991 
68.941154 0.05106 
69.03347 0.040577 
69.069885 1.005096 
69.377754 0.046686 
70.06514 48.289848 
70.599724 0.052603 
70.980476 2.021093 
71.068504 1.695888 
71.085541 12.549039 
71.087769 0.036697 
71.240692 0.047493 
71.752876 0.033217 
71.951866 0.562798 
72.088867 0.39276 
73.384926 0.044154 
74.060158 0.052279 
74.684029 0.049799 
74.711693 0.061255 
74.72493 0.055693 
74.973305 0.041158 
74.975395 1.275706 
76.249336 0.026983 
76.612038 0.038149 
77.008179 0.040898 
77.08152 0.063129 
77.159042 0.037465 
78.02829 0.031673 
79.021179 16.099152 
79.054214 0.618725 
79.83432 0.044721 
80.006256 0.067369 
80.769737 0.052165 
80.831108 0.039105 
81.016968 0.189368 
81.06987 0.546033 
81.626472 0.042584 
82.065224 0.106143 
83.049095 0.088973 
83.085487 0.055932 
84.936378 0.057472 
84.959663 23.704136 
85.039864 0.03102 
85.101135 3.087743 
85.963203 0.032647 
86.003601 0.118298 
86.059967 0.389944 
88.075661 40.116192 
88.078827 0.491604 
88.233093 0.060344 
88.936844 0.208738 
88.990967 0.312557 
89.078979 1.412836 
89.382004 0.026665 
90.146545 0.042739 
91.054207 2.449903 
91.05706 0.271674 
91.837669 0.071366 
91.862709 0.037881 
92.154099 0.058131 
92.748756 0.069101 
92.933784 0.052265 
92.985931 0.050105 
93.069931 0.441863 
93.168999 0.05824 
93.28447 0.063103 
94.165298 0.066333 
94.501816 0.027128 
95.04911 0.237831 
95.085457 0.17233 
96.902687 0.044317 
98.395485 0.026272 
98.975311 0.800632 
101.838928 0.057969 
101.949806 0.160013 
102.046051 0.05132 
102.091331 4.22563 
102.641762 0.040455 
102.952499 0.173117 
102.970284 2.934695 
103.054153 0.472753 
103.094772 0.042981 
104.151596 0.044358 
105.015335 0.062195 
105.033585 0.193305 
105.069839 1.20879 
106.065102 1.132974 
106.082527 0.066868 
106.086243 15.267888 
106.145508 0.045114 
107.048965 0.045554 
107.072968 0.125132 
107.085548 0.100731 
107.089516 0.367327 
107.882202 0.046209 
108.044067 0.127704 
109.064476 0.042937 
112.3647 0.041444 
112.581314 0.034157 
113.841537 0.034144 
114.91626 0.055508 
115.054153 1.276152 
116.061615 0.050508 
116.985695 0.539771 
117.069839 0.839079 
118.94725 0.059271 
119.00119 0.243575 
119.04911 1.007875 
119.0728 0.080471 
119.085533 0.67455 
119.918869 0.240884 
119.960564 0.051894 
120.080696 0.307007 
120.873833 0.042758 
120.963058 0.121529 
120.980812 0.270536 
121.064644 0.328197 
121.100868 0.046814 
121.405296 0.056543 
121.988632 0.045519 
122.485367 0.053191 
123.938499 0.081696 
128.061966 2.441124 
128.066666 0.054047 
129.069748 1.319041 
131.049103 1.013101 
131.085342 0.546388 
133.064743 0.161082 
133.856262 0.073178 
134.264801 0.059099 
134.534805 0.057947 
134.978622 3.021306 
134.996185 0.212615 
136.579712 0.068317 
137.011688 3.537415 
137.059692 0.243079 
137.929031 0.109443 
138.012344 0.127172 
138.517059 0.044001 
138.737961 0.031375 
138.973587 0.030152 
139.008789 0.102408 
139.037537 0.029447 
140.984207 0.127282 
141.069702 0.478182 
141.326736 0.039479 
142.762527 0.047473 
143.085541 1.330697 
143.587921 0.050359 
144.728516 0.04323 
145.064697 1.602692 
145.585327 0.057423 
146.072647 0.647545 
146.974457 0.094192 
147.043961 1.201553 
147.080521 0.36148 
150.563141 0.024767 
151.006882 0.040914 
151.998596 0.398135 
152.06192 0.083114 
152.95253 0.579304 
152.989227 2.124322 
152.995651 0.026992 
153.069794 0.050968 
153.960098 0.067532 
153.992065 0.152161 
155.000336 0.194332 
155.022079 1.298924 
155.037857 0.080642 
155.085556 0.048366 
155.505554 0.049681 
155.899551 0.073619 
155.961685 0.059756 
156.023972 0.070293 
156.338821 0.031193 
156.984268 0.042945 
157.065002 0.067179 
159.080414 0.617946 
159.651443 0.073651 
159.79451 0.070288 
160.075851 0.041832 
160.777802 0.066902 
161.059509 1.514904 
162.067871 0.110674 
163.033386 0.028784 
163.075027 0.093611 
164.013519 0.0261 
164.030426 0.04421 
164.336761 0.047778 
164.983536 0.035576 
165.022202 0.033274 
165.069382 0.152922 
165.993332 0.036128 
167.00029 0.209995 
167.037598 0.071838 
167.412872 0.03052 
169.016754 0.29128 
170.009689 0.058015 
170.7957 0.071377 
170.963257 2.043451 
171.080185 2.30575 
171.524185 0.07021 
172.046616 0.122206 
173.027084 0.175247 
173.09639 0.047589 
174.067749 0.060651 
175.04332 0.048212 
175.07515 0.505993 
175.353836 0.054151 
177.019943 0.047084 
177.038254 0.29191 
177.090775 0.041916 
178.046829 0.134361 
178.077621 0.739744 
178.531647 0.061777 
179.001022 0.773099 
179.036819 0.255956 
179.05162 0.025245 
179.085663 0.080788 
180.009277 3.468381 
180.04306 0.050699 
181.016907 0.292246 
181.050262 0.084854 
181.948593 0.054826 
181.991486 0.055037 
183.032562 0.188593 
184.004257 0.237392 
185.012512 0.087413 
185.035461 0.128847 
185.539291 0.030088 
186.043823 0.42527 
187.006775 0.08831 
187.028 0.102714 
187.051208 0.040506 
187.075348 0.23636 
187.164597 0.035742 
187.537216 0.084115 
188.014587 0.073639 
188.040329 0.089165 
188.452179 0.042843 
188.973999 0.807456 
189.022217 0.285541 
189.055466 0.0501 
189.069946 0.770864 
189.090668 0.203874 
190.046768 0.035829 
190.077744 0.54376 
190.15863 0.599902 
191.000107 0.131515 
191.037369 0.629884 
191.085342 0.593501 
191.521713 0.052496 
191.966736 0.062672 
192.009323 0.416175 
192.043411 0.125535 
192.093155 0.292649 
192.530228 0.044709 
192.544296 0.033619 
193.017151 1.145463 
193.053497 0.507525 
194.040955 0.257272 
194.543579 0.050863 
195.032761 0.128149 
195.049179 0.900367 
195.080917 0.041092 
195.550674 0.039237 
197.013535 1.404612 
197.048996 0.122345 
197.535385 0.055257 
198.019821 7.589567 
199.027084 0.216229 
199.062851 0.070816 
200.047119 0.051665 
200.068237 0.147006 
200.201965 0.047545 
200.544968 0.05672 
201.021835 0.292344 
201.662262 0.081012 
202.029343 0.167448 
202.077621 2.729302 
203.001511 0.051093 
203.033798 0.039312 
203.085495 1.575798 
203.143066 0.047264 
204.009033 0.215821 
204.044022 0.158069 
204.054642 0.033889 
204.092285 0.032065 
205.017136 2.449655 
205.053116 0.41609 
205.064713 0.616696 
205.100708 0.057771 
205.935059 0.050561 
206.025208 0.663129 
206.041 0.133488 
206.996872 0.08174 
207.033005 1.909527 
207.067596 0.052576 
207.909866 0.064369 
208.056412 0.073761 
209.011963 0.23919 
209.048386 0.603966 
209.833649 0.058717 
210.019653 1.705808 
210.235428 0.056311 
210.990143 0.037179 
211.007233 0.078742 
211.027725 2.299281 
211.063889 0.224491 
212.014648 0.940037 
213.048218 0.180526 
213.083252 0.388333 
214.056473 0.366386 
214.079498 1.580468 
214.219528 0.05864 
215.001373 0.108981 
215.023972 0.058543 
215.037384 0.077206 
215.070618 0.319195 
215.085556 1.948665 
216.018509 0.051902 
216.03064 1.253298 
216.092667 0.105479 
216.718491 0.028401 
217.017227 0.097314 
217.053284 0.509094 
217.101242 0.369858 
218.024826 0.064846 
218.057434 0.134779 
218.072525 1.113879 
218.109207 0.03335 
219.032669 3.476939 
219.080185 1.2438 
219.174271 0.053166 
219.706573 0.506603 
220.003387 0.113225 
220.040573 2.548974 
220.088318 0.133497 
221.011627 0.510087 
221.047729 0.329753 
221.060272 0.033912 
222.019913 0.556973 
222.054688 0.132147 
223.027466 4.911674 
223.063583 0.407904 
224.035477 3.419488 
224.982193 0.057977 
225.006897 0.140893 
225.043457 3.231695 
226.014893 0.25122 
226.761948 0.051354 
227.022125 0.207142 
227.059631 0.126565 
228.030563 0.087097 
228.091843 0.101605 
228.106613 0.13483 
229.017532 1.404848 
229.038528 0.159242 
229.063889 0.049334 
229.074951 0.126225 
229.102402 0.578349 
230.024796 9.095959 
231.030167 0.795081 
231.080475 2.002817 
232.087799 0.759909 
233.011993 2.277538 
233.048492 2.038533 
233.080856 3.485794 
233.095078 0.793298 
234.019562 2.438875 
234.054382 0.066165 
235.027542 1.262678 
235.044617 0.095658 
235.06398 2.167319 
235.075928 0.048252 
235.110992 0.048125 
236.035172 0.251912 
236.08316 0.09255 
237.006363 0.426232 
237.043213 6.059182 
238.014908 0.351725 
238.051025 10.85824 
239.022568 0.054436 
239.056229 1.079918 
240.030807 0.030786 
241.038086 0.33484 
242.045944 0.337138 
243.054535 0.094158 
243.079987 0.177046 
244.004501 2.124212 
244.08696 0.142384 
245.048035 0.973682 
245.095734 1.567565 
246.067673 0.20739 
246.103653 1.202381 
247.027466 5.624743 
247.075333 1.566306 
247.110611 0.075039 
248.035294 40.753487 
248.082809 2.630937 
248.950165 0.057151 
249.039291 5.126204 
249.060608 0.078369 
249.090714 0.059829 
250.014404 0.032512 
251.022385 7.115781 
251.058731 1.839697 
251.092133 0.037711 
251.106339 0.058793 
252.029999 3.649921 
252.066681 1.407076 
253.037323 0.259569 
253.074539 2.94865 
255.054092 0.57423 
256.061249 2.44118 
257.096527 0.034526 
258.068329 0.914231 
259.075104 1.400107 
259.111816 0.417832 
260.06015 0.094961 
260.082184 0.462558 
260.116943 0.03719 
261.042755 0.278216 
261.056366 0.303793 
261.090759 3.268957 
262.014893 2.894869 
262.050964 1.077058 
262.097809 0.544616 
262.13092 0.031314 
263.021576 0.220749 
263.058441 7.305661 
263.106476 0.827192 
264.029633 0.125472 
264.0625 0.374778 
265.038239 2.434823 
265.091522 0.120331 
265.60968 0.051476 
266.010345 0.280438 
266.045715 12.172418 
267.051056 1.669893 
269.033112 0.939517 
270.040405 0.098706 
270.07724 0.134842 
270.278503 0.089 
271.086273 0.040394 
272.082764 0.697954 
273.090424 1.776081 
274.062256 0.378717 
274.098541 3.398369 
275.069733 1.289714 
275.105225 1.24018 
276.07785 8.007007 
276.113892 0.064164 
277.000214 0.048852 
277.0383 0.112039 
277.121216 0.048727 
279.05423 0.184855 
279.101288 0.632941 
280.024414 0.040628 
280.060638 0.097366 
281.069122 10.669459 
282.073029 0.985869 
282.21347 0.057473 
284.056549 0.092109 
287.070251 0.253169 
287.106415 1.200289 
288.077484 0.651803 
288.113342 0.311807 
288.289734 0.165858 
289.085754 4.982731 
289.121796 3.475698 
289.549591 0.041821 
290.092316 1.912449 
290.125427 0.178014 
290.249054 0.051666 
290.283783 1.160479 
291.101074 5.651338 
293.115967 0.114379 
294.994751 0.422847 
297.518921 0.065388 
299.079895 2.917587 
300.084869 0.123609 
303.101349 0.142508 
305.079834 0.072043 
305.116882 0.823061 
305.151947 0.033554 
307.049011 0.084567 
307.095367 0.201437 
307.13092 0.05489 
END IONS

