BEGIN IONS
PEPMASS=465.349
CHARGE=1+
COMPOUNDNAME=(1R,3aR,5aR,5bR,9S,11aR)-3a,5a,5b,8,8,11a-hexamethyl-1-prop-1-en-2-yl-1,2,3,4,5,6,7,7a,9,10,11,11b,12,13,13a,13b-hexadecahydrocyclopenta[a]chrysen-9-ol
LIBRARYQUALITY=3
SMILES=N/A
INCHIKEY=MQYXUWHLBZFQQO-KIIHVYTKSA-N
INCHI=InChI=1S/C30H50O/c1-19(2)20-11-14-27(5)17-18-29(7)21(25(20)27)9-10-23-28(6)15-13-24(31)26(3,4)22(28)12-16-30(23,29)8/h20-25,31H,1,9-18H2,2-8H3/t20-,21?,22?,23?,24-,25?,27+,28-,29+,30+/m0/s1
MSLEVEL=2
SOURCE_INSTRUMENT=N/A-ESI-QFT
FILENAME=library_mgf.mgf
SEQ=*..*
IONMODE=positive
ORGANISM=MONA
NAME=(1R,3aR,5aR,5bR,9S,11aR)-3a,5a,5b,8,8,11a-hexamethyl-1-prop-1-en-2-yl-1,2,3,4,5,6,7,7a,9,10,11,11b,12,13,13a,13b-hexadecahydrocyclopenta[a]chrysen-9-ol [M+K]+
PI=MoNA
DATACOLLECTOR=MoNA:VF-NPL-QEHF009284
PUBMED=N/A
SUBMITUSER=mwang87
TAGS=
SPECTRUMID=CCMSLIB00004700347
SCANS=9284
50.962006 0.181921 
51.061249 0.202102 
51.185555 0.201896 
52.150185 0.206797 
52.339397 0.174874 
52.777172 0.178304 
52.901852 0.197416 
53.039444 0.473649 
54.598747 0.162393 
54.98418 0.18584 
55.018749 0.891131 
55.055058 10.750273 
56.050304 2.426087 
56.212521 0.199588 
56.530663 0.165749 
57.03429 4.688005 
57.070698 32.759106 
58.065907 1.677502 
58.074104 0.216677 
58.289108 0.173928 
58.496574 0.166901 
58.604523 0.177643 
59.049957 11.183808 
59.822456 0.199403 
59.991062 0.259302 
60.812202 0.178375 
60.989357 0.186419 
61.011452 10.096101 
61.134415 0.191596 
61.431301 0.16274 
61.764557 0.187709 
62.019279 9.991064 
62.294216 0.241204 
62.878426 0.17576 
62.981022 0.194708 
62.982517 10.460683 
63.007286 0.238218 
63.208702 0.179318 
63.49197 0.179121 
63.773918 0.225026 
63.998493 0.264883 
64.727394 0.16023 
64.831528 0.161938 
65.093307 0.17443 
65.252464 0.182518 
65.309196 0.173864 
65.871338 0.176385 
67.055 9.887717 
67.618286 0.188228 
67.977234 0.168937 
68.960258 0.174937 
69.034233 0.893324 
69.070663 10.827838 
70.037209 0.181685 
70.065857 3.845562 
70.073975 0.188978 
71.049904 2.712445 
71.086243 13.375629 
71.893303 0.233717 
72.045288 0.247411 
72.081551 0.298064 
72.515816 0.17926 
72.709511 0.175187 
73.02916 5.546057 
73.047523 5.729852 
73.065536 3.237627 
74.097168 0.172003 
74.23838 0.195248 
75.026611 0.178233 
75.044716 0.430888 
77.634262 0.175013 
78.026894 0.166296 
78.628365 0.175803 
78.750923 0.166599 
78.95639 1.602678 
78.959534 0.812027 
79.021919 19.59906 
79.054924 3.525293 
79.46006 0.200294 
79.845451 0.174463 
79.891129 0.183065 
80.001305 0.200672 
80.499535 0.186016 
81.034103 0.225824 
81.070549 18.206663 
81.751259 0.178829 
82.073906 0.208603 
82.54377 0.168829 
83.010986 0.174666 
83.049866 1.35077 
83.086197 9.768706 
84.081436 0.482532 
84.135849 0.175714 
84.552139 0.186945 
84.739632 0.184591 
85.029007 0.452154 
85.065338 0.766588 
85.101807 6.339048 
86.060623 0.524007 
87.044701 26.742661 
88.048035 0.467494 
89.060318 100.0 
90.063667 6.02695 
91.054787 8.954237 
91.057945 21.127935 
91.077515 0.221745 
92.05764 1.955032 
92.061073 0.443596 
92.983177 1.152649 
93.037384 2.975923 
93.054802 0.184013 
93.070473 19.25116 
93.52803 0.188626 
93.551506 0.204696 
94.073853 0.173028 
95.016388 0.230035 
95.049667 3.002822 
95.086075 11.791211 
95.801079 0.172888 
96.081291 1.508188 
96.089401 0.450972 
97.028587 0.198683 
97.065361 1.685913 
97.101707 4.123332 
97.217758 0.176121 
98.060585 0.169922 
98.096947 36.217815 
98.98468 8.62628 
99.044548 1.934422 
99.100327 0.735964 
99.40583 0.183455 
101.003677 2.153069 
101.060249 3.012107 
101.096573 4.506485 
101.927895 0.176666 
103.039513 0.653189 
103.054695 2.689819 
103.075592 0.207836 
103.950829 0.171963 
105.045189 0.381418 
105.070274 4.05379 
105.520767 0.181822 
107.037384 0.188023 
107.04953 1.904344 
107.053009 0.625379 
107.07061 1.500146 
107.085976 8.433 
108.970299 0.286118 
109.065147 4.553783 
109.101593 9.467986 
109.303177 0.206867 
110.097389 0.18317 
110.993729 1.11725 
111.042107 0.290516 
111.080811 1.825248 
111.117393 0.206732 
112.11277 0.210928 
112.975525 0.188691 
113.060059 0.436095 
113.09687 0.195236 
113.531219 0.181485 
114.091743 2.351461 
114.494713 0.172146 
115.056473 1.1096 
115.075821 0.987099 
115.563751 0.173407 
116.05323 1.895668 
116.090477 0.190704 
117.055092 0.639497 
117.070251 1.140625 
119.049423 2.020289 
119.085831 8.112208 
121.028671 26.222282 
121.03981 0.203836 
121.065086 38.522881 
121.101418 6.169144 
122.031837 0.601717 
122.068199 1.473845 
123.08062 0.528777 
123.117058 1.894784 
123.331993 0.19597 
124.964554 3.233351 
124.999908 1.671138 
125.096321 2.458431 
125.936073 7.011679 
126.94371 0.2117 
127.037003 0.951333 
127.971771 0.203344 
128.143585 0.936458 
130.159073 0.216707 
131.049225 0.212909 
131.070328 0.943157 
131.085678 1.544466 
131.553223 0.180051 
133.037918 0.204559 
133.065002 2.742583 
133.086105 10.136537 
133.101181 3.191101 
134.089584 0.237181 
134.978958 0.83087 
135.044052 0.231099 
135.080536 4.617833 
135.116943 3.954837 
136.926422 0.168093 
136.957779 0.255064 
137.059845 11.787159 
137.096024 0.283814 
138.127838 3.977723 
139.111771 0.202819 
140.85231 0.190156 
140.959381 4.701142 
142.938095 0.36101 
145.064941 0.975755 
145.101212 1.104852 
145.122513 0.843872 
146.974686 0.428532 
147.044205 12.102256 
147.080582 7.926937 
147.116974 1.212578 
147.223404 0.224087 
148.925522 4.374718 
148.972168 0.724884 
149.045013 1.673815 
149.059723 1.503199 
149.096313 1.824851 
149.132965 0.474213 
150.951218 3.335682 
151.076263 0.223876 
152.989319 1.747864 
153.054428 0.232789 
153.303375 0.206546 
153.310516 0.203215 
154.12265 0.701435 
155.563736 0.182941 
156.138428 66.051414 
156.936691 1.770506 
156.954391 1.173233 
156.998398 0.271228 
157.101547 0.327596 
157.141769 5.816816 
158.915771 0.663616 
159.080597 0.470763 
159.116943 1.33026 
159.81282 0.18503 
161.095673 0.272809 
161.132736 0.465432 
161.320099 0.171099 
162.951584 0.367043 
163.06044 1.819597 
163.075485 0.89036 
164.059799 0.210945 
164.899826 0.262485 
164.9207 20.219088 
165.05484 67.872101 
165.091293 2.705984 
166.058105 5.870168 
167.048737 0.23744 
167.055527 9.829799 
167.237335 0.207276 
168.054535 0.728042 
168.961639 0.944781 
169.052551 1.006088 
170.952179 1.19736 
171.062958 1.535481 
171.116959 0.869393 
171.138214 2.858476 
172.93132 1.781803 
172.994263 0.306041 
173.059875 0.263704 
173.097214 0.243372 
173.133484 0.212001 
174.148941 0.595767 
175.148224 0.276096 
176.682739 0.183197 
177.12764 0.196196 
179.728943 0.180733 
179.954468 0.48363 
180.894592 8.425806 
180.943771 2.280962 
181.071243 9.663517 
182.07106 1.041074 
182.15416 3.743633 
182.89267 0.215416 
182.945038 0.200558 
183.068268 1.001372 
185.042267 0.201869 
185.46431 0.185324 
185.962875 0.216982 
187.037018 0.319865 
189.163712 0.309632 
190.08606 0.228322 
191.070419 4.23021 
191.106873 0.251443 
192.961731 2.501134 
196.868622 1.099831 
196.960266 0.339078 
197.893478 0.235884 
198.95459 1.48842 
200.929382 2.74898 
202.9431 0.225675 
202.969299 0.202591 
204.962616 0.661713 
206.977631 0.381102 
208.13327 0.218639 
209.081085 5.323002 
210.185333 6.892088 
210.954559 0.233179 
210.972183 0.908761 
212.993118 0.226156 
213.451904 10.41432 
214.953964 0.225603 
214.971497 0.501273 
215.089157 4.334404 
215.943375 0.246853 
216.906769 0.197353 
217.67308 0.23572 
219.17485 3.185988 
220.021057 0.230727 
220.886826 0.979044 
222.898697 1.325069 
223.063492 0.43509 
225.043121 19.623363 
226.04303 9.891998 
226.42572 0.207079 
227.022598 0.502188 
227.039734 6.699589 
229.896133 0.608804 
231.984146 0.6667 
232.928268 0.189972 
232.946884 0.208994 
233.891449 0.194511 
235.09668 1.333516 
237.994095 1.257378 
239.768692 0.277398 
240.069061 0.207066 
240.909134 1.095136 
241.955353 0.419413 
247.907043 0.259394 
248.679398 0.190227 
248.921326 0.174787 
250.894211 1.122536 
251.895645 0.190745 
252.009445 0.928304 
253.107162 2.03745 
255.232666 0.699707 
259.115479 2.280245 
262.894836 0.698117 
262.938385 0.463756 
264.909332 2.440516 
267.124847 0.218806 
267.635834 0.187512 
268.997498 0.207665 
273.094635 0.935874 
274.91748 0.228978 
276.91275 0.609452 
277.667236 0.245357 
281.030151 0.222885 
281.879425 0.236547 
281.911987 1.925599 
282.91983 1.513141 
283.030609 2.87654 
284.03067 3.702749 
285.010132 1.270039 
285.027405 1.176974 
286.00946 0.593079 
286.895081 0.747571 
289.716888 0.183579 
292.906006 0.295555 
293.894226 0.217146 
294.884735 0.282547 
294.902679 0.909219 
296.934387 0.208926 
297.134003 0.600704 
299.044952 0.209724 
299.061676 10.529704 
300.062256 11.430053 
301.058533 5.545457 
303.141571 1.13056 
306.92038 2.243039 
309.488556 0.194326 
311.867493 0.222118 
314.248718 0.207563 
315.013397 0.204322 
317.1203 1.950527 
319.137329 0.309667 
322.878845 0.213999 
324.931366 0.297117 
325.488464 0.197662 
329.176666 0.231069 
333.835663 4.808492 
334.843994 9.643643 
336.561951 0.183837 
336.838318 0.210065 
342.831665 0.179689 
342.978088 0.208822 
343.979858 0.17858 
344.976501 0.231079 
345.367432 0.191959 
345.97702 1.201213 
346.9729 0.225728 
348.842834 0.240492 
350.837921 0.278932 
350.946808 2.120632 
351.846497 14.878169 
352.852081 1.323917 
356.871277 0.184973 
360.838806 0.895087 
361.146423 2.174623 
365.862305 0.201224 
369.836395 0.302195 
369.858582 0.784752 
378.849182 0.262482 
392.84906 4.504207 
393.854248 0.298072 
401.242371 0.201553 
402.964172 0.499614 
404.944794 0.23739 
407.188049 0.426979 
410.858704 0.318227 
427.334869 0.242609 
429.212311 0.832166 
430.705933 0.20504 
447.347504 1.084823 
448.352814 0.234287 
453.825775 0.192174 
463.949829 2.319137 
464.269318 0.244791 
464.948303 0.695351 
465.195679 5.156985 
465.231384 5.59618 
465.281494 2.489936 
465.334442 3.446534 
466.196472 0.217934 
466.23703 0.189829 
466.283661 0.512122 
466.336243 0.497472 
466.534546 6.587373 
467.214325 2.231922 
467.246307 46.619289 
481.960388 0.243772 
482.922241 0.258118 
END IONS

