BEGIN IONS
PEPMASS=308.5
CHARGE=1+
COMPOUNDNAME=Massbank:KO003898 Paromomycin|Zygomycin A1|Catenulin|Monomycin A|Hydroxymycin|Aminosidin
LIBRARYQUALITY=3
SMILES=OCC(O1)C(O)C(O)C(N)C1OC(C(N)4)C(C(O)C(N)C4)OC(O3)C(O)C(C(CO)3)OC([H])(O2)C(N)C(O)C(O)C(CN)2
INCHIKEY=UOZODPSAJZTQNH-UHFFFAOYSA-N
INCHI=1S/C23H45N5O14/c24-2-7-13(32)15(34)10(27)21(37-7)41-19-9(4-30)39-23(17(19)36)42-20-12(31)5(25)1-6(26)18(20)40-22-11(28)16(35)14(33)8(3-29)38-22/h5-23,29-36H,1-4,24-28H2/t5-,6+,7+,8-,9-,10-,11-,12+,13-,14-,15-,16-,17-,18-,19-,20-,21-,22-,23-/m1/s1
MSLEVEL=2
SOURCE_INSTRUMENT=ESI-LC-ESI-QQ
FILENAME=Massbank_ESI_positive_8_1_2014_peaks.mgf
SEQ=*..*
IONMODE=Positive
ORGANISM=MASSBANK
NAME=Massbank:KO003898 Paromomycin|Zygomycin A1|Catenulin|Monomycin A|Hydroxymycin|Aminosidin [M+2H]++
PI=Putative Massbank Match
DATACOLLECTOR=Massbank
PUBMED=N/A
SUBMITUSER=mwang87
TAGS=
SPECTRUMID=CCMSLIB00000220311
SCANS=9690
60.2 277228.0 
68.1 89109.0 
69.8 74257.5 
72.2 1079209.0 
80.0 331683.5 
81.9 59406.0 
84.0 1752477.0 
85.3 554456.0 
86.1 133663.5 
89.9 64356.5 
95.9 485149.0 
97.0 400990.5 
98.1 762377.0 
101.2 29703.0 
102.0 292079.5 
107.0 24752.5 
108.1 594060.0 
109.1 69307.0 
113.9 1386140.0 
115.3 113861.5 
125.0 2371289.5 
125.9 1103961.5 
127.1 321782.5 
128.8 34653.5 
132.3 44554.5 
143.1 366337.0 
144.1 2415844.0 
145.1 232673.5 
158.2 14851.5 
161.1 5707926.5 
162.2 6118818.0 
163.2 4202974.5 
179.2 74257.5 
181.1 34653.5 
185.2 44554.5 
187.2 267327.0 
188.8 123762.5 
203.1 1430694.5 
205.0 69307.0 
207.4 24752.5 
223.6 24752.5 
228.5 44554.5 
228.8 64356.5 
240.7 34653.5 
248.5 24752.5 
257.5 94059.5 
259.5 183168.5 
271.5 69307.0 
273.3 44554.5 
275.6 217822.0 
277.5 361386.5 
288.4 24752.5 
289.4 227723.0 
289.9 14851.5 
293.6 1891091.0 
294.2 59406.0 
295.4 2227725.0 
307.6 896040.5 
308.6 19802.0 
309.2 79208.0 
319.5 475248.0 
324.6 460396.5 
360.8 39604.0 
402.4 14851.5 
420.5 44554.5 
421.6 158416.0 
438.2 29703.0 
439.7 460396.5 
455.7 1366338.0 
456.5 1044555.5 
END IONS

