BEGIN IONS
PEPMASS=269.046
CHARGE=1+
COMPOUNDNAME=Emodin
LIBRARYQUALITY=3
SMILES=N/A
INCHIKEY=RHMXXJGYXNZAPX-UHFFFAOYSA-N
INCHI=InChI=1S/C15H10O5/c1-6-2-8-12(10(17)3-6)15(20)13-9(14(8)19)4-7(16)5-11(13)18/h2-5,16-18H,1H3
MSLEVEL=2
SOURCE_INSTRUMENT=N/A-ESI-QFT
FILENAME=library_mgf.mgf
SEQ=*..*
IONMODE=negative
ORGANISM=MONA
NAME=Emodin [M-H]-
PI=MoNA
DATACOLLECTOR=MoNA:VF-NPL-QEHF011213
PUBMED=N/A
SUBMITUSER=mwang87
TAGS=
SPECTRUMID=CCMSLIB00004702276
SCANS=11213
50.267757 0.016107 
51.772491 0.017347 
52.674549 0.016015 
53.158932 0.014328 
53.595455 0.015298 
54.666019 0.017694 
55.006489 0.021025 
55.983459 0.017142 
56.695557 0.016258 
57.074646 0.014358 
57.456215 0.017765 
59.501354 0.015545 
60.630039 0.017013 
61.394569 0.018058 
62.216461 0.018707 
63.843777 0.015962 
64.417206 0.018866 
64.618141 0.015246 
66.456573 0.017266 
66.632607 0.015511 
66.768982 0.016735 
67.172272 0.019167 
67.29657 0.01943 
69.309364 0.018841 
69.367249 0.014802 
72.779495 0.016448 
76.727592 0.017869 
77.16404 0.017989 
78.059158 0.019932 
78.300842 0.018018 
78.650665 0.019014 
79.474609 0.019313 
81.39061 0.01711 
83.193207 0.01809 
83.454498 0.015587 
83.569405 0.018338 
84.314102 0.017036 
84.617104 0.014832 
86.211037 0.018874 
86.68985 0.016767 
89.819389 0.016887 
93.772964 0.017849 
97.536743 0.017962 
104.432228 0.016074 
105.06073 0.018537 
106.299973 0.019477 
107.679611 0.016661 
109.896584 0.017752 
111.45536 0.018194 
113.110275 0.015462 
114.091164 0.01789 
116.430527 0.019607 
119.484497 0.01611 
121.463966 0.019496 
126.089439 0.018236 
130.810791 0.015065 
138.707214 0.017214 
142.925812 0.02277 
145.631409 0.017154 
146.561249 0.016642 
146.791107 0.018493 
148.096786 0.017796 
150.085709 0.019197 
151.745712 0.017564 
153.74234 0.018652 
157.027924 0.017928 
160.825882 0.014565 
163.237518 0.01736 
163.825699 0.014649 
164.862411 0.020467 
170.149628 0.01971 
177.901215 0.015908 
179.705002 0.017673 
180.057068 0.173426 
181.064911 0.977463 
182.036423 0.15287 
184.207047 0.015754 
185.059418 0.039051 
197.059845 1.09605 
203.148117 0.016833 
203.764191 0.01757 
207.045074 0.044247 
209.382095 0.016695 
210.03154 0.734666 
213.054962 0.292606 
215.947174 0.115945 
215.957657 0.419603 
223.425262 0.018253 
224.047516 0.367314 
224.506439 0.017754 
225.055145 21.281818 
226.058441 3.019928 
227.034225 0.646184 
227.060654 0.024318 
229.946213 0.017722 
236.782486 0.021099 
240.042328 0.06669 
241.050323 6.259331 
242.053772 0.849991 
244.683365 0.016444 
265.890564 0.024426 
268.036316 0.018504 
268.964172 0.074365 
269.045441 100.0 
269.124603 0.112831 
270.048737 15.063711 
270.260315 0.019082 
271.050842 0.280509 
271.601288 0.02161 
289.026581 0.017556 
293.669922 0.024015 
END IONS

