BEGIN IONS
PEPMASS=444.42
CHARGE=1+
COMPOUNDNAME=3-Epilupeol
LIBRARYQUALITY=3
SMILES=N/A
INCHIKEY=MQYXUWHLBZFQQO-ISZJTHHZSA-N
INCHI=InChI=1S/C30H50O/c1-19(2)20-11-14-27(5)17-18-29(7)21(25(20)27)9-10-23-28(6)15-13-24(31)26(3,4)22(28)12-16-30(23,29)8/h20-25,31H,1,9-18H2,2-8H3/t20-,21+,22-,23+,24+,25+,27+,28-,29+,30+/m0/s1
MSLEVEL=2
SOURCE_INSTRUMENT=N/A-ESI-QFT
FILENAME=library_mgf.mgf
SEQ=*..*
IONMODE=positive
ORGANISM=MONA
NAME=3-Epilupeol [M+NH4]+
PI=MoNA
DATACOLLECTOR=MoNA:VF-NPL-QEHF005657
PUBMED=N/A
SUBMITUSER=mwang87
TAGS=
SPECTRUMID=CCMSLIB00004696720
SCANS=5657
50.605827 0.099342 
50.928802 0.12976 
51.094948 0.172495 
51.099289 0.110735 
51.416939 0.057227 
51.551243 0.119884 
51.942802 0.127016 
52.178299 0.139169 
52.723637 0.129959 
52.973881 0.139051 
53.151112 0.036041 
54.094532 0.130349 
54.13385 0.10889 
54.247307 0.061584 
54.261974 0.133279 
54.96228 0.119104 
55.055031 8.930578 
55.654633 0.036307 
56.315758 0.085906 
56.7313 0.123594 
56.965588 0.284 
57.034298 4.299394 
57.070633 13.841649 
57.29784 0.117709 
57.645889 0.037451 
58.065872 0.379428 
58.169014 0.074879 
59.049892 23.393873 
59.061127 10.565607 
59.156864 0.122966 
59.224678 0.043537 
59.991051 0.383063 
60.045143 1.126145 
60.053284 1.037731 
60.511887 0.149673 
60.541939 0.039963 
61.011368 1.950172 
61.497189 0.112797 
62.019176 0.215379 
62.127277 0.073331 
62.128922 0.099546 
62.189754 0.032402 
62.966335 0.035874 
62.982361 0.038889 
62.990238 0.061493 
62.999107 0.059941 
63.09605 0.073467 
63.370396 0.075948 
63.510509 0.079294 
63.96312 0.144447 
63.998566 0.056127 
65.026733 0.129842 
65.411926 0.07128 
65.510056 0.109019 
66.021667 0.138018 
66.202339 0.136696 
66.802498 0.036508 
67.054924 13.44443 
68.181 0.135905 
69.034172 0.771489 
69.070572 18.289627 
69.228462 0.165738 
69.246223 0.05495 
69.345924 0.134105 
69.524948 0.12088 
69.657021 0.128902 
69.995911 0.127265 
70.065872 0.221191 
70.283386 0.149406 
70.450081 0.040094 
71.049789 13.98203 
71.08622 2.284582 
71.259506 0.036013 
71.43853 0.102334 
71.540016 0.087095 
71.685448 0.091668 
72.045349 0.181177 
72.08139 0.161302 
73.029068 11.636904 
73.047462 14.590748 
73.065536 0.278991 
74.097069 1.022392 
74.160889 0.06227 
74.299477 0.154838 
74.775093 0.068808 
75.491211 0.079934 
76.076286 0.241093 
76.28952 0.104264 
77.018074 0.062305 
77.211098 0.097131 
77.535851 0.042058 
77.824509 0.132856 
78.25872 0.112083 
78.436928 0.179241 
79.021805 4.531553 
79.054901 7.375849 
79.152733 0.077686 
80.01506 0.152866 
80.037712 0.129972 
80.05069 0.097293 
80.529411 0.077733 
80.948433 0.269184 
81.070473 43.870701 
81.072876 0.78129 
81.427719 0.137456 
82.073845 1.300419 
83.049774 1.975042 
83.086128 14.153746 
83.719353 0.087988 
84.140381 0.090336 
85.028641 0.107407 
85.040375 0.229802 
85.065384 22.822151 
85.10186 0.314921 
85.26667 0.092247 
85.887962 0.071367 
86.096855 0.178246 
87.044632 18.999521 
87.604576 0.167614 
88.02211 5.230635 
88.076416 0.112612 
88.13784 0.173804 
88.421745 0.074062 
89.060257 26.695211 
89.14698 0.152301 
89.266502 0.141246 
89.578308 0.19204 
89.830635 0.086184 
91.054802 9.894995 
91.057877 50.859585 
92.057716 0.596596 
92.061874 0.117607 
93.037231 2.407658 
93.070381 34.061165 
93.132973 0.086382 
93.564781 0.067722 
94.07373 1.140043 
94.896797 0.041008 
95.049644 1.644085 
95.085983 91.270233 
95.139656 0.081214 
96.089386 5.379442 
96.177475 0.141006 
96.260048 0.126226 
97.065269 6.393635 
97.101669 7.474426 
98.975876 0.361988 
99.044594 0.432568 
99.080894 2.127723 
99.433029 0.086117 
99.675728 0.114455 
100.07608 0.099443 
101.003319 0.045058 
101.06015 0.435956 
101.358437 0.064662 
101.593269 0.092609 
101.816315 0.129901 
101.868286 0.135715 
102.068512 0.222821 
102.161858 0.180195 
102.500557 0.041251 
103.039421 5.276864 
103.075974 0.501461 
105.040634 0.036704 
105.070221 24.575493 
105.992889 0.085847 
106.073616 0.880727 
106.921295 0.137678 
106.984535 0.082864 
107.085854 65.556915 
107.895248 0.037188 
108.085434 0.136309 
108.089256 5.092793 
108.390213 0.097604 
109.065125 5.830552 
109.101509 71.845665 
110.104858 5.237267 
111.044006 0.133503 
111.08075 12.237774 
111.117134 4.440317 
112.895943 0.10448 
113.060127 0.349853 
113.096451 2.462547 
113.273956 0.137993 
114.072372 0.179373 
114.209114 0.085676 
114.427261 0.101343 
114.546295 0.144952 
116.053169 6.761499 
116.107422 0.112863 
116.586533 0.113612 
116.986145 0.666091 
117.070274 0.92437 
117.289955 0.075468 
119.049538 0.172092 
119.085762 59.320148 
119.582619 0.036052 
119.627396 0.03843 
120.080994 0.109056 
120.089142 5.996377 
121.065002 6.292813 
121.101357 59.671593 
121.257545 0.127217 
122.104713 4.774873 
123.080658 5.14145 
123.117004 38.499863 
123.767998 0.137527 
124.120384 1.691949 
124.372719 0.11945 
125.09623 2.55646 
125.549858 0.151491 
125.609322 0.132247 
127.111839 2.402711 
128.312988 0.082417 
129.070114 0.198651 
130.499466 0.060252 
130.558441 0.135062 
131.070572 0.488058 
131.08551 14.370339 
132.088867 0.243639 
133.064911 0.546238 
133.085999 2.860388 
133.101135 64.571831 
133.462952 0.112085 
134.104538 6.421059 
134.972687 0.081847 
134.996552 0.900188 
135.080536 3.061571 
135.116837 100.0 
135.76506 0.047383 
136.120148 10.621307 
137.059555 0.158267 
137.096054 5.766768 
137.13237 29.218605 
138.089447 0.038443 
138.099014 0.16041 
138.13588 1.717141 
138.506485 0.148316 
139.11174 1.713748 
140.325638 0.128342 
140.959229 0.883225 
141.06488 0.16423 
143.022552 0.081613 
143.085541 7.194434 
145.101074 31.992821 
146.104492 2.347615 
147.080292 11.777457 
147.11673 58.110176 
148.083084 0.063247 
148.120193 5.759329 
149.011475 0.132317 
149.044861 3.674725 
149.096085 3.410102 
149.132416 43.655373 
150.13588 4.397158 
151.111679 11.526597 
151.148056 1.802224 
152.891647 0.09688 
152.989075 0.138558 
153.006989 0.109452 
153.127365 1.013806 
153.958923 0.075072 
154.017334 0.137653 
154.969025 0.041405 
155.085464 0.9663 
157.101089 11.777593 
158.104721 0.383511 
158.383026 0.12441 
159.080811 0.241519 
159.116714 39.028389 
160.120117 2.66996 
161.0961 5.581715 
161.132339 53.743992 
162.13588 6.261325 
163.075073 0.076131 
163.111694 6.154038 
163.148056 24.65126 
163.702896 0.044425 
164.133636 0.06643 
164.151672 1.835803 
164.895554 0.082563 
164.920685 0.598803 
165.12764 2.274703 
165.163467 0.095199 
167.055328 18.009253 
167.142654 0.136206 
168.834656 0.150654 
169.101089 2.594 
170.298798 0.093763 
170.963211 0.406918 
171.079453 0.104222 
171.116638 14.131941 
172.119888 0.478296 
173.096161 0.668479 
173.132416 22.860395 
173.438171 0.138146 
174.135956 1.675621 
174.733521 0.113016 
174.990189 0.048884 
175.005753 0.133707 
175.111847 4.816026 
175.148041 40.06942 
176.114807 0.138575 
176.151642 5.174492 
176.967316 0.398584 
177.127304 42.707886 
177.163681 16.066929 
177.789154 0.134746 
178.13092 4.573928 
178.166977 0.850629 
179.143082 1.780185 
180.003464 0.040686 
180.89444 0.266793 
181.099625 0.141292 
181.215836 0.168247 
183.116974 6.497525 
183.940491 0.132696 
184.120377 0.116257 
185.095779 0.048464 
185.132385 25.703548 
186.135956 2.158558 
187.11171 2.491704 
187.148026 52.054585 
187.954071 0.128359 
188.110001 0.043614 
188.151535 7.808068 
188.974091 1.258233 
189.006851 0.086323 
189.12735 9.756096 
189.163681 84.241257 
189.552155 0.062513 
190.130264 0.15059 
190.166916 12.328679 
190.378632 0.153693 
190.953949 0.038933 
191.107117 0.549763 
191.143173 4.084951 
191.1707 0.163842 
191.179245 15.544925 
192.146469 0.115256 
192.183151 1.000991 
193.158691 1.823709 
194.999695 0.329597 
195.117783 0.193984 
197.132568 8.088207 
198.149963 0.129303 
198.806183 0.126025 
199.039093 1.966738 
199.075287 2.102849 
199.148026 20.862677 
200.151718 1.7389 
201.127518 5.986602 
201.163635 28.352961 
202.16745 3.889419 
203.106674 0.135525 
203.143082 78.467064 
203.179306 67.065819 
204.146408 11.362065 
204.172562 0.151687 
204.182739 10.826987 
205.158752 12.265985 
205.18605 0.158853 
205.195206 1.842244 
206.16214 0.439235 
206.977676 2.034158 
207.053619 0.041284 
207.17424 21.734114 
208.177826 1.872176 
209.132416 1.184013 
210.937424 0.156843 
211.148132 7.664588 
212.151352 0.488508 
212.935333 0.047345 
213.163773 15.55647 
213.652374 7.588082 
214.167252 1.808106 
214.533371 0.121061 
214.952881 0.043661 
215.143127 6.960784 
215.17952 11.864188 
216.182816 1.047137 
216.969788 0.210083 
217.15863 11.807633 
217.195175 4.207307 
217.963226 0.091577 
218.161667 0.266332 
218.198654 0.100416 
219.017258 0.088103 
219.139572 0.176729 
219.174423 3.08145 
220.927002 0.038193 
221.153671 1.519846 
221.189957 3.421508 
223.14801 1.447948 
225.042862 9.366566 
225.163757 4.223628 
226.044327 0.118021 
226.168076 0.098473 
226.950455 0.146067 
227.022888 0.110697 
227.070175 50.415459 
227.143845 0.497343 
227.158096 0.143101 
227.17926 12.717703 
227.934814 0.077567 
228.073669 6.019559 
228.182739 0.416018 
228.889465 0.16152 
229.158768 5.994982 
229.195114 8.871138 
230.966766 0.394647 
231.174377 5.440835 
231.259964 0.131246 
232.177704 0.140362 
232.964661 1.534004 
232.982605 0.075756 
233.154343 0.093223 
233.190216 1.205792 
234.979797 0.076268 
237.163544 0.665298 
238.966949 0.06602 
239.179474 8.464915 
240.182968 0.407316 
241.158539 0.619195 
241.194901 7.457453 
242.198013 0.24031 
243.174103 3.483308 
243.21051 2.00783 
244.895157 0.080132 
244.962326 2.848855 
245.190155 2.97753 
246.958206 0.183258 
247.205582 0.677998 
248.325455 0.110026 
248.977127 0.256376 
248.991272 0.375523 
250.937027 0.050264 
250.975082 1.133616 
251.025848 2.031447 
251.179123 1.327964 
252.182434 0.104456 
252.94812 0.203331 
253.194839 15.911534 
253.94986 0.196694 
253.967697 0.058249 
254.198288 1.49069 
255.174042 2.574062 
255.210571 9.496354 
256.213318 0.1061 
257.189728 10.826963 
258.193604 0.358647 
259.205627 1.951349 
260.209351 0.039578 
262.97348 0.408778 
264.876648 0.493968 
265.19519 0.989771 
265.939423 0.413304 
267.210571 5.69682 
267.91153 0.302627 
268.21344 0.072915 
268.822723 0.130108 
268.997589 0.192209 
269.036499 0.316872 
269.189728 5.44431 
269.22641 3.711553 
269.509247 0.13725 
269.996277 0.883635 
271.205414 16.647932 
271.960052 0.04484 
272.209229 1.989701 
273.221161 4.453905 
273.869904 0.153719 
276.328003 0.142968 
277.129669 0.135666 
279.210785 3.473399 
280.213989 0.185499 
281.226318 2.345619 
282.887268 0.732485 
283.028839 0.087931 
283.205109 4.944975 
284.153046 0.061734 
284.208832 0.140314 
285.155273 0.073272 
285.221069 3.061934 
288.898651 0.092865 
291.946594 0.161782 
293.033112 0.053061 
293.22641 4.370851 
293.546844 0.083501 
294.229279 0.379643 
295.205383 0.244775 
295.242004 0.253364 
297.013977 0.145431 
297.221252 6.131965 
298.224396 0.23964 
299.236267 0.497489 
302.164948 0.097891 
303.194092 0.073195 
304.928375 0.529366 
305.225739 0.521603 
306.229401 0.10474 
307.241364 0.840791 
308.937439 0.057342 
309.220917 0.637126 
309.855499 0.070572 
311.236511 8.787767 
311.293884 0.379309 
311.313629 0.088574 
312.240204 0.590527 
315.009857 0.115015 
317.96344 0.07374 
318.003326 0.159078 
319.242706 0.192628 
322.995941 0.046319 
323.236847 6.329876 
324.239105 0.2054 
324.986481 0.438796 
325.252075 1.017816 
326.508728 0.042878 
329.003235 0.413731 
329.96286 0.16813 
333.257202 0.664956 
337.251984 2.674167 
337.288696 0.155913 
337.551086 0.153778 
337.93103 0.127202 
338.256805 0.199807 
342.859924 0.144348 
342.996826 4.372203 
343.859131 0.426276 
343.915833 0.126294 
346.953827 0.120407 
348.93454 0.756398 
351.268066 2.945822 
352.270691 0.045432 
359.023743 0.049885 
360.870483 0.165095 
361.868866 0.091135 
363.304413 0.796247 
365.1474 0.153194 
365.283844 0.163065 
366.94458 0.487069 
373.397125 0.093334 
381.31488 0.902188 
389.319977 9.683091 
390.323456 1.635585 
392.011383 0.088025 
401.166504 2.639159 
404.850433 0.156662 
407.330383 26.747292 
408.334229 7.864849 
408.429138 0.178461 
408.953796 0.046162 
409.335724 0.186125 
419.177277 3.343451 
425.340912 12.250253 
426.344086 2.977485 
429.571106 0.148929 
429.739166 0.040684 
437.189758 0.144282 
439.585419 0.155557 
439.852264 0.147249 
442.403503 0.193838 
443.260376 0.366492 
443.353027 35.194759 
443.403748 0.094048 
444.355377 12.20306 
444.454163 0.444699 
445.276672 19.498913 
445.310699 1.445383 
445.356934 0.500094 
445.735626 0.136457 
446.279968 1.559909 
447.347229 0.503619 
470.309387 0.140025 
END IONS

