BEGIN IONS
TITLE=Scan Number: 1196
PEPMASS=273.159
CHARGE=0+
COMPOUNDNAME=Nematophin
LIBRARYQUALITY=3
SMILES=CCC(C)C(C(NCCC1=CNC2=C1C=CC=C2)=O)=O
INCHIKEY=NIQUZFQMNMNAMD-UHFFFAOYSA-N
INCHI=
MSLEVEL=2
SOURCE_INSTRUMENT=LC-ESI-qTof
FILENAME=f.Sniperwolff/Libraryfiles/Nematophin/nematophin.mzXML;
SEQ=*..*
NOTES=
IONMODE=Positive
ORGANISM=GNPS-LIBRARY
NAME=Nematophin M+H
SPECTRUMID=CCMSLIB00000840592
ACTIVATION=CID
INSTRUMENT=ion trap
SCANS=1196
94.84964 16.0 
94.872803 31.0 
95.009575 34.0 
95.047546 228.0 
95.085434 32.0 
95.096779 43.0 
95.266983 23.0 
95.297226 12.0 
95.900673 14.0 
96.18856 21.0 
96.291862 27.0 
97.027809 20.0 
97.065231 23.0 
97.483101 8.0 
97.864708 17.0 
98.024231 9.0 
98.056351 30.0 
98.09507 76.0 
99.072197 32.0 
99.099426 15.0 
100.975304 31.0 
101.037613 134.0 
102.044724 544.0 
102.063576 11.0 
102.089951 3884.0 
102.218346 13.0 
102.259201 22.0 
102.282898 9.0 
102.601852 26.0 
103.012932 20.0 
103.028954 10.0 
103.052818 6816.0 
103.09433 292.0 
103.233673 14.0 
103.318306 10.0 
103.422134 10.0 
103.558395 9.0 
103.643005 17.0 
103.692886 16.0 
104.011711 16.0 
104.051666 807.0 
104.09594 28.0 
104.156616 30.0 
104.441971 18.0 
104.491035 19.0 
104.582664 47.0 
104.630638 17.0 
105.0429 597.0 
105.067787 228.0 
105.618477 19.0 
105.772049 11.0 
105.840126 12.0 
105.945961 12.0 
105.959175 11.0 
105.995285 14.0 
106.047256 25.0 
106.064468 113.0 
106.141022 13.0 
106.187668 14.0 
106.675049 14.0 
106.688019 14.0 
107.069473 29.0 
107.209503 10.0 
107.972679 23.0 
108.079399 50.0 
108.170807 25.0 
108.709328 15.0 
108.733223 9.0 
109.064957 127.0 
110.091209 30.0 
110.226906 13.0 
110.696503 12.0 
110.832924 13.0 
111.077347 26.0 
111.706635 9.0 
111.838219 8.0 
112.074097 450.0 
112.224792 14.0 
112.31472 11.0 
112.390732 12.0 
112.591492 15.0 
112.783546 9.0 
113.057167 63.0 
113.071205 22.0 
113.400314 14.0 
113.416496 10.0 
113.447212 31.0 
114.043243 50.0 
114.908478 19.0 
114.929039 44.0 
114.947556 19.0 
114.968307 13.0 
114.99511 67.0 
115.015869 43.0 
115.053177 41128.0 
115.101898 37.0 
115.136177 16.0 
115.151535 14.0 
115.223434 17.0 
115.24382 15.0 
115.296928 10.0 
115.37941 10.0 
115.42112 29.0 
115.440804 8.0 
115.456093 11.0 
115.496529 9.0 
115.535919 26.0 
115.577957 23.0 
115.605194 41.0 
115.622643 25.0 
115.64782 27.0 
115.663734 18.0 
115.725433 11.0 
115.759132 32.0 
115.780602 10.0 
115.806778 38.0 
115.857315 23.0 
115.934029 10.0 
115.954018 46.0 
115.984222 20.0 
116.02607 11.0 
116.054726 4470.0 
116.087517 55.0 
116.105995 22.0 
116.142464 11.0 
116.155022 12.0 
116.170631 41.0 
116.20137 29.0 
116.219109 20.0 
116.246063 20.0 
116.286797 19.0 
116.308121 17.0 
116.325188 30.0 
116.349754 27.0 
116.376396 29.0 
116.43454 11.0 
116.456169 12.0 
116.476776 29.0 
116.493004 33.0 
116.619476 14.0 
116.631912 12.0 
116.650688 13.0 
116.682358 16.0 
116.703232 11.0 
116.72673 31.0 
116.747704 17.0 
116.794685 33.0 
116.853996 31.0 
116.876602 15.0 
116.894577 80.0 
116.91317 34.0 
116.937378 18.0 
116.943092 21.0 
116.962181 104.0 
116.979027 93.0 
117.002777 101.0 
117.017609 123.0 
117.068687 129067.0 
117.11676 81.0 
117.148392 101.0 
117.169853 50.0 
117.204468 83.0 
117.210487 62.0 
117.226891 74.0 
117.247719 34.0 
117.275566 19.0 
117.306595 36.0 
117.320541 89.0 
117.341423 47.0 
117.368073 18.0 
117.404015 13.0 
117.417824 28.0 
117.436279 40.0 
117.4636 8.0 
117.481361 20.0 
117.503326 23.0 
117.537506 31.0 
117.55732 23.0 
117.582886 72.0 
117.597549 92.0 
117.618385 36.0 
117.632164 25.0 
117.672112 18.0 
117.68882 21.0 
117.711746 34.0 
117.729202 24.0 
117.742622 18.0 
117.761932 21.0 
117.774849 58.0 
117.792793 28.0 
117.812263 20.0 
117.830849 55.0 
117.853729 54.0 
117.906242 16.0 
117.923965 50.0 
117.941551 60.0 
117.966423 60.0 
118.001938 60.0 
118.018021 33.0 
118.069122 7996.0 
118.106819 48.0 
118.125626 47.0 
118.138069 44.0 
118.155571 42.0 
118.179016 72.0 
118.202072 40.0 
118.224419 41.0 
118.283783 61.0 
118.298187 80.0 
118.337311 27.0 
118.368683 73.0 
118.392464 31.0 
118.418236 32.0 
118.440971 73.0 
118.479317 51.0 
118.514969 43.0 
118.545609 58.0 
118.586945 28.0 
118.616844 14.0 
118.638504 24.0 
118.657562 22.0 
118.67469 19.0 
118.695686 16.0 
118.710182 30.0 
118.722908 20.0 
118.765686 25.0 
118.79464 14.0 
118.810791 18.0 
118.863823 10.0 
118.882477 60.0 
118.901657 17.0 
118.928253 10.0 
118.943611 46.0 
119.017487 23.0 
119.027817 31.0 
119.047821 85.0 
119.070137 601.0 
119.106308 17.0 
119.120323 10.0 
119.134964 15.0 
119.160576 8.0 
119.176559 25.0 
119.190086 31.0 
119.211334 20.0 
119.235092 16.0 
119.252327 10.0 
119.27623 11.0 
119.327026 27.0 
119.340851 21.0 
119.356804 23.0 
119.367821 28.0 
119.396645 23.0 
119.457741 28.0 
119.490898 25.0 
119.509926 11.0 
119.56633 36.0 
119.602501 36.0 
119.626244 14.0 
119.641197 13.0 
119.655289 14.0 
119.69606 28.0 
119.724663 21.0 
119.744064 35.0 
119.785301 18.0 
119.804787 35.0 
119.833023 16.0 
119.855721 27.0 
119.871048 12.0 
119.91037 27.0 
119.939552 26.0 
119.957191 23.0 
119.971985 22.0 
120.003662 31.0 
120.027718 15.0 
120.048668 14.0 
120.066757 47.0 
120.078621 73.0 
120.116577 29.0 
120.147415 49.0 
120.176231 27.0 
120.193779 22.0 
120.207886 23.0 
120.220467 29.0 
120.237701 12.0 
120.261658 23.0 
120.276978 22.0 
120.291283 23.0 
120.313904 11.0 
120.346207 31.0 
120.3601 28.0 
120.378906 25.0 
120.404892 17.0 
120.426178 44.0 
120.458549 20.0 
120.471596 33.0 
120.50869 26.0 
120.540863 13.0 
120.56414 10.0 
120.60257 26.0 
120.62146 25.0 
120.637543 12.0 
120.662476 21.0 
120.682472 20.0 
120.696594 51.0 
120.732727 22.0 
120.758743 9.0 
120.789246 16.0 
120.810379 22.0 
120.825493 24.0 
120.891296 12.0 
120.909676 13.0 
120.955261 16.0 
121.004578 12.0 
121.01963 30.0 
121.052338 17.0 
121.09761 13.0 
121.118553 13.0 
121.213997 18.0 
121.231911 21.0 
121.29776 16.0 
121.394249 21.0 
121.461082 26.0 
121.501495 26.0 
121.5439 13.0 
121.583443 13.0 
121.596115 24.0 
121.622597 18.0 
121.674789 18.0 
121.72345 11.0 
121.768631 21.0 
121.844917 9.0 
121.888016 24.0 
121.947441 11.0 
122.081818 21.0 
122.151024 55.0 
122.174614 16.0 
122.215904 12.0 
122.316475 15.0 
122.376709 31.0 
122.393303 17.0 
122.416344 24.0 
122.458099 22.0 
122.493866 18.0 
122.517738 11.0 
122.594612 14.0 
122.664452 13.0 
122.754692 22.0 
122.913437 33.0 
122.939377 10.0 
123.026924 18.0 
123.051979 17.0 
123.125198 16.0 
123.213684 16.0 
123.242943 9.0 
123.259819 9.0 
123.285286 12.0 
123.308136 28.0 
123.343994 16.0 
123.391785 11.0 
123.418793 18.0 
123.458519 36.0 
123.474251 13.0 
123.555641 12.0 
123.604576 12.0 
123.669434 10.0 
123.729538 15.0 
123.74614 40.0 
123.769608 16.0 
123.896538 14.0 
124.03717 46.0 
124.076019 30.0 
124.124977 29.0 
124.243187 11.0 
124.3582 19.0 
124.463097 16.0 
124.534958 10.0 
124.615097 9.0 
124.692642 11.0 
124.85627 23.0 
125.039459 30.0 
125.401291 23.0 
125.422256 17.0 
125.716568 19.0 
125.920723 11.0 
126.046341 254.0 
126.172623 44.0 
126.338181 15.0 
126.407379 15.0 
126.550224 32.0 
126.814453 17.0 
126.930908 17.0 
126.948822 13.0 
126.970284 14.0 
127.002068 29.0 
127.024605 20.0 
127.05336 16058.0 
127.089149 50.0 
127.107018 9.0 
127.122353 11.0 
127.175011 11.0 
127.19725 15.0 
127.230362 22.0 
127.25824 13.0 
127.271965 23.0 
127.371307 14.0 
127.392548 21.0 
127.466492 20.0 
127.481476 9.0 
127.570824 65.0 
127.636452 12.0 
127.683426 20.0 
127.718445 17.0 
127.951683 27.0 
128.002258 10.0 
128.027557 41.0 
128.049728 10139.0 
128.106018 1533.0 
128.152496 22.0 
128.188538 9.0 
128.250168 28.0 
128.271683 16.0 
128.299393 22.0 
128.322815 28.0 
128.363297 29.0 
128.396439 12.0 
128.417419 15.0 
128.504074 8.0 
128.544739 13.0 
128.564896 13.0 
128.600937 20.0 
128.618958 8.0 
128.685822 15.0 
128.743515 27.0 
128.771011 31.0 
128.807144 12.0 
128.831314 35.0 
128.92421 29.0 
128.958527 32.0 
128.982697 15.0 
129.014511 18.0 
129.056015 2870.0 
129.110428 124.0 
129.137268 24.0 
129.167892 18.0 
129.250244 23.0 
129.276947 44.0 
129.316086 15.0 
129.392578 31.0 
129.408447 21.0 
129.52092 26.0 
129.548401 18.0 
129.568893 17.0 
129.583649 12.0 
129.696182 9.0 
129.856216 12.0 
129.900558 23.0 
129.962616 25.0 
130.064178 8747.0 
130.1035 17.0 
130.121689 18.0 
130.16777 52.0 
130.227066 24.0 
130.25148 22.0 
130.363785 16.0 
130.491272 22.0 
130.517822 21.0 
130.557938 18.0 
130.574112 17.0 
130.609863 24.0 
130.650131 30.0 
130.693863 10.0 
130.709549 66.0 
130.883957 23.0 
130.906082 13.0 
130.933289 20.0 
130.966339 10.0 
131.001511 9.0 
131.068497 929.0 
131.124741 15.0 
131.156616 15.0 
131.259766 31.0 
131.332458 18.0 
131.35083 14.0 
131.387161 31.0 
131.488525 12.0 
131.6297 19.0 
131.653183 19.0 
131.685425 24.0 
131.805634 31.0 
131.847519 31.0 
131.886734 11.0 
131.938293 21.0 
131.969498 15.0 
131.995636 21.0 
132.012222 14.0 
132.044464 106.0 
132.07988 9993.0 
132.126465 17.0 
132.163681 11.0 
132.185165 28.0 
132.262558 21.0 
132.280197 11.0 
132.309387 13.0 
132.351639 15.0 
132.493546 46.0 
132.57576 16.0 
132.58876 12.0 
132.658539 16.0 
132.679459 17.0 
132.702499 29.0 
132.780136 18.0 
132.851517 11.0 
132.947113 11.0 
132.974655 11.0 
133.003418 19.0 
133.017166 13.0 
133.064041 113.0 
133.082596 1174.0 
133.15274 15.0 
133.239944 23.0 
133.37442 14.0 
133.528214 20.0 
133.583435 17.0 
133.625641 17.0 
133.668396 16.0 
133.911133 13.0 
133.947983 13.0 
134.012756 8.0 
134.059586 384.0 
134.087662 105.0 
134.278732 27.0 
134.471115 12.0 
134.605057 19.0 
134.643433 9.0 
134.68103 17.0 
134.782227 9.0 
134.813766 8.0 
134.873032 14.0 
134.893524 19.0 
134.94455 24.0 
134.989731 10.0 
135.081497 26.0 
135.14566 17.0 
135.166641 22.0 
135.236374 11.0 
135.307297 14.0 
135.343109 16.0 
135.472321 14.0 
135.530243 51.0 
135.664124 17.0 
135.710938 11.0 
135.748779 11.0 
135.766251 12.0 
135.836594 16.0 
135.983521 24.0 
136.020676 12.0 
136.09967 21.0 
136.129684 12.0 
136.297333 17.0 
136.478912 25.0 
136.493088 15.0 
136.728149 22.0 
136.95932 11.0 
136.982895 15.0 
137.332962 12.0 
137.515518 11.0 
138.918167 28.0 
139.072083 22.0 
139.465057 34.0 
139.485779 18.0 
139.854218 19.0 
140.048752 396.0 
140.17012 12.0 
140.584274 10.0 
140.807404 45.0 
141.053772 155.0 
141.088272 29.0 
141.222687 27.0 
141.493469 33.0 
141.662827 44.0 
141.89801 62.0 
141.949814 11.0 
141.982285 24.0 
142.018768 11.0 
142.064377 7940.0 
142.118881 27.0 
142.13588 19.0 
142.157059 11.0 
142.203293 28.0 
142.22934 47.0 
142.296692 10.0 
142.368225 19.0 
142.399673 13.0 
142.439133 42.0 
142.510696 35.0 
142.547241 11.0 
142.606934 40.0 
142.657043 18.0 
142.697159 22.0 
142.71196 21.0 
142.72879 33.0 
142.786377 21.0 
142.84761 47.0 
142.865906 37.0 
142.896454 29.0 
142.919022 22.0 
142.965591 36.0 
143.00592 123.0 
143.036697 417.0 
143.072113 129597.0 
143.147583 62.0 
143.170029 78.0 
143.18692 21.0 
143.198914 54.0 
143.232559 69.0 
143.250397 62.0 
143.269745 49.0 
143.311249 95.0 
143.331253 72.0 
143.356186 17.0 
143.372223 93.0 
143.416183 52.0 
143.436249 22.0 
143.458954 32.0 
143.485535 66.0 
143.516998 32.0 
143.537399 17.0 
143.553818 60.0 
143.591446 39.0 
143.613968 47.0 
143.64769 49.0 
143.672592 36.0 
143.710342 21.0 
143.725494 32.0 
143.74852 66.0 
143.775162 62.0 
143.795792 83.0 
143.818756 28.0 
143.84549 38.0 
143.861389 136.0 
143.883148 145.0 
143.936493 378.0 
143.961243 713.0 
143.973312 674.0 
144.009689 1023.0 
144.049805 1385.0 
144.079926 1932277.0 
144.136871 498.0 
144.168121 512.0 
144.194199 521.0 
144.228439 801.0 
144.239975 1057.0 
144.281158 461.0 
144.316299 224.0 
144.339874 294.0 
144.356934 317.0 
144.380585 220.0 
144.409225 160.0 
144.440018 313.0 
144.471802 205.0 
144.491684 219.0 
144.51741 208.0 
144.533798 161.0 
144.569748 164.0 
144.60762 122.0 
144.64859 177.0 
144.666229 233.0 
144.71492 233.0 
144.747147 185.0 
144.765976 168.0 
144.778702 250.0 
144.822205 210.0 
144.840866 235.0 
144.903473 298.0 
144.943726 262.0 
144.959686 145.0 
144.976807 254.0 
145.009064 281.0 
145.083206 201759.0 
145.141037 276.0 
145.165359 259.0 
145.202148 209.0 
145.225861 198.0 
145.250519 291.0 
145.286255 287.0 
145.30687 203.0 
145.324066 176.0 
145.359741 250.0 
145.387741 258.0 
145.423569 239.0 
145.435837 228.0 
145.454788 254.0 
145.485703 235.0 
145.520157 172.0 
145.554199 307.0 
145.584503 197.0 
145.618073 169.0 
145.634613 151.0 
145.648895 186.0 
145.692825 138.0 
145.715134 58.0 
145.749481 155.0 
145.784409 131.0 
145.809891 99.0 
145.815857 61.0 
145.844864 147.0 
145.858704 120.0 
145.880463 126.0 
145.91713 77.0 
145.936523 124.0 
145.959641 75.0 
145.975998 82.0 
146.004425 95.0 
146.021133 92.0 
146.061996 737.0 
146.086456 10937.0 
146.123596 57.0 
146.166107 35.0 
146.184753 131.0 
146.202301 64.0 
146.247116 68.0 
146.285217 77.0 
146.305359 134.0 
146.352478 97.0 
146.376053 88.0 
146.402267 66.0 
146.417786 109.0 
146.452789 82.0 
146.47908 124.0 
146.532578 71.0 
146.566238 62.0 
146.587662 72.0 
146.603867 72.0 
146.622711 103.0 
146.657776 89.0 
146.678177 68.0 
146.698959 81.0 
146.720993 119.0 
146.738358 73.0 
146.762466 80.0 
146.772629 60.0 
146.797394 56.0 
146.840866 78.0 
146.85498 84.0 
146.88002 55.0 
146.905563 73.0 
146.927597 83.0 
146.951309 82.0 
147.003098 150.0 
147.052551 136.0 
147.064499 166.0 
147.089264 413.0 
147.132095 177.0 
147.162201 213.0 
147.202209 123.0 
147.251053 155.0 
147.2771 180.0 
147.307892 173.0 
147.323944 196.0 
147.339355 208.0 
147.38382 172.0 
147.410156 129.0 
147.428192 182.0 
147.453369 269.0 
147.478012 210.0 
147.497864 173.0 
147.523346 249.0 
147.538254 237.0 
147.560516 166.0 
147.611847 243.0 
147.644165 281.0 
147.661423 238.0 
147.684799 151.0 
147.704666 153.0 
147.71376 169.0 
147.741394 213.0 
147.779922 198.0 
147.787384 220.0 
147.838287 192.0 
147.86879 212.0 
147.90451 134.0 
147.920334 102.0 
147.926941 103.0 
147.934937 101.0 
147.959152 75.0 
147.979126 104.0 
148.004425 81.0 
148.01973 90.0 
148.035736 145.0 
148.060165 119.0 
148.071136 113.0 
148.096619 67.0 
148.131393 140.0 
148.151321 106.0 
148.169556 97.0 
148.188568 99.0 
148.216446 81.0 
148.240326 77.0 
148.246536 46.0 
148.255981 61.0 
148.26828 77.0 
148.303207 126.0 
148.333954 44.0 
148.34964 103.0 
148.371582 101.0 
148.390533 54.0 
148.403717 108.0 
148.419327 16.0 
148.438202 45.0 
148.457123 65.0 
148.475372 72.0 
148.501968 38.0 
148.521835 58.0 
148.542419 52.0 
148.561813 109.0 
148.57692 67.0 
148.593048 52.0 
148.618347 65.0 
148.640045 87.0 
148.661224 37.0 
148.681427 29.0 
148.697311 47.0 
148.718628 57.0 
148.745728 37.0 
148.757004 42.0 
148.776627 32.0 
148.808395 58.0 
148.834854 62.0 
148.862 34.0 
148.874695 53.0 
148.905304 74.0 
148.929794 40.0 
148.946014 72.0 
148.977798 69.0 
148.994598 57.0 
149.024536 72.0 
149.053711 66.0 
149.084824 66.0 
149.123352 69.0 
149.151489 52.0 
149.1754 57.0 
149.188293 79.0 
149.213333 95.0 
149.242218 56.0 
149.260056 58.0 
149.273407 91.0 
149.298523 37.0 
149.317795 49.0 
149.329025 26.0 
149.3479 34.0 
149.368195 70.0 
149.387222 62.0 
149.405228 65.0 
149.428696 66.0 
149.46254 63.0 
149.470352 99.0 
149.489822 76.0 
149.521072 37.0 
149.546432 97.0 
149.578323 57.0 
149.583191 49.0 
149.617615 32.0 
149.648895 50.0 
149.686935 68.0 
149.705658 51.0 
149.741486 38.0 
149.785583 33.0 
149.800537 46.0 
149.82048 24.0 
149.848862 30.0 
149.886215 18.0 
149.909882 33.0 
149.948883 35.0 
149.975372 47.0 
149.997116 48.0 
150.023148 51.0 
150.053513 18.0 
150.088913 36.0 
150.1427 29.0 
150.173447 36.0 
150.199066 48.0 
150.216705 55.0 
150.243988 32.0 
150.271301 42.0 
150.295044 21.0 
150.314163 37.0 
150.330185 46.0 
150.34845 12.0 
150.368652 25.0 
150.400101 28.0 
150.410477 28.0 
150.435822 27.0 
150.470749 22.0 
150.503189 22.0 
150.522171 17.0 
150.563232 38.0 
150.579041 15.0 
150.596725 37.0 
150.625137 38.0 
150.659958 16.0 
150.678909 32.0 
150.694977 23.0 
150.717804 17.0 
150.767197 40.0 
150.789093 28.0 
150.821701 29.0 
150.853333 41.0 
150.887451 33.0 
150.906967 47.0 
150.932114 49.0 
150.962387 15.0 
150.982407 48.0 
151.003326 44.0 
151.035019 24.0 
151.051453 44.0 
151.077866 98.0 
151.10199 57.0 
151.118088 41.0 
151.147156 16.0 
151.166489 55.0 
151.192169 51.0 
151.198898 37.0 
151.228912 16.0 
151.265198 61.0 
151.312408 42.0 
151.370056 28.0 
151.397354 14.0 
151.415924 21.0 
151.441116 28.0 
151.464966 34.0 
151.491898 16.0 
151.521774 15.0 
151.543976 29.0 
151.585083 14.0 
151.618225 14.0 
151.64064 39.0 
151.673355 63.0 
151.706207 19.0 
151.731216 16.0 
151.74733 19.0 
151.77359 10.0 
151.79071 24.0 
151.812332 24.0 
151.864807 10.0 
151.898773 24.0 
151.925629 23.0 
151.969406 15.0 
151.995789 25.0 
152.041702 17.0 
152.069626 28.0 
152.103836 24.0 
152.14772 31.0 
152.215347 22.0 
152.23465 66.0 
152.266388 14.0 
152.30217 36.0 
152.336487 22.0 
152.366302 9.0 
152.383591 11.0 
152.405014 12.0 
152.42009 22.0 
152.441284 25.0 
152.513611 16.0 
152.537094 14.0 
152.55188 21.0 
152.577515 23.0 
152.591965 36.0 
152.624054 15.0 
152.65831 22.0 
152.715698 19.0 
152.732361 16.0 
152.771194 15.0 
152.818192 33.0 
152.862473 16.0 
152.891113 13.0 
152.934448 16.0 
152.967133 11.0 
153.000992 31.0 
153.057404 49.0 
153.07843 33.0 
153.095978 10.0 
153.123657 18.0 
153.136307 24.0 
153.16745 14.0 
153.207001 33.0 
153.25592 19.0 
153.354706 10.0 
153.589508 12.0 
153.67749 18.0 
153.72522 40.0 
153.758636 16.0 
153.841248 16.0 
153.868149 24.0 
153.917526 19.0 
153.943909 20.0 
153.971512 28.0 
153.988083 14.0 
154.016739 9.0 
154.064728 1610.0 
154.083557 43.0 
154.121719 21.0 
154.179947 21.0 
154.206268 16.0 
154.270432 10.0 
154.392502 26.0 
154.470001 18.0 
154.600739 17.0 
154.69223 25.0 
154.743484 16.0 
154.768936 20.0 
154.798279 24.0 
154.835251 19.0 
154.881897 59.0 
154.898117 61.0 
154.921448 49.0 
154.955093 21.0 
154.982254 85.0 
155.014069 37.0 
155.031921 54.0 
155.059586 38615.0 
155.113449 79.0 
155.132233 21.0 
155.182709 15.0 
155.21376 17.0 
155.24855 33.0 
155.279602 21.0 
155.301239 30.0 
155.349411 13.0 
155.376251 17.0 
155.393402 20.0 
155.409561 25.0 
155.462677 28.0 
155.555267 13.0 
155.595016 11.0 
155.693741 50.0 
155.760071 19.0 
155.776169 26.0 
155.800461 17.0 
155.826096 43.0 
155.848221 17.0 
155.874664 27.0 
155.914505 22.0 
155.935608 10.0 
155.967651 25.0 
155.998627 22.0 
156.037109 38.0 
156.063141 3921.0 
156.101944 450.0 
156.16243 37.0 
156.180573 31.0 
156.211395 41.0 
156.284561 31.0 
156.305283 35.0 
156.360443 14.0 
156.417679 21.0 
156.458191 26.0 
156.492111 15.0 
156.54541 21.0 
156.60675 10.0 
156.63446 14.0 
156.64917 18.0 
156.680344 23.0 
156.720001 27.0 
156.74176 21.0 
156.769913 16.0 
156.787659 40.0 
156.842758 17.0 
156.862335 15.0 
156.875854 20.0 
156.920013 14.0 
156.969742 20.0 
157.005203 14.0 
157.067047 278.0 
157.085098 206.0 
157.129074 23.0 
157.176819 11.0 
157.226974 22.0 
157.303619 12.0 
157.347 22.0 
157.39006 8.0 
157.473389 23.0 
157.501953 27.0 
157.616501 12.0 
157.649384 18.0 
157.685074 17.0 
157.797028 17.0 
157.86795 14.0 
157.888992 12.0 
157.931259 25.0 
157.954956 22.0 
158.025513 17.0 
158.06076 282.0 
158.095688 277.0 
158.11705 33.0 
158.148834 13.0 
158.220688 36.0 
158.252777 15.0 
158.278381 13.0 
158.304871 21.0 
158.34639 11.0 
158.361618 15.0 
158.390091 21.0 
158.431107 14.0 
158.544693 22.0 
158.61293 9.0 
158.636826 11.0 
158.688019 9.0 
158.708847 17.0 
158.72345 34.0 
158.740402 9.0 
158.762558 10.0 
158.796249 23.0 
158.835403 9.0 
158.858643 16.0 
158.900833 27.0 
158.931854 15.0 
158.972046 19.0 
158.99765 10.0 
159.021271 24.0 
159.06636 62.0 
159.091537 3320.0 
159.155121 16.0 
159.181015 10.0 
159.199265 13.0 
159.233261 9.0 
159.250076 31.0 
159.298431 21.0 
159.327057 16.0 
159.431564 19.0 
159.526352 11.0 
159.685287 13.0 
159.720703 21.0 
159.786438 11.0 
159.924622 10.0 
159.966751 23.0 
159.99263 13.0 
160.028992 27.0 
160.073105 250.0 
160.094711 349.0 
160.15152 23.0 
160.175064 25.0 
160.205978 12.0 
160.289062 13.0 
160.322189 15.0 
160.380295 16.0 
160.400238 23.0 
160.498367 33.0 
160.564926 15.0 
160.601685 19.0 
160.643738 11.0 
160.689529 14.0 
160.714142 21.0 
160.758286 21.0 
160.783508 14.0 
161.046509 38.0 
161.107285 1964.0 
161.249969 14.0 
161.323013 8.0 
161.338135 15.0 
161.356903 11.0 
161.371658 10.0 
161.461533 33.0 
161.735687 8.0 
161.812881 22.0 
162.048233 10.0 
162.109161 217.0 
162.146881 11.0 
162.162643 17.0 
162.23468 19.0 
162.261826 13.0 
162.425583 20.0 
162.503937 45.0 
162.697586 20.0 
162.750793 14.0 
163.032104 19.0 
163.060638 18.0 
163.161209 11.0 
163.246933 12.0 
163.29985 12.0 
163.579163 13.0 
163.622147 14.0 
163.707047 16.0 
163.75769 16.0 
163.776077 17.0 
163.933792 18.0 
163.973724 19.0 
163.990021 22.0 
164.05513 18.0 
164.096817 17.0 
164.184677 18.0 
164.291077 14.0 
164.50386 14.0 
164.564529 9.0 
164.803085 18.0 
165.072906 31.0 
165.276413 12.0 
165.927887 14.0 
166.065887 64.0 
166.144379 11.0 
166.172089 11.0 
166.325592 13.0 
166.579422 21.0 
166.716736 9.0 
166.955811 9.0 
167.073013 235.0 
167.694733 9.0 
168.079895 513.0 
169.05423 17.0 
169.078659 235.0 
169.109207 33.0 
169.345566 16.0 
169.489792 13.0 
169.990494 11.0 
170.031326 10.0 
170.059921 2295.0 
170.096512 688.0 
170.164581 10.0 
170.190857 17.0 
170.243362 14.0 
170.275757 14.0 
170.324783 10.0 
170.384399 27.0 
170.797882 11.0 
170.887222 26.0 
170.974701 9.0 
170.995102 19.0 
171.038376 26.0 
171.067261 1184.0 
171.102539 739.0 
171.383041 22.0 
171.433411 24.0 
171.547226 16.0 
171.914124 23.0 
171.93248 18.0 
171.957581 14.0 
172.000565 12.0 
172.019211 11.0 
172.041718 32.0 
172.075668 6049.0 
172.111328 570.0 
172.223389 19.0 
172.354813 14.0 
172.449173 13.0 
172.49765 11.0 
172.542343 19.0 
172.622253 11.0 
172.703094 15.0 
172.744049 24.0 
172.780746 11.0 
172.873596 14.0 
172.906891 21.0 
172.954636 16.0 
173.079224 673.0 
173.113235 44.0 
173.189804 10.0 
173.376694 10.0 
173.506332 19.0 
173.525085 18.0 
173.648849 16.0 
173.678284 14.0 
173.755127 9.0 
173.776337 14.0 
174.055771 36.0 
174.077103 59.0 
174.195877 22.0 
174.220215 26.0 
174.255539 19.0 
174.454742 40.0 
174.565964 14.0 
174.659668 15.0 
174.698883 12.0 
174.764893 16.0 
174.804031 10.0 
174.923523 15.0 
175.03627 17.0 
175.346741 8.0 
175.538986 14.0 
175.557785 22.0 
175.65799 16.0 
175.689957 16.0 
175.734497 21.0 
175.902939 16.0 
176.015778 24.0 
176.066208 26.0 
176.299576 24.0 
177.32312 11.0 
177.667862 10.0 
178.078751 12.0 
178.121246 12.0 
178.421814 18.0 
178.631485 19.0 
178.767136 12.0 
179.312683 26.0 
180.039429 24.0 
180.080994 406.0 
180.621597 18.0 
180.787094 16.0 
180.945587 10.0 
181.087616 397.0 
181.32785 24.0 
181.376373 27.0 
181.593399 15.0 
181.878342 19.0 
181.952316 13.0 
182.005325 12.0 
182.060699 684.0 
182.096146 542.0 
182.246414 12.0 
182.279678 9.0 
182.511429 24.0 
183.064468 212.0 
183.101151 229.0 
183.29483 11.0 
183.58519 18.0 
183.959869 11.0 
184.075394 546.0 
184.111389 369.0 
184.351746 17.0 
184.396057 11.0 
184.500015 8.0 
184.740585 13.0 
184.979202 11.0 
185.078003 112.0 
185.106262 120.0 
185.12027 106.0 
185.270538 34.0 
185.571564 17.0 
186.014389 30.0 
186.054337 20.0 
186.09169 285.0 
186.12851 581.0 
186.164062 10.0 
186.410095 10.0 
186.492767 9.0 
186.881989 11.0 
186.944107 27.0 
187.039062 9.0 
187.085876 674.0 
187.129303 113.0 
187.245346 11.0 
187.288437 19.0 
187.571304 13.0 
187.981247 23.0 
188.071152 295.0 
188.092133 215.0 
189.071289 22.0 
189.101257 39.0 
189.138062 22.0 
189.245407 20.0 
189.558151 19.0 
189.595642 11.0 
190.026627 18.0 
190.08284 17.0 
190.104828 29.0 
191.334915 16.0 
191.374847 10.0 
193.093124 22.0 
193.109619 35.0 
193.129288 9.0 
194.096207 255.0 
194.159409 13.0 
194.366226 13.0 
194.598953 30.0 
195.103439 505.0 
195.167938 14.0 
196.075989 124.0 
196.108398 76.0 
196.144623 16.0 
196.165039 31.0 
196.481064 17.0 
196.768799 18.0 
196.912048 15.0 
197.081345 107.0 
197.108673 83.0 
197.633118 15.0 
197.9608 19.0 
198.054581 35.0 
198.09166 255.0 
198.127411 520.0 
198.193375 20.0 
198.311218 15.0 
198.730667 8.0 
198.874725 9.0 
199.063171 48.0 
199.096741 832.0 
199.126144 80.0 
199.617752 16.0 
199.744049 15.0 
199.868332 11.0 
200.008118 15.0 
200.070724 753.0 
200.104691 245.0 
200.143753 1014.0 
200.225739 13.0 
200.513748 21.0 
200.736938 14.0 
200.754608 16.0 
200.82843 21.0 
201.07518 133.0 
201.105179 14.0 
201.147018 204.0 
201.175064 18.0 
201.580994 18.0 
201.929306 24.0 
202.570862 14.0 
203.112503 30.0 
204.468231 19.0 
205.089951 34.0 
206.326981 13.0 
208.032639 26.0 
208.074738 26.0 
208.112045 143.0 
209.080429 34.0 
209.926987 24.0 
210.094604 69.0 
210.12822 770.0 
210.179916 23.0 
210.223038 17.0 
210.437271 15.0 
210.518539 9.0 
210.942535 11.0 
211.095444 55.0 
211.129593 110.0 
211.589111 14.0 
211.688538 16.0 
212.06958 34.0 
212.103882 37.0 
212.142502 196.0 
212.599213 25.0 
212.858398 11.0 
213.078186 19.0 
213.109543 40.0 
213.143524 23.0 
213.202469 21.0 
213.241272 23.0 
213.366318 30.0 
213.902603 11.0 
214.087341 64.0 
214.124237 209.0 
214.346237 12.0 
216.090942 51.0 
216.138489 251.0 
216.169144 10.0 
216.578735 13.0 
216.637177 8.0 
217.063416 17.0 
217.094864 62.0 
217.138016 38.0 
218.095886 16.0 
219.087051 32.0 
220.626892 21.0 
221.11879 30.0 
221.746826 13.0 
222.084808 18.0 
222.114075 56.0 
222.897675 16.0 
223.097885 115.0 
223.463226 15.0 
224.104065 30.0 
225.099106 35.0 
225.932816 24.0 
226.076294 23.0 
226.124496 206.0 
227.094284 26.0 
227.123077 31.0 
227.154129 872.0 
227.373154 13.0 
227.918091 24.0 
227.949478 30.0 
228.099274 113.0 
228.138107 6388.0 
228.197739 10.0 
228.216415 19.0 
228.397842 41.0 
228.507675 12.0 
228.651108 11.0 
228.669205 9.0 
228.731888 12.0 
228.856522 14.0 
228.935593 12.0 
228.956299 16.0 
229.023972 10.0 
229.064941 14.0 
229.104477 53.0 
229.141479 937.0 
229.233337 23.0 
229.287186 10.0 
229.363434 8.0 
229.440399 19.0 
229.528442 11.0 
229.69606 15.0 
229.785309 12.0 
229.904053 13.0 
229.94841 16.0 
229.969299 10.0 
230.058746 14.0 
230.095016 9.0 
230.14473 60.0 
230.264526 10.0 
230.654449 8.0 
230.928162 17.0 
230.968613 43.0 
230.993744 13.0 
231.197647 14.0 
231.861526 13.0 
232.19725 12.0 
232.232162 10.0 
232.261307 12.0 
232.533691 28.0 
232.567886 14.0 
232.610855 22.0 
232.981827 8.0 
233.137863 15.0 
233.254013 18.0 
233.581985 20.0 
233.857895 22.0 
234.655579 8.0 
234.9039 18.0 
235.123123 27.0 
235.685745 15.0 
236.536804 13.0 
237.141235 66.0 
237.612549 15.0 
237.890488 17.0 
238.122437 309.0 
238.156372 18.0 
239.124771 16.0 
240.122498 20.0 
240.805923 13.0 
241.108887 57.0 
241.48053 18.0 
241.507294 14.0 
243.090393 15.0 
244.131897 51.0 
245.107712 19.0 
245.165375 127.0 
245.525909 10.0 
245.965378 19.0 
246.170258 23.0 
247.849197 12.0 
248.69754 22.0 
248.978104 14.0 
250.386368 17.0 
251.088806 29.0 
254.332016 34.0 
254.924973 11.0 
255.034515 9.0 
255.061569 14.0 
255.148682 1237.0 
255.188736 38.0 
255.383942 11.0 
255.832718 9.0 
255.871368 22.0 
255.952911 9.0 
255.977478 19.0 
256.020721 8.0 
256.075012 25.0 
256.133484 6586.0 
256.191833 13.0 
256.214691 18.0 
256.340576 23.0 
256.361633 12.0 
256.578491 9.0 
256.625671 18.0 
256.737488 12.0 
256.788269 9.0 
256.852997 13.0 
256.879242 10.0 
256.960968 20.0 
257.024567 14.0 
257.063385 10.0 
257.082336 15.0 
257.136322 949.0 
257.235809 13.0 
257.357056 28.0 
257.390137 12.0 
257.407867 27.0 
257.475189 10.0 
257.533569 10.0 
257.582855 25.0 
258.031464 13.0 
258.099884 13.0 
258.140076 63.0 
258.544983 30.0 
259.297577 9.0 
259.38208 16.0 
259.422852 20.0 
259.790344 19.0 
260.271637 23.0 
260.380829 25.0 
260.475739 11.0 
260.494873 26.0 
260.755035 25.0 
260.849884 23.0 
261.003876 10.0 
261.080078 14.0 
261.108795 18.0 
261.129425 21.0 
261.258148 16.0 
261.647125 18.0 
262.046295 11.0 
262.795929 13.0 
265.082184 22.0 
265.506531 16.0 
265.530731 9.0 
265.775299 17.0 
270.105347 33.0 
270.217987 28.0 
270.27478 13.0 
271.188629 49.0 
271.220917 25.0 
272.257782 66.0 
273.160004 264.0 
273.259094 16.0 
274.084381 17.0 
274.160034 53.0 
274.526703 12.0 
275.058624 21.0 
275.136169 21.0 
276.163788 14.0 
282.997742 13.0 
284.110779 22.0 
292.676819 17.0 
300.33902 21.0 
300.435486 13.0 
323.705139 12.0 
329.892426 13.0 
332.146729 16.0 
359.466248 20.0 
367.188934 25.0 
377.313873 18.0 
412.771332 11.0 
440.585693 8.0 
570.062195 23.0 
843.853882 22.0 
915.006653 19.0 
940.578918 30.0 
950.113831 30.0 
951.731567 17.0 
956.115784 24.0 
960.819885 25.0 
962.747498 19.0 
965.835205 22.0 
971.60791 29.0 
1003.449646 32.0 
1005.216248 34.0 
1006.283875 37.0 
1016.657471 23.0 
1026.685059 22.0 
1027.304932 31.0 
1037.389526 13.0 
1101.192505 30.0 
1140.407349 16.0 
1143.56189 28.0 
1148.032837 42.0 
1153.333618 19.0 
1153.566162 8.0 
1161.808838 35.0 
1165.575806 40.0 
1166.361206 19.0 
1167.212036 42.0 
1169.92395 23.0 
1186.512939 28.0 
1195.105469 18.0 
1195.905273 25.0 
1196.273315 20.0 
1199.879639 37.0 
1200.362793 28.0 
1203.868164 19.0 
END IONS

