BEGIN IONS
PEPMASS=734.469
CHARGE=1+
COMPOUNDNAME=Massbank:PB005801 Erythromycin|(2R,3R,4S,5R,8R,9S,10S,11R,12R,14R)-11-[(2S,3R,4S,6R)-4-(dimethylamino)-3-hydroxy-6-methyloxan-2-yl]oxy-5-ethyl-3,4,12-trihydroxy-9-[(2R,4R,5S,6S)-5-hydroxy-4-methoxy-4,6-dimethyloxan-2-y
LIBRARYQUALITY=3
SMILES=CCC1C(C(C(C(=O)C(CC(C(C(C(C(C(=O)O1)C)OC2CC(C(C(O2)C)O)(C)OC)C)OC3C(C(CC(O3)C)N(C)C)O)(C)O)C)C)O)(C)O
INCHIKEY=ULGZDMOVFRHVEP-UHFFFAOYSA-N
INCHI=1S/C37H67NO13/c1-14-25-37(10,45)30(41)20(4)27(39)18(2)16-35(8,44)32(51-34-28(40)24(38(11)12)15-19(3)47-34)21(5)29(22(6)33(43)49-25)50-26-17-36(9,46-13)31(42)23(7)48-26/h18-26,28-32,34,40-42,44-45H,14-17H2,1-13H3/t18-,19-,20+,21+,22-,23+,24+,25-,26+,28-,29+,30-,31+,32-,34+,35-,36-,37-/m1/s1
MSLEVEL=2
SOURCE_INSTRUMENT=ESI-LC-ESI-QTOF
FILENAME=Massbank_ESI_positive_8_1_2014_peaks.mgf
SEQ=*..*
IONMODE=Positive
ORGANISM=MASSBANK
NAME=Massbank:PB005801 Erythromycin|(2R,3R,4S,5R,8R,9S,10S,11R,12R,14R)-11-[(2S,3R,4S,6R)-4-(dimethylamino)-3-hydroxy-6-methyloxan-2-yl]oxy-5-ethyl-3,4,12-trihydroxy-9-[(2R,4R,5S,6S)-5-hydroxy-4-methoxy-4,6-dimethyloxan-2-y [M+H]+
PI=Putative Massbank Match
DATACOLLECTOR=Massbank
PUBMED=N/A
SUBMITUSER=mwang87
TAGS=
SPECTRUMID=CCMSLIB00000222297
SCANS=10666
158.116 150.15 
159.119 10.01 
316.208 90.09 
317.211 10.01 
383.238 10.01 
522.338 220.22 
523.341 50.05 
540.348 170.17 
541.352 40.04 
558.359 550.551 
559.362 140.14 
560.363 20.02 
576.37 2212.212 
577.373 580.581 
578.375 80.08 
698.44 70.07 
699.444 20.02 
716.451 320.32 
717.454 110.11 
718.456 20.02 
734.463 10000.0 
735.465 3703.704 
736.468 630.631 
737.47 30.03 
END IONS

