BEGIN IONS
PEPMASS=347.149
CHARGE=1+
COMPOUNDNAME=gibberellic acid
LIBRARYQUALITY=3
SMILES=N/A
INCHIKEY=IXORZMNAPKEEDV-OBDJNFEBSA-N
INCHI=InChI=1S/C19H22O6/c1-9-7-17-8-18(9,24)5-3-10(17)19-6-4-11(20)16(2,15(23)25-19)13(19)12(17)14(21)22/h4,6,10-13,20,24H,1,3,5,7-8H2,2H3,(H,21,22)/t10-,11+,12-,13-,16-,17+,18+,19-/m1/s1
MSLEVEL=2
SOURCE_INSTRUMENT=N/A-ESI-QFT
FILENAME=library_mgf.mgf
SEQ=*..*
IONMODE=positive
ORGANISM=MONA
NAME=gibberellic acid [M+H]+
PI=MoNA
DATACOLLECTOR=MoNA:VF-NPL-QEHF000264
PUBMED=N/A
SUBMITUSER=mwang87
TAGS=
SPECTRUMID=CCMSLIB00004691327
SCANS=264
51.690521 0.307751 
51.94075 2.422358 
52.177788 0.351674 
52.185913 0.37377 
52.458717 0.409933 
53.039322 0.452912 
53.361122 0.335422 
54.674221 0.355021 
54.938171 0.362879 
55.018627 5.547995 
55.055012 19.003918 
55.844257 0.437033 
55.935169 13.257804 
56.050289 0.598013 
56.942944 1.617063 
56.965553 13.413812 
57.070625 16.18181 
57.935551 5.84845 
58.065861 4.74937 
58.397911 0.351926 
58.923248 0.326095 
59.049973 1.285602 
59.059429 0.298955 
59.061119 49.185371 
59.062675 0.656711 
59.274632 0.40074 
60.081532 10.417624 
61.011395 83.888023 
61.013107 0.462358 
61.443249 0.391196 
62.019196 17.010889 
63.007187 1.89012 
63.027088 1.562355 
64.551704 0.329974 
66.811241 0.338827 
67.054909 20.609568 
68.088661 0.347748 
68.173134 0.419994 
68.739128 0.366292 
68.943237 0.595256 
68.956108 0.472341 
69.034241 1.089113 
69.039742 0.300764 
69.070595 13.64111 
69.130348 0.28235 
69.961456 0.289008 
70.585739 0.368666 
70.942474 0.809031 
70.958519 24.537283 
71.049812 1.647017 
71.086143 4.276384 
71.929893 1.270221 
72.081413 0.4519 
72.937767 33.570118 
73.047462 1.925613 
73.271408 0.388962 
73.945442 0.31907 
74.40519 0.401444 
74.953476 0.412195 
75.945953 0.449207 
78.678886 0.30487 
79.021805 15.07535 
79.054802 12.997926 
81.034035 1.354337 
81.070457 19.25069 
82.065681 0.387787 
82.395348 0.306291 
83.049637 1.848968 
83.086067 3.472955 
84.938042 0.427398 
85.040398 0.38173 
85.451004 0.384522 
85.945969 4.66099 
86.096825 1.146064 
87.044518 0.593191 
87.907051 0.573776 
88.968918 5.713697 
89.906807 3.625723 
89.940338 2.63532 
89.96418 9.624807 
90.948204 21.654074 
91.054703 21.84173 
91.057838 7.441013 
92.057938 0.450435 
93.070374 12.897127 
95.049599 3.288044 
95.085991 15.526803 
95.666771 0.385139 
97.065132 6.739284 
98.972145 0.569763 
98.975761 63.832924 
99.948372 0.498432 
101.95031 18.973127 
102.46537 0.390249 
102.948364 2.505358 
103.956551 1.234265 
104.963806 0.826156 
105.070198 7.388986 
105.760025 0.350765 
105.91729 0.436405 
107.085869 11.435041 
107.95092 0.764172 
108.925499 0.364203 
108.958595 1.166224 
109.065056 4.368398 
109.101578 3.54264 
111.044312 0.867833 
116.963737 2.853441 
116.986145 49.030575 
117.070068 2.715075 
118.363869 0.316562 
118.943115 3.407236 
119.085754 9.58257 
119.95092 1.19631 
119.960747 7.050888 
120.080856 0.481407 
120.940704 5.833861 
120.978966 0.342579 
121.101379 1.382556 
122.171104 0.299542 
122.941048 6.339134 
123.61277 0.496377 
124.9366 0.361019 
126.984436 0.804315 
127.955894 0.635934 
128.963623 8.019075 
129.452362 0.378034 
130.979355 3.022694 
131.00032 2.269714 
131.085526 2.227796 
131.95018 0.506886 
131.961685 0.90213 
131.974335 0.607391 
132.958298 24.549728 
133.065063 0.429823 
133.101318 1.687975 
133.496414 0.394435 
133.922867 2.09398 
134.920074 0.56574 
134.956207 11.243812 
134.996521 17.653181 
135.92749 1.382298 
136.920166 6.716503 
137.927963 4.563984 
137.970886 2.067619 
138.915817 0.842539 
138.950989 2.800115 
139.800705 0.378678 
139.923279 0.365048 
140.984344 0.982388 
141.069824 0.349751 
141.587311 0.408754 
142.892502 0.324635 
142.979431 0.484587 
143.085663 2.017702 
143.972763 0.334388 
144.958466 3.525474 
145.101318 1.278766 
145.966583 28.447783 
146.967468 1.466335 
146.974319 20.218782 
147.974686 1.915344 
148.971863 41.719879 
148.989044 0.501983 
149.960953 2.07615 
149.971664 2.655517 
149.985382 0.420111 
150.951141 19.557932 
150.957336 0.344819 
150.968735 31.538692 
151.943451 0.364247 
151.959473 0.816237 
152.896851 2.282061 
152.951431 9.064136 
152.96698 5.373557 
153.006683 0.402549 
153.893906 0.431708 
153.93811 0.411127 
153.95932 18.897308 
154.51149 0.325972 
154.930939 0.602345 
154.946915 1.728993 
155.085617 0.740978 
155.954697 5.147375 
158.973251 0.444115 
159.009949 0.475037 
159.429626 0.377821 
161.982925 0.491086 
163.21637 0.407414 
163.977051 46.969696 
164.977097 2.591992 
165.070129 1.254537 
165.271011 0.446039 
165.508148 0.297506 
166.982452 8.640475 
167.920303 0.527576 
168.961578 7.412988 
169.101669 0.916759 
170.90744 4.941706 
170.962219 2.690323 
171.079926 0.450325 
171.903976 2.266612 
172.904099 0.478698 
174.00589 2.400404 
174.989471 0.314335 
177.938187 1.330428 
178.077698 3.652469 
179.085526 1.60672 
180.093704 3.603798 
180.888107 13.590763 
181.987549 4.296447 
182.888336 0.320784 
183.116455 0.61731 
185.930695 2.808863 
185.949158 3.179614 
186.92749 1.191182 
187.94429 0.919819 
188.116135 0.351889 
188.926758 0.727909 
190.017105 0.474158 
190.662521 0.414791 
191.069519 0.425174 
191.880783 0.50834 
192.093185 0.715314 
192.102219 0.747421 
192.200287 0.401592 
192.961563 3.633817 
193.101028 4.457266 
195.948868 2.059853 
197.875351 0.718597 
198.898499 1.435194 
203.143692 0.998959 
204.888474 1.036433 
205.98761 9.794519 
206.867432 0.507811 
206.925797 0.480198 
206.977417 1.105274 
207.875427 0.869873 
208.883545 0.521855 
208.959061 0.474559 
209.891251 1.90361 
210.971939 0.943173 
214.968079 0.396598 
219.174454 0.550038 
220.470108 1.069287 
220.481949 1.966247 
220.501511 0.50922 
220.903152 4.930642 
221.902115 0.971009 
222.89859 47.310097 
222.925919 0.396649 
223.90065 1.078484 
224.878479 0.594022 
224.899109 2.837197 
225.886078 0.738332 
226.894119 0.883187 
227.900208 0.341486 
228.160629 0.414291 
229.89595 11.373134 
232.883286 0.386276 
233.890762 0.519148 
234.899048 0.800563 
238.913849 8.764812 
239.886017 0.832168 
239.912231 1.129341 
240.909119 100.0 
241.910782 4.533831 
242.9095 17.561796 
244.455444 0.449542 
244.90477 5.589521 
247.906265 10.053542 
248.877808 0.917767 
257.896271 0.471578 
263.865723 0.453515 
264.90921 0.433035 
268.978149 0.49507 
269.982727 0.339843 
273.370209 0.426288 
275.52359 0.327828 
278.009125 0.53475 
279.895905 2.676951 
282.91922 2.407995 
283.891022 0.392754 
284.808502 0.539573 
287.831299 1.178926 
297.815674 0.434186 
302.817932 4.00454 
307.215179 0.361313 
308.461395 0.361886 
312.838196 0.428971 
315.528503 0.391605 
323.685425 0.299962 
325.477295 0.342287 
327.8255 2.692246 
333.669373 0.428181 
336.534912 0.303752 
344.828857 2.063662 
363.572968 0.365778 
374.733643 0.40729 
380.84021 0.385663 
END IONS

