BEGIN IONS
PEPMASS=679.142
CHARGE=1+
COMPOUNDNAME=3-{[(2S,3R,4S,5R,6R)-3-{[(2S,3S,4R,5R,6S)-3,5-dihydroxy-4-methoxy-6-methyloxan-2-yl]oxy}-4,5-dihydroxy-6-methyloxan-2-yl]oxy}-8-hydroxy-15-methyl-11,18-dioxapentacyclo[10.6.2.0�,?.0?,�?.0�?,�?]icosa-1,3,5,7,9(19),12(20),13,15-octaene-10,17-dione
LIBRARYQUALITY=3
SMILES=N/A
INCHIKEY=PONPPNYZKHNPKZ-BAHCCNBTSA-N
INCHI=InChI=1S/C32H32O14/c1-10-8-9-15-18-16(10)29(38)45-26-17-13(23(35)20(19(18)26)30(39)43-15)6-5-7-14(17)44-32-28(24(36)21(33)11(2)42-32)46-31-25(37)27(40-4)22(34)12(3)41-31/h5-9,11-12,21-22,24-25,27-28,31-37H,1-4H3/t11-,12+,21+,22-,24+,25+,27-,28-,31+,32+/m1/s1
MSLEVEL=2
SOURCE_INSTRUMENT=N/A-ESI-QFT
FILENAME=library_mgf.mgf
SEQ=*..*
IONMODE=positive
ORGANISM=MONA
NAME=3-{[(2S,3R,4S,5R,6R)-3-{[(2S,3S,4R,5R,6S)-3,5-dihydroxy-4-methoxy-6-methyloxan-2-yl]oxy}-4,5-dihydroxy-6-methyloxan-2-yl]oxy}-8-hydroxy-15-methyl-11,18-dioxapentacyclo[10.6.2.0�,?.0?,�?.0�?,�?]icosa-1,3,5,7,9(19),12(20),13,15-octaene-10,17-dione [M+K]+
PI=MoNA
DATACOLLECTOR=MoNA:VF-NPL-QEHF001571
PUBMED=N/A
SUBMITUSER=mwang87
TAGS=
SPECTRUMID=CCMSLIB00004692634
SCANS=1571
50.380955 0.235356 
50.391151 0.11594 
50.497997 0.187556 
50.860149 0.086828 
50.870609 0.086574 
51.59425 0.197688 
52.048679 0.124045 
52.335114 0.123592 
52.406776 0.153668 
52.487087 0.156914 
52.967598 0.182999 
53.002922 0.171056 
53.03936 0.303601 
53.063324 0.097997 
53.224117 0.151708 
53.87014 0.171014 
53.94389 0.062229 
54.048912 0.022282 
54.177364 0.201623 
54.26709 0.112015 
54.615372 0.112053 
54.680801 0.074297 
55.018475 0.199041 
55.055 4.976435 
55.162689 0.132616 
55.542542 0.122593 
55.550999 0.071547 
55.651867 0.218524 
55.948372 0.170132 
56.050144 0.023192 
56.058186 0.042082 
56.067829 0.170859 
56.176662 0.097622 
56.348175 0.054227 
56.355221 0.14824 
56.412731 0.020263 
56.5186 0.078632 
56.822685 0.203099 
56.838345 0.209184 
57.034248 5.490122 
57.070652 52.74892 
57.823475 0.092785 
58.065754 0.155207 
58.074017 0.201363 
59.049896 5.13653 
59.061131 12.332491 
59.062588 0.09553 
59.356934 0.168266 
59.621983 0.022309 
59.702888 0.156374 
59.809799 0.080095 
60.045147 0.551434 
60.282726 0.09426 
60.350891 0.092596 
60.434528 0.101467 
61.026325 0.081956 
61.029144 0.877434 
61.162453 0.195714 
61.324799 0.155674 
61.70985 0.123122 
61.938671 0.041349 
62.312565 0.102522 
62.406734 0.185715 
62.764923 0.169294 
63.017879 0.111391 
63.238434 0.118804 
65.522011 0.067663 
66.187424 0.115452 
66.36187 0.174416 
66.404793 0.081321 
66.52314 0.158033 
66.712051 0.118018 
67.054909 7.860145 
67.440323 0.165284 
67.477562 0.107769 
67.768532 0.118645 
68.058273 0.041213 
68.288857 0.058518 
68.297897 0.02274 
69.034149 1.429916 
69.070557 4.838532 
69.346664 0.140085 
69.723015 0.158994 
70.065773 1.025271 
70.820557 0.132711 
71.013245 0.091844 
71.04982 4.159651 
71.086235 26.81241 
71.835075 0.021513 
72.044914 0.023953 
72.081444 0.570699 
72.089378 0.332885 
72.237984 0.13089 
72.842972 0.221372 
73.029068 2.671373 
73.047424 0.558858 
73.06546 1.205101 
73.47747 0.024006 
74.096954 0.023141 
74.611542 0.071617 
75.044731 11.249773 
76.009232 0.089081 
76.048164 0.026747 
77.18869 0.211329 
78.309685 0.211836 
78.32238 0.257925 
79.021736 0.226928 
79.054779 3.982668 
79.968826 0.060773 
80.058128 0.045431 
80.061501 0.201025 
81.033989 0.339508 
81.07048 10.206725 
82.008728 0.187053 
82.073723 0.065425 
82.142052 0.198381 
82.207115 0.155457 
82.230835 0.11648 
82.423737 0.061425 
82.434616 0.100555 
83.049759 9.04502 
83.086044 1.529256 
84.044991 0.069488 
84.081268 0.050109 
85.028999 20.601789 
85.065353 10.955387 
85.101768 11.439341 
85.777573 0.193545 
86.032242 0.068776 
86.060455 0.057421 
86.068481 0.036503 
86.09697 2.269111 
86.561859 0.049088 
86.733757 0.183516 
87.044617 63.977535 
88.047852 0.89866 
88.299828 0.052392 
89.060242 54.495888 
89.270988 0.190737 
89.967964 0.184635 
90.063492 0.736695 
90.585526 0.176356 
91.039391 0.968934 
91.054695 6.546302 
91.057732 1.578442 
92.057892 0.028796 
92.159149 0.098823 
92.995705 0.082135 
93.070366 13.961352 
93.164314 0.185765 
93.216614 0.071969 
93.848465 0.092846 
94.073761 0.214641 
94.455231 0.144423 
94.745216 0.020604 
95.01223 0.087799 
95.049568 2.404759 
95.085991 8.790099 
95.933548 0.163462 
96.089195 0.162352 
96.412231 0.092383 
97.02887 0.573682 
97.065186 0.675477 
97.101547 0.950626 
97.496048 0.074336 
98.060043 0.063522 
98.719582 0.059354 
99.044464 2.502393 
99.080772 0.141406 
99.804794 0.140762 
100.075523 0.02267 
100.112617 0.031643 
100.321335 0.087907 
100.861374 0.191168 
101.060043 0.791051 
102.05529 0.064806 
102.21701 0.10962 
102.333908 0.226582 
103.039185 0.533476 
103.054543 0.045674 
103.486679 0.24888 
103.941994 0.024803 
105.044975 0.02398 
105.070229 4.200322 
106.061584 0.025087 
106.065483 9.359773 
106.073334 0.035054 
107.049339 0.75177 
107.052734 0.119944 
107.070061 0.113824 
107.085876 6.979085 
107.539017 0.190752 
108.081078 0.056287 
108.089279 0.060939 
109.028839 0.039009 
109.065125 1.272858 
109.101532 3.899814 
110.104538 0.042409 
110.504051 0.20777 
111.044304 9.840425 
111.08065 0.303602 
112.087181 0.034649 
112.742775 0.045959 
112.991219 0.092684 
113.059837 0.895432 
113.41172 0.096827 
113.474617 0.179336 
113.518707 0.208941 
113.747765 0.099357 
115.075615 0.941762 
115.271843 0.226238 
115.321373 0.218032 
115.636444 0.07804 
116.052765 0.054903 
116.156258 0.173387 
117.054573 0.032531 
117.069984 0.524038 
117.09124 0.029608 
117.533646 0.224712 
118.065125 0.059008 
119.049271 1.185289 
119.0858 4.669155 
119.774208 0.184189 
120.08078 0.531754 
120.088921 0.029301 
120.45842 0.028448 
121.028496 0.076211 
121.064972 17.028393 
121.101372 4.41727 
121.18718 0.062475 
121.363426 0.234458 
122.068336 0.077375 
123.080536 0.292786 
123.116783 0.515509 
125.059776 0.297838 
125.096085 0.287337 
126.055031 0.032421 
126.879944 0.171062 
127.039146 0.597824 
128.070663 0.058497 
128.951981 0.130752 
129.054657 2.636467 
129.069839 0.079419 
129.166275 0.188574 
130.064987 0.221685 
130.278549 0.128664 
130.653748 0.192847 
131.070175 0.261285 
131.085556 2.574221 
131.091782 0.151659 
131.942596 0.171151 
132.04422 0.084825 
132.080704 0.279551 
132.08876 0.027153 
132.5121 0.117386 
133.064606 0.209812 
133.085983 6.261898 
133.101257 2.629661 
134.088608 0.075851 
134.104416 0.028737 
134.627319 0.05022 
135.044052 0.111878 
135.080475 5.593814 
135.116898 3.360426 
136.075912 0.183695 
136.119934 0.060862 
136.50174 0.114819 
137.059662 0.079507 
137.096008 0.067788 
137.132217 0.037993 
139.07518 0.076165 
139.33046 0.023429 
141.054657 0.082501 
141.113327 0.078526 
141.870834 0.158429 
143.00145 0.104204 
143.070068 0.490347 
143.085434 0.02623 
144.080887 1.139017 
144.452484 0.119074 
145.065002 0.030188 
145.101166 1.621731 
146.059509 0.193015 
146.096252 0.402936 
146.103622 0.054157 
147.080414 7.303442 
147.116699 3.494513 
148.038651 0.02424 
148.076157 0.244569 
148.083344 0.133402 
149.045029 0.040034 
149.096115 4.01214 
149.132324 1.051527 
150.067581 0.056254 
150.114212 0.159172 
150.135742 0.056629 
150.760849 0.158559 
151.038605 0.030096 
153.054352 0.079884 
153.077408 0.214164 
154.122421 0.026776 
155.148499 0.103584 
157.100845 0.128167 
158.060074 2.646142 
158.096375 0.112673 
158.715866 0.235513 
159.068314 0.138541 
159.080292 0.030491 
159.116684 1.217538 
160.075577 0.069217 
160.112106 0.024732 
161.095932 0.201588 
161.13208 0.39967 
162.091354 0.273886 
163.038452 0.067988 
163.074677 0.238713 
163.111679 1.252999 
163.147873 0.270949 
163.756653 0.145793 
164.070175 0.029016 
164.082642 0.070085 
164.106918 0.168765 
165.090851 0.471638 
167.055252 1.070209 
167.070007 0.025773 
168.08075 0.027116 
169.047089 2.844434 
170.096313 0.091491 
171.116196 0.027953 
171.821899 0.196993 
172.0755 0.81735 
172.112381 0.072268 
173.096054 0.035357 
173.132324 0.414036 
174.054657 0.03835 
174.091232 0.567513 
174.528244 0.045987 
175.096085 0.028174 
175.111359 0.128563 
176.070694 0.084931 
177.05481 0.037436 
177.12735 0.889916 
178.085846 0.058798 
178.999863 0.101371 
179.033752 0.241167 
179.070343 0.029105 
179.850525 0.107267 
180.704437 0.12936 
181.071198 0.211916 
182.096375 0.151744 
182.842178 0.10393 
183.104019 0.025143 
183.116638 0.227402 
184.074356 0.214845 
184.111664 0.168086 
185.307983 0.146803 
186.091263 0.12461 
187.075348 0.034067 
187.111923 0.025944 
187.148071 0.194616 
188.07019 0.024967 
188.106827 0.080065 
189.127518 0.026544 
189.16362 0.030091 
190.085739 0.051366 
191.106476 0.028236 
191.142929 0.14882 
191.256577 0.178556 
192.065643 0.04405 
195.0065 0.092132 
195.893799 0.109696 
196.584869 0.10352 
198.091721 0.199072 
200.107086 0.449879 
201.164978 0.028228 
201.568649 0.217756 
202.085434 0.03775 
203.106216 0.026552 
203.734085 0.10374 
204.065353 0.050256 
204.331512 0.10467 
204.370987 0.102294 
205.121704 0.02802 
206.109268 0.077856 
206.118408 0.057251 
206.717697 0.116982 
207.456894 0.21376 
209.414902 0.091004 
211.074997 0.391705 
211.564255 0.047555 
212.106476 0.037707 
214.085739 0.056454 
214.122009 0.033038 
216.102036 0.0291 
217.840515 0.046196 
218.586655 0.147186 
219.174133 0.03874 
221.162994 0.149133 
221.667084 0.060721 
223.063492 0.502094 
223.075348 0.066436 
225.042725 0.249088 
225.365219 0.080757 
226.431122 0.062012 
233.189896 0.090257 
237.079315 2.532462 
237.300095 0.187843 
239.057083 0.023207 
239.07016 8.123652 
240.073746 0.172088 
240.71936 0.16125 
240.908432 0.022869 
241.689453 0.046932 
242.117584 0.429126 
242.995544 0.076369 
243.064697 0.079581 
243.21048 0.037284 
243.254074 0.171813 
244.214172 0.029337 
245.192551 0.201725 
246.566864 0.09261 
247.205521 4.734474 
247.729431 0.067352 
248.106079 0.152815 
248.209457 0.213874 
248.598404 0.093412 
249.054337 0.226785 
249.137756 0.022789 
250.062546 0.123559 
251.046906 2.59255 
251.070328 0.594197 
251.091873 0.027869 
254.469101 0.212736 
255.065384 0.062238 
255.230957 0.049645 
255.49939 0.124447 
256.664001 0.102665 
258.148834 0.034413 
258.640411 0.118098 
260.127777 2.061437 
261.077423 0.028816 
261.130981 0.028091 
261.221039 0.120259 
262.121338 0.050677 
263.068909 0.027783 
265.048981 0.343107 
267.065094 8.014126 
267.573975 0.086948 
268.068573 0.082594 
270.365387 0.04903 
275.152863 0.114526 
275.325989 0.130463 
277.049072 2.593102 
277.21463 0.145348 
277.82663 0.102751 
278.054901 0.027954 
279.065125 0.248579 
281.043365 0.021951 
281.866577 0.10514 
281.912201 0.690427 
282.114258 0.028736 
282.67395 0.208419 
283.060333 0.047696 
283.169037 0.475125 
283.262573 0.066493 
284.106567 0.109588 
285.009888 0.024472 
291.065186 0.032822 
292.284546 0.20348 
293.044159 1.451239 
293.080566 0.063636 
294.052002 1.7821 
295.060059 55.246166 
296.06369 6.864192 
299.061615 0.122382 
304.036804 0.192302 
304.101471 0.159648 
304.720154 0.18798 
305.044281 48.083168 
305.272461 0.227961 
306.04834 7.448626 
306.920166 0.05966 
307.059631 0.66563 
307.109009 2.419978 
309.075775 0.608739 
311.054962 1.473118 
312.058197 0.028243 
319.059662 0.091637 
320.345856 0.211187 
321.039062 5.783958 
321.073456 0.035861 
322.043182 0.196134 
322.914246 0.607432 
323.054993 1.975063 
324.036896 0.185764 
324.058319 0.114324 
327.077881 38.36113 
328.081085 0.148583 
333.039337 0.116952 
334.04657 0.537626 
335.055695 0.024748 
335.829559 0.07666 
336.059326 0.028429 
336.672058 0.066917 
337.070953 0.515305 
338.0224 0.048898 
339.049438 0.056789 
339.811066 0.199805 
343.055725 0.518725 
345.132965 0.193187 
346.277405 0.126784 
351.050842 0.082793 
356.028595 1.880549 
358.841034 0.113304 
359.536743 0.081065 
360.839111 2.209733 
363.171265 0.307983 
366.242645 0.024805 
373.003571 1.661996 
373.031128 4.082297 
378.849213 0.112609 
380.679535 0.213067 
383.140167 88.532021 
384.143738 0.747076 
391.011597 7.838501 
392.016388 0.725465 
393.045868 0.585638 
399.116699 0.304234 
403.513641 0.084267 
404.817352 0.195288 
405.02356 0.095942 
405.836212 0.082539 
408.016541 0.092587 
409.022766 37.852524 
409.739319 0.131533 
410.026062 5.454222 
411.028839 0.112627 
411.642273 0.224328 
414.327881 0.245814 
415.628143 0.068273 
419.043243 0.52421 
419.851624 0.035888 
423.038574 0.979699 
423.847778 0.074835 
427.033508 5.334385 
428.036774 0.795832 
429.31308 0.146858 
430.756622 0.126072 
435.037689 0.351719 
435.577911 0.085769 
435.750183 0.229767 
437.05246 0.079365 
437.18692 0.033864 
439.202667 100.0 
439.377319 0.112096 
440.205994 1.394312 
445.021637 0.182844 
445.072327 0.191822 
447.345703 0.830105 
448.35083 0.128053 
453.374603 0.223319 
455.178223 0.084474 
461.561584 0.104382 
462.141144 0.02511 
463.034515 0.111973 
471.992493 0.097971 
472.110077 0.027208 
475.158203 0.179038 
494.250916 0.032344 
495.26535 44.077728 
496.269409 0.309767 
499.812744 0.082764 
502.933594 0.099416 
520.955505 0.032085 
527.121948 0.026415 
528.529053 0.239326 
532.772095 0.214091 
542.367249 0.105824 
552.546509 0.170062 
555.656372 0.094835 
561.353821 0.083911 
563.718201 0.111163 
564.997437 0.05821 
587.648254 0.028152 
618.039856 0.206409 
622.234924 0.051149 
624.463684 0.044714 
633.976135 0.184741 
635.6875 0.169723 
644.118225 0.223824 
653.732422 0.229146 
677.478027 1.154683 
678.481262 0.224902 
679.459595 3.792248 
680.460999 0.956758 
709.227478 0.111075 
END IONS

