BEGIN IONS
TITLE=Scan Number: 6256
PEPMASS=329.06601
CHARGE=1+
COMPOUNDNAME=aflatoxin G1
LIBRARYQUALITY=3
SMILES=COC1=C2C3=C(C(=O)OCC3)C(=O)OC2=C4C5C=COC5OC4=C1
INCHIKEY=XWIYFDMXXLINPU-UHFFFAOYSA-N
INCHI=
MSLEVEL=2
SOURCE_INSTRUMENT=LC-ESI-Orbitrap
FILENAME=f.liululu/AFT.mzXML;
SEQ=*..*
NOTES=
IONMODE=Positive
ORGANISM=GNPS-LIBRARY
NAME=aflatoxin G1 M+H
SPECTRUMID=CCMSLIB00003741080
ACTIVATION=CID
INSTRUMENT=ion trap
SCANS=6256
50.670143 4402.256348 
55.018154 6521.314941 
64.011986 3675.102539 
68.997414 5428.299805 
70.14743 3694.455078 
79.886314 4291.135254 
79.972092 5111.54248 
80.196831 5398.32373 
98.984161 6917.389648 
106.712387 4432.462891 
115.054718 10094.995117 
117.070259 5461.196777 
128.06221 24394.845703 
129.069321 11257.670898 
135.044312 5395.209961 
141.070053 27862.601562 
143.086746 4908.940918 
152.062988 8547.400391 
153.070358 17055.865234 
155.085556 5000.728516 
157.064697 7577.542969 
158.07283 7366.180664 
159.080887 8411.533203 
168.057343 10612.322266 
169.064957 37617.417969 
171.044449 18250.439453 
171.079559 15815.332031 
172.05246 7420.708984 
181.064743 7711.731445 
183.044983 6297.839844 
184.052277 31926.697266 
185.060089 34300.878906 
186.068054 6806.695312 
187.075958 8981.459961 
197.059937 34117.835938 
198.067627 5687.644043 
199.038971 41558.578125 
199.07608 36318.296875 
200.046829 244037.5 
201.054123 8058.048828 
205.086365 19970.158203 
209.059616 9089.825195 
211.040649 7199.946777 
211.075974 5737.288574 
212.046326 38062.402344 
213.054901 38325.78125 
214.062607 283831.25 
215.049255 10276.259766 
215.070221 319216.84375 
224.046738 9502.510742 
225.055435 22541.0625 
226.063065 21302.707031 
227.069687 51879.367188 
228.041473 32747.15625 
229.050186 5990.803223 
237.05452 7794.504395 
239.034256 11619.1875 
239.069153 7863.062012 
240.041428 41156.394531 
241.049545 39610.441406 
242.056992 41299.121094 
243.065292 315571.625 
253.048706 10067.24707 
255.065186 76500.101562 
267.028748 33135.046875 
268.036713 63666.136719 
269.045441 6628.848145 
270.051788 11553.229492 
282.052551 6066.200195 
283.060211 82123.367188 
295.024445 11090.240234 
296.031494 9592.94043 
300.059906 6315.988281 
311.054138 44434.984375 
313.03476 6317.782227 
328.403748 5252.91748 
329.065552 11200.27832 
END IONS

