BEGIN IONS
PEPMASS=276.0
CHARGE=1+
COMPOUNDNAME=Massbank:KO002827 Eserine|Physostigmine
LIBRARYQUALITY=3
SMILES=CNC(=O)Oc(c3)cc(c(c3)1)C(C)(C2)C(N(C)C2)N(C)1
INCHIKEY=PIJVFDBKTWXHHD-UHFFFAOYSA-N
INCHI=1S/C15H21N3O2/c1-15-7-8-17(3)13(15)18(4)12-6-5-10(9-11(12)15)20-14(19)16-2/h5-6,9,13H,7-8H2,1-4H3,(H,16,19)/t13-,15+/m1/s1
MSLEVEL=2
SOURCE_INSTRUMENT=ESI-LC-ESI-QQ
FILENAME=Massbank_ESI_positive_8_1_2014_peaks.mgf
SEQ=*..*
IONMODE=Positive
ORGANISM=MASSBANK
NAME=Massbank:KO002827 Eserine|Physostigmine [M+H]+
PI=Putative Massbank Match
DATACOLLECTOR=Massbank
PUBMED=N/A
SUBMITUSER=mwang87
TAGS=
SPECTRUMID=CCMSLIB00000218155
SCANS=8629
43.0 19802.0 
43.9 1599011.5 
56.3 321782.5 
56.8 69307.0 
58.1 217822.0 
69.4 54455.5 
72.5 14851.5 
73.1 19802.0 
82.9 84158.5 
84.4 44554.5 
92.3 19802.0 
96.9 29703.0 
101.1 99010.0 
101.9 524753.0 
111.3 202970.5 
121.2 49505.0 
129.0 173267.5 
131.1 24752.5 
133.2 34653.5 
134.3 326733.0 
145.3 29703.0 
146.0 118812.0 
147.1 1910893.0 
157.4 24752.5 
159.9 123762.5 
161.1 1509902.5 
162.3 89564446.0 
171.0 44554.5 
173.3 163366.5 
174.1 143564.5 
176.2 17603978.0 
188.3 5108916.0 
189.3 376238.0 
189.8 19802.0 
197.5 19802.0 
199.4 19802.0 
219.4 5925748.5 
233.3 1103961.5 
245.6 297030.0 
259.4 34653.5 
END IONS

