BEGIN IONS
PEPMASS=449.192
CHARGE=1+
COMPOUNDNAME=(5S,8S)-8-benzoyl-2-[(Z,1S,2S)-1,2-dihydroxyhex-3-enyl]-9-hydroxy-8-methoxy-3-methyl-1-oxa-7-azaspiro[4.4]non-2-ene-4,6-dione
LIBRARYQUALITY=3
SMILES=N/A
INCHIKEY=SLYDIPAXCVVRNY-BBJHAQHQSA-N
INCHI=InChI=1S/C22H25NO8/c1-4-5-11-14(24)15(25)16-12(2)17(26)21(31-16)19(28)22(30-3,23-20(21)29)18(27)13-9-7-6-8-10-13/h5-11,14-15,19,24-25,28H,4H2,1-3H3,(H,23,29)/b11-5-/t14-,15-,19?,21+,22+/m0/s1
MSLEVEL=2
SOURCE_INSTRUMENT=N/A-ESI-QFT
FILENAME=library_mgf.mgf
SEQ=*..*
IONMODE=positive
ORGANISM=MONA
NAME=(5S,8S)-8-benzoyl-2-[(Z,1S,2S)-1,2-dihydroxyhex-3-enyl]-9-hydroxy-8-methoxy-3-methyl-1-oxa-7-azaspiro[4.4]non-2-ene-4,6-dione [M+NH4]+
PI=MoNA
DATACOLLECTOR=MoNA:VF-NPL-QEHF020449
PUBMED=N/A
SUBMITUSER=mwang87
TAGS=
SPECTRUMID=CCMSLIB00004711512
SCANS=20449
50.222149 0.016796 
50.240261 0.013802 
50.847778 0.014242 
51.02338 0.029661 
51.032127 0.013856 
51.07296 0.014965 
51.857563 0.013602 
52.057632 0.012447 
52.153725 0.013521 
53.038914 1.423469 
53.215221 0.015272 
54.224388 0.014089 
54.347301 0.011447 
54.756454 0.016982 
55.018196 0.044175 
55.054535 0.676092 
55.230553 0.018619 
55.622482 0.011327 
55.759544 0.016067 
56.049728 0.015678 
56.136524 0.010065 
56.32283 0.011333 
56.850693 0.011973 
56.965019 1.095892 
57.033779 0.510916 
57.070141 2.830868 
57.974083 0.015551 
58.029171 0.014312 
58.06538 1.867323 
58.841225 0.010201 
59.049408 0.141935 
59.060635 0.144248 
59.185619 0.011349 
59.468586 0.015161 
59.599018 0.010066 
60.044601 3.896262 
60.04734 0.011424 
60.060097 0.016156 
60.080959 0.068001 
61.010849 1.28975 
61.349117 0.011923 
61.444557 0.018387 
62.0187 0.252162 
62.779194 0.00938 
62.805813 0.016831 
63.408279 0.014365 
63.511379 0.016007 
63.687389 0.016019 
63.704563 0.012682 
63.997673 0.02547 
64.983246 0.017561 
65.017807 0.011377 
65.294724 0.015856 
66.172958 0.013963 
66.200905 0.009315 
66.358765 0.009928 
66.847313 0.014 
67.054359 3.97257 
67.309891 0.014036 
67.426796 0.010396 
68.204231 0.011315 
68.865921 0.011707 
69.033577 0.083089 
69.069962 0.774554 
69.32164 0.009894 
69.357323 0.012549 
69.489403 0.011224 
69.752556 0.014158 
70.065208 0.563326 
70.338989 0.014509 
71.049171 0.238153 
71.085579 0.305512 
71.105385 0.012374 
71.14624 0.014894 
71.719032 0.01694 
72.044518 0.086332 
72.074455 0.013548 
72.080833 0.559126 
72.106949 0.017112 
72.554268 0.010654 
72.893806 0.013793 
73.046822 0.243891 
73.064857 0.109989 
73.151466 0.013866 
73.942581 0.010749 
74.231277 0.012641 
74.525604 0.009586 
74.573654 0.010365 
74.93396 0.015246 
77.038673 0.290428 
77.254005 0.013227 
77.975868 0.010353 
78.380226 0.012735 
78.403961 0.009859 
79.021187 1.902568 
79.054184 0.275754 
79.450691 0.010092 
81.033501 1.348181 
81.035889 0.015179 
81.069916 0.749443 
82.026352 0.25358 
82.065094 0.02189 
82.291374 0.013561 
82.318031 0.01341 
83.01281 0.046377 
83.049141 2.173799 
83.085457 0.045572 
83.636467 0.011713 
84.04435 0.044312 
84.080849 0.221299 
84.959732 0.448814 
85.028419 0.060067 
85.064827 5.149194 
85.067642 0.018605 
85.101273 0.024446 
85.858887 0.014384 
86.023865 0.015023 
86.096443 0.725707 
87.044075 0.942761 
88.039268 0.034738 
88.075714 0.144852 
89.059708 1.303061 
89.402596 0.015016 
89.589134 0.020734 
89.81842 0.011897 
89.994408 0.015966 
90.507133 0.017174 
91.05426 1.02247 
91.057411 0.973436 
91.483345 0.012193 
92.057022 0.015416 
92.060158 0.012652 
93.054245 0.084852 
93.069878 0.402981 
93.826729 0.010751 
94.065109 0.025366 
95.035721 0.012076 
95.049141 2.205063 
95.085571 0.289532 
95.456512 0.016272 
96.080711 0.798954 
97.06485 0.304741 
97.101257 0.023019 
98.060005 0.070844 
98.096436 0.04958 
98.357185 0.010713 
98.40995 0.01122 
98.65477 0.014676 
98.975471 0.085364 
99.044014 0.194371 
99.080406 0.137827 
100.075844 0.10441 
100.112045 0.040942 
100.882065 0.01231 
101.059753 0.55925 
102.05497 0.147288 
102.115555 0.015976 
103.054237 0.294813 
104.049332 0.052037 
104.070892 0.019464 
105.033546 85.703209 
105.069923 0.462759 
106.036873 2.121073 
106.065155 1.23348 
107.049133 0.054435 
107.085564 0.246013 
107.750725 0.015877 
108.044846 0.01672 
108.080681 0.033895 
109.028473 0.017422 
109.064804 1.177077 
109.101234 0.164834 
110.060043 0.184163 
110.068092 0.011162 
110.096481 0.016376 
111.044136 4.351114 
111.080208 0.063212 
112.049271 0.022388 
112.075783 0.05704 
112.112358 0.010991 
112.445892 0.011596 
113.023277 0.066339 
113.059647 0.131737 
113.680832 0.010487 
114.054947 0.015963 
114.09124 0.031721 
115.038948 0.076831 
115.07547 0.01095 
116.034271 0.112689 
116.070679 0.065254 
116.107025 0.096235 
116.232903 0.010451 
116.98568 0.109575 
117.069908 0.016674 
117.715965 0.010952 
118.065071 0.272402 
118.08625 0.011157 
118.329788 0.01 
118.677856 0.01719 
119.049141 1.469637 
119.085564 0.187305 
120.080841 0.177409 
121.028481 0.067862 
121.051849 0.017776 
121.064781 2.241592 
121.101028 0.133386 
121.145927 0.010835 
122.060272 0.060702 
123.044029 0.188681 
123.055275 0.027926 
123.080376 0.251917 
123.091515 0.032937 
123.971924 0.012442 
124.075745 0.152006 
124.991035 0.117323 
125.016891 0.015005 
125.023033 0.036054 
125.059677 0.05865 
125.096191 0.116199 
126.052505 0.341157 
126.091354 0.226605 
127.036629 0.390337 
127.075485 0.012373 
128.070221 0.024294 
128.106934 0.056 
128.117218 0.016982 
129.071243 1.405784 
129.563034 0.011743 
130.065109 0.050387 
130.086349 0.013759 
130.158905 0.012598 
130.626938 0.011947 
131.049088 0.044909 
131.070358 0.026177 
131.085434 0.087246 
131.791748 0.015409 
132.044342 1.173125 
133.028595 0.029721 
133.052216 0.316344 
133.064804 0.078217 
133.085846 0.332968 
133.101105 0.077545 
134.059982 4.276454 
134.096252 0.027565 
134.703568 0.027359 
134.965744 0.014155 
134.978714 0.442877 
134.984344 0.030811 
134.996185 0.011631 
135.043945 0.927406 
135.080276 0.163162 
135.116501 0.011021 
135.711868 0.01708 
135.949127 0.022024 
136.075714 0.225917 
136.112045 0.14333 
136.410843 0.013576 
137.011826 0.220095 
137.023331 0.036438 
137.059677 0.290283 
137.09613 0.130179 
137.107208 0.012843 
138.054962 0.034784 
138.091537 0.024215 
138.127762 0.112277 
138.593262 0.016303 
139.03894 5.34807 
139.075089 0.062826 
139.111526 0.016446 
140.070435 0.021228 
140.081955 0.059947 
140.106903 0.013573 
141.055405 0.012865 
141.614441 0.013929 
141.688507 0.015519 
142.059906 0.029561 
142.086014 0.060728 
143.001556 0.713375 
143.085342 0.020921 
144.043945 0.015888 
144.102051 0.077753 
145.034424 0.013073 
145.052231 0.101267 
145.064713 0.017712 
145.101364 0.057949 
145.69046 0.014382 
145.941895 0.017387 
146.060013 0.92011 
147.043991 0.021825 
147.080536 0.074227 
147.091568 0.01293 
147.117096 0.017254 
148.075684 1.23883 
148.972122 0.031595 
149.044327 0.011529 
149.059753 0.514016 
149.070892 0.028738 
149.096176 0.102459 
149.108063 0.014905 
150.054901 0.102057 
150.091385 0.159956 
150.951111 0.068399 
151.039017 0.636542 
151.075302 0.148582 
151.111557 0.014815 
151.969757 0.017491 
152.070099 0.034509 
152.106888 0.872642 
152.951477 0.19918 
152.989151 0.389516 
153.018127 0.642923 
153.054611 0.037973 
153.959335 0.544128 
153.992233 0.273354 
154.086853 0.014273 
154.122971 0.032755 
155.033798 17.76499 
155.068497 0.053448 
156.041946 0.67965 
156.065964 0.012639 
156.076035 0.06836 
157.017563 0.067269 
157.02597 2.002221 
157.0495 15.578281 
157.101334 0.016255 
158.029282 0.051405 
158.99559 0.018513 
159.080612 0.029244 
159.11647 0.079816 
160.039246 0.942087 
160.075821 0.125107 
161.0121 0.796258 
161.047333 0.020187 
161.060181 0.017552 
161.096069 0.070766 
161.132416 0.01726 
162.054871 3.038159 
162.0914 0.137739 
162.952362 0.044472 
162.959564 3.983371 
163.075333 0.185015 
163.343567 0.016471 
163.399246 0.018264 
163.957657 0.113951 
164.070526 5.779246 
164.106964 0.032057 
164.987625 0.041367 
165.054626 1.054784 
165.073837 0.194131 
165.090637 0.096824 
165.102753 0.014335 
166.050232 0.068844 
166.086304 0.102594 
166.122635 0.030013 
166.154663 0.018027 
166.966553 0.016491 
167.001511 0.222789 
167.034225 0.02312 
167.055328 0.264606 
167.069122 0.018662 
168.05484 0.015306 
168.06546 0.236012 
168.962341 0.074655 
169.050217 0.156745 
169.977646 0.019311 
170.044662 0.204648 
170.961456 0.016197 
170.996033 0.014652 
171.06282 0.483131 
171.080261 0.013183 
171.182938 0.018274 
171.859283 0.018436 
172.112869 0.015935 
172.525543 0.04856 
173.011017 0.032552 
173.057571 0.065155 
173.132339 0.013894 
174.055008 0.327113 
174.091003 0.027331 
175.006683 0.119151 
175.02887 0.018333 
175.086685 0.034783 
175.112122 0.017452 
176.035034 0.513567 
176.070572 0.574032 
176.106766 0.039147 
176.988632 0.196204 
177.006805 0.031118 
177.015808 0.190844 
177.042053 0.988396 
177.054535 0.174048 
177.078506 0.177397 
177.091034 0.050695 
178.050446 0.022062 
178.086197 1.69156 
179.001831 0.18327 
179.070374 0.076231 
179.09021 0.015466 
179.106888 0.011415 
179.533539 0.036935 
179.765381 0.01676 
179.954086 0.016273 
179.995468 0.347602 
180.09433 0.010892 
180.101944 0.613719 
180.960999 0.019578 
181.017059 0.551261 
181.086075 0.011465 
181.105286 0.019422 
181.16568 0.011724 
181.531021 0.1871 
182.044754 0.012607 
182.081284 0.067231 
182.117615 1.70721 
182.893326 0.014886 
182.977341 0.125025 
182.996628 0.136893 
183.044205 0.837177 
183.054733 0.043344 
183.120895 0.065668 
183.536255 0.056755 
184.03685 3.133458 
184.112823 0.01692 
184.133286 0.748402 
184.525803 0.309875 
185.012131 0.981789 
185.040451 0.139663 
185.070953 0.146784 
185.128021 0.015973 
185.948761 0.036519 
186.086136 0.036969 
186.523209 0.159712 
187.027634 0.079622 
187.076324 0.01591 
187.086731 0.030202 
188.068146 0.08074 
189.006577 0.296027 
189.613525 0.016327 
190.033859 0.075799 
190.049667 0.391467 
190.536346 0.549986 
191.00145 0.043047 
191.057617 0.119581 
191.07016 0.203246 
191.10643 0.013518 
191.996277 0.019381 
192.026459 0.052259 
192.049423 0.923598 
192.065277 1.486654 
192.10199 0.068793 
192.401352 0.01473 
192.541367 0.201469 
192.961639 2.219807 
192.993454 0.177778 
193.017258 1.247622 
193.03627 0.021792 
193.08609 0.579499 
193.531006 3.751811 
194.044998 0.519765 
194.081238 15.636943 
194.117355 0.015122 
194.154007 0.152983 
194.949493 0.313764 
194.961807 0.136824 
194.997696 0.541147 
195.084717 0.023918 
195.10141 0.180367 
195.113541 0.014201 
195.528 0.074145 
195.948013 0.038103 
195.959717 0.995304 
196.02829 0.071312 
196.050369 0.015573 
196.060349 0.327548 
196.096848 0.216917 
196.133087 0.04855 
196.203445 0.011241 
196.823318 0.012064 
196.957596 0.064486 
197.012207 1.428997 
197.041473 1.386404 
197.059128 0.036205 
197.129028 0.068693 
197.639755 0.009905 
197.96405 0.120997 
197.972626 0.294273 
198.091385 0.019329 
198.148819 0.086503 
198.991913 0.011216 
199.027512 1.117785 
199.037659 0.017369 
199.064484 0.018598 
199.076141 0.152503 
199.085983 1.640235 
199.094162 0.221744 
200.002716 0.120733 
200.090515 0.05211 
200.106461 0.015876 
201.006943 0.665048 
201.101959 0.050441 
201.528381 0.017978 
202.016205 0.083647 
202.049667 0.026579 
202.085587 0.036872 
202.536148 5.973879 
203.022415 0.373406 
203.070145 0.046553 
203.080917 0.011589 
203.525925 0.27067 
204.065582 0.381964 
204.101852 0.013849 
204.938477 0.017978 
205.03804 0.213298 
205.085663 0.075415 
206.012695 0.180278 
206.047073 1.13007 
206.117111 0.015513 
206.557602 0.018506 
207.036377 0.036925 
207.054413 0.017573 
208.028244 0.05852 
208.060303 0.691401 
208.097519 0.048377 
208.472733 0.015125 
208.965073 0.014484 
209.012421 0.171514 
209.046661 0.0194 
209.543884 0.088091 
210.005905 2.590991 
210.533569 0.0145 
210.972229 1.074466 
210.991791 0.206136 
211.003418 0.168863 
211.027664 2.667866 
211.541382 2.099661 
212.0578 0.019912 
212.070724 0.014845 
212.531021 0.323548 
212.972702 0.374264 
212.988113 0.492809 
213.006882 2.922173 
213.043701 0.065153 
213.05455 3.723673 
213.102814 0.013931 
213.337418 1.067949 
213.353577 0.871361 
213.970505 1.231484 
213.985764 0.699228 
214.015411 0.019607 
214.07074 0.098709 
214.536514 0.431686 
214.554062 0.038573 
214.967987 0.129429 
215.022339 0.981712 
215.045135 0.44999 
215.070038 0.115078 
215.089432 0.312459 
215.117661 0.016639 
215.142624 0.014853 
215.982849 0.610862 
216.043427 0.023408 
216.063156 12.664109 
217.038483 0.135656 
217.066452 1.214901 
217.158798 0.781523 
218.012375 1.226632 
218.080353 0.012463 
218.164795 0.671104 
218.539108 0.077092 
218.549927 0.01894 
219.017105 0.035788 
219.031509 0.021247 
219.065155 0.643705 
219.171997 0.161303 
219.990555 0.032141 
220.004166 0.014596 
220.028275 1.118691 
220.06015 1.346479 
220.096542 0.111316 
220.554367 0.016406 
220.98793 0.192058 
221.011963 0.032823 
221.064178 0.027095 
221.080841 0.862453 
222.00679 0.098099 
222.060013 0.056664 
223.003708 0.254835 
223.027542 0.066495 
223.049225 0.176797 
223.062561 0.018961 
223.076797 0.14672 
223.097 0.030115 
223.541504 0.073567 
223.985199 1.309513 
224.022766 1.04478 
224.128983 0.011222 
224.983353 0.200498 
225.007095 0.215107 
225.042603 0.168631 
225.064682 0.014264 
225.084869 0.02378 
225.272034 0.014489 
225.457169 0.016859 
226.002121 0.237366 
226.047699 0.03695 
226.08609 0.431996 
226.106827 0.016389 
226.121719 0.013983 
226.554443 0.416814 
226.636169 0.011716 
227.022781 0.078628 
227.070236 1.813566 
227.543701 0.021743 
228.016891 1.67501 
228.064148 0.016442 
228.984024 0.025406 
229.001953 1.533122 
229.038086 0.228759 
229.060898 0.194767 
229.073563 0.021064 
229.097122 0.041423 
230.046326 0.037893 
230.080429 0.062634 
230.998367 3.699905 
231.017471 7.374413 
231.053314 0.018698 
231.063995 0.027057 
231.10083 0.061388 
231.138 0.014869 
231.978577 0.016524 
231.996429 0.428587 
232.028229 1.291784 
232.13205 0.012887 
232.536011 0.132827 
233.049026 0.015578 
233.078979 0.17138 
233.153519 0.082963 
233.54361 0.102317 
234.043854 0.128736 
234.076035 0.204698 
234.895325 0.046565 
235.039459 0.019001 
235.060287 0.090351 
235.13089 0.011785 
235.142548 0.017483 
235.559433 1.597992 
235.89209 0.377328 
236.022949 3.463826 
236.090591 0.012625 
236.149185 0.84621 
237.042923 0.241164 
237.076263 0.038849 
237.154358 0.016807 
237.887177 1.042255 
238.001297 0.545764 
238.038376 0.559207 
238.107101 0.133296 
238.887527 0.043231 
239.022156 0.06234 
239.5439 0.937184 
239.885178 0.03938 
239.998367 0.052729 
240.017258 0.198228 
240.027496 0.059179 
240.159943 0.016208 
240.533646 0.356794 
240.909149 0.011842 
240.98262 0.750809 
240.995148 0.058314 
241.014572 0.020948 
241.037079 0.017355 
241.073441 0.021341 
241.085892 0.013547 
241.541397 0.523074 
241.579315 0.021882 
242.033142 0.453508 
242.080933 0.253531 
242.116241 0.011986 
242.56868 0.013472 
243.017639 0.488589 
243.074814 0.092317 
243.086899 0.292556 
243.120285 0.05344 
244.012741 0.844858 
244.027542 0.020546 
244.044205 0.185144 
244.095444 0.364372 
244.565094 0.816385 
244.997437 0.016963 
245.014542 0.057836 
245.033615 0.110878 
245.051025 0.06326 
245.080566 1.581984 
245.526505 0.023361 
245.543167 0.016324 
245.955414 0.014537 
246.008423 0.046393 
246.028397 0.343019 
246.042725 0.013063 
246.060165 0.017718 
246.074921 0.073396 
246.140656 0.015191 
246.995773 0.01808 
247.012573 2.474571 
247.026123 0.028505 
247.060104 0.665679 
247.144547 0.016048 
247.541367 0.069128 
247.907516 0.025214 
247.972733 0.040091 
247.985001 0.015716 
248.022552 0.059199 
248.055984 0.061803 
248.54924 1.242603 
248.990189 0.015819 
249.02829 0.951708 
249.041656 0.055255 
249.057007 0.061976 
249.538513 0.050291 
250.002518 0.140314 
250.038422 7.725755 
250.070114 0.012678 
250.106339 0.013345 
250.178299 0.032383 
250.54715 0.063155 
250.9328 0.017627 
251.055069 0.039496 
251.068497 0.016183 
251.117645 0.324174 
251.980301 0.045812 
252.01799 0.24212 
252.065811 0.070384 
252.121979 0.016229 
252.551636 0.143663 
252.906509 0.020237 
253.036758 0.057929 
253.049805 0.263755 
253.541122 0.018677 
253.902496 0.686494 
253.996689 0.020147 
254.03334 0.761224 
254.081177 1.608409 
254.531006 1.340809 
254.980179 0.040368 
255.026382 0.48052 
255.052963 0.694875 
255.098557 0.01883 
255.89772 2.47536 
256.012695 0.563255 
256.057678 0.095919 
256.081665 0.95154 
256.095978 0.273789 
256.898499 0.172431 
257.042419 4.223964 
257.06601 0.045116 
257.082031 0.063701 
257.554474 0.039978 
257.895142 0.204118 
258.02887 0.096755 
258.045776 0.465547 
258.077362 0.050146 
259.013092 0.110714 
259.02774 0.030557 
259.057709 0.16148 
259.096405 0.026676 
259.115356 0.226756 
260.021454 0.153008 
260.057678 0.319298 
261.027893 0.638945 
261.043213 0.21191 
261.072998 0.018999 
261.19632 0.182446 
261.539062 0.126485 
261.887573 0.062446 
262.018311 0.585199 
262.038605 0.089085 
262.200226 0.013211 
263.023529 0.021818 
263.536133 3.943715 
264.017639 1.435366 
264.053619 0.080494 
265.022888 0.473506 
265.037476 0.022834 
265.049744 0.032272 
265.070953 0.114052 
265.255859 0.01968 
266.033722 0.072639 
266.070251 0.025259 
267.048248 0.102872 
268.012726 1.094279 
268.04892 2.557417 
269.068848 0.122519 
269.148621 0.010751 
269.907837 0.161712 
270.02832 0.636014 
270.075928 0.943758 
270.544128 0.955163 
270.904419 0.021928 
271.007904 0.037058 
271.027893 0.375911 
271.080933 0.12336 
271.094849 0.05606 
271.988739 0.151046 
272.007416 0.666139 
272.023041 0.019377 
272.042389 0.017752 
272.054626 0.058753 
272.091492 2.871642 
272.541595 0.342031 
272.991486 0.021527 
273.037567 0.738476 
273.060699 0.217255 
273.076294 0.115097 
273.909088 0.013705 
274.004364 0.019077 
274.023529 0.025251 
274.03891 0.163378 
274.054291 1.187668 
274.069794 0.147265 
274.107147 0.080761 
275.026489 0.09945 
275.04248 1.925959 
275.057037 0.108611 
275.077209 0.017771 
275.427734 0.01791 
276.017303 0.05441 
276.045074 0.167739 
276.123047 0.228748 
277.039154 0.596373 
277.902313 0.55591 
278.033264 0.28607 
278.100128 0.087424 
278.90271 0.050207 
279.053741 0.298409 
279.085938 0.011601 
279.549408 0.935007 
279.897858 2.755861 
280.047729 0.094985 
280.898712 0.320433 
281.033234 0.036147 
281.895813 0.219485 
281.992157 0.019001 
282.02829 1.251167 
282.043976 0.221957 
282.06134 0.024591 
283.028473 0.054501 
283.047211 0.06712 
284.042847 0.026258 
284.059906 0.02659 
284.076996 0.460531 
284.092712 0.135986 
285.043396 0.406127 
285.060333 0.088083 
285.078491 0.036744 
286.00531 0.137265 
286.023102 0.866814 
286.039154 0.045581 
286.074707 0.113692 
286.092255 0.763648 
286.107574 0.031972 
287.023529 0.023029 
287.04303 0.128114 
287.093384 0.041834 
287.126099 0.036783 
287.918518 0.434576 
287.974274 0.023135 
287.992554 4.150103 
288.038727 0.542127 
288.054993 0.146982 
288.087524 0.121657 
288.128357 0.045801 
288.916107 0.293904 
289.000122 0.020966 
289.037933 2.44365 
289.118286 0.064294 
290.017731 0.020903 
290.033478 0.321612 
290.067474 0.122518 
291.05426 0.238953 
291.071228 2.857568 
291.111877 0.055845 
291.934631 0.012948 
292.049164 0.398605 
292.073486 0.51819 
292.931396 0.01908 
293.032898 0.585981 
293.06958 0.202159 
293.128235 1.529392 
293.908051 0.291058 
294.028168 0.379628 
294.064514 1.774214 
294.13446 0.311168 
294.905945 0.244577 
295.048706 0.427936 
295.067566 0.060755 
295.194214 7.203802 
295.91214 0.055101 
296.043457 0.020372 
297.045868 0.019218 
297.064331 0.817694 
297.908508 0.613164 
298.039062 0.274996 
298.07135 0.913057 
298.090393 0.021105 
298.105774 0.031187 
299.021515 0.018827 
299.088928 4.853467 
300.0383 0.745695 
300.054688 0.617173 
300.072327 0.235038 
300.092346 0.867362 
300.537048 0.013419 
301.038666 1.400143 
301.054749 0.017634 
301.075195 0.017851 
301.095306 0.450232 
302.034943 0.018791 
302.068207 0.177897 
302.102295 0.054431 
302.138458 0.041542 
303.054169 0.88989 
303.071289 0.1336 
303.141571 0.300318 
303.840393 0.020011 
304.012939 0.743483 
304.031616 0.05016 
304.049622 0.118761 
304.167542 0.013039 
305.032928 0.768859 
305.064087 2.6645 
305.163422 0.014791 
306.002502 0.036407 
306.028076 0.18751 
306.056366 0.035949 
306.137329 0.013407 
307.014801 0.012467 
307.048676 7.038812 
307.10434 0.013673 
307.947937 0.013721 
308.007935 0.077047 
308.044037 0.139967 
308.112488 0.059117 
309.02774 0.041643 
309.062988 0.020322 
309.082092 0.200512 
309.123108 0.517615 
309.918243 0.574666 
309.94458 0.93916 
310.020935 0.015629 
310.038727 0.751667 
310.057343 0.077413 
310.920807 0.242754 
310.9422 0.912607 
311.022705 0.038474 
311.043365 0.361369 
311.189789 0.0258 
311.918335 4.502419 
312.055664 0.113405 
312.074341 1.378877 
312.14798 0.905508 
312.916351 3.673135 
313.058502 0.12726 
313.204895 38.134624 
314.033783 0.125724 
314.068878 0.210299 
314.087463 0.353201 
315.054657 0.045476 
315.073639 0.048682 
315.091187 0.017137 
316.011597 0.015497 
316.049286 0.779794 
316.081909 0.419033 
316.123322 0.259614 
316.984863 0.018384 
317.033264 0.198636 
317.127899 0.012931 
318.027832 0.180465 
318.064941 0.147941 
319.04834 1.287698 
319.080292 0.02891 
319.982574 0.454455 
320.042816 0.182174 
321.027924 0.068319 
321.064117 0.406981 
321.123352 0.043707 
321.143402 0.030968 
322.023346 0.710388 
322.058075 0.019881 
323.021484 0.01557 
323.043945 0.173989 
323.138947 0.46137 
324.004395 0.020829 
324.054932 0.177272 
324.141632 0.018108 
325.059052 1.127221 
325.959839 0.057024 
326.01651 0.184766 
326.034729 0.553806 
326.091949 0.019861 
326.931702 0.015409 
327.22052 0.756478 
327.929108 0.021176 
327.954956 1.036571 
328.049011 2.70403 
328.931976 0.022949 
328.952759 0.877339 
329.033234 0.989753 
329.102631 0.017932 
329.929047 2.214377 
329.951294 0.020894 
330.028198 0.019777 
330.064301 0.407875 
330.09848 0.070267 
330.131927 0.049091 
330.15802 0.021275 
330.926666 6.330447 
331.04837 0.12131 
331.215363 15.212271 
332.056824 0.78946 
332.078613 0.014011 
332.147888 0.027754 
333.029663 0.023618 
333.063751 3.932434 
333.122986 0.191353 
333.159973 0.243033 
334.023285 0.029655 
334.065552 1.045068 
334.133881 3.214657 
334.15918 0.051114 
335.061951 0.501227 
335.138153 0.947343 
336.018005 0.051585 
336.051575 1.522079 
336.073517 0.019579 
336.152985 0.052987 
336.221069 0.021544 
337.02417 0.019567 
337.054199 0.355706 
337.089691 1.720964 
337.111938 0.019743 
337.16153 1.348034 
338.03244 0.167 
338.052032 0.664166 
338.167114 0.365663 
339.03894 0.021676 
340.050385 0.189087 
340.167664 0.015679 
342.0047 0.032538 
342.028717 0.03853 
342.065155 0.910214 
342.095184 1.381125 
343.098785 0.20668 
343.171356 0.055368 
344.044281 2.278997 
344.099518 0.01593 
345.004089 0.459037 
345.149048 0.014932 
345.231201 0.234572 
346.059174 1.285427 
346.126709 0.017084 
347.042908 1.367282 
347.094971 0.015864 
347.167603 0.203114 
348.038605 0.092662 
348.072266 0.182042 
349.022552 0.206922 
349.059052 0.148128 
350.067413 4.535538 
351.074585 18.447266 
351.11618 0.028492 
352.077515 5.468394 
353.072083 3.511239 
354.028534 2.419313 
354.074615 0.111511 
354.988708 0.161923 
355.061096 0.015837 
355.0849 0.037827 
356.041229 1.164933 
356.062897 1.403139 
357.064362 0.256216 
357.208221 0.041825 
358.059784 0.847493 
358.161774 0.015653 
358.843964 0.209335 
359.844055 0.019131 
360.038605 0.28866 
360.074768 0.328671 
360.839203 0.863525 
361.055969 0.036724 
361.180847 0.903627 
362.028381 0.03475 
362.054382 0.805689 
362.184662 0.104857 
363.014008 0.931061 
363.129974 0.0315 
364.005554 0.139602 
364.1362 0.670631 
365.053833 0.094948 
365.089417 0.273008 
366.065186 0.090922 
366.83786 0.016068 
367.033203 0.797879 
367.058929 0.016642 
368.044159 0.954803 
370.000763 0.414753 
371.002563 0.015335 
371.162018 0.689613 
372.000763 0.340539 
372.038605 8.314044 
372.078247 0.063955 
372.165375 0.028948 
372.999054 3.993459 
373.042786 0.025633 
373.09552 0.057313 
373.208252 3.90637 
374.052155 0.897901 
374.073883 0.198148 
375.082184 0.29933 
376.07016 0.164727 
376.103699 0.015785 
377.139679 0.653034 
377.855713 0.019991 
378.049011 0.045415 
378.143616 0.016865 
378.849701 0.028796 
380.065155 0.023218 
381.064423 0.020362 
384.038696 0.07494 
384.076141 0.110379 
385.255341 0.051676 
386.05423 4.230285 
386.121063 0.01748 
386.255951 0.01351 
387.124481 0.049915 
387.160095 0.313252 
388.010284 0.114987 
388.035522 0.085809 
388.069214 0.77054 
389.0914 0.058671 
389.149384 0.067263 
389.214844 0.28044 
390.01178 0.382921 
390.049133 3.439045 
390.091492 0.047605 
390.116669 0.035342 
390.148285 0.040201 
390.218903 0.01558 
391.009308 1.829415 
391.145874 0.030813 
391.193268 0.015144 
391.218567 0.537771 
392.064728 0.022584 
393.075623 0.106813 
393.179993 0.016318 
393.210083 0.128613 
397.138672 0.01551 
400.07428 0.017946 
402.049255 0.17584 
403.198761 0.016465 
404.032715 0.114923 
404.064819 4.280291 
404.131805 0.498793 
404.158875 0.195863 
405.135681 1.136682 
405.169708 9.396472 
406.143799 0.175686 
406.173492 2.194336 
406.845154 0.121905 
407.141937 0.175672 
407.174866 0.220208 
408.126068 4.773732 
411.049683 0.042308 
416.069336 0.105177 
417.210236 0.038574 
418.087952 0.211259 
419.215759 0.022326 
419.853271 0.033609 
421.070312 0.030926 
421.212982 0.149632 
422.038208 0.092921 
422.075684 0.040434 
425.065216 0.122046 
427.07019 0.021296 
429.054688 0.020024 
429.209259 0.032874 
431.19339 0.016201 
432.153992 0.014923 
435.131714 0.326902 
436.069672 0.017847 
436.130676 0.037376 
438.083954 0.035391 
441.482971 0.01776 
443.075012 0.294163 
447.138428 0.038902 
447.219971 1.300588 
447.262543 1.730904 
447.292694 0.968726 
447.352478 0.626086 
448.141846 0.154963 
448.177826 1.710765 
448.225464 0.638757 
448.268219 1.345019 
448.299622 0.239282 
448.356537 0.091178 
449.213196 2.373911 
449.28714 100.0 
450.116394 0.102114 
450.210571 0.791164 
450.246613 0.599742 
450.290497 25.555861 
450.745361 0.114425 
451.132263 0.221219 
451.182617 0.323419 
451.214539 9.371454 
451.251709 3.927447 
451.29245 2.604347 
464.064697 0.058249 
END IONS

