BEGIN IONS
PEPMASS=1339.68
CHARGE=1+
COMPOUNDNAME=POLYMYXIN B SULFATE
LIBRARYQUALITY=3
SMILES=N/A
INCHIKEY=HFMDLUQUEXNBOP-UHFFFAOYSA-N
INCHI=InChI=1S/C56H98N16O13.H2O4S/c1-7-32(4)13-11-12-16-44(75)63-36(17-23-57)51(80)72-46(34(6)74)56(85)68-39(20-26-60)48(77)67-41-22-28-62-55(84)45(33(5)73)71-52(81)40(21-27-61)65-47(76)37(18-24-58)66-53(82)42(29-31(2)3)69-54(83)43(30-35-14-9-8-10-15-35)70-49(78)38(19-25-59)64-50(41)79;1-5(2,3)4/h8-10,14-15,31-34,36-43,45-46,73-74H,7,11-13,16-30,57-61H2,1-6H3,(H,62,84)(H,63,75)(H,64,79)(H,65,76)(H,66,82)(H,67,77)(H,68,85)(H,69,83)(H,70,78)(H,71,81)(H,72,80);(H2,1,2,3,4)
MSLEVEL=2
SOURCE_INSTRUMENT=N/A-Linear Ion Trap
FILENAME=library_mgf.mgf
SEQ=*..*
IONMODE=positive
ORGANISM=MONA
NAME=POLYMYXIN B SULFATE M-H
PI=MoNA
DATACOLLECTOR=MoNA:VF-NPL-LTQ007724
PUBMED=N/A
SUBMITUSER=mwang87
TAGS=
SPECTRUMID=CCMSLIB00004691000
SCANS=6621
738.469971 1.441946 
898.460022 8.251735 
1037.380005 3.561983 
1081.390015 7.532452 
1099.449951 34.997177 
1135.560059 13.835507 
1153.5 27.458881 
1176.680054 4.373814 
1180.969971 1.625662 
1197.48999 4.488473 
1197.630005 11.366188 
1203.619995 7.835705 
1215.530029 13.401955 
1215.630005 16.803768 
1233.630005 2.015892 
1239.390015 12.039249 
1241.52002 11.152033 
1241.709961 1.880146 
1259.5 61.884689 
1275.51001 3.962214 
1277.560059 100.0 
1287.089966 6.225271 
1303.369995 19.590439 
END IONS

