BEGIN IONS
PEPMASS=455.0
CHARGE=1+
COMPOUNDNAME=Massbank:KO003957 Ribostamycin|Vistamycin
LIBRARYQUALITY=3
SMILES=NC[C@@H](O1)[C@@H](O)[C@H](O)[C@@H](N)[C@H]1O[C@H]([C@@H](N)2)[C@H](O[C@H](O3)[C@H](O)[C@H](O)[C@@H](CO)3)[C@@H](O)[C@H](N)C2
INCHIKEY=NSKGQURZWSPSBC-VVPCINPTSA-N
INCHI=1S/C17H34N4O10/c18-2-6-10(24)12(26)8(21)16(28-6)30-14-5(20)1-4(19)9(23)15(14)31-17-13(27)11(25)7(3-22)29-17/h4-17,22-27H,1-3,18-21H2/t4-,5+,6-,7-,8-,9+,10-,11-,12-,13-,14-,15-,16-,17-/m1/s1
MSLEVEL=2
SOURCE_INSTRUMENT=ESI-LC-ESI-QQ
FILENAME=Massbank_ESI_positive_8_1_2014_peaks.mgf
SEQ=*..*
IONMODE=Positive
ORGANISM=MASSBANK
NAME=Massbank:KO003957 Ribostamycin|Vistamycin [M+H]+
PI=Putative Massbank Match
DATACOLLECTOR=Massbank
PUBMED=N/A
SUBMITUSER=mwang87
TAGS=
SPECTRUMID=CCMSLIB00000220431
SCANS=9749
166.4 19802.0 
239.4 227723.0 
289.1 326733.0 
290.3 163366.5 
295.4 103960.5 
308.3 217822.0 
311.0 14851.5 
318.1 24752.5 
323.8 29703.0 
342.8 14851.5 
379.3 133663.5 
395.1 29703.0 
397.3 39604.0 
419.1 39604.0 
454.1 14851.5 
455.7 15227738.0 
456.5 54455.5 
END IONS

