BEGIN IONS
PEPMASS=405.264
CHARGE=1+
COMPOUNDNAME=MoNA:693451 (1S,3R,7S,8S,8aR)-8-{2-[(2R,4R)-4-hydroxy-6-oxotetrahydro-2H-pyran-2-yl]ethyl}-3,7-dimethyl-1,2,3,7,8,8a-hexahydronaphthalen-1-yl (2S)-2-methylbutanoate
LIBRARYQUALITY=3
SMILES=N/A
INCHIKEY=PCZOHLXUXFIOCF-BXMDZJJMSA-N
INCHI=InChI=1S/C24H36O5/c1-5-15(3)24(27)29-21-11-14(2)10-17-7-6-16(4)20(23(17)21)9-8-19-12-18(25)13-22(26)28-19/h6-7,10,14-16,18-21,23,25H,5,8-9,11-13H2,1-4H3/t14-,15-,16-,18+,19+,20-,21-,23-/m0/s1
MSLEVEL=2
SOURCE_INSTRUMENT=LC-ESI-QFT-LC-ESI-QFT
FILENAME=output_mgf.mgf
SEQ=*..*
IONMODE=
ORGANISM=MONA
NAME=MoNA:693451 (1S,3R,7S,8S,8aR)-8-{2-[(2R,4R)-4-hydroxy-6-oxotetrahydro-2H-pyran-2-yl]ethyl}-3,7-dimethyl-1,2,3,7,8,8a-hexahydronaphthalen-1-yl (2S)-2-methylbutanoate [M+H]+
PI=MoNA
DATACOLLECTOR=MoNA
PUBMED=N/A
SUBMITUSER=mwang87
TAGS=
SPECTRUMID=CCMSLIB00000566933
SCANS=4184
57.07 0.565107 
65.0386 1.709349 
67.0542 10.231909 
68.9971 1.185584 
69.0334 0.48364 
69.0698 5.657272 
71.0127 3.20323 
71.0491 1.607297 
77.0385 1.560175 
79.0542 30.923872 
81.0698 29.795548 
83.0491 8.827581 
85.0648 2.119554 
89.0232 0.515693 
91.0542 24.468206 
93.0698 14.944431 
95.0491 5.794906 
95.0855 5.306733 
97.0648 3.523573 
103.054 0.672574 
105.0448 2.657314 
105.0699 42.425276 
107.0855 12.436232 
109.0648 2.037021 
109.1012 1.289677 
115.054 5.185909 
116.0619 2.199361 
117.0698 14.835909 
119.0854 22.597841 
121.0647 1.213165 
121.1011 2.971601 
127.0544 0.336701 
128.0619 22.885293 
129.0698 20.528297 
130.0777 7.076742 
131.0855 42.523497 
133.1011 5.348112 
135.0803 0.538857 
135.1166 0.496137 
141.0698 11.173001 
142.0778 24.891763 
143.0856 100.0 
144.0933 14.342191 
145.1011 33.629328 
147.0804 0.640487 
147.1165 1.39181 
149.0963 0.595843 
153.0699 2.96354 
154.0776 7.269381 
155.0604 1.705566 
155.0854 25.000466 
156.0934 16.814757 
157.1011 25.845346 
158.109 21.055517 
159.1168 18.526319 
165.07 2.379804 
166.0776 1.192307 
167.0855 4.943303 
168.0933 8.250087 
169.1011 31.944431 
170.1086 2.449887 
171.1167 15.140519 
173.1324 19.01184 
178.0774 1.210063 
179.0855 3.619643 
180.0933 1.157216 
181.1012 7.132631 
182.1091 3.767502 
183.1169 15.945709 
184.1248 1.254367 
185.1327 0.709914 
191.0856 0.58491 
192.0933 3.076738 
193.1013 3.890313 
194.109 0.672298 
195.1168 5.189159 
196.1246 3.514182 
197.1323 6.241606 
198.1405 0.48559 
199.1481 10.778985 
201.1641 0.47355 
205.1013 1.428896 
206.1094 0.438713 
207.1168 2.946672 
208.1248 1.441581 
210.1403 2.715785 
211.1117 0.597363 
211.1481 1.543901 
219.1171 1.607283 
223.1481 3.376912 
225.1637 6.72019 
234.1402 0.566217 
END IONS

