BEGIN IONS
PEPMASS=466.248
CHARGE=1+
MSLEVEL=2
SOURCE_INSTRUMENT=LC-ESI-qTof
FILENAME=f.RReher/Golden lab/ColumbamideA-C_reference/ColumbamideA.mgf;
SEQ=*..*
IONMODE=Positive
ORGANISM=GNPS-LIBRARY
NAME=Columbamide A M+H
PI=Gerwick
DATACOLLECTOR=Kleigrewe
SMILES=ClCCCCCCC(Cl)CCCC/C=C/CCC(N(C)[C@@H](COC)COC(C)=O)=O
INCHI=
INCHIAUX=
PUBMED=
SUBMITUSER=RReher
LIBRARYQUALITY=3
SPECTRUMID=CCMSLIB00005464636
SCANS=1
100.073761 142.102844 
101.054192 118.005432 
101.078056 130.020828 
102.090279 17899.476562 
102.11068 1197.686401 
102.122566 1068.060669 
102.140419 582.334656 
102.167023 288.508942 
102.18602 619.157959 
102.208946 245.570648 
102.244736 116.058823 
102.36142 110.583336 
103.025589 206.314102 
105.067017 507.550446 
107.08474 522.534485 
109.100609 1633.46936 
109.128654 149.333328 
110.061935 220.889038 
111.065346 217.349487 
111.083511 168.349213 
112.074409 406.862061 
113.082741 3659.326416 
113.117508 322.545807 
113.135284 160.008331 
113.183769 132.049606 
114.084953 113.24662 
117.042633 150.900864 
119.082901 546.919739 
120.101288 1177.741089 
120.122635 168.004028 
121.099998 588.880371 
121.131859 115.005951 
122.095924 105.680557 
123.079903 166.03125 
123.114906 494.408325 
124.07103 125.526642 
127.097046 248.139603 
128.070618 1180.059204 
128.114761 124.017311 
129.047699 139.351746 
130.084839 2460.842041 
130.10733 311.274384 
130.125198 226.166046 
131.068588 685.47937 
133.100845 403.875 
135.118057 150.083328 
138.072632 120.53125 
138.090332 252.232697 
139.112976 111.440216 
142.084579 467.005707 
143.060104 727.928711 
143.092682 1930.529541 
143.130753 157.888885 
143.147827 116.545456 
144.100098 6654.390137 
144.132996 507.668213 
144.156555 236.508804 
144.182785 150.321426 
144.21376 195.370621 
145.100357 123.177635 
146.078384 309.5625 
147.116501 263.51062 
149.127701 166.49234 
152.098846 119.449074 
154.086975 160.288269 
156.099823 3988.730469 
156.12088 299.432129 
156.138748 270.071442 
156.164093 189.51059 
156.21489 128.160721 
157.071457 136.380753 
161.90683 115.907257 
162.110626 4516.901855 
162.131241 493.429749 
162.150345 352.692627 
162.181519 137.163467 
162.200378 137.136368 
162.230728 142.59375 
166.123474 233.378311 
168.099304 126.75 
169.08223 166.715332 
169.108337 107.248077 
170.110886 127.32692 
171.087479 690.884949 
171.120819 139.83696 
172.093231 486.0 
182.114655 441.513367 
182.154785 165.125 
184.093796 1217.684937 
184.130524 145.778564 
185.107208 268.005676 
194.114548 130.570648 
195.091354 121.032143 
196.097275 132.059204 
196.128845 362.809967 
198.147781 159.120102 
210.149979 448.676605 
224.155899 190.267548 
227.157303 140.008926 
234.177948 117.644997 
246.22728 120.656815 
251.154709 252.645157 
278.208618 107.537788 
280.234558 166.115738 
292.22345 321.064514 
300.20166 107.0 
302.247131 499.959991 
320.21994 124.5 
320.259308 812.603577 
320.312592 110.48214 
334.272644 32533.185547 
334.356812 1301.001343 
334.444275 509.117279 
334.662262 132.97998 
334.706635 123.494186 
334.959137 117.933113 
334.988159 123.645332 
335.111389 145.369431 
335.15683 105.735657 
335.273865 1283.309082 
338.223724 1521.259155 
339.223969 124.162636 
340.227295 181.1427 
348.246246 129.164474 
356.233337 4055.145264 
356.305573 343.462952 
362.26535 7944.418945 
362.304901 1149.166626 
362.385284 235.004303 
362.407776 198.190475 
362.444061 225.256256 
362.497192 113.041664 
363.270447 354.311859 
364.132324 152.714279 
367.182373 113.512497 
367.495697 145.0 
367.851715 117.822762 
370.24939 122687.734375 
371.165558 118.527313 
371.253296 3107.05542 
371.311523 395.891296 
371.40921 118.212601 
371.475494 112.405815 
371.512665 167.381927 
371.563232 171.528931 
371.640442 119.767792 
371.775452 111.931213 
371.866364 150.714279 
371.900391 173.652206 
371.955505 178.071625 
372.071777 125.668518 
372.128479 131.268188 
372.243866 401.220734 
372.42511 154.218658 
372.535339 111.269691 
372.591248 155.751984 
373.672638 114.874062 
374.910156 125.80278 
392.20459 149.60228 
392.22821 106.125 
398.243927 36337.921875 
398.346497 1371.365234 
398.427979 971.848083 
398.672028 176.218002 
398.81189 120.63768 
399.109528 134.395432 
399.246857 1171.457275 
399.293396 169.029678 
399.364136 129.367432 
399.423584 116.991432 
399.634521 108.557106 
400.221741 105.558937 
400.249817 115.143272 
406.225952 1416.290283 
406.300323 133.066666 
430.276276 245.643616 
434.218445 804.920532 
434.257446 114.25 
466.23938 156.560059 
END IONS

