BEGIN IONS
PEPMASS=763.0
CHARGE=2+
MSLEVEL=2
SOURCE_INSTRUMENT=LC-ESI-qTof
FILENAME=1G2_763_RG2_01_9773.mzXML
SEQ=*..*
IONMODE=Positive
ORGANISM=GNPS-LIBRARY
NAME=Antanapeptin C M+Na
PI=Dorrestein/Gerwick
DATACOLLECTOR=Peng/Luzzatto/Garg
SMILES=CCCCCC1OC(=O)[C@H](C(C)CC)N(C)C(=O)[C@@H]2CCCN2C(=O)[C@@H](OC(=O)[C@H](CC2=CC=CC=C2)N(C)C(=O)[C@@H](NC(=O)C1C)C(C)C)C(C)C
INCHI=InChI=1S/C41H64N4O8/c1-11-13-15-22-32-28(8)36(46)42-33(25(3)4)38(48)43(9)31(24-29-19-16-14-17-20-29)40(50)53-35(26(5)6)39(49)45-23-18-21-30(45)37(47)44(10)34(27(7)12-2)41(51)52-32/h14,16-17,19-20,25-28,30-35H,11-13,15,18,21-24H2,1-10H3,(H,42,46)/t27?,28?,30-,31-,32?,33-,34-,35-/m0/s1
INCHIAUX=NIFSOTSGUFBSPF-CVZHIFNESA-N
PUBMED=ChemSpider ID 9051646
SUBMITUSER=y6peng
LIBRARYQUALITY=2
SPECTRUMID=CCMSLIB00000072481
SCANS=3242
107.246597 188.0 
107.675575 188.0 
128.108597 184.0 
129.687439 180.0 
130.36348 180.0 
140.573349 196.0 
147.393219 172.0 
153.114059 220.0 
156.953568 252.0 
160.906235 180.0 
164.032913 208.0 
165.074158 224.0 
177.873795 188.0 
180.104263 240.0 
189.107605 180.0 
198.809921 176.0 
200.144608 184.0 
202.084381 1172.0 
203.085617 268.0 
207.695618 196.0 
211.202499 212.0 
220.094681 3976.0 
221.100586 224.0 
222.100861 192.0 
226.953979 504.0 
233.131165 236.0 
238.10173 476.0 
239.103943 216.0 
239.405518 176.0 
265.059875 172.0 
269.960236 212.0 
278.12439 272.0 
278.172455 3184.0 
279.178375 544.0 
288.927399 216.0 
296.180115 184.0 
302.141144 212.0 
302.660889 196.0 
308.678223 212.0 
309.129303 184.0 
311.874207 184.0 
317.549347 200.0 
324.15979 196.0 
326.136444 236.0 
331.225616 216.0 
333.178131 188.0 
337.701935 212.0 
347.192505 1872.0 
348.193787 440.0 
349.193756 240.0 
356.601074 184.0 
364.074707 188.0 
365.773529 216.0 
366.199799 172.0 
368.144135 212.0 
377.261841 172.0 
378.73941 180.0 
390.726837 244.0 
391.746033 236.0 
393.254669 172.0 
395.262329 176.0 
396.269745 192.0 
397.000641 172.0 
399.185822 724.0 
401.636108 272.0 
404.736023 188.0 
406.924316 252.0 
411.19751 176.0 
418.511597 200.0 
419.713074 172.0 
421.246277 1468.0 
421.304169 208.0 
422.249908 344.0 
423.263824 272.0 
424.282196 248.0 
425.364746 192.0 
426.57193 204.0 
427.949554 220.0 
429.143921 180.0 
430.905548 184.0 
431.285553 180.0 
432.112274 192.0 
436.012634 184.0 
437.942291 212.0 
439.260803 1440.0 
440.258636 1016.0 
441.275665 200.0 
441.580292 180.0 
442.266174 204.0 
449.483307 228.0 
450.529938 180.0 
451.239655 184.0 
452.262939 216.0 
463.779938 216.0 
463.985626 244.0 
465.173431 184.0 
470.246124 184.0 
470.358307 184.0 
471.096405 180.0 
474.327545 376.0 
474.635223 224.0 
475.619629 172.0 
476.700592 184.0 
477.195892 192.0 
478.000244 192.0 
478.161194 232.0 
479.952698 172.0 
481.22876 200.0 
482.906097 172.0 
484.313507 192.0 
487.687622 204.0 
494.973053 212.0 
497.285797 172.0 
498.611328 172.0 
500.302734 180.0 
501.18869 224.0 
501.335663 196.0 
502.262634 236.0 
502.333984 172.0 
503.321686 356.0 
504.315704 332.0 
505.321442 172.0 
507.685547 256.0 
508.244629 376.0 
509.255676 188.0 
509.511627 188.0 
511.062103 180.0 
520.337219 280.0 
520.632263 200.0 
521.113525 232.0 
521.354309 196.0 
523.136475 184.0 
524.235229 1508.0 
524.698425 172.0 
525.058533 236.0 
525.237488 1176.0 
525.988892 196.0 
526.27301 324.0 
527.220764 208.0 
527.302002 192.0 
530.753601 208.0 
532.432861 232.0 
532.951721 260.0 
533.990234 204.0 
536.276306 180.0 
537.102539 172.0 
537.28064 204.0 
538.168091 184.0 
538.842163 204.0 
539.049988 208.0 
539.091553 212.0 
539.308228 5124.0 
539.502747 176.0 
540.310669 2420.0 
540.414307 208.0 
541.321838 416.0 
542.253784 216.0 
542.380859 180.0 
544.834595 172.0 
545.768433 204.0 
545.945068 228.0 
548.099426 180.0 
550.752808 184.0 
555.192566 192.0 
555.478516 240.0 
556.412048 184.0 
556.491821 184.0 
560.054932 184.0 
563.730286 260.0 
564.078186 200.0 
565.224915 176.0 
566.192261 220.0 
567.035217 208.0 
568.746704 176.0 
570.018982 240.0 
570.636658 208.0 
572.505859 184.0 
572.718323 216.0 
578.758728 204.0 
579.52478 188.0 
582.421143 216.0 
585.238098 172.0 
588.085938 204.0 
588.389954 172.0 
589.234741 204.0 
592.252075 228.0 
593.235352 172.0 
593.361328 180.0 
597.687134 204.0 
598.996216 172.0 
599.385803 196.0 
602.004211 180.0 
602.376892 2784.0 
602.946655 192.0 
603.378296 1032.0 
603.497742 204.0 
604.388306 424.0 
605.166565 192.0 
606.596497 200.0 
606.97876 188.0 
607.354187 268.0 
607.596497 220.0 
608.36792 584.0 
609.361145 208.0 
613.330322 224.0 
615.191772 176.0 
616.806396 172.0 
618.279724 172.0 
619.611145 192.0 
620.345825 192.0 
621.375366 204.0 
621.925964 192.0 
626.150452 216.0 
628.105225 176.0 
628.555115 188.0 
629.380371 184.0 
630.733704 180.0 
630.841431 184.0 
633.074219 176.0 
633.514771 224.0 
634.236084 188.0 
634.311218 192.0 
634.661987 280.0 
634.723633 204.0 
634.990723 180.0 
635.048523 180.0 
635.302612 228.0 
635.703369 200.0 
635.778076 200.0 
635.809387 256.0 
635.947205 196.0 
636.125061 204.0 
636.178284 188.0 
636.23761 344.0 
636.280762 444.0 
636.363281 94456.0 
636.603516 208.0 
636.640564 184.0 
636.845093 172.0 
636.924072 180.0 
637.185242 296.0 
637.265991 288.0 
637.366333 38032.0 
637.550537 200.0 
637.924194 256.0 
638.057983 180.0 
638.177979 204.0 
638.222229 196.0 
638.369446 7440.0 
638.503662 312.0 
638.79834 236.0 
639.372192 920.0 
640.117615 192.0 
640.367676 312.0 
640.553955 256.0 
640.719482 232.0 
640.842346 248.0 
641.028442 248.0 
641.369202 236.0 
641.909851 256.0 
642.103943 192.0 
643.40271 236.0 
646.525146 188.0 
649.393738 3228.0 
649.812378 224.0 
650.397156 744.0 
651.093079 184.0 
651.183411 176.0 
651.331421 368.0 
651.398621 300.0 
652.259094 192.0 
652.950317 180.0 
653.335327 304.0 
655.754395 252.0 
660.419128 212.0 
661.836121 176.0 
662.132996 216.0 
667.426636 232.0 
668.033264 180.0 
668.830505 252.0 
668.878113 188.0 
669.515015 224.0 
669.784973 176.0 
670.287354 196.0 
672.406006 264.0 
673.422668 280.0 
677.031128 204.0 
677.419434 168.0 
678.035767 172.0 
678.263672 188.0 
680.413391 176.0 
681.630493 176.0 
681.682434 176.0 
683.075256 168.0 
687.383179 176.0 
688.67627 216.0 
690.938782 180.0 
692.854126 180.0 
694.310669 188.0 
695.118225 200.0 
697.564636 220.0 
697.843201 168.0 
698.016602 172.0 
702.259521 260.0 
703.462097 192.0 
703.789307 172.0 
705.220337 188.0 
705.473938 176.0 
705.754028 208.0 
706.351379 176.0 
707.896179 180.0 
709.183044 184.0 
709.394409 184.0 
712.004395 204.0 
712.530029 192.0 
714.932434 176.0 
718.207642 200.0 
718.71637 192.0 
719.134827 180.0 
719.469666 248.0 
719.930847 256.0 
719.989563 180.0 
720.25647 180.0 
720.331238 208.0 
720.391602 172.0 
720.466309 300.0 
720.966797 188.0 
721.356812 184.0 
722.201294 184.0 
722.746704 188.0 
724.149292 188.0 
725.584229 196.0 
726.222046 200.0 
726.334656 184.0 
726.404358 180.0 
727.332275 180.0 
727.901123 168.0 
728.99115 180.0 
729.888489 192.0 
730.393799 212.0 
732.271484 204.0 
734.253967 236.0 
734.825562 172.0 
735.484802 372.0 
736.250427 248.0 
736.572021 308.0 
737.486694 176.0 
738.773132 184.0 
739.45459 188.0 
740.461182 224.0 
740.659973 180.0 
742.483215 436.0 
743.485229 236.0 
743.718384 176.0 
744.206726 176.0 
745.4552 192.0 
745.569641 212.0 
747.4776 172.0 
747.765259 204.0 
748.250183 172.0 
748.369385 172.0 
748.598511 252.0 
748.828125 192.0 
749.914856 176.0 
750.200317 180.0 
750.460083 224.0 
750.775269 208.0 
751.443298 180.0 
752.386353 176.0 
753.713745 172.0 
753.779846 200.0 
754.472412 232.0 
754.660522 292.0 
755.778992 172.0 
756.982727 212.0 
757.157532 192.0 
757.286255 184.0 
757.612366 228.0 
757.703613 180.0 
757.844727 300.0 
758.328552 168.0 
758.532593 240.0 
759.631592 268.0 
759.703979 228.0 
759.845581 232.0 
760.19873 252.0 
760.286987 196.0 
760.62616 320.0 
760.744751 244.0 
761.214966 216.0 
761.450928 248.0 
761.504944 208.0 
761.680664 168.0 
761.751526 232.0 
762.123352 280.0 
762.228577 268.0 
762.345398 204.0 
762.407715 204.0 
762.49823 212.0 
762.626343 196.0 
762.717957 536.0 
762.818604 352.0 
762.876404 356.0 
762.92572 732.0 
762.984375 248.0 
763.051208 680.0 
763.157166 236.0 
763.166626 360.0 
763.190857 568.0 
763.264893 668.0 
763.315002 848.0 
763.464844 265620.0 
763.646545 732.0 
763.726624 320.0 
763.812317 380.0 
763.867432 516.0 
763.899109 328.0 
763.965576 316.0 
764.12085 636.0 
764.187012 460.0 
764.246033 244.0 
764.297485 524.0 
764.375183 1776.0 
764.466675 128884.0 
764.634338 236.0 
764.647034 320.0 
764.781433 436.0 
764.852478 480.0 
764.919983 248.0 
764.964417 256.0 
765.076904 200.0 
765.093262 524.0 
765.153809 192.0 
765.210083 172.0 
765.309448 380.0 
765.367432 580.0 
765.468201 34344.0 
765.629089 296.0 
765.722595 236.0 
765.780273 392.0 
765.847412 252.0 
765.892639 220.0 
765.960083 228.0 
766.023865 200.0 
766.150757 336.0 
766.268372 380.0 
766.330811 256.0 
766.471252 6636.0 
766.55426 292.0 
766.682678 180.0 
766.795044 184.0 
767.214355 204.0 
767.277161 216.0 
767.324829 360.0 
767.480103 800.0 
767.675537 320.0 
767.733093 200.0 
767.823792 280.0 
767.948853 284.0 
768.032104 296.0 
768.095642 280.0 
768.158936 304.0 
768.233643 208.0 
768.292236 216.0 
768.361206 308.0 
768.44342 360.0 
768.50769 252.0 
768.595825 260.0 
768.732849 320.0 
768.837891 284.0 
769.08667 244.0 
769.201111 312.0 
769.284607 200.0 
769.322388 172.0 
769.393921 268.0 
769.458923 232.0 
769.5224 168.0 
769.600708 464.0 
770.24646 412.0 
770.662598 180.0 
771.388733 224.0 
782.795898 276.0 
782.877625 192.0 
791.33783 224.0 
877.301636 176.0 
947.190308 212.0 
977.025879 192.0 
1002.159302 172.0 
1106.460571 180.0 
1218.81189 228.0 
1226.076294 184.0 
1227.293335 224.0 
1232.889404 220.0 
1255.161255 184.0 
1627.42688 180.0 
1629.650879 172.0 
1633.002441 168.0 
1673.113281 216.0 
1727.633667 184.0 
1935.679932 168.0 
END IONS

