BEGIN IONS
PEPMASS=432.0
CHARGE=0+
MSLEVEL=2
SOURCE_INSTRUMENT=LC-ESI-qTof
FILENAME=20121205_Jenia_Ger_Malyngamide_H_MH432_qb.1.1..mgf
SEQ=*..*
IONMODE=Positive
ORGANISM=GNPS-LIBRARY
NAME=Malyngamide_H M+H
PI=Gerwick
DATACOLLECTOR=Jenia
SMILES=CCCCCCC[C@@H](C/C=C/CCC(=O)NCCC(=C)[C@]12[C@H](O1)CC=C(C2=O)C)OC
INCHI=InChI=1S/C26H41NO4/c1-5-6-7-8-10-13-22(30-4)14-11-9-12-15-24(28)27-19-18-21(3)26-23(31-26)17-16-20(2)25(26)29/h9,11,16,22-23H,3,5-8,10,12-15,17-19H2,1-2,4H3,(H,27,28)/b11-9+/t22-,23+,26+/m0/s1
INCHIAUX=N/A
PUBMED=N/A
SUBMITUSER=mwang87
LIBRARYQUALITY=1
SPECTRUMID=CCMSLIB00000001654
SCANS=1
120.655289 4618.0 
123.069031 5000.0 
123.830566 3983.0 
125.865036 2518.0 
128.866013 4031.0 
129.764832 2801.0 
130.932281 63921.0 
131.551224 1101.0 
132.841934 27297.0 
134.581924 26574.0 
136.836014 11455.0 
137.944214 14000.0 
138.549988 1.0 
139.829346 1054.0 
141.802475 5301.0 
142.656158 7730.0 
144.845825 1931.0 
145.924484 5399.0 
146.847366 139109.0 
147.909363 11460.0 
148.917801 83880.0 
151.133453 3307.0 
151.994751 5218.0 
154.074524 1213.0 
154.854279 2440.0 
156.13501 1446.0 
156.907455 3795.0 
158.085617 11452.0 
158.887741 707183.0 
159.514282 1.0 
160.172485 9473.0 
160.842987 12314.0 
161.785248 5151.0 
162.647095 385.0 
164.13121 2681.0 
164.956421 4185.0 
166.46138 4178.0 
172.786346 3732.0 
173.994293 96101.0 
174.796738 1155.0 
175.898331 985105.0 
176.947571 1035047.0 
177.559067 3167.0 
180.907593 2182.0 
182.056763 1195.0 
182.592468 3293.0 
184.792542 1539.0 
186.968796 10808.0 
188.001678 6033.0 
188.903168 136948.0 
189.84726 2519.0 
190.559082 861.0 
191.658371 4741.0 
192.21843 3805.0 
192.879517 1140.0 
193.879883 183929.0 
194.901276 2861.0 
196.890717 833.0 
198.416077 706.0 
198.987488 4229.0 
200.950653 7998.0 
201.858765 21742.0 
202.661072 1.0 
203.260254 1442.0 
203.845581 17584.0 
204.846451 16245.0 
206.020477 8480.0 
206.898392 130578.0 
208.03624 49312.0 
208.85405 34071.0 
210.590698 950.0 
212.064087 1024.0 
212.887177 12215.0 
214.358276 5020.0 
214.960876 6844.0 
215.929611 29954.0 
216.439041 19336.0 
216.955933 2008.0 
217.947388 1123.0 
218.850052 12392.0 
219.496353 3863.0 
220.138702 494.0 
221.084015 3733.0 
222.348282 6767.0 
223.280945 21395.0 
223.977692 642008.0 
224.98822 899.0 
225.911194 28109.0 
226.712357 2425.0 
228.018005 4731.0 
230.720886 1795.0 
232.121582 316.0 
234.042114 1747.0 
235.27948 2674.0 
236.020798 619012.0 
237.002289 6461.0 
238.013275 8132.0 
238.859665 11686.0 
240.481293 4023.0 
241.864532 5050.0 
242.957108 4934.0 
244.301575 1762.0 
246.970169 1578.0 
248.152283 5894.0 
248.928421 12050.0 
250.369064 6903.0 
251.770752 716.0 
253.055328 33600.0 
254.093231 562.0 
255.014008 16944.0 
255.900421 55312.0 
256.439941 1.0 
257.157043 4016.0 
257.793701 5630.0 
259.113159 3510.0 
260.024139 4552.0 
261.587189 11782.0 
262.587372 34594.0 
263.325623 30940.0 
264.394012 167497.0 
265.674103 15440.0 
267.817291 119275.0 
268.849426 13783.0 
269.628662 665.0 
270.369873 510.0 
271.846497 38314.0 
272.318268 4.0 
273.1651 466.0 
274.068329 28833.0 
275.259094 21635.0 
276.283875 59690.0 
281.063965 2954.0 
283.124756 3547.0 
284.20462 10248.0 
286.028717 19244.0 
287.905548 21537.0 
289.911285 121892.0 
290.961975 693.0 
292.080933 356.0 
292.795898 4782.0 
294.529175 5522.0 
295.077637 10234.0 
297.228027 236.0 
297.762268 29617.0 
298.273926 379.0 
300.593872 3229.0 
302.128174 866.0 
303.858917 1549.0 
304.581299 2530.0 
305.181763 1.0 
305.910858 4158.0 
307.329651 2208.0 
308.337402 5082.0 
310.781067 569.0 
312.345642 830.0 
314.713257 730.0 
315.975342 8489.0 
318.168091 4318.0 
319.808716 3025.0 
323.142822 7398.0 
324.623901 7829.0 
333.35437 1969.0 
334.096802 1499.0 
335.133484 18805.0 
335.878052 3249.0 
336.624878 719.0 
337.203003 2106.0 
339.044434 1702.0 
346.469727 215.0 
347.249542 1917.0 
348.065948 4037.0 
352.787048 11786.0 
354.256989 4782.0 
355.143372 310.0 
356.06488 7525.0 
357.925964 1428.0 
363.835571 1344.0 
364.462006 44512.0 
365.08783 73290.0 
366.839783 1713.0 
371.317505 13461.0 
372.013062 69925.0 
372.671204 4.0 
382.027344 2682227.0 
383.081024 18725.0 
383.590576 3289.0 
386.221802 8356.0 
387.84726 1484.0 
396.16217 4750.0 
399.100555 69121.0 
399.978912 10857409.0 
400.708252 53.0 
401.962128 1939.0 
403.032623 3282.0 
403.97699 25016.0 
407.495789 11811.0 
414.033661 346588.0 
414.733276 3.0 
421.228943 1230.0 
421.992615 2935.0 
432.073578 53533.0 
432.611023 1.0 
END IONS

