BEGIN IONS
PEPMASS=500.07
CHARGE=1+
MSLEVEL=2
SOURCE_INSTRUMENT=LC-ESI-Ion Trap
FILENAME=f.evgenia_glukhov/Cyano cultures/M_BOUILLONNII.mzXML;
SEQ=*..*
IONMODE=Positive
ORGANISM=GNPS-LIBRARY
NAME=Columbamide B M+H
PI=Gerwick
DATACOLLECTOR=Jenia
SMILES=ClC(Cl)CCCCCC(Cl)CCCC/C=C/CCC(N(C)C(COC)COC(C)=O)=O
INCHI=
INCHIAUX=
PUBMED=26149623
SUBMITUSER=evgenia_glukhov
LIBRARYQUALITY=3
SPECTRUMID=CCMSLIB00000531500
SCANS=809
333.958313 2566.0 
404.163452 11566.0 
431.86615 1960.0 
433.09613 753.0 
435.992004 5957.0 
440.048218 130641.0 
441.034546 7052.0 
454.737915 1463.0 
464.015259 15721.0 
467.240417 1315.0 
468.1203 57237.0 
469.136108 497.0 
500.383362 2460.0 
510.822205 2161.0 
END IONS

