BEGIN IONS
PEPMASS=333.02
CHARGE=1+
MSLEVEL=2
SOURCE_INSTRUMENT=LC-ESI-Ion Trap
FILENAME=f.arihiro1013/AI-11-140/20190103_140-3.mzXML;
SEQ=*..*
IONMODE=Positive
ORGANISM=GNPS-LIBRARY
NAME=Kalkipyrone M+H
PI=Gerwick
DATACOLLECTOR=Arihiro Iwasaki
SMILES=O[C@H](C)/C=C(C)/C=C/C/C(C)=C/CC1=C(C)C(C(C)=C(OC)O1)=O
INCHI=InChI=1S/C20H28O4/c1-13(8-7-9-14(2)12-15(3)21)10-11-18-16(4)19(22)17(5)20(23-6)24-18/h7,9-10,12,15,21H,8,11H2,1-6H3/b9-7+,13-10+,14-12+/t15-/m1/s1
INCHIAUX=
PUBMED=9599278
SUBMITUSER=arihiro1013
LIBRARYQUALITY=3
SPECTRUMID=CCMSLIB00004722221
SCANS=470
105.143204 20047.0 
107.055191 22877.0 
108.720673 10617.0 
115.155182 3340.0 
117.018616 9865.0 
117.666656 1.0 
119.186554 75803.0 
120.489578 5696.0 
121.487991 9130.0 
123.395096 1418.0 
125.078156 45730.0 
133.270752 20137.0 
135.045227 17213.0 
136.684631 6914.0 
137.419617 3534.0 
138.9599 19339.0 
143.385498 4325.0 
145.16748 13588.0 
145.928406 7133.0 
147.140686 378161.0 
148.054199 7719.0 
149.271973 18009.0 
150.842682 23050.0 
152.26001 13775.0 
152.926758 196878.0 
154.845215 82066.0 
157.100281 16642.0 
158.94696 4946.0 
160.975403 197437.0 
161.846985 5920.0 
162.956177 12898.0 
164.394836 6059.0 
166.740479 16687.0 
169.226074 23264.0 
171.082092 30601.0 
174.977112 19975.0 
179.002258 17396.0 
180.506531 5105.0 
183.270874 2458.0 
185.161011 14461.0 
186.995605 10959.0 
189.005066 20282.0 
191.229919 13089.0 
193.068665 18900.0 
195.076355 52426.0 
195.799988 1.0 
196.884308 5979.0 
199.173553 26232.0 
201.00885 20527.0 
201.894745 9885.0 
203.212585 37011.0 
205.095459 3000.0 
206.959076 46850.0 
207.785919 10868.0 
208.500977 10110.0 
209.1026 66050.0 
211.166199 5627.0 
212.875977 10569.0 
215.027893 2318.0 
216.994446 24173.0 
218.769531 6523.0 
220.850494 25235.0 
221.533295 2.0 
223.198273 24799.0 
226.310547 2896.0 
226.970581 82393.0 
231.137451 18605.0 
232.120972 7046.0 
233.047119 41229.0 
235.098206 8477.0 
237.027222 178996.0 
238.921967 27693.0 
239.644257 18970.0 
241.00412 23262.0 
242.614197 12207.0 
243.222168 3.0 
244.210724 13047.0 
245.033875 96476.0 
246.877136 19401.0 
251.12796 1324.0 
253.280762 1735.0 
254.988739 129175.0 
256.988159 10874.0 
259.066223 258145.0 
259.76001 5.0 
263.132812 12375.0 
264.280273 2968.0 
269.044434 16419.0 
271.172791 9452.0 
272.977051 47203.0 
273.799927 1.0 
274.892334 3460.0 
282.975891 78538.0 
292.838135 1667.0 
296.552734 1727.0 
299.178101 2120.0 
300.874634 114202.0 
301.666626 2.0 
314.968506 819275.0 
332.464111 2136.0 
END IONS

