BEGIN IONS
TITLE=Scan Number: 2788
PEPMASS=198.039
CHARGE=1+
COMPOUNDNAME=Clavulanic acid
LIBRARYQUALITY=3
SMILES=C1[C@@H]2N(C1=O)[C@H](/C(=C/CO)/O2)C(=O)O
INCHIKEY=HZZVJAQRINQKSD-PBFISZAISA-N
INCHI=
MSLEVEL=2
SOURCE_INSTRUMENT=LC-ESI-Orbitrap
FILENAME=f.ktahlan/KT-1/MUN/Methanol/SC/1 SC on SA meth-neg.mzXML;
SEQ=*..*
NOTES=
IONMODE=Negative
ORGANISM=GNPS-LIBRARY
NAME=Clavulanic acid M-H
SPECTRUMID=CCMSLIB00005435929
ACTIVATION=CID
INSTRUMENT=ion trap
SCANS=2788
70.029861 1316.575317 
71.014053 6156.037598 
71.050392 1981.838135 
72.009491 1644.05542 
72.045708 1402.128906 
73.029793 1665.033691 
73.564423 972.610779 
80.014488 1385.705811 
80.027374 1966.054077 
80.051033 20460.910156 
81.022552 13367.304688 
81.035065 96882.992188 
82.030327 435964.59375 
83.014427 1270.126587 
83.033791 7100.229004 
83.050682 10008.597656 
84.009651 24465.238281 
84.040924 2078.367188 
84.045998 58676.542969 
85.030052 68896.148438 
90.035713 2356.843994 
92.051315 51008.855469 
93.035294 10899.373047 
93.054733 1049.006592 
94.03064 163523.75 
94.54985 936.508545 
95.014725 16989.361328 
95.034088 1285.625244 
96.009834 2323.763916 
96.046463 9989.900391 
98.02597 1420.671143 
98.061989 15859.717773 
99.046028 5935.543945 
106.031464 3545.546143 
107.038872 71851.859375 
108.046684 1093606.0 
109.018486 19498.341797 
109.030617 28258.908203 
109.050117 26222.765625 
110.025955 31283.964844 
110.033424 1478.885742 
110.062691 8736.551758 
111.046608 7398.287109 
112.041679 127682.117188 
112.077827 1347.909058 
113.044998 1480.04834 
118.031197 1183.369263 
122.025536 11867.323242 
124.040924 52620.976562 
124.911949 1215.653198 
126.056602 25019.300781 
126.093277 1242.27417 
134.025177 20048.431641 
135.033066 2034.368896 
135.045425 6627.452148 
136.04039 706109.625 
137.043823 17129.123047 
137.097198 14130.253906 
139.027557 13645.27832 
143.768738 1013.28479 
152.034668 8540.327148 
154.050064 3745.598389 
155.106796 1742.113647 
168.028946 4834.899414 
181.085114 1258.232788 
198.039032 1429.503906 
198.111801 10681.921875 
199.005676 17026.367188 
END IONS

