BEGIN IONS
PEPMASS=985.47
CHARGE=1+
MSLEVEL=2
SOURCE_INSTRUMENT=LC-ESI-qTof
FILENAME=f.RReher/Culebra/CUR6APR19-1/High_Res_Dorrestein/MaXis/963_Molassamide/2286_crude_2.70min_985.4703_MS2_M+Na.mgf;
SEQ=*..*
IONMODE=Positive
ORGANISM=GNPS-LIBRARY
NAME=Molassamide M+Na
PI=Gerwick
DATACOLLECTOR=Raphael Reher
SMILES=CCCC(NC(C(NC(C(NC1C(C)OC(C(C(C)C)NC(C(CC2=CC=C(O)C=C2)N(C)C(C(CC3=CC=CC=C3)N4C(O)CCC(NC(/C(NC1=O)=C\C)=O)C4=O)=O)=O)=O)=O)C(O)C)=O)C)=O
INCHI=
INCHIAUX=
PUBMED=
SUBMITUSER=RReher
LIBRARYQUALITY=3
SPECTRUMID=CCMSLIB00005720213
SCANS=1
72.051895 68.0 
120.055351 83.0 
142.062958 167.0 
150.070648 3229.0 
151.0728 274.0 
170.07402 90.0 
176.060974 77.0 
178.067505 132.0 
187.104172 99.0 
206.068039 96.0 
215.099915 158.0 
220.055389 63.0 
224.085098 91.0 
225.103287 60.0 
234.111862 69.0 
243.06926 244.0 
243.098465 756.0 
244.096024 156.0 
250.108841 86.0 
258.081055 69.0 
259.048035 73.0 
267.089752 90.0 
268.115417 265.0 
271.061829 71.0 
278.131042 64.0 
280.100769 232.0 
283.113281 72.0 
289.100433 204.0 
295.153748 352.0 
297.154877 65.0 
304.131348 83.0 
308.117737 1007.0 
309.120514 239.0 
318.123108 87.0 
321.130524 69.0 
326.140808 91.0 
327.145111 60.0 
329.629974 62.0 
330.619751 60.0 
331.126648 126.0 
331.629608 138.0 
332.117249 109.0 
337.106232 67.0 
338.620972 145.0 
340.13266 344.0 
340.634033 184.0 
348.139038 124.0 
350.117584 97.0 
352.175598 158.0 
352.210236 74.0 
354.132629 121.0 
354.634888 166.0 
357.143799 64.0 
359.15921 253.0 
360.649872 168.0 
361.147919 113.0 
363.134033 434.0 
363.632965 258.0 
365.133636 71.0 
365.168549 64.0 
366.141205 60.0 
369.654144 123.0 
371.13797 77.0 
376.641418 100.0 
380.149323 326.0 
380.63974 105.0 
381.141174 111.0 
383.648987 70.0 
384.139648 68.0 
386.195374 71.0 
387.110291 64.0 
387.158386 400.0 
388.16217 217.0 
389.650146 130.0 
391.142792 68.0 
391.192352 223.0 
392.14505 71.0 
392.194946 93.0 
399.661285 62.0 
400.120056 61.0 
403.11969 96.0 
403.19162 218.0 
404.175049 99.0 
405.167633 63.0 
409.204193 339.0 
410.126099 86.0 
410.212219 156.0 
412.156219 84.0 
413.668549 63.0 
414.16922 74.0 
419.105927 128.0 
420.186768 3369.0 
420.660553 718.0 
421.183014 955.0 
421.663055 146.0 
422.151978 107.0 
422.190399 262.0 
425.151398 93.0 
426.274597 60.0 
426.660706 65.0 
428.189026 70.0 
428.651611 83.0 
429.671173 129.0 
430.668762 121.0 
431.15274 154.0 
431.186127 771.0 
432.188232 212.0 
432.659698 84.0 
433.669952 557.0 
434.1651 202.0 
434.673218 259.0 
435.186676 62.0 
435.223358 89.0 
436.174683 78.0 
437.204834 63.0 
439.82132 71.0 
441.655029 135.0 
442.155243 269.0 
442.205566 92.0 
442.674713 1825.0 
443.177856 1079.0 
443.234131 74.0 
443.672119 343.0 
444.673187 94.0 
446.317993 63.0 
448.217712 81.0 
449.199982 178.0 
450.162689 88.0 
450.659302 278.0 
451.160645 178.0 
451.679565 993.0 
452.183533 551.0 
452.682037 180.0 
453.236542 86.0 
453.680817 100.0 
454.137543 81.0 
454.177795 63.0 
457.115112 65.0 
457.413025 63.0 
460.173004 135.0 
461.192871 77.0 
463.160461 83.0 
464.205994 134.0 
466.534912 71.0 
469.216064 61.0 
470.198486 885.0 
470.696472 311.0 
471.201782 308.0 
472.208282 133.0 
477.175293 116.0 
478.187195 114.0 
478.963501 109.0 
479.201691 1699.0 
479.702637 990.0 
480.20932 236.0 
480.699829 144.0 
481.186829 69.0 
481.69632 72.0 
483.201691 460.0 
483.706696 155.0 
484.202637 143.0 
487.219299 114.0 
488.218445 68.0 
492.210846 3715.0 
492.71109 2001.0 
492.784912 64.0 
493.214813 790.0 
493.709534 291.0 
494.20459 153.0 
494.717194 62.0 
496.197723 68.0 
498.181671 100.0 
498.654175 87.0 
499.330597 60.0 
499.69339 109.0 
500.200836 500.0 
500.60202 90.0 
500.651337 80.0 
500.696991 147.0 
500.897522 82.0 
501.030151 136.0 
501.083038 89.0 
501.215668 65235.0 
501.341309 167.0 
501.50647 128.0 
501.558685 78.0 
501.717194 39335.0 
501.898041 146.0 
501.93866 142.0 
502.058655 143.0 
502.14621 103.0 
502.218292 13577.0 
502.398743 114.0 
502.44693 169.0 
502.611511 67.0 
502.65094 143.0 
502.719055 3469.0 
502.904785 72.0 
503.128052 70.0 
503.213745 2411.0 
503.712952 991.0 
503.814331 62.0 
503.856659 106.0 
504.215424 362.0 
504.704834 72.0 
504.889008 78.0 
505.056335 121.0 
505.217346 286.0 
505.369415 109.0 
505.5112 82.0 
505.705536 109.0 
505.748322 136.0 
505.813385 84.0 
506.228882 78.0 
507.132812 61.0 
508.209381 68.0 
508.688995 72.0 
509.204773 1055.0 
509.702484 575.0 
510.222046 4774.0 
510.723145 2506.0 
511.222015 723.0 
511.717316 226.0 
512.230896 118.0 
512.72113 152.0 
515.19574 278.0 
516.244812 135.0 
517.235901 113.0 
518.224365 153.0 
520.203613 70.0 
522.728516 65.0 
524.232971 115.0 
531.154419 98.0 
531.261719 70.0 
533.183533 97.0 
537.265747 113.0 
541.244019 76.0 
543.218323 301.0 
544.236816 403.0 
546.259338 69.0 
559.252197 1733.0 
560.256897 493.0 
561.26123 465.0 
562.249573 62.0 
563.203857 61.0 
575.217163 313.0 
577.250488 108.0 
579.245056 85.0 
593.227051 61.0 
603.232727 62.0 
615.294617 91.0 
619.29126 153.0 
621.292053 102.0 
622.017944 75.0 
626.254395 97.0 
629.56488 65.0 
632.302307 68.0 
640.680054 61.0 
642.285278 240.0 
643.320068 60.0 
644.271423 196.0 
645.262695 116.0 
647.301697 163.0 
660.302307 2251.0 
661.220032 62.0 
661.301392 1081.0 
662.303955 189.0 
663.243408 377.0 
663.311218 515.0 
664.246155 112.0 
664.32019 218.0 
665.291809 621.0 
666.289368 186.0 
671.292908 81.0 
676.262512 129.0 
677.290527 138.0 
679.220398 89.0 
680.31897 65.0 
681.254578 427.0 
682.265808 204.0 
683.270874 70.0 
686.295898 338.0 
686.41449 60.0 
687.185974 65.0 
687.281189 242.0 
688.31012 67.0 
689.286194 63.0 
691.311584 429.0 
692.311035 118.0 
693.3172 124.0 
695.297119 61.0 
697.335693 77.0 
698.341003 119.0 
699.35144 70.0 
703.306824 65.0 
703.361328 287.0 
704.374756 123.0 
707.266846 111.0 
709.319763 1018.0 
710.324524 447.0 
711.323059 102.0 
720.094788 66.0 
725.329529 244.0 
726.327576 172.0 
727.292664 84.0 
728.308899 75.0 
737.338806 63.0 
738.449402 63.0 
739.279236 65.0 
743.338684 1092.0 
744.340271 509.0 
745.330444 83.0 
750.337769 63.0 
753.319031 95.0 
759.308289 65.0 
762.360901 64.0 
769.341797 78.0 
770.31958 81.0 
771.32843 64.0 
780.353638 362.0 
781.358765 122.0 
796.358582 62.0 
798.347717 100.0 
804.388733 129.0 
805.405151 167.0 
810.389526 68.0 
824.255493 63.0 
824.360168 620.0 
825.358093 316.0 
826.374084 90.0 
827.369446 117.0 
840.376892 63.0 
842.367065 139.0 
843.377075 173.0 
844.395264 172.0 
845.388611 82.0 
850.378601 284.0 
851.37793 115.0 
854.411865 105.0 
858.34668 161.0 
859.335876 106.0 
866.402039 80.0 
868.389221 2012.0 
869.394409 928.0 
870.397888 279.0 
872.41803 79.0 
879.406494 149.0 
880.418518 82.0 
886.399719 757.0 
887.415161 355.0 
888.406738 120.0 
897.419922 1136.0 
898.421936 390.0 
899.425293 147.0 
900.448425 62.0 
905.359863 66.0 
907.390442 89.0 
908.414978 142.0 
909.494202 76.0 
909.753235 62.0 
917.496277 74.0 
921.272644 66.0 
923.430176 1005.0 
924.42804 521.0 
925.412048 292.0 
926.389709 123.0 
927.438416 96.0 
928.415222 93.0 
929.403137 98.0 
938.415039 75.0 
939.458679 278.0 
940.385498 82.0 
940.458679 236.0 
941.126892 90.0 
941.444824 7471.0 
942.444641 3513.0 
943.328064 79.0 
943.454651 1190.0 
943.743591 72.0 
944.233643 66.0 
944.445923 347.0 
945.47345 715.0 
946.400635 164.0 
946.476807 418.0 
947.47937 156.0 
949.46344 204.0 
952.802917 66.0 
955.393921 111.0 
956.368774 76.0 
957.411804 807.0 
958.411804 506.0 
958.475098 246.0 
959.445801 153.0 
959.652283 78.0 
960.417358 67.0 
961.743896 62.0 
963.434387 94.0 
965.133301 68.0 
965.398193 64.0 
965.47876 92.0 
967.306763 61.0 
967.461182 6418.0 
967.605469 105.0 
967.802673 63.0 
968.233643 63.0 
968.34259 74.0 
968.468262 3148.0 
969.18689 82.0 
969.295715 77.0 
969.460632 1038.0 
970.424866 149.0 
970.479004 165.0 
971.014709 84.0 
971.561035 102.0 
971.72821 60.0 
972.438721 72.0 
972.921265 70.0 
973.386108 200.0 
973.524231 66.0 
973.636169 62.0 
973.978394 144.0 
974.376526 66.0 
974.466797 79.0 
974.880676 66.0 
978.993286 61.0 
980.151306 72.0 
981.434021 64.0 
981.510986 76.0 
981.767822 70.0 
981.97467 154.0 
982.143982 63.0 
982.269287 77.0 
982.460632 3775.0 
982.591125 104.0 
982.731567 124.0 
982.801025 128.0 
982.855164 100.0 
982.96521 5459.0 
983.114197 96.0 
983.174011 83.0 
983.2547 178.0 
983.462524 3352.0 
983.741089 126.0 
983.841003 174.0 
983.965088 1327.0 
984.113403 233.0 
984.171204 124.0 
984.232544 89.0 
984.460205 1008.0 
984.610107 139.0 
984.71759 136.0 
984.821533 144.0 
984.96582 488.0 
985.040649 325.0 
985.151184 283.0 
985.213867 653.0 
985.47113 336959.0 
END IONS

