BEGIN IONS
PEPMASS=901.0
CHARGE=2+
MSLEVEL=2
SOURCE_INSTRUMENT=LC-ESI-qTof
FILENAME=1E6_901MNa_RE6_01_9753.mzXML
SEQ=*..*
IONMODE=Positive
ORGANISM=GNPS-LIBRARY
NAME=Dolastatin 16 M+Na
PI=Dorrestein/Gerwick
DATACOLLECTOR=Peng/Luzzatto/Garg
SMILES=CC(C)C1NC(=O)[C@@H]2CCCN2C(=O)C(NC(=O)[C@@H]2CCCN2C(=O)[C@@H](C(C)C)N(C)C(=O)[C@H](OC(=O)[C@@H]2CCCN2C(=O)[C@H](C)OC(=O)C1C)C(C)C)C(C)CC1=CC=CC=C1
INCHI=InChI=1S/C47H70N6O10/c1-26(2)36-30(8)46(60)62-31(9)42(56)53-24-16-21-35(53)47(61)63-39(28(5)6)45(59)50(10)38(27(3)4)44(58)52-23-15-20-34(52)41(55)49-37(29(7)25-32-17-12-11-13-18-32)43(57)51-22-14-19-33(51)40(54)48-36/h11-13,17-18,26-31,33-39H,14-16,19-25H2,1-10H3,(H,48,54)(H,49,55)/t29?,30?,31-,33-,34-,35-,36?,37?,38+,39+/m0/s1
INCHIAUX=JXOFEBNJOOEXJY-NLKHYCKVSA-N
PUBMED=ChemSpider ID:154450
SUBMITUSER=y6peng
LIBRARYQUALITY=2
SPECTRUMID=CCMSLIB00000072512
SCANS=1889
101.093956 168.0 
177.097626 220.0 
188.586029 176.0 
196.126831 148.0 
197.147919 224.0 
226.954971 216.0 
268.969574 148.0 
270.97998 160.0 
322.978516 172.0 
327.225708 172.0 
338.667725 164.0 
349.197601 172.0 
350.179779 176.0 
353.093445 144.0 
400.887848 248.0 
434.224518 280.0 
450.730286 208.0 
453.170715 176.0 
459.226013 212.0 
461.894501 264.0 
465.076874 184.0 
489.383148 160.0 
490.268188 140.0 
513.397522 200.0 
523.285339 148.0 
524.542175 148.0 
565.926514 152.0 
568.523132 180.0 
598.689331 160.0 
604.325012 176.0 
605.181213 256.0 
605.362305 140.0 
609.31897 164.0 
612.195312 140.0 
614.959961 168.0 
631.01886 144.0 
632.984497 152.0 
642.434692 140.0 
644.014038 156.0 
655.775574 140.0 
672.572144 144.0 
673.057251 144.0 
701.955322 200.0 
706.347717 168.0 
707.395935 164.0 
710.053833 144.0 
716.031921 188.0 
726.438538 168.0 
732.439941 164.0 
733.437073 196.0 
736.365479 248.0 
740.674561 208.0 
747.126404 140.0 
748.403442 164.0 
750.444153 268.0 
753.092957 140.0 
756.585693 188.0 
764.835144 144.0 
766.727539 176.0 
771.527161 144.0 
775.228577 176.0 
775.411377 168.0 
778.944397 192.0 
790.805176 156.0 
791.431946 144.0 
795.421997 180.0 
799.7146 168.0 
800.288574 184.0 
801.459656 160.0 
802.434326 176.0 
802.501953 168.0 
803.426575 148.0 
804.457886 432.0 
805.469238 252.0 
806.44635 144.0 
811.335144 176.0 
812.043701 192.0 
812.157104 140.0 
812.90564 180.0 
813.166626 200.0 
814.471985 152.0 
815.244385 216.0 
815.465942 184.0 
817.370239 152.0 
820.467407 144.0 
821.978271 192.0 
822.463196 240.0 
823.090942 168.0 
823.136597 180.0 
827.840942 164.0 
829.937378 156.0 
830.264099 216.0 
830.923462 376.0 
834.517395 192.0 
836.633728 168.0 
840.811035 208.0 
842.767822 280.0 
843.622803 184.0 
844.27478 228.0 
844.403076 216.0 
845.096985 200.0 
845.548157 208.0 
846.364075 144.0 
850.404663 148.0 
850.513306 140.0 
851.447693 188.0 
851.627686 156.0 
856.668823 204.0 
857.915466 224.0 
859.302917 260.0 
859.355408 180.0 
859.816223 216.0 
865.700806 156.0 
867.868042 160.0 
867.997009 168.0 
869.333923 152.0 
872.281128 176.0 
873.500183 536.0 
873.856567 184.0 
874.501099 364.0 
875.839661 200.0 
877.388855 188.0 
878.662231 148.0 
880.521667 180.0 
881.123108 148.0 
881.51886 276.0 
883.073059 224.0 
885.392151 140.0 
885.572144 196.0 
885.919067 180.0 
889.291687 196.0 
889.792664 180.0 
890.13623 164.0 
890.805237 180.0 
891.969666 100.0 
892.904541 120.0 
893.960632 108.0 
894.871399 152.0 
895.246399 188.0 
896.422363 208.0 
896.729065 128.0 
898.810242 128.0 
898.919739 160.0 
899.39032 120.0 
899.457458 164.0 
899.50293 300.0 
899.703735 140.0 
900.136169 152.0 
900.202271 148.0 
900.251953 220.0 
900.361145 160.0 
900.43866 248.0 
900.502563 344.0 
900.56543 164.0 
900.697083 176.0 
900.764587 148.0 
900.875305 388.0 
900.989136 236.0 
901.093811 312.0 
901.214294 244.0 
901.273804 344.0 
901.32019 448.0 
901.360718 108.0 
901.415955 512.0 
901.50647 72604.0 
901.737976 256.0 
901.903015 148.0 
901.974304 120.0 
902.071777 160.0 
902.119385 152.0 
902.159058 156.0 
902.274292 216.0 
902.329163 188.0 
902.509094 42316.0 
902.730469 520.0 
902.796021 220.0 
903.077087 180.0 
903.147766 168.0 
903.283691 308.0 
903.375916 108.0 
903.511536 13048.0 
903.751282 204.0 
903.916626 156.0 
903.999329 188.0 
904.048218 196.0 
904.233154 184.0 
904.385071 212.0 
904.515869 1868.0 
904.782959 140.0 
904.919739 120.0 
905.084595 100.0 
905.234314 132.0 
905.286926 144.0 
905.328796 200.0 
905.508972 692.0 
905.654724 128.0 
905.742371 116.0 
905.873474 160.0 
906.141113 120.0 
906.262146 144.0 
906.477356 100.0 
906.529053 140.0 
906.624573 276.0 
906.771606 204.0 
906.821228 100.0 
906.979248 200.0 
907.195312 128.0 
907.263367 148.0 
907.341309 160.0 
907.461121 144.0 
907.750854 208.0 
907.874084 112.0 
907.943054 220.0 
908.451355 136.0 
908.564209 152.0 
908.848572 136.0 
908.999512 168.0 
909.523987 160.0 
909.693298 112.0 
910.046082 144.0 
910.133606 116.0 
910.793152 96.0 
910.901978 104.0 
912.126282 108.0 
913.205688 180.0 
921.925598 112.0 
924.343933 140.0 
930.536011 164.0 
940.320435 144.0 
946.767761 176.0 
1057.805664 120.0 
1058.965332 156.0 
1081.680786 156.0 
1148.959473 148.0 
1164.108276 192.0 
1227.047119 192.0 
1265.478394 200.0 
1299.049072 148.0 
1299.527222 164.0 
1336.136353 144.0 
1382.315063 172.0 
1383.824463 180.0 
1413.683716 160.0 
1417.815918 164.0 
1426.91748 160.0 
1430.84314 180.0 
1431.987305 148.0 
1458.679077 160.0 
1477.737183 164.0 
1514.311401 156.0 
1523.856812 176.0 
1622.574097 140.0 
1627.166382 160.0 
1869.530762 180.0 
1945.532227 156.0 
END IONS

