BEGIN IONS
PEPMASS=294.214
CHARGE=1+
MSLEVEL=2
SOURCE_INSTRUMENT=LC-ESI-qTof
FILENAME=2F5_tBuOValhexanoate_MNa_294.mzXML
SEQ=*..*
IONMODE=Positive
ORGANISM=GNPS-LIBRARY
NAME=tBuO-val-hexanoate (tert-butyl hexanoylvalinate) M+Na
PI=Dorrestein/Gerwick
DATACOLLECTOR=Luzzatto/Garg
SMILES=CCCCCC(NC(C(C)C)C(OC(C)(C)C)=O)=O
INCHI=InChI=1S/C15H29NO3/c1-7-8-9-10-12(17)16-13(11(2)3)14(18)19-15(4,5)6/h11,13H,7-10H2,1-6H3,(H,16,17)
INCHIAUX=N/A
PUBMED=N/A
SUBMITUSER=tal_lk
LIBRARYQUALITY=2
SPECTRUMID=CCMSLIB00000070302
SCANS=1669
95.845322 188.0 
95.888176 200.0 
96.00705 268.0 
96.629906 220.0 
96.655334 244.0 
96.909775 184.0 
97.348976 204.0 
97.55912 184.0 
97.887558 208.0 
97.99585 184.0 
98.368431 212.0 
98.461189 228.0 
98.589798 192.0 
99.133171 240.0 
99.17514 192.0 
99.855881 208.0 
100.325607 220.0 
101.046272 232.0 
101.07827 216.0 
101.134285 252.0 
101.619041 276.0 
101.671196 192.0 
102.115013 192.0 
102.735161 196.0 
102.965172 184.0 
103.165123 184.0 
103.405548 272.0 
103.877647 208.0 
104.291702 196.0 
104.458374 224.0 
105.389679 224.0 
105.479568 248.0 
105.864052 204.0 
106.855049 252.0 
106.9291 220.0 
107.132866 184.0 
108.028427 216.0 
108.371956 184.0 
108.504547 208.0 
109.122986 188.0 
109.1604 240.0 
109.376686 228.0 
109.462051 196.0 
109.709846 268.0 
110.012207 232.0 
110.218887 204.0 
110.872559 256.0 
110.969994 196.0 
111.164986 220.0 
111.793053 228.0 
111.856171 188.0 
111.963509 204.0 
111.984558 192.0 
112.134087 236.0 
113.208977 236.0 
113.653938 208.0 
114.974869 212.0 
115.092232 192.0 
115.361313 232.0 
115.504524 252.0 
115.831894 192.0 
116.188904 232.0 
116.307724 216.0 
116.720039 236.0 
117.206306 244.0 
117.435493 248.0 
117.449821 416.0 
117.495102 204.0 
117.918152 248.0 
118.292198 228.0 
118.703674 200.0 
118.844612 220.0 
119.169861 232.0 
119.211426 192.0 
119.746384 256.0 
120.038292 220.0 
120.12986 184.0 
120.21273 208.0 
120.328369 192.0 
120.564178 200.0 
120.722198 204.0 
121.724731 180.0 
121.830116 180.0 
121.904785 224.0 
122.505287 188.0 
122.943787 296.0 
123.358849 184.0 
123.858643 188.0 
124.062523 200.0 
124.129013 224.0 
124.171356 192.0 
124.705437 228.0 
124.870438 272.0 
125.504677 276.0 
125.843849 256.0 
126.380051 224.0 
126.691124 180.0 
127.233612 180.0 
127.455872 188.0 
127.518768 180.0 
127.543488 268.0 
127.625946 196.0 
127.948235 220.0 
128.025757 188.0 
128.286011 208.0 
128.906433 224.0 
129.587006 208.0 
129.605347 248.0 
129.91246 208.0 
130.115448 204.0 
130.181274 232.0 
130.367477 276.0 
130.976532 232.0 
131.042068 204.0 
131.743103 204.0 
131.87558 244.0 
132.582489 296.0 
133.063568 196.0 
133.406143 216.0 
134.204697 204.0 
134.255417 188.0 
134.366089 184.0 
134.578339 188.0 
134.995148 220.0 
135.718552 208.0 
136.057159 212.0 
136.286987 200.0 
136.375259 200.0 
136.723984 204.0 
137.161667 252.0 
137.315491 192.0 
137.980713 200.0 
138.783447 224.0 
138.987427 212.0 
139.069748 468.0 
139.424026 236.0 
140.066757 1040.0 
140.249802 208.0 
141.075638 204.0 
141.336426 232.0 
142.07222 188.0 
142.148102 232.0 
142.722702 260.0 
143.234161 200.0 
143.545868 204.0 
143.603455 204.0 
143.753693 180.0 
143.908936 196.0 
143.97084 188.0 
144.054413 180.0 
144.764465 200.0 
144.893753 180.0 
145.413879 196.0 
145.639481 192.0 
147.267029 208.0 
147.375687 220.0 
148.071442 180.0 
148.340927 224.0 
148.825943 200.0 
148.944885 232.0 
149.443054 184.0 
149.769119 184.0 
150.673767 252.0 
150.766586 236.0 
151.177261 240.0 
151.287354 188.0 
151.343643 184.0 
151.652176 252.0 
151.93161 184.0 
152.513336 224.0 
153.408981 276.0 
153.542068 208.0 
153.675217 188.0 
154.39621 220.0 
154.633621 192.0 
154.660828 180.0 
154.735062 224.0 
155.161026 248.0 
155.238937 228.0 
155.309738 200.0 
155.662018 208.0 
156.758575 208.0 
156.825836 180.0 
156.910553 328.0 
157.05513 188.0 
157.569153 204.0 
157.838974 208.0 
157.981476 236.0 
158.493073 216.0 
159.236755 200.0 
159.980728 184.0 
160.544891 200.0 
160.736526 192.0 
161.178238 196.0 
161.482483 272.0 
161.706543 208.0 
162.329498 184.0 
162.687103 184.0 
162.786072 228.0 
162.816132 200.0 
163.208969 252.0 
163.230591 272.0 
163.35318 200.0 
163.423828 224.0 
163.866653 192.0 
163.930328 252.0 
163.994019 220.0 
164.210648 288.0 
164.320282 236.0 
164.343231 252.0 
164.401901 236.0 
164.44783 220.0 
165.09903 212.0 
165.393143 216.0 
165.710556 232.0 
166.067505 184.0 
166.294983 368.0 
166.37709 220.0 
166.888153 248.0 
167.00766 228.0 
167.029526 184.0 
167.111816 228.0 
167.188187 272.0 
167.279037 268.0 
167.51326 220.0 
168.152451 212.0 
168.511017 236.0 
168.529312 228.0 
168.627213 192.0 
168.976425 192.0 
168.997116 212.0 
169.327011 188.0 
169.408585 184.0 
169.758347 180.0 
170.321289 236.0 
170.911194 184.0 
171.577667 196.0 
172.352097 204.0 
173.259338 200.0 
173.417175 208.0 
173.676636 184.0 
174.098389 200.0 
174.223404 212.0 
174.608643 204.0 
174.895309 200.0 
175.10849 204.0 
175.983612 188.0 
176.538284 188.0 
176.572647 284.0 
176.731308 292.0 
177.234177 284.0 
177.467331 204.0 
178.284561 216.0 
179.055756 216.0 
180.026077 188.0 
180.86792 208.0 
181.151642 224.0 
181.424805 180.0 
181.465988 264.0 
182.192062 188.0 
182.67038 256.0 
182.920273 192.0 
182.944748 188.0 
183.192383 184.0 
183.415955 256.0 
183.805374 184.0 
183.944427 196.0 
184.133362 232.0 
184.157654 184.0 
185.130859 204.0 
185.264313 268.0 
185.331238 228.0 
185.417908 220.0 
185.965546 276.0 
186.307541 228.0 
186.522125 180.0 
186.590057 196.0 
187.549301 196.0 
187.836792 188.0 
188.003143 180.0 
189.02475 188.0 
189.522888 228.0 
190.23291 208.0 
190.342697 260.0 
190.779358 220.0 
191.167007 212.0 
191.648697 216.0 
192.028961 204.0 
192.5383 196.0 
192.85968 184.0 
193.307526 204.0 
193.664505 224.0 
193.844513 188.0 
195.33046 180.0 
195.610168 196.0 
195.718704 208.0 
196.814056 196.0 
197.657852 196.0 
197.75296 200.0 
198.461411 240.0 
198.657639 244.0 
199.022339 208.0 
199.373322 292.0 
199.460419 200.0 
199.749924 208.0 
199.935547 236.0 
200.06778 192.0 
200.560852 184.0 
200.632584 212.0 
200.965668 224.0 
201.542221 244.0 
202.070724 216.0 
202.438538 192.0 
202.46402 240.0 
202.854858 192.0 
202.968384 204.0 
203.35614 204.0 
203.43898 184.0 
203.90657 256.0 
204.052597 252.0 
204.168915 180.0 
204.20871 228.0 
204.330261 240.0 
204.791931 224.0 
204.965576 184.0 
205.001953 240.0 
205.230804 188.0 
205.587036 476.0 
206.021973 196.0 
206.492294 220.0 
206.532318 224.0 
206.81546 204.0 
207.408127 304.0 
207.670471 180.0 
209.136551 236.0 
209.986145 200.0 
210.56601 212.0 
211.317276 188.0 
211.363556 196.0 
211.603683 240.0 
211.733765 336.0 
212.435089 192.0 
212.693237 208.0 
213.378525 224.0 
214.029999 224.0 
214.178452 272.0 
215.546158 184.0 
215.812027 180.0 
215.867569 188.0 
215.934799 204.0 
216.399887 204.0 
216.443787 180.0 
216.478912 200.0 
216.80101 236.0 
216.865463 180.0 
217.41954 180.0 
218.582764 240.0 
218.612183 248.0 
218.894653 256.0 
219.642929 256.0 
220.126266 200.0 
220.315201 216.0 
220.386826 184.0 
220.510635 224.0 
220.951035 224.0 
221.350449 192.0 
222.467743 184.0 
223.031891 224.0 
223.144806 244.0 
224.139664 208.0 
224.183197 236.0 
224.710754 224.0 
224.806839 240.0 
225.594376 180.0 
225.639008 184.0 
226.782227 216.0 
227.573868 228.0 
228.427017 192.0 
228.581604 188.0 
229.053833 260.0 
229.194397 200.0 
229.242599 260.0 
230.24675 204.0 
230.717926 212.0 
231.062546 220.0 
231.346909 212.0 
231.779831 232.0 
231.822235 180.0 
232.316238 212.0 
232.531586 188.0 
232.558899 264.0 
233.342651 240.0 
233.503403 200.0 
233.579407 224.0 
233.777084 240.0 
234.222717 232.0 
234.880508 196.0 
235.636795 248.0 
236.332031 204.0 
236.727814 292.0 
236.913635 276.0 
237.085037 200.0 
237.15448 416.0 
237.248352 212.0 
237.291199 204.0 
237.331207 304.0 
237.367981 276.0 
237.412018 188.0 
237.538956 312.0 
237.621613 208.0 
237.681 216.0 
237.730698 180.0 
237.795731 424.0 
237.850418 312.0 
237.920959 252.0 
237.961945 720.0 
237.998444 200.0 
238.023285 576.0 
238.076355 656.0 
238.104843 732.0 
238.143661 196272.0 
238.291534 228.0 
238.34758 348.0 
238.374695 340.0 
238.427765 824.0 
238.47229 500.0 
238.523132 528.0 
238.587936 212.0 
238.613937 1508.0 
238.65419 5256.0 
238.686859 992.0 
238.730011 220.0 
238.768341 276.0 
238.797272 196.0 
238.929764 272.0 
238.956497 212.0 
239.010086 212.0 
239.049088 232.0 
239.107773 260.0 
239.146027 40980.0 
239.243225 336.0 
239.380173 256.0 
239.422882 232.0 
239.696121 208.0 
240.146332 5536.0 
240.327438 392.0 
240.433151 216.0 
240.49733 196.0 
240.555023 220.0 
240.581009 308.0 
240.627808 264.0 
240.701019 252.0 
240.720627 244.0 
240.855576 312.0 
240.905396 252.0 
240.925903 332.0 
240.984406 232.0 
241.024353 224.0 
241.087524 292.0 
241.143173 456.0 
241.278107 256.0 
241.647629 216.0 
244.373703 196.0 
250.08876 200.0 
251.047775 204.0 
256.100281 404.0 
256.151703 2696.0 
256.270996 192.0 
263.483734 224.0 
267.493561 184.0 
274.027618 204.0 
274.455933 248.0 
279.168945 632.0 
279.225861 184.0 
280.171753 316.0 
288.284027 200.0 
289.978851 224.0 
292.903076 184.0 
293.174957 564.0 
293.50946 228.0 
293.724243 224.0 
294.126068 420.0 
294.205688 47976.0 
294.764648 228.0 
294.881226 188.0 
295.208099 5228.0 
295.274994 240.0 
296.152191 264.0 
296.209564 1288.0 
297.258698 256.0 
297.359863 268.0 
312.224884 212.0 
335.23056 312.0 
405.499176 208.0 
1065.072998 252.0 
1537.601807 192.0 
1688.268433 208.0 
1933.099365 212.0 
1948.349365 228.0 
1993.437378 200.0 
END IONS

