BEGIN IONS
PEPMASS=761.0
CHARGE=2+
MSLEVEL=2
SOURCE_INSTRUMENT=LC-ESI-qTof
FILENAME=1G1_761_RG1_01_9772.mzXML
SEQ=*..*
IONMODE=Positive
ORGANISM=GNPS-LIBRARY
NAME=Antanapeptin B M+Na
PI=Dorrestein/Gerwick
DATACOLLECTOR=Peng/Luzzatto/Garg
SMILES=CCC(C)[C@@H]1N(C)C(=O)[C@@H]2CCCN2C(=O)[C@@H](OC(=O)[C@H](CC2=CC=CC=C2)N(C)C(=O)[C@@H](NC(=O)C(C)C(CCCC=C)OC1=O)C(C)C)C(C)C
INCHI=InChI=1S/C41H62N4O8/c1-11-13-15-22-32-28(8)36(46)42-33(25(3)4)38(48)43(9)31(24-29-19-16-14-17-20-29)40(50)53-35(26(5)6)39(49)45-23-18-21-30(45)37(47)44(10)34(27(7)12-2)41(51)52-32/h11,14,16-17,19-20,25-28,30-35H,1,12-13,15,18,21-24H2,2-10H3,(H,42,46)/t27?,28?,30-,31-,32?,33-,34-,35-/m0/s1
INCHIAUX=LZACOZXZESEOFK-CVZHIFNESA-N
PUBMED=ChemSpider ID 9051640
SUBMITUSER=y6peng
LIBRARYQUALITY=2
SPECTRUMID=CCMSLIB00000072479
SCANS=2901
106.950073 200.0 
110.442902 184.0 
134.089996 208.0 
135.82106 200.0 
137.073654 148.0 
138.058365 220.0 
145.664032 200.0 
152.892517 244.0 
156.078217 204.0 
158.147156 140.0 
158.966339 184.0 
159.247391 284.0 
165.391205 152.0 
168.12471 204.0 
169.150375 156.0 
169.981964 164.0 
172.517746 252.0 
186.914291 180.0 
187.924759 140.0 
193.344208 168.0 
196.909698 164.0 
202.085007 664.0 
202.580856 188.0 
203.08342 228.0 
208.120087 280.0 
209.759247 152.0 
210.131104 172.0 
210.390747 156.0 
218.145538 180.0 
220.095291 1512.0 
221.100754 416.0 
222.107254 232.0 
223.175369 140.0 
226.950104 184.0 
230.16008 168.0 
233.121384 260.0 
238.108154 168.0 
239.408493 184.0 
242.245789 152.0 
258.144867 360.0 
259.171967 196.0 
262.230011 196.0 
269.953583 172.0 
271.200409 156.0 
272.328644 144.0 
275.519257 200.0 
276.157257 1680.0 
276.348755 160.0 
276.759003 228.0 
277.116577 192.0 
277.163971 308.0 
278.167419 184.0 
288.909668 176.0 
303.159363 188.0 
303.22171 180.0 
317.850616 188.0 
319.224762 156.0 
323.329163 204.0 
327.135864 204.0 
328.793182 140.0 
329.879913 140.0 
335.591919 176.0 
337.932159 160.0 
345.167908 216.0 
347.19104 968.0 
348.123749 228.0 
351.312164 180.0 
358.794556 224.0 
360.953308 196.0 
362.929047 244.0 
365.203735 224.0 
366.542358 172.0 
367.540985 168.0 
371.361115 156.0 
377.180542 148.0 
382.192932 144.0 
384.998413 148.0 
391.228973 184.0 
392.246094 144.0 
393.247528 184.0 
396.469452 228.0 
397.170929 160.0 
399.191132 748.0 
400.19342 368.0 
401.14566 148.0 
404.223694 184.0 
406.70343 180.0 
409.851013 156.0 
413.730713 232.0 
415.440155 184.0 
416.190674 172.0 
417.852325 204.0 
419.223755 364.0 
420.240723 312.0 
421.957581 164.0 
425.00766 216.0 
426.045959 140.0 
431.851593 156.0 
435.074097 152.0 
435.152924 192.0 
436.847839 148.0 
437.240051 756.0 
438.246094 588.0 
438.721008 240.0 
439.242035 140.0 
446.560669 196.0 
446.754059 252.0 
446.897064 192.0 
450.428406 156.0 
454.406128 216.0 
455.025513 148.0 
455.2547 268.0 
457.04126 216.0 
458.162842 208.0 
462.289978 148.0 
469.03009 156.0 
473.288025 192.0 
476.895874 244.0 
477.074036 176.0 
479.959381 144.0 
482.307343 168.0 
483.29068 188.0 
485.278351 140.0 
487.788452 140.0 
488.091675 296.0 
488.579681 232.0 
489.899811 156.0 
491.199707 192.0 
492.293793 276.0 
492.885956 188.0 
493.875336 168.0 
494.100861 208.0 
495.269012 212.0 
496.239136 140.0 
498.253204 140.0 
498.959564 176.0 
501.291992 368.0 
502.307007 156.0 
505.500153 176.0 
508.242981 312.0 
509.24649 292.0 
510.279602 232.0 
513.236511 216.0 
516.305908 248.0 
517.409485 224.0 
519.286316 200.0 
520.023926 236.0 
520.287109 176.0 
521.28595 184.0 
523.746216 148.0 
523.910095 224.0 
524.23999 824.0 
525.23938 312.0 
525.289062 424.0 
526.285889 264.0 
527.015808 204.0 
530.666687 148.0 
532.666748 164.0 
533.847473 164.0 
535.278015 224.0 
536.074585 144.0 
536.272705 164.0 
537.295532 3088.0 
538.10791 152.0 
538.295532 964.0 
538.357117 192.0 
539.151367 224.0 
539.298645 124.0 
540.297607 148.0 
541.121094 144.0 
543.228821 168.0 
544.708984 244.0 
546.544617 156.0 
548.993835 200.0 
551.622131 120.0 
553.669861 140.0 
554.344177 392.0 
554.386292 240.0 
554.559631 156.0 
557.90979 216.0 
560.219482 176.0 
560.874207 280.0 
561.218201 160.0 
562.897278 164.0 
563.681091 172.0 
564.791687 156.0 
566.433472 164.0 
566.746033 144.0 
568.423889 160.0 
570.013977 144.0 
573.510498 168.0 
574.640198 164.0 
577.737671 200.0 
577.930786 156.0 
578.294373 232.0 
578.32782 200.0 
579.543701 192.0 
579.744873 232.0 
580.396545 216.0 
582.36908 140.0 
582.881897 140.0 
583.905457 184.0 
591.387207 208.0 
592.29541 152.0 
593.530701 148.0 
594.306458 232.0 
594.607178 144.0 
599.44397 140.0 
600.090088 188.0 
600.363098 2456.0 
600.438049 280.0 
601.363708 460.0 
603.371765 144.0 
604.536194 128.0 
606.349609 284.0 
607.331421 188.0 
608.778687 148.0 
609.397339 168.0 
616.331909 208.0 
618.349976 156.0 
619.482117 164.0 
622.501343 172.0 
623.151794 220.0 
624.403931 148.0 
625.766785 148.0 
628.771362 192.0 
628.836243 192.0 
629.835266 156.0 
630.17395 172.0 
630.488647 164.0 
630.578552 212.0 
630.773376 176.0 
631.478149 244.0 
632.298279 184.0 
632.334778 300.0 
632.563477 152.0 
632.893738 152.0 
633.170959 300.0 
633.266663 160.0 
633.399353 144.0 
633.44812 224.0 
633.58252 180.0 
633.838074 124.0 
633.885132 216.0 
634.093689 232.0 
634.137146 152.0 
634.346008 37892.0 
634.490234 184.0 
634.526001 152.0 
634.600159 180.0 
634.688843 188.0 
634.92041 164.0 
635.145996 224.0 
635.215027 224.0 
635.35022 14140.0 
635.486938 156.0 
636.037292 236.0 
636.351257 4388.0 
637.051941 116.0 
637.309265 152.0 
637.354614 680.0 
637.847168 176.0 
638.34082 148.0 
638.441345 168.0 
638.582153 180.0 
638.691223 468.0 
638.791321 124.0 
638.831909 152.0 
638.88446 128.0 
639.930176 200.0 
640.045959 140.0 
642.025513 164.0 
643.669922 156.0 
646.484436 196.0 
646.696899 176.0 
646.934692 216.0 
647.377014 1368.0 
648.378906 652.0 
648.48407 140.0 
648.614441 212.0 
649.370422 136.0 
650.383789 168.0 
651.338684 348.0 
652.167358 204.0 
652.329956 188.0 
652.43158 168.0 
653.341492 144.0 
654.445496 184.0 
655.05127 204.0 
656.477783 148.0 
656.931519 160.0 
658.120117 140.0 
658.441711 168.0 
661.283142 188.0 
662.470581 156.0 
664.864075 152.0 
666.378235 228.0 
667.786194 184.0 
668.264404 176.0 
670.292236 216.0 
671.405273 160.0 
673.592773 156.0 
679.95874 200.0 
680.160217 196.0 
686.323364 140.0 
690.441772 180.0 
693.388062 248.0 
693.796753 204.0 
694.047729 192.0 
694.084961 284.0 
694.493896 156.0 
695.107422 220.0 
699.425659 176.0 
699.588806 140.0 
704.72876 172.0 
705.817139 192.0 
705.912292 208.0 
708.727173 192.0 
709.235718 152.0 
710.253296 196.0 
711.117798 156.0 
711.176208 208.0 
711.292908 168.0 
711.966919 192.0 
712.938721 168.0 
713.236206 140.0 
714.219482 148.0 
714.293945 144.0 
715.448181 144.0 
717.258606 156.0 
717.466553 180.0 
718.454895 324.0 
719.679626 148.0 
719.749023 332.0 
720.101318 200.0 
720.320251 160.0 
720.934448 156.0 
721.212219 160.0 
727.933044 244.0 
727.997437 204.0 
729.662415 172.0 
731.103394 204.0 
733.415771 188.0 
734.43634 176.0 
734.721313 120.0 
735.515686 152.0 
737.940247 148.0 
738.778198 208.0 
740.46814 344.0 
740.904846 164.0 
741.455566 124.0 
743.305786 160.0 
743.447449 176.0 
743.522766 152.0 
744.415833 220.0 
744.477844 148.0 
745.047913 180.0 
745.7323 176.0 
746.308289 144.0 
746.396973 176.0 
747.055542 136.0 
747.237976 152.0 
748.306335 168.0 
749.638184 204.0 
749.821533 116.0 
749.94873 176.0 
750.008667 152.0 
750.131042 140.0 
750.199341 188.0 
751.794434 120.0 
752.216858 140.0 
752.644958 128.0 
753.17749 176.0 
753.38501 144.0 
753.592529 140.0 
754.860107 192.0 
755.002258 132.0 
756.554504 228.0 
756.93634 132.0 
757.014343 196.0 
757.461487 164.0 
758.115906 212.0 
758.455566 160.0 
758.502991 184.0 
758.638184 216.0 
758.800781 184.0 
758.864624 184.0 
758.969727 164.0 
759.425293 324.0 
759.495667 168.0 
759.667969 156.0 
759.866028 512.0 
759.924683 276.0 
759.972656 328.0 
760.075684 176.0 
760.289246 204.0 
760.425049 208.0 
760.501587 260.0 
760.552734 180.0 
760.627197 220.0 
760.763 176.0 
760.826599 204.0 
760.959656 232.0 
761.044189 136.0 
761.141052 296.0 
761.190491 352.0 
761.292664 264.0 
761.44696 118032.0 
761.697266 264.0 
761.790405 160.0 
761.832336 480.0 
761.898438 224.0 
761.973938 216.0 
761.990906 404.0 
762.048828 176.0 
762.107483 264.0 
762.182739 164.0 
762.215637 172.0 
762.352173 384.0 
762.450012 53372.0 
762.622253 372.0 
762.811646 392.0 
762.897156 220.0 
763.006836 172.0 
763.157959 192.0 
763.210876 360.0 
763.276855 212.0 
763.450378 12980.0 
763.657715 132.0 
763.700256 120.0 
763.750061 292.0 
763.821106 128.0 
763.997803 244.0 
764.149963 168.0 
764.334412 172.0 
764.458679 2504.0 
764.766724 192.0 
764.863098 340.0 
764.95874 160.0 
765.131714 116.0 
765.348999 296.0 
765.451965 516.0 
765.601379 240.0 
765.653015 164.0 
765.705139 144.0 
765.801819 216.0 
765.852417 144.0 
765.946594 144.0 
766.147888 124.0 
766.20343 120.0 
766.327332 268.0 
766.450317 212.0 
766.492249 208.0 
766.584839 316.0 
766.658691 116.0 
766.727417 156.0 
766.918518 128.0 
767.063416 124.0 
767.172607 136.0 
767.262695 144.0 
767.320862 208.0 
767.38385 156.0 
767.444153 148.0 
768.047363 156.0 
768.364502 128.0 
770.828857 124.0 
772.179199 120.0 
772.715454 140.0 
773.07074 120.0 
778.413757 152.0 
784.364441 132.0 
787.526672 148.0 
788.029236 156.0 
796.945374 176.0 
804.280212 156.0 
813.179749 184.0 
830.477722 160.0 
863.964172 164.0 
883.771545 144.0 
885.830933 184.0 
886.630493 144.0 
913.031616 184.0 
915.473877 160.0 
938.295898 144.0 
954.754456 140.0 
967.416565 148.0 
985.688416 164.0 
988.182129 156.0 
988.770142 208.0 
1013.628784 148.0 
1015.612305 176.0 
1067.96167 168.0 
1073.254028 204.0 
1125.387573 144.0 
1238.280518 172.0 
1349.382568 164.0 
1551.438843 152.0 
1593.240967 140.0 
1658.115967 192.0 
1719.216919 160.0 
END IONS

