BEGIN IONS
PEPMASS=425.0
CHARGE=1+
MSLEVEL=2
SOURCE_INSTRUMENT=LC-ESI-Ion Trap
FILENAME=f.zhangyi/pure compounds/BL-I_pos.mzXML;
SEQ=*..*
IONMODE=Positive
ORGANISM=GNPS-LIBRARY
NAME=butyrolactone I M+H
PI=William Gerwick
DATACOLLECTOR=Yi Zhang
SMILES=CC(=CCc1cc(ccc1O)C[C@@]2(C(=C(C(=O)O2)O)c3ccc(cc3)O)C(=O)OC)C
INCHI=InChI=1S/C24H24O7/c1-14(2)4-6-17-12-15(5-11-19(17)26)13-24(23(29)30-3)20(21(27)22(28)31-24)16-7-9-18(25)10-8-16/h4-5,7-12,25-27H,6,13H2,1-3H3/t24-/m1/s1
INCHIAUX=
PUBMED=
SUBMITUSER=zhangyi
LIBRARYQUALITY=3
SPECTRUMID=CCMSLIB00005436071
SCANS=320
194.642792 1468.0 
202.987244 872.0 
221.18692 1233.0 
255.162781 3456.0 
269.076782 775.0 
306.070312 3574.0 
307.009766 2649.0 
319.119751 2324.0 
331.125793 15372.0 
349.078125 11279.0 
363.071533 32161.0 
364.965515 7229.0 
367.062073 794.0 
368.510803 2059.0 
374.788269 7186.0 
389.077271 11877.0 
391.692322 1646.0 
393.021301 101770.0 
393.796875 1.0 
397.053589 1534.0 
406.966919 5452.0 
425.246704 3900.0 
END IONS

