BEGIN IONS
PEPMASS=1156.6
CHARGE=1+
MSLEVEL=2
SOURCE_INSTRUMENT=LC-ESI-qTof
FILENAME=f.RReher/Culebra/pure_compounds/1156/2286_crude_3.79min_1156.6017_MS2_M+H.mgf;
SEQ=*..*
IONMODE=Positive
ORGANISM=GNPS-LIBRARY
NAME=Rivulariapeptolide 1155 M+H
PI=Gerwick
DATACOLLECTOR=Reher
SMILES=CC(C)[C@H](NC([C@H](CC1=CC=C(O)C=C1)N(C)C([C@H](CC2=CC=CC=C2)N3[C@H](O)CC[C@H](NC(/C(NC4=O)=C\C)=O)C3=O)=O)=O)C(O[C@H](C)[C@@H]4NC([C@H]([C@@H](OC(C5N(C(CCC)=O)CCC5)=O)C)NC(C6CCCN6C(CCC)=O)=O)=O)=O
INCHI=
INCHIAUX=
PUBMED=
SUBMITUSER=RReher
LIBRARYQUALITY=3
SPECTRUMID=CCMSLIB00005720236
SCANS=1
55.015572 71.0 
60.221992 60.0 
60.433128 58.0 
63.774464 65.0 
68.017517 59.0 
70.034195 2485.0 
71.035446 133.0 
72.915382 60.0 
84.015404 109.0 
91.026794 179.0 
107.021873 89.0 
108.654518 76.0 
117.037224 68.0 
119.025948 164.0 
120.055893 6101.0 
121.041908 99.0 
121.059929 351.0 
123.065964 97.0 
123.337166 66.0 
129.048019 70.0 
132.056091 62.0 
134.036224 81.0 
135.045334 188.0 
136.094162 59.0 
138.067261 86.0 
138.913269 59.0 
140.084305 33315.0 
141.088089 2726.0 
142.062225 128.0 
142.089706 260.0 
146.07399 367.0 
148.054245 97.0 
149.057617 89.0 
150.035294 115.0 
150.070099 35593.0 
151.072769 3145.0 
152.075546 294.0 
153.046112 262.0 
153.077576 115.0 
155.097 86.0 
158.075058 1482.0 
158.258392 65.0 
159.079971 462.0 
159.756592 67.0 
167.061539 78.0 
167.981339 59.0 
168.081955 90108.0 
168.151367 67.0 
168.24736 87.0 
168.277847 73.0 
169.085022 9663.0 
170.085129 888.0 
170.323578 63.0 
170.445526 74.0 
171.090637 75.0 
178.066193 124.0 
179.062653 1462.0 
180.063782 123.0 
180.629837 66.0 
181.079483 757.0 
182.081406 258.0 
186.094315 658.0 
187.10463 6331.0 
188.107468 829.0 
195.058731 94.0 
195.133713 219.0 
196.090683 219.0 
197.081604 63.0 
206.06427 159.0 
207.067398 71.0 
207.577347 60.0 
213.085327 122.0 
215.101669 21367.0 
216.105103 3391.0 
217.107864 187.0 
223.128494 18420.0 
224.082947 80.0 
224.132477 2863.0 
225.109802 142.0 
225.134811 145.0 
226.070328 317.0 
226.110275 77.0 
227.079453 92.0 
230.327637 58.0 
232.089767 60.0 
235.074539 63.0 
241.0858 199.0 
241.140915 9676.0 
242.087143 60.0 
242.144745 1401.0 
243.024506 62.0 
243.098694 56623.0 
243.478638 65.0 
243.598938 61.0 
244.102051 8512.0 
244.921692 61.0 
245.103165 959.0 
245.835037 78.0 
246.11142 98.0 
247.671295 77.0 
248.115524 135.0 
249.14621 250.0 
250.100784 75.0 
250.153214 86.0 
251.125092 26375.0 
252.129456 3478.0 
253.129959 711.0 
255.130005 59.0 
255.158783 64.0 
260.087677 72.0 
261.110718 310.0 
262.120636 117.0 
264.12323 122.0 
265.123047 85.0 
266.136871 69.0 
267.396912 65.0 
268.154602 347.0 
269.131958 312.0 
270.144379 238.0 
277.142487 405.0 
278.101746 69.0 
278.148834 206.0 
280.134521 126.0 
281.115356 70.0 
285.147583 92.0 
295.082153 62.0 
295.154419 7590.0 
296.157593 1307.0 
297.160583 328.0 
298.144684 6360.0 
299.147491 1075.0 
300.147736 119.0 
306.17157 796.0 
307.174744 83.0 
308.117554 4476.0 
309.123291 951.0 
309.151398 295.0 
310.123413 71.0 
311.168701 87.0 
313.147308 143.0 
314.140045 117.0 
316.160919 170.0 
323.168518 274.0 
324.184265 687.0 
325.142059 311.0 
325.18515 155.0 
326.140656 15007.0 
326.20462 69.0 
327.144043 3077.0 
328.146545 335.0 
328.196167 81.0 
329.149872 101.0 
332.18869 508.0 
332.442078 58.0 
333.188202 122.0 
334.027924 67.0 
334.167175 38920.0 
334.274139 61.0 
335.170319 7696.0 
336.172363 925.0 
337.137482 83.0 
337.173096 205.0 
337.365753 79.0 
338.198639 378.0 
339.204712 179.0 
342.172119 121.0 
344.886993 66.0 
345.169312 205.0 
347.106384 76.0 
347.166046 821.0 
348.173981 139.0 
350.199585 1783.0 
350.274353 76.0 
351.162872 887.0 
351.20285 444.0 
351.639191 60.0 
352.179596 8406.0 
353.181519 1469.0 
354.182587 179.0 
363.159119 312.0 
364.159698 135.0 
365.149353 105.0 
366.192719 352.0 
367.190582 101.0 
373.178772 110.0 
374.181641 75.0 
375.160736 218.0 
376.173218 151.0 
378.197449 94.0 
382.169739 218.0 
382.203125 334.0 
384.204102 85.0 
386.20282 1199.0 
386.805634 61.0 
387.200714 303.0 
388.209717 94.0 
389.209625 117.0 
391.191986 872.0 
392.151123 127.0 
392.190826 823.0 
393.168152 71.0 
393.194519 106.0 
394.188599 74.0 
396.216705 72.0 
397.223511 94.0 
399.195953 739.0 
400.19696 166.0 
404.160706 77.0 
408.138641 69.0 
408.171722 89.0 
408.243713 22772.0 
408.59021 59.0 
409.183533 612.0 
409.247894 5223.0 
409.376251 59.0 
410.19165 374.0 
410.246429 913.0 
411.201935 86.0 
415.251923 62.0 
417.207581 26687.0 
417.28009 88.0 
417.32309 81.0 
417.602051 58.0 
417.786377 66.0 
418.139709 90.0 
418.211243 5985.0 
418.752106 61.0 
419.055847 75.0 
419.101593 73.0 
419.140717 67.0 
419.213959 1268.0 
419.262421 113.0 
419.771973 61.0 
419.985229 100.0 
420.186462 154906.0 
420.311798 108.0 
420.423553 91.0 
420.498901 65.0 
420.574677 60.0 
420.611633 66.0 
420.683319 96.0 
420.74292 96.0 
420.787933 121.0 
420.957916 64.0 
421.016968 76.0 
421.060455 66.0 
421.101624 142.0 
421.189728 40975.0 
421.317474 94.0 
421.468018 108.0 
422.191956 6391.0 
422.427094 76.0 
423.192291 808.0 
423.774139 83.0 
424.204315 94.0 
424.805573 61.0 
430.185547 80.0 
432.206329 60.0 
432.804443 67.0 
433.238007 73.0 
434.235962 132.0 
434.408051 67.0 
434.688293 81.0 
435.043762 61.0 
435.09021 86.0 
435.144287 85.0 
435.219238 2964.0 
435.646179 73.0 
435.837433 77.0 
436.23938 135534.0 
436.366272 85.0 
436.444031 95.0 
436.513397 65.0 
436.591949 132.0 
436.685181 113.0 
436.725555 59.0 
436.834869 98.0 
436.943481 61.0 
437.242676 34563.0 
437.521301 65.0 
437.68457 60.0 
438.178711 98.0 
438.244598 5229.0 
439.109955 62.0 
439.194611 84.0 
439.249054 659.0 
439.60495 82.0 
439.640717 62.0 
439.713898 83.0 
439.750793 64.0 
439.86377 95.0 
439.975952 92.0 
440.200867 59.0 
440.250885 66.0 
440.309753 65.0 
442.227173 239.0 
443.226593 540.0 
444.226624 153.0 
445.229828 119.0 
446.210693 147.0 
447.193024 59.0 
447.250549 71.0 
449.236511 73.0 
450.230621 64.0 
451.250305 985.0 
452.258209 420.0 
453.255554 155.0 
454.139099 58.0 
454.265106 72.0 
457.378021 58.0 
461.236389 1437.0 
462.236542 396.0 
463.238647 191.0 
465.9263 69.0 
467.243256 69.0 
468.2453 233.0 
475.228271 190.0 
476.237976 77.0 
478.264557 58.0 
480.242828 107.0 
481.247192 107.0 
485.249054 93.0 
486.202667 85.0 
486.232025 172.0 
487.20932 104.0 
488.232819 378.0 
488.727417 329.0 
489.223755 95.0 
490.229248 269.0 
491.266418 180.0 
492.238434 171.0 
493.240021 115.0 
497.222809 133.0 
497.739807 83.0 
498.224823 248.0 
498.265503 98.0 
498.72818 123.0 
503.226288 37364.0 
503.832336 66.0 
504.147949 169.0 
504.228699 12211.0 
505.156799 107.0 
505.227112 2656.0 
505.724792 393.0 
506.228607 541.0 
506.735535 141.0 
507.230896 820.0 
507.735809 291.0 
508.240906 376.0 
508.734589 135.0 
509.292572 102.0 
511.26178 71.0 
512.257446 79.0 
519.27832 7096.0 
520.281799 1700.0 
521.242065 242.0 
521.286194 238.0 
522.237549 108.0 
525.271362 81.0 
526.261169 74.0 
528.281494 65.0 
529.271912 397.0 
530.270813 82.0 
532.277161 1324.0 
533.281738 386.0 
534.290405 847.0 
535.288635 178.0 
537.283386 1672.0 
538.290894 435.0 
539.275513 157.0 
541.246094 157.0 
542.238525 100.0 
545.29126 78.0 
546.293396 66.0 
547.291931 73.0 
554.27002 73.0 
555.255615 62.0 
555.288879 78.0 
558.277161 84.0 
559.256897 518.0 
560.250793 151.0 
561.265076 91.0 
562.299377 66.0 
569.243835 144.0 
573.267456 85.0 
574.296143 63.0 
575.291504 89.0 
576.296509 1247.0 
577.307129 500.0 
578.315613 149.0 
579.017212 77.0 
579.998596 91.0 
580.340881 114.0 
580.781006 1133.0 
581.162903 58.0 
581.282166 810.0 
581.359375 109.0 
581.785156 394.0 
582.286438 89.0 
582.346741 58.0 
584.315491 399.0 
585.30957 341.0 
586.275452 202.0 
586.781189 1441.0 
587.283691 1640.0 
587.782471 338.0 
588.290222 368.0 
588.769531 145.0 
589.233582 60.0 
589.286072 197.0 
589.785034 415.0 
590.288635 429.0 
590.785156 369.0 
591.296204 160.0 
592.308899 87.0 
594.309509 79.0 
594.784729 61.0 
595.287659 101.0 
595.792358 71.0 
597.773804 1825.0 
598.273193 1127.0 
598.773071 376.0 
599.274353 153.0 
599.493347 64.0 
600.268738 58.0 
600.341003 111.0 
601.332581 92.0 
602.060059 90.0 
602.184753 98.0 
602.318604 44334.0 
603.149353 68.0 
603.321594 15122.0 
603.580322 62.0 
603.704224 65.0 
604.324036 3241.0 
605.273682 108.0 
605.331665 621.0 
606.338501 60.0 
606.859863 73.0 
613.312866 143.0 
615.331177 94.0 
616.745361 70.0 
619.331238 66.0 
620.318237 2778.0 
621.320557 942.0 
622.32196 286.0 
623.330872 71.0 
626.217468 62.0 
628.334961 3411.0 
629.337891 1231.0 
630.334106 428.0 
631.322571 513.0 
632.356812 523.0 
633.302246 101.0 
633.37085 369.0 
634.364441 127.0 
636.357849 211.0 
637.300476 79.0 
640.041504 58.0 
641.303284 234.0 
642.302917 135.0 
646.361633 116.0 
649.342163 183.0 
657.339783 285.0 
658.323853 888.0 
659.320984 3730.0 
660.327759 1259.0 
661.323792 450.0 
662.322205 111.0 
667.323608 80.0 
669.299194 68.0 
670.330322 71.0 
671.305725 77.0 
675.348816 537.0 
676.243774 58.0 
676.352295 177.0 
677.331665 516.0 
678.341736 297.0 
679.321167 71.0 
680.330261 87.0 
683.257263 60.0 
685.257019 81.0 
685.336182 3766.0 
686.340637 1609.0 
687.339783 422.0 
688.343323 64.0 
690.351013 253.0 
691.350952 166.0 
692.365112 79.0 
693.357544 121.0 
696.381104 87.0 
703.239624 81.0 
703.346924 13760.0 
704.34967 6662.0 
705.352417 1162.0 
706.355652 417.0 
711.373413 1746.0 
712.377197 395.0 
713.374023 289.0 
714.379822 105.0 
715.364441 81.0 
716.373474 103.0 
719.399231 10347.0 
720.403748 4238.0 
721.405518 1072.0 
721.771545 67.0 
722.330383 67.0 
722.414062 175.0 
723.356201 70.0 
729.382629 476.0 
730.370605 124.0 
731.389404 137.0 
732.393005 86.0 
733.402954 83.0 
734.395264 111.0 
743.776611 65.0 
749.449341 126.0 
750.464844 98.0 
769.358276 107.0 
773.396484 359.0 
774.375549 95.0 
775.42395 122.0 
776.276367 60.0 
776.395752 299.0 
777.389587 100.0 
786.372742 192.0 
787.393677 126.0 
788.428589 92.0 
797.399841 86.0 
798.424866 61.0 
799.427185 115.0 
800.363953 66.0 
801.424316 111.0 
806.467773 91.0 
808.404175 136.0 
813.444153 768.0 
814.367615 79.0 
814.443848 344.0 
815.39209 137.0 
816.437378 134.0 
817.424194 81.0 
818.445557 82.0 
819.413879 146.0 
826.421143 190.0 
827.411926 75.0 
831.46814 407.0 
832.462585 150.0 
834.432678 150.0 
835.455505 85.0 
836.406555 1327.0 
837.409119 594.0 
838.411133 160.0 
840.452209 76.0 
844.424255 721.0 
845.429504 493.0 
846.433838 94.0 
848.375061 61.0 
854.412415 831.0 
855.411438 494.0 
856.422363 158.0 
858.172913 60.0 
862.440247 678.0 
863.438721 485.0 
864.443909 215.0 
865.384277 60.0 
870.43811 115.0 
871.439087 77.0 
878.471069 79.0 
880.445007 352.0 
881.445862 92.0 
882.450928 87.0 
883.44635 97.0 
885.460571 69.0 
892.461731 84.0 
893.226868 58.0 
896.481995 13995.0 
897.338989 62.0 
897.483948 6809.0 
898.380371 61.0 
898.486877 2061.0 
899.400269 75.0 
899.493591 539.0 
900.465698 84.0 
909.492493 89.0 
910.480591 59.0 
912.439636 66.0 
913.515808 260.0 
925.387817 80.0 
925.497253 288.0 
926.490845 293.0 
927.496399 59.0 
927.547363 96.0 
935.473633 816.0 
936.471313 396.0 
937.47052 151.0 
938.460876 72.0 
944.500732 61.0 
952.309021 67.0 
953.483032 14387.0 
954.36084 105.0 
954.487488 9012.0 
954.891907 60.0 
955.48938 2824.0 
956.499573 652.0 
957.492126 123.0 
961.518921 263.0 
962.513855 102.0 
971.495117 2318.0 
972.503357 1362.0 
973.493164 483.0 
974.504028 101.0 
976.448853 66.0 
979.49585 388.0 
980.501343 256.0 
981.490662 121.0 
982.510742 61.0 
995.970276 71.0 
996.240906 79.0 
997.507446 16703.0 
997.689148 72.0 
998.511047 9198.0 
999.121216 74.0 
999.512939 3190.0 
1000.520264 713.0 
1001.53595 175.0 
1002.534607 78.0 
1004.51947 83.0 
1007.506348 60.0 
1015.482483 103.0 
1016.535278 65.0 
1019.557556 58.0 
1021.523926 361.0 
1022.518555 224.0 
1023.536011 126.0 
1025.555664 70.0 
1039.522583 1886.0 
1040.522949 1501.0 
1041.530029 410.0 
1042.514771 191.0 
1044.557617 64.0 
1065.358521 70.0 
1068.544067 689.0 
1069.401489 62.0 
1069.553955 403.0 
1070.573242 104.0 
1073.440186 61.0 
1082.584717 74.0 
1093.444336 78.0 
1094.605713 131.0 
1095.598633 93.0 
1096.413696 72.0 
1096.643677 59.0 
1104.619141 72.0 
1110.595459 736.0 
1111.598877 512.0 
1112.595581 278.0 
1114.464844 78.0 
1116.07019 81.0 
1117.59668 69.0 
1118.628662 100.0 
1120.57312 298.0 
1121.591309 250.0 
1122.598999 144.0 
1123.585083 65.0 
1126.162354 78.0 
1128.143921 64.0 
1128.581543 121.0 
1129.203613 62.0 
1129.623413 84.0 
1130.579834 88.0 
1132.342041 66.0 
1133.064331 62.0 
1133.604492 72.0 
1134.631836 100.0 
1135.38562 83.0 
1135.466553 72.0 
1135.608521 63.0 
1136.092896 63.0 
1136.274658 63.0 
1136.492554 75.0 
1136.557861 137.0 
1136.676758 115.0 
1137.16626 134.0 
1137.236084 71.0 
1137.374878 188.0 
1137.51001 58.0 
1137.591187 99.0 
1137.692383 161.0 
1137.829712 88.0 
1137.916138 67.0 
1137.972656 93.0 
1138.104126 114.0 
1138.136475 112.0 
1138.339722 164.0 
1138.591553 120988.0 
1138.831055 231.0 
1138.936768 119.0 
1139.041504 200.0 
1139.124512 191.0 
1139.227417 85.0 
1139.282959 200.0 
1139.338501 168.0 
1139.593872 84841.0 
1139.800537 154.0 
1139.922241 98.0 
1140.004883 247.0 
1140.104614 127.0 
1140.165283 143.0 
1140.229004 185.0 
1140.304565 122.0 
1140.397461 255.0 
1140.597778 30636.0 
1140.740234 151.0 
1140.869019 96.0 
1140.974976 206.0 
1141.028809 125.0 
1141.106445 112.0 
1141.233154 141.0 
1141.308838 211.0 
1141.420654 133.0 
1141.597534 7344.0 
1141.80481 86.0 
1141.948242 75.0 
1142.084717 78.0 
1142.217651 131.0 
1142.317993 138.0 
1142.422485 66.0 
1142.484131 64.0 
1142.608765 1180.0 
1142.883179 67.0 
1142.992188 62.0 
1143.26416 81.0 
1143.35791 82.0 
1143.443848 60.0 
1143.616333 277.0 
1143.700439 69.0 
1143.768188 93.0 
1144.183716 80.0 
1144.310547 78.0 
1144.381104 82.0 
1144.494995 146.0 
1144.599731 111.0 
1144.687378 158.0 
1144.828857 90.0 
1144.883301 83.0 
1145.104736 62.0 
1145.268921 128.0 
1145.345947 120.0 
1145.50293 86.0 
1145.620117 117.0 
1145.773315 94.0 
1145.897217 97.0 
1145.9552 100.0 
1146.12146 63.0 
1146.207397 81.0 
1146.598145 93.0 
1146.929199 105.0 
1147.801758 79.0 
1148.380615 58.0 
1149.432861 70.0 
1152.521729 66.0 
1152.578857 116.0 
1152.660156 73.0 
1153.365845 98.0 
1153.572632 148.0 
1153.706177 62.0 
1154.100952 137.0 
1154.192871 80.0 
1154.477417 62.0 
1154.59021 238.0 
1154.702148 116.0 
1154.841064 81.0 
1154.965576 71.0 
1155.034546 114.0 
1155.093018 178.0 
1155.222656 73.0 
1155.42395 142.0 
1155.509277 100.0 
1155.600586 187.0 
1155.749512 84.0 
1155.902588 84.0 
1156.03894 141.0 
1156.134888 192.0 
1156.393188 552.0 
1156.599487 136730.0 
END IONS

