BEGIN IONS
PEPMASS=754.0
CHARGE=2+
MSLEVEL=2
SOURCE_INSTRUMENT=LC-ESI-qTof
FILENAME=1G10_754_RG10_01_9781.mzXML
SEQ=*..*
IONMODE=Positive
ORGANISM=GNPS-LIBRARY
NAME=Microcolin B M+Na
PI=Dorrestein/Gerwick
DATACOLLECTOR=Peng/Luzzatto/Garg
SMILES=CCCC[C@@H](C)C[C@@H](C)C(=O)N(C)[C@@H](CC(C)C)C(=O)N[C@@H](C(C)OC(C)=O)C(=O)N(C)[C@@H](C(C)C)C(=O)N1CCC[C@H]1C(=O)N1[C@@H](C)C=CC1=O
INCHI=InChI=1S/C39H65N5O8/c1-13-14-16-25(6)22-26(7)36(48)41(11)31(21-23(2)3)35(47)40-33(28(9)52-29(10)45)38(50)42(12)34(24(4)5)39(51)43-20-15-17-30(43)37(49)44-27(8)18-19-32(44)46/h18-19,23-28,30-31,33-34H,13-17,20-22H2,1-12H3,(H,40,47)/t25-,26-,27+,28?,30+,31+,33+,34+/m1/s1
INCHIAUX=MNASOWORUXKEPP-RKVCBYGQSA-N
PUBMED=ChemSpider ID:4591074
SUBMITUSER=y6peng
LIBRARYQUALITY=2
SPECTRUMID=CCMSLIB00000072492
SCANS=3077
97.212547 244.0 
97.817642 236.0 
100.112503 1604.0 
110.449677 200.0 
114.404785 280.0 
115.616646 236.0 
115.708649 280.0 
120.040642 368.0 
120.248543 208.0 
125.334183 196.0 
127.064011 244.0 
127.762413 244.0 
130.57515 212.0 
134.021271 236.0 
138.051712 192.0 
149.794312 216.0 
150.001358 192.0 
152.106964 444.0 
153.110901 240.0 
155.152481 252.0 
156.152634 236.0 
159.853241 200.0 
160.069626 192.0 
168.096497 216.0 
169.134125 420.0 
170.137787 208.0 
170.846954 200.0 
172.097427 192.0 
172.267105 216.0 
177.097244 196.0 
180.10051 228.0 
190.101959 256.0 
195.113495 516.0 
196.957123 252.0 
197.128891 1676.0 
198.131088 524.0 
204.121262 232.0 
206.101486 240.0 
206.132904 256.0 
209.125702 216.0 
209.710129 204.0 
211.14415 488.0 
212.14534 224.0 
213.95787 192.0 
219.105453 208.0 
225.12114 1020.0 
233.12558 1188.0 
233.169662 208.0 
240.520676 236.0 
251.169235 204.0 
254.246704 1160.0 
255.246964 416.0 
255.46315 264.0 
255.71759 200.0 
257.128143 192.0 
259.642456 208.0 
261.222046 192.0 
265.211456 216.0 
271.167053 212.0 
274.110352 232.0 
277.179169 200.0 
282.242615 1960.0 
283.242249 1112.0 
284.251007 572.0 
285.115234 220.0 
287.128479 308.0 
292.437103 236.0 
295.873077 232.0 
296.068176 220.0 
296.229034 744.0 
304.221497 540.0 
304.252808 232.0 
304.986694 232.0 
305.221588 324.0 
308.292786 200.0 
317.163147 416.0 
321.254425 264.0 
321.720306 204.0 
323.102753 256.0 
324.387848 244.0 
328.172668 244.0 
330.178131 12464.0 
330.273132 244.0 
331.180328 2668.0 
331.336578 220.0 
332.126526 264.0 
332.18634 516.0 
334.170898 372.0 
335.093506 204.0 
336.721497 200.0 
337.083008 240.0 
337.240082 200.0 
337.286163 912.0 
338.286743 648.0 
342.783051 192.0 
343.438995 196.0 
344.616119 200.0 
345.029907 232.0 
345.228516 280.0 
348.18927 300.0 
351.665192 220.0 
355.708862 480.0 
356.205841 440.0 
356.456787 192.0 
357.712433 216.0 
359.264801 300.0 
360.657166 208.0 
361.281738 300.0 
362.287384 304.0 
363.026184 228.0 
365.276154 2560.0 
366.279968 980.0 
366.959991 200.0 
367.669189 228.0 
368.956177 240.0 
371.727753 204.0 
372.145966 232.0 
373.221985 628.0 
374.224915 256.0 
375.288177 220.0 
380.69931 204.0 
385.721771 1028.0 
386.219635 492.0 
386.724121 420.0 
387.260925 1424.0 
388.264862 384.0 
389.261688 268.0 
389.530396 228.0 
394.845245 216.0 
395.20282 916.0 
397.145844 240.0 
397.232635 204.0 
398.200165 196.0 
399.20575 192.0 
401.225037 200.0 
405.277435 384.0 
411.304413 192.0 
413.213959 3580.0 
413.267639 204.0 
414.215729 876.0 
415.292267 196.0 
416.221222 220.0 
416.814026 204.0 
418.30365 568.0 
419.28772 2032.0 
420.296326 680.0 
423.199493 1020.0 
424.207703 360.0 
426.195892 212.0 
438.731384 224.0 
441.350311 220.0 
443.040131 204.0 
443.599457 200.0 
444.932953 192.0 
447.282135 740.0 
447.513306 244.0 
448.279388 364.0 
450.367065 8060.0 
450.442719 212.0 
451.196228 216.0 
451.370117 1580.0 
452.376831 472.0 
454.05191 228.0 
456.347809 868.0 
459.88678 196.0 
459.925171 208.0 
460.753235 288.0 
465.306854 368.0 
466.969635 216.0 
469.349884 276.0 
469.415527 220.0 
469.734558 220.0 
472.351257 460.0 
473.233856 1284.0 
478.210663 192.0 
478.316284 240.0 
478.362366 3608.0 
479.362427 736.0 
480.372589 336.0 
481.363617 280.0 
483.219269 956.0 
484.355865 320.0 
489.892792 216.0 
491.263184 204.0 
493.965515 232.0 
494.25296 196.0 
497.345001 200.0 
500.188538 244.0 
500.342316 948.0 
500.753784 240.0 
501.355286 628.0 
507.947021 204.0 
512.355103 196.0 
512.860352 232.0 
512.918152 224.0 
518.316589 224.0 
518.351318 312.0 
520.14801 212.0 
522.764771 204.0 
524.282471 196.0 
525.414612 412.0 
526.61554 192.0 
527.354919 272.0 
527.411316 248.0 
528.370117 220.0 
533.963928 192.0 
536.039246 284.0 
538.382385 204.0 
539.389954 672.0 
540.655273 204.0 
541.566956 204.0 
545.551208 232.0 
545.630188 200.0 
547.434814 204.0 
549.344788 348.0 
555.371826 240.0 
555.981506 276.0 
558.965332 264.0 
559.401794 192.0 
560.364014 232.0 
561.372559 200.0 
562.355957 364.0 
565.28009 236.0 
565.942505 252.0 
569.314148 192.0 
569.400391 1280.0 
570.408203 352.0 
571.395813 208.0 
573.360718 312.0 
575.323669 236.0 
576.378723 204.0 
578.271667 204.0 
578.374695 204.0 
581.548645 256.0 
583.555786 228.0 
585.234253 196.0 
591.164124 212.0 
592.252991 220.0 
593.682129 224.0 
594.380371 192.0 
594.671448 220.0 
594.821838 212.0 
596.413147 208.0 
598.408081 200.0 
603.465454 232.0 
604.269775 260.0 
604.421204 216.0 
605.358276 204.0 
605.735229 208.0 
608.931885 212.0 
609.413086 320.0 
615.197449 244.0 
615.408264 248.0 
617.301392 236.0 
627.336426 196.0 
627.465942 192.0 
629.4198 676.0 
630.434021 352.0 
630.914246 204.0 
631.899048 212.0 
633.451538 220.0 
638.648376 284.0 
638.973206 192.0 
641.975952 196.0 
642.984497 284.0 
644.089783 192.0 
644.958496 232.0 
645.794434 224.0 
646.970947 228.0 
647.745422 204.0 
649.660767 216.0 
649.868652 252.0 
650.350586 244.0 
650.425964 256.0 
651.442688 392.0 
652.447632 200.0 
652.594971 256.0 
657.16687 204.0 
657.406311 392.0 
657.656555 196.0 
658.421875 576.0 
661.048584 204.0 
661.882568 376.0 
661.969604 256.0 
664.051636 196.0 
665.649902 200.0 
666.456299 972.0 
666.635742 224.0 
667.452759 332.0 
667.709778 216.0 
670.128113 224.0 
676.445068 328.0 
677.437195 200.0 
677.575073 268.0 
678.489197 284.0 
678.75116 192.0 
679.17041 192.0 
679.795593 212.0 
685.013489 208.0 
686.193665 352.0 
688.480591 304.0 
688.559692 336.0 
689.56958 192.0 
690.569641 204.0 
690.608398 220.0 
691.692261 372.0 
692.034241 240.0 
692.211914 228.0 
693.13916 248.0 
693.681946 248.0 
694.001648 260.0 
694.088806 252.0 
694.157654 228.0 
694.294739 276.0 
694.348816 340.0 
694.449402 69504.0 
694.557434 352.0 
694.645508 288.0 
694.756531 244.0 
694.803955 196.0 
695.128113 300.0 
695.353943 224.0 
695.452881 26300.0 
695.574402 280.0 
695.652466 256.0 
695.760925 204.0 
695.9375 208.0 
696.196716 232.0 
696.36908 260.0 
696.452942 5552.0 
696.545044 272.0 
697.025879 292.0 
697.172546 204.0 
697.450928 884.0 
697.987366 212.0 
698.454529 292.0 
698.949829 200.0 
699.032043 204.0 
699.136597 320.0 
700.047058 296.0 
700.752686 280.0 
702.417847 332.0 
707.224182 212.0 
709.075073 288.0 
710.401001 284.0 
712.354858 192.0 
712.583252 200.0 
714.226501 196.0 
715.296875 204.0 
715.50177 224.0 
716.987305 208.0 
717.175293 288.0 
720.069641 228.0 
721.917969 204.0 
725.139465 204.0 
727.396667 204.0 
727.472656 196.0 
727.657471 260.0 
728.24469 192.0 
728.341309 208.0 
728.932007 208.0 
729.164856 196.0 
731.490234 304.0 
732.201416 200.0 
733.884277 196.0 
734.146118 228.0 
734.200012 228.0 
735.316284 204.0 
735.882874 248.0 
736.562988 212.0 
736.882751 264.0 
738.616211 208.0 
738.750122 224.0 
739.455139 312.0 
740.405334 216.0 
741.744934 224.0 
742.970093 272.0 
744.66095 204.0 
745.673096 256.0 
745.88147 208.0 
745.974487 292.0 
747.368286 336.0 
747.805908 324.0 
748.129089 232.0 
748.284912 348.0 
748.848694 208.0 
749.206421 224.0 
749.546204 192.0 
750.114624 280.0 
750.300903 272.0 
750.74292 248.0 
750.81427 208.0 
751.293457 228.0 
751.371643 192.0 
751.456909 872.0 
751.754089 228.0 
751.906067 240.0 
751.959473 1208.0 
752.019104 440.0 
752.063049 384.0 
752.187134 532.0 
752.460815 1240.0 
752.608276 388.0 
752.815002 260.0 
752.850098 328.0 
752.972595 416.0 
753.044495 224.0 
753.158386 468.0 
753.225403 424.0 
753.294373 472.0 
753.372314 424.0 
753.427734 396.0 
753.481079 588.0 
753.594116 284.0 
753.675171 412.0 
753.720093 232.0 
753.778137 620.0 
753.812622 624.0 
753.87561 292.0 
753.963379 420.0 
754.102295 284.0 
754.208008 688.0 
754.282654 684.0 
754.332642 808.0 
754.473511 345036.0 
754.618408 488.0 
754.659912 688.0 
754.772461 452.0 
754.83783 372.0 
754.992493 820.0 
755.101685 548.0 
755.142883 1076.0 
755.203247 476.0 
755.296143 364.0 
755.383179 4584.0 
755.47583 188280.0 
755.614441 340.0 
755.721497 316.0 
755.851746 308.0 
755.902771 416.0 
755.944214 776.0 
756.010071 340.0 
756.122009 352.0 
756.239868 332.0 
756.307556 468.0 
756.37793 1600.0 
756.476746 60100.0 
756.702515 340.0 
756.793762 244.0 
756.877808 400.0 
756.942749 272.0 
756.996948 260.0 
757.072021 268.0 
757.163269 236.0 
757.237122 316.0 
757.308167 256.0 
757.414734 276.0 
757.47876 8608.0 
757.663513 228.0 
757.714905 220.0 
757.819946 340.0 
757.87207 264.0 
758.112366 188.0 
758.480347 756.0 
758.57135 484.0 
758.66095 212.0 
758.740906 372.0 
758.875916 260.0 
758.925537 312.0 
759.03479 360.0 
759.129578 452.0 
759.260864 476.0 
759.34491 528.0 
759.364136 200.0 
759.381897 372.0 
759.489868 316.0 
759.576721 348.0 
759.671509 212.0 
759.708923 268.0 
759.950684 208.0 
760.052673 244.0 
760.285095 200.0 
760.348877 272.0 
760.525757 260.0 
760.743225 220.0 
761.007446 212.0 
762.342224 220.0 
775.485718 228.0 
789.453857 200.0 
1058.714844 196.0 
1073.877319 188.0 
1201.547241 212.0 
1324.036499 188.0 
1389.953125 192.0 
1593.467651 192.0 
1766.373901 232.0 
1856.785156 244.0 
1862.593384 240.0 
1935.266235 192.0 
1944.914185 212.0 
END IONS

