BEGIN IONS
PEPMASS=491.0
CHARGE=2+
MSLEVEL=2
SOURCE_INSTRUMENT=LC-ESI-qTof
FILENAME=1E5_491MH_RE5_01_9752.mzXML
SEQ=*..*
IONMODE=Positive
ORGANISM=GNPS-LIBRARY
NAME=Jamaicamide C M+H
PI=Dorrestein/Gerwick
DATACOLLECTOR=Peng/Luzzatto/Garg
SMILES=CO\C(CCNC(=O)CC\C=C\C(C)CC\C(CCCC=C)=C\Cl)=C\C(=O)N1C(C)C=CC1=O
INCHI=InChI=1S/C27H39ClN2O4/c1-5-6-7-11-23(20-28)15-13-21(2)10-8-9-12-25(31)29-18-17-24(34-4)19-27(33)30-22(3)14-16-26(30)32/h5,8,10,14,16,19-22H,1,6-7,9,11-13,15,17-18H2,2-4H3,(H,29,31)/b10-8+,23-20+,24-19+
INCHIAUX=PRVBXXHHHXSICY-GDKFLGFMSA-N
PUBMED=ChemSpider ID:10207720
SUBMITUSER=y6peng
LIBRARYQUALITY=2
SPECTRUMID=CCMSLIB00000072509
SCANS=2935
95.232727 252.0 
96.530174 220.0 
97.563049 188.0 
97.728195 180.0 
98.057854 428.0 
99.043556 1312.0 
99.123665 212.0 
100.047485 404.0 
100.170288 192.0 
101.052345 152.0 
101.139259 248.0 
101.165161 192.0 
101.198395 284.0 
101.528893 248.0 
101.89608 144.0 
102.642525 252.0 
103.642693 188.0 
103.96701 156.0 
104.794296 192.0 
105.06942 188.0 
105.712791 320.0 
106.319145 184.0 
106.727776 224.0 
108.310059 220.0 
109.06089 200.0 
109.649673 212.0 
109.724686 256.0 
110.061554 176.0 
110.867599 236.0 
111.001709 184.0 
111.044579 10880.0 
112.046906 1096.0 
112.34938 208.0 
112.579361 140.0 
113.053001 260.0 
113.344818 168.0 
118.385696 168.0 
119.629318 224.0 
121.565063 240.0 
124.389053 168.0 
124.699898 156.0 
125.610214 196.0 
125.65036 160.0 
126.933708 164.0 
127.317299 156.0 
127.744179 164.0 
127.795906 152.0 
127.922226 184.0 
128.071075 20680.0 
128.229111 136.0 
129.05397 180.0 
129.073868 2604.0 
130.061691 140.0 
130.082108 148.0 
130.141113 248.0 
131.02095 172.0 
132.798676 152.0 
133.761047 212.0 
134.944046 172.0 
135.110504 196.0 
147.060562 220.0 
147.128128 184.0 
147.867508 172.0 
148.095001 180.0 
148.200195 208.0 
149.137909 216.0 
149.502579 208.0 
151.437866 148.0 
153.050659 184.0 
156.620438 176.0 
159.140259 216.0 
163.150757 184.0 
173.660034 196.0 
174.384399 216.0 
174.85762 188.0 
176.735779 192.0 
178.089905 228.0 
179.182785 200.0 
182.078583 180.0 
185.130203 184.0 
186.233582 216.0 
186.499756 148.0 
187.149673 164.0 
187.759827 208.0 
193.091461 224.0 
193.783081 204.0 
196.097992 468.0 
198.483414 224.0 
200.909698 140.0 
201.038925 200.0 
202.344803 212.0 
204.979599 216.0 
207.032715 336.0 
207.513916 188.0 
207.75473 176.0 
207.915344 160.0 
208.097382 20196.0 
208.187958 176.0 
208.220428 168.0 
208.449265 172.0 
209.100571 3084.0 
209.49614 156.0 
210.101089 412.0 
210.733307 140.0 
213.156784 160.0 
214.918533 144.0 
224.716827 244.0 
231.178574 348.0 
233.233185 228.0 
236.127197 368.0 
239.146423 216.0 
250.146027 200.0 
257.49942 164.0 
260.200958 140.0 
264.153564 140.0 
271.092407 192.0 
279.187225 212.0 
289.915985 144.0 
305.210724 180.0 
312.004944 168.0 
330.861115 176.0 
336.669281 268.0 
341.336029 184.0 
344.593048 156.0 
344.770355 160.0 
344.910736 172.0 
345.505859 188.0 
350.464142 144.0 
358.232605 828.0 
359.242767 236.0 
360.860687 188.0 
362.189209 596.0 
363.194916 400.0 
364.189209 260.0 
365.197083 160.0 
371.033539 148.0 
389.330872 160.0 
390.033356 204.0 
390.375275 180.0 
393.7276 144.0 
394.214355 5384.0 
394.686554 188.0 
395.126312 176.0 
395.217316 1968.0 
395.284515 204.0 
395.640594 184.0 
396.212128 1464.0 
397.213745 1088.0 
397.578064 140.0 
406.886841 184.0 
423.265442 172.0 
425.199585 168.0 
439.195557 184.0 
459.244995 292.0 
460.260101 156.0 
461.250854 212.0 
467.863068 168.0 
488.33371 204.0 
489.239807 176.0 
489.349823 168.0 
490.361359 200.0 
491.265808 1940.0 
492.269958 884.0 
493.264709 1424.0 
494.257812 244.0 
986.63031 248.0 
1030.048462 200.0 
1176.902466 180.0 
1204.182129 176.0 
1231.348633 180.0 
1270.655029 240.0 
1286.990112 192.0 
1352.188477 176.0 
1369.001099 216.0 
1386.34729 244.0 
1387.858765 280.0 
1492.079224 168.0 
1517.392456 196.0 
1524.989136 220.0 
1565.247681 240.0 
1581.456787 184.0 
1621.776123 164.0 
1628.481079 196.0 
1669.741211 196.0 
1694.890869 224.0 
1719.791138 224.0 
1731.833374 236.0 
1732.769043 220.0 
1737.467896 244.0 
1804.258667 212.0 
1826.807739 216.0 
1829.385254 252.0 
1839.132935 260.0 
1852.235962 176.0 
1861.22876 184.0 
1867.69751 180.0 
1879.745605 180.0 
1880.875854 176.0 
1884.138794 164.0 
1917.245972 236.0 
1936.669067 240.0 
1938.324219 204.0 
1941.846924 288.0 
1963.509277 176.0 
1964.858276 228.0 
1966.790039 160.0 
1974.996338 200.0 
1977.250732 236.0 
1978.772583 256.0 
1991.741455 200.0 
2002.098999 164.0 
END IONS

