BEGIN IONS
PEPMASS=511.2
CHARGE=0+
MSLEVEL=2
SOURCE_INSTRUMENT=LC-ESI-qTof
FILENAME=20130221_Ger_Jenia_Heteronemin_MNa511-qb.1.1..mgf
SEQ=*..*
IONMODE=Positive
ORGANISM=GNPS-LIBRARY
NAME=Heteronemin M+Na
PI=Gerwick
DATACOLLECTOR=Jenia
SMILES=CC(=O)O[C@H]1C[C@H]2[C@@]3(CC[C@@H]4[C@@]([C@H]3C[C@H]([C@@]2([C@@H]5C1=CO[C@H]5OC(=O)C)C)O)(CCCC4(C)C)C)C
INCHI=InChI=1S/C29H44O6/c1-16(30)34-19-13-22-28(6)12-9-20-26(3,4)10-8-11-27(20,5)21(28)14-23(32)29(22,7)24-18(19)15-33-25(24)35-17(2)31/h15,19-25,32H,8-14H2,1-7H3/t19-,20-,21+,22-,23+,24+,25-,27-,28+,29+/m0/s1
INCHIAUX=N/A
PUBMED=N/A
SUBMITUSER=mwang87
LIBRARYQUALITY=1
SPECTRUMID=CCMSLIB00000001724
SCANS=1
148.903534 9462.0 
216.679565 7322.0 
227.036621 9309.0 
336.751831 23047.0 
351.076782 5020.0 
368.898987 67772.0 
384.790771 1481.0 
391.079712 6743.0 
397.156616 14463.0 
409.597656 13944.0 
427.830444 9170.0 
428.802795 8818.0 
431.5849 619479.0 
432.589294 47.0 
438.63916 2648.0 
445.671936 24099.0 
448.576782 13753.0 
449.645203 17322.0 
451.292419 18505.0 
453.883972 4708.0 
465.135925 12064.0 
467.352661 7792.0 
469.379883 16003.0 
471.253052 64613.0 
472.043335 8208.0 
477.073608 11992.0 
480.694153 15044.0 
489.666443 2743.0 
490.654419 36584.0 
491.481445 5979.0 
492.654297 4399.0 
512.213013 10347.0 
END IONS

