BEGIN IONS
PEPMASS=756.33
CHARGE=1+
MSLEVEL=2
SOURCE_INSTRUMENT=LC-ESI-Ion Trap
FILENAME=f.yuhaobing/microcolins Fedback/2,3-Dihydromicrocolin B.mzXML;
SEQ=*..*
IONMODE=Positive
ORGANISM=GNPS-LIBRARY
NAME=2,3-dihydromicrocolin B M+Na
PI=Gerwick
DATACOLLECTOR=Haobing Yu
SMILES=CN(C([C@H](C)C[C@H](C)CCCC)=O)[C@@H](CC(C)C)C(N[C@@H]([C@@H](C)OC(C)=O)C(N(C)[C@@H](C(C)C)C(N1[C@H](C(N2C(CC[C@@H]2C)=O)=O)CCC1)=O)=O)=O
INCHI=
INCHIAUX=
PUBMED=31468974
SUBMITUSER=yuhaobing
LIBRARYQUALITY=3
SPECTRUMID=CCMSLIB00005463473
SCANS=594
253.485718 193944.0 
282.248291 711954.0 
332.243591 4402288.0 
333.302734 1320535.0 
341.685425 668669.0 
344.536011 427495.0 
364.99646 367321.0 
369.856995 532380.0 
370.582397 53.0 
372.336487 473612.0 
381.967529 883233.0 
387.442749 2437685.0 
415.033569 301219.0 
419.461853 1249359.0 
426.404724 339120.0 
447.297058 7975027.0 
448.152893 17.0 
450.42334 2753835.0 
451.106628 25.0 
465.588684 363042.0 
472.409546 774544.0 
475.266418 4621132.0 
478.30542 6927603.0 
479.059021 353.0 
485.626892 2921482.0 
486.274963 16.0 
500.038147 526381.0 
513.307861 1630434.0 
518.439453 829906.0 
524.157349 775292.0 
529.208252 248690.0 
551.45752 518134.0 
560.529907 326667.0 
629.611328 817930.0 
652.410156 1114716.0 
657.441162 1016650.0 
675.329834 1330181.0 
696.516113 402356288.0 
697.531372 70956096.0 
698.138184 136335.0 
755.453125 4918757.0 
756.448364 440735808.0 
757.483032 169197568.0 
758.280273 832.0 
END IONS

