BEGIN IONS
PEPMASS=977.494
CHARGE=1+
MSLEVEL=2
SOURCE_INSTRUMENT=LC-ESI-Orbitrap
FILENAME=f.RReher/Culebra/pure_compounds/955/SPE1-1-7_955.5074_MS2_M+Na_QE.mgf;
SEQ=*..*
IONMODE=Positive
ORGANISM=GNPS-LIBRARY
NAME=Rivulariapeptolide 954 M+Na
PI=Gerwick
DATACOLLECTOR=Raphael Reher
SMILES=CC(C)[C@H](NC([C@H](CC1=CC=C(O)C=C1)N(C)C([C@H](CC(C)C)N2[C@H](O)CC[C@H](NC(/C(NC3=O)=C\C)=O)C2=O)=O)=O)C(O[C@H](C)[C@@H]3NC([C@H]([C@@H](O)C)NC(C4CCCN4C(CCC)=O)=O)=O)=O
INCHI=
INCHIAUX=
PUBMED=
SUBMITUSER=RReher
LIBRARYQUALITY=3
SPECTRUMID=CCMSLIB00005723403
SCANS=1
91.953331 4974.559082 
91.95417 6172.526855 
91.955002 5356.356934 
91.955841 3017.586182 
118.913223 1937.417725 
118.914452 3607.020508 
118.91568 4311.631348 
118.916908 3598.137695 
118.918144 2015.534546 
121.503189 1962.666016 
121.504463 3739.453125 
121.50573 4667.499512 
121.507004 4098.200684 
121.50827 2437.124023 
150.085342 932.936279 
150.087082 2643.381104 
150.088821 6729.691895 
150.090576 11927.152344 
150.092316 13867.958008 
150.094055 9385.217773 
150.09581 4634.694824 
150.097549 1476.012085 
155.91243 2217.918457 
155.914276 3696.329102 
155.916122 4544.023438 
155.917969 4380.134277 
155.919815 3295.819092 
157.052475 1971.270386 
157.054337 3625.318604 
157.056213 4563.990723 
157.058075 4078.719482 
157.059937 2454.851807 
161.066818 3131.240479 
161.068756 5345.874023 
161.070694 5913.578613 
161.072632 4349.431641 
161.07457 1908.098267 
162.083679 1746.70459 
162.085648 4775.708496 
162.087601 8598.744141 
162.089554 10611.783203 
162.091522 9241.762695 
162.093475 5575.174316 
162.095428 2241.623535 
190.078308 1656.953613 
190.080795 3762.64502 
190.083267 5280.870605 
190.085754 5149.604492 
190.088242 3484.598633 
220.112747 2383.605225 
220.115845 5224.366211 
220.118942 7147.122559 
220.12204 6625.646973 
220.125137 4044.845459 
220.128235 1403.319458 
247.134979 1574.113159 
247.138672 3710.598633 
247.142349 5167.742188 
247.146042 4886.923828 
247.149719 3162.495361 
249.110855 1988.924194 
249.114578 4825.808594 
249.118317 9260.088867 
249.12204 12899.019531 
249.125778 10691.972656 
249.129501 4764.842773 
249.133224 2063.197021 
263.123383 1485.946167 
263.127441 2818.857666 
263.1315 7873.403809 
263.135529 13484.068359 
263.139587 15068.155273 
263.143646 10216.344727 
263.147675 5193.640137 
263.151733 1392.355225 
269.68866 3160.91748 
269.692871 4398.634277 
269.697052 4657.025879 
269.701263 3646.871826 
269.705475 1896.030396 
302.134186 2251.870117 
302.13916 5418.220215 
302.144135 8383.833008 
302.149109 8963.416992 
302.154114 6686.776367 
302.159088 3253.427002 
304.151642 3292.284424 
304.156677 7096.91748 
304.161713 10117.571289 
304.166748 10004.092773 
304.171783 6849.834961 
304.176788 2967.371094 
310.103973 1785.921509 
310.109131 3836.305664 
310.114319 5380.213867 
310.119507 5336.133789 
310.124695 3719.002441 
346.162994 1991.086792 
346.169098 4028.63208 
346.175201 4950.912598 
346.181335 4039.831299 
346.187439 2018.498657 
350.149506 1476.96582 
350.155701 4552.221191 
350.161926 8742.253906 
350.168121 11307.568359 
350.174347 10293.398438 
350.180573 6496.949707 
350.186768 2619.503906 
357.170197 265.613678 
357.176605 4462.699707 
357.183014 10447.680664 
357.189423 16879.732422 
357.195831 17079.804688 
357.202209 11105.429688 
357.208618 5556.111816 
357.215027 1637.412964 
371.106506 2565.646484 
371.113312 4236.59082 
371.120087 5032.357422 
371.126862 4497.854492 
371.133636 2982.694824 
385.155304 96.14843 
385.162476 4238.091797 
385.169647 16990.253906 
385.176819 31768.199219 
385.18399 45124.816406 
385.191162 39041.929688 
385.198334 23671.984375 
385.205505 9608.567383 
385.212677 2367.779053 
413.149384 54.411823 
413.157349 4538.213379 
413.165314 14019.552734 
413.173279 24037.267578 
413.181244 28248.736328 
413.189209 19834.478516 
413.197174 10562.650391 
413.205139 3119.237061 
413.213104 878.205139 
429.192413 2973.897949 
429.200867 6913.294922 
429.20929 10356.432617 
429.217712 10726.057617 
429.226166 7659.050293 
429.234589 3444.88208 
457.183472 1657.376587 
457.192749 7611.744141 
457.202026 13641.930664 
457.211304 17519.330078 
457.220581 13215.876953 
457.229828 7513.876465 
457.239105 2351.572998 
498.203186 2627.010742 
498.213745 5641.228027 
498.224304 8428.089844 
498.234833 9147.984375 
498.245392 7195.179688 
498.255951 3918.746094 
525.245361 2782.651123 
525.256775 5245.180664 
525.268188 6436.788574 
525.279602 5459.717773 
525.291077 3095.095703 
542.236694 2228.204834 
542.248657 4355.085938 
542.260681 5508.900879 
542.272644 4769.271973 
542.284607 2651.607666 
544.218201 2280.314697 
544.230225 4580.740723 
544.242249 5709.408203 
544.254333 4843.047852 
544.266357 2711.592041 
569.254333 2820.711914 
569.267212 4929.836914 
569.28009 5751.09082 
569.292969 4759.631348 
569.305847 2726.710205 
626.270935 1645.769165 
626.285767 4430.001465 
626.300659 8040.496582 
626.315491 10101.322266 
626.330383 8958.348633 
626.345276 5419.010254 
626.360107 1999.43689 
639.284302 3793.504395 
639.299622 6682.422363 
639.314941 7732.895996 
639.330261 6090.48584 
639.345642 3054.264648 
655.293274 1883.664429 
655.309204 4786.34668 
655.325134 7971.17627 
655.341003 9430.913086 
655.356934 8017.177246 
655.372864 4683.574707 
655.388794 1617.206421 
657.286682 2120.110107 
657.302673 5041.806152 
657.318604 7223.569824 
657.334595 6939.508301 
657.350586 4424.978516 
657.366577 1710.315308 
701.305298 2913.483398 
701.322876 5910.215332 
701.340515 8363.442383 
701.358093 8705.339844 
701.375732 6728.171875 
701.393372 3743.310059 
933.407104 2129.301758 
933.434143 4519.105469 
933.461182 6103.097168 
933.48822 5695.709961 
933.51532 3573.530273 
977.338562 2698.129883 
977.367554 4533.163086 
977.396545 16205.541016 
977.425537 57487.101562 
977.454468 117618.546875 
977.483459 180927.453125 
977.512451 178285.203125 
977.541443 114418.5 
977.570435 54518.175781 
977.599426 15240.893555 
977.628418 4709.036133 
977.65741 3521.77124 
977.686401 1810.925293 
END IONS

