BEGIN IONS
PEPMASS=513.0
CHARGE=2+
MSLEVEL=2
SOURCE_INSTRUMENT=LC-ESI-qTof
FILENAME=1E5_513MNa_RE5_01_9752.mzXML
SEQ=*..*
IONMODE=Positive
ORGANISM=GNPS-LIBRARY
NAME=Jamaicamide C M+Na
PI=Dorrestein/Gerwick
DATACOLLECTOR=Peng/Luzzatto/Garg
SMILES=CO\C(CCNC(=O)CC\C=C\C(C)CC\C(CCCC=C)=C\Cl)=C\C(=O)N1C(C)C=CC1=O
INCHI=InChI=1S/C27H39ClN2O4/c1-5-6-7-11-23(20-28)15-13-21(2)10-8-9-12-25(31)29-18-17-24(34-4)19-27(33)30-22(3)14-16-26(30)32/h5,8,10,14,16,19-22H,1,6-7,9,11-13,15,17-18H2,2-4H3,(H,29,31)/b10-8+,23-20+,24-19+
INCHIAUX=PRVBXXHHHXSICY-GDKFLGFMSA-N
PUBMED=ChemSpider ID:10207720
SUBMITUSER=y6peng
LIBRARYQUALITY=2
SPECTRUMID=CCMSLIB00000072510
SCANS=2934
99.516251 172.0 
104.505287 236.0 
111.043228 936.0 
114.768402 236.0 
116.355331 176.0 
118.054733 176.0 
120.040672 372.0 
126.841827 184.0 
128.071198 316.0 
130.354553 216.0 
131.084717 188.0 
132.043167 244.0 
133.027206 196.0 
135.070526 168.0 
137.484268 260.0 
141.35321 188.0 
143.575867 188.0 
146.017746 164.0 
148.035461 228.0 
151.033096 420.0 
151.09285 232.0 
152.011307 184.0 
156.707596 172.0 
165.052002 284.0 
172.207993 180.0 
175.112915 188.0 
176.075165 404.0 
177.04007 180.0 
179.678467 168.0 
180.049347 268.0 
188.029816 168.0 
198.051392 260.0 
200.053329 172.0 
200.4841 244.0 
201.251053 180.0 
201.304688 228.0 
201.448669 180.0 
203.047256 212.0 
209.864899 264.0 
210.009018 192.0 
217.47818 176.0 
218.078217 212.0 
221.29425 172.0 
223.245941 180.0 
224.183289 216.0 
224.284592 216.0 
229.559189 204.0 
230.078568 3392.0 
231.08107 576.0 
234.048187 244.0 
234.867645 232.0 
235.343536 176.0 
237.763931 196.0 
239.780624 176.0 
240.230621 188.0 
242.013168 184.0 
243.976288 232.0 
244.299576 192.0 
244.719559 180.0 
247.913788 176.0 
251.882812 244.0 
257.090942 320.0 
257.231323 176.0 
258.112732 252.0 
258.653198 184.0 
260.406372 228.0 
261.158173 200.0 
264.189148 192.0 
265.361053 164.0 
272.106354 172.0 
272.788574 184.0 
273.087067 192.0 
274.740601 188.0 
274.77359 188.0 
276.527557 168.0 
278.078033 188.0 
283.485291 172.0 
285.3508 236.0 
285.787872 180.0 
285.93924 204.0 
286.999939 200.0 
287.212311 184.0 
288.111481 180.0 
288.57608 168.0 
290.414185 172.0 
292.094849 168.0 
292.669769 252.0 
296.19281 176.0 
296.384583 180.0 
298.900482 208.0 
301.036865 224.0 
302.177063 240.0 
302.322327 204.0 
304.085632 168.0 
304.259125 232.0 
305.301117 192.0 
305.850616 312.0 
306.160553 864.0 
307.034729 212.0 
307.156982 224.0 
308.160797 372.0 
308.291016 276.0 
309.647858 168.0 
310.607849 228.0 
310.695526 168.0 
310.758667 184.0 
312.258026 164.0 
312.929871 188.0 
316.593658 228.0 
317.241821 212.0 
320.163116 196.0 
322.743805 256.0 
323.451904 172.0 
324.038971 172.0 
324.156647 224.0 
325.415649 192.0 
327.241394 200.0 
327.680603 176.0 
328.596008 224.0 
329.678802 228.0 
330.369141 204.0 
330.528259 196.0 
330.940735 188.0 
332.360992 164.0 
333.486328 272.0 
333.875183 188.0 
334.62085 184.0 
334.704559 180.0 
336.603577 268.0 
337.388794 176.0 
337.831116 168.0 
338.749603 168.0 
338.877777 260.0 
339.225769 180.0 
339.269745 172.0 
341.688965 180.0 
344.613708 216.0 
346.242157 288.0 
348.207001 236.0 
349.190674 208.0 
349.396027 184.0 
350.196014 168.0 
350.613129 196.0 
352.186951 176.0 
352.343781 312.0 
353.876587 244.0 
355.160126 212.0 
357.183746 412.0 
357.843536 236.0 
358.683289 220.0 
359.112976 224.0 
360.127869 464.0 
360.309113 192.0 
362.124084 164.0 
362.605072 184.0 
363.040863 196.0 
364.319458 192.0 
365.353088 208.0 
365.820984 200.0 
367.939758 164.0 
368.875305 176.0 
369.184418 584.0 
369.724091 184.0 
369.915375 236.0 
370.181152 236.0 
370.478088 200.0 
371.685303 168.0 
373.49408 168.0 
374.171082 180.0 
375.519226 164.0 
376.460541 264.0 
379.87677 232.0 
380.223236 424.0 
380.318939 168.0 
381.216064 184.0 
382.327484 180.0 
383.137054 192.0 
383.803284 184.0 
384.166199 396.0 
384.77829 164.0 
385.174683 172.0 
385.371704 172.0 
386.164948 180.0 
386.563843 164.0 
386.892487 180.0 
387.095581 188.0 
387.51886 220.0 
388.161438 196.0 
388.777069 188.0 
388.906525 244.0 
389.051697 172.0 
389.781952 220.0 
390.221985 164.0 
390.681946 208.0 
391.043793 168.0 
391.519989 224.0 
391.748352 184.0 
392.559937 164.0 
393.735504 176.0 
395.256836 236.0 
395.332001 176.0 
395.889954 224.0 
396.182922 196.0 
396.880188 180.0 
397.903442 284.0 
398.21701 172.0 
398.677094 164.0 
398.827881 184.0 
399.18631 160.0 
399.727081 160.0 
400.188629 220.0 
401.802124 228.0 
402.179138 312.0 
402.360657 196.0 
404.226471 212.0 
404.458496 160.0 
405.199066 260.0 
405.715851 188.0 
407.587524 288.0 
408.578094 168.0 
408.755066 192.0 
411.034882 184.0 
413.236084 216.0 
413.660858 236.0 
413.693207 168.0 
413.741791 268.0 
414.381409 196.0 
414.786499 164.0 
416.088196 268.0 
416.196503 5120.0 
417.198669 1528.0 
417.289612 216.0 
418.194 2720.0 
418.962311 164.0 
419.19342 524.0 
419.4552 204.0 
419.679321 276.0 
419.789368 240.0 
420.549072 184.0 
421.376556 176.0 
423.220795 204.0 
423.891907 160.0 
424.254242 172.0 
424.633636 164.0 
425.010895 200.0 
425.843903 236.0 
426.246338 224.0 
426.554474 168.0 
426.940796 276.0 
428.669098 184.0 
428.990448 164.0 
429.526306 208.0 
429.78363 180.0 
430.264679 168.0 
430.293579 200.0 
430.846771 196.0 
431.123474 168.0 
431.293976 192.0 
431.507751 248.0 
433.73819 264.0 
434.17334 176.0 
434.384796 180.0 
435.231079 240.0 
436.090668 204.0 
436.148834 208.0 
436.984375 180.0 
440.848175 240.0 
441.847107 184.0 
443.022766 196.0 
443.370667 164.0 
444.284393 212.0 
444.473114 192.0 
444.552795 176.0 
445.047913 208.0 
445.299774 176.0 
445.824738 164.0 
446.261719 168.0 
446.665283 196.0 
446.876007 176.0 
446.912903 172.0 
447.71286 292.0 
449.149506 160.0 
449.280212 192.0 
450.713348 208.0 
450.955933 228.0 
452.089294 220.0 
454.041107 168.0 
454.698425 188.0 
454.872406 160.0 
455.131256 236.0 
456.337463 204.0 
456.771057 184.0 
458.162537 172.0 
458.503265 212.0 
458.584229 184.0 
459.110016 192.0 
459.163818 208.0 
459.846191 204.0 
460.546112 192.0 
460.913361 212.0 
461.455994 272.0 
461.981812 172.0 
462.739014 172.0 
463.299805 200.0 
464.576813 172.0 
466.349518 164.0 
467.536072 260.0 
467.99649 216.0 
468.108398 184.0 
468.231232 256.0 
470.254486 204.0 
471.14093 228.0 
471.601501 168.0 
472.016357 204.0 
472.254517 224.0 
472.677917 180.0 
473.223083 200.0 
473.664642 192.0 
474.755737 208.0 
475.810364 164.0 
476.374695 184.0 
477.226166 168.0 
477.271301 444.0 
477.582642 268.0 
477.626099 176.0 
478.126251 160.0 
478.161072 188.0 
478.235016 208.0 
478.275909 172.0 
479.149109 232.0 
479.387268 188.0 
479.780792 160.0 
479.937683 200.0 
480.334381 260.0 
481.02356 188.0 
481.221252 1188.0 
482.22406 336.0 
483.229218 1004.0 
483.366974 180.0 
483.702087 172.0 
485.199677 168.0 
485.24054 632.0 
485.60733 176.0 
485.782715 220.0 
488.215027 192.0 
489.010986 176.0 
489.605103 168.0 
491.838196 232.0 
491.896942 208.0 
492.07785 204.0 
492.302948 172.0 
494.229462 204.0 
494.441803 208.0 
494.494873 216.0 
495.318115 188.0 
496.102142 224.0 
496.704987 220.0 
497.308197 160.0 
497.388062 188.0 
498.15152 184.0 
498.23407 168.0 
501.06427 188.0 
501.420593 212.0 
501.941956 172.0 
502.088165 196.0 
502.775818 184.0 
503.855957 160.0 
503.931885 188.0 
504.007812 164.0 
505.171173 164.0 
505.392242 160.0 
505.693024 260.0 
505.787079 224.0 
505.961548 288.0 
506.219574 216.0 
506.367401 160.0 
506.594391 164.0 
506.765869 204.0 
506.955109 228.0 
507.082214 184.0 
507.337555 164.0 
507.421478 160.0 
507.536255 164.0 
508.455811 184.0 
508.546997 216.0 
508.995728 220.0 
509.770386 200.0 
510.464539 216.0 
511.089539 220.0 
511.239929 568.0 
511.381927 224.0 
511.594055 284.0 
511.770233 288.0 
511.810516 176.0 
511.870453 208.0 
511.926453 208.0 
512.005127 208.0 
512.113831 184.0 
512.199463 188.0 
512.236755 264.0 
512.268005 216.0 
512.380798 176.0 
512.410156 260.0 
512.456848 236.0 
512.586365 168.0 
512.647949 188.0 
512.723145 244.0 
512.863281 392.0 
513.011108 396.0 
513.067749 248.0 
513.13385 600.0 
513.170227 324.0 
513.251404 162880.0 
513.408691 160.0 
513.465515 216.0 
513.502625 320.0 
513.567688 252.0 
513.642822 300.0 
513.687256 224.0 
513.73822 632.0 
513.775696 192.0 
513.790894 164.0 
513.84082 160.0 
513.864136 204.0 
513.924683 296.0 
513.994751 1844.0 
514.043457 164.0 
514.115173 440.0 
514.171814 384.0 
514.254578 66916.0 
514.363098 312.0 
514.41687 244.0 
514.496277 220.0 
514.556335 240.0 
514.675049 200.0 
514.724609 188.0 
514.786011 384.0 
514.830688 328.0 
514.887573 212.0 
515.088318 260.0 
515.122559 480.0 
515.168091 212.0 
515.248962 74164.0 
515.387512 256.0 
515.455811 164.0 
515.544678 196.0 
515.635559 276.0 
515.66449 208.0 
515.776184 256.0 
515.920532 188.0 
516.003601 212.0 
516.069763 188.0 
516.251465 19304.0 
516.432556 208.0 
516.49646 312.0 
516.584717 180.0 
516.719788 436.0 
516.835693 248.0 
516.930298 200.0 
516.974731 160.0 
517.056091 408.0 
517.088196 244.0 
517.189026 348.0 
517.253357 1864.0 
517.320068 272.0 
517.37738 440.0 
517.432129 288.0 
517.487244 308.0 
517.767029 192.0 
517.811462 200.0 
518.146057 228.0 
518.261719 300.0 
519.298096 256.0 
519.530396 244.0 
520.344116 160.0 
520.698059 160.0 
520.959778 272.0 
528.945923 160.0 
530.108765 160.0 
532.213379 160.0 
540.368225 184.0 
561.917603 160.0 
586.390869 164.0 
641.267822 160.0 
645.709045 164.0 
669.714233 168.0 
683.344299 168.0 
686.515259 188.0 
714.926331 180.0 
798.418579 168.0 
880.317627 180.0 
1000.715942 176.0 
1056.581787 180.0 
1200.360474 184.0 
1273.131348 176.0 
1528.502808 208.0 
1786.530396 176.0 
1802.543457 208.0 
1874.935547 200.0 
1975.4198 224.0 
END IONS

