BEGIN IONS
PEPMASS=1792.05
CHARGE=1+
MSLEVEL=2
SOURCE_INSTRUMENT=LC-ESI-Ion Trap
FILENAME=f.RReher/2226/2226H.mzXML;
SEQ=*..*
IONMODE=Positive
ORGANISM=GNPS-LIBRARY
NAME=Samholide E/F/G M+Na
PI=Gerwick
DATACOLLECTOR=Daojing Zhang
SMILES=C[C@H]1C[C@H](C[C@@H](O1)CC[C@H](C)[C@@H]([C@H](C)[C@@H]2C[C@@H](C[C@@H]([C@@H]([C@H](C[C@@H]3CC=C[C@H](O3)C[C@H](Ccc(/C=C/C(O[C@@H](C[C@@H](C[C@@H]([C@@H]([C@H](C[C@@H]4CC=C[C@H](O4)C[C@H](Ccc(/C=C/C(O2)=O)C)O[C@@H]5[C@H]([C@@H]([C@H](CO5)OC)OC)O)OC)C)O)O)[C@@H](C)[C@H]([C@@H](C)CC[C@H]6C[C@@H](C[C@@H](O6)C)OC)O)=O)C)O[C@@H]7[C@H]([C@@H]([C@H](CO7)OC)OC)OC([C@@H](CO)O)=O)OC)C)O)O)O)OC
INCHI=
INCHIAUX=
PUBMED=29457979
SUBMITUSER=RReher
LIBRARYQUALITY=3
SPECTRUMID=CCMSLIB00005436033
SCANS=951
532.040039 2722.0 
549.113037 4836.0 
594.251709 6547.0 
614.369873 2773.0 
636.991943 5392.0 
641.626953 3035.0 
649.379395 6218.0 
681.326416 7711.0 
682.405518 8268.0 
685.392334 11534.0 
703.387207 26793.0 
704.216553 4.0 
737.459717 11746.0 
755.377686 6637.0 
828.556641 3014.0 
845.608643 54450.0 
861.279175 3555.0 
863.515137 318079.0 
864.503418 88991.0 
865.543701 18110.0 
891.557007 6325.0 
919.314941 2622.0 
931.36731 2623.0 
933.556396 16268.0 
950.950928 31116.0 
951.554199 535120.0 
952.525391 252485.0 
953.322021 16996.0 
967.015625 5254.0 
979.29834 3911.0 
988.977783 5595.0 
990.418945 7032.0 
993.899902 1701.0 
1005.308228 665.0 
1033.440186 5021.0 
1035.65332 3563.0 
1067.526855 16085.0 
1070.472656 4415.0 
1085.518555 9716.0 
1086.346191 3983.0 
1095.679688 3304.0 
1104.133301 7434.0 
1105.329834 6233.0 
1107.541992 13010.0 
1111.301758 4274.0 
1141.383789 6909.0 
1143.562012 5807.0 
1156.118408 5699.0 
1160.609863 3641.0 
1161.587402 12593.0 
1162.281738 4548.0 
1169.646973 5394.0 
1173.430176 5932.0 
1174.505371 7643.0 
1195.74707 13417.0 
1199.687012 2834.0 
1210.677246 4503.0 
1211.749023 2730.0 
1227.544434 45118.0 
1228.525879 15807.0 
1233.40625 2985.0 
1250.004395 2915.0 
1255.421875 2915.0 
1270.206543 2613.0 
1274.367676 4484.0 
1285.461426 3706.0 
1289.463379 2466.0 
1293.437256 8736.0 
1301.513672 10167.0 
1302.505859 6402.0 
1303.597656 23232.0 
1304.419434 2577.0 
1305.868896 3963.0 
1313.79248 7102.0 
1319.719238 3540.0 
1321.088135 4482.0 
1321.713379 271455.0 
1322.795898 146548.0 
1323.94873 37801.0 
1324.666504 2.0 
1325.541504 4271.0 
1329.329102 10136.0 
1332.80957 7502.0 
1333.610107 394806.0 
1334.565674 215012.0 
1335.610596 34118.0 
1339.471191 2618.0 
1344.438232 2131.0 
1348.477539 3984.0 
1366.821289 3819.0 
1389.563477 5801.0 
1391.787354 7015.0 
1407.649414 6148.0 
1409.751221 259626.0 
1410.836426 131183.0 
1411.634033 34110.0 
1412.266602 1.0 
1417.419434 13382.0 
1418.621826 2764.0 
1419.521973 3456.0 
1432.095947 5404.0 
1433.259521 4424.0 
1447.277832 2738.0 
1468.860352 3130.0 
1471.621582 3113.0 
1472.821045 862.0 
1477.155273 2680.0 
1477.983154 52837.0 
1478.77832 23240.0 
1479.510254 13689.0 
1481.576416 14408.0 
1482.681396 5505.0 
1485.734131 5229.0 
1487.987549 6557.0 
1493.750488 3414.0 
1501.574219 2402.0 
1507.391357 13486.0 
1511.383301 6897.0 
1512.757568 5446.0 
1521.672363 108339.0 
1522.645996 61788.0 
1523.52417 21831.0 
1524.133301 1.0 
1525.810059 68591.0 
1526.738525 52511.0 
1527.706543 29656.0 
1531.44873 2840.0 
1541.842041 5768.0 
1542.960938 12366.0 
1543.823242 148879.0 
1544.774414 57685.0 
1545.800537 18298.0 
1546.428467 7.0 
1549.567871 3410.0 
1559.461182 11465.0 
1560.61792 29563.0 
1561.482178 13548.0 
1565.142578 8180.0 
1565.753906 914.0 
1569.635986 13290.0 
1570.644043 10542.0 
1571.792236 5100.0 
1577.767822 194051.0 
1578.75415 75047.0 
1579.630859 22076.0 
1580.266602 1.0 
1595.824463 8749.0 
1596.641846 4763.0 
1611.958252 5456.0 
1612.94873 3199.0 
1613.814453 56156.0 
1614.794922 22340.0 
1615.67627 15207.0 
1616.910645 2605.0 
1621.766357 6417.0 
1631.812744 89424.0 
1632.709717 46345.0 
1633.584229 16019.0 
1635.55835 2731.0 
1649.564697 2316.0 
1652.018555 7673.0 
1652.699951 2.0 
1654.060059 4351.0 
1655.759277 7567.0 
1656.399902 1.0 
1666.041016 4310.0 
1667.529297 3835.0 
1677.099854 4763.0 
1683.805908 6630.0 
1685.7771 281575.0 
1686.80835 131214.0 
1687.777832 20488.0 
1688.399902 2.0 
1691.554443 26135.0 
1692.199951 1.0 
1692.994141 6786.0 
1704.088379 20186.0 
1704.813721 202841.0 
1705.782227 131160.0 
1710.637939 5871.0 
1728.822266 3840.0 
1730.682861 7691.0 
1731.666504 2301.0 
1732.730225 8331.0 
1733.93042 1687.0 
1737.220459 5286.0 
1738.979736 2213.0 
1741.952148 18526.0 
1742.975586 5106.0 
1747.19751 15742.0 
1748.107666 5953.0 
1755.793213 21161.0 
1757.724365 6820.0 
1758.656982 5074.0 
1759.876953 12909.0 
1761.198242 4736.0 
1762.708008 7561.0 
1770.096436 1859.0 
1773.674805 114639.0 
1774.778076 91651.0 
1775.655273 25455.0 
1776.266602 2.0 
1789.665527 9175.0 
1791.445068 8821.0 
END IONS

