BEGIN IONS
PEPMASS=412.0
CHARGE=0+
MSLEVEL=2
SOURCE_INSTRUMENT=LC-ESI-qTof
FILENAME=20130107_Jenia_Ger_Deoxyprepacifenol_MH412-qb.1.1..mgf
SEQ=*..*
IONMODE=Positive
ORGANISM=GNPS-LIBRARY
NAME=Deoxyprepacifenol M+H
PI=Gerwick
DATACOLLECTOR=Jenia
SMILES=CC1(C(=CC2C(C13CCC(C(C3)Br)(C)Cl)(O2)C)Br)C
INCHI=InChI=1S/C15H21Br2ClO/c1-12(2)9(16)7-11-14(4,19-11)15(12)6-5-13(3,18)10(17)8-15/h7,10-11H,5-6,8H2,1-4H3
INCHIAUX=N/A
PUBMED=N/A
SUBMITUSER=mwang87
LIBRARYQUALITY=1
SPECTRUMID=CCMSLIB00000001704
SCANS=1
137.254883 11200.0 
394.926147 4884.0 
400.046997 18956.0 
END IONS

