BEGIN IONS
PEPMASS=828.3
CHARGE=0+
MSLEVEL=2
SOURCE_INSTRUMENT=LC-ESI-Ion Trap
FILENAME=20130610_Ger_Jenia_Apratoxin_F_MH828.3-qb.1.1..mgf
SEQ=*..*
IONMODE=Positive
ORGANISM=GNPS-LIBRARY
NAME=Apratoxin F M+H
PI=Gerwick
DATACOLLECTOR=Jenia
SMILES=CC[C@H](C)[C@@H]1N(C)C(=O)[C@H](C)N(C)C(=O)[C@H](CC2=CC=C(OC)C=C2)NC(=O)\C(C)=C/C2CSC(=N2)[C@@H](C)[C@@H](O)C[C@H](C)C[C@H](OC(=O)[C@H](C)N(C)C1=O)C(C)(C)C
INCHI=InChI=1S/C44H69N5O8S/c1-15-26(3)37-42(54)48(12)30(7)43(55)57-36(44(8,9)10)21-25(2)20-35(50)28(5)39-45-32(24-58-39)22-27(4)38(51)46-34(23-31-16-18-33(56-14)19-17-31)41(53)47(11)29(6)40(52)49(37)13/h16-19,22,25-26,28-30,32,34-37,50H,15,20-21,23-24H2,1-14H3,(H,46,51)/b27-22-/t25-,26-,28-,29-,30-,32?,34-,35-,36-,37-/m0/s1
INCHIAUX=BAYCKSGCVUIVNR-MJEAVDSUSA-N
PUBMED=N/A
SUBMITUSER=mwang87
LIBRARYQUALITY=1
SPECTRUMID=CCMSLIB00000001790
SCANS=1
315.720459 950.0 
330.921265 15312.0 
337.204712 7914.0 
358.978271 25105.0 
385.061035 38302.0 
400.20874 6734.0 
432.861084 8717.0 
443.80658 90100.0 
444.466675 5.0 
452.082275 15981.0 
470.079407 223417.0 
482.196411 3530.0 
495.130737 21955.0 
513.27832 3217.0 
525.209595 7922.0 
536.033936 35108.0 
571.121338 352485.0 
571.883301 4.0 
580.122681 17296.0 
596.206543 3482.0 
598.00708 43327.0 
629.236694 3722.0 
637.753296 3104.0 
664.271973 7506.0 
666.405518 48170.0 
699.219482 2837.0 
701.085205 8846.0 
703.460938 5022.0 
704.314209 3312.0 
707.216309 26364.0 
710.247803 10303.0 
725.198975 67481.0 
743.262451 9112.0 
759.200439 4804.0 
766.369019 10524.0 
768.231445 2035.0 
771.191772 3984.0 
782.259277 7071.0 
785.880493 6437.0 
787.712402 3044.0 
810.175293 507026.0 
811.06665 4.0 
END IONS

