BEGIN IONS
PEPMASS=950.0
CHARGE=0+
MSLEVEL=2
SOURCE_INSTRUMENT=LC-ESI-qTof
FILENAME=20130107_Jenia_Ger_Kabiramide_B_MNa950-qb.1.1..mgf
SEQ=*..*
IONMODE=Positive
ORGANISM=GNPS-LIBRARY
NAME=Kabiramide_B M+Na
PI=Gerwick
DATACOLLECTOR=Jenia
SMILES=C[C@H]1C[C@@H](CC(=O)O[C@H]([C@@H]([C@H](CC=CC2=NC(=CO2)C3=NC(=CO3)C4=NC(=CO4)[C@@H]([C@H]([C@H](C1)O)C)OC)O)C)C[C@@H]([C@@H](C)CCC(=O)[C@H](C)[C@@H]([C@H](C)/C=C/N(C)C=O)OC)OC)OC(=O)N
INCHI=InChI=1S/C47H69N5O14/c1-26-18-32(65-47(48)58)20-42(57)66-40(21-39(59-8)27(2)14-15-37(55)30(5)43(60-9)28(3)16-17-52(7)25-53)29(4)36(54)12-11-13-41-49-34(23-62-41)45-51-35(24-64-45)46-50-33(22-63-46)44(61-10)31(6)38(56)19-26/h11,13,16-17,22-32,36,38-40,43-44,54,56H,12,14-15,18-21H2,1-10H3,(H2,48,58)/b13-11?,17-16+/t26-,27-,28+,29+,30-,31-,32-,36-,38-,39-,40-,43+,44+/m0/s1
INCHIAUX=N/A
PUBMED=N/A
SUBMITUSER=mwang87
LIBRARYQUALITY=1
SPECTRUMID=CCMSLIB00000001711
SCANS=1
450.001099 221310.0 
474.869263 1082412.0 
475.528992 1.0 
479.140381 97890.0 
493.703247 250587.0 
522.022095 640198.0 
522.663818 42.0 
554.887451 1951415.0 
555.634766 41.0 
577.890991 83261.0 
582.959961 1388596.0 
583.580322 58.0 
584.42041 465972.0 
585.066895 2.0 
618.366211 277242.0 
639.180176 84552.0 
644.134277 174985.0 
793.436523 252757.0 
811.2052 793519.0 
812.407959 330729.0 
813.621338 108216.0 
829.413452 65805.0 
845.194458 3053851.0 
846.563477 1660395.0 
847.169434 32.0 
857.252563 319701.0 
858.464233 211250.0 
861.383057 1543381.0 
862.552612 815013.0 
871.686279 434391.0 
873.307617 36233.0 
888.808105 1417773.0 
889.409424 66394240.0 
890.401001 40203008.0 
891.014893 5167.0 
906.80835 162315.0 
907.540527 1566806.0 
918.388916 773913.0 
922.443604 1212945.0 
923.143188 21.0 
924.248047 372558.0 
932.384277 1324355.0 
933.206421 2.0 
END IONS

