BEGIN IONS
PEPMASS=1533.0
CHARGE=0+
MSLEVEL=2
SOURCE_INSTRUMENT=LC-ESI-qTof
FILENAME=20121219_Ger_Jenia_Portoamide_A_MH1533-qb.1.1..mgf
SEQ=*..*
IONMODE=Positive
ORGANISM=GNPS-LIBRARY
NAME=Portoamide_A M+H
PI=Gerwick
DATACOLLECTOR=Jenia
SMILES=CC[C@H](C)[C@@H]1C(=O)N[C@H](C(=O)N/C(=C/C)/C(=O)N[C@H](C(=O)N[C@@H](C(=O)N2CCC[C@H]2C(=O)NC(C(C(=O)N[C@@H](C(=O)NCC(=O)N3CCC[C@H]3C(=O)N4CCC[C@H]4C(=O)N1)CCC(=O)N)O)CC(CC(C(CC(C)C)O)O)OC(=O)[C@H](CC5=CC=C(C=C5)O)N(C)C(=O)C)CCC6=CC=C(C=C6)OC)[C@@H](C)O)CO
INCHI=InChI=1S/C74H109N13O22/c1-10-40(5)61-69(102)81-52(38-88)66(99)77-48(11-2)65(98)83-62(41(6)89)70(103)79-50(27-22-43-20-25-46(108-9)26-21-43)72(105)86-31-12-15-53(86)67(100)80-51(35-47(36-58(93)57(92)33-39(3)4)109-74(107)56(84(8)42(7)90)34-44-18-23-45(91)24-19-44)63(96)71(104)78-49(28-29-59(75)94)64(97)76-37-60(95)85-30-14-17-55(85)73(106)87-32-13-16-54(87)68(101)82-61/h11,18-21,23-26,39-41,47,49-58,61-63,88-89,91-93,96H,10,12-17,22,27-38H2,1-9H3,(H2,75,94)(H,76,97)(H,77,99)(H,78,104)(H,79,103)(H,80,100)(H,81,102)(H,82,101)(H,83,98)/b48-11+/t40-,41+,47?,49+,50+,51?,52-,53-,54-,55-,56-,57?,58?,61+,62-,63?/m0/s1
INCHIAUX=N/A
PUBMED=N/A
SUBMITUSER=mwang87
LIBRARYQUALITY=1
SPECTRUMID=CCMSLIB00000001688
SCANS=1
468.870605 740703.0 
479.095642 925145.0 
565.986206 631131.0 
578.191162 829442.0 
580.301514 675565.0 
609.061768 778837.0 
609.69519 14.0 
622.932373 797797.0 
652.344238 1976254.0 
671.06311 1109569.0 
678.025024 573981.0 
683.143799 738186.0 
688.247803 1750808.0 
696.220825 356388.0 
699.399658 651694.0 
701.022217 390777.0 
706.1604 1256702.0 
727.854492 1190008.0 
740.517334 696432.0 
745.199951 1654326.0 
745.836304 11.0 
757.92749 1078101.0 
762.785522 1127410.0 
763.5 2.0 
769.03479 252262.0 
783.06189 166663.0 
787.133789 1096739.0 
791.89917 3220603.0 
792.583252 8.0 
800.170166 2887754.0 
800.857056 7.0 
805.937012 1112330.0 
806.599976 1.0 
815.111084 2699566.0 
827.22583 2217773.0 
827.899902 4.0 
834.365723 1908434.0 
835.162842 9.0 
847.147217 1151745.0 
853.775146 392963.0 
866.053955 245081.0 
870.342773 695816.0 
883.062744 666664.0 
884.458496 1076882.0 
888.061157 595555.0 
896.137695 934766.0 
902.05481 3035526.0 
918.242676 892643.0 
919.143555 1471455.0 
919.957764 760063.0 
921.54248 403596.0 
932.12146 844491.0 
935.419922 213137.0 
938.911255 2766344.0 
939.707642 13.0 
967.393677 1880981.0 
968.0 1.0 
980.082642 394894.0 
985.244141 1225173.0 
986.29541 935715.0 
986.899902 4.0 
991.148804 1656363.0 
997.233765 627171.0 
1003.059326 2042776.0 
1004.098511 907376.0 
1006.968262 546519.0 
1012.17334 1321647.0 
1018.825073 322315.0 
1020.055908 3787714.0 
1020.888794 3.0 
1022.357544 772622.0 
1024.445312 500132.0 
1025.079834 5.0 
1037.404785 2835658.0 
1038.316895 959887.0 
1042.67041 510417.0 
1052.236572 844342.0 
1053.597168 3749298.0 
1054.221191 13740.0 
1055.635742 218106.0 
1064.203613 2168807.0 
1071.290527 474646.0 
1086.648682 579959.0 
1088.186523 943379.0 
1089.501953 2695383.0 
1090.181641 11.0 
1094.461426 716043.0 
1096.536133 1503809.0 
1097.199951 2.0 
1103.354248 3778749.0 
1103.992676 1030588.0 
1108.314453 1129031.0 
1108.966553 4.0 
1121.40332 592690.0 
1125.097412 1273662.0 
1126.745117 1796879.0 
1132.522949 485129.0 
1139.164062 3965664.0 
1139.807129 9.0 
1157.485352 1807130.0 
1158.743164 1024535.0 
1159.352783 17.0 
1172.227539 1121725.0 
1172.866699 2.0 
1174.248047 2477615.0 
1174.911133 12.0 
1187.179443 4762246.0 
1187.893066 5.0 
1196.555176 861671.0 
1204.275146 4993799.0 
1215.470703 1499041.0 
1216.155273 3.0 
1222.352539 3836780.0 
1223.293945 5065708.0 
1224.024658 333.0 
1225.005615 3168825.0 
1240.040527 2232220.0 
1240.814209 65.0 
1241.59375 5065670.0 
1242.377686 6.0 
1247.016113 3540948.0 
1247.666504 2.0 
1249.379639 1458041.0 
1250.029541 9.0 
1257.177734 407013.0 
1258.879395 2464820.0 
1259.771973 487.0 
1260.804443 1026321.0 
1268.149414 633429.0 
1277.105225 2363870.0 
1278.397217 2165840.0 
1279.558594 698370.0 
1286.862793 660800.0 
1295.450684 16799696.0 
1296.20874 5803205.0 
1296.842529 1161074.0 
1302.253418 613127.0 
1302.899902 6.0 
1305.574707 886812.0 
1313.56543 5457230.0 
1314.333252 3.0 
1328.749512 524661.0 
1331.135986 451870.0 
1344.043945 1222691.0 
1345.10376 849283.0 
1347.562012 2654744.0 
1348.542969 9059872.0 
1349.409424 7.0 
1362.281738 1520093.0 
1363.438477 1771457.0 
1379.504395 1172643.0 
1462.055176 808439.0 
1462.766602 8.0 
1468.383789 2281098.0 
1469.416016 500379.0 
1478.253662 122680.0 
1479.333984 2443359.0 
1479.966553 6.0 
1486.361572 239480.0 
1487.526611 1386334.0 
1488.577881 1380472.0 
1489.244385 3.0 
1496.438477 3274903.0 
1497.318848 3886243.0 
1498.411377 2842290.0 
1499.140869 103.0 
1504.531982 134038.0 
1514.450195 27958184.0 
1515.473633 20599824.0 
1516.487305 275643.0 
END IONS

