BEGIN IONS
PEPMASS=297.96
CHARGE=1+
MSLEVEL=2
SOURCE_INSTRUMENT=LC-ESI-Ion Trap
FILENAME=f.mbertin/spongosine_std_112513.mzXML;
SEQ=*..*
IONMODE=Positive
ORGANISM=GNPS-LIBRARY
NAME=Spongosine M+H
PI=Gerwick
DATACOLLECTOR=M. Bertin
SMILES=COC1=NC2=C(C(=N1)N)N=CN2C3C(C(C(O3)CO)O)O
INCHI=1S/C11H15N5O5/c1-20-11-14-8(12)5-9(15-11)16(3-13-5)10-7(19)6(18)4(2-17)21-10/h3-4,6-7,10,17-19H,2H2,1H3,(H2,12,14,15)/t4-,6-,7-,10-/m1/s1
INCHIAUX=
PUBMED=21534931
SUBMITUSER=evgenia_glukhov
LIBRARYQUALITY=3
SPECTRUMID=CCMSLIB00000424822
SCANS=217
110.316193 19439.0 
123.194489 10778.0 
165.49176 183612.0 
166.170197 19578824.0 
166.940613 10008.0 
201.088531 17819.0 
205.713684 22733.0 
206.407471 39880.0 
207.96875 13770.0 
279.993408 60267.0 
END IONS

