BEGIN IONS
PEPMASS=1668.04
CHARGE=1+
MSLEVEL=2
SOURCE_INSTRUMENT=LC-ESI-qTof
FILENAME=f.RReher/2264/MaXis/2264_H_4_BD8_01_48196.mzXML;
SEQ=*..*
IONMODE=Positive
ORGANISM=GNPS-LIBRARY
NAME=Samholide H M+H
PI=Gerwick
DATACOLLECTOR=RReher
SMILES=C[C@H]1C[C@H](C[C@@H](O1)CC[C@H](C)[C@@H]([C@H](C)[C@@H]2C[C@@H](C[C@@H]([C@@H]([C@H](C[C@@H]3CC=C[C@H](O3)C[C@H](C/C=C(/C=C/C(=O)O[C@@H](C[C@@H](C[C@@H]([C@@H]([C@H](C[C@@H]4CC=C[C@H](O4)C[C@H](C/C=C(/C=C/C(=O)O2)\C)O[C@@H]5[C@H]([C@@H]([C@H](CO5)O)OC)O)OC)C)O)O)[C@@H](C)[C@H]([C@@H](C)CC[C@H]6C[C@@H](C[C@@H](O6)C)OC)O)\C)O[C@@H]7[C@H]([C@@H]([C@H](CO7)OC)OC)O)OC)C)O)O)O)OC
INCHI=
INCHIAUX=
PUBMED=
SUBMITUSER=RReher
LIBRARYQUALITY=3
SPECTRUMID=CCMSLIB00005463859
SCANS=1514
57.938831 77.0 
62.488625 70.0 
67.018959 315.0 
68.996742 86.0 
69.032784 163.0 
71.01429 120.0 
73.027374 76.0 
77.003197 140.0 
79.019157 695.0 
80.026466 72.0 
80.999275 561.0 
81.035538 1916.0 
82.00132 68.0 
82.038002 149.0 
82.997505 62.0 
83.014496 367.0 
83.05204 150.0 
84.057793 72.0 
85.031578 1589.0 
86.035629 105.0 
87.010696 236.0 
87.045906 83.0 
91.021744 1016.0 
92.024124 68.0 
93.037712 2343.0 
94.042175 208.0 
94.874878 58.0 
95.016914 3206.0 
95.05291 1919.0 
96.017487 121.0 
96.056381 155.0 
96.995796 348.0 
97.033134 4662.0 
97.071098 166.0 
97.997261 77.0 
98.036537 310.0 
99.012482 338.0 
99.049507 1853.0 
100.054291 93.0 
101.028534 831.0 
102.013519 64.0 
103.044571 607.0 
103.303688 62.0 
104.772842 80.0 
105.012733 125.0 
105.038994 1973.0 
106.041656 305.0 
107.019096 328.0 
107.055351 3274.0 
108.056847 110.0 
109.03389 901.0 
109.071335 1761.0 
110.074577 149.0 
111.014984 319.0 
111.050621 2652.0 
111.086922 129.0 
112.054024 107.0 
113.030128 519.0 
113.066101 709.0 
114.072426 105.0 
114.593781 61.0 
115.04567 494.0 
116.02755 90.0 
116.048729 107.0 
117.040512 560.0 
119.019775 327.0 
119.056656 2248.0 
120.060127 74.0 
120.17289 79.0 
121.035011 486.0 
121.072205 3410.0 
122.038712 112.0 
122.075302 222.0 
123.052101 11965.0 
123.088531 1389.0 
123.310051 61.0 
124.054726 1024.0 
124.089882 125.0 
125.031883 844.0 
125.06813 2852.0 
126.035934 170.0 
126.072144 167.0 
127.047661 1575.0 
127.083214 269.0 
128.035095 146.0 
128.048599 136.0 
129.04213 535.0 
129.063599 4704.0 
130.0298 69.0 
130.045273 100.0 
130.066849 257.0 
131.057999 2203.0 
132.061478 207.0 
133.036621 521.0 
133.074081 3205.0 
134.077682 451.0 
135.016113 78.0 
135.052979 1124.0 
135.090271 3769.0 
136.057022 174.0 
136.091934 447.0 
137.033371 1106.0 
137.069885 3512.0 
137.10611 1095.0 
137.278854 60.0 
138.039825 124.0 
138.072876 285.0 
138.111084 304.0 
139.048981 1280.0 
139.085953 3406.0 
140.052002 96.0 
140.088943 246.0 
141.047089 181.0 
141.065689 1389.0 
142.053253 249.0 
143.059631 1803.0 
144.063507 82.0 
145.038589 508.0 
145.075912 5238.0 
146.04007 128.0 
146.077713 543.0 
147.054764 859.0 
147.091553 5533.0 
148.094864 666.0 
149.036377 235.0 
149.071381 1467.0 
149.106979 4222.0 
150.074921 121.0 
150.112747 491.0 
151.049728 642.0 
151.087234 3267.0 
151.124969 328.0 
152.090652 385.0 
153.065018 821.0 
153.103058 1039.0 
154.054138 84.0 
154.10614 117.0 
155.082367 21543.0 
155.291107 61.0 
156.086136 1866.0 
156.181839 75.0 
157.07724 2318.0 
158.079376 384.0 
158.101898 124.0 
159.056015 1190.0 
159.093018 5462.0 
160.05983 152.0 
160.097 732.0 
160.62178 61.0 
161.036453 561.0 
161.072418 1926.0 
161.10881 3867.0 
162.03949 113.0 
162.075394 245.0 
162.112335 368.0 
163.018036 90.0 
163.053543 718.0 
163.088608 4055.0 
163.124435 1887.0 
163.597748 62.0 
164.057388 58.0 
164.092239 552.0 
164.130508 319.0 
164.168091 59.0 
165.068024 1576.0 
165.103775 3676.0 
165.142807 66.0 
166.070328 84.0 
166.108231 575.0 
166.753464 63.0 
167.058716 273.0 
167.083496 1685.0 
167.120407 1395.0 
168.070862 83.0 
168.088257 71.0 
168.127441 78.0 
168.541168 58.0 
169.07811 1812.0 
169.098434 1652.0 
169.136185 64.0 
170.082092 412.0 
170.102341 218.0 
171.057755 1088.0 
171.094528 3238.0 
172.064987 193.0 
172.099243 263.0 
173.033463 85.0 
173.074677 1041.0 
173.110184 4135.0 
173.797836 63.0 
174.080582 69.0 
174.114059 370.0 
175.053574 783.0 
175.090134 1469.0 
175.126007 2901.0 
176.057526 158.0 
176.089294 190.0 
176.129593 286.0 
177.031708 85.0 
177.069016 1132.0 
177.106171 3787.0 
177.141998 1571.0 
178.073212 175.0 
178.108719 529.0 
178.146591 238.0 
179.048935 944.0 
179.08493 1226.0 
179.121063 2764.0 
180.065353 124.0 
180.088455 214.0 
180.125549 420.0 
180.316269 60.0 
180.852631 64.0 
181.100662 4621.0 
181.136246 358.0 
182.06633 123.0 
182.102066 563.0 
183.052246 172.0 
183.116806 11034.0 
184.063065 88.0 
184.100082 414.0 
184.120422 1330.0 
185.039474 74.0 
185.075516 1470.0 
185.110977 2836.0 
186.079269 205.0 
186.114426 480.0 
186.608032 65.0 
187.057449 287.0 
187.090668 4089.0 
187.127716 4551.0 
188.055878 112.0 
188.093491 700.0 
188.129974 578.0 
189.07016 3013.0 
189.106598 2425.0 
189.143173 2706.0 
190.075867 312.0 
190.111038 545.0 
190.143616 466.0 
191.047897 119.0 
191.085709 1843.0 
191.122421 6806.0 
191.15802 480.0 
192.08963 241.0 
192.125031 829.0 
193.067642 567.0 
193.102707 2033.0 
193.138245 1831.0 
194.076385 131.0 
194.103806 116.0 
194.141876 191.0 
195.117188 5451.0 
195.155945 239.0 
196.118805 863.0 
197.107224 2230.0 
198.081253 224.0 
198.117035 346.0 
199.056778 240.0 
199.091537 661.0 
199.128357 2206.0 
199.1465 1380.0 
200.069931 65.0 
200.103119 61.0 
200.130585 631.0 
201.072662 331.0 
201.136597 2712.0 
201.791016 63.0 
202.112213 347.0 
202.146683 483.0 
203.054581 202.0 
203.087036 1927.0 
203.123367 1509.0 
203.160263 2368.0 
204.09227 196.0 
204.126785 238.0 
204.164001 508.0 
204.783386 59.0 
205.066498 715.0 
205.102921 3253.0 
205.139297 9204.0 
205.177292 76.0 
205.735428 58.0 
206.067139 162.0 
206.104904 418.0 
206.142334 1445.0 
207.082779 1159.0 
207.118637 2811.0 
207.156219 1574.0 
208.124161 467.0 
208.156036 334.0 
209.078293 246.0 
209.110565 801.0 
209.134659 3687.0 
209.959122 61.0 
210.11586 314.0 
210.137894 500.0 
211.042892 134.0 
211.127747 1465.0 
211.366302 68.0 
212.128967 327.0 
213.073807 352.0 
213.108948 3264.0 
213.144379 4973.0 
214.070648 70.0 
214.114532 568.0 
214.147018 740.0 
215.087799 3870.0 
215.146927 6892.0 
216.092957 406.0 
216.150375 1238.0 
217.070068 111.0 
217.102905 1195.0 
217.141037 2435.0 
217.175629 409.0 
218.112244 212.0 
218.143234 282.0 
218.18187 229.0 
219.089081 352.0 
219.118698 1082.0 
219.156128 2037.0 
220.087708 120.0 
220.121399 117.0 
220.160767 371.0 
221.109207 748.0 
221.134811 1702.0 
221.172195 1815.0 
221.969727 74.0 
222.116302 156.0 
222.14093 175.0 
222.175446 294.0 
222.297226 65.0 
222.536285 83.0 
222.753418 60.0 
223.151505 67774.0 
223.419189 92.0 
224.154907 9169.0 
225.148605 2487.0 
225.1595 2619.0 
225.573959 72.0 
225.718475 72.0 
225.803375 68.0 
225.845612 80.0 
226.059586 87.0 
226.109863 130.0 
226.143875 406.0 
226.969269 62.0 
227.088531 158.0 
227.126785 948.0 
227.161026 2276.0 
228.088058 63.0 
228.130508 185.0 
228.164062 431.0 
228.291489 60.0 
228.319992 62.0 
229.075104 65.0 
229.105026 833.0 
229.141617 1668.0 
229.177322 2667.0 
230.106094 213.0 
230.145721 322.0 
230.181595 496.0 
231.084549 627.0 
231.12117 2449.0 
231.158112 7689.0 
232.093369 175.0 
232.124069 430.0 
232.160919 1301.0 
232.987518 62.0 
233.10054 6863.0 
233.136917 801.0 
233.172913 2589.0 
234.103363 712.0 
234.138199 293.0 
234.176285 631.0 
235.125397 1596.0 
235.15126 1463.0 
235.187195 311.0 
236.134079 295.0 
236.157227 196.0 
237.101501 179.0 
237.167343 5571.0 
237.503098 78.0 
237.571167 67.0 
238.172195 1026.0 
239.092178 296.0 
239.126663 746.0 
239.162811 1386.0 
240.096664 102.0 
240.134338 199.0 
240.164825 318.0 
240.982758 67.0 
241.069626 68.0 
241.10611 3185.0 
241.14151 850.0 
241.176636 1482.0 
242.108292 566.0 
242.145615 141.0 
242.185013 221.0 
243.120422 1636.0 
243.158859 3035.0 
244.123062 329.0 
244.157501 318.0 
245.106216 370.0 
245.138306 3817.0 
245.174515 4801.0 
246.113724 89.0 
246.142853 572.0 
246.178223 629.0 
247.120514 1148.0 
247.152374 3708.0 
247.189651 3733.0 
248.116928 228.0 
248.155411 660.0 
248.193619 976.0 
248.354782 58.0 
249.097504 898.0 
249.169373 53314.0 
249.265106 75.0 
249.442062 59.0 
249.767181 69.0 
250.102219 140.0 
250.17244 9145.0 
250.426285 58.0 
250.706314 63.0 
251.066101 62.0 
251.112747 7435.0 
251.183578 4694.0 
251.555679 58.0 
251.671722 84.0 
252.115616 1155.0 
252.187546 688.0 
253.143707 2014.0 
253.199631 3066.0 
254.148453 291.0 
254.203445 579.0 
255.084976 74.0 
255.124283 700.0 
255.180878 3510.0 
255.271683 64.0 
256.105316 82.0 
256.133698 138.0 
256.184265 588.0 
257.099304 207.0 
257.13797 521.0 
257.174988 3089.0 
257.354767 64.0 
258.134705 160.0 
258.177979 655.0 
259.118408 5348.0 
259.156799 468.0 
259.190338 1750.0 
260.120941 692.0 
260.159668 171.0 
260.195343 346.0 
261.141174 1237.0 
261.169922 4440.0 
261.205109 1076.0 
262.138947 266.0 
262.171539 739.0 
262.209656 185.0 
263.150604 4901.0 
263.185822 7318.0 
263.969818 68.0 
264.153595 926.0 
264.189911 1141.0 
265.135956 1325.0 
265.171936 1716.0 
265.202026 4315.0 
266.151367 465.0 
266.205048 1043.0 
267.129883 277.0 
267.181519 5107.0 
268.121765 85.0 
268.184875 944.0 
268.283813 60.0 
269.138672 856.0 
269.201996 2002.0 
270.141937 325.0 
270.181946 336.0 
271.154907 3527.0 
271.193573 748.0 
272.157593 704.0 
272.195251 168.0 
273.134735 3940.0 
273.173065 3101.0 
274.136658 794.0 
274.174347 564.0 
275.072296 83.0 
275.112091 182.0 
275.187134 7818.0 
276.088226 58.0 
276.190277 1166.0 
277.13028 5361.0 
277.171753 1554.0 
277.202179 4409.0 
277.961914 59.0 
278.133575 884.0 
278.170929 527.0 
278.207855 676.0 
279.184662 2781.0 
279.218048 12270.0 
280.16449 330.0 
280.221313 2645.0 
281.141724 2693.0 
281.198578 8658.0 
281.812622 78.0 
282.143616 517.0 
282.200867 2035.0 
283.156036 1322.0 
283.19754 1321.0 
284.129181 93.0 
284.156921 278.0 
284.20993 113.0 
284.234772 154.0 
285.132355 308.0 
285.171448 728.0 
285.207886 881.0 
286.138885 85.0 
286.17749 152.0 
287.154419 2088.0 
287.187714 968.0 
287.225464 4063.0 
287.890991 68.0 
288.155975 362.0 
288.192261 214.0 
288.229706 1013.0 
289.166809 2550.0 
289.202362 1035.0 
290.038788 67.0 
290.177643 492.0 
291.146759 21391.0 
291.180542 2780.0 
292.150024 3623.0 
292.219147 175.0 
293.155701 723.0 
293.198669 11498.0 
293.456757 63.0 
294.158142 162.0 
294.200287 2234.0 
295.146576 1561.0 
295.214355 3712.0 
295.318665 58.0 
295.746338 99.0 
296.162231 296.0 
296.218353 839.0 
297.174103 2915.0 
297.228699 13399.0 
298.176666 672.0 
298.231232 2186.0 
298.437347 88.0 
299.15271 6004.0 
299.210602 18504.0 
299.283051 73.0 
300.09494 71.0 
300.156097 815.0 
300.213593 3218.0 
300.361237 84.0 
301.167511 1389.0 
301.208862 1017.0 
301.917877 60.0 
302.170715 326.0 
302.223267 148.0 
303.181488 508.0 
303.218628 1746.0 
303.768982 71.0 
303.832703 61.0 
304.156097 105.0 
304.222717 410.0 
305.166504 2817.0 
305.236206 14197.0 
306.166779 361.0 
306.238312 2847.0 
307.180542 2393.0 
307.215302 6353.0 
307.443146 58.0 
308.154266 272.0 
308.180328 493.0 
308.217621 1129.0 
309.158386 17623.0 
309.226379 864.0 
309.373962 75.0 
310.162506 3486.0 
311.163147 640.0 
311.187622 781.0 
311.218109 699.0 
312.190735 132.0 
312.236542 89.0 
312.951874 101.0 
313.168274 1257.0 
313.241058 2823.0 
314.168121 200.0 
314.2034 138.0 
314.243164 729.0 
315.077759 72.0 
315.184326 4036.0 
315.223389 3309.0 
315.329865 114.0 
316.14743 191.0 
316.18692 823.0 
316.226501 718.0 
316.524231 61.0 
317.1633 13398.0 
317.234619 2240.0 
318.078552 99.0 
318.167236 2806.0 
318.240906 717.0 
319.117188 67.0 
319.17807 2714.0 
319.218628 776.0 
319.252167 2768.0 
320.187836 392.0 
320.256775 963.0 
321.171814 664.0 
321.212402 558.0 
321.229187 636.0 
322.179016 356.0 
322.211487 152.0 
322.242371 188.0 
322.27887 76.0 
323.189606 1851.0 
323.226532 3357.0 
324.193726 650.0 
324.230835 896.0 
325.169525 2068.0 
325.228271 5245.0 
325.281921 95.0 
325.335632 97.0 
326.172974 361.0 
326.229706 1105.0 
327.184906 1908.0 
327.236389 1251.0 
328.190369 436.0 
328.249725 140.0 
329.126801 144.0 
329.164948 313.0 
329.202545 754.0 
329.237061 1274.0 
330.168152 200.0 
330.204132 209.0 
330.243286 301.0 
331.18045 2838.0 
331.25351 7722.0 
331.316772 66.0 
331.864288 82.0 
332.183685 610.0 
332.255066 1535.0 
333.19635 4829.0 
333.233704 2635.0 
334.155304 93.0 
334.200989 862.0 
334.236481 701.0 
335.175171 4451.0 
335.246063 5009.0 
336.182556 999.0 
336.251404 1249.0 
337.201202 1085.0 
337.263092 17245.0 
338.181854 131.0 
338.205902 215.0 
338.266602 3271.0 
339.187103 1150.0 
339.222229 728.0 
339.259705 762.0 
340.188446 317.0 
340.231476 153.0 
340.268066 256.0 
341.20462 3382.0 
341.23764 8880.0 
341.49411 76.0 
341.680237 60.0 
342.204498 663.0 
342.241211 2433.0 
343.182526 4483.0 
343.24118 2837.0 
344.18396 853.0 
344.245026 580.0 
345.19754 1738.0 
345.265289 883.0 
346.209717 481.0 
346.262451 249.0 
347.139374 104.0 
347.180573 447.0 
347.213226 958.0 
347.248871 2764.0 
348.203217 88.0 
348.253143 768.0 
349.113281 66.0 
349.191345 11095.0 
349.264465 3415.0 
350.195557 2247.0 
350.268433 902.0 
351.190552 1635.0 
351.254456 1082.0 
351.3862 73.0 
352.191895 439.0 
352.26181 377.0 
353.202301 1738.0 
353.241364 1441.0 
354.204895 328.0 
354.240692 201.0 
355.140991 127.0 
355.215698 843.0 
355.27478 3580.0 
356.231049 212.0 
356.276062 975.0 
357.198639 3012.0 
357.273926 576.0 
357.777069 62.0 
358.2005 480.0 
358.27536 147.0 
358.32489 63.0 
359.026306 60.0 
359.249512 19672.0 
359.517059 76.0 
360.170959 123.0 
360.252838 4296.0 
360.733887 77.0 
361.195038 3010.0 
361.22702 2456.0 
361.262909 2798.0 
361.590912 65.0 
362.152069 79.0 
362.196228 554.0 
362.232758 544.0 
362.265686 494.0 
362.574646 59.0 
363.222382 4596.0 
363.279907 4152.0 
364.226044 1085.0 
364.284485 1044.0 
365.226898 2778.0 
365.263123 2475.0 
366.227417 825.0 
366.264679 447.0 
367.209198 1002.0 
367.256958 1041.0 
368.225952 156.0 
368.261719 378.0 
368.952362 80.0 
369.199951 2908.0 
369.265594 712.0 
370.202698 924.0 
370.272797 130.0 
370.714264 80.0 
371.213623 2589.0 
371.625427 69.0 
372.219391 572.0 
373.156769 136.0 
373.19455 327.0 
373.229736 1104.0 
373.265656 5403.0 
374.229736 371.0 
374.270325 1286.0 
375.209991 3986.0 
375.245422 1283.0 
376.210419 809.0 
376.255798 409.0 
376.608704 64.0 
377.16748 149.0 
377.260376 4574.0 
377.863373 66.0 
378.263092 1126.0 
379.2211 1783.0 
379.274048 1025.0 
380.1745 148.0 
380.224335 394.0 
380.377441 110.0 
381.235474 12048.0 
381.292603 5030.0 
381.537903 60.0 
382.236755 3507.0 
382.292603 1063.0 
383.214752 836.0 
383.250427 894.0 
383.286194 2495.0 
384.177399 66.0 
384.218018 260.0 
384.257385 290.0 
384.290924 722.0 
385.156311 64.0 
385.231262 617.0 
385.264862 1106.0 
385.458862 72.0 
386.210907 90.0 
386.27182 347.0 
386.905029 60.0 
387.208954 2921.0 
387.249695 702.0 
388.214417 888.0 
388.280762 85.0 
388.447418 78.0 
389.225739 999.0 
389.590149 64.0 
390.225616 288.0 
390.282898 132.0 
391.007874 65.0 
391.177765 138.0 
391.278473 12841.0 
391.443207 60.0 
392.245514 504.0 
392.282257 3822.0 
393.220032 6167.0 
393.275177 2890.0 
394.222687 1197.0 
394.276428 799.0 
394.682648 71.0 
395.254944 1215.0 
395.306854 1284.0 
396.250366 212.0 
396.306976 479.0 
396.382874 71.0 
397.232056 5188.0 
397.283234 419.0 
398.233368 1294.0 
398.304382 144.0 
399.246033 24769.0 
400.249512 6462.0 
400.544861 70.0 
401.228058 2364.0 
401.298798 1034.0 
402.231964 494.0 
402.299316 460.0 
403.24173 429.0 
403.281769 495.0 
404.238068 206.0 
404.278595 177.0 
405.188538 371.0 
405.220337 376.0 
405.262207 538.0 
405.295471 765.0 
406.186127 170.0 
406.239014 119.0 
406.29541 294.0 
407.238251 1442.0 
407.283173 1080.0 
408.24054 479.0 
408.288025 396.0 
409.295654 13600.0 
409.468506 62.0 
410.126312 60.0 
410.253784 459.0 
410.299988 3264.0 
410.782349 78.0 
411.23407 3397.0 
411.284149 5761.0 
411.705414 75.0 
412.241333 831.0 
412.286224 1259.0 
413.187012 432.0 
413.263275 3128.0 
413.435913 69.0 
414.189331 114.0 
414.265228 754.0 
415.242279 9275.0 
415.306152 656.0 
416.243866 2478.0 
417.025452 70.0 
417.257385 6145.0 
418.261108 1599.0 
418.354309 71.0 
419.237915 2823.0 
420.240295 570.0 
420.288239 247.0 
421.259552 460.0 
421.302155 367.0 
422.253387 150.0 
422.302795 128.0 
423.185303 91.0 
423.30658 1699.0 
424.313507 376.0 
425.300415 2998.0 
426.302521 824.0 
427.31427 14110.0 
427.391815 69.0 
428.243561 99.0 
428.31839 3468.0 
428.698181 60.0 
429.262421 1703.0 
429.295929 4131.0 
430.264313 697.0 
430.297943 1267.0 
431.132446 60.0 
431.203217 218.0 
431.275696 6199.0 
432.204865 80.0 
432.282715 1567.0 
433.254425 3824.0 
433.711792 85.0 
434.259552 1145.0 
434.32373 156.0 
435.272217 1517.0 
435.53299 59.0 
436.278473 522.0 
436.821289 65.0 
437.222351 640.0 
437.255096 1096.0 
437.298187 1112.0 
438.218079 120.0 
438.264801 160.0 
438.300232 247.0 
439.206055 108.0 
439.285706 588.0 
440.263672 109.0 
440.309204 205.0 
441.328125 5255.0 
442.276398 332.0 
442.331573 1761.0 
442.977722 64.0 
443.242249 198.0 
443.310944 6157.0 
444.314819 1609.0 
445.21933 76.0 
445.325897 3440.0 
446.144836 69.0 
446.212402 63.0 
446.280762 250.0 
446.329346 1335.0 
446.881744 97.0 
447.204224 80.0 
447.270752 3764.0 
448.274384 835.0 
448.36673 58.0 
449.211548 174.0 
449.285339 28678.0 
449.786102 65.0 
450.288757 7564.0 
450.90741 77.0 
450.966003 63.0 
451.288513 1837.0 
452.296234 289.0 
453.222443 192.0 
453.292542 1013.0 
454.086792 87.0 
454.228333 61.0 
454.294861 433.0 
455.312073 1729.0 
456.274963 233.0 
456.316803 528.0 
457.32605 2072.0 
458.32605 477.0 
459.149323 62.0 
459.284515 2200.0 
459.342438 14880.0 
459.429596 83.0 
460.289551 851.0 
460.345856 4453.0 
461.321686 6360.0 
462.325043 1644.0 
463.325714 870.0 
464.246185 125.0 
464.311005 201.0 
465.280701 8881.0 
466.191345 59.0 
466.284363 2460.0 
467.297302 12990.0 
468.302185 3295.0 
468.698578 62.0 
469.242523 217.0 
469.299103 1774.0 
470.247803 70.0 
470.294373 287.0 
470.332611 247.0 
471.238892 78.0 
471.302307 567.0 
471.515991 65.0 
472.238129 115.0 
472.301819 138.0 
473.239502 59.0 
473.323425 708.0 
473.351562 651.0 
474.326691 292.0 
475.336823 3095.0 
476.339844 702.0 
477.198395 68.0 
477.297241 5429.0 
477.353882 6394.0 
477.816223 96.0 
478.248474 90.0 
478.30365 1777.0 
478.356323 1635.0 
479.248322 100.0 
479.325653 1269.0 
480.32962 618.0 
481.333344 1097.0 
482.344543 393.0 
483.229034 81.0 
483.316071 979.0 
484.324249 388.0 
484.370544 92.0 
485.323669 1231.0 
486.320648 337.0 
487.319794 1387.0 
487.548981 63.0 
488.332947 392.0 
488.416748 65.0 
489.240173 94.0 
489.305878 313.0 
489.352142 752.0 
490.299408 77.0 
490.360687 265.0 
490.87326 59.0 
491.180786 62.0 
491.261871 151.0 
491.36911 5526.0 
492.370239 1808.0 
493.290253 303.0 
493.349426 2157.0 
494.355804 835.0 
494.663666 58.0 
495.132996 68.0 
495.307373 7541.0 
495.437866 59.0 
495.714294 60.0 
496.309906 2615.0 
496.367706 298.0 
497.320282 736.0 
498.321869 227.0 
499.276489 158.0 
499.351929 1578.0 
500.353943 671.0 
501.334351 2446.0 
502.337646 1113.0 
503.329834 786.0 
504.327515 170.0 
504.383179 130.0 
505.272217 113.0 
505.345795 1608.0 
506.249664 63.0 
506.344086 502.0 
507.25824 109.0 
507.308594 261.0 
507.37149 549.0 
508.268585 104.0 
508.364014 196.0 
509.332611 3409.0 
509.379852 7729.0 
509.480408 60.0 
510.265869 137.0 
510.336609 1157.0 
510.384125 2114.0 
511.296265 395.0 
511.356049 1431.0 
512.365356 375.0 
513.319519 5454.0 
513.714294 65.0 
514.321716 1626.0 
515.332336 730.0 
515.500671 59.0 
516.340027 286.0 
517.36322 1797.0 
517.625977 79.0 
518.306274 81.0 
518.367737 623.0 
519.344788 5076.0 
520.35083 1952.0 
521.339111 546.0 
522.345093 199.0 
523.337097 644.0 
524.351746 229.0 
524.885071 59.0 
525.306335 118.0 
525.350647 239.0 
526.357239 99.0 
527.194885 63.0 
527.347412 9923.0 
528.350342 3373.0 
529.288208 169.0 
529.355408 1322.0 
530.318359 86.0 
530.359802 291.0 
531.330994 1542.0 
531.643616 58.0 
532.336304 842.0 
533.267029 121.0 
533.358093 1066.0 
534.358765 391.0 
534.576904 68.0 
535.25946 76.0 
535.364929 989.0 
536.378357 457.0 
537.357239 5374.0 
538.249268 68.0 
538.361206 1823.0 
539.337524 423.0 
540.356873 170.0 
541.352051 787.0 
542.357788 337.0 
543.29541 225.0 
543.350525 471.0 
544.289856 105.0 
544.351562 98.0 
545.241943 91.0 
545.360168 26280.0 
546.271912 152.0 
546.363464 9380.0 
547.299561 198.0 
547.367126 2412.0 
547.616028 72.0 
548.250977 69.0 
548.376221 362.0 
549.29248 276.0 
549.389771 637.0 
549.523987 65.0 
550.356262 196.0 
550.398987 259.0 
551.371338 2248.0 
552.377563 956.0 
553.293884 264.0 
553.34967 399.0 
553.386719 402.0 
554.268494 59.0 
554.360596 153.0 
555.260315 102.0 
555.36908 2262.0 
556.289612 65.0 
556.369263 758.0 
557.303833 155.0 
557.354797 339.0 
558.30542 92.0 
559.377014 2537.0 
560.378845 1110.0 
560.692505 58.0 
561.367737 696.0 
562.350464 229.0 
562.386841 191.0 
562.695679 69.0 
563.198059 80.0 
563.372375 47654.0 
563.676208 62.0 
563.773743 75.0 
564.375427 17162.0 
564.804993 60.0 
565.380981 4531.0 
566.387085 700.0 
567.302856 422.0 
567.374573 760.0 
568.299744 77.0 
568.340393 96.0 
568.370667 129.0 
568.412476 267.0 
568.689819 72.0 
569.38623 2771.0 
570.386475 811.0 
570.955383 59.0 
571.309265 457.0 
571.38678 435.0 
572.322571 210.0 
572.379211 168.0 
573.32489 320.0 
573.375305 527.0 
574.285645 90.0 
574.331787 134.0 
574.384277 187.0 
575.305481 269.0 
575.360718 390.0 
575.609985 78.0 
576.354431 98.0 
576.389954 90.0 
577.296387 178.0 
577.387268 16551.0 
577.690735 62.0 
578.392578 6293.0 
578.697571 66.0 
579.172058 93.0 
579.383179 1706.0 
579.937134 65.0 
580.314209 96.0 
580.375854 440.0 
581.384338 43888.0 
581.718933 66.0 
582.386475 16564.0 
583.286316 59.0 
583.393127 4182.0 
583.493347 73.0 
584.395935 914.0 
584.544495 59.0 
585.297974 108.0 
585.382263 386.0 
585.543579 67.0 
586.319458 132.0 
586.374023 176.0 
587.334412 108.0 
587.395874 1846.0 
588.397888 672.0 
589.323608 75.0 
589.37384 278.0 
590.384583 59.0 
591.348755 787.0 
591.399597 453.0 
592.354675 198.0 
592.410278 208.0 
592.945557 67.0 
593.307922 341.0 
593.384216 1015.0 
593.693481 70.0 
594.190796 68.0 
594.309509 74.0 
594.384521 457.0 
594.545349 77.0 
594.944458 70.0 
595.089966 75.0 
595.257568 97.0 
595.399109 52381.0 
595.501038 134.0 
595.577209 82.0 
595.635437 76.0 
595.761963 72.0 
596.403259 18843.0 
596.504089 63.0 
596.623779 61.0 
596.705444 64.0 
596.795166 114.0 
597.062744 63.0 
597.210876 76.0 
597.406433 5158.0 
598.403503 753.0 
599.169922 59.0 
599.234558 62.0 
599.394653 15701.0 
600.01062 58.0 
600.304688 73.0 
600.398499 5574.0 
600.630066 59.0 
601.319702 108.0 
601.399109 1313.0 
602.412781 419.0 
603.005554 71.0 
603.381775 262.0 
603.426392 117.0 
604.397949 177.0 
605.404297 625.0 
606.394897 153.0 
607.323853 135.0 
607.394592 321.0 
608.326721 96.0 
608.400024 169.0 
609.371704 1508.0 
609.414978 2574.0 
609.740601 75.0 
609.984131 59.0 
610.201416 58.0 
610.303223 87.0 
610.41687 1259.0 
611.304321 79.0 
611.394775 2943.0 
612.394836 1041.0 
612.568176 75.0 
612.673645 73.0 
612.715454 110.0 
612.847046 88.0 
613.103516 63.0 
613.148682 122.0 
613.209839 75.0 
613.4104 102404.0 
613.568115 184.0 
613.891907 71.0 
613.951477 76.0 
614.058105 103.0 
614.221863 154.0 
614.414185 38420.0 
614.534851 178.0 
614.62146 76.0 
614.77063 73.0 
614.805908 84.0 
614.879883 65.0 
615.057495 60.0 
615.211426 68.0 
615.417847 9432.0 
615.570679 88.0 
615.751953 77.0 
615.980896 65.0 
616.265259 74.0 
616.338318 84.0 
616.420654 1879.0 
616.536499 61.0 
616.786987 60.0 
617.029846 67.0 
617.403381 1478.0 
617.548035 149.0 
617.70575 80.0 
617.752686 127.0 
617.812134 110.0 
617.895569 103.0 
618.001831 121.0 
618.142761 69.0 
618.404114 457.0 
618.859985 86.0 
618.976929 61.0 
619.037598 96.0 
619.331055 63.0 
619.414307 374.0 
619.660583 76.0 
620.381348 112.0 
621.367615 141.0 
621.408081 155.0 
622.376404 127.0 
622.425354 92.0 
623.265686 58.0 
623.373413 533.0 
623.639099 80.0 
624.367188 188.0 
625.40863 1011.0 
626.33783 81.0 
626.413391 408.0 
626.600037 67.0 
627.426636 7738.0 
627.669678 68.0 
628.431702 3008.0 
628.538208 112.0 
629.234863 59.0 
629.410156 1551.0 
629.601685 60.0 
629.860352 83.0 
630.035461 70.0 
630.166626 67.0 
630.204041 59.0 
630.41449 675.0 
630.66925 66.0 
630.718445 58.0 
630.832092 85.0 
630.983459 67.0 
631.058411 82.0 
631.130127 143.0 
631.17395 112.0 
631.229736 200.0 
631.421692 171520.0 
631.583313 157.0 
631.750366 98.0 
632.034851 105.0 
632.142151 135.0 
632.178406 125.0 
632.232971 198.0 
632.424805 65310.0 
632.54303 115.0 
632.598022 91.0 
632.673645 67.0 
632.71936 83.0 
632.810242 103.0 
632.862427 58.0 
632.919373 129.0 
633.009949 89.0 
633.122559 75.0 
633.17334 100.0 
633.237976 74.0 
633.318359 125.0 
633.427795 14764.0 
633.562866 70.0 
633.706482 75.0 
633.762878 77.0 
633.798279 81.0 
634.179443 60.0 
634.430725 2670.0 
634.599243 79.0 
634.7771 81.0 
635.192871 61.0 
635.353943 229.0 
635.423828 675.0 
635.570435 89.0 
635.67926 95.0 
635.734558 72.0 
635.788025 87.0 
635.894043 136.0 
635.987366 101.0 
636.036133 116.0 
636.075928 126.0 
636.14624 71.0 
636.268127 87.0 
636.372314 108.0 
636.435303 126.0 
636.603149 58.0 
636.674561 63.0 
636.971741 62.0 
637.440491 184.0 
637.505798 62.0 
637.984741 67.0 
639.373596 183.0 
639.430969 185.0 
640.375305 68.0 
641.39386 598.0 
642.398682 327.0 
643.421875 2525.0 
644.425659 1087.0 
645.239441 68.0 
645.291016 86.0 
645.437317 38378.0 
645.854309 76.0 
646.01825 70.0 
646.258179 60.0 
646.355042 240.0 
646.44165 12638.0 
646.564575 79.0 
646.909058 60.0 
647.362488 286.0 
647.444702 3887.0 
647.835754 66.0 
648.406067 254.0 
648.450989 644.0 
649.3302 139.0 
649.432495 9165.0 
650.288147 66.0 
650.355469 77.0 
650.435547 3704.0 
651.380066 237.0 
651.436646 764.0 
652.373901 85.0 
652.449585 194.0 
653.404663 215.0 
654.411194 64.0 
655.345459 115.0 
655.394592 348.0 
656.210999 64.0 
656.408447 197.0 
657.377258 462.0 
657.429504 392.0 
658.391846 78.0 
658.434814 160.0 
659.316284 63.0 
659.395386 796.0 
659.7099 64.0 
660.404358 257.0 
661.429504 838.0 
662.100525 61.0 
662.198975 85.0 
662.332458 59.0 
662.435791 373.0 
662.564087 89.0 
662.676331 63.0 
662.732483 138.0 
663.004333 113.0 
663.096313 63.0 
663.186462 107.0 
663.284119 139.0 
663.448486 99337.0 
663.60907 96.0 
663.860413 75.0 
663.914307 79.0 
663.996826 60.0 
664.122986 77.0 
664.210815 78.0 
664.32373 159.0 
664.452271 39008.0 
664.582275 118.0 
664.631714 71.0 
664.704468 93.0 
664.823608 81.0 
664.883362 80.0 
665.10907 99.0 
665.305908 64.0 
665.359436 162.0 
665.454956 9547.0 
665.707214 96.0 
665.764465 91.0 
666.457153 1496.0 
667.341614 79.0 
667.44635 1629.0 
667.760559 68.0 
668.01178 77.0 
668.071472 59.0 
668.143433 95.0 
668.223938 69.0 
668.333557 67.0 
668.446716 846.0 
668.948853 60.0 
669.370422 151.0 
669.448975 193.0 
670.398987 103.0 
670.456177 102.0 
671.415283 211.0 
671.689636 61.0 
672.460083 86.0 
673.414246 1109.0 
674.347412 72.0 
674.419617 477.0 
675.392273 453.0 
676.391907 204.0 
676.664612 74.0 
676.968262 59.0 
677.056519 88.0 
677.357483 74.0 
677.412903 599.0 
678.136536 83.0 
678.276855 62.0 
678.338989 77.0 
678.404236 320.0 
678.465332 93.0 
678.65918 68.0 
678.707642 69.0 
679.275696 65.0 
679.431885 424.0 
679.565735 89.0 
679.732361 64.0 
679.966125 124.0 
680.099121 70.0 
680.2229 69.0 
680.287476 103.0 
680.338989 58.0 
680.422913 200.0 
680.640259 58.0 
680.694092 65.0 
680.838562 61.0 
680.872131 104.0 
680.930664 58.0 
681.005066 64.0 
681.119812 59.0 
681.227661 84.0 
681.459595 179557.0 
681.688354 77.0 
681.776611 72.0 
681.848022 65.0 
682.022095 65.0 
682.077332 96.0 
682.137329 120.0 
682.228271 165.0 
682.295288 190.0 
682.462952 69768.0 
682.641541 154.0 
682.730469 81.0 
682.78125 109.0 
682.877808 90.0 
682.981506 88.0 
683.009766 108.0 
683.086548 99.0 
683.131287 60.0 
683.207642 97.0 
683.259949 86.0 
683.465088 18223.0 
683.727417 68.0 
683.771118 106.0 
684.404968 173.0 
684.46991 3093.0 
685.041077 88.0 
685.461792 493.0 
685.68634 68.0 
685.995361 177.0 
686.058838 98.0 
686.135315 82.0 
686.170288 88.0 
686.316528 84.0 
686.381714 97.0 
686.463501 90.0 
686.807678 79.0 
687.078552 78.0 
687.175049 83.0 
687.372375 166.0 
687.437744 262.0 
688.430664 122.0 
689.405579 246.0 
689.458679 241.0 
690.422302 89.0 
690.469421 74.0 
691.424133 2148.0 
692.428711 896.0 
693.429199 596.0 
693.529297 61.0 
694.437988 178.0 
695.413025 217.0 
695.475098 249.0 
696.409241 104.0 
696.475464 142.0 
697.465698 353.0 
698.434021 117.0 
699.338501 107.0 
699.469788 6536.0 
700.473083 2534.0 
701.478455 614.0 
702.436218 129.0 
702.481873 116.0 
703.482849 211.0 
704.350952 70.0 
704.436462 117.0 
705.437378 604.0 
706.4422 188.0 
707.423523 477.0 
708.423462 254.0 
708.478638 95.0 
709.434082 4033.0 
709.548523 90.0 
710.436768 1528.0 
711.446533 902.0 
712.452454 479.0 
713.397827 81.0 
713.439209 184.0 
714.436035 131.0 
715.434998 137.0 
717.377991 81.0 
717.455017 447.0 
718.444763 116.0 
719.473389 240.0 
720.479248 126.0 
721.442444 267.0 
722.470764 65.0 
723.449402 1526.0 
724.455688 639.0 
725.445984 645.0 
726.429932 223.0 
727.444214 2343.0 
727.563477 90.0 
728.451782 1159.0 
729.457214 796.0 
730.458679 300.0 
730.522949 103.0 
731.460327 192.0 
733.424866 116.0 
734.436829 74.0 
735.452698 107.0 
735.523071 104.0 
736.443176 67.0 
736.481201 69.0 
737.468567 695.0 
738.470825 420.0 
739.469727 183.0 
740.468689 109.0 
741.459778 2159.0 
742.464478 735.0 
743.46405 411.0 
744.4505 173.0 
745.460144 171.0 
746.450928 121.0 
747.5 239.0 
748.460754 153.0 
749.460327 186.0 
750.473816 146.0 
751.483459 173.0 
752.485596 129.0 
753.486023 205.0 
754.47876 123.0 
755.477112 1881.0 
756.477356 740.0 
757.489624 399.0 
758.484863 105.0 
759.47113 2243.0 
760.475403 911.0 
761.477112 337.0 
763.519348 138.0 
764.484924 83.0 
765.462341 119.0 
765.503967 150.0 
766.463074 133.0 
766.534668 78.0 
767.493042 339.0 
768.486511 206.0 
769.485229 279.0 
770.496033 144.0 
771.525757 325.0 
772.476746 63.0 
772.523743 118.0 
773.48822 4233.0 
774.490845 1832.0 
775.501953 633.0 
776.489807 164.0 
777.486511 1135.0 
778.485229 696.0 
779.497986 272.0 
779.557068 89.0 
780.494873 101.0 
781.496094 250.0 
782.492676 161.0 
783.452271 82.0 
783.50592 103.0 
783.548279 82.0 
784.500244 97.0 
785.495667 293.0 
786.505676 245.0 
787.507629 500.0 
787.565491 79.0 
788.505798 246.0 
789.528259 481.0 
790.510071 269.0 
791.389648 85.0 
791.497437 5237.0 
792.502563 2640.0 
793.505859 930.0 
794.502197 248.0 
795.497864 331.0 
796.465454 96.0 
796.50116 142.0 
797.460205 87.0 
797.52063 315.0 
798.500977 79.0 
799.512024 352.0 
800.521912 338.0 
801.456482 61.0 
801.515747 212.0 
802.560303 64.0 
803.446655 112.0 
803.495117 267.0 
803.548218 159.0 
804.497925 113.0 
804.552795 140.0 
805.51355 1779.0 
806.522034 969.0 
807.518738 373.0 
808.545044 171.0 
809.512939 1066.0 
810.515564 359.0 
811.514648 294.0 
812.562439 60.0 
813.518555 126.0 
814.511536 119.0 
815.533936 515.0 
816.531921 358.0 
817.5224 932.0 
818.523743 362.0 
819.444641 61.0 
819.530212 116.0 
820.528748 73.0 
821.51123 257.0 
822.507263 117.0 
823.526306 3979.0 
824.531433 2022.0 
825.532532 568.0 
826.526245 105.0 
826.567383 134.0 
827.518372 692.0 
828.523315 461.0 
829.528076 373.0 
830.534668 81.0 
831.530945 84.0 
832.53186 71.0 
833.547729 220.0 
834.541565 60.0 
835.528931 480.0 
836.539246 224.0 
837.493713 73.0 
837.534729 108.0 
839.521301 301.0 
840.514771 202.0 
841.406433 111.0 
841.536682 8540.0 
842.418457 66.0 
842.538757 4031.0 
843.541748 1277.0 
843.92981 59.0 
844.552368 185.0 
845.531006 360.0 
846.537537 165.0 
847.541077 235.0 
848.557922 87.0 
849.530029 156.0 
850.539307 123.0 
850.575623 135.0 
851.547363 122.0 
851.606628 85.0 
852.562622 157.0 
853.534973 472.0 
854.528259 196.0 
855.498962 103.0 
855.576355 102.0 
856.547424 82.0 
857.539795 317.0 
858.530518 88.0 
858.580566 98.0 
859.537109 391.0 
859.637329 126.0 
860.562744 219.0 
861.54364 132.0 
863.528809 155.0 
865.552429 109.0 
867.568237 320.0 
868.592285 242.0 
869.515381 185.0 
871.535645 633.0 
872.542358 452.0 
873.561462 204.0 
874.541504 91.0 
874.582275 77.0 
875.561768 193.0 
876.530396 58.0 
876.602905 64.0 
877.556213 169.0 
878.56897 109.0 
878.62738 202.0 
879.566895 193.0 
880.556519 127.0 
880.611389 103.0 
881.564514 135.0 
881.647156 80.0 
882.56665 118.0 
883.521667 65.0 
883.564148 138.0 
883.626709 90.0 
884.579834 71.0 
884.622253 76.0 
885.57196 818.0 
886.588745 386.0 
887.547424 120.0 
887.615356 75.0 
888.564575 83.0 
888.610229 103.0 
889.550598 981.0 
890.554993 538.0 
891.497498 58.0 
891.554993 187.0 
891.64978 203.0 
892.590881 86.0 
892.64502 93.0 
893.567078 217.0 
893.6474 145.0 
894.576294 60.0 
894.629395 83.0 
895.56073 320.0 
896.57373 310.0 
897.572021 424.0 
898.572449 184.0 
899.598145 109.0 
899.649902 113.0 
900.655945 84.0 
901.584351 190.0 
902.576416 131.0 
903.493713 65.0 
903.572021 773.0 
904.571899 396.0 
905.584534 279.0 
907.567139 858.0 
908.565125 563.0 
909.57373 195.0 
909.661133 280.0 
910.587219 186.0 
910.655334 236.0 
911.588562 216.0 
912.571289 194.0 
913.569885 324.0 
914.577026 129.0 
915.598999 203.0 
916.592224 69.0 
917.596802 130.0 
917.643616 173.0 
918.624146 89.0 
919.56781 270.0 
920.574219 77.0 
920.627625 97.0 
921.579712 1156.0 
922.580505 655.0 
923.595947 182.0 
923.695496 71.0 
924.596863 97.0 
925.575195 130.0 
925.648376 181.0 
926.579468 83.0 
926.657959 74.0 
927.628662 258.0 
928.57074 120.0 
928.660889 141.0 
929.59137 479.0 
930.590576 208.0 
931.591492 268.0 
931.663513 213.0 
932.601807 61.0 
932.679688 160.0 
933.619202 70.0 
934.603699 94.0 
935.611633 203.0 
936.637573 178.0 
937.577209 193.0 
937.648499 140.0 
938.611877 176.0 
939.594788 1275.0 
940.594421 581.0 
941.520813 61.0 
941.595459 359.0 
941.673645 237.0 
942.040039 77.0 
942.621277 270.0 
942.675232 185.0 
943.597778 388.0 
944.609131 119.0 
944.676147 145.0 
945.609863 298.0 
946.620728 138.0 
947.598755 181.0 
947.652222 178.0 
948.535828 112.0 
949.032288 86.0 
949.609192 183.0 
949.685913 361.0 
950.037109 70.0 
950.595703 239.0 
950.697021 138.0 
951.621216 319.0 
952.613281 147.0 
952.683472 81.0 
953.647278 169.0 
954.635742 148.0 
955.608887 303.0 
956.587097 104.0 
957.601746 1231.0 
958.026855 60.0 
958.60614 787.0 
959.619324 323.0 
959.67572 389.0 
960.707336 139.0 
961.607849 568.0 
962.6203 409.0 
963.636658 274.0 
964.625916 148.0 
964.665894 151.0 
965.614502 72.0 
965.690308 86.0 
966.603821 70.0 
966.687256 81.0 
967.697083 289.0 
968.675598 175.0 
969.620483 352.0 
970.633179 272.0 
971.562866 68.0 
971.647766 177.0 
972.620361 140.0 
972.685669 82.0 
973.613525 225.0 
974.627747 175.0 
975.648865 351.0 
976.645081 219.0 
977.646973 638.0 
978.646545 382.0 
979.621948 962.0 
980.622437 338.0 
981.626526 237.0 
981.698608 196.0 
982.637695 169.0 
982.709473 150.0 
983.642639 114.0 
984.626282 64.0 
984.723877 66.0 
985.637207 282.0 
986.662292 109.0 
987.622131 561.0 
988.633728 472.0 
989.642761 136.0 
990.638916 187.0 
991.598267 74.0 
991.663513 212.0 
992.635254 73.0 
993.647156 685.0 
993.720154 105.0 
994.654724 273.0 
995.654663 896.0 
996.656372 473.0 
997.634033 479.0 
998.658081 188.0 
999.656982 279.0 
999.729248 318.0 
1000.588074 77.0 
1000.723694 188.0 
1001.656921 61.0 
1001.726624 82.0 
1002.643127 101.0 
1003.65155 313.0 
1003.697266 383.0 
1004.591003 63.0 
1004.666443 244.0 
1005.633179 985.0 
1006.637085 616.0 
1007.669067 389.0 
1008.652039 178.0 
1009.673035 201.0 
1010.670105 195.0 
1011.654236 920.0 
1012.667725 507.0 
1013.660889 817.0 
1014.667847 373.0 
1015.665649 186.0 
1016.689697 119.0 
1017.730408 222.0 
1018.737793 160.0 
1019.667603 266.0 
1020.657959 327.0 
1021.678284 439.0 
1022.680298 329.0 
1023.646851 884.0 
1024.645874 443.0 
1025.672119 464.0 
1026.68396 288.0 
1027.691528 508.0 
1028.697266 218.0 
1029.655884 2251.0 
1030.529541 81.0 
1030.667725 1139.0 
1031.661255 706.0 
1032.668579 252.0 
1033.65918 68.0 
1035.583496 64.0 
1035.723022 239.0 
1036.694092 164.0 
1037.664917 587.0 
1038.667236 446.0 
1039.674438 372.0 
1040.681641 238.0 
1041.66394 264.0 
1042.67749 185.0 
1043.68811 779.0 
1044.69458 524.0 
1045.695435 613.0 
1046.697266 249.0 
1047.674805 917.0 
1048.680298 625.0 
1049.670166 416.0 
1050.670288 207.0 
1051.685059 183.0 
1052.685181 90.0 
1053.596313 103.0 
1053.717407 492.0 
1054.439819 58.0 
1054.704102 283.0 
1055.675171 1874.0 
1056.680786 1014.0 
1057.698486 379.0 
1058.690063 163.0 
1059.68396 223.0 
1060.659058 132.0 
1061.699829 1853.0 
1062.705933 1155.0 
1063.695679 693.0 
1064.693359 305.0 
1065.705933 169.0 
1066.693604 80.0 
1067.644897 94.0 
1067.748047 61.0 
1068.639282 59.0 
1068.768677 61.0 
1069.690674 194.0 
1070.678589 81.0 
1071.712402 423.0 
1072.703613 251.0 
1072.741455 247.0 
1073.686523 3546.0 
1074.689331 2064.0 
1075.705933 1066.0 
1076.712524 633.0 
1077.703491 357.0 
1078.715698 180.0 
1079.708862 1133.0 
1080.610107 59.0 
1080.713013 737.0 
1081.697632 886.0 
1082.69751 269.0 
1083.720703 225.0 
1085.661743 177.0 
1085.777588 148.0 
1086.639404 83.0 
1087.684204 76.0 
1087.762329 69.0 
1088.726318 90.0 
1089.722412 138.0 
1090.713379 105.0 
1091.709717 247.0 
1091.797363 58.0 
1092.704956 191.0 
1093.724976 1916.0 
1094.735352 1344.0 
1095.739502 566.0 
1096.731079 226.0 
1096.938721 59.0 
1097.721313 527.0 
1098.733276 268.0 
1099.70874 473.0 
1100.718018 160.0 
1101.711792 132.0 
1101.775146 109.0 
1103.651001 103.0 
1103.725098 73.0 
1103.783325 93.0 
1104.682739 78.0 
1104.778198 119.0 
1105.772583 84.0 
1107.677979 65.0 
1107.725952 122.0 
1107.797241 75.0 
1108.745361 139.0 
1109.722778 242.0 
1110.736694 178.0 
1111.646606 147.0 
1111.736572 5095.0 
1112.742554 3102.0 
1113.744141 1399.0 
1114.747437 311.0 
1115.73938 98.0 
1116.745728 119.0 
1117.711914 135.0 
1118.686646 205.0 
1119.694458 90.0 
1121.812256 179.0 
1122.691772 102.0 
1123.767456 136.0 
1125.684692 85.0 
1125.766968 125.0 
1126.772339 123.0 
1127.743164 279.0 
1128.755249 173.0 
1129.75061 5521.0 
1130.598511 63.0 
1130.754395 3913.0 
1131.75061 1319.0 
1132.766724 472.0 
1133.775024 127.0 
1135.342651 63.0 
1135.712891 60.0 
1135.818115 70.0 
1137.794189 98.0 
1138.787842 81.0 
1139.755981 281.0 
1140.727661 104.0 
1140.784058 101.0 
1140.833862 91.0 
1141.781372 146.0 
1142.762573 102.0 
1143.693359 75.0 
1143.757568 111.0 
1144.780273 101.0 
1145.745117 274.0 
1146.742554 233.0 
1147.757446 1835.0 
1148.769775 954.0 
1149.78186 653.0 
1150.77417 218.0 
1151.770874 66.0 
1153.767944 90.0 
1153.819458 101.0 
1154.726562 81.0 
1155.81897 72.0 
1156.792969 65.0 
1157.768188 416.0 
1158.689209 85.0 
1158.768555 314.0 
1159.757935 233.0 
1162.77832 88.0 
1165.708862 164.0 
1167.72876 86.0 
1168.743408 74.0 
1171.704102 128.0 
1171.803223 155.0 
1172.790283 159.0 
1173.737061 109.0 
1173.820923 95.0 
1174.796509 175.0 
1175.694336 74.0 
1175.777344 525.0 
1176.793213 300.0 
1177.776245 201.0 
1178.546753 59.0 
1178.751587 84.0 
1179.799316 75.0 
1181.781128 59.0 
1182.764404 64.0 
1182.830444 63.0 
1183.729736 218.0 
1184.735718 107.0 
1186.815308 74.0 
1187.770142 63.0 
1189.76709 510.0 
1190.723389 223.0 
1190.802734 254.0 
1191.775024 162.0 
1191.844849 70.0 
1192.765259 59.0 
1192.819336 86.0 
1193.789917 382.0 
1194.799072 217.0 
1195.806885 143.0 
1196.800537 70.0 
1197.764404 95.0 
1198.810059 59.0 
1199.748535 128.0 
1199.809937 187.0 
1200.722778 66.0 
1200.819824 178.0 
1201.796875 98.0 
1202.742065 89.0 
1203.780029 128.0 
1204.782227 79.0 
1205.742065 122.0 
1206.758911 69.0 
1207.808838 937.0 
1208.81665 952.0 
1209.783325 207.0 
1210.734253 61.0 
1210.807251 191.0 
1211.814209 154.0 
1212.813843 89.0 
1213.80957 94.0 
1215.768433 231.0 
1216.76123 245.0 
1217.781494 137.0 
1219.742188 161.0 
1220.737671 162.0 
1221.838745 360.0 
1222.76001 97.0 
1222.837769 204.0 
1223.753296 88.0 
1223.84375 102.0 
1224.813599 58.0 
1225.81958 1666.0 
1226.829346 1266.0 
1227.828125 569.0 
1228.83374 117.0 
1229.824219 96.0 
1230.843384 68.0 
1231.812622 109.0 
1232.840698 94.0 
1233.760986 532.0 
1234.761719 301.0 
1235.773315 171.0 
1237.815552 63.0 
1239.838013 1080.0 
1240.843872 633.0 
1241.760498 147.0 
1241.84729 344.0 
1242.78125 110.0 
1242.850952 128.0 
1243.709106 60.0 
1243.838135 1618.0 
1244.843018 932.0 
1245.839478 689.0 
1246.743652 64.0 
1246.82019 199.0 
1246.868896 206.0 
1249.85083 138.0 
1250.848755 70.0 
1253.786865 156.0 
1254.811157 199.0 
1256.807739 67.0 
1257.846313 3156.0 
1258.851562 2462.0 
1259.859619 982.0 
1260.845703 275.0 
1261.841064 1206.0 
1262.858887 846.0 
1263.845581 251.0 
1264.86145 69.0 
1265.844849 66.0 
1267.844727 112.0 
1271.601929 66.0 
1271.82373 931.0 
1272.822144 701.0 
1273.736938 64.0 
1273.835327 410.0 
1274.81543 154.0 
1274.860718 171.0 
1275.860718 7280.0 
1276.693726 59.0 
1276.865723 4925.0 
1277.867188 2459.0 
1278.868042 600.0 
1279.712769 95.0 
1279.847778 379.0 
1280.852295 316.0 
1281.867188 197.0 
1289.827759 1229.0 
1290.853516 1117.0 
1291.885986 583.0 
1292.842285 171.0 
1293.455933 65.0 
1293.704834 73.0 
1293.871704 9397.0 
1294.660278 67.0 
1294.876343 6984.0 
1295.064819 84.0 
1295.878784 3215.0 
1296.884033 1208.0 
1297.874268 377.0 
1299.889404 84.0 
1303.85022 67.0 
1304.841187 66.0 
1307.890259 4512.0 
1308.887817 3408.0 
1309.893677 1583.0 
1310.893921 516.0 
1311.883057 7509.0 
1312.162476 114.0 
1312.885986 5316.0 
1313.887085 2311.0 
1314.781372 71.0 
1314.890015 817.0 
1315.914551 179.0 
1316.772949 59.0 
1316.9198 79.0 
1318.859985 62.0 
1322.861328 229.0 
1323.878052 135.0 
1325.611816 106.0 
1325.696045 118.0 
1325.898071 14451.0 
1326.239868 58.0 
1326.429688 71.0 
1326.667236 77.0 
1326.901489 10436.0 
1327.258667 73.0 
1327.671509 77.0 
1327.908447 5170.0 
1328.164185 73.0 
1328.909424 1497.0 
1329.908447 858.0 
1330.532471 59.0 
1330.896606 703.0 
1331.526733 61.0 
1331.900513 316.0 
1332.113892 60.0 
1332.910645 113.0 
1335.144531 58.0 
1335.250488 66.0 
1335.836182 73.0 
1336.876709 59.0 
1339.873291 62.0 
1340.849487 64.0 
1342.885376 59.0 
1343.646729 81.0 
1343.908936 25580.0 
1344.126831 92.0 
1344.324219 66.0 
1344.521362 97.0 
1344.91394 20790.0 
1345.23877 59.0 
1345.580322 88.0 
1345.91394 9661.0 
1346.356934 62.0 
1346.91748 2597.0 
1347.642456 76.0 
1347.911621 946.0 
1348.403931 71.0 
1348.939209 247.0 
1349.222534 58.0 
1349.909058 120.0 
1350.905762 60.0 
1351.499878 63.0 
1351.963745 89.0 
1353.764526 70.0 
1353.873169 241.0 
1354.872559 199.0 
1355.858521 82.0 
1358.852661 69.0 
1358.910156 64.0 
1359.882324 97.0 
1361.697754 67.0 
1361.918823 10664.0 
1362.137939 80.0 
1362.922607 8289.0 
1363.166504 72.0 
1363.927246 3766.0 
1364.927979 1230.0 
1365.61084 59.0 
1365.937988 188.0 
1366.928345 98.0 
1367.888794 63.0 
1371.88562 409.0 
1372.901978 201.0 
1373.908447 230.0 
1374.897461 101.0 
1385.915039 186.0 
1386.905884 177.0 
1389.901489 255.0 
1390.908936 370.0 
1391.904419 200.0 
1392.877319 102.0 
1394.90564 61.0 
1399.909302 87.0 
1400.93396 129.0 
1403.923096 298.0 
1404.906738 264.0 
1405.915039 202.0 
1407.902222 117.0 
1408.895142 78.0 
1408.958862 100.0 
1409.922241 75.0 
1410.915771 105.0 
1417.907471 180.0 
1418.928101 254.0 
1419.927856 90.0 
1421.919067 549.0 
1422.930176 355.0 
1423.94104 231.0 
1425.958008 100.0 
1435.927734 643.0 
1436.937622 794.0 
1437.934448 417.0 
1438.92749 175.0 
1439.930542 654.0 
1440.930054 370.0 
1441.944336 239.0 
1442.945312 95.0 
1449.964722 59.0 
1450.922485 58.0 
1450.988403 83.0 
1453.951782 1745.0 
1454.950684 1268.0 
1455.966309 484.0 
1456.955322 218.0 
1457.928345 211.0 
1458.935913 202.0 
1459.953613 65.0 
1467.961426 499.0 
1468.962524 490.0 
1469.972168 137.0 
1470.9552 104.0 
1471.957153 1792.0 
1472.959229 1424.0 
1473.958618 681.0 
1474.983887 219.0 
1476.0 83.0 
1485.977295 2693.0 
1486.976318 2638.0 
1487.858398 59.0 
1487.975464 1338.0 
1488.974243 411.0 
1489.972656 2091.0 
1490.97583 1978.0 
1491.857422 92.0 
1491.978271 909.0 
1492.970093 461.0 
1493.972046 100.0 
1496.934326 63.0 
1500.960083 71.0 
1503.985596 11142.0 
1504.612183 72.0 
1504.76062 60.0 
1504.984375 9401.0 
1505.352173 63.0 
1505.991577 4631.0 
1506.988037 1472.0 
1507.991943 901.0 
1508.888672 83.0 
1508.982056 483.0 
1509.983032 378.0 
1510.778687 76.0 
1521.996338 2736.0 
1522.995728 2357.0 
1524.001465 1252.0 
1525.005249 397.0 
1526.009399 68.0 
1532.956177 62.0 
1583.032349 64.0 
1600.005615 102.0 
1601.017212 63.0 
1602.050293 67.0 
1618.005859 106.0 
1632.041626 634.0 
1633.039429 478.0 
1634.032471 146.0 
1635.080933 159.0 
1649.695801 63.0 
1650.036987 5919.0 
1650.321167 60.0 
1650.73938 76.0 
1651.046997 5544.0 
1651.243896 95.0 
1651.428589 58.0 
1652.046509 2993.0 
1653.05188 1047.0 
1654.070312 388.0 
1660.305298 67.0 
1666.370361 68.0 
1667.03479 62.0 
1667.681152 77.0 
1668.040649 122.0 
1669.05957 259.0 
1670.026367 97.0 
1670.070801 85.0 
1671.0448 92.0 
1672.066406 64.0 
1712.696167 61.0 
1754.130859 60.0 
1881.005493 62.0 
END IONS

