BEGIN IONS
PEPMASS=784.39
CHARGE=1+
MSLEVEL=2
SOURCE_INSTRUMENT=LC-ESI-Ion Trap
FILENAME=f.yuhaobing/microcolins Fedback/microcolin K.mzXML;
SEQ=*..*
IONMODE=Positive
ORGANISM=GNPS-LIBRARY
NAME=Microcolin L M+Na
PI=Gerwick
DATACOLLECTOR=Haobing Yu
SMILES=CN(C([C@H](C)C[C@H](C)CCCC)=O)[C@@H](CC(C)CC)C(N[C@@H]([C@@H](C)OC(C)=O)C(N(C)[C@@H](C(C)C)C(N1[C@H](C(N2C(C=C[C@@H]2C)=O)=O)C[C@H](O)C1)=O)=O)=O
INCHI=
INCHIAUX=
PUBMED=31468974
SUBMITUSER=yuhaobing
LIBRARYQUALITY=3
SPECTRUMID=CCMSLIB00005463469
SCANS=722
344.284973 89444.0 
346.217102 110701.0 
347.027222 89178.0 
362.036194 481362.0 
362.737244 1.0 
365.922485 54025.0 
371.199341 68513.0 
385.879883 25138.0 
387.641724 113805.0 
388.283875 5.0 
407.455078 196419.0 
408.064758 3.0 
429.679138 68795.0 
433.765076 96531.0 
434.368042 124258.0 
451.371216 182187.0 
460.981079 246797.0 
461.882996 332331.0 
463.855103 105618.0 
479.331116 34204.0 
500.452698 53430.0 
501.261414 141412.0 
504.281677 288937.0 
504.904846 113423.0 
513.139404 97115.0 
560.727905 156899.0 
565.082275 141474.0 
574.767578 37596.0 
576.614014 88616.0 
599.811523 21514.0 
613.648071 456322.0 
614.378174 2260734.0 
615.510254 640436.0 
616.141357 10.0 
627.339966 221652.0 
628.366455 260671.0 
629.408203 71988.0 
644.370361 250252.0 
645.719482 174073.0 
660.492676 439463.0 
673.684326 304934.0 
674.520996 2112904.0 
675.51355 461288.0 
676.159546 26.0 
683.719727 102407.0 
687.479492 7639540.0 
688.400391 27866536.0 
689.473633 7817849.0 
690.323242 580970.0 
690.989746 990.0 
710.352051 546910.0 
711.30835 12332312.0 
712.506592 2693781.0 
713.417725 235163.0 
725.084229 1110838.0 
725.685669 2814062.0 
726.377075 2292814.0 
727.541016 124680.0 
728.287354 126418.0 
729.423096 35599.0 
785.453613 1125518.0 
786.591431 44628.0 
END IONS

