BEGIN IONS
PEPMASS=356.97
CHARGE=1+
MSLEVEL=2
SOURCE_INSTRUMENT=LC-ESI-Ion Trap
FILENAME=f.zhangyi/pure compounds/BL-II_pos-20fold.mzXML;
SEQ=*..*
IONMODE=Positive
ORGANISM=GNPS-LIBRARY
NAME=butyrolactone II M+H
PI=William Gerwick
DATACOLLECTOR=Yi Zhang
SMILES=O=C2O[C@](C(/c1ccc(O)cc1)=C2/O)(C(=O)OC)Cc3ccc(O)cc3
INCHI=InChI=1S/C19H16O7/c1-25-18(24)19(10-11-2-6-13(20)7-3-11)15(16(22)17(23)26-19)12-4-8-14(21)9-5-12/h2-9,20-22H,10H2,1H3/t19-/m1/s1
INCHIAUX=
PUBMED=
SUBMITUSER=zhangyi
LIBRARYQUALITY=3
SPECTRUMID=CCMSLIB00005436072
SCANS=250
107.195404 1470.0 
186.774506 1919.0 
203.069397 8054.0 
217.256439 4731.0 
223.403534 1368.0 
225.137817 1968.0 
231.013245 971.0 
233.286865 4583.0 
234.927704 8953.0 
251.087891 7665.0 
263.150879 133826.0 
277.050049 2702.0 
279.030762 30967.0 
280.953613 3592.0 
289.120972 1346.0 
294.917603 58227.0 
296.448425 19047.0 
297.053101 375938.0 
299.043457 665.0 
306.83844 10914.0 
311.03302 7282.0 
311.67926 1827.0 
321.14502 9860.0 
322.255859 1615.0 
323.121704 5045.0 
324.210815 9021.0 
324.833862 471412.0 
325.435181 2046.0 
327.345703 1051.0 
328.51239 1586.0 
338.917603 14943.0 
341.913147 1955.0 
343.117065 13330.0 
364.684143 1070.0 
END IONS

