BEGIN IONS
PEPMASS=1090.47
CHARGE=1+
MSLEVEL=2
SOURCE_INSTRUMENT=LC-ESI-Orbitrap
FILENAME=f.RReher/Culebra/pure_compounds/1071_Br_LoggerpeptinA2/SPE1-1-18_LoggerA2_MS2_M+NH4_QE.mgf;
SEQ=*..*
IONMODE=Positive
ORGANISM=GNPS-LIBRARY
NAME=Loggerpeptin A2 M+NH4
PI=Gerwick
DATACOLLECTOR=Raphael Reher
SMILES=C[C@@H](C(N[C@H](C(N[C@H]1[C@@H](C)OC([C@H](C(C)C)NC(C(CC2=CC=C(O)C(Br)=C2)N(C)C([C@H](CC3=CC=CC=C3)N4[C@H](O)CCC(NC([C@H](CC(C)C)NC1=O)=O)C4=O)=O)=O)=O)=O)[C@@H](O)C)=O)NC(CCC)=O
INCHI=
INCHIAUX=
PUBMED=
SUBMITUSER=RReher
LIBRARYQUALITY=3
SPECTRUMID=CCMSLIB00005723410
SCANS=1
76.632629 2541.781982 
76.63327 4747.417969 
76.633904 6770.602051 
76.634544 7921.726562 
76.635178 8051.608887 
76.635811 7257.594727 
76.636452 5634.455566 
76.637085 3575.325439 
76.638992 2802.480469 
76.639633 4133.24707 
76.640266 4790.518555 
76.640907 4720.833008 
76.641541 4476.271973 
76.642174 4197.777344 
76.642815 3391.517822 
76.644722 2991.70874 
76.645363 7120.137207 
76.645996 10986.261719 
76.646629 11301.767578 
76.64727 7651.158203 
76.647903 3354.831055 
76.648544 2173.082031 
76.649178 4289.513672 
76.649818 6315.459961 
76.650452 5414.527832 
76.651085 2497.525391 
86.094421 2148.757324 
86.095177 8765.338867 
86.095932 18971.453125 
86.096695 30069.759766 
86.09745 31384.083984 
86.098206 20479.869141 
86.098969 9936.771484 
86.099724 1982.360352 
103.381721 3060.970459 
103.382721 4787.387207 
103.38372 5911.874023 
103.384712 5427.370605 
103.385712 3459.564697 
114.08654 1860.972412 
114.087692 2880.01001 
114.088852 11005.234375 
114.090004 21576.224609 
114.091164 32044.724609 
114.092316 29804.265625 
114.093475 18635.429688 
114.094627 8195.262695 
114.095787 2120.758545 
119.350983 1754.625977 
119.352219 4002.997559 
119.353455 5281.316406 
119.354698 4729.964844 
119.355934 2907.258789 
120.075104 2479.052734 
120.076347 8213.935547 
120.077599 35177.527344 
120.07885 82569.070312 
120.080093 133678.328125 
120.081345 145334.1875 
120.082588 98267.59375 
120.083839 50764.472656 
120.085091 15647.080078 
120.086334 4971.229004 
120.087585 2096.788086 
121.081207 2936.862061 
121.082466 5136.884766 
121.083733 6272.737305 
121.084999 5458.648926 
121.086258 3169.640869 
124.35865 2726.507324 
124.359962 5243.279297 
124.361275 6850.095215 
124.362595 6487.102051 
124.363907 4407.027832 
124.365227 1905.0896 
139.081619 2576.203857 
139.083176 5476.372559 
139.084732 8696.894531 
139.086288 10236.618164 
139.087845 8775.887695 
139.089401 5203.556641 
139.090958 1847.095215 
141.062775 2407.510498 
141.064377 4650.412109 
141.065964 5767.477051 
141.067551 4865.956055 
141.069138 2572.241943 
142.078705 552.534729 
142.080307 5833.221191 
142.081909 26990.339844 
142.083527 61964.042969 
142.085129 99753.28125 
142.086731 107143.625 
142.088348 72252.546875 
142.089951 37631.332031 
142.091553 11855.552734 
142.093155 3532.01416 
142.094772 1047.924438 
157.095337 3450.440918 
157.097198 5354.703613 
157.099075 5768.904785 
157.100937 4345.250977 
157.102798 2054.510254 
158.089386 967.7052 
158.091278 6340.276855 
158.093155 14361.878906 
158.095047 22863.013672 
158.096924 23474.630859 
158.098816 15321.650391 
158.100708 7467.022949 
158.102585 1967.943481 
167.07338 2607.133057 
167.075439 12177.668945 
167.077484 39308.207031 
167.079529 67908.90625 
167.081573 88089.273438 
167.083633 67698.171875 
167.085678 39221.046875 
167.087723 12478.849609 
167.089767 3334.126709 
167.091827 1741.723267 
169.12822 2139.751465 
169.13031 5734.583496 
169.132385 9569.419922 
169.134476 11191.820312 
169.136566 9460.359375 
169.138657 5657.773926 
169.140732 2225.332031 
170.089584 2082.032959 
170.09169 9015.677734 
170.093781 17144.96875 
170.095886 24557.398438 
170.097992 21587.335938 
170.100098 13148.381836 
170.102203 5413.050781 
170.104309 1986.517578 
172.106461 3208.879639 
172.108597 6398.929199 
172.110748 8532.345703 
172.112885 8076.875488 
172.115021 5342.316895 
172.117172 2277.637451 
181.128311 2022.957886 
181.130615 4824.291016 
181.132935 6856.611816 
181.135254 6402.837891 
181.137558 3862.572998 
185.083344 1897.208496 
185.085724 3888.532715 
185.08812 10980.345703 
185.0905 18680.220703 
185.092896 21450.070312 
185.095276 14906.378906 
185.097672 7789.751953 
185.100052 2288.612549 
187.112701 88.737778 
187.115128 4849.149902 
187.117569 19616.462891 
187.119995 36259.492188 
187.122421 50173.238281 
187.124847 41377.398438 
187.127274 24624.515625 
187.1297 9352.826172 
187.132126 2766.769775 
197.123596 2757.013916 
197.126221 5241.939941 
197.128845 6513.090332 
197.13147 5504.466309 
197.134094 2918.239502 
198.085251 2042.36377 
198.087891 4220.629883 
198.090546 5569.291016 
198.093185 4899.810547 
198.095825 2628.155762 
209.124695 2456.849854 
209.127563 4882.44873 
209.130432 5661.268555 
209.133301 4231.404297 
209.136169 1802.057129 
215.104172 1913.317505 
215.107178 8485.139648 
215.110168 34322.742188 
215.113159 75836.351562 
215.11615 120238.585938 
215.119141 125935.414062 
215.122131 83661.601562 
215.125122 42438.832031 
215.128113 12414.759766 
215.131119 3530.753418 
215.134109 1905.94812 
216.113419 1882.061035 
216.116425 4184.223633 
216.119446 5870.753906 
216.122452 5567.553711 
216.125473 3464.651611 
225.115021 3694.094727 
225.118225 8121.657715 
225.121429 12096.557617 
225.124634 12918.866211 
225.127838 9962.62793 
225.131042 5278.65332 
225.134247 1617.605347 
227.989624 647.365295 
227.992889 5878.60791 
227.996155 15435.016602 
227.99942 25888.927734 
228.002686 28750.841797 
228.005951 19489.814453 
228.009216 10092.712891 
228.012482 2950.551514 
228.015747 1349.77063 
228.999374 3827.685059 
229.002655 6448.498535 
229.005951 6938.993652 
229.009232 4811.22168 
229.012527 1792.445801 
229.978455 1881.959473 
229.981766 2960.769287 
229.985062 3107.30835 
229.988373 12691.551758 
229.991684 50354.84375 
229.994995 105691.125 
229.998306 163835.484375 
230.001602 161606.765625 
230.004913 103797.679688 
230.008224 49639.269531 
230.011536 14828.045898 
230.014847 5910.505859 
230.018158 4950.008301 
230.021454 3326.385498 
230.024765 2515.200928 
238.110886 3312.983398 
238.11438 6249.181641 
238.117859 8104.554688 
238.121338 7580.713379 
238.124832 5084.084961 
238.128311 2251.570312 
243.098419 2652.720947 
243.10202 10982.430664 
243.105606 35617.703125 
243.109207 62698.132812 
243.112793 83382.640625 
243.116394 66403.007812 
243.119995 39073.289062 
243.123581 13221.152344 
243.127182 3670.09082 
243.130783 2266.646484 
252.159119 1396.463623 
252.162903 8296.051758 
252.166702 16085.183594 
252.170502 22800.703125 
252.174301 18880.921875 
252.178101 11087.422852 
252.1819 4263.230957 
252.185699 984.781128 
280.153656 2764.551025 
280.158112 6477.352539 
280.162567 10082.588867 
280.167023 11027.316406 
280.171448 8467.433594 
280.175903 4226.423828 
282.129913 865.796204 
282.134399 5763.895996 
282.138916 13125.298828 
282.143402 20690.394531 
282.147888 19789.210938 
282.152405 12095.554688 
282.156891 5022.429688 
282.161377 1628.082764 
283.166565 2245.524414 
283.171082 5286.838379 
283.175598 11011.294922 
283.180115 16669.609375 
283.184631 14859.62207 
283.189178 8956.635742 
283.193695 2619.962891 
298.163696 3071.505615 
298.168579 6461.553711 
298.173462 8830.147461 
298.178345 8266.378906 
298.183228 5094.472656 
298.18811 1695.454224 
306.499451 3419.222412 
306.504547 4887.69873 
306.509613 5615.485352 
306.514709 5425.600586 
306.519806 4494.152832 
306.540161 1439.237305 
306.545258 6853.151855 
306.550354 13733.410156 
306.55545 20277.845703 
306.560516 21521.357422 
306.565613 15686.90625 
306.570709 9221.6875 
306.575806 1988.745728 
306.585999 3710.735352 
306.591064 10504.764648 
306.596161 16440.25 
306.601257 12361.609375 
306.606354 5062.098145 
306.61145 350.634186 
306.616547 2740.036377 
306.621643 7287.622559 
306.62674 7761.765137 
306.631805 4725.378418 
306.636902 961.186707 
308.129333 2839.364014 
308.13446 3094.219727 
308.139587 7303.90332 
308.144714 28061.533203 
308.149841 89281.84375 
308.154968 156513.84375 
308.160095 208419.078125 
308.165222 166435.828125 
308.17038 98212.804688 
308.175507 34679.074219 
308.180634 9501.710938 
308.18576 3233.773682 
308.190887 2291.366943 
309.147797 1722.129272 
309.152924 4312.208008 
309.158081 8455.424805 
309.163239 12610.879883 
309.168396 7773.840332 
309.173553 4459.96582 
309.178711 1565.186279 
311.168335 4228.224121 
311.173553 6981.869141 
311.178741 7696.866699 
311.18396 5781.010742 
311.189178 2684.88208 
326.146393 2843.974365 
326.151978 10313.884766 
326.157562 37126.878906 
326.163177 76295.820312 
326.168762 117610.546875 
326.174347 115553.789062 
326.179932 73488.484375 
326.185516 34319.378906 
326.191101 8833.882812 
326.196686 2296.786377 
356.186066 3753.99292 
356.192444 6072.355469 
356.198822 7142.571777 
356.2052 6242.600586 
356.211578 3969.530762 
375.049988 1926.852539 
375.056885 4408.322754 
375.063782 10922.508789 
375.070679 17982.996094 
375.077545 18989.757812 
375.084442 12744.791016 
375.091339 6629.256836 
375.098236 1369.396729 
388.011322 1713.529541 
388.018585 5018.570312 
388.025818 11298.242188 
388.033081 18096.175781 
388.040344 17903.929688 
388.047577 11077.508789 
388.05484 4825.604004 
388.062073 1445.314209 
393.224854 1591.991455 
393.232239 4468.648438 
393.239655 8294.584961 
393.24704 10287.111328 
393.254425 8714.457031 
393.261841 4709.992188 
393.269226 1237.231689 
439.223511 2831.852295 
439.232239 10952.894531 
439.240967 25214.53125 
439.249695 40428.789062 
439.258423 44167.226562 
439.267181 30050.646484 
439.275909 15542.952148 
439.284637 4083.966553 
439.293365 365.520599 
499.079498 2872.703369 
499.090088 6050.942871 
499.100647 7993.516602 
499.111237 7179.900879 
499.121796 4347.177734 
500.05426 1502.437134 
500.06488 7666.569336 
500.0755 27740.263672 
500.08609 55029.417969 
500.09671 82877.648438 
500.1073 78750.1875 
500.11792 49459.921875 
500.12851 22431.296875 
500.13913 5377.205078 
500.14975 529.161987 
675.110535 3027.833252 
675.127197 5138.972656 
675.143799 6272.06543 
675.160461 5654.775391 
675.177124 3604.692627 
914.284729 4490.948242 
914.310913 6543.594238 
914.337158 7047.373535 
914.363403 5569.737305 
914.389587 2967.907959 
1090.485474 3130.121582 
1090.519653 5569.321289 
1090.553711 6711.20166 
1090.587891 5718.118652 
1090.62207 3280.135254 
END IONS

