BEGIN IONS
PEPMASS=666.64
CHARGE=0+
MSLEVEL=2
SOURCE_INSTRUMENT=LC-ESI-qTof
FILENAME=20121219_Jenia_Ger_Psammaplin_A_MH666-qb.1.1..mgf
SEQ=*..*
IONMODE=Positive
ORGANISM=GNPS-LIBRARY
NAME=Psammaplin_A M+H
PI=Gerwick
DATACOLLECTOR=Jenia
SMILES=C1=CC(=C(C=C1C/C(=N\O)/C(=O)NCCSSCCNC(=O)/C(=N/O)/CC2=CC(=C(C=C2)O)Br)Br)O
INCHI=InChI=1S/C22H24Br2N4O6S2/c23-15-9-13(1-3-19(15)29)11-17(27-33)21(31)25-5-7-35-36-8-6-26-22(32)18(28-34)12-14-2-4-20(30)16(24)10-14/h1-4,9-10,29-30,33-34H,5-8,11-12H2,(H,25,31)(H,26,32)/b27-17+,28-18+
INCHIAUX=N/A
PUBMED=N/A
SUBMITUSER=mwang87
LIBRARYQUALITY=1
SPECTRUMID=CCMSLIB00000001695
SCANS=1
186.995239 607.0 
191.023956 1960.0 
192.04248 3555.0 
204.301056 1492.0 
212.300232 2258.0 
218.298859 502.0 
226.953094 971.0 
242.88652 1981.0 
244.256622 1396.0 
259.877258 2004.0 
271.90564 4331.0 
273.975342 2356.0 
285.616455 875.0 
330.844025 30784.0 
331.955841 37336.0 
332.804047 109043.0 
333.913971 36228.0 
334.856506 8965.0 
409.737732 2362.0 
434.546814 2711.0 
461.837524 7114.0 
462.932312 4650.0 
463.876526 2340.0 
END IONS

