BEGIN IONS
PEPMASS=276.16
CHARGE=1+
MSLEVEL=2
SOURCE_INSTRUMENT=LC-ESI-qTof
FILENAME=2A5_S-4-benzyl-3-isobutyryl-5_5-dimethyloxazolidin-2-one.mzXML
SEQ=*..*
IONMODE=Positive
ORGANISM=GNPS-LIBRARY
NAME="S-4-benzyl-3-isobutyryl-5,5-dimethyloxazolidin-2-one" M+H
PI=Dorrestein/Gerwick
DATACOLLECTOR=Garg/Luzzato
SMILES=O=C1OC(C)(C)[C@H](CC2=CC=CC=C2)N1C(C(C)C)=O
INCHI=N/A
INCHIAUX=N/A
PUBMED=N/A
SUBMITUSER=mwang87
LIBRARYQUALITY=2
SPECTRUMID=CCMSLIB00000068217
SCANS=1636
97.178925 148.0 
97.23188 224.0 
97.471359 228.0 
97.752441 140.0 
100.073334 204.0 
100.129066 216.0 
100.681267 224.0 
101.74807 180.0 
101.989029 156.0 
102.053329 156.0 
103.701935 192.0 
104.611557 252.0 
106.073563 140.0 
107.051125 208.0 
110.530922 216.0 
111.056534 284.0 
113.966522 204.0 
115.052261 160.0 
117.074097 524.0 
118.234352 204.0 
119.086143 404.0 
120.082474 224.0 
120.361664 240.0 
121.512466 224.0 
121.565109 180.0 
124.76873 252.0 
127.373306 240.0 
129.069641 140.0 
130.075119 200.0 
130.743057 164.0 
132.878662 140.0 
136.368774 228.0 
136.60585 224.0 
137.21109 184.0 
138.264114 140.0 
139.393967 256.0 
139.680664 196.0 
140.731308 212.0 
141.570389 224.0 
142.830124 232.0 
143.086182 248.0 
145.033127 168.0 
145.101562 8572.0 
145.266983 140.0 
146.06073 192.0 
146.105652 628.0 
146.715103 172.0 
148.266251 220.0 
149.392395 192.0 
156.62944 240.0 
158.452301 168.0 
160.44191 176.0 
162.127502 2904.0 
162.545364 208.0 
163.036957 180.0 
163.132553 436.0 
164.121765 180.0 
165.936325 204.0 
172.112595 176.0 
175.116653 156.0 
177.001434 200.0 
177.459625 168.0 
178.383118 256.0 
184.700928 144.0 
188.106262 220.0 
188.885468 176.0 
190.658646 140.0 
194.274231 180.0 
195.757812 184.0 
201.195084 204.0 
205.478729 224.0 
205.691986 152.0 
205.789688 148.0 
206.058044 212.0 
206.118759 14800.0 
206.188049 140.0 
206.253632 256.0 
206.31134 120.0 
207.119614 2312.0 
207.32225 228.0 
208.124527 180.0 
208.450714 148.0 
208.765625 168.0 
210.894455 208.0 
214.924484 164.0 
217.824554 164.0 
218.080078 164.0 
220.930313 156.0 
231.522354 260.0 
231.931198 212.0 
232.050247 208.0 
232.170273 5112.0 
233.173462 976.0 
234.174057 332.0 
235.926376 188.0 
238.318985 220.0 
243.981812 196.0 
245.422714 232.0 
246.408569 144.0 
249.566528 140.0 
251.913467 200.0 
252.134552 164.0 
254.066971 192.0 
267.115906 268.0 
274.182373 184.0 
275.162323 252.0 
276.159393 4844.0 
276.568909 200.0 
277.10849 240.0 
277.164886 644.0 
278.082977 176.0 
278.15863 256.0 
278.245514 184.0 
371.692169 188.0 
526.303589 196.0 
912.973755 272.0 
1259.943481 224.0 
1342.81189 268.0 
1436.730347 188.0 
1463.960205 204.0 
1484.040649 228.0 
1533.449219 184.0 
1559.250244 228.0 
1712.330933 280.0 
1720.069946 176.0 
1836.611938 152.0 
1862.87146 176.0 
1876.45459 156.0 
1876.52356 240.0 
1926.990112 180.0 
1951.134155 204.0 
1987.286255 228.0 
END IONS

