BEGIN IONS
PEPMASS=836.467
CHARGE=1+
MSLEVEL=2
SOURCE_INSTRUMENT=LC-ESI-qTof
FILENAME=JT_ApratoxinG_MNa_836.mzXML
SEQ=*..*
IONMODE=Positive
ORGANISM=GNPS-LIBRARY
NAME=Apratoxin G M+Na
PI=Dorrestein/Gerwick
DATACOLLECTOR=Luzzatto/Garg
SMILES=COC1=CC=C(C[C@@H]2NC(=O)\C(C)=C/C3CSC(=N3)[C@@H](C)[C@@H](O)C[C@H](C)C[C@H](OC(=O)[C@H](C)N(C)C(=O)[C@H](C(C)C)N(C)C(=O)[C@H](C)N(C)C2=O)C(C)(C)C)C=C1
INCHI=InChI=1S/C43H67N5O8S/c1-24(2)36-41(53)47(12)29(7)42(54)56-35(43(8,9)10)20-25(3)19-34(49)27(5)38-44-31(23-57-38)21-26(4)37(50)45-33(22-30-15-17-32(55-14)18-16-30)40(52)46(11)28(6)39(51)48(36)13/h15-18,21,24-25,27-29,31,33-36,49H,19-20,22-23H2,1-14H3,(H,45,50)/b26-21-/t25-,27-,28-,29-,31?,33-,34-,35-,36-/m0/s1
INCHIAUX=QYPABEUQMXOENV-NMOSBCMXSA-N
PUBMED=20512792
SUBMITUSER=tal_lk
LIBRARYQUALITY=2
SPECTRUMID=CCMSLIB00000070290
SCANS=2131
220.927536 164.0 
226.948883 224.0 
250.17601 140.0 
288.928345 176.0 
395.100128 168.0 
400.136261 164.0 
430.902924 140.0 
457.144775 176.0 
478.351044 212.0 
484.192902 324.0 
486.206146 156.0 
519.730103 172.0 
531.236023 140.0 
558.291504 156.0 
575.741516 156.0 
579.266968 104.0 
579.304749 200.0 
580.251709 240.0 
597.268555 132.0 
602.794739 188.0 
615.122009 224.0 
624.685547 188.0 
625.860046 156.0 
638.344299 160.0 
640.704773 216.0 
685.819031 164.0 
686.992249 192.0 
690.89978 140.0 
690.988708 148.0 
691.852173 140.0 
692.166321 192.0 
700.274475 172.0 
701.713013 156.0 
705.290161 192.0 
726.377991 208.0 
739.822693 168.0 
739.968872 140.0 
745.023254 176.0 
745.957886 160.0 
748.237244 160.0 
749.391785 160.0 
751.714539 160.0 
754.905579 120.0 
755.260132 172.0 
759.795715 220.0 
761.222717 164.0 
766.338013 172.0 
768.063477 144.0 
772.731323 148.0 
783.696533 172.0 
788.825195 152.0 
790.066589 228.0 
836.460754 1600.0 
836.555542 152.0 
836.944275 144.0 
837.468872 1072.0 
837.618042 156.0 
838.449768 428.0 
839.496887 172.0 
840.444702 236.0 
938.919128 140.0 
1057.490112 200.0 
1272.775635 140.0 
END IONS

