BEGIN IONS
PEPMASS=384.0
CHARGE=0+
MSLEVEL=2
SOURCE_INSTRUMENT=LC-ESI-qTof
FILENAME=20121219_Jenia_Ger_Tumonoic_acid_F_MH384-qb.1.1..mgf
SEQ=*..*
IONMODE=Positive
ORGANISM=GNPS-LIBRARY
NAME=Tumonoic_acid_F M+H
PI=Gerwick
DATACOLLECTOR=Jenia
SMILES=CCCCCCCCC(C)[C@@H]([C@H](C)C(=O)N1CCC[C@H]1C(=O)O)OC(=O)C
INCHI=InChI=1S/C21H37NO5/c1-5-6-7-8-9-10-12-15(2)19(27-17(4)23)16(3)20(24)22-14-11-13-18(22)21(25)26/h15-16,18-19H,5-14H2,1-4H3,(H,25,26)/t15?,16-,18-,19-/m0/s1
INCHIAUX=N/A
PUBMED=N/A
SUBMITUSER=mwang87
LIBRARYQUALITY=1
SPECTRUMID=CCMSLIB00000001698
SCANS=1
207.843384 31446.0 
209.080566 92498.0 
226.353546 28389.0 
268.009186 26993.0 
268.711212 272557.0 
306.050507 26982.0 
323.42804 19021.0 
324.091949 11806156.0 
324.735474 1213.0 
342.008575 83935.0 
END IONS

