BEGIN IONS
PEPMASS=424.236
CHARGE=1+
MSLEVEL=2
SOURCE_INSTRUMENT=LC-ESI-qTof
FILENAME=f.RReher/Golden lab/ColumbamideA-C_reference/Columbamide C/ColC_M+H_PNG.mgf;
SEQ=*..*
IONMODE=Positive
ORGANISM=GNPS-LIBRARY
NAME=Columbamide C M+H
PI=Gerwick
DATACOLLECTOR=Kleigrewe
SMILES=ClCCCCCCC(Cl)CCCC/C=C/CCC(N(C)[C@@H](COC)CO)=O
INCHI=
INCHIAUX=
PUBMED=
SUBMITUSER=RReher
LIBRARYQUALITY=3
SPECTRUMID=CCMSLIB00005464639
SCANS=1
101.082771 152.720001 
102.089409 3377.013672 
102.110847 268.612488 
102.120193 219.595581 
102.184608 109.003571 
103.027939 233.600006 
105.074539 120.545456 
107.081841 267.518616 
109.100288 318.924622 
112.076591 203.17778 
113.082664 332.125 
119.082481 204.784088 
120.101074 7144.310059 
120.135147 553.35675 
120.156891 169.230774 
120.170601 174.002457 
120.204231 208.170212 
121.09877 125.016304 
128.997818 106.115738 
129.038589 132.222229 
129.076263 1986.285278 
129.114487 189.71196 
130.084732 1638.264282 
130.105453 203.307693 
130.119797 124.306816 
130.143387 105.133064 
134.093918 156.969833 
139.025803 140.080353 
142.084457 1511.044556 
142.106766 160.654419 
142.122528 112.470589 
143.092575 376.719849 
144.098373 388.188263 
156.099579 791.562683 
168.0979 416.703613 
182.114059 310.367645 
196.129272 118.462837 
210.148315 170.274994 
266.206696 109.111366 
278.205078 149.02272 
320.256531 14601.457031 
320.311005 1281.108276 
320.388123 231.920456 
320.425323 330.285706 
320.464813 198.83696 
320.516724 112.657608 
321.254242 296.272186 
334.227753 135.368423 
334.271576 4099.676758 
334.330963 373.290192 
334.366577 148.004303 
356.233398 31930.912109 
356.41037 800.782288 
356.455566 339.881653 
356.510376 218.5 
356.548737 236.884811 
356.576538 149.083328 
356.601227 198.567566 
356.651123 150.510422 
356.692108 185.027771 
356.730804 127.0 
356.761566 190.814819 
356.813324 176.903687 
356.847565 147.088776 
356.872253 181.842102 
356.90686 156.004303 
356.972595 159.164474 
357.089325 133.760132 
357.116302 130.555771 
357.228058 669.388672 
357.300171 105.515625 
357.404358 119.020836 
357.502472 112.11364 
358.225739 122.506943 
370.247894 11857.916016 
370.430328 384.245361 
370.483612 146.246948 
371.257294 239.201218 
371.298523 119.510414 
372.254272 132.264481 
388.259491 131.0 
388.279846 109.555557 
392.213348 458.504761 
406.22525 258.532898 
END IONS

