BEGIN IONS
PEPMASS=570.0
CHARGE=0+
MSLEVEL=2
SOURCE_INSTRUMENT=LC-ESI-qTof
FILENAME=20130131_Emily_Ger_Neodysidenin_MNa2Cl570-qb.1.1..mgf
SEQ=*..*
IONMODE=Positive
ORGANISM=GNPS-LIBRARY
NAME=Neodysidenin M+H
PI=Gerwick
DATACOLLECTOR=Emily
SMILES=C[C@@H](C[C@@H](C(=O)N(C)[C@H](C)C1=NC=CS1)NC(=O)C[C@H](C)C(Cl)(Cl)Cl)C(Cl)(Cl)Cl
INCHI=InChI=1S/C17H23Cl6N3O2S/c1-9(16(18,19)20)7-12(25-13(27)8-10(2)17(21,22)23)15(28)26(4)11(3)14-24-5-6-29-14/h5-6,9-12H,7-8H2,1-4H3,(H,25,27)/t9-,10-,11+,12-/m0/s1
INCHIAUX=N/A
PUBMED=N/A
SUBMITUSER=mwang87
LIBRARYQUALITY=1
SPECTRUMID=CCMSLIB00000001719
SCANS=1
222.086456 1080948.0 
252.752472 2320332.0 
253.410492 19.0 
254.639252 8206127.0 
255.32663 20.0 
285.857239 2004310.0 
286.548096 9.0 
307.880737 1768293.0 
308.488037 168.0 
327.237854 859403.0 
340.180176 5176566.0 
357.029175 2074222.0 
367.498901 1921360.0 
397.101318 11946946.0 
400.016968 706608.0 
401.680115 9435484.0 
402.479126 16.0 
403.815308 764215.0 
404.417236 81.0 
409.641724 14952570.0 
411.900574 6057166.0 
412.619019 14.0 
424.919495 2263809.0 
435.7453 4856679.0 
437.599121 13965904.0 
438.885925 2679339.0 
459.284668 9201016.0 
460.22998 91.0 
460.888428 5989142.0 
461.54718 24.0 
474.055847 1803318.0 
493.853027 1240665.0 
495.872925 69316992.0 
496.994812 21798072.0 
497.869324 21712976.0 
498.98407 4911428.0 
499.639954 35.0 
500.527344 3770574.0 
501.215576 17.0 
530.87146 52656216.0 
531.821777 363956352.0 
532.870361 188412032.0 
533.841309 717236096.0 
534.911011 57173216.0 
END IONS

