BEGIN IONS
PEPMASS=695.473
CHARGE=2+
MSLEVEL=2
SOURCE_INSTRUMENT=LC-ESI-qTof
FILENAME=t.659579ac8d094017a66565aa6f5eaa16/spectra/specs_ms.mgf;
SEQ=*..*
IONMODE=Positive
ORGANISM=GNPS-LIBRARY
NAME=Swinholide F putative M+2H
PI=Gerwick
DATACOLLECTOR=lfnothias
SMILES=COC1CC(C)OC(CCC(C)C(O)C(C)C2OC(=O)\C=C\C(\C)=C/CC(O)CC3OC(CC=C3)CC(OC)C(C)C(O)CC(O)C(C)C(OC(=O)\C=C\C(\C)=C\CC(O)CC3OC(CC=C3)CC(OC)C(C)C(O)CC(O)C2C)C(C)C(O)C(C)CCC2CC(CC(C)O2)OC)C1
INCHI=
INCHIAUX=
PUBMED=
SUBMITUSER=lfnothias
LIBRARYQUALITY=3
SPECTRUMID=CCMSLIB00005467778
SCANS=44
46.385201 70.0 
50.911999 61.0 
56.994801 59.0 
57.722401 58.0 
60.963501 172.0 
62.194302 63.0 
64.562897 61.0 
65.001404 133.0 
66.6586 61.0 
66.926498 73.0 
67.016701 1783.0 
67.071999 59.0 
68.0214 69.0 
68.881699 61.0 
68.997002 487.0 
69.032898 2970.0 
70.036697 291.0 
71.012703 959.0 
71.049301 159.0 
71.8153 70.0 
72.016098 179.0 
72.071899 76.0 
73.436897 61.0 
73.686699 65.0 
77.003197 522.0 
79.019096 6299.0 
80.0224 481.0 
80.998001 2904.0 
81.0355 13476.0 
82.003098 152.0 
82.039398 1000.0 
82.175598 58.0 
82.505501 73.0 
83.014801 2573.0 
83.051003 2015.0 
84.016998 205.0 
84.053596 414.0 
84.178596 60.0 
84.995499 192.0 
85.030899 8928.0 
85.070999 69.0 
86.0345 672.0 
87.0103 2333.0 
87.047401 366.0 
89.025497 323.0 
89.216499 74.0 
89.798698 64.0 
89.8209 69.0 
90.031303 79.0 
91.021599 5002.0 
92.025398 374.0 
92.655098 65.0 
93.037003 16333.0 
94.041298 1240.0 
94.359703 74.0 
95.016701 27325.0 
95.053299 28966.0 
95.519997 69.0 
96.019997 1907.0 
96.057404 2252.0 
96.997101 229.0 
97.032501 32764.0 
97.069199 4128.0 
98.036697 2575.0 
98.072098 302.0 
98.272301 61.0 
98.401901 77.0 
98.503304 57.0 
98.847801 70.0 
99.012802 1646.0 
99.048798 25169.0 
99.082703 90.0 
100.052902 1734.0 
101.027496 2261.0 
101.066597 104.0 
102.032501 70.0 
102.211998 64.0 
102.799698 62.0 
102.861801 67.0 
103.018303 308.0 
103.044701 2763.0 
104.022102 80.0 
104.048203 158.0 
105.009903 505.0 
105.038696 21334.0 
106.041901 1825.0 
107.018997 2976.0 
107.055 44764.0 
107.981903 72.0 
108.023201 407.0 
108.058502 4309.0 
109.034897 11947.0 
109.070999 27553.0 
109.1446 89.0 
110.038803 915.0 
110.074303 2632.0 
110.544403 58.0 
111.0131 580.0 
111.050102 15317.0 
111.086197 1995.0 
111.691101 68.0 
111.7491 65.0 
112.020699 89.0 
112.053596 1580.0 
112.090698 296.0 
113.029701 8250.0 
113.066002 6635.0 
113.615601 62.0 
114.033798 532.0 
114.07 866.0 
115.021698 679.0 
115.044998 4774.0 
115.696899 64.0 
116.038498 205.0 
117.040497 6265.0 
118.0438 594.0 
118.341797 57.0 
119.021004 2428.0 
119.056602 23319.0 
119.342903 64.0 
120.027 282.0 
120.059799 2474.0 
120.998497 121.0 
121.036598 7444.0 
121.072403 37724.0 
122.0401 732.0 
122.076103 4084.0 
123.016899 283.0 
123.052002 70195.0 
123.088203 15414.0 
123.340897 70.0 
123.4701 57.0 
124.020203 70.0 
124.055603 6758.0 
124.092003 2012.0 
124.988098 71.0 
125.0317 3515.0 
125.068199 34398.0 
125.1045 361.0 
125.469498 63.0 
126.036903 186.0 
126.071404 3381.0 
127.047096 9400.0 
127.0839 3302.0 
127.9618 57.0 
128.041504 1492.0 
128.087601 232.0 
129.039795 4525.0 
129.063507 30621.0 
130.044998 1109.0 
130.066696 2883.0 
130.426193 63.0 
131.021698 271.0 
131.058594 19005.0 
132.031693 86.0 
132.062607 1886.0 
132.443604 66.0 
133.037704 5754.0 
133.074005 34706.0 
134.042099 690.0 
134.077606 3540.0 
135.017197 1210.0 
135.054092 9427.0 
135.090195 45999.0 
135.194397 62.0 
135.3181 63.0 
135.9198 123.0 
136.057907 1141.0 
136.093506 4652.0 
136.457794 64.0 
137.033096 9804.0 
137.069397 21461.0 
137.105804 12552.0 
138.036804 788.0 
138.073196 2524.0 
138.110199 1568.0 
139.048904 15570.0 
139.085205 28070.0 
139.119507 936.0 
140.0522 1191.0 
140.088806 3226.0 
141.042297 1505.0 
141.065094 11745.0 
141.101303 1668.0 
141.179504 78.0 
141.207306 85.0 
141.561707 69.0 
142.056793 1089.0 
142.067993 633.0 
142.106293 243.0 
143.025299 95.0 
143.062195 23252.0 
143.083206 168.0 
144.033707 100.0 
144.063995 3276.0 
144.7603 62.0 
145.040405 3164.0 
145.075607 47671.0 
145.121597 78.0 
146.044205 279.0 
146.079407 6173.0 
147.019608 171.0 
147.055099 7601.0 
147.0914 48532.0 
147.991196 57.0 
148.059692 1063.0 
148.095093 5126.0 
148.925797 65.0 
149.0336 1239.0 
149.071503 14604.0 
149.107697 59897.0 
149.362503 69.0 
150.044907 141.0 
150.0746 1687.0 
150.110794 6182.0 
151.050598 5162.0 
151.086594 27343.0 
151.123199 7643.0 
152.053497 510.0 
152.089798 2820.0 
152.127594 546.0 
153.039398 830.0 
153.066299 6701.0 
153.102905 15152.0 
154.057907 1002.0 
154.070999 137.0 
154.105804 1832.0 
155.060104 1592.0 
155.082199 86187.0 
155.121704 356.0 
155.151199 77.0 
155.751007 60.0 
156.058304 918.0 
156.086899 9449.0 
157.0401 877.0 
157.076706 15650.0 
157.235992 60.0 
158.048798 349.0 
158.0811 2518.0 
159.057007 9436.0 
159.092697 56653.0 
159.439804 71.0 
160.060104 1114.0 
160.095795 7579.0 
160.987198 78.0 
161.036606 6319.0 
161.071793 15554.0 
161.108795 42704.0 
161.150208 63.0 
161.378296 67.0 
161.906006 61.0 
161.935593 63.0 
161.997894 67.0 
162.0401 751.0 
162.076599 1988.0 
162.111603 5028.0 
162.525299 68.0 
163.052704 3959.0 
163.088196 35686.0 
163.124603 21396.0 
163.663696 74.0 
163.688904 68.0 
164.054398 619.0 
164.091599 5252.0 
164.127808 2962.0 
165.032394 70.0 
165.069595 6919.0 
165.103897 32848.0 
165.138397 1330.0 
165.204407 89.0 
165.436203 57.0 
165.523407 81.0 
166.066406 680.0 
166.1073 5439.0 
167.059006 1710.0 
167.083405 8098.0 
167.119904 32042.0 
167.386703 71.0 
167.462997 70.0 
168.066605 521.0 
168.086807 772.0 
168.124405 4087.0 
169.003601 69.0 
169.0439 372.0 
169.080994 21418.0 
169.131607 381.0 
170.045502 138.0 
170.080795 3016.0 
170.100998 623.0 
170.206299 61.0 
171.058701 10347.0 
171.092896 27168.0 
171.119995 88.0 
172.062607 1405.0 
172.097504 4446.0 
173.037399 774.0 
173.073593 10424.0 
173.109695 33145.0 
174.030197 78.0 
174.077606 1116.0 
174.113098 4599.0 
175.028 82.0 
175.053802 4000.0 
175.089706 10026.0 
175.126404 32448.0 
175.563293 84.0 
176.057495 331.0 
176.093506 1657.0 
176.130096 4975.0 
176.702805 63.0 
177.032898 167.0 
177.068497 6838.0 
177.105606 23438.0 
177.142197 17433.0 
177.188293 107.0 
177.313705 81.0 
178.072693 891.0 
178.111206 3584.0 
178.144897 2511.0 
178.382904 74.0 
179.0504 4912.0 
179.083893 11327.0 
179.120895 20271.0 
179.154602 232.0 
179.395203 59.0 
179.537994 59.0 
179.607803 62.0 
180.060593 726.0 
180.087997 1207.0 
180.124695 3115.0 
180.1595 79.0 
180.919296 60.0 
181.070908 74.0 
181.100006 24544.0 
181.135498 4351.0 
181.253296 61.0 
181.405304 89.0 
181.617706 183.0 
181.654495 67.0 
182.046494 372.0 
182.099304 3897.0 
182.139404 150.0 
182.314301 72.0 
183.059006 1768.0 
183.116501 117592.0 
183.178101 73.0 
183.365906 62.0 
183.440399 127.0 
183.5047 76.0 
183.558105 64.0 
184.057602 430.0 
184.113602 3420.0 
184.120605 11221.0 
184.156799 63.0 
184.270294 67.0 
185.036194 153.0 
185.074997 9795.0 
185.111893 21056.0 
185.259003 134.0 
185.3116 60.0 
186.077805 1211.0 
186.116104 3395.0 
186.330505 99.0 
187.055206 3064.0 
187.0905 31428.0 
187.126602 30544.0 
187.733795 64.0 
188.059006 382.0 
188.094101 4505.0 
188.130402 4652.0 
189.070206 17720.0 
189.1064 16098.0 
189.142197 18935.0 
189.606293 133.0 
189.911407 102.0 
190.074295 2398.0 
190.110504 2315.0 
190.146393 3282.0 
190.803802 63.0 
190.958206 61.0 
191.048401 423.0 
191.086304 9477.0 
191.122406 64125.0 
191.158493 6678.0 
191.306503 69.0 
192.057007 102.0 
192.089905 1303.0 
192.126297 9533.0 
192.160904 1176.0 
192.7229 65.0 
193.070908 2339.0 
193.101105 6697.0 
193.137299 18338.0 
194.057205 74.0 
194.083405 253.0 
194.104706 1142.0 
194.141296 2214.0 
194.981705 74.0 
195.060593 157.0 
195.100998 3435.0 
195.116699 30755.0 
195.154404 1684.0 
196.058594 151.0 
196.102203 1447.0 
196.1203 4454.0 
196.156799 257.0 
196.192398 64.0 
197.076202 6385.0 
197.112701 14645.0 
197.132294 4409.0 
197.289703 63.0 
197.975601 58.0 
198.078705 1326.0 
198.116592 2838.0 
198.136002 318.0 
198.163895 62.0 
199.056396 472.0 
199.091202 5469.0 
199.131195 14799.0 
199.146606 4457.0 
199.456207 57.0 
199.822006 67.0 
200.096497 909.0 
200.132599 2264.0 
200.151398 350.0 
201.071503 2476.0 
201.107697 7476.0 
201.141693 23091.0 
201.658798 57.0 
202.074203 286.0 
202.109894 1187.0 
202.146194 3801.0 
203.053696 730.0 
203.087097 7129.0 
203.122894 16092.0 
203.160202 11042.0 
204.090805 1113.0 
204.126099 3143.0 
204.1633 1887.0 
204.955795 65.0 
205.066498 4114.0 
205.103104 17890.0 
205.139297 24761.0 
205.175507 1424.0 
206.070099 518.0 
206.106201 2752.0 
206.143097 3244.0 
206.183105 144.0 
206.643204 73.0 
207.087708 3584.0 
207.118195 19939.0 
207.154694 8125.0 
207.186203 221.0 
207.435104 73.0 
207.597397 63.0 
208.095703 415.0 
208.122101 2574.0 
208.158905 1260.0 
208.961395 64.0 
209.026901 75.0 
209.078201 369.0 
209.110397 2852.0 
209.134094 22563.0 
209.171295 2160.0 
210.080597 93.0 
210.120407 715.0 
210.137497 4350.0 
210.178497 69.0 
211.051605 142.0 
211.091904 3669.0 
211.128006 9875.0 
211.149597 149.0 
212.103607 524.0 
212.138199 1757.0 
212.154602 387.0 
212.481705 70.0 
213.072403 2169.0 
213.108994 16416.0 
213.143494 13973.0 
213.633804 79.0 
213.693893 66.0 
214.076202 568.0 
214.112198 3442.0 
214.150208 2625.0 
214.701599 62.0 
215.021194 58.0 
215.054092 65.0 
215.087799 28425.0 
215.122101 2020.0 
215.153793 17177.0 
215.575607 64.0 
216.091095 4437.0 
216.128098 1604.0 
216.159607 2815.0 
216.733398 60.0 
217.067795 542.0 
217.1035 4777.0 
217.140305 8515.0 
217.176804 17100.0 
218.106293 846.0 
218.144699 1074.0 
218.180099 3308.0 
219.084793 585.0 
219.119003 5072.0 
219.156204 25361.0 
219.191498 218.0 
219.396805 83.0 
219.508301 58.0 
219.569794 72.0 
220.089096 412.0 
220.119904 639.0 
220.1604 4880.0 
220.194794 80.0 
221.074005 269.0 
221.098404 123.0 
221.134399 16136.0 
221.171097 3874.0 
222.078201 77.0 
222.127594 1476.0 
222.140106 1155.0 
222.173904 837.0 
222.644501 65.0 
222.7733 66.0 
222.830902 74.0 
223.094604 4667.0 
223.151093 148782.0 
223.215805 58.0 
223.456894 129.0 
223.945694 65.0 
224.094696 825.0 
224.1315 69.0 
224.155197 23168.0 
224.749207 77.0 
225.076004 613.0 
225.110596 4603.0 
225.149902 14271.0 
225.166595 576.0 
225.579697 71.0 
225.937103 61.0 
226.115997 879.0 
226.151993 3011.0 
226.169098 483.0 
226.936005 132.0 
227.091507 1794.0 
227.126007 3559.0 
227.161407 27970.0 
228.092896 286.0 
228.130005 639.0 
228.165497 5461.0 
228.910995 67.0 
228.961899 62.0 
229.0681 78.0 
229.106598 4461.0 
229.142303 6437.0 
229.176498 11409.0 
230.108597 884.0 
230.143997 1289.0 
230.180298 2188.0 
231.086395 3628.0 
231.121002 9586.0 
231.157593 10940.0 
231.192093 1899.0 
231.643799 93.0 
232.087296 495.0 
232.123795 1628.0 
232.159103 2208.0 
232.194901 224.0 
232.644104 68.0 
233.065399 107.0 
233.100403 32508.0 
233.1362 4987.0 
233.171707 10561.0 
234.105804 5123.0 
234.141602 535.0 
234.175507 1733.0 
235.138596 10853.0 
235.151794 1607.0 
235.187897 16346.0 
235.777695 62.0 
236.080902 67.0 
236.138306 2291.0 
236.192093 2803.0 
237.104904 378.0 
237.137497 252.0 
237.167404 17584.0 
237.208206 93.0 
238.113495 409.0 
238.1698 3066.0 
238.661301 83.0 
239.089996 653.0 
239.123505 234.0 
239.153305 10026.0 
239.180603 104.0 
240.109894 87.0 
240.157394 1930.0 
240.184006 122.0 
241.1064 14956.0 
241.145798 4341.0 
241.177994 9748.0 
241.974396 77.0 
242.109802 2174.0 
242.143997 1026.0 
242.182404 1875.0 
242.388794 64.0 
243.079605 264.0 
243.121704 6812.0 
243.157898 11381.0 
243.193405 9974.0 
243.282196 65.0 
244.087097 76.0 
244.123199 1273.0 
244.160904 2250.0 
244.197495 2024.0 
244.288498 61.0 
244.497696 63.0 
245.104004 370.0 
245.137497 8978.0 
245.173599 43468.0 
246.105499 201.0 
246.141403 1746.0 
246.178101 8064.0 
246.648804 149.0 
247.088303 108.0 
247.121597 3197.0 
247.151794 5917.0 
247.190308 12234.0 
247.667694 59.0 
248.1082 150.0 
248.124405 77.0 
248.156693 1150.0 
248.194199 2348.0 
248.383896 79.0 
249.098602 1797.0 
249.144501 303.0 
249.169601 12603.0 
249.204605 1098.0 
250.100693 492.0 
250.167007 2436.0 
250.207901 411.0 
251.112793 20872.0 
251.174103 763.0 
251.184204 16371.0 
252.081299 74.0 
252.116501 3223.0 
252.183395 3208.0 
253.114395 823.0 
253.143707 11788.0 
253.178696 8748.0 
254.114899 161.0 
254.146698 2217.0 
254.181396 1902.0 
255.122406 2123.0 
255.158005 4675.0 
255.186707 7393.0 
256.109894 207.0 
256.126007 363.0 
256.160187 978.0 
256.196411 1485.0 
257.103394 712.0 
257.137787 2786.0 
257.175293 7658.0 
257.210205 2317.0 
258.108704 197.0 
258.144501 457.0 
258.178802 1832.0 
258.214508 517.0 
259.118896 15927.0 
259.153503 2182.0 
259.19101 11869.0 
260.121094 2848.0 
260.158295 619.0 
260.193512 2506.0 
260.786194 78.0 
261.006805 60.0 
261.109894 159.0 
261.16391 6318.0 
261.169403 7525.0 
261.206085 10007.0 
261.631409 72.0 
262.145294 771.0 
262.172394 2575.0 
262.208893 1753.0 
262.656097 82.0 
263.148804 4467.0 
263.185608 145135.0 
263.239899 73.0 
263.266907 106.0 
263.669189 65.0 
263.829315 67.0 
263.991486 67.0 
264.125214 234.0 
264.149109 763.0 
264.189514 28472.0 
264.260986 85.0 
265.092407 85.0 
265.138397 3913.0 
265.200897 30186.0 
265.459106 69.0 
266.138214 470.0 
266.152802 218.0 
266.204315 5520.0 
266.763489 62.0 
266.871094 80.0 
267.120789 1099.0 
267.158905 1787.0 
267.217285 100865.0 
267.281708 71.0 
267.673798 173.0 
268.084106 61.0 
268.125885 162.0 
268.167786 678.0 
268.186707 360.0 
268.220215 19857.0 
268.303986 72.0 
269.077911 61.0 
269.100189 72.0 
269.138306 3590.0 
269.17569 8464.0 
269.214386 4249.0 
270.144012 810.0 
270.179413 2285.0 
270.221191 641.0 
270.975006 70.0 
271.117889 151.0 
271.155304 12998.0 
271.190613 18542.0 
271.666107 64.0 
272.122498 73.0 
272.160187 2170.0 
272.196289 3772.0 
273.135315 7994.0 
273.173309 3983.0 
273.204712 7417.0 
274.138702 1829.0 
274.173706 436.0 
274.209412 1396.0 
274.6716 66.0 
275.020508 59.0 
275.11969 617.0 
275.164795 806.0 
275.185211 10874.0 
275.221313 6064.0 
276.12561 255.0 
276.162506 297.0 
276.187988 1962.0 
276.224213 941.0 
276.67569 104.0 
277.129395 10885.0 
277.168701 1455.0 
277.202087 16465.0 
277.251312 116.0 
277.80191 62.0 
278.13269 1598.0 
278.205597 3725.0 
279.124298 479.0 
279.162415 6699.0 
279.183685 1054.0 
279.216705 12144.0 
279.41571 70.0 
280.127289 156.0 
280.166992 1558.0 
280.206207 810.0 
280.220398 1956.0 
280.679596 272.0 
281.140289 10233.0 
281.198303 8843.0 
281.525604 60.0 
282.143311 2512.0 
282.198486 2025.0 
283.156799 4192.0 
283.199402 322.0 
283.219208 4462.0 
284.121399 74.0 
284.160889 774.0 
284.227112 1252.0 
285.135803 678.0 
285.171997 2957.0 
285.218811 3262.0 
285.228912 3143.0 
286.139099 83.0 
286.175415 596.0 
286.225189 1297.0 
286.232605 252.0 
287.153015 4590.0 
287.187286 13669.0 
287.222687 2711.0 
288.155914 773.0 
288.192291 2504.0 
288.22879 245.0 
289.104095 72.0 
289.131195 74.0 
289.16861 3684.0 
289.203003 41031.0 
289.684814 149.0 
290.142303 282.0 
290.173096 389.0 
290.206207 8689.0 
291.146515 28284.0 
291.190491 740.0 
291.217712 11828.0 
292.153809 5826.0 
292.206085 282.0 
292.223511 2459.0 
292.278503 58.0 
293.020508 74.0 
293.145294 1164.0 
293.179108 83.0 
293.233307 13574.0 
294.178986 125.0 
294.237396 3217.0 
295.155914 3621.0 
295.213898 18545.0 
295.680206 73.0 
296.160004 863.0 
296.221008 4171.0 
297.102203 66.0 
297.135101 1082.0 
297.1716 9485.0 
297.20929 3418.0 
297.229614 502.0 
297.648285 66.0 
298.175995 2307.0 
298.2164 124.0 
298.368805 63.0 
298.414307 58.0 
299.151215 15296.0 
299.184906 583.0 
299.223694 2040.0 
300.156006 3779.0 
300.194794 376.0 
300.22821 620.0 
301.167603 2916.0 
301.202515 1552.0 
301.239899 11730.0 
302.177704 650.0 
302.204193 338.0 
302.246613 2806.0 
303.143188 486.0 
303.190002 1434.0 
303.217499 4248.0 
303.254303 352.0 
303.686707 81.0 
304.14859 146.0 
304.190796 517.0 
304.22171 1122.0 
304.25061 66.0 
305.162903 3734.0 
305.19989 11872.0 
305.500702 75.0 
306.167786 739.0 
306.201508 2727.0 
306.240997 216.0 
307.155914 5064.0 
307.214386 47233.0 
307.446014 67.0 
308.162689 1783.0 
308.219208 9726.0 
308.446411 76.0 
308.747498 73.0 
309.162903 8099.0 
309.226807 5707.0 
309.234406 103.0 
309.553406 71.0 
310.108887 59.0 
310.170197 1852.0 
310.225891 560.0 
310.241608 977.0 
310.447906 80.0 
311.153198 945.0 
311.190002 1947.0 
311.234985 10218.0 
312.156189 198.0 
312.19101 597.0 
312.239014 1950.0 
313.169006 4972.0 
313.228088 13513.0 
314.173706 1090.0 
314.231293 2872.0 
315.148987 874.0 
315.183502 6305.0 
315.220001 2893.0 
315.255707 161.0 
315.542114 65.0 
316.148895 474.0 
316.190094 1618.0 
316.224792 706.0 
316.260986 77.0 
317.164307 19734.0 
317.2341 3548.0 
317.349396 92.0 
317.530304 57.0 
318.024689 59.0 
318.167114 4379.0 
318.23999 1072.0 
319.130707 138.0 
319.187012 2410.0 
319.251495 22790.0 
319.349792 74.0 
320.144104 66.0 
320.195312 1067.0 
320.256409 6034.0 
320.452911 62.0 
321.171112 152.0 
321.232697 14289.0 
321.416992 62.0 
322.170288 230.0 
322.182892 66.0 
322.234497 2912.0 
322.329407 62.0 
323.128998 76.0 
323.156494 509.0 
323.215393 2685.0 
323.249298 578.0 
324.210297 731.0 
324.235901 317.0 
324.251709 134.0 
324.468903 93.0 
325.17041 11382.0 
325.201904 947.0 
325.227692 1513.0 
325.246002 1034.0 
326.172485 2279.0 
326.207703 511.0 
326.248199 506.0 
326.266907 192.0 
327.105286 72.0 
327.184113 3034.0 
327.219086 1790.0 
327.257202 6820.0 
328.187103 1116.0 
328.226807 538.0 
328.260712 2137.0 
329.16449 983.0 
329.199402 1738.0 
329.236298 19783.0 
329.2547 111.0 
329.361908 64.0 
330.167694 298.0 
330.241608 4699.0 
331.180908 6293.0 
331.25 7589.0 
331.663788 97.0 
332.186188 1282.0 
332.252686 2202.0 
332.693695 142.0 
332.713715 77.0 
333.074188 68.0 
333.197205 2032.0 
333.225311 461.0 
333.266815 3993.0 
333.595306 59.0 
334.200989 775.0 
334.236389 136.0 
334.269287 790.0 
335.177612 4059.0 
335.233612 1333.0 
335.256104 343.0 
336.183685 778.0 
336.195404 185.0 
336.237396 234.0 
337.156708 148.0 
337.205688 4962.0 
337.242188 10786.0 
338.169495 79.0 
338.207489 1031.0 
338.244202 2670.0 
339.183411 1140.0 
339.242004 8781.0 
340.190308 416.0 
340.240509 1446.0 
340.251312 518.0 
340.321991 64.0 
341.164307 350.0 
341.198303 1241.0 
341.2388 1077.0 
341.258301 311.0 
342.201294 176.0 
342.232788 539.0 
342.269012 120.0 
343.180695 16515.0 
343.250397 2413.0 
344.185211 4489.0 
344.250397 654.0 
345.192902 3181.0 
345.235107 555.0 
345.268799 18397.0 
345.359497 59.0 
345.727203 76.0 
346.073395 66.0 
346.204102 903.0 
346.273193 4251.0 
346.693115 65.0 
347.192505 1593.0 
347.213501 94.0 
347.248688 12165.0 
348.191406 200.0 
348.252991 2876.0 
348.857513 57.0 
349.104889 67.0 
349.197693 3453.0 
349.207703 168.0 
349.258514 4891.0 
349.606293 67.0 
350.202789 673.0 
350.253693 1322.0 
350.293488 206.0 
351.187103 801.0 
351.21991 1629.0 
351.279694 14039.0 
351.7258 148.0 
352.191315 176.0 
352.223907 433.0 
352.284393 3706.0 
353.202698 3480.0 
353.236206 1067.0 
353.2789 1213.0 
354.208099 887.0 
354.247101 540.0 
354.27829 220.0 
354.42981 70.0 
355.216614 4071.0 
355.254089 27489.0 
355.726105 57.0 
356.191101 71.0 
356.218689 464.0 
356.258698 8051.0 
356.339386 61.0 
357.19931 2030.0 
357.234711 5442.0 
357.259796 2066.0 
357.898987 59.0 
358.200287 682.0 
358.243195 1232.0 
358.268494 70.0 
358.734894 71.0 
359.177704 223.0 
359.230988 1464.0 
359.285004 1821.0 
360.186401 74.0 
360.230286 582.0 
360.287598 695.0 
361.192596 9798.0 
361.265503 6247.0 
362.196411 2700.0 
362.270599 2086.0 
363.216095 1191.0 
363.278992 8030.0 
364.2435 357.0 
364.281494 2216.0 
365.199585 1566.0 
365.210297 767.0 
365.237915 1976.0 
365.273407 2524.0 
366.210785 671.0 
366.248688 687.0 
366.280609 637.0 
367.217194 4817.0 
367.25351 2661.0 
368.228302 1007.0 
368.255798 609.0 
368.307892 112.0 
369.200714 1492.0 
369.233093 1653.0 
369.283997 3314.0 
369.723297 66.0 
370.207214 199.0 
370.239197 453.0 
370.288513 967.0 
370.303101 101.0 
371.213593 3971.0 
371.25119 2302.0 
371.280304 349.0 
371.713287 143.0 
371.795685 58.0 
372.219788 1237.0 
372.258087 202.0 
372.283203 370.0 
372.991302 91.0 
373.228699 292.0 
373.264099 52033.0 
374.200592 67.0 
374.222687 101.0 
374.268585 14969.0 
375.210693 3895.0 
375.245087 5264.0 
375.273285 3103.0 
375.8508 75.0 
376.223511 982.0 
376.25 847.0 
377.160004 68.0 
377.240814 5510.0 
377.296509 6640.0 
378.240906 1556.0 
378.299988 2089.0 
379.213715 751.0 
379.285309 3942.0 
380.214905 215.0 
380.243896 87.0 
380.265015 214.0 
380.291107 1287.0 
381.167511 72.0 
381.197113 83.0 
381.234589 1073.0 
381.268585 2544.0 
381.297302 89.0 
382.239685 291.0 
382.272095 775.0 
382.305389 124.0 
383.045807 71.0 
383.172211 82.0 
383.21521 4156.0 
383.249115 2371.0 
383.285889 1504.0 
384.216095 1442.0 
384.2565 429.0 
384.287903 215.0 
384.746399 168.0 
385.229401 4631.0 
385.30191 231.0 
386.233185 1256.0 
386.269012 143.0 
387.211487 439.0 
387.23761 294.0 
387.281891 10284.0 
387.754211 68.0 
388.213501 163.0 
388.242798 179.0 
388.284607 3754.0 
389.17569 171.0 
389.226807 756.0 
389.270996 3173.0 
389.292206 97.0 
389.700409 85.0 
389.914612 61.0 
390.230591 305.0 
390.26059 1103.0 
390.291595 347.0 
391.022186 69.0 
391.222992 65.0 
391.276398 10463.0 
392.278809 2698.0 
392.751007 128.0 
393.187592 76.0 
393.228607 5069.0 
393.250793 91.0 
393.2883 1646.0 
394.230804 1842.0 
394.263092 170.0 
394.301788 94.0 
394.90271 73.0 
395.184509 110.0 
395.250214 12671.0 
395.308289 3229.0 
395.736908 116.0 
396.207886 68.0 
396.253296 3643.0 
396.31189 887.0 
396.735901 79.0 
397.231689 146.0 
397.260406 736.0 
397.302185 6731.0 
398.251007 326.0 
398.26889 121.0 
398.305206 1758.0 
399.216888 74.0 
399.2453 850.0 
399.281006 3709.0 
400.219788 88.0 
400.247406 185.0 
400.284912 1185.0 
400.313995 133.0 
401.224213 6184.0 
401.268494 710.0 
402.228088 1563.0 
403.241211 1581.0 
403.287811 484.0 
403.305603 185.0 
404.200989 63.0 
404.244812 643.0 
404.293213 233.0 
405.147614 138.0 
405.234009 305.0 
405.293701 25968.0 
405.743195 66.0 
405.768494 74.0 
406.238098 452.0 
406.296295 8737.0 
406.318787 83.0 
407.289703 5557.0 
408.249908 155.0 
408.292389 1511.0 
408.405609 74.0 
408.898712 63.0 
409.225311 419.0 
409.270599 1921.0 
409.317596 2252.0 
409.332214 177.0 
410.235504 91.0 
410.274109 293.0 
410.321106 656.0 
410.764587 89.0 
411.096497 60.0 
411.243896 6826.0 
411.322693 649.0 
411.378113 67.0 
411.786194 78.0 
412.247803 2455.0 
412.31781 106.0 
413.260406 19846.0 
414.218903 211.0 
414.266693 5892.0 
414.320587 119.0 
415.257812 1495.0 
415.310089 2500.0 
416.254303 305.0 
416.283295 268.0 
416.315308 891.0 
416.772888 140.0 
417.264099 1160.0 
417.757202 68.0 
418.265106 281.0 
418.317688 73.0 
419.254211 456.0 
419.287811 554.0 
419.30661 391.0 
420.249908 263.0 
420.287201 472.0 
420.319305 101.0 
421.254486 649.0 
421.269897 202.0 
421.306396 1707.0 
421.769501 90.0 
422.234406 86.0 
422.262207 322.0 
422.305695 605.0 
423.251801 663.0 
423.28009 86.0 
423.316315 15196.0 
424.248993 268.0 
424.321014 5300.0 
425.261688 277.0 
425.298615 12007.0 
425.371399 83.0 
425.765198 68.0 
426.217407 64.0 
426.264587 270.0 
426.303589 2983.0 
427.239197 414.0 
427.28299 2507.0 
428.240509 65.0 
428.287903 867.0 
428.335205 76.0 
429.257385 6786.0 
429.322906 678.0 
429.332306 226.0 
430.261505 2092.0 
431.209808 58.0 
431.272797 6125.0 
432.27771 1792.0 
432.316589 135.0 
432.791809 71.0 
433.259308 948.0 
433.303009 1164.0 
433.79599 69.0 
434.265594 398.0 
434.311188 367.0 
435.277588 815.0 
435.298187 214.0 
436.280212 99.0 
436.309998 461.0 
437.246796 199.0 
437.280487 211.0 
437.317291 2244.0 
438.252014 68.0 
438.326202 823.0 
438.800415 86.0 
439.256012 104.0 
439.315613 4461.0 
440.278198 103.0 
440.317596 1400.0 
441.262299 211.0 
441.284607 68.0 
441.330994 19855.0 
442.262604 138.0 
442.333496 6562.0 
443.310394 7984.0 
443.737915 79.0 
443.775208 168.0 
444.263794 96.0 
444.312012 2463.0 
445.299805 3798.0 
445.812103 57.0 
446.251007 186.0 
446.299988 1152.0 
447.230896 109.0 
447.279205 1916.0 
447.319305 493.0 
448.280609 735.0 
448.323608 232.0 
448.343109 83.0 
449.224915 71.0 
449.296906 2052.0 
449.782593 87.0 
450.301086 825.0 
451.210602 63.0 
451.274902 706.0 
451.315491 1901.0 
452.290314 311.0 
452.316803 812.0 
452.776398 66.0 
453.287994 295.0 
453.308289 481.0 
453.323608 105.0 
454.303589 291.0 
454.812714 249.0 
455.247406 77.0 
455.290009 2082.0 
455.342804 4864.0 
456.238007 66.0 
456.292786 788.0 
456.351105 1594.0 
457.325897 8124.0 
458.328094 2552.0 
459.267914 114.0 
459.2948 525.0 
459.337891 2793.0 
459.789612 218.0 
460.28891 361.0 
460.343994 1098.0 
461.286987 1661.0 
461.344788 152.0 
461.377686 62.0 
461.812897 81.0 
462.287903 409.0 
462.319611 214.0 
463.30719 7589.0 
464.310211 2376.0 
464.785309 76.0 
465.300903 2252.0 
466.306091 502.0 
466.322998 212.0 
467.311188 2175.0 
467.795807 74.0 
468.276306 120.0 
468.311096 802.0 
469.327606 3521.0 
470.294098 324.0 
470.331909 1152.0 
470.821991 133.0 
471.339294 2022.0 
472.315887 217.0 
472.344788 514.0 
473.250488 79.0 
473.303497 4651.0 
473.359192 12703.0 
474.303192 2276.0 
474.361603 4702.0 
475.272491 144.0 
475.336487 5820.0 
476.3396 1647.0 
476.381897 102.0 
476.798004 157.0 
477.303894 407.0 
477.333405 588.0 
478.289215 84.0 
478.326813 135.0 
478.357697 172.0 
479.252808 65.0 
479.304688 1732.0 
479.324707 77.0 
479.799011 91.0 
480.299194 551.0 
480.322296 96.0 
481.249695 59.0 
481.321991 2302.0 
482.262695 64.0 
482.328796 853.0 
483.251709 194.0 
483.308685 2284.0 
483.338715 328.0 
484.309906 930.0 
485.321198 1009.0 
485.819305 82.0 
486.323792 393.0 
487.301697 186.0 
487.346893 2100.0 
488.304108 84.0 
488.351196 963.0 
489.206696 86.0 
489.269196 67.0 
489.3508 3310.0 
489.366791 94.0 
490.30011 91.0 
490.356506 1206.0 
491.313202 9667.0 
491.3685 2613.0 
492.315002 2799.0 
492.371613 450.0 
493.325195 1834.0 
493.363708 206.0 
493.817505 60.0 
494.317505 313.0 
494.338898 94.0 
494.821289 67.0 
495.310791 405.0 
495.354309 1322.0 
496.285614 72.0 
496.358093 541.0 
497.335114 1907.0 
497.374512 167.0 
498.340393 572.0 
499.326508 777.0 
499.349091 389.0 
500.329895 160.0 
500.356689 325.0 
500.843109 68.0 
501.343597 1398.0 
502.320892 218.0 
502.355804 619.0 
503.253204 67.0 
503.326508 153.0 
503.3703 436.0 
504.321014 72.0 
504.372894 131.0 
505.331085 994.0 
505.382294 2364.0 
506.303009 146.0 
506.336212 315.0 
506.384613 916.0 
507.359009 1217.0 
508.284607 60.0 
508.337402 85.0 
508.363892 476.0 
509.263306 87.0 
509.323303 11063.0 
510.32489 4279.0 
510.375885 68.0 
511.330109 1488.0 
512.34198 350.0 
513.367371 2069.0 
514.367371 949.0 
515.350281 5601.0 
516.352173 1832.0 
517.335205 502.0 
517.355896 506.0 
518.336914 152.0 
518.373901 194.0 
518.671204 58.0 
519.348816 407.0 
519.367676 509.0 
520.343872 314.0 
520.373779 217.0 
521.39032 209.0 
522.320923 83.0 
523.348999 3534.0 
523.396118 736.0 
523.47522 77.0 
524.348022 1812.0 
524.400513 377.0 
525.298218 61.0 
525.353271 742.0 
526.360901 368.0 
527.270813 74.0 
527.334717 7273.0 
527.97229 68.0 
528.339172 3036.0 
529.347778 655.0 
530.30719 65.0 
530.355774 278.0 
531.340271 148.0 
531.380371 2579.0 
532.248108 71.0 
532.38147 1113.0 
533.296875 191.0 
533.359192 9689.0 
534.365112 3806.0 
535.324524 262.0 
535.366089 1162.0 
536.352722 246.0 
536.374329 84.0 
536.421692 61.0 
537.339478 175.0 
537.362122 276.0 
538.337891 163.0 
538.364075 140.0 
539.308716 90.0 
539.350281 148.0 
539.374817 175.0 
540.403198 66.0 
541.289429 75.0 
541.365173 11634.0 
541.471619 57.0 
542.367981 4798.0 
543.369873 1039.0 
545.065186 68.0 
545.349304 1120.0 
545.395874 119.0 
546.353394 446.0 
547.297607 67.0 
547.37323 1309.0 
548.382812 654.0 
549.354675 196.0 
549.3927 1256.0 
550.264099 79.0 
550.355408 173.0 
550.395386 508.0 
550.89563 80.0 
551.369812 8537.0 
551.387085 77.0 
552.375427 3866.0 
553.367798 796.0 
553.379272 216.0 
553.865173 91.0 
554.3797 203.0 
555.294922 92.0 
555.373413 398.0 
555.38501 134.0 
556.381592 227.0 
557.35199 91.0 
558.382629 66.0 
559.261719 73.0 
559.376404 26119.0 
560.315186 79.0 
560.376892 11615.0 
560.469788 59.0 
561.381897 2990.0 
562.389282 390.0 
562.404602 115.0 
562.867371 62.0 
562.900574 69.0 
563.357788 191.0 
563.404907 731.0 
564.413513 303.0 
565.303406 63.0 
565.377991 931.0 
565.388977 1163.0 
566.389282 812.0 
567.367126 194.0 
567.396973 331.0 
568.388794 297.0 
568.895874 61.0 
569.383423 2432.0 
570.177673 61.0 
570.383789 1199.0 
571.376404 160.0 
571.907715 69.0 
573.325806 69.0 
573.388916 2235.0 
574.391296 826.0 
575.37262 248.0 
575.399597 77.0 
576.390381 72.0 
576.512024 58.0 
577.313171 208.0 
577.389404 44272.0 
577.952393 103.0 
578.390625 18248.0 
579.395996 3907.0 
580.401428 990.0 
581.335205 85.0 
581.406372 420.0 
581.419678 318.0 
581.594177 61.0 
582.37439 76.0 
582.427979 280.0 
583.320129 66.0 
583.397705 1924.0 
584.398682 896.0 
585.247925 96.0 
585.340271 159.0 
585.371826 200.0 
585.404785 320.0 
586.379272 107.0 
587.395325 93.0 
588.368286 63.0 
589.35968 175.0 
589.404785 134.0 
591.333496 74.0 
591.376404 97.0 
591.406006 9311.0 
591.618286 78.0 
592.39917 2384.0 
592.411621 2012.0 
593.318298 143.0 
593.34552 60.0 
593.37439 120.0 
593.407898 1081.0 
593.648804 59.0 
594.384827 71.0 
594.406616 93.0 
595.307617 116.0 
595.398499 41343.0 
595.46167 82.0 
596.40033 18787.0 
597.406616 4469.0 
597.430176 74.0 
597.904175 58.0 
598.411804 745.0 
599.401794 71.0 
600.428406 64.0 
601.297424 74.0 
601.408081 1198.0 
601.728882 61.0 
602.412903 751.0 
603.384827 68.0 
604.42157 63.0 
605.390198 161.0 
605.418518 76.0 
606.379517 77.0 
607.415222 69.0 
609.348999 96.0 
609.415405 24813.0 
610.216125 94.0 
610.421326 11090.0 
611.419617 2375.0 
612.432983 438.0 
612.453125 63.0 
613.411011 8121.0 
613.449097 78.0 
614.411499 3020.0 
615.417297 1073.0 
616.43219 84.0 
617.374207 65.0 
617.405701 113.0 
617.433228 140.0 
618.409912 99.0 
619.420105 171.0 
620.441589 78.0 
621.383911 110.0 
623.43042 1250.0 
624.437073 704.0 
625.237 62.0 
625.378906 80.0 
625.419922 526.0 
625.930786 58.0 
626.38092 65.0 
626.409119 143.0 
627.269775 73.0 
627.339783 61.0 
627.425293 38761.0 
627.56842 75.0 
627.928101 185.0 
628.341492 60.0 
628.362976 176.0 
628.387085 118.0 
628.429626 16817.0 
629.367798 187.0 
629.429993 3984.0 
629.923096 69.0 
630.438721 586.0 
631.421082 373.0 
633.081909 108.0 
633.370911 76.0 
633.404297 150.0 
635.128784 66.0 
635.3927 169.0 
636.426025 120.0 
636.933594 166.0 
637.419006 130.0 
639.422729 162.0 
641.440796 3324.0 
641.459778 82.0 
642.441589 1431.0 
642.919128 70.0 
643.389099 75.0 
643.409973 163.0 
643.440491 593.0 
643.934875 62.0 
644.428589 232.0 
644.611572 68.0 
645.437378 21991.0 
645.939087 86.0 
646.340576 63.0 
646.44281 10202.0 
646.524719 66.0 
647.442383 2332.0 
648.444214 707.0 
649.439392 72.0 
651.274902 74.0 
651.467529 77.0 
652.432129 232.0 
652.454407 185.0 
652.943604 224.0 
653.364197 74.0 
653.416626 89.0 
653.58197 63.0 
655.41449 79.0 
657.425598 169.0 
658.446106 80.0 
659.352478 68.0 
659.417297 179.0 
659.453003 8712.0 
659.483582 94.0 
660.381897 102.0 
660.456116 3731.0 
661.457214 1333.0 
661.957581 87.0 
662.416626 98.0 
662.451416 392.0 
663.389526 66.0 
663.447815 1301.0 
664.443481 690.0 
664.469299 161.0 
665.440979 188.0 
668.460876 185.0 
668.954529 64.0 
669.356384 108.0 
669.447998 162.0 
672.409607 62.0 
673.389587 70.0 
673.957214 65.0 
674.470703 78.0 
675.394226 79.0 
675.449524 400.0 
676.318176 62.0 
676.370483 86.0 
676.521484 113.0 
677.462708 8570.0 
677.962891 74.0 
678.41687 71.0 
678.463806 3979.0 
679.45929 429.0 
679.475098 661.0 
679.53772 65.0 
680.37439 75.0 
681.424683 161.0 
681.453979 179.0 
681.494873 64.0 
682.397217 69.0 
684.507202 65.0 
685.439819 137.0 
686.456604 68.0 
691.43988 569.0 
691.500305 117.0 
692.165405 81.0 
692.3255 78.0 
692.43811 406.0 
692.457886 384.0 
692.490479 884.0 
692.587708 76.0 
693.105103 113.0 
693.295776 122.0 
693.389893 72.0 
693.423584 373.0 
693.4422 540.0 
693.464172 451.0 
693.929504 111.0 
694.088989 66.0 
694.181519 123.0 
694.263123 71.0 
694.397888 205.0 
694.44342 549.0 
694.488892 157.0 
694.5271 234.0 
695.172302 90.0 
695.237488 63.0 
695.308777 99.0 
695.348206 216.0 
695.464172 855.0 
695.475403 10348.0 
696.109802 57.0 
696.230713 66.0 
696.374817 155.0 
696.404724 225.0 
696.41748 94.0 
696.474609 3965.0 
696.487793 867.0 
696.567505 152.0 
697.05658 82.0 
697.410828 274.0 
697.428406 139.0 
697.469482 1863.0 
697.506775 124.0 
697.575073 275.0 
698.351685 125.0 
698.448303 785.0 
698.476685 219.0 
698.517517 122.0 
698.567322 103.0 
699.306824 113.0 
699.39679 61.0 
699.443787 822.0 
699.465515 442.0 
699.504395 191.0 
699.558899 89.0 
699.942688 268.0 
700.354126 78.0 
700.422119 506.0 
700.4375 301.0 
700.496887 79.0 
700.941528 186.0 
701.356018 79.0 
701.406921 57.0 
702.632812 58.0 
703.427307 103.0 
703.447693 240.0 
704.439392 91.0 
705.455627 87.0 
709.390991 67.0 
709.454102 1573.0 
710.449707 638.0 
711.455994 308.0 
712.399597 58.0 
713.482117 275.0 
715.422302 72.0 
719.408508 663.0 
720.404114 86.0 
725.416992 65.0 
725.473389 77.0 
728.460022 62.0 
729.47998 76.0 
730.54248 74.0 
731.451782 90.0 
739.473206 76.0 
743.504578 165.0 
744.522278 68.0 
757.518127 87.0 
761.547974 98.0 
763.488892 279.0 
764.466675 70.0 
765.471313 63.0 
781.487793 152.0 
781.51239 97.0 
789.533508 76.0 
797.539124 76.0 
799.489075 84.0 
805.50293 71.0 
809.50647 58.0 
821.491089 97.0 
831.533875 253.0 
832.536316 301.0 
839.491699 60.0 
841.546387 84.0 
849.549927 187.0 
850.551514 147.0 
857.503418 99.0 
858.505676 82.0 
859.528503 80.0 
859.587524 66.0 
865.592285 81.0 
867.524475 70.0 
867.567505 70.0 
875.538025 72.0 
881.58551 332.0 
882.578796 130.0 
888.577515 60.0 
889.583923 66.0 
898.589783 82.0 
899.59491 371.0 
899.615784 122.0 
900.599487 306.0 
900.613403 77.0 
901.594788 139.0 
905.553589 82.0 
906.567383 68.0 
909.580811 163.0 
912.638306 66.0 
923.580017 322.0 
924.581909 70.0 
924.613525 60.0 
925.566406 276.0 
926.575989 73.0 
928.606812 66.0 
928.697388 74.0 
931.626892 57.0 
941.599976 59.0 
951.538391 90.0 
951.57959 78.0 
953.60498 87.0 
954.5625 75.0 
954.599976 84.0 
965.588806 79.0 
965.65741 113.0 
966.64032 135.0 
971.595215 59.0 
971.647888 93.0 
972.617615 140.0 
972.675476 86.0 
977.630188 60.0 
977.728394 57.0 
978.594727 70.0 
978.725098 68.0 
981.644104 70.0 
983.646729 405.0 
983.661499 66.0 
984.662292 192.0 
985.645203 227.0 
989.633423 66.0 
989.668823 58.0 
991.69397 62.0 
992.656982 75.0 
995.629028 136.0 
999.667114 65.0 
1007.633606 62.0 
1009.663208 293.0 
1010.673279 290.0 
1021.659119 62.0 
1028.685913 68.0 
1029.689941 58.0 
1035.668213 64.0 
1040.692749 83.0 
1042.694702 68.0 
1043.664551 101.0 
1043.693359 79.0 
1049.709229 67.0 
1051.670776 58.0 
1055.654541 84.0 
1057.69104 92.0 
1069.683716 184.0 
1069.69397 57.0 
1070.48938 65.0 
1070.699829 141.0 
1071.699097 93.0 
1087.693359 111.0 
1087.715942 102.0 
1088.705444 344.0 
1089.723755 111.0 
1099.726074 66.0 
1105.729614 150.0 
1107.733398 86.0 
1110.739258 60.0 
1111.703247 86.0 
1117.815063 58.0 
1121.75415 91.0 
1132.711548 70.0 
1139.775146 303.0 
1140.759277 93.0 
1145.746948 116.0 
1152.743896 117.0 
1157.762451 65.0 
1163.743896 196.0 
1164.742554 83.0 
1396.12085 68.0 
1670.411011 67.0 
1691.797729 71.0 
1709.714722 58.0 
1859.550049 61.0 
1992.498657 60.0 
2003.005127 58.0 
END IONS

