BEGIN IONS
PEPMASS=625.286
CHARGE=1+
MSLEVEL=2
SOURCE_INSTRUMENT=LC-ESI-Ion Trap
FILENAME=f.RReher/gallinamide/GallinamideA_M+MeOH+H_F4MeOH2_3.36_625.2859.mgf;
SEQ=*..*
IONMODE=Positive
ORGANISM=GNPS-LIBRARY
NAME=Gallinamide A M+CH3OH+H
PI=Gerwick
DATACOLLECTOR=Reher
SMILES=CC[C@@H]([C@@H](C(O[C@H](C(N[C@H](C(N[C@H](/C=C/C(N1[C@H](C(OC)=CC1=O)C)=O)C)=O)CC(C)C)=O)CC(C)C)=O)N(C)C)C
INCHI=
INCHIAUX=
PUBMED=
SUBMITUSER=RReher
LIBRARYQUALITY=3
SPECTRUMID=CCMSLIB00005721065
SCANS=1
174.917633 14334.0 
182.273499 10989.0 
189.809692 25161.0 
192.220032 35077.0 
207.131104 478639.0 
208.025696 145577.0 
225.076477 66350.0 
225.755524 3.0 
239.103302 2803735.0 
239.952362 7.0 
256.931519 553831.0 
257.676758 53984.0 
273.837769 19015.0 
302.936218 30545.0 
307.073486 21726.0 
339.148865 199447.0 
339.761108 24.0 
341.134033 205134.0 
341.839966 10.0 
369.174744 957998.0 
369.896912 11.0 
434.318298 51729.0 
434.948059 9.0 
452.166687 41304.0 
466.222046 1068737.0 
466.876709 4533.0 
479.819153 9437.0 
493.960205 40736.0 
498.090393 839887.0 
499.060486 22.0 
593.212646 3595674.0 
594.136597 20.0 
END IONS

