BEGIN IONS
PEPMASS=572.0
CHARGE=0+
MSLEVEL=2
SOURCE_INSTRUMENT=LC-ESI-qTof
FILENAME=20130131_Emily_Ger_Neodysidenin_MNa3Cl572-qb.1.1..mgf
SEQ=*..*
IONMODE=Positive
ORGANISM=GNPS-LIBRARY
NAME=Neodysidenin M+H
PI=Gerwick
DATACOLLECTOR=Emily
SMILES=C[C@@H](C[C@@H](C(=O)N(C)[C@H](C)C1=NC=CS1)NC(=O)C[C@H](C)C(Cl)(Cl)Cl)C(Cl)(Cl)Cl
INCHI=InChI=1S/C17H23Cl6N3O2S/c1-9(16(18,19)20)7-12(25-13(27)8-10(2)17(21,22)23)15(28)26(4)11(3)14-24-5-6-29-14/h5-6,9-12H,7-8H2,1-4H3,(H,25,27)/t9-,10-,11+,12-/m0/s1
INCHIAUX=N/A
PUBMED=N/A
SUBMITUSER=mwang87
LIBRARYQUALITY=1
SPECTRUMID=CCMSLIB00000001720
SCANS=1
194.070862 480805.0 
290.866699 77454.0 
307.953979 148936.0 
309.9552 10025.0 
365.028992 72076.0 
375.629883 76898.0 
397.988037 621615.0 
399.969849 69082.0 
401.793945 638120.0 
412.03772 143895.0 
413.100952 51517.0 
437.479736 231844.0 
438.700928 557335.0 
439.768433 1075578.0 
459.740906 198819.0 
460.648376 53163.0 
461.589844 338775.0 
462.270691 1.0 
487.930847 225941.0 
496.125244 599083.0 
497.364746 2306981.0 
498.0177 756853.0 
498.84137 2005577.0 
499.851807 619318.0 
500.575012 113577.0 
504.082947 167961.0 
531.113892 232624.0 
532.866333 5928071.0 
533.852783 17692824.0 
534.813721 15519342.0 
535.835693 20375920.0 
536.894287 3159547.0 
537.556641 1292.0 
END IONS

