BEGIN IONS
PEPMASS=1121.59
CHARGE=1+
MSLEVEL=2
SOURCE_INSTRUMENT=LC-ESI-Orbitrap
FILENAME=f.RReher/Culebra/pure_compounds/1104_Kurahamide/2286_SPE1-1-16_Kurahamide_MS2_M+NH4_QE.mgf;
SEQ=*..*
IONMODE=Positive
ORGANISM=GNPS-LIBRARY
NAME=Kurahamide M+NH4
PI=Gerwick
DATACOLLECTOR=Raphael Reher
SMILES=CCCC(N[C@H](C(N[C@H](C(N[C@H]1[C@@H](C)OC([C@H](C(C)C)NC([C@H](CC2=CC=C(O)C=C2)N(C)C([C@H](CC3=CC=CC=C3)N4C(O)CC[C@H](NC(/C(NC1=O)=C\C)=O)C4=O)=O)=O)=O)=O)[C@H](OC([C@@H](NC(CCC)=O)C)=O)C)=O)C)=O
INCHI=
INCHIAUX=
PUBMED=
SUBMITUSER=RReher
LIBRARYQUALITY=3
SPECTRUMID=CCMSLIB00005723416
SCANS=1
82.049545 3662.89502 
82.050255 6381.254395 
82.050957 7944.499023 
82.051659 7297.885254 
82.052368 4812.459961 
84.042747 2017.028076 
84.04348 6527.602051 
84.044212 12038.262695 
84.044945 14944.100586 
84.04567 12983.157227 
84.046402 7691.37207 
84.047134 2834.406738 
88.075142 3497.556641 
88.075928 6019.34082 
88.076714 7168.435547 
88.077499 6188.946777 
88.078278 3754.578613 
89.151138 4223.395508 
89.151939 6518.786621 
89.15274 7107.08252 
89.153534 5560.452637 
89.154335 2798.589844 
91.051453 516.895752 
91.052277 9450.563477 
91.053101 24713.544922 
91.053925 41201.3125 
91.054749 47206.765625 
91.055573 33836.757812 
91.056396 18834.148438 
91.05722 6062.940918 
91.058044 2608.458008 
103.051483 2050.590088 
103.052475 6092.855469 
103.053467 10639.726562 
103.054459 12740.59668 
103.05545 10962.616211 
103.056442 6677.412109 
103.057442 2597.912109 
110.055374 3570.884766 
110.056465 9491.405273 
110.057564 31730.677734 
110.058655 71591.109375 
110.059753 114555.65625 
110.060852 124236.679688 
110.061943 83491.703125 
110.063042 42206.882812 
110.064133 10582.154297 
110.065231 1611.843506 
111.088593 2091.487793 
111.089706 5833.498535 
111.090813 10717.233398 
111.091927 19739.601562 
111.093033 12138.80957 
111.094147 7701.249512 
111.095261 3298.060547 
114.087074 392.426086 
114.088226 10430.649414 
114.089386 24400.0625 
114.090538 39378.582031 
114.091698 41475.269531 
114.09285 28381.921875 
114.094009 15257.833008 
114.095161 5126.59668 
114.096321 1930.91333 
119.046074 5200.945312 
119.047302 11605.328125 
119.048531 17793.751953 
119.049767 19354.654297 
119.050995 15031.473633 
119.052231 8034.840332 
119.053459 2952.758057 
120.07029 2554.975098 
120.071541 10315.357422 
120.072784 22242.765625 
120.074036 37238.019531 
120.075279 45118.042969 
120.07653 118914.617188 
120.077774 408313.8125 
120.079025 890658.75 
120.080276 1411901.0 
120.08152 1491412.875 
120.082771 991081.25 
120.084015 499476.1875 
120.085266 139796.640625 
120.086517 40837.402344 
120.087761 32471.568359 
120.089012 26430.257812 
120.090256 13638.362305 
120.091507 2139.378418 
121.062225 4870.048828 
121.063484 8268.894531 
121.064751 9727.165039 
121.06601 7986.314453 
121.067276 4287.205566 
122.058853 4939.150391 
122.060135 7759.834473 
122.061417 8516.336914 
122.062691 6567.351074 
122.063972 3260.734619 
127.081802 4142.090332 
127.08316 19660.431641 
127.084526 41915.484375 
127.085884 65594.585938 
127.087242 65331.355469 
127.0886 42636.8125 
127.089958 20909.789062 
127.091316 7302.410645 
127.092674 3968.547119 
135.063614 4265.075195 
135.065109 10027.350586 
135.066589 15867.333984 
135.068085 17503.855469 
135.069565 13673.739258 
135.07106 7295.682617 
135.07254 2465.7854 
139.080215 1988.052979 
139.081772 9308.311523 
139.083328 30961.707031 
139.084885 56542.804688 
139.086441 78705.328125 
139.087982 65970.570312 
139.089539 39048.433594 
139.091095 13930.761719 
139.092651 2408.580322 
142.078979 2816.04248 
142.080582 9677.422852 
142.082184 36852.328125 
142.083801 80291.929688 
142.085403 127047.273438 
142.087006 131551.140625 
142.088608 85857.203125 
142.090225 41780.0625 
142.091827 10921.055664 
142.09343 2828.258057 
146.091003 2696.42627 
146.092682 11880.268555 
146.094345 22301.847656 
146.096024 31700.25 
146.097702 27101.607422 
146.09938 16088.163086 
146.101044 5979.374023 
146.102722 2856.912109 
148.072144 5311.58252 
148.073853 10279.773438 
148.075562 13357.055664 
148.077271 12075.268555 
148.078979 7349.307129 
148.080688 2768.023438 
150.076569 5652.083496 
150.078308 15355.827148 
150.080063 31064.933594 
150.081802 46943.96875 
150.083542 59142.03125 
150.085297 162922.0625 
150.087036 553459.5 
150.088776 1143623.125 
150.090515 1774052.625 
150.09227 1782915.0 
150.094009 1150832.25 
150.095749 555721.8125 
150.097504 151774.28125 
150.099243 46105.277344 
150.100983 40161.800781 
150.102737 30353.351562 
150.104477 15829.506836 
150.106216 5553.289551 
151.082489 4363.694336 
151.084244 8973.694336 
151.086014 13009.441406 
151.087769 13305.259766 
151.089539 9390.90625 
151.091293 4062.260986 
153.060364 3346.748047 
153.062164 7332.398926 
153.063965 11562.927734 
153.065765 20662.785156 
153.067551 11355.760742 
153.069351 6879.459473 
153.071152 2828.09375 
155.073669 2019.07019 
155.0755 6323.652832 
155.077332 24356.642578 
155.079163 48278.929688 
155.080994 71549.601562 
155.082825 64892.25 
155.084656 39474.378906 
155.086487 15854.635742 
155.088333 3655.986816 
157.09343 4974.517578 
157.095291 9946.182617 
157.097168 12425.756836 
157.09903 10530.169922 
157.100906 5918.807617 
158.084274 3224.048096 
158.086151 6073.394043 
158.088043 8283.998047 
158.08992 24675.767578 
158.091812 85112.5625 
158.093689 174311.546875 
158.095581 268935.0625 
158.097473 266294.84375 
158.09935 170206.71875 
158.101242 80309.0625 
158.103119 20822.859375 
158.105011 5422.737305 
158.106888 4762.643066 
158.10878 2991.336426 
167.071442 1806.284668 
167.073502 4395.693359 
167.075546 17912.558594 
167.077591 52806.722656 
167.079636 90244.554688 
167.081696 112373.804688 
167.08374 82771.070312 
167.085785 45858.992188 
167.08783 12767.857422 
167.08989 2162.53418 
170.087677 3691.829102 
170.089783 15404.186523 
170.091888 49988.808594 
170.093994 88095.773438 
170.096085 118063.929688 
170.09819 94787.695312 
170.100296 55486.835938 
170.102402 19436.216797 
170.104507 4401.707031 
178.080566 5252.022461 
178.082825 11250.779297 
178.085083 16322.280273 
178.087326 16743.863281 
178.089584 12103.457031 
178.091843 5803.063965 
179.072098 3558.483398 
179.074371 15370.855469 
179.076645 52092.222656 
179.078918 94967.914062 
179.081192 131994.390625 
179.083466 110203.570312 
179.085739 65305.40625 
179.088013 23672.378906 
179.090286 4458.224609 
179.09256 384.028625 
187.108551 4082.672363 
187.110977 7688.108398 
187.113403 22146.576172 
187.115829 72944.054688 
187.118271 212020.625 
187.120697 361117.3125 
187.123123 466238.28125 
187.125549 360538.96875 
187.127975 210361.828125 
187.130402 67029.351562 
187.132828 14779.178711 
187.135254 2947.443604 
193.088806 3393.941895 
193.091354 10231.967773 
193.093903 19296.375 
193.096451 27575.171875 
193.098984 23879.890625 
193.101532 14022.873047 
193.10408 4854.030762 
193.106628 2108.578613 
197.110672 3437.407959 
197.113297 10373.654297 
197.115921 13895.126953 
197.118546 33951.90625 
197.12117 111668.992188 
197.123795 278639.21875 
197.126419 460541.125 
197.129044 542413.625 
197.131668 387714.125 
197.134293 211150.65625 
197.136917 60112.964844 
197.139542 12451.795898 
197.142166 5794.923828 
197.144547 6536.625488 
197.147171 3748.532471 
198.082565 2660.144287 
198.085205 6553.787109 
198.087845 13027.138672 
198.0905 19260.123047 
198.09314 15888.481445 
198.095779 7152.310059 
198.098419 2737.632568 
199.101868 5819.130371 
199.104538 11090.225586 
199.107208 13923.301758 
199.109863 12183.835938 
199.112534 7247.245605 
199.115204 2583.198486 
204.105331 4713.811523 
204.108093 10477.569336 
204.110855 16225.078125 
204.113632 18098.068359 
204.116394 14567.063477 
204.119156 8202.865234 
204.121918 2975.766113 
206.122574 5878.912109 
206.125381 9777.654297 
206.128189 11486.832031 
206.130997 9795.726562 
206.133804 5855.249023 
207.068939 2382.184082 
207.071762 6446.397461 
207.074585 10267.277344 
207.077408 11093.637695 
207.080246 8363.166992 
207.083069 4164.819336 
213.092773 3649.830566 
213.095718 12813.732422 
213.098663 22667.828125 
213.101624 30091.449219 
213.104568 23982.273438 
213.107529 13934.013672 
213.110474 4523.442871 
213.113419 1654.846924 
215.092438 2091.861816 
215.095428 6142.101074 
215.098419 16004.513672 
215.10141 29155.363281 
215.104401 41846.359375 
215.107391 107062.21875 
215.110382 350522.84375 
215.113388 714109.0625 
215.116379 1089925.125 
215.11937 1044672.9375 
215.12236 662259.75 
215.125351 304124.28125 
215.128342 93379.007812 
215.131332 100628.734375 
215.134338 213434.515625 
215.137329 311259.78125 
215.14032 312133.03125 
215.143311 195890.640625 
215.146301 71266.671875 
215.149292 9804.074219 
215.152283 8257.726562 
215.155289 5137.099609 
215.158279 2787.350586 
220.100174 3343.994385 
220.103271 6246.931152 
220.106369 7925.841309 
220.109467 7384.913574 
220.112564 5061.098145 
222.11467 2676.248779 
222.117813 7238.318848 
222.120956 12059.09375 
222.1241 13727.292969 
222.127243 10919.302734 
222.130371 5714.474609 
224.093307 2719.774414 
224.096481 7211.814941 
224.09967 16791.984375 
224.102859 22789.595703 
224.106033 18082.882812 
224.109222 9844.625 
224.112396 4384.736816 
224.115585 1858.252441 
225.105911 1988.403931 
225.109116 4243.604492 
225.11232 11666.725586 
225.115524 38253.972656 
225.118729 79287.242188 
225.121933 123126.0625 
225.125137 122917.734375 
225.128342 78374.859375 
225.131546 36275.453125 
225.13475 8486.700195 
225.137955 2366.857666 
226.079147 5148.870605 
226.082367 10458.330078 
226.085602 13195.186523 
226.088821 10942.181641 
226.092041 5637.342285 
232.097076 2829.061279 
232.100433 8064.818359 
232.103775 14699.827148 
232.107132 18410.316406 
232.110489 16395.03125 
232.113846 10187.379883 
232.117203 4093.567383 
234.078354 3867.131348 
234.081757 9058.947266 
234.085159 13936.717773 
234.088547 15185.881836 
234.091949 11911.708008 
234.095352 6518.789551 
234.09874 2224.073975 
238.11084 5285.782715 
238.114319 9615.876953 
238.117798 12063.431641 
238.121292 10862.858398 
238.124771 6882.949707 
238.128265 2815.476074 
241.086761 2844.907715 
241.090302 7310.01416 
241.093857 11374.111328 
241.097412 12055.888672 
241.100952 8760.920898 
241.104507 4023.170898 
243.087936 1803.501099 
243.091537 13767.266602 
243.095139 21850.126953 
243.098724 53580.042969 
243.102325 171140.5625 
243.105911 468719.4375 
243.109512 790515.625 
243.113113 986433.3125 
243.116699 739889.5 
243.1203 420009.5 
243.123901 128832.335938 
243.127487 35206.742188 
243.131088 24016.404297 
243.134232 28923.197266 
243.137817 16212.172852 
243.141418 6181.624023 
249.147949 3649.635498 
249.151688 9519.904297 
249.155411 16213.235352 
249.159134 19188.304688 
249.162872 16233.921875 
249.166595 9589.790039 
249.170334 3569.567139 
250.098541 3223.593018 
250.102295 4694.687012 
250.106049 14582.899414 
250.109802 48827.390625 
250.113556 94991.453125 
250.117294 141474.59375 
250.121048 132032.203125 
250.124802 82135.421875 
250.128555 35864.539062 
250.132309 8208.837891 
250.136063 1701.549438 
253.122681 3932.664795 
253.126495 9694.324219 
253.130325 16129.496094 
253.13414 18715.490234 
253.137955 15421.491211 
253.141785 8745.588867 
253.145599 3135.641846 
266.140594 4526.550293 
266.144714 8361.035156 
266.148834 10388.178711 
266.152954 8840.850586 
266.157074 4763.900879 
268.112183 1645.644531 
268.116333 6432.742676 
268.120514 21529.765625 
268.124664 39362.0625 
268.128845 53862.816406 
268.132996 43563.8125 
268.137177 25222.248047 
268.141327 8025.294922 
268.145508 959.929321 
270.146912 3328.66748 
270.151123 8079.73291 
270.155334 19568.556641 
270.159546 24735.59375 
270.163757 18573.503906 
270.167969 10229.206055 
270.17218 2054.194824 
274.84845 4677.469727 
274.852783 7851.391602 
274.857086 8850.231445 
274.86142 7042.112793 
274.865753 3803.808838 
280.158051 5176.710449 
280.162506 10075.306641 
280.166962 11366.259766 
280.171387 8052.180176 
280.175842 3295.717285 
281.11676 2777.012207 
281.121246 7311.777832 
281.125702 11026.946289 
281.130188 11124.68457 
281.134644 7575.17041 
281.13913 3107.35791 
295.140869 3947.023193 
295.145691 5678.028809 
295.150482 13903.263672 
295.155304 42588.632812 
295.160126 79472.78125 
295.164917 113432.171875 
295.169739 98026.78125 
295.17453 58324.546875 
295.179352 21354.257812 
295.184174 3228.390381 
297.116486 5625.991211 
297.121338 8997.459961 
297.12619 9802.345703 
297.131042 7252.216309 
297.135925 3245.402588 
298.129852 3203.931641 
298.134735 5368.792969 
298.139618 14845.179688 
298.144501 45593.378906 
298.149384 81227.390625 
298.154266 110020.523438 
298.159149 88921.875 
298.164032 51921.871094 
298.168915 17523.96875 
298.173798 3915.846191 
308.10376 638.151367 
308.108887 7153.525879 
308.114014 36080.25 
308.119141 79777.390625 
308.124298 126230.640625 
308.129425 125435.4375 
308.134552 80385.171875 
308.139679 37749.761719 
308.144806 16319.290039 
308.149933 31444.164062 
308.15506 57859.199219 
308.160187 74029.992188 
308.165314 58922.132812 
308.170471 29738.726562 
308.175598 5664.741211 
321.137421 2867.143066 
321.142853 12611.799805 
321.148315 24143.794922 
321.153778 34414.164062 
321.159241 29447.423828 
321.164703 17697.009766 
321.170166 6667.088867 
321.175629 1837.235474 
326.127563 7583.013184 
326.133148 37001.6875 
326.138733 79572.984375 
326.144318 125188.382812 
326.149902 126299.796875 
326.155487 83675.546875 
326.161072 43652.511719 
326.166656 16657.033203 
326.172241 6400.312012 
326.177826 3227.619629 
332.184021 3486.947998 
332.189758 7773.043945 
332.195526 10244.512695 
332.201263 9097.149414 
332.207001 5387.343262 
347.160614 3329.338379 
347.166748 7171.086426 
347.172882 10161.549805 
347.179016 10321.956055 
347.18515 7470.637207 
347.191284 3592.86084 
365.163971 3334.953613 
365.170593 7618.867188 
365.177216 10760.362305 
365.183838 10099.711914 
365.19043 5897.348145 
373.169373 5840.272461 
373.176208 12462.004883 
373.183044 17062.953125 
373.18988 16034.527344 
373.196716 10206.825195 
373.203552 3985.667725 
384.177887 4319.030762 
384.185028 11239.165039 
384.192169 33478.503906 
384.19931 88849.851562 
384.206451 149553.265625 
384.213593 187870.578125 
384.220734 141493.71875 
384.227875 80416.023438 
384.235016 22533.111328 
384.242188 1862.078857 
391.156342 4342.647949 
391.163666 6383.036133 
391.171021 15535.079102 
391.178345 49027.996094 
391.185699 105889.078125 
391.193024 167923.625 
391.200378 178393.96875 
391.207703 117792.984375 
391.215057 57766.277344 
391.222382 12592.65918 
391.229736 1158.630249 
409.168671 2773.665039 
409.176514 6621.335449 
409.184357 17496.669922 
409.1922 48394.433594 
409.200073 83664.960938 
409.207916 111626.953125 
409.215759 89727.867188 
409.223633 52198.6875 
409.231476 16230.419922 
409.239319 895.778931 
420.122498 1944.512939 
420.130646 6873.078125 
420.138824 11621.753906 
420.146973 24052.703125 
420.155151 36275.585938 
420.16333 81392.992188 
420.171509 236655.890625 
420.179657 469510.875 
420.187836 716982.1875 
420.196014 709979.625 
420.204163 450985.5625 
420.212341 208592.734375 
420.22052 43527.425781 
420.228668 2159.249756 
503.179779 3306.041504 
503.190491 9270.231445 
503.201202 27930.429688 
503.211914 59325.078125 
503.222595 93534.953125 
503.233307 99170.226562 
503.244019 64906.167969 
503.25473 31124.710938 
503.265442 4939.340332 
550.231873 3661.542725 
550.24408 7188.411133 
550.256348 20287.925781 
550.268555 40656.578125 
550.280823 62143.839844 
550.29303 61306.742188 
550.305298 38013.761719 
550.317566 16237.176758 
550.329773 1846.622925 
579.529297 4643.303711 
579.542542 7010.745605 
579.555725 8249.358398 
579.56897 7440.88916 
579.582214 4847.969238 
595.796082 6463.865234 
595.809875 10009.673828 
595.823669 10149.566406 
595.837463 6675.412598 
595.851257 2396.248047 
602.276306 3923.668457 
602.290344 6872.845215 
602.304382 8399.533203 
602.318359 7590.592285 
602.332397 4955.041504 
667.30896 2236.818359 
667.325317 6179.596191 
667.341675 10956.494141 
667.358032 19441.544922 
667.37439 14838.271484 
667.390747 7163.308105 
667.407104 2921.215576 
758.185608 4227.590332 
758.205383 7301.723145 
758.22522 8703.907227 
758.244995 7555.802246 
758.264832 4596.779297 
776.77771 4722.300293 
776.798218 6953.396484 
776.818787 8090.977051 
776.839294 7495.872559 
776.859863 5290.771484 
844.362305 1769.374146 
844.385559 7005.890625 
844.408813 14234.084961 
844.432068 18803.818359 
844.455383 17195.222656 
844.478638 10746.28125 
844.501953 4284.62207 
927.403687 3599.32251 
927.43042 7236.850098 
927.457214 9373.582031 
927.484009 8736.824219 
927.510803 6034.843262 
1086.432007 2791.661377 
1086.465942 7047.566895 
1086.499878 11514.166016 
1086.533936 19353.646484 
1086.567871 13207.084961 
1086.601807 6099.941895 
1086.635742 2256.629883 
1100.181274 5454.859375 
1100.215942 9053.600586 
1100.25061 10218.15332 
1100.285156 8240.478516 
1100.319824 4604.154297 
END IONS

