BEGIN IONS
PEPMASS=568.0
CHARGE=0+
MSLEVEL=2
SOURCE_INSTRUMENT=LC-ESI-qTof
FILENAME=20130131_Emily_Ger_Neodysidenin_MNaCl568-qb.1.1..mgf
SEQ=*..*
IONMODE=Positive
ORGANISM=GNPS-LIBRARY
NAME=Neodysidenin M+H
PI=Gerwick
DATACOLLECTOR=Emily
SMILES=C[C@@H](C[C@@H](C(=O)N(C)[C@H](C)C1=NC=CS1)NC(=O)C[C@H](C)C(Cl)(Cl)Cl)C(Cl)(Cl)Cl
INCHI=InChI=1S/C17H23Cl6N3O2S/c1-9(16(18,19)20)7-12(25-13(27)8-10(2)17(21,22)23)15(28)26(4)11(3)14-24-5-6-29-14/h5-6,9-12H,7-8H2,1-4H3,(H,25,27)/t9-,10-,11+,12-/m0/s1
INCHIAUX=N/A
PUBMED=N/A
SUBMITUSER=mwang87
LIBRARYQUALITY=1
SPECTRUMID=CCMSLIB00000001721
SCANS=1
193.881134 1708498.0 
196.265503 1180378.0 
222.010162 1055386.0 
229.813538 1074919.0 
251.155792 7435781.0 
251.959961 10.0 
252.920135 3746633.0 
255.269562 510630.0 
270.012268 822012.0 
285.484253 703149.0 
288.844788 6569459.0 
290.170532 2822441.0 
290.941711 4873021.0 
295.503662 1384255.0 
296.186646 5.0 
297.815613 2182552.0 
306.610352 265145.0 
307.993286 2973662.0 
308.852905 203314.0 
309.92041 887193.0 
310.573547 222.0 
311.976074 1469549.0 
323.125732 1477675.0 
324.919189 6872079.0 
325.834351 4525613.0 
326.733337 4078410.0 
327.35791 703.0 
336.085083 510847.0 
363.984863 1184973.0 
364.679932 10.0 
365.868042 791919.0 
394.866699 1782153.0 
395.824829 4022331.0 
396.540649 72.0 
399.860779 12895236.0 
400.919739 1336003.0 
402.02655 9501340.0 
402.92218 6.0 
408.085388 1946747.0 
408.967346 2914019.0 
409.927002 472535.0 
421.897522 1794562.0 
424.101257 844649.0 
431.523621 302435.0 
435.854797 21763088.0 
436.739075 2974490.0 
437.893494 52520488.0 
438.609131 1165.0 
458.117004 27438632.0 
459.097534 2268341.0 
459.971619 14862006.0 
461.078125 4936466.0 
461.766602 2.0 
471.657898 332460.0 
493.4245 4143671.0 
494.037537 58562016.0 
495.15387 32814760.0 
495.945435 131035216.0 
496.843872 469940.0 
529.874756 376526528.0 
530.950806 218238976.0 
531.844116 2047187456.0 
532.691162 12872580.0 
533.490112 422.0 
END IONS

