BEGIN IONS
PEPMASS=937.504
CHARGE=1+
MSLEVEL=2
SOURCE_INSTRUMENT=LC-ESI-Orbitrap
FILENAME=f.RReher/Culebra/pure_compounds/955/SPE1-1-7_955.5074_MS2_M+H-H2O_QE.mgf;
SEQ=*..*
IONMODE=Positive
ORGANISM=GNPS-LIBRARY
NAME=Rivulariapeptolide 954 M+H-H2O
PI=Gerwick
DATACOLLECTOR=Raphael Reher
SMILES=CC(C)[C@H](NC([C@H](CC1=CC=C(O)C=C1)N(C)C([C@H](CC(C)C)N2[C@H](O)CC[C@H](NC(/C(NC3=O)=C\C)=O)C2=O)=O)=O)C(O[C@H](C)[C@@H]3NC([C@H]([C@@H](O)C)NC(C4CCCN4C(CCC)=O)=O)=O)=O
INCHI=
INCHIAUX=
PUBMED=
SUBMITUSER=RReher
LIBRARYQUALITY=3
SPECTRUMID=CCMSLIB00005723400
SCANS=1
76.531586 2047.755127 
76.532219 3502.7229 
76.532852 4501.132812 
76.533493 4469.185547 
76.534126 3406.326904 
76.536667 2238.118408 
76.5373 3897.251221 
76.537933 5438.797852 
76.538574 6192.132812 
76.539207 5732.962891 
76.539841 4190.78125 
76.540474 2289.00293 
76.547462 1784.824341 
76.548096 4444.070312 
76.548737 7391.209961 
76.54937 8502.665039 
76.550003 6829.838379 
76.550636 3589.53125 
76.551277 1099.464478 
78.045372 1542.947876 
78.046028 3546.586182 
78.046677 4959.73291 
78.047333 4750.308594 
78.047989 3098.154541 
82.631424 1854.126831 
82.632133 3938.598145 
82.632843 5385.645996 
82.63356 5129.703613 
82.63427 3315.606934 
86.092865 5565.536621 
86.093628 8266.505859 
86.094383 27419.376953 
86.095139 96527.617188 
86.095901 197340.484375 
86.096657 304273.28125 
86.097412 301012.9375 
86.098175 193035.671875 
86.09893 92110.5 
86.099686 25236.966797 
86.100441 7579.050781 
86.101204 6011.998535 
86.101959 3864.92627 
86.102699 7837.845215 
86.103455 247.031494 
107.047768 2078.34082 
107.048813 4351.882324 
107.049866 5350.86084 
107.050919 4320.547363 
107.051964 2136.39502 
121.062286 3347.557129 
121.063553 5691.515625 
121.064812 6382.127441 
121.066078 4936.90625 
121.067345 2494.733643 
124.106522 594.354065 
124.107834 3143.144531 
124.109146 13577.070312 
124.110458 28589.978516 
124.111771 44386.589844 
124.113083 42812.28125 
124.114395 26686.59375 
124.115707 11783.160156 
124.11702 2780.210938 
124.118324 716.758362 
124.988503 2390.671387 
124.98983 4261.483887 
124.99115 5158.305176 
124.992477 4507.048828 
124.993805 2764.53833 
136.107407 1565.204956 
136.108917 5488.716309 
136.110413 10854.770508 
136.111923 15998.928711 
136.113434 13977.634766 
136.114944 8198.228516 
136.11644 2891.430664 
136.11795 1238.866699 
140.093719 130.606033 
140.095291 6940.09375 
140.096863 4781.008789 
140.098419 4381.304199 
140.099991 5538.447266 
140.101562 20115.273438 
140.103134 73587.945312 
140.104706 149673.125 
140.106277 229438.34375 
140.107849 223887.015625 
140.109436 142721.671875 
140.111008 67276.515625 
140.112579 18687.775391 
140.114151 5615.226562 
140.115723 4104.412598 
140.117294 1747.65564 
150.076584 1542.333618 
150.078323 4259.375488 
150.080063 9469.900391 
150.081818 14367.603516 
150.083557 17926.837891 
150.085297 55716.40625 
150.087036 197814.0 
150.088791 410398.78125 
150.09053 637544.4375 
150.09227 639508.4375 
150.094025 412945.0625 
150.095764 200036.609375 
150.097504 56692.988281 
150.099258 18463.908203 
150.100998 14754.708984 
150.102737 9441.722656 
150.104492 2930.376465 
150.106232 1840.365112 
152.615997 2042.418335 
152.617783 4259.913574 
152.619568 5436.16748 
152.621353 4633.282715 
152.623138 2516.240723 
153.128662 4095.087402 
153.130463 4473.889648 
153.132248 15110.141602 
153.134048 56683.113281 
153.135849 119827.539062 
153.13765 187593.296875 
153.139435 190756.75 
153.141235 124077.335938 
153.143036 60902.332031 
153.144836 17399.578125 
153.146637 5197.783691 
153.148438 3365.624756 
153.150223 1386.392822 
158.450623 2384.831787 
158.452515 3899.813965 
158.454407 4473.938477 
158.456299 3843.60498 
158.458191 2431.814453 
167.077591 2333.974365 
167.079636 4609.081543 
167.08168 5578.956055 
167.083725 4619.105957 
167.085785 2562.68335 
168.08992 2151.539062 
168.091995 2782.034424 
168.094055 11118.441406 
168.09613 43789.65625 
168.09819 112444.578125 
168.10025 186774.359375 
168.102325 220070.75 
168.104385 158118.5625 
168.106461 87297.992188 
168.108521 26836.550781 
168.110596 6990.624512 
168.112656 2875.748047 
168.114731 2332.403564 
178.804153 2387.401367 
178.806427 4189.403809 
178.808685 4872.8125 
178.810959 3833.479492 
178.813217 1836.890869 
179.072144 1796.905884 
179.074417 7107.343262 
179.076691 22267.693359 
179.078964 40432.417969 
179.081238 56416.019531 
179.083511 48111.964844 
179.085785 28942.730469 
179.088058 11420.235352 
179.090332 2523.265625 
179.112976 3127.676758 
179.11525 6038.381836 
179.117523 7283.660156 
179.119797 6002.10791 
179.12207 3312.159912 
181.116806 4561.680176 
181.11911 8025.371094 
181.121429 9491.282227 
181.123734 15368.112305 
181.126053 54880.71875 
181.128372 185397.1875 
181.130676 345571.53125 
181.132996 493335.46875 
181.1353 431790.96875 
181.137619 263553.5625 
181.139923 108378.632812 
181.142242 29897.550781 
181.144547 11033.369141 
181.146866 9738.305664 
181.14917 5260.184082 
181.151489 4015.918457 
181.153809 1245.123291 
192.095078 2367.957275 
192.09761 5006.285645 
192.100128 6776.498535 
192.102661 6337.443359 
192.105179 4086.216309 
192.107712 1671.257935 
199.099319 2020.39502 
199.101974 4702.603516 
199.104645 10669.480469 
199.107315 13299.573242 
199.10997 9935.016602 
199.11264 4641.369629 
199.115311 1937.99353 
209.107651 2583.674316 
209.110519 6223.953125 
209.113388 8727.503906 
209.116257 14314.707031 
209.119125 48233.777344 
209.121994 160957.25 
209.124863 303659.3125 
209.127731 439814.375 
209.1306 393952.40625 
209.133469 242438.0 
209.136337 102749.851562 
209.139206 27399.148438 
209.142075 9195.899414 
209.144943 8533.933594 
209.147812 5438.582031 
209.150681 5204.269531 
209.153549 820.710938 
223.132172 2166.705322 
223.13533 11092.847656 
223.138489 27904.205078 
223.141647 46031.253906 
223.144806 51008.960938 
223.14798 34605.457031 
223.151138 17672.964844 
223.154297 4954.959473 
223.157455 1633.752441 
225.111893 1842.332275 
225.115097 4470.207031 
225.118301 10855.685547 
225.121506 15471.181641 
225.12471 13844.448242 
225.127914 8418.024414 
225.131119 3318.236816 
225.134323 1237.355713 
241.143707 2406.873291 
241.147263 8149.514648 
241.150818 14434.660156 
241.154358 18074.478516 
241.157913 13320.322266 
241.161469 7137.791016 
241.165024 1669.199341 
249.15181 3626.928223 
249.155548 6438.706055 
249.159271 7711.990234 
249.16301 6339.67627 
249.166733 3301.411865 
251.122131 1809.062744 
251.1259 2549.611084 
251.129669 9197.713867 
251.133453 18498.193359 
251.137222 27978.482422 
251.141006 26752.070312 
251.144775 16655.871094 
251.148544 7227.375488 
251.152328 1353.50354 
264.154602 1642.121704 
264.158691 6499.233887 
264.16275 18857.787109 
264.16684 32162.126953 
264.170898 39850.292969 
264.174988 29269.949219 
264.179047 16089.496094 
264.183136 4348.476074 
269.130981 2622.002686 
269.135162 10548.400391 
269.139343 37155.019531 
269.143524 73508.46875 
269.147736 111301.109375 
269.151917 106958.476562 
269.156097 67711.773438 
269.160278 31325.173828 
269.16449 8126.663574 
269.168671 1812.930054 
274.123688 1038.19397 
274.127991 4830.062012 
274.132294 20355.626953 
274.136597 44709.492188 
274.1409 70866.445312 
274.145203 73600.78125 
274.149536 48299.261719 
274.153839 24038.560547 
274.158142 6287.899902 
274.162445 905.616516 
278.105804 3098.186035 
278.110199 5320.362793 
278.114594 5852.740234 
278.118988 4310.95166 
278.123383 1955.709595 
292.147247 1617.836548 
292.151978 6984.069824 
292.156708 19957.349609 
292.161469 33988.015625 
292.166199 40576.667969 
292.170929 28727.146484 
292.175659 15203.71582 
292.18042 3765.165527 
292.18515 388.042023 
295.144836 1237.425049 
295.149628 4207.913574 
295.154449 15171.287109 
295.159241 29113.773438 
295.164062 42223.574219 
295.168884 37328.96875 
295.173676 22432.664062 
295.178497 8751.650391 
295.183289 1613.811035 
306.128357 2693.43457 
306.133423 4689.09082 
306.138489 6550.874023 
306.143585 7946.730957 
306.148651 8896.322266 
306.153748 9159.15918 
306.158813 8206.041016 
306.16391 3350.968262 
306.179138 1539.69458 
306.184235 6666.115723 
306.189301 12242.480469 
306.194397 13415.5625 
306.199493 8438.900391 
306.204559 3032.841309 
306.209656 1377.835449 
308.150116 3285.654297 
308.155243 5776.449219 
308.16037 6809.55957 
308.165497 5659.677246 
308.170624 3256.187988 
334.155212 1276.717773 
334.16098 7723.376953 
334.166779 15460.938477 
334.172577 22729.269531 
334.178375 20361.121094 
334.184174 12531.863281 
334.189972 5406.654297 
334.19577 1683.359741 
335.715057 2431.790527 
335.720886 4096.902832 
335.726715 4807.069824 
335.732544 4062.537842 
335.738403 2317.631104 
386.163147 4732.256836 
386.170349 10063.025391 
386.177521 20562.203125 
386.184723 61328.851562 
386.191925 185822.828125 
386.199127 332584.5625 
386.206329 458089.5625 
386.213531 382850.5625 
386.220734 228677.46875 
386.227936 84693.609375 
386.235138 19314.037109 
386.24234 5452.845703 
386.248627 7292.633789 
386.255829 4677.507324 
386.263031 3994.380371 
386.270233 1123.389893 
391.184265 4148.052246 
391.191589 7053.539551 
391.198944 7718.486816 
391.206268 5619.074707 
391.213623 2448.867432 
417.173431 2426.946533 
417.181519 5603.921387 
417.189606 15936.923828 
417.197662 44419.191406 
417.20575 75366.3125 
417.213837 96935.132812 
417.221924 74356.515625 
417.230011 42796.234375 
417.238098 12376.4375 
417.246185 1546.508423 
435.183533 1319.251953 
435.192139 3393.957031 
435.200775 13126.473633 
435.209381 30473.277344 
435.217987 49402.949219 
435.226593 53716.054688 
435.235199 35876.472656 
435.243835 17956.771484 
435.252441 4387.669922 
435.261047 811.427063 
469.211731 2009.897461 
469.221375 7374.466797 
469.231018 15588.93457 
469.240631 24260.744141 
469.250275 23842.689453 
469.259918 14657.512695 
469.269562 6051.820801 
469.279205 644.737244 
493.917053 2315.531982 
493.92746 4460.657227 
493.937866 5594.331543 
493.948273 4849.126953 
493.95871 2730.596924 
618.028381 2590.175781 
618.042969 4931.358398 
618.057495 6231.626953 
618.072083 5610.882324 
618.08667 3561.689209 
626.642578 2609.85376 
626.657471 4603.162109 
626.672302 5737.072266 
626.687195 5201.990723 
626.702087 3245.115479 
651.317749 2612.431885 
651.333496 4957.565918 
651.349243 6273.330566 
651.365051 5589.760742 
651.380798 3357.350098 
729.315552 1746.37207 
729.334229 4777.986328 
729.352905 8312.09668 
729.371582 10116.797852 
729.390259 8916.447266 
729.408936 5583.083008 
729.427612 2259.389404 
924.677795 3512.356445 
924.704468 5530.245117 
924.73114 6139.595215 
924.757812 5003.034668 
924.784485 2882.348389 
END IONS

