BEGIN IONS
PEPMASS=468.0
CHARGE=2+
MSLEVEL=2
SOURCE_INSTRUMENT=LC-ESI-qTof
FILENAME=1E1_468MH_RE1_01_9748.mzXML
SEQ=*..*
IONMODE=Positive
ORGANISM=GNPS-LIBRARY
NAME=Malyngamide T M+H
PI=Dorrestein/Gerwick
DATACOLLECTOR=Peng/Luzzatto/Garg
SMILES=CCCCCCC[C@@H](C\C=C\CCC(=O)NC\C(CC1=CC(OC)=CC(=O)O1)=C\Cl)OC
INCHI=InChI=1S/C25H38ClNO5/c1-4-5-6-7-9-12-21(30-2)13-10-8-11-14-24(28)27-19-20(18-26)15-23-16-22(31-3)17-25(29)32-23/h8,10,16-18,21H,4-7,9,11-15,19H2,1-3H3,(H,27,28)/b10-8+,20-18+/t21-/m0/s1
INCHIAUX=ABBPFXQJIWUCKF-CXRCMLCDSA-N
PUBMED=ChemSpider ID:27022899
SUBMITUSER=y6peng
LIBRARYQUALITY=2
SPECTRUMID=CCMSLIB00000072501
SCANS=2527
95.087761 232.0 
95.558136 200.0 
95.682648 172.0 
95.75856 228.0 
99.078026 208.0 
99.382271 224.0 
100.077667 304.0 
100.825424 244.0 
101.095299 188.0 
101.285423 204.0 
101.778587 208.0 
102.041695 212.0 
105.069839 284.0 
105.372452 200.0 
106.029045 168.0 
106.043388 228.0 
106.063385 284.0 
107.091911 252.0 
109.066071 204.0 
109.105331 188.0 
109.534065 276.0 
111.078232 204.0 
111.115974 224.0 
111.718689 296.0 
112.219734 220.0 
112.510765 260.0 
114.360619 316.0 
115.290131 196.0 
116.386475 200.0 
116.659218 212.0 
117.701591 204.0 
118.063988 552.0 
119.08651 208.0 
120.087082 192.0 
121.065994 772.0 
121.112556 168.0 
121.162918 212.0 
121.588142 200.0 
122.072197 432.0 
122.277969 168.0 
123.044777 240.0 
123.080086 192.0 
123.119156 416.0 
123.272186 172.0 
123.955696 196.0 
124.050957 204.0 
124.521179 212.0 
125.015099 556.0 
125.041222 228.0 
125.148033 188.0 
126.019783 180.0 
126.062225 176.0 
126.27005 216.0 
127.012772 208.0 
127.103073 260.0 
128.384796 240.0 
130.0168 380.0 
130.137802 248.0 
130.376221 184.0 
130.708099 232.0 
131.090515 168.0 
131.57843 200.0 
132.067261 256.0 
133.11879 216.0 
133.274933 228.0 
133.875076 180.0 
134.059738 204.0 
134.093857 220.0 
135.045639 204.0 
135.066269 212.0 
135.116394 240.0 
135.155716 212.0 
137.095123 176.0 
138.994965 316.0 
139.078796 220.0 
140.016541 212.0 
140.24028 176.0 
140.351028 252.0 
140.995331 188.0 
141.787735 256.0 
142.143311 176.0 
143.140472 208.0 
144.62088 236.0 
145.031952 172.0 
145.786011 184.0 
146.034988 372.0 
146.111206 188.0 
147.276764 168.0 
147.726196 184.0 
148.076981 220.0 
148.115768 200.0 
148.840332 208.0 
149.060455 1720.0 
149.530746 232.0 
149.835007 232.0 
150.067505 320.0 
150.092224 1588.0 
150.344833 188.0 
150.920685 172.0 
151.080383 200.0 
151.729019 184.0 
152.005371 220.0 
152.024994 224.0 
153.011032 788.0 
153.052109 200.0 
154.016251 228.0 
155.016083 408.0 
155.478668 248.0 
156.024918 184.0 
156.380493 180.0 
157.042511 1360.0 
157.107819 200.0 
158.074371 240.0 
158.75798 176.0 
159.04332 420.0 
161.133209 384.0 
161.163071 256.0 
162.055313 712.0 
162.160172 208.0 
163.040741 204.0 
164.044342 408.0 
164.070969 176.0 
164.433029 192.0 
164.609116 284.0 
165.050995 216.0 
166.085678 996.0 
166.960709 240.0 
167.031189 176.0 
167.07045 176.0 
167.885803 188.0 
168.04216 184.0 
168.977066 272.0 
170.007935 256.0 
170.532349 236.0 
171.024506 256.0 
171.278809 196.0 
171.479355 184.0 
173.971176 244.0 
174.065659 188.0 
174.100281 232.0 
174.231064 280.0 
174.286224 216.0 
176.07373 1164.0 
177.054855 12752.0 
177.306564 260.0 
177.843246 204.0 
178.060547 1492.0 
178.859711 212.0 
178.93689 168.0 
179.065613 476.0 
180.067352 192.0 
180.441025 172.0 
180.596054 224.0 
181.557175 196.0 
183.001007 204.0 
183.465485 216.0 
184.053421 284.0 
184.612564 220.0 
185.035934 3260.0 
186.041351 220.0 
186.070663 608.0 
186.159317 276.0 
186.289642 180.0 
187.033524 1368.0 
188.061523 240.0 
188.509308 244.0 
189.09433 240.0 
189.162064 788.0 
190.055817 236.0 
190.165543 260.0 
191.066498 212.0 
191.193024 208.0 
192.062469 288.0 
194.081253 3528.0 
195.019302 176.0 
195.083344 208.0 
195.78688 188.0 
196.090378 184.0 
196.921539 168.0 
197.094666 208.0 
197.762787 192.0 
198.028824 428.0 
198.076263 172.0 
198.827393 196.0 
199.036346 184.0 
200.027069 632.0 
204.355347 164.0 
204.617096 180.0 
205.158173 276.0 
205.308685 212.0 
205.456497 208.0 
206.101883 264.0 
206.162476 196.0 
207.174057 2124.0 
207.825516 216.0 
208.180756 164.0 
208.574768 228.0 
209.181473 200.0 
211.186081 180.0 
211.214996 176.0 
211.654724 184.0 
212.048172 2112.0 
212.112289 248.0 
212.738617 260.0 
212.810059 176.0 
212.85762 188.0 
212.967926 188.0 
213.031891 19048.0 
214.036102 2452.0 
215.029236 4844.0 
215.939682 192.0 
216.032364 840.0 
217.005173 200.0 
217.043076 172.0 
221.666443 208.0 
223.037033 216.0 
224.201477 416.0 
225.220261 228.0 
225.656387 200.0 
226.392197 192.0 
227.222153 228.0 
227.399124 172.0 
228.014572 208.0 
228.818787 208.0 
229.160614 192.0 
229.293152 180.0 
229.42572 168.0 
229.929245 172.0 
230.058853 20624.0 
230.883545 172.0 
231.060699 2984.0 
231.400772 172.0 
231.650452 268.0 
232.055817 5344.0 
232.593323 164.0 
233.059387 504.0 
236.198059 212.0 
238.395477 164.0 
238.456909 184.0 
239.453354 204.0 
239.921539 204.0 
240.421021 196.0 
240.701828 220.0 
241.297913 180.0 
246.008942 272.0 
250.860031 184.0 
251.945175 188.0 
253.767426 184.0 
255.764832 192.0 
258.032074 168.0 
258.060852 168.0 
259.815216 216.0 
260.06543 164.0 
260.209808 164.0 
260.534058 168.0 
261.144562 176.0 
262.77713 212.0 
263.748779 172.0 
269.887543 204.0 
270.512177 212.0 
273.573761 260.0 
277.205475 168.0 
279.635498 208.0 
282.139587 176.0 
284.456848 188.0 
289.180695 220.0 
289.688416 164.0 
291.356812 164.0 
294.243713 188.0 
295.897766 184.0 
296.061798 508.0 
297.069366 172.0 
298.067841 192.0 
299.34375 180.0 
299.402252 192.0 
301.181244 164.0 
302.643494 204.0 
303.180206 184.0 
303.318787 244.0 
303.689667 260.0 
304.984253 208.0 
305.046783 168.0 
305.217102 192.0 
305.470886 176.0 
307.634033 216.0 
307.805054 176.0 
308.573425 220.0 
311.358093 192.0 
311.730316 172.0 
312.099274 196.0 
313.087677 188.0 
313.358795 180.0 
313.961334 192.0 
314.141144 212.0 
315.146912 192.0 
315.383606 196.0 
317.215027 320.0 
318.202301 172.0 
319.861816 180.0 
321.689758 176.0 
324.128387 168.0 
324.232513 212.0 
325.321808 200.0 
326.115234 1292.0 
326.845093 164.0 
327.116333 324.0 
327.402832 252.0 
328.117279 624.0 
333.042755 228.0 
333.565765 260.0 
333.634827 208.0 
334.154694 168.0 
336.143341 164.0 
338.155731 192.0 
338.251312 208.0 
339.119049 188.0 
340.134674 188.0 
340.615509 200.0 
341.55246 288.0 
344.832703 164.0 
347.683319 248.0 
347.794617 172.0 
349.685699 188.0 
350.031799 192.0 
350.527008 180.0 
352.481567 188.0 
352.716919 204.0 
353.632935 172.0 
354.87616 180.0 
355.041077 180.0 
355.309296 180.0 
356.436981 260.0 
356.470795 184.0 
357.515808 228.0 
359.123901 212.0 
359.557587 256.0 
362.449371 216.0 
365.215851 236.0 
369.777283 180.0 
371.102203 260.0 
372.828857 192.0 
375.488068 208.0 
376.355988 240.0 
379.849335 176.0 
380.644623 180.0 
380.730042 168.0 
382.105499 184.0 
382.23703 348.0 
384.422974 264.0 
389.15741 176.0 
389.337952 228.0 
389.828827 188.0 
393.533936 176.0 
394.193329 172.0 
394.248627 180.0 
398.038147 228.0 
400.246948 1392.0 
401.249298 608.0 
401.422516 188.0 
401.482941 208.0 
402.269348 184.0 
402.803528 216.0 
402.971252 188.0 
403.43866 200.0 
406.325012 164.0 
407.392456 260.0 
407.593933 244.0 
409.237732 240.0 
409.273132 180.0 
410.249146 192.0 
411.163788 172.0 
411.744934 212.0 
412.443634 176.0 
413.486725 176.0 
415.114624 172.0 
415.252472 280.0 
415.548462 164.0 
416.221985 240.0 
416.812592 200.0 
418.005737 176.0 
418.213501 684.0 
419.215881 352.0 
419.81778 164.0 
420.209839 440.0 
421.560211 172.0 
422.348969 192.0 
422.504364 164.0 
424.772949 196.0 
425.314362 196.0 
426.513275 168.0 
427.816772 200.0 
428.5578 220.0 
430.029419 168.0 
431.715851 232.0 
431.759827 288.0 
431.999603 184.0 
432.231201 180.0 
432.384277 172.0 
432.727692 212.0 
433.899719 212.0 
434.090393 212.0 
434.347412 208.0 
434.745544 180.0 
435.064423 220.0 
435.160492 164.0 
435.226898 184.0 
435.268402 232.0 
435.305756 164.0 
435.417847 212.0 
435.805908 224.0 
435.870453 184.0 
435.970276 596.0 
436.11972 352.0 
436.146973 272.0 
436.226746 78744.0 
436.752136 304.0 
436.840607 228.0 
436.91153 796.0 
437.037384 208.0 
437.22998 30192.0 
437.336243 268.0 
437.496399 240.0 
437.783417 168.0 
437.864044 172.0 
437.928406 200.0 
438.097656 192.0 
438.141113 224.0 
438.170105 244.0 
438.224274 28988.0 
438.31369 240.0 
438.392517 172.0 
438.559204 188.0 
438.603668 172.0 
438.825958 180.0 
439.22641 7864.0 
439.374268 244.0 
439.670959 240.0 
439.929443 272.0 
440.230438 568.0 
442.265381 172.0 
442.970215 164.0 
443.112457 180.0 
444.804504 164.0 
445.043732 172.0 
447.140076 188.0 
450.242218 224.0 
462.199982 176.0 
463.298676 212.0 
463.933899 192.0 
464.255341 164.0 
464.323944 244.0 
465.249878 164.0 
465.306183 176.0 
466.235046 988.0 
466.616028 192.0 
467.093201 240.0 
467.236633 448.0 
468.160156 204.0 
468.251587 9420.0 
468.586426 176.0 
469.254639 2652.0 
469.368286 196.0 
470.248566 3876.0 
471.251495 876.0 
471.973267 168.0 
472.21405 188.0 
472.255219 488.0 
475.254456 168.0 
488.223999 164.0 
493.822876 172.0 
540.868286 176.0 
767.133789 180.0 
839.438171 172.0 
1242.282227 168.0 
1322.270996 252.0 
1323.226074 208.0 
1402.735107 168.0 
1440.873779 200.0 
1455.243164 216.0 
1470.965454 220.0 
1502.000366 268.0 
1502.902588 232.0 
1550.867676 200.0 
1587.181274 272.0 
1616.067749 192.0 
1625.511108 180.0 
1654.427002 204.0 
1658.540527 212.0 
1663.527222 192.0 
1664.087158 224.0 
1726.852417 204.0 
1736.829224 240.0 
1745.504517 248.0 
1827.165161 208.0 
1843.529907 232.0 
1859.693115 228.0 
1936.337158 240.0 
1951.96936 260.0 
1969.721436 180.0 
1973.069336 180.0 
END IONS

