BEGIN IONS
PEPMASS=409.4
CHARGE=0+
MSLEVEL=2
SOURCE_INSTRUMENT=LC-ESI-qTof
FILENAME=20130107_Ger_Jenia_Deoxyprepacifenol_MH409.4-qb.1.1..mgf
SEQ=*..*
IONMODE=Positive
ORGANISM=GNPS-LIBRARY
NAME=Deoxyprepacifenol M+H
PI=Gerwick
DATACOLLECTOR=Jenia
SMILES=CC1(C(=CC2C(C13CCC(C(C3)Br)(C)Cl)(O2)C)Br)C
INCHI=InChI=1S/C15H21Br2ClO/c1-12(2)9(16)7-11-14(4,19-11)15(12)6-5-13(3,18)10(17)8-15/h7,10-11H,5-6,8H2,1-4H3
INCHIAUX=N/A
PUBMED=N/A
SUBMITUSER=mwang87
LIBRARYQUALITY=1
SPECTRUMID=CCMSLIB00000001701
SCANS=1
294.336853 2452.0 
349.698181 13111.0 
391.887817 28534.0 
393.124634 22152.0 
END IONS

