BEGIN IONS
PEPMASS=593.2
CHARGE=0+
MSLEVEL=2
SOURCE_INSTRUMENT=LC-ESI-Ion Trap
FILENAME=Ger_Bailey_Gallinamide A_MH593.2-qb.1.1..mgf
SEQ=*..*
IONMODE=Positive
ORGANISM=GNPS-LIBRARY
NAME=Gallinamide A M+H
PI=Gerwick
DATACOLLECTOR=Bailey
SMILES=CC[C@H](C)[C@H](N(C)C)C(=O)O[C@@H](CC(C)C)C(=O)N[C@@H](CC(C)C)C(=O)N[C@@H](C)\C=C\C(=O)N1[C@@H](C)C(OC)=CC1=O
INCHI=InChI=1S/C31H52N4O7/c1-12-20(6)28(34(9)10)31(40)42-25(16-19(4)5)30(39)33-23(15-18(2)3)29(38)32-21(7)13-14-26(36)35-22(8)24(41-11)17-27(35)37/h13-14,17-23,25,28H,12,15-16H2,1-11H3,(H,32,38)(H,33,39)/b14-13+/t20-,21-,22-,23-,25-,28-/m0/s1
INCHIAUX=ASRBKZHDORPEHO-KYJIWOQOSA-N
PUBMED=N/A
SUBMITUSER=mwang87
LIBRARYQUALITY=1
SPECTRUMID=CCMSLIB00000001817
SCANS=1
175.104614 78838.0 
178.788422 36270.0 
180.75354 37216.0 
181.371521 37754.0 
190.068909 197609.0 
191.464233 56257.0 
192.880005 63365.0 
193.836792 281886.0 
194.495209 4.0 
207.078979 3404796.0 
207.997498 2375874.0 
209.004669 34513.0 
209.93895 171660.0 
213.478363 36010.0 
214.063095 129498.0 
224.164154 60382.0 
224.979782 4592097.0 
225.75798 32.0 
254.677277 66462.0 
255.841934 529516.0 
256.647705 5742.0 
274.134857 551285.0 
307.037506 1414638.0 
321.180969 13220.0 
327.480835 7637.0 
338.178284 133167.0 
339.400818 3930.0 
341.079254 12231170.0 
341.861786 99.0 
367.473755 43759.0 
368.342377 315392.0 
369.124207 58611624.0 
369.743805 18086.0 
370.255005 68315.0 
386.073761 88192.0 
406.263733 16778.0 
434.119446 2790520.0 
434.803192 8.0 
448.203064 52880.0 
452.130432 20214.0 
462.1745 105902.0 
464.975098 20459.0 
466.129639 6781906.0 
467.263947 18044.0 
478.91571 13214.0 
530.240723 517848.0 
530.908936 2.0 
565.497314 15427.0 
574.922119 12312.0 
END IONS

