BEGIN IONS
PEPMASS=1691.81
CHARGE=0+
MSLEVEL=2
SOURCE_INSTRUMENT=LC-ESI-Ion Trap
FILENAME=f.RReher/2264/Reference_spectra/Samholides/Samholide H/SamholideH_M+Na+1_iontrap_yiwen.mgf;
SEQ=*..*
IONMODE=Positive
ORGANISM=GNPS-LIBRARY
NAME=Samholide H M+Na
PI=Gerwick
DATACOLLECTOR=Ywen Tao
SMILES=C[C@H]1C[C@H](C[C@@H](O1)CC[C@H](C)[C@@H]([C@H](C)[C@@H]2C[C@@H](C[C@@H]([C@@H]([C@H](C[C@@H]3CC=C[C@H](O3)C[C@H](C/C=C(/C=C/C(=O)O[C@@H](C[C@@H](C[C@@H]([C@@H]([C@H](C[C@@H]4CC=C[C@H](O4)C[C@H](C/C=C(/C=C/C(=O)O2)\C)O[C@@H]5[C@H]([C@@H]([C@H](CO5)O)OC)O)OC)C)O)O)[C@@H](C)[C@H]([C@@H](C)CC[C@H]6C[C@@H](C[C@@H](O6)C)OC)O)\C)O[C@@H]7[C@H]([C@@H]([C@H](CO7)OC)OC)O)OC)C)O)O)O)OC
INCHI=
INCHIAUX=
PUBMED=
SUBMITUSER=RReher
LIBRARYQUALITY=3
SPECTRUMID=CCMSLIB00005467793
SCANS=1
481.296509 5689.0 
536.092285 1521.0 
550.054565 10727.0 
579.085327 3457.0 
593.267822 1220.0 
617.222412 8178.0 
632.500244 3378.0 
636.37793 9983.0 
639.274902 9081.0 
643.326172 5633.0 
703.014404 3066.0 
704.295288 17952.0 
832.512207 9337.0 
845.598267 3055.0 
846.59436 1979.0 
849.446045 63573.0 
850.336182 51303.0 
851.482056 20760.0 
852.406738 16260.0 
863.310791 76769.0 
864.456299 108862.0 
865.332397 15632.0 
866.0 1.0 
984.145508 5734.0 
1010.615112 5127.0 
1037.253906 7808.0 
1038.584717 2965.0 
1055.099609 7078.0 
1071.345215 1875.0 
1085.429688 5096.0 
1086.827881 3758.0 
1090.369629 4517.0 
1094.395996 2295.0 
1144.642822 5024.0 
1216.222656 608.0 
1220.523193 4618.0 
1231.430176 111476.0 
1232.472656 173023.0 
1233.422363 96860.0 
1234.780273 40625.0 
1260.679932 10352.0 
1290.147705 7214.0 
1297.106934 5325.0 
1300.779785 3741.0 
1307.631348 52339.0 
1308.696777 55825.0 
1309.65918 56622.0 
1310.74707 11706.0 
1317.73291 13605.0 
1321.413086 40324.0 
1322.516602 83848.0 
1323.609131 19016.0 
1324.53125 11581.0 
1330.532715 1908.0 
1347.549805 1501.0 
1360.762939 4751.0 
1375.361816 7818.0 
1376.722656 7792.0 
1377.826172 1282.0 
1392.02832 7585.0 
1404.636719 2810.0 
1419.452148 43620.0 
1420.723145 63554.0 
1421.415527 5136.0 
1435.464355 8572.0 
1449.291992 5739.0 
1458.952637 7475.0 
1460.544922 416.0 
1463.751953 4110.0 
1465.622803 10026.0 
1467.77832 13136.0 
1468.647949 3781.0 
1475.489746 25633.0 
1476.631348 81140.0 
1477.68457 49728.0 
1478.717773 1910.0 
1481.822266 11401.0 
1482.573486 8414.0 
1483.83252 5378.0 
1484.887207 4795.0 
1493.96875 3557.0 
1494.763916 7703.0 
1511.624268 21386.0 
1512.650391 36132.0 
1513.463867 6816.0 
1514.468018 4976.0 
1515.726807 25243.0 
1525.706543 31193.0 
1526.527344 15756.0 
1527.681152 12905.0 
1528.728516 19511.0 
1529.731934 33519.0 
1530.624023 32229.0 
1531.630859 26935.0 
1532.631104 6091.0 
1544.078369 35432.0 
1544.718994 26042.0 
1545.852783 34581.0 
1546.723633 17439.0 
1559.396973 10803.0 
1579.000244 1216.0 
1605.509277 10795.0 
1631.49292 1388.0 
1646.791016 18926.0 
1654.83374 6952.0 
1657.483154 8217.0 
1659.397461 4546.0 
1660.852539 8589.0 
1671.612305 13470.0 
1672.82373 61111.0 
1673.855713 44649.0 
1674.656006 19704.0 
1689.785889 3495669.0 
1690.730225 1715575.0 
1691.686035 382433.0 
1692.466553 1.0 
END IONS

