BEGIN IONS
PEPMASS=784.38
CHARGE=1+
MSLEVEL=2
SOURCE_INSTRUMENT=LC-ESI-Ion Trap
FILENAME=f.yuhaobing/microcolins Fedback/microcolin K.mzXML;
SEQ=*..*
IONMODE=Positive
ORGANISM=GNPS-LIBRARY
NAME=Microcolin K M+Na
PI=Gerwick
DATACOLLECTOR=Haobing Yu
SMILES=CN(C([C@H](C)C[C@H](C)CCCC)=O)[C@@H](CC(C)C)C(N[C@@H]([C@@H](C)OC(CC)=O)C(N(C)[C@@H](C(C)C)C(N1[C@H](C(N2C(C=C[C@@H]2C)=O)=O)C[C@H](O)C1)=O)=O)=O
INCHI=
INCHIAUX=
PUBMED=31468974
SUBMITUSER=yuhaobing
LIBRARYQUALITY=3
SPECTRUMID=CCMSLIB00005463468
SCANS=844
250.425537 6026.0 
282.174683 5443.0 
296.184937 2316.0 
304.425598 1140.0 
332.211243 2876.0 
342.206421 2987.0 
346.261597 22691.0 
347.314087 8423.0 
360.538208 20114.0 
364.960876 8280.0 
368.97229 10509.0 
373.139343 2328.0 
378.542908 5813.0 
387.010376 11942.0 
392.09967 1628.0 
400.759277 14161.0 
401.746948 18839.0 
405.219971 1860.0 
405.932678 1545.0 
409.824463 5140.0 
413.102356 635.0 
416.174255 9161.0 
417.331848 3592.0 
433.212402 1567.0 
439.27478 5739.0 
447.235107 5419.0 
450.197815 11830.0 
452.99469 7755.0 
460.604492 8539.0 
461.541626 4033.0 
464.43219 2804.0 
465.150391 3904.0 
472.46167 2018.0 
492.479919 8005.0 
500.474792 2374.0 
501.466064 6352.0 
503.566772 22174.0 
510.791931 3568.0 
513.079712 26396.0 
514.393677 6091.0 
532.220825 8883.0 
547.428223 2285.0 
555.369873 2023.0 
557.324219 1880.0 
569.442627 17019.0 
585.619873 944.0 
594.980957 4213.0 
595.645508 2508.0 
612.651367 1008.0 
613.422607 242162.0 
627.39978 62006.0 
628.306641 7144.0 
635.120728 5165.0 
637.281616 4413.0 
643.64502 30178.0 
656.236816 7655.0 
658.415283 16520.0 
659.353027 19121.0 
673.369629 114534.0 
686.509155 23703.0 
687.449585 2759654.0 
688.558472 105846.0 
698.00293 4264.0 
709.294678 84648.0 
710.487549 920177.0 
711.376343 42734.0 
723.46521 37684.0 
724.422974 313127.0 
725.401978 34970.0 
728.367554 3660.0 
729.492554 2157.0 
766.274048 4346.0 
783.51709 4989.0 
784.397339 19004.0 
END IONS

