BEGIN IONS
PEPMASS=993.529
CHARGE=1+
MSLEVEL=2
SOURCE_INSTRUMENT=LC-ESI-Orbitrap
FILENAME=f.RReher/Culebra/pure_compounds/993_LoggerpeptinA/LoggerpeptinA_MS2_M+H_QE.mgf;
SEQ=*..*
IONMODE=Positive
ORGANISM=GNPS-LIBRARY
NAME=Loggerpeptin A M+H
PI=Gerwick
DATACOLLECTOR=Raphael Reher
SMILES=C[C@@H](C(N[C@H](C(N[C@H]1[C@@H](C)OC([C@H](C(C)C)NC(C(CC2=CC=C(O)C=C2)N(C)C([C@H](CC3=CC=CC=C3)N4[C@H](O)CCC(NC([C@H](CC(C)C)NC1=O)=O)C4=O)=O)=O)=O)=O)[C@@H](O)C)=O)NC(CCC)=O
INCHI=
INCHIAUX=
PUBMED=
SUBMITUSER=RReher
LIBRARYQUALITY=3
SPECTRUMID=CCMSLIB00005723411
SCANS=1
78.53022 3871.519043 
78.530884 8672.102539 
78.53154 11660.328125 
78.532204 10899.31543 
78.53286 7151.277832 
80.048943 8110.310059 
80.049622 13107.598633 
80.050301 14263.275391 
80.05098 10518.418945 
80.051659 4644.861816 
86.093704 5482.177246 
86.09446 19854.001953 
86.095222 67553.554688 
86.095978 130472.960938 
86.096733 192676.078125 
86.097496 176001.125 
86.098251 108090.992188 
86.099007 44807.402344 
86.09977 9777.62207 
86.100525 3463.259766 
88.249466 7227.577637 
88.250252 11836.003906 
88.251038 13176.232422 
88.251831 10057.206055 
88.252617 4651.376465 
91.051689 1002.981689 
91.052513 12646.798828 
91.053337 31078.833984 
91.054161 51060.511719 
91.054985 54672.195312 
91.055809 36563.421875 
91.056633 18745.689453 
91.057457 5403.074707 
91.951607 5454.62207 
91.952446 21007.828125 
91.953278 24651.755859 
91.954117 14746.137695 
91.954948 4845.323242 
95.895248 4599.410645 
95.896141 10490.97168 
95.897034 14538.469727 
95.897919 13896.635742 
95.898811 9233.776367 
96.192543 8020.90332 
96.193436 12157.294922 
96.194328 13005.731445 
96.195229 10225.233398 
96.196121 5964.879883 
99.872452 4807.211914 
99.873405 10174.09082 
99.874352 13950.4375 
99.875298 13419.548828 
99.876244 8998.635742 
99.87719 3626.905029 
103.052498 5586.29541 
103.05349 11339.734375 
103.054482 15212.991211 
103.055473 14483.490234 
103.056465 9727.050781 
103.057457 4138.151367 
107.046677 8026.000488 
107.047729 16639.382812 
107.048782 24006.25 
107.049828 25249.005859 
107.05088 19499.40625 
107.051933 10635.142578 
107.052979 3708.656982 
112.109535 3743.812012 
112.110664 9915.196289 
112.111786 15259.158203 
112.112915 15901.283203 
112.114044 11442.37793 
112.115166 5241.679199 
113.068153 3849.45752 
113.06929 9692.493164 
113.070435 14302.246094 
113.071571 14407.985352 
113.072716 9885.731445 
113.073853 4027.290771 
114.086517 5450.927734 
114.087677 19724.529297 
114.088829 74186.09375 
114.089989 147642.546875 
114.091141 221414.578125 
114.0923 204949.1875 
114.093452 126620.429688 
114.094612 54156.019531 
114.095772 13785.836914 
114.096924 5680.563965 
119.046097 3742.097168 
119.047325 10250.607422 
119.048561 15648.387695 
119.049789 15509.445312 
119.051025 10013.594727 
119.052254 3722.780273 
120.070366 3488.022705 
120.071617 11504.610352 
120.072861 12709.009766 
120.074112 27885.6875 
120.075356 39159.945312 
120.076607 104517.234375 
120.077858 346887.1875 
120.079102 725462.1875 
120.080353 1130714.5 
120.081596 1152275.375 
120.082848 749222.625 
120.084099 364796.375 
120.085342 97597.757812 
120.086594 27640.294922 
120.087837 25245.148438 
120.089088 21464.042969 
120.09034 10920.004883 
120.091583 1208.673584 
135.063644 4765.644043 
135.065125 9924.453125 
135.06662 15088.795898 
135.068115 17221.791016 
135.069595 14709.939453 
135.071091 9090.072266 
136.107361 4310.475586 
136.108871 11855.334961 
136.110382 21963.982422 
136.111877 27692.849609 
136.113388 24663.060547 
136.114899 15213.205078 
136.116394 5816.059082 
139.080246 944.281372 
139.081802 8194.273438 
139.083359 28549.386719 
139.084915 52575.949219 
139.086472 73610.984375 
139.088028 62461.824219 
139.089584 36861.234375 
139.091125 13256.15625 
139.092682 812.695496 
141.059601 3607.026611 
141.061188 6479.537109 
141.062775 22200.496094 
141.064362 39128.105469 
141.065964 50224.441406 
141.067551 37970.5 
141.069138 21362.929688 
141.070724 5744.341797 
142.074127 11509.336914 
142.075745 12479.729492 
142.077347 16154.087891 
142.078949 16952.091797 
142.080566 48775.226562 
142.082169 177243.34375 
142.083771 381740.15625 
142.085373 601886.75 
142.08699 623579.25 
142.088593 409535.75 
142.090195 203322.203125 
142.091797 57163.84375 
142.093414 16932.541016 
142.095016 12633.31543 
142.096619 8278.880859 
142.098251 17076.558594 
146.387924 7063.864258 
146.389603 10778.825195 
146.391281 11879.814453 
146.392975 9598.367188 
146.394653 5352.431152 
150.076538 4719.183594 
150.078278 16962.03125 
150.080017 34500.703125 
150.081772 48739.410156 
150.083511 58107.292969 
150.085251 174624.515625 
150.08699 618159.5625 
150.088745 1280350.875 
150.090485 1987114.375 
150.092224 1988132.0 
150.093979 1281320.125 
150.095718 618730.3125 
150.097458 174083.8125 
150.099213 56649.332031 
150.100952 46005.730469 
150.102692 30871.121094 
150.104431 13493.962891 
150.106186 4947.685059 
155.077377 7125.739746 
155.079208 15450.641602 
155.081039 21403.253906 
155.08287 20338.228516 
155.084702 13015.907227 
155.086533 5061.243164 
157.09346 8375.458008 
157.095337 16249.916016 
157.097198 19234.066406 
157.09906 15014.660156 
157.100937 7183.83252 
158.080414 5.184865 
158.082306 7088.144531 
158.084198 8014.04248 
158.086075 7100.969727 
158.087967 6072.5625 
158.089767 19070.6875 
158.09166 71231.429688 
158.093536 147631.453125 
158.095428 228785.546875 
158.097305 229181.1875 
158.099197 147122.5625 
158.101074 70589.59375 
158.102966 18065.712891 
158.104858 1880.527344 
167.073349 26310.638672 
167.075409 104273.0625 
167.077454 306213.96875 
167.079498 520350.71875 
167.081543 655913.0625 
167.083603 496113.46875 
167.085648 285238.5 
167.087692 93465.234375 
167.089737 28161.427734 
167.091797 13059.385742 
167.093842 9948.506836 
167.095886 1049.336426 
169.127579 11429.428711 
169.129669 30465.802734 
169.131744 51018.789062 
169.133835 56113.195312 
169.135925 39126.054688 
169.138016 21454.78125 
169.140091 7821.112305 
169.142181 2538.59082 
170.087723 3687.560303 
170.089828 17365.587891 
170.091934 58596.441406 
170.09404 104574.507812 
170.096146 141062.875 
170.098251 112579.109375 
170.100357 65521.515625 
170.102463 22320.230469 
170.104568 5340.606445 
172.104492 2692.172607 
172.106628 14646.651367 
172.10878 33215.105469 
172.110916 53126.484375 
172.113052 54249.066406 
172.115204 34669.910156 
172.11734 15863.141602 
172.119476 3282.532227 
181.125992 5078.369629 
181.128311 17256.064453 
181.130615 33203.816406 
181.132935 48163.164062 
181.135239 41778.535156 
181.137558 23813.769531 
181.139862 7163.981445 
184.103271 9250.05957 
184.105637 15328.216797 
184.108017 17050.681641 
184.110382 12961.307617 
184.112747 6133.825684 
185.080795 510.147217 
185.083191 6906.277344 
185.085571 33881.875 
185.087967 83345.84375 
185.090347 137061.5625 
185.092743 153697.046875 
185.095123 106316.179688 
185.097519 56215.140625 
185.099899 16463.435547 
185.102295 4780.739746 
187.110855 4431.106445 
187.113281 14520.845703 
187.115707 55169.878906 
187.118134 170481.21875 
187.12056 295377.34375 
187.122986 389585.34375 
187.125412 307827.875 
187.127838 180565.203125 
187.130264 61666.820312 
187.132706 14599.235352 
187.135132 3874.775146 
187.137482 10101.638672 
187.139908 19237.1875 
187.142334 24199.833984 
187.14476 16926.992188 
187.147202 12678.175781 
187.149628 7107.825684 
197.118011 3761.811768 
197.120636 9203.179688 
197.12326 27396.8125 
197.125885 46674.105469 
197.12851 57226.742188 
197.131134 42610.992188 
197.133759 24145.615234 
197.136383 8043.130859 
197.139023 2614.197754 
197.252274 5360.138184 
197.254913 9671.90625 
197.257538 12143.376953 
197.260162 11262.393555 
197.262787 7485.22998 
198.085251 6737.716309 
198.087891 11857.929688 
198.09053 14907.181641 
198.093185 14039.110352 
198.095825 9977.788086 
198.098465 5193.15625 
209.118958 3136.496582 
209.121826 9170.996094 
209.124695 23987.566406 
209.127563 36818.367188 
209.130432 36187.308594 
209.133301 22605.466797 
209.136169 10029.762695 
209.139038 4088.353271 
215.092484 349.724182 
215.095474 11049.198242 
215.09848 19950.601562 
215.101471 26529.867188 
215.104462 30838.712891 
215.107452 92006.710938 
215.110443 327062.5625 
215.113434 676000.6875 
215.116425 1047220.5 
215.119415 1043763.9375 
215.122406 671896.0625 
215.125412 323180.03125 
215.128403 91117.445312 
215.131393 31796.601562 
215.134384 28654.552734 
215.137375 23443.544922 
215.140366 14261.136719 
215.143356 529.527527 
225.111328 5078.402344 
225.114517 25483.708984 
225.117722 59016.933594 
225.120926 95518.578125 
225.12413 100258.460938 
225.127335 65867.585938 
225.130539 32713.507812 
225.133743 9464.427734 
225.136948 2509.02832 
226.075974 3219.204102 
226.079193 16166.654297 
226.082428 32573.871094 
226.085648 48162.855469 
226.088867 42307.558594 
226.092087 24874.537109 
226.095322 9084.649414 
226.098541 3749.013916 
226.143295 4267.387695 
226.14653 21901.832031 
226.14975 43930.085938 
226.152985 65945.679688 
226.156204 61001.785156 
226.159424 37931.136719 
226.162659 16654.541016 
226.165878 3573.647949 
238.107407 3154.304199 
238.110886 17109.904297 
238.114365 32004.21875 
238.117859 44857.636719 
238.121338 38646.578125 
238.124832 24136.742188 
238.128311 7121.003906 
238.13179 2033.70752 
243.087387 4748.720703 
243.090988 12510.901367 
243.094574 13547.115234 
243.098175 34896.625 
243.101761 135513.078125 
243.105362 434207.5 
243.108963 753353.0625 
243.112549 985669.9375 
243.11615 769304.875 
243.119751 451613.9375 
243.123337 153098.765625 
243.126938 53355.945312 
243.130524 38159.199219 
243.134277 41389.804688 
243.137878 25898.6875 
243.141464 14313.28125 
249.14801 4884.32373 
249.151733 9758.898438 
249.155472 21866.5 
249.159195 33700.214844 
249.162918 29742.871094 
249.166656 12782.194336 
249.17038 4880.058105 
252.155319 5743.828613 
252.159119 28782.472656 
252.162918 94066.632812 
252.166718 164438.71875 
252.170517 216897.75 
252.174301 169870.65625 
252.178101 99065.117188 
252.1819 31918.939453 
252.185699 7225.083984 
252.189499 2512.371826 
261.110718 3208.969238 
261.114716 9713.319336 
261.118713 23447.75 
261.122711 35807.324219 
261.126709 32059.931641 
261.130707 18761.302734 
261.134705 6656.543945 
263.167786 8044.959473 
263.171814 16627.775391 
263.175873 21501.820312 
263.179932 19327.523438 
263.18399 12180.236328 
263.188019 5073.560059 
264.130096 9412.849609 
264.134186 17251.146484 
264.138245 21100.859375 
264.142303 18149.898438 
264.146393 10736.505859 
264.150452 4233.42334 
277.140472 4836.998047 
277.144836 10446.884766 
277.1492 22505.0625 
277.153595 34664.621094 
277.157959 32692.927734 
277.162354 15137.996094 
277.166718 7338.359375 
277.171082 2424.80249 
280.147644 2245.838135 
280.1521 16474.900391 
280.156555 43320.9375 
280.161011 72404.109375 
280.165436 80808.203125 
280.169891 55079.523438 
280.174347 28585.269531 
280.178802 9004.716797 
280.183228 4245.346191 
282.12619 3915.37207 
282.130676 7023.988281 
282.135162 24971.677734 
282.139679 46867.984375 
282.144165 67273.304688 
282.148651 59280.183594 
282.153168 35952.710938 
282.157654 14347.790039 
282.16214 2644.869873 
283.161896 3655.044678 
283.166412 15400.389648 
283.170929 51615.8125 
283.175446 92545.789062 
283.179962 124748.015625 
283.184479 99680.445312 
283.189026 57929.476562 
283.193542 19578.585938 
283.198059 3280.697754 
290.135254 5612.379395 
290.139923 14625.797852 
290.144623 24312.785156 
290.149292 28606.119141 
290.153992 24340.087891 
290.158691 14580.128906 
290.163361 5718.416016 
295.140167 4283.052246 
295.144989 9405.189453 
295.14978 31065.216797 
295.154602 100023.445312 
295.159393 186246.0 
295.164215 265799.53125 
295.169037 232741.234375 
295.173828 141058.28125 
295.17865 56351.253906 
295.183472 12160.344727 
295.188263 2078.011475 
298.160004 4112.460449 
298.164886 19219.132812 
298.169769 41360.9375 
298.174652 64995.878906 
298.179535 64138.773438 
298.184418 39648.863281 
298.189301 16897.941406 
298.194183 1615.358887 
308.114075 27920.75 
308.119232 117402.796875 
308.124359 189132.875 
308.129486 201150.578125 
308.134613 141312.453125 
308.13974 100947.773438 
308.14447 201013.9375 
308.149597 598225.3125 
308.154724 1033315.375 
308.159851 1348135.75 
308.164978 1051273.75 
308.170135 610573.0 
308.175262 193792.296875 
308.180389 49152.574219 
308.185516 16058.515625 
308.190643 12172.285156 
308.19577 521.564636 
311.152191 2100.422607 
311.157379 9428.112305 
311.162598 35635.921875 
311.167786 68768.164062 
311.173004 100218.101562 
311.178223 89594.726562 
311.183411 55254.703125 
311.188629 23600.708984 
311.193817 7058.539551 
311.199036 2288.986572 
326.135406 3430.200928 
326.140991 14574.233398 
326.146576 25181.890625 
326.152161 75507.109375 
326.157745 247437.015625 
326.16333 489118.5625 
326.168945 738225.4375 
326.17453 706956.8125 
326.180115 446485.1875 
326.185699 204899.0 
326.191284 53407.238281 
326.196869 14947.831055 
326.202454 13206.012695 
326.208038 8763.667969 
326.213196 18179.775391 
326.218781 774.609558 
328.178192 2153.770508 
328.183838 12556.041992 
328.189484 43692.679688 
328.195099 79558.648438 
328.200745 110116.710938 
328.20639 92180.6875 
328.212036 54777.101562 
328.217682 19999.666016 
328.223297 3494.380615 
332.178345 4325.29541 
332.184113 11882.552734 
332.18985 20420.472656 
332.195587 24194.439453 
332.201324 20150.169922 
332.207062 11290.561523 
332.21283 3956.320068 
339.160217 7242.367676 
339.166168 13236.307617 
339.172089 15315.501953 
339.178009 11906.943359 
339.183929 5755.94873 
344.161713 4551.793945 
344.167786 11343.74707 
344.173828 18150.070312 
344.179901 20770.408203 
344.185944 17388.142578 
344.192017 10411.775391 
344.198059 4103.243652 
350.186584 4617.962891 
350.19278 12301.701172 
350.199005 21626.494141 
350.205231 27076.162109 
350.211426 25123.996094 
350.217651 17352.320312 
350.223877 8638.972656 
356.173187 4705.026367 
356.179565 18973.238281 
356.185944 45716.652344 
356.192322 74483.179688 
356.1987 82606.640625 
356.205078 55889.613281 
356.211456 28296.888672 
356.217834 7253.310547 
356.224213 1455.322998 
367.211151 3689.86792 
367.217804 10329.925781 
367.224487 25156.923828 
367.231171 35094.828125 
367.237854 28983.847656 
367.244507 16465.320312 
367.25119 5719.233398 
393.21756 1328.178589 
393.224945 8421.075195 
393.232361 31400.748047 
393.239746 60827.335938 
393.247131 88548.179688 
393.254547 78646.117188 
393.261932 47798.441406 
393.269318 19376.34375 
393.276733 4614.335938 
395.214569 8226.600586 
395.222046 13026.602539 
395.229492 14650.652344 
395.236938 11708.423828 
395.244385 6100.007324 
405.346558 7610.751953 
405.354279 12742.191406 
405.36203 14801.557617 
405.369781 12557.728516 
405.377502 7639.802734 
411.230774 7064.12793 
411.238678 11137.701172 
411.246582 14233.922852 
411.254517 14966.915039 
411.262421 12485.955078 
411.270325 7605.88916 
420.12088 3324.483643 
420.129059 10831.0625 
420.137238 12429.375 
420.145386 25171.160156 
420.153564 33470.71875 
420.161743 91726.984375 
420.169891 311314.3125 
420.17807 691488.0 
420.186249 1103691.125 
420.194397 1192968.625 
420.202576 805434.6875 
420.210754 414851.40625 
420.218933 116009.179688 
420.227081 27716.703125 
420.23526 17033.478516 
420.243439 13135.277344 
420.251617 5206.941895 
421.217133 3584.836426 
421.225342 9798.674805 
421.233551 22919.671875 
421.24176 35334.394531 
421.249939 33070.609375 
421.258148 20332.15625 
421.266357 7015.871582 
421.274536 2041.516113 
422.186371 4268.716309 
422.194611 10292.994141 
422.20282 15491.859375 
422.21106 16006.450195 
422.219299 11331.467773 
422.227509 4798.033203 
439.1987 5808.540527 
439.207428 8547.058594 
439.216156 12082.837891 
439.224884 32449.457031 
439.233643 103854.179688 
439.242371 209502.71875 
439.251099 321833.125 
439.259827 320748.4375 
439.268555 205319.40625 
439.277283 96589.28125 
439.286011 22004.980469 
439.294769 2667.836914 
445.256958 4040.311523 
445.265869 11207.360352 
445.27478 17856.037109 
445.283691 19251.230469 
445.292603 14457.561523 
445.301514 7254.54541 
488.229706 5490.400391 
488.23996 11216.036133 
488.250183 14663.358398 
488.260406 13476.436523 
488.27063 8701.979492 
494.260651 8333.553711 
494.271057 15403.158203 
494.281494 17406.453125 
494.291931 13055.136719 
494.302338 6224.807617 
519.245605 7384.473145 
519.256836 13095.24707 
519.268066 14622.257812 
519.279236 11033.355469 
519.290466 5272.118652 
522.243713 6033.868164 
522.255066 13310.676758 
522.266357 17745.033203 
522.27771 16151.759766 
522.289001 10001.878906 
533.226562 4497.144531 
533.23822 8148.563965 
533.249939 27288.978516 
533.261597 53633.292969 
533.273254 79716.929688 
533.284973 72191.65625 
533.296631 43507.523438 
533.30835 17143.097656 
533.320007 2999.158447 
537.24115 5525.916992 
537.252991 12442.362305 
537.264771 16817.550781 
537.276611 14998.476562 
537.288391 8420.388672 
602.290466 6038.202637 
602.304504 11319.394531 
602.318481 14401.183594 
602.33252 13145.806641 
602.346558 8426.630859 
705.374023 5582.42041 
705.391846 12801.130859 
705.409607 17586.962891 
705.427368 16495.992188 
705.445129 10617.081055 
715.305969 3370.230225 
715.324097 7910.741699 
715.342224 26146.548828 
715.360413 46045.027344 
715.37854 59658.683594 
715.396667 45312.960938 
715.414856 25441.128906 
715.432983 7059.368652 
733.32959 4463.941895 
733.34845 10711.274414 
733.367249 17420.4375 
733.386108 33559.03125 
733.404907 18392.365234 
733.423767 12161.547852 
733.442627 5757.568359 
834.353455 4298.442383 
834.376282 17925.332031 
834.39917 40777.757812 
834.421997 65446.945312 
834.444885 70286.820312 
834.467773 46931.222656 
834.490601 24061.777344 
834.513489 6458.974609 
END IONS

