BEGIN IONS
PEPMASS=1011.48
CHARGE=1+
MSLEVEL=2
SOURCE_INSTRUMENT=LC-ESI-Orbitrap
FILENAME=f.RReher/Culebra/pure_compounds/989/Rivulariapeptolide989_M+Na_MS2_QE.mgf;
SEQ=*..*
IONMODE=Positive
ORGANISM=GNPS-LIBRARY
NAME=Rivulariapeptolide 988 M+Na
PI=Gerwick
DATACOLLECTOR=Raphael Reher
SMILES=CC(C)[C@H](NC([C@H](CC1=CC=C(O)C=C1)N(C)C([C@H](CC2=CC=CC=C2)N3[C@H](O)CC[C@H](NC(/C(NC4=O)=C\C)=O)C3=O)=O)=O)C(O[C@H](C)[C@@H]4NC([C@H]([C@@H](O)C)NC(C5CCCN5C(CCC)=O)=O)=O)=O
INCHI=
INCHIAUX=
PUBMED=
SUBMITUSER=RReher
LIBRARYQUALITY=3
SPECTRUMID=CCMSLIB00005723394
SCANS=1
76.534775 2485.081299 
76.535416 5481.42334 
76.536049 9342.541992 
76.536682 12343.544922 
76.537315 12934.833984 
76.537949 10698.117188 
76.538589 2595.380615 
76.539856 419.092194 
76.540489 7537.320312 
76.54113 15030.586914 
76.541763 21500.349609 
76.542397 16725.316406 
76.54303 8672.711914 
76.543671 2673.830811 
76.544304 3568.948242 
76.544937 6993.686523 
76.545578 8587.301758 
76.546211 5868.553711 
76.546844 1783.684814 
135.050323 3727.228271 
135.051804 7351.614258 
135.053299 9094.697266 
135.054779 7647.845215 
135.056274 4224.865723 
140.104767 4948.64209 
140.106339 7991.135254 
140.10791 8968.396484 
140.109482 7370.922852 
140.111053 4405.211914 
150.085327 2230.075439 
150.087082 6518.089844 
150.088821 16329.267578 
150.090561 27133.052734 
150.092316 30593.015625 
150.094055 20600.720703 
150.095795 10142.275391 
150.097549 2169.074707 
162.083679 2474.125488 
162.085632 6913.640625 
162.087601 12576.148438 
162.089554 14979.255859 
162.091507 12076.006836 
162.09346 6217.504883 
162.095428 1462.328613 
190.078293 3515.657715 
190.08078 8477.961914 
190.083267 12793.363281 
190.085754 13507.075195 
190.088242 10242.080078 
190.090729 5372.155273 
190.093201 1678.854004 
199.965515 2926.093994 
199.968201 5433.842285 
199.970886 6941.083496 
199.973572 6372.025879 
199.976242 4063.188965 
207.103012 2820.821045 
207.105835 6419.05957 
207.108658 9724.008789 
207.111496 10710.879883 
207.114319 8660.998047 
207.117142 4920.298828 
213.163757 3140.110107 
213.166718 5797.775879 
213.169662 6925.132812 
213.172607 5621.158691 
213.175568 2823.151611 
215.113541 4531.555664 
215.116531 7976.942871 
215.119522 9008.550781 
215.122528 6715.262207 
215.125519 2847.67627 
219.103363 2933.165039 
219.10643 6008.85498 
219.109512 7929.545898 
219.112579 7398.209473 
219.115662 4888.681152 
247.134979 3879.33374 
247.138657 6708.738281 
247.142349 8031.290527 
247.146027 6815.030273 
247.149719 3885.445557 
263.127441 3564.334473 
263.13147 8246.896484 
263.135529 12234.043945 
263.139587 12536.728516 
263.143616 8846.204102 
263.147675 3891.33667 
283.094421 4615.430176 
283.098938 9974.299805 
283.103455 14499.71875 
283.107971 14925.490234 
283.112488 10913.709961 
283.117004 5384.623535 
283.121521 1514.296509 
304.146606 1484.245239 
304.151642 3971.077148 
304.156677 8128.108398 
304.161682 15730.584961 
304.166718 17145.207031 
304.171753 8175.796387 
304.176788 3672.07251 
304.181824 808.818665 
306.092834 3255.867188 
306.097931 5609.963867 
306.102997 6541.168945 
306.108093 5420.109375 
306.113159 3229.53833 
306.123322 2077.930176 
306.128418 4344.537598 
306.133484 7412.213379 
306.13858 10423.755859 
306.143646 17487.519531 
306.148743 12956.950195 
306.153809 6863.843262 
306.158905 621.872314 
306.169067 7017.892578 
306.174133 15657.689453 
306.17923 22011.847656 
306.184296 15291.095703 
306.189392 6615.398438 
306.194458 2156.500244 
342.364319 3273.349609 
342.370331 5464.550293 
342.376343 6649.698242 
342.382355 6273.111328 
342.388367 4605.017578 
345.017395 3194.793213 
345.023468 5434.831055 
345.029541 6596.272461 
345.035614 5953.223145 
345.041687 3866.211426 
346.15686 2715.054199 
346.162994 6126.36377 
346.169098 8587.849609 
346.175201 8144.616211 
346.181305 4980.397949 
348.175385 2498.422852 
348.181549 6091.331543 
348.187714 9522.887695 
348.193878 10133.50293 
348.200043 7457.623535 
348.206207 3415.292236 
357.170197 2884.979004 
357.176605 7514.061523 
357.182983 15030.706055 
357.189392 21657.267578 
357.195801 18275.316406 
357.202209 10803.680664 
357.208618 3556.154785 
366.125824 3390.066895 
366.132477 7625.087891 
366.13913 11197.878906 
366.145782 11766.374023 
366.152405 8966.96582 
366.159058 4714.93457 
368.603546 3891.796631 
368.61026 6692.22998 
368.616974 7538.358887 
368.623688 5840.591309 
368.630402 2922.732666 
384.133423 2904.104248 
384.140564 6885.977539 
384.147705 10999.804688 
384.154846 12185.269531 
384.161987 9343.639648 
384.169128 4520.248535 
385.161621 6976.649414 
385.168793 29644.408203 
385.175964 54530.011719 
385.183136 74785.828125 
385.190308 60930.492188 
385.197479 36236.488281 
385.204651 13854.40918 
385.211823 4744.931641 
385.218994 2126.513428 
410.110107 4455.801758 
410.117981 8758.286133 
410.125854 11915.280273 
410.133728 11406.700195 
410.141632 7395.17041 
410.149506 2629.998535 
413.151855 2035.879272 
413.159821 5391.53418 
413.167786 13956.457031 
413.175751 23261.703125 
413.183716 25857.328125 
413.191681 17809.228516 
413.199646 9556.294922 
413.207611 2859.845215 
429.18396 1403.505127 
429.192413 4289.255371 
429.200836 11410.865234 
429.209259 18472.583984 
429.217712 19644.783203 
429.226135 13321.09668 
429.234558 5008.318359 
429.243011 1650.619263 
439.180115 5102.183105 
439.188843 7844.095215 
439.197571 8284.791992 
439.206299 5980.356934 
439.215027 2625.105469 
457.174194 1102.67688 
457.183441 7939.825684 
457.192719 17724.794922 
457.201996 28315.625 
457.211273 28377.849609 
457.220551 18038.804688 
457.229828 8299.228516 
457.239105 1843.777832 
467.172577 4083.582031 
467.182159 7823.845215 
467.191742 10047.09668 
467.201324 8956.993164 
467.210907 5330.424316 
537.726074 3064.270752 
537.737854 5682.105469 
537.749695 6979.263184 
537.761536 6120.884766 
537.773376 3743.360107 
559.22467 3118.958496 
559.237183 7289.308594 
559.249756 10105.40332 
559.262268 9596.136719 
559.274841 6302.253418 
559.287354 2689.662598 
567.762878 4719.469727 
567.775696 7498.287109 
567.788513 8375.97168 
567.801392 6875.374023 
567.814209 3957.89209 
645.274536 2944.938721 
645.2901 6642.988281 
645.305603 8621.208008 
645.321167 7439.310547 
645.336731 4179.567383 
660.25354 3503.655762 
660.269653 8594.019531 
660.285767 14102.326172 
660.301819 16206.499023 
660.317932 13257.745117 
660.334045 7417.64502 
660.350098 2394.807373 
691.267761 4796.069336 
691.284973 9366.936523 
691.302246 11937.001953 
691.319458 10741.823242 
691.336731 6733.467285 
691.353943 2511.496338 
735.292847 5807.172363 
735.311768 10344.105469 
735.330688 12555.702148 
735.349548 10729.883789 
735.368469 6185.757812 
735.38739 2151.393799 
894.348083 3503.183594 
894.373413 7016.174316 
894.398804 8838.873047 
894.424194 7681.283203 
894.449524 4532.322266 
949.489319 3020.615479 
949.51709 6379.692383 
949.5448 7799.151855 
949.572571 6319.620117 
949.600342 3363.091553 
956.044434 4917.397949 
956.072449 7895.085938 
956.100525 9167.818359 
956.12854 7763.12207 
956.156616 4526.824707 
1011.327087 2494.993652 
1011.357605 6794.353516 
1011.388123 23561.966797 
1011.41864 69621.609375 
1011.449158 118714.273438 
1011.479675 152422.703125 
1011.510132 116751.78125 
1011.540649 67266.539062 
1011.571167 20423.5625 
1011.601685 3268.172607 
END IONS

