BEGIN IONS
PEPMASS=825.451
CHARGE=1+
COMPOUNDNAME=MoNA:776487 Nodularin
LIBRARYQUALITY=3
SMILES=N/A
INCHIKEY=IXBQSRWSVIBXNC-HSKGSTCASA-N
INCHI=InChI=1S/C41H60N8O10/c1-8-31-38(54)48-34(40(57)58)26(5)36(52)46-29(15-12-20-44-41(42)43)37(53)45-28(25(4)35(51)47-30(39(55)56)18-19-33(50)49(31)6)17-16-23(2)21-24(3)32(59-7)22-27-13-10-9-11-14-27/h8-11,13-14,16-17,21,24-26,28-30,32,34H,12,15,18-20,22H2,1-7H3,(H,45,53)(H,46,52)(H,47,51)(H,48,54)(H,55,56)(H,57,58)(H4,42,43,44)/b17-16+,23-21+,31-8-/t24-,25-,26-,28-,29-,30+,32-,34+/m0/s1
MSLEVEL=2
SOURCE_INSTRUMENT=LC-ESI-QFT-LC-ESI-QFT
FILENAME=output_mgf.mgf
SEQ=*..*
IONMODE=
ORGANISM=MONA
NAME=MoNA:776487 Nodularin [M+H]+
PI=MoNA
DATACOLLECTOR=MoNA
PUBMED=N/A
SUBMITUSER=mwang87
TAGS=
SPECTRUMID=CCMSLIB00000574381
SCANS=11632
58.0652 0.167165 
59.0478 0.201634 
60.0557 2.407563 
65.0386 0.186929 
67.0542 0.131501 
68.0493 0.806617 
69.0335 1.912755 
70.0651 81.592212 
71.0491 0.531353 
72.0807 1.074205 
74.0599 0.105548 
77.0385 0.530374 
79.0542 3.0496 
80.0493 0.104779 
81.0697 0.314684 
82.0651 0.277732 
83.049 0.608804 
84.0444 7.966831 
85.0284 0.181311 
85.0762 0.20542 
86.0601 0.594252 
87.0791 1.23407 
91.0542 9.023445 
93.0698 9.550891 
94.0652 0.425041 
95.0491 2.318256 
95.0604 1.414847 
95.0855 1.242488 
96.0445 0.539384 
96.0808 0.673729 
97.076 3.077241 
98.0601 2.989898 
100.0756 0.441706 
100.0871 0.16485 
102.0549 0.167812 
103.0542 26.046527 
105.0699 24.975057 
107.0855 40.632617 
108.0806 0.247792 
109.0649 0.971632 
109.0763 0.123385 
110.0599 0.201372 
110.0964 0.21327 
112.0869 18.828648 
113.0232 0.4517 
113.0709 5.92928 
114.0549 0.244332 
114.1026 3.724665 
115.0542 2.999777 
115.0866 13.707854 
116.0705 4.265921 
117.0699 12.038435 
119.0855 1.59427 
120.0569 0.772856 
120.0808 2.886953 
121.0647 0.236993 
121.101 0.967512 
122.0964 0.186181 
124.0757 2.832169 
124.0871 0.154328 
124.112 1.2353 
125.0709 3.874197 
126.055 1.184483 
126.0661 0.501867 
126.0913 1.466992 
127.0865 1.411987 
127.0978 0.153513 
127.123 0.256075 
128.0818 0.150906 
129.0698 0.606902 
129.1134 0.126193 
130.0499 3.50015 
130.0975 2.01802 
131.0856 2.277557 
132.0808 0.237291 
132.1132 0.171671 
133.0646 0.208684 
133.1012 1.384823 
135.0804 100.0 
135.1167 33.612061 
136.0756 1.68323 
136.0836 0.190911 
137.1074 0.818856 
138.0661 0.179886 
138.0912 0.845555 
139.0976 2.031472 
139.1229 0.277958 
140.0703 0.653548 
140.0817 4.984224 
141.0656 3.839178 
142.0861 0.253379 
142.0976 0.116851 
143.0857 1.323793 
145.1012 2.445227 
146.0965 0.434639 
146.1087 0.427064 
147.0807 0.202758 
147.0917 0.135098 
147.1166 0.16861 
150.0913 0.427916 
150.1024 0.138903 
151.0864 0.553379 
152.0706 7.103674 
153.0656 0.385036 
153.1022 2.94622 
154.0863 1.093494 
155.0925 0.274108 
155.1177 1.174033 
156.1245 1.270143 
157.1083 10.018102 
158.0922 1.956158 
159.1167 0.648497 
161.0962 1.029766 
162.1027 0.582208 
163.0865 4.259913 
163.1116 16.923768 
164.0705 0.940749 
164.118 0.62745 
165.1022 1.895217 
166.0861 1.253308 
167.086 0.190223 
169.1011 0.189948 
170.081 1.389794 
170.1287 0.158836 
171.0759 0.434656 
171.113 0.965683 
172.0713 0.127446 
172.1119 1.037168 
173.0961 0.47461 
174.1349 8.453612 
175.1188 2.057826 
176.1069 0.124144 
176.1431 0.173506 
178.0972 0.703712 
178.1224 0.209531 
179.0813 0.207402 
180.1131 2.131242 
181.097 16.284937 
182.0811 2.808811 
182.1036 2.278649 
182.1285 1.266293 
183.0875 2.555445 
183.1126 6.711579 
184.0967 0.263576 
186.0912 0.842466 
188.107 0.65257 
190.0976 0.412551 
190.1225 0.449026 
191.0814 0.151217 
192.1131 0.642982 
195.1165 1.25231 
195.1243 0.704526 
196.1077 0.625741 
197.0921 0.142667 
197.107 0.178526 
198.1232 1.938383 
199.1075 2.938458 
200.1139 10.531563 
201.098 3.876143 
201.1268 0.466936 
204.1382 0.446773 
205.1088 0.135307 
205.1338 0.169161 
206.0925 1.169046 
207.0761 0.676779 
207.1241 0.208255 
208.1081 1.980602 
209.092 15.296857 
209.1321 1.214122 
210.076 2.484672 
210.1242 0.218658 
211.1071 0.253665 
212.1506 0.632551 
213.1344 2.413786 
214.1339 0.206161 
217.1336 0.456496 
218.1536 0.907866 
220.1441 0.252533 
223.1184 1.592792 
224.1028 1.114785 
224.1505 0.66046 
225.0871 2.604349 
225.1344 1.642109 
226.1184 5.307964 
226.1586 1.20617 
227.1024 32.818338 
228.0865 1.631847 
228.138 0.551068 
232.1698 0.248731 
237.1238 0.79125 
237.1635 2.049256 
240.1451 0.760614 
241.1294 0.604118 
242.1609 0.576129 
244.1284 1.207388 
245.1131 0.174921 
246.1236 0.24844 
246.1488 1.864447 
248.139 0.251368 
249.1231 0.741281 
250.1298 0.522031 
250.1555 0.485933 
251.1141 0.884672 
252.0976 0.802107 
253.0816 9.500639 
255.1452 0.577365 
257.1727 0.315898 
258.1565 1.098297 
263.1865 0.611973 
267.1345 0.156306 
268.14 1.169033 
269.1242 1.924035 
280.213 1.041117 
282.1849 0.894105 
283.1289 0.853233 
285.1672 1.520359 
286.1506 0.718766 
291.1453 0.236442 
292.1286 1.025759 
293.1132 0.182034 
293.1608 0.32554 
295.1287 0.674944 
295.1762 0.618653 
303.1776 1.009671 
310.1386 0.243106 
319.2133 0.495634 
320.1716 0.644024 
322.1874 1.131072 
323.1715 1.572936 
338.1351 0.7243 
338.1828 0.250065 
339.1185 0.919664 
341.1813 0.154023 
348.167 0.259683 
356.2409 0.134689 
365.1954 0.139487 
366.1771 2.615948 
389.2066 0.561273 
406.2086 0.202766 
409.257 0.242286 
449.216 0.146723 
467.2299 0.138918 
488.3229 0.136505 
END IONS

