BEGIN IONS
PEPMASS=1397.96
CHARGE=0+
MSLEVEL=2
SOURCE_INSTRUMENT=LC-ESI-Ion Trap
FILENAME=f.RReher/2264/Reference_swinholide/SwinholideC_G_Iontrap_M+Na.mgf;
SEQ=*..*
IONMODE=Positive
ORGANISM=GNPS-LIBRARY
NAME=Swinholide C/G M+Na
PI=Gerwick
DATACOLLECTOR=RReher
SMILES=COC1CC(OC(C1)CCC(C(C(C2OC(/C=C/C(C)=C/CC(CC3OC(CC(C(C(CC(C(C(C(C(C(CCC4CC(CC(O4)C)O)C)O)C)OC(/C=C/C(C)=C/CC(CC5OC(CC(C(C(CC(C2C)O)O)C)OC)CC=C5)O)=O)C)O)O)C)OC)CC=C3)O)=O)C)O)C)C
INCHI=
INCHIAUX=
PUBMED=
SUBMITUSER=RReher
LIBRARYQUALITY=3
SPECTRUMID=CCMSLIB00005466096
SCANS=1
433.227234 23440.0 
463.507385 8151.0 
477.135864 1679.0 
481.235718 15255.0 
482.220825 519.0 
494.909058 6445.0 
495.625671 14495.0 
503.168945 2742.0 
591.320679 976.0 
641.176758 12037.0 
655.287842 8307.0 
656.592773 5214.0 
665.771973 2515.0 
675.394531 2936.0 
678.575317 2864.0 
681.375244 13994.0 
685.345703 24492.0 
695.773438 16426.0 
699.389771 6914.0 
700.211426 8361.0 
703.304199 266870.0 
704.430908 29263.0 
709.465576 7935.0 
710.462402 5485.0 
711.228638 1924.0 
717.33667 306481.0 
718.512207 19221.0 
725.143677 14400.0 
736.832764 1805.0 
738.438599 1216.0 
753.779419 6102.0 
789.573975 4765.0 
830.547607 2888.0 
846.95874 1885.0 
847.725952 9298.0 
863.543457 4324.0 
891.630371 21105.0 
899.431641 9349.0 
905.490234 37315.0 
909.444336 14750.0 
910.376709 9018.0 
922.204224 13345.0 
923.273926 2270.0 
925.584229 155431.0 
926.415039 62045.0 
938.573242 4352.0 
939.638306 147258.0 
940.244995 17005.0 
940.88562 8820.0 
961.250732 8756.0 
1065.684326 22609.0 
1068.429199 13551.0 
1069.523193 24398.0 
1070.686768 1439.0 
1083.451172 14928.0 
1084.865234 4727.0 
1094.803711 12647.0 
1097.649414 14005.0 
1109.601318 5753.0 
1111.331543 3075.0 
1112.752686 18654.0 
1113.587402 178856.0 
1114.621338 16666.0 
1117.694824 8056.0 
1121.156738 1955.0 
1125.361816 9406.0 
1126.851562 16965.0 
1127.628418 158171.0 
1128.637695 27211.0 
1142.891602 6761.0 
1143.550293 9273.0 
1147.619141 25157.0 
1148.655273 8096.0 
1161.607666 2909.0 
1165.127441 9480.0 
1165.772949 19739.0 
1168.005859 9793.0 
1174.663818 7481.0 
1175.780273 319055.0 
1176.707764 36672.0 
1177.925781 3876.0 
1179.631836 30819.0 
1181.864746 4068.0 
1183.453613 29623.0 
1185.140137 12638.0 
1197.387695 29678.0 
1198.183594 32010.0 
1237.483398 2732.0 
1238.569824 7835.0 
1252.561035 1912.0 
1259.031982 2729.0 
1271.405518 13527.0 
1285.53833 5458.0 
1299.827881 8453.0 
1317.729492 1076.0 
1323.154053 4898.0 
1326.886719 1379.0 
1329.868164 15655.0 
1335.957275 46113.0 
1336.900879 14680.0 
1348.934814 5163.0 
1352.717041 2604.0 
1353.67749 1438.0 
1354.736572 2375.0 
1361.561523 44845.0 
1362.569092 8368.0 
1364.933105 13059.0 
1378.384277 7741.0 
1379.469482 98332.0 
1380.456055 82566.0 
1381.144043 14280.0 
1397.38916 1730.0 
1398.875244 11526.0 
END IONS

