BEGIN IONS
PEPMASS=1186.63
CHARGE=1+
MSLEVEL=2
SOURCE_INSTRUMENT=LC-ESI-Orbitrap
FILENAME=f.RReher/Culebra/pure_compounds/1186/Rivulariapeptolide1185_MS2_M+H_5.53_QE.mgf;
SEQ=*..*
IONMODE=Positive
ORGANISM=GNPS-LIBRARY
NAME=Rivulariapeptolide 1185 M+H
PI=Gerwick
DATACOLLECTOR=Raphael Reher
SMILES=CC(C)[C@H](NC([C@H](CC1=CC=C(O)C=C1)N(C)C([C@H](CC2=CC=CC=C2)N3[C@H](O)CC[C@H](NC(C(CC(C)C)NC4=O)=O)C3=O)=O)=O)C(O[C@H](C)[C@@H]4NC([C@H]([C@@H](OC(C5N(C(CCC)=O)CCC5)=O)C)NC(C6CCCN6C(CCC)=O)=O)=O)=O
INCHI=
INCHIAUX=
PUBMED=
SUBMITUSER=RReher
LIBRARYQUALITY=3
SPECTRUMID=CCMSLIB00005723387
SCANS=1
84.045128 77368.640625 
86.097008 242088.53125 
91.054779 172805.25 
91.951706 186671.03125 
120.081169 2489330.75 
121.065544 60664.863281 
130.022858 68851.15625 
131.515289 59342.03125 
136.076111 216223.296875 
136.111679 90858.648438 
140.107193 12965914.0 
146.095383 84290.179688 
150.091583 4313112.5 
153.102829 184812.1875 
158.096344 434758.5 
168.102188 12188684.0 
170.09697 425023.53125 
172.112717 162172.0625 
173.495682 59207.480469 
174.266937 64200.144531 
181.097351 565395.1875 
186.049332 76439.75 
186.112106 100412.648438 
187.12352 726892.625 
195.076797 96399.140625 
215.118286 2047013.0 
215.138901 122922.296875 
223.144409 2899372.75 
226.085632 74539.992188 
241.15477 688501.875 
243.113144 1595467.25 
251.139297 2135344.75 
264.136505 114144.257812 
277.155365 83208.289062 
283.180298 473930.59375 
295.16568 275198.75 
306.180664 118534.617188 
308.128357 437808.84375 
308.160339 100436.171875 
308.570282 61032.585938 
311.17569 388767.5 
316.167358 131983.578125 
324.192963 116242.507812 
328.202332 218894.75 
332.199127 135668.125 
334.176544 5890758.5 
352.187531 273111.65625 
356.195923 111375.117188 
408.250336 683972.6875 
419.265808 221145.53125 
420.192169 1290019.0 
436.245392 1931708.5 
447.260895 218649.671875 
519.282349 459406.34375 
533.277588 90443.304688 
632.360535 210773.546875 
715.387268 425949.65625 
733.390503 250567.71875 
END IONS

