BEGIN IONS
PEPMASS=1099.63
CHARGE=1+
MSLEVEL=2
SOURCE_INSTRUMENT=LC-ESI-qTof
FILENAME=f.evgenia_glukhov/Standards/20131001_Phormidolide_MB.mzXML;
SEQ=*..*
IONMODE=Positive
ORGANISM=GNPS-LIBRARY
NAME=Phormidolide  M+Na
PI=Gerwick
DATACOLLECTOR=Matt Bertin
SMILES=CCCCCCCCCCCCCCCC(=O)O[C@H](C[C@@H]([C@H](C)[C@@H](C[C@@H](C(C)(C)[C@@H](C/C(=C/[C@H]([C@@]1([C@H]2C[C@@H](O1)C/C(=C\C(=C)C[C@@H](C/C=C\C(=C/C(=O)O2)\C)O)/C)C)O)/C)O)O)O)O)CC(=C)/C(=C\Br)/OC
INCHI=
INCHIAUX=
PUBMED=
SUBMITUSER=evgenia_glukhov
LIBRARYQUALITY=3
SPECTRUMID=CCMSLIB00005436470
SCANS=516
422.246216 3578.0 
438.967773 6264.0 
469.504395 692.0 
509.956787 809.0 
511.071838 1797.0 
565.089722 1046.0 
567.0802 1065.0 
582.848633 2411.0 
583.467041 783.0 
610.485596 3052.0 
611.151123 30272.0 
641.217285 3456.0 
650.96582 782.0 
683.133667 52037.0 
745.263428 1134.0 
749.462646 1210.0 
763.307983 11762.0 
767.334229 4355.0 
781.198242 1208.0 
829.270996 863.0 
842.51123 431.0 
843.142578 57308.0 
945.343506 11082.0 
963.161499 1320.0 
989.447876 1669.0 
1001.216431 4604.0 
1019.571167 23794.0 
1020.199951 1.0 
1037.555176 3742.0 
1055.532715 6006.0 
1063.506348 1498.0 
1067.678223 1468.0 
1081.241699 19037.0 
1099.391357 20087.0 
END IONS

