BEGIN IONS
PEPMASS=1703.82
CHARGE=1+
MSLEVEL=2
SOURCE_INSTRUMENT=LC-ESI-Ion Trap
FILENAME=f.RReher/2264/Reference_spectra/Samholides/Samholide D/SamholideD_M+Na2_iontrap_yiwen.mgf;
SEQ=*..*
IONMODE=Positive
ORGANISM=GNPS-LIBRARY
NAME=Samholide D M+Na
PI=Gerwick
DATACOLLECTOR=Ywen Tao
SMILES=C[C@H]1C[C@H](C[C@@H](O1)CC[C@H](C)[C@@H]([C@H](C)[C@@H]2C[C@@H](C[C@@H]([C@@H]([C@H](C[C@@H]3CC=C[C@H](O3)C[C@H](C/C=C(/C=C\C(=O)O[C@@H](C[C@@H](C[C@@H]([C@@H]([C@H](C[C@@H]4CC=C[C@H](O4)C[C@H](C/C=C(/C=C/C(=O)O2)\C)O[C@@H]5[C@H]([C@@H]([C@H](CO5)OC)OC)O)OC)C)O)O)[C@@H](C)[C@H]([C@@H](C)CC[C@H]6C[C@@H](C[C@@H](O6)C)OC)O)\C)O[C@@H]7[C@H]([C@@H]([C@H](CO7)OC)OC)O)OC)C)O)O)O)OC
INCHI=
INCHIAUX=
PUBMED=
SUBMITUSER=RReher
LIBRARYQUALITY=3
SPECTRUMID=CCMSLIB00005467786
SCANS=1
481.235046 342959.0 
482.074036 9.0 
548.811768 210584.0 
593.284912 319396.0 
593.958252 8.0 
624.528076 120154.0 
641.295166 811643.0 
641.93335 2.0 
648.949707 132938.0 
650.360107 523518.0 
703.199097 2133205.0 
703.843506 668845.0 
704.458008 696152.0 
799.371338 443579.0 
820.53418 89647.0 
845.290894 3460032.0 
861.199097 952841.0 
861.873535 95.0 
863.329102 15408724.0 
864.489136 6356390.0 
865.364868 19.0 
1007.379028 179946.0 
1015.410156 286360.0 
1023.879272 89341.0 
1051.38623 326418.0 
1085.487061 909070.0 
1086.592041 642565.0 
1087.199951 14.0 
1089.87793 478070.0 
1108.27002 427667.0 
1214.393555 256553.0 
1229.33252 212242.0 
1245.504395 13044632.0 
1246.475586 8032196.0 
1247.350098 4.0 
1261.383301 155536.0 
1273.234863 548389.0 
1274.619629 191660.0 
1304.73291 503795.0 
1311.402832 105253.0 
1312.737305 316773.0 
1316.601074 357463.0 
1321.565918 13741308.0 
1322.544434 10965748.0 
1323.231689 363483.0 
1357.687012 534816.0 
1365.57959 975223.0 
1367.879395 378271.0 
1384.834961 300126.0 
1389.39624 956661.0 
1390.46582 1343201.0 
1391.239746 5.0 
1433.466553 2462444.0 
1434.84375 720476.0 
1435.588867 6.0 
1446.315918 848811.0 
1453.383545 718758.0 
1454.181396 192.0 
1457.211182 521746.0 
1462.705811 175219.0 
1471.496826 445893.0 
1476.274414 991269.0 
1482.008545 1268932.0 
1482.789307 917241.0 
1483.389648 26.0 
1489.570068 2993713.0 
1490.712402 1985268.0 
1491.412598 52.0 
1507.429932 1855523.0 
1508.756348 121585.0 
1510.845459 193042.0 
1524.075684 663719.0 
1525.363525 1957368.0 
1526.020264 1632257.0 
1526.783447 1814592.0 
1527.652588 954312.0 
1528.673584 757270.0 
1543.701904 11316796.0 
1544.605469 9370160.0 
1545.344238 152.0 
1621.801025 447126.0 
1659.390137 145552.0 
1684.883545 1014062.0 
1685.921143 3167009.0 
1686.740234 1880864.0 
1703.781738 11235978.0 
1704.556885 469692.0 
END IONS

