BEGIN IONS
PEPMASS=830.0
CHARGE=0+
MSLEVEL=2
SOURCE_INSTRUMENT=LC-ESI-qTof
FILENAME=20130107_ViequeamdieBNa_MC-2034-E1_N1p3_KinMF-qb.1.1..mgf
SEQ=*..*
IONMODE=Positive
ORGANISM=GNPS-LIBRARY
NAME=ViequeamdieB M+Na
PI=Gerwick
DATACOLLECTOR=Jenia
SMILES=C[C@H]1C(=O)NC(C(=O)O[C@H](C(C(=O)N[C@H](C(=O)N([C@H](C(=O)O[C@H](C(=O)N2CCC[C@H]2C(=O)N1C)CC3=CC=CC=C3)C(C)C)C)C(C)C)(C)C)CCCC#C)C(C)C
INCHI=InChI=1S/C44H65N5O9/c1-13-14-16-23-33-44(9,10)43(56)46-34(26(2)3)40(53)48(12)36(28(6)7)42(55)57-32(25-30-20-17-15-18-21-30)39(52)49-24-19-22-31(49)38(51)47(11)29(8)37(50)45-35(27(4)5)41(54)58-33/h1,15,17-18,20-21,26-29,31-36H,14,16,19,22-25H2,2-12H3,(H,45,50)(H,46,56)/t29-,31-,32-,33-,34-,35?,36-/m0/s1
INCHIAUX=N/A
PUBMED=N/A
SUBMITUSER=mwang87
LIBRARYQUALITY=1
SPECTRUMID=CCMSLIB00000001714
SCANS=1
236.574463 10810.0 
267.931091 8835.0 
279.190308 69372.0 
291.235718 4596.0 
293.817505 33722.0 
303.779846 17106.0 
312.954926 113690.0 
353.045532 14489.0 
353.925018 46836.0 
371.131165 24861.0 
396.232483 22955.0 
436.140137 75038.0 
452.114655 735640.0 
453.091156 875208.0 
469.717285 27745.0 
470.427338 97795.0 
471.358032 45275.0 
504.901794 14104.0 
534.0 6211.0 
538.261963 35731.0 
544.080078 15144.0 
548.866821 30187.0 
550.115173 287886.0 
550.99292 46339.0 
551.694824 88146.0 
552.239807 384580.0 
553.970093 89006.0 
556.986572 44805.0 
565.869385 74539.0 
572.316162 38776.0 
575.046631 16949.0 
582.380615 237073.0 
583.232361 318636.0 
584.355225 70107.0 
591.126221 19079.0 
608.890869 61959.0 
630.043213 159018.0 
631.39624 15464.0 
636.622559 276628.0 
641.464111 106878.0 
645.578857 91222.0 
646.289917 5929368.0 
647.235535 1597301.0 
647.923828 1106.0 
650.865479 131790.0 
652.56665 79057.0 
659.354126 4673.0 
665.724121 18966.0 
669.329834 1145894.0 
670.251709 258051.0 
670.999939 2.0 
685.383911 883837.0 
686.341003 78630.0 
687.379639 13485.0 
691.894043 146187.0 
692.397461 246759.0 
694.139893 29580.0 
707.419189 18003.0 
708.275024 1006454.0 
709.284302 294053.0 
713.299072 12090425.0 
714.304504 4385668.0 
715.219971 5.0 
717.134094 667071.0 
717.656006 56923.0 
718.243408 73810.0 
730.60144 236512.0 
731.269409 8901043.0 
732.304871 3437088.0 
733.299255 25394.0 
734.301331 475672.0 
735.249634 172528.0 
758.378662 291293.0 
772.815063 67515.0 
786.255493 42179.0 
787.427979 40751.0 
802.140503 140389.0 
803.216797 53233.0 
830.522461 129865.0 
END IONS

