BEGIN IONS
PEPMASS=664.66
CHARGE=0+
MSLEVEL=2
SOURCE_INSTRUMENT=LC-ESI-qTof
FILENAME=20121219_Jenia_Ger_Psammaplin_A_[M+H]664-qb.1.1..mgf
SEQ=*..*
IONMODE=Positive
ORGANISM=GNPS-LIBRARY
NAME=Psammaplin_A M+H
PI=Gerwick
DATACOLLECTOR=Jenia
SMILES=C1=CC(=C(C=C1C/C(=N\O)/C(=O)NCCSSCCNC(=O)/C(=N/O)/CC2=CC(=C(C=C2)O)Br)Br)O
INCHI=InChI=1S/C22H24Br2N4O6S2/c23-15-9-13(1-3-19(15)29)11-17(27-33)21(31)25-5-7-35-36-8-6-26-22(32)18(28-34)12-14-2-4-20(30)16(24)10-14/h1-4,9-10,29-30,33-34H,5-8,11-12H2,(H,25,31)(H,26,32)/b27-17+,28-18+
INCHIAUX=N/A
PUBMED=N/A
SUBMITUSER=mwang87
LIBRARYQUALITY=1
SPECTRUMID=CCMSLIB00000001693
SCANS=1
206.881226 1003.0 
210.963013 3077.0 
215.015015 3177.0 
216.925568 1131.0 
227.379639 4674.0 
238.36673 675.0 
241.78688 5928.0 
242.72348 4003.0 
244.944427 1743.0 
254.046478 8456.0 
259.99115 1262.0 
269.629822 5055.0 
276.316162 2556.0 
284.748444 7503.0 
287.012817 8173.0 
287.659363 1867.0 
297.944763 7897.0 
313.715332 2046.0 
324.932983 10105.0 
330.876556 143220.0 
331.978088 18145.0 
332.868713 142410.0 
342.250732 4562.0 
434.553345 3367.0 
435.539307 3936.0 
460.517212 491.0 
462.795654 2179.0 
628.700928 2504.0 
END IONS

