BEGIN IONS
PEPMASS=1122.62
CHARGE=1+
MSLEVEL=2
SOURCE_INSTRUMENT=LC-ESI-qTof
FILENAME=f.RReher/Culebra/pure_compounds/1122_non_AHP/2286_crude_3.71min_1122.6160_non_AHP_MS2_M+H.mgf;
SEQ=*..*
IONMODE=Positive
ORGANISM=GNPS-LIBRARY
NAME=Rivulariapeptolide 1121 M+H
PI=Gerwick
DATACOLLECTOR=Reher
SMILES=CC(C)[C@H](NC([C@H](CC1=CC=C(O)C=C1)N(C)C([C@H](CC(C)C)N2[C@H](O)CC[C@H](NC(/C(NC3=O)=C\C)=O)C2=O)=O)=O)C(O[C@H](C)[C@@H]3NC([C@H]([C@@H](OC(C4N(C(CCC)=O)CCC4)=O)C)NC(C5CCCN5C(CCC)=O)=O)=O)=O
INCHI=
INCHIAUX=
PUBMED=
SUBMITUSER=RReher
LIBRARYQUALITY=3
SPECTRUMID=CCMSLIB00005720235
SCANS=1
70.033913 611.0 
75.796402 63.0 
86.068054 571.0 
109.037567 95.0 
120.054665 64.0 
124.08812 288.0 
136.088364 136.0 
140.084183 9252.0 
141.087692 755.0 
142.062866 109.0 
150.014099 66.0 
150.069794 12127.0 
151.073517 964.0 
152.070312 69.0 
153.116653 1369.0 
154.121567 176.0 
158.282486 68.0 
167.063843 103.0 
167.807007 75.0 
168.081833 27038.0 
169.085068 2428.0 
170.086548 283.0 
179.062271 359.0 
181.073853 263.0 
181.114914 7056.0 
182.116959 573.0 
186.092728 376.0 
187.093826 71.0 
192.084732 200.0 
196.087494 120.0 
206.063034 161.0 
208.101654 90.0 
209.111984 17130.0 
210.115341 2027.0 
211.116257 230.0 
215.118958 71.0 
218.141037 100.0 
219.13205 68.0 
223.128555 7242.0 
224.132233 955.0 
225.13353 89.0 
236.163788 67.0 
241.140076 3002.0 
242.145645 331.0 
243.098709 262.0 
247.134964 98.0 
248.114227 138.0 
249.150848 89.0 
250.156265 81.0 
251.125244 8463.0 
252.129318 1275.0 
253.127457 136.0 
261.109192 66.0 
264.159088 1697.0 
265.160583 263.0 
266.175018 65.0 
268.114349 86.0 
268.151672 105.0 
269.145355 165.0 
274.131989 1951.0 
275.133362 353.0 
277.140533 97.0 
280.154388 69.0 
284.084564 63.0 
288.160492 66.0 
289.181915 249.0 
291.156433 179.0 
292.154083 3801.0 
293.154297 553.0 
294.15979 92.0 
295.154541 2449.0 
296.159821 353.0 
302.141052 69.0 
306.173889 237.0 
308.144653 131.0 
308.183167 81.0 
309.149689 120.0 
313.183014 81.0 
317.173004 210.0 
324.185486 198.0 
326.163452 102.0 
327.164825 105.0 
329.183472 137.0 
330.173218 123.0 
332.184875 116.0 
333.178467 105.0 
334.167236 10277.0 
335.169708 2265.0 
336.178345 221.0 
338.199005 111.0 
341.182465 236.0 
347.16452 151.0 
348.188385 140.0 
350.199097 547.0 
351.200562 139.0 
352.178772 2745.0 
353.181152 699.0 
354.181519 119.0 
358.143402 64.0 
358.20993 137.0 
359.178955 70.0 
363.221619 64.0 
366.196625 85.0 
375.202087 217.0 
376.21228 67.0 
384.651154 70.0 
386.118408 138.0 
386.200775 55473.0 
386.312103 128.0 
387.204376 14327.0 
387.721436 80.0 
388.207489 2366.0 
389.210938 222.0 
389.252411 70.0 
389.836426 77.0 
391.189758 358.0 
392.199554 70.0 
393.204956 83.0 
396.21521 127.0 
399.195312 122.0 
406.215546 66.0 
408.244476 7358.0 
409.247192 1438.0 
410.246552 212.0 
416.202454 97.0 
417.208008 8501.0 
417.734131 66.0 
418.210602 1986.0 
419.208771 223.0 
420.186005 120.0 
421.688843 63.0 
433.2276 80.0 
434.260742 86.0 
435.217285 1198.0 
435.523926 67.0 
436.23941 43026.0 
437.242035 10484.0 
438.247009 1788.0 
439.240997 207.0 
440.251404 118.0 
441.251801 69.0 
443.221985 97.0 
447.26059 66.0 
451.254303 387.0 
452.260651 68.0 
455.151001 77.0 
456.235901 71.0 
460.257568 66.0 
461.231293 364.0 
462.237671 164.0 
467.240936 64.0 
469.152161 126.0 
469.240417 12067.0 
470.241669 3340.0 
471.134918 64.0 
471.247253 740.0 
472.246613 98.0 
480.246307 200.0 
485.272766 227.0 
489.231842 119.0 
490.23819 162.0 
496.213135 226.0 
498.095062 68.0 
503.281525 488.0 
504.294128 148.0 
506.206238 72.0 
507.259705 109.0 
511.265747 63.0 
513.286743 81.0 
514.181519 83.0 
514.734619 71.0 
515.178955 86.0 
519.280518 1282.0 
520.285156 501.0 
521.281677 76.0 
525.250122 63.0 
526.290894 83.0 
527.289368 67.0 
528.270447 73.0 
529.27887 400.0 
530.26001 94.0 
532.270813 339.0 
533.28186 98.0 
534.294983 108.0 
535.290955 100.0 
537.290283 412.0 
538.288391 89.0 
546.023315 95.0 
550.292419 90.0 
552.286804 94.0 
553.294495 248.0 
554.302551 84.0 
554.689514 77.0 
568.314392 214.0 
569.779236 171.0 
570.289917 182.0 
572.792419 126.0 
576.303772 495.0 
577.308228 195.0 
580.784302 265.0 
581.27832 172.0 
581.320068 110.0 
584.306213 244.0 
585.315796 70.0 
586.316162 353.0 
587.329285 178.0 
588.759094 426.0 
589.265869 291.0 
589.764832 177.0 
591.789307 89.0 
597.348206 71.0 
597.774231 88.0 
598.341125 64.0 
602.318787 14920.0 
603.321777 4789.0 
604.323364 916.0 
605.327881 112.0 
606.273987 94.0 
607.314697 122.0 
608.333252 87.0 
610.724609 75.0 
611.715027 82.0 
612.208923 76.0 
620.327087 662.0 
621.331177 353.0 
624.340454 476.0 
625.336548 1297.0 
626.346497 296.0 
627.337646 165.0 
628.33252 983.0 
629.341675 295.0 
630.339539 174.0 
636.352478 151.0 
637.361145 160.0 
641.365723 168.0 
642.338013 71.0 
642.373474 81.0 
643.345642 286.0 
644.341919 73.0 
647.346802 124.0 
651.352112 1297.0 
652.355103 732.0 
653.210754 64.0 
653.351318 127.0 
656.370972 91.0 
669.361511 4976.0 
670.368408 1866.0 
671.367493 403.0 
672.372192 208.0 
687.367249 84.0 
710.398254 80.0 
711.375977 685.0 
712.368835 208.0 
715.374512 108.0 
719.282349 90.0 
719.399536 3289.0 
720.403564 1267.0 
721.406494 373.0 
729.404785 119.0 
730.382935 84.0 
739.401001 140.0 
742.434509 97.0 
752.419922 87.0 
765.374756 97.0 
774.435669 77.0 
784.437561 67.0 
792.444397 111.0 
802.416931 355.0 
803.421692 250.0 
804.400452 75.0 
810.445923 206.0 
811.429504 116.0 
813.441528 217.0 
815.457947 64.0 
816.476013 65.0 
820.430603 256.0 
821.433472 87.0 
827.442444 72.0 
828.451843 190.0 
829.450256 78.0 
831.465393 156.0 
832.473694 274.0 
833.45343 74.0 
846.450623 100.0 
847.458374 65.0 
849.447937 70.0 
864.453186 109.0 
892.481201 74.0 
896.483032 4336.0 
897.484497 2080.0 
898.486816 696.0 
899.495239 146.0 
901.48822 254.0 
902.50238 194.0 
913.515686 143.0 
919.394653 113.0 
919.497009 4267.0 
920.501648 2471.0 
921.503113 862.0 
922.507751 111.0 
927.521179 73.0 
933.15979 64.0 
937.50592 858.0 
938.504761 480.0 
939.511292 147.0 
945.510498 229.0 
946.523987 77.0 
963.523315 5972.0 
964.524353 3548.0 
965.526001 1287.0 
966.540344 109.0 
987.527283 187.0 
988.53363 87.0 
989.528015 66.0 
1005.548279 661.0 
1006.539124 299.0 
1007.560364 122.0 
1009.56842 82.0 
1031.380127 78.0 
1032.365723 81.0 
1034.556885 144.0 
1035.567383 126.0 
1060.604614 96.0 
1061.613281 126.0 
1076.611938 342.0 
1077.593384 189.0 
1078.605347 98.0 
1086.613281 119.0 
1087.588989 130.0 
1093.442871 98.0 
1101.347046 66.0 
1103.080322 72.0 
1103.570557 74.0 
1103.822754 75.0 
1103.969238 88.0 
1104.166138 101.0 
1104.338867 98.0 
1104.383667 99.0 
1104.606567 39394.0 
1104.769897 161.0 
1104.854858 79.0 
1104.89624 131.0 
1105.138916 106.0 
1105.608154 26045.0 
1105.813843 71.0 
1105.992065 67.0 
1106.069214 101.0 
1106.493652 196.0 
1106.611816 9160.0 
1106.780518 73.0 
1107.383911 63.0 
1107.615479 1996.0 
1107.918579 63.0 
1108.623779 468.0 
1108.739258 81.0 
1109.602905 73.0 
1111.756592 73.0 
1113.89978 95.0 
1119.443359 158.0 
1120.445923 156.0 
1120.553955 101.0 
1121.454468 132.0 
1121.518555 127.0 
1121.608521 115.0 
1122.181885 66.0 
1122.24646 135.0 
1122.471191 459.0 
1122.615234 50844.0 
END IONS

