BEGIN IONS
PEPMASS=615.0
CHARGE=1+
MSLEVEL=2
SOURCE_INSTRUMENT=LC-ESI-qTof
FILENAME=f.evgenia_glukhov/December 13-16 Singapore/20161215_Debromo.mzXML;
SEQ=*..*
IONMODE=Positive
ORGANISM=GNPS-LIBRARY
NAME=debromoaplysiatoxin M+Na
PI=Gerwick
DATACOLLECTOR=Jenia
SMILES=[C@@]123O[C@]([C@H](C)CC1(C)C)(CC(O[C@@]([C@@H](C)O)(CC(OC(C2)[C@H](C)[C@](O3)([C@H](CC[C@@H](C=4C=CC=C(C4)O)OC)C)[H])=O)[H])=O)O
INCHI=
INCHIAUX=
PUBMED=
SUBMITUSER=evgenia_glukhov
LIBRARYQUALITY=3
SPECTRUMID=CCMSLIB00000840560
SCANS=821
319.401794 2559.0 
449.337524 2107.0 
463.088745 3658.0 
472.458618 976.0 
480.921814 1073.0 
486.254272 1154.0 
578.27002 3132.0 
583.416504 3087.0 
584.672607 3503.0 
596.528076 1512.0 
597.230957 236847.0 
615.30249 666.0 
END IONS

