BEGIN IONS
PEPMASS=680.14
CHARGE=1+
MSLEVEL=2
SOURCE_INSTRUMENT=LC-ESI-QQQ
FILENAME=f.evgenia_glukhov/Standards/Vatiamide_D.mzXML;
SEQ=*..*
IONMODE=Positive
ORGANISM=GNPS-LIBRARY
NAME=Vatiamide D M+Na
PI=Gerwick
DATACOLLECTOR=Nathan Moss
SMILES=Cl/C=C(CCCC#CBr)\CC[C@@H](C)/C=C/CCC(NC[C@]1(O)[C@H]([C@@H](C[C@H](C[C@@]2([H])OC(C=C(OC)C2)=O)O1)OC)C)=O
INCHI=
INCHIAUX=
PUBMED=31071229
SUBMITUSER=evgenia_glukhov
LIBRARYQUALITY=3
SPECTRUMID=CCMSLIB00005436463
SCANS=820
204.754272 7696.0 
205.775452 3988.0 
235.977142 7717.0 
237.87973 6837.0 
247.199738 8695.0 
249.094482 1914.0 
251.127106 22523.0 
266.171509 2457.0 
275.262207 3697.0 
285.665527 7930.0 
307.045593 36410.0 
307.672913 4.0 
320.405273 9169.0 
330.202881 4748.0 
346.499878 10792.0 
347.195312 13146.0 
348.074341 26354.0 
362.102173 2818.0 
364.190796 52960.0 
370.347412 11901.0 
397.248413 9430.0 
402.160889 21503.0 
415.758301 5888.0 
423.327881 12407.0 
438.223022 5441.0 
446.848328 11743.0 
447.492615 3819.0 
448.399414 3314.0 
452.061829 1595.0 
454.567993 5506.0 
457.25177 13856.0 
460.256165 25263.0 
478.443542 6821.0 
488.226624 5097.0 
494.089233 5439.0 
496.541077 6250.0 
497.987488 5507.0 
499.75293 10386.0 
505.246338 13195.0 
506.072937 10089.0 
514.428955 1774.0 
520.225098 5831.0 
524.671143 10559.0 
530.398438 6939.0 
532.085815 83954.0 
533.293945 8518.0 
538.392578 2330.0 
544.644653 3586.0 
546.373291 23169.0 
547.754395 10603.0 
560.389526 10734.0 
562.17334 28789.0 
563.459717 25870.0 
564.296875 563000.0 
565.244141 90586.0 
565.916992 1.0 
568.261108 6457.0 
582.126709 19914.0 
583.07373 30410.0 
587.434937 1364.0 
594.424561 5177.0 
600.30835 110274.0 
612.310303 41980.0 
619.086182 24633.0 
621.670898 32429.0 
630.150635 101649.0 
631.325317 41245.0 
643.270996 6221.0 
644.273438 222937.0 
645.189209 13392.0 
648.251465 1656623.0 
649.217773 328608.0 
649.830566 308.0 
662.25293 226643.0 
663.310791 67299.0 
664.326782 15205.0 
680.200806 223682.0 
681.22522 80701.0 
END IONS

