BEGIN IONS
PEPMASS=338.0
CHARGE=0+
MSLEVEL=2
SOURCE_INSTRUMENT=LC-ESI-qTof
FILENAME=20121205_Jenia_Ger_Palmyrolide_A_MH338_qb.1.1..mgf
SEQ=*..*
IONMODE=Positive
ORGANISM=GNPS-LIBRARY
NAME=Palmyrolide_A M+H
PI=Gerwick
DATACOLLECTOR=Jenia
SMILES=CC1CCCC(=O)N(/C=C/CCC(C(=O)OC(C1)C(C)(C)C)C)C
INCHI=InChI=1S/C20H35NO3/c1-15-10-9-12-18(22)21(6)13-8-7-11-16(2)19(23)24-17(14-15)20(3,4)5/h8,13,15-17H,7,9-12,14H2,1-6H3/b13-8+
INCHIAUX=N/A
PUBMED=N/A
SUBMITUSER=mwang87
LIBRARYQUALITY=1
SPECTRUMID=CCMSLIB00000001662
SCANS=1
98.142792 14438.0 
108.787384 21648.0 
111.980316 503819.0 
112.69838 4.0 
120.970367 21329.0 
121.886597 11005.0 
123.963882 6923.0 
126.545532 63285.0 
134.623322 8364.0 
136.839722 34594.0 
139.879272 4076644.0 
140.557861 5766.0 
141.815857 16998.0 
155.840576 39360.0 
157.912903 12576160.0 
158.52301 21871.0 
162.728577 76601.0 
166.009979 4618.0 
170.831848 52428.0 
175.119446 8761.0 
180.836487 383894.0 
193.903748 65111.0 
197.195282 10737.0 
198.533142 11289.0 
208.020386 19667.0 
209.883118 14406.0 
211.979095 94633.0 
221.956757 74840.0 
226.07782 23696.0 
229.143982 38951.0 
242.660797 11146.0 
245.913025 21535.0 
249.906342 16648.0 
253.591644 82705.0 
254.389618 13.0 
267.862671 89680.0 
270.961792 71487.0 
271.599854 1.0 
282.062134 92960.0 
288.974121 121065.0 
289.648804 10.0 
302.35675 11732.0 
319.861938 637389.0 
END IONS

