BEGIN IONS
PEPMASS=1793.7
CHARGE=1+
MSLEVEL=2
SOURCE_INSTRUMENT=LC-ESI-Ion Trap
FILENAME=f.RReher/2264/Reference_spectra/Samholides/Samholide G/SamholideG_M+Na_+1_iontrap_yiwen.mgf;
SEQ=*..*
IONMODE=Positive
ORGANISM=GNPS-LIBRARY
NAME=Samholide G M+Na
PI=Gerwick
DATACOLLECTOR=Ywen Tao
SMILES=C[C@H]1C[C@H](C[C@@H](O1)CC[C@H](C)[C@@H]([C@H](C)[C@@H]2C[C@@H](C[C@@H]([C@@H]([C@H](C[C@@H]3CC=C[C@H](O3)C[C@H](C/C=C(/C=C/C(=O)O[C@@H](C[C@@H](C[C@@H]([C@@H]([C@H](C[C@@H]4CC=C[C@H](O4)C[C@H](C/C=C(/C=C\C(=O)O2)\C)O[C@@H]5[C@H]([C@@H]([C@H](CO5)OC)OC)O)OC)C)O)O)[C@@H](C)[C@H]([C@@H](C)CC[C@H]6C[C@@H](C[C@@H](O6)C)OC)O)\C)O[C@@H]7[C@H]([C@@H]([C@H](CO7)OC)OC)OC(=O)[C@@H](CO)O)OC)C)O)O)O)OC
INCHI=
INCHIAUX=
PUBMED=
SUBMITUSER=RReher
LIBRARYQUALITY=3
SPECTRUMID=CCMSLIB00005467792
SCANS=1
623.185303 22801.0 
637.462402 7541.0 
641.362671 1646.0 
643.691895 4135.0 
651.957642 4687.0 
680.962891 12484.0 
685.419922 8264.0 
687.312866 4733.0 
703.233765 24677.0 
704.509644 2242.0 
719.395996 1849.0 
738.13623 947.0 
818.072754 42322.0 
845.224243 12556.0 
846.460693 19094.0 
861.088379 3720.0 
863.234375 113249.0 
864.362915 49675.0 
865.016602 4.0 
865.676514 73963.0 
866.337891 4694.0 
909.526367 2911.0 
932.303345 3146.0 
934.331543 3347.0 
951.395508 171255.0 
952.445923 141150.0 
953.501099 32583.0 
954.36438 13386.0 
1024.30127 4725.0 
1025.430664 551.0 
1028.624023 82917.0 
1051.486328 3354.0 
1068.343018 7223.0 
1085.276611 17919.0 
1085.94458 15879.0 
1087.458984 2866.0 
1107.501465 3620.0 
1109.623535 51563.0 
1130.293945 12677.0 
1139.421387 10345.0 
1162.424805 23896.0 
1173.531006 14368.0 
1195.578613 13362.0 
1197.592529 5535.0 
1229.425049 8616.0 
1267.655273 9467.0 
1269.787598 45865.0 
1295.322998 12217.0 
1296.904785 1730.0 
1304.723145 6227.0 
1305.959717 9932.0 
1317.571777 2705.0 
1321.053467 27467.0 
1321.671875 80057.0 
1322.600586 241128.0 
1323.80835 161604.0 
1324.761719 7765.0 
1328.539062 534.0 
1330.827393 6693.0 
1333.437988 120864.0 
1334.477539 361272.0 
1335.457031 139652.0 
1336.227539 8706.0 
1337.289551 11713.0 
1362.58252 9809.0 
1372.841797 6972.0 
1373.600098 1.0 
1382.517578 9785.0 
1409.652832 88768.0 
1410.527832 57861.0 
1411.494629 23388.0 
1463.023926 2344.0 
1470.128906 8230.0 
1477.539795 7119.0 
1478.503662 32400.0 
1480.191895 69991.0 
1481.692139 58581.0 
1482.556641 80163.0 
1483.932129 14955.0 
1504.838867 7730.0 
1506.955078 7803.0 
1521.664062 33339.0 
1522.677734 57087.0 
1523.608887 21116.0 
1524.488281 64702.0 
1525.895508 19645.0 
1526.638672 36215.0 
1527.685303 43602.0 
1528.888184 4706.0 
1543.761719 32679.0 
1544.932129 8140.0 
1545.927734 17421.0 
1546.690186 10322.0 
1551.744873 11904.0 
1560.920654 6123.0 
1562.428467 3481.0 
1567.375244 3025.0 
1577.512939 30932.0 
1578.628418 96106.0 
1579.834717 55890.0 
1580.685547 7.0 
1596.597412 8125.0 
1613.705078 42179.0 
1614.585449 29406.0 
1615.468262 35978.0 
1624.707275 26314.0 
1631.892822 66700.0 
1632.980713 24679.0 
1633.648682 35730.0 
1655.532959 6501.0 
1685.69873 29375.0 
1686.88501 156672.0 
1687.745605 133977.0 
1688.779541 22248.0 
1738.463135 23095.0 
1750.655273 11571.0 
1757.693359 4084.0 
1759.597412 12040.0 
1773.499268 22243.0 
1774.686768 145024.0 
1775.771973 120141.0 
1776.418701 2221.0 
1791.046143 6958.0 
1791.724854 3379411.0 
1792.795166 1120435.0 
1793.656982 153117.0 
END IONS

