BEGIN IONS
PEPMASS=714.5
CHARGE=1+
MSLEVEL=2
SOURCE_INSTRUMENT=LC-ESI-Ion Trap
FILENAME=f.yuhaobing/microcolins Fedback/2,3-Dihydromicrocolin C.mzXML;
SEQ=*..*
IONMODE=Positive
ORGANISM=GNPS-LIBRARY
NAME=2,3-dihydromicrocolin C M+Na
PI=Gerwick
DATACOLLECTOR=Haobing Yu
SMILES=CN(C([C@H](C)C[C@H](C)CCCC)=O)[C@@H](CC(C)C)C(N[C@@H]([C@@H](C)O)C(N(C)[C@@H](C(C)C)C(N1[C@H](C(N2C(CC[C@@H]2C)=O)=O)CCC1)=O)=O)=O
INCHI=
INCHIAUX=
PUBMED=31468974
SUBMITUSER=yuhaobing
LIBRARYQUALITY=3
SPECTRUMID=CCMSLIB00005463474
SCANS=558
205.13269 139614.0 
317.508728 84192.0 
332.090454 3382857.0 
333.167603 437850.0 
354.5755 69516.0 
360.421448 45949.0 
364.052429 247071.0 
366.902771 47599.0 
370.258728 63073.0 
372.82312 904514.0 
377.096252 286973.0 
377.730835 6.0 
378.367249 478187.0 
389.411621 101240.0 
399.253418 376487.0 
405.117798 2106306.0 
406.132446 271908.0 
406.756836 50.0 
423.446106 160452.0 
433.264404 2786507.0 
434.023926 231750.0 
443.39679 1116052.0 
444.097107 65313.0 
474.277344 411083.0 
498.541504 73316.0 
518.374268 218494.0 
525.673706 208676.0 
542.592041 771253.0 
543.522461 158286.0 
569.726807 371546.0 
587.510132 1690086.0 
603.330566 123263.0 
614.415039 80375.0 
615.477295 1165562.0 
616.36853 47.0 
652.274414 710716.0 
669.534058 506520.0 
670.528809 74980592.0 
671.549316 10993520.0 
672.342773 22.0 
696.566406 1601845.0 
697.565063 278912.0 
713.605103 1046680.0 
714.40332 138354112.0 
715.649902 47770208.0 
716.623047 1.0 
END IONS

