BEGIN IONS
PEPMASS=396.0
CHARGE=0+
MSLEVEL=2
SOURCE_INSTRUMENT=LC-ESI-qTof
FILENAME=20130107_Jenia_Ger_Denticulatin_B_MH396-qb.1.1..mgf
SEQ=*..*
IONMODE=Positive
ORGANISM=GNPS-LIBRARY
NAME=Denticulatin_B M+H
PI=Gerwick
DATACOLLECTOR=Jenia
SMILES=CC/C=C(\C)/C[C@@H](C)C(=O)[C@H](C)[C@@]1([C@H]([C@H]([C@H](C(O1)[C@H](C)C(=O)CC)C)O)C)O
INCHI=InChI=1S/C23H40O5/c1-9-11-13(3)12-14(4)20(25)17(7)23(27)18(8)21(26)16(6)22(28-23)15(5)19(24)10-2/h11,14-18,21-22,26-27H,9-10,12H2,1-8H3/b13-11+/t14-,15-,16-,17+,18+,21+,22?,23-/m1/s1
INCHIAUX=N/A
PUBMED=N/A
SUBMITUSER=mwang87
LIBRARYQUALITY=1
SPECTRUMID=CCMSLIB00000001703
SCANS=1
218.787445 2881.0 
267.178345 1916.0 
315.838135 15295.0 
316.898315 26144.0 
334.48645 24729.0 
357.385071 32689.0 
397.012146 6421.0 
END IONS

