BEGIN IONS
PEPMASS=616.0
CHARGE=1+
COMPOUNDNAME=Massbank:KO003894 Paromomycin|Zygomycin A1|Catenulin|Monomycin A|Hydroxymycin|Aminosidin
LIBRARYQUALITY=3
SMILES=OCC(O1)C(O)C(O)C(N)C1OC(C(N)4)C(C(O)C(N)C4)OC(O3)C(O)C(C(CO)3)OC([H])(O2)C(N)C(O)C(O)C(CN)2
INCHIKEY=UOZODPSAJZTQNH-UHFFFAOYSA-N
INCHI=1S/C23H45N5O14/c24-2-7-13(32)15(34)10(27)21(37-7)41-19-9(4-30)39-23(17(19)36)42-20-12(31)5(25)1-6(26)18(20)40-22-11(28)16(35)14(33)8(3-29)38-22/h5-23,29-36H,1-4,24-28H2/t5-,6+,7+,8-,9-,10-,11-,12+,13-,14-,15-,16-,17-,18-,19-,20-,21-,22-,23-/m1/s1
MSLEVEL=2
SOURCE_INSTRUMENT=ESI-LC-ESI-QQ
FILENAME=Massbank_ESI_positive_8_1_2014_peaks.mgf
SEQ=*..*
IONMODE=Positive
ORGANISM=MASSBANK
NAME=Massbank:KO003894 Paromomycin|Zygomycin A1|Catenulin|Monomycin A|Hydroxymycin|Aminosidin [M+H]+
PI=Putative Massbank Match
DATACOLLECTOR=Massbank
PUBMED=N/A
SUBMITUSER=mwang87
TAGS=
SPECTRUMID=CCMSLIB00000220304
SCANS=9686
40.5 14851.5 
154.0 54455.5 
161.2 886139.5 
163.3 925743.5 
178.8 34653.5 
203.3 688119.5 
214.5 14851.5 
226.4 188119.0 
257.4 34653.5 
258.4 29703.0 
266.8 24752.5 
275.5 118812.0 
277.2 54455.5 
283.3 69307.0 
286.4 9901.0 
293.5 1782180.0 
295.6 178218.0 
307.6 108911.0 
324.5 1247526.0 
387.3 24752.5 
420.6 49505.0 
425.1 29703.0 
438.4 108911.0 
438.9 168317.0 
454.6 44554.5 
455.7 623763.0 
456.5 831684.0 
479.4 103960.5 
496.4 34653.5 
581.2 24752.5 
616.6 2950498.0 
638.8 34653.5 
END IONS

