BEGIN IONS
PEPMASS=828.5
CHARGE=1+
MSLEVEL=2
SOURCE_INSTRUMENT=LC-ESI-qTof
FILENAME=JT_ApratoxinF_MH_828.mzXML
SEQ=*..*
IONMODE=Positive
ORGANISM=GNPS-LIBRARY
NAME=Apratoxin F M+H
PI=Dorrestein/Gerwick
DATACOLLECTOR=Luzzatto/Garg
SMILES=CC[C@H](C)[C@@H]1N(C)C(=O)[C@H](C)N(C)C(=O)[C@H](CC2=CC=C(OC)C=C2)NC(=O)\C(C)=C/C2CSC(=N2)[C@@H](C)[C@@H](O)C[C@H](C)C[C@H](OC(=O)[C@H](C)N(C)C1=O)C(C)(C)C
INCHI=InChI=1S/C44H69N5O8S/c1-15-26(3)37-42(54)48(12)30(7)43(55)57-36(44(8,9)10)21-25(2)20-35(50)28(5)39-45-32(24-58-39)22-27(4)38(51)46-34(23-31-16-18-33(56-14)19-17-31)41(53)47(11)29(6)40(52)49(37)13/h16-19,22,25-26,28-30,32,34-37,50H,15,20-21,23-24H2,1-14H3,(H,46,51)/b27-22-/t25-,26-,28-,29-,30-,32?,34-,35-,36-,37-/m0/s1
INCHIAUX=BAYCKSGCVUIVNR-MJEAVDSUSA-N
PUBMED=20512792
SUBMITUSER=tal_lk
LIBRARYQUALITY=2
SPECTRUMID=CCMSLIB00000070287
SCANS=2473
63.837257 140.0 
104.07148 368.0 
128.10817 204.0 
133.062057 172.0 
137.134979 152.0 
150.090469 156.0 
156.099716 352.0 
156.151031 148.0 
158.961456 160.0 
182.062393 256.0 
182.119324 728.0 
188.597275 144.0 
189.122406 148.0 
213.159302 184.0 
224.932999 184.0 
226.952316 144.0 
230.223145 176.0 
231.174026 172.0 
244.177582 176.0 
258.211151 904.0 
259.204773 156.0 
264.118164 264.0 
269.041107 172.0 
288.930298 176.0 
327.24411 196.0 
331.157013 300.0 
332.079041 152.0 
332.166107 152.0 
343.256165 160.0 
348.986755 140.0 
359.148468 180.0 
359.15567 256.0 
360.138824 416.0 
385.307159 536.0 
386.309479 156.0 
389.146881 280.0 
407.792053 156.0 
444.197815 792.0 
445.195526 324.0 
446.189575 276.0 
467.27829 260.0 
468.287994 264.0 
470.352356 168.0 
475.573151 152.0 
482.971405 164.0 
485.283936 296.0 
487.240906 144.0 
489.453186 156.0 
495.317963 224.0 
512.85144 180.0 
513.280518 296.0 
514.051025 156.0 
528.756775 144.0 
571.296692 556.0 
572.305908 152.0 
573.308655 128.0 
580.310608 156.0 
598.316833 112.0 
660.762756 188.0 
683.391113 160.0 
704.741821 140.0 
706.756226 232.0 
717.911011 172.0 
725.429749 268.0 
751.626587 216.0 
770.187744 144.0 
793.168091 156.0 
804.784912 144.0 
816.884277 164.0 
828.497803 2292.0 
829.495605 744.0 
830.511169 220.0 
831.499817 616.0 
1901.470459 160.0 
END IONS

