BEGIN IONS
PEPMASS=814.2
CHARGE=0+
MSLEVEL=2
SOURCE_INSTRUMENT=LC-ESI-Ion Trap
FILENAME=20130610_Ger_Jenia_Apratoxin_G_MH814.2-qb.1.1..mgf
SEQ=*..*
IONMODE=Positive
ORGANISM=GNPS-LIBRARY
NAME=Apratoxin G M+H
PI=Gerwick
DATACOLLECTOR=Jenia
SMILES=COC1=CC=C(C[C@@H]2NC(=O)\C(C)=C/C3CSC(=N3)[C@@H](C)[C@@H](O)C[C@H](C)C[C@H](OC(=O)[C@H](C)N(C)C(=O)[C@H](C(C)C)N(C)C(=O)[C@H](C)N(C)C2=O)C(C)(C)C)C=C1
INCHI=InChI=1S/C43H67N5O8S/c1-24(2)36-41(53)47(12)29(7)42(54)56-35(43(8,9)10)20-25(3)19-34(49)27(5)38-44-31(23-57-38)21-26(4)37(50)45-33(22-30-15-17-32(55-14)18-16-30)40(52)46(11)28(6)39(51)48(36)13/h15-18,21,24-25,27-29,31,33-36,49H,19-20,22-23H2,1-14H3,(H,45,50)/b26-21-/t25-,27-,28-,29-,31?,33-,34-,35-,36-/m0/s1
INCHIAUX=QYPABEUQMXOENV-NMOSBCMXSA-N
PUBMED=N/A
SUBMITUSER=mwang87
LIBRARYQUALITY=1
SPECTRUMID=CCMSLIB00000001792
SCANS=1
257.961853 7321.0 
301.905212 2193.0 
312.922974 1910.0 
318.237671 929.0 
331.405396 1800.0 
340.305115 2404.0 
355.117126 4034.0 
358.905121 24381.0 
371.076141 5607.0 
389.115112 594.0 
402.769897 1242.0 
404.971558 594.0 
438.100128 5611.0 
443.991852 37029.0 
454.105591 1924.0 
456.087708 103408.0 
461.601501 2905.0 
467.056396 1050.0 
468.014771 1863.0 
495.279053 12783.0 
501.873047 901.0 
554.263184 1614.0 
557.087524 106698.0 
580.025391 8555.0 
580.572754 1532.0 
598.221436 13208.0 
610.38501 5765.0 
615.187744 1813.0 
616.124451 6199.0 
626.531006 3362.0 
630.601929 1998.0 
639.580078 935.0 
664.335449 2309.0 
666.649048 2947.0 
669.916016 901.0 
670.567261 1181.0 
676.333496 4729.0 
677.505615 2236.0 
678.467651 2697.0 
683.404785 457.0 
687.263794 2160.0 
692.518799 2608.0 
693.303101 22706.0 
695.252197 937.0 
696.051758 2936.0 
697.616333 2417.0 
698.159668 1563.0 
711.081604 43302.0 
711.768799 2.0 
716.806152 1606.0 
728.278198 9674.0 
729.295715 3377.0 
733.952026 568.0 
738.791992 1191.0 
739.4552 4824.0 
744.551636 4884.0 
745.548462 1316.0 
755.409058 1936.0 
768.263428 1014.0 
770.44104 1905.0 
772.817871 4425.0 
796.210388 186721.0 
797.057251 4.0 
813.805664 1.0 
END IONS

