BEGIN IONS
PEPMASS=527.14
CHARGE=1+
MSLEVEL=2
SOURCE_INSTRUMENT=LC-ESI-Ion Trap
FILENAME=f.zhangyi/pure compounds/TT-B_(Territrem_B)_pos-20fold.mzXML;
SEQ=*..*
IONMODE=Positive
ORGANISM=GNPS-LIBRARY
NAME=Territrem B M+H
PI=William Gerwick
DATACOLLECTOR=Yi Zhang
SMILES=C[C@@]12CC[C@@]3([C@@]([C@]1(Cc4c(cc(oc4=O)c5cc(c(c(c5)OC)OC)OC)O2)O)(C(=O)C=CC3(C)C)C)O
INCHI=InChI=1S/C29H34O9/c1-25(2)9-8-22(30)27(4)28(25,32)11-10-26(3)29(27,33)15-17-19(38-26)14-18(37-24(17)31)16-12-20(34-5)23(36-7)21(13-16)35-6/h8-9,12-14,32-33H,10-11,15H2,1-7H3/t26-,27+,28-,29-/m1/s1
INCHIAUX=
PUBMED=
SUBMITUSER=zhangyi
LIBRARYQUALITY=3
SPECTRUMID=CCMSLIB00005436075
SCANS=342
149.09317 1002.0 
157.191315 2135.0 
168.861938 4070.0 
170.012726 3686.0 
171.430084 13035.0 
174.00943 3607.0 
175.312012 8670.0 
180.815247 1859.0 
184.969147 4134.0 
186.086914 1202.0 
189.149933 6493.0 
193.018829 1704.0 
195.084625 30344.0 
201.037537 13399.0 
203.204529 4320.0 
207.478882 1581.0 
212.180145 2285.0 
213.217224 3707.0 
219.032379 4211.0 
220.953369 2703.0 
230.954987 19495.0 
235.15976 3603.0 
236.559875 3024.0 
237.253204 11326.0 
253.058838 915.0 
255.220215 26123.0 
263.130615 735.0 
279.21228 14074.0 
281.189453 4840.0 
282.323242 986.0 
291.041016 117524.0 
303.286011 1028.0 
305.163818 2910.0 
306.741028 14931.0 
316.868774 4364.0 
318.700867 17361.0 
319.346313 1905.0 
321.170898 5187.0 
322.162048 3508.0 
329.04834 3963.0 
332.680908 4612.0 
342.865234 2377.0 
346.875244 6520.0 
355.29187 2461.0 
366.90979 12218.0 
368.916138 1890.0 
373.049805 35953.0 
373.799927 1.0 
380.979004 9718.0 
387.089355 4301.0 
396.630615 1533.0 
397.288696 4606.0 
400.603149 1689.0 
432.636963 713.0 
435.149048 14225.0 
438.214966 9187.0 
445.200317 2325.0 
448.725403 10860.0 
449.429321 8379.0 
455.299377 3486.0 
463.029419 6414.0 
467.103516 3140.0 
468.752869 4187.0 
473.259705 38248.0 
481.079529 6825.0 
489.507202 3400.0 
490.375854 7075.0 
491.056458 409154.0 
507.731262 7262.0 
508.433533 7459.0 
509.059204 541172.0 
526.300171 7070.0 
END IONS

