BEGIN IONS
PEPMASS=1156.59
CHARGE=1+
MSLEVEL=2
SOURCE_INSTRUMENT=LC-ESI-Orbitrap
FILENAME=f.RReher/Culebra/pure_compounds/1156/Rivulariapeptolide1155_MS2_M+H.mgf;
SEQ=*..*
IONMODE=Positive
ORGANISM=GNPS-LIBRARY
NAME=Rivulariapeptolide 1155 M+H
PI=Gerwick
DATACOLLECTOR=Reher
SMILES=CC(C)[C@@H](NC([C@@H](CC1=CC=C(O)C=C1)N(C)C([C@@H](CC2=CC=CC=C2)N3[C@H](O)CC[C@H](NC(/C(NC4=O)=C/C)=O)C3=O)=O)=O)C(O[C@@H](C)[C@@H]4NC([C@H]([C@H](OC(C5N(C(CCC)=O)CCC5)=O)C)NC(C6CCCN6C(CCC)=O)=O)=O)=O
INCHI=
INCHIAUX=
PUBMED=
SUBMITUSER=RReher
LIBRARYQUALITY=3
SPECTRUMID=CCMSLIB00005723986
SCANS=1
75.408958 4791.514648 
78.456116 5970.957031 
79.056839 4991.987305 
79.956497 4466.780762 
83.457047 5132.841797 
86.640846 4701.812988 
91.054787 7138.459961 
91.949684 8936.6875 
91.999504 5433.359863 
93.494957 4709.00293 
93.630623 4799.680176 
93.752716 4767.696777 
99.233795 4809.282715 
99.23735 5264.557129 
99.284309 4914.273926 
102.352112 5359.655273 
104.284676 4922.76123 
105.325356 5227.571777 
105.637726 5052.138184 
105.668709 5411.535645 
108.121033 5533.391602 
111.829597 4840.084473 
116.659744 5103.506836 
117.94117 4843.674316 
120.081078 107630.1875 
120.46402 4825.145996 
122.211884 5448.583008 
136.177246 5004.330566 
137.032791 4984.248047 
139.329575 5154.895508 
140.107056 643035.1875 
144.325043 5183.938965 
145.076874 5821.608887 
149.145172 4959.10791 
150.091431 745783.4375 
150.641144 6248.179199 
153.102264 7567.271973 
158.096527 27120.275391 
164.654343 5381.208984 
168.101944 1517795.0 
177.873718 5639.305176 
179.081497 11022.951172 
181.097153 30436.634766 
182.810638 5577.563965 
186.112625 12644.289062 
187.123077 75834.179688 
188.497665 5305.334961 
189.872406 4955.379883 
189.932266 5706.785645 
190.275269 5934.748535 
199.102997 4746.914551 
205.16684 5271.882324 
207.017365 5662.287598 
209.790726 5383.319336 
215.117981 238595.40625 
223.144135 867015.75 
225.4487 4997.61377 
225.683609 5338.181641 
230.948318 5546.753906 
231.21225 5929.147949 
239.360809 5836.153809 
240.986191 5008.583496 
241.154648 220739.8125 
243.112823 694780.9375 
248.355484 5762.118652 
251.139008 627618.1875 
261.123199 10659.927734 
295.165161 62636.273438 
298.154999 52143.792969 
308.128021 35488.761719 
324.191986 11723.0625 
326.149933 224588.296875 
328.89325 6335.145996 
334.176086 748836.8125 
338.207214 9043.422852 
351.170166 9423.992188 
352.186676 99896.289062 
392.197052 11525.574219 
399.202637 12021.839844 
404.789185 5685.98291 
408.24942 492036.46875 
413.29071 5557.760742 
417.213287 201960.578125 
417.43454 6764.775391 
420.191833 1659982.5 
425.485962 5986.067383 
430.28244 6593.120605 
435.223846 23607.484375 
436.244324 1922534.25 
442.234131 5393.980469 
443.229095 11497.90918 
446.415039 5872.540527 
451.754059 5358.785156 
461.239777 21361.599609 
498.058533 5506.346191 
503.229095 428747.15625 
516.852112 5763.618164 
531.78009 5326.953125 
534.292175 6763.856934 
537.068054 5733.550293 
565.797485 6156.182129 
576.56897 5874.408691 
580.535645 6057.526367 
586.266113 7998.109375 
602.318604 139801.390625 
620.329285 8405.542969 
654.277161 6484.975098 
657.731567 5640.368164 
659.318237 11734.948242 
679.290283 5816.125488 
685.334717 54839.40625 
697.503906 5424.666992 
703.344666 52953.359375 
711.37146 10354.75293 
719.397705 64561.503906 
753.329895 6335.790527 
775.12915 5580.253906 
775.704041 5835.029297 
815.60675 5883.194824 
817.902649 5858.005371 
822.17157 6083.172852 
829.313477 5232.859375 
834.391663 6074.549316 
847.007874 6402.410645 
852.49292 6808.188965 
875.726257 7416.457031 
896.475708 44328.554688 
931.105164 6458.242676 
932.561035 5945.456543 
947.709351 6804.630371 
953.476685 14603.055664 
964.883362 5645.374512 
993.503723 7592.483887 
1004.32373 5752.445801 
1069.354126 6843.939453 
1082.898682 5785.823242 
1093.297363 6314.757324 
1138.581299 32436.408203 
END IONS

