BEGIN IONS
PEPMASS=738.0
CHARGE=2+
MSLEVEL=2
SOURCE_INSTRUMENT=LC-ESI-qTof
FILENAME=1G1_738_RG1_01_9772.mzXML
SEQ=*..*
IONMODE=Positive
ORGANISM=GNPS-LIBRARY
NAME=Antanapeptin B M+H
PI=Dorrestein/Gerwick
DATACOLLECTOR=Peng/Luzzatto/Garg
SMILES=CCC(C)[C@@H]1N(C)C(=O)[C@@H]2CCCN2C(=O)[C@@H](OC(=O)[C@H](CC2=CC=CC=C2)N(C)C(=O)[C@@H](NC(=O)C(C)C(CCCC=C)OC1=O)C(C)C)C(C)C
INCHI=InChI=1S/C41H62N4O8/c1-11-13-15-22-32-28(8)36(46)42-33(25(3)4)38(48)43(9)31(24-29-19-16-14-17-20-29)40(50)53-35(26(5)6)39(49)45-23-18-21-30(45)37(47)44(10)34(27(7)12-2)41(51)52-32/h11,14,16-17,19-20,25-28,30-35H,1,12-13,15,18,21-24H2,2-10H3,(H,42,46)/t27?,28?,30-,31-,32?,33-,34-,35-/m0/s1
INCHIAUX=LZACOZXZESEOFK-CVZHIFNESA-N
PUBMED=ChemSpider ID 9051639
SUBMITUSER=y6peng
LIBRARYQUALITY=2
SPECTRUMID=CCMSLIB00000072478
SCANS=2989
95.08564 240.0 
95.664635 232.0 
97.229637 224.0 
98.058723 420.0 
98.97155 216.0 
100.111786 248.0 
101.000664 280.0 
101.060081 376.0 
101.114662 252.0 
103.092781 216.0 
104.068726 220.0 
105.068352 372.0 
105.406418 212.0 
106.343987 264.0 
107.087975 260.0 
107.199181 244.0 
107.7416 260.0 
108.262627 268.0 
108.306107 212.0 
109.000816 236.0 
109.101593 316.0 
109.558189 216.0 
111.987083 260.0 
112.107124 300.0 
112.342804 228.0 
113.122627 316.0 
113.671341 216.0 
113.807129 220.0 
113.904785 272.0 
114.529892 280.0 
114.872932 212.0 
116.071541 400.0 
117.75663 240.0 
118.063148 612.0 
118.641273 248.0 
118.89843 272.0 
119.072205 1092.0 
121.815208 260.0 
123.839279 220.0 
126.230721 272.0 
126.792389 252.0 
126.93132 420.0 
128.103027 232.0 
128.584122 216.0 
130.161331 228.0 
131.104996 240.0 
131.702499 232.0 
131.981201 280.0 
132.083191 220.0 
132.273911 216.0 
132.402069 344.0 
133.085144 292.0 
133.326233 244.0 
133.91037 252.0 
133.963318 404.0 
134.002472 240.0 
134.055511 264.0 
134.097183 57956.0 
134.599609 256.0 
135.10025 4660.0 
136.062317 212.0 
136.14122 256.0 
136.176483 292.0 
137.097198 1448.0 
139.102905 372.0 
140.111359 224.0 
142.507034 248.0 
144.100677 220.0 
145.476822 220.0 
146.12149 436.0 
147.748245 248.0 
148.467514 216.0 
151.669907 324.0 
152.106796 3032.0 
153.112 268.0 
154.087112 264.0 
154.122513 632.0 
155.610474 276.0 
156.908646 244.0 
157.106644 244.0 
158.434799 228.0 
158.718109 248.0 
160.076141 252.0 
162.093658 1040.0 
162.847626 272.0 
164.155182 216.0 
165.077545 364.0 
166.095551 208.0 
166.680664 216.0 
167.264221 248.0 
167.488159 216.0 
169.904175 248.0 
170.118729 8920.0 
171.120621 760.0 
172.128616 224.0 
174.199432 228.0 
175.417313 232.0 
178.535034 244.0 
179.149612 308.0 
180.102417 19180.0 
180.136551 1124.0 
180.973846 252.0 
181.105789 2188.0 
182.106781 316.0 
183.753601 216.0 
188.144287 536.0 
188.730164 228.0 
190.087372 364.0 
190.160065 400.0 
190.857025 208.0 
191.168869 244.0 
191.966278 260.0 
192.178131 348.0 
192.509689 236.0 
195.1474 236.0 
195.85585 248.0 
197.165207 392.0 
198.026688 208.0 
198.113159 9360.0 
198.490189 232.0 
199.041763 240.0 
199.082031 216.0 
199.115448 1400.0 
200.145905 236.0 
200.27684 220.0 
201.204193 216.0 
202.365707 280.0 
202.878296 260.0 
204.747162 240.0 
205.188644 256.0 
206.173004 232.0 
208.132111 1220.0 
208.169037 9328.0 
209.171753 1116.0 
210.135712 568.0 
210.169617 540.0 
213.559555 208.0 
214.118134 212.0 
214.969025 256.0 
216.130341 580.0 
217.131302 256.0 
217.168152 252.0 
218.11731 368.0 
218.148483 496.0 
226.105942 212.0 
226.18013 5736.0 
227.182526 904.0 
228.521103 212.0 
229.888535 212.0 
230.455963 260.0 
230.579819 232.0 
230.984802 236.0 
231.148117 608.0 
231.87764 264.0 
232.132187 448.0 
233.176071 208.0 
234.151382 548.0 
234.560379 212.0 
234.703613 264.0 
236.165573 900.0 
237.149521 552.0 
238.154526 268.0 
238.406036 216.0 
243.171509 620.0 
244.133682 716.0 
245.134064 216.0 
246.138443 236.0 
253.318619 240.0 
254.176239 2268.0 
255.178223 560.0 
259.142975 1592.0 
260.133972 224.0 
260.148804 328.0 
262.144073 29568.0 
263.14679 5912.0 
263.210114 272.0 
264.148468 592.0 
265.153717 516.0 
267.62149 256.0 
270.18573 784.0 
275.416901 220.0 
277.157379 268.0 
280.155487 536.0 
287.139893 372.0 
290.129028 208.0 
293.813995 228.0 
296.154602 212.0 
298.177917 836.0 
299.18454 344.0 
301.229553 212.0 
301.95166 208.0 
306.410309 208.0 
307.203278 2364.0 
309.405548 208.0 
311.206909 212.0 
316.193268 712.0 
316.539642 220.0 
317.187958 420.0 
317.230225 236.0 
317.385376 216.0 
317.669769 236.0 
323.235138 1188.0 
324.224213 208.0 
325.211914 6356.0 
325.762756 208.0 
326.214386 2264.0 
326.920013 248.0 
327.217285 492.0 
329.184998 216.0 
330.418549 208.0 
330.561523 228.0 
331.037231 256.0 
331.201874 19180.0 
332.204041 5100.0 
333.208923 244.0 
334.210083 216.0 
341.214661 260.0 
343.223022 444.0 
346.621582 220.0 
347.5672 228.0 
351.228546 320.0 
351.268036 240.0 
352.218597 364.0 
353.216522 532.0 
353.279419 596.0 
354.275269 376.0 
357.18222 248.0 
359.196381 5420.0 
359.891998 224.0 
360.198944 1636.0 
361.200775 336.0 
366.150177 236.0 
368.189667 220.0 
369.25351 312.0 
377.208099 3992.0 
378.21167 992.0 
378.270599 276.0 
379.21814 272.0 
380.650452 252.0 
381.278076 712.0 
382.272766 272.0 
387.191803 556.0 
391.245941 216.0 
397.249603 1416.0 
398.244293 480.0 
400.229736 220.0 
404.253387 496.0 
405.264801 392.0 
415.258606 2148.0 
415.914734 208.0 
416.253632 904.0 
417.25293 416.0 
423.28476 3808.0 
423.33847 220.0 
423.876434 216.0 
424.287903 268.0 
429.279755 224.0 
434.26944 220.0 
435.32312 216.0 
449.331299 264.0 
450.334076 964.0 
451.282471 860.0 
451.329346 664.0 
455.101929 244.0 
459.880585 252.0 
461.30014 272.0 
463.317169 212.0 
470.086334 268.0 
470.867401 324.0 
471.0401 212.0 
471.510864 208.0 
476.31427 408.0 
478.326813 780.0 
479.328888 252.0 
485.842499 220.0 
486.296722 6408.0 
487.304321 2792.0 
488.317993 324.0 
497.298004 704.0 
502.159912 280.0 
503.979095 216.0 
504.308502 27120.0 
504.445801 252.0 
505.309814 7180.0 
506.31311 1188.0 
507.312714 256.0 
512.314148 448.0 
513.302002 320.0 
515.3125 3012.0 
516.313354 908.0 
517.307678 308.0 
519.68512 212.0 
520.500427 252.0 
529.265259 248.0 
532.371399 212.0 
536.558411 212.0 
537.904846 224.0 
543.378601 232.0 
558.359863 228.0 
560.369873 1848.0 
561.370056 1244.0 
562.368225 360.0 
574.32074 320.0 
578.377502 1012.0 
579.380859 572.0 
583.107727 208.0 
584.371216 3496.0 
585.371948 976.0 
586.376099 424.0 
596.262634 260.0 
601.691589 232.0 
611.346497 324.0 
612.364685 2548.0 
612.692261 232.0 
613.362976 956.0 
614.365479 456.0 
615.403748 312.0 
618.844604 280.0 
629.368042 340.0 
631.158203 208.0 
633.284241 212.0 
638.770874 300.0 
640.39502 280.0 
641.383179 304.0 
642.585205 216.0 
646.256836 256.0 
646.94989 216.0 
649.609253 224.0 
651.041199 212.0 
654.38623 228.0 
661.001831 244.0 
662.066162 216.0 
662.60376 332.0 
671.307373 236.0 
674.11438 232.0 
683.681091 236.0 
686.948975 212.0 
688.623779 208.0 
689.171082 232.0 
691.61853 232.0 
696.256653 236.0 
699.178467 232.0 
699.436218 220.0 
706.525635 212.0 
709.797424 232.0 
711.465881 3232.0 
711.59082 212.0 
712.473938 2000.0 
713.471252 492.0 
713.552551 232.0 
719.402161 220.0 
721.458618 1148.0 
722.450562 436.0 
726.236206 248.0 
727.463623 916.0 
728.872681 220.0 
728.926392 224.0 
732.095642 280.0 
733.461487 240.0 
733.994995 212.0 
734.307617 260.0 
734.348083 304.0 
734.668884 240.0 
735.053955 208.0 
735.329468 284.0 
735.687195 332.0 
735.861145 308.0 
736.066467 208.0 
736.352234 236.0 
736.491455 216.0 
736.713867 292.0 
737.044922 376.0 
737.236389 208.0 
737.330811 320.0 
737.47168 408.0 
737.524048 236.0 
737.772766 312.0 
737.907227 224.0 
738.190247 208.0 
738.305481 480.0 
738.387695 320.0 
738.467102 368.0 
738.746338 572.0 
738.815247 304.0 
738.8927 472.0 
738.995667 348.0 
739.134033 320.0 
739.18219 400.0 
739.305542 420.0 
739.388367 824.0 
739.467041 199176.0 
739.654663 412.0 
739.812195 308.0 
739.866394 388.0 
739.991516 496.0 
740.060364 224.0 
740.134277 436.0 
740.36322 1916.0 
740.469971 108196.0 
740.607361 372.0 
740.855042 548.0 
740.931335 340.0 
740.990295 236.0 
741.05188 276.0 
741.096741 328.0 
741.210022 252.0 
741.26709 308.0 
741.358704 1036.0 
741.472168 36036.0 
741.853333 248.0 
741.96283 228.0 
742.014526 216.0 
742.24823 292.0 
742.285034 236.0 
742.316345 260.0 
742.377075 216.0 
742.471863 3916.0 
742.603149 208.0 
742.882935 220.0 
743.480896 1304.0 
743.663757 432.0 
743.783325 256.0 
743.823303 388.0 
743.863342 340.0 
743.950134 220.0 
744.038147 420.0 
744.151001 308.0 
744.190063 228.0 
744.246887 236.0 
744.351318 272.0 
744.405884 368.0 
744.425049 372.0 
744.715515 212.0 
745.009216 208.0 
745.212952 252.0 
746.234314 208.0 
925.35437 212.0 
1200.185669 224.0 
1206.991089 216.0 
1225.857422 208.0 
1256.156738 248.0 
1273.595947 228.0 
1286.329468 224.0 
1295.128052 228.0 
1329.033569 228.0 
1396.656738 232.0 
1400.704346 208.0 
1420.130371 220.0 
1433.250732 220.0 
1455.646851 224.0 
1485.937012 228.0 
1496.623779 212.0 
1546.138306 244.0 
1546.772095 220.0 
1560.251587 240.0 
1569.333374 220.0 
1575.170898 260.0 
1591.010376 224.0 
1611.334351 296.0 
1631.988159 272.0 
1635.268921 240.0 
1676.353027 212.0 
1678.59375 240.0 
1681.194946 288.0 
1697.672241 220.0 
1713.612183 272.0 
1716.026001 216.0 
1726.827271 232.0 
1739.967896 280.0 
1759.324219 288.0 
1771.813354 216.0 
1781.901978 240.0 
1785.195557 216.0 
1818.298706 248.0 
1837.453735 232.0 
1844.880615 212.0 
1852.15979 264.0 
1855.989014 276.0 
1860.285522 248.0 
1866.202393 232.0 
1884.596802 256.0 
1885.693848 252.0 
1890.950195 224.0 
1903.307007 228.0 
1907.275635 284.0 
1908.779053 228.0 
1909.596191 252.0 
1914.415527 212.0 
1928.342407 252.0 
1931.786133 212.0 
1934.838989 224.0 
1938.647583 224.0 
1938.840332 260.0 
1946.802734 232.0 
1954.209717 216.0 
1971.679932 212.0 
1971.900757 212.0 
1972.545776 252.0 
1975.00293 256.0 
1996.279419 228.0 
END IONS

