BEGIN IONS
PEPMASS=1389.94
CHARGE=1+
MSLEVEL=2
SOURCE_INSTRUMENT=LC-ESI-qTof
FILENAME=f.RReher/2264/MaXis/2264_H_6_BE3_01_48199.mzXML;
SEQ=*..*
IONMODE=Positive
ORGANISM=GNPS-LIBRARY
NAME=Swinholide A M+H
PI=Gerwick
DATACOLLECTOR=
SMILES=COC1CC(C)OC(CCC(C)C(O)C(C)C2OC(=O)\C=C\C(\C)=C\CC(O)CC3OC(CC=C3)CC(OC)C(C)C(O)CC(O)C(C)C(OC(=O)\C=C\C(\C)=C\CC(O)CC3OC(CC=C3)CC(OC)C(C)C(O)CC(O)C2C)C(C)C(O)C(C)CCC2CC(CC(C)O2)OC)C1
INCHI=
INCHIAUX=
PUBMED=10964334
SUBMITUSER=RReher
LIBRARYQUALITY=3
SPECTRUMID=CCMSLIB00005463854
SCANS=1569
46.891464 66.0 
61.18829 61.0 
65.002121 171.0 
65.296692 77.0 
67.016556 381.0 
69.034058 221.0 
73.386406 64.0 
75.009987 106.0 
75.114426 69.0 
77.003647 91.0 
79.018646 659.0 
80.998642 301.0 
81.035271 1178.0 
82.037811 66.0 
83.015396 375.0 
83.052002 244.0 
85.030373 877.0 
86.033333 75.0 
87.010551 279.0 
91.020287 720.0 
92.222328 58.0 
93.036972 1236.0 
95.016815 2736.0 
95.0532 2569.0 
96.019493 318.0 
96.057564 187.0 
96.996483 207.0 
97.032799 4219.0 
97.068642 379.0 
98.035027 158.0 
98.315994 64.0 
99.013107 240.0 
99.048706 1772.0 
101.028908 366.0 
102.029625 61.0 
102.519913 64.0 
103.022217 87.0 
103.04248 261.0 
104.30954 60.0 
105.038857 2701.0 
106.043381 176.0 
106.872658 67.0 
107.017036 476.0 
107.055031 4461.0 
108.057678 581.0 
108.66655 63.0 
109.034637 1504.0 
109.070389 2783.0 
110.073036 130.0 
111.009903 129.0 
111.050758 1887.0 
111.080772 85.0 
112.053947 216.0 
113.030251 927.0 
113.066368 987.0 
114.03421 132.0 
114.070702 59.0 
114.284294 63.0 
115.025421 89.0 
115.046341 546.0 
117.040024 758.0 
117.074364 59.0 
119.020721 552.0 
119.057076 2641.0 
120.059509 291.0 
121.036781 1120.0 
121.072296 3327.0 
122.075508 451.0 
123.024094 74.0 
123.052147 9723.0 
123.087418 1453.0 
124.055077 628.0 
124.09111 125.0 
125.031487 517.0 
125.067734 5197.0 
126.037811 94.0 
126.070198 283.0 
127.047089 949.0 
127.084312 261.0 
128.047394 73.0 
129.041504 803.0 
129.062729 5924.0 
130.046875 75.0 
130.067261 394.0 
131.057877 2442.0 
133.037552 585.0 
133.073776 4191.0 
134.045486 69.0 
134.078857 525.0 
135.015884 305.0 
135.053085 1007.0 
135.090347 4379.0 
135.385941 65.0 
136.058441 283.0 
136.094467 460.0 
137.032425 2845.0 
137.070007 2324.0 
137.105484 1383.0 
138.036377 370.0 
138.074631 389.0 
138.110397 166.0 
139.048981 2070.0 
139.085037 2296.0 
140.052155 284.0 
140.091217 113.0 
141.043976 223.0 
141.064758 1483.0 
141.100418 116.0 
142.051941 191.0 
142.106094 76.0 
143.059875 1834.0 
143.081665 995.0 
144.065231 302.0 
145.040878 255.0 
145.075546 5506.0 
145.221207 78.0 
146.078094 509.0 
146.335831 60.0 
147.054962 724.0 
147.091003 4946.0 
148.059586 176.0 
148.095276 691.0 
149.034744 200.0 
149.070892 1889.0 
149.107285 5113.0 
149.474487 63.0 
150.076706 67.0 
150.110535 426.0 
151.050644 875.0 
151.087097 3463.0 
151.123627 581.0 
152.092133 482.0 
152.908218 63.0 
153.027985 116.0 
153.06485 1093.0 
153.102737 1762.0 
153.764633 60.0 
154.068695 156.0 
154.104324 267.0 
155.04689 2119.0 
155.082138 16485.0 
155.117203 73.0 
156.048019 244.0 
156.063889 171.0 
156.085617 1810.0 
157.039642 81.0 
157.076477 1470.0 
157.099335 409.0 
158.079636 200.0 
159.058014 727.0 
159.093216 5250.0 
160.059921 67.0 
160.096237 856.0 
160.604141 58.0 
160.780792 62.0 
161.035477 1141.0 
161.072693 1510.0 
161.108826 5328.0 
162.038422 92.0 
162.075699 287.0 
162.110504 391.0 
163.051834 943.0 
163.088058 3816.0 
163.123459 2606.0 
164.054535 94.0 
164.091263 388.0 
164.127808 548.0 
165.067154 923.0 
165.103638 4590.0 
165.14061 141.0 
166.071671 139.0 
166.106979 625.0 
167.063568 414.0 
167.083313 892.0 
167.119583 2515.0 
168.066345 95.0 
168.084595 76.0 
168.125137 129.0 
169.077759 2295.0 
169.099854 1615.0 
170.078293 199.0 
171.057892 1180.0 
171.092422 3071.0 
172.062134 158.0 
172.09938 589.0 
173.011917 63.0 
173.03894 146.0 
173.072678 838.0 
173.109543 4953.0 
174.077118 199.0 
174.11348 589.0 
175.053162 511.0 
175.088791 1195.0 
175.125519 4647.0 
176.054932 73.0 
176.093796 292.0 
176.127563 400.0 
177.032806 88.0 
177.068115 1178.0 
177.105133 2702.0 
177.141434 2068.0 
178.070496 71.0 
178.108307 192.0 
178.145508 347.0 
179.049149 1050.0 
179.084457 1805.0 
179.12059 3847.0 
179.798874 60.0 
180.052582 99.0 
180.093994 80.0 
180.123291 432.0 
181.100693 5002.0 
181.137512 754.0 
182.100281 427.0 
182.143616 133.0 
183.059631 187.0 
183.116119 12098.0 
183.152664 69.0 
183.78212 81.0 
184.066772 84.0 
184.11908 1343.0 
185.074783 2204.0 
185.110855 2838.0 
186.082596 297.0 
186.114288 203.0 
187.054123 331.0 
187.090195 3701.0 
187.126694 3309.0 
188.057236 86.0 
188.094131 475.0 
188.132111 396.0 
189.069321 2044.0 
189.106247 3539.0 
189.143143 2418.0 
190.074402 294.0 
190.110229 458.0 
190.143829 335.0 
191.05127 101.0 
191.08577 1567.0 
191.122208 7167.0 
191.157684 912.0 
191.659027 62.0 
192.065002 97.0 
192.088669 285.0 
192.124832 933.0 
192.162613 91.0 
192.842743 67.0 
193.068329 522.0 
193.10083 1167.0 
193.1371 2793.0 
193.611847 59.0 
194.102997 188.0 
194.141479 299.0 
195.096573 1028.0 
195.117798 3088.0 
195.153748 406.0 
196.119659 511.0 
196.157745 59.0 
197.076233 1072.0 
197.111221 2001.0 
197.131866 1192.0 
198.077377 216.0 
198.116547 370.0 
198.131958 325.0 
198.927155 68.0 
199.055206 213.0 
199.089264 722.0 
199.128616 2261.0 
199.145966 1554.0 
200.097977 214.0 
200.129425 139.0 
200.154388 146.0 
201.072052 255.0 
201.139633 3883.0 
202.076874 90.0 
202.146881 649.0 
203.056274 70.0 
203.086334 1370.0 
203.122849 2109.0 
203.158768 1380.0 
204.094666 208.0 
204.130569 377.0 
204.161957 130.0 
204.967422 71.0 
205.06723 543.0 
205.102615 3845.0 
205.139969 5816.0 
206.069168 103.0 
206.107788 367.0 
206.144012 752.0 
207.083344 622.0 
207.11853 3300.0 
207.153992 1424.0 
208.122086 521.0 
208.159256 187.0 
209.134033 4449.0 
209.170654 332.0 
210.105087 258.0 
210.137619 835.0 
211.017624 58.0 
211.087021 621.0 
211.12796 1201.0 
211.149185 720.0 
212.092438 71.0 
212.132065 236.0 
213.0737 193.0 
213.111053 1374.0 
213.141922 1975.0 
214.113052 311.0 
214.148193 459.0 
215.08876 4745.0 
215.145905 5720.0 
216.091446 576.0 
216.125595 96.0 
216.153503 463.0 
217.102768 740.0 
217.139954 1347.0 
217.177399 1922.0 
217.965103 65.0 
218.106522 120.0 
218.143616 228.0 
218.179977 268.0 
219.081909 292.0 
219.119324 491.0 
219.156296 5258.0 
220.159561 974.0 
221.100281 912.0 
221.134949 1886.0 
221.1707 664.0 
222.104065 221.0 
222.13916 345.0 
222.172333 83.0 
222.838715 64.0 
223.096588 826.0 
223.151276 47159.0 
223.439728 61.0 
224.099976 122.0 
224.155334 6475.0 
225.16394 4488.0 
225.886536 58.0 
226.169571 687.0 
226.700836 68.0 
227.087433 298.0 
227.124268 655.0 
227.160934 4036.0 
228.128586 201.0 
228.16449 718.0 
229.105377 789.0 
229.141388 944.0 
229.177734 1547.0 
230.146286 154.0 
230.179367 343.0 
230.938751 65.0 
231.084473 888.0 
231.121338 1095.0 
231.15773 1484.0 
231.188187 212.0 
232.126312 204.0 
232.159241 403.0 
232.196716 78.0 
233.100342 6118.0 
233.135498 566.0 
233.172562 2184.0 
233.557724 68.0 
234.103271 1072.0 
234.138916 175.0 
234.175842 612.0 
235.090225 224.0 
235.149216 1217.0 
235.188492 1888.0 
236.14299 265.0 
236.190689 312.0 
237.094406 402.0 
237.166183 3006.0 
238.104645 60.0 
238.169693 425.0 
239.086533 135.0 
239.151855 1917.0 
240.150436 191.0 
240.183853 167.0 
241.105774 1973.0 
241.174637 2145.0 
242.1082 311.0 
242.179001 258.0 
243.120987 1576.0 
243.159546 1898.0 
243.191513 926.0 
244.064835 78.0 
244.124954 312.0 
244.158966 410.0 
244.203384 180.0 
245.105118 228.0 
245.139206 913.0 
245.173508 6593.0 
246.107178 62.0 
246.139984 224.0 
246.177078 1187.0 
247.119598 835.0 
247.151764 1149.0 
247.188812 2284.0 
248.123459 116.0 
248.157318 294.0 
248.191437 489.0 
249.098862 571.0 
249.168655 3118.0 
250.099548 74.0 
250.172745 561.0 
251.111633 7797.0 
251.183823 4464.0 
251.626923 91.0 
252.114487 1090.0 
252.184418 808.0 
253.143158 1897.0 
253.178543 1372.0 
254.148254 213.0 
254.180145 392.0 
255.128006 683.0 
255.180496 2800.0 
255.977966 71.0 
256.130554 59.0 
256.160919 239.0 
256.188202 225.0 
257.101196 280.0 
257.14209 668.0 
257.173065 1221.0 
258.108734 68.0 
258.14035 132.0 
258.173584 153.0 
258.212524 84.0 
259.117249 3740.0 
259.157135 275.0 
259.190643 4060.0 
260.12381 563.0 
260.194031 666.0 
261.167297 2128.0 
261.205322 1543.0 
262.144714 121.0 
262.175323 461.0 
262.211182 350.0 
263.185516 43634.0 
263.614441 115.0 
264.188904 7553.0 
265.144745 558.0 
265.199677 5945.0 
266.12442 87.0 
266.204407 965.0 
267.21698 18640.0 
268.220154 3445.0 
268.766235 66.0 
269.137299 1397.0 
269.175018 1007.0 
269.213074 539.0 
270.142548 282.0 
270.179047 462.0 
271.154724 3673.0 
271.191528 2743.0 
272.157776 796.0 
272.192627 379.0 
272.337036 69.0 
273.134613 5021.0 
273.198608 1922.0 
273.699127 65.0 
274.135468 755.0 
274.199127 381.0 
275.038452 60.0 
275.119171 185.0 
275.150238 501.0 
275.185455 1860.0 
275.222473 1197.0 
275.582275 73.0 
276.186432 334.0 
276.223877 287.0 
276.539886 62.0 
276.971863 59.0 
277.128906 3504.0 
277.202576 4692.0 
278.133636 385.0 
278.203979 1011.0 
279.085236 64.0 
279.158356 1620.0 
279.217255 2626.0 
280.128723 67.0 
280.168518 225.0 
280.219452 365.0 
281.038666 75.0 
281.140961 2044.0 
281.196411 2948.0 
282.142792 760.0 
282.199158 422.0 
283.154053 1289.0 
283.215668 2664.0 
284.128235 79.0 
284.157318 290.0 
284.21814 665.0 
285.128357 153.0 
285.16983 656.0 
285.226898 1255.0 
286.171051 83.0 
286.234039 172.0 
287.150574 2024.0 
287.187469 1866.0 
287.222229 335.0 
288.152588 416.0 
288.190063 185.0 
288.223206 126.0 
289.165009 1914.0 
289.202545 6310.0 
290.171936 582.0 
290.207184 1500.0 
291.145813 9721.0 
291.217163 3230.0 
292.148529 1495.0 
292.222992 524.0 
293.167419 320.0 
293.233978 4686.0 
294.160461 81.0 
294.236969 918.0 
295.150543 1134.0 
295.214142 7274.0 
296.153748 266.0 
296.215515 1377.0 
297.134491 331.0 
297.171967 2893.0 
297.211334 938.0 
298.176422 409.0 
298.209137 220.0 
299.152863 5562.0 
299.217651 454.0 
300.155731 1171.0 
300.222321 144.0 
301.167633 1113.0 
301.201141 378.0 
301.24057 1840.0 
302.171234 303.0 
302.245148 463.0 
303.147552 322.0 
303.188934 537.0 
303.21701 626.0 
304.148163 85.0 
304.175507 65.0 
304.221771 194.0 
305.099884 63.0 
305.162842 1782.0 
305.198456 2518.0 
305.23349 591.0 
306.169434 170.0 
306.200012 282.0 
307.176758 2312.0 
307.214539 10435.0 
307.291962 75.0 
308.172821 512.0 
308.216919 1946.0 
309.161011 3151.0 
309.230438 2069.0 
310.161957 611.0 
310.230652 721.0 
310.923492 59.0 
311.153839 399.0 
311.184296 754.0 
311.244812 4345.0 
312.147461 61.0 
312.246368 1136.0 
313.167511 1765.0 
313.226685 5303.0 
314.171906 443.0 
314.229675 1177.0 
315.153198 501.0 
315.185944 2413.0 
315.252594 194.0 
316.187256 580.0 
316.258881 63.0 
317.163574 9324.0 
317.210022 357.0 
317.235962 823.0 
318.168213 1911.0 
318.238831 408.0 
319.180115 1288.0 
319.251221 6822.0 
320.182556 140.0 
320.253754 1504.0 
320.690979 65.0 
321.23172 4813.0 
322.163116 60.0 
322.23645 816.0 
323.214386 874.0 
323.239624 1004.0 
324.173828 95.0 
324.215546 126.0 
324.252228 236.0 
325.16861 4370.0 
325.21817 439.0 
326.172119 909.0 
326.242554 146.0 
326.674805 59.0 
327.184509 2388.0 
327.256653 1183.0 
328.188904 289.0 
328.227936 183.0 
328.264282 240.0 
329.166473 672.0 
329.198456 775.0 
329.236694 3887.0 
330.172363 139.0 
330.200104 206.0 
330.239746 510.0 
331.179718 1929.0 
331.248993 1352.0 
332.18222 324.0 
332.251404 345.0 
333.195404 2073.0 
333.267609 2283.0 
334.199127 312.0 
334.267975 287.0 
335.174957 2806.0 
335.248413 526.0 
336.177216 846.0 
336.249908 113.0 
337.205688 3230.0 
337.238525 1746.0 
338.211975 1045.0 
338.246216 611.0 
338.394348 58.0 
338.689575 75.0 
339.088684 77.0 
339.186554 287.0 
339.242065 4605.0 
340.190277 114.0 
340.249115 893.0 
341.165833 195.0 
341.20517 619.0 
341.254517 682.0 
342.175964 149.0 
342.204437 192.0 
342.250092 111.0 
343.17981 7879.0 
343.256592 652.0 
343.404999 60.0 
344.182281 1888.0 
344.259338 220.0 
345.195496 1670.0 
345.269257 4588.0 
346.198151 331.0 
346.269073 814.0 
347.190094 508.0 
347.249939 2915.0 
348.178741 99.0 
348.251923 589.0 
349.11908 59.0 
349.197174 1701.0 
349.264069 1964.0 
350.201599 424.0 
350.250854 311.0 
351.193634 427.0 
351.278931 8649.0 
352.226318 174.0 
352.282654 1747.0 
353.199371 995.0 
353.237244 410.0 
353.278137 428.0 
354.19931 121.0 
354.277039 121.0 
355.217896 5206.0 
355.253357 4888.0 
356.225464 956.0 
356.254852 1396.0 
357.200409 997.0 
357.256927 1360.0 
358.199097 176.0 
358.241425 245.0 
358.285309 144.0 
359.1362 73.0 
359.224884 607.0 
359.284607 679.0 
360.21579 181.0 
360.287292 241.0 
361.192566 5157.0 
361.26297 1843.0 
362.197113 1101.0 
362.269714 600.0 
362.985199 65.0 
363.207306 495.0 
363.280487 2400.0 
363.705688 72.0 
364.209625 116.0 
364.240448 86.0 
364.284546 461.0 
365.212738 1390.0 
365.271759 691.0 
366.205017 353.0 
366.234985 263.0 
367.210449 1733.0 
367.259796 753.0 
368.220917 271.0 
368.258698 362.0 
369.203339 527.0 
369.235718 880.0 
369.289917 2125.0 
370.234314 208.0 
370.284637 383.0 
371.21286 1507.0 
371.294525 396.0 
372.168671 77.0 
372.213684 404.0 
372.255646 180.0 
372.287079 120.0 
373.230194 6061.0 
373.265228 12426.0 
373.61026 74.0 
373.934479 58.0 
374.232788 1300.0 
374.268036 3324.0 
374.799561 65.0 
375.210968 2018.0 
375.277527 1329.0 
376.212128 561.0 
376.286621 254.0 
376.379486 66.0 
377.238953 4342.0 
377.296936 3021.0 
378.241699 1098.0 
378.299133 883.0 
379.207703 489.0 
379.278351 1717.0 
380.213501 121.0 
380.287659 613.0 
381.178436 163.0 
381.273926 720.0 
382.270081 162.0 
382.305847 88.0 
383.215271 2302.0 
383.284912 384.0 
384.214661 684.0 
384.289673 165.0 
385.229523 1502.0 
385.299438 155.0 
386.232361 313.0 
387.246246 840.0 
387.281342 3483.0 
388.234375 189.0 
388.285614 778.0 
389.227661 439.0 
389.290192 585.0 
390.23407 271.0 
390.294983 183.0 
391.209106 193.0 
391.276459 3860.0 
392.277893 919.0 
393.221008 3747.0 
393.290466 850.0 
394.225769 815.0 
395.249329 7781.0 
395.308685 2330.0 
396.206787 78.0 
396.253204 2244.0 
396.310394 773.0 
397.135925 58.0 
397.237885 424.0 
397.261963 512.0 
397.303741 1950.0 
398.229065 81.0 
398.267303 234.0 
398.307098 276.0 
399.205902 74.0 
399.281952 786.0 
400.283569 284.0 
401.226044 2416.0 
401.294159 308.0 
402.227295 584.0 
403.239685 1137.0 
404.239471 247.0 
404.283081 89.0 
405.292786 12087.0 
406.141876 59.0 
406.295349 2745.0 
407.294312 1278.0 
408.250549 121.0 
408.311584 321.0 
409.231506 283.0 
409.267181 797.0 
409.321838 1724.0 
410.264435 179.0 
410.326843 459.0 
411.237213 3929.0 
411.31073 386.0 
412.244446 839.0 
413.186096 107.0 
413.261597 14377.0 
413.961304 86.0 
414.265717 4134.0 
415.243378 795.0 
415.27243 905.0 
415.312561 654.0 
416.239197 141.0 
416.272766 112.0 
416.312866 84.0 
417.259644 205.0 
418.31311 63.0 
419.235687 186.0 
419.275879 264.0 
419.310516 379.0 
420.186951 69.0 
420.243835 106.0 
420.305389 178.0 
421.20871 84.0 
421.252136 568.0 
421.306244 450.0 
422.251801 148.0 
422.327942 103.0 
423.307953 7450.0 
424.31189 1983.0 
425.213074 202.0 
425.261139 641.0 
425.302643 1823.0 
426.215759 71.0 
426.305267 495.0 
427.280792 1275.0 
428.279663 294.0 
429.257751 1989.0 
429.328278 356.0 
430.260345 545.0 
430.333069 77.0 
431.273468 5455.0 
432.273499 1171.0 
433.253082 1253.0 
434.256897 423.0 
435.276703 416.0 
436.283661 120.0 
437.249634 210.0 
437.321136 1561.0 
438.286652 224.0 
438.321411 290.0 
439.242615 96.0 
439.316711 1245.0 
439.475983 58.0 
440.318634 295.0 
441.265137 228.0 
441.330017 7000.0 
442.332336 2522.0 
443.310547 1716.0 
444.262024 163.0 
444.312347 577.0 
444.433044 62.0 
445.289551 2877.0 
446.242737 65.0 
446.298859 672.0 
447.292236 474.0 
448.277618 198.0 
449.29187 532.0 
450.299164 376.0 
451.277039 307.0 
452.318939 185.0 
453.290192 196.0 
454.327209 116.0 
455.226746 147.0 
455.294617 733.0 
455.34433 2921.0 
456.348297 1157.0 
457.326538 2977.0 
458.329865 705.0 
459.340485 1515.0 
460.342041 308.0 
461.282684 896.0 
462.289764 246.0 
463.247467 228.0 
463.300629 8169.0 
464.303436 2505.0 
465.301758 849.0 
466.321625 176.0 
467.316254 626.0 
468.307465 175.0 
469.321747 528.0 
470.301971 213.0 
471.338074 411.0 
471.462372 77.0 
472.220245 58.0 
472.327148 103.0 
472.354248 99.0 
473.303497 1765.0 
473.357056 9582.0 
474.003632 65.0 
474.30542 522.0 
474.359528 2590.0 
475.338776 3183.0 
476.337646 856.0 
477.307159 277.0 
477.349823 256.0 
478.295471 93.0 
479.227753 70.0 
479.306091 586.0 
480.241211 80.0 
480.298798 310.0 
481.258087 125.0 
481.314911 1793.0 
482.31781 435.0 
483.248871 63.0 
483.308289 584.0 
484.314178 281.0 
485.311829 169.0 
486.273193 75.0 
487.351868 433.0 
488.353058 122.0 
489.352356 1109.0 
490.358948 557.0 
491.236908 123.0 
491.312286 3199.0 
491.367889 2721.0 
492.31488 1122.0 
492.374939 1014.0 
493.253326 95.0 
493.329071 690.0 
494.332458 200.0 
495.327362 1416.0 
496.323517 213.0 
497.331451 654.0 
498.340363 299.0 
499.267212 149.0 
499.336517 428.0 
500.337494 255.0 
501.306427 96.0 
501.348907 604.0 
502.314575 138.0 
502.351166 133.0 
503.3414 190.0 
504.372375 156.0 
505.270874 110.0 
505.384064 2466.0 
506.388214 1005.0 
507.369263 789.0 
508.357513 213.0 
509.247864 98.0 
509.322723 4230.0 
509.378723 453.0 
510.326019 1724.0 
511.33313 414.0 
512.305847 79.0 
512.359619 78.0 
513.365051 333.0 
514.381104 218.0 
515.275391 65.0 
515.34729 1846.0 
516.347839 640.0 
517.256836 87.0 
517.348511 352.0 
518.292603 93.0 
518.373474 151.0 
519.363464 514.0 
520.362915 205.0 
521.277222 77.0 
521.366333 155.0 
522.330872 64.0 
523.349915 1203.0 
523.395874 2467.0 
524.345459 259.0 
524.400879 697.0 
525.366943 387.0 
526.375854 139.0 
527.258545 88.0 
527.334595 1820.0 
528.338684 697.0 
529.301086 77.0 
529.343567 231.0 
530.357788 101.0 
531.34021 222.0 
531.373596 284.0 
532.389282 221.0 
533.360168 3784.0 
534.36438 1340.0 
535.288696 199.0 
535.360413 450.0 
536.283386 86.0 
536.381653 71.0 
537.357666 354.0 
538.34552 66.0 
539.304077 76.0 
539.339294 272.0 
540.289429 67.0 
540.354919 69.0 
541.362244 3865.0 
542.364929 1039.0 
543.288818 67.0 
543.371155 595.0 
544.369995 137.0 
545.345215 257.0 
546.348083 116.0 
547.305298 102.0 
547.372925 489.0 
548.307861 126.0 
548.374329 227.0 
549.380554 335.0 
550.397949 215.0 
551.274292 77.0 
551.374084 3631.0 
551.567078 68.0 
552.376465 1464.0 
553.287659 129.0 
553.375427 516.0 
554.368286 86.0 
555.372864 399.0 
556.367859 196.0 
557.296204 114.0 
557.360413 191.0 
558.339783 89.0 
559.375916 8820.0 
560.206665 59.0 
560.379395 3304.0 
561.382385 1313.0 
562.387024 255.0 
563.405212 309.0 
563.844727 73.0 
564.341492 73.0 
564.410278 92.0 
564.814941 128.0 
565.383484 678.0 
566.30896 60.0 
566.390198 654.0 
567.289978 100.0 
567.340027 92.0 
567.390015 316.0 
568.378418 103.0 
569.380676 1937.0 
570.389221 685.0 
571.386108 224.0 
572.389465 67.0 
573.392395 1498.0 
574.396362 461.0 
575.298462 177.0 
575.378479 316.0 
576.394653 86.0 
577.26532 61.0 
577.387634 16023.0 
578.039124 79.0 
578.390198 6509.0 
578.487244 62.0 
579.396851 1289.0 
580.39624 218.0 
581.403625 251.0 
582.408691 70.0 
583.302002 142.0 
583.398499 1284.0 
584.403809 335.0 
585.373657 187.0 
586.396667 132.0 
587.3927 1118.0 
588.392273 345.0 
589.308411 59.0 
589.391174 368.0 
590.375488 94.0 
590.837708 61.0 
591.404358 9015.0 
591.601624 64.0 
592.407898 4113.0 
593.15863 79.0 
593.319214 134.0 
593.393005 720.0 
594.396423 180.0 
595.238464 60.0 
595.399414 15070.0 
595.510193 68.0 
595.948792 63.0 
596.400269 6278.0 
597.405212 1591.0 
598.416138 225.0 
599.383972 273.0 
600.426453 75.0 
601.408142 973.0 
602.414185 264.0 
603.389221 106.0 
604.390625 69.0 
605.411072 614.0 
606.370728 109.0 
606.412231 149.0 
607.403137 714.0 
608.400757 300.0 
609.414734 20481.0 
609.518311 92.0 
610.189941 60.0 
610.418701 8043.0 
611.420776 2242.0 
612.422546 405.0 
613.157593 59.0 
613.34613 172.0 
613.411621 3707.0 
613.561829 75.0 
614.412659 1997.0 
615.413513 482.0 
616.390137 67.0 
617.344299 93.0 
617.396851 102.0 
617.423462 138.0 
618.446167 99.0 
619.420288 1346.0 
620.426819 306.0 
621.4151 241.0 
623.346558 59.0 
623.430786 1822.0 
624.432678 759.0 
625.409302 894.0 
626.410339 357.0 
626.961548 59.0 
627.322937 163.0 
627.426392 29732.0 
627.544861 63.0 
628.429932 11970.0 
629.330444 81.0 
629.432068 2966.0 
630.432617 503.0 
631.422424 269.0 
632.367615 91.0 
632.82843 66.0 
633.342285 82.0 
633.415039 126.0 
634.438293 81.0 
635.366821 117.0 
635.445374 58.0 
636.374207 101.0 
636.427734 59.0 
637.427124 803.0 
638.432617 152.0 
639.35675 63.0 
639.428467 616.0 
640.428894 223.0 
641.445374 4328.0 
641.82428 88.0 
642.445435 1547.0 
643.433044 521.0 
643.620117 69.0 
644.421082 287.0 
645.328064 100.0 
645.436707 17293.0 
646.00592 66.0 
646.439026 6877.0 
647.445801 1714.0 
648.449402 303.0 
649.393616 139.0 
649.435364 165.0 
650.424377 97.0 
651.35791 194.0 
651.444275 759.0 
652.386902 61.0 
652.448547 246.0 
653.370667 117.0 
653.443604 88.0 
655.418396 258.0 
656.426147 162.0 
657.434265 695.0 
658.438232 758.0 
659.335266 81.0 
659.452026 12086.0 
660.455383 5598.0 
661.46106 1239.0 
662.462463 166.0 
663.44696 2414.0 
664.447021 1077.0 
665.387878 84.0 
665.447388 231.0 
666.436584 81.0 
667.446106 174.0 
669.366211 80.0 
669.459717 690.0 
670.455444 540.0 
671.377808 119.0 
671.456421 181.0 
673.44165 243.0 
674.428162 134.0 
675.382874 96.0 
675.453552 370.0 
676.441895 107.0 
677.463318 19099.0 
677.882874 61.0 
678.043152 65.0 
678.337402 67.0 
678.466858 7242.0 
678.793335 66.0 
679.469604 1704.0 
680.469177 386.0 
681.4552 291.0 
681.874756 88.0 
681.93689 165.0 
682.44165 143.0 
682.945007 72.0 
685.442749 125.0 
687.466858 565.0 
688.470276 265.0 
689.405701 115.0 
689.458801 99.0 
690.470398 75.0 
691.391296 125.0 
691.435059 127.0 
692.439148 88.0 
693.391724 102.0 
693.465149 207.0 
694.391663 90.0 
694.516357 67.0 
694.962952 61.0 
695.266052 127.0 
695.332825 124.0 
695.475159 21846.0 
695.573181 72.0 
696.478394 9020.0 
697.406128 59.0 
697.480652 2351.0 
697.938477 69.0 
698.479614 239.0 
699.445862 210.0 
700.316956 75.0 
700.401428 78.0 
703.436646 108.0 
703.484985 113.0 
704.424194 71.0 
705.451599 166.0 
705.520325 75.0 
706.444031 1817.0 
706.946472 2044.0 
707.442566 619.0 
707.94989 240.0 
708.395813 70.0 
708.444153 282.0 
709.344238 77.0 
709.450928 2425.0 
710.352295 74.0 
710.456543 948.0 
711.418335 64.0 
711.476685 148.0 
712.507202 74.0 
713.485962 1388.0 
714.402832 60.0 
714.485901 891.0 
715.410583 94.0 
715.487122 231.0 
717.485352 117.0 
718.423767 68.0 
718.50354 64.0 
719.447144 113.0 
721.435974 135.0 
721.497192 146.0 
722.441467 80.0 
723.478088 197.0 
725.4198 271.0 
726.41333 97.0 
727.452454 93.0 
729.476501 162.0 
730.522583 71.0 
731.452271 184.0 
732.476501 60.0 
733.482666 210.0 
734.462769 64.0 
735.495667 235.0 
736.491089 137.0 
737.495544 157.0 
738.497131 81.0 
739.450623 208.0 
741.471619 74.0 
743.525024 126.0 
744.525574 98.0 
745.469543 108.0 
746.479004 120.0 
747.475342 83.0 
748.434448 73.0 
749.474976 109.0 
751.441956 102.0 
751.493103 87.0 
752.515869 60.0 
753.484741 95.0 
755.466736 106.0 
755.509766 169.0 
756.440308 61.0 
757.472229 78.0 
757.534119 63.0 
758.527527 63.0 
759.540222 88.0 
761.455994 94.0 
761.525757 76.0 
762.478271 109.0 
763.479736 231.0 
763.561401 62.0 
764.477173 164.0 
765.485474 169.0 
766.50061 66.0 
767.418579 65.0 
767.49469 141.0 
768.525391 67.0 
769.472473 173.0 
770.512268 60.0 
770.585815 58.0 
771.518921 76.0 
773.466064 62.0 
773.567932 85.0 
775.481567 120.0 
777.48645 133.0 
779.505554 63.0 
780.491821 72.0 
781.492798 364.0 
782.49707 190.0 
783.524719 100.0 
784.504395 86.0 
785.500122 152.0 
786.527832 98.0 
787.474487 58.0 
787.522888 81.0 
788.495361 103.0 
789.497253 75.0 
792.555176 70.0 
795.50647 274.0 
797.503906 110.0 
798.498962 73.0 
799.505005 218.0 
800.533386 111.0 
801.422302 61.0 
801.511108 141.0 
802.51825 85.0 
802.585449 63.0 
803.532532 111.0 
805.520813 138.0 
805.582642 61.0 
806.486023 67.0 
807.536926 70.0 
808.553284 58.0 
809.4823 61.0 
811.545227 89.0 
813.519409 901.0 
814.532043 409.0 
815.534058 322.0 
816.542603 141.0 
817.535522 89.0 
818.521973 100.0 
819.52771 72.0 
820.516174 84.0 
823.538391 134.0 
824.493774 59.0 
825.585449 64.0 
827.55896 72.0 
829.511353 66.0 
829.567993 166.0 
830.555481 98.0 
831.531677 745.0 
832.537842 456.0 
833.539795 178.0 
835.545471 150.0 
836.525452 89.0 
836.595947 63.0 
837.522644 249.0 
837.575439 112.0 
838.505188 70.0 
839.564392 154.0 
840.602905 61.0 
841.528992 122.0 
845.513794 65.0 
845.61676 61.0 
847.569275 159.0 
848.570496 107.0 
849.540649 432.0 
850.552551 253.0 
851.515686 85.0 
851.552734 141.0 
852.575623 76.0 
853.555115 198.0 
855.530823 78.0 
856.56073 110.0 
857.566101 60.0 
857.611206 58.0 
859.54834 94.0 
860.555359 102.0 
863.581543 69.0 
864.567749 71.0 
865.587952 124.0 
866.542236 60.0 
867.540405 248.0 
868.566772 121.0 
869.559937 74.0 
870.552429 61.0 
871.549133 94.0 
872.539001 70.0 
873.56073 97.0 
875.56012 142.0 
877.548462 111.0 
878.56311 67.0 
879.555847 80.0 
881.58252 371.0 
882.580994 283.0 
883.594543 155.0 
885.562927 544.0 
886.550842 78.0 
886.616943 83.0 
887.591248 91.0 
889.588562 58.0 
890.631836 63.0 
891.56189 140.0 
892.572144 85.0 
894.591431 71.0 
895.580566 86.0 
896.640808 78.0 
897.558716 150.0 
898.59198 84.0 
899.590332 659.0 
900.602539 419.0 
901.61084 155.0 
902.605774 60.0 
903.570679 543.0 
904.573608 245.0 
905.581055 169.0 
907.578064 123.0 
907.626343 121.0 
908.585754 96.0 
909.57605 120.0 
909.663757 87.0 
910.597351 97.0 
913.643555 77.0 
915.626953 107.0 
916.636108 96.0 
916.69873 81.0 
917.588013 400.0 
918.599548 269.0 
919.603943 107.0 
920.654236 62.0 
921.584839 299.0 
922.587158 151.0 
923.580444 401.0 
924.584961 102.0 
925.621521 123.0 
927.591919 433.0 
928.594238 124.0 
930.578552 78.0 
931.608704 58.0 
933.581055 122.0 
934.601868 87.0 
935.588989 714.0 
935.686279 65.0 
936.592773 275.0 
937.602905 303.0 
938.614075 116.0 
939.673157 63.0 
940.59845 127.0 
941.605286 58.0 
942.652893 61.0 
943.611511 134.0 
944.613037 61.0 
945.626526 62.0 
946.606506 79.0 
946.686218 63.0 
947.635315 127.0 
948.654419 76.0 
949.620605 89.0 
951.595215 96.0 
951.657288 77.0 
952.61377 224.0 
953.603394 1052.0 
954.611877 556.0 
955.603577 222.0 
956.618286 77.0 
957.62439 157.0 
957.729736 75.0 
958.622803 76.0 
958.695435 69.0 
959.706543 140.0 
961.697571 120.0 
963.628235 77.0 
964.646973 95.0 
965.646484 206.0 
966.643311 263.0 
967.625488 114.0 
967.694458 76.0 
969.61853 184.0 
970.612671 230.0 
971.614319 265.0 
972.625916 209.0 
973.092957 58.0 
973.655884 128.0 
973.7146 75.0 
975.638184 183.0 
976.627808 247.0 
977.631104 81.0 
977.706055 199.0 
978.743286 60.0 
979.639221 78.0 
979.707153 81.0 
981.656372 100.0 
982.661621 59.0 
983.641663 256.0 
984.648071 128.0 
985.633606 169.0 
985.718506 106.0 
986.663147 69.0 
987.646301 144.0 
988.630432 131.0 
988.720215 86.0 
989.638733 65.0 
989.679443 75.0 
991.658081 150.0 
991.716064 69.0 
992.670349 207.0 
993.649231 269.0 
994.660095 213.0 
995.650452 119.0 
997.663086 98.0 
999.671021 186.0 
1000.679688 63.0 
1001.648499 616.0 
1002.646606 329.0 
1003.650757 269.0 
1004.64978 85.0 
1005.649414 106.0 
1006.65094 79.0 
1006.723145 64.0 
1007.651733 104.0 
1008.663147 78.0 
1009.675293 322.0 
1010.677429 267.0 
1011.642761 194.0 
1012.653809 112.0 
1013.653381 187.0 
1014.684937 59.0 
1015.638977 85.0 
1015.700989 136.0 
1016.708923 120.0 
1017.734436 104.0 
1019.651611 1093.0 
1020.654785 683.0 
1021.682251 374.0 
1022.643188 127.0 
1023.668579 83.0 
1023.745911 65.0 
1024.661743 94.0 
1025.661133 268.0 
1026.665771 285.0 
1027.681885 81.0 
1027.743652 170.0 
1028.679443 121.0 
1028.735718 107.0 
1031.693604 247.0 
1032.6875 154.0 
1033.67749 288.0 
1034.686646 246.0 
1035.661743 103.0 
1036.693115 74.0 
1037.664062 1004.0 
1038.663818 468.0 
1039.679077 287.0 
1040.678223 161.0 
1041.686768 191.0 
1042.696899 156.0 
1043.678345 345.0 
1044.692139 181.0 
1044.78833 65.0 
1045.678345 208.0 
1046.738037 58.0 
1046.793091 72.0 
1047.703491 92.0 
1048.701294 74.0 
1049.700317 520.0 
1049.777344 85.0 
1050.702515 232.0 
1051.682495 798.0 
1052.574829 62.0 
1052.680664 341.0 
1053.696045 287.0 
1054.70752 217.0 
1055.692627 231.0 
1056.679932 131.0 
1057.685059 100.0 
1057.76062 80.0 
1058.705322 176.0 
1059.697388 85.0 
1061.685669 110.0 
1062.699585 69.0 
1063.709106 138.0 
1063.751953 122.0 
1064.729004 162.0 
1065.69104 64.0 
1065.769775 75.0 
1066.718262 66.0 
1067.646118 64.0 
1067.713257 173.0 
1068.728149 116.0 
1069.692749 1063.0 
1070.695923 862.0 
1071.705444 702.0 
1072.725952 186.0 
1073.725586 229.0 
1075.734863 97.0 
1077.711792 64.0 
1081.744873 335.0 
1082.737793 446.0 
1083.73291 139.0 
1085.744751 88.0 
1086.747437 69.0 
1087.697998 1029.0 
1088.70105 805.0 
1089.728638 894.0 
1090.722046 347.0 
1091.712158 146.0 
1092.750732 161.0 
1096.703125 90.0 
1099.747681 295.0 
1100.752686 176.0 
1101.742798 82.0 
1103.751343 242.0 
1103.821533 66.0 
1104.748291 92.0 
1105.75061 172.0 
1106.742798 115.0 
1107.748291 295.0 
1108.731323 194.0 
1109.73291 194.0 
1110.710693 100.0 
1111.682617 1046.0 
1112.689575 476.0 
1113.795288 96.0 
1117.763916 105.0 
1119.769043 67.0 
1121.761963 662.0 
1122.762695 350.0 
1123.763306 124.0 
1124.653442 60.0 
1124.784546 81.0 
1125.765015 71.0 
1126.733032 61.0 
1127.762573 89.0 
1130.772705 63.0 
1131.811523 62.0 
1132.829956 74.0 
1139.640869 67.0 
1139.771484 1278.0 
1140.773071 787.0 
1141.767944 307.0 
1142.790894 74.0 
1149.808472 66.0 
1151.807617 74.0 
1157.782715 520.0 
1158.784546 489.0 
1159.786377 262.0 
1160.790527 76.0 
1163.754639 69.0 
1168.792847 63.0 
1175.816772 80.0 
1177.77356 68.0 
1179.750854 85.0 
1180.672363 62.0 
1181.767456 258.0 
1182.782349 146.0 
1182.859009 71.0 
1186.827637 72.0 
1199.803589 64.0 
1199.864014 87.0 
1201.821655 65.0 
1204.831543 79.0 
1207.793091 64.0 
1217.840576 153.0 
1218.841309 109.0 
1221.816162 116.0 
1235.851074 276.0 
1236.842651 143.0 
1237.871338 140.0 
1238.855835 64.0 
1240.856567 58.0 
1249.899048 79.0 
1253.854126 195.0 
1254.849976 177.0 
1255.8573 218.0 
1256.845947 60.0 
1267.868774 237.0 
1268.894287 133.0 
1269.875854 104.0 
1270.871826 114.0 
1271.864014 216.0 
1272.870605 295.0 
1273.866455 123.0 
1285.752441 61.0 
1285.878174 797.0 
1286.883057 517.0 
1287.24353 90.0 
1287.88147 382.0 
1288.890137 160.0 
1289.871826 289.0 
1290.555542 65.0 
1290.878052 152.0 
1292.130127 77.0 
1300.906006 131.0 
1302.880615 60.0 
1303.891113 1237.0 
1304.891357 1054.0 
1305.901611 477.0 
1306.908569 133.0 
1317.902588 212.0 
1318.9021 176.0 
1319.912964 329.0 
1320.911499 181.0 
1321.905762 1345.0 
1322.905762 1028.0 
1323.733643 65.0 
1323.90979 318.0 
1324.906128 194.0 
1335.91626 1003.0 
1336.921265 952.0 
1337.928833 845.0 
1338.930298 517.0 
1339.935669 548.0 
1340.915405 573.0 
1341.916992 250.0 
1342.924561 191.0 
1347.05542 66.0 
1352.671021 58.0 
1353.925293 2649.0 
1354.937256 3301.0 
1355.937012 1488.0 
1356.938721 551.0 
1357.378784 122.0 
1357.928101 220.0 
1359.936035 99.0 
1361.109863 58.0 
1363.772949 134.0 
1364.683228 69.0 
1365.395264 78.0 
1366.55835 74.0 
1367.125 65.0 
1368.353638 70.0 
1369.946167 66.0 
1371.012939 60.0 
1371.939209 7796.0 
1372.52832 68.0 
1372.616821 72.0 
1372.941406 6968.0 
1373.500732 77.0 
1373.762573 59.0 
1373.945435 3297.0 
1374.682861 74.0 
1374.938232 855.0 
1375.223633 62.0 
1375.955444 234.0 
1376.938843 165.0 
1377.881958 73.0 
1378.532593 106.0 
1378.910645 91.0 
1379.051392 73.0 
1379.71875 69.0 
1380.046753 89.0 
1381.845215 58.0 
1383.068481 59.0 
1384.400146 64.0 
1385.234131 62.0 
1385.405884 78.0 
1385.906128 717.0 
1386.667847 73.0 
1386.910034 620.0 
1387.264038 61.0 
1387.92041 166.0 
1388.927124 126.0 
1389.362183 64.0 
1389.819824 86.0 
1389.947632 902.0 
1390.554321 71.0 
1390.959839 864.0 
1391.231323 69.0 
1391.357666 59.0 
1391.668091 74.0 
1391.863159 136.0 
1391.935547 301.0 
1392.299561 70.0 
1392.396729 78.0 
1392.45105 94.0 
1392.562012 85.0 
1392.786133 93.0 
1392.913208 739.0 
1393.086182 81.0 
1393.264038 133.0 
1393.416748 967.0 
1393.523438 183.0 
1393.657959 163.0 
1393.782959 177.0 
1393.908203 4421.0 
1394.119507 117.0 
1394.203857 115.0 
1394.258789 113.0 
1394.310791 121.0 
1394.424316 457.0 
1394.578369 188.0 
1394.636353 205.0 
1394.804077 392.0 
1394.910889 3080.0 
1395.078735 246.0 
1395.255127 161.0 
1395.425903 214.0 
1395.554321 397.0 
1395.921753 269057.0 
1396.171143 292.0 
1396.223022 245.0 
1396.401123 482.0 
1396.456787 436.0 
1396.681519 304.0 
1396.925415 104538.0 
1397.128296 199.0 
1397.216187 305.0 
1397.319092 288.0 
1397.439209 361.0 
1397.660767 124.0 
1397.720825 171.0 
1397.779541 276.0 
1397.927002 8113.0 
1398.113159 124.0 
1398.173218 257.0 
1398.298828 237.0 
1398.425415 93.0 
1398.473877 106.0 
1398.635498 113.0 
1398.692139 125.0 
1398.932007 379.0 
1399.124756 93.0 
1399.25293 85.0 
1399.357178 151.0 
1399.482422 124.0 
1399.550659 83.0 
1399.640991 105.0 
1399.732666 144.0 
1399.848022 74.0 
1399.964966 104.0 
1400.05957 126.0 
1400.470093 59.0 
1400.549438 84.0 
1400.817383 90.0 
1401.41272 65.0 
1401.624146 69.0 
1401.776611 139.0 
1401.871094 92.0 
1401.974487 97.0 
1402.049683 89.0 
1402.112305 91.0 
1402.192139 83.0 
1402.319458 171.0 
1402.444458 109.0 
1402.524658 244.0 
1402.666016 114.0 
1402.787354 216.0 
1402.828003 285.0 
1402.952637 206.0 
1403.081055 129.0 
1403.177002 125.0 
1403.309204 133.0 
1403.404175 192.0 
1403.513428 82.0 
1403.637085 125.0 
1403.737915 61.0 
1403.901123 68.0 
1404.025513 59.0 
1411.849731 112.0 
1412.92395 131.0 
1424.970215 80.0 
END IONS

