BEGIN IONS
PEPMASS=308.0
CHARGE=1+
COMPOUNDNAME=Massbank:KO003608 Neomycin|Fradiomycin B|Streptothricin B|Neomycin B
LIBRARYQUALITY=3
SMILES=NC[C@H](O1)[C@@H](O)[C@H](O)[C@@H](N)[C@H]1O[C@H]([C@@H](CO)4)[C@@H](O)[C@@H](O4)O[C@H]([C@@H](O)3)[C@@H]([C@@H](N)C[C@@H](N)3)O[C@@H](O2)[C@H](N)[C@@H](O)[C@H](O)[C@@H](CN)2
INCHIKEY=PGBHMTALBVVCIT-VCIWKGPPSA-N
INCHI=1S/C23H46N6O13/c24-2-7-13(32)15(34)10(28)21(37-7)40-18-6(27)1-5(26)12(31)20(18)42-23-17(36)19(9(4-30)39-23)41-22-11(29)16(35)14(33)8(3-25)38-22/h5-23,30-36H,1-4,24-29H2
MSLEVEL=2
SOURCE_INSTRUMENT=ESI-LC-ESI-QQ
FILENAME=Massbank_ESI_positive_8_1_2014_peaks.mgf
SEQ=*..*
IONMODE=Positive
ORGANISM=MASSBANK
NAME=Massbank:KO003608 Neomycin|Fradiomycin B|Streptothricin B|Neomycin B [M+2H]++
PI=Putative Massbank Match
DATACOLLECTOR=Massbank
PUBMED=N/A
SUBMITUSER=mwang87
TAGS=
SPECTRUMID=CCMSLIB00000219746
SCANS=9410
39.8 19802.0 
56.2 24752.5 
59.8 19802.0 
68.3 74257.5 
72.9 410891.5 
73.3 94059.5 
77.7 14851.5 
80.2 1737625.5 
80.8 29703.0 
82.2 326733.0 
83.1 79208.0 
84.1 346535.0 
85.3 128713.0 
86.0 202970.5 
90.4 44554.5 
95.2 24752.5 
96.3 455446.0 
97.1 490099.5 
98.0 1826734.5 
100.2 39604.0 
101.2 133663.5 
105.1 143564.5 
106.8 74257.5 
108.0 594060.0 
109.0 222772.5 
112.0 39604.0 
112.9 39604.0 
114.0 5599015.5 
115.4 84158.5 
116.2 14851.5 
120.8 628713.5 
123.3 54455.5 
125.0 1965348.5 
126.2 732674.0 
127.4 14851.5 
128.9 24752.5 
132.0 113861.5 
133.9 198020.0 
134.3 123762.5 
135.7 24752.5 
137.9 227723.0 
143.1 1717823.5 
144.0 475248.0 
145.1 34653.5 
146.6 69307.0 
148.9 24752.5 
151.1 59406.0 
156.1 29703.0 
161.2 8232681.5 
161.9 84158.5 
163.3 4628717.5 
171.1 74257.5 
175.3 24752.5 
179.0 153465.5 
186.9 59406.0 
188.1 29703.0 
189.0 44554.5 
190.3 19802.0 
193.3 1212872.5 
202.4 39604.0 
203.1 1123763.5 
205.6 64356.5 
209.1 14851.5 
211.2 89109.0 
221.5 34653.5 
222.8 9901.0 
239.3 19802.0 
241.5 163366.5 
245.7 54455.5 
248.4 128713.0 
252.5 29703.0 
257.7 193069.5 
259.6 252475.5 
270.4 49505.0 
273.9 84158.5 
275.6 133663.5 
276.3 34653.5 
277.6 292079.5 
288.4 103960.5 
291.5 84158.5 
293.4 1940596.0 
295.4 1965348.5 
306.5 19802.0 
308.8 74257.5 
323.7 158416.0 
402.5 29703.0 
420.7 257426.0 
438.7 64356.5 
455.5 1539605.5 
456.6 29703.0 
END IONS

