BEGIN IONS
PEPMASS=487.0
CHARGE=0+
MSLEVEL=2
SOURCE_INSTRUMENT=LC-ESI-qTof
FILENAME=20130221_Jenia_Ger_Hormothamnione_diacetate_MH487-qb.1.1..mgf
SEQ=*..*
IONMODE=Positive
ORGANISM=GNPS-LIBRARY
NAME=Hormothamnione_diacetate M+H
PI=Gerwick
DATACOLLECTOR=Jenia
SMILES=CC1=C(OC2=C(C(=C(C(=C2C1=O)O)OC)OC)OC)/C=C/C3=CC(=CC(=C3)OC(=O)C)OC(=O)C
INCHI=InChI=1S/C25H24O10/c1-12-18(8-7-15-9-16(33-13(2)26)11-17(10-15)34-14(3)27)35-22-19(20(12)28)21(29)23(30-4)25(32-6)24(22)31-5/h7-11,29H,1-6H3/b8-7+
INCHIAUX=N/A
PUBMED=N/A
SUBMITUSER=mwang87
LIBRARYQUALITY=1
SPECTRUMID=CCMSLIB00000001743
SCANS=1
228.076141 6941702.0 
266.19873 4256527.0 
266.848877 15.0 
325.35498 1065206.0 
382.360657 2138501.0 
383.579529 1672278.0 
394.029114 1514845.0 
400.783386 700652.0 
402.054199 64048920.0 
403.016785 8784616.0 
403.707275 82.0 
409.068237 4787849.0 
409.709045 22.0 
411.476379 6739075.0 
412.381714 22.0 
424.947815 996893.0 
427.25531 1628593.0 
427.974304 13.0 
428.726746 890568.0 
435.955383 3014586.0 
436.562927 18.0 
438.067749 12857268.0 
438.905518 36.0 
440.05896 4705002.0 
441.195862 1667787.0 
443.111084 55084184.0 
444.069275 392248192.0 
445.095093 89800128.0 
445.993652 17409848.0 
446.826599 25.0 
452.706848 25899904.0 
453.692566 9504676.0 
454.989075 18575704.0 
456.003357 43441176.0 
456.883545 10155992.0 
457.728821 8002338.0 
458.425537 26.0 
468.037537 3721121.0 
468.697876 32.0 
471.031738 56674064.0 
472.057129 15064544.0 
486.047485 515431744.0 
487.12384 82457584.0 
488.014404 23.0 
END IONS

