BEGIN IONS
PEPMASS=267.86
CHARGE=1+
MSLEVEL=2
SOURCE_INSTRUMENT=LC-ESI-Ion Trap
FILENAME=f.mbertin/2189_7.mzXML;
SEQ=*..*
IONMODE=Positive
ORGANISM=GNPS-LIBRARY
NAME=2'-deoxyguanosine M+H
PI=Gerwick
DATACOLLECTOR=M. Bertin
SMILES=C1C(C(OC1N2C=NC3=C2NC(=NC3=O)N)CO)O
INCHI=InChI=1S/C10H13N5O4/c11-10-13-8-7(9(18)14-10)12-3-15(8)6-1-4(17)5(2-16)19-6/h3-6,16-17H,1-2H2,(H3,11,13,14,18)/t4-,5+,6+/m0/s1
INCHIAUX=
PUBMED=638
SUBMITUSER=mbertin
LIBRARYQUALITY=3
SPECTRUMID=CCMSLIB00000424828
SCANS=84
80.33902 2102.0 
135.925415 3552.0 
151.369171 16039.0 
152.072449 969780.0 
152.966125 250992.0 
153.737549 2.0 
156.34259 4523.0 
165.441833 2998.0 
167.458008 1292.0 
178.221741 1705.0 
181.995972 1346.0 
192.509857 5274.0 
193.962402 1037.0 
248.892914 10498.0 
250.092346 4788.0 
257.463379 4096.0 
261.550293 3858.0 
266.828979 9738.0 
270.172363 8034.0 
END IONS

