BEGIN IONS
PEPMASS=258.76
CHARGE=1+
MSLEVEL=2
SOURCE_INSTRUMENT=LC-ESI-Ion Trap
FILENAME=f.mbertin/2189_7.mzXML;
SEQ=*..*
IONMODE=Positive
ORGANISM=GNPS-LIBRARY
NAME=Spongothymidine M+H
PI=Gerwick
DATACOLLECTOR=M. Bertin
SMILES=CC1=CN(C(=O)NC1=O)C2C(C(C(O2)CO)O)O
INCHI=InChI=1S/C10H14N2O6/c1-4-2-12(10(17)11-8(4)16)9-7(15)6(14)5(3-13)18-9/h2,5-7,9,13-15H,3H2,1H3,(H,11,16,17)/t5-,6-,7+,9-/m1/s1
INCHIAUX=
PUBMED=
SUBMITUSER=mbertin
LIBRARYQUALITY=3
SPECTRUMID=CCMSLIB00000424823
SCANS=103
82.821075 23999.0 
84.079956 3512.0 
84.719711 16699.0 
109.50116 21916.0 
110.646103 3622.0 
111.96405 1420.0 
112.74263 8355.0 
114.697815 9205.0 
126.915268 2821950.0 
127.66864 1420686.0 
132.989563 5474.0 
145.727112 2408.0 
163.829712 1682.0 
167.613647 21498.0 
212.724548 2296.0 
222.789032 1970.0 
226.22171 16589.0 
241.117706 4358.0 
243.043884 7188.0 
END IONS

