BEGIN IONS
PEPMASS=502.206
CHARGE=1+
MSLEVEL=2
SOURCE_INSTRUMENT=LC-ESI-qTof
FILENAME=f.RReher/Golden lab/ColumbamideA-C_reference/Columbamide B/ColB_M+Cl_PNG.mgf;
SEQ=*..*
IONMODE=Positive
ORGANISM=GNPS-LIBRARY
NAME=Columbamide B M+Cl
PI=Gerwick
DATACOLLECTOR=Kleigrewe
SMILES=ClC(Cl)CCCCCC(Cl)CCCC/C=C/CCC(N(C)[C@@H](COC)COC(C)=O)=O
INCHI=
INCHIAUX=
PUBMED=
SUBMITUSER=RReher
LIBRARYQUALITY=3
SPECTRUMID=CCMSLIB00005464641
SCANS=1
102.09008 5741.501465 
102.11837 472.006256 
102.138809 191.25 
102.184998 191.380005 
103.090561 121.050003 
105.068047 472.802765 
107.088455 165.653992 
109.098602 496.493408 
109.111923 139.380005 
111.065094 106.048912 
112.073074 109.333336 
113.083855 944.380188 
114.055717 152.163467 
119.084587 389.349579 
120.098053 241.565994 
121.095604 129.489868 
125.096657 146.719025 
128.067383 540.681396 
130.083328 815.384766 
131.068939 350.1604 
131.089203 174.419815 
133.09819 177.019226 
136.108932 105.929214 
143.089844 663.306274 
144.10025 1765.244995 
144.124741 126.384094 
144.142181 110.003571 
145.105499 221.686325 
146.079987 170.710144 
147.116074 197.559784 
156.100784 1020.132812 
156.129456 109.125 
162.110657 2091.554443 
162.134125 363.952698 
162.151596 234.38942 
162.171707 126.47406 
171.085602 134.129593 
172.095795 119.245003 
182.115189 209.136368 
184.088348 239.003052 
196.127335 223.28125 
221.063751 134.929214 
332.256042 572.565063 
332.29361 112.10714 
333.272064 121.164474 
336.211212 190.551727 
338.204163 115.083336 
354.211578 570.129822 
354.242462 131.495972 
354.260742 129.371216 
356.207794 253.515182 
360.256348 186.78241 
368.233215 17043.375 
368.288605 1685.138062 
368.359985 415.8125 
368.411407 430.416656 
368.465454 161.0625 
368.510681 112.777779 
368.54538 258.118408 
368.585266 109.1875 
368.630585 130.107758 
368.713409 166.777985 
368.843933 144.008926 
369.23642 1029.603882 
369.301605 122.662231 
370.13147 147.335312 
370.2323 9133.469727 
370.37085 173.449463 
370.413269 278.633331 
370.465179 119.6875 
370.960327 119.903687 
371.237885 389.260864 
371.288818 105.875 
371.731201 138.20166 
374.182892 261.059906 
390.198792 215.64473 
390.228943 105.080132 
392.194214 860.931213 
396.228485 6022.482422 
396.335449 191.654419 
396.366364 140.78241 
396.387878 109.5625 
396.419006 144.595581 
397.235016 153.639999 
398.22702 2644.845947 
404.21228 8759.206055 
404.275604 712.756104 
404.323059 236.695511 
404.354706 170.333328 
404.402527 236.447296 
405.216888 426.816681 
406.207092 18602.410156 
406.323792 537.321838 
406.387512 419.077545 
406.447388 221.47406 
406.502289 145.035721 
406.543396 124.285713 
406.616974 149.284088 
406.679413 114.061272 
406.722168 121.222221 
406.768219 134.172867 
406.80072 126.148811 
406.953522 106.094696 
407.055511 107.125 
407.101715 105.800003 
407.209167 450.695129 
407.279938 120.349136 
407.561768 130.173615 
407.785583 120.98864 
432.206421 2939.8396 
432.259888 346.890625 
432.31427 125.574997 
433.208344 105.662735 
434.203705 6207.800293 
434.35202 124.432144 
434.396576 153.976349 
434.484283 110.0 
435.200134 305.063263 
442.181915 1187.120117 
464.233521 171.371918 
466.237274 118.08696 
470.182861 373.076233 
END IONS

