BEGIN IONS
PEPMASS=1395.88
CHARGE=1+
MSLEVEL=2
SOURCE_INSTRUMENT=LC-ESI-Ion Trap
FILENAME=f.RReher/2264/Reference_spectra/Symplocolides/Symplocolide A/symplocolideA_M+Na_iontrap.mgf;
SEQ=*..*
IONMODE=Positive
ORGANISM=GNPS-LIBRARY
NAME=Symplocolide A M+Na
PI=Gerwick
DATACOLLECTOR=RReher
SMILES=COC1CC(C)OC(CCC(C)C(O)C(C)C2OC(=O)CC(O)CC(CC3OC(CC=C3)CC(OC)C(C)C(O)CC(O)C(C)C(OC(=O)CC(O)CC(CC4OC(CC=C4)CC(OC)C(C)C(O)CC(O)C2C)OC)C(C)C(O)C(C)CCC5CC(CC(C)O5)OC)OC)C1
INCHI=
INCHIAUX=
PUBMED=
SUBMITUSER=RReher
LIBRARYQUALITY=3
SPECTRUMID=CCMSLIB00005467800
SCANS=1
407.43335 84382.0 
425.364563 176240.0 
426.038513 6.0 
460.373962 67111.0 
463.369629 20369.0 
477.4729 54843.0 
495.460999 514600.0 
496.385803 30720.0 
616.150635 8070.0 
647.525269 446262.0 
648.518799 31385.0 
649.621094 151749.0 
664.102051 24185.0 
677.892578 60771.0 
691.390991 303698.0 
692.018311 33.0 
707.033936 11399.0 
709.549316 9956560.0 
710.458008 1267740.0 
711.531738 45933.0 
725.079834 44352.0 
725.914795 39007.0 
751.465332 207806.0 
769.233643 17966.0 
853.365112 100974.0 
854.741211 61611.0 
861.627686 34293.0 
864.806396 47969.0 
897.687012 119507.0 
898.866455 19095.0 
905.700195 101466.0 
922.765747 132938.0 
923.540894 5379062.0 
924.689941 675634.0 
925.306885 5.0 
955.345337 27024.0 
967.051025 46666.0 
968.091919 148224.0 
968.709839 42.0 
1021.84668 79247.0 
1037.847168 92820.0 
1043.20752 52114.0 
1049.663086 17486.0 
1051.919922 80434.0 
1061.808594 19259.0 
1066.418701 22053.0 
1067.689453 797192.0 
1068.453125 457967.0 
1069.501465 17575.0 
1079.062988 28232.0 
1088.978027 67899.0 
1094.506836 5102.0 
1105.628906 191461.0 
1106.315918 26.0 
1110.150879 102892.0 
1111.517578 4890503.0 
1112.749023 1437503.0 
1113.744141 49945.0 
1120.45874 78022.0 
1124.881836 62591.0 
1145.658447 146781.0 
1146.345947 15108.0 
1146.994385 32732.0 
1153.502686 117793.0 
1154.370117 58777.0 
1163.76416 520935.0 
1164.473145 74532.0 
1169.54834 808395.0 
1170.748047 143714.0 
1179.698242 43131.0 
1180.72583 111569.0 
1181.768066 5747307.0 
1182.653076 1683967.0 
1198.488281 21763.0 
1200.296875 52296.0 
1235.58252 14067.0 
1327.560059 463170.0 
1328.913086 99214.0 
1332.796875 57746.0 
1333.839355 1046358.0 
1334.748535 295920.0 
1335.388916 3266.0 
1336.220215 66458.0 
1345.716309 38655.0 
1346.822021 8862.0 
1351.970947 113129.0 
1352.664551 9552.0 
1354.208984 6616.0 
1358.4104 35985.0 
1359.789551 643912.0 
1360.869385 246828.0 
1361.502441 5.0 
1363.608398 85107.0 
1365.018555 44977.0 
1376.955566 170511.0 
1377.842285 1826333.0 
1378.787109 1545177.0 
1379.584229 23.0 
1395.682861 1546948.0 
1396.78125 3782144.0 
1397.741699 43.0 
END IONS

