BEGIN IONS
PEPMASS=768.61
CHARGE=1+
MSLEVEL=2
SOURCE_INSTRUMENT=LC-ESI-Ion Trap
FILENAME=f.yuhaobing/microcolins Fedback/microcolin F.mzXML;
SEQ=*..*
IONMODE=Positive
ORGANISM=GNPS-LIBRARY
NAME=Microcolin F M+Na
PI=Gerwick
DATACOLLECTOR=Haobing Yu
SMILES=CN(C([C@H](C)C[C@H](C)CCCC)=O)[C@@H](/C=C(C)\C)C(N[C@@H]([C@@H](C)OC(C)=O)C(N(C)[C@@H](C(C)C)C(N1[C@H](C(N2C(C=C[C@@H]2C)=O)=O)C[C@H](O)C1)=O)=O)=O
INCHI=
INCHIAUX=
PUBMED=31468974
SUBMITUSER=yuhaobing
LIBRARYQUALITY=3
SPECTRUMID=CCMSLIB00005463462
SCANS=590
245.001282 41738.0 
249.048492 32233.0 
252.158447 97341.0 
262.173523 38798.0 
280.129883 61745.0 
289.674316 60806.0 
313.671326 41568.0 
332.13855 16865.0 
341.362549 19664.0 
342.088623 20927.0 
346.305847 157825.0 
346.955505 3.0 
363.338074 83799.0 
380.82251 38373.0 
384.841553 167843.0 
389.060791 98136.0 
392.334106 368053.0 
411.296875 97435.0 
413.707031 27989.0 
417.147217 118950.0 
417.751465 11.0 
429.182495 291069.0 
429.799927 1.0 
442.263062 33438.0 
445.139648 211733.0 
445.966675 2.0 
448.419067 101658.0 
449.031067 15.0 
466.982056 6976.0 
476.314209 326078.0 
477.018433 36.0 
486.084717 132293.0 
488.672241 234010.0 
489.332458 480517.0 
490.440369 135358.0 
498.276794 152540.0 
499.207947 111486.0 
507.617737 32752.0 
558.158691 174254.0 
567.118652 95644.0 
574.396973 23287.0 
583.282715 24240.0 
608.477783 72649.0 
611.334229 3224828.0 
612.123047 51108.0 
627.470703 659270.0 
630.522949 121072.0 
643.564941 263489.0 
652.576782 108523.0 
664.652832 42663.0 
670.255249 8754.0 
671.395996 34672456.0 
672.339478 842543.0 
673.151367 22.0 
704.015381 15018.0 
707.638428 252515.0 
708.346191 12138716.0 
709.421997 1027320.0 
710.217773 26.0 
712.569336 200848.0 
713.532593 58020.0 
750.446411 16068.0 
768.24231 46752.0 
END IONS

