BEGIN IONS
PEPMASS=715.0
CHARGE=0+
MSLEVEL=2
SOURCE_INSTRUMENT=LC-ESI-qTof
FILENAME=20121201_PAVL_Ger_LyngbyabellinA_MCl37Na_715_qb.1.1..mgf
SEQ=*..*
IONMODE=Positive
ORGANISM=GNPS-LIBRARY
NAME=Lyngbyabellin A M+H
PI=Gerwick
DATACOLLECTOR=PAVL
SMILES=CC[C@H](C)[C@H]1C2=NC(=CS2)C(=O)O[C@H](C(C(=O)O[C@H](C3=NC(=CS3)C(=O)NCC(=O)N1)C(C)(C)O)(C)C)CCCC(C)(Cl)Cl
INCHI=InChI=1S/C29H40Cl2N4O7S2/c1-8-15(2)20-23-34-17(14-43-23)25(38)41-18(10-9-11-29(7,30)31)27(3,4)26(39)42-21(28(5,6)40)24-33-16(13-44-24)22(37)32-12-19(36)35-20/h13-15,18,20-21,40H,8-12H2,1-7H3,(H,32,37)(H,35,36)/t15-,18-,20-,21+/m0/s1
INCHIAUX=N/A
PUBMED=N/A
SUBMITUSER=mwang87
LIBRARYQUALITY=1
SPECTRUMID=CCMSLIB00000001632
SCANS=1
224.465546 34586.0 
435.188171 24020.0 
619.129761 36093.0 
620.025391 47425.0 
633.067139 54188.0 
634.30835 84339.0 
635.105591 187662.0 
635.725342 1.0 
676.425659 48635.0 
677.085083 6891956.0 
678.096924 6661936.0 
679.019531 11030076.0 
679.623535 62496.0 
713.948486 574029.0 
714.559082 42.0 
END IONS

