BEGIN IONS
TITLE=Scan Number: 1059
PEPMASS=423.22198
CHARGE=0+
COMPOUNDNAME=Ambiguine_B_isonitrile
LIBRARYQUALITY=3
SMILES=C[C@]1([C@@H]2[C@]([C@H]([C@]([C@@H](C2)Cl)(C=C)C)[N+]#[C-])(c3c([nH]c4c3c1ccc4)C(C=C)(C)C)O)C
INCHIKEY=XNSXDDHLEKKURV-PJYKFWTKSA-N
INCHI=
MSLEVEL=2
SOURCE_INSTRUMENT=LC-ESI-qTof
FILENAME=f.philipwi/0_WilliamsFreshwaterCyanosStandardsConvertedTo_mzXML_v2/PW-48_P1-F-3_Ambiguine_B_isonitrile_422amu_Scan1054_1093_01_15563.mzXML;
SEQ=*..*
NOTES=
IONMODE=Positive
ORGANISM=GNPS-LIBRARY
NAME=Ambiguine_B_isonitrile M+H
SPECTRUMID=CCMSLIB00000424896
ACTIVATION=CID
INSTRUMENT=ion trap
SCANS=1059
51.427086 152.0 
154.076904 108.0 
156.077209 116.0 
157.218048 24.0 
159.093826 168.0 
167.070526 88.0 
168.085464 60.0 
170.107941 100.0 
173.080475 68.0 
176.222565 28.0 
181.090836 116.0 
182.13736 68.0 
185.080627 80.0 
185.219391 76.0 
188.977234 136.0 
192.075745 120.0 
192.330551 36.0 
195.101593 148.0 
195.276642 40.0 
195.882828 36.0 
196.118591 228.0 
196.382736 16.0 
197.086975 120.0 
198.080536 164.0 
198.191299 28.0 
203.712189 100.0 
205.499283 24.0 
207.349243 40.0 
208.110107 304.0 
208.488983 36.0 
209.110931 92.0 
210.109619 108.0 
211.087357 140.0 
211.657898 32.0 
212.010437 28.0 
212.09964 312.0 
212.93959 44.0 
213.86145 32.0 
216.057693 96.0 
217.728699 32.0 
218.100876 284.0 
218.943726 40.0 
219.106735 72.0 
220.116028 208.0 
220.28511 28.0 
221.122543 292.0 
222.115417 180.0 
223.128708 108.0 
224.130112 408.0 
224.228821 96.0 
224.324295 24.0 
224.849686 24.0 
225.107834 108.0 
225.729919 96.0 
225.902328 32.0 
226.084396 36.0 
226.151505 168.0 
227.118484 184.0 
230.085281 120.0 
230.88269 36.0 
230.9505 32.0 
231.097061 420.0 
232.106979 316.0 
233.118271 304.0 
233.544205 44.0 
234.125336 164.0 
234.324158 24.0 
234.431503 40.0 
234.900223 36.0 
235.133972 224.0 
235.858612 44.0 
236.144989 220.0 
237.125687 260.0 
237.928726 36.0 
238.169861 56.0 
238.253311 24.0 
239.139648 60.0 
241.075607 76.0 
241.570724 24.0 
242.0961 120.0 
242.929947 44.0 
243.097794 280.0 
243.247971 48.0 
243.854797 28.0 
244.105499 1600.0 
244.292969 52.0 
244.462372 32.0 
244.572021 32.0 
245.020813 48.0 
245.108154 388.0 
245.490005 56.0 
245.849686 40.0 
246.129684 372.0 
246.890228 36.0 
247.12355 472.0 
248.135757 280.0 
249.04834 32.0 
249.118759 84.0 
249.833603 24.0 
250.07547 80.0 
250.162903 260.0 
251.893219 32.0 
252.143539 976.0 
252.332947 36.0 
252.409439 44.0 
252.551239 64.0 
252.794418 24.0 
253.141388 1408.0 
253.684555 32.0 
254.140701 200.0 
254.667786 32.0 
255.701324 24.0 
256.105499 132.0 
256.599091 108.0 
256.966827 28.0 
257.120117 192.0 
258.118896 396.0 
258.214966 24.0 
258.491608 60.0 
258.665863 44.0 
258.932465 52.0 
259.127838 2148.0 
259.969482 44.0 
260.140839 408.0 
260.561554 32.0 
260.967407 48.0 
261.132935 224.0 
261.379456 28.0 
261.781525 36.0 
262.162506 292.0 
262.782898 20.0 
263.051636 76.0 
263.178833 80.0 
264.176361 184.0 
264.459564 44.0 
264.677277 48.0 
265.14624 200.0 
266.164398 120.0 
266.661743 64.0 
267.078278 224.0 
267.839294 32.0 
267.954041 40.0 
268.121033 148.0 
268.695404 32.0 
269.125427 280.0 
270.126312 84.0 
270.71582 28.0 
270.862671 64.0 
270.96759 32.0 
271.126953 524.0 
271.334961 28.0 
271.965332 32.0 
272.129059 124.0 
273.14328 516.0 
273.249359 24.0 
273.744812 32.0 
274.164001 104.0 
274.800476 36.0 
275.154755 224.0 
276.171753 496.0 
277.150452 96.0 
277.735321 40.0 
278.163391 100.0 
279.157349 188.0 
280.177795 200.0 
281.130707 80.0 
282.108765 276.0 
283.115204 48.0 
283.791321 32.0 
283.995392 32.0 
284.143524 332.0 
285.145111 1260.0 
285.361298 28.0 
286.050873 64.0 
286.146149 1068.0 
286.352814 28.0 
286.719696 36.0 
287.150482 388.0 
287.259613 44.0 
287.875763 32.0 
288.148865 128.0 
288.319366 28.0 
289.153412 88.0 
289.26181 96.0 
290.092438 128.0 
290.189484 36.0 
290.955536 32.0 
291.179443 204.0 
291.829346 92.0 
292.022064 32.0 
293.079651 252.0 
294.128204 172.0 
295.126617 112.0 
295.375793 28.0 
296.151184 208.0 
297.147736 184.0 
298.133331 300.0 
299.013153 24.0 
299.156464 204.0 
299.509399 28.0 
299.61972 44.0 
299.715118 56.0 
299.761963 36.0 
299.806793 88.0 
300.158325 436.0 
300.271057 36.0 
300.580444 64.0 
300.843262 36.0 
300.956299 20.0 
301.17395 15412.0 
301.461304 48.0 
301.636993 56.0 
301.684509 104.0 
301.870422 20.0 
301.985596 44.0 
302.176941 3364.0 
302.362366 32.0 
302.462128 36.0 
302.572998 44.0 
302.661713 48.0 
302.799744 36.0 
302.97229 36.0 
303.175476 612.0 
303.34964 24.0 
303.560638 60.0 
303.705017 24.0 
303.857239 40.0 
304.171478 648.0 
304.672272 44.0 
304.84436 60.0 
305.170868 160.0 
305.485046 36.0 
306.031189 24.0 
306.187347 72.0 
306.722961 44.0 
306.812286 36.0 
307.177582 116.0 
307.717346 28.0 
308.052917 32.0 
308.164795 48.0 
308.53418 32.0 
308.870178 64.0 
309.138672 212.0 
310.137268 208.0 
310.272125 32.0 
310.451813 36.0 
310.912476 36.0 
311.180817 76.0 
311.530975 24.0 
311.958649 48.0 
312.059998 44.0 
312.157166 260.0 
312.465485 32.0 
313.151611 228.0 
314.167847 200.0 
315.35672 28.0 
315.682251 112.0 
316.126953 48.0 
316.308319 40.0 
316.41037 52.0 
316.75061 32.0 
317.162445 108.0 
317.624756 48.0 
318.199524 304.0 
318.409119 20.0 
318.704926 36.0 
319.18573 548.0 
319.76413 52.0 
320.122467 528.0 
320.716644 28.0 
320.836517 84.0 
321.127197 92.0 
321.80777 36.0 
321.922119 56.0 
322.133179 372.0 
322.368317 24.0 
322.89502 40.0 
323.128754 136.0 
323.410675 36.0 
323.926727 92.0 
324.175812 96.0 
325.147797 72.0 
326.041138 36.0 
326.190033 348.0 
326.490204 44.0 
327.202271 184.0 
328.158417 212.0 
328.428101 36.0 
329.179413 168.0 
329.642181 40.0 
330.175354 128.0 
330.881714 20.0 
331.181488 200.0 
332.232208 204.0 
333.251343 60.0 
333.344452 28.0 
334.217896 48.0 
336.096741 48.0 
336.330505 24.0 
336.973785 40.0 
337.150421 5204.0 
337.324921 28.0 
337.470642 36.0 
337.725067 72.0 
337.851959 44.0 
338.155396 1044.0 
338.402863 24.0 
338.534027 44.0 
338.848602 64.0 
338.965973 20.0 
339.144684 1156.0 
339.600006 48.0 
339.787994 44.0 
339.890198 40.0 
340.149628 2560.0 
340.456787 36.0 
340.634521 24.0 
340.765228 36.0 
340.866333 68.0 
341.157349 468.0 
341.411438 24.0 
341.517456 48.0 
341.623505 40.0 
341.929901 36.0 
342.0242 28.0 
342.15155 548.0 
342.42514 52.0 
342.602081 36.0 
342.979767 16.0 
343.13324 72.0 
343.296783 132.0 
344.090363 32.0 
344.211243 268.0 
344.812012 68.0 
345.206451 184.0 
345.830719 56.0 
346.198303 68.0 
347.134338 80.0 
348.181854 132.0 
348.348389 40.0 
348.895905 148.0 
349.145966 148.0 
350.135284 40.0 
351.807159 24.0 
352.205475 204.0 
353.087646 32.0 
353.204041 132.0 
353.338379 56.0 
353.507019 44.0 
353.962585 32.0 
354.21524 184.0 
354.514465 44.0 
354.831207 52.0 
354.95694 28.0 
355.158508 4868.0 
355.583466 36.0 
355.639069 32.0 
355.781158 36.0 
355.992279 24.0 
356.16214 1060.0 
356.32309 64.0 
356.678162 40.0 
356.822632 44.0 
357.159576 1464.0 
357.424957 24.0 
357.858917 40.0 
358.169281 132.0 
359.230927 120.0 
359.869965 28.0 
360.231476 744.0 
360.447021 100.0 
360.589355 36.0 
360.831512 44.0 
361.239716 376.0 
361.909973 40.0 
362.161743 100.0 
362.528717 28.0 
362.965759 32.0 
363.178894 132.0 
364.17691 152.0 
364.960175 32.0 
365.164459 68.0 
367.162628 420.0 
367.583099 36.0 
368.192688 144.0 
368.5737 40.0 
368.708313 48.0 
369.234833 652.0 
369.543854 36.0 
369.712677 24.0 
370.006897 36.0 
370.230377 196.0 
371.22818 100.0 
371.799255 32.0 
372.217285 40.0 
376.150757 52.0 
378.19342 44.0 
379.347168 24.0 
380.183838 420.0 
380.515137 52.0 
380.95047 32.0 
381.17691 140.0 
382.158264 80.0 
387.243622 516.0 
388.248901 200.0 
389.998871 32.0 
390.186096 132.0 
390.427002 52.0 
391.208313 36.0 
392.09137 36.0 
392.179718 132.0 
393.177643 72.0 
396.21167 220.0 
397.208679 188.0 
398.2099 132.0 
399.217163 88.0 
399.3573 48.0 
400.466309 36.0 
404.302368 108.0 
404.86203 68.0 
405.203583 320.0 
405.700684 92.0 
406.060242 24.0 
406.197906 84.0 
407.212982 100.0 
408.205353 108.0 
408.324158 104.0 
409.213409 128.0 
420.835754 32.0 
421.921844 40.0 
422.275421 32.0 
423.223511 2308.0 
423.61261 44.0 
423.730682 28.0 
424.22583 448.0 
424.347626 48.0 
425.217651 656.0 
425.464539 120.0 
425.661774 28.0 
426.219208 68.0 
426.319611 48.0 
428.124664 24.0 
430.422729 52.0 
430.885712 132.0 
459.052673 116.0 
461.404785 160.0 
470.140564 148.0 
481.346802 116.0 
490.579041 96.0 
491.695068 168.0 
503.482758 172.0 
506.993164 16.0 
510.818298 216.0 
538.558716 32.0 
539.935364 24.0 
547.880432 184.0 
554.428711 60.0 
558.54895 172.0 
569.403015 88.0 
570.072449 64.0 
607.421021 92.0 
624.889282 152.0 
647.705444 144.0 
679.161987 68.0 
791.632324 112.0 
871.291077 196.0 
938.46991 148.0 
1187.829834 160.0 
END IONS

