BEGIN IONS
PEPMASS=1010.55
CHARGE=1+
MSLEVEL=2
SOURCE_INSTRUMENT=LC-ESI-Orbitrap
FILENAME=f.RReher/Culebra/pure_compounds/993_LoggerpeptinA/LoggerpeptinA_MS2_M+NH4_QE.mgf;
SEQ=*..*
IONMODE=Positive
ORGANISM=GNPS-LIBRARY
NAME=Loggerpeptin A M+NH4
PI=Gerwick
DATACOLLECTOR=Raphael Reher
SMILES=C[C@@H](C(N[C@H](C(N[C@H]1[C@@H](C)OC([C@H](C(C)C)NC(C(CC2=CC=C(O)C=C2)N(C)C([C@H](CC3=CC=CC=C3)N4[C@H](O)CCC(NC([C@H](CC(C)C)NC1=O)=O)C4=O)=O)=O)=O)=O)[C@@H](O)C)=O)NC(CCC)=O
INCHI=
INCHIAUX=
PUBMED=
SUBMITUSER=RReher
LIBRARYQUALITY=3
SPECTRUMID=CCMSLIB00005723412
SCANS=1
78.038132 11819.719727 
78.038788 20523.519531 
78.039444 25497.320312 
78.040092 23145.580078 
78.040749 14635.729492 
80.072021 13454.758789 
80.072701 23390.101562 
80.07338 27407.982422 
80.074059 22234.449219 
80.074745 11288.504883 
84.042747 9724.293945 
84.04348 25221.835938 
84.044212 40660.597656 
84.044937 44329.265625 
84.04567 32568.896484 
84.046402 14503.642578 
85.037308 13444.422852 
85.038055 22601.275391 
85.038795 26764.304688 
85.039543 23961.009766 
85.040283 16104.550781 
86.091286 19295.558594 
86.092041 56994.257812 
86.092804 27489.109375 
86.093559 26672.53125 
86.094307 47076.101562 
86.095062 171754.484375 
86.095825 364547.03125 
86.096581 570555.6875 
86.097336 577369.875 
86.098099 371945.0 
86.098854 177876.375 
86.099609 47381.226562 
86.100372 12888.494141 
91.051483 2965.604248 
91.052307 33782.734375 
91.053131 98438.460938 
91.053955 167051.21875 
91.054779 197601.25 
91.055603 140603.109375 
91.056427 76022.679688 
91.057251 22229.128906 
91.058075 1907.187866 
91.945732 15886.820312 
91.946564 33014.671875 
91.947403 42068.429688 
91.948242 36444.46875 
103.053467 17779.914062 
103.054459 28876.212891 
103.05545 31570.521484 
103.056442 24158.0 
103.057434 11968.744141 
107.045601 6990.939941 
107.046654 19470.820312 
107.047707 52868.003906 
107.048752 89621.320312 
107.049805 101296.65625 
107.050858 68699.546875 
107.051903 35036.152344 
107.052956 12135.967773 
112.108383 6025.414062 
112.109512 16146.720703 
112.110634 41265.15625 
112.111763 70813.445312 
112.112892 79045.117188 
112.114014 53443.121094 
112.115143 20747.742188 
112.116264 6931.460938 
113.068123 9794.249023 
113.069267 26803.736328 
113.070404 45341.054688 
113.071548 53090.0 
113.072685 44431.671875 
113.07383 25784.654297 
113.074966 9294.009766 
114.082993 27943.630859 
114.084145 27112.978516 
114.085304 23045.908203 
114.086456 18699.169922 
114.087524 48915.105469 
114.088684 195781.875 
114.089836 407435.53125 
114.090996 629890.5625 
114.092148 620363.9375 
114.093307 396737.96875 
114.09446 187880.0 
114.095619 52694.125 
114.096771 16679.59375 
114.097931 11765.807617 
119.046066 14239.623047 
119.047302 32011.042969 
119.048531 66538.632812 
119.049767 79666.515625 
119.050995 56774.085938 
119.052231 23128.109375 
119.053459 8037.006348 
120.073982 81515.335938 
120.075233 99509.148438 
120.076485 291666.875 
120.077728 1041924.6875 
120.078979 2297756.0 
120.080223 3656197.5 
120.081474 3882049.25 
120.082718 2591168.75 
120.083969 1318430.125 
120.08522 380800.9375 
120.086464 114966.75 
120.087715 81484.742188 
120.088966 55916.242188 
120.09021 23505.021484 
120.091461 7252.942871 
121.025589 11569.938477 
121.026855 23329.529297 
121.028114 31226.34375 
121.029381 29136.017578 
121.03064 17942.685547 
121.062218 12114.550781 
121.063484 29286.896484 
121.064751 40873.699219 
121.06601 37719.609375 
121.067276 23106.259766 
121.068535 8206.960938 
124.10907 14856.392578 
124.110382 28221.6875 
124.111694 35082.089844 
124.113007 30421.792969 
124.114319 17802.929688 
135.063614 19416.962891 
135.065094 41425.300781 
135.066589 60520.390625 
135.068085 62764.113281 
135.069565 46097.832031 
135.07106 23122.339844 
135.07254 8359.320312 
136.10733 12172.169922 
136.108841 27460.998047 
136.110336 58050.804688 
136.111847 78957.46875 
136.113358 63813.640625 
136.114868 28735.367188 
136.116364 11460.741211 
139.079803 211.665512 
139.08136 20929.960938 
139.082916 89347.921875 
139.084473 169065.765625 
139.086029 240155.234375 
139.087585 203064.0 
139.089142 120665.875 
139.090698 46760.601562 
139.092255 12046.084961 
139.255997 18187.648438 
139.257553 27793.65625 
139.259109 30089.511719 
139.260666 22975.003906 
139.262222 11219.074219 
141.059921 9742.538086 
141.061508 30423.490234 
141.063095 83803.476562 
141.064682 142388.203125 
141.066269 181409.3125 
141.067856 137683.296875 
141.069458 77293.195312 
141.071045 20612.011719 
142.08046 162834.671875 
142.082062 610923.5625 
142.083679 1366275.0 
142.085281 2181518.5 
142.086884 2322343.5 
142.088486 1551556.0 
142.090103 790281.4375 
142.091705 232806.828125 
142.093307 75611.296875 
142.09491 53157.175781 
142.096527 33572.679688 
142.098221 67545.09375 
142.099823 4660.949707 
142.562057 19925.619141 
142.563675 28775.277344 
142.565292 30708.195312 
142.56691 23943.794922 
142.568527 12657.873047 
146.092667 16791.001953 
146.094345 34261.140625 
146.096024 43989.878906 
146.097702 38909.195312 
146.099365 23325.246094 
146.101044 7978.618652 
147.409576 13313.749023 
147.41127 25881.794922 
147.412964 33383.421875 
147.414673 29355.451172 
147.416367 16509.519531 
148.072144 14911.100586 
148.073853 34731.453125 
148.075562 48421.722656 
148.077271 44939.070312 
148.078979 27625.8125 
148.080688 9580.255859 
150.076447 18326.017578 
150.078186 47616.5 
150.079926 108590.421875 
150.08168 162196.40625 
150.08342 183200.953125 
150.085159 547783.5 
150.086899 1976873.5 
150.088654 4236693.5 
150.090393 6666460.0 
150.092133 6881332.0 
150.093887 4519373.0 
150.095627 2252099.0 
150.097366 658158.875 
150.099121 217761.484375 
150.100861 160765.96875 
150.1026 100149.023438 
150.104355 32898.878906 
150.106094 15980.301758 
152.102188 10555.768555 
152.103958 23976.542969 
152.105743 36071.433594 
152.107513 37840.355469 
152.109299 27140.371094 
152.111084 11511.361328 
155.077347 17081.068359 
155.079178 38367.847656 
155.081009 52469.101562 
155.08284 48136.183594 
155.084671 29366.222656 
155.086502 10429.186523 
155.113983 16743.177734 
155.115814 31049.382812 
155.117645 41983.289062 
155.119476 43182.839844 
155.121307 34311.78125 
155.123138 20867.291016 
157.091553 13414.378906 
157.09343 33968.414062 
157.095291 55271.425781 
157.097168 62952.390625 
157.09903 51213.886719 
157.100891 28671.222656 
157.102768 9682.008789 
158.084152 14276.904297 
158.086044 19938.835938 
158.087921 19279.767578 
158.089767 55734.773438 
158.091644 211183.9375 
158.093536 459698.8125 
158.095413 725337.875 
158.097305 744698.5 
158.099197 484462.65625 
158.101074 236303.296875 
158.102966 64588.574219 
158.104843 20826.4375 
158.106735 20198.925781 
158.108612 17455.710938 
158.110504 15273.948242 
167.069244 23813.367188 
167.071289 30143.261719 
167.073334 86748.453125 
167.075394 322275.1875 
167.077438 986454.125 
167.079483 1690539.125 
167.081528 2190127.25 
167.083572 1697210.0 
167.085632 993259.625 
167.087677 331108.375 
167.089722 91469.023438 
167.091782 28382.320312 
167.093826 19017.644531 
169.126083 7694.130371 
169.128174 27274.703125 
169.130264 64841.40625 
169.132355 105598.007812 
169.13443 113678.085938 
169.13652 75115.671875 
169.138611 36767.484375 
169.140701 12143.280273 
170.087509 13204.635742 
170.089615 63982.851562 
170.091721 220665.515625 
170.093826 401494.96875 
170.095932 557981.5625 
170.098038 472010.59375 
170.100128 285151.78125 
170.102234 114063.6875 
170.10434 33482.070312 
170.106445 11468.90918 
172.103729 4611.772949 
172.105865 36900.859375 
172.108002 96521.4375 
172.110153 160800.8125 
172.112289 179956.390625 
172.114426 123482.492188 
172.116577 64657.667969 
172.118713 19899.257812 
172.12085 7053.171875 
178.082825 20831.730469 
178.085068 34341.003906 
178.087326 34949.714844 
178.089584 22605.529297 
178.091843 7748.114746 
181.125778 13470.769531 
181.128098 56897.136719 
181.130402 108783.835938 
181.132721 155491.65625 
181.13504 135427.15625 
181.137344 82326.734375 
181.139664 32604.544922 
181.141968 7842.691895 
185.080826 8629.735352 
185.083221 28859.677734 
185.085602 122221.789062 
185.087997 301115.375 
185.090378 495200.3125 
185.092773 558052.625 
185.095154 385673.875 
185.097549 203160.375 
185.09993 59763.054688 
185.102325 20985.597656 
185.104706 20558.375 
185.107178 22944.210938 
185.109558 22699.164062 
185.111954 4203.421387 
187.113129 55558.957031 
187.115555 197296.765625 
187.117981 622698.6875 
187.120407 1094688.125 
187.122833 1466107.875 
187.125259 1181115.75 
187.127701 698084.625 
187.130127 250188.84375 
187.132553 64799.121094 
187.134979 20929.365234 
187.137436 24398.328125 
187.139862 38234.035156 
187.142288 66648.234375 
187.14473 38578.304688 
187.147156 32896.851562 
187.149582 21275.34375 
187.152008 8671.020508 
195.071152 10266.019531 
195.07373 23641.751953 
195.076309 30150.728516 
195.078903 24830.078125 
195.081482 12429.168945 
196.090714 12076.932617 
196.093323 26557.617188 
196.095917 37525.964844 
196.098526 36908.011719 
196.101135 25416.173828 
196.103729 11247.68457 
197.118088 2475.040527 
197.120712 28384.787109 
197.123337 88542.820312 
197.125961 152788.890625 
197.128586 186491.3125 
197.13121 137065.90625 
197.133835 76449.976562 
197.136475 23796.060547 
197.139099 8838.415039 
198.08255 8319.482422 
198.085205 22370.179688 
198.087845 50024.378906 
198.090485 75341.734375 
198.09314 65567.382812 
198.095779 29138.189453 
198.098419 10734.144531 
209.119247 12899.191406 
209.122116 53975.480469 
209.124985 106314.3125 
209.127853 157675.96875 
209.130722 144287.4375 
209.133591 89242.382812 
209.136459 37755.808594 
209.139328 7519.185059 
212.904068 13411.982422 
212.907013 23930.123047 
212.909958 31409.482422 
212.912903 31674.958984 
212.915848 24084.158203 
212.918793 12685.851562 
215.092361 7098.719238 
215.095352 27387.050781 
215.098343 55193.9375 
215.101334 78688.851562 
215.104324 91536.84375 
215.107315 289986.625 
215.110306 1056686.125 
215.113297 2238423.0 
215.116302 3505346.25 
215.119293 3573155.0 
215.122284 2331908.75 
215.125275 1150418.0 
215.128265 335100.71875 
215.131256 120433.242188 
215.134247 104447.90625 
215.137253 86641.65625 
215.140244 53814.476562 
215.143234 3980.613525 
216.095276 13956.886719 
216.098297 27239.855469 
216.101303 32784.113281 
216.104324 26478.96875 
216.10733 13734.787109 
225.10817 6696.970703 
225.111374 17084.09375 
225.114563 74472.59375 
225.117767 174121.1875 
225.120972 281301.6875 
225.124176 302405.59375 
225.12738 201957.15625 
225.130585 101483.046875 
225.133789 28463.083984 
225.136993 6487.573242 
226.075226 15084.033203 
226.078461 72684.414062 
226.08168 140417.625 
226.0849 203353.4375 
226.088135 179364.65625 
226.091354 109467.140625 
226.094574 45889.351562 
226.097809 11038.662109 
226.14328 11991.540039 
226.1465 63760.714844 
226.149719 142297.15625 
226.152954 227293.140625 
226.156174 237076.3125 
226.159409 156299.46875 
226.162628 78462.335938 
226.165863 21213.177734 
226.169083 2188.244141 
228.127502 11599.682617 
228.130768 27844.853516 
228.134033 41355.0625 
228.137299 41909.804688 
228.140579 28720.203125 
228.143845 11456.426758 
238.106567 15577.87793 
238.110046 69190.601562 
238.113541 133461.015625 
238.11702 191844.9375 
238.120514 168147.59375 
238.123993 101857.757812 
238.127472 41759.195312 
238.130966 9374.551758 
241.090302 22725.318359 
241.093857 36024.664062 
241.097412 37954.039062 
241.100952 26833.398438 
241.104507 11846.848633 
243.090973 39642.695312 
243.094574 54278.261719 
243.098175 146978.78125 
243.101761 559888.6875 
243.105362 1783749.5 
243.108948 3119016.75 
243.112549 4132015.25 
243.11615 3276409.5 
243.119736 1934828.875 
243.123337 676517.375 
243.126938 218056.53125 
243.130524 129758.210938 
243.134216 132322.6875 
243.137817 70255.921875 
243.141418 36050.9375 
249.147995 19133.695312 
249.151718 72684.929688 
249.155457 132967.9375 
249.15918 181463.359375 
249.162918 146110.15625 
249.166641 85664.164062 
249.17038 28523.224609 
249.174103 6552.499512 
252.132462 15733.376953 
252.136261 24328.294922 
252.14006 37466.546875 
252.14386 42712.984375 
252.147659 24753.068359 
252.151459 10002.730469 
252.154907 19988.091797 
252.158707 92989.703125 
252.162506 307017.5 
252.166306 538916.25 
252.170105 719181.5 
252.173904 571790.9375 
252.177704 335861.96875 
252.181503 117212.5 
252.185303 30142.033203 
252.189102 9778.591797 
254.137939 8294.020508 
254.141785 25927.367188 
254.14563 47499.996094 
254.149475 57243.519531 
254.15332 47554.398438 
254.157166 26397.042969 
254.161011 8105.947754 
255.178665 20682.390625 
255.182541 35742.835938 
255.186401 42267.777344 
255.190262 35121.65625 
255.194138 19226.984375 
261.110657 5184.26416 
261.114655 37568.761719 
261.118652 79018.75 
261.12265 120715.421875 
261.126648 111960.75 
261.130646 69310.164062 
261.134644 30621.105469 
261.138672 8291.00293 
264.130035 17087.025391 
264.134125 32912.988281 
264.138184 42853.992188 
264.142242 39485.324219 
264.146332 25303.525391 
264.150391 10366.412109 
268.190826 13974.566406 
268.195007 36683.625 
268.199158 60218.675781 
268.203339 69243.59375 
268.207489 57794.261719 
268.21167 34692.207031 
268.21582 15233.966797 
277.140381 9605.722656 
277.144775 26602.628906 
277.149139 50184.324219 
277.153534 65648.164062 
277.157898 61208.597656 
277.162262 39919.109375 
277.166656 16749.839844 
280.148773 10767.550781 
280.153198 42120.917969 
280.157654 104658.234375 
280.162109 171677.828125 
280.166534 199342.328125 
280.17099 140728.046875 
280.175446 74956.609375 
280.179901 21028.396484 
280.184357 1675.421753 
282.125122 4549.67041 
282.129639 33487.203125 
282.134125 126978.953125 
282.138611 244401.765625 
282.143097 358212.46875 
282.147614 325921.84375 
282.1521 202251.328125 
282.156586 88341.0625 
282.161102 22478.058594 
282.165588 4672.59082 
283.16153 11453.367188 
283.166046 68176.976562 
283.170563 228515.59375 
283.175079 404090.40625 
283.179596 542580.0625 
283.184113 437825.0 
283.188629 260573.703125 
283.193146 96254.828125 
283.197662 30917.630859 
283.202209 14365.466797 
290.135162 13013.380859 
290.139862 34376.21875 
290.144562 64521.15625 
290.149231 89846.34375 
290.153931 74667.382812 
290.1586 43541.027344 
290.1633 15546.619141 
295.13501 9699.983398 
295.139832 19909.591797 
295.144623 30450.894531 
295.149445 95849.945312 
295.154266 324254.9375 
295.159058 624379.875 
295.163879 913655.3125 
295.168671 824831.5625 
295.173492 506966.84375 
295.178314 213194.703125 
295.183105 54816.347656 
295.187927 19278.539062 
295.192535 19636.730469 
295.197327 12505.082031 
298.15451 4246.736816 
298.159393 17079.449219 
298.164276 64511.09375 
298.169159 137211.03125 
298.174042 215005.796875 
298.178925 215684.046875 
298.183838 137115.75 
298.188721 63533.898438 
298.193604 13431.829102 
300.146332 22369.341797 
300.151245 40375.503906 
300.156189 48383.875 
300.161133 39970.84375 
300.166046 21875.539062 
308.114014 113801.242188 
308.119141 447548.65625 
308.124268 726808.5625 
308.129395 773557.125 
308.134552 545415.75 
308.139679 370433.375 
308.144287 703403.4375 
308.149414 2128394.5 
308.154541 3727708.5 
308.159668 4941777.5 
308.164795 3926130.5 
308.169922 2292244.0 
308.175049 759278.625 
308.180176 197259.65625 
308.185333 66187.625 
308.19046 45696.667969 
311.152771 10036.195312 
311.15799 39955.714844 
311.163177 146748.25 
311.168396 285241.21875 
311.173584 421423.34375 
311.178802 383850.59375 
311.184021 234977.140625 
311.189209 98093.210938 
311.194427 22639.474609 
311.199615 4467.904785 
323.161102 16870.84375 
323.166595 34020.128906 
323.172119 44128.121094 
323.177612 38098.0 
323.183136 20284.199219 
326.129486 8796.871094 
326.135071 39531.0625 
326.140656 65724.828125 
326.14624 90268.039062 
326.151825 272837.71875 
326.15741 931232.5625 
326.162994 1870512.375 
326.168579 2850567.25 
326.174164 2770135.0 
326.179749 1762541.625 
326.185364 825455.625 
326.190948 225499.734375 
326.196533 66512.210938 
326.202118 49897.511719 
326.207703 25655.080078 
326.213135 60458.089844 
326.218719 12431.595703 
328.178192 7740.838379 
328.183838 38687.398438 
328.189484 131655.71875 
328.195129 245305.578125 
328.200775 350417.21875 
328.20639 305836.75 
328.212036 184532.09375 
328.217682 73643.421875 
328.223328 14011.003906 
332.178284 6455.286133 
332.184021 40572.1875 
332.189758 78336.609375 
332.195496 109550.867188 
332.201263 88768.929688 
332.207001 50762.671875 
332.212738 14423.757812 
335.167114 22295.130859 
335.172913 34900.199219 
335.178741 37307.835938 
335.18457 27716.632812 
335.190399 13203.665039 
339.154236 17833.027344 
339.160156 40257.691406 
339.166077 58846.035156 
339.171997 60436.25 
339.177917 44007.84375 
339.183838 21588.533203 
344.161652 16024.336914 
344.167694 53936.972656 
344.173767 94276.9375 
344.17981 127631.703125 
344.185852 105106.679688 
344.191925 60775.261719 
344.197968 18513.503906 
344.204041 9093.024414 
347.160614 16514.408203 
347.166748 38754.320312 
347.172882 56594.804688 
347.179016 57322.6875 
347.18515 40782.339844 
347.191284 19317.828125 
350.186493 9300.329102 
350.192719 26591.576172 
350.198914 46923.507812 
350.205139 57775.617188 
350.211365 51306.59375 
350.21759 32304.304688 
350.223785 13361.208008 
356.16745 9340.152344 
356.173828 18573.609375 
356.180206 62730.871094 
356.186584 147361.015625 
356.192963 237466.4375 
356.199341 257759.359375 
356.205719 171806.21875 
356.212097 84574.15625 
356.218475 18235.5625 
356.224854 678.103943 
367.21106 10266.935547 
367.217743 30024.119141 
367.224396 67899.695312 
367.231079 107657.929688 
367.237762 105371.640625 
367.244446 65601.78125 
367.251099 29232.384766 
367.257782 9692.499023 
374.190247 11935.203125 
374.197113 25770.625 
374.203979 37871.613281 
374.210846 40425.386719 
374.217712 31486.423828 
374.224579 16693.337891 
375.222198 11786.470703 
375.229095 26175.453125 
375.235992 38022.039062 
375.242889 38160.003906 
375.249756 26345.697266 
375.256653 11697.680664 
392.176636 15269.987305 
392.18399 26813.035156 
392.191345 34112.0625 
392.19873 32288.125 
392.206085 22020.894531 
393.217438 5943.083984 
393.224854 32687.318359 
393.232239 123331.4375 
393.239655 240225.3125 
393.24704 354516.5625 
393.254425 323153.28125 
393.261841 199085.515625 
393.269226 83500.882812 
393.276611 20414.080078 
393.284027 5737.589355 
411.222778 12200.902344 
411.230682 27033.613281 
411.238586 42984.808594 
411.24649 52997.644531 
411.254395 52089.363281 
411.262329 40781.46875 
411.270233 24933.728516 
420.128967 33245.667969 
420.137115 39915.957031 
420.145294 89239.554688 
420.153442 118449.304688 
420.161621 318646.3125 
420.1698 1080650.75 
420.177979 2423826.25 
420.186127 3882296.25 
420.194305 4225814.0 
420.202484 2866012.0 
420.210632 1483468.625 
420.218811 419036.25 
420.22699 106246.398438 
420.235168 67477.265625 
420.243317 50707.203125 
420.251495 17448.583984 
420.259674 6732.203613 
421.217041 11427.642578 
421.22525 43575.6875 
421.233459 86605.007812 
421.241638 126806.445312 
421.249847 111879.117188 
421.258057 65767.242188 
421.266266 22864.191406 
421.274445 323.037903 
439.198364 3384.639648 
439.207092 27927.419922 
439.21582 58888.5 
439.224579 176395.828125 
439.233307 557388.6875 
439.242035 1125952.75 
439.250763 1732159.5 
439.259491 1742990.25 
439.268219 1128549.5 
439.276947 546582.0625 
439.285675 137711.171875 
439.294434 23333.427734 
439.303162 17307.039062 
439.31189 14769.708008 
441.045105 15625.071289 
441.053894 24403.068359 
441.062683 28113.240234 
441.071472 24679.628906 
441.080261 15891.510742 
457.238739 18418.71875 
457.248016 32443.476562 
457.257294 40150.199219 
457.266571 36453.082031 
457.275848 24037.5 
488.21936 6644.875 
488.229614 20708.376953 
488.239838 52123.355469 
488.250061 74484.398438 
488.260284 62327.90625 
488.270538 29835.222656 
488.280762 12590.829102 
494.250122 11378.952148 
494.260529 27815.677734 
494.270966 41299.644531 
494.281372 41842.507812 
494.291809 29094.283203 
494.302216 12692.941406 
522.243591 18215.939453 
522.254944 39540.902344 
522.266235 53696.78125 
522.277588 49761.839844 
522.288879 31215.179688 
522.300232 11513.725586 
533.224365 3382.967285 
533.236084 25660.904297 
533.247742 93572.890625 
533.25946 178552.609375 
533.271118 259599.578125 
533.282776 234658.125 
533.294495 144453.296875 
533.306152 61145.476562 
533.31781 13113.594727 
537.229248 5886.157715 
537.241028 17641.207031 
537.252869 48635.675781 
537.264648 78029.929688 
537.276489 79934.835938 
537.288269 48905.691406 
537.30011 19371.400391 
537.311951 9264.573242 
540.253662 15839.761719 
540.265564 31676.90625 
540.277466 40987.773438 
540.289429 37165.976562 
540.301331 23292.701172 
583.894104 14250.837891 
583.907471 25978.158203 
583.920837 31850.191406 
583.934265 27006.992188 
583.947632 14608.369141 
650.325256 20712.574219 
650.340942 40299.914062 
650.356689 47238.777344 
650.372437 35128.898438 
650.388184 14699.455078 
663.288696 10972.436523 
663.304932 28179.324219 
663.321106 51131.53125 
663.337341 67710.984375 
663.353516 66388.953125 
663.369751 47535.53125 
663.385925 23681.4375 
699.300842 11158.890625 
699.318359 28329.746094 
699.335938 46782.125 
699.353455 53430.894531 
699.370972 42548.992188 
699.38855 21939.958984 
705.373901 13354.041992 
705.391663 26871.248047 
705.409424 34200.019531 
705.427185 29481.494141 
705.444946 15786.87793 
715.313171 9727.027344 
715.33136 39659.769531 
715.349487 91246.023438 
715.367615 149257.796875 
715.385803 184491.65625 
715.403931 139256.6875 
715.422058 77817.375 
715.440247 19233.722656 
733.313477 5335.794922 
733.332336 27522.265625 
733.351135 77079.507812 
733.369995 132748.078125 
733.388794 177696.671875 
733.407654 150213.609375 
733.426514 90823.601562 
733.445312 35658.179688 
733.464172 4316.960938 
755.361877 16726.105469 
755.381592 28116.226562 
755.401245 34360.105469 
755.420959 31525.523438 
755.440674 20974.714844 
834.333069 10204.374023 
834.355957 26831.888672 
834.378784 89017.96875 
834.401672 190779.984375 
834.4245 301916.5 
834.447388 311826.15625 
834.470276 199742.234375 
834.493103 93113.132812 
834.515991 17398.873047 
957.419067 14875.546875 
957.447144 32311.455078 
957.47522 48842.902344 
957.503357 54683.511719 
957.531433 46086.082031 
957.55957 28560.570312 
957.587646 11886.833984 
975.427673 9745.775391 
975.456543 35053.316406 
975.485474 64323.90625 
975.514343 88203.90625 
975.543274 70643.382812 
975.572144 38485.992188 
975.601074 14977.828125 
END IONS

