BEGIN IONS
PEPMASS=488.229
CHARGE=1+
MSLEVEL=2
SOURCE_INSTRUMENT=LC-ESI-qTof
FILENAME=f.RReher/Golden lab/ColumbamideA-C_reference/Columbamide A/ColA_M+Na_PNG.mgf;
SEQ=*..*
IONMODE=Positive
ORGANISM=GNPS-LIBRARY
NAME=Columbamide A M+Na
PI=Gerwick
DATACOLLECTOR=Kleigrewe
SMILES=ClCCCCCCC(Cl)CCCC/C=C/CCC(N(C)[C@@H](COC)COC(C)=O)=O
INCHI=
INCHIAUX=
PUBMED=
SUBMITUSER=RReher
LIBRARYQUALITY=3
SPECTRUMID=CCMSLIB00005464638
SCANS=1
102.089966 1687.976807 
102.106598 313.822723 
102.120392 127.802635 
109.099136 418.329224 
113.081749 1355.371094 
113.116554 124.125 
128.069611 133.5 
143.092133 1303.698242 
143.120712 138.982559 
144.098969 773.655212 
156.098206 510.332275 
173.133179 105.347221 
210.15126 172.512299 
292.229004 158.013885 
334.272644 29787.238281 
334.377228 861.014282 
334.443726 494.751343 
334.485321 177.783478 
335.015198 145.664062 
335.275238 901.283569 
335.323334 232.516708 
335.842987 105.389595 
347.808105 147.014709 
370.249329 66420.429688 
371.08194 131.628418 
371.24942 2118.498291 
371.334869 199.219391 
371.403595 172.808258 
371.571289 147.03891 
371.635834 109.554337 
371.680908 135.372787 
371.726685 141.038666 
371.947968 113.298073 
372.241974 414.005585 
372.380066 137.64917 
406.225677 664.209595 
416.27774 433.122559 
452.256104 629.0 
END IONS

