BEGIN IONS
PEPMASS=339.9
CHARGE=0+
MSLEVEL=2
SOURCE_INSTRUMENT=LC-ESI-qTof
FILENAME=20130503_Ger_Jenia_Tumonoic_acid_A_MH339.8-qb.1.1..mgf
SEQ=*..*
IONMODE=Positive
ORGANISM=GNPS-LIBRARY
NAME=Tumonoic acid A M+H
PI=Gerwick
DATACOLLECTOR=Jenia
SMILES=CCCCCCC/C=C(\C)/[C@H]([C@@H](C)C(=O)N1CCC[C@H]1C(=O)O)O
INCHI=InChI=1S/C19H33NO4/c1-4-5-6-7-8-9-11-14(2)17(21)15(3)18(22)20-13-10-12-16(20)19(23)24/h11,15-17,21H,4-10,12-13H2,1-3H3,(H,23,24)/b14-11+/t15-,16+,17-/m1/s1
INCHIAUX=N/A
PUBMED=N/A
SUBMITUSER=mwang87
LIBRARYQUALITY=1
SPECTRUMID=CCMSLIB00000001772
SCANS=1
115.701538 545.0 
186.87265 2353.0 
224.151154 1042.0 
293.935913 2827.0 
321.27771 16446.0 
322.035217 1514005.0 
322.729065 5462.0 
323.840576 558.0 
341.15332 1570.0 
END IONS

