BEGIN IONS
PEPMASS=1141.47
CHARGE=0+
MSLEVEL=2
SOURCE_INSTRUMENT=LC-ESI-Orbitrap
FILENAME=f.eternon/CHEMICROS/Red tide/YTX_24ugml.mzXML;
SEQ=*..*
IONMODE=Negative
ORGANISM=GNPS-LIBRARY
NAME=yessotoxin M-H
PI=W. Gerwick
DATACOLLECTOR=Eva TERNON
SMILES=C[C@H]1CC[C@]2([C@@H](C[C@H]3[C@](O2)(CC[C@H]4[C@H](O3)C[C@H]5[C@H](O4)C[C@H]6[C@H](O5)C[C@H]7[C@H](O6)C[C@@H]([C@@](O7)(C)CCOS(=O)(=O)O)OS(=O)(=O)O)C)O[C@@H]8[C@@H]1O[C@@H]9[C@@H](C8)O[C@H]1C[C@@H]2[C@H](CC(=C)[C@H](O2)[C@@](C)(/C=C/C(=C)CC=C)O)O[C@@]1([C@@H]9O)C)C
INCHI=
INCHIAUX=
PUBMED=
SUBMITUSER=eternon
LIBRARYQUALITY=3
SPECTRUMID=CCMSLIB00005724062
SCANS=554
71.822342 192.212921 
72.974274 230.819046 
79.621834 224.094971 
83.819481 219.840469 
87.047112 212.131226 
89.735176 224.743362 
93.579987 237.868759 
112.86058 249.21257 
134.824844 232.688828 
139.816284 266.051666 
146.961731 375.947052 
147.896729 239.119522 
174.956329 6400.358887 
180.528687 212.094818 
183.623734 258.472992 
188.732254 226.431107 
190.184128 206.695648 
207.914932 243.964233 
210.446884 235.852509 
257.188141 257.593903 
264.911377 211.824478 
276.920929 436.091919 
283.582733 244.669647 
308.172485 209.159607 
312.47113 259.330536 
END IONS

