BEGIN IONS
PEPMASS=962.454
CHARGE=1+
MSLEVEL=2
SOURCE_INSTRUMENT=LC-ESI-qTof
FILENAME=1B5_HoiamideB_MNa_ 962.mzXML
SEQ=*..*
IONMODE=Positive
ORGANISM=GNPS-LIBRARY
NAME=Hoiamide B M+Na
PI=Dorrestein/Gerwick
DATACOLLECTOR=Luzzatto/Garg
SMILES=CCC[C@@H](C)[C@H](O)[C@H](C)[C@H]1OC(=O)[C@@H](NC(=O)C(OC(=O)[C@H](C)[C@H](O)[C@@H](NC(=O)[C@@]2(C)CSC(=N2)[C@@]2(C)CSC(=N2)C2=CSC(C[C@H](OC)[C@@H]1C)=N2)[C@@H](C)CC)[C@@H](C)CC)[C@@H](C)O
INCHI=InChI=1S/C45H73N5O10S3/c1-14-17-24(6)34(52)26(8)37-25(7)30(58-13)18-31-46-29(19-61-31)39-49-45(12,21-62-39)43-50-44(11,20-63-43)42(57)48-32(22(4)15-2)35(53)27(9)40(55)59-36(23(5)16-3)38(54)47-33(28(10)51)41(56)60-37/h19,22-28,30,32-37,51-53H,14-18,20-21H2,1-13H3,(H,47,54)(H,48,57)/t22-,23-,24+,25-,26-,27+,28+,30-,32-,33-,34-,35-,36?,37-,44+,45+/m0/s1
INCHIAUX=KNGPFNUOXXLKCN-KKCRFZLHSA-N
PUBMED=20687534
SUBMITUSER=tal_lk
LIBRARYQUALITY=2
SPECTRUMID=CCMSLIB00000070259
SCANS=3606
138.259201 204.0 
183.701218 216.0 
184.073761 220.0 
218.365417 256.0 
220.100479 184.0 
226.952774 204.0 
312.803589 212.0 
318.016907 192.0 
332.111206 200.0 
362.931396 200.0 
386.66214 196.0 
390.466187 188.0 
393.988708 220.0 
405.0354 188.0 
406.024994 244.0 
432.125977 248.0 
432.186615 356.0 
454.134979 204.0 
457.277802 228.0 
468.156342 220.0 
483.387695 208.0 
491.169769 196.0 
498.720703 212.0 
502.157043 188.0 
504.113586 324.0 
516.185303 232.0 
530.068237 216.0 
530.193115 196.0 
532.210693 384.0 
541.197083 184.0 
544.167908 256.0 
548.204468 192.0 
549.420227 184.0 
553.091736 192.0 
553.569092 188.0 
556.198181 188.0 
561.244141 220.0 
562.121155 204.0 
563.168823 220.0 
565.162964 200.0 
566.37915 188.0 
574.20343 244.0 
574.657166 192.0 
576.194519 832.0 
577.166138 308.0 
577.200806 364.0 
580.039917 188.0 
583.394043 212.0 
590.595337 216.0 
599.111145 232.0 
600.680176 184.0 
606.521179 184.0 
615.201172 332.0 
625.302795 200.0 
626.118958 224.0 
630.011536 216.0 
635.131897 192.0 
637.882507 212.0 
641.241821 512.0 
642.269226 260.0 
643.26062 192.0 
644.274902 184.0 
647.231384 544.0 
649.237793 216.0 
650.25769 228.0 
651.219788 252.0 
653.28595 192.0 
655.281982 292.0 
656.271301 400.0 
672.4776 224.0 
673.288208 3984.0 
673.401428 212.0 
674.288208 1244.0 
675.294678 1112.0 
677.260437 288.0 
681.126282 216.0 
685.318298 532.0 
685.395874 248.0 
685.791748 196.0 
687.345215 216.0 
690.264038 208.0 
691.331116 184.0 
691.545227 200.0 
691.754517 184.0 
694.272278 188.0 
699.941589 212.0 
701.005188 204.0 
706.785034 200.0 
709.500977 252.0 
713.507629 192.0 
714.235901 192.0 
715.297363 508.0 
715.340637 348.0 
716.305054 328.0 
717.307373 216.0 
718.346497 188.0 
724.475647 216.0 
729.309875 548.0 
729.776062 184.0 
730.301636 364.0 
731.258484 272.0 
731.301758 236.0 
732.292236 204.0 
734.427002 236.0 
738.99585 232.0 
746.033997 212.0 
746.678955 192.0 
747.322021 6876.0 
748.329529 2172.0 
749.322693 860.0 
750.329895 704.0 
750.690979 208.0 
751.315063 260.0 
751.939819 184.0 
753.763062 204.0 
754.096252 188.0 
754.877747 192.0 
755.156555 228.0 
755.358826 184.0 
759.542114 184.0 
761.303101 472.0 
761.357056 476.0 
761.605164 196.0 
762.31134 404.0 
765.336121 328.0 
770.835022 244.0 
772.271851 260.0 
774.262024 212.0 
774.872559 192.0 
775.329773 212.0 
776.302063 184.0 
779.015076 272.0 
779.237183 188.0 
779.587097 200.0 
781.159912 196.0 
781.296631 200.0 
782.329041 236.0 
783.680908 196.0 
789.055298 200.0 
791.648743 196.0 
792.274719 2096.0 
792.550232 204.0 
793.273621 456.0 
793.51947 240.0 
794.282654 436.0 
795.089478 204.0 
798.24115 224.0 
799.375549 188.0 
799.808777 196.0 
800.342834 512.0 
801.369324 364.0 
803.328552 184.0 
805.185425 212.0 
806.467468 208.0 
811.353333 404.0 
812.214172 220.0 
813.777954 268.0 
813.948242 184.0 
815.379211 196.0 
815.526917 200.0 
818.495422 224.0 
819.497009 212.0 
820.408997 328.0 
821.942627 244.0 
824.425659 200.0 
825.66571 196.0 
828.431824 192.0 
829.348328 244.0 
829.460266 416.0 
830.325439 712.0 
831.33197 712.0 
832.326172 548.0 
832.492371 184.0 
833.324219 260.0 
833.377502 184.0 
838.451721 200.0 
838.872314 208.0 
839.252686 188.0 
843.377319 1028.0 
844.347229 348.0 
844.386658 820.0 
845.385254 332.0 
847.34259 280.0 
847.385376 184.0 
849.306519 184.0 
849.882874 400.0 
850.105835 184.0 
855.3927 188.0 
858.100525 184.0 
858.549316 208.0 
859.424011 196.0 
860.371338 508.0 
860.649048 224.0 
860.725098 188.0 
860.865173 184.0 
861.281189 404.0 
861.390686 4500.0 
861.577515 284.0 
862.177612 212.0 
862.352356 6228.0 
863.352173 3204.0 
863.690247 284.0 
863.874023 212.0 
864.193787 192.0 
864.354431 1712.0 
865.359314 728.0 
866.201416 216.0 
866.354919 412.0 
866.847168 192.0 
868.240173 188.0 
868.415771 440.0 
870.411865 252.0 
871.195679 188.0 
871.338257 232.0 
872.861572 264.0 
874.206238 264.0 
874.394653 396.0 
874.649353 200.0 
875.357605 192.0 
877.363586 376.0 
877.493591 220.0 
878.398132 216.0 
882.431519 592.0 
882.526489 188.0 
883.244812 244.0 
883.425842 552.0 
884.419678 216.0 
884.869934 184.0 
885.242676 196.0 
886.387817 208.0 
886.782471 200.0 
888.402405 204.0 
888.729797 284.0 
888.869141 184.0 
889.088623 204.0 
889.397156 352.0 
889.990601 184.0 
890.263611 196.0 
890.408691 376.0 
891.42157 184.0 
892.356079 248.0 
894.858215 196.0 
895.394226 264.0 
896.850464 196.0 
897.224121 292.0 
897.989136 208.0 
898.179688 228.0 
900.440186 5920.0 
901.443848 3672.0 
901.54303 208.0 
901.916138 288.0 
902.43689 2000.0 
902.705078 212.0 
902.922668 264.0 
903.424438 732.0 
903.661621 204.0 
903.921326 196.0 
904.431641 460.0 
905.810364 184.0 
905.917419 236.0 
909.252686 204.0 
909.784119 212.0 
912.397034 1152.0 
913.406555 888.0 
914.395325 748.0 
914.708069 184.0 
915.39978 344.0 
916.419006 192.0 
917.48407 216.0 
917.604614 204.0 
917.869812 236.0 
918.413757 1492.0 
919.420166 796.0 
919.66687 192.0 
920.423035 572.0 
920.493164 212.0 
920.84375 192.0 
921.41687 272.0 
921.936829 208.0 
924.062195 184.0 
926.151062 208.0 
926.303467 348.0 
926.418335 480.0 
927.427063 312.0 
928.353149 188.0 
928.420288 196.0 
928.960693 204.0 
930.408508 3912.0 
931.421448 1924.0 
932.08905 188.0 
932.411011 1232.0 
933.40741 416.0 
934.44873 272.0 
935.043396 204.0 
936.61969 284.0 
936.710999 212.0 
938.087646 308.0 
940.935486 204.0 
941.509216 256.0 
943.042114 224.0 
944.121338 184.0 
944.429504 10232.0 
944.949951 220.0 
945.430725 5344.0 
946.111633 192.0 
946.432678 3116.0 
946.654297 356.0 
946.71405 328.0 
947.017517 224.0 
947.144592 284.0 
947.264221 192.0 
947.436768 768.0 
947.549683 220.0 
947.693298 276.0 
947.962646 308.0 
948.049683 200.0 
948.196716 196.0 
948.37915 232.0 
948.427307 336.0 
948.63623 372.0 
949.319519 236.0 
949.799194 204.0 
950.133057 252.0 
950.684631 256.0 
951.551208 292.0 
953.571472 188.0 
953.845398 192.0 
954.001221 188.0 
954.092224 188.0 
954.541382 216.0 
955.779419 204.0 
955.932678 192.0 
956.067993 204.0 
956.89801 228.0 
957.210693 200.0 
957.362183 220.0 
957.579224 224.0 
957.63739 192.0 
957.834106 228.0 
958.54425 352.0 
958.890686 188.0 
959.244751 252.0 
959.401794 212.0 
959.462708 212.0 
959.563599 252.0 
959.615723 288.0 
959.720459 192.0 
960.073242 356.0 
960.141907 456.0 
960.290344 188.0 
960.420898 832.0 
960.552368 244.0 
960.737366 212.0 
960.794861 264.0 
960.994202 272.0 
961.072327 416.0 
961.181152 388.0 
961.375366 380.0 
961.444519 444.0 
961.572266 260.0 
961.641052 268.0 
961.755493 648.0 
961.833984 372.0 
961.854675 420.0 
961.915955 244.0 
961.939636 256.0 
962.045837 508.0 
962.175171 1036.0 
962.198242 620.0 
962.211243 1280.0 
962.271118 1076.0 
962.443665 343364.0 
962.640381 724.0 
962.77771 292.0 
962.908875 1168.0 
962.997253 876.0 
963.100525 408.0 
963.200867 516.0 
963.305298 840.0 
963.446594 214488.0 
963.596863 492.0 
963.61615 712.0 
963.797241 276.0 
963.840393 620.0 
963.897888 600.0 
963.983582 504.0 
964.027405 288.0 
964.051758 816.0 
964.098145 396.0 
964.119934 776.0 
964.19928 504.0 
964.290527 576.0 
964.443787 121004.0 
964.694519 272.0 
964.821899 232.0 
964.900024 324.0 
965.011658 496.0 
965.060425 204.0 
965.076416 540.0 
965.131531 520.0 
965.306213 428.0 
965.445801 37988.0 
965.685547 276.0 
965.760071 256.0 
965.862854 316.0 
965.997559 244.0 
966.053528 228.0 
966.102051 288.0 
966.158386 252.0 
966.194031 340.0 
966.254456 204.0 
966.30249 316.0 
966.442932 12312.0 
966.639221 236.0 
966.716309 288.0 
966.799133 192.0 
966.872925 244.0 
966.935547 328.0 
967.048645 248.0 
967.161926 476.0 
967.254028 260.0 
967.438843 3016.0 
967.641296 312.0 
967.7276 472.0 
967.898499 520.0 
968.021973 432.0 
968.06488 748.0 
968.114014 472.0 
968.17926 368.0 
968.444946 736.0 
968.521606 196.0 
968.585693 424.0 
968.841309 336.0 
968.947937 456.0 
969.082764 228.0 
969.227966 220.0 
969.431335 204.0 
969.589233 364.0 
969.669067 368.0 
969.793457 440.0 
969.869629 236.0 
969.931274 204.0 
970.091919 284.0 
970.176453 208.0 
970.299377 264.0 
970.3703 296.0 
970.530884 272.0 
970.75592 188.0 
971.067871 284.0 
971.573059 288.0 
972.164429 248.0 
973.113647 184.0 
973.849243 216.0 
974.133911 188.0 
984.751465 244.0 
985.119873 284.0 
987.131592 184.0 
987.726929 212.0 
987.917664 248.0 
988.238281 240.0 
994.483643 184.0 
1109.96582 208.0 
1292.894043 180.0 
1325.539429 204.0 
1325.619141 276.0 
1325.959595 200.0 
1332.741943 180.0 
1340.284424 200.0 
1349.22168 244.0 
1354.188232 188.0 
1366.729248 188.0 
1423.057007 224.0 
1430.927246 200.0 
1437.005615 240.0 
1469.411133 188.0 
1492.480713 232.0 
1500.615967 188.0 
1503.129517 208.0 
1509.190552 180.0 
1511.271973 196.0 
1516.418091 228.0 
1517.130981 192.0 
1518.13855 180.0 
1521.279663 192.0 
1531.843506 180.0 
1546.869629 188.0 
1547.065308 248.0 
1547.237427 204.0 
1557.742432 216.0 
1561.22229 192.0 
1564.580688 212.0 
1566.69043 204.0 
1594.473511 196.0 
1611.970215 228.0 
1721.196289 192.0 
1828.282471 180.0 
1878.920166 184.0 
1917.083008 184.0 
1938.317993 180.0 
1962.374634 208.0 
END IONS

