BEGIN IONS
PEPMASS=785.23
CHARGE=0+
MSLEVEL=2
SOURCE_INSTRUMENT=LC-ESI-qTof
FILENAME=20121205_Jenia_Ger_Dolastatin_10_MH785_qb.1.1..mgf
SEQ=*..*
IONMODE=Positive
ORGANISM=GNPS-LIBRARY
NAME=Dolastatin_10 M+H
PI=Gerwick
DATACOLLECTOR=Jenia
SMILES=CC[C@H](C)[C@@H]([C@@H](CC(=O)N1CCC[C@H]1[C@@H]([C@@H](C)C(=O)N[C@@H](CC2=CC=CC=C2)C3=NC=CS3)OC)OC)N(C)C(=O)[C@H](C(C)C)NC(=O)[C@H](C(C)C)N(C)C
INCHI=InChI=1S/C42H68N6O6S/c1-13-28(6)37(47(10)42(52)35(26(2)3)45-40(51)36(27(4)5)46(8)9)33(53-11)25-34(49)48-22-17-20-32(48)38(54-12)29(7)39(50)44-31(41-43-21-23-55-41)24-30-18-15-14-16-19-30/h14-16,18-19,21,23,26-29,31-33,35-38H,13,17,20,22,24-25H2,1-12H3,(H,44,50)(H,45,51)/t28-,29+,31-,32-,33+,35-,36-,37-,38+/m0/s1
INCHIAUX=N/A
PUBMED=N/A
SUBMITUSER=mwang87
LIBRARYQUALITY=1
SPECTRUMID=CCMSLIB00000001644
SCANS=1
226.791016 25646.0 
291.709839 9486.0 
305.235474 6458.0 
317.943909 2182.0 
324.021973 8753.0 
341.863281 11795.0 
356.033875 323784.0 
356.638824 1.0 
359.971985 5800.0 
369.956787 6114.0 
372.018677 37939.0 
373.141541 38302.0 
373.870544 4667173.0 
374.473511 6896.0 
387.629333 3927.0 
395.62915 1329.0 
412.030823 7675.0 
442.20813 8366.0 
446.363037 51992.0 
463.656494 35871.0 
477.333801 5416.0 
495.303955 25585.0 
496.055634 547537.0 
496.756378 4.0 
508.933533 13464.0 
526.991455 197549.0 
528.08313 144040.0 
528.757141 2.0 
541.197388 211482.0 
542.85321 3584.0 
543.994629 36455.0 
545.009521 44270.0 
548.770142 10511.0 
555.054688 5963.0 
556.603394 7452.0 
557.324463 5929.0 
558.225403 201663.0 
559.014038 30946192.0 
559.712341 8188.0 
572.764648 11962.0 
625.872925 13959.0 
626.417969 9195.0 
657.482666 4529.0 
658.192383 630022.0 
658.987671 14.0 
682.070557 4562.0 
707.24707 4835.0 
708.106445 1781.0 
712.14801 76732.0 
712.65918 21370.0 
721.168762 151765.0 
722.054688 5.0 
734.990295 11675.0 
739.341919 922.0 
740.230164 77443.0 
741.284302 11964.0 
750.934326 5286.0 
751.56897 6243.0 
752.443726 272397.0 
753.227905 37462672.0 
753.934265 5527.0 
757.417603 30775.0 
767.139465 38463.0 
767.973022 4982.0 
785.340088 2432.0 
END IONS

