BEGIN IONS
PEPMASS=741.0
CHARGE=2+
MSLEVEL=2
SOURCE_INSTRUMENT=LC-ESI-qTof
FILENAME=1G2_741_RG2_01_9773.mzXML
SEQ=*..*
IONMODE=Positive
ORGANISM=GNPS-LIBRARY
NAME=Antanapeptin C M+H
PI=Dorrestein/Gerwick
DATACOLLECTOR=Peng/Luzzatto/Garg
SMILES=CCCCCC1OC(=O)[C@H](C(C)CC)N(C)C(=O)[C@@H]2CCCN2C(=O)[C@@H](OC(=O)[C@H](CC2=CC=CC=C2)N(C)C(=O)[C@@H](NC(=O)C1C)C(C)C)C(C)C
INCHI=InChI=1S/C41H64N4O8/c1-11-13-15-22-32-28(8)36(46)42-33(25(3)4)38(48)43(9)31(24-29-19-16-14-17-20-29)40(50)53-35(26(5)6)39(49)45-23-18-21-30(45)37(47)44(10)34(27(7)12-2)41(51)52-32/h14,16-17,19-20,25-28,30-35H,11-13,15,18,21-24H2,1-10H3,(H,42,46)/t27?,28?,30-,31-,32?,33-,34-,35-/m0/s1
INCHIAUX=NIFSOTSGUFBSPF-CVZHIFNESA-N
PUBMED=ChemSpider ID 9051646
SUBMITUSER=y6peng
LIBRARYQUALITY=2
SPECTRUMID=CCMSLIB00000072480
SCANS=3330
95.042999 196.0 
95.33416 184.0 
95.406044 200.0 
95.742523 192.0 
97.25322 260.0 
97.657806 168.0 
98.080971 240.0 
99.572205 228.0 
99.788712 204.0 
99.802628 316.0 
100.113991 424.0 
100.998703 204.0 
101.060982 500.0 
101.33889 216.0 
101.579361 232.0 
102.344757 192.0 
104.316528 244.0 
109.06942 180.0 
111.360619 200.0 
111.804039 184.0 
112.208305 164.0 
112.82029 180.0 
114.383072 212.0 
115.054298 220.0 
115.175964 188.0 
116.516426 188.0 
117.938095 180.0 
119.071373 748.0 
121.207695 208.0 
123.266579 196.0 
123.339485 184.0 
124.109612 268.0 
125.918037 268.0 
126.049782 208.0 
126.53495 180.0 
127.559746 160.0 
128.106277 220.0 
129.056091 160.0 
129.39534 248.0 
129.565125 240.0 
133.170135 172.0 
133.415894 256.0 
133.458984 252.0 
133.931137 172.0 
134.058563 252.0 
134.097137 20296.0 
134.481979 172.0 
134.821335 300.0 
135.100342 1948.0 
135.436508 204.0 
135.765488 168.0 
136.098099 216.0 
136.189087 228.0 
136.251068 180.0 
137.138947 220.0 
137.901855 264.0 
137.985977 212.0 
138.131882 228.0 
138.812164 200.0 
139.11084 1600.0 
144.081284 220.0 
144.176819 292.0 
144.643021 160.0 
146.116653 400.0 
146.327576 192.0 
147.564758 164.0 
149.867157 200.0 
150.205887 172.0 
150.701263 200.0 
152.10704 1712.0 
153.109314 172.0 
154.120117 172.0 
154.158188 596.0 
155.081467 208.0 
155.565872 188.0 
156.102325 188.0 
156.134628 232.0 
157.120621 240.0 
157.827148 232.0 
157.972137 184.0 
160.078964 392.0 
161.891968 204.0 
162.089386 800.0 
162.462021 224.0 
163.096588 248.0 
164.099182 192.0 
167.207687 208.0 
168.385422 292.0 
169.953522 192.0 
170.026138 204.0 
170.119736 2360.0 
170.547974 236.0 
171.123642 188.0 
172.128693 232.0 
174.091873 208.0 
175.096054 260.0 
175.491165 200.0 
177.150177 232.0 
177.67485 184.0 
178.98996 208.0 
179.149689 196.0 
179.442719 228.0 
179.735992 196.0 
179.97612 200.0 
180.102585 9756.0 
180.13855 396.0 
181.107162 1100.0 
182.118301 260.0 
182.152557 204.0 
188.145264 804.0 
189.146301 224.0 
192.112473 196.0 
192.174011 172.0 
193.001419 292.0 
193.208771 172.0 
193.344284 164.0 
194.19548 208.0 
194.707718 200.0 
196.204117 196.0 
197.168762 396.0 
198.114044 4796.0 
199.120682 352.0 
199.188797 172.0 
199.629883 176.0 
200.119614 240.0 
206.107391 188.0 
206.195938 212.0 
207.085358 192.0 
208.130798 256.0 
209.131668 172.0 
209.471298 212.0 
209.635452 184.0 
210.131195 160.0 
210.185333 4844.0 
211.186554 1360.0 
212.196579 192.0 
212.676712 164.0 
214.121475 164.0 
214.505707 176.0 
216.12207 412.0 
217.142075 160.0 
221.235947 160.0 
222.003036 168.0 
222.109756 160.0 
223.137238 176.0 
224.139465 224.0 
226.953979 220.0 
228.197556 2292.0 
229.196915 380.0 
230.20546 168.0 
231.146347 176.0 
232.14743 184.0 
234.151566 348.0 
235.145859 240.0 
238.182648 520.0 
239.166931 416.0 
239.399368 168.0 
240.164627 164.0 
242.159195 184.0 
242.825272 180.0 
242.974106 204.0 
243.170685 364.0 
244.133575 380.0 
244.172607 224.0 
245.17778 168.0 
254.139496 212.0 
256.191284 2332.0 
256.224304 208.0 
257.201813 264.0 
257.560364 196.0 
258.192932 204.0 
258.467926 268.0 
259.141266 260.0 
260.147461 220.0 
262.036865 180.0 
262.145142 11092.0 
263.07486 180.0 
263.145172 1596.0 
264.87204 172.0 
265.254272 160.0 
269.15097 192.0 
272.201263 560.0 
272.292633 212.0 
273.133728 208.0 
274.193451 212.0 
274.486725 220.0 
277.163055 168.0 
280.149811 396.0 
280.191925 228.0 
285.232971 160.0 
287.141602 444.0 
288.143066 208.0 
294.988403 296.0 
300.195953 356.0 
300.325684 176.0 
303.592651 220.0 
304.854492 180.0 
305.144104 212.0 
307.205383 1176.0 
308.213684 268.0 
309.202759 168.0 
315.316254 216.0 
316.190002 640.0 
318.206909 516.0 
318.361725 172.0 
320.164001 192.0 
325.091766 200.0 
325.213959 4340.0 
325.250427 472.0 
326.215027 1204.0 
327.228027 212.0 
328.259644 196.0 
330.943817 212.0 
330.993927 160.0 
331.15683 200.0 
331.201935 7332.0 
332.206635 2544.0 
333.208771 472.0 
334.208588 288.0 
336.216675 340.0 
337.150116 280.0 
343.228455 360.0 
344.190002 344.0 
346.274109 188.0 
353.242157 408.0 
354.24292 360.0 
354.275604 160.0 
355.300415 852.0 
356.578522 164.0 
357.183624 308.0 
359.196777 3108.0 
360.199036 1240.0 
361.212341 248.0 
371.265442 168.0 
372.278137 224.0 
377.206268 2808.0 
378.212463 352.0 
381.283539 184.0 
383.290405 228.0 
384.300171 220.0 
388.197571 216.0 
390.235748 196.0 
390.272705 184.0 
391.24762 216.0 
395.017151 236.0 
397.980347 196.0 
399.203705 228.0 
399.262756 504.0 
400.250763 168.0 
400.263123 344.0 
401.24823 168.0 
403.792023 216.0 
406.277222 172.0 
407.267395 364.0 
417.273712 1880.0 
417.962311 196.0 
418.271515 696.0 
420.259735 164.0 
425.301392 1840.0 
426.308136 604.0 
427.315308 212.0 
429.634491 220.0 
434.041626 220.0 
447.835632 176.0 
452.343292 480.0 
453.341461 280.0 
466.869873 172.0 
469.616455 160.0 
474.011322 180.0 
480.343689 312.0 
481.349091 384.0 
484.573242 176.0 
486.296021 2640.0 
487.298126 1144.0 
488.303894 356.0 
489.327393 492.0 
490.329224 196.0 
492.298431 212.0 
495.162994 240.0 
497.405609 168.0 
499.327026 372.0 
503.944977 216.0 
504.230743 192.0 
504.307495 9560.0 
504.434174 180.0 
504.677673 216.0 
505.309265 3604.0 
505.804565 204.0 
505.961182 172.0 
506.315704 648.0 
508.133911 168.0 
514.324341 200.0 
515.316833 408.0 
517.331726 980.0 
518.328125 608.0 
519.322815 376.0 
523.377686 216.0 
524.060608 164.0 
529.476013 184.0 
533.261963 164.0 
534.399536 364.0 
540.325195 164.0 
544.375 196.0 
552.804382 200.0 
553.417786 176.0 
553.604553 184.0 
555.047241 180.0 
559.359253 180.0 
562.383423 1188.0 
564.385376 224.0 
564.418457 172.0 
575.098389 272.0 
575.609009 184.0 
576.415955 172.0 
578.859741 200.0 
580.40564 708.0 
581.264648 164.0 
581.39679 168.0 
585.454712 160.0 
585.570251 184.0 
586.383972 1120.0 
587.385315 860.0 
588.018433 184.0 
588.391541 172.0 
588.901611 196.0 
595.083496 228.0 
597.016113 224.0 
597.36615 164.0 
603.088379 164.0 
610.512939 164.0 
613.465942 168.0 
614.377563 1336.0 
615.380676 884.0 
624.401428 208.0 
636.768799 220.0 
641.43103 160.0 
641.74353 192.0 
660.291321 180.0 
662.071533 196.0 
664.207947 160.0 
664.572021 308.0 
664.766907 228.0 
667.174805 172.0 
676.368713 164.0 
682.482605 180.0 
683.88147 176.0 
684.807861 168.0 
687.21521 232.0 
688.848572 188.0 
696.829224 168.0 
698.15332 160.0 
699.336548 160.0 
706.68457 180.0 
706.964905 176.0 
707.880554 176.0 
709.453247 160.0 
711.272034 200.0 
713.292114 216.0 
713.486206 1012.0 
714.485596 676.0 
715.219727 168.0 
719.4505 220.0 
723.465881 296.0 
724.477295 296.0 
725.339417 188.0 
725.434204 156.0 
729.042969 156.0 
729.727234 196.0 
730.893921 164.0 
731.289001 208.0 
734.124634 160.0 
734.988037 216.0 
737.132568 376.0 
737.659729 172.0 
738.184326 164.0 
738.363647 224.0 
738.583862 156.0 
738.629456 168.0 
738.851685 176.0 
739.011353 332.0 
739.196594 268.0 
739.48175 316.0 
739.763 160.0 
739.921631 244.0 
740.237854 180.0 
740.460876 232.0 
740.485229 296.0 
740.701538 188.0 
740.783752 240.0 
741.040588 288.0 
741.220337 172.0 
741.352356 368.0 
741.4823 97180.0 
741.64856 228.0 
741.748779 196.0 
741.827881 168.0 
741.936401 168.0 
742.045776 216.0 
742.113403 316.0 
742.27655 380.0 
742.330078 200.0 
742.371765 176.0 
742.484802 49680.0 
742.62793 240.0 
742.682068 184.0 
742.772766 336.0 
742.966125 244.0 
743.01239 392.0 
743.122742 372.0 
743.34613 252.0 
743.487732 11040.0 
743.854309 280.0 
744.026245 204.0 
744.153076 180.0 
744.206787 168.0 
744.489929 1824.0 
745.261414 224.0 
745.495972 344.0 
745.692688 288.0 
745.758179 204.0 
745.950867 256.0 
746.235779 184.0 
746.419617 172.0 
746.479248 208.0 
746.576477 156.0 
746.86853 196.0 
747.306763 176.0 
747.441162 276.0 
747.489014 164.0 
757.754761 216.0 
769.26593 176.0 
844.971436 156.0 
855.093079 172.0 
949.340698 172.0 
1012.027832 252.0 
1019.39502 160.0 
1050.879883 176.0 
1142.699951 164.0 
1167.467163 248.0 
1179.84436 192.0 
1207.828125 240.0 
1221.689087 212.0 
1324.193726 168.0 
1376.152832 200.0 
1410.939209 208.0 
1432.099243 248.0 
1461.650146 228.0 
1498.187134 176.0 
1499.273071 208.0 
1517.167236 156.0 
1530.03479 180.0 
1564.388428 236.0 
1584.352173 200.0 
1587.640137 164.0 
1602.809204 268.0 
1605.940918 280.0 
1607.400269 176.0 
1645.543335 192.0 
1647.295044 176.0 
1648.126831 196.0 
1654.325806 224.0 
1664.636475 240.0 
1678.496704 240.0 
1684.598999 232.0 
1693.994385 232.0 
1737.778442 224.0 
1741.852905 164.0 
1753.821777 280.0 
1755.780273 328.0 
1765.288208 176.0 
1797.287598 208.0 
1808.16748 240.0 
1816.24707 188.0 
1816.82373 244.0 
1819.487427 220.0 
1826.962891 204.0 
1837.505615 196.0 
1846.821655 156.0 
1856.804932 184.0 
1863.634277 192.0 
1866.52124 248.0 
1875.358887 180.0 
1906.45105 176.0 
1911.918945 184.0 
1911.988525 212.0 
1918.422729 164.0 
1925.775513 168.0 
1933.151245 252.0 
1933.676025 236.0 
1937.825073 156.0 
1945.855591 224.0 
1954.228149 260.0 
1955.670776 248.0 
1957.897339 204.0 
1967.169067 188.0 
1969.976074 252.0 
1976.40979 180.0 
1985.982422 216.0 
1986.682861 188.0 
1992.557495 244.0 
END IONS

