BEGIN IONS
PEPMASS=248.129
CHARGE=1+
MSLEVEL=2
SOURCE_INSTRUMENT=LC-ESI-qTof
FILENAME=2A4_R-4-benzyl-3-isobutyryloxazolidin-2-one.mzXML
SEQ=*..*
IONMODE=Positive
ORGANISM=GNPS-LIBRARY
NAME=R-4-benzyl-3-isobutyryloxazolidin-2-one M+H
PI=Dorrestein/Gerwick
DATACOLLECTOR=Garg/Luzzato
SMILES=O=C1OC[C@@H](CC2=CC=CC=C2)N1C(C(C)C)=O
INCHI=N/A
INCHIAUX=N/A
PUBMED=N/A
SUBMITUSER=mwang87
LIBRARYQUALITY=2
SPECTRUMID=CCMSLIB00000068216
SCANS=1397
95.569588 184.0 
96.440941 268.0 
96.78315 160.0 
97.396721 204.0 
98.503281 176.0 
98.944099 220.0 
99.411674 168.0 
99.840599 208.0 
100.441841 192.0 
100.655304 204.0 
101.012901 224.0 
101.062889 212.0 
101.921967 212.0 
102.407349 184.0 
104.123749 180.0 
104.670555 228.0 
104.774391 216.0 
105.006668 176.0 
105.576225 168.0 
106.057159 172.0 
106.151421 224.0 
107.001717 176.0 
107.529198 184.0 
108.51136 264.0 
110.257072 204.0 
110.656433 176.0 
110.821823 172.0 
112.655624 204.0 
112.896477 168.0 
113.270943 164.0 
114.708984 180.0 
114.932777 196.0 
115.022369 208.0 
115.05484 1244.0 
115.75753 216.0 
115.96096 220.0 
116.059334 444.0 
116.559456 156.0 
116.641083 140.0 
116.804436 240.0 
116.959297 228.0 
117.021706 152.0 
117.050552 360.0 
117.070343 20272.0 
117.135796 176.0 
117.925186 212.0 
118.073341 1712.0 
118.721565 148.0 
118.890709 160.0 
119.078217 296.0 
120.300537 192.0 
120.658669 148.0 
121.543152 232.0 
121.68576 148.0 
121.870178 260.0 
123.361588 184.0 
124.356979 148.0 
124.599884 172.0 
124.979919 240.0 
125.135651 252.0 
126.110085 152.0 
127.418198 236.0 
127.807007 228.0 
129.667007 180.0 
132.078033 204.0 
132.720444 212.0 
134.025467 256.0 
134.095535 1456.0 
135.098587 172.0 
135.821014 156.0 
136.106354 180.0 
138.172867 160.0 
139.048874 168.0 
139.991196 224.0 
141.435471 200.0 
141.478073 196.0 
141.525406 176.0 
143.087006 408.0 
143.222687 188.0 
143.732651 184.0 
143.775589 220.0 
143.973648 176.0 
144.444305 252.0 
148.452805 180.0 
148.95015 192.0 
149.2854 224.0 
152.548111 252.0 
153.293549 200.0 
154.203812 236.0 
155.478745 148.0 
156.980682 144.0 
158.059357 200.0 
160.075729 136.0 
162.068848 224.0 
162.550415 180.0 
163.701462 240.0 
164.091156 144.0 
164.591034 232.0 
165.390884 220.0 
165.698044 180.0 
167.910324 192.0 
169.14743 208.0 
173.108414 184.0 
174.398636 156.0 
175.474854 264.0 
176.961716 140.0 
177.233047 284.0 
177.776001 200.0 
177.82576 176.0 
178.006393 152.0 
178.087326 76028.0 
178.152115 100.0 
178.178757 132.0 
178.214935 148.0 
178.275635 216.0 
178.348846 144.0 
178.464828 184.0 
178.501328 252.0 
178.586334 144.0 
178.610336 176.0 
178.752625 176.0 
179.090546 5488.0 
179.813248 124.0 
179.921997 104.0 
179.982544 164.0 
180.092453 548.0 
180.449509 240.0 
180.469681 140.0 
180.497635 104.0 
181.327957 196.0 
181.655594 140.0 
186.481537 204.0 
186.666336 152.0 
187.979858 180.0 
188.060593 152.0 
188.956528 160.0 
189.821701 152.0 
196.095551 708.0 
201.076553 200.0 
213.782654 244.0 
216.037109 208.0 
232.073578 144.0 
248.091537 208.0 
248.128906 3428.0 
249.132812 340.0 
251.126022 228.0 
291.773193 156.0 
309.218231 140.0 
360.251923 140.0 
361.1474 240.0 
466.418915 204.0 
509.996613 168.0 
1370.304077 208.0 
1408.904541 184.0 
1447.132812 164.0 
1457.952637 152.0 
1459.464722 188.0 
1470.391602 244.0 
1512.679932 176.0 
1538.189331 148.0 
1554.932373 172.0 
1564.817017 224.0 
1571.970947 244.0 
1581.593018 228.0 
1582.503052 216.0 
1591.046143 184.0 
1596.152832 184.0 
1608.743774 248.0 
1610.643433 228.0 
1639.088257 176.0 
1646.272583 228.0 
1657.682129 244.0 
1662.026489 208.0 
1671.789795 188.0 
1673.539185 196.0 
1680.570312 212.0 
1684.266846 256.0 
1684.528198 152.0 
1692.547852 212.0 
1695.077881 188.0 
1696.954224 224.0 
1700.012451 156.0 
1722.124878 180.0 
1722.702759 212.0 
1732.841187 176.0 
1755.898926 180.0 
1760.74585 224.0 
1764.362427 220.0 
1764.420898 152.0 
1788.267578 144.0 
1800.656128 152.0 
1807.855957 160.0 
1808.93042 156.0 
1824.890137 208.0 
1843.84021 204.0 
1843.976929 148.0 
1844.6604 208.0 
1859.463745 272.0 
1860.501953 228.0 
1885.298096 180.0 
1898.425171 204.0 
1901.590454 156.0 
1907.755005 232.0 
1927.426514 212.0 
1933.912842 292.0 
1940.033203 172.0 
1940.856934 228.0 
1950.009277 220.0 
1986.514404 152.0 
1989.494873 140.0 
1990.47998 184.0 
1998.769897 184.0 
2004.279419 224.0 
END IONS

