BEGIN IONS
PEPMASS=469.0
CHARGE=0+
MSLEVEL=2
SOURCE_INSTRUMENT=LC-ESI-qTof
FILENAME=20121219_Jenia_Ger_Tumonoic_acid_G_MH469-qb.1.1..mgf
SEQ=*..*
IONMODE=Positive
ORGANISM=GNPS-LIBRARY
NAME=Tumonoic_acid_G M+H
PI=Gerwick
DATACOLLECTOR=Jenia
SMILES=CCCCCCCC[C@H](C)C(=O)N1CCC[C@H]1C(=O)O[C@H]([C@@H](C)CC)C(=O)O[C@@H](C)C(=O)O
INCHI=InChI=1S/C25H43NO7/c1-6-8-9-10-11-12-14-18(4)22(27)26-16-13-15-20(26)24(30)33-21(17(3)7-2)25(31)32-19(5)23(28)29/h17-21H,6-16H2,1-5H3,(H,28,29)/t17-,18-,19-,20-,21+/m0/s1
INCHIAUX=N/A
PUBMED=N/A
SUBMITUSER=mwang87
LIBRARYQUALITY=1
SPECTRUMID=CCMSLIB00000001699
SCANS=1
142.748169 9286.0 
235.480347 73589.0 
236.268616 63733.0 
237.036255 75964.0 
237.760635 464682.0 
238.439224 124.0 
265.257141 49637.0 
265.85144 3677624.0 
266.522888 371.0 
284.238342 2350.0 
302.046204 585553.0 
302.841064 1.0 
324.379517 7338.0 
365.653442 11449.0 
379.169586 168344.0 
379.9487 5516385.0 
380.568451 10070.0 
397.762604 97534.0 
398.421387 2.0 
423.872009 48479.0 
451.829102 639159.0 
452.401306 1325.0 
END IONS

