BEGIN IONS
PEPMASS=1555.5
CHARGE=0+
MSLEVEL=2
SOURCE_INSTRUMENT=LC-ESI-qTof
FILENAME=20130604_Ger_Jenia_Portoamide_A_MNa1555.5-qb.1.1..mgf
SEQ=*..*
IONMODE=Positive
ORGANISM=GNPS-LIBRARY
NAME=Portoamide A M+Na
PI=Gerwick
DATACOLLECTOR=Jenia
SMILES=CC[C@H](C)[C@@H]1C(=O)N[C@H](C(=O)N/C(=C/C)/C(=O)N[C@H](C(=O)N[C@@H](C(=O)N2CCC[C@H]2C(=O)NC(C(C(=O)N[C@@H](C(=O)NCC(=O)N3CCC[C@H]3C(=O)N4CCC[C@H]4C(=O)N1)CCC(=O)N)O)CC(CC(C(CC(C)C)O)O)OC(=O)[C@H](CC5=CC=C(C=C5)O)N(C)C(=O)C)CCC6=CC=C(C=C6)OC)[C@@H](C)O)CO
INCHI=InChI=1S/C74H109N13O22/c1-10-40(5)61-69(102)81-52(38-88)66(99)77-48(11-2)65(98)83-62(41(6)89)70(103)79-50(27-22-43-20-25-46(108-9)26-21-43)72(105)86-31-12-15-53(86)67(100)80-51(35-47(36-58(93)57(92)33-39(3)4)109-74(107)56(84(8)42(7)90)34-44-18-23-45(91)24-19-44)63(96)71(104)78-49(28-29-59(75)94)64(97)76-37-60(95)85-30-14-17-55(85)73(106)87-32-13-16-54(87)68(101)82-61/h11,18-21,23-26,39-41,47,49-58,61-63,88-89,91-93,96H,10,12-17,22,27-38H2,1-9H3,(H2,75,94)(H,76,97)(H,77,99)(H,78,104)(H,79,103)(H,80,100)(H,81,102)(H,82,101)(H,83,98)/b48-11+/t40-,41+,47?,49+,50+,51?,52-,53-,54-,55-,56-,57?,58?,61+,62-,63?/m0/s1
INCHIAUX=N/A
PUBMED=N/A
SUBMITUSER=mwang87
LIBRARYQUALITY=1
SPECTRUMID=CCMSLIB00000001789
SCANS=1
672.138184 144947.0 
695.319458 64148.0 
696.37085 95783.0 
740.479004 37092.0 
758.702393 44725.0 
788.362793 332436.0 
796.271973 12923.0 
806.148438 177332.0 
839.170166 69429.0 
842.454712 370447.0 
866.257324 119959.0 
920.031006 10444.0 
925.259644 56318.0 
929.202393 73743.0 
932.415405 41908.0 
963.427124 83294.0 
985.58374 48028.0 
992.425903 135906.0 
997.755493 59657.0 
1005.880493 15547.0 
1007.195923 75103.0 
1020.364624 81213.0 
1048.474365 175461.0 
1062.42041 199772.0 
1065.341309 22956.0 
1074.859131 55141.0 
1080.402832 222680.0 
1082.504395 70570.0 
1089.770996 119756.0 
1117.1604 123670.0 
1119.819092 95798.0 
1125.541992 11351.0 
1129.217041 98910.0 
1131.407959 50752.0 
1133.561523 95349.0 
1141.915039 82983.0 
1148.378906 31189.0 
1152.535156 141095.0 
1159.328125 451504.0 
1160.525391 389965.0 
1166.100586 126950.0 
1172.439941 105243.0 
1178.522461 50050.0 
1185.438965 277463.0 
1189.812012 116674.0 
1191.535889 80252.0 
1197.429688 12726.0 
1199.664551 88146.0 
1201.515137 162532.0 
1202.40625 119665.0 
1203.578125 199401.0 
1204.178223 5.0 
1206.101562 149595.0 
1210.675781 186649.0 
1216.634766 63631.0 
1229.489258 58159.0 
1230.526855 236738.0 
1231.191406 34.0 
1236.611084 43618.0 
1238.506836 123620.0 
1243.587891 265298.0 
1244.65918 279835.0 
1245.536133 34834.0 
1246.571289 119369.0 
1253.366211 95611.0 
1255.842285 126966.0 
1256.655762 216343.0 
1257.719971 58655.0 
1259.725586 36449.0 
1260.345459 104038.0 
1262.824219 51158.0 
1263.582764 140459.0 
1264.600586 107963.0 
1269.903076 68726.0 
1271.586426 155617.0 
1273.572266 1065804.0 
1274.437744 527658.0 
1275.361816 20198.0 
1282.783203 144481.0 
1287.588867 304242.0 
1288.754883 48870.0 
1289.772949 611590.0 
1290.79834 302406.0 
1291.702393 2.0 
1299.689941 1307475.0 
1300.718018 1106392.0 
1301.592041 877832.0 
1302.382812 40354.0 
1317.629395 23214336.0 
1318.700928 15147636.0 
1319.759277 1308768.0 
1320.813477 110278.0 
1334.629639 230425.0 
1335.416016 431994.0 
1336.228516 168838.0 
1355.388184 95264.0 
1368.109863 26469.0 
1372.092773 233076.0 
1398.282715 71711.0 
1399.597656 58640.0 
1409.733154 180184.0 
1427.353027 157767.0 
1431.63916 107227.0 
1449.157959 163172.0 
1453.300049 296282.0 
1454.812988 160085.0 
1456.692139 143424.0 
1462.154785 398446.0 
1463.426025 286208.0 
1464.301758 165116.0 
1466.789062 68781.0 
1469.018555 17623.0 
1478.149414 35208.0 
1480.768555 184450.0 
1481.43335 311802.0 
1482.612793 103967.0 
1483.235596 11.0 
1490.630859 197932.0 
1492.533936 391477.0 
1493.356934 720807.0 
1494.170898 178236.0 
1495.456787 86693.0 
1498.62915 156917.0 
1500.214355 59337.0 
1506.779053 107200.0 
1509.646973 310330.0 
1510.656982 948621.0 
1511.681152 741656.0 
1512.546875 160038.0 
1519.564941 124326.0 
1520.649658 160146.0 
1524.73877 190585.0 
1525.736084 262549.0 
1526.517822 317912.0 
1527.598145 403481.0 
1528.474365 110795.0 
1536.598389 1121442.0 
1537.821045 1188302.0 
1538.782227 657513.0 
END IONS

