BEGIN IONS
PEPMASS=756.54
CHARGE=1+
MSLEVEL=2
SOURCE_INSTRUMENT=LC-ESI-Ion Trap
FILENAME=f.yuhaobing/microcolins Fedback/microcolin H.mzXML;
SEQ=*..*
IONMODE=Positive
ORGANISM=GNPS-LIBRARY
NAME=Microcolin H M+Na
PI=Gerwick
DATACOLLECTOR=Haobing Yu
SMILES=CN(C([C@H](C)CCCCCC)=O)[C@@H](CC(C)C)C(N[C@@H]([C@@H](C)OC(C)=O)C(N(C)[C@@H](C(C)C)C(N1[C@H](C(N2C(C=C[C@@H]2C)=O)=O)C[C@H](O)C1)=O)=O)=O
INCHI=
INCHIAUX=
PUBMED=31468974
SUBMITUSER=yuhaobing
LIBRARYQUALITY=3
SPECTRUMID=CCMSLIB00005463464
SCANS=576
268.343994 6346.0 
282.431458 32644.0 
288.282532 20869.0 
306.416382 2493.0 
329.655273 14646.0 
332.021851 19444.0 
346.355896 13117.0 
350.884766 5825.0 
373.023682 22684.0 
405.421265 11726.0 
413.494263 10284.0 
418.334595 50236.0 
429.559143 5233.0 
433.421387 14137.0 
436.404602 59811.0 
439.518799 5132.0 
443.323242 2693.0 
447.531189 39469.0 
458.418884 10510.0 
464.339294 33801.0 
475.205688 46036.0 
483.347534 5961.0 
489.168579 14664.0 
499.427979 17163.0 
518.448242 5550.0 
542.487061 7964.0 
543.203491 3280.0 
551.266602 2875.0 
555.279053 34356.0 
571.138184 5933.0 
599.333374 487845.0 
600.625488 10667.0 
613.279053 55167.0 
613.93335 1.0 
615.443359 222223.0 
616.196045 3840.0 
616.830078 8003.0 
624.492676 41938.0 
625.177734 3.0 
628.275146 10039.0 
630.883301 4036.0 
631.5354 16160.0 
640.712891 51405.0 
658.628418 83491.0 
659.293335 6355468.0 
660.319336 119510.0 
660.947998 9.0 
673.36792 167133.0 
682.480957 6217.0 
695.696289 113204.0 
696.416992 2798580.0 
697.411133 147089.0 
700.402344 93296.0 
701.020508 13.0 
737.080444 17967.0 
738.295776 28974.0 
757.471069 32969.0 
END IONS

