BEGIN IONS
PEPMASS=694.374
CHARGE=1+
MSLEVEL=2
SOURCE_INSTRUMENT=LC-ESI-qTof
FILENAME=1B6_PalmyramideA_MNa_694.mzXML
SEQ=*..*
IONMODE=Positive
ORGANISM=GNPS-LIBRARY
NAME=Palmyramide A M+Na
PI=Dorrestein/Gerwick
DATACOLLECTOR=Luzzatto/Garg
SMILES=[H][C@@]12CCCN1C(=O)[C@H](CC1=CC=CC=C1)OC(=O)[C@H](C)OC(=O)C(C)(C)[C@@H](CCC)OC(=O)[C@@H](NC(=O)[C@@H](C(C)C)N(C)C2=O)C(C)C
INCHI=InChI=1S/C36H53N3O9/c1-10-15-27-36(7,8)35(45)46-23(6)33(43)47-26(20-24-16-12-11-13-17-24)32(42)39-19-14-18-25(39)31(41)38(9)29(22(4)5)30(40)37-28(21(2)3)34(44)48-27/h11-13,16-17,21-23,25-29H,10,14-15,18-20H2,1-9H3,(H,37,40)/t23-,25-,26-,27+,28-,29+/m0/s1
INCHIAUX=QXWOTWUQMDHDCF-UEPNLWJJSA-N
PUBMED=19839606
SUBMITUSER=tal_lk
LIBRARYQUALITY=2
SPECTRUMID=CCMSLIB00000070261
SCANS=2616
104.95546 156.0 
108.845131 180.0 
116.203239 160.0 
132.020554 236.0 
133.989197 268.0 
137.034683 208.0 
142.341568 152.0 
143.871902 160.0 
153.134659 172.0 
154.355774 200.0 
155.078369 228.0 
161.078979 224.0 
167.021164 152.0 
168.046066 196.0 
169.667023 248.0 
187.128265 180.0 
193.080627 156.0 
194.090988 240.0 
197.116745 1052.0 
198.133591 208.0 
199.123383 188.0 
203.112869 180.0 
209.133881 224.0 
210.121887 200.0 
215.69548 200.0 
215.853302 204.0 
219.142395 164.0 
220.079956 224.0 
221.362762 288.0 
222.073746 216.0 
226.639038 152.0 
226.952988 252.0 
228.100586 692.0 
229.095657 184.0 
230.848572 160.0 
231.066269 172.0 
232.107773 152.0 
234.133881 144.0 
234.654724 144.0 
236.000656 208.0 
237.108353 220.0 
237.503708 140.0 
243.923935 240.0 
250.084442 220.0 
250.628174 156.0 
253.075089 140.0 
255.047546 140.0 
256.437897 248.0 
260.512848 160.0 
268.094421 1592.0 
270.099854 196.0 
275.675201 184.0 
280.102692 160.0 
283.090698 184.0 
283.84436 140.0 
284.803802 196.0 
286.102783 220.0 
288.911346 176.0 
289.932373 204.0 
297.959381 140.0 
301.137573 320.0 
302.08429 180.0 
304.197266 160.0 
306.136597 180.0 
307.157043 180.0 
311.879059 200.0 
313.187439 156.0 
318.015411 152.0 
319.18161 468.0 
320.175262 184.0 
320.674774 180.0 
320.881439 140.0 
323.291534 152.0 
323.348755 148.0 
323.417206 160.0 
332.129578 176.0 
332.191223 196.0 
335.065643 204.0 
340.118805 244.0 
341.119873 152.0 
341.187347 120.0 
342.180542 172.0 
344.191284 148.0 
345.166443 588.0 
345.310577 148.0 
346.170349 232.0 
348.200256 160.0 
349.221924 176.0 
349.753784 172.0 
350.197784 240.0 
354.225433 188.0 
356.220276 160.0 
358.156677 152.0 
359.615295 188.0 
362.901337 148.0 
362.950592 200.0 
363.168396 132.0 
364.166809 148.0 
366.945099 160.0 
370.601349 188.0 
373.887085 160.0 
379.60614 152.0 
380.199951 320.0 
380.47879 212.0 
381.178497 996.0 
381.228119 168.0 
383.375183 212.0 
385.157135 328.0 
386.167908 132.0 
386.216553 196.0 
392.190277 160.0 
397.166382 172.0 
399.195038 204.0 
404.135284 148.0 
407.184662 148.0 
409.919159 152.0 
410.805817 212.0 
411.523895 164.0 
414.227631 180.0 
416.300049 176.0 
417.140747 148.0 
420.18161 176.0 
422.182281 152.0 
425.216827 188.0 
425.627197 140.0 
429.448822 188.0 
432.881775 164.0 
434.236389 188.0 
434.572266 212.0 
435.19043 200.0 
436.216187 160.0 
436.253571 264.0 
437.809082 172.0 
438.962952 268.0 
442.19516 148.0 
442.224457 160.0 
442.437836 168.0 
443.236023 344.0 
443.995941 148.0 
445.317444 208.0 
446.733429 244.0 
448.210602 164.0 
450.188202 152.0 
452.265594 252.0 
453.232727 208.0 
454.207336 152.0 
456.079132 172.0 
459.770294 216.0 
461.149231 144.0 
461.183411 224.0 
464.011871 148.0 
464.5177 240.0 
466.548096 256.0 
466.930634 248.0 
467.272034 200.0 
477.914062 168.0 
479.629211 220.0 
480.24408 1796.0 
480.393463 96.0 
480.42691 152.0 
481.245544 760.0 
481.412933 152.0 
482.214691 14764.0 
482.329712 204.0 
482.888428 96.0 
482.971375 124.0 
483.060638 144.0 
483.218536 3236.0 
483.497406 140.0 
484.222565 660.0 
485.218079 204.0 
485.630188 152.0 
485.871368 220.0 
486.226654 148.0 
487.233765 160.0 
492.88678 188.0 
494.739227 152.0 
495.244293 484.0 
496.249817 152.0 
498.898773 164.0 
502.308502 248.0 
503.236389 160.0 
504.026672 156.0 
510.870178 204.0 
511.531403 140.0 
512.436279 176.0 
512.828125 184.0 
519.667419 200.0 
524.268677 292.0 
526.862549 176.0 
526.990417 152.0 
527.863098 152.0 
528.333984 192.0 
531.457397 204.0 
538.082458 176.0 
539.708191 160.0 
540.790222 224.0 
542.220825 152.0 
543.625427 156.0 
545.970459 172.0 
546.003052 220.0 
548.632751 168.0 
549.29126 556.0 
550.306702 188.0 
550.778442 212.0 
551.292175 148.0 
552.267334 284.0 
552.904968 148.0 
553.260559 152.0 
553.574158 152.0 
555.301697 144.0 
555.377747 184.0 
556.297119 168.0 
557.320557 160.0 
557.437988 164.0 
561.956421 172.0 
569.261963 152.0 
570.28772 148.0 
571.005371 160.0 
572.170715 144.0 
572.422974 160.0 
574.404785 168.0 
576.399658 216.0 
577.135437 204.0 
577.287537 2772.0 
577.953064 144.0 
578.286133 544.0 
578.341431 220.0 
578.713806 144.0 
579.297119 704.0 
579.795959 184.0 
580.21759 184.0 
580.295532 156.0 
580.605835 176.0 
586.637695 188.0 
592.458618 164.0 
593.677673 268.0 
593.888062 152.0 
594.312927 520.0 
594.387573 180.0 
594.770813 152.0 
595.29718 6028.0 
596.300781 1420.0 
596.416748 248.0 
597.301575 828.0 
598.327759 228.0 
598.376404 156.0 
604.22583 200.0 
608.551758 164.0 
609.262756 164.0 
611.11145 160.0 
611.573853 156.0 
613.947632 176.0 
614.603455 160.0 
616.582886 180.0 
618.407104 188.0 
619.194031 224.0 
620.23407 160.0 
620.878357 160.0 
621.664734 168.0 
622.167969 156.0 
622.346313 468.0 
622.589844 208.0 
622.823181 180.0 
623.349915 452.0 
626.876343 180.0 
627.145325 212.0 
628.231934 216.0 
628.561096 148.0 
631.147522 152.0 
632.883057 184.0 
633.769287 188.0 
638.546387 152.0 
640.402832 228.0 
642.635132 148.0 
647.425232 168.0 
648.35614 316.0 
648.828247 168.0 
649.369934 384.0 
649.471985 180.0 
650.384583 176.0 
651.46106 160.0 
652.649841 180.0 
652.710815 144.0 
653.580261 216.0 
656.921082 168.0 
657.216858 172.0 
658.012756 144.0 
658.804077 140.0 
659.718445 156.0 
661.308594 152.0 
664.315247 180.0 
665.059021 152.0 
667.37738 148.0 
671.32843 244.0 
672.12207 144.0 
672.684448 148.0 
673.382812 192.0 
674.392822 236.0 
674.455444 140.0 
675.380676 144.0 
675.665039 168.0 
676.710083 208.0 
677.227722 236.0 
679.135193 172.0 
679.196594 160.0 
680.07312 220.0 
681.547363 152.0 
681.962952 244.0 
683.632629 180.0 
683.957031 236.0 
684.349792 168.0 
684.416565 164.0 
684.953674 156.0 
686.037109 180.0 
686.813782 176.0 
687.194458 188.0 
687.871277 160.0 
688.645081 164.0 
690.367371 112.0 
690.673462 104.0 
691.006958 188.0 
691.252747 176.0 
691.373047 336.0 
691.990479 152.0 
692.672791 140.0 
692.880493 156.0 
692.987061 136.0 
693.133057 108.0 
693.221191 208.0 
693.487122 128.0 
693.66626 140.0 
693.749573 124.0 
693.833923 180.0 
693.904297 168.0 
693.958679 288.0 
694.027771 200.0 
694.117737 104.0 
694.142883 280.0 
694.205444 196.0 
694.367249 98504.0 
694.484619 464.0 
694.533875 316.0 
694.624878 212.0 
694.676819 360.0 
694.735046 224.0 
694.856323 108.0 
694.897888 228.0 
694.958435 160.0 
695.086182 156.0 
695.218994 196.0 
695.266296 220.0 
695.371033 36932.0 
695.501404 136.0 
695.643188 200.0 
695.735718 100.0 
695.848328 300.0 
696.018127 164.0 
696.052185 164.0 
696.113037 156.0 
696.168091 160.0 
696.373169 7488.0 
696.506531 212.0 
696.749146 104.0 
696.808472 168.0 
696.931641 112.0 
697.004272 128.0 
697.225525 148.0 
697.371277 1072.0 
697.489624 156.0 
697.547974 124.0 
697.835754 196.0 
697.925415 104.0 
698.099304 116.0 
698.165588 140.0 
698.371338 160.0 
698.420044 192.0 
698.5 196.0 
698.664246 96.0 
698.737183 164.0 
698.824646 172.0 
698.863403 344.0 
699.206909 120.0 
699.262146 176.0 
699.374451 144.0 
699.606018 236.0 
699.833862 172.0 
699.977783 192.0 
700.257874 140.0 
700.2995 168.0 
700.343933 104.0 
700.813477 140.0 
701.322876 136.0 
701.567932 172.0 
701.794678 148.0 
702.742371 108.0 
702.80304 140.0 
712.35791 116.0 
713.917358 152.0 
715.348022 144.0 
716.335388 164.0 
791.8172 164.0 
810.592041 148.0 
972.720947 180.0 
983.397827 140.0 
992.201904 188.0 
1044.853149 164.0 
1054.431396 140.0 
1094.694824 196.0 
1183.693115 120.0 
1226.803345 212.0 
1264.4104 112.0 
1315.036499 144.0 
1366.509521 140.0 
1614.400513 148.0 
1805.580688 180.0 
1854.646362 156.0 
END IONS

