BEGIN IONS
PEPMASS=567.0
CHARGE=0+
MSLEVEL=2
SOURCE_INSTRUMENT=LC-ESI-Hybrid FT
FILENAME=20120412_PAVL_FT_JamaicamideA_MH_567_qb.1.1..mgf
SEQ=*..*
IONMODE=Positive
ORGANISM=GNPS-LIBRARY
NAME=Jamaicamide A M+H
PI=Gerwick
DATACOLLECTOR=PAVL
SMILES=CO\C(CCNC(=O)CC\C=C\C(C)CC\C(CCCC#CBr)=C\Cl)=C\C(=O)N1C(C)C=CC1=O
INCHI=InChI=1S/C27H36BrClN2O4/c1-21(12-14-23(20-29)10-5-4-8-17-28)9-6-7-11-25(32)30-18-16-24(35-3)19-27(34)31-22(2)13-15-26(31)33/h6,9,13,15,19-22H,4-5,7,10-12,14,16,18H2,1-3H3,(H,30,32)/b9-6+,23-20+,24-19+
INCHIAUX=NAIKIJSSBJHCBL-IPUGVWFUSA-N
PUBMED=N/A
SUBMITUSER=mwang87
LIBRARYQUALITY=1
SPECTRUMID=CCMSLIB00000001564
SCANS=1
164.433075 25.406706 
165.365402 38.21566 
166.352509 41.744816 
167.362961 108.533333 
169.15625 9.057581 
170.410355 19.623585 
171.218689 11.61718 
173.445206 45.900597 
175.145828 31.026367 
176.3078 208.608032 
178.251831 12.231054 
179.400452 62.359455 
180.492599 65.554291 
182.254883 309.285767 
183.338196 94.827652 
184.751984 81.990181 
185.356689 355.547607 
186.253876 97.810493 
192.381302 21.315945 
193.183319 35.945251 
194.313232 24.826012 
195.403702 24.532873 
196.239258 107.468178 
198.127594 28.030195 
199.345337 457.808441 
200.381744 10.5216 
201.623993 14.440886 
208.177307 11875.482422 
209.390747 86.287598 
210.054367 5.331022 
218.542099 42.873497 
219.249451 49.044624 
220.121338 32.061611 
225.330139 11.459141 
227.343689 1130.352295 
228.230438 57.365917 
236.389526 208.167175 
244.424286 35.821304 
245.413757 31.146164 
249.377472 33.693169 
250.058014 20.443092 
251.09436 95.06221 
253.173553 15.23286 
258.107483 19.836454 
260.701721 18.169538 
263.408936 85.497314 
264.403992 47.934715 
265.338318 189.177048 
266.567963 18.250519 
276.257874 25.773119 
279.401733 36.847607 
289.050537 107.453529 
292.100464 16.872631 
306.150879 18.542564 
307.227875 500.226685 
318.238281 10.400407 
322.458984 31.106724 
325.290894 10.444716 
326.283417 86.132492 
333.230011 14.279095 
342.922089 22.172716 
349.147156 15.331367 
354.1922 226.3116 
360.12439 463.857666 
384.215698 47.498489 
386.130188 30.800871 
391.080261 9.425693 
402.252594 136.616119 
403.4664 10.875185 
416.226776 217.440979 
419.411621 26.165899 
434.228668 2199.260742 
438.119202 429.838196 
439.792542 16.963076 
451.055634 13.717428 
454.550873 43.001934 
470.074615 75639.554688 
471.175385 19.571943 
481.344421 54.831154 
484.62146 20.491058 
499.0578 423.6539 
506.322205 25.882664 
531.212646 72.764557 
535.103638 1998.497437 
568.465576 44.703667 
END IONS

