BEGIN IONS
PEPMASS=662.6
CHARGE=0+
MSLEVEL=2
SOURCE_INSTRUMENT=LC-ESI-qTof
FILENAME=20121219_Jenia_Ger_Psammaplin_A_MH662.6-qb.1.1..mgf
SEQ=*..*
IONMODE=Positive
ORGANISM=GNPS-LIBRARY
NAME=Psammaplin_A M+H
PI=Gerwick
DATACOLLECTOR=Jenia
SMILES=C1=CC(=C(C=C1C/C(=N\O)/C(=O)NCCSSCCNC(=O)/C(=N/O)/CC2=CC(=C(C=C2)O)Br)Br)O
INCHI=InChI=1S/C22H24Br2N4O6S2/c23-15-9-13(1-3-19(15)29)11-17(27-33)21(31)25-5-7-35-36-8-6-26-22(32)18(28-34)12-14-2-4-20(30)16(24)10-14/h1-4,9-10,29-30,33-34H,5-8,11-12H2,(H,25,31)(H,26,32)/b27-17+,28-18+
INCHIAUX=N/A
PUBMED=N/A
SUBMITUSER=mwang87
LIBRARYQUALITY=1
SPECTRUMID=CCMSLIB00000001694
SCANS=1
254.005493 10958.0 
330.93396 73865.0 
331.606934 48.0 
END IONS

