BEGIN IONS
PEPMASS=487.2
CHARGE=0+
MSLEVEL=2
SOURCE_INSTRUMENT=LC-ESI-qTof
FILENAME=20130610_Ger_Jenia_Majusculamide_A_B_MH-NH487-qb.1.1..mgf
SEQ=*..*
IONMODE=Positive
ORGANISM=GNPS-LIBRARY
NAME=Majusculamide A/B M+H
PI=Gerwick
DATACOLLECTOR=Jenia
SMILES=CCCCCCCC(=O)C(C)C(=O)N(C)[C@H](CC1=CC=C(C=C1)OC)C(=O)N(C)[C@@H](C(C)C)C(=O)N
INCHI=InChI=1S/C28H45N3O5/c1-8-9-10-11-12-13-24(32)20(4)27(34)30(5)23(18-21-14-16-22(36-7)17-15-21)28(35)31(6)25(19(2)3)26(29)33/h14-17,19-20,23,25H,8-13,18H2,1-7H3,(H2,29,33)/t20?,23-,25+/m1/s1
INCHIAUX=N/A
PUBMED=N/A
SUBMITUSER=mwang87
LIBRARYQUALITY=1
SPECTRUMID=CCMSLIB00000001797
SCANS=1
149.452972 248094.0 
164.012909 2464939.0 
164.875854 497929.0 
189.731628 152242.0 
219.684387 110251.0 
247.89386 160462.0 
258.852051 366668.0 
274.157593 235234.0 
345.990417 32492296.0 
346.759155 2698.0 
371.928589 33138.0 
372.738281 260906.0 
373.952759 156742400.0 
374.739746 15321.0 
379.199524 713074.0 
382.030396 91735.0 
END IONS

