BEGIN IONS
PEPMASS=1043.4
CHARGE=1+
MSLEVEL=2
SOURCE_INSTRUMENT=LC-ESI-Orbitrap
FILENAME=f.RReher/Culebra/pure_compounds/1041_Br_MolassamideB/1043.3903_MS2_M+H_Br81_QE.mgf;
SEQ=*..*
IONMODE=Positive
ORGANISM=GNPS-LIBRARY
NAME=Molassamide B M+H
PI=Gerwick
DATACOLLECTOR=Raphael Reher
SMILES=CCCC(NC(C(NC(C(NC1C(C)OC(C(C(C)C)NC(C(CC2=CC=C(O)C(Br)=C2)N(C)C(C(CC3=CC=CC=C3)N4C(O)CCC(NC(/C(NC1=O)=C\C)=O)C4=O)=O)=O)=O)=O)C(O)C)=O)C)=O
INCHI=
INCHIAUX=
PUBMED=
SUBMITUSER=RReher
LIBRARYQUALITY=3
SPECTRUMID=CCMSLIB00005723407
SCANS=1
77.551376 21326.003906 
77.552025 42796.839844 
77.552673 55496.292969 
77.553314 50743.078125 
77.553963 32244.40625 
84.043533 37156.382812 
84.044266 64767.554688 
84.044991 74861.554688 
84.045723 59506.101562 
84.046455 30102.492188 
84.708084 20914.056641 
84.708817 41583.851562 
84.709557 50810.242188 
84.710297 40573.363281 
84.711037 18983.820312 
91.051727 17355.8125 
91.052551 33829.828125 
91.053375 114263.5 
91.054199 199861.75 
91.055023 248492.328125 
91.055847 179376.4375 
91.056671 93894.773438 
91.057495 22154.402344 
110.057533 23490.183594 
110.058624 44890.734375 
110.059723 56567.363281 
110.060814 49116.222656 
110.061913 26962.804688 
113.069336 31344.505859 
113.07048 65383.203125 
113.071617 86374.625 
113.072762 80375.921875 
113.073898 54165.546875 
113.075043 25605.773438 
114.087692 19538.265625 
114.088844 53252.207031 
114.090004 129378.203125 
114.091156 210636.8125 
114.092316 219833.203125 
114.093468 144037.046875 
114.094627 71627.328125 
114.095779 19075.677734 
120.076439 407751.28125 
120.077682 1656215.125 
120.078934 3820171.25 
120.080177 6161665.5 
120.081429 6683341.0 
120.08268 4533836.5 
120.083923 2364737.75 
120.085175 741559.0 
120.086418 267256.78125 
120.087669 174583.140625 
120.088921 103320.632812 
120.090164 23231.205078 
121.080017 11180.879883 
121.081284 62139.765625 
121.08255 149535.875 
121.083809 245918.5 
121.085075 272529.1875 
121.086342 184397.1875 
121.087601 93930.75 
121.088867 21636.951172 
127.083405 19085.244141 
127.084763 47245.136719 
127.086121 69359.40625 
127.087479 69863.5625 
127.088837 48435.003906 
127.090195 20317.146484 
139.08168 7494.141113 
139.083237 67286.523438 
139.084793 141252.703125 
139.086349 213060.453125 
139.087891 192024.171875 
139.089447 118814.835938 
139.091003 33950.308594 
139.09256 8451.700195 
142.080154 11487.235352 
142.081772 99703.648438 
142.083374 253686.0625 
142.084976 419104.125 
142.086578 462887.84375 
142.088196 318729.53125 
142.089798 169144.140625 
142.0914 56169.09375 
142.093018 19290.552734 
146.092773 19678.154297 
146.094437 49170.835938 
146.096115 70026.125 
146.097794 66348.28125 
146.099472 41041.253906 
148.073959 37881.121094 
148.075668 60880.019531 
148.077377 66242.492188 
148.079086 49748.433594 
148.080795 23260.386719 
149.078888 25891.765625 
149.080627 65251.839844 
149.082352 103873.460938 
149.084076 114709.179688 
149.0858 88735.539062 
149.087524 45321.300781 
149.089249 13264.560547 
153.060471 30365.167969 
153.062256 70186.578125 
153.064056 115048.835938 
153.065857 138599.78125 
153.067657 124831.0625 
153.069443 82409.820312 
153.071243 37147.050781 
155.079269 39512.035156 
155.0811 57408.789062 
155.082932 60313.761719 
155.084778 45523.835938 
155.086609 22797.810547 
157.899658 28112.228516 
157.90155 50626.304688 
157.903427 63392.144531 
157.905304 58404.355469 
157.907196 39552.433594 
158.089554 65039.914062 
158.091431 332216.90625 
158.093323 757750.1875 
158.095215 1217251.25 
158.097092 1280601.0 
158.098984 851733.5625 
158.100861 431993.4375 
158.102753 138062.78125 
158.10463 52543.832031 
158.106522 30617.121094 
158.108765 75560.148438 
167.07309 13023.873047 
167.075134 92281.070312 
167.077179 308118.90625 
167.079239 532259.1875 
167.081284 692523.375 
167.083328 538898.8125 
167.085373 316192.1875 
167.087433 112851.046875 
167.089478 38273.265625 
167.091522 13197.374023 
168.079651 35829.941406 
168.081711 58780.382812 
168.083786 69913.242188 
168.085846 62515.910156 
168.087921 41077.691406 
170.087433 3682.828125 
170.089539 48058.765625 
170.091644 188846.96875 
170.09375 351108.9375 
170.095856 490173.125 
170.097946 412785.0625 
170.100052 247029.765625 
170.102158 96211.78125 
170.104263 25521.876953 
178.752014 38923.394531 
178.754288 58104.859375 
178.756561 63164.460938 
178.75882 50821.339844 
178.761093 28787.917969 
179.071793 6317.241699 
179.074066 55458.269531 
179.07634 227214.09375 
179.078613 441977.375 
179.080887 647296.1875 
179.08316 577163.9375 
179.085434 352537.71875 
179.087708 147229.84375 
179.089981 40191.34375 
179.092255 12567.820312 
185.0858 24339.78125 
185.088181 49309.328125 
185.090576 65657.382812 
185.092972 61692.796875 
185.095352 39478.316406 
187.110428 18317.855469 
187.112854 36801.445312 
187.11528 225627.8125 
187.117706 818940.1875 
187.120132 1487290.625 
187.122559 2039040.625 
187.124985 1681163.875 
187.127411 1008728.0 
187.129852 388576.21875 
187.132278 126344.046875 
187.134705 59665.164062 
187.137131 47319.425781 
187.139984 119046.34375 
187.14241 10919.012695 
188.119949 29958.341797 
188.122406 63570.304688 
188.124847 95510.960938 
188.127304 106494.914062 
188.129745 87660.257812 
188.132187 50828.1875 
188.134644 20064.287109 
193.094025 34132.230469 
193.096573 55085.535156 
193.099106 62099.789062 
193.101654 49910.390625 
193.104202 26635.529297 
197.121048 36217.125 
197.123672 79513.515625 
197.126297 124984.460938 
197.128922 144304.6875 
197.131546 123097.617188 
197.134171 75700.539062 
197.136795 31539.082031 
198.085327 32686.689453 
198.087967 66752.507812 
198.090622 84895.921875 
198.093262 71217.671875 
198.095901 37210.148438 
199.102005 44580.171875 
199.10466 71089.554688 
199.10733 81932.195312 
199.110001 68240.375 
199.112656 38997.179688 
213.092911 18330.40625 
213.095856 50838.78125 
213.098801 90359.203125 
213.101761 109176.726562 
213.104706 91567.945312 
213.107651 50267.894531 
213.110611 13108.670898 
215.101547 97748.640625 
215.104538 76544.125 
215.107117 302496.3125 
215.110107 1263642.75 
215.113098 2828613.75 
215.116089 4512319.5 
215.11908 4748440.0 
215.12207 3164889.5 
215.125061 1616704.75 
215.128067 510598.1875 
215.131058 198517.015625 
215.134048 144109.59375 
215.137039 97370.726562 
215.14003 91103.640625 
215.143021 6672.054199 
216.109421 8299.311523 
216.112442 67037.929688 
216.115448 170153.484375 
216.118469 280119.09375 
216.121475 298041.21875 
216.124496 196494.28125 
216.127502 97421.96875 
216.130524 29109.052734 
224.093445 26643.046875 
224.096634 84080.554688 
224.099808 155876.671875 
224.102997 219158.953125 
224.106171 191656.234375 
224.10936 117315.6875 
224.112534 49109.636719 
224.115723 14879.864258 
225.115112 23941.345703 
225.118317 60997.851562 
225.121521 133718.96875 
225.124725 141435.265625 
225.12793 74543.101562 
225.131134 36577.695312 
225.134338 12718.818359 
226.079285 45378.105469 
226.08252 75915.789062 
226.085739 86719.109375 
226.088959 69462.492188 
226.092194 36684.503906 
227.987061 4631.181641 
227.990326 50355.1875 
227.993591 205898.375 
227.996857 466328.0625 
228.000122 751346.0 
228.003387 804521.375 
228.006653 539958.9375 
228.009918 277668.875 
228.013184 79835.859375 
228.016449 22793.542969 
228.993042 10399.507812 
228.996338 66177.625 
228.999619 165356.78125 
229.002914 273238.5 
229.006195 305134.90625 
229.009491 208595.96875 
229.012772 106646.0 
229.016052 25745.925781 
229.988342 486484.90625 
229.991653 1916188.75 
229.994965 3974215.25 
229.99826 6139749.5 
230.001572 6057092.0 
230.004883 3904731.0 
230.008194 1892773.0 
230.011505 591447.625 
230.014816 231037.125 
230.018127 159259.71875 
230.021423 81607.226562 
230.024734 75526.476562 
230.028046 14187.800781 
243.094467 16974.632812 
243.098068 68405.953125 
243.101654 416199.09375 
243.105255 1580661.375 
243.108841 2848495.5 
243.112442 3825530.5 
243.116043 3056982.25 
243.119629 1814470.875 
243.12323 668051.25 
243.126831 370446.40625 
243.130783 487134.71875 
243.134384 645882.9375 
243.13797 550855.5 
243.141571 315634.5 
243.145172 54982.429688 
244.104568 28427.597656 
244.108185 78751.507812 
244.111801 150101.4375 
244.115417 208503.25 
244.119034 169130.8125 
244.12265 97895.539062 
244.126266 31316.998047 
245.10968 30870.912109 
245.113327 57777.914062 
245.116959 76530.148438 
245.120605 72703.328125 
245.124237 47191.632812 
250.10437 15756.692383 
250.108124 103476.984375 
250.111877 239657.796875 
250.115616 386646.3125 
250.11937 402293.21875 
250.123123 266844.4375 
250.126877 137123.546875 
250.13063 45269.515625 
250.134384 19796.417969 
268.111328 25736.982422 
268.115479 142436.375 
268.119659 527550.9375 
268.12381 992725.9375 
268.12796 1421365.5 
268.132141 1244462.75 
268.136292 762246.0 
268.140472 320809.0625 
268.144623 97719.945312 
268.148804 35692.300781 
268.152954 18938.625 
298.138336 30119.988281 
298.143219 140993.953125 
298.148102 283500.0625 
298.152985 423888.90625 
298.157867 384981.78125 
298.16275 237687.40625 
298.167633 105052.53125 
298.172516 33706.90625 
298.177399 18893.978516 
308.144989 24749.488281 
308.150116 92244.179688 
308.155273 165216.546875 
308.1604 223880.90625 
308.165527 190249.765625 
308.170654 116116.289062 
308.175781 40734.558594 
308.180908 14165.007812 
326.12796 5212.164551 
326.133545 75854.453125 
326.13913 212446.0 
326.144714 359724.875 
326.150299 406824.625 
326.155884 277851.8125 
326.161469 144041.46875 
326.167053 44673.558594 
326.172638 16963.835938 
375.043671 15075.626953 
375.050537 40550.070312 
375.057434 143810.21875 
375.064331 297477.3125 
375.071228 458272.125 
375.078094 447679.40625 
375.084991 281571.375 
375.091888 127299.898438 
375.098785 28203.279297 
388.010742 26650.0 
388.018005 135550.140625 
388.025269 303863.25 
388.032501 484287.46875 
388.039764 491849.71875 
388.046997 317691.0 
388.05426 151976.515625 
388.061493 41345.863281 
388.068756 15043.22168 
391.16861 18299.144531 
391.175934 83191.585938 
391.183289 210131.4375 
391.190613 347815.625 
391.197968 398222.4375 
391.205292 276584.3125 
391.212646 145342.265625 
391.219971 42277.902344 
391.227325 8506.24707 
409.175079 23319.103516 
409.182922 72090.929688 
409.190765 238573.21875 
409.198639 461462.3125 
409.206482 679554.5 
409.214325 626800.0 
409.222168 390209.5625 
409.230042 169579.328125 
409.237885 39733.269531 
409.245728 8592.492188 
429.167053 30425.265625 
429.175476 54264.0625 
429.183929 62516.617188 
429.192352 51013.214844 
429.200775 29089.226562 
498.06604 20211.166016 
498.076569 68306.21875 
498.087128 139556.390625 
498.097656 208738.4375 
498.108215 189313.390625 
498.118744 112495.9375 
498.129303 41314.464844 
498.139832 18869.230469 
499.069122 16583.572266 
499.079712 57624.976562 
499.090271 129762.664062 
499.100861 206642.5 
499.11142 205633.78125 
499.122009 127735.773438 
499.132568 56384.675781 
499.143158 16198.474609 
500.033234 16620.048828 
500.043854 49650.496094 
500.054443 95559.734375 
500.065063 345244.25 
500.075653 1178162.75 
500.086273 2280954.5 
500.096863 3378634.25 
500.107483 3127913.25 
500.118103 1950790.625 
500.128693 863508.0625 
500.139313 231654.453125 
500.149933 72538.625 
500.160522 63562.261719 
500.171143 37180.476562 
500.181763 36343.617188 
500.192352 4521.125977 
583.092346 11135.296875 
583.105713 69843.867188 
583.11908 148831.75 
583.132446 232033.359375 
583.145752 227938.609375 
583.159119 148357.265625 
583.172485 73009.414062 
583.185852 19224.671875 
719.221558 31673.607422 
719.239868 52454.390625 
719.258179 63104.824219 
719.276489 56605.460938 
719.294739 35922.265625 
736.40979 24624.994141 
736.428772 51164.894531 
736.447693 67496.773438 
736.466675 60820.714844 
736.485596 36514.972656 
918.521423 25650.640625 
918.547791 54538.859375 
918.574219 81419.328125 
918.600647 89403.703125 
918.627014 72630.25 
918.653442 41425.652344 
END IONS

