BEGIN IONS
PEPMASS=488.0
CHARGE=1+
MSLEVEL=2
SOURCE_INSTRUMENT=LC-ESI-QQQ
FILENAME=f.evgenia_glukhov/Standards/Vatiamide_A.mzXML;
SEQ=*..*
IONMODE=Positive
ORGANISM=GNPS-LIBRARY
NAME=Vatiamide A M+H
PI=Gerwick
DATACOLLECTOR=Nathan Moss
SMILES=CC(/C=C/CCC(N(C)C(C(OC)=O)CC1=CC=C(OC)C=C1)=O)CC/C(CCCC#C[H])=C\Cl
INCHI=InChI=1S/C28H38ClNO4/c1-6-7-8-12-24(21-29)15-14-22(2)11-9-10-13-27(31)30(3)26(28(32)34-5)20-23-16-18-25(33-4)19-17-23/h1,9,11,16-19,21-22,26H,7-8,10,12-15,20H2,2-5H3/b11-9+,24-21-
INCHIAUX=
PUBMED=31071229
SUBMITUSER=evgenia_glukhov
LIBRARYQUALITY=3
SPECTRUMID=CCMSLIB00005436459
SCANS=688
151.067108 13302.0 
160.795654 8141.0 
164.124817 10595.0 
164.75769 2777.0 
172.572205 3873.0 
185.319336 10019.0 
187.296967 2644.0 
192.171326 6110.0 
192.822021 24002.0 
224.056213 117551.0 
224.666656 1.0 
229.086548 1928.0 
244.265503 2522.0 
245.990692 1528.0 
291.073608 6542.0 
292.113525 4121.0 
303.398315 10549.0 
331.937439 933.0 
334.057129 2824.0 
342.006104 4163.0 
343.027222 5121.0 
354.868042 4405.0 
357.523438 3066.0 
371.091736 1936.0 
387.678406 6962.0 
392.433899 2553.0 
407.939697 4659.0 
414.725708 1551.0 
420.054932 5706.0 
421.187988 1679.0 
426.9422 2826.0 
427.743164 1316.0 
429.14679 5422.0 
441.021179 3099.0 
441.756714 1595.0 
452.211182 23247.0 
456.059937 2003.0 
470.426025 2990.0 
471.173401 53798.0 
486.494507 13248.0 
487.551941 12032.0 
488.407043 8984.0 
END IONS

