BEGIN IONS
PEPMASS=691.0
CHARGE=0+
MSLEVEL=2
SOURCE_INSTRUMENT=LC-ESI-qTof
FILENAME=20121201_PAVL_Ger_LyngbyabellinA_MH_691_qb.1.1..mgf
SEQ=*..*
IONMODE=Positive
ORGANISM=GNPS-LIBRARY
NAME=Lyngbyabellin A M+H
PI=Gerwick
DATACOLLECTOR=PAVL
SMILES=CC[C@H](C)[C@H]1C2=NC(=CS2)C(=O)O[C@H](C(C(=O)O[C@H](C3=NC(=CS3)C(=O)NCC(=O)N1)C(C)(C)O)(C)C)CCCC(C)(Cl)Cl
INCHI=InChI=1S/C29H40Cl2N4O7S2/c1-8-15(2)20-23-34-17(14-43-23)25(38)41-18(10-9-11-29(7,30)31)27(3,4)26(39)42-21(28(5,6)40)24-33-16(13-44-24)22(37)32-12-19(36)35-20/h13-15,18,20-21,40H,8-12H2,1-7H3,(H,32,37)(H,35,36)/t15-,18-,20-,21+/m0/s1
INCHIAUX=N/A
PUBMED=N/A
SUBMITUSER=mwang87
LIBRARYQUALITY=1
SPECTRUMID=CCMSLIB00000001634
SCANS=1
193.084015 19322.0 
197.851913 276039.0 
198.692673 15485.0 
209.894928 35264.0 
210.749466 537831.0 
211.468719 16.0 
214.196838 17999.0 
214.829346 863208.0 
218.764801 12048.0 
220.877228 26814.0 
228.800156 23247.0 
237.110199 8102.0 
237.83934 80308.0 
238.750183 645695.0 
239.624969 4.0 
255.686493 6830.0 
256.850677 153326.0 
257.419006 3.0 
290.463623 5335.0 
313.752258 4846.0 
321.763489 7727.0 
326.795532 31029.0 
349.936005 27970.0 
354.701416 31716.0 
359.02594 5956.0 
360.821808 27571.0 
366.904419 33749.0 
367.772125 12659.0 
371.086182 12523.0 
377.08136 9091.0 
378.864807 3352.0 
380.803467 12768.0 
381.563232 3904.0 
382.807556 7514.0 
385.350708 10873.0 
390.047852 20669.0 
390.861542 215161.0 
391.405518 6.0 
394.849213 38394.0 
398.872498 10852.0 
399.787292 199013.0 
400.466675 1.0 
403.087646 8448.0 
404.713989 3297.0 
406.682617 20198.0 
407.753906 10397.0 
411.881714 7351.0 
412.909454 138166.0 
416.828796 2067141.0 
417.562012 18389.0 
418.120605 29402.0 
418.843201 93223.0 
422.674896 65761.0 
430.761902 46132.0 
434.864349 1002442.0 
435.878204 226960.0 
439.485291 5107.0 
440.775879 1001074.0 
441.434967 3699.0 
448.853455 1014251.0 
449.571411 10.0 
451.814331 9578.0 
452.824158 4288430.0 
453.590393 7.0 
457.859253 56678.0 
458.893402 49241.0 
459.54657 2.0 
470.901367 143781.0 
471.63208 28.0 
473.747803 8676.0 
475.02063 11455.0 
476.76532 2001231.0 
477.458557 39227.0 
477.965332 4548.0 
492.101379 3703.0 
519.511108 6766.0 
520.091064 36289.0 
542.196533 4332.0 
551.955322 8000.0 
565.574951 4305.0 
577.810486 88738.0 
578.352295 3.0 
578.959961 9196.0 
579.870422 25381.0 
587.956787 3509.0 
597.033508 110757.0 
597.835754 109697.0 
604.914795 34139.0 
605.852051 30966.0 
609.096436 12539.0 
614.783691 2437.0 
615.778687 60720.0 
616.797852 36449.0 
619.070557 9798.0 
625.626953 14176.0 
626.95752 6795.0 
627.72998 14581.0 
632.895813 138188.0 
633.859375 852866.0 
634.483276 2.0 
636.941101 423825.0 
637.685547 3.0 
641.362061 23151.0 
645.615967 55490.0 
646.402344 14.0 
653.990601 22221.0 
654.873474 5480920.0 
655.852783 6132.0 
662.186218 37946.0 
662.871094 159246.0 
672.885559 631611.0 
673.934753 57019.0 
END IONS

