BEGIN IONS
PEPMASS=1385.84
CHARGE=1+
MSLEVEL=2
SOURCE_INSTRUMENT=LC-ESI-Ion Trap
FILENAME=f.RReher/2264/Reference_spectra/Samholides/Samholide I/SamholideI_M+Na+1_iontrap_yiwen.mgf;
SEQ=*..*
IONMODE=Positive
ORGANISM=GNPS-LIBRARY
NAME=Samholide I M+Na
PI=Gerwick
DATACOLLECTOR=Ywen Tao
SMILES=C[C@@H]1O[C@H](C[C@@H](C1)OC)CC[C@@H]([C@H](O)[C@@H]([C@H]2OC(=O)/C=C/C(=C/C[C@@H](C[C@H]3O[C@H](C[C@@H]([C@H]([C@H](C[C@H](C[C@H](OC(=O)/C=C/C(=C/C[C@@H](C[C@H]4O[C@H](C[C@@H]([C@H]([C@H](C[C@H](C2)O)O)C)OC)CC=C4)O)/C)[C@H]([C@@H](O)[C@H](CC[C@@H]5O[C@H](C[C@H](C5)OC)C)C)C)O)O)C)OC)CC=C3)O)/C)C)C
INCHI=
INCHIAUX=
PUBMED=
SUBMITUSER=RReher
LIBRARYQUALITY=3
SPECTRUMID=CCMSLIB00005467795
SCANS=1
433.374878 43906.0 
464.238525 342711.0 
481.163757 263377.0 
482.280579 131711.0 
483.365784 40458.0 
489.316101 22238.0 
489.988098 102201.0 
585.572266 236534.0 
641.156738 49401.0 
642.514404 49513.0 
643.380493 198583.0 
686.355469 229197.0 
703.424561 5550973.0 
704.375 4635332.0 
705.444458 861136.0 
706.193115 7.0 
750.240967 111006.0 
856.345947 394855.0 
863.400635 25869.0 
864.552246 492320.0 
891.07959 199651.0 
892.472168 365989.0 
925.604492 1753719.0 
926.46167 3102781.0 
927.35083 899453.0 
928.632568 96164.0 
929.792847 201649.0 
947.583008 40861.0 
948.496094 224310.0 
950.479004 152313.0 
1007.93457 150790.0 
1008.580322 133641.0 
1069.598877 300157.0 
1070.486084 399959.0 
1071.486328 360321.0 
1072.325684 99904.0 
1113.717041 117900.0 
1114.585938 1397438.0 
1115.241211 162686.0 
1126.501953 46193.0 
1134.316895 176436.0 
1135.506348 104580.0 
1144.33374 156008.0 
1151.564941 97633.0 
1152.471191 900001.0 
1153.564941 281086.0 
1161.552246 994131.0 
1162.63916 3993087.0 
1163.547852 2808280.0 
1164.591309 269918.0 
1165.280762 8.0 
1169.71875 650196.0 
1170.501465 1900230.0 
1171.508057 1007938.0 
1224.429199 317643.0 
1258.494629 125869.0 
1259.529297 464140.0 
1298.706543 298346.0 
1299.348633 70.0 
1316.943359 61760.0 
1322.535156 447139.0 
1323.494385 909471.0 
1324.384766 166975.0 
1330.578613 196732.0 
1331.817383 20384.0 
1335.838379 32270.0 
1340.468506 152770.0 
1348.765869 359676.0 
1349.5354 232383.0 
1350.625 96890.0 
1352.727539 166372.0 
1353.349609 18017.0 
1366.76123 1513857.0 
1367.79834 2188556.0 
1368.538574 125603.0 
1384.669922 52840168.0 
1385.790283 4555455.0 
END IONS

