BEGIN IONS
PEPMASS=545.0
CHARGE=0+
MSLEVEL=2
SOURCE_INSTRUMENT=LC-ESI-Ion Trap
FILENAME=20111105_Jenia_Ger_Scytonemin_MH_545_qb.1.1..mgf
SEQ=*..*
IONMODE=Positive
ORGANISM=GNPS-LIBRARY
NAME=Scytonemin M+H
PI=Gerwick
DATACOLLECTOR=Amanda
SMILES=OC1=CC=C(\C=C2\C(=O)C(C3=C4C5=C(C=CC=C5)N=C4\C(=C/C4=CC=C(O)C=C4)C3=O)=C3C4=C(C=CC=C4)N=C23)C=C1
INCHI=InChI=1S/C36H20N2O4/c39-21-13-9-19(10-14-21)17-25-33-29(23-5-1-3-7-27(23)37-33)31(35(25)41)32-30-24-6-2-4-8-28(24)38-34(30)26(36(32)42)18-20-11-15-22(40)16-12-20/h1-18,39-40H/b25-17+,26-18+
INCHIAUX=CGZKSPLDUIRCIO-RPCRKUJJSA-N
PUBMED=N/A
SUBMITUSER=mwang87
LIBRARYQUALITY=1
SPECTRUMID=CCMSLIB00000001550
SCANS=1
343.896484 142503.0 
345.458496 67939.0 
372.684021 175247.0 
386.097473 65864.0 
395.15564 104575.0 
399.223022 60954.0 
406.367249 31184.0 
408.018677 100834.0 
411.038452 32080.0 
412.037964 57989.0 
425.144653 113047.0 
428.946472 18204.0 
439.259216 94641.0 
451.303467 109804.0 
453.173279 83206.0 
471.290649 97971.0 
473.082581 77358.0 
474.340637 39583.0 
484.037598 69735.0 
488.428955 406750.0 
489.287537 7417608.0 
490.31311 4128547.0 
491.288513 3.0 
498.630005 112346.0 
499.849731 163597.0 
500.469604 33473.0 
501.284241 87997.0 
502.14502 106179.0 
504.172668 27900.0 
516.481567 1003328.0 
517.132935 12979350.0 
518.111328 7024024.0 
518.976562 67.0 
528.132935 9615938.0 
529.155762 4285929.0 
530.238403 96747.0 
544.155518 4675899.0 
545.082642 43057184.0 
546.063965 11037290.0 
546.972168 9.0 
END IONS

