BEGIN IONS
TITLE=Scan Number: 1077
PEPMASS=411.24301
CHARGE=1+
COMPOUNDNAME=Ambiguine_C_isonitrile
LIBRARYQUALITY=3
SMILES=C[C@]1([C@@H]2[C@]([C@H]([C@](CC2)(C=C)C)[N+]#[C-])(c3c([nH]c4c3c1ccc4)C(C=C)(C)C)O)C
INCHIKEY=FDEFKOBGABILIC-XQHQYKGYSA-N
INCHI=
MSLEVEL=2
SOURCE_INSTRUMENT=LC-ESI-qTof
FILENAME=f.philipwi/0_WilliamsFreshwaterCyanosStandardsConvertedTo_mzXML_v2/PW-50_P1-F-5_Ambiguine_C_isonitrile_388amu_01_15565-Scan1074-1081.mzXML;
SEQ=*..*
NOTES=
IONMODE=Positive
ORGANISM=GNPS-LIBRARY
NAME=Ambiguine_C_isonitrile M+Na
SPECTRUMID=CCMSLIB00000424891
ACTIVATION=CID
INSTRUMENT=ion trap
SCANS=1077
223.122879 60.0 
234.138718 64.0 
235.0858 88.0 
238.115509 80.0 
244.113586 88.0 
245.46994 36.0 
262.152863 96.0 
262.534882 20.0 
306.177216 80.0 
313.164398 80.0 
316.115509 68.0 
321.179047 72.0 
324.156128 80.0 
326.213715 56.0 
339.153656 136.0 
340.1875 112.0 
358.187012 80.0 
368.194275 112.0 
371.270813 68.0 
375.223969 96.0 
384.242004 60.0 
400.2341 96.0 
408.195221 72.0 
410.69754 24.0 
411.240936 1424.0 
411.491089 36.0 
411.964508 64.0 
412.247772 224.0 
412.637573 40.0 
413.272308 80.0 
414.99762 24.0 
415.166443 44.0 
816.284851 136.0 
1399.908081 36.0 
END IONS

