BEGIN IONS
PEPMASS=498.07
CHARGE=1+
MSLEVEL=2
SOURCE_INSTRUMENT=LC-ESI-Ion Trap
FILENAME=TumonoicAcidI.mzXML
SEQ=*..*
IONMODE=Positive
ORGANISM=GNPS-LIBRARY
NAME=Tumonoic Acid I M+H
PI=Gerwick
DATACOLLECTOR=E Glukhov
SMILES=CCCC[C@H](C)C[C@H](C)C(=O)N1CCC[C@H]1C(=O)O[C@H]([C@@H](C)CC)C(=O)O[C@@H]([C@@H](C)CC)C(=O)O
INCHI=InChI=1S/C27H47NO7/c1-8-11-13-17(4)16-20(7)24(29)28-15-12-14-21(28)26(32)35-23(19(6)10-3)27(33)34-22(25(30)31)18(5)9-2/h17-23H,8-16H2,1-7H3,(H,30,31)/t17-,18-,19-,20-,21-,22-,23+/m0/s1
INCHIAUX=N/A
PUBMED=24025162
SUBMITUSER=mwang87
LIBRARYQUALITY=1
SPECTRUMID=CCMSLIB00000006900
SCANS=1
141.056274 4884.0 
154.680359 7221.0 
193.304504 3367.0 
205.112061 30.0 
211.710709 9850.0 
221.684662 35.0 
222.434326 93.0 
222.942795 40668.0 
223.763168 693163.0 
224.515045 5695.0 
225.661255 28.0 
229.904007 25913.0 
230.434143 2.0 
231.595825 63.0 
232.946228 87.0 
234.510132 84.0 
238.937317 32.0 
241.100159 116.0 
245.100204 203.0 
248.135834 324.0 
248.967407 2059.0 
250.175949 294.0 
250.950089 81734.0 
251.832016 5009400.0 
252.554657 325.0 
256.605591 122.0 
258.820618 120.0 
265.968567 425.0 
269.332214 125.0 
269.983521 1750.0 
270.654785 2544.0 
279.337524 768.0 
279.910583 3952.0 
292.891174 190.0 
293.841949 219.0 
297.936401 186.0 
306.864746 28.0 
315.794495 654.0 
317.643066 39.0 
324.125916 160.0 
325.261475 121.0 
325.93335 6920.0 
331.116943 72.0 
337.150879 41.0 
337.71814 46.0 
341.76416 51.0 
342.767792 8186.0 
343.462799 1804.0 
343.976318 1132279.0 
344.708069 7.0 
351.970337 428.0 
354.355042 3583.0 
360.287354 146.0 
361.260864 152.0 
362.20752 2643.0 
363.061401 15.0 
364.0159 1630.0 
365.131104 102523.0 
365.893188 9803341.0 
366.49884 170.0 
367.296387 253.0 
370.420654 218.0 
374.138184 29.0 
374.911316 213.0 
377.556152 60.0 
380.002258 918.0 
383.21405 295.0 
383.933075 211639.0 
384.675903 30.0 
385.28186 99.0 
388.300476 75.0 
390.671448 38.0 
391.631531 95.0 
393.342651 510.0 
393.949341 4639.0 
395.61554 51.0 
397.175781 31.0 
398.108337 96.0 
399.267456 152.0 
409.920593 149.0 
414.499451 53.0 
416.298096 89.0 
416.809448 507.0 
417.946228 169.0 
420.06958 238.0 
421.770081 294.0 
428.626282 298.0 
429.422485 277.0 
430.501404 182.0 
434.991638 247.0 
435.734131 16.0 
437.000366 27.0 
438.089966 455.0 
442.276123 48.0 
442.905762 209.0 
446.407166 61.0 
449.887817 119.0 
450.549988 47.0 
451.054047 24111.0 
451.892334 571236.0 
452.972229 795.0 
453.828308 56.0 
462.221191 63.0 
463.83429 140.0 
465.927734 81.0 
475.956177 6357.0 
478.980347 1566.0 
479.846191 245148.0 
480.517151 15.0 
493.001404 42.0 
496.145325 16.0 
497.155823 1112.0 
498.290894 329.0 
499.379883 950.0 
500.745056 122.0 
501.472046 27.0 
END IONS

