BEGIN IONS
PEPMASS=818.22
CHARGE=0+
MSLEVEL=2
SOURCE_INSTRUMENT=LC-ESI-Ion Trap
FILENAME=20121213_Jenia_Ger_BouillonamideA_MH818_qb.1.1..mgf
SEQ=*..*
IONMODE=Positive
ORGANISM=GNPS-LIBRARY
NAME=Bouillonamide A M+H
PI=Gerwick
DATACOLLECTOR=Jenia
SMILES=CCC1CC(C)CC(=O)N(C)C=CCCC(C)C(=O)N[C@@H](C(C)C)C(=O)N(C)[C@@H](CC2=CC=CC=C2)C(=O)N(C)[C@@H](C(C)O)C(=O)N(C)[C@@H](CC2=CC=CC=C2)C(=O)O1
INCHI=InChI=1S/C46H67N5O8/c1-11-36-26-31(4)27-39(53)48(7)25-19-18-20-32(5)42(54)47-40(30(2)3)44(56)49(8)37(28-34-21-14-12-15-22-34)43(55)51(10)41(33(6)52)45(57)50(9)38(46(58)59-36)29-35-23-16-13-17-24-35/h12-17,19,21-25,30-33,36-38,40-41,52H,11,18,20,26-29H2,1-10H3,(H,47,54)/t31?,32?,33?,36?,37-,38-,40-,41-/m0/s1
INCHIAUX=LJNGIVUAMWQJIA-WDZYBAFLSA-N
PUBMED=N/A
SUBMITUSER=mwang87
LIBRARYQUALITY=1
SPECTRUMID=CCMSLIB00000001683
SCANS=1
258.996826 471563.0 
270.124268 172143.0 
276.066895 94960.0 
305.163208 526740.0 
334.927673 576434.0 
335.548218 1.0 
341.018127 266445.0 
341.628845 5.0 
363.110718 2453363.0 
363.722412 101.0 
369.176636 955066.0 
369.943115 1.0 
381.379883 682533.0 
382.117676 1.0 
385.129395 669961.0 
385.735962 188.0 
399.963257 114316.0 
400.976685 655622.0 
438.0177 467225.0 
438.732727 1.0 
457.977417 141319.0 
459.778381 137143.0 
466.230591 409200.0 
483.920166 1047935.0 
484.670105 6.0 
502.03717 66380.0 
524.05249 1847818.0 
524.919434 4.0 
542.212402 5787100.0 
594.879272 246057.0 
595.594116 760254.0 
599.175659 175732.0 
613.362061 32501.0 
621.384155 534436.0 
622.049805 2.0 
639.45459 484718.0 
640.074097 7.0 
657.230957 3268252.0 
663.235352 7755769.0 
664.19519 2.0 
667.288574 7975433.0 
667.974609 3398.0 
703.334229 2535725.0 
774.237793 2655895.0 
775.196655 2.0 
782.164551 1693502.0 
789.937744 419958.0 
800.388062 44270784.0 
801.064819 471296.0 
END IONS

