BEGIN IONS
PEPMASS=950.2
CHARGE=0+
MSLEVEL=2
SOURCE_INSTRUMENT=LC-ESI-qTof
FILENAME=20130221_Jenia_Ger_Hoiamide_A_MS34Na950.2-qb.1.1..mgf
SEQ=*..*
IONMODE=Positive
ORGANISM=GNPS-LIBRARY
NAME=Hoiamide_A M+H
PI=Gerwick
DATACOLLECTOR=Jenia
SMILES=CCC[C@@H](C)[C@@H]([C@H](C)[C@@H]1[C@H]([C@H](CC2=NC(=CS2)C3=N[C@](CS3)(C4=N[C@](CS4)(C(=O)N[C@H]([C@H]([C@H](C(=O)O[C@H](C(=O)N[C@H](C(=O)O1)[C@@H](C)O)C(C)C)C)O)[C@@H](C)CC)C)C)OC)C)O
INCHI=InChI=1S/C44H71N5O10S3/c1-14-16-23(6)33(51)25(8)36-24(7)29(57-13)17-30-45-28(18-60-30)38-48-44(12,20-61-38)42-49-43(11,19-62-42)41(56)47-31(22(5)15-2)34(52)26(9)39(54)58-35(21(3)4)37(53)46-32(27(10)50)40(55)59-36/h18,21-27,29,31-36,50-52H,14-17,19-20H2,1-13H3,(H,46,53)(H,47,56)/t22-,23+,24-,25-,26+,27+,29-,31-,32-,33-,34-,35-,36-,43+,44+/m0/s1
INCHIAUX=N/A
PUBMED=N/A
SUBMITUSER=mwang87
LIBRARYQUALITY=1
SPECTRUMID=CCMSLIB00000001733
SCANS=1
433.233032 179178.0 
514.665771 920316.0 
532.203735 1311357.0 
532.939758 6137057.0 
545.043579 5123730.0 
545.701416 21.0 
559.089355 5146072.0 
559.769775 20.0 
561.80127 3168708.0 
573.956543 5678392.0 
574.61792 8.0 
575.597168 1026691.0 
622.976318 1781718.0 
623.90918 3483002.0 
642.839355 432550.0 
644.325928 639682.0 
648.098145 2999757.0 
649.297363 1221406.0 
656.385986 4190213.0 
657.305664 653635.0 
659.20874 3779815.0 
659.869873 9.0 
673.096619 18212456.0 
674.157166 25086784.0 
675.28418 15056318.0 
676.342834 11499814.0 
677.145996 10.0 
678.06543 1185349.0 
686.26001 2661466.0 
687.04248 605444.0 
697.069824 2300775.0 
698.109863 8542444.0 
698.696655 723280.0 
705.714478 5131023.0 
706.396851 12.0 
715.125122 794980.0 
716.041199 8058022.0 
717.090942 3980212.0 
729.343262 4841782.0 
730.122925 16259718.0 
731.363708 14293694.0 
732.36084 609.0 
747.272034 13557200.0 
748.358093 54776928.0 
749.270752 31077080.0 
750.216125 5500304.0 
750.921021 58.0 
754.873657 6890034.0 
755.503906 1763128.0 
760.119629 2224946.0 
760.814209 18.0 
776.075684 2815295.0 
778.854858 3510732.0 
780.144592 10370062.0 
780.832397 13.0 
781.404419 2654128.0 
787.002808 1599991.0 
798.210815 5310664.0 
798.995972 5431745.0 
799.839417 3724872.0 
800.4104 1851640.0 
814.796997 687306.0 
816.239136 14320770.0 
817.144409 30201448.0 
818.080688 25313224.0 
819.240967 22594088.0 
819.883301 14.0 
829.750732 12424076.0 
830.258301 21457296.0 
831.250244 12385066.0 
832.3396 6880669.0 
833.090698 8105008.0 
836.152344 868232.0 
837.024292 6373708.0 
838.160767 4216410.0 
838.853516 6.0 
847.212158 3095453.0 
848.221924 72913048.0 
849.280029 117001576.0 
850.206604 43591216.0 
851.24646 14575377.0 
851.887268 240.0 
854.296509 744175.0 
855.110962 16859352.0 
856.160645 10080228.0 
857.338074 4710608.0 
858.461182 1052347.0 
869.119446 24277376.0 
869.970459 11247588.0 
870.566895 17906248.0 
871.383667 4.0 
872.329102 5167162.0 
873.084717 4469396.0 
873.661499 8989576.0 
874.489746 4517395.0 
875.742676 1782639.0 
876.508179 2.0 
881.223999 19118744.0 
882.321289 4863126.0 
883.374512 10545201.0 
884.408813 5317673.0 
885.091675 11.0 
886.119141 7716498.0 
887.242737 174374912.0 
888.226562 111737400.0 
889.208618 28921720.0 
890.041016 18.0 
898.439941 8840316.0 
899.173462 72777216.0 
900.304688 63802936.0 
901.275452 13262774.0 
901.908569 19.0 
903.187683 16676219.0 
903.991211 14.0 
905.299377 52651296.0 
906.257019 36621320.0 
907.244873 611802.0 
913.282715 26091808.0 
914.317749 24022360.0 
916.76355 14572872.0 
917.353699 92961008.0 
918.240906 105883504.0 
919.238342 19491072.0 
919.893921 97.0 
931.158447 197198464.0 
932.237854 118365240.0 
933.192871 65371064.0 
933.947266 582.0 
END IONS

