BEGIN IONS
PEPMASS=1411.71
CHARGE=1+
MSLEVEL=2
SOURCE_INSTRUMENT=LC-ESI-Ion Trap
FILENAME=f.RReher/2264/2264crude/2264_crude.mzXML;
SEQ=*..*
IONMODE=Positive
ORGANISM=GNPS-LIBRARY
NAME=Swinholide A M+Na
PI=Gerwick
DATACOLLECTOR=Raphael Reher
SMILES=C[C@H]1C[C@H](C[C@@H](O1)CC[C@H](C)[C@@H]([C@H](C)[C@@H]2[C@H]([C@@H](C[C@@H]([C@@H]([C@H](C[C@@H]3CC=C[C@H](O3)C[C@H](C/C=C(/C=C/C(=O)O[C@@H](C([C@@H](C[C@@H]([C@@H]([C@H](C[C@@H]4CC=C[C@H](O4)C[C@H](C/C=C(/C=C/C(=O)O2)\C)O)OC)C)O)O)C)[C@@H](C)[C@H]([C@@H](C)CC[C@H]5C[C@@H](C[C@@H](O5)C)OC)O)\C)O)OC)C)O)O)C)O)OC
INCHI=
INCHIAUX=
PUBMED=
SUBMITUSER=RReher
LIBRARYQUALITY=3
SPECTRUMID=CCMSLIB00005436034
SCANS=554
432.985107 39445.0 
435.016113 5358.0 
479.507751 7545.0 
484.582825 2869.0 
485.35791 21476.0 
495.22229 166068.0 
496.211548 33335.0 
503.75824 44360.0 
673.636475 14433.0 
699.370117 125575.0 
700.257568 12260.0 
717.381226 2163148.0 
718.44519 173460.0 
719.06665 2.0 
733.194336 3208.0 
761.689453 22973.0 
783.526245 4993.0 
825.17334 3887.0 
861.353271 50405.0 
861.957153 7302.0 
862.697266 5683.0 
905.489502 134664.0 
906.344116 9036.0 
921.615845 2041.0 
922.965088 8706.0 
939.46875 1241352.0 
940.501343 94777.0 
970.751587 6258.0 
975.660889 18857.0 
983.799072 2393.0 
1027.725586 8786.0 
1065.820801 7972.0 
1083.561035 256034.0 
1084.411377 96249.0 
1109.347412 38493.0 
1110.0 1.0 
1126.24707 2253.0 
1126.93335 81432.0 
1127.572754 1181712.0 
1128.490723 164716.0 
1129.133301 1.0 
1139.550049 40061.0 
1140.663574 31703.0 
1153.350586 2566.0 
1161.597412 134178.0 
1162.608398 25756.0 
1168.493652 5905.0 
1169.373535 41464.0 
1171.576904 23843.0 
1179.100098 35660.0 
1179.979004 98748.0 
1180.829102 11551.0 
1185.480469 35960.0 
1189.112061 241655.0 
1189.750244 1472677.0 
1190.772461 140204.0 
1197.551025 407591.0 
1198.582764 30559.0 
1210.763916 9225.0 
1251.620117 30632.0 
1252.845947 10335.0 
1255.533691 4920.0 
1285.936035 23982.0 
1299.711426 9422.0 
1331.86084 11671.0 
1339.305176 3797.0 
1344.403809 16033.0 
1349.631836 41604.0 
1350.378662 30378.0 
1351.038574 12303.0 
1358.421631 18295.0 
1362.87793 15309.0 
1366.82959 11963.0 
1375.571289 60488.0 
1376.357178 17997.0 
1377.133301 4.0 
1379.33252 11966.0 
1380.585449 31575.0 
1381.226562 5.0 
1392.388672 21752.0 
1393.631592 485255.0 
1394.713867 384799.0 
1395.390625 22943.0 
1411.854248 148680.0 
1412.780273 31893.0 
END IONS

