BEGIN IONS
PEPMASS=468.245
CHARGE=1+
MSLEVEL=2
SOURCE_INSTRUMENT=LC-ESI-qTof
FILENAME=f.RReher/Golden lab/ColumbamideA-C_reference/Columbamide A/ColA_M+Cl_PNG.mgf;
SEQ=*..*
IONMODE=Positive
ORGANISM=GNPS-LIBRARY
NAME=Columbamide A M+Cl
PI=Gerwick
DATACOLLECTOR=Kleigrewe
SMILES=ClCCCCCCC(Cl)CCCC/C=C/CCC(N(C)[C@@H](COC)COC(C)=O)=O
INCHI=
INCHIAUX=
PUBMED=
SUBMITUSER=RReher
LIBRARYQUALITY=3
SPECTRUMID=CCMSLIB00005464637
SCANS=1
100.07251 241.654068 
102.090446 8895.733398 
102.110886 755.704163 
102.137878 321.390259 
102.156609 152.03125 
102.186707 307.732147 
103.033089 161.198776 
103.09301 476.35553 
105.068909 317.520203 
107.083771 503.0 
109.101799 576.457458 
110.103508 110.568298 
111.064148 110.571426 
111.091301 124.675926 
112.074562 315.163757 
113.082916 1478.235352 
113.110115 148.801468 
119.078926 110.115738 
120.100075 614.021484 
121.100624 389.075012 
128.070435 489.418304 
130.085312 893.680176 
130.108795 147.080124 
131.068909 472.492096 
131.087128 157.960114 
133.099731 284.721985 
135.115341 113.290001 
138.088913 136.877213 
142.083481 113.388885 
143.059052 114.111366 
143.093689 660.272278 
144.099106 2597.252686 
144.139603 213.648529 
144.16008 107.390625 
145.105072 211.840164 
146.080505 112.880951 
149.136627 159.397537 
156.099503 2095.810791 
156.138321 150.014709 
157.103134 113.349136 
158.111282 127.004311 
162.110626 2146.320312 
162.147522 235.183441 
164.116959 163.35556 
171.087631 438.036377 
172.092087 411.072021 
184.096588 951.102051 
184.137589 288.072571 
185.100067 106.121216 
196.128433 117.605263 
198.141891 210.334671 
210.147324 162.462906 
251.151978 126.248711 
276.352539 116.160713 
280.231049 158.560181 
302.242554 370.378143 
320.255859 494.574768 
322.259399 146.815216 
334.272888 15616.459961 
334.41568 259.532623 
334.445404 393.0 
334.486938 194.570953 
334.509583 136.226852 
334.55072 141.185608 
334.615509 111.008926 
334.9216 118.160088 
335.27652 694.692322 
335.314758 166.121216 
336.27771 848.529846 
336.323639 108.845001 
338.223969 645.047363 
340.222229 341.334869 
356.235443 753.61084 
357.239471 126.704544 
358.234558 766.884949 
362.26828 3297.982422 
362.332611 296.5 
362.368042 134.066666 
362.38974 142.778839 
363.271759 139.81636 
364.269592 171.097824 
370.039764 137.480774 
370.248749 26833.279297 
370.341736 1103.574463 
370.425781 464.522064 
370.476471 202.097504 
370.853516 131.391159 
370.923767 188.87764 
371.251495 1081.155029 
371.349762 107.156731 
371.401703 154.833069 
371.567749 111.084175 
372.247803 27725.208984 
372.377136 589.148499 
372.427734 708.10199 
372.476776 342.178558 
372.545044 114.939934 
372.643097 120.905464 
372.773956 118.199463 
372.820068 127.792358 
373.014038 132.799194 
373.171722 129.916489 
373.252106 825.045837 
373.32251 121.9534 
373.694702 127.671234 
398.243591 9081.842773 
398.428802 202.083328 
398.506409 111.149391 
398.98465 115.080132 
399.246521 210.942307 
400.160217 110.041664 
400.2435 8637.993164 
400.397156 183.02272 
400.431152 267.105927 
400.481537 127.645546 
400.585571 113.265625 
401.242706 202.4375 
401.822601 118.897987 
401.879761 105.900002 
408.221893 756.423828 
408.2789 206.148804 
409.230194 145.160721 
417.968292 123.818184 
432.279419 166.008209 
436.215057 252.953491 
END IONS

