BEGIN IONS
PEPMASS=348.217
CHARGE=1+
MSLEVEL=2
SOURCE_INSTRUMENT=LC-ESI-qTof
FILENAME=2A8_R-4-benzyl-3-((S)-3-hydroxy-2_2-dimethyloctanoyl)oxazolidin-2-one.mzXML
SEQ=*..*
IONMODE=Positive
ORGANISM=GNPS-LIBRARY
NAME="R-4-benzyl-3-((R)-3-hydroxy-2,2-dimethyloctanoyl)oxazolidin-2-one" M+H
PI=Dorrestein/Gerwick
DATACOLLECTOR=Garg/Luzzato
SMILES=O=C1OC[C@@H](CC2=CC=CC=C2)N1C(C(C)(C)[C@H](O)CCCCC)=O
INCHI=N/A
INCHIAUX=N/A
PUBMED=N/A
SUBMITUSER=mwang87
LIBRARYQUALITY=2
SPECTRUMID=CCMSLIB00000068221
SCANS=2203
96.072205 192.0 
97.396904 172.0 
99.578552 232.0 
100.881157 188.0 
104.904953 196.0 
105.470146 228.0 
107.775032 208.0 
110.644081 176.0 
111.07769 168.0 
111.941132 160.0 
112.082207 172.0 
113.31562 196.0 
115.056686 236.0 
116.06189 216.0 
117.033783 164.0 
117.070435 3140.0 
117.903801 280.0 
117.918922 180.0 
118.074028 544.0 
118.143707 152.0 
118.687103 164.0 
125.13588 172.0 
125.383034 160.0 
126.13266 160.0 
127.79599 156.0 
133.91748 164.0 
134.099411 604.0 
135.006363 164.0 
135.098846 152.0 
135.506134 260.0 
142.062393 216.0 
143.916626 156.0 
144.112411 236.0 
145.261063 196.0 
145.306625 148.0 
146.720169 208.0 
152.988556 200.0 
153.129639 1840.0 
153.158569 212.0 
154.14975 140.0 
155.223618 200.0 
155.620468 140.0 
158.871063 152.0 
160.076996 196.0 
171.140732 168.0 
177.645493 220.0 
177.796677 212.0 
178.016922 172.0 
178.086609 13036.0 
178.216049 156.0 
178.612 160.0 
178.790192 236.0 
179.088715 1452.0 
179.120193 164.0 
179.154816 204.0 
180.096146 252.0 
186.579697 144.0 
188.997894 216.0 
189.203079 192.0 
190.107208 184.0 
201.122055 232.0 
219.457565 140.0 
231.30484 148.0 
231.998245 176.0 
246.89328 152.0 
257.052032 160.0 
259.347321 164.0 
259.401764 148.0 
261.032074 140.0 
273.556946 160.0 
275.056152 232.0 
286.214691 204.0 
292.195251 200.0 
292.906433 260.0 
302.884521 144.0 
304.069794 204.0 
313.617798 204.0 
330.20517 488.0 
332.216766 220.0 
346.176025 144.0 
349.147308 176.0 
349.189606 248.0 
351.241669 188.0 
351.317902 260.0 
361.791077 140.0 
361.923523 156.0 
1487.332886 168.0 
1615.648438 204.0 
1660.140381 256.0 
1680.01062 232.0 
1727.539917 248.0 
1745.031494 192.0 
1813.522827 176.0 
1823.244995 152.0 
1826.321533 172.0 
1855.840088 144.0 
1888.931396 152.0 
1902.756592 228.0 
1919.673096 248.0 
1926.216187 208.0 
1933.3302 256.0 
1937.487549 196.0 
1964.676514 208.0 
END IONS

