BEGIN IONS
PEPMASS=289.216
CHARGE=1+
MSLEVEL=2
SOURCE_INSTRUMENT=LC-ESI-QQQ
FILENAME=f.evgenia_glukhov/Elliot Weiss/3L-Osc_stock_1mg-mL.mzXML;
SEQ=*..*
IONMODE=Positive
ORGANISM=GNPS-LIBRARY
NAME=Asterina M+H
PI=Gerwick
DATACOLLECTOR=Elliot Weiss
SMILES=COC1=C(CC(O)(CO)C\C1=N/CCO)NCC(O)=O
INCHI=
INCHIAUX=
PUBMED=
SUBMITUSER=evgenia_glukhov
LIBRARYQUALITY=3
SPECTRUMID=CCMSLIB00005436497
SCANS=731
100.13118 14070.0 
116.420212 11960.0 
125.987778 11403.0 
130.229584 13778.0 
132.301636 25099.0 
141.11322 4030.0 
142.391846 6106.0 
144.222076 47862.0 
151.159637 31884.0 
153.899475 14691.0 
158.095337 10872.0 
160.353577 7305.0 
164.206299 41559.0 
164.811157 17.0 
166.073151 17897.0 
168.171021 26127.0 
168.783264 1.0 
170.140747 10675.0 
172.015808 16077.0 
177.251251 16848.0 
182.083435 21102.0 
183.043518 17325.0 
186.135315 894421.0 
187.043823 109450.0 
188.06189 23504.0 
194.43457 26575.0 
195.627289 27448.0 
197.177979 200439.0 
197.878021 3.0 
199.202881 75688.0 
200.200653 37024.0 
200.994019 42355.0 
201.603577 3.0 
208.952972 14243.0 
212.08728 444626.0 
213.194092 123995.0 
213.938904 36975.0 
221.102722 413485.0 
222.080353 53376.0 
224.929626 24089.0 
225.838043 11111.0 
227.923218 63106.0 
229.309998 105907.0 
230.148651 7911308.0 
231.176453 772148.0 
231.904297 5554.0 
238.952087 5203.0 
239.937408 13887.0 
241.183289 109785.0 
242.481842 63251.0 
243.209686 101588.0 
243.825684 49786.0 
245.030579 12587.0 
246.094208 27342.0 
255.943573 98750.0 
257.352295 21803.0 
271.049438 490218.0 
272.033447 102160.0 
272.84436 5703.0 
274.077148 11842400.0 
275.094727 1508321.0 
276.048096 12.0 
289.093018 3430541.0 
290.126099 400502.0 
290.806152 6.0 
END IONS

