BEGIN IONS
PEPMASS=975.518
CHARGE=1+
MSLEVEL=2
SOURCE_INSTRUMENT=LC-ESI-Orbitrap
FILENAME=f.RReher/Culebra/pure_compounds/993_LoggerpeptinA/LoggerpeptinA_MS2_M+H-H2O_QE.mgf;
SEQ=*..*
IONMODE=Positive
ORGANISM=GNPS-LIBRARY
NAME=Loggerpeptin A M+H-H2O
PI=Gerwick
DATACOLLECTOR=Raphael Reher
SMILES=C[C@@H](C(N[C@H](C(N[C@H]1[C@@H](C)OC([C@H](C(C)C)NC(C(CC2=CC=C(O)C=C2)N(C)C([C@H](CC3=CC=CC=C3)N4[C@H](O)CCC(NC([C@H](CC(C)C)NC1=O)=O)C4=O)=O)=O)=O)=O)[C@@H](O)C)=O)NC(CCC)=O
INCHI=
INCHIAUX=
PUBMED=
SUBMITUSER=RReher
LIBRARYQUALITY=3
SPECTRUMID=CCMSLIB00005723414
SCANS=1
80.048225 3474.846191 
80.048904 8294.144531 
80.049583 12991.672852 
80.050262 14354.601562 
80.050941 11441.28418 
80.05162 6454.755859 
80.052299 2492.627686 
81.422928 2360.221191 
81.423622 4629.66748 
81.424324 5757.662109 
81.425018 4973.682129 
81.425713 2902.939209 
82.064331 3192.001953 
82.065041 5678.144531 
82.065742 6879.062988 
82.066452 5947.962891 
82.067154 3548.354492 
84.042732 2095.809814 
84.043457 5328.661133 
84.044189 11453.841797 
84.044922 15915.5625 
84.045654 12581.402344 
84.046379 5966.953125 
84.047112 2440.703125 
86.091286 4400.612793 
86.092041 4925.539551 
86.092796 5854.366211 
86.093559 6343.822754 
86.094315 18456.710938 
86.09507 65634.101562 
86.095825 136120.046875 
86.096588 211316.421875 
86.097343 211392.90625 
86.098099 135705.984375 
86.098862 64741.878906 
86.099617 17235.517578 
86.100372 4811.23291 
86.101135 4055.136963 
86.101891 2169.810791 
91.051483 1897.455322 
91.052307 12496.810547 
91.053131 34400.402344 
91.053955 57862.308594 
91.054779 67981.414062 
91.055603 48620.167969 
91.056427 26717.060547 
91.057251 8604.724609 
91.058083 2179.875244 
103.05146 2593.477051 
103.052452 6873.868164 
103.053444 11712.573242 
103.054436 14050.052734 
103.055428 12201.594727 
103.056419 7528.320312 
103.057411 3037.629395 
105.068039 3063.404785 
105.069061 6310.58252 
105.070084 8414.727539 
105.071106 7765.662598 
105.072121 4876.528809 
105.073143 1793.902954 
107.045509 945.177185 
107.046562 6529.041992 
107.047615 16225.827148 
107.04866 26667.748047 
107.049713 29656.607422 
107.050766 20331.824219 
107.051811 10616.966797 
107.052864 2564.043213 
109.063278 3419.902588 
109.064354 5729.124023 
109.065437 6781.979004 
109.066513 5680.568359 
109.067596 3141.977539 
110.057434 3901.396973 
110.058533 8269.279297 
110.059624 11981.264648 
110.060722 12162.412109 
110.061813 8486.976562 
110.062912 3672.565674 
111.089676 3096.964111 
111.09079 6593.700195 
111.091896 8131.855957 
111.09301 6215.474609 
111.094124 2524.600098 
112.108391 1131.887329 
112.109512 7061.748535 
112.110641 16367.336914 
112.111771 26613.40625 
112.112892 27429.216797 
112.114021 17484.224609 
112.115143 8135.046875 
112.116272 1835.557861 
113.0681 2778.931152 
113.069237 10194.795898 
113.070381 17528.033203 
113.071518 22020.027344 
113.072662 16465.431641 
113.073799 9205.943359 
113.074944 3050.823486 
114.087524 16869.962891 
114.088676 65661.070312 
114.089836 140567.703125 
114.090988 220822.25 
114.092148 224091.75 
114.0933 145258.046875 
114.09446 70803.03125 
114.095612 20155.199219 
114.096771 6403.633789 
114.097923 4441.134766 
114.099083 2220.848633 
119.046043 2725.388428 
119.047272 6073.516113 
119.048508 9468.086914 
119.049736 16475.212891 
119.050972 11586.101562 
119.0522 5292.206055 
119.053436 2181.418457 
120.07019 1788.829224 
120.071442 7414.378906 
120.072685 17698.154297 
120.073936 29160.806641 
120.07518 32359.865234 
120.076431 92720.578125 
120.077675 337535.90625 
120.078926 757260.6875 
120.080177 1211196.875 
120.081421 1299440.875 
120.082672 873660.5625 
120.083916 448648.125 
120.085167 132600.40625 
120.086418 43178.476562 
120.087662 31589.101562 
120.088913 23244.628906 
120.090157 10216.755859 
120.091408 3204.105469 
121.026825 4531.828125 
121.028091 7054.36084 
121.02935 7365.240723 
121.030617 5222.667969 
121.031876 2233.662842 
121.062195 2514.185059 
121.063454 6277.068848 
121.06472 9153.839844 
121.065987 8876.171875 
121.067245 5713.046875 
121.068512 2142.852539 
124.107735 1656.20459 
124.109047 4509.800293 
124.110352 10521.601562 
124.111664 16815.371094 
124.112976 16423.853516 
124.114288 10036.063477 
124.115601 4017.496338 
124.116913 1446.501953 
132.076843 3854.251953 
132.078293 8366.704102 
132.079727 12200.360352 
132.081177 12757.123047 
132.082611 9662.995117 
132.084045 5117.94043 
132.085495 1838.828979 
135.063583 4352.00293 
135.065063 9252.079102 
135.066559 13674.939453 
135.068054 14651.326172 
135.069534 11390.02832 
135.07103 6179.436035 
135.07251 2242.263428 
136.105789 1507.959595 
136.1073 3395.061523 
136.10881 11257.321289 
136.110321 20093.109375 
136.111816 27584.298828 
136.113327 23009.248047 
136.114838 13348.948242 
136.116333 4216.972656 
138.086578 1727.712646 
138.08812 4828.73291 
138.089661 8600.806641 
138.091202 10739.650391 
138.092728 9789.132812 
138.094269 6424.561523 
138.09581 2857.622559 
139.080048 2738.189209 
139.081604 8458.948242 
139.08316 29744.582031 
139.084717 57557.273438 
139.086273 84210.84375 
139.08783 76142.335938 
139.089386 46635.472656 
139.090942 19336.466797 
139.092499 4367.632324 
139.094055 725.316345 
141.059509 1787.095093 
141.061096 7469.682617 
141.062683 25141.03125 
141.06427 44259.414062 
141.065857 57900.910156 
141.067444 44135.378906 
141.069031 24940.658203 
141.070633 7215.550293 
141.07222 1230.741089 
141.099274 3667.205811 
141.100861 5969.580078 
141.102448 6908.606934 
141.104034 5721.225098 
141.105637 3191.274902 
141.135849 3421.855225 
141.137436 6047.890625 
141.139023 6924.305664 
141.14061 5363.964844 
141.142212 2532.455811 
142.077209 14336.063477 
142.078812 15046.881836 
142.080414 47559.203125 
142.082016 181165.546875 
142.083633 409289.1875 
142.085236 655971.875 
142.086838 705055.75 
142.088455 474702.5625 
142.090057 244554.390625 
142.09166 73672.492188 
142.093262 24210.941406 
142.094879 16099.019531 
142.096481 9173.00293 
142.098083 1016.252808 
146.090973 1769.375122 
146.092636 4604.016602 
146.094315 10778.575195 
146.095993 17168.373047 
146.097672 17730.683594 
146.099335 11879.311523 
146.101013 4536.336426 
146.102692 1624.267212 
149.064957 2051.305664 
149.066681 5969.135254 
149.068405 10742.832031 
149.070129 13366.420898 
149.071854 11844.250977 
149.073593 7268.147461 
149.075317 2968.034668 
150.07637 6471.295898 
150.07811 18803.542969 
150.079865 35361.613281 
150.081604 48732.519531 
150.083344 50914.773438 
150.085098 151500.640625 
150.086838 558585.875 
150.088577 1217575.25 
150.090317 1927571.0 
150.092072 2014511.375 
150.093811 1333075.5 
150.095551 672202.875 
150.097305 199957.0625 
150.099045 67408.320312 
150.100784 47942.421875 
150.102539 29386.201172 
150.104279 9799.878906 
150.106018 5518.045898 
153.135803 2317.544189 
153.137589 5304.186523 
153.139389 6794.936035 
153.14119 5621.030273 
153.14299 2855.588867 
155.07547 900.435181 
155.077301 3563.745605 
155.079147 7663.828613 
155.080978 15875.550781 
155.082809 14154.932617 
155.084641 8207.523438 
155.086472 3458.001709 
155.088303 1351.002563 
155.112122 2150.710449 
155.113953 5290.121582 
155.115784 11644.168945 
155.117615 16235.311523 
155.119446 9543.567383 
155.121277 6117.484863 
155.123108 2759.545166 
157.091522 2722.866211 
157.093384 6215.748047 
157.095261 14875.228516 
157.097122 19980.611328 
157.098999 17206.640625 
157.100861 10608.500977 
157.102722 3560.342773 
157.104599 1129.846191 
158.084061 1947.49231 
158.085953 4141.407715 
158.08783 4887.600098 
158.089722 16779.691406 
158.091599 63805.597656 
158.093491 139208.3125 
158.095367 220483.109375 
158.09726 228850.421875 
158.099152 150348.640625 
158.101028 74719.023438 
158.102921 21043.101562 
158.104797 6551.052246 
158.106689 5014.22998 
158.108566 3370.466553 
158.110519 6702.00293 
167.073227 21559.833984 
167.075272 84036.117188 
167.077316 264378.5625 
167.079376 457541.75 
167.081421 599389.6875 
167.083466 470041.875 
167.08551 276340.3125 
167.08757 95360.898438 
167.089615 27817.982422 
167.09166 10077.694336 
167.093704 6919.513184 
167.095764 571.276917 
169.125458 1012.919434 
169.127533 9808.717773 
169.129623 24643.701172 
169.131714 40526.636719 
169.133789 44006.5625 
169.13588 29902.525391 
169.13797 15706.640625 
169.14006 4776.254883 
169.142136 1135.821533 
170.085617 4198.763184 
170.087723 7149.472168 
170.089828 24073.699219 
170.091919 77865.539062 
170.094025 141251.546875 
170.09613 196295.921875 
170.098236 166038.046875 
170.100342 99709.078125 
170.102448 38609.617188 
170.104553 9329.673828 
170.106659 2323.119629 
172.103897 1872.634277 
172.106033 11926.411133 
172.108185 31097.654297 
172.110321 51663.949219 
172.112457 58093.085938 
172.114609 40097.867188 
172.116745 21029.283203 
172.118881 6500.273926 
172.121033 2644.31543 
175.104706 3840.394287 
175.106903 6558.48877 
175.1091 7370.843262 
175.111298 5732.281738 
175.113495 2924.166016 
176.066879 2944.324219 
176.069107 5246.273926 
176.07132 6239.248047 
176.073532 5183.621582 
176.075745 2846.41626 
176.217667 3490.88501 
176.219879 5803.932617 
176.222107 6641.703613 
176.224319 5337.729004 
176.226532 2747.510254 
178.078278 1183.257568 
178.080521 3288.909668 
178.082779 7062.101074 
178.085037 13517.275391 
178.08728 9912.395508 
178.089539 6789.765625 
178.091797 3003.309082 
181.123474 387.631042 
181.125793 4093.847656 
181.128098 17209.908203 
181.130417 34656.90625 
181.132721 52027.535156 
181.13504 48099.71875 
181.137344 29676.021484 
181.139664 12791.525391 
181.141983 3161.424805 
184.10318 3236.57373 
184.10556 5421.1875 
184.107925 6232.70166 
184.110291 5115.888184 
184.112671 2790.735596 
185.080765 1040.467529 
185.08316 8522.566406 
185.085541 36519.71875 
185.087936 87504.695312 
185.090332 142921.328125 
185.092712 159806.0 
185.095108 110795.898438 
185.097488 58829.511719 
185.099884 18099.015625 
185.102264 6257.727051 
185.10466 4891.374023 
185.10704 4092.973389 
185.109436 3964.526367 
185.111816 678.463074 
186.088013 4730.259766 
186.090424 7579.483887 
186.092834 7749.797363 
186.09523 5206.665527 
186.097641 2075.939941 
187.113007 12759.447266 
187.115433 53230.140625 
187.117859 175511.0625 
187.120285 312444.375 
187.122711 423230.3125 
187.125137 344450.40625 
187.127563 204647.921875 
187.130005 75460.679688 
187.132431 21019.396484 
187.134857 8316.423828 
187.13739 8555.013672 
187.139832 9983.206055 
187.142258 14383.884766 
187.144684 5820.653809 
187.14711 4894.710449 
187.149536 3317.722656 
187.151962 1528.110107 
188.139374 4386.677734 
188.141815 6597.118164 
188.144272 6982.963379 
188.146713 5351.628418 
188.14917 2810.022461 
195.068512 2109.25415 
195.071106 6586.495605 
195.073685 12190.589844 
195.076279 15043.333008 
195.078857 13054.821289 
195.081436 7881.846191 
195.08403 3211.252686 
196.090668 2982.190918 
196.093277 6889.018555 
196.095871 10053.857422 
196.09848 10161.716797 
196.101089 7055.996094 
196.103699 3145.829834 
197.118439 2192.693848 
197.121063 7788.608398 
197.123688 23284.287109 
197.126312 39744.675781 
197.128937 49922.367188 
197.131561 37111.164062 
197.134186 20622.927734 
197.13681 5404.435059 
197.139435 344.180328 
198.08252 2262.126953 
198.085159 6483.41748 
198.087799 14763.245117 
198.090439 23425.269531 
198.093094 23451.058594 
198.095734 14717.054688 
198.098373 6467.238281 
198.101028 2321.812012 
208.138504 3701.26123 
208.141342 7246.67041 
208.144196 8706.724609 
208.147049 6833.457031 
208.149887 3213.425293 
209.11853 2984.749268 
209.121399 13638.022461 
209.124268 27700.751953 
209.127136 42157.949219 
209.130005 40810.039062 
209.132874 26213.570312 
209.135742 12627.954102 
209.138611 3394.551758 
209.141479 184.511444 
215.092209 3274.928955 
215.0952 6603.54541 
215.09819 14788.921875 
215.101181 21868.365234 
215.104172 23553.330078 
215.107162 79407.195312 
215.110153 300550.15625 
215.113144 652419.8125 
215.116135 1031277.375 
215.119141 1069708.0 
215.122131 705534.625 
215.125122 354442.15625 
215.128113 106035.21875 
215.131104 38548.542969 
215.134094 31054.900391 
215.137085 24301.015625 
215.140091 14725.181641 
215.143082 1026.821289 
216.09523 2882.22583 
216.098236 6606.873047 
216.101257 9329.874023 
216.104263 8990.816406 
216.107285 5971.357422 
216.110291 2530.488281 
222.117767 3119.568848 
222.120895 5391.771484 
222.124039 6250.202148 
222.127182 4955.944824 
222.130325 2423.239502 
225.095703 597.124023 
225.098907 4368.464355 
225.102112 5885.395508 
225.105316 5148.20166 
225.108521 3872.56665 
225.111694 8996.368164 
225.114899 33186.84375 
225.118103 76001.789062 
225.121307 122252.523438 
225.124512 133383.515625 
225.127716 90168.398438 
225.13092 46438.597656 
225.134125 12759.835938 
225.137329 3052.424072 
226.072861 780.112854 
226.07608 5860.030762 
226.0793 20374.697266 
226.082535 37678.488281 
226.085754 52831.996094 
226.088974 44946.628906 
226.092209 27009.322266 
226.095428 10257.364258 
226.098648 2100.726318 
226.14299 2069.20752 
226.14621 12718.601562 
226.149429 31310.955078 
226.152664 51449.726562 
226.155884 56338.890625 
226.159119 38068.253906 
226.162338 19654.388672 
226.165573 5667.537109 
226.168793 1596.567017 
233.116577 1907.572632 
233.119949 5447.852539 
233.123322 10131.767578 
233.126694 13037.730469 
233.130081 12044.705078 
233.133453 7857.544922 
233.136826 3339.617432 
234.149658 2589.594238 
234.153046 6095.082031 
234.156448 9801.207031 
234.159851 11385.852539 
234.163254 9715.990234 
234.166641 5932.761719 
234.170044 2338.562988 
236.129807 3872.047363 
236.13324 7615.996094 
236.136688 10785.493164 
236.140121 11314.741211 
236.14357 8761.71875 
236.147018 4843.663086 
238.103622 1135.045898 
238.107101 3668.796143 
238.11058 13549.557617 
238.114075 26273.511719 
238.117554 38401.511719 
238.121048 34385.773438 
238.124527 20835.392578 
238.128006 8414.257812 
238.1315 1693.421997 
241.0867 1859.314819 
241.090256 5754.947266 
241.093796 10400.773438 
241.097351 12657.043945 
241.100906 10663.149414 
241.104446 5986.34375 
241.108002 2007.654175 
243.087234 3401.530518 
243.090836 12150.282227 
243.094437 13909.359375 
243.098022 36102.273438 
243.101624 143697.15625 
243.105209 465690.40625 
243.10881 819695.9375 
243.112411 1094362.625 
243.115997 876083.25 
243.119598 519595.5 
243.123184 186710.890625 
243.126785 60867.199219 
243.130386 34513.703125 
243.133972 33038.675781 
243.137573 16228.070312 
243.141174 7572.376953 
249.143982 684.622803 
249.147705 6105.905273 
249.151428 20732.509766 
249.155167 36865.570312 
249.15889 49965.269531 
249.162628 41305.953125 
249.166351 24626.707031 
249.17009 9142.536133 
249.173813 1778.091797 
252.124817 1981.056641 
252.128616 4398.61377 
252.132416 7618.837402 
252.1362 15575.588867 
252.139999 19949.820312 
252.143799 15052.705078 
252.147598 9114.004883 
252.151398 4794.713379 
252.154953 7851.75293 
252.158752 30662.386719 
252.162552 99368.445312 
252.166351 174850.265625 
252.170135 234487.515625 
252.173935 187757.75 
252.177734 110625.867188 
252.181534 39159.996094 
252.185333 10829.374023 
252.189133 4161.083496 
252.192932 3580.442871 
252.196976 12678.661133 
254.137894 2585.218018 
254.141739 7843.375488 
254.145569 14859.608398 
254.149414 20776.1875 
254.153259 17403.904297 
254.157104 10204.389648 
254.16095 3684.904785 
254.164795 1242.884888 
255.174744 2687.762695 
255.178604 6280.330078 
255.18248 9539.603516 
255.18634 10288.095703 
255.190216 8077.81543 
255.194077 4538.653809 
261.110474 4281.61084 
261.114471 15346.780273 
261.118469 27837.363281 
261.122467 38199.761719 
261.126495 32222.654297 
261.130493 19596.28125 
261.134491 7866.407715 
261.138489 1805.588745 
262.14212 1645.803711 
262.146149 5249.806641 
262.150177 9630.099609 
262.154205 12135.260742 
262.158234 10941.935547 
262.162262 6959.844727 
262.16629 2969.655518 
263.167664 4109.097168 
263.171722 8357.209961 
263.175751 10697.701172 
263.17981 9272.241211 
263.183868 5305.494629 
263.187897 1657.533081 
264.121826 2557.525635 
264.125916 5540.976074 
264.129974 8784.587891 
264.134064 17130.193359 
264.138123 9512.9375 
264.142181 6473.044434 
264.146271 3224.148438 
266.140533 4076.918701 
266.144653 7904.547852 
266.148773 10057.867188 
266.152893 8836.708008 
266.157013 5218.479492 
266.161102 1707.493164 
268.190765 1666.094482 
268.194946 5450.611816 
268.199097 9305.202148 
268.203278 10535.056641 
268.207428 8315.984375 
268.211609 4482.697754 
277.14032 2232.781982 
277.144714 6515.984375 
277.149078 14248.871094 
277.153473 21964.685547 
277.157837 19843.015625 
277.162201 11640.229492 
277.166595 4103.336914 
277.170959 1856.877808 
280.144562 2341.320801 
280.149017 3767.401855 
280.153473 13915.770508 
280.157898 33204.820312 
280.162354 53894.777344 
280.166809 59484.554688 
280.171265 40060.625 
280.17569 20219.398438 
280.180145 5164.018555 
280.184601 1019.453491 
282.125427 2811.684326 
282.129944 8610.077148 
282.13443 30331.748047 
282.138916 59775.789062 
282.143433 88936.273438 
282.147919 82536.632812 
282.152405 51374.390625 
282.156921 22482.859375 
282.161407 5579.208496 
282.165894 1517.535522 
283.161377 2038.875 
283.165894 14788.317383 
283.17041 54458.726562 
283.174927 99212.429688 
283.179474 136675.546875 
283.18399 112474.0625 
283.188507 66765.734375 
283.193024 24739.871094 
283.19754 6902.392578 
283.202057 2586.562744 
290.135101 1168.769043 
290.139801 9083.601562 
290.14447 18009.753906 
290.14917 25608.322266 
290.15387 21038.482422 
290.158539 12157.115234 
290.163239 4349.064453 
290.167908 1161.725952 
295.139435 6315.693848 
295.144257 7881.47998 
295.149048 26270.027344 
295.15387 91590.5 
295.158661 177544.65625 
295.163483 262007.9375 
295.168304 240939.109375 
295.173096 149831.46875 
295.177917 66109.125 
295.182739 18134.849609 
295.187531 5517.94873 
295.192352 3753.087646 
295.197144 1379.414551 
298.149841 2967.648682 
298.154724 3762.495605 
298.159607 7881.415039 
298.16452 22428.140625 
298.169403 48508.996094 
298.174286 77442.460938 
298.179169 82788.507812 
298.184052 54532.964844 
298.188934 26894.697266 
298.193817 6223.54541 
298.1987 866.880798 
300.146271 4834.339355 
300.151184 9094.780273 
300.156128 11108.538086 
300.161072 9566.988281 
300.165985 5821.23291 
300.170929 2333.305664 
308.113953 34421.914062 
308.11908 135027.609375 
308.124207 222236.78125 
308.129333 237576.375 
308.13446 167621.078125 
308.139587 110066.203125 
308.144135 200094.203125 
308.149261 607311.375 
308.154388 1068873.625 
308.159515 1423938.625 
308.164642 1138573.375 
308.169769 666552.6875 
308.174896 224324.03125 
308.180054 60376.070312 
308.185181 22477.720703 
308.190308 16728.546875 
308.195435 1437.598511 
311.152374 1869.651367 
311.157593 11412.708008 
311.162781 43064.105469 
311.167999 83962.601562 
311.173187 124713.96875 
311.178406 115606.101562 
311.183624 72054.1875 
311.188812 32111.207031 
311.194031 8247.769531 
311.199249 1340.182617 
323.161011 3652.781494 
323.166534 7494.76123 
323.172028 10431.026367 
323.177551 10178.106445 
323.183075 6709.369629 
323.188568 2692.285645 
326.129333 2520.624023 
326.134918 8929.693359 
326.140503 14737.113281 
326.146088 20490.841797 
326.151672 65734.882812 
326.157257 228469.859375 
326.162872 460364.4375 
326.168457 702911.625 
326.174042 684294.1875 
326.179626 436001.34375 
326.185211 205248.328125 
326.190796 56858.425781 
326.196381 17634.955078 
326.201965 14099.698242 
326.20755 8828.636719 
326.213135 4476.999512 
326.21875 1920.76416 
328.17749 2192.41333 
328.183136 11173.786133 
328.188782 41360.503906 
328.194397 78838.851562 
328.200043 114283.539062 
328.205688 101865.460938 
328.211334 62467.046875 
328.21698 26331.167969 
328.222595 7047.36084 
328.228241 1784.767944 
332.172791 1445.893311 
332.178528 3476.944092 
332.184296 11785.244141 
332.190033 21624.660156 
332.19577 29997.349609 
332.201508 25028.208984 
332.207245 14632.397461 
332.212982 5125.29834 
332.21875 2091.262695 
335.161224 2500.502197 
335.167023 5282.242676 
335.172852 7111.602051 
335.17868 6766.051758 
335.184479 4443.863281 
339.148224 1252.985107 
339.154144 3903.80127 
339.160065 7929.707031 
339.165985 16556.761719 
339.171936 16630.871094 
339.177856 10660.359375 
339.183777 4148.649414 
339.189697 1359.70105 
344.16156 3314.333984 
344.167633 12616.941406 
344.173676 21261.294922 
344.179749 27971.765625 
344.185791 22601.052734 
344.191833 12812.023438 
344.197906 3068.516846 
347.160522 6170.885742 
347.166656 13480.647461 
347.172791 20775.740234 
347.178925 19596.601562 
347.185059 12674.438477 
347.191193 3866.1521 
347.197327 1029.434326 
349.212616 4327.502441 
349.218781 8400.764648 
349.224976 10976.390625 
349.231171 10262.250977 
349.237366 6815.847168 
349.243561 3069.619385 
350.186432 1013.009033 
350.192627 7101.650391 
350.198853 15028.895508 
350.205078 22996.703125 
350.211273 21162.884766 
350.217499 12686.318359 
350.223724 4906.60498 
350.229919 2198.237549 
351.158081 3517.286621 
351.164307 6338.828125 
351.170563 7585.637695 
351.176788 6205.023926 
351.183044 3169.394531 
356.166473 1317.932007 
356.172821 4593.325195 
356.179199 20152.103516 
356.185577 49803.191406 
356.191956 81954.320312 
356.198334 91893.53125 
356.204712 63111.765625 
356.21109 32942.097656 
356.217468 9341.109375 
356.223846 2771.723877 
367.210968 2130.540039 
367.217651 5211.244629 
367.224335 12641.619141 
367.230988 20486.113281 
367.237671 20915.453125 
367.244354 13487.491211 
367.251038 6377.199219 
367.25769 1919.522949 
374.190155 2904.263672 
374.197021 6301.177734 
374.203888 8482.201172 
374.210754 7700.01123 
374.217621 4501.35791 
375.21521 2045.34668 
375.222107 5957.575684 
375.229004 11523.530273 
375.235901 15077.560547 
375.242798 13795.669922 
375.249695 8736.053711 
375.256592 3544.864258 
392.176544 2825.84668 
392.183899 5551.056641 
392.191284 7064.1875 
392.198639 6132.911133 
392.205994 3367.258057 
393.216919 1074.341309 
393.224335 6788.953125 
393.23172 27302.539062 
393.239105 53457.183594 
393.246521 78709.554688 
393.253906 71225.875 
393.261322 43924.0 
393.268707 18424.667969 
393.276093 4818.337891 
393.283508 2089.855713 
395.214417 4283.42041 
395.221863 7381.196777 
395.229309 8583.660156 
395.236755 6960.73291 
395.244202 3728.431396 
406.175873 3575.551758 
406.183655 8769.256836 
406.191406 13448.737305 
406.199158 14178.392578 
406.20694 10422.945312 
406.214691 5068.459473 
406.222473 1594.120361 
409.166046 2504.193604 
409.173889 6735.428223 
409.181732 11030.517578 
409.189606 12452.976562 
409.197449 10127.043945 
409.205292 5891.552246 
409.213135 2265.192139 
411.214783 1976.025635 
411.222687 5395.044434 
411.230591 8918.100586 
411.238495 10510.507812 
411.246399 9564.520508 
411.254303 7067.319824 
411.262238 4365.249512 
420.120544 255.82515 
420.128723 8531.935547 
420.136871 12573.507812 
420.14505 24300.986328 
420.153229 29282.945312 
420.161377 75055.640625 
420.169556 257509.5 
420.177734 588355.3125 
420.185883 947414.1875 
420.194061 1041390.75 
420.20224 710459.75 
420.210419 369988.9375 
420.218567 106590.773438 
420.226746 29898.626953 
420.234924 20444.486328 
420.243103 15513.898438 
420.251251 5405.186035 
420.25943 1516.937378 
421.216858 2600.300537 
421.225067 10332.660156 
421.233246 20086.451172 
421.241455 29546.177734 
421.249664 26830.505859 
421.257843 16583.671875 
421.266052 7061.945312 
421.274261 1978.918579 
422.186188 1597.763672 
422.194397 5559.57959 
422.202637 9323.894531 
422.210876 10128.928711 
422.219086 7528.052246 
422.227325 3761.016113 
439.207184 1328.278564 
439.215912 6873.856445 
439.22464 22463.824219 
439.233368 68810.539062 
439.242096 136479.90625 
439.250824 208236.671875 
439.259583 208207.96875 
439.268311 134667.34375 
439.277039 65126.289062 
439.285767 16273.182617 
439.294495 1874.224487 
445.256775 2054.558838 
445.265686 5571.874512 
445.274597 8782.962891 
445.283508 9421.233398 
445.292419 6918.583496 
445.301331 3113.388428 
488.219269 1611.367432 
488.229492 4091.205322 
488.239716 10938.901367 
488.249969 18075.878906 
488.260193 18666.892578 
488.270416 11889.94043 
488.28067 4924.851562 
488.290894 1866.858154 
494.25 4569.794434 
494.260437 9885.000977 
494.270844 13798.978516 
494.281281 13401.495117 
494.291687 9004.091797 
494.302124 3920.82251 
519.234131 4382.692383 
519.245361 7241.576172 
519.256592 8364.775391 
519.267822 7061.005859 
519.279053 4205.300781 
519.526062 4819.429688 
519.537292 7323.335938 
519.548523 7878.049805 
519.559753 6022.820801 
519.570984 2941.835938 
522.232178 2140.672119 
522.243469 5626.787598 
522.254822 15465.027344 
522.266113 21301.525391 
522.277466 19222.455078 
522.288757 11563.762695 
522.30011 4274.717285 
522.311401 2393.424316 
533.224976 1643.594116 
533.236694 7287.055664 
533.248352 24696.890625 
533.260071 46346.679688 
533.271729 67290.328125 
533.283386 61260.054688 
533.295105 37779.367188 
533.306763 16253.248047 
533.31842 3120.535889 
540.25354 5122.896973 
540.265442 10636.880859 
540.277344 14232.81543 
540.289307 13136.770508 
540.301208 8254.136719 
540.31311 3282.019531 
550.252136 3448.112793 
550.264404 6174.959961 
550.276611 7232.033691 
550.288879 5849.275879 
550.301147 3057.571777 
568.237366 3012.741943 
568.250244 5740.26416 
568.263062 7195.32666 
568.27594 6397.23584 
568.288757 3984.591309 
602.276184 2709.719727 
602.290222 7030.317383 
602.304199 10624.947266 
602.318237 10825.637695 
602.332275 7576.008789 
602.346252 3364.485107 
663.304749 3275.560547 
663.320984 7168.334473 
663.337158 15766.933594 
663.353394 17985.648438 
663.369568 12733.108398 
663.385803 5884.345215 
663.401978 2601.083984 
681.325439 4806.578125 
681.342346 8320.632812 
681.359192 9136.539062 
681.376038 6627.359863 
681.392944 2845.963135 
699.283142 1534.761841 
699.300659 5174.450684 
699.318237 13316.038086 
699.335754 22223.199219 
699.353333 27921.947266 
699.37085 21415.882812 
699.388367 12022.240234 
699.405945 2971.246338 
715.310059 2560.925781 
715.328247 5841.191406 
715.346375 16472.628906 
715.364502 29138.685547 
715.38269 39767.175781 
715.400818 32755.654297 
715.418945 18843.412109 
715.437134 5668.222656 
717.303833 2351.230225 
717.322083 5939.141602 
717.340271 9680.387695 
717.358521 10826.450195 
717.376709 8369.134766 
717.394958 4205.97168 
730.530762 3812.507812 
730.5495 5859.431152 
730.568237 6931.9375 
730.586975 6251.355957 
730.605652 3976.584961 
733.333679 2655.00708 
733.352539 10645.731445 
733.371338 21519.021484 
733.390198 32366.419922 
733.409058 29312.509766 
733.427856 17433.070312 
733.446716 6608.874512 
733.465576 834.450806 
834.356689 1742.81958 
834.379517 7588.332031 
834.402405 17282.050781 
834.425232 27789.003906 
834.44812 30693.470703 
834.471008 20900.705078 
834.493835 10605.777344 
834.516724 2022.273071 
860.148804 3555.514648 
860.172729 6324.951172 
860.196655 7576.473145 
860.220642 6456.967773 
860.244568 3763.451416 
END IONS

