BEGIN IONS
PEPMASS=789.4
CHARGE=0+
MSLEVEL=2
SOURCE_INSTRUMENT=LC-ESI-qTof
FILENAME=20130501_Ger_Jenia_Bastimolide_A_MH789.4-qb.1.1..mgf
SEQ=*..*
IONMODE=Positive
ORGANISM=GNPS-LIBRARY
NAME=Bastimolide A M+H
PI=Gerwick
DATACOLLECTOR=Jenia
SMILES=CC1=CC(=O)O[C@@H](CCC[C@@H](CCC[C@@H](CCC[C@@H](CCC[C@H](C[C@H](C[C@@H](CCC[C@H](CCC[C@H](C[C@H](CCCCC1)O)O)O)O)O)O)O)O)O)C(C)(C)C
INCHI=InChI=1S/C44H84O11/c1-32-14-6-5-7-15-37(49)29-38(50)24-10-20-35(47)22-12-26-40(52)31-41(53)30-39(51)25-11-21-34(46)18-8-16-33(45)17-9-19-36(48)23-13-27-42(44(2,3)4)55-43(54)28-32/h28,33-42,45-53H,5-27,29-31H2,1-4H3/t33-,34+,35+,36-,37+,38-,39-,40-,41-,42+/m1/s1
INCHIAUX=N/A
PUBMED=N/A
SUBMITUSER=mwang87
LIBRARYQUALITY=1
SPECTRUMID=CCMSLIB00000001768
SCANS=1
230.994049 342.0 
233.349579 1549.0 
243.332245 1867.0 
267.514648 2055.0 
271.183228 536.0 
275.145508 691.0 
279.206909 790.0 
281.079712 1008.0 
283.084656 983.0 
285.180695 2063.0 
290.855225 725.0 
294.980225 125.0 
297.476929 427.0 
298.882874 1188.0 
301.159546 589.0 
306.645569 978.0 
309.019043 798.0 
310.973145 247.0 
312.896606 333.0 
317.084229 1315.0 
318.952026 4399.0 
321.214539 1627.0 
323.104126 500.0 
324.864136 2024.0 
329.113678 1686.0 
331.424316 344.0 
333.196777 1205.0 
337.104614 4274.0 
339.203125 1351.0 
343.080414 611.0 
345.280731 1325.0 
347.106567 1155.0 
349.105957 109.0 
352.481018 804.0 
354.193604 716.0 
355.140869 393.0 
359.163696 1462.0 
360.980347 2335.0 
363.122314 258.0 
363.640991 724.0 
369.197083 543.0 
372.401306 613.0 
376.934998 1342.0 
378.204468 672.0 
379.183502 3322.0 
390.643433 360.0 
395.013123 507.0 
399.091797 659.0 
419.117432 517.0 
432.868896 430.0 
435.134155 506.0 
446.99353 708.0 
448.652588 507.0 
451.25354 1177.0 
453.353394 719.0 
457.352661 878.0 
458.562561 702.0 
459.485535 943.0 
461.603821 1097.0 
463.080811 336.0 
465.149109 1374.0 
476.624756 761.0 
477.350403 449.0 
479.128296 826.0 
480.621216 669.0 
489.506226 498.0 
494.8703 3517.0 
497.28537 956.0 
499.088257 1097.0 
502.976807 1245.0 
505.135742 290.0 
507.239105 4501.0 
509.372131 1627.0 
515.150024 537.0 
516.294617 1471.0 
517.203796 6447.0 
518.064697 221.0 
525.807129 949.0 
526.507629 1411.0 
533.241333 860.0 
535.585449 171.0 
536.128906 228.0 
539.250732 567.0 
544.729492 2017.0 
563.141357 383.0 
567.251709 745.0 
567.758789 874.0 
577.30249 559.0 
579.371948 390.0 
581.324707 398.0 
583.110474 1025.0 
584.159363 2142.0 
585.316162 549.0 
589.553955 402.0 
591.383606 334.0 
592.447754 835.0 
593.446777 176.0 
595.551025 753.0 
599.486511 1854.0 
603.509277 1434.0 
605.111206 926.0 
609.415161 4164.0 
612.500977 1223.0 
619.196289 2606.0 
620.523193 468.0 
626.55835 258.0 
627.249512 15981.0 
629.192139 186.0 
637.292725 2181.0 
644.223633 124.0 
645.222839 37520.0 
645.890259 3.0 
646.429077 1135.0 
650.465088 695.0 
652.44574 1559.0 
653.541321 3467.0 
655.250977 225.0 
660.94281 1706.0 
662.015747 2621.0 
663.26178 35498.0 
664.047241 6.0 
668.522461 914.0 
670.010742 937.0 
671.367798 4272.0 
672.632446 5526.0 
673.681396 2513.0 
678.430664 699.0 
681.270935 72076.0 
692.219604 703.0 
693.078857 1828.0 
698.206299 753.0 
699.260559 88124.0 
699.921875 22.0 
701.542358 894.0 
703.29895 1423.0 
704.37085 5659.0 
707.013672 266.0 
712.107666 683.0 
717.271912 70540.0 
719.478882 671.0 
720.469238 4583.0 
721.505371 1645.0 
728.225586 237.0 
731.37323 2261.0 
732.466187 353.0 
735.267883 58720.0 
735.850891 15.0 
742.736816 226.0 
745.64624 927.0 
746.616699 256.0 
753.312744 46164.0 
769.334595 1373.0 
771.351257 40030.0 
771.967285 2.0 
776.158569 932.0 
789.583008 144.0 
END IONS

