BEGIN IONS
PEPMASS=601.6
CHARGE=0+
MSLEVEL=2
SOURCE_INSTRUMENT=LC-ESI-qTof
FILENAME=20130408_Jenia_Ger_Lyngbyabellin_K_MNa601.6-qb.1.1..mgf
SEQ=*..*
IONMODE=Positive
ORGANISM=GNPS-LIBRARY
NAME=Lyngbyabellin K M+Na
PI=Gerwick
DATACOLLECTOR=Jenia
SMILES=C[C@H]1[C@@H](OC(=O)C2=CSC(=N2)[C@@H](COC(=O)C3=CSC(=N3)[C@@H](OC1=O)C(C)C)O)CCCC(C)(Cl)Cl
INCHI=InChI=1S/C23H28Cl2N2O7S2/c1-11(2)17-19-27-13(9-36-19)21(30)32-8-15(28)18-26-14(10-35-18)22(31)33-16(12(3)20(29)34-17)6-5-7-23(4,24)25/h9-12,15-17,28H,5-8H2,1-4H3/t12-,15+,16-,17-/m0/s1
INCHIAUX=N/A
PUBMED=N/A
SUBMITUSER=mwang87
LIBRARYQUALITY=1
SPECTRUMID=CCMSLIB00000001758
SCANS=1
470.82489 6718.0 
533.817627 6054.0 
542.833008 6922.0 
573.489502 3195.0 
582.963501 19730.0 
END IONS

