BEGIN IONS
PEPMASS=484.0
CHARGE=0+
MSLEVEL=2
SOURCE_INSTRUMENT=LC-ESI-qTof
FILENAME=20121103_Jenia_Ger_TumonoicacidH_MH_484_qb.1.1..mgf
SEQ=*..*
IONMODE=Positive
ORGANISM=GNPS-LIBRARY
NAME=Tumonoic Acid H M+H
PI=Gerwick
DATACOLLECTOR=Jenia
SMILES=CCCCCCCC[C@H](C)C(=O)N1CCC[C@H]1C(=O)O[C@H](C(C)C)C(=O)O[C@@H](C(C)C)C(=O)O
INCHI=InChI=1S/C26H45NO7/c1-7-8-9-10-11-12-14-19(6)23(28)27-16-13-15-20(27)25(31)34-22(18(4)5)26(32)33-21(17(2)3)24(29)30/h17-22H,7-16H2,1-6H3,(H,29,30)/t19-,20-,21-,22+/m0/s1
INCHIAUX=N/A
PUBMED=N/A
SUBMITUSER=mwang87
LIBRARYQUALITY=1
SPECTRUMID=CCMSLIB00000001579
SCANS=1
197.727295 167842.0 
216.231201 33906.0 
228.614136 15998.0 
229.758545 30588.0 
235.618225 8916.0 
236.732361 242114.0 
237.775818 3636978.0 
238.587982 16.0 
264.648743 116991.0 
265.202209 231798.0 
265.81485 25859272.0 
266.580994 165.0 
283.952911 123139.0 
297.655518 129615.0 
314.278931 16608.0 
315.362366 105965.0 
315.962158 4827803.0 
316.883911 9.0 
363.992371 44323.0 
364.671753 52954.0 
365.229126 331991.0 
365.889465 49691648.0 
366.540558 15612.0 
379.174377 54445.0 
380.008606 237367.0 
380.56665 4.0 
383.888672 736608.0 
384.498688 17.0 
393.759949 50731.0 
424.341309 15631.0 
437.029633 162509.0 
437.949707 2280597.0 
438.665527 21.0 
464.622498 47533.0 
465.210327 95093.0 
465.806915 1671683.0 
466.39679 31098.0 
END IONS

