BEGIN IONS
PEPMASS=1881.75
CHARGE=1+
MSLEVEL=2
SOURCE_INSTRUMENT=LC-ESI-Ion Trap
FILENAME=f.RReher/2264/Reference_spectra/Samholides/Samholide B/SamholideB_M+Na+1_iontrap_yiwen.mgf;
SEQ=*..*
IONMODE=Positive
ORGANISM=GNPS-LIBRARY
NAME=Samholide B M+Na
PI=Gerwick
DATACOLLECTOR=Ywen Tao
SMILES=C[C@H]1C[C@H](C[C@@H](O1)CC[C@H](C)[C@@H]([C@H](C)[C@@H]2C[C@@H](C[C@@H]([C@@H]([C@H](C[C@@H]3CC=C[C@H](O3)C[C@H](C/C=C(/C=C\C(=O)O[C@@H](C[C@@H](C[C@@H]([C@@H]([C@H](C[C@@H]4CC=C[C@H](O4)C[C@H](C/C=C(/C=C/C(=O)O2)\C)O[C@@H]5[C@H]([C@@H]([C@H](CO5)OC)OC)OC(=O)[C@H](CO)O)OC)C)O)O)[C@@H](C)[C@H]([C@@H](C)CC[C@H]6C[C@@H](C[C@@H](O6)C)OC)O)\C)O[C@@H]7[C@H]([C@@H]([C@H](CO7)OC)OC)OC(=O)[C@@H](CO)O)OC)C)O)O)O)OC
INCHI=
INCHIAUX=
PUBMED=
SUBMITUSER=RReher
LIBRARYQUALITY=3
SPECTRUMID=CCMSLIB00005467783
SCANS=1
575.09436 670885.0 
575.7854 1.0 
597.5896 201895.0 
631.320312 103462.0 
637.059326 1015762.0 
639.404541 70318.0 
641.462646 68518.0 
642.340088 64329.0 
643.240601 178501.0 
681.451538 102039.0 
682.19397 240976.0 
683.334229 159200.0 
685.138062 394523.0 
686.19458 385632.0 
703.444336 223460.0 
704.280884 180417.0 
705.556641 582932.0 
737.265747 615957.0 
797.249023 316303.0 
801.48877 156158.0 
833.404785 511148.0 
844.054688 131746.0 
845.277222 846181.0 
846.315918 409805.0 
846.971436 81321.0 
848.431274 575270.0 
908.386963 53743.0 
933.34436 329181.0 
934.32959 154919.0 
935.446777 435230.0 
951.329346 13424710.0 
952.336182 9690462.0 
953.411621 3281822.0 
954.068359 43.0 
968.530762 255720.0 
1090.683838 1225312.0 
1093.566895 313596.0 
1094.699707 931675.0 
1095.400391 2.0 
1111.205078 469091.0 
1111.817383 11.0 
1139.512207 195202.0 
1140.73584 146796.0 
1155.140869 123086.0 
1156.10083 500831.0 
1162.298828 500637.0 
1163.047852 3.0 
1163.693848 519740.0 
1173.333984 530219.0 
1177.438965 771809.0 
1196.181885 506113.0 
1197.678711 308303.0 
1249.520996 262252.0 
1253.265137 329281.0 
1255.390625 481090.0 
1283.626709 256483.0 
1295.310547 295367.0 
1301.679688 262064.0 
1304.200684 468445.0 
1305.259766 464619.0 
1305.93457 9.0 
1315.378418 918022.0 
1316.064453 817345.0 
1317.36084 264431.0 
1318.407227 331243.0 
1329.114258 309888.0 
1329.760742 4.0 
1344.167969 263407.0 
1347.391602 125404.0 
1368.382812 81908.0 
1391.572754 305973.0 
1409.635498 7763871.0 
1410.625977 12692996.0 
1411.555176 4068886.0 
1412.510254 1193795.0 
1417.833008 243435.0 
1418.648926 1814557.0 
1419.434082 924541.0 
1421.515137 5462183.0 
1422.280762 9969044.0 
1423.387207 4775629.0 
1424.514648 1100485.0 
1462.51709 35571.0 
1526.937012 732295.0 
1528.657715 407715.0 
1559.657227 478816.0 
1561.633545 681220.0 
1565.837402 367864.0 
1566.473877 677289.0 
1567.42041 764854.0 
1568.431152 133182.0 
1569.414795 349639.0 
1570.497559 312044.0 
1571.664307 39628.0 
1572.856201 112485.0 
1591.772705 523794.0 
1595.267822 348632.0 
1596.140137 7.0 
1596.966797 261570.0 
1597.77832 296004.0 
1609.445557 1087528.0 
1610.564209 1171019.0 
1611.224121 10463.0 
1613.470703 856285.0 
1614.553955 4133495.0 
1615.631836 1492820.0 
1616.5625 1406927.0 
1631.091309 547365.0 
1631.744385 395950.0 
1632.613037 4608562.0 
1633.653809 2914325.0 
1634.32373 605469.0 
1634.931641 569906.0 
1638.358887 148291.0 
1639.903809 21344.0 
1647.31665 377749.0 
1648.44458 293448.0 
1649.697998 258687.0 
1650.671631 64000.0 
1653.435791 279497.0 
1665.500977 1325434.0 
1666.457764 3290347.0 
1667.4375 1534218.0 
1668.585449 1072849.0 
1669.318115 4.0 
1681.837891 482917.0 
1719.703369 267805.0 
1721.761963 22501.0 
1742.725098 142998.0 
1743.789062 349297.0 
1744.748291 307686.0 
1746.459961 382205.0 
1747.07251 3.0 
1757.027588 179590.0 
1757.662598 183451.0 
1773.728027 3901828.0 
1774.606445 6312638.0 
1775.657227 3331118.0 
1776.724854 1449176.0 
1794.483643 780766.0 
1795.133789 7.0 
1819.379639 93529.0 
1827.424561 221051.0 
1836.216797 114050.0 
1844.37915 609808.0 
1845.530029 302930.0 
1846.154297 3.0 
1847.769287 697059.0 
1848.6521 757567.0 
1861.631104 2236686.0 
1862.578125 1312746.0 
1863.599854 1497325.0 
1864.758301 605706.0 
1879.611816 42888216.0 
1880.637695 3982333.0 
1881.553955 39.0 
END IONS

