BEGIN IONS
PEPMASS=963.488
CHARGE=1+
MSLEVEL=2
SOURCE_INSTRUMENT=LC-ESI-qTof
FILENAME=f.RReher/Culebra/CUR6APR19-1/High_Res_Dorrestein/MaXis/963_Molassamide/2286_crude_2.69min_963.4886_MS2_M+H.mgf;
SEQ=*..*
IONMODE=Positive
ORGANISM=GNPS-LIBRARY
NAME=Molassamide M+H
PI=Gerwick
DATACOLLECTOR=Raphael Reher
SMILES=CCCC(NC(C(NC(C(NC1C(C)OC(C(C(C)C)NC(C(CC2=CC=C(O)C=C2)N(C)C(C(CC3=CC=CC=C3)N4C(O)CCC(NC(/C(NC1=O)=C\C)=O)C4=O)=O)=O)=O)=O)C(O)C)=O)C)=O
INCHI=
INCHIAUX=
PUBMED=
SUBMITUSER=RReher
LIBRARYQUALITY=3
SPECTRUMID=CCMSLIB00005720212
SCANS=1
56.996449 69.0 
68.017097 174.0 
74.029724 2143.0 
91.02626 213.0 
103.028389 189.0 
107.023659 117.0 
110.034714 95.0 
113.043518 80.0 
114.065422 570.0 
119.023773 181.0 
120.028191 76.0 
120.05587 11168.0 
121.00489 72.0 
121.059151 1089.0 
122.055046 61.0 
123.065605 65.0 
125.045998 74.0 
132.285858 65.0 
134.035858 106.0 
135.044495 295.0 
135.072189 98.0 
136.048218 106.0 
137.435791 61.0 
139.062622 464.0 
140.046738 70.0 
140.067734 81.0 
141.04364 90.0 
142.063736 3633.0 
143.066818 303.0 
146.073425 360.0 
148.052673 232.0 
150.069626 61744.0 
151.072876 5873.0 
152.041901 71.0 
152.077652 433.0 
153.048553 165.0 
155.061462 139.0 
155.097046 106.0 
157.076385 725.0 
158.075195 4072.0 
159.078293 821.0 
160.080444 66.0 
167.061951 3496.0 
168.06633 443.0 
169.078812 68.0 
170.077713 1585.0 
171.078949 184.0 
173.070496 358.0 
173.113159 75.0 
175.085022 66.0 
176.090942 83.0 
178.066574 341.0 
179.062515 2634.0 
180.063309 318.0 
183.090958 63.0 
184.766586 62.0 
185.074478 470.0 
186.077591 116.0 
187.104218 16882.0 
187.176773 72.0 
188.107605 2085.0 
188.692276 61.0 
189.109329 124.0 
190.101562 88.0 
192.081268 88.0 
193.086136 63.0 
194.078705 107.0 
195.05899 171.0 
196.084061 315.0 
197.110596 952.0 
198.074417 329.0 
198.114594 205.0 
199.088623 329.0 
200.096756 139.0 
204.054596 64.0 
205.081711 96.0 
206.071365 376.0 
207.053131 84.0 
208.465515 77.0 
210.108521 76.0 
213.086456 107.0 
214.617065 76.0 
214.838181 65.0 
215.101593 47797.0 
215.174713 61.0 
215.602859 121.0 
216.104675 6347.0 
217.107269 781.0 
217.646164 94.0 
218.081589 89.0 
220.090729 93.0 
220.117264 63.0 
221.12146 72.0 
222.105972 97.0 
222.60936 72.0 
223.091217 99.0 
224.087173 725.0 
224.123199 70.0 
224.270569 60.0 
225.023697 71.0 
225.107178 2645.0 
226.07019 1083.0 
226.111252 420.0 
227.073303 278.0 
227.099548 149.0 
232.096008 88.0 
233.110138 97.0 
234.073669 136.0 
234.10556 64.0 
236.088608 66.0 
238.101944 183.0 
241.082748 988.0 
241.115723 170.0 
241.1745 72.0 
242.098801 543.0 
242.527878 66.0 
242.706161 82.0 
243.098602 122779.0 
243.294418 85.0 
243.335358 63.0 
243.664398 82.0 
244.101761 20250.0 
244.163513 97.0 
245.104904 1557.0 
245.683578 72.0 
245.973633 62.0 
246.108261 116.0 
248.109467 196.0 
249.144012 822.0 
250.064743 63.0 
250.105225 3293.0 
250.152496 215.0 
251.108154 602.0 
252.111282 139.0 
253.118698 153.0 
254.141327 121.0 
257.075745 139.0 
261.110901 1452.0 
262.113251 341.0 
264.121857 268.0 
265.113068 76.0 
265.140839 76.0 
266.133362 127.0 
267.070557 71.0 
267.131958 138.0 
268.016327 63.0 
268.116455 28143.0 
269.120026 3926.0 
270.121552 260.0 
270.851105 64.0 
272.095703 93.0 
273.110962 166.0 
274.144409 94.0 
277.14209 1111.0 
278.101501 141.0 
278.146637 265.0 
279.106201 62.0 
280.12442 146.0 
280.15387 370.0 
281.116974 299.0 
282.131531 384.0 
283.135986 146.0 
284.150482 224.0 
285.14856 146.0 
286.127167 439.0 
290.135681 99.0 
292.695892 71.0 
295.153992 23296.0 
296.158081 4154.0 
297.158356 993.0 
298.144073 8164.0 
299.147583 1783.0 
300.150574 283.0 
301.130005 67.0 
306.822815 65.0 
308.118347 7236.0 
308.146851 3798.0 
308.196777 63.0 
308.993622 76.0 
309.120209 1449.0 
309.151855 648.0 
309.722931 66.0 
310.124817 375.0 
313.15213 61.0 
314.138031 231.0 
314.177338 97.0 
316.187836 96.0 
321.146179 534.0 
322.140472 76.0 
323.123962 61.0 
323.167664 464.0 
325.146667 642.0 
326.140808 16919.0 
327.143433 3230.0 
328.146454 545.0 
329.147827 131.0 
331.159882 66.0 
332.187256 810.0 
333.188232 218.0 
335.168152 342.0 
336.166351 237.0 
337.193054 60.0 
339.119171 60.0 
339.157043 204.0 
339.1875 174.0 
340.187622 138.0 
341.201538 146.0 
342.175171 176.0 
343.178741 110.0 
344.172119 591.0 
345.158325 292.0 
347.162781 1105.0 
348.165649 191.0 
350.199371 2847.0 
351.164062 1025.0 
351.20224 554.0 
352.10672 73.0 
352.167938 266.0 
353.176758 99.0 
354.132355 209.0 
355.056915 61.0 
357.195557 88.0 
359.025055 91.0 
360.187805 384.0 
361.188843 173.0 
362.168732 99.0 
363.161987 680.0 
364.156708 240.0 
364.201019 174.0 
365.172638 1673.0 
366.176544 313.0 
366.224182 81.0 
368.183685 86.0 
373.181366 339.0 
374.180664 232.0 
375.161682 584.0 
376.179474 101.0 
378.194092 139.0 
380.176025 83.0 
382.164856 273.0 
383.185425 322.0 
384.18277 72.0 
385.198334 155.0 
390.435303 69.0 
391.098145 94.0 
391.191101 13740.0 
392.192932 4355.0 
393.194733 699.0 
395.187073 115.0 
396.210785 93.0 
397.220886 204.0 
398.200439 78.0 
399.196899 77.0 
400.197113 90.0 
401.169952 67.0 
402.196808 60.0 
402.631836 61.0 
402.907593 63.0 
403.1633 130.0 
403.196991 61.0 
405.170898 70.0 
406.193665 241.0 
407.194122 102.0 
408.192352 106.0 
408.210571 110.0 
409.20224 44332.0 
409.319855 161.0 
409.842743 67.0 
410.204926 10514.0 
411.208496 1701.0 
412.21286 180.0 
412.823212 73.0 
415.221802 78.0 
418.015381 60.0 
418.088409 66.0 
418.32666 96.0 
418.684387 74.0 
418.784973 68.0 
418.937256 84.0 
419.082367 74.0 
419.158447 184.0 
419.318726 72.0 
419.373718 61.0 
419.449738 145.0 
419.573853 117.0 
419.610809 60.0 
419.686401 61.0 
419.726074 67.0 
419.752991 85.0 
419.845428 133.0 
419.89325 100.0 
420.06073 359.0 
420.186005 265108.0 
420.311951 221.0 
420.469879 73.0 
420.507202 104.0 
420.596527 68.0 
420.643738 74.0 
420.676941 120.0 
420.745361 127.0 
420.800415 167.0 
420.898895 81.0 
421.029785 144.0 
421.189514 74640.0 
421.283844 120.0 
421.303314 137.0 
421.432861 87.0 
421.503662 116.0 
421.817749 106.0 
421.965546 68.0 
422.192139 10995.0 
422.40686 64.0 
422.450317 71.0 
422.580444 62.0 
423.193787 1536.0 
423.422974 63.0 
423.501373 78.0 
423.550476 78.0 
423.615417 62.0 
423.657166 124.0 
423.733124 123.0 
423.765106 118.0 
423.844727 93.0 
423.913147 117.0 
423.947601 78.0 
424.070953 81.0 
424.204376 211.0 
424.265533 109.0 
425.237366 285.0 
426.210602 117.0 
426.263336 62.0 
427.213348 1684.0 
428.21463 290.0 
429.227509 90.0 
430.179535 65.0 
433.238159 153.0 
434.243744 74.0 
435.219452 136.0 
437.173798 309.0 
438.199371 246.0 
439.207672 187.0 
442.225861 104.0 
442.256012 96.0 
443.228516 1013.0 
444.227997 352.0 
445.197174 310.0 
445.242065 235.0 
446.231995 111.0 
447.203644 138.0 
448.199738 100.0 
451.247101 200.0 
453.241364 65.0 
453.341278 76.0 
459.232849 83.0 
460.243408 105.0 
461.232758 1619.0 
462.235565 354.0 
463.217957 105.0 
464.230103 204.0 
465.219238 165.0 
466.214355 213.0 
467.20752 67.0 
468.240875 116.0 
470.16391 107.0 
473.235413 71.0 
474.214081 135.0 
475.196808 468.0 
476.205292 136.0 
477.232208 71.0 
478.226044 77.0 
479.208588 154.0 
479.244415 362.0 
480.253143 132.0 
481.25174 67.0 
484.221405 408.0 
485.236511 392.0 
486.237305 86.0 
487.219604 84.0 
489.232391 364.0 
490.231232 250.0 
491.256836 85.0 
492.222992 1324.0 
493.225494 429.0 
494.196442 117.0 
498.265747 135.0 
498.75116 70.0 
500.244904 103.0 
501.213989 934.0 
501.716522 489.0 
501.852966 76.0 
502.214539 185.0 
503.13916 152.0 
503.225159 26259.0 
503.308594 91.0 
503.717377 88.0 
503.946289 64.0 
504.229401 9786.0 
504.960693 63.0 
505.179718 119.0 
505.230377 1444.0 
506.230164 317.0 
507.362152 77.0 
508.266418 290.0 
509.266907 176.0 
510.231934 1318.0 
511.23526 414.0 
512.223083 72.0 
513.223572 81.0 
519.256165 2207.0 
520.221191 262.0 
520.26123 709.0 
521.243408 356.0 
522.242249 141.0 
523.265564 115.0 
525.279846 61.0 
526.283752 1752.0 
527.282654 533.0 
528.243286 336.0 
529.246399 102.0 
529.297363 68.0 
536.273071 82.0 
537.2677 8235.0 
538.271545 2789.0 
539.279724 649.0 
540.272034 99.0 
541.244385 82.0 
543.253662 71.0 
543.298523 119.0 
544.270813 364.0 
545.274658 78.0 
546.298706 76.0 
550.262268 70.0 
554.266113 130.0 
557.281677 84.0 
559.254395 240.0 
560.263672 95.0 
561.294861 82.0 
562.285278 1388.0 
563.289856 389.0 
564.24353 61.0 
564.308716 97.0 
568.287537 101.0 
574.276184 71.0 
574.323059 183.0 
575.300476 94.0 
576.299744 526.0 
577.298889 131.0 
579.297913 158.0 
580.309875 89.0 
581.280823 78.0 
582.303833 61.0 
586.281799 388.0 
587.287537 135.0 
589.289368 209.0 
590.330261 92.0 
592.329285 385.0 
593.3349 92.0 
598.23761 63.0 
599.312866 101.0 
602.240784 67.0 
602.315002 1894.0 
603.314941 733.0 
604.27948 325.0 
604.31366 278.0 
605.310181 860.0 
606.321533 149.0 
607.289734 621.0 
608.305481 250.0 
613.333252 81.0 
614.332458 79.0 
615.247742 69.0 
615.294861 196.0 
616.341736 105.0 
619.295898 81.0 
620.321716 3057.0 
621.327148 1449.0 
622.334351 303.0 
623.312378 181.0 
624.316101 97.0 
625.300842 171.0 
627.314575 474.0 
628.324707 205.0 
630.335205 66.0 
631.326904 96.0 
633.304077 2034.0 
634.30481 884.0 
635.321838 127.0 
637.295593 98.0 
638.357788 414.0 
639.34967 205.0 
641.328247 210.0 
642.34845 77.0 
643.278748 84.0 
644.00824 242.0 
644.315491 65.0 
645.012207 110.0 
651.314697 2115.0 
652.315918 924.0 
653.331238 174.0 
655.321472 67.0 
657.335266 146.0 
658.327454 450.0 
659.332092 258.0 
660.343323 175.0 
667.341919 128.0 
668.362305 61.0 
669.319275 2203.0 
670.327209 1122.0 
671.316528 143.0 
675.347229 619.0 
676.359253 185.0 
685.343323 3108.0 
686.346741 1300.0 
687.332458 442.0 
688.327759 170.0 
688.384216 82.0 
702.390076 86.0 
703.221985 90.0 
703.364624 18092.0 
704.366394 8144.0 
705.370361 2168.0 
706.37146 402.0 
707.348389 123.0 
720.393555 298.0 
721.360229 332.0 
722.385193 121.0 
723.370605 94.0 
724.363831 114.0 
731.341919 597.0 
732.346252 372.0 
733.337585 104.0 
740.383972 121.0 
743.344971 83.0 
746.374756 65.0 
750.391113 278.0 
751.396606 94.0 
752.416321 122.0 
759.397949 109.0 
760.372986 265.0 
761.376038 178.0 
766.381287 80.0 
768.39032 722.0 
769.396667 427.0 
770.392761 63.0 
776.396912 375.0 
777.401794 121.0 
778.383911 70.0 
779.389099 83.0 
783.379456 64.0 
784.364563 169.0 
785.371033 77.0 
786.387695 982.0 
787.384521 455.0 
788.376221 200.0 
789.362427 174.0 
800.399292 126.0 
801.403809 81.0 
802.366943 63.0 
804.121094 60.0 
804.394775 19123.0 
805.399719 9075.0 
806.40332 2659.0 
807.405273 361.0 
808.404175 92.0 
810.380554 732.0 
811.39325 433.0 
814.375122 204.0 
815.387085 161.0 
818.42981 67.0 
828.392578 773.0 
829.398193 526.0 
830.404907 223.0 
832.403381 241.0 
833.394531 140.0 
834.427856 68.0 
844.428223 151.0 
846.306885 98.0 
846.40564 3515.0 
847.408813 2011.0 
848.335083 62.0 
848.41156 388.0 
849.395264 60.0 
849.443176 73.0 
850.4646 62.0 
851.431519 77.0 
857.421875 62.0 
858.417297 60.0 
873.458618 107.0 
875.441589 491.0 
876.448608 287.0 
877.437256 174.0 
883.352844 65.0 
883.460449 142.0 
884.471436 89.0 
885.468506 63.0 
889.488098 92.0 
890.484375 65.0 
899.458008 199.0 
900.457214 150.0 
901.139954 86.0 
901.457642 847.0 
902.476074 325.0 
903.473389 117.0 
909.457581 307.0 
910.463196 171.0 
911.464355 99.0 
917.478943 2142.0 
918.482666 1126.0 
919.485046 261.0 
927.469055 4384.0 
928.466187 2630.0 
929.471313 714.0 
930.474243 180.0 
943.158569 71.0 
943.505432 71.0 
943.870911 67.0 
944.207031 62.0 
944.532471 75.0 
944.826904 65.0 
945.015747 83.0 
945.476624 64639.0 
945.680908 134.0 
945.807861 67.0 
946.00293 109.0 
946.228027 69.0 
946.304016 92.0 
946.479736 38908.0 
946.612793 116.0 
946.726746 86.0 
946.980591 76.0 
947.380432 174.0 
947.484741 11429.0 
947.61499 69.0 
947.676514 69.0 
948.487305 2429.0 
949.490295 287.0 
950.368164 99.0 
950.466858 88.0 
950.75592 83.0 
950.945007 76.0 
951.106262 62.0 
951.746094 63.0 
952.241272 89.0 
963.477173 179.0 
END IONS

