BEGIN IONS
PEPMASS=1073.44
CHARGE=1+
MSLEVEL=2
SOURCE_INSTRUMENT=LC-ESI-Orbitrap
FILENAME=f.RReher/Culebra/pure_compounds/1071_Br_LoggerpeptinA2/SPE1-1-18_LoggerA2_MS2_M+H_QE.mgf;
SEQ=*..*
IONMODE=Positive
ORGANISM=GNPS-LIBRARY
NAME=Loggerpeptin A2 M+H
PI=Gerwick
DATACOLLECTOR=Raphael Reher
SMILES=C[C@@H](C(N[C@H](C(N[C@H]1[C@@H](C)OC([C@H](C(C)C)NC(C(CC2=CC=C(O)C(Br)=C2)N(C)C([C@H](CC3=CC=CC=C3)N4[C@H](O)CCC(NC([C@H](CC(C)C)NC1=O)=O)C4=O)=O)=O)=O)=O)[C@@H](O)C)=O)NC(CCC)=O
INCHI=
INCHIAUX=
PUBMED=
SUBMITUSER=RReher
LIBRARYQUALITY=3
SPECTRUMID=CCMSLIB00005723409
SCANS=1
76.630089 2904.563477 
76.630722 4534.762695 
76.631363 6176.140625 
76.631996 7002.526855 
76.632637 6510.003906 
76.63327 4929.009766 
76.633904 3165.37085 
76.635178 3393.979736 
76.635818 6153.234863 
76.636452 9405.907227 
76.637085 11271.853516 
76.637726 10545.969727 
76.638359 7671.73584 
76.639 4300.460449 
76.639633 1870.283447 
76.641541 2498.727783 
76.642181 5443.612793 
76.642815 8872.953125 
76.643448 10786.666992 
76.644089 9640.102539 
76.644722 3516.657715 
76.646637 5561.812012 
76.64727 11575.495117 
76.647903 11148.129883 
76.648544 6768.432129 
76.649178 2570.309814 
76.649818 2463.154053 
76.650452 5974.52002 
76.651093 8954.634766 
76.651726 8238.742188 
76.652359 4721.761719 
76.653 1587.211792 
86.094254 1363.949463 
86.095009 6888.19043 
86.095764 16370.366211 
86.096527 26622.314453 
86.097282 28270.179688 
86.098038 18744.679688 
86.098801 9331.438477 
86.099556 2787.904053 
86.100311 1524.519165 
88.781059 2173.360107 
88.781853 4111.229004 
88.782646 5105.854004 
88.78344 4386.710938 
88.784233 2412.573242 
89.785271 2247.343018 
89.786079 3897.24707 
89.786888 4674.413574 
89.787689 4097.730957 
89.788498 2503.317383 
91.053345 3458.026367 
91.054169 5363.73584 
91.054993 6160.371094 
91.055817 5168.399414 
91.056641 2975.922119 
91.595535 3286.602539 
91.596367 5888.248535 
91.597198 7104.651367 
91.59803 6102.269043 
91.598862 3648.689697 
114.088036 2484.979736 
114.089188 7928.743652 
114.090347 16408.822266 
114.091499 25343.052734 
114.092659 25170.382812 
114.093811 15701.449219 
114.094971 6882.587402 
114.096123 822.374695 
115.261703 2335.553223 
115.262878 4137.067383 
115.264053 4906.631836 
115.265228 4156.444824 
115.266403 2384.512207 
120.074066 1664.532349 
120.075317 2680.36377 
120.076561 8176.541016 
120.077812 29270.728516 
120.079063 66419.195312 
120.080307 106581.664062 
120.081558 114863.695312 
120.082802 77157.664062 
120.084053 39203.023438 
120.085304 10717.726562 
120.086548 2889.527344 
120.087799 2252.287598 
139.083176 2704.875488 
139.084732 6098.813477 
139.086288 8545.666992 
139.087845 8213.385742 
139.089401 5376.259277 
139.090958 2148.364746 
142.078964 1022.019226 
142.080582 5397.568848 
142.082184 21299.695312 
142.083786 47102.519531 
142.085388 75004.382812 
142.087006 78874.039062 
142.088608 52034.304688 
142.09021 25916.275391 
142.091827 6721.940918 
142.09343 900.021057 
157.093475 1882.955078 
157.095337 4308.288574 
157.097198 6089.592773 
157.099075 5995.73291 
157.100937 4154.822266 
157.102814 1859.108887 
158.089859 2347.920898 
158.091736 7676.040039 
158.093628 14612.650391 
158.095505 21603.845703 
158.097397 20722.103516 
158.099274 13201.098633 
158.101166 6060.332031 
158.103058 2205.125244 
167.073425 2583.491943 
167.07547 8928.192383 
167.077515 28370.873047 
167.079575 49872.144531 
167.081619 66579.789062 
167.083664 53290.847656 
167.085709 31214.935547 
167.087769 10623.988281 
167.089813 2243.9729 
169.12822 1782.960083 
169.13031 4125.989258 
169.132401 6053.224609 
169.134476 6213.509277 
169.136566 4475.432129 
169.138657 2054.982666 
170.087769 968.835876 
170.089874 2669.064697 
170.09198 7847.222656 
170.094086 14568.255859 
170.096191 20295.714844 
170.098297 17256.980469 
170.100403 10382.554688 
170.102509 4213.929199 
170.104599 1224.651611 
172.106461 1770.528687 
172.108612 4370.675293 
172.110748 6601.517578 
172.112885 6956.509766 
172.115036 5285.477051 
172.117172 2742.02417 
185.083344 1360.848145 
185.085724 3626.589355 
185.08812 10504.370117 
185.0905 17920.189453 
185.092896 20996.765625 
185.095276 14787.285156 
185.097672 7898.652832 
185.100067 2086.950195 
187.067093 2677.129639 
187.069519 4797.57959 
187.071945 5731.812988 
187.074371 4844.911133 
187.076797 2778.390625 
187.115509 2638.186279 
187.117935 10758.345703 
187.120361 20703.435547 
187.122787 29761.195312 
187.125214 25635.3125 
187.12764 15262.984375 
187.130066 5877.336426 
187.132492 1417.75769 
215.104218 1298.629272 
215.107208 6517.623535 
215.110199 27738.197266 
215.113205 62603.765625 
215.116196 100066.78125 
215.119186 104918.648438 
215.122177 69548.414062 
215.125168 35015.277344 
215.128159 10618.005859 
215.131149 4571.783203 
215.13414 4567.679199 
215.137146 4325.39209 
215.140137 3184.271484 
215.143127 290.519562 
223.528061 2288.343018 
223.531235 4183.979004 
223.534409 5111.743164 
223.537582 4369.712402 
223.540741 2449.563232 
225.115036 2027.973511 
225.11824 5707.953125 
225.121445 9229.652344 
225.124649 10010.102539 
225.127853 7582.27832 
225.131058 3890.063965 
225.134262 1154.539185 
226.146927 3380.47583 
226.150162 6468.517578 
226.153381 8573.027344 
226.156601 8170.045898 
226.159836 5480.380859 
226.163055 2280.243652 
227.990311 848.023499 
227.993576 5202.241699 
227.996841 11945.925781 
228.000107 19033.150391 
228.003372 19080.691406 
228.006638 11735.883789 
228.009903 4930.490723 
228.013168 302.412445 
228.999374 1682.793335 
229.00267 4323.860352 
229.005951 6112.75 
229.009247 5640.649414 
229.012527 3415.81665 
229.975418 7274.121582 
229.978714 5286.152344 
229.982025 4990.931641 
229.985275 3795.099609 
229.988571 13646.22168 
229.991882 50257.25 
229.995193 101148.4375 
229.998505 153832.125 
230.001816 148067.328125 
230.005112 93723.609375 
230.008423 43199.738281 
230.011734 11787.613281 
230.015045 3475.795166 
230.018356 2473.200684 
243.098221 1552.375854 
243.101822 8377.720703 
243.105423 30631.322266 
243.109009 55204.253906 
243.11261 74518.382812 
243.116196 59457.023438 
243.119797 34874.609375 
243.123398 11781.367188 
243.126984 4221.205566 
243.130585 4062.065674 
243.134293 5185.564941 
243.137878 4612.670898 
243.141479 1553.75061 
252.159119 1354.317017 
252.162918 7243.382812 
252.166718 13658.660156 
252.170517 18709.880859 
252.174316 15014.6875 
252.178101 8727.317383 
252.1819 2947.974365 
252.185699 1102.569214 
255.550308 2758.80127 
255.554184 4620.818359 
255.55806 5227.50293 
255.561935 4057.859863 
255.565811 1966.124023 
282.13443 2866.311523 
282.138916 6381.994629 
282.143402 9239.598633 
282.147919 9311.941406 
282.152405 6438.627441 
282.156891 2704.650146 
283.171082 1659.050171 
283.175598 4550.494629 
283.180145 6560.087402 
283.184662 6085.336426 
283.189178 3615.23291 
298.163696 3133.435791 
298.168579 5768.833984 
298.173462 7310.83252 
298.178345 6500.82373 
298.183228 3783.702148 
306.499451 2120.290527 
306.504547 4258.541992 
306.509644 6652.758789 
306.514709 8826.597656 
306.519806 10164.503906 
306.524902 10114.082031 
306.529999 6736.930176 
306.55545 4932.987305 
306.560547 12231.364258 
306.565613 19507.416016 
306.570709 20195.146484 
306.575806 14084.385742 
306.580902 7316.68457 
306.585999 2692.339355 
306.591095 4172.049316 
306.596191 8615.049805 
306.601257 12303.787109 
306.606354 8987.805664 
306.61145 3068.937744 
306.616547 1519.685669 
308.134277 721.434265 
308.139404 4135.962402 
308.144531 20635.503906 
308.149658 68081.5625 
308.154785 120164.054688 
308.159912 161268.5625 
308.16507 129851.0 
308.170197 76910.15625 
308.175323 27840.332031 
308.18045 7855.612305 
308.185577 2593.445312 
309.152954 3498.184326 
309.158112 6250.172363 
309.163269 7769.100586 
309.168427 6842.146484 
309.173553 4057.054688 
309.178711 1425.989502 
311.168335 3801.729248 
311.173553 6606.854492 
311.178772 7477.087402 
311.18396 5840.086426 
311.189178 3000.276123 
326.146271 1115.331299 
326.151855 6390.725586 
326.15744 23639.748047 
326.163055 48983.613281 
326.16864 76122.148438 
326.174225 76308.921875 
326.17981 49174.683594 
326.185394 23745.626953 
326.190979 6302.628906 
326.196564 1042.66626 
328.18927 2120.527588 
328.194885 4971.754395 
328.200531 6813.282227 
328.206177 6244.128906 
328.211823 3754.931641 
329.700134 2608.279297 
329.705811 4668.607422 
329.711487 5588.265137 
329.717163 4829.114746 
329.722839 2971.163574 
375.050018 1322.220581 
375.056885 3439.962158 
375.063782 8050.644531 
375.070679 13000.504883 
375.077576 13610.029297 
375.084442 9035.723633 
375.091339 3706.408691 
375.098236 1416.284302 
388.011353 1279.448486 
388.018585 3837.02417 
388.025848 10056.560547 
388.033081 15630.087891 
388.040344 15362.064453 
388.047577 9684.291992 
388.05484 3496.939697 
388.062103 1087.633423 
393.239655 3680.977783 
393.24704 5996.813965 
393.254456 6408.654297 
393.261841 4597.700195 
393.269226 1926.842896 
439.224365 1719.34021 
439.233093 7797.409668 
439.241852 16966.703125 
439.25058 26818.873047 
439.259308 27825.318359 
439.268036 18163.408203 
439.276764 8718.164062 
439.285492 1914.036621 
499.079498 2333.688721 
499.090088 5325.096191 
499.100677 7356.178711 
499.111237 6786.353027 
499.121826 4043.886719 
500.05426 1496.775024 
500.06485 6448.441895 
500.07547 23915.068359 
500.08609 47505.15625 
500.09668 71456.03125 
500.1073 67124.125 
500.117889 41726.214844 
500.12851 18390.582031 
500.13913 4280.310547 
500.149719 908.244385 
689.460876 2283.455078 
689.478088 4404.961914 
689.495239 5505.214844 
689.51239 4925.983398 
689.529602 3138.415527 
725.204224 3743.03833 
725.222717 5959.501465 
725.241272 6804.461426 
725.259766 5773.724609 
725.27832 3591.583496 
809.983215 2519.211426 
810.005066 4746.989746 
810.026917 5942.213867 
810.048767 5342.643555 
810.070679 3460.829102 
948.934082 3120.075928 
948.961792 5277.117676 
948.989502 6056.935059 
949.017273 4904.314941 
949.044983 2661.254883 
END IONS

