BEGIN IONS
PEPMASS=547.266
CHARGE=1+
COMPOUNDNAME=MoNA:2880372 Antimycin A1
LIBRARYQUALITY=3
SMILES=N/A
INCHIKEY=UIFFUZWRFRDZJC-UHFFFAOYSA-N
INCHI=InChI=1S/C28H40N2O9/c1-6-7-8-9-11-20-25(39-22(32)14-16(2)3)18(5)38-28(36)23(17(4)37-27(20)35)30-26(34)19-12-10-13-21(24(19)33)29-15-31/h10,12-13,15-18,20,23,25,33H,6-9,11,14H2,1-5H3,(H,29,31)(H,30,34)
MSLEVEL=2
SOURCE_INSTRUMENT=LC-ESI-QTOF-LC-ESI-QTOF
FILENAME=output_mgf.mgf
SEQ=*..*
IONMODE=
ORGANISM=MONA
NAME=MoNA:2880372 Antimycin A1 [M-H]-
PI=MoNA
DATACOLLECTOR=MoNA
PUBMED=N/A
SUBMITUSER=mwang87
TAGS=
SPECTRUMID=CCMSLIB00000569361
SCANS=6612
100.0403 1.259756 
101.0601 37.210735 
101.0882 1.191291 
101.1049 0.540874 
101.1178 0.438176 
101.1293 0.150623 
101.1535 0.595646 
101.2229 0.13693 
104.1989 0.150623 
107.034 0.239628 
107.0449 0.205395 
108.0444 11.700671 
108.075 0.424483 
108.0923 0.27386 
108.1422 0.178009 
108.6811 0.164316 
112.0038 0.150623 
117.0455 6.33986 
118.0319 0.267014 
118.7094 0.184856 
126.0184 0.184856 
129.0466 0.219088 
129.0932 0.15747 
130.0657 0.41079 
133.0401 13.898398 
133.0735 0.472409 
133.1018 0.178009 
133.1492 0.205395 
134.0224 0.143777 
134.7712 0.267014 
135.0346 0.472409 
136.0387 2.91661 
137.9184 0.171163 
145.0771 1.355607 
145.1025 0.164316 
146.0622 0.342325 
151.0565 0.383404 
155.0582 0.54772 
158.0497 0.424483 
158.0604 0.178009 
161.0346 31.185814 
161.0717 1.273449 
161.0926 0.232781 
161.122 0.287553 
161.1525 0.417637 
161.2114 0.239628 
161.3628 0.15747 
161.3961 0.15747 
162.0363 0.13693 
162.0492 0.41079 
163.0266 0.308093 
163.0619 0.869506 
164.0706 0.780501 
171.0562 0.41079 
172.0588 0.171163 
173.0718 9.769958 
173.1135 0.465562 
173.1924 0.178009 
175.0097 0.143777 
175.0293 0.506641 
175.0493 0.27386 
180.0274 0.643571 
186.5974 0.13693 
189.0649 0.753115 
190.0354 0.540874 
190.0728 4.121594 
190.1137 0.150623 
191.0816 100.0 
191.1132 0.349172 
191.1244 2.985075 
191.1466 1.129673 
191.178 0.15747 
191.2096 1.273449 
191.2476 0.267014 
191.275 0.225935 
191.2961 0.397097 
191.35 0.527181 
191.3909 0.403944 
191.4241 0.178009 
191.4506 0.205395 
191.4711 0.246474 
191.5255 0.2944 
191.5654 0.451869 
191.5893 0.15747 
191.6078 0.246474 
191.6497 0.178009 
191.7117 0.260167 
191.7671 0.308093 
191.7959 0.212242 
191.8454 0.184856 
191.9458 0.267014 
191.9762 0.143777 
192.01 0.178009 
192.083 0.575106 
192.15 0.184856 
192.2219 0.191702 
192.315 0.164316 
192.4301 0.198549 
192.467 0.191702 
201.0685 0.492948 
203.0486 0.383404 
208.1318 0.150623 
216.0585 0.212242 
216.9993 0.225935 
217.062 3.142544 
218.031 0.513488 
218.0676 1.430919 
218.0914 0.184856 
219.0764 16.102971 
219.1154 0.766808 
219.1421 0.41079 
219.2144 0.15747 
219.2366 0.171163 
234.0649 1.09544 
235.0706 0.205395 
244.0502 0.451869 
245.0563 3.142544 
245.096 0.219088 
262.0552 0.84212 
262.0757 0.184856 
263.0661 0.862659 
283.1853 0.15747 
311.1999 0.150623 
329.2235 0.862659 
357.2171 0.171163 
373.2118 0.403944 
397.2386 0.150623 
401.2113 1.25291 
401.2643 0.143777 
407.549 0.143777 
408.1575 0.191702 
END IONS

