BEGIN IONS
PEPMASS=566.12
CHARGE=1+
MSLEVEL=2
SOURCE_INSTRUMENT=LC-ESI-QQQ
FILENAME=f.evgenia_glukhov/Standards/ASI-3-H-conc.mzXML;
SEQ=*..*
IONMODE=Positive
ORGANISM=GNPS-LIBRARY
NAME=Vatiamide B M+H
PI=Gerwick
DATACOLLECTOR=Nathan Moss
SMILES=Cl/C=C(CC[C@@H](C)/C=C/CCC(N(C)C(C(OC)=O)CC1=CC=C(OC)C=C1)=O)/CCCC#CBr
INCHI=
INCHIAUX=
PUBMED=31071229
SUBMITUSER=evgenia_glukhov
LIBRARYQUALITY=3
SPECTRUMID=CCMSLIB00005436466
SCANS=454
200.097687 3404.0 
218.866272 2008.0 
236.048859 5810.0 
236.758881 842.0 
258.823853 4596.0 
306.435913 10046.0 
309.493286 1052.0 
348.115234 4218.0 
349.23175 2928.0 
356.075195 11878.0 
406.106506 899962.0 
407.118713 139562.0 
407.77771 3.0 
414.422546 1438.0 
421.05719 2167.0 
424.121887 6185.0 
478.086487 1677.0 
481.187195 32529.0 
482.106079 1480.0 
506.97644 1857.0 
508.843567 2768.0 
511.099548 49409.0 
512.047729 18107.0 
539.099609 6428.0 
550.969971 739.0 
568.460449 6216.0 
570.20166 2057.0 
END IONS

