BEGIN IONS
PEPMASS=1015.52
CHARGE=1+
MSLEVEL=2
SOURCE_INSTRUMENT=LC-ESI-qTof
FILENAME=f.RReher/Culebra/CUR6APR19-1/High_Res_Dorrestein/MaXis/pure_compounds/2286_crude_3.18min_1015.5183_MS2_M+Na_LoggerpeptinA.mgf;
SEQ=*..*
IONMODE=Positive
ORGANISM=GNPS-LIBRARY
NAME=Loggerpeptin A M+Na
PI=Gerwick
DATACOLLECTOR=Raphael Reher
SMILES=C[C@@H](C(N[C@H](C(N[C@H]1[C@@H](C)OC([C@H](C(C)C)NC(C(CC2=CC=C(O)C=C2)N(C)C([C@H](CC3=CC=CC=C3)N4[C@H](O)CCC(NC([C@H](CC(C)C)NC1=O)=O)C4=O)=O)=O)=O)=O)[C@@H](O)C)=O)NC(CCC)=O
INCHI=
INCHIAUX=
PUBMED=
SUBMITUSER=RReher
LIBRARYQUALITY=3
SPECTRUMID=CCMSLIB00005720216
SCANS=1
114.071014 68.0 
140.084824 122.0 
150.069901 1265.0 
151.074844 78.0 
167.058929 66.0 
178.06871 68.0 
212.078461 83.0 
215.105301 203.0 
216.101395 91.0 
243.099533 493.0 
248.103302 64.0 
251.134186 64.0 
264.120911 63.0 
269.13269 62.0 
274.130554 86.0 
295.157013 223.0 
296.160156 64.0 
304.133759 176.0 
308.119141 481.0 
308.149445 177.0 
309.155029 90.0 
326.159058 345.0 
327.163513 106.0 
328.124115 77.0 
331.134247 61.0 
334.166443 685.0 
352.180267 433.0 
353.177277 122.0 
370.192108 161.0 
389.213135 219.0 
393.250458 66.0 
393.305908 63.0 
395.677124 105.0 
396.179657 82.0 
405.178131 94.0 
414.196991 78.0 
420.185272 1993.0 
421.187408 279.0 
421.248871 208.0 
422.195679 129.0 
433.236694 215.0 
434.226807 68.0 
435.229889 78.0 
435.684723 184.0 
436.175903 105.0 
436.686646 79.0 
439.249939 737.0 
440.256195 161.0 
443.218719 117.0 
444.681854 123.0 
446.191315 61.0 
447.254913 64.0 
449.198883 141.0 
457.700073 294.0 
458.203705 143.0 
459.196259 95.0 
461.240845 85.0 
465.267029 442.0 
466.111908 78.0 
466.709045 96.0 
467.120636 77.0 
467.204407 158.0 
474.20166 80.0 
478.260864 79.0 
483.249268 62.0 
483.288391 68.0 
485.221039 562.0 
485.722748 368.0 
486.214478 143.0 
493.202667 94.0 
494.226379 1275.0 
494.726837 692.0 
495.219116 138.0 
497.231354 129.0 
498.229126 171.0 
498.728485 74.0 
501.376404 62.0 
502.258759 183.0 
502.319183 62.0 
503.276764 71.0 
507.233826 775.0 
507.734283 485.0 
508.239441 109.0 
508.738831 82.0 
509.242645 80.0 
514.258789 66.0 
514.728455 150.0 
514.994141 82.0 
515.218933 90.0 
515.324951 69.0 
515.440674 69.0 
515.610596 80.0 
515.707153 79.0 
516.239624 20209.0 
516.659668 135.0 
516.74115 12211.0 
516.949097 76.0 
517.157898 108.0 
517.242676 4931.0 
517.744629 1056.0 
518.239807 702.0 
518.734863 252.0 
519.233459 100.0 
520.228271 88.0 
521.242676 81.0 
522.239197 73.0 
523.178833 85.0 
523.218201 70.0 
524.181824 81.0 
524.225037 669.0 
524.730713 212.0 
525.752686 78.0 
526.24408 82.0 
529.291626 70.0 
530.26416 153.0 
532.167236 78.0 
534.282837 65.0 
535.277161 77.0 
537.270813 72.0 
546.293457 206.0 
547.29541 219.0 
548.264282 115.0 
559.253113 271.0 
560.251526 98.0 
573.299133 156.0 
574.282776 171.0 
578.271606 77.0 
588.275452 65.0 
591.268311 103.0 
591.308838 196.0 
592.193298 73.0 
592.292908 118.0 
597.758972 88.0 
609.314026 83.0 
620.208313 113.0 
631.279907 140.0 
633.283875 67.0 
649.348999 115.0 
677.351074 121.0 
689.403931 70.0 
690.287964 77.0 
690.34906 1056.0 
691.352905 467.0 
692.372864 70.0 
693.369995 398.0 
694.361084 168.0 
695.33728 399.0 
696.333252 192.0 
711.300293 101.0 
715.382568 73.0 
716.335876 89.0 
717.387451 67.0 
718.015991 69.0 
721.348694 376.0 
722.360474 239.0 
733.409424 302.0 
734.405884 78.0 
735.381897 81.0 
739.367126 634.0 
740.366272 280.0 
743.335754 82.0 
755.366699 113.0 
773.388611 884.0 
774.391541 517.0 
775.408813 109.0 
783.378845 79.0 
799.374207 94.0 
807.392639 70.0 
810.413818 177.0 
811.41864 82.0 
829.390503 76.0 
834.456848 76.0 
835.453064 106.0 
836.407776 99.0 
836.454163 105.0 
854.411926 777.0 
855.405396 368.0 
856.430237 220.0 
872.419556 164.0 
873.428772 136.0 
874.452576 140.0 
876.443665 69.0 
880.422363 190.0 
881.444031 74.0 
882.431091 61.0 
885.434387 71.0 
898.189514 88.0 
898.433655 1291.0 
899.438171 620.0 
900.458618 210.0 
901.449219 89.0 
916.447632 377.0 
917.468689 194.0 
921.456848 61.0 
927.468323 425.0 
928.481995 125.0 
930.449097 65.0 
953.475464 948.0 
954.481995 613.0 
955.47229 149.0 
956.481689 87.0 
962.218079 67.0 
969.443298 214.0 
969.520447 219.0 
970.505371 105.0 
971.374817 179.0 
971.491333 8014.0 
972.142395 66.0 
972.33075 94.0 
972.494507 4367.0 
972.76709 73.0 
973.209045 64.0 
973.502686 1384.0 
974.032654 68.0 
974.49939 432.0 
975.528137 235.0 
976.534729 140.0 
977.500305 112.0 
979.498413 226.0 
980.49585 75.0 
987.452698 377.0 
987.528015 348.0 
987.683472 65.0 
988.451843 259.0 
989.447815 135.0 
990.503418 81.0 
990.984253 62.0 
993.482422 69.0 
997.292725 80.0 
997.509399 3989.0 
997.903809 91.0 
998.054749 73.0 
998.358582 61.0 
998.511658 2443.0 
999.511658 932.0 
1000.340942 74.0 
1000.518799 344.0 
1000.656006 65.0 
1000.848206 71.0 
1001.549133 118.0 
1002.51001 66.0 
1002.556458 76.0 
1005.003662 61.0 
1005.951416 61.0 
1009.663452 63.0 
1010.55603 86.0 
1010.745117 76.0 
1011.485291 402.0 
1012.148682 67.0 
1012.379028 159.0 
1012.501587 2564.0 
1012.7146 112.0 
1012.866211 89.0 
1013.008972 2334.0 
1013.160828 75.0 
1013.292725 114.0 
1013.34198 138.0 
1013.42218 150.0 
1013.513672 1566.0 
1013.694763 133.0 
1013.852539 132.0 
1013.933472 81.0 
1014.010864 980.0 
1014.152527 171.0 
1014.258911 145.0 
1014.353943 182.0 
1014.42218 137.0 
1014.506348 623.0 
1014.583679 198.0 
1014.672729 145.0 
1014.777405 146.0 
1014.838135 109.0 
1014.916748 273.0 
1015.008972 360.0 
1015.070923 251.0 
1015.18988 365.0 
1015.25592 407.0 
1015.518372 298284.0 
END IONS

