BEGIN IONS
PEPMASS=461.0
CHARGE=0+
MSLEVEL=2
SOURCE_INSTRUMENT=LC-ESI-Ion Trap
FILENAME=20121103_Jenia_Ger_Barbamide_MH_461_qb.1.1..mgf
SEQ=*..*
IONMODE=Positive
ORGANISM=GNPS-LIBRARY
NAME=Barbamide M+H
PI=Gerwick
DATACOLLECTOR=Jenia
SMILES=CO\C(CC(C)C(Cl)(Cl)Cl)=C\C(=O)N(C)C(CC1=CC=CC=C1)C1=NC=CS1
INCHI=InChI=1S/C20H23Cl3N2O2S/c1-14(20(21,22)23)11-16(27-3)13-18(26)25(2)17(19-24-9-10-28-19)12-15-7-5-4-6-8-15/h4-10,13-14,17H,11-12H2,1-3H3/b16-13+
INCHIAUX=UGNRFJOMRFTXSQ-DTQAZKPQSA-N
PUBMED=N/A
SUBMITUSER=mwang87
LIBRARYQUALITY=1
SPECTRUMID=CCMSLIB00000001575
SCANS=1
133.944092 3844172.0 
134.632446 76.0 
142.687683 47917.0 
170.935974 158585.0 
173.106415 61483.0 
178.952393 64075.0 
188.098694 617251.0 
188.879364 21.0 
206.736328 801347.0 
218.758698 27247216.0 
242.73822 2930930.0 
243.486237 17.0 
247.337311 52012.0 
273.700562 243094.0 
343.821899 96578.0 
425.012634 75621.0 
428.471863 153934.0 
429.140015 129399.0 
430.152832 58318.0 
END IONS

