BEGIN IONS
PEPMASS=955.514
CHARGE=1+
MSLEVEL=2
SOURCE_INSTRUMENT=LC-ESI-Orbitrap
FILENAME=f.RReher/Culebra/pure_compounds/955/SPE1-1-7_955.5074_MS2_M+H_QE.mgf;
SEQ=*..*
IONMODE=Positive
ORGANISM=GNPS-LIBRARY
NAME=Rivulariapeptolide 954 M+H
PI=Gerwick
DATACOLLECTOR=Raphael Reher
SMILES=CC(C)[C@H](NC([C@H](CC1=CC=C(O)C=C1)N(C)C([C@H](CC(C)C)N2[C@H](O)CC[C@H](NC(/C(NC3=O)=C\C)=O)C2=O)=O)=O)C(O[C@H](C)[C@@H]3NC([C@H]([C@@H](O)C)NC(C4CCCN4C(CCC)=O)=O)=O)=O
INCHI=
INCHIAUX=
PUBMED=
SUBMITUSER=RReher
LIBRARYQUALITY=3
SPECTRUMID=CCMSLIB00005723401
SCANS=1
76.550636 3791.637695 
76.55127 8505.832031 
76.55191 12052.876953 
76.552544 11833.375 
76.553177 7938.800781 
76.55381 3308.029053 
86.092926 18538.447266 
86.093689 25922.835938 
86.094444 71860.09375 
86.0952 235325.96875 
86.095963 463330.0625 
86.096718 697938.4375 
86.097473 664891.625 
86.098236 417536.375 
86.098991 187953.453125 
86.099747 46250.660156 
86.10051 12674.836914 
86.101181 14472.551758 
86.101936 12588.880859 
86.102699 21499.994141 
86.103455 103.378815 
98.058182 4436.125977 
98.059105 8217.777344 
98.06002 9820.216797 
98.060944 7820.951172 
98.061867 3657.32959 
120.627579 5734.506348 
120.628838 9200.770508 
120.630089 10178.359375 
120.631348 7798.494141 
120.632607 3658.085693 
121.062286 5024.023926 
121.063545 10682.888672 
121.064812 14380.235352 
121.066071 13329.748047 
121.067337 8449.205078 
121.068604 3365.443359 
124.106537 1648.916382 
124.107849 8357.982422 
124.109161 32207.707031 
124.110474 64431.019531 
124.111786 97169.265625 
124.113098 91332.335938 
124.114403 56546.828125 
124.115715 24594.925781 
124.117027 5261.959473 
124.11834 187.118179 
135.357452 4166.260254 
135.358948 8600.363281 
135.360443 10766.319336 
135.361938 9177.236328 
135.363434 5305.900879 
136.072769 3425.217773 
136.07428 7627.773438 
136.075775 10093.948242 
136.077286 8972.257812 
136.078796 5088.730469 
136.106049 2859.910156 
136.107544 4972.283691 
136.109055 16016.475586 
136.110565 30443.898438 
136.112076 43618.980469 
136.113571 38639.355469 
136.115082 22935.658203 
136.116592 8339.699219 
136.118088 193.193375 
140.095322 8082.464355 
140.096893 8334.555664 
140.098465 11720.395508 
140.100037 13813.623047 
140.101608 41469.035156 
140.10318 146536.90625 
140.104752 299269.6875 
140.106339 459669.46875 
140.10791 450020.96875 
140.109482 286657.78125 
140.111053 134259.03125 
140.112625 36383.957031 
140.114197 11521.023438 
140.115768 10193.702148 
140.11734 6917.097168 
140.118912 6837.347656 
140.120483 224.467834 
150.076569 3482.025635 
150.078323 7529.589844 
150.080063 20439.824219 
150.081802 32990.304688 
150.083542 41361.179688 
150.085297 126166.992188 
150.087036 445031.25 
150.088776 924364.1875 
150.09053 1436668.875 
150.09227 1443425.75 
150.094009 933356.25 
150.095764 453626.96875 
150.097504 129462.90625 
150.099243 43099.945312 
150.100983 34669.542969 
150.102737 22408.363281 
150.104477 8584.985352 
150.106216 2445.855957 
153.126862 4698.045898 
153.128662 7830.791504 
153.130463 9555.251953 
153.132263 31277.443359 
153.134064 114666.9375 
153.135849 244533.40625 
153.13765 383961.5 
153.13945 393825.4375 
153.141251 257828.21875 
153.143051 127787.234375 
153.144836 36914.898438 
153.146637 11677.610352 
153.148438 8002.641602 
153.150238 4721.75 
167.075531 3267.560791 
167.077576 8103.96875 
167.07962 12541.382812 
167.08168 13367.613281 
167.083725 10004.612305 
167.08577 4994.004395 
168.087845 2262.54126 
168.08992 6882.128418 
168.09198 8100.78125 
168.094055 25432.947266 
168.096115 96880.929688 
168.09819 248386.265625 
168.10025 412174.53125 
168.10231 485598.09375 
168.104385 348287.5625 
168.106445 191434.328125 
168.108521 59257.699219 
168.11058 16713.753906 
168.112656 7790.420898 
168.114716 4442.065918 
179.071823 1343.160034 
179.074097 11219.743164 
179.07637 41695.332031 
179.078644 77837.632812 
179.080917 109992.664062 
179.083191 94609.03125 
179.085464 57309.90625 
179.087723 23107.496094 
179.089996 5830.957031 
179.09227 635.214539 
181.116806 3946.342285 
181.119125 14582.006836 
181.121429 20336.240234 
181.123749 32856.023438 
181.126053 113145.03125 
181.128372 379222.65625 
181.130676 712473.3125 
181.132996 1025915.25 
181.1353 911536.0625 
181.137619 559937.875 
181.139923 236137.796875 
181.142242 65061.855469 
181.144562 22011.197266 
181.146866 17500.361328 
181.149185 7410.439453 
181.151489 11364.802734 
181.153793 5482.910156 
192.097595 6063.837402 
192.100128 10516.167969 
192.102646 11343.90918 
192.105179 8090.964844 
192.107697 3419.144043 
195.071243 6267.02002 
195.073837 9919.733398 
195.076416 10858.539062 
195.078995 8439.969727 
195.081589 4349.312988 
199.099304 4051.680176 
199.101974 9310.78418 
199.104645 19763.173828 
199.1073 27139.056641 
199.10997 22909.345703 
199.11264 9863.507812 
199.115295 4354.063477 
209.104691 507.808868 
209.107559 6635.352539 
209.110428 15271.790039 
209.113297 20472.560547 
209.116165 30221.53125 
209.119034 103716.875 
209.121902 356117.125 
209.124771 684062.9375 
209.12764 1004636.75 
209.130508 917715.6875 
209.133377 570064.6875 
209.136246 249110.453125 
209.139114 70067.164062 
209.141983 25143.291016 
209.144852 21071.841797 
209.14772 9955.152344 
209.150589 7046.20166 
209.153458 3879.161133 
223.132172 5079.86377 
223.13533 24181.226562 
223.138489 63386.453125 
223.141647 105305.992188 
223.144806 120394.710938 
223.14798 83744.085938 
223.151138 44029.726562 
223.154297 12908.570312 
223.157455 4762.896973 
225.115097 5924.557129 
225.118286 13304.164062 
225.12149 19100.976562 
225.124695 18891.96875 
225.127899 12864.445312 
225.131104 5595.614258 
241.143692 2043.667725 
241.147247 12173.460938 
241.150803 23744.414062 
241.154358 33894.40625 
241.157913 28178.726562 
241.161453 16428.224609 
241.165009 5603.382812 
241.168564 2312.761963 
249.148071 2947.817139 
249.15181 8656.140625 
249.155533 17004.304688 
249.159271 22807.089844 
249.162994 21824.755859 
249.166733 14897.544922 
249.170456 6928.658203 
251.121948 327.776428 
251.125732 5679.143555 
251.129501 22726.328125 
251.133286 49241.292969 
251.137054 78007.390625 
251.140823 81128.960938 
251.144608 53059.050781 
251.148376 26093.291016 
251.152161 5911.653809 
264.154327 1983.835327 
264.158417 14255.794922 
264.162476 45396.800781 
264.166565 78622.765625 
264.170624 100182.984375 
264.174713 76282.632812 
264.178772 44347.003906 
264.182861 14762.382812 
264.18692 4200.131348 
269.134735 20053.001953 
269.138916 76899.296875 
269.143097 163330.234375 
269.147308 255828.015625 
269.151489 258406.734375 
269.15567 166629.265625 
269.159851 80458.398438 
269.164062 22046.257812 
269.168243 6261.161621 
269.172424 4047.93042 
274.12381 1571.31665 
274.128113 9921.289062 
274.132416 42432.550781 
274.136719 95545.84375 
274.141022 153130.796875 
274.145325 161710.875 
274.149628 107010.773438 
274.153931 53700.25 
274.158234 14444.439453 
274.162537 3603.075684 
292.146973 1363.785034 
292.151703 11465.349609 
292.156433 37434.242188 
292.161163 65071.050781 
292.165894 84008.976562 
292.170654 64563.632812 
292.175385 37137.304688 
292.180115 11831.186523 
292.184845 1678.036133 
295.144409 1743.658325 
295.1492 10628.691406 
295.154022 36543.257812 
295.158813 68008.070312 
295.163635 97302.054688 
295.168457 86135.671875 
295.173248 52840.457031 
295.17807 22548.859375 
295.182861 5857.427246 
295.187683 303.816071 
301.061005 3978.317139 
301.065979 7555.517578 
301.070923 9556.786133 
301.075867 8577.286133 
301.080841 5289.822266 
306.168976 447.926514 
306.174072 11248.265625 
306.179138 22647.648438 
306.184235 31845.972656 
306.189301 25837.847656 
306.194397 15537.648438 
306.199463 5110.135742 
306.204559 2018.699219 
308.150085 5285.709961 
308.155212 10202.088867 
308.160339 13591.880859 
308.165497 13400.016602 
308.170624 9967.168945 
308.175751 5397.491699 
332.184204 3893.551025 
332.189941 9677.195312 
332.195679 14076.039062 
332.201416 13644.71875 
332.207153 8671.316406 
332.212921 2798.640869 
334.15152 3091.841797 
334.157318 6205.664062 
334.163116 21306.041016 
334.168915 39787.082031 
334.174683 56565.808594 
334.180481 49199.4375 
334.186279 29572.609375 
334.192078 11581.802734 
334.197876 2055.240479 
352.165375 3991.491699 
352.171631 10493.415039 
352.177917 17181.099609 
352.184174 19755.580078 
352.19046 16536.3125 
352.196716 9932.011719 
352.203003 4031.04248 
380.207581 4163.811523 
380.2146 8394.331055 
380.221649 10491.289062 
380.228668 8987.62793 
380.235718 5146.063965 
386.148193 11.670193 
386.155396 6656.722656 
386.162567 16706.476562 
386.169769 22460.25 
386.176971 37128.511719 
386.184174 120398.375 
386.191376 393495.375 
386.198578 733562.6875 
386.20578 1050420.875 
386.212982 925666.3125 
386.220154 565332.875 
386.227356 232680.984375 
386.234558 59996.984375 
386.24176 18922.169922 
386.248962 18716.984375 
386.256165 11642.672852 
386.263367 10903.264648 
386.270569 2991.258789 
391.17691 4780.643066 
391.184235 12948.341797 
391.191589 21120.167969 
391.198914 23452.705078 
391.206268 18102.757812 
391.213593 9247.289062 
391.220947 2702.272217 
400.027618 3992.713623 
400.035217 8058.940918 
400.042786 11221.547852 
400.050385 11305.413086 
400.057983 8054.100586 
400.065552 3658.498779 
417.171875 2345.47876 
417.179962 7472.873535 
417.188049 26817.408203 
417.196136 83313.257812 
417.204224 147307.21875 
417.212311 199598.671875 
417.220367 163323.65625 
417.228455 96729.640625 
417.236542 34704.792969 
417.244629 8189.288574 
417.252716 1834.79834 
435.183044 2300.527588 
435.19165 9739.930664 
435.200256 39345.585938 
435.208862 94371.351562 
435.217468 153766.078125 
435.226105 171173.078125 
435.234711 117625.03125 
435.243317 61304.738281 
435.251923 17342.039062 
435.260529 4609.766602 
469.209351 3852.09668 
469.218994 18378.529297 
469.228638 42972.691406 
469.238251 69643.226562 
469.247894 74616.117188 
469.257538 49537.4375 
469.267181 24503.603516 
469.276825 5944.674805 
469.286469 942.247742 
588.051636 4872.294922 
588.065186 8014.801758 
588.078735 9433.588867 
588.092224 8107.467773 
588.105774 4798.834473 
651.317688 7630.117188 
651.333496 11147.818359 
651.349243 12404.421875 
651.36499 10538.536133 
651.380798 6564.380859 
729.315491 2731.006592 
729.334167 7414.899902 
729.352844 18814.183594 
729.371521 26531.121094 
729.390259 23490.433594 
729.408936 10857.209961 
729.427612 4981.033203 
937.422913 3500.41626 
937.450134 9278.512695 
937.477356 14703.561523 
937.504578 21811.251953 
937.531799 11647.712891 
937.559021 5756.740723 
937.586243 1824.542847 
END IONS

