BEGIN IONS
PEPMASS=1411.92
CHARGE=1+
MSLEVEL=2
SOURCE_INSTRUMENT=LC-ESI-qTof
FILENAME=f.RReher/2264/MaXis/2264_H_6_BE3_01_48199.mzXML;
SEQ=*..*
IONMODE=Positive
ORGANISM=GNPS-LIBRARY
NAME=Swinholide A M+Na
PI=Gerwick
DATACOLLECTOR=RReher
SMILES=COC1CC(C)OC(CCC(C)C(O)C(C)C2OC(=O)\C=C\C(\C)=C\CC(O)CC3OC(CC=C3)CC(OC)C(C)C(O)CC(O)C(C)C(OC(=O)\C=C\C(\C)=C\CC(O)CC3OC(CC=C3)CC(OC)C(C)C(O)CC(O)C2C)C(C)C(O)C(C)CCC2CC(CC(C)O2)OC)C1
INCHI=
INCHIAUX=
PUBMED=10964334
SUBMITUSER=RReher
LIBRARYQUALITY=3
SPECTRUMID=CCMSLIB00005463853
SCANS=1568
83.053688 49.0 
93.040108 60.0 
95.044952 70.0 
97.031387 81.0 
97.692665 56.0 
98.094002 44.0 
98.849098 52.0 
107.054153 86.0 
109.067619 61.0 
111.04866 68.0 
112.053391 45.0 
114.888329 69.0 
115.027428 45.0 
119.060585 95.0 
121.037056 72.0 
123.053085 226.0 
123.088249 88.0 
125.067299 130.0 
129.027344 258.0 
129.064423 101.0 
131.058197 53.0 
133.073929 171.0 
135.088425 203.0 
137.069107 171.0 
137.106033 105.0 
139.047943 116.0 
141.026169 44.0 
141.066315 71.0 
142.312759 52.0 
143.059921 66.0 
145.069809 72.0 
147.093643 215.0 
148.092789 44.0 
149.07016 98.0 
149.105438 167.0 
151.086182 124.0 
155.044418 86.0 
155.081116 276.0 
157.084518 76.0 
162.075882 75.0 
163.085785 98.0 
163.123276 49.0 
165.102951 174.0 
166.077026 45.0 
167.046356 75.0 
167.089218 105.0 
167.12085 162.0 
169.097076 72.0 
171.082581 93.0 
173.108627 119.0 
175.053207 77.0 
175.09079 60.0 
175.12265 86.0 
177.107803 87.0 
177.138855 99.0 
179.119919 63.0 
180.042496 43.0 
181.100113 149.0 
183.116882 538.0 
184.117889 72.0 
185.108276 52.0 
187.126968 129.0 
191.057236 47.0 
191.12149 330.0 
191.158875 50.0 
193.063217 60.0 
193.134552 77.0 
194.139877 45.0 
195.115952 127.0 
195.160614 58.0 
201.142181 67.0 
202.07579 84.0 
205.137222 109.0 
206.108139 83.0 
208.12178 44.0 
209.133133 132.0 
210.139481 73.0 
211.07193 128.0 
213.099152 67.0 
213.130569 48.0 
215.087585 67.0 
215.154175 63.0 
216.139343 57.0 
219.083603 66.0 
219.151642 110.0 
220.160812 55.0 
221.135941 55.0 
223.085617 68.0 
223.113419 67.0 
223.150757 872.0 
224.1548 199.0 
225.108719 65.0 
227.147522 49.0 
229.138077 50.0 
231.120697 88.0 
232.573746 60.0 
233.099121 108.0 
234.103195 48.0 
237.093704 72.0 
239.147797 59.0 
241.149261 60.0 
242.587112 65.0 
243.11763 49.0 
243.160034 61.0 
243.192368 89.0 
245.097519 763.0 
245.177094 93.0 
245.588501 43.0 
249.141373 65.0 
251.112549 119.0 
251.179474 102.0 
252.115082 45.0 
253.177002 49.0 
255.176956 68.0 
257.179565 48.0 
259.12558 58.0 
260.119781 52.0 
261.174683 43.0 
263.092163 44.0 
263.15097 62.0 
263.184479 541.0 
264.14801 67.0 
264.196381 176.0 
265.196594 119.0 
266.196411 54.0 
267.217529 357.0 
268.208405 63.0 
271.152985 85.0 
271.1922 71.0 
272.194794 50.0 
273.092102 51.0 
273.128082 56.0 
273.206421 69.0 
277.158325 59.0 
277.202728 172.0 
278.204987 58.0 
279.130554 52.0 
279.159821 57.0 
280.214386 68.0 
281.158386 399.0 
283.133209 45.0 
285.233002 74.0 
287.188629 83.0 
289.217407 116.0 
290.17923 49.0 
290.197083 60.0 
291.147522 99.0 
291.218109 91.0 
292.144775 79.0 
293.19339 77.0 
293.234406 296.0 
295.181519 44.0 
295.210724 72.0 
296.228882 82.0 
297.163849 143.0 
297.209503 94.0 
299.156189 44.0 
301.240509 127.0 
305.166504 108.0 
306.13501 46.0 
307.212372 233.0 
308.15387 61.0 
308.205811 56.0 
309.222626 113.0 
310.238678 44.0 
311.255341 63.0 
312.249268 62.0 
313.223724 133.0 
313.641266 48.0 
317.163269 104.0 
318.165375 108.0 
319.247162 154.0 
320.133331 43.0 
320.249268 67.0 
321.160065 76.0 
321.226898 152.0 
322.241577 89.0 
322.310699 43.0 
325.163269 65.0 
329.236816 82.0 
333.268585 46.0 
334.271332 43.0 
335.177826 143.0 
335.207642 63.0 
336.182648 73.0 
337.212341 80.0 
337.239166 78.0 
338.265564 52.0 
339.247498 173.0 
340.241119 49.0 
342.172791 67.0 
343.168274 123.0 
344.180511 74.0 
345.193268 65.0 
345.270996 138.0 
347.245605 52.0 
351.252533 86.0 
351.278625 146.0 
351.66272 48.0 
353.193634 52.0 
355.253235 49.0 
356.220428 54.0 
357.222778 53.0 
359.205017 43.0 
361.259949 129.0 
363.280151 49.0 
367.211304 94.0 
373.227631 127.0 
373.263763 117.0 
374.231781 43.0 
374.267426 55.0 
375.211121 66.0 
377.298035 91.0 
379.218719 43.0 
379.298187 59.0 
381.7034 87.0 
387.290405 73.0 
389.186157 884.0 
390.188538 52.0 
391.201355 82.0 
393.223541 101.0 
395.113159 53.0 
395.24649 67.0 
395.301758 45.0 
396.311615 71.0 
398.320374 52.0 
405.156616 102.0 
405.247253 131.0 
405.296661 205.0 
406.308594 67.0 
407.298767 43.0 
409.270996 46.0 
413.257629 131.0 
414.266144 91.0 
415.197144 64.0 
415.252686 52.0 
420.215546 49.0 
423.301056 153.0 
424.151672 57.0 
424.31427 71.0 
425.027924 54.0 
425.308655 89.0 
431.21936 46.0 
432.273499 51.0 
433.214844 1779.0 
434.219086 379.0 
434.733368 54.0 
435.218903 50.0 
437.273071 44.0 
441.333191 126.0 
446.299652 79.0 
451.278015 124.0 
455.296783 61.0 
458.231873 50.0 
462.278076 88.0 
463.300507 178.0 
464.30835 74.0 
465.298004 102.0 
467.226868 44.0 
467.268951 54.0 
474.352203 82.0 
475.337189 74.0 
477.315704 271.0 
478.279846 51.0 
478.325592 64.0 
482.332458 48.0 
485.28183 260.0 
486.294525 94.0 
489.52243 51.0 
491.313354 63.0 
493.819183 51.0 
494.577332 43.0 
495.325012 6526.0 
496.201965 46.0 
496.273254 80.0 
496.32724 1300.0 
497.331696 173.0 
498.946503 48.0 
501.245178 63.0 
501.316467 43.0 
502.361389 68.0 
503.297302 529.0 
504.299164 195.0 
507.283722 56.0 
509.802979 47.0 
514.283813 46.0 
516.389282 49.0 
523.398254 68.0 
524.340088 47.0 
525.384521 66.0 
528.828735 49.0 
536.3396 52.0 
537.366638 49.0 
539.240723 54.0 
541.320618 70.0 
542.785278 47.0 
543.367737 60.0 
543.532104 50.0 
547.375244 74.0 
550.317871 46.0 
551.370605 125.0 
552.410522 51.0 
553.379578 63.0 
555.362732 52.0 
555.395203 44.0 
557.323425 65.0 
559.382935 84.0 
560.363464 47.0 
563.309937 50.0 
569.841248 46.0 
571.390625 72.0 
572.330322 269.0 
572.829712 53.0 
573.393982 47.0 
577.307068 64.0 
577.388 95.0 
578.388367 207.0 
579.392334 102.0 
586.364807 54.0 
587.39093 199.0 
588.853821 46.0 
591.403687 138.0 
592.403076 115.0 
593.396362 70.0 
595.390564 124.0 
596.409241 139.0 
597.399597 44.0 
601.412476 115.0 
603.384094 70.0 
603.884583 44.0 
607.352173 77.0 
608.411865 48.0 
609.414062 125.0 
610.4245 303.0 
611.418274 156.0 
613.418762 71.0 
614.39209 66.0 
615.359497 56.0 
619.408691 265.0 
620.429871 112.0 
626.711243 45.0 
627.423584 255.0 
628.426758 318.0 
628.528992 55.0 
630.416565 46.0 
634.389771 47.0 
637.434387 90.0 
641.455505 63.0 
642.4328 59.0 
642.471924 58.0 
644.430298 60.0 
645.43042 72.0 
646.432312 130.0 
647.435852 72.0 
647.487488 57.0 
649.376831 55.0 
651.446655 66.0 
652.446411 77.0 
659.448364 70.0 
660.444885 66.0 
661.438477 212.0 
662.427063 59.0 
663.395142 46.0 
663.426025 61.0 
664.902344 55.0 
669.460632 122.0 
670.465393 52.0 
671.370361 51.0 
673.473572 45.0 
674.297119 44.0 
677.462341 182.0 
678.422546 46.0 
678.464844 180.0 
679.436096 50.0 
679.479004 58.0 
680.476135 51.0 
683.380493 134.0 
683.433167 56.0 
685.368835 59.0 
685.46051 46.0 
685.565063 51.0 
688.235107 46.0 
688.444397 54.0 
689.366272 46.0 
689.430725 201.0 
689.921021 159.0 
691.428711 49.0 
693.918762 46.0 
695.436768 45.0 
695.47821 158.0 
696.477173 158.0 
697.474609 76.0 
698.451416 51.0 
698.857483 65.0 
699.054993 46.0 
699.443481 664.0 
700.453491 169.0 
701.276367 53.0 
701.455994 75.0 
702.371033 61.0 
702.579712 51.0 
705.38623 75.0 
705.437866 190.0 
705.93689 124.0 
706.447937 169.0 
707.527893 50.0 
711.4599 63.0 
712.957825 50.0 
713.524292 52.0 
713.717712 43.0 
714.447998 2469.0 
714.576416 67.0 
714.952026 1935.0 
715.448303 985.0 
715.952271 352.0 
716.409302 177.0 
716.458801 98.0 
717.458008 13443.0 
717.587891 76.0 
718.180237 69.0 
718.331482 132.0 
718.461365 5483.0 
718.755005 48.0 
719.461548 854.0 
720.479858 183.0 
721.716797 48.0 
721.927795 130.0 
722.44043 199.0 
722.936523 126.0 
723.433289 1196.0 
723.507935 69.0 
723.944702 824.0 
724.436279 733.0 
724.937744 591.0 
725.434998 226.0 
725.937988 146.0 
726.433838 51.0 
727.422791 73.0 
727.935608 45.0 
733.415405 459.0 
734.42511 239.0 
735.3927 71.0 
735.43811 94.0 
743.385864 91.0 
744.397522 44.0 
745.400818 47.0 
748.378235 55.0 
751.403992 176.0 
752.395081 137.0 
753.015686 44.0 
753.404968 79.0 
770.865417 43.0 
803.408936 53.0 
804.800537 66.0 
816.872009 68.0 
844.535278 45.0 
860.148621 43.0 
861.50946 53.0 
861.548096 75.0 
897.015381 47.0 
905.470337 52.0 
905.5625 393.0 
906.563171 144.0 
906.614502 69.0 
907.582886 57.0 
921.961182 52.0 
935.586426 47.0 
939.352051 67.0 
939.434448 48.0 
939.585999 1618.0 
940.388794 44.0 
940.592468 523.0 
941.603699 190.0 
942.603455 49.0 
942.924438 48.0 
946.019104 48.0 
955.590393 58.0 
955.971924 47.0 
975.647888 93.0 
977.631531 76.0 
990.397095 45.0 
1012.259949 43.0 
1015.582764 59.0 
1020.63562 43.0 
1027.692749 44.0 
1032.732666 52.0 
1035.286621 43.0 
1055.714355 43.0 
1080.284058 52.0 
1082.657715 76.0 
1083.673218 385.0 
1084.599731 47.0 
1084.681274 87.0 
1085.707642 73.0 
1089.69519 58.0 
1109.667236 86.0 
1110.694946 48.0 
1111.679199 57.0 
1112.828857 52.0 
1117.837769 44.0 
1125.742188 46.0 
1127.69397 4766.0 
1128.515625 67.0 
1128.579224 92.0 
1128.694824 3272.0 
1128.814819 80.0 
1128.911499 46.0 
1129.503174 70.0 
1129.703613 1289.0 
1130.706299 282.0 
1131.337524 45.0 
1131.47937 54.0 
1131.709717 61.0 
1134.515625 47.0 
1136.737671 43.0 
1140.769287 49.0 
1150.986084 44.0 
1159.60437 55.0 
1172.608521 47.0 
1176.750854 63.0 
1177.572388 49.0 
1179.773926 112.0 
1180.517944 44.0 
1180.763672 58.0 
1181.073364 45.0 
1182.101562 59.0 
1189.804443 591.0 
1190.806885 344.0 
1190.871338 87.0 
1191.556519 58.0 
1191.809326 132.0 
1192.822632 92.0 
1195.734375 51.0 
1196.744629 52.0 
1197.778442 889.0 
1198.773315 625.0 
1199.512451 59.0 
1199.780396 403.0 
1200.774048 85.0 
1201.78418 52.0 
1205.940918 51.0 
1219.321167 50.0 
1219.922852 56.0 
1223.77832 53.0 
1223.980347 78.0 
1225.64917 46.0 
1225.863647 53.0 
1226.224854 64.0 
1228.112671 43.0 
1235.473999 57.0 
1236.721924 48.0 
1247.032349 44.0 
1247.848633 63.0 
1250.456909 48.0 
1251.550537 47.0 
1254.361084 43.0 
1254.418213 52.0 
1254.651001 56.0 
1254.899902 46.0 
1256.278076 54.0 
1257.238647 47.0 
1259.630127 43.0 
1263.845093 45.0 
1264.11499 48.0 
1264.786133 74.0 
1266.521851 43.0 
1268.032349 55.0 
1268.387085 43.0 
1270.1427 49.0 
1273.695557 69.0 
1274.671143 48.0 
1280.406006 48.0 
1280.655884 52.0 
1282.230225 43.0 
1283.0896 67.0 
1283.381226 54.0 
1285.737183 44.0 
1287.653076 46.0 
1288.076538 48.0 
1288.87561 50.0 
1294.025757 43.0 
1295.791626 54.0 
1296.382568 46.0 
1296.857544 51.0 
1297.831787 44.0 
1301.567993 46.0 
1306.436401 66.0 
1307.528687 46.0 
1309.772705 45.0 
1310.491943 73.0 
1310.903687 46.0 
1311.096802 44.0 
1311.504761 59.0 
1311.771484 54.0 
1312.111938 59.0 
1312.239014 91.0 
1312.325073 54.0 
1312.984985 45.0 
1313.033447 54.0 
1313.153564 61.0 
1313.399414 82.0 
1314.155762 47.0 
1316.03186 45.0 
1316.184448 66.0 
1316.282227 50.0 
1318.910156 43.0 
1319.595215 45.0 
1320.849365 56.0 
1321.140259 78.0 
1325.498779 43.0 
1326.381836 45.0 
1326.616821 55.0 
1329.892944 43.0 
1331.618286 49.0 
1334.509399 64.0 
1334.696411 59.0 
1336.385986 50.0 
1337.942505 51.0 
1338.980469 84.0 
1339.568481 52.0 
1340.149292 47.0 
1340.8479 64.0 
1341.123413 57.0 
1341.662598 46.0 
1341.790283 50.0 
1342.51062 55.0 
1342.740356 79.0 
1343.319458 46.0 
1344.691162 66.0 
1347.469604 44.0 
1348.4552 85.0 
1348.891357 44.0 
1351.296265 43.0 
1351.587891 57.0 
1352.443115 61.0 
1353.526855 61.0 
1353.728516 56.0 
1354.949585 60.0 
1355.864136 50.0 
1356.094849 54.0 
1356.809326 60.0 
1356.962769 61.0 
1357.245483 45.0 
1358.776367 61.0 
1361.890015 57.0 
1363.493286 80.0 
1364.65686 46.0 
1364.82373 47.0 
1365.377686 62.0 
1365.6604 47.0 
1365.880127 46.0 
1366.363159 85.0 
1366.742798 63.0 
1366.884277 45.0 
1367.358765 51.0 
1367.823364 43.0 
1368.086548 81.0 
1368.518799 46.0 
1368.630615 62.0 
1369.002075 55.0 
1369.428223 55.0 
1369.55835 51.0 
1369.683105 54.0 
1369.900757 52.0 
1371.102539 64.0 
1371.148193 75.0 
1371.417847 44.0 
1371.709717 48.0 
1371.917236 59.0 
1372.828125 52.0 
1372.934326 232.0 
1373.334717 71.0 
1373.399414 47.0 
1373.969849 109.0 
1374.97876 106.0 
1375.571411 51.0 
1375.965698 56.0 
1376.533936 83.0 
1376.711426 58.0 
1376.886597 67.0 
1377.139648 48.0 
1377.541138 50.0 
1377.62854 51.0 
1377.786987 44.0 
1377.93811 67.0 
1378.051147 60.0 
1378.316284 53.0 
1378.470947 62.0 
1378.970459 69.0 
1379.050171 60.0 
1379.122314 72.0 
1379.233887 89.0 
1379.319214 109.0 
1379.412598 99.0 
1379.487549 136.0 
1379.55835 105.0 
1379.779907 68.0 
1379.835938 74.0 
1379.996704 94.0 
1380.067749 83.0 
1380.161255 79.0 
1380.443359 137.0 
1380.544556 103.0 
1380.752197 53.0 
1380.870605 112.0 
1381.125854 85.0 
1381.180542 108.0 
1381.40564 91.0 
1381.555054 157.0 
1381.68335 49.0 
1381.877686 141.0 
1381.943115 54.0 
1382.05481 85.0 
1382.171265 71.0 
1382.237305 110.0 
1382.432861 166.0 
1382.570679 110.0 
1382.711548 111.0 
1382.781982 91.0 
1382.9646 86.0 
1383.114136 49.0 
1383.260254 93.0 
1383.372192 130.0 
1383.634155 70.0 
1383.758545 63.0 
1383.90564 43.0 
1383.978149 94.0 
1384.06958 121.0 
1384.240601 69.0 
1384.31543 75.0 
1384.41394 79.0 
1384.522339 74.0 
1384.648438 47.0 
1385.014526 48.0 
1385.066284 70.0 
1385.25647 43.0 
1385.33374 52.0 
1385.397949 66.0 
1385.560547 62.0 
1385.692383 46.0 
1385.778564 47.0 
1385.867065 55.0 
1385.952393 76.0 
1386.111816 60.0 
1386.490723 75.0 
1386.5625 86.0 
1386.623535 102.0 
1386.78125 44.0 
1386.865601 54.0 
1386.940186 115.0 
1387.003174 97.0 
1387.117798 68.0 
1387.189087 49.0 
1387.241455 89.0 
1387.488892 80.0 
1387.608398 65.0 
1387.760254 50.0 
1388.078491 135.0 
1388.42041 50.0 
1388.534424 49.0 
1388.757568 125.0 
1388.886475 68.0 
1388.971924 55.0 
1389.136841 56.0 
1389.49292 81.0 
1389.616455 47.0 
1389.665649 59.0 
1389.87793 45.0 
1389.99646 48.0 
1390.189331 56.0 
1390.418457 78.0 
1390.723999 50.0 
1390.865845 101.0 
1390.960083 94.0 
1391.104492 51.0 
1391.324585 62.0 
1391.397705 72.0 
1391.513916 55.0 
1391.663452 90.0 
1391.886963 55.0 
1391.955933 47.0 
1392.095337 55.0 
1392.188965 54.0 
1392.695557 56.0 
1392.844238 62.0 
1392.885498 61.0 
1392.97876 67.0 
1393.121094 69.0 
1393.248779 64.0 
1393.756226 46.0 
1393.927612 210.0 
1394.215088 56.0 
1394.448975 58.0 
1394.608765 58.0 
1394.823364 98.0 
1394.9375 201.0 
1395.067993 106.0 
1395.140259 99.0 
1395.300415 47.0 
1395.401733 125.0 
1395.532471 125.0 
1395.630981 74.0 
1395.689087 99.0 
1395.74939 131.0 
1395.872559 78.0 
1395.947388 270.0 
1396.016235 128.0 
1396.093262 100.0 
1396.175659 72.0 
1396.300415 172.0 
1396.432373 155.0 
1396.541138 123.0 
1396.657227 179.0 
1396.816284 96.0 
1396.875244 187.0 
1397.028442 168.0 
1397.187622 102.0 
1397.247803 171.0 
1397.423584 86.0 
1397.629028 77.0 
1397.73291 142.0 
1397.820068 170.0 
1397.97229 221.0 
1398.067383 156.0 
1398.230469 190.0 
1398.310425 82.0 
1398.675781 141.0 
1398.881104 92.0 
1398.939819 107.0 
1399.018799 51.0 
1399.080688 54.0 
1399.186035 90.0 
1399.429199 51.0 
1399.591309 121.0 
1399.837158 118.0 
1399.961548 48.0 
1400.019287 85.0 
1400.373657 52.0 
1400.473022 44.0 
1400.578857 77.0 
1400.657471 67.0 
1400.807495 47.0 
1400.891479 57.0 
1400.957642 121.0 
1401.163452 55.0 
1401.380981 62.0 
1401.941772 67.0 
1402.10022 66.0 
1402.220215 97.0 
1402.313477 62.0 
1402.385986 50.0 
1402.490479 109.0 
1402.56897 58.0 
1402.751099 101.0 
1402.958374 62.0 
1403.039307 47.0 
1403.146118 146.0 
1403.350708 132.0 
1403.628906 57.0 
1403.735718 73.0 
1404.054932 101.0 
1404.172852 48.0 
1404.490234 75.0 
1404.560059 67.0 
1404.728882 52.0 
1405.03772 85.0 
1405.194336 109.0 
1405.502441 100.0 
1405.608765 98.0 
1405.716187 78.0 
1405.795532 122.0 
1405.916748 58.0 
1405.995728 134.0 
1406.141235 57.0 
1406.238281 72.0 
1406.320801 66.0 
1406.463867 111.0 
1406.657837 105.0 
1406.782959 100.0 
1406.864136 101.0 
1406.936646 121.0 
1407.057007 94.0 
1407.123413 74.0 
1407.190186 60.0 
1407.292358 94.0 
1407.39917 89.0 
1407.447754 102.0 
1407.548584 188.0 
1407.768433 66.0 
1407.84314 128.0 
1407.964478 160.0 
1408.05896 112.0 
1408.123413 128.0 
1408.256714 156.0 
1408.350342 140.0 
1408.460571 138.0 
1408.534058 185.0 
1408.610107 373.0 
1408.698853 293.0 
1408.79248 177.0 
1408.916626 320.0 
1408.979004 290.0 
1409.098511 219.0 
1409.205444 301.0 
1409.420532 568.0 
1409.743652 468.0 
1409.815674 464.0 
1409.917114 775.0 
1410.045776 293.0 
1410.161621 429.0 
1410.256714 672.0 
1410.407349 858.0 
1410.495728 607.0 
1410.591919 711.0 
1410.689697 604.0 
1410.803833 872.0 
1410.931885 1175.0 
1411.142456 677.0 
1411.288208 492.0 
1411.400391 967.0 
1411.481079 1079.0 
1411.932861 729379.0 
1412.184204 152.0 
1412.223877 166.0 
1412.440674 5770.0 
1412.567261 3183.0 
1412.936401 597482.0 
1413.194946 262.0 
1413.441284 9761.0 
1413.55896 759.0 
1413.688599 294.0 
1413.939087 281636.0 
1414.10498 213.0 
1414.263672 259.0 
1414.429199 1636.0 
1414.584229 212.0 
1414.657227 250.0 
1414.94104 85925.0 
1415.120972 104.0 
1415.232788 339.0 
1415.392944 376.0 
1415.578247 134.0 
1415.69165 345.0 
1415.72937 386.0 
1415.789673 372.0 
1415.94458 14814.0 
1416.133911 254.0 
1416.215698 258.0 
1416.341431 172.0 
1416.485474 182.0 
1416.611938 286.0 
1416.664429 294.0 
1416.726562 195.0 
1416.789429 183.0 
1416.945923 2006.0 
1417.178955 195.0 
1417.256714 177.0 
1417.37854 131.0 
1417.521362 276.0 
1417.616577 244.0 
1417.725586 192.0 
1417.838379 136.0 
1417.962036 456.0 
1418.27002 181.0 
1418.337524 268.0 
1418.407104 331.0 
1418.498901 448.0 
1418.602051 293.0 
1418.690674 415.0 
1418.763794 357.0 
1418.839233 435.0 
1418.918091 463.0 
1419.011353 415.0 
1419.146851 400.0 
1419.250366 229.0 
1419.324341 237.0 
1419.433716 261.0 
1419.528442 425.0 
1419.760864 373.0 
1419.821289 424.0 
1419.866577 303.0 
1419.98877 230.0 
1420.049683 245.0 
1420.165771 122.0 
1420.267944 229.0 
1420.441406 238.0 
1420.515625 150.0 
1420.584961 101.0 
1420.700073 207.0 
1420.766968 139.0 
1420.830078 211.0 
1420.912109 160.0 
1420.975464 248.0 
1421.136597 110.0 
1421.244873 76.0 
1421.373535 103.0 
1421.47998 79.0 
1421.572998 89.0 
1421.661743 126.0 
1421.78186 122.0 
1421.850952 137.0 
1421.929199 78.0 
1421.983032 82.0 
1422.048828 126.0 
1422.141235 87.0 
1422.217163 43.0 
1422.353882 54.0 
1422.443604 53.0 
1422.531616 49.0 
1422.578003 69.0 
1422.952271 97.0 
1423.356079 43.0 
1423.46106 49.0 
1423.836182 71.0 
1424.107788 53.0 
1424.590332 74.0 
1424.779419 43.0 
1425.78186 53.0 
1426.355469 49.0 
1429.861206 53.0 
1435.768921 48.0 
1436.049683 44.0 
1436.254272 70.0 
1437.325317 50.0 
1437.53186 45.0 
1437.640015 50.0 
1437.918457 63.0 
1438.029907 46.0 
1438.322876 81.0 
1438.451294 73.0 
1438.61853 46.0 
1438.773315 94.0 
1439.859863 60.0 
1440.29126 67.0 
1440.903076 45.0 
1441.223999 63.0 
1441.78894 45.0 
1442.110107 63.0 
1444.114746 51.0 
1446.26709 59.0 
1446.913574 43.0 
1447.809937 67.0 
1447.909302 51.0 
1448.930054 45.0 
1449.023071 58.0 
1449.166504 43.0 
1449.340454 59.0 
1449.581665 70.0 
1449.639648 54.0 
1450.141235 58.0 
1450.32019 54.0 
1450.666382 47.0 
1451.613892 53.0 
1453.722534 52.0 
1458.453003 44.0 
1600.917114 47.0 
1642.612793 46.0 
1691.113159 54.0 
1754.150024 43.0 
1829.984985 49.0 
1964.115112 48.0 
1978.292358 46.0 
END IONS

