BEGIN IONS
PEPMASS=522.19
CHARGE=1+
MSLEVEL=2
SOURCE_INSTRUMENT=LC-ESI-qTof
FILENAME=f.RReher/Golden lab/ColumbamideA-C_reference/Columbamide B/ColB_M+Na_PNG.mgf;
SEQ=*..*
IONMODE=Positive
ORGANISM=GNPS-LIBRARY
NAME=Columbamide B M+Na
PI=Gerwick
DATACOLLECTOR=Kleigrewe
SMILES=ClC(Cl)CCCCCC(Cl)CCCC/C=C/CCC(N(C)[C@@H](COC)COC(C)=O)=O
INCHI=
INCHIAUX=
PUBMED=
SUBMITUSER=RReher
LIBRARYQUALITY=3
SPECTRUMID=CCMSLIB00005464643
SCANS=1
102.09053 636.472229 
105.066414 200.223679 
113.083488 363.057861 
114.083969 134.929871 
143.092163 192.235291 
144.098846 337.13623 
156.100784 127.78125 
332.257935 791.412354 
368.099487 167.481476 
368.233551 27566.019531 
368.414368 623.790405 
368.456818 297.0 
368.486877 213.587265 
368.536041 151.003784 
368.568329 138.055557 
368.599487 167.592209 
368.636475 117.693962 
368.715668 178.446426 
368.826111 156.125 
368.884918 108.038795 
368.925507 142.911285 
368.965485 129.916672 
368.997925 130.804993 
369.095123 118.440002 
369.123901 137.565216 
369.184357 106.08654 
369.237213 1052.675903 
369.293274 122.224998 
369.326874 109.686401 
369.37265 118.734848 
369.544891 143.080124 
369.91098 114.803574 
370.225281 172.391129 
370.255737 120.522728 
404.210266 28198.082031 
404.398132 770.950439 
404.465485 293.761902 
404.499908 253.049606 
404.522858 147.066177 
404.552612 183.682434 
404.584137 139.142242 
404.615845 121.384613 
404.661377 221.164474 
404.696411 283.462921 
404.74231 136.191177 
404.804291 118.669441 
404.855286 194.692307 
404.903564 107.021225 
404.930878 113.284088 
404.968353 147.529419 
405.059326 137.508926 
405.113159 185.330704 
405.152069 112.125 
405.210785 650.371887 
405.29306 171.005951 
405.370361 127.054825 
405.734314 109.951218 
405.851257 107.083336 
406.202209 112.056816 
440.186401 482.719116 
450.234589 648.820435 
486.203979 153.10228 
486.222992 136.0 
END IONS

