BEGIN IONS
PEPMASS=704.0
CHARGE=2+
MSLEVEL=2
SOURCE_INSTRUMENT=LC-ESI-qTof
FILENAME=1G8_704_RG8_01_9779.mzXML
SEQ=*..*
IONMODE=Positive
ORGANISM=GNPS-LIBRARY
NAME=Carmabin A M+H
PI=Dorrestein/Gerwick
DATACOLLECTOR=Peng/Luzzatto/Garg
SMILES=COC1=CC=C(CC(N(C)C(=O)C(C)N(C)C(=O)C(C)NC(=O)C(CC2=CC=CC=C2)N(C)C(=O)C(C)CC(C)CCCCC#C)C(N)=O)C=C1
INCHI=InChI=1S/C40H57N5O6/c1-10-11-12-14-17-27(2)24-28(3)38(48)45(8)35(26-31-18-15-13-16-19-31)37(47)42-29(4)39(49)43(6)30(5)40(50)44(7)34(36(41)46)25-32-20-22-33(51-9)23-21-32/h1,13,15-16,18-23,27-30,34-35H,11-12,14,17,24-26H2,2-9H3,(H2,41,46)(H,42,47)
INCHIAUX=BRWIYXLUWTZWGU-UHFFFAOYSA-N
PUBMED=ChemSpider ID:23076292
SUBMITUSER=y6peng
LIBRARYQUALITY=2
SPECTRUMID=CCMSLIB00000072489
SCANS=1979
95.085884 1080.0 
95.152641 236.0 
95.95192 208.0 
96.088387 380.0 
97.091438 208.0 
97.364113 244.0 
97.67453 208.0 
99.867226 200.0 
100.281189 296.0 
100.394783 204.0 
102.508835 228.0 
102.524956 256.0 
103.087753 284.0 
104.480133 200.0 
105.068077 432.0 
105.393158 268.0 
105.982231 200.0 
106.062088 204.0 
106.098969 240.0 
106.271179 236.0 
106.41684 216.0 
106.548225 236.0 
107.083366 216.0 
107.592094 260.0 
109.100159 344.0 
109.222137 216.0 
109.278282 240.0 
109.595711 204.0 
109.994873 240.0 
110.099228 252.0 
110.180656 244.0 
110.462753 244.0 
111.080376 364.0 
111.750343 204.0 
111.8955 204.0 
112.004959 212.0 
112.874115 428.0 
112.895248 240.0 
113.47731 208.0 
114.056213 372.0 
114.375549 236.0 
114.59906 260.0 
115.563728 204.0 
116.362846 200.0 
116.49379 212.0 
116.98819 264.0 
117.565598 208.0 
117.841873 268.0 
117.876427 212.0 
118.533981 272.0 
119.077446 464.0 
119.120247 216.0 
119.280258 224.0 
119.744034 236.0 
120.085556 208.0 
120.253487 204.0 
120.484848 276.0 
120.519791 212.0 
120.779839 200.0 
120.886993 200.0 
121.1017 988.0 
122.497879 244.0 
122.823982 224.0 
122.927635 224.0 
123.116959 376.0 
123.570351 212.0 
124.361137 200.0 
124.45433 200.0 
124.603081 224.0 
125.170021 212.0 
125.484055 236.0 
126.748611 248.0 
128.320221 304.0 
128.411484 232.0 
129.507217 276.0 
129.912796 284.0 
131.386353 212.0 
132.078232 224.0 
132.110245 248.0 
132.985199 240.0 
133.026489 256.0 
133.085648 216.0 
133.102783 392.0 
133.727402 200.0 
133.747971 228.0 
133.85675 252.0 
133.92981 264.0 
133.957428 232.0 
134.009003 204.0 
134.047745 224.0 
134.065567 204.0 
134.097382 93216.0 
135.099487 8624.0 
135.157471 264.0 
136.179855 224.0 
137.100296 284.0 
138.00563 200.0 
140.070847 2936.0 
141.07814 264.0 
142.073761 216.0 
145.501816 244.0 
147.082748 208.0 
148.325531 208.0 
151.02475 264.0 
151.14653 408.0 
151.541077 296.0 
154.009918 224.0 
157.09137 208.0 
158.203186 216.0 
159.117859 216.0 
159.728271 200.0 
161.133667 2680.0 
161.321304 224.0 
162.089722 328.0 
162.214508 244.0 
162.30574 224.0 
164.106918 2084.0 
164.919403 212.0 
165.075073 212.0 
165.109192 544.0 
170.980423 276.0 
173.625824 200.0 
178.812546 236.0 
179.081329 212.0 
179.116837 372.0 
180.150528 208.0 
182.747299 260.0 
183.549637 204.0 
185.652588 196.0 
185.704102 196.0 
187.098694 200.0 
188.105728 248.0 
188.375961 204.0 
190.119324 292.0 
191.69165 212.0 
191.903793 268.0 
192.103333 2500.0 
194.852432 200.0 
195.756531 216.0 
197.006226 228.0 
197.072556 200.0 
198.143677 212.0 
198.667709 216.0 
199.459259 212.0 
202.123993 208.0 
202.332642 220.0 
205.135788 712.0 
206.132523 216.0 
207.555939 208.0 
207.768097 200.0 
209.097931 268.0 
209.12973 5892.0 
209.348297 216.0 
209.544083 196.0 
210.132874 632.0 
210.746704 220.0 
211.132828 428.0 
211.272827 232.0 
211.587997 236.0 
211.779343 364.0 
212.596268 276.0 
214.628738 232.0 
214.943634 236.0 
218.343307 240.0 
220.096924 1528.0 
221.101791 220.0 
221.168762 196.0 
222.534698 212.0 
223.327805 212.0 
225.231644 216.0 
226.738968 244.0 
228.173187 200.0 
229.714417 216.0 
231.572571 216.0 
231.857239 232.0 
233.127655 2348.0 
234.62822 260.0 
236.454086 224.0 
238.035278 196.0 
238.750992 232.0 
239.963699 196.0 
239.997589 248.0 
240.716248 196.0 
242.562515 216.0 
243.343948 204.0 
243.806595 204.0 
244.039627 196.0 
246.112579 2492.0 
246.257462 204.0 
247.11499 560.0 
247.17305 196.0 
247.961884 200.0 
248.472794 196.0 
249.175751 200.0 
249.30452 196.0 
251.02449 232.0 
253.223465 240.0 
253.642426 204.0 
254.87645 256.0 
256.355499 196.0 
257.119049 196.0 
257.442871 284.0 
257.50351 212.0 
259.749512 236.0 
260.2724 196.0 
262.076111 200.0 
265.154419 252.0 
265.805969 248.0 
270.327057 216.0 
276.945038 200.0 
277.157288 336.0 
277.56781 220.0 
278.118317 212.0 
279.623291 276.0 
282.745819 232.0 
285.152832 204.0 
285.983246 240.0 
286.636322 220.0 
286.936157 208.0 
287.135956 352.0 
288.346527 244.0 
289.009064 224.0 
289.862 220.0 
290.122864 196.0 
290.38385 204.0 
291.052094 216.0 
291.439148 220.0 
291.622559 220.0 
291.748291 196.0 
293.521393 212.0 
293.821411 216.0 
293.906982 220.0 
294.046539 204.0 
294.182587 11096.0 
294.927368 220.0 
295.18631 1408.0 
295.548309 208.0 
296.191803 532.0 
297.193481 204.0 
301.730988 216.0 
301.838135 264.0 
302.824005 240.0 
306.964813 240.0 
311.047516 216.0 
312.232819 12060.0 
312.848572 208.0 
313.235565 2440.0 
314.236755 784.0 
315.108246 228.0 
315.298645 224.0 
316.01651 328.0 
317.613525 248.0 
318.186157 408.0 
319.183502 208.0 
320.189758 264.0 
327.845581 228.0 
327.888824 276.0 
328.148254 204.0 
328.501526 228.0 
329.808136 216.0 
331.468567 212.0 
331.733307 260.0 
333.332916 220.0 
334.227051 256.0 
335.22998 296.0 
335.268097 264.0 
335.442963 220.0 
338.121002 196.0 
338.195953 208.0 
338.294739 264.0 
338.609497 256.0 
338.777924 208.0 
339.199158 196.0 
339.257782 408.0 
339.294434 200.0 
339.324249 240.0 
339.567657 220.0 
339.598663 212.0 
339.933197 316.0 
340.1008 424.0 
340.171204 268.0 
340.228271 134140.0 
340.416656 260.0 
340.552338 244.0 
340.712585 196.0 
340.772308 332.0 
341.005371 252.0 
341.231018 30972.0 
342.233643 4744.0 
342.848511 224.0 
343.239563 544.0 
343.536743 248.0 
344.235565 252.0 
347.912598 272.0 
348.532562 196.0 
352.964203 280.0 
354.654114 268.0 
361.323792 200.0 
362.523956 272.0 
366.268494 204.0 
366.592194 220.0 
370.403564 196.0 
372.76593 236.0 
377.370148 220.0 
384.268738 220.0 
388.053406 288.0 
398.30188 216.0 
400.209991 196.0 
402.932922 212.0 
404.475891 196.0 
411.26535 8892.0 
412.267151 2936.0 
413.271667 488.0 
413.872437 200.0 
415.194397 208.0 
415.269257 236.0 
416.950073 208.0 
421.994446 260.0 
424.839569 248.0 
428.142853 224.0 
430.496613 216.0 
434.476746 196.0 
440.339294 232.0 
441.914581 208.0 
446.245361 232.0 
449.508331 232.0 
450.314331 204.0 
453.138885 248.0 
459.432587 312.0 
463.051544 220.0 
466.522858 224.0 
468.603485 204.0 
469.801483 232.0 
471.311951 220.0 
482.101562 220.0 
482.699493 220.0 
488.76413 268.0 
492.103729 196.0 
494.749023 204.0 
495.025757 196.0 
495.273163 240.0 
495.315521 204.0 
495.563324 236.0 
495.665344 212.0 
496.161224 308.0 
496.204926 444.0 
496.318787 103376.0 
496.521881 200.0 
496.697632 256.0 
497.092407 208.0 
497.12146 212.0 
497.217194 252.0 
497.268677 476.0 
497.32132 36828.0 
497.616791 360.0 
497.712433 220.0 
498.323639 3912.0 
498.876068 196.0 
498.97702 268.0 
499.323944 896.0 
499.394836 360.0 
499.944733 208.0 
500.32016 300.0 
501.38858 212.0 
503.172058 200.0 
533.364441 224.0 
551.592712 308.0 
576.094971 220.0 
591.090881 208.0 
610.079224 288.0 
614.356934 224.0 
624.905151 228.0 
626.12915 208.0 
678.340332 200.0 
683.115234 288.0 
683.930542 220.0 
686.374573 276.0 
686.746582 216.0 
686.904175 228.0 
687.2677 352.0 
687.305115 452.0 
687.413086 80204.0 
687.660095 200.0 
688.013977 312.0 
688.187256 260.0 
688.315125 204.0 
688.416077 34152.0 
688.681946 228.0 
688.76593 220.0 
688.817871 316.0 
689.065552 348.0 
689.257019 296.0 
689.418579 5696.0 
689.496216 208.0 
690.421692 1492.0 
691.431519 212.0 
691.961121 220.0 
692.575317 212.0 
715.53186 212.0 
716.394226 196.0 
1102.000366 204.0 
1158.844727 296.0 
1177.203125 216.0 
1205.556152 196.0 
1207.097046 236.0 
1224.738403 240.0 
1229.121704 212.0 
1237.65271 240.0 
1242.346558 256.0 
1272.27771 260.0 
1280.316284 236.0 
1290.594727 272.0 
1309.40979 208.0 
1322.002197 240.0 
1326.128662 256.0 
1335.32373 208.0 
1346.499146 208.0 
1358.644897 252.0 
1362.15979 220.0 
1367.892944 272.0 
1387.972778 208.0 
1421.399048 256.0 
1432.05481 248.0 
1439.276367 204.0 
1463.758423 200.0 
1474.838867 228.0 
1497.309814 288.0 
1507.983276 224.0 
1514.410156 208.0 
1533.694824 280.0 
1534.754517 200.0 
1551.228149 220.0 
1552.881958 196.0 
1554.858276 248.0 
1558.084106 200.0 
1558.28833 212.0 
1563.86145 212.0 
1568.420044 212.0 
1570.067139 204.0 
1582.428467 212.0 
1586.530518 240.0 
1603.088379 288.0 
1604.043823 264.0 
1605.031982 272.0 
1614.986572 244.0 
1617.137939 204.0 
1620.155518 280.0 
1635.824463 208.0 
1636.017578 204.0 
1649.895752 212.0 
1656.334595 236.0 
1675.18042 208.0 
1677.094604 236.0 
1684.500488 200.0 
1689.378784 248.0 
1690.253784 200.0 
1699.714111 228.0 
1700.903564 220.0 
1709.718994 200.0 
1716.001343 228.0 
1718.367432 212.0 
1742.939941 240.0 
1745.698608 220.0 
1755.846069 236.0 
1773.47168 216.0 
1781.297119 244.0 
1781.540649 220.0 
1786.826416 204.0 
1795.566284 272.0 
1796.848022 248.0 
1800.526733 204.0 
1806.449341 236.0 
1814.092896 224.0 
1818.518921 272.0 
1829.15625 228.0 
1834.571777 200.0 
1847.897705 220.0 
1849.907959 232.0 
1854.788574 260.0 
1861.383423 276.0 
1863.787476 196.0 
1866.433838 276.0 
1870.656372 228.0 
1878.313721 220.0 
1897.677368 204.0 
1898.656738 216.0 
1903.106445 224.0 
1919.33606 220.0 
1920.835449 244.0 
1926.74292 240.0 
1941.047485 260.0 
1941.599731 200.0 
1952.608276 256.0 
1956.724731 272.0 
1970.450928 240.0 
1971.440186 212.0 
1973.560791 232.0 
1983.835327 200.0 
1998.919067 200.0 
2001.686279 224.0 
END IONS

