BEGIN IONS
PEPMASS=963.482
CHARGE=1+
MSLEVEL=2
SOURCE_INSTRUMENT=LC-ESI-Orbitrap
FILENAME=f.RReher/Culebra/pure_compounds/963_Molassamide/Molassamide_MS2_M+H_QE.mgf;
SEQ=*..*
IONMODE=Positive
ORGANISM=GNPS-LIBRARY
NAME=Molassamide M+H
PI=Gerwick
DATACOLLECTOR=Raphael Reher
SMILES=CCCC(NC(C(NC(C(NC1C(C)OC(C(C(C)C)NC(C(CC2=CC=C(O)C=C2)N(C)C(C(CC3=CC=CC=C3)N4C(O)CCC(NC(/C(NC1=O)=C\C)=O)C4=O)=O)=O)=O)=O)C(O)C)=O)C)=O
INCHI=
INCHIAUX=
PUBMED=
SUBMITUSER=RReher
LIBRARYQUALITY=3
SPECTRUMID=CCMSLIB00005723404
SCANS=1
87.373032 6371.291992 
87.373802 11612.429688 
87.37458 13752.242188 
87.375351 11360.507812 
87.376129 6252.092773 
91.051712 4709.927246 
91.052536 10550.130859 
91.05336 31480.355469 
91.054192 53795.714844 
91.055016 64543.175781 
91.05584 46109.550781 
91.056664 24620.3125 
91.057487 6687.206055 
91.9533 25045.021484 
91.95414 23199.291016 
91.954979 15392.84668 
91.955811 7118.907715 
95.716492 5258.132324 
95.717384 11344.231445 
95.718269 14273.56543 
95.719162 11121.962891 
95.720047 4527.180664 
103.052528 11518.25293 
103.05352 19549.445312 
103.054512 23319.976562 
103.055504 20035.845703 
103.056496 12124.917969 
103.057487 4719.814941 
107.046707 10429.293945 
107.04776 22370.189453 
107.048805 32657.402344 
107.049858 33574.625 
107.050911 24337.46875 
107.051956 11634.735352 
107.053009 2980.217041 
111.08976 8651.453125 
111.090866 17193.207031 
111.09198 21212.814453 
111.093086 17509.068359 
111.0942 9351.829102 
113.068184 5644.051758 
113.069321 15157.033203 
113.070465 24821.417969 
113.071602 28600.269531 
113.072746 23943.175781 
113.073883 14238.126953 
113.075027 5733.271973 
114.087669 4838.868164 
114.088829 17211.693359 
114.089981 36356.285156 
114.091141 57035.320312 
114.092293 58117.273438 
114.093452 37051.195312 
114.094604 17020.365234 
114.095764 6233.340332 
115.506256 7013.036133 
115.507431 12924.979492 
115.508606 14990.833008 
115.509789 12042.050781 
115.510963 6484.586426 
120.070274 4499.768555 
120.071526 17115.337891 
120.072769 35900.230469 
120.07402 54901.59375 
120.075264 59988.890625 
120.076515 172746.265625 
120.077766 629978.0625 
120.07901 1399271.75 
120.080261 2230328.5 
120.081505 2371722.25 
120.082756 1584954.125 
120.084 807511.625 
120.085251 237015.703125 
120.086502 76094.84375 
120.087746 55037.589844 
120.088997 38570.097656 
120.090248 14617.928711 
120.091492 4539.496094 
129.684036 6888.650391 
129.68544 14588.685547 
129.686844 19974.759766 
129.688248 19251.964844 
129.689651 12894.787109 
129.691055 5364.651855 
135.063675 6931.100586 
135.06517 16073.651367 
135.06665 24248.0625 
135.068146 25619.193359 
135.069641 19646.337891 
135.071121 10790.257812 
139.08017 1266.907349 
139.081726 9373.958984 
139.083282 35675.625 
139.084839 67984.851562 
139.08638 98018.523438 
139.087936 85655.429688 
139.089493 51173.636719 
139.091049 19872.333984 
139.092606 2563.776123 
142.078995 752.006165 
142.080597 8756.053711 
142.082199 38339.167969 
142.083801 88363.492188 
142.085419 142039.140625 
142.087021 152613.046875 
142.088623 102318.125 
142.09024 51927.625 
142.091843 13334.746094 
142.093445 2061.01416 
146.091064 3825.491943 
146.092743 13508.888672 
146.094421 26229.886719 
146.0961 34532.855469 
146.097763 31986.757812 
146.099442 20380.607422 
146.10112 8653.716797 
150.076508 7861.672363 
150.078247 16835.394531 
150.080002 43116.730469 
150.081741 69345.765625 
150.083481 79369.46875 
150.085236 247188.90625 
150.086975 903875.875 
150.088715 1945497.25 
150.090454 3066837.5 
150.092209 3172056.75 
150.093948 2085572.5 
150.095688 1041016.8125 
150.097443 305051.96875 
150.099182 102484.96875 
150.100922 76886.039062 
150.102676 50334.75 
150.104416 19594.666016 
150.106155 9043.806641 
153.06044 7124.566895 
153.062241 20670.912109 
153.064041 36645.867188 
153.065826 48262.902344 
153.067627 39532.472656 
153.069427 23295.25 
153.071228 8555.185547 
153.073013 3021.290527 
155.077423 10514.541016 
155.079254 23313.267578 
155.081085 32034.923828 
155.082916 29710.101562 
155.084747 18368.337891 
155.086578 7031.5625 
157.093506 9489.266602 
157.095367 20315.064453 
157.097244 26347.009766 
157.099106 22902.015625 
157.100967 13251.347656 
157.102844 4361.777344 
158.086044 6290.768555 
158.087936 8629.503906 
158.089828 35220.25 
158.091705 136918.171875 
158.093597 290267.0625 
158.095474 455212.28125 
158.097366 461347.09375 
158.099243 299222.5 
158.101135 146454.484375 
158.103027 41501.679688 
158.104904 13763.704102 
158.106796 11319.421875 
158.108673 8973.600586 
158.110626 15065.97168 
167.07341 5904.686035 
167.075455 26968.548828 
167.077499 88116.773438 
167.079544 152442.171875 
167.081604 197538.546875 
167.083649 152002.0625 
167.085693 87807.796875 
167.087738 27780.220703 
167.089798 7285.033203 
170.087906 4399.739746 
170.090012 21181.074219 
170.092117 71674.265625 
170.094223 131101.59375 
170.096329 181278.90625 
170.098434 150989.6875 
170.10054 90106.351562 
170.102646 33087.371094 
170.104752 7659.196289 
178.080658 5074.313477 
178.082901 13506.982422 
178.085159 19749.947266 
178.087418 18289.183594 
178.089676 10336.861328 
179.07196 2359.369141 
179.074234 18384.943359 
179.076508 71154.40625 
179.078781 136518.734375 
179.081055 198184.171875 
179.083328 174827.3125 
179.085602 106271.070312 
179.087875 43511.371094 
179.090149 11408.199219 
179.092422 4689.137695 
187.108261 7456.361328 
187.110687 8743.788086 
187.113113 26520.835938 
187.11554 112342.664062 
187.117966 364306.1875 
187.120392 641452.6875 
187.122818 855822.125 
187.125259 685117.1875 
187.127686 405772.25 
187.130112 145027.25 
187.132538 42062.5625 
187.134964 16189.381836 
187.13739 12521.583008 
187.139816 3041.841309 
195.071243 11312.168945 
195.073822 19349.240234 
195.076416 23090.605469 
195.078995 19691.28125 
195.081573 11458.970703 
197.118393 3170.267334 
197.121017 8831.758789 
197.123642 24476.378906 
197.126266 41953.53125 
197.128891 49161.402344 
197.131516 33585.800781 
197.13414 15999.06543 
197.136765 5624.320312 
198.085297 7354.689941 
198.087952 14968.80957 
198.090591 20147.003906 
198.093231 19554.859375 
198.095871 13562.629883 
198.098526 5914.000977 
207.071854 11950.393555 
207.074692 19609.972656 
207.077515 20966.351562 
207.080338 14910.402344 
207.08316 6241.466797 
213.095825 7442.438477 
213.09877 18472.982422 
213.10173 27333.154297 
213.104675 27371.669922 
213.10762 18845.785156 
213.11058 8395.494141 
215.092407 3246.404541 
215.095398 11317.255859 
215.098389 23981.152344 
215.101379 34845.375 
215.104385 40624.523438 
215.107376 137922.546875 
215.110367 514091.90625 
215.113358 1091975.125 
215.116348 1711915.75 
215.119339 1745287.625 
215.12233 1139021.625 
215.12532 562800.25 
215.128311 165913.65625 
215.131317 60394.34375 
215.134308 50494.308594 
215.137299 38034.703125 
215.140289 21640.804688 
215.14328 1441.162598 
222.114777 8845.84082 
222.11792 17833.386719 
222.121063 23885.257812 
222.124207 22677.966797 
222.12735 14938.777344 
222.130478 6128.28418 
223.100815 7597.722656 
223.103973 15606.741211 
223.107132 20790.330078 
223.110291 19303.400391 
223.113449 12187.985352 
224.09259 8875.733398 
224.095764 36932.347656 
224.098953 66239.726562 
224.102127 86722.78125 
224.105316 66232.242188 
224.10849 37574.535156 
224.111679 12478.649414 
224.114853 5267.65918 
225.111877 64.646126 
225.115082 12776.660156 
225.118286 31884.265625 
225.12149 53176.246094 
225.124695 55447.457031 
225.127899 36103.164062 
225.131104 17712.308594 
225.134308 4466.976562 
226.079254 9805.865234 
226.082489 20444.96875 
226.085709 27846.251953 
226.088928 26778.363281 
226.092148 18491.439453 
226.095383 8970.109375 
243.09108 13687.305664 
243.094666 21120.052734 
243.098267 66846.242188 
243.101852 270670.75 
243.105453 887159.375 
243.109055 1551626.625 
243.11264 2047085.625 
243.116241 1611966.5 
243.119843 951777.25 
243.123428 329693.125 
243.127029 126879.601562 
243.13063 109761.117188 
243.134338 129103.75 
243.137939 91197.929688 
243.141541 50631.253906 
249.148071 4653.651367 
249.151794 13994.572266 
249.155533 34936.796875 
249.159256 47240.011719 
249.162994 37495.25 
249.166718 21059.699219 
249.170456 6461.766602 
250.102051 2870.378906 
250.105804 10423.53418 
250.109543 44142.671875 
250.113297 93351.648438 
250.11705 144631.125 
250.120804 139093.21875 
250.124557 86898.570312 
250.128311 38505.277344 
250.132065 9922.352539 
250.135818 5106.727051 
268.107483 6287.629395 
268.111633 12109.681641 
268.115814 51689.921875 
268.119965 178092.8125 
268.124146 326941.21875 
268.128296 457315.96875 
268.132446 388598.59375 
268.136627 233827.25 
268.140778 91539.015625 
268.144958 23850.929688 
268.149109 6261.839844 
270.147034 5620.378906 
270.151245 14731.545898 
270.155457 23970.462891 
270.159668 26754.554688 
270.163879 20795.267578 
270.168091 10578.041016 
295.144806 6998.834961 
295.149597 23319.541016 
295.154419 85459.078125 
295.15921 168508.09375 
295.164032 249381.234375 
295.168854 225753.1875 
295.173645 138264.75 
295.178467 56920.125 
295.183258 14170.117188 
295.18808 6031.364746 
298.133911 1047.421997 
298.138794 17296.693359 
298.143677 65282.203125 
298.14856 121670.164062 
298.153442 171928.765625 
298.158325 147008.8125 
298.163208 89012.5625 
298.168091 35942.03125 
298.172974 11008.356445 
298.177856 4724.173828 
308.103912 6206.061523 
308.109039 9641.053711 
308.114166 38803.804688 
308.119293 102616.398438 
308.12442 170741.09375 
308.129547 192094.859375 
308.134705 131488.640625 
308.139832 66744.367188 
308.144958 20400.71875 
308.150085 18242.894531 
308.155212 32942.675781 
308.160339 42565.558594 
308.165466 34964.320312 
308.170593 15604.164062 
308.175751 5838.370117 
321.143005 10098.063477 
321.148468 20064.818359 
321.153931 25752.578125 
321.159393 22197.990234 
321.164856 12052.603516 
326.123657 680.243896 
326.129242 10233.458008 
326.134827 45660.476562 
326.140411 108795.742188 
326.145996 177727.046875 
326.151581 194116.015625 
326.157196 131383.96875 
326.162781 68018.0 
326.168365 19813.109375 
326.17395 6433.299805 
332.184174 8025.779297 
332.189941 14462.12207 
332.195679 17057.888672 
332.201416 13626.859375 
332.207153 6717.870605 
391.16452 3474.376221 
391.171844 12050.006836 
391.179169 36787.472656 
391.186523 82340.484375 
391.193848 132817.65625 
391.201202 148224.125 
391.208527 101143.265625 
391.215881 51461.570312 
391.223206 10868.539062 
409.174438 7133.641113 
409.182281 26514.949219 
409.190125 90956.265625 
409.197968 172445.609375 
409.205841 250946.890625 
409.213684 225896.484375 
409.221527 138314.890625 
409.229401 58247.355469 
409.237244 13520.30957 
409.245087 812.461792 
420.120972 1458.008301 
420.12915 15563.279297 
420.137299 17701.486328 
420.145477 40101.570312 
420.153656 53156.761719 
420.161804 146291.09375 
420.169983 499803.25 
420.178162 1111950.125 
420.18631 1776594.375 
420.194489 1916899.25 
420.202667 1291905.875 
420.210815 663404.6875 
420.218994 185469.15625 
420.227173 47608.242188 
420.235352 31661.433594 
420.2435 24832.445312 
420.251678 11744.902344 
420.259857 1653.373047 
443.205658 8699.744141 
443.214508 14860.730469 
443.223358 16944.222656 
443.232208 13393.018555 
443.241058 6743.770996 
503.188293 7586.584961 
503.199005 30840.474609 
503.209717 78361.179688 
503.220398 130914.210938 
503.23111 155048.71875 
503.241821 110376.320312 
503.252533 59217.347656 
503.263245 15196.874023 
633.271057 11636.783203 
633.286133 19780.226562 
633.30127 23093.933594 
633.316406 18954.603516 
633.331482 10263.541016 
678.584717 8217.856445 
678.601501 15091.763672 
678.618286 18037.197266 
678.63501 15040.694336 
678.651794 8314.152344 
703.299866 2650.175049 
703.317566 10245.271484 
703.335205 32496.882812 
703.352905 50959.152344 
703.370605 51557.886719 
703.388306 31906.291016 
703.406006 13866.150391 
703.423706 393.926025 
804.328247 5467.638672 
804.349915 19892.263672 
804.371521 35774.804688 
804.393188 45764.0 
804.414795 32656.914062 
804.436462 16277.991211 
804.45813 6273.770508 
END IONS

