BEGIN IONS
PEPMASS=304.0
CHARGE=0+
MSLEVEL=2
SOURCE_INSTRUMENT=LC-ESI-qTof
FILENAME=20130221_Jenia_Ger_N-phenethyldodecanamideMH304-qb.1.1..mgf
SEQ=*..*
IONMODE=Positive
ORGANISM=GNPS-LIBRARY
NAME=N-phenethyldodecanamide M+H
PI=Gerwick
DATACOLLECTOR=Jenia
SMILES=CCCCCCCCCCCC(=O)NCCC1=CC=CC=C1
INCHI=InChI=1S/C20H33NO/c1-2-3-4-5-6-7-8-9-13-16-20(22)21-18-17-19-14-11-10-12-15-19/h10-12,14-15H,2-9,13,16-18H2,1H3,(H,21,22)
INCHIAUX=N/A
PUBMED=N/A
SUBMITUSER=mwang87
LIBRARYQUALITY=1
SPECTRUMID=CCMSLIB00000001747
SCANS=1
94.941391 569801.0 
96.822052 394306.0 
102.948883 8768870.0 
104.05278 566136.0 
105.059753 153470464.0 
105.961563 857156.0 
108.677597 496924.0 
121.0616 4036123.0 
121.859314 315205184.0 
122.808823 1736892.0 
139.197021 49534.0 
143.949814 1909012.0 
144.672958 3781226.0 
145.651474 22416696.0 
146.639145 1794197.0 
147.361511 4.0 
150.806885 462158.0 
153.543945 442579.0 
157.150696 35384.0 
158.773926 126765.0 
160.353867 1092835.0 
161.989563 4516263.0 
162.572678 9738640.0 
163.296204 54.0 
182.766617 1492963.0 
183.368317 43.0 
239.481628 245432.0 
240.199585 1448092.0 
303.979401 5853771.0 
304.703461 42.0 
307.269897 69963.0 
END IONS

