BEGIN IONS
PEPMASS=1554.6
CHARGE=0+
MSLEVEL=2
SOURCE_INSTRUMENT=LC-ESI-qTof
FILENAME=20130604_Ger_Jenia_Portoamide_A_MNa1554.6-qb.1.1..mgf
SEQ=*..*
IONMODE=Positive
ORGANISM=GNPS-LIBRARY
NAME=Portoamide A M+Na
PI=Gerwick
DATACOLLECTOR=Jenia
SMILES=CC[C@H](C)[C@@H]1C(=O)N[C@H](C(=O)N/C(=C/C)/C(=O)N[C@H](C(=O)N[C@@H](C(=O)N2CCC[C@H]2C(=O)NC(C(C(=O)N[C@@H](C(=O)NCC(=O)N3CCC[C@H]3C(=O)N4CCC[C@H]4C(=O)N1)CCC(=O)N)O)CC(CC(C(CC(C)C)O)O)OC(=O)[C@H](CC5=CC=C(C=C5)O)N(C)C(=O)C)CCC6=CC=C(C=C6)OC)[C@@H](C)O)CO
INCHI=InChI=1S/C74H109N13O22/c1-10-40(5)61-69(102)81-52(38-88)66(99)77-48(11-2)65(98)83-62(41(6)89)70(103)79-50(27-22-43-20-25-46(108-9)26-21-43)72(105)86-31-12-15-53(86)67(100)80-51(35-47(36-58(93)57(92)33-39(3)4)109-74(107)56(84(8)42(7)90)34-44-18-23-45(91)24-19-44)63(96)71(104)78-49(28-29-59(75)94)64(97)76-37-60(95)85-30-14-17-55(85)73(106)87-32-13-16-54(87)68(101)82-61/h11,18-21,23-26,39-41,47,49-58,61-63,88-89,91-93,96H,10,12-17,22,27-38H2,1-9H3,(H2,75,94)(H,76,97)(H,77,99)(H,78,104)(H,79,103)(H,80,100)(H,81,102)(H,82,101)(H,83,98)/b48-11+/t40-,41+,47?,49+,50+,51?,52-,53-,54-,55-,56-,57?,58?,61+,62-,63?/m0/s1
INCHIAUX=N/A
PUBMED=N/A
SUBMITUSER=mwang87
LIBRARYQUALITY=1
SPECTRUMID=CCMSLIB00000001788
SCANS=1
628.231689 29296.0 
689.896973 15720.0 
786.376343 12324.0 
787.204102 28787.0 
791.35498 15137.0 
822.280762 12000.0 
911.687988 39059.0 
949.554932 8875.0 
959.752319 12570.0 
975.471313 27386.0 
992.293335 58721.0 
993.033325 2.0 
1020.352295 58311.0 
1025.454102 28830.0 
1028.413574 12594.0 
1039.858887 31693.0 
1079.510254 5788.0 
1101.768311 42419.0 
1108.737305 20674.0 
1113.697754 15838.0 
1114.641357 8438.0 
1139.282715 10421.0 
1141.501953 39084.0 
1142.133301 3.0 
1143.359863 14986.0 
1159.467773 55519.0 
1160.561035 5139.0 
1175.586426 14266.0 
1182.258789 45598.0 
1186.584961 44557.0 
1199.493896 11220.0 
1201.274658 47824.0 
1203.914551 73652.0 
1207.884033 19273.0 
1217.094238 50791.0 
1229.796387 20253.0 
1243.875488 27918.0 
1245.632324 24429.0 
1254.704346 61673.0 
1255.474609 99238.0 
1263.549316 11962.0 
1269.90625 61740.0 
1271.295654 68149.0 
1272.094727 35918.0 
1272.959229 65124.0 
1273.592529 296692.0 
1274.692383 250479.0 
1275.399902 1.0 
1279.241211 6197.0 
1280.433105 24400.0 
1281.428223 96078.0 
1283.56543 49553.0 
1287.485107 191148.0 
1288.684082 55379.0 
1289.646973 318939.0 
1290.777832 127717.0 
1291.418945 7.0 
1296.328125 22777.0 
1298.939453 49029.0 
1299.646973 580226.0 
1300.606934 377542.0 
1301.614258 24159.0 
1317.004883 79072.0 
1317.65332 7480300.0 
1318.637695 4125762.0 
1319.600098 1.0 
1331.421143 62030.0 
1335.480225 45127.0 
1336.511963 16506.0 
1345.469238 32012.0 
1356.860352 22908.0 
1369.165039 8431.0 
1372.005859 22607.0 
1373.308105 41516.0 
1381.658691 100844.0 
1390.354248 7379.0 
1395.774902 48662.0 
1398.687744 42432.0 
1431.464355 20756.0 
1439.761475 12259.0 
1442.72168 37950.0 
1443.344238 45519.0 
1444.33374 10782.0 
1445.343994 5833.0 
1449.852295 24980.0 
1453.521973 29373.0 
1462.54541 47607.0 
1465.773682 26393.0 
1466.886719 42677.0 
1469.718994 28485.0 
1470.512695 14184.0 
1471.724121 4783.0 
1474.430664 60025.0 
1480.508301 403307.0 
1481.725586 89778.0 
1482.462158 197328.0 
1483.22168 47294.0 
1492.445557 53558.0 
1493.057617 28161.0 
1493.759521 3488.0 
1494.697998 30579.0 
1496.648193 53274.0 
1497.771484 18979.0 
1498.462402 26790.0 
1499.594727 14743.0 
1506.579346 22119.0 
1508.737305 33803.0 
1510.346436 324059.0 
1511.680908 137063.0 
1512.510742 9.0 
1518.615479 52291.0 
1519.646484 3414.0 
1524.456787 113852.0 
1525.660645 54287.0 
1526.62793 199014.0 
1527.846191 131222.0 
1536.52124 495843.0 
1537.654053 983435.0 
1538.670898 54181.0 
1544.295166 2620.0 
1561.67749 26076.0 
END IONS

