BEGIN IONS
PEPMASS=907.0
CHARGE=0+
MSLEVEL=2
SOURCE_INSTRUMENT=LC-ESI-qTof
FILENAME=20130408_Jenia_Ger_Lyngbyabellin_N_MHCl907-qb.1.1..mgf
SEQ=*..*
IONMODE=Positive
ORGANISM=GNPS-LIBRARY
NAME=Lyngbyabellin N M+H
PI=Gerwick
DATACOLLECTOR=Jenia
SMILES=C[C@H]1[C@@H](OC(=O)C2=CSC(=N2)[C@@H](COC(=O)C3=CSC(=N3)[C@@H](OC1=O)C(C)C)OC(=O)C[C@H]([C@H](CC(C)C)NC(=O)[C@H](C(C)C)N(C)C)OC(=O)C)CCCC(C)(Cl)Cl
INCHI=InChI=1S/C40H58Cl2N4O11S2/c1-20(2)15-25(43-34(49)32(21(3)4)46(10)11)29(54-24(8)47)16-31(48)55-30-17-53-38(51)26-18-59-36(45-26)33(22(5)6)57-37(50)23(7)28(13-12-14-40(9,41)42)56-39(52)27-19-58-35(30)44-27/h18-23,25,28-30,32-33H,12-17H2,1-11H3,(H,43,49)/t23-,25-,28-,29+,30+,32-,33-/m0/s1
INCHIAUX=N/A
PUBMED=N/A
SUBMITUSER=mwang87
LIBRARYQUALITY=1
SPECTRUMID=CCMSLIB00000001760
SCANS=1
290.704956 61011.0 
293.147095 31559.0 
326.849854 119212.0 
328.145569 26213.0 
336.9646 30985.0 
343.821655 60342.0 
344.42218 3.0 
524.575195 102419.0 
526.104858 48815.0 
526.998779 131647.0 
543.772583 79331.0 
560.883423 20394.0 
562.710693 121212.0 
626.372803 42952.0 
681.027466 23635.0 
687.120483 13820.0 
688.483398 10986.0 
711.07605 233318.0 
717.858765 20465.0 
720.520386 20170.0 
723.7771 49031.0 
724.418823 21298.0 
747.028076 41703.0 
771.143921 65063.0 
778.44873 93868.0 
779.518799 55835.0 
790.037964 103043.0 
809.200562 27818.0 
810.201782 26124.0 
811.141724 55681.0 
824.912109 15456.0 
827.859619 38288.0 
828.483276 4.0 
829.239014 35170.0 
838.268188 39879.0 
845.904175 72037.0 
846.98584 42134.0 
864.992798 7005.0 
868.362305 121515.0 
869.066772 2355887.0 
870.048584 3411367.0 
871.030884 4282866.0 
871.738647 371.0 
878.432007 35498.0 
882.758911 13258.0 
END IONS

