BEGIN IONS
PEPMASS=424.0
CHARGE=0+
MSLEVEL=2
SOURCE_INSTRUMENT=LC-ESI-qTof
FILENAME=20121109_Jenia_Ger_MalyngamideK_MH_424_qb.1.1..mgf
SEQ=*..*
IONMODE=Positive
ORGANISM=GNPS-LIBRARY
NAME=Malyngamide K M+H
PI=Gerwick
DATACOLLECTOR=Jenia
SMILES=CCCCCCC[C@@H](C/C=C/CCC(=O)NC/C(=C/Cl)/C1=CCCCC1=O)OC
INCHI=InChI=1S/C24H38ClNO3/c1-3-4-5-6-8-13-21(29-2)14-9-7-10-17-24(28)26-19-20(18-25)22-15-11-12-16-23(22)27/h7,9,15,18,21H,3-6,8,10-14,16-17,19H2,1-2H3,(H,26,28)/b9-7+,20-18-/t21-/m0/s1
INCHIAUX=N/A
PUBMED=N/A
SUBMITUSER=mwang87
LIBRARYQUALITY=1
SPECTRUMID=CCMSLIB00000001587
SCANS=1
120.83783 35150.0 
131.815811 27949.0 
133.064758 12317.0 
138.824432 10659.0 
140.53717 11092.0 
166.067322 2403.0 
167.97995 946862.0 
168.889359 233016.0 
169.666656 1.0 
183.987366 24128.0 
185.835175 647954.0 
186.435883 4.0 
188.647751 36099.0 
199.756287 4400.0 
200.304626 24416.0 
206.922211 15485.0 
211.826141 13326.0 
213.287537 5976.0 
215.761414 3959.0 
224.015701 45580.0 
224.627258 7.0 
238.730286 13185.0 
240.923981 13226.0 
251.802628 112496.0 
256.112823 17113.0 
263.463501 22457.0 
264.411743 8522.0 
264.918518 24931.0 
265.950317 32556.0 
267.710663 24484.0 
279.974854 8231.0 
281.878082 678478.0 
282.594818 13.0 
290.967285 12054.0 
295.873169 22072.0 
307.730591 5129.0 
311.093628 51216.0 
338.036041 43270.0 
338.913452 81333.0 
356.033356 128886.0 
356.71106 1.0 
373.271057 29868.0 
373.992462 332013.0 
391.303711 358095.0 
391.947296 36959392.0 
392.561035 11358.0 
393.895752 37014.0 
405.85376 376517.0 
406.670319 6.0 
424.216187 4870.0 
END IONS

