BEGIN IONS
PEPMASS=490.9
CHARGE=0+
MSLEVEL=2
SOURCE_INSTRUMENT=LC-ESI-Ion Trap
FILENAME=20130604_Ger_Jenia_Jamaicamide_C_MH490.9-qb.1.1..mgf
SEQ=*..*
IONMODE=Positive
ORGANISM=GNPS-LIBRARY
NAME=Jamaicamide C M+H
PI=Gerwick
DATACOLLECTOR=Jenia
SMILES=CO\C(CCNC(=O)CC\C=C\C(C)CC\C(CCCC=C)=C\Cl)=C\C(=O)N1C(C)C=CC1=O
INCHI=InChI=1S/C27H39ClN2O4/c1-5-6-7-11-23(20-28)15-13-21(2)10-8-9-12-25(31)29-18-17-24(34-4)19-27(33)30-22(3)14-16-26(30)32/h5,8,10,14,16,19-22H,1,6-7,9,11-13,15,17-18H2,2-4H3,(H,29,31)/b10-8+,23-20+,24-19+
INCHIAUX=PRVBXXHHHXSICY-GDKFLGFMSA-N
PUBMED=N/A
SUBMITUSER=mwang87
LIBRARYQUALITY=1
SPECTRUMID=CCMSLIB00000001783
SCANS=1
143.33786 9650.0 
147.137817 3199.0 
166.177063 7222.0 
170.13559 98604.0 
170.883331 16.0 
180.603149 13828.0 
182.15918 35991.0 
188.955139 29895.0 
196.309387 36222.0 
207.156128 35815.0 
207.828186 558228.0 
208.646576 55462.0 
209.285645 48641.0 
213.080994 45584.0 
214.556091 20433.0 
230.89209 181802.0 
231.49884 7052.0 
232.514709 7829.0 
263.883301 37513.0 
278.343262 8593.0 
289.885193 7774.0 
317.208984 49227.0 
325.744873 10396.0 
340.19342 34986.0 
358.036987 79002.0 
362.177612 25999.0 
392.523376 7059.0 
393.94751 2536317.0 
394.619568 12598.0 
411.900269 21794.0 
422.833923 32480.0 
459.030029 114871.0 
461.82782 4294.0 
479.349915 7469.0 
490.429932 25910.0 
END IONS

