BEGIN IONS
PEPMASS=485.0
CHARGE=0+
MSLEVEL=2
SOURCE_INSTRUMENT=LC-ESI-qTof
FILENAME=20130221_Jenia_Ger_Hormothamnione_diacetate_MH485-qb.1.1..mgf
SEQ=*..*
IONMODE=Positive
ORGANISM=GNPS-LIBRARY
NAME=Hormothamnione_diacetate M+H
PI=Gerwick
DATACOLLECTOR=Jenia
SMILES=CC1=C(OC2=C(C(=C(C(=C2C1=O)O)OC)OC)OC)/C=C/C3=CC(=CC(=C3)OC(=O)C)OC(=O)C
INCHI=InChI=1S/C25H24O10/c1-12-18(8-7-15-9-16(33-13(2)26)11-17(10-15)34-14(3)27)35-22-19(20(12)28)21(29)23(30-4)25(32-6)24(22)31-5/h7-11,29H,1-6H3/b8-7+
INCHIAUX=N/A
PUBMED=N/A
SUBMITUSER=mwang87
LIBRARYQUALITY=1
SPECTRUMID=CCMSLIB00000001742
SCANS=1
162.993469 3485177.0 
174.834381 2339231.0 
226.890564 8483278.0 
227.656616 421114.0 
318.775757 7290767.0 
350.918823 4846753.0 
351.639465 27.0 
353.279297 733351.0 
367.859009 5404800.0 
371.198669 398104.0 
395.021423 4875348.0 
401.075806 305386304.0 
402.008545 66974432.0 
402.822388 101.0 
407.961121 8707134.0 
408.694092 46.0 
410.009521 12751884.0 
410.769958 5609135.0 
411.473999 9.0 
412.98761 11117216.0 
413.758911 65.0 
424.450623 3854986.0 
428.035889 41264336.0 
428.78125 50.0 
436.940674 45630000.0 
437.920044 17807160.0 
438.554993 166.0 
441.301147 11233256.0 
442.391357 12774360.0 
443.033936 2083853312.0 
444.055786 362356928.0 
444.80249 49361.0 
451.926208 78466320.0 
452.916443 14995952.0 
453.805786 32380912.0 
454.958923 150294464.0 
456.039795 13044036.0 
467.016785 7959083.0 
469.21637 23311896.0 
469.973816 262184064.0 
471.044678 71181360.0 
471.758972 595.0 
484.340332 26582680.0 
485.078125 1313882624.0 
486.076477 358036352.0 
486.725037 26881.0 
END IONS

