BEGIN IONS
PEPMASS=491.0
CHARGE=0+
MSLEVEL=2
SOURCE_INSTRUMENT=LC-ESI-qTof
FILENAME=20130107_Jenia_Ger_Jamaicamide_C_MH491-qb.1.1..mgf
SEQ=*..*
IONMODE=Positive
ORGANISM=GNPS-LIBRARY
NAME=Jamaicamide_C M+H
PI=Gerwick
DATACOLLECTOR=Jenia
SMILES=C[C@H]1C=CC(=O)N1C(=O)/C=C(\CCNC(=O)CC/C=C/C(C)CC/C(=C/Cl)/CCCC=C)/OC
INCHI=InChI=1S/C27H39ClN2O4/c1-5-6-7-11-23(20-28)15-13-21(2)10-8-9-12-25(31)29-18-17-24(34-4)19-27(33)30-22(3)14-16-26(30)32/h5,8,10,14,16,19-22H,1,6-7,9,11-13,15,17-18H2,2-4H3,(H,29,31)/b10-8+,23-20+,24-19+/t21?,22-/m0/s1
INCHIAUX=N/A
PUBMED=N/A
SUBMITUSER=mwang87
LIBRARYQUALITY=1
SPECTRUMID=CCMSLIB00000001708
SCANS=1
147.040375 13444.0 
181.96524 255117.0 
207.809692 1572771.0 
208.955688 34666.0 
213.000488 99500.0 
213.733337 2.0 
225.044342 236866.0 
231.167419 458149.0 
231.888855 9.0 
235.949158 81612.0 
264.035339 30318.0 
287.699463 73501.0 
357.858032 98060.0 
393.187866 62969.0 
393.923767 7705594.0 
394.559509 455.0 
423.087341 119189.0 
458.959167 398211.0 
473.202942 118315.0 
END IONS

