BEGIN IONS
PEPMASS=1383.87
CHARGE=1+
MSLEVEL=2
SOURCE_INSTRUMENT=LC-ESI-Ion Trap
FILENAME=f.RReher/2226/2226I.mzXML;
SEQ=*..*
IONMODE=Positive
ORGANISM=GNPS-LIBRARY
NAME=Samholide I M+Na
PI=Gerwick
DATACOLLECTOR=Daojing Zhang
SMILES=C[C@@H]1O[C@H](C[C@@H](C1)OC)CC[C@@H]([C@H](O)[C@@H]([C@H]2OC(=O)/C=C/C(=C/C[C@@H](C[C@H]3O[C@H](C[C@@H]([C@H]([C@H](C[C@H](C[C@H](OC(=O)/C=C/C(=C/C[C@@H](C[C@H]4O[C@H](C[C@@H]([C@H]([C@H](C[C@H](C2)O)O)C)OC)CC=C4)O)/C)[C@H]([C@@H](O)[C@H](CC[C@@H]5O[C@H](C[C@H](C5)OC)C)C)C)O)O)C)OC)CC=C3)O)/C)C)C
INCHI=
INCHIAUX=
PUBMED=29457979
SUBMITUSER=RReher
LIBRARYQUALITY=3
SPECTRUMID=CCMSLIB00005436030
SCANS=824
475.100403 2540.0 
477.250671 4840.0 
481.235596 11754.0 
489.199524 7358.0 
543.173096 1494.0 
634.364746 4924.0 
641.382324 8658.0 
642.448853 2357.0 
649.327637 4560.0 
659.684326 1777.0 
685.30127 11891.0 
696.436279 4975.0 
697.408936 5415.0 
698.06665 1.0 
702.609131 5426.0 
703.383301 465604.0 
704.393066 44015.0 
709.287109 12778.0 
710.578613 6876.0 
799.391846 1263.0 
847.213867 3054.0 
859.720703 2269.0 
863.388184 5560.0 
864.569824 4182.0 
891.463379 1909.0 
892.618164 2765.0 
907.36438 6576.0 
908.394043 2570.0 
923.672607 2604.0 
924.440796 1187.0 
925.457642 341731.0 
926.431152 30894.0 
947.450562 10550.0 
948.133301 1.0 
1011.443604 1860.0 
1052.616699 1238.0 
1054.054688 1105.0 
1069.578613 46175.0 
1070.469238 9249.0 
1095.715332 1359.0 
1097.868164 6301.0 
1098.768066 4874.0 
1099.393066 1905.0 
1107.330322 5145.0 
1113.545898 91950.0 
1114.533447 12525.0 
1133.55127 13961.0 
1141.564453 5098.0 
1143.875488 5275.0 
1151.474609 25617.0 
1152.405273 2277.0 
1157.44043 7311.0 
1161.647949 488278.0 
1162.618652 76254.0 
1167.644043 3097.0 
1169.473633 76998.0 
1170.422607 5036.0 
1191.031006 3599.0 
1205.288086 1694.0 
1223.555176 2028.0 
1224.479004 7311.0 
1272.977783 3527.0 
1273.941406 2560.0 
1275.512207 2855.0 
1303.218994 7873.0 
1304.056885 1660.0 
1315.174316 3138.0 
1315.907715 4009.0 
1320.537354 1443.0 
1321.72583 95077.0 
1322.734863 15110.0 
1329.491211 13732.0 
1333.606201 1883.0 
1338.615479 3218.0 
1339.915771 2744.0 
1346.649902 1515.0 
1347.695557 26325.0 
1348.333252 1.0 
1349.18335 4276.0 
1351.772949 1000.0 
1364.720459 3659.0 
1365.661377 202663.0 
1366.67041 82582.0 
1382.676758 9501.0 
1383.684814 513797.0 
1384.728027 55285.0 
END IONS

