BEGIN IONS
PEPMASS=372.217
CHARGE=1+
MSLEVEL=2
SOURCE_INSTRUMENT=LC-ESI-qTof
FILENAME=2A11_S-4-benzyl-3-((S)-3-hydroxy-2_2-dimethyloct-7-ynoyl)-5_5-dimethyloxazolidin-2-one.mzXML
SEQ=*..*
IONMODE=Positive
ORGANISM=GNPS-LIBRARY
NAME="S-4-benzyl-3-((S)-3-hydroxy-2,2-dimethyloct-7-ynoyl)-5,5-dimethyloxazolidin-2-one" M+H
PI=Dorrestein/Gerwick
DATACOLLECTOR=Garg/Luzzato
SMILES=O=C1OC(C)(C)[C@H](CC2=CC=CC=C2)N1C(C(C)(C)[C@@H](O)CCCC#C)=O
INCHI=N/A
INCHIAUX=N/A
PUBMED=N/A
SUBMITUSER=mwang87
LIBRARYQUALITY=2
SPECTRUMID=CCMSLIB00000068229
SCANS=1770
95.123505 228.0 
97.101212 168.0 
100.342941 196.0 
103.051567 212.0 
105.071846 384.0 
109.097397 156.0 
109.755028 248.0 
112.019676 236.0 
114.95285 188.0 
116.266266 168.0 
117.069824 416.0 
117.087166 188.0 
118.438667 264.0 
120.087708 196.0 
120.736084 172.0 
120.860725 296.0 
121.101379 188.0 
122.641022 152.0 
125.09655 208.0 
127.63485 308.0 
128.062256 156.0 
128.695679 200.0 
129.066086 168.0 
131.080933 196.0 
132.946167 276.0 
138.368088 140.0 
138.95845 196.0 
139.111816 956.0 
140.112335 232.0 
143.086304 196.0 
144.634354 288.0 
145.100983 6304.0 
145.919647 204.0 
146.076187 164.0 
146.106232 544.0 
146.517014 120.0 
147.104431 196.0 
149.094437 628.0 
151.477371 160.0 
155.088226 236.0 
155.949142 204.0 
157.13147 176.0 
162.128265 244.0 
163.133026 212.0 
165.525208 184.0 
167.108063 448.0 
171.126099 240.0 
172.04863 148.0 
188.354065 204.0 
191.749451 204.0 
192.187729 216.0 
195.5923 276.0 
200.142563 212.0 
204.287094 200.0 
205.865433 184.0 
206.118164 5708.0 
207.122253 1636.0 
208.124695 140.0 
208.761444 140.0 
209.457642 160.0 
210.110443 248.0 
239.150726 168.0 
240.176331 172.0 
243.188751 184.0 
260.937164 204.0 
262.150116 208.0 
269.424957 168.0 
272.243896 160.0 
273.121094 264.0 
274.51358 272.0 
276.165802 236.0 
281.746399 252.0 
282.217438 220.0 
288.924438 188.0 
293.875916 144.0 
306.989136 140.0 
307.595978 212.0 
310.21875 1952.0 
311.221405 248.0 
315.118774 180.0 
320.064606 220.0 
328.220245 140.0 
347.074371 144.0 
353.190613 172.0 
354.163391 156.0 
354.207123 3244.0 
355.20993 1544.0 
356.214844 172.0 
358.274963 144.0 
369.355103 192.0 
370.192841 204.0 
371.173492 268.0 
371.211823 164.0 
371.365173 184.0 
372.232117 256.0 
373.030914 140.0 
373.171173 184.0 
375.166534 220.0 
375.255615 208.0 
741.135925 160.0 
795.988708 140.0 
1243.812256 208.0 
1486.351929 152.0 
1511.794067 192.0 
1537.631592 268.0 
1571.880371 144.0 
1583.393677 176.0 
1588.210571 232.0 
1592.780762 216.0 
1627.185547 164.0 
1699.836792 156.0 
1713.529419 224.0 
1890.248169 212.0 
1906.59668 192.0 
1909.733887 256.0 
1938.251953 256.0 
END IONS

