BEGIN IONS
PEPMASS=627.45
CHARGE=1+
MSLEVEL=2
SOURCE_INSTRUMENT=LC-ESI-Ion Trap
FILENAME=f.arihiro1013/purec_ompounds_0223/BLS_190223165918.mzXML;
SEQ=*..*
IONMODE=Positive
ORGANISM=GNPS-LIBRARY
NAME=Biselyngbyaside M+Na
PI=Gerwick
DATACOLLECTOR=Arihiro Iwasaki
SMILES=C/C=C/C/C(C)=C\[C@@H](C/C=C/C=C/C[C@H](C)/C=C(C)/[C@@H](OC)C/C=C/[C@@H](O[C@@H]([C@@H]1O)O[C@H](CO)[C@@H](O)[C@@H]1OC)C2)OC2=O
INCHI=InChI=1S/C34H52O9/c1-7-8-14-24(3)20-26-16-12-10-9-11-15-23(2)19-25(4)28(39-5)18-13-17-27(21-30(36)41-26)42-34-32(38)33(40-6)31(37)29(22-35)43-34/h7-13,17,19-20,23,26-29,31-35,37-38H,14-16,18,21-22H2,1-6H3/b8-7+,11-9+,12-10+,17-13+,24-20-,25-19+/t23-,26+,27+,28?,29+,31+,32+,33?,34+/m0/s1
INCHIAUX=
PUBMED=19432458
SUBMITUSER=arihiro1013
LIBRARYQUALITY=3
SPECTRUMID=CCMSLIB00004753000
SCANS=736
185.07486 9278.0 
215.05368 12703.0 
215.804779 36096.0 
217.022888 625743.0 
217.81665 4.0 
225.008118 8774.0 
227.048462 3674.0 
248.476227 2930.0 
254.060638 2631.0 
255.436859 9196.0 
256.970947 4225.0 
257.850098 9637.0 
258.6651 3127.0 
281.505371 2242.0 
305.4552 1346.0 
327.984314 95858.0 
388.556091 23818.0 
389.191406 667957.0 
390.0 1.0 
403.12262 96665.0 
409.166504 72021.0 
410.0 1.0 
433.333557 14819.0 
435.138916 179263.0 
435.883301 8.0 
439.952881 63470.0 
449.285522 2379.0 
451.149353 125958.0 
488.496643 7258.0 
489.326599 10500.0 
500.326477 3028.0 
519.623779 22709.0 
520.314331 18641.0 
535.319092 23330.0 
550.936035 9852.0 
570.849243 14201.0 
583.213379 11252.0 
585.129395 4262.0 
595.21582 191114.0 
596.218994 1913.0 
597.266602 9600.0 
627.115234 156040.0 
627.720581 12312.0 
END IONS

