BEGIN IONS
PEPMASS=826.0
CHARGE=0+
MSLEVEL=2
SOURCE_INSTRUMENT=LC-ESI-Ion Trap
FILENAME=20130107_ViequeamideANa_MC-2034-E1_N1p3_KinMF-qb.1.1..mgf
SEQ=*..*
IONMODE=Positive
ORGANISM=GNPS-LIBRARY
NAME=Viequeamide A M+Na
PI=Gerwick
DATACOLLECTOR=Jenia
SMILES=[H][C@@]12CCCN1C(=O)[C@]([H])(OC(=O)[C@H](C(C)C)N(C)C(=O)[C@@H](NC(=O)C(C)(C)[C@H](CCCC#C)OC(=O)C(NC(=O)[C@H](C(C)C)N(C)C2=O)[C@@H](C)O)C(C)C)[C@@H](C)CC
INCHI=InChI=1S/C42H69N5O10/c1-15-17-18-21-29-42(11,12)41(55)44-30(23(3)4)37(51)46(14)33(25(7)8)40(54)57-34(26(9)16-2)38(52)47-22-19-20-28(47)36(50)45(13)32(24(5)6)35(49)43-31(27(10)48)39(53)56-29/h1,23-34,48H,16-22H2,2-14H3,(H,43,49)(H,44,55)/t26-,27+,28-,29-,30-,31?,32-,33-,34+/m0/s1
INCHIAUX=WRHBDNJXUOKAGU-JKHSHXPWSA-N
PUBMED=N/A
SUBMITUSER=mwang87
LIBRARYQUALITY=1
SPECTRUMID=CCMSLIB00000001715
SCANS=1
285.89624 106571.0 
288.170898 53477.0 
329.231323 290698.0 
385.965454 251787.0 
421.49231 196683.0 
448.272522 203886.0 
460.115845 181006.0 
466.333984 381057.0 
475.130615 33761.0 
526.064209 19335.0 
579.26001 1538183.0 
580.393677 445250.0 
585.212402 1334362.0 
585.966553 2.0 
611.163574 312066.0 
612.116699 171351.0 
612.952026 61926.0 
660.283691 329511.0 
663.433472 413462.0 
664.431763 1424600.0 
679.405029 851369.0 
680.12793 114559.0 
688.222656 418367.0 
704.291992 2921221.0 
705.390137 350485.0 
707.338501 25125448.0 
708.415771 8237784.0 
709.029663 642.0 
713.524048 1089791.0 
724.316162 239309.0 
725.403076 1556389.0 
726.335815 859116.0 
726.963867 111.0 
730.380371 119855.0 
737.339966 33609.0 
763.688477 213184.0 
764.361694 6764252.0 
765.452393 3601570.0 
779.735352 68183.0 
781.175049 124905.0 
782.447144 3272201.0 
783.309692 1167082.0 
784.299927 2.0 
791.071411 75435.0 
798.252441 130299.0 
808.43103 7835661.0 
809.435913 1520543.0 
826.495239 101790.0 
END IONS

