BEGIN IONS
PEPMASS=928.2
CHARGE=0+
MSLEVEL=2
SOURCE_INSTRUMENT=LC-ESI-qTof
FILENAME=20130221_Jenia_Ger_Hoiamide_A_MS34H928.2-qb.1.1..mgf
SEQ=*..*
IONMODE=Positive
ORGANISM=GNPS-LIBRARY
NAME=Hoiamide_A M+H
PI=Gerwick
DATACOLLECTOR=Jenia
SMILES=CCC[C@@H](C)[C@@H]([C@H](C)[C@@H]1[C@H]([C@H](CC2=NC(=CS2)C3=N[C@](CS3)(C4=N[C@](CS4)(C(=O)N[C@H]([C@H]([C@H](C(=O)O[C@H](C(=O)N[C@H](C(=O)O1)[C@@H](C)O)C(C)C)C)O)[C@@H](C)CC)C)C)OC)C)O
INCHI=InChI=1S/C44H71N5O10S3/c1-14-16-23(6)33(51)25(8)36-24(7)29(57-13)17-30-45-28(18-60-30)38-48-44(12,20-61-38)42-49-43(11,19-62-42)41(56)47-31(22(5)15-2)34(52)26(9)39(54)58-35(21(3)4)37(53)46-32(27(10)50)40(55)59-36/h18,21-27,29,31-36,50-52H,14-17,19-20H2,1-13H3,(H,46,53)(H,47,56)/t22-,23+,24-,25-,26+,27+,29-,31-,32-,33-,34-,35-,36-,43+,44+/m0/s1
INCHIAUX=N/A
PUBMED=N/A
SUBMITUSER=mwang87
LIBRARYQUALITY=1
SPECTRUMID=CCMSLIB00000001731
SCANS=1
281.131409 638433.0 
295.58429 661035.0 
299.302429 551377.0 
300.76123 1111602.0 
313.001862 2588022.0 
322.883606 600249.0 
324.721069 1340377.0 
338.081055 3215569.0 
339.037354 937142.0 
339.699158 2.0 
340.803223 550450.0 
358.922058 1398469.0 
360.323792 883854.0 
372.119446 627986.0 
373.18103 1147653.0 
374.723633 1941746.0 
375.391113 5.0 
375.932129 2910069.0 
376.933075 4069093.0 
377.58847 541766.0 
378.112305 997491.0 
378.95517 3022535.0 
379.983978 459555.0 
383.52356 970471.0 
384.773315 358061.0 
390.75528 7866899.0 
409.067505 549748.0 
410.002777 1846862.0 
410.880829 664351.0 
421.214661 6027373.0 
421.836853 2384532.0 
422.781372 1012115.0 
423.32373 85821.0 
426.149536 1404710.0 
426.853516 1.0 
427.973877 662177.0 
431.44397 953848.0 
436.099609 3346537.0 
437.120361 594167.0 
438.044678 964400.0 
439.828613 1645392.0 
440.54541 3.0 
443.551025 2836266.0 
444.184021 1.0 
451.060303 768498.0 
454.011963 675583.0 
455.825195 863411.0 
457.158875 4378699.0 
457.98465 10901840.0 
459.238525 5596223.0 
459.706268 92.0 
473.361633 730119.0 
475.076416 2612603.0 
476.232056 9954678.0 
477.136566 1893761.0 
483.144775 210404.0 
485.758057 672743.0 
490.001892 554616.0 
490.996613 5149086.0 
491.530792 8.0 
494.671997 156037.0 
495.964478 662947.0 
500.233185 1941042.0 
500.773071 1764841.0 
501.408936 1.0 
502.940887 10140557.0 
504.184265 13151455.0 
505.050873 12673999.0 
505.668671 45.0 
506.510559 1312948.0 
507.282074 8511688.0 
508.057373 16029459.0 
509.006927 14378587.0 
510.071625 1145357.0 
518.709961 998778.0 
520.014221 2118214.0 
521.323975 7916160.0 
522.198853 20000128.0 
522.998779 1678057.0 
523.698853 3.0 
524.410645 972653.0 
532.234863 1281764.0 
532.92334 720431.0 
534.654175 1311383.0 
535.19873 656229.0 
536.138489 1976338.0 
537.340637 3103522.0 
537.968262 16.0 
539.22522 2362441.0 
539.909302 10.0 
548.134644 542256.0 
551.796387 1925023.0 
553.029724 43441336.0 
554.102234 45075720.0 
555.194092 27013632.0 
556.265076 1077060.0 
557.014648 4009830.0 
563.119507 1091327.0 
564.124268 444817.0 
566.934082 2451496.0 
567.873535 1288753.0 
569.00708 290535.0 
575.109375 1385254.0 
576.043945 5447434.0 
577.091309 5134410.0 
577.828979 7.0 
580.283203 1618860.0 
581.763916 1452283.0 
582.450684 1.0 
585.036743 3451626.0 
593.572021 4671644.0 
594.293701 87.0 
601.236084 2389206.0 
601.947266 4623226.0 
602.476807 1212046.0 
603.108398 1041104.0 
605.158447 1501504.0 
606.264404 2362555.0 
607.109192 1250752.0 
609.030334 2407045.0 
612.354736 2230471.0 
613.349426 4205849.0 
614.207703 5414626.0 
615.201721 2841758.0 
615.923584 4.0 
617.09082 2194838.0 
618.145081 9378815.0 
619.087463 1673563.0 
620.304321 8385764.0 
621.21106 402964.0 
624.068481 206559.0 
626.038086 401381.0 
628.235229 834318.0 
630.101135 1547840.0 
630.987244 1455857.0 
632.276062 4214855.0 
633.25354 1008746.0 
634.108826 3106550.0 
635.07666 5657661.0 
639.187622 1048447.0 
640.215454 5082563.0 
643.248291 871214.0 
644.313904 3291406.0 
645.145508 2466223.0 
645.99585 15623488.0 
647.108887 5796520.0 
647.732544 20.0 
650.981567 6237500.0 
652.223755 19101248.0 
653.255859 2258969.0 
656.779358 7890813.0 
657.982727 24069320.0 
659.152405 6682069.0 
659.955322 1052850.0 
661.258789 982325.0 
662.253357 5807077.0 
663.267334 19347640.0 
664.210815 21919184.0 
665.095886 15942376.0 
665.858765 33.0 
669.362671 2379795.0 
670.105225 1552975.0 
672.121582 3329257.0 
673.32605 2692541.0 
675.468262 18198800.0 
676.084534 7899519.0 
677.129456 10593549.0 
678.248291 924128.0 
679.242676 519886.0 
680.235352 904982.0 
681.039062 936871.0 
682.431396 1298703.0 
686.246948 604265.0 
688.037109 443225.0 
689.08197 7978445.0 
690.030518 53322832.0 
691.215881 11813500.0 
692.080078 832070.0 
693.364563 4631677.0 
694.443054 3154991.0 
695.249023 1572566.0 
695.945312 3.0 
697.50708 1107710.0 
698.09082 928536.0 
700.179688 655847.0 
700.79248 4.0 
702.332764 1920010.0 
703.984131 625400.0 
707.123901 8827362.0 
708.202942 46446184.0 
709.169861 22293784.0 
709.718628 33.0 
710.445312 364474.0 
711.224304 5687055.0 
712.088013 10.0 
712.901001 291294.0 
713.949585 1112267.0 
715.383301 4046909.0 
716.074829 6.0 
718.674438 1230741.0 
721.5354 2452561.0 
722.173096 993022.0 
723.985413 4208481.0 
725.134766 14456398.0 
726.238708 24478032.0 
727.228271 2969760.0 
730.281372 723635.0 
731.109619 832474.0 
731.931152 1378536.0 
733.15979 1834137.0 
734.351929 475999.0 
737.177246 1999580.0 
737.886841 500905.0 
738.578613 2800717.0 
739.298157 4171150.0 
740.181274 4488390.0 
741.513428 2526699.0 
744.017334 425857.0 
746.173584 731303.0 
747.302429 4334271.0 
748.265381 1523198.0 
749.2854 5779131.0 
750.190247 5278282.0 
750.757812 9.0 
753.033447 1434541.0 
754.893188 2890586.0 
755.977905 6302649.0 
757.061829 34685584.0 
757.628296 626852.0 
758.18219 20126776.0 
759.308228 8881418.0 
760.077881 5.0 
762.302612 2668046.0 
762.844727 555870.0 
764.227417 860499.0 
765.162415 5327961.0 
766.8703 2253310.0 
767.491089 8.0 
768.604492 332469.0 
771.043823 450623.0 
774.192139 1008360.0 
776.088867 6917875.0 
777.035583 36114272.0 
778.154175 13274115.0 
778.69873 928222.0 
779.308838 384853.0 
780.329163 2765513.0 
781.2724 8840036.0 
782.227478 2079590.0 
783.09613 9185938.0 
784.36615 3059294.0 
787.038574 1411479.0 
790.381653 9013572.0 
791.609253 1193632.0 
792.27124 3.0 
794.190308 29504688.0 
795.169556 140496640.0 
796.204163 58406552.0 
797.151428 2839028.0 
798.234741 112605.0 
801.123779 1101002.0 
807.129822 1653972.0 
808.205383 12042456.0 
809.214111 13639539.0 
811.14856 2115015.0 
811.807495 7.0 
813.474243 1308449.0 
815.183533 19473792.0 
816.407166 5916747.0 
818.166565 3094314.0 
818.678101 3.0 
819.297363 9557352.0 
820.540344 5860680.0 
821.302979 1844334.0 
823.186768 1081350.0 
825.020447 3364627.0 
826.168884 26615672.0 
827.154846 42347352.0 
828.131897 33416048.0 
828.910889 77.0 
829.980713 8208447.0 
831.083069 23910168.0 
832.157959 4515118.0 
832.66156 5631157.0 
833.213562 23774664.0 
834.293457 10271257.0 
835.140259 3742500.0 
835.814087 2647557.0 
836.574951 8.0 
837.27417 2536412.0 
838.201904 2214156.0 
840.708069 5863617.0 
841.293701 6417247.0 
842.046204 8451365.0 
842.844604 12.0 
844.133484 5169068.0 
845.215271 4001375.0 
846.127258 8734155.0 
847.342163 27083808.0 
848.181824 9482790.0 
849.154602 18736008.0 
850.394165 7013937.0 
851.2771 43.0 
852.308838 544020.0 
855.172241 6832200.0 
858.509033 7750934.0 
859.189575 128196872.0 
860.159729 39256008.0 
860.823181 678.0 
862.182129 5613924.0 
863.2948 25261200.0 
864.496826 24330448.0 
865.270325 43269888.0 
866.233337 29921064.0 
867.056274 3.0 
867.606079 1232601.0 
868.231689 1.0 
873.200439 19200336.0 
874.332947 5595850.0 
874.936523 19.0 
875.927246 356242.0 
876.460205 17548040.0 
877.240112 392877376.0 
878.224121 190896768.0 
879.307129 9099058.0 
880.397217 5986667.0 
881.258911 109156856.0 
882.33667 46028520.0 
883.284241 10734403.0 
884.295898 7024478.0 
884.976562 26.0 
890.01062 548510.0 
890.586853 16931184.0 
891.209717 258894272.0 
892.20459 157492992.0 
893.227417 14148698.0 
894.046265 516049.0 
895.223022 107971848.0 
896.25293 56963784.0 
896.857666 27142.0 
899.498535 1796268.0 
900.157532 4467863.0 
900.9823 1.0 
908.29248 2847051.0 
909.215637 520021056.0 
910.245422 301768512.0 
910.821655 19860.0 
911.408813 5217886.0 
912.3396 1.0 
END IONS

