BEGIN IONS
PEPMASS=1104.56
CHARGE=1+
MSLEVEL=2
SOURCE_INSTRUMENT=LC-ESI-Orbitrap
FILENAME=f.RReher/Culebra/pure_compounds/1104_Kurahamide/2286_SPE1-1-16_Kurahamide_MS2_M+H_QE.mgf;
SEQ=*..*
IONMODE=Positive
ORGANISM=GNPS-LIBRARY
NAME=Kurahamide M+H
PI=Gerwick
DATACOLLECTOR=Raphael Reher
SMILES=CCCC(N[C@H](C(N[C@H](C(N[C@H]1[C@@H](C)OC([C@H](C(C)C)NC([C@H](CC2=CC=C(O)C=C2)N(C)C([C@H](CC3=CC=CC=C3)N4C(O)CC[C@H](NC(/C(NC1=O)=C\C)=O)C4=O)=O)=O)=O)=O)[C@H](OC([C@@H](NC(CCC)=O)C)=O)C)=O)C)=O
INCHI=
INCHIAUX=
PUBMED=
SUBMITUSER=RReher
LIBRARYQUALITY=3
SPECTRUMID=CCMSLIB00005723415
SCANS=1
91.051697 1652.112915 
91.052521 3882.703125 
91.053345 10498.133789 
91.054169 17753.314453 
91.054993 20516.935547 
91.055817 14212.430664 
91.056641 7391.913574 
91.057465 1895.87207 
103.829842 3519.540771 
103.830849 5383.208496 
103.831848 5823.741211 
103.832855 4514.392578 
103.833855 2398.603271 
105.767212 3923.041504 
105.768242 6172.370605 
105.769272 6758.82666 
105.770302 5278.544922 
105.771339 2819.831787 
107.047737 2997.908203 
107.04879 6088.152832 
107.049835 7845.095703 
107.050888 6942.18457 
107.051941 4117.884766 
110.056114 289.369873 
110.057213 4922.338379 
110.058311 15959.361328 
110.059402 27453.892578 
110.060501 33894.886719 
110.061592 24951.582031 
110.062691 13903.397461 
110.063782 4275.134766 
110.06488 795.346313 
114.087654 1423.812988 
114.088806 4526.231445 
114.089966 9026.886719 
114.091118 12468.125977 
114.092278 12398.260742 
114.09343 8788.269531 
114.094589 4155.790039 
114.095741 1077.664795 
119.046104 1878.223267 
119.047333 4429.806152 
119.048569 6145.428711 
119.049797 5720.825684 
119.051033 3535.231201 
120.076393 22864.363281 
120.077637 98024.34375 
120.078888 240465.328125 
120.080132 394504.53125 
120.081383 444718.125 
120.082634 309460.90625 
120.083878 166051.265625 
120.085129 52643.332031 
120.086372 18914.554688 
120.087624 12930.682617 
120.088875 10418.269531 
120.090118 6545.257812 
127.081886 830.163086 
127.083244 6638.90625 
127.084602 15108.239258 
127.08596 24302.175781 
127.087318 25200.175781 
127.088676 16436.585938 
127.090034 7950.150879 
127.0914 1826.942383 
135.06366 1803.023926 
135.06514 4430.86084 
135.066635 7499.499512 
135.068115 9171.673828 
135.069611 8242.856445 
135.071091 5291.229492 
135.072586 2148.075928 
139.081619 726.897278 
139.083176 5926.899902 
139.084732 13012.800781 
139.086288 20141.373047 
139.087845 18905.339844 
139.089401 11789.801758 
139.090958 5204.299805 
139.092514 1231.106934 
142.080307 1226.356079 
142.081909 7861.642578 
142.083527 20851.755859 
142.085129 34897.230469 
142.086731 39601.609375 
142.088348 27319.164062 
142.089951 14341.496094 
142.091553 4029.931152 
142.093155 402.62735 
146.091049 2381.13916 
146.092712 5558.640625 
146.094391 9116.098633 
146.096069 10896.597656 
146.097748 9654.010742 
146.099411 6165.479492 
146.101089 2527.03125 
150.084991 32903.617188 
150.086731 144061.78125 
150.08847 343093.65625 
150.090225 558282.25 
150.091965 615215.0625 
150.093704 421624.4375 
150.095459 223146.0625 
150.097198 72236.820312 
150.098938 27193.824219 
150.100693 17260.673828 
150.102432 9319.90332 
150.104172 2067.129883 
153.06221 3732.619873 
153.064011 6614.93457 
153.065796 7918.386719 
153.067596 6596.066895 
153.069397 3586.087402 
155.075562 1985.883545 
155.077393 6151.745605 
155.079224 12070.044922 
155.081055 17773.498047 
155.082886 16021.038086 
155.084717 9622.520508 
155.086548 3784.073975 
155.088379 1375.672119 
158.087524 91.175537 
158.089417 3139.2229 
158.091293 17887.703125 
158.093185 44801.617188 
158.095062 73777.601562 
158.096954 81752.078125 
158.098846 56091.109375 
158.100723 29473.556641 
158.102615 9812.819336 
158.104492 3902.312012 
158.106384 1874.429077 
167.074753 1914.716064 
167.076797 10981.977539 
167.078842 21110.185547 
167.080902 29405.927734 
167.082947 24104.330078 
167.084991 14224.53418 
167.087036 5201.88916 
167.089096 1945.746338 
170.089859 2469.419922 
170.091965 10444.419922 
170.09407 21123.746094 
170.096176 31942.962891 
170.098282 30231.089844 
170.100388 18780.123047 
170.102478 8159.572266 
170.104584 1575.351562 
179.074142 2720.13208 
179.076416 12349.418945 
179.07869 24656.470703 
179.080963 36066.363281 
179.083237 31505.060547 
179.085495 18746.392578 
179.087769 7083.799805 
179.090042 1187.004517 
187.112869 2938.456787 
187.115295 16325.244141 
187.117737 60281.535156 
187.120163 111952.34375 
187.122589 157721.03125 
187.125015 135072.75 
187.127441 81934.1875 
187.129868 33232.976562 
187.132294 10174.317383 
187.13472 4117.993164 
187.137146 2857.316162 
193.091415 4408.006348 
193.093948 8616.010742 
193.096497 11589.700195 
193.099045 11299.612305 
193.101593 7984.869629 
193.104141 3975.70874 
197.115402 607.877441 
197.118027 3931.80957 
197.120651 20761.681641 
197.123276 67831.820312 
197.1259 117583.828125 
197.128525 154344.578125 
197.131149 121289.132812 
197.133774 71354.984375 
197.136398 24934.525391 
197.139023 7105.617676 
197.141647 2155.776855 
204.105392 1981.775513 
204.108154 4633.145996 
204.110916 7455.306152 
204.113678 8726.661133 
204.116455 7590.184082 
204.119217 4787.131836 
204.121979 1979.751465 
215.107452 17682.34375 
215.110458 78757.0625 
215.113449 190606.75 
215.11644 310667.0 
215.119431 334334.65625 
215.122421 224718.6875 
215.125412 116121.53125 
215.128403 38871.5 
215.131393 31204.878906 
215.134399 58344.742188 
215.13739 86368.578125 
215.140381 91719.796875 
215.143372 63478.546875 
215.146362 26378.785156 
215.149353 3725.898438 
215.152359 1670.421265 
225.111679 941.235474 
225.114883 7193.780273 
225.118088 20746.597656 
225.121292 35310.621094 
225.124496 41620.148438 
225.127701 29193.220703 
225.13089 15314.222656 
225.134094 3901.15332 
225.137299 547.697754 
243.094208 2127.777344 
243.097809 5424.688477 
243.101395 32106.285156 
243.104996 116428.554688 
243.108597 213035.765625 
243.112183 295187.8125 
243.115784 246638.859375 
243.119385 148862.375 
243.122971 58613.871094 
243.126572 19946.171875 
243.130157 11133.870117 
243.133759 9894.905273 
243.13736 5392.682617 
243.140945 2092.627441 
250.104782 1543.040894 
250.108536 10235.801758 
250.112289 24037.771484 
250.116043 38889.570312 
250.119781 41578.375 
250.123535 28046.363281 
250.127289 14566.154297 
250.131042 4418.163086 
250.134796 801.348267 
268.115936 2209.058594 
268.120117 5772.201172 
268.124268 11938.879883 
268.128448 17778.511719 
268.132599 16023.216797 
268.13678 9718.263672 
268.14093 3548.794189 
268.145111 1191.013428 
295.14502 1478.814575 
295.149841 3275.403809 
295.154663 11602.443359 
295.159454 23661.28125 
295.164276 36005.125 
295.169067 34333.578125 
295.173889 21077.900391 
295.178711 8775.828125 
295.183502 1340.220581 
298.138092 2429.404053 
298.142975 12151.296875 
298.147858 24385.753906 
298.15274 36571.296875 
298.157623 34046.460938 
298.162506 21373.710938 
298.167389 9737.006836 
298.172272 2727.33374 
308.001282 3398.317139 
308.006409 5556.460938 
308.011536 6516.38916 
308.016663 5682.608887 
308.02179 3564.713379 
308.114105 5521.930664 
308.119232 20019.695312 
308.124359 35131.789062 
308.129517 43119.476562 
308.134644 31990.171875 
308.139771 18267.46875 
308.144897 7473.368164 
308.150024 7407.376953 
308.155151 12306.056641 
308.160278 16537.224609 
308.165405 14742.813477 
308.170532 8148.07373 
308.17569 3088.850586 
308.180817 1153.304321 
321.142944 3231.527344 
321.148407 5979.511719 
321.15387 7562.839844 
321.159332 6836.445312 
321.164795 4273.244141 
326.127686 458.099915 
326.13327 8017.103516 
326.138855 21215.121094 
326.14444 35557.839844 
326.150024 40168.777344 
326.155609 28131.521484 
326.161194 15296.192383 
326.166779 5256.575195 
326.172363 1778.703369 
347.160706 2415.689209 
347.16684 4821.802734 
347.172974 6150.178711 
347.179108 5493.060547 
347.185242 3368.013916 
384.182526 148.4198 
384.189667 4935.626465 
384.196808 19594.371094 
384.203949 36984.089844 
384.21109 52875.726562 
384.218231 45925.921875 
384.225372 27848.027344 
384.232513 11409.945312 
384.239655 3008.297363 
391.16333 1251.101318 
391.170685 3672.091309 
391.178009 12294.183594 
391.185333 32447.941406 
391.192688 54647.785156 
391.200012 66480.195312 
391.207367 48338.011719 
391.214691 26646.515625 
391.222046 7134.563965 
391.22937 668.268677 
409.183319 2791.958252 
409.191162 10040.235352 
409.199036 19600.089844 
409.206879 28922.228516 
409.214722 26775.082031 
409.222565 16787.589844 
409.230438 7234.320801 
409.238281 1822.299438 
420.136993 123.406281 
420.145172 3527.338135 
420.15332 5100.72168 
420.161499 15814.5 
420.169678 56681.351562 
420.177826 135581.890625 
420.186005 221542.71875 
420.194183 251672.03125 
420.202332 175861.03125 
420.21051 94061.960938 
420.218689 27842.617188 
420.226868 7103.442871 
420.235016 3070.16333 
503.186584 857.87738 
503.197296 5185.96582 
503.207977 15661.267578 
503.218689 26803.853516 
503.229401 33699.011719 
503.240112 25167.734375 
503.250824 14057.364258 
503.261536 3982.616211 
503.272247 349.827545 
550.264648 4804.17041 
550.276917 8453.638672 
550.289185 10412.378906 
550.301392 9458.212891 
550.31366 6366.787598 
550.325928 3050.168701 
927.403931 3483.452393 
927.430725 6931.529785 
927.45752 8733.710938 
927.484314 7622.097656 
927.511108 4567.924316 
1007.309082 3000.590576 
1007.339417 5652.865723 
1007.369751 7697.172363 
1007.400024 7884.41748 
1007.430359 6035.01416 
1007.460693 3281.640381 
END IONS

