BEGIN IONS
PEPMASS=1015.51
CHARGE=1+
MSLEVEL=2
SOURCE_INSTRUMENT=LC-ESI-Orbitrap
FILENAME=f.RReher/Culebra/pure_compounds/993_LoggerpeptinA/LoggerpeptinA_MS2_M+Na_QE.mgf;
SEQ=*..*
IONMODE=Positive
ORGANISM=GNPS-LIBRARY
NAME=Loggerpeptin A M+Na
PI=Gerwick
DATACOLLECTOR=Raphael Reher
SMILES=C[C@@H](C(N[C@H](C(N[C@H]1[C@@H](C)OC([C@H](C(C)C)NC(C(CC2=CC=C(O)C=C2)N(C)C([C@H](CC3=CC=CC=C3)N4[C@H](O)CCC(NC([C@H](CC(C)C)NC1=O)=O)C4=O)=O)=O)=O)=O)[C@@H](O)C)=O)NC(CCC)=O
INCHI=
INCHIAUX=
PUBMED=
SUBMITUSER=RReher
LIBRARYQUALITY=3
SPECTRUMID=CCMSLIB00005723413
SCANS=1
86.292473 1705.356934 
86.293228 3502.078369 
86.293991 4698.186035 
86.294754 4574.769043 
86.295509 3199.296143 
87.435043 2312.391846 
87.435822 3537.840332 
87.436592 4029.803955 
87.43737 3476.084717 
87.438148 2148.487549 
87.440475 1705.414551 
87.441246 3297.290527 
87.442024 4133.541504 
87.442802 3464.44165 
87.443573 1739.728149 
88.440102 2868.37793 
88.440887 4671.315918 
88.441681 5175.330566 
88.442467 4081.755371 
88.44326 2177.308594 
94.680458 2525.060059 
94.681335 3915.416748 
94.682205 4452.033691 
94.683083 3763.383545 
94.683952 2243.973633 
117.233894 2503.478027 
117.2351 3876.486328 
117.236298 4445.064941 
117.237503 3693.954834 
117.238708 1972.678711 
120.07782 1468.057983 
120.079063 3597.513672 
120.080315 5588.760254 
120.081558 6018.253418 
120.082809 4511.30127 
120.084061 2119.893066 
150.087051 2374.897461 
150.088791 8235.845703 
150.090546 14457.776367 
150.092285 18506.513672 
150.094025 14280.335938 
150.095779 8310.545898 
150.097519 2649.354492 
150.099258 1051.514648 
191.101471 2186.98999 
191.103989 4053.095947 
191.106491 5032.885742 
191.108994 4374.177734 
191.111496 2561.830078 
196.866653 2241.347168 
196.869278 3832.925537 
196.871902 4507.6875 
196.874512 3717.199463 
196.877136 1994.415649 
245.116959 3007.526611 
245.12059 4407.868652 
245.124237 4753.461914 
245.127869 3957.810791 
245.131516 2510.175781 
278.141022 2030.041138 
278.145416 3927.722168 
278.149811 4915.57666 
278.154205 4098.745605 
278.1586 2010.390747 
283.09436 2273.572021 
283.098877 4879.243652 
283.103394 6968.673828 
283.10791 6820.663574 
283.112457 4342.216309 
283.116974 1295.94043 
304.111328 1431.741699 
304.116364 4229.461914 
304.121399 8327.282227 
304.126434 11270.774414 
304.13147 10941.523438 
304.136505 7613.872559 
304.14151 3611.533936 
320.146454 1601.639038 
320.151886 4279.4375 
320.157318 6473.025391 
320.16275 6438.971191 
320.168182 4277.165039 
320.173615 1636.259521 
348.132202 978.374512 
348.138367 2855.123535 
348.144531 7392.759766 
348.150696 12691.084961 
348.15686 15227.53418 
348.163025 11298.416992 
348.169189 4411.26123 
348.175354 1598.224487 
355.791199 2137.967773 
355.797577 3937.377197 
355.803955 4938.532227 
355.810303 4366.071777 
355.816681 2589.729492 
389.186554 183.358185 
389.193848 8398.874023 
389.201111 32488.814453 
389.208405 58141.085938 
389.215698 77605.796875 
389.222961 61735.757812 
389.230255 36682.464844 
389.237549 13641.588867 
389.244812 4927.593262 
389.252106 2908.797119 
389.259399 2894.647949 
389.268677 5242.621582 
389.27594 1285.151367 
415.214508 2945.593994 
415.222534 5736.981445 
415.23056 7460.828125 
415.238586 6835.477539 
415.246613 4339.503418 
415.254639 1674.408325 
417.195709 3861.445801 
417.203796 7102.368652 
417.211884 8754.387695 
417.219971 7603.74707 
417.228058 4573.168457 
417.236145 1784.619141 
433.226501 3419.770996 
433.235046 6028.973145 
433.243622 6908.968262 
433.252167 5287.186035 
433.260712 2423.947021 
502.222351 805.860107 
502.233032 3574.108887 
502.243683 11873.135742 
502.254364 20527.441406 
502.265045 25751.068359 
502.275726 18906.523438 
502.286407 10312.838867 
502.297089 3143.413818 
502.30777 1341.233398 
529.252808 2609.836426 
529.264343 4810.310547 
529.27594 5688.368652 
529.287476 4513.900391 
529.299011 2222.815674 
546.246765 2625.466553 
546.25885 5619.333496 
546.270996 9222.87793 
546.283081 11210.90332 
546.295227 10054.060547 
546.307312 6414.94873 
546.319397 2583.201172 
547.253235 1804.529663 
547.265381 4395.197754 
547.277527 6782.77832 
547.289673 7293.867188 
547.301819 5449.26709 
547.313965 2480.968018 
548.238098 2527.827148 
548.250305 6990.298828 
548.262451 11851.487305 
548.274658 13546.452148 
548.286804 9496.529297 
548.299011 3688.337158 
548.311157 1262.556641 
649.288696 2679.773926 
649.304382 8151.313477 
649.320068 13520.713867 
649.335754 16095.070312 
649.35144 11749.137695 
649.367188 6441.484375 
649.382874 2321.463623 
677.278931 1725.452759 
677.295654 4696.240723 
677.312378 8255.930664 
677.329102 9946.024414 
677.345825 8423.918945 
677.362488 4781.453613 
677.379211 1343.240234 
690.320496 3664.357666 
690.337708 5450.505859 
690.354919 5686.080078 
690.37207 4182.239258 
690.389282 1939.619995 
693.323608 3466.14917 
693.340942 7051.492188 
693.358276 9349.848633 
693.375549 8649.019531 
693.392883 5533.686523 
693.410217 2316.180664 
695.284424 2118.709717 
695.301819 7489.324707 
695.319214 14111.525391 
695.336609 19389.597656 
695.354004 15614.541016 
695.371399 8958.163086 
695.388794 2691.508301 
721.293335 1712.504883 
721.311707 4661.213379 
721.330078 8315.085938 
721.34845 10489.176758 
721.366821 9575.124023 
721.385193 6199.021484 
721.403564 2675.934082 
739.31842 2692.943359 
739.337463 5917.585449 
739.356567 11483.985352 
739.37561 10686.399414 
739.394653 5158.047852 
739.413757 2096.862793 
788.80542 3007.609375 
788.826416 4600.966797 
788.847473 5129.782227 
788.868469 4205.936035 
788.889465 2264.62207 
971.395447 1319.683228 
971.424133 4718.665039 
971.452881 9932.211914 
971.481628 14895.490234 
971.510315 13070.379883 
971.539062 7305.823242 
971.567749 1878.053589 
1015.362915 2798.220703 
1015.393616 7817.79541 
1015.424316 29866.128906 
1015.455017 82156.046875 
1015.485718 138337.484375 
1015.516357 168722.4375 
1015.547058 123768.046875 
1015.577759 69212.054688 
1015.608459 21003.435547 
1015.63916 5122.866699 
1015.669861 2252.453857 
END IONS

