BEGIN IONS
PEPMASS=1532.4
CHARGE=0+
MSLEVEL=2
SOURCE_INSTRUMENT=LC-ESI-qTof
FILENAME=20130604_Ger_Jenia_Portoamide_A_MH1532.4_qb.1.1..mgf
SEQ=*..*
IONMODE=Positive
ORGANISM=GNPS-LIBRARY
NAME=Portoamide A M+H
PI=Gerwick
DATACOLLECTOR=Jenia
SMILES=CC[C@H](C)[C@@H]1C(=O)N[C@H](C(=O)N/C(=C/C)/C(=O)N[C@H](C(=O)N[C@@H](C(=O)N2CCC[C@H]2C(=O)NC(C(C(=O)N[C@@H](C(=O)NCC(=O)N3CCC[C@H]3C(=O)N4CCC[C@H]4C(=O)N1)CCC(=O)N)O)CC(CC(C(CC(C)C)O)O)OC(=O)[C@H](CC5=CC=C(C=C5)O)N(C)C(=O)C)CCC6=CC=C(C=C6)OC)[C@@H](C)O)CO
INCHI=InChI=1S/C74H109N13O22/c1-10-40(5)61-69(102)81-52(38-88)66(99)77-48(11-2)65(98)83-62(41(6)89)70(103)79-50(27-22-43-20-25-46(108-9)26-21-43)72(105)86-31-12-15-53(86)67(100)80-51(35-47(36-58(93)57(92)33-39(3)4)109-74(107)56(84(8)42(7)90)34-44-18-23-45(91)24-19-44)63(96)71(104)78-49(28-29-59(75)94)64(97)76-37-60(95)85-30-14-17-55(85)73(106)87-32-13-16-54(87)68(101)82-61/h11,18-21,23-26,39-41,47,49-58,61-63,88-89,91-93,96H,10,12-17,22,27-38H2,1-9H3,(H2,75,94)(H,76,97)(H,77,99)(H,78,104)(H,79,103)(H,80,100)(H,81,102)(H,82,101)(H,83,98)/b48-11+/t40-,41+,47?,49+,50+,51?,52-,53-,54-,55-,56-,57?,58?,61+,62-,63?/m0/s1
INCHIAUX=N/A
PUBMED=N/A
SUBMITUSER=mwang87
LIBRARYQUALITY=1
SPECTRUMID=CCMSLIB00000001787
SCANS=1
451.164856 8455.0 
469.246582 20114.0 
476.409607 807.0 
478.422424 3137.0 
509.325562 1909.0 
526.272461 14079.0 
529.249268 3520.0 
539.463379 4347.0 
544.876709 3393.0 
553.125488 3993.0 
559.327393 3828.0 
560.155273 2069.0 
579.840332 1327.0 
591.328857 1174.0 
596.219971 1809.0 
602.624512 2174.0 
623.213135 14679.0 
639.05481 2591.0 
642.30957 9367.0 
667.736328 4416.0 
671.194336 4704.0 
678.103027 1831.0 
688.075195 8885.0 
698.084961 1945.0 
699.627319 8555.0 
701.391602 3826.0 
706.491699 11519.0 
709.213623 1897.0 
715.924316 3226.0 
725.187744 2422.0 
726.004639 534.0 
744.414429 7605.0 
745.030029 4137.0 
746.416748 3401.0 
758.099121 1484.0 
761.252197 8494.0 
763.111084 10924.0 
764.177979 19728.0 
764.921875 1615.0 
770.198975 4410.0 
775.413574 3510.0 
782.442383 14038.0 
788.020996 4466.0 
791.372803 3707.0 
792.00293 10852.0 
798.450806 9768.0 
799.960205 13068.0 
809.24353 4553.0 
810.301025 3220.0 
818.520508 4002.0 
826.824219 8051.0 
827.440796 4723.0 
832.672607 2785.0 
833.364624 15627.0 
850.192871 17054.0 
866.191162 878.0 
869.987793 1860.0 
874.731445 3286.0 
876.776733 6560.0 
878.163574 3776.0 
883.237061 15847.0 
884.400879 11218.0 
885.358765 6416.0 
899.783569 5473.0 
901.10791 10485.0 
901.726929 6383.0 
902.386963 38182.0 
915.063232 20609.0 
920.360107 41816.0 
921.384155 7730.0 
934.392578 5362.0 
937.417236 7735.0 
940.353394 4899.0 
943.432251 1655.0 
955.424927 5362.0 
957.231323 6853.0 
967.106567 2943.0 
968.0625 1334.0 
985.643188 4244.0 
998.368286 8555.0 
999.054199 4289.0 
1002.171143 18827.0 
1003.396973 64129.0 
1007.552734 6132.0 
1011.209229 4645.0 
1018.965576 4159.0 
1021.3573 7027.0 
1024.341064 9368.0 
1037.545166 1067.0 
1042.635254 5782.0 
1046.148438 20143.0 
1052.50415 3409.0 
1062.431641 806.0 
1064.388184 673.0 
1070.292969 12641.0 
1072.527588 2194.0 
1075.313477 4751.0 
1079.177246 1306.0 
1084.285645 10683.0 
1095.612793 8444.0 
1096.55835 4620.0 
1102.154297 3448.0 
1103.23584 7741.0 
1104.784668 1078.0 
1107.477783 18563.0 
1111.304199 3320.0 
1120.175049 3818.0 
1121.606689 20386.0 
1125.649902 13677.0 
1129.751221 3401.0 
1139.301514 11195.0 
1140.786133 13092.0 
1143.685059 2911.0 
1145.35791 5543.0 
1157.537598 4275.0 
1158.621094 1413.0 
1162.611328 594.0 
1165.476318 3843.0 
1167.526611 10703.0 
1172.821289 1791.0 
1173.69165 4502.0 
1174.349609 11070.0 
1178.966553 7618.0 
1180.56665 6455.0 
1181.421875 2215.0 
1189.40918 1344.0 
1190.378662 18727.0 
1191.016602 8.0 
1206.954102 10469.0 
1212.764404 6409.0 
1216.262451 4166.0 
1222.49707 30002.0 
1223.133301 1.0 
1231.592285 1376.0 
1233.504639 7853.0 
1234.888672 4496.0 
1240.485352 57824.0 
1241.908203 14110.0 
1249.577148 13917.0 
1250.542236 2965.0 
1259.666992 31504.0 
1260.543945 39889.0 
1261.553467 5617.0 
1263.90332 2672.0 
1267.626465 2108.0 
1269.588867 3805.0 
1277.39209 129939.0 
1278.42041 49342.0 
1292.89917 12579.0 
1294.515137 5216.0 
1295.417969 325563.0 
1296.366699 963.0 
1302.241699 6758.0 
1313.242676 66480.0 
1313.958496 6282.0 
1315.223633 2779.0 
1323.327148 1243.0 
1324.529297 2882.0 
1325.521484 7280.0 
1326.834229 3256.0 
1330.289551 17299.0 
1330.933105 1.0 
1334.505371 5325.0 
1342.228516 8196.0 
1344.951172 2361.0 
1347.40918 3306.0 
1362.236084 13152.0 
1362.933105 1.0 
1365.3125 1082.0 
1367.296387 4836.0 
1368.522461 8750.0 
1377.760254 2555.0 
1390.55957 7957.0 
1398.776855 2428.0 
1403.40918 6233.0 
1407.549805 2502.0 
1413.632324 5520.0 
1428.167969 9774.0 
1452.37207 3226.0 
1455.231201 1849.0 
1457.399414 9094.0 
1464.246094 4681.0 
1466.493164 8353.0 
1474.304199 582.0 
1475.688965 2318.0 
1478.52832 11649.0 
1479.410645 7056.0 
1484.957031 5554.0 
1486.630127 2579.0 
1487.593506 14437.0 
1488.636475 3225.0 
1496.341797 36567.0 
1497.396973 10517.0 
1498.125732 5115.0 
1500.623535 18928.0 
1502.717041 5492.0 
1504.655029 33581.0 
1512.666016 7374.0 
1514.5354 344639.0 
1515.380371 47644.0 
END IONS

