BEGIN IONS
PEPMASS=905.0
CHARGE=0+
MSLEVEL=2
SOURCE_INSTRUMENT=LC-ESI-qTof
FILENAME=20130408_Jenia_Ger_Lyngbyabellin_N_MH905-qb.1.1..mgf
SEQ=*..*
IONMODE=Positive
ORGANISM=GNPS-LIBRARY
NAME=Lyngbyabellin N M+H
PI=Gerwick
DATACOLLECTOR=Jenia
SMILES=C[C@H]1[C@@H](OC(=O)C2=CSC(=N2)[C@@H](COC(=O)C3=CSC(=N3)[C@@H](OC1=O)C(C)C)OC(=O)C[C@H]([C@H](CC(C)C)NC(=O)[C@H](C(C)C)N(C)C)OC(=O)C)CCCC(C)(Cl)Cl
INCHI=InChI=1S/C40H58Cl2N4O11S2/c1-20(2)15-25(43-34(49)32(21(3)4)46(10)11)29(54-24(8)47)16-31(48)55-30-17-53-38(51)26-18-59-36(45-26)33(22(5)6)57-37(50)23(7)28(13-12-14-40(9,41)42)56-39(52)27-19-58-35(30)44-27/h18-23,25,28-30,32-33H,12-17H2,1-11H3,(H,43,49)/t23-,25-,28-,29+,30+,32-,33-/m0/s1
INCHIAUX=N/A
PUBMED=N/A
SUBMITUSER=mwang87
LIBRARYQUALITY=1
SPECTRUMID=CCMSLIB00000001759
SCANS=1
309.121948 17404.0 
327.22876 30837.0 
336.575134 11162.0 
354.395752 22754.0 
480.894409 55501.0 
524.904541 199276.0 
542.623413 14216.0 
560.901611 63422.0 
578.599487 51064.0 
579.333252 1.0 
622.173462 37003.0 
624.037109 38819.0 
680.914185 9529.0 
685.824097 51349.0 
710.247314 30889.0 
716.288818 18059.0 
720.382568 29113.0 
722.45459 27833.0 
760.006226 21767.0 
764.669434 78346.0 
783.092896 28308.0 
786.015015 23259.0 
786.832642 70331.0 
789.349731 27626.0 
806.190796 70588.0 
808.996094 128088.0 
809.603882 203.0 
824.858398 32926.0 
827.154541 295461.0 
828.308472 44464.0 
836.07666 122711.0 
845.006104 93940.0 
846.287476 103182.0 
862.907715 134248.0 
868.329102 171771.0 
869.01001 8247035.0 
869.688599 1903.0 
870.690186 16995.0 
876.027588 36438.0 
883.570068 25778.0 
886.544312 63877.0 
END IONS

