BEGIN IONS
PEPMASS=1396.88
CHARGE=1+
MSLEVEL=2
SOURCE_INSTRUMENT=LC-ESI-Ion Trap
FILENAME=f.RReher/2264/Reference_spectra/Symplocolides/Symplocolide A/symplocolideA_M+Na+1_iontrap.mgf;
SEQ=*..*
IONMODE=Positive
ORGANISM=GNPS-LIBRARY
NAME=Symplocolide A M+Na
PI=Gerwick
DATACOLLECTOR=RReher
SMILES=COC1CC(C)OC(CCC(C)C(O)C(C)C2OC(=O)CC(O)CC(CC3OC(CC=C3)CC(OC)C(C)C(O)CC(O)C(C)C(OC(=O)CC(O)CC(CC4OC(CC=C4)CC(OC)C(C)C(O)CC(O)C2C)OC)C(C)C(O)C(C)CCC5CC(CC(C)O5)OC)OC)C1
INCHI=
INCHIAUX=
PUBMED=
SUBMITUSER=RReher
LIBRARYQUALITY=3
SPECTRUMID=CCMSLIB00005467801
SCANS=1
495.419556 661630.0 
496.485962 73636.0 
511.245483 17478.0 
618.159668 119180.0 
647.523438 167962.0 
648.231201 12541.0 
649.52002 265867.0 
650.243774 34383.0 
659.276367 21130.0 
691.486084 441594.0 
692.420898 50757.0 
708.810669 95099.0 
709.42749 7668107.0 
710.521484 1510322.0 
711.635132 47765.0 
726.633301 11044.0 
751.465332 141861.0 
752.375977 128300.0 
769.221558 10442.0 
798.365234 28981.0 
853.334961 24660.0 
862.104492 24607.0 
862.87915 31089.0 
863.484131 48591.0 
887.195068 22973.0 
896.996338 43922.0 
898.513306 201150.0 
907.406372 26991.0 
922.977539 235930.0 
923.638428 3880543.0 
924.572754 1081777.0 
925.507568 39334.0 
967.723633 177097.0 
968.731934 43302.0 
1049.595215 48547.0 
1055.618652 11508.0 
1067.128418 116531.0 
1067.739014 827362.0 
1068.653809 247968.0 
1069.422607 8.0 
1074.555664 33209.0 
1093.488525 64548.0 
1095.74707 83670.0 
1110.937988 149548.0 
1111.652344 3295842.0 
1112.64209 1912591.0 
1113.677734 235011.0 
1124.812744 67772.0 
1145.615234 267699.0 
1146.912842 27503.0 
1152.647461 35768.0 
1154.047363 50557.0 
1163.369629 100453.0 
1164.008301 100236.0 
1164.872559 157350.0 
1166.001465 20681.0 
1169.583984 186572.0 
1170.52124 130520.0 
1181.065918 68254.0 
1181.7229 3779194.0 
1182.912598 1383571.0 
1183.91748 85680.0 
1327.606445 290078.0 
1328.490967 164580.0 
1329.626953 48696.0 
1333.750488 602906.0 
1334.85791 453300.0 
1335.796875 87256.0 
1337.515625 95608.0 
1345.793945 58066.0 
1352.841309 31622.0 
1359.813477 292331.0 
1360.890625 431813.0 
1361.757324 24847.0 
1363.964355 135964.0 
1377.767334 1652988.0 
1378.876953 1649053.0 
1380.011475 338761.0 
1395.103516 37491.0 
1395.88501 3354574.0 
1396.887939 2412904.0 
1397.761963 939153.0 
1398.540527 15.0 
END IONS

