BEGIN IONS
PEPMASS=1139.64
CHARGE=1+
MSLEVEL=2
SOURCE_INSTRUMENT=LC-ESI-Orbitrap
FILENAME=f.RReher/Culebra/pure_compounds/1122_non_AHP/SPE1-1-19_1122.6178_MS2_M+NH4_QE.mgf;
SEQ=*..*
IONMODE=Positive
ORGANISM=GNPS-LIBRARY
NAME=Rivulariapeptolide 1121 M+NH4
PI=Gerwick
DATACOLLECTOR=Raphael Reher
SMILES=CC(C)[C@H](NC([C@H](CC1=CC=C(O)C=C1)N(C)C([C@H](CC(C)C)N2[C@H](O)CC[C@H](NC(/C(NC3=O)=C\C)=O)C2=O)=O)=O)C(O[C@H](C)[C@@H]3NC([C@H]([C@@H](OC(C4N(C(CCC)=O)CCC4)=O)C)NC(C5CCCN5C(CCC)=O)=O)=O)=O
INCHI=
INCHIAUX=
PUBMED=
SUBMITUSER=RReher
LIBRARYQUALITY=3
SPECTRUMID=CCMSLIB00005723396
SCANS=1
86.09198 1959.363037 
86.092743 4407.654297 
86.093498 5211.639648 
86.094254 19038.537109 
86.095016 74081.3125 
86.095772 166067.65625 
86.096527 265336.15625 
86.097282 282296.0 
86.098045 188880.515625 
86.098801 96679.085938 
86.099556 28999.232422 
86.100319 9315.857422 
86.101074 5621.083008 
86.10183 2286.340576 
105.102798 3171.480469 
105.103813 5491.207031 
105.104836 6463.209961 
105.105858 5371.210938 
105.10688 3032.9021 
107.047699 2920.312988 
107.048744 5332.40918 
107.049797 6292.621094 
107.05085 5005.464355 
107.051903 2434.760254 
112.109505 1901.807495 
112.110626 4824.594238 
112.111755 7584.424316 
112.112885 8146.508789 
112.114006 6041.214844 
112.115135 2807.046387 
116.06752 2880.126221 
116.068703 5276.594238 
116.069885 6353.30127 
116.071075 5220.921387 
116.072258 2779.636475 
120.077736 2828.470215 
120.078987 5263.539062 
120.080231 6713.734863 
120.081482 5929.352539 
120.082726 3349.630371 
124.107491 1979.617798 
124.108803 11645.319336 
124.110107 26738.873047 
124.11142 42870.242188 
124.112732 44412.925781 
124.114044 29255.949219 
124.115356 14407.271484 
124.116669 4314.129883 
124.117981 1682.396606 
125.704544 4377.710449 
125.705879 5369.432129 
125.707214 5638.436035 
125.708549 4755.663086 
125.709885 2839.156494 
136.071182 2027.991943 
136.072693 4885.366211 
136.074188 9655.204102 
136.075699 15096.186523 
136.077209 9633.201172 
136.078705 6161.387695 
136.080215 2630.159912 
136.10733 2127.023438 
136.108826 5501.045898 
136.110336 10600.873047 
136.111847 14118.211914 
136.113342 13391.15332 
136.114853 8981.268555 
136.116364 3989.097656 
138.031204 3308.312988 
138.032745 5590.787598 
138.034286 6219.361816 
138.035828 4741.254883 
138.037369 2297.86499 
139.08313 2984.118408 
139.084686 5406.293945 
139.086243 6276.66748 
139.087799 5005.163574 
139.089355 2621.671387 
140.101273 43827.878906 
140.102844 181888.5625 
140.104416 414919.03125 
140.105988 666157.1875 
140.107559 713582.75 
140.109146 480731.4375 
140.110718 249488.671875 
140.112289 79372.5625 
140.113861 29361.988281 
140.115433 18836.326172 
140.117004 10752.71582 
140.118576 3443.224609 
140.120148 1219.695312 
150.08493 37545.296875 
150.08667 164790.484375 
150.088409 389149.0625 
150.090164 631569.875 
150.091904 692571.8125 
150.093643 473918.53125 
150.095398 250599.359375 
150.097137 81435.992188 
150.098877 30696.023438 
150.100616 18890.480469 
150.102371 10157.677734 
150.104111 2012.455444 
153.096283 1760.586914 
153.098083 4244.135742 
153.099884 11110.680664 
153.101669 18619.205078 
153.10347 19684.679688 
153.10527 12821.361328 
153.107071 6008.303223 
153.108871 1691.364136 
153.130127 1022.139587 
153.131927 8609.279297 
153.133728 42117.605469 
153.135513 102736.835938 
153.137314 168075.25 
153.139114 186500.515625 
153.140915 128344.257812 
153.142715 68112.78125 
153.144501 21682.935547 
153.146301 7329.807129 
153.148102 3881.464355 
153.149902 1660.705933 
168.093674 18872.046875 
168.095749 97209.953125 
168.097809 307407.46875 
168.099884 527091.0625 
168.101944 675984.75 
168.104004 518653.5625 
168.106079 303419.375 
168.108139 105638.640625 
168.110214 35449.347656 
168.112274 14554.875 
168.114349 7500.098633 
178.080551 2913.748291 
178.082809 6231.638672 
178.085068 8775.598633 
178.087311 8724.31543 
178.089569 6047.128418 
178.091827 2577.246582 
179.071899 2590.06543 
179.074173 7764.858398 
179.076447 27081.384766 
179.07872 52744.863281 
179.080994 78237.585938 
179.083267 72477.164062 
179.085541 44767.792969 
179.087814 19274.539062 
179.090088 4434.199707 
179.092346 310.75061 
179.112854 3864.978027 
179.115128 8027.966797 
179.117401 10747.963867 
179.119675 10099.898438 
179.121948 6583.994629 
179.124222 2652.871582 
181.089462 3018.55542 
181.091766 13570.376953 
181.094086 32261.689453 
181.09639 53259.621094 
181.098709 61278.785156 
181.101013 43445.316406 
181.103333 22577.818359 
181.105637 7841.696777 
181.107956 3975.128418 
181.11026 497.798889 
181.116379 3432.054443 
181.118698 5446.567383 
181.121002 5478.480957 
181.123322 6531.679199 
181.125626 36397.75 
181.127945 148477.75 
181.130249 302235.28125 
181.132568 459990.1875 
181.134872 440361.6875 
181.137192 280096.1875 
181.139511 131855.90625 
181.141815 41557.386719 
181.144135 17284.083984 
181.146439 12484.226562 
181.148758 5959.696289 
181.151062 4194.915527 
181.153381 1108.631104 
186.1073 4236.200195 
186.109711 8189.734375 
186.112122 10878.291016 
186.114532 10394.503906 
186.116943 7150.108398 
186.119354 3358.112305 
207.105667 3407.018066 
207.10849 5149.614746 
207.111313 5958.06543 
207.114151 5266.64502 
207.116974 3432.918701 
209.112823 4546.657227 
209.115692 5440.683105 
209.118561 29486.365234 
209.121429 118564.804688 
209.124298 244264.5 
209.127167 375623.28125 
209.130035 366513.3125 
209.132904 235058.0625 
209.135773 112669.945312 
209.138641 35349.386719 
209.14151 14135.130859 
209.144379 10247.232422 
209.147247 4914.502441 
209.150116 2620.36499 
223.128708 1696.325928 
223.131866 9709.885742 
223.13504 45722.554688 
223.138199 126030.835938 
223.141357 211843.21875 
223.144516 256466.5625 
223.147675 188380.921875 
223.150848 106536.445312 
223.154007 35738.433594 
223.157166 11197.358398 
223.160324 3786.966064 
223.163483 150.005371 
241.140182 747.996826 
241.143738 5994.887207 
241.147293 21415.486328 
241.150833 39357.292969 
241.154388 54812.4375 
241.157944 45913.335938 
241.161499 27376.828125 
241.165054 10060.792969 
241.168594 2167.807617 
251.121277 2716.440674 
251.125046 11476.511719 
251.12883 47861.488281 
251.132599 115619.265625 
251.136368 188920.25 
251.140152 210803.390625 
251.143921 145524.515625 
251.147705 77132.179688 
251.151474 23740.203125 
251.155243 7622.411133 
251.159027 4589.151367 
251.162796 2831.303711 
264.153839 2192.203857 
264.157928 10469.80957 
264.161987 35639.769531 
264.166077 63601.6875 
264.170135 86096.34375 
264.174225 70260.898438 
264.178284 41846.242188 
264.182373 15859.166016 
264.186432 4536.710449 
264.190491 750.206543 
274.127197 2551.998291 
274.131531 16059.137695 
274.135834 43265.445312 
274.140137 72383.828125 
274.14444 84803.210938 
274.148743 60828.800781 
274.153046 33718.691406 
274.157349 11335.166992 
274.161652 3310.065186 
292.147308 2446.662109 
292.152039 10899.557617 
292.156769 31831.972656 
292.161499 54477.765625 
292.166229 68911.101562 
292.17099 52330.792969 
292.17572 30216.84375 
292.18045 9538.836914 
292.185181 2078.453369 
295.14917 924.572754 
295.153961 7045.565918 
295.158783 16843.951172 
295.163574 27388.007812 
295.168396 28154.228516 
295.173218 17983.046875 
295.178009 8380.780273 
295.182831 1679.36145 
334.150848 1543.34436 
334.156647 6328.388672 
334.162445 23539.800781 
334.168243 46764.746094 
334.174042 70432.304688 
334.17981 66966.640625 
334.185608 41980.464844 
334.191406 18956.119141 
334.197205 4525.981934 
334.203003 383.069244 
352.171448 3377.536377 
352.177704 7161.65332 
352.18396 9466.810547 
352.190247 8310.408203 
352.196503 4557.331543 
386.169006 2359.443359 
386.176208 4937.456055 
386.183411 24112.287109 
386.190613 88924.507812 
386.197815 173531.765625 
386.204987 257867.40625 
386.212189 238481.859375 
386.219391 148920.390625 
386.226593 66402.25 
386.233795 18883.058594 
386.240997 6915.577637 
386.248199 6103.637695 
386.255402 4169.804199 
386.262604 3016.314453 
408.21759 698.460876 
408.225433 4663.617188 
408.233246 17884.583984 
408.241058 33175.28125 
408.248901 46173.851562 
408.256714 37954.03125 
408.264557 22118.847656 
408.272369 7615.63623 
408.280182 1253.375122 
417.178345 1218.442261 
417.186432 4644.412598 
417.194519 17981.662109 
417.202576 34965.792969 
417.210663 51266.890625 
417.21875 46183.035156 
417.226837 28192.623047 
417.234924 11735.257812 
417.243011 2792.873047 
436.200043 585.049744 
436.208679 5326.654785 
436.217346 24862.919922 
436.225983 79369.28125 
436.234619 137909.765625 
436.243256 182488.046875 
436.251892 145069.71875 
436.260529 85447.507812 
436.269196 30497.150391 
436.277832 8204.617188 
436.286469 1595.038452 
469.209015 3639.889648 
469.218658 13753.862305 
469.228302 32707.980469 
469.237946 53031.792969 
469.247589 57571.027344 
469.257233 38285.417969 
469.266876 19005.994141 
469.27652 4666.570801 
469.286163 331.510376 
499.492035 4075.770752 
499.502625 6218.39209 
499.513214 6795.985352 
499.523804 5474.754395 
499.534393 3051.197998 
602.262268 1737.817749 
602.276245 3914.740723 
602.290283 12163.152344 
602.304321 20793.621094 
602.318359 25914.703125 
602.332336 19245.826172 
602.346375 10579.614258 
602.360413 2744.299805 
626.419067 2868.274658 
626.433899 5713.842773 
626.448792 7530.123047 
626.463684 7081.97168 
626.478516 4702.244629 
669.308167 3642.253418 
669.324585 7126.855469 
669.341003 10322.873047 
669.357422 11050.713867 
669.37384 8417.286133 
669.390259 4079.033691 
719.330872 1831.913818 
719.349121 4617.91748 
719.367432 11162.011719 
719.385742 16829.339844 
719.404053 16002.069336 
719.422363 9876.167969 
719.440674 4037.189453 
719.458984 1420.005859 
896.405701 3093.390137 
896.431152 5902.948242 
896.456665 7659.060059 
896.482117 7277.833496 
896.507568 5028.514648 
END IONS

