BEGIN IONS
PEPMASS=1178.57
CHARGE=1+
MSLEVEL=2
SOURCE_INSTRUMENT=LC-ESI-Orbitrap
FILENAME=f.RReher/Culebra/pure_compounds/1156/Rivulariapeptolide1155_M+Na_MS2.mgf;
SEQ=*..*
IONMODE=Positive
ORGANISM=GNPS-LIBRARY
NAME=Rivulariapeptolide 1155 M+Na
PI=Gerwick
DATACOLLECTOR=Raphael Reher
SMILES=CC(C)[C@H](NC([C@H](CC1=CC=C(O)C=C1)N(C)C([C@H](CC2=CC=CC=C2)N3[C@H](O)CC[C@H](NC(/C(NC4=O)=C\C)=O)C3=O)=O)=O)C(O[C@H](C)[C@@H]4NC([C@H]([C@@H](OC(C5N(C(CCC)=O)CCC5)=O)C)NC(C6CCCN6C(CCC)=O)=O)=O)=O
INCHI=
INCHIAUX=
PUBMED=
SUBMITUSER=RReher
LIBRARYQUALITY=3
SPECTRUMID=CCMSLIB00005723388
SCANS=1
70.034103 107.0 
71.03627 76.0 
71.918091 49.0 
114.064293 48.0 
120.054237 203.0 
123.008186 47.0 
128.951889 60.0 
131.421249 64.0 
140.083725 1982.0 
141.087616 264.0 
150.069138 4173.0 
151.0728 563.0 
152.077164 63.0 
155.054184 53.0 
158.074158 124.0 
161.049225 69.0 
163.076324 62.0 
168.081772 4429.0 
169.08696 910.0 
169.607651 58.0 
170.0737 86.0 
171.078857 86.0 
177.081055 58.0 
181.077072 67.0 
186.092255 138.0 
187.104187 390.0 
188.108887 169.0 
190.06665 65.0 
195.064545 126.0 
197.110641 57.0 
202.071701 108.0 
206.059708 64.0 
213.068619 46.0 
215.100998 953.0 
215.142227 47.0 
216.104233 153.0 
223.128723 1171.0 
224.132706 243.0 
225.140228 120.0 
226.064301 52.0 
226.145721 48.0 
227.983459 70.0 
235.57782 49.0 
238.043076 56.0 
241.138153 300.0 
242.138916 77.0 
243.099075 1790.0 
244.099487 630.0 
244.598206 53.0 
245.076111 59.0 
245.109024 94.0 
245.591553 51.0 
251.126633 1258.0 
252.1297 362.0 
253.342834 50.0 
256.867828 50.0 
257.082855 52.0 
259.155457 70.0 
262.092865 76.0 
263.591888 52.0 
264.12439 111.0 
265.058472 55.0 
270.596588 201.0 
271.097198 54.0 
273.106628 159.0 
273.437195 50.0 
280.728363 46.0 
283.170776 53.0 
284.101929 48.0 
284.606903 99.0 
285.095184 104.0 
290.136108 74.0 
291.12326 175.0 
292.578949 49.0 
293.110077 172.0 
293.616211 104.0 
295.102783 60.0 
295.15274 669.0 
296.15451 162.0 
296.597778 58.0 
297.074158 53.0 
298.141663 352.0 
299.142853 126.0 
300.118805 83.0 
302.137848 107.0 
306.171539 103.0 
307.02121 48.0 
308.117798 1314.0 
309.122589 176.0 
310.144165 47.0 
311.159851 54.0 
314.136353 53.0 
315.127747 55.0 
317.098236 52.0 
324.108643 49.0 
324.143768 213.0 
325.146545 67.0 
326.138489 494.0 
327.145203 270.0 
328.15567 223.0 
328.650452 48.0 
329.158234 75.0 
330.166351 267.0 
331.170563 144.0 
332.203156 90.0 
334.165894 2146.0 
335.169678 611.0 
336.174011 254.0 
341.116272 60.0 
342.123383 48.0 
344.134705 336.0 
344.633057 141.0 
346.167633 85.0 
347.171417 90.0 
350.15387 83.0 
350.188477 85.0 
351.135345 48.0 
351.165009 64.0 
351.216827 47.0 
352.122223 74.0 
352.180023 422.0 
352.630157 59.0 
353.11142 77.0 
353.177734 172.0 
354.185211 86.0 
354.547028 47.0 
356.150085 341.0 
357.14743 204.0 
357.642426 61.0 
358.134827 269.0 
358.629303 66.0 
359.065674 59.0 
362.11618 54.0 
363.156281 124.0 
364.154755 153.0 
364.649536 175.0 
366.148956 103.0 
366.199066 66.0 
367.142578 432.0 
367.644958 138.0 
368.636536 75.0 
371.647064 120.0 
373.186279 53.0 
374.164337 214.0 
374.199768 67.0 
375.167175 83.0 
377.162354 49.0 
377.568848 55.0 
380.150787 592.0 
380.651398 275.0 
381.14386 182.0 
381.644897 64.0 
383.143127 73.0 
383.203644 138.0 
384.148743 105.0 
384.645721 57.0 
385.088684 58.0 
385.137482 153.0 
385.637695 74.0 
389.147766 65.0 
391.187775 140.0 
391.646606 146.0 
393.142242 439.0 
393.210114 58.0 
393.655518 309.0 
394.160431 183.0 
395.1539 70.0 
397.646393 52.0 
400.184418 90.0 
401.132385 141.0 
403.403046 55.0 
404.154175 62.0 
404.684662 63.0 
407.556366 51.0 
408.245056 783.0 
409.248383 600.0 
411.196716 496.0 
412.152496 48.0 
412.200256 164.0 
412.66333 907.0 
413.164856 424.0 
413.668396 71.0 
414.179565 63.0 
414.656586 81.0 
415.538361 51.0 
416.225861 99.0 
417.210266 1467.0 
418.211761 511.0 
419.061279 49.0 
419.206421 181.0 
420.124695 70.0 
420.186005 6532.0 
420.261292 55.0 
420.649048 196.0 
421.189575 3580.0 
421.67038 91.0 
422.191406 910.0 
423.193115 177.0 
424.678986 143.0 
425.187469 54.0 
427.546722 57.0 
428.233276 271.0 
430.23175 143.0 
431.190399 86.0 
431.235077 47.0 
431.671906 157.0 
433.473572 52.0 
434.161346 49.0 
434.693909 60.0 
434.944 56.0 
435.155945 221.0 
435.220734 175.0 
436.239929 5221.0 
436.69574 98.0 
437.186066 77.0 
437.241821 2932.0 
437.679504 130.0 
438.177765 284.0 
438.246002 508.0 
438.354401 66.0 
438.676758 66.0 
439.079956 74.0 
439.190063 2364.0 
439.253998 93.0 
439.686646 64.0 
440.192352 387.0 
440.670715 199.0 
441.202576 47.0 
442.174042 104.0 
443.128906 53.0 
443.159302 53.0 
443.220306 70.0 
445.657043 199.0 
446.155151 79.0 
446.677887 3028.0 
446.788574 58.0 
447.177277 1207.0 
447.32666 48.0 
447.678925 415.0 
448.186523 219.0 
448.69458 158.0 
449.13089 50.0 
449.183533 144.0 
449.282837 74.0 
450.728638 73.0 
451.178925 54.0 
451.687286 68.0 
452.184814 56.0 
453.253326 54.0 
453.668579 108.0 
454.665253 738.0 
455.163727 351.0 
455.68512 1540.0 
456.18634 831.0 
456.680145 125.0 
457.16037 80.0 
457.203522 70.0 
458.179657 49.0 
458.223206 279.0 
458.680023 58.0 
459.191345 76.0 
459.693756 77.0 
460.174072 57.0 
461.17392 154.0 
462.239471 61.0 
463.158386 47.0 
467.17218 46.0 
467.205292 47.0 
467.274261 117.0 
468.277466 49.0 
469.488464 46.0 
470.709869 50.0 
471.128082 265.0 
471.230225 47.0 
472.146851 81.0 
472.197754 71.0 
473.130798 57.0 
473.164856 77.0 
473.618469 46.0 
474.199615 122.0 
474.829346 47.0 
475.168823 65.0 
475.258484 88.0 
476.232544 367.0 
477.239532 47.0 
477.709229 66.0 
479.182739 172.0 
479.990143 51.0 
480.172028 74.0 
480.254364 120.0 
482.211914 128.0 
482.725403 68.0 
483.199524 161.0 
483.467957 56.0 
483.713715 108.0 
484.126831 48.0 
484.154541 53.0 
484.621796 56.0 
485.355255 56.0 
485.979309 47.0 
487.20224 70.0 
487.698669 69.0 
488.25351 72.0 
488.717957 60.0 
488.870483 51.0 
489.070648 47.0 
489.214081 63.0 
489.420685 57.0 
490.187653 72.0 
490.697632 61.0 
490.974487 76.0 
491.065247 78.0 
491.167145 74.0 
491.217255 318.0 
491.719299 303.0 
492.214111 151.0 
492.312897 50.0 
492.716156 64.0 
492.987396 52.0 
493.179626 67.0 
494.203705 49.0 
494.737488 55.0 
494.801483 74.0 
495.481628 46.0 
495.599182 48.0 
496.081024 48.0 
496.136963 59.0 
496.213776 4009.0 
496.71756 2412.0 
497.160065 90.0 
497.216034 1222.0 
497.354492 48.0 
497.717163 369.0 
497.769745 58.0 
498.102112 101.0 
498.190735 86.0 
498.465485 55.0 
498.743622 75.0 
498.803436 58.0 
499.207977 326.0 
499.709045 122.0 
500.109894 95.0 
500.142975 76.0 
500.201263 92.0 
500.468109 61.0 
501.006531 47.0 
501.102264 83.0 
501.191437 68.0 
501.251984 74.0 
501.34021 53.0 
501.428223 63.0 
501.483398 48.0 
501.660431 56.0 
501.748108 98.0 
501.819183 74.0 
501.934784 60.0 
502.18573 66.0 
502.299713 77.0 
502.376343 62.0 
502.478882 84.0 
503.087189 55.0 
503.223785 1547.0 
503.384766 100.0 
503.661255 124.0 
503.760956 134.0 
503.920868 98.0 
504.115112 75.0 
504.15094 107.0 
504.207214 1192.0 
504.353607 113.0 
504.396393 113.0 
504.484833 61.0 
504.580231 87.0 
504.629761 144.0 
504.706024 538.0 
504.786224 276.0 
504.884247 59.0 
504.93103 159.0 
505.010803 74.0 
505.067566 229.0 
505.218781 161328.0 
505.320007 238.0 
505.368378 242.0 
505.406891 119.0 
505.44635 151.0 
505.477386 174.0 
505.720337 95113.0 
505.845947 226.0 
505.896881 227.0 
505.943512 162.0 
506.005249 153.0 
506.063354 246.0 
506.098633 310.0 
506.22226 32320.0 
506.356934 151.0 
506.46637 113.0 
506.51474 128.0 
506.556305 158.0 
506.622345 193.0 
506.722504 8877.0 
506.85022 93.0 
506.934631 157.0 
507.09259 58.0 
507.217133 5376.0 
507.337219 57.0 
507.40509 85.0 
507.505005 61.0 
507.579407 51.0 
507.616913 167.0 
507.7164 2177.0 
507.825165 72.0 
507.900421 67.0 
508.218384 766.0 
508.398712 63.0 
508.54126 68.0 
508.640808 51.0 
508.712585 225.0 
508.760803 103.0 
508.876801 74.0 
508.940369 87.0 
509.010834 124.0 
509.15921 111.0 
509.209595 395.0 
509.259888 124.0 
509.328217 88.0 
509.358093 113.0 
509.403229 90.0 
509.476593 107.0 
509.556061 92.0 
509.612213 86.0 
509.712555 191.0 
509.795044 71.0 
509.839447 78.0 
509.909515 81.0 
510.056824 62.0 
510.135284 78.0 
510.210388 130.0 
510.327362 50.0 
510.417206 78.0 
510.591095 69.0 
511.184265 46.0 
511.275665 251.0 
511.363434 53.0 
512.207642 325.0 
512.281372 92.0 
512.707886 302.0 
513.093994 61.0 
513.205322 3809.0 
513.706543 1899.0 
513.789185 46.0 
514.222351 4877.0 
514.442261 54.0 
514.592651 65.0 
514.723938 2708.0 
515.043518 61.0 
515.227051 998.0 
515.276367 310.0 
515.725159 231.0 
516.225403 260.0 
516.726746 62.0 
517.191284 55.0 
517.281616 64.0 
518.087097 72.0 
519.275635 259.0 
520.283203 271.0 
521.224487 81.0 
521.877014 48.0 
522.282715 53.0 
523.192505 53.0 
523.904175 47.0 
524.197266 62.0 
524.247131 245.0 
524.720154 47.0 
525.243469 98.0 
525.293823 56.0 
525.728699 46.0 
525.792908 53.0 
526.242798 85.0 
527.110535 47.0 
527.460205 53.0 
527.664246 54.0 
528.01886 65.0 
528.258423 67.0 
528.328857 51.0 
528.398682 70.0 
529.205688 275.0 
529.275269 76.0 
530.223755 121.0 
531.20752 73.0 
531.319641 59.0 
532.266418 48.0 
533.142578 58.0 
533.291809 119.0 
534.192444 99.0 
534.292358 76.0 
535.224548 47.0 
536.227783 46.0 
536.298828 60.0 
537.289795 132.0 
538.280701 66.0 
538.522522 52.0 
539.22937 532.0 
539.732117 259.0 
540.149292 53.0 
540.237793 101.0 
540.731934 68.0 
541.261047 1675.0 
542.220825 149.0 
542.263245 622.0 
543.142639 81.0 
543.240112 82.0 
543.28479 60.0 
544.225647 67.0 
546.400452 58.0 
547.175964 53.0 
548.240173 100.0 
548.735535 57.0 
548.813232 55.0 
548.893127 47.0 
549.226685 46.0 
550.276062 77.0 
551.2547 115.0 
551.617859 49.0 
552.244934 89.0 
553.257874 102.0 
554.043396 50.0 
554.266113 58.0 
555.015015 60.0 
555.465637 53.0 
556.230408 46.0 
558.157043 53.0 
559.17981 49.0 
559.256042 506.0 
560.255859 234.0 
561.226379 250.0 
562.135498 58.0 
564.855469 83.0 
567.22644 139.0 
568.8255 60.0 
569.177002 65.0 
569.247925 148.0 
569.578186 46.0 
569.616394 51.0 
570.25885 173.0 
570.75116 46.0 
573.020325 57.0 
574.688599 46.0 
575.217468 208.0 
576.25061 66.0 
576.313354 46.0 
576.717407 70.0 
576.862671 68.0 
577.09021 51.0 
577.20282 69.0 
577.293518 103.0 
577.438416 65.0 
577.773438 123.0 
578.789368 51.0 
579.243042 134.0 
580.247131 106.0 
580.336609 48.0 
581.234924 175.0 
582.174561 99.0 
583.776367 335.0 
584.190063 117.0 
584.273682 375.0 
584.372864 48.0 
585.190002 47.0 
585.235291 102.0 
585.283752 115.0 
585.325317 50.0 
585.661865 54.0 
586.248596 47.0 
586.630005 46.0 
586.787598 84.0 
587.206299 53.0 
587.279785 143.0 
587.791199 64.0 
588.242737 66.0 
588.31488 52.0 
588.448792 50.0 
588.675659 104.0 
588.766785 1940.0 
588.89093 81.0 
588.93512 60.0 
588.993835 90.0 
589.11554 77.0 
589.270569 1707.0 
589.396606 75.0 
589.769409 972.0 
589.918091 59.0 
590.277161 329.0 
590.448547 67.0 
590.761047 124.0 
590.907288 84.0 
590.97583 57.0 
591.091431 70.0 
591.176025 177.0 
591.423462 46.0 
591.477295 85.0 
591.588318 46.0 
591.665527 62.0 
591.703064 52.0 
591.76355 156.0 
591.843811 108.0 
592.123962 55.0 
592.190552 96.0 
592.26709 86.0 
592.343994 110.0 
592.452515 55.0 
592.53595 92.0 
592.688049 95.0 
592.777222 66.0 
592.845581 114.0 
592.959045 76.0 
593.116455 61.0 
593.228333 126.0 
593.700745 55.0 
593.737366 72.0 
593.804199 53.0 
593.838257 69.0 
593.901367 95.0 
594.013611 84.0 
594.090698 63.0 
594.197571 179.0 
594.343018 60.0 
594.391663 53.0 
594.460754 61.0 
594.480469 66.0 
594.589661 72.0 
594.656067 64.0 
594.70282 79.0 
594.83551 61.0 
594.984192 56.0 
595.139099 88.0 
595.200256 97.0 
595.334778 175.0 
595.468262 99.0 
595.523376 194.0 
595.717163 91.0 
595.757507 170.0 
595.829712 141.0 
595.888916 112.0 
595.949097 128.0 
596.037903 59.0 
596.084534 115.0 
596.13147 61.0 
596.231567 201.0 
596.321716 315.0 
596.379761 182.0 
596.435486 190.0 
596.488892 189.0 
596.533875 67.0 
596.61969 114.0 
596.769226 412.0 
596.856628 164.0 
596.936951 223.0 
597.034607 188.0 
597.088562 206.0 
597.150391 364.0 
597.198853 330.0 
597.261353 664.0 
597.306335 413.0 
597.388489 410.0 
597.469849 248.0 
597.519348 334.0 
597.569824 465.0 
597.645874 722.0 
597.773438 348002.0 
597.886658 128.0 
597.953918 297.0 
598.077515 404.0 
598.275208 236968.0 
598.368225 316.0 
598.451538 455.0 
598.590454 330.0 
598.776428 101322.0 
598.95166 306.0 
599.082581 443.0 
599.159241 228.0 
599.277954 31612.0 
599.394897 253.0 
599.439575 180.0 
599.485779 199.0 
599.542542 141.0 
599.576904 185.0 
599.626221 201.0 
599.774353 14842.0 
599.888489 348.0 
599.986633 239.0 
600.072632 105.0 
600.147583 187.0 
600.274841 5938.0 
600.424683 173.0 
600.470825 227.0 
600.560486 97.0 
600.599487 114.0 
600.668762 156.0 
600.773926 2347.0 
600.873779 150.0 
600.981995 157.0 
601.058838 136.0 
601.204163 109.0 
601.273621 601.0 
601.40387 216.0 
601.513977 98.0 
601.560913 86.0 
601.614197 67.0 
601.71582 234.0 
601.769043 785.0 
601.850403 170.0 
601.884949 177.0 
601.965881 266.0 
602.068787 217.0 
602.134827 263.0 
602.18634 249.0 
602.317261 2003.0 
602.440247 138.0 
602.5354 233.0 
602.656921 184.0 
602.704224 240.0 
602.772095 341.0 
602.92981 80.0 
602.967773 96.0 
603.030823 144.0 
603.13092 165.0 
603.183716 115.0 
603.241882 148.0 
603.324707 1384.0 
603.440552 131.0 
603.569336 84.0 
603.664001 82.0 
603.717957 92.0 
603.7677 108.0 
603.8302 72.0 
603.992981 71.0 
604.12085 46.0 
604.215576 88.0 
604.276917 121.0 
604.329407 433.0 
604.761902 430.0 
604.822449 85.0 
605.002563 68.0 
605.263062 518.0 
605.336121 155.0 
605.758789 5770.0 
605.883606 50.0 
606.137878 112.0 
606.260498 3572.0 
606.639648 82.0 
606.769531 1217.0 
607.288147 228.0 
607.359619 54.0 
607.612427 48.0 
607.770081 142.0 
608.253113 68.0 
608.365662 48.0 
608.44812 48.0 
609.504456 55.0 
609.714661 70.0 
613.627197 46.0 
615.263977 77.0 
615.344177 61.0 
615.401917 88.0 
616.07782 49.0 
616.181396 71.0 
616.474854 57.0 
617.365784 51.0 
618.3078 57.0 
620.234863 63.0 
620.269592 72.0 
620.337585 227.0 
621.338928 114.0 
622.275879 51.0 
622.425964 80.0 
622.571167 65.0 
622.640137 64.0 
623.068787 49.0 
623.313049 83.0 
624.302429 2531.0 
624.364502 343.0 
625.297791 843.0 
625.354248 93.0 
626.291809 135.0 
628.318298 51.0 
628.354553 76.0 
629.343628 147.0 
630.340393 67.0 
632.273865 61.0 
632.303894 110.0 
632.38385 60.0 
634.294739 63.0 
641.303772 75.0 
642.304199 298.0 
643.296265 241.0 
644.245422 53.0 
645.254761 122.0 
645.331604 46.0 
646.280151 63.0 
655.270813 56.0 
656.240601 125.0 
658.150085 57.0 
658.246643 171.0 
659.240234 74.0 
659.319031 147.0 
660.303955 2813.0 
661.227966 49.0 
661.30426 1165.0 
662.316467 255.0 
664.286133 92.0 
669.368225 52.0 
670.272461 68.0 
671.256653 69.0 
671.318542 302.0 
672.332764 183.0 
673.298157 87.0 
673.340271 50.0 
673.98053 52.0 
674.220093 60.0 
674.255798 75.0 
675.239746 84.0 
676.269043 572.0 
676.361389 65.0 
677.280579 157.0 
677.331482 108.0 
680.252808 61.0 
681.326233 131.0 
685.336365 168.0 
686.287048 342.0 
686.335571 296.0 
687.265198 72.0 
687.340881 165.0 
688.274719 77.0 
688.36499 65.0 
689.330566 82.0 
691.284241 63.0 
692.236084 78.0 
693.252747 76.0 
693.330688 245.0 
694.334778 113.0 
697.362305 90.0 
699.316406 446.0 
700.319092 73.0 
701.276123 61.0 
703.257751 51.0 
703.351013 571.0 
704.349426 544.0 
705.351501 379.0 
706.346497 142.0 
709.268311 50.0 
709.356689 95.0 
710.326355 82.0 
711.384949 258.0 
712.350281 49.0 
713.213074 46.0 
715.285767 367.0 
715.378235 178.0 
716.284546 106.0 
716.429382 51.0 
717.328491 838.0 
718.327637 90.0 
719.278687 63.0 
719.405701 561.0 
720.288818 58.0 
720.340515 53.0 
720.404541 311.0 
721.295959 52.0 
721.403931 184.0 
722.411987 61.0 
724.348755 55.0 
725.328796 389.0 
725.383118 123.0 
726.336487 132.0 
727.303528 68.0 
728.327148 137.0 
729.370911 50.0 
731.257324 150.0 
731.343689 49.0 
732.430542 53.0 
732.48877 63.0 
733.28949 654.0 
733.399963 296.0 
734.290894 291.0 
734.409851 84.0 
735.284363 84.0 
736.358276 74.0 
737.274353 60.0 
737.346924 243.0 
738.350281 91.0 
739.374268 91.0 
741.284851 73.0 
743.342834 1193.0 
744.344543 694.0 
745.342407 204.0 
748.38269 63.0 
753.335815 339.0 
754.377808 70.0 
755.321228 97.0 
755.365601 78.0 
759.301575 58.0 
759.34491 53.0 
760.315674 68.0 
763.360474 87.0 
765.354492 61.0 
766.325928 67.0 
769.312683 370.0 
770.320496 123.0 
771.319031 46.0 
772.345886 49.0 
775.276855 66.0 
790.35144 64.0 
796.385498 57.0 
797.270691 67.0 
801.277771 48.0 
802.335449 79.0 
808.381653 135.0 
809.379272 57.0 
811.390381 59.0 
816.398743 75.0 
824.340759 46.0 
825.330444 59.0 
826.387024 175.0 
827.394714 112.0 
828.362183 60.0 
832.36499 123.0 
832.4151 365.0 
833.405212 129.0 
834.364258 51.0 
836.394775 79.0 
836.459473 60.0 
837.401062 94.0 
838.43689 66.0 
842.337097 149.0 
843.344849 70.0 
844.367737 52.0 
845.427002 67.0 
846.420593 56.0 
850.382019 62.0 
854.436279 63.0 
856.425842 412.0 
857.438599 154.0 
858.326172 135.0 
858.385559 120.0 
860.288574 74.0 
860.375183 46.0 
861.162415 46.0 
862.420959 186.0 
871.319458 67.0 
876.396179 1867.0 
877.400757 849.0 
878.339233 105.0 
878.41156 365.0 
879.436646 125.0 
880.401123 74.0 
884.42395 254.0 
885.430481 153.0 
886.448181 58.0 
889.401428 62.0 
892.396973 50.0 
892.445435 66.0 
893.387634 74.0 
893.436218 91.0 
894.407654 551.0 
895.408203 242.0 
896.489197 778.0 
897.411255 74.0 
897.486755 881.0 
898.487732 350.0 
899.496094 124.0 
901.400757 52.0 
902.441528 215.0 
903.434326 163.0 
903.930969 56.0 
904.939697 48.0 
906.389343 47.0 
906.439697 72.0 
907.421082 115.0 
910.353882 125.0 
910.460632 56.0 
911.370056 88.0 
911.417053 79.0 
918.388794 51.0 
918.474792 84.0 
923.436096 54.0 
924.410706 49.0 
928.349487 90.0 
929.452209 55.0 
929.485168 82.0 
930.438232 54.0 
931.45636 83.0 
932.443359 118.0 
933.429993 60.0 
934.455505 72.0 
937.493042 47.0 
939.440369 90.0 
941.442932 49.0 
947.473083 195.0 
948.466675 146.0 
949.139099 62.0 
949.452759 846.0 
950.458557 677.0 
951.012451 59.0 
951.438293 189.0 
952.053406 57.0 
953.264465 48.0 
953.476196 675.0 
954.487854 925.0 
955.487793 555.0 
956.186401 49.0 
956.489075 159.0 
957.493347 59.0 
958.499084 49.0 
961.56134 61.0 
965.488281 543.0 
966.487671 306.0 
967.447632 50.0 
967.496765 53.0 
968.4953 58.0 
971.494263 78.0 
972.500854 261.0 
972.775818 48.0 
973.526428 115.0 
973.658752 76.0 
974.504761 66.0 
975.347595 83.0 
975.466614 4834.0 
976.470947 2533.0 
976.608887 53.0 
976.717651 68.0 
976.84668 76.0 
976.901794 74.0 
977.468628 906.0 
978.43689 249.0 
978.544312 93.0 
979.475098 131.0 
980.265015 51.0 
980.345154 55.0 
980.471191 51.0 
980.854797 46.0 
981.345886 63.0 
982.008301 82.0 
983.479919 56.0 
984.41864 61.0 
984.496704 72.0 
985.376526 54.0 
985.934387 49.0 
986.101929 60.0 
986.18335 52.0 
986.227539 67.0 
986.551086 56.0 
988.151123 60.0 
988.411804 57.0 
988.669861 49.0 
989.183472 46.0 
989.450623 46.0 
989.53949 383.0 
989.79425 47.0 
990.547241 278.0 
990.845032 53.0 
990.935608 65.0 
991.140503 46.0 
991.262817 64.0 
991.445251 229.0 
991.538879 253.0 
991.81427 113.0 
991.939819 69.0 
992.104126 109.0 
992.151611 112.0 
992.211853 96.0 
992.331116 94.0 
992.423401 201.0 
992.449646 232.0 
992.57373 87.0 
992.638 108.0 
992.78064 124.0 
992.899292 115.0 
993.063843 178.0 
993.151611 194.0 
993.47876 157951.0 
993.658508 206.0 
993.773621 90.0 
993.819275 125.0 
993.87854 132.0 
993.947632 171.0 
994.028076 214.0 
994.084351 121.0 
994.481812 81436.0 
994.673218 204.0 
994.811951 161.0 
994.913025 169.0 
995.048645 110.0 
995.117615 104.0 
995.26123 274.0 
995.483948 28280.0 
995.652527 96.0 
995.733521 103.0 
995.802795 79.0 
995.942139 72.0 
996.047974 103.0 
996.152039 75.0 
996.216675 61.0 
996.277039 80.0 
996.373962 108.0 
996.488037 5611.0 
996.686646 92.0 
996.77301 67.0 
996.857483 66.0 
996.99176 58.0 
997.481445 1019.0 
997.657959 72.0 
997.952271 118.0 
998.046204 46.0 
998.205994 56.0 
998.311035 88.0 
998.477539 387.0 
998.637451 140.0 
998.710693 97.0 
998.778809 74.0 
998.84729 138.0 
998.99292 119.0 
999.099609 108.0 
999.15271 75.0 
999.202515 77.0 
999.261719 102.0 
999.296204 96.0 
999.396973 181.0 
999.479309 249.0 
999.704529 52.0 
999.760559 98.0 
999.834717 70.0 
1000.015747 70.0 
1000.100098 53.0 
1000.172363 117.0 
1000.279175 79.0 
1000.377808 84.0 
1000.456543 81.0 
1001.075439 61.0 
1001.130615 64.0 
1001.204163 49.0 
1001.269714 59.0 
1001.378723 67.0 
1001.431396 48.0 
1003.563843 83.0 
1004.549438 53.0 
1005.398438 46.0 
1007.22522 62.0 
1007.401672 145.0 
1008.404846 78.0 
1008.990723 49.0 
1009.448364 895.0 
1010.37616 85.0 
1010.44458 673.0 
1011.482727 492.0 
1012.489014 281.0 
1013.430054 46.0 
1015.457275 196.0 
1015.530212 80.0 
1015.943787 83.0 
1016.466187 111.0 
1017.494507 186.0 
1017.802246 50.0 
1018.119507 61.0 
1018.414734 80.0 
1018.568481 55.0 
1019.524902 76.0 
1020.942871 57.0 
1021.487 53.0 
1021.544006 57.0 
1022.28186 47.0 
1022.447998 75.0 
1022.523438 77.0 
1023.105835 64.0 
1024.407349 70.0 
1025.413086 512.0 
1025.610718 46.0 
1026.418457 257.0 
1026.486816 84.0 
1027.283691 56.0 
1027.451172 85.0 
1028.359985 95.0 
1029.506348 91.0 
1031.345947 52.0 
1032.532593 54.0 
1034.373779 46.0 
1035.671265 50.0 
1038.289062 70.0 
1039.531128 104.0 
1040.52002 113.0 
1040.661133 57.0 
1041.522583 77.0 
1043.206543 55.0 
1043.518066 60.0 
1043.57373 54.0 
1044.478638 86.0 
1046.88623 51.0 
1047.529785 147.0 
1048.010254 65.0 
1048.540283 85.0 
1049.341553 46.0 
1050.31958 55.0 
1050.369629 55.0 
1051.000854 54.0 
1051.266479 65.0 
1051.648804 55.0 
1054.913452 65.0 
1056.009766 54.0 
1056.533203 60.0 
1057.084473 54.0 
1060.515381 100.0 
1061.11377 46.0 
1061.359131 55.0 
1061.504517 1487.0 
1061.767334 54.0 
1062.510132 615.0 
1063.383057 87.0 
1063.509399 305.0 
1063.96228 53.0 
1064.513062 132.0 
1064.557983 113.0 
1065.539185 60.0 
1065.87561 46.0 
1065.974854 50.0 
1066.331299 79.0 
1066.545532 66.0 
1066.723389 65.0 
1068.174683 48.0 
1071.900269 53.0 
1074.657715 49.0 
1079.513916 338.0 
1079.952637 63.0 
1080.5354 182.0 
1081.528809 48.0 
1083.019531 154.0 
1083.398071 50.0 
1083.531494 235.0 
1083.655273 50.0 
1084.03064 134.0 
1084.508179 66.0 
1085.018066 75.0 
1088.389893 85.0 
1088.532959 57.0 
1090.566162 58.0 
1091.530029 67.0 
1092.478027 70.0 
1092.647095 70.0 
1093.53418 74.0 
1096.884888 51.0 
1102.031494 51.0 
1105.254883 58.0 
1105.673828 54.0 
1106.284302 65.0 
1106.488892 65.0 
1106.722778 58.0 
1106.974976 63.0 
1107.300903 75.0 
1107.447754 94.0 
1107.697876 79.0 
1108.361206 57.0 
1108.438354 54.0 
1108.562744 97.0 
1108.855957 83.0 
1108.914185 50.0 
1109.949829 54.0 
1110.827881 65.0 
1110.908813 55.0 
1111.588501 63.0 
1111.634766 69.0 
1112.655518 46.0 
1115.599487 56.0 
1116.584717 132.0 
1116.721558 62.0 
1117.612427 67.0 
1118.48938 91.0 
1118.618286 77.0 
1118.817261 48.0 
1119.528564 55.0 
1120.422729 72.0 
1120.796631 47.0 
1121.255249 46.0 
1121.35022 85.0 
1121.606079 60.0 
1121.767456 57.0 
1122.242432 48.0 
1123.018677 59.0 
1123.574951 47.0 
1123.953003 48.0 
1124.246582 52.0 
1125.861206 59.0 
1126.802612 54.0 
1127.01709 51.0 
1127.881226 52.0 
1127.959839 59.0 
1128.610107 65.0 
1131.264282 75.0 
1132.583618 316.0 
1133.400757 65.0 
1133.453979 85.0 
1133.584595 124.0 
1134.284912 85.0 
1134.587402 203.0 
1135.039062 53.0 
1135.223877 59.0 
1135.311523 54.0 
1135.56897 215.0 
1135.739502 68.0 
1135.904419 76.0 
1136.011719 78.0 
1136.104248 76.0 
1136.171509 84.0 
1136.24585 79.0 
1136.320923 82.0 
1136.391235 73.0 
1136.580688 120.0 
1136.712769 46.0 
1136.896851 68.0 
1137.001953 95.0 
1137.101074 109.0 
1137.218262 60.0 
1137.420776 65.0 
1137.507324 54.0 
1137.563843 127.0 
1137.669312 75.0 
1137.754883 53.0 
1138.016357 68.0 
1138.27124 84.0 
1138.594727 3273.0 
1139.015015 77.0 
1139.079468 58.0 
1139.437256 123.0 
1139.595825 7894.0 
1139.806274 58.0 
1139.967285 46.0 
1140.163818 46.0 
1140.421753 146.0 
1140.598755 6458.0 
1140.738037 65.0 
1140.929565 87.0 
1141.448853 102.0 
1141.597412 2075.0 
1142.294678 98.0 
1142.612183 428.0 
1142.806885 47.0 
1143.626343 145.0 
1144.660034 67.0 
1144.808472 52.0 
1144.974854 53.0 
1145.13916 70.0 
1145.7146 46.0 
1146.219116 46.0 
1146.320557 80.0 
1146.709717 65.0 
1147.344727 68.0 
1147.728271 62.0 
1147.897217 46.0 
1147.963013 74.0 
1148.37854 57.0 
1148.460205 66.0 
1148.969727 51.0 
1149.495483 59.0 
1149.848755 68.0 
1150.057373 84.0 
1150.207397 113.0 
1150.291382 66.0 
1150.38501 101.0 
1150.590454 473.0 
1150.920654 105.0 
1151.090942 49.0 
1151.181641 65.0 
1151.260376 54.0 
1151.494019 63.0 
1151.590576 419.0 
1151.776978 50.0 
1151.855957 55.0 
1151.910034 58.0 
1152.214844 58.0 
1152.288574 97.0 
1152.595581 192.0 
1153.067383 51.0 
1153.252075 49.0 
1153.572144 98.0 
1153.677612 104.0 
1154.119873 51.0 
1154.269897 47.0 
1154.699585 65.0 
1155.051758 47.0 
1155.487793 50.0 
1155.722656 73.0 
1155.884644 48.0 
1156.212524 54.0 
1156.340454 47.0 
1156.615479 129.0 
1157.064209 70.0 
1157.171509 114.0 
1157.493652 53.0 
1157.588623 99.0 
1157.76416 50.0 
1157.813965 78.0 
1157.960938 72.0 
1158.232788 81.0 
1158.5177 59.0 
1158.619873 81.0 
1158.745483 98.0 
1158.920044 52.0 
1159.301147 73.0 
1159.365234 57.0 
1159.432739 49.0 
1159.493164 90.0 
1159.613892 179.0 
1159.817505 82.0 
1160.077271 52.0 
1160.174683 170.0 
1160.225464 116.0 
1160.308594 50.0 
1160.353882 74.0 
1160.4646 292.0 
1160.575806 9495.0 
1160.76123 82.0 
1160.843506 197.0 
1160.948242 141.0 
1161.019775 116.0 
1161.267456 57.0 
1161.348877 85.0 
1161.57959 6644.0 
1161.883545 126.0 
1161.970215 121.0 
1162.051025 68.0 
1162.333374 115.0 
1162.582153 2791.0 
1162.780151 100.0 
1162.864136 61.0 
1163.095459 60.0 
1163.307739 130.0 
1163.417358 170.0 
1163.583252 740.0 
1163.741577 206.0 
1163.930664 89.0 
1163.993774 101.0 
1164.105835 47.0 
1164.181519 75.0 
1164.25415 50.0 
1164.413086 64.0 
1164.566162 197.0 
1164.627563 132.0 
1164.756592 111.0 
1164.845825 149.0 
1164.922607 132.0 
1165.114136 96.0 
1165.167603 95.0 
1165.331299 50.0 
1165.506592 151.0 
1165.571777 114.0 
1165.620972 89.0 
1165.695923 109.0 
1165.807007 88.0 
1165.871704 131.0 
1165.991089 69.0 
1166.119751 83.0 
1166.398804 71.0 
1166.483032 124.0 
1166.566406 156.0 
1166.722656 82.0 
1166.931519 158.0 
1166.994019 120.0 
1167.067017 187.0 
1167.208984 51.0 
1167.310181 82.0 
1167.374268 66.0 
1167.473145 165.0 
1167.573486 192.0 
1167.701416 119.0 
1167.891479 113.0 
1167.995728 51.0 
1168.071899 75.0 
1168.264771 71.0 
1168.336792 115.0 
1168.508301 117.0 
1168.57251 120.0 
1168.668457 82.0 
1168.793091 121.0 
1168.973267 52.0 
1169.094116 98.0 
1169.216675 64.0 
1169.266479 105.0 
1169.350342 92.0 
1169.488403 62.0 
1169.651978 90.0 
1169.797119 70.0 
1169.853516 87.0 
1169.908936 90.0 
1169.961548 89.0 
1170.071899 59.0 
1170.273438 65.0 
1170.339844 67.0 
1170.404663 113.0 
1170.466797 80.0 
1170.637451 72.0 
1170.70459 102.0 
1170.781616 55.0 
1170.872803 55.0 
1170.931152 94.0 
1171.085205 56.0 
1171.165527 96.0 
1171.318848 100.0 
1171.414673 92.0 
1171.474854 77.0 
1171.531616 78.0 
1171.647217 66.0 
1171.721191 113.0 
1171.778931 93.0 
1171.952881 94.0 
1172.095825 84.0 
1172.275269 56.0 
1172.328979 88.0 
1172.530762 145.0 
1172.619507 137.0 
1172.700317 117.0 
1172.812134 59.0 
1172.917969 78.0 
1173.025391 114.0 
1173.120361 128.0 
1173.286987 82.0 
1173.359375 123.0 
1173.527222 113.0 
1173.586182 104.0 
1173.693237 126.0 
1173.744385 173.0 
1173.812744 123.0 
1173.872314 169.0 
1173.995972 142.0 
1174.061279 135.0 
1174.162964 174.0 
1174.23877 143.0 
1174.289185 140.0 
1174.438354 93.0 
1174.644531 1354.0 
1174.865845 177.0 
1174.938599 216.0 
1174.994629 194.0 
1175.065308 251.0 
1175.148315 278.0 
1175.275635 257.0 
1175.329834 212.0 
1175.401978 284.0 
1175.577148 12237.0 
1175.77478 244.0 
1175.88855 324.0 
1176.078247 19829.0 
1176.272827 417.0 
1176.372559 391.0 
1176.478149 628.0 
1176.581177 15688.0 
1176.810669 302.0 
1176.884155 428.0 
1177.080933 9878.0 
1177.217407 623.0 
1177.32959 343.0 
1177.410645 529.0 
1177.582886 4962.0 
1177.806152 613.0 
1177.900635 630.0 
1177.998047 724.0 
1178.087402 2287.0 
1178.214478 1222.0 
1178.586792 904651.0 
1178.830566 165.0 
1179.047607 8474.0 
1179.164307 3686.0 
1179.276245 356.0 
1179.588989 687560.0 
1179.756958 137.0 
1179.833008 167.0 
1180.032959 1354.0 
1180.206421 476.0 
1180.591797 257917.0 
1180.746582 158.0 
1180.842896 310.0 
1180.92334 176.0 
1180.998413 213.0 
1181.065552 295.0 
1181.185303 467.0 
1181.328125 254.0 
1181.372925 386.0 
1181.59375 61970.0 
1181.791992 210.0 
1181.868408 191.0 
1181.98645 267.0 
1182.11792 318.0 
1182.277832 161.0 
1182.349487 185.0 
1182.408325 226.0 
1182.594971 7989.0 
1182.80481 147.0 
1182.879028 256.0 
1182.950195 209.0 
1183.046509 191.0 
1183.109985 175.0 
1183.18811 188.0 
1183.31958 130.0 
1183.394653 96.0 
1183.596924 1365.0 
1183.719604 165.0 
1183.793945 318.0 
1183.897583 211.0 
1184.110474 372.0 
1184.29126 323.0 
1184.382568 412.0 
1184.575073 823.0 
1184.760132 565.0 
1184.80542 554.0 
1184.882812 554.0 
1184.946777 694.0 
1185.064697 468.0 
1185.231079 299.0 
1185.35083 359.0 
1185.429688 365.0 
1185.503906 287.0 
1185.571045 327.0 
1185.732422 305.0 
1185.8573 322.0 
1185.947144 316.0 
1186.042358 312.0 
1186.149048 344.0 
1186.23999 110.0 
1186.398071 161.0 
1186.517212 136.0 
1186.574463 174.0 
1186.658813 161.0 
1186.787842 161.0 
1186.872681 241.0 
1186.965576 155.0 
1187.043823 95.0 
1187.11084 176.0 
1187.22168 122.0 
1187.33252 103.0 
1187.41748 117.0 
1187.552979 88.0 
1187.667725 61.0 
1187.735229 131.0 
1187.934937 88.0 
1188.030518 84.0 
1188.113159 102.0 
1188.250122 76.0 
1188.546021 66.0 
1188.765259 60.0 
1188.896729 112.0 
1188.978271 46.0 
1189.033936 82.0 
1189.135864 55.0 
1189.257202 74.0 
1189.54895 56.0 
1189.674072 54.0 
1192.571411 77.0 
1193.355957 48.0 
1193.522949 76.0 
1194.180298 65.0 
1194.424561 46.0 
1194.549316 977.0 
1195.554321 693.0 
1196.297119 48.0 
1196.464722 58.0 
1196.557251 420.0 
1196.694702 98.0 
1196.804199 57.0 
1197.55896 120.0 
1200.444946 57.0 
1200.56543 1163.0 
1201.216187 60.0 
1201.458862 54.0 
1201.565063 702.0 
1202.305542 47.0 
1202.445923 48.0 
1202.579468 419.0 
1202.882446 54.0 
1203.11084 72.0 
1203.321167 70.0 
1203.560669 185.0 
1203.883423 53.0 
1203.937988 85.0 
1204.019287 46.0 
1204.122437 67.0 
1204.19397 54.0 
1204.312866 65.0 
1204.623413 55.0 
1204.812988 51.0 
1205.344971 77.0 
1205.435425 49.0 
1206.670532 64.0 
1207.865723 63.0 
1208.54541 62.0 
1208.590576 95.0 
1208.656372 90.0 
1209.533447 106.0 
1209.944092 56.0 
1210.522949 577.0 
1210.74707 46.0 
1211.52124 300.0 
1212.053467 81.0 
1212.17041 52.0 
1212.294434 46.0 
1212.331665 55.0 
1212.529663 205.0 
1212.636597 50.0 
1212.963379 58.0 
1213.046509 62.0 
1213.525269 48.0 
1213.639648 83.0 
1213.770508 60.0 
1213.8573 58.0 
1213.927612 55.0 
1214.142944 78.0 
1214.241455 51.0 
1214.662964 46.0 
1214.858765 55.0 
1215.295654 64.0 
1215.408813 49.0 
1215.905396 47.0 
1216.929443 52.0 
1220.309937 50.0 
1221.19104 61.0 
1235.462036 52.0 
1259.434814 56.0 
1313.748169 54.0 
1357.804932 67.0 
1395.00415 48.0 
1467.75415 91.0 
1498.397339 47.0 
1506.858032 59.0 
1518.293335 46.0 
1590.154541 58.0 
1593.865845 56.0 
1605.734131 93.0 
1606.906372 46.0 
1607.461548 71.0 
1611.417236 49.0 
1613.403442 52.0 
1614.940186 50.0 
1616.578491 52.0 
1623.410889 49.0 
1628.766968 47.0 
1634.565918 56.0 
1634.76416 62.0 
1636.286743 51.0 
1637.166992 63.0 
1638.843506 46.0 
1639.25769 51.0 
1642.268066 55.0 
1644.331909 47.0 
1646.938232 57.0 
1648.862671 49.0 
1652.290039 48.0 
1656.717041 76.0 
1659.286621 50.0 
1661.426636 46.0 
1661.92395 56.0 
1663.089478 68.0 
1663.511353 60.0 
1664.18335 47.0 
1666.790771 67.0 
1669.008423 46.0 
1669.187012 48.0 
1671.298828 48.0 
1677.083252 47.0 
1683.033203 49.0 
1684.374756 49.0 
1685.174316 51.0 
1685.872314 76.0 
1690.449219 53.0 
1691.238525 53.0 
1692.076782 65.0 
1692.654419 46.0 
1692.921875 68.0 
1697.884521 63.0 
1701.265991 52.0 
1701.653198 47.0 
1705.317383 55.0 
1705.790039 49.0 
1710.845947 67.0 
1711.809692 56.0 
1714.165039 51.0 
1723.858154 70.0 
1726.61145 54.0 
1726.714355 49.0 
1730.03418 56.0 
1730.752563 59.0 
1731.49707 67.0 
1735.664429 102.0 
1735.742798 50.0 
1736.059814 56.0 
1739.699463 63.0 
1739.834106 56.0 
1740.188477 47.0 
1741.125488 54.0 
1741.492188 62.0 
1742.692017 52.0 
1743.476929 59.0 
1744.829956 51.0 
1745.592773 46.0 
1745.77771 50.0 
1747.088745 53.0 
1747.62439 49.0 
1749.09021 54.0 
1750.018066 59.0 
1751.475952 62.0 
1754.131714 48.0 
1755.445801 61.0 
1755.642456 61.0 
1756.310303 51.0 
1757.457764 49.0 
1759.186157 73.0 
1759.916382 57.0 
1760.128174 46.0 
1762.080322 68.0 
1762.62561 63.0 
1763.391846 50.0 
1764.12854 68.0 
1765.810425 66.0 
1767.198975 54.0 
1767.410645 60.0 
1769.47583 50.0 
1773.534424 51.0 
1774.366943 48.0 
1774.457275 80.0 
1777.483032 64.0 
1777.744263 65.0 
1778.307251 65.0 
1779.746704 48.0 
1780.05127 63.0 
1782.284424 56.0 
1785.26355 72.0 
1786.812378 56.0 
1787.073242 65.0 
1788.525635 57.0 
1788.589478 66.0 
1789.670044 46.0 
1790.902344 76.0 
1791.228394 52.0 
1793.240112 63.0 
1793.441162 72.0 
1793.862183 48.0 
1794.69165 72.0 
1796.200806 64.0 
1796.269287 67.0 
1798.614624 53.0 
1799.234863 55.0 
1799.795532 69.0 
1800.059448 49.0 
1801.17627 46.0 
1801.533691 52.0 
1801.647217 69.0 
1803.401001 60.0 
1803.615356 67.0 
1803.698608 53.0 
1803.915894 58.0 
1804.931152 47.0 
1809.619751 73.0 
1810.6427 47.0 
1811.170044 47.0 
1811.577271 62.0 
1813.205811 60.0 
1813.919678 47.0 
1814.899048 89.0 
1816.313232 65.0 
1817.88855 67.0 
1819.763672 58.0 
1820.388672 50.0 
1821.970947 56.0 
1822.361572 68.0 
1822.518921 47.0 
1823.096313 93.0 
1823.181274 62.0 
1825.156616 49.0 
1826.172729 49.0 
1826.44519 86.0 
1828.764771 59.0 
1828.867188 94.0 
1829.206787 47.0 
1829.721191 66.0 
1829.873535 47.0 
1830.935303 58.0 
1833.90979 64.0 
1834.937012 64.0 
1837.330933 48.0 
1837.672974 82.0 
1837.869995 48.0 
1839.482056 79.0 
1839.745972 46.0 
1841.077515 47.0 
1843.311646 83.0 
1843.926147 92.0 
1844.068115 75.0 
1844.264648 87.0 
1845.18811 55.0 
1845.789062 73.0 
1846.226685 63.0 
1849.253662 47.0 
1849.400024 70.0 
1849.536377 47.0 
1850.484375 55.0 
1852.780518 66.0 
1852.938965 51.0 
1854.543335 66.0 
1855.488281 64.0 
1855.8396 50.0 
1856.313232 46.0 
1857.153564 95.0 
1857.363647 51.0 
1857.663696 56.0 
1857.882324 53.0 
1858.324951 79.0 
1858.888062 50.0 
1859.885742 55.0 
1859.984985 48.0 
1860.276978 47.0 
1860.486328 86.0 
1861.08728 68.0 
1861.372314 60.0 
1861.525391 74.0 
1861.885132 59.0 
1862.138184 59.0 
1862.949463 91.0 
1864.908813 55.0 
1865.506714 65.0 
1865.650635 85.0 
1865.943848 109.0 
1866.542114 65.0 
1867.178345 49.0 
1867.395508 46.0 
1867.67395 66.0 
1868.421997 48.0 
1868.543091 78.0 
1869.833862 80.0 
1870.873657 46.0 
1871.12085 125.0 
1871.977783 82.0 
1872.067993 50.0 
1872.761841 54.0 
1873.016235 107.0 
1873.492432 67.0 
1873.635498 88.0 
1873.831299 87.0 
1874.102905 83.0 
1874.551758 47.0 
1874.950806 63.0 
1875.13147 58.0 
1875.542969 65.0 
1875.723633 81.0 
1875.843994 58.0 
1875.981567 86.0 
1876.432495 62.0 
1876.521729 64.0 
1876.912964 83.0 
1877.037354 90.0 
1877.138184 117.0 
1877.278687 85.0 
1877.378662 73.0 
1877.822754 73.0 
1878.251099 53.0 
1878.335693 94.0 
1878.52124 156.0 
1878.748413 88.0 
1879.169922 97.0 
1879.311157 80.0 
1879.616455 91.0 
1879.737793 53.0 
1879.911987 107.0 
1880.32666 67.0 
1880.525024 51.0 
1880.672241 99.0 
1880.862427 57.0 
1880.978394 62.0 
1881.038086 62.0 
1881.139404 57.0 
1881.299927 48.0 
1881.642456 100.0 
1881.903931 57.0 
1882.092285 95.0 
1882.327271 67.0 
1882.430176 91.0 
1882.512085 83.0 
1882.596436 90.0 
1882.664429 119.0 
1882.757935 62.0 
1882.834839 52.0 
1882.996948 132.0 
1883.112427 69.0 
1883.233154 81.0 
1883.316895 64.0 
1883.573975 86.0 
1883.709229 91.0 
1883.776489 114.0 
1884.163452 60.0 
1884.394043 84.0 
1884.633057 115.0 
1884.791626 70.0 
1884.994263 74.0 
1885.157837 110.0 
1885.314087 48.0 
1885.404053 59.0 
1885.469482 73.0 
1885.585327 73.0 
1885.778687 59.0 
1886.03125 52.0 
1886.120361 73.0 
1886.213257 75.0 
1886.314575 77.0 
1886.425659 47.0 
1886.616089 74.0 
1886.878418 86.0 
1886.962158 144.0 
1887.258423 94.0 
1887.383545 119.0 
1887.556152 66.0 
1887.723511 63.0 
1887.890747 72.0 
1888.070923 61.0 
1888.162109 116.0 
1888.359009 75.0 
1888.526123 113.0 
1888.675659 77.0 
1888.778198 61.0 
1888.872925 76.0 
1888.990479 48.0 
1889.098022 99.0 
1889.2052 81.0 
1889.500122 64.0 
1889.55603 95.0 
1889.696167 139.0 
1889.911987 84.0 
1890.006104 72.0 
1890.070679 56.0 
1890.222168 172.0 
1890.355713 52.0 
1890.447266 86.0 
1890.550903 113.0 
1890.69458 104.0 
1890.847046 74.0 
1890.911133 69.0 
1890.97168 104.0 
1891.267456 62.0 
1891.425537 121.0 
1891.506958 106.0 
1891.616699 62.0 
1891.842773 122.0 
1891.945557 50.0 
1892.357178 180.0 
1892.563232 126.0 
1892.755493 128.0 
1892.887085 69.0 
1893.186035 49.0 
1893.291992 99.0 
1893.350342 99.0 
1893.553101 75.0 
1893.711182 154.0 
1893.828491 55.0 
1894.074707 73.0 
1894.227539 53.0 
1894.502075 127.0 
1894.713867 77.0 
1894.804688 67.0 
1894.887817 141.0 
1894.997803 83.0 
1895.381226 54.0 
1895.627075 75.0 
1895.878296 66.0 
1896.12793 101.0 
1896.344238 86.0 
1896.471191 99.0 
1896.723389 111.0 
1896.917725 95.0 
1896.989258 79.0 
1897.240234 58.0 
1897.43457 110.0 
1897.852539 127.0 
1898.061157 56.0 
1898.188843 59.0 
1898.632202 191.0 
1898.89978 71.0 
1899.167114 186.0 
1899.261719 80.0 
1899.361816 75.0 
1899.556885 117.0 
1899.792847 94.0 
1899.897461 56.0 
1899.984741 159.0 
1900.07312 110.0 
1900.300049 98.0 
1900.603516 57.0 
1900.768066 54.0 
1900.878052 104.0 
1900.984009 62.0 
1901.137939 69.0 
1901.318481 49.0 
1901.540405 46.0 
1901.703857 135.0 
1902.026611 101.0 
1902.081787 137.0 
1902.158081 84.0 
1902.403809 159.0 
1902.598145 70.0 
1902.757202 72.0 
1903.032837 69.0 
1903.111572 50.0 
1903.253662 52.0 
1903.42395 98.0 
1903.554932 50.0 
1903.621826 68.0 
1903.694214 78.0 
1903.781982 106.0 
1903.862061 77.0 
1904.01416 122.0 
1904.151733 91.0 
1904.277222 59.0 
1904.603394 71.0 
1904.949219 61.0 
1905.195923 62.0 
1905.315796 85.0 
1905.453491 59.0 
1905.640259 75.0 
1905.761719 138.0 
1905.912476 53.0 
1906.138916 60.0 
1906.245239 59.0 
1906.660889 69.0 
1906.826294 49.0 
1907.036499 90.0 
1907.322266 171.0 
1907.418579 116.0 
1907.58606 65.0 
1907.948853 143.0 
1908.45813 92.0 
1908.657715 87.0 
1908.994751 58.0 
1909.101074 62.0 
1909.236084 67.0 
1909.379517 80.0 
1909.452271 76.0 
1909.566528 71.0 
1909.639771 60.0 
1910.312378 61.0 
1910.424072 54.0 
1910.974121 79.0 
1911.250488 165.0 
1911.336792 60.0 
1911.691895 142.0 
1911.762329 84.0 
1911.946167 99.0 
1912.211914 51.0 
1912.393188 48.0 
1912.703857 101.0 
1912.83252 48.0 
1912.886719 59.0 
1912.976807 68.0 
1913.271729 152.0 
1913.528564 53.0 
1913.889648 101.0 
1914.012939 69.0 
1914.190674 72.0 
1914.413574 46.0 
1914.512573 123.0 
1914.78186 61.0 
1915.080566 46.0 
1915.293091 73.0 
1915.464844 65.0 
1915.628296 46.0 
1915.773438 74.0 
1915.885742 120.0 
1916.039429 134.0 
1916.278076 51.0 
1916.412476 63.0 
1916.609497 73.0 
1917.066162 101.0 
1917.747314 60.0 
1917.97876 48.0 
1918.146118 55.0 
1918.406494 55.0 
1918.520874 87.0 
1918.828491 57.0 
1918.955811 59.0 
1919.343628 63.0 
1919.574219 121.0 
1919.874146 87.0 
1919.983643 100.0 
1920.600708 75.0 
1921.721069 50.0 
1922.157227 62.0 
1923.382202 58.0 
1923.859741 48.0 
1924.001099 60.0 
1924.132446 57.0 
1924.270508 57.0 
1924.627441 100.0 
1925.510986 62.0 
1926.560669 92.0 
1926.64209 61.0 
1926.957153 61.0 
1927.105469 48.0 
1927.2677 50.0 
1927.453369 62.0 
1927.796509 71.0 
1928.175903 54.0 
1928.298096 75.0 
1928.733643 83.0 
1929.779297 55.0 
1930.98999 54.0 
1932.343994 53.0 
1932.488281 61.0 
1933.834839 79.0 
1934.067505 71.0 
1934.401367 59.0 
1935.254028 51.0 
1936.053711 76.0 
1936.650146 66.0 
1936.755981 55.0 
1936.977417 69.0 
1937.06311 51.0 
1937.274658 89.0 
1937.435669 69.0 
1938.280396 50.0 
1938.499878 87.0 
1938.659546 59.0 
1938.843628 54.0 
1939.121094 64.0 
1939.405884 65.0 
1939.651855 53.0 
1940.615845 53.0 
1940.719604 66.0 
1940.977539 73.0 
1941.274658 69.0 
1941.51001 76.0 
1941.962769 92.0 
1942.82312 65.0 
1943.321533 54.0 
1943.958618 84.0 
1945.148071 62.0 
1945.470337 67.0 
1946.005859 48.0 
1947.431641 80.0 
1947.709473 70.0 
1949.685913 55.0 
1950.132935 56.0 
1950.506958 54.0 
1950.809937 82.0 
1951.825806 50.0 
1951.920288 46.0 
1952.312256 48.0 
1952.877441 52.0 
1953.032349 46.0 
1953.379883 56.0 
1953.752197 46.0 
1953.871826 78.0 
1954.198364 94.0 
1954.995972 68.0 
1955.681763 54.0 
1957.753052 68.0 
1960.285156 66.0 
1960.749634 50.0 
1960.896606 77.0 
1961.097534 72.0 
1962.678467 47.0 
1963.32019 46.0 
1966.504883 63.0 
1966.667236 76.0 
1966.916504 46.0 
1967.19165 70.0 
1967.355591 49.0 
1968.474976 62.0 
1969.46167 61.0 
1971.173706 55.0 
1971.964966 82.0 
1972.71936 66.0 
1973.012817 47.0 
1977.444824 47.0 
1978.388916 57.0 
1979.119751 62.0 
1982.042358 68.0 
1983.071411 52.0 
1989.122559 49.0 
1990.397095 47.0 
1992.294922 69.0 
END IONS

