BEGIN IONS
PEPMASS=438.8
CHARGE=1+
MSLEVEL=2
SOURCE_INSTRUMENT=LC-ESI-Ion Trap
FILENAME=f.zhangyi/pure compounds/BL-VII_pos-80fold.mzXML;
SEQ=*..*
IONMODE=Positive
ORGANISM=GNPS-LIBRARY
NAME=butyrolactone VII M+H
PI=William Gerwick
DATACOLLECTOR=Yi Zhang
SMILES=CCOC(=O)[C@]1(C(=C(C(=O)O1)O)c2ccc(cc2)O)Cc3ccc(c(c3)CC=C(C)C)O
INCHI=InChI=1S/C25H26O7/c1-4-31-24(30)25(14-16-6-12-20(27)18(13-16)7-5-15(2)3)21(22(28)23(29)32-25)17-8-10-19(26)11-9-17/h5-6,8-13,26-28H,4,7,14H2,1-3H3/t25-/m1/s1
INCHIAUX=
PUBMED=
SUBMITUSER=zhangyi
LIBRARYQUALITY=3
SPECTRUMID=CCMSLIB00005436074
SCANS=337
249.178925 2825.0 
254.950653 2939.0 
276.992065 2385.0 
331.107666 22778.0 
348.89624 4386.0 
359.168945 2880.0 
365.318115 5202.0 
374.868164 5617.0 
376.523865 2297.0 
377.335205 1338.0 
380.925476 1570.0 
383.02533 2767.0 
392.36908 4521.0 
393.032104 55666.0 
419.083618 3170.0 
438.546204 1855.0 
END IONS

