BEGIN IONS
PEPMASS=1881.74
CHARGE=1+
MSLEVEL=2
SOURCE_INSTRUMENT=LC-ESI-Ion Trap
FILENAME=f.RReher/2264/Reference_spectra/Samholides/Samholide A/SamholideA_M+Na+1_iontrap_yiwen.mgf;
SEQ=*..*
IONMODE=Positive
ORGANISM=GNPS-LIBRARY
NAME=Samholide A M+Na
PI=Gerwick
DATACOLLECTOR=Ywen Tao
SMILES=COC1CC(C)OC(CCC(C)C(O)C(C)C2CC(O)CC(O)C(C)C(CC3CC=CC(CC(C\C=C(C)\C=C\C(=O)OC(CC(O)CC(O)C(C)C(CC4CC=CC(CC(C\C=C(C)\C=C\C(=O)O2)OC5OCC(OC(=O)C(O)CO)C(OC)C5OC)O4)OC)C(C)C(O)C(C)CCC6CC(CC(C)O6)OC)OC7OCC(OC(=O)C(O)CO)C(OC)C7OC)O3)OC)C1
INCHI=
INCHIAUX=
PUBMED=
SUBMITUSER=RReher
LIBRARYQUALITY=3
SPECTRUMID=CCMSLIB00005467782
SCANS=1
631.547363 188948.0 
632.169678 17.0 
637.255371 304537.0 
681.509277 38787.0 
685.292969 6412.0 
703.328613 334554.0 
704.393799 213844.0 
724.055908 307745.0 
737.121338 693989.0 
738.255127 256253.0 
797.396729 68711.0 
827.123169 34881.0 
845.322266 1476477.0 
846.253906 417495.0 
863.54248 141218.0 
933.468506 73472.0 
951.399292 11948484.0 
952.372803 9451292.0 
953.386719 3376498.0 
954.3125 264877.0 
954.940186 60.0 
997.848389 24920.0 
1014.020996 134286.0 
1033.351074 351499.0 
1035.11377 47386.0 
1052.666992 73879.0 
1089.665039 128707.0 
1095.369629 573088.0 
1103.423828 311484.0 
1144.629883 977231.0 
1145.284912 3.0 
1161.389404 715783.0 
1162.114258 10.0 
1164.061035 74736.0 
1173.447266 281368.0 
1174.091309 72.0 
1195.469238 1245883.0 
1196.688965 288209.0 
1210.415527 38963.0 
1248.248535 458039.0 
1267.446777 621191.0 
1268.139648 1.0 
1299.550781 122645.0 
1303.505371 537382.0 
1304.666748 441471.0 
1305.522949 235595.0 
1315.586914 291539.0 
1318.563965 197784.0 
1319.840576 134925.0 
1344.675293 305755.0 
1350.704834 131459.0 
1364.786377 603260.0 
1365.663086 205312.0 
1387.347656 210021.0 
1393.671143 270067.0 
1399.106934 153112.0 
1400.025391 160890.0 
1409.629395 4019862.0 
1410.62915 5798831.0 
1411.61377 2079600.0 
1412.966797 60149.0 
1414.54541 185110.0 
1421.444824 4583395.0 
1422.45166 3826166.0 
1423.458252 699945.0 
1424.552002 220696.0 
1447.061035 275388.0 
1461.330566 472516.0 
1503.107422 79568.0 
1504.424805 329945.0 
1505.078125 2.0 
1508.731934 220433.0 
1525.817383 437355.0 
1526.855469 660492.0 
1528.672852 126737.0 
1543.236328 46419.0 
1559.661865 374461.0 
1560.284668 6.0 
1565.393799 624245.0 
1566.749756 1325680.0 
1567.435791 8301.0 
1569.817627 561140.0 
1572.56543 50367.0 
1576.71167 63847.0 
1593.447266 84302.0 
1594.686279 58360.0 
1595.761475 1030725.0 
1596.835693 474189.0 
1597.754883 93572.0 
1598.598877 617115.0 
1609.460693 1432107.0 
1610.338623 673741.0 
1611.575195 251358.0 
1613.097168 1626003.0 
1613.926025 2014027.0 
1614.748535 2428810.0 
1615.48584 561724.0 
1616.552734 490572.0 
1631.352051 1318531.0 
1632.420166 4265860.0 
1633.711914 832511.0 
1634.578125 438384.0 
1637.526367 341117.0 
1647.509033 963518.0 
1648.571533 200866.0 
1665.42041 3855071.0 
1666.506348 2991219.0 
1667.605713 767041.0 
1668.707764 1431913.0 
1710.742188 95898.0 
1719.187744 26200.0 
1720.344238 105233.0 
1730.839355 103867.0 
1773.503418 4803651.0 
1774.668945 4194762.0 
1775.721191 2056727.0 
1776.80127 424014.0 
1793.514404 260461.0 
1826.308105 54807.0 
1830.383057 279182.0 
1845.092041 56504.0 
1848.638916 66017.0 
1861.679443 1539545.0 
1862.83374 1284511.0 
1863.742676 174501.0 
1864.462891 136865.0 
1879.659912 19648056.0 
1880.613037 2349166.0 
1881.350342 154.0 
END IONS

