BEGIN IONS
PEPMASS=326.1
CHARGE=0+
MSLEVEL=2
SOURCE_INSTRUMENT=LC-ESI-Ion Trap
FILENAME=20130503_Ger_Jenia_Tumonoic_acid_E_MH326.1-qb.1.1..mgf
SEQ=*..*
IONMODE=Positive
ORGANISM=GNPS-LIBRARY
NAME=Tumonoic acid E M+H
PI=Gerwick
DATACOLLECTOR=Jenia
SMILES=CCCCC(C)\C=C(/C)C(O)C(C)C(=O)N1CCC[C@H]1C(O)=O
INCHI=InChI=1S/C18H31NO4/c1-5-6-8-12(2)11-13(3)16(20)14(4)17(21)19-10-7-9-15(19)18(22)23/h11-12,14-16,20H,5-10H2,1-4H3,(H,22,23)/b13-11+/t12?,14?,15-,16?/m0/s1
INCHIAUX=UUFOMZNZQYHUJH-XTVPCCRVSA-N
PUBMED=N/A
SUBMITUSER=mwang87
LIBRARYQUALITY=1
SPECTRUMID=CCMSLIB00000001773
SCANS=1
115.823776 2562.0 
156.468353 1372.0 
192.959167 2999.0 
232.890472 2368.0 
256.677734 805.0 
261.549316 5132.0 
270.462646 943.0 
280.067139 3197.0 
284.91272 4873.0 
291.802673 2605.0 
308.102234 536529.0 
308.867981 3314.0 
309.68457 1843.0 
310.720703 314.0 
319.140686 1573.0 
325.381714 3049.0 
END IONS

