BEGIN IONS
PEPMASS=740.35
CHARGE=1+
MSLEVEL=2
SOURCE_INSTRUMENT=LC-ESI-Ion Trap
FILENAME=f.yuhaobing/microcolins Fedback/microcolin J.mzXML;
SEQ=*..*
IONMODE=Positive
ORGANISM=GNPS-LIBRARY
NAME=Microcolin J M+Na
PI=Gerwick
DATACOLLECTOR=Haobing Yu
SMILES=CN(C([C@H](C)C[C@H](C)CCCC)=O)[C@@H](CC(C)C)C(N[C@@H]([C@@H](C)OC(C)=O)C(N[C@@H](C(C)C)C(N1[C@H](C(N2C(C=C[C@@H]2C)=O)=O)CCC1)=O)=O)=O
INCHI=
INCHIAUX=
PUBMED=31468974
SUBMITUSER=yuhaobing
LIBRARYQUALITY=3
SPECTRUMID=CCMSLIB00005463466
SCANS=723
267.911865 40953.0 
273.087646 12235.0 
274.017578 13224.0 
283.258911 26721.0 
316.209595 17143.0 
317.354736 14743.0 
330.103821 363830.0 
331.270752 20458.0 
351.077393 27712.0 
352.213989 49048.0 
367.148926 33346.0 
369.802307 12741.0 
370.940308 16565.0 
373.246643 17080.0 
396.095459 34664.0 
400.806763 7918.0 
404.080505 6148.0 
413.044189 148534.0 
414.234497 25462.0 
423.301392 13339.0 
433.293152 121204.0 
434.247437 40520.0 
436.215088 160945.0 
437.037476 63632.0 
443.314331 30443.0 
446.457825 50214.0 
447.555542 37402.0 
458.611267 29641.0 
459.30072 32911.0 
464.285095 197233.0 
465.290527 51577.0 
469.213257 11009.0 
473.267639 16112.0 
474.009155 17444.0 
483.267517 161474.0 
484.101318 9365.0 
487.375427 11146.0 
518.218262 90710.0 
546.625244 82571.0 
547.263428 7.0 
555.687988 61767.0 
558.82251 11393.0 
583.154297 125674.0 
612.523682 21322.0 
614.122681 26097.0 
615.047729 21017.0 
615.653564 10704.0 
636.820801 55337.0 
643.206543 283422.0 
644.37915 75033.0 
644.983154 2.0 
679.776733 391278.0 
680.46582 15153008.0 
681.531982 3364803.0 
682.504761 1.0 
722.32251 15884.0 
723.793823 36896.0 
740.453857 697662.0 
741.452393 273646.0 
END IONS

