BEGIN IONS
PEPMASS=546.0
CHARGE=0+
MSLEVEL=2
SOURCE_INSTRUMENT=LC-ESI-qTof
FILENAME=20130131_Emily_Ger_Neodysidenin_MHCl546-qb.1.1..mgf
SEQ=*..*
IONMODE=Positive
ORGANISM=GNPS-LIBRARY
NAME=Neodysidenin M+H
PI=Gerwick
DATACOLLECTOR=Emily
SMILES=C[C@@H](C[C@@H](C(=O)N(C)[C@H](C)C1=NC=CS1)NC(=O)C[C@H](C)C(Cl)(Cl)Cl)C(Cl)(Cl)Cl
INCHI=InChI=1S/C17H23Cl6N3O2S/c1-9(16(18,19)20)7-12(25-13(27)8-10(2)17(21,22)23)15(28)26(4)11(3)14-24-5-6-29-14/h5-6,9-12H,7-8H2,1-4H3,(H,25,27)/t9-,10-,11+,12-/m0/s1
INCHIAUX=N/A
PUBMED=N/A
SUBMITUSER=mwang87
LIBRARYQUALITY=1
SPECTRUMID=CCMSLIB00000001718
SCANS=1
187.869171 129452.0 
373.637451 319441.0 
374.377197 1.0 
375.526123 602744.0 
401.75238 186003.0 
402.915039 808714.0 
403.724426 1694318.0 
434.066406 164809.0 
443.392151 521584.0 
476.745178 239928.0 
501.089844 28775.0 
506.807373 265937.0 
509.053345 161022.0 
509.876343 340967.0 
END IONS

