BEGIN IONS
PEPMASS=371.01
CHARGE=1+
MSLEVEL=2
SOURCE_INSTRUMENT=LC-ESI-Ion Trap
FILENAME=f.zhangyi/pure compounds/CC-1_(aspergillusidone_A)_pos.mzXML;
SEQ=*..*
IONMODE=Positive
ORGANISM=GNPS-LIBRARY
NAME=aspergillusidone A M+H
PI=William Gerwick
DATACOLLECTOR=Yi Zhang
SMILES=O=C1OC2=C(C(/C(C)=C/C)=C(C(O)=O)C(O)=C2C)OC3=CC(O)=CC(C)=C31
INCHI=InChI=1S/C20H18O7/c1-5-8(2)14-15(19(23)24)16(22)10(4)17-18(14)26-12-7-11(21)6-9(3)13(12)20(25)27-17/h5-7,21-22H,1-4H3,(H,23,24)/b8-5+
INCHIAUX=
PUBMED=
SUBMITUSER=zhangyi
LIBRARYQUALITY=3
SPECTRUMID=CCMSLIB00005436076
SCANS=341
188.954834 3399.0 
217.151672 1937.0 
246.666321 702.0 
270.849609 2310.0 
286.952881 1912.0 
297.003235 24872.0 
299.245605 95228.0 
299.924316 1197.0 
311.061035 1125.0 
314.23175 4249.0 
314.875366 32806.0 
325.15564 29508.0 
326.318054 5874.0 
327.161743 62194.0 
328.610168 1926.0 
334.979248 272260.0 
335.753418 1.0 
342.734802 1113.0 
352.904541 846184.0 
371.179993 4833.0 
END IONS

