BEGIN IONS
PEPMASS=591.0
CHARGE=0+
MSLEVEL=2
SOURCE_INSTRUMENT=LC-ESI-qTof
FILENAME=20120412_PAVL_FT_JamaicamideA_MCl37Na_591_qb.1.1..mgf
SEQ=*..*
IONMODE=Positive
ORGANISM=GNPS-LIBRARY
NAME=Jamaicamide A M+H
PI=Gerwick
DATACOLLECTOR=PAVL
SMILES=C[C@H]1C=CC(=O)N1C(=O)/C=C(\CCNC(=O)CC/C=C/C(C)CC/C(=C/Cl)/CCCC#CBr)/OC
INCHI=InChI=1S/C27H36BrClN2O4/c1-21(12-14-23(20-29)10-5-4-8-17-28)9-6-7-11-25(32)30-18-16-24(35-3)19-27(34)31-22(2)13-15-26(31)33/h6,9,13,15,19-22H,4-5,7,10-12,14,16,18H2,1-3H3,(H,30,32)/b9-6+,23-20+,24-19+/t21?,22-/m0/s1
INCHIAUX=N/A
PUBMED=N/A
SUBMITUSER=mwang87
LIBRARYQUALITY=1
SPECTRUMID=CCMSLIB00000001562
SCANS=1
169.481735 3.717805 
170.116302 2.368383 
180.625412 9.358668 
182.256866 164.130707 
183.20813 35.213417 
184.155975 22.376575 
185.234055 10.322553 
187.430328 3.719226 
190.727722 9.974508 
192.28302 6.016971 
193.34581 3.806396 
198.213364 26.349125 
199.14296 6.650789 
199.928024 5.728293 
202.237381 10.750378 
204.219437 8.057843 
207.352234 4.492064 
208.204468 36.991985 
209.376129 4.429953 
210.260956 2.61156 
211.159134 0.991559 
214.275696 3.117547 
215.220947 11.847384 
216.284485 19.806465 
217.942322 25.634674 
218.663422 14.159304 
219.353683 8.414796 
220.059204 6.959995 
222.400497 8.663279 
224.524902 4.870403 
225.159943 6.095819 
227.20752 3.682807 
228.175323 10.945765 
230.243042 626.276001 
231.234314 93.973831 
232.315002 5.54948 
236.147247 25.472816 
237.335907 8.905393 
239.64447 6.460947 
243.218018 14.350277 
244.181427 12.570841 
245.488739 6.872164 
246.736679 39.786404 
247.375183 1.609937 
248.501892 7.195004 
251.445862 3.972736 
256.10083 12.182508 
257.163269 57.072823 
258.186371 156.187683 
259.19928 62.118698 
260.06189 22.649057 
263.3573 4.020783 
264.374146 26.422089 
265.382568 4.762686 
266.263184 102.35392 
267.34845 24.252352 
272.144043 36.264961 
273.170227 69.712013 
274.120361 5.939258 
274.979919 2.216173 
277.201569 17.39106 
278.200928 11.196893 
279.072998 3.35696 
280.041168 5.919062 
282.207397 18.57262 
283.540527 7.683428 
284.150665 5.673907 
286.764374 6.727617 
288.244995 47.64677 
289.091187 12.459767 
291.170258 4.845952 
292.596405 16.05953 
293.387848 13.137106 
294.391846 4.008705 
299.114075 8.304666 
301.252014 4.953311 
302.241394 16.358267 
303.105011 1.613987 
305.427979 9.40611 
306.283752 9.808208 
308.21936 26.431637 
309.329041 45.023144 
310.246216 5.677588 
313.464203 5.429599 
315.061646 7.200561 
316.556763 3.18895 
318.281433 8.963934 
321.193848 118.753975 
322.101227 9.587538 
323.240967 40.913921 
324.090881 9.774399 
325.428558 8.526073 
326.329895 13.661201 
327.346985 2.746159 
328.109253 9.27344 
330.278625 5.195471 
331.157288 6.378896 
332.23584 6.444856 
334.342255 17.527325 
336.489746 5.749891 
337.305481 17.469385 
339.887573 1.47657 
341.139648 5.111611 
343.170044 11.358638 
344.378387 70.022957 
345.251678 14.511668 
346.282013 23.782393 
347.264832 26.882374 
348.200714 22.239174 
349.330505 22.763472 
350.455048 31.509609 
354.299835 40.536346 
355.119263 89.725563 
356.065643 91.137451 
356.825989 5.560173 
357.428162 23.711742 
358.237183 5.730589 
359.759155 9.76413 
361.465881 20.377771 
362.319702 47.832458 
363.343201 35.609703 
364.819336 48.358826 
366.032196 20.832388 
367.097595 20.808558 
368.327026 6.655846 
369.205383 114.937584 
370.213684 55.14542 
371.340576 4.337857 
372.194092 30.008732 
373.164581 21.964642 
374.239807 32.587475 
376.151001 442.734985 
377.343536 124.302216 
378.211975 55.166252 
380.225677 10.883999 
381.126038 15.694951 
382.270233 23.921192 
383.164795 30.647808 
384.113983 199.962799 
384.957703 28.568783 
386.361816 8.033689 
389.267609 3.117507 
390.0289 4.611308 
391.234558 4.570565 
392.061157 10.932733 
393.99054 8.141095 
395.544128 4.42591 
396.15506 28.28924 
397.114746 5.423034 
397.978821 16.642815 
398.637299 15.436762 
399.697052 11.821146 
400.6745 6.887458 
402.097961 6.923825 
403.116547 5.87224 
406.133667 47.869625 
407.259644 75.909798 
408.160461 377.788818 
408.993317 28.775589 
409.929016 73.355743 
410.97934 42.163231 
412.070465 83.868622 
413.29071 54.418411 
414.223145 4.920025 
415.11615 36.922676 
416.242279 2.178469 
417.648254 5.01468 
419.167145 12.053829 
421.858398 1.345037 
422.625488 28.335361 
423.784058 16.402075 
425.552307 72.799423 
426.220306 143.118927 
427.158203 479.524994 
428.224915 64.883736 
429.335999 4.849659 
430.352325 6.361614 
431.702179 4.282172 
432.643341 6.775211 
435.803558 19.593824 
441.246002 98.832924 
442.532227 19.763641 
443.256104 23.43849 
444.401703 6.087076 
445.197357 21.728134 
446.104309 9.353847 
447.962128 3.190881 
448.942566 9.097617 
450.274902 7.194672 
451.312775 3.066327 
452.141998 27.28706 
456.198395 31.393921 
456.964111 6.977626 
458.281708 46.834915 
459.190826 18.122833 
459.9021 11.601707 
461.439758 17.084816 
462.491394 44.614029 
463.309235 8.946923 
465.276764 5.665741 
466.272583 9.292988 
467.291992 28.253637 
468.275513 34.509556 
471.167633 164.450424 
472.091461 49.22385 
473.265869 3136.59668 
474.231354 1066.490723 
475.307495 175.221024 
476.218353 39.313782 
477.131775 41.408379 
478.296448 35.362675 
479.402985 33.722137 
480.126343 10.71689 
481.328461 10.940079 
482.17514 15.166358 
483.255615 6.563775 
490.451355 6.642304 
492.085266 332.703247 
493.076416 1129.619263 
494.027557 5617.645996 
495.074432 302.610535 
495.733643 1.81308 
496.418152 1.496393 
497.45105 11.691264 
498.331818 4.810859 
498.933685 2.240943 
509.195129 424.18631 
510.243011 139.189636 
511.204071 248.164093 
512.125061 9.643522 
513.221558 1.293581 
517.983643 10.965117 
521.104309 18.985344 
522.111084 3.662108 
523.209106 35.485882 
524.120972 14.481136 
528.885986 12.266284 
530.433044 31.219812 
531.279175 53.756306 
532.184937 13.892548 
533.372925 4.743209 
535.376099 8.038231 
541.665894 69.976761 
542.414246 22.328957 
545.090027 17.337719 
546.123291 68.014969 
547.149048 292.271393 
548.300537 19.501633 
549.202515 9.205561 
551.086792 6.291482 
552.053223 3.803843 
553.077698 236.768433 
554.069458 222.712357 
555.183777 457.981934 
556.516113 2.84336 
558.245728 519.123718 
559.127808 1270.704834 
560.060547 126.022324 
563.07019 46.315201 
564.246094 2.276809 
571.857666 7.141827 
572.61377 49.940155 
573.657104 9.828745 
581.25061 14.230246 
611.269653 21.188999 
613.095459 16.889503 
690.157959 5.410031 
END IONS

