BEGIN IONS
PEPMASS=272.23
CHARGE=1+
MSLEVEL=2
SOURCE_INSTRUMENT=LC-ESI-qTof
FILENAME=2F5_tBuOValhexanoate_MH_272.mzXML
SEQ=*..*
IONMODE=Positive
ORGANISM=GNPS-LIBRARY
NAME=tBuO-val-hexanoate (tert-butyl hexanoylvalinate) M+H
PI=Dorrestein/Gerwick
DATACOLLECTOR=Luzzatto/Garg
SMILES=CCCCCC(NC(C(C)C)C(OC(C)(C)C)=O)=O
INCHI=InChI=1S/C15H29NO3/c1-7-8-9-10-12(17)16-13(11(2)3)14(18)19-15(4,5)6/h11,13H,7-10H2,1-6H3,(H,16,17)
INCHIAUX=N/A
PUBMED=N/A
SUBMITUSER=tal_lk
LIBRARYQUALITY=2
SPECTRUMID=CCMSLIB00000070301
SCANS=1648
94.945694 180.0 
94.996101 228.0 
95.230881 180.0 
95.675995 248.0 
95.872643 184.0 
96.165062 212.0 
96.854988 196.0 
97.186165 180.0 
97.2509 188.0 
97.527725 200.0 
98.035294 224.0 
98.062874 244.0 
98.571823 188.0 
99.058327 208.0 
99.081116 2020.0 
99.220253 172.0 
99.448792 228.0 
99.720779 204.0 
100.046867 248.0 
100.083397 192.0 
101.092323 200.0 
101.230392 212.0 
101.558937 204.0 
101.643158 240.0 
102.044708 192.0 
102.332298 204.0 
102.467186 252.0 
102.893982 232.0 
102.957146 276.0 
103.118698 228.0 
103.183357 168.0 
103.29454 284.0 
103.346191 192.0 
103.454338 192.0 
103.668945 228.0 
103.851334 204.0 
104.405563 188.0 
104.841042 180.0 
105.077477 176.0 
105.941902 228.0 
106.472931 208.0 
106.733803 192.0 
106.779022 212.0 
106.81192 172.0 
107.180283 256.0 
107.617378 168.0 
107.947853 212.0 
108.627266 228.0 
108.668381 188.0 
108.697411 172.0 
108.72438 212.0 
108.944382 224.0 
109.462059 176.0 
109.993477 172.0 
110.110359 252.0 
110.262276 248.0 
110.323395 232.0 
110.388184 176.0 
110.833862 200.0 
111.807831 184.0 
111.839394 180.0 
111.877266 244.0 
112.693115 188.0 
112.89711 212.0 
112.953041 216.0 
113.592491 172.0 
114.008469 252.0 
114.238007 212.0 
114.297554 216.0 
115.15419 208.0 
115.363503 188.0 
115.844795 260.0 
116.226265 252.0 
116.601913 208.0 
116.763763 216.0 
116.816841 208.0 
116.857697 248.0 
116.874901 180.0 
117.077164 184.0 
117.092239 268.0 
117.136017 240.0 
117.174057 192.0 
117.248573 228.0 
117.467125 184.0 
117.514565 224.0 
117.78862 188.0 
117.846931 168.0 
117.973824 184.0 
117.988846 264.0 
118.087143 75796.0 
118.180618 260.0 
118.288734 204.0 
118.305237 240.0 
118.346352 168.0 
118.389198 212.0 
118.736153 180.0 
119.059479 232.0 
119.088768 2944.0 
119.748001 196.0 
119.859589 192.0 
120.089561 516.0 
120.260246 260.0 
120.591011 248.0 
120.647263 212.0 
120.721565 188.0 
120.828705 212.0 
122.562515 240.0 
123.113762 204.0 
123.244034 240.0 
123.362946 208.0 
123.763611 184.0 
123.787956 272.0 
124.020485 192.0 
124.788254 252.0 
126.082825 264.0 
126.673264 256.0 
126.971245 232.0 
127.09166 200.0 
127.515083 252.0 
127.534561 228.0 
127.680641 272.0 
127.696373 212.0 
127.925789 196.0 
128.216232 260.0 
128.752945 228.0 
129.136993 240.0 
129.164124 204.0 
129.526154 256.0 
129.813858 216.0 
129.881866 196.0 
129.906815 280.0 
130.460678 260.0 
130.526596 188.0 
131.179749 192.0 
132.275604 288.0 
132.410797 176.0 
132.676483 252.0 
132.983734 184.0 
133.139786 168.0 
133.767227 204.0 
135.445267 200.0 
136.07579 204.0 
136.249893 188.0 
136.437561 204.0 
136.924179 168.0 
138.76712 244.0 
139.041443 208.0 
139.102448 208.0 
139.54393 200.0 
139.63089 176.0 
140.353546 180.0 
140.957581 220.0 
140.976471 188.0 
141.305008 256.0 
141.416183 240.0 
141.525024 232.0 
141.870789 208.0 
141.953735 252.0 
142.126831 200.0 
142.224091 256.0 
142.670486 168.0 
142.753677 204.0 
142.91774 176.0 
142.958176 216.0 
143.15567 196.0 
143.551086 272.0 
143.717987 256.0 
144.255127 192.0 
144.556351 212.0 
145.001602 176.0 
145.711594 172.0 
146.3535 200.0 
146.579819 184.0 
146.902756 264.0 
146.948578 184.0 
148.709534 176.0 
150.666519 196.0 
151.155319 308.0 
151.757614 176.0 
152.05661 184.0 
152.135284 204.0 
152.684357 180.0 
152.941223 240.0 
153.944229 180.0 
154.257874 228.0 
154.524857 208.0 
154.552063 168.0 
154.769791 364.0 
154.85643 172.0 
154.977768 236.0 
155.208176 256.0 
156.323044 168.0 
156.687668 192.0 
156.925583 176.0 
157.017807 276.0 
157.204834 224.0 
157.556747 212.0 
157.83905 180.0 
158.825378 192.0 
158.958282 172.0 
159.543259 204.0 
160.206451 240.0 
161.132843 220.0 
161.438568 200.0 
161.661087 176.0 
161.7547 172.0 
161.817963 260.0 
162.073669 204.0 
162.208145 244.0 
162.501984 252.0 
162.64151 236.0 
163.02739 168.0 
163.123932 180.0 
163.546005 264.0 
164.070526 188.0 
164.149536 284.0 
165.224396 176.0 
165.400894 192.0 
166.051422 260.0 
166.255661 180.0 
166.690384 176.0 
167.114471 180.0 
167.269699 200.0 
167.469574 208.0 
168.464844 244.0 
168.555222 216.0 
169.481171 228.0 
169.571838 256.0 
169.675476 172.0 
169.80249 216.0 
169.919174 168.0 
169.955475 200.0 
169.996979 216.0 
170.05954 168.0 
170.1548 35556.0 
170.354828 272.0 
170.903473 248.0 
171.067352 184.0 
171.157883 4708.0 
171.407272 176.0 
172.094116 184.0 
172.161118 168.0 
172.276855 192.0 
172.6008 232.0 
172.621719 200.0 
172.804733 184.0 
173.019257 196.0 
173.139648 192.0 
173.558762 180.0 
174.561401 172.0 
174.821732 188.0 
175.137527 232.0 
175.295532 192.0 
175.553772 232.0 
175.920364 216.0 
176.036484 172.0 
176.490799 196.0 
176.609741 204.0 
178.037689 268.0 
178.159821 168.0 
178.263397 216.0 
178.720566 192.0 
179.298172 220.0 
179.778 212.0 
181.023209 184.0 
182.130386 176.0 
182.479904 176.0 
183.391785 172.0 
183.502274 192.0 
184.030869 248.0 
184.549423 268.0 
184.887405 176.0 
185.071411 192.0 
185.764923 176.0 
185.830002 208.0 
185.859589 216.0 
186.169159 200.0 
186.489609 216.0 
187.057861 184.0 
187.104126 180.0 
187.302826 248.0 
187.842331 172.0 
190.208313 196.0 
190.351013 168.0 
191.588196 248.0 
191.893982 176.0 
192.437286 220.0 
192.586349 224.0 
192.85701 232.0 
193.59256 176.0 
194.082886 176.0 
194.573776 184.0 
195.104172 264.0 
195.337677 232.0 
195.493408 224.0 
196.119797 184.0 
196.278625 192.0 
196.392929 172.0 
196.48494 260.0 
197.126862 180.0 
197.473373 288.0 
197.778229 196.0 
197.816208 188.0 
197.89296 268.0 
197.912552 272.0 
198.058868 236.0 
198.149246 23088.0 
198.448425 192.0 
198.934113 204.0 
199.152771 1548.0 
199.297577 192.0 
199.696594 168.0 
200.155304 608.0 
200.652817 168.0 
200.772003 188.0 
202.0793 320.0 
203.356796 184.0 
203.881989 184.0 
204.467606 204.0 
204.937256 244.0 
205.011307 232.0 
207.499924 192.0 
207.600235 228.0 
208.099304 200.0 
210.883789 264.0 
211.227737 216.0 
211.25087 224.0 
211.505402 192.0 
212.096054 196.0 
212.281525 184.0 
212.967377 276.0 
213.02713 192.0 
213.247864 312.0 
213.442566 212.0 
213.490097 228.0 
214.108688 188.0 
214.207672 176.0 
214.50769 168.0 
215.183426 204.0 
215.246567 176.0 
215.337463 224.0 
215.44696 216.0 
215.573608 296.0 
215.621765 188.0 
215.706055 208.0 
215.744415 276.0 
215.782379 184.0 
215.82515 308.0 
215.8517 268.0 
215.992752 224.0 
216.062988 188.0 
216.095718 488.0 
216.120499 252.0 
216.161194 157080.0 
216.237305 196.0 
216.261185 244.0 
216.339523 304.0 
216.453812 288.0 
216.640747 808.0 
216.680389 236.0 
216.698837 264.0 
216.723068 248.0 
216.842636 280.0 
216.887772 200.0 
217.163376 17660.0 
217.247971 256.0 
217.753311 168.0 
218.07431 168.0 
218.164581 1236.0 
218.422226 192.0 
218.474228 220.0 
218.501129 224.0 
218.601868 172.0 
218.806458 316.0 
218.853149 204.0 
218.899384 260.0 
219.597534 176.0 
223.064682 248.0 
229.016846 192.0 
230.10849 208.0 
243.131393 268.0 
244.12384 220.0 
254.125854 196.0 
270.315643 188.0 
272.124237 172.0 
273.165588 196.0 
274.129852 232.0 
290.125122 184.0 
297.857635 180.0 
371.179749 200.0 
469.252655 196.0 
1037.773438 188.0 
1404.343018 192.0 
1445.314697 180.0 
1456.99353 232.0 
1457.130127 216.0 
1457.342773 220.0 
1477.362793 244.0 
1493.00354 172.0 
1507.158447 208.0 
1509.886108 172.0 
1526.257202 204.0 
1546.641724 204.0 
1551.25354 272.0 
1564.603027 196.0 
1574.652588 224.0 
1588.625366 200.0 
1591.251099 224.0 
1592.671997 228.0 
1593.918701 200.0 
1597.328003 264.0 
1615.308472 236.0 
1618.59729 220.0 
1622.697144 224.0 
1626.586304 252.0 
1629.058594 236.0 
1637.355957 188.0 
1638.104736 172.0 
1651.28833 176.0 
1653.981445 176.0 
1654.167603 204.0 
1685.883179 200.0 
1692.76001 204.0 
1698.412598 200.0 
1698.830811 196.0 
1708.315063 268.0 
1713.087646 204.0 
1715.962646 244.0 
1720.052734 196.0 
1721.530029 196.0 
1722.438599 204.0 
1747.796631 276.0 
1747.929688 260.0 
1751.541382 224.0 
1755.515259 224.0 
1764.897095 192.0 
1769.061768 244.0 
1771.346924 256.0 
1772.779053 268.0 
1779.461548 184.0 
1783.450073 252.0 
1785.114014 176.0 
1787.889038 192.0 
1789.538208 232.0 
1812.765747 296.0 
1814.83313 220.0 
1816.079224 172.0 
1821.679199 316.0 
1826.74353 220.0 
1832.870972 204.0 
1840.24585 200.0 
1846.241943 224.0 
1846.660889 196.0 
1851.811157 200.0 
1853.669434 168.0 
1862.863037 204.0 
1863.21521 208.0 
1870.005493 208.0 
1871.623291 200.0 
1873.448486 220.0 
1876.868652 196.0 
1877.704712 168.0 
1879.946899 244.0 
1881.73291 224.0 
1882.095337 196.0 
1882.432007 216.0 
1888.556885 256.0 
1891.099609 168.0 
1894.795654 184.0 
1896.37207 212.0 
1896.735962 188.0 
1904.064575 220.0 
1910.120239 248.0 
1913.469238 240.0 
1923.071533 188.0 
1928.807861 204.0 
1930.852905 204.0 
1936.661987 204.0 
1943.102417 240.0 
1949.746826 192.0 
1957.141846 172.0 
1957.370605 240.0 
1958.823242 200.0 
1968.67981 172.0 
1969.553833 176.0 
1972.097412 220.0 
1974.589722 240.0 
1976.827026 212.0 
1979.499268 248.0 
1980.171997 172.0 
1984.760498 224.0 
1987.447021 172.0 
1992.443604 236.0 
1998.549072 180.0 
2000.025757 196.0 
2000.532959 168.0 
2000.871094 180.0 
2002.544434 248.0 
2003.140991 228.0 
2003.791138 176.0 
END IONS

