BEGIN IONS
PEPMASS=526.3
CHARGE=0+
MSLEVEL=2
SOURCE_INSTRUMENT=LC-ESI-qTof
FILENAME=20130610_Jenia_Ger_Majusculamide_A_B_MNa526.3-qb.1.1..mgf
SEQ=*..*
IONMODE=Positive
ORGANISM=GNPS-LIBRARY
NAME=Majusculamide A/B M+Na
PI=Gerwick
DATACOLLECTOR=Jenia
SMILES=CCCCCCCC(=O)C(C)C(=O)N(C)[C@H](CC1=CC=C(C=C1)OC)C(=O)N(C)[C@@H](C(C)C)C(=O)N
INCHI=InChI=1S/C28H45N3O5/c1-8-9-10-11-12-13-24(32)20(4)27(34)30(5)23(18-21-14-16-22(36-7)17-15-21)28(35)31(6)25(19(2)3)26(29)33/h14-17,19-20,23,25H,8-13,18H2,1-7H3,(H2,29,33)/t20?,23-,25+/m1/s1
INCHIAUX=N/A
PUBMED=N/A
SUBMITUSER=mwang87
LIBRARYQUALITY=1
SPECTRUMID=CCMSLIB00000001805
SCANS=1
155.474854 15815.0 
164.764557 329078.0 
165.73819 11689.0 
178.701477 20658.0 
185.096191 21166.0 
185.782501 418946.0 
186.44606 18840.0 
193.022705 31019.0 
199.87793 42874.0 
200.58078 38120.0 
204.229523 77432.0 
204.846359 176795.0 
205.924591 118414.0 
207.902374 3361.0 
213.663879 54480.0 
219.551315 73584.0 
220.144012 46518.0 
221.83815 48536.0 
222.944412 2093776.0 
223.891403 135218.0 
224.500732 5197.0 
225.576248 13261.0 
226.12793 9014.0 
226.653656 759173.0 
227.432648 80830.0 
231.855438 98153.0 
232.390228 2621.0 
233.132248 70850.0 
234.157532 5117.0 
235.547699 29684.0 
236.076416 145329.0 
237.090698 125208.0 
239.260345 96843.0 
240.23468 87116.0 
242.034668 13155.0 
244.627502 27470.0 
247.824585 39194.0 
248.482666 49139.0 
249.09259 395985.0 
250.091324 31361.0 
251.264526 65291.0 
255.388702 33446.0 
258.36731 47585.0 
260.203125 27871.0 
261.238281 6174.0 
262.844635 311290.0 
263.680634 2526647.0 
264.669708 82511.0 
265.358459 24097.0 
268.858521 25212.0 
270.007935 89422.0 
271.28241 49921.0 
271.915955 102394.0 
272.63443 247479.0 
274.282959 22956.0 
275.473053 229427.0 
276.390137 24490.0 
276.993958 5357.0 
277.84021 113390.0 
278.88266 31885.0 
281.678955 41002.0 
285.276978 15294.0 
289.806854 18546.0 
292.88855 24918.0 
295.136475 35802.0 
295.82959 7888.0 
296.404602 92869.0 
297.132355 123204.0 
301.980591 22674.0 
309.425171 16332.0 
310.642151 85882.0 
311.342163 115744.0 
311.956787 2.0 
312.811401 41414.0 
314.098022 6382.0 
316.006714 8946.0 
321.23053 164504.0 
321.757751 45943.0 
322.711304 32239.0 
323.28772 10789.0 
323.876068 101394.0 
325.585266 88369.0 
326.173462 446162.0 
327.040039 86303.0 
331.291138 26127.0 
332.270874 107181.0 
334.039886 49730.0 
335.006653 13941.0 
336.119202 100203.0 
343.248535 46685.0 
344.175293 9821930.0 
345.20047 1093556.0 
345.990112 33714.0 
346.904968 49425.0 
348.342834 126045.0 
349.309326 18162.0 
352.958771 184946.0 
353.631195 153869.0 
355.268127 117207.0 
358.678833 148500.0 
360.072266 155958.0 
361.216309 364758.0 
362.091797 90473.0 
363.054932 54244.0 
363.906311 20624.0 
366.469421 73113.0 
368.066772 31783.0 
369.25351 111581.0 
370.926605 47465.0 
372.719238 81156.0 
380.611328 139993.0 
382.029999 161460.0 
382.699829 19393.0 
383.259399 10208.0 
384.395264 130591.0 
386.597382 43585.0 
387.910248 187518.0 
388.767151 23620.0 
390.116882 196337.0 
390.775116 6039.0 
391.429626 56594.0 
395.142578 395126.0 
396.123657 4077360.0 
397.146545 839148.0 
397.704926 9.0 
398.778137 10784.0 
399.734863 36537.0 
401.136353 10919.0 
401.924072 4602.0 
404.905975 164541.0 
405.963287 144171.0 
407.671814 90815.0 
408.739716 375099.0 
409.514709 101489.0 
410.92926 62494.0 
413.245056 986634.0 
414.137421 6082699.0 
415.181671 1528726.0 
415.901123 23.0 
417.664825 399483.0 
420.402252 28252.0 
421.171265 23917.0 
423.112671 269562.0 
423.769653 1.0 
425.925171 18655.0 
426.953735 395110.0 
427.92981 41327.0 
428.843323 14529.0 
429.518921 80687.0 
430.700562 76577.0 
431.436768 43706.0 
433.673157 49889.0 
434.186005 808180.0 
435.400238 527711.0 
435.935486 34229.0 
436.516418 1409234.0 
437.440002 494712.0 
438.222595 35592.0 
440.93631 388750.0 
441.524536 97846.0 
445.96051 106716.0 
447.174377 217389.0 
447.948914 46207.0 
449.005798 29619.0 
449.922546 254211.0 
452.845215 89623.0 
454.022736 299809.0 
454.709412 100660.0 
455.572021 24458.0 
458.616699 32925.0 
483.239594 180474.0 
483.957977 53179.0 
495.474854 699765.0 
496.288452 274964.0 
498.370453 137432.0 
508.137909 644585.0 
508.84726 197853.0 
509.469543 208902.0 
510.069702 16173.0 
511.123718 22227.0 
520.585693 30907.0 
524.391846 13662.0 
525.620605 26000.0 
526.293213 91804032.0 
527.286255 31777672.0 
528.307068 50042.0 
END IONS

