BEGIN IONS
PEPMASS=1156.59
CHARGE=1+
MSLEVEL=2
SOURCE_INSTRUMENT=LC-ESI-Orbitrap
FILENAME=f.RReher/Culebra/pure_compounds/1156/Rivulariapeptolide1155_M+H_MS2_2_QE.mgf;
SEQ=*..*
IONMODE=Positive
ORGANISM=GNPS-LIBRARY
NAME=Rivulariapeptolide 1155 M+H
PI=Gerwick
DATACOLLECTOR=Raphael Reher
SMILES=CC(C)[C@H](NC([C@H](CC1=CC=C(O)C=C1)N(C)C([C@H](CC2=CC=CC=C2)N3[C@H](O)CC[C@H](NC(/C(NC4=O)=C\C)=O)C3=O)=O)=O)C(O[C@H](C)[C@@H]4NC([C@H]([C@@H](OC(C5N(C(CCC)=O)CCC5)=O)C)NC(C6CCCN6C(CCC)=O)=O)=O)=O
INCHI=
INCHIAUX=
PUBMED=
SUBMITUSER=RReher
LIBRARYQUALITY=3
SPECTRUMID=CCMSLIB00005723386
SCANS=1
75.086716 7158.094727 
75.087334 13501.036133 
75.087952 16109.729492 
75.08857 13665.666016 
75.089188 8190.619629 
87.850616 9915.241211 
87.851395 19793.677734 
87.85218 25365.900391 
87.852959 22321.15625 
87.853745 13097.373047 
91.051727 3717.182373 
91.052551 11458.834961 
91.053375 35424.222656 
91.054199 60566.480469 
91.055023 73359.46875 
91.055847 52559.617188 
91.056671 27974.335938 
91.057495 9420.585938 
101.891579 11708.407227 
101.892555 18407.330078 
101.893532 20221.376953 
101.894508 15543.107422 
101.895477 7519.471191 
102.417465 7544.766113 
102.418449 15444.078125 
102.419434 21543.777344 
102.420418 22121.857422 
102.421402 16549.681641 
102.422386 8527.053711 
102.510925 8604.789062 
102.511909 15911.833984 
102.512894 18595.748047 
102.513878 14789.145508 
102.514862 7477.208496 
112.517136 10770.859375 
112.518265 17690.726562 
112.519402 19724.154297 
112.520531 15794.363281 
112.52166 8856.006836 
119.046143 7261.286621 
119.047371 18528.484375 
119.048607 28903.164062 
119.049835 30661.03125 
119.051071 22636.800781 
119.052299 11111.038086 
119.676949 14712.241211 
119.678192 24367.517578 
119.679436 27898.095703 
119.680679 22984.279297 
119.681923 13240.321289 
120.076401 87645.351562 
120.077644 384872.59375 
120.078896 920106.875 
120.080139 1499166.75 
120.08139 1657961.625 
120.082642 1137639.125 
120.083885 602220.375 
120.085136 190948.90625 
120.08638 67130.375 
120.087631 41886.257812 
120.088882 23943.158203 
120.090126 6937.849121 
121.063553 9652.904297 
121.064819 18729.398438 
121.066086 23286.619141 
121.067345 20243.935547 
121.068611 12134.680664 
136.071274 9148.285156 
136.072784 20428.882812 
136.07428 39780.589844 
136.07579 52062.421875 
136.077301 28584.447266 
136.078796 16046.182617 
136.080307 5856.354004 
137.926758 14710.626953 
137.928299 21402.326172 
137.92984 22552.994141 
137.931381 17227.292969 
137.932907 8837.586914 
140.101334 138269.984375 
140.102905 600930.5 
140.104477 1348617.5 
140.106049 2153893.75 
140.10762 2264922.75 
140.109192 1509526.5 
140.110764 773521.75 
140.112335 248655.0625 
140.113907 98528.453125 
140.115479 68194.25 
140.117065 41534.070312 
140.118637 17569.28125 
140.120209 3439.955566 
146.092758 9708.251953 
146.094437 17777.482422 
146.096115 21047.273438 
146.097778 16776.484375 
146.099457 8087.092285 
150.085068 135098.796875 
150.086807 562888.875 
150.088562 1287561.75 
150.090302 2069211.625 
150.092041 2216729.25 
150.093796 1492352.125 
150.095535 772080.6875 
150.097275 244288.671875 
150.09903 92653.289062 
150.100769 62328.191406 
150.102509 37275.429688 
150.104248 11961.422852 
150.106003 3086.084473 
153.026337 9988.870117 
153.028137 16936.585938 
153.029922 20336.523438 
153.031723 19030.423828 
153.033524 14105.917969 
153.060455 6706.138672 
153.062256 18039.955078 
153.064056 30780.384766 
153.065842 36976.191406 
153.067642 32309.171875 
153.069443 20238.882812 
153.071243 8439.967773 
153.09819 14417.774414 
153.099976 31356.087891 
153.101776 44210.855469 
153.103577 43022.535156 
153.105377 28673.201172 
153.107162 11880.089844 
158.087814 5053.787109 
158.089706 21891.371094 
158.091583 91889.328125 
158.093475 204112.078125 
158.095352 325453.4375 
158.097244 342583.625 
158.099121 227275.359375 
158.101013 115484.992188 
158.102905 33242.761719 
158.104782 7796.424316 
168.091751 10179.3125 
168.093811 65910.757812 
168.095886 326940.84375 
168.097946 978363.0 
168.100021 1666459.125 
168.102081 2088728.75 
168.104156 1573526.625 
168.106216 907537.1875 
168.108292 311278.78125 
168.110352 105612.195312 
168.112411 47903.777344 
168.114487 26860.833984 
168.116547 1377.509521 
170.088196 1144.962891 
170.090302 14505.705078 
170.092407 48537.988281 
170.094513 88414.078125 
170.096619 123824.140625 
170.098724 106019.25 
170.10083 62835.207031 
170.102936 22713.837891 
170.105042 1774.164795 
179.071823 2937.431396 
179.074097 14295.320312 
179.07637 62351.757812 
179.078644 124483.9375 
179.080917 184115.734375 
179.083191 163839.109375 
179.085464 98407.4375 
179.087738 38950.230469 
179.090012 9444.814453 
181.088409 8963.288086 
181.090714 52914.253906 
181.093033 124763.359375 
181.095337 202288.40625 
181.097656 217128.15625 
181.09996 146204.796875 
181.10228 75847.25 
181.104584 24097.320312 
181.106903 6606.78418 
185.107285 9723.769531 
185.10968 16932.033203 
185.112061 20130.490234 
185.114456 17159.876953 
185.116837 9955.390625 
187.112808 7464.137695 
187.115234 44504.164062 
187.117661 174786.421875 
187.120087 328792.1875 
187.122513 465112.34375 
187.124939 396431.84375 
187.127365 239726.78125 
187.129791 95855.234375 
187.132233 31016.382812 
187.134659 15702.194336 
187.137085 12602.712891 
187.139984 25671.009766 
187.14241 8.396815 
194.671326 8958.078125 
194.673904 16148.138672 
194.676483 20931.507812 
194.679062 19891.806641 
194.681641 13192.927734 
213.09584 12628.878906 
213.098801 26354.693359 
213.101746 36838.949219 
213.104691 36565.175781 
213.107651 25684.167969 
213.110596 11707.621094 
215.101532 20741.152344 
215.104523 15288.742188 
215.106979 75497.445312 
215.10997 332562.6875 
215.112961 753655.5625 
215.115952 1207007.125 
215.118942 1280543.0 
215.121933 858043.1875 
215.124939 443344.125 
215.12793 143586.28125 
215.13092 53453.136719 
215.133911 30003.207031 
215.136902 7789.709473 
223.12886 6013.533203 
223.132034 30253.732422 
223.135193 144306.09375 
223.138351 387410.09375 
223.14151 647303.75 
223.144669 765940.375 
223.147842 551357.75 
223.151001 305192.84375 
223.15416 98853.085938 
223.157318 32775.066406 
223.160477 18376.044922 
223.163651 12600.789062 
223.167221 27848.9375 
241.090454 13386.030273 
241.093994 22577.121094 
241.097549 25494.888672 
241.101105 20076.128906 
241.104645 10368.748047 
241.14006 4662.056641 
241.1436 20725.236328 
241.147156 68781.007812 
241.150711 123814.648438 
241.154266 169010.578125 
241.157822 139974.390625 
241.161362 84165.203125 
241.164917 32097.90625 
241.168472 9101.421875 
243.094269 5026.960938 
243.09787 20496.335938 
243.101471 120983.671875 
243.105057 422580.625 
243.108658 761167.9375 
243.112244 1043634.1875 
243.115845 863485.5625 
243.119446 518727.9375 
243.123032 203121.125 
243.126633 64874.5 
243.130234 26322.898438 
243.13382 16378.349609 
243.137421 1179.848877 
251.121338 9606.047852 
251.125122 42015.558594 
251.128891 178322.140625 
251.132675 418632.5 
251.136444 677542.5625 
251.140213 739235.5 
251.143997 503526.6875 
251.147766 263829.3125 
251.15155 82271.859375 
251.155319 29435.554688 
251.159088 19964.201172 
251.162872 14382.977539 
251.167084 25266.101562 
270.151276 14613.368164 
270.155487 27404.535156 
270.159698 33746.109375 
270.16391 28616.6875 
270.168121 15984.8125 
295.148285 2318.187012 
295.153107 22833.210938 
295.157928 57114.851562 
295.16272 93655.460938 
295.167542 97699.828125 
295.172333 62205.125 
295.177155 28560.048828 
295.181976 4639.057617 
298.134369 2620.893311 
298.139252 18204.957031 
298.144135 74991.859375 
298.149017 150071.03125 
298.1539 222834.984375 
298.158783 200563.46875 
298.163666 122672.882812 
298.168549 50171.855469 
298.173431 13774.62793 
298.178314 8024.762207 
306.169006 9430.577148 
306.174072 17513.119141 
306.179169 21561.685547 
306.184235 18124.837891 
306.189331 9415.171875 
308.108826 6694.629883 
308.113953 30191.300781 
308.11908 82026.007812 
308.124237 138140.46875 
308.129364 163733.65625 
308.134491 117578.3125 
308.139618 64433.558594 
308.144745 19522.060547 
308.149872 5266.937988 
326.124054 4671.318848 
326.129639 11966.637695 
326.135223 53139.363281 
326.140808 131924.859375 
326.146393 217155.34375 
326.151978 241162.3125 
326.157562 163038.828125 
326.163177 82742.625 
326.168762 20801.460938 
326.174347 5744.369141 
334.151001 4296.724121 
334.156799 20561.302734 
334.162598 78147.929688 
334.168396 157289.109375 
334.174194 238517.8125 
334.179993 227537.125 
334.18576 143210.40625 
334.191559 65402.257812 
334.197357 17439.291016 
334.203156 4454.723145 
352.165405 7832.377441 
352.171661 20765.109375 
352.177948 35347.566406 
352.184204 42371.582031 
352.190491 36632.875 
352.196747 22215.796875 
352.203003 8508.388672 
408.216766 1584.470703 
408.224609 19940.939453 
408.232422 69666.382812 
408.240234 121856.546875 
408.248077 159592.984375 
408.25589 124467.929688 
408.263702 72293.8125 
408.271545 24688.283203 
408.279358 5987.556641 
417.180084 2247.93457 
417.188141 15766.244141 
417.196228 59694.273438 
417.204315 112715.953125 
417.212402 160257.109375 
417.22049 136912.09375 
417.228577 81794.429688 
417.236664 30007.585938 
417.244751 6591.415039 
420.153107 5357.267578 
420.161255 39594.558594 
420.169434 165523.265625 
420.177612 393418.1875 
420.18576 641512.0625 
420.193939 718247.4375 
420.202118 497733.28125 
420.210297 264824.78125 
420.218445 79616.828125 
420.226624 22584.128906 
420.234802 13055.362305 
420.24295 8540.731445 
436.200714 1582.586426 
436.209381 19795.236328 
436.218018 89129.273438 
436.226654 281740.65625 
436.235291 489215.375 
436.243927 641655.375 
436.252563 503123.03125 
436.26123 295371.4375 
436.269867 100484.804688 
436.278503 26034.693359 
436.28714 7113.854004 
503.186523 3190.240234 
503.197205 26264.498047 
503.207916 75654.617188 
503.218628 128615.390625 
503.22934 159539.96875 
503.240051 120357.882812 
503.250763 69543.273438 
503.261475 22412.279297 
503.272156 4455.063965 
602.276672 8129.824707 
602.29071 21837.71875 
602.304688 35537.410156 
602.318726 38867.457031 
602.332764 29047.935547 
602.346802 13654.832031 
685.290344 13904.055664 
685.307373 28581.208984 
685.324402 38449.328125 
685.341431 36174.601562 
685.358459 23277.441406 
685.375488 9078.783203 
719.349609 8428.000977 
719.36792 21323.171875 
719.38623 30366.9375 
719.404541 28592.144531 
719.422852 17623.632812 
836.758118 16809.697266 
836.781067 24598.722656 
836.804016 26191.324219 
836.827026 20923.859375 
836.849976 12033.708984 
924.144714 11242.6875 
924.171326 19469.912109 
924.197998 23947.146484 
924.224609 21693.076172 
924.251282 13830.139648 
992.109558 16690.648438 
992.139221 23732.138672 
992.168823 25527.751953 
992.198486 20770.136719 
992.228149 12170.452148 
END IONS

