BEGIN IONS
PEPMASS=367.246
CHARGE=1+
MSLEVEL=2
SOURCE_INSTRUMENT=LC-ESI-qTof
FILENAME=1A9_Kalkitoxin_MH_367.mzXML
SEQ=*..*
IONMODE=Positive
ORGANISM=GNPS-LIBRARY
NAME=Kalkitoxin M+H
PI=Dorrestein/Gerwick
DATACOLLECTOR=Luzzatto/Garg
SMILES=CC[C@@H](C)C(=O)N(C)CC[C@@H](C)C[C@H](C)[C@H](C)CC1=N[C@@H](CS1)C=C
INCHI=InChI=1S/C21H38N2OS/c1-8-16(4)21(24)23(7)11-10-15(3)12-17(5)18(6)13-20-22-19(9-2)14-25-20/h9,15-19H,2,8,10-14H2,1,3-7H3/t15-,16-,17+,18-,19-/m1/s1
INCHIAUX=PHYRFZDJEDWWKT-UJWQCDCRSA-N
PUBMED=10482399
SUBMITUSER=tal_lk
LIBRARYQUALITY=2
SPECTRUMID=CCMSLIB00000070255
SCANS=1759
94.9328 280.0 
97.542206 140.0 
99.556717 164.0 
100.344368 148.0 
100.493889 180.0 
104.565033 228.0 
104.654564 140.0 
106.451225 292.0 
110.508316 192.0 
110.782463 208.0 
111.382164 148.0 
114.126358 188.0 
115.244911 200.0 
117.369034 232.0 
122.044434 156.0 
123.115273 332.0 
125.131966 624.0 
125.390259 164.0 
126.137688 224.0 
126.383591 168.0 
128.013718 452.0 
129.13829 196.0 
131.146896 172.0 
133.922821 196.0 
134.097855 140.0 
134.180817 152.0 
134.360626 140.0 
135.337891 164.0 
137.400955 152.0 
139.031204 240.0 
140.015732 556.0 
140.040756 216.0 
141.046509 260.0 
141.339645 140.0 
141.637833 196.0 
148.192474 196.0 
148.941788 196.0 
149.697861 148.0 
150.4534 184.0 
150.726837 192.0 
153.021713 180.0 
154.030075 416.0 
155.034058 208.0 
155.076172 180.0 
156.178131 200.0 
156.26268 168.0 
156.292526 144.0 
160.231918 208.0 
162.207977 156.0 
163.141129 144.0 
163.301254 172.0 
167.227112 236.0 
167.487061 236.0 
168.047592 504.0 
168.451401 160.0 
171.764954 168.0 
173.870331 184.0 
175.113403 204.0 
175.213455 188.0 
175.569153 160.0 
175.893539 160.0 
177.085556 180.0 
177.149109 140.0 
177.599915 144.0 
178.066483 240.0 
182.066376 664.0 
182.387894 168.0 
183.070984 196.0 
183.111359 180.0 
187.212708 176.0 
188.232178 240.0 
192.144638 188.0 
193.994003 228.0 
195.095657 248.0 
196.076706 532.0 
197.079376 224.0 
198.081207 188.0 
199.955215 296.0 
202.97673 256.0 
203.722885 272.0 
205.741165 148.0 
206.155151 244.0 
209.116516 272.0 
209.894028 228.0 
210.090073 200.0 
213.61998 156.0 
214.062195 240.0 
215.064682 148.0 
220.889221 200.0 
221.534286 180.0 
223.140549 268.0 
223.189697 164.0 
224.11026 380.0 
229.08638 160.0 
229.84584 188.0 
230.096252 168.0 
231.18396 156.0 
231.749985 280.0 
232.140839 204.0 
233.069336 140.0 
236.621201 148.0 
238.127808 220.0 
240.104355 168.0 
240.141342 140.0 
241.462433 232.0 
242.341476 160.0 
244.881531 272.0 
245.286438 216.0 
249.19046 188.0 
249.922745 172.0 
250.161835 220.0 
252.047104 208.0 
252.140732 1784.0 
253.149139 184.0 
254.145554 204.0 
255.190094 140.0 
256.039368 168.0 
257.869934 148.0 
258.528473 200.0 
261.103546 148.0 
261.759766 208.0 
262.236359 208.0 
263.646149 212.0 
264.118011 196.0 
264.667938 224.0 
265.172821 3548.0 
265.587952 152.0 
266.176758 1240.0 
266.951447 160.0 
267.176056 196.0 
268.18158 200.0 
268.937958 192.0 
271.144165 132.0 
271.957825 176.0 
280.185303 156.0 
281.16684 480.0 
281.665833 156.0 
282.090668 152.0 
282.177246 204.0 
282.718597 160.0 
282.745361 188.0 
282.842377 200.0 
283.183502 19508.0 
283.358765 136.0 
283.561249 232.0 
283.79007 148.0 
284.104675 180.0 
284.186951 3732.0 
284.6185 208.0 
285.181976 580.0 
285.931702 144.0 
286.191589 144.0 
286.285706 148.0 
286.376587 152.0 
287.269501 168.0 
287.424622 160.0 
287.533661 148.0 
287.83963 140.0 
288.995178 176.0 
291.615448 164.0 
293.115631 236.0 
295.569763 168.0 
301.098755 204.0 
301.582275 168.0 
302.325531 144.0 
303.447357 188.0 
307.041443 220.0 
308.437469 164.0 
309.007263 184.0 
326.471252 144.0 
329.089844 184.0 
334.602203 192.0 
336.209015 180.0 
338.701508 164.0 
343.843231 172.0 
345.893738 144.0 
346.093567 200.0 
347.9021 156.0 
349.146332 160.0 
351.214142 224.0 
352.500061 196.0 
352.713013 236.0 
361.502808 196.0 
363.404205 176.0 
364.569458 184.0 
364.653046 184.0 
365.276825 168.0 
365.71756 228.0 
366.166656 148.0 
366.212341 200.0 
366.26947 156.0 
366.579102 168.0 
366.665558 140.0 
367.004669 196.0 
367.092346 172.0 
367.242065 33520.0 
367.359375 96.0 
367.462189 380.0 
367.50531 120.0 
368.108521 124.0 
368.201752 320.0 
368.243347 9328.0 
368.585754 96.0 
368.834625 96.0 
369.158264 108.0 
369.240845 2396.0 
369.949097 184.0 
370.106018 144.0 
370.181946 148.0 
370.240265 352.0 
370.287048 124.0 
370.454407 140.0 
370.785522 132.0 
371.765137 156.0 
373.424133 180.0 
382.781982 160.0 
402.004608 144.0 
463.332672 152.0 
555.177673 140.0 
559.616394 140.0 
588.708069 144.0 
600.286926 208.0 
639.407349 172.0 
789.076355 144.0 
825.808899 164.0 
1252.007202 152.0 
1409.867065 156.0 
1750.657227 168.0 
1885.627197 224.0 
1910.129395 200.0 
1919.810669 228.0 
1980.509888 224.0 
END IONS

