BEGIN IONS
PEPMASS=726.44
CHARGE=1+
MSLEVEL=2
SOURCE_INSTRUMENT=LC-ESI-Ion Trap
FILENAME=f.yuhaobing/microcolins Fedback/microcoln G.mzXML;
SEQ=*..*
IONMODE=Positive
ORGANISM=GNPS-LIBRARY
NAME=Microcolin G M+Na
PI=Gerwick
DATACOLLECTOR=Haobing Yu
SMILES=CN(C([C@H](C)C[C@H](C)CCCC)=O)[C@@H](/C=C(C)\C)C(N[C@@H]([C@@H](C)O)C(N(C)[C@@H](C(C)C)C(N1[C@H](C(N2C(C=C[C@@H]2C)=O)=O)C[C@H](O)C1)=O)=O)=O
INCHI=
INCHIAUX=
PUBMED=31468974
SUBMITUSER=yuhaobing
LIBRARYQUALITY=3
SPECTRUMID=CCMSLIB00005463477
SCANS=562
248.919403 214495.0 
314.966309 192720.0 
335.488831 100448.0 
346.03064 325261.0 
350.252197 86230.0 
359.304443 220363.0 
372.171631 80709.0 
375.47522 76089.0 
399.952515 188110.0 
401.150818 137495.0 
403.220032 811685.0 
404.026123 57621.0 
421.055481 71461.0 
447.097839 2887291.0 
447.933289 5.0 
457.124146 514765.0 
472.305725 129808.0 
473.085388 46684.0 
516.260376 250613.0 
534.184448 476127.0 
539.249268 142081.0 
541.353394 73472.0 
567.422852 19495.0 
584.728149 197599.0 
585.376709 10423284.0 
586.286621 40.0 
601.602295 786208.0 
602.438843 12.0 
611.206543 347766.0 
611.911011 9.0 
623.444336 62596.0 
628.620117 1004880.0 
629.320557 104296480.0 
630.329834 1751239.0 
631.099976 2.0 
663.849609 62087.0 
681.573975 594866.0 
682.278564 26436480.0 
683.516357 1387254.0 
684.19043 7.0 
708.115723 110197.0 
708.733398 53732.0 
726.639038 413159.0 
END IONS

