BEGIN IONS
PEPMASS=399.5
CHARGE=0+
MSLEVEL=2
SOURCE_INSTRUMENT=LC-ESI-qTof
FILENAME=20130201_JHB_M_Jenia_Crypromaldamide_MH400-qb.1.1..mgf
SEQ=*..*
IONMODE=Positive
ORGANISM=GNPS-LIBRARY
NAME=Cryptomaldamide M+H
PI=Gerwick
DATACOLLECTOR=Jenia
SMILES=CC(C)[C@@H](/C=C(\C)/C(=O)O)N(C)C(=O)[C@H](C(C)C)NC(=O)[C@H](CO)N=C(N)N
INCHI=InChI=1S/C18H33N5O5/c1-9(2)13(7-11(5)17(27)28)23(6)16(26)14(10(3)4)22-15(25)12(8-24)21-18(19)20/h7,9-10,12-14,24H,8H2,1-6H3,(H,22,25)(H,27,28)(H4,19,20,21)/b11-7+/t12-,13+,14-/m0/s1
INCHIAUX=N/A
PUBMED=N/A
SUBMITUSER=mwang87
LIBRARYQUALITY=1
SPECTRUMID=CCMSLIB00000001723
SCANS=1
129.95166 1287456.0 
130.90921 1074151.0 
140.857422 60633.0 
153.880615 60241.0 
171.892639 905506.0 
183.82724 115266.0 
186.968414 39267.0 
198.817322 69334.0 
200.992432 95169.0 
208.698181 139219.0 
210.889343 121487.0 
212.046143 114944.0 
217.05188 60420.0 
221.816162 92781.0 
229.033966 324857.0 
259.931274 784856.0 
270.10437 75094.0 
270.931519 14623232.0 
271.856812 91700.0 
339.596191 135438.0 
348.687988 139787.0 
382.214966 133648.0 
382.841064 132593.0 
END IONS

