BEGIN IONS
PEPMASS=1791.85
CHARGE=1+
MSLEVEL=2
SOURCE_INSTRUMENT=LC-ESI-Ion Trap
FILENAME=f.RReher/2264/Reference_spectra/Samholides/Samholide G/SamholideG_M+Na_iontrap_yiwen.mgf;
SEQ=*..*
IONMODE=Positive
ORGANISM=GNPS-LIBRARY
NAME=Samholide G M+Na
PI=Gerwick
DATACOLLECTOR=Ywen Tao
SMILES=C[C@H]1C[C@H](C[C@@H](O1)CC[C@H](C)[C@@H]([C@H](C)[C@@H]2C[C@@H](C[C@@H]([C@@H]([C@H](C[C@@H]3CC=C[C@H](O3)C[C@H](C/C=C(/C=C/C(=O)O[C@@H](C[C@@H](C[C@@H]([C@@H]([C@H](C[C@@H]4CC=C[C@H](O4)C[C@H](C/C=C(/C=C\C(=O)O2)\C)O[C@@H]5[C@H]([C@@H]([C@H](CO5)OC)OC)O)OC)C)O)O)[C@@H](C)[C@H]([C@@H](C)CC[C@H]6C[C@@H](C[C@@H](O6)C)OC)O)\C)O[C@@H]7[C@H]([C@@H]([C@H](CO7)OC)OC)OC(=O)[C@@H](CO)O)OC)C)O)O)O)OC
INCHI=
INCHIAUX=
PUBMED=
SUBMITUSER=RReher
LIBRARYQUALITY=3
SPECTRUMID=CCMSLIB00005467791
SCANS=1
593.848633 9603.0 
613.190918 8623.0 
637.056641 20651.0 
638.134521 7138.0 
641.17334 14226.0 
642.228394 8766.0 
642.966309 6477.0 
649.432129 3073.0 
650.509644 1022.0 
655.134033 1610.0 
681.241455 38520.0 
685.498413 25520.0 
687.157837 1862.0 
688.44043 803.0 
703.289551 11481.0 
703.994873 3193.0 
716.831787 2616.0 
719.215332 30476.0 
737.117188 36114.0 
809.021484 3733.0 
845.499512 3242.0 
846.620117 16564.0 
850.40979 9475.0 
863.377319 234559.0 
864.443359 141162.0 
865.324951 13794.0 
880.558105 2320.0 
899.425781 7062.0 
915.361084 4118.0 
920.419434 5956.0 
933.283569 23039.0 
934.404053 7576.0 
935.46875 6497.0 
951.424683 444604.0 
952.386475 167647.0 
953.34314 46426.0 
954.0 1.0 
993.428467 1051.0 
1007.721436 21611.0 
1015.69812 5526.0 
1052.184814 6116.0 
1058.629395 3296.0 
1067.042236 40626.0 
1068.17627 11382.0 
1085.196289 20197.0 
1086.57373 1851.0 
1089.146973 11167.0 
1105.231689 3004.0 
1107.44873 7992.0 
1108.558105 35851.0 
1112.188965 4490.0 
1143.609863 26973.0 
1144.800293 16088.0 
1173.419434 19307.0 
1174.433105 6631.0 
1175.457764 5148.0 
1188.470459 4332.0 
1191.724609 1011.0 
1196.114258 16957.0 
1211.565918 937.0 
1226.826172 1576.0 
1249.685059 14956.0 
1255.716553 9709.0 
1268.719482 17193.0 
1274.298828 7843.0 
1290.347168 6411.0 
1292.835938 4779.0 
1294.623535 3701.0 
1304.87793 17452.0 
1315.282715 9319.0 
1316.170898 14414.0 
1321.660889 362824.0 
1322.541748 199051.0 
1323.424561 13069.0 
1324.820068 19426.0 
1329.424316 3495.0 
1333.488281 445681.0 
1334.544434 208868.0 
1335.589355 30587.0 
1336.276367 28565.0 
1361.233398 6105.0 
1373.773682 9813.0 
1376.353027 950.0 
1385.443604 12543.0 
1389.178223 9727.0 
1399.71582 7399.0 
1408.287354 1551.0 
1409.521729 123307.0 
1410.60791 50699.0 
1415.377441 4192.0 
1435.775146 8156.0 
1436.819824 14268.0 
1457.524414 6930.0 
1471.759521 3525.0 
1476.254883 1975.0 
1477.533691 47647.0 
1478.711426 26046.0 
1479.647461 9126.0 
1481.498291 40565.0 
1482.652832 39754.0 
1483.697998 1204.0 
1493.672852 3497.0 
1496.789307 14145.0 
1504.958008 3563.0 
1507.979492 7609.0 
1514.573975 1078.0 
1521.524902 96860.0 
1522.340332 75101.0 
1523.133301 1.0 
1525.652832 49375.0 
1526.639648 58550.0 
1527.947021 29701.0 
1528.794678 11926.0 
1537.45874 3960.0 
1541.755371 22573.0 
1543.428467 115076.0 
1544.299072 142439.0 
1545.885742 24022.0 
1546.573242 7211.0 
1560.560303 26879.0 
1564.164795 16705.0 
1577.486572 154040.0 
1578.551514 95413.0 
1579.782715 4602.0 
1595.429199 5792.0 
1613.490234 23076.0 
1614.375 56551.0 
1615.475342 43843.0 
1621.842041 19452.0 
1631.622559 92084.0 
1632.601562 168834.0 
1633.439209 19227.0 
1635.407715 864.0 
1654.172363 6872.0 
1655.98877 2885.0 
1656.896484 15298.0 
1667.582031 8619.0 
1685.561035 158672.0 
1686.666748 96690.0 
1687.727051 11919.0 
1688.521973 6717.0 
1703.529297 2976.0 
1707.374023 6380.0 
1750.125977 5103.0 
1750.854248 6227.0 
1755.523926 19286.0 
1758.245117 9988.0 
1773.593018 116084.0 
1774.540039 128530.0 
1775.531006 10183.0 
1776.486084 31248.0 
1777.133301 1.0 
1791.721191 101807.0 
1792.854248 2618.0 
END IONS

