BEGIN IONS
PEPMASS=323.08
CHARGE=1+
MSLEVEL=2
SOURCE_INSTRUMENT=LC-ESI-Ion Trap
FILENAME=f.zhangyi/pure compounds/Salidroside_pos-40fold_190528113832.mzXML;
SEQ=*..*
IONMODE=Positive
ORGANISM=GNPS-LIBRARY
NAME=Salidroside M+Na
PI=William Gerwick
DATACOLLECTOR=Yi Zhang
SMILES=OC1=CC=C(CCO[C@@H]2O[C@H](CO)[C@@H](O)[C@H](O)[C@H]2O)C=C1
INCHI=InChI=1S/C14H20O7/c15-7-10-11(17)12(18)13(19)14(21-10)20-6-5-8-1-3-9(16)4-2-8/h1-4,10-19H,5-7H2/t10-,11-,12+,13-,14-/m1/s1
INCHIAUX=
PUBMED=
SUBMITUSER=zhangyi
LIBRARYQUALITY=3
SPECTRUMID=CCMSLIB00005436086
SCANS=71
121.489487 8009.0 
232.941803 7123.0 
247.591064 11632.0 
262.627197 8028.0 
273.875 18133.0 
321.713196 4439.0 
322.891602 8403.0 
331.096436 2028.0 
END IONS

