BEGIN IONS
PEPMASS=754.34
CHARGE=0+
MSLEVEL=2
SOURCE_INSTRUMENT=LC-ESI-Ion Trap
FILENAME=20121205_Jenia_Ger_Microcolin_B_MNa754_qb.1.1..mgf
SEQ=*..*
IONMODE=Positive
ORGANISM=GNPS-LIBRARY
NAME=Microcolin B M+Na
PI=Gerwick
DATACOLLECTOR=Jenia
SMILES=CCCC[C@@H](C)C[C@@H](C)C(=O)N(C)[C@@H](CC(C)C)C(=O)N[C@@H](C(C)OC(C)=O)C(=O)N(C)[C@@H](C(C)C)C(=O)N1CCC[C@H]1C(=O)N1[C@@H](C)C=CC1=O
INCHI=InChI=1S/C39H65N5O8/c1-13-14-16-25(6)22-26(7)36(48)41(11)31(21-23(2)3)35(47)40-33(28(9)52-29(10)45)38(50)42(12)34(24(4)5)39(51)43-20-15-17-30(43)37(49)44-27(8)18-19-32(44)46/h18-19,23-28,30-31,33-34H,13-17,20-22H2,1-12H3,(H,40,47)/t25-,26-,27+,28?,30+,31+,33+,34+/m1/s1
INCHIAUX=MNASOWORUXKEPP-RKVCBYGQSA-N
PUBMED=N/A
SUBMITUSER=mwang87
LIBRARYQUALITY=1
SPECTRUMID=CCMSLIB00000001658
SCANS=1
216.014435 88627.0 
233.766907 55786.0 
254.696594 36680.0 
273.588104 234794.0 
275.00885 123974.0 
281.695923 113127.0 
282.86908 94646.0 
303.431152 12648.0 
320.850586 271612.0 
330.007172 1735885.0 
330.59613 14.0 
336.954956 244068.0 
337.923828 112332.0 
341.866089 90562.0 
344.182983 88020.0 
344.859253 293690.0 
353.934448 69609.0 
358.795532 416623.0 
362.63501 64760.0 
364.584045 164078.0 
365.186218 883956.0 
366.596924 274946.0 
368.09021 50981.0 
368.691071 463975.0 
369.531799 790864.0 
370.433441 1730266.0 
371.273529 556276.0 
372.065063 47.0 
386.489868 145234.0 
387.177551 545993.0 
387.978577 50896.0 
390.696899 108013.0 
401.109528 125339.0 
413.070862 365506.0 
413.991211 31372.0 
419.217407 116655.0 
423.229797 71756.0 
426.937744 180534.0 
427.633392 238597.0 
428.6716 124279.0 
446.972076 2269050.0 
447.969574 544145.0 
450.119568 2285272.0 
450.697693 25.0 
451.39093 460496.0 
465.139465 421364.0 
466.152283 5747.0 
472.967438 2282984.0 
474.028839 365714.0 
474.631104 5.0 
478.157349 2058938.0 
479.266235 180358.0 
483.165619 1533906.0 
483.689392 35.0 
500.081055 151136.0 
501.201843 319208.0 
514.495483 33343.0 
522.139648 132262.0 
525.305908 130555.0 
526.1698 56355.0 
526.957275 66025.0 
528.384338 170330.0 
559.966064 220579.0 
561.245605 169240.0 
567.328857 80690.0 
568.383057 57684.0 
569.231812 84657.0 
578.986084 27639.0 
596.96167 190395.0 
629.332397 577832.0 
630.094971 127191.0 
650.047485 42244.0 
651.06604 104290.0 
657.457581 1364223.0 
658.313171 627943.0 
659.126465 9.0 
676.096924 157139.0 
677.137207 219415.0 
681.453247 12873.0 
693.548706 730908.0 
694.371155 162832256.0 
695.381958 63202656.0 
696.200012 222.0 
710.437317 194537.0 
726.314575 44316.0 
727.16394 173650.0 
753.666992 5129999.0 
754.307556 348974976.0 
755.320984 39633160.0 
756.154053 118.0 
END IONS

