BEGIN IONS
PEPMASS=665.115
CHARGE=2+
MSLEVEL=2
SOURCE_INSTRUMENT=LC-ESI-qTof
FILENAME=1F2_665MH_RF2_01_9761.mzXML
SEQ=*..*
IONMODE=Positive
ORGANISM=GNPS-LIBRARY
NAME=Hectochlorin M+H
PI=Dorrestein/Gerwick
DATACOLLECTOR=Peng/Luzzatto/Garg
SMILES=C[C@H]1[C@H](CCCC(C)(Cl)Cl)OC(=O)C2=CSC(=N2)[C@@H](OC(C)=O)C(C)(C)OC(=O)C2=CSC(=N2)[C@@H](OC1=O)C(C)(C)O
INCHI=InChI=1S/C27H34Cl2N2O9S2/c1-13-17(9-8-10-27(7,28)29)38-23(34)15-11-42-21(30-15)19(37-14(2)32)26(5,6)40-24(35)16-12-41-20(31-16)18(25(3,4)36)39-22(13)33/h11-13,17-19,36H,8-10H2,1-7H3/t13-,17-,18+,19+/m0/s1
INCHIAUX=USXIYWCPCGVOKF-NOENWEJRSA-N
PUBMED=ChemSpider ID:552449
SUBMITUSER=y6peng
LIBRARYQUALITY=2
SPECTRUMID=CCMSLIB00000072521
SCANS=1845
95.948769 208.0 
96.333061 212.0 
96.851227 416.0 
98.548294 256.0 
99.106232 236.0 
100.68087 296.0 
101.64537 220.0 
102.276176 256.0 
102.628578 224.0 
103.448502 252.0 
103.561844 204.0 
104.05909 212.0 
105.0242 224.0 
105.070847 600.0 
105.392029 244.0 
105.481911 204.0 
105.800911 260.0 
106.368523 216.0 
107.084999 2060.0 
107.642906 224.0 
108.703934 332.0 
109.010323 276.0 
109.91243 220.0 
110.056396 232.0 
110.562065 204.0 
110.635292 216.0 
111.337433 224.0 
111.989159 212.0 
112.02153 500.0 
112.457039 204.0 
112.733589 244.0 
113.014717 208.0 
113.860176 216.0 
114.034698 552.0 
115.028999 212.0 
115.199402 232.0 
116.123718 228.0 
116.209496 212.0 
119.055565 216.0 
119.938538 236.0 
120.283043 208.0 
120.80072 284.0 
120.903511 260.0 
121.472954 220.0 
122.303215 232.0 
122.42646 204.0 
122.441872 212.0 
122.540955 216.0 
123.012711 444.0 
123.348343 212.0 
124.97551 216.0 
124.991074 232.0 
125.14682 208.0 
125.982826 204.0 
126.745453 256.0 
128.231445 240.0 
128.442154 276.0 
128.974823 204.0 
129.63768 244.0 
129.995834 216.0 
130.059357 228.0 
132.171127 256.0 
133.163361 208.0 
133.96579 272.0 
134.087875 248.0 
134.306244 228.0 
134.682907 208.0 
135.080002 352.0 
135.612671 220.0 
135.645111 260.0 
136.021957 6496.0 
136.092667 248.0 
136.313248 216.0 
136.468918 208.0 
137.027832 408.0 
137.540115 248.0 
137.82959 244.0 
138.001617 260.0 
138.018539 684.0 
138.038345 1300.0 
138.580368 240.0 
138.655319 204.0 
138.969421 212.0 
139.007797 396.0 
139.044479 240.0 
139.08905 216.0 
140.023209 244.0 
140.618362 240.0 
140.684418 264.0 
140.816605 208.0 
141.99588 596.0 
142.818588 204.0 
142.837616 224.0 
143.062958 1308.0 
143.251648 244.0 
143.40686 212.0 
143.694885 228.0 
143.993149 212.0 
144.062271 240.0 
144.308456 232.0 
145.035904 324.0 
145.059494 640.0 
145.69075 232.0 
145.842072 248.0 
146.290527 256.0 
146.602295 232.0 
148.846252 216.0 
149.568008 220.0 
149.77002 268.0 
150.374451 204.0 
152.396362 220.0 
152.602936 264.0 
153.948761 204.0 
154.031769 720.0 
154.901886 256.0 
155.956024 236.0 
156.048889 2708.0 
157.051804 524.0 
157.096252 224.0 
157.442825 232.0 
157.637604 296.0 
158.030823 236.0 
158.225143 220.0 
159.468842 212.0 
160.006958 512.0 
161.765808 208.0 
162.624756 264.0 
162.804932 244.0 
162.843018 240.0 
163.381683 236.0 
163.982376 208.0 
164.017334 21908.0 
164.840958 220.0 
165.019928 2940.0 
165.322632 220.0 
165.665588 224.0 
165.806458 260.0 
166.014709 1156.0 
166.873337 212.0 
168.0298 236.0 
168.334259 204.0 
170.33287 204.0 
171.058823 1756.0 
173.054764 504.0 
173.575424 244.0 
173.701477 204.0 
176.054428 220.0 
176.587158 248.0 
177.087189 216.0 
177.267258 204.0 
178.062576 232.0 
178.985199 240.0 
179.019806 252.0 
179.038437 432.0 
179.098358 212.0 
179.128967 216.0 
180.716782 208.0 
181.018799 468.0 
181.252075 224.0 
181.316376 244.0 
181.351196 216.0 
181.506622 316.0 
181.563416 464.0 
181.678207 476.0 
181.783203 336.0 
181.832825 248.0 
181.907349 404.0 
182.028427 165744.0 
182.229187 224.0 
182.298798 296.0 
182.346664 256.0 
182.469727 872.0 
182.626297 212.0 
182.699356 212.0 
183.030746 13516.0 
183.657227 244.0 
184.024872 5916.0 
184.378586 292.0 
184.424057 272.0 
184.502747 220.0 
185.023392 868.0 
187.022018 244.0 
190.08078 212.0 
191.075867 244.0 
194.027664 232.0 
195.867813 216.0 
196.032135 344.0 
197.897278 236.0 
198.082031 268.0 
199.136246 220.0 
199.337494 284.0 
199.892181 204.0 
199.952515 220.0 
199.995193 1296.0 
200.037979 28668.0 
200.99765 380.0 
201.041077 4664.0 
201.096771 224.0 
201.987152 884.0 
202.035278 1716.0 
203.036179 220.0 
204.787949 260.0 
206.079697 248.0 
207.033752 1216.0 
207.619095 208.0 
208.034637 288.0 
209.032394 776.0 
209.751602 220.0 
215.078018 244.0 
217.072495 276.0 
218.004578 3092.0 
218.04921 692.0 
219.011398 376.0 
219.049667 364.0 
220.002609 304.0 
220.261536 244.0 
223.967804 236.0 
224.037872 2272.0 
230.058716 224.0 
234.072388 260.0 
237.848618 232.0 
242.048492 2704.0 
243.051819 396.0 
252.639786 252.0 
262.698975 212.0 
263.386261 224.0 
267.053925 268.0 
275.065948 364.0 
276.076111 228.0 
277.044678 204.0 
278.829956 216.0 
279.033783 208.0 
284.033142 204.0 
284.061249 212.0 
285.049866 240.0 
292.079407 212.0 
298.018677 236.0 
309.103394 212.0 
313.550995 240.0 
318.104858 220.0 
319.056885 584.0 
319.095612 236.0 
320.867889 208.0 
323.015778 328.0 
325.851379 244.0 
337.063721 420.0 
341.4953 248.0 
342.065399 208.0 
342.150024 212.0 
346.04715 220.0 
350.729736 232.0 
352.073517 400.0 
355.387543 372.0 
363.043701 456.0 
363.083588 224.0 
364.048279 460.0 
364.088898 212.0 
366.023712 260.0 
368.494293 204.0 
369.087952 208.0 
370.088196 2996.0 
371.084381 328.0 
372.082977 824.0 
381.054016 304.0 
383.971771 224.0 
386.075897 212.0 
390.093231 368.0 
391.22168 236.0 
396.853241 248.0 
406.065796 6084.0 
407.070282 1732.0 
408.061646 3600.0 
409.069855 1228.0 
410.060272 708.0 
413.479431 316.0 
424.074829 3184.0 
425.076324 492.0 
426.070374 1020.0 
428.0802 384.0 
430.104126 280.0 
430.587128 224.0 
441.079376 220.0 
441.747162 244.0 
449.069733 244.0 
451.032288 208.0 
453.808289 212.0 
455.381989 208.0 
456.044556 244.0 
461.225464 256.0 
466.085785 2084.0 
467.091187 700.0 
468.081299 2520.0 
468.186066 216.0 
469.088409 612.0 
470.075256 408.0 
488.971405 204.0 
489.35614 208.0 
493.005035 216.0 
495.719513 232.0 
500.400787 208.0 
506.068787 360.0 
507.115387 364.0 
514.098206 216.0 
525.129272 344.0 
526.998169 220.0 
527.123352 244.0 
528.950134 248.0 
530.516174 208.0 
531.6073 204.0 
533.160645 220.0 
533.632141 204.0 
533.838989 236.0 
534.206787 208.0 
539.323059 212.0 
542.580627 236.0 
544.092407 208.0 
547.052307 488.0 
547.327087 228.0 
548.072083 228.0 
549.843384 208.0 
552.636658 220.0 
555.906006 232.0 
559.330811 204.0 
561.105652 792.0 
562.10437 288.0 
563.117126 760.0 
564.438354 212.0 
567.789062 216.0 
569.032532 204.0 
569.115295 1704.0 
570.121338 404.0 
571.111267 524.0 
571.193604 220.0 
571.849976 204.0 
580.277893 232.0 
581.704468 212.0 
587.082581 660.0 
588.009766 232.0 
588.087463 368.0 
589.073242 508.0 
590.071533 400.0 
591.981995 268.0 
602.181091 208.0 
603.6026 228.0 
604.907166 212.0 
604.957764 344.0 
605.095703 23492.0 
605.845947 224.0 
605.888977 232.0 
606.096924 7652.0 
606.396729 248.0 
607.008667 208.0 
607.09259 15352.0 
607.564636 224.0 
608.094238 3988.0 
609.084778 2764.0 
609.282654 272.0 
610.088196 540.0 
613.595276 264.0 
617.707275 204.0 
623.101929 2088.0 
624.113647 784.0 
624.208984 272.0 
625.10083 1688.0 
625.179565 252.0 
627.096252 332.0 
627.337097 228.0 
628.705383 260.0 
629.135193 1032.0 
630.137634 1100.0 
630.335449 248.0 
631.131409 784.0 
632.152161 268.0 
632.475098 200.0 
633.741577 208.0 
636.157959 328.0 
637.818298 224.0 
637.855103 240.0 
638.754822 220.0 
643.929199 228.0 
644.489685 200.0 
645.723511 212.0 
647.103699 760.0 
649.094666 360.0 
649.459045 208.0 
650.016846 264.0 
650.114441 456.0 
653.012939 224.0 
653.221375 208.0 
653.601562 240.0 
656.437134 212.0 
657.025269 280.0 
657.641235 224.0 
660.022095 220.0 
660.505005 200.0 
661.14502 244.0 
661.336487 284.0 
661.450989 228.0 
661.587036 212.0 
662.344604 300.0 
663.13385 276.0 
663.197144 320.0 
663.236877 452.0 
663.58197 324.0 
663.62439 248.0 
663.76593 308.0 
664.254089 224.0 
664.3927 440.0 
664.531494 396.0 
664.65033 408.0 
664.721558 240.0 
664.835083 244.0 
665.032349 440.0 
665.117981 138484.0 
665.624268 216.0 
665.772827 392.0 
665.964172 912.0 
666.11969 52324.0 
666.38208 276.0 
666.428162 376.0 
666.668884 296.0 
666.724915 300.0 
666.764526 252.0 
666.865479 428.0 
666.963928 272.0 
667.11554 95916.0 
667.238281 216.0 
667.473694 212.0 
667.660645 388.0 
667.964233 416.0 
668.116455 34368.0 
668.249512 280.0 
668.347412 324.0 
668.386353 268.0 
668.530884 236.0 
668.625671 244.0 
668.984558 404.0 
669.111938 12768.0 
669.579895 296.0 
669.645142 252.0 
669.714661 296.0 
669.959534 232.0 
670.111206 3220.0 
670.563477 220.0 
671.022278 208.0 
671.702026 304.0 
687.09198 300.0 
777.978638 260.0 
863.424683 204.0 
870.530396 200.0 
1108.692017 228.0 
1206.654053 256.0 
1375.22583 220.0 
1501.866577 204.0 
1519.877075 204.0 
1556.66748 236.0 
1557.892212 216.0 
1564.794434 244.0 
1565.990967 260.0 
1590.262207 212.0 
1609.160645 200.0 
1617.695312 200.0 
1626.653809 212.0 
1630.95752 220.0 
1631.118286 232.0 
1658.397827 292.0 
1707.365601 220.0 
1709.602417 248.0 
1712.663818 256.0 
1716.577026 204.0 
1724.598389 204.0 
1750.905151 248.0 
1751.363037 220.0 
1761.21167 204.0 
1766.666138 232.0 
1767.009033 240.0 
1773.647095 216.0 
1784.430176 212.0 
1796.620117 200.0 
1835.449951 208.0 
1836.737305 204.0 
1841.472534 216.0 
1846.641235 340.0 
1864.355225 228.0 
1871.01001 224.0 
1883.068604 208.0 
1922.06665 208.0 
1936.84436 256.0 
1939.533203 232.0 
1942.329224 224.0 
1951.072144 252.0 
1951.300659 224.0 
1966.234131 224.0 
1980.575439 236.0 
1984.484741 200.0 
1987.13562 212.0 
1991.963013 232.0 
1998.539307 264.0 
1998.984009 236.0 
2001.510986 236.0 
END IONS

