BEGIN IONS
PEPMASS=1705.73
CHARGE=0+
MSLEVEL=2
SOURCE_INSTRUMENT=LC-ESI-Ion Trap
FILENAME=f.RReher/2264/Reference_spectra/Samholides/Samholide C/SamholideC_M+Na_1iontrap_yiwen.mgf;
SEQ=*..*
IONMODE=Positive
ORGANISM=GNPS-LIBRARY
NAME=Samholide C M+Na
PI=Gerwick
DATACOLLECTOR=Ywen Tao
SMILES=C[C@@H]1O[C@H](C[C@@H](C1)OC)CC[C@@H]([C@H](O)[C@@H]([C@H]2OC(=O)/C=C/C(=C/C[C@@H](C[C@H]3O[C@H](C[C@@H]([C@H]([C@H](C[C@H](C[C@H](OC(=O)/C=C/C(=C/C[C@@H](C[C@H]4O[C@H](C[C@@H]([C@H]([C@H](C[C@H](C2)O)O)C)OC)CC=C4)O[C@H]5OC[C@@H]([C@H]([C@@H]5O)OC)OC)/C)[C@H]([C@@H](O)[C@H](CC[C@@H]6O[C@H](C[C@H](C6)OC)C)C)C)O)O)C)OC)CC=C3)O[C@H]7OC[C@@H]([C@H]([C@@H]7O)OC)OC)/C)C)C
INCHI=
INCHIAUX=
PUBMED=
SUBMITUSER=RReher
LIBRARYQUALITY=3
SPECTRUMID=CCMSLIB00005467785
SCANS=1
481.220581 14181.0 
482.45166 1275.0 
483.398193 862.0 
550.115234 4954.0 
593.201416 18431.0 
594.366699 10154.0 
613.545166 10286.0 
631.209595 7571.0 
641.11499 32031.0 
641.809814 4.0 
643.128174 26571.0 
649.433105 8870.0 
650.057129 6488.0 
687.120605 876.0 
703.397949 215064.0 
704.231689 104706.0 
705.337891 33276.0 
719.436035 12113.0 
747.31665 4480.0 
800.556885 11823.0 
818.294434 7050.0 
845.265137 44162.0 
846.629883 104030.0 
847.380493 2.0 
850.369629 13880.0 
862.59021 24850.0 
863.403564 984259.0 
864.416748 702982.0 
865.460938 121485.0 
866.25 67085.0 
866.876221 173.0 
880.284668 6915.0 
882.395996 11914.0 
926.244507 9993.0 
927.500732 36959.0 
975.532837 4567.0 
992.652588 3007.0 
1008.539673 16763.0 
1014.197876 3962.0 
1017.221069 2520.0 
1023.45752 58465.0 
1025.372559 21447.0 
1067.484375 8872.0 
1068.568604 16269.0 
1085.652832 40241.0 
1086.431152 38189.0 
1087.659912 16825.0 
1088.498047 2173.0 
1107.497314 15847.0 
1108.518066 2154.0 
1143.349609 20371.0 
1145.338867 24437.0 
1146.645508 50368.0 
1161.519531 83522.0 
1162.885254 8560.0 
1169.258789 1073.0 
1198.611084 2114.0 
1205.74292 6706.0 
1220.328125 8706.0 
1229.849609 5054.0 
1231.625 3431.0 
1234.762207 2303.0 
1245.548828 362163.0 
1246.606934 253660.0 
1247.368164 192408.0 
1248.384766 91740.0 
1262.661133 1147.0 
1273.841797 4470.0 
1274.557617 32655.0 
1275.45166 27579.0 
1277.472168 3234.0 
1303.639893 13256.0 
1305.097412 22472.0 
1305.709473 133.0 
1311.724854 17848.0 
1314.552246 4210.0 
1321.64209 455186.0 
1322.674805 921374.0 
1323.597656 407742.0 
1324.83667 39948.0 
1329.356201 33034.0 
1330.386719 47377.0 
1331.548584 17809.0 
1332.523682 49486.0 
1359.898682 25945.0 
1366.76123 69309.0 
1368.461426 11404.0 
1384.159668 7631.0 
1389.364746 25994.0 
1390.614258 74506.0 
1391.403564 43482.0 
1392.082764 3535.0 
1421.634033 10062.0 
1433.691406 189401.0 
1434.598389 134948.0 
1436.665039 59910.0 
1460.540527 3653.0 
1464.308105 15246.0 
1465.841309 5945.0 
1471.405273 21025.0 
1472.386719 26091.0 
1473.104736 11917.0 
1480.634033 24109.0 
1481.534912 84206.0 
1482.546875 156263.0 
1483.409912 15521.0 
1484.694824 38490.0 
1489.670166 144053.0 
1490.711182 254973.0 
1491.753418 37419.0 
1492.484619 7714.0 
1507.874512 96237.0 
1508.735596 4542.0 
1509.522217 18609.0 
1520.311768 53101.0 
1525.719482 173326.0 
1526.709717 95989.0 
1527.648438 54688.0 
1528.751953 67450.0 
1529.707764 7972.0 
1543.664551 507265.0 
1544.662354 693121.0 
1545.756836 531835.0 
1546.648926 50320.0 
1619.720703 4512.0 
1642.800049 32456.0 
1650.063232 2221.0 
1659.784424 12226.0 
1662.084717 1435.0 
1668.529785 14128.0 
1671.317871 3723.0 
1672.789307 26685.0 
1673.77832 23918.0 
1685.65918 96049.0 
1686.812744 64493.0 
1687.786377 116093.0 
1688.947021 1306.0 
1703.058105 34940.0 
1703.697021 3430472.0 
1704.717529 710708.0 
1705.515625 86251.0 
1706.253418 1.0 
END IONS

