BEGIN IONS
PEPMASS=993.536
CHARGE=1+
MSLEVEL=2
SOURCE_INSTRUMENT=LC-ESI-qTof
FILENAME=f.RReher/Culebra/CUR6APR19-1/High_Res_Dorrestein/MaXis/pure_compounds/2286_crude_3.18min_993.5364._MS2_M+H_LoggerpeptinA.mgf;
SEQ=*..*
IONMODE=Positive
ORGANISM=GNPS-LIBRARY
NAME=Loggerpeptin A M+H
PI=Gerwick
DATACOLLECTOR=Raphael Reher
SMILES=C[C@@H](C(N[C@H](C(N[C@H]1[C@@H](C)OC([C@H](C(C)C)NC(C(CC2=CC=C(O)C=C2)N(C)C([C@H](CC3=CC=CC=C3)N4[C@H](O)CCC(NC([C@H](CC(C)C)NC1=O)=O)C4=O)=O)=O)=O)=O)[C@@H](O)C)=O)NC(CCC)=O
INCHI=
INCHIAUX=
PUBMED=
SUBMITUSER=RReher
LIBRARYQUALITY=3
SPECTRUMID=CCMSLIB00005720215
SCANS=1
74.02948 373.0 
83.070908 65.0 
84.014977 120.0 
86.067848 955.0 
91.024956 102.0 
103.026291 72.0 
107.021935 126.0 
112.091759 73.0 
113.047829 68.0 
114.067917 528.0 
119.023903 114.0 
120.055824 2996.0 
121.058258 152.0 
122.018127 63.0 
135.042694 145.0 
136.090881 110.0 
139.061951 134.0 
141.043945 108.0 
142.064072 4959.0 
143.068192 168.0 
144.072037 80.0 
146.032867 73.0 
146.070831 84.0 
150.069702 21712.0 
151.073013 1932.0 
151.984207 68.0 
152.075867 114.0 
153.115112 69.0 
155.05957 65.0 
157.076645 189.0 
158.075745 963.0 
159.079788 113.0 
160.080154 68.0 
165.125626 65.0 
167.061478 3958.0 
168.063416 346.0 
169.112762 333.0 
170.076508 892.0 
170.117813 87.0 
172.092239 215.0 
173.110168 80.0 
175.088501 78.0 
176.051437 137.0 
178.068161 220.0 
181.082504 75.0 
181.11525 316.0 
185.073868 2004.0 
186.075195 219.0 
187.104797 4411.0 
188.10791 650.0 
196.083344 80.0 
197.110794 1240.0 
198.0746 205.0 
198.111954 98.0 
203.084427 97.0 
206.061768 279.0 
207.100143 61.0 
209.113403 405.0 
210.107819 152.0 
212.09227 61.0 
215.101669 15022.0 
216.104935 1885.0 
217.104813 112.0 
217.129791 68.0 
220.09494 86.0 
225.108551 661.0 
226.07016 955.0 
226.112381 127.0 
226.138412 517.0 
227.073013 193.0 
227.142746 149.0 
228.120758 100.0 
229.983826 135.0 
233.117004 121.0 
238.102844 511.0 
241.083405 66.0 
241.143661 66.0 
242.807709 68.0 
243.098724 44503.0 
243.193954 69.0 
243.517609 64.0 
244.102188 7571.0 
245.10582 731.0 
246.111023 159.0 
248.112381 203.0 
249.143494 584.0 
250.150085 137.0 
252.15744 936.0 
253.16127 199.0 
254.084229 81.0 
254.13562 107.0 
255.169113 201.0 
257.080139 79.0 
258.175751 65.0 
260.145691 61.0 
261.112122 625.0 
262.116913 127.0 
263.158997 112.0 
264.124756 200.0 
264.158844 97.0 
266.138519 230.0 
268.116547 143.0 
269.13443 62.0 
270.167084 242.0 
270.203979 62.0 
271.153809 157.0 
273.111755 90.0 
277.142578 601.0 
278.144043 181.0 
279.131165 75.0 
280.15509 957.0 
281.158356 155.0 
282.132111 3422.0 
283.135864 396.0 
283.168304 2592.0 
284.144012 148.0 
284.171326 489.0 
286.201019 128.0 
290.139709 183.0 
291.163086 141.0 
292.156647 224.0 
294.880463 66.0 
295.154053 12907.0 
296.157806 2191.0 
297.155212 314.0 
298.164764 3583.0 
299.167389 738.0 
300.144135 289.0 
300.192291 121.0 
306.777069 80.0 
308.014893 75.0 
308.149841 47005.0 
309.15329 8064.0 
309.411316 67.0 
310.15625 1132.0 
311.164703 4449.0 
311.300629 88.0 
312.168945 1114.0 
313.172119 165.0 
314.141876 136.0 
314.176117 76.0 
316.175873 445.0 
323.163727 231.0 
323.198944 89.0 
324.168518 128.0 
324.66864 70.0 
325.146667 367.0 
325.187256 103.0 
326.025055 65.0 
326.055756 87.0 
326.161499 58974.0 
326.250031 63.0 
327.164978 10972.0 
327.248108 61.0 
328.191681 3700.0 
329.196899 510.0 
329.258545 76.0 
329.406311 74.0 
330.197937 123.0 
332.188019 478.0 
333.182861 158.0 
335.1716 170.0 
336.174927 192.0 
338.171051 117.0 
339.125397 177.0 
339.159271 703.0 
340.129456 106.0 
340.162628 142.0 
342.171906 92.0 
344.172607 3188.0 
345.17572 582.0 
347.167358 387.0 
348.170197 141.0 
349.22171 104.0 
350.199951 2288.0 
351.162018 663.0 
351.203156 563.0 
352.170166 81.0 
352.205475 96.0 
354.055267 62.0 
354.18396 97.0 
355.165955 61.0 
356.18869 6283.0 
357.193481 1362.0 
358.195038 192.0 
360.183044 225.0 
361.200348 76.0 
362.156586 148.0 
363.167297 381.0 
363.216492 68.0 
364.172638 63.0 
366.191925 61.0 
367.224365 926.0 
368.230591 241.0 
369.212982 88.0 
374.203003 494.0 
375.161835 493.0 
375.203644 117.0 
375.234497 189.0 
376.164276 286.0 
376.206604 143.0 
377.210083 269.0 
378.158997 69.0 
381.185944 96.0 
390.227539 163.0 
392.185699 204.0 
393.192474 149.0 
393.243073 4381.0 
394.20636 175.0 
394.245758 1104.0 
395.155853 63.0 
395.22406 1128.0 
396.225281 299.0 
397.210419 204.0 
397.932007 66.0 
398.204041 63.0 
401.185547 62.0 
403.159698 127.0 
403.235809 70.0 
404.23349 111.0 
406.186523 359.0 
409.199066 171.0 
410.193207 92.0 
411.252838 1894.0 
411.543213 64.0 
412.252502 512.0 
413.242371 149.0 
415.124542 61.0 
415.233459 62.0 
417.212036 73.0 
417.97171 106.0 
419.201233 94.0 
419.318817 67.0 
419.45047 82.0 
419.715363 66.0 
419.986908 97.0 
420.076721 143.0 
420.186279 113848.0 
420.283386 98.0 
420.381744 66.0 
420.574432 84.0 
420.917969 71.0 
420.969666 94.0 
421.007721 106.0 
421.046631 107.0 
421.114594 136.0 
421.189331 32052.0 
421.236969 4630.0 
421.352264 62.0 
422.193146 5630.0 
422.242706 1392.0 
423.199921 701.0 
423.249146 217.0 
423.621857 62.0 
423.775269 109.0 
424.221924 62.0 
425.236389 491.0 
426.232605 85.0 
427.189178 233.0 
428.226227 73.0 
429.249084 223.0 
430.176453 133.0 
430.250885 158.0 
432.215546 69.0 
432.249298 78.0 
435.216125 219.0 
436.159149 81.0 
437.237091 269.0 
438.197845 483.0 
438.266724 133.0 
439.250336 60346.0 
439.63678 68.0 
440.174744 89.0 
440.253387 15279.0 
441.255432 2592.0 
442.249054 235.0 
443.09787 64.0 
443.237854 407.0 
444.252197 98.0 
445.189117 64.0 
445.27475 440.0 
446.205841 62.0 
446.27002 92.0 
447.290039 63.0 
449.20163 71.0 
451.255859 121.0 
454.145172 93.0 
455.249359 65.0 
456.266113 73.0 
457.181152 82.0 
457.261108 3697.0 
458.26059 909.0 
459.270081 137.0 
460.268188 175.0 
461.235504 200.0 
461.913971 68.0 
462.222961 71.0 
463.230682 64.0 
463.286774 585.0 
464.236053 116.0 
464.294891 255.0 
465.248993 62.0 
466.11142 106.0 
467.225616 323.0 
468.110382 70.0 
468.250427 242.0 
469.259247 84.0 
471.226166 73.0 
473.226471 84.0 
473.274902 629.0 
474.272827 277.0 
475.252533 698.0 
476.206238 95.0 
476.250946 73.0 
479.244995 269.0 
480.250854 122.0 
481.247864 93.0 
484.121613 64.0 
485.238586 209.0 
486.23764 62.0 
488.251862 3928.0 
489.25647 1114.0 
490.256836 168.0 
491.281403 486.0 
492.292755 157.0 
494.227844 92.0 
494.274933 841.0 
495.225403 71.0 
495.27771 207.0 
496.24881 235.0 
497.270203 62.0 
498.248199 66.0 
500.100403 89.0 
501.278717 114.0 
503.229401 218.0 
504.236847 83.0 
505.19696 121.0 
505.275299 432.0 
506.286682 97.0 
507.229645 86.0 
508.296234 68.0 
510.309937 178.0 
512.288452 239.0 
513.301697 95.0 
514.268311 99.0 
515.268799 106.0 
516.237366 301.0 
516.746765 284.0 
517.244202 62.0 
517.297607 76.0 
519.257141 1608.0 
520.261108 662.0 
521.244141 247.0 
522.156189 74.0 
522.268738 1638.0 
523.272888 803.0 
524.249146 105.0 
525.675354 98.0 
527.753174 82.0 
528.243652 67.0 
528.334229 413.0 
529.335632 63.0 
530.29364 130.0 
532.679199 68.0 
533.275024 9843.0 
534.210144 90.0 
534.278931 2849.0 
535.28125 498.0 
536.281006 68.0 
537.213196 152.0 
537.268616 7468.0 
537.631348 87.0 
538.272034 2161.0 
539.274658 423.0 
540.280334 1172.0 
541.166931 70.0 
541.286316 659.0 
544.278748 78.0 
548.292053 100.0 
550.271423 213.0 
551.288879 480.0 
552.296936 116.0 
553.288574 65.0 
554.265503 61.0 
556.15625 79.0 
556.324341 523.0 
557.329102 384.0 
558.293457 507.0 
559.291382 318.0 
560.288513 61.0 
564.344482 209.0 
565.344727 62.0 
566.320374 125.0 
566.7146 69.0 
568.276855 503.0 
569.276306 167.0 
569.328064 137.0 
570.32605 107.0 
574.322144 187.0 
575.281555 111.0 
576.300171 595.0 
577.30127 169.0 
584.304382 178.0 
585.318054 131.0 
586.280396 94.0 
588.165344 67.0 
588.312256 192.0 
589.296204 94.0 
591.328674 106.0 
592.329834 347.0 
593.340271 209.0 
594.327332 147.0 
601.33429 89.0 
602.320984 2028.0 
603.32074 797.0 
604.270569 182.0 
604.328979 194.0 
606.346436 162.0 
609.335754 78.0 
609.390442 69.0 
610.336975 61.0 
612.34552 83.0 
616.24292 65.0 
616.31665 1228.0 
616.545776 61.0 
617.31189 519.0 
618.32019 159.0 
619.323608 152.0 
620.329834 3729.0 
621.332397 1152.0 
622.022034 78.0 
622.337341 310.0 
623.332886 75.0 
624.015442 61.0 
625.399109 63.0 
630.379517 88.0 
632.343689 425.0 
633.350037 178.0 
634.32312 649.0 
635.354919 820.0 
636.361206 389.0 
637.044312 67.0 
637.338501 823.0 
638.344116 325.0 
639.357788 242.0 
640.361511 85.0 
643.370056 67.0 
645.337952 201.0 
646.34906 61.0 
649.167664 69.0 
650.35553 3317.0 
651.358948 941.0 
652.361084 393.0 
653.366821 280.0 
654.360046 64.0 
655.36322 147.0 
656.340576 135.0 
657.36438 875.0 
658.355103 311.0 
659.365967 129.0 
661.130066 65.0 
661.377197 74.0 
662.320862 62.0 
663.253418 74.0 
663.35199 2892.0 
664.354004 1560.0 
665.349854 287.0 
666.377563 108.0 
667.354553 75.0 
668.400208 396.0 
669.398926 285.0 
670.356079 92.0 
670.420715 82.0 
671.374207 634.0 
672.370667 194.0 
673.33075 226.0 
673.378174 162.0 
674.339539 167.0 
677.328735 63.0 
681.362244 2571.0 
682.366882 1302.0 
683.363281 288.0 
685.343811 194.0 
686.361877 90.0 
687.393799 562.0 
688.397522 406.0 
689.391907 247.0 
695.338684 62.0 
697.360962 81.0 
699.364319 3736.0 
700.366638 1347.0 
701.361267 318.0 
702.365967 105.0 
703.354126 122.0 
704.366272 94.0 
705.420715 2718.0 
706.425232 1162.0 
707.383057 72.0 
707.42926 174.0 
707.545471 66.0 
708.420715 126.0 
708.630371 69.0 
713.345581 104.0 
715.384033 6037.0 
716.386841 2594.0 
716.50885 84.0 
717.36969 1143.0 
718.375854 564.0 
719.363831 99.0 
721.357666 418.0 
722.365845 223.0 
723.376831 106.0 
724.382568 79.0 
730.382263 84.0 
733.23938 89.0 
733.294128 183.0 
733.39801 12766.0 
734.401672 6399.0 
735.381104 2184.0 
736.233826 69.0 
736.387756 734.0 
737.389648 197.0 
745.355774 210.0 
746.163208 62.0 
750.436829 63.0 
751.403931 159.0 
752.432922 131.0 
761.394104 652.0 
762.388794 411.0 
763.38855 129.0 
764.388123 92.0 
770.449341 281.0 
772.396729 70.0 
780.431641 429.0 
781.42041 112.0 
784.427124 135.0 
785.419067 62.0 
788.446472 99.0 
789.411377 91.0 
790.420959 235.0 
791.414246 237.0 
792.428894 85.0 
798.438538 929.0 
799.448303 425.0 
800.437256 151.0 
806.447632 630.0 
807.456055 676.0 
808.438599 82.0 
812.440552 290.0 
813.44043 146.0 
814.420654 283.0 
815.419861 253.0 
816.430786 2130.0 
817.436523 888.0 
818.407104 120.0 
819.431274 102.0 
822.428467 91.0 
828.468323 128.0 
829.445862 63.0 
834.265381 64.0 
834.444275 23028.0 
834.592224 95.0 
835.25769 67.0 
835.446899 12528.0 
835.79364 63.0 
836.44873 3086.0 
837.448914 584.0 
838.454163 70.0 
840.431213 1493.0 
841.438354 1211.0 
842.433472 207.0 
844.438171 272.0 
845.419006 86.0 
846.46167 207.0 
847.47406 161.0 
848.458984 175.0 
851.300903 65.0 
858.443298 2438.0 
859.449463 1192.0 
860.446777 472.0 
862.448303 538.0 
863.447876 307.0 
864.447754 125.0 
875.44873 68.0 
876.335327 85.0 
876.455139 3859.0 
877.336914 93.0 
877.458069 2258.0 
878.460815 820.0 
879.459412 143.0 
887.450195 145.0 
888.502686 66.0 
901.524353 75.0 
903.522949 79.0 
905.487 303.0 
906.479004 126.0 
907.472229 62.0 
913.497314 147.0 
914.480347 128.0 
915.477539 69.0 
919.551697 109.0 
929.517456 333.0 
930.529114 128.0 
931.506409 625.0 
932.497742 356.0 
933.502686 115.0 
939.511108 259.0 
940.505859 140.0 
947.425781 87.0 
947.532104 4623.0 
948.532776 2388.0 
949.540771 795.0 
950.540588 239.0 
957.512451 5733.0 
958.515808 3176.0 
959.519043 1192.0 
960.520203 145.0 
961.516418 105.0 
963.197632 61.0 
965.555542 80.0 
971.482361 85.0 
975.269043 91.0 
975.36908 126.0 
975.524292 26942.0 
975.684326 102.0 
975.745117 75.0 
976.0 102.0 
976.319275 117.0 
976.376709 76.0 
976.527771 17285.0 
977.366882 74.0 
977.529358 4787.0 
978.53418 1201.0 
979.429993 74.0 
979.54541 145.0 
989.707703 71.0 
990.676636 226.0 
991.511841 617.0 
992.514954 213.0 
993.474121 1357.0 
END IONS

