BEGIN IONS
PEPMASS=1532.0
CHARGE=0+
MSLEVEL=2
SOURCE_INSTRUMENT=LC-ESI-qTof
FILENAME=20121219_Ger_Jenia_Portoamide_A_MH1532-qb.1.1..mgf
SEQ=*..*
IONMODE=Positive
ORGANISM=GNPS-LIBRARY
NAME=Portoamide_A M+H
PI=Gerwick
DATACOLLECTOR=Jenia
SMILES=CC[C@H](C)[C@@H]1C(=O)N[C@H](C(=O)N/C(=C/C)/C(=O)N[C@H](C(=O)N[C@@H](C(=O)N2CCC[C@H]2C(=O)NC(C(C(=O)N[C@@H](C(=O)NCC(=O)N3CCC[C@H]3C(=O)N4CCC[C@H]4C(=O)N1)CCC(=O)N)O)CC(CC(C(CC(C)C)O)O)OC(=O)[C@H](CC5=CC=C(C=C5)O)N(C)C(=O)C)CCC6=CC=C(C=C6)OC)[C@@H](C)O)CO
INCHI=InChI=1S/C74H109N13O22/c1-10-40(5)61-69(102)81-52(38-88)66(99)77-48(11-2)65(98)83-62(41(6)89)70(103)79-50(27-22-43-20-25-46(108-9)26-21-43)72(105)86-31-12-15-53(86)67(100)80-51(35-47(36-58(93)57(92)33-39(3)4)109-74(107)56(84(8)42(7)90)34-44-18-23-45(91)24-19-44)63(96)71(104)78-49(28-29-59(75)94)64(97)76-37-60(95)85-30-14-17-55(85)73(106)87-32-13-16-54(87)68(101)82-61/h11,18-21,23-26,39-41,47,49-58,61-63,88-89,91-93,96H,10,12-17,22,27-38H2,1-9H3,(H2,75,94)(H,76,97)(H,77,99)(H,78,104)(H,79,103)(H,80,100)(H,81,102)(H,82,101)(H,83,98)/b48-11+/t40-,41+,47?,49+,50+,51?,52-,53-,54-,55-,56-,57?,58?,61+,62-,63?/m0/s1
INCHIAUX=N/A
PUBMED=N/A
SUBMITUSER=mwang87
LIBRARYQUALITY=1
SPECTRUMID=CCMSLIB00000001687
SCANS=1
438.920837 5843.0 
460.22522 9102.0 
478.326172 3730.0 
487.019775 3992.0 
496.506714 21517.0 
517.890747 4913.0 
531.76355 10473.0 
553.169189 1243.0 
577.244629 14568.0 
578.106934 17559.0 
605.178833 15574.0 
630.981934 8468.0 
639.413574 2922.0 
645.310059 11955.0 
706.019775 10742.0 
714.971191 2005.0 
745.061157 23735.0 
763.21106 12326.0 
790.38916 7225.0 
796.850098 6432.0 
799.457764 44520.0 
805.290283 14661.0 
811.28833 2530.0 
815.203857 15481.0 
817.05603 4692.0 
833.231934 12722.0 
839.960449 5364.0 
848.118652 10252.0 
851.370117 4114.0 
869.076416 5373.0 
869.730591 3931.0 
872.371826 17626.0 
884.175049 18207.0 
896.897949 10292.0 
900.96167 5656.0 
901.771729 16924.0 
915.343262 1130.0 
918.237549 2426.0 
919.512695 17875.0 
920.366455 34438.0 
937.006958 28939.0 
938.283447 6957.0 
941.344116 5141.0 
946.322876 7662.0 
954.845337 16848.0 
962.25293 4289.0 
974.355591 4412.0 
980.616455 26740.0 
986.370483 13426.0 
998.061157 31886.0 
1002.258911 5379.0 
1003.103394 12280.0 
1019.376831 1136.0 
1020.613525 5441.0 
1028.422852 6696.0 
1053.448242 10294.0 
1063.650635 11435.0 
1084.964355 5308.0 
1092.291992 13255.0 
1121.375488 27606.0 
1125.271973 1587.0 
1139.501465 7956.0 
1152.358643 25565.0 
1157.802734 12002.0 
1167.868652 7489.0 
1179.349121 5779.0 
1190.948242 30987.0 
1191.55542 3.0 
1204.091553 47958.0 
1205.901367 7237.0 
1209.389893 3764.0 
1217.552246 4244.0 
1222.47998 84240.0 
1223.314209 9097.0 
1224.530273 21106.0 
1240.22168 57695.0 
1241.166504 6249.0 
1242.275879 12164.0 
1249.308105 3917.0 
1259.404297 1000.0 
1260.264648 42850.0 
1269.583008 13140.0 
1276.885254 6025.0 
1277.516602 42581.0 
1278.375488 14450.0 
1295.505371 164189.0 
1296.187256 270.0 
1300.459717 2155.0 
1312.775635 30373.0 
1313.422852 111751.0 
1329.758789 22289.0 
1331.07959 16015.0 
1334.415771 9311.0 
1343.896729 2437.0 
1347.436523 60109.0 
1362.588135 16982.0 
1378.517822 6025.0 
1386.48877 8438.0 
1388.759033 3648.0 
1404.280029 10944.0 
1422.61377 15344.0 
1451.354492 6089.0 
1468.373047 8615.0 
1474.924316 663.0 
1478.687988 32029.0 
1487.065186 15507.0 
1496.458984 62437.0 
1497.541992 35238.0 
1504.586426 23744.0 
1512.381104 8963.0 
1514.492188 384952.0 
1515.696045 9385.0 
END IONS

