BEGIN IONS
PEPMASS=769.2
CHARGE=0+
MSLEVEL=2
SOURCE_INSTRUMENT=LC-ESI-qTof
FILENAME=20130722_Ger_Pluto_Veraguamide_A_MHCl769.2-qb.1.1..mgf
SEQ=*..*
IONMODE=Positive
ORGANISM=GNPS-LIBRARY
NAME=Veraguamide_A M+H
PI=Gerwick
DATACOLLECTOR=Pluto
SMILES=CC[C@H](C)[C@H]1C(=O)N2CCC[C@H]2C(=O)N([C@H](C(=O)O[C@@H]([C@@H](C(=O)N[C@H](C(=O)N([C@H](C(=O)O1)C(C)C)C)C(C)C)C)CCCC#CBr)C(C)C)C
INCHI=InChI=1S/C37H59BrN4O8/c1-12-24(8)31-35(46)42-20-16-17-26(42)33(44)40(10)29(22(4)5)36(47)49-27(18-14-13-15-19-38)25(9)32(43)39-28(21(2)3)34(45)41(11)30(23(6)7)37(48)50-31/h21-31H,12-14,16-18,20H2,1-11H3,(H,39,43)/t24-,25-,26-,27+,28-,29-,30-,31-/m0/s1
INCHIAUX=N/A
PUBMED=N/A
SUBMITUSER=mwang87
LIBRARYQUALITY=1
SPECTRUMID=CCMSLIB00000001815
SCANS=1
224.750854 1384.0 
226.948059 1218.0 
228.074203 16091.0 
229.255829 12379.0 
238.930145 1204.0 
249.718323 1096.0 
255.78302 2121.0 
265.978638 1121.0 
283.819397 390.0 
284.756348 2301.0 
285.693878 4892.0 
295.087402 2107.0 
297.002075 110134.0 
298.083008 11485.0 
298.984131 6885.0 
300.19873 6147.0 
307.207916 10775.0 
307.984283 13864.0 
309.224609 6502.0 
310.188538 1650.0 
312.165161 2194.0 
312.975464 1856.0 
313.981964 5539.0 
322.833923 348.0 
323.549805 229.0 
324.300354 4966.0 
325.045868 490218.0 
326.025757 96447.0 
327.0867 9309.0 
331.503296 10048.0 
342.982727 97966.0 
343.887024 22262.0 
344.951538 3274.0 
352.10144 854.0 
353.186707 1897.0 
353.994751 146.0 
372.887024 329.0 
378.91156 608.0 
382.194031 494.0 
397.158997 3129.0 
399.093506 2096.0 
408.094025 4049.0 
409.155182 2981.0 
410.182678 14951.0 
410.799927 1.0 
415.294128 2230.0 
416.9086 10657.0 
424.526367 8287.0 
425.847839 6294.0 
426.9422 31882.0 
427.825531 1970.0 
436.039673 20357.0 
437.210571 23785.0 
438.141724 667246.0 
439.107941 173774.0 
440.106293 20800.0 
442.265991 404.0 
442.902863 8929.0 
444.048889 13868.0 
445.056213 35705.0 
448.036987 2199.0 
448.63623 383.0 
449.69635 12199.0 
455.532715 4835.0 
456.159454 820830.0 
457.140015 219583.0 
458.184723 16289.0 
461.165527 1362.0 
462.056702 2071.0 
463.093567 1762.0 
474.90686 5550.0 
477.23291 782.0 
491.590271 2014.0 
492.98938 5523.0 
495.85553 1577.0 
496.592285 1944.0 
498.826965 2941.0 
510.140015 1195.0 
512.197876 5235.0 
513.144226 6717.0 
513.962341 8909.0 
515.134521 10663.0 
517.278809 1112.0 
525.245605 2554.0 
538.936523 738.0 
540.060791 14877.0 
540.778809 9797.0 
542.255554 49929.0 
543.055786 11206.0 
557.031799 10946.0 
558.171265 13920.0 
563.239746 15251.0 
564.209961 2330.0 
574.192505 28109.0 
575.050659 36792.0 
576.072693 121726.0 
576.762451 4.0 
625.60614 6091.0 
626.834778 24750.0 
627.379395 17531.0 
627.974426 80736.0 
628.569092 3.0 
633.763184 385.0 
638.231262 13225.0 
642.542725 476.0 
645.034668 1403.0 
654.216187 48448.0 
655.100525 94908.0 
655.995361 345575.0 
656.618591 29.0 
668.036255 1752.0 
668.998291 12724.0 
683.532715 1743.0 
684.154053 1193.0 
687.10083 3336.0 
700.229004 265.0 
706.912598 832.0 
723.526428 2534.0 
731.243042 1184.0 
733.122803 4312.0 
739.337341 22781.0 
740.210632 407672.0 
741.160583 875088.0 
741.888184 8.0 
750.159363 18195.0 
751.074219 36377.0 
END IONS

