BEGIN IONS
PEPMASS=930.1
CHARGE=0+
MSLEVEL=2
SOURCE_INSTRUMENT=LC-ESI-qTof
FILENAME=20130221_Jenia_Ger_Hoiamide_A_MS34H930.1-qb.1.1..mgf
SEQ=*..*
IONMODE=Positive
ORGANISM=GNPS-LIBRARY
NAME=Hoiamide_A M+H
PI=Gerwick
DATACOLLECTOR=Jenia
SMILES=CCC[C@@H](C)[C@@H]([C@H](C)[C@@H]1[C@H]([C@H](CC2=NC(=CS2)C3=N[C@](CS3)(C4=N[C@](CS4)(C(=O)N[C@H]([C@H]([C@H](C(=O)O[C@H](C(=O)N[C@H](C(=O)O1)[C@@H](C)O)C(C)C)C)O)[C@@H](C)CC)C)C)OC)C)O
INCHI=InChI=1S/C44H71N5O10S3/c1-14-16-23(6)33(51)25(8)36-24(7)29(57-13)17-30-45-28(18-60-30)38-48-44(12,20-61-38)42-49-43(11,19-62-42)41(56)47-31(22(5)15-2)34(52)26(9)39(54)58-35(21(3)4)37(53)46-32(27(10)50)40(55)59-36/h18,21-27,29,31-36,50-52H,14-17,19-20H2,1-13H3,(H,46,53)(H,47,56)/t22-,23+,24-,25-,26+,27+,29-,31-,32-,33-,34-,35-,36-,43+,44+/m0/s1
INCHIAUX=N/A
PUBMED=N/A
SUBMITUSER=mwang87
LIBRARYQUALITY=1
SPECTRUMID=CCMSLIB00000001732
SCANS=1
312.2099 2930273.0 
359.005493 742057.0 
370.882446 395518.0 
378.969238 842863.0 
379.673584 872022.0 
383.989624 1951088.0 
409.140625 2453125.0 
410.077637 2785629.0 
410.91272 641806.0 
424.909973 3401643.0 
425.820496 39.0 
441.011597 1631801.0 
450.167297 239523.0 
455.853027 560852.0 
460.128052 111101.0 
476.424133 4497953.0 
479.091064 1324303.0 
480.398071 198609.0 
482.188416 2187511.0 
499.989075 738903.0 
504.653809 2801173.0 
506.087341 1331548.0 
507.097107 1033316.0 
508.183899 1392596.0 
509.542053 1853644.0 
510.173401 2871639.0 
511.133789 1396017.0 
521.305054 1155855.0 
523.141724 2228746.0 
523.954712 617072.0 
525.030762 1311689.0 
525.788574 4013467.0 
528.830811 1307682.0 
533.1604 5934454.0 
533.906616 5.0 
536.820435 1533430.0 
537.903687 2061241.0 
540.172119 1250108.0 
541.155518 193396.0 
552.929443 2465484.0 
553.985962 712806.0 
555.205078 6688896.0 
556.125244 11153564.0 
557.331665 1692953.0 
558.656494 785728.0 
559.333252 1.0 
578.000732 1638410.0 
580.554077 661848.0 
602.067139 520469.0 
603.098633 523703.0 
604.158813 1012324.0 
604.987061 822313.0 
613.041626 1485568.0 
613.800049 1.0 
616.03125 2299416.0 
617.025757 5588228.0 
617.759033 356.0 
620.331421 2607048.0 
621.15564 231771.0 
622.186523 544539.0 
633.716187 6885815.0 
634.908081 1462390.0 
635.56665 6.0 
641.056885 1334846.0 
646.195557 2035473.0 
647.197754 1564369.0 
650.998657 1547501.0 
653.334229 2302749.0 
654.230103 687078.0 
655.280273 6531898.0 
655.944336 272.0 
658.032715 2009947.0 
659.177734 4787187.0 
660.231201 11778088.0 
661.031006 576.0 
662.445312 684031.0 
664.489624 5833625.0 
665.44751 3591004.0 
666.054932 8185207.0 
667.210449 6043290.0 
674.28418 446667.0 
677.451416 3429110.0 
678.257568 4137274.0 
679.185791 209650.0 
685.207397 1817665.0 
690.166016 1231597.0 
691.153076 2336056.0 
692.053101 8784848.0 
693.183472 3610671.0 
693.849976 16.0 
696.195557 1179598.0 
696.88501 1441471.0 
699.274414 1368472.0 
707.010254 1130251.0 
707.68335 4.0 
708.689209 6636677.0 
710.21875 11353424.0 
711.051636 5710669.0 
712.024902 1281745.0 
717.407227 1087370.0 
723.151123 1070151.0 
726.307739 3141775.0 
726.92749 995588.0 
728.239014 5130928.0 
729.030518 4041881.0 
729.81665 4.0 
731.217285 76640.0 
733.322754 1517638.0 
736.208862 3584985.0 
739.2229 156828.0 
739.833984 736258.0 
741.260254 495103.0 
742.176758 3143708.0 
744.088135 3365536.0 
747.115234 1776630.0 
749.198975 3390263.0 
749.823242 43.0 
751.464844 841724.0 
752.443115 2883818.0 
753.105469 12.0 
756.251953 4874318.0 
757.815796 8273942.0 
759.184448 19750744.0 
760.17334 3417309.0 
766.644531 236298.0 
772.193237 1303334.0 
772.944336 6.0 
778.222656 486017.0 
779.138306 1440004.0 
780.169067 1450505.0 
784.873657 1311841.0 
786.403076 5876980.0 
787.171387 14.0 
795.260132 772222.0 
796.126343 7239291.0 
797.16626 32987984.0 
798.166138 4007901.0 
799.487427 951637.0 
810.334106 1171078.0 
811.317749 3274654.0 
812.038696 12.0 
815.383179 1025347.0 
816.245972 2574888.0 
817.156494 5183134.0 
818.436035 469718.0 
821.111938 3086446.0 
822.183594 1817113.0 
823.025391 1607188.0 
826.154663 520083.0 
827.01416 3319300.0 
828.215576 1832835.0 
829.210327 25061632.0 
830.245117 1716368.0 
831.336792 4180740.0 
832.306641 8075914.0 
833.673218 1412320.0 
834.362671 937393.0 
835.227173 8782096.0 
835.969482 535491.0 
839.30188 2266816.0 
843.180542 144557.0 
844.349609 1931778.0 
847.405151 1821254.0 
849.426758 8580992.0 
850.390503 654528.0 
860.578857 4911108.0 
861.210327 24753352.0 
862.281006 7207019.0 
863.116821 2092418.0 
864.579346 14444488.0 
865.43396 8856188.0 
866.296997 5049619.0 
867.312012 15161944.0 
868.232056 15179068.0 
868.954224 588558.0 
875.167358 5933166.0 
875.825806 249.0 
876.67395 2448245.0 
877.291138 19.0 
878.290405 11579960.0 
879.215942 149305536.0 
880.149902 35715832.0 
881.39856 2488747.0 
882.246704 1915861.0 
883.357422 28854264.0 
884.427002 5852521.0 
885.153076 138.0 
886.233276 4685694.0 
886.83667 374.0 
893.235962 85868784.0 
894.043091 10450598.0 
894.669922 207708.0 
895.509521 406054.0 
897.250122 32049776.0 
898.164307 38407712.0 
898.979492 2084734.0 
899.683228 8.0 
909.397705 1019007.0 
910.380859 4155690.0 
911.222046 178248960.0 
912.208984 77649040.0 
913.266479 6154320.0 
914.0 2.0 
END IONS

