BEGIN IONS
PEPMASS=419.288
CHARGE=1+
MSLEVEL=2
SOURCE_INSTRUMENT=LC-ESI-qTof
FILENAME=2E5_DenticulatinB_MNa_419.mzXML
SEQ=*..*
IONMODE=Positive
ORGANISM=GNPS-LIBRARY
NAME=Denticulatin B M+Na
PI=Dorrestein/Gerwick
DATACOLLECTOR=Luzzatto/Garg
SMILES=C[C@@H](C(CC)=O)[C@H]1[C@H](C)[C@H](O)[C@H](C)[C@]([C@@H](C([C@H](C)C/C(C)=C/CC)=O)C)(O)O1
INCHI=N/A
INCHIAUX=N/A
PUBMED=OI: 10.1021/jo00296a044
SUBMITUSER=tal_lk
LIBRARYQUALITY=2
SPECTRUMID=CCMSLIB00000070282
SCANS=2417
99.11908 172.0 
102.290337 252.0 
104.49736 196.0 
108.054695 564.0 
109.026962 192.0 
110.432404 188.0 
111.650436 240.0 
112.130249 228.0 
113.5271 228.0 
113.569496 256.0 
118.83416 200.0 
119.318291 200.0 
119.524826 272.0 
120.195686 224.0 
121.067535 220.0 
122.904495 204.0 
125.017632 184.0 
125.998306 200.0 
126.595268 200.0 
126.799057 172.0 
128.376587 280.0 
128.535507 216.0 
129.490295 228.0 
130.558792 216.0 
130.599716 200.0 
130.811234 176.0 
131.230255 220.0 
133.101151 184.0 
133.480133 208.0 
134.484177 184.0 
134.556717 256.0 
135.043076 212.0 
135.830276 196.0 
136.078491 176.0 
136.508179 248.0 
137.057297 228.0 
139.911194 260.0 
140.118347 200.0 
141.085556 188.0 
141.272308 248.0 
146.683838 252.0 
147.075912 196.0 
149.023773 412.0 
150.828156 228.0 
153.08931 176.0 
153.599228 176.0 
153.817322 212.0 
154.799942 176.0 
157.302582 252.0 
157.96701 232.0 
158.896042 256.0 
159.259888 260.0 
159.674408 236.0 
159.88063 192.0 
161.745041 184.0 
161.762756 184.0 
161.795639 204.0 
162.015884 184.0 
162.482162 184.0 
163.07547 204.0 
164.083084 1924.0 
164.280029 172.0 
165.083069 436.0 
167.560181 240.0 
167.81781 224.0 
168.638367 272.0 
169.787415 196.0 
170.249176 220.0 
173.045929 224.0 
173.190323 216.0 
173.231781 196.0 
176.798019 252.0 
177.087891 420.0 
177.195038 272.0 
177.849777 216.0 
177.918762 196.0 
178.886017 228.0 
179.096283 216.0 
180.14949 184.0 
181.728409 196.0 
184.090775 184.0 
184.869003 224.0 
185.093582 196.0 
185.339981 212.0 
185.386017 176.0 
188.516968 200.0 
189.123856 200.0 
190.40921 224.0 
191.057632 264.0 
191.140152 200.0 
192.459915 228.0 
193.087891 188.0 
193.828537 196.0 
195.099564 1244.0 
196.106415 232.0 
197.10788 180.0 
197.40686 336.0 
197.521484 172.0 
199.697174 228.0 
199.981232 212.0 
200.231705 204.0 
200.268295 244.0 
200.936111 184.0 
203.039749 248.0 
203.133316 176.0 
203.774643 208.0 
204.108765 180.0 
204.246353 196.0 
206.041534 200.0 
207.019348 196.0 
207.635513 204.0 
209.189041 224.0 
210.581161 176.0 
211.413437 212.0 
211.757812 204.0 
211.77832 232.0 
213.733627 192.0 
214.0569 228.0 
215.359985 312.0 
215.447571 172.0 
216.198715 228.0 
216.447433 180.0 
216.482559 212.0 
216.915802 184.0 
217.120834 360.0 
217.232819 184.0 
217.828217 204.0 
218.124878 248.0 
218.409988 240.0 
219.679047 216.0 
220.907425 196.0 
222.118469 300.0 
222.429977 176.0 
224.03801 180.0 
226.531387 184.0 
229.412079 184.0 
230.963531 180.0 
231.132919 292.0 
231.447556 180.0 
232.144211 408.0 
233.109848 844.0 
233.437302 236.0 
234.422714 208.0 
238.080429 248.0 
238.525742 200.0 
239.186813 172.0 
239.260666 228.0 
240.369781 176.0 
240.736649 196.0 
241.098267 228.0 
241.707199 172.0 
244.614044 184.0 
244.897278 244.0 
245.146408 204.0 
245.267914 192.0 
245.694946 240.0 
245.966324 212.0 
246.158539 316.0 
246.684494 224.0 
247.065857 176.0 
247.166595 1940.0 
247.826324 192.0 
248.05188 176.0 
248.616196 184.0 
248.955093 200.0 
249.108932 212.0 
250.448029 176.0 
250.712921 212.0 
250.961807 212.0 
251.126312 32612.0 
251.202087 228.0 
251.587692 220.0 
252.129211 4124.0 
252.388428 184.0 
252.499054 172.0 
252.837433 204.0 
253.131195 636.0 
253.885605 224.0 
254.132935 256.0 
254.520004 184.0 
256.638245 204.0 
258.087219 180.0 
258.864471 176.0 
260.188141 216.0 
260.691833 176.0 
261.357544 188.0 
261.557007 200.0 
263.365143 204.0 
264.324921 172.0 
265.179504 188.0 
265.386902 200.0 
265.850555 244.0 
265.960846 232.0 
268.738861 200.0 
269.140167 204.0 
270.012329 176.0 
270.375305 188.0 
270.666534 240.0 
272.138153 172.0 
272.702942 192.0 
272.758789 176.0 
273.357117 200.0 
273.556213 228.0 
274.160278 236.0 
274.826111 196.0 
275.004242 184.0 
275.162079 1708.0 
276.173187 204.0 
277.166138 176.0 
278.250244 352.0 
279.153809 320.0 
279.246735 188.0 
279.785553 212.0 
281.214996 176.0 
281.391846 188.0 
282.791901 256.0 
284.47052 228.0 
284.540985 204.0 
285.592346 204.0 
286.638916 172.0 
286.985962 208.0 
287.441132 212.0 
287.633423 228.0 
288.149902 184.0 
288.278229 192.0 
288.558655 188.0 
289.438019 180.0 
289.529419 200.0 
291.143005 176.0 
292.958557 216.0 
293.292358 216.0 
293.50705 248.0 
293.858215 200.0 
294.195923 184.0 
295.319672 224.0 
296.13736 204.0 
296.192139 220.0 
297.072723 220.0 
297.175629 216.0 
297.43631 224.0 
298.243195 204.0 
299.787842 208.0 
300.173767 352.0 
300.873871 228.0 
301.954987 216.0 
302.283478 192.0 
302.64679 236.0 
303.453735 192.0 
304.442261 224.0 
304.688751 200.0 
304.827698 172.0 
305.199463 220.0 
306.020264 184.0 
307.490692 196.0 
307.979279 172.0 
308.835266 184.0 
309.749756 216.0 
310.221344 260.0 
311.508667 172.0 
313.055573 204.0 
313.196381 180.0 
313.568207 212.0 
315.192932 396.0 
315.690552 172.0 
315.8638 232.0 
315.976959 200.0 
316.419159 364.0 
316.843964 260.0 
318.460846 220.0 
319.029144 232.0 
319.544617 172.0 
319.996429 200.0 
320.202881 240.0 
322.131744 192.0 
322.267426 232.0 
322.349579 212.0 
322.431732 212.0 
322.878448 172.0 
323.32547 244.0 
323.554443 196.0 
324.485535 248.0 
324.962372 180.0 
325.42157 192.0 
325.719513 196.0 
327.866608 184.0 
329.110596 204.0 
329.868958 252.0 
331.015381 212.0 
331.312256 216.0 
331.868866 224.0 
332.223969 172.0 
332.617188 176.0 
333.20285 2892.0 
333.793793 172.0 
334.048279 176.0 
334.204498 304.0 
335.118164 204.0 
335.179321 532.0 
335.369507 208.0 
336.186127 240.0 
336.395142 216.0 
336.664154 184.0 
337.467438 216.0 
337.858856 264.0 
339.290192 220.0 
339.583435 268.0 
339.924469 196.0 
339.961151 232.0 
340.126251 204.0 
340.331726 212.0 
341.227844 188.0 
342.706818 176.0 
344.584015 184.0 
345.341492 184.0 
345.485718 256.0 
345.69281 172.0 
346.314514 188.0 
348.173889 176.0 
348.537811 240.0 
349.152588 240.0 
350.536835 200.0 
351.464935 232.0 
353.39212 228.0 
353.541718 228.0 
353.990753 192.0 
354.402618 212.0 
356.127563 240.0 
356.43924 264.0 
356.525635 168.0 
357.63089 208.0 
358.086273 192.0 
359.503204 180.0 
359.944702 192.0 
360.620636 168.0 
362.016052 180.0 
362.534119 228.0 
364.469299 172.0 
364.545258 200.0 
365.069641 192.0 
365.621033 264.0 
365.681915 184.0 
365.921631 184.0 
367.178589 276.0 
368.995422 172.0 
369.568909 204.0 
372.151154 176.0 
372.458252 212.0 
372.634918 184.0 
373.334198 180.0 
373.368774 168.0 
374.623047 220.0 
374.846405 188.0 
375.0737 204.0 
375.501526 184.0 
376.222778 196.0 
378.74646 180.0 
378.963684 204.0 
379.692139 212.0 
381.287109 212.0 
381.86615 184.0 
382.360046 192.0 
382.830902 196.0 
382.955475 204.0 
383.002197 208.0 
383.904755 280.0 
384.217926 220.0 
385.83017 220.0 
386.442413 200.0 
387.590698 196.0 
387.990326 188.0 
388.178436 220.0 
388.288208 208.0 
388.707794 172.0 
389.170746 216.0 
389.971802 208.0 
391.119843 188.0 
391.281189 180.0 
391.363831 188.0 
391.623627 184.0 
392.159241 180.0 
392.65976 232.0 
392.726776 188.0 
393.073822 240.0 
393.242432 188.0 
393.914398 168.0 
394.171112 236.0 
394.313324 204.0 
395.143219 204.0 
395.768463 180.0 
396.322754 200.0 
399.606689 184.0 
400.767059 176.0 
401.267792 3052.0 
402.269501 668.0 
402.625183 216.0 
403.278717 264.0 
403.811646 216.0 
404.391571 200.0 
404.460907 228.0 
405.051941 220.0 
405.965363 176.0 
406.077606 176.0 
407.040344 168.0 
407.273193 184.0 
408.474548 188.0 
409.331451 216.0 
409.717926 188.0 
410.515686 196.0 
410.584198 176.0 
410.870483 200.0 
411.43927 180.0 
411.519989 252.0 
411.939819 168.0 
412.796295 200.0 
413.203247 244.0 
414.256775 236.0 
414.312836 192.0 
414.471954 232.0 
415.229156 384.0 
415.265656 236.0 
416.267883 312.0 
416.69577 196.0 
416.771088 256.0 
416.818848 264.0 
416.905151 172.0 
417.051392 204.0 
417.262115 440.0 
417.348022 180.0 
417.375641 172.0 
417.754181 176.0 
417.911285 208.0 
418.02536 220.0 
418.266174 284.0 
418.359741 336.0 
418.450195 236.0 
418.498047 188.0 
418.587708 336.0 
418.674133 388.0 
418.836731 224.0 
418.884857 188.0 
418.909698 356.0 
419.027679 368.0 
419.11853 348.0 
419.181885 716.0 
419.279663 174920.0 
419.428589 204.0 
419.566223 424.0 
419.659027 240.0 
419.703003 260.0 
419.750153 432.0 
419.87616 204.0 
419.90271 400.0 
419.951477 3100.0 
420.007965 464.0 
420.095581 208.0 
420.130859 348.0 
420.233215 392.0 
420.281891 69708.0 
420.370026 328.0 
420.440765 228.0 
420.489288 228.0 
420.567688 236.0 
420.664124 384.0 
420.890259 168.0 
420.95166 892.0 
420.986969 292.0 
421.152435 264.0 
421.283447 14656.0 
421.865479 188.0 
421.912476 192.0 
421.967743 268.0 
422.242096 248.0 
422.286102 1840.0 
422.447418 188.0 
422.542297 396.0 
422.831482 496.0 
422.917877 196.0 
422.990295 312.0 
423.036926 240.0 
423.217072 228.0 
423.614716 228.0 
423.768616 204.0 
423.885742 240.0 
424.161835 180.0 
424.186981 232.0 
424.259308 188.0 
424.293121 192.0 
433.896179 224.0 
436.352966 168.0 
441.241364 204.0 
451.213928 236.0 
480.739685 188.0 
736.546326 180.0 
755.838562 184.0 
1345.635498 172.0 
1730.229736 200.0 
1773.135986 184.0 
1926.996338 240.0 
1932.825928 184.0 
1989.901367 176.0 
END IONS

