BEGIN IONS
PEPMASS=759.23
CHARGE=0+
MSLEVEL=2
SOURCE_INSTRUMENT=LC-ESI-Ion Trap
FILENAME=20121205_Jenia_Ger_Antanapeptin_A_MNa759.2-qb.1.1..mgf
SEQ=*..*
IONMODE=Positive
ORGANISM=GNPS-LIBRARY
NAME=Antanapeptin A M+Na
PI=Gerwick
DATACOLLECTOR=Jenia
SMILES=CCC(C)[C@@H]1N(C)C(=O)[C@@H]2CCCN2C(=O)[C@@H](OC(=O)[C@H](CC2=CC=CC=C2)N(C)C(=O)[C@@H](NC(=O)C(C)C(CCCC#C)OC1=O)C(C)C)C(C)C
INCHI=InChI=1S/C41H60N4O8/c1-11-13-15-22-32-28(8)36(46)42-33(25(3)4)38(48)43(9)31(24-29-19-16-14-17-20-29)40(50)53-35(26(5)6)39(49)45-23-18-21-30(45)37(47)44(10)34(27(7)12-2)41(51)52-32/h1,14,16-17,19-20,25-28,30-35H,12-13,15,18,21-24H2,2-10H3,(H,42,46)/t27?,28?,30-,31-,32?,33-,34-,35-/m0/s1
INCHIAUX=HEWGADDUUGVTPF-CVZHIFNESA-N
PUBMED=N/A
SUBMITUSER=mwang87
LIBRARYQUALITY=1
SPECTRUMID=CCMSLIB00000001640
SCANS=1
285.834229 3706.0 
319.369507 2132.0 
379.121216 5248.0 
435.039551 1397.0 
508.542664 2609.0 
524.076538 5247.0 
535.160889 44391.0 
536.272217 18837.0 
538.891113 9763.0 
551.909912 1199.0 
561.998535 2979.0 
579.746338 7247.0 
598.307373 46740.0 
599.199951 1.0 
602.980713 3861.0 
607.827148 1990.0 
614.072998 2932.0 
620.97998 13169.0 
632.200195 1465485.0 
633.241211 454776.0 
633.949951 8.0 
645.276733 8872.0 
646.057861 2061.0 
651.410889 1817.0 
660.505371 2005.0 
690.963135 3208.0 
695.42749 676.0 
700.238403 5924.0 
715.490234 7401.0 
731.150635 10295.0 
732.110474 1494.0 
758.456421 21493.0 
759.272461 1283110.0 
760.262085 69068.0 
END IONS

