BEGIN IONS
PEPMASS=500.209
CHARGE=1+
MSLEVEL=2
SOURCE_INSTRUMENT=LC-ESI-qTof
FILENAME=f.RReher/Golden lab/ColumbamideA-C_reference/Columbamide B/ColB_M+H_PNG.mgf;
SEQ=*..*
IONMODE=Positive
ORGANISM=GNPS-LIBRARY
NAME=Columbamide B M+H
PI=Gerwick
DATACOLLECTOR=Kleigrewe
SMILES=ClC(Cl)CCCCCC(Cl)CCCC/C=C/CCC(N(C)[C@@H](COC)COC(C)=O)=O
INCHI=
INCHIAUX=
PUBMED=
SUBMITUSER=RReher
LIBRARYQUALITY=3
SPECTRUMID=CCMSLIB00005464642
SCANS=1
100.072166 107.125 
102.090233 4618.671875 
102.114182 449.846161 
102.139709 164.225006 
102.186699 181.571426 
105.068703 298.034607 
107.084518 252.835129 
109.059761 137.350006 
109.101311 175.001709 
113.081009 846.752563 
119.083282 231.891129 
120.101181 190.880951 
128.069839 258.017548 
130.08313 487.879181 
131.067551 321.694916 
143.091705 633.474304 
144.100082 1692.293091 
144.135773 130.321426 
145.100662 135.786758 
146.077744 129.453766 
156.101166 1066.329102 
156.139801 150.336105 
160.043335 122.0625 
162.10936 1998.605591 
162.151459 185.529419 
170.114853 171.523544 
171.082291 279.493866 
172.095932 252.916992 
184.09584 256.79776 
185.127853 181.556824 
198.14949 163.195389 
332.259735 549.361755 
336.211487 236.125 
354.216461 874.320068 
360.250305 148.280045 
368.23291 26936.599609 
368.35968 606.673584 
368.413239 695.115112 
368.459259 300.002258 
368.505127 197.016663 
368.543732 257.882416 
368.578522 162.10228 
368.60611 154.027771 
368.642365 202.793472 
368.716553 152.368896 
368.75 121.003571 
368.774323 109.657608 
368.80957 132.157059 
368.88681 177.534882 
368.950653 158.580643 
369.136902 141.368896 
369.163239 132.469452 
369.239319 1295.53064 
369.333374 109.007355 
369.578796 106.0 
369.776001 141.297302 
369.884918 114.198769 
370.079315 121.290001 
370.23645 230.008331 
372.17981 342.383789 
390.197235 966.239807 
390.238281 105.680557 
396.228577 8312.769531 
396.358795 171.408783 
396.41272 225.324326 
396.532654 132.841217 
397.22876 332.166656 
397.248108 174.382935 
404.210449 27107.146484 
404.397919 692.172852 
404.443878 298.440063 
404.497711 148.005432 
404.546509 165.778061 
404.584412 139.612503 
404.654663 155.431122 
404.703369 143.800003 
404.739655 188.013229 
404.773773 162.760422 
404.825958 149.142242 
404.870361 118.53186 
405.018066 116.615387 
405.054932 106.615387 
405.101166 123.314285 
405.128113 139.592102 
405.157288 188.612289 
405.218811 599.360291 
405.261536 200.020462 
405.315887 122.083336 
405.338287 111.240387 
405.457611 131.003052 
405.567657 120.612503 
405.820953 106.033333 
432.204559 9409.398438 
432.365936 204.837021 
432.397614 234.222458 
432.464142 109.720238 
433.209076 308.395172 
440.185883 1163.452271 
440.23407 238.049423 
464.224487 118.666664 
468.178497 405.139191 
END IONS

