BEGIN IONS
TITLE=Scan Number: 1262
PEPMASS=386.24301
CHARGE=0+
COMPOUNDNAME=Nevaltophin_D
LIBRARYQUALITY=3
SMILES=O=C(N(C)[C@@H](C(C)C)C(NCCC1=CNC2=C1C=CC=C2)=O)C(C(C)CC)=O
INCHIKEY=HLFLCRYVHOAXOU-FUBQLUNQSA-N
INCHI=
MSLEVEL=2
SOURCE_INSTRUMENT=LC-ESI-qTof
FILENAME=f.Sniperwolff/Libraryfiles/NevaltophinD/nevaltophin_D.mzXML;
SEQ=*..*
NOTES=
IONMODE=Positive
ORGANISM=GNPS-LIBRARY
NAME=Nevaltophin_D M+H
SPECTRUMID=CCMSLIB00000840594
ACTIVATION=CID
INSTRUMENT=ion trap
SCANS=1262
94.789795 13.0 
94.806877 19.0 
94.930077 15.0 
94.981697 8.0 
95.029495 23.0 
95.047356 347.0 
95.08403 21.0 
95.113861 12.0 
95.1436 10.0 
95.159363 11.0 
95.213196 23.0 
95.256844 29.0 
95.330688 18.0 
95.39962 17.0 
95.478012 16.0 
95.49276 12.0 
95.550049 21.0 
95.615273 13.0 
95.656502 14.0 
95.669601 18.0 
95.684784 23.0 
95.726135 18.0 
95.791588 17.0 
95.803108 15.0 
95.834404 12.0 
95.896149 23.0 
95.994926 21.0 
96.052017 24.0 
96.078529 21.0 
96.130615 17.0 
96.170433 9.0 
96.244392 14.0 
96.268242 10.0 
96.351303 9.0 
96.388985 17.0 
96.435898 19.0 
96.496399 12.0 
96.531723 15.0 
96.562187 50.0 
96.57621 27.0 
96.631958 14.0 
96.659325 23.0 
96.685783 47.0 
96.744514 20.0 
96.82589 18.0 
96.848091 18.0 
96.965454 41.0 
97.06321 92.0 
97.097839 44.0 
97.152344 34.0 
97.194382 14.0 
97.212044 15.0 
97.241364 20.0 
97.321533 14.0 
97.334373 11.0 
97.348488 19.0 
97.390831 16.0 
97.548317 20.0 
97.598831 13.0 
97.778374 18.0 
97.799179 19.0 
97.858627 16.0 
97.874344 9.0 
97.965614 19.0 
98.095581 496.0 
98.168068 12.0 
98.20594 13.0 
98.316124 17.0 
98.388062 18.0 
98.402229 13.0 
98.417213 10.0 
98.466377 13.0 
98.508247 14.0 
98.539352 19.0 
98.594437 15.0 
98.642296 43.0 
98.666733 10.0 
98.783516 11.0 
98.991364 35.0 
99.101105 18.0 
99.116501 12.0 
99.444878 13.0 
99.557381 11.0 
99.644257 19.0 
99.720558 13.0 
99.745323 30.0 
99.779457 21.0 
99.847267 19.0 
99.861481 11.0 
100.039085 70.0 
100.071701 22.0 
100.110985 718.0 
100.219391 18.0 
100.283752 12.0 
100.312447 11.0 
100.410759 15.0 
100.435066 21.0 
100.554863 18.0 
100.733246 9.0 
100.747627 28.0 
100.776512 12.0 
100.844391 18.0 
100.882195 18.0 
100.893608 22.0 
100.931152 12.0 
101.007149 10.0 
101.114349 51.0 
101.220154 15.0 
101.287971 24.0 
101.373207 9.0 
101.443428 27.0 
101.539436 18.0 
101.5895 38.0 
101.611137 17.0 
101.651115 42.0 
101.787315 11.0 
101.830544 11.0 
101.841385 22.0 
102.025017 13.0 
102.055725 46.0 
102.090836 41.0 
102.237885 16.0 
102.539017 22.0 
102.559799 29.0 
102.578522 11.0 
102.668015 9.0 
103.0522 61.0 
103.15863 26.0 
103.347603 10.0 
103.387306 14.0 
103.625702 18.0 
103.675491 8.0 
103.865089 19.0 
103.900917 18.0 
103.968895 15.0 
104.047478 31.0 
104.104393 65.0 
104.216934 30.0 
104.393158 26.0 
104.536781 11.0 
104.647858 13.0 
104.783073 12.0 
104.804817 25.0 
104.823257 11.0 
105.034111 17.0 
105.13427 18.0 
105.260429 24.0 
105.459496 21.0 
105.804863 12.0 
106.067619 33.0 
106.171265 12.0 
106.278114 18.0 
106.478416 27.0 
107.050316 22.0 
107.603661 27.0 
107.633804 12.0 
108.08007 292.0 
108.472435 14.0 
108.676659 14.0 
108.860497 27.0 
109.075409 17.0 
109.649765 16.0 
109.667053 15.0 
109.680527 18.0 
109.94548 12.0 
110.059601 63.0 
110.299599 13.0 
110.915588 33.0 
111.023087 8.0 
111.066322 419.0 
111.099419 15.0 
112.072487 104.0 
112.12722 28.0 
112.188545 19.0 
112.518555 14.0 
113.019653 21.0 
113.058907 531.0 
113.080223 28.0 
113.094818 19.0 
113.332458 12.0 
113.377457 35.0 
113.677559 10.0 
113.938881 17.0 
113.97718 19.0 
113.995575 10.0 
114.028 26.0 
114.057419 26.0 
114.090187 16272.0 
114.118248 19.0 
114.14254 21.0 
114.160347 23.0 
114.170944 25.0 
114.197235 23.0 
114.211372 15.0 
114.249825 12.0 
114.306808 17.0 
114.340118 15.0 
114.513466 17.0 
114.538483 21.0 
114.663834 11.0 
114.773293 11.0 
114.879425 16.0 
114.978394 11.0 
115.053284 218.0 
115.092903 853.0 
115.133804 14.0 
115.242157 13.0 
115.280418 25.0 
115.302864 14.0 
115.338066 9.0 
115.352417 23.0 
115.387802 15.0 
115.624504 18.0 
115.679779 31.0 
115.802971 23.0 
115.918098 11.0 
115.954895 19.0 
116.037155 12.0 
116.061066 437.0 
116.094894 71.0 
116.15435 11.0 
116.35482 11.0 
116.65712 28.0 
116.799362 11.0 
116.945854 10.0 
117.011383 10.0 
117.037437 14.0 
117.068947 481.0 
117.096931 14.0 
117.129028 20.0 
117.155716 15.0 
117.233665 23.0 
117.303482 17.0 
117.319374 17.0 
117.40535 17.0 
117.484077 19.0 
117.527359 10.0 
117.586922 13.0 
117.682274 15.0 
117.700317 31.0 
117.848198 21.0 
118.069809 96.0 
118.807182 18.0 
118.903458 17.0 
119.080574 17.0 
119.104919 31.0 
119.213982 36.0 
119.616112 20.0 
120.077927 13.0 
120.349815 12.0 
120.41938 24.0 
120.454628 11.0 
120.739761 14.0 
122.015831 9.0 
122.501114 10.0 
122.934113 17.0 
123.116112 150.0 
123.904678 12.0 
124.071976 25.0 
124.757805 11.0 
125.529747 14.0 
125.893936 11.0 
125.9412 19.0 
125.97139 14.0 
125.984322 13.0 
126.015327 23.0 
126.037918 26.0 
126.090378 18678.0 
126.138397 18.0 
126.17968 41.0 
126.201759 34.0 
126.224586 13.0 
126.245003 11.0 
126.296188 29.0 
126.398224 11.0 
126.514137 25.0 
126.553604 20.0 
126.570862 9.0 
126.644272 25.0 
126.669731 15.0 
126.721413 12.0 
126.770996 16.0 
126.899391 28.0 
126.92186 8.0 
126.99382 10.0 
127.013657 10.0 
127.052452 98.0 
127.094078 1494.0 
127.186295 11.0 
127.203911 16.0 
127.276962 21.0 
127.324852 11.0 
127.367165 13.0 
127.422226 16.0 
127.435783 15.0 
127.450455 35.0 
127.607643 19.0 
127.619751 24.0 
127.72673 9.0 
127.827805 17.0 
127.850311 15.0 
127.962944 12.0 
128.017181 8.0 
128.048248 44.0 
128.059692 43.0 
128.106049 108.0 
128.125488 12.0 
128.223984 12.0 
128.280853 11.0 
128.406113 18.0 
128.518661 26.0 
128.937866 10.0 
129.045181 33.0 
129.064575 39.0 
129.092926 17.0 
129.140747 25.0 
129.200836 13.0 
129.237717 11.0 
129.307556 14.0 
129.367538 9.0 
129.420944 15.0 
129.438278 10.0 
129.512054 21.0 
129.644394 15.0 
129.807938 19.0 
129.93161 14.0 
129.985489 11.0 
130.065475 258.0 
130.083405 58.0 
130.104523 18.0 
130.273849 14.0 
130.827316 11.0 
130.877365 16.0 
131.008011 12.0 
131.118225 76.0 
131.23175 11.0 
131.273636 13.0 
131.354736 16.0 
131.439255 10.0 
132.048431 19.0 
132.082047 28.0 
132.554077 15.0 
132.714844 23.0 
133.26384 12.0 
133.796326 19.0 
133.87262 10.0 
134.059235 50.0 
134.307892 19.0 
135.07431 49.0 
135.181717 31.0 
135.416611 63.0 
136.002151 25.0 
136.517715 23.0 
136.709457 18.0 
137.625809 16.0 
138.44339 23.0 
139.046661 10.0 
139.885178 11.0 
140.143021 29.0 
140.975311 11.0 
141.010132 12.0 
141.041443 10.0 
141.064377 23.0 
141.099121 50.0 
141.126465 16193.0 
141.17688 14.0 
141.191879 31.0 
141.212173 22.0 
141.237625 20.0 
141.262512 17.0 
141.32785 29.0 
141.385056 15.0 
141.443451 29.0 
141.474197 11.0 
141.495346 29.0 
141.514832 12.0 
141.529877 12.0 
141.575409 13.0 
141.592117 17.0 
141.650787 9.0 
141.674469 11.0 
141.715012 15.0 
141.854813 11.0 
142.008728 21.0 
142.043701 23.0 
142.064316 528.0 
142.085526 13448.0 
142.12941 1309.0 
142.163483 40.0 
142.224106 26.0 
142.279877 12.0 
142.303711 15.0 
142.334213 11.0 
142.384308 15.0 
142.449829 25.0 
142.511246 19.0 
142.53038 14.0 
142.544205 19.0 
142.583755 12.0 
142.623627 13.0 
142.697861 31.0 
142.750824 44.0 
142.779175 38.0 
142.822067 25.0 
142.854065 23.0 
142.92923 19.0 
142.948593 26.0 
142.976944 16.0 
142.993607 17.0 
143.010666 9.0 
143.072174 24198.0 
143.132706 91.0 
143.16481 26.0 
143.183929 19.0 
143.202927 18.0 
143.222641 20.0 
143.236938 8.0 
143.268646 12.0 
143.305832 30.0 
143.334549 17.0 
143.360275 13.0 
143.387039 23.0 
143.415482 53.0 
143.430618 53.0 
143.474609 12.0 
143.536987 26.0 
143.560486 31.0 
143.605743 12.0 
143.628082 38.0 
143.655472 33.0 
143.711594 26.0 
143.816742 23.0 
143.840851 43.0 
143.864441 19.0 
143.883148 11.0 
143.903854 20.0 
143.922913 19.0 
143.96254 30.0 
143.988876 82.0 
144.026031 31.0 
144.043076 47.0 
144.079865 45604.0 
144.1353 10.0 
144.166824 11.0 
144.187653 41.0 
144.203934 31.0 
144.217712 26.0 
144.235046 62.0 
144.296005 32.0 
144.311768 67.0 
144.33252 25.0 
144.36319 10.0 
144.415726 17.0 
144.432388 39.0 
144.45192 16.0 
144.483612 55.0 
144.51239 28.0 
144.565582 52.0 
144.595352 31.0 
144.617584 12.0 
144.6586 25.0 
144.677658 14.0 
144.691101 21.0 
144.731873 36.0 
144.75441 11.0 
144.795746 31.0 
144.81308 22.0 
144.873734 23.0 
144.909912 12.0 
144.94017 13.0 
144.956619 27.0 
144.978455 19.0 
144.99588 15.0 
145.032059 46.0 
145.083328 4483.0 
145.114548 26.0 
145.151215 44.0 
145.184677 12.0 
145.205765 29.0 
145.232956 19.0 
145.255188 14.0 
145.276291 14.0 
145.302185 27.0 
145.331253 10.0 
145.352631 18.0 
145.375183 9.0 
145.403824 43.0 
145.481216 17.0 
145.499176 28.0 
145.530243 10.0 
145.559647 17.0 
145.629654 42.0 
145.651611 21.0 
145.686783 13.0 
145.720306 17.0 
145.760986 19.0 
145.835556 19.0 
145.865601 25.0 
145.900818 10.0 
145.935516 19.0 
145.951782 19.0 
146.022125 12.0 
146.047241 11.0 
146.085327 188.0 
146.131073 25.0 
146.146637 53.0 
146.18541 13.0 
146.231064 16.0 
146.265366 10.0 
146.283432 19.0 
146.365921 15.0 
146.43486 24.0 
146.484116 28.0 
146.516922 14.0 
146.538788 15.0 
146.552536 17.0 
146.587708 24.0 
146.608551 19.0 
146.734207 14.0 
146.770035 28.0 
146.844711 10.0 
146.955872 22.0 
147.00914 12.0 
147.071671 29.0 
147.092682 36.0 
147.106934 27.0 
147.13324 28.0 
147.180252 23.0 
147.275864 31.0 
147.298004 19.0 
147.31517 23.0 
147.335403 22.0 
147.354767 21.0 
147.368042 18.0 
147.398941 38.0 
147.444382 22.0 
147.473541 34.0 
147.536438 17.0 
147.553406 12.0 
147.608704 11.0 
147.629745 16.0 
147.647385 26.0 
147.663864 9.0 
147.710464 17.0 
147.74968 34.0 
147.791901 14.0 
147.812683 27.0 
147.827881 29.0 
147.888062 19.0 
147.905365 12.0 
147.930603 15.0 
147.996002 27.0 
148.0159 21.0 
148.056 12.0 
148.07756 34.0 
148.093384 32.0 
148.116074 13.0 
148.336685 24.0 
148.449448 35.0 
148.51329 10.0 
148.549957 29.0 
148.664246 10.0 
148.799179 17.0 
148.858047 17.0 
148.918472 19.0 
148.93663 12.0 
149.019791 29.0 
149.034073 25.0 
149.113968 22.0 
149.236511 11.0 
149.402237 14.0 
149.941055 20.0 
150.291855 22.0 
150.339935 15.0 
151.084213 30.0 
151.522156 12.0 
151.677277 12.0 
152.089478 18.0 
152.875565 11.0 
153.219101 14.0 
153.232773 18.0 
153.857773 10.0 
154.120667 22.0 
154.832718 13.0 
154.961975 11.0 
154.996841 10.0 
155.061066 191.0 
155.213394 10.0 
155.275009 16.0 
155.977661 9.0 
156.067047 68.0 
156.08046 58.0 
156.101227 349.0 
156.128906 24.0 
156.260712 14.0 
156.550125 15.0 
156.73349 15.0 
157.067078 23.0 
157.083527 55.0 
157.102844 30.0 
157.749741 15.0 
158.082581 73.0 
158.140488 18.0 
159.092361 200.0 
159.109283 51.0 
159.336655 9.0 
159.457123 12.0 
160.070755 18.0 
160.105103 35.0 
160.937149 11.0 
161.004349 13.0 
161.028412 14.0 
161.053604 18.0 
161.106949 2765.0 
161.1604 22.0 
161.503723 25.0 
162.007782 12.0 
162.110214 243.0 
162.428543 10.0 
162.569748 19.0 
162.636978 15.0 
163.115417 25.0 
163.287613 13.0 
163.599869 12.0 
165.267029 17.0 
165.454788 18.0 
166.247086 21.0 
166.290573 51.0 
166.734863 20.0 
167.041748 32.0 
167.429779 24.0 
167.987823 33.0 
168.083633 22.0 
168.763824 15.0 
168.969025 11.0 
169.190216 18.0 
169.262772 30.0 
169.391479 11.0 
169.489868 15.0 
169.551407 33.0 
169.570084 15.0 
169.815521 22.0 
169.847519 17.0 
169.893021 18.0 
169.946899 12.0 
169.971359 45.0 
169.992676 88.0 
170.027618 78.0 
170.050537 92.0 
170.079651 81.0 
170.094696 115.0 
170.116684 62.0 
170.124725 107.0 
170.153854 86777.0 
170.245422 60.0 
170.267212 31.0 
170.294907 37.0 
170.314194 21.0 
170.342484 31.0 
170.36702 26.0 
170.393768 25.0 
170.414261 45.0 
170.452347 19.0 
170.480042 9.0 
170.517151 45.0 
170.543106 10.0 
170.566742 10.0 
170.598282 27.0 
170.631073 20.0 
170.657486 41.0 
170.698425 27.0 
170.717804 23.0 
170.757736 22.0 
170.801208 25.0 
170.875244 20.0 
170.890228 24.0 
170.936249 18.0 
170.954498 34.0 
170.971878 26.0 
170.993881 24.0 
171.039841 19.0 
171.07431 9.0 
171.09259 19.0 
171.108185 43.0 
171.128708 30.0 
171.156906 8896.0 
171.218918 19.0 
171.235916 23.0 
171.25679 21.0 
171.271851 39.0 
171.301453 21.0 
171.336044 29.0 
171.357407 21.0 
171.380859 18.0 
171.40654 26.0 
171.445663 33.0 
171.473251 30.0 
171.493744 28.0 
171.52298 17.0 
171.557831 25.0 
171.605942 30.0 
171.647491 10.0 
171.679321 27.0 
171.705765 12.0 
171.736389 30.0 
171.757111 11.0 
171.780884 11.0 
171.9021 25.0 
171.921738 41.0 
171.953262 8.0 
171.977753 26.0 
172.009659 12.0 
172.078583 30.0 
172.128952 16.0 
172.160477 594.0 
172.210663 11.0 
172.26297 19.0 
172.28096 13.0 
172.300064 12.0 
172.366074 23.0 
172.411789 10.0 
172.43222 16.0 
172.454117 10.0 
172.469101 31.0 
172.541901 21.0 
172.648773 18.0 
172.712265 19.0 
172.781433 18.0 
172.815338 12.0 
172.848251 20.0 
172.914642 12.0 
172.93811 15.0 
172.966629 21.0 
172.989838 21.0 
173.047531 21.0 
173.079971 30.0 
173.1064 108.0 
173.163788 68.0 
173.185806 29.0 
173.237625 27.0 
173.280731 14.0 
173.306808 25.0 
173.340546 19.0 
173.373459 13.0 
173.399658 30.0 
173.426453 20.0 
173.453293 22.0 
173.476715 11.0 
173.493851 20.0 
173.519012 18.0 
173.539688 15.0 
173.554871 18.0 
173.580048 24.0 
173.598846 18.0 
173.618881 45.0 
173.640045 16.0 
173.6595 23.0 
173.687881 11.0 
173.713135 14.0 
173.754791 10.0 
173.778625 34.0 
173.814026 12.0 
173.855621 34.0 
173.873627 59.0 
173.915771 24.0 
173.934601 19.0 
173.960205 10.0 
173.989349 14.0 
174.007111 36.0 
174.030151 44.0 
174.053238 16.0 
174.084747 16.0 
174.116364 31.0 
174.156387 26.0 
174.1931 9.0 
174.229736 41.0 
174.249222 18.0 
174.278137 17.0 
174.340424 16.0 
174.36058 17.0 
174.413879 12.0 
174.451462 25.0 
174.477463 13.0 
174.527908 29.0 
174.566605 23.0 
174.649734 35.0 
174.692642 22.0 
174.710434 12.0 
174.749405 13.0 
174.804337 17.0 
174.853043 25.0 
174.999588 28.0 
175.04422 17.0 
175.090622 36.0 
175.114594 15.0 
175.163116 15.0 
175.251938 10.0 
175.40004 15.0 
175.481934 15.0 
175.526535 9.0 
175.543121 42.0 
175.597122 19.0 
175.647354 21.0 
175.685226 11.0 
175.780243 9.0 
175.808945 16.0 
175.843674 12.0 
175.957565 18.0 
175.987686 8.0 
176.00972 19.0 
176.086807 30.0 
176.204819 11.0 
176.304321 34.0 
176.333694 29.0 
176.419769 12.0 
176.438934 24.0 
176.520538 14.0 
176.622223 11.0 
176.746292 9.0 
177.174774 14.0 
177.200546 14.0 
177.338501 13.0 
177.581757 23.0 
177.665054 13.0 
177.693497 11.0 
177.716965 12.0 
177.773056 24.0 
177.844711 8.0 
177.873627 14.0 
178.15416 14.0 
178.249222 22.0 
178.280014 29.0 
179.585312 13.0 
179.615158 17.0 
179.700607 16.0 
179.717911 18.0 
179.979492 31.0 
180.137878 155.0 
180.562637 21.0 
180.741791 23.0 
181.087692 21.0 
181.146439 12.0 
181.459061 18.0 
182.129135 23.0 
182.155197 23.0 
182.535233 27.0 
182.781174 30.0 
182.870712 9.0 
183.092133 21.0 
183.111877 34.0 
183.345718 15.0 
184.104202 10.0 
184.1362 10.0 
184.172272 46.0 
184.480896 21.0 
184.903534 10.0 
185.057388 17.0 
185.098389 45.0 
185.220245 33.0 
185.556351 14.0 
185.959579 9.0 
186.10672 32.0 
186.929581 21.0 
187.087189 102.0 
188.11557 12.0 
189.10408 67.0 
191.626816 15.0 
192.128616 19.0 
192.148102 30.0 
194.091019 43.0 
194.248611 10.0 
194.703705 18.0 
195.281906 9.0 
195.406799 12.0 
195.815079 12.0 
196.24614 27.0 
196.310333 14.0 
196.478897 12.0 
196.603577 23.0 
196.650024 29.0 
196.692932 20.0 
196.754669 19.0 
196.778168 36.0 
196.815109 39.0 
196.925751 35.0 
196.968933 33.0 
197.040924 14.0 
197.120377 44.0 
197.163055 24.0 
197.213486 29.0 
197.228363 33.0 
197.262482 11.0 
197.29393 9.0 
197.339203 33.0 
197.418304 34.0 
197.450851 29.0 
197.470581 50.0 
197.503174 77.0 
197.557632 58.0 
197.595261 40.0 
197.646881 43.0 
197.67128 23.0 
197.709518 48.0 
197.754028 90.0 
197.781952 32.0 
197.810242 14.0 
197.87294 46.0 
197.878967 73.0 
197.944977 217.0 
197.967346 253.0 
198.001953 368.0 
198.018723 351.0 
198.039642 440.0 
198.057693 495.0 
198.095703 540.0 
198.108078 529.0 
198.148697 755461.0 
198.218781 160.0 
198.255188 429.0 
198.276016 264.0 
198.293686 160.0 
198.32605 340.0 
198.390701 216.0 
198.450958 116.0 
198.473541 125.0 
198.504761 114.0 
198.544449 44.0 
198.578674 141.0 
198.606079 201.0 
198.64151 78.0 
198.675095 91.0 
198.713806 101.0 
198.736267 89.0 
198.79541 67.0 
198.818146 113.0 
198.842987 58.0 
198.861099 68.0 
198.892303 79.0 
198.920776 66.0 
198.938431 105.0 
198.96402 159.0 
198.999527 202.0 
199.016922 153.0 
199.04335 94.0 
199.072464 145.0 
199.105545 109.0 
199.152008 88874.0 
199.22319 140.0 
199.242783 156.0 
199.283112 103.0 
199.286102 76.0 
199.31485 149.0 
199.34079 143.0 
199.367752 90.0 
199.387741 120.0 
199.417862 102.0 
199.442566 152.0 
199.477219 142.0 
199.497025 144.0 
199.526733 134.0 
199.546921 80.0 
199.566986 160.0 
199.595993 144.0 
199.66156 126.0 
199.686661 109.0 
199.69487 80.0 
199.715179 131.0 
199.758774 104.0 
199.784271 87.0 
199.82283 79.0 
199.850601 78.0 
199.874817 95.0 
199.912277 77.0 
199.935623 123.0 
199.975403 50.0 
200.013046 55.0 
200.038437 79.0 
200.057541 81.0 
200.087845 86.0 
200.154449 6558.0 
200.219681 59.0 
200.250381 34.0 
200.264832 35.0 
200.29332 40.0 
200.324051 30.0 
200.338654 61.0 
200.37439 71.0 
200.398712 38.0 
200.414459 82.0 
200.435287 53.0 
200.447433 59.0 
200.466827 34.0 
200.50441 71.0 
200.538803 68.0 
200.561874 21.0 
200.60051 105.0 
200.652695 68.0 
200.693146 63.0 
200.749374 83.0 
200.773499 62.0 
200.798645 33.0 
200.817856 29.0 
200.84079 51.0 
200.871338 18.0 
200.906342 68.0 
200.944122 37.0 
200.977692 29.0 
200.998245 92.0 
201.017715 45.0 
201.053329 52.0 
201.07634 56.0 
201.1577 574.0 
201.201553 47.0 
201.218323 44.0 
201.271484 40.0 
201.298203 13.0 
201.320297 49.0 
201.33963 90.0 
201.361099 34.0 
201.412155 59.0 
201.447372 48.0 
201.504059 81.0 
201.528915 17.0 
201.558304 143.0 
201.583023 52.0 
201.59848 59.0 
201.631729 101.0 
201.659073 72.0 
201.698425 58.0 
201.751404 102.0 
201.785934 128.0 
201.841766 100.0 
201.862732 101.0 
201.91449 129.0 
201.946335 126.0 
201.967758 58.0 
201.986862 133.0 
202.026276 68.0 
202.048782 82.0 
202.075958 87.0 
202.100342 125.0 
202.116104 126.0 
202.156097 164.0 
202.191116 114.0 
202.213531 82.0 
202.231171 123.0 
202.259888 135.0 
202.282211 153.0 
202.303024 112.0 
202.322906 99.0 
202.355011 140.0 
202.388672 162.0 
202.406403 132.0 
202.425949 169.0 
202.470886 151.0 
202.489685 97.0 
202.513977 67.0 
202.539017 88.0 
202.565002 104.0 
202.606277 77.0 
202.630447 43.0 
202.655396 79.0 
202.672531 88.0 
202.707199 41.0 
202.74852 113.0 
202.781525 56.0 
202.812424 28.0 
202.83284 48.0 
202.851517 65.0 
202.879791 30.0 
202.932022 44.0 
202.975494 40.0 
203.012268 16.0 
203.034042 83.0 
203.069199 75.0 
203.095139 67.0 
203.115936 53.0 
203.143982 25.0 
203.191162 22.0 
203.215256 42.0 
203.247528 43.0 
203.276489 72.0 
203.297729 19.0 
203.321503 13.0 
203.338425 39.0 
203.362579 27.0 
203.388489 28.0 
203.422501 40.0 
203.447601 17.0 
203.505066 51.0 
203.543976 23.0 
203.564362 17.0 
203.590332 50.0 
203.618561 18.0 
203.66423 37.0 
203.696106 74.0 
203.745026 38.0 
203.772705 19.0 
203.808472 14.0 
203.831589 55.0 
203.85733 57.0 
203.912766 27.0 
203.939087 58.0 
203.966461 13.0 
203.985443 26.0 
204.030716 30.0 
204.052414 31.0 
204.098907 28.0 
204.119781 54.0 
204.165817 36.0 
204.209778 37.0 
204.241165 63.0 
204.259399 16.0 
204.303589 29.0 
204.331345 47.0 
204.351868 18.0 
204.388596 73.0 
204.444214 62.0 
204.474106 19.0 
204.506744 34.0 
204.552002 48.0 
204.57692 38.0 
204.596008 18.0 
204.641327 21.0 
204.658829 25.0 
204.692245 18.0 
204.73317 54.0 
204.766876 31.0 
204.783188 25.0 
204.799454 42.0 
204.828857 19.0 
204.878067 39.0 
204.895401 31.0 
204.916046 56.0 
204.972733 55.0 
204.994965 24.0 
205.034729 10.0 
205.053192 32.0 
205.074066 45.0 
205.149582 30.0 
205.18895 19.0 
205.212784 27.0 
205.25499 17.0 
205.322159 14.0 
205.337891 29.0 
205.375107 30.0 
205.398972 19.0 
205.456833 9.0 
205.462952 20.0 
205.48468 22.0 
205.578979 21.0 
205.599289 22.0 
205.662399 16.0 
205.717148 10.0 
205.775375 35.0 
205.807419 15.0 
205.835907 15.0 
205.855698 11.0 
205.916824 33.0 
205.953873 18.0 
205.999466 8.0 
206.064789 29.0 
206.081635 14.0 
206.158386 26.0 
206.207901 12.0 
206.242294 20.0 
206.279999 53.0 
206.312576 20.0 
206.382156 26.0 
206.407928 26.0 
206.430115 19.0 
206.454895 19.0 
206.475571 12.0 
206.498199 17.0 
206.519867 36.0 
206.563507 47.0 
206.619659 19.0 
206.687866 13.0 
206.724045 40.0 
206.82962 12.0 
206.872375 28.0 
206.897125 14.0 
206.919052 21.0 
206.946289 44.0 
206.998505 23.0 
207.042633 36.0 
207.077057 10.0 
207.102371 14.0 
207.154831 22.0 
207.177338 16.0 
207.201935 14.0 
207.266586 23.0 
207.306793 25.0 
207.361176 30.0 
207.456894 17.0 
207.481705 16.0 
207.731384 12.0 
207.882965 10.0 
207.903748 12.0 
207.942749 14.0 
208.033813 17.0 
208.066605 19.0 
208.146225 11.0 
208.170761 8.0 
208.34343 15.0 
208.41507 14.0 
208.462311 18.0 
208.537048 16.0 
208.579971 17.0 
208.619995 10.0 
208.679398 29.0 
208.703217 21.0 
208.753632 11.0 
208.792435 10.0 
208.864746 21.0 
208.954422 11.0 
208.996643 16.0 
209.058853 14.0 
209.102066 23.0 
209.140518 17.0 
209.186111 12.0 
209.533447 27.0 
209.718857 10.0 
209.919403 9.0 
210.173645 13.0 
210.269501 22.0 
210.294006 13.0 
210.348541 17.0 
210.450241 9.0 
210.493317 11.0 
210.597458 9.0 
210.651489 20.0 
211.173584 15.0 
211.237915 32.0 
211.43869 14.0 
211.468414 17.0 
211.720276 40.0 
212.082001 54.0 
212.115021 30.0 
212.165573 58.0 
212.2715 23.0 
212.493637 14.0 
212.600479 18.0 
212.669785 24.0 
212.907608 10.0 
213.098175 28.0 
213.162949 24.0 
213.241974 17.0 
213.322952 25.0 
213.859802 11.0 
214.012527 14.0 
214.094543 12.0 
214.151581 10.0 
214.202103 14.0 
214.318726 13.0 
214.427567 18.0 
214.543701 32.0 
215.018295 16.0 
215.155701 11.0 
215.994553 14.0 
216.072433 37.0 
216.269882 14.0 
216.323166 30.0 
216.500015 16.0 
216.654541 17.0 
216.887909 15.0 
217.509384 12.0 
217.992279 14.0 
218.355057 10.0 
218.664459 13.0 
218.785431 15.0 
219.792114 33.0 
220.33931 10.0 
220.457291 19.0 
220.546143 34.0 
220.564224 18.0 
220.723801 14.0 
220.851471 25.0 
221.131821 26.0 
222.135559 24.0 
222.867355 14.0 
223.14505 29.0 
223.282043 11.0 
223.561768 19.0 
223.632324 25.0 
223.765701 24.0 
223.999573 13.0 
224.021957 15.0 
224.349411 22.0 
224.471115 11.0 
224.730865 46.0 
224.81015 19.0 
224.836792 54.0 
224.866425 23.0 
225.005692 13.0 
225.031097 12.0 
225.070496 21.0 
225.093567 38.0 
225.138962 60.0 
225.163483 59.0 
225.205566 42.0 
225.242813 11.0 
225.286789 35.0 
225.383316 26.0 
225.41893 22.0 
225.440079 33.0 
225.484421 32.0 
225.524277 18.0 
225.550262 26.0 
225.596558 29.0 
225.611694 43.0 
225.646194 14.0 
225.669601 19.0 
225.693787 39.0 
225.730392 8.0 
225.770462 28.0 
225.803131 13.0 
225.845016 54.0 
225.864517 148.0 
225.883606 96.0 
225.919495 183.0 
225.965347 253.0 
225.973297 184.0 
225.99791 262.0 
226.036301 118.0 
226.088974 387.0 
226.143661 425089.0 
226.242981 169.0 
226.28096 109.0 
226.320679 173.0 
226.341125 124.0 
226.398132 107.0 
226.455048 102.0 
226.468369 77.0 
226.505875 99.0 
226.524796 106.0 
226.592194 78.0 
226.638702 136.0 
226.656219 113.0 
226.697403 89.0 
226.719864 60.0 
226.759842 83.0 
226.798325 51.0 
226.856583 85.0 
226.880432 79.0 
226.931503 100.0 
226.951874 54.0 
226.976273 86.0 
227.004486 106.0 
227.045197 82.0 
227.082092 101.0 
227.147064 49983.0 
227.228241 74.0 
227.244034 73.0 
227.260437 65.0 
227.307114 57.0 
227.329773 52.0 
227.354202 106.0 
227.378235 65.0 
227.396805 61.0 
227.423981 65.0 
227.455795 67.0 
227.481476 32.0 
227.503799 109.0 
227.524094 80.0 
227.554749 48.0 
227.573441 106.0 
227.595306 37.0 
227.618362 66.0 
227.642288 62.0 
227.674301 67.0 
227.7146 88.0 
227.745834 57.0 
227.770645 73.0 
227.820145 92.0 
227.860153 85.0 
227.924194 85.0 
227.95163 72.0 
227.980011 106.0 
228.012573 55.0 
228.034439 42.0 
228.059708 96.0 
228.079575 81.0 
228.149307 5601.0 
228.195648 32.0 
228.208008 36.0 
228.256577 60.0 
228.308426 58.0 
228.382126 41.0 
228.421051 52.0 
228.46463 42.0 
228.501617 25.0 
228.528671 71.0 
228.549744 51.0 
228.593033 50.0 
228.634155 46.0 
228.649597 43.0 
228.700607 39.0 
228.718674 37.0 
228.747574 21.0 
228.795761 52.0 
228.835175 36.0 
228.867523 54.0 
228.914261 50.0 
228.93602 46.0 
228.983841 52.0 
229.027939 23.0 
229.048569 22.0 
229.075348 20.0 
229.095795 48.0 
229.120682 31.0 
229.152634 445.0 
229.176651 34.0 
229.212601 36.0 
229.265289 10.0 
229.299194 30.0 
229.346237 22.0 
229.365372 71.0 
229.391205 26.0 
229.417603 15.0 
229.46698 30.0 
229.502197 63.0 
229.522644 79.0 
229.577682 25.0 
229.621384 64.0 
229.641037 40.0 
229.666992 40.0 
229.696014 51.0 
229.723495 53.0 
229.755814 27.0 
229.779694 18.0 
229.814362 46.0 
229.862534 67.0 
229.890762 82.0 
229.921738 40.0 
229.942429 46.0 
229.985031 59.0 
230.008972 74.0 
230.075394 65.0 
230.101929 41.0 
230.130875 46.0 
230.154755 77.0 
230.183075 55.0 
230.220642 43.0 
230.237335 91.0 
230.260925 65.0 
230.296967 64.0 
230.338531 104.0 
230.385468 131.0 
230.411087 66.0 
230.43956 94.0 
230.472824 65.0 
230.491119 65.0 
230.516357 47.0 
230.546768 80.0 
230.578598 49.0 
230.623932 81.0 
230.676758 74.0 
230.703232 82.0 
230.759476 53.0 
230.778793 74.0 
230.808289 44.0 
230.845779 59.0 
230.866196 43.0 
230.913544 28.0 
230.930878 67.0 
230.989548 61.0 
231.02713 62.0 
231.060471 58.0 
231.091507 50.0 
231.124023 49.0 
231.179855 19.0 
231.205048 37.0 
231.290283 38.0 
231.323547 54.0 
231.348862 32.0 
231.374344 12.0 
231.39801 16.0 
231.434006 35.0 
231.488007 15.0 
231.510162 43.0 
231.541992 29.0 
231.57225 16.0 
231.596252 20.0 
231.618469 33.0 
231.641754 24.0 
231.67601 8.0 
231.701614 23.0 
231.720352 38.0 
231.76033 31.0 
231.781891 35.0 
231.810211 25.0 
231.853027 33.0 
231.894989 21.0 
231.923264 60.0 
231.945694 24.0 
231.96875 9.0 
231.995224 20.0 
232.021606 12.0 
232.052643 20.0 
232.120667 15.0 
232.162186 24.0 
232.206604 54.0 
232.2435 45.0 
232.308365 22.0 
232.323151 36.0 
232.357544 11.0 
232.388641 28.0 
232.420914 20.0 
232.445618 18.0 
232.507919 21.0 
232.570435 26.0 
232.60498 48.0 
232.63678 19.0 
232.689316 35.0 
232.722122 17.0 
232.748535 12.0 
232.792618 28.0 
232.811523 34.0 
232.84494 15.0 
232.886505 16.0 
232.932465 30.0 
232.976761 26.0 
233.046722 29.0 
233.110779 23.0 
233.167038 18.0 
233.207779 58.0 
233.229584 43.0 
233.289795 11.0 
233.333511 24.0 
233.373703 8.0 
233.435349 23.0 
233.495499 15.0 
233.552231 10.0 
233.592331 11.0 
233.611267 35.0 
233.653229 22.0 
233.675385 19.0 
233.705246 30.0 
233.775742 18.0 
233.796265 11.0 
233.835388 20.0 
233.902267 17.0 
233.954178 13.0 
234.010849 12.0 
234.062286 26.0 
234.131653 9.0 
234.244125 8.0 
234.283264 23.0 
234.355957 18.0 
234.375504 21.0 
234.396072 25.0 
234.479202 21.0 
234.502884 26.0 
234.625351 12.0 
234.657303 14.0 
234.742569 13.0 
234.78775 13.0 
234.808502 21.0 
234.859924 13.0 
234.917587 11.0 
234.949921 38.0 
234.971146 12.0 
235.032608 23.0 
235.085678 16.0 
235.108566 26.0 
235.133011 14.0 
235.178513 16.0 
235.201218 17.0 
235.246811 27.0 
235.26738 19.0 
235.31221 25.0 
235.366882 49.0 
235.385696 31.0 
235.422318 18.0 
235.470505 9.0 
235.490936 30.0 
235.56926 16.0 
235.594101 22.0 
235.636032 27.0 
235.661179 33.0 
235.692169 29.0 
235.770462 20.0 
235.837845 9.0 
235.889908 27.0 
235.908859 12.0 
235.961472 19.0 
236.084824 27.0 
236.140457 32.0 
236.209656 22.0 
236.238159 19.0 
236.453339 18.0 
236.540207 14.0 
236.66333 13.0 
236.816513 25.0 
236.852173 19.0 
236.875504 11.0 
236.919846 10.0 
237.240097 49.0 
237.310501 21.0 
237.510468 16.0 
237.549683 17.0 
237.609116 11.0 
237.734299 21.0 
237.781235 34.0 
237.805084 31.0 
238.042099 15.0 
238.082855 16.0 
238.14357 19.0 
238.222015 21.0 
238.246902 29.0 
238.2677 11.0 
238.369736 14.0 
238.612381 10.0 
239.098831 21.0 
239.814362 11.0 
239.893204 12.0 
240.036758 31.0 
240.338303 11.0 
240.800491 15.0 
241.126526 16.0 
241.302505 19.0 
241.328964 15.0 
241.940308 12.0 
242.174789 22.0 
242.240891 16.0 
242.368637 8.0 
242.888077 11.0 
243.043427 14.0 
243.103363 21.0 
243.170471 55.0 
243.642151 10.0 
243.747818 24.0 
244.423309 52.0 
245.110748 23.0 
245.164627 43.0 
245.64061 22.0 
246.06395 9.0 
246.613739 11.0 
247.163269 21.0 
247.920959 12.0 
247.95224 11.0 
248.608459 12.0 
248.99733 18.0 
249.223846 12.0 
249.293228 11.0 
250.060013 11.0 
250.27919 24.0 
250.731567 15.0 
250.97818 16.0 
251.187393 19.0 
253.005295 10.0 
253.780121 10.0 
254.122238 12.0 
254.210526 23.0 
254.583847 14.0 
254.790466 23.0 
255.109894 15.0 
255.148544 40.0 
255.210587 23.0 
255.857117 19.0 
256.134949 18.0 
256.4104 14.0 
257.036743 20.0 
258.208191 11.0 
261.289948 13.0 
263.625061 18.0 
263.913513 21.0 
265.351776 17.0 
266.867615 10.0 
266.96524 25.0 
268.105896 60.0 
268.156586 18.0 
268.631042 18.0 
268.814392 15.0 
269.118256 31.0 
269.194 11.0 
269.295868 17.0 
271.56131 29.0 
272.175873 76.0 
272.435425 9.0 
273.153931 21.0 
273.224609 25.0 
273.349945 18.0 
273.917389 10.0 
273.974335 13.0 
274.000854 12.0 
274.117249 33.0 
274.191406 2169.0 
274.265167 17.0 
274.297089 12.0 
274.363098 15.0 
274.39743 11.0 
274.466461 29.0 
275.009613 12.0 
275.195251 291.0 
275.250122 31.0 
275.27655 11.0 
276.206421 25.0 
276.381866 18.0 
277.126587 18.0 
277.637665 11.0 
277.716064 17.0 
278.374298 19.0 
278.556763 16.0 
278.736755 17.0 
278.847839 30.0 
279.115479 10.0 
279.707672 28.0 
279.744812 8.0 
279.899231 15.0 
280.555634 22.0 
281.469543 16.0 
284.139282 25.0 
285.110718 11.0 
287.109406 23.0 
292.891632 17.0 
293.105865 29.0 
293.910858 13.0 
296.090851 10.0 
297.179108 16.0 
297.615265 18.0 
298.953094 9.0 
299.103546 17.0 
308.746033 9.0 
311.087921 25.0 
311.163452 68.0 
312.16983 172.0 
313.177002 45.0 
314.17923 14.0 
322.2258 13.0 
325.407104 26.0 
326.039276 9.0 
327.15979 21.0 
334.23822 22.0 
339.173187 23.0 
340.236206 25.0 
348.25946 21.0 
349.698395 20.0 
355.421326 13.0 
356.163452 24.0 
358.248413 12.0 
368.23172 74.0 
368.277496 12.0 
368.959351 15.0 
369.24295 18.0 
369.432098 18.0 
383.261108 21.0 
385.314178 25.0 
386.236877 50.0 
386.29425 22.0 
386.327301 21.0 
386.36142 19.0 
387.015533 16.0 
387.185699 12.0 
387.241943 33.0 
387.273071 133.0 
387.424225 10.0 
387.592041 11.0 
387.866699 9.0 
388.243652 21.0 
389.029388 14.0 
389.267273 16.0 
390.279694 34.0 
390.338135 16.0 
427.712097 18.0 
450.457092 15.0 
450.697754 26.0 
471.189026 14.0 
491.705353 17.0 
534.65802 23.0 
625.917114 43.0 
644.709839 34.0 
653.920166 66.0 
663.076416 18.0 
666.200073 10.0 
669.265625 22.0 
671.9328 34.0 
683.069214 35.0 
683.374207 21.0 
686.901489 26.0 
689.961304 24.0 
695.68866 25.0 
696.769653 28.0 
707.326355 30.0 
708.03833 40.0 
710.774414 9.0 
712.060425 38.0 
714.636169 43.0 
723.372925 19.0 
724.486328 15.0 
725.019226 25.0 
737.15271 23.0 
746.624084 28.0 
751.966858 45.0 
756.374878 17.0 
756.406738 18.0 
756.670776 21.0 
758.645203 14.0 
763.831116 48.0 
773.93335 12.0 
774.736816 37.0 
781.349854 38.0 
788.397644 35.0 
788.914551 42.0 
801.050598 26.0 
807.828674 14.0 
808.81311 56.0 
809.83252 38.0 
819.966248 31.0 
822.897461 48.0 
824.392517 23.0 
825.345825 34.0 
827.100037 37.0 
827.678162 50.0 
828.053589 25.0 
830.779907 48.0 
831.5 18.0 
832.832153 12.0 
838.005493 33.0 
838.912292 25.0 
839.86853 29.0 
842.612427 24.0 
846.187988 47.0 
851.2099 27.0 
855.483093 24.0 
856.196106 29.0 
856.96405 20.0 
863.924011 23.0 
865.143677 32.0 
869.615723 46.0 
871.029358 27.0 
873.795593 29.0 
875.262207 21.0 
885.935608 27.0 
887.731873 35.0 
893.400879 33.0 
903.026245 27.0 
903.533081 16.0 
903.870056 43.0 
905.056335 45.0 
907.533691 10.0 
909.202393 12.0 
911.930847 20.0 
915.646667 14.0 
921.336853 26.0 
930.030579 26.0 
934.806885 13.0 
940.859741 42.0 
941.140442 45.0 
941.812866 18.0 
942.902222 21.0 
942.938416 14.0 
943.012329 54.0 
943.297974 25.0 
947.275208 22.0 
950.1203 30.0 
953.737976 34.0 
957.851318 25.0 
959.254333 21.0 
960.250183 31.0 
963.968323 44.0 
966.872375 14.0 
967.049072 43.0 
968.124817 33.0 
975.935181 12.0 
978.574219 14.0 
979.786865 13.0 
980.117126 43.0 
981.000793 8.0 
988.633484 38.0 
991.555481 19.0 
1006.399048 37.0 
1008.105347 32.0 
1010.021851 23.0 
1018.648499 22.0 
1019.55072 31.0 
1019.873657 18.0 
1024.891724 17.0 
1026.137573 21.0 
1028.919067 31.0 
1033.901489 32.0 
1035.728516 46.0 
1039.92981 33.0 
1039.979126 33.0 
1053.606445 33.0 
1055.405884 27.0 
1057.503784 30.0 
1060.116577 35.0 
1060.644287 44.0 
1063.023682 40.0 
1063.304565 16.0 
1065.686279 26.0 
1065.903076 30.0 
1069.365356 21.0 
1077.505615 30.0 
1083.716064 13.0 
1095.527954 12.0 
1097.167114 43.0 
1097.876343 30.0 
1103.04187 38.0 
1122.645996 29.0 
1125.596924 13.0 
1125.754639 15.0 
1128.632935 23.0 
1130.443359 37.0 
1135.08728 28.0 
1135.503174 29.0 
1138.614502 36.0 
1139.412109 39.0 
1139.604248 11.0 
1142.288574 34.0 
1144.299927 41.0 
1145.321045 44.0 
1147.879272 34.0 
1151.996216 12.0 
1154.556152 35.0 
1161.743286 46.0 
1163.40918 31.0 
1163.817139 19.0 
1165.630981 35.0 
1179.208496 11.0 
1185.653809 32.0 
1190.912354 15.0 
1193.62854 27.0 
1197.147461 27.0 
1202.241211 27.0 
1203.403198 44.0 
END IONS

