BEGIN IONS
PEPMASS=1073.45
CHARGE=1+
MSLEVEL=2
SOURCE_INSTRUMENT=LC-ESI-qTof
FILENAME=f.RReher/Culebra/pure_compounds/1071_Br_LoggerpeptinA2/2286_crude_3.50min_1073.4468_Br81_MS2_M+H_LoggerpetinA2.mgf;
SEQ=*..*
IONMODE=Positive
ORGANISM=GNPS-LIBRARY
NAME=Loggerpeptin A2  M+H
PI=Gerwick
DATACOLLECTOR=Reher
SMILES=C[C@@H](C(N[C@H](C(N[C@H]1[C@@H](C)OC([C@H](C(C)C)NC(C(CC2=CC=C(O)C(Br)=C2)N(C)C([C@H](CC3=CC=CC=C3)N4[C@H](O)CCC(NC([C@H](CC(C)C)NC1=O)=O)C4=O)=O)=O)=O)=O)[C@@H](O)C)=O)NC(CCC)=O
INCHI=
INCHIAUX=
PUBMED=
SUBMITUSER=RReher
LIBRARYQUALITY=3
SPECTRUMID=CCMSLIB00005720233
SCANS=1
74.028427 318.0 
75.033646 80.0 
79.492142 69.0 
86.067665 999.0 
96.045097 65.0 
96.401794 64.0 
114.066071 1190.0 
115.07164 80.0 
118.020004 92.0 
120.056503 3432.0 
121.058319 281.0 
131.0952 70.0 
139.065109 228.0 
141.044556 531.0 
142.063919 7173.0 
143.067688 336.0 
143.740799 67.0 
144.063416 152.0 
146.07547 64.0 
153.115494 115.0 
155.060623 84.0 
155.0961 69.0 
157.073792 211.0 
158.07518 1370.0 
159.077057 139.0 
164.093643 144.0 
167.061523 7206.0 
167.100769 89.0 
168.067368 621.0 
169.114014 650.0 
170.076859 1011.0 
171.080856 80.0 
172.095291 312.0 
173.069366 167.0 
173.095245 120.0 
176.052124 132.0 
181.11409 458.0 
182.115311 97.0 
185.072617 3253.0 
186.078979 476.0 
187.104965 5302.0 
188.109436 854.0 
195.061996 89.0 
195.093979 69.0 
197.110962 1544.0 
198.073212 93.0 
198.113663 204.0 
199.087463 65.0 
203.083405 72.0 
209.111176 798.0 
210.114624 113.0 
215.101379 17792.0 
216.10498 2164.0 
217.107544 224.0 
225.107162 1400.0 
226.069077 979.0 
226.108566 109.0 
226.140549 670.0 
226.943176 68.0 
227.073242 78.0 
227.103302 159.0 
227.141174 128.0 
227.986481 11722.0 
228.107071 71.0 
228.988953 965.0 
229.98468 10780.0 
230.986954 1377.0 
231.9888 95.0 
232.149155 75.0 
236.125732 151.0 
238.103363 485.0 
241.083313 166.0 
242.085159 75.0 
242.957916 89.0 
243.042923 112.0 
243.098587 39086.0 
243.185883 89.0 
243.518753 78.0 
244.10228 7495.0 
245.102921 641.0 
252.157349 1438.0 
253.083405 93.0 
253.160141 295.0 
254.136505 259.0 
255.159531 102.0 
255.979355 185.0 
261.110504 882.0 
262.142365 125.0 
264.122864 215.0 
266.134857 191.0 
268.114929 192.0 
268.196594 79.0 
269.11911 142.0 
270.16806 505.0 
271.156677 116.0 
272.069183 66.0 
273.990662 79.0 
274.141022 70.0 
280.154236 1377.0 
280.393768 64.0 
281.160004 176.0 
282.133057 4580.0 
283.138458 849.0 
283.168152 3162.0 
283.976471 318.0 
284.135742 111.0 
284.174011 531.0 
285.156097 68.0 
285.979889 232.0 
289.038116 73.0 
290.136627 503.0 
292.158051 158.0 
292.523163 65.0 
296.186615 169.0 
297.179504 88.0 
298.103851 67.0 
298.164886 4727.0 
299.168121 1084.0 
300.14505 471.0 
300.187744 210.0 
301.151947 160.0 
302.159393 95.0 
307.995697 65.0 
308.039703 102.0 
308.150177 62308.0 
308.265656 71.0 
308.484863 67.0 
309.152863 10973.0 
309.833435 67.0 
310.118317 94.0 
310.156952 1316.0 
310.344086 70.0 
311.096863 69.0 
311.164825 4602.0 
311.232117 123.0 
312.169128 992.0 
313.174744 155.0 
314.171204 106.0 
316.150452 77.0 
316.180695 293.0 
324.171204 74.0 
325.021729 104.0 
325.178802 254.0 
326.032776 115.0 
326.161377 76083.0 
326.938965 65.0 
327.060333 572.0 
327.16452 12940.0 
327.517914 83.0 
328.022766 72.0 
328.06723 127.0 
328.191406 3671.0 
329.06015 314.0 
329.195221 728.0 
330.202911 163.0 
334.166168 122.0 
334.98941 89.0 
338.189362 70.0 
339.123596 157.0 
339.162445 464.0 
340.168945 135.0 
341.019714 86.0 
341.074402 201.0 
342.078125 104.0 
342.170227 112.0 
343.078278 188.0 
343.179871 70.0 
344.079865 118.0 
344.173065 3459.0 
345.177582 932.0 
349.2117 85.0 
351.024109 77.0 
351.197021 74.0 
353.040863 101.0 
354.184845 138.0 
355.057922 508.0 
355.131592 76.0 
356.056915 99.0 
356.188995 6522.0 
357.050598 429.0 
357.189697 1446.0 
358.194366 131.0 
360.180603 192.0 
361.190735 68.0 
366.20578 178.0 
367.225525 1771.0 
368.230255 318.0 
369.203064 154.0 
371.073273 173.0 
371.176056 97.0 
373.069366 6240.0 
374.070282 952.0 
374.205536 344.0 
375.066589 5847.0 
375.228058 320.0 
376.07077 564.0 
377.063568 69.0 
377.210785 237.0 
378.214355 89.0 
382.173157 83.0 
383.16803 91.0 
383.238251 69.0 
384.186951 73.0 
385.241058 66.0 
386.03183 3114.0 
386.204987 101.0 
387.036133 899.0 
388.030457 2961.0 
389.033722 695.0 
392.217102 153.0 
393.243042 4909.0 
394.245209 929.0 
395.223602 1643.0 
396.222015 477.0 
397.24054 231.0 
401.083954 141.0 
403.065826 528.0 
403.2276 201.0 
404.058746 177.0 
404.236359 141.0 
405.056671 284.0 
405.230835 75.0 
408.177582 65.0 
409.180176 265.0 
410.102203 533.0 
410.234009 132.0 
411.096558 167.0 
411.253662 1801.0 
412.101349 381.0 
412.215881 241.0 
412.256165 446.0 
413.082581 153.0 
413.230286 144.0 
415.065918 72.0 
421.238281 6522.0 
422.205933 472.0 
422.244019 1448.0 
423.201569 369.0 
423.244812 458.0 
425.083008 258.0 
425.229614 405.0 
426.236633 81.0 
426.265961 69.0 
427.075958 145.0 
427.19577 143.0 
428.112823 1248.0 
428.197998 123.0 
428.252594 76.0 
429.079987 356.0 
429.267639 547.0 
430.111267 1205.0 
430.255096 113.0 
431.070282 225.0 
431.112305 347.0 
432.086945 97.0 
437.234924 142.0 
438.235321 203.0 
439.079102 75.0 
439.249847 70293.0 
439.380859 77.0 
440.077881 127.0 
440.253174 18194.0 
440.359039 68.0 
441.076721 272.0 
441.255981 2806.0 
442.071625 218.0 
442.256317 235.0 
443.074829 161.0 
443.248047 360.0 
444.071777 71.0 
444.250061 117.0 
445.199738 85.0 
452.114349 88.0 
453.079132 856.0 
453.221954 82.0 
454.074219 66.0 
454.112732 72.0 
455.071899 599.0 
455.266602 95.0 
456.078491 159.0 
456.113892 105.0 
457.259338 3128.0 
458.112579 119.0 
458.268005 648.0 
459.094788 128.0 
459.265198 305.0 
461.264832 80.0 
467.227631 540.0 
468.25058 402.0 
469.266998 76.0 
470.103851 126.0 
472.103333 130.0 
473.108826 112.0 
473.275024 232.0 
474.289062 71.0 
475.122711 167.0 
475.253174 181.0 
476.148346 66.0 
476.257172 118.0 
477.11795 76.0 
480.222534 85.0 
481.079254 88.0 
484.071472 74.0 
484.110321 164.0 
485.237549 227.0 
486.086121 96.0 
486.245392 65.0 
488.272308 106.0 
490.291107 75.0 
494.273285 600.0 
495.27774 284.0 
496.261017 308.0 
497.257416 105.0 
497.589661 73.0 
497.780914 68.0 
497.988403 158.0 
498.099396 53959.0 
498.221558 91.0 
499.102356 16272.0 
499.269287 81.0 
499.856293 68.0 
499.947479 84.0 
500.003632 150.0 
500.097626 53510.0 
500.2229 90.0 
500.547394 76.0 
501.020416 106.0 
501.100464 14733.0 
501.721497 82.0 
502.050964 148.0 
502.104767 1903.0 
503.112152 295.0 
504.06958 89.0 
504.259247 109.0 
505.239563 84.0 
506.220886 90.0 
507.150818 105.0 
508.072906 83.0 
509.152985 102.0 
512.282471 182.0 
514.269653 86.0 
516.112122 327.0 
516.282471 84.0 
517.11499 70.0 
518.110046 172.0 
521.138794 84.0 
522.143799 110.0 
522.268616 1579.0 
523.140198 108.0 
523.186157 299.0 
523.278381 345.0 
524.146179 98.0 
524.267334 186.0 
524.704468 68.0 
525.18634 262.0 
526.195068 135.0 
527.169617 73.0 
527.258972 71.0 
527.308228 113.0 
528.328369 494.0 
529.170898 97.0 
529.347778 103.0 
530.285461 270.0 
530.336426 72.0 
532.171021 78.0 
533.302673 496.0 
534.21582 81.0 
534.308533 208.0 
534.720642 65.0 
538.164062 69.0 
538.318237 172.0 
539.144409 150.0 
539.204346 68.0 
539.316528 92.0 
540.28009 1493.0 
541.146912 163.0 
541.191895 127.0 
541.279968 540.0 
542.135437 101.0 
542.212463 66.0 
542.291016 180.0 
543.196045 129.0 
544.19397 207.0 
548.160034 133.0 
549.175171 78.0 
550.263977 92.0 
551.183228 113.0 
551.279419 82.0 
551.325439 76.0 
552.169861 76.0 
552.329285 71.0 
553.163269 207.0 
554.196106 71.0 
555.140503 88.0 
555.192688 168.0 
555.696777 189.0 
556.148682 66.0 
556.194519 295.0 
556.33374 922.0 
556.707397 114.0 
557.161194 192.0 
557.325867 328.0 
558.157227 105.0 
558.290588 751.0 
559.165405 289.0 
559.304565 82.0 
560.160645 82.0 
566.164246 2082.0 
566.309814 94.0 
567.164001 900.0 
568.162109 2244.0 
568.276978 528.0 
569.165039 846.0 
569.27948 124.0 
569.322266 97.0 
570.197021 161.0 
571.187439 222.0 
571.316895 87.0 
572.189819 146.0 
581.140503 104.0 
582.152771 88.0 
583.142273 131.0 
583.195068 131.0 
584.19519 67.0 
584.309265 82.0 
585.187866 102.0 
586.170471 77.0 
586.203186 152.0 
586.279968 106.0 
590.145996 71.0 
593.312134 99.0 
596.317017 70.0 
597.170776 831.0 
598.18219 235.0 
599.165649 779.0 
600.17041 288.0 
601.128052 96.0 
601.171326 131.0 
607.412964 74.0 
609.341248 201.0 
610.342407 71.0 
611.185974 5401.0 
611.348694 100.0 
612.188721 2301.0 
613.187256 3991.0 
613.331238 111.0 
614.184814 1492.0 
615.180298 2542.0 
616.180237 787.0 
617.178101 2472.0 
617.353271 68.0 
618.182129 847.0 
618.366943 66.0 
619.17926 265.0 
620.332703 187.0 
621.341125 132.0 
624.187988 75.0 
627.224548 91.0 
629.194946 382.0 
630.197937 210.0 
631.197754 213.0 
635.356018 549.0 
636.358826 472.0 
637.171204 64.0 
637.334167 584.0 
637.44928 64.0 
638.339172 239.0 
639.352905 219.0 
644.254822 82.0 
645.33728 129.0 
646.352112 86.0 
652.215881 153.0 
653.201782 161.0 
653.367004 309.0 
654.212646 253.0 
654.372253 203.0 
655.205688 188.0 
655.353333 216.0 
656.214294 348.0 
657.365356 437.0 
658.359253 123.0 
663.350464 2549.0 
664.356995 1084.0 
665.236938 150.0 
665.361267 252.0 
666.233521 72.0 
667.209961 76.0 
667.355774 95.0 
668.351807 117.0 
668.402649 601.0 
669.414551 200.0 
670.210999 68.0 
670.25061 91.0 
671.371277 412.0 
672.236938 246.0 
672.376343 145.0 
673.241638 95.0 
678.199341 71.0 
680.226929 951.0 
681.227722 298.0 
681.361389 2260.0 
682.229248 883.0 
682.365784 912.0 
683.229797 386.0 
683.366333 339.0 
684.249756 277.0 
685.251587 200.0 
685.335449 75.0 
694.222595 891.0 
695.233826 353.0 
696.218079 708.0 
697.142395 66.0 
697.222778 269.0 
698.242432 1714.0 
699.245972 640.0 
699.369507 1482.0 
700.240784 1475.0 
700.373901 705.0 
701.246521 674.0 
701.378174 238.0 
702.238647 109.0 
702.366699 76.0 
710.248718 150.0 
711.259338 123.0 
712.251099 588.0 
713.196838 64.0 
713.253784 168.0 
714.232605 345.0 
715.256348 234.0 
716.264282 81.0 
717.257019 172.0 
728.267456 2098.0 
729.272217 612.0 
730.266174 1460.0 
731.273804 557.0 
732.281433 149.0 
741.293945 91.0 
751.249451 319.0 
752.256653 89.0 
753.253113 325.0 
754.253113 159.0 
765.307739 326.0 
766.282471 210.0 
766.333435 195.0 
767.295471 463.0 
768.299011 335.0 
769.282349 230.0 
770.437073 150.0 
771.258972 74.0 
773.27063 73.0 
777.264221 1506.0 
778.269714 616.0 
779.257996 1264.0 
780.260864 486.0 
780.372864 68.0 
780.440552 152.0 
781.264465 231.0 
783.325745 955.0 
784.32489 478.0 
785.322388 1009.0 
786.237976 77.0 
786.32782 427.0 
787.346008 162.0 
793.295593 3774.0 
794.230896 98.0 
794.299011 1863.0 
795.29425 4100.0 
796.294006 1575.0 
797.28241 992.0 
798.268311 283.0 
798.447021 324.0 
799.270874 149.0 
799.450134 284.0 
800.279724 113.0 
801.269348 242.0 
802.269226 102.0 
805.280823 71.0 
811.193542 179.0 
811.307251 6736.0 
811.590332 75.0 
812.313293 3056.0 
813.305176 7267.0 
814.213379 77.0 
814.303833 3507.0 
815.293213 1230.0 
816.223511 85.0 
816.302795 383.0 
817.295898 133.0 
818.261108 70.0 
823.280273 95.0 
824.273621 70.0 
825.271118 85.0 
826.286194 83.0 
828.346252 69.0 
829.323364 108.0 
831.30426 111.0 
839.304932 365.0 
840.318542 149.0 
841.292603 390.0 
842.304321 159.0 
843.271912 117.0 
851.327515 75.0 
862.341431 80.0 
864.341431 64.0 
868.320923 240.0 
869.331421 115.0 
870.331116 181.0 
871.332153 96.0 
872.322815 77.0 
873.337158 75.0 
876.340393 172.0 
877.328552 160.0 
878.346252 96.0 
879.325134 189.0 
880.309326 86.0 
884.366089 323.0 
885.36731 175.0 
886.35791 467.0 
887.356567 211.0 
888.373962 78.0 
890.356506 66.0 
891.352051 72.0 
892.319763 176.0 
893.338745 335.0 
894.340454 1194.0 
895.349548 627.0 
896.341736 1069.0 
897.345154 649.0 
898.348267 218.0 
908.361328 89.0 
909.358948 94.0 
910.231567 75.0 
912.354187 11144.0 
913.357361 6594.0 
914.353577 14022.0 
915.357361 5712.0 
916.358154 2021.0 
917.360962 415.0 
918.351196 1031.0 
919.354675 428.0 
920.345215 683.0 
921.348877 268.0 
922.355774 216.0 
924.345215 238.0 
925.350342 108.0 
926.360718 213.0 
927.394592 82.0 
928.343384 78.0 
928.394958 98.0 
929.375 106.0 
936.354126 1004.0 
937.352539 499.0 
938.352844 990.0 
939.353516 504.0 
940.356567 347.0 
941.368591 166.0 
942.349915 262.0 
943.234863 66.0 
943.342529 119.0 
944.349304 120.0 
954.363953 1905.0 
955.373901 1144.0 
956.367493 2187.0 
957.367004 1106.0 
958.377563 205.0 
959.377563 64.0 
965.386719 79.0 
967.38324 108.0 
968.420044 72.0 
983.39386 213.0 
984.406555 98.0 
985.391174 184.0 
991.420837 158.0 
993.406921 88.0 
994.396912 99.0 
997.448914 77.0 
998.453491 64.0 
999.414307 64.0 
1008.462952 112.0 
1009.430847 436.0 
1010.437866 190.0 
1011.421021 122.0 
1012.413635 138.0 
1013.43103 89.0 
1014.534485 64.0 
1017.412659 161.0 
1019.4021 96.0 
1020.422729 130.0 
1025.442017 2155.0 
1026.446167 1043.0 
1027.441406 2178.0 
1028.446045 1354.0 
1029.442383 362.0 
1030.459473 120.0 
1035.426025 3139.0 
1036.426147 1897.0 
1037.429565 3380.0 
1038.427612 2132.0 
1039.434692 622.0 
1040.436768 86.0 
1047.572632 73.0 
1053.285278 116.0 
1053.435913 11475.0 
1054.337524 84.0 
1054.438232 6840.0 
1054.632568 75.0 
1055.018555 107.0 
1055.295898 189.0 
1055.43396 13500.0 
1056.434692 6896.0 
1057.44043 2349.0 
1058.434937 477.0 
1067.371948 77.0 
1072.48584 80.0 
1074.453247 109.0 
END IONS

