BEGIN IONS
PEPMASS=491.0
CHARGE=0+
MSLEVEL=2
SOURCE_INSTRUMENT=LC-ESI-qTof
FILENAME=20120412_PAVL_FT_JamaicamideB_MCl37H_491_qb.1.1..mgf
SEQ=*..*
IONMODE=Positive
ORGANISM=GNPS-LIBRARY
NAME=Jamaicamide B M+H
PI=Gerwick
DATACOLLECTOR=PAVL
SMILES=C[C@H]1C=CC(=O)N1C(=O)/C=C(\CCNC(=O)CC/C=C/C(C)CC/C(=C/Cl)/CCCC#C)/OC
INCHI=InChI=1S/C27H37ClN2O4/c1-5-6-7-11-23(20-28)15-13-21(2)10-8-9-12-25(31)29-18-17-24(34-4)19-27(33)30-22(3)14-16-26(30)32/h1,8,10,14,16,19-22H,6-7,9,11-13,15,17-18H2,2-4H3,(H,29,31)/b10-8+,23-20+,24-19+/t21?,22-/m0/s1
INCHIAUX=N/A
PUBMED=N/A
SUBMITUSER=mwang87
LIBRARYQUALITY=1
SPECTRUMID=CCMSLIB00000001567
SCANS=1
145.282806 9.979805 
146.257614 3.896016 
148.669495 5.513045 
152.304504 6.915212 
154.340927 14.544324 
155.414764 5.037907 
156.296783 11.258395 
157.376984 11.86809 
159.319626 12.636601 
160.388123 4.364921 
161.406006 6.16605 
166.20668 18.201256 
168.405594 7.330244 
169.326172 14.881641 
170.348602 41.556053 
171.137573 3.33933 
173.230576 60.956322 
174.434662 8.616311 
176.262939 21.426773 
177.330887 4.366053 
179.266266 2.01231 
182.06781 25.092812 
183.22374 17.185589 
184.12915 18.378017 
186.682648 34.882744 
187.45343 41.922676 
188.331879 71.477921 
189.108215 11.072291 
191.50296 3.973431 
192.374435 19.883825 
193.477386 6.035121 
196.266022 55.877911 
197.51207 8.27159 
202.176147 6.896284 
208.113312 1401.664062 
209.191757 766.904236 
210.38121 23.56102 
211.273895 14.011215 
212.37204 61.006527 
223.606476 19.929522 
229.295685 51.375389 
230.322784 82.840881 
232.394501 9.200441 
236.12825 13.041785 
237.079681 2.836783 
238.277466 6.25455 
240.355927 6.277142 
246.346832 23.922031 
247.115173 3.165335 
251.133667 10.638866 
257.171295 4.605002 
258.430054 11.518377 
259.112518 11.064453 
265.598694 18.013494 
266.408691 35.934544 
271.246582 7.895988 
282.255127 128.110748 
283.319214 112.656029 
284.342499 166.877213 
289.000732 9.587029 
294.350098 18.280552 
297.182983 5.680797 
306.36554 6.141528 
307.297913 5.852228 
314.344421 2.21946 
324.121368 7.474299 
325.429993 4.436491 
338.232666 37.829025 
339.46701 23.828106 
343.190643 4.12966 
348.451019 2.959088 
356.44046 87.23642 
357.312592 134.806778 
360.374573 2.971621 
361.18219 44.453407 
362.301636 12.156452 
378.153625 3.766745 
392.356018 2180.280029 
393.188446 6531.459961 
394.137756 576.571411 
394.836823 3.433409 
422.315918 27.167709 
429.232422 17.45484 
441.642487 16.455946 
453.908264 56.060307 
456.991516 4.599006 
458.237976 323.420624 
461.18866 16.040701 
462.221191 39.257931 
471.309998 12.401364 
550.326782 18.655149 
END IONS

