BEGIN IONS
PEPMASS=376.249
CHARGE=1+
MSLEVEL=2
SOURCE_INSTRUMENT=LC-ESI-qTof
FILENAME=2A9_S-4-benzyl-3-((S)-3-hydroxy-2_2-dimethyloctanoyl)-5_5-dimethyloxazolidin-2-one.mzXML
SEQ=*..*
IONMODE=Positive
ORGANISM=GNPS-LIBRARY
NAME="S-4-benzyl-3-((S)-3-hydroxy-2,2-dimethyloctanoyl) -5,5-dimethyloxazolidin-2-one" M+H
PI=Dorrestein/Gerwick
DATACOLLECTOR=Garg/Luzzato
SMILES=O=C1OC(C)(C)[C@H](CC2=CC=CC=C2)N1C(C(C)(C)[C@@H](O)CCCCC)=O
INCHI=N/A
INCHIAUX=N/A
PUBMED=N/A
SUBMITUSER=mwang87
LIBRARYQUALITY=2
SPECTRUMID=CCMSLIB00000068223
SCANS=2672
99.48526 216.0 
103.661591 192.0 
105.069122 212.0 
105.398643 196.0 
105.529404 192.0 
111.260178 196.0 
113.449074 212.0 
115.133553 176.0 
117.07312 340.0 
117.262474 100.0 
120.054306 164.0 
120.080467 180.0 
120.298569 216.0 
125.135872 216.0 
126.09343 296.0 
128.061508 184.0 
129.069839 200.0 
130.079865 256.0 
131.821472 188.0 
132.043137 180.0 
136.468918 200.0 
137.101639 292.0 
143.085358 320.0 
144.088242 180.0 
145.101913 4604.0 
146.103745 472.0 
151.023834 176.0 
152.140762 212.0 
152.9664 172.0 
153.125977 1144.0 
153.149734 520.0 
154.011459 208.0 
154.131363 436.0 
161.613571 196.0 
161.636322 172.0 
162.128464 1080.0 
163.137161 232.0 
177.075836 220.0 
181.33429 200.0 
187.363144 172.0 
188.107315 248.0 
191.583069 224.0 
206.117493 2180.0 
207.120865 408.0 
208.128311 176.0 
214.142273 720.0 
214.266174 200.0 
217.100266 188.0 
217.989365 144.0 
219.799561 200.0 
220.94841 148.0 
221.007568 244.0 
230.703094 160.0 
232.149765 168.0 
233.175461 272.0 
236.207977 184.0 
241.542709 172.0 
244.20459 128.0 
245.217453 244.0 
254.81456 208.0 
272.199646 204.0 
273.145752 208.0 
274.169281 192.0 
276.09314 156.0 
283.279602 168.0 
286.253357 380.0 
287.21756 172.0 
288.921082 188.0 
293.209534 224.0 
293.693481 188.0 
303.972656 208.0 
304.157166 192.0 
305.907715 176.0 
314.24881 3160.0 
314.852112 240.0 
315.248413 884.0 
316.251587 168.0 
319.82431 228.0 
321.020874 148.0 
338.157318 252.0 
349.225342 220.0 
350.952545 152.0 
351.668488 220.0 
355.300415 180.0 
356.384979 160.0 
357.911438 160.0 
358.043793 100.0 
358.237732 7392.0 
359.003754 156.0 
359.240509 2004.0 
360.243683 544.0 
361.250122 196.0 
361.696442 152.0 
371.205811 152.0 
372.579315 144.0 
373.236267 248.0 
373.724548 144.0 
375.253052 572.0 
376.20932 196.0 
376.257599 244.0 
376.317383 152.0 
377.257599 188.0 
378.342377 176.0 
378.369476 184.0 
432.20874 176.0 
735.299194 140.0 
1204.581909 260.0 
1375.879761 172.0 
1630.203003 188.0 
1634.447021 164.0 
1708.861328 192.0 
1728.813477 252.0 
1759.296753 256.0 
1777.182739 224.0 
1830.285522 248.0 
1924.217041 212.0 
1930.907715 188.0 
1983.93042 216.0 
END IONS

