BEGIN IONS
PEPMASS=826.0
CHARGE=0+
MSLEVEL=2
SOURCE_INSTRUMENT=LC-ESI-Ion Trap
FILENAME=20121201_PAVL_Ger_ApratoxinB_MH_826_qb.1.1..mgf
SEQ=*..*
IONMODE=Positive
ORGANISM=GNPS-LIBRARY
NAME=Apratoxin B M+H
PI=Gerwick
DATACOLLECTOR=PAVL
SMILES=CC[C@H](C)[C@@H]1NC(=O)[C@H](C)N(C)C(=O)[C@H](CC2=CC=C(OC)C=C2)NC(=O)\C(C)=C/[C@H]2CSC(=N2)[C@@H](C)[C@@H](O)C[C@H](C)C[C@H](OC(=O)C2CCCN2C1=O)C(C)(C)C
INCHI=InChI=1S/C44H67N5O8S/c1-12-26(3)37-42(54)49-19-13-14-34(49)43(55)57-36(44(7,8)9)21-25(2)20-35(50)28(5)40-45-31(24-58-40)22-27(4)38(51)46-33(23-30-15-17-32(56-11)18-16-30)41(53)48(10)29(6)39(52)47-37/h15-18,22,25-26,28-29,31,33-37,50H,12-14,19-21,23-24H2,1-11H3,(H,46,51)(H,47,52)/b27-22-/t25-,26-,28-,29-,31-,33-,34?,35-,36-,37-/m0/s1
INCHIAUX=ZSYPDXOLYNZQGO-CSWQYCJFSA-N
PUBMED=N/A
SUBMITUSER=mwang87
LIBRARYQUALITY=1
SPECTRUMID=CCMSLIB00000001605
SCANS=1
243.896271 126484.0 
263.415894 40069.0 
269.831238 1402212.0 
270.683289 4.0 
285.183716 52676.0 
313.088379 92547.0 
328.86438 53173.0 
330.877808 1940248.0 
331.534851 86.0 
344.975708 144188.0 
358.027588 101628.0 
358.904541 8581864.0 
359.570496 3249.0 
364.736511 21093.0 
368.907471 79376.0 
383.010376 1208613.0 
383.814819 9.0 
389.225342 135474.0 
389.887207 54648.0 
399.964172 276577.0 
442.119873 30981.0 
442.984253 201434.0 
443.906128 34565672.0 
444.742249 52.0 
450.049316 11613.0 
467.355408 116983.0 
468.016052 3860325.0 
468.674561 109.0 
473.316711 89188.0 
494.937805 140206.0 
513.19812 90444.0 
544.098511 54644.0 
556.250488 1626327.0 
556.891602 36093296.0 
557.818481 18.0 
570.356323 20904.0 
579.872803 120482.0 
598.061279 305946.0 
609.976562 437661.0 
627.143066 58514.0 
627.788452 200375.0 
692.854614 266975.0 
693.48877 3.0 
710.99707 1171435.0 
711.899902 2.0 
798.107544 54528.0 
808.15332 3320646.0 
809.0 5.0 
END IONS

