BEGIN IONS
PEPMASS=284.2
CHARGE=0+
MSLEVEL=2
SOURCE_INSTRUMENT=LC-ESI-qTof
FILENAME=20130503_Ger_Jenia_epi-Tumonoic_acid_D_284.2-qb.1.1..mgf
SEQ=*..*
IONMODE=Positive
ORGANISM=GNPS-LIBRARY
NAME=epi-Tumonoic acid D M+H
PI=Gerwick
DATACOLLECTOR=Jenia
SMILES=CCCCCCCC[C@@H](C)C(=O)N1CCC[C@H]1C(=O)O
INCHI=InChI=1S/C16H29NO3/c1-3-4-5-6-7-8-10-13(2)15(18)17-12-9-11-14(17)16(19)20/h13-14H,3-12H2,1-2H3,(H,19,20)/t13-,14+/m1/s1
INCHIAUX=N/A
PUBMED=N/A
SUBMITUSER=mwang87
LIBRARYQUALITY=1
SPECTRUMID=CCMSLIB00000001770
SCANS=1
84.426407 98138.0 
98.766953 83146.0 
99.395828 4.0 
113.614868 39772.0 
115.181366 512970.0 
115.996384 38055912.0 
116.768402 2123603.0 
117.446487 64163.0 
133.289307 17819.0 
134.28241 22252.0 
139.235764 16611.0 
139.809692 204116.0 
140.82959 130655.0 
152.383423 2669.0 
153.077179 116043.0 
154.490128 44952.0 
156.05925 566113.0 
156.608719 723279.0 
157.595612 1868.0 
168.471649 272671.0 
170.287384 18863.0 
232.128906 33749.0 
233.643982 4722.0 
236.901627 116115.0 
237.84523 3586141.0 
238.539658 24860.0 
264.746094 14466.0 
265.902283 6492349.0 
266.669861 206.0 
283.256836 69281.0 
END IONS

