BEGIN IONS
PEPMASS=804.4
CHARGE=0+
MSLEVEL=2
SOURCE_INSTRUMENT=LC-ESI-qTof
FILENAME=20130711_2190I_Viequeamide_A_MH804.4-qb.1.1..mgf
SEQ=*..*
IONMODE=Positive
ORGANISM=GNPS-LIBRARY
NAME=Viequeamide_A M+H
PI=Gerwick
DATACOLLECTOR=Jenia
SMILES=CC[C@H](C)[C@@H]1C(=O)N2CCC[C@H]2C(=O)N([C@H](C(=O)NC(C(=O)O[C@H](C(C(=O)N[C@H](C(=O)N([C@H](C(=O)O1)C(C)C)C)C(C)C)(C)C)CCCC#C)[C@@H](C)O)C(C)C)C
INCHI=InChI=1S/C42H69N5O10/c1-15-17-18-21-29-42(11,12)41(55)44-30(23(3)4)37(51)46(14)33(25(7)8)40(54)57-34(26(9)16-2)38(52)47-22-19-20-28(47)36(50)45(13)32(24(5)6)35(49)43-31(27(10)48)39(53)56-29/h1,23-34,48H,16-22H2,2-14H3,(H,43,49)(H,44,55)/t26-,27+,28-,29-,30-,31?,32-,33-,34+/m0/s1
INCHIAUX=N/A
PUBMED=N/A
SUBMITUSER=mwang87
LIBRARYQUALITY=1
SPECTRUMID=CCMSLIB00000001809
SCANS=1
262.503601 1751.0 
296.862 3307.0 
325.050232 16702.0 
325.666626 1.0 
438.042969 67871.0 
438.77771 3.0 
512.70752 4006.0 
530.305542 5050.0 
569.2146 2162.0 
600.263428 2453.0 
611.136475 2088.0 
638.165649 1204.0 
678.163696 2289.0 
691.140869 2541.0 
758.075195 1463.0 
776.060547 2124.0 
804.300171 1374.0 
END IONS

