BEGIN IONS
PEPMASS=879.0
CHARGE=2+
MSLEVEL=2
SOURCE_INSTRUMENT=LC-ESI-qTof
FILENAME=1E6_879MH_RE6_01_9753.mzXML
SEQ=*..*
IONMODE=Positive
ORGANISM=GNPS-LIBRARY
NAME=Dolastatin 16 M+H
PI=Dorrestein/Gerwick
DATACOLLECTOR=Peng/Luzzatto/Garg
SMILES=CC(C)C1NC(=O)[C@@H]2CCCN2C(=O)C(NC(=O)[C@@H]2CCCN2C(=O)[C@@H](C(C)C)N(C)C(=O)[C@H](OC(=O)[C@@H]2CCCN2C(=O)[C@H](C)OC(=O)C1C)C(C)C)C(C)CC1=CC=CC=C1
INCHI=InChI=1S/C47H70N6O10/c1-26(2)36-30(8)46(60)62-31(9)42(56)53-24-16-21-35(53)47(61)63-39(28(5)6)45(59)50(10)38(27(3)4)44(58)52-23-15-20-34(52)41(55)49-37(29(7)25-32-17-12-11-13-18-32)43(57)51-22-14-19-33(51)40(54)48-36/h11-13,17-18,26-31,33-39H,14-16,19-25H2,1-10H3,(H,48,54)(H,49,55)/t29?,30?,31-,33-,34-,35-,36?,37?,38+,39+/m0/s1
INCHIAUX=JXOFEBNJOOEXJY-NLKHYCKVSA-N
PUBMED=ChemSpider ID:154450
SUBMITUSER=y6peng
LIBRARYQUALITY=2
SPECTRUMID=CCMSLIB00000072511
SCANS=2010
95.36628 244.0 
95.813667 144.0 
96.48671 256.0 
97.523285 224.0 
103.18293 208.0 
108.15844 200.0 
111.43969 192.0 
111.469101 180.0 
114.231369 252.0 
114.373886 204.0 
117.533775 208.0 
118.666702 196.0 
119.500389 260.0 
123.852058 220.0 
127.069862 148.0 
128.755188 252.0 
131.257263 212.0 
133.843246 268.0 
133.969864 168.0 
134.30629 156.0 
134.638504 196.0 
135.639938 160.0 
136.468399 176.0 
142.081665 204.0 
143.025024 180.0 
146.717468 208.0 
151.12146 208.0 
152.064545 148.0 
154.036026 228.0 
163.363495 240.0 
164.063538 152.0 
165.035873 212.0 
166.085007 236.0 
167.115173 160.0 
168.734222 144.0 
169.134171 356.0 
169.427536 260.0 
170.077652 472.0 
171.083755 152.0 
172.322052 264.0 
175.235825 228.0 
176.166733 208.0 
179.728287 172.0 
180.101883 176.0 
180.136597 192.0 
180.299179 192.0 
181.111679 188.0 
183.107346 184.0 
183.670425 160.0 
183.996826 240.0 
184.102097 224.0 
185.23761 148.0 
190.907059 200.0 
192.532349 152.0 
194.674942 220.0 
194.947083 156.0 
195.149612 168.0 
195.297241 172.0 
195.678146 128.0 
195.764603 244.0 
196.087646 216.0 
196.133392 20880.0 
196.595016 152.0 
196.667114 204.0 
196.788391 144.0 
196.876862 288.0 
197.1362 3188.0 
198.139725 600.0 
198.28949 136.0 
198.628235 192.0 
200.139526 636.0 
201.144882 200.0 
203.281647 164.0 
214.143646 248.0 
216.612473 192.0 
221.793625 212.0 
223.138199 176.0 
223.881454 220.0 
225.160568 1000.0 
226.160675 184.0 
228.131516 148.0 
235.629379 236.0 
238.336792 148.0 
239.028366 172.0 
244.136734 184.0 
248.903458 172.0 
269.181458 148.0 
270.134247 1964.0 
271.143829 260.0 
273.158691 316.0 
286.297943 220.0 
288.415863 248.0 
299.174286 156.0 
299.205261 228.0 
306.841553 300.0 
315.191895 460.0 
317.20163 208.0 
317.435211 148.0 
322.217072 256.0 
326.171783 164.0 
328.205048 156.0 
339.213165 212.0 
355.229919 548.0 
356.231445 168.0 
358.501373 120.0 
377.142273 156.0 
380.208496 156.0 
382.220612 168.0 
382.792603 204.0 
383.216064 2060.0 
384.220703 660.0 
385.231293 292.0 
386.135712 192.0 
400.250366 140.0 
408.222321 216.0 
410.223267 204.0 
412.244354 4416.0 
413.248566 1120.0 
414.255524 284.0 
415.258698 184.0 
493.301239 264.0 
494.289001 152.0 
508.934937 184.0 
509.289764 704.0 
510.297241 540.0 
513.288818 200.0 
514.3396 172.0 
515.825073 140.0 
520.294495 140.0 
521.297913 216.0 
525.336914 156.0 
529.977966 172.0 
538.295044 160.0 
541.351135 172.0 
542.319641 440.0 
543.323853 596.0 
577.958679 176.0 
580.367004 220.0 
582.376953 156.0 
584.347107 176.0 
587.332642 140.0 
593.447754 144.0 
607.355591 172.0 
624.383911 156.0 
628.945984 176.0 
634.671814 236.0 
640.031006 192.0 
655.372559 348.0 
658.671936 172.0 
659.790588 212.0 
660.455139 160.0 
662.435303 172.0 
676.420654 512.0 
677.435425 224.0 
681.729736 264.0 
684.39209 712.0 
684.917786 160.0 
685.402344 368.0 
688.42511 504.0 
689.440308 128.0 
689.496887 184.0 
690.134399 248.0 
690.427063 148.0 
694.725647 144.0 
697.024353 168.0 
703.428589 416.0 
704.447266 236.0 
705.463196 164.0 
706.463379 140.0 
709.45343 172.0 
711.43219 148.0 
716.397156 160.0 
738.43396 176.0 
739.450684 140.0 
754.476807 204.0 
754.57251 172.0 
755.47998 152.0 
760.371094 160.0 
760.914307 200.0 
762.830872 168.0 
764.62323 148.0 
765.451111 168.0 
767.486633 184.0 
775.382935 180.0 
776.269592 244.0 
778.999146 152.0 
780.449158 180.0 
781.488831 176.0 
782.43457 160.0 
801.718018 180.0 
804.97168 140.0 
812.139282 152.0 
822.901794 164.0 
830.306213 116.0 
832.121704 184.0 
835.535156 120.0 
841.265991 228.0 
843.078918 160.0 
848.314941 176.0 
851.06958 156.0 
851.526978 4684.0 
851.666748 148.0 
852.526611 2564.0 
853.536682 680.0 
853.950806 284.0 
854.534973 308.0 
854.613708 160.0 
861.852539 156.0 
862.278992 176.0 
865.342957 156.0 
866.203491 156.0 
868.77002 144.0 
870.744812 168.0 
872.609375 148.0 
874.393738 208.0 
874.897034 176.0 
875.603333 152.0 
875.850586 168.0 
876.274597 144.0 
876.863586 156.0 
877.037537 116.0 
877.353333 128.0 
877.736877 104.0 
877.898926 216.0 
878.042236 152.0 
878.307556 148.0 
878.498352 156.0 
878.55719 204.0 
878.655457 160.0 
878.994202 148.0 
879.279602 184.0 
879.309387 172.0 
879.411621 240.0 
879.522095 27820.0 
879.669617 560.0 
879.899963 160.0 
880.023926 156.0 
880.076355 160.0 
880.206787 128.0 
880.292358 196.0 
880.442505 156.0 
880.526062 12788.0 
880.6474 556.0 
880.830383 336.0 
880.923218 208.0 
881.274719 96.0 
881.401245 148.0 
881.443176 420.0 
881.528625 5652.0 
881.627625 328.0 
881.74292 276.0 
882.154663 100.0 
882.261841 196.0 
882.336182 108.0 
882.534973 1684.0 
882.831787 140.0 
883.16803 132.0 
883.412109 124.0 
883.535461 388.0 
883.831116 120.0 
884.151428 156.0 
884.264709 144.0 
884.544922 160.0 
885.480103 244.0 
886.11853 140.0 
904.011475 144.0 
912.213074 140.0 
1008.069214 152.0 
1115.60022 172.0 
1170.483032 140.0 
1183.749268 96.0 
1223.570801 212.0 
1295.305176 152.0 
1306.125488 232.0 
1386.562744 228.0 
1392.428955 176.0 
1394.330078 140.0 
1395.266235 244.0 
1448.581665 140.0 
1609.596924 208.0 
1721.557251 224.0 
1807.285034 224.0 
1873.81543 256.0 
1875.55542 172.0 
1889.660645 264.0 
1910.117432 248.0 
1937.123779 212.0 
1938.270996 184.0 
END IONS

