BEGIN IONS
PEPMASS=348.217
CHARGE=1+
MSLEVEL=2
SOURCE_INSTRUMENT=LC-ESI-qTof
FILENAME=2A7_S-4-benzyl-3-((S)-3-hydroxy-2_2-dimethyloctanoyl)oxazolidin-2-one.mzXML
SEQ=*..*
IONMODE=Positive
ORGANISM=GNPS-LIBRARY
NAME="S-4-benzyl-3-((S)-3-hydroxy-2,2-dimethyloctanoyl)oxazolidin-2-one" M+H
PI=Dorrestein/Gerwick
DATACOLLECTOR=Garg/Luzzato
SMILES=O=C1OC[C@H](CC2=CC=CC=C2)N1C(C(C)(C)[C@@H](O)CCCCC)=O
INCHI=N/A
INCHIAUX=N/A
PUBMED=N/A
SUBMITUSER=mwang87
LIBRARYQUALITY=2
SPECTRUMID=CCMSLIB00000068219
SCANS=2211
95.037483 184.0 
95.165527 176.0 
95.295609 212.0 
95.318916 144.0 
95.528801 140.0 
96.288658 180.0 
96.525024 192.0 
96.687325 220.0 
96.701019 204.0 
96.908501 176.0 
97.067436 168.0 
97.842979 208.0 
97.860695 212.0 
99.18969 160.0 
99.363869 208.0 
99.816803 212.0 
99.874451 244.0 
99.890358 140.0 
100.037552 160.0 
100.463837 204.0 
100.47979 144.0 
101.118958 188.0 
101.527489 168.0 
101.788254 176.0 
101.8284 188.0 
101.918762 176.0 
102.840714 224.0 
103.142487 224.0 
103.560211 188.0 
103.714134 260.0 
104.282211 236.0 
104.823326 224.0 
104.853882 232.0 
105.071976 220.0 
106.654266 204.0 
107.271538 240.0 
107.351913 172.0 
107.481812 168.0 
107.620049 240.0 
108.449257 184.0 
108.693871 164.0 
108.824577 188.0 
108.843254 164.0 
108.895149 192.0 
109.105392 272.0 
109.175606 168.0 
109.731331 180.0 
109.877258 208.0 
110.275932 192.0 
110.32399 240.0 
110.794662 160.0 
111.033516 232.0 
111.400681 228.0 
112.075745 160.0 
112.757072 232.0 
112.858498 172.0 
113.482841 140.0 
113.593079 176.0 
113.690636 208.0 
114.704742 208.0 
114.72818 260.0 
114.860336 196.0 
115.055641 1884.0 
115.090729 244.0 
115.201736 212.0 
115.246582 192.0 
115.554337 220.0 
115.905334 168.0 
116.059013 548.0 
116.104614 212.0 
116.196808 196.0 
116.224686 188.0 
116.636856 180.0 
116.885658 228.0 
116.906013 220.0 
116.922791 184.0 
116.970886 180.0 
117.011009 160.0 
117.04248 296.0 
117.070564 35712.0 
117.098709 188.0 
117.276039 220.0 
117.443344 124.0 
117.541008 184.0 
117.664825 124.0 
117.940376 152.0 
118.073563 4436.0 
118.128426 168.0 
118.338257 204.0 
118.676117 140.0 
118.745293 140.0 
118.821777 112.0 
118.984909 108.0 
119.007187 196.0 
119.076469 196.0 
119.114311 168.0 
119.564194 184.0 
119.865501 200.0 
120.459953 152.0 
120.735237 236.0 
120.840187 188.0 
121.102768 212.0 
121.600258 164.0 
122.022888 176.0 
122.629135 152.0 
123.337349 152.0 
123.680054 192.0 
124.699905 168.0 
124.759895 244.0 
124.9533 212.0 
125.133446 740.0 
125.195816 240.0 
125.211403 224.0 
125.233665 144.0 
125.293785 188.0 
125.509315 172.0 
126.139198 148.0 
126.21965 156.0 
126.593193 228.0 
126.723053 216.0 
126.861946 220.0 
127.254387 140.0 
127.377853 216.0 
128.005081 160.0 
129.087769 156.0 
129.135239 236.0 
129.753174 180.0 
130.104675 316.0 
130.436188 148.0 
130.556641 232.0 
131.0504 232.0 
131.766022 164.0 
132.051971 180.0 
132.081039 128.0 
132.798462 144.0 
133.167831 200.0 
134.041672 144.0 
134.098175 2104.0 
134.94368 192.0 
135.100372 380.0 
135.482803 212.0 
135.786316 184.0 
135.918503 188.0 
138.135529 244.0 
138.3367 216.0 
138.530975 188.0 
139.847717 196.0 
140.545914 112.0 
141.265259 216.0 
142.070358 176.0 
142.207932 220.0 
142.483261 212.0 
143.079987 236.0 
143.145126 260.0 
143.408539 240.0 
143.620651 192.0 
143.749435 212.0 
143.968964 188.0 
143.990448 248.0 
144.150436 220.0 
145.445572 200.0 
145.995529 176.0 
147.289246 216.0 
147.813644 216.0 
148.278412 252.0 
148.984222 176.0 
149.122665 256.0 
149.847519 216.0 
150.18866 240.0 
150.349625 212.0 
150.982101 172.0 
152.516266 172.0 
152.793884 148.0 
152.838287 176.0 
153.071472 212.0 
153.127579 9972.0 
153.246841 144.0 
153.485825 208.0 
154.131058 844.0 
154.45105 148.0 
154.554916 212.0 
154.619232 200.0 
155.112366 176.0 
155.131729 232.0 
155.325073 184.0 
155.52597 184.0 
156.194092 188.0 
156.901016 248.0 
158.607681 192.0 
159.24472 244.0 
160.073563 560.0 
160.870651 148.0 
161.881577 204.0 
162.172791 192.0 
162.231079 196.0 
162.717957 220.0 
165.002304 192.0 
165.135223 232.0 
165.681778 196.0 
166.179947 192.0 
166.469879 268.0 
166.634186 160.0 
166.811447 232.0 
167.055634 152.0 
167.657883 140.0 
169.020767 224.0 
169.455566 168.0 
170.09845 200.0 
170.521637 144.0 
171.137634 216.0 
171.533737 272.0 
171.99263 208.0 
172.142181 476.0 
173.179199 140.0 
173.383469 160.0 
173.514465 180.0 
174.112488 156.0 
174.837769 204.0 
175.158859 168.0 
175.253647 144.0 
175.807175 176.0 
176.565048 196.0 
176.842743 176.0 
176.957703 132.0 
177.070328 264.0 
177.208557 120.0 
177.231857 164.0 
177.28334 200.0 
177.586945 168.0 
177.639969 140.0 
177.674438 172.0 
177.716873 188.0 
177.868576 192.0 
177.971176 212.0 
177.995453 248.0 
178.037796 168.0 
178.087433 109452.0 
178.173157 324.0 
178.279099 180.0 
178.307205 100.0 
178.356827 180.0 
178.482162 168.0 
178.525024 188.0 
178.584824 156.0 
178.627731 160.0 
178.72612 152.0 
178.906067 224.0 
179.090546 12684.0 
179.199417 124.0 
179.313843 96.0 
179.338364 144.0 
179.498444 120.0 
179.834152 96.0 
180.043427 116.0 
180.092438 1132.0 
180.166199 148.0 
180.252563 120.0 
180.291718 120.0 
180.351883 132.0 
180.386948 152.0 
180.40564 140.0 
180.441971 128.0 
180.495682 168.0 
180.519226 172.0 
180.82988 120.0 
180.873581 168.0 
181.066269 152.0 
185.702744 208.0 
188.587631 188.0 
190.975204 152.0 
191.646179 164.0 
192.142242 248.0 
192.329819 160.0 
192.754944 152.0 
193.025726 272.0 
195.471298 144.0 
196.047485 140.0 
196.096481 220.0 
196.674744 140.0 
197.101517 272.0 
201.248779 148.0 
203.005234 176.0 
204.988602 168.0 
205.998169 184.0 
236.008987 168.0 
240.002014 184.0 
242.455414 216.0 
245.559967 152.0 
246.149536 368.0 
248.12767 180.0 
249.130753 176.0 
252.02095 240.0 
252.071487 208.0 
258.060608 212.0 
261.591309 276.0 
276.020081 204.0 
278.026703 212.0 
284.828339 140.0 
285.261627 164.0 
286.214813 328.0 
304.215149 188.0 
311.721283 164.0 
320.151337 152.0 
327.976501 156.0 
328.380157 252.0 
330.206451 3256.0 
330.506531 120.0 
330.539551 204.0 
331.165588 180.0 
331.210358 1180.0 
332.209503 292.0 
332.691528 148.0 
337.063934 208.0 
338.091064 192.0 
346.297729 172.0 
347.068207 172.0 
347.179413 140.0 
347.218628 192.0 
348.061005 292.0 
348.210693 148.0 
349.182129 156.0 
349.23526 140.0 
350.248077 172.0 
373.274231 248.0 
435.099976 164.0 
472.406189 148.0 
668.880737 180.0 
1201.82019 268.0 
1237.587769 180.0 
1242.639038 200.0 
1243.775391 220.0 
1249.669067 252.0 
1293.65332 144.0 
1375.221436 232.0 
1386.34729 232.0 
1418.577393 232.0 
1420.893677 184.0 
1422.484009 148.0 
1424.322876 164.0 
1452.072266 188.0 
1459.51123 144.0 
1459.701172 196.0 
1463.154053 208.0 
1464.394775 156.0 
1469.248413 256.0 
1501.451172 228.0 
1514.050659 172.0 
1522.282959 236.0 
1530.973511 216.0 
1551.295288 224.0 
1552.00061 156.0 
1565.565552 224.0 
1571.956055 184.0 
1595.293945 216.0 
1600.862549 236.0 
1606.535034 232.0 
1611.578613 140.0 
1613.935547 144.0 
1616.662109 204.0 
1626.050781 160.0 
1626.981567 172.0 
1630.289429 256.0 
1634.179565 164.0 
1642.119019 140.0 
1661.013794 208.0 
1666.117798 156.0 
1666.418213 220.0 
1671.79895 144.0 
1675.322998 152.0 
1676.577271 172.0 
1678.418823 248.0 
1685.419189 164.0 
1689.644531 176.0 
1690.388794 148.0 
1690.791504 280.0 
1691.837769 204.0 
1696.299561 168.0 
1697.922363 252.0 
1699.200562 192.0 
1712.060059 244.0 
1720.739136 216.0 
1723.265381 144.0 
1724.463013 272.0 
1733.744995 144.0 
1736.637329 212.0 
1746.334351 244.0 
1747.656494 224.0 
1752.233765 200.0 
1752.950073 196.0 
1758.326782 200.0 
1760.087402 168.0 
1761.489868 228.0 
1765.86792 184.0 
1769.16333 176.0 
1773.21582 180.0 
1774.807861 192.0 
1796.042236 220.0 
1797.80481 204.0 
1808.423828 168.0 
1809.303833 236.0 
1814.664429 204.0 
1831.057861 260.0 
1835.146484 264.0 
1839.469971 228.0 
1839.990479 208.0 
1840.954956 272.0 
1843.456909 264.0 
1843.516724 268.0 
1853.618652 228.0 
1854.149658 176.0 
1854.86084 232.0 
1855.76062 164.0 
1856.231934 212.0 
1862.571655 148.0 
1862.734863 192.0 
1870.13501 220.0 
1871.159058 180.0 
1872.553467 212.0 
1876.619141 220.0 
1876.679443 160.0 
1889.932129 200.0 
1890.745239 152.0 
1895.099121 204.0 
1898.755615 208.0 
1899.47522 188.0 
1900.78479 224.0 
1901.825684 256.0 
1902.311646 204.0 
1903.439819 280.0 
1906.479004 204.0 
1908.094971 224.0 
1918.502808 200.0 
1921.458008 180.0 
1922.696533 212.0 
1928.012817 212.0 
1929.88269 224.0 
1930.363403 140.0 
1935.865356 152.0 
1936.320557 240.0 
1946.216919 196.0 
1950.265137 176.0 
1950.678101 228.0 
1955.065186 152.0 
1958.330078 244.0 
1960.417114 168.0 
1963.783569 288.0 
1964.621216 240.0 
1969.650757 184.0 
1970.24231 200.0 
1972.256226 216.0 
1974.23584 216.0 
1974.951904 196.0 
1977.012451 248.0 
1977.330933 188.0 
1979.764526 212.0 
1981.889648 256.0 
1983.696777 160.0 
1985.815063 184.0 
1988.52002 208.0 
1989.442749 140.0 
1989.913086 212.0 
1995.472534 260.0 
1997.846069 160.0 
1998.032837 140.0 
1999.429321 224.0 
END IONS

