BEGIN IONS
PEPMASS=665.115
CHARGE=0+
MSLEVEL=2
SOURCE_INSTRUMENT=LC-ESI-Ion Trap
FILENAME=20121205_Jenia_Ger_Hectochlorin_MH665_qb.1.1..mgf
SEQ=*..*
IONMODE=Positive
ORGANISM=GNPS-LIBRARY
NAME=Hectochlorin M+H
PI=Gerwick
DATACOLLECTOR=Jenia
SMILES=C[C@H]1[C@H](CCCC(C)(Cl)Cl)OC(=O)C2=CSC(=N2)[C@@H](OC(C)=O)C(C)(C)OC(=O)C2=CSC(=N2)[C@@H](OC1=O)C(C)(C)O
INCHI=InChI=1S/C27H34Cl2N2O9S2/c1-13-17(9-8-10-27(7,28)29)38-23(34)15-11-42-21(30-15)19(37-14(2)32)26(5,6)40-24(35)16-12-41-20(31-16)18(25(3,4)36)39-22(13)33/h11-13,17-19,36H,8-10H2,1-7H3/t13-,17-,18+,19+/m0/s1
INCHIAUX=USXIYWCPCGVOKF-NOENWEJRSA-N
PUBMED=N/A
SUBMITUSER=mwang87
LIBRARYQUALITY=1
SPECTRUMID=CCMSLIB00000001652
SCANS=1
198.524109 6979.0 
199.802444 42182.0 
214.030731 5060.0 
217.74823 167912.0 
218.429749 11.0 
233.745667 3870.0 
240.941605 15817.0 
241.793869 43308.0 
255.927124 2526.0 
260.82135 4048.0 
275.228882 4557.0 
279.030029 20318.0 
318.748474 34212.0 
325.720459 5898.0 
361.714722 25288.0 
362.789001 59880.0 
365.723022 60870.0 
369.804291 307897.0 
370.590424 8.0 
377.663818 27773.0 
380.473755 973.0 
380.978271 7006.0 
387.427155 14894.0 
405.189026 8950.0 
405.815887 1482111.0 
406.48584 7601.0 
423.638977 161669.0 
424.45105 7.0 
427.162476 13615.0 
429.734741 18919.0 
440.742004 6021.0 
446.645447 19791.0 
457.744995 2288.0 
465.704803 178719.0 
466.608276 2.0 
467.110229 3826.0 
502.525024 13913.0 
506.802399 140763.0 
507.609924 5.0 
510.82074 8588.0 
524.401001 28368.0 
524.94574 69619.0 
525.613281 1.0 
528.637329 6141.0 
542.833557 102843.0 
543.569946 5.0 
546.739807 97258.0 
547.422241 4.0 
550.610718 27345.0 
551.112793 10713.0 
552.112305 833.0 
560.247681 20650.0 
560.869568 433371.0 
561.616516 3.0 
564.769531 15761.0 
568.20752 2901.0 
568.85199 480612.0 
569.530579 18.0 
586.748169 133034.0 
587.362549 4.0 
603.304077 2840.0 
604.086731 52379.0 
604.804443 5549140.0 
605.437744 1338.0 
606.690308 83891.0 
607.38324 1.0 
610.721436 576.0 
621.822998 2789.0 
622.757446 414661.0 
623.423828 26.0 
628.79187 336850.0 
629.460266 5.0 
646.645142 33640.0 
END IONS

