BEGIN IONS
PEPMASS=498.1
CHARGE=0+
MSLEVEL=2
SOURCE_INSTRUMENT=LC-ESI-qTof
FILENAME=20121108_Jenia_Ger_TumonoicAcidI_MH_498p1_qb.1.1..mgf
SEQ=*..*
IONMODE=Positive
ORGANISM=GNPS-LIBRARY
NAME=Tumonoic Acid I M+H
PI=Gerwick
DATACOLLECTOR=Jenia
SMILES=CCCC[C@H](C)C[C@H](C)C(=O)N1CCC[C@H]1C(=O)O[C@H]([C@@H](C)CC)C(=O)O[C@@H]([C@@H](C)CC)C(=O)O
INCHI=InChI=1S/C27H47NO7/c1-8-11-13-17(4)16-20(7)24(29)28-15-12-14-21(28)26(32)35-23(19(6)10-3)27(33)34-22(25(30)31)18(5)9-2/h17-23H,8-16H2,1-7H3,(H,30,31)/t17-,18-,19-,20-,21-,22-,23+/m0/s1
INCHIAUX=N/A
PUBMED=N/A
SUBMITUSER=mwang87
LIBRARYQUALITY=1
SPECTRUMID=CCMSLIB00000001585
SCANS=1
141.056274 80597.0 
154.681396 118656.0 
211.692444 99914.0 
222.837402 327238.0 
223.751923 7173704.0 
224.515045 93961.0 
229.857437 305698.0 
230.434143 41.0 
250.958084 1192329.0 
251.8358 52451104.0 
252.694672 126.0 
270.654785 41991.0 
325.916565 59359.0 
342.75531 128639.0 
343.968353 11442391.0 
344.706909 81.0 
365.149872 1348845.0 
365.904297 103115704.0 
366.657532 161.0 
383.930817 2318164.0 
451.054047 397835.0 
451.866577 5833619.0 
452.534393 60.0 
475.956177 104898.0 
479.857727 2408487.0 
480.537079 192.0 
END IONS

