BEGIN IONS
PEPMASS=234.2
CHARGE=0+
MSLEVEL=2
SOURCE_INSTRUMENT=LC-ESI-Ion Trap
FILENAME=20130501_Ger_Jenia_Mimosamycin_MH234.2-qb.1.1..mgf
SEQ=*..*
IONMODE=Positive
ORGANISM=GNPS-LIBRARY
NAME=Mimosamycin M+H
PI=Gerwick
DATACOLLECTOR=Jenia
SMILES=COC1=C(C)C(=O)C2=CC(=O)N(C)C=C2C1=O
INCHI=InChI=1S/C12H11NO4/c1-6-10(15)7-4-9(14)13(2)5-8(7)11(16)12(6)17-3/h4-5H,1-3H3
INCHIAUX=BXQZTMMXFKFJIY-UHFFFAOYSA-N
PUBMED=N/A
SUBMITUSER=mwang87
LIBRARYQUALITY=1
SPECTRUMID=CCMSLIB00000001769
SCANS=1
135.222656 11015.0 
136.941162 5249.0 
144.819519 24391.0 
145.721558 11215.0 
147.033752 638268.0 
147.959061 229254.0 
148.762985 12435.0 
160.068024 6034.0 
162.609985 19056.0 
175.016693 795.0 
175.65741 8942.0 
176.197937 11359.0 
176.897171 8239.0 
178.170746 153410.0 
178.904572 7.0 
179.548584 83753.0 
187.702362 11500.0 
189.036804 7020.0 
190.212585 50100.0 
190.832779 2856819.0 
191.889404 582164.0 
192.840958 24398.0 
193.430145 35133.0 
202.010284 1028.0 
203.978073 112048.0 
204.650467 55707.0 
205.212585 85219.0 
206.11351 4554134.0 
207.104553 1197605.0 
207.860367 112735.0 
208.780807 105842.0 
209.30043 2437.0 
216.076477 129316.0 
217.018021 118194.0 
217.968033 151693.0 
218.991791 2464289.0 
219.959946 466112.0 
220.671783 29630.0 
221.464676 5147.0 
229.478668 2807.0 
231.176376 35100.0 
232.080276 201795.0 
232.759338 6583.0 
233.462204 108431.0 
234.120758 5119963.0 
235.094254 1320892.0 
236.1427 313061.0 
236.969711 12725.0 
238.872711 22387.0 
239.483521 8260.0 
243.068115 14097.0 
244.273148 26551.0 
END IONS

