BEGIN IONS
PEPMASS=526.8
CHARGE=0+
MSLEVEL=2
SOURCE_INSTRUMENT=LC-ESI-qTof
FILENAME=20130221_Jenia_Ger_Hormothamnione_triacetate_MH526.8-qb.1.1..mgf
SEQ=*..*
IONMODE=Positive
ORGANISM=GNPS-LIBRARY
NAME=Hormothamnione_triacetate M+H
PI=Gerwick
DATACOLLECTOR=Jenia
SMILES=CC1=C(OC2=C(C1=O)C(=C(C(=C2OC)OC)OC)OC(=O)C)/C=C/C3=CC(=CC(=C3)OC(=O)C)OC(=O)C
INCHI=InChI=1S/C27H26O11/c1-13-20(9-8-17-10-18(35-14(2)28)12-19(11-17)36-15(3)29)38-24-21(22(13)31)23(37-16(4)30)25(32-5)27(34-7)26(24)33-6/h8-12H,1-7H3/b9-8+
INCHIAUX=N/A
PUBMED=N/A
SUBMITUSER=mwang87
LIBRARYQUALITY=1
SPECTRUMID=CCMSLIB00000001744
SCANS=1
484.381958 6604127.0 
485.021606 370240000.0 
485.962585 786.0 
END IONS

