BEGIN IONS
PEPMASS=879.34
CHARGE=0+
MSLEVEL=2
SOURCE_INSTRUMENT=LC-ESI-qTof
FILENAME=20121205_Jenia_Ger_Dolastatin_16_MH879_qb.1.1..mgf
SEQ=*..*
IONMODE=Positive
ORGANISM=GNPS-LIBRARY
NAME=Dolastatin_16 M+H
PI=Gerwick
DATACOLLECTOR=Jenia
SMILES=C[C@H]1C(=O)N2CCC[C@H]2C(=O)O[C@@H](C(=O)N([C@@H](C(=O)N3CCC[C@H]3C(=O)NC(C(=O)N4CCC[C@H]4C(=O)NC(C(C(=O)O1)C)C(C)C)C(C)CC5=CC=CC=C5)C(C)C)C)C(C)C
INCHI=InChI=1S/C47H70N6O10/c1-26(2)36-30(8)46(60)62-31(9)42(56)53-24-16-21-35(53)47(61)63-39(28(5)6)45(59)50(10)38(27(3)4)44(58)52-23-15-20-34(52)41(55)49-37(29(7)25-32-17-12-11-13-18-32)43(57)51-22-14-19-33(51)40(54)48-36/h11-13,17-18,26-31,33-39H,14-16,19-25H2,1-10H3,(H,48,54)(H,49,55)/t29?,30?,31-,33-,34-,35-,36?,37?,38+,39+/m0/s1
INCHIAUX=N/A
PUBMED=N/A
SUBMITUSER=mwang87
LIBRARYQUALITY=1
SPECTRUMID=CCMSLIB00000001648
SCANS=1
269.673096 897196.0 
270.273315 30.0 
285.121338 63896.0 
315.036743 545904.0 
322.048584 162779.0 
337.154358 329237.0 
354.920044 105492.0 
364.123779 94590.0 
366.212036 67448.0 
382.179016 132815.0 
383.054443 7669972.0 
384.451599 463019.0 
385.162598 107.0 
410.0849 246589.0 
411.020203 42226.0 
412.150024 57494480.0 
413.115479 7518609.0 
414.0 2.0 
414.940002 31077.0 
453.162048 51847.0 
460.152039 1426484.0 
461.007324 168327.0 
469.278503 182184.0 
480.27655 159761.0 
489.568176 39396.0 
497.194702 601612.0 
498.343506 126698.0 
509.153748 2351075.0 
509.853271 35.0 
512.083008 68993.0 
512.910767 35747.0 
520.065918 794465.0 
520.73877 37.0 
538.434326 450751.0 
542.17749 18381.0 
569.06189 727299.0 
582.776611 15506.0 
587.163696 390047.0 
587.855957 321631.0 
591.091553 486359.0 
609.17041 647384.0 
627.505615 870374.0 
628.418945 66269.0 
636.037476 5623.0 
655.224976 2103420.0 
656.096313 284894.0 
677.512695 113147.0 
683.529541 1069345.0 
684.147583 169524992.0 
685.128906 57263184.0 
685.954834 360.0 
688.343994 4809189.0 
689.225586 658551.0 
689.840576 23.0 
690.454102 279271.0 
703.163818 248216.0 
703.820801 16.0 
706.2771 645173.0 
738.056641 981840.0 
739.32312 205080.0 
763.817017 82515.0 
779.440552 8292.0 
780.400879 60393.0 
781.693481 255414.0 
782.642212 510981.0 
783.56665 6.0 
793.187012 133469.0 
809.830444 497808.0 
835.298828 1044554.0 
836.304688 708105.0 
836.963501 55.0 
851.233398 20763504.0 
852.216064 7227740.0 
852.96936 202839.0 
861.02124 613020.0 
861.822021 18.0 
879.279907 1530961.0 
879.946167 36.0 
END IONS

