BEGIN IONS
PEPMASS=736.0
CHARGE=0+
MSLEVEL=2
SOURCE_INSTRUMENT=LC-ESI-qTof
FILENAME=20121201_PAVL_Ger_LyngbyabellinA_M2Na_736_qb.1.1..mgf
SEQ=*..*
IONMODE=Positive
ORGANISM=GNPS-LIBRARY
NAME=Lyngbyabellin A M+2Na
PI=Gerwick
DATACOLLECTOR=PAVL
SMILES=CC[C@H](C)[C@H]1C2=NC(=CS2)C(=O)O[C@H](C(C(=O)O[C@H](C3=NC(=CS3)C(=O)NCC(=O)N1)C(C)(C)O)(C)C)CCCC(C)(Cl)Cl
INCHI=InChI=1S/C29H40Cl2N4O7S2/c1-8-15(2)20-23-34-17(14-43-23)25(38)41-18(10-9-11-29(7,30)31)27(3,4)26(39)42-21(28(5,6)40)24-33-16(13-44-24)22(37)32-12-19(36)35-20/h13-15,18,20-21,40H,8-12H2,1-7H3,(H,32,37)(H,35,36)/t15-,18-,20-,21+/m0/s1
INCHIAUX=N/A
PUBMED=N/A
SUBMITUSER=mwang87
LIBRARYQUALITY=1
SPECTRUMID=CCMSLIB00000001626
SCANS=1
621.054688 1575.0 
688.749268 3898.0 
690.929321 47197.0 
703.828857 4850.0 
706.624268 1438.0 
712.023926 1633.0 
735.313965 2234.0 
END IONS

