BEGIN IONS
PEPMASS=497.9
CHARGE=0+
MSLEVEL=2
SOURCE_INSTRUMENT=LC-ESI-qTof
FILENAME=20121108_Jenia_Ger_TumonoicAcidI_MH_497p9_qb.1.1..mgf
SEQ=*..*
IONMODE=Positive
ORGANISM=GNPS-LIBRARY
NAME=Tumonoic Acid I M+H
PI=Gerwick
DATACOLLECTOR=Jenia
SMILES=CCCC[C@H](C)C[C@H](C)C(=O)N1CCC[C@H]1C(=O)O[C@H]([C@@H](C)CC)C(=O)O[C@@H]([C@@H](C)CC)C(=O)O
INCHI=InChI=1S/C27H47NO7/c1-8-11-13-17(4)16-20(7)24(29)28-15-12-14-21(28)26(32)35-23(19(6)10-3)27(33)34-22(25(30)31)18(5)9-2/h17-23H,8-16H2,1-7H3,(H,30,31)/t17-,18-,19-,20-,21-,22-,23+/m0/s1
INCHIAUX=N/A
PUBMED=N/A
SUBMITUSER=mwang87
LIBRARYQUALITY=1
SPECTRUMID=CCMSLIB00000001583
SCANS=1
141.056274 53731.0 
154.681396 79104.0 
193.304504 37044.0 
211.703552 95704.0 
222.909348 292595.0 
223.762924 6000360.0 
224.515045 62643.0 
229.887543 253669.0 
230.434143 27.0 
248.962646 21379.0 
250.951706 853361.0 
251.832596 43308768.0 
252.666031 147.0 
270.04718 12488.0 
270.654785 27994.0 
325.944458 66099.0 
342.75531 85759.0 
343.971649 9393978.0 
344.703979 63.0 
354.349854 38838.0 
362.20752 29080.0 
364.021851 17348.0 
365.143951 935109.0 
365.896942 85402448.0 
366.486694 1385.0 
383.95047 1933900.0 
384.691925 41.0 
451.054047 265223.0 
451.88739 4897305.0 
452.549438 44.0 
475.956177 69932.0 
479.850281 2147841.0 
480.519409 157.0 
END IONS

