BEGIN IONS
PEPMASS=376.249
CHARGE=1+
MSLEVEL=2
SOURCE_INSTRUMENT=LC-ESI-qTof
FILENAME=2A10_R-4-benzyl-3-((S)-3-hydroxy-2_2-dimethyloctanoyl)-5_5-dimethyloxazolidin-2-one.mzXML
SEQ=*..*
IONMODE=Positive
ORGANISM=GNPS-LIBRARY
NAME="R-4-benzyl-3-((R)-3-hydroxy-2,2-dimethyloctanoyl)-5,5-dimethyloxazolidin-2-one" M+H
PI=Dorrestein/Gerwick
DATACOLLECTOR=Garg/Luzzato
SMILES=O=C1OC(C)(C)[C@@H](CC2=CC=CC=C2)N1C(C(C)(C)[C@H](O)CCCCC)=O
INCHI=N/A
INCHIAUX=N/A
PUBMED=N/A
SUBMITUSER=mwang87
LIBRARYQUALITY=2
SPECTRUMID=CCMSLIB00000068226
SCANS=2618
99.662277 224.0 
105.174438 176.0 
107.955147 180.0 
117.067505 192.0 
128.708893 180.0 
132.69133 284.0 
135.120087 172.0 
143.087738 208.0 
145.101028 2144.0 
146.099579 200.0 
146.402725 204.0 
153.128448 592.0 
158.195251 256.0 
162.130463 212.0 
168.628616 200.0 
170.156311 208.0 
176.066574 160.0 
188.105209 176.0 
195.119095 152.0 
206.117371 3452.0 
207.045502 212.0 
207.121735 416.0 
214.144608 144.0 
232.174789 184.0 
236.208771 208.0 
249.115402 140.0 
254.704269 140.0 
258.947815 268.0 
264.888123 172.0 
264.926971 176.0 
265.967438 164.0 
276.166809 164.0 
286.23822 164.0 
290.891785 148.0 
292.869934 172.0 
306.256805 152.0 
314.246368 528.0 
315.245392 200.0 
331.974945 140.0 
349.832764 176.0 
352.005524 232.0 
354.083893 148.0 
358.237976 1912.0 
359.244873 1080.0 
360.249969 208.0 
374.114288 228.0 
374.160522 200.0 
375.215668 148.0 
375.249847 1244.0 
376.259308 128.0 
377.226135 184.0 
377.26123 204.0 
727.467896 152.0 
1474.949463 160.0 
1761.998901 280.0 
1816.588501 160.0 
1975.730225 152.0 
END IONS

