BEGIN IONS
PEPMASS=1375.92
CHARGE=1+
MSLEVEL=2
SOURCE_INSTRUMENT=LC-ESI-qTof
FILENAME=f.RReher/2264/Reference_swinholide/SwinholideC_G_MaXis_M+H.mgf;
SEQ=*..*
IONMODE=Positive
ORGANISM=GNPS-LIBRARY
NAME=Swinholide C/G M+H
PI=Gerwick
DATACOLLECTOR=RReher
SMILES=COC1CC(C)OC(CCC(C)C(O)C(C)C2OC(=O)\C=C\C(\C)=C\CC(O)CC3OC(CC=C3)CC(OC)C(C)C(O)CC(O)C(C)C(OC(=O)\C=C\C(\C)=C\CC(O)CC3OC(CC=C3)CC(OC)C(C)C(O)CC(O)C2C)C(C)C(O)C(C)CCC2CC(O)CC(C)O2)C1
INCHI=
INCHIAUX=
PUBMED=
SUBMITUSER=RReher
LIBRARYQUALITY=3
SPECTRUMID=CCMSLIB00005466097
SCANS=1
67.017166 159.0 
69.030022 121.0 
79.02034 269.0 
80.998299 214.0 
81.035629 734.0 
83.014999 96.0 
83.04866 80.0 
85.031273 710.0 
87.010323 144.0 
87.329178 66.0 
91.019615 296.0 
93.036751 761.0 
94.040123 162.0 
95.016159 1753.0 
95.053963 1862.0 
96.055664 72.0 
96.996078 109.0 
97.032578 2544.0 
97.068016 137.0 
98.033424 173.0 
99.048325 1193.0 
100.049973 77.0 
103.020828 93.0 
103.041359 104.0 
105.039246 1164.0 
106.042213 150.0 
107.019249 72.0 
107.055367 2624.0 
108.058693 341.0 
109.034142 847.0 
109.070625 1670.0 
110.037148 102.0 
110.073357 76.0 
111.017197 152.0 
111.050865 1187.0 
112.054192 122.0 
113.029572 464.0 
113.066849 635.0 
115.007637 94.0 
115.025192 183.0 
115.044991 264.0 
116.02742 76.0 
117.038963 246.0 
119.019135 139.0 
119.056961 1301.0 
120.058655 187.0 
121.036911 379.0 
121.072327 1773.0 
122.075073 261.0 
123.017029 90.0 
123.051773 5305.0 
123.087975 1039.0 
123.681221 67.0 
124.054581 389.0 
125.03215 326.0 
125.068062 3322.0 
126.073524 198.0 
127.047791 621.0 
127.083008 224.0 
129.025925 527.0 
129.040863 355.0 
129.063431 3061.0 
130.043335 112.0 
130.068207 140.0 
131.022995 76.0 
131.058502 1068.0 
132.059219 115.0 
133.038177 526.0 
133.074127 1584.0 
134.077255 124.0 
135.019547 81.0 
135.05394 670.0 
135.090439 2534.0 
136.057709 143.0 
136.093369 303.0 
137.034271 918.0 
137.069626 1481.0 
137.10733 525.0 
138.048859 81.0 
138.072983 137.0 
138.110519 89.0 
139.048752 851.0 
139.086227 1174.0 
140.050171 73.0 
140.089233 178.0 
141.028214 351.0 
141.065613 1327.0 
142.064804 119.0 
143.059082 1103.0 
143.080109 468.0 
143.97374 68.0 
144.069016 135.0 
145.041534 273.0 
145.07489 2719.0 
146.079178 358.0 
147.019623 196.0 
147.055222 796.0 
147.091415 3779.0 
148.056946 78.0 
148.094406 388.0 
149.034286 168.0 
149.071426 714.0 
149.107254 3055.0 
150.108856 295.0 
151.049667 253.0 
151.086349 2392.0 
151.12323 364.0 
152.054352 122.0 
152.090546 216.0 
152.12735 70.0 
153.032364 89.0 
153.066925 675.0 
153.10376 865.0 
154.051102 76.0 
154.069427 80.0 
154.105865 92.0 
155.082397 8510.0 
155.117783 132.0 
156.085556 920.0 
157.024902 103.0 
157.040756 86.0 
157.076004 678.0 
158.085678 140.0 
159.056396 439.0 
159.09256 2219.0 
160.061859 107.0 
160.097214 365.0 
161.034973 475.0 
161.072815 881.0 
161.108582 2532.0 
162.071671 95.0 
162.111847 448.0 
163.05275 386.0 
163.088715 2297.0 
163.124954 1633.0 
164.091003 205.0 
164.127975 232.0 
165.031357 234.0 
165.068527 662.0 
165.104218 2630.0 
165.139389 244.0 
166.106659 272.0 
167.04924 164.0 
167.082291 452.0 
167.120239 1237.0 
168.054077 105.0 
169.078537 842.0 
169.099319 633.0 
170.088211 89.0 
170.106339 106.0 
171.056519 682.0 
171.092285 1614.0 
172.06282 118.0 
172.095779 307.0 
173.036392 75.0 
173.07222 861.0 
173.110413 2403.0 
174.11438 279.0 
175.053604 521.0 
175.088669 706.0 
175.125397 2436.0 
176.057114 71.0 
176.126862 233.0 
177.067886 374.0 
177.105591 1511.0 
177.141785 1082.0 
178.067459 105.0 
178.107422 212.0 
178.144775 244.0 
179.053513 167.0 
179.084824 860.0 
179.121429 1695.0 
180.124115 320.0 
181.100143 2573.0 
181.138565 692.0 
182.103668 441.0 
182.910568 68.0 
183.058105 273.0 
183.116653 7399.0 
184.119064 1019.0 
185.074936 785.0 
185.112488 1270.0 
186.076416 91.0 
186.113602 154.0 
187.056015 94.0 
187.091995 1545.0 
187.126602 2562.0 
188.091751 240.0 
188.128952 469.0 
189.035385 90.0 
189.070557 1066.0 
189.106979 1663.0 
189.143188 1222.0 
190.071838 83.0 
190.109833 167.0 
190.146317 268.0 
191.049515 123.0 
191.086197 1364.0 
191.12236 4854.0 
191.157349 455.0 
192.09285 182.0 
192.12677 789.0 
192.164627 69.0 
193.06633 503.0 
193.099197 333.0 
193.137939 1667.0 
194.070435 87.0 
194.139542 294.0 
195.117493 1581.0 
195.15152 341.0 
196.120407 363.0 
196.157562 66.0 
197.074158 513.0 
197.109467 714.0 
197.132233 714.0 
198.107117 208.0 
199.091248 777.0 
199.129227 848.0 
199.148209 904.0 
200.094925 148.0 
200.131256 88.0 
201.070694 835.0 
201.137344 1584.0 
202.073975 108.0 
202.133743 234.0 
202.146484 260.0 
203.085739 656.0 
203.123322 968.0 
203.16011 896.0 
204.093063 104.0 
204.126556 187.0 
204.16304 140.0 
205.067322 154.0 
205.102982 1424.0 
205.139175 2759.0 
206.067886 72.0 
206.108429 228.0 
206.143616 399.0 
207.083069 389.0 
207.118271 2225.0 
207.155426 661.0 
208.123108 200.0 
208.156067 231.0 
209.102325 499.0 
209.13472 3241.0 
209.171509 227.0 
210.137421 633.0 
211.081955 416.0 
211.125885 712.0 
212.131989 179.0 
213.071472 96.0 
213.109222 880.0 
213.144608 1064.0 
214.112427 191.0 
214.144165 211.0 
215.087463 1772.0 
215.147415 3454.0 
216.093353 200.0 
216.150818 305.0 
217.103348 460.0 
217.144333 441.0 
217.177124 1244.0 
218.111526 116.0 
218.145065 108.0 
218.179703 218.0 
219.083572 875.0 
219.11882 528.0 
219.157227 2486.0 
219.193329 133.0 
220.088455 116.0 
220.125259 106.0 
220.160034 414.0 
221.100281 483.0 
221.134079 1099.0 
221.172165 447.0 
222.106155 85.0 
222.139191 200.0 
222.951202 67.0 
223.151535 26020.0 
224.093628 90.0 
224.154724 4179.0 
225.165558 2517.0 
226.112198 86.0 
226.135757 125.0 
226.171356 269.0 
227.089096 211.0 
227.124863 226.0 
227.162827 2512.0 
228.100418 74.0 
228.160324 297.0 
229.106384 377.0 
229.140488 639.0 
229.179199 758.0 
230.180054 230.0 
231.087585 404.0 
231.120621 913.0 
231.156876 734.0 
231.200836 90.0 
232.121399 124.0 
232.159393 165.0 
233.100647 2062.0 
233.172897 1283.0 
234.102402 252.0 
234.13829 80.0 
234.175873 165.0 
235.080887 148.0 
235.134811 620.0 
235.189636 1245.0 
236.135239 67.0 
236.160873 71.0 
236.192917 113.0 
237.096481 2102.0 
237.169174 2253.0 
238.094879 226.0 
238.172699 464.0 
238.227615 90.0 
239.090439 107.0 
239.15033 1054.0 
240.065979 74.0 
240.154541 308.0 
241.105835 887.0 
241.142136 470.0 
241.169449 912.0 
242.110947 119.0 
242.176147 280.0 
243.120956 508.0 
243.159149 797.0 
243.194946 1017.0 
244.124557 172.0 
244.16394 300.0 
244.197281 240.0 
245.099854 693.0 
245.137085 627.0 
245.17482 3881.0 
246.135437 79.0 
246.178482 731.0 
247.117874 368.0 
247.152191 723.0 
247.189926 1248.0 
248.115158 105.0 
248.153397 110.0 
248.187836 186.0 
249.096664 256.0 
249.135208 546.0 
249.168533 1961.0 
250.096252 130.0 
250.135223 133.0 
250.172043 269.0 
251.112915 3069.0 
251.184082 3396.0 
252.116257 642.0 
252.167725 131.0 
252.187683 257.0 
253.141037 592.0 
253.176849 485.0 
254.13623 133.0 
254.177887 175.0 
255.122116 326.0 
255.181381 1353.0 
256.121674 91.0 
256.176788 321.0 
257.098816 180.0 
257.138031 675.0 
257.174561 746.0 
257.204437 345.0 
258.146667 108.0 
258.214844 97.0 
259.117249 1891.0 
259.155029 354.0 
259.19046 1556.0 
260.123016 282.0 
260.190887 258.0 
261.134003 286.0 
261.169586 1402.0 
261.206024 1104.0 
262.146667 120.0 
262.174927 359.0 
262.208466 239.0 
262.977081 84.0 
263.064392 72.0 
263.112427 399.0 
263.185516 21481.0 
264.124268 106.0 
264.189636 3738.0 
265.124298 254.0 
265.199768 3463.0 
266.141174 99.0 
266.205414 476.0 
267.124695 119.0 
267.217773 10399.0 
268.221222 2062.0 
268.332001 72.0 
269.125793 605.0 
269.175598 844.0 
269.214569 372.0 
270.122589 171.0 
270.182098 167.0 
270.217133 68.0 
271.154663 1004.0 
271.19104 1775.0 
272.157104 269.0 
272.196381 262.0 
273.134674 919.0 
273.196442 1006.0 
274.138458 217.0 
274.211609 172.0 
275.112152 220.0 
275.152222 420.0 
275.186951 1131.0 
275.221863 333.0 
276.188171 98.0 
276.362061 65.0 
277.130493 3339.0 
277.200928 3363.0 
278.133301 490.0 
278.206543 423.0 
279.141357 346.0 
279.183441 572.0 
279.21701 1475.0 
280.123077 73.0 
280.167755 187.0 
280.218689 281.0 
281.143158 866.0 
281.197144 2215.0 
282.146057 107.0 
282.200775 347.0 
283.156403 688.0 
283.214661 1365.0 
284.161102 99.0 
284.218262 261.0 
285.137817 428.0 
285.222076 637.0 
286.140594 161.0 
286.21991 146.0 
287.147675 552.0 
287.186768 905.0 
287.224152 233.0 
288.156921 157.0 
288.187286 147.0 
289.121887 70.0 
289.166077 653.0 
289.203766 3581.0 
290.205597 998.0 
290.587372 67.0 
291.14679 2675.0 
291.218201 2337.0 
292.14975 422.0 
292.220673 456.0 
293.134064 266.0 
293.163269 374.0 
293.201599 721.0 
293.234375 2825.0 
294.180298 96.0 
294.238464 596.0 
295.144623 932.0 
295.215088 3997.0 
296.156311 110.0 
296.220245 888.0 
297.140381 168.0 
297.17392 918.0 
297.211884 368.0 
297.225708 406.0 
298.17572 240.0 
298.220795 110.0 
299.152435 1369.0 
299.222321 335.0 
300.159363 254.0 
300.230438 69.0 
301.165833 516.0 
301.241425 1891.0 
302.171783 307.0 
302.245148 278.0 
303.113251 91.0 
303.147095 1311.0 
303.185547 201.0 
303.219757 552.0 
304.149933 206.0 
304.193512 122.0 
305.163452 785.0 
305.199554 1002.0 
305.233368 486.0 
306.168884 152.0 
306.204651 211.0 
307.21524 5584.0 
308.182556 178.0 
308.218018 1235.0 
309.159668 1895.0 
309.230743 1831.0 
310.157959 262.0 
310.232117 376.0 
311.154541 178.0 
311.192108 192.0 
311.244568 2616.0 
312.160187 71.0 
312.200531 111.0 
312.249664 563.0 
313.16803 510.0 
313.226166 3147.0 
314.172485 188.0 
314.232452 606.0 
315.152313 388.0 
315.18396 990.0 
315.221649 465.0 
315.25351 174.0 
316.187744 386.0 
317.164886 2108.0 
317.235779 635.0 
318.164886 630.0 
318.244171 157.0 
319.177673 688.0 
319.251587 4558.0 
320.183014 135.0 
320.256439 1125.0 
321.159546 920.0 
321.231293 2306.0 
322.1633 220.0 
322.23584 536.0 
323.182465 395.0 
323.222229 549.0 
323.246857 540.0 
324.188812 213.0 
324.253113 112.0 
325.167511 1071.0 
325.235107 335.0 
326.177429 239.0 
326.239868 127.0 
327.147125 180.0 
327.186646 466.0 
327.253876 744.0 
328.182617 159.0 
328.230072 85.0 
328.258057 121.0 
329.165924 1009.0 
329.237213 1888.0 
330.167603 107.0 
330.240234 437.0 
331.180573 847.0 
331.25058 894.0 
332.191681 99.0 
332.247437 229.0 
333.196503 1038.0 
333.267395 1161.0 
334.19989 310.0 
334.273468 428.0 
335.174408 1484.0 
335.223328 276.0 
335.248871 387.0 
336.200073 115.0 
336.234253 132.0 
337.209442 1003.0 
337.240204 1063.0 
338.207123 183.0 
338.246948 284.0 
339.183319 217.0 
339.24292 2225.0 
340.245636 652.0 
341.162079 79.0 
341.204102 737.0 
341.234192 408.0 
342.19397 117.0 
342.266785 139.0 
343.097137 70.0 
343.180389 2249.0 
343.254669 401.0 
344.181915 780.0 
345.197296 544.0 
345.229889 261.0 
345.269836 1940.0 
346.213501 65.0 
346.274445 531.0 
347.177704 877.0 
347.249176 1569.0 
348.180725 165.0 
348.252991 481.0 
349.191559 679.0 
349.261902 1452.0 
350.186432 89.0 
350.261902 392.0 
351.192322 197.0 
351.221863 366.0 
351.279541 4805.0 
352.218262 80.0 
352.282806 930.0 
353.199554 683.0 
353.243408 250.0 
353.284668 230.0 
354.198151 152.0 
354.243439 160.0 
355.218262 1654.0 
355.253784 3345.0 
356.219971 402.0 
356.262512 561.0 
357.198578 608.0 
357.234772 811.0 
357.259186 767.0 
358.201202 133.0 
358.266815 281.0 
359.215729 863.0 
359.283325 365.0 
360.215698 195.0 
360.288849 111.0 
361.191742 1779.0 
361.265625 1036.0 
362.200012 307.0 
362.27066 158.0 
363.218781 446.0 
363.278687 967.0 
364.227051 226.0 
364.285614 276.0 
365.22403 1053.0 
365.268494 562.0 
366.230133 195.0 
366.276031 130.0 
367.216553 598.0 
367.25882 233.0 
368.213928 191.0 
368.288635 70.0 
369.194092 506.0 
369.234924 253.0 
369.290649 1575.0 
370.212433 96.0 
370.295441 483.0 
371.211731 750.0 
371.280396 241.0 
372.211273 134.0 
372.288849 144.0 
373.229034 2046.0 
373.265045 7299.0 
374.231995 621.0 
374.268677 2009.0 
375.212799 852.0 
375.278168 528.0 
376.216949 267.0 
376.272736 186.0 
377.183624 72.0 
377.239655 1083.0 
377.297791 1405.0 
378.234406 274.0 
378.300873 405.0 
379.204346 907.0 
379.277802 979.0 
380.213196 145.0 
380.286591 263.0 
381.185333 178.0 
381.233185 756.0 
381.297546 362.0 
382.235779 212.0 
382.303558 76.0 
383.171204 76.0 
383.213684 735.0 
383.284637 320.0 
384.215271 95.0 
384.257507 81.0 
385.23233 419.0 
386.235901 87.0 
386.277008 65.0 
387.209229 603.0 
387.245026 426.0 
387.283386 1841.0 
388.213013 220.0 
388.255951 221.0 
388.282837 452.0 
389.224335 593.0 
389.262268 281.0 
390.234009 174.0 
391.275909 2448.0 
392.247437 171.0 
392.278809 418.0 
393.224152 1069.0 
393.292603 401.0 
394.221649 392.0 
394.303558 133.0 
395.250732 2203.0 
395.30658 1150.0 
396.25238 580.0 
396.313019 247.0 
397.220398 763.0 
397.302765 949.0 
398.225555 216.0 
398.307281 245.0 
399.244812 2566.0 
400.206726 115.0 
400.249084 618.0 
400.286774 141.0 
401.225159 1080.0 
401.313202 83.0 
402.226837 221.0 
403.236084 500.0 
404.247742 153.0 
404.302063 73.0 
405.294373 5606.0 
406.296173 1880.0 
407.23468 328.0 
407.29834 575.0 
408.248779 67.0 
408.299866 231.0 
409.262115 332.0 
409.323639 972.0 
410.2742 122.0 
410.329468 243.0 
411.184052 72.0 
411.236786 826.0 
411.31723 252.0 
412.240143 190.0 
412.317871 79.0 
413.189972 100.0 
413.261993 3800.0 
413.335724 125.0 
414.26532 1346.0 
415.250153 719.0 
415.312164 477.0 
416.244354 65.0 
416.273956 113.0 
416.315399 127.0 
417.259064 1027.0 
418.264008 348.0 
419.237854 451.0 
419.2836 162.0 
420.242126 118.0 
420.310883 80.0 
421.252258 449.0 
421.30307 239.0 
422.263794 83.0 
422.306458 120.0 
423.308746 3916.0 
424.316437 1077.0 
425.211853 81.0 
425.300537 1158.0 
426.257874 82.0 
426.306396 306.0 
427.23114 65.0 
427.282532 588.0 
427.332611 233.0 
428.277466 107.0 
428.32251 79.0 
429.260681 673.0 
429.316132 138.0 
430.259644 343.0 
431.272034 1947.0 
432.271149 288.0 
433.258759 414.0 
433.30957 212.0 
434.249756 79.0 
434.313232 107.0 
435.278107 167.0 
437.280121 446.0 
437.32132 637.0 
438.288361 199.0 
438.317291 168.0 
439.231079 83.0 
439.314117 598.0 
440.321899 310.0 
441.278229 233.0 
441.329773 3764.0 
442.279907 79.0 
442.332428 1113.0 
443.309021 1459.0 
444.271423 65.0 
444.317596 482.0 
445.213409 67.0 
445.299194 507.0 
446.297058 127.0 
447.275238 328.0 
448.280273 208.0 
449.285217 2746.0 
450.23938 76.0 
450.290955 982.0 
451.277344 361.0 
452.285309 136.0 
452.31958 209.0 
453.287811 295.0 
454.307129 141.0 
455.341522 1324.0 
456.299164 206.0 
456.350891 649.0 
457.325714 1138.0 
458.336182 459.0 
459.341797 1062.0 
460.295135 150.0 
460.344025 270.0 
461.28299 280.0 
462.295288 120.0 
463.301178 2313.0 
464.307343 635.0 
465.281555 617.0 
466.289246 124.0 
467.301514 675.0 
468.292572 164.0 
469.32901 440.0 
470.286987 97.0 
470.335876 220.0 
471.300171 228.0 
471.343781 422.0 
472.332092 95.0 
473.358582 3930.0 
474.309662 200.0 
474.360168 1135.0 
475.337524 1583.0 
476.341278 455.0 
477.298676 616.0 
478.300171 193.0 
479.225677 73.0 
479.305267 253.0 
480.323975 196.0 
481.317078 524.0 
482.264496 91.0 
482.313873 187.0 
483.309692 385.0 
484.308624 73.0 
485.321289 201.0 
487.312805 223.0 
487.336884 281.0 
487.37677 218.0 
488.380981 81.0 
489.352325 848.0 
490.362213 217.0 
491.311768 1030.0 
491.368256 1431.0 
492.315887 211.0 
492.365295 299.0 
493.337036 347.0 
494.324249 175.0 
494.359558 149.0 
495.31192 769.0 
496.307678 298.0 
496.366852 142.0 
497.248199 72.0 
497.330658 321.0 
498.321381 107.0 
499.351959 170.0 
501.338501 534.0 
502.324615 184.0 
503.350891 91.0 
505.33017 181.0 
505.383209 1079.0 
506.393341 412.0 
507.36264 243.0 
508.358185 119.0 
509.321747 1478.0 
510.333038 392.0 
510.38208 83.0 
511.270508 65.0 
511.335907 390.0 
512.352966 102.0 
513.321716 712.0 
514.321899 337.0 
515.34552 675.0 
516.35321 106.0 
517.352356 163.0 
519.237244 71.0 
519.344421 887.0 
520.351257 596.0 
521.34436 205.0 
522.372009 94.0 
523.34259 482.0 
523.397705 1007.0 
524.351074 149.0 
524.400879 434.0 
525.357056 141.0 
526.364136 99.0 
526.388672 140.0 
527.335693 1335.0 
528.343262 451.0 
529.3479 304.0 
530.358215 105.0 
531.332275 103.0 
531.375671 350.0 
532.330322 102.0 
533.360535 1462.0 
534.370605 235.0 
535.364319 249.0 
536.329224 69.0 
536.364563 92.0 
537.355042 1155.0 
538.359009 362.0 
539.273071 122.0 
539.373169 78.0 
541.281738 69.0 
541.358765 968.0 
542.367859 457.0 
543.368286 196.0 
545.355164 1774.0 
546.35791 759.0 
547.362 260.0 
548.369568 84.0 
549.319885 85.0 
549.388855 250.0 
550.386902 255.0 
551.3703 1526.0 
552.371033 539.0 
552.424316 83.0 
553.37384 222.0 
554.348206 99.0 
555.367432 918.0 
556.367859 367.0 
557.30603 107.0 
557.376648 105.0 
557.817749 189.0 
558.31897 87.0 
559.37384 2793.0 
560.378723 938.0 
561.33252 83.0 
561.378174 277.0 
562.378052 167.0 
563.37207 3918.0 
564.374084 1270.0 
565.306335 74.0 
565.38501 553.0 
566.382935 128.0 
567.351379 107.0 
569.38324 1352.0 
570.384827 511.0 
571.384888 323.0 
572.396729 102.0 
573.38031 385.0 
574.387756 133.0 
575.307434 76.0 
575.371399 288.0 
576.36438 72.0 
577.387634 4984.0 
578.389587 2417.0 
579.395203 455.0 
580.37793 68.0 
581.382202 3989.0 
582.384644 1576.0 
583.325806 86.0 
583.391663 698.0 
584.399048 170.0 
585.390137 157.0 
586.374512 98.0 
587.393921 1734.0 
588.395203 921.0 
589.384583 223.0 
590.359558 68.0 
591.406433 1884.0 
592.276672 86.0 
592.408569 1108.0 
593.381958 289.0 
595.398438 8108.0 
596.401306 3386.0 
597.411987 754.0 
598.397949 125.0 
599.398987 1504.0 
600.397461 621.0 
601.405884 689.0 
602.418762 369.0 
603.329224 72.0 
603.394958 128.0 
605.408203 617.0 
606.406982 202.0 
607.406555 206.0 
608.409485 72.0 
609.414978 5334.0 
610.419556 1875.0 
611.418579 495.0 
613.328308 177.0 
613.410278 7501.0 
614.415649 3006.0 
615.417297 734.0 
616.427856 225.0 
617.396667 97.0 
618.427307 89.0 
619.347351 152.0 
619.421631 2394.0 
620.42041 893.0 
621.434326 246.0 
621.962463 77.0 
622.426514 66.0 
623.423096 324.0 
624.435242 175.0 
625.408569 388.0 
626.418762 90.0 
627.427368 10222.0 
628.429016 3793.0 
628.563416 73.0 
629.430908 806.0 
630.4328 188.0 
631.334473 77.0 
631.420105 5422.0 
632.424011 2503.0 
633.429504 772.0 
634.427551 233.0 
635.416931 95.0 
637.342163 66.0 
637.431641 1328.0 
638.43512 533.0 
639.425537 155.0 
640.428833 145.0 
641.387695 74.0 
641.444885 882.0 
642.445435 281.0 
643.426697 291.0 
643.90863 80.0 
644.428162 170.0 
645.43811 9453.0 
646.440186 4373.0 
646.675598 67.0 
647.441895 1087.0 
648.452942 148.0 
649.431274 605.0 
650.431091 163.0 
651.359741 134.0 
651.44751 1118.0 
652.453064 502.0 
653.443604 93.0 
655.347168 84.0 
655.44165 456.0 
656.441284 205.0 
657.437561 205.0 
658.435913 75.0 
659.453491 3334.0 
660.456177 1727.0 
661.455139 301.0 
662.458313 98.0 
663.331665 73.0 
663.446899 6871.0 
664.451599 3055.0 
665.451599 828.0 
666.470032 111.0 
667.430969 171.0 
668.410645 104.0 
669.455505 809.0 
670.463806 531.0 
671.472595 205.0 
672.407837 66.0 
673.452637 239.0 
674.412048 175.0 
675.386108 198.0 
675.459106 204.0 
677.463562 5774.0 
678.405396 76.0 
678.467773 3329.0 
679.361816 107.0 
679.472412 656.0 
680.479614 129.0 
681.330994 92.0 
681.45874 7959.0 
682.461914 3418.0 
683.46759 712.0 
684.454651 159.0 
685.469238 101.0 
687.467346 703.0 
688.47168 236.0 
689.479126 144.0 
690.40686 67.0 
691.389221 69.0 
691.43988 221.0 
692.431641 84.0 
693.373962 81.0 
693.421204 129.0 
693.484314 117.0 
695.474487 6386.0 
695.620728 87.0 
696.477173 2654.0 
697.481567 739.0 
698.428955 237.0 
698.48468 252.0 
698.931091 93.0 
699.435303 2578.0 
699.937317 1975.0 
700.4375 618.0 
700.946899 190.0 
701.421936 123.0 
701.466797 221.0 
702.484253 94.0 
703.453613 106.0 
705.477234 109.0 
707.424316 204.0 
709.447632 492.0 
710.450867 291.0 
711.406616 239.0 
713.485413 308.0 
714.506531 193.0 
717.422363 122.0 
719.462891 65.0 
721.477783 77.0 
725.420654 68.0 
726.430969 73.0 
727.444702 66.0 
729.452881 112.0 
731.472107 132.0 
731.563171 73.0 
733.416931 99.0 
733.518433 68.0 
735.463013 112.0 
737.491516 100.0 
740.484314 75.0 
743.503296 71.0 
744.436829 65.0 
745.472717 68.0 
749.456909 104.0 
750.494446 66.0 
751.463318 85.0 
761.513489 116.0 
763.471924 80.0 
763.560303 68.0 
765.489807 85.0 
766.459167 73.0 
767.509277 72.0 
769.473999 86.0 
773.476135 79.0 
779.437927 68.0 
781.501648 97.0 
783.504028 68.0 
785.505798 112.0 
791.465027 77.0 
792.490845 94.0 
793.49176 69.0 
795.539856 85.0 
797.513367 131.0 
799.523071 121.0 
800.528503 111.0 
801.516235 91.0 
802.513611 90.0 
807.487427 83.0 
809.509888 216.0 
816.544434 84.0 
817.525696 218.0 
818.527893 95.0 
819.512146 88.0 
823.536621 75.0 
833.539734 110.0 
835.526428 172.0 
839.520142 67.0 
840.523987 88.0 
841.51416 140.0 
843.52771 83.0 
845.524475 92.0 
849.554749 104.0 
851.547363 121.0 
853.553223 100.0 
854.52356 112.0 
855.519165 73.0 
857.522766 66.0 
858.536072 75.0 
863.533264 71.0 
867.555969 155.0 
868.56366 102.0 
871.555481 160.0 
874.580872 90.0 
877.554993 81.0 
878.570435 71.0 
883.576599 69.0 
884.591003 85.0 
885.564392 228.0 
886.582581 151.0 
887.566895 103.0 
889.535645 69.0 
889.571655 139.0 
890.546814 187.0 
891.566589 84.0 
901.518433 74.0 
901.614868 97.0 
903.57135 171.0 
904.572388 253.0 
905.559753 191.0 
906.579407 94.0 
907.567078 117.0 
908.555237 73.0 
909.587036 172.0 
911.577759 84.0 
913.567932 75.0 
916.621338 66.0 
917.620972 114.0 
919.584106 116.0 
920.577332 67.0 
921.573364 182.0 
922.590271 109.0 
923.575317 129.0 
925.647949 124.0 
932.590576 66.0 
936.591492 92.0 
937.568481 100.0 
937.631775 69.0 
938.591675 224.0 
939.597778 238.0 
940.600342 165.0 
943.601257 115.0 
943.694824 108.0 
944.614197 74.0 
949.615662 71.0 
951.593262 78.0 
952.593079 72.0 
954.633545 82.0 
955.609253 139.0 
957.597473 198.0 
958.598389 115.0 
958.662598 68.0 
959.65155 68.0 
961.631409 110.0 
962.612915 79.0 
963.610535 67.0 
964.62915 100.0 
967.650696 69.0 
968.645447 73.0 
969.61084 157.0 
971.63739 122.0 
972.650085 125.0 
973.626709 111.0 
975.640747 65.0 
977.633911 149.0 
977.696899 125.0 
979.616455 79.0 
980.638916 96.0 
983.660217 71.0 
985.639587 110.0 
987.62561 233.0 
988.651917 101.0 
989.61969 65.0 
990.675354 67.0 
991.609619 87.0 
994.643188 122.0 
995.638611 143.0 
996.636536 137.0 
998.634827 92.0 
999.666138 142.0 
1001.659424 130.0 
1002.667114 95.0 
1003.762756 65.0 
1005.626404 233.0 
1006.642944 246.0 
1007.660034 160.0 
1008.693237 70.0 
1011.660156 208.0 
1013.646545 92.0 
1014.651978 83.0 
1017.671936 70.0 
1019.653015 264.0 
1020.661499 158.0 
1021.680176 78.0 
1022.662048 115.0 
1023.637695 214.0 
1024.638794 177.0 
1025.657837 105.0 
1026.683838 121.0 
1027.661743 136.0 
1028.653931 74.0 
1029.669189 331.0 
1030.668701 152.0 
1031.691528 90.0 
1033.669922 130.0 
1035.693848 155.0 
1037.661743 358.0 
1038.675171 338.0 
1039.681641 168.0 
1040.68042 109.0 
1041.652344 165.0 
1041.724731 78.0 
1047.643555 167.0 
1047.708374 77.0 
1048.668945 66.0 
1049.709473 173.0 
1050.725586 109.0 
1051.72876 84.0 
1052.700195 97.0 
1053.715088 204.0 
1055.673096 837.0 
1056.678223 459.0 
1057.690186 286.0 
1058.700073 271.0 
1059.689453 76.0 
1063.690186 75.0 
1065.694946 85.0 
1067.721924 132.0 
1068.723022 113.0 
1069.756104 79.0 
1071.691895 87.0 
1073.688477 912.0 
1074.692749 680.0 
1075.713867 393.0 
1076.704102 101.0 
1077.721802 117.0 
1079.719971 68.0 
1085.717773 156.0 
1087.756348 100.0 
1089.744507 161.0 
1091.736938 203.0 
1092.706177 75.0 
1093.711914 191.0 
1094.727905 206.0 
1095.690796 116.0 
1096.705933 108.0 
1097.666138 426.0 
1098.663696 191.0 
1105.766602 73.0 
1107.74353 381.0 
1108.756836 241.0 
1109.752808 188.0 
1112.660889 77.0 
1114.720459 84.0 
1125.752197 1205.0 
1126.75647 514.0 
1127.758301 138.0 
1128.77478 186.0 
1142.773071 66.0 
1143.761963 687.0 
1144.764893 293.0 
1145.779907 128.0 
1167.747192 114.0 
1186.794434 78.0 
1189.79834 68.0 
1203.827148 90.0 
1206.822266 78.0 
1207.80481 72.0 
1221.81311 131.0 
1222.839966 89.0 
1223.852295 69.0 
1237.820312 109.0 
1239.847168 168.0 
1240.832275 83.0 
1242.839233 65.0 
1253.832886 118.0 
1254.523438 70.0 
1254.843628 69.0 
1255.860229 149.0 
1256.866821 67.0 
1257.833252 149.0 
1258.845703 121.0 
1267.85498 75.0 
1269.859253 66.0 
1271.873291 311.0 
1272.759277 65.0 
1272.875366 154.0 
1273.872803 162.0 
1274.860229 118.0 
1275.856079 105.0 
1286.909668 66.0 
1287.875854 186.0 
1288.891357 173.0 
1289.875732 500.0 
1290.880127 359.0 
1291.866211 314.0 
1292.875122 89.0 
1300.907715 92.0 
1303.894775 220.0 
1304.898193 197.0 
1305.885986 332.0 
1306.891724 314.0 
1307.885498 557.0 
1308.891602 490.0 
1309.893555 239.0 
1319.904541 127.0 
1321.904053 643.0 
1322.911743 425.0 
1323.812256 65.0 
1323.911011 450.0 
1324.912231 328.0 
1325.895386 411.0 
1326.89209 216.0 
1327.915161 123.0 
1337.919434 286.0 
1338.924805 292.0 
1339.916748 1794.0 
1340.919922 2206.0 
1341.21875 65.0 
1341.915283 1040.0 
1342.917603 320.0 
1343.88208 70.0 
1355.93396 142.0 
1356.925293 110.0 
1357.727783 115.0 
1357.923218 6488.0 
1358.216553 91.0 
1358.925781 6052.0 
1359.820923 94.0 
1359.92981 2440.0 
1360.572632 72.0 
1360.932129 706.0 
1361.929321 110.0 
1364.325562 66.0 
1371.899048 380.0 
1372.908813 455.0 
1373.610596 304.0 
1373.930542 193.0 
1374.5802 68.0 
1374.640869 115.0 
1375.598877 148.0 
1375.931152 249.0 
1376.85083 93.0 
1376.925171 343.0 
1377.911255 1855.0 
1378.376343 116.0 
1378.910522 1542.0 
1379.269165 173.0 
1379.410889 414.0 
1379.75769 135.0 
1379.893066 6057.0 
1380.203369 93.0 
1380.40918 319.0 
1380.645386 173.0 
1380.753296 178.0 
1380.894043 3994.0 
1381.031738 143.0 
1381.096558 144.0 
1381.260864 163.0 
1381.440552 98.0 
1381.541748 198.0 
1381.640625 348.0 
1381.711792 824.0 
1381.906494 122064.0 
1382.132935 272.0 
1382.204468 232.0 
1382.292236 219.0 
1382.463013 161.0 
1382.603271 259.0 
1382.911011 45848.0 
1383.126221 109.0 
1383.301514 185.0 
1383.414307 100.0 
1383.580566 146.0 
1383.700317 110.0 
1383.909668 2970.0 
1384.282959 141.0 
1384.716675 134.0 
1384.92334 144.0 
1385.058594 66.0 
1385.9375 119.0 
1386.710815 69.0 
1387.923462 70.0 
1388.020508 100.0 
1388.210449 126.0 
1388.334229 70.0 
1388.50647 150.0 
1388.702026 94.0 
1388.836548 95.0 
1388.916992 116.0 
1389.030151 82.0 
1389.15271 76.0 
1389.329712 80.0 
1389.984863 69.0 
1397.87439 134.0 
1398.891235 133.0 
END IONS

