BEGIN IONS
PEPMASS=995.556
CHARGE=1+
COMPOUNDNAME=Massbank:EA299210 Microcystin-LR|(5R,8R,11R,12S,15S,18S,19S,22R)-15-{3-[(Diaminomethylene)amino]propyl}-8-isobutyl-18-[(1E,3E,5S,6S)-6-methoxy-3,5-dimethyl-7-phenyl-1,3-heptadien-1-yl]-1,5,12,19-tetramethyl-2-methylene
LIBRARYQUALITY=3
SMILES=CC1C(NC(=O)C(NC(=O)C(C(NC(=O)C(NC(=O)C(NC(=O)C(=C)N(C(=O)CCC(NC1=O)C(=O)O)C)C)CC(C)C)C(=O)O)C)CCCN=C(N)N)C=CC(=CC(C)C(CC2=CC=CC=C2)OC)C
INCHIKEY=ZYZCGGRZINLQBL-UHFFFAOYSA-N
INCHI=1S/C49H74N10O12/c1-26(2)23-37-46(66)58-40(48(69)70)30(6)42(62)55-35(17-14-22-52-49(50)51)45(65)54-34(19-18-27(3)24-28(4)38(71-10)25-33-15-12-11-13-16-33)29(5)41(61)56-36(47(67)68)20-21-39(60)59(9)32(8)44(64)53-31(7)43(63)57-37/h11-13,15-16,18-19,24,26,28-31,34-38,40H,8,14,17,20-23,25H2,1-7,9-10H3,(H,53,64)(H,54,65)(H,55,62)(H,56,61)(H,57,63)(H,58,66)(H,67,68)(H,69,70)(H4,50,51,52)/b19-18+,27-24+/t28-,29-,30-,31+,34-,35-,36+,37-,38-,40+/m0/s1
MSLEVEL=2
SOURCE_INSTRUMENT=ESI-LC-ESI-ITFT
FILENAME=Massbank_ESI_positive_8_1_2014_peaks.mgf
SEQ=*..*
IONMODE=Positive
ORGANISM=MASSBANK
NAME=Massbank:EA299210 Microcystin-LR|(5R,8R,11R,12S,15S,18S,19S,22R)-15-{3-[(Diaminomethylene)amino]propyl}-8-isobutyl-18-[(1E,3E,5S,6S)-6-methoxy-3,5-dimethyl-7-phenyl-1,3-heptadien-1-yl]-1,5,12,19-tetramethyl-2-methylene [M+H]+
PI=Putative Massbank Match
DATACOLLECTOR=Massbank
PUBMED=N/A
SUBMITUSER=mwang87
TAGS=
SPECTRUMID=CCMSLIB00000213070
SCANS=6119
70.065 18977.9 
84.0443 7106.3 
86.0963 18836.4 
93.0697 3900.8 
103.0541 4903.3 
105.0697 11915.8 
107.0854 27293.3 
112.0868 13169.1 
113.071 2184.9 
114.1024 2348.1 
115.0544 1812.9 
115.0865 10805.0 
117.0697 5477.4 
127.0864 50886.6 
130.0499 2575.9 
135.0802 114610.8 
135.1167 37805.0 
138.0549 2382.1 
140.0814 6838.5 
141.0655 3674.7 
155.0813 18676.7 
156.1242 3583.0 
157.1081 13434.1 
157.1336 1718.9 
163.1116 14771.7 
167.0814 6137.9 
174.1346 15246.9 
175.1195 2283.6 
182.1036 3206.2 
183.0872 3681.0 
195.0761 5499.9 
196.0603 2398.9 
196.0994 1653.9 
198.1233 1875.9 
200.1139 19678.0 
201.0978 4405.5 
213.0866 42051.3 
213.1341 5084.1 
218.1536 2185.7 
223.1187 4364.4 
225.1338 3570.8 
226.1182 7781.9 
237.1632 4504.3 
239.0656 8166.6 
241.129 1579.3 
244.1289 4178.6 
246.1471 2453.5 
269.1235 5334.9 
285.1668 4798.8 
286.1504 3270.4 
303.1784 4142.1 
347.1982 2669.8 
375.1903 5278.8 
END IONS

