BEGIN IONS
PEPMASS=316.0
CHARGE=0+
MSLEVEL=2
SOURCE_INSTRUMENT=LC-ESI-qTof
FILENAME=20130503_Ger_Jenia_Renierone_MH316-qb.1.1..mgf
SEQ=*..*
IONMODE=Positive
ORGANISM=GNPS-LIBRARY
NAME=Renierone M+H
PI=Gerwick
DATACOLLECTOR=Jenia
SMILES=C/C=C(/C)\C(=O)OCC1=NC=CC2=C1C(=O)C(=C(C2=O)C)OC
INCHI=InChI=1S/C17H17NO5/c1-5-9(2)17(21)23-8-12-13-11(6-7-18-12)14(19)10(3)16(22-4)15(13)20/h5-7H,8H2,1-4H3/b9-5-
INCHIAUX=N/A
PUBMED=N/A
SUBMITUSER=mwang87
LIBRARYQUALITY=1
SPECTRUMID=CCMSLIB00000001771
SCANS=1
214.879211 178209.0 
216.084869 76182080.0 
217.19986 4990623.0 
217.843475 1989485.0 
218.483307 12.0 
233.876465 339547.0 
291.66394 63572.0 
END IONS

