BEGIN IONS
PEPMASS=929.29
CHARGE=1+
MSLEVEL=2
SOURCE_INSTRUMENT=LC-ESI-Ion Trap
FILENAME=CyanopeptolinB_MSMS.mzXML
SEQ=*..*
IONMODE=Positive
ORGANISM=GNPS-LIBRARY
NAME=Cyanopeptolin B M+H
PI=Gerwick
DATACOLLECTOR=E Briand
SMILES=[H][C@]1(NC(=O)[C@H](CC(O)=O)NC(=O)CCCCC)[C@@H](C)OC(=O)[C@@H](NC(=O)[C@H](CC2=CC=CC=C2)N(C)C(=O)[C@H](CC(C)C)N2[C@H](O)CC[C@H](NC(=O)[C@H](CCCCN)NC1=O)C2=O)C(C)C
INCHI=InChI=1S/C46H72N8O12/c1-8-9-11-19-35(55)48-32(25-37(57)58)41(60)52-39-28(6)66-46(65)38(27(4)5)51-42(61)33(24-29-16-12-10-13-17-29)53(7)45(64)34(23-26(2)3)54-36(56)21-20-31(44(54)63)50-40(59)30(49-43(39)62)18-14-15-22-47/h10,12-13,16-17,26-28,30-34,36,38-39,56H,8-9,11,14-15,18-25,47H2,1-7H3,(H,48,55)(H,49,62)(H,50,59)(H,51,61)(H,52,60)(H,57,58)/t28-,30+,31+,32+,33+,34+,36-,38+,39+/m1/s1
INCHIAUX=KSVGOBQTQGOLQM-WBJGGQTMSA-N
PUBMED=8244882
SUBMITUSER=ebriand
LIBRARYQUALITY=2
SPECTRUMID=CCMSLIB00000071755
SCANS=415
369.96344 13892.0 
440.035828 1703.0 
517.739258 2300.0 
542.168213 4043.0 
574.435669 1114.0 
657.215576 2668.0 
680.151123 1615.0 
697.097168 3919.0 
698.049072 7193.0 
700.793701 1647.0 
713.162109 968.0 
714.214355 1258.0 
715.263428 4647.0 
716.269043 5406.0 
734.133667 3057.0 
745.233643 1977.0 
754.281006 1273.0 
815.39978 6199.0 
893.115112 3948.0 
911.21228 211054.0 
912.029053 3.0 
END IONS

