BEGIN IONS
PEPMASS=565.76
CHARGE=0+
MSLEVEL=2
SOURCE_INSTRUMENT=LC-ESI-qTof
FILENAME=20121213_Jenia_Ger_4S-5R-antillatoxinA_MH565_qb.1.1..mgf
SEQ=*..*
IONMODE=Positive
ORGANISM=GNPS-LIBRARY
NAME=Antillatoxin A M+H
PI=Gerwick
DATACOLLECTOR=Jenia
SMILES=C[C@H]1[C@@H](OC(=O)CNC(=O)[C@@H](N(C(=O)[C@@H](NC(=O)CC1=C)C)C)C(C)C)/C(=C/C(=C/C(C)(C)C)/C)/C
INCHI=InChI=1S/C28H45N3O5/c1-16(2)24-26(34)29-15-23(33)36-25(19(5)12-17(3)14-28(8,9)10)20(6)18(4)13-22(32)30-21(7)27(35)31(24)11/h12,14,16,20-21,24-25H,4,13,15H2,1-3,5-11H3,(H,29,34)(H,30,32)/b17-14+,19-12+/t20-,21+,24+,25+/m1/s1
INCHIAUX=N/A
PUBMED=N/A
SUBMITUSER=mwang87
LIBRARYQUALITY=1
SPECTRUMID=CCMSLIB00000001675
SCANS=1
171.057953 10551.0 
174.990845 14306.0 
184.962219 829.0 
189.051468 199569.0 
202.793762 13897.0 
206.655884 10753.0 
214.882141 13844.0 
217.962311 10489.0 
227.676483 12418.0 
229.181458 539.0 
232.41777 14676.0 
241.890747 13745.0 
244.967926 101305.0 
260.014771 125157.0 
263.130096 46770.0 
283.32428 46956.0 
288.035919 272966.0 
288.732117 3.0 
315.943604 949562.0 
316.651428 170.0 
328.019287 7563.0 
333.921448 231731.0 
334.798584 6022.0 
359.001343 18212.0 
399.585205 5995.0 
401.053955 55676.0 
406.098816 11527.0 
428.47403 373777.0 
429.084747 10065156.0 
429.75061 179.0 
432.378113 17924.0 
433.267456 6707.0 
447.061157 114992.0 
448.152039 3888.0 
476.229736 62659.0 
486.194336 1326.0 
END IONS

