BEGIN IONS
PEPMASS=463.0
CHARGE=0+
MSLEVEL=2
SOURCE_INSTRUMENT=LC-ESI-qTof
FILENAME=20121103_Jenia_Ger_Barbamide_MCl37_463_qb.1.1..mgf
SEQ=*..*
IONMODE=Positive
ORGANISM=GNPS-LIBRARY
NAME=Barbamide M+H
PI=Gerwick
DATACOLLECTOR=Jenia
SMILES=C[C@@H](C/C(=C\C(=O)N(C)[C@@H](CC1=CC=CC=C1)C2=NC=CS2)/OC)C(Cl)(Cl)Cl
INCHI=InChI=1S/C20H23Cl3N2O2S/c1-14(20(21,22)23)11-16(27-3)13-18(26)25(2)17(19-24-9-10-28-19)12-15-7-5-4-6-8-15/h4-10,13-14,17H,11-12H2,1-3H3/b16-13+/t14-,17-/m0/s1
INCHIAUX=N/A
PUBMED=N/A
SUBMITUSER=mwang87
LIBRARYQUALITY=1
SPECTRUMID=CCMSLIB00000001573
SCANS=1
133.974243 8903518.0 
134.918762 155771.0 
135.520325 113246.0 
142.971985 232846.0 
172.804749 98137.0 
179.013611 219254.0 
179.753235 109787.0 
180.839813 217353.0 
188.020874 1012745.0 
189.057434 95473.0 
190.159485 264863.0 
206.444641 131871.0 
208.824402 513034.0 
217.954102 242754.0 
218.770355 67138016.0 
219.712646 4614239.0 
220.797058 3334814.0 
242.587402 582136.0 
243.216736 159.0 
243.892914 100524.0 
244.667511 4803260.0 
245.3078 392.0 
274.603088 79116.0 
275.59082 1754098.0 
276.2453 331.0 
390.305481 123858.0 
424.719116 101576.0 
430.889343 315857.0 
END IONS

