BEGIN IONS
PEPMASS=1880.77
CHARGE=1+
MSLEVEL=2
SOURCE_INSTRUMENT=LC-ESI-Ion Trap
FILENAME=f.RReher/2264/Reference_spectra/Samholides/Samholide A/SamholideA_M+Na_iontrap_yiwen.mgf;
SEQ=*..*
IONMODE=Positive
ORGANISM=GNPS-LIBRARY
NAME=Samholide A M+Na
PI=Gerwick
DATACOLLECTOR=Ywen Tao
SMILES=COC1CC(C)OC(CCC(C)C(O)C(C)C2CC(O)CC(O)C(C)C(CC3CC=CC(CC(C\C=C(C)\C=C\C(=O)OC(CC(O)CC(O)C(C)C(CC4CC=CC(CC(C\C=C(C)\C=C\C(=O)O2)OC5OCC(OC(=O)C(O)CO)C(OC)C5OC)O4)OC)C(C)C(O)C(C)CCC6CC(CC(C)O6)OC)OC7OCC(OC(=O)C(O)CO)C(OC)C7OC)O3)OC)C1
INCHI=
INCHIAUX=
PUBMED=
SUBMITUSER=RReher
LIBRARYQUALITY=3
SPECTRUMID=CCMSLIB00005467781
SCANS=1
596.415527 91647.0 
614.044189 156941.0 
636.11377 181691.0 
636.997803 121286.0 
641.682251 44305.0 
642.45874 103667.0 
644.397705 521754.0 
649.949463 419433.0 
677.242188 30296.0 
681.022217 542108.0 
685.371338 1847029.0 
686.42041 97633.0 
702.980957 630187.0 
703.994019 130991.0 
704.724609 8.0 
705.346558 194926.0 
719.708984 119518.0 
737.105225 178510.0 
738.498535 113444.0 
780.11731 387541.0 
791.53125 250120.0 
792.488037 81977.0 
812.330688 270961.0 
844.617432 200273.0 
845.39856 2492735.0 
846.635376 283514.0 
847.469482 384545.0 
862.084473 146113.0 
863.530884 759369.0 
877.048096 75365.0 
891.317505 107689.0 
907.450195 350012.0 
933.490479 1227245.0 
934.130371 35.0 
935.540283 94264.0 
938.61084 46708.0 
951.407959 21086472.0 
952.418457 9828974.0 
953.427002 1461649.0 
954.19519 1.0 
973.266357 123820.0 
990.253418 205226.0 
1007.358643 208727.0 
1034.726562 114940.0 
1049.154297 129422.0 
1094.57373 171465.0 
1103.513916 389057.0 
1107.474609 42340.0 
1108.602051 80516.0 
1126.558838 18836.0 
1139.207031 316117.0 
1140.734375 118778.0 
1142.953613 242985.0 
1143.554688 391259.0 
1155.585938 75314.0 
1158.721924 178510.0 
1162.572266 503935.0 
1173.156738 194008.0 
1175.713867 279950.0 
1177.413574 189427.0 
1195.38916 1130939.0 
1214.294922 186886.0 
1215.733887 85738.0 
1252.202148 194003.0 
1255.986084 342775.0 
1260.693604 41582.0 
1261.660889 513617.0 
1271.223145 262269.0 
1283.14209 229397.0 
1284.123535 37500.0 
1296.557861 175106.0 
1304.512207 234718.0 
1315.37207 332718.0 
1316.26123 889859.0 
1317.527344 137192.0 
1318.897461 166004.0 
1321.800537 361971.0 
1326.515137 114494.0 
1344.722656 637539.0 
1347.59375 242568.0 
1348.647461 475039.0 
1349.260498 59.0 
1351.898926 190414.0 
1355.737061 189327.0 
1362.57666 465710.0 
1363.498047 196517.0 
1366.667725 235525.0 
1391.643799 172990.0 
1392.710449 128715.0 
1408.992676 1135533.0 
1409.615723 8775920.0 
1410.700684 6295134.0 
1411.558838 3302648.0 
1412.488037 734316.0 
1413.187988 11.0 
1421.443848 7476698.0 
1422.700195 5882433.0 
1423.552246 1340773.0 
1424.541504 28647.0 
1435.833008 136880.0 
1460.703125 141312.0 
1495.132812 11757.0 
1503.571777 42122.0 
1504.5271 59891.0 
1507.456543 201496.0 
1508.171387 1.0 
1519.477539 83193.0 
1526.905762 88518.0 
1527.643555 136015.0 
1528.456543 351252.0 
1542.752197 150942.0 
1555.871338 514070.0 
1560.376709 374022.0 
1561.286865 178033.0 
1565.60376 519150.0 
1566.433838 377855.0 
1567.510254 158351.0 
1569.619629 546748.0 
1577.920654 82819.0 
1581.707764 180437.0 
1595.578369 525583.0 
1597.830566 279039.0 
1598.831299 206216.0 
1599.731201 417247.0 
1609.712891 1449026.0 
1610.571045 1768288.0 
1611.553223 888998.0 
1612.934326 148347.0 
1613.598633 4686722.0 
1614.591797 1161334.0 
1615.623291 1647153.0 
1616.371582 201.0 
1628.029785 601040.0 
1629.412598 369867.0 
1631.609619 2295929.0 
1632.630859 4444381.0 
1633.716797 1500658.0 
1634.378906 58.0 
1636.022461 174299.0 
1647.523193 332821.0 
1648.975098 343048.0 
1649.62793 35502.0 
1665.754883 1839461.0 
1666.697266 3677135.0 
1667.495605 1522509.0 
1668.720947 497207.0 
1669.652588 201924.0 
1702.574219 196928.0 
1709.595215 376144.0 
1730.44165 258880.0 
1741.796631 138808.0 
1743.336914 329479.0 
1755.609863 498305.0 
1756.563232 354761.0 
1757.949951 327176.0 
1758.594971 5.0 
1759.335693 205356.0 
1773.614014 9978090.0 
1774.760498 9670462.0 
1775.75415 1638570.0 
1776.617676 283025.0 
1777.511719 37285.0 
1792.009033 787693.0 
1792.775146 448793.0 
1793.415527 10.0 
1794.565674 54693.0 
1824.968506 88595.0 
1825.769531 346352.0 
1829.684082 65384.0 
1843.463379 1742638.0 
1844.374512 307500.0 
1845.364014 221193.0 
1848.657959 115297.0 
1860.177979 495351.0 
1861.346924 570253.0 
1862.662842 1388071.0 
1863.64624 297355.0 
1864.529053 175560.0 
1879.574951 446695.0 
1880.194824 424973.0 
END IONS

