BEGIN IONS
PEPMASS=1703.92
CHARGE=1+
MSLEVEL=2
SOURCE_INSTRUMENT=LC-ESI-Ion Trap
FILENAME=f.RReher/2264/Reference_spectra/Samholides/Samholide C/SamholideC_M+Na_iontrap_yiwen.mgf;
SEQ=*..*
IONMODE=Positive
ORGANISM=GNPS-LIBRARY
NAME=Samholide C M+Na
PI=Gerwick
DATACOLLECTOR=Ywen Tao
SMILES=C[C@@H]1O[C@H](C[C@@H](C1)OC)CC[C@@H]([C@H](O)[C@@H]([C@H]2OC(=O)/C=C/C(=C/C[C@@H](C[C@H]3O[C@H](C[C@@H]([C@H]([C@H](C[C@H](C[C@H](OC(=O)/C=C/C(=C/C[C@@H](C[C@H]4O[C@H](C[C@@H]([C@H]([C@H](C[C@H](C2)O)O)C)OC)CC=C4)O[C@H]5OC[C@@H]([C@H]([C@@H]5O)OC)OC)/C)[C@H]([C@@H](O)[C@H](CC[C@@H]6O[C@H](C[C@H](C6)OC)C)C)C)O)O)C)OC)CC=C3)O[C@H]7OC[C@@H]([C@H]([C@@H]7O)OC)OC)/C)C)C
INCHI=
INCHIAUX=
PUBMED=
SUBMITUSER=RReher
LIBRARYQUALITY=3
SPECTRUMID=CCMSLIB00005467784
SCANS=1
481.395203 125939.0 
548.792603 17558.0 
593.206543 168472.0 
635.089111 231942.0 
637.58252 142329.0 
641.30835 310710.0 
649.253662 310525.0 
650.541626 15098.0 
685.510986 140483.0 
686.314941 113308.0 
703.321045 366343.0 
704.238281 164977.0 
845.455688 32206.0 
846.389648 76926.0 
863.415283 6084990.0 
864.423096 1442443.0 
865.18335 8.0 
1007.523804 54398.0 
1051.100098 49856.0 
1067.362793 32114.0 
1069.297852 15377.0 
1069.936035 203047.0 
1085.403564 434153.0 
1086.48999 301870.0 
1087.09668 51.0 
1107.576172 157759.0 
1108.200195 83097.0 
1143.686768 25580.0 
1161.460938 89252.0 
1162.580078 205460.0 
1163.239746 5.0 
1230.596191 116520.0 
1245.475098 2787580.0 
1246.414062 1508063.0 
1247.137207 17.0 
1274.754883 71146.0 
1289.84082 83889.0 
1294.609863 95432.0 
1321.507324 4106886.0 
1322.581299 2260113.0 
1323.4646 69.0 
1329.397217 60320.0 
1330.601562 302072.0 
1388.943359 176044.0 
1390.515625 171865.0 
1422.856201 21754.0 
1433.648926 512114.0 
1434.609619 167024.0 
1435.370605 25.0 
1471.511719 177250.0 
1475.750488 204385.0 
1481.321045 191645.0 
1482.784912 298926.0 
1483.466553 15.0 
1489.666504 707348.0 
1490.611816 1394568.0 
1507.668213 108705.0 
1510.929199 25162.0 
1525.552246 727408.0 
1526.599854 403482.0 
1527.70752 29883.0 
1528.819824 149840.0 
1543.583984 1501487.0 
1544.523438 1420807.0 
1545.466553 1.0 
1648.87085 121003.0 
1650.952148 40846.0 
1668.48877 58956.0 
1671.457031 251766.0 
1685.149902 52437.0 
1686.050537 191334.0 
1686.966309 272860.0 
1703.62207 429795.0 
END IONS

