BEGIN IONS
PEPMASS=466.04
CHARGE=1+
MSLEVEL=2
SOURCE_INSTRUMENT=LC-ESI-Ion Trap
FILENAME=f.evgenia_glukhov/Cyano cultures/M_BOUILLONNII.mzXML;
SEQ=*..*
IONMODE=Positive
ORGANISM=GNPS-LIBRARY
NAME=Columbamide A M+H
PI=Gerwick
DATACOLLECTOR=Jenia
SMILES=ClCCCCCCC(Cl)CCCC/C=C/CCC(N(C)C(COC)COC(C)=O)=O
INCHI=
INCHIAUX=
PUBMED=26149623
SUBMITUSER=evgenia_glukhov
LIBRARYQUALITY=3
SPECTRUMID=CCMSLIB00000531496
SCANS=817
161.764771 3905.0 
287.082581 1852.0 
296.568115 1259.0 
300.179077 3241.0 
334.285522 5303.0 
336.088562 7809.0 
361.356384 2502.0 
370.153503 97594.0 
370.755371 1072.0 
394.338806 1574.0 
398.164001 28885.0 
406.078552 636596.0 
407.203613 6366.0 
430.136719 173319.0 
431.154236 563.0 
433.288818 1379.0 
434.079163 244751.0 
434.820923 3.0 
466.120789 1234.0 
END IONS

