BEGIN IONS
PEPMASS=248.129
CHARGE=1+
MSLEVEL=2
SOURCE_INSTRUMENT=LC-ESI-qTof
FILENAME=2A3_S-4-benzyl-3-isobutyryloxazolidin-2-one.mzXML
SEQ=*..*
IONMODE=Positive
ORGANISM=GNPS-LIBRARY
NAME=S-4-benzyl-3-isobutyryloxazolidin-2-one M+H
PI=Dorrestein/Gerwick
DATACOLLECTOR=Garg/Luzzato
SMILES=O=C1OC[C@H](CC2=CC=CC=C2)N1C(C(C)C)=O
INCHI=N/A
INCHIAUX=N/A
PUBMED=N/A
SUBMITUSER=mwang87
LIBRARYQUALITY=2
SPECTRUMID=CCMSLIB00000068215
SCANS=1397
95.051102 240.0 
95.418037 144.0 
95.82074 196.0 
96.560249 180.0 
97.041771 300.0 
98.309975 216.0 
98.608063 256.0 
98.645599 256.0 
98.89473 208.0 
99.814857 252.0 
99.969955 164.0 
100.053513 192.0 
100.819138 164.0 
101.030998 204.0 
101.48143 160.0 
102.077538 176.0 
102.294731 236.0 
102.984055 180.0 
103.459053 184.0 
103.975708 196.0 
104.601471 224.0 
106.188431 180.0 
106.592682 208.0 
106.699516 216.0 
107.007996 168.0 
107.086212 188.0 
107.68821 204.0 
108.859909 260.0 
110.008728 160.0 
110.104736 288.0 
112.531189 208.0 
112.569176 228.0 
113.080574 200.0 
113.268936 208.0 
113.387543 264.0 
113.675835 188.0 
113.733109 140.0 
115.055145 2252.0 
115.394043 188.0 
116.058861 228.0 
116.087509 176.0 
116.669136 252.0 
116.761559 156.0 
117.023972 208.0 
117.0709 14872.0 
118.073792 1384.0 
118.420563 220.0 
119.076134 400.0 
120.835861 176.0 
120.993378 204.0 
121.24955 176.0 
121.602501 148.0 
121.850533 188.0 
122.257149 156.0 
123.127594 224.0 
123.784119 220.0 
124.118576 156.0 
124.886642 160.0 
126.360558 240.0 
127.106361 220.0 
127.656487 212.0 
130.057083 144.0 
132.061325 168.0 
132.084183 272.0 
132.979691 220.0 
133.381485 204.0 
134.097733 928.0 
134.175354 224.0 
134.196091 228.0 
135.080231 152.0 
135.202805 168.0 
135.406448 188.0 
136.678055 156.0 
138.252533 208.0 
138.54274 196.0 
139.436356 232.0 
139.979553 192.0 
140.660629 156.0 
142.065674 168.0 
144.918259 208.0 
147.019012 176.0 
149.244232 224.0 
150.349686 176.0 
150.552231 200.0 
150.745132 236.0 
153.680664 172.0 
155.273758 144.0 
157.829483 200.0 
159.614044 160.0 
160.073471 316.0 
160.406769 240.0 
163.607468 220.0 
164.037796 184.0 
164.36412 252.0 
164.591187 180.0 
164.928268 244.0 
165.959534 200.0 
166.428879 180.0 
167.992996 148.0 
171.137985 176.0 
173.027451 192.0 
173.737366 172.0 
174.435593 240.0 
174.779984 252.0 
177.329941 164.0 
177.523392 140.0 
177.724899 168.0 
177.801819 164.0 
177.820389 164.0 
178.010452 180.0 
178.051025 380.0 
178.087341 53924.0 
178.228622 152.0 
178.267914 180.0 
178.40538 108.0 
178.477432 212.0 
178.526123 144.0 
178.591187 104.0 
178.652588 100.0 
178.932281 164.0 
179.090683 3728.0 
180.092529 780.0 
180.301529 156.0 
180.487335 164.0 
180.632919 152.0 
186.636612 140.0 
186.737198 144.0 
186.998276 140.0 
191.635254 148.0 
194.593414 160.0 
196.097733 456.0 
202.082306 152.0 
209.11377 156.0 
219.168655 160.0 
234.127106 232.0 
247.164886 168.0 
248.128738 2752.0 
249.134125 532.0 
250.132782 188.0 
250.639618 156.0 
251.165878 196.0 
291.029724 184.0 
577.538757 168.0 
1013.213196 160.0 
1084.574097 176.0 
1261.562256 208.0 
1341.7052 204.0 
1479.676636 164.0 
1504.251465 180.0 
1504.590942 188.0 
1509.085571 168.0 
1526.042847 292.0 
1527.449829 176.0 
1537.059692 176.0 
1538.315796 248.0 
1557.602295 164.0 
1567.920776 216.0 
1591.5 188.0 
1594.747803 212.0 
1599.367065 216.0 
1600.162842 176.0 
1601.723022 280.0 
1643.966431 200.0 
1648.729126 192.0 
1660.114624 184.0 
1664.608398 252.0 
1717.572266 180.0 
1723.703857 248.0 
1730.607666 160.0 
1732.428833 208.0 
1736.538574 212.0 
1742.205566 220.0 
1761.240112 156.0 
1764.113525 204.0 
1767.365479 172.0 
1775.671997 212.0 
1779.815796 204.0 
1787.815063 236.0 
1794.121216 296.0 
1795.975586 220.0 
1797.670654 224.0 
1810.379517 172.0 
1810.828125 140.0 
1812.911377 192.0 
1822.78479 180.0 
1826.677124 148.0 
1855.838501 272.0 
1862.314941 224.0 
1862.675537 240.0 
1865.441284 200.0 
1868.140381 208.0 
1874.147217 180.0 
1882.510864 184.0 
1890.919067 156.0 
1903.128174 164.0 
1904.768921 220.0 
1914.949951 172.0 
1918.956787 216.0 
1921.310547 236.0 
1926.066162 228.0 
1930.084595 296.0 
1932.366455 252.0 
1944.190918 176.0 
1949.13269 156.0 
1950.573486 232.0 
1957.520996 208.0 
1969.607422 216.0 
1973.883179 248.0 
1974.440063 244.0 
1984.185059 248.0 
1984.326782 256.0 
1986.472046 272.0 
1991.502808 176.0 
1997.517944 260.0 
2003.889526 188.0 
END IONS

