BEGIN IONS
PEPMASS=426.16
CHARGE=1+
MSLEVEL=2
SOURCE_INSTRUMENT=LC-ESI-Ion Trap
FILENAME=f.evgenia_glukhov/Cyano cultures/M_BOUILLONNII.mzXML;
SEQ=*..*
IONMODE=Positive
ORGANISM=GNPS-LIBRARY
NAME=Columbamide C M+Cl
PI=Gerwick
DATACOLLECTOR=Jenia
SMILES=ClCCCCCCC(Cl)CCCC/C=C/CCC(N(C)C(COC)CO)=O
INCHI=
INCHIAUX=
PUBMED=26149623
SUBMITUSER=evgenia_glukhov
LIBRARYQUALITY=3
SPECTRUMID=CCMSLIB00000531502
SCANS=735
356.133667 13645.0 
357.308044 4167.0 
358.239441 18256.0 
360.079224 1251.0 
370.045166 1953.0 
372.088074 1317.0 
376.339966 2214.0 
388.155762 75761.0 
389.174927 15903.0 
390.102356 71350.0 
390.902893 2.0 
392.418091 10926.0 
393.239563 13873.0 
394.087036 472952.0 
394.756226 1513.0 
398.118347 824.0 
407.110046 2369.0 
408.128906 302872.0 
424.881714 7002.0 
426.562988 1463.0 
439.77887 2059.0 
END IONS

