BEGIN IONS
PEPMASS=492.0
CHARGE=0+
MSLEVEL=2
SOURCE_INSTRUMENT=LC-ESI-qTof
FILENAME=20121219_Jenia_Ger_Tumonoic_acid_G-MNa492-qb.1.1..mgf
SEQ=*..*
IONMODE=Positive
ORGANISM=GNPS-LIBRARY
NAME=Tumonoic_acid_G M+Na
PI=Gerwick
DATACOLLECTOR=Jenia
SMILES=CCCCCCCC[C@H](C)C(=O)N1CCC[C@H]1C(=O)O[C@H]([C@@H](C)CC)C(=O)O[C@@H](C)C(=O)O
INCHI=InChI=1S/C25H43NO7/c1-6-8-9-10-11-12-14-18(4)22(27)26-16-13-15-20(26)24(30)33-21(17(3)7-2)25(31)32-19(5)23(28)29/h17-21H,6-16H2,1-5H3,(H,28,29)/t17-,18-,19-,20-,21+/m0/s1
INCHIAUX=N/A
PUBMED=N/A
SUBMITUSER=mwang87
LIBRARYQUALITY=1
SPECTRUMID=CCMSLIB00000001700
SCANS=1
406.058167 11287.0 
410.675964 4139.0 
431.577454 2864.0 
432.185608 46346.0 
433.353027 5876.0 
454.334351 24047.0 
492.291992 25957.0 
493.270142 12563.0 
END IONS

