BEGIN IONS
PEPMASS=901.4
CHARGE=0+
MSLEVEL=2
SOURCE_INSTRUMENT=LC-ESI-qTof
FILENAME=20121205_Jenia_Ger_Dolastatin_16_MNa901-qb.1.1..mgf
SEQ=*..*
IONMODE=Positive
ORGANISM=GNPS-LIBRARY
NAME=Dolastatin_16 M+Na
PI=Gerwick
DATACOLLECTOR=Jenia
SMILES=C[C@H]1C(=O)N2CCC[C@H]2C(=O)O[C@@H](C(=O)N([C@@H](C(=O)N3CCC[C@H]3C(=O)NC(C(=O)N4CCC[C@H]4C(=O)NC(C(C(=O)O1)C)C(C)C)C(C)CC5=CC=CC=C5)C(C)C)C)C(C)C
INCHI=InChI=1S/C47H70N6O10/c1-26(2)36-30(8)46(60)62-31(9)42(56)53-24-16-21-35(53)47(61)63-39(28(5)6)45(59)50(10)38(27(3)4)44(58)52-23-15-20-34(52)41(55)49-37(29(7)25-32-17-12-11-13-18-32)43(57)51-22-14-19-33(51)40(54)48-36/h11-13,17-18,26-31,33-39H,14-16,19-25H2,1-10H3,(H,48,54)(H,49,55)/t29?,30?,31-,33-,34-,35-,36?,37?,38+,39+/m0/s1
INCHIAUX=N/A
PUBMED=N/A
SUBMITUSER=mwang87
LIBRARYQUALITY=1
SPECTRUMID=CCMSLIB00000001650
SCANS=1
264.990356 93823.0 
337.276367 130188.0 
433.058105 112907.0 
434.054321 313904.0 
434.883301 8.0 
450.285767 165808.0 
462.604431 22974.0 
463.511963 96455.0 
490.087891 135357.0 
491.003967 31076.0 
508.812683 59572.0 
519.949585 77313.0 
522.102051 26171.0 
538.19043 357882.0 
547.179688 87055.0 
577.240845 110631.0 
581.96582 196805.0 
584.521484 57594.0 
604.209595 669791.0 
605.377197 570387.0 
609.1875 798137.0 
610.183228 316225.0 
610.887451 51.0 
622.518311 168968.0 
623.18335 210752.0 
631.324219 587482.0 
632.308838 240861.0 
635.413452 31408.0 
640.680054 116761.0 
648.282227 70051.0 
649.056641 221351.0 
651.47229 188070.0 
661.402588 70532.0 
672.328613 129664.0 
677.041992 30504.0 
678.241455 207315.0 
678.910889 557768.0 
694.365723 51512.0 
704.263916 473280.0 
704.888794 3.0 
706.349609 4739895.0 
707.287842 2554871.0 
713.61853 35301.0 
715.390137 85604.0 
717.744873 236021.0 
719.171387 191587.0 
720.144287 130671.0 
722.552246 28982.0 
726.046387 100307.0 
728.245239 27097.0 
731.594238 196515.0 
732.370605 3338014.0 
733.398071 1697467.0 
734.006592 10.0 
743.547852 57165.0 
748.220093 463422.0 
749.17627 528751.0 
750.414429 1427914.0 
751.250854 1666666.0 
752.022095 6.0 
759.252808 436313.0 
760.264526 696068.0 
761.321289 90194.0 
773.023804 216798.0 
774.34436 1094321.0 
775.359375 610098.0 
776.167725 29.0 
801.824707 152698.0 
804.302002 2818413.0 
805.325684 2772605.0 
806.078003 47.0 
815.891479 148188.0 
817.5177 199343.0 
818.492065 295905.0 
819.532593 686803.0 
820.303955 236456.0 
829.440186 162296.0 
830.2677 35364.0 
832.437622 94263.0 
845.500488 341497.0 
857.304688 76707.0 
858.421143 450007.0 
859.509888 40039.0 
873.386353 5935840.0 
874.37561 5530513.0 
875.221069 167.0 
884.370117 15127.0 
900.756348 424841.0 
901.384766 74561056.0 
902.368896 25653992.0 
903.333252 1.0 
END IONS

