BEGIN IONS
PEPMASS=1502.5
CHARGE=0+
MSLEVEL=2
SOURCE_INSTRUMENT=LC-ESI-qTof
FILENAME=20121219_Ger_Jenia_Portoamide_B_MH1502-qb.1.1..mgf
SEQ=*..*
IONMODE=Positive
ORGANISM=GNPS-LIBRARY
NAME=Portoamide_B M+H
PI=Gerwick
DATACOLLECTOR=Jenia
SMILES=CC[C@H](C)[C@@H]1C(=O)N[C@H](C(=O)N/C(=C/C)/C(=O)N[C@H](C(=O)N[C@@H](C(=O)N2CCC[C@H]2C(=O)NC(C(C(=O)N[C@@H](C(=O)NCC(=O)N3CCC[C@H]3C(=O)N4CCC[C@H]4C(=O)N1)CCC(=O)N)O)CC(CC(C(CC(C)C)O)O)OC(=O)[C@H](CC5=CC=C(C=C5)O)N(C)C(=O)C)CCC6=CC=CC=C6)[C@@H](C)O)CO
INCHI=InChI=1S/C73H107N13O21/c1-9-40(5)60-68(101)80-51(38-87)65(98)76-47(10-2)64(97)82-61(41(6)88)69(102)78-49(27-24-43-17-12-11-13-18-43)71(104)85-31-14-19-52(85)66(99)79-50(35-46(36-57(92)56(91)33-39(3)4)107-73(106)55(83(8)42(7)89)34-44-22-25-45(90)26-23-44)62(95)70(103)77-48(28-29-58(74)93)63(96)75-37-59(94)84-30-16-21-54(84)72(105)86-32-15-20-53(86)67(100)81-60/h10-13,17-18,22-23,25-26,39-41,46,48-57,60-62,87-88,90-92,95H,9,14-16,19-21,24,27-38H2,1-8H3,(H2,74,93)(H,75,96)(H,76,98)(H,77,103)(H,78,102)(H,79,99)(H,80,101)(H,81,100)(H,82,97)/b47-10+/t40-,41+,46?,48+,49+,50?,51-,52-,53-,54-,55-,56?,57?,60+,61-,62?/m0/s1
INCHIAUX=N/A
PUBMED=N/A
SUBMITUSER=mwang87
LIBRARYQUALITY=1
SPECTRUMID=CCMSLIB00000001689
SCANS=1
459.713379 533353.0 
460.453064 139.0 
469.041504 458600.0 
469.74762 5.0 
478.123413 1453903.0 
519.914917 645062.0 
531.20874 361484.0 
538.733521 299759.0 
540.67041 55313.0 
544.202515 239972.0 
559.346436 344656.0 
563.254272 19824.0 
573.875732 262272.0 
614.37854 325928.0 
647.76001 434747.0 
665.198486 328469.0 
671.995605 380645.0 
672.630615 1.0 
682.956787 1211052.0 
683.614014 63.0 
685.036377 59018.0 
687.138672 1154243.0 
687.79895 1.0 
689.258545 882301.0 
694.188721 191832.0 
705.773438 1070403.0 
706.574463 9.0 
713.063232 720567.0 
723.91333 641462.0 
745.835327 620622.0 
746.436523 5.0 
758.125977 82177.0 
769.312134 93751.0 
770.219727 598863.0 
779.211182 1052955.0 
779.873291 1.0 
787.256104 243404.0 
788.188965 494317.0 
788.861816 55.0 
796.23584 424859.0 
797.370605 1051100.0 
797.990967 3.0 
815.414551 1377055.0 
829.004395 333949.0 
831.044189 399981.0 
832.911011 1196504.0 
834.151367 588382.0 
834.780762 3.0 
837.498413 914040.0 
850.151855 288359.0 
853.085938 1958954.0 
869.833862 542349.0 
871.435791 1023208.0 
885.44519 516199.0 
886.078125 5.0 
892.216553 274555.0 
902.423096 291916.0 
903.336426 1612811.0 
905.317993 270672.0 
906.047363 221138.0 
914.192871 1226067.0 
914.858032 1.0 
920.362549 520755.0 
921.128296 4.0 
922.193481 355716.0 
933.255005 218006.0 
949.150024 575841.0 
949.906372 212684.0 
968.283203 1600017.0 
985.377563 1075110.0 
986.371948 623151.0 
989.414673 174330.0 
990.097656 198883.0 
994.084961 1140275.0 
994.841064 4.0 
1003.389771 978750.0 
1004.106934 66.0 
1007.100708 436584.0 
1016.273682 348530.0 
1025.208984 629072.0 
1034.210938 881004.0 
1035.468018 439984.0 
1036.269287 243764.0 
1037.696777 13701.0 
1044.389404 299857.0 
1054.262695 123783.0 
1062.316162 255865.0 
1070.663574 108765.0 
1072.391113 107076.0 
1073.586426 664866.0 
1074.225098 2.0 
1077.233154 316647.0 
1085.252686 875304.0 
1086.038818 215839.0 
1087.204834 144669.0 
1091.233887 629605.0 
1093.655518 256282.0 
1095.206543 160284.0 
1097.454102 394561.0 
1104.276367 141504.0 
1111.400146 657401.0 
1112.129395 4.0 
1119.590332 386014.0 
1121.30835 811608.0 
1122.932617 176007.0 
1139.107422 370823.0 
1139.817627 298.0 
1142.974121 315385.0 
1144.254883 51555.0 
1146.060059 640064.0 
1147.370117 365668.0 
1157.132812 479803.0 
1177.358398 115339.0 
1184.677002 152855.0 
1193.087158 592875.0 
1194.506348 540738.0 
1202.325684 216644.0 
1204.471436 1169531.0 
1205.340576 712369.0 
1220.072754 1054535.0 
1221.765625 1379765.0 
1222.498535 79706.0 
1229.579102 698273.0 
1230.416748 2438460.0 
1235.427734 329630.0 
1237.332031 368802.0 
1240.436035 2737225.0 
1241.121094 305.0 
1246.751465 40506.0 
1247.43042 3615640.0 
1248.4021 2201170.0 
1265.349609 12204736.0 
1266.197754 630932.0 
1276.343018 463638.0 
1279.110352 769374.0 
1283.475586 3157250.0 
1284.169434 6023.0 
1286.379883 206445.0 
1305.470703 357965.0 
1314.427979 526765.0 
1317.466797 2284226.0 
1318.21582 3.0 
1332.501465 1812671.0 
1356.556641 100051.0 
1362.468262 378499.0 
1373.486816 866119.0 
1374.327148 124383.0 
1430.731201 40650.0 
1431.57251 646412.0 
1432.359375 145109.0 
1448.510254 528999.0 
1449.429199 1684387.0 
1450.156738 4.0 
1466.523438 3351697.0 
1467.595703 660419.0 
1468.390625 3.0 
1471.995117 742703.0 
1472.613037 1132543.0 
1473.824463 381107.0 
1484.410156 13751816.0 
1485.146484 216820.0 
1485.798828 1.0 
END IONS

