BEGIN IONS
PEPMASS=1791.74
CHARGE=1+
MSLEVEL=2
SOURCE_INSTRUMENT=LC-ESI-Ion Trap
FILENAME=f.RReher/2264/Reference_spectra/Samholides/Samholide E/SamholideE_M+Na_iontrap_yiwen.mgf;
SEQ=*..*
IONMODE=Positive
ORGANISM=GNPS-LIBRARY
NAME=Samholide E M+Na
PI=Gerwick
DATACOLLECTOR=Ywen Tao
SMILES=C[C@H]1C[C@H](C[C@@H](O1)CC[C@H](C)[C@@H]([C@H](C)[C@@H]2C[C@@H](C[C@@H]([C@@H]([C@H](C[C@@H]3CC=C[C@H](O3)C[C@H](C/C=C(/C=C/C(=O)O[C@@H](C[C@@H](C[C@@H]([C@@H]([C@H](C[C@@H]4CC=C[C@H](O4)C[C@H](C/C=C(/C=C/C(=O)O2)\C)O[C@@H]5[C@H]([C@@H]([C@H](CO5)OC)OC)O)OC)C)O)O)[C@@H](C)[C@H]([C@@H](C)CC[C@H]6C[C@@H](C[C@@H](O6)C)OC)O)\C)O[C@@H]7[C@H]([C@@H]([C@H](CO7)OC)OC)OC(=O)[C@@H](CO)O)OC)C)O)O)O)OC
INCHI=
INCHIAUX=
PUBMED=
SUBMITUSER=RReher
LIBRARYQUALITY=3
SPECTRUMID=CCMSLIB00005467787
SCANS=1
530.751221 363442.0 
617.557617 104132.0 
641.615479 229953.0 
653.212402 146143.0 
681.010498 197176.0 
682.074707 54568.0 
685.237793 377638.0 
685.842285 11.0 
687.166016 47045.0 
718.678955 43686.0 
737.908447 231888.0 
794.158936 398604.0 
801.556152 127676.0 
813.283447 100410.0 
813.969849 31.0 
845.338623 808033.0 
846.096558 100.0 
863.313477 3170413.0 
864.128418 1861904.0 
865.059937 95795.0 
886.359009 66467.0 
915.092773 209935.0 
933.493286 91967.0 
934.63916 71039.0 
950.831543 494875.0 
951.451172 3882375.0 
952.445679 2981531.0 
953.15271 24.0 
954.641602 280139.0 
1009.018066 12781.0 
1015.269653 69943.0 
1039.154297 293480.0 
1051.165039 152268.0 
1067.327148 51194.0 
1082.385742 48168.0 
1085.470215 155146.0 
1095.481934 558998.0 
1107.517578 92049.0 
1117.46875 186994.0 
1139.997559 321209.0 
1140.69043 14.0 
1143.44043 377890.0 
1144.389893 70299.0 
1145.016602 4.0 
1146.307129 127863.0 
1160.472656 407467.0 
1161.195801 486095.0 
1164.591553 270951.0 
1173.408691 762348.0 
1174.400879 222477.0 
1175.159668 5.0 
1195.745605 769004.0 
1227.291748 57000.0 
1228.353027 151525.0 
1262.24292 35396.0 
1273.589111 26386.0 
1303.530762 338468.0 
1304.719727 344449.0 
1311.644775 274599.0 
1315.691895 107313.0 
1321.448242 1516416.0 
1322.384766 1517427.0 
1323.162842 18.0 
1330.813721 70115.0 
1333.598145 6273839.0 
1334.557617 783839.0 
1335.165527 29.0 
1346.289307 270711.0 
1366.994873 34037.0 
1378.546631 320435.0 
1382.70752 86222.0 
1392.580566 306962.0 
1409.603027 3424468.0 
1410.553467 2433434.0 
1411.270996 29.0 
1417.446289 309683.0 
1418.166504 2.0 
1418.950684 239974.0 
1422.52124 345697.0 
1471.094238 70758.0 
1477.505127 1315708.0 
1478.585449 597524.0 
1490.77002 177647.0 
1491.507812 187018.0 
1496.767334 73098.0 
1505.775146 127962.0 
1507.368408 147154.0 
1521.526367 337373.0 
1522.786621 208656.0 
1525.638428 836709.0 
1526.260254 183502.0 
1527.026855 127041.0 
1527.89917 190110.0 
1542.670654 56557.0 
1543.52417 490700.0 
1544.734619 622299.0 
1545.342041 15.0 
1545.978516 188227.0 
1550.488525 42679.0 
1559.661621 230238.0 
1560.527588 576309.0 
1561.166504 2.0 
1569.424561 159401.0 
1570.591553 642137.0 
1576.568115 51309.0 
1577.577148 1999963.0 
1578.634277 1052373.0 
1579.358154 8.0 
1581.609375 280068.0 
1595.077148 280874.0 
1613.613037 612637.0 
1614.391357 87153.0 
1615.016113 127380.0 
1616.798584 424997.0 
1621.879395 270411.0 
1622.898438 70086.0 
1623.668701 225980.0 
1631.615234 2279107.0 
1632.674316 1889713.0 
1633.352539 65.0 
1656.677734 32963.0 
1674.416504 65281.0 
1685.498291 2710951.0 
1686.683838 2831155.0 
1687.358154 114.0 
1688.681152 94690.0 
1704.269287 43059.0 
1719.239502 220450.0 
1747.699951 154027.0 
1748.721436 44774.0 
1754.439697 207745.0 
1755.330566 1082161.0 
1756.248779 213845.0 
1756.888672 15.0 
1773.378174 825987.0 
1774.552734 1049192.0 
1775.182617 39.0 
1789.592529 172849.0 
END IONS

