BEGIN IONS
PEPMASS=689.0
CHARGE=0+
MSLEVEL=2
SOURCE_INSTRUMENT=LC-ESI-qTof
FILENAME=20120412_PAVL_FT_Hectochlorin_MCl37Na_689_qb.1.1..mgf
SEQ=*..*
IONMODE=Positive
ORGANISM=GNPS-LIBRARY
NAME=Hectochlorin M+H
PI=Gerwick
DATACOLLECTOR=PAVL
SMILES=C[C@H]1[C@@H](OC(=O)C2=CSC(=N2)[C@H](C(OC(=O)C3=CSC(=N3)[C@@H](OC1=O)C(C)(C)O)(C)C)OC(=O)C)CCCC(C)(Cl)Cl
INCHI=InChI=1S/C27H34Cl2N2O9S2/c1-13-17(9-8-10-27(7,28)29)38-23(34)15-11-42-21(30-15)19(37-14(2)32)26(5,6)40-24(35)16-12-41-20(31-16)18(25(3,4)36)39-22(13)33/h11-13,17-19,36H,8-10H2,1-7H3/t13-,17-,18+,19+/m0/s1
INCHIAUX=N/A
PUBMED=N/A
SUBMITUSER=mwang87
LIBRARYQUALITY=1
SPECTRUMID=CCMSLIB00000001553
SCANS=1
264.268188 44.800793 
336.234344 9.785302 
366.046204 13.827823 
387.892639 6.582838 
403.217712 44.668766 
404.157501 65.088409 
405.470825 7.348387 
410.143585 149.486877 
411.25116 112.561958 
412.179016 74.737839 
421.304413 4.818037 
462.977692 4.487424 
469.00415 6.554335 
471.30835 4.909925 
481.220459 26.670835 
499.197113 13.37266 
533.110474 83.597824 
533.96106 5.201092 
535.11377 80.70858 
549.308838 23.215158 
557.211182 3.581947 
570.370728 29.635513 
571.052979 8.182089 
591.303284 21.080429 
591.945557 26.009609 
593.074097 85.748672 
607.143433 88.119453 
608.153687 141.01416 
609.188721 76.28334 
627.285034 16.054123 
628.087769 32.825203 
629.779846 33.808384 
630.858643 14.804111 
632.498413 17.42963 
633.223145 33.818077 
643.323364 18.413008 
645.178589 56.525242 
647.682251 18.531187 
651.12207 40602.597656 
652.124207 46021.046875 
653.116089 58183.101562 
654.26001 21.1124 
657.210938 12.57728 
665.442139 4.982367 
667.367859 27.299477 
669.003113 497.158875 
669.962036 296.833435 
670.742126 151.199692 
671.512329 10.733822 
672.143311 24.314074 
675.137268 19.050678 
707.146484 12.832479 
707.813599 7.272285 
709.910889 4.346007 
742.831787 18.975161 
END IONS

