BEGIN IONS
PEPMASS=1395.92
CHARGE=1+
MSLEVEL=2
SOURCE_INSTRUMENT=LC-ESI-qTof
FILENAME=f.RReher/2264/Reference_spectra/MaXis/Symplocolides/symplocolideA_M+Na_MaXis.mgf;
SEQ=*..*
IONMODE=Positive
ORGANISM=GNPS-LIBRARY
NAME=Symplocolide A M+Na
PI=Gerwick
DATACOLLECTOR=RReher
SMILES=COC1CC(C)OC(CCC(C)C(O)C(C)C2OC(=O)CC(O)CC(CC3OC(CC=C3)CC(OC)C(C)C(O)CC(O)C(C)C(OC(=O)CC(O)CC(CC4OC(CC=C4)CC(OC)C(C)C(O)CC(O)C2C)OC)C(C)C(O)C(C)CCC5CC(CC(C)O5)OC)OC)C1
INCHI=
INCHIAUX=
PUBMED=
SUBMITUSER=RReher
LIBRARYQUALITY=3
SPECTRUMID=CCMSLIB00005467802
SCANS=1
52.217415 56.0 
53.438885 57.0 
75.00663 55.0 
80.998512 127.0 
81.034554 114.0 
81.987274 59.0 
83.010742 64.0 
85.0299 194.0 
87.0103 64.0 
93.035759 101.0 
95.01741 180.0 
95.052689 271.0 
97.032822 684.0 
98.032822 59.0 
99.04776 253.0 
101.060539 70.0 
103.043442 81.0 
105.038719 190.0 
106.046814 58.0 
107.056023 552.0 
109.032242 74.0 
109.071861 268.0 
111.013092 106.0 
111.051369 67.0 
113.031944 88.0 
113.065353 59.0 
114.020096 55.0 
115.043938 88.0 
116.759987 62.0 
117.040375 131.0 
119.058189 301.0 
121.073296 146.0 
123.05262 707.0 
123.087608 110.0 
124.055611 122.0 
125.032692 88.0 
125.066055 186.0 
127.079597 82.0 
129.027969 910.0 
129.064636 475.0 
129.396896 55.0 
130.064987 140.0 
131.057465 76.0 
133.036194 166.0 
133.073715 276.0 
135.088791 298.0 
136.096191 147.0 
137.069473 253.0 
137.106583 113.0 
138.075272 79.0 
139.011353 90.0 
139.086121 156.0 
141.027924 168.0 
141.064423 243.0 
143.064789 96.0 
143.079407 114.0 
145.075989 321.0 
147.052261 193.0 
147.091888 397.0 
148.090103 91.0 
149.067429 132.0 
149.10907 497.0 
151.049667 87.0 
151.085159 343.0 
151.125015 82.0 
153.028931 56.0 
153.066071 121.0 
154.099792 71.0 
155.047867 134.0 
155.08284 846.0 
157.076401 130.0 
159.094498 104.0 
161.072586 183.0 
161.110336 415.0 
162.116043 130.0 
163.090088 67.0 
163.126556 195.0 
165.06813 303.0 
165.102203 417.0 
166.070648 75.0 
167.046188 237.0 
167.078842 124.0 
167.119003 180.0 
168.088562 78.0 
169.099396 257.0 
171.041946 129.0 
171.078384 86.0 
171.102936 55.0 
173.105606 164.0 
175.053253 210.0 
175.092422 86.0 
175.127716 391.0 
177.067398 60.0 
177.104553 225.0 
177.14386 91.0 
178.14473 109.0 
179.084518 144.0 
179.120987 316.0 
180.124359 112.0 
181.065369 180.0 
181.099655 144.0 
183.082794 161.0 
183.116333 950.0 
184.091873 98.0 
184.120392 71.0 
185.069199 67.0 
185.111191 315.0 
187.125687 298.0 
188.126144 79.0 
189.053299 84.0 
189.107056 163.0 
191.088364 63.0 
191.122269 665.0 
191.159592 123.0 
192.126038 190.0 
192.174149 55.0 
193.064743 480.0 
193.136414 282.0 
194.139725 75.0 
195.118774 101.0 
195.155899 114.0 
196.120102 63.0 
197.103882 161.0 
197.129822 131.0 
198.098709 65.0 
199.075684 95.0 
199.147858 157.0 
201.071152 131.0 
201.128052 242.0 
201.147751 280.0 
202.111115 80.0 
202.134567 106.0 
203.085602 142.0 
203.122971 430.0 
203.161942 164.0 
205.103455 123.0 
205.139557 484.0 
207.079422 54.0 
207.11853 240.0 
207.155304 111.0 
209.100952 73.0 
209.136017 165.0 
211.07634 862.0 
211.139679 102.0 
212.133301 62.0 
213.123917 120.0 
213.146179 110.0 
215.112076 141.0 
215.144623 348.0 
216.159088 203.0 
217.102341 97.0 
217.136581 105.0 
218.186157 61.0 
219.082642 245.0 
219.114395 64.0 
219.155151 397.0 
220.089798 95.0 
221.145325 127.0 
221.168915 97.0 
222.099472 55.0 
223.151413 7266.0 
224.047684 65.0 
224.125015 60.0 
224.154724 1840.0 
225.091156 129.0 
225.167587 632.0 
226.100052 59.0 
226.16922 89.0 
227.161667 185.0 
227.183243 129.0 
228.185944 98.0 
229.143753 141.0 
230.145126 107.0 
231.120331 150.0 
231.155136 81.0 
233.100922 177.0 
233.171829 172.0 
235.086304 67.0 
236.119019 54.0 
237.093887 349.0 
237.167786 299.0 
238.103226 131.0 
239.109146 75.0 
239.150284 142.0 
239.178421 78.0 
240.124435 65.0 
241.101685 80.0 
241.165161 113.0 
243.148972 60.0 
243.194534 165.0 
244.199722 58.0 
245.108063 56.0 
245.137711 70.0 
245.173828 593.0 
246.180618 109.0 
247.123932 155.0 
247.156952 195.0 
247.189545 105.0 
247.634064 57.0 
249.131073 282.0 
249.172684 115.0 
250.100571 132.0 
250.135803 57.0 
251.11145 520.0 
251.18306 566.0 
252.111328 356.0 
252.188889 100.0 
253.133179 66.0 
253.179001 166.0 
255.114975 154.0 
255.180817 499.0 
256.139191 156.0 
256.17984 63.0 
257.133118 88.0 
257.173676 188.0 
258.147278 86.0 
259.123901 114.0 
259.188782 55.0 
260.159027 62.0 
260.192932 56.0 
261.135773 121.0 
261.171753 153.0 
261.207855 104.0 
262.136627 116.0 
263.14859 115.0 
263.186493 2037.0 
264.18988 428.0 
265.132751 113.0 
265.166229 116.0 
265.198151 182.0 
266.165833 90.0 
266.198151 88.0 
267.143829 79.0 
267.179779 101.0 
267.216614 885.0 
268.221985 222.0 
269.06723 58.0 
269.122498 1433.0 
269.173187 90.0 
270.132446 316.0 
271.03186 80.0 
271.1539 136.0 
271.190338 234.0 
273.193573 240.0 
274.139709 105.0 
274.196686 153.0 
275.155823 106.0 
275.18689 102.0 
275.22226 215.0 
275.816467 65.0 
276.123138 77.0 
277.127258 421.0 
277.206635 190.0 
278.138275 80.0 
278.199829 114.0 
279.104034 94.0 
279.147278 169.0 
280.152283 84.0 
280.217316 57.0 
281.165405 195.0 
281.194672 186.0 
282.154419 527.0 
282.203247 70.0 
282.654602 205.0 
283.139618 204.0 
283.211914 255.0 
284.162994 59.0 
284.190125 85.0 
285.139465 149.0 
285.21817 110.0 
286.20929 111.0 
287.139374 122.0 
287.186646 140.0 
288.1409 90.0 
288.191193 56.0 
289.091553 70.0 
289.167908 80.0 
289.202667 532.0 
290.16626 134.0 
290.207489 71.0 
290.673187 170.0 
291.143158 95.0 
291.179504 165.0 
291.217865 158.0 
293.131073 172.0 
293.161407 118.0 
293.234192 513.0 
294.240814 69.0 
295.110596 81.0 
295.147491 230.0 
295.185944 238.0 
295.214355 637.0 
296.220428 156.0 
297.115204 68.0 
297.162872 130.0 
297.208008 87.0 
297.348846 69.0 
298.176239 57.0 
299.184875 149.0 
299.219635 78.0 
300.179138 62.0 
301.202301 55.0 
301.238831 228.0 
303.113373 61.0 
303.151459 181.0 
303.216492 224.0 
305.159729 204.0 
305.20462 121.0 
305.2323 94.0 
307.152374 127.0 
307.177124 114.0 
307.21286 637.0 
308.219299 157.0 
309.15863 767.0 
309.233337 177.0 
310.15506 84.0 
310.233154 85.0 
310.401001 56.0 
311.140961 301.0 
311.176025 173.0 
311.228271 164.0 
311.247955 213.0 
312.17804 98.0 
312.255096 125.0 
313.226807 591.0 
314.201538 59.0 
314.22818 161.0 
315.183716 306.0 
315.224915 115.0 
316.186249 513.0 
316.685669 212.0 
317.189148 108.0 
317.229675 101.0 
319.252014 561.0 
320.257111 259.0 
321.131348 169.0 
321.156647 216.0 
321.233002 560.0 
322.127228 70.0 
322.170502 117.0 
322.239044 111.0 
322.678619 62.0 
323.136871 74.0 
323.17749 79.0 
323.218109 60.0 
323.238037 68.0 
324.166809 123.0 
324.249207 85.0 
325.082947 73.0 
325.163391 146.0 
325.19165 186.0 
326.169861 107.0 
327.177643 245.0 
327.261047 96.0 
328.181244 64.0 
329.15451 171.0 
329.201843 94.0 
329.238312 169.0 
330.242157 197.0 
331.215271 67.0 
332.190765 116.0 
332.221283 86.0 
332.258789 56.0 
333.196686 901.0 
333.266296 206.0 
334.194916 206.0 
334.27356 134.0 
335.179993 327.0 
336.195007 88.0 
337.155823 130.0 
337.196777 150.0 
337.244354 146.0 
338.180664 77.0 
338.240906 74.0 
339.135162 59.0 
339.165375 75.0 
339.242706 469.0 
340.244995 190.0 
341.174377 101.0 
341.217377 69.0 
342.220245 75.0 
343.172394 82.0 
343.241486 58.0 
344.185089 184.0 
345.191345 85.0 
347.19455 317.0 
347.240997 175.0 
347.693146 187.0 
348.202271 71.0 
348.246246 77.0 
349.196381 65.0 
349.26059 205.0 
350.274109 63.0 
351.172882 512.0 
351.27887 714.0 
352.192047 88.0 
352.281891 471.0 
353.189026 283.0 
353.276184 82.0 
354.203003 242.0 
355.183228 69.0 
355.220154 280.0 
355.257568 203.0 
356.183319 56.0 
356.220154 96.0 
356.263519 113.0 
357.216095 77.0 
357.25296 102.0 
358.216888 83.0 
359.219543 71.0 
359.277954 123.0 
361.194061 236.0 
361.270416 168.0 
362.223297 59.0 
363.131317 67.0 
363.202026 1148.0 
363.705139 442.0 
364.202423 179.0 
364.721222 54.0 
365.124359 93.0 
365.220276 642.0 
366.121368 63.0 
366.224243 217.0 
367.203461 194.0 
367.278168 107.0 
367.700928 61.0 
369.187653 262.0 
369.288544 469.0 
370.187958 152.0 
370.244263 58.0 
370.293182 256.0 
371.20755 78.0 
372.206573 211.0 
373.227417 364.0 
373.265259 627.0 
374.231018 97.0 
374.265442 127.0 
375.209473 272.0 
375.268921 118.0 
377.193146 639.0 
377.298889 219.0 
378.199036 66.0 
378.307251 59.0 
379.160858 73.0 
379.202881 58.0 
379.275818 103.0 
380.277283 56.0 
380.309601 60.0 
381.17688 230.0 
382.20874 74.0 
383.19809 141.0 
383.232819 119.0 
384.249634 97.0 
385.213043 127.0 
386.216522 86.0 
387.239899 169.0 
387.280365 189.0 
388.289398 88.0 
389.232513 227.0 
390.218231 70.0 
391.238739 162.0 
391.279205 100.0 
392.276794 90.0 
393.220093 334.0 
393.296356 156.0 
394.221222 117.0 
395.204559 471.0 
395.311462 121.0 
396.205292 136.0 
396.310089 196.0 
397.084686 85.0 
397.146637 1577.0 
397.201447 78.0 
397.248962 278.0 
398.155182 296.0 
398.255127 59.0 
399.153015 134.0 
399.208405 62.0 
400.282684 93.0 
403.213989 210.0 
404.250641 78.0 
405.259491 455.0 
405.290436 614.0 
406.217682 58.0 
406.259216 349.0 
406.292725 246.0 
407.214996 653.0 
407.314911 102.0 
407.712585 159.0 
408.220032 102.0 
408.304413 68.0 
409.161102 69.0 
409.319122 161.0 
411.23114 72.0 
412.743927 87.0 
413.118988 71.0 
413.21405 68.0 
413.248322 72.0 
413.324615 74.0 
415.11731 149.0 
415.170013 68.0 
416.19516 71.0 
416.253876 76.0 
416.294922 63.0 
417.20282 76.0 
418.720978 56.0 
419.231903 82.0 
419.281677 73.0 
421.219147 427.0 
422.256775 73.0 
423.169067 79.0 
423.265411 378.0 
423.306488 283.0 
424.268311 197.0 
424.311646 256.0 
425.211823 551.0 
425.246521 286.0 
425.29425 170.0 
426.207092 116.0 
427.206055 93.0 
427.729767 72.0 
428.252625 57.0 
431.241425 71.0 
433.27774 65.0 
435.23288 104.0 
436.252869 56.0 
437.284454 293.0 
438.318695 122.0 
441.33194 353.0 
442.17804 65.0 
443.247681 66.0 
444.251251 61.0 
447.245605 56.0 
447.348175 59.0 
451.278198 148.0 
453.259949 120.0 
454.272034 56.0 
455.230347 132.0 
455.293579 236.0 
455.34317 189.0 
456.34787 62.0 
457.289337 79.0 
457.328308 272.0 
458.328125 56.0 
459.253418 57.0 
459.283783 57.0 
459.319519 55.0 
461.252838 289.0 
463.192566 100.0 
463.273346 108.0 
464.207062 74.0 
464.308044 113.0 
465.222595 85.0 
465.248688 79.0 
465.292908 95.0 
468.238678 62.0 
468.357605 56.0 
469.295166 78.0 
470.283112 160.0 
471.132477 55.0 
473.357819 212.0 
474.246948 56.0 
474.317047 69.0 
474.351624 72.0 
474.379822 85.0 
475.288605 130.0 
475.335724 398.0 
477.320892 177.0 
478.295959 68.0 
479.263641 695.0 
479.328339 71.0 
480.263794 118.0 
480.326111 65.0 
481.241638 103.0 
481.37262 83.0 
483.253387 1294.0 
484.263947 835.0 
484.765137 192.0 
485.26712 88.0 
485.32959 82.0 
486.27948 117.0 
487.301544 172.0 
488.256897 57.0 
488.310333 56.0 
490.306702 174.0 
490.806244 69.0 
491.31012 135.0 
491.358643 94.0 
493.277618 119.0 
493.325134 134.0 
494.330231 156.0 
495.245514 105.0 
495.325897 5162.0 
496.329254 1405.0 
497.275757 119.0 
497.33316 316.0 
498.343079 68.0 
499.222107 278.0 
500.18161 60.0 
500.222626 108.0 
501.326416 190.0 
502.334015 145.0 
504.291229 101.0 
505.316711 61.0 
505.391327 115.0 
507.366791 62.0 
507.394012 65.0 
508.353088 90.0 
509.335175 60.0 
509.372345 64.0 
511.305908 165.0 
512.297241 158.0 
512.349792 71.0 
512.800354 57.0 
513.282898 86.0 
513.791931 123.0 
514.299622 84.0 
515.342834 61.0 
517.294067 76.0 
517.347229 72.0 
519.345642 377.0 
520.286255 79.0 
520.347107 210.0 
521.343933 135.0 
525.305359 114.0 
525.348755 133.0 
525.822998 75.0 
526.393982 119.0 
527.361084 80.0 
529.355774 100.0 
534.336914 68.0 
534.812927 63.0 
535.391541 61.0 
537.361145 462.0 
538.363403 324.0 
539.260193 79.0 
541.322266 172.0 
541.413696 56.0 
541.843323 86.0 
542.349426 79.0 
543.370605 135.0 
544.37616 118.0 
547.353149 219.0 
547.867615 97.0 
551.376465 368.0 
552.376831 349.0 
553.343628 78.0 
553.377502 114.0 
555.365356 342.0 
556.371582 160.0 
557.311523 56.0 
557.378723 58.0 
559.278381 106.0 
559.379944 88.0 
560.865906 54.0 
561.343079 92.0 
564.326904 221.0 
564.830566 159.0 
565.327576 133.0 
565.365051 133.0 
565.830688 68.0 
566.834534 72.0 
568.371521 64.0 
569.384399 1131.0 
570.385803 999.0 
570.874451 58.0 
571.393677 135.0 
573.382751 75.0 
575.333679 605.0 
575.841003 314.0 
576.331543 69.0 
577.332214 163.0 
577.836548 60.0 
578.394531 57.0 
583.318176 62.0 
583.40741 147.0 
584.308838 83.0 
584.33551 114.0 
584.402344 115.0 
585.346252 66.0 
587.393127 1412.0 
588.400574 713.0 
589.401733 317.0 
590.392761 127.0 
590.882263 109.0 
591.400635 66.0 
593.343201 1558.0 
593.847168 1053.0 
594.347656 485.0 
594.411499 73.0 
594.851013 129.0 
595.848145 70.0 
599.382385 153.0 
599.874695 75.0 
600.868774 105.0 
601.405579 610.0 
602.418762 604.0 
603.420044 174.0 
603.683594 59.0 
605.40448 288.0 
606.418884 303.0 
607.415833 109.0 
609.403076 61.0 
611.402405 69.0 
615.385193 99.0 
615.438965 87.0 
616.418518 166.0 
617.393555 54.0 
619.419983 1713.0 
620.423828 1503.0 
621.439514 254.0 
622.428345 64.0 
623.424927 77.0 
625.401978 482.0 
625.463928 58.0 
625.901123 213.0 
626.404541 164.0 
627.404846 97.0 
629.414673 76.0 
633.364197 311.0 
634.370056 236.0 
634.420776 157.0 
635.363098 54.0 
635.430359 157.0 
637.43811 555.0 
638.433105 515.0 
639.432617 212.0 
643.316956 55.0 
643.41925 137.0 
645.440552 67.0 
646.422546 86.0 
647.452209 448.0 
648.454224 155.0 
649.427063 191.0 
650.425171 80.0 
651.330322 84.0 
651.448547 672.0 
652.454712 629.0 
653.45575 154.0 
654.403259 55.0 
654.458679 113.0 
655.444153 396.0 
656.369141 75.0 
656.436279 138.0 
656.92926 83.0 
657.389954 65.0 
658.362183 60.0 
659.375427 55.0 
659.432556 121.0 
659.927429 202.0 
660.441284 91.0 
661.430664 137.0 
663.356384 59.0 
665.418762 141.0 
667.981628 56.0 
668.429565 58.0 
669.347168 105.0 
669.458679 765.0 
670.462891 704.0 
671.460815 190.0 
672.416443 138.0 
672.470032 87.0 
673.454285 284.0 
674.192139 57.0 
674.345703 61.0 
675.377808 192.0 
675.447876 165.0 
675.948853 195.0 
676.387024 73.0 
676.432373 80.0 
676.490723 57.0 
676.946472 99.0 
677.424438 113.0 
678.419128 81.0 
679.442505 81.0 
681.428894 377.0 
681.928284 355.0 
682.435059 88.0 
684.26593 72.0 
684.431458 81.0 
687.471558 465.0 
688.424866 117.0 
688.472778 455.0 
689.477356 135.0 
689.923157 55.0 
690.433289 802.0 
690.558899 55.0 
690.930725 493.0 
691.435364 462.0 
691.624146 58.0 
691.926147 64.0 
692.431458 120.0 
693.391418 725.0 
694.39563 443.0 
694.463135 110.0 
694.772034 54.0 
695.392822 87.0 
697.021973 54.0 
697.440735 558.0 
697.944153 279.0 
698.450012 290.0 
698.954773 57.0 
699.401978 99.0 
699.566223 63.0 
699.941528 62.0 
700.125793 61.0 
700.257568 69.0 
701.824524 65.0 
704.482544 59.0 
704.70282 55.0 
705.132812 61.0 
705.342224 108.0 
705.42749 123.0 
705.590332 66.0 
705.657593 55.0 
705.727478 89.0 
705.816833 144.0 
705.917969 106.0 
706.016602 100.0 
706.155334 80.0 
706.208191 127.0 
706.25647 119.0 
706.444519 53636.0 
706.628174 149.0 
706.692322 107.0 
706.796082 168.0 
706.945801 44296.0 
707.060303 163.0 
707.277344 101.0 
707.447449 20056.0 
707.581604 127.0 
707.712646 149.0 
707.873352 129.0 
707.948975 6945.0 
708.054993 60.0 
708.152771 56.0 
708.303223 82.0 
708.446289 3105.0 
708.657654 83.0 
708.85675 54.0 
708.945801 1248.0 
709.017822 103.0 
709.215271 119.0 
709.452759 12633.0 
709.949707 241.0 
710.074951 60.0 
710.105774 77.0 
710.187378 76.0 
710.455811 4545.0 
710.602051 71.0 
710.800903 92.0 
710.895325 55.0 
710.93396 98.0 
711.074829 77.0 
711.12793 55.0 
711.272339 91.0 
711.328857 168.0 
711.382568 141.0 
711.454285 1141.0 
711.728271 61.0 
711.859863 85.0 
712.127869 54.0 
712.380554 90.0 
712.465759 280.0 
712.529968 70.0 
713.928101 203.0 
714.431213 262.0 
714.689148 57.0 
714.939514 160.0 
715.430115 739.0 
715.934631 647.0 
716.427734 220.0 
716.940857 81.0 
725.418457 9145.0 
726.422729 3303.0 
727.024048 55.0 
727.424927 990.0 
728.427063 232.0 
729.409729 198.0 
730.411499 262.0 
730.794312 62.0 
733.415955 59.0 
734.497314 55.0 
734.723633 55.0 
735.442566 81.0 
740.392456 288.0 
740.465332 55.0 
741.38739 336.0 
742.389404 96.0 
743.391052 720.0 
744.411499 202.0 
745.386414 112.0 
746.386047 63.0 
751.471436 105.0 
761.430786 66.0 
765.517883 54.0 
767.41748 159.0 
769.459106 88.0 
805.39502 56.0 
813.431763 74.0 
860.535522 61.0 
862.594421 58.0 
863.553711 97.0 
873.612244 63.0 
888.557556 73.0 
889.556641 65.0 
894.558105 65.0 
897.558472 69.0 
905.578796 71.0 
909.593262 59.0 
912.601196 58.0 
920.589355 93.0 
921.554871 61.0 
923.488342 110.0 
923.580994 1308.0 
924.586731 824.0 
925.590332 293.0 
926.593689 97.0 
935.569702 55.0 
938.596619 91.0 
939.563904 82.0 
940.550232 102.0 
947.606628 54.0 
948.619812 66.0 
948.657104 81.0 
955.618652 191.0 
956.602966 111.0 
957.536194 85.0 
965.577454 78.0 
967.539612 62.0 
977.594971 88.0 
983.583069 57.0 
988.475769 66.0 
1006.673706 56.0 
1008.665771 67.0 
1009.608459 278.0 
1010.603394 126.0 
1011.575806 78.0 
1017.69574 69.0 
1025.56665 109.0 
1033.687744 63.0 
1036.687622 64.0 
1049.65271 58.0 
1051.602539 136.0 
1052.60022 137.0 
1053.584351 71.0 
1056.71521 116.0 
1065.670654 257.0 
1066.711304 210.0 
1067.690063 71.0 
1069.597778 76.0 
1081.658203 57.0 
1083.695801 59.0 
1085.655151 72.0 
1088.721436 55.0 
1089.640381 78.0 
1093.751099 86.0 
1101.728394 97.0 
1106.731934 126.0 
1107.758057 124.0 
1111.69104 380.0 
1112.678955 270.0 
1121.678223 90.0 
1122.64917 70.0 
1124.755737 151.0 
1127.651855 95.0 
1137.678467 67.0 
1140.230103 65.0 
1151.728149 80.0 
1152.711548 77.0 
1162.589478 76.0 
1168.627197 61.0 
1169.730957 4913.0 
1170.366699 57.0 
1170.729126 2588.0 
1171.74353 1296.0 
1172.273926 80.0 
1172.73877 385.0 
1174.739746 69.0 
1181.796875 520.0 
1182.804077 432.0 
1183.799438 155.0 
1185.703125 109.0 
1186.443359 64.0 
1186.697998 101.0 
1189.818604 116.0 
1197.07251 65.0 
1201.9104 61.0 
1218.855469 55.0 
1220.218506 54.0 
1221.863403 79.0 
1223.018921 55.0 
1225.188965 54.0 
1226.691406 62.0 
1236.584106 61.0 
1238.814819 70.0 
1239.79834 79.0 
1250.080078 57.0 
1252.121216 57.0 
1252.792358 73.0 
1256.56897 54.0 
1263.039551 64.0 
1265.460327 61.0 
1267.513062 72.0 
1269.207764 55.0 
1270.797852 58.0 
1270.890259 97.0 
1271.863159 169.0 
1277.431396 57.0 
1278.811523 86.0 
1279.816895 80.0 
1280.025269 74.0 
1280.856567 74.0 
1284.825317 55.0 
1284.907227 54.0 
1288.853394 55.0 
1288.898438 114.0 
1289.891968 146.0 
1290.863403 73.0 
1292.23645 64.0 
1295.006836 55.0 
1295.280884 76.0 
1296.086792 66.0 
1296.303101 70.0 
1296.632446 61.0 
1297.518188 85.0 
1297.860107 82.0 
1297.939697 70.0 
1299.675659 55.0 
1302.899048 67.0 
1302.966431 57.0 
1303.894775 64.0 
1306.820068 80.0 
1306.899658 116.0 
1307.901489 148.0 
1308.22168 55.0 
1308.883057 93.0 
1310.513672 62.0 
1312.316284 61.0 
1320.919312 268.0 
1321.537842 79.0 
1321.91748 358.0 
1322.894287 128.0 
1323.043091 71.0 
1323.449219 62.0 
1323.922974 110.0 
1324.666016 61.0 
1324.942383 127.0 
1325.288818 54.0 
1327.827148 55.0 
1327.914429 54.0 
1333.861328 61.0 
1333.941284 103.0 
1335.095581 70.0 
1335.568481 58.0 
1336.073242 65.0 
1336.59668 59.0 
1337.040771 101.0 
1337.614502 94.0 
1337.90271 105.0 
1337.989136 102.0 
1338.924683 625.0 
1339.076782 62.0 
1339.431763 57.0 
1339.920044 724.0 
1340.053589 57.0 
1340.160034 58.0 
1340.2854 55.0 
1340.919556 296.0 
1341.931274 135.0 
1346.504761 56.0 
1346.620483 59.0 
1346.983521 58.0 
1347.50708 56.0 
1347.917114 57.0 
1348.430542 59.0 
1348.834351 59.0 
1348.926636 80.0 
1349.011597 116.0 
1349.568604 98.0 
1350.092651 66.0 
1350.182739 57.0 
1350.300171 78.0 
1350.754761 55.0 
1350.804565 67.0 
1351.342773 56.0 
1351.592651 97.0 
1351.802368 121.0 
1352.650024 106.0 
1353.354614 60.0 
1353.508545 60.0 
1354.531616 64.0 
1354.901855 66.0 
1355.827637 117.0 
1355.92688 119.0 
1356.511475 68.0 
1356.720581 64.0 
1356.819214 72.0 
1356.915894 197.0 
1357.257446 54.0 
1357.473755 82.0 
1357.807983 55.0 
1357.930298 286.0 
1358.720337 67.0 
1358.866455 70.0 
1358.978394 171.0 
1359.936401 58.0 
1359.993164 72.0 
1361.692871 65.0 
1361.869385 58.0 
1362.070068 164.0 
1362.158691 82.0 
1362.237305 62.0 
1362.468018 115.0 
1362.535156 70.0 
1362.647949 75.0 
1362.929688 101.0 
1363.074951 68.0 
1363.156372 107.0 
1363.349609 98.0 
1363.428345 75.0 
1363.518433 100.0 
1363.624756 176.0 
1363.774292 73.0 
1363.909424 96.0 
1363.956665 111.0 
1364.129272 70.0 
1364.246704 156.0 
1364.389648 136.0 
1364.467529 105.0 
1364.569458 196.0 
1364.695068 155.0 
1364.764404 77.0 
1364.921631 217.0 
1365.028076 175.0 
1365.211792 98.0 
1365.296753 137.0 
1365.347534 139.0 
1365.489502 235.0 
1365.584839 208.0 
1365.684937 127.0 
1365.773682 126.0 
1365.905762 178.0 
1365.96582 203.0 
1366.143677 146.0 
1366.224121 118.0 
1366.309448 140.0 
1366.394165 133.0 
1366.530884 147.0 
1366.629639 144.0 
1366.75354 128.0 
1366.798096 172.0 
1366.874756 151.0 
1367.000977 78.0 
1367.101196 138.0 
1367.180054 108.0 
1367.276978 58.0 
1367.403809 62.0 
1367.454468 70.0 
1367.557129 225.0 
1367.629883 143.0 
1367.708496 99.0 
1367.769409 78.0 
1367.858032 71.0 
1367.936646 223.0 
1368.040771 94.0 
1368.132568 72.0 
1368.206421 74.0 
1368.307251 107.0 
1368.372559 138.0 
1368.564087 120.0 
1368.734497 66.0 
1368.84021 114.0 
1368.945801 74.0 
1369.026001 82.0 
1369.06543 98.0 
1369.278198 121.0 
1369.592041 137.0 
1369.72998 96.0 
1369.854248 83.0 
1370.088257 81.0 
1370.455933 82.0 
1370.598633 95.0 
1370.735596 61.0 
1370.858765 94.0 
1371.152222 99.0 
1371.320435 82.0 
1371.509644 86.0 
1371.822632 68.0 
1371.97229 62.0 
1372.081299 132.0 
1372.2948 59.0 
1372.576294 87.0 
1372.65271 69.0 
1372.841064 94.0 
1373.002075 56.0 
1373.080811 56.0 
1373.201416 102.0 
1373.331665 63.0 
1373.425659 83.0 
1373.706543 92.0 
1373.807129 59.0 
1373.940918 70.0 
1374.147705 77.0 
1374.477295 121.0 
1374.595337 59.0 
1374.757446 65.0 
1374.931274 62.0 
1375.001831 99.0 
1375.084106 63.0 
1375.149658 81.0 
1375.262939 59.0 
1375.452148 101.0 
1375.727173 92.0 
1375.865234 71.0 
1375.969482 87.0 
1376.054932 86.0 
1376.149048 104.0 
1376.293091 76.0 
1376.347168 87.0 
1376.555786 72.0 
1376.64563 87.0 
1376.755127 78.0 
1376.824341 111.0 
1376.887207 93.0 
1377.105469 76.0 
1377.343384 96.0 
1377.537231 71.0 
1377.726074 55.0 
1377.911011 108.0 
1377.989624 157.0 
1378.204834 70.0 
1378.37793 105.0 
1378.420654 125.0 
1378.635132 143.0 
1378.773682 110.0 
1378.839478 86.0 
1378.935791 127.0 
1378.993774 89.0 
1379.091675 77.0 
1379.14856 134.0 
1379.29248 130.0 
1379.392578 111.0 
1379.538818 100.0 
1379.642578 119.0 
1379.727905 135.0 
1379.809692 183.0 
1379.861206 202.0 
1379.924316 170.0 
1380.019409 300.0 
1380.124023 128.0 
1380.202881 250.0 
1380.272217 114.0 
1380.349487 93.0 
1380.395874 92.0 
1380.459717 149.0 
1380.587036 188.0 
1380.672607 169.0 
1380.751831 204.0 
1380.879272 205.0 
1380.963257 232.0 
1381.032227 280.0 
1381.113525 133.0 
1381.195312 227.0 
1381.311157 170.0 
1381.421387 90.0 
1381.51062 120.0 
1381.565796 158.0 
1381.664307 107.0 
1381.770508 167.0 
1381.836426 169.0 
1381.883911 197.0 
1381.974609 127.0 
1382.125244 233.0 
1382.286011 166.0 
1382.380371 93.0 
1382.601196 75.0 
1382.658447 106.0 
1382.767578 149.0 
1382.93811 191.0 
1383.052734 72.0 
1383.13623 132.0 
1383.302002 121.0 
1383.391357 181.0 
1383.481812 121.0 
1383.564209 136.0 
1383.634888 58.0 
1383.69458 61.0 
1383.806763 170.0 
1383.918335 179.0 
1384.064087 65.0 
1384.158936 95.0 
1384.459106 78.0 
1384.539917 118.0 
1384.613892 74.0 
1384.723267 90.0 
1384.761963 115.0 
1384.869141 74.0 
1384.927368 94.0 
1385.025146 132.0 
1385.087524 96.0 
1385.159912 88.0 
1385.253052 154.0 
1385.325317 82.0 
1385.40625 103.0 
1385.466919 102.0 
1385.643921 63.0 
1385.775391 80.0 
1385.853027 129.0 
1385.980103 122.0 
1386.047485 91.0 
1386.15332 55.0 
1386.287109 131.0 
1386.416992 160.0 
1386.535156 70.0 
1386.612915 89.0 
1386.657715 96.0 
1386.745605 136.0 
1386.862671 92.0 
1386.928589 145.0 
1387.079346 82.0 
1387.309937 132.0 
1387.477295 159.0 
1387.598511 127.0 
1387.653442 127.0 
1387.785889 103.0 
1387.890137 99.0 
1388.217407 97.0 
1388.27771 122.0 
1388.450073 116.0 
1388.663452 113.0 
1388.720947 129.0 
1388.841797 63.0 
1388.911743 75.0 
1388.984497 120.0 
1389.071777 87.0 
1389.234619 107.0 
1389.409668 123.0 
1389.57959 138.0 
1389.681274 109.0 
1389.799072 83.0 
1389.848267 100.0 
1389.912354 104.0 
1390.146118 116.0 
1390.266235 136.0 
1390.325806 157.0 
1390.405518 137.0 
1390.56311 79.0 
1390.705322 100.0 
1390.875488 150.0 
1391.126221 176.0 
1391.192627 150.0 
1391.272583 135.0 
1391.370117 102.0 
1391.432617 119.0 
1391.525269 159.0 
1391.666016 229.0 
1391.75708 278.0 
1391.848389 288.0 
1391.993408 202.0 
1392.232788 284.0 
1392.444214 259.0 
1392.529907 204.0 
1392.614502 308.0 
1392.681152 241.0 
1392.764893 441.0 
1392.916504 7286.0 
1393.124634 344.0 
1393.192871 386.0 
1393.278198 401.0 
1393.417603 11214.0 
1393.675537 588.0 
1393.918335 11239.0 
1394.15686 530.0 
1394.198364 522.0 
1394.418091 7234.0 
1394.614746 1007.0 
1394.699951 821.0 
1394.793213 1035.0 
1394.917236 4498.0 
1395.066528 869.0 
1395.195435 744.0 
1395.420654 2212.0 
1395.500122 1984.0 
1395.924561 1035261.0 
1396.17041 196.0 
1396.271606 124.0 
1396.428223 10644.0 
1396.553711 5770.0 
1396.927979 885894.0 
1397.159058 153.0 
1397.242065 104.0 
1397.427246 15118.0 
1397.929932 417215.0 
1398.129272 170.0 
1398.199463 218.0 
1398.412109 2346.0 
1398.608154 255.0 
1398.931641 120180.0 
1399.197266 451.0 
1399.244507 458.0 
1399.337646 413.0 
1399.383545 461.0 
1399.469482 266.0 
1399.697632 464.0 
1399.754395 536.0 
1399.935181 19432.0 
1400.165039 405.0 
1400.408081 137.0 
1400.643921 471.0 
1400.765503 236.0 
1400.943359 2386.0 
1401.257324 146.0 
1401.37085 244.0 
1401.450439 199.0 
1401.561768 304.0 
1401.651733 255.0 
1401.708008 315.0 
1401.779053 166.0 
1401.935791 875.0 
1402.063721 370.0 
1402.119629 337.0 
1402.242676 307.0 
1402.318726 461.0 
1402.424194 660.0 
1402.650146 497.0 
1402.708374 525.0 
1402.837891 883.0 
1402.905762 814.0 
1403.136963 304.0 
1403.27002 401.0 
1403.350464 403.0 
1403.419678 440.0 
1403.575195 426.0 
1403.751587 675.0 
1403.914551 488.0 
1404.022339 339.0 
1404.253784 303.0 
1404.328247 273.0 
1404.427979 219.0 
1404.532959 223.0 
1404.630981 241.0 
1404.712524 189.0 
1404.855713 175.0 
1404.920288 277.0 
1404.992065 243.0 
1405.103882 154.0 
1405.227905 106.0 
1405.321777 134.0 
1405.393311 164.0 
1405.463989 130.0 
1405.568848 90.0 
1405.653809 201.0 
1405.781006 201.0 
1405.969482 125.0 
1406.050903 76.0 
1406.105713 59.0 
1406.19397 85.0 
1406.302368 69.0 
1406.449829 68.0 
1406.587158 129.0 
1406.708984 81.0 
1406.816406 78.0 
1406.90271 80.0 
1406.985229 115.0 
1407.143799 81.0 
1407.39856 56.0 
1407.697754 74.0 
1407.776733 82.0 
1407.881104 64.0 
1408.088745 55.0 
1408.156372 55.0 
1408.769775 61.0 
1409.428955 62.0 
1410.003906 55.0 
1410.073853 55.0 
1411.473145 79.0 
1411.742188 58.0 
1411.878418 737.0 
1412.765991 60.0 
1412.886597 484.0 
1413.893799 338.0 
1414.913574 121.0 
1415.917847 92.0 
1416.804443 54.0 
1416.891846 96.0 
1417.573608 60.0 
1419.928467 73.0 
1420.559692 76.0 
1420.775879 71.0 
1420.964966 63.0 
1421.764404 70.0 
1421.862671 60.0 
1421.932739 56.0 
1422.130127 90.0 
1422.640747 65.0 
1422.787964 62.0 
1423.02356 57.0 
1423.183228 66.0 
1423.288574 58.0 
1423.61084 64.0 
1423.692261 58.0 
1423.883789 72.0 
1424.051636 56.0 
1424.393188 55.0 
1424.859375 66.0 
1425.265381 74.0 
1425.857422 66.0 
1425.952271 57.0 
1426.571289 59.0 
1426.842773 82.0 
1427.849121 235.0 
1427.913818 134.0 
1428.413696 61.0 
1428.468262 65.0 
1428.904785 166.0 
1429.86438 171.0 
1430.870239 168.0 
1430.986694 73.0 
1431.043701 63.0 
1431.813477 96.0 
1431.887573 72.0 
1432.061157 60.0 
1432.502441 75.0 
1432.734009 68.0 
1432.854248 105.0 
1433.184692 69.0 
1433.263794 57.0 
1433.302368 78.0 
1433.552368 85.0 
1433.635254 69.0 
1433.722534 64.0 
1433.772095 59.0 
1433.847778 69.0 
1434.109497 87.0 
1434.17395 68.0 
1434.251953 56.0 
1434.682007 79.0 
1434.820679 75.0 
1434.9375 71.0 
1435.007568 64.0 
1435.068848 64.0 
1435.193848 78.0 
1435.428345 91.0 
1435.579224 55.0 
1435.954712 56.0 
1443.515381 63.0 
1989.918091 56.0 
2000.020874 63.0 
2000.939453 59.0 
END IONS

