BEGIN IONS
PEPMASS=339.086
CHARGE=1+
COMPOUNDNAME=rabelomycin
LIBRARYQUALITY=3
SMILES=N/A
INCHIKEY=JJOLHRYZQSDLSA-UHFFFAOYSA-N
INCHI=InChI=1S/C19H14O6/c1-19(25)6-8-5-11(21)15-16(13(8)12(22)7-19)17(23)9-3-2-4-10(20)14(9)18(15)24/h2-5,20-21,25H,6-7H2,1H3
MSLEVEL=2
SOURCE_INSTRUMENT=N/A-ESI-QFT
FILENAME=library_mgf.mgf
SEQ=*..*
IONMODE=positive
ORGANISM=MONA
NAME=rabelomycin [M+H]+
PI=MoNA
DATACOLLECTOR=MoNA:VF-NPL-QEHF000946
PUBMED=N/A
SUBMITUSER=mwang87
TAGS=
SPECTRUMID=CCMSLIB00004692009
SCANS=946
50.681519 0.017837 
51.583458 0.021755 
51.609531 0.011768 
51.702175 0.010371 
55.185757 0.021965 
55.415688 0.024324 
55.695118 0.008437 
55.696404 0.007817 
56.043819 0.009098 
56.121391 0.015177 
56.448547 0.007668 
56.670689 0.007172 
56.919373 0.007017 
57.070629 0.110815 
57.222397 0.010237 
57.761265 0.009751 
58.096397 0.014108 
59.049885 0.049753 
59.061081 0.245356 
59.104218 0.010311 
59.300549 0.010588 
59.764339 0.010627 
59.953049 0.016442 
60.231224 0.015887 
60.717133 0.008747 
61.171169 0.010342 
62.06065 0.047864 
62.398529 0.016767 
63.016022 0.022907 
63.699154 0.022294 
63.828922 0.009504 
63.904129 0.008873 
64.63559 0.008013 
64.81842 0.008128 
65.331474 0.00876 
66.401825 0.007273 
66.637238 0.008188 
67.894043 0.008342 
68.256371 0.009407 
68.870827 0.029277 
69.059586 0.008957 
69.070526 0.107936 
69.107285 0.008646 
70.065811 0.030609 
70.450104 0.00932 
70.831856 0.009413 
71.050003 0.007707 
71.086327 0.034058 
71.259369 0.007593 
71.521355 0.006947 
71.641266 0.016934 
72.938889 0.013137 
73.04744 0.346037 
73.085884 0.015465 
73.557663 0.015332 
73.841614 0.00799 
75.991158 0.008369 
76.554947 0.011095 
76.850677 0.008744 
77.181313 0.263009 
77.634697 0.010148 
78.16143 0.008336 
78.531776 0.008912 
78.84288 0.0088 
79.02182 0.019851 
79.024345 0.008665 
79.814468 0.008595 
80.026566 0.008893 
81.070465 0.107603 
81.089478 0.008613 
81.148705 0.017198 
81.202286 0.010851 
81.460953 0.015262 
83.03228 0.01156 
83.086067 0.058377 
83.476044 0.007163 
84.081383 0.026331 
85.101761 0.008428 
87.044586 0.145051 
88.668617 0.009191 
88.858955 0.009875 
89.060158 0.348111 
89.675148 0.008951 
91.054893 0.027317 
91.057854 0.150541 
91.810829 0.017315 
91.866829 0.014506 
92.243561 0.009982 
92.833733 0.010081 
93.07029 0.014628 
94.770668 0.007532 
95.085983 0.108332 
95.375999 0.009858 
96.927429 0.00911 
97.065338 0.007935 
97.102005 0.011525 
97.297432 0.008088 
99.08091 0.030301 
99.523369 0.007184 
99.591446 0.007606 
101.003532 0.04544 
101.748245 0.00821 
101.950165 0.027163 
102.091522 0.012698 
102.342171 0.006769 
102.941826 0.00714 
103.039284 0.181647 
103.184425 0.009 
104.272964 0.009129 
104.992584 0.048523 
107.085892 0.039331 
108.488853 0.008661 
108.722076 0.02818 
109.101318 0.034579 
109.865753 0.022231 
112.105484 0.007739 
112.121063 0.007827 
112.732071 0.008306 
113.702644 0.010609 
119.473297 0.008033 
121.101654 0.035211 
121.22847 0.009589 
122.13195 0.010052 
122.391777 0.008898 
123.117325 0.016261 
124.849922 0.011873 
125.661934 0.01087 
127.624741 0.007624 
128.12233 0.00832 
129.190887 0.009013 
129.255005 0.011058 
131.070358 0.01102 
132.594421 0.008104 
132.733795 0.010179 
133.0858 0.044597 
135.117004 0.012063 
136.287079 0.010748 
141.675369 0.007756 
142.860947 0.010179 
145.377121 0.009284 
147.11676 0.0125 
147.786148 0.011231 
148.575058 0.007783 
150.950638 0.02391 
151.111618 0.01912 
154.297165 0.009889 
159.803268 0.008504 
162.934998 0.009707 
165.897247 0.009234 
169.49646 0.012783 
173.078415 0.110657 
174.24057 0.027508 
176.582977 0.009672 
176.598404 0.01426 
178.748672 0.007665 
179.963638 0.390963 
181.666321 0.011228 
181.959412 0.135822 
183.956512 0.032575 
188.402786 0.009904 
192.717148 0.008909 
197.974182 0.919578 
199.1931 0.019588 
199.839035 0.009694 
199.970062 0.383439 
201.091965 0.01103 
201.966888 0.09962 
202.086166 0.769288 
205.702011 0.013184 
206.976608 0.010949 
213.911041 0.009978 
214.789444 0.30475 
214.801041 0.116059 
214.809021 0.254911 
214.817017 0.064907 
215.984726 0.048202 
217.980682 0.022794 
218.024063 0.029986 
218.858597 0.009261 
225.276825 0.015234 
228.517914 0.009117 
230.703156 0.016169 
231.55603 0.01078 
233.967987 0.014302 
237.090286 0.010014 
239.787842 0.011996 
239.836502 0.009765 
241.667847 0.009474 
242.245804 0.009601 
247.074997 0.205772 
247.928802 0.036162 
248.777573 0.010276 
251.07016 0.185673 
252.041321 0.011592 
254.057343 0.308734 
254.34819 0.009386 
255.064835 6.450613 
256.06839 0.9697 
264.077148 0.012113 
265.08548 0.552752 
265.939362 0.199073 
269.080353 0.025348 
269.137085 0.011519 
275.070129 0.814271 
275.665009 0.020393 
275.701141 0.011744 
276.074677 0.022838 
277.085358 0.113611 
277.379791 0.026299 
277.970093 0.020984 
277.992065 0.010386 
278.05719 0.11621 
278.574677 0.013239 
278.966522 0.061773 
279.064789 6.508222 
280.068573 1.229639 
282.956726 0.011012 
283.167969 0.024032 
291.064728 0.022885 
292.047577 0.008096 
292.529175 0.018469 
293.080414 20.467218 
294.083832 3.950987 
294.808411 0.007928 
295.096985 1.262941 
295.979401 0.014026 
297.075378 83.360916 
298.078766 15.499333 
299.079956 1.218417 
303.064362 1.140082 
304.068359 0.014501 
305.079193 0.079895 
305.250732 0.009818 
306.051575 0.010508 
307.914062 0.010067 
309.286285 0.009295 
313.206451 0.023279 
315.085724 0.22246 
316.088837 0.010056 
321.075287 100.0 
322.078644 20.962351 
322.236938 0.039501 
323.081085 1.972373 
324.122437 0.164992 
325.129395 0.070847 
336.313293 0.010375 
337.233673 0.210164 
338.233887 0.071919 
338.265045 0.007464 
339.085876 3.847294 
340.090271 0.856229 
340.153748 3.300075 
340.392914 0.730118 
341.100739 0.061591 
341.132935 0.008436 
341.157166 0.492643 
341.192505 0.150815 
341.266418 0.032864 
342.377319 0.008921 
342.996643 0.010344 
348.100677 0.012037 
348.227295 0.008038 
355.776245 0.008528 
359.028259 0.021034 
363.550018 0.010386 
END IONS

