BEGIN IONS
PEPMASS=730.56
CHARGE=1+
MSLEVEL=2
SOURCE_INSTRUMENT=LC-ESI-Ion Trap
FILENAME=f.yuhaobing/microcolins Fedback/2,3-Dihydromicrocolin D.mzXML;
SEQ=*..*
IONMODE=Positive
ORGANISM=GNPS-LIBRARY
NAME=2,3-dihydromicrocolin D M+Na
PI=Gerwick
DATACOLLECTOR=Haobing Yu
SMILES=CN(C([C@H](C)C[C@H](C)CCCC)=O)[C@@H](CC(C)C)C(N[C@@H]([C@@H](C)O)C(N(C)[C@@H](C(C)C)C(N1[C@H](C(N2C(CC[C@@H]2C)=O)=O)C[C@H](O)C1)=O)=O)=O
INCHI=
INCHIAUX=
PUBMED=31468974
SUBMITUSER=yuhaobing
LIBRARYQUALITY=3
SPECTRUMID=CCMSLIB00005463475
SCANS=494
316.257446 68909.0 
348.143311 1408236.0 
348.866638 59.0 
377.014038 51170.0 
385.569763 93795.0 
387.593018 247705.0 
388.208313 16.0 
389.133301 203853.0 
405.217407 953901.0 
406.272217 161662.0 
406.93335 2.0 
418.330078 105296.0 
424.46936 66148.0 
431.21582 148787.0 
449.242188 1264304.0 
450.468628 135469.0 
459.323547 75004.0 
474.118286 383060.0 
475.308777 203099.0 
514.309326 65837.0 
525.240967 221777.0 
531.616455 45588.0 
536.282959 129836.0 
541.370361 205470.0 
542.522461 31920.0 
558.319824 255596.0 
571.391479 32741.0 
575.433838 41687.0 
587.526855 441281.0 
588.577637 166600.0 
597.484131 138273.0 
614.909424 11320.0 
615.71521 1138026.0 
616.424194 146943.0 
630.334229 269385.0 
631.427246 2601058.0 
632.608643 152145.0 
668.737305 652473.0 
669.52417 75654.0 
685.838867 812365.0 
686.530762 36095696.0 
687.582031 5544605.0 
688.342773 14.0 
698.128418 279198.0 
712.400635 500244.0 
713.555542 232179.0 
714.237305 25.0 
729.825073 108998.0 
730.563477 55933600.0 
731.504639 21709392.0 
732.310181 93367.0 
END IONS

