BEGIN IONS
PEPMASS=567.0
CHARGE=0+
MSLEVEL=2
SOURCE_INSTRUMENT=LC-ESI-qTof
FILENAME=20130107_Jenia_Ger_Jamaicamide_A_MH567-qb.1.1..mgf
SEQ=*..*
IONMODE=Positive
ORGANISM=GNPS-LIBRARY
NAME=Jamaicamide_A M+H
PI=Gerwick
DATACOLLECTOR=Jenia
SMILES=C[C@H]1C=CC(=O)N1C(=O)/C=C(\CCNC(=O)CC/C=C/C(C)CC/C(=C/Cl)/CCCC#CBr)/OC
INCHI=InChI=1S/C27H36BrClN2O4/c1-21(12-14-23(20-29)10-5-4-8-17-28)9-6-7-11-25(32)30-18-16-24(35-3)19-27(34)31-22(2)13-15-26(31)33/h6,9,13,15,19-22H,4-5,7,10-12,14,16,18H2,1-3H3,(H,30,32)/b9-6+,23-20+,24-19+/t21?,22-/m0/s1
INCHIAUX=N/A
PUBMED=N/A
SUBMITUSER=mwang87
LIBRARYQUALITY=1
SPECTRUMID=CCMSLIB00000001706
SCANS=1
158.824646 42835.0 
198.975983 29729.0 
206.794098 113584.0 
207.79007 978237.0 
226.840546 29865.0 
235.786469 87643.0 
236.433319 2.0 
307.109314 180023.0 
415.947021 192600.0 
433.938965 179166.0 
469.827759 3128525.0 
470.551758 896.0 
499.227112 4420.0 
534.885254 309958.0 
END IONS

