BEGIN IONS
PEPMASS=308.5
CHARGE=1+
COMPOUNDNAME=Massbank:KO003900 Paromomycin|Zygomycin A1|Catenulin|Monomycin A|Hydroxymycin|Aminosidin
LIBRARYQUALITY=3
SMILES=OCC(O1)C(O)C(O)C(N)C1OC(C(N)4)C(C(O)C(N)C4)OC(O3)C(O)C(C(CO)3)OC([H])(O2)C(N)C(O)C(O)C(CN)2
INCHIKEY=UOZODPSAJZTQNH-UHFFFAOYSA-N
INCHI=1S/C23H45N5O14/c24-2-7-13(32)15(34)10(27)21(37-7)41-19-9(4-30)39-23(17(19)36)42-20-12(31)5(25)1-6(26)18(20)40-22-11(28)16(35)14(33)8(3-29)38-22/h5-23,29-36H,1-4,24-28H2/t5-,6+,7+,8-,9-,10-,11-,12+,13-,14-,15-,16-,17-,18-,19-,20-,21-,22-,23-/m1/s1
MSLEVEL=2
SOURCE_INSTRUMENT=ESI-LC-ESI-QQ
FILENAME=Massbank_ESI_positive_8_1_2014_peaks.mgf
SEQ=*..*
IONMODE=Positive
ORGANISM=MASSBANK
NAME=Massbank:KO003900 Paromomycin|Zygomycin A1|Catenulin|Monomycin A|Hydroxymycin|Aminosidin [M+2H]++
PI=Putative Massbank Match
DATACOLLECTOR=Massbank
PUBMED=N/A
SUBMITUSER=mwang87
TAGS=
SPECTRUMID=CCMSLIB00000220315
SCANS=9692
43.9 123762.5 
53.9 29703.0 
55.1 99010.0 
56.1 222772.5 
57.2 133663.5 
60.2 1004951.5 
60.8 113861.5 
68.0 846535.5 
68.8 603961.0 
69.9 341584.5 
71.0 84158.5 
72.0 2306933.0 
72.9 123762.5 
80.0 1539605.5 
80.9 287129.0 
82.0 321782.5 
83.0 143564.5 
84.1 2376240.0 
84.9 1044555.5 
86.2 351485.5 
88.1 44554.5 
90.0 84158.5 
92.1 34653.5 
95.0 49505.0 
96.1 811882.0 
97.1 1445546.0 
97.9 975248.5 
99.1 217822.0 
99.8 64356.5 
101.0 24752.5 
102.0 1153466.5 
106.1 59406.0 
107.2 113861.5 
108.2 1113862.5 
109.1 252475.5 
110.0 282178.5 
111.4 54455.5 
114.2 1014852.5 
116.0 44554.5 
117.0 19802.0 
119.3 39604.0 
120.4 24752.5 
124.2 54455.5 
125.2 1138615.0 
125.9 514852.0 
126.6 64356.5 
128.1 94059.5 
133.2 69307.0 
137.9 29703.0 
143.2 123762.5 
144.2 574258.0 
145.1 544555.0 
146.0 173267.5 
151.0 49505.0 
156.7 19802.0 
157.8 29703.0 
158.3 9901.0 
161.3 623763.0 
162.4 168317.0 
163.1 2519804.5 
164.3 29703.0 
167.3 79208.0 
168.1 39604.0 
169.1 64356.5 
170.9 19802.0 
176.0 34653.5 
187.3 227723.0 
189.2 29703.0 
203.2 44554.5 
211.5 19802.0 
223.9 34653.5 
229.3 19802.0 
241.4 84158.5 
259.3 69307.0 
289.5 84158.5 
END IONS

