BEGIN IONS
PEPMASS=855.0
CHARGE=0+
MSLEVEL=2
SOURCE_INSTRUMENT=LC-ESI-qTof
FILENAME=20130107_Jenia_Ger_Cyanolide_A_MNa855-qb.1.1..mgf
SEQ=*..*
IONMODE=Positive
ORGANISM=GNPS-LIBRARY
NAME=Cyanolide_A M+Na
PI=Gerwick
DATACOLLECTOR=Jenia
SMILES=CC[C@@H]1C[C@@H]2C[C@@H](C([C@@H](O2)CC(=O)O[C@@H](C[C@@H]3C[C@@H](C([C@@H](O3)CC(=O)O1)(C)C)O[C@H]4[C@@H]([C@H]([C@@H](CO4)OC)OC)OC)CC)(C)C)O[C@H]5[C@@H]([C@H]([C@@H](CO5)OC)OC)OC
INCHI=InChI=1S/C42H72O16/c1-13-23-15-25-17-29(57-39-37(49-11)35(47-9)27(45-7)21-51-39)41(3,4)32(53-25)20-34(44)56-24(14-2)16-26-18-30(42(5,6)31(54-26)19-33(43)55-23)58-40-38(50-12)36(48-10)28(46-8)22-52-40/h23-32,35-40H,13-22H2,1-12H3/t23-,24-,25-,26-,27-,28-,29+,30+,31+,32+,35+,36+,37-,38-,39+,40+/m1/s1
INCHIAUX=N/A
PUBMED=N/A
SUBMITUSER=mwang87
LIBRARYQUALITY=1
SPECTRUMID=CCMSLIB00000001702
SCANS=1
264.860718 25653.0 
333.859558 32102.0 
353.240906 62973.0 
396.279541 15788.0 
413.824036 87040.0 
433.445129 29600.0 
437.623291 207333.0 
439.093994 6074429.0 
439.965454 862361.0 
440.622437 22.0 
457.175964 101624.0 
459.28125 403111.0 
473.508545 41837.0 
493.703613 119704.0 
495.543091 101230.0 
499.098633 79755.0 
501.080444 432318.0 
507.205688 7209.0 
508.169189 199032.0 
553.217651 193593.0 
613.279419 164232.0 
637.401367 320237.0 
645.110962 266958.0 
647.160645 118827.0 
662.777832 251488.0 
665.265137 425899.0 
681.271484 11213482.0 
682.246338 2491454.0 
682.848999 978.0 
697.487305 376480.0 
698.125732 811640.0 
699.21582 174090.0 
700.072998 825022.0 
701.296875 43819.0 
811.264038 1620019.0 
812.331665 727012.0 
855.469727 334048.0 
END IONS

