BEGIN IONS
PEPMASS=588.0
CHARGE=2+
MSLEVEL=2
SOURCE_INSTRUMENT=LC-ESI-qTof
FILENAME=1F8_588MNa_RF8_01_9767.mzXML
SEQ=*..*
IONMODE=Positive
ORGANISM=GNPS-LIBRARY
NAME=Antillatoxin B M+Na
PI=Dorrestein/Gerwick
DATACOLLECTOR=Peng/Luzzatto/Garg
SMILES=C[C@@H]1NC(=O)CC(=C)[C@@H](C)[C@@H](OC(=O)CNC(=O)[C@H](CCC2=CC=CC=C2)N(C)C1=O)C(\C)=C\C(\C)=C\C(C)(C)C
INCHI=InChI=1S/C33H47N3O5/c1-21(19-33(6,7)8)17-23(3)30-24(4)22(2)18-28(37)35-25(5)32(40)36(9)27(31(39)34-20-29(38)41-30)16-15-26-13-11-10-12-14-26/h10-14,17,19,24-25,27,30H,2,15-16,18,20H2,1,3-9H3,(H,34,39)(H,35,37)/b21-19+,23-17+/t24-,25+,27+,30+/m1/s1
INCHIAUX=WBQWYSKGOKXFTF-OHAAWPAWSA-N
PUBMED=ChemSpider ID:8160989
SUBMITUSER=y6peng
LIBRARYQUALITY=2
SPECTRUMID=CCMSLIB00000072530
SCANS=2428
100.060005 252.0 
101.195572 188.0 
101.746696 256.0 
102.27919 164.0 
107.084778 256.0 
107.158913 208.0 
111.531654 184.0 
111.975426 148.0 
112.034378 200.0 
112.738823 200.0 
114.46701 208.0 
117.073433 280.0 
119.084785 180.0 
121.062073 224.0 
121.783325 184.0 
124.261368 224.0 
124.316811 208.0 
127.554054 264.0 
129.068466 272.0 
132.053192 212.0 
133.101227 228.0 
134.098068 220.0 
135.032745 192.0 
135.495514 164.0 
139.026688 204.0 
140.548569 200.0 
140.673599 264.0 
145.032089 260.0 
147.113708 200.0 
147.59256 280.0 
148.073929 216.0 
148.11203 6840.0 
148.137527 444.0 
149.119293 660.0 
149.970703 148.0 
150.893066 152.0 
151.210938 156.0 
152.028458 360.0 
153.031631 216.0 
153.125168 164.0 
153.302475 192.0 
154.160904 252.0 
156.075317 336.0 
156.700745 256.0 
157.695999 224.0 
160.738525 176.0 
161.043869 148.0 
161.094376 228.0 
161.131302 604.0 
163.095383 176.0 
164.855774 216.0 
165.070404 184.0 
167.045609 360.0 
168.048782 196.0 
170.09375 408.0 
171.116104 240.0 
175.109894 380.0 
176.434753 148.0 
177.061554 196.0 
177.111908 224.0 
178.528595 204.0 
182.172852 172.0 
182.589294 304.0 
186.134033 200.0 
188.054596 164.0 
188.630692 248.0 
188.928635 156.0 
189.127106 696.0 
190.139404 208.0 
193.099762 212.0 
193.160583 216.0 
196.05249 168.0 
197.333191 228.0 
198.130493 172.0 
203.179474 916.0 
204.19252 280.0 
206.151505 212.0 
207.141464 220.0 
207.316162 200.0 
207.883728 200.0 
208.075974 212.0 
209.936874 156.0 
214.061752 200.0 
216.139252 224.0 
217.070358 172.0 
217.194946 448.0 
217.941788 200.0 
218.203049 164.0 
219.111435 328.0 
219.14209 244.0 
220.138336 172.0 
224.075165 764.0 
225.086487 204.0 
228.072174 196.0 
230.118118 384.0 
232.143829 240.0 
232.168182 184.0 
234.16951 228.0 
237.083405 372.0 
238.082581 244.0 
239.079239 364.0 
239.107666 344.0 
239.797882 172.0 
239.863297 268.0 
239.958817 168.0 
240.11293 188.0 
242.074448 160.0 
242.220016 160.0 
243.080719 236.0 
243.149811 168.0 
243.57811 168.0 
244.087967 168.0 
244.622498 196.0 
245.188736 676.0 
246.196564 224.0 
250.11882 204.0 
251.137985 208.0 
252.10022 312.0 
252.142838 368.0 
254.113037 204.0 
255.125732 212.0 
257.648682 184.0 
262.132416 188.0 
264.861298 180.0 
265.13266 388.0 
267.174866 152.0 
268.112244 200.0 
269.130127 232.0 
270.109589 192.0 
271.111053 152.0 
272.132782 176.0 
273.121948 1056.0 
273.919067 156.0 
274.122986 596.0 
275.138214 188.0 
278.076935 184.0 
279.501984 148.0 
281.100708 144.0 
283.106079 204.0 
284.117523 176.0 
284.16449 232.0 
284.20166 856.0 
285.137878 208.0 
285.189941 168.0 
287.140259 240.0 
288.232544 776.0 
288.733673 184.0 
289.23291 196.0 
290.843597 180.0 
292.420044 172.0 
293.117859 188.0 
294.597992 168.0 
295.108276 444.0 
297.113159 204.0 
300.124786 144.0 
300.300598 196.0 
301.15274 192.0 
305.164001 200.0 
308.240509 160.0 
308.701752 148.0 
309.156311 148.0 
310.205109 440.0 
311.128632 180.0 
312.186035 148.0 
316.223541 328.0 
317.231384 248.0 
319.213318 196.0 
320.116791 196.0 
321.12851 292.0 
322.255615 152.0 
324.829041 148.0 
326.1427 220.0 
327.124298 148.0 
327.217865 148.0 
327.585052 200.0 
328.128998 172.0 
330.323761 204.0 
332.268341 172.0 
332.369873 192.0 
335.144592 436.0 
336.152679 172.0 
336.499298 228.0 
337.18631 388.0 
337.898499 188.0 
338.209961 232.0 
339.214325 316.0 
342.154022 244.0 
344.164093 752.0 
345.163513 204.0 
345.196777 188.0 
348.152405 1368.0 
349.1539 496.0 
349.226868 160.0 
349.449493 196.0 
350.156464 212.0 
351.240662 148.0 
351.990479 168.0 
354.027679 164.0 
356.218536 2224.0 
356.307281 212.0 
357.226471 584.0 
358.21756 168.0 
360.786377 152.0 
360.952667 232.0 
364.161224 172.0 
364.423248 200.0 
370.138092 1284.0 
370.247833 216.0 
370.34906 144.0 
371.137756 448.0 
371.176514 148.0 
371.966522 220.0 
373.179474 204.0 
373.77594 144.0 
374.203003 224.0 
377.833221 148.0 
378.192932 176.0 
380.191956 204.0 
380.815674 224.0 
382.643677 144.0 
383.204285 152.0 
385.221405 184.0 
385.271149 224.0 
386.165924 156.0 
386.216766 148.0 
386.940399 228.0 
393.018219 152.0 
393.069092 196.0 
397.222412 152.0 
400.27124 224.0 
400.714935 208.0 
401.18103 176.0 
401.259003 256.0 
401.651367 176.0 
402.401306 152.0 
403.229126 228.0 
404.427246 172.0 
405.540253 196.0 
409.262726 208.0 
413.207245 208.0 
413.237823 392.0 
414.242004 488.0 
415.099152 156.0 
424.182312 208.0 
425.179535 204.0 
425.548828 144.0 
426.194397 280.0 
427.270172 272.0 
428.28653 156.0 
429.213043 576.0 
429.263489 184.0 
430.223083 208.0 
435.270233 396.0 
436.959747 224.0 
437.113617 188.0 
437.196808 148.0 
437.43396 144.0 
438.209259 256.0 
439.206024 500.0 
440.21579 172.0 
441.048981 148.0 
441.217377 316.0 
441.248535 252.0 
441.28299 148.0 
441.496155 260.0 
442.144318 152.0 
442.537628 192.0 
443.230682 260.0 
444.252045 252.0 
446.989258 260.0 
447.039734 160.0 
450.263428 164.0 
451.522339 180.0 
451.979034 228.0 
455.194977 148.0 
456.233643 192.0 
457.283203 1500.0 
458.288483 552.0 
459.249084 148.0 
459.288239 400.0 
459.854706 192.0 
460.243011 172.0 
461.274109 240.0 
462.619141 196.0 
463.329742 144.0 
464.345215 212.0 
465.220184 204.0 
466.007874 180.0 
467.289215 164.0 
467.34671 180.0 
469.320892 1088.0 
469.529816 156.0 
470.321991 612.0 
472.656097 204.0 
473.049774 156.0 
473.86795 160.0 
474.851562 180.0 
481.045074 144.0 
482.332733 180.0 
483.259888 144.0 
485.306091 808.0 
486.317719 496.0 
486.672882 148.0 
487.164551 180.0 
487.34021 220.0 
488.46521 332.0 
489.459412 144.0 
489.823181 168.0 
491.314209 296.0 
491.345062 164.0 
492.34021 344.0 
493.337097 284.0 
494.251099 156.0 
501.299713 176.0 
502.699371 200.0 
503.257111 176.0 
503.649933 216.0 
504.24472 528.0 
505.032104 156.0 
505.242889 284.0 
507.192261 164.0 
509.336212 188.0 
510.702057 208.0 
511.237213 180.0 
512.344421 316.0 
512.737366 180.0 
512.853394 156.0 
512.993103 200.0 
513.258972 232.0 
513.308472 6240.0 
514.312866 1872.0 
514.526306 156.0 
515.32135 812.0 
516.120544 144.0 
516.24823 564.0 
517.011292 168.0 
517.246399 424.0 
517.300842 144.0 
517.436584 204.0 
519.230286 176.0 
521.072449 196.0 
524.256226 164.0 
526.267029 148.0 
526.340088 156.0 
526.691589 176.0 
527.518311 144.0 
528.309631 164.0 
529.759705 160.0 
530.02533 208.0 
530.265137 296.0 
530.671326 156.0 
530.791748 276.0 
531.148071 152.0 
531.26123 364.0 
531.31012 200.0 
532.272461 428.0 
532.331665 208.0 
533.277649 224.0 
533.617676 232.0 
533.870483 180.0 
535.31488 152.0 
535.53125 164.0 
537.715759 148.0 
538.629578 188.0 
539.863098 168.0 
541.056335 172.0 
542.324646 272.0 
543.329224 204.0 
545.364014 160.0 
548.103943 168.0 
548.746887 188.0 
550.990845 164.0 
551.345825 156.0 
553.330505 184.0 
553.398499 148.0 
554.325562 220.0 
556.562073 148.0 
556.707581 204.0 
557.783081 188.0 
557.971008 200.0 
558.300049 352.0 
559.508789 140.0 
562.283997 140.0 
562.595398 168.0 
563.88916 164.0 
565.84198 168.0 
566.362671 360.0 
567.371582 180.0 
567.964111 168.0 
570.348938 148.0 
572.30658 280.0 
573.310364 140.0 
574.659485 160.0 
575.36554 144.0 
575.452759 148.0 
575.900146 152.0 
576.525574 184.0 
576.645203 204.0 
577.118225 152.0 
579.065125 196.0 
579.309265 220.0 
581.135132 148.0 
581.231018 148.0 
581.777588 160.0 
582.219543 140.0 
582.404968 176.0 
585.335693 768.0 
585.82428 432.0 
585.96991 148.0 
586.186646 260.0 
586.333313 180.0 
586.414429 176.0 
586.449829 236.0 
586.506653 232.0 
586.591675 200.0 
586.735901 208.0 
586.842285 224.0 
587.12146 152.0 
587.23761 232.0 
587.338013 212.0 
587.646606 156.0 
587.683838 220.0 
587.721985 172.0 
587.782104 144.0 
587.846619 228.0 
587.992004 188.0 
588.104675 156.0 
588.180908 364.0 
588.220825 148.0 
588.342773 103324.0 
588.488831 232.0 
588.544556 164.0 
588.633301 268.0 
588.793152 188.0 
588.877625 192.0 
588.914734 164.0 
588.979431 172.0 
589.0578 288.0 
589.14917 200.0 
589.343994 37428.0 
589.482727 164.0 
589.587769 148.0 
589.705994 152.0 
589.851196 260.0 
590.282593 292.0 
590.348633 8684.0 
590.458679 240.0 
591.291809 176.0 
591.353699 2056.0 
591.437927 236.0 
591.849609 256.0 
591.889099 220.0 
591.922302 168.0 
592.150452 168.0 
592.267151 160.0 
592.415466 156.0 
592.519531 168.0 
592.94989 140.0 
593.351685 268.0 
593.461365 152.0 
602.370483 152.0 
604.304993 556.0 
607.096497 140.0 
608.371704 144.0 
609.399353 144.0 
611.324402 140.0 
612.114685 144.0 
613.820862 144.0 
615.845398 160.0 
618.28479 164.0 
623.09259 148.0 
623.32605 152.0 
624.881714 140.0 
769.818604 148.0 
791.866333 152.0 
814.003967 164.0 
823.482178 168.0 
888.410339 152.0 
921.378418 140.0 
930.974976 156.0 
939.072083 152.0 
941.835876 152.0 
1066.820435 144.0 
1333.981689 192.0 
1546.941895 168.0 
1611.108643 172.0 
1615.0 256.0 
1626.926758 284.0 
1695.154907 204.0 
1726.895508 144.0 
1735.346924 236.0 
1759.689941 176.0 
1772.649536 224.0 
1785.749023 220.0 
1827.241577 196.0 
1840.122803 156.0 
1951.694458 188.0 
1960.643311 232.0 
1969.400757 244.0 
1986.025391 220.0 
END IONS

