BEGIN IONS
PEPMASS=1184.48
CHARGE=1+
MSLEVEL=2
SOURCE_INSTRUMENT=LC-ESI-qTof
FILENAME=f.RReher/Culebra/pure_compounds/1182_Br_KurahamideB/2286_crude_3.66min_1184.4795_Br81_MS2_2M+H_KurahamideB.mgf;
SEQ=*..*
IONMODE=Positive
ORGANISM=GNPS-LIBRARY
NAME=Kurahamide B M+H
PI=Gerwick
DATACOLLECTOR=Reher
SMILES=CCCC(N[C@H](C(N[C@H](C(N[C@H]1[C@@H](C)OC([C@H](C(C)C)NC([C@H](CC2=CC(Br)=C(O)C=C2)N(C)C([C@H](CC3=CC=CC=C3)N4C(O)CC[C@H](NC(/C(NC1=O)=C\C)=O)C4=O)=O)=O)=O)=O)[C@H](OC([C@@H](NC(CCC)=O)C)=O)C)=O)C)=O
INCHI=
INCHIAUX=
PUBMED=
SUBMITUSER=RReher
LIBRARYQUALITY=3
SPECTRUMID=CCMSLIB00005720234
SCANS=1
55.685226 66.0 
74.028679 132.0 
97.049561 69.0 
101.043663 65.0 
110.034134 266.0 
114.067032 253.0 
115.062935 64.0 
120.056015 3578.0 
121.059479 219.0 
127.062332 277.0 
139.064667 399.0 
140.0504 72.0 
142.064011 2467.0 
143.066544 95.0 
149.067993 75.0 
150.074966 81.0 
153.042511 69.0 
155.062653 147.0 
157.076355 72.0 
158.075134 1311.0 
159.080185 219.0 
166.067154 72.0 
167.061417 1626.0 
168.062881 246.0 
168.084473 143.0 
170.076523 385.0 
173.074478 91.0 
179.062744 673.0 
181.072525 94.0 
181.111313 71.0 
185.075363 141.0 
187.104736 4741.0 
188.108231 847.0 
196.087585 156.0 
197.110947 4571.0 
198.114075 692.0 
199.091522 102.0 
204.099289 88.0 
205.080109 154.0 
209.115448 81.0 
214.081924 79.0 
215.006516 90.0 
215.041763 104.0 
215.103897 13995.0 
215.120621 16777.0 
216.105911 2491.0 
217.12767 342.0 
220.090988 66.0 
222.105118 131.0 
223.119293 75.0 
224.089218 139.0 
225.107742 3110.0 
226.070312 313.0 
226.111862 727.0 
227.114365 86.0 
227.676819 70.0 
227.986633 9520.0 
228.989288 1062.0 
229.985138 8357.0 
230.033218 95.0 
230.060837 128.0 
230.987427 794.0 
232.092545 149.0 
234.065033 71.0 
238.09552 70.0 
241.08197 160.0 
241.138779 71.0 
242.101471 81.0 
242.134338 181.0 
243.098648 32543.0 
243.407227 67.0 
243.432877 66.0 
244.102829 4751.0 
245.106186 550.0 
246.109528 117.0 
250.105545 2661.0 
251.110916 394.0 
253.115814 106.0 
255.985153 133.0 
260.088196 91.0 
262.109161 74.0 
266.137604 108.0 
268.11618 1505.0 
268.158081 85.0 
269.117004 127.0 
269.145081 117.0 
270.149719 96.0 
280.15683 299.0 
281.118591 153.0 
282.13269 127.0 
284.143127 106.0 
285.98764 94.0 
286.158844 103.0 
296.12793 71.0 
297.145935 78.0 
298.143524 2792.0 
299.148712 613.0 
308.15033 5991.0 
309.153687 1103.0 
314.1539 142.0 
321.145752 390.0 
326.001282 84.0 
326.02536 103.0 
326.140656 6172.0 
327.058746 105.0 
327.145691 1201.0 
328.147583 232.0 
329.057831 117.0 
334.160248 73.0 
341.021271 91.0 
342.027496 75.0 
342.169617 78.0 
344.178223 74.0 
347.157288 65.0 
355.053558 106.0 
357.052094 103.0 
363.199524 127.0 
365.173676 582.0 
366.180786 81.0 
373.068726 2540.0 
373.17868 269.0 
374.071198 485.0 
374.190491 104.0 
375.065796 1521.0 
376.072876 279.0 
378.172546 73.0 
380.199097 69.0 
381.183167 71.0 
382.167938 134.0 
382.212646 77.0 
383.187317 332.0 
384.206207 21484.0 
384.299744 71.0 
385.208771 4605.0 
386.032104 943.0 
386.212799 614.0 
387.037781 304.0 
387.189484 70.0 
387.22113 86.0 
388.03067 1240.0 
389.032593 119.0 
390.101288 74.0 
390.210175 72.0 
391.190887 16152.0 
392.194031 3673.0 
393.158936 115.0 
393.196411 590.0 
395.147125 70.0 
401.08371 262.0 
403.06781 119.0 
404.158569 79.0 
408.219391 71.0 
408.252014 72.0 
408.535614 73.0 
409.202576 10214.0 
410.101959 147.0 
410.203735 2587.0 
411.093475 64.0 
411.208344 237.0 
412.100403 183.0 
412.205261 84.0 
413.072937 88.0 
415.069794 85.0 
417.207886 105.0 
419.190186 121.0 
420.194122 64.0 
421.193146 90.0 
423.069427 84.0 
425.086334 100.0 
425.236237 199.0 
427.073975 176.0 
427.209167 123.0 
428.113678 355.0 
429.076355 308.0 
429.121063 94.0 
430.108002 412.0 
431.085724 179.0 
436.185455 110.0 
436.235931 254.0 
437.249725 67.0 
439.212067 120.0 
453.074615 171.0 
455.074677 79.0 
464.225464 73.0 
465.22641 70.0 
467.245941 555.0 
468.248596 260.0 
470.10434 175.0 
472.096649 138.0 
475.198761 101.0 
480.246521 316.0 
481.250092 134.0 
485.26004 243.0 
486.257843 95.0 
488.719238 102.0 
492.223816 306.0 
493.222015 256.0 
496.704895 116.0 
497.08551 67.0 
497.223877 152.0 
497.732819 67.0 
497.984528 103.0 
498.099396 39768.0 
498.247437 71.0 
498.283356 65.0 
499.102509 10565.0 
499.215088 84.0 
499.736389 84.0 
499.993469 148.0 
500.097534 35650.0 
500.984192 83.0 
501.101227 10230.0 
502.040131 81.0 
502.104919 1466.0 
503.100952 128.0 
503.26944 96.0 
505.2146 108.0 
505.713318 88.0 
506.737244 90.0 
508.28656 145.0 
513.221497 71.0 
513.747864 73.0 
514.23291 84.0 
515.223816 112.0 
515.730774 96.0 
520.210022 163.0 
521.146179 181.0 
523.127075 90.0 
524.267639 325.0 
525.267395 82.0 
527.282471 74.0 
531.160706 229.0 
532.172302 164.0 
532.271301 315.0 
532.674133 160.0 
533.282959 149.0 
537.199585 81.0 
539.148987 232.0 
540.163025 124.0 
541.149109 234.0 
550.175415 85.0 
550.286011 17437.0 
551.28894 5319.0 
552.28949 928.0 
553.143005 82.0 
553.296875 80.0 
555.138855 90.0 
556.14325 64.0 
558.159668 66.0 
560.179321 68.0 
567.133057 68.0 
568.293396 626.0 
569.138184 70.0 
569.297363 163.0 
570.147461 89.0 
570.302124 77.0 
580.77948 83.0 
581.139221 5946.0 
581.281006 205.0 
582.143066 1806.0 
583.030334 77.0 
583.137268 6251.0 
584.141174 1734.0 
585.145813 231.0 
587.309021 108.0 
589.273132 82.0 
589.766663 146.0 
590.76062 68.0 
591.263977 103.0 
594.719238 136.0 
594.780334 85.0 
595.221558 83.0 
595.717957 89.0 
597.160278 193.0 
597.768433 221.0 
598.281433 176.0 
598.779785 190.0 
599.164001 230.0 
599.281311 243.0 
599.780334 95.0 
600.180725 77.0 
605.307312 65.0 
605.775146 188.0 
606.276123 247.0 
607.287354 137.0 
607.773071 151.0 
610.717529 243.0 
611.219788 87.0 
611.712036 219.0 
612.216736 214.0 
612.71344 126.0 
615.181885 538.0 
615.291626 92.0 
616.189819 201.0 
617.180542 409.0 
618.180176 210.0 
620.339233 85.0 
633.303894 908.0 
634.305237 402.0 
635.310181 84.0 
637.158997 83.0 
639.153503 93.0 
641.194946 64.0 
651.305054 242.0 
652.251038 85.0 
652.315308 117.0 
653.209534 97.0 
664.209045 73.0 
666.181702 69.0 
667.365234 2923.0 
668.369324 881.0 
669.377686 240.0 
670.373596 123.0 
680.228699 454.0 
681.227966 216.0 
682.225403 562.0 
683.230225 135.0 
684.187378 117.0 
690.358154 87.0 
698.173584 78.0 
698.220703 272.0 
699.244446 188.0 
700.211182 245.0 
736.233337 150.0 
737.249023 86.0 
738.237488 84.0 
745.262512 80.0 
747.277893 76.0 
749.224548 74.0 
750.215454 86.0 
750.381165 68.0 
755.252625 64.0 
763.146606 67.0 
763.256042 798.0 
764.250183 322.0 
765.248535 743.0 
766.256592 212.0 
770.523682 66.0 
779.437256 240.0 
780.432556 68.0 
781.262207 1515.0 
782.26123 516.0 
782.445801 82.0 
783.260071 1492.0 
784.26239 663.0 
785.264709 194.0 
792.395935 492.0 
793.401978 128.0 
810.41095 201.0 
811.308472 100.0 
811.417175 173.0 
812.399353 73.0 
839.322693 273.0 
840.335693 155.0 
841.313599 104.0 
842.325256 105.0 
843.421143 74.0 
847.275513 140.0 
849.269165 64.0 
851.288208 78.0 
852.349182 75.0 
855.530457 71.0 
864.300903 307.0 
865.289795 90.0 
866.291931 291.0 
867.306458 74.0 
878.377197 85.0 
882.299622 70.0 
883.315308 145.0 
884.311523 73.0 
888.286377 106.0 
889.285034 66.0 
890.306091 272.0 
891.306885 103.0 
894.271667 86.0 
906.306824 187.0 
908.311401 84.0 
909.32666 79.0 
909.478516 79.0 
910.319641 67.0 
919.495972 112.0 
922.362244 2106.0 
923.364014 1049.0 
924.363159 2305.0 
925.363647 1164.0 
926.367188 290.0 
927.329773 74.0 
939.391785 73.0 
940.383301 68.0 
964.461792 82.0 
969.514648 74.0 
975.465393 71.0 
977.387878 78.0 
977.473145 96.0 
979.374329 89.0 
979.496399 145.0 
986.399292 70.0 
987.372864 111.0 
995.485291 680.0 
996.491821 389.0 
997.49469 169.0 
998.508606 119.0 
1005.381165 2169.0 
1006.288879 64.0 
1006.383728 1396.0 
1007.378967 3077.0 
1008.371277 1293.0 
1009.390076 377.0 
1010.389404 95.0 
1023.388184 1457.0 
1023.52771 368.0 
1024.399658 866.0 
1024.525146 343.0 
1025.392212 1378.0 
1025.537842 165.0 
1026.390015 917.0 
1027.393555 272.0 
1028.377686 78.0 
1031.37793 107.0 
1047.384033 110.0 
1049.396851 109.0 
1050.383667 70.0 
1063.541504 64.0 
1065.409424 451.0 
1066.393188 140.0 
1067.4021 352.0 
1068.381714 125.0 
1069.375122 119.0 
1094.406372 175.0 
1095.423096 182.0 
1096.413696 157.0 
1097.413696 132.0 
1105.624756 96.0 
1122.615234 176.0 
1128.565063 96.0 
1136.478271 272.0 
1137.480591 130.0 
1138.467896 304.0 
1139.439575 65.0 
1139.517334 71.0 
1139.600464 86.0 
1140.48645 73.0 
1144.59436 240.0 
1145.587158 101.0 
1146.586426 95.0 
1148.463257 96.0 
1148.569946 220.0 
1149.563599 95.0 
1154.583374 240.0 
1160.56604 87.0 
1162.585327 81.0 
1163.590942 133.0 
1164.036621 93.0 
1164.103271 66.0 
1164.277954 96.0 
1164.46875 14323.0 
1165.262817 78.0 
1165.474609 8539.0 
1165.771606 68.0 
1166.052002 90.0 
1166.207031 82.0 
1166.304199 139.0 
1166.470825 14433.0 
1166.711792 69.0 
1167.470215 9282.0 
1167.65564 88.0 
1167.769287 77.0 
1168.474731 3065.0 
1168.647095 92.0 
1169.475952 830.0 
1170.050659 66.0 
1170.47876 183.0 
1170.597412 92.0 
1179.593506 94.0 
1180.472534 135.0 
1180.598022 5915.0 
1181.023315 113.0 
1181.341553 99.0 
1181.600952 8541.0 
1182.394775 85.0 
1182.513672 235.0 
1182.600952 3813.0 
1183.481812 94.0 
1183.599487 1004.0 
1184.599365 277.0 
END IONS

