BEGIN IONS
PEPMASS=513.2
CHARGE=0+
MSLEVEL=2
SOURCE_INSTRUMENT=LC-ESI-Ion Trap
FILENAME=20130604_Ger_Jenia_Jamaicamide_C_MNa513.2-qb.1.1..mgf
SEQ=*..*
IONMODE=Positive
ORGANISM=GNPS-LIBRARY
NAME=Jamaicamide C M+Na
PI=Gerwick
DATACOLLECTOR=Jenia
SMILES=CO\C(CCNC(=O)CC\C=C\C(C)CC\C(CCCC=C)=C\Cl)=C\C(=O)N1C(C)C=CC1=O
INCHI=InChI=1S/C27H39ClN2O4/c1-5-6-7-11-23(20-28)15-13-21(2)10-8-9-12-25(31)29-18-17-24(34-4)19-27(33)30-22(3)14-16-26(30)32/h5,8,10,14,16,19-22H,1,6-7,9,11-13,15,17-18H2,2-4H3,(H,29,31)/b10-8+,23-20+,24-19+
INCHIAUX=PRVBXXHHHXSICY-GDKFLGFMSA-N
PUBMED=N/A
SUBMITUSER=mwang87
LIBRARYQUALITY=1
SPECTRUMID=CCMSLIB00000001784
SCANS=1
215.647308 46718.0 
230.02478 508807.0 
231.03183 93154.0 
258.505493 32704.0 
268.985107 427867.0 
270.215088 1419249.0 
270.850525 921946.0 
271.589111 130643.0 
272.663574 49477.0 
288.375 394996.0 
303.851562 75313.0 
306.317627 289990.0 
307.014893 65.0 
317.895386 106147.0 
319.255066 39370.0 
320.6427 166889.0 
323.83313 29834.0 
337.265198 247105.0 
342.623779 40126.0 
346.859985 122902.0 
348.016479 526617.0 
349.468628 903359.0 
350.339844 3.0 
352.362549 448597.0 
353.2005 2.0 
355.844971 308266.0 
357.093628 128133.0 
369.259888 872886.0 
370.136597 28.0 
385.018799 50906.0 
398.499939 35595.0 
402.297607 86686.0 
405.445312 204360.0 
415.253296 157221.0 
416.125061 17647120.0 
417.202942 3369472.0 
417.841675 56.0 
422.339111 180945.0 
423.365784 27000.0 
428.582031 313025.0 
458.832153 289902.0 
471.321899 48788.0 
477.313721 1043990.0 
478.359009 573491.0 
481.2453 3837539.0 
482.202759 1062323.0 
482.996094 51.0 
501.583923 154818.0 
513.188477 32900992.0 
514.19812 13388504.0 
515.16626 259513.0 
END IONS

