BEGIN IONS
PEPMASS=691.29
CHARGE=1+
MSLEVEL=2
SOURCE_INSTRUMENT=LC-ESI-Ion Trap
FILENAME=f.yuhaobing/microcolins Fedback/microcolin M.mzXML;
SEQ=*..*
IONMODE=Positive
ORGANISM=GNPS-LIBRARY
NAME=Microcolin M M+Na
PI=Gerwick
DATACOLLECTOR=Haobing Yu
SMILES=CN(C([C@H](C)C[C@H](C)CCCC)=O)[C@@H](CC(C)C)C(N[C@@H]([C@@H](C)OC(C)=O)C(N(C)[C@@H](C(C)C)C(N1[C@H](C(O)=O)C[C@H](O)C1)=O)=O)=O
INCHI=
INCHIAUX=
PUBMED=31468974
SUBMITUSER=yuhaobing
LIBRARYQUALITY=3
SPECTRUMID=CCMSLIB00005463470
SCANS=493
216.77536 12515.0 
225.258423 17347.0 
259.954224 47136.0 
277.354736 58839.0 
279.119202 8869.0 
282.061584 59782.0 
304.184204 110243.0 
305.825195 16603.0 
317.535645 31454.0 
343.973328 14057.0 
344.881592 66496.0 
347.167725 135724.0 
360.189941 7028.0 
365.358276 10970.0 
378.479248 50347.0 
387.036011 35520.0 
400.158081 8048.0 
409.973267 62288.0 
413.511902 18014.0 
419.341797 37899.0 
427.779297 33320.0 
429.089355 11548.0 
432.176208 89635.0 
432.809448 7.0 
434.26062 11957.0 
447.315002 27527.0 
448.858643 33383.0 
456.190735 788059.0 
456.933289 1.0 
458.426025 44600.0 
465.125854 110599.0 
465.866638 1.0 
472.532898 42959.0 
473.471924 30954.0 
478.408875 111345.0 
479.085632 7.0 
489.620056 17309.0 
494.591614 6308.0 
499.646423 34920.0 
500.301514 2278486.0 
560.255859 16151930.0 
561.133057 1305.0 
578.023438 114547.0 
578.800049 1.0 
631.275024 453386.0 
631.975586 28909.0 
647.418213 49830.0 
691.414795 13329.0 
END IONS

