BEGIN IONS
PEPMASS=1858.09
CHARGE=1+
MSLEVEL=2
SOURCE_INSTRUMENT=LC-ESI-qTof
FILENAME=f.RReher/2264/MaXis/2264_H_5_BE1_01_48197.mzXML;
SEQ=*..*
IONMODE=Positive
ORGANISM=GNPS-LIBRARY
NAME=Samholide A/B M+H
PI=Gerwick
DATACOLLECTOR=RReher
SMILES=C[C@H]1C[C@@H](OC)C[C@H](CC[C@@H]([C@H](O)[C@@H]([C@@H]2C[C@H](O)C[C@H](O)[C@H](C)[C@@H](OC)C[C@@H]3CC=C[C@@H](C[C@@H](O[C@@H]4[C@@H](OC([C@H](O)CO)=O)[C@H](OC)[C@@H](OC)CO4)C/C=C(C)/ccC(O[C@H]([C@H]([C@@H](O)[C@H](CC[C@H]5C[C@H](OC)C[C@H](C)O5)C)C)C[C@H](O)C[C@H](O)[C@H](C)[C@@H](OC)C[C@@H]6CC=C[C@@H](C[C@@H](O[C@@H]7[C@@H](OC([C@@H](O)CO)=O)[C@H](OC)[C@@H](OC)CO7)C/C=C(C)/C=C/C(O2)=O)O6)=O)O3)C)C)O1
INCHI=
INCHIAUX=
PUBMED=
SUBMITUSER=RReher
LIBRARYQUALITY=3
SPECTRUMID=CCMSLIB00005463855
SCANS=1618
68.99659 1237.0 
69.031601 67.0 
80.999275 117.0 
81.035919 180.0 
83.017303 144.0 
85.029099 218.0 
87.010658 194.0 
87.778923 95.0 
88.990265 143.0 
91.022118 61.0 
93.037117 432.0 
94.038185 67.0 
95.017113 916.0 
95.053299 245.0 
96.02034 62.0 
96.996239 21689.0 
97.032768 985.0 
97.999603 929.0 
99.003326 143.0 
99.048721 626.0 
100.013527 114.0 
101.028557 1291.0 
102.901382 62.0 
103.00901 652.0 
105.038254 261.0 
106.04232 66.0 
107.054909 579.0 
109.034576 209.0 
109.068962 327.0 
111.013977 3071.0 
111.050438 432.0 
112.017029 304.0 
113.024208 154.0 
113.064728 126.0 
115.009529 137.0 
115.044861 289.0 
116.989273 5428.0 
117.040138 137.0 
118.996277 66.0 
119.018631 102.0 
119.056114 249.0 
120.058418 119.0 
120.997711 103.0 
121.021736 360.0 
121.072052 570.0 
123.051369 2508.0 
123.089188 205.0 
124.057396 178.0 
125.067787 331.0 
126.071419 91.0 
127.011826 163.0 
127.049431 269.0 
129.027588 2411.0 
129.063568 896.0 
129.102249 62.0 
130.029831 121.0 
130.067169 171.0 
131.006577 5915.0 
131.059036 447.0 
132.010498 394.0 
133.014114 122.0 
133.040451 77.0 
133.074402 397.0 
135.053116 131.0 
135.090332 489.0 
136.089493 92.0 
137.034027 288.0 
137.06813 308.0 
137.104645 155.0 
138.074844 138.0 
139.012421 2312.0 
139.050415 143.0 
139.086151 690.0 
140.016083 87.0 
141.043167 103.0 
141.065033 172.0 
143.057755 524.0 
143.083298 105.0 
145.038391 77.0 
145.076355 768.0 
146.080811 94.0 
147.054245 207.0 
147.091705 766.0 
148.093826 117.0 
149.071289 398.0 
149.10759 773.0 
150.110718 77.0 
151.0504 219.0 
151.085953 667.0 
152.056137 61.0 
152.094101 78.0 
153.072403 226.0 
153.10202 242.0 
155.082397 3026.0 
156.08577 494.0 
156.915115 72.0 
157.025284 63316.0 
157.079193 334.0 
158.028915 4993.0 
159.029846 551.0 
159.057343 420.0 
159.09407 1141.0 
160.059647 66.0 
160.094894 176.0 
160.669022 62.0 
161.057663 3957.0 
161.10878 938.0 
162.058884 397.0 
162.111572 82.0 
163.087997 906.0 
163.126312 373.0 
164.091187 183.0 
164.126312 102.0 
165.066971 240.0 
165.104553 671.0 
166.106888 178.0 
167.012009 104.0 
167.057373 64.0 
167.084763 310.0 
167.119232 146.0 
169.080292 268.0 
169.097656 400.0 
170.095581 75.0 
171.043182 1694.0 
171.095276 837.0 
172.049667 129.0 
172.095505 208.0 
173.03537 92.0 
173.0728 249.0 
173.111801 1015.0 
175.017502 89.0 
175.05098 144.0 
175.09053 207.0 
175.124954 543.0 
177.069016 253.0 
177.106384 881.0 
177.140686 176.0 
178.108704 78.0 
179.050323 94.0 
179.082581 332.0 
179.121811 767.0 
180.05896 61.0 
180.088913 123.0 
181.077576 131.0 
181.099838 932.0 
182.106705 143.0 
183.044037 76.0 
183.116287 2192.0 
184.120636 165.0 
185.02327 95509.0 
185.073959 261.0 
185.114258 512.0 
186.026978 8241.0 
186.075546 88.0 
186.11496 66.0 
186.134857 65.0 
187.028992 1256.0 
187.090622 669.0 
187.126328 858.0 
187.164978 65.0 
187.278809 65.0 
188.096466 96.0 
188.128235 184.0 
189.070847 539.0 
189.107605 522.0 
189.14267 479.0 
190.11084 156.0 
191.087082 430.0 
191.121918 2110.0 
191.162659 106.0 
192.127045 262.0 
193.028763 285.0 
193.067047 120.0 
193.101547 367.0 
193.138046 302.0 
195.05748 62.0 
195.095886 412.0 
195.117722 703.0 
196.106995 165.0 
197.108841 299.0 
197.135513 472.0 
198.074524 77.0 
198.121841 91.0 
199.040283 16797.0 
199.089432 256.0 
199.125214 585.0 
200.044037 1687.0 
200.366196 67.0 
201.046219 256.0 
201.13765 871.0 
203.072739 2997.0 
203.124008 368.0 
203.159851 244.0 
204.075562 389.0 
204.124619 123.0 
204.166824 81.0 
205.011292 162.0 
205.075439 142.0 
205.102646 597.0 
205.139572 2352.0 
206.1082 72.0 
206.143784 375.0 
207.076324 217.0 
207.116623 396.0 
207.154922 295.0 
208.125473 100.0 
209.060226 96.0 
209.107071 166.0 
209.134399 639.0 
209.312378 79.0 
210.139114 86.0 
211.09581 143.0 
211.125168 369.0 
212.088516 66.0 
213.058777 133.0 
213.10968 421.0 
213.144028 939.0 
214.108719 106.0 
214.145584 174.0 
215.088348 530.0 
215.145218 1878.0 
216.092529 119.0 
216.151184 178.0 
217.053436 1353.0 
217.101761 196.0 
217.140839 468.0 
218.054184 131.0 
218.144775 62.0 
219.119705 173.0 
219.157379 633.0 
220.160217 107.0 
221.082779 484.0 
221.133972 376.0 
221.169678 307.0 
222.085495 65.0 
222.137787 156.0 
222.175049 95.0 
223.093689 180.0 
223.151535 16719.0 
224.15506 3123.0 
225.137863 482.0 
225.165543 564.0 
225.207108 69.0 
225.899673 68.0 
226.146896 119.0 
227.037476 899.0 
227.075623 65.0 
227.124542 160.0 
227.161026 442.0 
228.04213 99.0 
228.159271 165.0 
229.053436 126.0 
229.10524 222.0 
229.140793 543.0 
229.178055 660.0 
230.179352 113.0 
231.070709 1600.0 
231.119324 394.0 
231.155624 1804.0 
232.072327 175.0 
232.160339 284.0 
233.059525 62.0 
233.099213 828.0 
233.135056 393.0 
233.170944 617.0 
234.107285 130.0 
234.175797 76.0 
235.038162 142.0 
235.123123 228.0 
235.150009 280.0 
236.122803 112.0 
237.16716 1612.0 
238.174698 295.0 
239.085495 87.0 
239.128036 182.0 
239.165131 400.0 
240.165985 150.0 
241.110168 378.0 
241.179459 215.0 
242.1091 185.0 
243.072632 232.0 
243.122177 442.0 
243.159271 162.0 
243.190613 211.0 
244.167969 125.0 
245.049347 117.0 
245.138229 517.0 
245.174835 641.0 
246.141724 220.0 
246.179962 172.0 
247.120316 288.0 
247.152634 544.0 
247.19014 838.0 
247.297882 61.0 
247.797134 63.0 
248.11882 87.0 
248.148666 125.0 
248.191666 414.0 
248.478485 67.0 
248.548416 78.0 
248.61618 85.0 
248.789932 73.0 
248.834869 116.0 
248.880707 130.0 
248.996857 68.0 
249.081177 223524.0 
249.169144 11911.0 
249.304535 98.0 
249.368805 80.0 
249.40892 77.0 
249.49527 68.0 
249.556564 137.0 
249.599045 68.0 
249.648804 66.0 
250.08461 25392.0 
250.134277 85.0 
250.172897 2222.0 
251.086639 4506.0 
251.18161 1113.0 
251.554962 63.0 
251.601471 61.0 
251.90686 138.0 
251.971741 91.0 
252.038742 96.0 
252.08728 530.0 
252.168106 130.0 
252.565826 71.0 
253.054794 922.0 
253.145996 373.0 
253.199631 1240.0 
254.061066 107.0 
254.206055 253.0 
255.061127 73.0 
255.181961 1200.0 
256.164673 156.0 
257.136871 253.0 
257.1745 602.0 
258.180878 129.0 
259.118225 1097.0 
259.188324 515.0 
260.121521 135.0 
260.193909 125.0 
261.131744 279.0 
261.170807 765.0 
261.204132 151.0 
262.173645 92.0 
263.096405 95.0 
263.151123 709.0 
263.184937 1770.0 
263.947632 61.0 
264.148285 116.0 
264.186615 335.0 
265.083862 78.0 
265.130737 466.0 
265.170868 567.0 
265.201843 799.0 
266.09079 95.0 
266.144806 179.0 
266.204193 256.0 
267.079865 129.0 
267.123657 108.0 
267.144318 163.0 
267.182861 1096.0 
268.146606 69.0 
268.186646 205.0 
269.139557 258.0 
269.179657 237.0 
270.186249 136.0 
271.06604 66.0 
271.119751 64.0 
271.155853 527.0 
273.045868 217.0 
273.135193 1245.0 
273.170807 522.0 
273.192322 441.0 
274.138367 155.0 
274.197357 132.0 
275.100769 770.0 
275.186646 1854.0 
275.380249 63.0 
276.103912 137.0 
276.1922 413.0 
277.130646 1146.0 
277.171021 399.0 
277.203491 908.0 
277.307861 92.0 
277.378357 68.0 
278.134369 237.0 
278.164795 75.0 
278.202057 263.0 
279.219299 3266.0 
280.157135 124.0 
280.221954 509.0 
281.052856 1700.0 
281.136505 305.0 
281.197845 2517.0 
282.057373 321.0 
282.150299 109.0 
282.204041 407.0 
283.060974 80.0 
283.155243 238.0 
283.199066 213.0 
284.157654 110.0 
284.207581 67.0 
285.139648 91.0 
285.169891 186.0 
285.203827 106.0 
286.136902 67.0 
287.153442 580.0 
287.223236 884.0 
288.166351 81.0 
288.227142 206.0 
289.166748 399.0 
289.200317 444.0 
290.170471 85.0 
291.146576 6376.0 
291.214905 306.0 
291.560516 61.0 
292.150757 760.0 
292.230469 71.0 
293.199402 3100.0 
294.130798 82.0 
294.202576 580.0 
295.069855 1406.0 
295.141998 290.0 
295.216919 870.0 
296.071503 207.0 
296.219818 223.0 
297.006134 66.0 
297.140076 70.0 
297.175049 502.0 
297.230103 2656.0 
298.128479 118.0 
298.172607 84.0 
298.232117 813.0 
299.153137 1055.0 
299.210236 4355.0 
299.419159 65.0 
299.853943 67.0 
300.154205 297.0 
300.214935 748.0 
301.049805 64.0 
301.131317 209.0 
301.167389 378.0 
301.210052 161.0 
302.176971 158.0 
302.211578 108.0 
303.095917 156.0 
303.216766 437.0 
304.216339 145.0 
305.162262 321.0 
305.235931 2552.0 
305.907501 75.0 
306.166992 122.0 
306.237366 635.0 
307.103027 68.0 
307.214722 1872.0 
308.172607 72.0 
308.219696 317.0 
309.10376 154.0 
309.158417 4292.0 
309.230042 233.0 
310.160919 877.0 
310.233307 85.0 
311.116638 93.0 
311.174591 81.0 
311.210083 135.0 
312.190063 124.0 
313.079803 1230.0 
313.171448 259.0 
313.23468 390.0 
314.081787 132.0 
314.241394 251.0 
315.128143 90.0 
315.18512 818.0 
315.227997 703.0 
316.14917 98.0 
316.191528 175.0 
317.163483 2753.0 
317.207489 233.0 
317.232666 404.0 
318.171997 465.0 
318.213501 192.0 
319.14917 438.0 
319.251373 759.0 
320.146881 98.0 
320.254974 293.0 
321.123962 129.0 
321.178253 95.0 
321.229095 181.0 
322.224457 82.0 
323.06662 135.0 
323.14502 86.0 
323.191437 464.0 
323.22522 690.0 
323.264465 106.0 
324.190186 141.0 
324.229828 287.0 
325.16864 578.0 
325.228882 1425.0 
325.797394 61.0 
326.173431 102.0 
326.231415 234.0 
327.096741 2809.0 
327.186035 557.0 
327.240997 393.0 
328.101593 581.0 
328.16272 93.0 
328.2453 87.0 
329.128082 332.0 
329.204681 206.0 
329.237366 290.0 
330.23938 65.0 
331.178741 597.0 
331.252136 1862.0 
332.184326 115.0 
332.258392 597.0 
333.196503 679.0 
333.229309 725.0 
334.196503 335.0 
334.234985 90.0 
335.174225 712.0 
335.245514 1159.0 
336.180847 447.0 
336.230469 239.0 
337.112122 196.0 
337.202911 248.0 
337.264496 4853.0 
338.102417 63.0 
338.215912 95.0 
338.267456 958.0 
339.137939 169.0 
339.185974 148.0 
339.264099 307.0 
340.204498 83.0 
341.077271 2107.0 
341.200043 979.0 
341.23642 2075.0 
342.079529 270.0 
342.204071 348.0 
342.239197 575.0 
343.079346 75.0 
343.181122 644.0 
343.238922 698.0 
344.180664 195.0 
344.239258 160.0 
345.108673 16302.0 
345.197693 642.0 
345.270203 279.0 
346.112549 3156.0 
346.252838 65.0 
346.276123 136.0 
347.137817 783.0 
347.209625 171.0 
347.247833 519.0 
348.135681 137.0 
348.249542 97.0 
349.192657 2614.0 
349.261627 955.0 
350.195404 603.0 
350.265808 148.0 
351.067841 104.0 
351.181885 459.0 
351.224579 250.0 
351.256073 282.0 
352.18399 137.0 
352.262726 102.0 
353.19931 457.0 
353.233032 221.0 
355.138123 105.0 
355.214569 169.0 
355.27359 1285.0 
356.22345 74.0 
356.273529 177.0 
357.140015 122.0 
357.196198 540.0 
357.252319 201.0 
358.196228 174.0 
358.229126 90.0 
359.125031 143.0 
359.173126 222.0 
359.214996 924.0 
359.251038 4334.0 
360.130585 98.0 
360.253571 816.0 
361.194031 684.0 
361.23407 383.0 
361.266266 584.0 
362.19574 206.0 
362.267853 137.0 
363.222717 1427.0 
363.278381 1419.0 
364.216583 138.0 
364.287994 426.0 
364.797058 66.0 
365.152283 411.0 
365.225403 894.0 
366.227844 146.0 
366.27243 233.0 
366.5336 65.0 
367.21286 181.0 
367.272308 148.0 
368.85376 75.0 
369.072723 3794.0 
369.197662 730.0 
369.272369 69.0 
370.077576 853.0 
370.173187 62.0 
370.212006 61.0 
370.27243 87.0 
371.083649 144.0 
371.163269 216.0 
371.21228 847.0 
371.255096 159.0 
372.169373 79.0 
372.218781 146.0 
373.192993 250.0 
373.266205 2025.0 
374.169983 134.0 
374.265472 348.0 
375.209564 806.0 
375.259094 281.0 
376.175934 75.0 
376.210327 221.0 
376.242096 124.0 
376.268555 129.0 
377.158447 72.0 
377.260071 758.0 
378.262482 316.0 
379.170898 193.0 
379.219055 435.0 
379.273438 345.0 
380.220581 209.0 
381.235443 2700.0 
381.29483 1367.0 
382.186249 179.0 
382.237274 775.0 
382.296661 370.0 
383.0896 245.0 
383.167267 78.0 
383.217468 175.0 
383.241486 215.0 
383.28717 492.0 
384.218567 171.0 
384.291626 109.0 
385.170105 143.0 
385.231384 241.0 
385.289886 79.0 
386.154877 61.0 
386.231964 78.0 
387.121368 2406.0 
387.206543 664.0 
387.2883 146.0 
388.127625 593.0 
388.214569 235.0 
388.419403 72.0 
389.160156 88.0 
389.220276 379.0 
389.275177 157.0 
390.226501 89.0 
391.154572 510.0 
391.277466 4005.0 
392.161652 74.0 
392.282318 977.0 
393.219086 1200.0 
393.27356 651.0 
394.223938 331.0 
394.269745 222.0 
395.24469 135.0 
395.30719 486.0 
396.208557 63.0 
396.263489 87.0 
396.316071 346.0 
397.155457 88.0 
397.18042 138.0 
397.22876 977.0 
397.294098 155.0 
398.23407 417.0 
398.306488 79.0 
399.153931 74.0 
399.246552 5712.0 
400.250641 1800.0 
400.307495 74.0 
401.106323 251.0 
401.177246 160.0 
401.233093 455.0 
401.299316 239.0 
402.23703 232.0 
402.285522 110.0 
403.176025 94.0 
403.234955 196.0 
405.13382 1178.0 
405.223907 137.0 
405.28949 213.0 
406.137115 306.0 
406.209534 75.0 
407.133514 63.0 
407.236237 378.0 
407.284607 406.0 
409.165649 456.0 
409.29425 3002.0 
410.298889 963.0 
411.231842 856.0 
411.285522 1096.0 
412.233795 241.0 
412.285492 516.0 
413.206909 512.0 
413.26236 750.0 
414.207367 162.0 
414.274109 168.0 
415.120789 525.0 
415.166138 253.0 
415.244568 1378.0 
415.298492 161.0 
416.124634 63.0 
416.204346 66.0 
416.248199 643.0 
416.309937 93.0 
417.114746 78.0 
417.150116 168.0 
417.215637 98.0 
417.258392 1022.0 
417.990845 66.0 
418.259979 425.0 
419.237762 835.0 
420.243896 239.0 
420.290253 105.0 
421.195557 64.0 
421.246826 150.0 
422.257019 66.0 
423.141754 178.0 
423.308014 673.0 
425.299744 763.0 
426.302765 277.0 
427.204193 98.0 
427.242645 98.0 
427.313416 2914.0 
428.312805 635.0 
429.259949 337.0 
429.295807 636.0 
430.209595 71.0 
430.260132 298.0 
430.294434 275.0 
431.272339 1866.0 
432.280518 712.0 
433.128815 21288.0 
433.252502 959.0 
434.132446 4330.0 
434.253418 483.0 
434.310272 102.0 
435.136261 782.0 
435.199463 109.0 
435.274017 252.0 
435.329193 79.0 
436.143555 278.0 
436.280396 73.0 
437.154846 79.0 
437.243774 257.0 
437.298889 260.0 
438.264526 101.0 
438.306396 66.0 
439.210876 74.0 
439.302032 126.0 
440.263611 65.0 
440.330109 68.0 
441.327271 1369.0 
442.329773 495.0 
443.166656 680.0 
443.312042 2234.0 
444.163666 78.0 
444.314087 610.0 
445.170502 115.0 
445.25827 216.0 
445.323425 629.0 
446.240448 81.0 
446.33252 148.0 
447.137329 62.0 
447.187744 91.0 
447.270569 970.0 
448.274994 277.0 
449.216827 203.0 
449.285797 7319.0 
450.287292 1482.0 
451.132233 130.0 
451.288269 562.0 
452.254242 86.0 
452.304108 86.0 
453.237244 125.0 
453.288849 357.0 
454.21521 82.0 
454.298767 77.0 
455.196136 105.0 
455.275024 130.0 
455.312897 286.0 
456.205994 65.0 
456.271942 94.0 
457.188568 112.0 
457.256683 88.0 
457.322784 359.0 
458.333313 188.0 
459.294434 478.0 
459.341705 3841.0 
460.347443 873.0 
461.17569 1398.0 
461.32196 2074.0 
462.178925 321.0 
462.323029 590.0 
463.176819 167.0 
463.302002 115.0 
463.335846 183.0 
464.324371 97.0 
465.154572 226.0 
465.235565 122.0 
465.281128 2447.0 
466.15741 72.0 
466.286652 659.0 
467.161011 67.0 
467.29657 2649.0 
468.298676 858.0 
469.209869 91.0 
469.297791 312.0 
470.327454 156.0 
471.234314 103.0 
471.299988 114.0 
472.218201 80.0 
472.344116 70.0 
473.217346 136.0 
473.282379 98.0 
473.350861 202.0 
474.218109 62.0 
474.338837 151.0 
475.187927 222.0 
475.267151 88.0 
475.335571 869.0 
476.20163 100.0 
476.343231 331.0 
477.297791 864.0 
477.351624 1164.0 
478.305389 552.0 
478.356873 229.0 
479.187714 77.0 
479.314789 219.0 
480.32785 102.0 
481.202728 352.0 
481.240234 240.0 
481.293365 88.0 
481.338257 237.0 
482.210602 72.0 
483.21756 74.0 
483.33432 212.0 
484.329926 99.0 
485.276001 85.0 
485.323364 271.0 
487.243195 90.0 
487.33548 396.0 
488.320038 122.0 
489.206116 293.0 
489.351776 188.0 
491.260803 301.0 
491.368896 1790.0 
492.303314 67.0 
492.373657 517.0 
493.204803 294.0 
493.279602 106.0 
493.348755 903.0 
494.108398 70.0 
494.204865 145.0 
494.350922 220.0 
495.206665 73.0 
495.306702 1553.0 
495.369537 178.0 
496.309418 589.0 
497.182922 11186.0 
497.2547 143.0 
497.320312 241.0 
498.133148 83.0 
498.186279 2983.0 
498.33548 100.0 
499.195984 688.0 
499.274109 80.0 
499.348511 333.0 
500.190887 264.0 
500.364929 66.0 
501.210052 218.0 
501.275116 77.0 
501.335693 802.0 
502.335815 133.0 
503.25882 66.0 
503.337128 179.0 
505.287323 134.0 
505.338715 397.0 
506.344147 123.0 
507.221008 395.0 
507.355835 245.0 
508.229828 178.0 
508.372681 69.0 
509.218414 120.0 
509.277222 115.0 
509.331024 780.0 
509.378235 1337.0 
510.342133 382.0 
510.38147 471.0 
511.295349 157.0 
511.357849 375.0 
512.210144 67.0 
512.309692 90.0 
512.360291 70.0 
513.239868 206.0 
513.315308 1299.0 
514.321228 574.0 
515.227905 130.0 
515.31842 260.0 
517.208252 64.0 
517.367615 243.0 
518.356262 139.0 
519.34436 1379.0 
520.348022 244.0 
521.237427 116.0 
521.268372 135.0 
521.351807 82.0 
522.328064 81.0 
523.207153 147.0 
523.290588 244.0 
524.353882 111.0 
525.230652 1512.0 
525.31311 79.0 
525.379333 62.0 
526.23468 538.0 
526.305786 61.0 
527.23584 299.0 
527.345825 2361.0 
527.514282 61.0 
528.255493 122.0 
528.352966 928.0 
529.253906 106.0 
529.360291 279.0 
530.316589 64.0 
531.256348 192.0 
531.334778 234.0 
531.388 98.0 
532.345825 67.0 
532.385132 61.0 
533.230591 190.0 
533.361389 339.0 
534.347046 85.0 
535.236206 149.0 
535.29303 131.0 
535.334656 77.0 
535.374084 143.0 
536.381714 74.0 
537.276917 232.0 
537.354614 838.0 
538.240601 70.0 
538.309204 115.0 
538.358887 392.0 
539.251038 280.0 
539.357727 255.0 
540.255676 84.0 
541.313354 168.0 
541.352173 431.0 
542.356506 92.0 
543.25769 107.0 
543.337585 157.0 
543.384705 100.0 
544.328796 78.0 
545.208191 81.0 
545.359558 5118.0 
546.238098 66.0 
546.277832 116.0 
546.361938 2434.0 
547.25647 204.0 
547.368103 635.0 
548.272888 131.0 
548.357971 121.0 
548.393005 91.0 
549.278564 74.0 
549.38739 167.0 
550.40033 141.0 
551.371948 778.0 
552.373108 227.0 
553.27356 71.0 
553.334961 181.0 
553.385681 151.0 
554.348511 79.0 
555.207031 86.0 
555.314148 146.0 
555.371887 450.0 
556.374756 204.0 
557.195984 63.0 
557.261719 832.0 
557.359497 88.0 
558.264709 158.0 
559.259705 206.0 
559.375183 815.0 
560.249634 63.0 
560.38385 317.0 
561.254822 106.0 
561.306213 86.0 
561.360291 168.0 
562.380188 126.0 
563.015808 76.0 
563.372681 11130.0 
564.29071 93.0 
564.375 4526.0 
565.262024 944.0 
565.382812 1152.0 
566.272888 232.0 
566.327515 75.0 
566.387329 218.0 
567.282288 203.0 
567.396484 244.0 
568.2854 97.0 
568.420532 117.0 
569.289612 86.0 
569.381775 463.0 
570.390686 272.0 
571.291748 79.0 
571.381836 161.0 
573.33374 138.0 
573.391296 222.0 
575.276855 137.0 
575.345154 70.0 
576.363708 80.0 
577.243469 82.0 
577.291626 128.0 
577.389221 5510.0 
578.392273 1866.0 
579.284485 172.0 
579.376587 546.0 
580.299622 93.0 
580.397888 236.0 
581.291748 249.0 
581.384033 10266.0 
582.313354 78.0 
582.389587 3977.0 
583.282593 162.0 
583.330383 96.0 
583.390381 1317.0 
584.253052 61.0 
584.390869 176.0 
585.308777 182.0 
585.389526 139.0 
586.293701 63.0 
587.398621 197.0 
588.39917 175.0 
589.305481 143.0 
589.401245 69.0 
591.279297 349.0 
591.327454 130.0 
591.357056 119.0 
591.404968 210.0 
592.364014 69.0 
592.403381 62.0 
593.301147 111.0 
593.383484 279.0 
594.383972 116.0 
595.231018 138.0 
595.31842 180.0 
595.400208 15647.0 
595.51355 101.0 
596.306396 108.0 
596.402039 5708.0 
596.505737 62.0 
596.78186 78.0 
597.231812 64.0 
597.289917 504.0 
597.407104 1903.0 
598.305908 247.0 
598.407349 343.0 
599.279602 81.0 
599.395508 3462.0 
599.636047 77.0 
600.398193 1400.0 
601.345032 92.0 
601.396729 516.0 
602.423462 64.0 
603.252991 75.0 
603.372375 161.0 
604.365112 82.0 
605.297485 66.0 
605.331726 78.0 
605.399963 165.0 
606.30127 80.0 
607.340576 354.0 
607.3974 114.0 
608.323975 74.0 
608.401001 70.0 
609.287354 234.0 
609.356506 191.0 
609.416687 1210.0 
610.37915 113.0 
610.422363 481.0 
611.320984 232.0 
611.397888 840.0 
612.397705 614.0 
613.1651 68.0 
613.234436 64.0 
613.4104 29795.0 
613.522827 71.0 
613.847534 71.0 
614.413147 11598.0 
615.326538 343.0 
615.418518 2711.0 
616.414185 534.0 
617.224365 82.0 
617.316345 205.0 
617.791809 66.0 
618.042725 69.0 
618.300781 112.0 
619.305908 126.0 
619.353027 77.0 
620.268127 78.0 
621.316284 95.0 
621.367859 104.0 
622.260803 94.0 
623.299377 198.0 
623.369751 107.0 
624.307312 128.0 
625.291565 81.0 
625.336731 243.0 
625.408508 311.0 
626.411438 143.0 
627.325623 72.0 
627.427856 3513.0 
628.429321 1498.0 
629.270203 173.0 
629.332336 712.0 
629.420105 522.0 
629.839539 92.0 
630.285156 126.0 
630.336304 147.0 
630.414124 251.0 
630.653748 94.0 
631.170044 80.0 
631.421814 32836.0 
631.58667 100.0 
632.425354 13554.0 
632.569946 88.0 
633.328918 268.0 
633.427612 3221.0 
634.34137 121.0 
634.430481 599.0 
635.325623 123.0 
635.434204 127.0 
635.965027 62.0 
636.316528 100.0 
637.250305 72.0 
637.319397 138.0 
637.382935 61.0 
638.399292 77.0 
639.360657 180.0 
639.457458 88.0 
640.253174 70.0 
641.319397 1622.0 
641.386963 292.0 
642.319641 752.0 
642.387695 172.0 
643.322449 241.0 
643.414551 686.0 
644.427856 379.0 
644.960754 73.0 
645.219727 79.0 
645.300598 124.0 
645.437927 14094.0 
646.354431 78.0 
646.441895 5945.0 
646.996765 61.0 
647.271118 83.0 
647.344299 1385.0 
647.445984 1519.0 
648.346008 509.0 
648.449707 307.0 
649.312012 85.0 
649.364563 128.0 
649.431519 2344.0 
650.328613 108.0 
650.364136 97.0 
650.434204 709.0 
651.368408 173.0 
651.439087 261.0 
653.30835 61.0 
653.428162 142.0 
655.337463 112.0 
655.403381 232.0 
657.399536 220.0 
658.345703 90.0 
659.336731 190.0 
659.417297 68.0 
660.394714 165.0 
661.35907 114.0 
661.427612 409.0 
662.372437 142.0 
663.270325 108.0 
663.35907 448.0 
663.448547 26202.0 
664.193237 61.0 
664.245728 67.0 
664.35437 143.0 
664.450928 11116.0 
665.247803 68.0 
665.352112 274.0 
665.454346 2815.0 
666.376343 76.0 
666.46051 443.0 
667.328735 106.0 
667.377563 77.0 
667.441467 179.0 
668.373352 90.0 
668.448914 65.0 
669.413513 132.0 
670.409912 157.0 
671.404114 140.0 
673.258606 129.0 
673.412048 427.0 
674.419128 177.0 
675.413574 277.0 
676.393005 114.0 
677.366699 121.0 
677.406555 159.0 
677.464905 71.0 
678.415649 69.0 
678.473389 74.0 
679.375183 472.0 
680.37561 276.0 
680.474915 63.0 
680.961609 63.0 
681.459595 35654.0 
681.616272 63.0 
682.463013 15456.0 
682.585571 87.0 
683.271851 95.0 
683.463928 3119.0 
684.377136 86.0 
684.464417 303.0 
685.278564 61.0 
685.330627 112.0 
685.421021 104.0 
685.464478 115.0 
686.436523 64.0 
687.12677 85.0 
687.444336 182.0 
688.437256 127.0 
689.419067 87.0 
691.428101 494.0 
692.427734 225.0 
693.317505 91.0 
693.415222 190.0 
694.349731 68.0 
694.4104 82.0 
694.458801 82.0 
695.364441 405.0 
695.484131 61.0 
696.371216 61.0 
697.383301 2385.0 
698.385559 906.0 
699.37384 197.0 
699.468018 1942.0 
700.397522 109.0 
700.47229 778.0 
701.427185 201.0 
701.479004 340.0 
702.316772 87.0 
702.419067 96.0 
703.248657 65.0 
703.403809 70.0 
705.279663 70.0 
705.433899 261.0 
706.44751 214.0 
707.420349 187.0 
707.511902 130.0 
708.431396 67.0 
709.265686 69.0 
709.362305 101.0 
709.431274 578.0 
710.441467 376.0 
711.426086 165.0 
712.39093 107.0 
712.457642 64.0 
713.388977 366.0 
714.377502 207.0 
715.308594 71.0 
715.394836 1993.0 
716.397522 576.0 
716.471497 67.0 
717.408813 311.0 
719.312866 68.0 
719.446106 196.0 
719.531799 63.0 
720.431213 120.0 
721.444946 71.0 
722.481506 77.0 
723.286987 294.0 
723.445801 306.0 
724.29657 87.0 
724.462036 252.0 
725.400085 183.0 
725.441345 174.0 
726.394531 111.0 
727.396545 63.0 
727.453552 99.0 
728.413513 84.0 
728.46582 70.0 
729.288452 77.0 
729.31604 107.0 
729.401489 277.0 
729.49762 67.0 
730.386169 106.0 
730.503967 61.0 
733.440247 206.0 
734.457031 182.0 
735.4599 78.0 
736.539612 92.0 
737.299622 131.0 
737.444519 153.0 
738.476379 131.0 
739.424927 74.0 
739.462219 91.0 
740.406616 75.0 
740.517212 95.0 
741.467102 386.0 
742.465637 143.0 
743.416199 308.0 
744.412476 169.0 
745.409485 166.0 
747.411194 334.0 
747.474854 158.0 
748.443481 125.0 
749.29718 83.0 
749.427551 218.0 
750.331604 78.0 
751.462891 433.0 
752.455322 222.0 
753.448181 185.0 
755.308899 366.0 
755.474426 493.0 
756.317322 127.0 
756.492493 79.0 
757.334106 153.0 
757.441956 92.0 
757.497986 115.0 
759.447144 151.0 
761.438599 534.0 
762.438049 122.0 
763.468506 103.0 
764.503967 67.0 
765.429504 111.0 
766.456177 126.0 
767.442017 152.0 
768.425415 124.0 
769.349854 82.0 
769.483276 565.0 
770.484985 217.0 
771.495544 108.0 
773.321411 200.0 
773.484436 418.0 
773.575562 65.0 
774.491577 206.0 
775.348938 113.0 
775.441101 207.0 
775.487244 216.0 
776.434204 128.0 
776.515198 101.0 
778.52832 71.0 
779.4375 502.0 
780.441711 211.0 
781.444519 106.0 
781.489136 96.0 
782.473206 74.0 
783.344543 81.0 
783.463928 124.0 
784.353088 82.0 
784.470886 76.0 
785.480225 117.0 
785.584534 81.0 
786.486206 94.0 
787.344543 229.0 
787.488159 130.0 
788.346863 163.0 
788.509521 85.0 
789.522705 91.0 
790.528931 95.0 
791.432251 69.0 
791.503235 107.0 
793.35199 74.0 
793.452698 792.0 
794.412048 64.0 
794.463867 602.0 
795.359192 104.0 
795.451538 119.0 
796.341064 87.0 
796.518616 104.0 
797.451538 663.0 
797.522888 142.0 
797.595398 65.0 
798.454834 290.0 
798.502991 239.0 
799.476624 223.0 
800.510254 89.0 
801.361145 101.0 
801.481506 135.0 
802.483887 92.0 
803.502197 102.0 
804.526978 69.0 
805.5401 76.0 
806.496826 82.0 
807.462097 77.0 
807.535095 83.0 
809.470459 91.0 
811.469116 2611.0 
812.469116 1280.0 
813.361023 71.0 
813.49408 304.0 
814.370483 72.0 
814.474915 88.0 
815.451904 94.0 
815.541626 172.0 
816.540405 177.0 
817.513672 312.0 
818.531006 190.0 
819.500244 142.0 
820.512817 86.0 
821.496521 100.0 
822.48468 99.0 
823.497253 67.0 
823.542908 97.0 
825.486633 541.0 
826.482788 418.0 
826.736633 65.0 
826.810059 70.0 
827.400574 69.0 
827.495361 238.0 
829.479919 2377.0 
829.668213 67.0 
830.485535 1305.0 
831.366821 77.0 
831.484009 477.0 
832.497314 246.0 
833.500488 112.0 
834.392151 61.0 
835.526306 208.0 
836.486572 70.0 
837.385437 92.0 
838.400024 89.0 
839.382996 151.0 
839.485413 91.0 
840.378174 80.0 
841.592957 61.0 
843.493896 3031.0 
844.494019 1748.0 
845.382507 87.0 
845.493347 544.0 
846.504211 182.0 
847.488403 1176.0 
848.490051 579.0 
849.500916 130.0 
849.543274 112.0 
850.497864 129.0 
851.539917 78.0 
853.390625 108.0 
853.498169 64.0 
853.538574 71.0 
854.542175 68.0 
855.493835 65.0 
857.410339 77.0 
857.519897 169.0 
858.411072 67.0 
858.523254 65.0 
859.42041 81.0 
859.478821 119.0 
860.492004 140.0 
860.593994 72.0 
861.210632 61.0 
861.504761 9906.0 
862.509216 4884.0 
863.41156 99.0 
863.512024 1413.0 
864.517517 397.0 
865.376648 70.0 
866.107666 76.0 
867.53125 69.0 
867.590881 77.0 
868.585815 129.0 
869.593994 93.0 
871.553894 198.0 
872.425415 73.0 
872.560059 193.0 
873.49939 107.0 
873.601685 71.0 
875.517639 585.0 
876.465515 115.0 
876.528992 414.0 
877.430908 185.0 
877.527588 221.0 
878.444336 129.0 
878.548645 111.0 
878.639526 71.0 
879.352051 86.0 
879.515991 18601.0 
880.519531 9811.0 
881.523499 3052.0 
881.659363 63.0 
882.414062 79.0 
882.527466 598.0 
883.544922 128.0 
884.633423 62.0 
885.574158 242.0 
886.536865 77.0 
886.599304 99.0 
887.535522 61.0 
889.413025 121.0 
889.552856 263.0 
890.552795 271.0 
891.523193 205.0 
891.639221 64.0 
892.522827 99.0 
893.531921 3292.0 
893.624817 110.0 
894.534058 2059.0 
894.62616 68.0 
895.436462 157.0 
895.542358 384.0 
896.431763 116.0 
896.549805 144.0 
896.621521 82.0 
897.527405 662.0 
898.527771 405.0 
899.494568 91.0 
900.568848 96.0 
903.557983 138.0 
905.566345 76.0 
905.650085 68.0 
907.544189 164.0 
907.626099 67.0 
909.53186 129.0 
909.650757 65.0 
910.571899 86.0 
910.649963 115.0 
911.542969 11434.0 
912.547607 5538.0 
913.44812 95.0 
913.553833 1485.0 
914.450378 106.0 
914.551697 353.0 
915.549011 195.0 
916.524597 148.0 
917.631653 78.0 
917.678406 63.0 
919.632751 134.0 
921.569763 184.0 
922.579285 126.0 
923.596619 85.0 
925.655212 70.0 
927.470703 70.0 
927.594238 64.0 
928.434753 78.0 
928.595825 98.0 
928.674927 65.0 
929.424438 130.0 
929.554749 19341.0 
930.558472 11084.0 
931.561951 3146.0 
932.561035 921.0 
933.570679 167.0 
934.561035 71.0 
934.607849 80.0 
935.148804 62.0 
935.506775 62.0 
935.59845 132.0 
935.688904 62.0 
937.583374 118.0 
938.591797 88.0 
939.494995 76.0 
939.581787 370.0 
940.528259 72.0 
940.601074 187.0 
941.541382 69.0 
941.606079 113.0 
941.684204 105.0 
943.472473 119.0 
943.595154 107.0 
943.668701 70.0 
944.623779 118.0 
945.460632 137.0 
945.551697 101.0 
946.478271 62.0 
946.603638 63.0 
947.564697 901.0 
948.49231 63.0 
948.56897 489.0 
949.582397 114.0 
949.703247 106.0 
950.682495 97.0 
951.572998 134.0 
953.569031 67.0 
953.634766 72.0 
954.676453 64.0 
956.608887 69.0 
957.511841 62.0 
957.599609 295.0 
958.604492 121.0 
959.639832 110.0 
960.675293 117.0 
960.7276 65.0 
961.625732 175.0 
962.463562 91.0 
962.624634 75.0 
963.484985 204.0 
964.49353 108.0 
964.62616 82.0 
964.69696 81.0 
965.512146 134.0 
966.489868 73.0 
967.545654 116.0 
967.709717 134.0 
968.676758 119.0 
969.637024 87.0 
970.63623 126.0 
972.478821 65.0 
973.543335 75.0 
976.518311 73.0 
977.646423 138.0 
978.637634 174.0 
979.620178 123.0 
980.6297 101.0 
981.542664 112.0 
981.602722 123.0 
981.714844 190.0 
985.635437 73.0 
986.644165 76.0 
987.615234 89.0 
988.631409 76.0 
989.553284 86.0 
990.54895 69.0 
991.655884 61.0 
993.638184 135.0 
994.651733 197.0 
995.644104 376.0 
996.644775 70.0 
997.52655 65.0 
997.632019 177.0 
998.632446 100.0 
999.522278 96.0 
999.718445 109.0 
1000.726379 93.0 
1001.675842 61.0 
1004.70813 70.0 
1005.638855 196.0 
1007.541382 82.0 
1007.658142 71.0 
1009.521973 142.0 
1009.694214 89.0 
1011.639221 239.0 
1012.658386 206.0 
1013.658447 119.0 
1014.660583 109.0 
1015.592468 64.0 
1015.674805 67.0 
1017.583252 88.0 
1017.72052 100.0 
1018.59021 63.0 
1018.712036 88.0 
1019.654175 97.0 
1020.649902 179.0 
1021.583801 76.0 
1021.68866 114.0 
1022.663513 85.0 
1022.704407 94.0 
1023.669983 77.0 
1025.67041 284.0 
1026.677368 174.0 
1027.544189 192.0 
1027.683716 226.0 
1028.529297 95.0 
1028.684204 152.0 
1029.685669 375.0 
1030.65564 139.0 
1031.644409 211.0 
1035.686157 87.0 
1036.713989 144.0 
1037.609741 80.0 
1037.668823 168.0 
1038.662964 234.0 
1039.651367 85.0 
1039.70752 105.0 
1041.55542 271.0 
1041.666504 68.0 
1042.550537 95.0 
1042.677124 101.0 
1043.568115 75.0 
1043.692749 163.0 
1044.690918 263.0 
1045.52002 138.0 
1045.559082 142.0 
1045.692993 159.0 
1046.517578 62.0 
1046.599365 61.0 
1047.665405 83.0 
1048.679199 201.0 
1049.643066 62.0 
1053.69873 238.0 
1054.727295 126.0 
1055.551636 73.0 
1055.678345 300.0 
1056.675415 154.0 
1057.658081 125.0 
1059.559692 442.0 
1059.697876 82.0 
1060.577881 202.0 
1061.575928 183.0 
1061.710938 391.0 
1062.69812 229.0 
1063.628906 124.0 
1063.723145 178.0 
1064.531738 79.0 
1064.627441 66.0 
1064.678711 133.0 
1065.702881 66.0 
1071.708374 94.0 
1073.583496 307.0 
1073.664795 291.0 
1073.733643 172.0 
1074.576294 78.0 
1074.691528 187.0 
1075.618042 72.0 
1075.715576 318.0 
1077.573242 313.0 
1077.737183 141.0 
1078.56543 175.0 
1079.583496 91.0 
1079.723633 272.0 
1080.612549 61.0 
1080.713135 178.0 
1081.654907 94.0 
1082.691895 115.0 
1083.703491 77.0 
1085.620239 75.0 
1085.667847 86.0 
1086.722046 66.0 
1087.767334 64.0 
1091.588989 592.0 
1092.585449 538.0 
1093.540161 72.0 
1093.606445 131.0 
1093.726929 613.0 
1094.65332 125.0 
1094.732788 403.0 
1095.567383 162.0 
1095.731445 165.0 
1096.596069 98.0 
1098.645752 84.0 
1098.726685 131.0 
1099.672852 101.0 
1105.615845 67.0 
1109.602783 853.0 
1110.60144 798.0 
1111.609009 358.0 
1111.738892 963.0 
1112.650146 119.0 
1112.733521 529.0 
1113.740356 240.0 
1114.760742 84.0 
1115.658081 143.0 
1116.728516 78.0 
1119.639404 99.0 
1120.796265 62.0 
1123.616577 204.0 
1123.785767 64.0 
1124.62561 135.0 
1125.571655 63.0 
1125.637695 146.0 
1125.758301 63.0 
1127.606689 1135.0 
1128.61145 866.0 
1129.605957 238.0 
1129.742554 496.0 
1130.627686 125.0 
1130.753784 378.0 
1131.668091 99.0 
1131.764038 125.0 
1132.775635 115.0 
1133.646729 110.0 
1133.770386 95.0 
1134.646606 136.0 
1137.638916 77.0 
1138.659546 101.0 
1139.635498 74.0 
1139.766846 114.0 
1141.625854 456.0 
1142.63562 226.0 
1143.650757 185.0 
1143.731689 83.0 
1145.654053 104.0 
1147.749146 85.0 
1148.769043 162.0 
1151.689087 86.0 
1152.685181 76.0 
1154.816772 62.0 
1155.800659 103.0 
1157.794189 103.0 
1159.63623 1268.0 
1159.763062 75.0 
1160.640747 848.0 
1161.653076 278.0 
1162.632568 132.0 
1163.639282 75.0 
1169.670532 169.0 
1170.644775 67.0 
1171.551025 70.0 
1175.715942 73.0 
1175.787476 132.0 
1176.765625 79.0 
1177.647217 1386.0 
1178.647339 1279.0 
1178.785278 81.0 
1179.664062 386.0 
1180.667358 141.0 
1185.765503 69.0 
1187.678223 135.0 
1188.675293 155.0 
1189.693481 89.0 
1189.79834 156.0 
1190.776733 87.0 
1193.679199 81.0 
1193.782959 89.0 
1195.659912 66.0 
1195.808472 119.0 
1196.654053 78.0 
1198.725586 66.0 
1204.845459 70.0 
1205.771851 71.0 
1206.701538 91.0 
1207.808838 431.0 
1208.811401 288.0 
1209.717041 103.0 
1209.796265 135.0 
1210.702637 95.0 
1215.705933 82.0 
1216.780029 66.0 
1217.734009 103.0 
1218.773682 80.0 
1220.756958 62.0 
1221.828979 83.0 
1223.830688 88.0 
1225.679077 73.0 
1225.821289 422.0 
1226.822144 318.0 
1227.70874 62.0 
1227.84668 206.0 
1228.736206 110.0 
1229.693604 61.0 
1235.677979 67.0 
1236.71521 112.0 
1239.838501 310.0 
1240.844727 358.0 
1241.739014 76.0 
1241.840698 121.0 
1242.862549 109.0 
1243.724365 71.0 
1243.833008 288.0 
1244.833374 242.0 
1245.846802 161.0 
1247.81189 94.0 
1252.767944 78.0 
1255.725586 96.0 
1257.851318 954.0 
1258.847656 637.0 
1259.730225 192.0 
1259.849121 344.0 
1260.841797 73.0 
1261.766724 70.0 
1261.864258 159.0 
1262.812622 105.0 
1263.817749 102.0 
1265.811523 82.0 
1267.723633 81.0 
1268.768433 100.0 
1269.815796 70.0 
1271.728271 86.0 
1271.860474 61.0 
1272.862061 111.0 
1273.733765 82.0 
1273.872437 91.0 
1275.863403 1287.0 
1276.871338 800.0 
1277.756226 261.0 
1277.871826 556.0 
1278.762329 86.0 
1278.849365 93.0 
1279.769043 67.0 
1279.892456 101.0 
1281.758789 68.0 
1283.832642 62.0 
1286.717651 117.0 
1286.803711 73.0 
1287.754395 61.0 
1289.783447 94.0 
1289.880371 347.0 
1290.864136 302.0 
1291.825806 112.0 
1292.779053 135.0 
1293.874756 1106.0 
1294.873657 713.0 
1295.763428 69.0 
1295.87854 360.0 
1296.881592 185.0 
1297.804565 69.0 
1297.901245 70.0 
1301.82373 66.0 
1303.753906 115.0 
1304.787354 165.0 
1307.885742 1062.0 
1308.892578 856.0 
1309.764404 122.0 
1309.90686 250.0 
1310.804077 98.0 
1310.912354 84.0 
1311.754883 93.0 
1311.803101 159.0 
1311.886963 536.0 
1312.86731 186.0 
1312.911987 270.0 
1313.890137 208.0 
1314.88916 106.0 
1315.868042 64.0 
1317.80542 73.0 
1321.781494 185.0 
1322.76062 105.0 
1323.824829 96.0 
1324.807251 70.0 
1325.79541 98.0 
1325.896729 1573.0 
1326.668945 79.0 
1326.894287 1264.0 
1327.904907 693.0 
1328.794556 91.0 
1328.907837 302.0 
1329.800781 80.0 
1329.892944 70.0 
1330.792236 86.0 
1337.81543 78.0 
1341.817139 119.0 
1342.824463 130.0 
1343.905029 1658.0 
1344.910156 1294.0 
1345.827637 116.0 
1345.915283 463.0 
1346.903687 181.0 
1347.944702 120.0 
1353.841431 78.0 
1353.899536 78.0 
1355.893311 65.0 
1358.797119 87.0 
1359.849365 439.0 
1360.845459 376.0 
1361.804688 81.0 
1361.849731 128.0 
1361.919556 335.0 
1362.824463 90.0 
1362.919434 365.0 
1363.79895 66.0 
1363.931519 157.0 
1367.726929 65.0 
1375.74353 85.0 
1377.840698 277.0 
1378.85376 192.0 
1379.840942 175.0 
1380.862061 104.0 
1382.785522 68.0 
1397.77124 63.0 
1403.765991 68.0 
1405.780518 90.0 
1410.818237 94.0 
1414.959961 87.0 
1417.748779 75.0 
1418.782471 84.0 
1419.858521 86.0 
1435.753662 110.0 
1435.817383 97.0 
1436.720459 65.0 
1438.91272 67.0 
1452.921997 61.0 
1453.765015 202.0 
1454.778076 117.0 
1455.82959 67.0 
1455.89917 183.0 
1456.913574 129.0 
1458.789429 64.0 
1461.932861 81.0 
1465.825928 66.0 
1470.891235 61.0 
1473.911743 221.0 
1474.91272 186.0 
1475.893188 64.0 
1483.832397 123.0 
1487.922607 164.0 
1488.937256 158.0 
1491.894775 132.0 
1491.929565 168.0 
1492.932007 159.0 
1493.919556 144.0 
1505.935181 474.0 
1506.95752 484.0 
1507.844116 147.0 
1507.922241 191.0 
1508.804688 88.0 
1508.87439 93.0 
1508.982666 78.0 
1509.817627 100.0 
1509.892212 98.0 
1509.956299 89.0 
1510.884521 107.0 
1510.950684 95.0 
1511.861938 100.0 
1519.850342 95.0 
1520.85437 152.0 
1522.980347 70.0 
1523.946411 540.0 
1524.953491 557.0 
1525.859985 327.0 
1525.955566 248.0 
1526.848755 298.0 
1526.976196 178.0 
1527.846313 92.0 
1527.964111 61.0 
1528.031372 70.0 
1528.835938 68.0 
1529.865601 64.0 
1533.893066 72.0 
1535.888672 67.0 
1537.973633 167.0 
1538.983521 210.0 
1539.956787 62.0 
1541.973877 497.0 
1542.973877 367.0 
1543.856934 175.0 
1543.957153 321.0 
1544.869263 122.0 
1545.969604 90.0 
1549.891968 72.0 
1550.924072 77.0 
1551.875977 126.0 
1552.842041 148.0 
1553.878906 92.0 
1555.971924 386.0 
1556.994995 478.0 
1557.93335 125.0 
1558.005005 188.0 
1558.869751 65.0 
1559.99646 231.0 
1560.888306 64.0 
1560.973999 220.0 
1561.964478 181.0 
1567.88623 90.0 
1569.874268 330.0 
1570.88147 203.0 
1571.872314 223.0 
1572.867188 82.0 
1573.986694 902.0 
1575.000977 973.0 
1576.003906 507.0 
1577.001709 229.0 
1577.868164 89.0 
1578.880981 64.0 
1589.897705 277.0 
1590.916382 178.0 
1592.001343 1335.0 
1593.009277 1166.0 
1594.001221 655.0 
1595.00354 187.0 
1607.922363 565.0 
1608.919556 679.0 
1609.942017 271.0 
1610.009277 288.0 
1611.039185 257.0 
1611.937622 63.0 
1612.045654 111.0 
1612.986816 71.0 
1613.032104 87.0 
1621.053711 69.0 
1625.931641 407.0 
1626.933228 579.0 
1627.958252 228.0 
1628.981812 77.0 
1639.976318 70.0 
1643.958496 232.0 
1644.922729 243.0 
1645.97644 83.0 
1721.991699 88.0 
1722.073486 63.0 
1723.014282 122.0 
1724.029297 71.0 
1740.017822 170.0 
1740.997681 76.0 
1752.078125 72.0 
1753.997192 116.0 
1754.059082 196.0 
1755.033081 156.0 
1756.044434 114.0 
1757.046997 61.0 
1758.024414 148.0 
1772.048584 506.0 
1773.051147 506.0 
1774.058472 291.0 
1775.037842 241.0 
1775.792236 65.0 
1776.037964 68.0 
1790.063965 705.0 
1791.064087 433.0 
1792.05188 422.0 
1793.067749 342.0 
1794.089966 157.0 
1804.060791 462.0 
1805.078979 538.0 
1806.09729 233.0 
1808.069458 487.0 
1809.070923 688.0 
1810.057007 272.0 
1811.076904 100.0 
1813.164185 72.0 
1814.039673 108.0 
1815.0271 90.0 
1822.076538 2057.0 
1823.086548 1832.0 
1824.09082 1462.0 
1825.092163 348.0 
1826.081665 155.0 
1827.09021 77.0 
1839.9198 138.0 
1840.091431 7200.0 
1841.098267 6944.0 
1841.799072 94.0 
1841.876831 66.0 
1842.096802 3914.0 
1842.358521 65.0 
1843.10437 1625.0 
1844.093018 437.0 
1845.158569 165.0 
1858.104004 1352.0 
1859.106812 1569.0 
1860.122559 998.0 
1861.105835 501.0 
1862.02417 82.0 
1862.138062 147.0 
1926.278687 69.0 
END IONS

