BEGIN IONS
PEPMASS=811.6
CHARGE=0+
MSLEVEL=2
SOURCE_INSTRUMENT=LC-ESI-qTof
FILENAME=20130415_Ger_Jenia_Bastimolide_B_MNa811.6-qb.1.1..mgf
SEQ=*..*
IONMODE=Positive
ORGANISM=GNPS-LIBRARY
NAME=Bastimolide B M+Na
PI=Gerwick
DATACOLLECTOR=Jenia
SMILES=C/C/1=C/C(=O)O[C@@H](C[C@H](C[C@@H](CCC[C@H](CCC[C@H](C[C@H](CCCCC1)O)O)O)O)O)CCC[C@H](CCC[C@H](CCC[C@H](CCC[C@@H](C(C)(C)C)O)O)O)O
INCHI=InChI=1S/C44H84O11/c1-32-14-6-5-7-15-37(49)29-38(50)24-10-20-34(46)21-11-25-39(51)30-40(52)31-41(55-43(54)28-32)26-12-22-35(47)18-8-16-33(45)17-9-19-36(48)23-13-27-42(53)44(2,3)4/h28,33-42,45-53H,5-27,29-31H2,1-4H3/b32-28-/t33-,34+,35+,36-,37+,38-,39-,40+,41-,42+/m1/s1
INCHIAUX=N/A
PUBMED=N/A
SUBMITUSER=mwang87
LIBRARYQUALITY=1
SPECTRUMID=CCMSLIB00000001763
SCANS=1
291.046509 2691.0 
321.296875 1467.0 
351.21637 5026.0 
359.457092 2032.0 
361.303223 5713.0 
375.139893 2002.0 
375.753418 4545.0 
377.341187 48430.0 
378.234131 21921.0 
379.451721 29656.0 
382.428955 5124.0 
391.265869 9042.0 
393.521729 41653.0 
394.550049 20919.0 
395.437866 172453.0 
396.364746 31334.0 
397.279602 22141.0 
420.067993 9263.0 
421.346313 4141.0 
424.713623 2038.0 
437.886658 1307.0 
439.487061 306170.0 
440.477295 32119.0 
441.479858 14338.0 
442.36792 556.0 
443.111328 9622.0 
455.63916 1319.0 
461.105591 10881.0 
571.688721 2477.0 
593.597168 6848.0 
594.286377 6.0 
610.550537 7201.0 
611.2854 14229.0 
612.692017 10309.0 
732.033325 6692.0 
739.776245 13596.0 
749.927368 37514.0 
757.853271 26441.0 
767.863892 348505.0 
768.913574 79866.0 
769.856934 2006.0 
774.002075 3948.0 
775.824097 189745.0 
776.867798 34712.0 
777.7052 7114.0 
790.958496 3959.0 
793.686279 1514401.0 
794.726196 537734.0 
811.669067 1307017.0 
812.583252 884543.0 
813.428589 6.0 
END IONS

