BEGIN IONS
PEPMASS=972.539
CHARGE=1+
MSLEVEL=2
SOURCE_INSTRUMENT=LC-ESI-Orbitrap
FILENAME=f.RReher/Culebra/pure_compounds/955/SPE1-1-7_955.5074_MS2_M+NH4_QE.mgf;
SEQ=*..*
IONMODE=Positive
ORGANISM=GNPS-LIBRARY
NAME=Rivulariapeptolide 954 M+NH4
PI=Gerwick
DATACOLLECTOR=Raphael Reher
SMILES=CC(C)[C@H](NC([C@H](CC1=CC=C(O)C=C1)N(C)C([C@H](CC(C)C)N2[C@H](O)CC[C@H](NC(/C(NC3=O)=C\C)=O)C2=O)=O)=O)C(O[C@H](C)[C@@H]3NC([C@H]([C@@H](O)C)NC(C4CCCN4C(CCC)=O)=O)=O)=O
INCHI=
INCHIAUX=
PUBMED=
SUBMITUSER=RReher
LIBRARYQUALITY=3
SPECTRUMID=CCMSLIB00005723402
SCANS=1
86.090668 907.346802 
86.091431 8991.722656 
86.092186 10401.773438 
86.092941 16885.582031 
86.093704 23382.150391 
86.09446 58898.527344 
86.095215 184879.359375 
86.095978 363780.1875 
86.096733 548731.1875 
86.097488 526498.8125 
86.098244 331285.03125 
86.099007 149912.484375 
86.099762 35287.257812 
86.100517 7579.410645 
91.052528 3759.788818 
91.053352 7975.591797 
91.054176 11659.65918 
91.055 12233.333984 
91.055824 9298.174805 
91.056648 4956.186035 
91.057472 1750.00647 
101.948158 2497.04248 
101.949135 4573.87793 
101.950111 5868.95166 
101.951088 5498.760254 
101.952065 3677.987305 
107.046692 1958.782715 
107.047745 4653.585449 
107.04879 6827.476074 
107.049843 6897.640137 
107.050896 4788.849609 
107.051941 1962.772949 
112.10955 2178.577881 
112.11068 4154.251465 
112.111801 5102.118164 
112.11293 4173.146973 
112.114052 2029.345093 
119.046112 3518.813721 
119.04734 7370.786621 
119.048576 10283.392578 
119.049805 10083.607422 
119.051041 6931.42334 
119.052269 3079.443115 
121.062263 2931.855713 
121.06353 6653.505859 
121.064789 9444.908203 
121.066055 9480.612305 
121.067314 6976.541504 
121.068581 3767.125732 
124.106529 1240.747314 
124.107834 6027.453613 
124.109146 22841.986328 
124.110458 45557.226562 
124.111771 68704.28125 
124.113083 65099.214844 
124.114395 40781.0625 
124.115707 18151.5 
124.11702 4586.895996 
124.118332 1227.997314 
135.065155 3040.420166 
135.066635 5334.707031 
135.06813 6181.0 
135.069611 4958.737793 
135.071106 2613.75708 
136.072739 3734.189941 
136.074249 6989.518066 
136.07576 8599.849609 
136.077255 7318.279297 
136.078766 4101.875 
136.107376 2227.04248 
136.108887 9136.59375 
136.110397 17430.591797 
136.111893 24786.957031 
136.113403 21016.330078 
136.114914 12388.604492 
136.116409 4392.10498 
136.11792 1693.456421 
139.083191 1957.605713 
139.084747 4740.500488 
139.086304 6481.361328 
139.08786 5852.812012 
139.089417 3467.211426 
140.098389 9198.24707 
140.09996 10747.458008 
140.101547 32924.859375 
140.103119 118012.140625 
140.104691 244914.015625 
140.106262 380263.25 
140.107834 380000.40625 
140.109406 244683.03125 
140.110977 117974.375 
140.112549 33148.714844 
140.11412 10086.892578 
140.115692 7022.110352 
140.117264 2981.7146 
140.118866 6972.91748 
140.120438 1583.808838 
150.076508 3601.47168 
150.078247 7088.002441 
150.080002 17703.566406 
150.081741 28406.15625 
150.083481 32936.40625 
150.085236 99290.132812 
150.086975 357952.96875 
150.088715 765544.0625 
150.090454 1203844.25 
150.092209 1239545.25 
150.093948 812721.5625 
150.095688 403699.15625 
150.097443 117217.976562 
150.099182 39103.636719 
150.100922 30086.46875 
150.102676 20405.570312 
150.104416 8300.708984 
150.106155 2787.140381 
153.096344 1935.890015 
153.098145 4629.264648 
153.099945 7906.937012 
153.101746 10168.836914 
153.103531 9966.359375 
153.105331 7188.792969 
153.107132 3478.321289 
153.128616 5355.057129 
153.130417 6755.643066 
153.132217 24801.125 
153.134003 93137.664062 
153.135803 201028.375 
153.137604 317225.125 
153.139404 329421.96875 
153.141205 217412.21875 
153.14299 109344.890625 
153.144791 31886.527344 
153.146591 9683.164062 
153.148392 6461.37207 
153.150192 4101.938965 
153.152069 9633.385742 
153.153854 126.979797 
167.0755 2856.275879 
167.077545 6782.721191 
167.079605 10723.366211 
167.08165 11966.80957 
167.083694 9560.272461 
167.085739 5279.999512 
167.087799 1797.027832 
168.087784 853.383972 
168.089844 4872.56543 
168.091904 5658.508301 
168.093979 19504.591797 
168.096039 76945.34375 
168.098114 207479.3125 
168.100174 347842.625 
168.102249 421002.65625 
168.104309 308653.25 
168.106384 173419.53125 
168.108444 55686.105469 
168.110519 16562.189453 
168.112579 7322.135254 
168.114655 4546.286621 
168.116714 155.548218 
179.071945 1946.29126 
179.074219 9241.607422 
179.076492 32688.572266 
179.078766 61875.519531 
179.081039 89054.59375 
179.083313 78972.453125 
179.085587 48424.175781 
179.08786 20264.908203 
179.090118 5198.640625 
179.092392 925.513977 
181.091339 2241.866455 
181.093658 5542.167969 
181.095963 14274.833984 
181.098282 19927.576172 
181.100586 16751.089844 
181.102905 7243.823242 
181.105209 1554.273682 
181.11438 1126.607056 
181.116699 5558.00293 
181.119003 13162.124023 
181.121323 17040.992188 
181.123627 24572.675781 
181.125946 90326.640625 
181.12825 318414.8125 
181.130569 613417.5 
181.132874 900949.75 
181.135193 821481.5 
181.137497 510510.09375 
181.139816 223950.015625 
181.142136 65736.96875 
181.14444 25503.675781 
181.146759 20306.556641 
181.149063 8730.076172 
181.151382 4901.38623 
192.095047 2055.971436 
192.097565 5428.86084 
192.100098 9041.821289 
192.102615 10472.887695 
192.105148 8713.738281 
192.107666 5082.006836 
192.110199 1900.739258 
199.099274 2240.259277 
199.101944 9334.004883 
199.104599 17465.076172 
199.107269 24498.144531 
199.10994 20748.855469 
199.112595 12434.387695 
199.115265 4903.431152 
199.117935 1537.854126 
209.104553 1509.508423 
209.107407 7265.920898 
209.110275 15804.495117 
209.113144 19716.259766 
209.116013 25035.441406 
209.118881 88205.867188 
209.12175 316435.3125 
209.124619 626966.6875 
209.127487 941935.125 
209.130356 889572.5 
209.133224 560885.5625 
209.136093 256794.578125 
209.138962 75403.375 
209.14183 28417.59375 
209.144699 22791.033203 
209.147568 12153.078125 
209.150436 3539.39917 
209.153305 1266.672729 
218.149704 4450.714355 
218.152756 5794.156738 
218.155823 5777.232422 
218.158875 4568.679199 
218.161926 2813.183838 
223.128906 123.987434 
223.132065 4363.374512 
223.135223 22084.720703 
223.138382 57479.035156 
223.141556 95698.148438 
223.144714 111521.890625 
223.147873 79247.585938 
223.151031 43086.882812 
223.15419 13423.804688 
223.157364 3876.328857 
223.160522 1537.982056 
225.115051 2112.581787 
225.118256 8796.706055 
225.12146 16068.061523 
225.124664 21180.337891 
225.127869 16462.546875 
225.131073 9553.882812 
225.134277 3017.601562 
230.147537 2682.762207 
230.150848 5361.793457 
230.15416 6738.60498 
230.157471 5685.554688 
230.160782 3076.906738 
241.143661 2585.979004 
241.147202 9630.888672 
241.150757 17831.689453 
241.154312 24911.455078 
241.157867 21096.041016 
241.161423 12501.795898 
241.164963 4647.675293 
241.168518 2016.351562 
249.151764 3776.547607 
249.155502 7264.238281 
249.159225 9361.256836 
249.162949 8471.81543 
249.166687 5155.652832 
249.17041 1656.546509 
251.121643 391.814087 
251.125412 4723.421875 
251.129181 18304.138672 
251.132965 39548.414062 
251.136734 62327.960938 
251.140503 65594.09375 
251.144287 43878.308594 
251.148056 22456.435547 
251.15184 6098.166992 
251.155609 377.341797 
264.154053 2077.364502 
264.158112 12567.730469 
264.162201 42263.207031 
264.16626 73943.078125 
264.170319 97475.34375 
264.174408 76553.265625 
264.178467 44862.359375 
264.182556 15573.430664 
264.186615 4284.005371 
264.190704 837.555176 
269.121979 1563.599487 
269.12619 3627.761475 
269.130371 4197.524902 
269.134552 16387.277344 
269.138733 63986.222656 
269.142944 140350.625 
269.147125 222588.09375 
269.151306 232487.953125 
269.155487 153704.90625 
269.159698 77506.890625 
269.163879 22864.972656 
269.16806 7041.852051 
269.172241 4112.227051 
269.176453 1428.946899 
274.123444 2751.349854 
274.127747 8319.823242 
274.13205 33669.683594 
274.136353 79885.9375 
274.140656 129460.257812 
274.144958 142584.921875 
274.149261 97472.585938 
274.153564 51179.792969 
274.157867 15474.604492 
274.16217 4629.157227 
274.166473 2159.022461 
277.144867 2377.007324 
277.149231 5485.236816 
277.153625 7907.561523 
277.15799 7701.651855 
277.162384 4961.570801 
277.166748 1825.993774 
292.146759 2504.566895 
292.151489 13188.483398 
292.156219 40611.71875 
292.16098 69581.429688 
292.16571 88193.242188 
292.170441 66903.515625 
292.175171 38551.367188 
292.179901 12841.893555 
292.184662 3886.792969 
292.189392 1608.869629 
295.125305 1092.527222 
295.130096 4292.020996 
295.134918 4898.751465 
295.13974 4110.928711 
295.144531 3069.499512 
295.149017 8296.032227 
295.153839 30829.462891 
295.15863 61627.542969 
295.163452 92577.265625 
295.168274 86961.804688 
295.173065 54146.421875 
295.177887 23938.322266 
295.182678 6027.97998 
295.1875 1259.318359 
301.179901 2160.696289 
301.184875 4584.555176 
301.189819 6127.389648 
301.194794 5765.21582 
301.199738 3814.916992 
306.168915 3078.977295 
306.174011 6777.39209 
306.179077 9606.299805 
306.184174 9271.792969 
306.18924 6007.333496 
306.194336 2273.318604 
324.17746 3227.438232 
324.183014 7123.077637 
324.188538 10496.210938 
324.194061 10965.021484 
324.199615 8144.787598 
324.205139 4068.935303 
332.184143 3134.25 
332.18988 6444.430176 
332.195618 8963.070312 
332.201355 8903.091797 
332.207123 6280.723633 
332.21286 2899.31543 
334.156433 3490.907471 
334.162201 16256.222656 
334.167999 33626.84375 
334.173798 51488.183594 
334.179596 49437.097656 
334.185394 31120.761719 
334.191193 14099.466797 
334.196991 3353.580566 
334.202759 229.516327 
347.160736 3149.050537 
347.16687 5395.378906 
347.173004 6154.222656 
347.179138 4798.135742 
347.185272 2360.385986 
352.17157 3428.950195 
352.177856 7443.709961 
352.184113 10385.582031 
352.190399 10206.701172 
352.196655 7171.757812 
352.202942 3407.804932 
386.147705 914.926208 
386.154907 8928.896484 
386.162109 17682.351562 
386.169312 21073.314453 
386.176514 28738.285156 
386.183685 97252.390625 
386.190887 334634.53125 
386.19809 643428.625 
386.205292 945279.5625 
386.212494 863645.6875 
386.219696 536704.75 
386.226898 235323.4375 
386.2341 66534.453125 
386.241302 24014.021484 
386.248505 20059.054688 
386.255707 11263.701172 
386.262878 4849.68457 
386.270081 273.24115 
391.176849 2693.647217 
391.184174 7000.137695 
391.191528 11698.25293 
391.198853 13145.700195 
391.206207 9908.994141 
391.213531 4524.183594 
417.170959 1284.702637 
417.179016 3808.392822 
417.187103 19516.855469 
417.19519 69379.484375 
417.203278 129118.34375 
417.211365 183217.1875 
417.219452 158586.734375 
417.227509 96435.953125 
417.235596 39217.828125 
417.243683 11021.331055 
417.25177 3806.525391 
417.259857 2783.02124 
418.02124 3185.874268 
418.029358 5169.135742 
418.037476 5881.636719 
418.045563 4944.333496 
418.05368 3013.53418 
435.174469 3168.421631 
435.183075 3908.744629 
435.191681 11359.321289 
435.200317 41730.613281 
435.208923 102766.851562 
435.217529 168913.296875 
435.226135 193742.515625 
435.234741 136077.78125 
435.243378 73033.265625 
435.251984 21482.472656 
435.26059 5983.273926 
435.269196 3757.984863 
435.277802 3481.449463 
435.286377 8804.141602 
453.213104 4464.191406 
453.22226 6629.609863 
453.231415 7321.59375 
453.24057 6052.174316 
453.249725 3604.770752 
469.198761 80.852638 
469.208374 3688.66748 
469.218018 17875.429688 
469.227661 41607.980469 
469.237305 67428.070312 
469.246948 73143.257812 
469.256592 49570.34375 
469.266235 25671.369141 
469.275879 7686.492676 
469.285522 2253.405762 
485.255615 2748.74585 
485.265747 5435.485352 
485.275879 7021.609375 
485.286041 6411.306641 
485.296173 4083.327637 
503.251007 1554.765869 
503.261719 4133.447266 
503.27243 9276.900391 
503.283142 13973.359375 
503.293854 11881.067383 
503.304565 5816.893555 
503.315247 2382.049316 
552.278076 4363.894043 
552.290405 6995.271484 
552.302734 7519.000977 
552.315002 5543.106934 
552.327332 2568.974609 
651.317566 2706.411865 
651.333374 5123.59082 
651.349121 6677.989746 
651.364868 6373.066406 
651.380676 4389.741699 
669.324829 3619.541992 
669.341248 6110.831055 
669.357666 7334.235352 
669.374146 6368.271973 
669.390564 3800.96875 
691.802185 3636.284668 
691.819458 5978.483398 
691.83667 6792.611816 
691.853943 5232.033691 
691.871216 2294.181152 
729.315369 625.271179 
729.334045 6220.248535 
729.352722 14007.301758 
729.371399 22065.205078 
729.390076 21647.365234 
729.408813 13871.599609 
729.42749 6524.041016 
729.446167 1455.89209 
919.393066 1129.713501 
919.419556 3676.571289 
919.445984 10552.405273 
919.472412 15720.487305 
919.49884 14703.283203 
919.52533 8789.661133 
919.551758 3744.137451 
919.578186 1355.67981 
937.395386 2475.843994 
937.422607 10500.740234 
937.449829 25684.742188 
937.477051 42267.691406 
937.504272 48240.902344 
937.531494 33590.339844 
937.558716 17747.587891 
937.585999 4778.410156 
937.61322 513.005676 
969.731812 2525.714844 
969.760437 5264.711426 
969.789062 7527.966309 
969.817749 7789.82959 
969.846375 5686.915527 
969.875 2594.713623 
END IONS

