BEGIN IONS
PEPMASS=1201.5
CHARGE=1+
MSLEVEL=2
SOURCE_INSTRUMENT=LC-ESI-Orbitrap
FILENAME=f.RReher/Culebra/pure_compounds/1182_Br_KurahamideB/KurahamideB_Br81_MS2_M+NH4_QE.mgf;
SEQ=*..*
IONMODE=Positive
ORGANISM=GNPS-LIBRARY
NAME=Kurahamide B M+NH4
PI=Gerwick
DATACOLLECTOR=Raphael Reher
SMILES=CCCC(N[C@H](C(N[C@H](C(N[C@H]1[C@@H](C)OC([C@H](C(C)C)NC([C@H](CC2=CC(Br)=C(O)C=C2)N(C)C([C@H](CC3=CC=CC=C3)N4C(O)CC[C@H](NC(/C(NC1=O)=C\C)=O)C4=O)=O)=O)=O)=O)[C@H](OC([C@@H](NC(CCC)=O)C)=O)C)=O)C)=O
INCHI=
INCHIAUX=
PUBMED=
SUBMITUSER=RReher
LIBRARYQUALITY=3
SPECTRUMID=CCMSLIB00005723420
SCANS=1
76.583023 3369.730957 
76.583664 5913.138672 
76.584297 7976.668945 
76.58493 8542.78125 
76.585571 7430.24707 
76.586205 5251.922852 
76.586838 2960.884521 
76.588745 3356.890137 
76.589386 6532.078125 
76.590019 9674.139648 
76.590652 10983.563477 
76.591293 9397.31543 
76.591927 5751.482422 
76.59256 2707.907715 
76.593201 2854.955566 
76.593834 6219.366211 
76.594467 9725.936523 
76.595108 9827.876953 
76.595741 6121.328613 
76.596375 2006.40686 
84.043503 3657.813477 
84.044228 7894.459473 
84.04496 11195.960938 
84.045692 11028.796875 
84.046425 7493.292969 
84.047157 3197.556641 
85.656548 2880.639893 
85.657303 4869.356934 
85.658051 5586.418457 
85.658806 4688.893066 
85.659561 2847.834473 
91.052521 2226.310547 
91.053345 9271.650391 
91.054169 16648.400391 
91.054993 21264.878906 
91.055817 16353.428711 
91.056641 9618.446289 
91.057465 2574.084229 
110.056145 547.315125 
110.057243 6389.027344 
110.058334 24086.09375 
110.059433 43536.546875 
110.060524 58677.144531 
110.061623 47098.785156 
110.062714 27723.693359 
110.063812 10105.011719 
110.064903 2791.075439 
114.088799 2792.118652 
114.089958 6401.832031 
114.09111 13458.558594 
114.09227 16028.928711 
114.093422 11178.637695 
114.094582 4957.741699 
114.095734 1929.68042 
120.076103 4564.068359 
120.077354 57309.011719 
120.078606 199125.09375 
120.079849 344513.84375 
120.0811 442712.53125 
120.082344 339865.3125 
120.083595 200025.671875 
120.084846 74592.117188 
120.08609 30448.082031 
120.087341 14574.824219 
120.088585 5670.677734 
120.090256 11969.212891 
120.091507 546.28949 
121.079941 1246.80542 
121.081207 3502.529297 
121.082466 9179.620117 
121.083733 16192.532227 
121.084999 19643.449219 
121.086258 14257.253906 
121.087524 5361.229004 
121.088791 1718.864502 
127.083351 2928.365723 
127.084709 11383.548828 
127.086067 20238.460938 
127.087433 24890.083984 
127.088791 17945.572266 
127.090149 9710.583984 
127.091507 2771.34375 
139.081253 306.836609 
139.082809 5887.537598 
139.084366 15304.154297 
139.085922 25499.605469 
139.087479 27307.859375 
139.089035 18156.992188 
139.090591 8989.352539 
139.092148 2854.840088 
142.081589 5786.134766 
142.083191 19074.263672 
142.084793 33096.640625 
142.086395 40703.980469 
142.088013 30273.503906 
142.089615 17442.787109 
142.091217 6283.562988 
142.092819 2083.439209 
146.092712 2630.970215 
146.094391 6733.781738 
146.096054 10301.488281 
146.097733 10739.601562 
146.099411 7848.438965 
146.101089 3833.306396 
149.066757 1917.118774 
149.068481 4497.519043 
149.070206 6983.735352 
149.07193 7949.765625 
149.073654 6701.199707 
149.075378 4040.108887 
149.080566 3330.646484 
149.082291 5505.007812 
149.084015 6399.273926 
149.085739 5364.599609 
149.087463 3088.85791 
153.063995 3711.200439 
153.065796 6175.474609 
153.067596 7031.191406 
153.069382 5743.250488 
153.071182 3245.059814 
155.075546 525.111206 
155.077377 5908.750977 
155.079208 13712.460938 
155.081055 22125.5625 
155.082886 22342.753906 
155.084717 14221.289062 
155.086548 6685.186523 
155.088379 2236.933838 
158.089249 1335.535645 
158.091141 13463.479492 
158.093018 41335.617188 
158.09491 70618.078125 
158.096786 86962.085938 
158.098679 64567.480469 
158.100571 36862.996094 
158.102448 13272.197266 
158.10434 5226.348633 
158.106216 2438.31665 
167.074844 2591.580322 
167.076904 12651.055664 
167.078949 25816.693359 
167.080994 38666.589844 
167.083038 35967.519531 
167.085098 22688.845703 
167.087143 10562.313477 
167.089188 3223.089844 
167.091232 1304.837158 
170.089462 2059.407227 
170.091568 12053.291016 
170.093674 25122.470703 
170.095779 38595.832031 
170.097885 36630.902344 
170.099991 22798.320312 
170.102097 10180.571289 
170.104202 2216.69873 
178.094131 2596.51123 
178.09639 4996.141113 
178.098648 6089.694824 
178.100906 5225.833496 
178.103149 3137.630127 
179.075424 7653.43457 
179.077698 20689.240234 
179.079971 34666.226562 
179.082245 36513.007812 
179.084518 23743.744141 
179.086792 11599.477539 
179.089066 3390.703613 
179.091339 1877.544922 
180.869629 2403.313232 
180.871933 5240.662598 
180.874252 7196.682129 
180.876556 6888.515137 
180.87886 4608.084473 
187.114761 6590.628418 
187.117188 37596.996094 
187.119614 79594.273438 
187.12204 122806.898438 
187.124466 118610.039062 
187.126892 76297.195312 
187.129318 37141.496094 
187.131744 13635.085938 
187.134171 6504.443359 
187.136612 3562.356689 
187.139038 2634.797852 
193.0914 3261.415771 
193.093948 6313.244629 
193.096497 8595.621094 
193.09903 8572.490234 
193.101578 6128.101562 
193.104126 2873.201904 
194.087769 2831.306641 
194.090332 6103.956543 
194.092896 8440.22168 
194.095459 8230.512695 
194.098038 5803.396973 
194.100601 2894.867676 
197.117432 52.090656 
197.120056 16777.382812 
197.122681 74408.78125 
197.12532 142206.234375 
197.127945 203671.53125 
197.130569 176680.5 
197.133194 108426.703125 
197.135818 46598.328125 
197.138443 16881.728516 
197.141068 8537.228516 
197.143692 5935.32666 
197.147217 10762.005859 
199.101929 2564.811035 
199.104584 5484.22998 
199.107254 7334.100098 
199.109924 6753.087891 
199.112579 4182.674316 
204.108139 1953.480713 
204.110916 4967.79248 
204.113678 7282.162598 
204.11644 7239.01709 
204.119202 4941.051758 
204.121979 2076.945801 
215.107452 6729.839844 
215.110443 48997.167969 
215.113434 145120.109375 
215.116425 247521.046875 
215.119415 293606.75 
215.122406 210029.4375 
215.125412 117290.59375 
215.128403 41650.925781 
215.131393 30768.384766 
215.134384 59368.691406 
215.137375 94439.90625 
215.140366 109683.960938 
215.143356 84847.828125 
215.146362 42175.921875 
215.149353 11016.374023 
215.152344 4051.891113 
215.155334 617.490356 
216.113419 3495.234375 
216.116425 6506.767578 
216.119446 9465.572266 
216.122452 10590.735352 
216.125473 8800.304688 
216.128479 5102.187988 
216.1315 2068.152832 
222.117874 2904.650146 
222.121017 6340.427246 
222.124146 8361.214844 
222.127289 7476.752441 
222.130432 4471.347168 
224.099731 4410.793945 
224.102905 6723.025391 
224.106094 7417.00293 
224.109268 6139.704102 
224.112457 3771.018799 
225.110565 325.699738 
225.11377 6475.195801 
225.116974 22936.025391 
225.120178 39575.652344 
225.123383 49999.035156 
225.126587 37934.976562 
225.129791 21961.126953 
225.132996 7896.370117 
225.1362 2922.378418 
226.079208 4059.879395 
226.082428 8338.389648 
226.085648 11382.991211 
226.088882 10975.355469 
226.092102 7397.44043 
226.095322 3231.379639 
227.989426 1141.66333 
227.992691 12922.542969 
227.995956 37519.277344 
227.999222 63777.925781 
228.002487 75788.09375 
228.005753 54336.648438 
228.009018 30073.53125 
228.012283 9788.682617 
228.015549 3146.568115 
228.996094 2991.5354 
228.999374 7212.810059 
229.00267 13337.412109 
229.005951 18602.775391 
229.009247 15533.050781 
229.012527 9350.663086 
229.015808 2943.33374 
229.987549 11702.509766 
229.990845 75264.96875 
229.994156 189797.671875 
229.997467 312504.71875 
230.000778 347510.65625 
230.004089 240480.78125 
230.007401 129615.945312 
230.010696 46209.429688 
230.014008 20248.828125 
230.017319 11953.947266 
230.02063 4392.006836 
230.023941 2169.864258 
234.078415 2664.525391 
234.081818 4991.777832 
234.085205 6760.966797 
234.088608 6833.45459 
234.09201 5039.085449 
234.095398 2386.581055 
243.100891 13329.674805 
243.104492 65985.257812 
243.108078 132299.125 
243.111679 197074.140625 
243.115265 179135.59375 
243.118866 112299.6875 
243.122467 50901.773438 
243.126053 19810.742188 
243.129654 12614.041016 
243.133255 10411.138672 
243.136841 7810.908203 
243.140442 2382.657959 
250.104233 655.854004 
250.107986 7365.354492 
250.11174 20080.042969 
250.115494 33455.441406 
250.119247 38547.914062 
250.123001 27498.621094 
250.12674 15211.422852 
250.130493 5265.860352 
250.134247 1928.269531 
253.126572 3279.06958 
253.130386 5936.530762 
253.134201 7515.129395 
253.138031 6842.044434 
253.141846 4304.855957 
263.443359 3841.521973 
263.447418 6009.652344 
263.451477 6529.013184 
263.455536 5176.958008 
263.459595 2960.016113 
268.120087 3484.85083 
268.124268 7618.881348 
268.128418 10897.451172 
268.132599 10884.189453 
268.136749 7520.197266 
268.14093 3358.392334 
298.114868 3220.669434 
298.119751 5149.030762 
298.124634 6519.775391 
298.129517 6201.87207 
298.140808 8748.629883 
298.145691 20602.539062 
298.150574 33266.996094 
298.155457 33018.628906 
298.160339 21575.273438 
298.165222 10900.237305 
298.170105 4250.99707 
298.174988 1153.806763 
306.316315 2427.986572 
306.321381 4545.350098 
306.326477 7552.816895 
306.331573 17866.353516 
306.336639 19377.322266 
306.341736 12931.969727 
306.346832 6427.022461 
306.367157 7977.069336 
306.372253 15904.680664 
306.37735 19064.046875 
306.382416 11947.379883 
306.387512 5094.31543 
306.392609 2026.46228 
306.397675 5325.560547 
306.402771 8834.294922 
306.407867 8983.368164 
306.412933 5630.089355 
306.41803 1829.081299 
308.144867 1676.708252 
308.150024 4792.119629 
308.155151 10705.863281 
308.160278 16554.435547 
308.165405 14482.470703 
308.170532 8225.910156 
308.175659 2809.440674 
321.137482 2140.167969 
321.142944 5192.521973 
321.148407 12376.043945 
321.15387 18974.835938 
321.159332 18981.769531 
321.164795 12380.908203 
321.170227 4907.063477 
321.17569 1803.125732 
326.131805 4114.427246 
326.13739 16209.785156 
326.142975 28466.535156 
326.14856 35984.394531 
326.154144 27441.939453 
326.159729 16228.317383 
326.165314 6691.96582 
326.170898 1325.356567 
375.056885 3834.549561 
375.063782 7933.62793 
375.070679 11009.334961 
375.077576 10824.661133 
375.084442 7562.362793 
375.091339 3491.935547 
384.182343 489.152954 
384.189484 4439.638672 
384.196625 18585.246094 
384.203766 37018.648438 
384.210907 55241.722656 
384.218048 50977.285156 
384.225189 31880.677734 
384.23233 14278.756836 
384.239471 4223.102051 
384.246613 1584.078613 
388.011353 1713.412231 
388.018585 6107.04248 
388.025848 14689.876953 
388.033081 24265.595703 
388.040344 27552.232422 
388.047577 18924.662109 
388.05484 9753.9375 
388.062103 2196.523193 
391.16864 839.559021 
391.175964 9326.510742 
391.183319 30949.695312 
391.190643 54526.328125 
391.197998 72608.867188 
391.205322 58507.953125 
391.212646 34900.90625 
391.220001 13048.538086 
391.227325 3476.891602 
391.23468 458.562378 
409.181946 1817.651123 
409.189789 8054.022949 
409.197632 16038.543945 
409.205505 24130.158203 
409.213348 22612.933594 
409.221191 13971.336914 
409.229034 5833.183105 
409.236908 2052.311035 
498.076385 3447.999268 
498.086914 6517.370117 
498.097473 8246.762695 
498.108002 7478.383789 
498.118561 4723.383789 
499.079498 3356.510742 
499.090088 8310.547852 
499.100647 12578.142578 
499.111237 12942.124023 
499.121826 9240.09082 
499.132385 4506.661133 
500.053253 1565.3479 
500.063843 8074.089844 
500.074463 32320.507812 
500.085052 68700.71875 
500.095673 107298.875 
500.106293 107920.03125 
500.116882 70020.882812 
500.127502 34074.285156 
500.138092 10016.555664 
500.148712 3689.710449 
500.159332 3129.47168 
550.252441 1759.280151 
550.264648 5544.713867 
550.276917 9782.450195 
550.289124 11317.708984 
550.301392 8992.393555 
550.31366 4690.387695 
558.134705 2434.803711 
558.147217 5192.896973 
558.159729 7606.290039 
558.172241 8154.464844 
558.184692 6330.728516 
558.197205 3382.503418 
583.092163 1360.335938 
583.105469 4045.776367 
583.118835 10059.430664 
583.132202 16196.064453 
583.145569 16298.199219 
583.158936 10275.323242 
583.172241 3789.24585 
583.185608 1164.904663 
END IONS

