BEGIN IONS
PEPMASS=1383.73
CHARGE=1+
MSLEVEL=2
SOURCE_INSTRUMENT=LC-ESI-Ion Trap
FILENAME=f.RReher/2264/Reference_spectra/Samholides/Samholide I/SamholideI_M+Na_iontrap_yiwen.mgf;
SEQ=*..*
IONMODE=Positive
ORGANISM=GNPS-LIBRARY
NAME=Samholide I M+Na
PI=Gerwick
DATACOLLECTOR=Ywen Tao
SMILES=C[C@@H]1O[C@H](C[C@@H](C1)OC)CC[C@@H]([C@H](O)[C@@H]([C@H]2OC(=O)/C=C/C(=C/C[C@@H](C[C@H]3O[C@H](C[C@@H]([C@H]([C@H](C[C@H](C[C@H](OC(=O)/C=C/C(=C/C[C@@H](C[C@H]4O[C@H](C[C@@H]([C@H]([C@H](C[C@H](C2)O)O)C)OC)CC=C4)O)/C)[C@H]([C@@H](O)[C@H](CC[C@@H]5O[C@H](C[C@H](C5)OC)C)C)C)O)O)C)OC)CC=C3)O)/C)C)C
INCHI=
INCHIAUX=
PUBMED=
SUBMITUSER=RReher
LIBRARYQUALITY=3
SPECTRUMID=CCMSLIB00005467796
SCANS=1
381.241577 13602.0 
434.008972 2978.0 
481.338196 29266.0 
481.999939 1.0 
641.298218 54473.0 
641.93335 1.0 
660.807129 598.0 
671.359131 1355.0 
685.304688 43563.0 
695.46814 21789.0 
701.6604 20560.0 
703.324951 647710.0 
704.529297 15039.0 
713.124878 3256.0 
720.425049 1851.0 
723.289062 2774.0 
753.17334 2440.0 
815.407227 4093.0 
829.591553 4969.0 
846.975708 2424.0 
857.469604 9137.0 
859.421509 1850.0 
863.707764 25945.0 
907.533081 890.0 
922.932129 4561.0 
924.004028 17307.0 
924.680176 4644.0 
925.392944 362788.0 
926.266602 1.0 
947.394531 23549.0 
957.307251 7528.0 
1015.313477 21326.0 
1051.722412 9779.0 
1069.42334 62275.0 
1073.683594 2803.0 
1095.34375 6717.0 
1113.500244 79595.0 
1114.156738 20.0 
1120.450684 14840.0 
1121.560547 2157.0 
1129.300049 4974.0 
1133.131836 2706.0 
1139.560059 15487.0 
1143.557617 27227.0 
1151.408203 19786.0 
1157.276855 54227.0 
1160.955566 14045.0 
1161.59375 755381.0 
1162.446777 28092.0 
1163.655762 5782.0 
1169.571777 66841.0 
1199.431641 14160.0 
1223.751953 9916.0 
1284.420898 1844.0 
1297.688965 10147.0 
1315.903809 4944.0 
1321.584473 103182.0 
1322.682617 9631.0 
1329.74707 1478.0 
1333.605469 8942.0 
1338.25293 13462.0 
1339.767578 7899.0 
1347.374268 54953.0 
1348.074219 9685.0 
1350.433594 3893.0 
1351.591309 20813.0 
1355.259277 8567.0 
1365.619873 251451.0 
1366.29834 17796.0 
1366.980957 4821.0 
1382.935059 70137.0 
1383.677734 90724.0 
END IONS

