BEGIN IONS
PEPMASS=687.1
CHARGE=0+
MSLEVEL=2
SOURCE_INSTRUMENT=LC-ESI-qTof
FILENAME=20121115_Jenia_Ger_CarmabinA_MH_687_qb.1.1..mgf
SEQ=*..*
IONMODE=Positive
ORGANISM=GNPS-LIBRARY
NAME=Carmabin A M+H
PI=Gerwick
DATACOLLECTOR=Jenia
SMILES=C[C@@H](C(=O)N(C)[C@@H](C)C(=O)N(C)[C@@H](CC1=CC=C(C=C1)OC)C(=O)N)NC(=O)[C@H](CC2=CC=CC=C2)N(C)C(=O)C(C)CC(C)CCCCC#C
INCHI=InChI=1S/C40H57N5O6/c1-10-11-12-14-17-27(2)24-28(3)38(48)45(8)35(26-31-18-15-13-16-19-31)37(47)42-29(4)39(49)43(6)30(5)40(50)44(7)34(36(41)46)25-32-20-22-33(51-9)23-21-32/h1,13,15-16,18-23,27-30,34-35H,11-12,14,17,24-26H2,2-9H3,(H2,41,46)(H,42,47)/t27?,28?,29-,30-,34-,35-/m0/s1
INCHIAUX=N/A
PUBMED=N/A
SUBMITUSER=mwang87
LIBRARYQUALITY=1
SPECTRUMID=CCMSLIB00000001595
SCANS=1
276.869507 21001.0 
294.301819 7017.0 
312.023926 794037.0 
312.819946 20.0 
337.883972 97934.0 
338.493286 5.0 
339.125366 122850.0 
339.920959 5363192.0 
340.822144 6.0 
410.917786 1067787.0 
411.679932 5.0 
433.263245 14887.0 
493.936279 99452.0 
494.988586 186104.0 
495.947083 10123614.0 
496.852173 37.0 
687.296997 24184.0 
END IONS

