BEGIN IONS
PEPMASS=943.35
CHARGE=1+
MSLEVEL=2
SOURCE_INSTRUMENT=LC-ESI-Ion Trap
FILENAME=CyanopeptolinC_MSMS.mzXML
SEQ=*..*
IONMODE=Positive
ORGANISM=GNPS-LIBRARY
NAME=Cyanopeptolin C M+H
PI=Gerwick
DATACOLLECTOR=E Briand
SMILES=[H][C@]1(NC(=O)[C@H](CC(O)=O)NC(=O)CCCCC)[C@@H](C)OC(=O)[C@@H](NC(=O)[C@H](CC2=CC=CC=C2)N(C)C(=O)[C@H](CC(C)C)N2[C@H](O)CC[C@H](NC(=O)[C@H](CCCCNC)NC1=O)C2=O)C(C)C
INCHI=InChI=1S/C47H74N8O12/c1-9-10-12-20-36(56)49-33(26-38(58)59)42(61)53-40-29(6)67-47(66)39(28(4)5)52-43(62)34(25-30-17-13-11-14-18-30)54(8)46(65)35(24-27(2)3)55-37(57)22-21-32(45(55)64)51-41(60)31(50-44(40)63)19-15-16-23-48-7/h11,13-14,17-18,27-29,31-35,37,39-40,48,57H,9-10,12,15-16,19-26H2,1-8H3,(H,49,56)(H,50,63)(H,51,60)(H,52,62)(H,53,61)(H,58,59)/t29-,31+,32+,33+,34+,35+,37-,39+,40+/m1/s1
INCHIAUX=QOZZMIMTOTZWNP-KWOQDFNWSA-N
PUBMED=8244882
SUBMITUSER=ebriand
LIBRARYQUALITY=2
SPECTRUMID=CCMSLIB00000071756
SCANS=421
369.276489 3018.0 
369.900391 1275.0 
437.121948 1128.0 
524.719238 3744.0 
536.68103 1030.0 
595.205811 2941.0 
623.172607 2077.0 
638.174561 4752.0 
647.198608 3466.0 
687.371338 1815.0 
701.289307 3835.0 
710.469238 10783.0 
711.477295 1636.0 
712.301758 22203.0 
717.130371 2937.0 
727.119629 6976.0 
728.415283 4014.0 
729.521729 15957.0 
730.306641 5491.0 
731.341309 1746.0 
738.303955 1855.0 
806.746582 2892.0 
808.248047 2347.0 
824.303955 3894.0 
829.200195 7361.0 
924.290405 6923.0 
925.263306 226100.0 
END IONS

