BEGIN IONS
PEPMASS=793.4
CHARGE=0+
MSLEVEL=2
SOURCE_INSTRUMENT=LC-ESI-Ion Trap
FILENAME=20130719_Ger_Pluto_Hoiamide_C_MNa793.4-qb.1.1..mgf
SEQ=*..*
IONMODE=Positive
ORGANISM=GNPS-LIBRARY
NAME=Hoiamide C M+Na
PI=Gerwick
DATACOLLECTOR=Pluto
SMILES=CCC[C@@H](C)[C@H](O)[C@H](C)[C@@H](O)[C@@H](C)[C@H](CC1=NC(=CS1)C1=N[C@](C)(CS1)C1=N[C@](C)(CS1)C(=O)N[C@@H]([C@@H](C)CC)[C@@H](O)[C@@H](C)C(=O)OCC)OC
INCHI=InChI=1S/C37H62N4O7S3/c1-12-15-21(5)29(42)23(7)30(43)22(6)26(47-11)16-27-38-25(17-49-27)32-40-37(10,19-50-32)35-41-36(9,18-51-35)34(46)39-28(20(4)13-2)31(44)24(8)33(45)48-14-3/h17,20-24,26,28-31,42-44H,12-16,18-19H2,1-11H3,(H,39,46)/t20-,21+,22-,23-,24+,26-,28-,29-,30-,31-,36+,37+/m0/s1
INCHIAUX=STGNMXQTWDOGSE-FUVSMVGWSA-N
PUBMED=N/A
SUBMITUSER=mwang87
LIBRARYQUALITY=1
SPECTRUMID=CCMSLIB00000001812
SCANS=1
396.764648 4037.0 
431.814697 9187.0 
449.265503 46350.0 
450.232544 9709.0 
477.61792 4259.0 
505.061646 3065.0 
520.556763 5633.0 
534.331909 8350.0 
548.109619 21687.0 
549.326172 2871.0 
550.271362 214549.0 
551.150635 34593.0 
560.102539 1492.0 
567.467773 14378.0 
594.128784 105095.0 
595.030762 8201.0 
604.352905 5420.0 
642.391846 2448.0 
659.099121 16099.0 
660.409912 2641.0 
663.335815 69826.0 
664.316406 21779.0 
673.10791 10363.0 
674.110352 14893.0 
675.177368 13555.0 
685.22998 9906.0 
691.354736 4024405.0 
692.347656 1252259.0 
701.394897 1310.0 
703.074951 19311.0 
704.085327 2446.0 
747.396118 150487.0 
748.442627 145285.0 
749.222168 3.0 
761.248169 140903.0 
762.396118 52013.0 
765.301758 165066.0 
766.45105 34280.0 
774.614502 5855.0 
775.368774 784190.0 
776.341919 327073.0 
793.328613 491195.0 
794.46936 76913.0 
END IONS

