BEGIN IONS
PEPMASS=276.16
CHARGE=1+
MSLEVEL=2
SOURCE_INSTRUMENT=LC-ESI-qTof
FILENAME=2A6_R-4-benzyl-3-isobutyryl-5_5-dimethyloxazolidin-2-one.mzXML
SEQ=*..*
IONMODE=Positive
ORGANISM=GNPS-LIBRARY
NAME="R-4-benzyl-3-isobutyryl-5,5-dimethyloxazolidin-2-one" M+H
PI=Dorrestein/Gerwick
DATACOLLECTOR=Garg/Luzzato
SMILES=O=C1OC(C)(C)[C@@H](CC2=CC=CC=C2)N1C(C(C)C)=O
INCHI=N/A
INCHIAUX=N/A
PUBMED=N/A
SUBMITUSER=mwang87
LIBRARYQUALITY=2
SPECTRUMID=CCMSLIB00000068218
SCANS=1670
95.563988 236.0 
96.243942 196.0 
97.23407 168.0 
97.605194 144.0 
97.620918 180.0 
98.367332 200.0 
99.451599 268.0 
100.075554 228.0 
100.376305 196.0 
101.513641 208.0 
102.234528 208.0 
102.367332 240.0 
102.637238 192.0 
103.0569 164.0 
103.325684 220.0 
104.491776 216.0 
104.538551 160.0 
105.069427 884.0 
106.061516 448.0 
106.432686 184.0 
107.642952 172.0 
109.481598 176.0 
111.037918 200.0 
111.105019 188.0 
111.39669 144.0 
111.503807 208.0 
112.93692 196.0 
112.962296 184.0 
113.360168 152.0 
114.054855 216.0 
114.087784 208.0 
115.053673 340.0 
115.259613 196.0 
115.409172 228.0 
115.603745 228.0 
115.939819 188.0 
116.062012 172.0 
117.004776 220.0 
117.069458 880.0 
117.101631 156.0 
118.042168 164.0 
118.068108 140.0 
118.150269 144.0 
118.57016 156.0 
119.087173 768.0 
120.091446 244.0 
120.586861 264.0 
120.634926 176.0 
120.691742 176.0 
120.986984 180.0 
121.057022 204.0 
121.414078 224.0 
122.259529 236.0 
123.509979 152.0 
123.602859 224.0 
125.144859 212.0 
125.467781 180.0 
126.680748 224.0 
126.741211 168.0 
128.04808 176.0 
128.063843 172.0 
129.067581 208.0 
130.078995 432.0 
130.107193 168.0 
130.216141 264.0 
130.584167 188.0 
131.602371 220.0 
132.063965 380.0 
132.80101 236.0 
133.119873 216.0 
134.288483 208.0 
134.793854 160.0 
134.909378 228.0 
135.189117 244.0 
136.327271 232.0 
137.568176 196.0 
138.955383 272.0 
140.597137 180.0 
141.442917 192.0 
141.878616 272.0 
143.086792 424.0 
143.344482 224.0 
143.384979 208.0 
143.580399 268.0 
144.21521 272.0 
144.406403 272.0 
144.674286 204.0 
144.772415 156.0 
145.073105 204.0 
145.102234 24412.0 
145.15358 240.0 
145.974167 240.0 
146.063126 172.0 
146.079956 244.0 
146.105545 2824.0 
146.772003 128.0 
147.108963 248.0 
147.224335 144.0 
147.270859 176.0 
147.424759 204.0 
147.995392 200.0 
148.816986 164.0 
150.052307 220.0 
150.106064 160.0 
151.055725 272.0 
151.089966 168.0 
155.223724 164.0 
155.630478 172.0 
155.749634 208.0 
156.020386 204.0 
156.055176 164.0 
156.216766 240.0 
158.09726 240.0 
158.457672 140.0 
159.614273 152.0 
159.722382 252.0 
159.931137 164.0 
162.12851 9192.0 
162.527985 232.0 
163.110779 1432.0 
163.131866 1164.0 
164.117584 208.0 
164.387314 152.0 
165.631882 256.0 
167.238556 156.0 
168.778046 228.0 
169.085754 164.0 
171.127823 152.0 
171.885986 172.0 
172.097321 244.0 
173.022476 144.0 
173.735001 164.0 
174.173203 188.0 
174.627716 140.0 
174.964386 160.0 
176.103073 144.0 
177.786163 280.0 
180.299118 268.0 
180.630508 212.0 
181.005035 164.0 
182.603806 188.0 
183.421982 152.0 
184.760834 252.0 
185.532333 196.0 
185.570282 208.0 
188.108566 332.0 
188.697281 188.0 
189.115631 396.0 
189.570068 168.0 
190.126526 164.0 
190.477814 216.0 
192.09021 164.0 
192.197769 196.0 
193.839569 180.0 
194.266357 144.0 
194.879654 288.0 
196.588623 252.0 
203.484955 204.0 
204.573334 252.0 
205.735947 148.0 
205.795868 224.0 
205.928162 220.0 
205.992844 148.0 
206.061371 180.0 
206.11882 38580.0 
206.269913 148.0 
206.412796 248.0 
206.51857 204.0 
207.121918 4584.0 
207.663742 140.0 
207.715363 140.0 
208.122864 428.0 
213.370316 172.0 
213.914093 148.0 
214.156204 416.0 
214.583862 188.0 
216.230667 180.0 
218.039444 252.0 
218.074707 176.0 
223.103683 172.0 
224.127075 144.0 
226.339493 176.0 
227.775436 172.0 
229.535309 140.0 
231.359451 164.0 
231.558807 152.0 
231.892334 212.0 
232.17041 14816.0 
232.267319 104.0 
233.173248 1984.0 
234.180435 280.0 
234.916534 144.0 
238.654419 156.0 
240.625443 156.0 
240.693344 192.0 
240.915619 140.0 
243.81459 140.0 
245.177109 240.0 
248.938919 208.0 
253.428818 196.0 
273.16568 176.0 
275.389679 140.0 
275.482117 152.0 
275.779388 196.0 
276.160278 9628.0 
277.052826 156.0 
277.1091 220.0 
277.1651 1076.0 
277.228333 228.0 
278.16861 372.0 
278.820618 180.0 
279.122986 156.0 
279.224426 180.0 
372.095856 212.0 
375.172302 180.0 
440.87561 140.0 
526.40979 144.0 
926.757202 144.0 
1236.708374 200.0 
1244.879517 176.0 
1245.988892 172.0 
1256.989258 240.0 
1329.898682 176.0 
1411.216431 144.0 
1422.051514 232.0 
1429.044678 168.0 
1430.692261 148.0 
1482.427368 252.0 
1496.378174 152.0 
1521.424316 200.0 
1521.921021 140.0 
1525.72644 176.0 
1532.027466 208.0 
1532.993164 252.0 
1540.394287 244.0 
1552.136719 260.0 
1564.694824 140.0 
1587.583984 280.0 
1610.902832 292.0 
1643.073608 200.0 
1653.403931 192.0 
1668.939941 180.0 
1673.990967 272.0 
1677.794434 220.0 
1682.597656 156.0 
1692.191895 188.0 
1696.03772 200.0 
1712.450806 240.0 
1743.121582 168.0 
1745.498047 164.0 
1749.648071 212.0 
1750.280518 196.0 
1765.235962 204.0 
1769.794312 192.0 
1770.706787 168.0 
1783.017578 244.0 
1793.382324 196.0 
1795.337402 212.0 
1797.976929 168.0 
1801.378174 256.0 
1804.909424 196.0 
1805.425049 268.0 
1815.057739 200.0 
1817.770996 216.0 
1829.954834 184.0 
1835.243652 236.0 
1839.345459 248.0 
1839.686768 204.0 
1842.469604 176.0 
1846.357178 196.0 
1850.873657 192.0 
1852.474487 260.0 
1853.62207 180.0 
1863.210571 216.0 
1865.315186 228.0 
1872.03186 168.0 
1876.476074 156.0 
1879.795532 208.0 
1888.137207 244.0 
1889.070923 220.0 
1896.947754 148.0 
1905.796387 144.0 
1924.139771 244.0 
1927.195435 252.0 
1935.982788 228.0 
1942.81665 164.0 
1964.792358 236.0 
1969.221802 228.0 
1976.220093 172.0 
1981.167114 168.0 
1982.026123 168.0 
1984.409424 172.0 
1989.047241 144.0 
2001.363892 244.0 
END IONS

