BEGIN IONS
PEPMASS=1690.8
CHARGE=1+
MSLEVEL=2
SOURCE_INSTRUMENT=LC-ESI-Ion Trap
FILENAME=f.RReher/2264/Reference_spectra/Samholides/Samholide H/SamholideH_M+Na_iontrap_yiwen.mgf;
SEQ=*..*
IONMODE=Positive
ORGANISM=GNPS-LIBRARY
NAME=Samholide H M+Na
PI=Gerwick
DATACOLLECTOR=Ywen Tao
SMILES=C[C@H]1C[C@H](C[C@@H](O1)CC[C@H](C)[C@@H]([C@H](C)[C@@H]2C[C@@H](C[C@@H]([C@@H]([C@H](C[C@@H]3CC=C[C@H](O3)C[C@H](C/C=C(/C=C/C(=O)O[C@@H](C[C@@H](C[C@@H]([C@@H]([C@H](C[C@@H]4CC=C[C@H](O4)C[C@H](C/C=C(/C=C/C(=O)O2)\C)O[C@@H]5[C@H]([C@@H]([C@H](CO5)O)OC)O)OC)C)O)O)[C@@H](C)[C@H]([C@@H](C)CC[C@H]6C[C@@H](C[C@@H](O6)C)OC)O)\C)O[C@@H]7[C@H]([C@@H]([C@H](CO7)OC)OC)O)OC)C)O)O)O)OC
INCHI=
INCHIAUX=
PUBMED=
SUBMITUSER=RReher
LIBRARYQUALITY=3
SPECTRUMID=CCMSLIB00005467794
SCANS=1
481.380615 14104.0 
482.043945 23704.0 
549.22522 49867.0 
599.469482 18904.0 
606.280029 9073.0 
635.19812 43332.0 
636.337402 28263.0 
641.216064 66501.0 
642.555176 6915.0 
649.154297 20801.0 
667.280884 21062.0 
668.041748 65987.0 
685.349121 41167.0 
687.200439 12105.0 
689.377197 9419.0 
703.336914 116993.0 
704.366455 79697.0 
831.5271 38417.0 
832.162354 58840.0 
849.391968 634326.0 
850.442261 210104.0 
863.376831 1003299.0 
864.403809 448888.0 
865.277344 61876.0 
865.879883 5.0 
940.560059 4924.0 
1038.530273 12255.0 
1071.67041 68761.0 
1072.655273 30568.0 
1073.339355 17548.0 
1076.602539 41010.0 
1087.202637 54854.0 
1094.588379 14443.0 
1107.256592 27214.0 
1144.963867 34844.0 
1230.65918 26759.0 
1231.3125 613553.0 
1232.464355 628036.0 
1233.610107 226974.0 
1234.286621 10.0 
1245.327148 21754.0 
1297.494629 54521.0 
1304.435791 36917.0 
1307.629639 729600.0 
1308.775391 692326.0 
1309.755371 69829.0 
1316.580078 78312.0 
1321.492676 423317.0 
1322.711426 149818.0 
1323.583008 99121.0 
1330.656982 10990.0 
1365.316406 45110.0 
1367.757324 36428.0 
1375.771484 163000.0 
1376.816406 62823.0 
1377.615967 43688.0 
1383.547852 54163.0 
1419.401611 213097.0 
1420.458984 246754.0 
1421.842041 53275.0 
1439.531738 80699.0 
1441.69043 53330.0 
1459.608154 18695.0 
1468.585938 96508.0 
1469.199951 1.0 
1475.601074 332674.0 
1476.637207 196847.0 
1477.623779 111512.0 
1483.445557 9449.0 
1493.583984 146967.0 
1507.731445 40098.0 
1511.579834 94800.0 
1512.666504 125397.0 
1513.780029 90395.0 
1515.822021 33134.0 
1524.832764 48430.0 
1526.599365 450971.0 
1527.457275 62509.0 
1529.62207 306920.0 
1530.520508 246317.0 
1531.774658 74233.0 
1543.721436 293201.0 
1544.821777 214935.0 
1545.834473 72548.0 
1626.528564 18419.0 
1630.781982 7653.0 
1646.351562 18150.0 
1654.174316 107312.0 
1657.654053 12326.0 
1671.651855 265767.0 
1672.754883 314065.0 
1673.415283 182098.0 
1688.580566 58441.0 
1689.717773 5679580.0 
1690.844238 547027.0 
END IONS

