BEGIN IONS
PEPMASS=327.1
CHARGE=1+
MSLEVEL=2
SOURCE_INSTRUMENT=LC-ESI-Ion Trap
FILENAME=f.zhangyi/pure compounds/AUI-2_(unguinol)_pos.mzXML;
SEQ=*..*
IONMODE=Positive
ORGANISM=GNPS-LIBRARY
NAME=unguinol M+H
PI=William Gerwick
DATACOLLECTOR=Yi Zhang
SMILES=O=C1OC2=C(C(/C(C)=C/C)=CC(O)=C2C)OC3=CC(O)=CC(C)=C31
INCHI=InChI=1S/C19H18O5/c1-5-9(2)13-8-14(21)11(4)17-18(13)23-15-7-12(20)6-10(3)16(15)19(22)24-17/h5-8,20-21H,1-4H3/b9-5+
INCHIAUX=
PUBMED=
SUBMITUSER=zhangyi
LIBRARYQUALITY=3
SPECTRUMID=CCMSLIB00005436085
SCANS=338
151.127747 19806.0 
174.997314 2469.0 
203.239624 25247.0 
210.961731 5131.0 
220.903381 4558.0 
230.982086 7037.0 
243.348236 6921.0 
253.261932 9253.0 
262.846191 5697.0 
266.302612 1939.0 
267.190918 14434.0 
271.166626 290114.0 
273.010376 184082.0 
273.644409 4977.0 
281.025696 34066.0 
285.215454 4415311.0 
286.185669 322786.0 
286.901245 1.0 
290.976685 16688.0 
292.053223 7309.0 
294.243286 156701.0 
295.259399 25622.0 
297.846802 2736.0 
299.258667 38477.0 
309.113647 956604.0 
310.168579 23577.0 
311.182068 33914.0 
312.31604 10975.0 
327.166077 2574169.0 
328.158325 358896.0 
END IONS

