BEGIN IONS
PEPMASS=602.24
CHARGE=1+
MSLEVEL=2
SOURCE_INSTRUMENT=LC-ESI-QQQ
FILENAME=f.evgenia_glukhov/Standards/Vatiamide_C.mzXML;
SEQ=*..*
IONMODE=Positive
ORGANISM=GNPS-LIBRARY
NAME=Vatiamide C M+Na
PI=Gerwick
DATACOLLECTOR=Nathan Moss
SMILES=Cl/C=C(CCCC#C[H])\CC[C@@H](C)/C=C/CCC(NC[C@]1(O)[C@H]([C@@H](C[C@H](C[C@@]2([H])OC(C=C(OC)C2)=O)O1)OC)C)=O
INCHI=InChI=1S/C31H46ClNO7/c1-6-7-8-12-24(20-32)15-14-22(2)11-9-10-13-29(34)33-21-31(36)23(3)28(38-5)18-27(40-31)17-26-16-25(37-4)19-30(35)39-26/h1,9,11,19-20,22-23,26-28,36H,7-8,10,12-18,21H2,2-5H3,(H,33,34)/b11-9+,24-20-/t22-,23-,26-,27-,28+,31+/m0/s1
INCHIAUX=
PUBMED=31071229
SUBMITUSER=evgenia_glukhov
LIBRARYQUALITY=3
SPECTRUMID=CCMSLIB00005436460
SCANS=446
219.041382 4501.0 
232.988007 2799.0 
251.116455 28020.0 
264.422913 1197.0 
281.817139 3953.0 
286.893311 4069.0 
289.740112 3050.0 
303.83606 9205.0 
320.16272 6219.0 
374.206543 884.0 
399.692261 2414.0 
400.2948 1286.0 
440.162659 945.0 
448.030518 9254.0 
504.133728 13382.0 
534.143311 4305.0 
552.192749 44639.0 
552.807861 67.0 
562.265015 7695.0 
565.11377 8874.0 
566.2854 29216.0 
569.424683 13531.0 
570.272095 804559.0 
571.323242 1162.0 
584.194092 74689.0 
585.111694 3511.0 
601.388672 6918.0 
602.163818 1020677.0 
603.159912 22751.0 
END IONS

