BEGIN IONS
PEPMASS=1880.07
CHARGE=1+
MSLEVEL=2
SOURCE_INSTRUMENT=LC-ESI-Ion Trap
FILENAME=f.RReher/2226/2226H.mzXML;
SEQ=*..*
IONMODE=Positive
ORGANISM=GNPS-LIBRARY
NAME=Samholide A/B M+Na
PI=Gerwick
DATACOLLECTOR=Daojing Zhang
SMILES=C[C@H]1C[C@H](C[C@@H](O1)CC[C@H](C)[C@@H]([C@H](C)[C@@H]2C[C@@H](C[C@@H]([C@@H]([C@H](C[C@@H]3CC=C[C@H](O3)C[C@H](C/C=C(ccC(O[C@@H](C[C@@H](C[C@@H]([C@@H]([C@H](C[C@@H]4CC=C[C@H](O4)C[C@H](C/C=C(/C=C/C(O2)=O)C)O[C@@H]5[C@H]([C@@H]([C@H](CO5)OC)OC)OC([C@H](CO)O)=O)OC)C)O)O)[C@@H](C)[C@H]([C@@H](C)CC[C@H]6C[C@@H](C[C@@H](O6)C)OC)O)=O)\C)O[C@@H]7[C@H]([C@@H]([C@H](CO7)OC)OC)OC([C@@H](CO)O)=O)OC)C)O)O)O)OC
INCHI=
INCHIAUX=
PUBMED=29457979
SUBMITUSER=RReher
LIBRARYQUALITY=3
SPECTRUMID=CCMSLIB00005436031
SCANS=811
637.035645 705802.0 
641.314941 452249.0 
642.680786 284985.0 
665.381836 593564.0 
667.168091 853281.0 
681.082275 1121483.0 
682.410522 776648.0 
685.120117 1918360.0 
686.364014 853737.0 
687.505859 419797.0 
703.523682 2139080.0 
704.50293 1341482.0 
705.437988 891417.0 
706.634766 1372857.0 
718.728516 415928.0 
725.184814 385586.0 
737.234375 2649165.0 
739.4729 728415.0 
827.424194 690526.0 
845.485107 10413342.0 
846.479248 274969.0 
847.393799 218121.0 
863.377686 364133.0 
864.502686 610638.0 
916.316284 935451.0 
933.569824 4439077.0 
934.526123 1007690.0 
951.484375 80846320.0 
952.416992 38055840.0 
953.41748 5523467.0 
954.313965 1610064.0 
954.977051 90.0 
969.468018 951384.0 
970.30542 402586.0 
990.519653 568498.0 
1009.36377 714716.0 
1044.570801 399872.0 
1051.681641 408903.0 
1095.696777 453359.0 
1103.566406 553582.0 
1105.400635 703290.0 
1111.416992 660550.0 
1112.374023 901855.0 
1139.156738 213167.0 
1140.716064 824029.0 
1141.352295 458999.0 
1143.614014 674784.0 
1144.837158 291320.0 
1147.473145 811908.0 
1155.457764 3246764.0 
1156.225098 114.0 
1158.691162 543608.0 
1161.966309 1690799.0 
1162.712402 443.0 
1165.072754 817882.0 
1173.381592 1029380.0 
1174.533936 299815.0 
1175.405762 267219.0 
1179.942383 429752.0 
1195.500244 989986.0 
1196.414307 770306.0 
1209.354492 442976.0 
1249.938965 1324750.0 
1250.705566 80.0 
1256.520264 1106813.0 
1257.88916 921305.0 
1261.168457 400707.0 
1275.084473 838369.0 
1294.469482 434517.0 
1301.510254 686731.0 
1302.739746 376632.0 
1303.67627 4666446.0 
1304.643066 1532872.0 
1305.625732 1084256.0 
1315.568848 4199804.0 
1316.830566 1604653.0 
1317.74292 1284355.0 
1322.647949 699594.0 
1347.814209 381945.0 
1361.412598 518291.0 
1364.981934 837996.0 
1365.656738 212359.0 
1366.575195 397029.0 
1378.168213 268368.0 
1381.812744 772559.0 
1391.38623 171126.0 
1394.817383 458157.0 
1396.819336 406365.0 
1400.411377 1386079.0 
1401.087402 19.0 
1403.435059 808044.0 
1406.849121 1490797.0 
1409.735352 34580784.0 
1410.737793 29633152.0 
1411.67041 3417925.0 
1412.718018 3453525.0 
1413.416992 502.0 
1417.475586 1112362.0 
1418.086914 940.0 
1421.55127 36458832.0 
1422.604004 23203128.0 
1423.555908 5672014.0 
1424.534668 1623444.0 
1425.307129 997.0 
1431.47583 550340.0 
1450.846924 624130.0 
1461.55127 456693.0 
1462.676758 853361.0 
1478.51416 442337.0 
1489.703613 353011.0 
1503.579102 938261.0 
1506.78418 278966.0 
1507.791992 1545524.0 
1508.629395 25.0 
1523.589355 190186.0 
1525.881348 462113.0 
1526.787598 635682.0 
1546.948975 401237.0 
1548.555664 565923.0 
1553.764893 1528833.0 
1564.898682 1135541.0 
1565.931641 4834951.0 
1566.729492 816487.0 
1567.607666 863603.0 
1569.637207 2972663.0 
1570.819824 1428491.0 
1571.684814 3125425.0 
1572.431396 91.0 
1577.784668 248752.0 
1583.769531 2055730.0 
1584.864014 1942115.0 
1597.07251 1137728.0 
1597.674072 35.0 
1599.536621 341022.0 
1600.84082 904447.0 
1604.208496 338480.0 
1608.4104 251447.0 
1609.636475 9008832.0 
1610.581543 7934446.0 
1611.749512 1167556.0 
1612.978516 864384.0 
1613.770996 12733680.0 
1614.733398 10956876.0 
1615.734619 4088520.0 
1616.930908 3972535.0 
1617.704346 1302197.0 
1618.867188 533861.0 
1619.686279 345497.0 
1629.578613 315276.0 
1631.874756 13417692.0 
1632.76416 13438658.0 
1633.567871 3588718.0 
1634.743896 1206539.0 
1635.356201 81.0 
1647.90625 805082.0 
1648.739502 287167.0 
1649.927002 405842.0 
1650.546875 335321.0 
1658.751221 1215614.0 
1664.941895 290366.0 
1665.648438 12848602.0 
1666.666016 10338220.0 
1667.813232 3291655.0 
1668.713379 572121.0 
1706.696777 500974.0 
1719.755371 1000505.0 
1722.546631 785358.0 
1726.036133 478020.0 
1729.348877 495195.0 
1737.581055 699429.0 
1740.970703 359074.0 
1742.390869 567169.0 
1743.799805 298982.0 
1745.075439 2320222.0 
1745.686035 150.0 
1756.25415 518753.0 
1757.371582 459943.0 
1773.747314 18899624.0 
1774.800781 13329336.0 
1775.830078 10541644.0 
1776.860352 5890936.0 
1813.052246 757361.0 
1817.794189 202586.0 
1818.660889 458396.0 
1819.451172 247959.0 
1825.275391 421463.0 
1826.242188 534281.0 
1837.082031 426966.0 
1838.255371 802325.0 
1842.98291 821119.0 
1843.735107 370261.0 
1845.812256 391987.0 
1847.866943 854312.0 
1851.199463 245234.0 
1861.56665 6542734.0 
1862.755371 6008546.0 
1863.782959 4029942.0 
1864.402344 410159.0 
1880.126221 1562649.0 
END IONS

