BEGIN IONS
PEPMASS=693.0
CHARGE=0+
MSLEVEL=2
SOURCE_INSTRUMENT=LC-ESI-qTof
FILENAME=20121201_PAVL_Ger_LyngbyabellinA_MCl37H_693_qb.1.1..mgf
SEQ=*..*
IONMODE=Positive
ORGANISM=GNPS-LIBRARY
NAME=Lyngbyabellin A M+H
PI=Gerwick
DATACOLLECTOR=PAVL
SMILES=CC[C@H](C)[C@H]1C2=NC(=CS2)C(=O)O[C@H](C(C(=O)O[C@H](C3=NC(=CS3)C(=O)NCC(=O)N1)C(C)(C)O)(C)C)CCCC(C)(Cl)Cl
INCHI=InChI=1S/C29H40Cl2N4O7S2/c1-8-15(2)20-23-34-17(14-43-23)25(38)41-18(10-9-11-29(7,30)31)27(3,4)26(39)42-21(28(5,6)40)24-33-16(13-44-24)22(37)32-12-19(36)35-20/h13-15,18,20-21,40H,8-12H2,1-7H3,(H,32,37)(H,35,36)/t15-,18-,20-,21+/m0/s1
INCHIAUX=N/A
PUBMED=N/A
SUBMITUSER=mwang87
LIBRARYQUALITY=1
SPECTRUMID=CCMSLIB00000001630
SCANS=1
197.783325 1300831.0 
198.701019 84942.0 
208.812012 81667.0 
210.719543 2005262.0 
211.823944 163170.0 
212.726227 83537.0 
214.855591 2972520.0 
215.931458 15447.0 
216.778778 149501.0 
217.505524 12.0 
219.632233 48491.0 
220.81665 155724.0 
228.823151 84300.0 
236.897949 76207.0 
238.020782 40277.0 
238.771881 2256820.0 
239.761108 486330.0 
240.984924 144590.0 
248.441956 60849.0 
256.817505 268744.0 
291.201416 45909.0 
319.230896 99707.0 
321.983032 44261.0 
330.917969 29430.0 
333.756592 75193.0 
342.861816 66585.0 
353.833679 252008.0 
356.075195 53209.0 
356.828796 69699.0 
358.981445 202029.0 
361.104553 109165.0 
369.69281 150558.0 
381.327576 143218.0 
383.029297 72439.0 
390.93512 317133.0 
391.558105 51.0 
392.827515 374222.0 
394.856384 181932.0 
396.254883 62123.0 
398.676392 149676.0 
400.176392 522248.0 
401.313721 279276.0 
401.91687 239140.0 
405.085083 46973.0 
408.826782 35421.0 
412.895264 158839.0 
414.285767 321822.0 
414.959045 160442.0 
416.887695 3267596.0 
417.996216 1143779.0 
418.90448 2865703.0 
420.623535 237234.0 
422.7901 92279.0 
432.728943 219557.0 
434.926941 2337247.0 
435.96405 374418.0 
436.90863 213235.0 
437.845032 963895.0 
440.810181 1804173.0 
441.895081 629282.0 
442.752136 1708939.0 
443.491394 78.0 
448.85675 286986.0 
449.980896 84596.0 
450.867737 2444078.0 
451.563599 33.0 
452.787537 5270256.0 
453.802063 897919.0 
454.794434 8695544.0 
455.620911 127.0 
460.693726 148369.0 
471.145325 125765.0 
472.81073 113961.0 
475.566711 19583.0 
477.007263 400133.0 
477.849854 1312643.0 
478.744751 5463599.0 
479.424622 54.0 
488.599976 130321.0 
505.864807 82707.0 
579.714111 307681.0 
580.808838 69609.0 
597.634033 204018.0 
599.145264 354525.0 
599.888916 3.0 
606.395752 42469.0 
607.941406 50276.0 
611.966675 87088.0 
617.861084 318322.0 
619.968018 79901.0 
633.773926 192236.0 
634.933838 536064.0 
635.800537 2604961.0 
636.884766 539088.0 
637.595703 133672.0 
638.767578 1275640.0 
639.540283 19.0 
647.626953 164233.0 
654.841431 6784797.0 
655.940918 5180671.0 
656.900024 9201844.0 
657.644775 247.0 
663.133423 126811.0 
664.202881 275402.0 
664.915527 462262.0 
673.911255 478402.0 
674.842651 3045906.0 
675.832153 143982.0 
691.626465 51986.0 
END IONS

