BEGIN IONS
PEPMASS=271.24
CHARGE=1+
MSLEVEL=2
SOURCE_INSTRUMENT=LC-ESI-qTof
FILENAME=f.evgenia_glukhov/20150424_Apigenin.mzXML;
SEQ=*..*
IONMODE=Positive
ORGANISM=GNPS-LIBRARY
NAME=Apigenin M+H
PI=Dr. Gerwick
DATACOLLECTOR=Jenia
SMILES=c1cc(ccc1c2cc(=O)c3c(cc(cc3o2)O)O)O
INCHI=
INCHIAUX=
PUBMED=
SUBMITUSER=evgenia_glukhov
LIBRARYQUALITY=3
SPECTRUMID=CCMSLIB00000477991
SCANS=264
119.016281 7503.0 
147.201294 2335.0 
153.184509 24256.0 
162.908142 3929.0 
193.397797 1352.0 
203.00766 849.0 
225.205933 1548.0 
229.207306 1600.0 
243.777863 3004.0 
246.863739 2695.0 
248.011047 3726.0 
253.913635 2035.0 
269.694458 3173.0 
270.486694 1660.0 
271.204407 1390165.0 
272.203491 272407.0 
273.531982 4474.0 
END IONS

