BEGIN IONS
PEPMASS=490.0
CHARGE=2+
MSLEVEL=2
SOURCE_INSTRUMENT=LC-ESI-qTof
FILENAME=1E1_490MNa_RE1_01_9748.mzXML
SEQ=*..*
IONMODE=Positive
ORGANISM=GNPS-LIBRARY
NAME=Malyngamide T M+Na
PI=Dorrestein/Gerwick
DATACOLLECTOR=Peng/Luzzatto/Garg
SMILES=CCCCCCC[C@@H](C\C=C\CCC(=O)NC\C(CC1=CC(OC)=CC(=O)O1)=C\Cl)OC
INCHI=InChI=1S/C25H38ClNO5/c1-4-5-6-7-9-12-21(30-2)13-10-8-11-14-24(28)27-19-20(18-26)15-23-16-22(31-3)17-25(29)32-23/h8,10,16-18,21H,4-7,9,11-15,19H2,1-3H3,(H,27,28)/b10-8+,20-18+/t21-/m0/s1
INCHIAUX=ABBPFXQJIWUCKF-CXRCMLCDSA-N
PUBMED=ChemSpider ID:27022899
SUBMITUSER=y6peng
LIBRARYQUALITY=2
SPECTRUMID=CCMSLIB00000072502
SCANS=2351
94.946495 256.0 
114.260643 144.0 
120.933083 140.0 
123.115402 188.0 
131.601257 164.0 
132.396713 176.0 
134.0616 288.0 
144.936874 164.0 
147.716522 168.0 
156.092026 172.0 
157.856827 176.0 
162.025864 360.0 
166.090454 224.0 
169.000336 188.0 
171.713913 180.0 
172.013855 232.0 
172.030792 212.0 
172.272278 140.0 
174.370285 244.0 
174.572632 196.0 
182.472458 176.0 
183.004974 160.0 
188.075241 308.0 
192.118454 212.0 
194.425186 192.0 
197.855133 152.0 
198.959259 168.0 
202.595825 152.0 
204.380951 208.0 
207.174957 164.0 
208.563278 172.0 
211.006866 180.0 
211.533173 248.0 
215.029861 312.0 
217.043396 172.0 
218.03804 164.0 
220.300064 224.0 
221.077377 152.0 
221.616089 228.0 
230.055969 144.0 
231.055893 184.0 
232.053864 372.0 
233.059189 156.0 
234.534592 140.0 
238.518372 160.0 
243.220917 156.0 
244.771667 192.0 
245.407059 172.0 
246.627182 148.0 
246.789688 220.0 
249.767776 232.0 
254.998611 160.0 
256.385651 224.0 
258.076874 204.0 
258.479706 208.0 
259.039764 188.0 
259.276764 152.0 
260.078247 164.0 
264.70929 176.0 
270.368225 160.0 
273.330322 192.0 
278.190155 220.0 
279.040283 204.0 
280.477844 252.0 
283.009125 160.0 
283.648773 164.0 
288.918396 204.0 
289.397278 172.0 
289.593628 140.0 
289.817108 176.0 
290.199951 160.0 
295.046234 212.0 
295.394928 180.0 
304.185669 252.0 
304.515381 192.0 
307.867889 176.0 
309.360291 188.0 
310.813141 188.0 
312.12738 192.0 
312.369965 280.0 
312.918732 212.0 
317.322754 140.0 
318.962219 188.0 
321.839661 216.0 
322.618195 252.0 
323.386963 148.0 
323.544403 252.0 
327.568451 176.0 
329.411041 152.0 
329.634949 172.0 
329.757782 180.0 
331.900024 196.0 
332.092163 168.0 
332.211823 152.0 
332.30249 252.0 
335.206543 188.0 
336.482666 224.0 
337.724609 144.0 
340.009918 200.0 
343.559296 144.0 
344.396881 228.0 
345.139404 184.0 
345.442566 148.0 
345.75235 216.0 
345.864227 176.0 
347.086304 168.0 
347.902222 172.0 
348.095215 148.0 
352.698242 168.0 
353.689575 124.0 
354.53891 152.0 
356.52713 268.0 
357.038208 256.0 
357.598572 160.0 
359.293579 152.0 
360.981262 240.0 
361.843597 264.0 
366.833527 208.0 
369.062225 160.0 
369.781128 144.0 
370.968079 140.0 
371.144348 264.0 
371.221008 252.0 
371.270844 180.0 
372.732849 152.0 
374.093811 196.0 
376.761383 232.0 
376.89267 140.0 
380.199402 168.0 
382.696869 236.0 
384.290344 164.0 
388.694427 168.0 
389.59317 192.0 
394.059052 212.0 
394.134094 148.0 
395.126099 160.0 
395.968903 188.0 
396.614471 160.0 
397.561981 144.0 
398.264435 180.0 
400.753784 200.0 
402.2966 156.0 
402.544037 168.0 
404.538361 200.0 
406.196686 148.0 
408.457306 188.0 
411.091187 200.0 
411.522919 196.0 
417.863403 208.0 
418.754517 176.0 
419.059937 160.0 
419.516205 212.0 
422.259033 260.0 
424.204742 196.0 
424.768829 156.0 
425.072327 216.0 
425.827393 304.0 
426.924255 212.0 
427.249084 144.0 
427.849701 220.0 
432.285004 172.0 
432.570465 280.0 
433.613831 236.0 
436.959381 256.0 
437.229767 152.0 
437.558472 232.0 
438.225006 696.0 
438.745331 268.0 
439.120483 140.0 
439.215698 176.0 
439.979736 204.0 
440.20929 184.0 
440.284424 164.0 
442.089691 192.0 
442.21936 164.0 
442.369995 164.0 
442.943451 160.0 
443.613678 212.0 
444.78775 224.0 
446.29953 144.0 
446.341583 168.0 
449.145294 172.0 
449.870819 208.0 
450.264404 176.0 
450.901031 216.0 
454.715454 216.0 
454.766357 172.0 
455.24707 156.0 
456.231354 544.0 
457.242279 164.0 
457.719818 212.0 
458.20517 160.0 
458.2435 140.0 
459.232086 176.0 
459.453827 228.0 
460.789581 188.0 
461.451782 196.0 
462.097351 164.0 
465.482147 140.0 
468.229034 256.0 
470.000092 216.0 
470.25766 168.0 
470.7034 164.0 
471.252655 244.0 
471.463379 164.0 
471.627563 156.0 
472.864075 172.0 
473.846649 160.0 
474.353485 208.0 
474.500824 224.0 
474.851929 192.0 
475.662964 172.0 
477.343689 184.0 
477.489655 208.0 
478.322205 148.0 
482.01474 140.0 
482.416687 196.0 
482.499725 140.0 
482.547791 160.0 
483.460297 248.0 
483.604218 176.0 
483.911407 236.0 
484.475006 120.0 
485.236084 120.0 
485.787292 164.0 
486.034302 124.0 
486.298431 292.0 
486.357483 208.0 
486.427704 140.0 
486.603241 144.0 
486.891846 112.0 
487.179321 316.0 
487.233795 208.0 
487.65271 180.0 
487.787048 200.0 
487.954163 152.0 
488.377869 172.0 
488.678345 256.0 
488.874847 164.0 
488.94931 168.0 
489.155243 212.0 
489.193817 184.0 
489.252747 148.0 
489.32251 172.0 
489.375305 156.0 
489.411652 188.0 
489.556915 196.0 
489.671356 192.0 
489.728607 104.0 
489.8125 348.0 
489.856293 216.0 
489.914886 176.0 
489.967499 156.0 
490.008423 196.0 
490.05188 144.0 
490.082703 136.0 
490.144714 408.0 
490.234558 106368.0 
490.446503 160.0 
490.558563 120.0 
490.589905 140.0 
490.625183 196.0 
490.692322 128.0 
490.76593 196.0 
490.806458 124.0 
490.874603 124.0 
490.924377 116.0 
490.960052 436.0 
491.030426 148.0 
491.135712 316.0 
491.237 29648.0 
491.393005 128.0 
491.442291 108.0 
491.570862 192.0 
491.655914 100.0 
491.744812 112.0 
491.771667 220.0 
491.85083 168.0 
491.987152 456.0 
492.044281 128.0 
492.137756 352.0 
492.231781 29384.0 
492.400085 168.0 
492.51178 240.0 
492.713806 136.0 
492.798584 120.0 
492.827301 224.0 
492.983948 120.0 
493.093658 236.0 
493.137848 232.0 
493.234924 6912.0 
493.318146 168.0 
493.41394 132.0 
493.550873 188.0 
493.623474 224.0 
493.702271 184.0 
493.737701 196.0 
493.788147 140.0 
493.927612 132.0 
494.156311 228.0 
494.191101 108.0 
494.240875 568.0 
494.310028 284.0 
494.605743 172.0 
494.849121 144.0 
495.243073 224.0 
496.195465 144.0 
496.953583 156.0 
507.394897 184.0 
508.812042 168.0 
513.674805 156.0 
524.079956 228.0 
591.170776 164.0 
595.357605 152.0 
647.58197 144.0 
656.797791 124.0 
689.005249 140.0 
690.107605 140.0 
694.546753 168.0 
793.873413 148.0 
823.969727 188.0 
854.218811 144.0 
904.239685 144.0 
913.692871 148.0 
1016.521484 168.0 
1068.602539 148.0 
1083.200684 148.0 
1275.792603 152.0 
1412.573242 140.0 
1466.025024 176.0 
1786.286499 216.0 
END IONS

