BEGIN IONS
PEPMASS=1203.66
CHARGE=1+
MSLEVEL=2
SOURCE_INSTRUMENT=LC-ESI-Orbitrap
FILENAME=f.RReher/Culebra/pure_compounds/1186/Rivulariapeptolide1185_MS2_M+NH4_5.53_QE.mgf;
SEQ=*..*
IONMODE=Positive
ORGANISM=GNPS-LIBRARY
NAME=Rivulariapeptolide 1185 M+NH4
PI=Gerwick
DATACOLLECTOR=Raphael Reher
SMILES=CC(C)[C@H](NC([C@H](CC1=CC=C(O)C=C1)N(C)C([C@H](CC2=CC=CC=C2)N3[C@H](O)CC[C@H](NC(C(CC(C)C)NC4=O)=O)C3=O)=O)=O)C(O[C@H](C)[C@@H]4NC([C@H]([C@@H](OC(C5N(C(CCC)=O)CCC5)=O)C)NC(C6CCCN6C(CCC)=O)=O)=O)=O
INCHI=
INCHIAUX=
PUBMED=
SUBMITUSER=RReher
LIBRARYQUALITY=3
SPECTRUMID=CCMSLIB00005723390
SCANS=1
86.09697 946502.9375 
91.054802 802434.0 
91.947151 432793.5625 
91.951935 350526.53125 
102.12381 251510.6875 
120.081146 8148566.0 
121.06572 340176.4375 
136.075821 682064.375 
136.400177 318527.90625 
138.091293 340503.46875 
140.107193 46998660.0 
150.091583 14146149.0 
153.102188 674933.125 
158.096527 1707909.875 
168.102142 44513848.0 
170.096298 1604995.5 
172.112076 811835.1875 
181.097778 1853667.0 
181.133484 471775.65625 
186.111282 606003.625 
187.123245 3067327.0 
197.128708 308782.4375 
215.117844 7835305.0 
223.122971 612746.5625 
223.144455 12025821.0 
226.084717 432806.34375 
239.563599 293759.6875 
241.154572 2280287.5 
243.112793 5611365.0 
249.159439 396656.8125 
251.139114 8626372.0 
264.136475 454927.09375 
283.18103 2055322.125 
295.164917 1009500.4375 
308.129333 1480614.625 
308.159027 354273.75 
309.891663 355507.4375 
311.174805 875614.0625 
328.200684 724668.125 
334.176331 21128530.0 
350.207062 378710.3125 
352.185791 685978.5625 
356.196075 446597.28125 
408.249756 3351568.25 
419.264618 836218.8125 
420.192291 4793659.0 
436.244812 9400137.0 
447.25824 820249.9375 
519.280273 1857963.625 
533.274353 452166.3125 
632.368225 1383167.25 
715.376465 1318247.5 
733.396729 1571334.625 
1226.635498 369207.5625 
END IONS

