BEGIN IONS
PEPMASS=1060.41
CHARGE=1+
MSLEVEL=2
SOURCE_INSTRUMENT=LC-ESI-Orbitrap
FILENAME=f.RReher/Culebra/pure_compounds/1041_Br_MolassamideB/1043.3903_MS2_M+NH4_Br81_QE.mgf;
SEQ=*..*
IONMODE=Positive
ORGANISM=GNPS-LIBRARY
NAME=Molassamide B M+NH4
PI=Gerwick
DATACOLLECTOR=Raphael Reher
SMILES=CCCC(NC(C(NC(C(NC1C(C)OC(C(C(C)C)NC(C(CC2=CC=C(O)C(Br)=C2)N(C)C(C(CC3=CC=CC=C3)N4C(O)CCC(NC(/C(NC1=O)=C\C)=O)C4=O)=O)=O)=O)=O)C(O)C)=O)C)=O
INCHI=
INCHIAUX=
PUBMED=
SUBMITUSER=RReher
LIBRARYQUALITY=3
SPECTRUMID=CCMSLIB00005723406
SCANS=1
84.042786 9593.108398 
84.043518 21295.058594 
84.044243 30985.117188 
84.044975 31864.269531 
84.045708 23241.056641 
84.04644 11471.782227 
89.049072 8487.087891 
89.049866 14053.165039 
89.050667 16337.012695 
89.05146 13961.345703 
89.052261 8545.577148 
91.051651 5501.226074 
91.052475 30754.035156 
91.053299 76416.195312 
91.054123 125875.71875 
91.054947 140834.921875 
91.055771 97020.296875 
91.056595 50977.652344 
91.057419 13971.954102 
91.058243 2207.689453 
91.495026 8781.424805 
91.495857 17467.570312 
91.496689 22723.84375 
91.49752 20874.558594 
91.498344 13568.109375 
91.499176 5705.569824 
95.813377 9498.367188 
95.81427 14927.146484 
95.815155 16507.935547 
95.816048 13470.308594 
95.816933 7690.716309 
110.05751 8484.469727 
110.058601 20057.931641 
110.0597 29079.728516 
110.060791 29249.882812 
110.06189 20740.113281 
110.062981 9797.397461 
113.067032 4557.128906 
113.068176 11458.228516 
113.069313 22488.892578 
113.070457 43478.058594 
113.071594 46404.136719 
113.072739 24297.287109 
113.073875 12690.613281 
113.07502 4517.212402 
114.087669 2863.861816 
114.088821 17515.076172 
114.089981 43720.210938 
114.091133 71165.4375 
114.092293 73673.046875 
114.093445 47792.824219 
114.094604 22826.853516 
114.095757 6746.483398 
120.070259 9584.292969 
120.071503 21545.533203 
120.072754 48631.707031 
120.073997 77693.960938 
120.075249 86761.039062 
120.0765 268595.9375 
120.077744 992124.875 
120.078995 2177973.25 
120.080238 3458532.5 
120.08149 3637251.25 
120.082741 2414905.5 
120.083984 1221374.375 
120.085236 360671.90625 
120.086479 121678.046875 
120.08773 91878.398438 
120.088982 62832.320312 
120.090225 25952.394531 
120.091476 12830.03418 
121.07901 4223.17041 
121.080276 14215.535156 
121.081543 45903.523438 
121.082802 90951.90625 
121.084068 137474.703125 
121.085335 131010.570312 
121.086594 80582.328125 
121.08786 34220.84375 
121.089127 5317.372559 
123.521088 8706.836914 
123.522385 17218.207031 
123.523689 23197.888672 
123.524994 22310.769531 
123.526291 14856.240234 
123.527596 6021.611328 
138.088211 13457.514648 
138.089752 20523.779297 
138.091278 21340.253906 
138.092819 15175.25293 
138.09436 6579.843262 
139.079987 1184.066772 
139.081543 19368.183594 
139.083099 74141.734375 
139.084656 140618.375 
139.086212 201120.828125 
139.087769 174906.09375 
139.089325 105923.804688 
139.090881 42895.691406 
139.092438 10703.391602 
139.093994 1424.794312 
142.078888 2053.977539 
142.08049 20383.111328 
142.082092 87496.710938 
142.08371 190376.828125 
142.085312 301372.46875 
142.086914 311279.09375 
142.088516 204745.328125 
142.090134 102200.796875 
142.091736 29598.160156 
142.093338 8972.869141 
146.092743 12375.120117 
146.094406 24419.304688 
146.096085 31741.255859 
146.097763 29177.529297 
146.099442 18792.855469 
146.101105 7728.841797 
149.066772 8456.121094 
149.068512 15510.785156 
149.070236 20657.707031 
149.07196 21794.275391 
149.073685 17904.308594 
149.075409 11625.325195 
149.077133 3306.050781 
149.078857 14448.010742 
149.080597 38427.425781 
149.082321 64231.542969 
149.084045 74052.4375 
149.08577 51372.824219 
149.087494 26431.017578 
149.089218 6400.094238 
153.06044 5297.098633 
153.062225 24961.050781 
153.064026 46847.6875 
153.065826 65875.664062 
153.067612 55714.394531 
153.069412 33631.929688 
153.071213 9601.142578 
153.073013 2546.546143 
155.075577 7754.041992 
155.077408 19556.605469 
155.079239 48431.4375 
155.08107 62834.777344 
155.082901 48867.578125 
155.084732 27423.019531 
155.086563 5339.852539 
157.091629 6967.327637 
157.093491 30187.927734 
157.095367 54936.207031 
157.097229 73537.625 
157.099091 57789.863281 
157.100967 33155.148438 
157.102829 10515.875977 
157.104706 4755.787109 
158.086075 8464.561523 
158.087952 14905.086914 
158.089844 58831.8125 
158.091721 216677.546875 
158.093613 451678.03125 
158.095505 703072.0 
158.097382 707387.5625 
158.099274 458353.75 
158.101151 223723.734375 
158.103043 64310.351562 
158.104919 20172.921875 
158.106812 13982.597656 
158.108704 6992.969238 
159.095779 14556.145508 
159.097672 26830.183594 
159.099579 34221.046875 
159.101486 31812.84375 
159.103394 21622.580078 
159.105286 10215.793945 
167.071381 2359.919922 
167.073425 14667.28418 
167.07547 61798.5625 
167.07753 187296.734375 
167.079575 320675.8125 
167.081619 411888.75 
167.083664 316456.6875 
167.085724 183981.546875 
167.087769 59971.246094 
167.089813 15185.535156 
167.091858 2533.327637 
168.07962 11349.263672 
168.08168 17083.427734 
168.08374 18977.382812 
168.085815 15678.886719 
168.087875 8934.470703 
170.08786 9316.932617 
170.089966 36092.566406 
170.092072 118501.609375 
170.094177 211303.5 
170.096283 284283.84375 
170.098373 226831.3125 
170.100479 132207.171875 
170.102585 43836.875 
170.104691 10816.613281 
170.106796 4204.104492 
173.087296 14094.568359 
173.089447 27140.0625 
173.091614 34391.589844 
173.093781 30533.564453 
173.095932 18817.867188 
173.098099 7424.024414 
178.091919 13592.693359 
178.094162 25848.849609 
178.09642 33118.84375 
178.098679 29831.832031 
178.100937 18482.808594 
178.10318 7228.501953 
179.071991 9556.382812 
179.074265 43382.882812 
179.076538 148394.453125 
179.078812 270881.84375 
179.081085 378507.3125 
179.083359 320455.59375 
179.085632 191596.671875 
179.087906 73958.445312 
179.090179 16735.302734 
179.092453 1914.242554 
185.085754 9722.914062 
185.08815 19673.773438 
185.09053 28877.207031 
185.092926 31498.048828 
185.095306 25301.478516 
185.097702 14073.677734 
186.95311 8652.056641 
186.955536 19072.287109 
186.957962 25752.396484 
186.960388 24062.535156 
186.962814 15624.358398 
186.96524 6278.283203 
187.105881 2354.946289 
187.108307 11894.663086 
187.110733 13639.791016 
187.113159 40500.898438 
187.115585 163534.796875 
187.118027 521171.40625 
187.120453 910639.6875 
187.122879 1206469.0 
187.125305 956585.6875 
187.127731 564221.875 
187.130157 196619.71875 
187.132584 55338.714844 
187.13501 22763.291016 
187.137451 22148.724609 
187.139877 13695.71582 
187.142303 6214.133301 
188.117462 4200.861816 
188.119919 16237.902344 
188.12236 37615.671875 
188.124817 60362.921875 
188.127258 65428.335938 
188.1297 44472.164062 
188.132156 23056.669922 
188.134598 6258.035645 
193.091431 9725.521484 
193.093979 20581.630859 
193.096527 26995.189453 
193.099075 23462.457031 
193.101608 13010.131836 
195.071228 8822.082031 
195.073822 17884.232422 
195.076401 21843.322266 
195.078979 17721.232422 
195.081573 9147.62207 
197.118134 2673.457275 
197.120758 14940.581055 
197.123398 50501.890625 
197.126022 88025.03125 
197.128647 111056.34375 
197.131271 81996.921875 
197.133896 44978.789062 
197.13652 12231.824219 
197.139145 2407.480713 
198.085281 14367.071289 
198.087936 27062.253906 
198.090576 34198.207031 
198.093216 30646.925781 
198.095871 19308.849609 
198.098511 8093.37207 
199.101959 13836.989258 
199.104614 25994.285156 
199.107285 32917.644531 
199.109955 29517.445312 
199.11261 18526.398438 
199.11528 7387.600586 
204.105408 7346.336426 
204.108185 17376.878906 
204.110947 27150.650391 
204.113708 30025.177734 
204.116486 23723.599609 
204.119247 12710.017578 
206.083374 10782.15918 
206.086182 23254.732422 
206.088989 37081.4375 
206.091797 44288.28125 
206.094604 39479.046875 
206.097412 25296.404297 
206.100204 10683.87793 
207.069016 8140.402344 
207.071854 20800.111328 
207.074677 31900.912109 
207.077499 32951.585938 
207.080322 22689.230469 
207.08316 9393.524414 
213.092865 6541.353516 
213.09581 21433.376953 
213.098755 42393.148438 
213.101715 60227.199219 
213.10466 48603.878906 
213.107605 26535.806641 
213.110565 5038.538086 
215.092438 7115.029785 
215.095428 18596.599609 
215.098434 41549.992188 
215.101425 60167.765625 
215.104416 70421.335938 
215.107407 228969.9375 
215.110397 838238.875 
215.113388 1756850.0 
215.116379 2738525.0 
215.11937 2755287.0 
215.12236 1785145.875 
215.125366 870112.4375 
215.128357 255492.6875 
215.131348 97937.226562 
215.134338 88606.671875 
215.137329 72024.96875 
215.14032 42376.636719 
215.143311 6885.810547 
216.110352 9445.494141 
216.113373 39423.210938 
216.116379 90418.539062 
216.119385 145253.390625 
216.122406 154962.28125 
216.125412 102488.796875 
216.128433 50725.714844 
216.131454 11992.810547 
216.13446 963.591858 
222.117905 11624.12207 
222.121048 19233.416016 
222.124191 22914.609375 
222.127335 20320.763672 
222.130463 13246.713867 
224.089676 2249.759277 
224.09285 19995.972656 
224.096039 74713.03125 
224.099213 132973.265625 
224.102402 176184.28125 
224.105576 137211.96875 
224.108765 79067.148438 
224.111954 26628.697266 
224.115128 10058.791992 
225.112167 6015.604492 
225.115372 21022.449219 
225.118576 49946.730469 
225.12178 80743.820312 
225.124985 84072.945312 
225.128189 53367.367188 
225.131378 23665.675781 
225.134583 3463.551025 
226.079239 10907.073242 
226.082474 22566.550781 
226.085693 31076.177734 
226.088913 31188.962891 
226.092148 23147.224609 
226.095367 12331.386719 
227.98703 9994.579102 
227.990295 35378.484375 
227.993561 132230.171875 
227.996826 280718.0 
228.000092 439451.9375 
228.003357 443069.0625 
228.006622 286252.84375 
228.009888 138365.328125 
228.013153 38346.617188 
228.016418 12254.443359 
228.019684 9871.585938 
228.993225 9473.658203 
228.996521 36409.125 
228.999802 91864.578125 
229.003098 151873.109375 
229.006378 174235.828125 
229.009659 120197.773438 
229.012955 61462.554688 
229.016235 13735.924805 
229.019531 878.561157 
229.972107 5296.398926 
229.975403 13251.859375 
229.978714 47317.746094 
229.982025 69020.898438 
229.985336 98199.453125 
229.988647 338411.46875 
229.991943 1180905.25 
229.995255 2316120.0 
229.998566 3459264.25 
230.001877 3243053.5 
230.005188 2037958.125 
230.008484 923980.9375 
230.011795 266235.125 
230.015106 95385.265625 
230.018417 74286.234375 
230.021729 35124.015625 
230.02504 5252.936035 
234.081848 12662.290039 
234.085251 21169.4375 
234.088654 25180.837891 
234.092041 21793.541016 
234.095444 13358.195312 
241.090408 14910.811523 
241.093964 24034.910156 
241.097504 26743.080078 
241.101059 20996.039062 
241.104614 10920.470703 
242.10553 11837.255859 
242.1091 23203.111328 
242.112671 30531.197266 
242.116257 28113.289062 
242.119827 17441.574219 
242.123398 6233.515137 
243.09111 10107.736328 
243.094696 17124.048828 
243.098297 60013.460938 
243.101898 263921.4375 
243.105484 874913.125 
243.109085 1521484.5 
243.112671 1968673.5 
243.116272 1519252.375 
243.119873 878800.1875 
243.123459 305272.5625 
243.12706 168836.59375 
243.130737 222516.890625 
243.134323 283406.1875 
243.137924 231473.890625 
243.141525 119334.710938 
243.145111 9755.314453 
244.100662 3553.040039 
244.104279 17683.837891 
244.107895 65988.71875 
244.111511 123167.242188 
244.115128 172939.0625 
244.118744 147122.96875 
244.12236 88930.71875 
244.125992 34780.0 
244.129608 14062.535156 
244.133224 13790.321289 
244.13707 26581.876953 
244.140686 21465.492188 
244.144302 11279.101562 
245.109634 10423.102539 
245.113266 24519.591797 
245.116913 39269.414062 
245.120544 44089.847656 
245.124191 35120.507812 
245.127823 19008.478516 
245.13147 6111.537598 
250.101349 5834.307129 
250.105103 16388.695312 
250.108856 67385.046875 
250.11261 144668.046875 
250.116364 225947.203125 
250.120117 224383.515625 
250.123871 143600.0 
250.127609 68198.789062 
250.131363 20203.447266 
250.135117 6443.405762 
253.122787 11321.350586 
253.126602 23620.919922 
253.130432 34146.246094 
253.134247 36124.089844 
253.138062 28345.271484 
253.141891 15987.608398 
253.145706 6119.562012 
257.981567 6945.602051 
257.985504 16827.482422 
257.989441 27111.976562 
257.993347 31125.832031 
257.997284 25667.136719 
258.001221 14361.509766 
260.093231 11130.849609 
260.097229 22974.234375 
260.101196 31060.667969 
260.105194 29294.560547 
260.109161 19124.626953 
260.113129 7827.205566 
268.099396 2809.258301 
268.103577 10469.549805 
268.107727 14262.828125 
268.111908 31258.914062 
268.116058 115798.6875 
268.120209 375599.40625 
268.12439 675561.875 
268.12854 927303.125 
268.132721 767243.3125 
268.136871 457944.53125 
268.141052 170214.296875 
268.145203 44998.15625 
268.149384 17810.441406 
268.153473 19445.0625 
268.157623 14053.588867 
268.161804 8396.043945 
269.118164 6187.274414 
269.122345 15733.848633 
269.126526 26552.117188 
269.130737 47600.589844 
269.134918 26932.953125 
269.139099 15995.000977 
269.14328 6176.608887 
270.147034 6850.472168 
270.151245 18722.072266 
270.155457 32418.929688 
270.159668 37755.765625 
270.163879 30768.158203 
270.168091 16981.53125 
270.172302 5416.753906 
278.105774 12939.899414 
278.110168 20390.876953 
278.114563 22464.677734 
278.118958 17936.214844 
278.123352 9920.961914 
280.158173 9621.945312 
280.162628 17875.259766 
280.167053 20881.681641 
280.171509 16305.666016 
280.175964 7969.442871 
298.134033 4876.916992 
298.138916 26983.337891 
298.143799 92754.359375 
298.148682 169146.828125 
298.153564 234875.3125 
298.158447 196229.765625 
298.16333 117084.242188 
298.168213 46184.792969 
298.173096 14922.820312 
298.177979 5610.258789 
299.152649 14314.257812 
299.157562 21730.332031 
299.162445 22245.970703 
299.167358 15702.751953 
299.172272 6908.699219 
308.144531 9945.102539 
308.149658 38453.609375 
308.154785 69853.28125 
308.159912 94434.789062 
308.165039 75425.171875 
308.170166 43516.894531 
308.175293 13638.016602 
308.18045 6424.290039 
321.143005 15117.223633 
321.148468 28986.207031 
321.153931 37678.71875 
321.159363 34732.890625 
321.164825 22295.279297 
321.170288 9255.977539 
326.128113 11927.664062 
326.133698 65151.445312 
326.139282 151698.609375 
326.144867 245359.65625 
326.150452 260805.78125 
326.156036 175683.890625 
326.161621 91912.953125 
326.167206 32171.207031 
326.172791 13867.073242 
326.178406 7858.678223 
329.048157 4494.891113 
329.053833 13001.628906 
329.059479 33079.777344 
329.065155 50774.191406 
329.070801 49153.84375 
329.076477 30078.857422 
329.082123 12331.958984 
329.087799 4521.212891 
375.049683 15491.724609 
375.05658 64398.199219 
375.063477 128107.53125 
375.070374 191965.3125 
375.07724 177946.53125 
375.084137 111028.226562 
375.091034 49555.71875 
375.097931 12334.706055 
375.104828 1632.244995 
386.011078 3656.203857 
386.01828 10573.255859 
386.025482 26008.322266 
386.032684 44938.535156 
386.039856 51678.308594 
386.047058 35955.03125 
386.05426 14546.121094 
386.061462 5306.138672 
388.004242 8482.060547 
388.011475 24386.066406 
388.018738 84556.6875 
388.02597 169349.578125 
388.033234 256421.875 
388.040497 245754.46875 
388.047729 154140.546875 
388.054993 69777.46875 
388.062225 17273.773438 
388.069489 2143.408691 
391.163239 4315.502441 
391.170593 17661.466797 
391.177917 61473.332031 
391.185272 138882.25 
391.192596 224171.671875 
391.199951 249556.53125 
391.207275 171323.53125 
391.21463 89860.523438 
391.221954 22459.398438 
391.229309 435.184265 
409.167603 15568.487305 
409.175446 25276.214844 
409.183289 65670.9375 
409.191132 192780.296875 
409.199005 346459.25 
409.206848 482201.5 
409.214691 411910.25 
409.222534 247281.921875 
409.230408 93765.117188 
409.238251 18638.912109 
409.246094 1273.840332 
412.086456 9904.891602 
412.094391 16046.650391 
412.102325 19769.150391 
412.11026 18512.634766 
412.118195 12904.887695 
470.436188 10037.928711 
470.445862 18007.759766 
470.455536 21495.632812 
470.46521 17534.371094 
470.474884 8822.645508 
498.058228 6401.379883 
498.068756 13251.807617 
498.079315 43208.636719 
498.089844 80362.359375 
498.100403 113822.742188 
498.110931 97894.851562 
498.12149 57898.527344 
498.132019 20412.142578 
498.142578 1423.29834 
499.059875 6030.573242 
499.070465 16586.832031 
499.081024 52925.914062 
499.091614 98240.359375 
499.102173 139921.390625 
499.112762 122578.078125 
499.123322 72986.65625 
499.133911 27108.253906 
499.144501 2722.807617 
500.023529 9575.917969 
500.034119 25111.6875 
500.044739 42167.476562 
500.055328 75523.523438 
500.065948 220794.390625 
500.076538 681424.375 
500.087158 1259044.875 
500.097778 1802587.0 
500.108368 1598000.375 
500.118988 976200.0625 
500.129578 400442.21875 
500.140198 91753.539062 
500.150818 17153.777344 
500.160004 19022.601562 
500.170624 9037.717773 
583.081299 4022.183838 
583.094666 20886.734375 
583.108032 67248.75 
583.121399 124263.179688 
583.134766 177646.078125 
583.148132 159123.375 
583.161438 97293.476562 
583.174805 39891.503906 
583.188171 5854.904297 
783.203796 4789.463867 
783.224548 14401.963867 
783.245361 34075.292969 
783.266174 47682.566406 
783.286926 37500.632812 
783.307739 19636.753906 
783.328552 8300.029297 
884.236206 15633.175781 
884.261108 29601.595703 
884.286072 37845.058594 
884.311035 33589.320312 
884.335938 19883.240234 
884.360901 7106.867676 
1025.31665 12680.904297 
1025.347778 23185.828125 
1025.379028 28462.474609 
1025.410156 24464.460938 
1025.441284 14089.087891 
END IONS

