BEGIN IONS
PEPMASS=1770.07
CHARGE=1+
MSLEVEL=2
SOURCE_INSTRUMENT=LC-ESI-qTof
FILENAME=f.RReher/2264/MaXis/2264_H_4_BD8_01_48196.mzXML;
SEQ=*..*
IONMODE=Positive
ORGANISM=GNPS-LIBRARY
NAME=Samholide E/F/G M+H
PI=Gerwick
DATACOLLECTOR=RReher
SMILES=C[C@H]1C[C@H](C[C@@H](O1)CC[C@H](C)[C@@H]([C@H](C)[C@@H]2C[C@@H](C[C@@H]([C@@H]([C@H](C[C@@H]3CC=C[C@H](O3)C[C@H](Ccc(/C=C/C(O[C@@H](C[C@@H](C[C@@H]([C@@H]([C@H](C[C@@H]4CC=C[C@H](O4)C[C@H](Ccc(/C=C/C(O2)=O)C)O[C@@H]5[C@H]([C@@H]([C@H](CO5)OC)OC)O)OC)C)O)O)[C@@H](C)[C@H]([C@@H](C)CC[C@H]6C[C@@H](C[C@@H](O6)C)OC)O)=O)C)O[C@@H]7[C@H]([C@@H]([C@H](CO7)OC)OC)OC([C@@H](CO)O)=O)OC)C)O)O)O)OC
INCHI=
INCHIAUX=
PUBMED=
SUBMITUSER=RReher
LIBRARYQUALITY=3
SPECTRUMID=CCMSLIB00005463858
SCANS=1642
53.971821 65.0 
65.001381 73.0 
68.996544 1108.0 
71.012115 117.0 
79.018517 197.0 
80.998482 186.0 
81.033241 225.0 
82.037338 93.0 
83.018265 80.0 
83.050827 91.0 
84.993988 124.0 
85.031326 249.0 
87.993935 63.0 
88.98996 187.0 
91.021538 148.0 
93.03627 368.0 
94.04216 134.0 
95.016586 895.0 
95.05294 441.0 
96.018196 98.0 
96.460762 61.0 
96.996315 15864.0 
97.033287 733.0 
98.00013 514.0 
99.01091 420.0 
99.049072 841.0 
101.028374 3474.0 
102.032166 278.0 
103.008202 462.0 
103.040428 147.0 
104.014534 132.0 
105.038216 577.0 
107.022079 114.0 
107.05455 763.0 
108.058838 84.0 
109.032623 120.0 
109.071121 596.0 
111.013916 2669.0 
111.049393 690.0 
112.015106 247.0 
113.028778 190.0 
113.067436 153.0 
115.045616 392.0 
116.989136 4185.0 
117.040367 260.0 
117.993835 302.0 
118.994514 101.0 
119.020699 161.0 
119.055328 590.0 
120.997688 72.0 
121.021072 207.0 
121.034729 298.0 
121.072388 699.0 
123.052452 3192.0 
123.090019 252.0 
124.056358 314.0 
125.031364 294.0 
125.067802 976.0 
126.033676 89.0 
127.011665 91.0 
127.047829 297.0 
129.026489 2390.0 
129.063446 1330.0 
130.033585 139.0 
130.067245 92.0 
131.006744 4213.0 
131.057953 456.0 
132.010422 175.0 
133.074097 991.0 
134.073929 65.0 
135.054398 287.0 
135.08992 970.0 
136.093658 196.0 
137.032562 400.0 
137.070282 872.0 
137.105682 379.0 
139.012466 2018.0 
139.048462 493.0 
139.085281 867.0 
140.016052 110.0 
140.050293 90.0 
140.085785 66.0 
141.065842 224.0 
143.005157 63.0 
143.045349 1026.0 
144.062683 116.0 
145.03981 80.0 
145.074738 1182.0 
146.075836 121.0 
147.01944 73.0 
147.055511 207.0 
147.091354 1591.0 
148.057419 75.0 
148.094254 193.0 
149.034241 116.0 
149.070877 382.0 
149.107483 1000.0 
150.112747 113.0 
151.053894 175.0 
151.086319 692.0 
151.121719 88.0 
152.08725 128.0 
153.067383 177.0 
153.102386 344.0 
155.082047 6070.0 
156.050354 120.0 
156.086548 569.0 
157.025131 43002.0 
157.077698 477.0 
157.28772 80.0 
158.028931 3147.0 
158.08075 152.0 
159.029907 358.0 
159.055832 505.0 
159.092804 1044.0 
160.061432 114.0 
160.097305 165.0 
161.057251 8522.0 
161.109268 974.0 
161.310226 66.0 
162.059906 524.0 
162.10997 189.0 
163.053513 354.0 
163.089645 1504.0 
163.123169 519.0 
164.092407 226.0 
164.126007 75.0 
165.032455 307.0 
165.068222 561.0 
165.103333 1222.0 
166.148605 68.0 
167.011948 185.0 
167.062225 67.0 
167.084442 342.0 
167.120514 559.0 
169.079254 554.0 
169.096497 458.0 
170.084793 143.0 
171.04303 1077.0 
171.092148 736.0 
172.063675 128.0 
172.100357 118.0 
173.076233 193.0 
173.110596 1101.0 
174.112885 121.0 
175.024902 66.0 
175.050873 157.0 
175.089874 585.0 
175.125458 871.0 
176.052338 112.0 
176.130768 156.0 
176.911148 62.0 
177.070679 365.0 
177.104416 831.0 
177.141113 295.0 
178.108276 129.0 
179.048813 351.0 
179.085892 438.0 
179.121841 804.0 
181.07254 186.0 
181.101135 1567.0 
181.13588 139.0 
182.106735 188.0 
183.116684 3661.0 
184.119873 332.0 
184.958008 101.0 
185.023239 60843.0 
185.07225 364.0 
185.111435 671.0 
186.026657 4451.0 
186.08931 103.0 
186.117844 84.0 
186.624817 69.0 
187.03064 999.0 
187.09053 975.0 
187.128174 1071.0 
188.034729 71.0 
188.095093 196.0 
188.133499 140.0 
189.067917 602.0 
189.106567 853.0 
189.142441 820.0 
190.077118 108.0 
190.11058 179.0 
190.146393 96.0 
191.08638 364.0 
191.122223 2323.0 
191.16011 139.0 
192.094666 114.0 
192.12352 269.0 
193.029083 992.0 
193.063385 164.0 
193.100128 373.0 
193.137146 520.0 
194.032135 74.0 
194.102173 153.0 
195.118103 1840.0 
196.100159 138.0 
196.121765 201.0 
197.078857 351.0 
197.10881 688.0 
197.134521 387.0 
198.11087 93.0 
198.136169 72.0 
199.039886 12126.0 
199.092133 299.0 
199.127472 783.0 
200.044403 1100.0 
200.133469 143.0 
201.042892 178.0 
201.131775 934.0 
202.129013 112.0 
203.073517 2020.0 
203.12262 437.0 
203.159698 709.0 
204.079712 190.0 
204.126984 110.0 
204.165634 110.0 
205.066956 233.0 
205.102386 911.0 
205.139145 3415.0 
206.067902 80.0 
206.104294 71.0 
206.143875 442.0 
207.085632 240.0 
207.117905 762.0 
207.156387 238.0 
208.121689 101.0 
208.159653 64.0 
209.134995 911.0 
210.139938 146.0 
211.092484 97.0 
211.127594 456.0 
213.070343 167.0 
213.109085 983.0 
213.143173 937.0 
214.117218 229.0 
214.143509 155.0 
215.08696 815.0 
215.145767 2688.0 
216.15358 332.0 
217.052216 702.0 
217.103455 423.0 
217.140121 710.0 
217.182404 108.0 
218.117142 65.0 
218.182144 100.0 
219.079117 85.0 
219.118439 245.0 
219.156067 772.0 
220.153702 71.0 
221.087067 358.0 
221.135803 440.0 
221.172058 861.0 
222.180939 68.0 
223.151474 20229.0 
224.155273 3232.0 
225.058762 1679.0 
225.10817 176.0 
225.146957 787.0 
226.061356 141.0 
226.1129 93.0 
226.152679 221.0 
227.092819 65.0 
227.155884 859.0 
228.16507 294.0 
229.040955 91.0 
229.102066 291.0 
229.140823 805.0 
229.178223 1114.0 
230.106949 62.0 
230.146606 130.0 
230.18425 350.0 
231.070816 1633.0 
231.122421 592.0 
231.157013 1570.0 
232.073196 144.0 
232.126907 168.0 
232.162552 392.0 
233.100113 1656.0 
233.136826 270.0 
233.172485 1147.0 
234.10054 230.0 
234.144501 92.0 
234.177521 240.0 
235.040527 128.0 
235.126465 344.0 
235.1521 306.0 
235.187195 108.0 
236.156845 124.0 
236.205521 62.0 
237.097122 94.0 
237.168259 1521.0 
238.169403 431.0 
239.085938 125.0 
239.121979 123.0 
239.157013 562.0 
240.169022 154.0 
241.106415 946.0 
241.175293 310.0 
242.107651 188.0 
243.070465 219.0 
243.122208 367.0 
243.158661 561.0 
244.162155 215.0 
245.103546 127.0 
245.138016 906.0 
245.175369 1028.0 
246.139496 209.0 
246.177948 326.0 
247.117142 327.0 
247.153107 1423.0 
247.189575 1161.0 
248.158249 126.0 
248.19101 172.0 
248.687225 68.0 
248.964844 62.0 
249.081039 125288.0 
249.16951 16343.0 
249.300262 92.0 
250.084549 13365.0 
250.171494 2629.0 
250.24707 77.0 
251.086914 2063.0 
251.111115 2059.0 
251.182465 1385.0 
251.693848 68.0 
251.775436 65.0 
251.82605 64.0 
251.854919 63.0 
251.958328 121.0 
252.002899 108.0 
252.091064 169.0 
252.116592 303.0 
252.187241 206.0 
253.055374 1622.0 
253.118362 193.0 
253.1492 571.0 
253.200516 587.0 
254.059265 171.0 
254.147675 114.0 
254.17392 130.0 
254.200714 183.0 
255.123352 290.0 
255.179825 1096.0 
256.129791 82.0 
256.190063 182.0 
257.085602 226.0 
257.139618 219.0 
257.174133 836.0 
258.10437 71.0 
258.154785 76.0 
258.185608 70.0 
259.079865 90.0 
259.117859 1190.0 
259.150024 196.0 
259.190002 561.0 
260.11972 189.0 
261.081909 62.0 
261.135468 154.0 
261.170685 1163.0 
261.205078 302.0 
262.175903 134.0 
262.20929 94.0 
263.031586 122.0 
263.117249 237.0 
263.149841 1322.0 
263.187714 2055.0 
264.157867 257.0 
264.188782 321.0 
265.088226 65.0 
265.133484 433.0 
265.165741 566.0 
265.201965 1955.0 
266.172638 182.0 
266.203278 206.0 
267.072906 226.0 
267.150574 469.0 
267.181885 1478.0 
268.189362 299.0 
269.091766 69.0 
269.139282 270.0 
269.204803 541.0 
270.143768 81.0 
270.175385 94.0 
270.204102 212.0 
271.066193 95.0 
271.121887 215.0 
271.153412 843.0 
271.195831 196.0 
272.15683 148.0 
273.135895 1087.0 
273.185028 605.0 
274.137665 222.0 
274.19519 83.0 
275.100311 407.0 
275.186218 2624.0 
276.190399 696.0 
277.082275 104.0 
277.128906 1497.0 
277.170502 456.0 
277.202576 1353.0 
278.135162 177.0 
278.205292 334.0 
279.123077 72.0 
279.18277 1011.0 
279.218567 3882.0 
280.180878 215.0 
280.220856 862.0 
281.052277 2385.0 
281.139923 759.0 
281.198303 3175.0 
282.054443 540.0 
282.140472 110.0 
282.200531 581.0 
283.069946 84.0 
283.148987 494.0 
283.195251 295.0 
284.157074 177.0 
284.199005 70.0 
285.13324 87.0 
285.173187 323.0 
285.208252 319.0 
287.150299 711.0 
287.189117 176.0 
287.222961 1340.0 
288.162445 224.0 
288.227081 206.0 
289.166931 814.0 
289.203949 425.0 
290.162537 118.0 
291.102325 150.0 
291.146423 7366.0 
291.182678 710.0 
292.146149 1252.0 
292.186829 213.0 
293.086914 94.0 
293.13028 160.0 
293.199219 3490.0 
294.201019 552.0 
295.069611 757.0 
295.145721 559.0 
295.2146 1065.0 
296.070404 84.0 
296.156006 144.0 
296.198029 223.0 
296.221497 283.0 
297.131958 88.0 
297.172882 1122.0 
297.228149 3818.0 
298.174713 360.0 
298.233215 682.0 
299.150146 1582.0 
299.209808 5254.0 
300.155945 503.0 
300.215546 975.0 
301.116974 72.0 
301.168884 424.0 
301.210236 405.0 
302.173645 133.0 
302.397644 61.0 
303.161041 158.0 
303.1828 237.0 
303.220093 594.0 
304.194702 110.0 
304.216888 148.0 
305.133514 109.0 
305.165955 364.0 
305.234924 4686.0 
306.168365 155.0 
306.239136 860.0 
307.152161 568.0 
307.179596 800.0 
307.215027 2234.0 
308.188538 168.0 
308.218323 344.0 
309.087769 79.0 
309.157532 5458.0 
309.229492 198.0 
310.163574 956.0 
311.164307 243.0 
311.212097 257.0 
313.079315 2511.0 
313.172058 405.0 
313.239105 711.0 
314.084045 266.0 
314.16861 175.0 
314.205353 135.0 
314.24353 200.0 
315.089172 70.0 
315.125427 74.0 
315.183655 772.0 
315.222198 1279.0 
316.187134 246.0 
316.233398 284.0 
317.110077 268.0 
317.163574 3908.0 
317.234497 684.0 
318.11496 78.0 
318.166229 808.0 
318.235474 250.0 
319.144104 589.0 
319.179504 421.0 
319.254181 861.0 
320.151367 143.0 
320.185822 117.0 
320.256256 142.0 
321.13443 132.0 
321.201996 267.0 
321.242249 151.0 
322.201294 70.0 
323.190125 927.0 
323.225586 1062.0 
324.195648 135.0 
324.231537 310.0 
325.171661 786.0 
325.226959 1926.0 
326.137238 63.0 
326.17627 115.0 
326.228241 274.0 
327.095001 476.0 
327.186188 561.0 
327.244019 407.0 
328.095612 159.0 
328.192627 135.0 
328.241089 158.0 
329.124268 358.0 
329.161285 198.0 
329.200104 390.0 
329.232819 396.0 
330.17453 68.0 
330.209106 81.0 
330.238953 132.0 
331.142975 84.0 
331.178711 689.0 
331.254028 2062.0 
332.185303 94.0 
332.255554 604.0 
333.150726 90.0 
333.198975 1378.0 
333.231201 860.0 
334.199554 382.0 
335.174011 1087.0 
335.246429 1702.0 
336.178894 329.0 
336.236237 262.0 
337.145599 64.0 
337.198822 318.0 
337.263367 5467.0 
338.192657 96.0 
338.265259 1198.0 
339.135773 129.0 
339.187775 325.0 
339.238434 347.0 
340.219269 70.0 
340.249725 76.0 
341.203583 1088.0 
341.236816 2409.0 
342.207764 279.0 
342.24057 580.0 
343.141846 76.0 
343.181396 1125.0 
343.238708 1119.0 
344.186798 350.0 
344.242981 198.0 
345.108215 11868.0 
345.197693 714.0 
345.272858 343.0 
346.110229 1894.0 
346.212402 277.0 
347.137024 723.0 
347.216461 304.0 
347.247589 530.0 
348.116608 118.0 
348.142242 128.0 
348.207336 65.0 
348.248016 139.0 
349.191101 3429.0 
349.261719 1489.0 
350.056152 66.0 
350.193604 543.0 
350.268494 234.0 
350.672485 67.0 
351.190033 600.0 
351.256897 381.0 
352.188293 84.0 
352.222809 131.0 
352.263428 117.0 
353.200653 582.0 
353.260864 302.0 
354.208679 96.0 
354.248627 119.0 
355.140533 160.0 
355.220825 285.0 
355.272858 1376.0 
356.225983 99.0 
356.27298 438.0 
357.195892 912.0 
357.240723 316.0 
358.204773 196.0 
358.263824 61.0 
358.844208 91.0 
359.127045 267.0 
359.173126 256.0 
359.248657 6133.0 
360.25296 1510.0 
361.158356 110.0 
361.195587 961.0 
361.221802 875.0 
361.268005 654.0 
361.344482 64.0 
362.197266 355.0 
362.273407 78.0 
363.226349 1415.0 
363.280701 1416.0 
364.22644 346.0 
364.281555 371.0 
365.149841 229.0 
365.22702 615.0 
365.263031 557.0 
366.233948 228.0 
366.265533 273.0 
367.183502 99.0 
367.216675 162.0 
367.255737 397.0 
368.282166 87.0 
369.156006 100.0 
369.195892 688.0 
369.274689 150.0 
370.197083 132.0 
370.267853 74.0 
371.159454 191.0 
371.213501 570.0 
372.220276 188.0 
372.251617 99.0 
373.144287 230.0 
373.178131 142.0 
373.232452 500.0 
373.266541 1709.0 
374.272034 429.0 
375.151611 126.0 
375.208435 1051.0 
375.246826 558.0 
376.211548 354.0 
376.277191 155.0 
377.13739 134.0 
377.261444 1331.0 
378.259979 227.0 
379.165833 74.0 
379.224976 554.0 
379.272705 233.0 
380.223083 98.0 
380.279907 190.0 
381.235443 3624.0 
381.292542 1553.0 
382.185699 90.0 
382.23764 1066.0 
382.2995 353.0 
383.176941 67.0 
383.243561 272.0 
383.285339 722.0 
384.157104 68.0 
384.21344 153.0 
384.252686 153.0 
384.283203 144.0 
385.230408 106.0 
385.273346 162.0 
386.272186 92.0 
387.208405 1017.0 
387.282074 181.0 
388.21109 183.0 
389.226257 559.0 
389.25531 386.0 
390.228149 103.0 
390.269897 111.0 
391.150391 961.0 
391.236664 622.0 
391.277069 4903.0 
392.152618 129.0 
392.281433 1201.0 
393.178741 229.0 
393.221375 1803.0 
393.278625 747.0 
394.178711 77.0 
394.224121 262.0 
394.270172 346.0 
395.208893 152.0 
395.248016 398.0 
395.306885 623.0 
396.252502 93.0 
396.317352 162.0 
397.182434 138.0 
397.231812 1227.0 
397.278381 186.0 
398.242645 277.0 
399.246063 7866.0 
400.249084 1721.0 
400.299561 151.0 
401.229584 738.0 
401.298523 208.0 
402.228333 358.0 
402.277924 105.0 
403.167084 97.0 
403.252167 199.0 
403.276215 168.0 
404.257538 88.0 
405.186066 178.0 
405.268372 170.0 
405.291992 273.0 
406.177704 85.0 
406.293854 110.0 
407.234985 674.0 
407.290131 324.0 
408.241608 152.0 
408.281189 219.0 
409.046082 69.0 
409.164429 7920.0 
409.293823 4009.0 
409.928558 72.0 
410.16748 1325.0 
410.301758 989.0 
411.168793 290.0 
411.2341 882.0 
411.284546 2078.0 
412.241028 259.0 
412.285492 311.0 
413.211182 288.0 
413.26358 1137.0 
414.1987 69.0 
414.263672 406.0 
415.173065 263.0 
415.243927 2225.0 
415.318176 252.0 
416.16684 82.0 
416.246735 723.0 
417.255646 1796.0 
418.259552 417.0 
419.197144 213.0 
419.238464 1037.0 
420.239349 180.0 
420.286926 97.0 
421.285706 172.0 
422.25238 76.0 
423.230286 72.0 
423.30658 625.0 
424.307861 236.0 
425.298737 1064.0 
426.306122 283.0 
427.214874 125.0 
427.313416 4055.0 
428.31781 1417.0 
429.185303 84.0 
429.29306 1252.0 
430.195099 76.0 
430.264587 280.0 
430.297791 306.0 
431.171631 76.0 
431.274902 2570.0 
432.284027 777.0 
433.178833 259.0 
433.251923 1370.0 
434.179047 115.0 
434.265381 155.0 
434.309937 96.0 
435.184814 63.0 
435.272766 318.0 
436.285553 170.0 
437.215546 592.0 
437.302979 277.0 
438.21936 61.0 
438.258606 137.0 
438.304443 96.0 
439.199097 65.0 
439.305603 236.0 
440.320312 61.0 
441.327454 1618.0 
442.278564 138.0 
442.329987 490.0 
442.837616 69.0 
443.166656 550.0 
443.309998 2457.0 
444.174286 125.0 
444.315887 492.0 
445.179382 147.0 
445.213226 81.0 
445.269257 115.0 
445.323883 1026.0 
446.324829 265.0 
447.267456 1299.0 
448.275452 275.0 
449.181 118.0 
449.28479 8320.0 
450.289612 2809.0 
451.289978 487.0 
452.286011 207.0 
453.240143 94.0 
453.296326 556.0 
454.215668 94.0 
454.300751 215.0 
455.231506 130.0 
455.282379 246.0 
455.317322 256.0 
456.248505 84.0 
456.296722 224.0 
457.251617 91.0 
457.321869 574.0 
458.339752 187.0 
459.235809 83.0 
459.28479 761.0 
459.342529 4602.0 
460.289581 234.0 
460.346466 1591.0 
460.731781 77.0 
461.179138 638.0 
461.254089 189.0 
461.320923 2242.0 
462.180725 299.0 
462.326263 554.0 
463.172852 68.0 
463.205139 116.0 
463.31723 286.0 
465.280518 2861.0 
465.352844 126.0 
466.284241 791.0 
467.295471 4060.0 
468.304321 1231.0 
469.253632 224.0 
469.301971 427.0 
470.250763 69.0 
470.30307 207.0 
471.28714 212.0 
471.347565 152.0 
473.215759 124.0 
473.294312 188.0 
473.329773 260.0 
474.267944 121.0 
474.330963 162.0 
474.374237 89.0 
475.190582 191.0 
475.339478 1133.0 
476.3396 263.0 
477.217712 68.0 
477.296936 1413.0 
477.353149 1417.0 
478.296661 389.0 
478.3591 361.0 
479.148193 76.0 
479.30127 446.0 
479.332916 523.0 
480.296967 65.0 
480.350952 69.0 
481.17453 67.0 
481.207611 170.0 
481.249054 171.0 
481.294861 104.0 
481.338623 345.0 
482.248657 123.0 
482.295715 61.0 
482.34137 97.0 
483.196381 73.0 
483.246613 92.0 
483.322906 197.0 
483.384827 62.0 
484.324097 213.0 
485.264191 145.0 
485.320648 467.0 
486.319885 90.0 
487.334198 765.0 
488.326508 268.0 
489.212891 152.0 
489.301392 90.0 
489.351868 276.0 
491.256897 104.0 
491.367615 2131.0 
492.375854 376.0 
493.20224 178.0 
493.2771 161.0 
493.346558 968.0 
494.207092 75.0 
494.292999 102.0 
494.343903 241.0 
495.304413 1946.0 
496.249939 61.0 
496.311707 913.0 
497.275452 256.0 
497.317291 283.0 
498.339844 92.0 
499.207947 108.0 
499.274353 92.0 
499.312744 96.0 
499.354919 402.0 
500.355347 193.0 
501.213409 122.0 
501.269409 91.0 
501.327667 689.0 
502.335236 421.0 
503.270721 117.0 
503.306213 134.0 
503.367432 154.0 
504.33432 80.0 
505.272797 92.0 
505.325439 330.0 
505.350098 416.0 
506.273376 98.0 
506.335999 174.0 
507.217468 557.0 
507.315186 98.0 
507.360687 150.0 
508.222473 218.0 
508.376038 77.0 
509.334869 1037.0 
509.379791 1885.0 
510.202728 66.0 
510.386078 694.0 
511.231079 84.0 
511.35257 480.0 
512.308105 61.0 
512.350098 153.0 
513.224792 83.0 
513.317749 1721.0 
514.320251 561.0 
515.223938 157.0 
515.326233 302.0 
517.30188 120.0 
517.361023 794.0 
518.312195 61.0 
518.375977 130.0 
519.156311 82.0 
519.28949 136.0 
519.348145 1422.0 
520.347351 608.0 
521.233154 92.0 
521.280701 110.0 
521.348389 156.0 
523.308105 140.0 
523.339722 160.0 
524.295532 78.0 
524.343323 104.0 
525.231079 1525.0 
525.378967 78.0 
526.235107 437.0 
527.232056 61.0 
527.346375 2996.0 
528.34845 1248.0 
528.747375 77.0 
529.300415 83.0 
529.358154 278.0 
531.247437 93.0 
531.33313 320.0 
532.335815 165.0 
533.23645 248.0 
533.348816 393.0 
534.352844 77.0 
535.320435 179.0 
535.380371 189.0 
536.287659 104.0 
536.362732 173.0 
537.356995 1390.0 
538.300354 87.0 
538.358154 675.0 
539.255005 155.0 
539.354187 193.0 
539.408386 95.0 
540.243347 76.0 
540.352844 73.0 
541.271545 103.0 
541.31189 242.0 
542.357117 179.0 
543.271362 85.0 
543.333252 116.0 
543.364624 146.0 
544.353455 77.0 
545.264282 149.0 
545.359253 7433.0 
546.363831 2563.0 
547.278381 103.0 
547.367859 705.0 
548.25354 87.0 
548.329224 77.0 
548.370361 97.0 
549.324585 85.0 
549.391785 458.0 
549.525024 64.0 
550.292664 105.0 
551.374573 756.0 
552.374634 262.0 
553.2771 207.0 
553.349792 279.0 
554.266418 64.0 
555.285034 172.0 
555.369995 542.0 
556.368591 228.0 
557.25708 279.0 
557.351257 92.0 
558.259827 93.0 
559.252502 84.0 
559.309631 171.0 
559.376587 1097.0 
560.258301 109.0 
560.381714 341.0 
561.294861 137.0 
561.357422 373.0 
562.376892 96.0 
563.17511 63.0 
563.371643 14050.0 
564.114319 74.0 
564.276245 68.0 
564.375671 5455.0 
565.263733 528.0 
565.383057 1670.0 
566.265808 176.0 
566.383362 265.0 
567.255981 136.0 
567.296692 98.0 
567.409302 142.0 
567.608276 74.0 
568.280334 99.0 
568.409424 76.0 
569.319153 102.0 
569.387451 827.0 
570.382568 236.0 
570.434509 66.0 
571.317078 184.0 
571.385681 172.0 
573.335388 226.0 
573.388428 235.0 
574.345703 69.0 
574.382751 139.0 
575.356262 212.0 
577.273315 194.0 
577.388123 5614.0 
578.283936 66.0 
578.323425 64.0 
578.391602 1998.0 
579.284119 93.0 
579.390869 760.0 
580.337219 100.0 
580.405334 195.0 
581.382263 12998.0 
582.302673 113.0 
582.386108 4283.0 
583.286743 165.0 
583.391968 1116.0 
584.293823 106.0 
584.40155 177.0 
585.278931 82.0 
585.371399 127.0 
586.275635 71.0 
586.393066 82.0 
587.390686 515.0 
588.34552 131.0 
588.397522 194.0 
588.6651 66.0 
589.30127 92.0 
589.34906 131.0 
589.392761 110.0 
590.058044 61.0 
591.287354 184.0 
591.345215 270.0 
591.413696 213.0 
592.295593 70.0 
592.351929 71.0 
592.424988 125.0 
593.306091 144.0 
593.380798 366.0 
594.381653 183.0 
595.287231 142.0 
595.399109 17011.0 
595.823914 81.0 
596.286865 79.0 
596.401428 6898.0 
597.302307 534.0 
597.407959 1691.0 
598.311829 70.0 
598.411621 164.0 
599.284241 64.0 
599.392822 4342.0 
599.503357 68.0 
600.398315 1527.0 
600.918335 69.0 
601.300049 105.0 
601.404236 571.0 
602.349426 62.0 
602.402405 83.0 
603.388611 147.0 
603.798828 63.0 
605.292053 109.0 
605.394104 220.0 
606.295471 85.0 
606.357666 123.0 
607.323853 198.0 
607.397766 116.0 
608.391418 137.0 
609.285095 124.0 
609.363708 611.0 
609.413086 982.0 
610.374207 243.0 
610.420837 392.0 
611.299011 147.0 
611.394775 972.0 
612.401855 491.0 
612.867554 94.0 
613.301758 79.0 
613.410217 33788.0 
614.414856 14239.0 
615.280823 71.0 
615.332153 177.0 
615.417603 2932.0 
616.422974 541.0 
617.302612 132.0 
617.414917 286.0 
618.408813 69.0 
619.305786 110.0 
619.418152 87.0 
621.248413 96.0 
621.406677 69.0 
622.390076 84.0 
623.314514 111.0 
623.377075 207.0 
624.313232 83.0 
624.382141 103.0 
625.40625 292.0 
626.412476 170.0 
627.427612 3032.0 
628.331238 80.0 
628.428589 1245.0 
629.335205 287.0 
629.411865 908.0 
630.237915 62.0 
630.339294 151.0 
630.411987 180.0 
630.955139 69.0 
631.421448 44635.0 
631.547791 114.0 
631.881836 68.0 
631.958679 62.0 
632.114319 65.0 
632.152832 93.0 
632.244324 70.0 
632.324097 107.0 
632.424194 17923.0 
632.508972 145.0 
632.766602 62.0 
633.288818 73.0 
633.333862 398.0 
633.429443 4473.0 
634.433289 654.0 
635.297607 97.0 
635.433472 105.0 
635.90802 62.0 
635.995728 95.0 
636.306885 63.0 
636.421631 126.0 
637.310669 83.0 
637.380798 105.0 
638.376526 82.0 
638.418152 77.0 
639.365051 161.0 
641.317444 973.0 
641.38092 411.0 
642.328979 513.0 
643.422668 1078.0 
644.426758 332.0 
645.333008 208.0 
645.437073 14116.0 
646.078979 67.0 
646.352722 74.0 
646.440125 6016.0 
647.342224 941.0 
647.443298 1450.0 
648.012878 61.0 
648.34729 336.0 
648.442871 233.0 
649.343384 155.0 
649.432007 2365.0 
650.434753 1298.0 
651.351013 77.0 
651.442383 219.0 
652.369202 71.0 
652.430054 103.0 
653.314575 63.0 
653.350708 111.0 
655.349976 82.0 
655.426392 354.0 
656.416992 87.0 
657.390015 232.0 
658.224487 65.0 
658.389832 169.0 
658.440918 89.0 
659.328979 74.0 
659.386169 436.0 
660.337585 111.0 
660.401978 159.0 
660.660828 100.0 
660.950806 64.0 
661.363403 211.0 
661.42572 306.0 
662.367371 71.0 
662.435608 121.0 
662.710632 70.0 
662.887207 64.0 
663.44873 31896.0 
664.320496 80.0 
664.450928 13150.0 
664.546997 68.0 
664.62616 69.0 
664.85083 63.0 
665.088562 76.0 
665.347839 173.0 
665.454529 3327.0 
666.356201 120.0 
666.4552 498.0 
666.62207 62.0 
667.295898 110.0 
667.350098 178.0 
667.451782 130.0 
667.92511 61.0 
668.310791 65.0 
668.476501 74.0 
669.367493 82.0 
669.463562 100.0 
673.411377 617.0 
674.413086 264.0 
675.403503 389.0 
677.178345 74.0 
677.301086 63.0 
677.412659 306.0 
678.414246 134.0 
679.360718 337.0 
679.426147 245.0 
679.838074 84.0 
680.368164 82.0 
680.902222 62.0 
681.459045 47399.0 
681.580811 116.0 
681.629211 82.0 
682.305176 67.0 
682.461426 20219.0 
682.61853 66.0 
682.77356 63.0 
683.35144 114.0 
683.464661 4886.0 
684.467529 716.0 
685.281921 71.0 
685.468018 233.0 
686.041443 69.0 
686.305054 87.0 
687.448303 143.0 
688.429626 111.0 
689.408997 171.0 
690.467468 98.0 
691.41864 792.0 
692.361511 99.0 
692.425964 343.0 
693.42865 243.0 
694.451782 87.0 
695.363464 181.0 
696.368286 77.0 
697.376404 1265.0 
697.471436 124.0 
698.386597 507.0 
698.4422 113.0 
699.396423 188.0 
699.468384 2851.0 
700.474182 1114.0 
701.416321 172.0 
701.476074 300.0 
702.401306 62.0 
702.450562 112.0 
703.401489 80.0 
705.439209 436.0 
706.43512 96.0 
707.366516 125.0 
707.426697 191.0 
708.430298 134.0 
709.433411 1517.0 
710.439026 565.0 
711.382202 213.0 
711.450195 442.0 
712.439636 179.0 
713.380188 354.0 
713.455322 146.0 
714.385193 82.0 
715.390442 1200.0 
716.397766 589.0 
717.397034 227.0 
719.441833 275.0 
720.448425 109.0 
722.403015 85.0 
723.449463 474.0 
724.449768 400.0 
725.343567 86.0 
725.44812 232.0 
726.432373 116.0 
727.442993 583.0 
728.451111 284.0 
729.392395 199.0 
729.439819 175.0 
730.401611 120.0 
730.500122 71.0 
731.401489 105.0 
731.485107 89.0 
732.399658 70.0 
733.446167 267.0 
734.462524 80.0 
735.472961 148.0 
737.458008 207.0 
737.54248 83.0 
738.465454 137.0 
739.420288 139.0 
739.469421 248.0 
741.378845 73.0 
741.457825 856.0 
742.460938 333.0 
743.425537 172.0 
744.405334 86.0 
744.493103 107.0 
745.439331 90.0 
745.527039 123.0 
747.427429 191.0 
748.506592 62.0 
749.424438 153.0 
750.417175 121.0 
751.462524 307.0 
752.461121 236.0 
753.447998 138.0 
753.504578 88.0 
755.483521 530.0 
756.481079 459.0 
757.367676 105.0 
757.416931 153.0 
758.486633 154.0 
759.47467 354.0 
760.501099 101.0 
761.424194 263.0 
761.480225 166.0 
762.404968 67.0 
763.458496 62.0 
763.52179 61.0 
764.419434 74.0 
765.430054 184.0 
765.51825 127.0 
767.459717 213.0 
768.46991 103.0 
769.479614 203.0 
770.483276 194.0 
771.476318 213.0 
772.467041 70.0 
773.405396 65.0 
773.487122 1576.0 
773.559875 95.0 
774.487366 701.0 
775.440613 287.0 
775.494934 222.0 
776.43219 96.0 
777.484436 324.0 
778.489014 106.0 
779.440613 496.0 
780.448059 134.0 
781.479675 72.0 
782.463745 69.0 
783.384705 71.0 
783.494019 144.0 
785.461853 144.0 
786.512573 63.0 
787.498718 195.0 
788.465332 83.0 
788.516907 100.0 
789.480225 80.0 
789.531982 164.0 
790.481812 93.0 
791.382751 103.0 
791.498474 1462.0 
792.499207 574.0 
793.456543 428.0 
793.505859 244.0 
794.365967 89.0 
794.451721 210.0 
795.492432 147.0 
797.014404 72.0 
797.464539 223.0 
798.457092 304.0 
798.531067 91.0 
799.486572 97.0 
800.468506 63.0 
800.521912 86.0 
801.388611 120.0 
801.499634 144.0 
802.502014 89.0 
803.449463 74.0 
805.510071 827.0 
806.523743 235.0 
807.413757 108.0 
807.482544 156.0 
808.457764 89.0 
809.487183 103.0 
809.572021 87.0 
811.37561 90.0 
811.472778 1347.0 
812.467773 982.0 
813.47522 316.0 
814.487183 140.0 
815.523376 277.0 
816.483459 98.0 
816.548218 157.0 
817.50824 269.0 
818.515503 72.0 
819.474365 126.0 
820.508118 77.0 
821.474243 102.0 
821.563782 80.0 
823.525452 1447.0 
824.524963 523.0 
825.486694 484.0 
826.487122 185.0 
827.478577 198.0 
827.554932 77.0 
828.501465 66.0 
829.476196 1415.0 
830.48175 954.0 
831.483093 261.0 
832.473755 67.0 
833.532593 67.0 
834.542847 94.0 
835.531799 181.0 
836.553833 66.0 
837.546326 86.0 
839.450806 68.0 
839.503662 132.0 
840.507507 180.0 
841.533203 2233.0 
842.53656 990.0 
843.490417 1869.0 
844.498047 985.0 
845.504517 393.0 
846.51593 68.0 
847.488953 858.0 
848.495361 425.0 
849.5177 79.0 
850.435242 78.0 
850.508911 65.0 
852.55188 79.0 
853.545959 157.0 
854.523193 83.0 
855.440979 73.0 
855.514404 71.0 
857.509888 167.0 
858.445984 72.0 
858.503906 111.0 
859.53717 338.0 
859.597107 116.0 
860.48999 98.0 
860.541748 144.0 
861.353149 68.0 
861.504395 5794.0 
862.508179 3150.0 
862.661926 66.0 
863.43335 63.0 
863.512817 1075.0 
864.512817 271.0 
865.514404 93.0 
867.559631 119.0 
868.584656 83.0 
869.522644 73.0 
871.533386 194.0 
872.552795 64.0 
873.545105 183.0 
874.49585 99.0 
875.51001 386.0 
875.604492 90.0 
876.521057 270.0 
877.530518 110.0 
878.534363 68.0 
879.515259 10145.0 
880.36676 62.0 
880.518982 5218.0 
881.523376 1574.0 
882.523254 420.0 
883.518005 71.0 
883.628601 63.0 
884.672485 64.0 
885.569214 171.0 
886.571411 149.0 
888.614136 90.0 
889.547485 387.0 
890.56311 215.0 
891.510132 173.0 
891.570129 113.0 
891.659607 71.0 
893.529846 2070.0 
894.531738 1026.0 
895.539124 340.0 
896.550903 74.0 
897.532715 466.0 
898.53009 380.0 
899.53186 121.0 
899.636047 112.0 
900.53241 79.0 
903.510376 80.0 
903.56427 138.0 
904.586365 151.0 
906.579773 90.0 
907.498657 116.0 
907.565979 242.0 
908.540222 97.0 
909.517029 140.0 
909.640808 113.0 
910.525452 72.0 
910.572876 78.0 
911.375671 78.0 
911.541687 6873.0 
912.546997 3442.0 
913.551758 1286.0 
914.56012 276.0 
915.549561 179.0 
915.611328 66.0 
917.631531 79.0 
918.644836 103.0 
919.598083 116.0 
921.514648 83.0 
921.591858 260.0 
922.602173 201.0 
923.571655 76.0 
925.494934 102.0 
925.561462 77.0 
925.646423 99.0 
927.509827 98.0 
927.663269 143.0 
928.589966 153.0 
929.415649 110.0 
929.554199 12426.0 
930.557068 6281.0 
931.386292 113.0 
931.560303 1831.0 
931.865479 64.0 
932.567932 516.0 
932.674927 63.0 
933.54187 115.0 
933.607971 71.0 
934.62738 69.0 
935.631897 115.0 
936.619507 114.0 
937.591675 117.0 
937.65387 123.0 
939.515076 288.0 
939.58667 494.0 
940.508911 86.0 
940.598389 224.0 
941.588562 133.0 
943.596436 118.0 
945.613708 93.0 
947.560974 461.0 
948.563782 307.0 
949.606079 114.0 
949.685425 120.0 
951.57135 87.0 
951.631775 131.0 
952.601562 81.0 
953.531311 124.0 
954.535339 105.0 
955.609985 162.0 
957.4823 80.0 
957.532166 213.0 
957.59729 380.0 
958.529358 162.0 
958.618835 136.0 
959.570435 106.0 
959.625671 139.0 
960.555115 104.0 
960.639526 91.0 
961.657227 145.0 
962.591003 129.0 
963.609924 89.0 
967.633484 68.0 
967.682861 110.0 
968.631409 122.0 
968.69873 119.0 
969.549744 85.0 
969.622253 133.0 
970.558899 78.0 
970.652283 61.0 
971.543945 69.0 
972.547302 96.0 
973.608521 92.0 
975.538391 167.0 
975.63385 140.0 
976.5177 91.0 
976.635803 106.0 
977.563293 164.0 
977.636719 143.0 
977.707581 66.0 
978.647522 83.0 
979.638184 230.0 
980.549438 83.0 
981.650757 96.0 
982.623047 63.0 
986.706177 67.0 
987.633118 194.0 
987.691589 80.0 
988.64563 111.0 
989.546265 183.0 
989.684204 89.0 
990.55896 183.0 
992.627808 63.0 
993.646362 228.0 
993.708984 72.0 
994.659607 190.0 
995.645386 190.0 
996.650208 184.0 
997.656555 134.0 
998.617554 78.0 
999.731384 212.0 
1000.630249 65.0 
1000.714966 84.0 
1001.651917 102.0 
1003.581116 276.0 
1003.681213 188.0 
1004.690735 138.0 
1005.630737 281.0 
1006.631653 142.0 
1007.577087 153.0 
1007.651489 108.0 
1008.659973 107.0 
1011.539978 72.0 
1011.650635 280.0 
1012.651672 241.0 
1013.649719 226.0 
1014.659729 152.0 
1015.678772 62.0 
1017.740295 77.0 
1018.59906 67.0 
1018.702087 101.0 
1020.628662 93.0 
1020.703247 69.0 
1021.583252 620.0 
1022.589844 207.0 
1023.595337 151.0 
1023.647339 119.0 
1024.60376 88.0 
1024.655762 136.0 
1025.585083 110.0 
1025.685059 150.0 
1026.598267 70.0 
1026.67688 75.0 
1027.567505 65.0 
1027.68457 161.0 
1028.668823 84.0 
1029.666992 304.0 
1030.657715 213.0 
1031.653076 139.0 
1032.671631 88.0 
1033.667603 62.0 
1035.605225 171.0 
1036.760742 82.0 
1037.66272 172.0 
1038.58313 69.0 
1038.661621 117.0 
1038.744995 65.0 
1039.588135 841.0 
1039.708374 129.0 
1040.591797 543.0 
1041.580933 123.0 
1041.669434 148.0 
1043.691895 347.0 
1044.69165 221.0 
1045.617432 90.0 
1045.707764 124.0 
1047.664917 88.0 
1047.706909 105.0 
1048.677124 119.0 
1049.666748 79.0 
1051.606445 72.0 
1051.670532 80.0 
1053.603638 235.0 
1053.715576 197.0 
1054.606323 149.0 
1054.652344 106.0 
1054.696899 130.0 
1055.610229 97.0 
1055.676025 223.0 
1056.663452 232.0 
1057.669434 78.0 
1057.727905 87.0 
1058.605103 61.0 
1058.654907 75.0 
1058.709595 111.0 
1059.69104 69.0 
1061.689331 384.0 
1062.718994 210.0 
1063.634277 77.0 
1063.683594 100.0 
1063.721313 117.0 
1064.677612 84.0 
1065.610107 135.0 
1067.780762 67.0 
1070.63147 66.0 
1071.620605 548.0 
1072.619507 330.0 
1073.681641 269.0 
1074.630981 64.0 
1074.703003 407.0 
1075.66394 130.0 
1075.718994 129.0 
1076.714722 172.0 
1077.710205 127.0 
1079.711792 262.0 
1080.719482 275.0 
1081.701172 177.0 
1087.753662 73.0 
1088.65625 79.0 
1089.62793 840.0 
1089.768188 115.0 
1090.633423 553.0 
1091.6427 257.0 
1092.629883 61.0 
1093.729248 701.0 
1094.744507 347.0 
1094.852173 68.0 
1095.726562 121.0 
1096.739014 107.0 
1097.708374 133.0 
1099.68811 90.0 
1099.73584 97.0 
1100.573853 69.0 
1101.654297 61.0 
1104.743164 96.0 
1105.619019 78.0 
1105.772827 95.0 
1107.65332 147.0 
1107.734375 67.0 
1109.698608 85.0 
1110.759277 86.0 
1111.746582 931.0 
1112.604858 95.0 
1112.73999 627.0 
1113.74353 236.0 
1114.721436 76.0 
1117.678223 95.0 
1118.682495 79.0 
1119.629517 84.0 
1121.696533 75.0 
1121.77356 73.0 
1123.612671 104.0 
1124.780273 62.0 
1125.67334 65.0 
1125.739502 69.0 
1127.745972 77.0 
1128.733765 74.0 
1129.747437 597.0 
1130.753418 532.0 
1131.747803 126.0 
1132.751953 120.0 
1133.670898 82.0 
1134.678955 91.0 
1137.641724 165.0 
1138.657593 62.0 
1139.743652 101.0 
1140.741211 74.0 
1140.796997 91.0 
1141.691162 72.0 
1142.802612 78.0 
1143.647095 67.0 
1143.78833 68.0 
1147.764893 194.0 
1148.786865 117.0 
1149.769165 115.0 
1150.786255 76.0 
1151.656982 133.0 
1152.67334 75.0 
1155.649658 70.0 
1156.647217 102.0 
1157.743408 114.0 
1158.76355 133.0 
1159.773804 68.0 
1167.709839 114.0 
1169.672485 149.0 
1170.699463 80.0 
1171.761719 110.0 
1173.716675 96.0 
1173.794067 94.0 
1175.708008 74.0 
1175.825562 89.0 
1176.787231 153.0 
1177.672729 62.0 
1179.71167 99.0 
1187.686279 279.0 
1187.764404 116.0 
1188.680664 259.0 
1189.694214 117.0 
1189.781372 195.0 
1189.866577 67.0 
1190.802124 162.0 
1191.721924 80.0 
1192.822754 90.0 
1193.678711 62.0 
1193.791626 192.0 
1194.702759 67.0 
1194.797607 78.0 
1195.788818 73.0 
1197.725708 72.0 
1199.752197 71.0 
1201.798584 97.0 
1203.706543 62.0 
1203.759033 97.0 
1205.684692 233.0 
1206.693115 138.0 
1207.660522 111.0 
1207.705811 126.0 
1207.801636 396.0 
1208.804565 274.0 
1209.80603 148.0 
1211.71582 75.0 
1211.784546 75.0 
1213.828125 70.0 
1214.828125 83.0 
1216.667969 72.0 
1216.832642 105.0 
1221.845581 101.0 
1222.840698 137.0 
1223.761719 77.0 
1225.7323 127.0 
1225.824585 527.0 
1226.830566 364.0 
1227.712158 70.0 
1227.816772 151.0 
1228.801636 99.0 
1233.744873 131.0 
1235.72522 123.0 
1239.851196 472.0 
1240.843872 364.0 
1241.726807 143.0 
1241.840576 189.0 
1243.743652 137.0 
1243.836426 267.0 
1244.746582 115.0 
1244.853882 296.0 
1245.768311 136.0 
1246.771362 92.0 
1246.848267 93.0 
1247.843018 77.0 
1251.708618 61.0 
1253.705688 134.0 
1254.736206 68.0 
1254.877319 82.0 
1256.841064 91.0 
1257.734863 69.0 
1257.85376 1030.0 
1258.851807 991.0 
1259.75415 198.0 
1259.860474 239.0 
1260.759399 198.0 
1261.745239 211.0 
1261.842896 263.0 
1262.838501 156.0 
1263.749146 67.0 
1264.742554 64.0 
1269.781982 110.0 
1271.705933 74.0 
1271.830566 197.0 
1272.728638 108.0 
1273.758545 63.0 
1273.81311 87.0 
1274.798828 67.0 
1275.680542 81.0 
1275.860474 1420.0 
1276.71167 72.0 
1276.856689 1299.0 
1277.758423 426.0 
1277.865601 444.0 
1278.75769 364.0 
1278.868408 164.0 
1279.771973 121.0 
1280.758301 71.0 
1280.893677 72.0 
1283.782349 63.0 
1285.74707 166.0 
1286.784546 83.0 
1287.782104 84.0 
1289.871216 325.0 
1290.779907 109.0 
1290.875977 369.0 
1291.776367 144.0 
1291.877686 157.0 
1292.766602 97.0 
1293.866211 803.0 
1294.774414 94.0 
1294.871094 1097.0 
1295.782104 147.0 
1295.890503 428.0 
1296.737915 80.0 
1296.786377 68.0 
1296.886719 192.0 
1297.775757 120.0 
1298.761719 81.0 
1303.756836 401.0 
1304.77417 372.0 
1305.766846 165.0 
1306.790283 76.0 
1307.890137 1171.0 
1308.886597 959.0 
1309.794189 281.0 
1309.899414 525.0 
1310.79834 173.0 
1310.891968 89.0 
1311.882568 382.0 
1312.892578 589.0 
1313.767944 96.0 
1313.886475 198.0 
1320.841553 114.0 
1321.77771 556.0 
1322.780273 274.0 
1323.7948 218.0 
1324.785034 135.0 
1325.899536 2115.0 
1326.89856 1518.0 
1327.795532 217.0 
1327.908081 725.0 
1328.818115 183.0 
1328.899658 262.0 
1329.77478 106.0 
1329.924561 88.0 
1330.798462 109.0 
1336.825073 65.0 
1341.812012 267.0 
1342.823242 337.0 
1343.908691 1541.0 
1344.913452 1339.0 
1345.916382 591.0 
1346.933105 192.0 
1348.930176 64.0 
1353.873901 77.0 
1354.855591 63.0 
1359.831055 945.0 
1360.838257 546.0 
1361.839722 351.0 
1361.919556 486.0 
1362.910034 384.0 
1363.864136 102.0 
1363.921387 169.0 
1364.918091 101.0 
1371.948364 64.0 
1373.861816 71.0 
1376.820557 91.0 
1377.841675 871.0 
1378.846436 854.0 
1379.83728 289.0 
1380.841187 91.0 
1391.817627 64.0 
1392.898926 115.0 
1395.84668 218.0 
1396.867188 262.0 
1397.90625 76.0 
1403.817627 71.0 
1404.86438 65.0 
1405.877563 61.0 
1406.917969 64.0 
1414.912964 73.0 
1421.800049 75.0 
1433.924316 69.0 
1435.947998 85.0 
1436.963013 65.0 
1437.836304 112.0 
1437.925293 89.0 
1438.796143 77.0 
1438.896362 125.0 
1441.862061 92.0 
1443.905029 66.0 
1453.939697 80.0 
1454.943481 97.0 
1455.892944 130.0 
1456.862061 77.0 
1456.927002 123.0 
1464.844849 82.0 
1467.963867 99.0 
1468.948975 84.0 
1472.952026 116.0 
1473.911377 233.0 
1474.906738 206.0 
1475.92688 74.0 
1481.851074 85.0 
1482.878418 177.0 
1483.868286 127.0 
1485.963257 157.0 
1486.967285 128.0 
1487.920776 106.0 
1488.025635 82.0 
1488.955566 105.0 
1491.92041 224.0 
1492.911499 181.0 
1493.926636 139.0 
1502.849609 76.0 
1503.972656 239.0 
1504.988159 190.0 
1505.946289 377.0 
1506.939819 306.0 
1507.940063 142.0 
1508.928833 62.0 
1509.911011 118.0 
1510.963135 157.0 
1519.886475 211.0 
1519.935425 188.0 
1520.917236 180.0 
1521.930542 119.0 
1522.990601 81.0 
1523.950439 735.0 
1524.097534 75.0 
1524.966187 831.0 
1525.955811 393.0 
1526.964478 162.0 
1537.921265 400.0 
1538.912598 295.0 
1538.971191 286.0 
1539.922729 168.0 
1540.981934 70.0 
1541.960083 1222.0 
1542.973022 1239.0 
1543.192017 71.0 
1543.973877 319.0 
1544.973511 222.0 
1555.977661 615.0 
1556.978516 837.0 
1557.991455 415.0 
1558.980713 204.0 
1559.969238 648.0 
1560.972656 761.0 
1561.979004 206.0 
1562.995605 101.0 
1564.00354 106.0 
1573.985107 2187.0 
1574.991333 2350.0 
1575.987671 1079.0 
1576.123047 80.0 
1576.903687 61.0 
1576.996094 462.0 
1578.001221 215.0 
1578.97998 72.0 
1583.959717 101.0 
1591.854126 98.0 
1591.998047 3929.0 
1593.006958 3951.0 
1594.00769 1963.0 
1595.011353 717.0 
1596.010986 162.0 
1603.968872 62.0 
1610.011841 1075.0 
1611.010498 1362.0 
1612.016357 744.0 
1612.99646 176.0 
1614.000854 74.0 
1614.055176 93.0 
1651.985474 82.0 
1654.033325 105.0 
1666.011963 159.0 
1684.032104 172.0 
1685.038452 170.0 
1686.003662 69.0 
1687.036255 68.0 
1688.020386 84.0 
1689.036987 82.0 
1699.051147 109.0 
1702.048706 272.0 
1702.952637 75.0 
1703.052979 197.0 
1704.044556 186.0 
1705.034546 143.0 
1706.064697 114.0 
1716.062012 79.0 
1717.074463 194.0 
1720.036987 200.0 
1721.038818 228.0 
1722.05188 115.0 
1725.988525 74.0 
1726.057861 100.0 
1727.035767 195.0 
1728.007568 78.0 
1734.061157 806.0 
1735.07019 705.0 
1736.052002 319.0 
1737.07959 228.0 
1738.067993 109.0 
1752.075562 4092.0 
1752.877441 65.0 
1753.078979 4134.0 
1753.920044 79.0 
1754.087158 2013.0 
1755.086548 873.0 
1756.078369 199.0 
1757.08374 70.0 
1757.152954 78.0 
1770.097046 495.0 
1771.077393 395.0 
1772.09729 294.0 
1773.008057 69.0 
1773.09314 136.0 
1774.121582 83.0 
1778.034424 61.0 
1971.938599 63.0 
1977.250854 68.0 
END IONS

