BEGIN IONS
PEPMASS=1168.62
CHARGE=1+
MSLEVEL=2
SOURCE_INSTRUMENT=LC-ESI-Orbitrap
FILENAME=f.RReher/Culebra/pure_compounds/1186/Rivulariapeptolide1185_MS2_M-H2O_5.53_QE.mgf;
SEQ=*..*
IONMODE=Positive
ORGANISM=GNPS-LIBRARY
NAME=Rivulariapeptolide 1185 M+H-H2O
PI=Gerwick
DATACOLLECTOR=Raphael Reher
SMILES=CC(C)[C@H](NC([C@H](CC1=CC=C(O)C=C1)N(C)C([C@H](CC2=CC=CC=C2)N3[C@H](O)CC[C@H](NC(C(CC(C)C)NC4=O)=O)C3=O)=O)=O)C(O[C@H](C)[C@@H]4NC([C@H]([C@@H](OC(C5N(C(CCC)=O)CCC5)=O)C)NC(C6CCCN6C(CCC)=O)=O)=O)=O
INCHI=
INCHIAUX=
PUBMED=
SUBMITUSER=RReher
LIBRARYQUALITY=3
SPECTRUMID=CCMSLIB00005723391
SCANS=1
79.559532 26447.580078 
84.044701 33480.375 
85.041687 26128.160156 
86.097198 124189.25 
91.054924 62989.132812 
91.951668 86316.28125 
107.049423 27659.335938 
120.0812 1212205.25 
128.265457 26121.583984 
136.075897 101030.234375 
138.496796 26382.712891 
140.107224 5998598.0 
150.091583 1836190.25 
151.885101 23704.041016 
153.102982 64978.382812 
158.096664 233484.1875 
168.102173 5699808.5 
170.097031 222907.90625 
170.486221 27878.980469 
172.111862 127857.195312 
181.097626 258011.515625 
181.133804 39448.902344 
186.049316 37885.808594 
187.123093 356338.03125 
196.235092 29328.259766 
197.128738 38894.609375 
198.091492 40327.597656 
215.118286 975005.625 
223.14444 1423568.5 
226.086548 77990.671875 
241.154907 334163.8125 
243.113144 731952.75 
249.159973 63566.214844 
251.139343 1228347.625 
254.150635 31960.923828 
264.135559 41408.703125 
268.203033 26227.675781 
283.180481 216012.546875 
295.165527 119205.882812 
306.182434 51222.960938 
308.128296 296801.5625 
308.159729 50906.769531 
311.176331 130603.3125 
324.193512 51384.578125 
328.203308 145757.65625 
332.19458 30408.910156 
334.176514 2962726.5 
350.206665 31376.279297 
352.188538 149562.890625 
356.196381 83087.578125 
408.250732 364827.5625 
419.26593 135721.703125 
420.192413 573429.8125 
436.244873 709287.25 
447.258087 86611.015625 
519.281311 249796.40625 
533.276489 68160.070312 
632.361572 91051.28125 
715.379211 187439.390625 
733.390625 87783.375 
926.856384 33703.417969 
986.314453 33852.285156 
1091.204468 29649.457031 
1171.06897 31508.169922 
END IONS

