BEGIN IONS
PEPMASS=726.0
CHARGE=2+
MSLEVEL=2
SOURCE_INSTRUMENT=LC-ESI-qTof
FILENAME=1G8_726_RG8_01_9779.mzXML
SEQ=*..*
IONMODE=Positive
ORGANISM=GNPS-LIBRARY
NAME=Carmabin A M+Na
PI=Dorrestein/Gerwick
DATACOLLECTOR=Peng/Luzzatto/Garg
SMILES=COC1=CC=C(CC(N(C)C(=O)C(C)N(C)C(=O)C(C)NC(=O)C(CC2=CC=CC=C2)N(C)C(=O)C(C)CC(C)CCCCC#C)C(N)=O)C=C1
INCHI=InChI=1S/C40H57N5O6/c1-10-11-12-14-17-27(2)24-28(3)38(48)45(8)35(26-31-18-15-13-16-19-31)37(47)42-29(4)39(49)43(6)30(5)40(50)44(7)34(36(41)46)25-32-20-22-33(51-9)23-21-32/h1,13,15-16,18-23,27-30,34-35H,11-12,14,17,24-26H2,2-9H3,(H2,41,46)(H,42,47)
INCHIAUX=BRWIYXLUWTZWGU-UHFFFAOYSA-N
PUBMED=ChemSpider ID:23076292
SUBMITUSER=y6peng
LIBRARYQUALITY=2
SPECTRUMID=CCMSLIB00000072490
SCANS=1812
112.914268 220.0 
115.638588 240.0 
121.064232 196.0 
121.079552 236.0 
134.096603 240.0 
137.083984 204.0 
139.945206 168.0 
142.348953 172.0 
149.082443 184.0 
149.116455 216.0 
163.840225 188.0 
167.437622 160.0 
172.937042 212.0 
178.093063 252.0 
179.091965 188.0 
180.917679 296.0 
188.575317 152.0 
194.097702 176.0 
194.689102 284.0 
195.091812 232.0 
196.106552 204.0 
197.215012 244.0 
198.090454 204.0 
201.069641 224.0 
212.100494 216.0 
212.129471 208.0 
213.272659 224.0 
214.745316 288.0 
216.404465 164.0 
219.441177 236.0 
227.107574 156.0 
228.12207 160.0 
229.09874 280.0 
231.106094 176.0 
231.157974 160.0 
236.674377 140.0 
248.05899 236.0 
250.527939 144.0 
251.091919 164.0 
251.123444 316.0 
253.135712 164.0 
260.872925 216.0 
264.843475 192.0 
265.05072 156.0 
267.013885 296.0 
270.981628 228.0 
271.709137 140.0 
272.457367 152.0 
275.632202 196.0 
278.529846 144.0 
279.157715 148.0 
280.165802 196.0 
285.12088 152.0 
286.484741 152.0 
287.128265 168.0 
287.590271 180.0 
296.203094 272.0 
297.152283 244.0 
298.158447 220.0 
299.138916 500.0 
301.119598 180.0 
312.233063 172.0 
316.163483 4652.0 
316.253479 212.0 
316.869385 140.0 
317.164398 648.0 
318.667419 208.0 
321.20105 164.0 
323.300995 152.0 
325.332428 156.0 
326.136749 152.0 
327.197144 204.0 
329.18335 208.0 
332.124451 196.0 
334.209747 672.0 
334.598114 168.0 
335.212555 188.0 
336.562469 204.0 
340.226807 264.0 
345.242188 228.0 
348.1875 316.0 
348.221741 220.0 
349.19397 160.0 
352.140839 140.0 
352.813141 200.0 
353.201874 164.0 
361.223297 276.0 
362.209259 2620.0 
363.212128 480.0 
364.210724 192.0 
370.17041 428.0 
371.181213 164.0 
371.695251 852.0 
372.151581 312.0 
372.197479 964.0 
372.698517 216.0 
372.769745 140.0 
373.188446 208.0 
374.193665 168.0 
374.57724 176.0 
375.039429 180.0 
375.374695 208.0 
376.200012 148.0 
376.48175 176.0 
379.240479 232.0 
379.677002 252.0 
380.231567 168.0 
383.263458 180.0 
384.074005 192.0 
386.143219 216.0 
387.20224 3408.0 
387.336517 140.0 
388.202301 956.0 
389.203766 196.0 
390.797607 196.0 
391.041473 156.0 
391.096558 156.0 
391.860199 160.0 
393.472595 152.0 
397.185852 2004.0 
398.181671 880.0 
399.704651 196.0 
400.118408 192.0 
403.216461 148.0 
403.2724 148.0 
405.249359 572.0 
406.249084 160.0 
406.282349 236.0 
406.908173 152.0 
409.15863 268.0 
410.056519 196.0 
411.128845 152.0 
412.08139 164.0 
413.17807 140.0 
414.103149 188.0 
415.233429 160.0 
417.238525 144.0 
420.732513 164.0 
433.241821 192.0 
437.442596 168.0 
446.274719 160.0 
446.367188 164.0 
450.115906 192.0 
450.179199 192.0 
451.256195 568.0 
452.256897 288.0 
453.261658 148.0 
455.212128 140.0 
456.216187 556.0 
457.047638 172.0 
457.227692 136.0 
458.345795 164.0 
462.268402 224.0 
463.282715 336.0 
464.276703 304.0 
465.300262 176.0 
469.228119 140.0 
469.279816 168.0 
473.101685 168.0 
473.98053 168.0 
474.266449 168.0 
477.343231 240.0 
477.491028 208.0 
481.276276 224.0 
483.233551 216.0 
483.522247 168.0 
486.102356 288.0 
487.115723 220.0 
489.397644 252.0 
490.304108 320.0 
491.302246 296.0 
491.349304 180.0 
491.494843 152.0 
492.509796 244.0 
494.445526 188.0 
495.35733 172.0 
496.316711 280.0 
497.342896 144.0 
497.427216 212.0 
498.27063 140.0 
498.319458 152.0 
498.963623 160.0 
499.070282 160.0 
500.618164 208.0 
502.26651 156.0 
502.730316 140.0 
503.25235 200.0 
506.108246 148.0 
507.124725 152.0 
507.310394 240.0 
510.279175 152.0 
511.547302 236.0 
514.381042 200.0 
517.247253 208.0 
517.311768 152.0 
518.299255 416.0 
519.251953 148.0 
519.315979 156.0 
520.040649 156.0 
520.274841 160.0 
522.098816 160.0 
523.017456 148.0 
526.26593 232.0 
527.27179 204.0 
530.295044 156.0 
530.698242 148.0 
535.335205 260.0 
536.308044 200.0 
537.124756 220.0 
537.325134 172.0 
538.393494 192.0 
543.297791 156.0 
547.322998 188.0 
547.78186 188.0 
548.275574 152.0 
548.319519 180.0 
548.466553 168.0 
549.329285 128.0 
551.334656 236.0 
551.522583 144.0 
552.817566 196.0 
553.159058 196.0 
554.298035 324.0 
559.413879 164.0 
562.174683 156.0 
562.311462 140.0 
563.770142 168.0 
568.329407 188.0 
569.718811 208.0 
570.426575 172.0 
572.80481 144.0 
575.288208 228.0 
581.944885 172.0 
583.212585 144.0 
584.472046 140.0 
584.895386 152.0 
588.519165 148.0 
588.755676 220.0 
589.996948 172.0 
590.325562 216.0 
591.355591 400.0 
593.612244 140.0 
595.29541 180.0 
595.85376 168.0 
598.464417 180.0 
602.83313 168.0 
603.361389 160.0 
604.187439 164.0 
604.817566 104.0 
607.002075 196.0 
613.893433 188.0 
614.046265 252.0 
614.356873 152.0 
614.756348 184.0 
615.610046 168.0 
617.333923 180.0 
618.001404 236.0 
620.848511 176.0 
623.09613 140.0 
625.084106 164.0 
626.188843 288.0 
629.159485 148.0 
629.966125 148.0 
630.03302 204.0 
630.567505 152.0 
631.262085 144.0 
631.817017 188.0 
632.812561 184.0 
632.987732 140.0 
633.378235 172.0 
633.843933 160.0 
635.046631 148.0 
635.778809 240.0 
639.959229 224.0 
645.507324 248.0 
646.194946 184.0 
647.065796 200.0 
647.31311 180.0 
649.425537 144.0 
649.709473 200.0 
650.099976 140.0 
651.521057 168.0 
653.142029 148.0 
653.538635 156.0 
653.772644 204.0 
657.266846 176.0 
657.639221 160.0 
657.884155 288.0 
659.375 164.0 
660.709045 216.0 
662.669067 188.0 
663.048096 220.0 
663.279236 160.0 
667.178345 232.0 
669.739929 156.0 
669.899536 152.0 
670.378479 160.0 
673.266174 184.0 
675.456726 184.0 
676.185974 172.0 
676.962158 176.0 
678.313843 148.0 
678.655884 152.0 
678.899475 164.0 
681.260132 160.0 
681.389954 148.0 
681.535339 220.0 
683.333557 224.0 
685.623779 148.0 
686.19635 196.0 
687.428162 200.0 
687.578613 144.0 
688.001221 156.0 
690.116516 176.0 
691.073059 152.0 
691.55426 144.0 
692.344482 152.0 
694.707397 160.0 
695.002319 168.0 
696.596375 172.0 
697.394775 164.0 
699.403137 180.0 
700.903442 196.0 
702.394836 204.0 
702.790344 144.0 
702.855164 160.0 
703.291443 212.0 
704.869873 196.0 
705.783936 156.0 
706.264954 140.0 
706.830811 144.0 
707.845215 172.0 
708.408081 140.0 
708.826233 172.0 
709.440796 176.0 
710.409363 200.0 
712.457886 268.0 
713.149658 160.0 
713.461243 192.0 
714.067078 200.0 
714.281738 212.0 
714.614929 188.0 
714.684204 116.0 
715.062439 136.0 
715.152161 176.0 
715.651794 108.0 
716.511414 204.0 
716.628479 164.0 
716.687073 164.0 
717.49939 132.0 
717.587402 144.0 
717.677551 184.0 
717.763306 164.0 
719.201172 140.0 
719.412415 208.0 
719.934265 160.0 
720.027344 172.0 
720.080444 124.0 
720.890076 164.0 
721.156921 156.0 
721.328186 152.0 
722.074402 108.0 
722.488892 108.0 
723.128113 276.0 
723.408752 916.0 
723.521851 244.0 
723.646912 132.0 
723.763367 180.0 
723.850891 276.0 
723.910095 1112.0 
723.980347 232.0 
724.134949 180.0 
724.267151 160.0 
724.399292 684.0 
724.542358 160.0 
724.705383 124.0 
724.781799 136.0 
724.862 120.0 
724.926208 336.0 
725.041809 216.0 
725.095825 272.0 
725.262573 188.0 
725.358398 244.0 
725.410767 256.0 
725.450378 456.0 
725.520447 112.0 
725.690491 284.0 
725.755676 156.0 
725.798645 344.0 
725.880859 356.0 
726.012573 316.0 
726.070374 276.0 
726.105774 312.0 
726.168518 128.0 
726.257019 344.0 
726.287415 564.0 
726.337341 556.0 
726.421936 160260.0 
726.560059 504.0 
726.618347 564.0 
726.748047 304.0 
726.787231 308.0 
726.869995 200.0 
726.977173 136.0 
727.015686 492.0 
727.136108 300.0 
727.147766 240.0 
727.216858 380.0 
727.309326 712.0 
727.424255 62540.0 
727.514404 748.0 
727.606812 232.0 
727.738831 268.0 
727.781677 192.0 
727.871155 220.0 
727.917175 236.0 
728.054565 364.0 
728.122192 132.0 
728.21875 472.0 
728.426575 13248.0 
728.735474 132.0 
728.788757 200.0 
728.867371 160.0 
728.941284 184.0 
729.028076 160.0 
729.111877 256.0 
729.324707 144.0 
729.425232 3380.0 
729.65332 160.0 
729.882202 192.0 
730.113281 104.0 
730.377197 168.0 
730.4328 500.0 
730.550476 212.0 
730.691528 144.0 
730.733887 224.0 
730.863281 176.0 
730.990662 248.0 
731.034119 240.0 
731.086975 124.0 
731.243347 188.0 
731.277344 220.0 
731.351746 188.0 
731.410095 136.0 
731.497986 176.0 
731.604797 152.0 
731.667908 160.0 
731.816956 156.0 
731.887329 240.0 
731.993347 112.0 
732.064514 196.0 
732.127075 192.0 
732.280273 156.0 
732.928406 152.0 
733.102783 140.0 
733.220703 104.0 
733.872253 104.0 
733.941345 152.0 
734.332886 164.0 
734.447083 108.0 
735.055481 144.0 
735.176453 108.0 
735.937317 152.0 
742.078735 156.0 
742.588257 144.0 
744.396729 108.0 
744.894104 140.0 
745.781372 100.0 
746.42926 212.0 
746.533813 108.0 
747.80188 164.0 
748.390442 144.0 
748.656372 200.0 
749.206177 140.0 
749.414001 120.0 
749.592834 152.0 
752.62439 144.0 
753.29541 100.0 
754.098755 148.0 
756.203552 140.0 
758.360596 200.0 
760.973755 100.0 
794.108826 132.0 
801.2005 148.0 
942.43457 144.0 
1074.912842 140.0 
1111.623901 144.0 
1141.269897 188.0 
1173.08374 156.0 
1197.563354 144.0 
1267.924316 140.0 
1270.348145 140.0 
1419.14209 148.0 
1472.05896 140.0 
1499.643188 148.0 
1510.897095 272.0 
1620.539673 144.0 
1745.781616 184.0 
1932.633179 220.0 
1970.079834 236.0 
END IONS

