BEGIN IONS
PEPMASS=847.3
CHARGE=0+
MSLEVEL=2
SOURCE_INSTRUMENT=LC-ESI-Ion Trap
FILENAME=20130517_Ger_Jenia_Nodularin_MNa847-qb.1.1..mgf
SEQ=*..*
IONMODE=Positive
ORGANISM=GNPS-LIBRARY
NAME=Nodularin M+Na
PI=Gerwick
DATACOLLECTOR=Jenia
SMILES=CO[C@@H](CC1=CC=CC=C1)[C@@H](C)\C=C(/C)\C=C\[C@@H]1NC(=O)[C@H](CCCNC(N)=N)NC(=O)[C@@H](C)[C@@H](NC(=O)\C(=C\C)N(C)C(=O)CC[C@@H](NC(=O)[C@H]1C)C(O)=O)C(O)=O
INCHI=InChI=1S/C41H60N8O10/c1-8-31-38(54)48-34(40(57)58)26(5)36(52)46-29(15-12-20-44-41(42)43)37(53)45-28(25(4)35(51)47-30(39(55)56)18-19-33(50)49(31)6)17-16-23(2)21-24(3)32(59-7)22-27-13-10-9-11-14-27/h8-11,13-14,16-17,21,24-26,28-30,32,34H,12,15,18-20,22H2,1-7H3,(H,45,53)(H,46,52)(H,47,51)(H,48,54)(H,55,56)(H,57,58)(H4,42,43,44)/b17-16+,23-21+,31-8-/t24-,25-,26-,28-,29-,30+,32-,34+/m0/s1
INCHIAUX=IXBQSRWSVIBXNC-HSKGSTCASA-N
PUBMED=N/A
SUBMITUSER=mwang87
LIBRARYQUALITY=1
SPECTRUMID=CCMSLIB00000001778
SCANS=1
319.337769 26759.0 
404.472961 15337.0 
470.355469 43797.0 
473.387817 29016.0 
499.165833 15203.0 
515.03125 39600.0 
516.458496 29353.0 
518.390503 4697.0 
530.480469 13331.0 
533.389771 6961.0 
539.898926 13187.0 
541.850098 46883.0 
548.354004 90624.0 
572.029297 35281.0 
590.32666 31391.0 
603.859131 58927.0 
621.239624 52343.0 
658.037964 16972.0 
695.635742 16524.0 
698.113037 42046.0 
712.281982 6639.0 
715.211426 83938.0 
718.464111 98373.0 
732.319458 98433.0 
735.38208 487190.0 
736.255127 4.0 
758.661621 33177.0 
769.54187 22132.0 
770.259521 12005.0 
775.34436 29377.0 
786.348389 80555.0 
787.351562 326324.0 
788.214722 110388.0 
801.313599 87637.0 
802.384033 93208.0 
803.439087 148866.0 
804.728271 18856.0 
805.579834 124074.0 
810.82019 62862.0 
811.715942 57319.0 
812.328003 565444.0 
815.186157 8791.0 
825.552002 14320.0 
827.653076 24712.0 
829.332153 14096592.0 
830.326904 487342.0 
END IONS

