BEGIN IONS
PEPMASS=517.21
CHARGE=1+
MSLEVEL=2
SOURCE_INSTRUMENT=LC-ESI-Ion Trap
FILENAME=AerucyclamideC_MSMS.mzXML
SEQ=*..*
IONMODE=Positive
ORGANISM=GNPS-LIBRARY
NAME=Aerucyclamide C M+H
PI=Gerwick
DATACOLLECTOR=E Briand
SMILES=[H][C@]12N=C(O[C@@H]1C)[C@H](C)NC(=O)C1=CSC(=N1)[C@]([H])(NC(=O)C1=COC(=N1)[C@@H](NC2=O)C(C)C)[C@@H](C)CC
INCHI=InChI=1S/C24H32N6O5S/c1-7-11(4)17-24-27-15(9-36-24)20(32)25-12(5)22-30-18(13(6)35-22)21(33)28-16(10(2)3)23-26-14(8-34-23)19(31)29-17/h8-13,16-18H,7H2,1-6H3,(H,25,32)(H,28,33)(H,29,31)/t11-,12-,13+,16-,17+,18-/m0/s1
INCHIAUX=MQIAICAGVFTAAN-ZIYJYRAWSA-N
PUBMED=18973386
SUBMITUSER=ebriand
LIBRARYQUALITY=2
SPECTRUMID=CCMSLIB00000071752
SCANS=519
167.080933 2895.0 
197.142914 5901.0 
197.912903 39057.0 
199.007477 1514.0 
209.947113 4730.0 
210.939911 2177.0 
222.23114 7915.0 
222.991913 85167.0 
224.140472 4104.0 
232.280548 1716.0 
250.871277 38092.0 
251.825439 6562.0 
267.538818 741.0 
277.011719 3360.0 
290.554932 2205.0 
307.796387 20913.0 
332.993164 935.0 
351.076904 2497.0 
352.118042 9595.0 
362.909912 12455.0 
379.900146 4402.0 
384.026367 3979.0 
389.087036 7803.0 
404.899048 9582.0 
406.017639 24840.0 
431.824646 10590.0 
433.992615 31580.0 
434.875916 5645.0 
446.05719 7138.0 
447.122498 1154.0 
460.332031 988.0 
469.601807 5037.0 
470.697144 1324.0 
472.276306 9337.0 
472.985352 18580.0 
474.947144 1822.0 
476.331238 1453.0 
488.91864 22681.0 
489.555481 3.0 
490.357788 5435.0 
499.05542 35363.0 
500.212585 8430.0 
516.181641 1677.0 
517.774414 663.0 
END IONS

