BEGIN IONS
PEPMASS=752.51
CHARGE=1+
MSLEVEL=2
SOURCE_INSTRUMENT=LC-ESI-Ion Trap
FILENAME=f.yuhaobing/microcolins Fedback/microcolin E.mzXML;
SEQ=*..*
IONMODE=Positive
ORGANISM=GNPS-LIBRARY
NAME=Microcolin E M+Na
PI=Gerwick
DATACOLLECTOR=Haobing Yu
SMILES=CN(C([C@H](C)C[C@H](C)CCCC)=O)[C@@H](/C=C(C)\C)C(N[C@@H]([C@@H](C)OC(C)=O)C(N(C)[C@@H](C(C)C)C(N1[C@H](C(N2C(C=C[C@@H]2C)=O)=O)CCC1)=O)=O)=O
INCHI=
INCHIAUX=
PUBMED=31468974
SUBMITUSER=yuhaobing
LIBRARYQUALITY=3
SPECTRUMID=CCMSLIB00005463461
SCANS=738
232.772919 32216.0 
252.307007 78726.0 
262.917419 84706.0 
279.080078 67275.0 
280.18335 133855.0 
280.787476 2.0 
290.727112 98913.0 
315.917236 62990.0 
319.172546 50549.0 
319.80603 1.0 
330.268066 694325.0 
331.009277 10.0 
341.717834 87724.0 
345.530518 160413.0 
366.774902 85156.0 
370.175537 93779.0 
370.807739 80195.0 
375.476685 115250.0 
384.916321 201920.0 
385.540161 14.0 
398.111328 122452.0 
399.114746 48264.0 
403.164978 75215.0 
413.187988 1577732.0 
414.279541 212694.0 
417.035034 239956.0 
418.229736 78138.0 
423.026367 174352.0 
426.093567 137231.0 
445.119934 464123.0 
446.204346 15768.0 
448.150513 374021.0 
449.21344 32758.0 
454.217529 58714.0 
464.592957 19237.0 
470.063843 39954.0 
473.115479 1020071.0 
474.236694 133352.0 
476.292419 441735.0 
477.021606 67332.0 
483.029053 362672.0 
483.718201 22.0 
498.303528 110675.0 
499.388428 131009.0 
507.363281 112304.0 
508.038452 26.0 
509.056335 112072.0 
522.806763 59309.0 
527.003662 35679.0 
549.489502 193718.0 
557.721924 14455.0 
558.331787 19278.0 
559.130859 133523.0 
567.425049 501335.0 
568.392944 32440.0 
595.326172 282233.0 
595.957642 15835.0 
627.56189 355684.0 
628.628662 288985.0 
647.933594 75856.0 
655.332275 371614.0 
656.384766 305294.0 
664.054199 97468.0 
691.753906 251323.0 
692.473877 38860736.0 
693.517578 11979482.0 
694.334473 124.0 
708.506226 69047.0 
709.274048 30296.0 
721.985962 34835.0 
752.485229 989788.0 
753.387939 465878.0 
754.106323 9.0 
END IONS

