BEGIN IONS
PEPMASS=761.4
CHARGE=0+
MSLEVEL=2
SOURCE_INSTRUMENT=LC-ESI-Ion Trap
FILENAME=20121213_Jenia_Ger_AntanapeptinB_MNa761-qb.1.1..mgf
SEQ=*..*
IONMODE=Positive
ORGANISM=GNPS-LIBRARY
NAME=Antanapeptin B M+Na
PI=Gerwick
DATACOLLECTOR=Jenia
SMILES=CCC(C)[C@@H]1N(C)C(=O)[C@@H]2CCCN2C(=O)[C@@H](OC(=O)[C@H](CC2=CC=CC=C2)N(C)C(=O)[C@@H](NC(=O)C(C)C(CCCC=C)OC1=O)C(C)C)C(C)C
INCHI=InChI=1S/C41H62N4O8/c1-11-13-15-22-32-28(8)36(46)42-33(25(3)4)38(48)43(9)31(24-29-19-16-14-17-20-29)40(50)53-35(26(5)6)39(49)45-23-18-21-30(45)37(47)44(10)34(27(7)12-2)41(51)52-32/h11,14,16-17,19-20,25-28,30-35H,1,12-13,15,18,21-24H2,2-10H3,(H,42,46)/t27?,28?,30-,31-,32?,33-,34-,35-/m0/s1
INCHIAUX=LZACOZXZESEOFK-CVZHIFNESA-N
PUBMED=N/A
SUBMITUSER=mwang87
LIBRARYQUALITY=1
SPECTRUMID=CCMSLIB00000001677
SCANS=1
261.153687 284052.0 
315.91748 344948.0 
419.203125 551033.0 
524.223999 27428.0 
537.05249 1816525.0 
538.370605 100686.0 
548.03772 116563.0 
551.218262 201899.0 
554.369263 55567.0 
600.243164 1426350.0 
608.364746 137563.0 
633.057617 145878.0 
634.236084 44510000.0 
635.264648 6432020.0 
636.199951 2.0 
648.258789 66713.0 
733.11084 474544.0 
END IONS

