BEGIN IONS
PEPMASS=836.4
CHARGE=0+
MSLEVEL=2
SOURCE_INSTRUMENT=LC-ESI-Ion Trap
FILENAME=20130610_Ger_Jenia_Apratoxin_G_MNa836.4-qb.1.1..mgf
SEQ=*..*
IONMODE=Positive
ORGANISM=GNPS-LIBRARY
NAME=Apratoxin G M+Na
PI=Gerwick
DATACOLLECTOR=Jenia
SMILES=COC1=CC=C(C[C@@H]2NC(=O)\C(C)=C/C3CSC(=N3)[C@@H](C)[C@@H](O)C[C@H](C)C[C@H](OC(=O)[C@H](C)N(C)C(=O)[C@H](C(C)C)N(C)C(=O)[C@H](C)N(C)C2=O)C(C)(C)C)C=C1
INCHI=InChI=1S/C43H67N5O8S/c1-24(2)36-41(53)47(12)29(7)42(54)56-35(43(8,9)10)20-25(3)19-34(49)27(5)38-44-31(23-57-38)21-26(4)37(50)45-33(22-30-15-17-32(55-14)18-16-30)40(52)46(11)28(6)39(51)48(36)13/h15-18,21,24-25,27-29,31,33-36,49H,19-20,22-23H2,1-14H3,(H,45,50)/b26-21-/t25-,27-,28-,29-,31?,33-,34-,35-,36-/m0/s1
INCHIAUX=QYPABEUQMXOENV-NMOSBCMXSA-N
PUBMED=N/A
SUBMITUSER=mwang87
LIBRARYQUALITY=1
SPECTRUMID=CCMSLIB00000001793
SCANS=1
239.009583 1238.0 
270.577026 1466.0 
301.51001 3918.0 
310.009521 4684.0 
330.593201 5346.0 
331.273804 873.0 
352.879089 2827.0 
357.701172 464.0 
359.086884 13552.0 
360.226074 1661.0 
363.170288 2484.0 
364.390137 8130.0 
378.779541 1728.0 
379.540405 4217.0 
380.268372 5535.0 
380.950897 7782.0 
385.684265 6633.0 
392.364075 3399.0 
393.739929 28078.0 
395.061523 3169.0 
399.215057 4305.0 
400.254578 9269.0 
403.603027 3166.0 
411.937653 16384.0 
416.117798 2874.0 
421.454468 3016.0 
422.127014 18086.0 
422.828735 4772.0 
425.093506 1538.0 
427.584961 5413.0 
428.294495 854.0 
436.146729 12670.0 
437.707642 1512.0 
438.786987 5199.0 
439.419952 4969.0 
442.136108 3275.0 
443.945587 58370.0 
444.987 19635.0 
450.019165 1874.0 
451.094666 9591.0 
452.089844 17522.0 
452.783508 2538.0 
456.393921 997.0 
465.959137 221973.0 
467.022705 21718.0 
478.145233 19840.0 
484.0737 386205.0 
484.982971 91000.0 
485.716614 6.0 
495.095215 4916.0 
497.156219 8068.0 
507.36322 2411.0 
516.829102 8091.0 
522.461426 737.0 
523.124817 114319.0 
524.145264 9722.0 
533.160645 2586.0 
535.000488 9582.0 
535.746582 2.0 
536.58252 18848.0 
537.343872 1464.0 
546.476074 2641.0 
548.009521 3489.0 
549.102661 3281.0 
551.165039 10884.0 
557.180359 52500.0 
558.250916 10265.0 
559.030884 7428.0 
560.306641 5208.0 
561.221497 11838.0 
561.946777 1742.0 
563.143433 53889.0 
564.41626 1499.0 
566.223145 1533.0 
575.530762 5433.0 
578.477295 3631.0 
579.128601 2363984.0 
580.150696 391716.0 
580.858887 39.0 
592.053955 4105.0 
593.252197 3174.0 
596.375977 4336.0 
597.113586 559258.0 
598.109131 72236.0 
598.633301 2.0 
600.530029 2716.0 
602.035645 907.0 
603.164062 4907.0 
605.704834 9152.0 
610.145386 1809.0 
619.833435 20613.0 
620.341675 14490.0 
621.192017 12828.0 
627.273193 4556.0 
634.674316 11564.0 
638.251526 19490.0 
639.209045 14284.0 
643.643555 5668.0 
654.996338 5221.0 
656.194214 2616.0 
659.883423 1214.0 
666.170898 2471.0 
677.134399 2856.0 
682.100891 252078.0 
683.145813 69585.0 
683.818481 9.0 
687.058594 2507.0 
687.75 2.0 
711.103394 8009.0 
715.146545 31052.0 
716.369995 2914.0 
718.486328 9221.0 
720.335693 4060.0 
730.608887 3812.0 
733.260315 171284.0 
734.337585 28854.0 
749.450012 16070.0 
750.343628 7452.0 
751.377075 19713.0 
775.572266 2464.0 
776.645996 8841.0 
781.252686 1916.0 
794.193481 1806.0 
798.026367 10523.0 
817.950989 26512.0 
818.731567 906.0 
835.088135 1346.0 
836.72998 4062.0 
END IONS

