BEGIN IONS
PEPMASS=672.39
CHARGE=1+
MSLEVEL=2
SOURCE_INSTRUMENT=LC-ESI-qTof
FILENAME=1B6_PalmyramideA_MH_672.mzXML
SEQ=*..*
IONMODE=Positive
ORGANISM=GNPS-LIBRARY
NAME=Palmyramide A M+H
PI=Dorrestein/Gerwick
DATACOLLECTOR=Luzzatto/Garg
SMILES=[H][C@@]12CCCN1C(=O)[C@H](CC1=CC=CC=C1)OC(=O)[C@H](C)OC(=O)C(C)(C)[C@@H](CCC)OC(=O)[C@@H](NC(=O)[C@@H](C(C)C)N(C)C2=O)C(C)C
INCHI=InChI=1S/C36H53N3O9/c1-10-15-27-36(7,8)35(45)46-23(6)33(43)47-26(20-24-16-12-11-13-17-24)32(42)39-19-14-18-25(39)31(41)38(9)29(22(4)5)30(40)37-28(21(2)3)34(44)48-27/h11-13,16-17,21-23,25-29H,10,14-15,18-20H2,1-9H3,(H,37,40)/t23-,25-,26-,27+,28-,29+/m0/s1
INCHIAUX=QXWOTWUQMDHDCF-UEPNLWJJSA-N
PUBMED=19839606
SUBMITUSER=tal_lk
LIBRARYQUALITY=2
SPECTRUMID=CCMSLIB00000070260
SCANS=2528
110.505859 232.0 
129.833069 164.0 
131.050995 224.0 
133.007828 164.0 
140.996735 152.0 
143.06665 224.0 
143.107101 216.0 
158.960129 220.0 
172.07283 172.0 
172.27124 184.0 
177.318726 216.0 
194.116211 244.0 
197.11853 920.0 
201.110626 156.0 
215.056351 224.0 
215.129303 200.0 
220.934067 212.0 
226.95694 148.0 
228.101883 1084.0 
229.105911 504.0 
230.099838 160.0 
246.091705 212.0 
246.113556 180.0 
266.923096 252.0 
279.031952 196.0 
293.13382 168.0 
301.144867 140.0 
305.872498 256.0 
307.157776 144.0 
313.159698 256.0 
325.854736 176.0 
328.932587 188.0 
333.15329 196.0 
345.176544 356.0 
346.176208 216.0 
350.040833 176.0 
359.197113 140.0 
363.175171 152.0 
393.290833 344.0 
405.052246 152.0 
405.132324 160.0 
413.124237 188.0 
426.198486 172.0 
428.864594 180.0 
432.228577 204.0 
442.208313 184.0 
445.288727 752.0 
446.293915 260.0 
452.928375 236.0 
465.23468 188.0 
479.76059 160.0 
513.27948 176.0 
526.749084 144.0 
530.009766 160.0 
530.269348 108.0 
531.274658 156.0 
555.308777 524.0 
556.317261 412.0 
557.30719 144.0 
559.813354 208.0 
573.317444 272.0 
574.322998 176.0 
577.284424 212.0 
602.296448 232.0 
613.840027 176.0 
620.745422 192.0 
634.692078 148.0 
638.140076 156.0 
641.733582 184.0 
644.389404 116.0 
665.362671 208.0 
672.205566 188.0 
672.251953 148.0 
672.385193 1420.0 
673.263367 276.0 
673.387085 952.0 
674.382507 160.0 
674.400879 112.0 
675.351929 224.0 
704.677612 248.0 
757.286316 180.0 
1232.84021 196.0 
END IONS

