BEGIN IONS
PEPMASS=687.08
CHARGE=1+
MSLEVEL=2
SOURCE_INSTRUMENT=LC-ESI-Ion Trap
FILENAME=CarmabinA.mzXML
SEQ=*..*
IONMODE=Positive
ORGANISM=GNPS-LIBRARY
NAME=Carmabin A M+H
PI=Gerwick
DATACOLLECTOR=A Wodtke
SMILES=C[C@@H](C(=O)N(C)[C@@H](C)C(=O)N(C)[C@@H](CC1=CC=C(C=C1)OC)C(=O)N)NC(=O)[C@H](CC2=CC=CC=C2)N(C)C(=O)C(C)CC(C)CCCCC#C
INCHI=InChI=1S/C40H57N5O6/c1-10-11-12-14-17-27(2)24-28(3)38(48)45(8)35(26-31-18-15-13-16-19-31)37(47)42-29(4)39(49)43(6)30(5)40(50)44(7)34(36(41)46)25-32-20-22-33(51-9)23-21-32/h1,13,15-16,18-23,27-30,34-35H,11-12,14,17,24-26H2,2-9H3,(H2,41,46)(H,42,47)/t27?,28?,29-,30-,34-,35-/m0/s1
INCHIAUX=N/A
PUBMED=24025162
SUBMITUSER=mwang87
LIBRARYQUALITY=1
SPECTRUMID=CCMSLIB00000006872
SCANS=1
202.11142 1488.0 
221.040436 882.0 
245.786133 18576.0 
246.558319 1.0 
276.905731 8116.0 
284.276978 262.0 
286.883057 259.0 
294.301819 1002.0 
312.02533 180338.0 
312.815948 3.0 
337.84375 18000.0 
339.123657 18060.0 
339.916626 1223202.0 
340.756805 154.0 
348.264618 7362.0 
392.792236 413.0 
393.372437 248.0 
408.859863 829.0 
410.921661 221644.0 
411.356628 188.0 
433.263245 2126.0 
493.835663 18974.0 
494.923859 44691.0 
495.954559 2344599.0 
496.594574 78.0 
508.905701 998.0 
531.077881 207.0 
627.391357 5313.0 
686.263062 5907.0 
687.307312 7855.0 
END IONS

