BEGIN IONS
PEPMASS=608.0
CHARGE=0+
MSLEVEL=2
SOURCE_INSTRUMENT=LC-ESI-Ion Trap
FILENAME=20121113_Jenia_Ger_MalyngamideJ_MH_608_qb.1.1..mgf
SEQ=*..*
IONMODE=Positive
ORGANISM=GNPS-LIBRARY
NAME=Malyngamide J M+H
PI=Gerwick
DATACOLLECTOR=Jenia
SMILES=CCCCCCC[C@@H](C\C=C\CCC(=O)NCCC(=C)[C@]12O[C@H]1[C@H](OC1OCC(OC)C(O)C1OC)C=C(C)C2=O)OC
INCHI=InChI=1S/C33H53NO9/c1-7-8-9-10-12-15-24(38-4)16-13-11-14-17-27(35)34-19-18-23(3)33-30(37)22(2)20-25(31(33)43-33)42-32-29(40-6)28(36)26(39-5)21-41-32/h11,13,20,24-26,28-29,31-32,36H,3,7-10,12,14-19,21H2,1-2,4-6H3,(H,34,35)/b13-11+/t24-,25+,26?,28?,29?,31-,32?,33+/m0/s1
INCHIAUX=UZMVEOVJASEKLP-BYPNWZLWSA-N
PUBMED=N/A
SUBMITUSER=mwang87
LIBRARYQUALITY=1
SPECTRUMID=CCMSLIB00000001591
SCANS=1
223.92569 791.0 
282.892944 2058.0 
302.954224 1012.0 
398.024689 4416.0 
401.749817 1285.0 
415.898895 5169.0 
430.15686 666.0 
448.012909 4254.0 
503.802002 610.0 
535.590942 1345.0 
607.262451 806.0 
END IONS

