BEGIN IONS
PEPMASS=545.154
CHARGE=1+
MSLEVEL=2
SOURCE_INSTRUMENT=LC-ESI-qTof
FILENAME=1B9_Scytonemin_MH_545.mzXML
SEQ=*..*
IONMODE=Positive
ORGANISM=GNPS-LIBRARY
NAME=Scytonemin M+H
PI=Dorrestein/Gerwick
DATACOLLECTOR=Luzzatto/Garg
SMILES=OC1=CC=C(\C=C2\C(=O)C(C3=C4C5=C(C=CC=C5)N=C4\C(=C/C4=CC=C(O)C=C4)C3=O)=C3C4=C(C=CC=C4)N=C23)C=C1
INCHI=InChI=1S/C36H20N2O4/c39-21-13-9-19(10-14-21)17-25-33-29(23-5-1-3-7-27(23)37-33)31(35(25)41)32-30-24-6-2-4-8-28(24)38-34(30)26(36(32)42)18-20-11-15-22(40)16-12-20/h1-18,39-40H/b25-17+,26-18+
INCHIAUX=CGZKSPLDUIRCIO-RPCRKUJJSA-N
PUBMED=8405307
SUBMITUSER=tal_lk
LIBRARYQUALITY=2
SPECTRUMID=CCMSLIB00000070263
SCANS=2550
160.504257 164.0 
164.51004 164.0 
165.092361 164.0 
175.299377 220.0 
177.116364 248.0 
181.203995 260.0 
182.903214 168.0 
200.238724 216.0 
203.495071 176.0 
217.797806 180.0 
221.140106 204.0 
223.311096 164.0 
228.186478 160.0 
232.07074 240.0 
233.083862 136.0 
233.64032 260.0 
244.072495 204.0 
248.073456 172.0 
248.647232 168.0 
251.141251 152.0 
251.390381 224.0 
257.089325 176.0 
264.166504 160.0 
269.751038 216.0 
270.908997 220.0 
272.078094 248.0 
286.090759 176.0 
294.275238 188.0 
296.083435 160.0 
296.905609 164.0 
297.392609 204.0 
297.842224 188.0 
300.374664 148.0 
300.781677 180.0 
306.202362 176.0 
310.117432 180.0 
310.948364 152.0 
313.092072 220.0 
316.583374 164.0 
319.538971 156.0 
320.103821 176.0 
322.56192 276.0 
333.117767 184.0 
335.262115 400.0 
336.260986 204.0 
341.134369 140.0 
343.361145 164.0 
344.110443 164.0 
345.116821 116.0 
351.448639 160.0 
352.904755 140.0 
354.112976 208.0 
355.544586 140.0 
356.90387 144.0 
360.162445 168.0 
361.4133 232.0 
364.308716 168.0 
366.175598 176.0 
369.128235 324.0 
371.118042 796.0 
372.108948 596.0 
373.914001 176.0 
375.095978 208.0 
376.144775 268.0 
377.991455 160.0 
379.12677 204.0 
380.126617 176.0 
382.114044 232.0 
382.413849 252.0 
383.122253 144.0 
384.092438 176.0 
389.519653 216.0 
389.566772 200.0 
394.372192 196.0 
395.071808 188.0 
395.122955 496.0 
396.126862 1352.0 
396.924683 340.0 
397.134155 576.0 
397.555145 176.0 
398.118652 152.0 
398.221863 184.0 
398.499817 216.0 
398.988464 180.0 
399.114288 288.0 
399.153351 156.0 
399.552979 144.0 
400.131012 188.0 
402.138092 204.0 
404.05542 152.0 
405.099884 156.0 
405.131897 240.0 
406.121216 196.0 
406.803497 176.0 
407.116119 164.0 
408.149597 180.0 
409.093964 140.0 
410.107513 632.0 
411.110443 380.0 
412.121979 456.0 
412.844879 224.0 
413.113495 188.0 
413.370544 152.0 
414.771301 196.0 
417.48642 172.0 
417.608368 172.0 
420.855011 160.0 
422.145721 144.0 
422.480988 228.0 
423.116333 372.0 
423.184662 176.0 
424.124451 592.0 
425.124268 368.0 
426.09549 140.0 
426.152985 168.0 
426.978882 192.0 
428.118408 276.0 
432.144562 200.0 
433.138733 192.0 
433.809753 156.0 
433.863647 156.0 
435.120728 332.0 
435.888275 192.0 
436.105011 164.0 
436.145844 348.0 
436.295441 212.0 
437.126953 172.0 
437.40155 156.0 
440.10614 152.0 
442.120178 224.0 
443.165131 180.0 
444.134644 204.0 
445.139435 196.0 
446.146423 192.0 
447.135284 200.0 
449.10788 240.0 
449.475494 140.0 
450.420807 164.0 
451.111023 532.0 
453.118713 152.0 
455.926605 144.0 
458.134064 264.0 
459.150116 128.0 
459.915771 176.0 
460.156616 328.0 
461.115479 160.0 
461.168427 460.0 
462.145874 388.0 
463.144043 140.0 
463.588135 196.0 
464.526733 200.0 
465.273132 184.0 
467.752594 320.0 
468.372406 176.0 
469.130524 164.0 
470.14679 148.0 
471.153137 112.0 
472.158386 924.0 
472.229614 148.0 
473.135742 328.0 
474.130646 180.0 
475.145355 160.0 
477.032074 160.0 
480.161499 168.0 
481.893799 140.0 
483.152527 360.0 
484.141266 164.0 
484.491516 164.0 
485.151367 216.0 
485.446655 144.0 
486.149841 248.0 
487.141998 296.0 
487.702362 156.0 
488.154938 2108.0 
488.887543 172.0 
489.161072 4124.0 
489.540649 188.0 
490.166565 2568.0 
490.242096 176.0 
490.310089 232.0 
490.950287 172.0 
491.167206 724.0 
491.470581 160.0 
492.148529 196.0 
492.322205 168.0 
492.497864 112.0 
495.116058 156.0 
496.94165 204.0 
497.132355 148.0 
498.138428 256.0 
498.437378 152.0 
499.143707 1108.0 
499.502533 200.0 
500.151062 2060.0 
500.389221 140.0 
500.562805 228.0 
501.159424 884.0 
502.144165 552.0 
502.177582 224.0 
502.590149 144.0 
503.13443 180.0 
503.379913 168.0 
507.396301 180.0 
507.485931 160.0 
507.65625 204.0 
514.136292 160.0 
515.007324 172.0 
515.138916 872.0 
515.842896 144.0 
516.148071 2688.0 
517.000305 196.0 
517.156921 4252.0 
517.231079 144.0 
517.344177 224.0 
517.520691 212.0 
517.909973 176.0 
518.163208 1512.0 
518.303955 168.0 
519.166199 140.0 
520.970703 180.0 
521.870178 168.0 
522.12262 172.0 
524.017639 160.0 
525.398499 156.0 
525.544922 180.0 
526.962585 164.0 
527.145691 172.0 
527.767944 200.0 
528.148254 2688.0 
528.254333 120.0 
529.154663 1016.0 
529.213257 200.0 
529.381104 160.0 
529.735107 156.0 
529.854187 200.0 
530.152344 352.0 
530.3573 124.0 
531.164734 172.0 
532.178589 204.0 
533.138245 184.0 
534.540222 204.0 
536.838013 232.0 
538.149536 224.0 
540.84668 156.0 
542.727051 148.0 
543.135437 312.0 
543.292419 180.0 
543.351501 144.0 
543.725098 140.0 
543.84491 160.0 
543.909363 196.0 
543.951111 188.0 
544.144958 3776.0 
544.271301 148.0 
544.443787 232.0 
544.596252 156.0 
544.667847 136.0 
544.728149 176.0 
544.797485 260.0 
544.846985 300.0 
544.879517 152.0 
544.970154 192.0 
545.015625 248.0 
545.053345 108.0 
545.154541 39504.0 
545.317871 380.0 
545.43335 180.0 
545.469482 184.0 
545.52356 192.0 
545.559387 144.0 
545.831482 104.0 
545.9505 168.0 
545.98584 100.0 
546.059998 188.0 
546.157104 16512.0 
546.281006 208.0 
546.317017 120.0 
546.390808 564.0 
547.160828 3524.0 
547.329224 156.0 
547.404846 240.0 
548.161865 516.0 
548.428711 228.0 
549.110352 172.0 
549.150696 196.0 
549.382385 132.0 
550.144592 156.0 
550.30011 164.0 
551.517395 140.0 
553.286255 100.0 
554.169739 144.0 
571.905334 144.0 
592.842468 148.0 
700.686279 140.0 
730.219421 164.0 
843.370544 144.0 
858.372131 148.0 
877.579712 156.0 
885.625366 240.0 
1306.60791 160.0 
1739.554688 156.0 
1955.413208 144.0 
END IONS

