BEGIN IONS
PEPMASS=616.0
CHARGE=1+
COMPOUNDNAME=Massbank:KO003896 Paromomycin|Zygomycin A1|Catenulin|Monomycin A|Hydroxymycin|Aminosidin
LIBRARYQUALITY=3
SMILES=OCC(O1)C(O)C(O)C(N)C1OC(C(N)4)C(C(O)C(N)C4)OC(O3)C(O)C(C(CO)3)OC([H])(O2)C(N)C(O)C(O)C(CN)2
INCHIKEY=UOZODPSAJZTQNH-UHFFFAOYSA-N
INCHI=1S/C23H45N5O14/c24-2-7-13(32)15(34)10(27)21(37-7)41-19-9(4-30)39-23(17(19)36)42-20-12(31)5(25)1-6(26)18(20)40-22-11(28)16(35)14(33)8(3-29)38-22/h5-23,29-36H,1-4,24-28H2/t5-,6+,7+,8-,9-,10-,11-,12+,13-,14-,15-,16-,17-,18-,19-,20-,21-,22-,23-/m1/s1
MSLEVEL=2
SOURCE_INSTRUMENT=ESI-LC-ESI-QQ
FILENAME=Massbank_ESI_positive_8_1_2014_peaks.mgf
SEQ=*..*
IONMODE=Positive
ORGANISM=MASSBANK
NAME=Massbank:KO003896 Paromomycin|Zygomycin A1|Catenulin|Monomycin A|Hydroxymycin|Aminosidin [M+H]+
PI=Putative Massbank Match
DATACOLLECTOR=Massbank
PUBMED=N/A
SUBMITUSER=mwang87
TAGS=
SPECTRUMID=CCMSLIB00000220308
SCANS=9688
84.1 94059.5 
85.9 19802.0 
96.7 39604.0 
97.0 34653.5 
102.1 84158.5 
107.7 24752.5 
109.2 29703.0 
113.9 54455.5 
131.9 14851.5 
143.4 49505.0 
144.3 103960.5 
145.4 59406.0 
161.1 816832.5 
162.1 193069.5 
163.4 1925744.5 
167.2 59406.0 
174.5 19802.0 
185.5 49505.0 
187.2 158416.0 
202.1 19802.0 
203.6 529703.5 
226.2 69307.0 
239.2 44554.5 
241.3 89109.0 
257.5 74257.5 
257.9 39604.0 
259.3 79208.0 
275.4 49505.0 
289.4 113861.5 
293.2 79208.0 
295.7 128713.0 
305.3 24752.5 
307.5 108911.0 
324.8 34653.5 
354.8 14851.5 
403.3 19802.0 
426.4 14851.5 
END IONS

