BEGIN IONS
PEPMASS=850.482
CHARGE=1+
MSLEVEL=2
SOURCE_INSTRUMENT=LC-ESI-qTof
FILENAME=JT_ApratoxinF_MNa_850.mzXML
SEQ=*..*
IONMODE=Positive
ORGANISM=GNPS-LIBRARY
NAME=Apratoxin F M+Na
PI=Dorrestein/Gerwick
DATACOLLECTOR=Luzzatto/Garg
SMILES=CC[C@H](C)[C@@H]1N(C)C(=O)[C@H](C)N(C)C(=O)[C@H](CC2=CC=C(OC)C=C2)NC(=O)\C(C)=C/C2CSC(=N2)[C@@H](C)[C@@H](O)C[C@H](C)C[C@H](OC(=O)[C@H](C)N(C)C1=O)C(C)(C)C
INCHI=InChI=1S/C44H69N5O8S/c1-15-26(3)37-42(54)48(12)30(7)43(55)57-36(44(8,9)10)21-25(2)20-35(50)28(5)39-45-32(24-58-39)22-27(4)38(51)46-34(23-31-16-18-33(56-14)19-17-31)41(53)47(11)29(6)40(52)49(37)13/h16-19,22,25-26,28-30,32,34-37,50H,15,20-21,23-24H2,1-14H3,(H,46,51)/b27-22-/t25-,26-,28-,29-,30-,32?,34-,35-,36-,37-/m0/s1
INCHIAUX=BAYCKSGCVUIVNR-MJEAVDSUSA-N
PUBMED=20512792
SUBMITUSER=tal_lk
LIBRARYQUALITY=2
SPECTRUMID=CCMSLIB00000070288
SCANS=2483
105.647827 148.0 
158.968948 152.0 
214.15834 176.0 
226.949707 136.0 
315.152832 212.0 
332.15155 148.0 
338.855469 172.0 
340.168304 184.0 
353.137909 184.0 
355.260895 160.0 
360.145691 136.0 
362.924316 140.0 
388.465881 160.0 
399.129547 260.0 
402.779663 244.0 
412.174316 120.0 
413.168793 124.0 
422.180298 148.0 
423.145935 244.0 
438.154327 172.0 
444.190704 240.0 
444.266144 152.0 
445.195312 136.0 
446.195648 200.0 
466.169708 448.0 
467.174683 272.0 
468.178925 180.0 
469.185089 132.0 
479.853455 148.0 
482.105682 160.0 
484.190979 1264.0 
485.192871 500.0 
486.185699 140.0 
487.192535 168.0 
537.242798 120.0 
571.293274 124.0 
572.301208 156.0 
573.276001 128.0 
590.712585 172.0 
593.276367 1556.0 
594.286438 976.0 
594.389709 148.0 
595.27002 236.0 
597.489441 152.0 
600.733826 200.0 
611.291382 664.0 
612.300354 220.0 
612.666565 124.0 
613.293579 128.0 
626.745972 148.0 
659.218506 144.0 
675.770142 148.0 
684.213989 176.0 
694.828064 148.0 
696.334534 248.0 
697.337524 264.0 
698.336914 164.0 
707.195374 332.0 
708.068909 168.0 
713.800049 148.0 
726.259216 168.0 
727.133728 156.0 
733.167725 156.0 
737.895996 192.0 
748.383423 160.0 
752.756348 144.0 
756.47406 208.0 
758.654236 156.0 
758.796814 140.0 
763.447327 124.0 
766.337219 172.0 
767.373352 200.0 
771.336975 200.0 
777.295959 148.0 
785.739014 100.0 
787.393982 180.0 
791.767273 200.0 
792.77002 156.0 
798.338684 176.0 
801.840271 152.0 
802.708374 148.0 
808.014648 132.0 
819.890381 200.0 
839.178894 160.0 
847.514709 140.0 
849.318787 224.0 
850.122498 152.0 
850.341736 108.0 
850.474854 13188.0 
850.653442 200.0 
850.953857 192.0 
851.476624 6940.0 
851.628479 192.0 
851.685608 196.0 
851.802246 124.0 
852.480286 2672.0 
852.690369 108.0 
852.988342 152.0 
853.073364 100.0 
853.477417 912.0 
854.469666 524.0 
855.495483 140.0 
855.615723 108.0 
946.244385 148.0 
1235.658447 148.0 
1277.470947 136.0 
1286.243652 164.0 
1289.121704 152.0 
END IONS

