BEGIN IONS
PEPMASS=484.0
CHARGE=0+
MSLEVEL=2
SOURCE_INSTRUMENT=LC-ESI-qTof
FILENAME=20121205_Jenia_Ger_Malyngamide_I_MH484_qb.1.1..mgf
SEQ=*..*
IONMODE=Positive
ORGANISM=GNPS-LIBRARY
NAME=Malyngamide_I M+H
PI=Gerwick
DATACOLLECTOR=Jenia
SMILES=CCCCCCC[C@@H](C/C=C/CCC(=O)N(C)C/C(=C/Cl)/[C@]12[C@H](O1)C[C@@H]([C@@H](C2=O)C)O)OC
INCHI=InChI=1S/C26H42ClNO5/c1-5-6-7-8-10-13-21(32-4)14-11-9-12-15-24(30)28(3)18-20(17-27)26-23(33-26)16-22(29)19(2)25(26)31/h9,11,17,19,21-23,29H,5-8,10,12-16,18H2,1-4H3/b11-9+,20-17-/t19-,21-,22-,23+,26+/m0/s1
INCHIAUX=N/A
PUBMED=N/A
SUBMITUSER=mwang87
LIBRARYQUALITY=1
SPECTRUMID=CCMSLIB00000001656
SCANS=1
136.279114 8150.0 
136.952942 7072.0 
140.734131 1682.0 
142.987671 2186.0 
144.266388 4740.0 
144.786774 5380.0 
145.952972 61742.0 
146.964722 13737.0 
148.306 17765.0 
148.990051 1209.0 
149.97551 4070.0 
150.894348 10375.0 
153.998108 12730.0 
156.160889 6924.0 
156.95697 7984.0 
158.84317 1077.0 
159.379944 5741.0 
160.937225 65736.0 
162.026443 5406.0 
162.772095 2267.0 
163.440369 2682.0 
163.990921 110800.0 
164.850586 18395.0 
165.870636 22444.0 
166.509094 3.0 
168.187164 5902.0 
168.894363 48530.0 
170.027069 2212.0 
170.928543 31948.0 
172.022018 12860.0 
172.755371 3167.0 
173.905151 304289.0 
174.896896 6434.0 
175.879486 10639.0 
176.528564 1.0 
177.078613 5329.0 
178.817734 192349.0 
179.873703 20007.0 
180.736481 606.0 
181.870758 137993.0 
182.647324 3935.0 
183.445221 17865.0 
184.102539 5.0 
185.057678 2431.0 
187.129517 1520.0 
188.040741 5170.0 
188.998291 64425.0 
189.802292 17372.0 
191.939163 247226.0 
192.548141 3729.0 
193.422531 4467.0 
194.068375 27030.0 
196.835495 235794.0 
197.897385 6319.0 
198.764359 15513.0 
199.414124 528.0 
199.967407 3183.0 
201.044235 5755.0 
201.802887 10359.0 
202.954041 4870.0 
204.906006 8757.0 
206.707581 8153.0 
207.220444 29084.0 
208.053741 7798.0 
209.195541 41864.0 
209.903381 2049297.0 
210.857056 2848.0 
212.068039 3999.0 
213.943359 3077.0 
214.866943 386824.0 
215.53186 10.0 
217.569733 12358.0 
218.083893 7561.0 
219.675629 120423.0 
220.511063 3209.0 
225.001343 678.0 
225.87854 11586.0 
227.878937 1275142.0 
228.785782 5629.0 
229.690308 1895.0 
231.592346 3627.0 
232.78772 11512.0 
233.737701 24592.0 
234.659027 507.0 
236.152176 6537.0 
237.196838 8926.0 
237.970642 169849.0 
238.532272 7.0 
239.131241 17123.0 
241.082092 20087.0 
243.255264 1589.0 
243.833374 1336.0 
245.174011 9312.0 
245.904861 4060007.0 
246.687622 27.0 
248.208939 6438.0 
249.895706 40506.0 
250.614532 10144.0 
252.891052 2687.0 
253.487457 5715.0 
254.200165 2992.0 
254.892242 1764.0 
256.045624 45388.0 
256.825439 12062.0 
257.553284 1.0 
258.245361 3601.0 
259.698761 19645.0 
260.478973 4544.0 
261.412842 3739.0 
262.750366 506.0 
264.014893 20447.0 
265.594543 3547.0 
267.231689 14583.0 
268.845032 6451.0 
269.84967 49520.0 
270.419556 7.0 
272.040222 13702.0 
273.277161 28501.0 
273.913086 12658.0 
274.830261 2828.0 
276.291504 1111.0 
276.796082 33900.0 
278.374847 21772.0 
279.074463 442.0 
280.816833 17115.0 
281.937714 14690.0 
282.730377 8036.0 
284.421112 36136.0 
285.422821 12594.0 
287.936951 6906.0 
288.956543 21613.0 
290.361267 7782.0 
291.106934 1993.0 
293.034912 5705.0 
293.937775 17483.0 
295.839508 11098.0 
297.102539 4442.0 
298.074829 3364.0 
299.200684 8584.0 
300.803406 27365.0 
301.47937 2.0 
303.007233 11360.0 
305.906281 77671.0 
307.078888 5088.0 
307.954224 7833.0 
309.083801 3988.0 
311.084961 42373.0 
311.963135 9278.0 
313.103394 17732.0 
313.994751 16387.0 
316.166565 992.0 
316.898376 18833.0 
318.140259 271.0 
319.579254 27310.0 
321.064911 8509.0 
323.373383 37387.0 
324.212494 36296.0 
325.099213 26074.0 
325.994568 8384.0 
327.836975 2008.0 
329.000854 7085.0 
330.813141 11652.0 
332.085205 3874.0 
334.870667 2623.0 
338.065338 6380.0 
339.179626 915.0 
339.737061 6436.0 
341.07373 6195.0 
341.9534 813955.0 
343.188263 2757.0 
343.941956 19271.0 
348.986359 49350.0 
350.320679 3242.0 
351.9086 23614.0 
354.263336 22299.0 
355.001282 539.0 
355.695923 7898.0 
356.873657 3879.0 
357.706024 12380.0 
360.068726 3162.0 
362.229065 12070.0 
367.020782 31675.0 
367.598755 5354.0 
369.323547 3977.0 
370.069 37106.0 
372.063263 2252.0 
374.483215 2096.0 
377.077484 19855.0 
377.91153 42116.0 
380.140015 113196.0 
382.263855 4440.0 
385.192932 17362.0 
388.136139 7493.0 
390.081055 27444.0 
396.037872 32270.0 
398.072968 229316.0 
398.878021 3.0 
400.116943 21751.0 
406.081512 80276.0 
407.221069 1804.0 
407.994446 93689.0 
410.249847 9191.0 
412.158356 18287.0 
415.389343 12140.0 
416.078064 1570764.0 
416.80777 25.0 
423.23645 2767.0 
424.038391 91241.0 
424.569885 7.0 
430.104126 7266.0 
434.063965 874422.0 
434.756927 16.0 
436.173828 3493.0 
440.187378 15389.0 
446.623474 587.0 
448.153625 133425.0 
450.043274 1497.0 
451.160675 115704.0 
451.991211 43865968.0 
452.644165 4659.0 
453.961761 23527.0 
456.073883 34550.0 
458.524353 9325.0 
465.102844 4254.0 
465.960632 130050.0 
467.081268 6136.0 
483.962189 25963.0 
END IONS

