BEGIN IONS
PEPMASS=687.0
CHARGE=0+
MSLEVEL=2
SOURCE_INSTRUMENT=LC-ESI-Hybrid FT
FILENAME=20120412_PAVL_FT_Hectochlorin_MNa_687_qb.1.1..mgf
SEQ=*..*
IONMODE=Positive
ORGANISM=GNPS-LIBRARY
NAME=Hectochlorin M+Na
PI=Gerwick
DATACOLLECTOR=PAVL
SMILES=C[C@H]1[C@H](CCCC(C)(Cl)Cl)OC(=O)C2=CSC(=N2)[C@@H](OC(C)=O)C(C)(C)OC(=O)C2=CSC(=N2)[C@@H](OC1=O)C(C)(C)O
INCHI=InChI=1S/C27H34Cl2N2O9S2/c1-13-17(9-8-10-27(7,28)29)38-23(34)15-11-42-21(30-15)19(37-14(2)32)26(5,6)40-24(35)16-12-41-20(31-16)18(25(3,4)36)39-22(13)33/h11-13,17-19,36H,8-10H2,1-7H3/t13-,17-,18+,19+/m0/s1
INCHIAUX=USXIYWCPCGVOKF-NOENWEJRSA-N
PUBMED=N/A
SUBMITUSER=mwang87
LIBRARYQUALITY=1
SPECTRUMID=CCMSLIB00000001558
SCANS=1
235.988815 1.147839 
238.411514 4.308138 
246.212738 6.550864 
264.235657 8.450529 
266.096619 2.901363 
280.056488 4.937373 
282.235138 3.190585 
287.030396 3.51355 
289.494263 1.407248 
307.838074 5.345962 
315.136353 10.453178 
329.001953 5.584613 
332.256348 16.485592 
343.506683 1.110895 
355.918274 8.7033 
358.798798 2.449497 
366.140442 4.480408 
368.104919 6.827209 
372.271851 6.885105 
373.768524 2.77806 
375.070343 2.629535 
388.091248 1.064428 
392.220154 9.341306 
403.157715 78.520203 
408.214264 8.734553 
410.189331 253.091949 
412.13324 6.039737 
416.953552 9.746747 
419.109406 3.575811 
419.848755 14.464087 
420.683838 4.158653 
425.936462 1.621385 
435.053406 10.776339 
436.000244 2.147923 
437.093262 17.503891 
437.994415 2.190265 
446.123016 2.865114 
451.87146 13.318077 
459.100677 2.009298 
462.957336 3.090989 
467.356873 1.150855 
468.054596 8.699727 
469.176208 9.459739 
471.26239 3.135642 
472.171631 1.56314 
476.95224 35.863964 
477.711639 9.414466 
479.095306 2.277989 
481.33078 1.165084 
497.015411 7.557239 
504.938538 3.781713 
513.332397 15.181675 
515.179016 23.874329 
527.557007 12.078759 
528.254761 7.366312 
531.028687 9.038985 
533.122803 117.160988 
537.140686 5.307294 
547.018188 1.8654 
548.860962 8.865085 
549.527222 4.638539 
550.422119 3.625594 
551.082642 31.928635 
552.05719 8.105206 
553.030212 14.970055 
568.149353 22.090469 
569.085266 24.68149 
570.119629 8.158688 
571.095886 25.506819 
571.612183 7.080538 
572.402466 1.655672 
573.053772 3.716486 
587.114868 1.837423 
588.525024 3.194229 
591.10083 115.558319 
593.022156 37.091331 
605.086792 21.045784 
605.996338 13.362865 
606.581909 1.450779 
607.220154 467.892792 
608.477112 52.049118 
609.157593 35.933556 
610.33429 24.028416 
611.0224 40.384453 
612.957275 4.983544 
619.71051 6.858152 
625.771851 11.158183 
626.609924 6.572627 
627.180786 20.77409 
628.509399 50.90519 
629.132263 275.929016 
630.299438 110.681549 
631.131409 231.243347 
632.118103 102.349701 
633.149414 34.029037 
633.91687 6.85622 
637.891602 6.318653 
638.490662 37.795551 
639.12793 14.252605 
643.079529 49.151146 
645.011169 38.51247 
645.967651 3.33684 
646.816956 10.722941 
648.347595 264.325989 
649.423889 1484.233276 
651.197998 175993.09375 
651.918335 113.402534 
652.663086 0.853487 
655.994507 17.228039 
664.961609 260.005981 
666.02301 146.493576 
667.093872 2882.510498 
668.12677 6229.067383 
668.984253 1567.230225 
670.037659 268.476837 
671.078491 110.622246 
672.204712 18.856756 
680.245728 2.33778 
703.03125 130.480804 
704.281311 79.030945 
704.9823 431.996887 
706.021851 136.167664 
706.972717 207.168808 
707.983582 38.902458 
709.018433 6.333788 
733.204102 2.582962 
740.968506 57.515991 
742.937073 76.65979 
744.383667 10.326749 
1190.243652 5.822647 
END IONS

