BEGIN IONS
PEPMASS=705.1
CHARGE=1+
MSLEVEL=2
SOURCE_INSTRUMENT=LC-ESI-Ion Trap
FILENAME=CarmabinB.mzXML
SEQ=*..*
IONMODE=Positive
ORGANISM=GNPS-LIBRARY
NAME=Carmabin B M+H
PI=Gerwick
DATACOLLECTOR=A Wodtke
SMILES=CC(CCCCC(=O)C)CC(C)C(=O)N(C)C(CC1=CC=CC=C1)C(=O)NC(C)C(=O)N(C)C(C)C(=O)N(C)C(CC2=CC=C(C=C2)OC)C(=O)N
INCHI=InChI=1S/C40H59N5O7/c1-26(15-13-14-16-28(3)46)23-27(2)38(49)45(8)35(25-31-17-11-10-12-18-31)37(48)42-29(4)39(50)43(6)30(5)40(51)44(7)34(36(41)47)24-32-19-21-33(52-9)22-20-32/h10-12,17-22,26-27,29-30,34-35H,13-16,23-25H2,1-9H3,(H2,41,47)(H,42,48)
INCHIAUX=N/A
PUBMED=24025162
SUBMITUSER=mwang87
LIBRARYQUALITY=1
SPECTRUMID=CCMSLIB00000006873
SCANS=1
245.811035 5694.0 
249.781555 1380.0 
276.587891 660.0 
329.180298 3637.0 
329.935364 66339.0 
335.038879 2311.0 
357.91571 465531.0 
358.529755 268.0 
406.564941 1309.0 
419.924438 530.0 
428.978577 75409.0 
513.037964 691.0 
513.980103 387332.0 
514.656616 3.0 
543.421997 2370.0 
595.874512 1026.0 
607.474976 1735.0 
622.794189 436.0 
627.064453 5559.0 
673.077637 981.0 
703.721069 2054.0 
END IONS

