BEGIN IONS
PEPMASS=1682.05
CHARGE=1+
MSLEVEL=2
SOURCE_INSTRUMENT=LC-ESI-qTof
FILENAME=f.RReher/2264/MaXis/2264_H_4_BD8_01_48196.mzXML;
SEQ=*..*
IONMODE=Positive
ORGANISM=GNPS-LIBRARY
NAME=Samholide C/D M+H
PI=Gerwick
DATACOLLECTOR=RReher
SMILES=C[C@H]1C[C@@H](OC)C[C@H](CC[C@@H]([C@H](O)[C@@H]([C@@H]2C[C@H](O)C[C@H](O)[C@H](C)[C@@H](OC)C[C@@H]3CC=C[C@@H](C[C@@H](O[C@@H]4[C@@H](O)[C@H](OC)[C@@H](OC)CO4)C/C=C(C)/ccC(O[C@H]([C@H]([C@@H](O)[C@H](CC[C@H]5C[C@H](OC)C[C@H](C)O5)C)C)C[C@H](O)C[C@H](O)[C@H](C)[C@@H](OC)C[C@@H]6CC=C[C@@H](C[C@@H](O[C@@H]7[C@@H](O)[C@H](OC)[C@@H](OC)CO7)C/C=C(C)/C=C/C(O2)=O)O6)=O)O3)C)C)O1
INCHI=
INCHIAUX=
PUBMED=
SUBMITUSER=RReher
LIBRARYQUALITY=3
SPECTRUMID=CCMSLIB00005463857
SCANS=1625
50.023487 68.0 
67.012543 66.0 
69.032448 73.0 
77.002861 144.0 
78.870461 65.0 
79.019073 371.0 
80.999893 181.0 
81.034554 399.0 
83.013992 63.0 
83.053619 64.0 
85.031433 214.0 
87.009743 210.0 
89.025581 120.0 
91.021278 383.0 
92.025879 131.0 
93.03688 931.0 
94.041138 104.0 
95.017365 1200.0 
95.052582 842.0 
96.020058 69.0 
96.056717 147.0 
96.995926 341.0 
97.0326 1627.0 
98.038078 203.0 
99.011513 176.0 
99.04882 583.0 
101.028687 319.0 
103.044502 102.0 
105.038696 839.0 
107.018112 158.0 
107.05455 1098.0 
109.03524 418.0 
109.070198 677.0 
110.039062 103.0 
111.013161 462.0 
111.050491 636.0 
111.086426 75.0 
112.053879 225.0 
113.028587 312.0 
113.067314 159.0 
115.043961 211.0 
117.038002 93.0 
119.020653 318.0 
119.056374 1137.0 
121.036949 438.0 
121.071869 824.0 
122.074692 99.0 
123.052589 4063.0 
123.089134 381.0 
124.053772 360.0 
125.030479 476.0 
125.067429 1251.0 
126.075462 130.0 
127.011566 79.0 
127.047234 453.0 
127.082748 140.0 
128.033707 107.0 
129.027206 207.0 
129.062973 1281.0 
130.048019 75.0 
130.066177 74.0 
131.057831 855.0 
133.038086 210.0 
133.073975 1176.0 
134.083099 73.0 
135.017426 132.0 
135.053772 530.0 
135.089676 1250.0 
136.094086 178.0 
137.033478 1062.0 
137.069489 1222.0 
137.106705 466.0 
138.036194 105.0 
139.048553 503.0 
139.084976 957.0 
140.089493 62.0 
141.047119 117.0 
141.06488 534.0 
141.096771 64.0 
142.04715 144.0 
143.059586 827.0 
143.086304 146.0 
144.068741 103.0 
144.084244 86.0 
145.075684 2216.0 
146.081177 260.0 
147.054611 415.0 
147.091736 2078.0 
148.065445 86.0 
148.097534 183.0 
149.032928 92.0 
149.071152 419.0 
149.10733 1421.0 
150.073853 97.0 
150.109665 296.0 
151.051178 263.0 
151.088013 1134.0 
151.126419 126.0 
152.090149 77.0 
153.065872 247.0 
153.102463 320.0 
155.047348 902.0 
155.082458 11266.0 
155.118393 65.0 
156.084885 1007.0 
157.075485 757.0 
158.085205 80.0 
159.055557 649.0 
159.093475 2476.0 
160.095612 340.0 
160.319641 72.0 
161.037048 352.0 
161.069458 373.0 
161.108856 1664.0 
162.078476 188.0 
162.113831 175.0 
163.051941 470.0 
163.088455 1771.0 
163.12352 666.0 
164.050766 68.0 
164.091095 232.0 
165.067963 659.0 
165.103333 1461.0 
166.075211 84.0 
166.108154 205.0 
167.044937 89.0 
167.084671 524.0 
167.120651 633.0 
168.091354 78.0 
169.077087 777.0 
169.101135 569.0 
170.105698 156.0 
171.057114 494.0 
171.093353 1715.0 
172.059402 62.0 
172.08165 104.0 
172.099991 172.0 
173.039078 85.0 
173.07518 523.0 
173.110306 2041.0 
174.077423 100.0 
174.113358 221.0 
175.053223 263.0 
175.090912 680.0 
175.124832 1049.0 
176.088577 95.0 
176.128891 64.0 
177.069443 770.0 
177.105713 1763.0 
177.141022 508.0 
178.109222 90.0 
178.144547 167.0 
179.049408 415.0 
179.085144 591.0 
179.121414 1676.0 
179.16069 85.0 
180.088989 76.0 
180.124115 174.0 
181.100311 2536.0 
181.134872 99.0 
182.10379 296.0 
183.057434 99.0 
183.116501 4419.0 
184.120224 844.0 
185.074432 586.0 
185.11235 1020.0 
186.08345 85.0 
186.119675 166.0 
187.05574 224.0 
187.09053 1762.0 
187.127975 1749.0 
188.09584 240.0 
188.131317 315.0 
189.071289 953.0 
189.10614 1624.0 
189.14241 948.0 
190.073593 93.0 
190.109665 127.0 
190.146027 113.0 
191.084671 558.0 
191.122513 3019.0 
192.124893 351.0 
193.024338 70.0 
193.068954 237.0 
193.101288 566.0 
193.138855 683.0 
194.032181 82.0 
194.106216 172.0 
194.142059 119.0 
195.116287 2201.0 
196.120682 228.0 
197.074631 435.0 
197.111511 691.0 
198.079849 87.0 
198.115768 206.0 
199.052643 87.0 
199.092361 399.0 
199.127319 1110.0 
200.098297 74.0 
200.131775 204.0 
201.133392 1325.0 
202.07605 78.0 
202.116623 63.0 
202.151566 144.0 
203.087189 802.0 
203.124588 928.0 
203.16127 1067.0 
204.092743 152.0 
204.125671 130.0 
204.164474 199.0 
205.063278 99.0 
205.104645 1326.0 
205.139755 4263.0 
206.105789 153.0 
206.14415 686.0 
207.080368 336.0 
207.120041 1026.0 
207.154785 484.0 
208.120331 188.0 
208.158569 178.0 
209.058502 67.0 
209.133041 945.0 
211.090942 247.0 
211.126358 788.0 
212.131317 180.0 
212.156509 72.0 
213.073624 163.0 
213.11055 863.0 
213.144806 1540.0 
214.119843 92.0 
214.149246 278.0 
215.088196 1436.0 
215.147202 3618.0 
216.089905 113.0 
216.149399 284.0 
217.103851 331.0 
217.139236 1040.0 
217.175278 185.0 
218.109222 105.0 
218.143417 178.0 
219.0867 97.0 
219.122528 316.0 
219.155853 958.0 
220.162903 175.0 
221.103928 351.0 
221.137451 463.0 
221.172897 734.0 
222.117172 86.0 
222.140625 150.0 
222.180023 78.0 
223.094711 597.0 
223.151657 21386.0 
224.082031 76.0 
224.105301 115.0 
224.15477 2795.0 
225.057968 733.0 
225.106644 341.0 
225.145477 860.0 
225.16246 855.0 
226.056137 140.0 
226.147415 275.0 
226.173492 143.0 
227.084976 114.0 
227.126816 293.0 
227.164017 1495.0 
228.145844 76.0 
228.16684 107.0 
229.103882 418.0 
229.140671 793.0 
229.177917 611.0 
230.145874 105.0 
230.177719 125.0 
231.085236 306.0 
231.121155 812.0 
231.158203 2836.0 
232.091202 93.0 
232.131332 111.0 
232.16127 759.0 
233.066803 124.0 
233.100327 3112.0 
233.137985 719.0 
233.171585 1334.0 
234.105255 437.0 
234.142227 113.0 
234.175186 90.0 
235.08429 74.0 
235.126328 466.0 
235.150589 711.0 
235.188828 155.0 
236.133163 112.0 
236.154724 108.0 
237.099442 115.0 
237.167984 2054.0 
238.170715 477.0 
239.090942 140.0 
239.159012 957.0 
240.172287 77.0 
241.10498 970.0 
241.142258 410.0 
241.17662 300.0 
242.11084 121.0 
242.150009 81.0 
242.175888 174.0 
243.075989 100.0 
243.120346 679.0 
243.157974 1364.0 
243.191895 213.0 
244.163635 197.0 
245.103043 135.0 
245.138626 796.0 
245.17424 2763.0 
246.177109 509.0 
247.119263 786.0 
247.151947 1190.0 
247.188873 1393.0 
247.497803 66.0 
248.125626 83.0 
248.159317 248.0 
248.193924 315.0 
249.094635 215.0 
249.169128 19966.0 
249.557861 64.0 
250.17308 3673.0 
251.112411 3986.0 
251.181137 1743.0 
252.117416 800.0 
252.189041 532.0 
253.143738 793.0 
253.198608 1325.0 
254.148575 86.0 
254.200241 365.0 
255.120987 312.0 
255.178055 1212.0 
256.12442 120.0 
256.161743 128.0 
257.100739 86.0 
257.136993 172.0 
257.173737 734.0 
258.112122 72.0 
258.178223 86.0 
259.118134 1668.0 
259.190735 619.0 
260.11969 399.0 
260.188354 91.0 
261.139099 466.0 
261.169952 1359.0 
261.206116 373.0 
262.172913 220.0 
263.149902 1225.0 
263.185181 3027.0 
264.104645 87.0 
264.15451 230.0 
264.187195 452.0 
265.09436 158.0 
265.134064 552.0 
265.169098 836.0 
265.200012 979.0 
266.147217 95.0 
266.201111 293.0 
267.1185 253.0 
267.181183 1413.0 
267.953278 72.0 
268.162079 84.0 
268.185883 106.0 
269.14035 375.0 
269.199005 587.0 
270.14209 155.0 
270.19754 123.0 
271.121552 79.0 
271.154877 1356.0 
271.193298 298.0 
272.160797 345.0 
273.134857 1882.0 
273.171356 1053.0 
274.137787 438.0 
274.171844 114.0 
274.213928 105.0 
275.121277 183.0 
275.186157 2946.0 
276.158539 68.0 
276.190521 474.0 
277.129852 1979.0 
277.201538 2001.0 
278.134857 225.0 
278.175629 84.0 
278.206055 310.0 
279.110229 158.0 
279.184204 779.0 
279.218536 4566.0 
280.183502 178.0 
280.222382 755.0 
281.140594 1051.0 
281.198029 3219.0 
282.14801 338.0 
282.205658 568.0 
283.106964 88.0 
283.152771 935.0 
283.193542 427.0 
284.163757 122.0 
284.195984 206.0 
285.132874 117.0 
285.167786 300.0 
285.210968 488.0 
286.177002 77.0 
286.212952 136.0 
287.150879 1066.0 
287.225006 1201.0 
288.153839 253.0 
288.226135 350.0 
289.167297 1669.0 
289.19989 849.0 
290.173431 327.0 
290.209747 170.0 
291.146271 9189.0 
291.179596 1059.0 
291.213318 354.0 
292.149475 1460.0 
292.185608 280.0 
293.154236 485.0 
293.199615 4849.0 
294.201996 821.0 
295.145264 850.0 
295.214203 1619.0 
296.149872 197.0 
296.226746 252.0 
297.125305 179.0 
297.174347 1485.0 
297.22937 3467.0 
298.144043 72.0 
298.17749 413.0 
298.227875 676.0 
299.151886 3857.0 
299.209778 5323.0 
300.153229 684.0 
300.215546 867.0 
301.167206 1169.0 
301.208679 375.0 
302.173004 284.0 
303.147522 200.0 
303.218384 923.0 
304.220215 181.0 
305.124573 100.0 
305.163757 1042.0 
305.234558 5298.0 
306.166626 140.0 
306.238739 1116.0 
307.177765 1468.0 
307.216248 2575.0 
308.163116 236.0 
308.217346 388.0 
308.456329 71.0 
309.159485 4448.0 
309.228516 356.0 
310.161682 425.0 
310.20166 216.0 
311.192413 218.0 
311.226044 301.0 
312.193665 68.0 
313.170166 531.0 
313.234406 995.0 
314.174316 139.0 
314.209595 113.0 
314.242523 271.0 
315.151886 309.0 
315.18454 2526.0 
315.221802 1582.0 
316.188721 584.0 
316.225616 325.0 
317.164307 7471.0 
317.235657 914.0 
318.166626 1633.0 
318.237915 200.0 
319.178528 589.0 
319.250641 1342.0 
320.187775 239.0 
320.253113 209.0 
321.174683 459.0 
321.246399 269.0 
322.198303 157.0 
323.191559 940.0 
323.223999 1507.0 
323.291779 95.0 
324.193268 335.0 
324.228699 304.0 
325.168518 1321.0 
325.226898 2259.0 
326.171021 253.0 
326.233246 354.0 
327.187042 704.0 
327.235413 260.0 
327.555084 63.0 
328.184021 288.0 
329.130859 103.0 
329.169525 290.0 
329.203857 402.0 
329.231415 604.0 
330.239838 123.0 
331.180481 1317.0 
331.25174 2804.0 
332.181305 256.0 
332.256653 429.0 
333.195343 3246.0 
333.232666 1304.0 
334.199554 608.0 
334.238098 311.0 
335.121613 62.0 
335.177338 2176.0 
335.246674 1692.0 
336.177856 462.0 
336.253143 557.0 
337.201447 563.0 
337.26355 4910.0 
338.206177 139.0 
338.267792 979.0 
339.186707 469.0 
339.257294 355.0 
340.187897 118.0 
340.228424 62.0 
341.200745 1883.0 
341.238464 3757.0 
342.205688 362.0 
342.239319 1047.0 
343.181641 2011.0 
343.235992 1472.0 
344.182159 366.0 
344.216797 171.0 
344.246033 224.0 
345.199707 911.0 
345.264709 331.0 
346.202087 259.0 
346.276184 121.0 
347.142944 71.0 
347.219696 606.0 
347.251129 1104.0 
348.251556 386.0 
349.19165 4589.0 
349.263885 1807.0 
350.195953 1127.0 
350.264374 325.0 
351.191895 444.0 
351.25589 695.0 
352.197845 275.0 
353.147308 71.0 
353.202606 779.0 
353.261566 432.0 
354.239807 132.0 
355.212891 417.0 
355.275848 1845.0 
356.199219 70.0 
356.27536 304.0 
356.545776 66.0 
357.14502 71.0 
357.198242 1252.0 
357.235046 273.0 
357.26886 205.0 
358.204132 138.0 
358.278625 162.0 
359.248901 8191.0 
360.253754 2292.0 
361.197571 1390.0 
361.263275 1184.0 
362.199158 399.0 
362.266602 204.0 
363.223236 3515.0 
363.280914 2194.0 
364.227417 808.0 
364.289886 539.0 
365.227722 1625.0 
365.260834 1090.0 
366.228882 347.0 
366.267029 263.0 
367.200867 1341.0 
367.262421 304.0 
367.284973 316.0 
368.209381 469.0 
368.256287 96.0 
368.277771 130.0 
369.198303 1083.0 
369.268677 319.0 
370.200836 233.0 
371.212341 639.0 
371.27182 138.0 
372.212067 210.0 
373.226837 352.0 
373.2659 2430.0 
374.194977 75.0 
374.231903 181.0 
374.27124 712.0 
375.209625 2268.0 
375.269379 401.0 
376.211975 462.0 
376.289612 143.0 
377.2612 2847.0 
378.235504 128.0 
378.270691 552.0 
379.216278 903.0 
379.271942 462.0 
380.220917 264.0 
380.276733 188.0 
381.234924 7089.0 
381.291809 1860.0 
382.239685 1604.0 
382.297119 598.0 
383.211548 570.0 
383.25293 389.0 
383.285461 863.0 
384.226166 146.0 
384.288025 387.0 
385.196014 206.0 
385.236481 349.0 
385.265961 255.0 
387.167938 240.0 
387.211121 1214.0 
387.277435 263.0 
388.21228 469.0 
389.222595 575.0 
389.265869 317.0 
390.222046 173.0 
391.019989 62.0 
391.278839 5954.0 
392.239594 375.0 
392.281433 1678.0 
393.220001 2339.0 
393.280396 1218.0 
394.225922 658.0 
394.276825 255.0 
394.700165 71.0 
395.186676 117.0 
395.252228 709.0 
395.307953 808.0 
396.278778 143.0 
396.303925 182.0 
397.229279 1993.0 
397.285004 209.0 
398.235931 517.0 
399.246857 11672.0 
400.248932 2818.0 
401.148102 72.0 
401.232666 776.0 
401.29129 596.0 
402.223969 313.0 
402.260864 203.0 
402.299438 150.0 
403.237152 287.0 
404.240295 95.0 
405.215118 233.0 
405.289886 311.0 
406.294678 131.0 
407.236298 689.0 
407.284729 512.0 
408.241364 210.0 
409.296539 7520.0 
410.300812 1712.0 
411.233154 1687.0 
411.282043 1998.0 
411.405273 77.0 
412.192505 66.0 
412.237671 405.0 
412.292328 459.0 
413.188477 355.0 
413.264069 1575.0 
414.265076 268.0 
415.241608 2609.0 
415.309265 343.0 
416.246857 677.0 
416.332764 152.0 
417.257935 2537.0 
418.212524 96.0 
418.259094 532.0 
419.237762 1340.0 
420.239868 328.0 
421.236633 73.0 
421.281799 229.0 
422.263489 95.0 
423.231873 80.0 
423.308502 1113.0 
424.312805 259.0 
425.233307 115.0 
425.300049 1212.0 
426.300598 274.0 
427.199554 117.0 
427.312439 5925.0 
428.317078 2103.0 
429.296326 1291.0 
430.262543 274.0 
430.29007 260.0 
431.19809 78.0 
431.275391 3527.0 
432.275787 1076.0 
433.255859 941.0 
434.197723 81.0 
434.251129 258.0 
435.268616 442.0 
436.286835 152.0 
437.212372 298.0 
437.290619 334.0 
438.20813 63.0 
438.267426 115.0 
439.210297 117.0 
439.253174 95.0 
439.291351 235.0 
440.213135 86.0 
440.316467 63.0 
441.216095 79.0 
441.329163 3518.0 
442.280548 100.0 
442.333832 981.0 
443.309082 1705.0 
444.261658 102.0 
444.311584 632.0 
445.218781 131.0 
445.322083 1358.0 
446.330139 458.0 
447.268982 1606.0 
448.267578 250.0 
448.323059 157.0 
449.28479 12052.0 
450.288605 2685.0 
451.237396 176.0 
451.28891 552.0 
452.284821 203.0 
453.21579 168.0 
453.291779 603.0 
454.294067 220.0 
455.232178 182.0 
455.309052 390.0 
456.248444 73.0 
456.308044 132.0 
457.198547 75.0 
457.254547 115.0 
457.323486 592.0 
458.336121 227.0 
459.28772 1154.0 
459.341675 8046.0 
460.295776 438.0 
460.346985 2494.0 
461.322937 2354.0 
462.32373 749.0 
463.271637 98.0 
463.330963 305.0 
464.236359 67.0 
464.28476 108.0 
465.281158 1683.0 
466.284607 454.0 
467.297577 5508.0 
468.299683 1216.0 
469.244995 136.0 
469.302277 428.0 
470.249847 75.0 
470.306885 203.0 
471.238739 121.0 
471.305969 223.0 
472.307983 67.0 
473.348328 351.0 
474.310089 286.0 
475.277283 174.0 
475.333801 796.0 
476.340302 361.0 
477.295807 1910.0 
477.352509 2489.0 
478.302002 874.0 
478.356628 1081.0 
479.237335 138.0 
479.336029 660.0 
480.327301 149.0 
481.256836 76.0 
481.338287 270.0 
482.282379 71.0 
482.350159 207.0 
483.224609 71.0 
483.318756 426.0 
484.324921 125.0 
485.326477 247.0 
486.252533 67.0 
486.324799 191.0 
487.330231 462.0 
488.307373 160.0 
489.250183 94.0 
489.305145 101.0 
489.350281 304.0 
490.298279 69.0 
490.355469 131.0 
491.270844 156.0 
491.370422 2755.0 
492.19043 72.0 
492.32428 259.0 
492.373657 846.0 
493.24881 106.0 
493.349579 868.0 
494.311005 123.0 
494.350891 261.0 
495.307983 3131.0 
495.365234 454.0 
496.307892 868.0 
496.379059 112.0 
497.273041 81.0 
497.318848 328.0 
498.311432 63.0 
499.263702 83.0 
499.351532 466.0 
500.358917 189.0 
501.332397 966.0 
502.243774 87.0 
502.331024 408.0 
503.27417 126.0 
503.329773 256.0 
504.336945 109.0 
505.325073 405.0 
506.272858 83.0 
506.332275 233.0 
507.294617 122.0 
507.368256 247.0 
509.238922 120.0 
509.278534 308.0 
509.332916 1301.0 
509.380585 3126.0 
510.018616 66.0 
510.383575 833.0 
511.355133 624.0 
512.352844 215.0 
513.317688 2030.0 
514.278625 73.0 
514.319763 502.0 
515.338135 278.0 
516.341064 130.0 
517.240784 70.0 
517.363892 328.0 
518.364441 94.0 
519.342529 2081.0 
520.351379 911.0 
521.283203 125.0 
521.352173 352.0 
521.40271 68.0 
523.261169 95.0 
523.312561 231.0 
525.342163 144.0 
526.196838 69.0 
527.348511 4004.0 
528.294739 142.0 
528.349976 1259.0 
529.293518 196.0 
529.364014 680.0 
530.358459 73.0 
531.124146 75.0 
531.329529 437.0 
532.328186 106.0 
532.38446 70.0 
533.354004 329.0 
534.375061 82.0 
535.275024 160.0 
535.337524 149.0 
535.381653 251.0 
536.379333 101.0 
537.355774 1678.0 
538.363647 721.0 
539.349182 190.0 
539.381409 235.0 
540.364807 89.0 
541.332214 354.0 
542.322449 179.0 
543.30957 123.0 
543.349243 133.0 
544.348877 88.0 
544.754761 64.0 
545.360596 9928.0 
546.363892 4001.0 
547.286011 64.0 
547.364136 601.0 
548.207703 70.0 
548.304749 62.0 
548.374878 157.0 
549.28949 88.0 
549.323059 143.0 
549.393616 323.0 
550.299805 67.0 
551.379028 686.0 
552.376221 246.0 
552.410278 152.0 
553.30658 360.0 
553.372803 209.0 
554.281982 127.0 
554.368591 125.0 
555.364563 795.0 
556.373535 287.0 
557.3573 273.0 
558.379883 92.0 
559.327454 371.0 
559.379395 1878.0 
560.380249 741.0 
561.353699 575.0 
562.357056 78.0 
563.372192 19029.0 
564.376709 6391.0 
565.380188 1694.0 
566.384949 255.0 
567.292358 172.0 
567.370361 101.0 
567.410522 173.0 
569.312073 84.0 
569.38208 1131.0 
570.384521 328.0 
571.30426 211.0 
571.385132 155.0 
573.370972 339.0 
574.384521 107.0 
575.341125 226.0 
575.376282 374.0 
576.311523 148.0 
576.382507 186.0 
577.286926 96.0 
577.387695 9238.0 
578.391907 3315.0 
579.393616 1071.0 
580.389893 190.0 
581.220276 88.0 
581.259155 79.0 
581.383911 16626.0 
582.38623 6378.0 
583.391968 1080.0 
584.396484 166.0 
585.335815 217.0 
585.372803 129.0 
585.411377 137.0 
586.386597 73.0 
587.394287 568.0 
588.395508 242.0 
589.384094 175.0 
590.393921 92.0 
591.359619 290.0 
591.401794 726.0 
592.391907 186.0 
593.323425 92.0 
593.384766 566.0 
594.390015 290.0 
595.237549 78.0 
595.399475 23814.0 
596.305603 66.0 
596.402893 8701.0 
597.405579 2291.0 
598.409973 508.0 
599.394592 4873.0 
600.398254 1729.0 
601.353149 109.0 
601.402527 525.0 
602.40979 267.0 
603.382324 156.0 
604.376831 79.0 
604.487366 65.0 
605.324951 83.0 
605.365417 155.0 
605.406616 164.0 
607.347595 101.0 
607.396057 384.0 
608.404541 65.0 
609.361877 832.0 
609.416626 1462.0 
609.483521 74.0 
610.37439 281.0 
610.414246 368.0 
611.30188 100.0 
611.394714 1470.0 
612.328918 99.0 
612.399719 566.0 
612.827942 78.0 
612.875 68.0 
613.22345 70.0 
613.410278 38209.0 
613.528992 62.0 
613.586182 85.0 
614.258545 94.0 
614.301758 75.0 
614.41449 14487.0 
615.232361 64.0 
615.289185 107.0 
615.418884 4167.0 
615.528625 64.0 
616.423584 732.0 
617.38623 165.0 
617.42926 87.0 
617.894836 64.0 
618.394409 91.0 
619.352356 83.0 
619.402771 153.0 
620.361328 77.0 
620.414124 86.0 
623.367371 333.0 
624.365051 81.0 
625.409607 723.0 
626.40979 277.0 
627.426758 3753.0 
628.427979 1815.0 
629.422791 766.0 
630.412476 380.0 
630.628296 64.0 
631.267639 92.0 
631.421021 44743.0 
631.534424 68.0 
631.62262 73.0 
632.425049 16227.0 
633.428711 3957.0 
634.340454 80.0 
634.435181 541.0 
635.409485 136.0 
637.394897 102.0 
639.422424 91.0 
641.393494 454.0 
642.377991 97.0 
643.418884 1398.0 
644.43573 453.0 
645.293396 68.0 
645.4375 13847.0 
646.350952 84.0 
646.44104 6075.0 
646.589844 62.0 
647.44458 1465.0 
647.746521 71.0 
648.446167 375.0 
649.364441 169.0 
649.433228 3306.0 
649.545044 83.0 
650.435181 1826.0 
651.386353 66.0 
651.444153 417.0 
652.43866 139.0 
653.422363 173.0 
654.440857 74.0 
655.405457 150.0 
656.411804 77.0 
657.41217 129.0 
658.371948 68.0 
659.39209 639.0 
660.422913 282.0 
661.426819 376.0 
662.431702 199.0 
663.448608 38388.0 
664.451294 15315.0 
664.656067 63.0 
665.36377 85.0 
665.4552 3449.0 
665.623596 85.0 
665.698669 62.0 
666.460999 729.0 
667.42804 202.0 
667.483765 106.0 
667.636658 88.0 
668.446411 205.0 
669.33728 63.0 
669.457642 212.0 
671.434692 156.0 
672.440063 94.0 
673.410645 759.0 
674.402954 225.0 
675.389648 237.0 
675.43158 156.0 
675.474304 95.0 
676.443909 82.0 
677.414246 245.0 
678.381409 66.0 
678.427429 126.0 
679.440247 250.0 
679.750305 66.0 
680.481018 72.0 
681.266663 71.0 
681.312134 93.0 
681.459106 52851.0 
681.599487 65.0 
682.167297 115.0 
682.463196 20668.0 
682.597046 67.0 
682.697998 66.0 
683.467834 4807.0 
683.593506 80.0 
684.131958 63.0 
684.462891 1114.0 
685.448608 191.0 
685.840149 67.0 
686.376343 77.0 
686.462463 140.0 
687.369751 64.0 
687.428711 180.0 
688.434937 126.0 
689.413879 199.0 
689.462769 149.0 
691.368958 76.0 
691.4245 795.0 
692.426941 608.0 
693.433044 249.0 
694.444031 92.0 
695.419373 129.0 
696.431519 85.0 
696.491577 122.0 
697.420959 80.0 
697.460388 78.0 
698.452271 111.0 
699.469543 2495.0 
700.473511 1290.0 
701.409119 80.0 
701.475037 253.0 
702.487671 111.0 
703.454834 180.0 
705.436035 302.0 
706.443359 311.0 
706.501892 78.0 
707.440369 192.0 
709.438416 1336.0 
710.434387 377.0 
711.451294 562.0 
712.454163 168.0 
713.48938 135.0 
715.428467 79.0 
717.442444 192.0 
718.457825 108.0 
719.450562 136.0 
720.458557 97.0 
721.449951 135.0 
721.487854 169.0 
723.450256 836.0 
724.451233 465.0 
725.446533 197.0 
726.45636 79.0 
727.444763 673.0 
728.44635 390.0 
729.44873 210.0 
730.452942 128.0 
731.442261 76.0 
731.499268 83.0 
733.491882 88.0 
735.491272 210.0 
737.456421 240.0 
738.484619 201.0 
739.484924 100.0 
741.461914 754.0 
742.463379 304.0 
743.385925 74.0 
743.459656 184.0 
744.446716 70.0 
745.420471 70.0 
745.461487 155.0 
745.53363 82.0 
746.474243 87.0 
746.537598 132.0 
747.467529 78.0 
749.469116 321.0 
750.47467 164.0 
751.462952 111.0 
752.525391 68.0 
753.507385 117.0 
755.480225 1099.0 
756.480347 453.0 
757.474609 173.0 
757.615906 64.0 
758.505981 84.0 
759.466248 624.0 
760.472412 337.0 
760.539673 73.0 
761.477661 141.0 
761.544983 105.0 
763.485901 167.0 
765.452271 157.0 
766.471436 88.0 
767.489563 463.0 
768.475891 261.0 
769.486877 209.0 
770.491943 145.0 
771.501953 245.0 
772.477539 123.0 
773.486572 1618.0 
774.495728 737.0 
775.440735 88.0 
775.503845 186.0 
776.504944 153.0 
777.489136 240.0 
778.477722 209.0 
779.502808 71.0 
780.501831 84.0 
781.492188 336.0 
782.514221 212.0 
783.50946 199.0 
784.485962 72.0 
785.408508 76.0 
785.493103 166.0 
786.490479 87.0 
786.565247 86.0 
787.509705 245.0 
788.502441 134.0 
789.516602 208.0 
790.528931 110.0 
791.499878 1751.0 
792.502686 670.0 
793.500793 376.0 
794.504395 94.0 
795.502747 174.0 
796.515503 75.0 
797.509766 199.0 
798.520081 119.0 
799.504395 616.0 
800.51532 368.0 
801.514893 161.0 
802.521484 132.0 
803.512268 237.0 
804.487915 137.0 
804.531616 130.0 
805.509399 778.0 
806.513855 420.0 
807.51416 175.0 
808.551819 129.0 
809.517151 226.0 
810.512756 109.0 
811.51593 101.0 
813.492737 167.0 
815.518066 184.0 
816.536255 88.0 
817.515808 810.0 
818.51825 373.0 
819.537109 188.0 
820.524536 103.0 
821.489502 148.0 
823.523865 1933.0 
824.522461 909.0 
825.533081 430.0 
826.504272 84.0 
827.48761 86.0 
827.537781 106.0 
828.524231 83.0 
828.584229 63.0 
831.509644 133.0 
833.553223 178.0 
834.561707 83.0 
835.524658 655.0 
836.524475 246.0 
837.540405 140.0 
839.526611 97.0 
839.583496 120.0 
840.500732 70.0 
840.573059 109.0 
841.536682 3360.0 
842.537537 1585.0 
843.541931 624.0 
844.545227 194.0 
845.531555 284.0 
846.522949 104.0 
847.507263 78.0 
848.545227 66.0 
851.557495 153.0 
853.537109 176.0 
854.531433 243.0 
857.540344 206.0 
858.566101 219.0 
859.543091 229.0 
859.599609 140.0 
860.547424 136.0 
861.547058 71.0 
861.588684 114.0 
863.53833 218.0 
867.574341 412.0 
868.574951 286.0 
869.491211 79.0 
869.565979 117.0 
871.541077 634.0 
872.541016 288.0 
873.560608 170.0 
874.575195 86.0 
875.634155 71.0 
876.594727 146.0 
877.620972 139.0 
878.571533 78.0 
879.573364 158.0 
880.603882 90.0 
881.563293 71.0 
883.579163 163.0 
885.579163 1039.0 
886.58905 425.0 
887.518005 105.0 
887.587646 140.0 
888.542603 78.0 
888.594971 73.0 
889.544495 466.0 
889.610596 156.0 
890.554016 457.0 
891.553406 257.0 
891.637634 128.0 
893.569641 134.0 
893.645325 92.0 
895.564453 167.0 
896.575317 153.0 
897.582092 102.0 
898.556946 80.0 
899.606445 106.0 
900.576477 79.0 
901.591003 95.0 
902.610596 133.0 
903.582581 846.0 
904.582703 502.0 
905.582275 302.0 
906.597717 88.0 
907.558777 224.0 
908.578369 295.0 
909.602539 135.0 
909.648071 105.0 
910.644958 95.0 
911.585999 185.0 
912.57019 75.0 
913.557739 249.0 
914.589539 67.0 
915.578613 99.0 
916.606995 138.0 
917.629272 238.0 
919.600098 79.0 
920.63562 147.0 
921.57959 641.0 
922.57843 376.0 
923.593018 218.0 
924.571411 122.0 
925.567322 117.0 
925.616089 115.0 
926.592773 108.0 
927.591858 117.0 
927.634338 108.0 
928.63324 64.0 
929.5755 386.0 
929.664062 68.0 
930.586243 194.0 
931.585632 71.0 
931.631287 100.0 
932.630432 101.0 
933.566345 167.0 
934.567261 63.0 
934.614746 62.0 
935.655029 79.0 
936.546814 62.0 
937.579712 187.0 
937.655945 143.0 
938.584778 90.0 
939.590332 1647.0 
940.590027 539.0 
941.608032 257.0 
942.588379 175.0 
942.682983 90.0 
943.599304 224.0 
943.661865 128.0 
944.60144 93.0 
944.687561 96.0 
945.608582 229.0 
947.59845 115.0 
948.599976 89.0 
948.662964 62.0 
949.66803 81.0 
950.675903 69.0 
951.610779 139.0 
951.664185 133.0 
952.570984 103.0 
952.629883 128.0 
953.665527 70.0 
954.616821 79.0 
955.611084 219.0 
957.601807 702.0 
958.602905 485.0 
959.555725 94.0 
959.620972 362.0 
959.679016 192.0 
960.637146 140.0 
960.688843 86.0 
961.604065 452.0 
961.659729 250.0 
962.616516 292.0 
963.618896 204.0 
964.602295 71.0 
965.61615 99.0 
967.585144 127.0 
967.681519 203.0 
968.716858 83.0 
969.629333 261.0 
970.627258 138.0 
971.61969 127.0 
971.68988 105.0 
973.594421 89.0 
973.627258 101.0 
974.62616 69.0 
975.634705 86.0 
975.69928 110.0 
976.645935 82.0 
977.632324 301.0 
978.666565 284.0 
979.618896 548.0 
980.63916 345.0 
981.626343 197.0 
982.684204 77.0 
983.607361 114.0 
984.59259 74.0 
985.657227 83.0 
986.589844 72.0 
986.69104 86.0 
987.628052 506.0 
988.624512 223.0 
989.653809 178.0 
991.618652 93.0 
992.599609 65.0 
993.643066 461.0 
994.648499 203.0 
995.649719 569.0 
996.659241 335.0 
997.633972 572.0 
998.629761 150.0 
999.651001 191.0 
1000.718689 104.0 
1001.621948 150.0 
1001.701172 89.0 
1002.624634 174.0 
1003.670959 226.0 
1004.675415 153.0 
1005.6297 715.0 
1006.640259 433.0 
1007.656677 214.0 
1008.649231 124.0 
1009.663574 149.0 
1010.62915 113.0 
1010.677429 86.0 
1011.648071 513.0 
1012.672058 358.0 
1013.658936 455.0 
1014.669678 216.0 
1015.669434 102.0 
1016.542908 80.0 
1017.659546 72.0 
1017.737732 268.0 
1018.71582 63.0 
1019.662292 188.0 
1020.663757 103.0 
1021.663757 112.0 
1021.705505 162.0 
1022.645264 79.0 
1022.713196 118.0 
1023.648315 320.0 
1024.65979 399.0 
1025.671753 418.0 
1026.684692 278.0 
1027.683228 198.0 
1028.687378 96.0 
1029.66272 961.0 
1030.671265 489.0 
1031.654419 287.0 
1032.657471 79.0 
1035.599731 100.0 
1035.705933 104.0 
1036.723145 93.0 
1037.668579 352.0 
1038.648071 244.0 
1039.684814 185.0 
1040.693359 103.0 
1041.66394 261.0 
1042.684204 71.0 
1043.69043 510.0 
1044.695312 463.0 
1045.682983 463.0 
1046.689575 227.0 
1047.685669 227.0 
1048.680054 89.0 
1049.664551 123.0 
1053.722168 264.0 
1054.67981 82.0 
1054.732422 150.0 
1055.584473 84.0 
1055.67749 485.0 
1056.674072 224.0 
1057.698242 166.0 
1059.636963 74.0 
1059.693115 154.0 
1061.704834 728.0 
1062.702148 584.0 
1063.692627 339.0 
1064.716553 144.0 
1065.668945 104.0 
1069.776855 66.0 
1071.692261 149.0 
1071.744629 234.0 
1072.729248 228.0 
1073.689453 693.0 
1074.691406 486.0 
1075.707031 324.0 
1076.71875 205.0 
1077.68396 83.0 
1079.709595 434.0 
1080.715332 400.0 
1081.691406 211.0 
1082.705933 109.0 
1083.720459 78.0 
1085.659546 69.0 
1085.769897 102.0 
1087.738281 88.0 
1089.764282 115.0 
1090.746094 88.0 
1090.956055 65.0 
1091.716309 68.0 
1091.771118 81.0 
1092.712891 98.0 
1093.639771 101.0 
1093.726318 897.0 
1094.732422 633.0 
1095.735107 320.0 
1096.719971 69.0 
1096.769775 83.0 
1097.713867 221.0 
1098.730835 139.0 
1099.612671 76.0 
1099.663452 133.0 
1100.669922 161.0 
1101.683228 91.0 
1103.773315 103.0 
1104.802612 69.0 
1107.776367 86.0 
1109.667114 63.0 
1110.730103 71.0 
1111.737671 1904.0 
1111.830688 85.0 
1112.745972 969.0 
1113.748657 374.0 
1114.751709 108.0 
1116.707764 68.0 
1117.685669 79.0 
1118.676758 76.0 
1119.727539 80.0 
1121.696045 75.0 
1121.785278 84.0 
1123.795898 74.0 
1125.777954 62.0 
1127.693115 89.0 
1129.746338 1390.0 
1130.75 987.0 
1131.759521 398.0 
1132.749146 151.0 
1135.713745 70.0 
1136.832275 62.0 
1139.703613 88.0 
1139.751831 92.0 
1139.805664 93.0 
1140.699097 142.0 
1140.803833 97.0 
1142.765381 108.0 
1147.754883 544.0 
1148.755371 253.0 
1149.733643 147.0 
1153.886353 74.0 
1156.723999 101.0 
1157.698364 122.0 
1157.768188 193.0 
1158.781982 94.0 
1159.71167 84.0 
1160.754639 78.0 
1161.725342 74.0 
1165.704102 63.0 
1167.724487 100.0 
1171.748413 137.0 
1171.82605 123.0 
1172.735718 85.0 
1172.847656 89.0 
1173.757812 107.0 
1175.79126 226.0 
1176.777344 108.0 
1177.789307 71.0 
1181.797241 91.0 
1184.718872 134.0 
1187.780029 66.0 
1189.748901 282.0 
1189.820312 163.0 
1190.74585 157.0 
1190.796631 150.0 
1191.802124 177.0 
1192.71582 75.0 
1193.7677 105.0 
1193.844604 67.0 
1195.824219 87.0 
1200.814209 79.0 
1201.833252 76.0 
1203.782104 83.0 
1206.792603 122.0 
1207.811523 543.0 
1208.814819 533.0 
1209.820801 224.0 
1211.805786 63.0 
1213.777344 77.0 
1215.735474 87.0 
1216.736938 70.0 
1221.781616 109.0 
1221.838135 147.0 
1222.799805 171.0 
1223.775879 84.0 
1223.836426 91.0 
1225.82605 809.0 
1226.821045 640.0 
1227.814697 216.0 
1228.816895 79.0 
1228.848389 131.0 
1231.824829 86.0 
1232.83252 80.0 
1233.778442 168.0 
1234.765991 96.0 
1235.768188 62.0 
1235.817505 62.0 
1236.799194 66.0 
1239.823364 437.0 
1240.837891 471.0 
1241.845703 260.0 
1242.841431 64.0 
1243.834717 930.0 
1244.8396 687.0 
1245.852173 143.0 
1246.838867 71.0 
1253.790161 138.0 
1254.780762 67.0 
1255.80835 68.0 
1257.849731 1129.0 
1258.857178 1365.0 
1259.850586 409.0 
1260.86438 139.0 
1261.846558 595.0 
1262.852539 321.0 
1263.856812 203.0 
1264.84436 73.0 
1267.865601 75.0 
1269.074829 63.0 
1271.832764 374.0 
1271.923218 132.0 
1272.831665 236.0 
1273.822388 197.0 
1273.922729 101.0 
1274.838135 83.0 
1275.861572 2410.0 
1276.868286 1930.0 
1277.866577 776.0 
1278.872437 357.0 
1279.873657 164.0 
1280.816528 74.0 
1289.8302 572.0 
1290.883423 677.0 
1291.812012 68.0 
1291.881348 258.0 
1292.87793 201.0 
1293.874634 2390.0 
1294.873291 2031.0 
1295.87439 1018.0 
1296.890137 277.0 
1297.880249 128.0 
1305.873169 69.0 
1307.88562 1614.0 
1308.891602 1217.0 
1309.893555 721.0 
1310.906006 202.0 
1311.878052 1390.0 
1312.890137 1198.0 
1313.874268 448.0 
1314.882324 169.0 
1315.813354 64.0 
1315.895508 89.0 
1317.842163 65.0 
1321.834229 82.0 
1321.891357 99.0 
1322.843262 73.0 
1325.894531 4026.0 
1326.898315 3113.0 
1327.90332 1579.0 
1328.91333 402.0 
1329.896484 211.0 
1330.893921 158.0 
1331.790039 71.0 
1339.862793 65.0 
1343.909424 6822.0 
1344.778687 121.0 
1344.910889 4917.0 
1345.920166 2064.0 
1346.919556 663.0 
1347.748047 63.0 
1347.901123 88.0 
1353.858643 86.0 
1354.845947 62.0 
1361.9198 3750.0 
1362.783936 73.0 
1362.924194 2950.0 
1363.78418 64.0 
1363.924805 1544.0 
1364.920166 429.0 
1365.92627 98.0 
1367.893677 115.0 
1368.879272 65.0 
1371.880859 173.0 
1372.875854 104.0 
1373.821899 84.0 
1385.906616 174.0 
1386.909302 213.0 
1387.911011 67.0 
1389.894775 126.0 
1390.910156 82.0 
1395.928345 104.0 
1397.946655 88.0 
1398.941162 86.0 
1399.987427 74.0 
1400.912598 123.0 
1403.898071 129.0 
1404.914307 116.0 
1405.913696 119.0 
1411.837891 62.0 
1417.932373 190.0 
1418.91748 115.0 
1421.914551 191.0 
1422.934814 106.0 
1423.931519 75.0 
1430.837891 84.0 
1431.861572 63.0 
1435.939575 470.0 
1436.939575 310.0 
1437.968384 101.0 
1438.935181 86.0 
1439.94104 106.0 
1440.951904 88.0 
1449.904175 79.0 
1450.922729 79.0 
1451.960693 71.0 
1453.944336 400.0 
1454.950928 568.0 
1455.94751 343.0 
1456.959229 97.0 
1457.97168 70.0 
1467.969727 286.0 
1468.956543 199.0 
1469.973267 121.0 
1470.984131 78.0 
1471.960449 492.0 
1472.955688 325.0 
1473.976318 222.0 
1485.969604 1281.0 
1486.868408 90.0 
1486.982544 1013.0 
1487.984985 337.0 
1488.910645 66.0 
1488.98291 140.0 
1489.972778 75.0 
1490.986816 70.0 
1491.997925 73.0 
1492.986938 82.0 
1503.984741 3998.0 
1504.98584 3286.0 
1505.983765 1775.0 
1506.994507 502.0 
1507.986938 118.0 
1521.994995 2613.0 
1522.994141 2019.0 
1523.990112 1055.0 
1525.002441 254.0 
1525.983398 63.0 
1526.046997 65.0 
1532.984863 80.0 
1545.966919 64.0 
1582.012573 110.0 
1599.998169 63.0 
1635.025146 67.0 
1646.011353 101.0 
1646.074951 118.0 
1647.049072 178.0 
1664.047729 826.0 
1665.059204 857.0 
1666.064453 502.0 
1667.059937 160.0 
1668.070801 135.0 
1678.042969 73.0 
1679.023682 85.0 
1682.068848 125.0 
1683.07666 290.0 
1684.085083 227.0 
1969.905518 66.0 
END IONS

