BEGIN IONS
TITLE=Scan Number: 957
PEPMASS=385.22699
CHARGE=1+
COMPOUNDNAME=Ambiguine I isonitrile
LIBRARYQUALITY=3
SMILES=C[C@@]1(CC[C@H]2[C@@]3([C@@]1([C@@H]4[C@@H](O4)C(c5c3c6c(cccc6[nH]5)C2(C)C)(C)C)[N+]#[C-])O)C=C
INCHIKEY=RVIIZRJMWFSNER-LJCLWVHTSA-N
INCHI=
MSLEVEL=2
SOURCE_INSTRUMENT=LC-ESI-qTof
FILENAME=f.philipwi/0_WilliamsFreshwaterCyanosStandardsConvertedTo_mzXML_v2/PW-44_conc_P2-B-5_Ambiguine_I_isonitrile_402amu_Scan950_981_01_15670.mzXML;
SEQ=*..*
NOTES=
IONMODE=Positive
ORGANISM=GNPS-LIBRARY
NAME=Ambiguine I isonitrile M+H-H2O
SPECTRUMID=CCMSLIB00000424906
ACTIVATION=CID
INSTRUMENT=ion trap
SCANS=957
118.916092 36.0 
127.130692 32.0 
134.212814 84.0 
143.839554 40.0 
144.07666 84.0 
157.089935 96.0 
159.455688 52.0 
165.919205 84.0 
166.09169 88.0 
168.673004 84.0 
177.84314 92.0 
179.214417 52.0 
180.077347 80.0 
181.079575 204.0 
185.480728 32.0 
185.767334 68.0 
188.846924 92.0 
190.066528 88.0 
191.078506 108.0 
192.084351 44.0 
193.092819 220.0 
194.099594 112.0 
195.108795 112.0 
196.071609 176.0 
196.544968 44.0 
196.902603 48.0 
197.081543 72.0 
197.582993 76.0 
198.120972 72.0 
199.649231 164.0 
204.087051 88.0 
205.080872 104.0 
205.263489 24.0 
206.095413 364.0 
207.103287 56.0 
208.102829 420.0 
208.260773 88.0 
209.117172 184.0 
210.092468 364.0 
211.038925 40.0 
211.938141 36.0 
212.142349 84.0 
215.077057 64.0 
217.086716 148.0 
218.095001 460.0 
218.427429 64.0 
218.813858 36.0 
219.105728 252.0 
220.109207 388.0 
220.391403 40.0 
220.713272 104.0 
220.807983 52.0 
221.106064 460.0 
221.813187 40.0 
221.879654 36.0 
221.946121 44.0 
222.119827 184.0 
223.125275 84.0 
224.109467 384.0 
224.861603 52.0 
224.93808 24.0 
225.014572 32.0 
225.131577 68.0 
225.339798 40.0 
225.987122 80.0 
226.09639 40.0 
226.345673 64.0 
228.079956 116.0 
228.258163 112.0 
230.0923 60.0 
230.730286 48.0 
231.096634 484.0 
231.253448 68.0 
231.427963 88.0 
232.108704 480.0 
232.214127 44.0 
232.350143 40.0 
232.914047 100.0 
233.11348 968.0 
234.110397 284.0 
234.609879 40.0 
235.11998 328.0 
235.469879 88.0 
236.130905 292.0 
236.47847 28.0 
237.106247 56.0 
238.138016 72.0 
241.098236 140.0 
242.09552 128.0 
242.863281 152.0 
243.097672 628.0 
243.211105 176.0 
243.608917 104.0 
243.95726 36.0 
244.1008 2684.0 
244.355682 32.0 
244.854156 52.0 
245.107269 856.0 
246.012589 28.0 
246.121689 696.0 
246.242615 32.0 
246.502747 60.0 
247.123932 1484.0 
247.634979 112.0 
247.936005 36.0 
248.114609 824.0 
248.267349 48.0 
248.375839 40.0 
249.125595 216.0 
250.134811 124.0 
250.996735 116.0 
251.117935 132.0 
251.218948 40.0 
252.149338 116.0 
252.463226 100.0 
253.132141 40.0 
253.25386 48.0 
253.345169 52.0 
254.08284 80.0 
254.157516 128.0 
254.533661 84.0 
255.096725 280.0 
255.49054 28.0 
255.939056 164.0 
256.09848 784.0 
256.306305 32.0 
256.490051 36.0 
256.759644 40.0 
256.842621 40.0 
256.933807 80.0 
257.109253 716.0 
257.29718 32.0 
257.389221 36.0 
257.675659 48.0 
257.757507 28.0 
257.880341 44.0 
257.96109 108.0 
258.115387 14200.0 
258.315369 48.0 
258.421692 28.0 
258.53476 36.0 
258.567932 32.0 
258.710175 64.0 
258.80246 40.0 
258.952118 56.0 
259.117218 3628.0 
259.424957 36.0 
259.503845 80.0 
259.585266 48.0 
259.851562 40.0 
260.123596 1264.0 
260.250397 28.0 
260.363556 44.0 
260.651611 48.0 
260.723663 68.0 
260.831757 32.0 
260.981049 32.0 
261.136322 1948.0 
261.310699 28.0 
261.929321 52.0 
262.022186 36.0 
262.134033 408.0 
262.399292 60.0 
262.431213 32.0 
262.480682 48.0 
263.123474 188.0 
264.14328 392.0 
264.483734 36.0 
264.577026 40.0 
264.722229 36.0 
265.128418 168.0 
265.282593 52.0 
265.407196 36.0 
266.097931 340.0 
266.580811 36.0 
266.811005 36.0 
267.300598 28.0 
267.82196 32.0 
267.968018 44.0 
268.118286 344.0 
268.563141 40.0 
268.824371 40.0 
269.10968 548.0 
269.232117 32.0 
269.828644 36.0 
269.97525 88.0 
270.118469 612.0 
270.43631 36.0 
271.12207 3996.0 
271.401581 40.0 
271.569641 32.0 
271.643188 40.0 
271.782654 88.0 
271.896698 64.0 
272.116791 1952.0 
272.418396 100.0 
272.663239 40.0 
272.885498 36.0 
273.134125 2860.0 
273.316223 76.0 
273.564362 52.0 
273.79068 36.0 
274.006927 40.0 
274.144836 2440.0 
274.381653 52.0 
274.571747 64.0 
274.79361 28.0 
274.947388 80.0 
275.145508 956.0 
275.512634 68.0 
275.619629 36.0 
276.149353 624.0 
276.253784 36.0 
276.719177 44.0 
276.974701 48.0 
277.166718 252.0 
278.144867 108.0 
278.302399 52.0 
278.61087 56.0 
278.685364 24.0 
279.113556 72.0 
279.579956 36.0 
279.825165 28.0 
280.12381 92.0 
280.476013 52.0 
280.561401 36.0 
281.130737 116.0 
281.897675 64.0 
282.119904 300.0 
282.923248 184.0 
283.129944 496.0 
283.247803 36.0 
283.430206 28.0 
283.580475 32.0 
283.816681 56.0 
283.999298 28.0 
284.132874 1860.0 
284.461395 40.0 
284.566528 36.0 
284.805542 44.0 
284.956177 100.0 
285.138519 864.0 
285.300598 24.0 
285.464447 56.0 
285.5914 40.0 
285.665619 36.0 
285.84137 40.0 
286.029633 84.0 
286.132416 464.0 
286.324402 76.0 
286.540161 44.0 
286.809998 36.0 
286.896362 40.0 
287.117432 7616.0 
287.411957 60.0 
287.601929 52.0 
287.64093 48.0 
287.679688 96.0 
287.820251 80.0 
287.937042 68.0 
288.124054 1944.0 
288.289734 44.0 
288.370636 48.0 
288.619019 52.0 
288.767303 28.0 
288.84314 72.0 
288.9552 88.0 
289.13266 24076.0 
289.281647 28.0 
289.324371 48.0 
289.425873 84.0 
289.498474 44.0 
289.570038 152.0 
289.695557 32.0 
289.775208 168.0 
289.855713 136.0 
290.02182 32.0 
290.135345 5304.0 
290.483307 44.0 
290.631287 40.0 
290.872589 40.0 
291.140411 508.0 
291.296753 20.0 
291.416443 36.0 
291.515381 44.0 
291.775635 40.0 
291.917206 128.0 
292.004364 44.0 
292.107361 88.0 
292.276733 52.0 
292.407532 28.0 
293.112213 92.0 
293.214691 48.0 
293.409515 52.0 
293.596863 36.0 
293.749817 44.0 
294.027191 104.0 
294.125702 244.0 
294.70108 28.0 
294.777679 36.0 
294.930908 36.0 
295.116364 152.0 
295.237518 48.0 
295.325165 40.0 
295.434723 32.0 
295.642914 52.0 
296.126099 136.0 
296.31189 108.0 
297.141479 516.0 
297.344238 36.0 
297.454163 36.0 
297.663086 32.0 
298.015137 48.0 
298.148285 684.0 
298.708801 36.0 
299.151428 812.0 
299.381226 24.0 
299.833618 40.0 
300.156525 1068.0 
300.307312 40.0 
300.624634 52.0 
300.838898 36.0 
301.13559 1384.0 
301.325592 44.0 
301.425171 44.0 
301.507568 72.0 
301.685303 72.0 
301.893433 44.0 
302.140503 11808.0 
302.376099 84.0 
302.513519 92.0 
302.714874 68.0 
302.84787 60.0 
303.028381 36.0 
303.146484 2640.0 
303.387238 44.0 
303.464966 40.0 
303.542725 24.0 
303.731537 36.0 
303.864868 44.0 
303.983154 56.0 
304.156464 2712.0 
304.353973 32.0 
304.442963 100.0 
304.857758 72.0 
304.972198 64.0 
305.1633 564.0 
305.589661 28.0 
305.697388 36.0 
305.779114 40.0 
305.999878 40.0 
306.170319 92.0 
306.82782 40.0 
307.0383 52.0 
307.127777 108.0 
307.397522 52.0 
307.848938 64.0 
308.131989 208.0 
308.314667 44.0 
308.908173 36.0 
309.138031 296.0 
309.59198 48.0 
309.850006 36.0 
310.155792 452.0 
310.27655 24.0 
310.377594 24.0 
310.72583 36.0 
310.916901 40.0 
311.164429 432.0 
311.625427 36.0 
311.805481 28.0 
311.906799 56.0 
312.03064 36.0 
312.16156 2140.0 
312.458679 36.0 
312.83371 44.0 
313.0336 96.0 
313.160553 1292.0 
313.676788 32.0 
314.169586 768.0 
314.377167 36.0 
314.474426 156.0 
314.730713 160.0 
314.953857 32.0 
315.180634 524.0 
315.531067 48.0 
315.632965 32.0 
315.71225 24.0 
316.161438 324.0 
317.016144 76.0 
317.162323 7452.0 
317.458923 36.0 
317.598999 60.0 
317.731567 32.0 
317.833862 36.0 
317.971252 44.0 
318.167084 1988.0 
318.422241 32.0 
318.800568 32.0 
319.168549 284.0 
319.404053 52.0 
319.540802 32.0 
319.905518 44.0 
320.138397 292.0 
320.818298 80.0 
321.124359 88.0 
321.58374 64.0 
322.153625 48.0 
322.281403 40.0 
323.128784 112.0 
323.598755 32.0 
323.747864 32.0 
324.170227 464.0 
324.442139 64.0 
325.169373 700.0 
325.38916 48.0 
325.537292 40.0 
325.620117 60.0 
325.824799 84.0 
325.928467 36.0 
326.024048 112.0 
326.177155 11108.0 
326.496643 60.0 
326.590332 56.0 
326.676575 88.0 
326.746094 128.0 
326.862762 112.0 
326.988708 108.0 
327.019989 140.0 
327.179321 8524.0 
327.362122 132.0 
327.510376 112.0 
327.751587 76.0 
327.855469 60.0 
328.023468 36.0 
328.182068 2408.0 
328.514862 40.0 
328.637909 32.0 
328.829926 44.0 
328.953705 56.0 
329.168854 468.0 
329.427063 36.0 
329.508057 36.0 
329.820557 40.0 
330.167542 116.0 
330.182922 164.0 
330.538696 36.0 
330.840088 28.0 
331.214233 156.0 
331.663818 80.0 
331.756714 20.0 
332.256165 36.0 
332.569946 140.0 
332.674591 60.0 
333.931458 40.0 
334.187775 36.0 
334.339264 44.0 
334.689026 32.0 
335.169037 160.0 
335.996429 44.0 
336.161926 168.0 
336.393829 84.0 
337.168365 456.0 
338.162903 244.0 
338.384308 40.0 
338.994354 40.0 
339.176666 300.0 
339.43396 40.0 
340.185272 284.0 
340.804199 28.0 
340.910095 44.0 
341.039581 32.0 
341.199493 6108.0 
341.339844 44.0 
341.451721 28.0 
341.581299 32.0 
341.769836 64.0 
341.872009 48.0 
342.048584 96.0 
342.199615 2600.0 
342.359314 80.0 
342.441895 32.0 
342.795868 24.0 
343.199921 692.0 
343.539795 44.0 
344.137085 84.0 
344.215271 356.0 
345.231445 72.0 
345.823883 44.0 
346.215179 88.0 
346.70166 28.0 
346.820374 80.0 
346.998444 36.0 
350.18808 56.0 
350.546021 44.0 
351.178864 228.0 
351.836182 108.0 
352.191132 348.0 
352.415985 40.0 
352.805359 36.0 
353.199493 264.0 
353.488159 28.0 
353.679932 44.0 
353.835815 36.0 
354.212952 104.0 
354.399597 32.0 
354.64444 60.0 
354.823029 44.0 
354.980194 44.0 
355.180481 2100.0 
355.671448 36.0 
355.788055 68.0 
355.937286 48.0 
356.187592 696.0 
356.611084 36.0 
356.803711 32.0 
357.229614 1196.0 
357.924408 40.0 
358.222046 572.0 
359.215546 144.0 
359.360962 148.0 
361.187958 64.0 
365.184692 116.0 
365.696503 24.0 
366.202576 128.0 
367.014221 52.0 
367.214783 236.0 
367.527313 40.0 
368.225403 284.0 
368.365265 36.0 
368.517822 48.0 
368.652435 72.0 
368.799347 36.0 
369.196808 476.0 
369.42392 44.0 
369.619995 36.0 
369.770111 48.0 
369.904144 44.0 
369.961334 52.0 
370.20163 8292.0 
370.361237 44.0 
370.558594 52.0 
370.680817 36.0 
370.840057 40.0 
371.203003 2132.0 
371.73233 44.0 
372.097595 116.0 
372.211243 256.0 
373.256439 152.0 
373.509155 132.0 
374.057373 40.0 
374.957916 40.0 
375.686523 56.0 
375.847168 52.0 
377.083984 44.0 
377.653625 32.0 
377.777496 48.0 
379.861847 108.0 
380.819092 48.0 
380.91861 144.0 
381.989319 56.0 
382.168732 120.0 
382.861908 136.0 
383.236694 104.0 
383.735504 96.0 
383.997803 44.0 
384.610107 48.0 
384.997742 52.0 
385.224823 3152.0 
385.560791 36.0 
385.876556 36.0 
386.2276 1176.0 
386.379608 52.0 
386.700653 40.0 
386.901245 28.0 
387.220276 336.0 
387.47406 108.0 
387.591187 20.0 
388.20636 52.0 
389.098602 28.0 
389.236938 84.0 
391.239136 48.0 
391.756256 76.0 
392.69046 68.0 
392.829437 48.0 
397.187622 128.0 
400.089417 100.0 
406.592834 176.0 
408.742249 80.0 
417.253204 60.0 
417.526703 148.0 
425.168121 68.0 
429.199677 92.0 
442.131989 40.0 
444.265747 128.0 
446.970459 60.0 
447.145691 32.0 
459.619019 108.0 
465.2117 44.0 
468.006927 108.0 
468.627686 124.0 
471.571564 128.0 
485.024323 84.0 
493.073547 56.0 
497.641907 108.0 
500.33313 52.0 
511.963623 32.0 
513.01709 180.0 
514.794495 224.0 
515.02594 100.0 
522.517639 108.0 
524.048706 120.0 
525.450562 80.0 
525.749207 120.0 
527.264038 84.0 
531.135315 180.0 
531.649658 144.0 
534.593323 112.0 
554.435425 108.0 
556.117737 36.0 
560.832825 108.0 
565.234375 104.0 
566.690247 140.0 
575.005859 116.0 
576.091614 56.0 
589.262878 104.0 
597.430237 88.0 
598.240723 108.0 
605.167603 132.0 
609.330261 36.0 
617.856873 96.0 
628.854187 108.0 
629.078003 120.0 
636.663147 104.0 
642.579712 116.0 
653.402832 84.0 
658.398376 96.0 
658.660095 84.0 
668.858704 108.0 
672.325195 32.0 
673.416504 112.0 
711.609253 96.0 
715.082397 164.0 
716.975769 88.0 
724.488403 80.0 
725.36377 128.0 
750.820374 128.0 
760.703979 32.0 
807.373901 120.0 
810.328979 116.0 
815.144714 80.0 
824.910583 84.0 
851.131775 84.0 
879.652832 44.0 
902.390625 100.0 
920.692993 108.0 
921.892578 92.0 
1045.260132 32.0 
1054.637573 120.0 
1580.800781 128.0 
1668.822998 152.0 
END IONS

