BEGIN IONS
PEPMASS=489.0
CHARGE=2+
MSLEVEL=2
SOURCE_INSTRUMENT=LC-ESI-qTof
FILENAME=1E4_489MH_RE4_01_9751.mzXML
SEQ=*..*
IONMODE=Positive
ORGANISM=GNPS-LIBRARY
NAME=Jamaicamide B M+H
PI=Dorrestein/Gerwick
DATACOLLECTOR=Peng/Luzzatto/Garg
SMILES=CO\C(CCNC(=O)CC\C=C\C(C)CC\C(CCCC#C)=C\Cl)=C\C(=O)N1C(C)C=CC1=O
INCHI=InChI=1S/C27H37ClN2O4/c1-5-6-7-11-23(20-28)15-13-21(2)10-8-9-12-25(31)29-18-17-24(34-4)19-27(33)30-22(3)14-16-26(30)32/h1,8,10,14,16,19-22H,6-7,9,11-13,15,17-18H2,2-4H3,(H,29,31)/b10-8+,23-20+,24-19+
INCHIAUX=KZVHAGNFWJIOMX-GDKFLGFMSA-N
PUBMED=ChemSpider ID:28295600
SUBMITUSER=y6peng
LIBRARYQUALITY=2
SPECTRUMID=CCMSLIB00000072507
SCANS=2451
96.055862 144.0 
96.079262 228.0 
96.096817 224.0 
96.452103 220.0 
96.833488 212.0 
97.047005 160.0 
98.866432 216.0 
99.042847 1132.0 
100.045921 212.0 
100.541107 168.0 
100.832573 148.0 
101.763687 172.0 
103.4869 188.0 
103.883965 228.0 
104.066551 172.0 
106.183907 208.0 
106.793671 192.0 
108.440651 176.0 
109.585213 144.0 
110.058495 148.0 
111.043961 6876.0 
111.234619 140.0 
112.048851 660.0 
112.353722 220.0 
113.093025 168.0 
115.748909 156.0 
118.973183 224.0 
122.510262 212.0 
122.904755 160.0 
125.440941 168.0 
125.505569 188.0 
127.095284 212.0 
127.84552 216.0 
127.991783 248.0 
128.070435 12412.0 
128.13588 232.0 
128.823685 236.0 
129.073624 1228.0 
129.094803 188.0 
131.085327 216.0 
138.201508 196.0 
141.817352 184.0 
143.840759 196.0 
148.143585 152.0 
153.27243 228.0 
159.117828 232.0 
161.182373 248.0 
163.102646 148.0 
165.07518 164.0 
169.17485 224.0 
170.177765 160.0 
176.072922 204.0 
177.114395 256.0 
180.097595 188.0 
182.50856 184.0 
193.094284 148.0 
193.390213 188.0 
195.014679 248.0 
196.097473 652.0 
197.104904 252.0 
204.823181 212.0 
206.08078 204.0 
206.692413 244.0 
207.113098 216.0 
207.602997 204.0 
207.984421 212.0 
208.036072 196.0 
208.096786 11108.0 
209.10025 1616.0 
210.102081 204.0 
210.36113 152.0 
210.44841 112.0 
214.947937 148.0 
220.939468 152.0 
229.159454 176.0 
237.019302 232.0 
246.753235 180.0 
253.128677 168.0 
258.081055 264.0 
313.081543 140.0 
315.335022 168.0 
324.232727 144.0 
331.900879 160.0 
341.163635 144.0 
345.857635 156.0 
356.911194 176.0 
357.94931 144.0 
359.97348 176.0 
360.075378 220.0 
360.173706 240.0 
361.174805 292.0 
362.166809 208.0 
363.177734 184.0 
370.934296 160.0 
384.419739 276.0 
387.51535 144.0 
392.055969 168.0 
392.199554 2640.0 
393.202576 748.0 
393.546448 160.0 
394.196625 1132.0 
394.885529 140.0 
395.194305 520.0 
395.221344 244.0 
397.332581 160.0 
406.181244 152.0 
409.822113 140.0 
419.166382 148.0 
420.115295 116.0 
454.266296 148.0 
457.21936 232.0 
458.224854 340.0 
459.228638 220.0 
471.027557 176.0 
487.237885 160.0 
487.380646 180.0 
488.435364 176.0 
489.246094 1456.0 
489.667267 192.0 
489.82135 152.0 
489.887421 180.0 
490.072388 152.0 
490.142853 152.0 
490.244507 836.0 
491.245209 908.0 
492.184296 152.0 
492.237152 272.0 
493.238434 148.0 
1061.808105 244.0 
1133.674316 220.0 
1140.705444 248.0 
1323.323608 176.0 
1324.250122 292.0 
1411.589478 212.0 
1483.700562 264.0 
1493.933472 196.0 
1498.620117 180.0 
1525.837646 180.0 
1535.809204 208.0 
1603.00415 160.0 
1614.399048 168.0 
1619.615234 280.0 
1627.671997 152.0 
1639.693848 204.0 
1673.370728 332.0 
1674.217285 216.0 
1709.199097 204.0 
1716.395386 188.0 
1742.424194 248.0 
1750.680542 172.0 
1780.146973 160.0 
1785.750244 168.0 
1800.172607 220.0 
1804.319702 172.0 
1812.822876 176.0 
1814.839478 236.0 
1821.906494 220.0 
1823.273926 268.0 
1824.769409 244.0 
1826.996826 240.0 
1830.45105 192.0 
1839.10083 208.0 
1844.454224 176.0 
1872.707031 204.0 
1873.947021 188.0 
1875.152954 220.0 
1880.282471 232.0 
1880.47229 172.0 
1882.422607 196.0 
1886.231201 220.0 
1948.526489 168.0 
1966.792236 140.0 
1974.475952 248.0 
1988.016113 292.0 
2003.7052 128.0 
2004.478638 140.0 
END IONS

