BEGIN IONS
PEPMASS=789.0
CHARGE=0+
MSLEVEL=2
SOURCE_INSTRUMENT=LC-ESI-qTof
FILENAME=20121210_Jenia_Ger_Bastimolide_A_MH789-qb.1.1..mgf
SEQ=*..*
IONMODE=Positive
ORGANISM=GNPS-LIBRARY
NAME=Bastimolide A M+H
PI=Gerwick
DATACOLLECTOR=Jenia
SMILES=CC1=CC(=O)O[C@@H](CCC[C@@H](CCC[C@@H](CCC[C@@H](CCC[C@H](C[C@H](C[C@@H](CCC[C@H](CCC[C@H](C[C@H](CCCCC1)O)O)O)O)O)O)O)O)O)C(C)(C)C
INCHI=InChI=1S/C44H84O11/c1-32-14-6-5-7-15-37(49)29-38(50)24-10-20-35(47)22-12-26-40(52)31-41(53)30-39(51)25-11-21-34(46)18-8-16-33(45)17-9-19-36(48)23-13-27-42(44(2,3)4)55-43(54)28-32/h28,33-42,45-53H,5-27,29-31H2,1-4H3/t33-,34+,35+,36-,37+,38-,39-,40-,41-,42+/m1/s1
INCHIAUX=N/A
PUBMED=N/A
SUBMITUSER=mwang87
LIBRARYQUALITY=1
SPECTRUMID=CCMSLIB00000001664
SCANS=1
228.957642 8361.0 
243.125214 5758.0 
269.026978 15180.0 
283.114075 9501.0 
290.818237 4028.0 
295.232178 5091.0 
302.905884 7017.0 
315.060608 10499.0 
317.010315 7771.0 
318.754028 7263.0 
321.373474 5090.0 
327.211121 3039.0 
329.279053 6754.0 
330.825256 5214.0 
337.052979 23425.0 
341.260986 9541.0 
342.731873 3320.0 
344.832031 7662.0 
352.883423 4739.0 
354.846924 6940.0 
359.146484 32239.0 
360.994934 31423.0 
362.879578 12211.0 
365.177124 16635.0 
370.955566 2561.0 
376.949951 15486.0 
379.031982 11196.0 
380.673279 5591.0 
389.000732 2942.0 
392.795044 7646.0 
395.332031 5167.0 
396.807617 2372.0 
416.884521 5980.0 
429.124756 5316.0 
432.978027 3352.0 
445.103638 20779.0 
461.28833 6696.0 
476.834961 12218.0 
479.079346 12778.0 
480.93634 10221.0 
485.230835 12860.0 
485.863403 8.0 
496.968872 21877.0 
497.588928 1.0 
499.144348 37244.0 
504.787415 2027.0 
507.278259 2051.0 
513.170166 10274.0 
515.096436 32462.0 
516.621826 1485.0 
517.243286 15428.0 
521.130127 4992.0 
529.06665 5899.0 
533.133789 6733.0 
534.843018 3451.0 
543.118164 5435.0 
569.221436 1701.0 
581.068115 16804.0 
581.679932 1.0 
587.388916 4870.0 
598.88501 10673.0 
601.292969 3837.0 
609.10022 27720.0 
627.087891 144108.0 
645.255859 373848.0 
655.321045 3234.0 
662.585205 17349.0 
663.270996 458637.0 
664.091187 4.0 
681.176758 885073.0 
698.452881 4477.0 
699.150513 1022156.0 
700.046021 5.0 
716.293945 9985.0 
717.159912 795882.0 
717.892456 33.0 
735.155029 834671.0 
752.505127 17031.0 
753.218628 774239.0 
771.178467 992772.0 
772.029053 5.0 
789.368896 9785.0 
END IONS

