BEGIN IONS
PEPMASS=986.4
CHARGE=1+
MSLEVEL=2
SOURCE_INSTRUMENT=LC-ESI-Ion Trap
FILENAME=Cyanopeptolin963A_M+Na_MSMS.mzXML
SEQ=*..*
IONMODE=Positive
ORGANISM=GNPS-LIBRARY
NAME=Cyanopeptolin 963A M+Na
PI=Gerwick
DATACOLLECTOR=E Briand
SMILES=CCCCCC(=O)N[C@@H](CC(O)=O)C(=O)N[C@H]1[C@@H](C)OC(=O)[C@@H](NC(=O)[C@H](CC2=CC=CC=C2)N(C)C(=O)[C@H](CC(C)C)N2[C@H](O)CC[C@H](NC(=O)[C@H](CC3=CC=C(O)C=C3)NC1=O)C2=O)C(C)C
INCHI=InChI=1S/C49H69N7O13/c1-8-9-11-16-38(58)50-35(26-40(60)61)44(63)54-42-29(6)69-49(68)41(28(4)5)53-45(64)36(25-30-14-12-10-13-15-30)55(7)48(67)37(23-27(2)3)56-39(59)22-21-33(47(56)66)51-43(62)34(52-46(42)65)24-31-17-19-32(57)20-18-31/h10,12-15,17-20,27-29,33-37,39,41-42,57,59H,8-9,11,16,21-26H2,1-7H3,(H,50,58)(H,51,62)(H,52,65)(H,53,64)(H,54,63)(H,60,61)/t29-,33+,34+,35+,36+,37+,39-,41+,42+/m1/s1
INCHIAUX=NGPDQWFWZNXVLZ-AYGLBTBXSA-N
PUBMED=15497957
SUBMITUSER=ebriand
LIBRARYQUALITY=2
SPECTRUMID=CCMSLIB00000071757
SCANS=477
348.7771 1136.0 
509.138733 635.0 
513.410156 5177.0 
521.131958 2531.0 
573.148315 5228.0 
593.122192 11566.0 
595.204346 4588.0 
611.325439 1431.0 
655.933594 6782.0 
672.053589 4613.0 
677.02124 3981.0 
690.44751 860.0 
699.852295 3220.0 
708.231689 25542.0 
726.196777 18713.0 
754.171631 30096.0 
755.046143 8320.0 
773.250854 61877.0 
807.439941 5191.0 
825.312866 7731.0 
850.909424 883.0 
853.365601 5539.0 
869.29248 25515.0 
870.36145 1036.0 
871.331787 3133.0 
887.186768 9825.0 
924.316772 6967.0 
968.325562 24426.0 
969.008057 3.0 
END IONS

