BEGIN IONS
PEPMASS=615.24
CHARGE=1+
MSLEVEL=2
SOURCE_INSTRUMENT=LC-ESI-qTof
FILENAME=f.evgenia_glukhov/December 13-16 Singapore/20161215_Debromo.mzXML;
SEQ=*..*
IONMODE=Positive
ORGANISM=GNPS-LIBRARY
NAME=Debromoaplysiatoxin M+Na
PI=Gerwick
DATACOLLECTOR=Jenia
SMILES=[C@@]123O[C@]([C@H](C)CC1(C)C)(CC(O[C@@]([C@@H](C)O)(CC(OC(C2)[C@H](C)[C@](O3)([C@H](CC[C@@H](C=4C=CC=C(C4)O)OC)C)[H])=O)[H])=O)O
INCHI=
INCHIAUX=
PUBMED=
SUBMITUSER=evgenia_glukhov
LIBRARYQUALITY=3
SPECTRUMID=CCMSLIB00000840561
SCANS=667
237.270325 4618.0 
344.491638 1377.0 
386.269348 1412.0 
406.390503 2602.0 
455.260254 1381.0 
471.038391 6434.0 
480.021057 3070.0 
480.629211 2621.0 
481.250916 4765.0 
498.46936 8204.0 
524.820557 7012.0 
539.036377 6052.0 
555.0354 1378.0 
569.365234 4031.0 
571.428101 618.0 
596.278564 13081.0 
597.28833 41391.0 
614.598389 6643.0 
615.722168 828.0 
END IONS

