BEGIN IONS
PEPMASS=732.0
CHARGE=2+
MSLEVEL=2
SOURCE_INSTRUMENT=LC-ESI-qTof
FILENAME=1G10_732_RG10_01_9781.mzXML
SEQ=*..*
IONMODE=Positive
ORGANISM=GNPS-LIBRARY
NAME=Microcolin B M+H
PI=Dorrestein/Gerwick
DATACOLLECTOR=Peng/Luzzatto/Garg
SMILES=CCCC[C@@H](C)C[C@@H](C)C(=O)N(C)[C@@H](CC(C)C)C(=O)N[C@@H](C(C)OC(C)=O)C(=O)N(C)[C@@H](C(C)C)C(=O)N1CCC[C@H]1C(=O)N1[C@@H](C)C=CC1=O
INCHI=InChI=1S/C39H65N5O8/c1-13-14-16-25(6)22-26(7)36(48)41(11)31(21-23(2)3)35(47)40-33(28(9)52-29(10)45)38(50)42(12)34(24(4)5)39(51)43-20-15-17-30(43)37(49)44-27(8)18-19-32(44)46/h18-19,23-28,30-31,33-34H,13-17,20-22H2,1-12H3,(H,40,47)/t25-,26-,27+,28?,30+,31+,33+,34+/m1/s1
INCHIAUX=MNASOWORUXKEPP-RKVCBYGQSA-N
PUBMED=ChemSpider ID:4591074
SUBMITUSER=y6peng
LIBRARYQUALITY=2
SPECTRUMID=CCMSLIB00000072491
SCANS=3088
96.314262 192.0 
96.49984 168.0 
98.521339 176.0 
99.346519 220.0 
99.491325 180.0 
99.546898 224.0 
99.755432 228.0 
100.111977 8372.0 
101.115379 1048.0 
103.874504 256.0 
104.868385 192.0 
106.205032 188.0 
109.202881 220.0 
111.161697 280.0 
111.283386 204.0 
112.042313 228.0 
114.002945 172.0 
116.531868 192.0 
121.030815 236.0 
121.059265 184.0 
121.63784 180.0 
125.358665 200.0 
125.784477 208.0 
126.242302 176.0 
126.615875 204.0 
127.148811 824.0 
127.897354 208.0 
128.149689 172.0 
131.180557 204.0 
132.654373 192.0 
134.600098 216.0 
134.673843 232.0 
137.133759 792.0 
137.976898 196.0 
138.063385 224.0 
141.525818 176.0 
145.119781 228.0 
146.325378 264.0 
146.592636 168.0 
147.180954 188.0 
147.415176 252.0 
148.579315 192.0 
150.545197 228.0 
150.9189 188.0 
151.231903 260.0 
152.104126 220.0 
152.537384 224.0 
152.774475 192.0 
154.129318 224.0 
155.14238 1956.0 
155.189087 168.0 
156.14566 332.0 
156.860855 212.0 
158.049805 260.0 
159.094498 228.0 
161.484787 180.0 
163.10939 168.0 
163.722305 184.0 
163.763046 188.0 
165.844528 220.0 
170.46489 188.0 
171.5159 212.0 
173.153427 180.0 
173.478195 224.0 
176.975464 188.0 
177.354126 192.0 
179.973434 208.0 
180.096237 180.0 
181.144333 284.0 
181.707077 172.0 
181.897522 168.0 
184.898865 240.0 
185.936417 200.0 
186.185364 224.0 
186.55545 252.0 
186.767456 220.0 
186.83815 180.0 
187.072098 204.0 
187.189117 196.0 
188.724701 244.0 
189.181396 212.0 
193.568314 276.0 
194.174957 172.0 
194.355194 216.0 
194.629868 172.0 
194.760345 244.0 
195.114456 1200.0 
195.485657 168.0 
196.11618 512.0 
197.216843 296.0 
198.453674 184.0 
198.627472 192.0 
200.107849 212.0 
200.333054 168.0 
200.781021 204.0 
201.068665 232.0 
202.266571 176.0 
203.017059 168.0 
204.485214 208.0 
204.775497 228.0 
205.188507 188.0 
205.621902 184.0 
205.795959 208.0 
206.072891 224.0 
206.461487 284.0 
208.229019 180.0 
208.539185 168.0 
209.131424 184.0 
209.689941 244.0 
210.609955 168.0 
210.722565 212.0 
210.78537 188.0 
210.991226 220.0 
211.05481 172.0 
211.144394 20260.0 
211.186172 280.0 
211.528259 212.0 
212.147827 2588.0 
212.873779 188.0 
213.150085 252.0 
213.461411 196.0 
214.313019 212.0 
218.165894 184.0 
219.145508 320.0 
219.79982 168.0 
221.102463 204.0 
221.780426 196.0 
223.065155 232.0 
223.198883 220.0 
226.046371 212.0 
227.445389 180.0 
232.280396 168.0 
232.592804 196.0 
235.331528 172.0 
237.199066 208.0 
238.027969 204.0 
239.204987 224.0 
240.119705 172.0 
240.733582 168.0 
241.203003 168.0 
242.344467 168.0 
242.527237 196.0 
245.834961 168.0 
247.340759 172.0 
248.120453 196.0 
250.807053 236.0 
252.31218 192.0 
254.247543 2512.0 
255.251984 620.0 
256.634613 184.0 
257.150879 188.0 
257.333069 188.0 
258.81601 216.0 
259.132965 260.0 
259.219452 240.0 
259.341187 188.0 
260.434845 208.0 
260.942352 328.0 
262.629059 180.0 
263.17099 252.0 
263.820099 168.0 
265.188385 188.0 
266.194 168.0 
266.580414 192.0 
268.881866 188.0 
269.802612 204.0 
271.511108 184.0 
275.482239 220.0 
276.387756 240.0 
278.249664 180.0 
278.830719 184.0 
279.352509 232.0 
281.125977 184.0 
281.892029 212.0 
282.176025 184.0 
282.242767 45872.0 
282.857513 216.0 
282.888306 180.0 
283.245911 5852.0 
283.493408 200.0 
284.250458 1372.0 
284.454346 260.0 
284.688019 184.0 
285.254089 188.0 
286.315002 168.0 
286.453033 180.0 
288.186371 184.0 
288.760803 188.0 
290.087524 176.0 
291.784241 192.0 
295.79776 180.0 
295.900421 200.0 
300.193665 236.0 
300.433167 192.0 
303.307404 240.0 
307.678253 208.0 
307.940033 224.0 
308.19635 4536.0 
308.264801 172.0 
308.589752 208.0 
309.201111 860.0 
311.202393 200.0 
311.279602 192.0 
312.110382 204.0 
313.02301 172.0 
313.611084 188.0 
314.527771 228.0 
316.94931 244.0 
318.481232 212.0 
318.61972 176.0 
322.905121 188.0 
323.310181 172.0 
327.494659 208.0 
329.557251 176.0 
331.16275 180.0 
331.879974 288.0 
332.254181 236.0 
332.394836 236.0 
334.592865 216.0 
337.126801 216.0 
337.320435 188.0 
337.42276 172.0 
338.183319 184.0 
338.915405 232.0 
339.721649 212.0 
339.769318 176.0 
341.333313 204.0 
344.649323 220.0 
346.102356 216.0 
346.43924 188.0 
349.291779 196.0 
349.571594 272.0 
351.268402 192.0 
352.471466 228.0 
353.170105 204.0 
353.720062 256.0 
354.251587 204.0 
354.420105 244.0 
356.719727 172.0 
356.772339 184.0 
362.620667 192.0 
362.923798 208.0 
364.141418 196.0 
364.19455 180.0 
364.621552 168.0 
364.661865 192.0 
365.163361 324.0 
365.204681 488.0 
365.279846 34684.0 
365.674652 180.0 
365.902252 252.0 
366.282501 6756.0 
367.283661 1412.0 
367.360229 168.0 
368.605682 196.0 
369.87738 192.0 
370.891998 168.0 
372.859497 220.0 
374.640869 180.0 
375.284241 216.0 
375.600311 188.0 
379.248871 184.0 
382.786591 180.0 
383.63562 208.0 
383.982483 204.0 
384.450439 176.0 
384.633789 176.0 
389.141724 216.0 
390.473297 216.0 
390.866516 188.0 
393.317932 208.0 
395.62439 176.0 
397.066071 208.0 
397.422943 168.0 
398.691376 232.0 
398.875458 200.0 
400.450836 200.0 
401.215576 176.0 
401.933197 216.0 
406.083923 176.0 
410.336578 172.0 
412.438904 204.0 
413.96756 176.0 
415.924927 184.0 
416.351807 200.0 
420.147125 224.0 
420.963104 192.0 
421.003906 168.0 
421.444885 220.0 
421.808472 184.0 
422.409302 244.0 
423.808868 184.0 
424.087402 204.0 
425.307037 344.0 
425.355103 168.0 
426.30899 212.0 
427.16568 184.0 
430.081818 176.0 
430.870209 204.0 
431.382416 176.0 
432.817444 172.0 
433.869354 176.0 
433.981262 172.0 
435.480988 196.0 
436.492279 240.0 
437.535736 184.0 
438.044037 192.0 
438.281403 168.0 
438.402191 216.0 
438.839661 212.0 
440.082489 176.0 
443.021362 240.0 
443.741913 172.0 
446.405396 172.0 
450.14325 232.0 
450.367004 284.0 
450.396545 276.0 
451.575287 212.0 
452.201202 188.0 
452.383148 196.0 
452.912231 184.0 
453.267944 200.0 
453.378082 176.0 
453.687347 192.0 
457.326202 232.0 
457.551697 228.0 
457.866669 176.0 
458.186005 192.0 
458.663086 180.0 
459.8526 244.0 
460.60376 172.0 
460.637909 172.0 
463.284302 196.0 
464.77182 184.0 
465.097839 196.0 
465.243744 200.0 
466.162506 172.0 
466.33432 244.0 
468.848755 200.0 
470.342651 172.0 
471.802124 244.0 
472.177216 204.0 
472.506775 172.0 
473.021515 244.0 
473.395935 184.0 
473.482147 176.0 
473.758728 244.0 
474.073547 208.0 
474.506805 220.0 
475.246307 208.0 
475.420319 196.0 
476.884613 212.0 
477.061584 384.0 
477.366302 320.0 
477.561523 208.0 
477.764801 168.0 
477.834778 236.0 
478.049683 212.0 
478.137421 360.0 
478.222382 228.0 
478.365082 128048.0 
478.819641 188.0 
478.905457 312.0 
478.959869 268.0 
479.080475 936.0 
479.273468 384.0 
479.367004 43052.0 
479.472992 268.0 
479.666229 216.0 
479.848206 272.0 
480.145844 192.0 
480.368835 5872.0 
480.504578 176.0 
481.288696 204.0 
481.368805 1144.0 
481.442505 168.0 
481.8125 324.0 
482.112091 224.0 
483.199402 232.0 
484.180695 188.0 
484.657959 268.0 
485.170532 180.0 
486.152618 184.0 
489.038849 176.0 
492.670776 244.0 
494.951996 184.0 
495.44339 204.0 
496.054688 208.0 
503.428436 216.0 
504.540527 268.0 
504.80423 168.0 
507.960419 192.0 
508.404419 176.0 
511.864349 172.0 
511.931854 264.0 
513.688904 180.0 
516.244141 180.0 
519.277161 200.0 
520.787903 192.0 
521.955383 240.0 
524.039185 172.0 
524.189453 224.0 
526.076904 212.0 
526.556091 172.0 
532.626953 172.0 
532.998901 168.0 
535.712219 220.0 
536.240417 192.0 
536.389343 172.0 
536.59668 176.0 
536.766785 216.0 
536.977722 256.0 
537.172913 188.0 
537.364563 388.0 
537.509583 316.0 
537.606995 196.0 
537.698059 176.0 
537.93396 220.0 
538.197632 180.0 
538.274109 232.0 
538.306885 404.0 
538.385925 72564.0 
538.550537 208.0 
538.592407 316.0 
538.697693 284.0 
538.775757 168.0 
538.810547 212.0 
538.966675 208.0 
539.015381 280.0 
539.052917 180.0 
539.152832 168.0 
539.313477 188.0 
539.387817 30628.0 
539.654419 192.0 
539.852905 176.0 
540.0802 212.0 
540.154907 236.0 
540.184448 368.0 
540.390137 5372.0 
540.694702 192.0 
541.120422 184.0 
541.391541 1004.0 
542.020203 200.0 
542.084412 184.0 
542.232361 184.0 
543.127258 176.0 
543.30603 188.0 
543.637146 196.0 
544.299255 176.0 
544.654724 180.0 
546.160034 192.0 
592.892212 164.0 
596.598938 212.0 
601.390137 180.0 
629.306152 228.0 
735.517517 1628.0 
736.536133 352.0 
737.437866 168.0 
737.540527 208.0 
754.464661 336.0 
770.700806 240.0 
945.175049 168.0 
953.960083 188.0 
1143.671631 172.0 
1150.801025 192.0 
1158.575317 164.0 
1362.057617 244.0 
1362.696411 192.0 
1403.648926 188.0 
1417.764038 204.0 
1441.421143 332.0 
1455.140015 228.0 
1538.115845 168.0 
1570.075195 184.0 
1574.0271 172.0 
1610.999512 248.0 
1675.400269 244.0 
1721.906982 168.0 
1725.830566 220.0 
1738.109131 180.0 
1744.127686 168.0 
1752.845947 192.0 
1764.033325 256.0 
1769.251221 192.0 
1780.818115 212.0 
1787.414795 276.0 
1796.358398 220.0 
1844.494995 240.0 
1847.315674 164.0 
1848.444458 172.0 
1864.396729 248.0 
1916.198853 244.0 
1949.171631 176.0 
1955.025757 232.0 
1961.796143 232.0 
1973.003174 180.0 
1974.178589 212.0 
1987.602173 200.0 
1992.536743 236.0 
2002.566528 232.0 
END IONS

