BEGIN IONS
PEPMASS=333.19
CHARGE=1+
MSLEVEL=2
SOURCE_INSTRUMENT=LC-ESI-QQQ
FILENAME=f.evgenia_glukhov/Elliot Weiss/JHB_stock_1mg-mL.mzXML;
SEQ=*..*
IONMODE=Positive
ORGANISM=GNPS-LIBRARY
NAME=Shinorine  M+H
PI=Gerwick
DATACOLLECTOR=Elliot Weiss
SMILES=COC1=C(CC(CC1=NCC(=O)O)(CO)O)NC(CO)C(=O)O
INCHI=
INCHIAUX=HXQQNYSFSLBXQJ-LLTODGECSA-N
PUBMED=
SUBMITUSER=evgenia_glukhov
LIBRARYQUALITY=3
SPECTRUMID=CCMSLIB00005436494
SCANS=347
94.41893 41766.0 
99.912155 5912.0 
105.956192 16690.0 
110.090515 15108.0 
127.775375 12629.0 
134.097046 23252.0 
135.161133 28018.0 
136.08844 13030.0 
142.159302 28217.0 
144.115845 14653.0 
147.324554 9399.0 
149.848114 39221.0 
152.282349 9605.0 
153.205627 37106.0 
154.000549 7687.0 
164.188232 38517.0 
165.971436 31861.0 
168.178589 40627.0 
172.116089 13875.0 
178.036316 165123.0 
179.177643 14217.0 
180.972107 34947.0 
181.577759 12.0 
182.234009 204270.0 
182.899292 26920.0 
185.18866 65240.0 
186.098694 846442.0 
187.089294 129716.0 
188.289978 29034.0 
189.320251 6173.0 
190.639771 10811.0 
192.093567 25048.0 
195.624878 60041.0 
196.249634 24257.0 
197.207092 170010.0 
198.484589 148013.0 
199.233124 94253.0 
200.169617 104759.0 
200.888855 3.0 
201.692688 12536.0 
203.978607 34727.0 
207.271515 12232.0 
208.069794 173792.0 
208.696869 81209.0 
209.306244 76489.0 
210.048737 106493.0 
211.107086 76343.0 
212.140625 360561.0 
213.080841 32752.0 
215.891663 14416.0 
216.648834 35659.0 
219.372955 16244.0 
220.987976 30635.0 
224.237579 17089.0 
225.015198 23984.0 
226.196747 10300.0 
227.116394 271813.0 
228.23111 81776.0 
230.047913 5232602.0 
231.184021 431053.0 
232.178528 10868.0 
234.8685 44510.0 
236.177765 14883.0 
237.159637 10503.0 
237.813965 48754.0 
239.281982 101563.0 
240.552612 84956.0 
241.466644 1.0 
242.92865 29851.0 
244.058136 61348.0 
245.225708 18873.0 
246.184601 87024.0 
249.149719 42955.0 
251.82782 19022.0 
252.960052 28558.0 
254.03717 28862.0 
255.180786 292491.0 
256.071045 838200.0 
257.04187 104130.0 
258.006348 114997.0 
258.644409 3.0 
265.145874 1397168.0 
265.989929 110130.0 
266.596924 25123.0 
269.010132 116743.0 
270.004272 124153.0 
271.003418 256709.0 
272.414429 50399.0 
274.053833 5185307.0 
275.013672 362163.0 
281.933594 182337.0 
283.143555 66526.0 
284.958008 210804.0 
286.411255 15686.0 
287.164062 616871.0 
288.062256 76341.0 
296.335083 7190.0 
297.334961 30859.0 
298.153748 11927.0 
300.032715 3381033.0 
300.978943 439929.0 
302.34729 62230.0 
303.090698 3415223.0 
304.167725 264733.0 
305.0 1.0 
315.023682 485550.0 
316.046326 85140.0 
316.709045 11.0 
317.356812 13695.0 
318.056519 3146539.0 
319.042725 257029.0 
332.3125 25148.0 
333.202942 4616019.0 
334.078308 757725.0 
334.733276 1.0 
END IONS

