BEGIN IONS
PEPMASS=1163.5
CHARGE=0+
MSLEVEL=2
SOURCE_INSTRUMENT=LC-ESI-qTof
FILENAME=20130610_Ger_Jenia_Wewakazole_MNa1163.5-qb.1.1..mgf
SEQ=*..*
IONMODE=Positive
ORGANISM=GNPS-LIBRARY
NAME=Wewakazole M+Na
PI=Gerwick
DATACOLLECTOR=Jenia
SMILES=CC[C@H](C)[C@H]1C2=NC(=CO2)C(=O)N[C@H](C(=O)N3CCC[C@H]3C(=O)N4CCC[C@H]4C(=O)NCC(=O)N[C@H](C5=NC(=C(O5)C)C(=O)N[C@H](C6=NC(=CO6)C(=O)N[C@H](C(=O)N7CCC[C@H]7C(=O)N1)CC8=CC=CC=C8)CC9=CC=CC=C9)C(C)C)C
INCHI=InChI=1S/C59H72N12O12/c1-7-33(4)47-55-65-40(31-82-55)49(73)61-34(5)57(78)71-26-16-23-44(71)59(80)70-25-14-21-42(70)51(75)60-29-45(72)66-46(32(2)3)56-68-48(35(6)83-56)53(77)62-38(27-36-17-10-8-11-18-36)54-64-41(30-81-54)50(74)63-39(28-37-19-12-9-13-20-37)58(79)69-24-15-22-43(69)52(76)67-47/h8-13,17-20,30-34,38-39,42-44,46-47H,7,14-16,21-29H2,1-6H3,(H,60,75)(H,61,73)(H,62,77)(H,63,74)(H,66,72)(H,67,76)/t33-,34-,38-,39-,42-,43-,44-,46-,47-/m0/s1
INCHIAUX=N/A
PUBMED=N/A
SUBMITUSER=mwang87
LIBRARYQUALITY=1
SPECTRUMID=CCMSLIB00000001804
SCANS=1
440.34613 139757.0 
575.466064 77526.0 
593.141113 119191.0 
605.168945 163148.0 
719.995361 373949.0 
739.373657 270972.0 
771.304199 81048.0 
787.344727 1972471.0 
788.134766 2.0 
797.163086 133113.0 
813.102417 56992.0 
815.470581 994853.0 
819.121338 15254.0 
841.143677 177072.0 
853.257935 99409.0 
858.28479 59719.0 
868.353882 242386.0 
884.390747 210633.0 
912.239258 220759.0 
921.493774 127459.0 
925.337402 168076.0 
926.098145 31.0 
929.34436 96735.0 
935.126831 28104.0 
937.703125 22253.0 
941.074341 329185.0 
941.675171 80873.0 
942.538208 79887.0 
946.304932 164849.0 
953.135986 148006.0 
967.570679 52105.0 
972.466064 114025.0 
981.952881 229589.0 
989.269287 100692.0 
995.60083 13535.0 
997.343384 289069.0 
998.140503 3.0 
999.616821 38674.0 
1001.432861 91681.0 
1003.219238 325059.0 
1009.995117 51580.0 
1016.083008 318521.0 
1020.078613 53675.0 
1022.501099 95453.0 
1036.495117 355431.0 
1038.335449 1717631.0 
1039.134766 96.0 
1043.419189 177688.0 
1048.546631 71362.0 
1052.646484 187134.0 
1057.445312 181546.0 
1066.38623 92954.0 
1072.384766 440336.0 
1073.072998 1.0 
1078.684082 59609.0 
1084.912109 203233.0 
1091.646973 369683.0 
1092.531494 209716.0 
1094.420166 83567.0 
1107.657959 155332.0 
1117.111572 204125.0 
1117.717773 11200.0 
1119.536621 5931691.0 
1120.312988 38.0 
1134.620361 698592.0 
1135.5 91658736.0 
1136.415527 22760.0 
1145.45166 61997.0 
1163.628418 293512.0 
END IONS

