BEGIN IONS
PEPMASS=989.499
CHARGE=1+
MSLEVEL=2
SOURCE_INSTRUMENT=LC-ESI-Orbitrap
FILENAME=f.RReher/Culebra/pure_compounds/989/Rivulariapeptolide989_M+H_MS2_2_QE_averaged.mgf;
SEQ=*..*
IONMODE=Positive
ORGANISM=GNPS-LIBRARY
NAME=Rivulariapeptolide 988 M+H
PI=Gerwick
DATACOLLECTOR=Raphael Reher
SMILES=CC(C)[C@H](NC([C@H](CC1=CC=C(O)C=C1)N(C)C([C@H](CC2=CC=CC=C2)N3[C@H](O)CC[C@H](NC(/C(NC4=O)=C\C)=O)C3=O)=O)=O)C(O[C@H](C)[C@@H]4NC([C@H]([C@@H](O)C)NC(C5CCCN5C(CCC)=O)=O)=O)=O
INCHI=
INCHIAUX=
PUBMED=
SUBMITUSER=RReher
LIBRARYQUALITY=3
SPECTRUMID=CCMSLIB00005723393
SCANS=1
75.054008 609.673828 
75.054626 1179.718628 
75.055244 1455.860229 
75.055862 1232.312744 
75.05648 682.788452 
76.518257 558.405151 
76.518898 861.801453 
76.519531 936.128723 
76.520164 730.473511 
76.520798 402.888031 
76.524612 479.527344 
76.525246 864.760742 
76.525879 1228.286377 
76.526512 1419.19812 
76.527145 1328.860107 
76.527786 1426.798584 
76.528419 1297.379028 
76.529053 1017.266785 
76.529686 1116.332764 
76.530319 1664.40686 
76.53096 1795.726929 
76.531593 1659.93396 
76.532227 1010.403809 
76.532867 564.261963 
76.534134 789.581055 
76.534767 1675.975952 
76.5354 2598.391602 
76.536041 2930.105713 
76.536674 2458.287842 
76.537308 1572.862427 
76.537941 833.258423 
76.538574 432.566101 
76.539215 585.733337 
76.539848 1261.980225 
76.540482 1962.794189 
76.541122 2091.309814 
76.541756 1504.401001 
76.542389 700.323669 
88.153656 509.121521 
88.154434 756.883362 
88.15522 884.40564 
88.156006 812.697083 
88.156792 555.170593 
91.051712 3031.086182 
91.052528 12188.704102 
91.053337 29040.191406 
91.054153 46542.375 
91.054977 51758.464844 
91.055794 35852.042969 
91.056618 18541.470703 
91.057419 4871.917969 
91.058182 936.944946 
91.15316 708.625305 
91.153984 1187.558594 
91.154808 1431.955322 
91.155632 1264.558838 
91.156464 781.053101 
91.381409 949.865601 
91.382233 1641.032837 
91.383064 1908.534546 
91.383888 1522.44873 
91.38472 743.101501 
91.944939 915.049622 
91.94577 1787.447632 
91.946609 2281.930176 
91.947449 2097.238281 
91.94828 1444.167847 
91.952461 6865.941406 
91.9533 6528.043945 
91.95414 3994.580811 
91.954971 1057.289185 
94.0354 413.998291 
94.036263 787.091858 
94.037125 955.650024 
94.037994 813.865723 
94.038857 478.924622 
101.316498 2007.515625 
101.317467 3671.490234 
101.318428 4426.086914 
101.319397 3775.076172 
101.320366 2202.58252 
103.052528 1372.468018 
103.05352 2452.043457 
103.054512 2971.708496 
103.055504 2547.964844 
103.056503 1478.500366 
103.20649 1132.467285 
103.207481 1866.821899 
103.208473 2181.714844 
103.209473 1846.078369 
103.210464 1086.376465 
107.047752 2372.023926 
107.048805 3824.054199 
107.049858 4212.788574 
107.050903 3368.182129 
107.051956 1878.915771 
118.708038 930.787231 
118.709267 1524.009644 
118.710495 1783.594971 
118.711723 1538.026245 
118.712944 927.931152 
119.046127 2412.644043 
119.047356 7346.740234 
119.048584 11891.148438 
119.04982 13027.605469 
119.051048 10001.700195 
119.052284 5270.100098 
119.05352 1500.362427 
119.838524 662.985718 
119.839767 1503.008301 
119.841011 2102.505371 
119.842262 2061.044678 
119.843506 1430.613037 
120.070236 303.216949 
120.071487 2380.442383 
120.072739 5117.074707 
120.074043 22961.335938 
120.075294 27940.914062 
120.076546 82932.640625 
120.077797 297072.125 
120.079041 647135.4375 
120.080292 1024518.1875 
120.081535 1074760.5 
120.082787 712320.625 
120.08403 358494.09375 
120.085274 102535.40625 
120.086525 31195.666016 
120.087776 23147.498047 
120.089027 16537.404297 
120.090286 8530.908203 
120.091522 1456.151978 
121.062271 778.315796 
121.06353 1566.406372 
121.064796 2006.886353 
121.066063 1745.654907 
121.067322 975.731812 
123.552345 2485.947266 
123.55365 4387.180664 
123.554955 4867.698242 
123.556252 3584.950684 
123.557556 1649.181641 
125.385719 869.934204 
125.387054 1577.178955 
125.38839 1858.553467 
125.389717 1488.033569 
125.391052 742.651367 
129.053192 816.908142 
129.054581 1662.149658 
129.055984 2053.155273 
129.057373 1704.007446 
129.058762 904.359863 
130.047607 1607.114258 
130.049011 2876.666504 
130.050415 3336.36084 
130.051834 2675.820312 
130.053238 1421.180908 
134.347427 827.88446 
134.348907 1494.748779 
134.350388 1787.401978 
134.351852 1500.634277 
134.353333 859.540894 
135.063675 1398.164062 
135.065155 5511.399414 
135.06665 9702.323242 
135.068146 11277.826172 
135.069626 9179.125977 
135.071121 5119.56543 
135.072601 1018.028809 
135.088974 1040.255615 
135.090469 1633.943726 
135.091965 1847.148071 
135.093445 1548.630737 
135.09494 942.518677 
136.071243 567.7453 
136.072754 4793.056152 
136.074265 8648.134766 
136.075775 10172.740234 
136.077271 8169.124512 
136.078781 4248.10498 
136.080276 493.037659 
140.093643 257.233643 
140.095215 1769.390381 
140.096786 2011.423096 
140.098419 9539.40625 
140.100006 13002.274414 
140.101578 43217.191406 
140.103149 155920.5625 
140.104721 321146.25 
140.106293 495681.5 
140.107864 490512.59375 
140.109436 314875.53125 
140.111008 150203.53125 
140.112579 42116.390625 
140.114151 14063.609375 
140.115738 11644.436523 
140.11731 7894.336914 
140.118866 9535.329102 
140.120438 534.849792 
140.359909 399.68927 
140.361496 780.544006 
140.363068 934.726929 
140.364639 730.007874 
140.366226 330.96344 
146.091064 2553.048828 
146.092743 7496.564453 
146.094421 14385.613281 
146.096085 19318.753906 
146.097763 17586.992188 
146.099442 10901.397461 
146.10112 4379.096191 
146.102783 564.141479 
148.07222 3195.491943 
148.073929 5598.353027 
148.075638 6655.769043 
148.077347 5561.804688 
148.079056 3129.673828 
150.076523 2142.395264 
150.078278 7776.001953 
150.080017 19599.476562 
150.081772 30028.806641 
150.083511 35496.683594 
150.085251 116756.78125 
150.08699 420798.5625 
150.088745 888605.1875 
150.090485 1389456.0 
150.092224 1412523.625 
150.093964 919302.0 
150.095718 451316.8125 
150.097458 130165.914062 
150.099197 43902.195312 
150.100952 34693.929688 
150.102692 23272.150391 
150.104462 12965.753906 
150.106186 2636.697266 
151.08255 2767.902832 
151.08432 5433.409668 
151.086075 6962.198242 
151.087845 5992.743164 
151.0896 3152.127441 
153.06044 2539.705322 
153.062241 7089.563477 
153.064026 14614.751953 
153.065826 19491.689453 
153.067627 16323.076172 
153.069412 9214.916992 
153.071213 4076.621094 
153.09816 4335.306641 
153.09996 9675.724609 
153.101761 13160.522461 
153.103546 12686.275391 
153.105347 8632.05957 
153.107147 3929.474854 
155.077408 759.244995 
155.079239 1565.477173 
155.08107 2030.626221 
155.082901 1824.741821 
155.084732 1093.978638 
158.087936 3717.436035 
158.089813 16395.521484 
158.09169 64280.433594 
158.093582 136919.3125 
158.095459 214526.796875 
158.097351 217536.640625 
158.099228 141408.46875 
158.101105 69074.039062 
158.102997 19586.517578 
158.104889 5922.532715 
158.106766 3741.439453 
158.108658 1647.30896 
163.782043 667.799988 
163.784027 1351.583374 
163.786026 1701.242432 
163.78801 1478.401611 
163.789993 857.359375 
167.07756 2631.940186 
167.079605 4886.655273 
167.081665 5850.941406 
167.08371 4751.733887 
167.085754 2495.402344 
168.087814 482.030182 
168.089874 4744.952637 
168.091949 5905.445801 
168.094009 22078.09375 
168.096069 89294.164062 
168.098145 233977.015625 
168.100204 390398.8125 
168.10228 463861.96875 
168.10434 334851.96875 
168.106415 185326.34375 
168.108475 57945.429688 
168.11055 16552.90625 
168.11261 7450.515137 
168.114685 3968.653809 
168.116821 3112.972656 
168.118896 85.237564 
170.087784 1742.035522 
170.08989 9586.607422 
170.091995 32457.134766 
170.094101 58627.011719 
170.096191 80030.976562 
170.098297 65935.21875 
170.100403 39085.542969 
170.102509 14144.921875 
170.104614 2949.24292 
170.106705 420.953217 
178.869904 1180.691528 
178.872177 1837.892578 
178.874451 2037.779663 
178.876709 1591.231689 
178.878983 776.346069 
179.072174 1870.181519 
179.074448 9500.791016 
179.076721 32197.601562 
179.078995 59487.453125 
179.081268 83802.765625 
179.083542 71975.03125 
179.085815 43141.429688 
179.088089 16526.841797 
179.090363 3358.813965 
181.091354 4283.186035 
181.093674 9162.199219 
181.095978 13035.900391 
181.098297 12941.387695 
181.100601 8767.631836 
181.102921 3618.49707 
187.105972 9239.033203 
187.108383 4934.960449 
187.110748 4459.57959 
187.113174 12774.180664 
187.115601 50767.628906 
187.118027 160059.078125 
187.120453 278557.3125 
187.122879 367148.34375 
187.125305 290259.71875 
187.127731 170817.578125 
187.130157 59117.140625 
187.132584 16320.435547 
187.13501 5460.34375 
187.137436 3197.83374 
193.091446 2243.079346 
193.093994 4375.764648 
193.096527 5877.74707 
193.099075 5616.143555 
193.101624 3667.476074 
193.104172 1360.352661 
198.082642 498.602936 
198.085281 2780.014893 
198.087936 5433.441406 
198.090576 7064.349609 
198.093216 6407.756348 
198.095871 3960.561035 
198.098511 1537.211182 
199.099304 2109.21875 
199.101959 7874.080078 
199.10463 15427.702148 
199.107285 21067.322266 
199.109955 19625.521484 
199.112625 12595.417969 
199.11528 5528.628906 
199.117935 743.952881 
207.077545 374.060028 
207.080368 813.864197 
207.083191 1054.577393 
207.086029 884.373657 
207.088852 444.24408 
213.092865 2842.396484 
213.09581 7873.697754 
213.09877 14025.766602 
213.101715 17386.814453 
213.10466 15260.610352 
213.10762 9087.473633 
213.110565 3186.793945 
215.092651 613.514648 
215.095642 2112.758301 
215.098633 5909.385742 
215.101471 18353.619141 
215.104477 21598.490234 
215.107452 68180.523438 
215.110443 244040.859375 
215.113434 508131.28125 
215.116425 788578.0 
215.119415 790541.3125 
215.122406 510938.53125 
215.125397 247313.34375 
215.128387 70662.953125 
215.131363 23281.789062 
215.134369 18014.207031 
215.13739 10828.104492 
215.140427 13422.679688 
215.143433 2223.637939 
218.79599 858.909058 
218.799057 1612.848511 
218.802124 2000.627319 
218.805191 1739.204712 
218.808258 1040.656982 
223.129303 674.058105 
223.132416 6169.126953 
223.135574 26251.326172 
223.138733 62945.847656 
223.141891 102785.953125 
223.14505 114704.125 
223.148209 78860.5 
223.151382 41245.683594 
223.154541 11135.259766 
223.157684 1654.347656 
223.804138 1744.638672 
223.807327 3753.896484 
223.810501 5347.175293 
223.813675 5373.605469 
223.816849 3758.347656 
223.820023 1645.656494 
225.115067 1909.592163 
225.118271 4323.282227 
225.121475 7518.727539 
225.12468 6650.023438 
225.127884 4740.166016 
225.131088 2178.77417 
225.134293 318.692383 
226.079254 3530.427246 
226.082474 5975.45752 
226.085693 6907.708496 
226.088913 5674.382812 
226.092148 3141.445801 
234.078445 1072.25061 
234.081848 3661.960449 
234.085251 5587.166504 
234.088654 5963.675781 
234.092041 4534.667969 
234.095444 2351.917969 
234.098831 584.887085 
241.090424 1575.261353 
241.093964 2727.770996 
241.097519 3244.10498 
241.101074 2739.754395 
241.10463 1534.258911 
241.140137 332.372955 
241.143692 4004.092285 
241.147232 11369.541016 
241.150787 22103.201172 
241.154343 29963.900391 
241.157898 24274.203125 
241.161453 13879.361328 
241.164993 3829.519775 
243.087479 1733.163574 
243.091187 9070.24707 
243.094803 11639.898438 
243.098373 33952.878906 
243.101944 128730.671875 
243.10553 393778.875 
243.109131 679932.3125 
243.112717 886802.125 
243.116302 693977.1875 
243.119904 407021.65625 
243.123489 139106.0 
243.12706 38916.613281 
243.13063 14617.375977 
243.134186 12287.918945 
243.137848 3424.837646 
243.14151 1432.025879 
243.145111 598.55365 
246.741119 564.89502 
246.744797 897.15979 
246.748474 1032.915771 
246.752151 887.596008 
246.755829 547.662231 
247.234406 1086.751709 
247.238098 1824.510498 
247.241776 2048.850586 
247.245468 1613.489868 
247.249161 844.435669 
248.812744 387.229492 
248.816467 823.756348 
248.82019 1154.750122 
248.823914 1140.710327 
248.827637 774.873718 
248.83136 313.767578 
249.151794 3960.365234 
249.155518 7267.597656 
249.159256 8816.333984 
249.162979 7435.36084 
249.166718 4185.265625 
251.122055 261.932556 
251.125641 4230.081543 
251.12941 16765.964844 
251.133194 36381.0 
251.136963 57160.078125 
251.140732 57902.519531 
251.144516 37397.597656 
251.148285 17767.916016 
251.152054 4367.253906 
252.132568 1273.751465 
252.136368 1967.025757 
252.140167 2153.324707 
252.143967 1731.567383 
252.147751 985.275757 
253.126617 3230.166748 
253.130432 5536.768066 
253.134262 6315.564453 
253.138077 4884.900391 
253.141891 2305.633301 
264.126068 884.193359 
264.130157 1584.643311 
264.134216 2039.751587 
264.138275 1897.426514 
264.142365 1192.948975 
266.140717 663.434998 
266.144836 1386.261719 
266.148956 1910.693359 
266.153076 1880.894287 
266.157196 1339.083862 
269.122528 1018.460327 
269.126587 5166.470703 
269.130798 6158.15918 
269.134949 22176.974609 
269.13913 81221.601562 
269.143311 166778.8125 
269.147491 257193.84375 
269.151703 254212.65625 
269.155884 162787.5625 
269.160065 77178.90625 
269.164246 20639.169922 
269.168427 5438.202637 
269.172546 2692.759033 
269.176758 2239.074219 
281.116882 592.599243 
281.121338 1532.793213 
281.125824 2298.464355 
281.13028 2292.577148 
281.134766 1514.839966 
295.14502 1490.50708 
295.149658 9780.074219 
295.154449 35281.664062 
295.159241 66183.882812 
295.164062 94720.25 
295.168854 82970.578125 
295.173645 50130.621094 
295.178436 19866.810547 
295.183197 4080.615479 
298.134949 2219.291016 
298.139709 9564.655273 
298.144531 33659.160156 
298.149384 62409.960938 
298.154266 87675.898438 
298.159119 74314.601562 
298.164001 44257.480469 
298.168823 16366.498047 
298.173431 3233.19043 
306.077576 434.521545 
306.082672 723.722656 
306.087738 1012.920715 
306.092804 1257.929077 
306.0979 2063.184814 
306.102966 3541.789795 
306.108063 3178.198486 
306.113129 2653.782715 
306.118195 1913.723022 
306.123291 1605.05542 
306.128357 722.420349 
306.133453 1439.394897 
306.13855 2438.874023 
306.143616 2103.71167 
306.148682 2331.166992 
306.153778 3109.861572 
306.158844 4342.271973 
306.16394 4117.509766 
306.168976 7118.179199 
306.174042 9307.329102 
306.179138 10770.351562 
306.184204 9585.847656 
306.189301 6152.833496 
306.194397 1831.479004 
306.199493 375.028625 
308.104431 1663.36377 
308.109497 5768.428223 
308.114594 21807.771484 
308.11972 51456.691406 
308.124817 83567.5 
308.129944 91911.148438 
308.135071 62200.519531 
308.140167 31528.117188 
308.145264 7983.083008 
308.15036 1189.011963 
321.695038 2445.224365 
321.700531 4184.363281 
321.705994 4856.036133 
321.711456 4110.46582 
321.716949 2572.374512 
326.12384 1664.566406 
326.129425 5912.606934 
326.134979 22720.177734 
326.140564 51296.414062 
326.146179 81901.257812 
326.151764 86508.140625 
326.157349 57130.433594 
326.162933 28096.992188 
326.168518 7359.112305 
326.174225 1551.634766 
332.184174 1732.488525 
332.189941 3295.412109 
332.195679 4114.727539 
332.201416 3567.270508 
332.207153 2074.28125 
334.152435 1258.688599 
334.158112 6892.788086 
334.16391 22076.615234 
334.169678 41000.539062 
334.175446 57382.839844 
334.181244 48825.25 
334.187042 28855.962891 
334.192841 10087.81543 
334.198242 923.191162 
347.160736 2603.932373 
347.16687 4378.001953 
347.173004 5101.271484 
347.179169 4208.520508 
347.185303 2349.789551 
350.192871 661.557739 
350.199097 1500.090332 
350.205322 2045.694092 
350.211517 1871.93042 
350.217743 1138.440918 
352.171631 2946.514648 
352.177887 5913.010254 
352.184174 7530.182617 
352.19043 6412.846191 
352.196686 3420.664551 
352.202972 1044.08252 
352.228058 1217.331299 
352.234314 1648.253174 
352.240601 1896.252563 
352.246857 1809.791748 
352.253143 1375.403076 
352.259399 783.973816 
356.39032 746.903381 
356.396698 1051.034912 
356.403076 1065.2854 
356.409485 801.199524 
356.415863 429.536469 
358.511963 3244.762939 
358.518402 4562.704102 
358.524841 4755.235352 
358.531281 3722.058594 
358.53772 2078.939941 
359.369843 2168.685059 
359.376312 3676.671143 
359.382751 4399.070312 
359.389221 3915.210938 
359.395691 2484.104736 
394.604309 2542.683594 
394.611755 4615.737305 
394.619171 5813.075195 
394.626617 5410.960449 
394.634064 3709.115723 
417.172577 2885.255127 
417.180847 9052.617188 
417.188904 31166.708984 
417.196777 91699.289062 
417.204773 159700.0 
417.212738 209960.0625 
417.220764 167238.4375 
417.22879 97793.390625 
417.236755 33264.785156 
417.244598 7296.893555 
417.252411 1700.647339 
420.121216 1783.580933 
420.129395 5926.555176 
420.137573 9485.290039 
420.145874 19757.851562 
420.154144 26928.431641 
420.162262 68475.390625 
420.17038 225092.875 
420.178497 490300.5625 
420.186646 776090.125 
420.194794 823913.75 
420.202942 549463.625 
420.21106 276705.1875 
420.219177 74242.132812 
420.227173 17519.960938 
420.235046 8666.871094 
420.243225 5574.480469 
420.251434 1516.874268 
435.176483 1294.187378 
435.184509 4374.647949 
435.192993 12422.045898 
435.201508 41246.59375 
435.210052 92486.039062 
435.218658 147824.421875 
435.227234 160219.53125 
435.235809 107831.125 
435.244385 54449.621094 
435.252899 13319.683594 
435.261353 1570.121948 
503.18222 1162.518311 
503.191498 6038.705078 
503.20166 19258.300781 
503.211121 37721.117188 
503.221191 61351.9375 
503.231476 66474.640625 
503.241974 45036.011719 
503.252411 23109.375 
503.262909 6117.934082 
503.272583 909.63855 
536.003357 696.716003 
536.015137 1092.471191 
536.026917 1217.890869 
536.038696 964.075378 
536.050476 508.179749 
552.278137 892.081421 
552.290405 1898.69751 
552.302734 2452.565186 
552.315063 2228.712402 
552.327332 1463.723389 
564.555542 1374.503174 
564.568298 2116.999268 
564.580994 2412.781006 
564.59375 2053.562256 
564.606445 1244.637817 
669.834351 2287.706055 
669.85083 4605.741211 
669.867249 5807.456055 
669.883728 5120.654785 
669.900146 3180.41748 
685.290283 920.690613 
685.307312 1689.126709 
685.324341 2189.561035 
685.341309 2148.515137 
685.358337 1625.258545 
685.375366 920.214661 
729.315491 1564.724243 
729.334167 9009.454102 
729.352844 17797.357422 
729.371521 25751.46875 
729.390198 22821.238281 
729.408875 13558.106445 
729.427551 4897.889648 
729.446228 1130.634888 
799.310486 1263.967773 
799.33197 2185.353027 
799.353394 2557.971924 
799.374817 2077.359375 
799.39624 1098.634033 
801.587463 889.941772 
801.608948 1524.219238 
801.630493 1805.730469 
801.652039 1556.079468 
801.673584 950.007019 
818.778625 648.566345 
818.800842 1049.539551 
818.823059 1145.990967 
818.845276 881.21875 
818.867493 445.047668 
947.355835 882.144226 
947.383484 1597.264648 
947.411133 2046.172241 
947.438843 1921.336548 
947.466492 1293.138916 
947.5495 1053.022705 
947.577148 1810.205078 
947.604797 2140.383057 
947.632507 1741.789795 
947.660156 899.132446 
964.142212 733.132019 
964.170593 1592.940308 
964.199036 2005.206299 
964.227417 1688.462524 
964.255798 958.189331 
971.424011 1009.537598 
971.452759 1727.556641 
971.481445 2002.452393 
971.510193 1732.784424 
971.538879 1156.863892 
END IONS

