BEGIN IONS
PEPMASS=543.0
CHARGE=1+
MSLEVEL=2
SOURCE_INSTRUMENT=LC-ESI-qTof
FILENAME=f.evgenia_glukhov/December 13-16 Singapore/20161215_Debromo.mzXML;
SEQ=*..*
IONMODE=Positive
ORGANISM=GNPS-LIBRARY
NAME=debromoaplysiatoxin M+H
PI=Gerwick
DATACOLLECTOR=Jenia
SMILES=[C@@]123O[C@]([C@H](C)CC1(C)C)(CC(O[C@@]([C@@H](C)O)(CC(OC(C2)[C@H](C)[C@](O3)([C@H](CC[C@@H](C=4C=CC=C(C4)O)OC)C)[H])=O)[H])=O)O
INCHI=
INCHIAUX=
PUBMED=
SUBMITUSER=evgenia_glukhov
LIBRARYQUALITY=3
SPECTRUMID=CCMSLIB00000840559
SCANS=817
161.415375 3499.0 
170.089355 2568.0 
177.167358 1354.0 
178.797211 5123.0 
179.529205 3.0 
180.519501 1531.0 
181.186859 904.0 
183.06369 585.0 
196.874207 6112.0 
199.091827 1913.0 
211.778809 4170.0 
213.188904 30352.0 
224.893372 17061.0 
226.890289 9199.0 
237.382385 1993.0 
239.467438 2037.0 
258.437622 5110.0 
277.37146 6701.0 
281.102295 6822.0 
286.090698 9109.0 
293.624146 2107.0 
295.056152 2928.0 
296.835571 5171.0 
298.32251 4257.0 
299.321655 49946.0 
303.052246 3062.0 
315.203979 6363.0 
349.131104 2749.0 
352.829346 2495.0 
367.146362 8453.0 
373.128784 3077.0 
391.282715 10238.0 
392.348206 3103.0 
393.341125 1874.0 
409.14209 34204.0 
415.26416 1730.0 
417.217163 6108.0 
426.578308 3942.0 
436.973572 19212.0 
454.13092 1719.0 
506.893738 4691.0 
524.371338 8658.0 
525.04248 83072.0 
525.733887 4.0 
543.209839 1711.0 
544.08667 4380.0 
END IONS

