BEGIN IONS
PEPMASS=506.0
CHARGE=2+
MSLEVEL=2
SOURCE_INSTRUMENT=LC-ESI-qTof
FILENAME=1H2_506MNa_RH2_01_9785.mzXML
SEQ=*..*
IONMODE=Positive
ORGANISM=GNPS-LIBRARY
NAME=Malyngamide I M+Na
PI=Dorrestein/Gerwick
DATACOLLECTOR=Peng/Luzzatto/Garg
SMILES=CCCCCCC[C@@H](C\C=C\CCC(=O)N(C)C\C(=C\Cl)[C@@]12O[C@@H]1C[C@H](O)[C@H](C)C2=O)OC
INCHI=InChI=1S/C26H42ClNO5/c1-5-6-7-8-10-13-21(32-4)14-11-9-12-15-24(30)28(3)18-20(17-27)26-23(33-26)16-22(29)19(2)25(26)31/h9,11,17,19,21-23,29H,5-8,10,12-16,18H2,1-4H3/b11-9+,20-17-/t19-,21-,22-,23+,26+/m0/s1
INCHIAUX=ORRFIXSGNXBETO-WQNYIDMUSA-N
PUBMED=ChemSpider ID:8871558
SUBMITUSER=y6peng
LIBRARYQUALITY=2
SPECTRUMID=CCMSLIB00000072494
SCANS=2459
95.086586 212.0 
97.731476 184.0 
101.391869 204.0 
105.074692 232.0 
106.611809 204.0 
107.086136 312.0 
108.189064 224.0 
109.062004 140.0 
110.059479 148.0 
112.167053 180.0 
115.677017 172.0 
117.072029 180.0 
118.835144 192.0 
120.609253 260.0 
121.099167 212.0 
123.079773 264.0 
123.117302 204.0 
124.07943 188.0 
127.05555 192.0 
127.077972 152.0 
131.076294 192.0 
133.065399 764.0 
133.540878 156.0 
133.616745 172.0 
134.070175 164.0 
134.090912 204.0 
135.079651 264.0 
135.821976 160.0 
136.077759 192.0 
136.111725 416.0 
137.081558 200.0 
137.112045 228.0 
138.089386 808.0 
139.110855 216.0 
140.984924 148.0 
141.57373 188.0 
141.696854 156.0 
142.059418 220.0 
143.08432 208.0 
143.140366 176.0 
145.048492 208.0 
146.095047 252.0 
147.121445 264.0 
148.075745 412.0 
149.058044 192.0 
149.075043 192.0 
149.092041 244.0 
150.053131 184.0 
150.093521 308.0 
151.07843 160.0 
153.51886 216.0 
155.698212 144.0 
157.061569 196.0 
157.101456 188.0 
158.035446 152.0 
160.896927 152.0 
161.062973 188.0 
162.092651 320.0 
162.133301 180.0 
163.066879 164.0 
163.096161 180.0 
163.148178 212.0 
163.962357 192.0 
164.075409 216.0 
164.107056 5716.0 
164.681534 220.0 
165.109344 472.0 
165.133728 212.0 
165.473923 216.0 
166.087479 448.0 
166.114334 168.0 
167.092712 376.0 
167.872833 140.0 
172.777359 208.0 
174.068985 204.0 
176.06427 200.0 
179.067871 184.0 
180.018524 344.0 
181.024612 144.0 
185.324585 272.0 
188.068726 592.0 
188.291168 216.0 
189.070541 264.0 
189.168488 244.0 
190.083511 152.0 
191.603348 224.0 
192.033188 216.0 
192.102158 5264.0 
192.496643 212.0 
193.106857 1168.0 
194.11232 424.0 
194.686188 140.0 
196.846237 180.0 
197.086365 216.0 
197.975525 192.0 
199.051895 228.0 
200.086151 244.0 
200.868378 152.0 
201.055069 176.0 
201.123093 184.0 
201.61998 172.0 
203.08876 228.0 
205.101028 184.0 
208.643478 168.0 
209.097763 280.0 
209.572708 188.0 
210.112732 384.0 
210.264496 224.0 
211.758591 228.0 
214.083878 200.0 
218.075699 184.0 
220.202026 220.0 
223.482254 220.0 
224.369415 188.0 
229.931381 148.0 
230.314667 180.0 
230.532104 180.0 
231.772476 256.0 
231.984299 220.0 
232.092392 420.0 
236.836441 148.0 
237.909241 152.0 
238.096466 152.0 
238.216537 276.0 
239.213135 200.0 
241.166916 172.0 
243.387207 188.0 
243.4216 244.0 
248.087006 200.0 
252.24054 204.0 
253.230484 196.0 
253.252655 144.0 
254.158936 248.0 
254.815903 176.0 
254.879425 228.0 
255.585022 160.0 
255.982742 152.0 
256.094147 140.0 
259.630676 192.0 
261.139496 248.0 
261.183533 160.0 
263.110748 244.0 
266.191864 228.0 
266.898285 200.0 
267.628479 184.0 
272.660797 144.0 
276.233459 268.0 
279.21402 156.0 
279.38028 172.0 
281.699493 156.0 
281.926575 220.0 
282.076935 184.0 
288.920898 184.0 
289.90918 264.0 
291.109558 168.0 
291.23175 212.0 
291.377777 160.0 
291.47287 172.0 
292.228455 140.0 
293.064606 216.0 
293.227966 208.0 
297.220673 156.0 
297.419647 180.0 
302.031464 160.0 
303.183929 164.0 
304.109528 180.0 
306.173828 184.0 
306.751984 144.0 
309.818909 188.0 
312.570404 148.0 
316.497406 240.0 
317.921814 172.0 
318.127594 212.0 
318.184357 172.0 
318.457672 144.0 
323.669312 196.0 
325.845551 200.0 
326.988556 156.0 
329.786163 204.0 
329.930695 192.0 
330.234406 164.0 
332.233002 188.0 
338.246887 168.0 
339.723053 160.0 
340.857056 152.0 
342.298401 156.0 
343.466187 188.0 
344.983246 284.0 
345.778137 168.0 
346.040863 164.0 
353.336243 148.0 
356.229126 164.0 
356.259186 200.0 
356.792603 152.0 
357.409149 272.0 
358.787048 160.0 
360.560364 152.0 
362.584259 200.0 
363.23233 168.0 
365.47287 148.0 
368.075134 180.0 
369.263123 184.0 
369.431366 140.0 
370.279297 332.0 
370.698151 152.0 
371.276764 292.0 
373.065277 196.0 
373.242065 156.0 
374.915863 276.0 
375.270355 180.0 
375.37442 140.0 
375.439941 160.0 
376.547089 156.0 
377.217987 164.0 
377.288666 176.0 
378.023254 164.0 
379.083862 148.0 
379.207825 140.0 
380.786224 220.0 
381.83902 216.0 
382.27066 224.0 
385.134979 160.0 
385.209137 176.0 
385.282074 236.0 
385.494232 152.0 
385.892761 156.0 
386.142944 152.0 
387.27356 200.0 
387.300964 180.0 
387.908081 216.0 
388.288239 156.0 
396.295044 180.0 
397.8927 148.0 
398.003815 204.0 
398.091156 224.0 
398.265381 772.0 
398.420685 148.0 
398.794037 196.0 
399.261169 392.0 
399.403381 152.0 
399.700378 172.0 
400.277313 200.0 
401.910919 216.0 
402.297882 168.0 
402.505402 176.0 
403.304077 140.0 
403.80365 220.0 
404.127533 156.0 
406.249969 224.0 
406.639038 152.0 
406.815582 176.0 
407.084473 144.0 
407.250275 200.0 
407.588867 144.0 
407.947937 224.0 
409.250885 156.0 
409.419952 216.0 
409.685669 268.0 
409.790375 196.0 
410.080383 144.0 
410.687225 216.0 
411.816711 204.0 
413.034729 224.0 
414.156799 172.0 
414.353882 168.0 
416.454285 196.0 
416.783203 232.0 
416.815674 164.0 
418.246613 208.0 
419.024109 152.0 
420.087677 176.0 
421.054626 192.0 
421.348602 164.0 
422.308838 236.0 
422.35788 164.0 
423.999023 144.0 
424.117828 164.0 
424.285828 192.0 
424.863831 204.0 
425.384766 164.0 
425.807526 176.0 
426.260925 384.0 
427.259583 284.0 
428.039581 192.0 
428.266022 208.0 
430.10141 200.0 
430.781128 168.0 
434.243378 1344.0 
435.019775 256.0 
435.127686 248.0 
435.250702 420.0 
435.335205 144.0 
436.012054 208.0 
436.243469 744.0 
437.030426 148.0 
437.244659 204.0 
437.475555 140.0 
439.742157 152.0 
439.967468 168.0 
440.163605 216.0 
441.445923 164.0 
441.656677 172.0 
441.767853 192.0 
442.240479 168.0 
442.290894 348.0 
442.709198 188.0 
443.281677 184.0 
443.655426 184.0 
444.292145 200.0 
444.829803 156.0 
445.803802 220.0 
446.345856 196.0 
447.459839 156.0 
447.740021 160.0 
448.303253 372.0 
449.307526 160.0 
450.238647 180.0 
452.076141 148.0 
452.270752 148.0 
454.130035 144.0 
454.248749 152.0 
455.250549 336.0 
455.704285 140.0 
455.768005 172.0 
456.252319 184.0 
456.96225 156.0 
457.502533 252.0 
460.332428 184.0 
460.377014 204.0 
460.742279 156.0 
461.23349 260.0 
462.092712 144.0 
462.165405 208.0 
462.231903 156.0 
464.748016 240.0 
468.542816 224.0 
468.663391 160.0 
469.352753 144.0 
470.284149 696.0 
471.043823 168.0 
471.288208 184.0 
471.851593 252.0 
473.612091 204.0 
473.85025 216.0 
473.919556 200.0 
476.699799 192.0 
477.938538 152.0 
478.016846 264.0 
478.263885 360.0 
478.473663 204.0 
478.930695 164.0 
479.109222 240.0 
479.285797 148.0 
480.269684 140.0 
480.669464 172.0 
481.257507 164.0 
481.559662 148.0 
483.075775 172.0 
484.366547 188.0 
485.78183 152.0 
485.944092 160.0 
486.273071 204.0 
488.263153 148.0 
488.363556 160.0 
488.842896 192.0 
489.252045 164.0 
490.012939 176.0 
490.110535 176.0 
490.308746 188.0 
490.700897 172.0 
490.978577 168.0 
492.275452 144.0 
492.501862 152.0 
493.074738 140.0 
493.263489 204.0 
494.365509 148.0 
495.658661 164.0 
497.023132 216.0 
497.750793 244.0 
497.812958 232.0 
497.892853 140.0 
499.167694 176.0 
499.455017 184.0 
499.603394 208.0 
500.009186 248.0 
500.309753 152.0 
501.472809 160.0 
501.572784 172.0 
501.910004 144.0 
502.154663 164.0 
502.226013 196.0 
503.024384 172.0 
503.339935 136.0 
503.51532 140.0 
503.614044 144.0 
504.23877 208.0 
504.799408 220.0 
504.918884 140.0 
505.148712 196.0 
505.23996 160.0 
505.33847 172.0 
505.515106 208.0 
505.552734 172.0 
505.587799 244.0 
505.620148 212.0 
505.655945 364.0 
505.935181 176.0 
506.062439 188.0 
506.267334 117756.0 
506.402344 320.0 
506.57254 208.0 
506.642029 212.0 
506.814484 316.0 
506.863586 192.0 
507.000732 732.0 
507.091919 172.0 
507.132629 180.0 
507.151184 176.0 
507.212891 356.0 
507.269623 40012.0 
507.379547 272.0 
507.492462 292.0 
507.54538 308.0 
507.6203 148.0 
507.766418 208.0 
507.874207 284.0 
507.942078 196.0 
508.000458 276.0 
508.060272 504.0 
508.083038 288.0 
508.150024 244.0 
508.264435 43012.0 
508.35965 312.0 
508.526031 156.0 
508.577087 204.0 
508.763702 156.0 
508.803558 172.0 
508.894501 324.0 
509.266327 7712.0 
509.392029 164.0 
509.463348 160.0 
509.609406 216.0 
509.863892 156.0 
509.9823 188.0 
510.07312 160.0 
510.151855 192.0 
510.211395 200.0 
510.270477 952.0 
510.342468 248.0 
510.536102 324.0 
510.591614 188.0 
510.815125 168.0 
510.890167 180.0 
511.155518 172.0 
511.342529 140.0 
511.537994 216.0 
511.990051 164.0 
513.44751 148.0 
522.084778 208.0 
524.086853 152.0 
525.185059 160.0 
525.239746 176.0 
525.641052 160.0 
525.885559 140.0 
532.197632 140.0 
534.044189 204.0 
548.191284 140.0 
550.261414 140.0 
626.068909 160.0 
651.099182 164.0 
668.092346 188.0 
683.946899 148.0 
739.64679 148.0 
760.997559 140.0 
829.74115 152.0 
887.38562 168.0 
911.153503 152.0 
943.571045 152.0 
991.618164 188.0 
992.635986 176.0 
1135.690674 140.0 
1192.651855 160.0 
1205.672607 148.0 
1356.16626 164.0 
1399.186035 172.0 
1505.804077 172.0 
1547.749756 164.0 
1552.723877 228.0 
1591.700073 212.0 
1651.947632 204.0 
1718.143311 220.0 
1797.225952 260.0 
1823.483887 212.0 
1832.840942 212.0 
1933.601685 176.0 
1950.637939 224.0 
1966.794922 204.0 
1987.18457 208.0 
1992.846802 140.0 
1994.996704 140.0 
END IONS

