BEGIN IONS
PEPMASS=840.0
CHARGE=2+
MSLEVEL=2
SOURCE_INSTRUMENT=LC-ESI-qTof
FILENAME=1E2_840MNa_RE2_01_9749.mzXML
SEQ=*..*
IONMODE=Positive
ORGANISM=GNPS-LIBRARY
NAME=Bouillonamide A M+Na
PI=Dorrestein/Gerwick
DATACOLLECTOR=Peng/Luzzatto/Garg
SMILES=CCC1CC(C)CC(=O)N(C)C=CCCC(C)C(=O)N[C@@H](C(C)C)C(=O)N(C)[C@@H](CC2=CC=CC=C2)C(=O)N(C)[C@@H](C(C)O)C(=O)N(C)[C@@H](CC2=CC=CC=C2)C(=O)O1
INCHI=InChI=1S/C46H67N5O8/c1-11-36-26-31(4)27-39(53)48(7)25-19-18-20-32(5)42(54)47-40(30(2)3)44(56)49(8)37(28-34-21-14-12-15-22-34)43(55)51(10)41(33(6)52)45(57)50(9)38(46(58)59-36)29-35-23-16-13-17-24-35/h12-17,19,21-25,30-33,36-38,40-41,52H,11,18,20,26-29H2,1-10H3,(H,47,54)/t31?,32?,33?,36?,37-,38-,40-,41-/m0/s1
INCHIAUX=LJNGIVUAMWQJIA-WDZYBAFLSA-N
PUBMED=
SUBMITUSER=y6peng
LIBRARYQUALITY=2
SPECTRUMID=CCMSLIB00000072504
SCANS=2351
98.022072 228.0 
102.182091 156.0 
111.579575 180.0 
112.394363 200.0 
113.994591 220.0 
125.898796 188.0 
134.094162 420.0 
136.079712 232.0 
137.312546 184.0 
138.052567 172.0 
138.363647 172.0 
141.879684 164.0 
153.551666 164.0 
156.068909 256.0 
156.176041 160.0 
164.646866 196.0 
181.157379 176.0 
185.860245 216.0 
188.101913 216.0 
191.944153 184.0 
193.175446 184.0 
194.161102 232.0 
201.800217 164.0 
202.085678 216.0 
203.093872 196.0 
204.107086 188.0 
207.81337 232.0 
218.990189 248.0 
221.165405 228.0 
222.442459 180.0 
226.953079 176.0 
228.103973 224.0 
230.118591 200.0 
231.151917 180.0 
239.172287 172.0 
242.076553 180.0 
243.142563 240.0 
243.356674 208.0 
245.097794 156.0 
250.141266 208.0 
261.172668 240.0 
263.221527 176.0 
266.115112 156.0 
272.415802 168.0 
273.115356 176.0 
275.626801 160.0 
284.117126 160.0 
285.195038 464.0 
286.178986 280.0 
291.043549 296.0 
295.968689 184.0 
299.125732 184.0 
301.332184 156.0 
302.95755 152.0 
304.186981 532.0 
305.188354 180.0 
306.311951 156.0 
317.151001 376.0 
323.847595 208.0 
324.492371 220.0 
329.200562 180.0 
330.70755 176.0 
335.278961 216.0 
340.206909 192.0 
341.202148 172.0 
343.975006 164.0 
347.195343 156.0 
354.178223 212.0 
357.251923 320.0 
357.401794 188.0 
363.264862 196.0 
369.215149 272.0 
370.212341 192.0 
370.537811 176.0 
381.171478 160.0 
382.341522 172.0 
383.692627 204.0 
384.094116 220.0 
384.472412 160.0 
385.244507 1008.0 
386.245697 208.0 
388.236511 184.0 
391.561768 212.0 
395.250519 184.0 
395.326508 168.0 
397.272675 180.0 
397.663849 216.0 
398.266357 272.0 
399.653992 204.0 
400.079651 152.0 
400.26709 172.0 
403.256439 6040.0 
403.329468 188.0 
404.258606 848.0 
405.257111 404.0 
407.423248 200.0 
408.106232 152.0 
409.441681 156.0 
412.224121 176.0 
412.624115 188.0 
416.286682 452.0 
418.291168 180.0 
418.439728 156.0 
422.246826 396.0 
427.095551 168.0 
428.342255 176.0 
428.873596 152.0 
429.226593 152.0 
434.200897 164.0 
436.800415 176.0 
440.0242 204.0 
440.25235 312.0 
441.249756 208.0 
444.891205 160.0 
447.265289 152.0 
448.743378 220.0 
450.295654 184.0 
453.284851 208.0 
454.297089 152.0 
456.149048 156.0 
456.544312 180.0 
457.735352 196.0 
461.296448 200.0 
462.27121 284.0 
462.35675 212.0 
463.276306 176.0 
464.849884 168.0 
470.343658 212.0 
471.28476 160.0 
472.287292 192.0 
472.434326 200.0 
475.240631 232.0 
479.313232 164.0 
481.291412 172.0 
483.753174 192.0 
490.267792 432.0 
490.497772 164.0 
491.269318 352.0 
491.410309 160.0 
492.287415 396.0 
492.999298 192.0 
493.276428 152.0 
500.320648 352.0 
501.183136 180.0 
501.331818 244.0 
502.339203 3912.0 
503.345367 1196.0 
504.348389 504.0 
508.27298 164.0 
508.962982 164.0 
509.281708 156.0 
511.295105 160.0 
511.808075 192.0 
515.28418 160.0 
518.330261 180.0 
519.311401 164.0 
519.35022 272.0 
519.628784 164.0 
521.053833 188.0 
521.494446 176.0 
522.98114 192.0 
524.350342 164.0 
526.371643 216.0 
527.847046 180.0 
528.311401 156.0 
530.33197 332.0 
533.302673 172.0 
534.058777 172.0 
534.776245 228.0 
536.899292 240.0 
537.309753 240.0 
537.715576 172.0 
538.080078 320.0 
538.315491 152.0 
543.878235 220.0 
545.150269 224.0 
545.947754 180.0 
546.330933 14680.0 
546.554932 188.0 
547.332153 4444.0 
547.523438 168.0 
548.334167 1260.0 
549.336853 156.0 
552.467651 184.0 
554.845764 172.0 
555.305115 152.0 
556.017944 156.0 
561.305115 316.0 
561.372742 252.0 
562.123901 176.0 
562.322693 192.0 
563.23291 188.0 
564.177673 208.0 
564.262695 176.0 
564.339722 8068.0 
564.777954 216.0 
565.092712 176.0 
565.342773 3804.0 
565.828064 260.0 
566.268311 208.0 
566.348877 704.0 
567.329285 184.0 
567.36908 492.0 
568.855957 156.0 
570.361389 172.0 
577.373535 156.0 
579.313232 260.0 
581.068542 188.0 
581.543457 268.0 
584.502625 156.0 
587.308289 324.0 
588.32312 156.0 
589.360718 256.0 
590.380676 160.0 
592.340088 228.0 
594.807251 156.0 
599.386597 320.0 
599.649841 164.0 
605.330994 260.0 
605.387939 152.0 
605.573975 164.0 
608.318787 152.0 
608.681946 160.0 
609.153259 152.0 
609.791748 240.0 
611.897888 172.0 
612.3479 192.0 
613.397583 156.0 
614.384094 196.0 
615.331299 204.0 
615.390381 164.0 
616.388 352.0 
617.128967 196.0 
617.365784 1412.0 
617.433044 364.0 
618.363098 320.0 
618.409241 244.0 
618.657104 180.0 
620.364746 172.0 
621.912537 240.0 
622.398865 188.0 
623.039307 172.0 
623.341675 340.0 
624.343079 272.0 
629.641602 176.0 
630.170898 200.0 
633.396362 156.0 
634.869263 184.0 
635.379395 1000.0 
636.369873 376.0 
637.382874 176.0 
639.414062 200.0 
640.415039 152.0 
643.303772 160.0 
643.382324 1916.0 
643.470276 180.0 
643.651978 208.0 
644.337952 272.0 
644.381714 1604.0 
646.37854 176.0 
646.719421 156.0 
652.230774 196.0 
654.369934 404.0 
656.699524 168.0 
657.612427 176.0 
659.879639 212.0 
661.321655 164.0 
661.392578 3656.0 
661.505859 160.0 
662.398132 1288.0 
663.391052 348.0 
663.594238 252.0 
664.441101 168.0 
665.410706 160.0 
667.943237 164.0 
671.037048 188.0 
673.900391 160.0 
676.014404 156.0 
678.328613 172.0 
679.292786 224.0 
679.402344 5108.0 
680.050049 172.0 
680.402832 3284.0 
681.41156 552.0 
682.405701 264.0 
684.037537 156.0 
684.102844 160.0 
685.018982 172.0 
689.394775 160.0 
692.426331 336.0 
692.67395 176.0 
693.429688 324.0 
695.598755 184.0 
700.389099 344.0 
702.61615 208.0 
702.861389 340.0 
704.183289 164.0 
716.396912 324.0 
717.399658 168.0 
718.1474 152.0 
718.222046 164.0 
718.557983 180.0 
719.779785 180.0 
720.580627 172.0 
724.366699 156.0 
725.609497 240.0 
725.813171 156.0 
726.681763 184.0 
730.957092 228.0 
732.792419 172.0 
737.501648 180.0 
738.020447 184.0 
738.456238 188.0 
739.653564 204.0 
740.443787 272.0 
740.968994 244.0 
742.025391 172.0 
744.694214 176.0 
746.128174 168.0 
748.162048 160.0 
748.744446 224.0 
752.494568 188.0 
753.455383 180.0 
754.471497 172.0 
761.114807 156.0 
761.75708 168.0 
766.442688 176.0 
769.386719 172.0 
771.137085 156.0 
771.625916 240.0 
772.623962 180.0 
775.424683 156.0 
777.303955 164.0 
779.229858 156.0 
780.652283 200.0 
781.742126 184.0 
784.126526 188.0 
784.417175 188.0 
785.105591 196.0 
785.420776 252.0 
786.421753 200.0 
786.68396 196.0 
796.461121 3172.0 
797.38385 176.0 
797.462952 1132.0 
798.476868 404.0 
798.625916 160.0 
799.283813 228.0 
799.396362 204.0 
799.475464 240.0 
800.003967 152.0 
800.744873 184.0 
801.490234 204.0 
802.504395 160.0 
802.797485 172.0 
803.11322 180.0 
804.512085 184.0 
805.720154 172.0 
805.979919 160.0 
806.612671 208.0 
807.777039 240.0 
808.195557 184.0 
809.293152 168.0 
809.870544 196.0 
809.910217 168.0 
811.672058 188.0 
812.505432 160.0 
814.315491 172.0 
817.560486 168.0 
819.521057 384.0 
820.327515 224.0 
820.506714 208.0 
821.404846 164.0 
821.450439 236.0 
821.507446 156.0 
822.266052 176.0 
822.472107 376.0 
823.482056 380.0 
824.0755 192.0 
824.19751 244.0 
824.492188 228.0 
825.627808 160.0 
825.669739 216.0 
826.342346 184.0 
827.746216 344.0 
827.923706 160.0 
829.230225 184.0 
830.123352 196.0 
833.04364 188.0 
833.33075 224.0 
835.429504 164.0 
836.30188 204.0 
836.342834 240.0 
836.463745 244.0 
836.695129 152.0 
837.016235 208.0 
837.137878 288.0 
837.604614 172.0 
837.747375 172.0 
837.981873 168.0 
838.138977 324.0 
838.381348 236.0 
838.663208 152.0 
838.877258 376.0 
838.939819 160.0 
839.008545 204.0 
839.145813 236.0 
839.237793 200.0 
839.330994 192.0 
839.408508 320.0 
839.454224 252.0 
839.607605 220.0 
839.86676 236.0 
839.939819 256.0 
839.986694 240.0 
840.178589 444.0 
840.263062 164.0 
840.489746 138988.0 
840.690125 228.0 
840.822327 196.0 
840.991638 456.0 
841.012878 352.0 
841.059326 532.0 
841.133423 208.0 
841.253723 196.0 
841.308167 224.0 
841.386047 296.0 
841.49176 64240.0 
841.666321 264.0 
841.740295 392.0 
841.752258 260.0 
841.882935 180.0 
842.030518 404.0 
842.171997 208.0 
842.40741 364.0 
842.494263 19780.0 
842.73822 208.0 
842.865601 172.0 
842.970947 196.0 
843.078308 192.0 
843.224243 176.0 
843.265442 340.0 
843.397949 256.0 
843.495667 4496.0 
844.433655 168.0 
844.495117 1116.0 
844.648438 156.0 
844.701904 232.0 
844.792847 204.0 
844.847107 152.0 
844.882141 284.0 
844.973816 188.0 
845.085388 168.0 
845.331421 216.0 
845.382202 152.0 
845.437195 160.0 
845.497437 360.0 
845.602112 156.0 
845.641724 228.0 
845.730896 168.0 
845.783508 240.0 
845.848877 172.0 
845.944092 228.0 
846.012024 176.0 
846.13269 232.0 
846.410522 208.0 
846.463684 244.0 
846.583069 384.0 
846.725281 252.0 
847.432739 328.0 
847.544861 188.0 
848.054871 172.0 
849.586914 152.0 
862.165771 156.0 
863.527466 216.0 
866.289124 180.0 
866.347656 160.0 
872.730652 264.0 
874.959595 184.0 
889.573547 164.0 
989.757263 172.0 
1004.281189 176.0 
1013.526367 184.0 
1054.628418 188.0 
1089.334717 156.0 
1160.199707 180.0 
1197.557251 152.0 
1211.324951 156.0 
1240.841064 200.0 
1247.001953 152.0 
1257.223999 244.0 
1273.728394 204.0 
1302.078857 176.0 
1312.323486 200.0 
1355.908569 160.0 
1417.770264 152.0 
1439.185425 204.0 
1671.442871 156.0 
1878.282471 232.0 
1996.631348 224.0 
END IONS

