BEGIN IONS
PEPMASS=566.0
CHARGE=2+
MSLEVEL=2
SOURCE_INSTRUMENT=LC-ESI-qTof
FILENAME=1F8_566MH_RF8_01_9767.mzXML
SEQ=*..*
IONMODE=Positive
ORGANISM=GNPS-LIBRARY
NAME=Antillatoxin B M+H
PI=Dorrestein/Gerwick
DATACOLLECTOR=Peng/Luzzatto/Garg
SMILES=C[C@@H]1NC(=O)CC(=C)[C@@H](C)[C@@H](OC(=O)CNC(=O)[C@H](CCC2=CC=CC=C2)N(C)C1=O)C(\C)=C\C(\C)=C\C(C)(C)C
INCHI=InChI=1S/C33H47N3O5/c1-21(19-33(6,7)8)17-23(3)30-24(4)22(2)18-28(37)35-25(5)32(40)36(9)27(31(39)34-20-29(38)41-30)16-15-26-13-11-10-12-14-26/h10-14,17,19,24-25,27,30H,2,15-16,18,20H2,1,3-9H3,(H,34,39)(H,35,37)/b21-19+,23-17+/t24-,25+,27+,30+/m1/s1
INCHIAUX=WBQWYSKGOKXFTF-OHAAWPAWSA-N
PUBMED=ChemSpider ID:8160989
SUBMITUSER=y6peng
LIBRARYQUALITY=2
SPECTRUMID=CCMSLIB00000072529
SCANS=2582
95.084518 248.0 
95.127197 220.0 
95.704376 304.0 
96.803284 276.0 
97.100899 656.0 
97.943893 252.0 
98.259178 268.0 
98.417885 208.0 
100.220009 280.0 
101.694519 268.0 
101.889221 204.0 
102.593307 232.0 
103.291725 232.0 
104.86795 228.0 
104.999207 252.0 
105.058334 240.0 
105.52787 248.0 
105.756897 224.0 
106.066063 260.0 
106.597404 228.0 
106.704247 220.0 
106.959229 276.0 
107.089546 516.0 
107.177444 228.0 
107.60215 204.0 
109.459198 264.0 
109.909256 220.0 
110.061913 260.0 
110.098854 232.0 
110.289192 220.0 
110.320534 220.0 
111.298553 236.0 
112.078598 228.0 
112.11441 200.0 
112.320946 236.0 
112.671227 216.0 
113.284477 204.0 
113.464539 260.0 
114.053307 220.0 
114.218102 204.0 
114.733231 300.0 
114.806587 220.0 
114.835541 212.0 
114.925102 240.0 
115.012566 244.0 
115.059509 204.0 
117.069275 1512.0 
117.859131 208.0 
118.042793 244.0 
118.179008 220.0 
118.752838 216.0 
118.77018 212.0 
118.949074 244.0 
119.086105 556.0 
120.084557 244.0 
120.832329 240.0 
120.998589 268.0 
121.100822 356.0 
122.090881 260.0 
122.381233 260.0 
122.861496 240.0 
123.071083 232.0 
123.113022 376.0 
123.552696 260.0 
124.077354 224.0 
125.097557 448.0 
125.506393 208.0 
125.724915 220.0 
125.932465 228.0 
126.153587 280.0 
126.739723 248.0 
127.073662 208.0 
127.383339 200.0 
128.024094 224.0 
128.127655 200.0 
129.066193 340.0 
129.167923 216.0 
129.457504 252.0 
130.107986 228.0 
130.189697 228.0 
131.090179 312.0 
131.379623 216.0 
131.998337 252.0 
132.497086 252.0 
133.067108 224.0 
133.101135 1312.0 
134.123413 308.0 
134.247849 220.0 
134.556915 240.0 
135.095169 216.0 
135.119476 620.0 
137.099533 396.0 
137.130753 276.0 
138.090805 1536.0 
138.71019 228.0 
139.094727 356.0 
140.105484 204.0 
140.199707 244.0 
140.397644 228.0 
141.075012 228.0 
141.645081 284.0 
141.998108 216.0 
142.58902 212.0 
142.629562 264.0 
145.102356 392.0 
145.509262 200.0 
145.607666 208.0 
146.098312 236.0 
147.08078 328.0 
147.117661 3216.0 
147.933533 236.0 
148.030609 236.0 
148.072693 228.0 
148.112991 92600.0 
148.398254 208.0 
148.464844 228.0 
149.115265 7724.0 
150.090057 220.0 
150.121384 540.0 
150.285156 232.0 
151.122864 244.0 
151.14653 328.0 
151.813354 228.0 
151.950653 216.0 
152.107651 208.0 
152.874161 212.0 
153.22612 208.0 
155.100998 220.0 
156.091171 212.0 
156.384613 232.0 
157.100586 208.0 
157.413803 204.0 
158.769608 208.0 
159.078094 300.0 
159.095657 224.0 
159.117676 524.0 
160.114868 372.0 
160.199188 304.0 
161.098679 392.0 
161.133026 3432.0 
162.13649 548.0 
163.109055 464.0 
163.392776 220.0 
164.96051 248.0 
165.464279 292.0 
165.83812 216.0 
166.055969 204.0 
166.121628 412.0 
168.142792 220.0 
168.487503 216.0 
170.655914 220.0 
171.119888 560.0 
172.115051 392.0 
172.57312 252.0 
173.133987 1148.0 
174.098541 232.0 
174.124786 212.0 
175.109879 1152.0 
175.146667 388.0 
175.838028 264.0 
176.001877 212.0 
176.109314 540.0 
176.244537 200.0 
177.161423 204.0 
177.278748 256.0 
177.809357 248.0 
178.127411 392.0 
178.693436 224.0 
179.45752 216.0 
180.423599 256.0 
183.119263 296.0 
183.194656 240.0 
184.811172 208.0 
185.864761 248.0 
186.108948 264.0 
187.144608 588.0 
187.275116 352.0 
188.150742 348.0 
188.887619 228.0 
189.040771 232.0 
189.128098 12444.0 
189.162582 208.0 
189.966461 208.0 
190.128998 1712.0 
190.256348 224.0 
192.137924 992.0 
192.177475 224.0 
192.853775 204.0 
193.139709 240.0 
193.957718 200.0 
194.895355 260.0 
195.721375 264.0 
199.788956 200.0 
199.845932 228.0 
200.867432 220.0 
201.176712 408.0 
202.783463 236.0 
202.984894 316.0 
203.103333 236.0 
203.180542 9880.0 
204.102463 616.0 
204.183228 1264.0 
205.097534 208.0 
205.149292 224.0 
205.190414 324.0 
206.156708 220.0 
209.05571 200.0 
209.166092 228.0 
209.313751 248.0 
213.898773 204.0 
214.15979 364.0 
215.147705 216.0 
215.180954 260.0 
216.133392 196.0 
216.586975 264.0 
217.195709 5040.0 
217.287308 204.0 
217.800827 268.0 
218.152725 684.0 
218.199265 764.0 
219.147415 228.0 
219.193237 216.0 
220.153076 212.0 
222.791092 268.0 
225.827316 252.0 
227.069748 232.0 
227.426651 212.0 
228.182526 208.0 
229.477432 212.0 
230.113495 404.0 
230.159988 272.0 
230.195267 208.0 
231.117905 248.0 
232.170746 4604.0 
233.134323 204.0 
233.175049 812.0 
234.940369 204.0 
234.964111 204.0 
235.172424 204.0 
237.098206 204.0 
237.515015 224.0 
241.83313 276.0 
242.650589 280.0 
243.207275 216.0 
243.335968 208.0 
244.187439 224.0 
245.191422 5032.0 
245.722122 208.0 
246.192184 1672.0 
246.218994 556.0 
247.140015 396.0 
247.223373 204.0 
247.27829 216.0 
247.960129 256.0 
248.146988 232.0 
248.223343 208.0 
248.536896 196.0 
248.885162 256.0 
250.331024 212.0 
250.522232 196.0 
250.708893 220.0 
250.913681 196.0 
251.039764 268.0 
251.071289 216.0 
251.140579 46532.0 
251.447906 216.0 
252.142868 7836.0 
252.789108 228.0 
253.143875 588.0 
254.151031 324.0 
256.905151 196.0 
258.150299 212.0 
258.7388 220.0 
260.164612 2204.0 
260.230804 228.0 
260.559662 208.0 
261.165955 564.0 
262.214355 224.0 
267.610779 216.0 
268.809784 216.0 
270.410461 228.0 
271.581177 216.0 
272.134033 196.0 
272.239075 512.0 
276.235382 204.0 
276.271759 196.0 
276.632324 212.0 
279.956818 264.0 
285.366364 200.0 
285.98172 220.0 
286.570801 220.0 
287.983673 204.0 
288.233276 16528.0 
288.831696 204.0 
289.081146 248.0 
289.156708 336.0 
289.237793 2340.0 
290.248688 236.0 
292.665009 212.0 
295.062561 200.0 
304.163879 200.0 
306.353729 216.0 
308.083344 248.0 
312.579865 228.0 
312.847229 204.0 
313.164001 320.0 
313.196716 404.0 
313.71347 204.0 
314.199951 268.0 
315.208344 216.0 
316.011627 196.0 
316.092987 208.0 
316.120148 332.0 
316.177002 196.0 
316.229004 43608.0 
317.230713 8236.0 
318.233765 1176.0 
318.973602 196.0 
319.228485 292.0 
319.494171 252.0 
319.552155 196.0 
320.65451 208.0 
322.170746 208.0 
323.088745 212.0 
325.237915 196.0 
328.88623 228.0 
336.105255 224.0 
337.160156 212.0 
337.836334 260.0 
341.191772 360.0 
341.495605 204.0 
343.201752 900.0 
344.205994 364.0 
344.240051 284.0 
350.23465 236.0 
350.454346 216.0 
354.138672 196.0 
355.440308 212.0 
359.188477 200.0 
369.610962 196.0 
381.226227 236.0 
390.663177 204.0 
394.301086 200.0 
394.905731 200.0 
395.052032 216.0 
399.815369 208.0 
400.280945 208.0 
401.320496 236.0 
407.706604 232.0 
413.677643 212.0 
414.572357 240.0 
415.585693 232.0 
416.07251 204.0 
416.267334 228.0 
421.24707 272.0 
422.239166 228.0 
433.129639 216.0 
433.415375 200.0 
435.266632 1940.0 
436.140839 200.0 
436.272247 1184.0 
437.221771 220.0 
439.195801 208.0 
441.730255 268.0 
446.371155 248.0 
449.575562 240.0 
450.326752 200.0 
453.922485 216.0 
454.88092 212.0 
456.218506 276.0 
458.541595 204.0 
459.486359 204.0 
460.324097 224.0 
464.520966 244.0 
474.708466 212.0 
477.504089 280.0 
480.098633 196.0 
481.774017 236.0 
482.35498 248.0 
484.358246 224.0 
485.808624 204.0 
488.209076 204.0 
489.821472 200.0 
489.998108 284.0 
490.05777 260.0 
490.210449 252.0 
490.340088 196.0 
490.47934 304.0 
490.716766 248.0 
490.989532 204.0 
491.03244 252.0 
491.08725 312.0 
491.223389 376.0 
491.253021 344.0 
491.329468 118672.0 
491.435303 220.0 
491.492249 296.0 
491.629639 204.0 
491.766266 224.0 
491.797974 320.0 
492.007416 320.0 
492.055481 1000.0 
492.331818 51120.0 
492.678741 272.0 
492.746613 216.0 
493.005157 216.0 
493.334198 6684.0 
493.477631 240.0 
493.752991 224.0 
493.803955 212.0 
494.333557 1016.0 
494.958344 212.0 
495.281067 208.0 
495.318451 372.0 
495.415009 196.0 
495.525696 204.0 
496.43399 240.0 
506.382629 224.0 
521.758362 232.0 
534.482056 204.0 
562.420837 244.0 
565.05188 196.0 
565.170105 268.0 
565.327454 224.0 
566.23291 260.0 
566.360413 22224.0 
567.362305 8112.0 
568.29895 200.0 
568.362122 2404.0 
569.375854 328.0 
1095.221802 204.0 
1129.311768 236.0 
1152.670898 200.0 
1203.02356 280.0 
1273.727661 236.0 
1276.370361 252.0 
1293.099487 248.0 
1332.448853 196.0 
1373.442139 220.0 
1381.357422 244.0 
1394.008179 200.0 
1424.16394 212.0 
1490.339722 200.0 
1492.621704 284.0 
1521.227417 200.0 
1522.065552 240.0 
1522.399414 200.0 
1523.175781 300.0 
1556.597168 220.0 
1574.52124 236.0 
1612.306641 232.0 
1613.656982 228.0 
1616.535278 216.0 
1618.671753 256.0 
1623.245483 224.0 
1626.164429 212.0 
1633.408203 208.0 
1639.018066 204.0 
1648.124146 212.0 
1651.243286 204.0 
1653.111328 232.0 
1659.726562 236.0 
1702.740112 224.0 
1703.355957 216.0 
1706.60083 216.0 
1713.997437 260.0 
1742.606201 216.0 
1753.094604 260.0 
1769.702148 240.0 
1771.426636 228.0 
1802.569214 252.0 
1810.060791 248.0 
1810.941162 248.0 
1832.347656 196.0 
1833.531616 256.0 
1838.680664 216.0 
1847.067627 200.0 
1860.395874 252.0 
1880.279785 232.0 
1914.9021 264.0 
1915.57251 216.0 
1915.650879 200.0 
1921.315063 248.0 
1923.58313 236.0 
1925.572998 224.0 
1926.935181 228.0 
1931.234375 236.0 
1944.608032 212.0 
1945.713623 236.0 
1951.659302 260.0 
1962.564209 232.0 
1963.569092 196.0 
1966.408813 292.0 
1970.654541 232.0 
1977.080566 244.0 
1979.257324 256.0 
1980.443481 248.0 
1983.038452 220.0 
1984.296753 244.0 
1997.327881 252.0 
END IONS

