BEGIN IONS
PEPMASS=910.492
CHARGE=1+
COMPOUNDNAME=MoNA:749312 Microcystin-LA
LIBRARYQUALITY=3
SMILES=N/A
INCHIKEY=DIAQQISRBBDJIM-DRSCAGMXSA-N
INCHI=InChI=1S/C46H67N7O12/c1-24(2)21-35-44(60)52-38(46(63)64)28(6)40(56)47-29(7)41(57)49-33(18-17-25(3)22-26(4)36(65-11)23-32-15-13-12-14-16-32)27(5)39(55)50-34(45(61)62)19-20-37(54)53(10)31(9)43(59)48-30(8)42(58)51-35/h12-18,22,24,26-30,33-36,38H,9,19-21,23H2,1-8,10-11H3,(H,47,56)(H,48,59)(H,49,57)(H,50,55)(H,51,58)(H,52,60)(H,61,62)(H,63,64)/b18-17+,25-22+/t26-,27-,28-,29-,30+,33-,34+,35-,36-,38+/m0/s1
MSLEVEL=2
SOURCE_INSTRUMENT=LC-ESI-QFT-LC-ESI-QFT
FILENAME=output_mgf.mgf
SEQ=*..*
IONMODE=
ORGANISM=MONA
NAME=MoNA:749312 Microcystin-LA [M+H]+
PI=MoNA
DATACOLLECTOR=MoNA
PUBMED=N/A
SUBMITUSER=mwang87
TAGS=
SPECTRUMID=CCMSLIB00000566467
SCANS=3719
65.0386 8.23551 
67.0416 0.855186 
67.0542 3.986918 
68.0494 1.469482 
69.0335 3.064852 
69.0698 1.773364 
70.0286 0.204667 
70.0651 1.295114 
71.0126 0.124874 
72.0807 0.148809 
74.0236 2.734248 
77.0385 3.15615 
78.0464 0.44179 
79.0542 27.190385 
80.0494 5.513102 
81.0335 0.576314 
81.0447 0.123817 
81.0572 0.410812 
81.0699 1.797354 
82.0287 2.821574 
82.0651 13.551082 
83.049 0.332499 
83.0602 0.110565 
83.0855 0.110385 
84.0443 16.074724 
84.0808 1.729851 
85.0284 2.134274 
86.06 1.678593 
86.0964 11.343749 
88.0392 0.139214 
89.0385 0.188537 
89.0711 0.172952 
91.0542 81.949319 
92.0495 0.154116 
92.0619 2.398327 
93.0698 15.576766 
94.0651 3.875469 
94.0732 0.628986 
94.0776 0.435834 
95.0491 32.56889 
95.0855 1.992028 
96.0444 0.712649 
96.0525 0.999144 
96.0682 0.785866 
96.0807 1.523263 
97.076 0.458944 
98.0601 0.205322 
99.0917 7.058659 
100.0392 0.198658 
102.0464 2.224892 
102.055 0.995284 
103.0542 100.0 
104.0575 3.725193 
104.0619 0.565672 
105.0447 5.650677 
105.0698 49.560022 
106.0524 0.876456 
106.0651 0.524044 
106.0732 1.437537 
106.0773 0.274091 
107.0855 46.405621 
108.0681 1.347715 
108.0806 0.99779 
109.0647 11.111326 
110.06 3.039588 
110.0681 0.42989 
110.0964 0.614441 
112.0391 0.129401 
112.0758 0.13069 
112.112 0.124755 
113.0233 4.149462 
115.0542 11.668559 
116.0576 0.563516 
116.062 1.786855 
117.0573 0.65101 
117.0698 7.595869 
118.0651 0.726181 
118.0775 0.193449 
119.0603 3.351567 
119.0855 3.555939 
120.0529 0.132827 
120.057 1.801041 
120.0807 1.868998 
120.0892 0.162802 
120.0932 1.811434 
121.0648 0.5141 
121.076 8.032145 
121.101 0.465497 
122.0599 0.974448 
122.0797 0.186344 
122.0838 1.01931 
122.0965 0.778907 
123.0917 1.039576 
124.0519 0.128705 
124.0757 0.436075 
124.1119 0.415231 
125.0709 0.174 
127.0865 24.753133 
128.062 5.254111 
128.0898 0.755861 
129.0698 3.87816 
130.0497 0.575204 
130.0651 1.314456 
130.0776 1.643157 
131.0731 0.481835 
131.0855 4.504793 
132.0807 0.903841 
132.0887 0.149999 
133.0648 0.384433 
133.101 1.057751 
134.0965 0.62074 
135.0803 4.01863 
135.1167 2.688723 
136.0756 0.100999 
136.0836 0.120114 
136.1121 0.110654 
137.0958 0.124196 
138.0547 0.882149 
139.0866 0.775879 
140.0703 0.127852 
141.0697 1.278352 
142.0777 0.538201 
143.0731 0.394079 
143.0856 0.859394 
144.0808 0.627482 
144.0933 0.187358 
145.0647 0.760638 
145.0887 0.248518 
145.1012 0.995759 
146.0963 1.166379 
148.112 0.188909 
149.0709 3.279572 
151.0868 0.326723 
152.062 0.464261 
153.0698 0.515159 
154.0776 0.440838 
155.0601 0.153689 
155.0862 0.682433 
156.0654 0.123766 
158.0965 0.191978 
159.0804 0.371062 
159.1166 0.126846 
160.1117 0.371951 
163.1116 0.413765 
165.0698 2.620164 
166.0782 0.751208 
167.081 4.109332 
168.0655 0.156922 
168.085 0.13152 
168.0929 0.151518 
172.1118 0.169851 
173.0959 0.206903 
174.0909 0.142243 
178.0776 0.929278 
179.0854 1.717201 
180.0932 0.488183 
181.1015 0.331795 
184.1119 0.197815 
191.0853 0.110007 
192.0932 0.385599 
193.1009 0.50818 
194.1088 0.184255 
195.0759 0.722031 
217.1007 0.123813 
END IONS

