BEGIN IONS
PEPMASS=607.9
CHARGE=0+
MSLEVEL=2
SOURCE_INSTRUMENT=LC-ESI-qTof
FILENAME=20121113_Ger_Jenia_Malyngamide_J_MH607.9-qb.1.1..mgf
SEQ=*..*
IONMODE=Positive
ORGANISM=GNPS-LIBRARY
NAME=Malyngamide_J M+H
PI=Gerwick
DATACOLLECTOR=Jenia
SMILES=CCCCCCC[C@@H](C/C=C/CCC(=O)NCCC(=C)[C@@]12[C@@H](O1)[C@@H](C=C(C2=O)C)OC3C(C(C(CO3)OC)O)OC)OC
INCHI=InChI=1S/C33H53NO9/c1-7-8-9-10-12-15-24(38-4)16-13-11-14-17-27(35)34-19-18-23(3)33-30(37)22(2)20-25(31(33)43-33)42-32-29(40-6)28(36)26(39-5)21-41-32/h11,13,20,24-26,28-29,31-32,36H,3,7-10,12,14-19,21H2,1-2,4-6H3,(H,34,35)/b13-11+/t24-,25+,26?,28?,29?,31-,32?,33+/m0/s1
INCHIAUX=N/A
PUBMED=N/A
SUBMITUSER=mwang87
LIBRARYQUALITY=1
SPECTRUMID=CCMSLIB00000001589
SCANS=1
175.04303 690.0 
223.92569 316.0 
282.892944 823.0 
302.954224 405.0 
380.065247 402.0 
398.024689 1766.0 
401.749817 514.0 
415.946777 3462.0 
430.15686 266.0 
447.949921 2284.0 
503.802002 244.0 
535.590942 538.0 
606.9505 1180.0 
607.534912 703.0 
END IONS

