BEGIN IONS
PEPMASS=1184.47
CHARGE=1+
MSLEVEL=2
SOURCE_INSTRUMENT=LC-ESI-Orbitrap
FILENAME=f.RReher/Culebra/pure_compounds/1182_Br_KurahamideB/KurahamideB_Br81_MS2_M+H_QE.mgf;
SEQ=*..*
IONMODE=Positive
ORGANISM=GNPS-LIBRARY
NAME=Kurahamide B M+H
PI=Gerwick
DATACOLLECTOR=Raphael Reher
SMILES=CCCC(N[C@H](C(N[C@H](C(N[C@H]1[C@@H](C)OC([C@H](C(C)C)NC([C@H](CC2=CC(Br)=C(O)C=C2)N(C)C([C@H](CC3=CC=CC=C3)N4C(O)CC[C@H](NC(/C(NC1=O)=C\C)=O)C4=O)=O)=O)=O)=O)[C@H](OC([C@@H](NC(CCC)=O)C)=O)C)=O)C)=O
INCHI=
INCHIAUX=
PUBMED=
SUBMITUSER=RReher
LIBRARYQUALITY=3
SPECTRUMID=CCMSLIB00005723419
SCANS=1
76.565872 3423.056885 
76.566513 6492.791016 
76.567146 10023.410156 
76.56778 12618.726562 
76.568413 12975.875977 
76.569054 10620.170898 
76.569687 6547.373047 
76.57032 3162.946533 
76.570961 2852.130615 
76.571594 5777.015137 
76.572227 9149.620117 
76.572868 9539.446289 
76.573502 6410.088379 
76.574135 3064.909424 
76.574768 3288.756836 
76.575409 6975.666992 
76.576042 10061.054688 
76.576675 9066.361328 
76.577316 4765.273926 
76.57795 717.38855 
110.056404 1973.607422 
110.057503 4185.279297 
110.058594 11286.732422 
110.059692 18970.974609 
110.060783 21307.384766 
110.061882 14643.788086 
110.062973 7562.844238 
110.064072 2563.060303 
118.126251 3040.557373 
118.127472 4677.302246 
118.128685 5153.429688 
118.129906 4200.628418 
118.131126 2379.386719 
120.074043 3118.584473 
120.075294 2403.848633 
120.076393 8960.581055 
120.077644 37621.410156 
120.078896 90762.046875 
120.080139 147992.609375 
120.08139 166191.015625 
120.082634 115461.367188 
120.083885 61579.304688 
120.085136 19412.082031 
120.08638 6104.581055 
120.087631 2656.066406 
127.083366 3804.612061 
127.084724 8560.74707 
127.086082 12234.070312 
127.08744 12124.242188 
127.088806 8384.192383 
127.090164 3856.411133 
139.081635 1800.149658 
139.083191 4594.732422 
139.084747 8710.913086 
139.086304 11629.137695 
139.08786 11404.074219 
139.089417 8381.563477 
139.090973 4599.330566 
139.092529 1799.78479 
142.080597 1269.7146 
142.082199 3416.953125 
142.083817 6822.947266 
142.085419 13609.260742 
142.087021 14776.53418 
142.088638 7441.312988 
142.09024 4126.547363 
142.091843 1646.148438 
158.089508 1618.283203 
158.0914 9368.141602 
158.093277 21754.267578 
158.095169 35335.851562 
158.097046 37368.710938 
158.098938 24830.169922 
158.100815 12546.787109 
158.102707 3968.343506 
158.104584 2104.945557 
167.0755 2754.552734 
167.07756 6286.255371 
167.079605 12597.442383 
167.08165 18058.550781 
167.083694 15217.402344 
167.085754 9114.703125 
167.087799 2553.802734 
179.074295 1971.845947 
179.076569 4536.483398 
179.078842 10707.275391 
179.081116 17209.947266 
179.083389 16551.390625 
179.085663 10081.876953 
179.087936 3675.1604 
179.090195 1240.38501 
187.115021 4174.10498 
187.117447 18324.144531 
187.119873 34341.136719 
187.122299 48189.207031 
187.124725 40547.277344 
187.127151 24172.277344 
187.129578 9469.867188 
187.132004 2608.743652 
197.117859 754.894348 
197.120483 8185.443359 
197.123108 28159.982422 
197.125732 49023.375 
197.128357 63869.011719 
197.130997 49556.863281 
197.133621 29129.775391 
197.136246 10204.09375 
197.13887 3173.955566 
197.141495 1093.421387 
213.095795 2312.873779 
213.09874 4850.757324 
213.1017 6407.369141 
213.104645 5856.618652 
213.107605 3628.807617 
215.092514 1682.754395 
215.095505 5784.013672 
215.098495 11074.494141 
215.101486 5220.980957 
215.104477 3293.556152 
215.107468 5137.768555 
215.110474 21536.285156 
215.113464 51347.582031 
215.116455 83304.46875 
215.119446 87372.148438 
215.122437 57380.929688 
215.125427 28410.572266 
215.128418 9027.737305 
215.131409 10214.671875 
215.134415 23632.353516 
215.137405 36593.027344 
215.140396 39340.292969 
215.143387 26729.080078 
215.146378 11373.291016 
215.149368 1974.90332 
216.113434 2194.977051 
216.116455 5441.496582 
216.119461 7956.253906 
216.122482 7928.055176 
216.125488 5396.365723 
216.12851 2371.594727 
222.117889 3074.815186 
222.121033 5273.040039 
222.124176 6353.628906 
222.127319 5564.402344 
222.130463 3438.300537 
225.111847 1967.156372 
225.115051 3805.245361 
225.118256 10816.476562 
225.12146 18386.613281 
225.124664 20944.257812 
225.127869 14678.442383 
225.131073 7977.269043 
225.134277 2117.499756 
227.176224 2579.196533 
227.179459 4633.936523 
227.182709 5432.493652 
227.185959 4453.654297 
227.189209 2446.652344 
227.990524 2177.634277 
227.99379 7112.016113 
227.997055 15415.942383 
228.00032 24353.173828 
228.003586 24862.519531 
228.006851 16047.111328 
228.010117 7636.806641 
228.013382 1751.605591 
228.996124 3132.270508 
228.999405 7122.423828 
229.002686 10764.71875 
229.005981 11405.000977 
229.009262 8463.202148 
229.012558 4129.376465 
229.984955 1732.258301 
229.988266 9851.358398 
229.991577 39797.9375 
229.994888 83324.914062 
229.998199 129438.023438 
230.001495 129339.492188 
230.004807 84149.867188 
230.008118 41411.554688 
230.011429 13117.920898 
230.01474 4644.796875 
230.018051 2142.473389 
243.098007 36.272224 
243.101608 6157.272461 
243.105194 24943.306641 
243.108795 45814.335938 
243.112381 62804.105469 
243.115982 51000.328125 
243.119583 30183.826172 
243.123169 10802.097656 
243.12677 4053.883789 
243.130371 3937.092773 
243.134308 9088.416016 
243.137909 6106.910645 
243.14151 2101.301025 
250.105698 1061.513794 
250.109451 3169.041504 
250.113205 6603.359863 
250.116959 13262.501953 
250.120712 14967.733398 
250.124451 7402.283203 
250.128204 3806.01001 
250.131958 1195.589355 
268.115967 1746.970581 
268.120117 4930.760254 
268.124298 8376.71582 
268.128448 9943.061523 
268.132629 8542.463867 
268.13678 5211.006836 
268.140961 2101.585205 
306.245178 2507.499268 
306.250244 6370.583008 
306.255341 12529.386719 
306.260406 19580.056641 
306.265503 24059.724609 
306.270569 20157.744141 
306.275665 12059.746094 
306.280762 3018.004395 
306.29599 4968.398926 
306.301086 10957.707031 
306.306183 10901.214844 
306.311249 4306.250488 
306.316345 1245.784668 
308.144928 2563.823242 
308.150055 5324.01709 
308.155182 7902.859375 
308.160309 8865.973633 
308.165436 7609.799805 
308.170563 4867.285156 
308.17569 2114.733398 
326.13501 2474.346924 
326.140594 5251.413574 
326.146179 7871.150879 
326.151794 8365.894531 
326.157379 6221.611328 
326.162964 2863.331299 
384.190399 1760.426758 
384.19754 4769.911621 
384.204681 11611.03418 
384.211853 16481.724609 
384.218994 13867.53125 
384.226135 8108.934082 
384.233276 3231.731934 
384.240417 1381.491455 
391.169525 1745.179565 
391.176849 3028.262939 
391.184204 10525.333008 
391.191528 18544.310547 
391.198883 23485.470703 
391.206207 17913.769531 
391.213531 10340.191406 
391.220886 3414.367188 
391.22821 1149.063477 
409.18985 4405.493164 
409.197693 9173.612305 
409.205536 13008.208008 
409.213379 13102.938477 
409.221252 9295.694336 
409.229095 4397.922852 
448.644775 3238.443359 
448.653809 5317.856445 
448.662811 6047.956055 
448.671814 5015.357422 
448.680847 2944.164307 
500.064209 2378.665283 
500.074829 10578.960938 
500.085419 23060.300781 
500.096039 36077.914062 
500.106628 35351.546875 
500.117249 22086.892578 
500.127869 9709.332031 
500.138458 2242.776855 
888.415771 3934.638672 
888.440918 6146.585938 
888.466003 7114.76123 
888.49115 6234.535645 
888.516235 3997.810059 
1044.131226 4037.295166 
1044.16333 6142.4375 
1044.195312 6817.178711 
1044.227295 5626.649902 
1044.259277 3300.490967 
1176.55835 3670.205811 
1176.59668 6026.802734 
1176.634888 6733.795898 
1176.673218 5207.513672 
1176.711548 2556.582031 
END IONS

