BEGIN IONS
PEPMASS=1791.73
CHARGE=1+
MSLEVEL=2
SOURCE_INSTRUMENT=LC-ESI-Ion Trap
FILENAME=f.RReher/2264/Reference_spectra/Samholides/Samholide F/SamholideF_M+Na_iontrap_yiwen.mgf;
SEQ=*..*
IONMODE=Positive
ORGANISM=GNPS-LIBRARY
NAME=Samholide F M+Na
PI=Gerwick
DATACOLLECTOR=Ywen Tao
SMILES=C[C@H]1C[C@H](C[C@@H](O1)CC[C@H](C)[C@@H]([C@H](C)[C@@H]2C[C@@H](C[C@@H]([C@@H]([C@H](C[C@@H]3CC=C[C@H](O3)C[C@H](C/C=C(/C=C\C(=O)O[C@@H](C[C@@H](C[C@@H]([C@@H]([C@H](C[C@@H]4CC=C[C@H](O4)C[C@H](C/C=C(/C=C/C(=O)O2)\C)O[C@@H]5[C@H]([C@@H]([C@H](CO5)OC)OC)O)OC)C)O)O)[C@@H](C)[C@H]([C@@H](C)CC[C@H]6C[C@@H](C[C@@H](O6)C)OC)O)\C)O[C@@H]7[C@H]([C@@H]([C@H](CO7)OC)OC)OC(=O)[C@@H](CO)O)OC)C)O)O)O)OC
INCHI=
INCHIAUX=
PUBMED=
SUBMITUSER=RReher
LIBRARYQUALITY=3
SPECTRUMID=CCMSLIB00005467790
SCANS=1
631.566772 335466.0 
632.335327 130.0 
636.909668 442394.0 
641.419189 161595.0 
642.300049 326171.0 
681.023193 74201.0 
685.160889 74102.0 
703.368896 398909.0 
704.253418 227163.0 
719.314453 119960.0 
737.123047 175462.0 
781.563477 208146.0 
813.28064 94980.0 
827.21582 510637.0 
829.350098 222516.0 
836.278076 38040.0 
845.596313 158051.0 
863.431641 2464148.0 
864.376221 778137.0 
892.185913 68334.0 
897.239258 43721.0 
919.060303 11998.0 
925.417969 202107.0 
933.255615 203593.0 
934.300171 424309.0 
943.934814 109077.0 
951.35498 3928852.0 
952.416504 907677.0 
953.133301 3.0 
1016.140503 52255.0 
1023.288452 83150.0 
1067.494385 30531.0 
1069.257812 21208.0 
1085.331543 256294.0 
1085.959961 5.0 
1095.490234 124003.0 
1103.105957 38516.0 
1104.631592 207247.0 
1108.459717 240438.0 
1112.107422 46527.0 
1139.450684 130974.0 
1143.557129 106439.0 
1144.600098 166351.0 
1145.746338 17492.0 
1155.180176 223729.0 
1161.663818 378730.0 
1173.574463 181128.0 
1174.467285 158256.0 
1195.416504 40219.0 
1196.016602 16.0 
1227.536621 189799.0 
1234.540039 37796.0 
1304.280273 175319.0 
1312.409912 48934.0 
1321.565918 4027587.0 
1322.52002 1473622.0 
1323.432617 216916.0 
1333.362793 4761966.0 
1334.400391 3829334.0 
1335.102051 1086.0 
1361.249756 203825.0 
1392.285645 21783.0 
1409.483887 1276594.0 
1410.293701 371730.0 
1411.100098 2.0 
1418.444336 101740.0 
1458.315918 25831.0 
1462.434082 247807.0 
1463.773926 63418.0 
1475.628418 143333.0 
1477.371582 395568.0 
1481.842041 450414.0 
1490.489258 92609.0 
1505.856934 90734.0 
1507.91333 79588.0 
1508.771973 69458.0 
1510.460449 73463.0 
1521.449463 1289551.0 
1525.453613 591624.0 
1526.564453 446700.0 
1527.579834 134027.0 
1528.746582 334024.0 
1543.71582 852158.0 
1544.645752 593404.0 
1545.333252 10.0 
1559.552246 58828.0 
1577.514404 1259231.0 
1578.415771 1112883.0 
1579.222168 3.0 
1595.794434 35716.0 
1612.762207 151595.0 
1613.871338 223377.0 
1614.558838 226757.0 
1616.326904 55040.0 
1621.391357 87323.0 
1631.702637 1000528.0 
1632.715088 717102.0 
1634.911133 200811.0 
1637.187012 55157.0 
1668.255615 258336.0 
1685.748291 2025111.0 
1686.718994 1579896.0 
1703.437988 160517.0 
1704.928223 281189.0 
1730.71167 201365.0 
1737.22876 53907.0 
1747.17334 85580.0 
1748.242432 458538.0 
1748.929932 85029.0 
1755.393555 577160.0 
1773.186035 917626.0 
1774.234619 667117.0 
1774.915039 410895.0 
1791.691406 760812.0 
1792.604736 7622.0 
END IONS

