BEGIN IONS
PEPMASS=337.072
CHARGE=1+
COMPOUNDNAME=rabelomycin
LIBRARYQUALITY=3
SMILES=N/A
INCHIKEY=JJOLHRYZQSDLSA-UHFFFAOYSA-N
INCHI=InChI=1S/C19H14O6/c1-19(25)6-8-5-11(21)15-16(13(8)12(22)7-19)17(23)9-3-2-4-10(20)14(9)18(15)24/h2-5,20-21,25H,6-7H2,1H3
MSLEVEL=2
SOURCE_INSTRUMENT=N/A-ESI-QFT
FILENAME=library_mgf.mgf
SEQ=*..*
IONMODE=negative
ORGANISM=MONA
NAME=rabelomycin [M-H]-
PI=MoNA
DATACOLLECTOR=MoNA:VF-NPL-QEHF000941
PUBMED=N/A
SUBMITUSER=mwang87
TAGS=
SPECTRUMID=CCMSLIB00004692004
SCANS=941
50.912514 0.039557 
52.194466 0.035477 
53.14315 0.033103 
54.265476 0.030369 
54.345856 0.031494 
54.867016 0.041406 
55.742172 0.027336 
55.830509 0.032861 
55.992336 0.033513 
56.078388 0.039092 
56.61858 0.035132 
56.626495 0.032851 
56.728123 0.03394 
56.87476 0.030297 
58.563267 0.053253 
58.735374 0.045036 
59.012535 0.321234 
59.152836 0.034793 
59.246235 0.031814 
59.560448 0.030294 
60.144421 0.036908 
61.292942 0.031793 
61.517563 0.036376 
62.371052 0.033806 
62.870953 0.033523 
63.386375 0.02806 
63.583244 0.031522 
63.963017 0.033993 
64.082947 0.035688 
64.162605 0.034111 
64.783295 0.03706 
66.595093 0.039699 
67.524796 0.033338 
69.403931 0.034151 
70.913788 0.036393 
71.194832 0.03651 
72.022392 0.038965 
73.1679 0.033556 
73.469749 0.037192 
73.868431 0.039903 
73.953049 0.038177 
74.431465 0.032991 
74.436417 0.034419 
75.474586 0.041017 
75.807739 0.034498 
76.178329 0.037985 
76.247726 0.036106 
76.387161 0.036107 
77.003487 0.030629 
77.727989 0.043774 
78.651505 0.031336 
79.888634 0.032267 
82.628677 0.043969 
82.809364 0.029228 
83.012756 0.0401 
83.407829 0.036612 
86.194542 0.036456 
86.732018 0.039382 
87.59639 0.033282 
87.87133 0.040652 
88.344727 0.031437 
88.809448 0.033956 
90.216034 0.034694 
90.6483 0.040104 
91.116447 0.041839 
92.647896 0.035392 
93.49469 0.032703 
96.958832 0.312891 
97.337631 0.041698 
99.216614 0.031794 
102.740692 0.037132 
102.839134 0.031443 
103.377838 0.039774 
105.979271 0.031148 
107.807678 0.037292 
109.156296 0.035287 
109.817329 0.036189 
111.35041 0.033908 
113.877419 0.032336 
116.086868 0.031088 
116.842651 0.033238 
118.234459 0.041194 
125.36132 0.034617 
127.762115 0.039748 
128.605225 0.032902 
129.855927 0.038574 
130.153152 0.037181 
130.229462 0.036233 
133.41127 0.029362 
134.573837 0.030982 
135.384369 0.035928 
135.868668 0.035888 
135.984573 0.039351 
136.013519 0.034204 
137.783096 0.032486 
142.297638 0.037757 
146.18338 0.031207 
146.324188 0.033174 
149.191452 0.043205 
149.344208 0.029548 
151.257385 0.031731 
151.884338 0.038643 
154.179428 0.040517 
154.238297 0.039849 
154.272644 0.044411 
154.495438 0.033752 
155.953293 0.028225 
157.135361 0.038362 
157.841034 0.032487 
158.398956 0.034738 
161.453445 0.033551 
162.266144 0.034306 
163.111893 0.397838 
168.391129 0.029486 
169.617905 0.031764 
169.961502 0.038105 
171.551224 0.041738 
172.953827 0.032352 
177.801392 0.030909 
178.003113 0.041091 
178.692429 0.0416 
183.011444 0.935282 
189.548111 0.033653 
191.498383 0.040228 
197.027267 0.052353 
202.131607 0.050022 
206.886292 0.041539 
207.001358 0.044053 
211.427414 0.036527 
214.018036 0.043948 
214.837921 0.252954 
214.849014 1.020564 
219.830078 0.032389 
224.047241 0.272989 
225.055389 0.337379 
233.623505 0.040324 
236.046524 0.033934 
238.062759 0.036101 
240.042694 0.080058 
245.089325 0.036458 
246.662033 0.035357 
247.446396 0.033363 
248.538757 0.045836 
249.054749 0.086884 
250.06424 0.043103 
251.034515 0.165761 
251.071228 1.006924 
252.042526 4.663731 
253.050354 35.218544 
254.053802 4.902588 
255.066452 0.895701 
255.232574 0.523943 
257.895325 0.036572 
259.307892 0.046333 
260.647156 0.046176 
265.050812 0.876673 
265.087372 0.056632 
266.058441 10.212582 
267.03006 0.04815 
267.065643 4.185611 
268.069031 0.238421 
275.071442 0.039768 
276.042633 0.331485 
277.050415 10.084306 
278.055634 1.79783 
279.029572 4.398029 
279.066162 0.50025 
280.037537 11.899845 
281.04184 1.848713 
286.033142 0.029983 
291.066193 5.047118 
292.06958 0.614727 
293.045532 5.617411 
293.081787 1.938788 
294.053314 13.926104 
294.083344 0.092194 
295.060883 100.0 
295.100464 0.035874 
296.064514 16.622847 
297.07843 1.31319 
297.094879 0.035263 
300.088257 0.031787 
304.037109 0.032833 
307.025299 0.114119 
307.06012 0.040409 
308.064301 0.02774 
309.07663 5.102908 
309.095581 0.061317 
310.080383 0.652191 
310.838043 0.044883 
310.866577 0.039766 
311.091644 0.04108 
318.050568 0.043603 
319.060852 12.547777 
320.067871 7.843926 
321.039368 0.131213 
321.07373 1.722067 
321.345428 0.037566 
322.048035 55.070286 
323.052002 11.901278 
324.055359 0.506971 
327.970764 0.040763 
334.528809 0.038145 
336.062134 0.381394 
337.071625 52.602943 
337.205017 0.039257 
338.075684 10.993659 
339.087311 3.931294 
339.199738 5.679614 
347.552765 0.035835 
359.854645 0.034825 
END IONS

