BEGIN IONS
PEPMASS=544.0
CHARGE=0+
MSLEVEL=2
SOURCE_INSTRUMENT=LC-ESI-qTof
FILENAME=20130131_Emily_Ger_Neodysidenin_MH544-qb.1.1..mgf
SEQ=*..*
IONMODE=Positive
ORGANISM=GNPS-LIBRARY
NAME=Neodysidenin M+H
PI=Gerwick
DATACOLLECTOR=Emily
SMILES=C[C@@H](C[C@@H](C(=O)N(C)[C@H](C)C1=NC=CS1)NC(=O)C[C@H](C)C(Cl)(Cl)Cl)C(Cl)(Cl)Cl
INCHI=InChI=1S/C17H23Cl6N3O2S/c1-9(16(18,19)20)7-12(25-13(27)8-10(2)17(21,22)23)15(28)26(4)11(3)14-24-5-6-29-14/h5-6,9-12H,7-8H2,1-4H3,(H,25,27)/t9-,10-,11+,12-/m0/s1
INCHIAUX=N/A
PUBMED=N/A
SUBMITUSER=mwang87
LIBRARYQUALITY=1
SPECTRUMID=CCMSLIB00000001717
SCANS=1
246.668152 91525.0 
325.005432 42078.0 
373.58374 351976.0 
374.233704 1.0 
401.523315 526846.0 
402.308411 3.0 
432.49762 332069.0 
471.741821 157829.0 
END IONS

