BEGIN IONS
PEPMASS=1006.52
CHARGE=1+
MSLEVEL=2
SOURCE_INSTRUMENT=LC-ESI-Orbitrap
FILENAME=f.RReher/Culebra/pure_compounds/989/Rivulariapeptolide989_M+NH4_MS2_QE.mgf;
SEQ=*..*
IONMODE=Positive
ORGANISM=GNPS-LIBRARY
NAME=Rivulariapeptolide 988 M+NH4
PI=Gerwick
DATACOLLECTOR=Raphael Reher
SMILES=CC(C)[C@H](NC([C@H](CC1=CC=C(O)C=C1)N(C)C([C@H](CC2=CC=CC=C2)N3[C@H](O)CC[C@H](NC(/C(NC4=O)=C\C)=O)C3=O)=O)=O)C(O[C@H](C)[C@@H]4NC([C@H]([C@@H](O)C)NC(C5CCCN5C(CCC)=O)=O)=O)=O
INCHI=
INCHIAUX=
PUBMED=
SUBMITUSER=RReher
LIBRARYQUALITY=3
SPECTRUMID=CCMSLIB00005723395
SCANS=1
80.048935 3348.277832 
80.049614 6019.617188 
80.050293 6827.375488 
80.050972 5106.880371 
80.051651 2299.657227 
87.859169 3097.703613 
87.859947 4869.101562 
87.860733 5377.770508 
87.861511 4223.549805 
87.862297 2127.925781 
89.31105 2617.911377 
89.311852 4765.643555 
89.312653 5583.371582 
89.313454 4484.466309 
89.314255 2242.516602 
91.051682 2364.450684 
91.052505 11729.668945 
91.053329 27203.953125 
91.054153 44084.144531 
91.054977 47340.203125 
91.055801 31348.214844 
91.056625 15422.383789 
91.057449 3687.65625 
91.058273 441.545227 
103.05249 4270.847168 
103.053482 7146.903809 
103.054474 7939.141602 
103.055466 6050.085449 
103.056458 2901.004395 
107.045616 1660.123535 
107.046669 4929.225098 
107.047722 9654.141602 
107.048767 12970.610352 
107.04982 12483.753906 
107.050873 8566.169922 
107.051918 3971.307861 
112.910934 2963.799072 
112.912071 4927.699707 
112.913208 5550.55127 
112.914345 4361.566406 
112.915489 2147.619141 
119.044853 1740.053589 
119.046082 5025.682129 
119.047318 10273.946289 
119.048546 14191.946289 
119.049782 13923.915039 
119.05101 9864.288086 
119.052246 4975.397949 
119.053474 1704.979614 
120.070358 3508.311523 
120.071602 8408.257812 
120.072853 21269.191406 
120.074104 36625.90625 
120.075348 48562.589844 
120.076599 128589.148438 
120.077843 426025.78125 
120.079094 880224.75 
120.080338 1365899.5 
120.081589 1377671.625 
120.08284 890125.25 
120.084084 429684.09375 
120.085335 114188.3125 
120.086578 31523.509766 
120.08783 28139.337891 
120.089081 22074.955078 
120.090324 11188.900391 
120.091576 3767.870605 
121.060974 1407.85144 
121.062241 4768.289062 
121.063499 9172.12793 
121.064766 11967.663086 
121.066025 10994.6875 
121.067291 6939.474609 
121.068558 2749.482666 
135.063629 2543.309082 
135.065125 6294.820312 
135.066605 14141.129883 
135.0681 16058.90625 
135.06958 10631.521484 
135.071075 5028.42627 
135.072571 1991.257568 
136.071213 2502.656982 
136.072723 5920.842285 
136.074219 12717.759766 
136.075729 15743.672852 
136.07724 8140.609375 
136.078735 4565.973633 
136.080246 1653.971558 
139.08316 3706.868896 
139.084717 6435.893555 
139.086273 7685.031738 
139.08783 6570.427246 
139.089386 3948.875244 
140.098495 13802.901367 
140.100067 20910.912109 
140.101639 61561.871094 
140.10321 205020.75 
140.104782 406910.78125 
140.106354 615294.1875 
140.107925 589531.375 
140.109497 372376.75 
140.111069 170678.890625 
140.112656 45297.609375 
140.114227 14594.543945 
140.115799 14246.061523 
140.117371 10788.768555 
140.118942 6126.657227 
140.120514 741.542175 
146.091019 1860.506958 
146.092697 5075.624512 
146.094376 11887.044922 
146.096039 17660.066406 
146.097717 15670.172852 
146.099396 9136.568359 
146.101074 3616.48584 
146.102737 1293.577637 
150.076599 4522.787109 
150.078339 10771.145508 
150.080078 29756.242188 
150.081818 47682.253906 
150.083572 61383.277344 
150.085312 171939.296875 
150.087051 582356.0 
150.088806 1188458.0 
150.090546 1830897.875 
150.092285 1813033.625 
150.09404 1162199.75 
150.095779 553634.5 
150.097519 151684.34375 
150.099258 48359.695312 
150.101013 43317.859375 
150.102753 32188.355469 
150.104492 16639.414062 
150.106247 6028.457031 
153.058594 1156.181152 
153.060394 3172.021973 
153.06218 8517.192383 
153.06398 14635.763672 
153.065781 18080.867188 
153.067566 13680.96875 
153.069366 5973.23877 
153.071167 2609.984863 
153.096313 1575.468506 
153.098114 4676.723633 
153.099915 11314.926758 
153.1017 16214.760742 
153.1035 13458.029297 
153.105301 7704.219727 
153.107101 2759.195801 
155.077362 2262.494141 
155.079193 5197.800781 
155.081024 7633.211914 
155.082855 8032.443359 
155.084686 6195.945801 
155.086517 3442.135986 
158.08606 6005.207031 
158.087936 7153.783691 
158.089828 23644.880859 
158.091705 85786.539062 
158.093597 176165.390625 
158.095474 271898.4375 
158.097366 268976.0 
158.099258 172325.09375 
158.101135 82085.757812 
158.103027 22568.537109 
158.104904 6528.475586 
158.106796 4663.691895 
158.108673 1940.315186 
167.07547 2085.279541 
167.077515 5686.724121 
167.079559 13151.944336 
167.081604 16814.572266 
167.083664 12349.320312 
167.085709 5536.074707 
167.087753 2124.253418 
168.085754 2696.805176 
168.087814 5782.402344 
168.08989 12166.873047 
168.091949 13201.188477 
168.094025 34843.550781 
168.096085 126474.25 
168.098145 317998.15625 
168.10022 525394.8125 
168.10228 613127.1875 
168.104355 436212.8125 
168.106415 237776.234375 
168.10849 72156.90625 
168.11055 20080.466797 
168.112625 10637.768555 
168.114685 8138.208008 
168.11676 2890.298096 
170.087646 2517.075439 
170.089752 11526.420898 
170.091858 37463.808594 
170.093964 65698.140625 
170.096069 87580.757812 
170.098175 70176.546875 
170.100281 41257.597656 
170.102371 14594.530273 
170.104477 3227.536133 
178.080597 1690.013794 
178.08284 5043.339844 
178.085098 7629.903809 
178.087357 7222.957031 
178.0896 4260.580078 
179.069794 1099.21875 
179.072067 3439.678467 
179.074341 13924.862305 
179.076614 46358.652344 
179.078888 84144.085938 
179.081161 116339.046875 
179.083435 96963.59375 
179.085709 57729.808594 
179.087982 21216.347656 
179.090256 5019.07959 
179.092529 1491.980225 
181.088669 975.146057 
181.090988 7188.68457 
181.093292 16741.898438 
181.095612 27098.537109 
181.097916 27310.193359 
181.100235 17126.298828 
181.102539 7742.22998 
181.104858 1742.674561 
187.108398 4235.825684 
187.110825 6854.297852 
187.113251 18604.757812 
187.115677 65565.953125 
187.118103 199745.984375 
187.120529 344616.1875 
187.122955 450815.71875 
187.125381 352421.15625 
187.127808 206481.03125 
187.130249 68690.625 
187.132675 17859.714844 
187.135101 5919.016113 
187.137527 5480.05127 
187.139954 1607.925171 
193.091385 3288.779053 
193.093918 6758.413086 
193.096466 8780.300781 
193.099014 7930.367676 
193.101562 4911.793457 
193.104095 1933.741333 
198.082581 2254.372314 
198.085236 5912.474121 
198.087875 10452.166992 
198.090515 13092.668945 
198.093155 11900.313477 
198.09581 7697.152832 
198.09845 3298.883301 
199.096191 548.503845 
199.098862 4582.653809 
199.101532 14749.37207 
199.104187 25277.658203 
199.106857 32600.486328 
199.109528 25209.144531 
199.112183 14450.045898 
199.114853 4595.585938 
199.117523 2127.249512 
213.092789 2379.062988 
213.095749 7728.353516 
213.098694 14567.603516 
213.101654 20036.052734 
213.104599 15796.499023 
213.107544 8825.125 
213.110504 2036.336304 
215.092499 2822.366943 
215.09549 5018.460938 
215.09848 15039.645508 
215.101471 24912.962891 
215.104462 32438.509766 
215.107452 99943.5625 
215.110458 350168.65625 
215.113449 719093.875 
215.11644 1111067.25 
215.119431 1103090.375 
215.122421 708765.8125 
215.125412 340009.1875 
215.128403 95483.695312 
215.131393 31369.646484 
215.134399 26094.042969 
215.13739 17600.802734 
215.140381 8111.697266 
215.143372 2946.49707 
223.129181 2403.687012 
223.132339 9423.390625 
223.135498 36620.894531 
223.138657 85369.898438 
223.141815 138435.5 
223.144989 152972.328125 
223.148148 104890.96875 
223.151306 55010.886719 
223.154465 16132.830078 
223.157639 4903.152832 
223.160797 3677.467041 
223.163956 3120.646729 
225.111801 910.867798 
225.115005 5872.353027 
225.11821 14271.263672 
225.121414 23203.388672 
225.124619 23750.410156 
225.127823 14968.206055 
225.131027 6541.607422 
225.134232 1182.106445 
226.075958 2640.540283 
226.079178 6323.723145 
226.082397 12344.271484 
226.085632 17553.671875 
226.088852 14467.041016 
226.092072 6717.165039 
226.095291 2961.442383 
241.090332 3213.807373 
241.093887 6363.739258 
241.097443 8410.318359 
241.100983 8092.639648 
241.104538 5750.331543 
241.108093 2895.072021 
241.140671 1781.318115 
241.144211 5686.165527 
241.147766 17678.601562 
241.151321 31329.068359 
241.154877 42274.007812 
241.158417 34373.636719 
241.161972 19819.435547 
241.165527 6231.440918 
243.08754 956.152893 
243.091141 12995.477539 
243.094727 17153.835938 
243.098328 48880.070312 
243.101929 174220.109375 
243.105515 527240.1875 
243.109116 903016.125 
243.112717 1171367.25 
243.116302 908744.125 
243.119904 532204.5625 
243.123489 176396.375 
243.12709 48161.160156 
243.130692 16441.009766 
243.134277 13565.486328 
243.137878 2168.015381 
249.14798 1821.062378 
249.151718 5001.983398 
249.155441 8754.895508 
249.15918 15579.283203 
249.162903 11731.088867 
249.166626 5070.712402 
249.170364 1762.770142 
251.121719 1631.017212 
251.125488 6812.350098 
251.129257 25339.681641 
251.133041 54604.953125 
251.13681 85947.546875 
251.140579 88075.15625 
251.144363 57536.113281 
251.148132 28153.248047 
251.151917 8015.349609 
251.155685 2981.578613 
253.122711 2391.21875 
253.126526 6492.912598 
253.130356 10544.790039 
253.134171 11444.895508 
253.138 8358.592773 
253.141815 3756.580566 
264.130066 4418.286133 
264.134155 6655.030762 
264.138214 7201.621582 
264.142303 5797.456055 
264.146362 3441.135742 
266.136505 2120.053467 
266.140625 5532.737305 
266.144745 9153.390625 
266.148865 10410.454102 
266.152985 8267.582031 
266.157104 4309.101074 
269.113861 163.344543 
269.118042 4392.630371 
269.122223 4497.754883 
269.126434 7161.148438 
269.130615 8633.663086 
269.134796 26014.023438 
269.138977 92681.25 
269.143188 191479.03125 
269.147369 296029.71875 
269.15155 293525.0 
269.155731 188528.890625 
269.159912 90170.96875 
269.164124 25758.259766 
269.168304 9083.898438 
269.172485 7275.722656 
269.176666 4369.351562 
269.180908 6643.634766 
270.146942 2683.657959 
270.151154 5821.924805 
270.155365 9232.201172 
270.159576 10510.341797 
270.163788 8494.34375 
270.167999 4463.5 
277.144806 4263.554688 
277.14917 7413.743164 
277.153564 8782.751953 
277.157928 7461.126953 
277.162323 4489.075684 
278.101288 2307.963135 
278.105682 5845.864258 
278.110077 9440.424805 
278.114471 15863.391602 
278.118866 10238.365234 
278.123291 4602.477051 
278.127686 2234.203125 
295.144409 1979.344238 
295.149231 11928.291992 
295.154022 43238.550781 
295.158844 81961.015625 
295.163666 118564.554688 
295.168457 105308.304688 
295.173279 64649.261719 
295.17807 27182.859375 
295.182892 7242.495605 
295.187714 2406.737305 
298.134827 2821.570557 
298.139709 10246.664062 
298.144592 34122.257812 
298.149475 62716.585938 
298.154358 88023.171875 
298.159241 74568.6875 
298.164124 44486.625 
298.169006 16396.275391 
298.173889 3583.116943 
298.178772 1080.463989 
306.163788 1599.425415 
306.168854 4311.59668 
306.17395 9901.392578 
306.179016 15904.129883 
306.184113 16179.379883 
306.189178 7850.84082 
306.194275 4027.811035 
306.199341 1373.381592 
308.103577 1367.17688 
308.108704 7346.118652 
308.113831 30730.806641 
308.118958 73663.140625 
308.124084 120091.484375 
308.129242 134123.296875 
308.134369 92789.960938 
308.139496 49144.71875 
308.144623 14764.182617 
308.14975 4545.553711 
308.154877 3097.349365 
323.161133 3405.509766 
323.166656 6888.136719 
323.17215 9395.893555 
323.177673 8924.391602 
323.183167 5817.744629 
323.18869 2320.023193 
324.177399 3361.737549 
324.182922 6747.390137 
324.188477 8414.699219 
324.194 6866.834961 
324.199554 3375.685303 
326.123444 2524.530029 
326.129028 7889.594238 
326.134613 32107.121094 
326.140228 71660.101562 
326.145813 114361.726562 
326.151398 119578.382812 
326.156982 78413.359375 
326.162567 38566.789062 
326.168152 10755.939453 
326.173737 3407.717773 
332.178314 1948.952026 
332.184082 5137.331055 
332.189819 7829.699219 
332.195557 8025.412598 
332.201294 5544.571777 
332.207031 2333.319824 
334.151459 1248.880005 
334.157257 6256.021484 
334.163055 21735.472656 
334.168823 40710.082031 
334.174622 58328.773438 
334.18042 50918.242188 
334.186218 30601.119141 
334.192017 11931.53418 
334.197815 2464.704102 
347.15451 2135.434082 
347.160645 5539.574219 
347.166779 9372.275391 
347.172913 17064.992188 
347.179047 12221.188477 
347.185181 5221.586426 
347.191315 1872.373657 
352.165253 871.171082 
352.171509 3494.754883 
352.177765 7341.378906 
352.184052 15330.306641 
352.190308 14132.427734 
352.196594 6942.256348 
352.20285 3280.830566 
388.475677 3094.964844 
388.482941 5559.185547 
388.490204 7225.681641 
388.497467 7206.59668 
388.50473 5533.191895 
388.511993 3110.156738 
391.176758 2633.794678 
391.184113 6757.277344 
391.191437 10671.327148 
391.198792 11326.314453 
391.206116 8158.187988 
391.21344 3621.909912 
417.163757 2940.597168 
417.171844 4824.212402 
417.179932 10800.782227 
417.188019 35270.296875 
417.196106 107921.117188 
417.204193 190314.828125 
417.21225 256905.328125 
417.220337 209880.28125 
417.228424 124449.015625 
417.236511 44480.734375 
417.244598 9991.888672 
417.252686 1472.572266 
420.121033 873.983643 
420.129211 8502.787109 
420.13736 10017.797852 
420.145538 22183.582031 
420.153717 30196.138672 
420.161865 78150.203125 
420.170044 259419.296875 
420.178223 568623.3125 
420.186401 903872.8125 
420.19455 965510.875 
420.202728 645857.0625 
420.210907 327718.6875 
420.219055 89562.132812 
420.227234 22768.664062 
420.235413 17312.960938 
420.243591 14689.191406 
420.25174 6936.52832 
420.259918 1049.679932 
435.165955 2477.325439 
435.174561 4394.722656 
435.183167 5636.259277 
435.191772 16816.064453 
435.200409 59547.613281 
435.209015 132998.4375 
435.217621 212627.890625 
435.226227 229034.828125 
435.234833 154158.546875 
435.243469 78888.789062 
435.252075 22010.003906 
435.260681 5809.029785 
435.269287 4074.084961 
435.277893 2975.637939 
503.17749 2765.434082 
503.188202 6239.509766 
503.198914 20174.269531 
503.209625 52140.285156 
503.220306 87171.5 
503.231018 104135.179688 
503.24173 74466.109375 
503.252441 40208.707031 
503.263153 10501.204102 
503.273865 1185.685913 
552.277954 3774.980225 
552.290283 5977.371582 
552.302612 6818.175781 
552.31488 5993.797852 
552.327209 4206.819336 
685.290039 3539.995605 
685.307068 6382.29541 
685.324097 8283.711914 
685.341125 7880.944336 
685.358154 5314.416504 
703.299622 3920.020752 
703.317261 8272.929688 
703.334961 11471.395508 
703.352661 11265.661133 
703.370361 7920.083008 
703.388062 3790.828125 
729.315247 2569.627686 
729.333923 9686.355469 
729.3526 18219.9375 
729.371277 26149.375 
729.389954 23045.765625 
729.40863 13881.959961 
729.427307 5261.444336 
729.445984 2028.113037 
775.567688 3661.81665 
775.588196 5998.983887 
775.608643 7211.393555 
775.62915 6602.307129 
775.649658 4411.28418 
953.413635 4353.525879 
953.441589 9057.311523 
953.469482 11559.913086 
953.497437 9921.990234 
953.525391 5641.216797 
953.553284 2034.055298 
971.381409 3278.853027 
971.410095 8397.394531 
971.438843 20049.222656 
971.467529 32905.019531 
971.496277 39193.867188 
971.525024 27681.939453 
971.553711 14304.398438 
971.582458 2067.211182 
END IONS

