BEGIN IONS
PEPMASS=283.93
CHARGE=1+
MSLEVEL=2
SOURCE_INSTRUMENT=LC-ESI-Ion Trap
FILENAME=f.mbertin/2189_7.mzXML;
SEQ=*..*
IONMODE=Positive
ORGANISM=GNPS-LIBRARY
NAME=8-oxo-2'-deoxyguanosine M+H
PI=Gerwick
DATACOLLECTOR=M. Bertin
SMILES=C1[C@@H]([C@H](O[C@H]1N2C3=C(C(=O)N=C(N3)N)NC2=O)CO)O
INCHI=nChI=1/C10H13N5O5/c11-9-13-7-6(8(18)14-9)12-10(19)15(7)5-1-3(17)4(2-16)20-5/h3-5,16-17H,1-2H2,(H,12,19)(H3,11,13,14,18)/t3-,4+,5+/m0/s1 Key: HCAJQHYUCKICQH-VPENINKCBS
INCHIAUX=
PUBMED=73318
SUBMITUSER=mbertin
LIBRARYQUALITY=3
SPECTRUMID=CCMSLIB00000424827
SCANS=81
151.899261 15752.0 
166.168488 1670.0 
168.077393 1691669.0 
169.053528 454784.0 
169.933319 1.0 
208.53006 6965.0 
225.014374 2023.0 
233.351593 1041.0 
234.048828 4284.0 
238.218567 11243.0 
242.702576 3470.0 
256.1875 999.0 
265.350159 5543.0 
266.167114 1289.0 
283.387512 1962.0 
END IONS

