BEGIN IONS
PEPMASS=246.13
CHARGE=1+
MSLEVEL=2
SOURCE_INSTRUMENT=LC-ESI-QQQ
FILENAME=f.evgenia_glukhov/Elliot Weiss/JHB_stock_1mg-mL.mzXML;
SEQ=*..*
IONMODE=Positive
ORGANISM=GNPS-LIBRARY
NAME=Mycosporine-Glycine M+H
PI=Gerwick
DATACOLLECTOR=Elliot Weiss
SMILES=COC1=C(CC(CC1=O)(CO)O)NCC(=O)O
INCHI=
INCHIAUX=
PUBMED=26783847
SUBMITUSER=evgenia_glukhov
LIBRARYQUALITY=3
SPECTRUMID=CCMSLIB00005436496
SCANS=768
76.282349 17892.0 
82.318451 22518.0 
84.962372 15289.0 
86.274902 13592.0 
94.261688 13087.0 
99.864532 13663.0 
108.737778 19400.0 
109.350006 4.0 
110.900467 11108.0 
114.231827 9424.0 
120.912338 9576.0 
122.104279 15174.0 
123.644714 54467.0 
124.257797 28376.0 
124.959198 12476.0 
130.131561 5637.0 
130.948547 11422.0 
131.93042 14587.0 
136.130432 141016.0 
137.09726 30547.0 
138.077515 25748.0 
140.189514 111251.0 
141.023682 26272.0 
142.99054 10191.0 
143.61026 5407.0 
145.403748 7500.0 
146.075317 568450.0 
147.009766 23234.0 
147.639984 5.0 
149.979736 177671.0 
151.999939 839924.0 
152.955627 97854.0 
154.113983 273627.0 
154.71701 8634.0 
155.948914 6956.0 
158.243103 16807.0 
164.007812 26192.0 
165.988342 24777.0 
168.071655 375363.0 
169.124695 116280.0 
170.166473 92927.0 
170.799988 2.0 
171.951111 436635.0 
172.929443 28431.0 
176.367798 6452.0 
178.001434 147168.0 
179.28833 8693.0 
179.954376 761899.0 
181.086456 28126.0 
181.948395 434467.0 
184.095947 24977.0 
186.123047 57900.0 
186.749969 4.0 
188.311462 8699.0 
196.050598 669060.0 
197.117065 32913.0 
197.990631 999808.0 
199.151733 70032.0 
200.051575 5164933.0 
201.118683 272696.0 
203.984131 13514.0 
210.089966 607100.0 
211.015991 82972.0 
214.024292 46479.0 
227.972351 880571.0 
229.018921 26253.0 
231.120636 40558.0 
245.837616 21076.0 
END IONS

