BEGIN IONS
PEPMASS=1375.92
CHARGE=2+
MSLEVEL=2
SOURCE_INSTRUMENT=LC-ESI-qTof
FILENAME=t.659579ac8d094017a66565aa6f5eaa16/spectra/specs_ms.mgf;
SEQ=*..*
IONMODE=Positive
ORGANISM=GNPS-LIBRARY
NAME=Swinholide B putative M+H
PI=Gerwick
DATACOLLECTOR=lfnothias
SMILES=COC1CC(C)OC(CCC(C)C(O)C(C)C2OC(=O)\C=C\C(\C)=C\CC(O)CC3OC(CC=C3)CC(OC)C(C)C(O)CC(O)C(C)C(OC(=O)\C=C\C(\C)=C\CC(O)CC3OC(CC=C3)CC(CC(O)CC(O)C2C)OC)C(C)C(O)C(C)CCC2CC(CC(C)O2)OC)C1
INCHI=
INCHIAUX=
PUBMED=
SUBMITUSER=lfnothias
LIBRARYQUALITY=3
SPECTRUMID=CCMSLIB00005467777
SCANS=352
69.033096 199.0 
72.424004 65.0 
79.019402 161.0 
80.998901 86.0 
81.036102 450.0 
83.013199 73.0 
85.031197 346.0 
87.008904 159.0 
91.020798 116.0 
93.037598 547.0 
95.017197 566.0 
95.052498 789.0 
96.055901 140.0 
96.996399 251.0 
97.032898 707.0 
97.069 72.0 
98.036797 99.0 
99.013397 80.0 
99.047897 367.0 
101.029503 95.0 
105.038696 622.0 
107.018402 283.0 
107.054703 916.0 
108.057297 183.0 
109.0355 359.0 
109.071404 472.0 
110.072998 69.0 
111.049301 456.0 
113.030602 300.0 
113.065804 147.0 
115.046799 102.0 
117.0411 225.0 
118.043701 118.0 
119.019402 71.0 
119.056 479.0 
120.059998 100.0 
121.035103 288.0 
121.073303 686.0 
122.076897 153.0 
123.018303 91.0 
123.052299 1806.0 
123.088303 347.0 
124.061302 80.0 
125.0681 631.0 
127.048698 294.0 
129.027695 1693.0 
129.063004 673.0 
131.059006 538.0 
133.039795 331.0 
133.074905 751.0 
134.075806 84.0 
135.018494 76.0 
135.054092 273.0 
135.090607 829.0 
136.089798 147.0 
137.031601 98.0 
137.070206 798.0 
137.102493 215.0 
138.108597 85.0 
139.011795 186.0 
139.048492 317.0 
139.085007 532.0 
140.051498 106.0 
140.087799 104.0 
141.064804 210.0 
141.102005 88.0 
143.059402 389.0 
143.080597 175.0 
145.040207 121.0 
145.0755 504.0 
147.054306 463.0 
147.0914 1189.0 
148.097397 103.0 
149.035706 72.0 
149.071304 335.0 
149.107407 1528.0 
150.0755 105.0 
150.112793 101.0 
151.048401 107.0 
151.086197 625.0 
151.125397 195.0 
152.094299 91.0 
153.065506 155.0 
153.103104 226.0 
154.101593 68.0 
155.058502 142.0 
155.081894 1560.0 
156.075806 304.0 
157.025208 65.0 
157.076202 347.0 
158.079498 86.0 
159.054703 221.0 
159.092407 1124.0 
160.099701 96.0 
161.037292 72.0 
161.068695 179.0 
161.108398 815.0 
162.111603 237.0 
163.046097 69.0 
163.087997 858.0 
163.124695 620.0 
164.090195 217.0 
164.129593 79.0 
165.030396 148.0 
165.066895 362.0 
165.104004 874.0 
167.082108 275.0 
167.119705 764.0 
168.124802 97.0 
169.087906 770.0 
170.080002 96.0 
171.055405 130.0 
171.095001 502.0 
172.094803 101.0 
173.075195 286.0 
173.109604 702.0 
174.074493 80.0 
174.116699 80.0 
175.053802 297.0 
175.0896 165.0 
175.126297 871.0 
176.091003 81.0 
176.129395 138.0 
177.068802 179.0 
177.105896 486.0 
177.141602 341.0 
178.145401 73.0 
179.084305 259.0 
179.121597 596.0 
180.121704 118.0 
181.064606 307.0 
181.099106 1081.0 
181.139008 127.0 
182.103104 80.0 
183.116501 2283.0 
184.087799 78.0 
184.120697 274.0 
185.076401 296.0 
185.112503 189.0 
186.116196 141.0 
187.091202 692.0 
187.126007 572.0 
188.093704 178.0 
188.128601 202.0 
189.070496 210.0 
189.105103 336.0 
189.1427 342.0 
190.107895 121.0 
190.149796 102.0 
191.047806 125.0 
191.086502 244.0 
191.122299 1290.0 
192.125 174.0 
193.065399 424.0 
193.102005 211.0 
193.137802 409.0 
195.117706 848.0 
196.122696 100.0 
197.075897 107.0 
197.111801 400.0 
198.117798 120.0 
199.089294 133.0 
199.126602 307.0 
200.132095 143.0 
201.075394 163.0 
201.104996 118.0 
201.141907 699.0 
202.147598 187.0 
203.085495 240.0 
203.122406 358.0 
203.161499 203.0 
205.103195 296.0 
205.138596 684.0 
206.138702 133.0 
207.084595 100.0 
207.118195 376.0 
207.154999 142.0 
209.111694 208.0 
209.134796 692.0 
210.139603 82.0 
211.083206 81.0 
211.128403 233.0 
212.133102 87.0 
213.106705 191.0 
213.145203 348.0 
214.114502 91.0 
214.148697 75.0 
215.088501 253.0 
215.150497 306.0 
216.154495 78.0 
217.140793 209.0 
217.175705 367.0 
218.175598 111.0 
219.086502 323.0 
219.119598 139.0 
219.156296 584.0 
220.158295 111.0 
221.1008 108.0 
221.129593 174.0 
221.170593 69.0 
222.139496 96.0 
223.075806 73.0 
223.151398 4549.0 
224.154007 534.0 
225.098694 137.0 
225.160294 346.0 
226.149796 65.0 
227.162003 551.0 
228.165894 170.0 
229.106598 131.0 
229.176102 66.0 
231.119995 211.0 
231.160202 257.0 
232.164398 70.0 
233.099503 380.0 
233.1306 76.0 
233.173096 109.0 
235.131195 116.0 
235.186905 195.0 
236.1931 69.0 
237.098206 197.0 
237.145996 152.0 
237.166306 253.0 
238.096695 100.0 
238.173492 111.0 
239.116196 183.0 
239.151199 185.0 
241.103394 222.0 
241.179306 290.0 
243.119507 206.0 
243.158295 258.0 
243.193802 217.0 
244.197906 73.0 
245.100296 88.0 
245.137894 174.0 
245.173004 597.0 
246.143906 76.0 
246.179703 107.0 
247.119705 89.0 
247.180695 179.0 
248.135895 68.0 
249.134598 133.0 
249.171005 628.0 
251.110397 835.0 
251.1436 87.0 
251.183594 635.0 
252.115494 163.0 
252.187302 133.0 
253.0979 92.0 
253.141205 189.0 
253.191101 337.0 
254.206696 79.0 
255.126205 129.0 
255.155106 91.0 
255.182297 144.0 
257.134186 125.0 
257.172699 94.0 
259.11969 85.0 
259.154999 82.0 
259.188812 284.0 
260.151306 92.0 
260.1922 104.0 
261.168396 130.0 
261.204895 278.0 
262.173004 71.0 
263.119812 115.0 
263.184387 3000.0 
264.189789 416.0 
265.127106 90.0 
265.16449 99.0 
265.201904 468.0 
266.203796 194.0 
267.124908 122.0 
267.217194 2054.0 
268.191895 93.0 
268.223602 172.0 
269.123413 319.0 
269.172485 119.0 
269.212097 86.0 
270.131104 75.0 
270.216797 89.0 
271.125214 82.0 
271.156311 296.0 
271.193298 488.0 
273.135986 147.0 
273.208099 198.0 
275.126892 66.0 
275.155396 103.0 
275.189514 193.0 
275.223389 220.0 
276.154999 84.0 
277.127991 382.0 
277.204193 316.0 
278.128296 85.0 
278.198792 115.0 
279.184204 247.0 
279.219208 157.0 
280.252014 221.0 
281.143799 161.0 
281.198303 271.0 
282.200592 96.0 
283.151611 108.0 
283.222809 266.0 
285.176788 93.0 
285.212799 124.0 
286.243591 85.0 
287.151398 208.0 
287.186798 413.0 
289.162598 79.0 
289.2034 912.0 
290.204895 219.0 
291.1409 178.0 
291.216797 304.0 
292.144196 120.0 
293.158905 79.0 
293.231812 244.0 
294.221588 94.0 
295.145905 95.0 
295.213409 632.0 
297.174896 87.0 
297.207306 140.0 
298.226898 68.0 
299.153595 229.0 
301.173492 192.0 
301.244995 298.0 
303.149689 152.0 
303.220612 137.0 
304.151306 120.0 
304.213409 89.0 
305.156586 96.0 
305.196686 231.0 
307.161987 94.0 
307.213806 762.0 
308.222198 120.0 
309.164215 275.0 
309.225586 128.0 
311.226501 199.0 
313.165009 113.0 
313.234497 291.0 
315.116302 67.0 
315.183807 239.0 
316.183899 102.0 
317.1633 129.0 
317.233398 269.0 
318.171692 124.0 
319.173889 150.0 
319.248505 558.0 
320.256195 146.0 
321.229095 358.0 
322.210785 70.0 
323.186493 95.0 
323.220612 111.0 
325.17041 181.0 
327.192291 85.0 
327.256989 98.0 
328.193207 75.0 
328.230896 82.0 
329.163605 142.0 
329.236908 699.0 
331.178192 94.0 
331.252197 142.0 
333.192108 314.0 
334.197815 73.0 
335.172485 159.0 
336.194214 76.0 
337.243988 193.0 
338.253693 93.0 
339.192688 105.0 
339.244507 243.0 
340.241486 72.0 
341.236908 102.0 
342.189697 77.0 
345.191803 70.0 
345.264496 242.0 
347.205597 129.0 
347.250092 400.0 
349.193115 154.0 
349.264191 113.0 
350.273407 84.0 
351.173798 83.0 
351.216003 76.0 
351.279694 321.0 
352.280487 75.0 
355.055115 86.0 
355.215912 174.0 
355.253693 685.0 
356.266815 83.0 
357.197906 125.0 
358.239594 91.0 
359.249115 135.0 
360.296112 95.0 
361.191193 252.0 
361.257507 177.0 
363.193115 72.0 
364.285004 175.0 
365.21701 140.0 
367.223511 73.0 
369.193207 90.0 
369.225311 73.0 
369.293488 77.0 
370.269989 68.0 
371.20929 81.0 
372.216888 95.0 
373.221497 175.0 
373.266602 1070.0 
374.270508 287.0 
375.215515 110.0 
375.247711 114.0 
377.298187 184.0 
379.204895 74.0 
379.291595 88.0 
380.236389 75.0 
380.274109 90.0 
381.230286 118.0 
381.279205 135.0 
383.217102 74.0 
385.224213 81.0 
387.243988 82.0 
387.280914 232.0 
389.21991 152.0 
391.276001 299.0 
392.269989 99.0 
393.222595 79.0 
395.245392 84.0 
395.318298 128.0 
397.223297 99.0 
397.299591 273.0 
399.249298 76.0 
399.280792 118.0 
401.2229 182.0 
402.229614 76.0 
403.280792 74.0 
405.243713 67.0 
405.294006 472.0 
406.299011 194.0 
407.295197 68.0 
411.23761 76.0 
413.263397 183.0 
415.243805 70.0 
415.290405 116.0 
419.277802 71.0 
423.316315 402.0 
424.313293 88.0 
425.309387 160.0 
426.292694 89.0 
427.312195 110.0 
429.266296 68.0 
429.293488 76.0 
431.288086 80.0 
433.277496 72.0 
437.325195 89.0 
441.32959 247.0 
451.324707 76.0 
455.362305 125.0 
457.320007 160.0 
459.343597 65.0 
463.317688 74.0 
465.33139 89.0 
467.2995 88.0 
468.303497 66.0 
469.293915 141.0 
471.32901 71.0 
473.2966 79.0 
473.357086 226.0 
474.363586 103.0 
475.218903 70.0 
475.333588 81.0 
477.301086 123.0 
481.313202 86.0 
483.33609 68.0 
487.303711 99.0 
487.358185 76.0 
491.303986 111.0 
493.329315 68.0 
495.314392 77.0 
501.340515 67.0 
505.362305 79.0 
509.332092 143.0 
512.342896 78.0 
515.320129 65.0 
517.356384 73.0 
519.34552 184.0 
520.3526 170.0 
521.330811 73.0 
523.396484 68.0 
527.34668 118.0 
533.36438 105.0 
537.355103 106.0 
538.353882 156.0 
542.370972 93.0 
545.355103 106.0 
549.38562 84.0 
551.376587 123.0 
555.364319 217.0 
559.383606 221.0 
560.377319 140.0 
561.39679 72.0 
563.375977 452.0 
564.371277 93.0 
565.389893 91.0 
569.380798 285.0 
570.395386 85.0 
577.382629 512.0 
578.406311 87.0 
581.376221 166.0 
587.393005 260.0 
594.406982 65.0 
595.3974 493.0 
596.39563 287.0 
599.3927 113.0 
602.414429 86.0 
605.405212 126.0 
609.4151 208.0 
610.416992 157.0 
611.40332 77.0 
613.410278 270.0 
614.416077 111.0 
617.398193 108.0 
619.415283 272.0 
627.429688 301.0 
628.426208 192.0 
630.42749 103.0 
631.411499 71.0 
632.430725 77.0 
645.389099 71.0 
645.431885 138.0 
646.440674 98.0 
652.454773 70.0 
659.445618 104.0 
660.452087 84.0 
663.449219 163.0 
664.457825 102.0 
669.472412 84.0 
677.4422 93.0 
681.461914 143.0 
685.458496 72.0 
687.480591 89.0 
687.927673 67.0 
688.454285 72.0 
689.347473 76.0 
689.437378 204.0 
689.516479 130.0 
690.436218 171.0 
690.941406 77.0 
691.425415 113.0 
691.487915 154.0 
695.445312 143.0 
696.479919 100.0 
707.394104 69.0 
END IONS

