BEGIN IONS
TITLE=Scan Number: 2547
PEPMASS=214.994
CHARGE=1+
COMPOUNDNAME=Holomycin
LIBRARYQUALITY=3
SMILES=CC(=O)NC1=C2C(=CSS2)NC1=O
INCHIKEY=HBUNPJGMNVQSBX-UHFFFAOYSA-N
INCHI=
MSLEVEL=2
SOURCE_INSTRUMENT=LC-ESI-Orbitrap
FILENAME=f.ktahlan/KT-1/MUN/Ethyl Acetate/SC/14 SC on GSPG EthAc-pos.mzXML;
SEQ=*..*
NOTES=
IONMODE=Positive
ORGANISM=GNPS-LIBRARY
NAME=Holomycin M+H
SPECTRUMID=CCMSLIB00005435934
ACTIVATION=CID
INSTRUMENT=ion trap
SCANS=2547
79.183731 78503.0625 
84.974457 189773.25 
86.006004 437964.6875 
94.926064 76803.726562 
95.443169 67823.617188 
98.005981 166417.84375 
98.106758 71850.640625 
100.776886 71208.632812 
100.951599 327588.03125 
101.016907 150692.0625 
101.508324 76746.101562 
103.962547 175817.046875 
109.040024 109278.890625 
111.001236 382559.96875 
113.016785 485592.8125 
117.978203 737520.8125 
118.561607 74393.890625 
125.016907 88371.796875 
126.000862 495358.0625 
127.963043 141513.984375 
129.011215 918716.25 
136.483475 91941.585938 
139.429047 82996.914062 
141.977982 332324.65625 
143.957367 682273.5625 
144.988998 3121889.5 
153.011887 3784293.25 
153.024399 138478.953125 
153.119644 293565.21875 
155.957275 406155.9375 
167.95752 126127.992188 
168.989304 83086.578125 
169.973068 23308792.0 
171.975845 746676.0 
172.983887 169889952.0 
181.960556 392771.53125 
186.978683 103309.71875 
196.983841 135332960.0 
197.986481 90385.554688 
214.994385 11828762.0 
226.350388 125168.015625 
END IONS

