BEGIN IONS
PEPMASS=501.99
CHARGE=1+
MSLEVEL=2
SOURCE_INSTRUMENT=LC-ESI-Ion Trap
FILENAME=f.evgenia_glukhov/Cyano cultures/M_BOUILLONNII.mzXML;
SEQ=*..*
IONMODE=Positive
ORGANISM=GNPS-LIBRARY
NAME=Columbamide B M+Cl
PI=Gerwick
DATACOLLECTOR=Jenia
SMILES=ClC(Cl)CCCCCC(Cl)CCCC/C=C/CCC(N(C)C(COC)COC(C)=O)=O
INCHI=
INCHIAUX=
PUBMED=26149623
SUBMITUSER=evgenia_glukhov
LIBRARYQUALITY=3
SPECTRUMID=CCMSLIB00000531501
SCANS=810
370.364929 2871.0 
371.85437 2186.0 
372.462891 700.0 
375.700378 5316.0 
406.091797 3412.0 
421.712585 1187.0 
432.313049 1746.0 
434.112122 1851.0 
440.010559 1567.0 
441.227173 7149.0 
442.065979 124046.0 
443.171692 2569.0 
464.365967 1647.0 
466.013794 7649.0 
467.053406 2370.0 
470.038025 36385.0 
471.130371 3310.0 
485.254333 1163.0 
501.190002 1327.0 
502.269958 1311.0 
503.176575 1675.0 
END IONS

