BEGIN IONS
PEPMASS=511.0
CHARGE=0+
MSLEVEL=2
SOURCE_INSTRUMENT=LC-ESI-Hybrid FT
FILENAME=20120412_PAVL_FT_JamaicamideB_MNa_511_qb.1.1..mgf
SEQ=*..*
IONMODE=Positive
ORGANISM=GNPS-LIBRARY
NAME=Jamaicamide B M+Na
PI=Gerwick
DATACOLLECTOR=PAVL
SMILES=CO\C(CCNC(=O)CC\C=C\C(C)CC\C(CCCC#C)=C\Cl)=C\C(=O)N1C(C)C=CC1=O
INCHI=InChI=1S/C27H37ClN2O4/c1-5-6-7-11-23(20-28)15-13-21(2)10-8-9-12-25(31)29-18-17-24(34-4)19-27(33)30-22(3)14-16-26(30)32/h1,8,10,14,16,19-22H,6-7,9,11-13,15,17-18H2,2-4H3,(H,29,31)/b10-8+,23-20+,24-19+
INCHIAUX=KZVHAGNFWJIOMX-GDKFLGFMSA-N
PUBMED=N/A
SUBMITUSER=mwang87
LIBRARYQUALITY=1
SPECTRUMID=CCMSLIB00000001571
SCANS=1
149.678757 11.414951 
151.150528 31.261755 
161.538849 4.751319 
164.399307 38.093311 
166.329788 26.915779 
167.138885 21.131573 
169.322769 65.062454 
170.052521 27.46064 
171.325958 17.56636 
176.37645 12.360032 
177.284729 34.648163 
178.176865 18.00112 
181.386261 16.856337 
185.034576 17.651358 
188.224304 26.675917 
190.182709 27.807642 
195.345367 4.936754 
197.278305 21.69776 
197.886398 159.147705 
201.368362 8.803957 
202.462158 17.774817 
204.39064 25.495613 
205.545044 30.396738 
206.592987 44.91642 
211.237534 28.212223 
212.373352 19.764273 
216.413757 40.331337 
218.21405 153.053711 
222.274902 7.49466 
230.178528 4343.995605 
230.826752 6.826194 
233.733307 37.077721 
245.80806 175.773117 
246.417114 641.48761 
247.381439 332.022888 
248.327637 73.11409 
250.28421 13.36423 
255.415909 23.976311 
256.392578 38.091373 
257.306183 9.968168 
258.260132 37.116577 
258.99231 23.993057 
263.257812 207.474258 
264.340759 40.913174 
265.663147 172.931152 
266.501068 203.380753 
267.431152 50.3414 
268.402191 50.824593 
269.217255 3.364269 
272.252319 72.937996 
273.382507 4.799537 
274.132874 28.918732 
278.086792 14.203806 
282.146484 12.666606 
285.724121 55.227352 
288.432068 13.550109 
289.074158 5.633992 
295.483093 5.692818 
301.40686 46.153801 
302.406433 29.60512 
304.173706 1948.343018 
304.934814 16.069189 
305.623993 31.905111 
308.192749 24.806318 
310.979492 90.706505 
311.751038 97.877525 
315.641724 82.532646 
316.261444 315.111755 
318.274261 8.534803 
320.974487 94.03817 
322.01178 53.228687 
324.043945 10.383373 
326.02887 23.13003 
330.126892 244.042953 
332.153839 7.567372 
334.098907 38.309708 
334.876312 8.220996 
337.389709 72.410973 
344.678406 58.275005 
346.207153 602.261108 
347.33374 5646.371094 
350.280334 217.910568 
351.187592 86.689941 
352.423309 162.389282 
353.059906 38.320351 
354.037384 27.22332 
355.010803 12.524753 
357.372864 161.293121 
359.293091 85.636612 
362.163361 35.361507 
364.20874 54.554283 
365.379822 21.708553 
368.510956 1234.504883 
369.376648 2611.388428 
370.648956 1031.859497 
374.267365 32.340988 
377.072723 31.760895 
378.304138 400.207092 
380.106384 8.307906 
382.15332 773.792419 
383.211304 25.080652 
384.244812 77.316605 
388.344696 588.117004 
390.114929 25.798609 
392.339935 56.519375 
394.859589 18.953575 
396.199707 422.375275 
397.001129 28.715687 
398.107056 26.808804 
399.556793 49.951027 
400.263519 171.188889 
401.226898 59.812103 
402.335205 16.315554 
403.40387 16.935436 
407.212555 23.37192 
414.279724 62148.765625 
415.191376 33.72039 
416.394562 20.846731 
417.009705 14.219017 
418.888519 19.954031 
421.059174 49.759758 
423.123932 28.770599 
425.630707 60.731037 
429.542419 46.196171 
432.264526 169.558441 
433.250397 51.521523 
434.39621 61.401299 
435.174652 17.543663 
436.24649 67.771469 
438.552887 59.404747 
439.52359 40.513641 
442.999603 420.085083 
443.83374 212.676056 
445.540375 27.989519 
449.266754 18.707256 
452.52713 21.270527 
453.306091 44.442089 
453.929596 89.036949 
459.331329 196.541748 
461.839508 2013.714844 
462.7771 378.762024 
463.5047 74.743172 
466.244751 35.282547 
467.414948 79.329086 
468.316254 271.733887 
470.036133 3.946785 
471.174652 442.308838 
475.336914 2116.464355 
479.23761 16767.46875 
481.111511 69.528168 
482.09671 36.166496 
483.282104 481.515045 
488.949554 36.000568 
491.240845 237.964737 
492.32605 81.168236 
493.2052 156.94577 
494.420135 211.217255 
495.719727 161.865372 
496.578491 15.048866 
501.104614 124.842506 
501.82785 45.147354 
528.300903 10.740017 
529.192627 18.086014 
531.0896 28.952562 
533.377502 655.783447 
565.287292 23.35677 
567.338745 6.125443 
574.394226 61.125252 
587.651978 5.553538 
588.374146 72.189438 
588.982544 38.405033 
629.614136 8.108251 
END IONS

