BEGIN IONS
PEPMASS=793.376
CHARGE=1+
MSLEVEL=2
SOURCE_INSTRUMENT=LC-ESI-qTof
FILENAME=1A10_HoiamideC_MNa_793.mzXML
SEQ=*..*
IONMODE=Positive
ORGANISM=GNPS-LIBRARY
NAME=Hoiamide C M+Na
PI=Dorrestein/Gerwick
DATACOLLECTOR=Luzzatto/Garg
SMILES=CCC[C@@H](C)[C@H](O)[C@H](C)[C@@H](O)[C@@H](C)[C@H](CC1=NC(=CS1)C1=N[C@](C)(CS1)C1=N[C@](C)(CS1)C(=O)N[C@@H]([C@@H](C)CC)[C@@H](O)[C@@H](C)C(=O)OCC)OC
INCHI=InChI=1S/C37H62N4O7S3/c1-12-15-21(5)29(42)23(7)30(43)22(6)26(47-11)16-27-38-25(17-49-27)32-40-37(10,19-50-32)35-41-36(9,18-51-35)34(46)39-28(20(4)13-2)31(44)24(8)33(45)48-14-3/h17,20-24,26,28-31,42-44H,12-16,18-19H2,1-11H3,(H,39,46)/t20-,21+,22-,23-,24+,26-,28-,29-,30-,31-,36+,37+/m0/s1
INCHIAUX=STGNMXQTWDOGSE-FUVSMVGWSA-N
PUBMED=20687534
SUBMITUSER=tal_lk
LIBRARYQUALITY=2
SPECTRUMID=CCMSLIB00000070257
SCANS=3034
122.174461 148.0 
123.718651 184.0 
187.401062 144.0 
226.949203 356.0 
239.030273 236.0 
265.958374 148.0 
295.734711 156.0 
319.169342 152.0 
360.188568 152.0 
363.029755 144.0 
363.7883 140.0 
377.186981 164.0 
395.11853 192.0 
408.690765 156.0 
411.8703 228.0 
423.842743 168.0 
426.476379 200.0 
429.505646 180.0 
436.971832 168.0 
449.190918 308.0 
450.193176 152.0 
453.388336 212.0 
459.368286 140.0 
462.178345 188.0 
465.709381 148.0 
473.110321 256.0 
479.510376 160.0 
484.121918 164.0 
488.311401 236.0 
489.098663 228.0 
492.889893 144.0 
501.152924 184.0 
508.187683 152.0 
521.840637 156.0 
535.743591 148.0 
536.16217 176.0 
539.184326 168.0 
540.131775 260.0 
547.066406 140.0 
550.176453 232.0 
550.207886 128.0 
553.928162 156.0 
560.239258 168.0 
561.148438 184.0 
562.160034 148.0 
563.167358 144.0 
566.208008 148.0 
571.954651 272.0 
579.832275 148.0 
584.642456 144.0 
585.147705 148.0 
590.995056 224.0 
591.493286 184.0 
592.316162 208.0 
594.210144 264.0 
596.220337 144.0 
597.882874 268.0 
602.288635 180.0 
607.313416 196.0 
608.210999 176.0 
615.607788 196.0 
617.223022 160.0 
618.815613 160.0 
626.306274 164.0 
632.040161 184.0 
634.277893 144.0 
635.205139 140.0 
635.862183 152.0 
636.720337 200.0 
637.398254 164.0 
642.178894 152.0 
643.863892 160.0 
654.9823 184.0 
655.231812 180.0 
660.339417 188.0 
663.252747 200.0 
667.54071 188.0 
672.196777 140.0 
673.278259 168.0 
673.318726 192.0 
674.287476 140.0 
674.690491 140.0 
684.149292 148.0 
686.904846 140.0 
687.697632 144.0 
689.399536 228.0 
691.025024 180.0 
691.128357 144.0 
691.299927 3096.0 
691.930115 220.0 
692.300171 2432.0 
693.2995 1060.0 
694.299316 316.0 
695.110352 148.0 
695.278198 172.0 
695.481934 96.0 
696.511536 148.0 
701.392639 208.0 
701.677185 168.0 
706.682068 168.0 
712.166565 184.0 
714.605591 160.0 
714.711975 172.0 
714.887512 188.0 
723.744995 212.0 
724.355225 188.0 
727.313965 156.0 
733.195557 168.0 
733.632019 156.0 
734.51062 216.0 
738.311462 188.0 
738.798035 184.0 
739.782532 172.0 
742.940674 148.0 
747.422363 164.0 
748.378784 336.0 
749.010254 216.0 
751.604248 144.0 
751.735168 176.0 
755.208374 168.0 
761.355103 176.0 
762.827148 144.0 
763.789062 248.0 
765.34137 544.0 
766.199219 176.0 
766.331726 136.0 
766.596558 136.0 
767.312012 144.0 
771.130371 212.0 
775.360291 1044.0 
776.352844 1012.0 
777.354614 304.0 
777.424744 160.0 
778.337891 156.0 
780.217468 148.0 
780.745483 144.0 
782.319519 156.0 
786.582214 148.0 
788.201172 188.0 
789.307495 176.0 
789.507751 156.0 
789.760315 156.0 
789.922485 140.0 
790.000732 208.0 
790.348083 216.0 
790.643982 152.0 
790.996887 96.0 
791.352966 248.0 
791.66803 156.0 
791.767639 168.0 
791.825256 132.0 
792.015137 148.0 
792.173523 176.0 
792.342957 204.0 
792.403687 224.0 
792.602051 256.0 
792.691345 160.0 
792.760986 112.0 
792.811829 140.0 
792.942566 200.0 
792.996216 136.0 
793.082764 156.0 
793.13031 172.0 
793.223572 296.0 
793.367981 57832.0 
793.499329 260.0 
793.59314 344.0 
793.64563 128.0 
793.730957 180.0 
793.794067 160.0 
793.861267 120.0 
793.922241 240.0 
794.045349 128.0 
794.180298 188.0 
794.370667 26944.0 
794.550903 136.0 
794.66626 208.0 
794.751709 152.0 
794.819275 368.0 
794.883179 204.0 
795.038208 132.0 
795.083862 192.0 
795.256348 120.0 
795.366333 14116.0 
795.514099 388.0 
795.621582 240.0 
795.797485 120.0 
795.891357 96.0 
796.004639 144.0 
796.092102 296.0 
796.177429 208.0 
796.238953 236.0 
796.368164 4932.0 
796.632507 132.0 
796.750488 212.0 
797.062012 144.0 
797.155579 124.0 
797.218079 184.0 
797.361877 1092.0 
797.602112 236.0 
797.808899 156.0 
797.939453 240.0 
798.016663 100.0 
798.035583 136.0 
798.136597 152.0 
798.354614 460.0 
798.438171 128.0 
798.495361 128.0 
798.581787 276.0 
798.641663 220.0 
799.497864 132.0 
799.638123 316.0 
799.880859 116.0 
800.382019 120.0 
801.202393 136.0 
803.28656 148.0 
815.319153 152.0 
816.711548 168.0 
816.784607 132.0 
834.72522 152.0 
917.455933 144.0 
970.625854 160.0 
1021.131409 144.0 
1074.130249 152.0 
1088.129272 140.0 
1138.846191 188.0 
1185.609253 200.0 
1268.062622 144.0 
1331.768799 144.0 
1647.922729 128.0 
1761.249512 196.0 
1797.790527 188.0 
END IONS

