BEGIN IONS
PEPMASS=446.82
CHARGE=1+
MSLEVEL=2
SOURCE_INSTRUMENT=LC-ESI-Ion Trap
FILENAME=Odemethylbarbamide.mzXML
SEQ=*..*
IONMODE=Positive
ORGANISM=GNPS-LIBRARY
NAME=4-O-DemethylBarbamide M+H
PI=Gerwick
DATACOLLECTOR=A Wodtke
SMILES=C[C@@H](CC(=O)CC(=O)N(C)[C@@H](CC1=CC=CC=C1)C2=NC=CS2)C(Cl)(Cl)Cl
INCHI=InChI=1S/C19H21Cl3N2O2S/c1-13(19(20,21)22)10-15(25)12-17(26)24(2)16(18-23-8-9-27-18)11-14-6-4-3-5-7-14/h3-9,13,16H,10-12H2,1-2H3/t13-,16-/m0/s1
INCHIAUX=N/A
PUBMED=24025162
SUBMITUSER=mwang87
LIBRARYQUALITY=1
SPECTRUMID=CCMSLIB00000006883
SCANS=1
128.060211 410.0 
128.632309 334.0 
133.037308 1301.0 
133.986389 310420.0 
134.804428 1012.0 
142.856277 494.0 
143.754028 301.0 
144.746033 976.0 
146.983276 265.0 
148.847046 248.0 
149.807098 141.0 
153.782196 2249.0 
155.099319 2139.0 
161.029572 818.0 
171.067383 2900.0 
172.885864 8834.0 
173.545151 2293.0 
174.11084 1632.0 
174.787262 1192.0 
178.246307 459.0 
178.901443 1654.0 
180.755737 141.0 
186.061295 5996.0 
187.316147 839.0 
188.035141 205348.0 
189.023468 471.0 
189.800415 282.0 
202.591705 179.0 
204.064148 263.0 
204.791473 35906.0 
206.745743 3779.0 
208.692749 114.0 
209.338989 460.0 
213.005249 529.0 
216.712006 822.0 
217.879257 4511.0 
218.797333 1435015.0 
219.760971 256.0 
223.995392 1132.0 
226.553284 372.0 
227.588898 70.0 
228.099213 790.0 
228.867828 424.0 
230.801773 1531.0 
232.194031 226.0 
235.24585 62.0 
241.782379 57.0 
242.728287 27411.0 
244.829346 209.0 
247.187744 89.0 
252.716095 118.0 
258.654236 587.0 
259.719055 1422.0 
260.556793 170.0 
263.337097 81.0 
275.064453 43.0 
275.85437 36.0 
277.601746 110.0 
291.843384 267.0 
299.539856 447.0 
301.597168 235.0 
319.061035 186.0 
319.903137 108.0 
323.620239 64.0 
324.42337 105.0 
335.96698 73.0 
336.699402 37.0 
339.167603 343.0 
340.7052 81.0 
343.977295 608.0 
355.162781 135.0 
355.806885 71.0 
364.22522 148.0 
371.762695 655.0 
372.750122 368.0 
375.025421 637.0 
377.68573 97.0 
378.539978 567.0 
385.775879 323.0 
387.81897 135.0 
395.123474 73.0 
397.130676 37.0 
401.016357 67.0 
402.97345 235.0 
404.580017 688.0 
407.560486 306.0 
409.975647 30.0 
410.805359 2978.0 
413.471802 177.0 
414.804504 12399.0 
415.765411 17765.0 
428.008606 704.0 
428.663513 711.0 
429.214844 262.0 
431.618958 132.0 
444.660583 123.0 
446.064148 1027.0 
447.286682 242.0 
END IONS

