BEGIN IONS
PEPMASS=672.1
CHARGE=0+
MSLEVEL=2
SOURCE_INSTRUMENT=LC-ESI-Ion Trap
FILENAME=20121108_Amanda_Ger_PalmyramideA_MH_672_qb.1.1..mgf
SEQ=*..*
IONMODE=Positive
ORGANISM=GNPS-LIBRARY
NAME=Palmyramide A M+H
PI=Gerwick
DATACOLLECTOR=Amanda
SMILES=[H][C@@]12CCCN1C(=O)[C@H](CC1=CC=CC=C1)OC(=O)[C@H](C)OC(=O)C(C)(C)[C@@H](CCC)OC(=O)[C@@H](NC(=O)[C@@H](C(C)C)N(C)C2=O)C(C)C
INCHI=InChI=1S/C36H53N3O9/c1-10-15-27-36(7,8)35(45)46-23(6)33(43)47-26(20-24-16-12-11-13-17-24)32(42)39-19-14-18-25(39)31(41)38(9)29(22(4)5)30(40)37-28(21(2)3)34(44)48-27/h11-13,16-17,21-23,25-29H,10,14-15,18-20H2,1-9H3,(H,37,40)/t23-,25-,26-,27+,28-,29+/m0/s1
INCHIAUX=QXWOTWUQMDHDCF-UEPNLWJJSA-N
PUBMED=N/A
SUBMITUSER=mwang87
LIBRARYQUALITY=1
SPECTRUMID=CCMSLIB00000001581
SCANS=1
199.941269 45945.0 
200.487152 9.0 
208.971451 29737.0 
214.874619 4003.0 
217.611862 14746.0 
226.152466 16421.0 
227.879913 374297.0 
230.968491 12833.0 
240.983856 1955.0 
245.449905 8282.0 
256.594086 5653.0 
258.992188 1645.0 
276.962708 3172.0 
279.78894 2094.0 
282.125854 4411.0 
283.787964 1007.0 
289.721405 1914.0 
299.936401 7426.0 
310.10498 4832.0 
313.033691 6399.0 
317.781158 29066.0 
331.382263 2085.0 
331.948975 173929.0 
332.555542 1.0 
335.77829 9267.0 
340.899933 150999.0 
341.913269 11866.0 
343.876465 1628.0 
344.731628 324201.0 
345.956329 705467.0 
346.663727 5.0 
358.908783 22842.0 
362.600952 37303.0 
372.968475 90946.0 
412.621704 2248.0 
413.125671 14153.0 
413.827728 208371.0 
414.444397 1.0 
424.678528 10227.0 
429.985596 469.0 
431.063812 201872.0 
431.865906 43994.0 
441.164856 2786.0 
441.81601 693625.0 
442.547424 16.0 
444.291595 95768.0 
445.028198 5756560.0 
445.833282 26.0 
451.817871 2447.0 
454.440735 17038.0 
455.174194 21903.0 
456.624573 1867.0 
458.103943 107800.0 
459.924408 509451.0 
460.605988 2.0 
473.086853 32492.0 
483.021698 20010.0 
483.886597 3389.0 
491.168823 7650.0 
492.954651 1654.0 
496.529236 33226.0 
511.712097 1497.0 
512.256836 15946.0 
523.083496 9110.0 
524.189453 2418.0 
530.115173 422665.0 
530.610413 597.0 
541.153503 49793.0 
545.070312 7057.0 
554.06366 38549.0 
554.991821 9742497.0 
555.694336 5847.0 
559.072266 89033.0 
571.463623 6964.0 
572.187866 157986.0 
572.999146 19181776.0 
573.697754 1155.0 
586.946106 62314.0 
600.129028 225071.0 
600.761719 3.0 
622.709473 1350.0 
628.232483 34051.0 
630.0271 25879.0 
636.18042 7513.0 
644.148315 260694.0 
644.768555 4.0 
653.959595 226817.0 
654.666626 1.0 
671.069214 1445.0 
END IONS

