BEGIN IONS
PEPMASS=825.451
CHARGE=1+
COMPOUNDNAME=MoNA:763288 Nodularin
LIBRARYQUALITY=3
SMILES=N/A
INCHIKEY=IXBQSRWSVIBXNC-HSKGSTCASA-N
INCHI=InChI=1S/C41H60N8O10/c1-8-31-38(54)48-34(40(57)58)26(5)36(52)46-29(15-12-20-44-41(42)43)37(53)45-28(25(4)35(51)47-30(39(55)56)18-19-33(50)49(31)6)17-16-23(2)21-24(3)32(59-7)22-27-13-10-9-11-14-27/h8-11,13-14,16-17,21,24-26,28-30,32,34H,12,15,18-20,22H2,1-7H3,(H,45,53)(H,46,52)(H,47,51)(H,48,54)(H,55,56)(H,57,58)(H4,42,43,44)/b17-16+,23-21+,31-8-/t24-,25-,26-,28-,29-,30+,32-,34+/m0/s1
MSLEVEL=2
SOURCE_INSTRUMENT=LC-ESI-QFT-LC-ESI-QFT
FILENAME=output_mgf.mgf
SEQ=*..*
IONMODE=
ORGANISM=MONA
NAME=MoNA:763288 Nodularin [M+H]+
PI=MoNA
DATACOLLECTOR=MoNA
PUBMED=N/A
SUBMITUSER=mwang87
TAGS=
SPECTRUMID=CCMSLIB00000566944
SCANS=4195
58.0652 0.13163 
59.0478 0.103848 
60.0557 2.336392 
65.0386 1.278952 
67.0542 0.704243 
68.0495 1.928981 
69.0335 2.495386 
69.0699 0.714397 
70.0651 100.0 
71.0492 1.068907 
72.0807 2.166034 
73.0634 0.115816 
74.0237 0.181968 
74.0602 0.139262 
77.0385 1.881854 
79.0542 7.808316 
80.0495 0.453548 
81.0335 0.247483 
81.0699 0.717815 
82.0288 0.839819 
82.0652 0.55731 
83.0491 1.656666 
84.0444 13.568223 
85.0284 0.886837 
85.076 0.682425 
86.0599 0.883772 
87.0792 1.061224 
89.0384 0.124338 
91.0542 20.208991 
92.062 0.10088 
93.0699 14.595322 
94.0651 1.54347 
95.0491 10.77389 
95.0603 2.533274 
95.0855 1.09928 
96.0444 1.334176 
96.0681 0.1343 
96.0807 1.06404 
97.076 5.378334 
98.0601 5.824957 
99.0189 1.253737 
100.0756 0.764163 
102.0465 0.960117 
102.055 0.496469 
103.0542 72.057297 
104.0577 0.139759 
105.0699 44.947983 
106.0651 0.109195 
107.0855 43.42614 
108.0808 1.126978 
109.0648 2.837143 
109.076 0.216671 
110.0237 0.131094 
110.0714 0.118149 
110.0963 0.696828 
112.0869 11.669976 
113.0234 1.720504 
113.0709 2.552284 
114.0547 0.856325 
114.1026 2.723708 
115.0542 9.130961 
115.0866 7.703725 
116.062 0.583389 
116.0706 1.604324 
117.0699 17.080171 
118.0653 0.217001 
119.0604 0.737039 
119.0855 2.288043 
120.057 1.633096 
120.0808 2.538861 
120.0934 0.182645 
121.0648 0.225289 
121.1012 0.745919 
122.0601 0.230343 
122.0965 0.597822 
123.0553 0.505702 
123.0802 0.144417 
123.0917 0.12421 
124.0392 0.450139 
124.0757 2.989472 
124.112 0.575261 
125.0709 3.444585 
126.055 1.074053 
126.0662 0.133589 
126.0914 1.441107 
127.0866 2.618383 
127.1232 0.196674 
128.0343 0.229791 
128.062 0.553449 
129.0698 0.941974 
130.0499 3.151281 
130.0652 0.16889 
130.0778 0.237755 
130.0975 1.648553 
131.0855 1.490628 
132.0807 0.211552 
133.0647 0.145376 
133.1011 1.298739 
135.0804 46.604968 
135.0912 3.261881 
135.1167 14.171961 
136.0756 1.92818 
136.0995 0.497246 
137.0711 0.124838 
137.1074 1.150229 
138.0661 0.538005 
138.0913 1.009365 
139.0978 1.045921 
139.1228 0.249579 
140.0703 0.436729 
140.0817 2.920542 
141.0657 6.080253 
142.0863 0.126412 
142.0976 0.140735 
143.0855 1.066783 
145.1014 1.558304 
146.0965 0.160587 
146.1091 0.208617 
147.0807 0.213559 
147.0921 0.188165 
147.1172 0.212626 
148.112 0.125476 
150.0918 0.186686 
150.1027 0.131787 
151.0867 0.597348 
152.0706 2.812149 
152.1182 0.486311 
153.0658 0.496776 
153.1021 4.954973 
154.0862 0.779337 
155.0855 0.232655 
155.118 0.48113 
156.1244 0.162912 
157.1083 2.087482 
158.0925 0.653754 
159.1169 0.201172 
161.0959 0.178211 
162.0921 0.142879 
162.1027 0.534289 
163.0865 4.34867 
163.1117 3.482466 
164.0703 1.061029 
164.1184 0.603885 
165.1021 2.334402 
166.0864 0.641686 
167.0858 0.183732 
170.0811 0.52571 
170.0969 0.161743 
171.0763 0.91148 
171.1125 0.156245 
172.1121 0.775889 
173.0961 0.275022 
174.1353 0.813606 
176.1068 0.187212 
176.1428 0.132956 
178.0973 0.900622 
180.0933 0.185816 
180.1131 1.034674 
181.097 15.33964 
182.0812 2.866477 
182.1036 1.888906 
182.1288 0.443875 
183.0876 1.251631 
183.1123 1.176748 
186.0916 0.158443 
188.1066 0.207864 
192.1133 0.615512 
195.1241 0.157332 
197.1074 0.151305 
198.1237 0.484741 
199.1073 1.265736 
200.1141 1.748352 
201.0979 1.566424 
204.1383 0.231425 
206.0925 0.587359 
207.0769 0.202647 
208.1081 0.635228 
209.092 7.887445 
210.0762 0.916981 
210.1243 0.110568 
213.1355 0.11795 
218.1545 0.133427 
223.1193 0.478667 
224.1027 0.43827 
225.0872 0.512649 
225.135 0.187533 
226.1183 1.17799 
227.1025 5.947982 
228.0868 0.276039 
249.1231 0.215563 
253.0819 0.784921 
267.1344 0.434625 
END IONS

