BEGIN IONS
PEPMASS=814.484
CHARGE=1+
MSLEVEL=2
SOURCE_INSTRUMENT=LC-ESI-qTof
FILENAME=JT_ApratoxinG_MH_814.mzXML
SEQ=*..*
IONMODE=Positive
ORGANISM=GNPS-LIBRARY
NAME=Apratoxin G M+H
PI=Dorrestein/Gerwick
DATACOLLECTOR=Luzzatto/Garg
SMILES=COC1=CC=C(C[C@@H]2NC(=O)\C(C)=C/C3CSC(=N3)[C@@H](C)[C@@H](O)C[C@H](C)C[C@H](OC(=O)[C@H](C)N(C)C(=O)[C@H](C(C)C)N(C)C(=O)[C@H](C)N(C)C2=O)C(C)(C)C)C=C1
INCHI=InChI=1S/C43H67N5O8S/c1-24(2)36-41(53)47(12)29(7)42(54)56-35(43(8,9)10)20-25(3)19-34(49)27(5)38-44-31(23-57-38)21-26(4)37(50)45-33(22-30-15-17-32(55-14)18-16-30)40(52)46(11)28(6)39(51)48(36)13/h15-18,21,24-25,27-29,31,33-36,49H,19-20,22-23H2,1-14H3,(H,45,50)/b26-21-/t25-,27-,28-,29-,31?,33-,34-,35-,36-/m0/s1
INCHIAUX=QYPABEUQMXOENV-NMOSBCMXSA-N
PUBMED=20512792
SUBMITUSER=tal_lk
LIBRARYQUALITY=2
SPECTRUMID=CCMSLIB00000070289
SCANS=2142
104.070198 140.0 
127.018311 244.0 
133.988586 204.0 
137.128372 208.0 
168.104584 164.0 
199.140045 168.0 
211.460709 148.0 
226.947464 320.0 
228.962097 164.0 
236.874298 188.0 
265.935242 152.0 
318.938721 228.0 
350.288513 172.0 
355.15329 128.0 
359.143402 480.0 
371.290009 152.0 
444.203827 320.0 
444.303009 176.0 
445.207092 208.0 
446.840454 160.0 
513.276001 184.0 
528.838013 180.0 
530.876648 208.0 
549.89093 168.0 
557.284607 452.0 
565.830688 148.0 
621.786987 188.0 
650.761963 160.0 
654.779053 160.0 
656.37915 144.0 
687.767639 160.0 
696.637756 148.0 
705.781494 172.0 
710.213989 204.0 
712.390259 164.0 
718.3255 164.0 
718.693604 184.0 
722.048157 168.0 
722.791077 132.0 
726.788879 192.0 
733.942444 204.0 
735.712036 200.0 
736.214111 204.0 
747.402222 152.0 
750.796509 96.0 
751.330322 140.0 
752.514587 228.0 
753.716187 148.0 
757.753967 224.0 
764.749756 156.0 
772.457886 152.0 
778.504517 164.0 
793.844727 144.0 
814.476685 1220.0 
815.478638 800.0 
816.474426 264.0 
822.358154 204.0 
1185.688232 160.0 
1219.965088 160.0 
END IONS

