BEGIN IONS
PEPMASS=615.368
CHARGE=1+
MSLEVEL=2
SOURCE_INSTRUMENT=LC-ESI-Ion Trap
FILENAME=f.RReher/gallinamide/GallinamideA_M+Na_F4MeOH1_4.49_615.3679.mgf;
SEQ=*..*
IONMODE=Positive
ORGANISM=GNPS-LIBRARY
NAME=Gallinamide A M+Na
PI=Gerwick
DATACOLLECTOR=Reher
SMILES=CC[C@@H]([C@@H](C(O[C@H](C(N[C@H](C(N[C@H](/C=C/C(N1[C@H](C(OC)=CC1=O)C)=O)C)=O)CC(C)C)=O)CC(C)C)=O)N(C)C)C
INCHI=
INCHIAUX=
PUBMED=
SUBMITUSER=RReher
LIBRARYQUALITY=3
SPECTRUMID=CCMSLIB00005721064
SCANS=1
202.137024 7593.0 
246.167511 29820.0 
346.945312 16700.0 
360.004272 72286.0 
360.666626 1.0 
363.030518 17944.0 
369.951782 114928.0 
370.562866 8221.0 
414.25946 457348.0 
415.06665 2.0 
456.142517 120357.0 
457.250366 35522.0 
458.23645 156749.0 
458.899963 2.0 
471.244507 14626.0 
473.567505 247408.0 
474.255005 6907592.0 
474.98645 7553.0 
488.027771 81163.0 
502.291321 164317.0 
502.952332 7.0 
557.411133 10828.0 
558.185791 135942.0 
571.143555 29595.0 
615.387817 112718.0 
END IONS

