BEGIN IONS
PEPMASS=1104.57
CHARGE=1+
MSLEVEL=2
SOURCE_INSTRUMENT=LC-ESI-qTof
FILENAME=f.RReher/Culebra/CUR6APR19-1/High_Res_Dorrestein/MaXis/pure_compounds/Kurahamide/2286_crude_3.39min_1104.5696_MS2_M+H_Kurahamide.mgf;
SEQ=*..*
IONMODE=Positive
ORGANISM=GNPS-LIBRARY
NAME=Kurahamide M+H
PI=Gerwick
DATACOLLECTOR=Raphael Reher
SMILES=CCCC(N[C@H](C(N[C@H](C(N[C@H]1[C@@H](C)OC([C@H](C(C)C)NC([C@H](CC2=CC=C(O)C=C2)N(C)C([C@H](CC3=CC=CC=C3)N4C(O)CC[C@H](NC(/C(NC1=O)=C\C)=O)C4=O)=O)=O)=O)=O)[C@H](OC([C@@H](NC(CCC)=O)C)=O)C)=O)C)=O
INCHI=
INCHIAUX=
PUBMED=
SUBMITUSER=RReher
LIBRARYQUALITY=3
SPECTRUMID=CCMSLIB00005720217
SCANS=1
74.029373 275.0 
91.02713 119.0 
110.033081 120.0 
114.067535 96.0 
120.055283 1939.0 
121.058296 151.0 
127.061096 80.0 
128.063492 79.0 
132.058899 77.0 
139.063522 103.0 
142.064713 986.0 
143.067627 97.0 
150.069321 11864.0 
151.0728 990.0 
153.043457 82.0 
154.054932 82.0 
154.07576 74.0 
155.061081 106.0 
157.078186 157.0 
158.075302 742.0 
159.078339 95.0 
167.061539 387.0 
168.05722 68.0 
170.077896 103.0 
171.082062 97.0 
178.074738 69.0 
179.061066 401.0 
187.065308 72.0 
187.10585 3386.0 
188.108109 365.0 
189.108704 76.0 
196.08696 67.0 
197.111221 2169.0 
198.113937 262.0 
199.089417 183.0 
204.045441 119.0 
206.065109 70.0 
206.118393 70.0 
215.103348 9037.0 
215.12001 9103.0 
215.636047 64.0 
216.106842 1420.0 
217.106796 80.0 
217.1297 118.0 
219.060593 72.0 
222.106766 158.0 
225.10759 1698.0 
226.07106 109.0 
226.111267 139.0 
227.103134 65.0 
238.103363 106.0 
239.104279 82.0 
241.082703 86.0 
241.122147 63.0 
242.099228 138.0 
243.098495 22524.0 
244.101807 3086.0 
245.106796 418.0 
245.984848 82.0 
248.109161 66.0 
249.142471 213.0 
250.105408 1235.0 
251.109512 239.0 
253.116364 100.0 
261.108612 129.0 
262.114014 90.0 
268.116394 587.0 
269.116394 191.0 
273.110046 67.0 
277.141113 198.0 
280.120941 93.0 
280.14917 70.0 
282.13974 170.0 
286.168915 75.0 
295.154938 3818.0 
296.156891 554.0 
298.144409 1624.0 
299.143494 132.0 
307.122864 106.0 
308.117188 1609.0 
308.150238 3591.0 
309.152588 542.0 
314.153442 128.0 
321.147156 213.0 
323.165436 228.0 
325.145538 137.0 
326.141876 3802.0 
327.144684 764.0 
328.141785 103.0 
328.171204 111.0 
332.187286 150.0 
345.150146 81.0 
347.169434 192.0 
350.195984 531.0 
351.164673 264.0 
351.204224 210.0 
352.158508 97.0 
356.179138 89.0 
363.160278 110.0 
364.156677 71.0 
365.180817 159.0 
366.134888 66.0 
373.178101 318.0 
374.183136 118.0 
375.161987 149.0 
375.194519 72.0 
376.169403 84.0 
384.206177 11231.0 
385.210144 1950.0 
386.21524 357.0 
391.190094 6628.0 
392.193756 2127.0 
393.196442 288.0 
399.196747 93.0 
406.190491 72.0 
408.208466 63.0 
409.202637 5341.0 
410.203094 1637.0 
411.206848 211.0 
415.204987 63.0 
420.079651 63.0 
420.186005 52883.0 
420.39389 87.0 
421.18985 13571.0 
421.807343 66.0 
422.190857 1875.0 
423.195251 336.0 
425.233185 238.0 
427.199402 132.0 
435.21463 73.0 
437.251709 99.0 
439.222229 98.0 
442.233185 70.0 
444.218842 114.0 
445.23999 113.0 
461.233826 377.0 
462.237305 154.0 
467.24762 381.0 
468.250183 156.0 
475.177704 99.0 
480.238434 234.0 
481.254181 84.0 
485.258789 172.0 
486.270355 106.0 
492.216522 459.0 
492.710571 98.0 
493.218414 112.0 
498.116028 107.0 
500.091736 137.0 
503.125488 109.0 
503.226349 7193.0 
504.228302 2230.0 
505.230133 423.0 
506.232452 68.0 
509.254089 77.0 
510.226196 77.0 
516.22052 63.0 
519.256531 309.0 
520.265686 105.0 
524.269958 167.0 
532.2724 132.0 
537.269043 616.0 
538.228821 89.0 
538.273071 263.0 
539.270386 82.0 
550.285034 8390.0 
551.287964 2436.0 
552.291138 735.0 
554.7547 122.0 
555.2677 77.0 
568.295105 380.0 
569.304504 143.0 
570.292664 85.0 
571.755554 429.0 
572.251709 233.0 
572.76416 303.0 
586.269043 173.0 
589.30249 71.0 
602.317566 778.0 
603.317078 299.0 
604.302795 78.0 
605.287842 133.0 
620.319702 282.0 
621.315674 109.0 
633.301208 756.0 
634.299438 246.0 
635.31012 69.0 
651.31897 160.0 
652.297974 74.0 
654.07666 79.0 
657.595581 67.0 
658.319641 120.0 
665.346863 80.0 
667.36554 698.0 
668.37323 247.0 
669.291504 72.0 
669.356995 118.0 
675.351074 110.0 
685.346802 1033.0 
686.355225 418.0 
687.375549 109.0 
703.344971 1365.0 
704.348572 842.0 
705.361877 214.0 
732.336548 90.0 
748.404724 65.0 
750.37738 74.0 
751.41333 85.0 
761.409485 277.0 
762.421021 178.0 
769.355042 73.0 
775.395142 82.0 
777.165222 63.0 
780.409668 67.0 
783.40332 85.0 
786.389404 256.0 
787.390015 123.0 
792.388733 246.0 
793.394775 308.0 
794.406067 77.0 
804.400513 118.0 
805.15509 65.0 
810.393494 317.0 
811.378601 140.0 
811.432495 179.0 
814.377563 134.0 
815.092224 69.0 
828.392761 137.0 
829.403625 146.0 
844.4505 3439.0 
845.452881 1867.0 
846.448792 422.0 
847.450623 101.0 
886.62085 69.0 
899.483337 92.0 
909.477844 135.0 
910.46167 211.0 
927.467773 3232.0 
928.470825 2031.0 
929.471741 621.0 
945.344299 63.0 
945.477112 1622.0 
946.478455 851.0 
947.481506 365.0 
967.428955 74.0 
969.491516 142.0 
970.482422 111.0 
982.125 95.0 
983.418274 66.0 
987.483948 304.0 
988.497803 217.0 
989.481262 75.0 
991.520386 70.0 
1013.473877 285.0 
1014.459473 93.0 
1014.515808 66.0 
1015.4104 89.0 
1016.522156 111.0 
1017.503479 96.0 
1019.493652 207.0 
1041.519043 89.0 
1043.625366 76.0 
1045.423218 63.0 
1058.561401 253.0 
1059.398193 71.0 
1059.466187 72.0 
1059.558594 231.0 
1068.537354 127.0 
1069.552368 97.0 
1070.573242 69.0 
1086.254517 90.0 
1086.559814 16777.0 
1087.401733 138.0 
1087.560913 11123.0 
1087.787964 83.0 
1088.565674 3765.0 
1089.56665 850.0 
1090.583374 87.0 
1091.576782 74.0 
1102.588989 80.0 
1103.348022 84.0 
1103.467285 878.0 
1104.478271 405.0 
1105.473511 1021.0 
1106.484985 404.0 
1107.46936 138.0 
1108.503052 65.0 
1109.297729 167.0 
1127.55249 88.0 
1478.414795 135.0 
END IONS

