BEGIN IONS
PEPMASS=317.14
CHARGE=1+
MSLEVEL=2
SOURCE_INSTRUMENT=LC-ESI-Ion Trap
FILENAME=f.evgenia_glukhov/Standards/Kalkipyrone_B.mzXML;
SEQ=*..*
IONMODE=Positive
ORGANISM=GNPS-LIBRARY
NAME=Kalkipyrone B M+H-H2O
PI=Gerwick
DATACOLLECTOR=Evgenia Glukhov
SMILES=C[C@@H](O)/C=C(C)/CCC/C(C)=C/CC(OC(OC)=C1C)=C(C)C1=O
INCHI=
INCHIAUX=
PUBMED=26632528
SUBMITUSER=evgenia_glukhov
LIBRARYQUALITY=3
SPECTRUMID=CCMSLIB00004722223
SCANS=80
91.049805 49273.0 
93.11116 275261.0 
93.733322 3.0 
94.979263 199454.0 
97.27179 75589.0 
102.983322 35794.0 
105.038208 94216.0 
107.077408 1589893.0 
108.984589 637434.0 
109.599991 4.0 
110.699722 126633.0 
111.459244 86154.0 
116.786758 27588.0 
119.12558 203869.0 
121.04306 2309009.0 
121.84201 46.0 
123.006851 269799.0 
125.039505 239492.0 
125.766663 2.0 
127.062836 38781.0 
129.897583 28533.0 
132.964722 64278.0 
133.616638 8.0 
134.991333 1687279.0 
136.133453 45112.0 
136.910614 343953.0 
137.599976 5.0 
138.938873 715566.0 
145.005035 277127.0 
145.647583 7.0 
147.014282 417511.0 
148.465179 58114.0 
149.147064 375722.0 
149.799988 6.0 
151.09671 164104.0 
152.857483 1381640.0 
153.583313 8.0 
155.108521 3979558.0 
156.017761 15.0 
157.127075 165479.0 
159.048462 399831.0 
161.029968 247701.0 
162.262604 176185.0 
162.983521 5618184.0 
163.864929 41101.0 
165.018982 129643.0 
165.622192 6.0 
166.928223 631109.0 
168.059204 33427.0 
168.961182 332787.0 
169.606445 31.0 
171.151733 105988.0 
171.766663 6.0 
173.11084 491322.0 
174.033325 2.0 
175.005371 622267.0 
175.777771 3.0 
177.001099 897372.0 
177.760468 27.0 
179.047577 162740.0 
180.905579 29100.0 
182.831482 146999.0 
183.456116 19.0 
185.022064 112705.0 
186.019653 29229.0 
187.085602 1084064.0 
188.149841 55987.0 
189.021912 685997.0 
190.505829 184357.0 
191.141235 354665.0 
192.901764 437814.0 
193.666656 4.0 
194.961395 839589.0 
195.883331 4.0 
197.186401 295207.0 
197.799988 3.0 
199.235901 165022.0 
200.252075 24129.0 
200.982727 802477.0 
202.179443 24555.0 
203.049744 935316.0 
204.253601 157459.0 
205.049042 673997.0 
206.950684 525998.0 
208.227539 122109.0 
208.939545 5794851.0 
209.828552 56.0 
211.094025 256824.0 
213.033905 154180.0 
215.023285 1329129.0 
215.809479 7.0 
216.979675 140181.0 
218.32428 26188.0 
218.935455 380933.0 
219.733307 1.0 
220.932526 1021254.0 
221.622528 65.0 
223.010651 2965979.0 
223.980682 15528.0 
225.021545 103961.0 
226.112488 36092.0 
229.039856 875186.0 
231.179291 42178.0 
232.957031 7567366.0 
233.68573 138159.0 
235.029755 2120534.0 
235.844421 9.0 
237.107666 87734.0 
237.896851 21193.0 
239.026794 261143.0 
239.733307 1.0 
241.15863 107206.0 
242.090149 47410.0 
242.993866 1341604.0 
243.628998 78.0 
244.698761 64035.0 
245.968811 89591.0 
246.978882 1609348.0 
247.745422 11.0 
248.982239 990446.0 
249.813995 38.0 
253.049866 171680.0 
255.138489 65905.0 
257.122864 665295.0 
260.773682 1082286.0 
261.634399 31.0 
263.00769 269292.0 
267.373535 25422.0 
270.346741 153892.0 
271.045776 197970.0 
272.633789 81262.0 
274.973572 335875.0 
275.81665 4.0 
284.629822 137833.0 
289.002441 67082.0 
298.944458 202692.0 
316.964539 93521.0 
318.067078 21019.0 
END IONS

