BEGIN IONS
PEPMASS=980.509
CHARGE=1+
MSLEVEL=2
SOURCE_INSTRUMENT=LC-ESI-Orbitrap
FILENAME=f.RReher/Culebra/pure_compounds/963_Molassamide/Molassamide_MS2_M+NH4_QE.mgf;
SEQ=*..*
IONMODE=Positive
ORGANISM=GNPS-LIBRARY
NAME=Molassamide M+NH4
PI=Gerwick
DATACOLLECTOR=Raphael Reher
SMILES=CCCC(NC(C(NC(C(NC1C(C)OC(C(C(C)C)NC(C(CC2=CC=C(O)C=C2)N(C)C(C(CC3=CC=CC=C3)N4C(O)CCC(NC(/C(NC1=O)=C\C)=O)C4=O)=O)=O)=O)=O)C(O)C)=O)C)=O
INCHI=
INCHIAUX=
PUBMED=
SUBMITUSER=RReher
LIBRARYQUALITY=3
SPECTRUMID=CCMSLIB00005723405
SCANS=1
80.049644 3483.354004 
80.050323 5373.86377 
80.051003 5622.459961 
80.051682 4186.098633 
80.052361 2146.987549 
91.052139 2969.55127 
91.052963 11445.272461 
91.053787 20388.222656 
91.054611 24596.482422 
91.055435 17508.388672 
91.056259 9508.448242 
91.057083 3291.881836 
91.057907 1021.713318 
91.13913 2398.61377 
91.139961 3917.057129 
91.140785 4751.614746 
91.141609 4239.069336 
91.142433 2596.518066 
91.944939 2297.124512 
91.945778 5197.981445 
91.946617 7205.313965 
91.947449 6814.98291 
103.052528 2681.273438 
103.05352 4663.040527 
103.054512 5706.972656 
103.055504 5107.244629 
103.056496 3250.10791 
107.046707 2014.706909 
107.04776 4015.374756 
107.048813 5501.922852 
107.049858 5364.756836 
107.050911 3580.837402 
111.08976 2304.293213 
111.090874 4646.092285 
111.09198 5774.051758 
111.093094 4754.438477 
111.0942 2435.735352 
113.069321 2900.46875 
113.070465 5180.363281 
113.071602 6052.107422 
113.072746 4848.341797 
113.073883 2497.785645 
114.088829 2583.862061 
114.089989 6193.588867 
114.091141 9200.418945 
114.0923 9381.370117 
114.093452 6568.274414 
114.094612 2855.427246 
119.046127 1830.464355 
119.047363 4842.408203 
119.048592 7342.066895 
119.049828 7375.101562 
119.051056 4949.674316 
119.052292 1934.391846 
120.070236 978.262329 
120.071487 3306.350586 
120.072739 9934.015625 
120.073982 16536.072266 
120.075233 17123.605469 
120.076477 52713.542969 
120.077728 199831.1875 
120.078972 452216.8125 
120.080223 725029.9375 
120.081474 778216.9375 
120.082718 523400.96875 
120.083969 269232.78125 
120.085213 81131.289062 
120.086464 27584.380859 
120.087715 19503.763672 
120.088959 12916.486328 
120.09021 4325.301758 
120.091454 1548.218018 
135.063675 3703.116943 
135.06517 7836.609375 
135.066666 11813.991211 
135.068146 12926.581055 
135.069641 10279.783203 
135.071121 5740.975098 
135.072617 2163.333252 
139.08165 1160.818481 
139.083206 7358.818848 
139.084763 15011.453125 
139.086319 21899.65625 
139.087875 18818.265625 
139.089432 11122.602539 
139.090988 3913.681396 
139.092545 1665.815552 
141.244156 2548.231201 
141.245743 4209.485352 
141.247345 4909.918945 
141.248932 4095.846924 
141.250519 2216.791748 
142.08049 2381.515869 
142.082092 11376.163086 
142.083694 24903.509766 
142.085297 39482.695312 
142.086914 40500.800781 
142.088516 26348.917969 
142.090118 12848.449219 
142.091721 3263.544189 
142.093338 369.864166 
146.09108 1949.420044 
146.092743 5591.839355 
146.094421 11050.396484 
146.0961 16012.166992 
146.097778 13699.613281 
146.099442 7937.895996 
146.10112 2909.149414 
146.102798 1008.038025 
150.076477 2736.221191 
150.078232 7375.583496 
150.079971 15961.490234 
150.081711 22705.853516 
150.08345 24671.712891 
150.085205 78887.5 
150.086945 292580.25 
150.088684 622654.25 
150.090439 976811.25 
150.092178 996989.5 
150.093918 650856.6875 
150.095657 322004.9375 
150.097412 95505.632812 
150.099152 33725.578125 
150.100891 25178.992188 
150.102646 15418.473633 
150.104385 5950.519043 
150.106125 2517.029785 
153.06044 1145.331055 
153.062241 3546.026367 
153.064041 9140.579102 
153.065842 14437.94043 
153.067627 13793.326172 
153.069427 8412.960938 
153.071228 3359.133057 
153.073013 1224.409546 
155.075592 1693.771484 
155.077423 4367.544922 
155.079254 7758.813477 
155.081085 9621.961914 
155.082916 8369.915039 
155.084747 4815.85498 
155.086578 1414.249146 
157.091644 2088.28125 
157.093506 5013.149902 
157.095383 8132.660645 
157.097244 9379.905273 
157.099106 7849.023926 
157.100983 4643.501465 
157.102844 1795.554443 
158.084167 2409.044678 
158.08606 3125.552734 
158.087936 3392.406738 
158.089828 11470.703125 
158.091721 43666.90625 
158.093597 92762.6875 
158.09549 145328.859375 
158.097366 147219.703125 
158.099258 95388.546875 
158.101135 46513.601562 
158.103027 12850.100586 
158.104919 3760.334229 
158.106796 2789.304932 
167.073471 2465.374756 
167.075516 11222.542969 
167.07756 32389.845703 
167.079605 55098.6875 
167.081665 68892.328125 
167.08371 51789.296875 
167.085754 29570.849609 
167.087799 9232.621094 
167.089859 1881.054443 
170.087555 925.625244 
170.089661 5425.675293 
170.091766 20313.972656 
170.093872 38113.820312 
170.095978 54227.703125 
170.098083 46940.492188 
170.100189 28307.203125 
170.102295 11390.713867 
170.104401 2549.181641 
170.473495 2452.507324 
170.475616 4363.244141 
170.477722 5274.897461 
170.479828 4588.868652 
170.481949 2770.899658 
173.085144 1776.841431 
173.087311 4709.867676 
173.089462 7836.426758 
173.091629 13233.621094 
173.093796 9034.864258 
173.095947 4348.916504 
173.098114 1742.407715 
179.072281 1313.139893 
179.074554 8102.035645 
179.076828 27721.279297 
179.079102 51106.933594 
179.081375 71516.109375 
179.083633 60099.25 
179.085907 35718.769531 
179.088181 13031.407227 
179.090454 2595.349365 
187.105942 1891.999023 
187.108368 4561.081055 
187.110794 4746.786621 
187.11322 11210.145508 
187.115646 40387.476562 
187.118073 124598.554688 
187.120499 215097.515625 
187.122925 282067.75 
187.125351 221836.25 
187.127792 130192.65625 
187.130219 44368.964844 
187.132645 11564.203125 
187.135071 3101.307373 
187.137497 1675.883423 
193.091446 2803.69873 
193.093994 5164.03125 
193.096542 6492.794922 
193.099091 6084.119629 
193.101624 4331.953125 
193.104172 2259.514648 
194.087814 3120.011963 
194.090393 5266.1875 
194.092957 5727.245117 
194.09552 4147.520996 
194.098083 1752.69812 
197.121017 1277.898315 
197.123642 4426.746094 
197.126266 8111.241699 
197.128891 9437.458008 
197.131516 7263.251465 
197.13414 3402.109131 
198.082657 1590.935181 
198.085297 4396.587891 
198.087952 8307.318359 
198.090591 10821.152344 
198.093231 10032.000977 
198.095886 6520.349121 
198.098526 2754.138672 
213.09288 2182.884033 
213.095825 5750.959961 
213.09877 10291.925781 
213.10173 13180.720703 
213.104675 12320.328125 
213.107635 8228.78125 
213.11058 3700.177246 
215.092651 1044.505493 
215.095642 5557.23291 
215.098633 11220.817383 
215.101624 15916.978516 
215.104614 19723.462891 
215.107605 57365.628906 
215.110596 197242.609375 
215.113602 400241.25 
215.116592 614029.75 
215.119583 602201.0 
215.122574 384250.0 
215.125565 181150.546875 
215.128555 49017.007812 
215.131546 15309.907227 
215.134552 13930.276367 
215.137543 11189.068359 
215.140533 7251.412109 
215.143524 623.479492 
224.09024 1106.52832 
224.093414 3375.986328 
224.096603 10467.865234 
224.099777 18318.802734 
224.102966 24366.001953 
224.10614 19784.863281 
224.109329 11714.817383 
224.112518 4435.268066 
224.115692 1211.088501 
225.111893 741.700623 
225.115082 6014.771973 
225.118286 13248.314453 
225.12149 20926.591797 
225.124695 21301.951172 
225.127899 13865.584961 
225.131104 6720.706543 
225.134308 2265.220947 
226.076035 2843.500488 
226.079269 6549.104492 
226.082489 10751.141602 
226.085709 12970.393555 
226.088928 11556.300781 
226.092163 7407.051758 
226.095383 3323.819824 
241.086884 2125.923828 
241.090424 5918.013672 
241.093979 9945.549805 
241.097534 11171.442383 
241.101074 8649.717773 
241.10463 4440.695801 
241.108185 1344.802246 
242.105545 2354.151367 
242.109131 4508.021973 
242.112701 5977.328125 
242.116272 5767.320801 
242.119843 3964.07251 
243.091446 7748.866699 
243.095032 11042.175781 
243.098633 27153.0 
243.102219 96072.195312 
243.10582 281211.59375 
243.109421 479194.65625 
243.113007 601399.3125 
243.116608 452182.6875 
243.120209 256305.4375 
243.123795 82631.359375 
243.127396 36802.230469 
243.130753 43920.28125 
243.134354 54568.441406 
243.137939 42683.253906 
243.141541 21237.65625 
249.148071 1932.549316 
249.15181 5216.057129 
249.155533 8639.172852 
249.159271 9829.392578 
249.162994 7909.183105 
249.166733 4336.14502 
249.170456 1442.794434 
250.102036 351.757751 
250.105789 4230.94873 
250.109543 16329.922852 
250.113297 31847.966797 
250.11705 46876.703125 
250.120804 42363.457031 
250.124542 25898.789062 
250.128296 10823.216797 
250.13205 2362.992432 
252.128799 2152.567871 
252.132599 5355.782715 
252.136398 7952.354004 
252.140198 8171.241699 
252.143982 5964.052246 
252.147781 2956.553955 
260.093262 3680.779541 
260.09726 6714.703613 
260.101227 8233.033203 
260.105194 7080.72998 
260.109192 4129.27832 
260.113159 1310.235107 
261.114777 3358.015137 
261.118774 6219.304688 
261.122803 7967.47168 
261.126801 7380.180664 
261.130798 4865.286621 
261.134796 2077.918457 
268.10788 702.904907 
268.11203 4713.706055 
268.116211 19118.251953 
268.120361 58532.0 
268.124542 101421.773438 
268.128693 133785.0 
268.132874 106041.703125 
268.137024 62304.910156 
268.141174 21065.484375 
268.145355 4789.438965 
268.149506 662.398804 
270.147064 2078.975586 
270.151276 4807.546387 
270.155487 6951.617676 
270.159698 7040.161133 
270.16391 5043.927734 
270.168121 2381.736328 
278.101379 2521.832764 
278.105774 4524.658691 
278.110199 5331.839844 
278.114594 4306.316406 
278.118988 2170.228271 
295.145264 2456.537354 
295.150085 9439.46875 
295.154877 29764.605469 
295.159698 53561.21875 
295.16452 73689.304688 
295.169312 61323.226562 
295.174133 36444.585938 
295.178925 13108.495117 
295.183746 2604.90918 
298.134552 1860.909668 
298.139435 8134.395508 
298.144318 27002.017578 
298.1492 48481.277344 
298.154083 66150.039062 
298.158966 54003.542969 
298.163849 31950.748047 
298.168732 11357.276367 
298.173615 2792.293457 
308.103912 2828.792725 
308.109039 5682.890625 
308.114166 18931.542969 
308.119324 41726.3125 
308.124451 65861.414062 
308.129578 67717.710938 
308.134705 44166.621094 
308.139832 21117.875 
308.144958 6359.398438 
308.150085 6208.236328 
308.155212 11409.533203 
308.160339 14633.723633 
308.165497 12147.036133 
308.170624 5512.458496 
308.175751 1977.75708 
323.166779 3638.924072 
323.172272 5561.063965 
323.177795 5881.050781 
323.183289 4407.851562 
323.188812 2197.658203 
326.122375 656.65918 
326.12796 3149.139893 
326.133545 16452.845703 
326.13913 38757.324219 
326.144714 62693.898438 
326.150299 66489.898438 
326.155884 44374.171875 
326.161469 22755.378906 
326.167053 7397.246094 
326.172638 2438.765381 
351.158325 2812.657471 
351.164581 5221.88916 
351.170807 6233.839844 
351.177063 5206.828125 
351.183289 3034.134521 
373.169556 2058.979248 
373.176392 4703.520996 
373.183228 6794.827637 
373.190063 6632.93457 
373.196899 4270.043457 
373.203766 1416.066895 
391.164185 1312.836304 
391.171509 3894.837646 
391.178864 12966.293945 
391.186188 28595.943359 
391.193542 45640.675781 
391.200867 48178.109375 
391.208191 31260.636719 
391.215546 14740.914062 
391.22287 2518.550049 
392.147369 3169.500732 
392.154724 5106.751465 
392.162109 5743.851562 
392.169464 4352.658203 
392.176819 1868.044189 
409.167511 958.765808 
409.175354 3086.886963 
409.183228 10817.841797 
409.191071 33402.839844 
409.198914 59066.566406 
409.206757 79798.5625 
409.21463 64640.027344 
409.222473 37947.292969 
409.230316 12636.939453 
409.23819 2218.623779 
420.122314 1642.725586 
420.130493 5755.498535 
420.138641 8658.975586 
420.14682 17760.501953 
420.154999 26299.863281 
420.163147 61545.152344 
420.171326 186368.953125 
420.179504 375570.21875 
420.187653 576953.6875 
420.195831 574749.0 
420.20401 366725.90625 
420.212158 171543.015625 
420.220337 38323.566406 
420.228516 5655.398438 
503.177643 1534.510742 
503.188354 3893.357666 
503.199066 13033.354492 
503.209747 30269.091797 
503.220459 49161.183594 
503.231171 54975.632812 
503.241882 37533.574219 
503.252594 19256.550781 
503.263306 4324.077148 
505.087189 2779.162598 
505.097961 5288.74707 
505.108704 6645.213379 
505.119476 5885.572266 
505.130249 3589.160156 
537.229492 2209.168945 
537.241333 5626.845215 
537.253113 9894.84375 
537.264954 12548.533203 
537.276794 11817.230469 
537.288574 8186.186035 
537.300415 3985.722168 
685.290344 2164.289551 
685.307312 5135.34668 
685.324341 7877.17041 
685.34137 8699.016602 
685.358398 7054.637695 
685.375427 4029.911133 
703.299866 1050.38855 
703.317566 3671.693604 
703.335266 10704.681641 
703.352966 15088.731445 
703.370605 13448.064453 
703.388306 8000.369141 
703.406006 3258.008301 
703.423706 1178.249512 
718.983704 3327.668213 
719.002014 5271.89209 
719.020264 6029.133301 
719.038574 5086.039551 
719.056885 3061.454346 
725.074707 2744.702637 
725.093262 5134.744141 
725.111755 6245.644531 
725.13031 5261.865234 
725.148804 2850.732666 
804.306641 1344.018799 
804.328308 5711.26416 
804.349915 12365.849609 
804.371582 19580.919922 
804.393188 19851.939453 
804.414856 12174.925781 
804.436462 4892.611816 
945.367737 1184.450317 
945.395325 4145.953125 
945.422852 11410.417969 
945.450439 15027.897461 
945.478027 11491.386719 
945.505615 6112.59375 
945.533142 2198.292236 
END IONS

