BEGIN IONS
PEPMASS=1173.62
CHARGE=1+
MSLEVEL=2
SOURCE_INSTRUMENT=LC-ESI-Orbitrap
FILENAME=f.RReher/Culebra/pure_compounds/1156/Rivulariapeptolide1155_M+NH4_MS2_QE.mgf;
SEQ=*..*
IONMODE=Positive
ORGANISM=GNPS-LIBRARY
NAME=Rivulariapeptolide 1155 M+NH4
PI=Gerwick
DATACOLLECTOR=Raphael Reher
SMILES=CC(C)[C@H](NC([C@H](CC1=CC=C(O)C=C1)N(C)C([C@H](CC2=CC=CC=C2)N3[C@H](O)CC[C@H](NC(/C(NC4=O)=C\C)=O)C3=O)=O)=O)C(O[C@H](C)[C@@H]4NC([C@H]([C@@H](OC(C5N(C(CCC)=O)CCC5)=O)C)NC(C6CCCN6C(CCC)=O)=O)=O)=O
INCHI=
INCHIAUX=
PUBMED=
SUBMITUSER=RReher
LIBRARYQUALITY=3
SPECTRUMID=CCMSLIB00005723389
SCANS=1
84.043526 121196.421875 
84.044258 223773.578125 
84.044991 279613.46875 
84.045723 240885.171875 
84.046448 130777.304688 
91.05172 59608.078125 
91.052544 172387.625 
91.053368 460159.3125 
91.054192 718179.6875 
91.055023 750977.375 
91.055847 501646.15625 
91.056671 209967.75 
91.057495 80926.6875 
119.664536 121021.9375 
119.665771 207606.5625 
119.667015 253958.171875 
119.668259 220786.03125 
119.669502 125823.0625 
120.070381 77555.773438 
120.071625 196789.1875 
120.072876 222515.234375 
120.074127 499061.9375 
120.075371 675388.125 
120.076622 1896280.5 
120.077866 6462258.0 
120.079117 13623347.0 
120.080368 21305296.0 
120.081612 21771274.0 
120.082863 14175579.0 
120.084106 6922669.5 
120.085358 1876308.375 
120.086609 549339.125 
120.087852 478330.0 
120.089104 379225.0625 
120.090347 180029.3125 
120.091599 19043.927734 
125.615105 118971.5 
125.61644 194474.25 
125.617775 240253.90625 
125.61911 228326.78125 
125.620445 162939.734375 
125.960335 141084.328125 
125.961678 242645.859375 
125.96302 297879.03125 
125.964363 271955.75 
125.965698 179918.328125 
135.06369 98201.34375 
135.065186 225645.28125 
135.066666 331063.375 
135.068161 337605.375 
135.069641 241130.25 
135.071136 112510.835938 
136.071274 109516.28125 
136.072769 302327.46875 
136.07428 534719.25 
136.07579 659187.875 
136.077286 586899.375 
136.078796 374416.65625 
136.080307 166435.359375 
140.093735 86651.109375 
140.095306 163810.125 
140.096893 476804.125 
140.098465 742817.25 
140.100037 991805.125 
140.101608 3149882.0 
140.10318 11010977.0 
140.104752 22322716.0 
140.106323 34202796.0 
140.107895 33484490.0 
140.109467 21394608.0 
140.111038 10132190.0 
140.11261 2850715.5 
140.114182 921722.9375 
140.115768 733365.3125 
140.11734 425149.375 
140.118912 130967.578125 
140.120483 116408.21875 
146.092758 128310.890625 
146.094437 277070.5625 
146.096115 381478.53125 
146.097778 372251.78125 
146.099457 258266.875 
146.101135 117357.773438 
150.076599 64484.566406 
150.078339 208466.3125 
150.080078 459623.375 
150.081818 693253.25 
150.083572 854353.3125 
150.085312 2598907.5 
150.087051 9158557.0 
150.088806 18997178.0 
150.090546 29515612.0 
150.092285 29651674.0 
150.09404 19159446.0 
150.095779 9300509.0 
150.097519 2597828.5 
150.099258 804656.75 
150.101013 631883.875 
150.102753 443498.09375 
150.104492 250950.171875 
150.106247 39831.4375 
153.062256 146388.765625 
153.064041 266919.46875 
153.065842 331504.03125 
153.067642 288685.8125 
153.069443 167230.3125 
153.09639 72738.664062 
153.098175 198040.46875 
153.099976 479242.65625 
153.101776 751403.625 
153.103577 731336.375 
153.105362 453243.5 
153.107162 185372.140625 
153.108963 69751.195312 
158.087921 111273.390625 
158.089798 334791.1875 
158.09169 1263106.375 
158.093567 2731462.5 
158.095459 4298428.0 
158.097336 4423547.0 
158.099228 2897084.0 
158.10112 1424260.75 
158.102997 409682.4375 
158.104889 121235.507812 
159.51918 110898.234375 
159.521103 222763.0625 
159.52301 278829.15625 
159.524918 234134.21875 
159.526825 126929.53125 
168.09404 1585992.75 
168.096115 6029198.5 
168.098175 15601542.0 
168.100235 25944268.0 
168.10231 30693076.0 
168.10437 22070066.0 
168.106445 12155789.0 
168.108505 3789401.25 
168.11058 1137943.125 
168.11264 616516.375 
168.114716 446099.625 
168.116776 107078.171875 
170.087708 30208.460938 
170.089813 214929.6875 
170.091919 736437.625 
170.094025 1319954.75 
170.09613 1802018.25 
170.098236 1489044.25 
170.100342 883742.0 
170.102448 328876.3125 
170.104553 66456.46875 
178.080673 113583.015625 
178.082916 246974.953125 
178.085175 350646.1875 
178.087433 351225.21875 
178.089691 248427.75 
178.091934 113765.890625 
179.071991 51133.066406 
179.074265 343051.5625 
179.076538 1228942.375 
179.078812 2255077.0 
179.081085 3147205.5 
179.083359 2645669.25 
179.085632 1575342.875 
179.087906 592875.375 
179.090179 136022.796875 
181.087112 77101.601562 
181.089432 235878.546875 
181.091736 789685.0 
181.094055 1625520.75 
181.096359 2503296.5 
181.098679 2461148.0 
181.100983 1555976.75 
181.103302 706004.0625 
181.105606 156505.484375 
181.107925 41572.3125 
186.107422 94350.367188 
186.109833 219134.25 
186.112244 298384.96875 
186.114655 265062.75 
186.117065 145397.46875 
187.110962 66009.429688 
187.113388 330497.9375 
187.115814 1242815.375 
187.11824 3738056.25 
187.120682 6400140.0 
187.123108 8289604.0 
187.125534 6424203.5 
187.12796 3747951.0 
187.130386 1204333.125 
187.132812 282625.125 
187.135239 67085.71875 
215.095474 230320.890625 
215.098465 268416.4375 
215.101456 394286.625 
215.104446 439754.1875 
215.107437 1341584.75 
215.110428 4884295.0 
215.113419 10259562.0 
215.116425 15991776.0 
215.119415 16073637.0 
215.122406 10380340.0 
215.125397 5019467.0 
215.128387 1433360.125 
215.131378 483271.0625 
215.134369 379652.34375 
215.13736 220183.34375 
215.140366 196107.921875 
215.143356 41064.90625 
223.132339 576750.875 
223.135498 2178401.5 
223.138672 5245006.5 
223.14183 8557576.0 
223.144989 9614626.0 
223.148148 6637320.5 
223.151306 3499338.75 
223.15448 1012057.125 
223.157639 283852.3125 
223.160797 193822.046875 
223.163956 179668.390625 
223.167221 444936.3125 
241.139832 41719.214844 
241.143372 228639.203125 
241.146927 918765.5 
241.150482 1766410.25 
241.154037 2535767.5 
241.157593 2209163.75 
241.161133 1334790.375 
241.164688 530120.875 
241.168243 127988.835938 
243.091125 106475.335938 
243.094727 164234.796875 
243.098312 555902.6875 
243.101913 2179809.5 
243.105499 6771710.5 
243.1091 11711848.0 
243.112701 15359494.0 
243.116287 12074098.0 
243.119888 7096160.0 
243.123489 2433978.25 
243.127075 659343.3125 
243.130676 206051.078125 
243.134262 162298.265625 
243.137863 33463.476562 
251.125412 677532.8125 
251.129181 2546567.25 
251.132965 5619430.0 
251.136734 8925747.0 
251.140518 9360233.0 
251.144287 6181247.0 
251.148056 3095585.5 
251.15184 862333.375 
251.155609 244934.1875 
251.159393 178224.265625 
251.163162 148154.46875 
251.167068 356326.8125 
295.148376 51587.246094 
295.153168 347893.71875 
295.15799 770753.3125 
295.162781 1195489.5 
295.167603 1092182.75 
295.172424 650245.75 
295.177216 247925.90625 
295.182037 88403.101562 
298.13385 9098.015625 
298.138733 286869.875 
298.143616 1102498.0 
298.148499 2057392.625 
298.153381 2932679.5 
298.158264 2570189.75 
298.163147 1568050.875 
298.16803 662198.8125 
298.172913 161661.6875 
308.108215 95348.820312 
308.113342 554988.0625 
308.118469 1307720.125 
308.123596 2123969.75 
308.128723 2254182.0 
308.13385 1500235.75 
308.138977 756803.0625 
308.144104 233816.75 
308.149231 81129.6875 
323.161285 124999.03125 
323.166779 272842.625 
323.172302 386814.6875 
323.177795 386353.90625 
323.183319 269990.0625 
323.188843 121858.664062 
326.124542 31393.853516 
326.130127 172873.8125 
326.135712 667488.25 
326.141296 1473071.75 
326.146881 2347251.25 
326.152466 2488787.5 
326.158081 1651272.875 
326.163666 820810.125 
326.16925 202635.015625 
326.174835 41985.550781 
334.150848 106073.921875 
334.156647 342284.6875 
334.162445 1204746.875 
334.168213 2327044.75 
334.174011 3411197.25 
334.17981 3108765.0 
334.185608 1933792.625 
334.191406 839705.5625 
334.197205 248065.46875 
334.203003 88693.710938 
352.165405 96269.09375 
352.171661 296988.90625 
352.177917 608638.875 
352.184204 907817.0625 
352.19046 802836.0625 
352.196747 472291.1875 
352.203003 159709.578125 
352.20929 82822.9375 
367.324768 130336.757812 
367.331451 237513.546875 
367.338104 291186.0625 
367.344788 248240.53125 
367.351471 136090.125 
408.218231 104660.75 
408.226044 439378.4375 
408.233887 1392311.375 
408.241699 2389344.0 
408.249542 3083127.75 
408.257355 2373772.25 
408.265167 1367512.375 
408.27301 413507.0625 
408.280823 53045.800781 
417.179443 30213.652344 
417.1875 303752.34375 
417.195587 982521.625 
417.203674 1716766.625 
417.211761 2265531.0 
417.219849 1799970.375 
417.227936 1056078.5 
417.236023 364167.53125 
417.24411 71355.789062 
420.145325 130055.679688 
420.153503 191450.71875 
420.161652 588715.625 
420.16983 2086760.125 
420.178009 4583535.5 
420.186157 7276091.0 
420.194336 7709117.0 
420.202515 5132933.5 
420.210693 2590331.75 
420.218842 713787.6875 
420.22702 168198.828125 
420.235199 82049.3125 
436.201782 101578.59375 
436.210419 386102.75 
436.219055 1398824.75 
436.227722 3946328.25 
436.236359 6696146.0 
436.244995 8453884.0 
436.253632 6399309.0 
436.262268 3677336.0 
436.270935 1140764.5 
436.279572 242308.015625 
436.288208 55272.453125 
503.187469 86932.03125 
503.198181 388344.09375 
503.208893 966460.3125 
503.219604 1596451.125 
503.230286 1836752.875 
503.240997 1298035.875 
503.251709 687206.0 
503.262421 201072.8125 
503.273132 54717.714844 
602.262634 58934.140625 
602.276672 183518.984375 
602.290649 500738.875 
602.304688 845341.0 
602.318726 1001277.25 
602.332764 715026.25 
602.346741 378615.53125 
602.360779 81874.117188 
703.299927 240600.5625 
703.317627 424339.28125 
703.335266 526838.625 
703.352966 467234.3125 
703.370667 282711.09375 
703.388367 103811.84375 
867.203369 199887.90625 
867.227539 305755.46875 
867.25177 351779.25 
867.276001 296227.53125 
867.300232 166300.078125 
1138.46521 151671.21875 
1138.501587 295822.84375 
1138.538086 390109.84375 
1138.574463 369788.125 
1138.610962 246262.25 
END IONS

