BEGIN IONS
PEPMASS=763.37
CHARGE=0+
MSLEVEL=2
SOURCE_INSTRUMENT=LC-ESI-Ion Trap
FILENAME=20121213_Jenia_Ger_AntanapeptinC_MH763-qb.1.1..mgf
SEQ=*..*
IONMODE=Positive
ORGANISM=GNPS-LIBRARY
NAME=Antanapeptin C M+Na
PI=Gerwick
DATACOLLECTOR=Jenia
SMILES=CCCCCC1OC(=O)[C@H](C(C)CC)N(C)C(=O)[C@@H]2CCCN2C(=O)[C@@H](OC(=O)[C@H](CC2=CC=CC=C2)N(C)C(=O)[C@@H](NC(=O)C1C)C(C)C)C(C)C
INCHI=InChI=1S/C41H64N4O8/c1-11-13-15-22-32-28(8)36(46)42-33(25(3)4)38(48)43(9)31(24-29-19-16-14-17-20-29)40(50)53-35(26(5)6)39(49)45-23-18-21-30(45)37(47)44(10)34(27(7)12-2)41(51)52-32/h14,16-17,19-20,25-28,30-35H,11-13,15,18,21-24H2,1-10H3,(H,42,46)/t27?,28?,30-,31-,32?,33-,34-,35-/m0/s1
INCHIAUX=NIFSOTSGUFBSPF-CVZHIFNESA-N
PUBMED=N/A
SUBMITUSER=mwang87
LIBRARYQUALITY=1
SPECTRUMID=CCMSLIB00000001679
SCANS=1
376.99646 44005.0 
399.067383 590819.0 
421.391357 140752.0 
435.686157 108800.0 
439.51062 219848.0 
524.164551 313052.0 
526.328369 180866.0 
539.1521 3742969.0 
540.319092 108573.0 
556.065186 403739.0 
602.074707 876797.0 
602.800049 7.0 
634.28833 197531.0 
635.504395 29535.0 
636.291504 68816368.0 
637.281494 7432711.0 
637.955078 2186.0 
649.168213 46103.0 
END IONS

