BEGIN IONS
PEPMASS=838.3
CHARGE=0+
MSLEVEL=2
SOURCE_INSTRUMENT=LC-ESI-qTof
FILENAME=20121219_Jenia_Ger_Trunkamide_A_MH838-qb.1.1..mgf
SEQ=*..*
IONMODE=Positive
ORGANISM=GNPS-LIBRARY
NAME=Trunkamide_A M+H
PI=Gerwick
DATACOLLECTOR=Jenia
SMILES=CCC(C)C1C(=O)NC(C(=O)N2CCCC2C(=O)NC(C3=NC(CS3)C(=O)NC(C(=O)NC(C(=O)N1)COC(C)(C)C=C)C(C)OC(C)(C)C=C)CC4=CC=CC=C4)C
INCHI=InChI=1S/C43H63N7O8S/c1-11-25(4)33-38(54)44-26(5)41(56)50-21-17-20-32(50)37(53)45-29(22-28-18-15-14-16-19-28)40-47-31(24-59-40)36(52)49-34(27(6)58-43(9,10)13-3)39(55)46-30(35(51)48-33)23-57-42(7,8)12-2/h12-16,18-19,25-27,29-34H,2-3,11,17,20-24H2,1,4-10H3,(H,44,54)(H,45,53)(H,46,55)(H,48,51)(H,49,52)
INCHIAUX=N/A
PUBMED=N/A
SUBMITUSER=mwang87
LIBRARYQUALITY=1
SPECTRUMID=CCMSLIB00000001697
SCANS=1
386.826538 453331.0 
413.24292 218539.0 
430.76001 302631.0 
431.375488 16.0 
588.997803 845971.0 
622.045898 215090.0 
647.991455 131959.0 
649.081543 125975.0 
656.907471 569568.0 
666.108643 762480.0 
667.307373 100397.0 
668.236511 493664.0 
668.9823 874090.0 
674.324463 51279.0 
683.989868 8243621.0 
684.896362 74.0 
700.184509 361028.0 
701.306274 1752975.0 
702.163757 160434752.0 
702.905029 13689.0 
735.877808 405313.0 
741.942871 611056.0 
752.047119 3788972.0 
752.825745 258.0 
767.849609 386857.0 
768.622498 1061277.0 
769.380005 64932.0 
770.091675 97256848.0 
770.817261 8083.0 
820.156189 345710.0 
820.822144 1.0 
END IONS

