BEGIN IONS
PEPMASS=314.95
CHARGE=1+
MSLEVEL=2
SOURCE_INSTRUMENT=LC-ESI-Ion Trap
FILENAME=f.evgenia_glukhov/Standards/Kalkipyrone_A.mzXML;
SEQ=*..*
IONMODE=Positive
ORGANISM=GNPS-LIBRARY
NAME=Kalkipyrone A M+H-H2O
PI=Gerwick
DATACOLLECTOR=Evgenia Glukhov
SMILES=C[C@@H](O)/C=C(C)/C=C/C/C(C)=C/CC(OC(OC)=C1C)=C(C)C1=O
INCHI=
INCHIAUX=
PUBMED=9599278
SUBMITUSER=evgenia_glukhov
LIBRARYQUALITY=3
SPECTRUMID=CCMSLIB00004722222
SCANS=691
96.591019 3224.0 
105.131531 23876.0 
107.102493 9267.0 
108.982544 4424.0 
110.980362 1825.0 
118.423416 6270.0 
119.140762 74573.0 
121.055206 13842.0 
123.056686 3177.0 
124.857864 22357.0 
129.204834 1111.0 
130.832886 2820.0 
131.852173 4402.0 
133.043884 51417.0 
135.006348 14764.0 
136.704773 9829.0 
137.619171 2425.0 
139.026459 42662.0 
140.969543 2327.0 
143.133514 4493.0 
145.222351 13879.0 
145.995178 568.0 
147.041656 103210.0 
148.929657 13105.0 
150.805084 2442.0 
152.884583 112519.0 
155.045929 43552.0 
157.10376 8834.0 
159.078308 32286.0 
160.15625 1761.0 
161.012024 574232.0 
162.001495 23501.0 
163.103516 6298.0 
164.913391 2207.0 
167.01886 16510.0 
167.948914 3056.0 
168.977295 48515.0 
171.017548 32861.0 
173.013489 13110.0 
175.07782 21823.0 
175.801514 4888.0 
176.816528 5117.0 
177.783508 1583.0 
178.989624 14723.0 
181.178955 5472.0 
182.970093 1910.0 
183.876282 2139.0 
185.045837 39978.0 
187.036865 19756.0 
189.103333 11869.0 
191.054321 6181.0 
191.787018 3060.0 
192.979797 49219.0 
194.969757 62209.0 
196.96991 2956.0 
199.038757 38003.0 
200.409851 6918.0 
201.074036 11028.0 
202.184021 2168.0 
203.042969 95057.0 
203.760773 1591.0 
205.003693 7338.0 
206.961792 72281.0 
207.961121 56550.0 
208.969452 126376.0 
210.953552 3947.0 
212.264191 3903.0 
213.022644 41258.0 
213.998566 6979.0 
215.017853 6315.0 
216.904633 24994.0 
217.533661 868.0 
218.845184 1150.0 
220.992096 88212.0 
221.723083 1267.0 
223.031586 34172.0 
225.071228 8202.0 
226.99173 104781.0 
228.904175 6102.0 
229.524658 4477.0 
230.991425 17208.0 
231.738495 2155.0 
232.98175 63346.0 
233.700195 2343.0 
235.120453 1018.0 
236.460388 3234.0 
237.086609 29304.0 
239.833466 5531.0 
241.016571 106913.0 
241.813446 5557.0 
243.204102 4228.0 
244.045807 3752.0 
244.895264 33285.0 
246.95929 83988.0 
248.906982 2520.0 
251.264343 6784.0 
252.918457 2016.0 
254.187683 16456.0 
255.035889 95671.0 
255.733307 1.0 
256.467163 1432.0 
259.001587 91073.0 
259.666626 1.0 
265.06543 12850.0 
268.078491 8897.0 
269.022461 25786.0 
269.945312 1102.0 
271.021973 2404.0 
272.426392 1181.0 
273.064453 83970.0 
278.945801 9059.0 
280.879272 2234.0 
282.202209 1033.0 
282.982788 75823.0 
285.068359 2953.0 
286.985107 8512.0 
297.032837 38270.0 
297.766602 2.0 
300.070312 3023.0 
310.747803 1327.0 
315.132202 949.0 
END IONS

