BEGIN IONS
PEPMASS=658.78
CHARGE=1+
MSLEVEL=2
SOURCE_INSTRUMENT=LC-ESI-qTof
FILENAME=f.gearev/2267_2/fucoxanthin-st-50ugml.mzXML;
SEQ=*..*
IONMODE=Positive
ORGANISM=GNPS-LIBRARY
NAME=Fucoxanthin M+H
PI=Gerwick
DATACOLLECTOR=Jenia
SMILES=CC(=CC=CC=C(C)C=CC=C(C)C(=O)CC12C(CC(CC1(O2)C)O)(C)C)C=CC=C(C)C=C=C3C(CC(CC3(C)O)OC(=O)C)(C)C
INCHI=1S/C42H58O6/c1-29(18-14-19-31(3)22-23-37-38(6,7)26-35(47-33(5)43)27-40(37,10)46)16-12-13-17-30(2)20-15-21-32(4)36(45)28-42-39(8,9)24-34(44)25-41(42,11)48-42/h12-22,34-35,44,46H,24-28H2,1-11H3/b13-12+,18-14+,20-15+,29-16+,30-17+,31-19+,32-21+/t23?,34-,35-,40+,41+,42-/m0/s1
INCHIAUX=
PUBMED=
SUBMITUSER=gearev
LIBRARYQUALITY=3
SPECTRUMID=CCMSLIB00004682331
SCANS=572
519.360596 4599.0 
643.583008 3468.0 
710.284058 5582.0 
761.290527 11894.0 
END IONS

