BEGIN IONS
PEPMASS=1126.54
CHARGE=1+
MSLEVEL=2
SOURCE_INSTRUMENT=LC-ESI-Orbitrap
FILENAME=f.RReher/Culebra/pure_compounds/1104_Kurahamide/2286_SPE1-1-16_Kurahamide_MS2_M+Na_QE.mgf;
SEQ=*..*
IONMODE=Positive
ORGANISM=GNPS-LIBRARY
NAME=Kurahamide M+Na
PI=Gerwick
DATACOLLECTOR=Raphael Reher
SMILES=CCCC(N[C@H](C(N[C@H](C(N[C@H]1[C@@H](C)OC([C@H](C(C)C)NC([C@H](CC2=CC=C(O)C=C2)N(C)C([C@H](CC3=CC=CC=C3)N4C(O)CC[C@H](NC(/C(NC1=O)=C\C)=O)C4=O)=O)=O)=O)=O)[C@H](OC([C@@H](NC(CCC)=O)C)=O)C)=O)C)=O
INCHI=
INCHIAUX=
PUBMED=
SUBMITUSER=RReher
LIBRARYQUALITY=3
SPECTRUMID=CCMSLIB00005723417
SCANS=1
77.163513 2784.867676 
77.164162 4692.15918 
77.164803 5155.36084 
77.165443 3902.787598 
77.166084 1929.924438 
79.203857 2242.335449 
79.204521 3641.960205 
79.205193 4440.26123 
79.205864 4003.872803 
79.206528 2523.574219 
98.487854 1916.281982 
98.488777 4159.036133 
98.489708 5652.177246 
98.490631 5334.196289 
98.491562 3471.955322 
125.060097 3193.806641 
125.061424 5286.994629 
125.062752 5974.124023 
125.064072 4850.911621 
125.065399 2754.682617 
150.087036 3711.106689 
150.088776 8139.664551 
150.09053 11862.446289 
150.09227 11956.78125 
150.094009 8338.068359 
150.095764 3750.650879 
220.109573 1751.922241 
220.112671 4417.581055 
220.115768 6981.324707 
220.118866 7804.899414 
220.121964 6281.656738 
220.125061 3463.169922 
221.11969 2165.558838 
221.122803 4375.918457 
221.125916 5293.804199 
221.129044 4137.10498 
221.132156 1831.375732 
247.098068 3793.860596 
247.101746 6553.269531 
247.105423 7927.865234 
247.109116 6833.491699 
247.112793 3998.295898 
270.606689 3284.846436 
270.610901 5476.911133 
270.615112 6135.87793 
270.619354 4710.692871 
270.623566 2224.669922 
283.089813 1125.477173 
283.09433 3524.056885 
283.098846 6873.98291 
283.103363 14540.910156 
283.10788 14096.299805 
283.112396 9179.291016 
283.116943 3369.847412 
283.12146 1107.32251 
302.134064 1983.069702 
302.139069 4997.008789 
302.144043 10719.003906 
302.149017 12654.180664 
302.153992 8388.602539 
302.158997 4177.766113 
302.163971 1703.206055 
304.146515 1915.945435 
304.15155 6034.100098 
304.156586 11638.50293 
304.161621 17008.056641 
304.166656 15450.663086 
304.171661 9332.833008 
304.176697 3663.717773 
304.181732 1411.891479 
357.176483 4076.559814 
357.182892 8024.950684 
357.189301 10884.020508 
357.195709 10690.03125 
357.202118 7651.203125 
357.208527 3826.427734 
366.132385 2661.28418 
366.139038 5013.15625 
366.14566 5965.57373 
366.152313 4749.838379 
366.158966 2359.559814 
384.140472 2208.724854 
384.147614 4525.416016 
384.154755 5669.444336 
384.161896 4850.197266 
384.169037 2725.943359 
385.163696 2717.239502 
385.170868 6364.409668 
385.17804 11692.852539 
385.185211 15203.766602 
385.192383 11417.623047 
385.199554 4140.528809 
385.206726 1188.937866 
406.129578 3083.314453 
406.13736 4744.956055 
406.145111 5366.370117 
406.152893 4681.561523 
406.160645 3146.881592 
413.159698 2824.607422 
413.167664 8608.896484 
413.175659 13909.667969 
413.183624 15414.103516 
413.191589 10429.271484 
413.199554 4499.595703 
413.20752 1746.619629 
470.571747 4234.078613 
470.581421 6394.165527 
470.591095 6751.575195 
470.600769 5003.595703 
470.610474 2423.210693 
498.213593 3996.371094 
498.224121 6192.07666 
498.23468 6868.885254 
498.245239 5546.572754 
498.255768 3079.392578 
967.336487 1452.335938 
967.365051 3416.279297 
967.393555 10402.625977 
967.422119 19119.775391 
967.450684 26887.769531 
967.479187 22853.671875 
967.507751 13280.949219 
967.536316 4375.238281 
967.564819 252.084457 
1126.428589 1206.862793 
1126.464478 3802.907471 
1126.500366 7127.343262 
1126.536133 13079.634766 
1126.572021 10448.833008 
1126.60791 4819.294922 
1126.643799 1861.308105 
END IONS

