BEGIN IONS
PEPMASS=1533.4
CHARGE=0+
MSLEVEL=2
SOURCE_INSTRUMENT=LC-ESI-qTof
FILENAME=20121219_Jenia_Ger_Portoamide_A_MH1533-qb.1.1..mgf
SEQ=*..*
IONMODE=Positive
ORGANISM=GNPS-LIBRARY
NAME=Portoamide_A M+H
PI=Gerwick
DATACOLLECTOR=Jenia
SMILES=CC[C@H](C)[C@@H]1C(=O)N[C@H](C(=O)N/C(=C/C)/C(=O)N[C@H](C(=O)N[C@@H](C(=O)N2CCC[C@H]2C(=O)NC(C(C(=O)N[C@@H](C(=O)NCC(=O)N3CCC[C@H]3C(=O)N4CCC[C@H]4C(=O)N1)CCC(=O)N)O)CC(CC(C(CC(C)C)O)O)OC(=O)[C@H](CC5=CC=C(C=C5)O)N(C)C(=O)C)CCC6=CC=C(C=C6)OC)[C@@H](C)O)CO
INCHI=InChI=1S/C74H109N13O22/c1-10-40(5)61-69(102)81-52(38-88)66(99)77-48(11-2)65(98)83-62(41(6)89)70(103)79-50(27-22-43-20-25-46(108-9)26-21-43)72(105)86-31-12-15-53(86)67(100)80-51(35-47(36-58(93)57(92)33-39(3)4)109-74(107)56(84(8)42(7)90)34-44-18-23-45(91)24-19-44)63(96)71(104)78-49(28-29-59(75)94)64(97)76-37-60(95)85-30-14-17-55(85)73(106)87-32-13-16-54(87)68(101)82-61/h11,18-21,23-26,39-41,47,49-58,61-63,88-89,91-93,96H,10,12-17,22,27-38H2,1-9H3,(H2,75,94)(H,76,97)(H,77,99)(H,78,104)(H,79,103)(H,80,100)(H,81,102)(H,82,101)(H,83,98)/b48-11+/t40-,41+,47?,49+,50+,51?,52-,53-,54-,55-,56-,57?,58?,61+,62-,63?/m0/s1
INCHIAUX=N/A
PUBMED=N/A
SUBMITUSER=mwang87
LIBRARYQUALITY=1
SPECTRUMID=CCMSLIB00000001691
SCANS=1
458.621033 500243.0 
462.986023 550871.0 
463.633301 2.0 
468.870605 370351.0 
474.632263 478462.0 
475.314209 3.0 
479.095642 462572.0 
508.194519 248669.0 
543.004761 417038.0 
543.644409 1.0 
549.263916 113824.0 
563.277832 982016.0 
564.024902 4.0 
565.986206 315565.0 
578.220886 652936.0 
578.88208 13.0 
580.301514 337782.0 
609.061768 389418.0 
609.69519 7.0 
622.932373 398898.0 
644.882812 107650.0 
646.19458 105639.0 
652.344238 988127.0 
671.06311 554784.0 
678.025024 286990.0 
683.174194 507397.0 
688.247803 875404.0 
696.220825 178194.0 
699.316956 464503.0 
701.022217 195388.0 
706.197571 2736712.0 
706.955566 6.0 
715.411865 160098.0 
727.880066 691605.0 
728.891968 375458.0 
729.663574 267274.0 
740.517334 348216.0 
742.344482 996600.0 
743.022217 1.0 
745.199951 827163.0 
745.836304 5.0 
757.92749 539050.0 
762.785522 563705.0 
763.5 1.0 
764.231201 454400.0 
767.318604 104400.0 
769.03479 126131.0 
769.895386 322963.0 
775.201538 161151.0 
783.06189 83331.0 
787.133789 548369.0 
789.355835 151071.0 
791.89917 1610301.0 
792.456787 375494.0 
793.149902 2.0 
800.170166 1443877.0 
800.857056 3.0 
805.937012 556165.0 
809.145996 120124.0 
815.132629 1984963.0 
815.905273 279821.0 
827.22583 1108886.0 
827.899902 2.0 
833.373047 507650.0 
834.350952 1049453.0 
835.162842 4.0 
847.147217 575872.0 
850.184326 484015.0 
853.775146 196481.0 
858.176758 207353.0 
866.053955 122540.0 
870.342773 347908.0 
871.555908 351381.0 
880.276855 104905.0 
883.062744 333332.0 
884.458496 538441.0 
885.274292 812612.0 
885.893311 2.0 
888.061157 297777.0 
896.137695 467383.0 
902.06073 1576848.0 
903.232056 719155.0 
918.242676 446321.0 
919.143555 735727.0 
919.802063 1761988.0 
921.54248 201798.0 
924.399536 55629.0 
929.280151 66877.0 
932.12146 422245.0 
935.197266 260968.0 
938.870117 1599266.0 
939.417053 62.0 
956.36792 809231.0 
957.028442 3.0 
967.41394 1289873.0 
971.924927 855917.0 
980.082642 197447.0 
985.350159 2187998.0 
986.308167 535126.0 
986.899902 2.0 
991.148804 828181.0 
997.233765 313585.0 
998.207642 412397.0 
999.57312 351444.0 
1002.971985 1943788.0 
1003.591919 193632.0 
1004.098511 453688.0 
1006.968262 273259.0 
1007.683105 106202.0 
1012.17334 660823.0 
1018.825073 161157.0 
1020.055908 1893857.0 
1021.036255 323436.0 
1022.357544 386311.0 
1024.445312 250066.0 
1025.079834 2.0 
1035.313965 563829.0 
1037.467407 1654489.0 
1038.316895 479943.0 
1042.67041 255208.0 
1052.231079 810670.0 
1053.597168 1874649.0 
1054.221191 6870.0 
1055.598389 170547.0 
1064.203613 1084403.0 
1070.522949 346790.0 
1071.389526 354960.0 
1072.841553 1506804.0 
1085.043701 55757.0 
1086.648682 289979.0 
1088.186523 471689.0 
1089.501953 1347691.0 
1090.181641 5.0 
1093.239258 1580726.0 
1094.461426 358023.0 
1096.536133 751904.0 
1097.199951 1.0 
1103.354248 1889374.0 
1103.963867 776879.0 
1105.637939 77307.0 
1108.314453 564515.0 
1108.966553 2.0 
1121.40332 296345.0 
1125.097412 636831.0 
1126.607056 2094287.0 
1127.333252 2.0 
1132.522949 242564.0 
1137.866699 44590.0 
1139.277222 2996350.0 
1139.807129 4.0 
1140.71582 479414.0 
1157.467163 1949671.0 
1158.743164 512268.0 
1159.352783 8.0 
1162.26123 181160.0 
1165.159668 235067.0 
1168.567871 269517.0 
1172.227539 560862.0 
1172.866699 1.0 
1174.248047 1238807.0 
1174.911133 6.0 
1187.179443 2381123.0 
1187.893066 2.0 
1190.042969 23004.0 
1191.121582 363025.0 
1195.506836 323864.0 
1196.555176 430835.0 
1200.375488 582857.0 
1201.044434 1.0 
1204.275146 2496899.0 
1205.461914 352699.0 
1208.155762 61719.0 
1215.470703 749520.0 
1216.155273 1.0 
1222.382812 4618503.0 
1223.307739 3108648.0 
1224.265991 444840.0 
1225.05127 2035509.0 
1237.303711 144397.0 
1240.216553 1883561.0 
1240.814209 32.0 
1241.559326 4119713.0 
1242.358154 4.0 
1243.422852 627253.0 
1247.016113 1770474.0 
1247.666504 1.0 
1249.379639 729020.0 
1250.029541 4.0 
1251.350586 247604.0 
1252.450439 441597.0 
1253.100098 2.0 
1257.177734 203506.0 
1258.879395 1232410.0 
1259.471313 517093.0 
1260.619263 1146504.0 
1261.12915 192190.0 
1268.149414 316714.0 
1277.340332 3514862.0 
1278.575195 3814791.0 
1279.556519 354648.0 
1286.862793 330400.0 
1295.449829 9776861.0 
1296.257446 3677789.0 
1296.842529 580537.0 
1302.390991 835500.0 
1302.899902 3.0 
1305.574707 443406.0 
1307.368164 318307.0 
1313.553955 2938268.0 
1314.084229 9.0 
1328.749512 262330.0 
1331.135986 225935.0 
1340.964111 297528.0 
1344.053345 626391.0 
1345.10376 424641.0 
1347.579468 2575421.0 
1348.542969 4529937.0 
1349.409424 3.0 
1351.529785 351689.0 
1362.336304 1467328.0 
1363.424072 1013570.0 
1379.504395 586321.0 
1386.625 827081.0 
1410.248047 324872.0 
1410.893066 2.0 
1428.348633 80201.0 
1452.529785 403507.0 
1461.250488 240354.0 
1462.055176 404219.0 
1462.766602 4.0 
1466.571777 367071.0 
1468.383789 1140549.0 
1469.416016 250189.0 
1471.60376 182461.0 
1475.701172 459809.0 
1478.327393 586645.0 
1479.287842 1593743.0 
1480.271484 521951.0 
1480.977539 1.0 
1486.361572 119740.0 
1487.437744 1194566.0 
1487.977539 1.0 
1488.577881 690236.0 
1489.244385 1.0 
1496.451172 4059621.0 
1497.399658 3552690.0 
1498.414795 1563589.0 
1499.140869 51.0 
1504.443115 574096.0 
1514.439453 22438768.0 
1515.463745 14206584.0 
1516.487305 137825.0 
END IONS

