BEGIN IONS
PEPMASS=569.0
CHARGE=0+
MSLEVEL=2
SOURCE_INSTRUMENT=LC-ESI-qTof
FILENAME=20120412_PAVL_FT_JamaicamideA_MCl37H_569_qb.1.1..mgf
SEQ=*..*
IONMODE=Positive
ORGANISM=GNPS-LIBRARY
NAME=Jamaicamide A M+H
PI=Gerwick
DATACOLLECTOR=PAVL
SMILES=C[C@H]1C=CC(=O)N1C(=O)/C=C(\CCNC(=O)CC/C=C/C(C)CC/C(=C/Cl)/CCCC#CBr)/OC
INCHI=InChI=1S/C27H36BrClN2O4/c1-21(12-14-23(20-29)10-5-4-8-17-28)9-6-7-11-25(32)30-18-16-24(35-3)19-27(34)31-22(2)13-15-26(31)33/h6,9,13,15,19-22H,4-5,7,10-12,14,16,18H2,1-3H3,(H,30,32)/b9-6+,23-20+,24-19+/t21?,22-/m0/s1
INCHIAUX=N/A
PUBMED=N/A
SUBMITUSER=mwang87
LIBRARYQUALITY=1
SPECTRUMID=CCMSLIB00000001560
SCANS=1
164.293427 33.709499 
165.226822 7.650838 
166.241669 190.879303 
167.436493 43.788353 
168.164459 53.290386 
169.448395 16.522985 
171.189713 225.278351 
172.888214 54.535118 
173.589523 33.622101 
176.135788 385.854065 
177.35968 31.326567 
179.573151 22.105556 
180.494751 129.29245 
182.222916 697.87738 
183.156235 82.31131 
184.26355 21.904854 
185.286118 533.348511 
186.46199 98.195297 
188.34758 32.754711 
189.348328 45.674805 
192.999893 35.740711 
196.50415 43.23362 
197.414551 29.644989 
199.289642 931.25531 
200.309265 204.559158 
201.531021 19.91061 
208.119675 24076.425781 
209.162354 2335.220703 
210.262299 287.937531 
213.271835 8.968795 
216.508789 39.880375 
217.353455 67.635696 
218.572556 59.24894 
220.991821 32.339996 
223.322617 41.423325 
224.384705 7.926021 
225.259369 83.711906 
227.297073 2308.818359 
228.121094 166.812683 
228.764557 10.532267 
230.224274 33.24646 
234.218094 31.516315 
236.241028 636.223083 
237.201843 32.669498 
238.266876 96.43811 
241.509644 50.595562 
244.259094 81.131851 
245.183807 13.853218 
248.358749 23.101364 
251.30545 31.413954 
252.368317 30.216011 
253.081726 41.226677 
254.049377 29.097322 
255.208069 22.633991 
256.133087 18.43243 
257.345886 14.558797 
263.409912 54.305351 
264.105255 66.150909 
265.292236 83.835289 
266.24585 17.192902 
276.814697 18.111914 
278.970032 104.083366 
281.131836 34.144417 
285.646667 43.529549 
291.247925 46.791836 
303.11554 31.44627 
304.466248 23.240709 
306.307404 63.444046 
307.22821 282.197052 
308.32428 51.476837 
309.263824 221.901764 
314.671875 15.641985 
322.25116 15.707808 
324.111023 9.10137 
325.395935 27.149506 
326.329346 156.893951 
327.234039 97.08754 
333.523743 12.00885 
336.168518 112.999008 
354.452393 187.164276 
355.29541 44.152199 
359.639038 17.091797 
361.337372 77.595139 
362.146301 575.690796 
369.634735 42.849419 
374.323425 34.825027 
391.470337 25.074699 
402.288605 154.385788 
403.497559 78.161987 
404.225616 167.390594 
406.016846 86.750755 
407.90564 20.912043 
416.245697 182.910675 
418.312073 280.66983 
419.364807 371.092987 
420.450836 27.599588 
434.123505 1570.992432 
435.234009 558.067871 
436.246857 3658.246094 
440.10498 669.890015 
441.676453 101.667336 
442.460663 8.192163 
451.116455 169.260391 
453.973053 50.11813 
455.375824 19.786886 
457.072296 72.897957 
470.112549 3351.697021 
471.347168 27963.34375 
472.180695 136868.328125 
473.004791 35.939079 
499.213837 98.865906 
500.183685 130.891479 
501.292419 464.239746 
508.253052 24.883673 
520.701721 46.173019 
532.280884 52.264771 
533.104004 93.486397 
536.251709 796.061646 
536.934143 3389.147949 
537.584656 27.25865 
539.347778 20.859644 
540.158447 99.335358 
550.668884 52.798313 
END IONS

