BEGIN IONS
PEPMASS=291.0
CHARGE=0+
MSLEVEL=2
SOURCE_INSTRUMENT=LC-ESI-qTof
FILENAME=20130107_Jenia_Ger_Ecklonialactone_A_MH291-qb.1.1..mgf
SEQ=*..*
IONMODE=Positive
ORGANISM=GNPS-LIBRARY
NAME=Ecklonialactone_A M+H
PI=Gerwick
DATACOLLECTOR=Jenia
SMILES=CC[C@H]1[C@@H]2C[C@H]3[C@@H]([C@H]2/C=C\C/C=C\CCCCC(=O)O1)O3
INCHI=InChI=1S/C18H26O3/c1-2-15-14-12-16-18(21-16)13(14)10-8-6-4-3-5-7-9-11-17(19)20-15/h3-4,8,10,13-16,18H,2,5-7,9,11-12H2,1H3/b4-3-,10-8-/t13-,14+,15-,16-,18+/m0/s1
INCHIAUX=N/A
PUBMED=N/A
SUBMITUSER=mwang87
LIBRARYQUALITY=1
SPECTRUMID=CCMSLIB00000001705
SCANS=1
157.028381 855.0 
213.185425 4361.0 
END IONS

