BEGIN IONS
PEPMASS=511.0
CHARGE=2+
MSLEVEL=2
SOURCE_INSTRUMENT=LC-ESI-qTof
FILENAME=1E4_511MNa_RE4_01_9751.mzXML
SEQ=*..*
IONMODE=Positive
ORGANISM=GNPS-LIBRARY
NAME=Jamaicamide B M+Na
PI=Dorrestein/Gerwick
DATACOLLECTOR=Peng/Luzzatto/Garg
SMILES=CO\C(CCNC(=O)CC\C=C\C(C)CC\C(CCCC#C)=C\Cl)=C\C(=O)N1C(C)C=CC1=O
INCHI=InChI=1S/C27H37ClN2O4/c1-5-6-7-11-23(20-28)15-13-21(2)10-8-9-12-25(31)29-18-17-24(34-4)19-27(33)30-22(3)14-16-26(30)32/h1,8,10,14,16,19-22H,6-7,9,11-13,15,17-18H2,2-4H3,(H,29,31)/b10-8+,23-20+,24-19+
INCHIAUX=KZVHAGNFWJIOMX-GDKFLGFMSA-N
PUBMED=ChemSpider ID:28295600
SUBMITUSER=y6peng
LIBRARYQUALITY=2
SPECTRUMID=CCMSLIB00000072508
SCANS=2450
96.184601 348.0 
99.042572 176.0 
102.125267 148.0 
107.747719 168.0 
111.044777 1072.0 
112.930168 188.0 
116.316826 176.0 
118.076469 176.0 
120.042786 336.0 
123.598297 176.0 
127.533028 172.0 
127.706093 172.0 
128.07283 168.0 
128.993088 140.0 
132.047867 156.0 
133.024902 296.0 
136.322815 152.0 
137.318832 188.0 
141.048386 144.0 
148.015274 220.0 
148.039474 196.0 
150.08226 168.0 
151.039215 172.0 
157.358459 152.0 
160.036362 152.0 
161.359222 244.0 
161.76889 236.0 
165.052185 200.0 
166.985016 216.0 
170.066193 180.0 
170.092133 164.0 
173.01062 220.0 
176.944977 200.0 
179.076462 232.0 
183.337326 208.0 
189.221344 188.0 
198.052216 212.0 
203.526855 188.0 
209.640366 140.0 
215.30394 276.0 
216.484924 232.0 
218.080276 164.0 
218.915482 144.0 
223.225372 144.0 
224.064209 132.0 
228.036697 176.0 
230.078476 1356.0 
231.053955 160.0 
231.081909 572.0 
232.103836 176.0 
234.736816 140.0 
236.538666 144.0 
236.694336 152.0 
239.571442 152.0 
240.364517 240.0 
242.078415 148.0 
242.64212 196.0 
245.270996 228.0 
246.119232 188.0 
246.837631 144.0 
251.939911 148.0 
253.96817 200.0 
256.676666 164.0 
257.094391 176.0 
259.114868 180.0 
262.720123 212.0 
263.291199 152.0 
264.590546 184.0 
270.009491 140.0 
270.496826 216.0 
272.007385 188.0 
272.069733 168.0 
272.365143 148.0 
273.087952 216.0 
273.986267 156.0 
275.232483 200.0 
278.343811 200.0 
279.816162 180.0 
281.078888 196.0 
284.585358 200.0 
287.111481 144.0 
288.13382 252.0 
293.784119 192.0 
295.648956 180.0 
300.198944 168.0 
302.128967 252.0 
303.538055 172.0 
304.140198 620.0 
305.141541 192.0 
306.153717 360.0 
306.185028 160.0 
306.759125 140.0 
306.888672 204.0 
309.413696 140.0 
313.081543 204.0 
313.465363 144.0 
316.141052 192.0 
316.95517 164.0 
317.146484 168.0 
317.220886 148.0 
318.490723 152.0 
318.924011 160.0 
321.979736 180.0 
322.994385 188.0 
325.552399 164.0 
326.206055 196.0 
327.846649 204.0 
329.126709 160.0 
330.810791 156.0 
331.7052 204.0 
332.1474 148.0 
333.424927 212.0 
333.504852 144.0 
334.621185 156.0 
336.844879 184.0 
338.208221 196.0 
338.669403 160.0 
338.955719 172.0 
340.069458 176.0 
340.336884 160.0 
341.152954 132.0 
341.317993 192.0 
343.427368 168.0 
344.047028 172.0 
344.504791 276.0 
346.194397 200.0 
347.177307 436.0 
348.178711 184.0 
348.297241 216.0 
349.117615 168.0 
349.171204 284.0 
349.225128 152.0 
349.768372 172.0 
349.950714 240.0 
350.032593 172.0 
350.259674 152.0 
350.326691 152.0 
351.284363 144.0 
353.847015 172.0 
354.277527 276.0 
354.349487 188.0 
355.161835 160.0 
356.287537 204.0 
357.588043 156.0 
359.89798 196.0 
361.248108 116.0 
364.190735 224.0 
365.197571 180.0 
365.577881 164.0 
366.67804 212.0 
367.108673 164.0 
367.165833 176.0 
367.512848 184.0 
367.985931 204.0 
369.182617 300.0 
370.02243 288.0 
370.152863 156.0 
376.727325 164.0 
376.831604 200.0 
378.103271 156.0 
378.195831 156.0 
379.58252 164.0 
380.695801 180.0 
384.123352 208.0 
384.618713 156.0 
384.782593 160.0 
386.908539 184.0 
388.193207 180.0 
388.224548 172.0 
388.561737 200.0 
389.782349 164.0 
390.863281 168.0 
391.321899 196.0 
392.272675 156.0 
396.171722 128.0 
397.177917 180.0 
397.221558 144.0 
398.1698 148.0 
398.308746 176.0 
400.192322 228.0 
400.575195 168.0 
400.92569 252.0 
401.096985 212.0 
401.180664 152.0 
401.898285 164.0 
402.159302 156.0 
402.217407 192.0 
402.512726 172.0 
403.095703 176.0 
405.023285 164.0 
405.956757 200.0 
406.133636 192.0 
407.292694 176.0 
407.642242 104.0 
409.025055 156.0 
412.161438 196.0 
412.302826 252.0 
414.180908 4720.0 
415.181396 888.0 
416.180389 1612.0 
416.319977 160.0 
417.033569 120.0 
417.179321 304.0 
417.672852 140.0 
420.148621 156.0 
421.360657 160.0 
423.450104 208.0 
425.282104 208.0 
428.187744 212.0 
432.037354 156.0 
432.351685 176.0 
432.517181 196.0 
435.185913 200.0 
435.796204 176.0 
436.232422 168.0 
437.334259 196.0 
440.368408 144.0 
443.225067 132.0 
443.337616 148.0 
443.957825 152.0 
444.431641 200.0 
448.176514 200.0 
448.290253 160.0 
449.352386 140.0 
449.618103 160.0 
450.065002 212.0 
451.180359 256.0 
451.497345 184.0 
451.624176 180.0 
451.72467 208.0 
453.228027 212.0 
453.316956 168.0 
453.482178 160.0 
454.414734 240.0 
455.22937 156.0 
456.524963 188.0 
457.128784 180.0 
457.281921 216.0 
457.715973 148.0 
458.627319 204.0 
459.172852 192.0 
459.467041 172.0 
459.697357 200.0 
460.418518 144.0 
463.124756 284.0 
463.544434 188.0 
465.27655 172.0 
466.779755 168.0 
467.269897 200.0 
467.407532 176.0 
470.828949 172.0 
471.200287 500.0 
472.202759 240.0 
473.059143 184.0 
473.366425 176.0 
474.22818 192.0 
474.57486 176.0 
475.26297 180.0 
477.204956 184.0 
479.205933 1024.0 
479.707214 236.0 
480.208557 256.0 
480.932434 172.0 
481.199799 288.0 
482.222595 212.0 
482.508789 140.0 
483.19516 140.0 
483.252014 168.0 
485.550842 156.0 
487.288422 208.0 
487.679382 160.0 
487.894684 156.0 
490.045959 228.0 
490.235352 228.0 
492.99234 240.0 
493.213257 180.0 
493.429779 176.0 
494.141541 156.0 
494.544067 240.0 
494.73877 168.0 
496.510437 204.0 
497.668152 144.0 
499.236115 160.0 
499.285004 164.0 
499.46283 184.0 
500.005432 164.0 
500.601746 168.0 
501.759827 156.0 
502.501953 192.0 
503.25827 160.0 
503.35199 140.0 
503.686798 156.0 
503.804016 212.0 
504.397003 140.0 
504.570343 172.0 
504.759003 264.0 
504.794739 140.0 
505.219482 312.0 
505.373169 176.0 
505.524902 168.0 
505.805481 144.0 
505.836792 156.0 
505.943146 240.0 
506.331543 124.0 
507.15152 124.0 
507.336884 152.0 
507.699921 144.0 
508.101715 176.0 
508.341156 308.0 
508.417419 200.0 
508.484711 172.0 
508.737762 256.0 
508.780853 184.0 
508.973846 160.0 
509.157867 148.0 
509.197021 212.0 
509.30896 148.0 
509.438477 172.0 
509.502289 96.0 
509.61438 208.0 
509.680145 208.0 
509.907867 196.0 
509.957275 168.0 
510.024658 208.0 
510.0802 168.0 
510.132507 200.0 
510.184418 116.0 
510.224243 184.0 
510.282745 176.0 
510.364777 248.0 
510.445496 200.0 
510.577454 192.0 
510.679321 164.0 
510.753693 168.0 
510.910767 240.0 
510.951324 220.0 
510.995636 252.0 
511.031311 288.0 
511.118652 284.0 
511.234283 132204.0 
511.377075 212.0 
511.602509 168.0 
511.714752 292.0 
511.751068 232.0 
511.89679 232.0 
511.971954 812.0 
512.028198 112.0 
512.059509 252.0 
512.146912 240.0 
512.236694 41308.0 
512.331177 456.0 
512.406372 408.0 
512.570374 136.0 
512.613892 312.0 
512.677368 196.0 
512.755493 200.0 
512.92804 180.0 
512.97406 156.0 
513.12146 200.0 
513.158142 216.0 
513.231506 44264.0 
513.390564 200.0 
513.439392 120.0 
513.481079 236.0 
513.529724 140.0 
513.573059 144.0 
513.672363 200.0 
513.997681 180.0 
514.138611 112.0 
514.23291 12180.0 
514.304871 328.0 
514.431763 164.0 
514.476135 124.0 
514.634399 252.0 
514.786621 204.0 
514.82959 132.0 
515.095581 136.0 
515.164856 96.0 
515.2323 1772.0 
515.292908 200.0 
515.375977 116.0 
515.477478 148.0 
515.644226 136.0 
515.682556 308.0 
516.130737 168.0 
516.169373 96.0 
516.232239 172.0 
516.596741 112.0 
516.893799 144.0 
516.930298 104.0 
517.159424 136.0 
517.341064 148.0 
517.51947 156.0 
517.655212 144.0 
519.731628 148.0 
519.805969 112.0 
520.333862 148.0 
520.399292 164.0 
520.644226 140.0 
521.56189 128.0 
524.731628 176.0 
528.870789 116.0 
529.294312 144.0 
533.527405 140.0 
534.46991 160.0 
537.03949 152.0 
547.742004 144.0 
557.414001 152.0 
561.880493 156.0 
604.127441 148.0 
620.223633 144.0 
621.780396 148.0 
623.145386 140.0 
668.495239 172.0 
680.425354 160.0 
681.723389 140.0 
683.38147 164.0 
830.807129 164.0 
831.07666 172.0 
837.437927 140.0 
963.139038 188.0 
1029.494141 140.0 
1053.151733 140.0 
1179.915527 212.0 
1481.66272 200.0 
1636.722534 292.0 
1710.721069 144.0 
1745.024536 344.0 
1840.739258 152.0 
1879.980591 160.0 
1907.390747 264.0 
END IONS

