BEGIN IONS
PEPMASS=687.0
CHARGE=2+
MSLEVEL=2
SOURCE_INSTRUMENT=LC-ESI-qTof
FILENAME=1F2_687MNa_RF2_01_9761.mzXML
SEQ=*..*
IONMODE=Positive
ORGANISM=GNPS-LIBRARY
NAME=Hectochlorin M+Na
PI=Dorrestein/Gerwick
DATACOLLECTOR=Peng/Luzzatto/Garg
SMILES=C[C@H]1[C@H](CCCC(C)(Cl)Cl)OC(=O)C2=CSC(=N2)[C@@H](OC(C)=O)C(C)(C)OC(=O)C2=CSC(=N2)[C@@H](OC1=O)C(C)(C)O
INCHI=InChI=1S/C27H34Cl2N2O9S2/c1-13-17(9-8-10-27(7,28)29)38-23(34)15-11-42-21(30-15)19(37-14(2)32)26(5,6)40-24(35)16-12-41-20(31-16)18(25(3,4)36)39-22(13)33/h11-13,17-19,36H,8-10H2,1-7H3/t13-,17-,18+,19+/m0/s1
INCHIAUX=USXIYWCPCGVOKF-NOENWEJRSA-N
PUBMED=ChemSpider ID:552449
SUBMITUSER=y6peng
LIBRARYQUALITY=2
SPECTRUMID=CCMSLIB00000072522
SCANS=1856
95.662514 216.0 
98.647079 244.0 
106.208549 236.0 
106.910919 200.0 
109.297997 200.0 
115.325432 224.0 
116.213791 260.0 
116.484184 196.0 
117.060356 200.0 
119.366196 228.0 
119.877548 220.0 
121.212173 200.0 
123.912437 204.0 
124.366852 220.0 
125.23365 200.0 
125.879921 204.0 
129.3479 224.0 
130.245483 260.0 
130.804626 240.0 
133.832291 200.0 
134.70369 224.0 
134.819168 200.0 
134.883865 212.0 
138.243332 196.0 
141.547058 196.0 
142.153656 212.0 
144.093445 212.0 
145.165329 220.0 
146.060806 232.0 
146.296539 232.0 
146.657715 224.0 
150.296402 208.0 
150.574585 208.0 
155.191742 240.0 
155.375198 196.0 
156.047546 300.0 
157.752533 260.0 
159.039536 216.0 
160.019669 992.0 
160.664459 268.0 
164.01828 212.0 
167.118134 212.0 
168.695831 196.0 
169.342468 244.0 
177.869064 284.0 
178.031174 452.0 
180.444107 220.0 
182.027618 588.0 
183.174942 208.0 
183.294449 244.0 
183.921555 244.0 
185.70018 212.0 
188.24202 208.0 
188.979736 196.0 
189.946411 220.0 
194.023392 236.0 
195.494904 288.0 
196.891022 212.0 
197.399429 236.0 
198.90892 244.0 
199.816254 256.0 
200.038483 208.0 
200.672104 252.0 
204.009506 2036.0 
206.007584 384.0 
208.281845 204.0 
208.376602 220.0 
211.045944 472.0 
212.729904 236.0 
213.040497 304.0 
214.503647 240.0 
215.667816 204.0 
216.23793 220.0 
216.387161 200.0 
216.882034 220.0 
219.049698 216.0 
219.585922 200.0 
220.03862 1056.0 
221.100906 208.0 
222.019562 1180.0 
223.024307 508.0 
223.069565 208.0 
223.149796 208.0 
225.052902 244.0 
231.355103 224.0 
232.242599 284.0 
234.951859 212.0 
235.238602 204.0 
238.009064 336.0 
238.542572 224.0 
240.028397 280.0 
241.254242 224.0 
248.078522 224.0 
250.446854 260.0 
253.035248 204.0 
255.700577 252.0 
255.853302 256.0 
256.375458 220.0 
260.107178 256.0 
260.889923 228.0 
262.331543 196.0 
263.015106 204.0 
263.593231 248.0 
263.741577 200.0 
264.031219 60152.0 
264.562927 216.0 
265.034363 6180.0 
266.028015 2128.0 
266.852417 208.0 
267.028076 512.0 
271.60025 264.0 
271.867706 196.0 
272.077667 196.0 
274.359161 220.0 
276.023254 220.0 
283.996277 220.0 
287.854889 220.0 
297.441986 200.0 
298.015259 200.0 
299.562775 240.0 
300.589783 216.0 
305.612061 204.0 
308.050354 596.0 
309.218872 264.0 
310.049225 296.0 
312.677948 224.0 
315.058746 388.0 
319.050995 320.0 
319.087372 212.0 
319.163147 300.0 
319.525787 232.0 
320.707581 196.0 
321.061615 680.0 
327.599091 204.0 
328.157471 280.0 
330.113556 400.0 
330.175201 260.0 
331.021759 232.0 
333.004578 236.0 
334.069183 216.0 
337.082489 196.0 
337.12738 196.0 
340.029144 232.0 
342.046051 196.0 
342.341431 248.0 
343.048553 268.0 
345.277832 236.0 
350.058105 692.0 
350.413147 224.0 
351.915619 232.0 
352.037445 1244.0 
353.044617 316.0 
354.033722 580.0 
358.537476 300.0 
359.860413 196.0 
361.03186 284.0 
363.546265 212.0 
364.943573 204.0 
366.089966 6504.0 
366.213684 228.0 
367.088715 1644.0 
368.087646 1580.0 
369.315887 204.0 
370.090637 288.0 
370.835297 196.0 
371.138031 232.0 
372.120392 416.0 
372.352173 232.0 
374.104584 1800.0 
375.034607 212.0 
375.112823 508.0 
383.991302 228.0 
384.872864 232.0 
388.377899 244.0 
389.076111 280.0 
389.869232 196.0 
392.074646 388.0 
395.06604 220.0 
401.062408 252.0 
403.379669 196.0 
404.023254 224.0 
404.092651 240.0 
404.49527 248.0 
405.089081 556.0 
405.223816 256.0 
408.100586 4792.0 
408.265198 200.0 
408.571594 204.0 
409.106476 1684.0 
409.650787 424.0 
409.890869 280.0 
410.003632 220.0 
410.08139 63728.0 
410.251099 204.0 
410.666992 268.0 
411.084198 9700.0 
411.191315 236.0 
411.335815 224.0 
411.417816 224.0 
411.757538 208.0 
411.882324 204.0 
412.078278 18532.0 
412.707123 252.0 
413.080261 2696.0 
413.52179 208.0 
414.077942 544.0 
416.11676 392.0 
417.053711 308.0 
417.917023 216.0 
418.068542 224.0 
420.06723 220.0 
422.063995 432.0 
424.056305 256.0 
430.401428 204.0 
445.354767 200.0 
446.081421 200.0 
447.810089 196.0 
449.651764 224.0 
452.044952 196.0 
452.091095 12180.0 
453.09082 2460.0 
453.505371 212.0 
454.09024 3976.0 
455.091583 1236.0 
455.212219 216.0 
455.585846 264.0 
456.093597 312.0 
456.274017 212.0 
457.10733 344.0 
459.147064 272.0 
462.722137 212.0 
463.287231 200.0 
463.527069 204.0 
464.093384 700.0 
465.088562 420.0 
466.826782 232.0 
474.002594 300.0 
477.495819 208.0 
479.663239 268.0 
480.840424 312.0 
482.945465 228.0 
483.251587 220.0 
487.881012 244.0 
488.601959 280.0 
493.111115 240.0 
494.512573 220.0 
497.37912 224.0 
503.135254 384.0 
504.131317 380.0 
504.753876 276.0 
508.07486 448.0 
510.056854 216.0 
513.944885 224.0 
514.811218 232.0 
518.700623 204.0 
519.045044 220.0 
519.085815 280.0 
520.99585 204.0 
521.627808 200.0 
521.68634 436.0 
522.490967 260.0 
527.619263 220.0 
528.181763 204.0 
529.971008 256.0 
530.319153 192.0 
531.116638 228.0 
534.048096 304.0 
536.227356 196.0 
537.089172 848.0 
538.094055 580.0 
538.394836 216.0 
538.690308 224.0 
539.085876 332.0 
542.07251 216.0 
547.108704 1088.0 
548.110291 416.0 
549.097107 876.0 
550.09552 304.0 
551.08606 196.0 
551.65033 192.0 
552.047546 224.0 
552.992188 256.0 
554.902649 224.0 
557.004211 200.0 
558.051758 212.0 
561.485474 212.0 
563.932495 236.0 
566.131531 248.0 
567.099854 300.0 
567.148254 212.0 
569.1604 216.0 
569.673157 196.0 
569.801392 204.0 
575.872437 224.0 
576.383423 192.0 
577.128784 252.0 
578.352966 192.0 
578.558716 228.0 
579.271912 236.0 
579.573669 208.0 
580.881958 248.0 
581.543823 208.0 
582.426941 228.0 
586.558594 224.0 
590.820923 200.0 
591.096252 2164.0 
592.098145 776.0 
592.911804 228.0 
592.955444 200.0 
593.095093 776.0 
594.083435 684.0 
594.497009 208.0 
594.724976 204.0 
595.07666 332.0 
599.874146 200.0 
601.805298 272.0 
605.001404 212.0 
607.132629 11308.0 
608.057678 284.0 
608.138 3796.0 
608.592041 328.0 
609.127441 4504.0 
610.126099 592.0 
610.77478 192.0 
611.699463 224.0 
612.122681 436.0 
613.1026 316.0 
614.916809 216.0 
615.152893 544.0 
618.088135 192.0 
618.414612 200.0 
619.518372 216.0 
619.622375 276.0 
624.355896 220.0 
624.733765 244.0 
625.275879 264.0 
626.475403 264.0 
626.923645 204.0 
627.720886 200.0 
628.217407 228.0 
628.752808 200.0 
629.06134 328.0 
630.075806 220.0 
632.498962 324.0 
633.666504 200.0 
634.859009 208.0 
635.365417 196.0 
636.328613 192.0 
640.296082 220.0 
640.57135 228.0 
641.564941 196.0 
641.956787 204.0 
643.030945 196.0 
643.136902 204.0 
645.32843 196.0 
646.431641 212.0 
647.422485 216.0 
648.175598 196.0 
648.494324 204.0 
648.781616 240.0 
649.058594 208.0 
649.111511 264.0 
649.530823 204.0 
649.6427 200.0 
650.214722 208.0 
650.404602 200.0 
650.463318 216.0 
650.514099 208.0 
650.637634 264.0 
650.903503 316.0 
651.122253 50648.0 
651.676453 216.0 
652.029419 436.0 
652.052246 272.0 
652.123657 18328.0 
652.257935 364.0 
652.291077 380.0 
653.041443 196.0 
653.120544 18408.0 
653.96405 272.0 
654.120483 5208.0 
654.580566 248.0 
655.115662 1712.0 
655.345886 232.0 
655.898376 324.0 
657.20575 220.0 
657.708801 260.0 
662.518799 192.0 
662.687805 244.0 
662.945007 236.0 
663.148804 328.0 
664.02002 248.0 
664.363586 192.0 
664.881592 376.0 
666.097412 252.0 
667.604431 260.0 
668.780945 248.0 
669.097412 256.0 
671.402283 220.0 
671.453857 192.0 
671.556091 212.0 
673.360535 196.0 
675.27063 200.0 
676.613831 212.0 
677.141785 264.0 
677.437744 220.0 
678.328308 220.0 
678.719421 244.0 
679.522522 272.0 
680.003845 292.0 
681.014526 192.0 
682.968079 216.0 
683.043335 204.0 
683.500244 244.0 
684.035156 256.0 
684.120789 340.0 
684.580811 392.0 
684.814209 196.0 
684.943115 192.0 
685.078796 332.0 
685.236816 196.0 
685.332336 220.0 
685.596985 292.0 
685.833679 328.0 
685.922485 232.0 
686.282349 252.0 
686.329712 212.0 
686.535522 216.0 
686.554321 204.0 
686.624756 344.0 
686.658203 408.0 
686.704468 208.0 
686.838196 204.0 
687.100647 173088.0 
687.272339 316.0 
687.528564 380.0 
687.585571 276.0 
687.738342 268.0 
687.828552 212.0 
687.878479 284.0 
687.959717 1280.0 
688.025574 424.0 
688.102539 62328.0 
688.231079 460.0 
688.345764 236.0 
688.390259 248.0 
688.430847 320.0 
688.598877 244.0 
688.688599 192.0 
688.731873 232.0 
688.776733 348.0 
688.827087 244.0 
688.870605 480.0 
688.886169 308.0 
688.98175 540.0 
689.0979 125220.0 
689.36322 244.0 
689.58197 312.0 
689.654053 288.0 
689.710388 208.0 
689.862 272.0 
689.961182 400.0 
690.098694 39324.0 
690.259399 192.0 
690.342346 248.0 
690.463257 204.0 
690.669922 220.0 
690.740723 232.0 
690.93512 292.0 
691.094421 23584.0 
691.208435 228.0 
691.296021 200.0 
691.443481 300.0 
691.559509 264.0 
691.649658 248.0 
691.702454 216.0 
692.01355 368.0 
692.092773 2484.0 
692.254883 220.0 
692.343994 244.0 
692.522644 320.0 
692.792297 232.0 
692.862671 212.0 
693.09552 336.0 
693.290466 252.0 
693.739929 260.0 
694.098206 192.0 
694.763428 240.0 
694.92627 212.0 
695.755676 192.0 
696.925903 192.0 
703.066284 236.0 
709.073975 268.0 
719.474243 204.0 
839.040588 196.0 
993.69928 196.0 
1127.197876 264.0 
1448.274902 208.0 
1517.229614 192.0 
1839.594849 220.0 
END IONS

