BEGIN IONS
PEPMASS=694.27
CHARGE=0+
MSLEVEL=2
SOURCE_INSTRUMENT=LC-ESI-qTof
FILENAME=20130313__A1921_Palmyramide_A_MNa694.3-qb.1.1..mgf
SEQ=*..*
IONMODE=Positive
ORGANISM=GNPS-LIBRARY
NAME=Palmyramide A in #1921 M+Na
PI=Gerwick
DATACOLLECTOR=Jenia
SMILES=CCC[C@@H]1C(C(=O)O[C@H](C(=O)O[C@H](C(=O)N2CCC[C@H]2C(=O)N([C@@H](C(=O)N[C@H](C(=O)O1)C(C)C)C(C)C)C)CC3=CC=CC=C3)C)(C)C
INCHI=InChI=1S/C36H53N3O9/c1-10-15-27-36(7,8)35(45)46-23(6)33(43)47-26(20-24-16-12-11-13-17-24)32(42)39-19-14-18-25(39)31(41)38(9)29(22(4)5)30(40)37-28(21(2)3)34(44)48-27/h11-13,16-17,21-23,25-29H,10,14-15,18-20H2,1-9H3,(H,37,40)/t23-,25-,26-,27+,28-,29+/m0/s1
INCHIAUX=N/A
PUBMED=N/A
SUBMITUSER=mwang87
LIBRARYQUALITY=1
SPECTRUMID=CCMSLIB00000001751
SCANS=1
196.450714 13138.0 
249.849487 5713.0 
308.161255 58779.0 
321.773071 22644.0 
335.062012 43708.0 
339.918701 11059.0 
344.461914 12973.0 
372.024353 4345.0 
380.922729 86687.0 
385.193787 4118.0 
410.235352 27318.0 
441.66748 6671.0 
476.087097 7773.0 
480.064575 157962.0 
481.461853 16487.0 
482.113342 764895.0 
483.041809 81384.0 
511.15155 1757.0 
524.302246 8066.0 
526.99585 4543.0 
549.145752 8641.0 
550.200439 10624.0 
552.217041 33367.0 
571.171753 18087.0 
577.106445 653868.0 
581.24939 17583.0 
595.096924 1956899.0 
596.002808 48802.0 
622.400757 153703.0 
623.111084 3.0 
648.278687 45567.0 
666.463379 9227.0 
694.529541 4745.0 
END IONS

