BEGIN IONS
PEPMASS=1086.55
CHARGE=1+
MSLEVEL=2
SOURCE_INSTRUMENT=LC-ESI-Orbitrap
FILENAME=f.RReher/Culebra/pure_compounds/1104_Kurahamide/2286_SPE1-1-16_Kurahamide_MS2_M+H-H2O_QE.mgf;
SEQ=*..*
IONMODE=Positive
ORGANISM=GNPS-LIBRARY
NAME=Kurahamide M+H-H2O
PI=Gerwick
DATACOLLECTOR=Raphael Reher
SMILES=CCCC(N[C@H](C(N[C@H](C(N[C@H]1[C@@H](C)OC([C@H](C(C)C)NC([C@H](CC2=CC=C(O)C=C2)N(C)C([C@H](CC3=CC=CC=C3)N4C(O)CC[C@H](NC(/C(NC1=O)=C\C)=O)C4=O)=O)=O)=O)=O)[C@H](OC([C@@H](NC(CCC)=O)C)=O)C)=O)C)=O
INCHI=
INCHIAUX=
PUBMED=
SUBMITUSER=RReher
LIBRARYQUALITY=3
SPECTRUMID=CCMSLIB00005723418
SCANS=1
84.04277 1403.551147 
84.043503 4435.374512 
84.044235 7742.32959 
84.04496 9041.664062 
84.045692 7330.999023 
84.046425 3947.987793 
86.516411 2001.451538 
86.517174 4123.20752 
86.517937 5038.218262 
86.5187 4104.515137 
86.519463 2091.522461 
89.436882 2582.794189 
89.437683 4249.252441 
89.438484 4938.713867 
89.439285 4202.790039 
89.440094 2519.979248 
91.052284 5047.704102 
91.053108 15973.032227 
91.053932 27649.96875 
91.054756 33332.386719 
91.05558 24267.650391 
91.056404 13519.78125 
91.057228 4505.833008 
91.058052 2092.039551 
91.944923 1506.100586 
91.945755 4565.443359 
91.946594 7829.895508 
91.947426 9395.037109 
91.948265 8104.472656 
103.051514 2303.390869 
103.052505 5905.569824 
103.053497 10538.729492 
103.054489 13078.635742 
103.055481 11621.583984 
103.056473 7289.309082 
103.057465 2981.5896 
104.032845 2739.424072 
104.033852 4774.688965 
104.034859 5658.276855 
104.035866 4942.403809 
104.036873 3119.759766 
107.046684 2374.229736 
107.047729 4160.631348 
107.048782 4946.913574 
107.049835 4231.160645 
107.050888 2495.301514 
110.056252 779.951599 
110.057343 6436.474609 
110.058441 17535.0 
110.05954 29631.476562 
110.060631 33576.519531 
110.061729 22902.632812 
110.06282 11727.852539 
110.063919 3303.973389 
110.06501 1178.075073 
111.088623 1599.129639 
111.089729 4589.311035 
111.090843 8111.438965 
111.091957 9980.762695 
111.093063 8740.975586 
111.094177 5241.878418 
111.095284 1864.636841 
114.088806 3897.875488 
114.089958 11179.412109 
114.091118 19074.183594 
114.09227 20460.826172 
114.09343 13285.569336 
114.094582 6224.165527 
114.095741 1572.020996 
120.076347 28356.892578 
120.077599 124327.710938 
120.078842 304773.125 
120.080093 499670.75 
120.081337 562612.9375 
120.082588 391262.96875 
120.083839 210162.515625 
120.085083 68237.078125 
120.086334 24594.435547 
120.087578 14375.224609 
120.088829 7015.45752 
127.081871 1081.917847 
127.083229 6632.064453 
127.084595 15542.40625 
127.085953 25295.800781 
127.087311 27121.046875 
127.088669 17942.4375 
127.090027 8888.261719 
127.091385 2129.319824 
135.06514 3628.406738 
135.06662 5704.095703 
135.068115 6362.843262 
135.069611 5188.258789 
135.071091 2996.999756 
139.0811 854.076477 
139.082657 7396.167969 
139.084213 16312.767578 
139.08577 25346.224609 
139.087326 23473.541016 
139.088867 14344.746094 
139.090424 6270.933105 
139.09198 1614.007324 
142.079788 260.06778 
142.081406 6672.129395 
142.083008 19705.177734 
142.08461 33490.144531 
142.086212 39275.125 
142.08783 28246.662109 
142.089432 15834.072266 
142.091034 5891.407227 
142.092651 1697.289185 
146.092712 2227.849854 
146.094391 5018.767578 
146.096069 6879.499023 
146.097733 6516.118652 
146.099411 4254.874023 
146.101089 1729.261963 
150.084961 34780.570312 
150.0867 156227.625 
150.08844 370888.53125 
150.090195 602750.375 
150.091934 662504.4375 
150.093674 454344.09375 
150.095428 241106.03125 
150.097168 79180.789062 
150.098907 30263.642578 
150.100662 18739.460938 
150.102402 10143.282227 
150.104141 1871.124023 
153.06221 3096.665283 
153.063995 5922.385254 
153.065796 7420.539551 
153.067596 6553.31543 
153.069397 4032.905518 
155.075546 1590.743408 
155.077393 4378.12207 
155.079224 10348.152344 
155.081055 15950.063477 
155.082886 14808.927734 
155.084717 8834.086914 
155.086548 3653.813965 
155.088379 1372.195679 
157.702179 2685.807129 
157.704071 4788.959961 
157.705948 5520.483887 
157.707825 4371.266113 
157.709702 2193.607422 
158.087708 839.559448 
158.089584 6661.801758 
158.091476 30847.951172 
158.093353 73087.328125 
158.095245 118634.765625 
158.097122 129470.578125 
158.099014 88082.117188 
158.100906 46149.328125 
158.102783 14117.674805 
158.104675 4480.919434 
158.106552 2671.798584 
167.073196 236.041992 
167.075241 4079.473389 
167.077301 15551.358398 
167.079346 29332.984375 
167.08139 41378.6875 
167.083435 35181.996094 
167.085495 21448.470703 
167.08754 8931.177734 
167.089584 3028.319336 
167.091629 1690.438232 
170.08754 258.617462 
170.089645 3703.184814 
170.091751 15531.196289 
170.093857 29277.884766 
170.095963 41113.796875 
170.098068 34132.84375 
170.100174 20203.664062 
170.10228 7350.960938 
170.10437 2078.654541 
179.07196 380.267914 
179.074234 3772.120117 
179.076508 14573.801758 
179.078781 28595.705078 
179.081055 42196.554688 
179.083328 37654.242188 
179.085602 22880.314453 
179.087875 9334.356445 
179.090149 2434.620117 
187.1035 298.402069 
187.105927 6994.10498 
187.108353 5040.304688 
187.110779 4381.925781 
187.112915 3605.501465 
187.115341 15136.664062 
187.117767 54459.660156 
187.120193 101222.34375 
187.12262 142164.359375 
187.125046 120970.632812 
187.127472 73092.671875 
187.129898 29140.533203 
187.132339 8789.018555 
187.134766 3668.955078 
187.137192 2651.775146 
193.0914 3030.897705 
193.093948 6362.159668 
193.096497 9223.4375 
193.099045 9664.074219 
193.101578 7239.583496 
193.104126 3592.145264 
197.115234 557.320801 
197.117859 3693.500732 
197.120483 21988.578125 
197.123108 75303.695312 
197.125732 132403.96875 
197.128357 175498.734375 
197.130981 138835.65625 
197.133606 81936.859375 
197.13623 29762.320312 
197.138855 9760.734375 
197.141495 3753.558105 
197.144119 1129.660156 
206.086151 4204.707031 
206.088959 6197.84082 
206.091766 7096.533203 
206.094559 6125.122559 
206.097366 3766.687012 
206.122635 2588.511475 
206.125443 4602.385742 
206.12825 5333.603027 
206.131058 4416.064941 
206.133865 2609.005615 
213.092819 2465.349121 
213.095779 5268.718262 
213.098724 8184.355957 
213.101669 9504.603516 
213.10463 8116.838867 
213.107574 4713.791016 
213.110535 1385.645386 
215.101471 5811.777832 
215.104462 4413.105469 
215.107452 19367.765625 
215.110443 87886.820312 
215.113434 211934.8125 
215.116425 345091.21875 
215.119415 370507.125 
215.122421 249363.625 
215.125412 129660.117188 
215.128403 44690.5625 
215.131393 38137.777344 
215.134384 73302.546875 
215.137375 109853.328125 
215.140366 117990.148438 
215.143372 82567.375 
215.146362 35717.3125 
215.149353 6466.401855 
215.152344 2514.382324 
222.114731 2424.343018 
222.117874 4842.60498 
222.121017 6636.616211 
222.124146 6515.671875 
222.127289 4370.307617 
225.110947 714.601562 
225.114151 8729.870117 
225.117355 23825.759766 
225.12056 40054.597656 
225.123764 44714.265625 
225.126968 30526.724609 
225.130173 15831.300781 
225.133377 5029.745605 
225.136581 2326.544434 
232.100494 3807.427246 
232.103836 7724.347168 
232.107193 10357.710938 
232.11055 9649.209961 
232.113907 6133.945801 
232.117264 2331.219727 
243.094177 2603.522461 
243.097763 7473.660156 
243.101364 39575.777344 
243.10495 140327.46875 
243.108551 255941.203125 
243.112152 353563.125 
243.115738 294923.6875 
243.119339 178099.75 
243.12294 70792.90625 
243.126526 24956.734375 
243.130127 13787.143555 
243.133728 10931.753906 
243.137314 3781.398193 
243.140915 1504.32373 
250.104752 1712.723877 
250.108505 11956.316406 
250.112259 27386.941406 
250.115997 44071.777344 
250.119751 45990.519531 
250.123505 30659.541016 
250.127258 15745.556641 
250.131012 5042.108887 
250.134766 1821.000488 
256.974426 3719.336914 
256.978333 5714.88916 
256.982239 6721.425781 
256.986145 6198.462891 
256.990051 4374.949219 
268.115936 1037.034668 
268.120117 3853.099609 
268.124268 11072.023438 
268.128418 16371.604492 
268.132599 14569.728516 
268.136749 8536.96582 
268.14093 3364.729004 
268.145081 1186.610596 
280.158112 3860.678467 
280.162567 6066.130371 
280.167023 6533.438477 
280.171478 5074.504883 
280.175903 2734.197021 
281.121307 4341.614258 
281.125793 6783.937988 
281.130249 7543.681641 
281.134735 6116.229004 
281.139191 3464.603027 
295.149292 2288.365234 
295.154114 10144.606445 
295.158905 22144.263672 
295.163727 34780.605469 
295.168518 34313.542969 
295.17334 21286.787109 
295.178162 9326.96875 
295.182953 1548.517456 
298.13736 1115.547241 
298.142242 8550.803711 
298.147125 18164.804688 
298.152008 27800.158203 
298.156891 25592.800781 
298.161774 15869.987305 
298.166656 7130.647461 
298.171539 1573.584473 
308.108978 600.699829 
308.114105 5449.294922 
308.119232 16169.958984 
308.124359 27560.671875 
308.129486 31799.167969 
308.134613 21934.488281 
308.13974 11393.822266 
308.144897 4293.829102 
308.150024 6497.731934 
308.155151 11944.235352 
308.160278 15337.754883 
308.165405 12131.560547 
308.170532 5632.667969 
308.175659 1801.61438 
321.142944 2985.11792 
321.148407 6769.189453 
321.15387 9863.025391 
321.159332 9880.912109 
321.164795 6858.734863 
321.170258 3030.709961 
326.126709 283.531036 
326.132294 6424.428223 
326.137878 19477.726562 
326.143463 33053.011719 
326.149048 38447.0 
326.154633 27488.970703 
326.160217 15270.799805 
326.165802 5565.313965 
326.171387 1740.033936 
384.182739 65.485931 
384.18988 5777.808105 
384.197021 20819.060547 
384.204163 38364.921875 
384.211304 53730.636719 
384.218445 45961.046875 
384.225586 27935.472656 
384.232727 11387.579102 
384.239868 3146.342773 
391.169586 2952.774414 
391.176941 12204.776367 
391.184265 33543.613281 
391.19162 56738.394531 
391.198944 68718.039062 
391.206299 49840.511719 
391.213623 27315.234375 
391.220978 7904.455566 
391.228302 1818.190308 
409.181091 2563.098145 
409.188934 11748.977539 
409.196808 23390.974609 
409.204651 34992.292969 
409.212494 32130.291016 
409.220337 19687.787109 
409.22821 8510.450195 
409.236053 2027.246826 
420.16098 15688.039062 
420.169159 62987.613281 
420.177307 157183.890625 
420.185486 259318.796875 
420.193665 299048.6875 
420.201843 210913.6875 
420.209991 114297.34375 
420.21817 34990.921875 
420.226349 9959.771484 
420.234497 5003.449707 
420.242676 3172.685303 
503.185059 18.948156 
503.19577 4166.960938 
503.206482 14603.237305 
503.217194 25928.287109 
503.227905 34443.453125 
503.238617 27353.234375 
503.249329 16183.441406 
503.26001 5866.422852 
503.270721 1664.745361 
529.345032 3291.356445 
529.356628 5705.164062 
529.368164 6601.459473 
529.3797 5410.375977 
529.391235 2975.005615 
550.252441 4519.682129 
550.264648 8837.341797 
550.276917 12231.898438 
550.289124 12289.375977 
550.301392 8871.879883 
550.31366 4375.525879 
END IONS

