BEGIN IONS
PEPMASS=855.4
CHARGE=0+
MSLEVEL=2
SOURCE_INSTRUMENT=LC-ESI-qTof
FILENAME=20130516_Ger_Karin_Cyanolide_A_qbMNa8554.1.1..mgf
SEQ=*..*
IONMODE=Positive
ORGANISM=GNPS-LIBRARY
NAME=Cyanolide_A M+H
PI=Gerwick
DATACOLLECTOR=Karin
SMILES=CC[C@@H]1C[C@@H]2C[C@@H](C([C@@H](O2)CC(=O)O[C@@H](C[C@@H]3C[C@@H](C([C@@H](O3)CC(=O)O1)(C)C)O[C@H]4[C@@H]([C@H]([C@@H](CO4)OC)OC)OC)CC)(C)C)O[C@H]5[C@@H]([C@H]([C@@H](CO5)OC)OC)OC
INCHI=InChI=1S/C42H72O16/c1-13-23-15-25-17-29(57-39-37(49-11)35(47-9)27(45-7)21-51-39)41(3,4)32(53-25)20-34(44)56-24(14-2)16-26-18-30(42(5,6)31(54-26)19-33(43)55-23)58-40-38(50-12)36(48-10)28(46-8)22-52-40/h23-32,35-40H,13-22H2,1-12H3/t23-,24-,25-,26-,27-,28-,29+,30+,31+,32+,35+,36+,37-,38-,39+,40+/m1/s1
INCHIAUX=N/A
PUBMED=N/A
SUBMITUSER=mwang87
LIBRARYQUALITY=1
SPECTRUMID=CCMSLIB00000001774
SCANS=1
264.936768 15709.0 
394.856567 6455.0 
439.092285 711175.0 
440.081909 174732.0 
482.16156 4359.0 
507.357239 37416.0 
508.460571 13450.0 
527.13916 1776.0 
552.180176 4669.0 
553.204102 11247.0 
554.452881 5965.0 
566.536255 25552.0 
581.086426 11699.0 
582.712402 16058.0 
613.078613 10763.0 
636.998291 7367.0 
638.155029 16883.0 
663.252075 19954.0 
665.175537 3168.0 
680.630615 22582.0 
681.237305 1060852.0 
682.314941 283245.0 
682.976807 5.0 
688.824707 6843.0 
787.613037 16252.0 
811.261841 165239.0 
812.401611 65265.0 
819.286743 2659.0 
826.097534 11248.0 
837.340942 3874.0 
854.944214 12108.0 
855.5448 8714.0 
END IONS

