BEGIN IONS
PEPMASS=738.0
CHARGE=0+
MSLEVEL=2
SOURCE_INSTRUMENT=LC-ESI-qTof
FILENAME=20121201_PAVL_Ger_LyngbyabellinA_MCl372Na738_qb.1.1..mgf
SEQ=*..*
IONMODE=Positive
ORGANISM=GNPS-LIBRARY
NAME=Lyngbyabellin A M+H
PI=Gerwick
DATACOLLECTOR=PAVL
SMILES=CC[C@H](C)[C@H]1C2=NC(=CS2)C(=O)O[C@H](C(C(=O)O[C@H](C3=NC(=CS3)C(=O)NCC(=O)N1)C(C)(C)O)(C)C)CCCC(C)(Cl)Cl
INCHI=InChI=1S/C29H40Cl2N4O7S2/c1-8-15(2)20-23-34-17(14-43-23)25(38)41-18(10-9-11-29(7,30)31)27(3,4)26(39)42-21(28(5,6)40)24-33-16(13-44-24)22(37)32-12-19(36)35-20/h13-15,18,20-21,40H,8-12H2,1-7H3,(H,32,37)(H,35,36)/t15-,18-,20-,21+/m0/s1
INCHIAUX=N/A
PUBMED=N/A
SUBMITUSER=mwang87
LIBRARYQUALITY=1
SPECTRUMID=CCMSLIB00000001628
SCANS=1
367.266785 3564.0 
477.243958 1973.0 
500.818115 4733.0 
533.153687 3433.0 
539.840088 2207.0 
678.219482 9439.0 
690.661865 6733.0 
691.897827 167138.0 
692.907227 116022.0 
718.726685 808.0 
719.361328 2496.0 
737.12561 8415.0 
738.295776 1636.0 
END IONS

