BEGIN IONS
PEPMASS=989.505
CHARGE=1+
MSLEVEL=2
SOURCE_INSTRUMENT=LC-ESI-qTof
FILENAME=f.RReher/Culebra/pure_compounds/989/2286_crude_2.99min_989.5049_MS2_M+H.mgf;
SEQ=*..*
IONMODE=Positive
ORGANISM=GNPS-LIBRARY
NAME=Rivulariapeptolide 988 M+H
PI=Gerwick
DATACOLLECTOR=Reher
SMILES=CC(C)[C@H](NC([C@H](CC1=CC=C(O)C=C1)N(C)C([C@H](CC2=CC=CC=C2)N3[C@H](O)CC[C@H](NC(/C(NC4=O)=C\C)=O)C3=O)=O)=O)C(O[C@H](C)[C@@H]4NC([C@H]([C@@H](O)C)NC(C5CCCN5C(CCC)=O)=O)=O)=O
INCHI=
INCHIAUX=
PUBMED=
SUBMITUSER=RReher
LIBRARYQUALITY=3
SPECTRUMID=CCMSLIB00005720230
SCANS=1
68.017853 182.0 
70.033997 902.0 
91.027229 308.0 
103.027512 128.0 
104.3815 63.0 
107.020264 90.0 
119.023582 158.0 
120.023529 69.0 
120.056 5822.0 
121.003395 93.0 
121.040199 68.0 
121.059631 448.0 
132.66304 66.0 
134.037445 80.0 
135.043579 219.0 
136.050873 71.0 
139.066208 76.0 
140.084015 8436.0 
141.088104 1117.0 
142.087296 101.0 
146.077133 234.0 
148.05545 91.0 
149.060333 72.0 
150.06955 34440.0 
151.072998 3832.0 
152.077637 199.0 
153.044846 154.0 
153.081818 89.0 
155.09494 72.0 
158.076263 2303.0 
159.081406 169.0 
167.061096 390.0 
168.082077 25445.0 
169.084869 2303.0 
170.078125 518.0 
171.082367 186.0 
178.069534 100.0 
179.06279 1195.0 
180.064026 85.0 
181.080521 131.0 
181.114532 119.0 
182.268799 62.0 
186.073654 71.0 
187.104782 8762.0 
188.107941 1091.0 
189.109116 113.0 
193.080856 102.0 
195.054916 115.0 
196.086105 284.0 
197.085815 69.0 
198.048477 69.0 
198.078842 112.0 
199.092407 73.0 
206.061462 92.0 
206.099136 67.0 
209.112198 322.0 
214.087952 70.0 
215.101486 24560.0 
216.10379 3678.0 
217.107025 310.0 
223.128479 1980.0 
224.131683 553.0 
225.10939 547.0 
226.071289 461.0 
226.107971 159.0 
227.074448 215.0 
241.085983 159.0 
241.140549 3462.0 
242.144241 573.0 
243.098511 66147.0 
243.199539 70.0 
244.101746 11269.0 
245.104187 913.0 
245.486938 77.0 
246.108109 133.0 
248.118164 128.0 
249.143585 320.0 
250.099319 225.0 
250.148514 119.0 
251.125687 3242.0 
252.126144 513.0 
253.087479 62.0 
253.125732 194.0 
261.108185 348.0 
262.113678 165.0 
264.119598 152.0 
266.136841 94.0 
268.121918 128.0 
268.154907 231.0 
269.061493 77.0 
269.136963 21226.0 
270.141266 3303.0 
271.143799 296.0 
274.123077 100.0 
277.140717 450.0 
278.097626 203.0 
278.147797 99.0 
280.153595 103.0 
281.11853 81.0 
290.133667 88.0 
294.133759 79.0 
295.154022 10450.0 
296.157135 1753.0 
297.161652 289.0 
298.144226 3834.0 
299.146179 761.0 
300.145477 127.0 
306.170532 398.0 
308.119232 4004.0 
309.120483 719.0 
310.123566 272.0 
313.146149 94.0 
314.142212 156.0 
314.17984 109.0 
315.147491 100.0 
323.166077 343.0 
324.128052 75.0 
324.182129 515.0 
325.148438 348.0 
326.141205 9067.0 
327.142487 1981.0 
328.148224 346.0 
330.148773 68.0 
332.185822 295.0 
333.192352 199.0 
334.167877 5650.0 
335.169525 1451.0 
336.171631 314.0 
342.188965 124.0 
343.164032 93.0 
345.136597 64.0 
345.1651 63.0 
347.163177 500.0 
348.165314 289.0 
350.198669 1927.0 
351.164001 684.0 
351.199097 196.0 
352.17807 3718.0 
353.179993 685.0 
360.180573 138.0 
363.165009 473.0 
364.168365 178.0 
365.174927 196.0 
366.176971 83.0 
370.190491 263.0 
371.194397 131.0 
373.180786 226.0 
374.184875 126.0 
375.164368 210.0 
376.165466 93.0 
378.208649 65.0 
382.170074 123.0 
386.200562 1135.0 
387.207214 600.0 
391.191315 2090.0 
391.237549 171.0 
392.147125 140.0 
392.191589 1075.0 
393.193542 214.0 
399.19693 308.0 
409.185242 855.0 
410.191528 265.0 
411.202423 65.0 
415.745239 70.0 
417.033203 81.0 
417.208038 18731.0 
417.284576 88.0 
417.94931 83.0 
418.210175 4385.0 
418.956329 66.0 
419.16806 93.0 
419.216522 805.0 
419.27713 74.0 
419.369385 85.0 
419.411804 107.0 
419.600586 107.0 
419.741821 96.0 
419.971832 94.0 
420.030609 150.0 
420.185974 156056.0 
420.286377 69.0 
420.319977 76.0 
420.403473 62.0 
420.472687 91.0 
420.512207 125.0 
420.665497 147.0 
420.75708 98.0 
420.819275 75.0 
420.916382 64.0 
421.045319 68.0 
421.093719 89.0 
421.189636 43964.0 
421.5224 78.0 
421.62738 72.0 
421.739502 62.0 
422.192535 6668.0 
423.194122 795.0 
423.251373 107.0 
423.45459 76.0 
423.608734 66.0 
423.755127 92.0 
423.903748 91.0 
424.19812 89.0 
425.207458 73.0 
427.197662 119.0 
428.215424 64.0 
429.207489 65.0 
434.181091 252.0 
434.231049 68.0 
434.709351 67.0 
435.218506 44483.0 
435.760284 73.0 
435.941864 79.0 
436.133087 64.0 
436.221313 11027.0 
437.182922 179.0 
437.223907 1416.0 
437.742554 62.0 
438.200043 245.0 
439.198975 74.0 
439.251343 223.0 
442.226654 84.0 
443.227539 609.0 
444.2211 68.0 
445.20343 103.0 
445.249908 126.0 
446.238586 64.0 
451.248413 505.0 
452.257904 234.0 
453.230499 1223.0 
454.23111 450.0 
461.236816 1012.0 
462.244629 297.0 
463.236755 68.0 
465.262848 371.0 
466.266144 292.0 
468.242401 63.0 
469.213196 83.0 
469.264038 145.0 
471.236786 111.0 
475.226501 78.0 
476.233032 87.0 
478.258301 95.0 
480.25235 63.0 
481.241211 88.0 
489.234985 86.0 
490.233826 63.0 
491.257294 67.0 
492.208008 313.0 
492.698547 71.0 
493.222748 91.0 
494.2117 63.0 
497.225983 135.0 
499.562073 64.0 
501.200989 146.0 
503.226318 16311.0 
503.961121 64.0 
504.229156 5455.0 
505.235229 952.0 
505.718506 78.0 
506.232605 291.0 
507.240601 62.0 
508.194153 71.0 
508.25769 63.0 
511.180542 92.0 
511.250732 329.0 
511.686523 73.0 
512.264404 195.0 
513.208862 93.0 
514.225403 864.0 
514.727722 430.0 
515.225098 431.0 
519.258606 1221.0 
520.260986 505.0 
521.236816 99.0 
521.286255 90.0 
523.226013 160.0 
523.729065 82.0 
526.262756 94.0 
529.264221 146.0 
530.249634 98.0 
533.158752 79.0 
534.291626 217.0 
535.290588 63.0 
536.295471 66.0 
537.26709 4556.0 
538.273743 1484.0 
539.276794 337.0 
540.27002 76.0 
542.233154 89.0 
547.283569 106.0 
552.302246 1614.0 
553.304871 594.0 
554.307434 161.0 
559.252197 290.0 
559.298828 98.0 
560.260742 147.0 
562.27887 63.0 
565.296997 117.0 
569.316833 70.0 
570.238831 85.0 
586.264221 187.0 
586.407349 69.0 
587.283569 161.0 
589.678345 67.0 
594.295227 77.0 
595.298828 66.0 
600.345032 113.0 
601.333008 71.0 
602.309082 429.0 
603.310547 226.0 
604.275513 141.0 
612.308838 99.0 
614.31012 66.0 
615.272339 101.0 
619.357971 116.0 
620.307556 815.0 
621.315857 449.0 
622.304077 89.0 
627.311523 94.0 
628.335388 1070.0 
629.331177 588.0 
630.340515 272.0 
631.32959 450.0 
632.329956 86.0 
633.30603 440.0 
634.308105 179.0 
641.315186 116.0 
644.279785 84.0 
646.343994 1048.0 
647.345703 493.0 
648.348511 89.0 
649.33374 109.0 
650.332397 81.0 
651.32074 134.0 
657.328491 79.0 
658.322876 276.0 
659.322388 1717.0 
660.321472 626.0 
661.340942 142.0 
664.365784 256.0 
665.377258 64.0 
667.358032 158.0 
669.296509 65.0 
675.34906 218.0 
676.348267 71.0 
677.331421 1445.0 
678.334961 791.0 
679.334839 155.0 
680.329773 77.0 
685.339111 1740.0 
686.335754 816.0 
687.331604 146.0 
688.333435 64.0 
689.255981 80.0 
695.342896 910.0 
696.349487 525.0 
697.350647 114.0 
702.353638 67.0 
703.346375 3974.0 
704.350769 1361.0 
705.356201 317.0 
706.344971 101.0 
711.376587 906.0 
712.384644 268.0 
713.384827 94.0 
721.349976 158.0 
722.37561 229.0 
728.405212 101.0 
729.280212 71.0 
729.383789 10143.0 
730.388733 4302.0 
731.388367 1043.0 
732.385803 62.0 
733.418701 66.0 
734.369507 69.0 
746.416382 259.0 
759.419617 110.0 
760.437622 94.0 
761.434692 64.0 
766.417419 101.0 
771.376587 80.0 
776.405396 270.0 
777.413086 182.0 
780.400635 65.0 
786.382446 172.0 
787.376526 65.0 
788.369873 120.0 
793.41803 88.0 
794.412964 346.0 
795.415039 364.0 
804.394226 630.0 
805.401611 341.0 
806.403442 133.0 
808.397461 108.0 
810.383972 159.0 
822.385559 73.0 
824.424683 67.0 
826.415649 64.0 
831.431274 95.0 
832.473083 67.0 
833.401611 92.0 
836.400391 364.0 
837.400696 258.0 
838.410645 128.0 
843.421997 104.0 
854.413147 874.0 
855.416748 428.0 
856.207581 66.0 
856.428528 183.0 
856.715149 66.0 
858.433899 69.0 
870.445984 104.0 
872.42627 1922.0 
873.426697 957.0 
874.43512 151.0 
876.453125 82.0 
901.451904 378.0 
902.453247 142.0 
909.48291 184.0 
910.455444 77.0 
911.4375 63.0 
915.507996 136.0 
925.497009 95.0 
927.468323 547.0 
928.463318 256.0 
929.47345 132.0 
935.475647 386.0 
936.47345 175.0 
937.453308 102.0 
942.415344 82.0 
943.496521 694.0 
944.501648 529.0 
945.471802 107.0 
945.51886 91.0 
951.559326 63.0 
953.481567 6192.0 
954.486877 3460.0 
955.483337 760.0 
956.489929 293.0 
967.561768 73.0 
967.881592 69.0 
968.5802 85.0 
970.451294 66.0 
971.154846 75.0 
971.264526 104.0 
971.49353 47879.0 
971.671814 97.0 
972.295776 94.0 
972.496582 29495.0 
972.653687 77.0 
972.800537 66.0 
973.071167 88.0 
973.263184 95.0 
973.498657 9802.0 
974.504395 2093.0 
974.670654 71.0 
975.509888 334.0 
976.528381 76.0 
976.968811 73.0 
978.07135 67.0 
984.436829 65.0 
985.452698 891.0 
986.246399 82.0 
986.453308 1162.0 
987.448853 1362.0 
987.649292 64.0 
988.451233 491.0 
988.956116 69.0 
989.455017 202.0 
END IONS

