BEGIN IONS
TITLE=Scan Number: 2126
PEPMASS=582.36603
CHARGE=1+
COMPOUNDNAME=Rosamicin
LIBRARYQUALITY=1
SMILES=CC[C@@H]1[C@H]([C@H]2[C@@](O2)(/C=C/C(=O)[C@@H](C[C@@H]([C@@H]([C@H]([C@@H](CC(=O)O1)O)C)O[C@H]3[C@@H]([C@H](C[C@H](O3)C)N(C)C)O)CC=O)C)C)C
INCHIKEY=IUPCWCLVECYZRV-JZMZINANSA-N
INCHI=N/A
MSLEVEL=2
SOURCE_INSTRUMENT=LC-ESI-qTof
FILENAME=RLPA-2021CDE_P2_RC11_01_20532.mzXML
SEQ=*..*
NOTES=
IONMODE=Positive
ORGANISM=GNPS-LIBRARY
NAME=Rosamicin M+H
SPECTRUMID=CCMSLIB00000223877
ACTIVATION=CID
INSTRUMENT=ion trap
SCANS=2126
45.138725 172.0 
45.188168 180.0 
45.225605 112.0 
45.398273 200.0 
45.481377 124.0 
45.526981 228.0 
45.557846 152.0 
45.638519 244.0 
45.755356 140.0 
45.795715 184.0 
45.850903 224.0 
46.02206 164.0 
46.140846 140.0 
46.192188 152.0 
46.209759 180.0 
46.277367 224.0 
46.343674 136.0 
46.418156 144.0 
46.608013 124.0 
46.685425 148.0 
46.779221 156.0 
46.870384 180.0 
47.077538 176.0 
47.222267 160.0 
47.246868 108.0 
47.296085 184.0 
47.308392 144.0 
47.434303 192.0 
47.460327 208.0 
47.508286 180.0 
47.734699 148.0 
47.830914 124.0 
47.840542 240.0 
47.881809 196.0 
47.954765 64.0 
47.967125 164.0 
48.063606 132.0 
48.165676 92.0 
48.201561 56.0 
48.418549 188.0 
48.537617 172.0 
48.557011 140.0 
48.581955 220.0 
48.684574 180.0 
48.781742 176.0 
48.866497 40.0 
48.934631 152.0 
49.032047 100.0 
49.089153 112.0 
49.363995 160.0 
49.422688 144.0 
49.433872 176.0 
49.464634 140.0 
49.516392 156.0 
49.526188 116.0 
49.57798 256.0 
49.688648 140.0 
49.814877 192.0 
49.879459 80.0 
49.917381 196.0 
50.045475 168.0 
50.242439 188.0 
50.255127 92.0 
50.270634 160.0 
50.293194 120.0 
50.369793 188.0 
50.524727 184.0 
50.664749 36.0 
50.687401 144.0 
50.761562 152.0 
50.824814 140.0 
51.047619 140.0 
51.080303 144.0 
51.110149 288.0 
51.25383 148.0 
51.315063 160.0 
51.374905 192.0 
51.536087 188.0 
51.554646 44.0 
51.584633 168.0 
51.682529 188.0 
51.711815 176.0 
51.751862 172.0 
51.779045 72.0 
51.810528 216.0 
51.896439 144.0 
51.963787 68.0 
52.049828 112.0 
52.138809 196.0 
52.187637 132.0 
52.200565 212.0 
52.258049 228.0 
52.286804 184.0 
52.397575 184.0 
52.41053 88.0 
52.433567 72.0 
52.460926 176.0 
52.537285 52.0 
52.609375 140.0 
52.646881 140.0 
52.665638 160.0 
52.711826 128.0 
52.762367 224.0 
52.841503 156.0 
52.875088 112.0 
52.88868 160.0 
53.000957 64.0 
53.028465 216.0 
53.083504 148.0 
53.128426 192.0 
53.485569 180.0 
53.551029 156.0 
53.564129 140.0 
53.593239 164.0 
53.626724 96.0 
53.639156 176.0 
53.832237 72.0 
53.88623 108.0 
53.941715 152.0 
54.058609 152.0 
54.095165 172.0 
54.122959 144.0 
54.221016 128.0 
54.276669 144.0 
54.421795 152.0 
54.445271 172.0 
54.52327 140.0 
54.533188 196.0 
54.553898 40.0 
54.620007 132.0 
54.658222 140.0 
54.684689 176.0 
54.721455 164.0 
54.734695 48.0 
54.825943 212.0 
54.867176 212.0 
55.03669 156.0 
55.086857 220.0 
55.098663 136.0 
55.163628 116.0 
55.175442 144.0 
55.191692 176.0 
55.317329 184.0 
55.601646 64.0 
55.61351 200.0 
55.629822 184.0 
55.653557 220.0 
55.714394 164.0 
55.779716 192.0 
55.79892 172.0 
55.876289 128.0 
55.956585 168.0 
56.019512 176.0 
56.074154 152.0 
56.354435 52.0 
56.388775 212.0 
56.487484 204.0 
56.654873 152.0 
56.696789 76.0 
56.714756 100.0 
56.761189 208.0 
56.954609 140.0 
57.342438 120.0 
57.398163 188.0 
57.416241 128.0 
57.563995 176.0 
57.656059 172.0 
57.7346 364.0 
57.801098 192.0 
57.841923 112.0 
57.895981 168.0 
58.028088 132.0 
58.070839 200.0 
58.091721 136.0 
58.111427 200.0 
58.251724 120.0 
58.271126 184.0 
58.367882 148.0 
58.606632 136.0 
58.618813 132.0 
58.653831 168.0 
58.714764 128.0 
58.728477 172.0 
58.7803 176.0 
58.813843 100.0 
58.83672 104.0 
59.050449 112.0 
59.106998 148.0 
59.22324 168.0 
59.289059 224.0 
59.33194 64.0 
59.367172 56.0 
59.41621 168.0 
59.446869 188.0 
59.476002 76.0 
59.604885 168.0 
59.687813 156.0 
59.703259 152.0 
59.76926 128.0 
60.090988 160.0 
60.174252 160.0 
60.225166 164.0 
60.305435 32.0 
60.413574 148.0 
60.512531 196.0 
60.545017 172.0 
60.579063 80.0 
60.766476 56.0 
60.795246 200.0 
60.926235 180.0 
61.221493 160.0 
61.247944 108.0 
61.392754 136.0 
61.539295 176.0 
61.57206 236.0 
61.623558 200.0 
61.734436 192.0 
61.771938 188.0 
61.787567 52.0 
61.91893 168.0 
61.959621 144.0 
61.997192 192.0 
62.0849 124.0 
62.403362 156.0 
62.48193 96.0 
62.741543 168.0 
62.755718 56.0 
62.873917 148.0 
62.941734 216.0 
62.984333 204.0 
63.012745 172.0 
63.224434 188.0 
63.267067 208.0 
63.44598 172.0 
63.517273 208.0 
63.558483 316.0 
63.575924 280.0 
63.674263 220.0 
63.686459 192.0 
63.692921 132.0 
63.698341 160.0 
63.847332 152.0 
63.861298 152.0 
63.93475 216.0 
64.292992 120.0 
64.345612 132.0 
64.414223 212.0 
64.450928 144.0 
64.471687 164.0 
64.490845 144.0 
64.538757 188.0 
64.623451 196.0 
64.681015 200.0 
64.80101 160.0 
64.844231 352.0 
64.873062 172.0 
64.900291 212.0 
64.91951 352.0 
64.977203 96.0 
65.041336 36.0 
65.07341 168.0 
65.381752 140.0 
65.394615 188.0 
65.70533 104.0 
65.746895 148.0 
65.824661 116.0 
65.910187 196.0 
65.953781 164.0 
65.984467 212.0 
66.036171 156.0 
66.231834 148.0 
66.533173 164.0 
66.624031 140.0 
66.637016 136.0 
66.724701 204.0 
66.744194 184.0 
66.863441 172.0 
66.883972 132.0 
66.89698 84.0 
66.945618 160.0 
66.983208 108.0 
67.439659 148.0 
67.522705 200.0 
67.634125 284.0 
67.650475 132.0 
67.661926 148.0 
67.76992 144.0 
67.887833 188.0 
67.986168 192.0 
68.038643 204.0 
68.143661 188.0 
68.197838 220.0 
68.250397 192.0 
68.265182 180.0 
68.390099 124.0 
68.457535 224.0 
68.482216 208.0 
68.495384 80.0 
68.745758 164.0 
68.759956 128.0 
68.83316 192.0 
68.86451 204.0 
68.87606 92.0 
68.904121 56.0 
68.961906 200.0 
69.332283 176.0 
69.382065 200.0 
69.45652 124.0 
69.478065 176.0 
69.488602 156.0 
69.6157 188.0 
69.690376 164.0 
69.81826 120.0 
69.881409 200.0 
70.007797 160.0 
70.074364 172.0 
70.108727 180.0 
70.274246 164.0 
70.30426 116.0 
70.355728 180.0 
70.489449 188.0 
70.664848 172.0 
70.748451 144.0 
70.924179 192.0 
70.966049 176.0 
71.012962 144.0 
71.091736 192.0 
71.24942 152.0 
71.314896 184.0 
71.486282 160.0 
71.560272 168.0 
71.576256 224.0 
71.597282 164.0 
71.649452 160.0 
71.669655 112.0 
71.747108 44.0 
71.796219 184.0 
72.050598 136.0 
72.065796 132.0 
72.087738 112.0 
72.106316 156.0 
72.136711 200.0 
72.263428 60.0 
72.351357 116.0 
72.386879 192.0 
72.439331 84.0 
72.517204 160.0 
72.57309 176.0 
72.625618 188.0 
72.764633 116.0 
72.970024 188.0 
73.014191 236.0 
73.109375 148.0 
73.231842 144.0 
73.291405 92.0 
73.340782 156.0 
73.37825 140.0 
73.480484 120.0 
73.570854 100.0 
73.644211 216.0 
73.876465 152.0 
74.090263 80.0 
74.171509 88.0 
74.294083 120.0 
74.306076 164.0 
74.319794 164.0 
74.333504 88.0 
74.369514 92.0 
74.434685 148.0 
74.742088 96.0 
74.819466 192.0 
74.859032 168.0 
75.024284 52.0 
75.115593 204.0 
75.258705 72.0 
75.30011 68.0 
75.343254 36.0 
75.36718 144.0 
75.407127 104.0 
75.446846 136.0 
75.604103 144.0 
75.652527 200.0 
75.743523 160.0 
75.939896 140.0 
76.002289 132.0 
76.066444 44.0 
76.0942 176.0 
76.330872 212.0 
76.356339 128.0 
76.448463 168.0 
76.589355 164.0 
76.716789 220.0 
76.751274 240.0 
76.765213 144.0 
76.787865 188.0 
76.953484 28.0 
77.065163 184.0 
77.157707 160.0 
77.346466 144.0 
77.41993 208.0 
77.435677 172.0 
77.465424 220.0 
77.496368 124.0 
77.52494 184.0 
77.559959 156.0 
77.668571 44.0 
77.719398 132.0 
77.775505 168.0 
77.798973 220.0 
77.949211 76.0 
78.287621 152.0 
78.383446 116.0 
78.399292 172.0 
78.443314 144.0 
78.457405 168.0 
78.473259 180.0 
78.600136 172.0 
78.617767 124.0 
78.660088 212.0 
78.757111 144.0 
78.783585 176.0 
78.866554 184.0 
79.305107 152.0 
79.335213 156.0 
79.546112 176.0 
79.594009 140.0 
79.611748 100.0 
79.65966 84.0 
79.709358 44.0 
79.73954 204.0 
80.034119 152.0 
80.063034 236.0 
80.127098 68.0 
80.18763 212.0 
80.246399 84.0 
80.429977 176.0 
80.568657 196.0 
80.688759 80.0 
80.759987 120.0 
80.874634 176.0 
80.976593 168.0 
81.118011 188.0 
81.424545 316.0 
81.443665 220.0 
81.492744 176.0 
81.587914 184.0 
81.647194 152.0 
81.724472 252.0 
81.747841 136.0 
81.77301 152.0 
81.884537 188.0 
81.918724 216.0 
82.03035 144.0 
82.051964 148.0 
82.20874 240.0 
82.228569 160.0 
82.483009 116.0 
82.665512 224.0 
82.703476 176.0 
82.853638 176.0 
82.875359 112.0 
82.904327 124.0 
82.966919 232.0 
83.410233 132.0 
83.630119 140.0 
83.670128 180.0 
83.797501 160.0 
83.873962 212.0 
83.914032 220.0 
83.952293 112.0 
83.992378 180.0 
84.063461 224.0 
84.083519 200.0 
84.34446 140.0 
84.380989 68.0 
84.401085 188.0 
84.455894 156.0 
84.710098 232.0 
84.797966 128.0 
84.823601 248.0 
84.880386 244.0 
85.017838 96.0 
85.078354 128.0 
85.129715 124.0 
85.146225 168.0 
85.283897 132.0 
85.298584 228.0 
85.371109 208.0 
85.417999 132.0 
85.458435 204.0 
85.671799 60.0 
85.815422 28.0 
86.027504 192.0 
86.096779 220.0 
86.121468 144.0 
86.19899 172.0 
86.211914 224.0 
86.23407 160.0 
86.248848 116.0 
86.291321 164.0 
86.422523 156.0 
86.59082 132.0 
86.625977 172.0 
86.681511 124.0 
86.707428 48.0 
86.781509 196.0 
86.809296 224.0 
87.043694 132.0 
87.170944 148.0 
87.269371 176.0 
87.354836 128.0 
87.585442 152.0 
87.736244 192.0 
87.808899 176.0 
88.021446 160.0 
88.078438 480.0 
88.301498 196.0 
88.337006 100.0 
88.52774 68.0 
88.70182 132.0 
88.750519 168.0 
88.787987 148.0 
89.076767 136.0 
89.206306 132.0 
89.413109 168.0 
89.60302 172.0 
89.64444 108.0 
89.682098 172.0 
89.700928 172.0 
89.755547 144.0 
89.84977 164.0 
90.083641 188.0 
90.108177 168.0 
90.138382 188.0 
90.151596 168.0 
90.187469 196.0 
90.372627 112.0 
90.444473 80.0 
90.548515 168.0 
90.625 116.0 
90.811714 148.0 
91.050629 152.0 
91.081284 180.0 
91.185394 60.0 
91.348763 164.0 
91.411491 64.0 
91.729256 168.0 
91.830223 164.0 
91.914078 128.0 
92.0037 84.0 
92.089432 124.0 
92.165894 176.0 
92.196442 204.0 
92.375999 256.0 
92.446732 184.0 
92.481148 172.0 
92.584435 184.0 
92.628448 192.0 
92.745224 152.0 
92.795021 136.0 
92.894653 128.0 
92.963661 140.0 
93.069138 208.0 
93.191948 112.0 
93.238022 40.0 
93.261063 220.0 
93.32695 184.0 
93.447426 136.0 
93.558945 156.0 
93.63205 132.0 
93.685928 76.0 
93.768707 212.0 
93.828407 156.0 
93.843819 36.0 
93.85923 120.0 
94.050041 164.0 
94.134911 148.0 
94.1735 168.0 
94.409065 164.0 
94.608177 180.0 
94.807495 208.0 
94.985703 152.0 
95.046776 976.0 
95.08844 176.0 
95.102013 144.0 
95.158257 88.0 
95.257256 176.0 
95.27224 124.0 
95.340683 172.0 
95.354271 140.0 
95.393112 120.0 
95.463043 160.0 
95.517448 188.0 
95.53688 160.0 
95.58548 176.0 
95.68177 164.0 
95.741066 104.0 
95.937721 196.0 
96.068214 280.0 
96.095505 180.0 
96.311989 80.0 
96.360786 172.0 
96.415443 132.0 
96.487701 228.0 
96.599907 168.0 
96.751564 184.0 
97.067482 392.0 
97.092194 132.0 
97.168617 112.0 
97.264687 220.0 
97.287888 208.0 
97.315681 160.0 
97.439301 164.0 
97.456581 156.0 
97.497643 212.0 
97.568016 152.0 
97.610146 112.0 
97.641579 168.0 
97.730019 188.0 
97.79097 136.0 
97.808662 116.0 
97.869637 148.0 
97.952278 232.0 
97.985291 232.0 
98.060539 688.0 
98.097557 25672.0 
98.164192 64.0 
98.20237 44.0 
98.273323 152.0 
98.326553 64.0 
98.354156 100.0 
98.401489 40.0 
98.420868 112.0 
98.496193 208.0 
98.525795 44.0 
98.664009 200.0 
98.696785 164.0 
98.861618 192.0 
98.875458 184.0 
98.903145 168.0 
98.938011 152.0 
99.019852 68.0 
99.065369 188.0 
99.079224 164.0 
99.100464 2888.0 
99.17733 216.0 
99.201973 60.0 
99.233665 64.0 
99.247536 80.0 
99.299042 120.0 
99.354813 112.0 
99.425896 72.0 
99.441765 200.0 
99.467545 76.0 
99.622284 112.0 
99.687477 152.0 
99.694229 200.0 
99.753319 204.0 
99.802979 76.0 
99.868546 192.0 
99.884438 68.0 
99.940514 188.0 
99.995758 224.0 
100.025589 208.0 
100.076889 1948.0 
100.10305 324.0 
100.14296 68.0 
100.160866 100.0 
100.292397 56.0 
100.386398 156.0 
100.607132 48.0 
100.670967 164.0 
100.754784 180.0 
100.7967 220.0 
100.818665 144.0 
100.930504 80.0 
101.046402 220.0 
101.080711 504.0 
101.162369 168.0 
101.312416 200.0 
101.38649 116.0 
101.426537 132.0 
101.687042 40.0 
101.765259 80.0 
101.869591 184.0 
101.996071 88.0 
102.028198 152.0 
102.044273 140.0 
102.092598 208.0 
102.150757 120.0 
102.196991 56.0 
102.428291 68.0 
102.514839 32.0 
102.653809 204.0 
102.686043 68.0 
102.758598 184.0 
103.05574 168.0 
103.321747 184.0 
103.42485 152.0 
103.576576 176.0 
103.606934 152.0 
103.76487 184.0 
104.251564 80.0 
104.37748 140.0 
104.399826 196.0 
104.440468 160.0 
104.558365 212.0 
105.063332 312.0 
105.087685 132.0 
105.114182 120.0 
105.779839 164.0 
106.058159 184.0 
106.073158 308.0 
106.115509 72.0 
106.181061 108.0 
106.363503 152.0 
106.500946 116.0 
106.546097 196.0 
106.813087 36.0 
106.876808 160.0 
106.983727 164.0 
107.046577 104.0 
107.083382 232.0 
107.185387 96.0 
107.319237 200.0 
107.457298 80.0 
107.512962 160.0 
107.680031 88.0 
107.704796 160.0 
107.729561 196.0 
107.758453 204.0 
107.921585 120.0 
107.960838 72.0 
108.086906 188.0 
108.136574 172.0 
108.182022 168.0 
108.250282 116.0 
108.370308 196.0 
108.583626 204.0 
108.614708 124.0 
108.64994 140.0 
108.867683 160.0 
109.062721 492.0 
109.104332 148.0 
109.211227 132.0 
109.263336 144.0 
109.320442 44.0 
109.355789 164.0 
109.382828 228.0 
109.432747 120.0 
109.455627 116.0 
109.549263 116.0 
109.595055 208.0 
109.713737 192.0 
109.756386 312.0 
109.980499 132.0 
110.036812 164.0 
110.093681 320.0 
110.301872 52.0 
110.494087 120.0 
110.55471 208.0 
110.581894 128.0 
110.701111 132.0 
111.083092 152.0 
111.17025 192.0 
111.58786 208.0 
111.646683 244.0 
111.894745 148.0 
112.073608 136.0 
112.111069 152.0 
112.29686 196.0 
112.35376 124.0 
112.468132 192.0 
112.501343 168.0 
112.577286 44.0 
112.655357 68.0 
112.73719 188.0 
112.904541 228.0 
112.919334 48.0 
112.944496 200.0 
113.059525 6740.0 
113.106834 200.0 
113.145538 68.0 
113.325394 36.0 
113.42067 164.0 
113.475739 60.0 
113.59166 112.0 
113.679176 144.0 
113.761871 120.0 
113.810661 40.0 
113.874306 76.0 
113.920998 168.0 
113.963448 136.0 
114.016518 192.0 
114.063286 704.0 
114.090607 4320.0 
114.126953 204.0 
114.190697 96.0 
114.267204 160.0 
114.467094 200.0 
114.506218 72.0 
114.569832 200.0 
114.709747 112.0 
114.760864 156.0 
114.873795 128.0 
114.899368 88.0 
114.931343 100.0 
114.95266 112.0 
115.07193 772.0 
115.093414 356.0 
115.185165 116.0 
115.244926 84.0 
115.306839 116.0 
115.396538 188.0 
115.41362 140.0 
115.507637 96.0 
115.601685 168.0 
115.648026 232.0 
115.676155 232.0 
115.694206 136.0 
115.74585 216.0 
115.774925 192.0 
115.792046 136.0 
115.819862 180.0 
115.843399 156.0 
115.877647 92.0 
115.924744 188.0 
115.958244 136.0 
115.979782 172.0 
115.999893 168.0 
116.025291 180.0 
116.040382 204.0 
116.071625 41452.0 
116.106842 10040.0 
116.157784 64.0 
116.194885 76.0 
116.239944 96.0 
116.256828 60.0 
116.308022 96.0 
116.334427 192.0 
116.356491 76.0 
116.404572 36.0 
116.423676 392.0 
116.460594 260.0 
116.529274 64.0 
116.578651 52.0 
116.607422 100.0 
116.623741 92.0 
116.649513 40.0 
116.668839 52.0 
116.69574 44.0 
116.731133 100.0 
116.804192 72.0 
116.838577 80.0 
116.933167 64.0 
116.995537 108.0 
117.035767 136.0 
117.073631 2496.0 
117.110306 840.0 
117.163849 88.0 
117.189186 76.0 
117.242325 88.0 
117.30938 68.0 
117.421783 140.0 
117.461365 76.0 
117.620094 40.0 
117.637352 48.0 
117.694687 56.0 
117.723633 100.0 
117.740898 52.0 
117.762474 108.0 
117.803413 136.0 
117.819695 124.0 
117.850151 212.0 
117.891975 72.0 
117.939774 208.0 
117.957283 116.0 
117.976196 76.0 
118.016159 136.0 
118.072868 448.0 
118.120949 160.0 
118.140396 164.0 
118.18795 72.0 
118.425865 100.0 
118.50161 116.0 
118.536247 84.0 
118.589058 224.0 
118.623581 216.0 
118.642189 160.0 
118.82869 96.0 
118.960953 76.0 
119.081642 164.0 
119.09565 188.0 
119.514633 228.0 
119.925842 208.0 
120.067429 60.0 
120.259247 96.0 
120.361755 56.0 
120.739357 176.0 
120.770042 72.0 
121.023666 120.0 
121.047729 96.0 
121.066757 264.0 
121.099312 144.0 
121.157143 192.0 
121.222809 168.0 
121.494438 68.0 
121.558006 136.0 
121.720299 80.0 
122.080482 192.0 
122.141869 212.0 
122.227592 176.0 
122.733742 120.0 
122.795425 108.0 
122.899017 216.0 
123.079842 304.0 
123.662918 48.0 
123.685036 148.0 
123.780144 96.0 
123.88414 116.0 
124.178673 196.0 
124.371529 76.0 
124.57119 100.0 
124.802109 84.0 
124.856506 148.0 
125.035469 216.0 
125.059929 168.0 
125.091057 140.0 
125.148888 32.0 
125.866196 84.0 
125.908585 208.0 
126.013481 208.0 
126.05143 196.0 
126.368637 96.0 
126.83625 160.0 
126.863129 172.0 
127.055809 176.0 
127.099304 676.0 
127.315941 76.0 
127.578583 152.0 
127.64373 72.0 
127.702141 52.0 
127.717873 56.0 
128.056458 188.0 
128.105789 1108.0 
128.226242 132.0 
128.325333 140.0 
128.568726 76.0 
128.830399 224.0 
128.988434 208.0 
129.015549 196.0 
129.06749 172.0 
129.110184 160.0 
129.182739 204.0 
129.208633 212.0 
129.431458 120.0 
130.076355 336.0 
130.124619 228.0 
130.585495 136.0 
130.635483 116.0 
130.774155 156.0 
131.086517 172.0 
131.356934 184.0 
131.429871 72.0 
131.591782 228.0 
131.669342 100.0 
131.810852 80.0 
131.970703 128.0 
132.313065 180.0 
132.46228 124.0 
132.487457 64.0 
132.993759 128.0 
133.063385 312.0 
133.102219 324.0 
133.119919 144.0 
133.209412 168.0 
133.454361 140.0 
133.788376 260.0 
133.806778 68.0 
133.908005 52.0 
134.095291 196.0 
134.816132 196.0 
135.082428 184.0 
135.102585 188.0 
135.13237 216.0 
135.225098 44.0 
135.280609 160.0 
135.399841 168.0 
135.919678 64.0 
136.065765 204.0 
136.45108 168.0 
136.769485 56.0 
137.009109 160.0 
137.06105 248.0 
137.096725 152.0 
137.647583 124.0 
137.673248 176.0 
137.941101 252.0 
138.060822 212.0 
138.105225 100.0 
138.229095 144.0 
138.287552 84.0 
138.493408 236.0 
138.872757 176.0 
138.978226 176.0 
139.088425 88.0 
139.186935 240.0 
139.918579 136.0 
140.105499 1116.0 
140.760788 184.0 
140.935425 196.0 
141.11731 148.0 
141.256653 40.0 
141.523834 100.0 
142.077423 184.0 
142.34111 112.0 
142.402802 136.0 
142.428909 80.0 
142.516724 132.0 
143.084641 208.0 
143.239288 72.0 
143.291641 172.0 
143.584564 164.0 
143.684662 148.0 
143.763321 68.0 
143.830093 184.0 
143.868256 256.0 
144.001846 236.0 
144.082993 164.0 
144.465134 80.0 
144.795135 176.0 
145.066071 112.0 
145.102188 464.0 
145.345993 44.0 
145.662598 52.0 
145.864258 76.0 
145.943527 204.0 
145.981964 84.0 
146.075684 180.0 
146.099716 196.0 
146.234329 192.0 
146.66748 176.0 
146.816833 28.0 
147.083374 376.0 
147.112732 544.0 
148.03125 112.0 
148.128036 188.0 
148.220016 180.0 
148.263596 112.0 
148.583359 116.0 
148.670639 52.0 
148.828262 76.0 
149.056381 160.0 
149.096359 420.0 
149.479095 212.0 
149.607971 140.0 
149.690689 160.0 
149.973022 192.0 
149.992508 168.0 
150.065567 120.0 
150.099686 128.0 
150.217117 140.0 
150.299515 56.0 
150.589752 128.0 
150.738632 208.0 
150.87294 132.0 
150.955994 124.0 
150.986359 144.0 
151.078171 52.0 
151.112381 172.0 
151.352036 188.0 
151.680008 244.0 
151.856918 92.0 
152.113785 156.0 
152.143219 172.0 
152.368958 108.0 
153.061905 48.0 
153.08905 132.0 
153.130798 212.0 
153.740036 172.0 
154.138855 132.0 
154.222809 124.0 
154.247498 200.0 
154.578598 144.0 
154.8284 108.0 
154.979355 176.0 
155.087097 204.0 
155.11554 148.0 
155.422791 196.0 
155.44603 232.0 
155.474854 172.0 
155.56163 220.0 
155.660858 132.0 
155.89415 60.0 
156.03569 192.0 
156.17482 176.0 
156.405685 244.0 
156.468185 104.0 
156.517944 136.0 
156.572678 152.0 
156.617462 160.0 
156.76207 120.0 
156.793213 204.0 
156.87886 60.0 
157.103119 712.0 
157.202805 124.0 
157.407303 176.0 
157.457214 156.0 
157.47966 44.0 
157.53154 152.0 
157.600845 152.0 
157.649399 84.0 
157.684341 160.0 
157.726807 188.0 
157.749283 104.0 
157.786743 128.0 
157.824203 88.0 
157.873169 180.0 
157.918152 224.0 
157.973419 172.0 
158.000259 180.0 
158.02533 384.0 
158.049423 384.0 
158.079269 220.0 
158.118439 92092.0 
158.188309 72.0 
158.208588 128.0 
158.249115 172.0 
158.258194 124.0 
158.283081 136.0 
158.316055 108.0 
158.322464 140.0 
158.333725 100.0 
158.346375 120.0 
158.383942 92.0 
158.434082 132.0 
158.466858 76.0 
158.497299 152.0 
158.529831 708.0 
158.561996 28.0 
158.589539 40.0 
158.638214 64.0 
158.679382 120.0 
158.715866 52.0 
158.744003 48.0 
158.79129 228.0 
158.830856 108.0 
158.868713 108.0 
158.937241 104.0 
158.987946 104.0 
159.005493 60.0 
159.023849 212.0 
159.061554 68.0 
159.085739 160.0 
159.121704 11488.0 
159.229065 60.0 
159.255829 52.0 
159.275085 76.0 
159.309036 132.0 
159.325165 104.0 
159.481705 72.0 
159.548386 84.0 
159.583557 48.0 
159.600311 100.0 
159.620407 48.0 
159.653061 52.0 
159.680695 80.0 
159.726883 128.0 
159.808044 84.0 
159.868713 100.0 
159.928497 124.0 
159.959732 92.0 
160.018845 72.0 
160.055557 164.0 
160.095566 184.0 
160.121902 1176.0 
160.152679 164.0 
160.188675 92.0 
160.2229 120.0 
160.230896 72.0 
160.240494 92.0 
160.296906 152.0 
160.338058 140.0 
160.377396 132.0 
160.420609 96.0 
160.442184 52.0 
160.455414 72.0 
160.536163 44.0 
160.710052 56.0 
160.85881 40.0 
160.914307 32.0 
160.957184 92.0 
161.055588 68.0 
161.092346 284.0 
161.127945 216.0 
161.196686 104.0 
161.222183 76.0 
161.363602 124.0 
161.38887 148.0 
161.474762 136.0 
161.578384 48.0 
162.147583 184.0 
163.071243 308.0 
163.114914 200.0 
163.66275 88.0 
163.698364 64.0 
163.733978 44.0 
164.115814 184.0 
165.084015 140.0 
165.130356 244.0 
165.238617 124.0 
166.108826 80.0 
167.076401 148.0 
167.110641 136.0 
167.361816 68.0 
167.485321 64.0 
167.845795 52.0 
168.90625 116.0 
169.098312 340.0 
169.345871 124.0 
169.483047 96.0 
169.648758 88.0 
169.767914 88.0 
169.892303 36.0 
169.959702 128.0 
170.104904 184.0 
170.585022 56.0 
170.805847 92.0 
171.114853 188.0 
171.138657 168.0 
171.523865 60.0 
171.64888 60.0 
171.922531 100.0 
172.115524 180.0 
173.101059 196.0 
173.130432 160.0 
174.093369 184.0 
174.114349 144.0 
174.387344 144.0 
174.915543 60.0 
175.012863 156.0 
175.073029 188.0 
175.110016 168.0 
175.147049 160.0 
176.061401 136.0 
176.084274 208.0 
176.121704 224.0 
176.230301 124.0 
177.092453 136.0 
177.132767 200.0 
177.152756 172.0 
177.226868 64.0 
177.250702 44.0 
177.499634 92.0 
177.69574 64.0 
178.197067 84.0 
180.700928 100.0 
181.085495 304.0 
181.106354 116.0 
181.116608 200.0 
181.908463 52.0 
182.075043 200.0 
182.128448 160.0 
183.097092 188.0 
185.094986 160.0 
185.135574 116.0 
187.072403 128.0 
187.10643 320.0 
188.080048 144.0 
188.159134 132.0 
189.094528 196.0 
189.125946 296.0 
191.105972 300.0 
192.206604 144.0 
192.308609 140.0 
192.399612 152.0 
193.161621 184.0 
193.377243 56.0 
194.124557 204.0 
197.097504 132.0 
197.135269 336.0 
198.019821 72.0 
198.128967 160.0 
199.112808 172.0 
199.140671 156.0 
199.370834 84.0 
200.112747 132.0 
201.123856 160.0 
202.140335 172.0 
202.16861 216.0 
203.106674 136.0 
204.095749 124.0 
204.172455 212.0 
204.900467 168.0 
205.034271 108.0 
205.122543 148.0 
206.160492 196.0 
206.194748 68.0 
206.371826 48.0 
207.094025 172.0 
207.133621 164.0 
208.75531 88.0 
209.097336 152.0 
210.107803 88.0 
211.158264 296.0 
212.123047 164.0 
213.127014 308.0 
213.156723 216.0 
216.160355 156.0 
217.117401 304.0 
217.868134 72.0 
218.12355 152.0 
219.106583 180.0 
219.146744 160.0 
221.150024 208.0 
225.180969 104.0 
226.956879 128.0 
227.154633 180.0 
227.724411 32.0 
227.895477 128.0 
228.893173 100.0 
229.121872 164.0 
229.164017 164.0 
230.171799 252.0 
231.094574 120.0 
231.139908 204.0 
231.194336 120.0 
232.669098 96.0 
233.148575 236.0 
233.844391 68.0 
234.30986 68.0 
234.586929 140.0 
236.112183 192.0 
236.164124 132.0 
237.152176 108.0 
238.133087 160.0 
241.109573 168.0 
243.176529 144.0 
245.096619 172.0 
247.133652 204.0 
247.158661 140.0 
253.114975 192.0 
254.210754 56.0 
255.658508 92.0 
256.145142 252.0 
256.756592 100.0 
257.180542 92.0 
257.789978 124.0 
258.154053 172.0 
259.168701 164.0 
262.684967 120.0 
263.133118 176.0 
264.809845 56.0 
266.001953 52.0 
268.332336 100.0 
269.258209 44.0 
271.163818 72.0 
273.141907 204.0 
273.181335 140.0 
277.10965 224.0 
278.173218 100.0 
280.882721 140.0 
283.143402 132.0 
285.151154 200.0 
288.792511 72.0 
288.904022 64.0 
290.172852 68.0 
290.504883 76.0 
291.169556 164.0 
293.164673 176.0 
293.505249 76.0 
294.190369 132.0 
295.129028 240.0 
295.853699 124.0 
296.589508 56.0 
300.020416 88.0 
301.309937 32.0 
302.861725 48.0 
303.839905 72.0 
303.869568 60.0 
304.063721 136.0 
307.370117 56.0 
309.231049 100.0 
311.971527 128.0 
313.353333 124.0 
321.166168 168.0 
322.161316 136.0 
323.701508 244.0 
323.86969 92.0 
325.144897 72.0 
331.518646 80.0 
343.216614 148.0 
351.566498 64.0 
354.379608 132.0 
358.034912 72.0 
360.148804 148.0 
360.37149 192.0 
361.225098 144.0 
361.410309 68.0 
364.205505 184.0 
368.903351 108.0 
369.988831 36.0 
370.82309 152.0 
370.857574 240.0 
382.35672 76.0 
384.194153 108.0 
389.230621 128.0 
391.186737 256.0 
392.332062 136.0 
396.122253 92.0 
399.036438 52.0 
402.025085 48.0 
411.227264 92.0 
412.83371 132.0 
428.861755 192.0 
431.904755 40.0 
440.776886 144.0 
448.854065 152.0 
450.857361 116.0 
452.818604 204.0 
455.80661 128.0 
456.384155 72.0 
458.634125 100.0 
460.770081 48.0 
462.359283 196.0 
465.28421 168.0 
471.317108 152.0 
472.811951 60.0 
485.254425 100.0 
486.771179 136.0 
487.262665 172.0 
489.266266 176.0 
493.413879 56.0 
494.593903 60.0 
496.998108 36.0 
497.468109 104.0 
497.734253 100.0 
499.785919 96.0 
516.807617 100.0 
517.875 44.0 
520.3396 44.0 
521.192688 84.0 
522.320251 80.0 
529.4646 76.0 
530.806091 160.0 
533.907532 36.0 
543.11322 40.0 
547.664124 64.0 
551.636047 128.0 
563.302795 100.0 
563.977844 112.0 
565.149597 52.0 
565.849426 84.0 
576.656799 76.0 
580.321777 268.0 
582.345154 136.0 
583.36261 124.0 
596.852356 124.0 
626.753052 96.0 
638.281189 104.0 
656.606812 188.0 
667.427673 40.0 
668.383484 160.0 
714.452026 88.0 
748.514038 64.0 
766.690186 48.0 
768.475098 188.0 
769.517273 140.0 
771.609314 260.0 
773.488464 192.0 
776.898865 40.0 
795.560181 152.0 
799.834106 128.0 
812.83783 80.0 
822.196106 100.0 
834.810791 112.0 
836.029236 92.0 
844.045959 152.0 
846.699646 172.0 
849.664734 132.0 
857.490173 88.0 
860.153259 220.0 
860.456543 220.0 
872.919617 172.0 
875.235901 164.0 
887.242371 164.0 
892.551392 68.0 
893.549683 104.0 
896.14386 168.0 
901.138428 220.0 
902.380432 180.0 
904.251038 180.0 
905.339661 144.0 
911.332642 132.0 
912.767883 136.0 
915.2146 136.0 
918.803467 144.0 
927.733582 212.0 
933.131836 32.0 
934.687439 196.0 
936.5 196.0 
937.145142 156.0 
940.209534 184.0 
941.307373 124.0 
943.016357 100.0 
945.521606 128.0 
945.980225 176.0 
950.762817 140.0 
955.30542 72.0 
956.393555 116.0 
956.811768 160.0 
961.404358 172.0 
966.845337 200.0 
966.931946 180.0 
969.902161 192.0 
978.230652 180.0 
982.146545 68.0 
988.081848 176.0 
989.132202 68.0 
994.016235 160.0 
994.800049 144.0 
995.182678 224.0 
996.067322 140.0 
1000.245056 96.0 
1000.993591 72.0 
1002.120056 200.0 
1002.195618 200.0 
1005.421082 168.0 
1007.067566 200.0 
1007.540894 224.0 
1008.456299 120.0 
1010.079834 140.0 
1010.345276 160.0 
1011.710938 148.0 
1011.837463 176.0 
1012.780151 184.0 
1014.685791 228.0 
1015.522095 60.0 
1016.010071 80.0 
1016.074646 152.0 
1017.417664 72.0 
1018.800842 120.0 
1019.702271 172.0 
1020.026184 88.0 
1023.000488 192.0 
1023.121948 212.0 
1027.132324 192.0 
1030.225464 236.0 
1034.621216 180.0 
1034.723633 128.0 
1037.283691 188.0 
1037.776978 144.0 
1037.885864 236.0 
1037.962646 228.0 
1038.334351 104.0 
1039.032837 164.0 
1039.526489 184.0 
1039.949585 80.0 
1040.032959 128.0 
1040.328003 88.0 
1040.379272 216.0 
1044.603882 148.0 
1048.283203 116.0 
1049.081787 236.0 
1051.362915 200.0 
1052.710938 164.0 
1054.330933 168.0 
1056.24939 184.0 
1058.59021 92.0 
1059.890991 172.0 
1060.901123 148.0 
1063.979858 40.0 
1064.550659 176.0 
1066.692749 180.0 
1068.908569 236.0 
1069.058105 144.0 
1072.838867 76.0 
1075.021851 248.0 
1079.623169 168.0 
1080.054443 180.0 
1081.257202 124.0 
1081.342163 80.0 
1085.694946 180.0 
1088.82251 140.0 
1091.356689 32.0 
1092.112183 224.0 
1093.906982 140.0 
1094.755493 152.0 
1095.229248 220.0 
1096.157349 96.0 
1098.331055 152.0 
1098.950562 160.0 
1099.609863 124.0 
1100.526611 164.0 
1103.36499 104.0 
1107.834473 128.0 
1108.172119 240.0 
1108.542847 160.0 
1110.741943 180.0 
1111.338501 100.0 
1112.187134 260.0 
1116.960327 160.0 
1118.289795 180.0 
1118.63562 156.0 
1121.497192 188.0 
1121.597168 124.0 
1121.903442 132.0 
1126.78418 116.0 
1128.546997 112.0 
1128.820923 204.0 
1129.03479 52.0 
1131.254028 220.0 
1131.983154 128.0 
1133.087402 132.0 
1135.806519 164.0 
1137.140503 196.0 
1138.300903 164.0 
1138.549072 176.0 
1138.602783 212.0 
1138.777222 124.0 
1138.857788 92.0 
1138.985352 196.0 
1139.797485 164.0 
1140.784546 136.0 
1141.738403 48.0 
1142.193237 200.0 
1142.302856 188.0 
1143.324707 156.0 
1143.412109 148.0 
1144.077881 208.0 
1145.457031 108.0 
1145.780151 192.0 
1146.204224 116.0 
1148.218018 168.0 
1148.642578 96.0 
1148.878418 144.0 
1149.134521 148.0 
1149.653687 148.0 
1150.112183 136.0 
1151.285889 88.0 
1152.777466 136.0 
1155.520142 156.0 
1156.811523 152.0 
1158.340576 144.0 
1159.924683 56.0 
1160.412354 176.0 
1160.615601 152.0 
1164.296997 180.0 
1165.898804 180.0 
1166.747681 172.0 
1167.488159 280.0 
1167.882202 148.0 
1169.629272 48.0 
1169.721558 156.0 
1170.592407 208.0 
1171.466187 108.0 
1171.534302 164.0 
1171.935791 152.0 
1173.903931 176.0 
1174.50354 148.0 
1175.566895 156.0 
1177.190186 136.0 
1177.510864 116.0 
1180.638062 164.0 
1180.733643 56.0 
1180.843018 204.0 
1181.061646 204.0 
1182.175781 208.0 
1182.510864 176.0 
1182.975952 136.0 
1184.864258 124.0 
1185.453003 252.0 
1186.185669 128.0 
1186.911743 200.0 
1187.035034 216.0 
1189.543823 180.0 
1190.01709 164.0 
1190.747314 380.0 
1190.888428 140.0 
1191.384888 156.0 
1192.240601 132.0 
1192.474121 240.0 
1193.463135 172.0 
1193.552368 180.0 
1195.022949 148.0 
1196.30188 152.0 
1197.581543 72.0 
1197.843018 112.0 
1198.180298 176.0 
1198.255981 168.0 
1199.43335 176.0 
1199.550415 108.0 
1199.701904 120.0 
1200.879883 192.0 
1201.010864 156.0 
1201.15564 248.0 
1204.150146 200.0 
1204.596924 216.0 
1204.714233 260.0 
1204.776367 180.0 
1205.798096 208.0 
1206.626831 132.0 
1207.034424 148.0 
1207.485107 192.0 
1207.594116 56.0 
1208.666382 156.0 
1209.073242 152.0 
1210.511841 196.0 
1210.671021 264.0 
1211.771362 108.0 
1212.539795 60.0 
1213.779541 176.0 
1214.673462 172.0 
1215.581421 148.0 
1216.025146 192.0 
1217.19043 128.0 
1217.384644 252.0 
1217.787109 208.0 
1221.238281 60.0 
1221.530151 180.0 
1221.683105 120.0 
1222.058472 164.0 
1223.379517 156.0 
1223.525635 160.0 
1224.235107 132.0 
1225.989136 160.0 
1226.351196 168.0 
1229.291504 152.0 
1229.455688 188.0 
1231.293213 272.0 
1231.73291 196.0 
1233.778564 128.0 
1234.043945 188.0 
1234.658691 124.0 
1234.7146 176.0 
1237.30188 208.0 
1237.621338 208.0 
1241.039185 200.0 
1241.368408 184.0 
1243.646484 128.0 
1243.786743 172.0 
1243.990112 128.0 
1245.262451 192.0 
1246.354736 180.0 
1248.876221 136.0 
1249.072998 232.0 
1249.522827 172.0 
1252.469727 52.0 
1252.518921 56.0 
1254.814209 160.0 
1255.730103 168.0 
1255.849854 136.0 
1257.859009 100.0 
1257.929565 124.0 
1257.993042 212.0 
1258.141113 216.0 
1258.330322 176.0 
1259.347534 160.0 
1259.707397 120.0 
1260.420288 116.0 
1260.512085 164.0 
1263.372925 136.0 
1265.147583 168.0 
1265.451782 104.0 
1266.463501 268.0 
1267.518066 92.0 
1269.876709 140.0 
1269.93335 168.0 
1271.691284 168.0 
1273.386719 148.0 
1276.19812 220.0 
1276.723877 212.0 
1277.434448 120.0 
1277.57666 164.0 
1279.233276 148.0 
1281.510132 184.0 
1282.07251 144.0 
1283.211914 132.0 
1283.682129 220.0 
1284.401855 188.0 
1287.296753 52.0 
1287.717773 104.0 
1287.796265 144.0 
1289.252319 248.0 
1290.052124 140.0 
1290.537842 56.0 
1291.609619 212.0 
1291.809692 200.0 
1293.411133 156.0 
1293.468262 56.0 
1293.761597 116.0 
1295.178101 160.0 
1295.879517 220.0 
1295.936768 96.0 
1297.805786 220.0 
1298.57959 196.0 
1299.561401 92.0 
1300.14209 164.0 
1300.228149 180.0 
1301.182007 200.0 
1301.949585 168.0 
1303.069092 48.0 
1303.428101 196.0 
1303.801392 196.0 
1307.149414 244.0 
1307.271484 160.0 
1307.631226 192.0 
1309.177612 72.0 
1311.279297 160.0 
1311.372925 148.0 
1311.625 168.0 
1313.029663 160.0 
1314.838867 184.0 
1315.033569 64.0 
1317.782349 160.0 
1318.605347 44.0 
1318.684814 120.0 
1318.785889 196.0 
1319.378052 180.0 
1319.970459 156.0 
1321.733765 176.0 
1322.080811 112.0 
1323.208984 196.0 
1324.40271 180.0 
1327.806152 168.0 
1327.95105 280.0 
1328.146729 204.0 
1328.402344 248.0 
1329.066528 164.0 
1329.226685 156.0 
1330.278076 40.0 
1330.546387 212.0 
1330.611694 212.0 
1330.793091 140.0 
1330.843872 40.0 
1331.779785 116.0 
1332.803223 84.0 
1333.115356 148.0 
1333.275146 84.0 
1334.524292 56.0 
1335.06189 180.0 
1336.566284 196.0 
1337.540527 200.0 
1338.23877 212.0 
1340.982544 184.0 
1341.179199 132.0 
1341.863892 144.0 
1343.000366 136.0 
1343.189819 132.0 
1343.554321 180.0 
1344.210327 140.0 
1344.429077 116.0 
1344.975952 144.0 
1345.245728 152.0 
1345.457275 124.0 
1345.734497 40.0 
1346.215942 92.0 
1346.777832 144.0 
1347.675537 156.0 
1348.573608 192.0 
1348.69043 96.0 
1349.482422 188.0 
1349.698364 120.0 
1350.224365 192.0 
1350.626343 168.0 
1351.817749 144.0 
1352.029053 128.0 
1352.32959 240.0 
1353.16333 144.0 
1353.521729 216.0 
1353.79248 172.0 
1353.946167 188.0 
1354.575439 60.0 
1355.797852 176.0 
1356.134766 68.0 
1356.705933 168.0 
1360.564453 156.0 
1360.817993 68.0 
1361.390259 192.0 
1362.395508 168.0 
1363.430664 204.0 
1365.237427 220.0 
1365.531372 160.0 
1365.957642 120.0 
1366.089844 160.0 
1366.60437 204.0 
1366.72937 112.0 
1367.641113 132.0 
1368.310303 84.0 
1368.420654 204.0 
1368.812134 164.0 
1369.296143 220.0 
1370.238159 212.0 
1371.460327 96.0 
1372.594604 240.0 
1373.7146 152.0 
1374.090576 176.0 
1374.680298 192.0 
1375.225952 240.0 
1375.812378 140.0 
1376.140503 136.0 
1376.612549 120.0 
1377.564453 148.0 
1378.1698 164.0 
1378.501953 184.0 
1379.447144 92.0 
1379.942017 76.0 
1380.04541 136.0 
1380.104492 316.0 
1380.318726 152.0 
1381.759766 204.0 
1382.34375 160.0 
1383.58606 160.0 
1386.531494 176.0 
1386.694336 180.0 
1386.990601 48.0 
1387.47937 156.0 
1387.745972 132.0 
1388.746216 256.0 
1388.990723 156.0 
1389.213135 168.0 
1389.279785 144.0 
1390.554932 128.0 
1391.71936 196.0 
1392.060547 196.0 
1392.231201 36.0 
1392.387085 140.0 
1392.795166 164.0 
1395.52002 268.0 
1395.572021 324.0 
1395.846924 128.0 
1396.017822 188.0 
1396.277832 136.0 
1397.125 144.0 
1397.301147 176.0 
1397.474365 144.0 
1397.578491 168.0 
1397.735474 164.0 
1398.619385 208.0 
1399.236694 212.0 
1399.486938 172.0 
1399.935913 180.0 
1401.037231 120.0 
1401.129883 188.0 
1402.451782 132.0 
1402.511353 140.0 
1403.129517 92.0 
1403.315796 56.0 
1403.710571 144.0 
1403.777588 184.0 
1404.060791 116.0 
1404.366333 88.0 
1404.835815 76.0 
1404.984863 340.0 
1405.464966 212.0 
1406.043457 120.0 
1406.125488 184.0 
1406.46106 200.0 
1407.0177 148.0 
1407.460449 140.0 
1408.661865 72.0 
1410.259399 132.0 
1410.520752 240.0 
1410.924072 112.0 
1411.170532 196.0 
1411.349854 172.0 
1412.141846 180.0 
1412.463135 156.0 
1412.956421 156.0 
1413.442261 152.0 
1414.122681 132.0 
1414.332031 164.0 
1414.444214 124.0 
1414.945312 120.0 
1415.626099 128.0 
1416.47168 140.0 
1416.553955 156.0 
1417.160278 152.0 
1418.103638 168.0 
1418.687744 144.0 
1419.279541 164.0 
1420.515869 52.0 
1420.680664 164.0 
1421.7677 120.0 
1421.835205 156.0 
1422.480103 96.0 
1422.610718 260.0 
1422.772583 180.0 
1422.997559 224.0 
1425.519043 248.0 
1426.743164 168.0 
1426.908325 60.0 
1427.351562 276.0 
1428.020264 184.0 
1429.553589 160.0 
1429.621216 232.0 
1429.914551 216.0 
1430.734253 196.0 
1431.053589 120.0 
1432.291626 48.0 
1432.628662 184.0 
1432.871094 128.0 
1433.187256 160.0 
1433.789551 172.0 
1434.738403 184.0 
1434.979492 240.0 
1435.265747 188.0 
1435.371216 196.0 
1435.446533 128.0 
1435.793091 56.0 
1435.875977 144.0 
1435.951294 76.0 
1436.064331 132.0 
1436.230103 160.0 
1436.976318 208.0 
1437.209961 184.0 
1437.798096 224.0 
1438.989624 136.0 
1439.645874 148.0 
1440.166626 208.0 
1441.102417 156.0 
1441.55542 252.0 
1441.993286 36.0 
1442.076416 180.0 
1442.129272 68.0 
1442.521973 80.0 
1443.828857 172.0 
1444.372925 148.0 
1444.456055 160.0 
1444.962402 172.0 
1445.960327 116.0 
1446.134277 72.0 
1447.480591 132.0 
1448.562622 112.0 
1449.03186 160.0 
1450.16748 180.0 
1450.538574 172.0 
1451.667236 68.0 
1452.690186 80.0 
1453.531616 144.0 
1454.031982 112.0 
1454.138184 148.0 
1454.615845 164.0 
1455.199951 176.0 
1455.518555 180.0 
1455.59436 196.0 
1455.844727 172.0 
1456.262085 156.0 
1456.322754 212.0 
1457.171143 200.0 
1457.286621 184.0 
1457.5448 128.0 
1458.501465 52.0 
1458.676147 84.0 
1459.382568 204.0 
1459.883911 136.0 
1461.198608 180.0 
1461.47229 252.0 
1462.232544 140.0 
1463.411377 80.0 
1464.613525 48.0 
1464.879883 160.0 
1465.077759 164.0 
1465.405029 92.0 
1467.194458 152.0 
1467.377197 92.0 
1467.5448 176.0 
1468.428589 176.0 
1468.52002 104.0 
1468.949951 204.0 
1469.282104 52.0 
1470.898438 216.0 
1472.126587 120.0 
1472.363159 180.0 
1473.637573 228.0 
1474.149048 144.0 
1474.950806 144.0 
1475.393799 192.0 
1475.7146 136.0 
1477.288574 76.0 
1478.365845 152.0 
1478.48877 248.0 
1479.284058 100.0 
1479.567017 144.0 
1480.026001 116.0 
1481.120117 168.0 
1481.632935 128.0 
1481.969604 156.0 
1482.995728 184.0 
1485.178955 212.0 
1485.447144 216.0 
1485.523804 136.0 
1485.738403 172.0 
1485.991333 224.0 
1486.075684 160.0 
1486.412964 52.0 
1487.195435 140.0 
1487.578491 124.0 
1487.670532 172.0 
1487.739502 112.0 
1487.869873 164.0 
1489.051392 260.0 
1489.304565 180.0 
1489.92627 180.0 
1490.133423 156.0 
1490.202515 188.0 
1490.77063 152.0 
1490.924194 116.0 
1492.199097 172.0 
1492.275879 108.0 
1492.951904 28.0 
1495.142456 172.0 
1495.449951 232.0 
1495.872925 168.0 
1496.149902 172.0 
1496.388306 188.0 
1497.042236 196.0 
1497.165283 52.0 
1497.864624 132.0 
1498.642944 156.0 
1498.858521 216.0 
1500.822266 144.0 
1501.846924 188.0 
1502.216919 136.0 
1502.66394 108.0 
1503.334595 180.0 
END IONS

