BEGIN IONS
PEPMASS=372.217
CHARGE=1+
MSLEVEL=2
SOURCE_INSTRUMENT=LC-ESI-qTof
FILENAME=2B1_R-4-benzyl-3-((R)-3-hydroxy-2_2-dimethyloct-7-ynoyl)-5_5-dimethyloxazolidin-2-one.mzXML
SEQ=*..*
IONMODE=Positive
ORGANISM=GNPS-LIBRARY
NAME="R-4-benzyl-3-((R)-3-hydroxy-2,2-dimethyloct-7-ynoyl)-5,5-dimethyloxazolidin-2-one" M+H
PI=Dorrestein/Gerwick
DATACOLLECTOR=Garg/Luzzato
SMILES=O=C1OC(C)(C)[C@@H](CC2=CC=CC=C2)N1C(C(C)(C)[C@H](O)CCCC#C)=O
INCHI=N/A
INCHIAUX=N/A
PUBMED=N/A
SUBMITUSER=mwang87
LIBRARYQUALITY=2
SPECTRUMID=CCMSLIB00000068232
SCANS=1883
95.075417 204.0 
95.176315 172.0 
97.56485 208.0 
97.671654 228.0 
98.064629 184.0 
98.188789 172.0 
98.411682 188.0 
98.492615 232.0 
99.545815 288.0 
99.607361 240.0 
100.182014 216.0 
100.736359 172.0 
100.820244 324.0 
101.370758 212.0 
101.779373 224.0 
102.051491 364.0 
102.166901 188.0 
102.716835 244.0 
103.056137 280.0 
103.142723 184.0 
103.164948 232.0 
103.836922 228.0 
104.606682 236.0 
104.639244 300.0 
104.757317 184.0 
104.891747 208.0 
105.026314 188.0 
105.070564 992.0 
105.334366 188.0 
105.591797 188.0 
105.849541 240.0 
105.943718 180.0 
106.069649 384.0 
106.13015 208.0 
106.205994 204.0 
106.632881 188.0 
107.027695 192.0 
107.085922 464.0 
107.745148 188.0 
107.875282 192.0 
108.050995 200.0 
108.195801 208.0 
109.000221 176.0 
109.063683 204.0 
109.670067 220.0 
109.749252 228.0 
110.076721 212.0 
110.783363 248.0 
110.844093 212.0 
111.122849 204.0 
111.154579 220.0 
111.689819 248.0 
112.032799 236.0 
112.083344 168.0 
112.720329 180.0 
113.518051 368.0 
113.689804 180.0 
114.108803 180.0 
114.239883 204.0 
115.030151 200.0 
115.053864 264.0 
115.639076 240.0 
115.660469 176.0 
115.968773 236.0 
116.590919 176.0 
116.85099 204.0 
117.001579 188.0 
117.042473 180.0 
117.070923 1852.0 
117.251343 216.0 
117.721443 244.0 
117.794846 188.0 
118.072784 232.0 
118.185997 168.0 
118.270363 176.0 
118.339607 188.0 
118.389389 188.0 
118.870438 176.0 
118.907318 196.0 
119.074272 240.0 
119.082367 224.0 
119.135887 180.0 
119.424194 220.0 
120.079865 596.0 
120.267067 220.0 
120.706009 216.0 
120.778145 220.0 
120.839378 172.0 
120.856873 216.0 
121.100945 1484.0 
121.636742 212.0 
122.104553 180.0 
122.326691 168.0 
122.438942 212.0 
123.116226 404.0 
123.610672 168.0 
123.774406 176.0 
124.08004 176.0 
124.179787 228.0 
124.479263 200.0 
124.991402 228.0 
125.043694 232.0 
125.09491 536.0 
125.288528 212.0 
125.435547 168.0 
125.825783 200.0 
125.939621 176.0 
125.957481 232.0 
126.442467 176.0 
127.009087 224.0 
127.819778 208.0 
127.914261 168.0 
128.067032 228.0 
128.073883 200.0 
128.662384 176.0 
129.070099 632.0 
129.202286 184.0 
129.430786 244.0 
129.512283 216.0 
129.654953 204.0 
130.079758 432.0 
130.099915 316.0 
131.722549 204.0 
131.966766 192.0 
132.044479 228.0 
132.076477 168.0 
132.142792 248.0 
132.440277 216.0 
133.075241 352.0 
134.377396 272.0 
134.841339 232.0 
134.926834 196.0 
134.97998 204.0 
135.003098 232.0 
135.019287 232.0 
135.079391 168.0 
135.722961 272.0 
135.74382 224.0 
135.794907 220.0 
136.186905 240.0 
136.305908 180.0 
136.419174 188.0 
136.961136 308.0 
137.30127 192.0 
137.667511 196.0 
137.961792 220.0 
138.013199 224.0 
138.39444 256.0 
138.72229 220.0 
138.794937 476.0 
138.846512 236.0 
138.926224 268.0 
139.07399 220.0 
139.112259 3340.0 
139.851669 188.0 
139.934021 176.0 
139.990509 184.0 
140.115997 252.0 
140.900589 228.0 
141.071655 220.0 
141.134476 220.0 
141.463196 180.0 
141.699921 212.0 
142.071976 200.0 
142.494385 180.0 
142.838943 212.0 
143.085388 576.0 
143.65567 260.0 
144.090012 200.0 
144.130585 176.0 
144.149689 180.0 
144.211807 292.0 
144.515381 296.0 
144.920181 236.0 
144.974304 264.0 
145.067078 192.0 
145.101913 59348.0 
145.163956 296.0 
145.338776 260.0 
145.800323 208.0 
146.000702 296.0 
146.059692 476.0 
146.10498 6520.0 
147.108963 396.0 
147.264359 208.0 
147.294922 176.0 
148.42308 248.0 
149.097321 2372.0 
150.056274 756.0 
150.097687 428.0 
150.395248 248.0 
150.724808 204.0 
151.457306 380.0 
151.899475 292.0 
155.086975 392.0 
155.50293 212.0 
156.081131 180.0 
156.253067 204.0 
156.922745 284.0 
157.209473 236.0 
157.783722 204.0 
158.066238 204.0 
160.600082 216.0 
161.150177 200.0 
161.397781 200.0 
162.096115 240.0 
162.127731 6316.0 
163.108322 184.0 
163.130157 988.0 
163.558365 176.0 
164.073013 460.0 
164.54451 208.0 
165.142212 212.0 
165.643692 176.0 
166.076706 180.0 
167.106796 332.0 
167.28389 232.0 
167.335358 192.0 
167.618576 168.0 
168.04126 164.0 
168.106842 196.0 
168.361206 236.0 
168.552277 236.0 
169.101578 316.0 
169.188263 172.0 
170.227554 208.0 
172.430588 224.0 
173.199493 216.0 
174.56366 176.0 
176.110016 212.0 
176.140274 216.0 
176.162827 172.0 
176.297516 164.0 
177.472321 220.0 
178.656357 296.0 
179.081802 200.0 
179.700653 220.0 
179.95639 196.0 
181.103134 204.0 
181.162033 176.0 
181.282562 220.0 
181.700668 208.0 
182.248154 192.0 
182.556534 228.0 
182.597473 204.0 
183.07901 248.0 
183.127457 244.0 
183.170532 188.0 
183.518051 180.0 
185.125137 200.0 
185.702148 204.0 
186.464752 168.0 
187.35144 200.0 
187.632019 164.0 
187.997375 260.0 
188.103607 508.0 
188.139252 180.0 
188.710007 172.0 
188.898621 168.0 
189.106491 216.0 
190.572998 168.0 
190.655396 240.0 
191.128189 220.0 
191.827423 204.0 
192.136169 212.0 
194.173935 216.0 
195.123215 180.0 
199.215714 200.0 
199.409515 188.0 
200.087143 236.0 
200.551743 284.0 
200.749023 176.0 
202.37027 172.0 
202.843185 220.0 
202.916855 180.0 
205.11058 168.0 
205.134705 188.0 
205.531281 196.0 
205.620911 356.0 
205.769287 164.0 
205.832077 164.0 
205.933624 320.0 
205.987564 300.0 
206.011871 376.0 
206.118759 101968.0 
206.286194 344.0 
206.353928 240.0 
206.534546 164.0 
206.584656 232.0 
207.121368 13936.0 
207.489105 252.0 
207.658493 184.0 
208.121796 1708.0 
208.370331 164.0 
208.516602 288.0 
208.676117 296.0 
209.128799 196.0 
209.474869 204.0 
210.11261 968.0 
210.317459 188.0 
211.123199 192.0 
211.150574 696.0 
212.956985 248.0 
213.474075 192.0 
215.823364 200.0 
217.5336 208.0 
218.159042 188.0 
219.795898 196.0 
223.14563 188.0 
224.150055 196.0 
227.150223 212.0 
231.343491 220.0 
232.167969 528.0 
233.174973 276.0 
234.16925 204.0 
235.56871 212.0 
237.167282 276.0 
239.140213 212.0 
240.169159 232.0 
240.970413 176.0 
247.887726 188.0 
254.184723 220.0 
258.181824 212.0 
260.127991 232.0 
268.164307 164.0 
270.177704 188.0 
273.602478 236.0 
276.158539 1000.0 
277.161621 572.0 
281.927979 192.0 
282.221649 496.0 
301.189941 192.0 
309.326874 180.0 
310.217255 3564.0 
311.220459 456.0 
312.224274 224.0 
314.170837 204.0 
317.501404 232.0 
323.055603 236.0 
326.211212 172.0 
327.436401 168.0 
328.223145 912.0 
328.264923 188.0 
328.41272 164.0 
331.658325 188.0 
332.669922 196.0 
343.670715 224.0 
347.087006 200.0 
348.533997 200.0 
352.900574 172.0 
353.453918 176.0 
354.101288 244.0 
354.135895 240.0 
354.20755 8116.0 
354.764221 164.0 
355.210785 2116.0 
356.217743 412.0 
357.204102 168.0 
370.197052 184.0 
371.153748 192.0 
372.168488 176.0 
373.172913 168.0 
375.272217 180.0 
1124.640747 176.0 
1153.546387 200.0 
1203.517334 276.0 
1225.899536 248.0 
1280.264526 164.0 
1283.270386 180.0 
1295.70813 220.0 
1311.705444 168.0 
1316.559204 308.0 
1318.285034 224.0 
1337.503784 196.0 
1360.146851 224.0 
1369.849243 216.0 
1390.699951 236.0 
1395.742188 212.0 
1396.336792 228.0 
1410.908447 224.0 
1427.862793 192.0 
1444.472168 164.0 
1470.752563 216.0 
1474.409424 180.0 
1488.675659 240.0 
1493.984497 232.0 
1497.493042 192.0 
1505.626343 248.0 
1513.115967 168.0 
1515.732788 224.0 
1522.797119 204.0 
1542.431885 232.0 
1544.401489 184.0 
1546.536743 224.0 
1546.787109 196.0 
1550.239624 264.0 
1577.381836 248.0 
1582.062988 188.0 
1589.549805 208.0 
1597.31665 200.0 
1601.86792 260.0 
1609.010376 224.0 
1610.136963 196.0 
1616.224609 164.0 
1620.84314 224.0 
1621.62793 232.0 
1623.936035 176.0 
1627.312988 272.0 
1628.139771 212.0 
1633.530762 248.0 
1639.88916 220.0 
1640.396851 212.0 
1657.450806 192.0 
1659.079224 208.0 
1660.708374 232.0 
1664.20459 192.0 
1666.266724 180.0 
1666.640259 240.0 
1666.867676 204.0 
1670.719971 196.0 
1674.560425 208.0 
1688.420898 284.0 
1693.943481 208.0 
1696.220581 200.0 
1699.860474 232.0 
1700.836792 196.0 
1721.435425 180.0 
1725.168457 208.0 
1725.722168 264.0 
1727.896484 192.0 
1731.628174 192.0 
1739.775757 216.0 
1743.910767 236.0 
1744.858032 168.0 
1748.882568 220.0 
1754.561401 208.0 
1762.487061 236.0 
1768.547607 224.0 
1771.728394 208.0 
1773.738647 260.0 
1775.180176 196.0 
1779.004517 164.0 
1780.626709 228.0 
1785.152222 188.0 
1789.929932 224.0 
1798.238647 168.0 
1799.546631 208.0 
1801.893555 208.0 
1806.955688 216.0 
1810.407837 212.0 
1821.4375 204.0 
1825.158325 192.0 
1832.943604 216.0 
1836.821167 208.0 
1839.96875 240.0 
1847.862549 304.0 
1848.093506 176.0 
1855.83313 212.0 
1857.727783 208.0 
1857.830566 208.0 
1861.047729 240.0 
1862.867676 180.0 
1864.765869 228.0 
1867.756714 188.0 
1876.976562 180.0 
1877.217896 240.0 
1884.724609 172.0 
1884.957031 212.0 
1885.510742 180.0 
1887.861206 176.0 
1892.523315 192.0 
1894.730957 192.0 
1894.973389 176.0 
1899.141357 272.0 
1905.354126 220.0 
1911.150879 240.0 
1913.064819 184.0 
1915.449829 284.0 
1915.684937 184.0 
1918.95166 216.0 
1920.259888 260.0 
1921.567139 180.0 
1921.732788 212.0 
1921.863647 168.0 
1932.483887 224.0 
1932.545044 276.0 
1934.294678 216.0 
1936.097534 196.0 
1936.500244 184.0 
1939.223999 192.0 
1949.391235 200.0 
1962.818604 240.0 
1971.024292 228.0 
1979.061279 216.0 
1987.912842 208.0 
1989.793823 168.0 
1990.947632 252.0 
1993.300781 212.0 
1995.681885 192.0 
2002.682617 248.0 
END IONS

