BEGIN IONS
PEPMASS=490.0
CHARGE=0+
MSLEVEL=2
SOURCE_INSTRUMENT=LC-ESI-qTof
FILENAME=20130221_Jenia_Ger_Heteronemin_MH490-qb.1.1..mgf
SEQ=*..*
IONMODE=Positive
ORGANISM=GNPS-LIBRARY
NAME=Heteronemin M+H
PI=Gerwick
DATACOLLECTOR=Jenia
SMILES=CC(=O)O[C@H]1C[C@H]2[C@@]3(CC[C@@H]4[C@@]([C@H]3C[C@H]([C@@]2([C@@H]5C1=CO[C@H]5OC(=O)C)C)O)(CCCC4(C)C)C)C
INCHI=InChI=1S/C29H44O6/c1-16(30)34-19-13-22-28(6)12-9-20-26(3,4)10-8-11-27(20,5)21(28)14-23(32)29(22,7)24-18(19)15-33-25(24)35-17(2)31/h15,19-25,32H,8-14H2,1-7H3/t19-,20-,21+,22-,23+,24+,25-,27-,28+,29+/m0/s1
INCHIAUX=N/A
PUBMED=N/A
SUBMITUSER=mwang87
LIBRARYQUALITY=1
SPECTRUMID=CCMSLIB00000001728
SCANS=1
305.876953 36366.0 
352.9104 26207.0 
370.670166 5858.0 
390.628052 1164.0 
406.986084 5428.0 
410.674438 3509.0 
416.182556 10010.0 
420.652893 10985.0 
424.971497 7639.0 
END IONS

