BEGIN IONS
PEPMASS=784.39
CHARGE=1+
MSLEVEL=2
SOURCE_INSTRUMENT=LC-ESI-Ion Trap
FILENAME=f.yuhaobing/microcolins Fedback/microcolin L.mzXML;
SEQ=*..*
IONMODE=Positive
ORGANISM=GNPS-LIBRARY
NAME=Microcolin L M+Na
PI=Gerwick
DATACOLLECTOR=Haobing Yu
SMILES=CN(C([C@H](C)C[C@H](C)CCCC)=O)[C@@H](CC(C)CC)C(N[C@@H]([C@@H](C)OC(C)=O)C(N(C)[C@@H](C(C)C)C(N1[C@H](C(N2C(C=C[C@@H]2C)=O)=O)C[C@H](O)C1)=O)=O)=O
INCHI=
INCHIAUX=
PUBMED=31468974
SUBMITUSER=yuhaobing
LIBRARYQUALITY=3
SPECTRUMID=CCMSLIB00005463471
SCANS=722
235.491119 247270.0 
295.810425 388045.0 
345.47644 323004.0 
346.202698 719267.0 
358.357605 349564.0 
379.189209 450067.0 
401.00769 1707630.0 
401.939697 263523.0 
402.780334 283027.0 
415.41748 150927.0 
419.28186 102861.0 
429.257446 1007784.0 
433.330566 966770.0 
433.96936 42.0 
440.186646 257652.0 
441.619812 190210.0 
461.272888 460573.0 
463.965271 1318540.0 
464.672485 9.0 
469.879395 350699.0 
470.608887 11.0 
489.184631 334206.0 
491.830444 1358490.0 
492.867676 113074.0 
498.65448 969838.0 
583.45874 174555.0 
603.621704 243086.0 
626.61792 801006.0 
627.471436 13961016.0 
628.393311 1735827.0 
629.020996 60.0 
643.474365 1164201.0 
644.108765 139.0 
659.559326 639593.0 
668.372192 514540.0 
680.350342 466281.0 
686.534546 330368.0 
687.411865 159051136.0 
688.367188 8966744.0 
689.18042 8.0 
696.328125 381989.0 
724.388184 75416224.0 
725.492798 7665052.0 
726.336426 124.0 
766.500732 508198.0 
767.415771 350589.0 
784.637085 766958.0 
END IONS

