BEGIN IONS
PEPMASS=964.0
CHARGE=0+
MSLEVEL=2
SOURCE_INSTRUMENT=LC-ESI-qTof
FILENAME=20130107_Jenia_Ger_Kabiramide_C_MNa964-qb.1.1..mgf
SEQ=*..*
IONMODE=Positive
ORGANISM=GNPS-LIBRARY
NAME=Kabiramide_C M+Na
PI=Gerwick
DATACOLLECTOR=Jenia
SMILES=C[C@H]1C[C@@H](CC(=O)O[C@H]([C@@H]([C@H](C/C=C/C2=NC(=CO2)C3=NC(=CO3)C4=NC(=CO4)[C@@H]([C@H]([C@H](C1)O)C)OC)OC)C)C[C@@H]([C@@H](C)CCC(=O)[C@H](C)[C@@H]([C@H](C)/C=C/N(C)CO)OC)OC)O[C@H](N)O
INCHI=InChI=1S/C48H75N5O14/c1-27-19-33(66-48(49)58)21-43(57)67-41(22-40(60-9)28(2)15-16-37(55)30(4)44(61-10)29(3)17-18-53(7)26-54)32(6)39(59-8)13-12-14-42-50-35(24-63-42)46-52-36(25-65-46)47-51-34(23-64-47)45(62-11)31(5)38(56)20-27/h12,14,17-18,23-25,27-33,38-41,44-45,48,54,56,58H,13,15-16,19-22,26,49H2,1-11H3/b14-12+,18-17+/t27-,28-,29+,30-,31-,32+,33-,38-,39-,40-,41-,44+,45+,48+/m0/s1
INCHIAUX=N/A
PUBMED=N/A
SUBMITUSER=mwang87
LIBRARYQUALITY=1
SPECTRUMID=CCMSLIB00000001712
SCANS=1
460.294189 1906179.0 
460.93335 2.0 
491.799744 816774.0 
492.407715 2077655.0 
493.036743 892283.0 
531.215088 1024740.0 
533.284424 1588424.0 
592.221313 556976.0 
597.090088 4364294.0 
597.753784 975412.0 
632.062012 140824.0 
633.214111 799396.0 
653.249268 137508.0 
812.218872 1177665.0 
825.133057 2664409.0 
826.084473 5524286.0 
827.27417 940482.0 
829.247681 950250.0 
839.255859 1975284.0 
839.883301 4.0 
840.516113 1409733.0 
857.493286 2085625.0 
859.349243 32393120.0 
860.344482 11791452.0 
861.40979 1109362.0 
862.013184 5.0 
871.347412 9055908.0 
872.453979 2473483.0 
873.387207 218158.0 
875.437256 2403004.0 
876.353638 942519.0 
886.265869 698341.0 
903.424561 295991488.0 
904.391113 141472256.0 
905.303345 275.0 
921.483521 6579706.0 
922.57959 9643200.0 
923.225464 17815.0 
932.179199 1948581.0 
933.395142 3100381.0 
934.008301 8.0 
936.783936 2234377.0 
937.440063 3094956.0 
END IONS

