BEGIN IONS
PEPMASS=855.482
CHARGE=1+
MSLEVEL=2
SOURCE_INSTRUMENT=LC-ESI-qTof
FILENAME=1A2_CyanolideA_MNa_855.mzXML
SEQ=*..*
IONMODE=Positive
ORGANISM=GNPS-LIBRARY
NAME=Cyanolide A M+Na
PI=Dorrestein/Gerwick
DATACOLLECTOR=Luzzatto/Garg
SMILES=[H][C@]12C[C@H](O[C@@H]3OC[C@@H](OC)[C@H](OC)[C@H]3OC)C(C)(C)[C@]([H])(CC(=O)O[C@H](CC)C[C@]3([H])C[C@H](O[C@@H]4OC[C@@H](OC)[C@H](OC)[C@H]4OC)C(C)(C)[C@]([H])(CC(=O)O[C@H](CC)C1)O3)O2
INCHI=InChI=1S/C42H72O16/c1-13-23-15-25-17-29(57-39-37(49-11)35(47-9)27(45-7)21-51-39)41(3,4)32(53-25)20-34(44)56-24(14-2)16-26-18-30(42(5,6)31(54-26)19-33(43)55-23)58-40-38(50-12)36(48-10)28(46-8)22-52-40/h23-32,35-40H,13-22H2,1-12H3/t23-,24-,25-,26-,27-,28-,29+,30+,31+,32+,35+,36+,37-,38-,39+,40+/m1/s1
INCHIAUX=DLSUXMZHOIJLGM-MNCMQQDLSA-N
PUBMED=20131814
SUBMITUSER=tal_lk
LIBRARYQUALITY=2
SPECTRUMID=CCMSLIB00000070247
SCANS=3230
97.733688 200.0 
102.060356 180.0 
110.751816 140.0 
111.045135 252.0 
129.992752 236.0 
138.666168 220.0 
143.069824 164.0 
153.273468 160.0 
175.098129 200.0 
179.338257 176.0 
190.754929 176.0 
192.616943 184.0 
207.140762 168.0 
216.268738 160.0 
226.949295 140.0 
246.997055 196.0 
247.131882 172.0 
261.486298 152.0 
262.810211 144.0 
265.135742 308.0 
266.147461 364.0 
288.916626 248.0 
318.883972 160.0 
334.136139 156.0 
344.880188 140.0 
351.126312 156.0 
353.052582 196.0 
362.942139 212.0 
378.898773 188.0 
384.222809 164.0 
391.538025 168.0 
395.233398 168.0 
395.722015 152.0 
424.287231 168.0 
431.563385 236.0 
433.180908 148.0 
437.356476 176.0 
438.813904 164.0 
438.993103 152.0 
439.230347 8776.0 
440.002441 204.0 
440.234467 1292.0 
441.243652 324.0 
441.292908 180.0 
442.618744 160.0 
443.104401 144.0 
443.209106 204.0 
452.907379 156.0 
467.387085 220.0 
482.444122 248.0 
485.306702 108.0 
486.321136 248.0 
487.324371 156.0 
491.915863 216.0 
516.081665 200.0 
518.796997 180.0 
523.306519 172.0 
534.378174 296.0 
557.343506 196.0 
558.297363 144.0 
564.633118 140.0 
583.898193 180.0 
589.125854 180.0 
596.143616 180.0 
599.154236 168.0 
603.427734 216.0 
625.371399 152.0 
651.855286 156.0 
652.195679 160.0 
654.672363 140.0 
659.389465 172.0 
665.010742 184.0 
669.409668 152.0 
679.396545 140.0 
680.963501 156.0 
681.300964 160.0 
681.384827 984.0 
681.456787 184.0 
682.381653 492.0 
683.381287 236.0 
685.387451 100.0 
700.70813 176.0 
705.640808 176.0 
710.449829 208.0 
717.763 192.0 
722.102905 184.0 
736.226318 204.0 
739.923279 236.0 
743.108765 148.0 
748.112061 160.0 
749.260681 140.0 
750.312073 212.0 
751.015259 180.0 
752.264282 140.0 
755.235657 176.0 
755.705933 144.0 
759.193726 160.0 
767.278748 164.0 
775.988403 156.0 
784.429626 148.0 
789.871765 188.0 
790.632385 144.0 
804.256226 212.0 
809.710022 144.0 
811.495239 120.0 
812.475037 276.0 
813.490417 144.0 
814.052307 164.0 
814.548645 172.0 
815.114136 152.0 
815.415161 160.0 
818.030579 164.0 
820.029053 144.0 
820.667236 212.0 
825.753235 188.0 
826.130554 192.0 
826.69104 184.0 
830.424866 168.0 
836.39801 180.0 
838.948853 176.0 
839.671814 104.0 
840.413147 152.0 
843.637512 96.0 
844.062134 152.0 
844.842651 152.0 
845.554077 144.0 
846.055115 140.0 
847.249939 160.0 
848.449097 240.0 
852.318726 224.0 
852.551086 200.0 
852.960022 248.0 
853.162964 152.0 
853.422668 156.0 
853.469177 160.0 
854.067932 200.0 
854.185669 188.0 
854.908997 108.0 
855.038574 120.0 
855.202026 256.0 
855.305481 144.0 
855.471313 51132.0 
855.628418 268.0 
855.771912 112.0 
855.824219 148.0 
855.926086 164.0 
855.975708 244.0 
856.119629 144.0 
856.214844 172.0 
856.281311 160.0 
856.331787 512.0 
856.475098 21844.0 
856.695007 132.0 
856.836914 256.0 
856.971558 408.0 
857.010925 232.0 
857.115662 144.0 
857.201233 284.0 
857.317627 100.0 
857.378479 264.0 
857.475525 7408.0 
857.761536 184.0 
857.984741 108.0 
858.338013 148.0 
858.477051 1736.0 
858.927185 208.0 
859.069702 136.0 
859.488586 172.0 
859.590393 132.0 
859.942322 104.0 
860.072815 160.0 
860.303528 188.0 
860.47522 172.0 
860.633057 252.0 
860.704407 156.0 
860.824768 128.0 
860.873779 200.0 
861.153564 120.0 
861.232422 176.0 
861.414124 140.0 
861.917542 160.0 
863.612244 144.0 
867.010132 104.0 
870.305908 120.0 
874.885864 168.0 
878.333679 148.0 
926.958069 144.0 
1016.537964 184.0 
1151.729614 160.0 
1162.245728 176.0 
1175.270508 140.0 
1177.119507 152.0 
1242.836426 144.0 
1338.895752 216.0 
1354.585571 140.0 
1392.416626 184.0 
1737.848633 160.0 
1938.881592 140.0 
1965.480835 164.0 
END IONS

