BEGIN IONS
PEPMASS=1704.04
CHARGE=1+
MSLEVEL=2
SOURCE_INSTRUMENT=LC-ESI-Ion Trap
FILENAME=f.RReher/2226/2226H.mzXML;
SEQ=*..*
IONMODE=Positive
ORGANISM=GNPS-LIBRARY
NAME=Samholide C/D M+Na
PI=Gerwick
DATACOLLECTOR=Daojing Zhang
SMILES=C[C@H]1C[C@H](C[C@@H](O1)CC[C@H](C)[C@@H]([C@H](C)[C@@H]2C[C@@H](C[C@@H]([C@@H]([C@H](C[C@@H]3CC=C[C@H](O3)C[C@H](C/C=C(ccC(O[C@@H](C[C@@H](C[C@@H]([C@@H]([C@H](C[C@@H]4CC=C[C@H](O4)C[C@H](C/C=C(/C=C/C(O2)=O)C)O[C@@H]5[C@H]([C@@H]([C@H](CO5)OC)OC)O)OC)C)O)O)[C@@H](C)[C@H]([C@@H](C)CC[C@H]6C[C@@H](C[C@@H](O6)C)OC)O)=O)\C)O[C@@H]7[C@H]([C@@H]([C@H](CO7)OC)OC)O)OC)C)O)O)O)OC
INCHI=
INCHIAUX=
PUBMED=29457979
SUBMITUSER=RReher
LIBRARYQUALITY=3
SPECTRUMID=CCMSLIB00005436032
SCANS=858
549.314941 516555.0 
573.488525 85503.0 
593.203125 161543.0 
624.45752 117315.0 
632.265137 88303.0 
641.409912 1329777.0 
642.448975 187673.0 
643.355469 201431.0 
644.071777 13.0 
649.314087 229427.0 
650.513428 336757.0 
651.117188 244.0 
659.348633 125970.0 
685.356934 137699.0 
687.536255 452471.0 
688.228516 21.0 
688.983521 84992.0 
703.60083 352807.0 
704.417236 200895.0 
705.263794 83806.0 
831.063232 66238.0 
832.516113 82034.0 
845.382324 757790.0 
846.494873 274715.0 
849.354004 113094.0 
863.516235 23263632.0 
864.530273 9328996.0 
865.425659 810990.0 
866.140259 19.0 
875.665405 64118.0 
877.112183 40320.0 
880.414307 150179.0 
909.823486 65123.0 
925.535156 79485.0 
975.310181 43762.0 
992.850586 55153.0 
1007.617065 75716.0 
1008.703857 177613.0 
1015.441406 470585.0 
1016.452148 171533.0 
1023.536621 767490.0 
1024.581055 700883.0 
1025.199951 9.0 
1051.591309 170799.0 
1052.60498 174932.0 
1066.624512 42796.0 
1067.494629 159507.0 
1068.543701 164716.0 
1069.417236 349358.0 
1070.077637 6.0 
1070.873047 319308.0 
1085.441895 1017344.0 
1086.044434 173.0 
1086.705566 189083.0 
1089.575195 267260.0 
1107.650635 1313813.0 
1108.762451 31962.0 
1109.42041 77900.0 
1110.26123 242232.0 
1111.818848 40340.0 
1144.452637 60467.0 
1145.87085 93411.0 
1146.682617 96856.0 
1211.686768 317480.0 
1212.570801 81740.0 
1213.617188 143167.0 
1229.630859 451507.0 
1230.776123 287526.0 
1233.720215 161553.0 
1234.705566 95151.0 
1245.599121 11300592.0 
1246.663086 6701069.0 
1247.666992 2156665.0 
1248.272461 146.0 
1250.174316 155106.0 
1250.985352 28487.0 
1251.754395 68164.0 
1257.252441 109262.0 
1258.746582 153442.0 
1259.457031 83102.0 
1263.550293 85015.0 
1268.639648 118100.0 
1274.009033 346310.0 
1274.913086 221434.0 
1289.538086 104192.0 
1290.640137 202350.0 
1291.366699 2.0 
1303.816406 334944.0 
1304.781982 263314.0 
1305.879395 202217.0 
1311.794434 429234.0 
1312.635986 74979.0 
1313.649414 51834.0 
1321.801025 14529462.0 
1322.79126 10439952.0 
1323.76123 2681391.0 
1324.679932 5.0 
1329.570801 324940.0 
1330.489258 93085.0 
1347.952148 75042.0 
1348.828613 154928.0 
1359.73877 125031.0 
1367.914551 108401.0 
1368.646484 91041.0 
1372.094482 98397.0 
1373.796387 58102.0 
1374.606445 71186.0 
1375.500488 218869.0 
1385.966797 59792.0 
1389.721924 1169883.0 
1390.793945 586877.0 
1391.696777 115685.0 
1416.108398 76683.0 
1431.617432 126993.0 
1433.672852 3374276.0 
1434.695801 2061561.0 
1435.632324 693877.0 
1436.354004 16.0 
1453.653076 234453.0 
1454.745605 147225.0 
1461.92334 217014.0 
1463.623047 254699.0 
1464.838867 28402.0 
1471.5 1027926.0 
1472.619873 657809.0 
1473.744873 185559.0 
1475.703857 96601.0 
1476.839111 506973.0 
1477.777832 40461.0 
1478.646484 61303.0 
1481.807129 3528793.0 
1482.775146 4104977.0 
1483.865723 1454351.0 
1484.553955 74.0 
1488.680176 179242.0 
1489.701172 4749632.0 
1490.709473 4464758.0 
1491.780029 900582.0 
1492.728516 322944.0 
1494.662842 307873.0 
1495.37207 150136.0 
1507.939941 440747.0 
1508.852051 290082.0 
1509.955078 166208.0 
1510.777832 93802.0 
1525.659424 3256983.0 
1526.733154 6057081.0 
1527.841553 4626896.0 
1528.896729 2450655.0 
1529.836182 723757.0 
1541.617676 112864.0 
1542.868164 87147.0 
1543.753906 4952055.0 
1544.783447 4969704.0 
1545.716064 2586345.0 
1546.633301 4.0 
1619.994385 88801.0 
1642.802002 132260.0 
1649.958252 54390.0 
1651.567627 61037.0 
1659.970947 184535.0 
1661.861084 228021.0 
1667.551758 245795.0 
1668.307617 50.0 
1669.725342 50284.0 
1671.615234 394511.0 
1673.742432 166222.0 
1685.883545 1487167.0 
1686.849609 1277102.0 
1687.776611 2104998.0 
1688.852295 233462.0 
1704.181152 180196.0 
1704.968018 35975.0 
END IONS

