BEGIN IONS
PEPMASS=1104.6
CHARGE=1+
MSLEVEL=2
SOURCE_INSTRUMENT=LC-ESI-Orbitrap
FILENAME=f.RReher/Culebra/pure_compounds/1122_non_AHP/SPE1-1-19_1122.6178_MS2_M+H-H2O_QE.mgf;
SEQ=*..*
IONMODE=Positive
ORGANISM=GNPS-LIBRARY
NAME=Rivulariapeptolide 1121 M+H-H2O
PI=Gerwick
DATACOLLECTOR=Raphael Reher
SMILES=CC(C)[C@H](NC([C@H](CC1=CC=C(O)C=C1)N(C)C([C@H](CC(C)C)N2[C@H](O)CC[C@H](NC(/C(NC3=O)=C\C)=O)C2=O)=O)=O)C(O[C@H](C)[C@@H]3NC([C@H]([C@@H](OC(C4N(C(CCC)=O)CCC4)=O)C)NC(C5CCCN5C(CCC)=O)=O)=O)=O
INCHI=
INCHIAUX=
PUBMED=
SUBMITUSER=RReher
LIBRARYQUALITY=3
SPECTRUMID=CCMSLIB00005723399
SCANS=1
84.208893 2296.359375 
84.209625 4418.67334 
84.210358 5288.275879 
84.211098 4218.739746 
84.21183 2066.836914 
86.093567 1546.488281 
86.094322 6040.005371 
86.095078 23366.876953 
86.09584 50308.65625 
86.096596 79303.320312 
86.097351 81457.398438 
86.098114 53070.921875 
86.098869 25895.933594 
86.099625 6953.938477 
86.10038 1731.118164 
106.480606 3388.961914 
106.481651 5191.272461 
106.482697 5963.994629 
106.483734 5210.879883 
106.484779 3362.526123 
111.010918 3187.674805 
111.012024 5265.503418 
111.01313 6033.814453 
111.014244 4949.92627 
111.01535 2813.309814 
124.109093 4011.740723 
124.110405 8351.18457 
124.111717 11808.822266 
124.113029 11912.951172 
124.114342 8625.878906 
124.115654 4302.151367 
124.116959 1301.688477 
136.107361 1509.164429 
136.108856 4171.235352 
136.110367 8106.45166 
136.111877 11068.759766 
136.113373 10975.797852 
136.114883 7851.419434 
136.116394 3827.304199 
136.866592 2270.004395 
136.868103 4753.693848 
136.869629 6396.689453 
136.87114 6005.140137 
136.872665 3889.145508 
140.099762 1911.127808 
140.101334 10031.987305 
140.102905 41900.574219 
140.104477 92464.3125 
140.106049 146979.859375 
140.10762 154281.8125 
140.109207 102721.453125 
140.110779 52543.625 
140.11235 16064.15332 
140.113922 5033.892578 
140.115494 2501.036133 
150.084991 9363.797852 
150.086731 40072.335938 
150.088486 93570.5 
150.090225 151097.296875 
150.091965 163987.875 
150.093719 110954.640625 
150.095459 57566.238281 
150.097198 17710.324219 
150.098938 5754.244141 
150.100693 3089.17749 
150.102432 1072.309937 
153.132065 1728.765747 
153.133865 8997.796875 
153.135666 22922.880859 
153.137451 37924.996094 
153.139252 42397.675781 
153.141052 28771.626953 
153.142853 14687.570312 
153.144653 3785.943359 
153.146454 518.510376 
158.276657 2665.599854 
158.278549 4673.725586 
158.280426 5560.29834 
158.282318 4699.675293 
158.28421 2671.032959 
158.72522 3349.029053 
158.727127 5274.321777 
158.729019 6049.82959 
158.730911 5097.629883 
158.732803 2956.126221 
168.091675 666.227661 
168.093735 4587.180176 
168.09581 24127.841797 
168.09787 75475.835938 
168.099945 129402.53125 
168.102005 164102.109375 
168.10408 124346.835938 
168.10614 71702.21875 
168.108215 24206.927734 
168.110275 7521.809082 
168.11235 2384.315186 
179.074753 2503.989746 
179.077026 9560.001953 
179.079285 18371.302734 
179.081558 26549.695312 
179.083832 22994.634766 
179.086105 13620.09082 
179.088379 4884.91748 
179.090652 453.127197 
181.089005 874.97998 
181.091309 2747.888672 
181.093628 8382.509766 
181.095932 13980.029297 
181.098236 16561.359375 
181.100555 11984.495117 
181.102859 6258.001953 
181.105179 2166.855957 
181.123672 1832.830078 
181.125992 9053.256836 
181.128311 33281.273438 
181.130615 66466.835938 
181.132935 100187.054688 
181.135239 95158.125 
181.137558 60255.347656 
181.139862 27788.007812 
181.142181 7840.518555 
181.144485 3102.896973 
181.14679 5218.092773 
181.149109 10590.34082 
181.151428 4691.464844 
181.153732 683.650452 
209.115784 702.572937 
209.118652 7019.538086 
209.121521 28570.560547 
209.12439 57789.230469 
209.127258 87402.65625 
209.130127 82996.546875 
209.132996 52508.878906 
209.135864 24321.199219 
209.138733 6959.10791 
209.141602 2064.529053 
223.13208 1846.052124 
223.135239 9361.893555 
223.138397 27542.644531 
223.141571 46933.945312 
223.14473 57368.011719 
223.147888 41888.542969 
223.151047 23267.974609 
223.154221 7061.790039 
223.157379 1719.24585 
241.143616 1890.345703 
241.147171 5477.62207 
241.150711 9908.686523 
241.154266 12269.012695 
241.157822 10795.429688 
241.161377 6603.092773 
241.164932 2585.53125 
251.124847 1831.59436 
251.128616 10513.999023 
251.132401 25787.691406 
251.136169 42388.375 
251.139938 46678.800781 
251.143723 31682.931641 
251.147491 16463.591797 
251.151276 4837.736816 
251.155045 1061.062012 
264.1586 1070.727173 
264.162659 6707.055664 
264.166748 12631.899414 
264.170807 17378.865234 
264.174866 13853.105469 
264.178955 7835.560547 
264.183014 2765.470947 
274.127563 405.077515 
274.131866 5256.731934 
274.136169 13559.871094 
274.140472 22517.164062 
274.144775 24391.744141 
274.149078 16299.980469 
274.153381 8013.387207 
274.157684 2048.956787 
292.147156 1543.252808 
292.151886 3333.415283 
292.156647 9911.15918 
292.161377 17063.089844 
292.166107 20700.845703 
292.170837 15118.379883 
292.175568 8254.118164 
292.180328 2133.025635 
295.154114 3158.299316 
295.158905 6639.742188 
295.163727 8736.326172 
295.168518 7834.285645 
295.17334 4665.657715 
295.178162 1485.310303 
329.620636 3108.878418 
329.626312 5468.278809 
329.631989 6577.562012 
329.637665 5662.905273 
329.643341 3381.611328 
334.162567 3973.874023 
334.168365 8786.477539 
334.174164 12406.979492 
334.179932 11886.874023 
334.18573 7638.032715 
334.191528 2929.721191 
362.642151 3019.611328 
362.648712 5058.186523 
362.655243 5718.251465 
362.661804 4536.944824 
362.668365 2371.59082 
379.926331 2408.545898 
379.93335 4428.924805 
379.940399 5643.472656 
379.947418 5169.835449 
379.954437 3240.939209 
386.17691 2106.688721 
386.184113 8335.34082 
386.191315 28034.585938 
386.198517 52062.085938 
386.205688 74259.59375 
386.212891 65045.410156 
386.220093 39371.5625 
386.227295 15702.44043 
386.234497 3376.843994 
386.241699 404.031738 
395.348724 2992.66626 
395.356201 4675.946289 
395.363647 5265.147461 
395.371094 4350.680664 
395.378571 2470.38208 
408.2258 1755.819946 
408.233612 7261.433594 
408.241455 13034.608398 
408.249268 17789.353516 
408.25708 14474.320312 
408.264923 8043.874023 
408.272736 1918.479614 
417.187469 2317.569092 
417.195557 7494.76123 
417.203613 13110.324219 
417.2117 17330.900391 
417.219788 13590.771484 
417.227875 7828.617188 
417.235962 2611.370605 
436.209412 1323.341675 
436.218048 5466.442871 
436.226685 17048.833984 
436.235321 29384.630859 
436.243958 38055.902344 
436.252594 29605.886719 
436.261261 17277.238281 
436.269897 5788.511719 
436.278534 1672.018433 
469.218994 3231.87793 
469.228638 7469.363281 
469.238281 10991.930664 
469.247925 11269.598633 
469.257568 8186.396973 
469.267212 4031.719971 
960.658813 3686.3125 
960.687012 5661.992188 
960.715271 6227.11377 
960.74353 5066.361816 
960.77179 2892.304688 
1117.835815 3763.343506 
1117.871338 6273.827637 
1117.906738 7197.311523 
1117.942139 5837.536621 
1117.977661 3173.375488 
END IONS

