BEGIN IONS
PEPMASS=818.0
CHARGE=2+
MSLEVEL=2
SOURCE_INSTRUMENT=LC-ESI-qTof
FILENAME=1E2_818MH_RE2_01_9749.mzXML
SEQ=*..*
IONMODE=Positive
ORGANISM=GNPS-LIBRARY
NAME=Bouillonamide A M+H
PI=Dorrestein/Gerwick
DATACOLLECTOR=Peng/Luzzatto/Garg
SMILES=CCC1CC(C)CC(=O)N(C)C=CCCC(C)C(=O)N[C@@H](C(C)C)C(=O)N(C)[C@@H](CC2=CC=CC=C2)C(=O)N(C)[C@@H](C(C)O)C(=O)N(C)[C@@H](CC2=CC=CC=C2)C(=O)O1
INCHI=InChI=1S/C46H67N5O8/c1-11-36-26-31(4)27-39(53)48(7)25-19-18-20-32(5)42(54)47-40(30(2)3)44(56)49(8)37(28-34-21-14-12-15-22-34)43(55)51(10)41(33(6)52)45(57)50(9)38(46(58)59-36)29-35-23-16-13-17-24-35/h12-17,19,21-25,30-33,36-38,40-41,52H,11,18,20,26-29H2,1-10H3,(H,47,54)/t31?,32?,33?,36?,37-,38-,40-,41-/m0/s1
INCHIAUX=LJNGIVUAMWQJIA-WDZYBAFLSA-N
PUBMED=
SUBMITUSER=y6peng
LIBRARYQUALITY=2
SPECTRUMID=CCMSLIB00000072503
SCANS=2329
96.142136 208.0 
98.108727 212.0 
100.042419 172.0 
105.133263 192.0 
107.411865 204.0 
115.304672 176.0 
116.946922 188.0 
118.923843 244.0 
125.081741 232.0 
126.05127 360.0 
130.800903 152.0 
134.095856 900.0 
135.102036 304.0 
136.109848 228.0 
138.141373 200.0 
140.109695 632.0 
141.110504 212.0 
144.066727 784.0 
148.076492 216.0 
148.408356 220.0 
150.131729 156.0 
151.710632 176.0 
154.304459 140.0 
156.141037 208.0 
157.139664 172.0 
161.901276 224.0 
162.090439 328.0 
162.126892 208.0 
163.093262 152.0 
163.825821 192.0 
164.142563 524.0 
165.142441 240.0 
166.084641 204.0 
166.117966 192.0 
167.95903 252.0 
168.139938 168.0 
176.150116 216.0 
180.102249 928.0 
180.157196 192.0 
181.109116 240.0 
190.09079 176.0 
190.121735 244.0 
191.113846 180.0 
192.139832 204.0 
192.727676 184.0 
193.169205 1508.0 
194.172821 208.0 
195.179779 152.0 
196.135376 216.0 
197.135864 376.0 
199.891312 164.0 
200.140411 232.0 
201.156067 280.0 
201.817093 192.0 
202.091354 256.0 
205.140778 180.0 
206.084824 164.0 
206.13031 264.0 
207.116943 156.0 
207.179932 164.0 
208.130905 268.0 
209.141815 216.0 
209.172089 156.0 
211.18251 676.0 
212.172729 100.0 
213.495911 196.0 
213.757614 148.0 
214.14624 196.0 
218.16777 180.0 
222.148712 180.0 
223.15213 176.0 
223.18779 164.0 
226.952667 232.0 
228.09967 416.0 
229.156769 160.0 
231.18512 220.0 
233.13028 272.0 
237.195053 228.0 
238.152008 172.0 
238.661942 204.0 
239.175903 1380.0 
240.181015 200.0 
241.192719 268.0 
243.167297 180.0 
244.129227 232.0 
245.131973 212.0 
246.136002 228.0 
248.20253 308.0 
249.161819 216.0 
249.216949 172.0 
249.430557 184.0 
250.219849 168.0 
251.138809 120.0 
252.143265 200.0 
253.699951 144.0 
259.140656 876.0 
262.147064 184.0 
263.213745 368.0 
263.240814 240.0 
264.195496 164.0 
277.111755 152.0 
277.152466 1128.0 
278.157501 220.0 
286.173065 200.0 
287.154694 252.0 
290.226013 184.0 
295.163879 320.0 
305.150177 564.0 
306.148041 160.0 
307.151581 324.0 
307.954041 144.0 
314.191589 184.0 
319.279266 152.0 
323.199768 160.0 
325.22226 188.0 
325.385254 184.0 
327.210907 144.0 
335.271271 1192.0 
336.164001 144.0 
336.224548 108.0 
336.269165 560.0 
337.281128 212.0 
339.20578 212.0 
341.190979 180.0 
344.48056 256.0 
345.212097 148.0 
346.177551 148.0 
348.951935 164.0 
350.887146 172.0 
355.193512 188.0 
356.191589 148.0 
356.266693 160.0 
357.3302 152.0 
362.967163 176.0 
363.00885 196.0 
363.118805 264.0 
363.263519 2972.0 
364.271606 656.0 
369.219452 1076.0 
370.214996 288.0 
371.227966 144.0 
372.263031 160.0 
372.474182 184.0 
375.220764 144.0 
381.272797 372.0 
383.27951 184.0 
383.493744 168.0 
385.178711 140.0 
388.261688 148.0 
397.465363 168.0 
400.258453 944.0 
401.250946 192.0 
402.315094 156.0 
406.275421 160.0 
412.252258 156.0 
414.274475 140.0 
415.161774 172.0 
418.280884 224.0 
421.236053 172.0 
423.218781 172.0 
423.374329 168.0 
424.291809 204.0 
426.906281 160.0 
430.300201 148.0 
432.295837 152.0 
434.308533 200.0 
438.253723 432.0 
439.264832 152.0 
440.253601 204.0 
452.30307 248.0 
459.80191 152.0 
460.290375 348.0 
466.257721 204.0 
468.278534 164.0 
471.28891 332.0 
479.313049 224.0 
480.297943 172.0 
480.36142 408.0 
481.36499 176.0 
482.865143 160.0 
487.356628 188.0 
488.859863 184.0 
495.794891 196.0 
496.348785 156.0 
497.307495 208.0 
497.348267 168.0 
498.307587 180.0 
498.353149 128.0 
498.869598 172.0 
499.327393 196.0 
500.345978 148.0 
505.069855 196.0 
515.324646 188.0 
523.281311 208.0 
523.900452 176.0 
524.344788 820.0 
525.189941 160.0 
525.349731 256.0 
526.347351 180.0 
527.197998 160.0 
528.509827 192.0 
542.365295 500.0 
543.358337 200.0 
544.365295 200.0 
563.884521 172.0 
567.703491 160.0 
583.200378 136.0 
585.410156 260.0 
595.379211 152.0 
595.420593 216.0 
604.785767 144.0 
608.411804 144.0 
611.429321 112.0 
613.398193 428.0 
614.409607 192.0 
617.887634 188.0 
620.821289 160.0 
621.395203 696.0 
621.515503 172.0 
622.40332 452.0 
623.38678 144.0 
628.35907 152.0 
629.428345 100.0 
637.398071 152.0 
638.056274 180.0 
639.414124 460.0 
640.42041 164.0 
641.427734 200.0 
645.126465 232.0 
646.815369 176.0 
657.424011 296.0 
659.419312 176.0 
661.781921 220.0 
667.402161 116.0 
668.40155 148.0 
677.418152 116.0 
683.379517 140.0 
685.800049 144.0 
686.493164 156.0 
688.271851 220.0 
710.304626 140.0 
736.178284 188.0 
739.042053 252.0 
746.883484 196.0 
747.492615 164.0 
754.110596 200.0 
754.744507 160.0 
763.394043 184.0 
768.845703 144.0 
770.871643 148.0 
773.945923 172.0 
774.480957 1480.0 
775.167542 196.0 
775.473022 680.0 
776.480469 340.0 
783.255615 152.0 
789.252686 168.0 
795.379211 152.0 
797.990417 168.0 
799.490356 156.0 
799.941772 212.0 
800.494202 5076.0 
800.625305 160.0 
800.706848 176.0 
800.819824 200.0 
801.375 104.0 
801.49408 2976.0 
801.771606 176.0 
802.333252 172.0 
802.507263 988.0 
803.495789 288.0 
803.68811 156.0 
804.49469 132.0 
805.392334 152.0 
805.756409 280.0 
807.607117 176.0 
810.663147 164.0 
811.756775 148.0 
811.806519 180.0 
815.948486 172.0 
816.31488 156.0 
816.513123 184.0 
817.59436 204.0 
818.294189 200.0 
818.361389 124.0 
818.383423 100.0 
818.506958 8752.0 
818.783691 140.0 
818.982971 320.0 
819.074097 220.0 
819.507568 5452.0 
819.911316 144.0 
820.243164 96.0 
820.511353 1160.0 
820.598328 180.0 
820.712036 136.0 
821.505493 264.0 
821.829041 128.0 
822.727905 148.0 
823.744019 188.0 
906.121948 168.0 
946.574951 208.0 
1031.817505 164.0 
1211.012939 228.0 
1440.574097 192.0 
1642.022705 152.0 
1659.385376 148.0 
1793.897949 180.0 
1809.605591 212.0 
1954.749756 224.0 
1961.511108 148.0 
1993.44043 268.0 
END IONS

