BEGIN IONS
PEPMASS=367.0
CHARGE=0+
MSLEVEL=2
SOURCE_INSTRUMENT=LC-ESI-Ion Trap
FILENAME=20130107_Jenia_Ger_Kalkitoxin_MH367-qb.1.1..mgf
SEQ=*..*
IONMODE=Positive
ORGANISM=GNPS-LIBRARY
NAME=Kalkitoxin M+H
PI=Gerwick
DATACOLLECTOR=Jenia
SMILES=CC[C@@H](C)C(=O)N(C)CC[C@@H](C)C[C@H](C)[C@H](C)CC1=N[C@@H](CS1)C=C
INCHI=InChI=1S/C21H38N2OS/c1-8-16(4)21(24)23(7)11-10-15(3)12-17(5)18(6)13-20-22-19(9-2)14-25-20/h9,15-19H,2,8,10-14H2,1,3-7H3/t15-,16-,17+,18-,19-/m1/s1
INCHIAUX=PHYRFZDJEDWWKT-UJWQCDCRSA-N
PUBMED=N/A
SUBMITUSER=mwang87
LIBRARYQUALITY=1
SPECTRUMID=CCMSLIB00000001713
SCANS=1
217.305481 56898.0 
238.169159 37027.0 
265.097839 4658443.0 
266.085693 7.0 
282.438477 60785.0 
283.09668 27284912.0 
284.030518 102017.0 
END IONS

