BEGIN IONS
PEPMASS=526.3
CHARGE=0+
MSLEVEL=2
SOURCE_INSTRUMENT=LC-ESI-qTof
FILENAME=20130610_Jenia_Ger_Majusculamide_B_MNa526.3-qb.1.1..mgf
SEQ=*..*
IONMODE=Positive
ORGANISM=GNPS-LIBRARY
NAME=Majusculamide B M+Na
PI=Gerwick
DATACOLLECTOR=Jenia
SMILES=CCCCCCCC(=O)[C@H](C)C(=O)N(C)[C@H](CC1=CC=C(C=C1)OC)C(=O)N(C)[C@@H](C(C)C)C(=O)N
INCHI=InChI=1S/C28H45N3O5/c1-8-9-10-11-12-13-24(32)20(4)27(34)30(5)23(18-21-14-16-22(36-7)17-15-21)28(35)31(6)25(19(2)3)26(29)33/h14-17,19-20,23,25H,8-13,18H2,1-7H3,(H2,29,33)/t20-,23+,25-/m0/s1
INCHIAUX=N/A
PUBMED=N/A
SUBMITUSER=mwang87
LIBRARYQUALITY=1
SPECTRUMID=CCMSLIB00000001806
SCANS=1
154.230377 31961.0 
164.867813 293779.0 
165.56665 3.0 
179.161987 31740.0 
185.856522 584717.0 
187.136505 87350.0 
188.208008 22272.0 
192.77063 34545.0 
202.245331 47961.0 
205.366455 328983.0 
206.891754 15888.0 
218.82132 47311.0 
219.742554 7.0 
221.944839 240447.0 
222.980804 3108690.0 
224.219498 346176.0 
225.225403 51060.0 
226.098114 72040.0 
226.766693 456665.0 
227.489365 31938.0 
230.754242 17019.0 
231.899323 59052.0 
233.870697 58026.0 
239.256409 68024.0 
243.15451 32159.0 
244.581085 94249.0 
245.19928 26705.0 
249.031067 67816.0 
249.808472 335944.0 
254.699677 325926.0 
255.224808 44274.0 
256.279419 65303.0 
256.96875 109573.0 
257.603455 3.0 
258.523163 68697.0 
260.374298 56064.0 
261.465942 62188.0 
262.360107 12825.0 
262.955048 197231.0 
263.758789 2276335.0 
264.691925 296583.0 
269.347473 53817.0 
270.438416 26190.0 
271.783081 182573.0 
273.18045 184007.0 
276.657562 485512.0 
277.977509 173105.0 
278.710938 101659.0 
279.304504 153541.0 
280.091553 112918.0 
281.617004 52123.0 
282.790649 90334.0 
284.423157 159319.0 
287.327637 57196.0 
289.124268 149906.0 
289.819702 18911.0 
290.352234 76587.0 
291.026367 36672.0 
292.213135 95957.0 
295.011322 91713.0 
295.546875 451180.0 
296.266602 1.0 
301.207581 44934.0 
306.081512 93725.0 
307.182068 59388.0 
308.253357 120342.0 
308.800964 18699.0 
309.345917 127357.0 
310.948059 17106.0 
313.182159 93801.0 
314.226318 22820.0 
315.892395 312127.0 
323.0784 321715.0 
326.114441 506776.0 
327.01004 63834.0 
327.937378 67046.0 
330.280273 95031.0 
331.07074 38215.0 
334.15979 116223.0 
337.028381 5815.0 
343.319305 250055.0 
344.173035 19218464.0 
345.171417 2986537.0 
345.852509 7167.0 
347.012451 116998.0 
347.67215 118957.0 
348.956482 45374.0 
350.648193 89172.0 
351.611877 141593.0 
352.160339 100860.0 
352.74353 38374.0 
353.626221 141221.0 
354.519165 34839.0 
358.50769 64455.0 
359.747314 117025.0 
360.431976 391825.0 
361.233612 237109.0 
362.157379 82837.0 
363.546143 77150.0 
365.568176 118730.0 
366.843781 188800.0 
367.643677 264615.0 
368.333313 1.0 
368.836426 1804.0 
371.031708 53898.0 
371.885132 5257.0 
373.807983 55955.0 
374.468872 25046.0 
376.987427 17000.0 
381.124512 75020.0 
382.294128 297042.0 
383.23584 175015.0 
383.852295 17920.0 
384.605469 651556.0 
385.510956 39544.0 
388.125153 293458.0 
388.955688 25518.0 
389.726318 75005.0 
390.388458 691024.0 
390.974426 15527.0 
392.570129 66985.0 
393.459717 10668.0 
395.177124 531020.0 
396.177887 5542755.0 
397.252197 951659.0 
398.395782 29458.0 
399.634277 119159.0 
402.804199 21912.0 
403.779541 27999.0 
405.10376 259431.0 
405.830688 9792.0 
407.549591 246541.0 
408.666046 223834.0 
409.50592 136437.0 
410.634705 86351.0 
411.62561 112200.0 
413.40271 1199601.0 
414.102142 5316638.0 
415.047821 1359320.0 
415.805969 41206.0 
417.42041 184250.0 
418.030762 20143.0 
419.282715 92691.0 
419.987671 19.0 
421.543091 31049.0 
422.496277 21911.0 
424.108459 10527.0 
425.313416 30097.0 
426.455139 210978.0 
427.052582 179895.0 
427.602722 265988.0 
428.285095 3.0 
429.107971 31707.0 
429.830872 55831.0 
430.981018 153014.0 
431.685486 194592.0 
432.645111 102337.0 
433.503418 185414.0 
434.011536 403747.0 
434.857727 673861.0 
435.664673 1121942.0 
436.622009 1836454.0 
437.402649 1159270.0 
438.161163 64270.0 
441.498047 42058.0 
442.192657 118995.0 
443.780792 138284.0 
446.01709 102279.0 
447.854706 161075.0 
448.971985 127445.0 
449.613098 77036.0 
453.291412 46711.0 
453.838379 63450.0 
454.628418 254853.0 
457.843323 21759.0 
464.327148 55244.0 
468.459625 98802.0 
483.212891 463564.0 
484.051575 94838.0 
495.094879 101768.0 
496.25592 325038.0 
508.16745 960849.0 
509.164795 449284.0 
509.828125 5.0 
510.516541 8180.0 
511.367859 33746.0 
525.337524 48148.0 
526.288513 83984608.0 
527.281799 29014960.0 
527.889099 12670.0 
END IONS

