BEGIN IONS
PEPMASS=427.0
CHARGE=0+
MSLEVEL=2
SOURCE_INSTRUMENT=LC-ESI-qTof
FILENAME=20121115_Jenia_Ger_Stypoldione_MH_427_qb.1.1..mgf
SEQ=*..*
IONMODE=Positive
ORGANISM=GNPS-LIBRARY
NAME=Stypoldione M+H
PI=Gerwick
DATACOLLECTOR=Jenia
SMILES=C[C@H]1CC[C@@H]2[C@]3(CC[C@@H](C([C@@H]3CC[C@]2([C@]14CC5=C(O4)C(=CC(=O)C5=O)C)C)(C)C)O)C
INCHI=InChI=1S/C27H38O4/c1-15-13-18(28)22(30)17-14-27(31-23(15)17)16(2)7-8-20-25(5)11-10-21(29)24(3,4)19(25)9-12-26(20,27)6/h13,16,19-21,29H,7-12,14H2,1-6H3/t16-,19-,20+,21-,25-,26+,27-/m0/s1
INCHIAUX=N/A
PUBMED=N/A
SUBMITUSER=mwang87
LIBRARYQUALITY=1
SPECTRUMID=CCMSLIB00000001597
SCANS=1
122.904297 38113.0 
124.77861 6982.0 
125.902924 12028.0 
132.821686 40530.0 
133.374084 1.0 
134.973755 31509.0 
138.971313 6807.0 
141.077148 8237.0 
141.878632 6454.0 
144.965393 100254.0 
145.714966 1.0 
146.935898 92475.0 
147.599915 4.0 
148.827423 51158.0 
149.473785 12.0 
150.863586 5646.0 
152.906174 1252761.0 
153.586029 8.0 
154.11145 2703.0 
154.863525 6752.0 
158.970291 138086.0 
159.652527 8.0 
160.953506 161781.0 
161.581818 4.0 
162.860275 114549.0 
164.783463 162909.0 
165.423798 2.0 
166.920731 72955.0 
167.536072 1.0 
170.028763 13217.0 
170.946167 54256.0 
172.092773 7420.0 
172.968964 117374.0 
173.982697 2335.0 
174.927048 42711.0 
175.825592 8287.0 
176.943054 21493.0 
178.830215 262333.0 
179.48201 19.0 
180.796524 382341.0 
181.515182 4.0 
182.97522 11210.0 
184.965988 68953.0 
185.548462 4.0 
186.981812 222421.0 
187.727234 1.0 
188.886322 29995.0 
190.874741 297968.0 
191.63118 11.0 
192.870453 110438.0 
194.853287 70532.0 
198.982834 69110.0 
199.97757 12988.0 
200.918045 155234.0 
201.548553 6276.0 
202.997101 66738.0 
204.282715 3701.0 
204.864273 23077.0 
206.922714 44502.0 
210.734863 9590.0 
213.111282 96579.0 
214.916534 155450.0 
215.63562 1.0 
216.925018 37971.0 
217.581543 2.0 
218.912369 77824.0 
219.782501 1.0 
220.782669 30575.0 
227.184692 11376.0 
228.981171 241850.0 
229.606445 2.0 
230.814651 100645.0 
231.555298 8.0 
232.753021 74553.0 
233.439453 19.0 
234.763794 9267.0 
238.871536 20428.0 
241.044312 11114.0 
243.04274 222510.0 
243.966827 3796.0 
245.065536 135890.0 
245.650665 9613.0 
246.891098 242828.0 
247.665649 5.0 
248.227325 20437.0 
248.808304 24197.0 
252.884705 30958.0 
254.973373 698336.0 
255.996338 40211.0 
256.999786 1323365.0 
257.744202 22537.0 
259.008057 160957.0 
259.632568 3.0 
260.88208 239110.0 
261.587769 9.0 
266.814819 65477.0 
268.968689 360880.0 
269.526489 10444.0 
270.894043 64562.0 
271.621704 5.0 
272.402954 101042.0 
272.999054 1555364.0 
274.089386 45753.0 
274.920746 594853.0 
275.622192 29.0 
276.935608 10930.0 
279.100708 18074.0 
280.853943 25567.0 
282.958313 22662.0 
284.800018 61851.0 
287.038635 378345.0 
288.378845 7021.0 
289.070312 9872.0 
290.555664 4111.0 
292.881714 5543.0 
294.980408 33994.0 
296.869446 9298.0 
298.795929 199372.0 
299.344116 4.0 
300.240601 3614.0 
300.885315 204197.0 
301.792419 2912.0 
304.828979 1754.0 
306.889038 13821.0 
311.130249 9852.0 
312.253052 10202.0 
312.944061 132258.0 
314.861115 234221.0 
316.946899 87125.0 
321.026123 28489.0 
324.825928 46409.0 
325.422974 4.0 
326.957764 42210.0 
328.798187 14881.0 
330.631226 81056.0 
335.086029 11402.0 
338.832001 97573.0 
340.861847 223910.0 
341.594757 1.0 
342.848755 11203.0 
344.854645 57076.0 
346.416016 12150.0 
351.07373 3638.0 
352.389282 29841.0 
353.117737 38585.0 
354.682007 9212.0 
355.201355 7213.0 
357.024353 53466.0 
363.030029 37872.0 
365.94104 19669.0 
366.563049 10333.0 
372.838226 58726.0 
381.105286 13082.0 
381.871704 4057.0 
382.720398 3777.0 
391.021667 461861.0 
391.653748 4570.0 
397.051331 17402.0 
398.69165 9393.0 
408.305847 15548.0 
409.005981 6192136.0 
409.806854 11.0 
419.364685 11142.0 
426.832214 15655.0 
END IONS

