BEGIN IONS
PEPMASS=971.487
CHARGE=1+
MSLEVEL=2
SOURCE_INSTRUMENT=LC-ESI-Orbitrap
FILENAME=f.RReher/Culebra/pure_compounds/989/Rivulariapeptolide989_M-H2O_MS2_QE.mgf;
SEQ=*..*
IONMODE=Positive
ORGANISM=GNPS-LIBRARY
NAME=Rivulariapeptolide 988 M+H-H2O
PI=Gerwick
DATACOLLECTOR=Raphael Reher
SMILES=CC(C)[C@H](NC([C@H](CC1=CC=C(O)C=C1)N(C)C([C@H](CC2=CC=CC=C2)N3[C@H](O)CC[C@H](NC(/C(NC4=O)=C\C)=O)C3=O)=O)=O)C(O[C@H](C)[C@@H]4NC([C@H]([C@@H](O)C)NC(C5CCCN5C(CCC)=O)=O)=O)=O
INCHI=
INCHIAUX=
PUBMED=
SUBMITUSER=RReher
LIBRARYQUALITY=3
SPECTRUMID=CCMSLIB00005723392
SCANS=1
84.04277 3517.781006 
84.043503 8557.902344 
84.044235 13182.355469 
84.044968 14337.914062 
84.0457 11225.401367 
84.046425 6043.766113 
91.051529 2835.966309 
91.052353 21107.947266 
91.053177 53519.859375 
91.054001 88681.648438 
91.054825 100630.164062 
91.055649 70782.585938 
91.056473 38446.253906 
91.057304 12653.296875 
91.058128 4000.39624 
91.945763 5926.071289 
91.946594 10737.057617 
91.947433 11896.045898 
91.948265 9077.729492 
99.514633 4204.060547 
99.515579 7790.746094 
99.516518 9465.022461 
99.517464 8117.373535 
99.518402 4795.969727 
103.052505 4519.647949 
103.053497 8688.461914 
103.054489 10683.466797 
103.055481 8963.00293 
103.056473 4860.26416 
107.046684 6123.149414 
107.047737 13814.832031 
107.04879 20637.355469 
107.049835 21612.585938 
107.050888 15986.873047 
107.051941 7858.486816 
107.052994 2325.425293 
119.046104 5063.660156 
119.04734 13204.249023 
119.048569 21321.222656 
119.049805 23298.880859 
119.051033 17681.242188 
119.052269 9114.083984 
119.053497 3550.054688 
120.070312 5152.847168 
120.071556 12249.459961 
120.072807 26848.783203 
120.074059 44721.574219 
120.075302 54437.898438 
120.076553 151743.21875 
120.077797 529224.0 
120.079048 1134302.125 
120.080292 1786107.5 
120.081543 1851877.625 
120.082794 1217261.625 
120.084038 604799.75 
120.085289 169955.578125 
120.086533 52490.265625 
120.087784 43132.824219 
120.089035 33326.144531 
120.090279 15782.492188 
120.09153 5319.46582 
121.060997 3931.334229 
121.062256 10020.344727 
121.063522 16855.539062 
121.064789 19885.974609 
121.066048 16955.748047 
121.067314 10278.128906 
121.068573 4177.103516 
130.046173 5013.87207 
130.047577 12050.673828 
130.048981 18563.287109 
130.0504 20206.375 
130.051804 15943.918945 
130.053207 8918.054688 
130.054611 3398.262695 
135.06366 4421.477051 
135.06514 11560.139648 
135.066635 20134.496094 
135.068115 24113.466797 
135.069611 20651.916016 
135.071091 12608.850586 
135.072586 5193.767578 
136.071228 5098.474121 
136.072739 11695.943359 
136.074249 17965.332031 
136.075745 19394.646484 
136.077255 14835.760742 
136.078766 7562.955078 
136.080261 2338.939209 
140.09848 17528.630859 
140.100052 25151.380859 
140.101624 74472.023438 
140.103195 253125.5625 
140.104767 509287.59375 
140.106339 775104.375 
140.10791 749701.4375 
140.109482 475680.53125 
140.111053 220442.59375 
140.112625 59800.933594 
140.114212 19722.105469 
140.115784 17955.058594 
140.117355 12343.178711 
140.118851 18448.949219 
140.120422 1829.46228 
146.091049 3522.041992 
146.092712 11926.328125 
146.094391 23488.337891 
146.096069 33916.566406 
146.097748 29586.484375 
146.099411 17388.123047 
146.101089 5643.093262 
146.102768 2677.40918 
148.072189 5912.818848 
148.073898 10547.338867 
148.075607 12290.661133 
148.077316 9977.027344 
148.079025 5512.910645 
150.076569 6077.379395 
150.078308 16197.985352 
150.080048 37072.070312 
150.081802 54853.417969 
150.083542 67615.5 
150.085281 198931.65625 
150.087036 692220.0 
150.088776 1425911.0 
150.090515 2207647.0 
150.092255 2203189.75 
150.094009 1418511.75 
150.095749 683670.125 
150.097488 191713.671875 
150.099243 61611.808594 
150.100983 50741.847656 
150.102722 34406.855469 
150.104477 15642.910156 
150.106216 6930.877441 
151.082535 4543.898438 
151.08429 8836.911133 
151.08606 11039.880859 
151.087814 9691.231445 
151.089584 5851.78418 
153.058609 2931.968994 
153.060394 6870.8125 
153.062195 21119.4375 
153.063995 36631.050781 
153.065796 47081.632812 
153.067581 36513.105469 
153.069382 21130.814453 
153.071182 6821.866699 
153.072968 2851.259033 
153.096344 1966.429688 
153.098145 7441.785156 
153.09993 15976.996094 
153.10173 22237.451172 
153.103531 21313.832031 
153.105331 14036.556641 
153.107117 6000.92334 
158.086197 4575.659668 
158.088074 8925.085938 
158.089966 30545.1875 
158.091843 106222.226562 
158.093735 217958.59375 
158.095612 336561.90625 
158.097504 333398.71875 
158.09938 213351.671875 
158.101273 101244.257812 
158.103165 26434.224609 
158.105042 6646.217773 
158.106934 5416.526367 
158.10881 3581.878418 
166.366974 5333.311035 
166.369019 9305.81543 
166.371048 10423.932617 
166.373077 7912.65918 
166.375122 3807.125488 
167.0755 2772.596191 
167.077545 9821.158203 
167.07959 18758.046875 
167.081635 23691.378906 
167.083694 20981.029297 
167.085739 12957.560547 
167.087784 5294.258301 
168.087799 2730.102051 
168.089874 11591.613281 
168.091934 13769.708984 
168.094009 42969.988281 
168.096069 163100.921875 
168.098145 411198.53125 
168.100204 680254.4375 
168.10228 792289.0625 
168.10434 563390.0 
168.1064 307011.53125 
168.108475 94978.390625 
168.110535 29105.052734 
168.11261 16974.984375 
168.11467 11768.966797 
168.116745 1994.646851 
170.08783 5018.249512 
170.089935 16945.777344 
170.092041 55828.523438 
170.094147 101411.023438 
170.096252 139356.703125 
170.098358 114710.3125 
170.100464 67738.40625 
170.102554 24109.619141 
170.10466 5839.894531 
170.106766 2098.097656 
179.071579 2180.658203 
179.073853 12674.150391 
179.076126 48691.710938 
179.0784 91053.695312 
179.080673 128870.34375 
179.082947 109892.515625 
179.08522 65898.070312 
179.087494 26362.476562 
179.089767 7185.187012 
179.092041 606.322571 
181.08902 1806.300781 
181.091339 10557.696289 
181.093643 22741.609375 
181.095963 35332.804688 
181.098267 33458.511719 
181.100586 20460.320312 
181.10289 8374.626953 
181.105209 3144.71167 
187.110809 4787.319336 
187.113235 20613.136719 
187.115662 81922.773438 
187.118088 252088.78125 
187.120529 433975.21875 
187.122955 566002.5 
187.125381 441544.71875 
187.127808 258854.78125 
187.130234 86236.421875 
187.13266 23346.929688 
187.135086 8471.737305 
187.137512 8104.766602 
187.139954 2367.373047 
193.091415 5025.175293 
193.093948 10788.391602 
193.096497 13723.192383 
193.099045 11694.230469 
193.101593 6553.625488 
199.099274 3949.740967 
199.101929 10493.682617 
199.104599 21063.617188 
199.107254 29958.439453 
199.109924 24907.759766 
199.112595 14711.46582 
199.11525 4824.845703 
213.092834 4607.027832 
213.095779 12140.334961 
213.09874 23755.097656 
213.101685 33758.855469 
213.10463 27247.648438 
213.10759 15049.475586 
213.110535 3912.094727 
215.09256 2721.966797 
215.095551 8568.93457 
215.098541 19703.974609 
215.101532 29804.0 
215.104523 39220.894531 
215.107513 120920.257812 
215.110504 419868.25 
215.11351 853483.0 
215.116501 1310923.125 
215.119492 1290363.875 
215.122482 826386.4375 
215.125473 392999.25 
215.128464 109473.664062 
215.131454 34715.527344 
215.13446 28524.869141 
215.137451 19074.095703 
215.140442 7249.111328 
215.143433 3304.498779 
223.12912 2133.726562 
223.132278 10773.223633 
223.135452 44505.035156 
223.138611 101490.9375 
223.141769 163385.015625 
223.144928 176015.265625 
223.148087 117921.476562 
223.15126 59695.207031 
223.154419 16484.099609 
223.157578 3845.397705 
225.111832 2350.756348 
225.115036 6701.887207 
225.11824 15450.157227 
225.121445 25860.208984 
225.124649 25772.373047 
225.127853 11556.910156 
225.131058 4401.466309 
226.075989 3311.450928 
226.079208 8637.299805 
226.082443 14366.720703 
226.085663 16082.145508 
226.088882 12311.724609 
226.092117 5910.071777 
234.07843 3041.422119 
234.081833 9272.868164 
234.08522 15866.53418 
234.088623 18550.912109 
234.09201 15568.171875 
234.095413 9306.078125 
234.098816 3839.89209 
241.090378 6106.716309 
241.093933 11606.297852 
241.097473 14639.262695 
241.101028 13146.791992 
241.104584 8305.15625 
241.108139 3632.459229 
241.139923 2301.365234 
241.143478 6962.361816 
241.147034 22153.035156 
241.150589 38442.964844 
241.154129 48665.074219 
241.157684 35634.5 
241.16124 19235.728516 
241.164795 4746.470215 
243.087708 229.843079 
243.091293 15866.421875 
243.094894 22698.548828 
243.098495 64206.019531 
243.102081 222329.203125 
243.105682 645748.125 
243.109268 1098125.875 
243.112869 1401757.25 
243.11647 1072305.0 
243.120056 621740.9375 
243.123657 200940.78125 
243.127258 52511.121094 
243.130844 16792.453125 
243.134445 13086.205078 
249.151749 7671.110352 
249.155487 14868.785156 
249.15921 19570.597656 
249.162949 18157.919922 
249.166672 11572.082031 
249.17041 4433.601074 
251.121658 667.012695 
251.125427 6070.939941 
251.129211 26580.314453 
251.13298 56809.839844 
251.136765 89521.695312 
251.140533 89468.671875 
251.144302 56909.441406 
251.148087 26711.333984 
251.151855 6261.390625 
251.15564 810.188416 
253.122757 4335.060547 
253.126572 10848.178711 
253.130402 18056.316406 
253.134216 20675.166016 
253.138031 16657.28125 
253.141861 9058.088867 
253.145676 2736.82666 
269.12265 2841.110596 
269.126831 6519.971191 
269.131042 10958.442383 
269.135223 35382.839844 
269.139404 121067.398438 
269.143585 240475.203125 
269.147797 363225.4375 
269.151978 346608.78125 
269.156158 217751.96875 
269.160339 97906.351562 
269.164551 24163.714844 
269.168732 6221.566895 
269.172577 6310.050293 
269.176758 4035.531982 
270.147003 4547.949707 
270.151215 10742.976562 
270.155426 18532.164062 
270.159637 23008.183594 
270.163849 20974.816406 
270.16806 13861.578125 
270.172272 6241.366211 
281.116852 6727.828125 
281.121338 13840.479492 
281.125793 18363.625 
281.13028 16606.111328 
281.134735 9902.567383 
281.139221 3223.897949 
295.145508 5748.890625 
295.15033 18480.429688 
295.155151 57296.714844 
295.159943 104462.03125 
295.164764 146478.796875 
295.169556 124877.929688 
295.174377 74501.46875 
295.179199 27493.818359 
295.18399 4190.371582 
298.134216 1762.877441 
298.139099 15148.951172 
298.143982 51300.617188 
298.148865 91593.828125 
298.153748 125061.820312 
298.15863 103498.515625 
298.163513 61637.667969 
298.168396 23319.060547 
298.173279 5506.818848 
308.104614 3594.993652 
308.109741 10485.520508 
308.114868 35921.535156 
308.119995 80778.0625 
308.125153 129262.945312 
308.13028 138340.75 
308.135406 91914.703125 
308.140533 45631.894531 
308.14566 11641.677734 
308.150787 4114.536133 
308.155151 6834.853027 
308.160278 9401.553711 
308.165405 8178.609375 
308.170563 2802.711182 
324.17746 3720.85376 
324.182983 9966.585938 
324.188538 15717.310547 
324.194061 16697.507812 
324.199585 12192.304688 
324.205139 5726.84375 
326.124023 4070.442139 
326.129608 10563.499023 
326.135193 38381.609375 
326.140808 81753.695312 
326.146393 128596.773438 
326.151978 131088.203125 
326.157562 84303.265625 
326.163147 40090.410156 
326.168732 9250.364258 
326.174316 1285.172974 
332.184113 5585.348145 
332.18988 11454.71875 
332.195618 15915.000977 
332.201355 15659.792969 
332.207092 10789.833008 
332.21283 4901.544922 
334.152069 2329.820068 
334.157867 9862.758789 
334.163666 32375.644531 
334.169464 59613.535156 
334.175262 83585.039062 
334.181061 70420.632812 
334.186859 41896.171875 
334.192657 15175.542969 
334.198425 2940.299805 
347.160706 7358.048828 
347.16684 13972.647461 
347.172974 17445.498047 
347.179108 15209.576172 
347.185242 9161.608398 
347.191376 3531.323242 
350.19281 4260.717773 
350.199036 8315.251953 
350.205261 11469.761719 
350.211456 12158.732422 
350.217682 10102.239258 
350.223907 6444.384766 
352.17157 4511.398926 
352.177826 10950.954102 
352.184113 15823.666016 
352.190369 15482.719727 
352.196655 10301.311523 
352.202911 4442.313477 
373.169495 6225.611816 
373.176331 12465.830078 
373.183167 17314.857422 
373.190002 17409.025391 
373.196838 12591.436523 
373.203674 6237.961426 
391.176819 6244.681152 
391.184174 12704.918945 
391.191498 17510.242188 
391.198853 16812.667969 
391.206177 10747.459961 
391.213531 3634.358643 
392.184113 7240.70459 
392.191467 11355.53418 
392.198853 11992.283203 
392.206207 8685.06543 
392.213593 4081.927979 
417.172791 5494.031738 
417.180878 14701.770508 
417.188934 45054.910156 
417.197021 130960.40625 
417.205109 225093.796875 
417.213196 293448.34375 
417.221283 227427.21875 
417.22937 131845.734375 
417.237457 39999.765625 
417.245514 6627.779785 
417.253601 807.107239 
420.121613 3352.384766 
420.129761 10096.480469 
420.137939 13843.469727 
420.146118 30005.582031 
420.154266 43039.976562 
420.162445 105352.398438 
420.170624 332682.125 
420.178772 698169.4375 
420.186951 1091542.125 
420.195129 1128636.375 
420.203308 738504.0 
420.211456 361892.25 
420.219635 91029.71875 
420.227814 18600.130859 
420.235962 17371.308594 
420.243134 17511.041016 
420.251282 10556.373047 
420.25946 489.938477 
435.17572 2706.114502 
435.184326 5974.639648 
435.192932 16698.744141 
435.201569 53261.570312 
435.210175 113078.148438 
435.218781 177600.21875 
435.227386 185259.328125 
435.235992 121450.664062 
435.244629 59586.277344 
435.253235 13735.850586 
435.261841 434.921875 
503.177338 3335.247803 
503.188049 6001.356934 
503.198761 19634.339844 
503.209473 49090.933594 
503.220154 81198.273438 
503.230865 94144.539062 
503.241577 65199.976562 
503.252289 33529.910156 
503.263 7648.580566 
515.162415 5820.353516 
515.173462 10038.942383 
515.18457 11577.816406 
515.195679 9346.883789 
515.206787 5129.321289 
628.297241 4498.713867 
628.312134 9988.070312 
628.327087 13778.226562 
628.342041 12904.4375 
628.356995 8022.186035 
729.315369 1692.948364 
729.334045 6230.111816 
729.352722 18315.65625 
729.371399 27962.767578 
729.390076 27156.080078 
729.408752 16793.191406 
729.427429 7122.211426 
729.446106 2621.935303 
922.893311 5346.76709 
922.919922 9199.893555 
922.946472 11056.927734 
922.973083 9734.335938 
922.999695 6136.967285 
938.839905 7425.710449 
938.867188 11387.882812 
938.89447 12603.020508 
938.921753 10217.810547 
938.949036 5679.097656 
969.817688 6749.472656 
969.846313 11036.673828 
969.875 11901.704102 
969.903625 8981.208008 
969.932251 4573.316895 
END IONS

