BEGIN IONS
PEPMASS=945.477
CHARGE=1+
MSLEVEL=2
SOURCE_INSTRUMENT=LC-ESI-qTof
FILENAME=f.RReher/Culebra/CUR6APR19-1/High_Res_Dorrestein/MaXis/963_Molassamide/2286_crude_2.70min_945.4773_MS2_M-H2O+H.mgf;
SEQ=*..*
IONMODE=Positive
ORGANISM=GNPS-LIBRARY
NAME=Molassamide M+H-H2O
PI=Gerwick
DATACOLLECTOR=Raphael Reher
SMILES=CCCC(NC(C(NC(C(NC1C(C)OC(C(C(C)C)NC(C(CC2=CC=C(O)C=C2)N(C)C(C(CC3=CC=CC=C3)N4C(O)CCC(NC(/C(NC1=O)=C\C)=O)C4=O)=O)=O)=O)=O)C(O)C)=O)C)=O
INCHI=
INCHIAUX=
PUBMED=
SUBMITUSER=RReher
LIBRARYQUALITY=3
SPECTRUMID=CCMSLIB00005720214
SCANS=1
74.03582 76.0 
91.029427 76.0 
114.06514 174.0 
120.056236 1971.0 
121.061859 173.0 
122.068047 85.0 
139.060944 75.0 
142.062912 542.0 
143.064514 85.0 
150.069397 6663.0 
151.072098 734.0 
158.075653 562.0 
167.060303 364.0 
170.075714 136.0 
179.062378 171.0 
180.064545 76.0 
187.104507 2377.0 
188.105774 259.0 
209.112335 99.0 
213.08371 72.0 
215.101166 5560.0 
216.105072 735.0 
217.104218 68.0 
224.087646 73.0 
225.099442 77.0 
226.070389 102.0 
233.119232 83.0 
241.082718 187.0 
242.096451 67.0 
243.098282 11699.0 
244.102005 2243.0 
245.103561 258.0 
249.145706 266.0 
250.104523 393.0 
251.109711 77.0 
261.106903 126.0 
268.116638 2585.0 
269.118896 477.0 
270.131714 94.0 
271.142883 67.0 
277.144348 84.0 
295.154236 2324.0 
296.158264 403.0 
298.143311 1067.0 
299.155182 182.0 
300.15152 108.0 
308.115753 592.0 
308.149872 421.0 
309.120911 271.0 
323.165222 157.0 
323.19101 97.0 
325.143768 94.0 
326.140839 1653.0 
327.147034 343.0 
327.219543 65.0 
329.206818 70.0 
332.187744 112.0 
344.143738 93.0 
350.198181 295.0 
351.16748 73.0 
351.196747 78.0 
365.172852 163.0 
373.177795 69.0 
386.201599 162.0 
391.191254 1032.0 
392.192474 444.0 
409.201324 3522.0 
410.205414 782.0 
411.208099 174.0 
413.199554 79.0 
420.185944 18609.0 
421.188995 4937.0 
422.194061 882.0 
423.200989 156.0 
425.241211 68.0 
427.211121 148.0 
461.233307 198.0 
475.216644 92.0 
479.710052 90.0 
492.214233 113.0 
492.264435 77.0 
493.226105 83.0 
501.2164 518.0 
501.679626 78.0 
501.722198 217.0 
502.223999 88.0 
503.224792 2271.0 
504.230988 535.0 
505.236694 193.0 
510.225433 147.0 
512.204041 68.0 
519.258545 143.0 
521.257751 78.0 
526.291077 111.0 
527.283264 82.0 
537.266418 574.0 
538.27832 139.0 
562.290222 89.0 
563.291016 112.0 
577.644104 77.0 
602.302917 107.0 
608.287659 66.0 
620.326599 251.0 
621.324402 72.0 
627.322876 81.0 
633.313843 166.0 
635.313782 67.0 
644.020813 117.0 
651.309021 246.0 
652.32019 165.0 
657.351746 73.0 
658.312866 106.0 
659.328064 105.0 
667.013123 65.0 
669.329529 76.0 
670.307556 66.0 
671.30127 70.0 
671.345703 85.0 
676.36084 87.0 
685.344116 128.0 
686.343018 163.0 
699.005493 66.0 
703.364014 1020.0 
704.370544 517.0 
705.346313 76.0 
731.354797 88.0 
749.68219 65.0 
750.384583 76.0 
751.404236 68.0 
768.371643 66.0 
778.246948 66.0 
804.39447 1279.0 
805.398071 492.0 
806.403015 67.0 
810.393372 92.0 
846.414307 156.0 
847.406616 94.0 
875.473022 105.0 
917.480347 131.0 
927.467651 192.0 
928.460632 123.0 
942.500183 77.0 
943.239502 65.0 
945.477783 3014.0 
946.481323 1532.0 
946.658813 82.0 
947.482666 517.0 
948.487671 85.0 
951.48114 173.0 
963.414246 64.0 
985.472473 125.0 
END IONS

