BEGIN IONS
PEPMASS=287.14
CHARGE=1+
MSLEVEL=2
SOURCE_INSTRUMENT=LC-ESI-qTof
FILENAME=f.evgenia_glukhov/20150424_Scutellarein.mzXML;
SEQ=*..*
IONMODE=Positive
ORGANISM=GNPS-LIBRARY
NAME=Scutellarein M+H
PI=Dr. Gerwick
DATACOLLECTOR=Jenia
SMILES=C1=CC(=CC=C1C2=CC(=O)C3=C(C(=C(C=C3O2)O)O)O)O
INCHI=
INCHIAUX=
PUBMED=
SUBMITUSER=evgenia_glukhov
LIBRARYQUALITY=3
SPECTRUMID=CCMSLIB00000477995
SCANS=121
156.720032 2618.0 
169.156494 9811.0 
241.129425 4990.0 
242.286224 1488.0 
245.268921 2565.0 
269.145386 41253.0 
270.055847 1527.0 
286.244507 4073.0 
287.221497 2335705.0 
288.257568 364087.0 
289.939697 7677.0 
END IONS

