BEGIN IONS
PEPMASS=400.257
CHARGE=1+
MSLEVEL=2
SOURCE_INSTRUMENT=LC-ESI-Orbitrap
FILENAME=f.RReher/Culebra/pure_compounds/Cryptomaldamide_metabolomics-MS2.mgf;
SEQ=*..*
IONMODE=Positive
ORGANISM=GNPS-LIBRARY
NAME=Cryptomaldamide M+H
PI=Gerwick
DATACOLLECTOR=Reher
SMILES=CC(C)[C@@H](/C=C(\C)/C(=O)O)N(C)C(=O)[C@H](C(C)C)NC(=O)[C@H](CO)N=C(N)N
INCHI=
INCHIAUX=
PUBMED=132489951
SUBMITUSER=RReher
LIBRARYQUALITY=3
SPECTRUMID=CCMSLIB00005724017
SCANS=1
95.085701 58374.691406 
100.050972 667819.1875 
112.050941 361015.40625 
123.080772 102890.109375 
130.061203 7642607.5 
131.117981 4422963.5 
131.297745 37437.265625 
137.417191 32581.101562 
141.090881 89827.039062 
154.122437 128078.515625 
159.112808 95974.507812 
165.113251 48643.613281 
172.133163 2243115.0 
184.107468 165349.1875 
201.134354 103666.96875 
208.18187 36217.695312 
211.119797 108284.40625 
212.102631 233545.046875 
225.927368 36934.324219 
229.129257 394529.0 
236.166046 37440.257812 
243.145248 76514.070312 
260.171539 110891.34375 
271.201477 4519053.0 
283.715454 41899.003906 
351.90213 35053.78125 
364.235016 70558.632812 
382.244507 66942.5625 
383.229095 64254.453125 
400.255371 10337611.0 
END IONS

