BEGIN IONS
PEPMASS=1503.6
CHARGE=0+
MSLEVEL=2
SOURCE_INSTRUMENT=LC-ESI-qTof
FILENAME=20121219_Ger_JeniA_Portoamide_B_MH1503-qb.1.1..mgf
SEQ=*..*
IONMODE=Positive
ORGANISM=GNPS-LIBRARY
NAME=Portoamide_B M+H
PI=Gerwick
DATACOLLECTOR=Jenia
SMILES=CC[C@H](C)[C@@H]1C(=O)N[C@H](C(=O)N/C(=C/C)/C(=O)N[C@H](C(=O)N[C@@H](C(=O)N2CCC[C@H]2C(=O)NC(C(C(=O)N[C@@H](C(=O)NCC(=O)N3CCC[C@H]3C(=O)N4CCC[C@H]4C(=O)N1)CCC(=O)N)O)CC(CC(C(CC(C)C)O)O)OC(=O)[C@H](CC5=CC=C(C=C5)O)N(C)C(=O)C)CCC6=CC=CC=C6)[C@@H](C)O)CO
INCHI=InChI=1S/C73H107N13O21/c1-9-40(5)60-68(101)80-51(38-87)65(98)76-47(10-2)64(97)82-61(41(6)88)69(102)78-49(27-24-43-17-12-11-13-18-43)71(104)85-31-14-19-52(85)66(99)79-50(35-46(36-57(92)56(91)33-39(3)4)107-73(106)55(83(8)42(7)89)34-44-22-25-45(90)26-23-44)62(95)70(103)77-48(28-29-58(74)93)63(96)75-37-59(94)84-30-16-21-54(84)72(105)86-32-15-20-53(86)67(100)81-60/h10-13,17-18,22-23,25-26,39-41,46,48-57,60-62,87-88,90-92,95H,9,14-16,19-21,24,27-38H2,1-8H3,(H2,74,93)(H,75,96)(H,76,98)(H,77,103)(H,78,102)(H,79,99)(H,80,101)(H,81,100)(H,82,97)/b47-10+/t40-,41+,46?,48+,49+,50?,51-,52-,53-,54-,55-,56?,57?,60+,61-,62?/m0/s1
INCHIAUX=N/A
PUBMED=N/A
SUBMITUSER=mwang87
LIBRARYQUALITY=1
SPECTRUMID=CCMSLIB00000001690
SCANS=1
451.180237 16426.0 
460.111206 14895.0 
469.025696 43735.0 
475.567688 40839.0 
478.266296 15880.0 
543.943115 46832.0 
545.163452 128235.0 
554.922363 51748.0 
560.023682 44121.0 
563.361572 29732.0 
578.156982 24761.0 
579.247437 71647.0 
593.384399 27065.0 
597.072632 66523.0 
613.13623 68163.0 
634.055176 46828.0 
666.058594 54084.0 
676.512329 61009.0 
689.208618 208828.0 
692.959961 44232.0 
699.422241 21483.0 
706.16394 69709.0 
706.850098 20469.0 
714.169189 112917.0 
715.956787 31246.0 
745.379639 32568.0 
779.287476 28015.0 
789.606934 17738.0 
795.77356 7580.0 
797.272217 133013.0 
815.210205 84005.0 
816.230957 28516.0 
827.283691 20169.0 
833.266113 64284.0 
834.365234 35075.0 
841.365112 143292.0 
853.711548 2897.0 
857.153809 49608.0 
861.214966 65336.0 
867.010254 70839.0 
868.589722 25382.0 
887.907837 35001.0 
890.942383 141840.0 
904.100098 32786.0 
906.004883 134589.0 
908.546875 54353.0 
919.324707 37858.0 
954.132446 28006.0 
965.428467 44401.0 
968.437012 74005.0 
969.206421 128001.0 
984.805908 10974.0 
985.943237 232536.0 
989.502319 112692.0 
990.345215 26007.0 
997.321045 10718.0 
1003.460205 93432.0 
1010.264771 187102.0 
1024.42334 41074.0 
1025.090332 48738.0 
1034.460449 15815.0 
1035.643555 118796.0 
1042.341797 45840.0 
1043.227295 12881.0 
1044.598633 5294.0 
1063.17749 43568.0 
1070.317871 62592.0 
1071.494385 64923.0 
1073.882324 97615.0 
1080.533691 12772.0 
1081.394287 23128.0 
1082.382812 159016.0 
1086.36792 81817.0 
1087.402344 79260.0 
1091.167969 90789.0 
1092.258057 84100.0 
1095.128906 101436.0 
1096.493164 43000.0 
1097.426758 54018.0 
1098.364746 59645.0 
1103.388672 33171.0 
1108.380859 64235.0 
1113.826416 64689.0 
1116.584473 4917.0 
1122.20459 45512.0 
1134.804688 57851.0 
1138.639648 84754.0 
1139.481689 173663.0 
1140.509277 471089.0 
1143.32959 12704.0 
1157.455078 54708.0 
1173.026367 15282.0 
1174.313965 121230.0 
1175.473145 140395.0 
1177.345215 376705.0 
1185.852539 128928.0 
1196.446289 35180.0 
1203.063477 151147.0 
1205.298828 35021.0 
1211.820068 48658.0 
1213.292969 26514.0 
1214.343262 192077.0 
1222.180664 53471.0 
1223.518555 122121.0 
1224.185303 5.0 
1229.448486 45840.0 
1230.541748 84834.0 
1231.719727 92925.0 
1240.470703 560922.0 
1241.601074 316739.0 
1242.266113 24.0 
1244.385254 168672.0 
1247.499756 89909.0 
1248.262939 263771.0 
1248.882812 35507.0 
1265.630859 879185.0 
1266.387695 286318.0 
1275.239746 11158.0 
1283.058594 17092.0 
1284.248779 336799.0 
1291.298828 94782.0 
1300.416504 85452.0 
1317.619385 388309.0 
1318.294678 68209.0 
1321.408203 25752.0 
1323.305664 97676.0 
1331.610352 13958.0 
1332.396973 33091.0 
1333.124512 98745.0 
1339.314697 79127.0 
1341.757812 158463.0 
1353.061768 42959.0 
1354.485352 39096.0 
1356.254395 149894.0 
1422.791748 61274.0 
1431.336914 67750.0 
1440.784424 22525.0 
1449.243408 308407.0 
1449.931152 299.0 
1455.513428 9274.0 
1456.405029 135691.0 
1457.458008 84577.0 
1466.293213 289219.0 
1467.303955 291269.0 
1475.780762 143773.0 
1484.710449 2320607.0 
1485.60791 857989.0 
1486.331299 136457.0 
END IONS

