BEGIN IONS
PEPMASS=789.4
CHARGE=0+
MSLEVEL=2
SOURCE_INSTRUMENT=LC-ESI-qTof
FILENAME=20130415_Ger_Jenia_Bastimolide_B_MH789-qb.1.1..mgf
SEQ=*..*
IONMODE=Positive
ORGANISM=GNPS-LIBRARY
NAME=Bastimolide B M+H
PI=Gerwick
DATACOLLECTOR=Jenia
SMILES=C/C/1=C/C(=O)O[C@@H](C[C@H](C[C@@H](CCC[C@H](CCC[C@H](C[C@H](CCCCC1)O)O)O)O)O)CCC[C@H](CCC[C@H](CCC[C@H](CCC[C@@H](C(C)(C)C)O)O)O)O
INCHI=InChI=1S/C44H84O11/c1-32-14-6-5-7-15-37(49)29-38(50)24-10-20-34(46)21-11-25-39(51)30-40(52)31-41(55-43(54)28-32)26-12-22-35(47)18-8-16-33(45)17-9-19-36(48)23-13-27-42(53)44(2,3)4/h28,33-42,45-53H,5-27,29-31H2,1-4H3/b32-28-/t33-,34+,35+,36-,37+,38-,39-,40+,41-,42+/m1/s1
INCHIAUX=N/A
PUBMED=N/A
SUBMITUSER=mwang87
LIBRARYQUALITY=1
SPECTRUMID=CCMSLIB00000001762
SCANS=1
248.974426 31699.0 
265.095825 59440.0 
267.154541 62934.0 
269.125671 34521.0 
281.399902 36046.0 
283.765442 35620.0 
292.990051 106670.0 
305.21521 106806.0 
307.065674 17918.0 
311.264709 19775.0 
318.982544 284735.0 
319.660522 6.0 
323.053345 50349.0 
327.25415 21563.0 
335.062744 34892.0 
336.948242 180978.0 
337.636353 20.0 
343.067993 32958.0 
344.406006 61422.0 
349.4375 21379.0 
353.086609 11593.0 
355.245789 112566.0 
359.22168 108296.0 
361.084717 93779.0 
363.485413 101688.0 
365.500183 50684.0 
366.868408 10820.0 
369.088013 11332.0 
371.2854 61119.0 
377.344177 15231.0 
378.782349 110251.0 
379.518066 21.0 
381.256836 48181.0 
392.795532 13974.0 
395.359619 31996.0 
396.838928 84631.0 
398.921265 80505.0 
407.192871 55387.0 
411.138306 66211.0 
415.361328 82582.0 
435.502747 112658.0 
444.704041 61342.0 
445.442261 6.0 
451.489868 158205.0 
460.750671 54527.0 
463.151733 66773.0 
469.238464 45436.0 
479.075134 12249.0 
481.388977 31966.0 
487.201294 71055.0 
489.518921 26318.0 
497.311035 56126.0 
499.238037 219343.0 
499.853027 61.0 
505.4552 72346.0 
507.439209 28130.0 
513.380005 187104.0 
514.985474 181021.0 
517.233643 323537.0 
517.994019 88.0 
519.008057 24716.0 
533.166748 82074.0 
533.780029 1.0 
535.70813 14513.0 
539.291016 32688.0 
543.273682 21021.0 
547.307739 36795.0 
551.269287 150968.0 
551.897705 9.0 
557.314697 33584.0 
559.077271 66388.0 
569.069336 144457.0 
575.33313 59929.0 
591.335815 9536.0 
593.266846 66331.0 
599.214233 253480.0 
609.458618 117611.0 
617.034058 199860.0 
627.425049 1594401.0 
630.999512 23561.0 
635.394287 85343.0 
644.509521 49926.0 
645.328857 2587408.0 
646.228516 4.0 
663.295776 4811612.0 
664.047363 151.0 
681.272339 6154160.0 
681.943115 1933.0 
699.254639 5885200.0 
699.909546 5690.0 
716.579712 350545.0 
717.318481 5546889.0 
718.060913 85.0 
735.315063 5824665.0 
736.101929 12.0 
753.32251 3681775.0 
753.936157 242.0 
770.590576 66193.0 
771.271851 2706989.0 
772.229614 37.0 
END IONS

