BEGIN IONS
PEPMASS=450.8
CHARGE=0+
MSLEVEL=2
SOURCE_INSTRUMENT=LC-ESI-qTof
FILENAME=20130221_Jenia_Ger_HerbasterolMX450.8-qb.1.1..mgf
SEQ=*..*
IONMODE=Positive
ORGANISM=GNPS-LIBRARY
NAME=Herbasterol M+H
PI=Gerwick
DATACOLLECTOR=Jenia
SMILES=C[C@H](CCCC(C)C)[C@H]1CC[C@H]([C@]1(C)CCO)[C@@H]2C[C@H]([C@@H]3C[C@@H]([C@H](C[C@@]3(C2=O)CO)O)O)O
INCHI=InChI=1S/C27H48O6/c1-16(2)6-5-7-17(3)19-8-9-20(26(19,4)10-11-28)18-12-22(30)21-13-23(31)24(32)14-27(21,15-29)25(18)33/h16-24,28-32H,5-15H2,1-4H3/t17-,18+,19-,20+,21+,22-,23+,24+,26-,27-/m1/s1
INCHIAUX=N/A
PUBMED=N/A
SUBMITUSER=mwang87
LIBRARYQUALITY=1
SPECTRUMID=CCMSLIB00000001727
SCANS=1
134.415283 1610.0 
160.841248 4921.0 
174.778992 1328.0 
189.013855 3150.0 
193.029846 1163.0 
204.864136 2364.0 
224.054871 2027.0 
230.824951 3364.0 
246.868378 2184.0 
249.018494 5173.0 
263.51709 6617.0 
274.231812 2556.0 
285.12854 1916.0 
301.09729 1840.0 
319.459534 2730.0 
321.002563 1774.0 
322.918854 25116.0 
345.768555 5674.0 
367.19458 8349.0 
370.735413 5330.0 
378.18219 4833.0 
378.890991 20554.0 
379.490967 67.0 
387.184021 2978.0 
389.140686 10934.0 
397.059082 9166.0 
400.472168 7817.0 
403.182129 1632.0 
407.483124 10177.0 
414.207947 4404.0 
414.913116 20427.0 
420.094177 9107.0 
420.829102 2627.0 
422.881592 3987.0 
432.895691 94964.0 
435.888184 12144.0 
443.117126 12535.0 
445.138794 4761.0 
447.095398 7621.0 
451.540649 7264.0 
END IONS

