BEGIN IONS
PEPMASS=566.0
CHARGE=0+
MSLEVEL=2
SOURCE_INSTRUMENT=LC-ESI-qTof
FILENAME=20130131_Emily_Ger_Neodysidenin-MNa566-qb.1.1..mgf
SEQ=*..*
IONMODE=Positive
ORGANISM=GNPS-LIBRARY
NAME=Neodysidenin M+Na
PI=Gerwick
DATACOLLECTOR=Emily
SMILES=C[C@@H](C[C@@H](C(=O)N(C)[C@H](C)C1=NC=CS1)NC(=O)C[C@H](C)C(Cl)(Cl)Cl)C(Cl)(Cl)Cl
INCHI=InChI=1S/C17H23Cl6N3O2S/c1-9(16(18,19)20)7-12(25-13(27)8-10(2)17(21,22)23)15(28)26(4)11(3)14-24-5-6-29-14/h5-6,9-12H,7-8H2,1-4H3,(H,25,27)/t9-,10-,11+,12-/m0/s1
INCHIAUX=N/A
PUBMED=N/A
SUBMITUSER=mwang87
LIBRARYQUALITY=1
SPECTRUMID=CCMSLIB00000001722
SCANS=1
247.658691 4915089.0 
248.349976 8.0 
258.066162 2030800.0 
288.925964 1360214.0 
290.201294 935151.0 
307.890564 5577831.0 
322.997192 2087943.0 
325.811035 2510009.0 
328.25 1486454.0 
352.503296 900370.0 
371.857971 4384157.0 
372.519043 14.0 
389.844604 971050.0 
394.979492 1200076.0 
399.787476 12828816.0 
407.936096 3777605.0 
408.575378 38.0 
422.001709 1262365.0 
422.611267 499.0 
429.865784 2188810.0 
435.920471 39427936.0 
436.760193 1556348.0 
457.697266 24129392.0 
458.345459 15237.0 
471.643677 6240352.0 
472.313843 24.0 
493.841614 65631352.0 
494.858337 644160.0 
529.851318 983963520.0 
530.893066 21817840.0 
531.625488 78.0 
END IONS

