BEGIN IONS
PEPMASS=957.43
CHARGE=1+
MSLEVEL=2
SOURCE_INSTRUMENT=LC-ESI-Ion Trap
FILENAME=CyanopeptolinA_MSMS.mzXML
SEQ=*..*
IONMODE=Positive
ORGANISM=GNPS-LIBRARY
NAME=Cyanopeptolin A M+H
PI=Gerwick
DATACOLLECTOR=E Briand
SMILES=[H][C@]1(NC(=O)[C@H](CC(O)=O)NC(=O)CCCCC)[C@@H](C)OC(=O)[C@@H](NC(=O)[C@H](CC2=CC=CC=C2)N(C)C(=O)[C@H](CC(C)C)N2[C@H](O)CC[C@H](NC(=O)[C@H](CCCNC(N)=N)NC1=O)C2=O)C(C)C
INCHI=InChI=1S/C46H72N10O12/c1-8-9-11-18-34(57)50-31(24-36(59)60)40(62)54-38-27(6)68-45(67)37(26(4)5)53-41(63)32(23-28-15-12-10-13-16-28)55(7)44(66)33(22-25(2)3)56-35(58)20-19-30(43(56)65)52-39(61)29(51-42(38)64)17-14-21-49-46(47)48/h10,12-13,15-16,25-27,29-33,35,37-38,58H,8-9,11,14,17-24H2,1-7H3,(H,50,57)(H,51,64)(H,52,61)(H,53,63)(H,54,62)(H,59,60)(H4,47,48,49)/t27-,29+,30+,31+,32+,33+,35-,37+,38+/m1/s1
INCHIAUX=XKZZUWLVOGBTLH-LGUYJGFTSA-N
PUBMED=8244882
SUBMITUSER=ebriand
LIBRARYQUALITY=2
SPECTRUMID=CCMSLIB00000071754
SCANS=419
318.040649 6723.0 
322.171387 24347.0 
338.379761 21587.0 
339.133301 2.0 
356.970032 7746.0 
370.016174 84303.0 
371.266052 8206.0 
435.503052 6573.0 
453.182495 54097.0 
501.090698 23046.0 
518.211914 16401.0 
526.59375 16072.0 
534.187988 7621.0 
552.94751 35270.0 
570.380371 12003.0 
576.217529 5604.0 
588.250488 5023.0 
609.166382 11855.0 
627.253906 16310.0 
643.224609 4308.0 
661.314697 24365.0 
679.317993 4769.0 
691.304688 34303.0 
692.033203 2.0 
696.095703 4616.0 
708.432129 227051.0 
709.270874 26647.0 
714.150391 21038.0 
725.632324 30785.0 
726.375488 1693089.0 
727.405518 189091.0 
728.06665 2.0 
731.435791 24834.0 
736.619751 12676.0 
739.467041 7446.0 
744.341553 1260921.0 
745.432495 106364.0 
752.206055 10281.0 
754.365601 18016.0 
763.560913 3996.0 
778.257324 2454.0 
781.305542 2525.0 
805.091431 10111.0 
812.262207 11764.0 
816.490479 10808.0 
822.414551 104638.0 
823.287476 9654.0 
831.477783 49763.0 
840.367554 10059.0 
841.254639 5171.0 
842.279297 12184.0 
843.556274 10269.0 
844.205566 14909.0 
850.26355 21354.0 
854.582642 19529.0 
858.739136 14819.0 
878.639038 42626.0 
911.299805 42288.0 
912.370361 16403.0 
913.639404 15459.0 
921.32373 5153.0 
922.30957 21423.0 
929.238403 20649.0 
939.374756 7929338.0 
940.286011 102204.0 
941.133301 1.0 
END IONS

