BEGIN IONS
PEPMASS=772.65
CHARGE=1+
MSLEVEL=2
SOURCE_INSTRUMENT=LC-ESI-Ion Trap
FILENAME=f.yuhaobing/microcolins Fedback/2,3-Dihydromicrocolin A.mzXML;
SEQ=*..*
IONMODE=Positive
ORGANISM=GNPS-LIBRARY
NAME=2,3-dihydromicrocolin A M+Na
PI=Gerwick
DATACOLLECTOR=Haobing Yu
SMILES=CN(C([C@H](C)C[C@H](C)CCCC)=O)[C@@H](CC(C)C)C(N[C@@H]([C@@H](C)OC(C)=O)C(N(C)[C@@H](C(C)C)C(N1[C@H](C(N2C(CC[C@@H]2C)=O)=O)C[C@H](O)C1)=O)=O)=O
INCHI=
INCHIAUX=
PUBMED=31468974
SUBMITUSER=yuhaobing
LIBRARYQUALITY=3
SPECTRUMID=CCMSLIB00005463472
SCANS=755
292.057129 146687.0 
348.108093 950481.0 
348.917908 39.0 
387.315186 609086.0 
388.031738 44.0 
419.620483 140170.0 
431.317383 152764.0 
447.21106 874348.0 
447.953796 13.0 
450.502075 343389.0 
451.472168 122246.0 
460.19574 140750.0 
478.18219 515398.0 
491.355286 101284.0 
500.995361 220055.0 
613.481201 4667203.0 
614.468018 607802.0 
615.140625 18.0 
617.747803 162640.0 
630.281616 300179.0 
645.646362 335741.0 
656.539795 35037.0 
672.341553 736602.0 
673.458862 130435424.0 
674.462646 21723416.0 
675.342773 7.0 
712.537231 36742368.0 
713.464233 4975405.0 
716.540527 286606.0 
717.695068 93745.0 
754.25769 167451.0 
755.858398 289795.0 
772.446899 42527008.0 
773.449219 19827040.0 
774.408325 8.0 
END IONS

