BEGIN IONS
PEPMASS=400.25
CHARGE=1+
MSLEVEL=2
SOURCE_INSTRUMENT=LC-ESI-Ion Trap
FILENAME=f.aecker/Raphael/crypto/cryptomaldamide.mgf;
SEQ=*..*
IONMODE=Positive
ORGANISM=GNPS-LIBRARY
NAME=Cryptomaldamice M+H
PI=Gerwick
DATACOLLECTOR=Andrew Ecker
SMILES=NC(N[C@@H](CO)C(N[C@@H](C(C)C)C(N(C)[C@@H](C(C)C)/C=C(C)/C([O-])=O)=O)=O)=[NH2+]
INCHI=
INCHIAUX=
PUBMED=
SUBMITUSER=aecker
LIBRARYQUALITY=3
SPECTRUMID=CCMSLIB00005724004
SCANS=1
122.930984 99588.0 
123.554535 22.0 
129.425781 75013.0 
130.045868 2414756.0 
131.062439 2365518.0 
131.733337 1.0 
140.347595 26038.0 
141.080811 160351.0 
154.234985 258878.0 
154.866638 7.0 
172.025085 2554259.0 
172.773315 5.0 
183.001312 7769.0 
186.964294 50611.0 
194.05603 74960.0 
194.706665 10.0 
199.225372 26074.0 
200.764038 144761.0 
210.281281 66223.0 
211.182526 200049.0 
212.025269 171267.0 
222.033234 161358.0 
222.799988 1.0 
224.92865 91801.0 
228.946533 828444.0 
229.664337 29.0 
243.08371 134168.0 
243.899963 6.0 
259.912048 336093.0 
260.733276 2.0 
269.099609 127985.0 
270.980774 27548376.0 
271.992981 128860.0 
288.050781 22185.0 
299.229858 28548.0 
304.193481 81584.0 
311.023376 88405.0 
337.165527 27950.0 
338.483887 23879.0 
339.091797 27950.0 
352.241028 54097.0 
352.888794 3.0 
364.022095 90061.0 
370.752258 30306.0 
381.587219 91170.0 
382.222168 624836.0 
383.151428 370892.0 
383.88623 34.0 
END IONS

