BEGIN IONS
PEPMASS=484.0
CHARGE=2+
MSLEVEL=2
SOURCE_INSTRUMENT=LC-ESI-qTof
FILENAME=1H2_484MH_RH2_01_9785.mzXML
SEQ=*..*
IONMODE=Positive
ORGANISM=GNPS-LIBRARY
NAME=Malyngamide I M+H
PI=Dorrestein/Gerwick
DATACOLLECTOR=Peng/Luzzatto/Garg
SMILES=CCCCCCC[C@@H](C\C=C\CCC(=O)N(C)C\C(=C\Cl)[C@@]12O[C@@H]1C[C@H](O)[C@H](C)C2=O)OC
INCHI=InChI=1S/C26H42ClNO5/c1-5-6-7-8-10-13-21(32-4)14-11-9-12-15-24(30)28(3)18-20(17-27)26-23(33-26)16-22(29)19(2)25(26)31/h9,11,17,19,21-23,29H,5-8,10,12-16,18H2,1-4H3/b11-9+,20-17-/t19-,21-,22-,23+,26+/m0/s1
INCHIAUX=ORRFIXSGNXBETO-WQNYIDMUSA-N
PUBMED=ChemSpider ID:8871558
SUBMITUSER=y6peng
LIBRARYQUALITY=2
SPECTRUMID=CCMSLIB00000072493
SCANS=2492
95.086426 420.0 
95.583534 228.0 
96.087135 376.0 
96.544853 212.0 
96.669998 248.0 
97.063568 380.0 
97.726524 224.0 
97.744896 204.0 
98.057365 232.0 
98.855408 264.0 
99.079056 204.0 
99.872757 232.0 
100.829376 200.0 
101.90757 256.0 
102.085831 200.0 
102.996208 412.0 
103.052963 204.0 
103.329842 256.0 
103.977997 272.0 
104.854187 208.0 
104.919388 276.0 
105.070786 1756.0 
105.901871 212.0 
106.039085 236.0 
106.0681 200.0 
106.194839 236.0 
107.030899 240.0 
107.049309 496.0 
107.085823 540.0 
107.102951 208.0 
108.078827 240.0 
108.155571 228.0 
109.065842 608.0 
109.101013 688.0 
110.061058 216.0 
111.189026 240.0 
112.379562 228.0 
112.447067 236.0 
113.019508 228.0 
114.128372 236.0 
114.958771 200.0 
115.001434 204.0 
116.959526 236.0 
118.873764 236.0 
119.085197 640.0 
120.080666 228.0 
122.096619 200.0 
123.04364 828.0 
123.078003 396.0 
124.084602 240.0 
125.229576 240.0 
125.918457 216.0 
126.025642 388.0 
126.087219 200.0 
127.011017 200.0 
127.304138 240.0 
128.595856 228.0 
129.013474 412.0 
129.070068 220.0 
130.041519 204.0 
130.577484 220.0 
131.025726 240.0 
131.070679 204.0 
132.022781 204.0 
132.084808 244.0 
133.030502 228.0 
133.064667 1720.0 
133.088943 412.0 
133.554199 200.0 
134.058182 392.0 
135.043228 620.0 
135.081696 660.0 
135.11293 252.0 
136.051315 240.0 
136.079666 216.0 
136.110168 284.0 
136.617935 224.0 
137.060654 584.0 
137.090256 212.0 
137.516998 220.0 
137.636002 212.0 
138.092316 208.0 
140.107971 364.0 
140.170624 208.0 
141.050461 336.0 
142.043213 224.0 
142.075516 224.0 
143.024261 388.0 
143.141617 600.0 
144.035736 256.0 
144.055237 448.0 
144.081116 224.0 
145.045212 232.0 
145.062759 236.0 
146.036102 424.0 
146.096832 1916.0 
146.424149 212.0 
146.609573 204.0 
147.026321 200.0 
147.066238 220.0 
147.106232 524.0 
148.034271 200.0 
148.053635 232.0 
148.078659 360.0 
148.111862 660.0 
148.259476 232.0 
149.059647 1716.0 
150.061478 208.0 
150.092636 480.0 
151.029755 544.0 
151.074814 1240.0 
152.077423 344.0 
152.177841 224.0 
153.051102 568.0 
155.038284 204.0 
155.080154 200.0 
155.595901 220.0 
156.906464 208.0 
157.004913 792.0 
158.015121 204.0 
158.071579 384.0 
159.015884 976.0 
159.035172 272.0 
159.058487 352.0 
160.021881 240.0 
160.047913 212.0 
160.070984 244.0 
160.215729 252.0 
161.059631 1972.0 
161.094193 216.0 
161.131134 380.0 
161.159943 212.0 
162.01622 204.0 
163.069992 228.0 
163.103683 240.0 
163.147873 256.0 
164.10675 4792.0 
165.046936 232.0 
165.110474 696.0 
166.085388 568.0 
166.449112 204.0 
167.091537 232.0 
168.066528 204.0 
168.10054 284.0 
168.199768 220.0 
168.259109 212.0 
169.041794 2016.0 
169.08606 592.0 
170.044983 500.0 
171.021317 1392.0 
171.075211 228.0 
172.018036 328.0 
172.052307 344.0 
173.017441 608.0 
174.090897 2792.0 
175.097931 676.0 
176.084244 220.0 
179.023651 1204.0 
179.069641 5204.0 
179.123154 240.0 
180.074844 752.0 
180.105286 364.0 
181.024994 264.0 
181.082169 524.0 
182.071411 1324.0 
182.117569 352.0 
183.076035 464.0 
184.072037 532.0 
185.134399 252.0 
187.034058 244.0 
187.053253 336.0 
187.118454 228.0 
187.155426 228.0 
189.04953 220.0 
189.163208 820.0 
189.570267 208.0 
189.893631 196.0 
190.064194 324.0 
190.299591 224.0 
191.064346 288.0 
191.166428 220.0 
192.010468 200.0 
192.102188 4280.0 
193.105225 688.0 
194.117111 220.0 
195.120102 224.0 
196.006271 228.0 
197.035919 2152.0 
197.079315 456.0 
198.040512 324.0 
198.065353 488.0 
199.033585 552.0 
200.083878 700.0 
200.817795 204.0 
201.084656 344.0 
202.061478 732.0 
202.10141 736.0 
202.467621 204.0 
203.047119 624.0 
204.055984 200.0 
204.09494 532.0 
205.046524 220.0 
205.237076 208.0 
205.479416 240.0 
207.176407 316.0 
207.5923 312.0 
208.095963 316.0 
208.171722 216.0 
208.648483 208.0 
208.987717 208.0 
209.347382 316.0 
210.067551 1648.0 
210.112671 3856.0 
210.500366 260.0 
210.592468 408.0 
211.068161 340.0 
211.117386 620.0 
211.332489 204.0 
212.062698 552.0 
213.45192 240.0 
214.12941 200.0 
214.954361 276.0 
215.046249 5784.0 
215.076889 208.0 
215.703323 196.0 
216.050735 708.0 
216.500122 240.0 
217.04509 1136.0 
218.098709 684.0 
218.609955 228.0 
219.098511 216.0 
219.536682 240.0 
220.096802 344.0 
220.201248 296.0 
221.090759 232.0 
223.966507 252.0 
224.341797 220.0 
227.010666 232.0 
227.874771 236.0 
228.079239 3672.0 
228.367569 220.0 
229.079712 316.0 
230.07431 1160.0 
230.277618 308.0 
233.163696 228.0 
233.923782 216.0 
235.731628 224.0 
236.199768 196.0 
236.777435 208.0 
238.21666 1816.0 
239.128204 224.0 
239.219467 364.0 
239.31282 256.0 
242.022614 220.0 
242.703995 272.0 
245.189835 220.0 
245.242798 208.0 
246.022293 252.0 
246.089264 19784.0 
246.210571 356.0 
247.092255 2980.0 
248.085892 4456.0 
249.08873 392.0 
249.117294 220.0 
250.217102 528.0 
251.557617 268.0 
254.090897 236.0 
264.10791 260.0 
267.96936 208.0 
269.188751 208.0 
270.404388 296.0 
274.624542 228.0 
280.874329 244.0 
283.414032 208.0 
285.183197 408.0 
286.143494 264.0 
287.62616 248.0 
288.223694 204.0 
288.735901 196.0 
290.096832 264.0 
290.701324 208.0 
290.996521 208.0 
291.240906 196.0 
292.314789 280.0 
292.576752 228.0 
293.39743 196.0 
294.23291 232.0 
298.740967 212.0 
299.484192 200.0 
300.445526 212.0 
302.729218 224.0 
306.170624 248.0 
307.985596 196.0 
309.968414 220.0 
310.041962 236.0 
310.876251 208.0 
317.197449 208.0 
320.950134 224.0 
321.616974 208.0 
322.884796 232.0 
324.133636 208.0 
326.250336 196.0 
327.228485 208.0 
328.61908 280.0 
332.823151 204.0 
335.630981 220.0 
337.105072 256.0 
338.040833 248.0 
338.073761 208.0 
338.19812 300.0 
339.556854 208.0 
340.121643 204.0 
340.148743 272.0 
340.268433 228.0 
340.529022 200.0 
342.146301 1612.0 
342.237152 204.0 
342.742706 204.0 
343.151215 636.0 
344.140686 1048.0 
345.144958 208.0 
345.531006 228.0 
346.332062 224.0 
347.56604 196.0 
349.16275 256.0 
353.950134 260.0 
354.281738 204.0 
356.161713 200.0 
358.378906 236.0 
361.859772 260.0 
365.353668 196.0 
365.756866 216.0 
372.602997 224.0 
374.117584 276.0 
374.271515 212.0 
378.362396 196.0 
380.652893 248.0 
380.753815 204.0 
380.866394 224.0 
383.230682 220.0 
383.265717 236.0 
387.757812 200.0 
387.969391 196.0 
389.255768 272.0 
390.223297 292.0 
390.756622 224.0 
391.366425 244.0 
392.845581 212.0 
393.948578 196.0 
398.228668 204.0 
398.26947 460.0 
400.909027 212.0 
408.234802 440.0 
411.264252 204.0 
412.24118 244.0 
412.572479 196.0 
414.012299 224.0 
416.230438 324.0 
416.277222 2008.0 
416.704559 216.0 
417.281921 488.0 
417.318024 228.0 
420.665405 228.0 
422.151978 204.0 
422.225586 200.0 
423.948364 240.0 
424.253296 264.0 
424.90744 220.0 
425.395966 208.0 
425.432526 196.0 
426.220734 248.0 
426.262207 204.0 
426.611023 216.0 
428.68866 224.0 
430.280121 196.0 
430.358521 248.0 
433.300873 232.0 
433.368347 240.0 
434.072693 208.0 
434.105835 216.0 
434.24408 2324.0 
434.644867 196.0 
435.246399 756.0 
436.240417 556.0 
436.396942 216.0 
437.247253 272.0 
437.752838 240.0 
439.815674 196.0 
441.08078 244.0 
441.816467 208.0 
441.992126 220.0 
442.171967 204.0 
442.2724 256.0 
447.774628 216.0 
448.166077 196.0 
448.302979 456.0 
448.734833 196.0 
449.313751 368.0 
449.969025 244.0 
451.636475 200.0 
451.84491 284.0 
451.897369 260.0 
451.929291 284.0 
451.991333 224.0 
452.064941 208.0 
452.081421 352.0 
452.135803 420.0 
452.256989 109968.0 
452.573212 204.0 
452.625488 236.0 
452.669464 228.0 
452.752716 196.0 
452.906189 292.0 
452.949921 784.0 
453.125061 236.0 
453.258942 40584.0 
453.485168 200.0 
453.744476 216.0 
453.883514 260.0 
453.944763 272.0 
454.000977 196.0 
454.172028 196.0 
454.253601 38912.0 
454.605957 200.0 
454.881836 228.0 
455.256744 8136.0 
455.751862 240.0 
456.263885 980.0 
456.757477 236.0 
460.75531 248.0 
461.039612 196.0 
461.242432 196.0 
462.039734 204.0 
463.054688 216.0 
466.266144 728.0 
468.265594 196.0 
468.622955 256.0 
469.164642 200.0 
472.480255 232.0 
483.55954 216.0 
483.795715 200.0 
483.902496 340.0 
484.282288 66804.0 
484.501709 196.0 
484.885406 216.0 
485.001556 208.0 
485.026031 300.0 
485.28595 22276.0 
485.392517 284.0 
485.405151 224.0 
485.418976 308.0 
485.593872 260.0 
485.798706 388.0 
485.995392 240.0 
486.039795 308.0 
486.279938 21820.0 
487.281464 5016.0 
488.070526 236.0 
488.168396 264.0 
488.281769 832.0 
490.122009 200.0 
490.953003 236.0 
1249.743042 216.0 
1305.735107 224.0 
1319.263672 244.0 
1368.910034 248.0 
1378.769043 240.0 
1414.657837 304.0 
1439.202148 248.0 
1467.529663 220.0 
1477.438843 204.0 
1480.239014 216.0 
1503.190552 212.0 
1525.961182 224.0 
1563.909668 248.0 
1585.137207 212.0 
1622.167725 204.0 
1652.71814 196.0 
1664.807373 228.0 
1687.237793 208.0 
1699.30481 248.0 
1702.192749 208.0 
1727.294678 284.0 
1756.49707 232.0 
1781.944336 220.0 
1807.244873 212.0 
1809.943848 216.0 
1826.851685 260.0 
1844.350708 264.0 
1864.93042 208.0 
1901.831299 232.0 
1908.213501 232.0 
1919.711182 216.0 
1926.935425 200.0 
1938.480469 196.0 
1944.046509 196.0 
1957.948364 240.0 
1959.815063 288.0 
1997.65625 208.0 
2003.342285 252.0 
END IONS

