BEGIN IONS
PEPMASS=1043.4
CHARGE=1+
MSLEVEL=2
SOURCE_INSTRUMENT=LC-ESI-qTof
FILENAME=f.RReher/Culebra/pure_compounds/1041_Br_MolassamideB/2286_crude_3.12min_1043.3997_Br81_MS2_M+H_MolassamideB.mgf;
SEQ=*..*
IONMODE=Positive
ORGANISM=GNPS-LIBRARY
NAME=Molassamide B M+H
PI=Gerwick
DATACOLLECTOR=Reher
SMILES=CCCC(NC(C(NC(C(NC1C(C)OC(C(C(C)C)NC(C(CC2=CC=C(O)C(Br)=C2)N(C)C(C(CC3=CC=CC=C3)N4C(O)CCC(NC(/C(NC1=O)=C\C)=O)C4=O)=O)=O)=O)=O)C(O)C)=O)C)=O
INCHI=
INCHIAUX=
PUBMED=
SUBMITUSER=RReher
LIBRARYQUALITY=3
SPECTRUMID=CCMSLIB00005720231
SCANS=1
47.460632 65.0 
59.080624 72.0 
61.5205 66.0 
68.018227 393.0 
70.388084 70.0 
74.029533 3772.0 
75.032852 280.0 
84.015297 92.0 
90.566483 69.0 
91.02562 644.0 
95.031769 171.0 
100.049385 77.0 
103.02771 303.0 
109.053642 75.0 
110.067505 62.0 
111.029839 68.0 
111.065849 108.0 
113.047401 126.0 
114.066452 1027.0 
115.070045 78.0 
119.056709 90.0 
120.056107 19736.0 
121.058891 1720.0 
122.064232 161.0 
123.225731 74.0 
125.038971 65.0 
127.061928 142.0 
129.045685 76.0 
131.722961 66.0 
132.060776 109.0 
135.073792 108.0 
137.051727 78.0 
139.064178 544.0 
139.272018 62.0 
140.061981 111.0 
141.04277 76.0 
142.063889 6495.0 
142.574036 73.0 
143.067902 471.0 
144.05928 97.0 
146.075317 556.0 
148.054443 207.0 
149.056595 439.0 
150.070297 65.0 
150.729172 69.0 
151.064819 206.0 
153.044403 564.0 
155.061493 455.0 
155.09639 117.0 
157.076691 829.0 
157.247894 66.0 
157.952347 68.0 
158.036835 94.0 
158.075714 7331.0 
159.078125 1342.0 
163.401337 79.0 
167.061447 7380.0 
168.062851 822.0 
169.064682 74.0 
170.076035 2324.0 
171.080048 449.0 
173.071182 645.0 
173.108612 84.0 
174.077209 89.0 
175.077698 65.0 
176.097336 70.0 
177.047409 78.0 
178.078293 90.0 
179.062637 3405.0 
180.065063 454.0 
185.073196 1011.0 
186.073502 137.0 
186.937424 91.0 
187.104568 26220.0 
188.107895 3448.0 
189.110626 276.0 
193.043213 68.0 
193.080963 460.0 
194.076355 135.0 
194.114273 94.0 
195.058685 88.0 
196.089951 759.0 
197.110367 1598.0 
198.073975 503.0 
198.115311 163.0 
198.959625 68.0 
199.090317 779.0 
200.08284 84.0 
203.086517 135.0 
206.076965 165.0 
206.112213 99.0 
207.06012 297.0 
207.098877 120.0 
208.06221 103.0 
210.106842 109.0 
213.082047 252.0 
214.265701 62.0 
214.629288 73.0 
214.729218 68.0 
214.892929 77.0 
215.021194 118.0 
215.101837 81399.0 
215.240005 84.0 
215.430374 64.0 
215.485062 97.0 
215.855988 66.0 
216.104965 12117.0 
216.162964 77.0 
217.10849 639.0 
217.560852 66.0 
217.725296 83.0 
217.846222 64.0 
218.080261 151.0 
219.144333 68.0 
222.108261 642.0 
223.094666 471.0 
224.088135 2356.0 
224.567429 70.0 
225.108032 4485.0 
225.185745 62.0 
226.070358 1514.0 
226.111572 566.0 
226.507645 69.0 
227.073822 251.0 
227.099075 125.0 
227.986511 48412.0 
228.104401 97.0 
228.248718 66.0 
228.421234 70.0 
228.990524 4730.0 
229.117432 66.0 
229.482147 63.0 
229.984833 44192.0 
230.525742 81.0 
230.619797 80.0 
230.987915 3378.0 
231.989944 451.0 
232.095047 232.0 
233.083221 83.0 
233.116165 112.0 
234.073547 212.0 
235.098572 117.0 
238.105942 227.0 
239.109009 103.0 
240.106415 71.0 
240.384781 68.0 
241.082382 1157.0 
241.118988 86.0 
241.966782 63.0 
242.098236 896.0 
242.135208 259.0 
242.432037 87.0 
242.507446 85.0 
242.867035 76.0 
242.969772 83.0 
243.098969 170119.0 
243.176071 110.0 
243.211365 121.0 
243.442703 79.0 
243.767685 88.0 
244.102112 28249.0 
244.265549 68.0 
244.33844 65.0 
245.102753 2721.0 
245.556564 83.0 
245.62764 97.0 
245.747665 83.0 
245.842453 119.0 
245.932236 167.0 
246.108917 227.0 
249.248352 61.0 
250.104202 6410.0 
251.105728 1039.0 
252.111374 238.0 
253.119385 394.0 
254.092789 64.0 
254.134537 178.0 
255.150772 116.0 
255.9832 393.0 
257.988983 97.0 
259.095734 125.0 
260.095978 259.0 
261.110565 974.0 
262.113098 254.0 
263.141388 61.0 
264.118774 148.0 
266.135559 459.0 
267.144073 278.0 
267.421265 72.0 
268.017609 97.0 
268.116333 55898.0 
269.120605 8528.0 
270.123138 764.0 
270.147247 648.0 
270.868744 68.0 
271.097656 81.0 
271.148132 192.0 
274.143707 120.0 
275.994568 144.0 
276.123413 85.0 
278.100006 245.0 
280.151337 766.0 
281.115814 354.0 
282.133759 763.0 
283.127563 122.0 
283.178711 75.0 
283.980713 366.0 
284.143768 87.0 
284.984375 84.0 
285.979004 420.0 
286.128784 348.0 
286.173279 83.0 
287.130554 67.0 
290.138733 186.0 
294.138428 137.0 
295.138367 69.0 
296.11615 82.0 
297.13501 61.0 
298.144409 13258.0 
299.146637 2748.0 
300.145447 416.0 
302.163971 93.0 
304.113068 71.0 
304.142944 126.0 
308.150055 8712.0 
309.119049 145.0 
309.153748 1700.0 
310.152374 224.0 
313.143799 127.0 
314.023621 65.0 
314.137634 178.0 
314.177124 216.0 
316.158295 363.0 
317.173096 107.0 
321.147583 941.0 
322.150513 154.0 
323.152374 84.0 
324.123322 119.0 
326.025818 186.0 
326.06189 100.0 
326.141113 24046.0 
327.061584 582.0 
327.14444 4753.0 
328.030518 231.0 
328.14917 928.0 
329.059479 567.0 
329.149994 89.0 
329.342072 63.0 
330.054047 144.0 
330.162537 74.0 
332.034332 91.0 
334.995026 108.0 
336.127136 63.0 
336.15979 243.0 
337.169373 73.0 
338.14386 73.0 
338.171936 95.0 
339.024719 375.0 
339.160431 472.0 
340.02652 144.0 
340.15448 204.0 
341.024109 328.0 
342.0401 126.0 
342.136871 83.0 
342.173676 262.0 
343.162811 63.0 
344.037842 115.0 
344.165619 891.0 
345.040405 87.0 
345.154205 235.0 
346.171631 128.0 
347.16394 899.0 
348.168304 260.0 
353.022644 187.0 
353.151001 75.0 
354.140717 137.0 
355.056335 983.0 
356.064362 278.0 
357.054108 1114.0 
358.037933 77.0 
359.058899 82.0 
360.182678 126.0 
362.182739 132.0 
363.166412 213.0 
364.157318 525.0 
364.225403 69.0 
365.173798 2212.0 
365.302429 64.0 
366.135925 94.0 
366.179169 781.0 
367.186737 153.0 
368.191925 112.0 
368.446014 62.0 
373.068024 15471.0 
373.17804 736.0 
374.070923 2869.0 
374.154999 111.0 
374.181549 138.0 
375.066193 16254.0 
375.198975 87.0 
376.070953 2325.0 
377.071472 448.0 
381.195038 169.0 
382.169037 405.0 
383.18396 695.0 
384.161133 64.0 
385.191132 91.0 
386.032684 6073.0 
386.107178 65.0 
386.2005 79.0 
387.035065 1195.0 
388.031219 5652.0 
389.035095 1125.0 
389.724152 76.0 
390.033752 182.0 
390.102295 63.0 
391.085876 69.0 
391.19101 27332.0 
392.19339 6341.0 
393.195465 699.0 
394.198303 80.0 
395.120361 61.0 
395.195435 79.0 
395.573608 64.0 
396.21933 186.0 
398.201965 147.0 
399.208405 194.0 
401.081665 209.0 
402.088623 90.0 
403.068085 440.0 
404.084473 116.0 
405.05365 670.0 
406.056458 188.0 
406.627808 78.0 
407.177429 81.0 
408.067657 75.0 
408.223175 228.0 
408.315247 71.0 
408.521423 65.0 
408.647003 62.0 
408.836609 92.0 
409.202209 89057.0 
409.352448 94.0 
409.848358 64.0 
409.911896 114.0 
410.020264 106.0 
410.102234 814.0 
410.20517 19728.0 
410.598724 88.0 
411.100769 237.0 
411.208557 2622.0 
412.099762 812.0 
412.211578 400.0 
413.082397 248.0 
414.104828 72.0 
415.075256 93.0 
416.152588 73.0 
418.051086 75.0 
419.175812 67.0 
420.185669 100.0 
424.072876 62.0 
425.081329 247.0 
425.230652 533.0 
426.08374 247.0 
426.230621 120.0 
427.077545 385.0 
427.21225 2566.0 
428.113159 1722.0 
428.217316 626.0 
429.078156 831.0 
429.117432 400.0 
429.214874 171.0 
430.110962 2217.0 
430.21875 122.0 
431.074829 757.0 
431.115997 229.0 
432.077209 219.0 
436.225494 91.0 
437.180176 253.0 
438.100983 62.0 
438.187042 101.0 
440.07959 79.0 
441.076385 479.0 
442.076935 66.0 
443.073914 393.0 
443.247894 301.0 
444.083527 80.0 
444.254211 88.0 
445.207214 113.0 
446.200714 84.0 
447.186707 114.0 
449.186035 71.0 
449.234802 98.0 
453.079407 527.0 
453.245544 84.0 
454.078156 76.0 
454.105133 135.0 
454.153717 110.0 
454.249176 63.0 
455.077057 520.0 
455.182648 99.0 
456.105988 239.0 
457.182983 62.0 
460.248352 127.0 
461.088287 78.0 
463.265717 76.0 
464.225647 283.0 
465.095764 65.0 
465.206146 108.0 
466.209198 518.0 
467.204254 287.0 
468.075867 61.0 
470.104401 659.0 
471.107544 86.0 
472.100067 501.0 
474.225037 82.0 
475.195679 287.0 
477.244324 118.0 
478.122131 69.0 
481.072632 112.0 
481.248108 162.0 
482.122528 88.0 
482.23938 114.0 
483.071289 107.0 
484.10379 224.0 
485.235504 500.0 
486.1008 292.0 
486.210815 111.0 
486.244568 195.0 
490.256317 156.0 
492.221191 2100.0 
493.221466 678.0 
494.123444 84.0 
494.22525 108.0 
495.201569 137.0 
495.777435 105.0 
496.084412 107.0 
496.175415 92.0 
496.243927 67.0 
496.335571 77.0 
496.381866 68.0 
496.53717 75.0 
496.926727 65.0 
497.009399 76.0 
497.079865 92.0 
497.149353 73.0 
497.19635 85.0 
497.281036 84.0 
497.814606 100.0 
497.920441 110.0 
497.952332 162.0 
498.098969 184976.0 
498.20993 162.0 
498.261719 185.0 
498.333344 79.0 
498.414703 62.0 
498.523285 148.0 
498.58725 89.0 
498.633728 151.0 
498.71402 96.0 
498.753662 206.0 
498.855225 115.0 
498.925598 139.0 
499.10199 52061.0 
499.210693 118.0 
499.279175 128.0 
499.343323 101.0 
499.413422 62.0 
499.453583 128.0 
499.51532 116.0 
499.596954 96.0 
499.695068 73.0 
499.767517 136.0 
499.816772 97.0 
499.851959 165.0 
499.907227 74.0 
499.937439 96.0 
500.097382 178858.0 
500.25766 168.0 
500.349579 64.0 
500.406555 77.0 
500.477295 166.0 
500.540039 64.0 
500.616699 175.0 
500.674408 150.0 
500.719757 103.0 
500.773956 85.0 
500.882477 128.0 
500.959015 158.0 
501.100861 48563.0 
501.261139 136.0 
501.301483 120.0 
501.449524 89.0 
501.564758 95.0 
501.633942 99.0 
501.694 86.0 
501.733307 81.0 
501.795929 100.0 
501.883636 64.0 
501.917389 84.0 
501.992859 216.0 
502.103699 8038.0 
502.214569 144.0 
502.315125 93.0 
502.684601 91.0 
503.055389 101.0 
503.103912 905.0 
503.159973 61.0 
503.211365 99.0 
503.257904 363.0 
503.522705 85.0 
503.645569 99.0 
503.795837 76.0 
503.950836 75.0 
504.07666 88.0 
504.177643 156.0 
504.259003 296.0 
505.113434 62.0 
505.269196 87.0 
506.223572 66.0 
508.091248 70.0 
508.269501 554.0 
509.264954 130.0 
510.234039 1063.0 
511.153046 187.0 
511.237732 354.0 
512.149048 73.0 
512.229126 100.0 
513.149292 177.0 
513.283264 65.0 
514.161255 130.0 
515.152588 91.0 
516.116394 224.0 
518.114929 239.0 
518.196899 101.0 
518.239929 103.0 
518.705627 121.0 
519.197021 95.0 
519.694214 66.0 
520.136047 249.0 
520.21637 193.0 
521.136963 870.0 
521.262878 145.0 
521.757568 73.0 
522.141907 289.0 
522.208496 87.0 
522.27887 88.0 
523.135315 746.0 
523.180054 395.0 
523.678284 185.0 
524.135742 208.0 
524.181702 340.0 
524.239685 97.0 
524.681824 230.0 
525.112122 158.0 
525.19574 70.0 
525.683289 78.0 
526.149841 100.0 
526.198242 74.0 
526.284241 3835.0 
527.235046 93.0 
527.286743 1116.0 
528.251038 226.0 
529.167725 140.0 
529.249146 79.0 
530.145874 67.0 
532.16272 254.0 
538.251831 68.0 
539.089722 78.0 
539.14856 1288.0 
539.27771 221.0 
540.168335 893.0 
540.287415 64.0 
540.671936 611.0 
541.158875 1276.0 
541.674805 358.0 
541.733215 63.0 
542.155884 332.0 
542.283264 109.0 
542.667297 67.0 
543.139343 83.0 
543.323242 165.0 
546.178711 79.0 
548.152039 81.0 
549.17511 233.0 
549.690186 90.0 
551.183411 71.0 
553.143066 155.0 
554.258728 81.0 
555.140076 101.0 
556.154785 117.0 
557.155151 203.0 
558.135437 98.0 
558.170898 109.0 
559.156799 301.0 
560.165466 80.0 
561.177063 75.0 
563.263794 135.0 
564.262817 78.0 
567.139343 84.0 
568.141846 152.0 
568.280212 127.0 
569.158325 113.0 
570.138489 159.0 
571.156006 90.0 
579.290283 174.0 
581.053101 202.0 
581.138672 19337.0 
582.046448 70.0 
582.142334 6207.0 
583.006653 90.0 
583.138306 18478.0 
584.140076 5906.0 
585.144531 975.0 
586.135071 93.0 
587.290466 88.0 
589.165771 76.0 
589.28186 209.0 
590.26709 75.0 
590.3349 101.0 
591.302307 77.0 
596.320801 86.0 
597.169312 1618.0 
597.275146 68.0 
598.168335 582.0 
598.253296 66.0 
599.169678 1588.0 
599.269775 66.0 
600.170898 691.0 
601.155762 203.0 
602.150818 103.0 
605.307495 445.0 
606.307007 214.0 
607.288208 671.0 
608.156921 82.0 
608.293701 309.0 
609.197266 123.0 
609.303101 232.0 
615.180847 5895.0 
615.291199 220.0 
616.184692 2020.0 
616.293701 67.0 
617.179077 6046.0 
618.086975 64.0 
618.181641 1655.0 
619.184814 322.0 
620.181152 67.0 
620.349915 92.0 
621.153503 65.0 
622.189697 102.0 
623.166992 81.0 
623.321838 144.0 
624.186646 164.0 
625.293945 186.0 
626.323242 73.0 
627.315491 506.0 
628.316833 189.0 
629.315674 92.0 
633.303833 2837.0 
634.174622 183.0 
634.306763 1243.0 
635.288269 123.0 
635.317566 119.0 
636.177185 76.0 
637.160217 187.0 
637.301697 72.0 
638.167419 139.0 
638.349426 739.0 
639.16095 201.0 
639.357056 267.0 
640.198914 1007.0 
640.362671 84.0 
641.198669 318.0 
641.333862 189.0 
642.198303 832.0 
643.189758 192.0 
648.140991 96.0 
649.151733 157.0 
651.204346 117.0 
651.315857 3154.0 
652.241821 148.0 
652.318848 1158.0 
653.16803 63.0 
653.314514 238.0 
654.196472 109.0 
654.233215 139.0 
654.320068 109.0 
655.216064 134.0 
656.209473 300.0 
657.234009 102.0 
664.185913 185.0 
665.179504 73.0 
666.18042 175.0 
668.196411 63.0 
669.324707 1963.0 
670.260315 110.0 
670.329773 558.0 
671.329346 123.0 
672.233643 121.0 
680.229187 935.0 
681.234253 377.0 
682.215271 1116.0 
683.229614 510.0 
683.335327 64.0 
684.202026 367.0 
685.210632 129.0 
686.216614 72.0 
692.198669 65.0 
696.204834 95.0 
698.234741 1429.0 
699.243347 815.0 
700.23468 1848.0 
701.232727 785.0 
702.235046 206.0 
704.225403 66.0 
708.242798 108.0 
709.259766 72.0 
710.244812 104.0 
711.234802 85.0 
712.254395 61.0 
712.415588 61.0 
713.234375 150.0 
719.219116 74.0 
720.249084 105.0 
721.201111 99.0 
723.200378 97.0 
723.23877 73.0 
731.187866 87.0 
733.388855 73.0 
734.38446 68.0 
735.246521 186.0 
736.239441 417.0 
737.247131 326.0 
738.233215 594.0 
739.243469 317.0 
740.395996 147.0 
741.409302 125.0 
747.212708 388.0 
748.224976 207.0 
749.208313 480.0 
750.214355 254.0 
750.39679 101.0 
751.2146 87.0 
751.389832 161.0 
753.25647 117.0 
754.274963 69.0 
755.257385 194.0 
756.260803 92.0 
763.256226 2004.0 
764.26178 619.0 
765.252563 2564.0 
766.248474 1121.0 
767.243958 257.0 
768.234741 144.0 
768.387512 856.0 
769.38855 210.0 
770.3974 62.0 
772.402283 73.0 
778.384949 64.0 
779.390076 92.0 
780.289673 155.0 
781.276001 9662.0 
782.277527 4515.0 
782.453125 67.0 
783.130493 74.0 
783.272217 9728.0 
784.013184 67.0 
784.107971 68.0 
784.272827 3895.0 
785.271912 852.0 
786.247864 190.0 
798.318115 213.0 
799.272278 221.0 
800.300293 291.0 
801.273315 283.0 
802.292664 132.0 
803.312683 62.0 
809.260071 491.0 
810.274292 163.0 
811.263672 399.0 
812.248901 219.0 
816.377869 61.0 
820.327698 69.0 
821.263977 119.0 
822.279602 86.0 
823.260864 104.0 
837.290833 91.0 
838.288574 253.0 
839.267944 74.0 
840.268005 144.0 
841.290161 80.0 
845.311951 69.0 
846.269958 99.0 
847.282715 228.0 
848.285217 179.0 
849.274536 112.0 
850.305664 61.0 
854.303894 220.0 
855.331055 109.0 
856.32251 286.0 
857.316101 61.0 
862.298035 81.0 
863.289001 65.0 
864.295715 773.0 
865.297363 545.0 
866.297791 1058.0 
867.293945 438.0 
868.307129 160.0 
870.292114 141.0 
872.283325 100.0 
880.310852 148.0 
882.188721 130.0 
882.307434 12060.0 
883.310181 6685.0 
884.158264 91.0 
884.305908 14374.0 
884.435425 95.0 
885.31073 6141.0 
886.310974 1288.0 
886.760498 70.0 
887.315186 394.0 
888.295105 492.0 
889.302673 262.0 
890.299438 518.0 
891.302002 352.0 
892.30365 150.0 
893.300903 76.0 
895.290833 77.0 
896.330627 63.0 
897.340881 101.0 
906.309082 702.0 
907.313843 378.0 
908.30719 834.0 
909.308594 438.0 
910.312317 160.0 
911.325562 119.0 
912.29248 130.0 
913.314209 70.0 
914.346741 72.0 
923.328918 67.0 
924.319763 1910.0 
925.322144 949.0 
926.321167 2562.0 
927.321411 1270.0 
928.332458 339.0 
930.346436 81.0 
937.333252 145.0 
938.315857 61.0 
951.427002 66.0 
953.33844 363.0 
954.352478 232.0 
955.35199 338.0 
956.351318 203.0 
957.340881 83.0 
961.385437 110.0 
963.347168 169.0 
964.374329 75.0 
965.351868 70.0 
967.39563 100.0 
979.364258 570.0 
980.391479 260.0 
981.358887 268.0 
982.394226 154.0 
983.383423 90.0 
983.774719 62.0 
987.36145 115.0 
988.368713 208.0 
989.367493 335.0 
990.376343 284.0 
995.398987 924.0 
996.401794 632.0 
997.39679 1232.0 
998.395081 607.0 
999.387756 142.0 
1000.407043 82.0 
1005.377563 3707.0 
1006.381287 1808.0 
1007.244263 62.0 
1007.375793 3688.0 
1008.378235 2030.0 
1009.38208 453.0 
1010.39209 148.0 
1021.707642 77.0 
1021.897644 72.0 
1022.000305 71.0 
1022.246216 61.0 
1022.408997 71.0 
1022.954895 119.0 
1023.012634 66.0 
1023.16156 108.0 
1023.389099 44089.0 
1023.655579 115.0 
1023.973206 90.0 
1024.158447 118.0 
1024.201904 111.0 
1024.392822 25062.0 
1024.599243 77.0 
1024.676147 69.0 
1024.725464 62.0 
1024.837769 102.0 
1025.083008 131.0 
1025.182007 95.0 
1025.387695 52831.0 
1025.591187 87.0 
1025.664551 95.0 
1025.880371 77.0 
1026.053589 108.0 
1026.134399 77.0 
1026.226807 123.0 
1026.390625 27276.0 
1026.541992 107.0 
1026.625488 72.0 
1027.050415 64.0 
1027.391357 7910.0 
1027.646851 62.0 
1028.014526 62.0 
1028.397949 1413.0 
1028.803345 62.0 
1029.031372 74.0 
1029.39563 157.0 
1029.803223 80.0 
1030.158691 91.0 
1030.913208 61.0 
1031.114868 62.0 
1031.442871 88.0 
1031.723022 78.0 
1032.28479 64.0 
1037.30249 134.0 
1041.519287 98.0 
1042.499756 159.0 
1043.364624 104.0 
1043.538818 189.0 
END IONS

