BEGIN IONS
PEPMASS=1792.73
CHARGE=0+
MSLEVEL=2
SOURCE_INSTRUMENT=LC-ESI-Ion Trap
FILENAME=f.RReher/2264/Reference_spectra/Samholides/Samholide F/SamholideF_M+Na_+1_iontrap_yiwen.mgf;
SEQ=*..*
IONMODE=Positive
ORGANISM=GNPS-LIBRARY
NAME=Samholide F M+Na
PI=Gerwick
DATACOLLECTOR=Ywen Tao
SMILES=C[C@H]1C[C@H](C[C@@H](O1)CC[C@H](C)[C@@H]([C@H](C)[C@@H]2C[C@@H](C[C@@H]([C@@H]([C@H](C[C@@H]3CC=C[C@H](O3)C[C@H](C/C=C(/C=C\C(=O)O[C@@H](C[C@@H](C[C@@H]([C@@H]([C@H](C[C@@H]4CC=C[C@H](O4)C[C@H](C/C=C(/C=C/C(=O)O2)\C)O[C@@H]5[C@H]([C@@H]([C@H](CO5)OC)OC)O)OC)C)O)O)[C@@H](C)[C@H]([C@@H](C)CC[C@H]6C[C@@H](C[C@@H](O6)C)OC)O)\C)O[C@@H]7[C@H]([C@@H]([C@H](CO7)OC)OC)OC(=O)[C@@H](CO)O)OC)C)O)O)O)OC
INCHI=
INCHIAUX=
PUBMED=
SUBMITUSER=RReher
LIBRARYQUALITY=3
SPECTRUMID=CCMSLIB00005467789
SCANS=1
531.014404 131676.0 
594.13916 77802.0 
617.039917 17605.0 
631.438965 254651.0 
637.341309 36064.0 
641.309448 114169.0 
650.094238 20193.0 
651.362061 113820.0 
685.124023 30664.0 
686.098145 23781.0 
703.234863 311135.0 
704.11499 236585.0 
704.799927 2.0 
737.485596 56718.0 
793.524658 58087.0 
815.337646 11856.0 
827.04248 65283.0 
845.332397 74957.0 
846.257446 127393.0 
847.244385 17593.0 
862.536865 182065.0 
863.380127 1239918.0 
864.480713 1324336.0 
889.182373 590555.0 
889.866699 5.0 
909.505371 32230.0 
925.51416 13972.0 
933.335327 101382.0 
935.524414 124906.0 
951.307861 2002156.0 
952.414673 864182.0 
953.57605 87592.0 
1008.398682 34894.0 
1009.351807 78792.0 
1021.332153 177026.0 
1051.578125 41017.0 
1067.557617 50245.0 
1069.598877 26525.0 
1082.585205 21162.0 
1108.312988 34081.0 
1145.755859 63732.0 
1162.707764 40773.0 
1173.571777 202481.0 
1175.183594 169520.0 
1195.214355 35494.0 
1227.310791 59598.0 
1250.296387 24593.0 
1274.310059 161541.0 
1305.001221 65726.0 
1314.226318 168987.0 
1315.966309 53401.0 
1317.300537 75825.0 
1321.748779 863474.0 
1322.446777 1724112.0 
1323.327637 320689.0 
1324.0 1.0 
1333.421387 2627297.0 
1334.435547 1129297.0 
1335.298584 1124143.0 
1335.933105 7.0 
1337.509277 65705.0 
1338.523926 154472.0 
1347.522705 587068.0 
1348.199951 1.0 
1350.889648 101310.0 
1362.27124 80338.0 
1363.003418 84428.0 
1366.489746 167534.0 
1383.588867 35901.0 
1409.56543 1365022.0 
1410.560059 644424.0 
1411.430664 530048.0 
1412.161621 7.0 
1417.10376 67114.0 
1462.716797 28860.0 
1472.727051 657061.0 
1476.297363 20466.0 
1477.666016 146023.0 
1478.620117 332779.0 
1481.537598 27901.0 
1482.705566 123525.0 
1483.343994 43997.0 
1507.705566 114764.0 
1521.664795 236848.0 
1522.706543 53819.0 
1523.682373 159822.0 
1525.10376 67139.0 
1525.707764 677567.0 
1526.64502 342002.0 
1527.690918 185711.0 
1528.763428 31785.0 
1543.79248 438262.0 
1544.736328 587869.0 
1545.911133 297862.0 
1546.577637 3.0 
1560.506836 286984.0 
1561.159912 10.0 
1570.944824 212271.0 
1577.250488 487143.0 
1578.232178 946472.0 
1578.97168 366857.0 
1579.635498 13.0 
1613.502197 233488.0 
1614.574707 479647.0 
1615.839355 227321.0 
1616.576904 32683.0 
1617.756348 191855.0 
1621.816162 103741.0 
1631.626221 1863270.0 
1632.682373 1173852.0 
1633.558838 1123142.0 
1685.518311 1091486.0 
1686.611816 1298201.0 
1687.667725 499770.0 
1720.324219 75567.0 
1740.974854 191581.0 
1747.562256 105919.0 
1748.490967 203701.0 
1773.640625 1002006.0 
1774.588623 373769.0 
1790.916504 78898.0 
1791.578613 10576460.0 
1792.734131 901065.0 
END IONS

