BEGIN IONS
PEPMASS=1689.91
CHARGE=1+
MSLEVEL=2
SOURCE_INSTRUMENT=LC-ESI-Ion Trap
FILENAME=f.RReher/2226/2226H.mzXML;
SEQ=*..*
IONMODE=Positive
ORGANISM=GNPS-LIBRARY
NAME=samholide H M+Na
PI=Gerwick
DATACOLLECTOR=Daojing Zhang
SMILES=C[C@H]1C[C@H](C[C@@H](O1)CC[C@H](C)[C@@H]([C@H](C)[C@@H]2C[C@@H](C[C@@H]([C@@H]([C@H](C[C@@H]3CC=C[C@H](O3)C[C@H](C/C=C(/C=C/C(=O)O[C@@H](C[C@@H](C[C@@H]([C@@H]([C@H](C[C@@H]4CC=C[C@H](O4)C[C@H](C/C=C(/C=C/C(=O)O2)\C)O[C@@H]5[C@H]([C@@H]([C@H](CO5)O)OC)O)OC)C)O)O)[C@@H](C)[C@H]([C@@H](C)CC[C@H]6C[C@@H](C[C@@H](O6)C)OC)O)\C)O[C@@H]7[C@H]([C@@H]([C@H](CO7)OC)OC)O)OC)C)O)O)O)OC
INCHI=
INCHIAUX=
PUBMED=29457979
SUBMITUSER=RReher
LIBRARYQUALITY=3
SPECTRUMID=CCMSLIB00005436029
SCANS=774
481.48877 142800.0 
549.414307 117553.0 
561.454102 55486.0 
581.816406 42981.0 
593.282959 66246.0 
594.455688 195921.0 
641.591309 523827.0 
649.557617 239801.0 
650.4104 37611.0 
668.362305 148536.0 
685.486694 261692.0 
686.341309 45356.0 
687.442871 45786.0 
689.35083 93956.0 
703.459839 2705077.0 
704.507446 496790.0 
705.657227 41534.0 
813.314819 125361.0 
816.789795 35984.0 
827.384277 99472.0 
831.31543 276122.0 
832.51355 189911.0 
845.099121 187038.0 
845.927979 136006.0 
846.540894 35943.0 
847.326416 70233.0 
849.513916 7147927.0 
850.512451 2261181.0 
851.563721 666185.0 
863.468506 9724800.0 
864.540649 3489871.0 
865.411499 401115.0 
881.497559 104959.0 
901.495117 39078.0 
908.547729 82286.0 
925.61792 95943.0 
961.603882 104170.0 
991.621582 64225.0 
993.161743 243828.0 
993.813232 5.0 
1003.420898 54948.0 
1004.428101 101102.0 
1009.39209 317980.0 
1010.447998 87853.0 
1011.133301 3.0 
1053.391602 134667.0 
1055.838135 161760.0 
1071.508301 1126784.0 
1072.562988 1076648.0 
1086.597412 55827.0 
1093.39502 272003.0 
1094.397461 234352.0 
1095.748047 52562.0 
1107.67334 121792.0 
1108.358398 8.0 
1113.521973 83788.0 
1143.669678 100750.0 
1144.453125 73748.0 
1148.531738 63766.0 
1163.550781 31882.0 
1198.87207 46311.0 
1213.318848 45334.0 
1215.090332 106768.0 
1215.700439 116819.0 
1216.696533 335575.0 
1217.752197 57066.0 
1230.47583 39595.0 
1231.657959 9393578.0 
1232.651855 5600266.0 
1233.631836 1781698.0 
1234.304199 48.0 
1241.613281 60427.0 
1253.687012 141322.0 
1254.749756 143229.0 
1255.750244 56748.0 
1259.500488 453345.0 
1260.770508 89757.0 
1271.713135 134405.0 
1273.747559 42324.0 
1276.821777 207832.0 
1277.623535 14.0 
1279.538574 375403.0 
1280.783203 71323.0 
1287.647949 52790.0 
1289.646484 257979.0 
1291.016846 368078.0 
1291.699463 65442.0 
1297.992188 163993.0 
1303.755859 65439.0 
1304.654785 126137.0 
1307.748047 10724342.0 
1308.700684 8612104.0 
1309.668457 2373772.0 
1310.35791 114.0 
1315.731445 379484.0 
1316.724121 358165.0 
1317.59082 128338.0 
1321.764648 2153044.0 
1322.782227 1971846.0 
1323.767334 326454.0 
1324.560303 32.0 
1329.441895 347558.0 
1330.215332 69.0 
1347.535645 55552.0 
1350.144775 71584.0 
1351.003174 33375.0 
1365.807129 458082.0 
1366.468018 44.0 
1367.57959 107695.0 
1375.687012 783374.0 
1376.719238 889196.0 
1377.561523 134977.0 
1383.970215 307460.0 
1384.812012 175469.0 
1386.049805 268538.0 
1386.688721 9.0 
1401.630371 69179.0 
1407.459961 35507.0 
1419.582031 2053822.0 
1420.674805 1600335.0 
1421.666016 505247.0 
1439.324707 121562.0 
1441.582275 47958.0 
1443.869141 425335.0 
1445.669922 76923.0 
1450.810547 196199.0 
1457.591064 259068.0 
1458.416992 255434.0 
1459.658691 180259.0 
1461.575195 88726.0 
1463.961426 177779.0 
1467.963379 660132.0 
1468.886719 1706524.0 
1469.781738 613225.0 
1470.390137 68.0 
1475.644043 3206899.0 
1476.702637 2995657.0 
1477.820801 821229.0 
1478.466553 6.0 
1481.665039 217176.0 
1493.744141 78763.0 
1494.879395 123859.0 
1495.764404 65021.0 
1496.976807 57399.0 
1508.560547 241283.0 
1511.821045 795613.0 
1512.862305 1607854.0 
1513.882324 658598.0 
1514.822021 305173.0 
1515.79248 365835.0 
1516.599854 2.0 
1525.751709 884042.0 
1526.762695 1404138.0 
1527.928711 876851.0 
1529.042725 81596.0 
1529.823486 10748796.0 
1530.730957 7862694.0 
1531.739502 3923736.0 
1532.460449 128.0 
1543.570801 982606.0 
1544.783447 775975.0 
1545.859863 439564.0 
1607.897461 90561.0 
1635.944336 42631.0 
1646.834473 209863.0 
1647.990479 65477.0 
1654.49292 115006.0 
1655.786377 35712.0 
1657.860107 35597.0 
1659.158936 176516.0 
1671.650146 1270239.0 
1672.642334 1419558.0 
1673.739258 890309.0 
1674.42041 42.0 
1687.835938 107404.0 
1688.699951 4.0 
1689.86084 361603.0 
1690.563477 33.0 
END IONS

