BEGIN IONS
PEPMASS=1122.61
CHARGE=1+
MSLEVEL=2
SOURCE_INSTRUMENT=LC-ESI-Orbitrap
FILENAME=f.RReher/Culebra/pure_compounds/1122_non_AHP/SPE1-1-19_1122.6178_MS2_M+H_QE.mgf;
SEQ=*..*
IONMODE=Positive
ORGANISM=GNPS-LIBRARY
NAME=Rivulariapeptolide 1121 M+H
PI=Gerwick
DATACOLLECTOR=Raphael Reher
SMILES=CC(C)[C@H](NC([C@H](CC1=CC=C(O)C=C1)N(C)C([C@H](CC(C)C)N2[C@H](O)CC[C@H](NC(/C(NC3=O)=C\C)=O)C2=O)=O)=O)C(O[C@H](C)[C@@H]3NC([C@H]([C@@H](OC(C4N(C(CCC)=O)CCC4)=O)C)NC(C5CCCN5C(CCC)=O)=O)=O)=O
INCHI=
INCHIAUX=
PUBMED=
SUBMITUSER=RReher
LIBRARYQUALITY=3
SPECTRUMID=CCMSLIB00005723398
SCANS=1
86.090546 2056.553467 
86.091309 4055.347656 
86.092064 6202.329102 
86.092819 7076.14502 
86.094635 3804.622559 
86.09539 16908.001953 
86.096146 30088.794922 
86.096909 39001.148438 
86.097664 29863.279297 
86.098419 17455.207031 
86.099182 6481.304199 
86.099937 2555.232422 
86.100693 1936.875366 
104.583534 2916.501709 
104.584549 4969.831055 
104.585564 5490.65332 
104.586571 4107.271484 
104.587585 2037.013428 
111.564346 2073.604736 
111.565468 4227.842285 
111.566582 5482.972168 
111.567703 4884.070312 
111.568817 2893.845459 
129.464371 1634.450073 
129.465759 3829.680664 
129.467163 5726.958008 
129.468567 6126.359863 
129.469955 4693.896484 
129.471359 2438.377686 
140.102432 8654.050781 
140.104004 30265.431641 
140.105576 52635.476562 
140.107162 65878.625 
140.108734 49478.273438 
140.110306 28575.845703 
140.111877 10931.365234 
140.113449 5151.691406 
140.115021 3119.345215 
140.116592 2414.282471 
150.086136 6064.469727 
150.087891 26002.138672 
150.08963 46054.980469 
150.09137 59627.972656 
150.093109 45407.996094 
150.094864 26433.884766 
150.096603 9686.87793 
150.098343 4077.83374 
150.100098 2395.39917 
153.134064 2586.031982 
153.135864 6538.787598 
153.137665 10547.365234 
153.139465 11650.935547 
153.141266 8905.128906 
153.143051 4406.816895 
153.144852 1272.904419 
165.112198 3063.03418 
165.114212 5100.173828 
165.116226 5738.328125 
165.11824 4587.980469 
165.120255 2525.058838 
168.095123 3088.404053 
168.097183 19086.099609 
168.099258 38358.539062 
168.101318 56999.0625 
168.103394 51564.753906 
168.105453 32404.171875 
168.107529 15235.322266 
168.109589 5900.929688 
168.111664 2696.953857 
168.113724 1846.356201 
179.076538 2933.217529 
179.078812 6611.97998 
179.081085 9494.775391 
179.083359 9509.68457 
179.085632 6713.768555 
179.087906 3159.82666 
181.125229 540.196716 
181.127548 5838.084473 
181.129868 16161.043945 
181.132172 26991.427734 
181.134491 30253.371094 
181.136795 20539.322266 
181.139114 10418.177734 
181.141418 3035.480469 
181.143738 1873.035156 
209.117996 574.501221 
209.120865 8916.143555 
209.123734 23913.599609 
209.126602 40183.335938 
209.129471 45548.136719 
209.132339 31978.169922 
209.135208 17556.511719 
209.138077 6146.478516 
209.140945 1932.907104 
223.135529 1667.100342 
223.138687 8943.798828 
223.141846 16465.681641 
223.145004 22111.527344 
223.148163 17570.888672 
223.151337 10336.749023 
223.154495 3662.203369 
223.157654 1183.331177 
251.129242 2433.17749 
251.133011 7611.874512 
251.136795 13969.405273 
251.140564 18339.810547 
251.144333 14143.298828 
251.148117 8030.419922 
251.151886 2399.55127 
264.162689 2266.038574 
264.166748 4945.035156 
264.170837 6548.84082 
264.174896 5742.361816 
264.178955 3180.100342 
274.132477 2819.0354 
274.13678 6716.317383 
274.141083 10505.458008 
274.145386 11596.855469 
274.149689 9155.868164 
274.154022 4953.160156 
274.158325 1574.862061 
309.700165 2869.061035 
309.705353 4998.393555 
309.71051 5830.117188 
309.715668 4807.194336 
309.720856 2729.279297 
314.437378 2244.429932 
314.442657 4302.806152 
314.447968 5677.541016 
314.453247 5405.044922 
314.458527 3623.046631 
334.168365 3041.895996 
334.174164 5098.163086 
334.179962 5648.97168 
334.18576 4380.00293 
334.191559 2290.980957 
341.476593 2550.248047 
341.482605 4140.861816 
341.488586 4940.740723 
341.494568 4499.485352 
341.500549 3021.852539 
347.627441 3237.074951 
347.633575 5562.703613 
347.639709 6467.543457 
347.645874 5385.751465 
347.652008 3156.682373 
352.912384 2456.781006 
352.918671 4591.867676 
352.924988 5677.708984 
352.931274 4900.404785 
352.937561 2830.961914 
377.834869 3088.435791 
377.841827 4865.731934 
377.848785 5524.107422 
377.855774 4736.711426 
377.862732 2989.478271 
386.18219 1085.069824 
386.189392 7239.851562 
386.196594 16412.498047 
386.203796 26137.056641 
386.210999 26288.023438 
386.218201 16768.933594 
386.225403 7843.367188 
386.232605 1865.939087 
436.218109 1727.999634 
436.226746 5749.29834 
436.235413 12254.257812 
436.244049 18685.083984 
436.252686 17182.441406 
436.261322 10238.020508 
436.269958 3932.472656 
436.278625 1448.074341 
458.921997 3019.094238 
458.931335 4392.083984 
458.940643 4934.958008 
458.949982 4372.969238 
458.95932 2926.065186 
478.910675 3385.605225 
478.920624 5409.475098 
478.930573 6312.833496 
478.940521 5478.580078 
478.950439 3339.762451 
750.053955 4077.625 
750.073425 6367.866211 
750.092896 6850.762207 
750.112427 5079.563477 
750.131897 2421.15918 
828.734802 3319.296143 
828.757385 5538.178223 
828.780029 6533.485352 
828.802673 5608.277344 
828.825317 3300.343994 
892.90332 3447.979736 
892.92865 4816.626465 
892.953979 5612.436035 
892.979248 5597.916992 
893.004578 4684.114258 
END IONS

