BEGIN IONS
PEPMASS=1144.59
CHARGE=1+
MSLEVEL=2
SOURCE_INSTRUMENT=LC-ESI-Orbitrap
FILENAME=f.RReher/Culebra/pure_compounds/1122_non_AHP/SPE1-1-19_1122.6178_MS2_M+Na_QE.mgf;
SEQ=*..*
IONMODE=Positive
ORGANISM=GNPS-LIBRARY
NAME=Rivulariapeptolide 1121 M+Na
PI=Gerwick
DATACOLLECTOR=Raphael Reher
SMILES=CC(C)[C@H](NC([C@H](CC1=CC=C(O)C=C1)N(C)C([C@H](CC(C)C)N2[C@H](O)CC[C@H](NC(/C(NC3=O)=C\C)=O)C2=O)=O)=O)C(O[C@H](C)[C@@H]3NC([C@H]([C@@H](OC(C4N(C(CCC)=O)CCC4)=O)C)NC(C5CCCN5C(CCC)=O)=O)=O)=O
INCHI=
INCHIAUX=
PUBMED=
SUBMITUSER=RReher
LIBRARYQUALITY=3
SPECTRUMID=CCMSLIB00005723397
SCANS=1
76.625 3351.994873 
76.625633 6351.594238 
76.626274 9660.418945 
76.626907 11665.594727 
76.627541 11254.939453 
76.628181 8750.69043 
76.628815 5571.766113 
76.629456 3091.677002 
76.631363 3283.559814 
76.631996 5448.97998 
76.632637 7791.643066 
76.63327 9198.580078 
76.633904 8859.048828 
76.634544 6898.773438 
76.635178 4281.452637 
76.635818 2245.105957 
76.636452 1292.494019 
76.637085 2736.342773 
76.637726 5587.193848 
76.638359 8380.128906 
76.639 11242.003906 
76.639633 6627.509277 
76.640266 1794.240723 
76.641541 5539.147949 
76.642181 9530.908203 
76.642815 10347.206055 
76.643448 6819.995605 
76.644089 2468.019775 
113.968689 2267.133789 
113.969841 4151.850098 
113.971001 5167.246094 
113.972153 4620.475098 
113.973305 2834.041992 
132.680771 2223.533936 
132.68222 4260.038086 
132.68367 5177.196777 
132.68512 4212.665527 
132.686569 2124.296387 
257.526215 2359.998291 
257.530151 4386.367676 
257.534058 5138.88623 
257.537994 4029.318115 
257.541901 1981.645386 
306.463837 4119.324707 
306.468903 4804.762695 
306.473999 4850.941406 
306.479095 4457.126465 
306.484192 3697.456787 
306.509644 2128.883789 
306.514709 4053.052246 
306.519806 10851.641602 
306.524902 16691.09375 
306.529999 19404.269531 
306.535095 14830.126953 
306.540161 9026.464844 
306.545258 1857.483032 
306.55545 1405.003418 
306.560547 7827.774414 
306.565613 14348.830078 
306.570709 12953.549805 
306.575806 6296.255859 
306.580902 1149.654419 
306.585999 3019.563721 
306.591095 5457.743652 
306.596191 6550.756836 
306.601257 4715.850586 
306.606354 1827.61731 
408.014679 2468.115479 
408.022491 4332.181152 
408.030334 5189.893555 
408.038147 4238.280762 
408.045959 2062.28418 
439.179871 4211.622559 
439.188599 6820.124023 
439.197357 7751.097656 
439.206085 6211.913086 
439.214813 3224.270996 
451.251892 3217.439697 
451.260986 5296.939941 
451.270081 5971.544434 
451.279175 4771.490234 
451.288269 2575.150635 
471.764801 2486.081787 
471.774506 4617.246094 
471.784241 5633.504395 
471.793945 4610.541992 
471.80368 2218.230225 
775.588257 3271.114014 
775.608765 5513.762207 
775.629211 6477.519531 
775.649719 5629.964844 
775.670227 3629.076416 
880.804443 2700.090088 
880.829224 5124.208984 
880.854004 6852.627441 
880.878784 6859.460449 
880.903625 5241.330566 
880.928406 2971.205322 
959.417419 1715.297607 
959.445618 4732.473633 
959.473816 7061.177734 
959.502014 6891.668945 
959.530212 4321.416992 
END IONS

