BEGIN IONS
PEPMASS=426.236
CHARGE=1+
MSLEVEL=2
SOURCE_INSTRUMENT=LC-ESI-qTof
FILENAME=f.RReher/Golden lab/ColumbamideA-C_reference/Columbamide C/ColC_M+Cl_PNG.mgf;
SEQ=*..*
IONMODE=Positive
ORGANISM=GNPS-LIBRARY
NAME=Columbamide C M+Cl
PI=Gerwick
DATACOLLECTOR=Kleigrewe
SMILES=ClCCCCCCC(Cl)CCCC/C=C/CCC(N(C)[C@@H](COC)CO)=O
INCHI=
INCHIAUX=
PUBMED=
SUBMITUSER=RReher
LIBRARYQUALITY=3
SPECTRUMID=CCMSLIB00005464640
SCANS=1
100.07563 220.756302 
102.090286 4732.481934 
102.114784 331.408325 
102.142441 141.058823 
102.1847 147.133194 
103.090858 209.654541 
105.06884 445.259521 
107.08448 128.689651 
109.098373 807.208313 
112.076164 146.347565 
113.083611 667.093872 
119.082634 190.523804 
120.100487 5793.972656 
120.132133 264.595581 
120.155014 214.008331 
120.175674 119.26667 
120.204117 156.556458 
121.103943 110.020836 
123.112389 135.4375 
127.095619 125.005432 
129.076782 1677.443604 
129.099228 161.451614 
129.111435 127.446426 
130.084564 1122.879639 
130.102829 105.757576 
133.095657 220.278412 
138.087921 147.061279 
142.084427 1469.006958 
142.123657 117.145409 
143.093079 450.32373 
143.107056 105.545456 
144.096771 332.654419 
156.098938 780.059692 
168.099106 255.141525 
169.110626 239.281662 
170.11145 125.08654 
182.11554 319.010651 
196.132599 222.721695 
320.256287 11705.365234 
320.380432 178.225006 
320.422455 281.007141 
320.463348 155.284088 
320.534637 116.4879 
321.259583 269.334595 
321.289368 122.612808 
322.267059 477.065094 
334.272919 3637.834473 
334.334595 338.686401 
335.278412 115.002274 
356.232819 14632.53418 
356.283051 1689.494385 
356.408264 346.157043 
356.452026 186.001862 
356.696075 147.0 
356.866669 105.640961 
357.234039 671.386108 
357.300293 115.625 
357.401459 120.926285 
358.231506 14595.921875 
358.352417 368.240387 
358.409607 367.129944 
358.457703 184.920914 
358.556854 149.360855 
358.692444 120.001984 
359.235962 261.521545 
370.248779 4609.005859 
370.286133 856.0 
370.352234 198.29657 
371.247467 220.471161 
372.245575 4534.414551 
372.308105 351.0 
372.42276 114.25 
388.266907 126.654411 
390.252197 124.791664 
394.20343 343.377838 
END IONS

