BEGIN IONS
PEPMASS=833.4
CHARGE=1+
MSLEVEL=2
SOURCE_INSTRUMENT=LC-ESI-QQQ
FILENAME=f.evgenia_glukhov/unspecified/2126H.mzXML;
SEQ=*..*
IONMODE=Positive
ORGANISM=GNPS-LIBRARY
NAME=Polycavernoside D M+Na
PI=Gerwick
DATACOLLECTOR=Jorge Cuvertino
SMILES=CC1CC2C(C)(C)C(/C=C/C=C/C=C/CCC)OC(CC3C(C)(C)C(OC4C(OC)C(OC5C(O)C(O)C(OC)CO5)C(OC)CO4)CC(CC(C1(O)O2)=O)O3)=O
INCHI=
INCHIAUX=
PUBMED=
SUBMITUSER=evgenia_glukhov
LIBRARYQUALITY=3
SPECTRUMID=CCMSLIB00005435792
SCANS=885
268.039185 355187.0 
295.156982 1940252.0 
319.019287 2608195.0 
337.26239 12168108.0 
342.810608 6653230.0 
361.598511 2768146.0 
382.994263 304950.0 
477.240417 1747713.0 
495.130249 15245424.0 
496.099182 1644418.0 
496.884338 4267788.0 
499.057007 813892.0 
513.231567 97674976.0 
514.206665 26231808.0 
515.008789 90.0 
574.995239 10063808.0 
575.817017 211.0 
599.959229 465641.0 
603.22998 416381.0 
611.098633 4259926.0 
611.800049 7.0 
615.264526 2040555.0 
616.300781 6854093.0 
617.007324 9.0 
618.497803 726470.0 
629.119385 3396742.0 
655.223022 9888076.0 
657.263672 50129424.0 
658.160645 3696304.0 
673.188477 84237936.0 
674.309326 24077528.0 
675.172852 32.0 
683.314697 4472682.0 
683.983276 12.0 
771.289917 11150488.0 
772.57373 455694.0 
788.572632 3235650.0 
789.279907 5.0 
815.302734 62902528.0 
816.216309 12152404.0 
END IONS

