BEGIN IONS
PEPMASS=1792.77
CHARGE=1+
MSLEVEL=2
SOURCE_INSTRUMENT=LC-ESI-Ion Trap
FILENAME=f.RReher/2264/Reference_spectra/Samholides/Samholide E/SamholideE_M+Na_+1_iontrap_yiwen.mgf;
SEQ=*..*
IONMODE=Positive
ORGANISM=GNPS-LIBRARY
NAME=Samholide E M+Na
PI=Gerwick
DATACOLLECTOR=Ywen Tao
SMILES=C[C@H]1C[C@H](C[C@@H](O1)CC[C@H](C)[C@@H]([C@H](C)[C@@H]2C[C@@H](C[C@@H]([C@@H]([C@H](C[C@@H]3CC=C[C@H](O3)C[C@H](C/C=C(/C=C/C(=O)O[C@@H](C[C@@H](C[C@@H]([C@@H]([C@H](C[C@@H]4CC=C[C@H](O4)C[C@H](C/C=C(/C=C/C(=O)O2)\C)O[C@@H]5[C@H]([C@@H]([C@H](CO5)OC)OC)O)OC)C)O)O)[C@@H](C)[C@H]([C@@H](C)CC[C@H]6C[C@@H](C[C@@H](O6)C)OC)O)\C)O[C@@H]7[C@H]([C@@H]([C@H](CO7)OC)OC)OC(=O)[C@@H](CO)O)OC)C)O)O)O)OC
INCHI=
INCHIAUX=
PUBMED=
SUBMITUSER=RReher
LIBRARYQUALITY=3
SPECTRUMID=CCMSLIB00005467788
SCANS=1
627.456421 46230.0 
637.09082 194152.0 
638.08667 64501.0 
641.212402 96771.0 
649.473389 21857.0 
650.201416 69838.0 
685.356689 171267.0 
686.453125 24976.0 
687.660645 168135.0 
703.586304 378908.0 
704.642578 240006.0 
737.173096 285416.0 
738.276367 11152.0 
777.187988 52263.0 
781.421143 121777.0 
845.476318 550211.0 
846.295654 50217.0 
847.64917 489814.0 
863.435059 2323935.0 
864.350342 1418794.0 
865.23584 71036.0 
865.84436 95944.0 
881.153198 74390.0 
933.580078 136709.0 
934.212158 134917.0 
951.422363 6688963.0 
952.353149 1606788.0 
953.407227 711582.0 
976.520996 126159.0 
1015.687744 94780.0 
1017.215332 156147.0 
1023.318359 116930.0 
1051.455566 109418.0 
1067.693848 83056.0 
1068.525879 51069.0 
1070.007324 193430.0 
1070.666504 1.0 
1107.586914 132575.0 
1108.430176 193195.0 
1109.466064 94089.0 
1112.662598 178281.0 
1113.366699 2.0 
1139.627441 9997.0 
1140.644043 220401.0 
1145.292725 200044.0 
1155.660889 94366.0 
1156.401611 119624.0 
1161.662354 315699.0 
1162.518555 319725.0 
1173.469238 177302.0 
1174.461426 364660.0 
1195.419678 37799.0 
1196.665771 136355.0 
1197.466553 1.0 
1227.543945 78476.0 
1228.554199 184865.0 
1246.114746 14655.0 
1263.384277 100031.0 
1274.305908 57837.0 
1275.361084 331649.0 
1290.633789 147117.0 
1300.595703 20251.0 
1303.602295 228684.0 
1304.478516 199622.0 
1305.775879 75780.0 
1315.316406 269954.0 
1316.260254 160383.0 
1317.766602 142907.0 
1318.600098 13123.0 
1321.591553 1470564.0 
1322.67334 2304026.0 
1323.666016 596593.0 
1324.355469 6.0 
1329.268555 165140.0 
1330.425049 136682.0 
1333.424805 3480011.0 
1334.483398 2123412.0 
1335.222656 685965.0 
1335.83252 324936.0 
1347.816895 134408.0 
1349.577148 53033.0 
1363.185547 16053.0 
1366.474121 344682.0 
1367.177734 6.0 
1372.193848 80226.0 
1373.657227 103818.0 
1375.364258 21625.0 
1383.401611 184110.0 
1385.024902 120976.0 
1391.513916 77440.0 
1409.027832 39887.0 
1409.648926 1462372.0 
1410.632568 927182.0 
1411.560303 923085.0 
1412.333252 1.0 
1415.299805 65243.0 
1473.504883 119193.0 
1477.626709 617305.0 
1478.536865 210305.0 
1479.408691 86047.0 
1481.776367 63892.0 
1482.627686 90057.0 
1484.655762 94483.0 
1504.446777 121011.0 
1505.532715 101783.0 
1507.831055 73062.0 
1508.551758 157358.0 
1510.598145 44085.0 
1521.55249 1383478.0 
1522.602783 807052.0 
1523.508545 289801.0 
1525.549561 941189.0 
1526.44043 1019577.0 
1527.229248 203228.0 
1527.94043 123048.0 
1541.54541 213139.0 
1543.697998 730096.0 
1544.868408 745515.0 
1545.849121 316385.0 
1546.546631 5.0 
1559.899414 421992.0 
1560.668457 88308.0 
1569.804932 55914.0 
1577.585449 1605603.0 
1578.531738 1362963.0 
1579.511963 610206.0 
1580.299805 2.0 
1585.108154 84383.0 
1594.459473 23398.0 
1613.48291 451752.0 
1614.867676 1952339.0 
1617.973389 102399.0 
1623.209717 396188.0 
1623.822754 96.0 
1631.620605 1076491.0 
1632.683105 1600754.0 
1633.91626 383193.0 
1654.287354 88958.0 
1655.016602 4.0 
1656.895264 65021.0 
1667.314697 36135.0 
1685.643066 2039459.0 
1686.751953 1859847.0 
1687.683838 829811.0 
1688.428223 7.0 
1703.347168 111838.0 
1703.968506 92132.0 
1714.735107 89884.0 
1741.510498 86460.0 
1747.940674 46667.0 
1756.590576 181437.0 
1757.918457 46697.0 
1762.525879 15660.0 
1763.539062 160979.0 
1773.962891 1358351.0 
1774.692871 705767.0 
1775.674561 586873.0 
1791.849365 1692352.0 
1792.616455 76.0 
END IONS

