BEGIN IONS
TITLE=Scan Number: 956
PEPMASS=376.22699
CHARGE=1+
COMPOUNDNAME=Ambiguine I isonitrile
LIBRARYQUALITY=3
SMILES=C[C@@]1(CC[C@H]2[C@@]3([C@@]1([C@@H]4[C@@H](O4)C(c5c3c6c(cccc6[nH]5)C2(C)C)(C)C)[N+]#[C-])O)C=C
INCHIKEY=RVIIZRJMWFSNER-LJCLWVHTSA-N
INCHI=
MSLEVEL=2
SOURCE_INSTRUMENT=LC-ESI-qTof
FILENAME=f.philipwi/0_WilliamsFreshwaterCyanosStandardsConvertedTo_mzXML_v2/PW-44_conc_P2-B-5_Ambiguine_I_isonitrile_402amu_Scan950_981_01_15670.mzXML;
SEQ=*..*
NOTES=
IONMODE=Positive
ORGANISM=GNPS-LIBRARY
NAME=Ambiguine I isonitrile M+H
SPECTRUMID=CCMSLIB00000424907
ACTIVATION=CID
INSTRUMENT=ion trap
SCANS=956
157.097931 84.0 
170.099976 108.0 
172.109497 24.0 
184.076981 84.0 
186.088928 96.0 
196.107315 36.0 
196.661163 92.0 
204.077942 116.0 
205.857544 44.0 
206.104568 100.0 
207.103287 68.0 
208.1064 140.0 
209.114578 156.0 
210.095428 108.0 
213.164871 64.0 
214.124573 120.0 
218.088409 124.0 
219.096832 68.0 
220.079224 100.0 
221.120682 64.0 
222.112198 132.0 
222.46875 36.0 
222.592361 48.0 
223.144318 108.0 
224.143158 240.0 
228.075211 132.0 
230.169022 36.0 
230.314117 40.0 
231.098373 96.0 
232.104767 216.0 
232.486191 32.0 
233.001602 52.0 
233.113327 236.0 
233.839172 44.0 
234.118332 696.0 
234.278015 64.0 
234.414642 36.0 
234.8638 28.0 
235.119125 180.0 
235.213715 164.0 
236.139557 248.0 
237.145508 200.0 
238.160675 92.0 
242.098969 108.0 
244.123703 112.0 
245.118118 120.0 
245.223358 104.0 
246.124741 284.0 
247.134201 292.0 
247.966125 40.0 
248.1418 664.0 
249.145813 384.0 
250.151779 288.0 
250.532379 52.0 
251.047226 40.0 
251.138138 96.0 
252.138641 452.0 
252.331573 36.0 
252.736771 28.0 
253.145248 224.0 
254.035583 40.0 
254.115021 88.0 
256.12265 80.0 
257.113159 36.0 
258.123444 128.0 
259.138702 436.0 
259.828949 44.0 
260.142487 404.0 
261.140747 200.0 
262.129639 104.0 
262.910309 64.0 
263.145111 84.0 
264.13327 88.0 
265.141968 188.0 
265.573364 56.0 
266.165833 124.0 
267.113037 60.0 
268.118683 104.0 
269.117096 56.0 
269.54599 68.0 
271.105499 196.0 
272.140564 224.0 
272.936981 52.0 
273.137848 176.0 
274.154449 408.0 
274.943329 24.0 
275.153839 152.0 
275.840729 36.0 
276.141327 176.0 
276.932281 36.0 
277.145508 1040.0 
277.34613 36.0 
278.14917 720.0 
278.440674 40.0 
278.791779 72.0 
279.164429 124.0 
279.238983 44.0 
280.017151 24.0 
280.132629 1056.0 
280.358582 40.0 
280.903198 40.0 
281.14209 276.0 
281.480408 36.0 
282.136932 144.0 
283.355103 44.0 
284.149689 32.0 
284.70874 20.0 
285.128357 168.0 
286.155701 112.0 
287.144318 104.0 
287.760773 44.0 
288.145386 280.0 
288.507385 44.0 
289.145538 92.0 
290.144379 228.0 
290.350983 44.0 
290.557404 36.0 
291.177948 100.0 
292.124176 108.0 
292.920074 52.0 
293.181946 84.0 
294.147034 164.0 
294.810516 36.0 
295.153839 92.0 
296.17334 128.0 
298.147186 52.0 
298.874084 44.0 
300.167389 384.0 
301.19281 44.0 
302.172516 176.0 
302.566162 36.0 
303.157806 108.0 
304.162231 200.0 
304.376221 36.0 
305.17749 88.0 
305.311127 76.0 
306.183319 80.0 
307.178162 76.0 
307.665833 32.0 
309.154694 64.0 
312.120728 64.0 
313.665497 48.0 
313.902649 32.0 
314.183685 256.0 
314.885986 40.0 
315.202545 192.0 
316.171936 116.0 
317.175049 32.0 
319.167938 104.0 
320.217804 92.0 
325.194641 96.0 
326.18399 64.0 
327.728516 48.0 
328.182434 212.0 
329.172577 68.0 
330.219666 188.0 
330.956055 52.0 
331.225006 172.0 
331.559357 52.0 
332.221283 104.0 
334.234375 88.0 
340.204285 60.0 
341.157318 88.0 
342.595245 36.0 
343.197266 44.0 
344.193726 204.0 
348.139313 96.0 
348.237549 156.0 
356.310211 24.0 
357.201172 60.0 
357.864105 32.0 
358.212952 3136.0 
358.467316 56.0 
358.805328 44.0 
358.914001 52.0 
359.046844 36.0 
359.222626 684.0 
359.566437 40.0 
359.880768 32.0 
360.013794 32.0 
360.207336 64.0 
361.200073 92.0 
361.442413 20.0 
361.842468 28.0 
362.206329 28.0 
362.449005 52.0 
365.830597 44.0 
368.689178 64.0 
375.204834 64.0 
376.230377 628.0 
376.972595 56.0 
377.221863 264.0 
377.741364 48.0 
378.285645 80.0 
379.91156 36.0 
380.756897 48.0 
387.653931 224.0 
447.644562 68.0 
455.569153 132.0 
461.94519 76.0 
474.566315 124.0 
499.962494 156.0 
559.022766 76.0 
586.835938 96.0 
866.900024 40.0 
END IONS

