BEGIN IONS
PEPMASS=910.492
CHARGE=1+
COMPOUNDNAME=MoNA:1033148 (5R,8S,11R,12S,15S,18S,19S,22R)-18-[(1E,3E,5S,6S)-6-methoxy-3,5-dimethyl-7-phenylhepta-1,3-dienyl]-1,5,12,15,19-pentamethyl-2-methylidene-8-(2-methylpropyl)-3,6,9,13,16,20,25-heptaoxo-1,4,7,10,14,17,21-heptazacyclopentacosane-11,22-dicarboxylic acid
LIBRARYQUALITY=3
SMILES=N/A
INCHIKEY=DIAQQISRBBDJIM-DRSCAGMXSA-N
INCHI=InChI=1S/C46H67N7O12/c1-24(2)21-35-44(60)52-38(46(63)64)28(6)40(56)47-29(7)41(57)49-33(18-17-25(3)22-26(4)36(65-11)23-32-15-13-12-14-16-32)27(5)39(55)50-34(45(61)62)19-20-37(54)53(10)31(9)43(59)48-30(8)42(58)51-35/h12-18,22,24,26-30,33-36,38H,9,19-21,23H2,1-8,10-11H3,(H,47,56)(H,48,59)(H,49,57)(H,50,55)(H,51,58)(H,52,60)(H,61,62)(H,63,64)/b18-17+,25-22+/t26-,27-,28-,29-,30+,33-,34+,35-,36-,38+/m0/s1
MSLEVEL=2
SOURCE_INSTRUMENT=LC-ESI-QFT-LC-ESI-QFT
FILENAME=output_mgf.mgf
SEQ=*..*
IONMODE=
ORGANISM=MONA
NAME=MoNA:1033148 (5R,8S,11R,12S,15S,18S,19S,22R)-18-[(1E,3E,5S,6S)-6-methoxy-3,5-dimethyl-7-phenylhepta-1,3-dienyl]-1,5,12,15,19-pentamethyl-2-methylidene-8-(2-methylpropyl)-3,6,9,13,16,20,25-heptaoxo-1,4,7,10,14,17,21-heptazacyclopentacosane-11,22-dicarboxylic acid [M+H]+
PI=MoNA
DATACOLLECTOR=MoNA
PUBMED=N/A
SUBMITUSER=mwang87
TAGS=
SPECTRUMID=CCMSLIB00000569800
SCANS=7051
86.0961 2.485761 
89.0707 0.10738 
91.054 0.480425 
97.0888 0.110304 
105.0696 0.178234 
107.0853 1.58915 
123.08 0.129297 
124.112 1.19969 
127.0862 0.601402 
130.0498 0.134926 
131.0852 0.217722 
135.08 6.34597 
135.1162 0.881923 
138.0543 0.210828 
143.0856 0.975868 
145.1008 0.42992 
147.1166 0.455938 
155.0808 1.838187 
157.1333 0.15358 
161.0958 0.203434 
163.1115 12.380017 
164.1146 0.435047 
167.0812 0.149626 
172.1078 0.223065 
173.0915 3.181159 
175.1116 0.797587 
176.1145 0.125667 
185.128 0.225091 
195.076 6.97277 
196.0795 0.223843 
200.1021 0.207937 
201.0863 1.179291 
209.132 0.412995 
210.0765 0.13718 
213.0866 9.772267 
214.0898 0.485258 
218.1132 13.280108 
218.1536 1.826314 
219.1173 0.226675 
226.1587 1.549638 
237.1228 1.04768 
237.1635 2.20018 
239.0659 0.555981 
243.1333 0.148121 
246.1485 2.31874 
247.1482 0.232992 
250.1546 0.38932 
251.102 0.583489 
258.1848 21.185241 
259.1882 1.565639 
264.1587 0.216594 
265.1582 5.839829 
266.1615 0.607861 
268.1651 5.37786 
269.1123 0.184866 
269.169 0.205521 
269.1897 0.52233 
272.1246 0.108367 
274.1435 0.441089 
282.1848 1.056287 
284.1235 0.245076 
286.1755 0.435222 
292.1539 3.482953 
293.1127 0.429374 
296.1241 0.208215 
297.1846 8.772956 
298.1883 0.666367 
309.181 0.301173 
310.1027 0.240693 
310.1645 0.78137 
313.1866 1.050493 
314.1708 2.343998 
314.2108 2.069699 
320.2002 1.476529 
324.1915 0.214376 
329.1861 0.812665 
330.1297 0.200641 
331.1972 24.036458 
332.2008 1.67118 
347.1961 5.159937 
348.1963 0.756675 
351.2022 0.408642 
352.2272 0.82455 
357.1812 1.039961 
364.1508 0.488536 
366.2063 0.177177 
375.1912 68.380862 
376.1942 7.047268 
380.2208 3.169593 
384.2238 5.867822 
385.2077 12.612293 
386.2112 0.957699 
394.2013 1.580564 
397.2079 4.372943 
398.2105 0.182726 
400.2234 0.179607 
402.2343 100.0 
403.2379 9.102399 
426.2274 2.946317 
428.2169 0.172303 
431.2346 0.165194 
433.2445 0.523804 
435.2227 0.451748 
436.2193 0.249549 
440.2491 1.467811 
446.2283 33.459704 
447.2313 4.115644 
449.2447 0.860881 
450.2345 0.575457 
455.2331 0.107756 
463.2595 0.933297 
467.2611 10.801684 
468.2447 47.017179 
469.2477 4.946194 
477.238 12.040765 
478.2425 1.665382 
481.2695 0.977858 
485.2715 48.503121 
486.2755 5.574795 
491.2535 1.061714 
508.2399 2.561396 
509.2641 43.502463 
510.2675 6.255901 
526.2934 0.414976 
531.3184 1.490115 
533.2727 0.246633 
534.2542 0.114933 
541.3008 1.116572 
548.275 5.174186 
551.2808 1.71717 
559.3118 42.485726 
574.2877 0.225269 
579.2767 2.874433 
580.3011 22.251059 
581.3043 3.762861 
591.3496 3.52621 
596.3031 6.089781 
597.2866 7.429998 
598.2902 1.283671 
629.3642 0.585567 
635.3022 1.995347 
642.3877 3.32026 
647.3773 1.892179 
658.3463 0.528356 
661.3586 3.186108 
662.3617 0.892952 
675.3711 5.421453 
676.3766 1.058637 
680.3241 5.150033 
681.3277 0.818512 
688.3542 4.500091 
689.3555 0.904755 
693.385 18.577999 
694.3888 4.666623 
725.4223 9.248802 
726.4257 2.135263 
730.4132 3.335287 
732.4057 0.845262 
741.3814 4.058508 
745.3757 0.381806 
758.4073 31.073156 
759.392 53.755581 
760.3941 12.741427 
776.4176 98.78853 
777.4209 23.1018 
790.4007 0.174454 
809.4436 1.719927 
810.444 0.410028 
822.4279 2.16279 
832.4592 0.523261 
846.4745 0.177756 
860.4529 2.377709 
861.441 2.819245 
862.4443 0.791148 
864.4825 1.57767 
866.4762 0.53097 
874.4707 0.879538 
875.4551 2.152803 
878.4651 6.984137 
882.4974 1.154844 
892.4805 19.039235 
893.469 16.71875 
910.4912 44.06962 
END IONS

