BEGIN IONS
PEPMASS=209.046
CHARGE=1+
COMPOUNDNAME=2,4-diacetylphloroglucinol
LIBRARYQUALITY=3
SMILES=N/A
INCHIKEY=PIFFQYJYNWXNGE-UHFFFAOYSA-N
INCHI=InChI=1S/C10H10O5/c1-4(11)8-6(13)3-7(14)9(5(2)12)10(8)15/h3,13-15H,1-2H3
MSLEVEL=2
SOURCE_INSTRUMENT=N/A-ESI-QFT
FILENAME=library_mgf.mgf
SEQ=*..*
IONMODE=negative
ORGANISM=MONA
NAME=2,4-diacetylphloroglucinol [M-H]-
PI=MoNA
DATACOLLECTOR=MoNA:VF-NPL-QEHF002525
PUBMED=N/A
SUBMITUSER=mwang87
TAGS=
SPECTRUMID=CCMSLIB00004693588
SCANS=2525
50.692848 0.030083 
51.104053 0.039748 
51.620377 0.037583 
51.701786 0.044413 
51.80492 0.038062 
52.389957 0.024577 
52.439262 0.027088 
52.948544 0.044567 
53.886093 0.046034 
54.186535 0.04195 
54.204353 0.024887 
54.750717 0.028363 
54.835423 0.027318 
54.974251 0.047927 
55.012413 0.018771 
55.037659 0.02386 
55.058872 0.026551 
55.134914 0.02743 
57.934029 0.034947 
58.265095 0.0321 
59.012459 0.221732 
60.733353 0.028462 
60.826248 0.034532 
61.574818 0.038217 
61.913662 0.036562 
62.0359 0.022663 
62.634151 0.031351 
65.0019 0.556657 
65.150635 0.01965 
65.2771 0.019307 
65.596184 0.034216 
65.988716 0.02641 
67.034203 0.045168 
71.343765 0.024457 
72.103249 0.043947 
72.332016 0.035887 
72.716522 0.035273 
73.701324 0.028497 
74.246696 0.018188 
74.263252 0.036551 
74.304268 0.044791 
75.789597 0.018807 
76.826782 0.042225 
79.723671 0.032392 
79.872871 0.026898 
80.379265 0.043734 
80.652687 0.029565 
81.033257 11.111984 
81.374229 0.021129 
81.513466 0.044179 
81.51667 0.029368 
81.575462 0.038955 
81.857124 0.036498 
82.036514 0.227441 
82.039162 0.082263 
82.680115 0.037189 
83.012512 23.031937 
83.033562 0.033792 
83.645378 0.045725 
84.0158 0.409271 
84.018509 0.092444 
84.26461 0.023623 
84.849777 0.031773 
85.01442 0.04338 
85.346123 0.023408 
85.552834 0.056904 
86.165894 0.048524 
86.523926 0.031604 
86.97731 0.043986 
87.890778 0.052619 
88.469299 0.02651 
89.856819 0.045055 
91.188606 0.039605 
91.206245 0.039331 
93.295898 0.030459 
95.048897 0.079039 
95.485298 0.053706 
95.689224 0.030496 
96.976479 0.039649 
97.958305 0.027065 
98.922516 0.036939 
99.584251 0.036822 
101.291794 0.04873 
101.781746 0.02049 
104.457199 0.04603 
105.033249 2.641419 
107.012573 1.462418 
107.134819 0.043919 
108.450134 0.030089 
109.469208 0.042778 
109.664482 0.039378 
110.758865 0.04338 
110.888611 0.038765 
112.84108 0.040667 
115.875534 0.033305 
116.141319 0.028945 
117.769066 0.046561 
117.974152 0.039033 
119.185478 0.018737 
119.51799 0.039168 
121.028275 0.23208 
122.035835 0.04757 
122.426842 0.035409 
123.043938 8.645956 
123.673706 0.02935 
124.04715 0.308321 
125.023232 5.955305 
126.026405 0.094648 
127.328362 0.029005 
130.856827 0.046116 
132.651703 0.027563 
133.187515 0.037989 
136.14035 0.027419 
140.101212 0.04297 
144.626328 0.039061 
146.375259 0.037395 
149.023392 15.511795 
149.029846 0.179982 
150.026611 0.791829 
150.215088 0.034407 
150.232544 0.038721 
151.00267 8.267283 
152.006119 0.255573 
152.845734 0.033518 
154.82901 0.036629 
155.801971 0.041691 
156.426331 0.044739 
163.0392 0.136254 
165.054794 18.093834 
166.05838 1.604459 
167.034073 23.309353 
168.037521 1.943512 
172.567474 0.038685 
175.002884 1.096291 
175.149597 0.029248 
175.843781 0.029212 
176.981781 0.049249 
179.054321 0.02839 
180.790543 0.048124 
185.755966 0.027589 
189.998505 0.05404 
191.034302 8.917167 
191.104889 0.030878 
191.165771 0.057583 
192.038086 0.6268 
193.013535 65.618645 
194.017014 6.26932 
195.018219 0.027929 
198.710892 0.040091 
205.125458 0.025112 
205.188049 0.050328 
209.045013 100.0 
210.019348 0.043141 
210.048767 12.858718 
210.582504 0.039293 
211.050705 0.196899 
217.65889 0.309038 
217.6642 0.311363 
230.171478 0.024838 
230.602844 0.022792 
234.585587 0.037287 
END IONS

