BEGIN IONS
PEPMASS=361.068
CHARGE=1+
COMPOUNDNAME=rabelomycin
LIBRARYQUALITY=3
SMILES=N/A
INCHIKEY=JJOLHRYZQSDLSA-UHFFFAOYSA-N
INCHI=InChI=1S/C19H14O6/c1-19(25)6-8-5-11(21)15-16(13(8)12(22)7-19)17(23)9-3-2-4-10(20)14(9)18(15)24/h2-5,20-21,25H,6-7H2,1H3
MSLEVEL=2
SOURCE_INSTRUMENT=N/A-ESI-QFT
FILENAME=library_mgf.mgf
SEQ=*..*
IONMODE=positive
ORGANISM=MONA
NAME=rabelomycin [M+Na]+
PI=MoNA
DATACOLLECTOR=MoNA:VF-NPL-QEHF000943
PUBMED=N/A
SUBMITUSER=mwang87
TAGS=
SPECTRUMID=CCMSLIB00004692006
SCANS=943
50.126175 0.01456 
50.828823 0.013426 
50.875858 0.01881 
51.472824 0.013006 
51.520664 0.012491 
52.328449 0.013657 
52.520664 0.014445 
52.999435 0.014351 
54.545376 0.013632 
54.699688 0.014807 
54.98893 0.018475 
55.018536 0.115553 
55.054951 0.678142 
55.935017 0.020045 
56.050179 0.113396 
57.034168 0.179941 
57.070591 1.695845 
58.065826 3.392499 
58.721237 0.014822 
58.857193 0.012689 
59.049843 0.52102 
59.061085 3.364531 
59.06905 0.015275 
59.627453 0.013118 
60.045067 0.79668 
60.129478 0.016157 
60.681877 0.015347 
60.833374 0.01222 
61.01133 2.206326 
61.193874 0.013321 
62.019161 0.994109 
62.060677 0.107113 
63.026974 0.950189 
63.145061 0.012935 
63.184486 0.011461 
63.328423 0.012067 
63.988655 0.011201 
63.998383 0.06972 
64.304436 0.012377 
65.009361 0.011212 
65.171448 0.011438 
65.61763 0.016175 
67.054893 1.102138 
68.175766 0.012936 
68.823151 0.015249 
69.034096 0.29777 
69.070496 1.186232 
69.312294 0.014948 
70.065773 3.029252 
70.073563 0.013104 
71.049751 0.799689 
71.069031 0.04206 
71.086136 1.241247 
72.044968 0.066701 
72.081398 0.707145 
72.937691 0.210368 
73.028938 0.06207 
73.047379 0.437105 
73.065346 0.055962 
74.060539 0.16456 
75.044456 0.05781 
76.039848 0.729111 
77.060287 0.046201 
77.846535 0.025392 
79.021797 4.221627 
79.054771 0.310297 
79.892937 0.014266 
80.024986 0.012603 
80.132042 0.017574 
80.859459 0.016519 
80.948555 0.017524 
81.017365 0.062659 
81.033936 0.104149 
81.070442 1.873282 
82.065666 0.087233 
82.073761 0.027515 
83.049644 0.236913 
83.086044 0.886386 
84.044746 0.063613 
84.081322 5.591967 
85.028908 0.50479 
85.065262 0.414372 
85.084549 0.338841 
85.089211 0.020479 
85.1017 0.462704 
85.68045 0.011352 
86.060501 0.196512 
86.096924 0.846407 
87.044563 3.882489 
87.047691 0.013999 
87.100174 0.018126 
87.622726 0.011893 
88.039818 0.01535 
88.047905 0.779446 
88.076141 1.575702 
88.341019 0.01681 
89.048676 0.014999 
89.060211 4.105494 
89.96402 0.1405 
90.063515 0.535751 
90.948112 0.280611 
91.054733 7.549464 
91.057762 1.384808 
92.057953 0.682312 
92.061012 0.094369 
93.054588 0.160744 
93.070328 0.976409 
94.06559 0.030621 
94.073532 0.015874 
94.214851 0.015818 
95.049454 0.278581 
95.08593 1.913773 
96.081207 0.120245 
96.089203 0.03931 
97.028809 0.022502 
97.065147 0.459491 
97.101585 0.779462 
97.550156 0.017454 
98.060226 0.030843 
98.096786 0.158499 
98.975708 0.091574 
99.044266 0.293709 
99.080727 0.607325 
100.039635 0.731854 
100.075897 0.339261 
100.112267 0.015804 
100.524521 0.015356 
101.00341 0.352155 
101.023598 0.09151 
101.059975 0.11263 
102.091698 2.120606 
102.629547 0.013053 
103.039307 1.332362 
103.075592 0.246561 
103.094894 0.03123 
104.042641 0.389056 
104.070786 0.014006 
104.078835 0.039041 
104.992569 0.362474 
105.033699 0.070887 
105.043541 0.041855 
105.070091 0.612544 
105.073631 0.033129 
106.073372 0.014449 
107.049202 0.022803 
107.070435 0.084507 
107.085815 1.016223 
107.089516 0.019256 
107.963585 0.015872 
107.967041 0.501506 
108.958237 0.041473 
109.06501 0.233218 
109.101379 1.483993 
110.060043 0.014148 
110.096474 0.017701 
110.104752 0.032362 
111.044273 0.205955 
111.080658 0.405124 
111.116852 0.107045 
112.039429 0.154533 
112.075798 0.049818 
112.677658 0.01541 
113.059868 0.156262 
113.096191 0.091173 
114.091461 0.075318 
114.960754 0.015413 
115.039177 0.153777 
115.075516 0.172509 
115.086853 0.091847 
116.052826 0.036573 
116.070816 0.09688 
116.089378 0.018204 
116.644554 0.015677 
116.963852 0.017624 
116.977585 0.017016 
116.986076 0.102297 
117.054634 0.028368 
117.070045 0.186289 
118.942566 0.016036 
119.085655 10.413896 
119.117928 0.53215 
120.080971 0.45854 
120.088974 0.971439 
120.101662 0.013059 
120.207008 0.015336 
120.668938 0.014173 
121.064926 1.139879 
121.085907 0.192611 
121.101311 0.808967 
121.744514 0.013224 
122.068199 0.046755 
122.090469 0.014985 
122.096451 0.102047 
123.080376 0.474042 
123.091858 0.049561 
123.116905 0.945176 
124.075714 0.019713 
124.120407 0.015149 
125.059723 0.050459 
125.096046 0.722558 
125.854317 0.011972 
126.09127 0.043182 
127.004303 0.014464 
127.039024 0.249828 
127.075493 0.043527 
127.111588 0.058627 
127.50264 0.016662 
128.106934 0.080117 
128.143539 0.014007 
128.963379 0.21719 
129.018234 0.107425 
129.070648 0.013125 
130.086288 0.094061 
130.97789 0.120336 
131.070267 1.017178 
131.085602 0.19878 
131.974075 0.017407 
132.073563 0.246909 
132.101822 0.020276 
132.958221 0.077588 
133.064423 0.138984 
133.085907 1.599529 
133.101028 0.539212 
134.089249 0.380308 
134.221848 0.014062 
134.919846 0.017474 
134.955994 0.343446 
134.973419 0.022739 
134.97879 0.196346 
134.996384 0.078238 
135.080322 0.52363 
135.116714 0.630028 
136.111908 0.094746 
136.651199 0.015128 
137.059464 0.097388 
137.095932 0.410742 
137.107178 0.060153 
137.132416 0.104015 
138.091156 0.190748 
138.979034 0.013648 
139.075119 0.054718 
139.111588 0.280433 
139.135178 0.147795 
140.070358 0.250232 
140.106339 0.018211 
140.115494 0.014288 
140.143265 1.128764 
141.09053 0.057356 
141.127014 0.078397 
141.146622 0.035558 
141.709167 0.016771 
141.908401 0.012293 
142.122681 0.08759 
142.978928 0.020117 
143.46666 0.015144 
143.973755 0.017482 
144.101776 0.182239 
145.04953 0.100888 
145.100952 0.306541 
145.989594 0.020654 
146.973984 0.173847 
147.009659 0.014826 
147.016953 0.015486 
147.065125 0.018753 
147.080307 0.138395 
147.11676 0.245335 
148.120331 0.014737 
148.955658 0.069421 
148.971664 0.831953 
148.989182 0.029379 
149.059494 0.216184 
149.095917 0.309728 
149.107376 0.018764 
149.132278 0.263521 
149.298248 0.015007 
149.985184 0.01605 
150.950958 2.332346 
150.968658 0.150529 
151.075241 0.107828 
151.086273 0.015454 
151.096313 0.07618 
151.111511 0.267064 
152.070694 0.021523 
152.466904 0.017148 
152.945938 0.017547 
152.951736 0.013816 
152.966476 0.187492 
152.98909 0.14385 
153.090912 0.21528 
153.127167 0.084345 
154.086105 0.624017 
154.122421 0.07745 
154.138931 0.017625 
155.0896 0.015803 
155.106369 0.196035 
155.142807 0.077923 
156.101761 0.01745 
156.138077 0.087646 
157.011032 0.049555 
157.101196 0.04624 
157.936691 0.03366 
158.117233 0.039198 
158.97316 0.01887 
159.080551 0.033055 
159.116577 0.203944 
159.969559 0.033776 
160.98999 0.046692 
161.095856 0.099863 
161.132462 0.11797 
162.092041 0.012762 
162.951233 0.087892 
162.968704 0.02204 
163.075104 0.014788 
163.096283 0.215116 
163.111633 0.132415 
163.147781 0.099299 
164.107422 0.02067 
164.966461 0.085507 
164.984985 0.019852 
165.090729 0.159362 
165.102158 0.297189 
165.127594 0.018917 
165.937988 0.041875 
166.08609 0.068892 
166.414886 0.016461 
166.966873 0.01485 
166.982193 0.134813 
167.070282 0.017786 
167.117935 0.021859 
167.953018 0.035812 
168.089539 0.015324 
168.101593 0.182722 
168.961472 1.041339 
168.990326 0.116351 
169.988541 0.125863 
170.117493 0.040166 
170.986313 0.017298 
171.062653 1.286424 
171.101395 0.015063 
171.116409 0.017021 
172.005249 0.067769 
172.096725 0.100213 
172.115158 0.163435 
172.133057 0.03774 
173.078583 0.093483 
173.096313 0.01752 
173.117203 0.437442 
173.132355 0.108571 
173.984528 0.077047 
174.005569 0.046033 
175.074463 0.018913 
175.096268 0.434646 
175.111313 0.052975 
175.147995 0.07779 
175.257645 0.013658 
175.94664 0.019347 
175.958786 0.033992 
176.099701 0.198177 
176.930267 0.023922 
177.091003 0.016402 
177.101028 0.012943 
177.112015 0.115401 
177.127151 0.038328 
177.306229 0.017054 
177.63649 0.016927 
178.115326 0.016667 
178.122925 0.013775 
179.02211 0.079154 
179.053253 0.016423 
179.106659 0.112964 
179.143173 0.021202 
179.953583 0.748294 
180.96199 0.058887 
181.085007 0.020158 
181.121857 0.082516 
181.23024 0.017383 
182.34343 0.016459 
182.977097 0.162292 
183.174088 0.017578 
183.746246 0.01742 
183.948456 0.018723 
184.001694 0.043651 
184.097092 0.019651 
185.962296 0.086738 
186.878601 0.033209 
186.927582 0.048344 
187.05748 0.096867 
187.107773 0.422713 
188.000031 0.131995 
188.021271 0.082317 
188.09198 0.015621 
189.005432 0.02585 
189.091064 0.037322 
189.111862 0.141691 
189.127411 0.032667 
190.966064 0.051467 
191.106415 0.093519 
191.954788 0.017493 
191.964066 0.023334 
192.174286 0.164399 
192.254211 0.01723 
192.961578 2.601079 
193.001709 0.044777 
193.122025 0.091645 
193.235519 0.0151 
194.115646 0.057135 
194.940796 0.04332 
194.957306 0.024468 
194.999878 0.057717 
195.101059 0.082782 
195.122574 0.159517 
195.949097 0.016838 
196.956909 0.024991 
197.015045 0.256665 
197.964111 0.128104 
197.982864 0.044066 
201.123123 2.158687 
202.126694 0.178428 
202.864517 0.019302 
204.888809 0.018889 
204.961639 0.048827 
204.983185 0.025598 
205.015823 0.060343 
205.118225 0.63773 
205.969894 0.181164 
206.92543 0.032159 
206.977524 0.370521 
207.031052 0.016956 
207.122375 0.01746 
208.956223 0.207353 
208.97641 0.050952 
208.992584 0.063002 
209.964279 1.826521 
209.974442 0.022966 
210.017044 0.072028 
210.185486 0.019239 
210.79422 0.015496 
210.962296 0.022967 
210.97226 1.58828 
210.982224 0.021719 
211.14769 0.01348 
211.960617 0.06432 
211.973984 0.018468 
212.933563 0.014978 
212.970612 0.021298 
212.992126 0.019609 
213.126984 0.03217 
214.492737 0.295775 
214.499985 0.216016 
214.509109 0.183346 
214.967712 0.01894 
214.996353 0.200643 
215.02533 0.052101 
215.088821 5.373096 
215.179352 0.063886 
215.993896 0.143031 
216.964935 0.298893 
217.104492 0.559026 
219.133667 1.236612 
219.939484 0.021739 
220.038483 0.061686 
220.135651 0.080093 
221.033569 0.019572 
221.127121 0.014832 
221.928162 0.057782 
221.939545 0.205417 
222.898453 1.309032 
223.980179 0.97496 
224.987335 0.0581 
225.010284 0.26539 
226.011398 0.019649 
226.05394 0.01615 
226.89447 0.020254 
226.966263 0.029074 
226.98555 0.04351 
227.036072 0.027626 
227.056961 0.036142 
227.974518 0.182205 
228.053406 0.016163 
228.137741 0.069398 
229.052078 0.738801 
229.122086 0.069676 
229.97261 0.078166 
230.944839 0.017665 
231.083725 0.746771 
232.132584 0.015639 
232.959656 0.931964 
233.149841 0.309107 
233.18956 0.057327 
234.975601 0.036139 
236.072632 0.035385 
236.954407 0.070225 
238.088257 0.018481 
238.216675 0.0229 
238.967545 0.027409 
239.90097 0.031373 
240.232254 0.214265 
240.26828 1.450497 
240.864014 0.01884 
240.909012 2.008767 
241.178848 0.021239 
241.217331 0.019054 
241.271912 0.192996 
241.910736 0.04935 
241.954407 0.047349 
241.990967 0.15532 
242.211166 0.127769 
242.284225 0.073871 
242.905457 0.022558 
242.980484 0.053698 
243.06575 0.036089 
243.07872 0.03993 
243.098495 0.042885 
243.133881 0.272622 
243.158966 0.195348 
244.883469 0.085502 
244.905365 0.083118 
244.996094 0.163427 
245.099991 0.019069 
246.110062 0.064095 
246.62175 0.015011 
247.062271 0.315334 
248.955017 0.590003 
249.109756 0.097974 
250.970016 0.499445 
251.046204 0.223179 
251.200134 0.26384 
251.974472 0.022168 
252.949448 0.16311 
253.002228 0.075098 
253.179703 0.017327 
254.92453 0.040713 
255.17308 0.017509 
256.226532 0.06323 
257.046143 0.019263 
257.18924 0.052584 
257.86731 0.294654 
258.856903 0.067893 
258.874786 0.148899 
258.975586 0.041139 
259.061462 0.016646 
259.114929 5.478367 
259.205872 0.017687 
259.864258 0.203092 
260.87207 0.027681 
260.990662 0.395424 
261.041321 0.042046 
261.130676 0.929423 
262.894623 0.160755 
263.90097 0.062921 
264.908966 0.201256 
264.985321 0.038041 
265.051697 0.092686 
265.087555 0.032424 
266.909241 0.03105 
266.964874 0.429228 
267.06601 0.015171 
267.8974 0.01594 
268.299683 5.307864 
268.904968 0.45835 
268.959503 0.447632 
269.302979 1.05069 
269.892914 0.048588 
270.114624 0.017765 
270.279327 0.058763 
270.901703 0.047386 
271.011597 0.088606 
271.046082 0.016749 
271.143555 0.175716 
272.127716 0.3616 
272.898315 0.038397 
273.053009 0.014848 
273.130615 0.020798 
274.914459 0.043034 
275.070618 0.102466 
275.109711 0.809772 
275.810852 0.083912 
276.194641 0.017175 
276.90976 0.020406 
277.053986 0.015075 
279.065063 0.094428 
279.895142 0.018373 
280.980438 0.017915 
281.032257 0.126446 
281.078186 0.437723 
281.119141 0.021004 
281.895508 0.043887 
281.911652 0.753609 
282.080322 0.60367 
282.112457 0.306631 
282.137512 0.461675 
282.90152 0.192542 
282.918976 0.151942 
282.9935 0.34119 
283.009979 0.024902 
283.037628 0.068733 
283.062256 0.638733 
283.080444 0.033264 
283.09845 0.072186 
283.891571 0.02888 
283.910339 0.01928 
283.945374 0.020217 
283.994385 0.019194 
284.094025 2.04627 
284.151855 0.017445 
284.294495 0.12704 
284.837036 0.022926 
284.881104 0.051298 
284.919403 0.066537 
284.988434 0.064465 
285.007416 0.01958 
285.077911 0.019363 
285.096832 0.064523 
285.113983 0.019375 
285.81485 0.031596 
285.907471 0.46728 
286.894348 0.599836 
286.915039 0.555829 
287.007721 0.017277 
287.145874 0.072232 
287.89444 0.08519 
288.912262 0.039642 
289.02243 0.033268 
289.054962 0.271905 
291.06485 0.069461 
292.072784 0.124527 
293.080475 4.535401 
297.075592 0.188418 
297.130157 0.120155 
298.312622 0.01886 
299.06134 0.302143 
299.875916 0.031014 
299.903809 0.01783 
300.012665 0.045141 
300.031006 0.017548 
300.062073 0.289217 
300.088898 0.135191 
300.108093 0.049065 
300.125488 0.566251 
300.147858 2.056074 
300.867218 0.195663 
300.930756 0.014818 
301.008911 0.018731 
301.058136 0.105628 
301.108887 0.313061 
301.127441 0.05412 
301.150665 0.224487 
301.825989 0.114249 
301.875336 0.067966 
301.901062 0.025322 
301.957672 0.267135 
302.059509 0.228873 
302.104462 2.237464 
302.846649 0.090673 
302.928589 0.052435 
303.064911 0.828197 
303.084045 0.035325 
303.1073 0.107757 
303.141113 0.630186 
304.844818 0.020715 
304.902893 0.043976 
305.044586 0.251942 
305.156799 7.245157 
306.052063 0.353064 
306.281372 0.016468 
307.064789 0.16565 
307.096222 0.024117 
308.935883 0.075464 
310.823059 0.229469 
311.830841 0.087106 
312.356873 0.013514 
312.838562 0.208514 
314.909027 0.053914 
316.120178 0.097093 
316.226135 0.042782 
317.080658 0.430803 
317.87027 0.552049 
318.158447 0.608404 
318.827637 0.22367 
319.136139 0.716 
319.155151 0.06108 
319.835968 4.15935 
319.866699 0.144877 
320.067902 0.719654 
320.83725 0.342904 
321.075409 9.674862 
322.078094 0.039357 
327.174835 0.022843 
327.229919 0.025796 
327.260803 0.017903 
327.825531 0.724616 
327.965332 0.122795 
328.833557 1.125257 
328.963257 0.077297 
329.156494 0.201707 
329.19281 1.542207 
329.838776 0.039701 
330.201874 0.197276 
331.171967 0.108836 
332.936676 0.016435 
333.075409 0.152673 
333.815247 0.374318 
333.851471 0.05791 
335.001984 0.019517 
335.090881 0.461936 
336.838409 5.846856 
337.846008 2.583633 
338.846863 0.184989 
341.914612 0.028172 
343.097198 0.087331 
343.996582 0.127711 
344.092041 0.023232 
344.221741 0.111212 
344.257751 0.020102 
344.294312 0.078824 
344.828186 0.198798 
344.975769 0.221156 
344.995758 0.025506 
345.075195 1.583363 
345.132751 0.060734 
345.241943 0.019102 
345.975677 3.945139 
346.070038 0.069081 
346.89801 0.031802 
346.973999 2.751867 
346.999207 0.534314 
347.972992 0.469246 
348.006073 0.055672 
348.978668 0.0664 
349.015686 0.044594 
350.854553 0.018933 
350.946655 0.650314 
351.825745 0.309987 
351.862183 0.077862 
351.947723 0.0865 
352.830566 0.022587 
353.841492 0.028634 
354.849091 0.988298 
355.850861 0.023561 
358.108826 0.038941 
359.110657 0.04793 
359.131073 0.090514 
359.166046 0.401844 
359.203247 1.537599 
359.239471 3.033355 
359.266815 0.200852 
359.306641 0.018921 
359.370789 0.273071 
360.029327 0.641418 
360.08844 0.143116 
360.114105 0.203963 
360.140167 0.517724 
360.160034 0.269056 
360.196289 0.210672 
360.214417 0.177432 
360.24762 0.832957 
360.290771 0.195267 
360.362 9.829883 
360.838623 6.596776 
360.979645 0.016987 
361.026123 0.319914 
361.067719 6.717604 
361.119629 0.05712 
361.144135 1.739848 
361.181732 3.669522 
361.218018 3.608473 
361.237366 4.968913 
361.321716 0.746906 
361.365448 2.862576 
361.840485 0.91748 
362.023438 0.021788 
362.071136 1.436902 
362.101685 0.530801 
362.148804 0.216917 
362.189392 0.944268 
362.23526 2.251752 
362.268585 0.48873 
362.303802 0.293873 
362.325684 0.474697 
362.368469 0.250639 
362.839325 0.026611 
363.087006 7.575107 
363.107361 0.225632 
363.161713 100.0 
363.196838 4.523486 
363.262665 0.969365 
365.009918 0.054871 
367.841553 0.054869 
368.842987 0.023072 
369.004974 0.183559 
369.836243 6.543033 
370.838196 0.674821 
371.838684 0.063556 
378.84906 1.794702 
379.850769 0.13464 
383.851562 0.307632 
387.846893 2.374755 
388.848114 0.170288 
END IONS

