BEGIN IONS
TITLE=Scan Number: 2704
PEPMASS=397.08899
CHARGE=1+
COMPOUNDNAME=Clavulanic acid
LIBRARYQUALITY=3
SMILES=C1[C@@H]2N(C1=O)[C@H](/C(=C/CO)/O2)C(=O)O
INCHIKEY=HZZVJAQRINQKSD-PBFISZAISA-N
INCHI=
MSLEVEL=2
SOURCE_INSTRUMENT=LC-ESI-Orbitrap
FILENAME=f.ktahlan/KT-1/MUN/Methanol/SC/1 SC on SA meth-neg.mzXML;
SEQ=*..*
NOTES=
IONMODE=Negative
ORGANISM=GNPS-LIBRARY
NAME=Clavulanic acid 2M-H
SPECTRUMID=CCMSLIB00005435928
ACTIVATION=CID
INSTRUMENT=ion trap
SCANS=2704
70.03035 1942.999268 
71.014 6546.636719 
71.050453 5207.697266 
72.009293 1490.32605 
72.045746 5793.913574 
73.029846 15212.236328 
80.02713 1339.893066 
80.050972 16532.527344 
81.022408 12538.261719 
81.035065 102423.75 
82.030327 609987.375 
82.066719 1533.506104 
83.050705 19549.560547 
84.009705 17503.970703 
84.046051 61254.898438 
85.030037 83052.234375 
85.035172 2848.500977 
85.271446 1249.201416 
87.882355 1796.754517 
92.051308 99425.710938 
93.035393 9633.634766 
94.030655 228749.734375 
94.16626 1539.17334 
95.014763 23486.916016 
96.009872 2416.026123 
96.04631 9764.172852 
96.317497 1231.565918 
96.581261 1638.05481 
98.025551 1496.925171 
98.062012 31794.400391 
99.046181 9608.042969 
106.030907 3013.1604 
107.038895 63906.808594 
108.046692 1772712.625 
109.018723 18701.962891 
109.030655 42572.984375 
110.026001 63653.339844 
110.06237 83268.484375 
111.046486 30076.109375 
112.041695 501167.0 
112.07814 6610.948242 
119.087418 1996.331909 
122.025391 10891.99707 
124.040924 143721.203125 
126.056648 107546.757812 
126.066299 2298.776367 
127.040337 2106.676758 
134.025101 22343.832031 
135.08197 6600.970703 
136.04039 2036895.125 
137.097183 141536.875 
139.027328 8893.397461 
152.034866 13978.302734 
154.050446 18574.039062 
154.123596 15327.457031 
155.106995 6115.265625 
168.028732 15324.993164 
176.51265 1824.862183 
181.085037 32737.003906 
198.039459 305960.5625 
198.112137 525423.125 
199.096817 10658.155273 
211.329849 1620.766235 
356.293762 1393.890015 
388.307648 1542.670288 
397.204895 1946.088379 
END IONS

