BEGIN IONS
PEPMASS=361.136
CHARGE=1+
COMPOUNDNAME=rabelomycin
LIBRARYQUALITY=3
SMILES=N/A
INCHIKEY=JJOLHRYZQSDLSA-UHFFFAOYSA-N
INCHI=InChI=1S/C19H14O6/c1-19(25)6-8-5-11(21)15-16(13(8)12(22)7-19)17(23)9-3-2-4-10(20)14(9)18(15)24/h2-5,20-21,25H,6-7H2,1H3
MSLEVEL=2
SOURCE_INSTRUMENT=N/A-Linear Ion Trap
FILENAME=library_mgf.mgf
SEQ=*..*
IONMODE=positive
ORGANISM=MONA
NAME=rabelomycin M-H
PI=MoNA
DATACOLLECTOR=MoNA:VF-NPL-LTQ000636
PUBMED=N/A
SUBMITUSER=mwang87
TAGS=
SPECTRUMID=CCMSLIB00004684883
SCANS=504
173.039993 0.856067 
184.020004 3.941752 
250.199997 1.558273 
262.100006 11.534999 
282.98999 7.839786 
290.079987 27.457594 
291.149994 9.731285 
301.170013 4.6347 
304.160004 9.442099 
305.130005 15.9905 
315.140015 23.516897 
317.130005 21.308853 
318.100006 24.34737 
327.179993 8.837536 
328.160004 21.184546 
330.179993 19.810286 
332.140015 26.452814 
333.109985 100.0 
341.170013 4.001247 
343.109985 95.389931 
346.130005 88.865822 
351.910004 3.417403 
360.149994 65.402405 
END IONS

