BEGIN IONS
PEPMASS=337.072
CHARGE=1+
COMPOUNDNAME=rabelomycin
LIBRARYQUALITY=3
SMILES=N/A
INCHIKEY=JJOLHRYZQSDLSA-UHFFFAOYSA-N
INCHI=InChI=1S/C19H14O6/c1-19(25)6-8-5-11(21)15-16(13(8)12(22)7-19)17(23)9-3-2-4-10(20)14(9)18(15)24/h2-5,20-21,25H,6-7H2,1H3
MSLEVEL=2
SOURCE_INSTRUMENT=N/A-ESI-QFT
FILENAME=library_mgf.mgf
SEQ=*..*
IONMODE=negative
ORGANISM=MONA
NAME=rabelomycin [M-H]-
PI=MoNA
DATACOLLECTOR=MoNA:VF-NPL-QEHF000942
PUBMED=N/A
SUBMITUSER=mwang87
TAGS=
SPECTRUMID=CCMSLIB00004692005
SCANS=942
50.061153 0.072335 
50.219532 0.077069 
50.305653 0.094214 
50.440052 0.091807 
50.565746 0.07407 
50.808849 0.085095 
52.193645 0.073925 
52.446243 0.069569 
52.579674 0.071891 
52.696308 0.076776 
53.000931 0.08901 
53.075352 0.102099 
53.367863 0.076954 
53.826107 0.08738 
54.066017 0.06591 
54.659943 0.074847 
54.70282 0.077731 
55.093391 0.086004 
55.241016 0.074941 
55.732304 0.060481 
55.802319 0.085388 
56.151711 0.066683 
56.93264 0.071995 
56.937862 0.07976 
57.055721 0.074094 
57.32515 0.080363 
57.456982 0.070686 
58.523319 0.08054 
59.012501 0.884099 
59.229939 0.072501 
59.953274 0.069944 
60.991951 0.085176 
61.227608 0.056556 
61.657154 0.079495 
61.791168 0.075567 
62.347481 0.09076 
62.562153 0.083503 
62.666393 0.085457 
62.700077 0.07813 
63.038784 0.066187 
63.595367 0.073879 
64.111877 0.067407 
64.706367 0.092528 
64.953583 0.081559 
65.197266 0.084526 
65.899925 0.085423 
66.056152 0.075463 
66.081749 0.087972 
68.102905 0.075815 
68.287964 0.077973 
68.454887 0.067481 
69.405495 0.077351 
69.7939 0.084737 
70.502441 0.076794 
71.2575 0.076502 
71.938263 0.075163 
73.299355 0.088448 
73.391495 0.080441 
73.508713 0.085105 
73.538872 0.073814 
73.63343 0.075862 
75.867699 0.082771 
77.611763 0.073389 
77.664841 0.091179 
78.466202 0.092356 
79.157265 0.097524 
79.475243 0.091848 
79.526421 0.07011 
79.956078 0.381204 
80.620667 0.093709 
81.816673 0.084467 
82.263519 0.09091 
83.087975 0.087343 
83.094574 0.077179 
87.321404 0.08709 
87.675453 0.074979 
89.3564 0.085986 
90.878815 0.073226 
91.325409 0.083752 
92.266518 0.110774 
93.175507 0.078739 
94.308525 0.066671 
95.119591 0.100394 
95.405144 0.087043 
96.958755 2.227972 
99.0961 0.076061 
102.332718 0.086226 
102.346397 0.081381 
102.859489 0.087952 
104.743713 0.076187 
104.986992 0.069763 
105.32959 0.081799 
105.987228 0.097805 
108.558121 0.089652 
109.486038 0.071188 
110.047386 0.097343 
110.576431 0.065423 
110.950294 0.098661 
113.71711 0.066641 
116.720779 0.089585 
117.707733 0.078747 
118.187096 0.069082 
120.747246 0.066234 
120.840385 0.087881 
121.028542 0.107715 
122.663521 0.080682 
124.05233 0.095134 
125.656059 0.086303 
126.269241 0.092528 
126.350426 0.079231 
126.90992 0.079744 
128.964264 0.08954 
131.1828 0.08451 
136.358307 0.071748 
137.461548 0.077167 
139.158722 0.101828 
140.993118 0.102768 
141.570633 0.098061 
142.176895 0.090774 
144.037949 0.079661 
144.382889 0.08466 
145.035004 0.077378 
146.483154 0.104155 
148.369095 0.078294 
150.082169 0.086155 
152.438568 0.08604 
152.752655 0.087134 
153.575928 0.08097 
155.454895 0.072619 
158.501251 0.073603 
159.043594 0.086299 
160.709229 0.098531 
161.023056 0.139851 
163.112045 0.325081 
163.896103 0.100225 
164.278198 0.094252 
167.747833 0.086092 
167.857742 0.084054 
168.052185 0.088826 
170.003159 0.174364 
171.835968 0.082718 
172.243103 0.075951 
173.366409 0.090168 
177.445847 0.084921 
177.649277 0.099564 
178.682816 0.090113 
180.371307 0.071867 
183.011337 11.643999 
184.751923 0.098124 
185.025635 0.076751 
185.289032 0.084083 
192.144455 0.08778 
192.429596 0.076842 
195.044495 0.926664 
195.784088 0.091518 
196.052322 1.091563 
197.027008 4.319228 
205.73204 0.092417 
207.044647 0.136214 
207.275452 0.105314 
209.060349 1.0451 
211.039642 2.180708 
212.531097 0.083588 
213.055267 0.088134 
213.69841 0.08616 
215.823715 0.09237 
216.729004 0.085907 
220.145996 0.341968 
220.159332 0.522654 
221.060196 0.842698 
221.28746 0.095286 
222.068024 0.490729 
223.039642 2.119787 
223.076309 0.184553 
224.047546 28.206644 
224.236649 0.082454 
225.055389 14.224016 
226.058777 0.972136 
227.034485 1.689235 
228.645157 0.088007 
229.792999 0.082358 
230.024292 0.082859 
233.060532 0.195695 
234.359665 0.086391 
235.039505 0.217095 
235.182861 0.097272 
235.924026 0.108553 
237.055328 3.72323 
238.063278 9.13334 
238.81041 0.080815 
239.034698 1.612532 
239.068649 0.899866 
240.04277 1.489435 
240.887985 0.099917 
241.050308 1.249011 
246.143112 0.091497 
247.076782 1.054375 
248.047806 3.785709 
249.055496 10.31941 
250.061737 0.881921 
251.02182 0.133838 
251.034882 25.462692 
251.07106 3.886478 
252.042633 100.0 
253.033508 0.079194 
253.050446 84.363548 
254.054092 9.770653 
255.030289 0.111712 
255.066193 1.009547 
256.037567 4.777554 
257.041779 0.195809 
261.055084 0.115891 
262.062347 0.113593 
263.071014 0.202126 
265.050629 57.17218 
265.086182 1.103097 
266.058136 46.517841 
267.029785 5.022711 
267.065216 14.179332 
268.032776 0.121966 
268.069214 0.912931 
273.054413 0.100804 
273.115356 0.096723 
275.071472 1.885536 
276.042816 12.29499 
277.050568 42.367001 
277.745178 0.102168 
278.056915 14.800824 
279.029907 59.687073 
279.064758 2.061495 
280.037354 59.288624 
281.041168 9.491597 
281.419281 0.094934 
284.03302 0.573143 
286.999329 0.079575 
290.058533 1.349054 
291.066315 15.811273 
292.037781 0.414978 
292.070312 2.765469 
293.045532 67.833946 
294.050598 16.795673 
295.061279 40.933468 
296.065216 6.884617 
296.083618 0.089229 
297.077271 0.089003 
304.038116 0.239242 
305.044586 0.432048 
307.02478 2.659166 
309.076782 1.802732 
310.083984 0.093914 
319.061188 12.027641 
320.068024 7.370046 
320.295441 0.090752 
321.040588 0.59771 
321.072571 0.211765 
322.048187 29.64427 
322.06842 0.132279 
323.052399 6.31569 
329.648712 0.109554 
337.072662 0.455329 
339.198059 0.192359 
346.158417 0.094314 
360.159149 0.085619 
360.350372 0.094146 
361.819336 0.103812 
END IONS

