BEGIN IONS
TITLE=Scan Number: 1460
PEPMASS=445.104
CHARGE=1+
COMPOUNDNAME=Cephamycin C
LIBRARYQUALITY=3
SMILES=COC1(C2N(C1=O)C(=C(CS2)COC(=O)N)C(=O)O)NC(=O)CCCC(C(=O)O)N
INCHIKEY=LXWBXEWUSAABOA-UHFFFAOYSA-N
INCHI=
MSLEVEL=2
SOURCE_INSTRUMENT=LC-ESI-Orbitrap
FILENAME=f.ktahlan/KT-1/MUN/Methanol/SC/1 SC on SA meth-neg.mzXML;
SEQ=*..*
NOTES=
IONMODE=Positive
ORGANISM=GNPS-LIBRARY
NAME=Cephamycin C M-H
SPECTRUMID=CCMSLIB00005435930
ACTIVATION=CID
INSTRUMENT=ion trap
SCANS=1460
72.00943 1501.55481 
80.050941 1389.716919 
80.7258 963.512085 
83.848969 948.292603 
90.035759 2081.000488 
93.046585 6725.383301 
94.067284 1181.210693 
95.062355 5958.780762 
97.000137 5688.436035 
98.007828 12534.416992 
100.023537 7934.665527 
105.047035 7418.54248 
107.062477 11289.481445 
107.992775 1422.876831 
109.005341 1183.083008 
110.008217 1989.633423 
112.023903 23867.960938 
112.734375 1109.147339 
114.039314 1584.636719 
117.047813 1152.11853 
119.062149 1695.606445 
121.077965 6380.237305 
124.023499 4288.711914 
124.994438 1162.789185 
125.018501 4112.606445 
132.056747 983.278625 
133.041092 4176.549805 
134.024689 947.265076 
134.072311 2107.301025 
135.056793 2182.67627 
137.01799 14841.048828 
138.002335 1709.131958 
138.025696 20030.408203 
139.022995 1378.692749 
139.033585 33684.566406 
141.049515 3897.491211 
141.066818 10633.592773 
142.050827 20480.257812 
148.027756 1979.524292 
149.017349 11671.946289 
150.025284 1413.476562 
151.033157 9387.49707 
151.050812 5353.658691 
153.048599 14061.72168 
153.06665 1991.838623 
153.169144 1142.656494 
156.011932 6646.040039 
158.072235 1562.927368 
159.092117 1288.30127 
160.0513 1301.686646 
162.066437 1204.427002 
163.033661 1936.463135 
165.011536 6831.661133 
165.047958 6138.711426 
165.065277 11813.288086 
167.045441 1454.890747 
169.077423 1043.87793 
174.101837 1556.390259 
178.061462 1695.338867 
180.033844 997.554016 
180.07692 1027.72583 
182.070374 1939.378052 
183.021698 1249.194702 
183.075897 1443.972046 
184.086594 1645.065918 
186.102142 16024.134766 
192.059082 1350.995972 
193.079193 2174.800049 
197.03801 7662.641113 
202.098404 1358.998169 
203.062607 1858.304077 
205.024963 4616.885254 
208.323334 943.397034 
212.081909 7912.385742 
218.129868 1493.283447 
219.059814 1577.411377 
220.0905 48289.753906 
222.051559 4069.738281 
227.067459 1380.675537 
230.093628 6319.28418 
236.087006 1287.379028 
246.070526 19020.128906 
247.054489 1517.727173 
256.073639 1687.2677 
262.118866 1780.730103 
263.623413 967.052307 
264.081512 16416.431641 
275.041992 1200.254395 
290.060608 13245.679688 
291.045532 1970.004272 
296.107788 6575.296387 
308.072296 7518.832031 
328.001556 943.522888 
END IONS

