BEGIN IONS
PEPMASS=209.092
CHARGE=1+
COMPOUNDNAME=2,4-diacetylphloroglucinol
LIBRARYQUALITY=3
SMILES=N/A
INCHIKEY=PIFFQYJYNWXNGE-UHFFFAOYSA-N
INCHI=InChI=1S/C10H10O5/c1-4(11)8-6(13)3-7(14)9(5(2)12)10(8)15/h3,13-15H,1-2H3
MSLEVEL=2
SOURCE_INSTRUMENT=N/A-Linear Ion Trap
FILENAME=library_mgf.mgf
SEQ=*..*
IONMODE=negative
ORGANISM=MONA
NAME=2,4-diacetylphloroglucinol M-H
PI=MoNA
DATACOLLECTOR=MoNA:VF-NPL-LTQ001704
PUBMED=N/A
SUBMITUSER=mwang87
TAGS=
SPECTRUMID=CCMSLIB00004685867
SCANS=1488
123.029999 2.961214 
125.040001 2.997042 
150.970001 4.169825 
193.0 100.0 
END IONS

