BEGIN IONS
PEPMASS=455.0
CHARGE=1+
COMPOUNDNAME=Massbank:KO003960 Ribostamycin|Vistamycin
LIBRARYQUALITY=3
SMILES=NC[C@@H](O1)[C@@H](O)[C@H](O)[C@@H](N)[C@H]1O[C@H]([C@@H](N)2)[C@H](O[C@H](O3)[C@H](O)[C@H](O)[C@@H](CO)3)[C@@H](O)[C@H](N)C2
INCHIKEY=NSKGQURZWSPSBC-VVPCINPTSA-N
INCHI=1S/C17H34N4O10/c18-2-6-10(24)12(26)8(21)16(28-6)30-14-5(20)1-4(19)9(23)15(14)31-17-13(27)11(25)7(3-22)29-17/h4-17,22-27H,1-3,18-21H2/t4-,5+,6-,7-,8-,9+,10-,11-,12-,13-,14-,15-,16-,17-/m1/s1
MSLEVEL=2
SOURCE_INSTRUMENT=ESI-LC-ESI-QQ
FILENAME=Massbank_ESI_positive_8_1_2014_peaks.mgf
SEQ=*..*
IONMODE=Positive
ORGANISM=MASSBANK
NAME=Massbank:KO003960 Ribostamycin|Vistamycin [M+H]+
PI=Putative Massbank Match
DATACOLLECTOR=Massbank
PUBMED=N/A
SUBMITUSER=mwang87
TAGS=
SPECTRUMID=CCMSLIB00000220436
SCANS=9752
73.1 64356.5 
80.0 158416.0 
81.8 24752.5 
83.1 14851.5 
84.4 54455.5 
84.9 24752.5 
95.9 79208.0 
97.0 59406.0 
97.9 113861.5 
101.7 173267.5 
110.1 39604.0 
113.9 757426.5 
143.3 272277.5 
144.8 212871.5 
161.0 945545.5 
163.3 4094063.5 
169.4 14851.5 
173.2 74257.5 
187.2 108911.0 
205.4 113861.5 
209.1 64356.5 
229.5 19802.0 
239.5 39604.0 
240.9 29703.0 
241.6 19802.0 
259.6 168317.0 
261.9 49505.0 
288.8 29703.0 
291.0 19802.0 
END IONS

