BEGIN IONS
PEPMASS=528.38
CHARGE=1+
COMPOUNDNAME=Massbank:CA000065 Isorenieratene
LIBRARYQUALITY=3
SMILES=c(c1C)(c(C=CC(=CC=CC(C)=CC=CC=C(C)C=CC=C(C=Cc(c2C)c(ccc2C)C)C)C)c(cc1)C)C
INCHIKEY=ZCIHMQAPACOQHT-UHFFFAOYSA-N
INCHI=1S/C40H48/c1-29(17-13-19-31(3)21-27-39-35(7)25-23-33(5)37(39)9)15-11-12-16-30(2)18-14-20-32(4)22-28-40-36(8)26-24-34(6)38(40)10/h11-28H,1-10H3/b12-11+,17-13+,18-14+,27-21+,28-22+,29-15+,30-16+,31-19+,32-20+
MSLEVEL=2
SOURCE_INSTRUMENT=ESI-FAB-EBEB
FILENAME=Massbank_ESI_positive_8_1_2014_peaks.mgf
SEQ=*..*
IONMODE=Positive
ORGANISM=MASSBANK
NAME=Massbank:CA000065 Isorenieratene [M]+*
PI=Putative Massbank Match
DATACOLLECTOR=Massbank
PUBMED=N/A
SUBMITUSER=mwang87
TAGS=
SPECTRUMID=CCMSLIB00000205512
SCANS=772
0.0545 0.01 
0.444 0.01 
1.1784 0.01 
2.5399 0.01 
4.176 0.01 
5.0456 0.01 
9.4559 0.01 
10.298 0.01 
13.0071 0.01 
14.0214 0.01 
14.591 0.02 
15.0341 0.02 
18.293 0.01 
23.9924 0.01 
25.0576 0.01 
26.0233 0.17 
27.0364 0.64 
28.0409 0.11 
29.0522 0.33 
35.7379 0.01 
36.0144 0.02 
37.0202 0.1 
38.0262 0.22 
38.7495 0.02 
39.0322 1.53 
40.0366 0.18 
41.0436 1.59 
42.0524 0.04 
43.0518 0.38 
44.6479 0.01 
48.4491 0.03 
49.0242 0.03 
50.0142 0.64 
50.5108 0.01 
51.0193 1.63 
51.645 0.02 
52.0183 0.42 
52.7015 0.01 
53.0259 1.81 
54.0367 0.04 
55.0398 2.16 
57.0468 0.06 
59.9636 0.03 
60.9828 0.1 
62.0179 0.63 
62.6827 0.02 
63.0174 1.67 
64.0198 0.28 
65.0295 2.3 
66.0385 0.17 
67.03 1.78 
68.0578 0.03 
69.0508 0.64 
70.0551 0.02 
72.1313 0.01 
73.0665 0.09 
74.0115 0.81 
74.6576 0.01 
75.0228 0.85 
75.5829 0.03 
76.0175 0.62 
76.6036 0.03 
77.029 7.75 
77.5272 0.03 
78.0249 1.53 
78.5595 0.03 
79.0376 5.05 
80.0508 0.35 
81.0409 2.29 
82.0796 0.02 
82.4347 0.02 
83.0478 0.1 
83.9686 0.02 
85.0091 0.11 
85.305 0.01 
86.0189 0.4 
87.024 0.56 
88.0219 0.32 
88.4792 0.02 
89.0378 1.43 
90.0379 0.4 
91.0522 15.46 
91.5609 0.05 
92.0531 0.9 
93.0568 5.11 
93.4922 0.03 
94.0563 0.38 
94.5071 0.04 
95.0797 1.46 
95.5558 0.01 
95.7563 0.01 
96.0578 0.08 
97.0342 0.12 
98.038 0.2 
98.4594 0.03 
99.045 0.33 
99.7231 0.01 
100.0575 0.13 
100.4302 0.01 
100.7001 0.02 
101.0388 0.5 
102.0514 1.58 
102.6027 0.05 
103.0683 3.96 
104.061 1.64 
104.608 0.08 
105.071 16.63 
106.0665 0.86 
106.3645 0.06 
107.0772 2.38 
107.4835 0.06 
108.0872 0.23 
108.7014 0.05 
109.0926 0.22 
109.9105 0.13 
110.4804 0.06 
111.0608 0.18 
111.9635 0.06 
113.0461 0.53 
113.6213 0.13 
114.0404 0.57 
115.0549 15.58 
116.0533 4.54 
117.0707 10.47 
118.0719 1.85 
119.0656 18.88 
119.6721 0.07 
120.0721 1.15 
120.4975 0.06 
121.0925 1.44 
121.9991 0.1 
122.5585 0.07 
123.0119 0.06 
123.4237 0.03 
123.7077 0.02 
124.0412 0.09 
125.0224 0.26 
125.2599 0.11 
126.0568 0.96 
127.0544 7.07 
127.4708 0.43 
128.0492 20.37 
129.0517 22.54 
130.0604 7.29 
131.0677 10.3 
132.0556 6.12 
133.0756 51.56 
134.0659 0.5 
134.9981 0.18 
136.0136 0.14 
137.0276 0.25 
138.0233 0.15 
139.051 3.14 
140.0798 1.12 
141.0605 19.07 
142.0654 15.96 
143.0686 25.97 
144.0768 9.76 
145.0845 12.87 
145.5466 0.13 
146.101 0.63 
146.5271 0.06 
147.108 1.58 
147.5319 0.11 
147.995 0.05 
148.3008 0.06 
149.1444 0.31 
150.0655 0.78 
151.08 2.29 
152.0888 8.07 
153.0893 10.63 
154.0959 4.68 
155.0968 19.98 
156.1115 18.69 
157.1127 26.3 
158.1252 13.25 
159.1358 4.84 
160.0842 0.15 
160.5599 0.06 
161.1305 0.16 
162.0816 0.27 
162.3606 0.12 
163.1058 1.45 
164.1333 1.29 
165.1046 17.06 
166.1147 6.26 
167.1123 13.0 
168.1225 4.81 
169.1229 20.99 
170.1186 10.62 
171.1269 21.45 
172.128 1.31 
173.1363 25.51 
174.1241 0.53 
175.0901 0.36 
176.1003 1.88 
177.0993 1.68 
178.0895 9.25 
179.099 15.03 
180.0998 6.48 
181.1065 13.09 
182.1217 5.54 
183.1163 12.55 
184.1248 6.05 
185.1312 2.21 
186.1448 0.23 
187.0963 0.91 
188.1417 0.56 
189.0703 4.76 
190.0994 2.15 
191.1024 7.63 
192.1006 7.37 
193.1047 14.24 
194.1066 6.8 
195.1144 11.61 
196.1213 4.78 
197.1288 11.47 
198.1649 0.73 
199.1385 5.64 
200.1193 0.83 
201.126 1.09 
202.097 5.59 
203.1073 5.74 
204.102 2.29 
205.1093 6.53 
206.1184 8.51 
207.1346 13.69 
208.1446 5.93 
209.1456 7.86 
210.1713 1.39 
210.5772 0.13 
211.1773 3.01 
212.2106 0.31 
213.0959 1.23 
214.1639 0.66 
215.1256 6.03 
216.1458 3.52 
217.1448 6.05 
218.1482 2.9 
219.1615 7.27 
220.1698 5.78 
221.1772 9.29 
222.193 2.76 
223.1929 4.63 
224.1841 0.7 
224.483 0.2 
225.2094 1.03 
226.1364 1.59 
227.1232 1.65 
228.1226 2.01 
229.1589 6.01 
230.1631 3.14 
231.1676 5.9 
232.1806 3.6 
233.1723 7.1 
234.1955 4.27 
235.1865 4.84 
236.1983 1.15 
237.2022 3.62 
238.1344 0.38 
239.1715 3.72 
240.1615 0.85 
241.1517 2.16 
242.1695 1.8 
242.605 0.13 
243.1726 4.97 
244.1802 3.11 
245.1839 5.32 
246.1894 3.75 
247.206 5.33 
248.2134 2.51 
249.2276 3.58 
250.1984 1.12 
251.2009 2.09 
252.1723 1.94 
252.6445 0.25 
253.1781 2.31 
254.1883 0.83 
255.166 2.18 
256.2028 2.19 
257.1837 3.42 
258.1964 1.69 
259.2067 3.54 
260.22 2.33 
261.2321 4.01 
262.2282 1.02 
263.245 4.59 
264.1909 0.88 
265.2097 3.04 
266.1914 1.32 
267.1978 1.96 
268.2141 1.2 
269.2004 2.41 
270.2268 1.92 
271.2287 2.81 
272.2008 1.23 
273.247 1.93 
274.2127 1.21 
275.2349 2.0 
276.2161 1.13 
277.225 2.06 
278.2423 0.74 
279.2311 1.55 
279.6001 0.14 
280.2256 0.92 
281.2254 2.2 
282.2299 1.35 
283.2345 2.46 
284.2422 1.59 
285.2501 2.17 
286.2431 0.81 
287.2665 1.68 
288.2476 0.63 
288.6689 0.05 
289.2316 1.7 
290.1994 0.56 
291.1935 0.67 
292.2221 0.55 
292.5201 0.13 
293.2001 1.17 
294.2085 0.81 
295.2089 1.85 
296.2383 1.23 
297.2213 2.11 
297.6736 0.1 
298.258 0.98 
299.2359 1.26 
300.2097 0.73 
300.6982 0.13 
301.2554 0.97 
302.2709 0.69 
303.2399 1.33 
303.6721 0.07 
304.2641 0.6 
305.1907 0.7 
306.1919 0.45 
306.6877 0.06 
307.2277 0.86 
308.2196 0.65 
309.2531 1.06 
310.255 0.74 
311.2419 1.79 
312.2194 0.68 
313.2701 1.5 
314.2204 0.6 
315.2742 1.66 
316.2979 0.91 
317.2293 1.02 
318.281 0.85 
319.2334 0.61 
320.2454 0.62 
321.2493 0.63 
322.3127 0.71 
323.2564 0.94 
324.2118 0.56 
325.2942 1.2 
326.2761 0.53 
327.2734 1.08 
328.2956 0.49 
329.3001 2.0 
330.2564 0.54 
330.6608 0.07 
331.2488 0.63 
332.2358 0.31 
333.2243 0.48 
333.6454 0.04 
334.2061 0.19 
335.2612 0.59 
335.7999 0.11 
336.322 0.29 
336.7295 0.09 
337.2683 0.53 
337.7878 0.11 
338.3018 0.41 
338.7329 0.09 
339.2691 1.05 
340.2781 0.46 
341.301 1.2 
341.706 0.09 
342.2867 0.72 
343.3112 0.44 
343.7718 0.06 
344.2724 0.17 
344.6361 0.08 
345.264 0.35 
346.2697 0.2 
347.2686 0.36 
347.7542 0.03 
348.3036 0.24 
349.2815 0.44 
350.3006 0.24 
350.8164 0.07 
351.277 0.46 
351.6518 0.08 
351.8828 0.04 
352.3738 0.3 
352.6782 0.06 
353.3062 0.64 
354.3051 0.29 
354.7632 0.06 
355.3139 1.14 
356.3145 0.61 
356.7726 0.05 
357.2833 0.32 
357.855 0.06 
358.2717 0.09 
359.3239 0.22 
360.3388 0.16 
361.2694 0.35 
362.0782 0.08 
362.3857 0.14 
363.3195 0.37 
363.8576 0.05 
364.3847 0.47 
365.327 0.37 
366.297 0.22 
367.3003 0.54 
368.3066 0.3 
369.2991 0.2 
370.2806 0.43 
371.2969 0.18 
371.9145 0.07 
372.2773 0.12 
372.7343 0.01 
373.2787 0.2 
373.8105 0.04 
374.3175 0.11 
375.3439 0.14 
375.9715 0.03 
376.3733 0.11 
376.5853 0.04 
377.2726 0.19 
378.4283 0.26 
378.7609 0.09 
379.361 0.75 
380.3021 0.17 
380.7443 0.02 
381.3611 0.63 
382.3094 0.45 
383.3576 0.42 
384.3394 0.17 
385.2644 0.13 
386.238 0.1 
386.718 0.02 
387.2922 0.09 
388.2661 0.14 
388.8141 0.05 
389.383 0.12 
389.6605 0.03 
390.0407 0.05 
390.3695 0.1 
390.7997 0.05 
391.3923 0.27 
391.7906 0.02 
392.0959 0.07 
392.4235 0.12 
392.7608 0.11 
393.3476 0.51 
394.4085 0.66 
395.331 1.39 
395.7715 0.05 
396.352 0.23 
396.9588 0.03 
397.3564 0.13 
398.3291 0.12 
399.0677 0.02 
399.428 0.19 
400.1376 0.1 
400.4951 0.1 
401.2727 0.12 
402.767 0.11 
403.3354 0.12 
403.7319 0.08 
404.4196 0.11 
404.7246 0.1 
405.2986 0.32 
406.383 0.36 
407.2858 0.58 
408.3566 0.91 
409.3621 0.31 
409.854 0.04 
410.2531 0.07 
410.5911 0.01 
411.3034 0.14 
412.1779 0.1 
412.5244 0.08 
413.3144 0.14 
413.8424 0.08 
414.3179 0.09 
414.67 0.04 
415.5003 0.24 
416.0272 0.2 
416.6524 0.41 
417.5564 0.7 
418.7267 0.82 
419.6115 0.5 
421.3382 1.14 
422.3245 0.6 
423.2109 0.15 
423.6687 0.05 
424.0377 0.05 
424.3929 0.11 
424.6232 0.04 
425.2961 0.11 
425.8761 0.02 
426.3854 0.1 
427.2693 0.16 
427.5885 0.08 
428.4268 0.1 
429.322 0.09 
429.6038 0.04 
430.2992 0.08 
431.418 0.24 
432.3218 0.43 
432.8452 0.08 
433.3548 0.35 
433.763 0.2 
434.4558 0.4 
435.3918 0.61 
436.3903 18.07 
437.2903 0.33 
438.3403 0.21 
439.2987 0.12 
440.2531 0.1 
440.4532 0.08 
440.9755 0.04 
441.2492 0.07 
441.541 0.04 
441.8689 0.1 
442.1898 0.07 
442.6067 0.06 
443.3382 0.13 
443.6808 0.05 
444.3911 0.04 
444.749 0.05 
445.2082 0.07 
445.4621 0.01 
445.8548 0.06 
446.2641 0.04 
446.4555 0.03 
447.0883 0.05 
447.5157 0.14 
447.7488 0.03 
448.3926 0.81 
449.439 1.3 
449.9303 0.05 
450.7423 0.05 
451.3488 0.09 
452.4593 0.06 
453.4144 0.14 
453.7934 0.02 
454.4181 0.07 
455.0692 0.03 
455.4108 0.03 
456.3203 0.05 
456.6188 0.05 
457.3742 0.09 
458.2116 0.01 
459.4323 0.1 
459.6101 0.05 
460.4587 0.05 
461.2921 0.04 
461.5699 0.09 
461.9339 0.05 
462.5076 0.01 
463.2452 0.04 
463.8898 0.03 
464.3525 0.04 
464.6192 0.03 
465.1333 0.08 
465.6946 0.04 
466.1573 0.04 
466.4005 0.01 
467.4232 0.13 
467.6914 0.08 
468.478 0.06 
468.692 0.03 
469.2562 0.06 
469.527 0.07 
469.8365 0.01 
470.2888 0.05 
470.59 0.1 
471.3699 0.05 
472.2443 0.03 
472.6482 0.06 
473.4338 0.09 
475.5743 0.04 
476.1935 0.05 
476.5808 0.04 
476.9431 0.03 
477.2319 0.05 
477.7429 0.04 
478.1511 0.03 
479.4632 0.05 
480.5283 0.07 
480.7963 0.03 
481.2073 0.1 
481.5295 0.13 
481.9434 0.05 
482.4475 0.16 
482.7794 0.03 
483.4225 0.28 
484.3128 0.07 
484.756 0.04 
485.4213 0.1 
486.0756 0.05 
486.5076 0.09 
487.3022 0.06 
487.6454 0.03 
488.0955 0.01 
488.5623 0.06 
488.8305 0.02 
489.3376 0.04 
490.1922 0.06 
490.4103 0.04 
490.6465 0.01 
491.3427 0.07 
491.8721 0.05 
493.5204 0.05 
493.8511 0.04 
494.496 0.12 
495.3617 0.12 
496.2297 0.12 
496.636 0.13 
497.4527 0.94 
498.44 0.72 
498.8366 0.09 
499.4635 0.27 
499.7617 0.07 
500.2415 0.06 
500.6992 0.06 
501.1832 0.02 
501.849 0.02 
502.2457 0.04 
502.7825 0.04 
503.053 0.04 
503.9574 0.07 
504.4457 0.02 
504.8147 0.04 
505.3391 0.08 
505.8455 0.08 
506.2131 0.16 
506.8471 0.19 
507.6463 0.16 
508.5884 0.3 
510.1772 0.3 
511.4054 0.57 
512.4476 2.13 
513.4677 9.93 
514.4712 0.25 
515.1458 0.06 
515.4484 0.07 
515.9647 0.14 
516.488 0.19 
519.7907 0.53 
528.384 99.96 
530.173 11.26 
531.533 3.25 
532.4305 1.33 
534.1324 0.53 
END IONS

