BEGIN IONS
TITLE=Scan Number: 263
PEPMASS=211.086
CHARGE=1+
COMPOUNDNAME=Pyocyanin
LIBRARYQUALITY=3
SMILES=CN1C2=CC=CC=C2N=C3C1=CC=CC3=O
INCHIKEY=YNCMLFHHXWETLD-UHFFFAOYSA-N
INCHI=
MSLEVEL=2
SOURCE_INSTRUMENT=LC-ESI-Orbitrap
FILENAME=f.rmenezes/MS2_spectra/030817_RM_Pyocyanin_dil1_10_1ul_ms2_2.mzXML;
SEQ=*..*
NOTES=
IONMODE=Positive
ORGANISM=GNPS-LIBRARY
NAME=Pyocyanin M+H
SPECTRUMID=CCMSLIB00004681482
ACTIVATION=CID
INSTRUMENT=ion trap
SCANS=263
60.90443 15157.90918 
63.27573 18982.833984 
63.322273 15206.464844 
64.069427 17692.916016 
66.961639 20630.804688 
72.872459 23149.478516 
73.504082 16534.013672 
74.390976 15040.533203 
74.700279 69178.195312 
74.727417 18664.240234 
84.955544 18362.589844 
87.105698 21377.863281 
87.659325 17678.396484 
96.665871 17805.636719 
109.684395 17870.474609 
111.285942 17739.929688 
132.014435 21694.007812 
133.197495 18665.894531 
159.732132 16429.275391 
164.197327 20980.214844 
168.050293 19861.208984 
168.067291 377612.0625 
168.081818 16996.0625 
169.761017 18502.056641 
170.407043 19050.466797 
181.075439 61866.863281 
182.082382 81422.476562 
183.015289 28014.476562 
183.0215 35776.730469 
183.028976 41353.375 
183.036148 47980.183594 
183.044769 46667.597656 
183.05159 69910.15625 
183.058838 59100.0625 
183.065582 61138.105469 
183.091156 10106861.0 
183.118927 62244.515625 
183.127045 64068.277344 
183.132294 61501.601562 
183.14122 42743.949219 
183.148422 40685.851562 
183.155792 38204.667969 
183.163849 30243.246094 
183.170517 34234.941406 
183.185074 38934.402344 
192.067825 26205.890625 
193.075714 148162.765625 
196.062332 2590968.5 
199.565598 17235.302734 
202.349823 16158.232422 
210.200317 24423.083984 
210.94281 50999.042969 
210.959869 69625.726562 
211.025543 72476.164062 
211.034988 126216.382812 
211.043243 128371.679688 
211.052414 90549.179688 
211.085587 15065672.0 
211.106735 52877.351562 
211.118195 93902.914062 
211.12767 114593.109375 
211.135757 124012.46875 
211.145294 89870.304688 
211.219955 99262.367188 
211.304031 32636.560547 
211.311859 21263.587891 
211.574478 20062.224609 
211.58226 19124.382812 
END IONS

