BEGIN IONS
PEPMASS=723.469
CHARGE=1+
COMPOUNDNAME=MoNA:969501 2-{6-[(2-{5`-[6-hydroxy-6-(hydroxymethyl)-3,5-dimethyltetrahydro-2h-pyran-2-yl]-2,3`-dimethyloctahydro-2,2`-bifuran-5-yl}-9-methoxy-2,4,10-trimethyl-1,6-dioxaspiro[4.5]dec-7-yl)methyl]-3-methyltetrahydro-2h-pyran-2-yl}propanoic acid
LIBRARYQUALITY=3
SMILES=N/A
INCHIKEY=DANUORFCFTYTSZ-UHFFFAOYSA-N
INCHI=InChI=1S/C40H68O11/c1-21-11-12-28(46-33(21)26(6)36(42)43)17-29-18-30(45-10)27(7)40(48-29)25(5)19-38(9,51-40)32-13-14-37(8,49-32)35-23(3)16-31(47-35)34-22(2)15-24(4)39(44,20-41)50-34/h21-35,41,44H,11-20H2,1-10H3,(H,42,43)
MSLEVEL=2
SOURCE_INSTRUMENT=LC-ESI-QFT-LC-ESI-QFT
FILENAME=output_mgf.mgf
SEQ=*..*
IONMODE=
ORGANISM=MONA
NAME=MoNA:969501 2-{6-[(2-{5`-[6-hydroxy-6-(hydroxymethyl)-3,5-dimethyltetrahydro-2h-pyran-2-yl]-2,3`-dimethyloctahydro-2,2`-bifuran-5-yl}-9-methoxy-2,4,10-trimethyl-1,6-dioxaspiro[4.5]dec-7-yl)methyl]-3-methyltetrahydro-2h-pyran-2-yl}propanoic acid [M-H]-
PI=MoNA
DATACOLLECTOR=MoNA
PUBMED=N/A
SUBMITUSER=mwang87
TAGS=
SPECTRUMID=CCMSLIB00000568533
SCANS=5784
55.0189 3.391528 
57.0346 44.687894 
58.006 7.400196 
59.0138 3.782761 
69.0346 2.703621 
71.0139 4.867056 
71.0503 11.290743 
72.0218 1.124608 
73.0296 12.111458 
79.0553 0.261668 
81.0346 2.672387 
83.0503 4.275215 
84.0217 0.379614 
85.0295 15.44678 
85.0659 3.542393 
86.0374 0.280429 
87.0451 100.0 
93.0346 0.281862 
93.071 0.878682 
94.0425 0.227768 
95.0502 3.241946 
97.0294 0.336082 
97.0658 6.690083 
98.0373 0.441429 
99.0451 12.332135 
99.0815 3.153072 
101.0608 63.252036 
105.071 0.337692 
107.0502 2.713907 
107.0865 0.298108 
109.0658 7.486606 
111.0451 3.180257 
111.0815 18.415163 
113.0609 2.997655 
113.0971 1.702894 
115.0764 0.278166 
120.058 0.388718 
121.0659 4.191698 
123.0453 0.729503 
123.0816 7.524781 
125.0608 1.184134 
125.097 4.544654 
127.0763 3.238123 
129.0558 0.708202 
129.0922 1.376946 
133.0659 0.343677 
133.1022 0.369404 
135.0816 6.910609 
136.0529 0.195201 
137.0607 1.711042 
137.097 2.386601 
138.0684 0.302685 
139.0764 3.084593 
139.1127 0.403379 
141.0921 5.511079 
143.1076 0.423196 
147.0815 0.788325 
149.0972 3.610947 
151.0765 1.977111 
151.1129 6.14615 
153.0921 9.265775 
159.1022 0.187254 
159.1174 0.337063 
161.0969 0.71713 
161.1332 0.255331 
163.1128 0.877677 
164.0842 0.225052 
165.0918 1.522957 
165.1286 1.337589 
167.1074 0.246982 
175.1125 1.491623 
177.1283 3.09093 
179.1069 0.20174 
179.1446 0.215421 
189.1282 0.192007 
191.1439 1.06644 
193.1231 0.215999 
195.1388 0.377828 
217.1596 0.313323 
219.1752 0.341313 
END IONS

