BEGIN IONS
PEPMASS=455.0
CHARGE=1+
COMPOUNDNAME=Massbank:KO003961 Ribostamycin|Vistamycin
LIBRARYQUALITY=3
SMILES=NC[C@@H](O1)[C@@H](O)[C@H](O)[C@@H](N)[C@H]1O[C@H]([C@@H](N)2)[C@H](O[C@H](O3)[C@H](O)[C@H](O)[C@@H](CO)3)[C@@H](O)[C@H](N)C2
INCHIKEY=NSKGQURZWSPSBC-VVPCINPTSA-N
INCHI=1S/C17H34N4O10/c18-2-6-10(24)12(26)8(21)16(28-6)30-14-5(20)1-4(19)9(23)15(14)31-17-13(27)11(25)7(3-22)29-17/h4-17,22-27H,1-3,18-21H2/t4-,5+,6-,7-,8-,9+,10-,11-,12-,13-,14-,15-,16-,17-/m1/s1
MSLEVEL=2
SOURCE_INSTRUMENT=ESI-LC-ESI-QQ
FILENAME=Massbank_ESI_positive_8_1_2014_peaks.mgf
SEQ=*..*
IONMODE=Positive
ORGANISM=MASSBANK
NAME=Massbank:KO003961 Ribostamycin|Vistamycin [M+H]+
PI=Putative Massbank Match
DATACOLLECTOR=Massbank
PUBMED=N/A
SUBMITUSER=mwang87
TAGS=
SPECTRUMID=CCMSLIB00000220439
SCANS=9753
55.0 19802.0 
68.0 84158.5 
72.8 54455.5 
79.8 193069.5 
81.2 19802.0 
83.4 39604.0 
84.3 118812.0 
85.3 103960.5 
95.9 94059.5 
97.9 118812.0 
102.0 351485.5 
108.0 113861.5 
109.1 54455.5 
114.0 490099.5 
126.3 44554.5 
132.1 39604.0 
143.3 54455.5 
144.9 118812.0 
146.1 64356.5 
161.1 217822.0 
163.2 1188120.0 
170.5 19802.0 
187.2 49505.0 
241.5 19802.0 
259.7 24752.5 
276.9 14851.5 
END IONS

