BEGIN IONS
TITLE=Scan Number: 1057
PEPMASS=445.203
CHARGE=0+
COMPOUNDNAME=Ambiguine_B_isonitrile
LIBRARYQUALITY=3
SMILES=C[C@]1([C@@H]2[C@]([C@H]([C@]([C@@H](C2)Cl)(C=C)C)[N+]#[C-])(c3c([nH]c4c3c1ccc4)C(C=C)(C)C)O)C
INCHIKEY=XNSXDDHLEKKURV-PJYKFWTKSA-N
INCHI=
MSLEVEL=2
SOURCE_INSTRUMENT=LC-ESI-qTof
FILENAME=f.philipwi/0_WilliamsFreshwaterCyanosStandardsConvertedTo_mzXML_v2/PW-48_P1-F-3_Ambiguine_B_isonitrile_422amu_Scan1054_1093_01_15563.mzXML;
SEQ=*..*
NOTES=
IONMODE=Positive
ORGANISM=GNPS-LIBRARY
NAME=Ambiguine_B_isonitrile M+Na
SPECTRUMID=CCMSLIB00000424897
ACTIVATION=CID
INSTRUMENT=ion trap
SCANS=1057
63.523483 28.0 
234.129059 68.0 
277.140747 80.0 
302.185028 104.0 
339.200714 68.0 
361.122162 48.0 
364.181213 36.0 
387.246857 76.0 
391.246124 56.0 
406.432861 44.0 
406.587067 36.0 
409.264984 76.0 
445.200378 136.0 
446.223419 28.0 
447.220428 64.0 
684.004822 44.0 
1174.160278 16.0 
1457.905151 16.0 
END IONS

