BEGIN IONS
TITLE=Scan Number: 165
PEPMASS=419.07199
CHARGE=1+
COMPOUNDNAME=Clavulanic Acid - Dark Web Drugs
LIBRARYQUALITY=3
SMILES=C1C2N(C1=O)C(C(=CCO)O2)C(=O)O
INCHIKEY=HZZVJAQRINQKSD-PBFISZAISA-N
INCHI=InChI=1S/C8H9NO5/c10-2-1-4-7(8(12)13)9-5(11)3-6(9)14-4/h1,6-7,10H,2-3H2,(H,12,13)/b4-1-/t6-,7-/m1/s1
MSLEVEL=2
SOURCE_INSTRUMENT=ESI-Orbitrap
FILENAME=DWDA_n_1_4_1.mzXML
SEQ=*..*
NOTES=
IONMODE=Negative
ORGANISM=GNPS-LIBRARY
NAME=Clavulanic Acid - Dark Web Drugs 2M-H+Na
SPECTRUMID=CCMSLIB00005434466
ACTIVATION=CID
INSTRUMENT=ion trap
SCANS=165
56.223854 1648.580933 
69.286934 2065.746582 
71.256279 1795.034302 
77.373779 1737.128418 
80.735023 1836.608765 
82.028114 2785.524902 
85.527863 1778.36731 
108.044449 4955.089844 
112.038979 2333.834961 
126.018707 2012.15332 
136.039169 7038.247559 
140.81485 2031.944946 
174.017578 2456.327148 
182.068558 2329.25 
204.454849 2432.197266 
205.016144 2075.118408 
220.023758 8884.287109 
264.013916 3057.390869 
380.078857 2107.114746 
387.083099 2288.326416 
END IONS

