BEGIN IONS
TITLE=Scan Number: 894
PEPMASS=305.20099
CHARGE=1+
COMPOUNDNAME=12-epi-hapalindole C isonitrile
LIBRARYQUALITY=3
SMILES=C[C@@](CC1)(C=C)[C@@H]([N+]#[C-])[C@@]([C@@H]1C(C)=C)([H])C2=CNC3=CC=CC=C32
INCHIKEY=KGWATBYKCMCFLC-ZFCZOSEKSA-N
INCHI=
MSLEVEL=2
SOURCE_INSTRUMENT=LC-ESI-qTof
FILENAME=f.philipwi/0_WilliamsFreshwaterCyanosStandardsConvertedTo_mzXML_v2/PW-40_conc_P2-B-4_12epi_hapalindole_C_isonitrile_304amu_Scan892_895_01_15668.mzXML;
SEQ=*..*
NOTES=
IONMODE=Positive
ORGANISM=GNPS-LIBRARY
NAME=12-epi-hapalindole C isonitrile M+H
SPECTRUMID=CCMSLIB00000424912
ACTIVATION=CID
INSTRUMENT=ion trap
SCANS=894
152.057556 120.0 
165.066376 76.0 
167.078995 240.0 
168.077469 284.0 
169.074753 344.0 
169.269623 56.0 
170.078293 92.0 
171.082428 108.0 
179.069382 124.0 
180.073578 96.0 
181.092514 116.0 
182.101791 76.0 
182.428818 32.0 
183.092377 56.0 
184.111588 128.0 
191.10495 80.0 
191.978363 104.0 
193.083984 76.0 
194.096542 720.0 
194.45047 44.0 
195.093231 144.0 
196.098404 156.0 
198.120987 48.0 
205.075562 124.0 
206.078476 244.0 
207.104568 116.0 
208.118591 148.0 
209.107971 52.0 
210.132401 84.0 
211.122299 200.0 
215.05838 80.0 
219.106293 176.0 
220.112228 180.0 
221.452591 36.0 
222.345169 48.0 
222.906342 40.0 
223.130264 88.0 
223.220505 112.0 
224.141785 120.0 
225.148483 84.0 
228.595367 96.0 
229.096817 132.0 
232.114243 196.0 
233.118408 68.0 
234.118286 96.0 
235.130676 104.0 
236.145309 128.0 
236.684387 32.0 
237.121704 84.0 
239.290344 24.0 
244.116608 76.0 
245.103607 48.0 
246.113754 144.0 
247.133682 48.0 
248.149948 104.0 
249.126984 88.0 
249.705734 68.0 
250.154099 560.0 
250.683777 36.0 
251.164917 80.0 
252.088623 56.0 
252.716522 36.0 
254.167694 32.0 
257.092743 52.0 
259.13623 88.0 
259.664612 24.0 
260.137329 60.0 
261.150757 88.0 
262.011871 40.0 
262.156586 416.0 
263.166626 76.0 
264.089966 44.0 
264.176392 196.0 
265.10611 80.0 
266.113831 84.0 
273.137115 148.0 
275.026154 32.0 
275.174164 56.0 
276.176117 224.0 
277.16571 100.0 
278.187164 504.0 
278.773438 44.0 
279.191254 176.0 
280.155853 28.0 
287.177185 92.0 
288.171844 168.0 
289.174286 200.0 
290.18811 92.0 
293.149231 68.0 
296.070557 48.0 
297.135437 100.0 
299.414337 44.0 
303.720459 32.0 
304.305908 248.0 
304.476349 32.0 
304.787872 32.0 
304.954834 36.0 
305.200073 2208.0 
306.2052 572.0 
306.883667 32.0 
307.207581 80.0 
307.766479 32.0 
308.153107 240.0 
314.569336 40.0 
329.403961 36.0 
334.082916 40.0 
334.199432 100.0 
339.957458 128.0 
348.151245 64.0 
360.075287 96.0 
413.200562 120.0 
527.015259 60.0 
603.271667 64.0 
END IONS

