BEGIN IONS
PEPMASS=260.114
CHARGE=1+
COMPOUNDNAME=Lotaustralin
LIBRARYQUALITY=3
SMILES=N/A
INCHIKEY=WEWBWVMTOYUPHH-GXUZYPEDSA-N
INCHI=InChI=1S/C11H19NO6/c1-3-11(2,5-12)18-10-9(16)8(15)7(14)6(4-13)17-10/h6-10,13-16H,3-4H2,1-2H3/t6-,7-,8+,9-,10+,11?/m1/s1
MSLEVEL=2
SOURCE_INSTRUMENT=N/A-ESI-QFT
FILENAME=library_mgf.mgf
SEQ=*..*
IONMODE=negative
ORGANISM=MONA
NAME=Lotaustralin [M-H]-
PI=MoNA
DATACOLLECTOR=MoNA:VF-NPL-QEHF007862
PUBMED=N/A
SUBMITUSER=mwang87
TAGS=
SPECTRUMID=CCMSLIB00004698925
SCANS=7862
50.274078 0.030666 
51.747482 0.023083 
51.933231 0.032805 
52.739326 0.024051 
52.825817 0.033136 
54.991875 0.041016 
55.017494 5.459892 
56.020844 0.0664 
56.188763 0.027183 
56.996727 0.041057 
57.033134 4.922472 
58.004593 0.867061 
58.036549 0.028608 
58.257473 0.03031 
59.003155 0.073835 
59.004631 0.251748 
59.012394 62.262611 
59.020763 0.383269 
59.566307 0.024718 
59.60096 0.028809 
60.015766 1.380647 
60.112331 0.024771 
60.949959 0.028404 
61.805191 0.023998 
61.851097 0.026541 
61.986931 3.482309 
62.020168 0.024035 
62.87112 0.025872 
63.776001 0.028728 
63.96117 0.036652 
65.075012 0.028714 
65.108536 0.034902 
65.367378 0.028286 
65.470993 0.032069 
66.147415 0.03193 
66.215126 0.028227 
66.429359 0.02704 
68.012733 0.346582 
68.996941 0.040785 
69.033142 0.616938 
69.052803 0.02942 
69.219894 0.02709 
70.028419 0.195148 
70.366272 0.024658 
71.002258 0.268704 
71.012428 100.0 
71.023575 0.673115 
71.268776 0.029471 
71.296959 0.032947 
72.015778 3.04652 
72.516312 0.027191 
72.807953 0.02731 
72.991692 1.999004 
73.016785 0.035941 
73.028069 26.136444 
73.039841 0.034525 
73.322014 0.032677 
74.023346 0.069887 
74.031425 0.614594 
74.173714 0.028727 
74.860374 0.034826 
75.007339 1.980868 
76.010757 0.025519 
76.713699 0.024381 
78.984566 0.265603 
79.407646 0.028608 
79.955963 1.918089 
80.963768 1.274076 
81.033203 0.029767 
83.012444 10.607156 
83.320564 0.035358 
83.536469 0.03366 
83.760826 0.028913 
84.01577 0.142627 
84.020271 0.235865 
84.220726 0.027636 
85.014267 0.057088 
85.028084 50.548508 
85.042656 0.169704 
85.395203 0.031723 
86.031487 1.80363 
86.427071 0.032233 
86.764938 0.026721 
87.007324 2.740505 
88.010696 0.034257 
89.023003 9.735747 
90.026436 0.029347 
92.285698 0.02686 
92.41053 0.040564 
93.060791 0.03066 
94.91127 0.031081 
94.961388 0.026191 
94.979424 0.686682 
94.989159 1.424053 
95.012428 9.532675 
96.01577 0.152224 
96.355263 0.032693 
96.958694 1.08388 
96.986244 0.254283 
97.028175 1.277521 
98.191338 0.025693 
99.00737 7.86568 
99.043892 0.030163 
99.292664 0.043044 
99.732346 0.038395 
100.011147 0.038296 
100.083656 0.033418 
101.005699 0.027051 
101.023041 31.753569 
101.059494 0.029544 
102.019005 0.029211 
102.026459 1.293685 
104.486069 0.025955 
113.023056 29.840925 
113.059723 0.02664 
113.832283 0.042406 
114.026489 1.450784 
114.513779 0.031465 
118.940689 0.188327 
119.033676 1.405836 
119.94574 0.167762 
120.077583 0.027563 
120.840622 0.029317 
121.028793 0.027256 
121.836365 0.037844 
122.747932 0.027741 
123.30114 0.031317 
124.88987 0.041886 
124.999855 0.253069 
125.023186 1.021327 
125.096062 0.856299 
126.44297 0.03994 
126.99736 0.036869 
128.440491 0.032493 
128.506424 0.029903 
128.632385 0.031844 
129.018127 0.425589 
131.081619 0.029436 
131.923874 0.029421 
132.213531 0.038245 
132.527649 0.029248 
133.29924 0.036161 
134.245468 0.028347 
136.180008 0.030534 
138.969376 0.076323 
139.002777 0.034656 
139.280579 0.032105 
143.033936 0.158096 
146.727646 0.029865 
151.067001 0.03862 
151.888718 0.028559 
152.230453 0.027271 
154.702087 0.027559 
159.028824 1.680373 
160.032364 0.03196 
160.039185 0.082711 
161.023346 0.034648 
161.044388 3.00948 
165.552429 0.027498 
168.961533 0.028344 
169.984085 0.027371 
176.899734 0.075863 
176.993073 0.037629 
178.13414 0.028094 
179.033386 0.069036 
184.000717 3.127831 
184.504623 0.160856 
187.096848 0.249903 
193.505432 0.027018 
197.70813 0.028376 
199.019669 0.033187 
200.111954 0.024432 
202.005585 0.028909 
202.654282 0.025944 
207.09021 0.030763 
212.033401 0.026251 
214.919952 0.366938 
215.951096 0.875954 
215.962952 0.21175 
216.040207 0.029545 
217.51088 0.031134 
220.844559 0.05937 
221.841583 1.187783 
222.841995 0.294045 
223.838623 0.606248 
228.929245 0.033171 
232.073471 0.033002 
232.116211 0.031261 
233.103333 0.029079 
256.945679 0.03284 
258.242004 0.228411 
259.012573 0.03828 
259.027252 0.077213 
260.096558 0.352762 
260.875427 0.034934 
261.08786 0.076885 
261.22229 0.348106 
262.076416 0.033695 
262.095703 0.205851 
281.001129 0.033716 
END IONS

