BEGIN IONS
PEPMASS=348.168
CHARGE=1+
COMPOUNDNAME=ERGONOVINE MALEATE
LIBRARYQUALITY=3
SMILES=N/A
INCHIKEY=WVVSZNPYNCNODU-XTQGRXLLSA-N
INCHI=InChI=1S/C19H23N3O2/c1-11(10-23)21-19(24)13-6-15-14-4-3-5-16-18(14)12(8-20-16)7-17(15)22(2)9-13/h3-6,8,11,13,17,20,23H,7,9-10H2,1-2H3,(H,21,24)/t11-,13+,17+/m0/s1
MSLEVEL=2
SOURCE_INSTRUMENT=N/A-ESI-QFT
FILENAME=library_mgf.mgf
SEQ=*..*
IONMODE=positive
ORGANISM=MONA
NAME=ERGONOVINE MALEATE [M+Na]+
PI=MoNA
DATACOLLECTOR=MoNA:VF-NPL-QEHF027715
PUBMED=N/A
SUBMITUSER=mwang87
TAGS=
SPECTRUMID=CCMSLIB00004721296
SCANS=27715
50.212238 0.007978 
51.528767 0.007442 
51.656242 0.013253 
52.923435 0.012417 
54.594276 0.006965 
55.177307 0.006627 
56.055531 0.011159 
56.553272 0.010015 
56.741596 0.009807 
56.812962 0.010457 
57.348465 0.0091 
57.67297 0.009147 
57.707115 0.009026 
58.06525 0.141132 
59.375355 0.012199 
60.06794 0.00642 
60.521133 0.008797 
60.781094 0.01352 
61.010731 0.138615 
62.018585 0.077857 
62.36808 0.009673 
62.79258 0.014738 
63.344124 0.010087 
63.727066 0.008801 
64.74437 0.009112 
64.827332 0.008056 
65.450462 0.015219 
67.065079 0.008861 
67.889389 0.011396 
69.612404 0.010394 
69.701393 0.006415 
70.187553 0.013413 
73.51162 0.009297 
73.692307 0.01497 
75.80835 0.009944 
75.934074 0.011508 
78.044739 0.011958 
78.742393 0.014968 
79.021118 0.054533 
79.255577 0.014272 
79.471001 0.008917 
79.722382 0.014343 
79.862236 0.01393 
81.237923 0.009682 
81.377769 0.014717 
81.389702 0.028099 
82.13427 0.010141 
85.120735 0.04791 
85.398117 0.009576 
87.155029 0.00834 
87.162102 0.036306 
87.528954 0.014974 
87.672935 0.011177 
89.253548 0.00996 
89.572281 0.011223 
91.054008 0.022771 
91.444901 0.01527 
92.942101 0.009681 
94.603951 0.008764 
97.905617 0.012509 
98.468811 0.009154 
98.975075 0.067574 
106.222893 0.010478 
107.271202 0.009535 
107.914742 0.006611 
108.620018 0.007174 
110.316681 0.012498 
110.461296 0.012929 
113.839691 0.009597 
115.302528 0.009588 
116.638428 0.00667 
117.069756 0.028073 
117.096153 0.008321 
119.085335 0.18651 
123.055786 0.013623 
123.870728 0.007557 
124.91877 0.013536 
127.256973 0.007593 
128.35527 0.009968 
128.413971 0.007204 
128.963684 0.019061 
130.158829 0.029587 
131.8591 0.007586 
133.064499 0.183286 
133.207748 0.009689 
134.875641 0.01418 
135.154724 0.007322 
136.464127 0.009433 
137.954407 0.088399 
138.23349 0.008722 
140.125198 0.013493 
142.400604 0.01526 
142.978317 0.008124 
144.0793 0.010805 
146.956482 0.01029 
146.97403 0.078499 
152.951263 0.0476 
153.992294 0.014464 
155.965302 0.010957 
158.580048 0.014133 
160.207764 0.010722 
160.990036 0.086543 
161.086609 0.013458 
163.621765 0.008091 
163.858521 0.009159 
170.773834 0.009561 
176.240036 0.00918 
176.966919 0.036761 
179.744339 0.011396 
184.009766 0.009466 
185.877365 0.011303 
188.967789 0.01279 
189.510818 0.014211 
193.740448 0.014576 
195.959381 0.008678 
197.803925 0.014439 
199.819809 0.011479 
205.439484 0.009142 
205.875183 0.009771 
206.977386 0.187036 
207.708618 0.009325 
210.34729 0.013395 
210.466675 0.011901 
212.237442 0.064684 
213.359924 0.007158 
213.97023 0.007857 
214.602737 0.137961 
214.611786 0.173377 
214.621124 0.324966 
216.246979 0.015295 
216.316925 0.010839 
218.868042 0.019139 
219.075882 0.011225 
219.174347 2.661959 
220.17749 0.319086 
220.567307 0.009884 
220.903259 0.075588 
222.041824 0.007224 
226.764023 0.007435 
227.900116 0.204226 
230.74205 0.015413 
233.891129 0.019263 
235.891663 0.787652 
238.0047 0.013726 
238.913986 0.092891 
244.883102 0.025593 
244.903687 0.027537 
245.098831 0.008078 
245.912064 0.219696 
247.259842 0.007826 
253.902283 0.74631 
259.24823 0.008146 
259.891815 0.22674 
262.91394 0.449879 
263.158081 0.012432 
272.482269 0.016321 
274.893768 0.170784 
275.915924 0.024326 
277.902344 0.857802 
278.074707 0.007701 
278.129425 0.013246 
280.924225 0.234576 
283.988953 0.009483 
284.055969 0.010058 
286.294708 0.013475 
286.894684 0.121928 
286.912933 0.049688 
287.094116 0.475323 
287.114441 0.30786 
287.381287 0.01068 
288.925476 0.009781 
289.608276 0.010136 
289.931427 0.135477 
290.081604 0.333184 
290.924164 0.011002 
291.085724 0.029967 
291.110291 0.497681 
292.922791 0.007963 
295.91391 0.010755 
303.089081 0.5718 
304.096893 13.571644 
304.900024 0.010937 
304.924286 0.186158 
305.101318 2.383714 
305.125885 30.079197 
306.108826 0.06706 
306.129395 5.348677 
307.131805 0.208723 
308.643188 0.0099 
315.088867 3.444457 
315.177765 0.17234 
316.095856 2.025116 
316.905273 0.033915 
317.103149 0.742992 
318.076019 8.969155 
318.108093 0.018575 
319.079468 1.867097 
319.120697 0.008961 
320.091736 0.040403 
330.157349 1.068262 
331.160522 0.130868 
332.044006 0.018396 
332.091644 22.203249 
333.099243 46.348412 
334.102753 9.188484 
335.081543 0.034067 
335.105804 0.571544 
335.940582 0.010782 
346.105682 0.010145 
346.310699 0.088001 
347.102478 0.784195 
347.167419 0.272 
347.203705 0.062318 
347.314056 0.011452 
348.122864 100.0 
348.167145 23.52121 
348.326141 0.05074 
349.087158 0.023134 
349.126587 22.02747 
349.18396 39.529449 
349.248413 0.018999 
350.102295 0.218737 
350.128571 1.775191 
350.152496 0.990005 
350.187134 3.452675 
350.946899 0.132766 
356.36026 0.016588 
357.864838 0.010568 
363.120544 0.010387 
365.669891 0.011583 
374.293457 0.013936 
END IONS

