BEGIN IONS
PEPMASS=601.928
CHARGE=1+
COMPOUNDNAME=Cyclosporine (Neoral)
LIBRARYQUALITY=1
SMILES=C1(N(C)C(C(NC(C(NC(C(CC(C)C)N(C(C(NC(C(CC(C)C)N(C)C(=O)CN(C)C(C(CC)NC(C(N(C(C(N(C(=O)C(N(C)C1=O)CC(C)C)C)C(C)C)=O)C)[C@@H]([C@@H](C/C=C/C)C)O)=O)=O)=O)C(C)C)=O)C)=O)C)=O)C)=O)CC(C)C
INCHIKEY=PMATZTZNYRCHOR-KMSBSJHKSA-N
INCHI=N/A
MSLEVEL=2
SOURCE_INSTRUMENT=LC-ESI-qTof
FILENAME=Plate3_21_40_GG10_01_16499.mzXML
SEQ=*..*
IONMODE=Positive
ORGANISM=GNPS-SELLECKCHEM-FDA-PART2
NAME=Cyclosporine (Neoral) [M+2H]
PI=Dorrestein
DATACOLLECTOR=Garg_Neha
PUBMED=N/A
SUBMITUSER=negarg
TAGS=
SPECTRUMID=CCMSLIB00000078176
SCANS=3620
46.139267 184.0 
48.884129 172.0 
54.22855 216.0 
55.435566 164.0 
56.592964 148.0 
66.132011 180.0 
70.278633 224.0 
77.238777 208.0 
87.609116 172.0 
93.350433 220.0 
94.370461 152.0 
95.818336 192.0 
97.206581 164.0 
100.113441 700.0 
101.038712 168.0 
101.07473 140.0 
101.108543 192.0 
102.138023 180.0 
104.704475 228.0 
108.443588 160.0 
114.091248 456.0 
125.73452 212.0 
128.108826 160.0 
130.328491 144.0 
131.572052 156.0 
139.848465 256.0 
140.095703 164.0 
142.087952 484.0 
142.746582 184.0 
144.739059 144.0 
153.110489 164.0 
153.280472 144.0 
156.102768 384.0 
156.138657 832.0 
156.269089 180.0 
157.095993 480.0 
157.131134 176.0 
158.105637 160.0 
158.208267 148.0 
166.123016 296.0 
166.269272 260.0 
167.124969 152.0 
169.137939 144.0 
169.573074 164.0 
171.149933 604.0 
171.295776 180.0 
172.151245 172.0 
173.003616 180.0 
179.114349 240.0 
184.130341 468.0 
185.129105 208.0 
194.119141 592.0 
197.867294 196.0 
199.143661 980.0 
200.146057 500.0 
202.029648 180.0 
210.144913 696.0 
212.055191 156.0 
212.128891 524.0 
213.127197 320.0 
213.184128 184.0 
216.123444 176.0 
217.153687 204.0 
224.164032 968.0 
225.160187 152.0 
225.991669 184.0 
226.123337 172.0 
226.189194 180.0 
226.954636 116.0 
227.174667 340.0 
228.117996 164.0 
228.17511 200.0 
234.163635 256.0 
239.175873 148.0 
241.189804 712.0 
242.197021 316.0 
247.223862 180.0 
251.173187 196.0 
253.164337 168.0 
255.202988 192.0 
256.204041 256.0 
257.208527 144.0 
257.7099 148.0 
258.746155 204.0 
265.195282 192.0 
269.184784 560.0 
269.838837 216.0 
270.181824 1608.0 
271.182251 288.0 
279.195648 160.0 
283.217407 232.0 
284.190491 472.0 
285.203979 124.0 
297.221375 356.0 
298.208588 532.0 
312.235046 156.0 
313.227234 140.0 
322.214203 128.0 
323.233063 500.0 
324.231903 148.0 
326.888763 148.0 
327.201935 140.0 
340.231598 436.0 
341.229736 160.0 
347.246918 160.0 
347.755402 236.0 
354.274719 444.0 
364.254974 148.0 
368.284943 196.0 
375.196045 176.0 
379.227783 140.0 
383.265289 168.0 
397.28067 796.0 
398.281067 644.0 
399.240326 160.0 
399.282562 244.0 
408.278503 156.0 
410.340149 152.0 
411.29895 172.0 
425.310913 456.0 
425.963867 140.0 
426.318787 156.0 
444.233887 164.0 
453.303406 120.0 
453.349609 144.0 
454.314331 212.0 
466.139069 168.0 
467.341034 156.0 
467.829102 180.0 
468.33313 464.0 
468.919128 144.0 
469.341614 220.0 
469.867798 216.0 
473.256256 160.0 
478.213776 156.0 
481.378845 148.0 
481.841766 208.0 
482.345703 348.0 
489.227112 160.0 
496.352264 260.0 
497.360748 140.0 
501.443817 144.0 
506.990021 156.0 
510.360565 688.0 
510.855896 192.0 
511.361176 372.0 
512.376038 448.0 
519.166626 140.0 
524.3703 420.0 
530.889038 392.0 
531.391418 188.0 
538.369202 224.0 
538.88031 200.0 
539.389465 244.0 
545.405823 328.0 
545.878662 580.0 
546.394104 912.0 
547.412476 216.0 
548.36676 132.0 
549.362671 140.0 
549.878601 168.0 
555.094788 140.0 
566.375671 180.0 
567.39502 300.0 
580.398499 156.0 
583.735779 164.0 
585.964294 140.0 
592.907349 116.0 
592.956482 160.0 
593.421814 392.0 
593.920654 168.0 
594.424988 180.0 
595.105408 156.0 
600.360657 144.0 
601.316895 140.0 
601.470703 116.0 
601.926758 3680.0 
602.035461 212.0 
602.431274 4260.0 
602.622803 156.0 
602.929199 1472.0 
603.428711 688.0 
603.698364 120.0 
603.882507 100.0 
604.41748 168.0 
604.678467 124.0 
604.904541 172.0 
604.953491 180.0 
606.395386 184.0 
609.465576 336.0 
623.440308 152.0 
625.121033 152.0 
637.216431 236.0 
637.467896 104.0 
653.425659 168.0 
654.718506 144.0 
665.502991 176.0 
667.460693 144.0 
675.476257 320.0 
676.47937 152.0 
677.463013 140.0 
680.484558 156.0 
686.100159 168.0 
693.486023 624.0 
694.497681 704.0 
695.462952 112.0 
696.487549 144.0 
697.343994 184.0 
722.516602 204.0 
736.537415 104.0 
737.536011 140.0 
750.576355 192.0 
764.561768 204.0 
788.682983 144.0 
789.569519 100.0 
806.539062 152.0 
806.581177 496.0 
806.711243 152.0 
807.571228 292.0 
877.639771 160.0 
906.379639 168.0 
906.639771 332.0 
907.614441 260.0 
907.674377 212.0 
915.648682 108.0 
919.644775 180.0 
933.675293 212.0 
934.680115 424.0 
935.684692 208.0 
936.669006 176.0 
1089.754517 148.0 
1336.952148 164.0 
1652.425537 144.0 
1693.306152 144.0 
1727.283447 168.0 
1942.547852 144.0 
END IONS

