BEGIN IONS
PEPMASS=408.247
CHARGE=1+
COMPOUNDNAME=ACTINONIN
LIBRARYQUALITY=3
SMILES=N/A
INCHIKEY=XJLATMLVMSFZBN-VYDXJSESSA-N
INCHI=InChI=1S/C19H35N3O5/c1-4-5-6-8-14(11-16(24)21-27)18(25)20-17(13(2)3)19(26)22-10-7-9-15(22)12-23/h13-15,17,23,27H,4-12H2,1-3H3,(H,20,25)(H,21,24)/t14-,15+,17+/m1/s1
MSLEVEL=2
SOURCE_INSTRUMENT=N/A-ESI-QFT
FILENAME=library_mgf.mgf
SEQ=*..*
IONMODE=positive
ORGANISM=MONA
NAME=ACTINONIN [M+Na]+
PI=MoNA
DATACOLLECTOR=MoNA:VF-NPL-QEHF027312
PUBMED=N/A
SUBMITUSER=mwang87
TAGS=
SPECTRUMID=CCMSLIB00004720893
SCANS=27312
50.030983 5.469804 
50.170895 5.478543 
50.905682 11.694548 
51.356358 5.937922 
51.542854 2.343863 
51.933544 3.918961 
52.209251 4.505927 
52.59684 11.751592 
52.70026 12.735948 
53.667446 2.342118 
53.673573 10.842456 
54.09454 2.928553 
54.16164 5.642623 
54.278156 2.489402 
54.621178 13.047512 
54.85733 8.658167 
55.218037 9.858431 
55.59581 8.949111 
55.610371 3.264422 
55.792538 10.873182 
55.833149 5.669109 
56.680054 3.138398 
56.965034 6.825188 
57.470211 10.30231 
57.881523 11.787695 
58.008282 6.282373 
58.807549 5.906497 
59.073467 8.126369 
59.679432 2.672642 
60.027191 10.393926 
60.239311 13.200924 
60.551479 4.440762 
60.619141 10.847826 
60.957859 2.983796 
61.699646 2.489 
62.585968 10.592363 
64.207634 5.404911 
64.979713 2.896601 
65.429367 10.406942 
65.481697 10.78794 
65.573181 4.513051 
65.679588 15.2127 
65.726196 9.263208 
65.921532 4.593174 
66.309143 10.116064 
66.395607 5.969389 
67.296303 5.378816 
67.416695 8.764764 
67.828659 10.004908 
68.098846 6.207628 
68.352654 8.671745 
70.361168 2.39535 
71.437386 2.374472 
71.628761 9.290183 
72.19651 3.437331 
72.805008 9.136324 
74.029373 12.941279 
74.621422 6.179795 
77.423828 10.66577 
77.764305 5.917963 
78.384186 3.629568 
80.243446 9.573208 
80.59845 9.760068 
81.659912 9.559967 
82.586395 8.831957 
83.015556 13.147515 
83.224854 3.130608 
83.520576 11.453325 
84.08075 11.279061 
84.388535 2.322988 
84.804787 6.669525 
85.061699 5.243572 
85.396484 11.333367 
85.411201 8.63842 
86.34008 4.527699 
86.638092 5.913161 
86.686066 6.604688 
86.761124 9.042938 
87.792007 9.533342 
88.986801 14.58705 
90.190254 6.439403 
90.97905 2.510189 
92.03035 2.599405 
93.014137 5.812325 
93.21981 3.060641 
93.919968 10.823672 
94.580803 8.809171 
96.102188 2.772803 
97.273781 9.774636 
97.60627 7.648606 
97.837502 9.330967 
98.853439 3.695593 
99.193169 6.002757 
99.20871 6.307281 
99.327957 9.209097 
100.236107 6.656898 
100.981796 6.343756 
102.091133 3.452445 
102.65023 5.816985 
102.958527 10.698427 
103.48111 5.638713 
103.773201 9.45226 
103.936005 6.152393 
104.182053 6.72289 
106.444016 6.294716 
107.301758 3.118908 
108.106598 6.422177 
108.531425 6.81895 
110.008728 4.358283 
112.075569 6.383311 
113.246536 8.455942 
113.668205 11.537289 
115.052353 2.716065 
116.875305 6.840157 
117.47805 5.91893 
117.749489 9.628749 
119.785698 2.733592 
121.363457 5.974073 
122.243469 13.435755 
125.799637 3.489456 
128.602951 4.277239 
131.230652 2.449349 
132.605682 6.793754 
134.49472 5.792186 
134.794174 8.857255 
135.835251 12.775898 
135.894791 3.016684 
136.516373 6.83017 
137.345581 11.262642 
137.548859 4.455455 
138.362427 8.376855 
139.141617 9.311144 
139.31282 8.800037 
139.41153 10.595728 
139.803116 6.248823 
140.850098 2.421531 
144.083862 14.042917 
146.117981 13.708725 
146.187485 4.34105 
147.930161 8.620742 
147.976181 2.638344 
148.740021 15.013689 
150.461075 9.71788 
150.510101 6.699122 
150.892105 10.837156 
152.688187 3.295993 
153.632904 3.671775 
155.059677 3.768637 
155.137543 10.535104 
156.960815 9.716491 
163.885254 13.887263 
164.355057 4.229686 
167.663162 6.007789 
172.417526 6.124248 
173.075104 9.43189 
175.46228 11.090887 
176.24855 3.442596 
176.649841 5.977788 
178.941055 5.97325 
182.792465 4.832823 
185.427673 8.390985 
186.940094 6.225913 
190.46553 8.185538 
193.675644 2.539688 
197.177139 14.332803 
198.838242 14.104221 
199.345016 13.850739 
200.774261 7.537116 
211.644745 5.36906 
213.187485 4.814515 
213.663315 2.970721 
216.494553 10.951418 
217.395477 6.947793 
219.687271 100.0 
223.150314 9.483498 
226.886261 3.383208 
227.593811 9.372968 
229.451996 3.615076 
233.630508 2.976698 
237.636475 9.594069 
244.059219 2.864194 
246.789795 8.618066 
246.98465 3.038781 
248.873215 11.027678 
248.909256 9.591524 
250.445023 11.064241 
253.528671 10.550483 
254.502716 6.712002 
255.681274 10.71874 
258.229095 6.496579 
258.74884 10.853904 
259.979706 8.231938 
267.442566 2.611227 
267.88916 9.222729 
276.921326 9.31163 
279.592621 8.48381 
283.900146 10.003586 
285.132599 7.637638 
291.369263 2.622599 
292.983948 9.606163 
293.264648 9.222978 
297.183929 14.83998 
299.518616 6.622077 
303.515839 10.327996 
309.379639 11.148723 
321.69986 9.731944 
326.164246 9.764364 
326.398682 2.821442 
339.642059 12.010979 
345.427338 19.294764 
350.403595 7.327951 
367.326843 6.710111 
371.525146 7.032022 
378.884125 13.355394 
399.061798 3.386059 
401.119629 2.792003 
405.202698 8.53703 
414.396576 14.875874 
419.171661 7.107313 
419.203918 6.963981 
424.098969 2.760962 
429.313263 2.876188 
430.67868 11.968772 
434.762634 3.131923 
END IONS

