BEGIN IONS
PEPMASS=546.315
CHARGE=1+
COMPOUNDNAME=(2E,6E,11E)-18-(2,6-dioxopiperidin-4-yl)-9,13-dihydroxy-8-methoxy-10,12,14-trimethyl-15-oxooctadeca-2,6,11-trienoic acid
LIBRARYQUALITY=3
SMILES=N/A
INCHIKEY=HJCZOTBHYAPUHT-XHOLQODBSA-N
INCHI=InChI=1S/C27H41NO8/c1-17(14-18(2)27(35)22(36-4)12-7-5-6-8-13-25(32)33)26(34)19(3)21(29)11-9-10-20-15-23(30)28-24(31)16-20/h7-8,12-14,18-20,22,26-27,34-35H,5-6,9-11,15-16H2,1-4H3,(H,32,33)(H,28,30,31)/b12-7+,13-8+,17-14+
MSLEVEL=2
SOURCE_INSTRUMENT=N/A-Linear Ion Trap
FILENAME=library_mgf.mgf
SEQ=*..*
IONMODE=positive
ORGANISM=MONA
NAME=(2E,6E,11E)-18-(2,6-dioxopiperidin-4-yl)-9,13-dihydroxy-8-methoxy-10,12,14-trimethyl-15-oxooctadeca-2,6,11-trienoic acid M-H
PI=MoNA
DATACOLLECTOR=MoNA:VF-NPL-LTQ000930
PUBMED=N/A
SUBMITUSER=mwang87
TAGS=
SPECTRUMID=CCMSLIB00004685156
SCANS=777
186.899994 20.192991 
187.029999 26.19062 
204.020004 7.656513 
214.089996 9.236385 
231.970001 66.974304 
236.940002 61.235275 
285.200012 100.0 
330.100006 76.039024 
333.130005 18.492315 
348.190002 32.142769 
447.609985 18.226076 
527.299988 22.211681 
END IONS

