BEGIN IONS
PEPMASS=212.98
CHARGE=1+
COMPOUNDNAME=Aconitic Acid
LIBRARYQUALITY=3
SMILES=N/A
INCHIKEY=GTZCVFVGUGFEME-IWQZZHSRSA-N
INCHI=InChI=1S/C6H6O6/c7-4(8)1-3(6(11)12)2-5(9)10/h1H,2H2,(H,7,8)(H,9,10)(H,11,12)/b3-1-
MSLEVEL=2
SOURCE_INSTRUMENT=N/A-ESI-QFT
FILENAME=library_mgf.mgf
SEQ=*..*
IONMODE=positive
ORGANISM=MONA
NAME=Aconitic Acid [M+K]+
PI=MoNA
DATACOLLECTOR=MoNA:VF-NPL-QEHF026294
PUBMED=N/A
SUBMITUSER=mwang87
TAGS=
SPECTRUMID=CCMSLIB00004717357
SCANS=26294
51.245796 0.013404 
51.940361 0.396658 
52.508167 0.013012 
53.00256 0.111142 
53.038883 0.040233 
53.041023 0.013561 
53.097523 0.011466 
53.674915 0.016508 
53.910511 0.00765 
54.291023 0.010348 
54.67712 0.014708 
54.830231 0.011611 
55.018227 0.173596 
55.054558 4.416482 
55.934738 0.077726 
56.049831 0.575796 
56.057972 0.062678 
56.592426 0.010679 
56.96508 2.204014 
57.030121 0.014877 
57.033848 0.277636 
57.070187 8.534455 
57.216225 0.010732 
57.848419 0.012865 
57.91011 0.011205 
57.935078 7.418428 
57.988766 0.01323 
58.065418 2.118262 
58.312592 0.015757 
58.352718 0.010021 
58.825867 0.009949 
58.933006 0.063915 
58.980129 0.01603 
58.998119 0.165004 
59.049442 0.024864 
59.437904 0.010568 
59.940807 0.032286 
60.171898 0.011877 
60.66526 0.015058 
60.798077 0.011431 
61.010899 5.764644 
61.039894 0.12803 
62.014179 0.019622 
62.018692 2.194484 
62.648491 0.013335 
62.667297 0.010574 
63.000244 0.012031 
63.006691 0.042032 
63.62661 0.012491 
63.830662 0.015534 
63.998089 0.017826 
64.014374 0.012835 
66.107185 0.0148 
67.05439 6.238715 
67.935074 0.025568 
68.057732 0.08781 
68.093452 0.011477 
68.229599 0.011901 
69.0336 0.057412 
69.070007 5.385218 
70.065269 0.778564 
70.067184 0.010814 
70.07341 0.099387 
70.172836 0.016478 
70.957993 0.055394 
70.997902 0.064332 
71.04924 1.271271 
71.060486 1.35648 
71.085625 4.467523 
71.187363 0.01608 
71.929413 0.097334 
72.044464 0.030937 
72.080879 0.204734 
72.937256 0.121425 
72.958374 0.755611 
73.109055 0.010953 
73.209389 0.016314 
73.929787 1.152415 
73.956223 0.075849 
74.060295 0.043741 
74.07225 0.010466 
74.562111 0.009895 
75.014938 0.012784 
75.048508 0.016499 
75.935287 0.014031 
75.945374 3.099097 
77.005867 0.013561 
77.00843 0.301489 
77.61348 0.012489 
79.018768 0.009901 
79.021286 4.765822 
79.054291 1.39885 
80.05526 0.015478 
80.562599 0.014841 
81.017197 0.017549 
81.069931 8.471568 
82.065239 0.076175 
82.073296 0.305202 
83.049232 0.395015 
83.085548 4.709693 
83.95578 0.009535 
84.044624 0.03137 
84.080841 0.322718 
84.088974 0.160795 
84.268921 0.010006 
84.278481 0.010283 
85.039612 0.037105 
85.06488 1.449939 
85.101257 1.859397 
86.060112 0.16657 
86.096474 0.200319 
87.05542 0.012888 
88.075775 0.287575 
89.008392 0.079731 
89.93988 0.014083 
89.957687 0.013227 
90.947777 0.279459 
90.968925 0.09793 
91.054314 1.527016 
91.471817 0.01241 
91.912666 0.022485 
91.922844 0.012009 
91.940292 0.035721 
92.69973 0.013057 
92.938232 0.093609 
92.945198 0.016598 
93.069977 2.658788 
93.956009 3.752205 
94.065193 0.373943 
94.073402 0.102888 
94.167427 0.00797 
95.049232 0.29005 
95.085556 14.660592 
95.416672 0.010616 
96.080864 0.126564 
96.088913 0.612824 
96.775955 0.015284 
97.06485 1.754568 
97.10125 1.362069 
98.060143 0.262502 
98.068283 0.010887 
98.096436 0.06192 
98.468491 0.012488 
98.975426 0.537029 
98.984268 1.906509 
99.044128 0.040839 
99.080536 0.321865 
99.458565 0.010666 
100.075714 0.267239 
100.111771 0.018402 
100.65152 0.01237 
100.823807 0.013014 
101.059845 0.00801 
101.950005 1.034614 
101.961159 0.047601 
102.305061 0.012639 
102.369583 0.013354 
102.748764 0.010576 
102.914734 0.281013 
102.968391 0.373467 
103.039001 0.011202 
103.653366 0.015644 
103.922523 0.012113 
103.951324 0.013677 
103.955032 0.017706 
103.97673 0.306888 
104.930504 0.365426 
105.069954 1.140986 
105.917061 0.045257 
105.928268 0.1648 
105.956207 0.038841 
106.857285 0.011895 
107.085594 2.001793 
107.089531 0.009914 
107.816124 0.016304 
107.917816 0.012811 
107.971611 0.040691 
108.044456 0.031784 
108.08091 0.038517 
108.089005 0.095655 
108.979408 0.115609 
109.064873 0.318148 
109.101234 4.536798 
109.923157 0.018903 
109.933548 0.018249 
110.096489 0.181999 
110.1045 0.191799 
111.044151 0.014951 
111.080482 0.796597 
111.116936 0.013229 
111.291801 0.011344 
112.908417 0.014293 
113.045769 0.018681 
113.059692 0.017132 
113.095955 0.0166 
113.277267 0.011833 
114.091499 0.205717 
114.102631 0.41713 
114.985909 0.010488 
116.071152 0.012919 
116.985985 0.44583 
118.601334 0.011899 
118.924866 0.075838 
118.942551 0.013965 
119.001251 0.894984 
119.06044 0.395667 
119.085625 1.73305 
119.917572 0.227119 
119.950638 0.012991 
119.960442 0.325125 
120.002083 0.017685 
120.088882 0.035996 
120.526184 0.014733 
120.788811 0.01274 
120.925453 0.531176 
120.940605 0.348355 
120.978912 0.396228 
121.101234 0.794042 
121.485985 0.012219 
121.923454 0.010454 
121.933121 0.693575 
122.096268 0.013195 
122.931023 0.094261 
122.94091 4.309961 
122.975304 0.017898 
123.080452 0.33361 
123.116791 0.263583 
123.91243 0.279621 
123.938828 1.693857 
123.948769 1.152762 
124.075752 0.121691 
124.112114 0.061248 
124.936371 0.269293 
125.096046 0.203169 
125.96138 0.011955 
126.389084 0.012894 
127.575066 0.220208 
128.076645 0.026342 
128.106674 0.01431 
128.814392 0.011511 
131.085419 0.025937 
131.410248 0.008442 
133.101196 1.690323 
133.763565 0.011023 
134.022369 0.012682 
134.104401 0.027636 
134.940903 0.13372 
134.956116 1.105571 
134.978699 0.525444 
134.996429 0.126553 
135.080475 0.028571 
135.11676 0.845198 
135.927704 0.042511 
135.939087 0.014299 
135.94873 2.51616 
135.956314 0.153196 
136.509766 0.012163 
136.580383 1.224694 
136.920319 0.263981 
136.935486 0.047128 
136.956757 0.265163 
137.01178 7.77134 
137.082108 0.020315 
137.096222 0.315479 
137.132507 0.093555 
137.918686 0.025514 
137.92807 12.608216 
137.954544 1.136912 
137.964478 1.873231 
137.970505 0.187028 
138.012558 0.982593 
138.926193 0.022281 
138.935852 2.51251 
138.951218 0.168719 
138.962296 0.272872 
138.989456 0.09692 
139.009003 0.605759 
139.111938 0.012945 
139.545197 0.017605 
139.797287 0.015483 
139.92308 0.008708 
140.071442 0.014595 
140.106705 0.026111 
140.931168 0.012511 
140.951447 0.408549 
140.985855 0.383512 
141.000412 0.039404 
141.040787 0.016669 
141.923111 0.153092 
141.949493 0.393254 
142.086288 1.270552 
142.580353 0.078552 
143.019058 0.129284 
143.081482 0.019106 
143.090042 0.011592 
145.034668 0.016513 
145.585663 0.398298 
145.718689 0.0145 
146.194427 0.012126 
147.099152 0.016274 
147.116989 0.308072 
148.518723 0.017066 
148.956711 0.013006 
148.971909 0.688346 
149.132523 0.893708 
149.792114 0.011984 
150.010712 0.011937 
150.13588 0.01435 
150.578491 0.011982 
150.703766 0.017534 
150.951202 1.535553 
150.972214 2.142873 
151.027405 0.014932 
151.111679 0.275093 
151.148178 0.14926 
151.58551 0.230073 
151.943893 0.176079 
151.958984 0.016914 
151.998871 0.318989 
152.05632 0.009181 
152.070251 0.014771 
152.10672 0.070165 
152.143127 0.028365 
152.435806 0.012002 
152.951508 11.452008 
152.966812 0.597587 
152.989334 0.253959 
153.126328 0.014125 
153.959305 100.0 
154.085922 0.013398 
154.122635 0.483834 
154.762024 0.01436 
154.941208 0.020493 
154.947067 0.045798 
154.956741 0.054524 
154.96286 0.872934 
154.977859 0.762881 
155.022247 3.59997 
155.02858 0.019719 
155.10672 0.033956 
155.928238 0.028406 
155.954788 0.09524 
155.964798 0.856826 
156.023209 0.332088 
156.946396 3.50355 
157.019547 0.213225 
157.085632 0.017399 
158.996445 0.714929 
159.689331 0.016074 
160.590912 0.015439 
161.012054 0.011045 
161.029465 0.046298 
161.132462 0.64284 
161.205917 0.016136 
163.046494 0.011748 
163.954819 0.295403 
166.159088 0.28373 
166.942093 0.131187 
166.966919 0.278431 
167.920898 0.092752 
167.938599 0.825106 
167.975052 1.919243 
168.138474 0.038753 
168.918961 0.012344 
168.936142 0.017703 
168.9617 0.409601 
168.982773 6.446523 
169.096909 0.047563 
169.917908 1.371567 
169.944489 0.384764 
169.954086 0.212901 
170.041016 0.016041 
170.153976 0.01488 
170.952988 0.228376 
170.962143 4.874224 
171.959717 0.175786 
172.923523 0.01492 
172.952225 0.058213 
172.98851 0.939713 
174.579575 0.111855 
175.148331 0.500578 
175.587433 0.033892 
176.152054 0.027375 
176.975433 0.072005 
177.007538 0.040011 
177.127823 0.012069 
178.978592 0.058879 
179.143066 0.024089 
180.102203 0.012833 
180.928619 0.845312 
180.943726 0.085874 
180.962234 0.017173 
181.926498 0.166721 
182.081955 0.016085 
182.153763 0.012265 
182.924103 0.037557 
182.944305 0.800938 
183.942337 1.059214 
184.940399 0.01368 
185.949188 32.998257 
186.091446 0.175397 
186.92984 0.012432 
186.946625 0.277055 
186.991623 0.559442 
187.954147 0.460652 
188.974335 0.012603 
189.024384 0.016294 
189.933731 0.009834 
190.962708 0.010771 
192.961136 0.015822 
193.116516 0.090319 
193.158844 0.016394 
194.129288 0.013191 
194.153732 0.201392 
194.729263 0.01551 
195.091965 0.091896 
196.13324 0.015636 
196.169876 1.164153 
196.995743 0.008103 
197.015305 0.960737 
197.97438 0.034449 
198.016418 0.125931 
198.939178 4.276899 
198.955231 0.024629 
199.011826 0.255558 
199.964905 0.641002 
201.952805 0.350264 
203.022369 0.013821 
205.002289 0.089412 
205.573059 0.018026 
206.947342 0.00894 
211.188904 0.165683 
212.053024 0.359001 
212.069962 0.012773 
212.106934 0.012703 
212.118469 0.164728 
212.139282 3.328103 
212.164658 1.075712 
212.17569 0.438142 
212.201004 0.538192 
212.237411 1.321687 
213.110779 0.078463 
213.121658 0.028686 
213.14389 0.130407 
213.16832 0.012987 
213.231873 0.16016 
213.241623 0.033478 
213.962692 0.664836 
214.086212 1.845665 
214.108719 0.06014 
214.122787 0.496967 
214.144241 0.21095 
214.159134 0.874748 
214.180023 0.184046 
214.222 0.011189 
214.252884 62.150841 
215.025833 0.093821 
215.125854 1.030139 
216.949875 5.136235 
217.023148 0.013707 
217.263824 0.366764 
226.945938 0.033376 
230.771378 0.019762 
END IONS

