BEGIN IONS
PEPMASS=1056.53
CHARGE=1+
COMPOUNDNAME=Tomatine
LIBRARYQUALITY=3
SMILES=N/A
INCHIKEY=REJLGAUYTKNVJM-SGXCCWNXSA-N
INCHI=InChI=1S/C50H83NO21/c1-20-7-12-50(51-15-20)21(2)32-28(72-50)14-26-24-6-5-22-13-23(8-10-48(22,3)25(24)9-11-49(26,32)4)65-45-40(63)37(60)41(31(18-54)68-45)69-47-43(71-46-39(62)36(59)34(57)29(16-52)66-46)42(35(58)30(17-53)67-47)70-44-38(61)33(56)27(55)19-64-44/h20-47,51-63H,5-19H2,1-4H3/t20-,21-,22-,23-,24+,25-,26-,27+,28-,29+,30+,31+,32-,33-,34+,35+,36-,37+,38+,39+,40+,41-,42-,43+,44-,45+,46-,47-,48-,49-,50-/m0/s1
MSLEVEL=2
SOURCE_INSTRUMENT=N/A-ESI-QFT
FILENAME=library_mgf.mgf
SEQ=*..*
IONMODE=positive
ORGANISM=MONA
NAME=Tomatine [M+Na]+
PI=MoNA
DATACOLLECTOR=MoNA:VF-NPL-QEHF026712
PUBMED=N/A
SUBMITUSER=mwang87
TAGS=
SPECTRUMID=CCMSLIB00004719747
SCANS=26712
73.028427 39.392849 
73.04409 1.013185 
73.046761 0.927366 
73.264236 1.159961 
73.662392 1.53345 
74.216087 1.051383 
75.594124 2.184631 
75.747299 1.56048 
76.954918 0.959231 
77.854095 0.225658 
77.891441 1.047747 
78.0532 1.424297 
79.054253 27.22546 
79.970123 0.207827 
80.049477 0.381709 
81.033516 13.966705 
81.069916 23.342964 
81.651482 1.547838 
82.065163 1.111345 
83.003944 0.622225 
83.019997 1.264897 
83.048889 0.252017 
83.085541 0.309844 
84.080872 1.909461 
84.142647 2.391765 
84.409767 0.976008 
84.424301 1.740662 
85.028442 100.0 
85.05719 0.264287 
86.031837 0.454306 
87.044098 0.40448 
89.118568 1.154491 
90.109962 1.110569 
90.246895 1.03452 
90.620888 0.962376 
91.039154 0.977345 
91.054276 39.324886 
91.057419 0.985729 
91.951134 0.635098 
92.057327 0.253107 
93.057518 0.271109 
93.069862 21.368042 
93.237602 0.224994 
93.306427 1.112623 
93.345551 1.343581 
94.065186 0.965002 
94.871315 0.223437 
95.049133 3.284267 
95.073029 0.695602 
95.085533 11.250298 
95.476913 1.298958 
95.518608 1.065638 
95.844757 2.327769 
95.985504 1.026661 
96.080521 1.159209 
97.028442 69.556282 
98.060371 0.777034 
98.093239 0.24904 
98.096466 1.491467 
98.489838 1.079322 
98.975082 1.139379 
99.044121 1.078901 
101.023117 0.283258 
103.039474 0.27682 
103.959236 1.075881 
104.992363 28.322805 
105.044868 0.346519 
105.069916 70.594765 
106.073326 0.478289 
107.085556 15.225469 
107.676659 0.260986 
107.69548 1.239918 
108.080818 0.49967 
109.028389 2.545234 
109.101166 1.542507 
109.262886 0.260697 
110.096504 1.603493 
113.021011 1.442967 
113.418304 1.117719 
113.791435 1.143016 
114.013397 1.036614 
114.09127 4.354925 
115.038826 0.467697 
115.054504 0.287654 
116.966263 0.465328 
117.069786 4.217262 
118.527344 1.1326 
119.085579 26.807301 
120.08078 0.565688 
120.088936 0.286705 
120.924019 0.607241 
121.101181 4.692404 
121.686211 1.476736 
122.788033 0.994977 
123.725029 0.636923 
124.112144 13.497976 
125.186012 1.18415 
125.204857 1.664982 
125.277107 0.987783 
126.127747 20.637426 
126.556999 2.536677 
127.038963 2.328541 
128.061905 0.269865 
129.069855 1.851318 
130.077774 0.255175 
131.085602 14.445134 
133.101303 10.819644 
134.096558 0.277902 
135.116821 1.125123 
135.257401 1.166716 
136.111969 0.462205 
138.12767 0.393218 
140.256256 0.246099 
140.601013 0.975386 
141.226181 2.540047 
143.085602 0.286219 
143.750916 1.198009 
144.093262 0.314297 
145.081573 2.16299 
145.101334 13.288923 
145.862747 1.08497 
147.116913 22.030575 
148.077194 0.241539 
148.111694 0.270048 
148.711563 1.192499 
149.13266 0.30923 
150.127747 1.182158 
151.689392 2.144474 
155.031357 9.511388 
156.734207 2.09423 
157.100845 1.759325 
159.116867 17.731676 
160.727951 0.234744 
161.017166 0.60204 
161.132462 61.624996 
162.128433 0.632091 
162.135712 1.941797 
163.20697 1.06365 
164.143509 0.462467 
166.883942 1.380012 
166.981995 1.675045 
167.031464 1.921674 
167.972015 1.567001 
168.539169 1.556827 
169.047272 1.268382 
169.189056 1.491874 
170.732208 1.215062 
170.740051 1.229559 
171.116974 0.677284 
172.362473 1.729698 
173.042053 29.896641 
173.132538 4.084681 
176.14357 2.701094 
178.492233 1.163851 
178.982254 0.295786 
182.408081 1.019456 
182.976776 0.482097 
183.087479 0.577732 
183.544724 1.149031 
185.042236 35.996239 
185.132736 0.310649 
186.555832 0.614188 
187.147888 0.312753 
192.717087 1.11211 
194.30246 0.597777 
194.976639 1.460295 
198.242691 2.491347 
199.148117 0.46613 
203.052689 16.680561 
206.976257 0.258399 
208.991989 0.395011 
212.640778 1.196422 
217.500259 0.599407 
218.947174 1.204002 
219.525574 15.919277 
221.065475 1.936651 
222.589478 1.251146 
225.619141 1.090573 
228.143784 1.255884 
229.024689 0.236884 
230.279449 0.241365 
231.781693 2.227326 
231.99437 1.108528 
237.247894 1.220527 
240.505447 2.599628 
245.063568 7.85769 
245.160767 1.358677 
248.55574 2.625424 
251.349747 0.602357 
252.211517 1.214795 
255.210968 0.554057 
255.740448 0.579697 
258.650391 1.181907 
266.998352 0.507311 
272.962921 1.439863 
277.192596 2.369622 
283.403442 1.200205 
301.088867 1.090049 
301.592529 1.313618 
305.08429 19.513378 
305.418854 0.978601 
317.085022 0.649616 
329.083679 6.130112 
330.241241 0.261784 
335.141052 1.027543 
335.454407 1.510782 
337.498627 2.149832 
337.575348 1.180561 
340.451477 2.841763 
340.731171 1.795544 
347.09491 69.292305 
365.105011 24.143095 
367.778076 0.694601 
370.970917 1.897174 
377.104279 2.740661 
380.329773 0.320535 
383.736908 0.645387 
384.885803 2.602358 
389.780487 1.22839 
396.324768 0.263608 
398.3414 4.424657 
407.11554 41.923927 
407.810394 1.091478 
411.679871 1.292693 
416.685028 0.610279 
435.865295 1.823176 
437.126617 1.81948 
442.397614 1.37224 
445.176025 0.263741 
464.079285 1.143924 
467.13678 36.769798 
479.137634 4.020898 
496.608032 0.672366 
497.145874 3.900187 
515.308533 0.997445 
527.158325 2.970789 
528.044067 1.43521 
532.721069 0.244435 
539.156555 2.540403 
551.638733 2.821062 
560.393311 0.799436 
574.922729 1.840336 
599.175659 1.800089 
601.601135 1.055251 
603.910828 1.14436 
616.381287 1.089054 
621.613159 1.425704 
630.690613 2.928832 
632.411682 0.287484 
681.307922 1.461999 
686.073425 0.780198 
710.351013 1.321565 
766.424011 0.641432 
773.654175 0.601142 
788.694153 1.707887 
806.901978 1.108813 
832.654602 1.721715 
843.575439 1.769724 
854.478027 0.25442 
898.384644 2.459418 
949.058472 0.800065 
1005.617554 1.227645 
1026.922485 1.462586 
1034.331055 1.22147 
1063.381592 0.251534 
1070.416016 1.147235 
END IONS

