BEGIN IONS
PEPMASS=341.137
CHARGE=1+
COMPOUNDNAME=Dechlorogriseofulvin
LIBRARYQUALITY=3
SMILES=N/A
INCHIKEY=QPCYNIYZPDJCMB-UHFFFAOYSA-N
INCHI=InChI=1S/C17H18O6/c1-9-5-10(18)6-14(22-4)17(9)16(19)15-12(21-3)7-11(20-2)8-13(15)23-17/h6-9H,5H2,1-4H3
MSLEVEL=2
SOURCE_INSTRUMENT=N/A-Linear Ion Trap
FILENAME=library_mgf.mgf
SEQ=*..*
IONMODE=positive
ORGANISM=MONA
NAME=Dechlorogriseofulvin M+H
PI=MoNA
DATACOLLECTOR=MoNA:VF-NPL-LTQ000583
PUBMED=N/A
SUBMITUSER=mwang87
TAGS=
SPECTRUMID=CCMSLIB00004684834
SCANS=455
175.089996 1.540336 
182.039993 1.938607 
227.080002 3.057947 
230.979996 3.897887 
259.140015 6.944382 
260.820007 100.0 
276.100006 3.577968 
276.959991 13.612562 
292.359985 3.90915 
294.170013 8.356221 
299.019989 38.525093 
305.23999 12.542086 
308.160004 15.393784 
322.320007 88.134911 
END IONS

