BEGIN IONS
PEPMASS=531.273
CHARGE=1+
COMPOUNDNAME=(2E,4E)-1-[(2R,6S,14S,22S,25R)-25-(3,3-dimethyloxiran-2-yl)-15-methyl-1,3,13,15-tetraazaheptacyclo[18.4.1.0�,?.0?,��.0?,��.0�?,��.0�?,��]pentacosa-7,9,11,16(21),17,19-hexaen-3-yl]hexa-2,4-dien-1-one
LIBRARYQUALITY=3
SMILES=N/A
INCHIKEY=XZFSMUXVAYCHFO-QREHLELFSA-N
INCHI=InChI=1S/C32H36N4O2/c1-5-6-7-15-24(37)35-18-16-31-21-12-8-9-13-22(21)33-28-32(31)17-19-36(29(31)35)26(27-30(2,3)38-27)20-11-10-14-23(25(20)32)34(28)4/h5-15,26-29,33H,16-19H2,1-4H3/b6-5+,15-7+/t26-,27?,28+,29+,31-,32-/m1/s1
MSLEVEL=2
SOURCE_INSTRUMENT=N/A-ESI-QFT
FILENAME=library_mgf.mgf
SEQ=*..*
IONMODE=positive
ORGANISM=MONA
NAME=(2E,4E)-1-[(2R,6S,14S,22S,25R)-25-(3,3-dimethyloxiran-2-yl)-15-methyl-1,3,13,15-tetraazaheptacyclo[18.4.1.0�,?.0?,��.0?,��.0�?,��.0�?,��]pentacosa-7,9,11,16(21),17,19-hexaen-3-yl]hexa-2,4-dien-1-one [M+Na]+
PI=MoNA
DATACOLLECTOR=MoNA:VF-NPL-QEHF021750
PUBMED=N/A
SUBMITUSER=mwang87
TAGS=
SPECTRUMID=CCMSLIB00004712813
SCANS=21750
50.608501 0.329787 
51.026482 0.754726 
52.155472 0.857865 
52.209145 0.463332 
52.75169 0.420079 
53.846401 0.7234 
54.361958 0.715996 
54.37962 0.447199 
55.054371 0.185668 
55.4799 0.715079 
55.910126 0.146259 
55.934666 0.425809 
55.951061 1.102844 
56.965096 1.063991 
57.07011 0.355071 
57.239429 1.200337 
57.981728 0.502708 
59.045231 0.305257 
59.214359 0.499636 
59.539364 0.354266 
60.391998 0.373097 
60.605061 0.709391 
61.010849 1.726267 
61.020321 0.680441 
62.058002 0.190172 
62.302082 0.437663 
62.479965 1.023317 
63.398415 0.915456 
63.544243 1.068341 
64.213837 0.702917 
65.03875 7.338163 
65.589615 0.874469 
66.151016 0.45009 
67.054359 100.0 
68.057716 13.536538 
68.331047 0.155062 
68.39756 1.037399 
68.734978 1.243986 
69.674599 0.322706 
69.680939 0.892586 
69.81189 0.845983 
70.958015 0.223011 
71.068176 0.834391 
72.62011 0.456076 
72.937225 1.057983 
73.631104 1.122797 
73.716629 0.17569 
74.199043 0.783098 
74.395378 1.064604 
75.727798 0.319849 
77.559547 1.110272 
78.2202 0.738264 
78.593117 0.176075 
79.583954 0.163992 
81.810875 0.606331 
82.7276 0.803962 
84.397102 0.159425 
84.806564 0.73262 
85.292465 0.280959 
85.450958 0.506416 
86.166023 1.152622 
87.79377 0.83412 
87.858261 0.325889 
88.999878 0.195973 
89.963692 0.438725 
90.370232 0.170455 
90.94767 0.547763 
95.045853 0.167585 
95.049202 57.026787 
95.052315 1.249816 
95.802071 0.311958 
96.05249 5.332458 
98.551544 1.109951 
101.801804 0.965883 
102.354073 0.977552 
108.296425 0.18416 
108.637337 0.753026 
108.983673 0.931301 
110.119492 0.172666 
113.417442 0.525219 
115.22139 0.75477 
116.154678 0.328415 
116.428223 1.063729 
116.465355 0.457836 
117.092575 0.442363 
117.550522 0.16612 
117.911926 0.463063 
118.064934 0.200452 
118.297783 0.643705 
119.44046 0.755099 
127.154869 1.207008 
128.963852 0.359554 
129.631714 0.883712 
130.06517 14.89774 
131.068573 0.477033 
132.080917 0.209237 
132.957947 1.575506 
137.69397 1.233096 
142.065308 0.318766 
143.072968 0.365847 
143.652573 1.093788 
144.080826 10.737938 
145.084152 0.77157 
145.966446 0.286237 
146.057587 55.789227 
146.974243 2.448169 
148.972336 1.635902 
150.627365 0.530513 
150.968842 1.8578 
152.466766 0.38236 
152.953018 0.330868 
153.97847 0.188523 
154.065598 2.057247 
155.150757 0.337881 
156.08075 1.876172 
157.076355 0.431145 
158.084412 0.247386 
158.096207 1.237909 
158.60997 1.195902 
159.091721 15.542464 
160.075348 0.251868 
160.095108 1.078609 
161.097931 0.208375 
163.977432 0.314473 
166.065872 0.190158 
167.072876 2.191977 
168.068314 12.434714 
168.080917 10.850768 
169.076233 10.12262 
169.083664 1.167222 
170.060852 0.28272 
171.09169 5.553707 
171.099564 0.224339 
174.403381 0.489691 
175.529648 0.930698 
178.007523 0.181802 
180.080856 11.939451 
180.888214 0.178341 
181.075729 1.729189 
181.088531 0.806859 
183.09198 8.286237 
184.076019 0.340181 
184.094864 0.324129 
184.658356 0.985002 
185.071274 0.521285 
185.107529 7.243658 
186.110886 0.266879 
187.086502 1.027135 
187.095139 0.173527 
187.541046 0.210709 
188.619995 0.741234 
191.073074 0.673399 
191.88118 0.220385 
192.080765 1.508166 
192.217224 0.496099 
193.076126 5.106791 
194.096405 0.359391 
195.091782 7.890427 
197.107635 1.699653 
201.345154 0.879364 
202.892273 0.225657 
204.081894 0.175852 
204.356384 0.184095 
205.060913 0.653255 
205.077225 1.578909 
206.083878 4.507392 
207.091721 70.569572 
208.098343 7.831643 
208.883423 0.196043 
209.107452 4.963378 
215.117584 0.745489 
216.171066 0.520335 
218.908066 0.896284 
219.091553 3.889437 
219.676392 5.083431 
219.688141 6.167375 
220.099762 0.195538 
220.316986 0.722298 
220.903336 31.38586 
221.107162 1.463644 
222.898621 15.885301 
222.952866 0.190014 
224.898315 0.613041 
227.90033 7.829042 
229.895844 2.280166 
231.674683 0.3637 
231.89679 4.424306 
232.904327 16.625616 
233.202667 0.706238 
233.891418 0.971217 
233.904053 0.250279 
234.899139 10.954558 
235.122742 6.251835 
235.898941 0.451417 
236.918991 0.221471 
238.913712 45.601143 
239.886246 0.18039 
239.914154 0.16957 
240.909058 25.002888 
241.910461 0.215285 
242.322586 0.183224 
242.910278 0.570438 
244.905762 0.293539 
245.911118 5.100851 
246.883392 2.901158 
246.932755 0.202784 
247.906815 1.473312 
248.87851 2.234852 
252.321884 0.878047 
256.135468 1.112634 
261.90741 0.429404 
262.914001 7.928111 
263.11908 0.42125 
264.894287 0.283134 
264.909027 1.871869 
266.88855 0.536679 
267.750153 0.938532 
271.12207 0.2374 
271.246246 0.741565 
273.907227 0.583856 
274.914673 1.866297 
276.88623 0.196104 
276.910339 0.28355 
279.916656 5.688867 
280.9245 5.790014 
281.106934 2.072577 
281.911957 0.72717 
282.113525 0.336881 
282.91983 0.585246 
283.123108 0.261808 
283.282166 0.936087 
284.126556 0.233749 
285.137238 0.346123 
293.107391 5.540596 
293.250977 0.776187 
294.115021 0.598993 
295.122986 5.388403 
295.927917 0.209096 
296.126038 0.284478 
297.139252 0.308062 
298.136932 1.339168 
299.137665 0.714721 
300.676666 0.73409 
304.924622 1.349592 
305.108368 0.956241 
306.113586 0.825493 
306.919952 0.196466 
307.122925 3.232859 
308.119995 0.553417 
309.137817 0.525856 
310.132324 1.103894 
312.149414 0.327859 
319.123474 3.02715 
319.837585 0.208156 
320.117798 0.31328 
321.139252 0.720888 
321.8367 0.264972 
322.133179 4.561305 
327.82724 0.192705 
334.13324 0.982776 
335.713867 0.451958 
336.150482 1.55453 
337.142578 15.151898 
343.212708 0.488134 
348.149445 1.057192 
350.167389 0.342868 
356.33847 1.014224 
377.709412 0.186476 
382.970337 0.193503 
403.899414 0.21417 
421.736664 1.486905 
430.907898 0.787183 
431.129456 1.184468 
438.703644 0.642494 
438.953247 0.953695 
442.313965 0.545142 
454.152832 0.263702 
462.692871 0.483635 
470.937012 1.17438 
471.054016 0.72763 
499.675446 0.395609 
505.415497 0.19071 
519.992859 0.48957 
542.205627 0.463324 
END IONS

