BEGIN IONS
TITLE=Scan Number: 1
PEPMASS=414.15399
CHARGE=1+
COMPOUNDNAME=NARCOTIN
LIBRARYQUALITY=3
SMILES=COC1=C([C@@]([C@@]2([H])C(C=CC(OC)=C3OC)=C3C(O2)=O)([H])N(C)CC4)C4=CC5=C1OCO5
INCHIKEY=AKNNEGZIBPJZJG-QZTJIDSGSA-N
INCHI=InChI=1S/C22H23NO7/c1-23-8-7-11-9-14-20(29-10-28-14)21(27-4)15(11)17(23)18-12-5-6-13(25-2)19(26-3)16(12)22(24)30-18/h5-6,9,17-18H,7-8,10H2,1-4H3/t17-,18-/m1/s1
MSLEVEL=2
SOURCE_INSTRUMENT=DI-ESI-qTof
FILENAME=f.danieldemarque/CAC05_POS.mgf;
SEQ=*..*
NOTES=
IONMODE=Positive
ORGANISM=GNPS-LIBRARY
NAME=NARCOTIN M+H
SPECTRUMID=CCMSLIB00000424733
ACTIVATION=CID
INSTRUMENT=ion trap
SCANS=1
121.065742 374.0 
165.055817 812.0 
177.060516 362.0 
179.069534 8349.0 
189.057343 400.0 
191.065475 839.0 
193.051636 843.0 
204.06488 773.0 
205.074326 16881.0 
218.07959 1737.0 
219.087112 2408.0 
220.096375 115900.0 
234.066971 430.0 
235.073792 412.0 
248.088135 1327.0 
249.071365 499.0 
251.071045 584.0 
252.076447 513.0 
262.062225 646.0 
263.06897 997.0 
264.075653 902.0 
265.064209 908.0 
267.090424 551.0 
275.068695 446.0 
276.074799 508.0 
277.072937 803.0 
279.071991 801.0 
280.073303 3800.0 
290.059052 355.0 
291.064362 924.0 
292.071198 1145.0 
293.073242 1050.0 
294.082642 595.0 
295.090118 4610.0 
304.070648 467.0 
305.07663 1145.0 
306.059387 1048.0 
307.071991 4582.0 
310.082581 1526.0 
312.096985 603.0 
313.100433 410.0 
319.060608 759.0 
320.069855 744.0 
321.074707 1185.0 
322.081177 2561.0 
323.088623 11527.0 
325.103912 4386.0 
330.100372 378.0 
332.068207 452.0 
334.079681 4799.0 
337.084412 867.0 
338.081818 2003.0 
339.105225 527.0 
350.077393 5338.0 
352.096344 1896.0 
353.099884 37024.0 
365.099304 9414.0 
371.109833 392.0 
378.130341 547.0 
381.117798 1675.0 
383.110535 799.0 
396.140564 1376.0 
414.151215 13062.0 
END IONS

