BEGIN IONS
PEPMASS=176.0
CHARGE=1+
COMPOUNDNAME=Massbank:KO002527 Citrulline|L-Citrulline|2-Amino-5-ureidovaleric acid
LIBRARYQUALITY=3
SMILES=NC(=O)NCCC[C@H](N)C(O)=O
INCHIKEY=RHGKLRLOHDJJDR-BYPYZUCNSA-N
INCHI=1S/C6H13N3O3/c7-4(5(10)11)2-1-3-9-6(8)12/h4H,1-3,7H2,(H,10,11)(H3,8,9,12)/t4-/m0/s1
MSLEVEL=2
SOURCE_INSTRUMENT=ESI-LC-ESI-QQ
FILENAME=Massbank_ESI_positive_8_1_2014_peaks.mgf
SEQ=*..*
IONMODE=Positive
ORGANISM=MASSBANK
NAME=Massbank:KO002527 Citrulline|L-Citrulline|2-Amino-5-ureidovaleric acid [M+H]+
PI=Putative Massbank Match
DATACOLLECTOR=Massbank
PUBMED=N/A
SUBMITUSER=mwang87
TAGS=
SPECTRUMID=CCMSLIB00000217551
SCANS=8329
49.9 178218.0 
60.7 99010.0 
68.3 222772.5 
70.0 108911.0 
73.6 24752.5 
80.8 29703.0 
82.9 118812.0 
83.5 34653.5 
86.4 19802.0 
95.4 29703.0 
97.0 44554.5 
99.1 94059.5 
100.6 24752.5 
102.7 29703.0 
104.1 74257.5 
113.1 930694.0 
113.9 217822.0 
115.4 658416.5 
115.9 1232674.5 
117.0 39604.0 
123.4 89109.0 
125.2 29703.0 
126.1 99010.0 
126.7 24752.5 
130.2 470297.5 
133.2 410891.5 
134.9 9901.0 
141.1 707921.5 
144.0 148515.0 
158.2 599010.5 
159.1 40227763.0 
176.2 70242644.5 
177.2 39604.0 
END IONS

