BEGIN IONS
PEPMASS=375.128
CHARGE=1+
COMPOUNDNAME=Griseofulvin
LIBRARYQUALITY=3
SMILES=N/A
INCHIKEY=DDUHZTYCFQRHIY-RBHXEPJQSA-N
INCHI=InChI=1S/C17H17ClO6/c1-8-5-9(19)6-12(23-4)17(8)16(20)13-10(21-2)7-11(22-3)14(18)15(13)24-17/h6-8H,5H2,1-4H3/t8-,17+/m1/s1
MSLEVEL=2
SOURCE_INSTRUMENT=N/A-Linear Ion Trap
FILENAME=library_mgf.mgf
SEQ=*..*
IONMODE=positive
ORGANISM=MONA
NAME=Griseofulvin M-H
PI=MoNA
DATACOLLECTOR=MoNA:VF-NPL-LTQ000681
PUBMED=N/A
SUBMITUSER=mwang87
TAGS=
SPECTRUMID=CCMSLIB00004684925
SCANS=546
178.910004 1.518452 
237.080002 3.465766 
247.149994 8.160807 
253.009995 3.779081 
269.089996 2.508041 
271.130005 4.558844 
274.160004 12.344183 
279.130005 5.30569 
282.230011 7.934918 
286.149994 8.899518 
295.040009 17.104038 
310.23999 5.381956 
312.149994 15.690987 
314.130005 20.027985 
320.119995 4.025044 
329.109985 27.379799 
335.480011 29.342506 
339.23999 24.069778 
343.109985 100.0 
347.179993 18.071037 
353.040009 53.057236 
END IONS

