BEGIN IONS
PEPMASS=528.186
CHARGE=1+
COMPOUNDNAME=DAUNORUBICIN
LIBRARYQUALITY=3
SMILES=N/A
INCHIKEY=STQGQHZAVUOBTE-VGBVRHCVSA-N
INCHI=InChI=1S/C27H29NO10/c1-10-22(30)14(28)7-17(37-10)38-16-9-27(35,11(2)29)8-13-19(16)26(34)21-20(24(13)32)23(31)12-5-4-6-15(36-3)18(12)25(21)33/h4-6,10,14,16-17,22,30,32,34-35H,7-9,28H2,1-3H3/t10-,14-,16-,17-,22+,27-/m0/s1
MSLEVEL=2
SOURCE_INSTRUMENT=N/A-ESI-QFT
FILENAME=library_mgf.mgf
SEQ=*..*
IONMODE=positive
ORGANISM=MONA
NAME=DAUNORUBICIN [M+H]+
PI=MoNA
DATACOLLECTOR=MoNA:VF-NPL-QEHF003439
PUBMED=N/A
SUBMITUSER=mwang87
TAGS=
SPECTRUMID=CCMSLIB00004694502
SCANS=3439
50.007046 0.004781 
50.303772 0.005045 
50.395794 0.004808 
50.547726 0.002926 
50.813332 0.002684 
51.341373 0.004078 
51.4916 0.005209 
51.605537 0.004192 
51.906174 0.005857 
52.197716 0.003738 
52.37616 0.003081 
52.394684 0.003989 
52.397488 0.00488 
53.881489 0.004255 
54.14336 0.005352 
55.282845 0.005469 
55.408039 0.002953 
55.597031 0.004846 
55.648167 0.004458 
55.816525 0.004488 
55.871655 0.002768 
56.055321 0.004792 
56.074032 0.006054 
56.564873 0.005106 
56.681278 0.004972 
56.944328 0.005013 
57.174381 0.004715 
57.721138 0.002945 
58.065861 0.737031 
58.21191 0.004696 
58.226402 0.005683 
58.635571 0.004088 
58.64444 0.003904 
58.663761 0.005547 
58.722473 0.00308 
59.325508 0.004836 
59.946087 0.004286 
60.015785 0.004773 
60.021709 0.004054 
60.045128 0.743269 
60.134987 0.003019 
60.806046 0.003313 
61.029102 0.128859 
61.383438 0.002901 
61.838718 0.004049 
62.288376 0.004099 
63.707561 0.006626 
64.662041 0.005324 
65.409058 0.004113 
65.70919 0.005598 
65.744888 0.002692 
66.302856 0.002853 
66.561539 0.005284 
67.05484 0.199796 
67.498543 0.007072 
67.510757 0.005169 
67.612488 0.004882 
67.645805 0.00613 
68.050125 0.020174 
68.069176 0.003887 
68.731506 0.0027 
69.034172 2.287341 
69.478539 0.005649 
70.018875 0.005768 
70.037567 0.002653 
70.165207 0.004146 
70.571747 0.003722 
70.947556 0.004566 
71.047554 0.002683 
71.049805 0.66196 
71.164017 0.004119 
71.196327 0.004878 
71.952522 0.00526 
72.045052 4.662145 
72.445572 0.005938 
72.704102 0.005665 
73.048409 0.060024 
73.280418 0.005825 
73.47448 0.005165 
73.934151 0.004741 
74.15683 0.00405 
74.300438 0.003296 
74.434067 0.00437 
75.532494 0.005803 
75.572327 0.002963 
75.632317 0.00571 
75.896004 0.005923 
76.221161 0.004186 
77.093231 0.006669 
77.763367 0.005052 
78.079903 0.002919 
78.288567 0.004376 
78.732918 0.004408 
80.393837 0.017363 
80.601341 0.005038 
80.808006 0.003484 
81.671036 0.004676 
83.049744 0.003804 
83.157082 0.005701 
83.18277 0.002732 
83.574425 0.00312 
83.649963 0.002662 
83.927353 0.004556 
84.081284 0.220443 
84.28772 0.004086 
84.435501 0.00375 
85.065338 0.046309 
85.27771 0.004718 
86.06057 11.164498 
87.057274 0.003545 
87.063866 0.383361 
87.437599 0.002564 
88.083984 0.005656 
89.231148 0.002636 
89.288147 0.005844 
90.463303 0.0036 
90.56163 0.005585 
92.423012 0.003217 
92.759064 0.00392 
93.498474 0.003187 
93.666695 0.005159 
94.009171 0.005248 
94.065605 0.013303 
94.348503 0.003665 
95.033127 0.002892 
95.049622 1.087094 
95.812653 0.006762 
100.622276 0.005504 
100.680328 0.003587 
101.202621 0.006512 
101.424278 0.00364 
101.5504 0.005325 
102.611359 0.003604 
103.378128 0.003489 
103.766327 0.005424 
104.0709 0.06792 
105.296242 0.003757 
106.419212 0.005322 
107.187988 0.003411 
107.724342 0.003439 
107.895256 0.006689 
108.518913 0.005104 
109.026093 0.004666 
109.103271 0.00466 
109.339272 0.004525 
110.069794 0.004657 
110.226112 0.005304 
110.377724 0.00576 
111.742134 0.004236 
112.07592 0.900755 
112.278137 0.004749 
113.059944 6.093494 
113.06443 0.077631 
114.06321 0.301981 
117.787643 0.005935 
118.699318 0.004574 
120.321243 0.004302 
120.489883 0.005196 
121.064896 0.008914 
121.581131 0.005534 
122.278458 0.005659 
123.589294 0.003092 
124.060455 0.005466 
124.408257 0.004118 
125.523056 0.005385 
125.707565 0.004063 
126.255562 0.003007 
126.44693 0.006467 
127.561287 0.005759 
128.644989 0.005074 
129.327835 0.003546 
129.569504 0.004207 
129.698013 0.004866 
130.086273 7.203508 
130.09201 0.088672 
131.0896 0.363376 
131.095474 0.00378 
131.162308 0.005001 
132.473679 0.004344 
133.441116 0.006554 
133.670624 0.006386 
135.044022 0.044226 
139.260162 0.004254 
140.093292 0.003398 
140.44812 0.005761 
142.447159 0.004288 
143.122391 0.004483 
147.742249 0.005619 
148.096634 0.199678 
149.215179 0.004926 
150.817184 0.006029 
152.119232 0.004917 
154.190445 0.00644 
154.194244 0.00627 
154.248581 0.003572 
155.994507 0.00306 
157.675385 0.002827 
158.439011 0.004032 
162.306686 0.005869 
162.505951 0.005927 
162.809967 0.004813 
162.903152 0.003638 
163.18306 0.005751 
165.122986 0.002969 
167.321579 0.004926 
168.127274 0.00547 
170.300201 0.006087 
170.601852 0.006691 
171.197418 0.004375 
171.95726 0.00369 
172.056839 0.006515 
172.840729 0.005448 
173.18396 0.005327 
175.691833 0.00554 
177.914413 0.005968 
179.423218 0.003777 
181.049164 0.00345 
181.77063 0.004843 
185.539963 0.004879 
186.162964 0.004856 
192.024307 0.003876 
196.420151 0.006751 
200.889038 0.003166 
201.180054 0.00607 
202.191071 0.004557 
210.348083 0.004765 
212.380325 0.003587 
213.122528 0.274416 
213.130356 0.443493 
213.142365 0.248099 
217.0186 0.003503 
219.107162 0.003238 
220.315506 0.005591 
221.005753 0.005795 
224.045471 0.005942 
224.206406 0.003019 
226.02507 0.004761 
229.560242 0.004751 
229.604858 0.003746 
230.174271 0.005315 
233.530167 0.003119 
234.164215 0.00559 
234.919678 0.005535 
236.179062 0.004732 
238.055954 0.003517 
238.898285 0.004894 
240.17395 0.00647 
243.371048 0.006989 
246.671799 0.003323 
248.046555 0.004323 
248.203766 0.003325 
263.985077 0.006332 
268.532928 0.004079 
268.552673 0.003399 
273.942078 0.004515 
283.377319 0.003881 
286.813019 0.006008 
293.080566 0.2367 
304.114258 0.007982 
306.05188 2.829781 
306.257233 0.005507 
307.055573 0.487753 
309.893494 0.004577 
311.173798 0.005753 
311.852234 0.004338 
313.17514 0.004097 
319.500366 0.003661 
320.069183 0.060768 
321.075348 100.0 
322.078735 19.268473 
323.081238 1.623659 
335.090302 0.167822 
345.075806 0.102704 
348.061768 0.227765 
355.014954 0.003214 
355.276703 0.002987 
356.090302 0.003899 
363.085968 9.241368 
364.089203 1.972758 
364.596313 0.006762 
365.092865 0.089409 
366.525299 0.005944 
380.8013 0.005948 
386.82843 0.005951 
389.464752 0.006166 
392.940643 0.003257 
393.77063 0.004602 
404.079987 0.004458 
406.260315 0.003268 
423.797577 0.004557 
441.161377 0.006048 
449.130066 0.004142 
453.784363 0.004666 
455.907867 0.007213 
457.288269 0.003861 
471.174194 0.006582 
487.962646 0.003201 
489.998901 0.003671 
491.062927 0.005962 
494.296051 0.003536 
512.890503 0.00523 
512.939575 0.004137 
514.142151 0.006223 
517.66925 0.004126 
520.192505 0.004646 
521.108826 0.006388 
521.45874 0.003357 
530.173706 0.003965 
541.223206 0.003103 
END IONS

