BEGIN IONS
PEPMASS=260.114
CHARGE=1+
COMPOUNDNAME=Lotaustralin
LIBRARYQUALITY=3
SMILES=N/A
INCHIKEY=WEWBWVMTOYUPHH-GXUZYPEDSA-N
INCHI=InChI=1S/C11H19NO6/c1-3-11(2,5-12)18-10-9(16)8(15)7(14)6(4-13)17-10/h6-10,13-16H,3-4H2,1-2H3/t6-,7-,8+,9-,10+,11?/m1/s1
MSLEVEL=2
SOURCE_INSTRUMENT=N/A-ESI-QFT
FILENAME=library_mgf.mgf
SEQ=*..*
IONMODE=negative
ORGANISM=MONA
NAME=Lotaustralin [M-H]-
PI=MoNA
DATACOLLECTOR=MoNA:VF-NPL-QEHF007863
PUBMED=N/A
SUBMITUSER=mwang87
TAGS=
SPECTRUMID=CCMSLIB00004698926
SCANS=7863
50.141136 0.063271 
50.733944 0.054116 
51.667835 0.046862 
52.271469 0.038631 
52.347992 0.046226 
52.57093 0.042036 
52.596542 0.039727 
53.009171 0.056131 
53.082954 0.04237 
53.244888 0.052315 
53.883034 0.045602 
54.66481 0.046087 
54.682373 0.047345 
55.017498 14.32788 
55.905933 0.046096 
56.020821 0.077718 
56.97897 0.050276 
57.033134 12.838395 
57.044884 0.054732 
58.004581 1.982718 
58.255096 0.046205 
58.627064 0.056061 
58.979458 0.057027 
59.004318 0.296688 
59.01239 95.293335 
59.020679 0.445079 
59.253429 0.040909 
59.897945 0.037058 
60.015762 1.55863 
60.130348 0.05597 
61.127666 0.048658 
61.986912 6.664542 
62.096336 0.049967 
62.098377 0.044326 
62.985031 0.053578 
63.533394 0.043391 
63.960983 0.161496 
64.040436 0.047379 
64.605614 0.062356 
65.35704 0.043817 
67.017548 0.358546 
67.591072 0.039695 
68.012741 0.820098 
68.167664 0.041215 
68.996719 0.048706 
69.033142 0.837033 
69.13723 0.041784 
70.028427 0.245972 
71.001236 0.19543 
71.012428 100.0 
71.023354 0.358724 
71.515923 0.045895 
72.015778 2.715687 
72.211281 0.05782 
72.991684 4.829707 
73.028069 20.356306 
73.184517 0.060381 
73.611656 0.040832 
73.755699 0.039363 
73.926193 0.050409 
74.023361 0.108213 
74.031487 0.359709 
74.140808 0.052628 
74.960526 0.053473 
75.007317 1.473846 
76.019951 0.0525 
76.624397 0.047853 
77.121529 0.050132 
78.403542 0.057643 
78.957573 0.058645 
78.984497 0.231276 
79.720444 0.047873 
79.907234 0.071301 
79.955948 6.459247 
80.963791 2.046594 
81.185989 0.056104 
82.067039 0.051362 
82.720642 0.049473 
83.009872 0.071994 
83.012436 11.640614 
83.11467 0.05787 
83.123154 0.054017 
83.63076 0.054582 
84.0159 0.085416 
84.020248 2.411729 
84.322495 0.050857 
85.013412 0.058188 
85.028084 53.769341 
86.031425 2.073684 
86.576126 0.044451 
87.007362 3.305388 
87.06945 0.045297 
87.134087 0.040441 
87.28627 0.044499 
87.617744 0.042273 
88.038956 0.046003 
89.023064 2.871694 
89.675224 0.04127 
90.050301 0.04784 
91.929451 0.048306 
93.094032 0.051319 
93.728661 0.04138 
94.979393 1.334291 
94.989105 2.462076 
95.012428 8.108376 
95.424294 0.050208 
95.463661 0.040713 
96.958679 2.162503 
96.986168 0.509863 
97.028053 0.696567 
97.064323 0.059477 
97.625351 0.047044 
99.00737 4.32969 
99.937065 0.049042 
100.656311 0.062964 
100.818298 0.055807 
101.023026 13.627733 
101.491745 0.049936 
101.587158 0.048261 
101.707329 0.043396 
102.026482 0.151626 
104.513527 0.04764 
108.448685 0.05069 
108.518967 0.042625 
108.979774 0.044112 
111.385857 0.057934 
112.901352 0.052328 
113.022987 6.971569 
116.270615 0.045898 
118.940758 0.398746 
121.027771 0.044723 
121.560928 0.055081 
123.006752 0.056304 
124.534859 0.0485 
125.023056 0.113968 
125.095871 0.511854 
131.081238 0.167081 
132.009552 0.057074 
135.380768 0.054484 
135.528229 0.046456 
135.962845 0.051607 
136.196747 0.057107 
136.938385 0.070243 
137.163284 0.049889 
137.229767 0.053704 
137.344452 0.046976 
140.117508 0.047277 
147.21582 0.064266 
154.799347 0.050958 
154.946381 0.178533 
161.023239 0.052233 
168.961884 0.062078 
171.681686 0.059902 
172.006882 0.071475 
173.155457 0.060295 
173.529709 0.042754 
175.410934 0.054978 
176.106552 0.058236 
176.602219 0.051339 
176.99292 0.239257 
178.075119 0.06409 
179.109039 0.051595 
179.209763 0.041122 
184.000748 3.247647 
184.87587 0.075061 
186.872665 0.069351 
190.26857 0.048211 
191.58728 0.048026 
202.88623 0.057584 
204.883163 0.08396 
208.465393 0.0697 
211.307816 0.056669 
216.10878 0.045748 
217.108582 0.046419 
218.638611 0.047616 
219.490784 0.388355 
219.50473 0.169465 
221.841827 1.278866 
222.841965 0.096266 
223.838684 0.739435 
228.929306 0.167612 
243.306686 0.045154 
248.015686 0.063377 
248.921692 0.055691 
251.54213 0.047904 
254.238922 0.052643 
257.949005 0.074132 
273.310608 0.06403 
279.104431 0.077652 
279.229034 0.045457 
END IONS

