BEGIN IONS
PEPMASS=176.104
CHARGE=1+
COMPOUNDNAME=Massbank:PB000433 Citrulline|2-amino-5-(carbamoylamino)pentanoic acid
LIBRARYQUALITY=3
SMILES=C(CC(C(=O)O)N)CNC(=O)N
INCHIKEY=RHGKLRLOHDJJDR-UHFFFAOYSA-N
INCHI=1S/C6H13N3O3/c7-4(5(10)11)2-1-3-9-6(8)12/h4H,1-3,7H2,(H,10,11)(H3,8,9,12)
MSLEVEL=2
SOURCE_INSTRUMENT=ESI-LC-ESI-QTOF
FILENAME=Massbank_ESI_positive_8_1_2014_peaks.mgf
SEQ=*..*
IONMODE=Positive
ORGANISM=MASSBANK
NAME=Massbank:PB000433 Citrulline|2-amino-5-(carbamoylamino)pentanoic acid [M+H]+
PI=Putative Massbank Match
DATACOLLECTOR=Massbank
PUBMED=N/A
SUBMITUSER=mwang87
TAGS=
SPECTRUMID=CCMSLIB00000221742
SCANS=10395
70.067 5512.757 
86.061 93.424 
87.093 100.524 
96.046 46.329 
97.078 165.649 
113.071 8347.338 
114.055 1441.042 
115.087 1833.38 
116.073 1489.771 
130.099 87.447 
131.081 49.7 
133.096 98.94 
141.068 280.373 
142.05 193.641 
149.024 47.912 
159.078 10000.0 
176.106 183.68 
END IONS

