BEGIN IONS
PEPMASS=266.09
CHARGE=1+
COMPOUNDNAME=Adenosine
LIBRARYQUALITY=3
SMILES=N/A
INCHIKEY=OIRDTQYFTABQOQ-KQYNXXCUSA-N
INCHI=InChI=1S/C10H13N5O4/c11-8-5-9(13-2-12-8)15(3-14-5)10-7(18)6(17)4(1-16)19-10/h2-4,6-7,10,16-18H,1H2,(H2,11,12,13)/t4-,6-,7-,10-/m1/s1
MSLEVEL=2
SOURCE_INSTRUMENT=N/A-ESI-QFT
FILENAME=library_mgf.mgf
SEQ=*..*
IONMODE=negative
ORGANISM=MONA
NAME=Adenosine [M-H]-
PI=MoNA
DATACOLLECTOR=MoNA:VF-NPL-QEHF000390
PUBMED=N/A
SUBMITUSER=mwang87
TAGS=
SPECTRUMID=CCMSLIB00004691453
SCANS=390
50.062347 0.018201 
50.140026 0.022869 
50.28603 0.017631 
50.69014 0.025712 
51.050018 0.01604 
51.270256 0.015361 
52.088627 0.020391 
52.282906 0.014139 
52.628059 0.01766 
53.125423 0.018584 
53.292339 0.017162 
54.808128 0.017545 
54.95071 0.01887 
55.239902 0.018524 
55.706676 0.018818 
56.153049 0.020622 
56.65472 0.017991 
56.851028 0.016396 
56.928333 0.022286 
57.033195 0.025917 
57.188515 0.295268 
59.012508 2.118592 
59.154266 0.020039 
59.682274 0.019218 
60.1539 0.017255 
61.876011 0.017631 
61.987007 0.672022 
62.012108 0.012213 
62.753613 0.016756 
62.827335 0.018501 
62.912899 0.014901 
63.567978 0.018349 
63.643738 0.012358 
63.760273 0.018536 
63.8895 0.020196 
63.961056 0.062 
64.298088 0.021895 
65.013168 0.392183 
66.407242 0.017534 
68.024063 0.070793 
68.079178 0.018058 
69.289207 0.018153 
69.40744 0.016992 
71.424454 0.0214 
72.169785 0.020095 
72.710197 0.013615 
73.379677 0.019816 
73.570908 0.02096 
73.737526 0.014601 
74.49942 0.018511 
74.989563 0.103098 
76.150032 0.019845 
77.689316 0.022266 
77.846886 0.016733 
78.957626 0.045873 
78.977821 0.019836 
78.984604 0.060755 
79.282608 0.014396 
79.956039 1.239596 
80.024422 0.039748 
80.963852 0.525029 
81.879379 0.014155 
81.951866 0.021862 
82.613808 0.020042 
83.063858 0.019432 
83.926102 0.016772 
84.503708 0.018384 
85.070442 0.019053 
85.459419 0.013301 
87.533592 0.018039 
87.681129 0.015233 
89.02327 0.033795 
92.024132 5.548263 
93.000046 0.020955 
93.021271 0.018035 
93.027512 0.098644 
93.033325 0.182912 
93.091751 0.019991 
93.749657 0.015626 
94.183235 0.014542 
94.979553 0.015571 
96.958817 7.694289 
97.799454 0.015966 
98.954506 0.10718 
99.924484 0.568992 
100.150261 0.01433 
100.932144 0.021277 
102.38559 0.014228 
105.31897 0.018494 
106.098 0.012005 
107.035065 18.407665 
107.111038 0.01572 
108.032074 0.125175 
108.038429 0.752343 
110.272141 0.019079 
111.896309 0.02016 
112.072823 0.017087 
112.280632 0.01599 
114.041794 0.013802 
115.766273 0.016924 
115.91954 0.351424 
116.927361 0.567949 
119.048683 0.044365 
120.674232 0.021431 
122.62516 0.01966 
123.1689 0.020267 
125.482971 0.016448 
126.211212 0.021461 
126.496788 0.020849 
126.710121 0.018633 
129.816437 0.021257 
130.94194 0.018304 
131.90921 0.020569 
131.921371 0.018771 
132.765839 0.021327 
133.038025 0.02248 
134.017059 0.062837 
134.046112 100.0 
134.075348 0.145741 
135.030212 1.164469 
135.043198 1.970445 
135.049454 5.694491 
135.687088 0.015703 
135.916977 0.020686 
136.046844 0.021019 
138.766266 0.019784 
141.767426 0.015831 
143.480865 0.018186 
149.009048 0.025371 
151.006149 0.020422 
158.065796 0.021724 
167.562881 0.018717 
170.824097 0.020226 
176.244247 0.013792 
176.531311 0.023684 
178.050247 0.20491 
178.086334 0.021411 
183.010941 0.022477 
186.403931 0.013992 
190.261963 0.021584 
192.668442 0.020966 
193.239563 0.024905 
195.458282 0.017486 
195.965118 0.02081 
198.212677 0.017403 
198.28244 0.021829 
205.158966 0.116097 
206.382004 0.014529 
209.759995 0.018709 
210.345398 0.01984 
216.689316 0.015561 
220.303711 0.062483 
220.31514 0.049103 
220.326843 0.095096 
223.890579 0.014979 
227.478271 0.020185 
253.708878 0.017142 
255.362061 0.018362 
257.21875 0.018645 
261.567474 0.017015 
277.724365 0.023122 
280.616119 0.015604 
283.262787 0.024005 
283.985657 0.019702 
291.96225 0.017554 
302.481384 0.018448 
303.51178 0.015072 
311.043976 0.021056 
END IONS

