BEGIN IONS
PEPMASS=616.311
CHARGE=1+
COMPOUNDNAME=destruxin A
LIBRARYQUALITY=3
SMILES=N/A
INCHIKEY=XIYSEKITPHTMJT-UHFFFAOYSA-N
INCHI=InChI=1S/C29H47N5O7/c1-9-12-21-27(38)34-16-11-13-20(34)26(37)31-23(18(5)10-2)28(39)33(8)24(17(3)4)29(40)32(7)19(6)25(36)30-15-14-22(35)41-21/h9,17-21,23-24H,1,10-16H2,2-8H3,(H,30,36)(H,31,37)
MSLEVEL=2
SOURCE_INSTRUMENT=N/A-ESI-QFT
FILENAME=library_mgf.mgf
SEQ=*..*
IONMODE=positive
ORGANISM=MONA
NAME=destruxin A [M+K]+
PI=MoNA
DATACOLLECTOR=MoNA:VF-NPL-QEHF017776
PUBMED=N/A
SUBMITUSER=mwang87
TAGS=
SPECTRUMID=CCMSLIB00004708839
SCANS=17776
50.73983 0.017426 
50.767227 0.013464 
50.791485 0.013685 
50.882584 0.011396 
50.936184 0.057262 
51.033161 0.013591 
51.061172 0.012668 
51.233677 0.013784 
51.45829 0.011376 
52.658653 0.011513 
53.302567 0.038756 
53.461273 0.012943 
54.202606 0.013835 
54.491104 0.012421 
54.980759 0.012687 
55.594536 0.012944 
55.713371 0.013577 
55.748951 0.069392 
55.966171 0.013582 
56.096992 0.014872 
56.361343 0.012685 
57.070148 0.261221 
57.077377 0.012702 
57.87521 0.012051 
58.065388 0.461409 
58.180817 0.012729 
58.424438 0.011497 
58.482651 0.012958 
58.558498 0.013431 
58.753792 0.009866 
59.049385 0.100021 
60.430573 0.011239 
60.460915 0.014315 
60.629871 0.010884 
60.859406 0.011919 
60.932098 0.014893 
60.961494 0.01238 
61.214745 0.011035 
61.444485 0.060473 
61.570423 0.011325 
61.572556 0.017031 
61.590836 0.013088 
61.855122 0.015154 
61.935169 0.022469 
63.952518 0.012252 
65.094185 0.013943 
65.336739 0.014309 
65.855911 0.023417 
65.953842 0.03398 
66.065872 0.014869 
66.965614 0.009484 
68.26133 0.013048 
68.406006 0.011244 
68.665245 0.014148 
69.06971 0.010687 
70.065155 0.124746 
70.106583 0.01397 
70.193016 0.011991 
71.085564 0.189169 
72.133408 0.014188 
72.712517 0.013628 
73.046921 0.033786 
73.064659 0.019442 
73.258606 0.010706 
73.377785 0.022047 
73.563919 0.016745 
73.69059 0.061114 
74.529282 0.009876 
74.716927 0.014417 
75.470467 0.020832 
75.579788 0.009872 
75.613914 0.062098 
77.056747 0.014517 
77.250984 0.015567 
77.294746 0.01226 
78.329163 0.015444 
78.549324 0.012563 
78.707214 0.016613 
78.781784 0.012528 
78.823181 0.013399 
79.541939 0.011541 
79.815529 0.043091 
80.049385 0.028766 
80.054108 0.013898 
80.601723 0.068126 
81.070091 0.029233 
81.23027 0.013138 
81.453087 0.017271 
83.309052 0.015468 
83.796211 0.009824 
84.080727 0.015827 
84.285172 0.055931 
84.323395 0.041163 
84.83667 0.010293 
85.101151 0.069244 
85.60199 0.013819 
85.61515 0.012805 
86.096405 0.84943 
87.044052 0.154619 
89.059738 1.462546 
89.539162 0.010491 
91.057304 0.098449 
91.65538 0.015585 
91.692009 0.038444 
94.272346 0.013458 
95.049065 0.025344 
95.085098 0.013498 
95.42411 0.013742 
96.204239 0.015518 
96.483353 0.013245 
96.807434 0.015313 
97.064857 0.017936 
97.528351 0.054195 
98.359932 0.012658 
98.645714 0.011183 
99.034523 0.013745 
99.96254 0.018022 
102.1521 0.017815 
103.4328 0.010417 
103.696815 0.067073 
103.736252 0.014335 
104.099358 0.01629 
105.503906 0.013738 
106.24633 0.009934 
107.04641 0.02188 
107.085426 0.034159 
108.51783 0.065566 
108.524315 0.010449 
109.064545 0.032607 
109.100822 0.029126 
111.99942 0.012317 
112.114243 0.01492 
112.218735 0.013115 
115.915657 0.016975 
116.034485 0.012482 
116.274147 0.014341 
118.9832 0.011253 
119.489861 0.016263 
120.203491 0.039639 
120.906281 0.012676 
122.475616 0.012182 
124.038292 0.011126 
124.493423 0.012738 
124.745918 0.040538 
125.586891 0.012404 
128.379745 0.014966 
128.58284 0.014739 
130.067108 0.023429 
133.0858 0.297814 
134.57901 0.01321 
135.652451 0.013784 
143.299042 0.012798 
143.550262 0.015025 
144.114578 0.018483 
144.15834 0.010954 
147.080765 0.013188 
147.569626 0.022154 
147.931137 0.012286 
148.41153 0.023001 
150.364456 0.013098 
151.046661 0.039444 
151.673889 0.013165 
152.497559 0.018086 
154.660767 0.012294 
157.097031 0.027459 
158.596893 0.011861 
158.907455 0.016542 
159.117203 0.013108 
160.436478 0.01426 
161.595947 0.013909 
163.535919 0.011625 
164.658752 0.015695 
166.61142 0.06105 
167.74263 0.01436 
168.101639 0.036875 
168.555405 0.014119 
169.721893 0.016158 
171.79718 0.01416 
174.567795 0.0146 
178.086212 0.04385 
178.158112 0.018198 
180.924194 0.014287 
181.232742 0.016663 
181.533279 0.014827 
183.508926 0.015233 
184.37645 0.060562 
186.741119 0.046496 
186.87915 0.355875 
188.468063 0.015117 
189.127609 0.013121 
193.198044 0.015609 
195.406754 0.013799 
199.466904 0.014108 
199.618271 0.015963 
199.901566 0.014107 
200.398743 0.01299 
200.700729 0.01129 
203.05928 0.015148 
204.455017 0.011828 
204.661987 0.015136 
204.847076 0.019756 
210.148697 0.084266 
212.65773 0.01081 
216.565323 0.013859 
221.495285 0.012084 
224.392899 0.060467 
225.043503 0.047763 
227.201111 0.011274 
229.675369 0.063814 
235.42572 0.023059 
236.350662 0.016458 
242.056091 0.015416 
245.890945 1.313521 
246.898392 0.527655 
255.809204 0.01805 
263.901367 5.945056 
264.909546 1.779773 
268.22641 0.013477 
272.736267 0.010856 
273.521271 0.014348 
278.371765 0.01048 
278.924835 0.29367 
279.916443 0.100395 
280.9039 0.816262 
281.07196 0.063062 
281.911865 17.308645 
282.914856 1.474308 
283.919678 0.016112 
295.12912 0.012018 
295.975311 0.01595 
296.934326 0.106071 
297.113739 0.015401 
300.665131 0.214916 
300.741302 0.013897 
301.16629 0.019351 
301.666229 0.020377 
301.827667 0.202967 
302.654755 0.069968 
303.156433 0.135015 
304.191437 0.025959 
304.904053 7.345954 
305.907776 0.697928 
308.12738 0.059705 
308.65451 2.683822 
309.155853 1.101584 
309.656311 0.075958 
310.174255 0.104947 
317.083435 0.014847 
317.822449 0.084761 
319.15155 0.573928 
320.154694 0.048353 
320.919434 1.587275 
321.166138 0.017167 
321.921722 0.571905 
322.914612 80.670395 
323.916748 8.787142 
324.188599 0.016846 
324.918274 1.281919 
325.65686 0.860898 
326.138428 1.136371 
326.158569 0.371211 
326.623993 0.015175 
326.659729 0.017578 
327.141449 0.016084 
328.955994 0.016634 
328.981232 0.016695 
336.930206 0.876514 
337.142365 0.228155 
338.554443 0.048514 
342.136475 0.013009 
344.149109 0.090099 
351.531891 0.016768 
354.133057 0.140862 
358.843475 0.552847 
359.847992 0.371067 
360.188538 0.032946 
360.839142 30.494734 
361.842224 4.391253 
362.843323 0.448072 
366.156494 0.017964 
368.38205 0.016288 
369.595581 0.02482 
371.555969 0.014551 
372.14566 0.010887 
374.92453 0.059735 
376.832886 1.407207 
377.841095 2.717702 
378.169312 0.013491 
378.849609 5.952582 
379.619324 0.012231 
379.851562 0.416758 
388.631042 0.016181 
390.169037 0.017287 
391.153412 0.017074 
393.839111 0.061656 
394.84436 12.594213 
395.848602 1.942983 
396.851074 0.162727 
404.515656 0.011404 
408.179779 0.069784 
408.21402 0.013545 
411.846436 0.159077 
412.854706 1.928683 
416.218018 0.028106 
417.856873 2.158826 
418.164948 0.188741 
418.859283 3.015811 
419.852203 100.0 
420.854126 15.157666 
421.85553 2.384406 
422.225586 0.016581 
423.256561 0.016552 
434.859924 0.089892 
435.84491 1.771122 
436.17453 0.0181 
436.854218 11.120551 
437.205139 0.017372 
437.242462 0.019775 
437.272369 0.012987 
437.862518 24.822355 
438.864624 3.694964 
439.865997 0.409613 
440.64209 0.015234 
447.228241 0.050398 
449.206512 0.015951 
451.877869 0.311201 
452.540283 0.016177 
452.864655 0.126904 
453.857666 19.476858 
454.86026 3.23189 
455.862244 0.480899 
460.211426 0.270127 
460.712158 0.013517 
461.214325 0.029164 
462.238251 0.058046 
465.20105 0.112658 
467.872498 0.016361 
471.868134 0.969426 
472.871521 0.069198 
474.284424 0.013133 
475.254425 0.017013 
476.253448 0.226315 
476.870178 0.819545 
477.872345 1.54398 
478.221252 0.082653 
478.865326 57.660564 
479.867554 9.966167 
480.28421 0.026787 
480.868683 1.614915 
485.302185 0.031058 
493.19278 0.015463 
494.264404 0.058524 
495.222809 0.017487 
495.883118 0.137478 
496.87619 8.363369 
497.878296 1.393289 
510.890869 0.105302 
520.308777 0.122179 
520.50238 0.017791 
537.880249 0.09215 
539.552734 0.016102 
544.276001 0.037259 
546.286865 0.021138 
546.326904 0.942802 
546.524658 0.015986 
547.329346 0.138964 
555.422241 0.174917 
555.892334 0.016354 
557.54718 0.016025 
558.287964 0.306659 
559.289734 0.018808 
560.303101 0.023776 
569.310913 0.018109 
570.235291 0.014416 
574.291077 0.018624 
584.179016 0.025333 
586.320862 3.149689 
587.32428 0.910005 
588.317688 1.237228 
589.054138 0.012544 
589.318176 0.171119 
590.352905 0.058033 
598.318726 0.024639 
600.334167 0.166805 
614.346924 0.123907 
615.138489 0.278715 
615.321472 0.050725 
615.383789 0.852906 
615.442261 1.907133 
616.309509 42.33503 
616.444214 0.332247 
617.137512 0.023021 
617.312439 14.197923 
617.462585 3.229472 
618.303101 2.060907 
618.347534 2.576076 
618.462585 0.56953 
647.115967 0.012683 
END IONS

