BEGIN IONS
PEPMASS=266.139
CHARGE=1+
COMPOUNDNAME=ANISOMYCIN
LIBRARYQUALITY=3
SMILES=N/A
INCHIKEY=YKJYKKNCCRKFSL-BFHYXJOUSA-N
INCHI=InChI=1S/C14H19NO4/c1-9(16)19-14-12(15-8-13(14)17)7-10-3-5-11(18-2)6-4-10/h3-6,12-15,17H,7-8H2,1-2H3/t12-,13+,14+/m0/s1
MSLEVEL=2
SOURCE_INSTRUMENT=N/A-ESI-QFT
FILENAME=library_mgf.mgf
SEQ=*..*
IONMODE=positive
ORGANISM=MONA
NAME=ANISOMYCIN [M+H]+
PI=MoNA
DATACOLLECTOR=MoNA:VF-NPL-QEHF027590
PUBMED=N/A
SUBMITUSER=mwang87
TAGS=
SPECTRUMID=CCMSLIB00004721171
SCANS=27590
50.105213 0.018945 
50.11797 0.016647 
50.150005 0.01807 
50.701355 0.018613 
51.173298 0.014309 
52.031467 0.018403 
52.107788 0.017356 
52.787659 0.018189 
52.99678 0.014959 
53.312691 0.018556 
54.467224 0.016174 
55.388462 0.017315 
55.400681 0.017579 
56.049801 0.943142 
56.074734 0.019939 
56.281826 0.019726 
57.012161 0.022412 
58.610497 0.019231 
60.04467 4.358177 
60.499905 0.012932 
61.923569 0.018605 
62.144459 0.01906 
62.894501 0.018209 
63.330933 0.019368 
63.562317 0.020615 
63.908356 0.018257 
63.951286 0.017761 
64.197441 0.02067 
64.998596 0.020075 
65.469536 0.018037 
66.7957 0.018624 
67.207924 0.012668 
67.92514 0.018661 
68.04966 0.166824 
68.287964 0.019832 
70.065224 1.61335 
70.216248 0.020798 
70.615646 0.018217 
71.178276 0.017112 
71.883698 0.014547 
71.905014 0.023281 
72.044487 0.343114 
72.633362 0.017046 
72.816505 0.019998 
73.021683 0.018878 
73.302948 0.016885 
73.442627 0.019631 
74.735069 0.015898 
75.19062 0.012537 
75.279137 0.020312 
75.483086 0.018104 
75.930473 0.018156 
77.130325 0.019845 
77.448021 0.01912 
77.668831 0.017205 
78.046753 0.040852 
78.496803 0.018132 
78.69046 0.021529 
79.672668 0.023354 
79.987495 0.014313 
80.049507 0.208655 
81.61953 0.015816 
81.799507 0.022043 
82.842552 0.017689 
83.226128 0.019842 
84.04451 0.576326 
84.104042 0.020311 
85.389175 0.018999 
85.940201 0.018395 
86.917625 0.014311 
87.528587 0.018476 
91.054291 1.139167 
91.542671 0.020059 
93.069778 0.023323 
94.186493 0.014247 
94.583099 0.018569 
97.335037 0.021468 
98.020294 0.019301 
98.060127 2.616262 
98.707993 0.020986 
100.193748 0.019452 
100.203804 0.021171 
100.309578 0.015765 
101.224457 0.029642 
102.055161 0.066574 
105.069977 0.018805 
107.049149 0.024979 
110.037949 0.018818 
113.106544 0.020397 
116.371017 0.015158 
117.070084 0.02177 
118.038208 0.023026 
118.065224 0.241266 
119.049103 0.078837 
119.086052 0.023175 
120.005753 0.019492 
121.064926 100.0 
122.068214 7.474735 
123.392265 0.020518 
125.77388 0.023599 
126.749489 0.021306 
129.06987 0.027396 
129.335236 0.020535 
131.072983 0.027171 
131.114563 0.019185 
132.204483 0.023851 
133.064972 0.021158 
134.367599 0.016704 
134.63237 0.019067 
135.080582 0.36579 
137.417343 0.016887 
141.052139 0.019605 
144.057144 2.181225 
145.065002 3.771513 
145.780045 0.020518 
146.06813 0.14738 
147.068069 0.654822 
147.08046 4.059516 
148.083984 0.220312 
149.083725 0.305613 
149.09613 1.064405 
150.091507 1.963936 
151.075424 0.077042 
151.094788 0.022814 
151.338272 0.018889 
152.829086 0.021759 
156.081146 0.093165 
157.073334 0.017341 
157.088715 0.197355 
157.549927 0.019271 
158.155411 0.019137 
159.080551 5.328059 
159.516464 0.018724 
160.076279 0.146188 
160.083908 0.549304 
161.096191 1.574601 
162.091522 0.607793 
162.098709 0.040881 
163.075546 0.350597 
163.099304 0.128646 
163.144699 0.02046 
164.297928 0.023461 
165.188644 0.01493 
166.813339 0.018713 
171.080505 1.532844 
173.083755 1.373052 
174.087067 0.068983 
177.09108 0.276003 
181.891403 0.018107 
182.136093 0.016855 
184.271225 0.021636 
186.091339 0.206643 
188.107025 5.172569 
189.091156 0.518607 
189.11058 0.363993 
191.094772 0.025781 
193.059738 0.021347 
195.840225 0.019683 
197.569473 0.02172 
200.709518 0.015013 
205.073593 0.021426 
205.151154 0.022922 
206.117661 14.515875 
207.121262 1.836305 
211.721405 0.017135 
213.481506 0.020287 
214.907501 0.022019 
215.239929 0.021313 
215.963242 0.230945 
215.970856 0.467773 
218.937546 0.02272 
222.473663 0.021156 
223.160904 0.02207 
224.128204 1.373004 
225.132401 0.022602 
229.89743 0.022675 
234.201294 0.019309 
234.38353 0.021088 
235.858902 0.018729 
245.809036 0.020975 
250.225296 0.022639 
257.628723 0.015507 
258.024414 0.01878 
258.883301 0.020497 
259.264709 0.016216 
266.13855 1.696077 
267.142212 0.135933 
268.169922 0.014448 
275.322327 0.018428 
281.225677 0.022848 
282.838745 0.019797 
286.888123 0.017072 
289.589783 0.020842 
END IONS

