BEGIN IONS
PEPMASS=1032.54
CHARGE=1+
COMPOUNDNAME=Tomatine
LIBRARYQUALITY=3
SMILES=N/A
INCHIKEY=REJLGAUYTKNVJM-SGXCCWNXSA-N
INCHI=InChI=1S/C50H83NO21/c1-20-7-12-50(51-15-20)21(2)32-28(72-50)14-26-24-6-5-22-13-23(8-10-48(22,3)25(24)9-11-49(26,32)4)65-45-40(63)37(60)41(31(18-54)68-45)69-47-43(71-46-39(62)36(59)34(57)29(16-52)66-46)42(35(58)30(17-53)67-47)70-44-38(61)33(56)27(55)19-64-44/h20-47,51-63H,5-19H2,1-4H3/t20-,21-,22-,23-,24+,25-,26-,27+,28-,29+,30+,31+,32-,33-,34+,35+,36-,37+,38+,39+,40+,41-,42-,43+,44-,45+,46-,47-,48-,49-,50-/m0/s1
MSLEVEL=2
SOURCE_INSTRUMENT=N/A-ESI-QFT
FILENAME=library_mgf.mgf
SEQ=*..*
IONMODE=negative
ORGANISM=MONA
NAME=Tomatine [M-H]-
PI=MoNA
DATACOLLECTOR=MoNA:VF-NPL-QEHF026707
PUBMED=N/A
SUBMITUSER=mwang87
TAGS=
SPECTRUMID=CCMSLIB00004719712
SCANS=26707
72.015839 0.740214 
72.62867 0.015532 
72.746445 0.020973 
72.991798 0.275256 
73.028137 5.493683 
74.145714 0.0105 
75.007378 0.022892 
76.07753 0.0172 
77.221458 0.014945 
77.430138 0.018401 
77.84581 0.020702 
78.552361 0.007368 
78.623817 0.014725 
78.669525 0.013322 
80.600296 0.009108 
80.605766 0.015616 
80.980057 0.006913 
81.033241 1.861193 
82.846519 0.015325 
82.974068 0.008585 
83.012527 3.481801 
83.327171 0.016596 
83.406441 0.015491 
84.146156 0.019008 
85.013588 0.010433 
85.02816 13.646617 
85.031029 0.296737 
85.931648 0.018525 
85.999573 0.254878 
86.031532 0.225913 
86.178368 0.013788 
86.37912 0.017527 
86.557983 0.008592 
87.007431 9.067266 
87.043739 0.08087 
87.854988 0.016932 
88.010818 0.099824 
89.023109 13.843604 
89.041595 0.019987 
89.448746 0.017417 
90.026443 0.25756 
90.45269 0.009462 
91.497932 0.018443 
92.001266 0.019927 
93.789589 0.006395 
93.961853 0.011758 
95.012543 6.840551 
95.071526 0.009652 
95.836746 0.010523 
96.015915 0.23526 
96.364944 0.021705 
96.958809 0.402241 
97.028221 8.15102 
97.616302 0.00758 
97.798805 0.006204 
98.031525 0.22404 
98.172539 0.021692 
98.383972 0.015845 
98.869408 0.013237 
99.0075 2.711821 
99.043877 0.691723 
99.656204 0.016604 
101.023155 26.72456 
101.041756 0.022669 
102.026512 0.899136 
103.840714 0.017006 
104.823051 0.01493 
107.012482 0.050861 
107.049049 0.019967 
108.01577 0.012241 
108.29184 0.019694 
108.647797 0.020953 
109.028297 0.218658 
110.185844 0.016686 
110.309631 0.011393 
110.87439 0.007676 
111.007538 0.302203 
111.043823 0.27955 
112.015404 0.169628 
112.127602 0.019227 
113.001205 0.019748 
113.023209 37.686359 
114.026558 1.612776 
114.942093 0.009587 
115.038849 1.804182 
115.920059 0.006881 
118.926208 0.010773 
119.033752 3.221805 
119.049049 0.011915 
119.179123 0.01582 
121.028336 0.014295 
123.007874 0.058911 
123.044014 0.049665 
124.015381 0.217668 
124.444679 0.018427 
124.667145 0.015898 
125.023216 10.232289 
126.026657 0.354554 
127.03894 0.192503 
127.102409 0.016811 
128.328339 0.014615 
129.018143 0.280047 
129.217804 0.019195 
129.255371 0.021941 
130.084335 0.021176 
131.033783 3.62079 
131.575516 0.015317 
132.037506 0.009767 
135.044098 0.43506 
135.891541 0.017653 
136.85495 0.011181 
137.023148 0.110587 
137.059662 0.133508 
137.269318 0.020674 
139.136108 0.020149 
141.018478 0.010808 
142.96312 0.008672 
143.033875 15.381729 
144.037323 0.757544 
146.156189 0.019294 
149.044403 1.353574 
149.059525 0.019731 
153.054688 0.698339 
153.673218 0.00757 
155.033875 0.061322 
157.049988 0.017948 
159.028946 1.151964 
159.627716 0.018893 
160.326889 0.014048 
161.04451 21.941219 
162.04805 1.162248 
162.867157 0.011392 
163.039032 0.013194 
164.605972 0.006874 
167.033661 0.033997 
173.275299 0.012376 
174.252869 0.02355 
176.516006 0.011661 
177.784607 0.016432 
179.033524 0.028139 
179.055176 1.34603 
180.462143 0.013905 
181.049927 0.251596 
185.045151 0.007896 
185.850784 0.015575 
188.968765 0.015846 
190.595505 0.012517 
190.67775 0.016215 
191.146347 0.018155 
193.329681 0.009508 
193.75914 0.018592 
195.931274 0.009751 
202.957825 0.009911 
203.05574 0.006883 
204.447983 0.01151 
207.861053 0.023078 
209.044586 0.012475 
212.672455 0.006854 
216.399521 0.007957 
221.066223 3.791597 
222.069687 0.031839 
228.107483 0.01872 
235.948288 0.018132 
237.155334 0.00759 
245.053482 0.008974 
245.066467 1.513129 
245.299393 0.018488 
252.512482 0.01467 
254.789597 0.009328 
255.029877 0.010269 
263.077576 0.06523 
265.430878 0.014348 
266.070648 0.009519 
266.136658 0.022396 
272.093933 0.010991 
275.077881 0.074514 
278.62619 0.019536 
282.13739 0.013249 
282.722565 0.018603 
287.35553 0.009036 
292.945984 0.007578 
293.088013 0.358469 
294.229095 0.017569 
296.32785 0.011196 
297.309296 0.009783 
302.694672 0.024145 
304.200409 0.091383 
304.755188 0.012355 
305.087738 0.034089 
313.546356 0.022476 
314.739502 0.017365 
322.93515 0.019689 
323.097046 0.038484 
328.359467 0.018347 
329.445099 0.020606 
334.405273 0.023234 
339.255951 0.017678 
339.929962 0.015725 
344.20047 0.016222 
346.487122 0.020478 
346.979034 0.008748 
348.983582 0.013379 
353.082367 0.007023 
359.003418 0.019732 
362.859772 0.020951 
413.191895 0.011858 
414.336761 0.026005 
443.149292 0.020035 
454.6073 0.022898 
456.348206 0.139386 
468.809662 0.015916 
479.990967 0.010531 
482.876495 0.01663 
484.343597 0.982175 
485.351257 0.02537 
488.908569 0.018573 
510.358551 0.344909 
510.696655 0.021373 
512.511353 0.00785 
520.935181 0.016469 
561.448669 0.02515 
563.892639 0.010958 
574.375305 0.325902 
575.378357 0.273873 
576.391235 100.0 
577.394653 30.209236 
578.397217 3.67189 
592.282898 0.013232 
605.039185 0.008946 
607.852905 0.022259 
653.737549 0.014263 
656.417297 0.269282 
657.423218 0.021409 
662.489319 0.012251 
671.68512 0.022595 
672.412231 2.329999 
673.416016 0.659979 
673.473145 0.011847 
675.797913 0.020358 
682.903198 0.027558 
684.411194 0.479141 
685.412842 0.055432 
687.644897 0.021897 
691.3797 0.01528 
700.098206 0.015856 
700.271118 0.009104 
707.848328 0.026953 
707.920654 0.038462 
708.01416 0.034055 
708.196167 0.027151 
708.289978 0.056363 
725.656433 0.014104 
736.429993 0.022936 
737.432251 0.036805 
738.444153 8.33417 
739.447571 3.061549 
740.450989 0.326424 
779.023132 0.025058 
803.790466 0.020138 
870.486938 2.334636 
871.488037 0.852619 
872.501892 0.017843 
888.592834 0.019201 
896.034912 0.02628 
900.497803 0.138182 
901.167725 0.008239 
901.513977 0.020034 
908.329224 0.00852 
919.166992 0.022343 
930.205994 0.022986 
937.123169 0.021005 
949.438049 0.014226 
958.087952 0.008922 
962.016724 0.027425 
964.078491 0.020121 
988.842651 0.011173 
1002.234802 0.021383 
1012.151001 0.007976 
1014.108276 0.022163 
1017.71283 0.0259 
END IONS

