BEGIN IONS
PEPMASS=262.129
CHARGE=1+
COMPOUNDNAME=Lotaustralin
LIBRARYQUALITY=3
SMILES=N/A
INCHIKEY=WEWBWVMTOYUPHH-GXUZYPEDSA-N
INCHI=InChI=1S/C11H19NO6/c1-3-11(2,5-12)18-10-9(16)8(15)7(14)6(4-13)17-10/h6-10,13-16H,3-4H2,1-2H3/t6-,7-,8+,9-,10+,11?/m1/s1
MSLEVEL=2
SOURCE_INSTRUMENT=N/A-ESI-QFT
FILENAME=library_mgf.mgf
SEQ=*..*
IONMODE=positive
ORGANISM=MONA
NAME=Lotaustralin [M+H]+
PI=MoNA
DATACOLLECTOR=MoNA:VF-NPL-QEHF007873
PUBMED=N/A
SUBMITUSER=mwang87
TAGS=
SPECTRUMID=CCMSLIB00004698936
SCANS=7873
54.518215 0.010428 
54.530457 0.01025 
54.959072 0.009032 
55.018646 0.017163 
55.055 0.184523 
56.058273 0.003601 
56.072582 0.005762 
56.610207 0.009185 
57.034195 0.01315 
57.070606 0.452632 
58.065876 0.032341 
58.138313 0.004941 
59.049942 0.007795 
59.281155 0.00312 
60.027687 0.006196 
60.045189 0.030549 
60.08176 0.011824 
60.542465 0.010302 
61.011372 0.046074 
61.029163 0.008312 
61.497223 0.004734 
61.792439 0.010402 
62.060741 0.006326 
65.156914 0.005996 
66.277893 0.002803 
66.585503 0.002955 
67.054901 0.100606 
68.297005 0.003522 
69.034149 0.156625 
69.07058 0.078932 
70.065826 0.172469 
70.623657 0.00912 
70.860001 0.005226 
71.049782 0.062952 
71.069199 0.003318 
71.086182 0.23223 
72.045021 0.026721 
72.081291 0.030677 
73.02906 0.039522 
73.065475 0.113548 
73.428734 0.004899 
74.060631 0.029572 
75.702759 0.009958 
75.852814 0.003499 
76.584282 0.006812 
76.979752 0.003231 
77.560043 0.007479 
78.198334 0.005288 
78.73954 0.007682 
79.021797 0.390116 
79.024269 0.009561 
79.036354 0.010093 
79.054848 0.045869 
80.126312 0.008672 
80.925308 0.008721 
81.034088 0.056447 
81.070427 0.300871 
81.07605 0.008312 
81.099945 0.006647 
82.720955 0.009679 
83.049622 0.065702 
83.086166 0.061016 
83.47821 0.008492 
84.044945 0.05729 
84.081268 0.006716 
84.451553 0.003422 
84.984421 0.009766 
85.028961 0.571695 
85.040283 0.056148 
85.065361 0.019281 
85.101677 0.087797 
85.494263 0.009618 
86.032158 0.010819 
86.096939 0.087274 
87.044571 0.166169 
88.039734 0.003508 
88.07618 0.231035 
88.902946 0.009539 
89.060135 0.263128 
89.781464 0.003329 
90.534409 0.009325 
90.626427 0.009824 
91.039452 0.005337 
91.054718 0.071258 
91.525261 0.003372 
92.024689 0.007877 
92.852562 0.00647 
93.070297 0.134061 
95.049591 0.016225 
95.061188 0.008323 
95.08593 0.327925 
96.08931 0.003791 
96.874161 0.006695 
96.921967 0.021222 
97.028801 0.378402 
97.065247 0.026497 
97.101669 0.010461 
97.196396 0.007356 
98.032143 0.003673 
98.06044 7.444592 
99.044518 0.079322 
99.05764 0.090114 
99.063774 1.63039 
99.080711 0.016751 
100.064537 0.017052 
100.067604 0.005017 
100.076019 0.153697 
101.003555 0.168313 
101.023643 0.004309 
101.950172 0.036964 
102.055214 0.003256 
102.09214 0.00724 
102.313202 0.008251 
102.968552 0.090534 
102.999352 0.009104 
103.039429 0.004566 
103.408028 0.011239 
104.046684 0.010423 
104.820236 0.007517 
104.992577 0.072169 
105.070206 0.378376 
105.826027 0.00891 
105.943085 0.198419 
106.086624 0.110441 
106.965599 0.074046 
107.049416 0.012639 
107.070694 0.016661 
107.085823 0.171435 
108.837708 0.01003 
109.028694 0.034405 
109.065369 0.004957 
109.101501 0.118141 
110.060349 0.112542 
110.10463 0.004659 
111.044304 0.034482 
111.081085 0.006121 
112.075829 0.005061 
113.059944 0.020888 
113.07132 0.016962 
114.016953 0.09885 
115.039307 0.006165 
115.947372 0.011455 
116.070801 0.072639 
117.070053 0.014231 
117.388863 0.007556 
117.686714 0.009226 
118.041809 0.004246 
118.086418 0.061742 
119.049515 0.003575 
119.085869 0.057907 
119.960617 0.004022 
120.081451 0.003963 
120.978867 0.092669 
121.064644 0.01307 
121.101326 0.158912 
122.469017 0.011356 
122.730331 0.011043 
123.022186 0.016527 
123.080383 0.020067 
123.116936 0.026266 
123.953438 0.112564 
124.075684 0.006782 
124.975922 0.090148 
125.0961 0.003798 
125.375809 0.005696 
126.055061 0.022034 
126.090805 0.003785 
127.03904 0.148745 
127.747574 0.011518 
127.761307 0.009298 
129.054749 0.010979 
129.069931 0.006592 
130.050034 0.019823 
130.086365 0.016062 
130.453766 0.008783 
131.001434 0.005315 
131.048889 0.020986 
131.085587 0.777411 
132.088699 0.005326 
132.102234 0.006135 
132.837296 0.010856 
133.064926 0.074021 
133.101227 0.07117 
134.688385 0.009246 
134.996628 0.004426 
135.08107 0.003676 
135.116821 0.094111 
136.075821 0.005812 
136.722214 0.010076 
136.95665 0.003478 
137.011734 0.004984 
137.05957 0.006542 
137.096024 0.005409 
137.971069 0.006048 
138.989243 0.044203 
139.038773 0.006012 
139.798569 0.006852 
139.951416 0.008933 
140.070511 0.175226 
140.723846 0.012331 
141.074005 0.034919 
141.963791 0.061821 
142.086182 0.004412 
142.986603 0.032886 
143.001526 0.034683 
143.085327 0.047637 
143.106491 0.004869 
143.957474 0.008039 
144.065475 0.075461 
144.964432 0.01027 
145.049316 0.058737 
145.064667 0.003675 
145.101212 0.059664 
147.043961 0.004705 
147.080536 0.045269 
147.116714 0.040208 
147.434906 0.003296 
149.012054 0.18989 
149.023148 0.008243 
149.096161 0.042145 
149.132553 0.027516 
150.880234 0.003528 
152.070358 0.004974 
152.951614 0.008159 
152.989517 0.005083 
154.086655 0.005969 
154.946884 0.308827 
154.967285 0.011227 
155.069824 0.004988 
156.883041 0.011842 
156.962479 0.235757 
157.101028 0.026694 
158.026855 0.029928 
159.116638 0.012543 
159.974228 0.01312 
161.011719 0.083192 
161.095932 0.004322 
161.132599 0.024059 
162.076096 0.007004 
163.028793 0.011516 
163.111755 0.01287 
163.148285 0.006408 
163.252869 0.01013 
164.070251 0.004884 
165.006363 0.012828 
166.085968 0.020835 
167.022629 0.036066 
169.073563 0.009775 
170.955215 0.185649 
171.116577 0.004651 
172.957581 0.146703 
173.011368 0.07908 
173.096024 0.02117 
174.337067 0.009409 
174.954285 0.00457 
175.075058 0.009597 
175.112 0.003692 
175.14798 0.004761 
177.126663 0.004607 
177.1642 0.003702 
178.377029 0.008943 
179.022278 0.237283 
180.894302 0.011325 
180.982468 0.026604 
181.98851 0.010511 
182.9039 0.009312 
182.97821 0.012342 
183.006485 0.206011 
183.956619 0.057854 
184.939682 0.106053 
184.979263 0.036917 
185.096298 0.003878 
185.132675 0.009558 
186.021759 0.006281 
187.074814 0.003355 
188.965759 0.097749 
189.09169 0.005757 
191.022278 0.450665 
193.075089 0.0208 
194.916031 0.009246 
194.929077 0.009985 
197.059631 0.026627 
197.974579 0.006865 
198.992859 0.064951 
199.969925 0.096215 
200.914963 0.004329 
200.971207 0.028164 
200.989868 0.079681 
201.007187 0.119056 
201.01712 0.702433 
201.090027 0.00476 
201.163467 0.003878 
201.967331 0.8279 
202.020218 0.004132 
202.989716 0.126466 
203.021805 0.01239 
203.07048 0.004518 
203.931259 0.004532 
205.037827 0.003917 
209.015335 0.11523 
211.838821 0.008499 
214.216034 0.004688 
215.07016 0.035989 
215.889771 0.08317 
215.896255 0.057042 
215.902252 0.070349 
216.123154 0.005247 
216.248322 0.012041 
217.048965 0.012751 
217.104523 0.054637 
217.980103 0.004099 
219.017487 0.125833 
219.090561 0.031675 
219.174255 0.318699 
219.977692 0.286755 
220.90329 0.011893 
222.898636 0.230872 
225.054321 0.019567 
226.10733 0.009459 
229.068527 0.063925 
230.577576 0.009906 
235.074829 0.022676 
237.027634 0.003853 
238.913574 0.031132 
239.901154 0.048632 
240.908981 0.527673 
242.101929 0.301535 
243.042786 0.004879 
243.065002 0.336231 
243.103546 0.260812 
243.137741 0.004944 
243.210297 0.014133 
244.068909 0.006479 
244.117935 0.041781 
244.131409 0.004041 
244.169037 0.011183 
245.152679 0.005207 
245.226624 0.016901 
245.492935 0.010292 
246.184998 0.214895 
247.075653 0.003586 
248.082413 0.005228 
248.104401 0.057167 
255.741165 0.006955 
260.114105 0.010619 
260.155029 0.009489 
260.200897 0.004572 
260.220612 0.020353 
260.236664 0.046201 
261.130554 100.0 
261.219086 0.028765 
262.09729 0.018637 
262.134033 11.518465 
262.178345 0.221099 
262.20105 0.019365 
262.215607 0.091604 
262.237549 0.03912 
262.252441 0.062011 
263.043976 0.017294 
263.069061 0.115335 
263.082458 0.24074 
263.107971 0.280734 
263.135895 1.674943 
263.160645 0.041961 
263.174316 0.039935 
263.211304 0.224579 
263.236725 0.039822 
263.900177 0.010383 
264.075836 0.008665 
264.139801 0.038496 
264.157379 0.240047 
264.194763 0.165324 
264.215088 0.003725 
264.231232 0.017153 
277.843262 0.010682 
279.916321 0.034508 
281.053528 0.049469 
281.91156 0.40784 
284.153351 0.003739 
END IONS

