BEGIN IONS
PEPMASS=449.375
CHARGE=1+
COMPOUNDNAME=3-Epilupeol
LIBRARYQUALITY=3
SMILES=N/A
INCHIKEY=MQYXUWHLBZFQQO-ISZJTHHZSA-N
INCHI=InChI=1S/C30H50O/c1-19(2)20-11-14-27(5)17-18-29(7)21(25(20)27)9-10-23-28(6)15-13-24(31)26(3,4)22(28)12-16-30(23,29)8/h20-25,31H,1,9-18H2,2-8H3/t20-,21+,22-,23+,24+,25+,27+,28-,29+,30+/m0/s1
MSLEVEL=2
SOURCE_INSTRUMENT=N/A-ESI-QFT
FILENAME=library_mgf.mgf
SEQ=*..*
IONMODE=positive
ORGANISM=MONA
NAME=3-Epilupeol [M+Na]+
PI=MoNA
DATACOLLECTOR=MoNA:VF-NPL-QEHF005651
PUBMED=N/A
SUBMITUSER=mwang87
TAGS=
SPECTRUMID=CCMSLIB00004696714
SCANS=5651
50.001816 0.015341 
50.004124 0.014848 
50.299 0.015261 
50.448376 0.014433 
51.11768 0.014007 
51.434982 0.013938 
51.460052 0.014905 
51.56826 0.01458 
51.615841 0.015283 
52.257915 0.013363 
52.40712 0.016849 
52.742397 0.014865 
52.79578 0.016476 
53.181244 0.015862 
53.418423 0.013825 
53.566315 0.014014 
53.934227 0.012481 
54.537235 0.013585 
54.659618 0.013341 
54.66589 0.015136 
54.774204 0.016986 
55.018635 0.139572 
55.055004 1.157162 
55.254322 0.016245 
56.017246 0.01443 
56.050293 0.056151 
56.067776 0.018576 
56.075626 0.014513 
56.644859 0.016301 
56.965561 0.497467 
57.034267 0.350198 
57.069221 0.014761 
57.070637 2.059111 
58.065792 0.100923 
58.067982 0.014829 
58.396507 0.014773 
58.513439 0.017472 
59.049885 0.496635 
59.061131 0.206815 
59.275295 0.013158 
59.878708 0.013992 
59.991047 0.02074 
60.045151 0.438984 
61.011402 2.460916 
61.773445 0.014777 
62.019184 0.233627 
62.060776 0.612321 
62.500797 0.012886 
62.982479 0.051722 
63.947914 0.019504 
64.048584 0.012823 
64.348549 0.014164 
65.009888 0.015955 
65.565498 0.016652 
65.92334 0.01295 
65.935066 0.015529 
66.180679 0.01355 
66.184479 0.012766 
66.438446 0.012832 
66.589554 0.017589 
66.83886 0.014679 
67.054916 1.279697 
67.065536 0.015292 
67.247108 0.014166 
67.287956 0.015081 
67.640388 0.012824 
67.832146 0.014833 
67.935806 0.016061 
68.328758 0.016194 
69.034195 0.646065 
69.070587 1.692732 
69.87384 0.01443 
70.065804 0.3002 
70.099609 0.013525 
70.585899 0.014676 
71.049797 0.34988 
71.086235 0.823128 
71.09272 0.01467 
71.310181 0.014628 
71.648163 0.017593 
71.76075 0.01587 
72.014832 0.013207 
72.045074 0.147568 
72.081398 0.268786 
72.336746 0.016432 
72.490341 0.014306 
72.751183 0.014714 
73.029045 0.308352 
73.047409 0.016519 
73.065453 0.138702 
73.991142 0.013806 
74.060463 0.015825 
74.097061 1.116324 
76.07634 0.16314 
78.553627 0.01417 
78.68277 0.015757 
78.97007 0.013121 
79.021866 1.385164 
79.054832 0.727952 
79.399948 0.013618 
79.595993 0.015073 
79.788368 0.01277 
80.042007 0.014377 
80.411278 0.013862 
80.948418 0.053702 
81.034081 0.044704 
81.070503 2.79063 
81.45797 0.015997 
81.510559 0.015522 
82.07383 0.015815 
83.049698 0.526807 
83.060349 0.015446 
83.086098 1.054459 
84.045029 0.017593 
84.081329 0.383819 
84.982956 0.012698 
85.028999 0.348983 
85.065323 0.515078 
85.101746 0.301049 
85.920074 0.016612 
86.060677 0.032931 
86.096962 0.346276 
87.044617 6.137359 
87.777359 0.014009 
87.93679 0.015403 
88.022003 0.209279 
88.048004 0.20947 
88.076256 0.093964 
88.983574 0.015288 
89.060234 2.873629 
90.063499 0.018667 
90.375282 0.015041 
90.948051 0.014926 
91.054733 0.927702 
91.057877 0.879642 
91.124939 0.014041 
91.674744 0.01637 
92.057404 0.055786 
92.061523 0.013402 
92.105057 0.013955 
93.0373 0.462802 
93.054703 0.022819 
93.07032 1.655151 
93.560059 0.014946 
94.065659 0.018551 
95.049553 0.581939 
95.086021 3.855902 
95.546753 0.017043 
95.875237 0.013104 
96.089378 0.084416 
96.922501 0.016831 
97.028824 0.111376 
97.065254 0.403831 
97.101578 0.775404 
98.060646 0.017398 
98.09687 0.216511 
98.745628 0.013674 
98.748184 0.017058 
98.975792 0.11574 
99.044495 0.282901 
99.080856 0.296559 
99.102158 0.016391 
99.773598 0.016412 
100.076027 0.35651 
101.003571 0.151387 
101.060005 0.072562 
101.556419 0.015466 
101.685196 0.015535 
102.055161 0.015214 
102.091743 1.450566 
103.039398 0.104339 
103.075401 0.018129 
103.328453 0.016695 
103.532249 0.013393 
104.107277 0.024634 
104.539566 0.015055 
104.762016 0.01573 
105.033821 0.62267 
105.066521 0.026477 
105.070213 1.828855 
106.050224 0.333249 
106.086624 0.13015 
106.824226 0.014446 
106.924515 0.015607 
107.049492 0.088102 
107.070564 0.017222 
107.085892 2.737544 
108.089371 0.021896 
108.290352 0.014152 
109.028625 0.020025 
109.065071 0.522128 
109.101494 2.795121 
110.104881 0.019827 
110.7742 0.01428 
111.044334 0.033223 
111.080757 0.402721 
111.117249 0.065547 
112.075836 0.034163 
113.05999 0.552495 
113.331619 0.013966 
113.607529 0.014756 
114.128098 0.022302 
115.039284 0.02136 
115.054695 0.015908 
115.075371 0.020818 
115.12368 0.015663 
115.18438 0.018093 
115.633942 0.016329 
116.053093 0.535676 
116.1073 0.097232 
116.121529 0.015234 
116.986153 0.433252 
117.070229 0.142004 
118.268272 0.018345 
119.049278 0.266644 
119.085762 2.311627 
120.080994 0.801765 
120.088982 0.064374 
120.30407 0.013679 
120.644836 0.0158 
121.028534 0.043183 
121.064949 0.485256 
121.10141 2.669293 
122.104599 0.05345 
122.941086 0.039233 
123.044304 0.016815 
123.080627 0.509251 
123.11692 1.366065 
123.470154 0.019282 
125.059891 0.182065 
125.096123 0.425412 
126.05275 0.146721 
126.151192 0.014346 
127.075249 0.063524 
128.062576 0.135037 
129.011566 0.01544 
129.069824 0.114288 
129.334579 0.013494 
129.740829 0.015718 
130.159103 0.019099 
131.00032 0.036173 
131.048828 0.038819 
131.070312 0.140589 
131.085571 0.364153 
133.064835 0.124195 
133.085953 0.414026 
133.101242 2.009882 
133.526993 0.015385 
134.104919 0.034754 
134.956146 0.018588 
134.978668 0.017358 
134.996445 0.816071 
135.01088 0.021316 
135.043869 0.041269 
135.075653 0.019702 
135.08049 1.263232 
135.116852 2.067107 
135.539246 0.014375 
135.621704 0.016371 
136.07576 0.020614 
136.120316 0.058184 
136.957596 0.041495 
137.059753 0.243083 
137.096161 0.558886 
137.132538 0.624624 
137.163284 0.016177 
138.127853 0.035506 
138.206802 0.01656 
139.039444 0.014778 
139.075394 0.082202 
139.111664 0.110521 
140.107132 0.058807 
140.143372 0.034882 
140.617889 0.015112 
140.959244 1.234289 
141.07019 0.0162 
141.127335 0.019857 
142.239014 0.015785 
143.085495 1.330091 
144.957779 0.017329 
145.064636 0.016944 
145.101212 1.199268 
145.696625 0.016184 
146.103714 0.018942 
147.044388 0.01909 
147.080276 0.275249 
147.116821 1.593182 
147.740341 0.017008 
148.120529 0.016847 
148.333755 0.016235 
148.439072 0.018097 
148.972061 0.367771 
149.011749 0.035084 
149.023453 0.255798 
149.059464 0.165332 
149.096161 1.106549 
149.132553 0.909628 
149.889297 0.014695 
150.026764 0.040475 
150.099213 0.022745 
150.136063 0.018595 
150.950989 0.052705 
151.075485 0.162087 
151.111694 0.253641 
151.970062 0.256716 
152.401062 0.016702 
152.95134 0.312767 
152.989197 0.185087 
153.007095 0.071757 
153.069855 0.184616 
153.090958 0.439426 
153.127457 0.039375 
153.959259 0.688271 
153.966721 0.014491 
154.07869 0.02111 
154.122864 0.038732 
154.158905 0.068986 
154.968475 0.160417 
155.085587 0.707459 
156.089432 0.016572 
156.138412 0.197341 
156.933212 0.123813 
157.064178 0.018718 
157.10112 0.426433 
157.604324 0.019632 
157.810196 0.014092 
158.481567 0.016948 
159.044266 0.433018 
159.080276 0.144334 
159.116791 1.300787 
160.694366 0.016291 
161.011719 0.021481 
161.096085 0.49143 
161.132553 0.866636 
161.286545 0.015141 
162.135849 0.017044 
163.0271 0.014511 
163.075195 0.122662 
163.111603 0.301909 
163.148026 0.348095 
164.92038 0.441484 
164.951691 0.016339 
164.988037 0.038763 
165.054993 0.024245 
165.090942 0.36234 
165.12738 0.167078 
165.221909 0.014623 
166.732803 0.016895 
166.982437 0.057355 
167.055542 0.025046 
167.106659 0.017411 
167.915558 0.015378 
168.13826 0.021681 
168.982849 0.222386 
169.015625 0.01471 
169.101288 0.098638 
169.980499 0.067838 
170.962524 0.299899 
170.978104 0.0307 
171.044022 0.034652 
171.06311 0.125751 
171.080383 1.805911 
171.116867 0.522845 
172.083817 0.042572 
173.010849 0.036307 
173.096344 0.333757 
173.132538 1.050591 
174.972534 0.186081 
174.989975 0.220783 
175.039932 0.018101 
175.075104 0.019669 
175.111786 0.577916 
175.148193 0.976969 
176.152039 0.016183 
176.98819 0.137527 
177.005951 0.020043 
177.057526 0.040218 
177.090912 0.023318 
177.127594 0.212912 
177.163651 0.190413 
178.483765 0.017526 
179.106735 0.057132 
179.293671 0.016704 
180.016724 0.016681 
180.894379 0.159351 
181.064667 0.297972 
181.101562 0.01782 
182.962112 0.077078 
183.117004 0.19678 
183.960388 0.015326 
184.051926 0.175825 
185.011017 0.020586 
185.059723 0.373331 
185.095963 0.053043 
185.132477 0.938968 
185.949158 0.159412 
187.039062 0.518217 
187.111801 0.336583 
187.148163 1.442877 
187.260162 0.021637 
188.151108 0.018255 
188.974182 0.172159 
189.005585 0.226158 
189.090881 0.117815 
189.112244 0.043144 
189.127335 0.318184 
189.163712 1.2711 
189.628998 0.016669 
190.16713 0.021178 
190.229233 0.016177 
190.969543 0.015412 
191.002701 0.019516 
191.106491 0.064949 
191.143112 0.037254 
191.179428 0.090457 
191.998779 0.020843 
192.961639 0.996446 
193.08551 0.018901 
193.122726 0.020155 
194.292313 0.017457 
194.961807 0.165307 
194.99939 0.048574 
195.031784 0.016067 
195.117111 0.024044 
195.960083 0.206399 
196.583969 0.016541 
196.868408 0.307196 
196.957977 0.018314 
197.132416 0.212444 
197.974182 0.031958 
198.104782 0.01619 
199.029053 0.031558 
199.039017 6.442227 
199.075378 6.274254 
199.111496 0.153896 
199.148224 0.505877 
200.04245 0.646406 
200.078796 0.716626 
200.391296 0.018336 
201.09079 0.016469 
201.127533 0.195036 
201.163925 0.276645 
203.053146 0.05073 
203.069839 0.021532 
203.106186 0.021411 
203.143005 0.634565 
203.179565 0.076085 
204.020035 0.019772 
204.370041 0.014096 
205.121826 0.027579 
205.158783 0.405776 
206.657593 0.01847 
207.053726 0.041934 
208.801636 0.014637 
209.132492 0.069246 
209.698914 0.014852 
209.984634 0.014771 
210.185852 0.021189 
210.972122 0.575746 
211.111725 0.022945 
211.148285 0.22501 
212.046875 0.258362 
212.842087 0.076286 
212.972687 0.768407 
213.090729 0.018616 
213.127396 0.281822 
213.163757 0.260693 
213.58696 0.857644 
213.590424 0.88265 
213.601715 0.27831 
213.97023 0.458389 
214.968262 0.033289 
215.088974 0.332491 
215.143097 0.629431 
215.179123 0.04022 
216.183319 0.019888 
217.121948 0.097257 
217.158676 0.567325 
217.194229 0.018106 
219.014832 0.017665 
219.119461 0.018892 
219.138306 0.017585 
219.174347 0.267495 
220.903488 0.222988 
222.898712 1.27435 
223.111435 0.017895 
223.147781 0.064074 
225.127167 0.135077 
225.163742 0.10166 
227.070175 100.0 
227.142593 0.139207 
227.16362 0.018199 
227.178131 0.02229 
227.935196 0.026519 
227.987289 0.01551 
228.073578 15.292589 
229.075989 1.59836 
229.122101 0.125841 
229.158539 0.388086 
230.159775 0.015517 
230.966873 0.047166 
231.137955 0.815066 
231.174835 0.018343 
233.15358 0.217574 
233.512283 0.015737 
233.897095 0.020275 
234.895294 0.057314 
234.939362 0.040408 
235.892395 0.087611 
237.946198 0.017412 
238.137039 0.018574 
238.913788 0.740435 
239.178925 0.023416 
240.909058 2.515789 
241.122513 0.118221 
241.158936 0.082047 
241.193939 0.019814 
243.13858 0.041401 
243.174545 0.021518 
243.211166 0.015548 
243.907837 0.022787 
244.141998 0.023125 
244.909531 0.042816 
245.0811 0.23597 
245.153244 0.269597 
245.433945 0.018253 
245.907806 0.215724 
246.905807 0.08566 
247.086349 0.017747 
247.147614 0.018426 
247.168427 0.04828 
247.906677 0.040124 
249.163406 0.016311 
250.933563 0.110392 
251.025513 0.090846 
251.179184 0.017341 
251.907455 0.64852 
252.905045 0.573048 
252.949768 0.791643 
253.194611 0.020629 
253.902878 0.778524 
253.950607 0.015542 
254.924881 0.040337 
256.14209 0.018226 
259.115234 0.456346 
259.169098 0.09048 
263.901184 0.051958 
264.908997 0.107482 
264.967316 0.016123 
265.923615 0.044457 
265.949524 0.017724 
266.343872 0.016519 
267.906982 0.018169 
268.909912 0.328418 
268.927246 0.016687 
268.943909 0.319378 
269.036499 0.039022 
269.189941 0.02188 
269.906433 0.608527 
269.944977 0.053172 
270.904633 0.159101 
270.963104 0.018091 
271.168976 0.016247 
271.206421 0.028068 
271.912903 0.056075 
273.163208 0.017727 
279.173401 0.016858 
279.916443 0.182899 
281.189789 0.096346 
281.912018 0.962146 
282.919861 0.187394 
284.153076 0.055557 
284.894745 0.19128 
285.918976 0.116407 
285.939575 0.098431 
286.920654 0.5014 
286.937927 0.020068 
287.918396 1.634149 
288.915863 0.904504 
289.123993 0.043286 
290.947052 0.09767 
291.946899 0.016404 
292.930389 0.016753 
294.884064 0.058656 
295.194061 0.754207 
295.927734 0.083193 
297.18457 0.036125 
299.20047 0.092994 
300.136169 0.017977 
301.933777 0.036802 
301.985443 0.018641 
302.904694 0.344819 
303.141357 0.57688 
303.211273 0.016309 
304.117371 0.016894 
305.156067 0.021057 
306.919617 0.23184 
307.205841 0.042008 
308.772522 0.017587 
309.918213 0.179758 
310.920288 0.336799 
310.941986 0.341986 
311.189362 0.069589 
311.29422 1.269342 
311.918579 0.825777 
312.298279 0.025334 
312.83844 0.034929 
312.916626 0.424454 
313.204559 5.685469 
317.840912 1.284389 
317.859039 0.015897 
318.227844 0.01874 
319.836456 1.824313 
320.021362 0.015593 
323.894653 0.016209 
324.325195 0.091046 
326.742554 0.014896 
326.838318 0.017203 
326.934509 0.018651 
327.220551 0.091194 
327.825104 0.070093 
327.929443 0.035217 
328.930939 0.19916 
328.952423 0.679791 
329.928802 0.884707 
330.926849 0.914083 
331.215485 5.232251 
334.843536 1.941192 
335.237671 0.018413 
335.850922 0.948766 
336.838196 1.732516 
337.162354 0.040674 
337.214874 0.016825 
337.846619 1.251918 
339.625763 0.018032 
341.234711 0.046954 
344.943146 0.023373 
345.231049 0.126144 
347.167419 0.507717 
347.235291 0.138909 
347.830078 0.018976 
349.182587 0.106639 
349.830078 0.017025 
349.851929 0.020363 
350.913605 0.022587 
351.845886 0.438277 
352.853821 0.335599 
353.8414 0.377896 
354.849365 0.3631 
355.193237 0.022327 
356.848511 0.217609 
358.843597 7.996667 
359.845825 0.615843 
360.373505 0.016514 
360.838593 8.098594 
361.544647 0.017159 
362.258392 0.254656 
363.261505 0.025755 
364.833984 0.0383 
365.841919 0.017573 
367.840424 0.473809 
368.351959 0.202259 
368.924469 0.347404 
369.836243 0.930488 
369.922424 0.016074 
370.903503 0.212486 
371.162567 0.254267 
372.163361 0.024176 
374.858612 0.049784 
376.853821 3.679068 
377.856201 0.107098 
378.409058 0.018392 
378.849182 3.589486 
383.849274 0.016964 
385.851654 0.299864 
387.847076 0.403752 
388.833923 0.034928 
390.870483 0.056493 
391.192749 0.083622 
392.864899 0.133052 
393.208832 2.439446 
393.516327 0.01724 
403.298279 0.059868 
404.261627 0.020945 
405.313171 0.023187 
406.844849 1.770467 
407.846436 0.325404 
413.285583 0.019596 
419.188721 0.021602 
420.858215 0.01711 
421.30957 0.017707 
423.325348 0.057906 
424.854889 0.105153 
425.858002 0.017136 
431.263092 0.022977 
431.294556 1.516451 
432.298126 0.433459 
433.30899 0.965745 
434.733948 0.018781 
447.292877 0.410892 
447.346497 0.354886 
448.296082 6.37329 
448.349884 0.069894 
449.201599 0.127784 
449.23642 0.020798 
449.267944 0.779239 
449.303314 8.304021 
450.111877 1.448911 
450.234192 0.055072 
450.271423 0.111392 
450.306976 2.376176 
451.11618 0.275851 
451.215393 3.357353 
451.249573 0.776854 
451.282166 1.563785 
451.319092 2.343074 
470.729858 0.016978 
474.695282 0.018243 
475.898224 0.019094 
477.789307 0.015025 
END IONS

