BEGIN IONS
PEPMASS=269.09
CHARGE=1+
COMPOUNDNAME=N-acetyltryptophan
LIBRARYQUALITY=3
SMILES=N/A
INCHIKEY=DZTHIGRZJZPRDV-UHFFFAOYSA-N
INCHI=InChI=1S/C13H14N2O3/c1-8(16)15-12(13(17)18)6-9-7-14-11-5-3-2-4-10(9)11/h2-5,7,12,14H,6H2,1H3,(H,15,16)(H,17,18)
MSLEVEL=2
SOURCE_INSTRUMENT=N/A-ESI-QFT
FILENAME=library_mgf.mgf
SEQ=*..*
IONMODE=positive
ORGANISM=MONA
NAME=N-acetyltryptophan [M+Na]+
PI=MoNA
DATACOLLECTOR=MoNA:VF-NPL-QEHF000854
PUBMED=N/A
SUBMITUSER=mwang87
TAGS=
SPECTRUMID=CCMSLIB00004691917
SCANS=854
50.358002 0.030204 
50.399544 0.031718 
50.49255 0.040103 
50.567776 0.057392 
51.037048 0.024734 
51.389748 0.053344 
52.981239 0.047267 
53.787483 0.029619 
54.259727 0.059106 
54.965481 0.029511 
55.269516 0.039117 
55.60236 0.032825 
56.161037 0.033938 
56.585388 0.027829 
56.630268 0.033971 
56.943127 0.034197 
57.709656 0.036179 
57.855118 0.028369 
57.926571 0.032343 
58.264877 0.033742 
58.739475 0.024074 
59.049835 1.068983 
59.106434 0.036926 
59.646008 0.02209 
59.754162 0.031538 
59.953869 0.031405 
61.011333 90.9216 
62.019196 0.454256 
62.393593 0.030403 
64.513115 0.057713 
64.742729 0.032166 
64.766884 0.033354 
65.294891 0.034224 
65.390182 0.04814 
66.167183 0.033389 
66.467911 0.020347 
68.368385 0.025785 
68.776665 0.051699 
68.79985 0.027139 
68.963509 0.05951 
69.004646 0.033156 
69.934814 0.044321 
70.958473 2.377684 
72.41671 0.025945 
72.937828 0.328185 
73.830696 0.03082 
74.677177 0.028521 
76.363838 0.035105 
76.768463 0.030092 
77.567787 0.023095 
77.651947 0.02568 
79.592026 0.032672 
80.626793 0.030278 
82.002022 0.039219 
82.577888 0.02567 
83.612946 0.028032 
84.039452 0.027953 
84.942619 0.029509 
85.538521 0.046858 
86.060593 0.025042 
86.879776 0.024975 
87.349449 0.032329 
87.745712 0.020361 
88.149895 0.038021 
88.579048 0.05154 
88.968994 0.071524 
89.060127 0.021855 
89.940544 0.038976 
90.948212 0.103039 
91.41349 0.02549 
91.760696 0.03296 
92.664474 0.020121 
94.40612 0.028661 
94.903519 0.051315 
95.085983 0.027753 
95.188164 0.04057 
95.819908 0.032151 
96.618279 0.029882 
97.898804 0.030104 
99.672211 0.033562 
100.075806 0.039624 
100.112473 0.338458 
100.736366 0.031566 
101.060036 2.66687 
101.860764 0.045317 
102.930183 0.04159 
103.79882 0.034453 
103.889755 0.037514 
105.917336 0.11176 
107.228989 0.02347 
107.801697 0.027598 
107.914925 0.035836 
109.6008 0.043309 
110.21167 0.030649 
111.526093 0.021847 
111.878365 0.029874 
113.704277 0.034685 
113.881523 0.032257 
114.948257 0.331597 
116.90966 0.022341 
117.916908 0.040088 
118.415154 0.05214 
118.925461 0.035119 
118.952919 0.029829 
120.394745 0.029643 
120.940567 1.293202 
123.463829 0.052781 
123.589233 0.034962 
124.108925 0.046977 
125.684456 0.043607 
128.107162 0.028153 
129.326141 0.034615 
130.962891 0.398007 
131.961319 1.389305 
132.940338 0.596333 
132.958176 6.161772 
133.815933 0.045441 
133.948318 1.508242 
134.494308 0.055268 
134.956055 0.322427 
134.97821 0.04 
135.927521 0.373628 
139.129547 0.046823 
144.958389 0.023502 
146.976334 11.608257 
147.974625 3.155593 
148.97171 100.0 
149.960495 0.076125 
149.971771 0.307654 
150.95105 2.573344 
150.968674 3.176197 
153.293777 0.05641 
156.044327 0.024232 
159.71492 0.036009 
160.955719 0.054538 
162.46582 0.051103 
162.950974 2.557621 
164.369492 0.055576 
164.986877 1.169162 
165.827393 0.02771 
165.938034 0.172389 
166.71965 0.027615 
166.974426 0.046838 
166.982224 12.039107 
167.069962 0.031883 
169.465088 0.029059 
175.777878 0.052203 
175.942551 0.519553 
176.608658 0.034862 
176.941223 0.567336 
177.416733 0.055881 
177.862473 0.034988 
177.937973 7.168034 
178.96666 0.063589 
179.02243 0.121693 
180.109924 0.03651 
180.961426 2.330315 
180.998077 0.196029 
183.537796 0.032336 
189.718948 0.034671 
190.458832 0.037435 
190.96611 8.145319 
191.635452 0.037425 
191.964188 3.684423 
192.752136 0.055049 
192.961502 69.56633 
193.953506 0.246174 
194.95166 0.389009 
195.948608 4.36339 
197.115143 0.036035 
200.857025 0.055673 
202.504333 0.03111 
208.976791 2.814176 
209.97522 1.881116 
210.160599 0.070301 
210.971939 25.479239 
211.10817 0.03346 
213.728012 0.054072 
213.855591 0.032555 
215.79982 0.130605 
215.808014 0.570924 
215.820007 0.125327 
216.980347 0.035022 
222.512711 0.031222 
223.289841 0.028535 
223.990356 0.041629 
224.987518 0.451422 
229.137939 0.0274 
229.22374 0.035023 
235.110825 0.030155 
236.606827 0.035663 
238.154358 0.022161 
238.263916 0.038137 
240.247864 0.027755 
246.44577 0.033647 
250.98645 0.030954 
256.283691 0.039518 
256.427887 0.036958 
258.078094 0.036722 
262.104431 0.030928 
269.135132 0.043511 
270.182434 0.046571 
270.956848 0.112085 
279.042328 0.037594 
288.846619 0.044372 
END IONS

