BEGIN IONS
PEPMASS=355.305
CHARGE=1+
COMPOUNDNAME=2,4-dihydroxy-6-methyl-3-[(2E,6E)-3,7,11-trimethyldodeca-2,6,10-trienyl]benzaldehyde
LIBRARYQUALITY=3
SMILES=N/A
INCHIKEY=QAPOXOGEDXIOHD-VZRGJMDUSA-N
INCHI=InChI=1S/C23H32O3/c1-16(2)8-6-9-17(3)10-7-11-18(4)12-13-20-22(25)14-19(5)21(15-24)23(20)26/h8,10,12,14-15,25-26H,6-7,9,11,13H2,1-5H3/b17-10+,18-12+
MSLEVEL=2
SOURCE_INSTRUMENT=N/A-Linear Ion Trap
FILENAME=library_mgf.mgf
SEQ=*..*
IONMODE=negative
ORGANISM=MONA
NAME=2,4-dihydroxy-6-methyl-3-[(2E,6E)-3,7,11-trimethyldodeca-2,6,10-trienyl]benzaldehyde M-H
PI=MoNA
DATACOLLECTOR=MoNA:VF-NPL-LTQ000873
PUBMED=N/A
SUBMITUSER=mwang87
TAGS=
SPECTRUMID=CCMSLIB00004685104
SCANS=725
134.979996 9.604152 
162.020004 1.712939 
174.970001 100.0 
201.009995 5.817661 
205.029999 5.429652 
257.079987 3.72817 
287.209991 2.627863 
311.190002 12.101125 
END IONS

