BEGIN IONS
PEPMASS=382.105
CHARGE=1+
COMPOUNDNAME=(4R,6S,8S,9Z,11E)-16-chloro-17,19-dihydroxy-4-methyl-3,7-dioxatricyclo[13.4.0.0?,?]nonadeca-1(15),9,11,16,18-pentaene-2,13-dione
LIBRARYQUALITY=3
SMILES=N/A
INCHIKEY=WYZWZEOGROVVHK-RPJJWQTDSA-N
INCHI=InChI=1S/C18H17ClO6/c1-9-6-15-14(25-15)5-3-2-4-10(20)7-11-16(18(23)24-9)12(21)8-13(22)17(11)19/h2-5,8-9,14-15,21-22H,6-7H2,1H3/b4-2+,5-3-/t9-,14+,15+/m1/s1
MSLEVEL=2
SOURCE_INSTRUMENT=N/A-ESI-QFT
FILENAME=library_mgf.mgf
SEQ=*..*
IONMODE=positive
ORGANISM=MONA
NAME=(4R,6S,8S,9Z,11E)-16-chloro-17,19-dihydroxy-4-methyl-3,7-dioxatricyclo[13.4.0.0?,?]nonadeca-1(15),9,11,16,18-pentaene-2,13-dione [M+NH4]+
PI=MoNA
DATACOLLECTOR=MoNA:VF-NPL-QEHF022116
PUBMED=N/A
SUBMITUSER=mwang87
TAGS=
SPECTRUMID=CCMSLIB00004713179
SCANS=22116
50.015453 0.19014 
50.449432 0.187655 
50.490875 0.161091 
50.770805 0.149482 
51.023258 0.409568 
51.762226 0.17887 
51.940178 0.15706 
52.18502 0.155857 
53.002522 0.95708 
53.038902 11.511482 
53.791283 0.203011 
55.018154 8.653207 
55.054539 65.272591 
55.396835 0.192862 
55.934723 0.258645 
56.057903 2.046915 
56.557194 0.209562 
56.965073 0.224386 
57.033794 8.204484 
57.070202 1.045546 
57.935108 0.561278 
58.065407 0.218607 
59.049419 3.328361 
59.578136 0.198682 
59.841011 0.181944 
61.010818 5.564608 
62.127792 0.14922 
63.103775 0.1893 
63.321301 0.197916 
63.347252 0.206699 
63.733467 0.179367 
64.673302 0.15314 
65.03875 4.273926 
67.054359 14.294193 
67.228287 0.176958 
67.445473 0.170512 
68.049606 2.259391 
68.506615 0.205316 
68.997231 6.461503 
69.033585 29.625629 
69.069984 1.224111 
70.037033 0.135309 
71.012833 7.595664 
71.049217 5.556633 
71.204483 0.139984 
71.917664 0.215454 
72.937202 1.208244 
73.064743 0.378983 
74.930977 0.164904 
75.455406 0.128607 
76.318787 0.248171 
76.454124 0.162481 
77.038643 2.045633 
77.189835 0.243705 
79.032921 0.1463 
79.054253 19.934872 
80.049461 0.403982 
81.033524 10.626014 
81.06987 11.881019 
83.049156 28.275585 
83.230049 0.17368 
83.848602 0.143918 
84.047974 0.213929 
84.052612 0.281975 
84.222984 0.185542 
85.028435 0.208058 
87.281471 0.211996 
87.743912 0.204048 
89.038612 1.620355 
89.796021 0.178266 
90.157944 0.213829 
90.539047 0.213515 
90.947571 0.206724 
91.054276 31.680307 
91.758705 0.157421 
91.806396 0.136982 
92.05761 0.932694 
92.06057 0.146438 
93.069931 15.901442 
93.136581 0.159031 
94.041275 0.199511 
94.065216 1.828849 
94.073486 0.269127 
95.012794 1.084206 
95.049156 28.27108 
95.085533 1.227127 
96.052193 0.158056 
97.028404 0.875643 
97.06488 1.855341 
97.759964 0.1747 
98.08712 0.154042 
98.975327 0.986713 
99.658195 0.169419 
100.400604 0.136771 
101.059677 4.525059 
101.920815 0.17184 
103.054199 6.871159 
105.033485 1.153071 
105.044815 5.059573 
105.069923 4.217203 
106.064972 0.193726 
107.049217 4.263274 
109.028412 0.241322 
109.064888 0.863855 
109.082169 0.182554 
110.036293 0.591616 
110.520912 0.198895 
110.89035 0.1612 
113.015388 0.184843 
113.437103 0.206892 
114.126488 0.188369 
115.054214 3.01277 
116.544273 0.213718 
117.033447 6.134786 
117.069893 3.939679 
119.049232 2.895177 
119.085587 1.392896 
119.979118 0.175223 
120.080841 2.589694 
120.514687 0.227008 
121.028404 4.099991 
121.064873 9.398514 
125.015282 2.367466 
125.586754 0.136162 
127.012253 0.267867 
128.062271 0.589796 
128.963776 0.397223 
129.033386 0.922133 
129.044891 0.162738 
129.069794 1.058696 
131.049225 13.08976 
131.950134 0.152806 
132.056976 0.181356 
133.02832 1.974155 
133.065002 0.218799 
134.956085 1.352257 
135.044006 2.000258 
135.080551 0.564927 
137.059509 1.252304 
138.994675 0.233478 
139.038895 0.42154 
139.05423 0.899058 
141.010117 1.774849 
141.069809 1.580729 
142.028763 0.214908 
142.119705 0.191313 
143.049301 0.863769 
143.073044 0.190336 
144.080811 0.424817 
145.005096 2.996823 
145.028381 8.660004 
145.064758 7.291634 
146.974426 1.573314 
147.00145 0.216755 
147.044098 3.768476 
148.051895 6.67589 
148.540085 0.215617 
148.971771 0.792891 
150.092178 0.185646 
150.95105 1.235074 
152.0625 0.161947 
153.010223 3.953713 
154.98938 77.241096 
155.00769 0.257239 
155.048981 3.472498 
155.992737 5.637237 
156.986496 28.223722 
156.993576 0.151414 
157.005005 4.748352 
157.028015 0.673333 
157.064819 2.339993 
157.989929 0.661258 
158.096817 0.242661 
159.002274 0.546148 
159.044067 5.053023 
159.080566 0.918983 
160.052032 12.550446 
161.059662 1.308081 
162.540802 0.212111 
163.03891 3.026634 
164.046844 1.343417 
165.010147 2.132192 
165.069992 0.631774 
167.007202 0.178804 
167.049118 0.214103 
168.0569 0.858269 
168.115356 0.246804 
169.005035 52.408195 
169.064804 2.79505 
170.009155 1.402893 
171.002136 3.748366 
171.020859 0.624892 
171.043976 1.580027 
173.023041 0.497338 
173.059647 8.064059 
173.295807 0.13487 
174.030838 0.197379 
174.067535 6.718095 
176.046829 0.863659 
179.084885 0.16823 
180.101852 0.552877 
181.005035 100.0 
181.065094 0.561953 
182.008453 10.813791 
182.984467 8.53218 
182.992752 0.242708 
183.002106 48.462345 
183.020828 2.909857 
183.044006 2.785531 
184.005615 3.113447 
184.051941 9.589048 
184.981323 1.785168 
185.000137 2.29803 
185.059647 7.196118 
186.067291 2.25965 
187.038849 1.779539 
187.07576 0.437547 
188.046906 0.591563 
188.083023 0.173473 
188.916061 0.188894 
189.054718 8.500188 
191.881241 0.182173 
192.041595 12.419546 
192.422211 0.188086 
193.064499 0.192471 
193.821198 0.165757 
194.01297 0.430219 
195.020691 11.152189 
195.044724 0.209076 
195.080688 0.234054 
195.793976 0.183213 
195.896866 0.178372 
196.051636 0.205577 
196.520523 0.197555 
196.999969 77.245033 
197.016556 1.48952 
197.059692 5.265944 
197.459045 0.159724 
197.953278 0.205374 
198.003799 5.350424 
198.06752 3.085716 
198.979294 6.432117 
198.997009 6.019852 
199.015488 3.524227 
200.046829 2.903074 
200.083282 0.240094 
200.487839 0.185859 
200.976669 0.747697 
200.994858 33.82349 
201.054565 3.689709 
201.998627 3.438166 
202.062439 8.120533 
202.991882 9.676205 
203.069824 0.219393 
206.926682 0.161919 
207.020767 3.232849 
207.550888 0.159097 
207.814636 0.246392 
207.875595 0.247644 
208.051102 0.183477 
208.883347 0.318829 
209.000092 27.571985 
209.035858 1.214188 
209.876175 2.617143 
209.891922 0.183234 
210.004608 2.384098 
210.883286 0.241319 
210.979309 21.296095 
210.996933 10.488235 
211.015396 1.418396 
211.075256 0.190756 
211.982788 0.565541 
212.046829 1.266434 
212.976364 5.141855 
212.995514 0.173243 
213.05452 6.871585 
214.062469 6.970181 
216.040543 0.159934 
216.078598 0.23019 
219.02066 1.576272 
219.064987 2.282486 
219.080246 0.254141 
219.731598 1.554422 
219.744095 0.174835 
219.966354 0.136227 
220.069382 0.49807 
220.903778 0.550001 
221.000153 7.772411 
221.017853 0.183954 
221.059769 0.515332 
222.00766 0.178823 
222.89856 9.212616 
222.997116 1.331043 
223.015579 7.154562 
223.075256 0.697972 
224.994522 0.399762 
225.01384 0.239146 
225.562134 0.216842 
226.062119 0.605731 
227.01062 3.888166 
228.041763 0.323844 
229.049667 1.174955 
230.057236 1.897982 
231.020981 3.052067 
231.062592 0.229742 
232.518539 0.234828 
232.989548 0.585411 
233.036591 0.257978 
235.015472 0.367896 
235.075195 0.271926 
237.906891 0.391003 
238.913727 1.131077 
239.010574 3.486528 
239.901215 0.435491 
240.041809 0.204189 
240.909119 14.463425 
241.048447 0.723955 
242.057434 1.632898 
244.667328 0.21723 
244.989578 3.095605 
247.015549 2.702599 
248.984283 0.239558 
248.996094 0.273262 
249.013275 0.215347 
250.895401 0.250299 
253.515045 0.167332 
255.917923 0.740667 
259.015472 0.752606 
260.022491 0.153333 
260.984253 0.179142 
262.914337 0.156246 
262.999176 0.869096 
263.010468 0.184966 
263.971497 2.621819 
264.989929 4.33941 
266.98703 1.35871 
279.916199 0.170162 
281.912109 1.577381 
291.965546 0.27743 
293.010437 1.421649 
311.022766 0.218746 
332.922089 0.23247 
336.154663 0.263132 
338.208344 0.192411 
346.379028 0.203805 
347.637909 0.197459 
352.444519 0.151064 
354.808105 0.175029 
355.265137 0.21702 
363.50589 0.211308 
374.511505 0.2158 
381.216492 0.222421 
395.021393 0.20089 
408.327759 0.201631 
END IONS

