BEGIN IONS
PEPMASS=192.0
CHARGE=1+
COMPOUNDNAME=Massbank:MT000021 cis-Aconitic acid|cis-aconitate
LIBRARYQUALITY=3
SMILES=OC(=O)CC(C(O)=O)=C([H])C(O)=O
INCHIKEY=GTZCVFVGUGFEME-UHFFFAOYSA-N
INCHI=1S/C6H6O6/c7-4(8)1-3(6(11)12)2-5(9)10/h1H,2H2,(H,7,8)(H,9,10)(H,11,12)/b3-1-
MSLEVEL=2
SOURCE_INSTRUMENT=ESI-LC-ESI-IT
FILENAME=Massbank_ESI_positive_8_1_2014_peaks.mgf
SEQ=*..*
IONMODE=Positive
ORGANISM=MASSBANK
NAME=Massbank:MT000021 cis-Aconitic acid|cis-aconitate [M+NH4]+
PI=Putative Massbank Match
DATACOLLECTOR=Massbank
PUBMED=N/A
SUBMITUSER=mwang87
TAGS=
SPECTRUMID=CCMSLIB00000221426
SCANS=10241
157.0 2.0 
173.2 0.2 
175.0 100.0 
END IONS

