BEGIN IONS
PEPMASS=281.175
CHARGE=1+
COMPOUNDNAME=(1R,2E,7R,10E,12S,13S,15R)-12,15-dihydroxy-7-methyl-8-oxabicyclo[11.3.0]hexadeca-2,10-dien-9-one
LIBRARYQUALITY=3
SMILES=N/A
INCHIKEY=KQNZDYYTLMIZCT-SWGFJCPHSA-N
INCHI=InChI=1S/C16H24O4/c1-11-5-3-2-4-6-12-9-13(17)10-14(12)15(18)7-8-16(19)20-11/h4,6-8,11-15,17-18H,2-3,5,9-10H2,1H3/b6-4+,8-7+/t11-,12+,13-,14+,15+/m1/s1
MSLEVEL=2
SOURCE_INSTRUMENT=N/A-ESI-QFT
FILENAME=library_mgf.mgf
SEQ=*..*
IONMODE=positive
ORGANISM=MONA
NAME=(1R,2E,7R,10E,12S,13S,15R)-12,15-dihydroxy-7-methyl-8-oxabicyclo[11.3.0]hexadeca-2,10-dien-9-one [M+H]+
PI=MoNA
DATACOLLECTOR=MoNA:VF-NPL-QEHF022883
PUBMED=N/A
SUBMITUSER=mwang87
TAGS=
SPECTRUMID=CCMSLIB00004713946
SCANS=22883
50.54348 0.083806 
51.181065 0.124543 
51.747456 0.137307 
53.002571 4.408817 
53.038975 1.510178 
53.847511 0.101061 
55.018185 9.119282 
55.054558 22.381565 
55.1479 0.084285 
55.318813 0.071956 
56.049828 0.457742 
56.766106 0.091662 
56.965111 0.870401 
56.970627 0.100934 
56.97242 0.095788 
57.033844 4.897571 
57.070194 11.20685 
58.065414 0.775543 
58.9669 0.086653 
59.019463 0.105878 
59.022064 0.357146 
59.049446 1.431044 
59.930889 0.055609 
60.670727 0.089701 
61.010891 22.35713 
61.028683 0.337729 
62.014225 0.864944 
62.018707 3.263004 
62.990128 1.072526 
63.006634 5.753073 
63.108639 0.096409 
64.00985 0.078087 
64.828552 0.092029 
64.961311 0.065268 
65.038811 1.09891 
66.047798 0.063579 
67.054382 48.931465 
68.057755 1.739219 
68.654007 0.063129 
69.033623 2.315736 
69.070007 20.990641 
70.065186 0.530791 
70.073082 0.213445 
70.505157 0.098965 
71.012924 0.829275 
71.049217 4.437845 
71.085609 4.52773 
71.730957 0.345041 
71.929115 0.06123 
72.080894 0.426712 
72.937309 0.217826 
73.028458 10.328187 
73.046875 8.089637 
73.064911 0.929014 
73.953865 0.104912 
74.023628 0.084794 
74.060051 0.354569 
74.418739 0.399543 
75.908363 0.158831 
75.923264 0.09532 
76.732864 0.098872 
77.058609 0.085136 
77.161423 0.166089 
77.584335 0.058776 
77.988724 0.150048 
78.013481 13.55232 
78.424423 0.117569 
79.021301 4.127854 
79.054283 31.381243 
79.056778 0.103731 
79.990105 0.092194 
80.046921 0.08442 
80.049561 0.054291 
80.05764 0.410428 
80.570976 0.094836 
80.717812 0.085283 
81.017151 0.103905 
81.033569 8.384134 
81.067322 0.735966 
81.069946 66.585785 
81.80822 0.067941 
82.065117 0.517705 
82.073311 4.318621 
83.01281 0.774452 
83.04924 5.898697 
83.085571 12.578049 
84.044342 0.105836 
84.080856 3.00498 
85.028488 2.108635 
85.064873 1.745473 
85.101227 2.021609 
85.159897 0.1123 
85.358093 0.066896 
86.059952 0.073327 
86.096397 0.57655 
86.230721 0.065272 
86.704292 0.096405 
87.044144 5.788105 
87.958344 0.159616 
88.03936 1.438369 
89.059761 100.0 
89.963882 0.056135 
90.363861 0.09076 
90.947762 0.466904 
91.03933 0.07347 
91.054306 36.786903 
91.057434 16.755468 
91.998093 0.066602 
92.057564 3.181125 
92.060593 0.074408 
92.359253 0.090198 
93.033646 1.466369 
93.069977 36.488636 
94.073257 1.617453 
95.049217 10.672663 
95.085587 53.643169 
95.940247 0.115356 
96.088959 3.68286 
97.028206 0.172346 
97.039658 0.083648 
97.064903 1.978501 
97.101273 5.316758 
98.060341 0.07526 
98.256348 0.066051 
98.315308 0.094195 
98.975243 0.454323 
99.007774 27.063837 
99.044228 0.319146 
99.080429 6.102446 
99.229584 0.086768 
100.075371 0.082612 
101.02346 11.636349 
101.059883 0.247134 
101.180931 0.382683 
101.22242 0.099228 
103.039055 0.236151 
103.054237 2.14723 
103.2071 0.098422 
103.641228 0.387534 
103.917328 0.098126 
104.767044 0.097809 
104.992462 0.386746 
105.044922 0.068524 
105.069984 40.507683 
105.917236 0.159825 
106.073349 3.049644 
106.877235 0.16505 
107.049194 5.828557 
107.070343 1.275946 
107.085587 22.75275 
107.652618 0.124787 
107.889519 0.094039 
108.088898 1.017045 
108.634506 0.184266 
109.028503 2.545097 
109.06488 2.35586 
109.101295 11.183183 
110.09655 0.390586 
110.742737 0.376801 
110.939186 0.168028 
111.044136 4.748873 
111.080498 1.451825 
112.236084 0.072488 
112.467796 0.100136 
113.059761 4.43204 
113.096184 0.990232 
113.426582 0.17731 
113.940781 0.090537 
114.555565 0.083659 
115.016869 0.349217 
115.054298 0.910434 
115.527657 0.093248 
115.827438 0.054886 
115.946632 0.123942 
116.000626 1.680292 
116.052956 0.455682 
116.070419 0.100221 
116.511917 0.155317 
116.984711 4.514196 
117.003662 0.058954 
117.069946 27.104164 
117.074409 0.101047 
117.979805 0.087872 
118.001457 0.26458 
118.073257 0.690731 
118.980713 0.10279 
119.049232 2.61728 
119.085625 22.286079 
120.000298 0.085215 
120.080818 2.853915 
120.088867 1.500758 
121.028488 1.445076 
121.064903 9.919586 
121.084129 0.209135 
121.101234 15.748754 
121.966667 0.060584 
122.068153 0.178486 
122.096405 0.070485 
122.104469 0.37382 
122.939323 0.208707 
123.044174 1.522698 
123.08046 2.069438 
123.116859 3.560792 
123.94751 0.073755 
124.416389 0.424609 
125.023399 0.268994 
125.059906 0.172219 
125.095779 0.421071 
125.926064 0.081819 
126.04335 0.148482 
126.252243 0.08974 
126.653923 0.104657 
126.933662 0.06622 
127.039093 2.455509 
128.041977 0.063619 
128.06221 1.057051 
128.933563 1.252059 
129.054611 0.064952 
129.06987 17.636139 
130.073303 0.398526 
130.929367 0.175222 
130.999786 0.07016 
131.049057 0.526 
131.085648 24.387108 
131.950119 0.138328 
131.994934 0.072094 
132.088821 0.2837 
132.323563 0.13288 
132.958481 0.167193 
133.01709 0.330123 
133.064789 15.974906 
133.085938 7.920837 
133.101242 12.749329 
134.068314 0.424298 
134.096268 0.372837 
134.104507 0.23523 
134.109314 0.612345 
134.955917 0.235362 
134.995239 0.120703 
135.080505 5.357399 
135.116837 3.011326 
136.022263 0.178826 
136.075623 0.614555 
136.112061 0.094241 
136.954391 0.192233 
137.011963 0.070847 
137.059753 1.201126 
137.096344 0.085979 
137.107391 0.090371 
138.915634 1.117253 
139.038956 10.67903 
139.051437 1.247897 
139.075302 2.468343 
139.553192 0.216849 
139.923538 0.132683 
140.358978 0.072559 
140.609161 0.074923 
140.913025 4.434467 
140.984177 0.076207 
141.054642 0.069352 
141.070007 0.279194 
141.087875 0.114821 
141.920944 0.469579 
141.958527 0.061868 
141.97995 0.302254 
142.07785 0.976866 
142.825073 0.090355 
142.912994 0.459189 
143.085648 15.885053 
144.088608 0.441031 
144.946365 0.068403 
145.064926 1.537634 
145.101181 10.064551 
145.96669 1.785616 
145.99025 0.078678 
146.974136 0.35767 
147.044281 0.728877 
147.080399 7.61687 
147.116821 4.757327 
148.057709 0.073849 
148.436234 0.086882 
148.60437 0.12728 
149.023376 2.227072 
149.059692 8.266801 
149.095886 0.335798 
149.132721 1.62597 
149.95372 0.072253 
149.961624 0.104015 
150.026718 0.104849 
150.063034 0.213254 
150.091675 0.067777 
150.95108 3.989386 
150.96904 0.743933 
151.027969 0.074587 
151.075439 1.979406 
151.147614 0.070828 
151.918274 0.094824 
151.959106 0.213484 
151.976517 0.090609 
152.951523 1.524111 
152.966812 0.222369 
152.989365 0.117464 
153.127243 0.071555 
153.939148 1.846884 
153.959198 0.2697 
154.947205 0.243032 
155.085999 1.151634 
155.936218 6.051247 
155.954712 0.813813 
156.9263 0.200247 
156.964691 0.12093 
157.064911 1.791072 
157.101212 17.629101 
157.936493 0.558002 
157.952286 0.167571 
157.989258 0.068719 
158.104095 0.949668 
158.134872 0.185487 
158.923477 1.301783 
158.944473 1.972278 
158.953613 5.460285 
158.962112 1.400157 
158.994888 0.105895 
159.080338 0.652779 
159.116974 8.883241 
159.952423 2.684481 
159.990387 1.675114 
160.125137 1.29502 
160.800583 0.115765 
160.940155 0.854116 
160.951691 39.447113 
161.059723 2.654684 
161.096039 2.321445 
161.132584 1.272744 
161.417068 0.092581 
161.947845 0.680349 
161.955566 0.170625 
162.091629 0.070312 
162.947311 0.096222 
162.969666 0.509102 
162.989227 0.077251 
163.027832 0.094338 
163.075317 0.709151 
163.111801 0.093926 
163.148392 3.243413 
163.408356 0.129295 
163.977158 4.479833 
164.107162 0.06475 
164.97728 0.204422 
164.985535 0.247591 
165.054916 0.37256 
165.091263 0.372312 
165.938141 0.243959 
167.070129 0.929272 
167.186249 0.061393 
168.065582 0.178213 
168.380753 0.392323 
168.813629 0.399393 
168.961685 1.837598 
170.072449 0.126819 
170.109329 0.204613 
170.944778 0.061371 
170.960846 0.260547 
171.080231 1.388537 
171.116882 5.461142 
171.150803 0.105577 
171.55484 0.096514 
171.949722 0.266419 
172.115082 0.379396 
173.132812 1.500847 
173.946823 3.476351 
174.091125 0.129826 
174.975464 1.749438 
175.028519 0.108262 
175.0755 2.393757 
175.112015 0.181682 
175.148132 0.212609 
175.947311 0.090629 
175.977737 0.273053 
176.954391 1.295258 
176.97139 0.59575 
176.986099 0.086315 
177.09111 0.299806 
177.127243 0.080514 
177.957962 0.071033 
178.000961 1.355142 
178.950592 0.309824 
178.984863 0.635431 
179.953644 0.154573 
180.961548 0.524136 
180.980438 2.322166 
181.101593 0.171196 
181.439178 0.189718 
181.987717 0.243636 
182.995911 0.467826 
183.116867 1.242697 
185.096298 1.244493 
185.132629 9.760654 
185.96167 2.315575 
186.135452 0.078993 
186.927811 0.636853 
187.148361 0.21514 
187.928589 0.166687 
187.977432 0.549644 
188.926666 0.219437 
188.954971 0.351679 
189.091125 1.060252 
189.163605 0.580486 
189.99852 0.444997 
190.405182 0.191461 
190.925766 0.136088 
190.950241 0.067704 
191.106781 0.07043 
191.94162 0.280381 
193.93782 0.195332 
199.148224 8.138922 
200.151733 0.995883 
200.7061 0.093672 
200.95462 0.199553 
201.163391 0.067493 
202.22464 0.128122 
202.951996 1.183204 
203.107483 0.083658 
204.951889 0.09067 
205.065247 0.186612 
205.9879 12.601361 
206.25827 0.1666 
206.977921 0.332674 
206.988449 0.399501 
209.132828 0.09433 
210.972046 0.058295 
211.78418 0.079374 
215.564514 1.629744 
215.577774 3.817356 
215.587234 0.53093 
217.159103 2.210199 
217.169983 0.668621 
217.745117 0.211969 
218.965088 1.703693 
219.174423 0.82032 
219.940353 0.173632 
219.950317 0.097133 
219.968338 0.732647 
220.169037 0.107438 
220.96196 0.933955 
221.014053 0.101078 
221.153244 0.110215 
221.896729 2.75109 
222.121704 0.124208 
222.184692 0.179468 
222.872787 0.101571 
222.898972 0.751753 
225.042999 1.388844 
227.143356 0.141034 
229.002411 0.252058 
231.325729 0.109008 
233.988937 0.064604 
237.078583 0.061149 
239.901535 0.174084 
240.114746 0.067818 
240.814911 0.095244 
240.909332 2.104391 
241.121964 0.213699 
241.911514 0.09003 
242.909607 0.435104 
243.07666 0.076708 
243.365311 0.104187 
245.055588 0.078927 
245.15358 0.832163 
247.209381 0.088182 
250.177719 21.188433 
251.181259 1.027676 
252.098785 0.151095 
254.835754 0.092485 
254.962448 0.329941 
264.160217 0.081225 
264.194733 0.079329 
265.02005 1.76598 
266.999084 24.606686 
267.842987 0.452625 
267.99939 3.878322 
268.156921 0.325447 
268.762329 0.094789 
268.97876 4.497329 
268.996094 1.349718 
269.014832 1.498769 
270.015289 0.083933 
270.957092 0.162254 
270.994019 2.74403 
277.978394 0.102411 
280.096069 0.112481 
280.190369 0.076295 
280.228271 0.132043 
281.015045 0.307551 
281.051392 1.169969 
281.148499 0.208323 
281.165131 0.557932 
281.295166 0.308229 
282.112793 0.076009 
282.136627 0.076184 
282.205811 0.072082 
282.279175 0.317962 
282.993958 3.725049 
283.030426 50.192841 
283.180389 1.825462 
283.263 2.384413 
284.030701 11.552054 
285.010071 0.910706 
285.027893 3.25131 
289.004639 0.353936 
297.682068 0.407521 
299.061859 34.623734 
300.062317 8.316615 
300.148743 0.537596 
301.058807 2.210697 
END IONS

