BEGIN IONS
PEPMASS=319.119
CHARGE=1+
COMPOUNDNAME=MYCOPHENOLIC ACID
LIBRARYQUALITY=3
SMILES=N/A
INCHIKEY=HPNSFSBZBAHARI-RUDMXATFSA-N
INCHI=InChI=1S/C17H20O6/c1-9(5-7-13(18)19)4-6-11-15(20)14-12(8-23-17(14)21)10(2)16(11)22-3/h4,20H,5-8H2,1-3H3,(H,18,19)/b9-4+
MSLEVEL=2
SOURCE_INSTRUMENT=N/A-ESI-QFT
FILENAME=library_mgf.mgf
SEQ=*..*
IONMODE=negative
ORGANISM=MONA
NAME=MYCOPHENOLIC ACID [M-H]-
PI=MoNA
DATACOLLECTOR=MoNA:VF-NPL-QEHF011293
PUBMED=N/A
SUBMITUSER=mwang87
TAGS=
SPECTRUMID=CCMSLIB00004702356
SCANS=11293
50.124104 0.022774 
50.190346 0.022481 
50.519482 0.016033 
50.742348 0.023029 
50.802158 0.022053 
50.888363 0.023286 
51.632191 0.024007 
51.98753 0.015664 
52.338821 0.020629 
53.156376 0.021188 
54.564323 0.025034 
54.646439 0.023097 
57.92334 0.022415 
58.653152 0.017592 
58.832027 0.022902 
59.01244 0.551165 
59.24881 0.023059 
59.719219 0.020933 
59.912914 0.01817 
60.721542 0.019224 
61.196259 0.021547 
62.263794 0.025808 
62.2658 0.024808 
62.860546 0.017454 
63.063992 0.021771 
63.397007 0.022598 
63.428001 0.022131 
63.830772 0.023265 
64.15345 0.025488 
65.430138 0.02537 
65.528564 0.021885 
65.615822 0.015913 
65.79174 0.020407 
66.534531 0.020621 
67.335762 0.023631 
68.553413 0.021159 
69.380592 0.021501 
69.93557 0.023814 
70.090935 0.018068 
70.608429 0.025286 
71.426842 0.021768 
71.531029 0.021348 
72.323257 0.02135 
73.028061 1.3933 
73.296463 0.023252 
73.621704 0.022291 
73.999573 0.022711 
77.055557 0.026193 
78.048393 0.01656 
78.331276 0.024604 
78.809906 0.022154 
79.672234 0.025753 
80.652435 0.027767 
81.033585 0.031496 
85.377556 0.015786 
85.843834 0.025114 
86.943939 0.023118 
87.229515 0.025394 
88.962708 0.019805 
89.990356 0.024769 
90.427925 0.023732 
91.004555 0.026989 
91.017181 0.023062 
92.734261 0.022269 
93.033272 0.026752 
95.04892 3.706674 
95.0681 0.023823 
98.094055 0.026902 
98.136993 0.019673 
99.067856 0.017128 
101.168762 0.027646 
101.908295 0.022328 
103.410973 0.02584 
103.750801 0.022039 
104.90255 0.027146 
106.325745 0.022693 
106.536949 0.022735 
107.048912 0.390337 
112.823524 0.024117 
115.324516 0.024725 
115.746628 0.022551 
117.98217 0.022685 
119.774658 0.023683 
121.064659 0.465912 
123.599243 0.024367 
125.391319 0.022725 
127.449532 0.023611 
132.744019 0.020903 
135.04393 2.077692 
135.820847 0.026079 
136.052109 0.054469 
137.023071 0.09586 
137.059616 0.344579 
137.771988 0.027566 
140.534637 0.023926 
141.008881 0.024044 
142.400574 0.026302 
147.044083 0.215641 
148.05188 1.933532 
149.059692 1.21046 
149.166367 0.025388 
151.937286 0.02418 
157.101532 0.046491 
158.072678 0.023792 
160.051941 0.555455 
161.059738 1.327221 
161.096146 0.795285 
163.039108 0.103008 
163.075439 0.097965 
164.04686 1.31555 
166.062592 0.21225 
171.117065 0.244391 
172.118805 0.023496 
173.059906 0.98325 
174.06781 0.136166 
175.063141 0.028838 
176.046677 0.02835 
176.985168 0.023404 
177.018448 0.628891 
177.605164 0.024193 
178.026291 1.408976 
179.034088 41.248264 
180.037262 3.589442 
180.864014 0.023094 
183.080826 0.150065 
183.72821 0.025952 
184.088501 0.076532 
187.075607 0.983744 
187.111938 0.021404 
187.374695 0.025881 
188.083374 0.362625 
189.0914 1.666692 
189.98465 0.019965 
190.094528 0.104941 
191.03421 100.0 
192.042374 43.834354 
193.044968 4.005993 
197.096375 0.2596 
198.104294 0.180838 
199.112198 7.479899 
199.465439 0.022324 
200.115677 0.715733 
201.055038 0.111105 
201.091293 1.544943 
202.094528 0.025313 
203.034256 3.152055 
204.041885 1.21985 
205.049927 26.177834 
205.416565 0.020567 
206.052917 2.696189 
207.030426 0.023293 
207.06572 20.620253 
208.069107 2.204192 
209.237961 0.027036 
210.871628 0.027895 
213.528885 0.021718 
215.050888 0.642727 
215.07164 0.838107 
215.107239 6.433323 
216.114365 1.698402 
217.120453 0.048382 
218.057571 0.041773 
219.06636 0.035838 
224.032104 3.256396 
225.036667 0.019929 
225.091583 1.66408 
227.070938 0.058607 
228.07901 0.292893 
228.964661 0.028124 
229.049805 0.022643 
231.065735 2.092644 
231.138596 0.421546 
232.073608 2.000759 
232.110886 0.02513 
233.081573 7.08891 
234.084961 0.691678 
241.086472 0.549629 
242.094223 0.961145 
243.06601 2.638867 
243.102371 15.021869 
244.07045 0.096219 
244.105637 2.271467 
245.044769 0.025408 
245.08168 8.687727 
246.084976 1.130595 
247.097321 0.878644 
247.13385 0.157249 
248.487213 0.023037 
257.082123 0.026401 
257.117554 0.038621 
259.097382 2.292217 
260.104034 0.493108 
267.065094 0.030061 
269.081879 7.169106 
270.085144 1.031865 
275.128723 59.854862 
275.582825 0.025573 
276.13205 9.905002 
277.134094 0.160005 
281.596222 0.026806 
284.866486 0.025901 
285.076691 1.797613 
286.081787 0.151679 
286.694916 0.024709 
286.805084 0.020251 
287.092285 39.019203 
287.111206 0.529871 
288.095795 6.471292 
289.098022 0.0663 
289.765686 0.030219 
291.123962 0.217836 
291.716675 0.022635 
291.73819 0.01833 
295.318024 0.025604 
300.85788 0.017172 
301.107697 1.695847 
303.951996 0.024423 
311.239594 0.028419 
315.622955 0.028665 
318.817322 0.027257 
319.118408 90.022758 
320.121857 16.18014 
321.124695 0.96682 
324.617462 0.025838 
328.744354 0.020863 
333.093445 0.02753 
343.149536 0.022625 
344.21698 0.019049 
END IONS

