BEGIN IONS
PEPMASS=420.076
CHARGE=1+
COMPOUNDNAME=glucoerucin (4-methylthiobutyl glucosinolate)
LIBRARYQUALITY=3
SMILES=N/A
INCHIKEY=MINDHVHHQZYEEK-HBBNESRFSA-N
INCHI=InChI=1S/C26H44O9/c1-16(13-23(30)33-11-9-7-5-4-6-8-10-22(28)29)12-20-25(32)24(31)19(15-34-20)14-21-26(35-21)17(2)18(3)27/h13,17-21,24-27,31-32H,4-12,14-15H2,1-3H3,(H,28,29)/b16-13+/t17-,18-,19-,20-,21-,24+,25-,26-/m0/s1
MSLEVEL=2
SOURCE_INSTRUMENT=N/A-Linear Ion Trap
FILENAME=library_mgf.mgf
SEQ=*..*
IONMODE=negative
ORGANISM=MONA
NAME=glucoerucin (4-methylthiobutyl glucosinolate) M-H
PI=MoNA
DATACOLLECTOR=MoNA:VF-NPL-LTQ000521
PUBMED=N/A
SUBMITUSER=mwang87
TAGS=
SPECTRUMID=CCMSLIB00004684775
SCANS=396
144.919998 7.574005 
177.929993 30.557116 
240.940002 8.545821 
274.890015 100.0 
END IONS

