BEGIN IONS
PEPMASS=276.0
CHARGE=1+
COMPOUNDNAME=Massbank:KO002826 Eserine|Physostigmine
LIBRARYQUALITY=3
SMILES=CNC(=O)Oc(c3)cc(c(c3)1)C(C)(C2)C(N(C)C2)N(C)1
INCHIKEY=PIJVFDBKTWXHHD-UHFFFAOYSA-N
INCHI=1S/C15H21N3O2/c1-15-7-8-17(3)13(15)18(4)12-6-5-10(9-11(12)15)20-14(19)16-2/h5-6,9,13H,7-8H2,1-4H3,(H,16,19)/t13-,15+/m1/s1
MSLEVEL=2
SOURCE_INSTRUMENT=ESI-LC-ESI-QQ
FILENAME=Massbank_ESI_positive_8_1_2014_peaks.mgf
SEQ=*..*
IONMODE=Positive
ORGANISM=MASSBANK
NAME=Massbank:KO002826 Eserine|Physostigmine [M+H]+
PI=Putative Massbank Match
DATACOLLECTOR=Massbank
PUBMED=N/A
SUBMITUSER=mwang87
TAGS=
SPECTRUMID=CCMSLIB00000218152
SCANS=8628
43.9 311881.5 
50.1 39604.0 
56.1 69307.0 
57.4 19802.0 
58.1 133663.5 
72.2 14851.5 
83.4 34653.5 
84.9 39604.0 
97.4 14851.5 
99.3 44554.5 
102.0 1811883.0 
105.0 14851.5 
111.5 148515.0 
129.1 321782.5 
134.1 143564.5 
146.2 29703.0 
147.1 188119.0 
156.8 29703.0 
157.7 14851.5 
160.8 34653.5 
162.2 47608958.5 
171.3 19802.0 
173.9 39604.0 
175.4 524753.0 
176.3 7702978.0 
185.2 198020.0 
188.2 1321783.5 
189.3 747525.5 
199.2 29703.0 
203.0 113861.5 
216.1 24752.5 
219.3 107925850.5 
230.9 29703.0 
233.2 9014860.5 
241.2 74257.5 
244.3 54455.5 
245.5 2316834.0 
259.4 212871.5 
259.8 29703.0 
276.5 1960398.0 
END IONS

