BEGIN IONS
PEPMASS=403.035
CHARGE=1+
COMPOUNDNAME=(4R,6S,8S,9Z,11E)-16-chloro-17,19-dihydroxy-4-methyl-3,7-dioxatricyclo[13.4.0.0?,?]nonadeca-1(15),9,11,16,18-pentaene-2,13-dione
LIBRARYQUALITY=3
SMILES=N/A
INCHIKEY=WYZWZEOGROVVHK-RPJJWQTDSA-N
INCHI=InChI=1S/C18H17ClO6/c1-9-6-15-14(25-15)5-3-2-4-10(20)7-11-16(18(23)24-9)12(21)8-13(22)17(11)19/h2-5,8-9,14-15,21-22H,6-7H2,1H3/b4-2+,5-3-/t9-,14+,15+/m1/s1
MSLEVEL=2
SOURCE_INSTRUMENT=N/A-ESI-QFT
FILENAME=library_mgf.mgf
SEQ=*..*
IONMODE=positive
ORGANISM=MONA
NAME=(4R,6S,8S,9Z,11E)-16-chloro-17,19-dihydroxy-4-methyl-3,7-dioxatricyclo[13.4.0.0?,?]nonadeca-1(15),9,11,16,18-pentaene-2,13-dione [M+K]+
PI=MoNA
DATACOLLECTOR=MoNA:VF-NPL-QEHF022112
PUBMED=N/A
SUBMITUSER=mwang87
TAGS=
SPECTRUMID=CCMSLIB00004713175
SCANS=22112
50.013329 0.17126 
50.258404 0.079809 
50.958504 0.29327 
50.961433 0.222904 
51.858688 0.142226 
51.975609 0.185455 
53.038925 1.162382 
53.643288 0.176945 
54.114929 0.222309 
55.01815 2.022933 
55.028019 0.226519 
55.054523 6.713298 
55.934616 0.091804 
56.323429 0.243897 
56.965065 0.604255 
57.033825 0.151195 
57.070164 9.428802 
58.065414 0.092791 
58.225048 0.173263 
58.443054 0.135943 
58.695091 0.164201 
59.049374 0.125138 
61.010864 8.077825 
61.063923 0.226269 
61.763611 0.219903 
63.679379 0.149367 
65.038704 0.082267 
65.794014 0.097939 
65.832451 0.229985 
67.054337 13.294751 
68.049561 7.607562 
68.823433 0.234999 
68.997002 0.13315 
69.033577 17.794418 
69.052795 0.104193 
69.069962 4.602887 
70.028862 0.167796 
70.06517 1.227602 
70.657204 0.219218 
71.049194 15.832359 
71.085548 6.057171 
72.044449 0.580654 
72.868027 0.225367 
72.937279 0.256464 
73.028328 0.136216 
73.296295 0.100871 
73.592751 0.3095 
74.35511 0.147213 
74.931091 0.181502 
79.021309 0.421994 
79.054199 4.483663 
80.049545 0.906458 
80.057655 0.165321 
81.033531 1.438047 
81.069878 8.101343 
82.065178 0.640472 
82.073288 0.244936 
82.862076 0.104609 
83.049164 2.86095 
83.085472 2.414471 
84.044342 0.812338 
84.080673 0.105685 
85.028404 0.498387 
85.064651 0.119016 
85.101128 1.256339 
85.148964 0.141523 
85.259476 0.160706 
86.060051 3.147676 
86.490837 0.245773 
87.04406 1.079061 
89.059608 0.19423 
89.685555 0.21828 
90.987343 0.237714 
91.05423 9.787771 
92.057602 0.097551 
93.033333 0.401179 
93.069916 13.978679 
93.342529 0.260752 
94.065125 14.818479 
94.073143 1.203473 
95.049126 18.778755 
95.068474 1.000182 
95.07164 0.101372 
95.085457 5.899154 
95.862244 0.204889 
96.041672 0.170983 
96.044357 8.349583 
96.052422 0.324713 
96.658447 0.202306 
97.028389 0.887623 
97.047775 0.163784 
97.064789 4.182865 
97.101219 0.515038 
101.059631 1.563528 
103.054276 0.655546 
105.044846 0.682128 
105.069939 0.713885 
106.065002 0.368469 
107.04908 0.103454 
107.085648 0.221836 
108.080276 0.128291 
109.064697 0.625008 
109.101181 1.213484 
110.059982 1.695355 
110.096413 5.43295 
110.100021 0.104558 
110.28418 0.22225 
110.760826 0.247573 
111.007721 0.34506 
111.04409 1.844051 
111.080406 0.735514 
111.099808 0.167545 
111.1166 0.147523 
112.075684 0.369723 
114.055138 1.054197 
116.963623 0.084982 
116.984901 0.112271 
117.069733 0.532595 
118.045502 0.197311 
119.085602 1.566342 
120.044479 2.385482 
120.080811 19.966114 
121.028595 1.050357 
121.064804 8.850192 
121.084106 2.424162 
121.088501 1.819603 
121.145317 0.183814 
121.331924 0.217728 
122.06826 0.170382 
123.043823 0.106585 
124.166374 0.243162 
124.897614 0.242604 
125.023331 0.72632 
125.375603 0.210839 
129.018143 3.884761 
129.650986 0.160994 
130.080582 0.179567 
130.978943 0.148138 
131.049164 0.277121 
132.832291 0.168689 
134.955978 1.440269 
135.05162 0.166483 
135.080444 0.670195 
135.978195 0.089243 
136.112228 0.452517 
137.058563 0.098822 
138.091309 4.457171 
138.916962 0.212896 
139.00264 0.527834 
139.038879 8.036941 
139.075378 0.768766 
141.054672 0.311966 
145.549515 0.13349 
146.974258 0.942738 
147.044144 0.949606 
147.052689 0.20455 
147.080597 0.134312 
147.434738 0.181573 
148.075546 0.10516 
148.277634 0.249229 
148.971939 0.859117 
149.132629 0.126329 
149.892593 0.146 
150.054855 1.141175 
150.951096 2.579118 
151.019791 0.266338 
151.039001 0.276803 
152.220947 0.149638 
152.966949 0.58619 
153.05455 1.494127 
153.944794 0.214085 
153.959229 0.337135 
154.98912 0.130779 
156.064835 0.219366 
156.102112 0.481848 
156.987137 0.153691 
157.005112 2.204825 
157.012405 0.325745 
159.00209 2.657113 
160.005783 0.082476 
160.989716 0.589139 
161.05957 3.183529 
162.05481 0.321322 
162.091522 0.199676 
163.038727 0.43211 
164.999283 0.109117 
165.054825 0.263669 
167.034271 0.168518 
168.961533 0.164697 
172.990112 0.193656 
175.020996 0.224834 
175.776657 0.139291 
176.047455 0.135098 
177.054031 0.146586 
179.052139 0.105407 
181.005539 0.215818 
181.049576 1.945177 
182.984818 0.100586 
183.001923 0.876734 
183.091614 4.108428 
184.310913 0.237502 
184.980591 0.212406 
185.000092 0.212511 
185.059372 0.573639 
187.006241 0.124865 
187.027786 0.097217 
189.005096 0.12806 
189.045197 0.184932 
189.05455 21.576597 
190.058182 2.515315 
190.08606 0.24137 
191.000076 0.133066 
191.362595 0.245336 
192.041595 4.356737 
192.961746 4.710354 
193.049011 1.351501 
195.063095 0.169966 
196.042435 1.631202 
197.000092 2.503213 
197.017014 0.350202 
197.046921 0.093712 
197.059097 0.136849 
198.003952 0.522355 
198.97963 0.25614 
198.996765 5.140458 
199.015488 2.159066 
200.000717 0.169884 
200.019455 1.404116 
200.976944 0.153378 
200.994965 9.522556 
201.012512 10.20908 
201.022308 0.205415 
201.412216 0.24818 
201.998703 2.59382 
202.016663 0.462501 
202.991837 17.795479 
203.001495 0.362533 
203.995193 0.663794 
204.650238 0.095844 
205.049805 0.772328 
207.031662 0.101426 
207.065186 9.83836 
208.036942 0.64589 
208.068771 0.593208 
208.649094 0.100011 
209.000549 0.11661 
210.004639 0.562614 
210.038559 0.092762 
210.979568 15.236804 
210.996765 1.794561 
211.074753 0.176048 
211.112045 0.151136 
211.982864 7.373482 
212.070221 0.256711 
212.186798 0.224029 
212.362305 0.182721 
212.97612 32.794628 
213.014114 1.150391 
213.054749 0.551952 
213.888321 0.663016 
213.899963 6.645658 
213.979874 2.802862 
214.007996 1.85153 
214.061935 0.909094 
214.513748 0.185811 
215.068619 0.161356 
217.049515 0.353476 
219.065231 100.0 
219.648178 0.219507 
220.036285 0.115032 
220.068512 23.214359 
221.070419 1.850604 
222.112671 1.477542 
222.898666 3.040145 
223.01561 0.468181 
223.06012 10.183995 
223.096283 0.22637 
224.898758 0.343281 
224.994827 0.364286 
225.012527 0.395419 
226.026184 0.263937 
226.991959 1.541369 
227.010468 6.807294 
228.013733 6.722459 
228.653366 0.167205 
229.007416 32.172485 
230.012054 3.934323 
230.986801 0.540112 
232.529526 0.160232 
233.017792 0.140619 
233.0448 0.298506 
233.107544 0.155073 
233.766342 0.217451 
233.893005 0.090899 
234.900269 0.095875 
235.060104 3.184405 
237.031586 0.141305 
239.010818 0.434429 
240.909332 6.650826 
241.006973 3.444319 
241.047195 4.652631 
242.05304 0.3146 
242.909607 1.749687 
243.063034 0.330756 
246.976822 1.594269 
247.096695 0.489913 
247.981583 0.21693 
248.992676 7.041877 
249.048935 0.095789 
251.029007 0.433786 
251.11792 0.938328 
251.902298 0.365505 
253.007217 0.382188 
254.021744 1.008392 
255.025543 3.288566 
255.898834 0.096037 
256.018158 15.414761 
257.023346 1.346825 
258.260559 0.264811 
259.030701 0.094906 
260.916779 0.153317 
263.900818 0.676716 
264.909088 4.212968 
265.912659 0.107094 
266.909882 1.0906 
266.987152 0.570157 
267.022125 0.449399 
267.99054 0.487267 
268.073273 0.093923 
268.904083 0.094221 
270.602356 0.217274 
270.945953 0.14341 
272.054382 0.126106 
274.963409 0.140166 
274.999756 0.326781 
277.071594 0.197878 
278.994812 0.097971 
279.022491 2.111108 
281.89563 0.162572 
281.911896 6.278241 
282.902374 0.16332 
282.919312 2.412496 
283.057648 0.187229 
283.263092 53.422909 
283.893768 0.212814 
283.911743 0.141634 
284.266296 11.957565 
284.919952 0.567355 
285.156189 0.190663 
288.022827 0.659451 
293.010345 0.330204 
296.014893 0.091936 
298.940399 1.542719 
299.970581 0.549091 
300.050262 1.566894 
300.938385 0.147271 
300.978394 0.146652 
302.976776 0.177816 
303.1492 0.380876 
304.036499 0.266253 
304.272247 0.188137 
305.04071 3.776615 
306.033722 7.3152 
307.020172 0.206991 
307.037689 0.804586 
309.977448 0.103651 
312.297577 0.111009 
313.109497 0.250049 
315.954559 0.237879 
316.950867 0.560908 
321.152283 0.459623 
323.091156 0.14846 
323.166779 0.104621 
323.225525 0.148531 
328.926697 0.110978 
341.236603 4.993813 
342.239929 0.652036 
343.39325 0.163558 
344.56604 0.175493 
350.993958 0.51756 
355.14389 0.108392 
357.80899 0.282719 
359.246338 0.978868 
360.943146 0.099711 
361.081116 7.586643 
363.636047 0.173912 
365.447327 0.280474 
372.170898 0.382484 
387.060059 0.422913 
387.170105 0.38865 
390.09845 0.21248 
401.218079 0.166627 
403.05542 4.471478 
403.167755 0.189319 
404.058136 0.247376 
404.196564 14.717206 
405.071838 6.521454 
405.179443 8.352224 
405.260986 1.687187 
421.314575 0.211872 
END IONS

