BEGIN IONS
PEPMASS=414.155
CHARGE=1+
COMPOUNDNAME=Massbank:CE000166 S,R-Noscapine
LIBRARYQUALITY=3
SMILES=CN1CCC2=CC3=C(C(=C2[C@@H]1[C@@H]4C5=C(C(=C(C=C5)OC)OC)C(=O)O4)OC)OCO3
INCHIKEY=AKNNEGZIBPJZJG-MSOLQXFVSA-N
INCHI=1S/C22H23NO7/c1-23-8-7-11-9-14-20(29-10-28-14)21(27-4)15(11)17(23)18-12-5-6-13(25-2)19(26-3)16(12)22(24)30-18/h5-6,9,17-18H,7-8,10H2,1-4H3/t17-,18+/m1/s1
MSLEVEL=2
SOURCE_INSTRUMENT=ESI-LC-ESI-ITFT
FILENAME=Massbank_ESI_positive_8_1_2014_peaks.mgf
SEQ=*..*
IONMODE=Positive
ORGANISM=MASSBANK
NAME=Massbank:CE000166 S,R-Noscapine [M+H]+
PI=Putative Massbank Match
DATACOLLECTOR=Massbank
PUBMED=N/A
SUBMITUSER=mwang87
TAGS=
SPECTRUMID=CCMSLIB00000205746
SCANS=1006
119.695801 1138.217041 
129.432587 1314.281372 
133.01947 1106.896118 
179.070236 11937.442383 
191.065384 1219.455322 
204.064926 1718.471069 
205.073669 93337.460938 
206.082169 5265.548828 
218.08165 1901.1427 
220.096893 1523674.375 
220.457047 5753.609375 
220.699081 1308.130371 
221.102051 1733.133789 
236.093216 1482.892822 
248.092194 13007.216797 
257.091888 1421.634033 
261.195129 1126.906616 
288.909729 1055.617188 
308.105591 1711.406372 
324.098846 14871.423828 
334.080261 1619.542847 
335.092712 4600.045898 
339.121735 2858.077393 
350.079681 8524.22168 
352.097595 11256.793945 
353.102203 91418.601562 
355.117554 5430.035645 
365.102051 87118.976562 
366.096893 1794.961304 
367.126831 1443.220093 
368.148865 1344.758423 
371.110992 2637.609375 
378.132751 11167.915039 
381.120636 22547.212891 
383.113098 9301.204102 
396.143738 73828.671875 
END IONS

