BEGIN IONS
PEPMASS=1339.68
CHARGE=1+
COMPOUNDNAME=POLYMYXIN B SULFATE
LIBRARYQUALITY=3
SMILES=N/A
INCHIKEY=HFMDLUQUEXNBOP-UHFFFAOYSA-N
INCHI=InChI=1S/C56H98N16O13.H2O4S/c1-7-32(4)13-11-12-16-44(75)63-36(17-23-57)51(80)72-46(34(6)74)56(85)68-39(20-26-60)48(77)67-41-22-28-62-55(84)45(33(5)73)71-52(81)40(21-27-61)65-47(76)37(18-24-58)66-53(82)42(29-31(2)3)69-54(83)43(30-35-14-9-8-10-15-35)70-49(78)38(19-25-59)64-50(41)79;1-5(2,3)4/h8-10,14-15,31-34,36-43,45-46,73-74H,7,11-13,16-30,57-61H2,1-6H3,(H,62,84)(H,63,75)(H,64,79)(H,65,76)(H,66,82)(H,67,77)(H,68,85)(H,69,83)(H,70,78)(H,71,81)(H,72,80);(H2,1,2,3,4)
MSLEVEL=2
SOURCE_INSTRUMENT=N/A-ESI-QFT
FILENAME=library_mgf.mgf
SEQ=*..*
IONMODE=positive
ORGANISM=MONA
NAME=POLYMYXIN B SULFATE [M+K]+
PI=MoNA
DATACOLLECTOR=MoNA:VF-NPL-QEHF027925
PUBMED=N/A
SUBMITUSER=mwang87
TAGS=
SPECTRUMID=CCMSLIB00004721506
SCANS=27925
95.085243 0.099435 
95.317841 0.096708 
97.101112 0.101957 
97.215454 0.095751 
97.433617 0.111015 
97.718704 0.095157 
98.071274 0.222403 
98.095856 0.10473 
98.190872 0.107699 
99.510544 0.09007 
100.075607 0.140779 
100.086868 5.414994 
101.070938 100.0 
102.054916 1.161884 
102.074196 4.550501 
103.054131 0.396475 
109.10099 0.100424 
110.789612 0.097196 
111.055176 1.491319 
111.091743 0.194793 
111.116783 0.103643 
112.075966 0.135662 
113.070831 2.424955 
115.086357 0.225045 
118.097366 0.126193 
119.077309 0.204883 
119.081459 20.630117 
119.606972 0.088723 
120.080734 38.433899 
121.075996 0.639465 
121.08403 2.529285 
122.014053 0.113316 
123.055161 3.218811 
123.116676 2.318248 
125.132385 0.098574 
127.086456 6.806308 
128.081665 0.69873 
129.06546 0.222422 
130.097427 0.139968 
131.117722 0.114273 
131.558716 0.09286 
132.080719 0.111162 
137.070877 1.712007 
137.918716 0.090774 
138.102493 0.392224 
139.051743 0.095189 
139.086517 5.191148 
139.762039 0.107125 
140.081757 3.919593 
140.089981 0.099572 
140.118027 0.106592 
141.065704 1.851298 
141.1017 0.237638 
142.001083 0.093257 
142.028549 0.094595 
142.09726 0.13073 
143.081345 0.111746 
145.620102 0.106411 
147.236145 0.133583 
147.578461 0.11036 
147.729324 0.09485 
148.086685 0.380236 
149.070816 4.750917 
153.410812 0.115318 
155.081177 0.184255 
156.113022 4.018137 
157.097061 13.360046 
157.108078 2.112596 
158.092316 6.049211 
158.098755 0.119445 
158.153687 0.397657 
164.94252 0.10107 
165.065826 0.211879 
165.101883 0.477704 
165.114075 0.126727 
166.097321 8.638526 
167.055313 1.164525 
167.081375 6.035726 
168.07663 0.483306 
168.113022 0.278471 
168.424347 0.102194 
169.133438 1.483388 
170.092239 0.640014 
174.123566 6.869245 
175.086395 0.133431 
175.413712 0.119412 
177.101959 0.448058 
181.169586 0.111087 
182.092422 0.950673 
182.543457 0.117225 
182.759018 0.095175 
183.076065 0.226987 
183.123978 32.077499 
183.133347 0.109272 
184.107925 41.125935 
184.127457 2.078638 
185.091965 7.395606 
185.111496 2.813491 
185.21109 0.100773 
186.159851 0.395463 
188.102814 0.752997 
191.899124 0.111452 
193.108002 0.120995 
193.359207 0.097997 
194.092407 2.919326 
194.65004 0.094731 
195.123444 0.113039 
195.185257 0.352314 
196.107758 0.545505 
196.144424 0.112614 
197.128098 0.226211 
197.138168 0.102622 
201.134491 36.987053 
201.144974 0.163188 
202.118484 85.028931 
202.135864 1.993572 
203.122025 6.235477 
204.149689 0.700262 
205.108307 0.134092 
206.092178 0.736281 
208.579102 0.09735 
209.103729 0.152834 
209.128448 2.198848 
209.164688 1.550053 
210.1241 0.130374 
211.118973 5.181102 
212.102768 3.857596 
213.102264 0.740195 
213.134399 1.605213 
213.170975 0.108815 
214.049713 0.264226 
214.154831 15.984323 
214.165039 0.140705 
215.158157 1.021338 
215.977005 0.095729 
219.124161 0.120184 
219.145782 4.429228 
220.144943 0.231004 
222.135056 0.106373 
222.578766 0.105804 
223.107498 0.102774 
223.118729 1.681375 
223.180206 9.77487 
224.102814 1.093484 
224.139114 2.743731 
224.183792 0.433734 
225.042892 0.80699 
226.377731 0.102448 
227.175308 5.145123 
227.685242 0.0966 
228.178711 0.129957 
230.128723 9.067629 
231.112732 1.28529 
231.132797 0.317422 
232.107422 0.354788 
233.164658 53.515808 
234.168427 7.580113 
238.11824 1.198884 
238.199417 0.102105 
239.095032 1.17943 
239.149933 7.286431 
239.175552 0.125812 
240.13353 0.108716 
240.144882 7.987566 
240.206833 0.798499 
241.129166 7.294187 
241.150391 0.097785 
241.190918 18.879572 
242.175323 0.52567 
242.194031 2.048336 
243.147247 0.092374 
246.009903 0.097316 
247.143768 0.576133 
248.138901 14.522894 
249.133789 1.239991 
250.118042 1.610327 
250.153793 0.113261 
253.129578 0.108548 
256.178589 0.109266 
257.091949 0.452144 
257.160553 8.222965 
257.185303 0.101251 
258.123596 2.805608 
258.155518 1.123018 
258.191223 0.222839 
259.107178 0.146116 
261.159576 40.140968 
262.163116 6.495614 
262.774353 0.106686 
263.517395 0.10895 
265.128815 0.432229 
266.161163 8.17444 
266.185791 0.805414 
267.145081 13.452517 
267.161011 0.622843 
268.144958 0.429511 
268.232727 0.103742 
269.160889 0.100798 
270.156494 1.209953 
270.179901 0.089527 
271.141968 0.630165 
275.724609 0.086988 
277.129333 0.11653 
278.092102 1.325804 
278.186279 0.379007 
280.201508 5.53551 
282.217468 0.127504 
284.171356 54.540054 
285.008789 0.106843 
285.155243 22.018625 
285.173828 7.741499 
286.157654 3.021648 
286.175751 0.111006 
288.166626 1.23212 
289.238373 0.120134 
294.155518 1.836204 
295.139404 0.142071 
296.102661 15.819205 
296.207825 7.109271 
296.232635 2.870319 
297.105988 0.772934 
297.191589 5.361446 
297.216187 4.19561 
298.193848 0.13544 
299.061768 0.489582 
299.175079 0.394613 
302.181946 86.343994 
303.184967 12.046121 
304.166718 0.16619 
304.189209 0.323443 
306.155579 0.986497 
306.19104 0.116847 
306.216522 0.213492 
307.139526 0.108421 
310.212036 0.092878 
312.165802 1.655486 
312.183563 0.25414 
312.767578 0.104984 
313.166595 0.862837 
314.113129 5.450077 
314.149536 0.362541 
314.182831 0.621215 
314.217773 1.517004 
315.21701 0.103257 
316.201599 2.045218 
322.199707 0.110912 
323.182312 3.463779 
323.602722 0.099043 
324.165802 2.308407 
324.18457 0.123328 
324.227448 1.965012 
326.185791 5.407098 
327.188904 0.116503 
328.221985 0.474183 
330.192871 1.484158 
330.253632 0.110186 
331.175903 0.60042 
335.114075 0.102776 
341.015228 0.096617 
341.16095 0.101621 
341.192719 2.913982 
341.255463 0.111545 
342.238281 3.062771 
343.212463 5.35475 
344.195953 2.660196 
344.216675 0.540006 
347.207062 0.259492 
349.198181 1.804851 
350.182068 1.884144 
353.190277 0.111379 
357.222839 0.120396 
359.026917 0.113811 
359.171234 0.119096 
359.201996 1.04073 
360.145355 1.163783 
360.238647 3.3936 
361.127899 0.252723 
361.199829 0.206119 
361.2229 29.445881 
361.245514 0.999022 
362.226013 6.725889 
362.252136 1.744259 
366.22406 1.86215 
366.249542 0.132979 
367.20816 9.724958 
367.396057 0.095451 
368.191193 2.044344 
368.213379 0.423489 
370.24353 0.104849 
371.137024 0.110431 
371.206757 9.201583 
372.20993 1.106243 
373.220764 0.138332 
378.155701 6.801299 
378.555206 0.116442 
379.280975 0.184685 
380.232391 0.110012 
380.264801 0.48608 
383.20517 0.289217 
384.234955 10.430769 
385.217621 12.402568 
386.221405 2.96141 
387.214874 0.140293 
395.2034 0.122952 
396.166412 12.133795 
396.194336 0.122665 
396.20636 0.110472 
396.235779 0.112528 
397.168396 0.228931 
399.169952 20.307329 
400.173065 2.625142 
402.245422 16.351601 
402.689423 0.116758 
403.226074 8.688715 
403.254517 0.281829 
404.231079 1.297135 
404.94281 0.108215 
405.227692 0.101523 
406.223907 0.109773 
406.281738 0.174442 
407.264069 0.403949 
408.238312 0.582813 
410.275421 1.5918 
411.25885 0.103684 
413.228943 0.639314 
414.213379 0.673419 
414.247955 0.436803 
414.742218 0.110332 
415.891479 0.10462 
416.196564 1.107144 
416.266266 0.125562 
418.21167 2.717575 
421.25824 0.123532 
423.249512 0.485142 
424.231842 0.17897 
424.291168 7.815777 
425.273438 4.173229 
426.248566 1.232093 
426.278137 0.111725 
427.302155 0.641289 
428.285706 0.544715 
429.258209 0.114786 
431.239594 11.115729 
432.221222 0.420041 
432.245331 0.459228 
433.263245 0.104562 
435.17691 5.061611 
436.222443 10.711296 
437.226013 1.278631 
441.2565 1.363607 
441.317749 4.040143 
442.239929 1.954218 
442.299713 4.630475 
443.244324 0.747214 
443.275879 22.647057 
443.305634 0.97531 
444.257629 10.459369 
445.263 2.385964 
447.270508 0.970966 
449.249969 16.657743 
450.252136 4.646232 
453.081818 0.091431 
453.187408 2.206768 
453.257568 0.516911 
453.460571 0.121286 
454.239594 0.133619 
455.275391 0.537406 
459.269958 0.135221 
460.302551 1.497873 
461.190796 0.177345 
461.286591 51.186943 
462.2901 13.45998 
463.293213 1.245068 
464.279785 0.41853 
464.775116 0.363688 
465.531982 0.113054 
467.272034 2.68868 
468.25592 0.882147 
471.236664 0.301702 
471.270233 3.88657 
473.284729 0.706853 
473.780487 0.12077 
474.287048 0.106623 
481.222565 9.204558 
482.225586 0.781236 
482.285828 0.158298 
484.297729 0.247571 
485.281647 10.854345 
486.266174 1.319775 
487.270935 0.117109 
498.246918 0.116719 
498.375305 0.542471 
499.233215 17.847441 
499.300598 1.467004 
500.234772 2.696558 
500.29895 1.547824 
502.30835 0.111126 
503.291992 12.358486 
504.295044 3.057998 
506.343109 0.218445 
507.203094 0.653953 
507.326904 0.152236 
508.302307 1.136876 
509.286285 1.210635 
510.338348 3.389558 
511.340088 0.12523 
516.259766 2.744117 
516.327576 1.059972 
517.314392 0.574617 
518.209412 0.127976 
518.274292 6.22989 
519.277161 0.477257 
524.296753 0.106884 
524.353882 9.306897 
525.213501 1.122516 
525.284973 0.460021 
525.327332 2.998793 
526.31366 4.804379 
527.296814 1.844664 
531.30249 2.467842 
532.297241 0.217059 
534.337585 0.307356 
535.239868 1.75796 
536.285889 7.473356 
537.28949 0.429567 
538.243713 3.831307 
541.322205 0.131451 
542.361694 1.05644 
543.33905 16.920368 
544.322693 12.003559 
545.321228 1.712468 
546.328674 0.109097 
549.312866 0.844215 
553.252869 0.152232 
556.25592 1.346551 
561.350891 8.104443 
562.333069 12.347627 
563.332947 1.807615 
571.295166 0.1101 
573.345581 0.106963 
575.294067 0.137175 
581.28479 0.262825 
581.374329 0.118877 
582.348267 2.279094 
583.336182 0.638839 
584.369507 0.276001 
584.868469 0.108035 
585.345337 4.08022 
586.345581 0.453183 
589.380554 0.348314 
592.321655 0.128863 
593.313232 0.253868 
593.374268 1.02684 
594.375977 0.188815 
599.294067 0.356539 
599.365479 0.159273 
600.359619 3.527545 
601.356689 0.14269 
603.355591 3.255643 
604.358887 0.789544 
607.338196 0.127778 
607.390625 4.044264 
608.367432 1.617797 
609.352051 0.527991 
610.342346 0.267415 
611.386475 1.166798 
613.352112 0.111712 
614.340027 1.16098 
615.338135 0.110606 
616.390564 0.111175 
617.379089 0.648896 
618.368469 0.11736 
620.297485 1.981058 
621.285522 0.122076 
624.419556 0.300967 
625.276306 0.120327 
625.400574 6.722626 
626.378296 4.577864 
627.361572 5.030118 
628.359863 1.250949 
629.396912 2.639267 
630.372437 0.408567 
632.350586 3.604663 
633.3526 0.119227 
638.307861 5.554127 
638.364258 0.11401 
639.309814 0.603882 
643.411865 10.863377 
644.385559 25.981518 
645.384827 10.648807 
646.386047 2.163705 
647.378906 0.115124 
648.380798 1.925495 
649.38092 0.282259 
650.360901 5.008935 
651.364868 1.367012 
654.375916 0.111515 
656.318359 7.130964 
656.376831 0.312949 
657.322266 0.973163 
658.684509 0.109175 
662.397705 33.624367 
663.399658 12.989875 
664.402527 5.001021 
665.393616 2.009478 
666.374573 0.289643 
669.354553 0.148143 
673.403748 0.140727 
674.389343 0.471674 
675.358398 2.159656 
677.392029 0.13021 
680.387512 0.938484 
682.412781 7.240503 
683.406189 3.27455 
684.397339 0.377707 
689.442749 0.12603 
690.420532 0.519583 
691.406738 0.299861 
692.387634 0.790037 
693.374756 0.593629 
693.434387 0.157126 
698.447937 0.115694 
699.428711 1.043455 
700.422852 5.315241 
701.414673 1.324247 
702.34906 0.103366 
703.340393 0.3012 
707.454285 1.249318 
708.433105 5.348005 
709.418091 4.879392 
710.008484 0.122375 
710.13446 0.167545 
710.209595 0.323254 
710.328369 0.150781 
710.402771 2.491924 
711.452393 1.87312 
712.429565 0.523953 
714.398315 0.293469 
717.441711 0.662295 
718.436584 0.118514 
720.358826 3.118582 
721.363953 0.135652 
725.467712 7.336942 
726.441223 17.20344 
727.426819 15.942201 
728.424255 6.508863 
729.460999 1.976021 
730.43573 4.711014 
731.431519 1.934684 
732.41626 0.624534 
736.418335 0.143278 
738.370483 6.801652 
739.372803 0.843056 
743.478088 8.443968 
744.450256 79.340057 
745.449402 39.659077 
746.450562 11.486401 
747.442932 1.722748 
748.442383 3.6559 
749.444336 0.968973 
750.427551 0.12987 
754.432434 0.26709 
755.433044 0.148424 
756.379211 6.476221 
756.447937 1.491507 
757.387207 0.48796 
762.46106 50.962009 
763.462708 23.338486 
764.462646 6.008436 
765.459412 0.280065 
775.42804 0.282321 
780.448303 5.841849 
781.450439 2.042603 
782.465881 0.121491 
783.464355 0.357505 
784.443542 0.162389 
790.503723 0.251722 
792.454102 0.305779 
793.431641 0.12971 
795.394409 0.13038 
801.479004 0.305183 
807.525391 0.128943 
808.501099 0.153327 
809.481445 0.569164 
810.469666 0.530831 
811.514893 0.658225 
812.50592 0.277576 
825.527832 5.618463 
826.519714 3.186245 
827.49054 2.368748 
828.479187 1.58329 
829.522156 0.614794 
830.530151 0.125872 
837.472351 0.144285 
843.536499 5.344303 
844.519836 5.445768 
845.500488 7.155496 
846.495483 2.981546 
847.495056 0.514381 
855.505981 0.11185 
858.513794 0.12093 
862.522583 1.071274 
863.509277 6.916725 
864.509399 2.775047 
865.512573 0.916616 
866.500366 0.896363 
867.491943 0.131567 
872.531921 1.827834 
873.529358 0.816962 
877.444092 0.539417 
878.435364 0.298327 
883.523621 1.663613 
884.511108 2.975681 
890.541199 0.805336 
895.453064 2.77989 
901.534241 5.646972 
902.533875 2.562256 
903.539185 0.518772 
909.536682 0.649139 
910.529846 1.510339 
911.517639 0.944014 
912.507996 0.137854 
913.462036 1.039778 
926.508484 0.113832 
927.550537 6.880724 
928.544128 7.38567 
929.542297 2.114373 
930.529297 0.135827 
931.54303 1.368342 
932.536438 0.400369 
944.52655 0.127251 
945.56134 20.738119 
946.561279 12.835971 
947.556824 4.581555 
948.559692 0.132584 
949.547668 0.39892 
954.586792 0.193469 
955.585388 0.122456 
958.570862 0.124418 
959.57019 0.174297 
963.571289 12.691959 
964.57605 6.255105 
965.574097 0.650757 
967.610962 0.404564 
968.602295 0.393639 
972.596313 1.120786 
985.619568 0.648188 
986.616272 0.305274 
989.611084 0.255958 
990.609619 0.414331 
1003.630005 1.409471 
1004.628479 0.16304 
1005.649109 0.110624 
1023.656006 0.138266 
1049.661255 0.293704 
1053.647339 0.5934 
1054.657471 0.578369 
1055.644653 0.365524 
1067.668457 2.520652 
1068.658936 2.062184 
1069.660645 0.497543 
1070.665405 0.275823 
1071.660645 2.533624 
1072.663696 1.477759 
1073.660645 0.744966 
1084.674316 0.448784 
1085.682983 8.248898 
1086.677856 6.03406 
1087.675415 2.391019 
1088.677612 1.083156 
1089.672119 4.223477 
1090.677368 2.28379 
1091.678101 1.172681 
1092.675659 1.422606 
1093.674072 0.177056 
1097.682495 0.119811 
1099.613037 0.312085 
1100.610352 0.153109 
1103.692627 9.322377 
1104.691772 6.633449 
1105.693604 5.993669 
1106.690063 4.294485 
1107.688354 1.405931 
1109.68811 3.184151 
1110.690552 2.589729 
1111.688599 1.003553 
1114.687378 0.139141 
1117.622925 1.127274 
1118.635742 0.125517 
1119.676025 0.399231 
1120.681396 0.131364 
1121.687012 0.354417 
1122.685669 0.646612 
1123.709473 10.50979 
1124.70874 7.668679 
1125.704834 3.007187 
1126.702026 0.560514 
1127.708374 1.443543 
1128.713867 0.739722 
1131.700928 0.531426 
1132.69873 2.00452 
1133.695923 0.420357 
1134.69397 0.170577 
1135.697632 1.78183 
1136.696167 3.962983 
1137.696777 2.308308 
1138.696411 0.851367 
1139.701904 1.973497 
1140.704468 2.90211 
1141.718384 5.941492 
1142.720703 3.599234 
1143.721924 0.629279 
1148.688843 1.290103 
1149.7229 9.564168 
1150.718262 9.136344 
1151.709595 4.523585 
1152.705322 1.122008 
1153.722412 13.408642 
1154.71936 14.170504 
1155.720947 7.840194 
1156.710938 2.730719 
1157.712402 4.105151 
1158.712891 3.262154 
1159.731689 1.611301 
1163.70105 0.137516 
1165.709106 0.30997 
1166.697876 4.813058 
1167.733643 35.163631 
1168.732056 30.889256 
1169.729614 13.990156 
1170.722534 4.828319 
1171.72998 30.931305 
1172.731689 23.97946 
1173.731689 11.475832 
1174.728271 3.034808 
1175.7229 2.019042 
1176.714478 0.360671 
1177.719604 0.135387 
1178.706055 0.138342 
1179.717163 0.585042 
1180.716675 0.368793 
1181.714722 1.601327 
1182.715942 0.752724 
1183.723755 4.21025 
1184.716309 4.154245 
1185.744751 79.027275 
1186.747192 55.048111 
1187.746216 22.200729 
1188.748291 6.210667 
1189.741089 20.504356 
1190.742798 13.013736 
1191.74353 5.81362 
1192.743286 0.811693 
1197.72583 1.834555 
1198.728516 0.762613 
1199.735962 0.468875 
1200.746826 0.276433 
1201.733521 4.959946 
1202.736938 2.961791 
1203.755615 51.713806 
1204.758545 34.355057 
1205.762451 11.992055 
1206.754395 2.685438 
1207.732788 0.460286 
1211.722412 8.796556 
1212.723755 7.037036 
1213.723389 2.284322 
1214.745483 0.133675 
1219.743896 1.775208 
1220.750977 0.739475 
1225.738647 22.301584 
1226.740845 14.982449 
1227.739624 6.495315 
1228.741333 0.881752 
1241.714722 1.99934 
1242.71228 0.620486 
1337.859253 0.786171 
1338.85144 1.323435 
1339.839111 0.290625 
END IONS

