BEGIN IONS
PEPMASS=506.276
CHARGE=1+
COMPOUNDNAME=(2E,6E,12E)-18-(2,6-dioxopiperidin-4-yl)-9,11-dihydroxy-8-methoxy-10,12,14-trimethyl-15-oxooctadeca-2,6,12-trienoic acid
LIBRARYQUALITY=3
SMILES=N/A
INCHIKEY=YQDJUXPUIRGKNV-MNOLRWOYSA-N
INCHI=InChI=1S/C27H41NO8/c1-17(21(29)11-9-10-20-15-23(30)28-24(31)16-20)14-18(2)26(34)19(3)27(35)22(36-4)12-7-5-6-8-13-25(32)33/h7-8,12-14,17,19-20,22,26-27,34-35H,5-6,9-11,15-16H2,1-4H3,(H,32,33)(H,28,30,31)/b12-7+,13-8+,18-14+
MSLEVEL=2
SOURCE_INSTRUMENT=N/A-ESI-QFT
FILENAME=library_mgf.mgf
SEQ=*..*
IONMODE=negative
ORGANISM=MONA
NAME=(2E,6E,12E)-18-(2,6-dioxopiperidin-4-yl)-9,11-dihydroxy-8-methoxy-10,12,14-trimethyl-15-oxooctadeca-2,6,12-trienoic acid [M-H]-
PI=MoNA
DATACOLLECTOR=MoNA:VF-NPL-QEHF001650
PUBMED=N/A
SUBMITUSER=mwang87
TAGS=
SPECTRUMID=CCMSLIB00004692713
SCANS=1650
50.020668 0.055946 
50.074448 0.093583 
50.119347 0.091131 
50.54903 0.086648 
51.818054 0.08806 
52.33765 0.063069 
52.417675 0.08103 
52.741268 0.092785 
53.104427 0.082466 
53.253025 0.084961 
53.325298 0.052867 
53.702209 0.069325 
53.931656 0.103633 
54.209766 0.075665 
54.225994 0.075169 
54.335091 0.097355 
54.418198 0.087417 
55.01749 0.064359 
55.271458 0.08281 
55.624931 0.087487 
55.778767 0.094521 
56.649921 0.070008 
56.974155 0.083597 
57.015446 0.076065 
57.033234 2.356231 
57.358391 0.050052 
57.740681 0.077625 
57.762836 0.080921 
57.895706 0.059144 
57.949261 0.066297 
58.028481 100.0 
58.03653 0.099803 
58.542313 0.056393 
59.031879 0.53571 
60.119308 0.089104 
60.127903 0.083168 
60.335316 0.076634 
60.661453 0.079204 
60.845749 0.091066 
61.310795 0.078541 
62.022259 0.065568 
62.187084 0.072219 
62.232521 0.089837 
62.821037 0.092014 
64.937981 0.079092 
65.055489 0.077774 
65.413666 0.102122 
65.64637 0.05664 
66.033569 1.336999 
66.420792 0.081828 
67.01767 0.174177 
67.072617 0.106189 
67.291786 0.093183 
67.330978 0.065557 
67.907089 0.056189 
68.77726 0.054114 
69.033241 1.236736 
69.0569 0.072703 
69.375061 0.094194 
69.515968 0.086319 
69.68718 0.082649 
70.130333 0.105383 
70.226646 0.071841 
72.902 0.062647 
73.851173 0.087197 
74.777855 0.096613 
75.134697 0.077 
75.748825 0.080395 
75.994087 0.055917 
76.691696 0.07179 
76.703873 0.083883 
77.981766 0.120751 
80.049347 0.05535 
80.264023 0.110294 
81.033211 1.212086 
81.292908 0.091584 
82.63028 0.11647 
83.048859 0.075831 
83.60527 0.094507 
84.044189 11.905847 
84.2714 0.075989 
85.028191 38.528011 
85.463638 0.055103 
85.624893 0.084351 
85.737793 0.059034 
85.74115 0.075129 
85.931648 0.089076 
85.939751 0.073341 
86.031792 0.291712 
86.057533 0.088392 
87.812233 0.106458 
88.327736 0.100713 
88.70002 0.097786 
90.197891 0.115529 
90.753799 0.10044 
91.208084 0.114297 
92.462479 0.075522 
93.03331 1.132432 
93.72316 0.089027 
94.347717 0.076246 
94.514275 0.076736 
94.574219 0.061204 
95.048981 25.853634 
95.597862 0.089725 
95.884651 0.079088 
96.032455 0.072027 
96.044159 0.326076 
96.052124 0.283428 
96.484695 0.104039 
97.028053 0.066872 
97.034599 0.074928 
97.064613 8.454137 
97.42157 0.076959 
98.958458 0.084426 
99.105949 0.087505 
99.110863 0.05455 
100.777084 0.095653 
102.069733 0.119281 
102.198479 0.073717 
104.223816 0.077785 
104.556938 0.087146 
104.805466 0.075761 
105.226288 0.078269 
105.507339 0.070201 
105.527031 0.067504 
108.918465 0.074036 
109.064888 0.099674 
109.496155 0.098824 
110.02356 10.104015 
110.416008 0.054095 
111.080368 1.259527 
111.582603 0.096776 
112.075584 0.506867 
113.471016 0.082652 
113.538132 0.084826 
114.719917 0.091277 
115.417961 0.094754 
115.724243 0.088158 
118.672668 0.085198 
119.026848 0.089923 
119.155197 0.081991 
120.514473 0.086338 
120.663704 0.083508 
121.064781 0.44124 
121.749092 0.072284 
122.674149 0.05853 
122.850716 0.086581 
123.044006 0.811352 
124.039284 8.995666 
125.768173 0.093139 
127.018402 0.06468 
127.721619 0.088446 
131.143539 0.074608 
131.510956 0.083588 
131.540756 0.077811 
135.00914 0.096805 
135.080475 1.235764 
135.852966 0.086327 
136.03923 0.191292 
136.076126 0.095709 
136.308197 0.079181 
137.059723 0.407724 
137.096008 0.248422 
137.87822 0.051353 
137.939804 0.088827 
138.055054 0.542213 
140.15094 0.088851 
140.242172 0.105856 
141.242508 0.056015 
141.553925 0.08772 
141.908752 0.102005 
143.116516 0.095626 
143.508011 0.083828 
144.483124 0.104098 
148.545547 0.090878 
149.646866 0.089638 
151.075256 0.176193 
152.629547 0.11508 
153.258926 0.080378 
153.368378 0.075323 
154.306839 0.082457 
156.564331 0.08524 
157.550812 0.098556 
158.352646 0.080367 
160.626648 0.057872 
163.161911 0.079857 
163.354996 0.081409 
164.677826 0.073652 
168.344925 0.080724 
168.470306 0.095313 
170.567902 0.083166 
171.813965 0.066313 
173.096405 0.063948 
173.261887 0.090816 
175.113052 0.090202 
177.408234 0.061518 
180.06604 0.500323 
180.84993 0.077427 
182.482727 0.083894 
183.078186 0.059322 
184.587402 0.056803 
186.402893 0.082733 
186.684784 0.085167 
188.065933 0.089349 
189.589462 0.08458 
191.021347 0.052261 
191.107101 3.393083 
195.117676 0.072834 
200.955032 0.097219 
201.00415 0.082202 
203.644714 0.073596 
206.528519 0.08815 
206.893768 0.061906 
207.773941 0.085252 
208.160263 0.057714 
208.461212 0.064805 
213.89946 0.094713 
214.396515 0.055127 
214.475891 0.086234 
215.244812 0.090072 
215.630493 0.066326 
219.604889 0.116389 
220.403931 1.028281 
220.407471 1.041835 
220.692947 0.08594 
222.939316 0.082309 
225.197968 0.091386 
226.347321 0.063544 
226.496704 0.10481 
229.638336 0.067916 
229.736176 0.087274 
231.13887 1.276979 
232.9263 0.095936 
238.815399 0.05739 
240.084122 0.053126 
241.778198 0.10778 
242.963959 0.079784 
243.753677 0.083417 
246.509598 0.140784 
247.892822 0.07866 
248.253922 0.091252 
248.356384 0.053938 
250.265869 0.09647 
252.417755 0.101107 
271.501556 0.09438 
273.842834 0.068578 
277.13913 0.079794 
284.572632 0.08773 
293.380096 0.100101 
299.16803 0.053354 
301.641144 0.081667 
306.945068 0.103018 
318.506958 0.089321 
318.9422 0.069014 
319.70694 0.097467 
322.73465 0.054452 
323.393311 0.093061 
325.375519 0.064235 
325.799438 0.082095 
329.411346 0.116247 
332.884155 0.109307 
340.955841 0.093673 
341.487 0.102574 
343.929504 0.095869 
344.650635 0.080641 
361.541199 0.057204 
361.994995 0.086011 
362.924072 0.08389 
364.368927 0.102403 
366.096954 0.103147 
366.704071 0.103023 
370.984467 0.087733 
371.658386 0.128985 
379.805237 0.082685 
379.833069 0.079393 
384.359467 0.121901 
385.419739 0.096586 
386.758118 0.097666 
398.445312 0.096768 
400.246735 0.082936 
401.068298 0.084373 
403.897064 0.15166 
404.609985 0.05395 
411.671844 0.068658 
411.975922 0.073288 
412.811462 0.099557 
420.164215 0.109387 
422.001007 0.099264 
430.625763 0.119223 
433.916534 0.059571 
434.756622 0.073583 
435.81424 0.070432 
443.704041 0.086715 
471.007843 0.112457 
476.366455 0.053255 
480.314972 0.103845 
483.276886 0.09949 
491.352661 0.078382 
499.810699 0.102723 
500.018951 0.094229 
510.789459 0.067361 
515.485535 0.096392 
527.644836 0.092988 
533.719727 0.093417 
END IONS

