BEGIN IONS
PEPMASS=477.107
CHARGE=1+
COMPOUNDNAME=MoNA:1010264 Chlortetracycline
LIBRARYQUALITY=3
SMILES=N/A
INCHIKEY=DHPRQBPJLMKORJ-UHFFFAOYSA-N
INCHI=InChI=1S/C22H23ClN2O8/c1-21(32)7-6-8-15(25(2)3)17(28)13(20(24)31)19(30)22(8,33)18(29)11(7)16(27)12-10(26)5-4-9(23)14(12)21/h4-5,7-8,15,26-27,30,32-33H,6H2,1-3H3,(H2,24,31)
MSLEVEL=2
SOURCE_INSTRUMENT=LC-ESI-QFT-LC-ESI-QFT
FILENAME=output_mgf.mgf
SEQ=*..*
IONMODE=
ORGANISM=MONA
NAME=MoNA:1010264 Chlortetracycline [M-H]-
PI=MoNA
DATACOLLECTOR=MoNA
PUBMED=N/A
SUBMITUSER=mwang87
TAGS=
SPECTRUMID=CCMSLIB00000569859
SCANS=7110
57.0346 0.232362 
59.0138 3.586717 
63.0241 1.832975 
65.0033 0.635121 
65.0397 1.560399 
65.9985 2.24255 
67.0188 0.172 
68.9983 2.286361 
71.0137 0.24454 
79.0553 0.716173 
81.0345 0.787409 
83.0138 0.575127 
83.0503 0.626392 
84.009 6.479471 
86.0248 0.775217 
87.0087 1.191418 
90.0347 0.167072 
91.019 0.862473 
93.0345 2.500136 
95.0137 1.859829 
95.0503 0.304181 
96.009 0.80294 
96.9931 2.085117 
97.0294 0.621436 
99.0087 0.962505 
100.0767 0.67319 
102.0561 0.353056 
103.0553 0.323052 
104.0269 0.198882 
105.0346 1.884755 
107.0139 0.852114 
107.0502 3.335321 
108.0216 2.130707 
109.0295 5.415157 
111.0088 1.183 
111.0452 4.307465 
117.0346 4.023431 
118.0298 0.575724 
119.0139 2.265671 
119.0503 1.283073 
120.0217 0.687377 
120.0454 0.155844 
121.0297 1.772885 
121.0658 3.318174 
122.001 0.251898 
122.0376 0.245313 
123.0088 0.607914 
123.0451 3.199244 
124.004 0.813706 
124.0166 0.345033 
124.0767 0.736864 
124.9798 0.256093 
124.988 0.287156 
125.0242 0.300706 
125.072 2.843296 
125.9878 1.217458 
126.0196 0.571651 
126.056 5.36415 
126.9956 30.684616 
131.0139 1.124975 
131.0502 1.179769 
132.0215 0.908131 
133.0295 5.110161 
134.0247 2.692067 
134.0373 0.227053 
135.0088 11.945879 
135.0451 5.617487 
136.0164 1.390327 
136.0403 2.626343 
137.0243 1.901889 
137.0606 0.794374 
137.9957 0.242299 
138.0321 0.272426 
139.0149 4.379176 
139.0401 0.230583 
140.0034 0.356451 
141.9827 1.938274 
142.0147 0.676991 
142.9985 2.342228 
143.0503 0.189446 
145.0295 2.521805 
146.0372 1.134302 
147.0452 5.531208 
148.0167 0.59074 
148.0769 0.1854 
149.0244 3.596831 
149.0608 7.612918 
149.996 0.275806 
150.0194 1.231278 
150.9955 3.01626 
151.0401 0.792609 
152.0354 1.83607 
152.0715 0.180513 
153.0113 3.570615 
153.0176 0.245327 
153.0557 0.577014 
154.0385 0.607358 
154.9907 0.868949 
157.0294 0.269819 
158.0373 0.282825 
159.045 0.310494 
160.0166 3.766076 
161.0244 6.122749 
162.0197 8.318868 
163.0038 11.756121 
163.0401 2.226788 
164.0116 1.027699 
164.0353 1.238067 
164.0715 0.221813 
165.0112 0.286437 
165.043 1.193495 
165.056 0.190478 
165.067 0.727808 
166.0873 1.064776 
166.9905 0.91792 
167.0223 0.142187 
168.0669 0.180106 
169.0062 100.0 
170.0374 0.163312 
170.9855 3.884761 
171.0452 0.949417 
172.0164 0.150074 
172.0528 0.792174 
173.0244 1.166763 
174.0322 0.584142 
175.0038 0.548286 
175.0326 0.272222 
175.04 3.431225 
177.0112 0.749938 
177.0308 0.31921 
178.9905 5.551424 
179.9983 1.82939 
180.0301 2.863918 
181.0062 0.997885 
181.0142 0.248504 
181.0503 0.255292 
182.0142 1.019689 
182.0369 0.138195 
183.0453 0.264755 
185.0607 0.825654 
186.0325 0.178001 
187.04 1.165582 
188.048 0.331836 
189.0193 0.788359 
189.0556 0.332637 
190.0272 0.315531 
191.0267 0.858468 
191.0351 1.003913 
191.9983 0.620608 
192.1026 0.217536 
193.0062 2.895864 
193.0505 1.10613 
193.0657 0.192406 
194.0139 0.3112 
194.9854 90.199001 
195.9932 1.400876 
196.0532 0.706289 
197.001 9.935189 
197.0608 0.875344 
198.0325 1.237184 
199.0395 0.461451 
199.0764 3.392872 
201.0197 0.653002 
203.027 1.901278 
205.0064 1.544529 
206.0139 11.245984 
207.0217 17.245772 
207.9932 4.104985 
208.0526 0.267267 
209.0609 2.867109 
209.0932 0.937728 
211.04 1.208076 
211.0766 0.584712 
212.048 2.541192 
213.0557 0.185292 
214.0269 0.619943 
215.026 0.37334 
215.0356 0.525939 
217.0059 0.585825 
217.0424 4.759575 
219.0218 4.342818 
220.0296 9.436701 
221.001 4.27036 
221.0375 6.491215 
221.0608 0.849738 
222.0086 0.694098 
222.0322 0.317771 
223.0168 0.983127 
223.0406 0.239856 
223.0764 0.36184 
224.0478 1.196387 
225.0556 0.848001 
226.0275 1.193291 
227.0714 1.007714 
229.0056 1.956833 
229.0419 0.336941 
230.0134 1.252403 
231.0216 3.965107 
231.993 0.285649 
233.0015 0.662709 
233.0376 1.407936 
233.0602 0.281848 
235.0169 3.466144 
235.0401 1.705858 
235.0528 11.136558 
235.988 0.745118 
236.0479 0.866573 
237.0323 0.689712 
237.0557 1.313783 
238.0038 3.447463 
238.0271 1.141959 
239.0716 0.256229 
240.0429 2.15361 
243.0215 4.691937 
244.0294 0.365058 
245.0012 0.754309 
245.0374 13.772201 
246.0084 0.310399 
247.0167 6.744498 
247.0395 0.700492 
247.0531 0.606516 
248.0245 18.898993 
248.0478 1.236492 
248.9967 0.29465 
249.0323 0.890386 
249.0559 0.832727 
250.0041 0.586219 
250.0271 0.715779 
251.0116 0.571977 
251.0348 0.836216 
252.0426 1.231577 
253.0049 0.308444 
253.016 0.198298 
254.0221 1.765119 
255.0206 0.684282 
257.0374 5.331471 
258.0183 2.389637 
259.0168 1.923272 
259.0527 0.633886 
259.9884 0.319685 
260.0246 1.504247 
260.9957 0.254152 
261.0322 4.276864 
263.0479 10.434342 
263.983 0.915476 
264.0199 0.273118 
264.0425 1.22878 
265.0273 2.201535 
265.0507 0.595899 
266.0219 0.889979 
267.0218 0.682042 
267.0659 0.242462 
268.0376 0.882403 
270.009 0.299063 
271.0167 15.532962 
273.0323 4.608252 
273.0559 0.265094 
274.0035 1.765174 
275.0115 0.322469 
275.0351 0.204978 
275.0483 0.902714 
276.043 1.152996 
276.9909 0.246644 
277.0506 0.226171 
277.9982 0.231954 
278.022 1.559313 
279.0433 0.275508 
281.0371 0.658201 
283.0166 2.806734 
284.033 0.28254 
284.9964 0.58554 
285.0324 6.503176 
286.0038 0.964704 
286.0411 0.202643 
287.0113 3.194492 
288.0192 0.827731 
289.0273 8.029526 
291.0426 0.240969 
292.0142 0.323229 
292.0381 0.608145 
292.1114 0.207951 
293.046 0.808289 
296.0329 2.290176 
297.0321 0.674819 
299.0117 0.682598 
299.0478 0.877394 
300.027 2.103269 
300.0436 1.018548 
301.0271 3.550861 
301.9984 0.969225 
302.0355 0.49994 
307.0378 1.702287 
308.9951 0.239353 
309.032 0.24849 
310.0035 0.214536 
311.011 1.338886 
312.0202 0.898655 
313.0269 0.216491 
313.9987 0.357238 
319.0383 0.366592 
320.0319 0.784503 
322.0113 0.73051 
324.0271 0.303136 
325.0274 0.721101 
327.0064 0.604004 
327.0426 0.160365 
328.023 3.343983 
328.0746 1.314326 
329.0218 1.714574 
329.993 0.198244 
330.0909 0.204285 
331.0363 0.166407 
338.001 0.16881 
338.0432 0.695387 
341.9929 0.239788 
347.0327 0.259976 
351.0062 0.177092 
352.0213 1.032396 
354.0538 0.333954 
356.0697 0.231208 
357.989 0.230651 
368.0167 0.258673 
370.0335 1.290092 
END IONS

