BEGIN IONS
PEPMASS=176.104
CHARGE=1+
COMPOUNDNAME=Massbank:PB000432 Citrulline|2-amino-5-(carbamoylamino)pentanoic acid
LIBRARYQUALITY=3
SMILES=C(CC(C(=O)O)N)CNC(=O)N
INCHIKEY=RHGKLRLOHDJJDR-UHFFFAOYSA-N
INCHI=1S/C6H13N3O3/c7-4(5(10)11)2-1-3-9-6(8)12/h4H,1-3,7H2,(H,10,11)(H3,8,9,12)
MSLEVEL=2
SOURCE_INSTRUMENT=ESI-LC-ESI-QTOF
FILENAME=Massbank_ESI_positive_8_1_2014_peaks.mgf
SEQ=*..*
IONMODE=Positive
ORGANISM=MASSBANK
NAME=Massbank:PB000432 Citrulline|2-amino-5-(carbamoylamino)pentanoic acid [M+H]+
PI=Putative Massbank Match
DATACOLLECTOR=Massbank
PUBMED=N/A
SUBMITUSER=mwang87
TAGS=
SPECTRUMID=CCMSLIB00000221740
SCANS=10394
70.067 416.314 
113.071 1020.93 
114.055 149.915 
115.087 543.473 
116.073 277.446 
130.097 140.582 
133.097 135.171 
141.068 77.642 
158.093 42.992 
159.078 10000.0 
176.106 1674.3 
END IONS

