BEGIN IONS
PEPMASS=155.034
CHARGE=1+
COMPOUNDNAME=Patulin
LIBRARYQUALITY=3
SMILES=N/A
INCHIKEY=ZRWPUFFVAOMMNM-UHFFFAOYSA-N
INCHI=InChI=1S/C7H6O4/c8-6-3-4-5(11-6)1-2-10-7(4)9/h1,3,7,9H,2H2
MSLEVEL=2
SOURCE_INSTRUMENT=N/A-ESI-QFT
FILENAME=library_mgf.mgf
SEQ=*..*
IONMODE=positive
ORGANISM=MONA
NAME=Patulin [M+H]+
PI=MoNA
DATACOLLECTOR=MoNA:VF-NPL-QEHF025927
PUBMED=N/A
SUBMITUSER=mwang87
TAGS=
SPECTRUMID=CCMSLIB00004716990
SCANS=25927
50.076256 0.004271 
50.666882 0.004965 
51.415936 0.005162 
51.476501 0.02605 
51.610722 0.00841 
51.935699 0.005454 
53.002518 0.071082 
53.03891 0.156648 
53.607594 0.005084 
54.286186 0.004903 
55.018124 0.339763 
55.054512 0.14595 
55.412392 0.007449 
55.727371 0.004773 
56.049774 0.129988 
56.100201 0.004831 
56.728329 0.00755 
56.965061 0.468052 
57.033745 0.029373 
57.070148 0.028091 
58.065395 0.185818 
58.161053 0.008659 
58.986534 0.004977 
58.988247 0.453537 
59.049335 0.005753 
59.669689 0.007892 
60.481632 0.080333 
61.010857 0.788035 
61.865742 0.003637 
62.018654 0.602881 
62.053417 0.007408 
62.104191 0.005417 
62.990097 0.17593 
63.163689 0.004783 
63.818523 0.00465 
63.929264 0.006511 
63.997887 1.200524 
65.790726 0.003806 
65.800529 0.008878 
65.862221 0.005619 
66.06691 0.006387 
67.01799 0.081193 
67.054344 0.57324 
67.212181 0.003846 
67.238815 0.009067 
67.622665 0.004178 
67.993027 1.010251 
68.974091 0.004449 
68.989174 0.005069 
68.991028 0.108601 
68.9972 0.055163 
69.033569 1.233794 
69.069946 0.155627 
69.422226 0.006703 
69.484909 0.006865 
69.486679 0.281549 
69.989708 0.009229 
70.036911 0.011834 
70.065178 0.008474 
70.330803 0.004605 
71.012802 0.259859 
71.049217 1.115308 
71.051285 0.011662 
71.197166 0.003882 
71.642792 0.007477 
71.686592 0.004764 
72.044357 0.011893 
72.052559 0.02145 
73.046852 0.055558 
73.07605 0.091771 
73.133247 0.009056 
73.475166 0.004256 
73.976723 0.007242 
74.97541 0.049122 
75.000824 0.005395 
75.043907 0.093624 
76.643677 0.006846 
76.92791 0.074407 
76.995728 0.016811 
76.998192 3.493575 
77.144798 0.008522 
77.325966 0.00426 
77.497932 0.009659 
77.500145 0.112971 
77.987946 0.027686 
77.996185 0.381613 
78.013535 0.142419 
78.190414 0.004964 
78.491814 0.351145 
78.659126 0.004693 
78.994934 0.098571 
79.016983 0.042514 
79.02121 50.604103 
79.054283 0.091754 
79.503021 0.009185 
80.057388 0.018495 
80.295219 0.003222 
81.033531 0.218014 
81.069923 0.155339 
81.984131 0.003556 
82.065018 0.011143 
82.4673 0.017987 
82.971291 0.056201 
83.012733 0.283718 
83.049187 0.053258 
83.06012 0.019946 
83.085556 0.127984 
83.722862 0.005158 
84.006119 0.161343 
84.020607 0.675125 
84.045044 0.003744 
84.080894 0.005466 
84.643326 0.003878 
85.023872 0.007681 
85.028458 0.498384 
86.003555 6.582268 
86.060074 0.190517 
86.505371 0.172384 
87.001526 0.49545 
87.005669 0.009555 
87.011307 0.005251 
87.044189 0.008771 
87.443573 0.004314 
87.497093 0.079733 
88.000031 0.137966 
89.979095 0.315048 
89.992844 0.007268 
90.482811 1.954659 
90.97702 0.058342 
90.982338 0.007499 
90.984863 0.053132 
91.054306 0.004622 
91.057404 0.216312 
91.480698 0.551529 
91.910576 0.008351 
91.942131 0.005283 
91.976486 0.124379 
92.479286 0.096833 
93.011414 0.328764 
93.054283 0.159483 
93.069939 0.216245 
94.073303 0.063966 
95.008858 1.797774 
95.012718 0.571144 
95.049217 0.031051 
95.06044 0.058723 
95.085487 0.342735 
95.510735 0.011687 
96.006706 0.102034 
96.080582 0.005196 
96.70089 0.005237 
97.028458 0.730621 
97.06488 0.14188 
97.101143 0.027623 
97.511627 0.009459 
97.994598 5.2666 
98.0317 0.029732 
98.496597 0.615585 
98.984367 0.565157 
98.992508 1.606328 
98.995689 0.071557 
99.007729 0.10783 
99.044075 2.436201 
99.488228 14.524379 
99.98233 0.05049 
99.987419 0.028404 
99.990547 0.961576 
100.047379 0.060071 
100.486183 3.610953 
100.489944 0.159093 
100.981895 0.085407 
100.988319 0.036021 
101.241623 0.00836 
101.484673 0.865404 
102.01664 0.045814 
102.399986 0.005979 
102.48246 0.020497 
102.797905 0.004845 
104.012871 0.009921 
105.992218 0.007924 
106.496063 0.635035 
106.993324 0.101909 
106.999962 53.043705 
107.085472 0.083768 
107.150894 0.003997 
107.494041 0.07283 
107.501915 6.389912 
107.9897 0.619726 
107.997871 16.697594 
108.089088 0.006441 
108.486588 0.022794 
108.493423 38.595165 
108.847092 0.005559 
108.967216 0.005397 
108.98764 0.030644 
108.996185 5.683358 
109.028389 0.45537 
109.064705 0.020186 
109.101189 0.366358 
109.491425 9.616603 
109.495384 0.600776 
109.987091 0.027286 
109.993851 0.361833 
109.998436 0.011161 
110.067268 0.013783 
110.071289 1.312233 
110.096321 0.067227 
110.489883 2.319166 
110.991394 0.010365 
110.995316 0.189234 
111.007729 0.0132 
111.044022 0.139632 
111.080399 0.09744 
111.316422 0.007501 
111.487823 0.170932 
112.01548 0.396201 
112.488403 0.047189 
113.023361 0.286473 
113.059692 0.007103 
114.007835 2.160005 
114.509491 0.270425 
114.986252 0.006972 
115.005791 0.700679 
115.096291 0.008946 
115.501434 1.950838 
115.663681 0.006965 
115.998024 0.030266 
116.005272 100.0 
116.485199 0.017209 
116.498703 0.120419 
116.506897 13.938267 
117.003036 32.120926 
117.006546 1.824853 
117.498672 6.363258 
117.504234 1.440625 
117.509155 0.018434 
117.975334 0.009185 
118.001495 8.750403 
118.492188 0.013299 
118.496773 1.562426 
118.501976 0.242451 
118.502876 0.236919 
118.507805 0.3523 
118.837456 0.005926 
118.999542 0.646951 
119.00386 0.016818 
119.009415 0.006023 
119.085503 0.037972 
119.495071 0.373677 
119.50573 0.067263 
120.000587 0.514309 
120.006233 0.0037 
120.062141 0.004114 
120.849976 0.00406 
120.999748 0.007565 
122.059944 0.115204 
122.509445 0.007311 
123.007988 0.320272 
123.012978 5.089617 
123.080002 0.00502 
123.51487 0.739372 
123.938606 0.004989 
124.010986 1.616307 
124.015297 0.089681 
124.506546 0.283158 
124.511833 0.059864 
124.936134 0.007711 
124.991623 0.012095 
125.01049 6.714227 
125.023209 0.795836 
125.095993 0.025549 
125.490494 0.205421 
125.505386 0.00864 
125.512215 0.929268 
125.989258 0.004039 
126.008377 2.149812 
126.026718 0.071994 
126.50351 0.004391 
126.509758 0.053221 
127.006859 0.512008 
127.038925 5.890713 
127.513252 0.622638 
128.004898 0.0052 
128.014801 0.030899 
128.042282 0.361238 
128.070328 0.007288 
128.511078 0.171765 
128.925659 0.005221 
129.485031 0.010311 
129.489929 0.429579 
129.991547 0.045003 
130.020844 0.057611 
130.487732 0.302213 
130.981796 0.087457 
131.018738 0.008983 
131.033798 0.07247 
131.485764 0.004926 
132.018341 0.22814 
133.016022 0.007079 
133.195312 0.00933 
134.015503 0.003714 
134.294998 0.006829 
134.835342 0.006182 
134.978714 0.206886 
135.080688 0.007563 
136.263306 0.005509 
137.00174 0.705104 
137.023392 0.035984 
137.095993 0.066438 
137.107315 0.136597 
137.285294 0.003628 
137.503235 0.174277 
137.91777 0.019748 
137.999512 0.491775 
138.091141 0.004305 
138.495087 0.748944 
138.500275 0.038093 
138.997131 0.209356 
139.075546 0.006655 
139.111588 0.010792 
139.492874 0.445148 
139.994843 0.014322 
140.0103 0.226445 
140.491348 0.022301 
140.984543 0.066943 
141.018234 0.374366 
141.264175 0.005604 
142.021088 0.012737 
143.028168 0.009152 
143.033936 0.087073 
143.531525 0.005944 
146.006805 0.641298 
146.508316 0.216233 
147.004684 0.471019 
147.506729 0.007723 
148.003021 0.059791 
148.292953 0.008122 
148.55629 0.008132 
152.412399 0.00489 
152.941422 0.062859 
152.989227 0.112814 
153.018234 0.05093 
153.0569 0.443646 
153.06427 0.020748 
153.091095 0.038563 
153.102386 0.020305 
153.113541 0.004113 
153.120834 0.004352 
153.127518 0.0575 
153.138901 0.017884 
153.949158 0.004035 
153.959091 0.015093 
154.03511 0.005965 
154.049759 0.214603 
154.059662 0.0052 
154.086105 0.224218 
154.097443 0.112066 
154.122498 0.762478 
154.158875 0.065895 
154.946808 0.004251 
155.033752 5.479132 
155.053238 0.011119 
155.06987 0.011169 
155.081451 0.030572 
155.092712 0.015443 
155.10643 0.013505 
155.117828 0.552208 
155.12883 0.041892 
155.15416 0.592001 
155.928787 0.010618 
155.961517 0.00997 
156.037109 0.407896 
156.065338 0.027247 
156.076355 0.281656 
156.101837 1.430576 
156.113129 0.020248 
156.138275 0.566076 
156.157303 0.013368 
156.174652 0.091828 
157.049469 0.040368 
157.076538 0.017005 
157.083359 0.414529 
157.097244 0.00451 
157.104752 0.048423 
157.169983 0.197839 
158.021164 0.010331 
161.22168 0.00741 
164.082779 0.004439 
170.952026 0.319331 
170.960953 0.007065 
171.028625 0.118941 
171.959976 0.066221 
174.109039 0.008756 
178.991074 0.004485 
END IONS

