BEGIN IONS
PEPMASS=414.155
CHARGE=1+
COMPOUNDNAME=NOSCAPINE
LIBRARYQUALITY=3
SMILES=N/A
INCHIKEY=AKNNEGZIBPJZJG-MSOLQXFVSA-N
INCHI=InChI=1S/C22H23NO7/c1-23-8-7-11-9-14-20(29-10-28-14)21(27-4)15(11)17(23)18-12-5-6-13(25-2)19(26-3)16(12)22(24)30-18/h5-6,9,17-18H,7-8,10H2,1-4H3/t17-,18+/m1/s1
MSLEVEL=2
SOURCE_INSTRUMENT=N/A-ESI-QFT
FILENAME=library_mgf.mgf
SEQ=*..*
IONMODE=positive
ORGANISM=MONA
NAME=NOSCAPINE [M+H]+
PI=MoNA
DATACOLLECTOR=MoNA:VF-NPL-QEHF002760
PUBMED=N/A
SUBMITUSER=mwang87
TAGS=
SPECTRUMID=CCMSLIB00004693823
SCANS=2760
50.038158 0.038157 
50.589386 0.046734 
50.685287 0.048073 
51.027122 0.04636 
51.144279 0.0478 
51.371063 0.045628 
51.550304 0.047216 
51.619476 0.047948 
51.866512 0.04109 
51.899815 0.054303 
52.260979 0.048385 
52.914017 0.05183 
53.043777 0.040198 
53.161518 0.048339 
54.168396 0.039581 
55.506287 0.052165 
55.530293 0.038937 
56.714729 0.052885 
57.015526 0.047483 
57.058392 0.045255 
57.248363 0.047723 
57.764938 0.04298 
57.962742 0.044838 
58.277271 0.045979 
58.304882 0.044958 
58.645523 0.049665 
58.786678 0.043773 
59.104988 0.041052 
59.113113 0.051275 
59.279533 0.043254 
59.451569 0.053128 
59.753895 0.042248 
60.001183 0.044859 
60.083904 0.043544 
60.128452 0.044599 
60.773602 0.045412 
60.836048 0.04499 
61.015518 0.050387 
61.568066 0.049323 
62.588589 0.044555 
62.842697 0.050586 
63.510822 0.043491 
64.351524 0.044713 
64.678604 0.044773 
65.023735 0.053389 
65.538658 0.044828 
65.643898 0.056107 
65.877823 0.048402 
66.608559 0.05011 
67.281601 0.037857 
68.005974 0.042365 
68.234528 0.040065 
68.639992 0.042574 
68.658325 0.039861 
69.277809 0.044668 
69.362343 0.058788 
69.574783 0.047609 
70.778732 0.045127 
71.166756 0.047404 
71.408745 0.049857 
72.384941 0.039638 
72.75705 0.038335 
72.760506 0.049435 
73.216324 0.04318 
73.579933 0.044267 
73.922806 0.044117 
74.051498 0.042339 
74.151993 0.045403 
74.21431 0.052886 
74.309166 0.043466 
75.472397 0.041878 
78.075249 0.05708 
78.679535 0.045778 
79.624611 0.050399 
80.167084 0.045366 
80.416618 0.043918 
81.03653 0.042341 
81.618889 0.042962 
82.824135 0.042694 
83.483917 0.053288 
83.493034 0.045036 
84.644897 0.041733 
85.348335 0.045906 
86.534897 0.04397 
87.595726 0.04077 
89.012405 0.044936 
89.183029 0.047377 
89.209419 0.046659 
90.282516 0.044706 
90.577133 0.062491 
91.054657 5.405568 
91.470848 0.04492 
91.597931 0.044172 
91.778618 0.043027 
93.070229 0.384144 
93.843521 0.048843 
94.424194 0.041739 
94.866089 0.042778 
95.049538 0.568703 
95.690277 0.05216 
96.831924 0.048088 
97.546906 0.044955 
97.607651 0.051038 
97.713684 0.040558 
98.608292 0.044378 
99.101067 0.04711 
100.703087 0.046265 
100.747452 0.047012 
101.819542 0.042787 
102.439003 0.055589 
103.054604 1.041942 
103.122803 0.039613 
103.269951 0.050974 
103.395447 0.043036 
103.882576 0.047298 
105.668266 0.046814 
106.065659 0.067261 
106.264877 0.045521 
106.955345 0.048844 
107.049103 0.047543 
111.693214 0.050276 
111.943382 0.047051 
114.071175 0.046736 
114.490143 0.043289 
114.520981 0.047373 
114.581009 0.064881 
117.743309 0.046894 
118.200996 0.045621 
119.049271 0.94772 
120.080765 0.108707 
120.139603 0.055959 
121.064926 6.751445 
121.088684 0.233693 
121.557526 0.050113 
122.067787 0.058047 
123.882011 0.052861 
124.926216 0.04632 
125.373451 0.046678 
126.502625 0.06113 
127.523239 0.047684 
129.315506 0.049996 
130.041367 0.079558 
131.049149 0.822997 
132.057068 0.320686 
132.16571 0.052948 
133.064636 0.334761 
134.036255 0.341414 
135.044159 0.50393 
135.067825 0.047447 
135.841858 0.049849 
140.492035 0.050611 
145.028931 0.050631 
146.036682 0.075374 
147.043991 0.066137 
147.06778 0.908466 
148.052261 0.057115 
148.075623 1.827292 
149.023254 0.049018 
149.059647 0.921085 
149.083298 0.161522 
151.075027 0.066685 
151.507477 0.048962 
151.550446 0.048188 
153.070114 0.051475 
153.61676 0.042771 
154.188095 0.043125 
158.036285 0.106071 
159.04451 0.052328 
159.068054 0.14457 
159.093231 0.046417 
159.113373 0.048954 
160.051804 0.159741 
161.059647 0.065848 
161.414291 0.061195 
161.686111 0.062267 
161.885132 0.056865 
162.054459 0.190587 
162.091309 0.333227 
162.189987 0.043797 
163.038818 0.264564 
164.046692 0.947397 
165.05452 1.708765 
165.069809 0.97233 
166.058502 0.04912 
166.077393 0.061033 
166.581436 0.045938 
168.258621 0.050947 
173.812424 0.051301 
174.031296 0.467675 
174.054749 1.027201 
174.203934 0.054312 
175.062836 1.112947 
176.046844 0.834475 
176.07074 1.394375 
177.054688 3.053329 
177.069794 0.110326 
177.078506 0.761883 
178.077621 1.317615 
178.316238 0.052194 
179.033295 0.05364 
179.070206 3.751683 
179.084854 0.132848 
179.423141 0.048375 
181.064758 1.81431 
181.084641 0.055582 
181.970139 0.046397 
182.293472 0.048615 
185.463898 0.045196 
188.046768 2.725139 
188.070496 0.496364 
189.054489 0.493685 
189.069855 0.643888 
189.827225 0.041964 
190.077316 0.184509 
190.086105 0.250122 
190.989517 0.048225 
191.057663 6.135789 
191.069733 0.606314 
191.085052 0.316647 
192.057632 0.065477 
192.178177 0.060116 
193.049591 1.545381 
193.064758 0.289639 
194.072678 1.056247 
195.044495 0.056282 
195.080383 1.356855 
196.08667 0.058775 
197.059921 0.050832 
198.264175 0.052701 
201.071182 0.053171 
202.15004 0.051166 
203.057648 3.362905 
204.065765 5.65655 
205.073303 100.0 
206.081879 17.294296 
206.316956 0.049923 
207.08287 1.289467 
207.095398 0.051326 
208.08757 0.165136 
209.059677 3.541165 
209.096298 0.289017 
209.46785 0.045551 
210.066818 0.063894 
211.075165 0.663029 
211.824173 0.054404 
216.877548 0.053565 
217.064285 0.224054 
218.071411 1.77681 
218.081512 2.585292 
219.079865 0.923547 
219.090317 0.193062 
220.051865 2.107753 
220.096664 72.464378 
220.109131 1.080939 
220.250397 0.710005 
221.059677 4.640749 
221.100296 7.588207 
222.067032 2.202288 
223.07518 3.9581 
224.082886 2.157864 
225.054672 0.080797 
225.08934 0.163941 
231.539001 0.052929 
232.052048 1.193705 
233.046432 0.046172 
233.059555 5.293647 
234.067474 6.689324 
235.038879 0.132195 
235.075134 5.177816 
236.046829 0.536212 
236.08197 0.761139 
237.054535 8.345506 
237.09082 0.722982 
238.059647 0.85317 
239.070053 1.512203 
239.105911 0.167781 
241.158157 0.049021 
244.051346 0.129048 
244.886078 0.046932 
245.058884 0.453554 
246.067291 2.431466 
247.038574 0.466792 
247.075012 2.274055 
248.046478 1.71241 
248.08255 0.685216 
249.054413 9.465882 
249.090515 0.714756 
250.061615 4.063723 
251.069824 8.55383 
252.077545 4.867591 
253.084793 1.22826 
254.092865 0.279004 
255.064072 0.196179 
256.866272 0.053594 
260.046265 0.202161 
261.054413 4.213857 
262.062164 7.60424 
263.070068 8.071261 
264.042053 0.349928 
264.077698 5.013361 
264.67984 0.058137 
265.049347 16.66884 
265.084991 3.095444 
266.054382 2.830293 
266.092804 0.191157 
267.065155 3.50802 
267.101196 0.480709 
268.073029 0.048508 
268.302429 0.054822 
269.080688 0.540429 
273.054413 0.047721 
274.061981 1.03666 
274.289795 0.055704 
275.069733 2.450175 
276.041595 0.397623 
276.077118 0.870859 
277.049316 5.982579 
277.08548 1.574471 
278.056427 3.332189 
278.093018 0.067698 
279.038239 0.051091 
279.064819 9.42816 
280.036652 0.132921 
280.072723 20.112476 
280.098511 0.052677 
281.079315 7.003743 
282.08725 0.607764 
283.059937 0.933281 
285.075684 0.171854 
289.04953 2.855772 
290.056549 2.246386 
291.064667 4.522121 
292.036224 0.244638 
292.07193 2.279676 
293.044312 3.239479 
293.080597 3.157539 
294.050781 1.01981 
294.088257 0.121345 
295.059814 9.867056 
295.078003 0.058029 
295.096497 5.524009 
296.064148 0.94617 
296.100952 0.323531 
297.075409 0.986863 
302.057098 0.501861 
303.064728 0.280267 
303.701599 0.058427 
305.044464 1.470881 
305.080658 1.530649 
306.051819 4.909865 
306.071808 0.066265 
306.080902 0.057934 
306.085266 0.06314 
306.334717 0.04806 
307.059784 15.364127 
308.065094 3.283047 
308.089874 0.052598 
308.651642 0.050751 
309.075439 5.531324 
309.094452 0.103941 
310.082886 4.414026 
311.087189 0.07005 
312.097961 0.06174 
313.071014 0.050443 
313.606903 0.048109 
319.059784 2.87111 
320.066559 0.675917 
320.090393 0.121599 
321.075439 1.184108 
322.04837 0.062369 
322.083344 1.779031 
323.05484 3.124415 
323.091003 2.102638 
324.059021 0.106731 
324.097046 0.120535 
325.106781 0.445662 
328.574677 0.050459 
332.062775 0.049669 
333.155914 0.057187 
333.27478 0.048752 
335.054413 0.86323 
336.086731 0.124491 
337.070404 2.799547 
337.092163 0.181826 
338.076752 0.775241 
338.101105 0.374971 
339.10611 0.046894 
340.943695 0.046972 
341.550537 0.050564 
346.104492 0.055723 
350.067108 0.051999 
350.103485 0.060511 
351.073212 0.750862 
351.592834 0.056272 
352.118744 0.050973 
358.650299 0.046718 
366.097137 0.729541 
366.991913 0.050006 
381.930603 0.057404 
392.018463 0.047982 
397.176361 0.059629 
416.706787 0.064909 
426.223145 0.04907 
427.473358 0.056445 
438.858215 0.056926 
END IONS

