BEGIN IONS
PEPMASS=526.318
CHARGE=1+
COMPOUNDNAME=(2E,4E)-1-[(2R,6S,14S,22S,25R)-25-(3,3-dimethyloxiran-2-yl)-15-methyl-1,3,13,15-tetraazaheptacyclo[18.4.1.0�,?.0?,��.0?,��.0�?,��.0�?,��]pentacosa-7,9,11,16(21),17,19-hexaen-3-yl]hexa-2,4-dien-1-one
LIBRARYQUALITY=3
SMILES=N/A
INCHIKEY=XZFSMUXVAYCHFO-QREHLELFSA-N
INCHI=InChI=1S/C32H36N4O2/c1-5-6-7-15-24(37)35-18-16-31-21-12-8-9-13-22(21)33-28-32(31)17-19-36(29(31)35)26(27-30(2,3)38-27)20-11-10-14-23(25(20)32)34(28)4/h5-15,26-29,33H,16-19H2,1-4H3/b6-5+,15-7+/t26-,27?,28+,29+,31-,32-/m1/s1
MSLEVEL=2
SOURCE_INSTRUMENT=N/A-ESI-QFT
FILENAME=library_mgf.mgf
SEQ=*..*
IONMODE=positive
ORGANISM=MONA
NAME=(2E,4E)-1-[(2R,6S,14S,22S,25R)-25-(3,3-dimethyloxiran-2-yl)-15-methyl-1,3,13,15-tetraazaheptacyclo[18.4.1.0�,?.0?,��.0?,��.0�?,��.0�?,��]pentacosa-7,9,11,16(21),17,19-hexaen-3-yl]hexa-2,4-dien-1-one [M+NH4]+
PI=MoNA
DATACOLLECTOR=MoNA:VF-NPL-QEHF021754
PUBMED=N/A
SUBMITUSER=mwang87
TAGS=
SPECTRUMID=CCMSLIB00004712817
SCANS=21754
50.155754 0.021924 
50.229858 0.030472 
50.677219 0.014804 
51.058792 0.014192 
51.708599 0.030014 
52.090549 0.055659 
52.777996 0.049859 
53.326519 0.050335 
53.999043 0.014645 
54.852634 0.032409 
55.397182 0.029743 
56.114662 0.022199 
56.944237 0.021576 
57.040707 0.019469 
58.618874 0.023071 
58.839931 0.014597 
59.049393 0.417653 
60.987312 0.022321 
61.599991 0.030022 
63.345573 0.0298 
64.010452 0.03446 
64.33522 0.049729 
65.038727 1.583991 
66.15271 0.027895 
66.155617 0.038977 
67.054337 20.065697 
67.284187 0.021939 
68.048004 0.034576 
68.057648 0.665206 
68.366905 0.03747 
68.482391 0.042653 
68.787079 0.045821 
69.270943 0.044617 
69.558022 0.031172 
70.523376 0.049824 
72.080933 0.047231 
72.657051 0.029313 
72.992218 0.049378 
73.07885 0.029767 
74.781181 0.022759 
74.806419 0.014391 
75.369347 0.033315 
75.749611 0.043191 
76.36306 0.044571 
78.879623 0.038029 
79.071571 0.044371 
79.342751 0.040299 
81.069901 0.273 
82.510109 0.031387 
83.04911 1.213282 
83.355667 0.020145 
84.438293 0.031301 
85.064697 0.022163 
85.101265 0.046752 
85.671822 0.027904 
87.236313 0.032123 
87.24202 0.02229 
88.662216 0.031314 
89.053001 0.014186 
89.059784 0.352027 
89.142586 0.036612 
90.259171 0.041588 
90.402046 0.028458 
90.663246 0.028833 
91.481216 0.04549 
93.897362 0.03767 
94.123329 0.051608 
95.049133 100.0 
95.085503 0.82615 
96.052467 5.881863 
97.330002 0.038652 
99.431816 0.045088 
100.675385 0.032563 
101.169189 0.04316 
101.503822 0.039421 
103.562286 0.04704 
103.584915 0.0332 
103.713631 0.023548 
106.676476 0.032982 
107.763077 0.021586 
108.333313 0.029762 
109.064781 0.542513 
109.502922 0.030715 
109.696877 0.043179 
110.10157 0.043091 
111.043983 0.670826 
112.075699 0.223187 
112.393906 0.019337 
113.238594 0.032501 
113.582802 0.023679 
114.109909 0.033033 
115.175552 0.021319 
115.255951 0.059291 
115.285896 0.031896 
115.946678 0.024604 
119.332932 0.01623 
120.080978 0.021881 
121.038712 0.042653 
121.520042 0.019174 
124.208313 0.034233 
124.719276 0.014737 
125.083488 0.072481 
130.065063 3.186308 
130.094284 0.034706 
130.945145 0.030096 
132.148193 0.019992 
136.619629 0.033248 
138.091293 1.360127 
138.954803 0.028262 
140.172104 0.047739 
142.236664 0.024301 
144.080688 9.513665 
145.08403 0.534136 
145.225006 0.027331 
147.203049 0.019554 
152.870728 0.036265 
154.065201 0.036757 
154.299347 0.033288 
155.805801 0.016651 
156.08078 0.374567 
157.076111 0.1916 
158.096359 1.040865 
158.543518 0.040703 
159.091583 51.034454 
160.075409 0.049908 
160.087784 0.679591 
160.094955 13.365845 
161.09166 0.023041 
161.098343 1.042904 
161.105988 0.027526 
161.115585 0.045364 
161.487259 0.034733 
164.31398 0.023161 
167.151367 0.01542 
168.080826 3.832876 
169.076111 0.233945 
170.083771 0.023102 
170.096405 3.684199 
171.091614 5.366913 
172.075928 0.350192 
172.094589 0.256547 
172.112213 0.11922 
173.107422 0.193831 
175.086594 0.029864 
176.094589 0.061732 
181.088577 1.711993 
182.096344 2.024319 
182.40097 0.026671 
183.091721 18.520439 
184.075699 3.672709 
184.099548 1.284604 
184.112045 0.100445 
185.070908 0.153474 
185.08345 0.330672 
185.10733 14.149352 
185.455902 0.044799 
186.078857 1.773702 
186.091278 6.058154 
186.110962 1.525104 
187.086487 1.403793 
187.095322 0.018944 
187.123016 0.216158 
188.090637 0.062828 
195.091431 0.115484 
196.076309 0.049522 
196.099655 0.564175 
196.11203 1.048836 
197.107346 5.289444 
198.091339 9.999617 
198.115021 4.371815 
198.126511 0.494789 
198.601486 0.046502 
199.086365 3.999669 
199.09668 0.661557 
199.122711 1.978524 
200.09024 1.8348 
200.106598 3.999079 
200.125778 0.054208 
201.092819 0.067296 
201.102158 1.643441 
201.111069 0.04511 
202.105377 0.019436 
202.694199 0.053539 
202.919449 0.053473 
206.097839 0.037987 
206.964508 0.018405 
208.11235 0.072821 
210.091461 0.22207 
210.127686 1.058264 
212.106766 0.483856 
212.142838 0.101535 
213.042755 1.619434 
213.052429 1.187538 
213.102051 0.589857 
213.802002 0.023464 
214.122406 0.251733 
215.117889 64.952744 
216.121353 4.987975 
216.138504 0.050821 
217.133484 0.123739 
218.873138 0.047895 
220.112137 0.298678 
220.63858 0.049723 
222.127335 0.126188 
224.106506 0.598452 
224.790771 0.043483 
225.101913 3.073749 
226.105637 0.06188 
226.122452 1.640124 
228.138443 0.285195 
229.776733 0.015372 
232.709946 0.028079 
234.127319 0.043154 
236.107681 0.055594 
236.14299 0.480473 
236.761169 0.023776 
237.138397 2.950322 
238.122391 1.617382 
238.145065 0.327616 
238.158524 0.142731 
239.153427 0.101128 
240.138229 2.248757 
242.116989 0.053355 
243.401611 0.046734 
244.133133 0.164823 
246.150528 0.053796 
246.898849 0.028438 
248.143143 0.070808 
249.151001 0.188419 
253.133408 7.510006 
254.137253 3.110183 
255.135834 0.381854 
255.149353 12.041116 
256.152832 1.52816 
256.225433 0.048288 
257.164551 1.324735 
258.147888 0.049544 
260.020477 0.04375 
262.554657 0.054831 
262.842926 0.027951 
264.069519 0.041558 
264.13797 0.219714 
264.909119 1.569257 
265.08374 0.019091 
265.13269 0.230931 
266.153625 1.799983 
266.168518 0.050069 
267.161163 1.403697 
269.128754 0.481847 
270.133514 0.069112 
271.123383 0.091427 
271.143646 0.76663 
271.513428 0.015968 
273.159546 8.815838 
274.162689 0.45836 
275.175323 3.081094 
275.409882 0.027178 
276.024506 0.049297 
276.363464 0.054384 
276.929749 0.029757 
278.153625 0.018104 
278.924896 1.607714 
279.149017 0.533529 
282.919708 0.651449 
283.123138 0.252566 
284.12915 0.166434 
285.138275 1.171569 
286.680511 0.052564 
292.132599 0.055217 
295.123444 0.138785 
296.130432 0.507364 
296.935394 1.020627 
297.138306 1.414645 
298.146271 0.245137 
299.154297 2.036246 
300.150665 0.107615 
304.167297 0.069356 
304.186218 0.030864 
305.197601 0.046629 
306.920349 0.055102 
308.130249 0.264814 
309.13855 2.570533 
309.157928 0.015313 
309.943359 0.243585 
310.145142 0.812859 
311.154053 1.461778 
313.133911 0.290823 
313.169952 1.61071 
314.141327 0.148766 
314.164551 0.344739 
315.149078 0.788741 
316.674011 0.021343 
323.154144 6.963727 
324.156891 0.887656 
325.133911 0.339228 
325.155243 0.179336 
326.142548 0.419852 
326.164581 5.625804 
327.148712 4.626704 
327.169403 1.392089 
328.144928 0.755678 
328.178772 0.052577 
329.164612 0.645822 
330.159302 0.073748 
330.179596 0.108434 
331.792694 0.028591 
338.164429 0.135684 
339.149292 0.54134 
339.171356 0.869591 
340.143372 0.049802 
340.180725 7.616404 
341.164185 20.287558 
342.160858 5.110534 
343.166809 0.861197 
343.191437 11.92798 
343.499084 0.02098 
344.174774 0.915497 
344.195099 2.391237 
345.197693 0.038242 
348.580017 0.016761 
349.167725 0.02894 
350.897278 0.038251 
352.144409 0.08342 
353.200348 0.079643 
354.174042 0.040146 
355.192505 0.021878 
356.174927 0.380577 
357.183136 1.205391 
357.207275 2.246793 
358.152252 0.128134 
358.171295 0.101476 
358.191589 1.766206 
358.21225 0.088006 
359.187958 0.065286 
360.597382 0.046152 
363.184601 0.826006 
364.1875 0.048947 
366.171875 0.017029 
367.180389 2.61121 
368.181274 0.381074 
369.171021 0.21166 
369.195862 0.400662 
370.15448 6.01712 
371.158173 0.610697 
373.511566 0.044875 
374.13678 0.03789 
376.853973 0.037186 
379.178802 0.062556 
380.211578 0.219493 
381.19577 7.594456 
382.197784 1.653939 
384.111237 0.027766 
384.171997 0.184238 
385.190674 1.112809 
394.192169 0.047196 
396.206573 1.04264 
397.239258 0.078949 
398.222076 1.963693 
399.205383 3.156677 
400.206665 0.471283 
406.846466 0.045201 
407.21167 0.410628 
408.208984 0.107734 
408.845703 0.680992 
409.201538 6.192171 
410.205139 0.302737 
410.223663 1.085045 
416.232788 0.058792 
420.206268 0.676445 
421.210419 0.110094 
421.390991 0.045666 
422.221069 0.224483 
423.217224 1.723522 
424.219543 3.703137 
425.224976 2.283191 
426.853882 0.031045 
426.915436 0.029263 
434.222107 6.524383 
435.205414 1.604109 
436.210022 0.086826 
437.233215 43.999752 
438.236816 8.262831 
447.049683 0.050831 
448.462555 0.02815 
449.234619 0.040467 
450.215637 0.200265 
451.218994 0.22695 
451.248749 4.687995 
452.182068 0.019916 
452.233124 26.861652 
453.228699 31.40657 
454.08194 0.060646 
454.231384 9.711343 
454.266815 0.031267 
455.205322 0.324029 
455.236694 1.387011 
464.232391 0.132854 
467.24292 1.306778 
468.248901 0.084575 
469.259277 2.014594 
474.253296 0.459931 
481.259918 0.623164 
482.261353 0.051758 
487.315613 0.049982 
491.280518 2.781494 
492.262634 3.085217 
493.266663 0.408278 
501.473755 0.04572 
502.161346 0.041343 
507.274902 0.705592 
508.261322 0.206791 
509.291565 2.612797 
510.273346 3.655782 
511.277344 0.494874 
513.931885 0.041867 
524.27179 0.026798 
524.801514 0.055419 
525.286011 6.182438 
526.28894 2.062689 
527.301697 10.5921 
528.304749 2.171022 
END IONS

