BEGIN IONS
PEPMASS=1420.74
CHARGE=1+
COMPOUNDNAME=BACITRACIN
LIBRARYQUALITY=3
SMILES=N/A
INCHIKEY=CLKOFPXJLQSYAH-NVOBBBONSA-N
INCHI=InChI=1S/C66H103N17O16S/c1-9-35(6)52(69)66-81-48(32-100-66)63(97)76-43(26-34(4)5)59(93)74-42(22-23-50(85)86)58(92)83-53(36(7)10-2)64(98)75-40-20-15-16-25-71-55(89)46(29-49(68)84)78-62(96)47(30-51(87)88)79-61(95)45(28-39-31-70-33-72-39)77-60(94)44(27-38-18-13-12-14-19-38)80-65(99)54(37(8)11-3)82-57(91)41(21-17-24-67)73-56(40)90/h12-14,18-19,31,33-37,40-48,52-54H,9-11,15-17,20-30,32,67,69H2,1-8H3,(H2,68,84)(H,70,72)(H,71,89)(H,73,90)(H,74,93)(H,75,98)(H,76,97)(H,77,94)(H,78,96)(H,79,95)(H,80,99)(H,82,91)(H,83,92)(H,85,86)(H,87,88)/t35?,36?,37?,40-,41+,42+,43-,44+,45-,46-,47+,48?,52?,53-,54-/m0/s1
MSLEVEL=2
SOURCE_INSTRUMENT=N/A-ESI-QFT
FILENAME=library_mgf.mgf
SEQ=*..*
IONMODE=negative
ORGANISM=MONA
NAME=BACITRACIN [M-H]-
PI=MoNA
DATACOLLECTOR=MoNA:VF-NPL-QEHF027771
PUBMED=N/A
SUBMITUSER=mwang87
TAGS=
SPECTRUMID=CCMSLIB00004721352
SCANS=27771
98.005562 1.240394 
98.010849 9.100574 
98.023422 49.944576 
98.059868 0.190072 
98.793015 0.177908 
99.018585 7.616484 
99.026665 1.728198 
99.153961 0.162784 
100.027412 0.130943 
100.700073 0.130059 
101.070595 2.66281 
102.313118 0.125438 
105.031876 0.883294 
106.03978 3.891796 
106.060425 0.177614 
107.023697 1.939361 
107.047539 7.228507 
108.019234 0.143926 
108.031555 1.543265 
108.044151 1.465985 
108.055412 70.195488 
108.080536 0.143062 
109.015694 0.339307 
109.02681 0.223568 
109.039391 34.000858 
109.058731 3.906648 
109.075493 0.144379 
109.50351 0.133275 
110.010788 0.632332 
110.023422 7.643096 
110.034637 29.667755 
110.04274 0.822105 
110.059959 0.468488 
110.07103 1.110362 
110.58493 0.174375 
110.7994 0.191696 
111.0187 19.928968 
111.038055 0.812193 
111.054916 0.864525 
112.008347 0.146201 
112.013283 0.144001 
112.021759 0.350557 
112.026581 0.12513 
112.039062 2.107147 
112.050629 0.20361 
112.075668 1.108875 
113.034325 24.845821 
113.070763 3.970219 
114.018402 0.219245 
114.037552 0.165627 
114.091232 0.693106 
115.086464 1.030455 
116.049263 11.954341 
117.044479 0.140579 
117.052368 0.389907 
117.996933 0.186334 
118.039757 68.336861 
118.06488 19.026634 
119.02375 1.292354 
119.036362 0.186295 
119.043083 5.162122 
119.048813 0.113817 
119.068306 0.939644 
120.045151 0.284989 
120.055466 0.66013 
120.93866 0.162217 
121.039375 7.520394 
122.023392 1.233462 
122.03466 0.388545 
122.047249 2.834118 
122.059731 0.343166 
123.018402 0.368135 
123.031273 7.368849 
123.04261 0.320458 
123.055061 8.273071 
123.09166 0.219825 
124.02655 1.480855 
124.039177 11.159295 
124.050392 2.105859 
124.419991 0.136282 
125.034378 4.998517 
125.04274 0.217485 
125.07074 3.80571 
126.066055 0.506007 
126.996109 0.228037 
127.044777 0.166875 
127.049995 19.816849 
127.086342 8.931412 
127.398491 0.147463 
128.034042 12.366428 
128.045197 0.402367 
128.053482 0.237287 
128.540192 0.171266 
129.037781 0.377733 
129.102051 48.404598 
129.336456 0.203511 
130.086136 1.953795 
130.097305 12.384756 
130.105499 1.722112 
131.047775 8.785286 
131.081116 0.417781 
131.100998 0.155322 
132.37146 0.130631 
133.039429 2.068052 
134.034805 16.070885 
134.047165 0.592078 
135.001007 2.900071 
135.038193 0.34905 
135.055191 30.890913 
135.06604 0.302094 
135.072052 0.14086 
135.455292 0.160887 
136.0392 1.127426 
136.050369 29.803341 
136.058365 1.154158 
136.111832 4.787189 
136.762207 0.131547 
137.034424 0.592991 
137.047165 0.986767 
137.053665 1.074226 
137.070953 2.603391 
138.054977 1.360189 
138.078903 0.693658 
138.091064 0.176729 
139.050095 0.936648 
139.074005 0.918687 
139.086456 24.520973 
140.070511 3.101611 
140.081696 10.931199 
140.089233 0.59782 
141.06572 5.286806 
141.102386 0.185575 
142.064529 0.154141 
144.047729 5.623646 
144.113052 6.397938 
145.050461 0.374699 
145.074936 0.143694 
146.059952 17.941759 
146.071396 0.207128 
147.042694 3.545881 
148.05101 0.234174 
149.070938 17.9769 
150.054825 0.358241 
150.995926 0.664735 
151.03746 0.313899 
151.050323 0.168552 
151.074173 0.973749 
151.086548 15.311498 
152.052505 0.268129 
152.081848 10.310391 
152.088821 1.002299 
152.106995 1.638169 
153.065933 1.564285 
153.077118 8.040616 
153.102264 7.807992 
153.207993 0.18193 
154.097549 3.978877 
154.105621 0.130879 
155.081528 32.453815 
156.077011 3.417457 
156.084671 1.159839 
157.841125 0.149698 
158.060089 36.349854 
158.144913 0.134441 
158.830429 0.108524 
159.063477 3.347883 
160.075577 0.522379 
161.034485 0.185064 
161.07103 1.872494 
162.054642 0.172043 
162.078842 0.4032 
163.061661 0.516263 
163.086639 6.943971 
164.045853 0.6031 
164.070816 0.423517 
164.094559 31.58663 
165.053406 17.045738 
165.065811 0.223201 
165.077972 1.008544 
165.090271 0.373857 
165.097504 0.26049 
165.102692 2.14182 
165.983292 0.21841 
166.057007 0.540898 
166.06102 0.358916 
166.086288 2.094111 
166.097519 1.587041 
166.105072 0.225704 
166.991196 0.175975 
167.04541 0.393453 
167.081665 4.181692 
167.117828 0.538977 
168.040405 0.151585 
168.047821 3.2788 
168.100693 8.658114 
168.113052 2.085004 
169.07605 3.898608 
169.097076 1.633739 
170.092636 0.584567 
170.986008 0.147282 
171.640228 0.117906 
173.004272 0.162235 
173.071182 3.89321 
174.053772 1.04581 
175.061508 1.46952 
175.086914 0.191741 
176.081375 0.138496 
177.066055 0.14716 
177.1026 0.600421 
178.097641 10.403576 
178.110275 11.64484 
178.309113 0.132797 
178.991135 1.319428 
179.081696 6.240459 
179.118362 12.569085 
180.102127 15.953466 
180.113159 6.263287 
180.121399 0.584786 
181.097427 2.766415 
181.105713 1.288308 
183.055405 0.383883 
184.063293 2.299721 
184.10849 0.138345 
185.071243 100.0 
185.157715 0.173886 
186.055222 11.511396 
186.074646 16.419096 
186.111053 0.801664 
186.123962 1.11684 
187.058685 0.344647 
189.052856 0.139761 
189.077454 1.176224 
190.073181 0.18763 
190.098297 0.183193 
191.118225 0.666909 
193.076248 1.183826 
193.08522 2.080561 
193.121948 0.152772 
194.092789 0.833583 
194.128845 0.660611 
195.076782 1.206641 
195.091949 7.181804 
195.11319 3.866373 
196.108353 6.575917 
196.144791 5.20973 
196.446655 0.13024 
197.071243 15.422196 
197.128845 1.612714 
198.074646 0.808129 
198.160339 15.335206 
199.163162 0.293785 
199.335281 0.219669 
200.070877 0.376914 
200.17569 0.179707 
202.630203 0.218188 
203.081985 3.749086 
204.076813 0.153074 
204.839478 0.132526 
205.061401 0.269194 
205.13382 0.649156 
206.092728 3.772148 
206.129181 2.058953 
207.098419 0.192633 
208.108459 7.046779 
208.144897 47.313061 
209.148376 7.138682 
210.123779 0.147594 
210.160751 0.241499 
211.087265 3.328084 
212.094284 0.589915 
212.176346 1.05558 
215.943329 0.174446 
217.134354 0.536076 
219.101715 0.234924 
219.930435 0.190424 
219.946243 1.602558 
220.06781 0.588041 
220.087479 27.687561 
220.107819 0.237784 
220.144974 0.140603 
221.066956 0.465078 
221.090988 3.925552 
222.103668 1.04361 
222.124298 28.011578 
222.160461 4.692928 
223.107834 2.541562 
223.119125 5.157385 
223.128616 1.708565 
223.155685 2.275807 
224.103119 0.153843 
224.114624 4.224227 
224.140182 0.192143 
225.171478 21.266617 
226.155701 3.811813 
226.17511 1.177913 
231.149765 4.360178 
232.107712 0.210003 
238.098129 23.641586 
239.101883 2.952009 
239.186874 0.132083 
240.114059 0.210933 
240.135086 0.417933 
240.171097 0.713072 
241.133392 1.827426 
241.874451 0.183754 
243.182159 12.234745 
244.185577 0.128617 
248.178757 0.113931 
250.041718 0.652184 
251.049011 0.481669 
252.135468 0.1884 
255.124603 0.665713 
256.423676 0.217672 
256.691132 0.16093 
257.196747 0.318376 
258.170685 0.151368 
259.14502 0.207143 
261.135193 2.8043 
262.138458 0.159955 
263.138214 0.174137 
265.108948 4.59927 
274.156128 0.192685 
275.150818 1.058096 
276.170929 0.727554 
282.149597 0.117221 
283.871918 0.141365 
289.009369 0.197295 
289.313904 0.178771 
291.182983 0.238674 
296.036346 0.229261 
302.226227 0.197108 
308.492676 0.138344 
310.584991 0.181666 
321.428192 0.17216 
324.667053 0.171967 
331.730194 0.10805 
333.060944 0.17553 
333.514008 0.177166 
333.537628 0.130222 
337.197449 0.172657 
353.266144 0.412965 
366.011353 0.167474 
374.263367 0.232767 
397.233276 0.118755 
405.266418 0.128108 
411.263916 0.173244 
422.051056 0.165585 
430.739838 0.122105 
456.694427 0.146186 
468.123352 0.166917 
479.953583 0.187252 
503.075348 0.175543 
515.343933 0.123557 
523.357239 0.150604 
530.799866 0.209961 
546.051575 0.128621 
553.969177 0.202167 
555.680054 0.120351 
586.520569 0.168255 
602.563354 0.14477 
640.488708 0.236166 
670.928589 0.224609 
702.119629 0.185168 
708.436218 0.112039 
732.560974 0.153945 
750.12677 0.185494 
751.88385 0.180105 
765.718445 0.149461 
794.522766 0.185863 
799.805237 0.200518 
818.605164 0.234229 
882.830872 0.18298 
888.567627 0.193002 
960.345276 0.149138 
970.115112 0.17311 
987.612244 0.213775 
1046.917847 0.195635 
1074.143311 0.185679 
1121.656738 0.214449 
1132.977295 0.160819 
1148.450562 0.206918 
1156.124023 0.235977 
1196.882202 0.203561 
1220.818848 0.128132 
1261.966431 0.174026 
1300.097412 0.237282 
1315.983032 0.196503 
1365.491821 0.165796 
1381.616577 0.121237 
1419.490601 0.2227 
1459.084717 0.124061 
END IONS

