BEGIN IONS
PEPMASS=173.009
CHARGE=1+
COMPOUNDNAME=ReSpect:PT210110 trans-Aconitic acid|trans-Aconitate|trans-Propene-1,2,3-tricarboxylic acid|trans-1,2,3-Propenetricarboxylic acid|(E)-2-Carboxyglutaconic Acid|Citridic Acid|Achilleic Acid|(E)-prop-1-ene-1,2,3-tricarbo
LIBRARYQUALITY=3
SMILES=C(C(=CC(=O)O)C(=O)O)C(=O)O
INCHIKEY=GTZCVFVGUGFEME-UHFFFAOYSA-N
INCHI=1/C6H6O6/c7-4(8)1-3(6(11)12)2-5(9)10/h1H,2H2,(H,7,8)(H,9,10)(H,11,12)/b3-1+/f/h7,9,11H
MSLEVEL=2
SOURCE_INSTRUMENT=ESI-LC-Q-TOF/MS
FILENAME=respect_8_1_2014_GNPS_peaks.mgf
SEQ=*..*
IONMODE=Positive
ORGANISM=RESPECT
NAME=ReSpect:PT210110 trans-Aconitic acid|trans-Aconitate|trans-Propene-1,2,3-tricarboxylic acid|trans-1,2,3-Propenetricarboxylic acid|(E)-2-Carboxyglutaconic Acid|Citridic Acid|Achilleic Acid|(E)-prop-1-ene-1,2,3-tricarbo [M+H]
PI=Putative ReSpect Match
DATACOLLECTOR=ReSpect
PUBMED=N/A
SUBMITUSER=mwang87
TAGS=
SPECTRUMID=CCMSLIB00000222553
SCANS=7010
85.029099 999.0 
129.016495 280.0 
END IONS

