BEGIN IONS
PEPMASS=141.0
CHARGE=1+
COMPOUNDNAME=Massbank:KO003843 Phosphonoacetate|Phosphonoacetic acid
LIBRARYQUALITY=3
SMILES=OC(=O)CP(O)(O)=O
INCHIKEY=XUYJLQHKOGNDPB-UHFFFAOYSA-N
INCHI=1S/C2H5O5P/c3-2(4)1-8(5,6)7/h1H2,(H,3,4)(H2,5,6,7)
MSLEVEL=2
SOURCE_INSTRUMENT=ESI-LC-ESI-QQ
FILENAME=Massbank_ESI_positive_8_1_2014_peaks.mgf
SEQ=*..*
IONMODE=Positive
ORGANISM=MASSBANK
NAME=Massbank:KO003843 Phosphonoacetate|Phosphonoacetic acid [M+H]+
PI=Putative Massbank Match
DATACOLLECTOR=Massbank
PUBMED=N/A
SUBMITUSER=mwang87
TAGS=
SPECTRUMID=CCMSLIB00000220209
SCANS=9640
50.1 49505.0 
51.2 69307.0 
55.0 138614.0 
72.9 267327.0 
75.7 29703.0 
77.3 262376.5 
79.9 14851.5 
80.8 103960.5 
83.3 19802.0 
83.9 49505.0 
87.3 84158.5 
90.8 54455.5 
91.3 29703.0 
91.9 24752.5 
92.9 19802.0 
98.1 29703.0 
99.1 19802.0 
99.9 133663.5 
104.9 311881.5 
105.3 74257.5 
109.3 138614.0 
111.8 19802.0 
123.2 18435662.0 
124.1 5831689.0 
141.0 1376239.0 
END IONS

