BEGIN IONS
PEPMASS=243.149
CHARGE=1+
COMPOUNDNAME=Huperzine A
LIBRARYQUALITY=3
SMILES=N/A
INCHIKEY=ZRJBHWIHUMBLCN-UHFFFAOYSA-N
INCHI=InChI=1S/C15H18N2O/c1-3-11-10-6-9(2)8-15(11,16)12-4-5-14(18)17-13(12)7-10/h3-6,10H,7-8,16H2,1-2H3,(H,17,18)
MSLEVEL=2
SOURCE_INSTRUMENT=N/A-ESI-QFT
FILENAME=library_mgf.mgf
SEQ=*..*
IONMODE=positive
ORGANISM=MONA
NAME=Huperzine A [M+H]+
PI=MoNA
DATACOLLECTOR=MoNA:VF-NPL-QEHF027215
PUBMED=N/A
SUBMITUSER=mwang87
TAGS=
SPECTRUMID=CCMSLIB00004720796
SCANS=27215
50.275238 0.01253 
51.132809 0.011889 
51.64484 0.013752 
51.707954 0.015199 
51.709328 0.017116 
52.613441 0.013303 
52.756248 0.014044 
53.765068 0.013297 
54.050079 0.015236 
54.875195 0.01525 
54.892937 0.012526 
55.018131 0.018593 
55.0546 0.016614 
55.372929 0.013891 
55.607147 0.018585 
56.513477 0.014566 
57.181023 0.013418 
57.827225 0.014044 
58.228302 0.014367 
58.600616 0.033293 
58.636162 0.015807 
58.998833 0.013145 
59.701382 0.014171 
60.136341 0.015467 
60.206829 0.014053 
60.384079 0.012783 
61.141815 0.014961 
61.552341 0.013492 
61.952492 0.01519 
62.074406 0.014736 
63.258858 0.01421 
63.493732 0.012887 
64.063065 0.013938 
64.070061 0.014638 
64.274055 0.015198 
65.193626 0.017703 
67.054359 0.020847 
67.208191 0.014092 
68.505783 0.013983 
70.399765 0.013375 
70.63089 0.016116 
72.274925 0.014952 
72.438438 0.013506 
73.47905 0.016239 
73.587448 0.013634 
73.723442 0.013821 
74.47039 0.012574 
76.099014 0.014134 
76.492279 0.014911 
79.054199 0.051023 
79.269447 0.018926 
79.575317 0.012839 
80.049553 0.041506 
80.246895 0.016163 
81.069893 0.06087 
82.289017 0.014192 
82.97393 0.013794 
83.617508 0.01319 
84.362946 0.014467 
84.384415 0.014615 
85.405243 0.015005 
87.621918 0.015684 
87.889755 0.013367 
88.521294 0.014855 
90.94487 0.013968 
92.049667 0.029185 
93.069717 0.084719 
94.267296 0.014643 
95.335243 0.015854 
95.871864 0.015012 
96.04406 0.015575 
97.998306 0.015031 
98.478676 0.015217 
100.273903 0.01466 
100.598305 0.017004 
102.18512 0.012519 
105.069847 0.199083 
105.490334 0.014813 
105.684967 0.0162 
106.045258 0.016306 
106.065155 0.884522 
106.068604 0.015227 
106.651695 0.013748 
106.661598 0.014634 
108.080666 0.03679 
108.814095 0.014164 
109.493698 0.013914 
110.060051 3.132254 
110.454712 0.012663 
110.9142 0.018862 
111.063339 0.021432 
112.531166 0.014314 
113.066406 0.016774 
115.050339 0.017795 
116.466827 0.015315 
117.070274 0.044318 
119.072968 0.094347 
119.176109 0.016977 
119.885979 0.018088 
120.336296 0.014026 
122.096497 0.03126 
123.020432 0.014878 
123.245216 0.018194 
126.054924 0.267896 
126.276108 0.015584 
128.378647 0.014894 
129.069672 0.018306 
129.469604 0.012511 
129.553192 0.017199 
130.826492 0.017999 
131.085602 0.025645 
132.044418 0.085957 
132.081421 0.01777 
133.052414 0.065631 
134.059998 1.454678 
134.096405 4.423628 
135.055328 0.270582 
135.063263 0.033048 
135.099716 0.191097 
136.075623 0.030625 
136.347534 0.016548 
137.070984 0.591851 
138.600815 0.019676 
139.376465 0.016803 
140.120651 0.014476 
141.862427 0.013522 
142.077774 0.077864 
142.63298 0.015763 
143.085632 0.141209 
144.080841 0.020625 
145.351028 0.014932 
145.62207 0.017563 
145.654572 0.014027 
146.059967 0.311814 
147.206573 0.019736 
147.669434 0.016462 
150.166306 0.013934 
150.231262 0.015308 
153.069748 0.076167 
154.62645 0.014554 
155.085602 0.171061 
155.149979 0.01379 
155.358307 0.017305 
155.906845 0.014762 
156.080765 0.346827 
156.939514 0.016997 
157.101501 0.074552 
158.059998 0.861722 
158.904251 0.014738 
159.091385 0.027822 
160.07576 0.239993 
161.070908 0.529773 
161.972778 0.015642 
162.080231 0.017408 
164.383255 0.015147 
165.070038 0.285285 
166.065308 0.158216 
166.077835 0.978068 
166.126846 0.016362 
168.072723 0.015342 
168.080719 0.158234 
168.093231 0.076808 
169.088638 0.304273 
169.101273 0.05623 
170.060043 0.867973 
170.096497 1.143068 
171.104355 0.0531 
172.075714 0.493211 
172.11203 0.455225 
173.07106 0.169018 
175.086899 0.061626 
175.563461 0.015815 
178.06514 0.015693 
178.333435 0.017439 
179.085526 0.680331 
180.080765 0.615314 
181.101089 4.316135 
181.656509 0.016669 
182.060089 0.275376 
182.09613 0.044546 
182.104675 0.560966 
183.067947 0.540905 
183.104156 0.853605 
183.116913 0.104858 
184.075775 6.341793 
184.112122 0.637417 
185.070953 0.043162 
185.079315 0.538072 
186.091385 0.240198 
186.101746 0.015411 
187.086563 2.15644 
188.094208 0.376034 
191.073685 0.019278 
191.085739 0.08188 
191.198639 0.018885 
191.729248 0.014657 
191.808899 0.01635 
192.080856 0.129741 
193.088654 2.491167 
194.072052 0.061577 
194.091934 0.194992 
196.075668 5.57766 
196.111389 0.038064 
197.083694 8.599951 
197.119965 0.017846 
198.091934 4.023454 
198.127686 2.65439 
199.094727 0.4398 
199.131119 0.184949 
200.107117 0.017288 
200.143341 0.021494 
200.30484 0.017306 
201.102142 0.097634 
201.138565 0.016572 
203.825668 0.015942 
205.307159 0.015482 
206.096359 0.297273 
206.256821 0.014682 
207.103729 0.06954 
208.112091 9.50568 
208.123093 0.125727 
208.535583 0.014768 
209.084595 0.089268 
209.096115 1.9612 
209.115311 1.170771 
210.091278 11.960387 
210.115326 0.101353 
211.099243 9.295223 
211.408371 0.018385 
212.103943 1.346244 
213.102036 1.138699 
214.106445 0.03812 
216.538345 0.281133 
216.542709 0.269047 
224.107025 7.115506 
225.110443 1.032974 
225.138718 0.538133 
226.122574 50.724026 
227.116699 2.180819 
227.127899 6.106867 
227.433182 0.015006 
228.125671 3.919445 
229.129166 0.335123 
241.13327 0.055031 
243.149261 100.0 
244.152649 14.98902 
245.155182 0.039179 
260.83551 0.016001 
261.524261 0.014946 
264.143066 0.016081 
268.993988 0.015703 
END IONS

