BEGIN IONS
PEPMASS=268.105
CHARGE=1+
COMPOUNDNAME=HMDB:HMDB00050-83 Adenosine
LIBRARYQUALITY=3
SMILES=NC1=NC=NC2=C1N=CN2[C@@H]1O[C@H](CO)[C@@H](O)[C@H]1O
INCHIKEY=OIRDTQYFTABQOQ-KQYNXXCUSA-N
INCHI=InChI=1S/C10H13N5O4/c11-8-5-9(13-2-12-8)15(3-14-5)10-7(18)6(17)4(1-16)19-10/h2-4,6-7,10,16-18H,1H2,(H2,11,12,13)/t4-,6-,7-,10-/m1/s1
MSLEVEL=2
SOURCE_INSTRUMENT=Positive-Quattro_QQQ:40eV
FILENAME=hmdb_intermediate.mgf
SEQ=*..*
IONMODE=Positive
ORGANISM=HMDB
NAME=HMDB:HMDB00050-83 Adenosine M+H
PI=HMDB
DATACOLLECTOR=HMDB
PUBMED=N/A
SUBMITUSER=mwang87
TAGS=
SPECTRUMID=CCMSLIB00000426432
SCANS=1404
43.265 2.571 
55.161 4.435 
57.159 6.754 
69.095 3.201 
71.063 2.785 
73.061 2.671 
85.021 2.734 
94.015 4.738 
118.929 26.21 
135.911 100.0 
END IONS

