BEGIN IONS
PEPMASS=1032.54
CHARGE=1+
COMPOUNDNAME=Tomatine
LIBRARYQUALITY=3
SMILES=N/A
INCHIKEY=REJLGAUYTKNVJM-SGXCCWNXSA-N
INCHI=InChI=1S/C50H83NO21/c1-20-7-12-50(51-15-20)21(2)32-28(72-50)14-26-24-6-5-22-13-23(8-10-48(22,3)25(24)9-11-49(26,32)4)65-45-40(63)37(60)41(31(18-54)68-45)69-47-43(71-46-39(62)36(59)34(57)29(16-52)66-46)42(35(58)30(17-53)67-47)70-44-38(61)33(56)27(55)19-64-44/h20-47,51-63H,5-19H2,1-4H3/t20-,21-,22-,23-,24+,25-,26-,27+,28-,29+,30+,31+,32-,33-,34+,35+,36-,37+,38+,39+,40+,41-,42-,43+,44-,45+,46-,47-,48-,49-,50-/m0/s1
MSLEVEL=2
SOURCE_INSTRUMENT=N/A-ESI-QFT
FILENAME=library_mgf.mgf
SEQ=*..*
IONMODE=negative
ORGANISM=MONA
NAME=Tomatine [M-H]-
PI=MoNA
DATACOLLECTOR=MoNA:VF-NPL-QEHF026709
PUBMED=N/A
SUBMITUSER=mwang87
TAGS=
SPECTRUMID=CCMSLIB00004719727
SCANS=26709
71.95121 0.095944 
72.0159 0.739822 
72.125504 0.10037 
72.502625 0.313144 
72.94519 0.2774 
72.991776 0.899028 
73.028122 15.957804 
73.560944 0.10951 
74.146439 0.245887 
74.741608 0.2151 
74.939095 0.302294 
75.288139 0.389227 
76.084969 0.089605 
77.728767 0.141032 
77.789421 0.152948 
77.871857 0.108604 
79.083755 0.147166 
79.489563 0.113815 
79.956253 0.125929 
80.337135 0.091554 
80.371941 0.224296 
81.033188 2.10512 
81.086464 0.330755 
81.313667 0.248 
82.222511 0.162353 
82.802826 0.275874 
82.949203 0.232356 
83.012482 23.015375 
84.02021 0.488595 
85.013588 0.248 
85.028168 100.0 
85.034744 0.431869 
85.258865 0.185731 
85.999596 10.24954 
86.031502 0.567459 
86.7696 0.217516 
86.958176 0.250497 
87.007469 27.651539 
88.83477 0.174658 
89.023102 4.018952 
89.677269 0.241243 
89.801598 0.256156 
90.340111 0.275586 
91.526375 0.219279 
91.725945 0.090953 
92.28035 0.099384 
93.089462 0.224623 
94.133461 0.108441 
95.012543 29.007753 
95.051643 0.215666 
95.710258 0.289595 
96.894333 0.102312 
96.958855 1.211142 
96.986 0.24065 
97.028198 23.766546 
97.249054 0.253315 
98.617638 0.231972 
99.0075 6.718583 
99.535553 0.089916 
99.876617 0.233608 
100.010857 0.226963 
100.678902 0.248682 
101.023193 29.574064 
101.306023 0.31231 
101.723297 0.096664 
103.673889 0.351398 
106.392662 0.326635 
106.703209 0.299513 
108.17868 0.256319 
108.495903 0.215119 
109.028107 0.280323 
109.079605 0.126071 
111.007591 0.517561 
111.043465 0.154325 
112.01532 1.327535 
112.391777 0.26966 
112.421051 0.100406 
113.023209 36.603485 
113.707664 0.097433 
115.919266 0.094635 
116.44455 0.142807 
118.901985 0.32674 
119.882263 0.260508 
121.208977 0.087238 
121.517555 0.237334 
125.023239 8.345788 
126.380219 0.217637 
128.610657 0.126674 
128.778259 0.251132 
128.830872 0.112581 
131.45871 0.317415 
136.597626 0.10485 
137.023727 0.245894 
138.913376 0.269536 
140.283997 0.130418 
141.033173 0.273208 
143.40744 0.353434 
145.360458 0.24147 
147.017258 0.170459 
149.876297 0.227516 
150.641373 0.310022 
150.874466 0.152444 
151.152039 0.28003 
151.950302 0.310216 
153.90065 0.117406 
154.712387 0.345036 
156.847107 0.314308 
160.909439 0.123453 
167.362976 0.314169 
167.581253 0.089977 
167.691589 0.337166 
168.574326 0.084933 
172.87439 0.229108 
173.425995 0.29371 
178.144196 0.217755 
180.662018 0.24193 
181.383881 0.162369 
182.016922 0.358378 
199.130966 0.136392 
200.80397 0.164118 
203.313705 0.10631 
204.713058 0.267464 
205.660187 0.251918 
208.04895 0.215697 
208.36647 0.111387 
209.77713 0.101747 
211.513 0.256949 
214.084778 0.212924 
219.622055 4.811253 
219.643799 1.002397 
219.650391 0.383683 
222.360794 0.320656 
229.621964 0.247799 
230.138092 0.27638 
230.629715 0.269844 
233.162094 0.085001 
234.95192 0.09941 
235.288361 0.377752 
243.669662 0.119594 
243.933273 0.321081 
245.31575 0.340778 
246.509537 0.289912 
258.882568 0.279654 
277.736908 0.118765 
280.107788 0.294145 
293.148376 0.302582 
294.248077 0.350768 
297.27005 0.261737 
302.659576 0.291985 
303.330017 0.153824 
303.494019 0.294414 
311.111755 0.300613 
312.299835 0.30485 
316.769775 0.181645 
318.952393 0.153697 
320.597351 0.231445 
324.337128 0.264707 
331.993591 0.108324 
337.163849 0.167036 
344.086212 0.234151 
346.577515 0.099537 
356.19223 0.3341 
379.394501 0.136559 
387.234161 0.257726 
392.900146 0.220544 
406.964233 0.172886 
409.826538 0.237711 
414.254089 0.265273 
415.383759 0.120087 
417.025055 0.173772 
419.656555 0.170555 
456.349792 0.249367 
459.485504 0.372084 
489.455933 0.125486 
495.984344 0.163459 
501.357605 0.286003 
506.455353 0.11734 
542.930481 0.250381 
567.396912 0.117733 
585.936951 0.109089 
593.494324 0.345235 
597.996155 0.094941 
608.859375 0.248376 
616.1427 0.317406 
620.775452 0.38881 
625.255188 0.376563 
642.303711 0.257145 
647.754639 0.153974 
661.767517 0.307398 
684.811707 0.307155 
692.444397 0.234304 
701.579224 0.251493 
746.404114 0.173392 
786.562683 0.415251 
793.888 0.271027 
815.217224 0.115874 
889.394775 0.391542 
900.337219 0.320155 
932.580627 0.340574 
1028.948853 0.273324 
1030.958862 0.251077 
1045.217041 0.306653 
1068.90564 0.108482 
1074.897827 0.343319 
END IONS

