BEGIN IONS
TITLE=Scan Number: 346
PEPMASS=924.49298
CHARGE=1+
COMPOUNDNAME=Amphotericin B
LIBRARYQUALITY=3
SMILES=C[C@H]1/C=C/C=C/C=C/C=C/C=C/C=C/C=C/[C@@H](C[C@H]2[C@@H]([C@H](C[C@](O2)(C[C@H](C[C@H]([C@@H](CC[C@H](C[C@H](CC(=O)O[C@H]([C@@H]([C@@H]1O)C)C)O)O)O)O)O)O)O)C(=O)O)O[C@H]3[C@H]([C@H]([C@@H]([C@H](O3)C)O)N)O
INCHIKEY=APKFDSVGJQXUKY-INPOYWNPSA-N
INCHI=InChI=1S/C47H73NO17/c1-27-17-15-13-11-9-7-5-6-8-10-12-14-16-18-34(64-46-44(58)41(48)43(57)30(4)63-46)24-38-40(45(59)60)37(54)26-47(61,65-38)25-33(51)22-36(53)35(52)20-19-31(49)21-32(50)23-39(55)62-29(3)28(2)42(27)56/h5-18,27-38,40-44,46,49-54,56-58,61H,19-26,48H2,1-4H3,(H,59,60)/b6-5+,9-7+,10-8+,13-11+,14-12+,17-15+,18-16+/t27-,28-,29-,30+,31+,32+,33-,34-,35+,36+,37-,38-,40+,41-,42+,43+,44-,46-,47+/m0/s1
MSLEVEL=2
SOURCE_INSTRUMENT=LC-ESI-qTof
FILENAME=f.amcaraballor/20150430_1to5strains/A7_green_P2-A-4_01_21338.mzXML;
SEQ=*..*
NOTES=
IONMODE=Positive
ORGANISM=GNPS-LIBRARY
NAME=Amphotericin B M+H
SPECTRUMID=CCMSLIB00000478123
ACTIVATION=CID
INSTRUMENT=ion trap
SCANS=346
129.068146 328.0 
131.081772 636.0 
133.070801 320.0 
135.079346 400.0 
137.06105 432.0 
141.068939 2024.0 
142.074112 728.0 
143.084244 3232.0 
144.089493 972.0 
145.09668 4136.0 
146.097351 700.0 
147.075043 2328.0 
149.061768 3152.0 
151.074722 4556.0 
152.068848 528.0 
153.065857 904.0 
154.079407 544.0 
155.084213 4788.0 
156.0896 1244.0 
157.099899 5236.0 
158.10022 768.0 
159.092392 2272.0 
160.118393 508.0 
161.066849 1852.0 
161.133102 6940.0 
162.133469 1056.0 
163.075363 4688.0 
164.082199 540.0 
165.071182 772.0 
166.075012 520.0 
167.075974 6952.0 
168.083359 388.0 
169.099991 8888.0 
170.102585 1328.0 
171.109787 5896.0 
173.099747 3588.0 
174.110306 536.0 
175.075638 3836.0 
175.145264 1236.0 
176.043808 404.0 
177.089233 1536.0 
178.081039 488.0 
179.078491 3112.0 
180.088669 548.0 
181.098846 4740.0 
182.104965 784.0 
183.111176 5728.0 
184.120285 900.0 
185.098419 2224.0 
186.126129 592.0 
187.079742 2976.0 
187.142853 2196.0 
188.083847 440.0 
188.149139 900.0 
189.091476 4116.0 
190.100662 508.0 
191.075333 7104.0 
192.087891 656.0 
193.09433 3872.0 
194.103851 656.0 
195.112198 4704.0 
196.105011 384.0 
197.111893 872.0 
198.106293 992.0 
199.090469 1852.0 
199.111053 1544.0 
200.125504 892.0 
201.089249 1924.0 
202.156052 352.0 
203.097885 1676.0 
204.093552 360.0 
205.09201 4628.0 
206.103683 1048.0 
207.105804 4740.0 
208.115372 1204.0 
209.088348 9996.0 
210.094589 1768.0 
211.116714 2924.0 
212.137283 332.0 
213.133743 1868.0 
213.153305 2640.0 
214.099335 440.0 
214.168015 652.0 
215.105957 6192.0 
216.107529 588.0 
217.095322 4468.0 
218.099915 848.0 
219.111664 5832.0 
220.114349 1012.0 
221.11702 1692.0 
222.137405 1184.0 
223.11972 2284.0 
224.123856 744.0 
225.105042 4564.0 
226.111725 680.0 
227.102432 3268.0 
228.104538 488.0 
229.102722 2392.0 
230.116272 616.0 
231.106812 5416.0 
232.116669 800.0 
233.113571 5616.0 
234.112625 964.0 
235.112717 5840.0 
236.119751 680.0 
237.120941 2476.0 
238.108887 456.0 
238.163483 1088.0 
239.112091 5212.0 
240.17601 1116.0 
241.112778 2980.0 
242.120972 596.0 
243.106964 4120.0 
244.111298 944.0 
245.123505 2744.0 
246.128769 720.0 
247.115128 3256.0 
249.119965 5292.0 
250.135437 960.0 
251.124725 3028.0 
252.134079 776.0 
253.116592 3924.0 
254.12944 612.0 
255.116333 2196.0 
256.119415 1120.0 
257.123474 2748.0 
258.13443 556.0 
259.102844 10756.0 
260.10791 1940.0 
261.119324 7580.0 
262.121613 1944.0 
263.139557 2160.0 
264.128326 640.0 
265.123962 4856.0 
266.136597 636.0 
266.200836 932.0 
267.131653 4640.0 
268.132355 1028.0 
269.13623 4016.0 
270.144562 856.0 
271.128754 2716.0 
272.139709 528.0 
273.12915 2980.0 
274.149719 604.0 
275.141541 2900.0 
276.144165 852.0 
277.110443 21560.0 
278.118408 3500.0 
279.128174 15332.0 
280.131531 2076.0 
281.141144 2028.0 
282.138336 932.0 
283.114563 2344.0 
284.128754 712.0 
285.128998 4696.0 
286.132385 744.0 
287.141785 2660.0 
288.15036 656.0 
289.135254 2512.0 
290.156158 640.0 
291.145538 2384.0 
292.148468 716.0 
292.211487 1112.0 
293.145569 3264.0 
294.13913 428.0 
295.121368 18580.0 
296.124237 3240.0 
297.135254 30000.0 
298.140686 4228.0 
299.140259 2816.0 
300.156738 864.0 
301.112701 12872.0 
302.115906 2688.0 
303.134247 5756.0 
304.140198 1260.0 
305.150574 3340.0 
306.18512 512.0 
307.142853 2756.0 
308.156067 780.0 
309.183319 1828.0 
310.161072 400.0 
311.1427 2160.0 
312.15741 436.0 
313.133728 7236.0 
314.151764 1068.0 
315.146606 4592.0 
316.161194 740.0 
317.148621 2748.0 
318.1539 624.0 
319.12204 19204.0 
320.127319 2900.0 
321.141846 8828.0 
322.150604 820.0 
323.153717 1816.0 
324.157532 680.0 
325.162781 2096.0 
326.169678 572.0 
327.161682 2664.0 
328.160339 444.0 
329.141785 2724.0 
330.158417 496.0 
331.143646 2248.0 
332.167206 720.0 
333.171173 2624.0 
334.156738 736.0 
335.230682 5940.0 
336.234619 1068.0 
337.134064 9876.0 
338.137848 1652.0 
339.150146 8384.0 
340.157745 1516.0 
341.174255 1332.0 
342.160065 672.0 
343.172241 1632.0 
344.17688 452.0 
345.163818 2408.0 
346.16748 452.0 
347.154449 2000.0 
348.155212 456.0 
349.151062 2160.0 
350.163666 520.0 
351.178436 2056.0 
352.181061 592.0 
353.244232 6700.0 
354.243225 1716.0 
355.148224 6400.0 
356.16217 896.0 
357.16507 2352.0 
358.16983 688.0 
359.203278 1200.0 
360.213348 640.0 
361.203339 1636.0 
362.176483 700.0 
363.178284 1952.0 
364.185974 356.0 
365.138458 2816.0 
366.154449 756.0 
367.153656 3688.0 
368.174622 716.0 
369.179413 1960.0 
370.186829 884.0 
371.177582 1700.0 
372.179199 572.0 
373.175232 1348.0 
374.181488 828.0 
375.186005 1712.0 
376.232513 504.0 
377.245209 12060.0 
378.245972 3064.0 
379.182831 3448.0 
380.19751 732.0 
381.18927 1788.0 
382.192535 636.0 
383.179382 2068.0 
384.200775 596.0 
385.203369 1208.0 
386.196899 664.0 
387.223175 3932.0 
388.225464 892.0 
389.191315 1568.0 
390.18454 776.0 
391.185181 2192.0 
392.19458 516.0 
393.204437 1128.0 
394.210052 456.0 
395.246552 4596.0 
396.257324 1632.0 
397.198639 1872.0 
398.191101 792.0 
399.197266 1456.0 
400.209595 448.0 
401.205139 1660.0 
402.239868 500.0 
403.18869 2024.0 
404.194946 808.0 
405.23877 5752.0 
406.239166 1824.0 
407.194641 1748.0 
408.206055 560.0 
409.204681 1392.0 
410.200836 636.0 
411.200928 2440.0 
413.214722 1564.0 
414.23703 560.0 
415.199677 1784.0 
416.215088 340.0 
417.203308 1244.0 
418.204926 724.0 
419.247559 2672.0 
420.25354 696.0 
421.197784 3144.0 
422.197327 984.0 
423.24118 6936.0 
424.24884 2260.0 
425.217224 2220.0 
426.216064 372.0 
427.212982 1512.0 
427.72876 556.0 
428.217682 448.0 
429.203217 2456.0 
430.238251 468.0 
431.22879 1500.0 
432.234833 512.0 
433.214905 1120.0 
434.236481 1172.0 
435.21698 788.0 
436.188019 392.0 
437.214233 944.0 
438.2258 740.0 
439.214386 2376.0 
440.219025 612.0 
441.233276 2300.0 
442.249023 476.0 
443.223206 1492.0 
444.236267 832.0 
445.242828 880.0 
446.240875 936.0 
447.217224 2000.0 
448.217896 932.0 
449.234406 1704.0 
449.746979 336.0 
451.216949 1480.0 
452.231293 468.0 
453.224976 680.0 
455.222778 1272.0 
456.246185 460.0 
457.229095 1684.0 
458.265045 468.0 
459.242188 1952.0 
460.244293 928.0 
461.246277 1880.0 
462.25293 504.0 
463.274414 3320.0 
464.277191 1400.0 
465.246063 1844.0 
466.255463 484.0 
467.24585 1620.0 
468.267395 524.0 
469.244019 1316.0 
471.232544 1364.0 
473.223907 1360.0 
474.213898 608.0 
475.251862 2640.0 
476.243561 628.0 
477.249359 2020.0 
478.255554 840.0 
479.273712 1088.0 
480.274475 456.0 
481.273529 2852.0 
482.275177 1220.0 
483.245331 616.0 
484.262299 548.0 
485.253235 1200.0 
486.26004 648.0 
487.25528 1108.0 
488.247498 552.0 
489.258514 1140.0 
490.242767 388.0 
491.220001 1448.0 
492.218079 1044.0 
493.241577 2504.0 
494.245514 1492.0 
495.249237 2228.0 
496.260864 508.0 
497.280792 1280.0 
499.287292 3128.0 
500.28653 984.0 
501.281433 1052.0 
502.286591 680.0 
503.26062 1388.0 
504.273743 372.0 
505.26062 1564.0 
506.274841 568.0 
507.280273 1652.0 
508.273834 852.0 
509.22525 2148.0 
510.235779 976.0 
511.24176 2100.0 
512.253601 956.0 
513.262878 952.0 
515.282837 948.0 
516.282227 340.0 
517.290405 1996.0 
518.291321 420.0 
519.28479 976.0 
521.265564 916.0 
523.272217 1352.0 
524.275574 464.0 
525.29248 3744.0 
526.298523 1308.0 
527.248108 1156.0 
528.23877 1148.0 
529.249084 1680.0 
530.252075 728.0 
531.269958 1104.0 
532.274414 576.0 
533.267334 1400.0 
534.271973 844.0 
535.28241 940.0 
536.283142 376.0 
537.288452 948.0 
539.275818 632.0 
540.272034 544.0 
541.299866 1424.0 
542.309631 424.0 
543.303772 4264.0 
544.306824 1188.0 
545.27887 1124.0 
546.273438 448.0 
547.282898 596.0 
548.302673 428.0 
549.282715 760.0 
550.285583 700.0 
551.285889 1912.0 
552.278076 1068.0 
553.290222 1452.0 
554.293762 696.0 
555.287476 1080.0 
556.316406 504.0 
557.293884 740.0 
558.278625 380.0 
559.30188 1204.0 
560.329407 704.0 
561.314331 3160.0 
562.314636 1448.0 
563.290894 608.0 
564.300293 400.0 
565.303894 704.0 
566.312012 320.0 
567.299805 684.0 
568.301453 608.0 
569.296448 2524.0 
570.293762 872.0 
571.305237 2120.0 
572.304871 804.0 
573.316101 816.0 
575.308533 668.0 
576.301331 372.0 
577.291565 2188.0 
579.309753 1928.0 
580.312012 484.0 
581.296753 832.0 
582.302002 736.0 
583.326843 932.0 
584.317017 380.0 
585.295654 1296.0 
586.304565 392.0 
587.301147 2992.0 
588.305908 684.0 
589.312561 3136.0 
590.317017 932.0 
591.331726 1820.0 
592.331787 368.0 
593.327515 1376.0 
594.325256 556.0 
595.305359 1276.0 
596.292786 736.0 
597.287598 1964.0 
598.297607 444.0 
599.300476 2036.0 
600.299377 892.0 
601.335022 1244.0 
602.342468 524.0 
603.303467 1492.0 
604.314392 360.0 
605.311829 1700.0 
606.316895 1108.0 
607.329285 2008.0 
608.333984 1088.0 
609.33551 2200.0 
610.344238 1044.0 
611.343506 2572.0 
612.353455 904.0 
613.316589 964.0 
615.297302 2464.0 
616.304749 788.0 
617.313538 3428.0 
618.32251 1280.0 
619.339172 2324.0 
620.340576 592.0 
621.321167 1124.0 
622.305481 700.0 
623.320496 956.0 
624.321716 792.0 
625.343018 1808.0 
626.351685 1240.0 
627.354126 2972.0 
628.357483 1776.0 
629.362061 2636.0 
630.363708 820.0 
631.358093 764.0 
632.343506 332.0 
633.306458 2844.0 
634.312561 900.0 
635.334229 5312.0 
636.336304 2880.0 
637.35022 4564.0 
638.356018 1780.0 
639.335022 1004.0 
640.346802 616.0 
641.338562 548.0 
642.34137 612.0 
643.353577 1264.0 
644.36084 452.0 
645.365906 3064.0 
646.366333 1408.0 
647.379517 2796.0 
648.37561 972.0 
649.375183 532.0 
651.318359 1716.0 
652.328125 448.0 
653.345886 9408.0 
654.347656 4076.0 
655.362915 8816.0 
656.364929 4424.0 
657.36792 1192.0 
658.369934 320.0 
659.356262 600.0 
661.359192 548.0 
662.374573 436.0 
663.377441 1888.0 
664.382812 916.0 
665.388184 1892.0 
666.38678 512.0 
669.336426 776.0 
671.3573 18936.0 
672.359192 10768.0 
673.371277 19964.0 
674.375671 7280.0 
675.38501 1768.0 
676.389465 468.0 
681.384033 1312.0 
682.388306 368.0 
683.414795 2052.0 
684.410339 492.0 
687.354126 1348.0 
688.355164 748.0 
689.366882 27984.0 
690.371521 13868.0 
691.382019 20308.0 
692.385986 6680.0 
693.391052 2012.0 
701.426819 464.0 
702.423645 316.0 
705.361877 1296.0 
706.372681 828.0 
707.380554 21164.0 
708.381287 7792.0 
709.392212 14548.0 
710.39624 4408.0 
711.406372 780.0 
723.372192 1536.0 
725.390259 15620.0 
726.391479 7660.0 
727.405151 8792.0 
728.406677 2908.0 
729.411804 512.0 
741.38678 2728.0 
742.391785 772.0 
743.399536 5072.0 
744.401245 2284.0 
745.415649 2904.0 
746.423706 808.0 
759.397583 556.0 
826.470398 328.0 
870.470886 540.0 
872.47168 492.0 
888.469727 1004.0 
890.485107 1260.0 
891.483337 420.0 
892.500122 884.0 
893.508972 556.0 
906.483582 2380.0 
907.486206 1256.0 
908.496948 1920.0 
909.510132 896.0 
924.493042 2784.0 
925.506348 1796.0 
926.510376 2124.0 
927.51947 1040.0 
928.492065 388.0 
END IONS

