BEGIN IONS
PEPMASS=1898.53
CHARGE=1+
COMPOUNDNAME=Teichomycin
LIBRARYQUALITY=3
SMILES=N/A
INCHIKEY=BJNLLBUOHPVGFT-QRZIFLFXSA-N
INCHI=InChI=1S/C88H97Cl2N9O33/c1-3-4-5-6-7-8-9-10-60(108)94-68-74(113)71(110)58(32-101)129-87(68)132-78-55-26-40-27-56(78)126-52-18-14-38(24-47(52)90)77(131-86-67(92-34(2)103)73(112)70(109)57(31-100)128-86)69-84(121)98-66(85(122)123)45-29-42(105)30-54(127-88-76(115)75(114)72(111)59(33-102)130-88)61(45)44-23-37(13-15-49(44)106)63(81(118)99-69)96-83(120)65(40)97-82(119)64-39-21-41(104)28-43(22-39)124-53-25-36(12-16-50(53)107)62(91)80(117)93-48(79(116)95-64)20-35-11-17-51(125-55)46(89)19-35/h11-19,21-30,48,57-59,62-77,86-88,100-102,104-107,109-115H,3-10,20,31-33,91H2,1-2H3,(H,92,103)(H,93,117)(H,94,108)(H,95,116)(H,96,120)(H,97,119)(H,98,121)(H,99,118)(H,122,123)/t48-,57-,58-,59-,62-,63-,64+,65-,66-,67-,68-,69+,70-,71-,72-,73-,74-,75+,76+,77-,86+,87+,88+/m1/s1
MSLEVEL=2
SOURCE_INSTRUMENT=N/A-ESI-QFT
FILENAME=library_mgf.mgf
SEQ=*..*
IONMODE=positive
ORGANISM=MONA
NAME=Teichomycin [M+Na]+
PI=MoNA
DATACOLLECTOR=MoNA:VF-NPL-QEHF027953
PUBMED=N/A
SUBMITUSER=mwang87
TAGS=
SPECTRUMID=CCMSLIB00004721534
SCANS=27953
131.151413 0.036632 
133.36438 0.038752 
133.825394 0.035509 
134.060043 0.049702 
134.462051 0.037466 
136.783859 0.032448 
137.132462 0.513432 
138.054932 100.0 
139.052689 0.293564 
139.058243 8.114516 
140.059204 0.08333 
141.069824 0.755331 
141.522583 0.03966 
144.065475 93.307922 
145.016724 0.034195 
145.062744 0.162233 
145.068802 6.504431 
146.070084 0.143362 
147.091202 0.040205 
148.471481 0.039649 
149.800186 0.037892 
150.190948 0.036272 
150.979889 0.032085 
151.147827 0.046271 
153.034073 0.481052 
156.470978 0.035671 
157.064713 0.137158 
162.075974 0.173689 
165.806885 0.034852 
167.861588 0.033263 
168.020844 0.214169 
168.057938 0.063204 
168.065369 7.194423 
169.064423 3.804915 
169.643524 0.037449 
170.068268 0.19797 
171.202667 0.03652 
172.169449 1.763788 
172.50116 0.039865 
179.426651 0.033691 
184.075851 0.044381 
185.059677 0.39494 
186.075897 3.107168 
186.185059 0.383322 
187.075119 0.180797 
190.574661 0.041517 
191.146057 0.039456 
194.060516 0.036841 
195.950226 0.037275 
196.075607 0.328707 
197.059601 6.659826 
198.054001 0.088554 
198.063416 0.497191 
199.075089 0.084567 
200.164551 0.045658 
204.086685 2.963089 
205.089752 0.039222 
206.254929 0.038552 
207.043243 0.040309 
207.068588 0.042585 
208.179703 0.046262 
212.070297 2.020075 
212.870499 0.041194 
213.054306 4.244279 
214.058258 0.260315 
214.086044 2.151829 
215.058533 0.051457 
215.070038 11.746585 
215.088715 0.141605 
215.260208 0.039892 
216.073547 1.573536 
219.463165 0.036873 
222.054993 0.05777 
224.070328 1.427697 
225.054245 1.459127 
225.077576 0.174557 
226.068665 0.037697 
227.070129 1.139664 
230.068741 0.038068 
230.080383 0.153593 
230.241653 0.035725 
236.070404 0.135347 
238.049637 0.596451 
238.179855 0.520023 
239.08139 0.82392 
240.065338 15.828626 
240.087692 0.78283 
240.743927 0.046562 
241.049179 1.43393 
241.069336 2.616129 
241.096832 1.410319 
242.081024 32.183262 
242.095215 0.432677 
243.084442 5.14991 
244.087326 0.083414 
248.1642 0.839382 
250.179993 20.552025 
251.183502 3.111462 
252.064911 2.513413 
253.049347 3.054933 
253.068222 0.099367 
253.07045 0.099666 
254.053055 0.239487 
254.080597 0.457107 
255.076401 0.21446 
257.091736 9.362007 
258.076019 0.595879 
258.094971 1.136801 
259.059631 0.04765 
259.107605 0.454021 
262.046692 0.792363 
263.054016 0.046803 
264.062927 1.188391 
264.195648 7.445404 
265.070648 0.464352 
265.198914 1.783455 
266.078308 1.21775 
266.201813 0.042044 
267.07663 0.207078 
268.060333 5.834422 
269.044342 0.588366 
269.065369 0.981824 
269.091187 0.089577 
270.047638 0.04541 
270.075928 0.733428 
271.058655 0.044181 
274.047089 0.070317 
275.030914 0.262164 
279.073669 1.1472 
280.059296 0.601428 
281.089905 0.957333 
282.076141 0.237873 
283.070892 0.328113 
285.08667 3.913704 
286.07077 4.981682 
286.088348 0.597681 
287.073975 0.594351 
290.041748 0.242291 
291.074402 0.111284 
292.057617 0.111545 
293.091644 0.043804 
295.07077 0.495345 
296.055054 0.110077 
297.059967 0.270814 
297.086609 0.248827 
298.040344 0.04081 
298.20224 0.093736 
299.102264 1.563088 
301.0383 0.087661 
303.078247 0.058681 
303.097015 4.589765 
304.099579 0.438969 
304.165924 0.18203 
304.187805 0.209565 
307.068451 0.248963 
308.054016 0.511545 
308.073822 0.061116 
308.221008 0.037078 
309.085266 0.060597 
310.070587 0.050819 
314.992554 0.045758 
315.027191 0.069979 
316.012512 0.064261 
316.049225 0.043066 
320.099792 0.154003 
321.083557 0.899812 
321.10318 0.046975 
322.079193 0.219237 
323.100342 0.046771 
323.236694 0.036984 
324.097504 0.220543 
325.080292 0.142989 
326.068787 0.043117 
327.016876 0.047673 
329.076569 7.384687 
330.07959 1.138092 
336.094788 0.460358 
337.101685 0.122706 
338.11084 4.202137 
339.094543 0.806245 
339.114868 0.069761 
342.10675 0.04644 
343.091949 0.387531 
344.094788 0.045926 
347.062134 0.049376 
349.078766 1.275717 
355.060852 0.04567 
360.120178 0.063348 
364.089783 0.249588 
365.04541 0.125333 
365.073669 1.551557 
366.105682 5.510837 
367.088043 0.525138 
367.110779 0.248318 
379.100891 0.147686 
380.998993 0.038946 
382.100159 1.12642 
383.054749 0.137296 
384.013947 0.045994 
390.071136 0.041479 
396.322632 0.044942 
403.084503 0.04434 
418.56842 0.038669 
427.06369 0.036228 
429.059845 0.04247 
440.046021 0.03944 
443.053436 0.049545 
448.034821 0.036611 
452.565765 0.043353 
453.03894 0.051301 
456.037628 0.042878 
456.087219 0.047592 
462.029572 0.043235 
464.110748 0.04019 
465.036377 0.059364 
466.229156 0.039889 
476.341064 0.038167 
481.006714 0.039017 
486.296448 0.03656 
492.047485 0.041295 
493.031464 0.094002 
496.513519 0.042005 
497.018219 0.03476 
508.040985 0.046863 
509.134003 0.03673 
520.025269 0.042721 
521.025635 0.093205 
539.849854 0.039254 
543.829468 0.036826 
544.014282 0.038897 
564.502258 0.037893 
568.549255 0.036821 
576.114075 0.040102 
582.011902 0.180732 
585.08844 0.039615 
590.403198 0.052009 
593.706726 0.036667 
614.12262 0.044194 
615.128723 0.059208 
624.20282 0.04788 
633.080322 0.040311 
649.087402 0.04585 
650.060059 0.046956 
652.068481 0.046021 
653.102661 0.051081 
654.114502 0.042817 
659.828247 0.048098 
661.087341 0.039621 
662.094543 0.046706 
663.095398 0.086012 
664.084778 0.045966 
665.093506 0.220575 
669.102112 0.044115 
669.915588 0.040511 
673.17572 0.040459 
674.914978 0.037144 
676.10022 0.122213 
677.088684 0.150203 
678.115417 0.706971 
679.106384 0.401915 
680.116882 0.474221 
681.113708 0.090359 
682.118896 0.182497 
683.10907 0.099251 
688.095886 0.2111 
689.087524 0.551891 
690.095825 0.314779 
691.093689 0.258399 
692.100464 0.26461 
693.082581 0.355894 
694.105713 0.239586 
695.083008 0.089859 
695.155029 0.044889 
696.105286 0.084344 
698.115845 0.127672 
701.078674 0.088297 
702.090698 0.045412 
703.111572 0.047297 
704.096191 0.710912 
705.096558 0.361262 
706.109863 2.615662 
707.109192 1.095914 
708.109619 2.270894 
709.111572 0.745454 
710.109314 0.950984 
711.117371 0.102815 
712.107483 0.111491 
713.686646 0.104934 
713.735046 0.129956 
713.808899 0.065075 
713.877319 0.445779 
714.081482 0.050056 
716.091309 0.502573 
717.086365 0.296604 
718.095703 0.186491 
719.089172 0.200428 
720.088623 0.205458 
721.120239 0.750728 
722.112488 0.549711 
723.124817 0.781033 
724.124084 0.389418 
725.129272 0.315218 
726.141846 0.039341 
730.084045 0.060843 
730.201233 0.040264 
731.111023 0.085948 
732.09082 1.349178 
733.09845 0.537308 
734.099609 2.177513 
735.108704 0.724857 
736.102234 0.958172 
737.111694 0.338259 
738.102478 0.175568 
739.099121 0.046373 
744.085632 1.183154 
745.080627 0.375738 
746.085632 0.506957 
747.079834 0.138072 
748.091309 0.096596 
749.11377 0.854624 
750.110962 0.399578 
751.11969 0.864237 
752.115967 0.42668 
753.124084 0.228608 
757.109985 0.059282 
758.100098 0.117946 
760.084473 5.932242 
761.094971 2.252713 
762.084106 3.049343 
763.101013 1.2135 
764.092834 0.445161 
765.103149 0.118786 
767.127625 0.083466 
769.12262 0.049504 
771.098328 0.251598 
772.082764 0.689631 
773.107788 1.233121 
774.094421 0.292931 
775.103271 0.44711 
776.093811 0.06667 
777.112732 10.257455 
778.116821 3.510918 
779.112549 4.402215 
780.110229 1.49395 
781.10675 0.586526 
785.110046 0.046019 
787.079651 0.099543 
788.073303 3.751555 
789.101868 2.605065 
790.070679 1.397037 
790.138245 0.525533 
791.108704 0.905955 
792.093567 0.171124 
793.1026 0.089819 
799.088928 0.275716 
800.121704 0.053172 
801.107117 0.510508 
802.124573 0.064784 
803.092651 0.252792 
804.105591 0.099543 
805.106262 7.578622 
806.111938 2.271974 
807.106812 2.993178 
808.098022 0.914975 
809.105469 0.34793 
810.063904 0.095428 
811.099243 0.05179 
815.064758 0.142626 
816.06427 0.396602 
816.116089 0.11397 
817.099121 0.566644 
818.129883 0.457324 
819.116943 0.655923 
820.124084 0.418258 
821.124207 0.22608 
822.123535 0.163995 
823.114746 0.198457 
824.065857 0.087685 
824.130249 0.043041 
828.114929 0.05355 
831.057739 0.043904 
831.085083 0.042696 
831.107239 0.046856 
832.114929 0.505887 
833.100403 4.964564 
834.107239 2.251974 
835.09845 2.070624 
836.100952 0.60737 
837.100647 0.265081 
844.112183 0.310316 
845.100159 0.053489 
846.119873 0.179802 
847.120361 0.126884 
849.066101 0.093365 
850.128357 3.613563 
851.124268 1.101662 
852.119934 1.279865 
853.123718 0.286504 
854.12854 0.0663 
860.115906 0.058863 
861.137024 0.046053 
862.122742 0.328012 
863.130737 0.056615 
864.127808 0.16997 
865.130981 0.046204 
873.109375 0.040765 
875.048706 0.041427 
879.14209 0.149217 
904.160278 0.049418 
906.151855 0.046846 
907.155457 0.049526 
913.138 0.236777 
914.141602 0.048215 
919.162781 0.038621 
921.187256 0.087575 
928.13562 0.369155 
929.150085 0.324216 
930.14917 0.692826 
931.15564 0.345215 
932.157471 0.116182 
933.153687 0.114342 
934.163086 0.094363 
939.138611 0.048508 
940.143066 0.134326 
941.128967 0.04871 
942.142761 0.111508 
943.131104 0.054351 
945.160095 0.197898 
946.158142 0.317929 
947.16626 0.131067 
948.156128 0.122957 
949.169373 0.1067 
950.170715 0.044119 
956.136108 0.412463 
957.150391 0.511259 
958.142029 0.894185 
959.156494 0.602607 
960.148376 0.279184 
961.160461 0.044216 
962.167664 0.043353 
964.156433 0.041171 
970.134705 0.057226 
971.142761 0.055084 
972.111267 0.038684 
973.157715 0.608235 
974.160034 0.405399 
975.160522 0.947903 
976.1698 0.310687 
977.168152 0.158048 
984.131592 0.137545 
985.155151 0.133538 
986.13324 0.282512 
987.146423 0.339823 
988.166931 0.123214 
989.159912 0.071912 
990.162659 0.046616 
991.177246 0.325687 
992.187378 0.183903 
993.175781 0.136749 
994.181824 0.060876 
997.135193 0.053408 
1001.158569 0.635016 
1002.164246 0.528047 
1003.160461 0.532746 
1004.166626 0.384755 
1005.158569 0.122109 
1006.186157 0.051279 
1008.170349 0.090387 
1009.219299 0.049011 
1013.13501 0.287831 
1014.167175 0.13401 
1015.142639 0.167762 
1016.142944 0.041176 
1018.1745 0.174648 
1019.171143 0.219983 
1020.177002 0.278419 
1021.170227 0.112933 
1024.177124 0.050715 
1025.157715 0.045235 
1026.106812 0.04225 
1027.151978 0.325219 
1028.157959 0.090598 
1029.151978 0.491634 
1030.160278 0.390719 
1031.150269 0.265838 
1032.168457 0.169875 
1034.16394 0.053755 
1036.188232 0.058941 
1038.192505 0.107055 
1039.135986 0.044349 
1040.178101 0.148042 
1041.126465 0.156449 
1042.163574 0.296039 
1043.157959 0.311533 
1044.174683 0.234718 
1045.166016 0.289034 
1046.168701 0.53709 
1047.170166 0.287285 
1049.186035 0.106598 
1050.165161 0.061633 
1051.125366 0.047642 
1052.171143 0.181823 
1053.176514 0.044216 
1054.142212 0.085201 
1056.153687 0.304022 
1057.148438 2.102757 
1058.15332 1.322205 
1059.152466 1.089013 
1060.169434 0.6011 
1061.184082 0.212654 
1062.182983 0.160169 
1063.192871 0.076734 
1065.197632 0.066382 
1068.159546 0.326527 
1069.162842 0.249743 
1070.164795 0.886883 
1071.166138 0.519965 
1072.161133 0.704909 
1073.164062 0.560055 
1074.175049 2.569032 
1075.171387 1.234452 
1076.170532 1.179471 
1077.187378 0.261869 
1078.170288 0.052221 
1083.124756 0.107751 
1084.14502 0.053361 
1085.172729 0.79134 
1086.168335 1.688398 
1087.185547 1.178165 
1088.185425 1.381449 
1089.186768 0.528945 
1090.178223 0.418195 
1091.183716 0.23833 
1092.167847 0.054092 
1095.166992 0.100563 
1096.150757 0.402416 
1097.166382 0.488939 
1098.163086 0.631556 
1099.169678 0.242214 
1100.14978 0.257522 
1101.16626 0.323024 
1102.171875 0.56011 
1103.187134 1.17937 
1104.188721 0.560148 
1105.192993 0.986399 
1106.196655 0.15932 
1107.200806 0.108896 
1113.179688 1.981164 
1114.171875 3.603737 
1115.184326 2.623317 
1116.17981 1.973607 
1117.177124 1.248327 
1118.168457 0.459687 
1119.18457 0.336767 
1128.148682 0.049311 
1129.169556 0.237778 
1130.172729 1.175505 
1131.194824 4.904823 
1132.196655 2.947943 
1133.195068 2.560764 
1134.186279 1.297773 
1135.191406 0.637213 
1141.168335 0.804243 
1142.16272 0.225005 
1143.166504 0.255939 
1144.179688 0.060492 
1147.184814 1.305271 
1148.214355 2.185933 
1149.197998 0.994799 
1150.208496 0.768349 
1151.209351 0.072773 
1157.16333 0.610407 
1158.165161 2.939549 
1159.189453 8.317373 
1160.189575 4.738368 
1161.188965 3.808039 
1162.188232 1.890611 
1163.176758 0.81318 
1164.172974 0.053989 
1174.19043 0.308004 
1175.187988 3.870114 
1176.213379 9.353068 
1177.211914 5.173339 
1178.212402 5.42686 
1179.207397 2.218465 
1180.202026 1.01725 
1181.195435 0.132349 
1190.214966 0.054952 
1192.205688 1.704505 
1193.2052 0.770363 
1194.210815 0.442808 
1195.210938 0.055337 
1196.211426 0.057103 
1203.171021 0.056042 
1220.197876 0.130196 
1255.314819 0.040435 
1379.280762 0.172577 
1381.28894 0.06184 
1487.715942 0.065369 
1501.952515 0.043433 
1613.814331 0.041448 
1635.928223 0.048813 
1839.356689 0.041068 
END IONS

