BEGIN IONS
PEPMASS=266.09
CHARGE=1+
COMPOUNDNAME=Adenosine
LIBRARYQUALITY=3
SMILES=N/A
INCHIKEY=OIRDTQYFTABQOQ-KQYNXXCUSA-N
INCHI=InChI=1S/C10H13N5O4/c11-8-5-9(13-2-12-8)15(3-14-5)10-7(18)6(17)4(1-16)19-10/h2-4,6-7,10,16-18H,1H2,(H2,11,12,13)/t4-,6-,7-,10-/m1/s1
MSLEVEL=2
SOURCE_INSTRUMENT=N/A-ESI-QTOF
FILENAME=library_mgf.mgf
SEQ=*..*
IONMODE=negative
ORGANISM=MONA
NAME=Adenosine [M-H]-
PI=MoNA
DATACOLLECTOR=MoNA:VF-NPL-QTOF002038
PUBMED=N/A
SUBMITUSER=mwang87
TAGS=
SPECTRUMID=CCMSLIB00004719820
SCANS=2035
41.0107 0.297623 
65.007004 1.930441 
65.011101 0.61953 
68.017998 0.911687 
68.022003 0.724368 
68.029602 0.238875 
80.021004 0.966454 
92.020302 16.343369 
92.061996 0.590354 
92.079399 0.429942 
92.089302 0.280359 
92.102997 0.445938 
92.1119 0.283076 
92.166199 0.293582 
96.955597 0.234493 
106.017303 0.309864 
107.030899 46.21497 
107.087097 0.777623 
107.108299 0.896444 
107.123199 1.386115 
107.149597 0.319645 
107.163902 0.281229 
107.178802 0.663496 
107.190697 0.451486 
107.210197 0.546714 
107.225304 0.268513 
107.246101 0.295031 
107.314796 0.355308 
107.3573 0.239014 
107.394096 0.251808 
107.447197 0.234899 
108.025902 0.241186 
117.682297 0.241602 
133.032104 0.494395 
134.041107 100.0 
134.115906 1.464938 
134.126404 0.640118 
134.1436 3.307706 
134.166397 0.337091 
134.173904 1.392567 
134.200607 0.43813 
134.216904 0.54121 
134.228104 1.050516 
134.241898 0.487264 
134.269104 0.478985 
134.280197 0.598769 
134.298203 0.781337 
134.3237 0.365769 
134.3423 0.513125 
134.372101 0.23255 
134.390106 0.338211 
134.400101 0.399627 
134.421204 0.35037 
134.433594 0.244198 
134.472595 0.272726 
134.483597 0.352547 
134.498398 0.443693 
134.540604 0.285083 
134.550598 0.230651 
134.590103 0.257227 
134.620697 0.232503 
134.641205 0.251669 
134.6978 0.265399 
134.747696 0.244052 
134.7556 0.238714 
134.793198 0.345937 
134.867004 0.241097 
134.963394 0.358048 
135.028503 0.507401 
135.045303 0.430761 
135.087601 0.252702 
239.285095 0.299015 
343.233002 0.338207 
427.874207 0.272415 
439.085693 0.268539 
663.117493 0.281737 
682.038086 0.245914 
734.863403 0.236928 
912.16571 0.24333 
964.353394 0.284916 
987.470825 0.322252 
1050.80481 0.232337 
1078.29834 0.238171 
1242.072266 0.252647 
1246.893555 0.268096 
1313.769043 0.233782 
1373.759155 0.236112 
1385.821655 0.256762 
1441.998779 0.253587 
1475.30249 0.238545 
1634.994019 0.261312 
1650.304443 0.237111 
1659.152588 0.247616 
1696.212158 0.252792 
END IONS

