BEGIN IONS
PEPMASS=810.863
CHARGE=1+
COMPOUNDNAME=Daptomycin
LIBRARYQUALITY=1
SMILES=C1NC([C@H]([C@H](OC([C@@H](NC([C@@H](NC([C@H](NC(CNC([C@@H](NC([C@@H](NC([C@H](CC(=O)O)NC(=O)[C@H](NC1=O)CCCN)=O)C)=O)CC(=O)O)=O)=O)CO)=O)[C@H](CC(=O)O)C)=O)CC(C2=CC=CC=C2N)=O)=O)C)NC([C@@H](NC([C@H](NC([C@H](CC3=CNC4=C3C=CC=C4)NC(CCCCCCCCC)=O)=O)CC(N)=O)=O)CC(=O)O)=O)=O
INCHIKEY=DOAKLVKFURWEDJ-VAJASXOXSA-N
INCHI=N/A
MSLEVEL=2
SOURCE_INSTRUMENT=LC-ESI-qTof
FILENAME=Plate2_41_60_GG7_01_16495.mzXML
SEQ=*..*
IONMODE=Positive
ORGANISM=GNPS-SELLECKCHEM-FDA-PART2
NAME=Daptomycin [M+2H]
PI=Dorrestein
DATACOLLECTOR=Garg_Neha
PUBMED=N/A
SUBMITUSER=negarg
TAGS=
SPECTRUMID=CCMSLIB00000078118
SCANS=1223
44.94109 244.0 
45.268311 196.0 
45.328865 192.0 
45.391869 200.0 
45.402596 148.0 
45.565014 152.0 
45.708881 204.0 
45.738491 160.0 
46.049961 168.0 
46.12833 172.0 
46.140495 140.0 
46.218945 140.0 
46.424847 244.0 
46.484535 144.0 
46.797169 172.0 
46.827126 144.0 
46.851646 144.0 
47.109482 156.0 
47.495506 192.0 
47.542152 184.0 
47.684986 148.0 
48.014549 192.0 
48.072235 128.0 
48.172764 140.0 
48.450829 260.0 
49.101364 184.0 
49.375099 244.0 
49.575855 180.0 
49.695889 160.0 
49.71413 172.0 
49.829269 160.0 
50.176903 172.0 
50.214706 148.0 
50.402733 144.0 
51.225185 184.0 
52.139931 200.0 
52.197433 216.0 
52.305336 192.0 
52.456589 184.0 
52.686043 148.0 
53.246616 164.0 
53.407639 244.0 
53.668629 160.0 
53.779503 168.0 
54.058643 156.0 
54.353184 144.0 
54.56028 144.0 
55.02879 148.0 
55.268234 196.0 
55.490406 188.0 
55.882511 140.0 
56.116348 176.0 
56.228226 140.0 
56.47176 216.0 
56.50766 172.0 
56.72781 200.0 
57.037041 196.0 
57.074623 260.0 
57.181435 236.0 
57.348614 140.0 
58.075893 248.0 
58.130512 200.0 
58.483292 192.0 
58.618645 160.0 
58.83065 176.0 
58.949787 188.0 
59.058334 176.0 
59.110352 172.0 
59.147083 152.0 
59.495064 144.0 
60.152397 188.0 
60.306862 148.0 
60.401184 208.0 
60.79472 140.0 
60.898739 156.0 
61.081051 208.0 
61.097713 172.0 
61.134663 252.0 
61.404579 160.0 
61.479462 156.0 
61.545025 144.0 
61.612186 196.0 
61.639763 172.0 
61.84988 212.0 
62.109989 232.0 
62.259094 144.0 
62.318783 196.0 
62.513767 144.0 
62.609798 156.0 
62.67123 144.0 
62.731121 188.0 
63.127419 160.0 
63.258743 168.0 
63.647175 164.0 
64.02565 140.0 
64.207748 136.0 
64.489929 192.0 
64.705879 196.0 
64.752319 236.0 
64.814796 176.0 
64.954277 160.0 
65.693222 244.0 
65.929916 168.0 
66.020523 148.0 
66.303833 168.0 
66.351196 188.0 
66.563393 168.0 
66.647865 200.0 
66.672241 204.0 
66.805565 148.0 
66.984634 148.0 
67.533081 176.0 
67.760628 196.0 
67.785202 140.0 
68.52626 168.0 
68.595474 148.0 
68.663078 184.0 
68.757118 144.0 
68.909035 156.0 
68.968529 176.0 
69.142189 208.0 
69.254776 204.0 
69.651207 148.0 
69.819077 144.0 
69.877296 192.0 
70.003799 208.0 
70.232124 168.0 
70.417397 140.0 
70.95108 124.0 
71.127335 164.0 
71.744705 156.0 
72.031975 156.0 
72.138046 156.0 
72.837898 244.0 
73.505287 184.0 
73.89315 188.0 
73.947914 168.0 
74.330078 144.0 
74.856087 144.0 
75.1819 160.0 
75.252678 208.0 
75.650314 176.0 
75.712646 184.0 
75.749016 200.0 
75.852989 148.0 
76.000404 168.0 
76.306091 144.0 
76.471352 172.0 
76.563622 184.0 
77.076492 188.0 
77.140106 172.0 
77.524467 176.0 
77.664726 208.0 
77.78405 148.0 
77.841988 184.0 
78.000107 144.0 
78.179512 144.0 
78.623611 160.0 
78.736603 184.0 
79.049515 208.0 
79.063667 188.0 
79.169891 156.0 
79.364815 176.0 
79.689629 200.0 
79.972382 192.0 
80.043587 172.0 
80.30378 208.0 
80.459946 136.0 
80.625145 156.0 
80.671616 184.0 
80.777122 156.0 
80.809326 148.0 
80.89344 140.0 
81.101654 184.0 
81.189079 184.0 
81.39006 212.0 
81.594887 148.0 
81.65519 224.0 
81.785576 180.0 
81.877396 152.0 
82.490868 140.0 
82.505333 140.0 
82.565468 156.0 
82.757454 204.0 
82.963356 144.0 
83.168335 148.0 
83.719223 148.0 
84.390732 276.0 
85.250435 220.0 
85.578232 216.0 
85.732582 172.0 
85.786041 144.0 
85.799744 188.0 
86.097862 212.0 
86.125565 140.0 
86.223495 156.0 
86.473175 164.0 
86.589813 212.0 
86.784393 160.0 
86.862282 208.0 
87.114746 216.0 
87.56488 148.0 
87.585365 168.0 
87.648712 180.0 
87.987915 232.0 
88.037895 136.0 
88.234779 160.0 
88.378799 176.0 
88.483612 264.0 
88.990028 192.0 
89.267395 156.0 
89.516327 212.0 
90.269264 160.0 
90.329781 192.0 
90.371407 172.0 
91.233482 104.0 
91.394112 152.0 
91.935295 256.0 
92.604652 180.0 
93.167366 208.0 
93.39138 212.0 
93.572273 164.0 
93.830444 200.0 
94.257004 156.0 
94.597397 148.0 
94.649673 152.0 
95.084724 156.0 
95.235352 188.0 
95.291687 148.0 
95.493858 200.0 
95.566605 152.0 
95.614487 144.0 
95.659248 172.0 
96.021667 144.0 
96.392593 176.0 
96.578316 168.0 
96.627228 144.0 
96.680161 156.0 
96.774017 152.0 
97.600075 192.0 
97.946449 148.0 
98.060417 172.0 
98.451363 160.0 
98.828918 144.0 
98.99292 136.0 
99.38546 136.0 
99.556412 216.0 
99.665665 140.0 
100.063461 176.0 
100.246712 204.0 
100.27063 212.0 
100.991394 192.0 
101.009399 184.0 
101.035408 256.0 
102.170921 196.0 
102.684578 204.0 
103.134827 140.0 
103.346161 136.0 
103.509102 164.0 
103.691429 184.0 
103.987541 192.0 
104.064682 160.0 
104.338959 140.0 
104.693008 192.0 
105.03746 172.0 
105.076225 236.0 
105.300766 216.0 
105.335487 180.0 
105.723969 164.0 
105.90799 136.0 
106.068054 168.0 
106.272896 412.0 
106.291603 140.0 
106.710625 216.0 
106.951309 160.0 
107.146942 144.0 
107.177849 184.0 
107.398438 176.0 
107.468575 192.0 
107.497467 188.0 
107.555855 152.0 
107.608932 160.0 
107.705994 156.0 
107.944153 152.0 
109.242027 208.0 
109.741859 168.0 
109.931679 156.0 
110.136284 196.0 
110.47702 152.0 
111.243462 168.0 
111.557022 156.0 
111.832573 156.0 
112.087402 140.0 
112.11058 224.0 
112.188568 188.0 
112.663399 144.0 
113.022827 224.0 
113.043983 164.0 
113.067268 180.0 
113.109596 164.0 
113.68821 140.0 
114.055649 252.0 
114.344543 140.0 
114.483292 276.0 
114.81575 148.0 
114.884003 156.0 
115.053795 216.0 
115.087509 404.0 
115.360222 144.0 
115.698235 172.0 
116.049599 240.0 
116.073723 736.0 
116.662849 156.0 
116.680824 148.0 
116.713074 172.0 
116.807701 228.0 
117.046593 176.0 
117.066711 516.0 
117.23185 184.0 
117.343941 140.0 
117.533791 120.0 
117.632156 100.0 
117.721542 144.0 
118.067574 232.0 
118.09111 184.0 
118.140862 164.0 
118.537079 168.0 
118.725685 160.0 
118.827637 144.0 
118.951332 164.0 
119.146782 156.0 
119.485939 172.0 
120.028091 212.0 
120.045868 464.0 
120.067528 236.0 
120.423279 148.0 
120.633049 196.0 
120.681145 188.0 
121.052063 204.0 
121.49369 152.0 
121.939445 260.0 
122.238533 184.0 
122.275948 144.0 
122.630539 172.0 
122.81575 144.0 
123.524811 168.0 
123.79483 180.0 
123.985352 168.0 
124.06958 160.0 
124.235909 148.0 
124.453407 184.0 
125.071808 172.0 
125.249573 184.0 
125.470192 156.0 
125.610687 200.0 
125.686539 148.0 
125.876274 204.0 
126.238289 152.0 
126.331589 140.0 
126.573952 156.0 
127.050972 196.0 
127.097359 276.0 
127.383598 176.0 
127.41861 164.0 
127.54763 236.0 
127.709816 188.0 
127.851273 140.0 
128.171036 192.0 
128.267944 152.0 
128.64241 140.0 
128.730469 196.0 
128.76886 188.0 
128.863037 168.0 
129.435989 140.0 
129.848434 208.0 
129.880188 176.0 
130.066101 3656.0 
130.116196 148.0 
130.134369 148.0 
130.352417 160.0 
130.889252 160.0 
131.070267 504.0 
131.520767 204.0 
131.954803 180.0 
132.082062 1300.0 
132.220154 164.0 
132.396439 156.0 
132.417053 236.0 
132.616379 168.0 
133.062027 208.0 
133.082275 504.0 
133.153259 228.0 
133.757965 192.0 
134.066605 160.0 
134.223358 172.0 
134.622574 172.0 
135.038574 152.0 
135.107971 188.0 
135.357941 144.0 
135.418152 148.0 
136.074142 380.0 
136.102264 200.0 
136.523972 140.0 
136.87883 128.0 
137.081573 152.0 
137.101212 188.0 
137.165482 160.0 
137.527023 148.0 
137.646088 184.0 
138.179001 196.0 
139.175125 156.0 
139.212219 176.0 
139.569534 164.0 
139.600449 152.0 
140.033478 156.0 
140.068817 176.0 
140.384644 164.0 
141.003174 164.0 
141.064865 508.0 
141.192307 180.0 
141.324768 216.0 
141.395767 216.0 
141.440735 168.0 
141.66806 208.0 
142.063217 392.0 
142.197144 188.0 
143.044708 324.0 
143.085876 288.0 
143.532455 148.0 
144.013504 216.0 
144.049072 144.0 
144.071686 328.0 
145.060913 784.0 
145.083145 160.0 
145.117157 128.0 
145.267975 160.0 
145.982376 128.0 
146.061234 956.0 
146.930145 188.0 
146.959106 164.0 
147.065292 360.0 
147.205307 328.0 
147.23671 164.0 
147.458984 236.0 
147.504898 228.0 
147.627487 176.0 
147.831421 248.0 
148.054138 152.0 
148.449142 184.0 
148.567993 160.0 
149.022003 196.0 
149.260208 176.0 
149.897964 176.0 
149.995453 172.0 
150.056396 300.0 
150.072647 224.0 
150.24176 152.0 
150.290558 164.0 
150.734955 148.0 
151.241211 192.0 
151.723785 176.0 
152.442963 160.0 
152.619949 192.0 
152.733078 184.0 
152.853622 236.0 
152.952072 148.0 
152.997116 168.0 
153.674149 184.0 
153.763535 176.0 
153.977768 160.0 
155.144012 580.0 
155.92511 216.0 
156.061844 160.0 
156.666626 164.0 
156.808655 232.0 
156.975677 160.0 
157.07045 172.0 
157.100388 172.0 
157.277557 144.0 
157.842178 216.0 
158.060257 352.0 
158.091919 416.0 
158.185471 172.0 
158.653397 188.0 
158.682404 196.0 
158.869064 168.0 
158.886627 144.0 
158.941833 144.0 
158.980942 184.0 
159.004562 160.0 
159.035263 156.0 
159.092545 64916.0 
159.155075 168.0 
159.357697 132.0 
159.76506 116.0 
160.09523 6256.0 
160.125107 220.0 
160.688019 144.0 
160.782379 152.0 
161.100403 540.0 
161.226425 112.0 
161.369949 168.0 
161.451111 124.0 
161.691208 152.0 
162.098923 180.0 
162.69751 180.0 
162.895599 148.0 
163.086914 1036.0 
163.144638 248.0 
163.915833 144.0 
164.092926 216.0 
164.158005 192.0 
164.64798 204.0 
164.829361 148.0 
165.160461 180.0 
165.417603 196.0 
165.735168 176.0 
167.040482 184.0 
167.076675 160.0 
167.120468 168.0 
167.152588 156.0 
167.928024 184.0 
168.033173 200.0 
168.080231 180.0 
168.106033 156.0 
169.076385 1348.0 
170.058502 2220.0 
171.063507 420.0 
171.083969 192.0 
171.608582 252.0 
172.074677 152.0 
172.107376 780.0 
172.174103 168.0 
172.997742 168.0 
173.109039 120.0 
173.760376 156.0 
174.05629 928.0 
174.545731 176.0 
175.056931 136.0 
176.422974 148.0 
176.526093 196.0 
176.827682 152.0 
177.166611 172.0 
178.818253 164.0 
179.622925 176.0 
180.721283 160.0 
182.453552 164.0 
183.042786 140.0 
183.076523 128.0 
183.875809 160.0 
183.967575 160.0 
184.071793 692.0 
184.162003 172.0 
184.51329 164.0 
184.920242 168.0 
185.058151 456.0 
185.091599 320.0 
186.057663 180.0 
186.166153 140.0 
186.554703 156.0 
186.82019 224.0 
186.987244 180.0 
187.087051 14588.0 
187.567337 164.0 
188.07106 5152.0 
188.20932 140.0 
188.276733 180.0 
188.446091 188.0 
188.681137 140.0 
188.749496 144.0 
188.823334 160.0 
188.934357 116.0 
189.077576 576.0 
189.354294 152.0 
189.474808 96.0 
189.498215 96.0 
190.066574 140.0 
190.085175 296.0 
190.109467 140.0 
190.410202 160.0 
190.525558 140.0 
190.968124 156.0 
190.987381 140.0 
191.080948 332.0 
191.226761 148.0 
191.507599 144.0 
191.664627 160.0 
192.065735 1112.0 
192.100235 212.0 
192.174149 152.0 
193.064697 152.0 
193.227402 144.0 
193.578918 164.0 
193.626007 140.0 
193.681396 184.0 
194.101852 216.0 
194.424438 180.0 
194.50853 136.0 
194.802063 240.0 
195.033463 160.0 
196.065277 184.0 
196.243683 212.0 
197.070023 128.0 
197.190018 204.0 
198.360016 180.0 
198.727402 280.0 
199.074203 472.0 
199.60939 148.0 
200.070831 168.0 
201.091248 228.0 
201.992599 160.0 
202.084198 1260.0 
202.482269 172.0 
203.101974 388.0 
203.798523 232.0 
204.057159 208.0 
204.115509 200.0 
205.076279 172.0 
205.643875 144.0 
206.132217 212.0 
207.858932 148.0 
208.054108 180.0 
209.089966 1292.0 
209.94165 180.0 
210.093094 472.0 
210.770142 140.0 
211.067871 132.0 
211.177216 296.0 
211.901459 160.0 
212.066177 276.0 
212.094757 148.0 
212.164215 1112.0 
212.417496 196.0 
212.501617 180.0 
213.049881 288.0 
213.085342 512.0 
213.161316 312.0 
214.062698 212.0 
214.096069 156.0 
214.417938 148.0 
215.128555 160.0 
215.526855 144.0 
216.094757 192.0 
216.483398 168.0 
216.814438 180.0 
217.16626 192.0 
218.495605 164.0 
218.599487 128.0 
220.061966 144.0 
220.416412 164.0 
220.623306 200.0 
220.691315 196.0 
221.217926 140.0 
221.238647 152.0 
221.348206 160.0 
221.410385 144.0 
221.659225 196.0 
221.997162 160.0 
222.07724 156.0 
223.069 152.0 
224.065948 184.0 
224.165497 1372.0 
224.366959 176.0 
225.04422 148.0 
225.842133 168.0 
225.973755 172.0 
225.994705 176.0 
226.175827 176.0 
226.860245 196.0 
227.076126 140.0 
228.094009 236.0 
228.419815 160.0 
228.647446 196.0 
229.121826 236.0 
229.26181 140.0 
230.076309 1912.0 
230.114746 244.0 
231.000946 140.0 
231.098495 628.0 
231.648758 148.0 
231.691162 184.0 
232.081665 264.0 
232.104462 444.0 
233.091995 168.0 
233.542877 152.0 
234.919724 176.0 
235.405014 152.0 
235.890808 148.0 
236.071198 156.0 
237.048676 244.0 
237.45546 188.0 
237.544418 144.0 
238.03241 164.0 
238.079971 144.0 
238.42952 392.0 
238.794556 200.0 
239.086838 176.0 
239.109161 352.0 
239.194565 208.0 
240.097336 312.0 
240.319427 212.0 
241.078644 408.0 
241.873917 144.0 
242.077576 420.0 
242.425217 144.0 
242.59259 140.0 
242.967834 156.0 
243.073837 144.0 
243.112503 132.0 
243.622879 172.0 
243.977158 204.0 
244.038147 136.0 
244.094574 468.0 
244.269485 148.0 
245.661942 204.0 
245.777374 140.0 
246.667465 148.0 
246.836288 152.0 
247.036469 184.0 
247.109833 116.0 
248.126511 180.0 
248.223495 168.0 
248.414001 224.0 
249.658615 208.0 
250.117981 144.0 
251.672211 176.0 
252.095444 164.0 
252.294617 156.0 
252.353455 184.0 
252.80069 220.0 
253.084778 188.0 
253.215424 224.0 
253.288269 168.0 
253.614639 168.0 
253.74144 204.0 
254.078781 296.0 
254.134735 180.0 
254.32196 140.0 
254.858658 172.0 
255.145172 1464.0 
256.091888 240.0 
256.14743 176.0 
256.602844 168.0 
257.096405 236.0 
257.109833 172.0 
257.148346 152.0 
257.24411 200.0 
257.307953 188.0 
257.886139 240.0 
258.108948 172.0 
258.375397 148.0 
258.881134 156.0 
259.089111 128.0 
259.479401 212.0 
260.089722 276.0 
261.134094 236.0 
261.426849 144.0 
261.716553 148.0 
262.947998 164.0 
263.102936 232.0 
264.62677 208.0 
264.975983 188.0 
265.135803 196.0 
265.41629 172.0 
265.568726 140.0 
266.091187 168.0 
266.117157 144.0 
267.114868 180.0 
267.1474 196.0 
267.554199 152.0 
268.059052 140.0 
268.095551 100.0 
268.743805 176.0 
269.12384 476.0 
270.107086 568.0 
271.110229 276.0 
271.58667 144.0 
272.053467 140.0 
272.361298 240.0 
273.149628 232.0 
274.110626 168.0 
275.454376 152.0 
275.497314 140.0 
276.413177 232.0 
278.078766 504.0 
279.067963 448.0 
279.89859 164.0 
280.118408 144.0 
280.255005 192.0 
281.225433 160.0 
281.659515 172.0 
282.07489 168.0 
282.119019 236.0 
283.096954 164.0 
283.5466 236.0 
283.627045 172.0 
284.00592 184.0 
284.103027 672.0 
284.131714 172.0 
285.070221 152.0 
285.111328 500.0 
286.106171 148.0 
287.138428 372.0 
287.586334 164.0 
288.124573 272.0 
289.114258 156.0 
289.479248 156.0 
290.075562 148.0 
290.272217 180.0 
290.974579 140.0 
291.146667 180.0 
291.963379 172.0 
292.136841 180.0 
293.57077 140.0 
293.751556 176.0 
293.850342 100.0 
294.188354 148.0 
294.423126 164.0 
294.7724 164.0 
295.108307 608.0 
295.215546 1592.0 
295.47467 104.0 
295.640991 164.0 
295.753937 152.0 
296.094421 164.0 
296.206207 632.0 
297.204163 360.0 
298.198395 316.0 
298.825348 152.0 
298.859741 176.0 
300.37561 172.0 
300.489441 148.0 
300.572266 140.0 
301.135101 612.0 
302.097748 664.0 
302.97522 172.0 
303.09967 132.0 
303.127106 160.0 
304.105682 144.0 
304.338257 188.0 
304.769043 168.0 
304.890594 248.0 
305.37735 188.0 
306.184784 168.0 
306.944489 196.0 
307.13092 192.0 
307.251434 152.0 
307.354431 380.0 
307.74353 160.0 
307.792847 164.0 
308.187134 156.0 
310.105682 180.0 
310.147308 176.0 
310.353729 180.0 
310.744141 156.0 
310.799194 168.0 
312.126953 148.0 
312.495148 212.0 
312.572388 140.0 
312.629272 120.0 
312.775391 128.0 
312.883942 144.0 
312.92215 204.0 
313.003143 148.0 
313.068726 200.0 
313.113983 1580.0 
313.227936 61112.0 
313.345001 140.0 
313.39859 132.0 
313.73175 140.0 
313.780823 100.0 
313.821655 136.0 
313.963409 124.0 
314.041595 120.0 
314.112305 220.0 
314.153809 300.0 
314.230743 10724.0 
314.495483 104.0 
314.873169 196.0 
315.111908 140.0 
315.232758 1408.0 
316.049377 144.0 
316.128998 468.0 
316.185669 140.0 
316.241333 184.0 
316.776917 124.0 
318.145996 120.0 
319.035675 200.0 
319.110352 164.0 
319.637024 112.0 
320.993958 156.0 
321.144257 160.0 
322.582733 140.0 
322.6185 164.0 
323.101288 164.0 
323.137054 224.0 
323.213715 2468.0 
323.362518 152.0 
323.958069 112.0 
324.161133 144.0 
324.212891 720.0 
325.21524 144.0 
325.94046 116.0 
326.088318 280.0 
326.203339 144.0 
326.236176 208.0 
326.710388 192.0 
327.21283 208.0 
327.642822 200.0 
328.128387 336.0 
329.112915 168.0 
330.202087 168.0 
330.429962 148.0 
331.129913 284.0 
331.222778 148.0 
332.125854 260.0 
332.785828 188.0 
332.935425 140.0 
333.130859 156.0 
333.605499 144.0 
333.672333 192.0 
334.139618 772.0 
334.228821 180.0 
335.134216 444.0 
335.208374 236.0 
335.591095 148.0 
335.806244 180.0 
337.175568 148.0 
338.201324 752.0 
338.85495 156.0 
339.200592 300.0 
339.309418 164.0 
339.833893 160.0 
340.114014 204.0 
340.145844 276.0 
340.169952 156.0 
340.232422 140.0 
340.84198 132.0 
341.085938 112.0 
341.137634 244.0 
341.222534 35656.0 
341.338654 168.0 
341.440186 116.0 
341.476166 292.0 
341.59494 96.0 
341.739227 128.0 
341.919647 160.0 
342.092804 188.0 
342.141266 156.0 
342.225922 8544.0 
342.80838 104.0 
343.123383 156.0 
343.162689 168.0 
343.227814 1496.0 
343.332855 164.0 
343.361664 256.0 
344.107605 108.0 
344.140472 152.0 
344.227448 224.0 
344.3414 96.0 
344.438507 148.0 
344.897614 204.0 
345.343475 96.0 
345.837097 140.0 
346.117218 176.0 
348.640991 148.0 
348.707886 172.0 
349.141052 204.0 
352.152405 668.0 
352.195374 148.0 
352.950287 148.0 
353.107513 296.0 
353.150452 444.0 
353.692413 176.0 
354.109283 296.0 
354.143921 172.0 
354.226501 176.0 
354.443817 152.0 
356.505371 180.0 
357.100342 120.0 
357.144287 128.0 
357.493011 140.0 
358.137451 136.0 
358.169586 324.0 
359.119751 944.0 
359.346893 152.0 
360.114563 100.0 
360.163788 216.0 
361.09967 160.0 
361.135925 204.0 
362.985626 180.0 
367.79837 152.0 
368.139313 228.0 
369.10495 164.0 
369.147034 200.0 
369.189087 172.0 
370.135376 656.0 
370.169159 888.0 
370.256836 140.0 
371.118103 296.0 
371.169098 144.0 
372.116608 152.0 
372.154999 152.0 
372.181885 152.0 
375.101959 124.0 
375.985199 180.0 
376.142334 220.0 
376.641785 212.0 
377.654266 200.0 
377.7742 148.0 
380.160675 556.0 
381.13739 168.0 
381.166687 308.0 
382.102448 324.0 
383.11026 140.0 
383.369232 216.0 
383.419891 140.0 
384.163239 112.0 
385.134705 584.0 
386.141785 348.0 
387.16037 360.0 
388.144287 236.0 
388.183044 228.0 
389.13327 272.0 
389.160675 152.0 
390.748322 96.0 
391.163208 100.0 
391.710876 180.0 
392.479401 184.0 
393.131592 176.0 
394.153015 188.0 
395.152771 160.0 
396.257996 176.0 
397.134064 144.0 
398.160339 456.0 
398.193787 152.0 
399.143707 380.0 
400.144012 372.0 
401.131989 204.0 
402.165314 112.0 
403.149353 284.0 
404.157318 220.0 
404.665863 220.0 
405.162018 232.0 
406.146606 276.0 
406.195679 176.0 
406.658203 204.0 
408.139038 176.0 
409.158539 196.0 
409.190735 172.0 
410.177734 168.0 
410.233704 308.0 
410.774536 144.0 
411.125549 200.0 
411.182312 124.0 
411.260254 180.0 
412.167389 148.0 
413.171143 312.0 
415.17981 184.0 
416.165253 284.0 
417.136047 172.0 
417.786896 164.0 
418.018799 164.0 
418.157257 148.0 
418.880219 208.0 
420.153839 156.0 
421.165527 152.0 
421.460358 184.0 
421.75769 192.0 
422.169952 124.0 
422.691162 204.0 
422.752533 180.0 
423.121521 112.0 
423.159973 364.0 
424.186066 144.0 
424.756042 160.0 
425.131073 148.0 
425.168701 160.0 
427.154846 272.0 
427.20871 312.0 
428.14624 652.0 
428.455841 148.0 
429.127808 160.0 
429.20636 200.0 
429.667938 256.0 
430.150757 144.0 
430.691681 156.0 
431.1875 320.0 
431.698334 128.0 
432.155029 128.0 
434.676514 192.0 
436.11969 160.0 
437.266754 168.0 
438.155792 236.0 
438.239441 164.0 
438.268463 168.0 
438.562958 188.0 
439.10498 148.0 
439.169769 116.0 
439.555542 160.0 
439.668213 168.0 
439.701599 140.0 
440.185974 176.0 
440.227631 172.0 
442.150024 204.0 
443.168793 160.0 
444.019226 164.0 
445.217285 836.0 
446.147247 520.0 
446.212402 284.0 
447.1521 248.0 
447.680389 192.0 
448.168243 176.0 
448.223083 252.0 
448.678314 260.0 
449.17157 416.0 
450.160645 264.0 
451.14801 152.0 
452.188568 164.0 
452.315552 144.0 
452.696594 188.0 
453.10321 152.0 
453.141357 148.0 
453.196411 160.0 
454.730347 128.0 
455.184052 136.0 
455.264893 3504.0 
455.907959 140.0 
456.16626 272.0 
456.266968 1012.0 
456.684662 388.0 
457.271332 336.0 
457.675995 248.0 
458.143158 100.0 
458.177155 152.0 
458.273895 192.0 
460.192566 132.0 
461.161499 164.0 
461.675995 168.0 
461.73587 200.0 
463.111298 220.0 
463.171478 148.0 
463.225281 296.0 
463.94104 156.0 
464.134003 208.0 
464.203156 164.0 
465.1362 120.0 
465.189423 368.0 
465.29245 180.0 
465.681366 236.0 
466.202728 940.0 
466.260193 164.0 
466.658691 180.0 
466.908112 148.0 
467.186523 256.0 
468.151855 184.0 
468.19751 444.0 
468.255188 152.0 
470.176636 268.0 
471.19281 204.0 
472.187012 156.0 
472.231598 156.0 
472.347046 248.0 
472.675842 160.0 
473.194122 788.0 
473.641296 156.0 
474.191071 332.0 
474.678009 200.0 
475.167267 164.0 
475.648956 164.0 
475.692383 156.0 
476.187561 172.0 
476.219757 212.0 
477.186829 260.0 
478.190186 316.0 
478.688019 164.0 
479.176147 116.0 
480.156647 140.0 
480.191528 292.0 
480.222046 244.0 
480.300568 172.0 
481.169678 232.0 
482.1521 156.0 
482.19989 184.0 
483.15564 272.0 
483.221436 224.0 
484.161194 148.0 
484.216217 1088.0 
484.676788 172.0 
485.163361 260.0 
485.209198 248.0 
485.341583 168.0 
485.698303 220.0 
486.163177 300.0 
486.197327 324.0 
487.137421 132.0 
487.212769 272.0 
488.21759 180.0 
488.698303 176.0 
489.192291 160.0 
489.233032 104.0 
489.63205 184.0 
489.672333 164.0 
490.588196 160.0 
491.527649 168.0 
491.717407 160.0 
491.748291 140.0 
492.174164 200.0 
492.216248 260.0 
493.202057 404.0 
494.162537 160.0 
494.17392 156.0 
494.207153 148.0 
494.710327 200.0 
495.182251 252.0 
496.199646 192.0 
496.792694 152.0 
497.184418 112.0 
497.216034 104.0 
497.695892 192.0 
498.233093 144.0 
498.355469 172.0 
498.693207 212.0 
499.160004 168.0 
499.208923 604.0 
500.112061 156.0 
500.157501 156.0 
500.198059 308.0 
500.653534 188.0 
501.154144 244.0 
501.225433 148.0 
501.779877 164.0 
502.018921 144.0 
502.224884 776.0 
503.221497 332.0 
504.172211 320.0 
504.254089 180.0 
504.304749 156.0 
504.693329 204.0 
505.1633 160.0 
505.700043 192.0 
506.192688 156.0 
506.690918 188.0 
506.748108 160.0 
507.155914 160.0 
507.189148 176.0 
507.393524 212.0 
507.702911 164.0 
508.189636 356.0 
508.692535 236.0 
508.723938 164.0 
509.172119 140.0 
510.185059 120.0 
510.224518 204.0 
510.680573 204.0 
511.181732 244.0 
512.233215 124.0 
513.184387 256.0 
513.247803 148.0 
513.708801 132.0 
514.100098 200.0 
514.229248 304.0 
515.213989 172.0 
516.195007 156.0 
516.698486 224.0 
517.210754 480.0 
517.692383 320.0 
518.166626 108.0 
518.214966 192.0 
518.280762 100.0 
518.690796 276.0 
519.202332 308.0 
519.69751 124.0 
520.207458 164.0 
521.194214 372.0 
521.695923 188.0 
522.1875 156.0 
522.69635 192.0 
523.165771 316.0 
523.31311 132.0 
523.69812 196.0 
524.165039 188.0 
524.213867 196.0 
524.24939 244.0 
524.291077 188.0 
524.335999 148.0 
524.500061 164.0 
525.184509 148.0 
525.658508 144.0 
525.708984 112.0 
526.185059 160.0 
526.224487 216.0 
526.714417 188.0 
527.191711 232.0 
527.710083 184.0 
528.187927 208.0 
528.250366 188.0 
528.285645 184.0 
528.697449 184.0 
528.834717 148.0 
529.254333 208.0 
529.732239 232.0 
530.030029 144.0 
530.197266 232.0 
530.699219 148.0 
531.213745 480.0 
532.189514 308.0 
533.244934 124.0 
534.189636 152.0 
534.676758 156.0 
534.769409 140.0 
535.165894 148.0 
535.209351 156.0 
535.713379 148.0 
536.180542 308.0 
536.266296 156.0 
536.604248 116.0 
537.004028 180.0 
537.702087 168.0 
538.213623 292.0 
539.150391 156.0 
539.2146 192.0 
539.386597 216.0 
539.722717 208.0 
540.206787 280.0 
540.708069 268.0 
540.922302 140.0 
541.196045 236.0 
541.689026 424.0 
542.214539 236.0 
542.296387 112.0 
542.705444 172.0 
543.207153 528.0 
544.170593 500.0 
544.209961 240.0 
545.105774 196.0 
545.221924 168.0 
545.719116 272.0 
546.219788 348.0 
546.497131 124.0 
546.579834 144.0 
546.717346 152.0 
547.190491 180.0 
547.254761 172.0 
547.301331 144.0 
547.678528 232.0 
547.733765 140.0 
548.218323 188.0 
548.703552 172.0 
549.20166 144.0 
550.214417 148.0 
550.453491 292.0 
550.950134 128.0 
551.204346 336.0 
551.708191 148.0 
552.207092 376.0 
552.248108 384.0 
552.561523 164.0 
552.718811 376.0 
553.18457 304.0 
553.251648 524.0 
553.380554 148.0 
553.694275 216.0 
554.246338 100.0 
555.161194 180.0 
555.200806 160.0 
555.239807 144.0 
555.686523 144.0 
555.72876 180.0 
556.233948 900.0 
556.7146 204.0 
557.157776 220.0 
557.228455 296.0 
558.177612 152.0 
558.237549 192.0 
558.641602 148.0 
558.721558 188.0 
558.763916 224.0 
559.210938 216.0 
559.727783 172.0 
560.218201 384.0 
560.715698 228.0 
561.199402 460.0 
561.233093 744.0 
561.698792 196.0 
562.147034 164.0 
562.196411 392.0 
563.218018 256.0 
563.691162 160.0 
563.735107 124.0 
564.196594 208.0 
564.707642 164.0 
564.896851 212.0 
565.182922 272.0 
565.242188 188.0 
565.7052 328.0 
565.761047 160.0 
566.235535 208.0 
566.307373 352.0 
566.703247 332.0 
566.962646 120.0 
567.218567 176.0 
567.677063 156.0 
567.733948 188.0 
568.182861 124.0 
568.697083 176.0 
568.741882 164.0 
568.801514 192.0 
569.202148 248.0 
569.240784 144.0 
569.670471 156.0 
570.164673 144.0 
570.224243 184.0 
570.289612 2780.0 
570.67804 140.0 
571.201782 1072.0 
571.301208 1144.0 
572.197998 392.0 
572.28656 292.0 
572.713684 184.0 
573.216492 248.0 
573.734619 144.0 
574.230591 292.0 
574.73114 292.0 
575.21991 296.0 
575.710754 148.0 
576.063477 180.0 
576.224792 140.0 
576.689392 140.0 
577.196289 140.0 
577.684021 188.0 
578.253418 760.0 
578.693787 176.0 
578.776978 152.0 
579.255493 360.0 
579.733276 140.0 
580.077209 152.0 
580.266602 184.0 
580.745605 212.0 
580.881287 156.0 
581.230164 328.0 
581.718079 216.0 
581.73291 176.0 
582.182068 236.0 
582.221008 176.0 
582.70343 168.0 
583.207825 164.0 
583.256775 164.0 
583.732361 392.0 
584.230164 328.0 
584.71344 172.0 
585.084106 196.0 
585.220337 164.0 
585.686035 200.0 
585.72937 256.0 
585.79187 128.0 
586.167847 140.0 
586.220703 204.0 
586.721375 216.0 
586.750366 472.0 
587.231079 368.0 
587.281494 156.0 
587.718811 160.0 
588.23761 592.0 
588.338257 184.0 
588.709778 240.0 
588.720093 308.0 
588.805176 236.0 
589.211853 1196.0 
590.220032 576.0 
590.846497 148.0 
591.208496 140.0 
591.340088 224.0 
591.743591 212.0 
592.206726 260.0 
592.247498 144.0 
592.286621 108.0 
592.718018 228.0 
592.812317 144.0 
593.209595 636.0 
593.716125 384.0 
593.781921 164.0 
594.213928 552.0 
594.72168 152.0 
594.754883 224.0 
595.179932 300.0 
595.739807 220.0 
596.233215 380.0 
596.301697 148.0 
596.716309 192.0 
596.773254 148.0 
597.186584 164.0 
597.256409 300.0 
598.19873 176.0 
599.237732 500.0 
600.242065 412.0 
600.742371 156.0 
600.79126 184.0 
601.165039 148.0 
601.203857 108.0 
601.247314 96.0 
602.222107 280.0 
602.2948 144.0 
602.725342 508.0 
602.77356 176.0 
602.895752 176.0 
603.081482 144.0 
603.217224 156.0 
603.706482 184.0 
603.737 140.0 
604.179749 164.0 
604.751587 184.0 
605.219543 176.0 
605.728271 108.0 
605.958923 148.0 
606.213684 316.0 
606.286621 172.0 
606.718018 176.0 
607.225891 288.0 
607.73999 184.0 
608.209839 156.0 
608.259033 188.0 
608.755005 168.0 
609.241882 144.0 
609.303833 108.0 
609.737305 360.0 
610.222961 240.0 
610.779663 140.0 
611.138794 180.0 
611.227295 300.0 
612.244202 196.0 
612.300537 232.0 
612.739441 328.0 
613.167664 152.0 
613.258118 280.0 
613.308777 276.0 
614.225281 344.0 
614.301636 144.0 
614.728638 520.0 
615.220642 556.0 
615.743042 272.0 
616.731201 212.0 
616.82019 144.0 
617.060791 208.0 
617.24884 744.0 
617.373901 176.0 
617.76416 392.0 
618.264343 468.0 
618.744995 128.0 
619.257141 200.0 
620.216675 188.0 
620.746338 176.0 
622.261536 392.0 
622.738525 408.0 
623.240234 712.0 
623.734558 724.0 
624.132874 168.0 
624.224915 388.0 
624.332642 160.0 
624.466064 212.0 
624.747253 164.0 
624.819214 156.0 
625.215759 144.0 
625.263306 228.0 
625.340637 112.0 
626.201233 196.0 
626.272827 140.0 
626.457092 196.0 
626.757263 316.0 
627.221191 252.0 
627.272705 364.0 
627.309265 140.0 
627.384033 148.0 
627.743042 156.0 
628.201904 148.0 
628.24176 140.0 
628.805664 204.0 
629.239929 148.0 
629.404663 140.0 
629.934082 140.0 
630.252747 252.0 
631.237671 216.0 
631.668701 208.0 
631.74408 540.0 
631.913818 180.0 
632.240417 1764.0 
632.73999 720.0 
633.226807 392.0 
633.876648 200.0 
634.227478 188.0 
635.242004 232.0 
635.422363 124.0 
635.747131 168.0 
636.175659 212.0 
636.253601 256.0 
636.297913 220.0 
636.771301 168.0 
637.218018 128.0 
638.236755 204.0 
638.383545 148.0 
639.205566 112.0 
639.249756 272.0 
639.684143 204.0 
640.160095 96.0 
640.209351 200.0 
640.250549 224.0 
640.321106 104.0 
640.473999 176.0 
640.513489 164.0 
640.650818 280.0 
640.755737 16696.0 
640.953369 184.0 
641.142517 368.0 
641.256287 13340.0 
641.342285 208.0 
641.541687 252.0 
641.649048 200.0 
641.756042 4348.0 
642.082703 108.0 
642.184448 116.0 
642.259277 1160.0 
642.372314 152.0 
642.459961 172.0 
642.750549 896.0 
643.28009 140.0 
644.118347 136.0 
644.286804 176.0 
644.509155 152.0 
644.76062 156.0 
645.182556 272.0 
645.237183 96.0 
645.53009 108.0 
645.71228 216.0 
645.752502 172.0 
646.247253 236.0 
646.336853 112.0 
646.719116 148.0 
646.792114 160.0 
647.257446 148.0 
647.736877 168.0 
648.252991 116.0 
649.181396 140.0 
649.277527 156.0 
649.806458 288.0 
650.272339 196.0 
650.706665 204.0 
651.236816 160.0 
651.297791 196.0 
651.739746 180.0 
651.77533 172.0 
652.257019 148.0 
652.303894 156.0 
653.254883 384.0 
653.327881 412.0 
653.733337 148.0 
653.776428 160.0 
654.259705 276.0 
654.332031 180.0 
654.873474 184.0 
655.31665 268.0 
656.259338 124.0 
656.774658 160.0 
657.210754 252.0 
657.279724 404.0 
657.750244 144.0 
658.255432 292.0 
658.745056 172.0 
658.790771 248.0 
659.238281 236.0 
660.23938 164.0 
662.069641 172.0 
662.546021 224.0 
663.098633 104.0 
663.301636 192.0 
663.960754 148.0 
664.256958 340.0 
665.255432 288.0 
665.808289 176.0 
666.238342 192.0 
666.330139 264.0 
666.755127 124.0 
667.293335 132.0 
667.793945 172.0 
668.243835 160.0 
668.286011 172.0 
668.388916 212.0 
669.221375 292.0 
669.320618 144.0 
670.226868 136.0 
670.280334 544.0 
670.373169 144.0 
671.129211 188.0 
671.265015 504.0 
671.337708 184.0 
671.825439 144.0 
672.09375 216.0 
672.258179 276.0 
672.298218 392.0 
672.759521 148.0 
672.805969 164.0 
673.343018 148.0 
674.238159 144.0 
674.281555 324.0 
674.325745 240.0 
674.381531 232.0 
674.51593 208.0 
674.743347 164.0 
674.812622 152.0 
675.273132 536.0 
675.784119 144.0 
676.283752 464.0 
676.755981 264.0 
676.814148 176.0 
678.829712 264.0 
680.811035 184.0 
681.23468 556.0 
682.266357 764.0 
683.274597 156.0 
684.279358 212.0 
684.326172 172.0 
684.739563 128.0 
685.267639 132.0 
686.257507 248.0 
687.271362 148.0 
687.31604 264.0 
688.738098 200.0 
689.292725 284.0 
691.301575 140.0 
692.296143 1808.0 
693.302185 692.0 
693.749634 208.0 
694.170593 172.0 
694.294861 640.0 
695.270325 204.0 
695.302734 288.0 
696.253906 180.0 
697.231384 124.0 
698.246338 168.0 
698.294556 104.0 
698.760681 208.0 
698.808716 352.0 
699.228943 108.0 
699.260376 220.0 
699.304382 128.0 
699.325867 120.0 
700.294373 184.0 
700.846375 168.0 
701.319275 180.0 
701.376038 136.0 
701.705505 152.0 
702.30481 216.0 
702.774963 152.0 
703.22937 280.0 
703.278931 672.0 
704.22522 132.0 
704.296875 200.0 
704.365234 152.0 
705.358704 208.0 
705.781616 180.0 
706.245789 136.0 
706.368652 204.0 
706.818359 236.0 
707.309875 156.0 
707.762146 332.0 
708.25824 440.0 
708.76825 128.0 
708.841187 176.0 
709.291687 104.0 
710.270569 196.0 
710.341003 184.0 
710.988892 200.0 
711.213562 116.0 
711.275574 552.0 
711.357544 124.0 
711.771301 132.0 
711.81366 164.0 
712.245972 132.0 
712.780212 176.0 
713.224426 124.0 
713.301697 172.0 
714.310303 208.0 
714.350952 224.0 
714.469299 208.0 
715.32605 100.0 
715.791443 336.0 
715.850281 216.0 
716.273071 200.0 
716.3255 176.0 
716.773193 396.0 
716.83905 120.0 
716.92926 184.0 
717.265564 260.0 
717.499634 216.0 
717.8302 156.0 
718.080811 152.0 
718.811707 188.0 
719.288208 216.0 
719.537598 172.0 
719.84198 156.0 
720.318176 292.0 
720.8302 164.0 
721.282593 116.0 
721.3349 252.0 
721.824463 168.0 
721.867249 140.0 
722.314026 104.0 
722.391418 160.0 
724.266907 128.0 
724.310913 136.0 
724.779541 256.0 
725.277771 852.0 
725.759033 176.0 
725.807251 136.0 
726.173035 228.0 
726.243652 240.0 
726.306274 204.0 
726.794617 144.0 
726.848999 196.0 
727.279602 96.0 
728.265625 208.0 
728.357605 140.0 
728.81427 168.0 
729.260315 376.0 
729.315247 220.0 
729.815796 148.0 
730.247742 120.0 
730.322632 168.0 
730.38678 128.0 
730.776794 196.0 
730.825867 300.0 
731.327515 268.0 
731.411804 148.0 
732.267517 104.0 
732.317078 232.0 
732.413391 144.0 
733.329102 156.0 
733.794067 232.0 
733.868408 212.0 
733.970886 152.0 
734.089966 136.0 
734.290894 484.0 
734.79718 140.0 
735.286743 284.0 
735.830994 172.0 
736.334534 140.0 
736.754028 116.0 
737.3255 292.0 
737.539185 96.0 
737.825073 104.0 
738.188171 156.0 
738.263977 172.0 
738.306274 192.0 
738.361267 192.0 
738.415344 144.0 
738.802185 200.0 
739.293823 124.0 
739.813843 192.0 
740.791565 144.0 
740.975769 140.0 
741.024536 164.0 
741.244873 216.0 
741.297913 320.0 
742.281799 256.0 
743.23822 132.0 
743.296631 260.0 
743.801147 192.0 
743.849976 176.0 
744.250244 212.0 
744.305664 108.0 
744.940063 124.0 
745.34845 148.0 
745.435913 168.0 
746.271667 112.0 
746.318115 384.0 
746.827698 144.0 
746.873596 104.0 
746.97876 160.0 
747.307739 400.0 
747.643799 168.0 
747.823364 164.0 
748.286133 160.0 
748.934143 216.0 
749.302368 140.0 
750.231079 164.0 
750.278625 208.0 
750.328125 284.0 
750.825378 200.0 
751.292847 464.0 
752.293701 160.0 
752.746338 164.0 
753.134094 176.0 
753.259705 200.0 
753.379883 156.0 
754.341675 140.0 
755.123596 140.0 
755.240906 100.0 
755.336914 148.0 
755.836182 192.0 
756.275391 208.0 
757.213745 112.0 
757.300354 320.0 
757.48822 168.0 
758.249817 148.0 
758.288147 148.0 
759.330322 164.0 
760.218628 176.0 
760.307129 576.0 
760.416199 156.0 
760.454651 140.0 
761.256287 148.0 
761.304688 484.0 
761.481323 140.0 
761.78894 240.0 
762.243286 248.0 
762.286255 128.0 
762.35791 116.0 
763.297607 340.0 
763.63031 176.0 
764.310852 200.0 
764.357422 188.0 
764.805969 312.0 
765.077515 200.0 
765.269226 240.0 
765.334778 212.0 
765.823914 244.0 
766.219666 104.0 
766.348145 228.0 
766.873291 180.0 
767.115845 140.0 
767.181946 144.0 
767.223145 204.0 
767.273926 212.0 
767.321472 272.0 
767.898804 164.0 
769.270935 252.0 
769.303528 308.0 
769.810364 216.0 
769.907715 140.0 
770.281982 132.0 
772.055603 112.0 
772.275879 140.0 
773.047729 184.0 
773.267822 344.0 
773.310913 144.0 
773.379822 180.0 
773.662109 180.0 
774.26886 160.0 
774.31134 116.0 
774.526001 148.0 
774.586914 160.0 
774.849487 140.0 
775.281494 112.0 
775.335266 196.0 
775.711792 180.0 
775.989014 156.0 
776.660034 212.0 
777.328125 132.0 
778.331787 136.0 
779.146973 140.0 
779.19696 168.0 
779.283081 828.0 
779.840515 128.0 
780.295593 568.0 
781.291626 124.0 
782.335999 144.0 
783.714783 216.0 
783.820679 144.0 
784.330566 576.0 
784.444885 148.0 
784.63446 156.0 
785.297119 312.0 
785.3974 176.0 
786.30896 208.0 
787.312073 240.0 
788.339661 208.0 
788.821411 172.0 
788.897766 236.0 
789.305237 164.0 
789.428833 180.0 
789.598572 172.0 
789.738403 216.0 
790.12439 144.0 
790.168091 116.0 
790.308044 520.0 
790.665283 144.0 
790.751099 168.0 
791.285767 260.0 
791.93811 100.0 
792.032349 204.0 
792.705627 184.0 
792.847961 324.0 
793.355042 672.0 
793.858521 708.0 
794.25708 128.0 
794.329346 220.0 
794.367737 292.0 
794.487427 168.0 
794.85083 176.0 
795.659973 212.0 
795.852478 184.0 
795.942017 176.0 
796.30658 124.0 
796.493958 192.0 
796.774719 180.0 
796.857849 184.0 
796.9646 184.0 
797.020935 128.0 
797.122375 196.0 
797.296265 1200.0 
797.7146 144.0 
797.760925 248.0 
797.864868 196.0 
798.173096 188.0 
798.233704 220.0 
798.299988 1000.0 
798.389343 148.0 
798.628601 148.0 
798.878662 124.0 
799.299866 100.0 
799.320374 236.0 
799.706726 112.0 
799.818359 152.0 
800.012878 204.0 
800.161499 180.0 
800.301453 200.0 
800.438416 268.0 
800.508667 104.0 
800.712769 120.0 
800.854797 220.0 
801.055359 104.0 
801.121216 108.0 
801.211304 132.0 
801.31543 108.0 
801.608887 156.0 
801.756897 96.0 
801.862122 5404.0 
802.010376 212.0 
802.139038 172.0 
802.197205 196.0 
802.354553 7736.0 
802.506958 260.0 
802.563293 192.0 
802.691956 208.0 
802.856384 5356.0 
802.98822 152.0 
803.091003 108.0 
803.219299 284.0 
803.355469 2552.0 
803.571838 172.0 
803.617004 108.0 
803.722656 324.0 
803.782532 108.0 
803.864807 1124.0 
803.973694 96.0 
804.026306 116.0 
804.094238 132.0 
804.297607 204.0 
804.356873 408.0 
804.439209 216.0 
804.532471 136.0 
804.670776 144.0 
804.742065 96.0 
804.832764 96.0 
804.978149 128.0 
805.279419 192.0 
805.324585 312.0 
805.363831 184.0 
805.520569 480.0 
805.723572 144.0 
805.831116 120.0 
805.927368 140.0 
805.950195 132.0 
805.965637 104.0 
806.036804 128.0 
806.153564 108.0 
806.240234 172.0 
806.351868 404.0 
806.417725 208.0 
806.507935 164.0 
806.5896 204.0 
806.667419 172.0 
806.731812 120.0 
806.81604 264.0 
806.862488 104.0 
806.925354 236.0 
807.01239 132.0 
807.074829 156.0 
807.141602 240.0 
807.223755 352.0 
807.263367 292.0 
807.315796 228.0 
807.462585 128.0 
807.600769 304.0 
807.686646 264.0 
807.815613 400.0 
807.859802 208.0 
807.960205 244.0 
808.018921 224.0 
808.306702 336.0 
808.405273 160.0 
808.467346 212.0 
808.621216 184.0 
808.665466 208.0 
808.761658 260.0 
808.861755 392.0 
808.931396 192.0 
808.948242 116.0 
809.058044 144.0 
809.148376 284.0 
809.210815 256.0 
809.322266 392.0 
809.412415 292.0 
809.501282 328.0 
809.545471 268.0 
809.653809 256.0 
809.718018 380.0 
809.873779 344.0 
809.940613 328.0 
810.030457 368.0 
810.052124 292.0 
810.072937 168.0 
810.181641 444.0 
810.229736 328.0 
810.292236 584.0 
810.335754 228.0 
810.381104 388.0 
810.43811 252.0 
810.510376 612.0 
810.610046 496.0 
810.701782 548.0 
810.764221 856.0 
810.867065 208276.0 
811.067993 424.0 
811.132202 368.0 
811.262329 588.0 
811.368042 196200.0 
811.529419 232.0 
811.579834 520.0 
811.688293 244.0 
811.868652 121960.0 
812.041321 412.0 
812.136963 120.0 
812.227722 688.0 
812.369019 45016.0 
812.491699 408.0 
812.536316 404.0 
812.555969 276.0 
812.709473 796.0 
812.750427 800.0 
812.867737 10660.0 
812.964355 580.0 
813.012329 192.0 
813.027588 496.0 
813.177795 400.0 
813.258972 432.0 
813.364685 2520.0 
813.4776 316.0 
813.522095 308.0 
813.629028 432.0 
813.740234 456.0 
813.856812 720.0 
814.011658 316.0 
814.104248 456.0 
814.218567 388.0 
814.238953 280.0 
814.253174 456.0 
814.351379 392.0 
814.390015 288.0 
814.492188 340.0 
814.55603 220.0 
814.590698 292.0 
814.657715 216.0 
814.722168 292.0 
814.84082 276.0 
814.855774 216.0 
814.944031 228.0 
814.987 272.0 
815.041138 320.0 
815.086853 364.0 
815.134216 248.0 
815.207703 244.0 
815.293945 280.0 
815.35675 292.0 
815.425537 400.0 
815.540283 192.0 
815.610474 400.0 
815.694031 192.0 
815.793091 324.0 
815.890686 524.0 
815.956421 644.0 
816.033936 344.0 
816.149841 284.0 
816.231689 160.0 
816.274414 408.0 
816.337341 380.0 
816.386414 308.0 
816.431396 268.0 
816.509399 220.0 
816.675232 440.0 
816.770996 236.0 
816.841125 248.0 
816.947388 396.0 
817.072876 156.0 
817.100403 216.0 
817.309631 156.0 
817.437622 164.0 
817.530334 148.0 
817.602051 136.0 
817.658936 144.0 
817.80835 132.0 
817.872375 200.0 
817.940735 168.0 
817.995056 192.0 
818.1521 128.0 
818.293335 128.0 
818.530212 148.0 
818.656738 144.0 
818.875671 216.0 
819.05072 104.0 
819.244995 104.0 
819.300232 164.0 
819.356873 192.0 
819.764526 176.0 
819.897827 124.0 
820.050842 100.0 
820.152893 172.0 
820.264893 168.0 
820.546326 128.0 
820.90564 128.0 
821.26001 148.0 
821.30365 148.0 
821.368164 104.0 
821.43927 144.0 
821.54126 216.0 
821.759338 116.0 
821.850403 612.0 
822.172729 116.0 
822.262939 100.0 
822.371338 652.0 
822.716248 172.0 
822.856873 536.0 
823.280762 108.0 
823.338135 120.0 
823.439697 104.0 
823.685181 108.0 
823.847534 168.0 
824.257629 148.0 
824.298706 196.0 
824.341431 160.0 
824.417969 96.0 
824.561584 96.0 
824.643005 156.0 
824.768738 148.0 
824.877197 120.0 
825.029175 100.0 
825.248047 108.0 
825.317749 524.0 
825.424561 284.0 
825.491516 116.0 
825.614502 100.0 
825.980896 212.0 
826.210266 100.0 
826.339783 456.0 
826.425537 96.0 
826.642517 96.0 
826.897156 160.0 
827.836365 116.0 
828.153809 204.0 
828.261963 208.0 
828.326843 136.0 
829.358948 148.0 
829.85376 200.0 
830.324402 224.0 
830.344421 212.0 
831.296753 168.0 
831.42572 192.0 
832.381958 112.0 
832.640747 100.0 
833.299072 116.0 
833.711914 128.0 
834.292847 128.0 
834.351807 120.0 
835.047363 220.0 
835.196716 168.0 
835.319153 236.0 
835.362671 144.0 
835.617859 136.0 
835.910034 124.0 
836.291748 252.0 
836.35376 208.0 
837.279175 108.0 
837.38446 168.0 
837.9328 212.0 
838.116089 116.0 
838.386719 164.0 
839.0802 140.0 
839.208008 96.0 
839.299011 312.0 
839.669861 144.0 
839.832947 108.0 
840.008728 144.0 
840.309631 124.0 
840.391541 132.0 
840.859192 100.0 
841.122375 164.0 
841.27594 100.0 
841.420166 104.0 
841.493469 116.0 
842.229065 128.0 
842.325012 352.0 
842.376587 252.0 
842.440979 116.0 
843.337463 608.0 
844.277039 232.0 
844.337524 344.0 
844.929932 120.0 
845.311768 144.0 
845.377502 188.0 
846.3703 348.0 
847.325806 284.0 
847.449219 152.0 
848.308899 272.0 
848.379883 288.0 
849.002747 156.0 
849.263733 168.0 
849.340027 276.0 
849.878662 164.0 
849.934021 96.0 
850.331116 144.0 
851.178894 148.0 
851.298584 144.0 
853.268494 112.0 
854.291077 144.0 
854.357605 152.0 
854.486145 168.0 
855.320984 156.0 
860.335205 116.0 
861.349609 132.0 
862.346558 136.0 
862.407227 292.0 
862.90802 148.0 
863.284973 112.0 
863.349426 152.0 
863.428467 144.0 
864.268921 236.0 
864.411255 116.0 
865.052124 112.0 
865.291992 128.0 
865.350037 188.0 
866.295288 272.0 
866.339783 204.0 
866.797485 136.0 
868.125244 144.0 
868.391296 164.0 
870.38208 180.0 
871.335327 172.0 
871.566956 104.0 
872.084961 104.0 
872.18219 144.0 
872.342896 156.0 
874.331299 100.0 
875.356689 256.0 
875.647766 180.0 
875.836243 168.0 
876.32782 144.0 
876.401794 132.0 
877.027161 260.0 
878.340759 288.0 
878.512451 180.0 
879.286194 228.0 
879.349487 236.0 
880.351013 120.0 
880.432251 296.0 
881.429077 188.0 
882.818237 188.0 
883.336548 128.0 
883.931946 216.0 
884.370728 120.0 
886.297302 364.0 
887.347046 244.0 
888.361633 144.0 
889.329224 168.0 
890.179321 120.0 
890.373291 140.0 
891.356506 144.0 
892.315002 144.0 
893.360901 224.0 
893.848267 140.0 
894.328552 460.0 
894.432617 136.0 
895.330078 348.0 
896.310242 128.0 
897.372253 164.0 
898.866821 120.0 
899.296692 132.0 
901.312561 332.0 
901.365723 144.0 
901.46106 168.0 
901.664246 144.0 
904.099915 176.0 
904.359009 236.0 
905.295593 300.0 
905.396057 108.0 
906.342834 240.0 
907.351257 144.0 
907.88446 152.0 
908.274353 240.0 
908.335205 112.0 
909.228333 156.0 
911.352661 1320.0 
911.373352 696.0 
912.346069 196.0 
912.385315 348.0 
913.374451 224.0 
914.358765 168.0 
915.365906 108.0 
916.367737 144.0 
918.290344 172.0 
918.382812 352.0 
918.429871 216.0 
919.356323 248.0 
919.443237 100.0 
920.022278 104.0 
920.339661 228.0 
920.397522 124.0 
921.30542 124.0 
921.44165 200.0 
922.362366 144.0 
922.399841 568.0 
923.318298 292.0 
923.389771 148.0 
924.300781 104.0 
924.411499 124.0 
926.255554 200.0 
926.348083 148.0 
926.425171 176.0 
927.294678 132.0 
928.337524 124.0 
928.390869 204.0 
928.849976 236.0 
929.226074 176.0 
929.360046 380.0 
930.347046 384.0 
931.391724 136.0 
932.350769 384.0 
932.456604 144.0 
933.283325 144.0 
933.342529 268.0 
934.445068 152.0 
935.364014 168.0 
935.449219 216.0 
936.490479 280.0 
937.341675 100.0 
938.843018 168.0 
939.31073 352.0 
940.334412 104.0 
940.378784 256.0 
941.2323 128.0 
941.312988 180.0 
942.313293 228.0 
943.411133 96.0 
944.360901 380.0 
946.113525 108.0 
946.377441 132.0 
947.330139 144.0 
947.380615 136.0 
948.372925 120.0 
950.388184 860.0 
951.381958 164.0 
952.025696 176.0 
952.396851 124.0 
953.315125 208.0 
953.401123 164.0 
954.375183 96.0 
956.37793 256.0 
957.338135 140.0 
958.356567 500.0 
959.180542 152.0 
959.325684 104.0 
959.370972 176.0 
959.55835 124.0 
960.290527 188.0 
960.379578 240.0 
961.403442 96.0 
962.386414 452.0 
963.388672 392.0 
965.373169 148.0 
966.357605 120.0 
967.329346 140.0 
968.124695 140.0 
968.40802 1096.0 
968.515198 168.0 
968.826904 160.0 
969.388245 548.0 
970.398865 416.0 
970.804199 140.0 
971.428772 204.0 
972.352356 236.0 
972.427673 384.0 
974.370361 120.0 
975.379333 112.0 
975.430908 248.0 
976.205444 136.0 
976.352478 228.0 
977.35144 124.0 
978.337097 120.0 
979.416443 792.0 
979.506592 136.0 
980.399475 400.0 
981.385742 252.0 
981.432312 284.0 
981.520142 144.0 
982.32251 120.0 
983.302734 260.0 
986.374878 108.0 
987.411011 120.0 
988.406616 216.0 
989.420898 136.0 
990.390564 212.0 
991.317993 124.0 
991.379211 164.0 
993.398682 620.0 
994.230042 140.0 
994.360413 324.0 
994.408142 300.0 
994.498413 164.0 
995.372314 216.0 
996.33197 216.0 
996.47113 232.0 
997.348206 120.0 
997.392212 112.0 
997.499939 320.0 
998.374878 100.0 
999.319946 208.0 
999.407532 204.0 
1000.397095 140.0 
1000.543213 120.0 
1002.343933 284.0 
1003.382263 152.0 
1005.404785 116.0 
1006.328674 208.0 
1006.407898 308.0 
1007.394653 372.0 
1008.408997 256.0 
1010.373596 156.0 
1011.363953 136.0 
1011.497131 108.0 
1012.373779 180.0 
1014.039978 176.0 
1014.5 104.0 
1015.098206 112.0 
1015.171997 156.0 
1015.241089 132.0 
1015.408508 1072.0 
1015.497009 104.0 
1016.399231 340.0 
1017.197815 160.0 
1017.414062 200.0 
1017.523926 108.0 
1018.499329 164.0 
1019.355042 236.0 
1019.395142 328.0 
1020.377686 164.0 
1020.502319 140.0 
1022.399841 184.0 
1023.400879 188.0 
1024.431763 104.0 
1025.368652 188.0 
1025.461304 236.0 
1026.398315 104.0 
1026.442017 220.0 
1026.650635 176.0 
1027.406494 152.0 
1028.37561 140.0 
1028.503784 128.0 
1029.390625 140.0 
1030.399902 168.0 
1030.470093 128.0 
1031.442017 264.0 
1031.89856 220.0 
1032.498291 116.0 
1033.429199 4252.0 
1033.832153 168.0 
1034.424194 2052.0 
1035.325684 176.0 
1035.42627 564.0 
1035.532715 120.0 
1036.426025 496.0 
1036.632568 248.0 
1037.339844 120.0 
1037.413818 136.0 
1037.676636 236.0 
1038.359863 160.0 
1038.389893 188.0 
1039.326294 220.0 
1039.369507 296.0 
1040.371704 144.0 
1041.380127 144.0 
1042.412598 168.0 
1043.317505 128.0 
1043.392456 240.0 
1044.425171 276.0 
1044.487671 136.0 
1045.430054 216.0 
1046.649292 128.0 
1048.854004 108.0 
1050.349731 120.0 
1050.433105 228.0 
1050.759155 208.0 
1051.43103 5144.0 
1051.669067 152.0 
1051.901489 144.0 
1052.43811 2072.0 
1053.339844 128.0 
1053.439453 924.0 
1053.532471 280.0 
1054.422363 304.0 
1055.397461 336.0 
1055.455688 200.0 
1056.360596 124.0 
1056.423096 204.0 
1059.387451 180.0 
1060.452148 136.0 
1061.407227 188.0 
1062.437622 152.0 
1063.379517 108.0 
1065.429932 160.0 
1066.644897 188.0 
1069.405762 120.0 
1071.408447 160.0 
1072.414917 328.0 
1072.50769 156.0 
1073.401367 292.0 
1073.813721 152.0 
1074.399292 224.0 
1074.766113 192.0 
1075.366577 192.0 
1075.442017 120.0 
1076.4104 404.0 
1077.414673 324.0 
1077.462891 296.0 
1078.296509 100.0 
1078.412842 184.0 
1078.723877 164.0 
1079.419067 196.0 
1080.348633 116.0 
1080.411133 200.0 
1080.479004 136.0 
1081.314087 156.0 
1082.415161 152.0 
1083.43396 160.0 
1084.357178 132.0 
1084.575928 144.0 
1085.388062 112.0 
1086.47998 120.0 
1087.373413 100.0 
1087.429688 136.0 
1089.169067 152.0 
1089.427979 244.0 
1089.475586 196.0 
1090.402954 268.0 
1090.470215 248.0 
1091.387329 168.0 
1091.475464 104.0 
1092.403931 148.0 
1093.398926 232.0 
1094.442139 616.0 
1095.418213 232.0 
1096.444458 120.0 
1097.434814 148.0 
1099.417236 196.0 
1100.416626 120.0 
1101.388916 344.0 
1102.428711 100.0 
1103.406372 192.0 
1104.474731 168.0 
1105.476074 112.0 
1106.459595 148.0 
1107.471313 152.0 
1108.438354 232.0 
1109.394287 524.0 
1109.451904 288.0 
1110.380127 236.0 
1111.45752 212.0 
1111.764648 124.0 
1112.368408 168.0 
1113.043945 196.0 
1114.480103 152.0 
1115.392456 100.0 
1118.4552 108.0 
1119.4375 200.0 
1120.422852 324.0 
1122.425781 248.0 
1124.447632 164.0 
1125.538574 128.0 
1126.407593 124.0 
1126.497437 204.0 
1127.547485 176.0 
1128.423706 128.0 
1129.44043 136.0 
1130.429688 328.0 
1130.5271 296.0 
1130.863892 152.0 
1131.404785 252.0 
1131.429443 440.0 
1132.169434 156.0 
1132.442993 456.0 
1132.966431 156.0 
1133.408325 128.0 
1133.495239 132.0 
1134.39502 208.0 
1136.426758 104.0 
1137.4552 112.0 
1138.180786 112.0 
1138.45874 296.0 
1139.462769 188.0 
1140.430298 224.0 
1140.508423 116.0 
1143.52063 292.0 
1145.499023 100.0 
1146.509033 284.0 
1147.065308 140.0 
1147.260742 152.0 
1147.433594 220.0 
1147.483398 312.0 
1148.009277 144.0 
1148.447144 1360.0 
1149.440186 948.0 
1149.561523 148.0 
1150.437134 624.0 
1150.661011 140.0 
1151.409912 188.0 
1151.451782 300.0 
1151.613159 156.0 
1152.42688 108.0 
1153.423584 112.0 
1154.933594 148.0 
1155.050659 128.0 
1155.998901 112.0 
1158.430664 428.0 
1159.445557 220.0 
1163.178345 160.0 
1164.498657 148.0 
1165.44104 156.0 
1166.451538 3976.0 
1167.347778 224.0 
1167.460449 2996.0 
1168.455688 860.0 
1169.456177 808.0 
1170.384644 204.0 
1170.422607 336.0 
1170.477661 452.0 
1171.425415 136.0 
1171.549927 116.0 
1172.101318 152.0 
1172.45105 132.0 
1172.605591 160.0 
1173.456299 164.0 
1173.994873 192.0 
1174.426025 208.0 
1175.14917 200.0 
1175.395142 96.0 
1176.432129 700.0 
1176.69165 176.0 
1177.436646 344.0 
1178.442017 352.0 
1179.931519 96.0 
1180.454346 148.0 
1183.509399 204.0 
1186.400757 124.0 
1187.437378 364.0 
1188.245728 96.0 
1188.435791 200.0 
1188.44873 188.0 
1189.373657 232.0 
1190.125122 200.0 
1191.41748 280.0 
1191.470337 172.0 
1192.411133 108.0 
1192.504272 112.0 
1193.526123 100.0 
1194.462646 260.0 
1195.94104 180.0 
1196.074829 104.0 
1198.956177 116.0 
1199.51001 128.0 
1200.364014 148.0 
1200.637207 144.0 
1202.481201 272.0 
1204.441284 132.0 
1205.443359 200.0 
1206.435913 280.0 
1206.492432 140.0 
1207.457397 116.0 
1208.463867 112.0 
1209.123779 220.0 
1209.374146 96.0 
1209.482056 268.0 
1210.454102 276.0 
1210.529053 104.0 
1211.478027 160.0 
1211.762085 148.0 
1212.323364 180.0 
1215.860229 172.0 
1216.44751 248.0 
1217.46582 300.0 
1218.446899 116.0 
1218.686401 156.0 
1219.367432 176.0 
1219.478027 128.0 
1219.539429 176.0 
1220.482422 104.0 
1221.415527 200.0 
1221.464844 136.0 
1224.49353 132.0 
1226.483643 156.0 
1227.435913 244.0 
1228.454712 268.0 
1229.370239 128.0 
1229.422119 308.0 
1230.4646 260.0 
1230.643311 156.0 
1232.426758 184.0 
1234.487183 228.0 
1235.450562 140.0 
1235.50061 228.0 
1236.436279 108.0 
1236.488525 176.0 
1237.482666 116.0 
1237.973877 140.0 
1238.515015 300.0 
1241.55188 112.0 
1242.450439 148.0 
1242.866699 148.0 
1244.485962 256.0 
1245.469971 700.0 
1245.602539 144.0 
1246.067505 96.0 
1246.468262 540.0 
1247.474731 500.0 
1248.11377 160.0 
1248.435669 132.0 
1248.503174 136.0 
1252.483276 340.0 
1253.54541 96.0 
1253.628418 120.0 
1257.885498 160.0 
1261.933594 236.0 
1262.488037 2272.0 
1262.7052 128.0 
1262.843384 152.0 
1263.18457 140.0 
1263.47937 2748.0 
1263.706299 100.0 
1264.482666 2380.0 
1264.734985 152.0 
1265.485107 884.0 
1266.457642 252.0 
1266.509399 288.0 
1266.657104 120.0 
1267.481445 176.0 
1267.886841 208.0 
1269.028076 164.0 
1269.393311 100.0 
1269.77832 116.0 
1270.521851 104.0 
1272.332031 112.0 
1272.660889 204.0 
1273.411743 184.0 
1274.433472 156.0 
1275.171021 112.0 
1276.522095 172.0 
1279.321045 164.0 
1279.486328 156.0 
1279.664062 108.0 
1279.912354 128.0 
1280.171509 160.0 
1280.295044 112.0 
1280.364624 128.0 
1280.505371 10216.0 
1280.807251 184.0 
1280.897827 156.0 
1281.074219 112.0 
1281.502808 6616.0 
1281.930054 124.0 
1282.043457 152.0 
1282.097046 116.0 
1282.394531 300.0 
1282.506104 2688.0 
1283.151489 144.0 
1283.23584 120.0 
1283.515625 1320.0 
1283.63208 200.0 
1284.497681 456.0 
1285.28833 112.0 
1286.671265 120.0 
1286.869507 176.0 
1287.115356 212.0 
1287.393921 168.0 
1288.603882 112.0 
1291.188721 152.0 
1291.431763 216.0 
1291.492432 204.0 
1292.440063 208.0 
1292.605225 140.0 
1293.444214 116.0 
1293.580933 120.0 
1301.51709 116.0 
1301.595337 144.0 
1307.474487 140.0 
1307.563965 116.0 
1308.38855 144.0 
1309.531494 124.0 
1313.515503 208.0 
1318.070068 144.0 
1318.440674 104.0 
1318.520508 132.0 
1318.611206 112.0 
1320.492798 140.0 
1321.629761 148.0 
1325.166138 192.0 
1327.66687 160.0 
1330.64917 140.0 
1335.17627 148.0 
1338.789551 96.0 
1348.079834 148.0 
1363.131714 164.0 
1367.330811 164.0 
1367.787231 220.0 
1388.979858 188.0 
1395.061646 172.0 
1395.682861 136.0 
1396.600098 128.0 
1405.488525 192.0 
1408.952881 180.0 
1411.367065 168.0 
1413.094849 164.0 
1427.037842 216.0 
1431.624268 192.0 
1431.740845 200.0 
1432.531738 208.0 
1433.608887 112.0 
1441.495117 168.0 
1443.868896 140.0 
1444.568726 96.0 
1447.61145 148.0 
1448.841919 200.0 
1450.539429 148.0 
1451.588135 160.0 
1453.057251 208.0 
1458.623779 180.0 
1474.629028 112.0 
1480.820068 196.0 
1480.919678 168.0 
1481.256714 248.0 
1483.846924 152.0 
1487.536987 148.0 
1494.664429 152.0 
1494.738525 172.0 
1500.407349 196.0 
1507.675537 112.0 
1509.874146 180.0 
1515.54834 204.0 
1516.865845 160.0 
1527.655518 116.0 
1539.49939 204.0 
1543.492554 208.0 
1544.477905 196.0 
1545.868164 208.0 
1549.158936 200.0 
1550.130493 216.0 
1557.144043 152.0 
1564.665649 128.0 
1565.716675 176.0 
1582.156372 160.0 
1592.599976 156.0 
1593.910889 144.0 
1595.214233 148.0 
1598.39563 260.0 
1601.866821 148.0 
1606.801636 232.0 
1609.675049 232.0 
1615.869629 184.0 
1621.370728 184.0 
1621.883667 172.0 
1625.013916 204.0 
1626.471802 160.0 
1627.105469 172.0 
1628.752197 176.0 
1629.651978 144.0 
1630.817261 200.0 
1633.422485 156.0 
1636.569214 188.0 
1646.665527 220.0 
1656.387817 240.0 
1665.846313 168.0 
1677.165283 176.0 
1679.081299 144.0 
1681.047363 172.0 
1681.822754 224.0 
1684.835938 164.0 
1687.058838 196.0 
1688.457031 148.0 
1688.546997 140.0 
1691.541748 160.0 
1692.383301 116.0 
1694.706421 208.0 
1699.212402 164.0 
1699.466675 212.0 
1703.966064 152.0 
1705.116455 236.0 
1706.434814 148.0 
1708.495972 204.0 
1712.450928 212.0 
1713.092773 116.0 
1717.474976 224.0 
1724.1875 172.0 
1724.964355 184.0 
1733.331787 220.0 
1734.284912 216.0 
1737.477539 164.0 
1738.174438 220.0 
1739.369507 184.0 
1741.852417 160.0 
1744.511475 228.0 
1750.518677 164.0 
1751.068359 160.0 
1753.826294 228.0 
1756.828247 216.0 
1764.001587 188.0 
1767.104248 168.0 
1768.535278 140.0 
1771.41272 96.0 
1772.831787 200.0 
1773.410034 200.0 
1775.581543 152.0 
1780.487549 196.0 
1782.214233 236.0 
1785.727173 232.0 
1786.955322 160.0 
1789.387695 188.0 
1790.852905 140.0 
1795.44104 204.0 
1802.01355 180.0 
1807.416504 164.0 
1807.788818 148.0 
1810.9552 168.0 
1811.349609 140.0 
1812.30249 96.0 
1816.422363 168.0 
1817.966553 156.0 
1819.256714 164.0 
1819.88501 188.0 
1820.326538 204.0 
1821.039917 252.0 
1822.467041 184.0 
1825.294067 132.0 
1833.435791 216.0 
1834.177368 172.0 
1835.16626 156.0 
1835.413574 148.0 
1837.844482 172.0 
1838.012817 128.0 
1842.360962 212.0 
1847.327881 196.0 
1857.89917 164.0 
1858.508301 192.0 
1863.608521 172.0 
1864.940552 172.0 
1865.060913 224.0 
1867.193237 204.0 
1870.764038 232.0 
1872.692871 160.0 
1873.416504 156.0 
1878.46814 156.0 
1881.151855 148.0 
1883.595581 176.0 
1889.465454 168.0 
1892.295532 248.0 
1892.408081 180.0 
1893.863037 184.0 
1895.176636 152.0 
1895.639038 200.0 
1895.708374 196.0 
1896.661743 152.0 
1897.043091 140.0 
1901.779297 180.0 
1901.935547 220.0 
1903.906372 184.0 
1908.485962 160.0 
1912.154663 248.0 
1912.809692 144.0 
1914.237549 172.0 
1916.049316 160.0 
1917.286621 164.0 
1917.713745 184.0 
1918.567993 188.0 
1923.243652 172.0 
1923.330933 192.0 
1924.334839 196.0 
1929.848022 180.0 
1930.031616 144.0 
1932.428223 184.0 
1936.910522 176.0 
1940.345703 164.0 
1940.959473 172.0 
1944.012207 144.0 
1944.521118 140.0 
1944.854736 196.0 
1946.996948 172.0 
1947.111206 160.0 
1947.822632 176.0 
1950.599365 140.0 
1951.047729 164.0 
1952.419434 176.0 
1953.677246 148.0 
1956.484619 192.0 
1957.629272 188.0 
1958.126709 188.0 
1958.192871 172.0 
1959.660645 148.0 
1961.717407 172.0 
1962.017212 140.0 
1962.447144 156.0 
1967.239746 168.0 
1967.698853 152.0 
1970.24231 188.0 
1971.894775 148.0 
1972.646118 184.0 
1975.47583 208.0 
1978.39624 204.0 
1982.054077 156.0 
1982.373047 152.0 
1983.888794 220.0 
1984.473877 204.0 
1992.639282 208.0 
1995.705688 216.0 
1995.803467 164.0 
1999.015991 180.0 
1999.513062 180.0 
2002.326416 144.0 
2002.86084 156.0 
2003.234985 156.0 
END IONS

