BEGIN IONS
PEPMASS=355.213
CHARGE=1+
COMPOUNDNAME=bisdethiobis(methylthio)gliotoxin
LIBRARYQUALITY=3
SMILES=N/A
INCHIKEY=OVBAGMZLGLXSBN-UOVKNHIHSA-N
INCHI=InChI=1S/C15H20N2O4S2/c1-16-12(20)14(22-2)7-9-5-4-6-10(19)11(9)17(14)13(21)15(16,8-18)23-3/h4-6,10-11,18-19H,7-8H2,1-3H3/t10-,11-,14+,15+/m0/s1
MSLEVEL=2
SOURCE_INSTRUMENT=N/A-Linear Ion Trap
FILENAME=library_mgf.mgf
SEQ=*..*
IONMODE=negative
ORGANISM=MONA
NAME=bisdethiobis(methylthio)gliotoxin M-H
PI=MoNA
DATACOLLECTOR=MoNA:VF-NPL-LTQ005862
PUBMED=N/A
SUBMITUSER=mwang87
TAGS=
SPECTRUMID=CCMSLIB00004689410
SCANS=5031
173.25 1.335114 
228.0 1.216008 
266.920013 1.350788 
307.040009 7.433071 
308.119995 11.93772 
309.079987 16.270948 
323.130005 6.810181 
333.790009 2.533068 
355.160004 44.067017 
END IONS

