BEGIN IONS
PEPMASS=1299.71
CHARGE=1+
COMPOUNDNAME=POLYMYXIN B SULFATE
LIBRARYQUALITY=3
SMILES=N/A
INCHIKEY=HFMDLUQUEXNBOP-UHFFFAOYSA-N
INCHI=InChI=1S/C56H98N16O13.H2O4S/c1-7-32(4)13-11-12-16-44(75)63-36(17-23-57)51(80)72-46(34(6)74)56(85)68-39(20-26-60)48(77)67-41-22-28-62-55(84)45(33(5)73)71-52(81)40(21-27-61)65-47(76)37(18-24-58)66-53(82)42(29-31(2)3)69-54(83)43(30-35-14-9-8-10-15-35)70-49(78)38(19-25-59)64-50(41)79;1-5(2,3)4/h8-10,14-15,31-34,36-43,45-46,73-74H,7,11-13,16-30,57-61H2,1-6H3,(H,62,84)(H,63,75)(H,64,79)(H,65,76)(H,66,82)(H,67,77)(H,68,85)(H,69,83)(H,70,78)(H,71,81)(H,72,80);(H2,1,2,3,4)
MSLEVEL=2
SOURCE_INSTRUMENT=N/A-ESI-QFT
FILENAME=library_mgf.mgf
SEQ=*..*
IONMODE=negative
ORGANISM=MONA
NAME=POLYMYXIN B SULFATE [M-H]-
PI=MoNA
DATACOLLECTOR=MoNA:VF-NPL-QEHF027920
PUBMED=N/A
SUBMITUSER=mwang87
TAGS=
SPECTRUMID=CCMSLIB00004721501
SCANS=27920
91.283539 0.003822 
94.979469 1.093778 
96.494217 0.011799 
96.657768 0.003594 
96.940186 0.257391 
96.942238 0.264294 
96.958717 100.0 
96.976006 0.592386 
97.958122 0.50387 
97.962891 0.035673 
98.954536 1.478863 
98.962952 0.162882 
99.060165 0.008177 
99.644302 0.01331 
102.126236 0.003882 
103.671631 0.003876 
104.384651 0.008191 
108.182182 0.004247 
109.009834 0.007571 
110.117462 0.009295 
110.473763 0.008148 
111.763618 0.005795 
112.012711 0.003886 
112.460457 0.00451 
112.566635 0.008948 
116.081734 0.00591 
116.174896 0.003344 
116.528839 0.009672 
116.584328 0.008581 
117.229652 0.004934 
118.725258 0.003675 
119.964653 0.010267 
120.145782 0.005018 
120.26078 0.007153 
123.60434 0.010355 
125.012253 0.008604 
125.591408 0.00401 
126.574806 0.006153 
127.632668 0.003808 
131.87532 0.010232 
132.005798 0.006495 
133.711746 0.006391 
137.42395 0.010486 
137.668396 0.014031 
140.638794 0.011465 
141.193817 0.013557 
146.101913 0.003701 
146.351181 0.011207 
154.482422 0.005673 
154.843719 0.010273 
160.288269 0.010309 
161.031311 0.009244 
161.997726 0.005592 
162.037643 0.004227 
163.297348 0.003077 
164.019653 0.006188 
164.877075 0.010151 
168.760834 0.010463 
170.46228 0.006754 
172.983063 0.004104 
173.103409 0.038397 
173.306137 0.008642 
182.799164 0.004375 
194.361542 0.008825 
197.852798 0.009935 
198.149094 0.009672 
200.000809 0.009338 
201.555389 0.013188 
202.367523 0.008957 
206.936279 0.005643 
207.566422 0.006796 
208.766052 0.014121 
209.452759 0.009002 
209.481781 0.003611 
212.963547 0.004461 
213.488007 0.011493 
217.715698 0.005241 
221.171112 0.00907 
223.094238 0.005246 
233.185089 0.009107 
233.951996 0.005911 
235.5755 0.00582 
242.469086 0.005108 
242.578186 0.00543 
243.828522 0.00671 
246.66246 0.011913 
246.903183 0.01326 
249.404968 0.004474 
254.249283 0.003646 
255.156906 0.010097 
256.929871 0.009212 
259.501678 0.006772 
260.062164 0.008667 
260.328339 0.004003 
265.12262 0.006639 
270.098297 0.005134 
273.167633 0.011779 
273.312897 0.005515 
276.905884 0.004154 
281.479004 0.003728 
282.373322 0.00562 
284.044952 0.006457 
289.631012 0.01242 
298.493073 0.013525 
304.20047 0.019136 
304.224365 0.046871 
305.0271 0.003471 
312.801361 0.004544 
312.990906 0.009211 
331.714569 0.00458 
332.406067 0.012879 
337.335785 0.010174 
338.047577 0.006274 
343.186523 0.010309 
343.911896 0.009913 
351.265411 0.011634 
354.01297 0.009242 
358.956848 0.010296 
361.545929 0.006091 
363.424805 0.006805 
364.014404 0.006626 
374.95755 0.006785 
377.084625 0.006466 
378.7005 0.013863 
384.676239 0.011031 
395.393585 0.006117 
401.53363 0.017076 
401.721405 0.010276 
403.591553 0.004068 
407.916351 0.003991 
411.734802 0.010076 
433.78949 0.005824 
434.440369 0.006197 
442.028656 0.010947 
445.785645 0.014337 
456.349213 0.010252 
462.027344 0.006966 
466.227509 0.006442 
473.664856 0.011347 
475.341309 0.011766 
477.702606 0.010424 
484.167969 0.003757 
486.989075 0.005679 
499.476257 0.015752 
503.342285 0.005614 
510.635986 0.006038 
514.886597 0.00934 
514.936829 0.010321 
516.28772 0.003979 
525.155151 0.004451 
528.341675 0.010151 
531.348755 0.011381 
532.737244 0.009409 
565.138855 0.009414 
612.583313 0.010877 
617.536926 0.010864 
641.343201 0.009797 
648.162231 0.005556 
683.666077 0.012867 
685.953613 0.011023 
699.914917 0.013185 
705.891296 0.004533 
709.697815 0.014015 
710.011902 0.02343 
710.037781 0.030214 
710.131226 0.031992 
710.2005 0.01383 
710.293762 0.038584 
728.217346 0.00972 
733.284241 0.005968 
768.694458 0.014509 
771.485229 0.010159 
780.606384 0.004474 
794.770752 0.011789 
796.054932 0.015387 
812.053589 0.013097 
820.046692 0.006495 
841.725891 0.011246 
856.225586 0.004425 
858.275146 0.006841 
867.016296 0.004701 
867.446899 0.009154 
930.10498 0.015905 
995.569702 0.010473 
1057.994385 0.011582 
1099.980957 0.004868 
1120.270386 0.010974 
1135.125488 0.004611 
1190.289673 0.006411 
1217.384521 0.007249 
1240.098389 0.010734 
1242.285889 0.015061 
1252.153687 0.012581 
1294.007324 0.015615 
1324.650269 0.00451 
1328.46936 0.012128 
END IONS

