BEGIN IONS
PEPMASS=355.305
CHARGE=1+
COMPOUNDNAME=2,4-dihydroxy-6-methyl-3-[(2E,6E)-3,7,11-trimethyldodeca-2,6,10-trienyl]benzaldehyde
LIBRARYQUALITY=3
SMILES=N/A
INCHIKEY=QAPOXOGEDXIOHD-VZRGJMDUSA-N
INCHI=InChI=1S/C23H32O3/c1-16(2)8-6-9-17(3)10-7-11-18(4)12-13-20-22(25)14-19(5)21(15-24)23(20)26/h8,10,12,14-15,25-26H,6-7,9,11,13H2,1-5H3/b17-10+,18-12+
MSLEVEL=2
SOURCE_INSTRUMENT=N/A-Linear Ion Trap
FILENAME=library_mgf.mgf
SEQ=*..*
IONMODE=negative
ORGANISM=MONA
NAME=2,4-dihydroxy-6-methyl-3-[(2E,6E)-3,7,11-trimethyldodeca-2,6,10-trienyl]benzaldehyde M-H
PI=MoNA
DATACOLLECTOR=MoNA:VF-NPL-LTQ000874
PUBMED=N/A
SUBMITUSER=mwang87
TAGS=
SPECTRUMID=CCMSLIB00004685105
SCANS=726
134.960007 26.083267 
135.960007 100.0 
162.020004 6.960732 
201.009995 23.640759 
205.029999 22.064041 
257.079987 15.149862 
271.079987 67.644905 
287.209991 10.678634 
311.190002 49.174366 
END IONS

