BEGIN IONS
PEPMASS=266.09
CHARGE=1+
COMPOUNDNAME=MoNA:811793 1-(6-amino-9H-purin-9-yl)-1-deoxy-beta-delta-Ribofuranose
LIBRARYQUALITY=3
SMILES=N/A
INCHIKEY=OIRDTQYFTABQOQ-KQYNXXCUSA-N
INCHI=InChI=1S/C10H13N5O4/c11-8-5-9(13-2-12-8)15(3-14-5)10-7(18)6(17)4(1-16)19-10/h2-4,6-7,10,16-18H,1H2,(H2,11,12,13)/t4-,6-,7-,10-/m1/s1
MSLEVEL=2
SOURCE_INSTRUMENT=LC-ESI-QFT-LC-ESI-QFT
FILENAME=output_mgf.mgf
SEQ=*..*
IONMODE=
ORGANISM=MONA
NAME=MoNA:811793 1-(6-amino-9H-purin-9-yl)-1-deoxy-beta-delta-Ribofuranose [M-H]-
PI=MoNA
DATACOLLECTOR=MoNA
PUBMED=N/A
SUBMITUSER=mwang87
TAGS=
SPECTRUMID=CCMSLIB00000568335
SCANS=5586
64.0065 0.167683 
65.0145 6.438881 
66.0097 0.27219 
68.0254 2.485829 
80.0255 1.516608 
92.0255 33.20233 
106.0285 0.290576 
107.0363 88.118969 
133.0395 0.367091 
134.0472 100.0 
END IONS

