BEGIN IONS
PEPMASS=377.209
CHARGE=1+
COMPOUNDNAME=Aphidicolin
LIBRARYQUALITY=3
SMILES=N/A
INCHIKEY=NOFOAYPPHIUXJR-APNQCZIXSA-N
INCHI=InChI=1S/C20H34O4/c1-17(11-21)15-4-3-13-9-14-10-19(13,7-8-20(14,24)12-22)18(15,2)6-5-16(17)23/h13-16,21-24H,3-12H2,1-2H3/t13-,14+,15-,16+,17-,18-,19-,20-/m0/s1
MSLEVEL=2
SOURCE_INSTRUMENT=N/A-ESI-QFT
FILENAME=library_mgf.mgf
SEQ=*..*
IONMODE=positive
ORGANISM=MONA
NAME=Aphidicolin [M+K]+
PI=MoNA
DATACOLLECTOR=MoNA:VF-NPL-QEHF004575
PUBMED=N/A
SUBMITUSER=mwang87
TAGS=
SPECTRUMID=CCMSLIB00004695638
SCANS=4575
50.195824 0.15807 
50.697575 0.171609 
50.840298 0.18812 
51.060741 0.167179 
51.65036 0.148413 
51.940769 1.808988 
51.962528 0.175008 
52.499969 0.176834 
52.650246 0.161477 
52.972023 0.164867 
53.003021 5.469474 
53.03941 12.508711 
53.348755 0.178118 
53.603622 0.161638 
53.640701 0.166027 
53.650818 0.175595 
53.891785 0.187073 
53.998356 0.180944 
54.034771 0.260492 
54.250591 0.160742 
54.40477 0.177247 
55.018654 24.521816 
55.055038 100.0 
55.935127 0.257283 
56.024944 0.192318 
56.050282 24.844004 
56.058414 3.777697 
56.965584 17.145599 
57.034302 13.092887 
57.053658 1.477561 
57.058163 0.188248 
57.070679 55.571541 
57.291412 0.165808 
58.062889 0.418094 
58.065918 22.675673 
58.074062 4.220541 
58.433189 0.148602 
59.049927 16.035465 
59.061165 0.884659 
59.069332 0.415367 
59.691647 0.163683 
59.931084 0.755364 
59.990971 0.62752 
60.045162 9.656331 
60.053307 0.217059 
60.056496 0.173164 
60.078362 0.188876 
61.011436 20.000988 
61.814621 0.188167 
62.019249 9.824089 
62.512516 0.172284 
62.982594 0.461702 
62.990707 3.349298 
63.007195 0.657964 
63.010208 0.170461 
63.99855 1.589528 
65.026619 0.151949 
65.039337 9.496033 
66.023491 0.184827 
66.326225 0.176876 
67.018883 0.176048 
67.054977 99.702225 
68.050255 6.913735 
68.058334 5.181352 
68.600288 0.153302 
68.997818 1.372449 
69.03421 20.362436 
69.045364 0.157681 
69.070595 58.559109 
69.37294 0.195363 
70.029488 3.397496 
70.064041 0.260585 
70.065834 31.297209 
70.07399 2.365684 
70.49263 0.17878 
70.980881 0.178301 
71.013573 0.8385 
71.049873 20.321062 
71.061119 0.6437 
71.06916 0.368315 
71.086243 15.407164 
71.144196 0.184011 
72.04509 14.360087 
72.081459 9.785303 
72.089737 0.618978 
72.937843 1.370447 
73.029083 3.18695 
73.047523 0.223517 
73.065506 5.798802 
73.084885 0.172193 
73.712524 0.160389 
74.024338 2.142395 
74.060745 12.717074 
74.097084 1.499516 
74.976067 0.205297 
75.044701 0.395605 
75.06395 0.190315 
75.37632 0.176105 
75.741364 0.170317 
77.039421 1.208977 
77.959877 0.392232 
78.967659 0.445659 
79.021866 12.110704 
79.054893 77.09111 
79.180618 0.195059 
79.956467 0.158968 
80.047905 0.172581 
80.050133 7.571517 
80.058228 4.201755 
80.497681 0.168873 
80.843445 0.187053 
81.034164 11.243415 
81.045265 0.239755 
81.070503 95.337624 
82.029327 1.289349 
82.065788 9.394234 
82.073853 5.507334 
83.049774 27.244802 
83.06102 0.485493 
83.086143 26.886147 
83.184189 0.161206 
84.044998 8.545551 
84.07856 0.247256 
84.081375 42.931244 
84.089432 0.934433 
84.839516 0.174567 
85.011375 0.170111 
85.02903 5.136787 
85.040245 1.41333 
85.06543 11.187533 
85.084709 0.869164 
85.101814 2.251496 
85.722816 0.167528 
86.024437 0.193692 
86.060661 10.480971 
86.097023 18.495905 
87.04467 11.4585 
87.829689 0.187493 
88.022125 3.909915 
88.039894 1.504041 
88.076286 45.367832 
88.968987 0.261039 
88.991486 0.225494 
89.060326 9.940382 
89.079628 10.448127 
90.948288 1.468033 
90.967461 0.208117 
91.054825 98.591034 
91.057854 7.210099 
92.050034 5.378849 
92.057991 8.177311 
92.061111 0.218317 
92.336914 0.191653 
92.983185 0.718531 
93.054756 1.72511 
93.057854 5.845483 
93.070419 82.43412 
93.073807 1.336703 
94.029091 0.27182 
94.065697 11.465137 
94.073715 5.610937 
94.469238 0.175147 
95.013481 0.200129 
95.04966 38.27422 
95.060829 1.886922 
95.069084 0.235867 
95.073494 0.222433 
95.086037 81.582085 
95.445564 0.188926 
95.952209 0.242758 
96.044952 10.035992 
96.052963 1.770444 
96.081345 5.421356 
96.089409 5.141794 
97.011124 0.452771 
97.028908 4.404259 
97.040138 1.958697 
97.065315 23.999432 
97.101707 8.6229 
97.43 0.180002 
97.874451 0.185262 
98.024315 0.833008 
98.060524 6.538727 
98.096954 7.019476 
99.026642 0.200758 
99.044548 9.643581 
99.055824 0.441356 
99.066933 0.184228 
99.080978 3.22093 
100.039787 1.142307 
100.07618 4.451037 
100.112556 2.401671 
100.957619 0.261219 
101.060181 2.592614 
102.055359 0.479318 
102.948578 0.183997 
103.054672 9.571272 
104.058167 0.215627 
104.062416 0.67026 
104.903976 0.179989 
105.033958 22.591875 
105.045143 6.350725 
105.070343 90.417686 
106.037407 0.490619 
106.065582 23.691654 
106.073677 7.012811 
106.077454 0.307452 
107.049545 22.448339 
107.073372 12.265687 
107.085938 61.081402 
108.044876 4.600593 
108.052765 0.922964 
108.077354 0.605554 
108.081146 9.12072 
108.089325 3.506151 
108.28157 0.172395 
108.958824 0.740863 
109.028748 1.842962 
109.052773 0.417789 
109.061295 0.352864 
109.065163 18.523384 
109.076363 0.691984 
109.101608 27.249609 
110.024216 0.255698 
110.060478 13.485326 
110.064217 0.201314 
110.068596 0.428916 
110.096764 4.131691 
110.10479 0.516154 
110.939644 0.457055 
111.026764 0.296373 
111.044388 5.535173 
111.05555 0.90708 
111.080833 9.856921 
111.117065 0.185267 
112.039764 2.711934 
112.076103 3.234505 
112.11245 0.848921 
113.060158 2.66879 
114.055435 0.847627 
114.091972 0.417839 
115.039253 0.195064 
115.050606 0.587841 
115.054504 8.697772 
116.053406 0.212781 
116.062416 0.543245 
116.07093 0.3909 
116.107346 4.903457 
116.964287 0.646517 
116.972252 4.360663 
116.985146 0.273754 
117.057678 2.431575 
117.070236 25.4074 
117.970123 1.207625 
117.980003 0.998158 
118.065475 11.750328 
118.073349 1.007152 
118.077782 0.181028 
118.086494 4.84816 
118.932549 0.169931 
118.967667 18.618336 
118.97802 0.223948 
119.001633 0.175661 
119.049461 10.023254 
119.060684 1.881337 
119.073273 4.390525 
119.078285 0.186213 
119.08136 0.276606 
119.085861 47.160423 
119.975487 8.730037 
120.044777 5.681512 
120.076935 0.308954 
120.08107 31.66674 
120.089104 3.378474 
120.093605 1.812515 
120.965218 1.115992 
120.983269 1.667081 
120.995941 0.180698 
121.028687 11.743288 
121.03994 0.933522 
121.065071 15.454717 
121.076324 0.527788 
121.08445 1.675186 
121.088905 10.013813 
121.10144 19.857882 
121.973137 0.190787 
122.060333 16.778919 
122.096733 5.372702 
122.104576 0.76931 
122.939873 0.392599 
123.044418 5.326766 
123.055542 0.253026 
123.06369 0.200626 
123.068153 1.805172 
123.080704 12.166166 
123.091965 0.488008 
123.117126 6.785038 
123.939209 0.246466 
123.947227 0.677758 
124.039536 8.990847 
124.075966 5.0438 
124.11235 1.687282 
124.93663 5.335991 
125.023834 0.423217 
125.059959 7.250497 
125.096405 5.080683 
125.113342 0.192112 
126.055168 5.255729 
126.091759 0.526369 
126.121254 0.191599 
127.075592 0.878356 
127.126419 0.184994 
128.038361 0.271177 
128.062225 9.545737 
128.430862 0.188245 
128.963654 0.693003 
129.070068 16.972431 
129.421906 0.154016 
130.050018 0.825411 
130.065308 10.061007 
130.07312 0.596746 
130.077957 2.976437 
131.000488 0.442959 
131.049332 4.206935 
131.073196 5.829384 
131.085632 23.603451 
132.044647 2.003727 
132.080841 14.530135 
132.088913 0.624544 
132.983139 0.419185 
133.027771 0.214721 
133.05249 0.488554 
133.064972 8.020945 
133.076172 0.902424 
133.088821 6.032846 
133.101273 20.16593 
134.060165 8.673108 
134.096603 13.384594 
134.104584 0.656113 
134.973724 0.335639 
134.978851 1.027901 
134.996353 0.653332 
135.044189 3.511664 
135.080505 11.866579 
135.091965 0.95946 
135.104477 3.571403 
135.117004 13.739431 
136.039413 3.388522 
136.062408 0.25255 
136.075851 9.402009 
136.083572 0.19915 
136.112213 4.212492 
136.608459 0.161634 
137.023087 0.233561 
137.059845 2.729967 
137.083649 0.325227 
137.09613 4.17577 
137.132462 1.739038 
137.985977 1.499166 
138.055038 3.766355 
138.091629 2.62126 
139.039307 0.210013 
139.075485 0.502299 
139.685638 0.177696 
139.923645 0.51609 
140.034302 0.869922 
140.070648 2.412913 
140.10643 0.181915 
140.984894 0.408579 
141.054871 0.502684 
141.070023 5.637947 
141.578171 0.19857 
141.949295 0.19475 
142.049957 0.196143 
142.065109 1.672481 
142.07785 5.424426 
142.086594 0.185412 
143.072845 1.011904 
143.085693 14.476617 
144.057175 0.649291 
144.080933 9.990125 
144.087784 0.435397 
144.815918 0.181579 
145.053055 0.177496 
145.064926 7.384447 
145.076096 1.161813 
145.08873 4.510216 
145.101242 18.33153 
145.377243 0.182997 
146.049011 2.546621 
146.060165 9.068857 
146.072372 0.24868 
146.083984 0.662584 
146.096573 17.528067 
146.103149 0.412737 
146.97438 8.827055 
147.044159 14.169333 
147.067902 0.82424 
147.080627 8.794922 
147.091949 0.31387 
147.104584 13.780393 
147.11058 0.390433 
147.116943 11.497585 
147.970001 0.24951 
147.990494 0.469715 
148.039398 2.290152 
148.046677 0.207221 
148.075836 9.818601 
148.112213 13.059734 
148.118134 0.168257 
148.972122 1.766135 
148.989792 0.217866 
149.011871 0.373 
149.023468 0.503172 
149.041809 0.197642 
149.047806 0.186342 
149.059875 11.514986 
149.083893 0.279326 
149.096161 5.970394 
149.120377 2.341374 
149.132599 0.614304 
149.959793 0.175379 
149.985092 0.286971 
150.055054 5.158748 
150.062744 0.744356 
150.091461 4.873178 
150.128036 1.424081 
150.951218 0.477215 
150.957474 1.194401 
150.968719 0.88509 
151.038544 0.203381 
151.076126 0.27087 
151.111816 1.163528 
151.230911 0.191602 
152.03421 0.214798 
152.070618 2.071324 
152.107269 1.261902 
152.952026 0.645339 
152.989502 5.546229 
153.054932 0.238244 
153.070267 1.932252 
153.949173 0.242647 
153.959457 1.565581 
154.050217 0.680982 
154.06543 0.436769 
154.078125 0.409366 
154.086945 0.237914 
154.122498 0.21728 
154.946915 12.616251 
155.085587 6.092574 
155.948318 0.209203 
155.954895 8.985879 
155.961105 0.216288 
156.027328 0.189245 
156.080811 4.078937 
156.093567 0.916084 
156.944366 0.65416 
156.982193 0.732621 
157.065018 2.514732 
157.088715 0.855157 
157.101334 7.94064 
157.95192 0.404882 
158.060196 2.835348 
158.072464 0.825949 
158.096573 8.803466 
159.044205 1.282049 
159.068115 0.682928 
159.080673 7.672608 
159.092087 1.925067 
159.104477 2.307173 
159.116882 5.935977 
159.990463 0.565263 
160.039719 0.226519 
160.075867 8.250146 
160.082809 0.205959 
160.112167 26.02762 
160.989624 0.567869 
161.059921 3.799309 
161.071152 0.690943 
161.083054 0.282684 
161.096176 7.209034 
161.10791 0.381601 
161.120224 3.427556 
161.13237 1.097412 
162.054993 3.881833 
162.067657 0.189701 
162.091385 9.584083 
162.127869 11.242084 
163.039032 0.952346 
163.075333 0.792965 
163.08696 0.173295 
163.098984 0.649597 
163.111938 1.741461 
163.136093 0.39569 
164.070618 3.017519 
164.107162 3.491871 
164.143494 0.686949 
164.920563 1.899151 
164.9366 1.276366 
165.054993 0.675035 
165.070175 1.664834 
165.127701 0.399197 
165.981277 0.237209 
166.050079 0.863902 
166.086151 0.790584 
166.123016 0.269979 
166.982101 0.178309 
167.060593 1.067297 
167.07283 0.307276 
167.085846 1.308282 
167.10672 2.092068 
168.028839 0.220542 
168.065063 0.202559 
168.080917 0.713823 
168.093414 0.456726 
169.065018 0.645241 
169.076111 0.258449 
169.10144 3.377291 
170.010742 0.217441 
170.060333 3.528036 
170.072128 0.27624 
170.096466 4.007585 
170.10881 0.221572 
170.962723 1.156671 
170.999802 0.231572 
171.080444 3.546359 
171.103592 0.195937 
171.117035 1.788568 
171.960037 1.212937 
172.004639 0.184028 
172.039154 0.754198 
172.075699 6.569662 
172.088089 0.246523 
172.112106 5.828773 
172.957733 9.771957 
173.059753 1.901179 
173.083801 0.505334 
173.096359 3.751782 
173.107651 0.601617 
173.120361 0.453941 
173.132568 0.56256 
174.006088 5.647118 
174.055099 2.707621 
174.067764 0.18457 
174.09166 6.024636 
174.114441 0.195737 
174.127792 12.52309 
174.135239 0.230572 
174.953903 0.183852 
175.004166 0.214761 
175.039047 8.850253 
175.075409 2.231897 
175.086563 0.214489 
175.097748 0.463835 
175.111923 2.298015 
175.122971 0.198181 
175.135773 0.762248 
175.342224 0.189514 
176.034409 4.109905 
176.070862 3.226204 
176.082428 0.180953 
176.10704 3.75624 
176.143631 7.431811 
177.090515 0.436689 
177.14653 0.251313 
177.831787 0.173537 
178.050034 0.773373 
178.078232 0.212512 
178.086395 3.972353 
178.122665 3.091514 
178.97084 3.208055 
179.035019 0.193492 
179.085678 0.736399 
180.081177 0.540432 
180.888336 0.834825 
181.064758 0.736722 
181.076172 0.380821 
181.101135 1.053488 
182.096344 1.276621 
183.080719 0.778985 
183.117126 1.433542 
184.075836 2.326064 
184.112167 3.056445 
185.060364 0.36541 
185.071136 12.099437 
185.095963 0.910088 
185.132584 0.773261 
186.091309 4.17755 
186.128006 5.106569 
187.075714 1.999654 
187.099655 0.221118 
187.111725 0.962382 
187.135361 0.198721 
187.944733 4.482045 
187.954514 0.191238 
188.021713 1.360603 
188.070801 5.432395 
188.106781 2.763677 
188.143555 9.443932 
189.043701 0.215051 
189.054276 0.629683 
189.0914 0.440031 
189.101547 0.224273 
190.049957 2.885908 
190.062653 0.439339 
190.086502 4.13358 
190.122803 7.306223 
190.15918 2.691802 
191.070236 0.405466 
191.080963 0.175207 
191.093597 0.198057 
191.107697 0.197466 
192.065445 0.929163 
192.101791 1.432305 
192.13826 0.325711 
193.098206 0.193065 
194.097 0.19076 
196.076019 2.080904 
197.083496 1.098719 
197.095642 0.564867 
198.055573 0.296439 
198.091507 1.857569 
198.127777 0.542127 
198.898972 0.278557 
199.063278 0.215674 
199.075745 0.498157 
199.086517 0.265632 
199.09758 0.222353 
199.111572 0.240962 
200.070847 3.842049 
200.107086 1.517771 
200.143875 2.70327 
201.06575 0.210382 
201.091446 0.678268 
201.10199 0.223584 
202.086258 2.398551 
202.122711 2.489349 
202.15918 5.715118 
203.07048 8.711165 
203.079803 0.195792 
203.118301 0.212855 
203.143417 1.534867 
203.163361 0.226426 
204.065506 0.832707 
204.078812 0.513847 
204.102112 2.16447 
204.138565 7.321338 
204.174911 4.309004 
205.179062 0.247559 
205.405121 0.227105 
206.017029 0.179128 
206.08168 0.917358 
206.117874 1.47238 
206.153854 0.471213 
206.190399 13.243948 
206.867706 0.345103 
206.977859 1.157456 
207.193741 0.549197 
208.73111 0.195833 
208.883774 0.223889 
209.096268 0.18429 
210.091537 1.663622 
210.127487 0.227121 
210.899521 0.370934 
210.961411 0.454788 
211.075195 0.246865 
211.099365 9.305342 
212.070969 2.095835 
212.106415 0.922578 
212.14296 0.258838 
213.065704 0.481293 
213.09053 0.225573 
214.086456 1.507183 
214.122467 0.8919 
214.158997 0.561734 
215.070435 2.539137 
215.10759 0.251115 
216.065521 2.657761 
216.101868 2.268092 
216.138321 2.567573 
216.174652 2.063725 
217.086334 0.678646 
218.082336 0.655212 
218.117615 3.967649 
218.153885 1.873432 
218.190567 0.603862 
219.174652 1.421765 
220.044922 0.840671 
220.049103 0.799388 
220.06015 1.063705 
220.133575 1.318507 
221.141251 0.277178 
222.899109 0.275647 
224.070938 0.541798 
224.878632 2.616702 
225.078125 1.588788 
225.0905 0.207327 
225.148361 0.185248 
225.88681 0.79584 
226.085846 0.68793 
227.070267 1.252064 
228.078293 0.499501 
228.101471 0.565095 
228.13855 1.810513 
228.174118 0.23043 
229.086044 1.128549 
230.082275 0.595521 
230.117462 1.58714 
230.154129 2.444253 
230.190567 0.515239 
232.098236 0.525896 
232.133133 2.952532 
232.170441 0.540643 
232.904526 2.726525 
233.081406 0.238488 
233.891739 0.268787 
234.149063 4.718427 
234.899155 20.380035 
238.086273 0.298729 
239.093948 2.57199 
240.101669 4.432572 
240.909439 3.012536 
240.964706 3.682255 
242.081802 0.244421 
242.153778 0.628312 
242.190674 0.264459 
242.944244 0.931746 
244.13298 0.802114 
244.169525 1.074942 
244.20668 0.292753 
245.068375 0.272251 
245.081039 0.66881 
246.112839 0.236284 
246.14888 10.279634 
246.18576 0.761061 
246.883255 0.318445 
247.154938 0.281171 
248.128265 0.227951 
248.164108 1.507621 
248.878418 5.355989 
248.914581 0.568103 
249.076248 0.202551 
249.101562 0.26795 
250.894394 0.579716 
252.910248 0.819683 
254.080185 0.608337 
254.117172 0.514763 
255.087845 0.195864 
256.169678 0.725225 
257.067963 0.23246 
257.081482 1.496132 
258.149139 0.609631 
258.185547 0.297826 
258.97522 1.337767 
260.127106 0.244668 
260.164459 4.587765 
260.200897 1.463066 
261.170929 0.989649 
262.085358 0.469327 
262.180084 1.788107 
263.094208 1.485293 
263.116608 0.252326 
264.89447 0.249837 
266.889069 5.218055 
268.978455 0.268744 
272.091309 0.550914 
272.164581 1.518423 
272.201111 0.53034 
274.180328 8.312433 
274.215973 0.800625 
274.920746 0.192077 
275.184967 0.266078 
276.065948 0.219522 
276.159454 1.668737 
277.145905 0.953073 
278.081177 4.39882 
285.087097 0.199189 
286.180084 0.236646 
287.560852 0.181432 
287.829834 0.216591 
288.195984 2.903115 
289.198608 0.225148 
290.081299 0.226407 
290.174561 0.572731 
290.211731 0.224941 
291.02594 0.20201 
291.088531 1.501731 
291.472839 0.18653 
292.032013 0.189393 
292.096954 1.032318 
296.092072 1.27165 
298.107758 0.59584 
299.091705 0.18566 
301.125031 0.287166 
302.081482 1.806035 
302.818207 0.537977 
303.206635 0.280073 
304.095978 0.474603 
304.227356 3.611641 
306.075714 0.258632 
310.844177 0.167253 
312.125092 0.180032 
312.839081 1.435547 
314.211609 0.189731 
316.096741 1.67215 
316.227295 0.747178 
317.101837 0.253752 
318.075867 5.3798 
318.185577 0.475425 
318.207123 0.233357 
320.091888 8.155412 
321.088348 1.236891 
330.242584 0.212612 
332.091583 1.202756 
332.118927 0.573693 
332.940186 0.236238 
334.107758 2.34136 
338.20993 0.179076 
338.437286 0.183686 
342.077179 0.235358 
344.091492 1.182578 
344.829529 0.976095 
344.976379 1.253398 
345.976746 0.476816 
346.106262 0.796193 
346.216949 0.97243 
346.955261 0.205417 
348.086334 3.283122 
358.236938 2.011326 
358.312439 0.183761 
359.105164 0.458956 
360.087158 2.361794 
360.112915 3.253951 
362.101257 0.608907 
372.648804 0.237594 
376.248138 15.006107 
377.251465 3.802687 
378.263123 2.620135 
388.390015 0.197634 
END IONS

