BEGIN IONS
PEPMASS=273.073
CHARGE=1+
COMPOUNDNAME=Citrinin
LIBRARYQUALITY=3
SMILES=N/A
INCHIKEY=CQIUKKVOEOPUDV-IYSWYEEDSA-N
INCHI=InChI=1S/C13H14O5/c1-5-7(3)18-4-8-9(5)6(2)11(14)10(12(8)15)13(16)17/h4-5,7,15H,1-3H3,(H,16,17)/t5-,7-/m1/s1
MSLEVEL=2
SOURCE_INSTRUMENT=N/A-ESI-QFT
FILENAME=library_mgf.mgf
SEQ=*..*
IONMODE=positive
ORGANISM=MONA
NAME=Citrinin [M+Na]+
PI=MoNA
DATACOLLECTOR=MoNA:VF-NPL-QEHF027297
PUBMED=N/A
SUBMITUSER=mwang87
TAGS=
SPECTRUMID=CCMSLIB00004720878
SCANS=27297
51.055172 0.068573 
51.248508 0.053485 
51.314056 0.045122 
52.564091 0.054841 
52.68766 0.066603 
52.945854 0.051756 
53.216465 0.051738 
53.235634 0.041991 
53.702084 0.075135 
55.53598 0.060746 
55.646702 0.049412 
55.648663 0.063206 
55.716553 0.04917 
56.517323 0.053812 
56.965015 2.883359 
57.069969 0.084367 
57.20451 0.063569 
57.935024 11.004214 
58.055992 0.059902 
58.537086 0.077722 
58.932865 3.681977 
59.93042 2.34012 
60.58522 0.074161 
61.010822 72.407494 
61.591 0.058878 
62.014194 0.350665 
62.018612 1.133304 
62.299854 0.070341 
63.006588 0.249375 
63.334354 0.04102 
66.529892 0.087945 
67.032173 0.059586 
67.803818 0.068222 
68.096489 0.074069 
68.857552 0.060232 
70.315277 0.054481 
70.993095 0.072186 
72.958267 1.725033 
73.093384 0.078984 
73.612808 0.054425 
73.617882 0.072647 
73.687408 0.084038 
73.929558 0.090829 
73.953911 0.31794 
73.9561 24.025379 
73.991341 0.084119 
74.094704 0.051182 
74.937584 0.119921 
75.935341 3.371901 
75.94532 9.880179 
76.150177 0.067 
76.537186 0.071312 
76.557762 0.07872 
76.943344 0.156365 
77.216866 0.077581 
77.940826 1.646623 
78.559105 0.050509 
79.008499 0.059014 
79.021111 0.553356 
79.178093 0.060891 
79.245895 0.060373 
80.9021 0.056979 
81.682762 0.076886 
81.706047 0.079995 
85.199203 0.052599 
85.583443 0.054673 
85.81517 0.069229 
86.34568 0.07526 
87.259186 0.074065 
87.853027 0.094825 
87.945053 0.064007 
88.074593 0.071763 
88.528572 0.074285 
88.749474 0.055396 
89.413445 0.081435 
89.951027 0.054749 
90.591599 0.050579 
90.78968 0.043909 
90.904701 0.166097 
91.966621 2.811054 
92.830421 0.079904 
93.945786 0.343679 
93.955864 4.068913 
94.895935 0.084402 
94.953865 0.086042 
95.216522 0.071946 
95.951164 0.220496 
96.788155 0.059508 
98.145576 0.097491 
98.191559 0.089604 
99.848167 0.049345 
99.859978 0.049404 
101.106544 0.060061 
101.816071 0.077175 
102.517944 0.079493 
102.914589 3.527981 
102.947899 0.082384 
103.064697 0.061091 
103.769516 0.074523 
103.912506 0.215946 
104.397217 0.066583 
104.427963 0.081684 
104.545067 0.054278 
104.910301 0.271099 
104.920265 0.835475 
104.930267 6.694716 
105.281776 0.064891 
105.373405 0.058914 
105.928131 3.30007 
105.95578 0.852606 
105.972023 0.077649 
106.925682 1.025465 
107.63472 0.058994 
108.094154 0.058015 
108.895996 0.058502 
109.464844 0.060036 
109.671165 0.067769 
110.033524 0.068482 
110.947121 0.070372 
111.542068 0.058718 
112.441864 0.063558 
113.127579 0.064191 
114.324379 0.069715 
114.722633 0.050051 
115.814285 0.072097 
116.501678 0.062036 
117.053375 0.064749 
117.95594 0.320067 
118.113808 0.064555 
118.121201 0.050697 
118.382797 0.059596 
119.684845 0.075562 
120.915085 0.31189 
120.925171 0.841206 
121.922951 0.74077 
122.654549 0.068002 
122.930763 2.576783 
122.936096 0.161579 
122.940842 21.241173 
123.36071 0.089673 
123.599487 0.079354 
123.938721 8.935381 
123.948845 0.081866 
124.936287 4.68827 
124.946518 2.157625 
127.006393 0.07691 
128.806107 0.078663 
129.300766 0.080101 
131.373535 0.071251 
132.936279 0.168093 
133.871399 0.072893 
134.958511 10.060932 
135.93866 0.19272 
135.949463 0.934632 
135.956497 26.793554 
135.966064 4.657754 
136.946671 0.938507 
136.954803 1.046629 
136.96402 0.117635 
137.440552 0.083346 
137.927917 12.928141 
137.961838 0.400509 
138.925797 4.868858 
138.935715 1.80825 
139.591202 0.062621 
139.923309 2.668081 
139.933319 0.122619 
140.951416 0.097999 
141.949066 0.133644 
142.94725 0.094501 
145.70871 0.088829 
148.276123 0.079224 
150.925385 0.165826 
150.972168 1.62105 
151.201736 0.084964 
151.970001 40.694817 
152.951385 25.542507 
152.968933 12.182472 
153.135117 0.071219 
153.458176 0.100822 
153.959091 100.0 
153.966736 23.598459 
154.946747 5.90458 
154.956924 25.371399 
154.963638 2.847911 
155.95462 26.688513 
156.946243 0.440852 
157.800797 0.090113 
164.951447 0.215982 
165.949203 0.378322 
167.938446 0.158175 
167.974762 0.17744 
168.70668 0.076676 
168.936218 16.163078 
168.982483 3.231564 
169.039825 0.092299 
169.97374 0.061698 
169.980453 6.76084 
170.961792 4.411457 
170.978714 0.65928 
171.977371 0.086952 
172.170929 0.056951 
172.382034 0.061249 
172.957397 0.675072 
179.515121 0.077098 
179.937912 0.149531 
180.936249 2.487606 
185.948929 14.328434 
186.03685 0.080286 
186.946777 30.444296 
186.955872 0.252911 
187.56076 0.059105 
187.944397 3.290638 
194.518356 0.10995 
194.961349 0.156801 
195.959595 0.589111 
196.60257 0.059387 
196.832275 0.064536 
197.948807 0.446909 
198.946747 4.794594 
201.053772 0.097543 
204.532471 0.064055 
205.211975 0.085466 
210.033981 0.087326 
210.702759 0.060954 
210.880157 0.061774 
212.405518 0.085062 
212.766464 0.071601 
212.97229 0.083054 
213.969925 0.604752 
214.400909 0.079112 
217.120316 0.075492 
217.852036 0.065581 
219.741852 0.425779 
219.750687 0.888857 
220.741486 0.05229 
225.260834 0.072194 
232.26181 0.05681 
238.862366 0.05438 
244.420364 0.086442 
245.41217 0.049294 
262.754669 0.04881 
265.586548 0.061348 
266.959595 0.080136 
269.107025 0.063495 
269.882812 0.05346 
269.899017 0.056048 
273.054932 0.060049 
284.912415 0.060867 
293.564575 0.073502 
293.928833 0.063444 
298.0159 0.045641 
END IONS

