BEGIN IONS
PEPMASS=265.131
CHARGE=1+
COMPOUNDNAME=Huperzine A
LIBRARYQUALITY=3
SMILES=N/A
INCHIKEY=ZRJBHWIHUMBLCN-UHFFFAOYSA-N
INCHI=InChI=1S/C15H18N2O/c1-3-11-10-6-9(2)8-15(11,16)12-4-5-14(18)17-13(12)7-10/h3-6,10H,7-8,16H2,1-2H3,(H,17,18)
MSLEVEL=2
SOURCE_INSTRUMENT=N/A-ESI-QFT
FILENAME=library_mgf.mgf
SEQ=*..*
IONMODE=positive
ORGANISM=MONA
NAME=Huperzine A [M+Na]+
PI=MoNA
DATACOLLECTOR=MoNA:VF-NPL-QEHF027221
PUBMED=N/A
SUBMITUSER=mwang87
TAGS=
SPECTRUMID=CCMSLIB00004720802
SCANS=27221
50.530243 0.832819 
51.699429 1.393276 
52.19936 0.705616 
53.10524 1.000688 
54.390259 1.127886 
54.53186 1.33442 
54.729893 1.363009 
55.040787 0.468265 
55.314976 0.478918 
56.742516 0.194268 
58.511337 1.191973 
59.45406 1.132037 
59.652416 0.959475 
61.19717 0.993474 
64.659966 0.471161 
64.769829 0.991426 
65.145042 1.022071 
65.865822 1.340777 
65.971809 0.485897 
67.340919 0.694145 
69.231674 0.597773 
69.338531 0.464051 
69.939034 0.992683 
70.928322 1.38568 
72.419998 1.220806 
74.746521 0.113476 
74.981842 0.133993 
75.007118 0.976319 
75.640663 1.018159 
76.607384 0.905687 
76.966446 0.94164 
80.2705 1.064934 
80.367836 1.174347 
81.152634 1.179604 
81.206154 0.508547 
82.574074 0.976655 
82.815041 0.133083 
83.244827 0.427357 
83.532295 0.460294 
83.68943 0.859537 
86.43541 1.28175 
87.782082 0.154746 
87.996155 0.434046 
88.053238 0.960225 
90.244537 1.226982 
90.281853 0.452329 
90.506538 0.113591 
91.623413 1.189176 
92.96698 0.947779 
94.44545 1.508344 
100.33313 1.002488 
100.757233 1.294976 
101.553383 0.617418 
101.72168 1.299572 
103.698334 0.582884 
109.627464 0.175606 
109.90773 1.110088 
110.197289 0.650957 
111.335701 1.049674 
115.214485 0.751244 
116.431679 0.572149 
117.374878 1.378176 
118.685242 1.200064 
119.076309 0.953677 
119.601204 1.544825 
119.721687 0.577042 
120.657158 0.51652 
125.268005 0.185995 
125.753403 1.02809 
128.641525 1.341619 
128.725296 0.645335 
128.910507 0.482182 
130.174835 1.101617 
130.271469 1.015139 
131.376328 1.084318 
133.174805 0.69206 
133.18457 0.174621 
133.598877 0.459141 
134.717957 0.941117 
135.43927 1.302169 
138.131058 1.081186 
138.448105 1.033294 
140.32019 0.646729 
140.383591 1.057756 
140.491989 0.491277 
141.391891 1.062337 
150.360916 1.14257 
152.820023 1.054956 
152.826904 1.29546 
154.375641 1.386921 
156.536179 1.087026 
157.323898 1.165729 
158.868805 0.190065 
160.156021 0.549639 
173.491394 1.358207 
174.893509 1.204202 
179.382568 1.030179 
183.951462 1.309044 
184.17868 1.055746 
185.251114 1.080007 
190.695969 1.179376 
198.266693 1.129196 
205.482254 1.186909 
208.00444 1.263727 
215.929626 24.076204 
215.937256 10.427561 
216.030243 0.928177 
219.174088 1.185538 
223.184341 0.13272 
223.590256 1.321186 
238.334335 1.033878 
240.542282 0.139637 
251.904099 1.18383 
259.0242 1.156189 
263.835449 0.206641 
265.130981 100.0 
266.13382 3.593391 
271.921906 1.306344 
272.726837 0.221344 
278.219727 0.725591 
280.604218 1.067371 
284.160675 1.259006 
288.162079 1.384798 
END IONS

