BEGIN IONS
PEPMASS=1202.85
CHARGE=1+
COMPOUNDNAME=CYCLOSPORINE
LIBRARYQUALITY=3
SMILES=N/A
INCHIKEY=PMATZTZNYRCHOR-KMSBSJHKSA-N
INCHI=InChI=1S/C62H111N11O12/c1-25-27-28-40(15)52(75)51-56(79)65-43(26-2)58(81)67(18)33-48(74)68(19)44(29-34(3)4)55(78)66-49(38(11)12)61(84)69(20)45(30-35(5)6)54(77)63-41(16)53(76)64-42(17)57(80)70(21)46(31-36(7)8)59(82)71(22)47(32-37(9)10)60(83)72(23)50(39(13)14)62(85)73(51)24/h25,27,34-47,49-52,75H,26,28-33H2,1-24H3,(H,63,77)(H,64,76)(H,65,79)(H,66,78)/b27-25+/t40-,41?,42?,43?,44?,45?,46?,47?,49?,50?,51?,52-/m1/s1
MSLEVEL=2
SOURCE_INSTRUMENT=N/A-ESI-QFT
FILENAME=library_mgf.mgf
SEQ=*..*
IONMODE=positive
ORGANISM=MONA
NAME=CYCLOSPORINE [M+H]+
PI=MoNA
DATACOLLECTOR=MoNA:VF-NPL-QEHF028187
PUBMED=N/A
SUBMITUSER=mwang87
TAGS=
SPECTRUMID=CCMSLIB00004721768
SCANS=28187
83.017174 0.041763 
83.049103 0.043237 
83.085411 0.140394 
83.354591 0.038572 
84.080727 2.823899 
84.226212 0.05312 
85.52906 0.027153 
86.060097 0.381224 
86.096367 11.90405 
86.099045 0.072063 
87.099808 0.103859 
87.111595 0.038736 
87.730637 0.040516 
88.039131 0.211486 
88.045753 0.025392 
88.757851 0.029951 
91.054161 0.207991 
92.952606 0.027541 
94.065025 0.164441 
95.085457 0.509431 
96.080727 2.478879 
96.758865 0.01577 
97.101158 0.104277 
98.060051 0.087568 
98.096405 1.305958 
98.335159 0.039431 
99.091583 0.236045 
99.132111 0.027476 
99.91877 0.027296 
100.03923 25.847219 
100.075638 1.341211 
100.112 100.0 
101.042694 0.284007 
101.115417 4.734479 
102.712761 0.018201 
103.086525 0.191525 
103.143471 0.040711 
103.148499 0.039785 
103.867599 0.03767 
105.06971 0.427886 
106.140572 0.01791 
106.947266 0.019979 
107.085449 6.901484 
107.844833 0.035022 
107.900352 0.043876 
108.080666 0.417994 
108.088776 0.056896 
109.088509 1.282837 
109.101082 3.282916 
109.816833 0.028131 
110.059837 0.053762 
110.096275 0.705098 
111.067886 0.288769 
111.140984 0.030886 
112.075661 0.374031 
112.111862 0.470499 
112.292862 0.020963 
112.651489 0.038954 
112.860558 0.037119 
113.070786 0.044138 
113.107437 0.023406 
113.654846 0.022872 
114.091293 22.864265 
114.873863 0.037714 
115.086365 0.038786 
115.09462 0.728313 
117.102257 0.048886 
117.241989 0.020087 
118.742638 0.022982 
119.165596 0.03118 
121.088776 0.031374 
122.096413 0.448447 
123.104149 0.415844 
123.636047 0.024554 
124.022064 0.020198 
124.075714 0.509931 
124.112061 0.365003 
125.070862 0.181286 
125.096016 7.204681 
125.107124 0.085857 
125.338707 0.040301 
125.729851 0.018984 
126.05484 3.284111 
126.099342 0.042892 
126.127678 0.301363 
126.47715 0.04767 
126.880539 0.035647 
127.082031 0.045199 
127.086433 3.346747 
128.106842 43.586224 
128.112091 0.655464 
128.422394 0.028624 
128.82106 0.047156 
129.102112 1.267953 
129.110138 2.104991 
130.708527 0.03968 
130.941299 0.037972 
131.960709 0.016404 
132.904205 0.024655 
135.080246 1.619612 
136.106491 0.066916 
136.111893 8.115653 
137.096161 0.045678 
137.115524 0.022964 
138.054901 2.387519 
138.090805 0.071867 
138.127548 13.55181 
138.297913 0.021767 
139.086563 0.513476 
139.117828 0.026864 
139.131042 0.530346 
140.070496 3.100953 
140.106949 0.025789 
140.143356 0.08729 
140.92984 0.044768 
141.102097 0.214322 
142.086197 7.926254 
143.081436 2.80882 
143.08873 0.021315 
143.15416 0.126798 
143.326828 0.048451 
145.360291 0.040634 
145.912476 0.028186 
146.117538 0.374988 
146.840485 0.037251 
148.111969 0.072316 
148.928894 0.027736 
149.430679 0.041594 
150.127625 0.211764 
150.255829 0.026325 
151.098969 0.021272 
151.577011 0.044552 
151.636154 0.046592 
151.817245 0.047612 
152.070465 2.336208 
152.143372 0.186508 
153.102112 5.557027 
154.086182 0.441745 
154.0979 0.055047 
154.105835 0.021639 
154.122681 0.252485 
155.081375 0.685454 
155.117874 0.134227 
155.154266 0.493492 
155.922806 0.043708 
156.101715 27.553175 
156.138123 66.573631 
157.097046 6.764312 
157.104889 1.633663 
157.134628 0.163099 
157.141418 4.756839 
158.080688 0.0682 
159.197937 0.025678 
159.400269 0.024751 
163.35556 0.029552 
164.106766 0.026192 
164.143143 0.051589 
165.018631 0.043878 
166.114792 0.078442 
166.122482 25.69614 
166.158813 0.143867 
167.081604 0.122639 
167.094101 1.673622 
167.118271 0.480873 
167.125931 1.928613 
168.101822 6.353099 
168.125641 0.044678 
168.13826 0.470372 
169.105179 0.050827 
169.133392 1.817813 
170.117416 5.143848 
171.121185 0.029321 
171.149048 32.890732 
171.157394 0.65633 
171.910492 0.020605 
172.152527 2.338446 
173.302521 0.022714 
180.791 0.041906 
181.109863 0.356894 
182.117416 15.483099 
182.125793 0.220746 
182.141418 0.094051 
183.076172 0.046209 
183.121033 0.794511 
183.1492 0.45823 
184.133087 7.263042 
185.092041 0.806141 
185.128479 0.235941 
185.136581 0.181715 
192.137726 0.28792 
193.133652 0.864847 
194.117447 5.438562 
195.121078 0.073935 
195.185593 0.63201 
197.092026 0.109177 
199.107986 2.112661 
199.143967 57.765842 
199.180328 1.754028 
200.14743 4.629209 
202.136673 0.049215 
209.164902 2.183281 
210.148743 16.862202 
210.185593 0.155892 
210.48938 0.030713 
211.152176 1.286651 
212.128235 0.143508 
213.122833 0.075602 
213.15976 0.070279 
214.118149 0.133374 
219.915802 0.028897 
220.132767 0.186379 
223.180237 8.127218 
224.164246 37.322285 
225.168152 3.825662 
226.118652 1.033051 
226.180191 2.277174 
227.138855 0.647585 
227.175201 1.749843 
227.549164 0.04657 
228.134308 1.300871 
228.863373 0.046033 
229.124664 0.027365 
229.13858 0.045173 
232.335541 0.036621 
234.811752 0.020899 
235.675842 0.034482 
237.159515 0.217862 
239.174698 0.112619 
241.170166 0.021494 
241.177643 0.046565 
241.190842 14.141451 
242.194534 1.338925 
251.174973 5.885877 
252.178513 0.10461 
252.206543 3.700189 
253.154663 1.639808 
253.210876 0.07293 
254.585037 0.042434 
254.967072 0.024375 
256.166138 0.064169 
261.997437 0.038428 
267.729858 0.041255 
268.445648 0.02393 
269.185608 4.0614 
270.180511 6.03825 
271.184631 0.075325 
275.387848 0.029456 
279.170166 0.433162 
281.476349 0.040391 
284.196625 1.194361 
290.07193 0.02662 
290.185486 0.020404 
292.841339 0.020839 
295.709869 0.04544 
298.212067 7.28307 
299.215485 0.403812 
304.164459 0.120887 
304.186768 0.1295 
305.217163 0.028411 
309.181274 0.096794 
316.376038 0.05175 
322.212463 1.854502 
322.769653 0.037729 
323.212036 0.062453 
323.232574 12.685379 
323.907867 0.041382 
324.235962 1.651152 
326.243439 0.32109 
328.023224 0.049611 
337.185181 0.03531 
340.224152 0.288654 
341.218384 1.335109 
341.86322 0.046185 
345.229523 0.02389 
348.876556 0.050273 
350.207214 0.10513 
351.877197 0.028712 
354.274811 0.809699 
355.233429 0.087781 
364.258514 0.133513 
397.006012 0.040236 
397.28067 0.330767 
399.164185 0.037324 
401.094147 0.044659 
405.819336 0.04129 
410.133301 0.054667 
412.268524 0.045662 
420.470062 0.062468 
423.410645 0.045601 
425.311584 3.893655 
426.314667 0.282976 
427.059113 0.018254 
429.835175 0.047127 
432.8349 0.019831 
458.646454 0.04445 
461.768646 0.036959 
477.930511 0.039276 
492.231964 0.049451 
508.5495 0.021174 
516.874695 0.020134 
526.481995 0.02614 
564.293945 0.044435 
570.687378 0.03881 
575.638489 0.021386 
583.481506 0.040556 
587.535767 0.019839 
597.914307 0.04695 
608.486206 0.04477 
611.301575 0.025115 
613.841187 0.030373 
619.160461 0.055675 
619.54834 0.026386 
624.7453 0.04106 
646.573181 0.03897 
648.616272 0.049301 
671.701355 0.051264 
708.152161 0.077856 
708.291626 0.046354 
708.37207 0.035501 
708.50592 0.024926 
708.625732 0.251156 
722.172546 0.055081 
731.882263 0.028998 
738.230835 0.045591 
738.314697 0.046881 
742.366638 0.040051 
777.165161 0.05001 
819.777161 0.059884 
848.560486 0.021664 
863.764832 0.041549 
866.451843 0.038556 
866.89502 0.02529 
884.874023 0.039242 
900.340515 0.021514 
916.879639 0.041115 
922.403748 0.019573 
935.675049 0.01791 
984.031799 0.051734 
997.944824 0.061913 
1006.07782 0.04682 
1011.324402 0.023638 
1014.250122 0.025486 
1018.28717 0.025246 
1051.36731 0.046716 
1067.259644 0.034456 
1071.561523 0.056744 
1147.065552 0.021562 
1206.738037 0.061216 
1237.126587 0.029109 
END IONS

