BEGIN IONS
PEPMASS=176.102
CHARGE=1+
COMPOUNDNAME=Spectral Match to L-Citrulline from NIST14
LIBRARYQUALITY=3
SMILES=NC(C(O)=O)CCCNC(N)=O
INCHIKEY=RHGKLRLOHDJJDR-UHFFFAOYSA-N
INCHI=InChI=1S/C6H13N3O3/c7-4(5(10)11)2-1-3-9-6(8)12/h4H,1-3,7H2,(H,10,11)(H3,8,9,12)
MSLEVEL=2
SOURCE_INSTRUMENT=LC-ESI-qTof
FILENAME=MSV000078556/ccms_peak/Human_Swabs/Man/3m__BE2_01_1155.mzXML
SEQ=*..*
IONMODE=Positive
ORGANISM=GNPS-NIST14-MATCHES
NAME=Spectral Match to L-Citrulline from NIST14 M+H
PI=Data from Pieter Dorrestein
DATACOLLECTOR=Data deposited by mwang87
PUBMED=N/A
SUBMITUSER=mwang87
TAGS=
SPECTRUMID=CCMSLIB00003139359
SCANS=132
79.06588 76.0 
86.687263 88.0 
96.043457 104.0 
97.07222 140.0 
98.059891 96.0 
99.045662 80.0 
99.061493 100.0 
100.515251 96.0 
101.650604 112.0 
106.044785 100.0 
108.449554 76.0 
110.005844 76.0 
110.973419 80.0 
112.084106 68.0 
112.853683 92.0 
113.018486 88.0 
113.069664 2708.0 
114.054581 824.0 
115.085121 852.0 
116.016144 80.0 
116.070152 1020.0 
117.072113 136.0 
118.083923 372.0 
120.058983 96.0 
124.988785 76.0 
128.981918 100.0 
129.016495 84.0 
130.095718 624.0 
131.098526 88.0 
131.983246 96.0 
133.096344 640.0 
139.999619 88.0 
141.063828 88.0 
141.097977 76.0 
142.050385 124.0 
143.053024 104.0 
145.050247 88.0 
147.010681 88.0 
147.049255 92.0 
151.526077 80.0 
152.980804 80.0 
153.0177 100.0 
154.709442 80.0 
154.766327 100.0 
155.028305 292.0 
155.23909 80.0 
156.027817 108.0 
157.109375 148.0 
157.45903 104.0 
157.576309 108.0 
158.091476 516.0 
158.997986 64.0 
159.037064 100.0 
159.076065 24092.0 
160.07843 1792.0 
161.013947 84.0 
161.050461 76.0 
161.077927 384.0 
164.034653 184.0 
166.540009 76.0 
174.021652 92.0 
174.092224 96.0 
174.129196 168.0 
174.152802 108.0 
175.046005 80.0 
175.118073 5264.0 
175.543503 100.0 
176.102249 7596.0 
177.029648 76.0 
177.058746 76.0 
177.105591 724.0 
178.028305 96.0 
178.059692 216.0 
178.084518 64.0 
178.1073 96.0 
183.018051 84.0 
185.027313 88.0 
207.016968 84.0 
263.077087 84.0 
END IONS

