BEGIN IONS
PEPMASS=576.34
CHARGE=1+
COMPOUNDNAME=destruxin A
LIBRARYQUALITY=3
SMILES=N/A
INCHIKEY=XIYSEKITPHTMJT-UHFFFAOYSA-N
INCHI=InChI=1S/C29H47N5O7/c1-9-12-21-27(38)34-16-11-13-20(34)26(37)31-23(18(5)10-2)28(39)33(8)24(17(3)4)29(40)32(7)19(6)25(36)30-15-14-22(35)41-21/h9,17-21,23-24H,1,10-16H2,2-8H3,(H,30,36)(H,31,37)
MSLEVEL=2
SOURCE_INSTRUMENT=N/A-ESI-QFT
FILENAME=library_mgf.mgf
SEQ=*..*
IONMODE=negative
ORGANISM=MONA
NAME=destruxin A [M-H]-
PI=MoNA
DATACOLLECTOR=MoNA:VF-NPL-QEHF017772
PUBMED=N/A
SUBMITUSER=mwang87
TAGS=
SPECTRUMID=CCMSLIB00004708835
SCANS=17772
50.810146 0.037878 
50.938358 0.03165 
51.031967 0.064266 
51.384521 0.031151 
51.542934 0.032196 
52.198536 0.060584 
52.474537 0.023616 
52.505016 0.041731 
52.819767 0.044321 
52.994778 0.103648 
53.280811 0.069653 
54.615803 0.031818 
54.661598 0.02344 
54.716064 0.026147 
55.264595 0.040805 
55.456223 0.030625 
55.945675 0.039524 
56.001457 0.071758 
56.026173 0.042528 
56.863796 0.07915 
56.9758 0.07628 
56.994141 0.062911 
57.331192 0.069114 
57.820728 0.036379 
58.016319 0.031472 
58.490517 0.024589 
59.012398 0.044788 
59.688671 0.037126 
59.94997 0.05339 
60.055801 0.027581 
60.64711 0.027239 
61.004719 0.041498 
61.194454 0.062921 
61.98698 3.196749 
62.130547 0.040808 
63.733936 0.026675 
63.961029 0.034519 
64.171074 0.064315 
65.278351 0.056019 
65.439545 0.028077 
66.858475 0.03292 
67.414841 0.026686 
67.535095 0.042026 
68.3881 0.041757 
69.033089 0.040006 
69.751427 0.073196 
69.907059 0.06783 
70.028511 0.256377 
70.324844 0.077395 
70.664818 0.069915 
70.758408 0.044155 
71.00119 0.190213 
71.012474 100.0 
71.02346 0.241791 
71.107521 0.064944 
71.478264 0.062084 
71.603951 0.083555 
71.859337 0.027337 
72.015869 2.187324 
72.126617 0.032128 
73.284531 0.035514 
73.856064 0.030338 
74.103043 0.069422 
74.583199 0.063761 
74.694534 0.058431 
74.830666 0.041673 
74.842125 0.025028 
74.936432 0.056316 
75.531876 0.081859 
75.689781 0.038194 
75.908089 0.044376 
75.979492 0.072118 
76.521637 0.040952 
76.55191 0.065297 
77.069702 0.02896 
78.575089 0.053949 
78.984161 0.024673 
79.005753 0.065994 
79.139244 0.069629 
79.321426 0.041883 
79.55719 0.043548 
79.809273 0.081638 
79.883247 0.028659 
79.956001 0.299121 
80.581749 0.076873 
81.036903 0.068992 
81.167442 0.038676 
82.064934 0.067693 
82.149635 0.094379 
82.231171 0.029729 
82.892937 0.063786 
83.067009 0.070942 
83.745445 0.025751 
84.332001 0.028177 
84.389404 0.070199 
84.687279 0.031445 
86.756996 0.073446 
86.90213 0.071849 
89.021271 0.026909 
89.547897 0.095451 
90.244881 0.09044 
91.152534 0.062699 
92.026398 0.055043 
92.388092 0.036065 
92.905693 0.026973 
93.026871 0.029073 
94.118835 0.042496 
94.691422 0.084566 
94.811951 0.023668 
94.97953 1.785982 
95.644966 0.080331 
96.044151 0.319031 
96.932343 0.068613 
96.958755 0.365841 
98.228645 0.029861 
98.44249 0.028837 
99.82579 0.030693 
101.070778 7.571637 
102.219345 0.043757 
106.822014 0.062279 
107.350121 0.060828 
107.798798 0.07043 
108.031624 0.034681 
108.40226 0.024489 
109.188141 0.078422 
110.042786 0.037736 
110.974014 0.074921 
111.055084 0.236992 
111.418205 0.08261 
111.744286 0.04467 
111.878693 0.02868 
112.026581 2.685298 
112.548241 0.033407 
112.571968 0.041107 
112.888771 0.023404 
113.0709 0.131615 
113.622002 0.055709 
113.632942 0.073061 
114.054855 0.215575 
114.981979 0.052488 
115.789169 0.086232 
116.29361 0.080711 
116.815826 0.044975 
117.032761 0.030221 
117.829063 0.024821 
117.935638 0.043726 
120.913963 0.045047 
121.272118 0.071238 
121.462456 0.028262 
122.962517 0.041177 
124.075523 0.214138 
124.747917 0.036773 
125.03447 0.244566 
127.050163 3.137938 
128.534149 0.033786 
129.427841 0.083725 
131.031265 0.064663 
132.507462 0.027775 
132.876175 0.030737 
136.111588 0.034854 
137.796982 0.069312 
139.049683 0.043465 
139.387161 0.06196 
139.706055 0.029453 
139.978928 0.040906 
141.352036 0.032051 
143.117798 0.819575 
147.026489 0.04221 
148.417267 0.069306 
150.091461 0.044236 
150.856277 0.030215 
150.930832 0.043737 
152.057541 0.046168 
153.065948 0.810149 
154.538437 0.087111 
155.739777 0.080764 
159.26268 0.030174 
160.252655 0.031796 
160.521622 0.068739 
164.981049 0.065457 
165.102356 1.062797 
167.117752 0.023954 
168.089478 0.752404 
169.097473 0.10284 
169.520996 0.02698 
172.412262 0.071567 
173.734268 0.047732 
177.301559 0.031399 
181.134048 0.101742 
184.126083 0.040925 
185.897781 0.069994 
189.272293 0.091306 
190.279968 0.045386 
191.821182 0.026556 
191.927322 0.0343 
193.170258 0.033707 
195.102158 0.069394 
196.844376 0.084697 
196.908264 0.070177 
198.791519 0.044291 
202.647064 0.062049 
202.673126 0.067457 
202.866913 0.044724 
203.149445 0.044759 
209.128937 0.193335 
212.061569 0.08113 
213.049683 0.045202 
217.152191 0.050649 
219.434128 0.043918 
219.635941 0.731591 
219.646332 0.599084 
219.662369 0.049809 
220.307053 0.067691 
229.486908 0.037812 
231.569183 0.041718 
235.438339 0.074496 
237.64296 0.092016 
247.132858 0.051266 
251.37059 0.036637 
259.425262 0.030826 
259.485565 0.030729 
265.540985 0.032545 
265.568542 0.032851 
267.129456 0.044934 
267.714264 0.060675 
272.43042 0.088917 
274.430054 0.072892 
277.523041 0.035373 
287.841309 0.051185 
289.002777 0.070971 
290.999207 0.033168 
292.341888 0.060837 
293.229675 0.043735 
298.106293 0.033078 
300.071503 0.09507 
300.728821 0.028328 
303.765167 0.03194 
316.426758 0.046935 
325.67804 0.03394 
329.529205 0.039834 
329.642578 0.063905 
337.842407 0.084375 
352.006958 0.040061 
356.638641 0.02965 
357.242828 0.105043 
367.934387 0.039132 
369.693176 0.040184 
375.365753 0.081929 
386.091766 0.062779 
388.333466 0.077349 
393.439087 0.047073 
399.427185 0.082161 
407.120361 0.073246 
409.004272 0.026931 
410.264496 0.040024 
411.722382 0.039484 
415.920593 0.029278 
421.808868 0.087783 
423.727753 0.058606 
434.430695 0.091793 
435.28894 0.046837 
437.633148 0.097617 
446.961121 0.043406 
447.70874 0.045007 
459.10083 0.031174 
459.274231 0.044319 
461.480377 0.056824 
463.327545 0.035624 
466.917633 0.031991 
488.128448 0.070794 
508.7211 0.066517 
511.934113 0.037741 
512.207458 0.027504 
514.900757 0.053935 
518.036865 0.041816 
533.361633 0.046226 
546.643372 0.085892 
547.770264 0.046155 
562.606812 0.034977 
570.47052 0.074354 
572.305176 0.026646 
590.494507 0.031635 
591.247498 0.026023 
604.926636 0.042193 
END IONS

