BEGIN IONS
PEPMASS=1096.61
CHARGE=1+
COMPOUNDNAME=N-[(3S,6S,9S,11R,15S,18S,20R,21R,24S,25S,26S)-3-[(1R)-2-carbamoyl-1-hydroxyethyl]-6-[(1S,2S)-1,2-dihydroxy-2-(4-hydroxyphenyl)ethyl]-11,20,21,25-tetrahydroxy-15-[(1R)-1-hydroxyethyl]-26-methyl-2,5,8,14,17,23-hexaoxo-1,4,7,13,16,22-hexaazatricyclo[22.3.0.0?,��]heptacosan-18-yl]-10,12-dimethyltetradecanamide
LIBRARYQUALITY=3
SMILES=N/A
INCHIKEY=DFQUSLQYURJBIT-MFKXNLKNSA-N
INCHI=InChI=1S/C51H82N8O17/c1-6-25(2)19-26(3)13-11-9-7-8-10-12-14-37(66)53-32-21-35(64)47(72)57-49(74)41-42(67)27(4)23-59(41)51(76)39(34(63)22-36(52)65)55-48(73)40(44(69)43(68)29-15-17-30(61)18-16-29)56-46(71)33-20-31(62)24-58(33)50(75)38(28(5)60)54-45(32)70/h15-18,25-28,31-35,38-44,47,60-64,67-69,72H,6-14,19-24H2,1-5H3,(H2,52,65)(H,53,66)(H,54,70)(H,55,73)(H,56,71)(H,57,74)/t25?,26?,27-,28+,31+,32-,33-,34+,35+,38-,39-,40-,41-,42-,43-,44-,47+/m0/s1
MSLEVEL=2
SOURCE_INSTRUMENT=N/A-ESI-QFT
FILENAME=library_mgf.mgf
SEQ=*..*
IONMODE=positive
ORGANISM=MONA
NAME=N-[(3S,6S,9S,11R,15S,18S,20R,21R,24S,25S,26S)-3-[(1R)-2-carbamoyl-1-hydroxyethyl]-6-[(1S,2S)-1,2-dihydroxy-2-(4-hydroxyphenyl)ethyl]-11,20,21,25-tetrahydroxy-15-[(1R)-1-hydroxyethyl]-26-methyl-2,5,8,14,17,23-hexaoxo-1,4,7,13,16,22-hexaazatricyclo[22.3.0.0?,��]heptacosan-18-yl]-10,12-dimethyltetradecanamide [M+NH4]+
PI=MoNA
DATACOLLECTOR=MoNA:VF-NPL-QEHF024871
PUBMED=N/A
SUBMITUSER=mwang87
TAGS=
SPECTRUMID=CCMSLIB00004715934
SCANS=24871
78.431862 0.029338 
79.318657 0.032612 
79.485893 0.029757 
80.586327 0.064615 
81.069923 0.12491 
81.208817 0.031066 
81.232376 0.026344 
82.065201 0.624315 
82.095772 0.029712 
82.538399 0.032099 
83.060417 0.044844 
83.085579 0.237279 
84.044479 15.068918 
84.854439 0.027567 
85.028091 0.030994 
85.047844 0.37967 
85.101303 0.45216 
85.657455 0.027803 
86.060135 100.0 
86.353828 0.027734 
87.044159 0.409733 
87.05732 0.040218 
87.061005 0.023049 
87.063499 3.930891 
87.649551 0.029068 
87.825577 0.035063 
87.951248 0.030838 
89.059807 3.105705 
91.473976 0.028576 
92.523918 0.035686 
94.028831 0.153563 
95.060562 0.03204 
95.085587 0.16545 
95.744415 0.036356 
96.044479 0.18598 
97.101288 0.234015 
97.374619 0.028829 
97.574936 0.025074 
99.055382 0.363716 
100.039406 3.989412 
100.075783 23.754986 
100.660942 0.035346 
101.071075 2.042629 
101.079208 1.396362 
101.398621 0.038341 
102.055084 1.76798 
104.106979 0.120081 
106.331337 0.032679 
107.049278 0.292657 
108.160095 0.031248 
109.039787 0.593785 
109.101349 0.13923 
110.023865 0.231147 
110.671944 0.024547 
111.05529 0.184188 
111.881462 0.028005 
112.030273 0.028944 
112.039413 0.626975 
112.075638 0.032704 
112.390083 0.038936 
113.071014 0.281567 
113.881485 0.028983 
114.055161 0.215037 
114.155975 0.025413 
115.075554 0.035542 
115.57299 0.024898 
116.070702 0.319475 
117.065941 2.021227 
117.090919 0.101457 
117.592354 0.031296 
118.831169 0.03086 
119.049065 0.028029 
121.087479 0.037284 
122.042633 0.029067 
122.059959 0.025648 
122.070137 0.028698 
123.055237 0.070526 
123.192406 0.03772 
123.980087 0.028545 
124.075653 0.075238 
124.664009 0.026654 
125.071091 0.432602 
127.0504 0.214902 
129.065948 1.149722 
130.049988 0.606736 
130.340195 0.02747 
131.081619 7.418403 
131.167938 0.040262 
132.065475 0.084257 
133.085999 0.539748 
133.767609 0.02888 
133.837158 0.02584 
134.060303 0.033741 
135.647568 0.033713 
136.075714 0.119028 
136.188797 0.019714 
137.616425 0.022708 
138.055115 0.029399 
139.050217 0.129909 
139.086761 0.469024 
140.07077 0.112394 
141.065918 7.224038 
141.175308 0.018853 
141.97493 0.034328 
142.069199 0.106588 
142.086517 1.794204 
143.081711 0.753429 
145.061005 0.719628 
145.097244 30.079847 
146.044952 1.187771 
146.081161 0.037389 
146.100708 1.624682 
147.037918 0.034321 
147.044006 3.173191 
147.316208 0.033169 
148.047684 0.036145 
148.075943 0.031122 
148.784714 0.028138 
149.071136 0.638231 
149.772842 0.040025 
149.789215 0.024689 
150.054977 0.066604 
151.050476 1.625697 
151.086746 0.784837 
152.034348 0.121 
152.504105 0.033059 
153.065857 0.106769 
155.081696 1.535968 
156.085251 0.043414 
157.097382 1.574122 
161.092239 1.051464 
163.07132 3.362614 
163.148712 0.03407 
163.688461 0.028721 
163.775818 0.027886 
164.070724 1.190144 
164.667618 0.027889 
165.066116 1.196631 
165.073578 0.023697 
166.086197 0.05363 
167.04483 0.037145 
167.0737 0.048969 
167.081528 10.767318 
168.065659 0.036933 
168.077164 0.031616 
168.085037 0.549823 
169.060913 2.461326 
169.068436 0.030723 
169.097275 1.783977 
171.076569 1.873846 
173.770844 0.031857 
173.864548 0.029636 
174.055176 1.737781 
174.308441 0.030604 
175.039185 0.891109 
175.282501 0.023174 
176.071289 0.021707 
177.065918 2.73552 
179.045242 1.342819 
179.081711 1.988759 
179.28688 0.030437 
181.097443 0.509201 
182.056335 0.545518 
182.081604 0.079732 
182.17926 0.033582 
182.44725 0.036389 
183.076584 0.348926 
183.113113 0.46834 
184.072479 0.07449 
184.19487 0.039439 
184.835556 0.03557 
184.976822 0.028545 
185.08345 0.034447 
185.092194 8.184834 
185.164474 0.02841 
185.480759 0.033346 
186.08757 0.087445 
186.095779 0.176215 
187.071884 0.099408 
187.107697 3.917069 
188.102966 0.141175 
188.111588 0.041314 
191.081772 1.419553 
192.065598 2.340676 
192.074417 0.06666 
192.621979 0.037815 
193.061417 0.085484 
193.097351 0.690047 
194.080673 0.035683 
194.470352 0.021633 
195.076462 11.183381 
195.113098 0.041312 
196.080215 0.794782 
196.10759 0.041344 
197.08223 0.038867 
197.092224 6.475205 
197.237289 0.028719 
198.095963 0.294389 
199.107849 0.078489 
200.066559 0.135925 
200.803391 0.036255 
201.06633 0.050896 
201.123596 0.367051 
202.11908 0.312132 
202.756729 0.039567 
203.08165 0.559954 
208.108459 0.588017 
209.092239 3.378078 
209.56871 0.030356 
210.096359 0.039683 
210.123993 0.30668 
211.071564 0.353479 
211.107849 2.454448 
211.870483 0.033808 
212.103256 0.051789 
212.11351 0.036083 
213.087082 7.434292 
214.090652 0.228539 
214.118912 0.554534 
215.102859 3.817963 
218.078323 0.040789 
218.092606 0.173928 
219.07663 2.286619 
220.060837 0.539045 
220.097137 0.753499 
220.108414 0.082199 
221.092102 5.614992 
221.15004 0.028211 
222.095917 0.15795 
223.107773 0.102428 
223.280212 0.034764 
224.102814 0.026604 
225.087067 5.18587 
226.090027 0.190976 
226.118866 0.275182 
227.102814 2.2337 
228.066467 0.033799 
228.134628 1.451771 
229.097794 0.095612 
229.79184 0.030563 
231.076553 0.281472 
236.103058 4.386524 
236.916473 0.034668 
237.087173 7.678786 
237.107346 0.166866 
238.09108 0.461811 
238.118759 2.802102 
239.103043 1.959465 
241.095871 0.034745 
242.079773 0.041382 
243.098083 0.080955 
243.112427 0.037451 
245.092728 0.114771 
247.251877 0.032528 
248.091858 1.025933 
248.105026 0.041731 
249.122925 0.041034 
250.107376 0.039911 
250.119629 0.042719 
250.140625 0.038658 
250.548508 0.037774 
252.098221 0.398077 
253.082397 0.119776 
253.129974 1.92548 
254.113724 4.906859 
254.410751 0.03551 
255.081284 0.03399 
255.097733 13.170254 
256.060913 0.143141 
256.101196 1.279067 
256.129639 0.04561 
256.263794 0.691843 
257.092346 0.637503 
258.14563 0.029039 
258.739807 0.028549 
258.993408 0.036574 
259.10788 18.428045 
260.112335 1.799809 
261.108795 0.076833 
261.12384 1.743721 
262.118652 5.601821 
263.102997 0.073903 
263.12207 0.262407 
264.098602 0.224663 
265.082031 0.239296 
266.114655 0.043343 
266.443085 0.028518 
269.125336 0.062137 
270.075897 0.112899 
270.109009 1.111897 
271.092926 0.117437 
271.140076 2.959836 
272.10379 0.729614 
272.124603 2.20593 
272.139923 0.081469 
272.59082 0.050078 
273.087097 5.19112 
273.10376 0.046312 
273.125092 0.076664 
274.073334 0.034643 
274.090637 0.442591 
275.103607 0.134949 
276.134338 0.366323 
277.118378 8.440516 
278.077576 0.030039 
278.114136 1.103682 
278.150299 0.282362 
279.118408 0.105439 
279.134186 3.470942 
280.093323 0.284057 
280.128784 4.519532 
281.126984 0.066124 
281.593964 0.048851 
282.108582 3.882617 
283.071625 2.742726 
283.111694 0.181759 
284.055786 0.111577 
284.074524 0.119962 
285.087708 0.132691 
286.119537 0.15197 
287.102905 7.255359 
288.106293 0.78321 
289.082458 0.055009 
289.118896 0.272969 
289.151123 1.259003 
290.095184 0.072464 
290.113556 2.777814 
291.097992 0.900568 
292.094025 0.331597 
294.145233 1.321627 
295.104279 1.057881 
296.089752 0.037486 
297.119659 2.112939 
297.535858 0.032834 
298.103973 0.523097 
298.12204 0.114157 
299.13562 1.16272 
300.097992 4.704371 
301.082275 3.747526 
301.101074 2.556339 
302.085571 0.277962 
303.097717 0.137304 
304.175018 0.744474 
305.113403 23.012661 
305.131317 1.627804 
306.117188 3.217518 
308.123932 11.129773 
309.126312 1.345916 
310.071259 0.037742 
310.104156 2.289207 
311.065063 0.052119 
311.095459 0.232707 
312.102051 0.097968 
313.114716 1.446949 
315.130585 0.774216 
318.108459 3.664576 
319.092682 3.61642 
319.111298 0.533617 
320.096069 0.094123 
320.125366 0.160462 
321.109161 0.036671 
322.139771 12.734722 
322.274475 0.22937 
323.123657 1.892219 
323.143494 1.575302 
324.124969 0.04066 
324.290161 0.111959 
325.151672 0.113655 
326.065796 0.147781 
326.1138 0.03755 
326.134674 0.573585 
327.130127 4.430355 
328.093292 0.031797 
328.132111 0.539817 
329.754578 0.039373 
331.12561 1.965936 
336.119171 4.378054 
336.96701 0.158768 
337.102631 0.030454 
337.122681 0.336024 
338.065216 0.03427 
338.136627 0.055754 
338.269501 0.44385 
338.305176 0.140516 
339.167847 0.039269 
340.150787 1.669608 
340.758453 0.038051 
341.152618 0.032343 
342.146393 0.11889 
342.99408 0.038094 
343.83139 0.031551 
344.124725 1.357043 
344.158264 0.538476 
344.191528 0.326181 
348.103271 0.755166 
350.269623 1.744127 
351.274231 0.027863 
352.13208 0.03162 
352.284698 0.295025 
354.130157 0.338129 
357.108307 2.133881 
357.711273 0.030117 
358.140137 0.617972 
361.285034 0.126665 
362.135101 1.083612 
366.113922 0.18527 
367.293121 0.082389 
368.124756 0.314502 
369.155853 0.950588 
370.116272 0.343899 
370.140076 0.810997 
371.170654 0.442709 
371.192871 0.097547 
372.153778 0.077641 
379.121368 2.425877 
379.295624 0.081599 
382.082886 0.032945 
382.142395 0.023075 
383.291504 0.13407 
383.326569 0.125032 
384.577545 0.040521 
385.151001 0.332874 
386.134644 2.708597 
387.140259 0.298999 
387.166962 1.482712 
388.126892 1.287752 
388.150696 0.672308 
389.184235 0.037414 
389.280151 0.072358 
393.634247 0.031071 
396.120117 1.506714 
398.13385 0.041646 
399.166382 0.084788 
400.151367 1.554329 
403.132202 0.073437 
403.161804 1.77611 
403.296204 0.555374 
403.686279 0.041919 
404.146423 1.671496 
404.297485 0.057432 
405.148529 0.092299 
405.178101 0.169454 
405.311829 1.121632 
406.161316 0.35994 
406.313965 0.038995 
407.291534 0.079189 
408.712982 0.196735 
410.135437 0.486758 
411.209686 0.348045 
412.182892 0.176156 
412.691254 0.15497 
413.087982 0.252633 
413.145905 7.337999 
414.126343 0.52061 
414.152008 0.895678 
415.16217 0.368991 
416.146057 0.981178 
416.711334 0.054338 
417.177551 1.073552 
417.718475 0.313334 
420.151123 0.039467 
421.044708 0.128402 
421.171661 0.616975 
421.306396 0.327386 
423.083069 0.213745 
423.188416 0.320885 
423.322662 0.758312 
424.324493 0.037327 
427.16153 0.712493 
428.14563 0.997909 
431.156128 21.260174 
431.643402 0.104705 
432.161163 4.357517 
432.358521 0.156545 
433.16864 0.451367 
433.223267 0.079064 
433.306183 2.239945 
434.309814 0.255608 
434.705109 0.082779 
435.18811 0.449995 
435.319946 0.069087 
438.722687 0.394251 
439.730164 0.143477 
440.177765 0.649265 
444.188416 0.122019 
445.172119 2.413962 
446.176178 0.157133 
447.153809 0.039349 
448.35434 0.624967 
449.167023 12.444465 
449.23877 0.035009 
450.171661 2.492683 
451.3172 1.005049 
452.229309 0.134666 
455.154907 0.052563 
457.204926 2.049136 
458.206665 0.052498 
461.903198 0.031989 
462.199188 0.129557 
464.34967 0.709407 
466.365173 2.890152 
466.726044 0.041799 
467.17749 3.00135 
467.367188 0.237238 
468.181641 0.293852 
471.187195 0.045085 
475.731079 1.629059 
476.348755 2.860596 
477.35202 0.396848 
479.12085 1.821397 
481.172302 0.123302 
483.129608 0.791964 
484.73703 1.880768 
488.737 0.043826 
492.343994 0.260128 
493.137421 0.048766 
493.740753 0.133261 
494.096252 0.051269 
494.359467 2.035434 
495.363556 0.197959 
496.737366 0.037316 
497.744995 0.447048 
498.333801 0.403865 
499.182159 0.745773 
500.187347 0.042585 
500.348297 2.383056 
501.351959 0.363496 
505.742249 0.106932 
506.750519 1.688278 
509.370361 2.452237 
510.372559 0.26074 
514.194031 0.222597 
515.755188 1.262497 
516.211731 0.141 
516.345459 0.038658 
517.190613 0.025511 
518.359436 0.486198 
528.349121 0.027413 
530.22644 0.032863 
531.151672 1.335147 
532.204102 0.483089 
540.21167 0.099455 
541.267334 0.047056 
546.264038 0.03503 
546.354431 1.928156 
547.358826 0.254479 
549.163513 0.312128 
550.213928 0.265075 
555.270569 0.175435 
555.771484 0.213985 
556.272888 0.061673 
557.235962 1.477309 
558.226013 0.2753 
559.271118 0.249786 
559.385376 0.25214 
560.391663 0.034606 
565.13501 0.686349 
575.247009 1.358822 
576.240234 0.038949 
577.134216 0.058785 
577.396851 1.683225 
578.398743 0.194504 
585.991516 0.035475 
593.26062 0.050899 
607.216064 0.045905 
608.237427 0.207007 
608.996216 0.021838 
616.061035 0.037178 
622.227356 0.038647 
625.165894 0.032716 
625.225037 0.223498 
635.286621 0.034447 
643.235474 0.264443 
669.386536 0.580799 
670.388977 0.025963 
687.39679 0.07425 
690.447571 0.021808 
708.451111 0.040358 
708.67926 0.06499 
708.692871 0.065771 
734.279114 0.218877 
737.41687 0.031952 
746.632812 0.036662 
752.290527 0.044681 
758.031494 0.03445 
780.222961 0.02257 
803.830017 0.032063 
839.663574 0.035339 
873.950378 0.03395 
879.280212 0.034073 
890.667847 0.026272 
908.503357 0.036114 
949.478638 0.295822 
950.477112 0.062614 
1046.80249 0.035813 
1049.549683 0.076844 
1066.571533 0.176877 
1067.571045 0.216124 
1077.227661 0.02289 
1077.548096 0.269436 
1078.547119 0.068602 
1094.567505 2.013836 
1095.546997 4.688477 
1095.777222 0.053243 
1096.543213 2.274687 
1097.538818 0.690363 
1097.807617 0.2689 
1098.548706 0.066743 
1108.819214 0.040616 
1121.831665 0.035927 
1126.648804 0.044819 
END IONS

