BEGIN IONS
PEPMASS=436.137
CHARGE=1+
COMPOUNDNAME=NOSCAPINE
LIBRARYQUALITY=3
SMILES=N/A
INCHIKEY=AKNNEGZIBPJZJG-MSOLQXFVSA-N
INCHI=InChI=1S/C22H23NO7/c1-23-8-7-11-9-14-20(29-10-28-14)21(27-4)15(11)17(23)18-12-5-6-13(25-2)19(26-3)16(12)22(24)30-18/h5-6,9,17-18H,7-8,10H2,1-4H3/t17-,18+/m1/s1
MSLEVEL=2
SOURCE_INSTRUMENT=N/A-ESI-QFT
FILENAME=library_mgf.mgf
SEQ=*..*
IONMODE=positive
ORGANISM=MONA
NAME=NOSCAPINE [M+Na]+
PI=MoNA
DATACOLLECTOR=MoNA:VF-NPL-QEHF002754
PUBMED=N/A
SUBMITUSER=mwang87
TAGS=
SPECTRUMID=CCMSLIB00004693817
SCANS=2754
50.83567 0.019737 
51.089321 0.020272 
51.761497 0.006741 
51.907017 0.012961 
52.341259 0.019292 
52.390884 0.007619 
53.096581 0.124258 
53.775581 0.017312 
53.912865 0.012557 
54.2164 0.002812 
55.142059 0.006255 
55.259361 0.011215 
55.780888 0.002663 
56.059586 0.012814 
56.19347 0.008312 
56.382919 0.016734 
56.923595 0.013911 
57.909695 0.015836 
58.687355 0.005476 
59.659744 0.015751 
59.795017 0.011885 
59.847488 0.01611 
59.998623 0.019341 
60.251167 0.016394 
60.264706 0.020532 
60.370857 0.011728 
60.637245 0.015631 
61.423199 0.005648 
61.481319 0.007569 
61.812847 0.015916 
63.14909 0.014391 
63.423306 0.006133 
64.258156 0.014004 
65.029694 0.009324 
65.7005 0.006126 
66.364822 0.015595 
66.379021 0.013877 
69.188622 0.022022 
69.30938 0.021675 
69.453201 0.002679 
69.669357 0.012886 
71.346367 0.017586 
72.557762 0.009946 
72.895477 0.016957 
74.214226 0.009354 
76.283318 0.002862 
76.455299 0.016634 
78.47242 0.002782 
79.734932 0.014991 
79.952744 0.002916 
80.81472 0.018328 
80.83831 0.017209 
81.493141 0.013873 
82.281357 0.007673 
82.324623 0.005061 
82.478844 0.002776 
82.51104 0.017916 
82.514732 0.015109 
83.004539 0.018809 
83.032356 0.022206 
83.185509 0.002751 
83.765724 0.019789 
83.809769 0.01648 
84.534637 0.006312 
84.986168 0.008554 
85.756577 0.007873 
86.153351 0.01592 
86.647316 0.002895 
88.488976 0.010891 
91.065506 0.017795 
91.645874 0.0029 
91.680389 0.011084 
92.629311 0.017376 
93.596519 0.018785 
94.065552 0.071618 
95.265587 0.01034 
95.871666 0.009587 
95.886681 0.012079 
95.935379 0.0036 
98.328049 0.013573 
100.932007 0.006118 
102.096313 0.020537 
102.221298 0.00619 
104.387573 0.016355 
105.274536 0.009987 
106.065331 0.223834 
106.3339 0.005552 
107.073059 0.095196 
107.142326 0.003668 
108.195358 0.008 
109.089081 0.006198 
112.359795 0.009837 
112.694244 0.002766 
113.981628 0.01463 
115.112228 0.009944 
117.033806 0.032019 
118.065704 0.02751 
118.419838 0.005469 
119.073257 0.032705 
120.080833 0.133955 
120.407707 0.023774 
120.804321 0.018946 
121.088684 0.513272 
122.151459 0.012444 
124.635239 0.005873 
126.237732 0.013296 
126.507278 0.002901 
126.888367 0.002999 
127.111366 0.018402 
127.245377 0.011018 
129.241501 0.011068 
129.669037 0.005945 
130.041199 0.205249 
130.93515 0.015143 
131.049255 0.096312 
131.072678 0.006471 
132.057114 0.139293 
133.064896 0.014439 
134.096268 0.041049 
134.116241 0.018983 
135.067657 0.0414 
138.246338 0.005281 
139.312668 0.014012 
142.259109 0.012101 
145.107315 0.013068 
146.036133 0.320481 
146.06134 0.017627 
147.067734 0.935657 
148.075714 1.63582 
149.083694 0.289789 
150.457733 0.003207 
152.319473 0.006601 
152.394379 0.017657 
154.02449 0.011469 
156.103424 0.014034 
157.947723 0.013844 
158.036011 0.254798 
158.600479 0.01136 
159.067719 0.170446 
160.051804 0.205649 
160.0755 0.042763 
162.054474 0.022638 
162.091217 0.767896 
165.726898 0.012686 
166.720856 0.020349 
167.429764 0.013238 
169.415726 0.013253 
173.829605 0.006158 
174.031158 0.592326 
174.169159 0.02119 
174.552628 0.00584 
175.062653 1.367484 
176.046738 1.046019 
176.070648 1.023701 
176.225891 0.003315 
176.563644 0.011993 
177.054657 1.787055 
177.078369 0.955307 
177.332993 0.009115 
177.476456 0.009421 
177.640488 0.013102 
177.804764 0.018568 
178.019684 0.014903 
178.058258 0.013064 
179.070053 0.568681 
180.073624 0.026006 
181.734451 0.020795 
184.242783 0.014591 
188.046722 2.54949 
188.070358 0.47766 
189.050293 0.11187 
189.078766 0.025999 
190.04985 0.105893 
190.085938 0.221155 
190.218094 0.013904 
191.069855 0.023388 
191.90715 0.008039 
192.065399 0.026247 
193.073212 0.07432 
193.786255 0.020477 
198.7211 0.016247 
199.86261 0.003069 
203.237656 0.003068 
203.789764 0.003038 
204.065445 1.933878 
205.073303 100.0 
206.076736 10.871409 
207.079071 0.361117 
207.876831 0.003158 
209.184082 0.016332 
215.459854 0.003047 
218.081192 0.014967 
219.426208 0.021042 
220.096634 84.02961 
220.19574 0.162277 
220.20108 0.12693 
220.538849 0.015944 
220.690521 0.019891 
221.100159 9.848063 
222.102036 0.390216 
228.278336 0.010466 
230.938553 0.003127 
238.846695 0.008967 
240.205643 0.017777 
240.76622 0.02038 
249.387909 0.013459 
255.110168 0.003787 
255.266556 0.008527 
255.808273 0.016639 
261.07608 0.083874 
261.579559 0.023155 
264.318909 0.017132 
265.675659 0.011981 
269.122467 0.008087 
276.739716 0.018854 
278.105103 0.022193 
289.941772 0.015027 
293.078552 0.002657 
296.856659 0.006122 
298.044373 0.020605 
299.393372 0.020116 
301.393097 0.0119 
303.629456 0.009975 
317.065643 0.205853 
319.307922 0.00845 
320.056091 0.01249 
333.617554 0.006211 
346.325836 0.006354 
351.874878 0.020812 
352.001587 0.006185 
353.161926 0.014492 
388.992798 0.005787 
402.869995 0.006743 
406.34845 0.013791 
406.918732 0.016828 
420.239532 0.016685 
423.833527 0.018364 
428.109619 0.013702 
435.967865 0.006179 
436.718201 0.017292 
440.846069 0.02132 
448.280792 0.003223 
450.170227 0.007569 
455.583221 0.003739 
END IONS

