BEGIN IONS
PEPMASS=224.5
CHARGE=1+
COMPOUNDNAME=Massbank:KO004037 Sisomicin|Antibiotic 6640|Dehydrogentamicin Cla|Rickamicin
LIBRARYQUALITY=3
SMILES=NCC(=C3)O[C@@H]([C@H](N)C3)O[C@H]([C@@H](N)1)[C@H](O)[C@@H](O[C@@H](O2)[C@H](O)[C@@H](NC)[C@](C)(O)C2)[C@H](N)C1
INCHIKEY=URWAJWIAIPFPJE-GYHYWALZSA-N
INCHI=1S/C19H37N5O7/c1-19(27)7-28-18(13(26)16(19)24-2)31-15-11(23)5-10(22)14(12(15)25)30-17-9(21)4-3-8(6-20)29-17/h3,9-18,24-27H,4-7,20-23H2,1-2H3/t9-,10+,11-,12+,13-,14-,15+,16-,17-,18-,19+/m1/s1
MSLEVEL=2
SOURCE_INSTRUMENT=ESI-LC-ESI-QQ
FILENAME=Massbank_ESI_positive_8_1_2014_peaks.mgf
SEQ=*..*
IONMODE=Positive
ORGANISM=MASSBANK
NAME=Massbank:KO004037 Sisomicin|Antibiotic 6640|Dehydrogentamicin Cla|Rickamicin [M+2H]++
PI=Putative Massbank Match
DATACOLLECTOR=Massbank
PUBMED=N/A
SUBMITUSER=mwang87
TAGS=
SPECTRUMID=CCMSLIB00000220596
SCANS=9829
55.9 24752.5 
69.2 49505.0 
71.3 39604.0 
72.0 79208.0 
73.8 19802.0 
79.9 118812.0 
80.2 113861.5 
81.3 59406.0 
82.1 257426.0 
82.9 34653.5 
84.4 212871.5 
86.1 529703.5 
96.8 34653.5 
98.2 79208.0 
99.0 94059.5 
99.8 99010.0 
101.8 49505.0 
105.0 168317.0 
108.3 24752.5 
109.5 257426.0 
110.4 1811883.0 
112.3 3980202.0 
114.0 757426.5 
118.1 3450498.5 
120.9 14851.5 
124.0 89109.0 
127.1 54356490.0 
128.3 232673.5 
142.2 3544558.0 
144.9 39604.0 
150.9 54455.5 
160.2 20202990.5 
161.9 24752.5 
163.2 7504958.0 
165.2 54455.5 
173.1 29703.0 
175.5 39604.0 
186.9 84158.5 
193.4 14851.5 
198.7 34653.5 
205.1 3816835.5 
206.7 39604.0 
207.3 1920794.0 
207.9 173267.5 
215.7 26490125.5 
224.9 96420888.5 
225.4 1178219.0 
254.4 851486.0 
271.7 9103969.5 
272.8 94059.5 
273.4 54455.5 
289.5 8242582.5 
290.2 99010.0 
295.5 94059.5 
304.4 49505.0 
313.3 94059.5 
322.7 19574277.0 
323.8 153465.5 
331.6 247525.0 
346.4 212871.5 
END IONS

