BEGIN IONS
PEPMASS=333.12
CHARGE=1+
COMPOUNDNAME=MITOMYCIN C
LIBRARYQUALITY=3
SMILES=N/A
INCHIKEY=NWIBSHFKIJFRCO-WUDYKRTCSA-N
INCHI=InChI=1S/C15H18N4O5/c1-5-9(16)12(21)8-6(4-24-14(17)22)15(23-2)13-7(18-13)3-19(15)10(8)11(5)20/h6-7,13,18H,3-4,16H2,1-2H3,(H2,17,22)/t6-,7+,13+,15-/m1/s1
MSLEVEL=2
SOURCE_INSTRUMENT=N/A-ESI-QFT
FILENAME=library_mgf.mgf
SEQ=*..*
IONMODE=negative
ORGANISM=MONA
NAME=MITOMYCIN C [M-H]-
PI=MoNA
DATACOLLECTOR=MoNA:VF-NPL-QEHF027727
PUBMED=N/A
SUBMITUSER=mwang87
TAGS=
SPECTRUMID=CCMSLIB00004721308
SCANS=27727
50.025532 0.034461 
50.259247 0.041537 
50.287582 0.013726 
50.519077 0.02254 
50.631466 0.015874 
50.67284 0.029183 
50.886208 0.030133 
50.955109 0.010163 
51.381264 0.038205 
51.692936 0.023039 
52.500443 0.030372 
52.702976 0.019554 
52.808529 0.028546 
53.026505 0.048303 
53.206272 0.030015 
53.279762 0.028394 
53.317402 0.049132 
54.947784 0.029628 
55.134079 0.031187 
55.401882 0.041764 
55.470081 0.043569 
55.731251 0.010604 
56.49033 0.035007 
56.838886 0.045506 
57.708645 0.046875 
57.841419 0.026107 
57.930302 0.01346 
58.245285 0.035869 
58.446194 0.036647 
58.600925 0.015864 
58.844482 0.029733 
58.966179 0.011123 
59.089081 0.015453 
59.52953 0.021132 
59.999336 0.046453 
60.007683 95.366936 
60.016636 0.05012 
60.482521 0.038363 
61.004704 0.029441 
61.011047 0.586345 
61.323772 0.014033 
61.592773 0.032148 
61.646187 0.014506 
61.711349 0.009604 
61.98698 0.065032 
62.987755 0.023195 
63.200199 0.039841 
64.042854 0.032 
65.827065 0.017762 
66.374733 0.012582 
66.442993 0.013867 
66.804657 0.030652 
66.838257 0.02596 
66.872192 0.015263 
69.162697 0.047588 
69.220398 0.025217 
69.261215 0.032762 
69.590546 0.010403 
69.706291 0.034428 
69.796967 0.010646 
70.171089 0.028401 
70.267326 0.015087 
70.381599 0.042172 
71.522659 0.027668 
71.708611 0.024539 
71.998238 0.023285 
72.004463 0.031307 
72.170189 0.040902 
72.20443 0.012432 
73.63324 0.018994 
73.825981 0.028569 
74.592278 0.045206 
74.711838 0.011038 
76.136757 0.022131 
76.140953 0.013352 
76.278519 0.024876 
76.451599 0.009796 
76.754272 0.027631 
77.324608 0.027891 
77.617088 0.021738 
77.665375 0.031533 
77.840118 0.030665 
78.816574 0.042916 
78.984566 0.018146 
80.987473 0.026616 
81.00592 0.011108 
81.021156 0.028377 
81.838799 0.011419 
82.036041 0.014605 
82.837723 0.035455 
83.049896 0.028584 
83.233299 0.042528 
83.811234 0.036022 
84.681618 0.031016 
85.043922 0.023396 
85.276657 0.029523 
85.731926 0.02578 
85.849976 0.011298 
87.242691 0.01132 
87.336441 0.028477 
87.412651 0.035442 
88.006653 0.011617 
88.544266 0.013244 
89.022995 0.706498 
89.593857 0.04733 
92.466805 0.051805 
97.544785 0.012009 
98.233742 0.024269 
98.832085 0.044984 
99.350372 0.03277 
100.300232 0.015929 
101.050858 0.020031 
102.501236 0.015213 
103.441391 0.030518 
104.024452 0.021554 
105.780144 0.014982 
106.249092 0.018969 
108.900047 0.023693 
111.145317 0.013134 
111.249535 0.016583 
114.872688 0.017671 
115.564308 0.033651 
117.658363 0.045165 
117.781044 0.015991 
117.896645 0.047436 
118.857491 0.03024 
119.564697 0.01051 
120.013649 0.02421 
120.145798 0.022711 
121.020836 0.024806 
122.409302 0.015307 
124.15081 0.024174 
126.003433 0.031135 
127.245087 0.019067 
127.367088 0.035632 
127.390923 0.029634 
128.376175 0.023662 
131.078766 0.020748 
131.159103 0.015289 
131.805923 0.014633 
134.285706 0.042125 
135.156281 0.015279 
136.179581 0.030574 
136.272324 0.037319 
138.05426 0.010684 
142.41153 0.020195 
146.930511 0.020044 
148.195145 0.019303 
149.03447 0.855065 
150.05542 0.012681 
150.297592 0.009998 
150.700531 0.016146 
154.025574 0.013713 
155.604202 0.036393 
156.630127 0.01309 
162.034424 0.02073 
162.561478 0.035574 
163.050598 0.012714 
165.065918 3.407348 
166.069473 0.029784 
168.394852 0.046492 
168.605911 0.039543 
173.034637 0.034927 
174.05542 0.011772 
175.050354 11.00625 
176.053696 0.560333 
176.4245 0.010433 
177.940521 0.014782 
178.152786 0.016558 
179.32193 0.034931 
181.271103 0.037222 
183.813705 0.03222 
184.050583 0.010783 
187.050491 0.892081 
188.058319 1.180442 
188.94664 0.024146 
189.066254 0.199714 
190.050323 0.020471 
193.061157 1.694451 
195.396072 0.015948 
195.804138 0.030652 
198.790421 0.050289 
200.045761 0.802452 
201.066162 6.879508 
202.037796 0.130226 
202.06134 1.132502 
202.070831 0.284287 
203.045609 4.618527 
204.053192 0.357189 
205.061096 0.118678 
208.592651 0.015369 
211.840485 0.020687 
212.058456 2.439834 
212.08284 0.032192 
213.053726 2.044452 
213.066116 1.696007 
214.061035 0.290009 
214.843903 1.340536 
215.045837 0.108584 
215.070801 0.127402 
215.081833 2.362808 
216.053467 7.045439 
216.78479 0.012464 
217.060364 0.938306 
218.068985 1.147584 
219.076767 0.394938 
224.0569 0.031337 
224.346176 0.020911 
224.771271 0.026123 
225.055481 0.020512 
226.061859 5.107966 
227.069519 77.225121 
228.077469 89.491081 
229.049316 0.150743 
229.062042 0.100035 
229.081177 10.632649 
229.096619 0.01823 
230.056488 0.137855 
230.069244 0.445088 
230.093399 3.47364 
231.077087 0.595838 
231.095734 0.034125 
238.988586 0.027101 
240.07756 11.275217 
240.090652 0.03927 
241.06134 0.171108 
241.082047 1.436119 
242.056747 0.752408 
242.070175 0.771392 
242.093262 19.634867 
243.064392 0.640698 
243.09697 2.851148 
245.08046 0.172767 
247.086792 0.027152 
254.554001 0.031703 
256.072418 0.962134 
256.948151 0.026704 
257.080414 2.143886 
257.104156 0.583038 
258.088348 53.840298 
259.09259 7.93224 
260.104248 3.223447 
261.10672 0.126374 
261.723236 0.021425 
261.741364 0.026622 
267.201202 0.013147 
268.095398 0.043168 
269.998016 0.046756 
272.079468 0.043237 
272.104126 40.56435 
273.107574 6.034849 
274.108978 0.105329 
280.428711 0.031767 
283.63562 0.038238 
288.633728 0.02854 
289.130524 0.23523 
290.114532 100.0 
291.118591 16.757669 
292.120941 1.03368 
294.51889 0.054261 
297.087067 0.035914 
298.186066 0.019833 
303.997375 0.025649 
308.589966 0.035038 
310.449402 0.034557 
312.374359 0.030585 
313.026428 0.025615 
332.173798 0.276042 
332.675507 0.033169 
333.119873 0.09954 
334.117371 0.021811 
340.972778 0.041874 
342.478119 0.040352 
344.440155 0.033741 
349.525574 0.041486 
351.415131 0.021221 
358.355835 0.02366 
END IONS

