BEGIN IONS
PEPMASS=351.2
CHARGE=1+
COMPOUNDNAME=Massbank:KNA00442 L-Citrulline|2-Amino-5-ureidovaleric acid|Citrulline
LIBRARYQUALITY=3
SMILES=NC(=O)NCCC[C@H](N)C(O)=O
INCHIKEY=RHGKLRLOHDJJDR-BYPYZUCNSA-N
INCHI=1S/C6H13N3O3/c7-4(5(10)11)2-1-3-9-6(8)12/h4H,1-3,7H2,(H,10,11)(H3,8,9,12)/t4-/m0/s1
MSLEVEL=2
SOURCE_INSTRUMENT=ESI-LC-ESI-ITFT
FILENAME=Massbank_ESI_positive_8_1_2014_peaks.mgf
SEQ=*..*
IONMODE=Positive
ORGANISM=MASSBANK
NAME=Massbank:KNA00442 L-Citrulline|2-Amino-5-ureidovaleric acid|Citrulline [M+H]
PI=Putative Massbank Match
DATACOLLECTOR=Massbank
PUBMED=N/A
SUBMITUSER=mwang87
TAGS=
SPECTRUMID=CCMSLIB00000216506
SCANS=7814
113.178055 99.468971 
114.162033 16.095139 
115.110176 221.490967 
116.089241 25.014648 
140.915909 18.242088 
158.127655 73.801872 
159.185181 4260.644531 
176.099274 28644.601563 
END IONS

