BEGIN IONS
PEPMASS=995.556
CHARGE=1+
COMPOUNDNAME=Massbank:EA299204 Microcystin-LR|(5R,8R,11R,12S,15S,18S,19S,22R)-15-{3-[(Diaminomethylene)amino]propyl}-8-isobutyl-18-[(1E,3E,5S,6S)-6-methoxy-3,5-dimethyl-7-phenyl-1,3-heptadien-1-yl]-1,5,12,19-tetramethyl-2-methylene
LIBRARYQUALITY=3
SMILES=CC1C(NC(=O)C(NC(=O)C(C(NC(=O)C(NC(=O)C(NC(=O)C(=C)N(C(=O)CCC(NC1=O)C(=O)O)C)C)CC(C)C)C(=O)O)C)CCCN=C(N)N)C=CC(=CC(C)C(CC2=CC=CC=C2)OC)C
INCHIKEY=ZYZCGGRZINLQBL-UHFFFAOYSA-N
INCHI=1S/C49H74N10O12/c1-26(2)23-37-46(66)58-40(48(69)70)30(6)42(62)55-35(17-14-22-52-49(50)51)45(65)54-34(19-18-27(3)24-28(4)38(71-10)25-33-15-12-11-13-16-33)29(5)41(61)56-36(47(67)68)20-21-39(60)59(9)32(8)44(64)53-31(7)43(63)57-37/h11-13,15-16,18-19,24,26,28-31,34-38,40H,8,14,17,20-23,25H2,1-7,9-10H3,(H,53,64)(H,54,65)(H,55,62)(H,56,61)(H,57,63)(H,58,66)(H,67,68)(H,69,70)(H4,50,51,52)/b19-18+,27-24+/t28-,29-,30-,31+,34-,35-,36+,37-,38-,40+/m0/s1
MSLEVEL=2
SOURCE_INSTRUMENT=ESI-LC-ESI-ITFT
FILENAME=Massbank_ESI_positive_8_1_2014_peaks.mgf
SEQ=*..*
IONMODE=Positive
ORGANISM=MASSBANK
NAME=Massbank:EA299204 Microcystin-LR|(5R,8R,11R,12S,15S,18S,19S,22R)-15-{3-[(Diaminomethylene)amino]propyl}-8-isobutyl-18-[(1E,3E,5S,6S)-6-methoxy-3,5-dimethyl-7-phenyl-1,3-heptadien-1-yl]-1,5,12,19-tetramethyl-2-methylene [M+H]+
PI=Putative Massbank Match
DATACOLLECTOR=Massbank
PUBMED=N/A
SUBMITUSER=mwang87
TAGS=
SPECTRUMID=CCMSLIB00000213058
SCANS=6113
70.0651 50174.8 
84.0443 18961.4 
86.0963 45538.3 
91.0541 6533.9 
93.0699 11350.6 
97.0757 2671.6 
98.0605 2974.2 
103.0541 8676.3 
105.0697 28113.3 
107.0854 81497.3 
112.0868 34246.9 
113.0709 7066.4 
114.103 3916.6 
115.0865 20478.4 
117.0697 17493.9 
120.0808 2861.3 
127.0865 117702.1 
130.0495 7054.6 
130.0973 3461.7 
131.0855 3577.0 
135.0803 267801.3 
135.1166 101419.4 
138.0544 12013.1 
140.082 11402.2 
141.0662 5613.6 
153.102 2898.0 
155.0814 54160.9 
156.1246 8792.2 
157.1082 30718.0 
157.1342 4054.2 
163.1116 42840.9 
167.0813 12600.2 
174.1349 32692.9 
175.1189 5320.8 
182.1027 5819.2 
183.0875 7705.4 
195.0763 14465.4 
196.0608 2958.6 
198.1236 5125.0 
200.1143 42182.1 
201.0978 12140.4 
213.0867 91043.4 
213.1348 7445.3 
218.1531 5395.0 
223.1188 7007.9 
225.1352 6177.7 
226.1182 16223.1 
237.1631 5120.5 
239.0657 17984.7 
240.1442 4618.9 
241.1291 5867.2 
244.129 11203.5 
246.1495 7091.8 
268.1653 2306.0 
269.1255 18137.8 
285.167 14752.3 
286.1512 9028.6 
303.1774 9310.4 
347.1988 2877.2 
END IONS

