BEGIN IONS
PEPMASS=373.091
CHARGE=1+
COMPOUNDNAME=MITOMYCIN C
LIBRARYQUALITY=3
SMILES=N/A
INCHIKEY=NWIBSHFKIJFRCO-WUDYKRTCSA-N
INCHI=InChI=1S/C15H18N4O5/c1-5-9(16)12(21)8-6(4-24-14(17)22)15(23-2)13-7(18-13)3-19(15)10(8)11(5)20/h6-7,13,18H,3-4,16H2,1-2H3,(H2,17,22)/t6-,7+,13+,15-/m1/s1
MSLEVEL=2
SOURCE_INSTRUMENT=N/A-ESI-QFT
FILENAME=library_mgf.mgf
SEQ=*..*
IONMODE=positive
ORGANISM=MONA
NAME=MITOMYCIN C [M+K]+
PI=MoNA
DATACOLLECTOR=MoNA:VF-NPL-QEHF027734
PUBMED=N/A
SUBMITUSER=mwang87
TAGS=
SPECTRUMID=CCMSLIB00004721315
SCANS=27734
50.012642 0.493667 
50.545887 0.720656 
51.049755 0.546941 
51.343533 0.514025 
51.368927 0.395644 
51.568302 0.510348 
53.038963 0.609507 
53.238792 0.532394 
53.709805 0.695169 
54.0951 0.529249 
54.543938 0.757495 
54.628063 0.500099 
54.76231 0.645917 
54.806438 0.5808 
55.054569 0.585197 
55.441051 0.560461 
56.049793 19.070988 
56.472725 0.568311 
56.503754 0.505244 
56.73912 0.665799 
56.964962 0.892204 
57.004463 0.862841 
57.070168 24.470634 
57.394161 0.42161 
57.431038 1.123956 
57.609409 0.570164 
58.065399 17.289324 
58.440342 0.91889 
58.606918 0.538198 
59.11554 0.697016 
59.482826 0.507276 
59.508415 1.102127 
59.540836 0.575946 
59.554104 0.443403 
59.707848 0.605103 
59.959351 0.567527 
60.044689 2.230688 
60.619953 0.550029 
61.007267 0.715195 
61.010868 10.996529 
61.435116 0.85724 
62.018684 11.117893 
62.251682 0.492173 
62.927525 0.551828 
64.674858 0.323871 
65.41983 0.570236 
65.438362 0.446398 
65.625534 0.696188 
66.531517 0.680329 
66.668175 0.496287 
67.717667 1.159706 
69.069962 1.803478 
69.261055 0.411082 
69.443077 0.460278 
70.058563 0.561865 
70.355141 0.755599 
70.385323 0.48514 
71.014343 0.678092 
71.085617 12.977347 
73.028549 0.434891 
73.046837 50.097172 
73.362228 0.723189 
73.507195 0.711235 
73.621689 0.537801 
74.060051 14.075752 
74.206192 0.420583 
74.458763 0.474296 
74.627029 0.596998 
74.796944 0.558096 
75.20256 0.570373 
75.343239 0.760008 
75.810646 0.341425 
77.310509 0.697514 
77.343506 0.560754 
77.651001 0.528059 
77.876259 0.547691 
77.919479 0.666255 
78.504829 0.561508 
78.957359 0.477977 
79.533401 0.472421 
79.96283 0.467251 
80.408302 0.569851 
80.410889 0.629607 
80.75087 0.378342 
81.069687 2.004699 
81.982529 0.527833 
83.11412 0.568445 
83.152061 0.637415 
83.380463 0.555574 
83.812149 0.639791 
84.847488 0.570266 
84.899582 0.465046 
85.101227 4.190576 
85.725365 0.496477 
85.971817 0.426806 
86.133644 0.42435 
86.208855 0.601934 
86.28289 0.509104 
86.63047 0.645145 
87.044075 10.007243 
87.05481 0.522064 
87.591568 0.606286 
88.075752 50.863201 
88.121643 0.811556 
89.059715 20.791861 
90.253418 0.449585 
90.702164 0.579135 
91.057381 40.023571 
91.139061 0.673814 
91.210678 0.480121 
92.056824 1.279304 
92.089531 0.380709 
92.192238 0.62827 
93.358727 1.131308 
94.244118 0.59723 
95.085632 2.718477 
95.805954 0.591356 
95.816063 0.346284 
96.222282 0.56767 
97.153969 0.547674 
98.080765 0.628013 
98.346741 0.578256 
98.975197 1.334533 
99.520782 0.606184 
100.53273 0.711565 
101.083702 0.823742 
101.353233 0.600862 
102.576706 0.67167 
103.188049 0.616956 
103.305176 0.559396 
104.34774 0.635729 
105.044609 0.382739 
105.800003 1.157173 
106.622475 0.611547 
107.060783 0.611738 
107.393875 0.736182 
110.12719 0.517509 
110.293121 0.607587 
112.619255 1.140684 
114.158241 0.691928 
114.591454 0.698043 
114.79213 0.584009 
114.918266 0.359872 
118.086227 9.314907 
119.949097 1.234574 
119.954529 0.735632 
120.325211 0.557771 
120.895287 1.333899 
121.72258 0.628406 
122.081253 4.446121 
123.055183 4.487959 
123.708054 0.432715 
127.967255 0.539014 
133.039642 1.350915 
133.085663 0.545748 
134.014618 0.463025 
134.978729 3.611404 
139.893097 0.676665 
141.191025 0.796111 
141.474167 1.472073 
141.8638 0.608442 
143.618896 0.373701 
144.658524 0.543594 
144.995392 0.488127 
145.865295 0.584317 
147.655106 0.549012 
149.718079 0.442969 
151.050369 4.366033 
151.533539 0.491132 
152.200623 0.772789 
152.36705 0.525439 
152.989395 1.423135 
154.162888 0.584297 
154.682434 0.591643 
154.922058 0.696428 
155.971039 1.11181 
167.268936 0.626313 
169.345123 0.784906 
174.150864 0.586609 
179.134171 0.442351 
179.528641 0.66765 
182.853928 0.479482 
184.075562 0.400966 
184.625259 0.677085 
185.07106 1.63247 
186.102417 1.192195 
186.412811 0.774183 
187.28685 0.370455 
188.684082 0.59356 
189.066208 0.504522 
191.292282 0.502516 
196.328125 0.734072 
197.875732 1.221333 
199.365341 0.738292 
199.395432 0.382037 
201.398315 0.597819 
201.651764 0.355041 
203.081589 1.738627 
204.076889 1.545463 
205.872543 0.433949 
213.065765 0.513665 
213.130997 0.558022 
214.061539 0.680136 
214.241241 24.131672 
214.251129 31.843706 
215.082016 0.659608 
219.07695 0.71802 
221.106934 1.257519 
221.206833 0.569257 
221.875778 0.455801 
221.904648 0.583115 
222.115433 0.492484 
224.071121 0.507348 
225.10199 7.474145 
225.608566 0.443373 
227.118317 1.344818 
228.07695 17.54155 
229.084259 1.597303 
230.092346 67.96125 
231.1297 1.181983 
231.896469 36.107391 
232.105942 0.522768 
232.894409 0.724795 
232.947571 0.940142 
233.891815 7.173435 
234.942383 0.631168 
237.467056 0.59188 
239.234268 1.122855 
239.373734 0.589419 
239.885956 15.131389 
240.076828 1.403601 
241.881866 1.914288 
241.902252 0.506099 
242.092377 71.577164 
243.096146 2.39491 
244.949066 1.13681 
245.098572 0.921834 
249.906982 100.0 
250.906448 2.333064 
251.902344 25.893204 
252.07605 0.513454 
252.905823 1.542182 
254.139008 0.615278 
255.232452 2.146145 
257.895966 4.437218 
258.087372 15.237084 
259.090637 0.643795 
263.886353 1.350379 
264.707123 0.733307 
265.375153 1.104008 
268.263489 14.385184 
268.978485 1.449034 
268.994781 0.731332 
269.267212 1.82295 
270.072174 10.641005 
270.65329 0.764096 
271.147156 0.605456 
275.993408 0.557444 
277.066528 11.113259 
277.85321 1.128869 
280.06955 0.754361 
281.130402 0.42962 
281.896698 55.37381 
283.263245 57.725639 
283.892181 13.111483 
284.051453 0.629333 
284.266541 6.389437 
284.551636 0.904403 
285.009613 4.54441 
286.010071 3.513186 
287.007965 0.790804 
288.083099 95.44606 
289.915009 0.930352 
293.969482 0.46336 
299.907318 2.243347 
300.562988 0.838215 
301.901306 0.512549 
302.097626 2.233488 
306.094055 1.274946 
311.574554 0.707129 
312.124298 0.579762 
313.204376 3.765778 
316.019562 0.706087 
319.136383 1.12923 
326.341614 68.276108 
329.023438 1.128803 
329.379517 0.37062 
339.942108 0.417069 
345.329132 0.691556 
348.881439 0.595541 
350.119904 1.444123 
353.766785 0.578595 
354.188507 0.798934 
356.354309 0.594537 
357.424164 0.820102 
358.887939 0.483041 
359.502014 0.659415 
365.107178 0.53219 
368.05011 1.111808 
370.568695 0.907475 
373.492981 0.904166 
374.362823 4.700984 
375.233154 0.843279 
378.524414 0.692608 
379.267548 0.663904 
383.016113 1.251841 
384.079437 0.715071 
392.417664 0.840904 
397.48291 0.541858 
END IONS

