BEGIN IONS
PEPMASS=176.103
CHARGE=1+
COMPOUNDNAME=Citrulline
LIBRARYQUALITY=3
SMILES=N/A
INCHIKEY=RHGKLRLOHDJJDR-BYPYZUCNSA-N
INCHI=InChI=1S/C6H13N3O3/c7-4(5(10)11)2-1-3-9-6(8)12/h4H,1-3,7H2,(H,10,11)(H3,8,9,12)/t4-/m0/s1
MSLEVEL=2
SOURCE_INSTRUMENT=N/A-ESI-QFT
FILENAME=library_mgf.mgf
SEQ=*..*
IONMODE=positive
ORGANISM=MONA
NAME=Citrulline [M+H]+
PI=MoNA
DATACOLLECTOR=MoNA:VF-NPL-QEHF026467
PUBMED=N/A
SUBMITUSER=mwang87
TAGS=
SPECTRUMID=CCMSLIB00004717914
SCANS=26467
50.564381 0.007517 
51.328331 0.00753 
51.634636 0.006264 
51.683414 0.002764 
52.106487 0.008267 
52.108952 0.004303 
52.547539 0.00593 
52.813808 0.003548 
53.152985 0.00255 
53.371521 0.006797 
53.950989 0.005742 
54.069942 0.006432 
54.410149 0.00668 
54.860241 0.008786 
55.281006 0.006024 
55.744537 0.004246 
55.803829 0.003895 
56.087547 0.006742 
56.220882 0.003768 
56.254227 0.00437 
56.4058 0.007609 
56.543903 0.006785 
56.965145 0.121595 
57.080906 0.009367 
57.506084 0.006672 
58.507076 0.006619 
59.402473 0.008564 
59.62326 0.007487 
60.103062 0.005166 
60.227757 0.006402 
60.316437 0.007297 
61.865021 0.00755 
62.12365 0.006971 
63.220886 0.007701 
64.082169 0.007839 
64.334923 0.006074 
64.846054 0.006644 
65.603821 0.006823 
65.682297 0.008029 
67.266342 0.006572 
67.652161 0.008151 
67.993462 0.007312 
68.29213 0.003633 
68.61293 0.006767 
68.858002 0.006585 
69.036842 0.006873 
69.054718 0.005536 
69.456429 0.006267 
70.047569 0.004945 
70.065224 43.550232 
70.746063 0.003195 
71.049232 0.009233 
71.062302 0.076122 
71.068588 1.792066 
71.569473 0.009581 
73.346786 0.003739 
73.468292 0.005008 
73.94545 0.009411 
74.528839 0.00751 
75.276428 0.00605 
76.998421 0.108858 
77.825783 0.00414 
78.168175 0.004841 
78.985687 0.007915 
79.068733 0.003905 
79.482407 0.006681 
80.806511 0.007414 
80.829895 0.007522 
81.203438 0.007679 
81.454651 0.002844 
81.893356 0.00785 
81.98497 0.004949 
82.913811 0.009333 
83.814194 0.005132 
83.990372 0.007575 
84.044418 0.009142 
84.242546 0.005219 
85.995209 0.007467 
86.003654 0.010677 
86.060104 0.604185 
86.629036 0.003497 
87.091805 0.633691 
87.224754 0.003369 
88.075783 0.087146 
90.412399 0.004733 
90.483124 0.063344 
90.944107 0.006817 
95.837234 0.004719 
96.044434 0.194113 
97.076134 1.331626 
97.110916 0.004341 
97.18692 0.004054 
97.286232 0.00493 
97.671089 0.008413 
97.994705 0.823668 
98.044807 0.007491 
98.060112 0.216004 
98.079338 0.022183 
98.473099 0.006009 
98.975464 15.782167 
98.992508 0.00978 
99.256477 0.008631 
99.488304 0.565956 
99.576263 0.003397 
99.97879 0.188062 
100.486092 0.005562 
100.7817 0.003792 
101.613541 0.008298 
101.992943 0.007607 
103.549667 0.003655 
103.618164 0.006519 
106.529739 0.004075 
106.902985 0.004859 
107.000031 5.940775 
107.501755 0.152267 
107.756577 0.003629 
107.997955 0.590558 
108.001846 0.002914 
108.131302 0.008515 
108.493591 1.117883 
108.996048 0.004531 
109.491508 0.047186 
109.547638 0.008847 
112.142067 0.005513 
112.70388 0.005533 
112.863922 0.00741 
113.071022 63.732658 
113.880959 0.00481 
114.007866 0.030157 
114.055061 10.970727 
114.067947 0.348457 
114.074402 3.239861 
115.058449 0.551257 
115.086693 18.306065 
115.741638 0.007741 
116.005363 11.608052 
116.012138 0.010222 
116.070702 11.374646 
116.083359 0.021043 
116.089996 0.903549 
116.507057 0.408856 
116.985992 3.572397 
117.003265 1.047562 
117.007401 0.047256 
117.074013 0.599244 
117.498978 0.116692 
117.989365 0.015668 
118.001678 0.070947 
119.085602 0.006462 
120.543182 0.008774 
122.542526 0.009314 
123.013107 0.174596 
123.756783 0.004422 
124.211708 0.00823 
125.01059 1.05198 
125.607292 0.006708 
126.008499 0.016599 
126.668739 0.008194 
127.513596 0.008087 
129.48999 0.088144 
130.097641 0.808448 
131.001663 0.014981 
131.081589 0.39606 
132.013062 0.007319 
133.09726 1.022818 
134.529892 0.004629 
134.996567 0.350472 
135.642914 0.006774 
136.403824 0.004345 
137.001785 0.368483 
137.999451 0.004582 
138.49527 0.297835 
139.055313 0.008515 
141.065964 2.553853 
142.050034 1.513133 
142.06926 0.044107 
143.054062 0.005631 
146.00705 0.572061 
147.005112 0.018427 
149.10994 0.002578 
149.407333 0.008689 
150.035278 0.006227 
150.32724 0.010677 
154.852539 0.008288 
157.74028 0.007932 
158.092651 0.061082 
159.06485 0.011313 
159.076447 100.0 
159.586807 0.009893 
160.07338 0.519092 
160.079788 6.566236 
161.081055 0.261475 
164.947021 0.007869 
165.363434 0.00305 
170.819534 0.005152 
172.418503 0.003366 
173.435837 0.00864 
175.919952 0.007531 
176.103043 2.113123 
176.989395 0.667461 
177.106873 0.037979 
177.123535 0.005427 
178.134308 0.036624 
184.29303 0.006723 
186.782593 0.009651 
188.715622 0.003461 
191.315186 0.007387 
192.453995 0.007555 
195.000107 0.277209 
END IONS

