BEGIN IONS
PEPMASS=470.121
CHARGE=1+
COMPOUNDNAME=(5S,8S)-8-benzoyl-2-[(Z,1S,2S)-1,2-dihydroxyhex-3-enyl]-9-hydroxy-8-methoxy-3-methyl-1-oxa-7-azaspiro[4.4]non-2-ene-4,6-dione
LIBRARYQUALITY=3
SMILES=N/A
INCHIKEY=SLYDIPAXCVVRNY-BBJHAQHQSA-N
INCHI=InChI=1S/C22H25NO8/c1-4-5-11-14(24)15(25)16-12(2)17(26)21(31-16)19(28)22(30-3,23-20(21)29)18(27)13-9-7-6-8-10-13/h5-11,14-15,19,24-25,28H,4H2,1-3H3,(H,23,29)/b11-5-/t14-,15-,19?,21+,22+/m0/s1
MSLEVEL=2
SOURCE_INSTRUMENT=N/A-ESI-QFT
FILENAME=library_mgf.mgf
SEQ=*..*
IONMODE=positive
ORGANISM=MONA
NAME=(5S,8S)-8-benzoyl-2-[(Z,1S,2S)-1,2-dihydroxyhex-3-enyl]-9-hydroxy-8-methoxy-3-methyl-1-oxa-7-azaspiro[4.4]non-2-ene-4,6-dione [M+K]+
PI=MoNA
DATACOLLECTOR=MoNA:VF-NPL-QEHF020446
PUBMED=N/A
SUBMITUSER=mwang87
TAGS=
SPECTRUMID=CCMSLIB00004711509
SCANS=20446
50.47913 0.028032 
50.616737 0.04093 
50.665913 0.010121 
50.713718 0.028183 
50.98476 0.024495 
51.106525 0.024223 
51.294804 0.04395 
52.201538 0.027879 
52.805984 0.025761 
53.303085 0.009855 
54.366039 0.009907 
54.763676 0.036513 
54.904121 0.042609 
55.054565 0.876684 
55.376511 0.029566 
55.499897 0.050674 
55.740662 0.026275 
56.735683 0.036487 
56.965145 0.2352 
57.033718 0.028833 
57.068748 0.088684 
57.070156 6.770041 
57.825665 0.032166 
58.06538 2.666322 
58.073414 0.048543 
58.185181 0.042861 
59.049438 0.035005 
59.138283 0.039007 
59.598083 0.031409 
59.763729 0.058821 
59.999771 0.023474 
60.044678 0.135495 
60.081188 0.029071 
60.942219 0.053227 
61.01086 5.93849 
61.199249 0.030411 
62.018738 0.030986 
63.616489 0.024318 
64.015144 0.031295 
64.549416 0.047949 
65.103294 0.027878 
65.326141 0.022494 
65.454834 0.049457 
66.559158 0.044612 
67.054359 1.413161 
67.452423 0.035484 
68.046646 0.009527 
68.137566 0.009729 
68.223686 0.009209 
69.069984 0.670406 
70.065201 1.701576 
70.371246 0.029165 
70.435089 0.063476 
71.049263 0.049636 
71.085587 0.779378 
71.491783 0.039077 
72.044418 0.01702 
72.080864 0.533198 
72.951706 0.025419 
73.046738 0.068331 
73.064857 0.080966 
73.39399 0.024592 
74.216087 0.043101 
74.240021 0.040757 
76.40918 0.041586 
76.427017 0.031362 
77.212509 0.054626 
77.488335 0.052854 
78.252632 0.033175 
78.740746 0.04207 
78.857994 0.033931 
79.021271 1.47606 
79.054337 0.157807 
79.195145 0.028565 
79.307724 0.015274 
79.666138 0.030267 
80.015808 0.042445 
80.295372 0.028382 
80.359917 0.034582 
81.069939 1.333415 
81.448303 0.033884 
81.492813 0.030269 
82.026421 1.342933 
82.335106 0.036016 
83.049164 1.207745 
83.08548 0.598409 
83.30925 0.013126 
83.825333 0.023371 
84.080841 0.411507 
84.959755 0.313459 
85.012802 0.040549 
85.064819 0.49025 
85.101234 0.311143 
85.150352 0.018272 
85.210793 0.059866 
86.059982 0.038224 
86.096436 1.056739 
86.814682 0.049447 
87.044037 0.170344 
87.264633 0.047716 
88.075714 0.019604 
88.190857 0.04549 
89.05703 0.044908 
89.0597 4.481726 
90.001724 0.045386 
90.055206 0.014723 
90.609367 0.048068 
91.054268 0.714349 
91.057373 0.477136 
92.501335 0.042557 
92.722122 0.04498 
93.069992 0.471352 
93.162437 0.047866 
93.492523 0.018248 
93.508469 0.010371 
94.353508 0.034817 
95.049164 2.313407 
95.085541 1.094996 
96.080864 2.096449 
97.064934 0.481691 
97.076149 0.242822 
97.101196 0.155905 
98.060066 2.184918 
98.096489 0.01367 
98.975327 0.051177 
99.044235 0.011722 
99.080383 0.076353 
99.424332 0.035362 
100.0756 0.011643 
100.322655 0.026636 
101.059784 0.016448 
101.166649 0.026944 
101.296005 0.048246 
101.609627 0.032037 
102.042061 0.030515 
103.038971 0.018552 
103.23233 0.011281 
104.581879 0.027592 
105.033569 17.731495 
105.037437 0.161071 
105.069901 0.136232 
106.036873 1.209181 
106.300606 0.060872 
106.372086 0.010882 
106.71151 0.041653 
107.085487 0.310808 
108.733055 0.032194 
109.064857 0.492166 
109.101242 0.230978 
109.267136 0.010293 
110.060097 0.156923 
111.044029 0.135792 
111.080444 0.103418 
111.509644 0.035897 
112.075676 1.612317 
113.059776 0.17807 
113.096069 0.579255 
113.709229 0.040639 
114.091934 0.017365 
114.102562 0.232749 
114.307495 0.033327 
115.086571 0.803186 
116.070511 0.080182 
116.106979 0.727301 
116.984985 0.175646 
117.069901 0.011454 
118.086105 0.06501 
119.048706 0.027662 
119.085655 0.065609 
119.557884 0.04239 
119.740501 0.032092 
120.925446 0.012967 
121.028168 0.018319 
121.064842 1.196232 
121.101295 0.247496 
122.059799 0.021181 
123.080391 0.047853 
123.117073 0.028996 
124.039566 0.052609 
124.075676 0.468976 
124.112343 0.221072 
124.402405 0.04481 
124.642998 0.048925 
124.66394 0.035145 
126.604942 0.048115 
126.76107 0.022736 
126.937531 0.023773 
128.070404 0.027807 
128.970978 0.045001 
129.37175 0.046352 
131.000137 0.391795 
131.085541 0.065771 
132.044571 0.06993 
132.40152 0.027878 
133.085876 1.731772 
133.100983 0.17328 
134.060043 0.69702 
134.096313 0.016304 
134.996017 0.054984 
135.043716 0.13652 
136.076065 0.061526 
136.112061 0.083412 
136.920532 0.024115 
137.059631 0.280363 
137.945496 0.043236 
137.954483 0.633112 
138.127655 0.090172 
139.039017 0.051937 
139.537201 0.01311 
139.802307 0.010683 
140.419434 0.010499 
140.943405 0.030796 
143.000916 0.032994 
144.027573 0.038494 
144.101837 0.059425 
144.592987 0.041875 
144.895264 0.018562 
144.997452 0.191384 
145.015808 0.97876 
145.10083 0.01998 
146.92804 0.028065 
147.011658 0.039314 
147.080338 0.021875 
147.116791 4.128492 
148.07576 0.219616 
148.119766 0.132483 
149.020905 53.22385 
149.095917 0.034508 
149.10704 0.063581 
150.017426 0.061831 
150.024048 3.093423 
150.091278 0.286792 
150.127823 0.031998 
150.972656 0.095562 
151.039001 0.015135 
151.075317 0.037641 
152.107117 0.171932 
152.462769 0.021767 
152.808334 0.046281 
152.951447 3.474899 
152.9888 0.027932 
153.021118 0.059489 
153.959229 4.657409 
154.946884 0.955345 
155.03389 2.489586 
155.106522 0.180932 
155.954712 1.344157 
155.964844 0.043921 
156.041885 4.376822 
156.080521 0.031566 
156.978775 0.03234 
157.015793 0.328299 
157.025955 7.880282 
157.049805 0.380505 
157.108368 2.991096 
157.119385 0.031465 
158.029434 0.237961 
158.237442 0.035637 
158.994995 3.593223 
159.031464 0.330903 
159.0811 0.055123 
159.136032 0.024167 
159.308151 0.044375 
160.161606 0.039254 
160.568436 0.030212 
160.990524 0.8692 
161.096268 0.051643 
161.107285 0.345797 
162.05484 0.271718 
162.091492 0.013337 
162.988724 0.045185 
163.147644 0.031432 
164.070618 0.130717 
164.107269 0.049398 
164.987823 7.759319 
166.983353 2.745544 
167.03096 0.043709 
167.036774 0.402052 
168.034515 0.136953 
168.982712 0.624402 
169.051941 0.477041 
169.196442 0.037631 
169.360138 0.04639 
170.754837 0.034248 
170.961899 0.741859 
170.994995 1.230365 
171.031509 0.262116 
171.960342 0.046012 
171.992783 0.24006 
172.849823 0.046184 
173.010773 6.445279 
173.057266 9.284129 
173.070877 0.013633 
173.10791 0.048129 
173.675125 0.010981 
174.060837 0.386567 
174.091553 0.051684 
174.127945 0.080049 
174.933167 0.026187 
174.990036 4.378591 
174.999115 0.313126 
175.006393 1.560134 
175.074661 0.025115 
175.553452 0.045086 
175.608704 0.060596 
175.987747 0.670186 
176.008011 3.053988 
176.070602 0.262092 
176.107117 0.233484 
176.987808 10.690584 
176.996078 0.026176 
177.005569 5.141527 
177.015137 0.782148 
177.054077 0.042314 
177.990997 0.020245 
178.023758 2.093227 
178.664581 0.061554 
178.983368 3.865137 
179.002792 4.666416 
179.031418 1.356441 
179.104385 0.017144 
179.117935 0.224793 
180.065643 0.013297 
180.101746 0.179418 
180.151108 0.047679 
180.999023 1.110199 
181.051971 1.587497 
182.049591 0.068243 
182.081436 0.011527 
183.047089 0.146087 
183.14827 0.011258 
184.03685 15.05907 
184.133194 1.789418 
185.010925 2.229406 
185.039688 0.698661 
185.047241 0.227148 
185.070175 0.054224 
185.221939 0.016181 
185.949173 1.220598 
186.008514 0.682218 
186.052734 2.110151 
187.006012 0.152903 
187.026413 2.962049 
187.086105 0.332032 
187.944901 0.292971 
187.954666 0.225431 
188.068283 0.910037 
189.005753 7.456709 
189.014877 0.391097 
189.022095 0.133163 
189.903961 0.051133 
190.003265 2.536699 
190.05011 0.016075 
191.002365 4.036152 
191.021118 2.635825 
191.068359 0.211301 
192.026459 3.427011 
192.065399 0.178761 
192.101944 0.340958 
193.000504 0.608389 
193.01062 36.116978 
193.085876 0.069649 
193.133987 0.020176 
193.301025 0.049232 
194.014023 1.964371 
194.081223 1.416775 
194.962082 0.608123 
194.998672 0.809046 
195.015015 0.039886 
195.067825 1.708484 
195.149384 0.644849 
196.027954 0.030594 
196.065384 0.347402 
197.011871 0.474843 
197.048859 0.04752 
197.0634 0.214748 
197.127808 0.048314 
198.052399 0.166349 
198.149109 0.012357 
199.026489 2.066727 
199.061142 0.044239 
199.086761 0.048982 
200.023407 0.620524 
200.032852 0.356167 
200.044113 0.720062 
200.068314 0.104762 
200.107437 0.041408 
201.006866 0.21923 
201.022064 0.097201 
201.042282 0.42797 
201.102219 0.64862 
202.047928 0.017166 
203.021439 3.08769 
203.117966 0.167813 
204.018936 1.243959 
204.027527 0.058363 
204.799393 0.031394 
204.962006 0.245453 
205.018295 1.073281 
206.043732 0.043776 
207.015015 0.059983 
208.977722 2.754635 
209.083389 2.365261 
209.315842 0.047914 
210.081467 0.22346 
210.973251 0.616961 
211.027359 0.579025 
211.068817 0.857221 
211.078735 0.337257 
212.032333 0.335273 
213.007111 0.323843 
213.040298 3.83951 
213.137833 2.051015 
213.150513 2.446489 
214.039398 0.324688 
214.047333 0.398036 
214.987183 0.050612 
215.022797 0.033765 
215.045395 0.94498 
215.05719 0.669137 
215.068008 0.626305 
215.08017 0.053857 
216.063141 100.0 
216.137299 0.052874 
217.036728 0.736532 
217.047699 3.048675 
217.066528 11.055872 
217.084641 0.012742 
217.097183 0.045092 
217.157913 0.013542 
218.034805 0.14265 
218.054703 0.68371 
218.0681 0.407222 
219.032776 0.074626 
219.111694 0.030156 
220.028214 0.406572 
220.060074 0.191271 
220.096283 0.012796 
221.98439 0.043072 
222.993103 0.318029 
223.099518 0.038689 
223.144684 0.041459 
224.096649 0.041991 
224.81871 0.026705 
225.007599 0.044675 
225.041748 0.050551 
226.001968 0.106923 
226.039734 0.441784 
227.057724 0.43747 
227.155029 0.042548 
229.001892 0.620503 
229.061203 0.106799 
229.07338 0.356555 
230.009323 0.04139 
230.079559 0.058411 
231.017548 1.097644 
231.051727 0.078965 
232.021576 1.961223 
232.058426 0.457114 
232.261261 0.028097 
233.04538 0.012726 
233.078842 1.575062 
233.090561 0.016285 
234.147858 0.014247 
234.766373 0.028401 
235.095108 0.123593 
236.022736 0.047757 
236.149307 0.185324 
237.009033 0.229642 
238.038589 0.222284 
238.142792 0.036152 
239.022842 0.026616 
239.056534 0.211711 
240.026688 0.515629 
240.055298 0.510653 
240.908966 0.013114 
241.073624 0.107652 
241.154556 0.085118 
242.042282 0.52719 
242.071793 0.055188 
243.017532 0.070143 
243.088516 0.165175 
244.012878 0.193004 
244.027252 0.030962 
244.060654 0.173089 
246.006851 0.034918 
246.065872 0.146537 
246.709656 0.049976 
247.011978 0.122925 
247.045258 0.59717 
247.893875 0.026723 
248.054245 0.043526 
248.091385 0.031979 
248.254486 0.017266 
249.027328 0.047195 
249.14769 0.039879 
250.03833 0.391963 
250.107407 0.053547 
251.058914 0.027396 
251.088943 2.146044 
252.054504 0.030887 
252.077789 0.060969 
252.55162 0.043297 
254.071426 0.077216 
256.086273 0.295796 
257.04715 0.06049 
257.103394 0.024539 
259.012634 0.323309 
259.057983 1.795351 
259.115173 0.640614 
260.081787 0.103484 
261.074432 0.045738 
261.195862 0.034832 
263.070618 0.015213 
263.089386 0.284234 
263.107208 0.028881 
263.559296 0.03027 
264.017792 1.959115 
264.047668 0.026575 
264.12796 0.039426 
265.021545 0.033983 
265.09787 0.012488 
266.054291 0.086024 
266.093048 0.040775 
267.101593 1.051969 
268.01239 0.298429 
268.04834 0.072978 
268.086365 0.069738 
269.068024 0.066519 
269.103424 0.053173 
269.118439 0.049686 
270.030121 0.085522 
270.102509 0.140256 
270.910767 0.236034 
271.689484 0.062116 
272.99115 0.044774 
273.043365 0.033893 
274.097412 0.05526 
275.052429 1.363231 
276.05545 0.169246 
276.085541 0.048406 
277.068481 3.688201 
277.08374 0.291251 
277.118011 0.029782 
278.034149 0.08768 
278.071472 0.245329 
278.099854 3.088062 
278.147125 0.171845 
279.052887 0.042568 
279.066437 0.01769 
279.08374 9.065051 
280.087189 0.876748 
280.108246 0.060829 
282.028168 0.443646 
284.117554 0.066846 
284.14679 0.037647 
286.893707 0.02339 
287.021332 0.05158 
288.113068 0.051773 
288.921021 0.481449 
289.038666 0.152555 
290.128967 0.065842 
292.11676 0.017261 
293.063416 2.328464 
293.127472 0.31796 
294.028625 0.128469 
294.049377 1.759016 
294.066437 0.275046 
294.096008 0.146592 
294.151459 0.017347 
295.05719 2.147192 
295.078491 5.185648 
295.096222 3.386146 
295.128662 0.039469 
296.081604 0.525964 
296.09967 0.057436 
297.064178 0.237933 
297.158081 0.014485 
298.071136 0.090097 
298.118164 0.047008 
298.164886 0.018103 
300.051178 0.048867 
302.138397 0.141164 
304.049835 0.054021 
305.032806 0.864724 
305.984039 0.546916 
306.931427 0.039691 
307.048157 0.154244 
307.105835 0.019106 
308.02652 0.043426 
308.052612 2.567181 
308.117645 0.897578 
309.058167 0.329806 
309.121399 0.226831 
310.065796 0.013184 
310.113251 0.056483 
310.133331 3.367493 
311.044312 0.041472 
311.134735 0.054251 
311.152679 0.231806 
312.149231 8.716876 
313.106903 0.141873 
313.15152 0.599782 
313.168915 0.367641 
313.204498 0.477412 
314.164978 3.361864 
315.009277 0.017984 
315.073547 0.0725 
315.166077 0.366208 
316.027313 0.031809 
316.04837 0.228144 
320.053528 0.01576 
321.026733 0.042184 
321.075714 0.726135 
323.043884 0.040448 
323.996552 0.036696 
324.152985 1.705424 
326.033386 0.621481 
328.048065 0.077577 
329.032135 0.033379 
330.15979 1.523492 
330.917114 0.093536 
331.114349 0.152729 
331.177673 1.500805 
331.215393 0.135274 
332.175659 10.281011 
332.97287 0.246341 
333.177673 1.40728 
333.974609 0.047696 
336.047546 1.158789 
336.104858 0.164375 
337.034393 0.081494 
337.055511 6.944579 
337.076202 0.039512 
338.06189 3.555517 
339.065002 0.017189 
341.230377 0.140337 
344.043854 1.655337 
346.870117 0.060389 
347.044189 0.031696 
348.103668 0.014455 
349.022095 0.123261 
349.188568 0.761217 
350.084991 0.685407 
350.186371 7.335647 
350.946533 0.057657 
350.983185 0.436098 
351.187653 0.773492 
353.19339 0.131595 
354.028564 0.441379 
354.058197 0.368075 
355.061493 0.041835 
355.114197 0.186972 
355.437988 0.04335 
356.042908 0.035254 
356.072418 0.070303 
362.053772 0.440592 
364.139832 0.014413 
366.050079 0.085322 
367.115936 0.028895 
367.197418 0.040185 
368.074036 0.329821 
368.196655 0.720982 
369.081665 4.614911 
370.088684 4.399111 
371.091431 0.24091 
372.039001 1.867998 
372.068665 0.071797 
373.042023 0.137672 
380.068878 0.068629 
381.470428 0.023768 
384.997253 0.040726 
385.044128 0.026915 
386.053986 0.158911 
386.084686 0.218616 
390.04895 0.09049 
390.162598 0.399084 
390.20993 0.069088 
390.711639 0.050831 
391.051788 0.04265 
391.181519 7.78097 
391.249847 0.055464 
392.17923 14.863548 
393.17926 5.187255 
394.177643 0.455657 
395.037781 0.038495 
395.109558 0.870394 
395.152588 0.046069 
395.847443 0.014472 
396.111694 0.059166 
396.824005 0.024793 
399.16449 0.022487 
399.215454 0.475903 
399.716644 0.527517 
404.065399 0.121573 
407.320496 0.034747 
409.191254 1.413716 
409.327637 0.260726 
410.120941 1.055764 
410.189362 3.368194 
410.262421 0.024499 
411.125763 0.0586 
411.189697 0.921766 
411.25769 1.295942 
412.020935 0.18262 
413.562164 0.048438 
425.159851 1.049992 
426.165405 0.74433 
427.633759 0.110425 
428.130737 0.150239 
428.177094 0.269895 
429.134949 0.042359 
430.029358 0.043314 
432.272736 0.027306 
438.115509 9.163996 
439.1185 1.872241 
440.12677 0.028712 
440.183014 0.120838 
451.185211 0.078543 
453.201599 0.020753 
468.098999 0.017173 
468.212769 0.055647 
468.249939 0.783335 
469.099701 1.073648 
469.161652 0.222322 
469.203217 2.568433 
469.237823 0.685724 
469.276123 0.065374 
469.314514 6.178718 
469.349396 3.001003 
469.384857 10.601232 
470.103912 0.033886 
470.141327 3.491631 
470.176849 0.323102 
470.211243 0.21939 
470.246948 0.055082 
470.284332 0.0606 
470.31665 1.712226 
470.353363 0.816963 
470.389282 3.041107 
471.142456 0.56061 
471.179779 0.17854 
471.218689 1.883135 
471.28476 0.098729 
471.327972 5.565278 
471.364563 26.350178 
471.64386 1.727098 
472.151886 1.070707 
472.203491 0.10988 
472.268066 0.065646 
472.33316 0.183711 
472.367828 2.212285 
475.18689 0.047416 
485.301727 0.462215 
490.163574 0.08148 
END IONS

