BEGIN IONS
PEPMASS=193.026
CHARGE=1+
COMPOUNDNAME=terrein
LIBRARYQUALITY=3
SMILES=N/A
INCHIKEY=MHOOPNKRBMHHEC-HZIBQTDNSA-N
INCHI=InChI=1S/C8H10O3/c1-2-3-5-4-6(9)8(11)7(5)10/h2-4,7-8,10-11H,1H3/b3-2+/t7-,8-/m0/s1
MSLEVEL=2
SOURCE_INSTRUMENT=N/A-ESI-QFT
FILENAME=library_mgf.mgf
SEQ=*..*
IONMODE=positive
ORGANISM=MONA
NAME=terrein [M+K]+
PI=MoNA
DATACOLLECTOR=MoNA:VF-NPL-QEHF021229
PUBMED=N/A
SUBMITUSER=mwang87
TAGS=
SPECTRUMID=CCMSLIB00004712292
SCANS=21229
50.370007 0.006667 
50.550102 0.016564 
50.745106 0.017055 
51.940289 0.067821 
51.96711 0.007025 
52.373184 0.006835 
52.70892 0.016061 
53.548004 0.006518 
53.620472 0.013663 
53.654278 0.01564 
54.20937 0.006005 
54.434406 0.016183 
54.870724 0.008994 
55.054516 0.00669 
55.246796 0.006973 
55.401508 0.014954 
55.436134 0.009996 
55.4412 0.013022 
55.465584 0.009707 
55.516689 0.01742 
55.522846 0.015657 
55.575127 0.007503 
56.129768 0.006213 
56.611305 0.013519 
56.965042 1.626373 
57.018261 0.013976 
57.033958 0.007325 
57.07019 0.007843 
57.935089 0.525883 
58.065388 0.309892 
58.168083 0.008725 
58.241627 0.007733 
58.64624 0.008992 
58.649776 0.006268 
58.758156 0.014819 
59.007744 0.006802 
59.049374 1.25944 
59.120506 0.010439 
59.179108 0.011008 
59.425083 0.011357 
60.058777 0.014214 
60.304523 0.011831 
60.447182 0.010718 
61.01086 100.0 
61.418312 0.013076 
61.524914 0.007174 
61.962547 0.009875 
62.014149 0.128962 
62.018646 2.237044 
62.068192 0.107515 
62.173721 0.010729 
62.300323 0.007913 
62.423161 0.00989 
62.549397 0.009103 
62.695995 0.011948 
62.838852 0.006238 
63.006592 0.346472 
63.026539 0.015041 
63.294418 0.014417 
63.64537 0.009701 
63.784824 0.01433 
63.964188 0.009522 
64.465858 0.010798 
64.687965 0.006282 
64.966553 0.015647 
65.313133 0.010411 
65.375511 0.012377 
65.440002 0.009913 
65.88282 0.014772 
66.150391 0.012142 
66.519005 0.009774 
66.536514 0.011394 
66.889267 0.011211 
66.895081 0.014893 
67.054375 0.062131 
67.325905 0.017642 
67.934906 0.103096 
68.190102 0.01349 
68.648865 0.011798 
68.899796 0.017366 
69.069839 0.008285 
69.079453 0.008631 
69.224625 0.008082 
69.245888 0.01096 
69.809265 0.015177 
69.961021 0.014798 
70.025536 0.008541 
70.065163 0.008357 
70.95797 0.542874 
71.049217 0.019215 
71.365891 0.015109 
71.435226 0.014213 
72.266869 0.015216 
72.617393 0.014978 
72.928329 0.00971 
72.937149 0.059711 
72.958313 0.330603 
73.455826 0.014715 
73.909889 0.014859 
74.626839 0.011733 
74.743141 0.009835 
74.948959 0.016093 
74.971832 0.009729 
75.006157 0.00928 
75.945335 1.938294 
76.174789 0.012705 
76.404724 0.012969 
78.187859 0.014456 
78.489357 0.010032 
79.02124 3.848516 
79.054291 0.047405 
79.200516 0.008901 
80.024406 0.011594 
80.0495 0.078774 
80.187561 0.014822 
80.846611 0.011778 
81.017067 0.126698 
81.066505 0.012977 
81.069878 0.328789 
81.197159 0.015058 
81.769234 0.006643 
81.845703 0.014887 
82.850693 0.014607 
83.024178 0.006308 
83.085663 0.009803 
83.929825 0.307218 
84.333771 0.014898 
84.93782 0.013654 
84.959702 0.768137 
85.567421 0.014178 
85.655952 0.015049 
85.945419 0.021762 
86.060028 0.348259 
86.767265 0.010431 
87.044106 0.412009 
87.406029 0.011206 
87.726456 0.009636 
87.945648 0.016562 
87.953644 0.015461 
88.473274 0.011476 
89.059731 4.753254 
89.224136 0.012863 
89.783844 0.010821 
89.93988 0.038322 
90.118301 0.012357 
90.845612 0.0111 
90.947754 0.041361 
90.969162 0.04737 
91.054237 0.138623 
91.186775 0.012675 
91.81176 0.011904 
92.068832 0.012439 
92.485619 0.018351 
92.721596 0.015531 
92.810371 0.013854 
93.069923 0.203529 
93.141098 0.006888 
93.228264 0.010753 
93.515633 0.011571 
93.527405 0.014303 
93.73568 0.013321 
93.955933 1.158315 
94.200218 0.009853 
94.901733 0.015298 
95.085526 0.316164 
95.380547 0.016865 
97.06485 0.030393 
97.150291 0.013997 
98.657959 0.014911 
98.975319 1.354403 
99.107262 0.00769 
99.212891 0.013256 
99.840683 0.011461 
100.075699 0.019241 
100.495934 0.009583 
101.008568 0.118978 
101.05587 0.011499 
101.94043 0.116613 
101.998962 0.010214 
102.05497 0.434841 
102.638466 0.011408 
102.914673 0.758771 
102.947975 0.008431 
102.95295 0.015033 
103.054222 0.174165 
103.97673 0.243917 
104.268982 0.011154 
104.919228 0.014291 
104.930397 5.143313 
104.963226 0.016665 
105.069931 0.040603 
105.156219 0.009955 
105.917023 0.023165 
105.955894 0.366484 
106.248451 0.012177 
107.049072 0.343181 
107.070168 0.034882 
107.085503 0.157535 
108.326447 0.015393 
108.847816 0.014343 
109.028305 0.246758 
109.101112 0.100458 
109.752113 0.014181 
110.133286 0.011867 
111.973732 0.013312 
112.712784 0.010288 
112.953613 0.018477 
113.123169 0.011802 
114.948013 0.008274 
116.005051 0.021668 
116.056267 0.011105 
116.985886 0.461103 
117.933289 0.010322 
117.955902 0.05683 
118.308556 0.009403 
118.92482 0.018342 
118.9431 0.015808 
119.00116 0.425558 
119.018959 0.275961 
119.038177 0.01162 
119.049126 1.462052 
119.053734 0.008191 
119.085518 0.142192 
119.917381 0.074619 
119.950935 0.174344 
120.052322 0.01148 
120.178085 0.007252 
120.233009 0.012637 
120.241516 0.016063 
120.531876 0.017676 
120.925247 0.399543 
120.940414 0.127533 
121.100906 0.031584 
122.28997 0.014992 
122.405037 0.017557 
122.940842 26.393728 
127.246841 0.011177 
127.688782 0.011222 
128.46376 0.016581 
129.844482 0.01194 
130.943054 0.305303 
131.002197 0.011641 
131.049057 1.027234 
131.696167 0.011199 
131.950958 0.036668 
131.961334 2.129335 
132.101898 0.028387 
132.40509 0.011078 
132.936325 0.306913 
132.952591 0.013873 
132.958145 2.341597 
133.024536 0.017682 
133.08577 0.573412 
133.101105 0.116999 
133.530228 0.011114 
133.948212 0.106822 
134.096268 0.111541 
134.940781 1.812645 
134.958633 6.760101 
134.978531 2.761556 
134.983978 0.010293 
134.996124 0.029801 
135.066849 0.011783 
135.116669 0.206721 
135.927536 0.008825 
135.94873 1.83066 
135.966476 4.190208 
136.014282 0.009496 
136.956543 7.207004 
136.974716 0.02888 
137.011703 2.870027 
137.059723 2.238139 
137.928009 2.766959 
138.012543 0.0968 
138.062927 0.171522 
138.346725 0.013781 
138.935898 0.123627 
138.951462 0.007845 
138.971878 0.01676 
139.008896 0.013644 
139.281006 0.012511 
139.386337 0.009084 
140.951447 1.699329 
143.684418 0.011678 
143.829376 0.008817 
144.830383 0.011715 
144.958389 0.016951 
144.99234 0.015351 
145.024429 0.112328 
145.525894 0.016293 
145.988297 0.229053 
146.728867 0.018024 
146.92012 0.006871 
146.940796 0.132367 
147.116699 0.045951 
147.967911 0.028773 
147.974792 3.521453 
148.112 14.682691 
148.462082 0.011627 
148.646698 0.013811 
148.971817 19.967875 
148.978622 0.385109 
148.991028 0.09133 
149.059647 0.243612 
149.096451 0.0209 
149.115448 0.451907 
149.132324 0.054033 
149.269363 0.016991 
149.97168 1.883267 
150.951096 0.421694 
150.962173 0.020087 
150.972473 12.994514 
151.517075 0.015854 
152.951401 71.68306 
152.969162 11.06221 
152.989059 1.170381 
153.959229 73.807243 
154.029572 0.012392 
154.955475 0.01601 
154.966904 0.439284 
155.022293 0.801037 
155.416138 0.010966 
155.963013 0.022479 
157.215988 0.010226 
159.688278 0.019369 
161.011703 5.968689 
161.071793 0.00856 
162.01297 0.466967 
162.946808 0.124153 
162.973343 0.043033 
163.008911 0.199385 
163.764862 0.015131 
163.998749 2.284193 
164.392563 0.011423 
164.823196 0.014953 
164.930832 0.022079 
164.951492 7.223894 
164.964325 0.010093 
164.985153 0.008767 
164.999802 0.091605 
165.122467 0.009169 
165.937881 0.067592 
165.985443 0.008887 
165.995895 0.014191 
166.967056 0.653568 
166.982361 3.385712 
167.00145 0.563919 
167.454254 0.010283 
167.93869 0.458032 
167.956329 0.920676 
167.975006 0.642963 
167.984009 0.018618 
168.982727 29.870407 
169.918213 0.026517 
170.069305 0.010331 
170.962036 16.452345 
170.970291 0.088676 
170.979553 0.907235 
170.987488 0.007597 
172.138748 0.017574 
173.132446 0.136568 
173.792068 0.016181 
174.112198 0.008861 
174.149307 0.028084 
174.680267 0.010162 
174.775543 0.010151 
175.086349 0.02733 
175.096985 0.014244 
175.148041 0.410947 
175.842422 0.012925 
176.070679 0.234769 
176.106979 0.062147 
176.151321 0.02818 
176.49678 0.011628 
176.647751 0.009281 
176.855545 0.011528 
176.941238 0.783373 
176.989334 0.055282 
177.93811 1.514621 
178.414154 0.008299 
178.965591 0.041845 
178.978348 2.044286 
179.022308 38.636051 
179.938538 1.873577 
179.953766 0.173286 
179.998703 0.009232 
180.023193 5.40494 
180.960403 0.068371 
180.984329 0.010852 
181.019348 3.323553 
182.009293 0.26554 
182.298935 0.014686 
182.962067 6.211904 
182.998459 0.086418 
183.633926 0.016104 
183.982666 0.013594 
185.012192 0.204095 
185.949081 17.899389 
186.761856 0.012249 
186.99942 0.015122 
187.627182 0.011387 
190.183563 0.012937 
191.08139 0.017874 
191.117889 0.151679 
191.128754 0.014093 
191.143021 0.16484 
191.964706 1.586127 
192.101913 1.95391 
192.112091 0.013637 
192.122818 0.148225 
192.138229 2.229799 
192.148041 0.024373 
192.159576 0.054337 
192.174637 0.089366 
192.96167 5.159041 
193.017548 0.032272 
193.037918 0.391959 
193.095245 1.676176 
193.105759 0.120608 
193.133331 0.411397 
193.142487 0.115029 
193.158798 0.414663 
193.168777 0.019485 
194.040939 0.013024 
194.080994 0.20014 
194.104034 1.250866 
194.117569 7.93635 
194.127686 0.355318 
194.153992 8.662166 
194.952148 1.057723 
194.961929 13.205794 
194.977371 0.040287 
194.999481 0.040191 
195.112595 0.20168 
195.121277 0.374884 
195.149109 0.621736 
195.157455 0.159468 
195.94873 1.271698 
195.958405 0.010133 
197.012115 0.124928 
197.032928 4.074432 
197.949142 3.042591 
198.033859 0.363945 
198.730453 0.014801 
199.030029 0.146427 
199.964874 0.018753 
200.2883 0.006646 
201.082535 0.010088 
209.90004 0.018526 
209.975143 0.90172 
210.096588 0.013014 
210.97197 2.434345 
211.027756 0.660234 
211.927536 0.031272 
212.972549 17.200886 
END IONS

