BEGIN IONS
PEPMASS=540.288
CHARGE=1+
COMPOUNDNAME=Massbank: Apramycin
LIBRARYQUALITY=3
SMILES=[H]OC([H])([H])C([H])(O1)C([H])(N([H])[H])C([H])(O[H])C([H])(O[H])C([H])1OC([H])(O2)C([H])(N([H])C([H])([H])[H])C([H])(O[H])C([H])(O3)C([H])2C([H])([H])C([H])(N([H])[H])C([H])(OC([H])(C([H])(O[H])4)C([H])(N([H])[H])C([H])([H])C([H])(N([H])[H])C([H])(O[H])4)3
INCHIKEY=XZNUGFQTQHRASN-UHFFFAOYSA-N
INCHI=1S/C21H41N5O11/c1-26-11-14(30)18-8(33-20(11)37-21-16(32)13(29)10(25)9(4-27)34-21)3-7(24)19(36-18)35-17-6(23)2-5(22)12(28)15(17)31/h5-21,26-32H,2-4,22-25H2,1H3/t5-,6+,7-,8+,9-,10-,11+,12+,13+,14-,15-,16-,17-,18+,19?,20-,21-/m1/s1
MSLEVEL=2
SOURCE_INSTRUMENT=ESI-LC-ESI-QTOF
FILENAME=Massbank_ESI_positive_8_1_2014_peaks.mgf
SEQ=*..*
IONMODE=Positive
ORGANISM=MASSBANK
NAME=Massbank: Apramycin [M+H]+
PI=Putative Massbank Match
DATACOLLECTOR=Massbank
PUBMED=N/A
SUBMITUSER=mwang87
TAGS=
SPECTRUMID=CCMSLIB00000206042
SCANS=1302
162.074 223.8 
163.1066 648.749 
180.0838 335.7 
181.0948 232.522 
182.0793 177.755 
199.1078 1689.655 
200.0932 112.441 
201.1207 169.236 
217.1177 5182.556 
230.1528 101.961 
271.128 1450.304 
289.1386 123.732 
295.1299 106.897 
308.1646 230.899 
312.1492 171.264 
313.1393 171.467 
323.1354 117.85 
325.1821 160.717 
326.1688 433.874 
330.1594 148.749 
343.1961 713.32 
344.1829 3302.231 
360.174 159.297 
361.2078 2102.096 
362.1909 1161.596 
378.1862 10000.0 
379.222 425.287 
505.2476 136.444 
523.2588 2476.673 
540.2864 4643.002 
END IONS

