BEGIN IONS
PEPMASS=1219.88
CHARGE=1+
COMPOUNDNAME=CYCLOSPORINE
LIBRARYQUALITY=3
SMILES=N/A
INCHIKEY=PMATZTZNYRCHOR-KMSBSJHKSA-N
INCHI=InChI=1S/C62H111N11O12/c1-25-27-28-40(15)52(75)51-56(79)65-43(26-2)58(81)67(18)33-48(74)68(19)44(29-34(3)4)55(78)66-49(38(11)12)61(84)69(20)45(30-35(5)6)54(77)63-41(16)53(76)64-42(17)57(80)70(21)46(31-36(7)8)59(82)71(22)47(32-37(9)10)60(83)72(23)50(39(13)14)62(85)73(51)24/h25,27,34-47,49-52,75H,26,28-33H2,1-24H3,(H,63,77)(H,64,76)(H,65,79)(H,66,78)/b27-25+/t40-,41?,42?,43?,44?,45?,46?,47?,49?,50?,51?,52-/m1/s1
MSLEVEL=2
SOURCE_INSTRUMENT=N/A-ESI-QFT
FILENAME=library_mgf.mgf
SEQ=*..*
IONMODE=positive
ORGANISM=MONA
NAME=CYCLOSPORINE [M+NH4]+
PI=MoNA
DATACOLLECTOR=MoNA:VF-NPL-QEHF028200
PUBMED=N/A
SUBMITUSER=mwang87
TAGS=
SPECTRUMID=CCMSLIB00004721781
SCANS=28200
84.434158 0.116429 
86.059937 2.208816 
86.083115 0.112056 
86.096336 14.432956 
87.094536 0.079061 
88.039368 0.062145 
88.052826 0.053025 
88.228737 0.102975 
90.320946 0.097106 
91.0541 1.633655 
93.06974 0.131341 
94.064995 1.507493 
94.488564 0.13028 
95.048691 0.060818 
95.085396 0.820773 
96.080627 5.92299 
97.439072 0.091854 
98.059898 0.903412 
98.066849 0.053311 
98.096329 2.619405 
98.965485 0.112786 
99.091499 0.282037 
100.039215 23.450197 
100.075569 5.207182 
100.112015 100.0 
100.115829 0.680591 
101.042671 0.144917 
101.115288 4.650524 
103.396362 0.106426 
103.692917 0.052924 
105.069763 1.199778 
107.061455 0.07127 
107.085419 8.843503 
108.08062 3.645898 
108.088509 0.17444 
109.049065 0.081457 
109.088463 2.836407 
109.101028 6.209199 
109.104645 0.046111 
109.135956 0.115695 
109.579887 0.071741 
110.059944 0.824049 
110.083534 0.078231 
110.096268 2.00014 
110.79026 0.094323 
111.067734 1.065084 
111.103951 0.619568 
112.075539 0.884863 
112.111862 0.468748 
113.070587 0.087743 
113.647018 0.078826 
114.091263 14.144002 
115.086357 0.349074 
115.094566 0.132922 
115.249619 0.073558 
118.751869 0.077235 
119.169258 0.04013 
120.413727 0.101376 
121.088303 0.534778 
121.347641 0.048417 
122.096275 0.621578 
122.264168 0.073514 
123.104095 1.240378 
123.963745 0.106855 
124.075523 2.241123 
124.112061 0.101588 
125.070831 1.335528 
125.096054 8.270653 
125.10743 0.219371 
125.877472 0.096239 
126.054855 8.167607 
126.091278 0.150399 
126.501373 0.056742 
126.541496 0.060086 
127.086372 1.794138 
128.106857 45.32317 
128.712662 0.107302 
129.102036 1.429433 
129.110123 2.02797 
130.068024 0.09669 
130.243439 0.081125 
134.33725 0.119386 
136.111938 10.683375 
138.054718 6.117567 
138.127579 16.107096 
139.062866 0.133207 
139.086441 1.175821 
139.122955 0.292842 
139.130859 0.408747 
140.070343 4.290131 
140.106918 0.076301 
140.143204 0.356312 
141.03772 0.106281 
141.909576 0.036788 
143.081406 0.517126 
143.316101 0.078616 
144.928665 0.100987 
145.420761 0.074852 
151.205963 0.117605 
152.070419 7.904712 
152.678452 0.067786 
153.07341 0.129082 
153.102127 1.25626 
153.137512 0.133012 
154.122513 0.216468 
155.117294 0.436579 
156.1017 8.539065 
156.131348 0.747239 
156.138138 43.909023 
156.145386 0.338422 
157.097031 0.79888 
157.141403 2.676778 
158.458893 0.082871 
163.021545 0.129217 
166.110886 0.129453 
166.122498 6.129016 
166.63974 0.107796 
166.971664 0.081503 
167.093826 1.186369 
167.117645 0.262001 
168.101791 2.390482 
169.133331 1.288664 
170.11734 4.810174 
171.148941 7.495344 
177.436569 0.106394 
181.109344 0.113079 
182.117401 6.648192 
183.749969 0.114043 
183.858047 0.081979 
184.132446 0.11498 
190.818573 0.107861 
191.684662 0.096446 
199.075134 0.108167 
199.108475 0.096682 
199.143967 3.891442 
201.2323 0.049665 
201.805527 0.115965 
205.457321 0.100704 
209.164581 0.649861 
209.939636 0.076453 
210.148712 1.925216 
210.985489 0.076554 
211.782471 0.059599 
213.108765 0.063563 
214.119232 0.081798 
219.553741 0.049385 
219.731613 1.151941 
222.154877 0.077329 
223.180222 1.122094 
224.164276 1.894651 
227.140564 0.064774 
228.132492 0.059133 
228.543777 0.048908 
232.636215 0.051618 
241.190552 0.269567 
242.335526 0.093669 
245.116898 0.0531 
257.138184 0.117961 
261.110931 0.067256 
263.468475 0.06894 
263.758667 0.117522 
279.20047 0.058652 
280.520844 0.098215 
282.238159 0.066657 
284.657776 0.047266 
302.553162 0.102174 
304.44873 0.061276 
317.060547 0.112538 
317.216278 0.072805 
324.757233 0.063302 
326.015991 0.054344 
327.028015 0.073768 
327.850525 0.137608 
355.444214 0.112022 
361.914307 0.05483 
366.882568 0.123859 
373.279022 0.114466 
376.244659 0.050316 
398.637878 0.050788 
420.829529 0.08086 
447.479248 0.126127 
467.38446 0.066792 
469.156342 0.121707 
477.447174 0.080619 
480.888916 0.055716 
515.139709 0.065392 
522.974182 0.092452 
525.848755 0.052631 
567.40741 0.109662 
570.641235 0.081247 
577.281738 0.061715 
605.690552 0.05384 
619.491272 0.103032 
619.721069 0.126021 
623.121643 0.063374 
629.646851 0.053073 
638.071716 0.112039 
677.218811 0.074923 
681.716064 0.102231 
693.031006 0.122255 
735.089783 0.104541 
770.917725 0.090984 
780.588623 0.075186 
798.034912 0.124844 
809.492188 0.118519 
850.777954 0.083982 
864.446228 0.065816 
868.154663 0.089869 
877.220581 0.122739 
882.091064 0.069078 
964.059387 0.082477 
968.463074 0.148033 
981.805298 0.058774 
1007.635193 0.081721 
1020.185852 0.086496 
1037.587036 0.100107 
1116.026855 0.084251 
1150.932861 0.045008 
1176.529907 0.112519 
1217.727417 0.146612 
1248.649292 0.128142 
END IONS

