BEGIN IONS
PEPMASS=348.168
CHARGE=1+
COMPOUNDNAME=ERGONOVINE MALEATE
LIBRARYQUALITY=3
SMILES=N/A
INCHIKEY=WVVSZNPYNCNODU-XTQGRXLLSA-N
INCHI=InChI=1S/C19H23N3O2/c1-11(10-23)21-19(24)13-6-15-14-4-3-5-16-18(14)12(8-20-16)7-17(15)22(2)9-13/h3-6,8,11,13,17,20,23H,7,9-10H2,1-2H3,(H,21,24)/t11-,13+,17+/m0/s1
MSLEVEL=2
SOURCE_INSTRUMENT=N/A-ESI-QFT
FILENAME=library_mgf.mgf
SEQ=*..*
IONMODE=positive
ORGANISM=MONA
NAME=ERGONOVINE MALEATE [M+Na]+
PI=MoNA
DATACOLLECTOR=MoNA:VF-NPL-QEHF027717
PUBMED=N/A
SUBMITUSER=mwang87
TAGS=
SPECTRUMID=CCMSLIB00004721298
SCANS=27717
50.167328 0.022799 
51.575043 0.039735 
51.940235 0.560231 
52.783855 0.038382 
53.217373 0.025277 
53.682949 0.02285 
53.786304 0.021888 
54.454681 0.035979 
55.201538 0.023998 
55.410892 0.0525 
55.444775 0.035464 
55.898422 0.038512 
56.519043 0.025612 
56.835907 0.028631 
56.965015 0.079164 
57.934948 0.800732 
57.987732 0.031907 
58.065311 0.43436 
59.031792 0.043604 
59.67889 0.026101 
60.358994 0.041926 
61.010845 0.395162 
61.243942 0.044458 
62.018585 0.590772 
62.371826 0.031888 
64.579437 0.03878 
65.831718 0.025146 
67.958534 0.034086 
68.228447 0.039303 
68.27858 0.037788 
68.398949 0.028268 
68.455231 0.066019 
68.942726 0.108635 
69.069962 0.026345 
69.119751 0.069453 
69.732605 0.041358 
69.828087 0.048212 
71.378212 0.060363 
72.000656 0.02777 
72.020622 0.057989 
72.577492 0.031867 
72.586685 0.065696 
72.682861 0.033497 
72.848557 0.06283 
76.22731 0.068471 
77.504532 0.023614 
77.926041 0.020951 
78.826546 0.033507 
78.898521 0.036677 
79.021156 0.676081 
79.148338 0.032756 
82.29113 0.024633 
83.094368 0.03684 
83.663734 0.064399 
84.508179 0.067422 
84.937401 0.03271 
85.03109 0.040048 
85.455719 0.023691 
85.914719 0.018974 
88.323189 0.029032 
91.054199 0.712592 
91.056915 0.0191 
91.723236 0.037351 
92.00338 0.026935 
92.495323 0.060658 
93.025917 0.044764 
93.905937 0.028144 
94.579361 0.034541 
96.210197 0.045931 
97.371216 0.02225 
98.072418 0.02075 
98.319 0.061319 
98.323769 0.041686 
98.890518 0.060429 
98.975227 0.198704 
102.947945 0.026111 
104.022331 0.036293 
104.579636 0.026764 
105.069908 0.342014 
105.239655 0.063291 
105.425987 0.030325 
108.667686 0.036885 
108.731987 0.025944 
110.957382 0.064152 
112.497787 0.036125 
116.96376 0.030217 
117.069557 0.073893 
117.085495 0.019616 
118.514183 0.06235 
118.670769 0.030858 
119.085411 0.104876 
121.101234 0.02769 
121.139275 0.065427 
123.938812 0.031338 
128.963715 1.520852 
130.614883 0.035692 
130.979294 0.019741 
131.010941 0.039989 
131.949615 0.032153 
133.064636 0.098401 
133.101349 0.039686 
133.462677 0.063844 
136.863358 0.047775 
138.845062 0.031478 
140.874771 0.038956 
142.896454 0.041008 
144.256897 0.039177 
145.189255 0.035543 
146.673737 0.039775 
146.974304 2.876819 
147.974258 0.034691 
149.935425 0.052618 
152.951385 0.040709 
153.959641 0.210387 
153.992401 0.076756 
158.157578 0.032384 
158.912827 0.049564 
158.974152 0.03947 
163.02803 0.064804 
167.238876 0.038614 
172.839081 0.053325 
175.702255 0.041735 
176.233566 0.031947 
178.521744 0.047912 
178.892731 0.034518 
179.623016 0.056635 
185.401794 0.041593 
187.881775 0.03752 
188.547821 0.051452 
193.07338 0.023981 
198.170166 0.040089 
199.360367 0.029482 
200.35289 0.036044 
202.858902 0.046379 
203.142975 1.411508 
203.760818 0.054132 
204.080963 0.090267 
205.087738 0.02628 
209.876053 0.305676 
212.384323 0.025312 
212.873795 0.051865 
217.088684 0.528435 
218.096191 0.511292 
218.868668 0.030902 
219.174255 1.254009 
219.194717 0.061082 
219.926743 0.392461 
220.903351 1.544909 
223.839005 0.043663 
227.900528 0.127445 
228.081207 0.287851 
229.088669 0.222867 
230.096268 0.47423 
230.618774 0.03602 
231.103546 0.261014 
232.075714 6.366967 
232.089066 0.037325 
233.081253 0.610982 
233.711121 0.034187 
233.90509 0.082456 
234.078949 0.029514 
234.09137 1.036249 
235.155914 0.035451 
235.891556 0.191723 
236.070328 0.090683 
236.691513 0.064717 
236.899261 0.092004 
237.322479 0.037893 
238.913849 1.487995 
242.060242 0.083133 
244.076141 0.208513 
244.884598 0.048275 
245.911346 0.032285 
246.068542 0.031804 
246.091354 7.524037 
247.063309 0.037393 
247.096832 1.296737 
248.074158 0.02868 
248.106796 1.117822 
250.086441 0.144588 
251.915421 0.172339 
253.902527 0.043854 
256.075745 0.037263 
257.08316 0.887736 
258.090973 0.656766 
259.097595 0.040451 
260.070496 5.823255 
260.106018 0.033902 
261.076538 1.219194 
262.085938 2.565734 
262.894196 0.024797 
263.089752 0.124206 
266.723541 0.040407 
268.499969 0.049624 
268.800964 0.030177 
272.070526 2.907017 
273.074646 0.179337 
274.070648 0.037619 
274.086182 6.178627 
275.057373 2.155593 
275.09375 6.317396 
276.063171 0.352764 
276.101593 4.316751 
277.072693 0.083165 
277.105225 0.237221 
284.745605 0.027515 
286.086151 3.925424 
287.093628 4.714891 
288.065277 1.476515 
288.101807 4.728254 
289.042847 0.062826 
289.073212 5.408458 
289.105103 0.471093 
290.081085 100.0 
291.084503 17.965586 
292.08725 0.76544 
292.790405 0.034046 
299.038116 0.026869 
300.065063 0.085725 
301.072845 0.376975 
302.081116 5.217061 
302.133881 0.038239 
303.08844 5.310856 
304.09668 69.30925 
305.069397 0.206831 
305.10022 13.807064 
306.077057 0.032154 
306.102875 0.466227 
314.081268 4.644438 
315.053223 0.030471 
315.088226 3.453757 
316.060883 9.535311 
316.096558 14.238505 
317.067413 6.242436 
317.099792 2.782079 
318.07608 27.766111 
319.080444 6.366643 
320.082336 0.198674 
329.442993 0.038234 
330.076141 29.259638 
331.07962 6.167392 
332.091949 82.969727 
333.095306 18.275841 
334.071747 0.264076 
334.099731 1.063198 
340.921143 0.039674 
348.085938 0.096589 
348.122437 0.075458 
362.268707 0.030962 
371.152496 0.03663 
END IONS

