BEGIN IONS
PEPMASS=507.277
CHARGE=1+
COMPOUNDNAME=(2E,4E)-1-[(2R,6S,14S,22S,25R)-25-(3,3-dimethyloxiran-2-yl)-15-methyl-1,3,13,15-tetraazaheptacyclo[18.4.1.0�,?.0?,��.0?,��.0�?,��.0�?,��]pentacosa-7,9,11,16(21),17,19-hexaen-3-yl]hexa-2,4-dien-1-one
LIBRARYQUALITY=3
SMILES=N/A
INCHIKEY=XZFSMUXVAYCHFO-QREHLELFSA-N
INCHI=InChI=1S/C32H36N4O2/c1-5-6-7-15-24(37)35-18-16-31-21-12-8-9-13-22(21)33-28-32(31)17-19-36(29(31)35)26(27-30(2,3)38-27)20-11-10-14-23(25(20)32)34(28)4/h5-15,26-29,33H,16-19H2,1-4H3/b6-5+,15-7+/t26-,27?,28+,29+,31-,32-/m1/s1
MSLEVEL=2
SOURCE_INSTRUMENT=N/A-ESI-QFT
FILENAME=library_mgf.mgf
SEQ=*..*
IONMODE=negative
ORGANISM=MONA
NAME=(2E,4E)-1-[(2R,6S,14S,22S,25R)-25-(3,3-dimethyloxiran-2-yl)-15-methyl-1,3,13,15-tetraazaheptacyclo[18.4.1.0�,?.0?,��.0?,��.0�?,��.0�?,��]pentacosa-7,9,11,16(21),17,19-hexaen-3-yl]hexa-2,4-dien-1-one [M-H]-
PI=MoNA
DATACOLLECTOR=MoNA:VF-NPL-QEHF021747
PUBMED=N/A
SUBMITUSER=mwang87
TAGS=
SPECTRUMID=CCMSLIB00004712810
SCANS=21747
50.247871 0.286657 
50.489449 0.278281 
50.734394 0.214737 
52.861435 0.180629 
53.052132 0.297885 
54.001438 0.246906 
54.176498 0.299251 
54.509892 0.159906 
54.589489 0.266137 
55.472225 0.278289 
57.033211 0.295217 
57.059155 0.400422 
59.012383 32.907101 
59.499889 0.311237 
60.044624 0.278805 
60.489807 0.304844 
60.595917 0.267266 
60.818409 0.255586 
60.826469 0.146464 
61.007832 0.146627 
61.210873 0.356238 
61.83968 0.340166 
61.986889 100.0 
62.270363 0.276337 
62.641117 0.357218 
62.936279 0.339488 
63.343338 0.199574 
63.903915 0.263437 
64.116798 0.303445 
65.038216 15.068157 
65.65609 0.244956 
66.10038 0.280369 
66.446571 0.261244 
67.689713 0.299075 
69.008774 0.173505 
69.418701 0.342228 
69.913849 0.253696 
70.622421 0.185876 
74.162827 0.291913 
74.989357 0.909499 
76.044662 0.211744 
76.169418 0.260167 
76.23027 0.266373 
76.33609 0.364784 
76.965401 0.256636 
78.665642 0.304145 
78.957573 3.680616 
79.955902 26.262377 
80.243233 0.198051 
80.963768 4.768199 
82.028374 0.189786 
82.372894 0.287967 
83.417366 0.28722 
83.883598 0.228162 
84.972748 0.34458 
86.916801 0.24656 
87.169617 0.224999 
87.760719 0.42663 
88.572693 0.348423 
89.022995 9.26459 
89.041351 3.225995 
89.17588 0.269146 
89.924232 0.623698 
90.150551 0.296608 
90.33139 0.317786 
90.50296 0.202247 
90.804016 0.434544 
90.902344 0.335745 
90.932167 0.337077 
91.919525 0.335484 
92.049118 19.345102 
92.999794 1.445427 
93.033173 13.433366 
94.028381 1.573166 
94.979401 40.596062 
96.071068 0.257822 
96.238617 0.243476 
96.852867 0.185022 
96.958633 8.393843 
96.9758 0.222694 
97.929886 0.98953 
98.023514 0.515336 
98.937294 0.321907 
99.924393 42.787334 
100.688004 0.242682 
100.924438 2.694957 
100.932198 20.858519 
101.932365 0.383953 
103.380486 0.280379 
103.918678 1.500267 
105.477676 0.265667 
105.752724 0.277665 
105.83474 0.411236 
107.428078 0.160302 
108.020142 0.264323 
108.128052 0.24183 
108.899261 0.366923 
110.002945 0.290289 
110.059746 20.680471 
112.469986 0.206838 
113.852867 0.151293 
113.924866 1.10002 
114.948402 0.376411 
115.086456 0.414175 
115.172447 0.301992 
115.919312 53.903732 
116.049141 12.43663 
116.559944 0.228505 
116.919525 4.088253 
116.927155 7.751333 
118.90641 0.299309 
121.028198 0.556689 
122.222771 0.306691 
122.892639 2.248577 
124.768768 0.30732 
125.871628 0.286115 
128.281433 0.273747 
128.914307 0.252745 
129.070129 0.369445 
130.06485 11.628949 
134.893311 12.562317 
135.446854 0.362114 
135.720703 0.195866 
136.890625 0.293417 
137.070923 0.870076 
137.576416 0.259733 
138.05481 5.943599 
139.164169 0.292241 
139.722015 0.151623 
140.881271 0.223042 
140.941055 0.305429 
141.044556 2.134475 
142.06488 42.81229 
143.068359 0.860537 
144.044128 0.665276 
145.126724 0.370296 
146.037537 0.28687 
146.059479 0.176372 
147.044235 0.388149 
148.43454 0.374195 
149.147934 0.352615 
152.96608 0.430841 
155.059814 0.399048 
156.067902 0.545854 
156.080856 0.373388 
157.039749 0.388686 
157.075897 16.206018 
158.059845 4.792839 
158.316956 0.347513 
158.643585 0.252709 
159.091415 0.769915 
159.706757 0.308023 
160.266235 0.383223 
160.792694 0.254895 
161.626572 0.320735 
166.065002 18.237474 
167.060516 4.103345 
167.067932 0.752401 
168.044312 10.825036 
168.080658 13.356464 
169.038925 0.328153 
169.075592 1.239648 
170.060074 2.471355 
170.544525 0.285733 
171.055252 2.300768 
171.945572 0.593546 
171.983185 0.256042 
172.021393 0.209428 
172.075653 1.718709 
176.992691 0.937787 
177.868896 0.295794 
180.846695 0.346794 
182.047318 0.689281 
182.06015 1.626744 
183.010941 21.115564 
183.055389 16.982229 
183.090805 0.332944 
184.000687 24.925356 
184.063095 0.800984 
184.076813 0.167347 
185.070984 10.665432 
191.007889 0.355753 
192.89003 0.297995 
193.076447 0.418911 
194.292816 0.409779 
195.055389 0.273686 
197.026993 11.385464 
197.070953 12.345814 
198.034149 0.342633 
199.086731 23.525045 
199.850204 1.277986 
200.849731 0.224428 
203.298843 0.275604 
205.33989 0.292904 
208.975266 2.381409 
210.954742 0.263728 
211.086777 0.26847 
212.070282 0.313404 
212.528214 0.333619 
214.913513 0.253453 
219.854721 0.812272 
219.870758 2.813007 
221.841629 2.001093 
223.027344 0.202578 
223.086899 2.111964 
223.351288 0.248292 
225.524155 0.250351 
230.094254 0.292654 
235.318466 0.143157 
237.102509 2.593836 
239.082092 3.049799 
239.118286 6.260235 
242.609467 0.373007 
245.485352 0.296212 
252.403442 0.245029 
252.806076 0.3379 
252.926132 0.421232 
255.091873 1.743341 
255.622879 0.330156 
265.832977 0.417513 
266.963379 1.606379 
267.092743 0.546418 
268.94278 20.461008 
268.958466 0.292622 
269.095795 0.163718 
269.874756 0.242496 
269.942535 3.92167 
270.922638 3.529059 
270.939514 1.268685 
273.103027 0.295512 
274.879883 0.404996 
284.097595 0.165257 
284.973938 2.168339 
285.373932 0.355532 
287.037933 1.587154 
287.968781 0.345419 
296.118103 0.268778 
297.690643 0.379113 
298.097778 1.278742 
305.85968 0.298076 
308.027283 0.336693 
309.478088 0.279011 
312.113861 1.130178 
314.729706 0.263324 
316.535797 0.502188 
324.113098 0.223348 
325.183716 2.621853 
329.945801 0.40396 
339.19928 0.385127 
340.112976 0.312098 
342.961609 1.41322 
343.961975 0.416732 
344.940186 0.651855 
346.919983 6.474139 
347.935455 0.195169 
352.143402 0.291584 
355.680939 0.308329 
361.049713 0.338681 
363.020508 0.178407 
370.138489 0.281185 
372.131165 0.38644 
374.659607 0.313971 
376.976044 0.376699 
377.978027 0.26134 
389.189819 0.334045 
390.993103 1.303096 
391.995605 4.804397 
392.98822 0.948366 
407.544159 0.411834 
409.103027 0.287762 
418.959656 1.438599 
435.772247 0.410245 
458.004242 0.437127 
458.05423 0.545708 
460.950012 0.329463 
483.804718 0.26379 
513.856812 0.290403 
524.184937 0.171857 
526.117432 0.172695 
END IONS

