BEGIN IONS
PEPMASS=580.0
CHARGE=1+
COMPOUNDNAME=MoNA:2303472 Streptomycin
LIBRARYQUALITY=3
SMILES=N/A
INCHIKEY=UCSJYZPVAKXKNQ-HZYVHMACSA-N
INCHI=InChI=1S/C21H39N7O12/c1-5-21(36,4-30)16(40-17-9(26-2)13(34)10(31)6(3-29)38-17)18(37-5)39-15-8(28-20(24)25)11(32)7(27-19(22)23)12(33)14(15)35/h4-18,26,29,31-36H,3H2,1-2H3,(H4,22,23,27)(H4,24,25,28)/t5-,6-,7+,8-,9-,10-,11+,12-,13-,14+,15+,16-,17-,18-,21+/m0/s1
MSLEVEL=2
SOURCE_INSTRUMENT=LC-ESI-QQ-LC-ESI-QQ
FILENAME=output_mgf.mgf
SEQ=*..*
IONMODE=
ORGANISM=MONA
NAME=MoNA:2303472 Streptomycin [M-H]-
PI=MoNA
DATACOLLECTOR=MoNA
PUBMED=N/A
SUBMITUSER=mwang87
TAGS=
SPECTRUMID=CCMSLIB00000571996
SCANS=9247
96.8 6.405694 
110.7 0.711744 
129.8 2.135231 
151.6 3.558719 
153.1 1.423488 
165.3 1.067616 
195.1 2.135231 
219.1 9.252669 
233.2 4.270463 
244.0 3.202847 
250.5 1.423488 
259.2 7.829181 
261.2 100.0 
280.5 1.779359 
318.2 3.558719 
END IONS

