BEGIN IONS
TITLE=Scan Number: 327
PEPMASS=135.06599
CHARGE=1+
COMPOUNDNAME=Pentostatin
LIBRARYQUALITY=3
SMILES=C1[C@@H]([C@H](O[C@H]1N2C=NC3=C2NC=NC[C@H]3O)CO)O
INCHIKEY=FPVKHBSQESCIEP-JQCXWYLXSA-N
INCHI=
MSLEVEL=2
SOURCE_INSTRUMENT=LC-ESI-Orbitrap
FILENAME=f.ktahlan/KT-1/MUN/Methanol/SC/1_180806215001 SC on SA meth-pos.mzXML;
SEQ=*..*
NOTES=
IONMODE=Positive
ORGANISM=GNPS-LIBRARY
NAME=Pentostatin M+2H
SPECTRUMID=CCMSLIB00005435936
ACTIVATION=CID
INSTRUMENT=ion trap
SCANS=327
70.824081 1309.310913 
71.351219 1104.94751 
74.617714 1255.695557 
79.054367 8289.125977 
80.049637 2932.227539 
81.04493 102996.484375 
81.60141 1229.595825 
86.096725 1477.931519 
89.022095 3262.759766 
91.028893 2557.43335 
91.054169 1343.784912 
93.044815 25609.892578 
94.040138 5405.23291 
105.070145 1861.884155 
106.03965 2261.131104 
107.048859 7550.077637 
107.060478 3020.635498 
107.085609 8615.870117 
108.055649 183601.703125 
110.071259 1814.044434 
112.050453 7763.286621 
117.738869 1340.457153 
118.039948 76727.273438 
126.066376 1679.651001 
135.066498 824873.6875 
135.09021 34945.125 
136.039627 25476.017578 
136.050461 227050.3125 
END IONS

