BEGIN IONS
PEPMASS=331.0
CHARGE=1+
COMPOUNDNAME=MoNA:2581398 Gibberellic acid A4
LIBRARYQUALITY=3
SMILES=N/A
INCHIKEY=RSQSQJNRHICNNH-NFMPGMCNSA-N
INCHI=InChI=1S/C19H24O5/c1-9-7-18-8-10(9)3-4-11(18)19-6-5-12(20)17(2,16(23)24-19)14(19)13(18)15(21)22/h10-14,20H,1,3-8H2,2H3,(H,21,22)/t10-,11-,12+,13-,14-,17-,18+,19-/m1/s1
MSLEVEL=2
SOURCE_INSTRUMENT=LC-ESI-QQ-LC-ESI-QQ
FILENAME=output_mgf.mgf
SEQ=*..*
IONMODE=
ORGANISM=MONA
NAME=MoNA:2581398 Gibberellic acid A4 [M-H]-
PI=MoNA
DATACOLLECTOR=MoNA
PUBMED=N/A
SUBMITUSER=mwang87
TAGS=
SPECTRUMID=CCMSLIB00000574436
SCANS=11687
50.627 1.140367 
57.081 4.781188 
58.716 1.416379 
59.794 4.528782 
60.765 6.322862 
68.874 2.800073 
70.12 5.801707 
70.968 2.426003 
73.227 5.743599 
78.01 1.999274 
78.653 8.23679 
79.367 5.213365 
85.742 1.051389 
86.956 1.608861 
88.088 5.854367 
88.851 1.685128 
94.151 1.23116 
97.854 4.615943 
98.742 4.209188 
99.661 1.708734 
102.891 1.134919 
107.09 2.578536 
107.849 2.694752 
109.041 2.017432 
109.941 1.109497 
116.712 5.049936 
117.581 5.730888 
118.766 2.847285 
126.429 7.606682 
127.278 5.480298 
136.063 6.840385 
136.979 4.443436 
137.779 1.37643 
145.972 5.298711 
146.67 3.032504 
150.532 1.091338 
153.588 1.289268 
154.749 3.272199 
155.624 4.281823 
156.535 17.307064 
165.14 2.217178 
166.042 2.662066 
173.89 2.500454 
174.751 7.165426 
175.46 1.775922 
178.399 1.503541 
179.87 1.300163 
183.029 1.601598 
184.004 4.374433 
185.909 1.025967 
191.606 1.612493 
193.451 3.019793 
194.221 2.429635 
195.214 43.362993 
196.044 1.082259 
197.097 1.790449 
200.954 0.991465 
202.02 2.080988 
202.801 1.000545 
203.809 2.538587 
210.725 1.242056 
213.092 100.0 
213.937 1.68876 
214.949 4.127474 
215.877 1.245687 
222.703 3.406573 
223.47 1.612493 
225.237 3.831487 
230.016 1.539858 
231.126 1.242056 
232.077 3.713456 
232.864 1.044126 
234.111 1.274741 
234.655 4.069366 
235.522 1.291084 
238.93 46.050481 
239.805 2.262575 
241.87 1.013256 
242.958 1.962956 
243.892 3.070637 
244.7 2.500454 
251.044 34.574178 
251.947 1.953877 
252.911 2.460505 
253.8 2.111858 
257.121 32.413292 
257.918 0.962411 
258.923 1.85582 
262.896 2.360632 
267.23 1.325586 
269.358 11.614309 
270.433 2.27347 
271.585 3.295805 
272.411 3.920465 
274.452 1.265662 
279.986 1.265662 
282.407 2.4714 
286.928 6.918467 
287.73 1.975667 
290.441 2.976212 
291.434 4.354458 
292.155 1.358271 
292.871 1.005992 
296.215 1.24024 
300.241 2.564009 
305.094 1.496277 
306.342 1.120392 
309.86 3.364808 
310.899 2.818231 
311.69 2.051934 
312.487 15.587434 
313.33 12.603959 
314.566 1.222081 
319.535 3.858725 
320.204 1.641547 
324.996 1.463592 
327.116 1.09497 
328.533 2.816415 
329.138 0.956964 
329.905 2.120937 
330.759 22.988923 
334.775 1.599782 
338.115 1.124024 
339.028 3.947703 
344.186 2.282549 
347.639 2.155439 
348.517 5.427638 
349.868 1.472671 
352.361 1.465408 
353.814 1.6361 
357.26 1.77229 
357.983 3.17959 
359.21 1.565281 
361.213 1.282005 
363.244 2.115489 
366.838 1.005992 
367.502 4.303614 
368.383 4.203741 
369.841 1.098602 
370.961 2.509533 
371.718 1.518068 
376.455 1.040494 
378.287 1.6361 
379.631 1.583439 
383.639 1.505357 
386.384 2.945342 
387.473 5.707282 
388.181 1.705103 
391.826 1.222081 
395.834 3.473761 
396.92 1.412747 
END IONS

