BEGIN IONS
PEPMASS=356.28
CHARGE=1+
COMPOUNDNAME=Aphidicolin
LIBRARYQUALITY=3
SMILES=N/A
INCHIKEY=NOFOAYPPHIUXJR-APNQCZIXSA-N
INCHI=InChI=1S/C20H34O4/c1-17(11-21)15-4-3-13-9-14-10-19(13,7-8-20(14,24)12-22)18(15,2)6-5-16(17)23/h13-16,21-24H,3-12H2,1-2H3/t13-,14+,15-,16+,17-,18-,19-,20-/m0/s1
MSLEVEL=2
SOURCE_INSTRUMENT=N/A-ESI-QFT
FILENAME=library_mgf.mgf
SEQ=*..*
IONMODE=positive
ORGANISM=MONA
NAME=Aphidicolin [M+NH4]+
PI=MoNA
DATACOLLECTOR=MoNA:VF-NPL-QEHF004576
PUBMED=N/A
SUBMITUSER=mwang87
TAGS=
SPECTRUMID=CCMSLIB00004695639
SCANS=4576
50.429749 0.013027 
50.647175 0.016763 
50.811848 0.013582 
52.062588 0.017344 
53.039536 0.01812 
53.109745 0.020703 
54.395515 0.010268 
55.018742 0.021667 
55.055016 1.089947 
55.434181 0.019746 
55.678993 0.012516 
55.935696 0.019065 
56.050282 0.043055 
56.355606 0.020024 
57.03426 0.46319 
57.070663 2.048394 
58.065903 0.823622 
58.502335 0.017667 
58.99704 0.016035 
59.0499 0.843036 
59.061119 0.025549 
59.34943 0.017256 
59.460571 0.0211 
60.045181 0.168677 
60.081612 0.019469 
61.011265 0.592477 
62.019169 0.073051 
62.060787 0.54329 
62.461857 0.014607 
62.982555 0.015047 
62.990417 0.103156 
63.027073 0.153808 
63.135654 0.016804 
63.584282 0.016912 
63.871052 0.013586 
64.400452 0.017851 
65.919762 0.016497 
66.048965 0.018316 
67.054985 1.626775 
67.491859 0.014301 
67.511841 0.018161 
69.034195 0.382572 
69.070602 1.986928 
70.065826 1.275268 
70.818336 0.018263 
71.049797 0.633331 
71.086235 1.703235 
72.04509 0.718326 
72.081459 0.356411 
73.029099 0.951974 
73.047501 9.774463 
73.065483 0.090007 
73.079758 0.018491 
73.318741 0.020331 
73.655144 0.010383 
74.046997 0.31245 
74.050797 0.167402 
74.060493 0.035479 
74.082481 0.019426 
74.097092 0.036324 
74.26339 0.016768 
74.702286 0.013797 
75.026726 0.300643 
75.044281 0.174389 
76.076416 0.039001 
76.377571 0.019924 
79.021751 0.69891 
79.054817 0.705528 
79.526802 0.018689 
81.034073 0.096884 
81.070518 3.260191 
82.065704 0.181522 
82.073845 0.091106 
83.049767 0.422886 
83.086136 2.005587 
83.643074 0.015809 
84.044922 0.095952 
84.081329 0.68852 
84.089355 0.082482 
85.02903 0.119348 
85.040138 0.06962 
85.065353 0.714424 
85.101746 0.38262 
86.060631 0.198679 
86.094406 0.020706 
86.096947 0.808241 
87.044662 3.276625 
87.725555 0.010371 
88.021904 0.010908 
88.039772 0.019057 
88.076233 0.656166 
88.432419 0.02212 
88.442436 0.012469 
88.759094 0.017336 
89.060287 3.762755 
89.884285 0.018352 
90.055031 0.023783 
90.754837 0.017699 
91.057892 22.076744 
92.057404 1.044973 
92.061142 0.572097 
92.064545 0.018797 
92.075935 0.012604 
92.983208 0.363214 
93.037132 0.282173 
93.054703 0.571163 
93.070419 1.36932 
94.065536 0.01433 
95.049568 0.466371 
95.08268 0.082944 
95.086006 4.970081 
95.189804 0.011715 
96.081169 0.021379 
96.089325 0.322345 
97.065277 0.613694 
97.101692 1.681441 
97.376434 0.017858 
98.060616 0.058654 
98.105034 0.048305 
98.290169 0.020209 
98.886253 0.017987 
98.96962 0.010502 
99.044449 0.353317 
99.080894 1.321351 
100.039467 0.049272 
100.076042 0.34893 
100.112526 0.219003 
101.003639 0.051919 
101.060104 0.440867 
102.055199 0.026497 
102.091774 0.353799 
103.039391 1.702747 
103.05471 0.020763 
103.07576 0.623167 
104.07122 0.026793 
105.070206 1.266984 
105.073563 0.495795 
105.322548 0.016685 
106.073502 0.019783 
106.086662 0.910485 
106.090164 0.024946 
106.406807 0.021632 
106.470596 0.01992 
106.717491 0.013415 
107.04937 0.916809 
107.052734 0.386415 
107.070602 0.040381 
107.085907 1.570719 
107.089455 0.05238 
108.0812 0.309902 
108.831116 0.011653 
109.000809 0.015382 
109.065025 0.42886 
109.068726 0.036082 
109.084648 0.020747 
109.101555 2.710956 
109.18882 0.018191 
110.060394 0.119783 
110.096672 0.315003 
110.104759 0.019684 
110.310387 0.011743 
111.04438 0.377777 
111.080772 0.553139 
111.117096 0.483136 
111.270081 0.020943 
112.075867 0.039697 
112.112251 0.0432 
113.060036 0.110465 
113.096436 0.199793 
113.589218 0.022708 
114.091698 0.017657 
115.039093 0.041564 
115.0756 0.06017 
115.345207 0.011615 
116.053474 0.018706 
116.070839 0.147348 
116.107353 0.298043 
117.000504 0.017222 
117.070145 0.096148 
118.26757 0.015657 
119.085724 0.912522 
120.081322 0.020482 
120.42894 0.017845 
121.028671 0.667113 
121.064987 0.752047 
121.101379 1.287203 
122.104546 0.033187 
122.939209 0.017604 
123.044075 0.017479 
123.067406 0.015974 
123.080673 0.678302 
123.11705 1.668186 
124.03949 0.02137 
124.075668 0.037713 
124.112404 0.021271 
124.120399 0.038532 
125.059898 0.106101 
125.096367 1.029504 
125.132408 0.03659 
126.05529 0.029061 
126.091568 0.058879 
126.100014 0.02518 
127.075363 0.055098 
127.111893 0.186323 
128.07045 0.019484 
128.107162 0.592429 
129.05481 0.118288 
130.049973 0.132243 
130.08606 0.033312 
131.070419 0.747732 
131.085602 0.500795 
133.064865 0.055299 
133.08606 1.63623 
133.101227 1.177623 
133.713181 0.020206 
134.060516 0.023381 
134.678894 0.018924 
134.978836 0.584508 
135.080475 0.547852 
135.116898 1.553897 
135.160248 0.015898 
135.507782 0.01749 
136.061417 0.016232 
136.075806 0.049309 
136.112106 0.495078 
137.059723 0.290457 
137.096146 0.690491 
137.132507 1.382873 
138.054871 0.046889 
138.09111 0.022868 
138.127594 0.02159 
138.135773 0.023388 
138.329086 0.018108 
138.89502 0.011011 
139.038284 0.015474 
139.050537 0.020923 
139.075409 0.274555 
139.085449 0.022525 
139.111694 0.772208 
140.106873 0.07292 
140.129028 0.021187 
140.143372 0.017352 
141.091202 0.104096 
141.127289 0.104764 
142.086319 0.019981 
142.122742 0.165426 
142.159058 0.072514 
142.711517 0.018474 
142.938568 0.022019 
143.081436 0.023448 
144.080765 0.129859 
145.0495 0.071688 
145.101166 0.680051 
147.080429 0.245526 
147.116867 1.249472 
147.795181 0.020791 
148.084335 0.01325 
148.120499 0.050762 
149.0961 0.554126 
149.132507 0.591723 
150.054932 0.025664 
150.091614 0.144404 
150.099854 0.017843 
150.12793 0.052785 
151.075394 0.204988 
151.111801 0.721791 
151.577469 0.016606 
152.079041 0.018096 
152.107147 0.147929 
152.989273 0.635968 
153.054581 0.024167 
153.091034 0.348823 
153.12738 0.256165 
154.086441 0.025335 
154.12265 0.13554 
154.131561 0.021315 
155.106613 0.322014 
155.143158 0.0362 
156.137833 0.025243 
156.145432 0.018376 
157.101379 0.237089 
158.045029 0.018866 
158.11763 0.077852 
159.080658 0.040868 
159.116806 0.371418 
160.075699 0.316309 
161.059784 0.019165 
161.096008 0.262976 
161.132462 0.285055 
162.055115 0.097655 
163.075241 0.118392 
163.111725 0.512781 
163.148071 0.164919 
164.015625 0.010881 
164.023026 0.430614 
164.071213 0.020112 
164.106857 0.019618 
164.626556 0.02109 
164.920746 0.060216 
165.056671 0.023524 
165.091034 0.495202 
165.127487 0.392437 
166.086243 0.094519 
166.122681 0.262958 
167.106766 0.148204 
167.143555 0.01273 
168.101913 0.192573 
168.13826 0.11201 
169.086105 0.02632 
169.121857 0.014647 
170.117676 0.291834 
170.154205 0.070973 
170.99971 0.015432 
171.116867 0.115107 
171.555237 0.019309 
172.075439 0.162279 
172.132706 0.045572 
172.820328 0.017706 
173.0961 0.047568 
173.11734 0.104659 
173.132263 0.118783 
173.38797 0.0186 
174.007492 0.208928 
174.054947 0.388488 
174.092453 0.015194 
175.049774 0.087088 
175.074982 0.037487 
175.096664 0.626663 
175.111847 0.397251 
175.148224 0.175224 
176.070541 0.236635 
177.091003 0.154 
177.112289 0.103008 
177.127319 1.233853 
178.085419 0.01705 
178.122681 0.122333 
178.288422 0.023848 
178.935822 0.020073 
179.10675 0.183509 
180.89447 0.041834 
181.121964 0.066833 
181.678833 0.019115 
182.033813 0.204245 
182.117645 0.140289 
182.153763 0.025618 
184.075699 0.028739 
184.133194 0.069494 
185.096268 0.036121 
185.132324 0.01632 
186.092484 0.014852 
187.111557 0.014455 
187.148193 0.082486 
188.070694 0.374548 
188.127945 0.260144 
189.090759 0.103258 
189.112167 0.130759 
189.127258 0.051364 
189.163116 0.024622 
190.049973 0.238254 
190.08638 1.192674 
190.167023 0.022347 
190.324265 0.012064 
190.606552 0.014493 
191.052734 0.03512 
191.090698 0.02079 
191.106598 0.138406 
191.143555 0.017698 
192.018143 0.142058 
192.065292 0.133059 
192.101288 0.033937 
192.138962 0.053763 
192.961853 0.03741 
193.060287 0.319557 
193.086792 0.022909 
193.097534 0.014353 
193.122482 0.279229 
194.117615 0.016752 
194.154083 0.040533 
195.101395 0.021164 
195.12291 0.156755 
196.133331 0.187174 
196.268402 0.016869 
196.869263 0.012472 
197.015091 0.78771 
197.128571 0.305974 
198.016525 0.022506 
198.091187 0.066812 
198.148956 0.075678 
198.895538 0.01517 
199.003464 0.068276 
199.012527 0.041499 
199.074646 0.021728 
199.111359 0.021682 
200.127792 0.023398 
201.123657 0.08044 
201.164261 0.015804 
202.086441 0.125554 
203.106506 0.012756 
203.278381 0.023117 
204.065552 3.697148 
205.069336 0.252944 
205.122681 0.144822 
205.969864 0.024146 
206.015762 0.168533 
206.081573 0.063785 
206.117142 0.019441 
207.101624 0.071191 
207.138031 0.050568 
208.133423 0.096712 
209.11734 0.022756 
211.132462 0.070357 
211.931442 0.022754 
212.12825 0.16659 
214.086563 0.0895 
214.531876 0.502505 
214.540009 0.533513 
214.551315 0.156431 
215.025909 0.273639 
215.141541 0.021673 
216.065567 45.364487 
216.906967 0.01976 
216.968658 0.59366 
217.069077 5.538582 
217.9422 0.094585 
218.071274 0.19719 
219.138733 0.014543 
219.174423 0.329183 
220.06044 1.884161 
221.063202 0.081012 
221.16597 0.022824 
223.132797 0.2506 
223.980164 0.369856 
224.02652 3.450048 
224.071106 0.049801 
224.128067 0.531199 
225.030243 0.071084 
225.080154 0.031092 
226.021957 0.018687 
227.127823 0.048897 
228.065521 0.091181 
228.101929 0.039258 
229.159317 0.014386 
230.081161 17.806555 
231.084686 2.417368 
231.098495 0.025444 
232.060471 3.70442 
232.073303 0.025593 
232.097031 0.017078 
232.132751 0.124872 
233.063858 0.34279 
233.140488 0.024491 
233.154221 0.020265 
234.01062 0.384741 
234.07637 0.213051 
234.979233 0.739756 
234.996323 0.017333 
235.952576 0.019713 
235.980652 0.017363 
236.975342 0.022783 
238.143524 0.020783 
239.176483 0.049977 
240.420853 0.012055 
240.908813 0.042241 
241.990234 0.023399 
242.036758 0.975557 
242.080994 0.965311 
243.085632 0.074645 
244.096878 100.0 
245.100189 14.573327 
245.190384 0.050987 
246.075912 0.801834 
246.102234 0.827798 
246.149139 0.144513 
247.049026 0.023723 
248.053558 0.021417 
248.15181 0.143239 
249.111969 0.012108 
249.158539 0.283844 
250.119324 0.026563 
252.021378 0.045389 
254.081192 0.612914 
254.175201 0.023806 
254.211639 0.136602 
255.085632 0.019674 
256.09671 2.121958 
257.068115 0.024491 
257.100342 0.15538 
257.19043 0.019177 
258.112488 0.861864 
258.149445 0.043828 
258.169983 0.019761 
259.116211 0.022272 
259.169861 0.023357 
259.93576 0.019246 
260.091675 0.604572 
260.149567 0.017734 
261.09552 0.020878 
264.159454 0.055278 
264.908508 0.025308 
266.99884 0.296598 
267.210602 0.285858 
268.096497 0.595493 
268.132111 0.021769 
268.978302 1.264018 
268.994568 0.024222 
269.06897 0.021546 
269.100311 0.027329 
269.979095 0.048911 
270.112518 0.677868 
270.975342 0.037999 
272.091309 0.207199 
274.107269 4.047488 
275.110687 0.670312 
275.148682 0.011902 
275.200531 0.234914 
276.971619 0.244858 
278.969055 0.012463 
280.133087 0.275196 
281.080658 0.251367 
282.074554 0.022437 
282.112488 1.56471 
282.278992 2.584459 
282.919891 0.063676 
283.115753 0.181942 
283.281769 0.083374 
284.091492 0.56021 
284.128357 0.334754 
285.009644 11.338331 
285.131775 0.016808 
285.150848 0.01608 
285.221558 0.358342 
286.009827 2.573747 
286.144043 0.138862 
287.006073 1.393121 
287.163422 0.046904 
288.008789 0.055747 
288.122559 0.020477 
291.194244 0.021336 
292.228088 0.023867 
293.210968 0.836865 
294.14859 0.383929 
294.206329 0.43723 
294.241486 0.046991 
294.885712 0.015259 
295.181671 0.049248 
296.05542 3.108642 
296.127991 1.313529 
296.294952 0.508199 
297.058868 0.59302 
297.131256 0.15098 
298.070587 0.160886 
298.107056 0.142644 
298.14386 0.073503 
298.180664 0.082499 
299.025879 0.038587 
301.128174 0.026181 
303.020081 1.024055 
304.020477 0.056118 
304.191132 0.021218 
305.164368 0.100851 
307.144165 0.086106 
308.129425 0.014212 
308.164795 0.217591 
309.1604 0.069417 
310.144196 0.109894 
310.180023 0.094192 
310.311493 0.049461 
311.139709 0.102863 
311.268768 0.018109 
312.086395 0.732657 
312.159332 0.27172 
315.177307 0.171364 
320.183136 0.023926 
320.222351 0.105098 
321.196838 0.015809 
322.107574 0.037272 
322.200836 0.172558 
323.175568 0.689787 
324.049591 0.028927 
324.085388 0.037523 
324.179169 0.045061 
324.325745 0.483304 
324.986206 0.656652 
325.154572 1.050427 
325.329895 0.023997 
325.986176 0.053904 
326.064941 0.024431 
326.160126 0.372341 
327.207367 0.037572 
328.081268 0.428794 
328.554688 0.021048 
336.158569 0.018375 
337.163025 0.392229 
337.190704 4.363969 
337.214417 0.029025 
337.247437 0.023709 
337.50708 0.017828 
338.174896 32.865265 
338.341614 0.093333 
339.178528 7.455523 
339.201233 0.092946 
340.078156 0.01893 
340.18927 1.00561 
340.357147 1.178013 
342.997009 1.99616 
343.996857 0.410887 
345.01239 0.100885 
354.354919 0.784361 
354.377197 0.021775 
354.408539 0.189666 
355.069824 0.608616 
355.100189 0.149982 
355.131226 0.237558 
355.167786 1.296855 
355.201355 4.665863 
355.241791 0.727249 
355.260834 0.351463 
355.281586 1.937595 
355.360779 0.030562 
356.032288 0.604302 
356.075867 5.929511 
356.113464 0.582492 
356.185394 26.454121 
356.223938 0.460218 
356.259247 0.461492 
356.284729 0.338181 
356.330017 0.12476 
356.353027 0.197977 
357.012665 2.005392 
357.037079 0.036297 
357.080872 1.248577 
357.116699 0.084972 
357.146362 0.482076 
357.187408 6.117898 
357.220947 2.934043 
357.260101 6.286603 
357.315765 0.051898 
358.012451 0.330364 
358.091888 1.406094 
358.12912 0.077142 
358.16391 0.154786 
358.18985 0.405267 
358.223175 0.127463 
358.239197 0.33313 
358.264648 0.649364 
358.367584 20.370016 
363.083099 0.02238 
368.80423 0.021326 
END IONS

