BEGIN IONS
PEPMASS=153.019
CHARGE=1+
COMPOUNDNAME=Patulin
LIBRARYQUALITY=3
SMILES=N/A
INCHIKEY=ZRWPUFFVAOMMNM-UHFFFAOYSA-N
INCHI=InChI=1S/C7H6O4/c8-6-3-4-5(11-6)1-2-10-7(4)9/h1,3,7,9H,2H2
MSLEVEL=2
SOURCE_INSTRUMENT=N/A-ESI-QFT
FILENAME=library_mgf.mgf
SEQ=*..*
IONMODE=negative
ORGANISM=MONA
NAME=Patulin [M-H]-
PI=MoNA
DATACOLLECTOR=MoNA:VF-NPL-QEHF025932
PUBMED=N/A
SUBMITUSER=mwang87
TAGS=
SPECTRUMID=CCMSLIB00004716995
SCANS=25932
50.011154 0.092207 
50.414204 0.068221 
50.456135 0.073252 
50.98938 0.086035 
51.022633 1.45925 
51.229923 0.071066 
51.647869 0.085307 
53.001881 2.811327 
53.598061 0.071948 
53.769653 0.093837 
54.146603 0.068211 
54.234291 0.071978 
55.017529 24.470182 
55.122223 0.075257 
55.455765 0.070332 
55.478813 0.062812 
56.020931 0.127902 
56.169518 0.070525 
57.033207 0.083243 
57.039543 0.06136 
57.834312 0.071217 
57.922031 0.082931 
59.012539 0.074702 
59.784828 0.065551 
60.884869 0.070146 
60.972683 0.064898 
61.130898 0.077514 
62.186756 0.079994 
62.268223 0.06634 
62.28455 0.068575 
63.02261 4.149397 
63.388329 0.067733 
64.189484 0.070634 
64.485939 0.059686 
65.001869 0.105816 
65.0383 14.415769 
65.476685 0.062889 
66.041611 0.080136 
66.884796 0.061544 
67.01754 15.43662 
67.053879 0.084294 
67.071098 0.05942 
67.376442 0.058133 
68.177177 0.073137 
68.698761 0.064836 
68.996803 43.385605 
69.033195 20.258648 
69.620056 0.069235 
70.000206 0.449633 
71.012428 3.068903 
72.036247 0.077011 
72.842979 0.090234 
72.969917 0.064831 
73.48484 0.075158 
74.197235 0.101322 
75.496651 0.055059 
75.743752 0.067626 
76.293549 0.068003 
76.677017 0.056687 
78.212723 0.066356 
79.005142 0.09105 
79.017578 79.633606 
79.599144 0.071616 
80.02092 4.394092 
80.025368 1.809055 
81.0205 0.313143 
81.033234 100.0 
81.046814 0.186148 
82.036552 5.050064 
83.012482 79.336685 
83.617134 0.087834 
83.860222 0.070207 
84.015839 2.803543 
84.953972 0.095876 
85.028183 0.479242 
85.205803 0.074363 
85.902946 0.080462 
87.265839 0.074373 
87.384247 0.061837 
89.60202 0.078252 
91.017822 0.10255 
91.346664 0.071666 
91.809494 0.084312 
92.379013 0.082514 
94.638985 0.067208 
95.012558 7.217223 
96.01564 0.058809 
96.301697 0.079233 
96.60733 0.086346 
97.028145 13.866263 
98.031792 0.078725 
98.159813 0.096315 
98.553986 0.077319 
98.565125 0.08314 
99.007355 2.291139 
99.043785 1.426828 
99.645615 0.09964 
100.550545 0.069131 
101.985458 0.071985 
104.032433 0.070138 
106.223801 0.087708 
106.300262 0.075681 
107.012482 4.642809 
107.396591 0.096413 
108.020363 5.56294 
108.024765 0.074206 
108.224159 0.076874 
109.028168 25.048281 
110.031548 1.329331 
110.061829 0.087818 
111.007385 2.783975 
111.018723 0.93778 
112.322617 0.068696 
112.397598 0.064889 
113.139954 0.089392 
116.8619 0.074712 
119.001366 0.078292 
120.13813 0.073955 
121.855103 0.053788 
122.35984 0.05412 
122.905487 0.091539 
123.007507 17.339891 
124.010712 0.405183 
124.015373 2.33729 
125.023201 12.304816 
126.026451 0.093352 
128.318314 0.080223 
135.007538 2.042404 
135.255783 0.062637 
138.030975 0.077291 
141.018021 0.378687 
142.172958 0.077664 
142.622543 0.067842 
145.3936 0.050842 
145.742813 0.063515 
150.899841 0.068995 
150.971741 0.080498 
152.790649 0.080818 
152.820831 0.068875 
153.018295 6.417416 
153.369247 0.069011 
155.024017 0.076729 
156.20784 0.08248 
158.827286 0.063507 
159.828217 0.07767 
161.604675 0.064884 
163.398529 0.068785 
165.608093 0.081994 
171.022888 0.06188 
END IONS

