BEGIN IONS
TITLE=Scan Number: 1
PEPMASS=561.35999
CHARGE=1+
COMPOUNDNAME=Desferrioxamine B
LIBRARYQUALITY=3
SMILES=CC(=O)N(O)CCCCCNC(=O)CCC(=O)N(O)CCCCCNC(=O)CCC(=O)N(O)CCCCCN
INCHIKEY=UBQYURCVBFRUQT-UHFFFAOYSA-N
INCHI=
MSLEVEL=2
SOURCE_INSTRUMENT=LC-ESI-Hybrid FT
FILENAME=f.novakj/siderophores/Desferri_ferrioxamine_B.mzXML;
SEQ=*..*
NOTES=
IONMODE=Positive
ORGANISM=GNPS-LIBRARY
NAME=Desferrioxamine B M+H
SPECTRUMID=CCMSLIB00001059065
ACTIVATION=CID
INSTRUMENT=ion trap
SCANS=1
243.133865 120772712.0 
319.233856 365857152.0 
320.237244 51220584.0 
361.244476 160549120.0 
362.247803 26501190.0 
401.23938 195410992.0 
402.242706 39610728.0 
443.249939 177142576.0 
444.253265 36865056.0 
560.352844 86955648.0 
561.360657 1163396864.0 
562.357849 25078676.0 
562.364014 320538528.0 
563.36731 29170718.0 
END IONS

