BEGIN IONS
PEPMASS=266.09
CHARGE=1+
COMPOUNDNAME=Adenosine
LIBRARYQUALITY=3
SMILES=N/A
INCHIKEY=OIRDTQYFTABQOQ-KQYNXXCUSA-N
INCHI=InChI=1S/C10H13N5O4/c11-8-5-9(13-2-12-8)15(3-14-5)10-7(18)6(17)4(1-16)19-10/h2-4,6-7,10,16-18H,1H2,(H2,11,12,13)/t4-,6-,7-,10-/m1/s1
MSLEVEL=2
SOURCE_INSTRUMENT=N/A-ESI-QTOF
FILENAME=library_mgf.mgf
SEQ=*..*
IONMODE=negative
ORGANISM=MONA
NAME=Adenosine [M-H]-
PI=MoNA
DATACOLLECTOR=MoNA:VF-NPL-QTOF002036
PUBMED=N/A
SUBMITUSER=mwang87
TAGS=
SPECTRUMID=CCMSLIB00004719817
SCANS=2033
92.0177 0.183375 
92.0271 0.184708 
107.027496 1.096702 
107.035004 0.528479 
107.071899 0.180526 
134.041199 100.0 
134.113602 0.299484 
134.124603 1.62576 
134.133408 0.663172 
134.145798 1.186373 
134.162903 0.313234 
134.175598 0.782314 
134.188705 0.608367 
134.199997 0.792633 
134.209396 0.23165 
134.229004 0.57139 
134.239395 0.341481 
134.247498 0.603488 
134.257706 0.186714 
134.268799 0.652663 
134.289398 0.340254 
134.305496 0.444783 
134.313904 0.210417 
134.3237 0.38193 
134.358704 0.274825 
134.368301 0.255154 
134.379807 0.212144 
134.4021 0.1835 
134.407898 0.321103 
134.420898 0.278629 
134.433701 0.321439 
134.470505 0.225972 
134.478195 0.282709 
134.491104 0.197527 
134.514404 0.208694 
134.526398 0.352645 
134.553802 0.188413 
134.584702 0.206604 
134.601593 0.244029 
134.632599 0.173986 
134.644394 0.206858 
134.683701 0.255188 
134.7108 0.224629 
134.757095 0.179566 
134.874893 0.196348 
135.035995 0.416545 
135.043701 0.242561 
135.343597 0.237733 
247.839706 0.179685 
265.844208 0.182244 
266.083496 17.823231 
266.151398 0.429664 
266.175903 0.424834 
266.197601 0.375685 
266.222504 0.2129 
266.230896 0.290109 
266.274994 0.260994 
266.296387 0.18035 
266.368591 0.25878 
266.394104 0.234147 
266.416901 0.201591 
266.5867 0.188174 
266.852905 0.173267 
267.072998 0.172564 
267.086609 0.267678 
267.148895 0.257491 
377.409485 0.191187 
769.608887 0.173395 
789.574524 0.180733 
973.570923 0.185162 
1127.030151 0.214727 
1288.128418 0.23219 
1292.630615 0.173271 
1401.590576 0.170519 
1503.940186 0.175053 
1517.608032 0.180803 
1536.654175 0.177695 
1542.805908 0.185251 
1560.364868 0.182467 
1662.115356 0.171645 
END IONS

