BEGIN IONS
PEPMASS=405.207
CHARGE=1+
COMPOUNDNAME=MoNA:955813 Lincomycin
LIBRARYQUALITY=3
SMILES=N/A
INCHIKEY=OJMMVQQUTAEWLP-UHFFFAOYSA-N
INCHI=InChI=1S/C18H34N2O6S/c1-5-6-10-7-11(20(3)8-10)17(25)19-12(9(2)21)16-14(23)13(22)15(24)18(26-16)27-4/h9-16,18,21-24H,5-8H2,1-4H3,(H,19,25)
MSLEVEL=2
SOURCE_INSTRUMENT=LC-ESI-QFT-LC-ESI-QFT
FILENAME=output_mgf.mgf
SEQ=*..*
IONMODE=
ORGANISM=MONA
NAME=MoNA:955813 Lincomycin [M-H]-
PI=MoNA
DATACOLLECTOR=MoNA
PUBMED=N/A
SUBMITUSER=mwang87
TAGS=
SPECTRUMID=CCMSLIB00000568475
SCANS=5726
53.0033 0.139482 
55.0189 9.249809 
57.0346 19.791173 
58.006 1.259682 
58.0298 3.012904 
59.0138 24.611134 
60.9754 0.232454 
63.024 0.159576 
65.0033 0.217099 
65.0397 3.067687 
65.9986 1.093268 
66.0349 2.45869 
67.019 2.524974 
68.0142 2.463283 
68.0505 0.248311 
68.9982 10.573474 
69.0346 35.078533 
70.0299 7.8899 
71.0139 100.0 
71.9677 0.163675 
72.0455 0.136262 
72.9932 3.383118 
73.0296 6.781933 
73.9832 2.545626 
75.0088 1.00261 
78.0349 1.207205 
79.019 2.197987 
80.0506 8.094864 
81.022 20.315158 
81.0346 31.334066 
82.0298 8.560232 
83.0139 3.843921 
83.0503 12.714663 
84.0091 1.795083 
84.0216 5.121585 
84.0455 3.238966 
85.0295 69.016396 
85.0407 3.939346 
86.0009 0.149902 
86.0247 0.319083 
87.0087 12.738946 
88.9703 1.884682 
89.0033 0.696818 
89.0067 0.222599 
89.0244 0.149526 
90.0349 0.881842 
92.0505 0.615528 
93.0345 1.128668 
94.0298 12.895498 
95.0139 3.86359 
95.0502 0.881277 
96.0217 0.276511 
96.0455 3.096145 
97.0295 22.914006 
98.0247 2.78698 
98.0611 0.652301 
98.0975 1.053051 
98.9909 1.109431 
99.0088 0.552666 
99.0451 4.469646 
99.9989 1.797676 
100.0404 1.10343 
101.0243 0.224369 
101.9781 6.763783 
103.9937 0.295211 
105.022 16.472262 
106.0298 2.152383 
107.0138 0.265965 
107.0377 2.412438 
107.0502 0.290555 
108.0217 15.294944 
108.0455 2.707551 
109.0169 13.754304 
109.0295 7.234587 
109.0658 3.794323 
110.0071 0.161842 
110.0248 2.85875 
110.0612 1.715375 
110.991 0.921801 
111.0086 0.21061 
111.0325 0.792264 
111.0451 2.266041 
112.0163 0.171683 
112.0403 1.066078 
113.0246 0.684788 
114.986 0.707252 
115.0401 0.549 
118.0298 0.533959 
119.0377 0.246917 
120.0453 0.264502 
122.0247 8.336428 
123.0327 2.427144 
123.0452 0.458788 
123.0815 0.150404 
124.0403 9.606181 
125.0244 0.920218 
125.072 0.961557 
125.0972 0.779126 
126.0561 1.099088 
126.0924 4.934756 
126.9859 2.605881 
127.0402 0.562354 
132.0455 0.191255 
133.0171 0.751693 
134.0248 1.731748 
135.0326 0.48448 
137.0972 0.540218 
138.0019 5.372906 
138.0195 0.723186 
139.0098 0.705419 
139.1129 0.196064 
139.9939 0.278128 
141.0017 0.205243 
145.0409 0.243808 
147.0329 1.035013 
148.0402 0.286053 
150.0195 0.708883 
151.0274 0.163333 
151.04 0.161591 
152.108 0.754118 
153.1032 0.134715 
158.0617 0.137963 
160.0405 0.193346 
162.0557 0.162023 
164.1076 0.137635 
165.9968 1.981975 
166.1236 0.730504 
168.1394 3.399546 
169.1347 48.117103 
170.1187 9.179169 
180.1394 0.165348 
182.1548 1.639319 
186.056 0.562201 
193.1345 2.673405 
195.1503 7.76021 
196.1342 0.245341 
197.1295 3.511908 
207.1502 0.555789 
209.1296 0.662638 
209.166 6.540571 
211.1455 1.009217 
219.1505 0.306015 
221.1661 0.548429 
223.1452 2.339665 
225.1611 0.809822 
235.1456 0.262508 
237.1608 0.215378 
239.1772 0.141036 
END IONS

