BEGIN IONS
PEPMASS=910.492
CHARGE=1+
COMPOUNDNAME=MoNA:766938 Microcystin-LA
LIBRARYQUALITY=3
SMILES=N/A
INCHIKEY=DIAQQISRBBDJIM-DRSCAGMXSA-N
INCHI=InChI=1S/C46H67N7O12/c1-24(2)21-35-44(60)52-38(46(63)64)28(6)40(56)47-29(7)41(57)49-33(18-17-25(3)22-26(4)36(65-11)23-32-15-13-12-14-16-32)27(5)39(55)50-34(45(61)62)19-20-37(54)53(10)31(9)43(59)48-30(8)42(58)51-35/h12-18,22,24,26-30,33-36,38H,9,19-21,23H2,1-8,10-11H3,(H,47,56)(H,48,59)(H,49,57)(H,50,55)(H,51,58)(H,52,60)(H,61,62)(H,63,64)/b18-17+,25-22+/t26-,27-,28-,29-,30+,33-,34+,35-,36-,38+/m0/s1
MSLEVEL=2
SOURCE_INSTRUMENT=LC-ESI-QFT-LC-ESI-QFT
FILENAME=output_mgf.mgf
SEQ=*..*
IONMODE=
ORGANISM=MONA
NAME=MoNA:766938 Microcystin-LA [M+H]+
PI=MoNA
DATACOLLECTOR=MoNA
PUBMED=N/A
SUBMITUSER=mwang87
TAGS=
SPECTRUMID=CCMSLIB00000566708
SCANS=3960
65.0386 4.946861 
67.0417 0.184602 
67.0542 2.96442 
68.0494 0.838434 
69.0335 5.13031 
69.0698 2.003125 
70.0651 1.159089 
71.0603 0.188191 
74.0236 2.775239 
77.0384 2.340897 
78.0464 0.210094 
79.0542 26.431298 
80.0494 4.290072 
81.0334 0.563803 
81.0573 0.158594 
81.0699 2.134501 
82.0287 3.045989 
82.0651 16.758989 
83.0491 0.1785 
84.0443 20.66086 
84.0807 2.436585 
85.0284 1.71585 
85.0648 0.160097 
86.06 1.930017 
86.0964 27.413181 
88.0393 0.421542 
89.0709 0.526842 
91.0542 70.731624 
92.0495 0.169085 
92.0619 1.084139 
93.0698 26.615931 
94.065 4.5368 
94.0775 0.394742 
95.0491 19.501944 
95.0855 2.336517 
96.0444 0.689541 
96.0681 0.449766 
96.0807 2.223369 
97.0759 0.455237 
98.0601 0.311905 
99.0916 11.568325 
100.0393 0.613777 
100.0757 0.203151 
102.0465 1.236269 
102.0549 1.750156 
103.0542 98.077999 
104.0576 3.532265 
104.0618 0.189542 
105.0447 3.143587 
105.0698 59.701759 
106.0526 0.219432 
106.065 0.591241 
106.0732 2.220038 
106.0772 0.226125 
107.0855 100.0 
108.068 1.779377 
108.0807 1.566324 
109.0647 11.501292 
110.06 6.634525 
110.0963 1.171727 
111.0551 0.126988 
111.0635 0.105283 
111.0915 0.220287 
112.0391 0.788795 
112.0757 0.576758 
112.1121 0.904857 
113.0233 5.897725 
113.0709 0.501424 
114.0548 0.159249 
115.0542 12.545836 
116.062 1.269818 
117.0698 16.198493 
118.065 0.670438 
118.0732 0.918046 
118.0772 0.235688 
119.0603 2.947699 
119.0855 6.266002 
120.0569 2.446728 
120.0807 1.996833 
120.0893 0.247968 
120.0932 1.876794 
121.0648 0.823326 
121.0759 8.069815 
121.1011 1.166166 
122.0599 1.368704 
122.0727 0.106625 
122.0796 0.291156 
122.0837 1.201808 
122.0964 1.749758 
123.0803 0.469515 
123.0916 2.472495 
124.0756 1.796487 
124.1119 1.572219 
125.071 0.599644 
125.1073 0.167938 
126.0547 0.141558 
127.0865 65.850666 
128.0342 0.369984 
128.062 4.220093 
128.0704 1.960799 
128.0898 1.751699 
129.0697 4.482782 
130.0498 1.798973 
130.065 1.895835 
130.0731 0.264607 
130.0775 1.944254 
131.0855 7.790472 
132.0808 0.897403 
132.0887 0.146162 
133.0647 0.214593 
133.101 2.969363 
134.0963 0.730448 
135.0803 18.253641 
135.1167 14.397654 
136.0756 0.700944 
136.0838 0.717333 
136.1119 0.186841 
136.1201 0.696066 
137.0707 0.244387 
137.0958 0.234386 
138.0548 4.209032 
139.0865 1.407181 
140.0705 0.561342 
141.0698 1.329935 
141.1019 0.465386 
142.0777 0.632763 
143.0729 0.150562 
143.0855 1.840936 
144.0808 0.431203 
144.0934 0.6841 
145.0647 0.66612 
145.0888 0.428122 
145.1011 3.230444 
146.0964 2.571746 
146.1037 0.159102 
146.1089 0.535358 
147.0803 0.222554 
147.0913 0.11589 
147.1045 0.24461 
148.0757 0.179741 
148.112 0.471208 
149.0709 7.290269 
150.0548 0.210379 
150.0914 0.158544 
151.0865 0.845407 
152.062 0.113975 
152.0707 0.19291 
152.1069 0.231752 
153.0698 0.655483 
153.102 0.172695 
153.1386 0.119458 
154.0775 0.193705 
155.0609 0.138453 
156.0653 1.341115 
157.1012 0.242249 
157.1336 0.168876 
158.0729 0.170109 
158.0963 0.59408 
159.0804 0.772762 
159.1168 0.775085 
160.112 0.560597 
160.1199 0.105324 
161.096 0.655469 
161.1325 0.136445 
162.0914 0.154868 
162.1276 0.716001 
163.1116 2.73375 
164.1147 0.145998 
165.0701 2.102129 
165.1026 0.166152 
166.078 1.042365 
167.0812 18.321419 
168.0654 1.517735 
168.0848 0.79676 
169.1011 0.221451 
172.0881 0.22481 
172.1123 0.260323 
173.0919 0.747937 
173.0965 0.530353 
174.0915 0.152711 
174.1275 0.161009 
175.0988 0.183736 
176.1066 0.245382 
178.0775 0.523655 
178.0855 0.16278 
179.0855 2.001241 
180.0934 1.307074 
181.1013 1.069122 
181.1331 0.610614 
184.112 0.202944 
186.0909 0.11935 
188.107 0.400473 
188.1433 0.406778 
190.1226 0.146583 
191.0855 0.110631 
192.0933 0.528529 
193.1012 0.974868 
194.1086 0.447534 
194.1649 0.448032 
195.0761 3.314991 
195.117 0.492315 
196.0604 0.611733 
200.143 0.138118 
202.0774 0.119774 
207.1167 0.529935 
211.0713 0.159096 
213.087 2.220984 
217.101 0.260229 
218.1538 0.158303 
222.16 0.127639 
226.1583 0.156811 
END IONS

