BEGIN IONS
PEPMASS=582.0
CHARGE=1+
COMPOUNDNAME=Massbank:KO003998 Streptomycin
LIBRARYQUALITY=3
SMILES=NC(=N)NC(C(O)1)C(O)C(NC(N)=N)C(OC(O2)C(OC(O3)C(NC)C(O)C(O)C(CO)3)C(O)(C=O)C(C)2)C(O)1
INCHIKEY=UCSJYZPVAKXKNQ-UHFFFAOYSA-N
INCHI=1S/C21H39N7O12/c1-5-21(36,4-30)16(40-17-9(26-2)13(34)10(31)6(3-29)38-17)18(37-5)39-15-8(28-20(24)25)11(32)7(27-19(22)23)12(33)14(15)35/h4-18,26,29,31-36H,3H2,1-2H3,(H4,22,23,27)(H4,24,25,28)/t5-,6-,7+,8-,9-,10-,11+,12-,13-,14+,15+,16-,17-,18-,21+/m0/s1
MSLEVEL=2
SOURCE_INSTRUMENT=ESI-LC-ESI-QQ
FILENAME=Massbank_ESI_positive_8_1_2014_peaks.mgf
SEQ=*..*
IONMODE=Positive
ORGANISM=MASSBANK
NAME=Massbank:KO003998 Streptomycin [M+H]+
PI=Putative Massbank Match
DATACOLLECTOR=Massbank
PUBMED=N/A
SUBMITUSER=mwang87
TAGS=
SPECTRUMID=CCMSLIB00000220515
SCANS=9790
132.9 84158.5 
163.2 74257.5 
180.4 74257.5 
283.2 29703.0 
350.2 24752.5 
395.1 14851.5 
421.5 14851.5 
429.1 19802.0 
461.4 24752.5 
564.2 39604.0 
582.7 173267.5 
614.6 49505.0 
END IONS

