BEGIN IONS
PEPMASS=804.489
CHARGE=1+
COMPOUNDNAME=MoNA:603925 Tacrolimus
LIBRARYQUALITY=3
SMILES=N/A
INCHIKEY=QJJXYPPXXYFBGM-LJIGMGMYSA-N
INCHI=InChI=1S/C44H69NO12/c1-10-13-31-19-25(2)18-26(3)20-37(54-8)40-38(55-9)22-28(5)44(52,57-40)41(49)42(50)45-17-12-11-14-32(45)43(51)56-39(29(6)34(47)24-35(31)48)27(4)21-30-15-16-33(46)36(23-30)53-7/h10,19,21,26,28-34,36-40,46-47,52H,1,11-18,20,22-24H2,2-9H3/b25-19-,27-21+/t26-,28+,29+,30-,31+,32-,33+,34-,36+,37-,38-,39+,40+,44+/m0/s1
MSLEVEL=2
SOURCE_INSTRUMENT=LC-ESI-QFT-LC-ESI-QFT
FILENAME=output_mgf.mgf
SEQ=*..*
IONMODE=
ORGANISM=MONA
NAME=MoNA:603925 Tacrolimus [M+H]+
PI=MoNA
DATACOLLECTOR=MoNA
PUBMED=N/A
SUBMITUSER=mwang87
TAGS=
SPECTRUMID=CCMSLIB00000572386
SCANS=9637
56.0495 22.687843 
57.0335 0.227871 
57.0699 0.291686 
59.0492 0.641574 
63.0229 1.29753 
65.0386 32.072491 
66.0464 3.086716 
67.0179 1.907615 
67.0542 25.88635 
68.0257 0.267455 
68.0496 0.282701 
68.9971 0.831318 
69.0335 3.290896 
69.0574 0.604877 
69.0699 1.172599 
71.0127 2.888391 
71.0491 1.56914 
77.0386 7.409009 
78.0464 4.318758 
79.0542 40.108693 
80.0494 0.289986 
80.0621 0.778108 
81.0335 6.109375 
81.0699 6.204841 
82.0289 0.213165 
82.0414 0.995671 
82.0652 1.689349 
83.0129 0.161358 
83.0492 1.375376 
84.0808 42.762764 
85.0284 0.250834 
85.0649 1.002957 
87.0442 0.225524 
89.0386 1.018769 
91.0543 100.0 
92.0621 1.503734 
93.07 7.204775 
94.0413 1.767195 
94.0653 0.362759 
94.0776 0.175092 
95.0492 44.725478 
96.057 0.611137 
97.0649 0.332241 
102.0464 1.547878 
103.0543 13.838213 
104.0621 3.516285 
105.0448 23.585593 
105.07 25.518167 
107.0491 2.28829 
107.0856 1.565606 
108.057 0.782182 
109.0285 24.233481 
109.0649 3.432233 
110.0601 0.16098 
111.0442 0.286586 
115.0543 39.180668 
116.0621 6.985323 
117.0699 11.47572 
118.0778 0.631509 
119.0494 0.836688 
119.0604 1.143079 
119.0856 4.988799 
121.0649 1.486114 
122.0732 0.170829 
126.0466 0.345355 
127.0543 3.148507 
128.0621 42.370243 
129.0699 18.396688 
130.0778 2.468725 
131.0492 1.991801 
131.0856 3.850658 
132.057 1.075838 
133.0648 0.927378 
133.1014 0.224282 
135.044 0.240715 
135.0804 0.558763 
139.0544 0.345733 
141.0699 29.053475 
142.0778 7.348837 
143.0857 2.997888 
144.057 0.973572 
144.0933 0.306985 
145.0649 4.465735 
145.1012 0.324119 
146.0728 0.255421 
147.0804 0.26956 
152.0622 8.472381 
153.07 11.380551 
154.0777 3.088254 
155.0605 5.133725 
155.0856 5.679644 
156.0936 1.309726 
157.065 1.172599 
157.1011 0.354205 
158.0726 0.339931 
159.0807 0.628838 
161.096 0.205691 
165.07 16.272994 
166.0778 2.324501 
167.0855 3.55193 
168.0572 0.847265 
168.0934 0.699129 
169.0646 1.435791 
169.101 0.306203 
171.0806 0.619529 
176.0621 0.379812 
177.0699 0.819742 
178.0778 7.262411 
179.0857 3.432422 
180.0933 0.223041 
181.0649 1.144348 
181.1015 0.615778 
182.072 0.244924 
183.0806 0.622551 
189.0701 1.904916 
190.0779 1.649037 
191.0856 2.468456 
192.0935 0.937604 
193.1012 0.252048 
194.072 0.164596 
195.0807 0.668179 
197.0965 0.231055 
202.0777 2.215005 
203.0857 0.913697 
204.093 0.281351 
205.1012 0.272933 
209.0957 0.222852 
215.0857 0.83971 
216.0937 0.331756 
END IONS

