BEGIN IONS
PEPMASS=374.12
CHARGE=1+
COMPOUNDNAME=bisdethiobis(methylthio)gliotoxin
LIBRARYQUALITY=3
SMILES=N/A
INCHIKEY=OVBAGMZLGLXSBN-UOVKNHIHSA-N
INCHI=InChI=1S/C15H20N2O4S2/c1-16-12(20)14(22-2)7-9-5-4-6-10(19)11(9)17(14)13(21)15(16,8-18)23-3/h4-6,10-11,18-19H,7-8H2,1-3H3/t10-,11-,14+,15+/m0/s1
MSLEVEL=2
SOURCE_INSTRUMENT=N/A-ESI-QFT
FILENAME=library_mgf.mgf
SEQ=*..*
IONMODE=positive
ORGANISM=MONA
NAME=bisdethiobis(methylthio)gliotoxin [M+NH4]+
PI=MoNA
DATACOLLECTOR=MoNA:VF-NPL-QEHF024556
PUBMED=N/A
SUBMITUSER=mwang87
TAGS=
SPECTRUMID=CCMSLIB00004715619
SCANS=24556
50.300102 0.028036 
50.685555 0.03415 
50.717937 0.044063 
51.130695 0.042883 
51.790516 0.031608 
51.964737 0.028349 
52.799259 0.043585 
53.03904 0.052798 
53.318233 0.042798 
53.750874 0.031162 
54.034344 0.040384 
55.018246 0.830942 
55.054581 2.138873 
56.049812 2.563825 
57.03384 1.642813 
57.070213 3.461639 
57.248577 0.034111 
58.029091 0.02818 
58.065449 3.317219 
58.305302 0.03343 
58.661278 0.027428 
59.049465 1.480362 
59.060665 0.382165 
60.044643 0.968854 
60.055897 0.424779 
60.081081 0.314188 
60.691605 0.042783 
61.010925 11.466785 
61.028664 0.449636 
61.039967 0.04708 
61.332146 0.031616 
62.014221 0.045681 
62.018703 2.279076 
62.060326 0.092681 
62.989971 0.041775 
63.00666 0.789615 
63.510414 0.039512 
63.995953 0.038135 
65.58931 0.040953 
66.072807 0.040627 
66.870399 0.037312 
67.05442 2.103589 
67.334587 0.042476 
68.049637 0.788217 
68.073715 0.030793 
68.875664 0.034678 
69.033653 2.79142 
69.07003 4.943797 
69.254707 0.035835 
70.02887 0.176044 
70.065277 23.396038 
71.017471 0.038956 
71.036728 1.115406 
71.049255 1.722496 
71.068611 0.895139 
71.085648 2.726409 
71.334961 0.035388 
72.044525 3.252109 
72.08091 3.511271 
72.726341 0.045511 
72.937271 0.051419 
73.028481 2.214446 
73.046867 4.402591 
73.064903 1.466478 
73.208542 0.031477 
74.046379 0.194081 
74.050209 0.138791 
74.060135 2.789987 
74.990074 0.144206 
75.02623 0.046958 
75.044014 1.361679 
76.110023 0.039225 
77.097351 0.032959 
78.967018 0.037565 
79.021309 3.156423 
79.054298 1.016568 
80.049576 0.709928 
81.031242 0.116436 
81.033592 6.694677 
81.044868 0.275081 
81.069984 3.598237 
82.036697 0.064068 
82.065201 1.433211 
82.073349 0.036853 
82.168449 0.03897 
83.049263 7.006688 
83.060478 0.258818 
83.085617 3.227763 
84.044502 2.137927 
84.052689 0.144663 
84.05706 0.702792 
84.08091 9.476782 
84.490479 0.037614 
85.028534 3.290185 
85.039764 1.393079 
85.064888 1.402689 
85.076103 0.220368 
85.084167 0.211059 
85.101265 1.007939 
86.060112 2.78517 
86.096474 3.231826 
86.467934 0.031659 
87.026436 0.664986 
87.044197 8.788432 
87.055489 0.088355 
87.099831 0.139033 
87.210564 0.037752 
88.021645 1.241531 
88.039391 0.35392 
88.047539 0.253959 
88.075844 1.915479 
89.005646 0.085535 
89.059822 11.558992 
90.037354 3.995019 
90.054665 0.044624 
90.063171 1.000169 
90.94783 0.113114 
91.021477 0.088592 
91.040565 0.041827 
91.054405 2.164146 
91.057442 20.524372 
92.033043 0.430399 
92.057014 2.661946 
92.060745 1.451472 
92.98291 0.372353 
93.036751 0.349449 
93.05851 0.092474 
93.07 1.050828 
94.041351 0.154244 
94.065193 0.864442 
95.012802 0.389529 
95.04924 4.652889 
95.060532 0.421548 
95.085632 3.854116 
96.044464 1.439323 
96.052513 0.059667 
96.080811 1.486087 
96.08873 0.064941 
97.028549 3.851073 
97.039902 0.057443 
97.064896 0.923096 
97.076126 0.192978 
97.088806 0.044209 
97.101341 2.639886 
97.343407 0.044571 
97.679832 0.030896 
98.060204 4.680461 
98.096489 1.499068 
98.104515 0.042835 
98.542732 0.036519 
99.026314 0.047575 
99.044205 2.176358 
99.055389 0.584464 
99.063522 0.11624 
99.080452 0.727423 
99.091209 0.03794 
100.039383 1.765266 
100.075806 4.422262 
100.112198 0.0404 
100.492477 0.038882 
101.005676 0.85042 
101.023415 0.124503 
101.05983 4.037941 
101.923637 0.027307 
102.037292 3.444884 
102.055061 1.202891 
102.063171 0.038219 
102.091522 0.076325 
103.039047 1.300118 
103.053993 0.043083 
103.075516 0.466329 
104.033157 0.075658 
104.049698 0.045054 
104.070671 0.402264 
104.107056 5.403543 
104.171577 0.029937 
105.033623 1.613986 
105.070023 2.976727 
105.110336 0.220701 
106.037079 0.043522 
106.065254 2.126879 
106.073288 0.115024 
106.086349 0.124904 
106.969833 0.04223 
106.998398 0.213003 
107.049225 4.319418 
107.070251 0.43163 
107.085587 1.583643 
108.044388 1.391055 
108.052628 0.110234 
108.080833 0.493824 
108.958649 0.056536 
109.028572 1.590924 
109.064835 1.411936 
109.076118 0.046567 
109.101334 2.93429 
110.023727 1.600668 
110.036278 0.321248 
110.060165 1.801458 
110.071358 0.429105 
110.096535 0.427682 
110.104286 0.128588 
110.494698 0.032375 
111.026573 0.469036 
111.044189 11.168399 
111.055374 5.505833 
111.080551 0.35272 
111.116905 0.956576 
111.298424 0.041351 
112.022575 0.037873 
112.039383 0.328154 
112.047379 0.461596 
112.051216 0.055829 
112.07576 2.477395 
112.087097 2.338688 
112.112106 0.12361 
113.034508 0.052428 
113.059746 0.933226 
113.071083 0.302619 
113.079071 0.049363 
113.095848 0.038185 
114.055115 1.039274 
114.091438 2.560101 
114.102692 1.226253 
115.021446 2.488249 
115.039116 1.46428 
115.07547 0.346291 
115.086639 0.524898 
116.07074 2.253384 
116.074707 0.039751 
116.106438 0.037278 
117.054581 1.082362 
117.069946 0.410145 
117.091187 0.134013 
118.032196 2.842639 
118.05024 0.037209 
118.065155 2.001389 
118.086365 9.783834 
118.919174 0.040859 
119.016281 0.059499 
119.049271 0.67882 
119.085533 1.122236 
119.089844 0.282342 
119.792397 0.026285 
120.048187 3.066592 
120.08094 2.807467 
121.028526 1.356009 
121.05043 0.03434 
121.064957 2.986433 
121.084801 0.0724 
121.101273 1.175103 
122.043579 0.154131 
122.060303 1.901807 
122.071419 6.437754 
122.081177 1.178131 
122.096474 0.25181 
122.334045 0.038959 
123.044136 2.297326 
123.055489 0.124881 
123.07917 24.370876 
123.09137 0.044752 
123.116867 1.503206 
124.039429 0.9656 
124.052078 0.158146 
124.075981 2.245334 
124.082397 1.572033 
124.087128 0.276888 
124.111992 0.048904 
125.023308 0.671211 
125.042068 0.131992 
125.059792 0.770665 
125.071014 0.603083 
125.095535 1.26366 
125.132401 0.068818 
126.0187 1.270992 
126.054993 1.466007 
126.091438 1.544116 
127.039093 1.553489 
127.050224 4.672461 
127.075188 0.110859 
127.086769 0.363885 
127.09433 0.046907 
127.111916 0.067502 
128.034027 0.042202 
128.053345 0.044148 
128.070663 1.368043 
128.081924 0.357123 
128.107071 0.315696 
129.054703 1.298754 
129.102417 0.263933 
130.032684 0.029202 
130.050156 0.440615 
130.065201 10.671396 
130.086258 1.319753 
130.097488 0.129625 
131.049316 0.813723 
131.069977 2.118855 
131.085526 0.242427 
131.145599 0.042077 
131.974335 1.524983 
132.044418 3.569738 
132.065598 1.313284 
132.080856 1.118712 
132.101822 0.045686 
132.958267 0.094211 
133.052551 0.358671 
133.064728 1.092769 
133.076263 0.041229 
133.085953 4.741708 
133.101257 1.057506 
134.060074 8.843157 
134.080048 0.036853 
134.089767 0.265697 
134.096466 1.067973 
134.956192 0.661099 
134.974747 0.040894 
135.003036 0.033763 
135.044113 0.925619 
135.063248 0.5172 
135.080429 0.886202 
135.091583 0.433518 
135.116882 1.607567 
136.039307 0.637413 
136.06189 1.94009 
136.07579 2.37629 
136.087112 0.097012 
136.112305 0.220048 
137.059769 3.972532 
137.070984 0.953227 
137.082321 0.11886 
137.095642 0.579396 
137.132645 0.383498 
137.671844 0.029466 
138.019073 0.092157 
138.054993 1.351478 
138.09137 1.131448 
138.128052 0.051377 
139.021301 0.616654 
139.039703 0.275868 
139.050293 18.323734 
139.075455 0.240917 
139.086624 0.384435 
139.098053 0.345955 
139.111755 0.176269 
140.034454 0.287226 
140.053329 0.954098 
140.05864 0.464695 
140.069901 1.089304 
140.081863 0.383304 
140.107132 0.426351 
140.143463 0.21107 
140.984634 0.297606 
141.054626 0.931385 
141.065842 0.846315 
141.090439 0.041056 
141.102234 0.284882 
141.127502 0.223553 
142.049911 0.123041 
142.086349 2.06932 
142.122528 0.198322 
142.159378 0.050978 
142.979401 0.047362 
143.045151 0.243049 
143.106949 0.027253 
144.044327 6.704786 
144.065521 0.883152 
144.080872 1.373824 
144.102005 1.91011 
144.107391 0.033757 
144.648529 0.035242 
145.028503 0.251203 
145.042847 0.22517 
145.048737 0.815744 
145.06485 0.755681 
145.075562 0.048242 
145.085815 0.147428 
145.101074 0.111334 
146.027023 0.486866 
146.060089 5.580233 
146.096954 0.403949 
146.167923 0.031792 
146.974365 0.428155 
147.044128 3.292072 
147.05545 0.050615 
147.064682 0.357501 
147.080566 0.582949 
147.091782 1.35264 
147.116974 0.58501 
148.039322 1.226621 
148.061859 0.347274 
148.075714 2.841902 
148.112183 0.359908 
148.956009 0.099995 
148.971985 1.363542 
149.047119 0.305149 
149.059784 1.215487 
149.071136 0.800603 
149.083206 0.11329 
149.096207 0.17617 
149.107544 0.642422 
149.132675 0.47801 
149.954498 0.056476 
149.985031 1.115827 
150.05513 5.3798 
150.06636 0.128492 
150.091507 1.98312 
150.12851 0.044249 
150.951218 5.865534 
150.968475 0.066039 
151.039124 0.46576 
151.050537 0.303407 
151.057877 0.105759 
151.0755 1.568692 
151.086716 0.684019 
151.097473 0.956272 
151.111847 2.58925 
151.959213 0.051824 
152.034363 0.308552 
152.052551 0.050412 
152.070831 3.315846 
152.081909 1.124042 
152.107117 0.835106 
152.114365 0.041107 
152.951675 1.07841 
152.966888 0.570363 
153.030304 0.22226 
153.036957 2.097667 
153.054596 0.460853 
153.065903 1.11239 
153.091125 0.094422 
153.102524 0.320679 
153.127899 0.093385 
153.959396 0.053364 
154.032074 0.045812 
154.049927 0.39794 
154.086334 1.2514 
154.122665 0.194592 
154.947006 0.601441 
154.967438 0.035948 
155.000458 0.050334 
155.045258 0.550694 
155.08136 0.426404 
155.11795 0.191751 
155.143005 0.05411 
155.954956 0.309887 
156.065475 0.249127 
156.080994 0.104604 
156.102112 1.361737 
156.138367 0.05777 
156.969849 0.048934 
157.015701 0.492326 
157.04303 1.495024 
157.049255 0.033017 
157.076187 0.232724 
157.097046 0.043663 
158.011215 0.055589 
158.027008 0.123166 
158.06012 3.967197 
158.081299 0.756655 
158.092178 0.158212 
158.097214 0.201395 
158.117706 1.225599 
158.95369 0.04388 
158.974472 1.192748 
159.010834 0.130745 
159.044724 0.055309 
159.068497 0.349993 
159.080566 0.150304 
159.091782 1.416266 
159.117126 0.125717 
160.039429 19.768412 
160.075851 2.009201 
160.11174 0.037621 
160.989899 0.093376 
160.99826 0.043564 
161.042206 1.712 
161.048508 0.367164 
161.059662 1.171405 
161.071106 0.527884 
161.083527 0.404819 
161.096069 0.270848 
161.107086 0.146686 
161.132523 0.712072 
161.967041 1.031858 
162.055115 6.387412 
162.066467 0.060656 
162.076202 0.079946 
162.091431 4.032088 
162.951599 0.5028 
162.972626 0.047933 
163.005478 0.308263 
163.024872 1.852955 
163.039062 0.239143 
163.050629 0.170573 
163.058121 0.3172 
163.075409 2.959586 
163.086823 1.742892 
163.094238 0.235069 
163.095505 0.226556 
163.11145 0.203584 
163.148056 0.182348 
163.959183 0.621011 
163.967682 0.232047 
163.977203 0.048508 
164.016373 0.037097 
164.034912 0.160553 
164.058563 0.099786 
164.070801 2.286745 
164.079849 0.729914 
164.093445 2.528986 
164.107086 1.91021 
164.951599 0.352583 
164.967026 0.116905 
164.988159 1.724104 
164.994629 0.046655 
165.020828 1.299159 
165.036514 0.056749 
165.054733 1.524302 
165.066101 1.493186 
165.078568 0.051747 
165.090942 0.288934 
165.102493 0.700572 
165.113602 0.810521 
165.938461 0.281503 
166.031906 0.304221 
166.049988 0.693941 
166.086426 2.790627 
166.097809 2.048373 
166.104691 0.044877 
166.122711 0.244765 
166.947357 0.039248 
166.967087 0.620978 
166.983185 1.507755 
167.016266 0.250584 
167.037033 0.497127 
167.045319 2.872072 
167.054596 0.353617 
167.070435 0.411579 
167.081635 0.636753 
167.092804 0.197928 
167.117981 0.576782 
168.048248 0.048472 
168.065659 0.952692 
168.102188 0.904123 
168.113205 0.213013 
168.13855 0.046093 
168.961884 3.352484 
168.982758 0.099348 
169.031891 0.26297 
169.050995 0.232343 
169.060883 1.051654 
169.076233 0.618851 
169.087051 0.035416 
169.097366 1.067651 
169.133804 0.161894 
170.060211 0.345077 
170.081558 0.576786 
170.096283 0.221189 
170.11763 0.234266 
170.962234 0.284235 
171.063797 0.037944 
171.092087 0.131988 
172.039444 1.763515 
172.059769 0.050075 
172.07576 1.11971 
172.09668 0.525309 
172.107635 0.040658 
172.110504 0.042649 
172.112595 0.045432 
172.133377 0.375454 
172.957443 0.167379 
173.059952 0.381707 
173.071045 1.250683 
173.078979 0.135064 
173.095276 0.033569 
173.107559 0.213642 
173.131729 0.040053 
174.005814 0.182074 
174.021454 0.458807 
174.055191 4.238736 
174.078735 1.854055 
174.091644 1.36424 
174.127838 0.108841 
175.006363 0.049593 
175.039627 0.062572 
175.058823 0.950883 
175.07576 0.88348 
175.086823 5.735997 
175.096329 0.705034 
175.119156 1.165862 
175.148224 0.306296 
175.958893 1.060887 
176.034439 0.88873 
176.058029 0.042208 
176.070892 1.710263 
176.081757 0.093669 
176.09053 0.432494 
176.107346 1.164598 
176.265839 0.041772 
176.9758 0.441884 
176.985458 0.445475 
177.042328 0.169197 
177.055069 1.975895 
177.066071 3.766722 
177.091156 0.160316 
177.102493 0.73694 
177.111954 0.515632 
178.031754 0.040918 
178.050064 8.434853 
178.058365 0.214613 
178.070175 0.091836 
178.086517 4.978859 
178.096115 0.224636 
178.122986 0.264424 
178.983398 0.584081 
179.000793 0.131176 
179.022659 0.229731 
179.035446 0.060552 
179.045197 0.659964 
179.053268 0.467288 
179.070602 0.64995 
179.082108 0.554805 
179.092972 5.446236 
179.106705 0.120992 
179.118103 0.360951 
179.142715 0.039413 
179.954376 0.275752 
179.977722 1.349465 
180.047684 3.661725 
180.065552 1.034328 
180.075241 0.09088 
180.102432 1.893099 
180.110718 0.051912 
180.527069 0.031614 
180.961746 0.638548 
180.980484 0.054491 
181.03215 0.049061 
181.051636 0.7069 
181.060852 7.399982 
181.08606 0.715696 
181.097397 1.257582 
181.133759 0.501476 
181.96965 0.126073 
182.044708 0.223857 
182.063858 0.555057 
182.081497 1.539434 
182.089752 0.065585 
182.117798 0.767724 
182.962448 0.237223 
182.977539 0.211634 
183.031662 4.011195 
183.07724 0.043624 
183.113113 0.59158 
183.149338 0.043149 
183.949051 0.23611 
184.026001 0.056358 
184.062607 0.185455 
184.07547 0.530178 
184.096863 0.432821 
184.112518 0.04844 
184.133606 0.052264 
185.027496 0.846914 
185.038101 2.620314 
185.046539 0.614341 
185.071198 2.163344 
185.080338 0.104161 
185.094376 0.0955 
185.107574 0.085294 
186.021225 0.072826 
186.054993 0.502725 
186.078644 0.633426 
186.091415 1.045308 
186.103348 0.217816 
186.112656 2.115795 
186.121475 0.056121 
187.00766 0.042834 
187.076797 0.269583 
187.086868 8.446916 
187.096573 0.092019 
187.12352 0.267756 
187.944733 0.063591 
188.023849 0.056119 
188.034622 0.985243 
188.070847 2.421126 
188.079956 0.062198 
188.091003 1.275174 
188.107193 0.645754 
188.128143 0.12093 
189.055313 0.370526 
189.066116 1.526062 
189.07515 0.082883 
189.091904 0.118267 
189.102417 1.139194 
189.164185 0.055875 
190.016373 0.370369 
190.032364 1.402303 
190.049942 2.351964 
190.074341 0.207867 
190.086411 1.762039 
190.095871 0.123438 
190.122925 0.225386 
191.001282 0.312594 
191.016663 0.03974 
191.035461 0.053297 
191.045364 0.306106 
191.071304 0.539895 
191.081528 5.184045 
191.091339 0.247905 
191.117905 0.128377 
191.965057 0.405343 
191.977859 2.94487 
191.995285 0.070342 
192.029816 0.034559 
192.048019 0.80104 
192.065659 2.003691 
192.074539 0.039826 
192.089828 0.282441 
192.101913 4.005874 
192.111786 0.127452 
192.138153 0.077819 
192.961914 4.406848 
192.983078 7.159672 
192.998047 0.041266 
193.05127 0.460891 
193.060806 4.520438 
193.070374 0.060477 
193.097427 1.387617 
193.109131 1.005654 
193.133759 0.277348 
193.957779 0.036439 
193.969727 0.406299 
193.9785 0.174285 
194.027283 0.354177 
194.044891 1.955746 
194.064346 0.454205 
194.081573 1.554659 
194.091034 0.097734 
194.11792 2.194391 
194.978531 2.691295 
194.999054 0.047786 
195.066483 0.130808 
195.076691 0.451606 
195.091949 4.318416 
195.113037 0.737825 
195.122131 0.428154 
195.149643 0.054446 
196.043137 0.103353 
196.060791 1.274393 
196.075745 0.117466 
196.097046 1.713818 
196.107254 0.272079 
196.133377 0.121681 
196.957886 0.142506 
197.047043 0.032289 
197.06105 0.054096 
197.071472 0.685875 
197.092392 0.274696 
197.106522 0.043062 
197.128708 0.112401 
197.889481 0.047339 
198.021667 0.047849 
198.057465 0.334721 
198.078217 1.130907 
198.091217 1.345258 
198.112885 1.405345 
198.122726 0.078835 
198.954239 0.038535 
198.980179 0.048955 
199.026733 0.046149 
199.06279 0.049091 
199.072098 0.71429 
199.086838 1.015069 
199.107758 0.158051 
200.03566 0.097058 
200.058228 0.559733 
200.070923 1.187923 
200.092056 0.338825 
200.107132 0.982606 
200.12822 0.173553 
200.984985 0.162664 
201.042648 0.060505 
201.055573 0.41035 
201.065903 9.102427 
201.099991 0.972033 
201.11232 0.050019 
202.050278 0.881181 
202.073685 6.076864 
202.086151 1.485388 
202.096756 0.217375 
202.108002 0.226196 
202.122742 0.211366 
202.133804 0.036707 
203.045303 0.158734 
203.08165 30.128548 
203.117905 0.276502 
203.127792 0.058301 
204.009964 0.056005 
204.031265 0.049838 
204.065735 0.775018 
204.085205 2.932591 
204.101776 1.276676 
204.112457 0.186611 
204.962296 0.799149 
205.016541 0.148937 
205.06105 4.819998 
205.087387 0.154561 
205.097458 2.608901 
205.107758 0.071451 
205.134033 0.105826 
205.98819 0.623567 
206.027542 0.109852 
206.04454 0.135065 
206.065826 0.234273 
206.081726 0.973638 
206.092072 0.065137 
206.117889 0.801924 
206.977966 0.122664 
207.065994 0.190935 
207.076447 2.916973 
207.091827 0.535123 
207.102844 0.055731 
207.112991 1.495996 
207.149323 0.047723 
208.027237 0.050953 
208.04274 3.006313 
208.060547 0.529028 
208.097153 1.028044 
208.108185 0.232389 
208.121674 0.344455 
208.133514 0.215505 
208.96582 0.046372 
209.055908 5.929874 
209.082016 0.180207 
209.092529 1.31218 
209.106369 0.039355 
209.128708 0.973034 
209.977066 0.273592 
209.988373 9.515259 
210.021942 0.417949 
210.041672 0.232367 
210.05896 0.503277 
210.076187 0.329133 
210.091446 0.602713 
210.112854 2.431437 
210.123383 0.248239 
210.149124 0.116348 
210.972458 3.150699 
210.99118 1.486675 
211.075256 0.141663 
211.0867 1.467576 
211.097031 0.154262 
211.108292 0.617169 
211.11911 3.031228 
211.144302 0.534544 
211.984436 1.143811 
212.037491 0.235721 
212.057266 0.08669 
212.071091 0.533057 
212.09227 1.082404 
212.107147 1.333453 
212.128113 1.330918 
212.164917 0.046583 
212.175735 0.068065 
212.972549 0.540481 
213.066055 12.420467 
213.090988 0.759516 
213.102539 0.759676 
213.12294 1.786149 
213.160065 0.328711 
214.050964 0.165267 
214.073624 8.23116 
214.086258 1.712842 
214.097183 0.057848 
214.107529 3.613179 
214.121994 0.475735 
214.143951 0.155003 
214.268875 0.918471 
214.277145 0.950914 
214.968063 0.580892 
215.046021 0.04877 
215.081909 11.038391 
215.104248 0.054223 
215.11792 0.434029 
216.052872 1.401273 
216.065201 0.522728 
216.076691 0.057791 
216.088104 2.981479 
216.101562 1.677078 
216.122925 0.339637 
216.138443 0.049211 
216.965485 0.086251 
217.050507 0.445719 
217.061035 2.452751 
217.071915 0.060621 
217.086884 0.098269 
217.097244 1.821714 
217.107635 0.123435 
217.133316 0.037989 
217.989792 0.131364 
218.028091 0.634031 
218.047501 2.949852 
218.068634 1.765665 
218.081177 0.881157 
218.092102 0.11679 
218.117813 1.044374 
219.041077 0.049173 
219.076569 7.819564 
219.102036 0.043546 
219.112854 0.241757 
219.174728 0.193372 
220.042725 0.514884 
220.060638 0.730072 
220.084824 7.671522 
220.096603 0.709543 
220.107956 0.225944 
220.119278 0.337319 
220.133102 0.176305 
221.055786 0.45593 
221.074356 0.744783 
221.092545 3.671998 
221.128326 0.051549 
221.140045 0.5161 
221.985947 0.054377 
222.022461 0.092558 
222.041611 0.050651 
222.058044 0.212694 
222.07695 0.428937 
222.090286 0.062633 
222.112701 1.232121 
223.053192 0.052031 
223.072021 0.339415 
223.087173 0.240256 
223.108002 1.115775 
223.144577 0.226101 
223.156113 0.099606 
223.979767 1.017621 
223.999985 0.060156 
224.037704 0.088593 
224.057785 0.051681 
224.07132 0.114497 
224.092545 0.307489 
224.106277 0.523643 
224.12854 0.15492 
224.972626 0.042296 
225.067261 0.250627 
225.08992 0.162517 
225.102081 0.431804 
225.123505 0.241534 
225.160156 0.264487 
226.053146 0.649542 
226.073395 1.572328 
226.0849 1.456504 
226.107666 0.41172 
226.120453 0.96856 
226.144241 0.066684 
227.047867 0.052099 
227.081558 3.528025 
227.105118 0.050578 
227.117859 0.419591 
227.139114 0.057486 
228.032166 0.371856 
228.053146 0.339769 
228.065704 0.435602 
228.086655 0.547623 
228.101883 1.488803 
228.113144 0.25058 
228.124237 0.058067 
228.136322 0.178089 
228.890305 0.187434 
229.060883 4.60842 
229.085312 0.245375 
229.097412 0.773963 
229.133575 0.056948 
229.155151 0.458466 
229.896194 0.235074 
230.049805 0.045361 
230.05426 0.045634 
230.069031 11.599198 
230.081955 0.968828 
230.104019 0.19699 
230.117508 1.556442 
230.138351 0.052681 
230.186493 2.643275 
231.076706 48.97723 
231.112473 0.563613 
231.149078 0.109613 
231.897247 0.152689 
232.060333 0.059914 
232.082123 7.284262 
232.097275 0.738565 
232.119583 0.183037 
232.133011 0.49012 
232.947433 0.058649 
233.037857 0.372389 
233.05574 0.795212 
233.073074 0.089936 
233.092422 10.338099 
233.128296 0.091206 
233.891663 1.453652 
234.059219 0.11 
234.076675 0.288523 
234.09671 1.898973 
234.112396 0.59955 
234.899231 1.024112 
234.95932 0.050487 
235.053833 0.620199 
235.071838 2.430373 
235.085602 0.229774 
235.097458 0.093242 
235.119522 0.98052 
235.145599 0.061989 
235.891479 0.199765 
236.002335 0.042642 
236.037857 0.112704 
236.073898 0.126619 
236.091629 0.25156 
236.103668 0.340051 
236.128174 0.372781 
237.076523 0.269093 
237.088348 0.386507 
237.102539 0.276179 
237.13562 0.555412 
237.888016 0.050219 
238.052567 0.242312 
238.085632 0.665442 
238.107529 0.49937 
238.120316 0.383744 
239.069733 0.057051 
239.082855 1.16309 
239.117767 0.058256 
239.886017 0.230485 
239.995499 0.053149 
240.03244 0.23828 
240.067474 0.331568 
240.088058 0.222576 
240.101166 1.368195 
240.123535 0.478241 
240.136688 0.164622 
240.909302 0.166413 
241.027161 0.206696 
241.061157 0.914948 
241.084961 0.125593 
241.097244 0.403461 
241.11937 0.046723 
241.133041 0.20227 
241.157913 0.060012 
241.884659 0.440852 
241.998703 0.043112 
242.069092 3.24287 
242.081116 0.570918 
242.092636 1.054351 
242.104706 0.148729 
242.11734 1.180094 
242.13945 0.048592 
243.043823 0.053997 
243.076523 9.849175 
243.088287 4.82995 
243.112305 0.494848 
243.149017 0.461922 
244.022705 0.292114 
244.042511 0.710643 
244.060608 0.092669 
244.082657 2.232465 
244.096512 1.083948 
244.119186 0.182894 
244.132904 0.855586 
244.905792 0.05387 
245.038605 0.467275 
245.055878 3.160498 
245.091995 4.334227 
245.128281 0.480531 
246.046097 0.397442 
246.06279 1.531947 
246.097885 0.273863 
246.112091 1.581079 
246.903793 0.162571 
247.055405 0.112285 
247.071487 7.235953 
247.08551 0.21736 
247.107986 0.134332 
247.144455 0.130392 
247.90657 0.08539 
248.037506 0.055035 
248.079376 10.95937 
248.091461 0.508113 
248.12825 0.904306 
248.879013 0.0727 
248.902222 0.054443 
249.06955 2.552033 
249.086975 7.412163 
249.101761 0.675087 
249.122269 0.053779 
249.135101 0.481692 
249.163589 0.067604 
249.906998 1.045348 
250.053253 0.839942 
250.074005 0.426027 
250.092834 1.014215 
250.107758 0.257254 
250.120621 0.065089 
250.143616 0.89911 
250.893616 0.19541 
250.907242 0.05985 
251.048386 0.807781 
251.067978 0.244539 
251.084549 2.405307 
251.102921 1.992759 
251.116516 0.085792 
251.90242 2.857376 
251.99852 0.482998 
252.053299 0.044106 
252.067932 0.363379 
252.088196 0.887725 
252.111679 4.451513 
252.1362 0.330363 
252.95224 0.03847 
252.968079 0.037296 
253.063156 0.238565 
253.084 0.052437 
253.096863 0.345907 
253.118317 0.102573 
253.132675 0.076827 
253.154526 0.118713 
253.216324 0.057562 
253.90242 1.466606 
253.995102 0.283239 
254.081192 0.305508 
254.101486 0.065686 
254.115524 1.424964 
254.153336 0.063408 
254.905106 0.40362 
255.07634 0.169012 
255.112549 0.378529 
255.148727 0.054829 
255.231934 12.19408 
255.89859 0.630261 
256.00354 1.221639 
256.025085 0.499398 
256.083527 0.061254 
256.096649 1.196314 
256.131409 1.059146 
256.235413 1.803992 
256.898987 0.318689 
257.056305 0.058587 
257.094574 1.642094 
257.128601 0.999116 
257.895996 1.376899 
258.076294 0.127526 
258.11142 2.288885 
258.156891 0.41911 
258.898071 2.041813 
259.016449 0.920175 
259.055603 0.184723 
259.071564 8.719719 
259.107117 0.184171 
259.144165 1.092029 
259.894836 2.647491 
260.022339 0.424842 
260.062042 0.773907 
260.078979 7.689645 
260.103088 0.064916 
260.114563 0.05549 
260.128052 1.068433 
260.900055 0.034968 
261.033722 0.086131 
261.053955 0.534477 
261.069489 4.722454 
261.086792 6.856313 
261.122345 0.207068 
261.156494 0.041242 
262.040314 1.250224 
262.055359 0.063172 
262.072815 0.507194 
262.091461 1.294006 
262.107727 0.480209 
262.126007 0.048676 
262.143402 0.176135 
262.16748 0.061829 
262.895233 0.31359 
263.048645 3.364675 
263.066071 1.407093 
263.082367 0.17829 
263.102814 1.018214 
263.138062 0.52031 
263.151001 1.267445 
263.175507 0.260026 
264.032867 0.399945 
264.052887 0.228421 
264.087341 0.06355 
264.10318 0.128026 
264.122986 0.635669 
264.986328 0.040317 
265.063995 0.661582 
265.082581 0.735096 
265.097382 2.192291 
265.154907 0.053191 
265.883148 0.216588 
266.102051 0.520324 
266.117065 0.531308 
266.139374 0.19304 
267.007111 0.068848 
267.079407 1.539783 
267.113281 1.121784 
267.148956 0.109123 
268.005249 0.060039 
268.084961 0.213558 
268.098572 0.830854 
268.133301 1.038108 
268.264038 0.112343 
268.905609 0.945495 
268.9776 0.047065 
268.998688 0.129463 
269.058807 1.306823 
269.092651 0.49091 
269.128784 0.276671 
269.267029 1.294879 
269.980042 0.06809 
270.077179 0.379654 
270.112 1.518727 
270.148438 0.252065 
270.886719 0.149395 
270.902344 3.509503 
270.922089 0.666877 
270.975403 0.207312 
271.073883 0.675223 
271.110046 0.697781 
271.144104 1.103212 
271.921417 1.161471 
272.036987 0.054581 
272.059326 0.120694 
272.092102 0.213449 
272.128113 0.691524 
272.164368 0.159034 
272.222229 3.22514 
272.901947 0.803811 
272.917572 4.308558 
273.069977 0.30124 
273.087219 0.45877 
273.122223 0.094965 
273.159241 0.190176 
273.918823 0.122607 
274.106812 0.401377 
274.143738 0.416142 
274.894501 0.768118 
274.9151 0.450311 
275.049255 0.19171 
275.066345 0.666523 
275.117767 0.056819 
275.136963 0.045825 
275.15213 0.180099 
275.902588 0.186441 
276.069885 0.097963 
276.123199 0.781229 
276.172058 0.064014 
276.910156 4.2831 
277.064484 22.77692 
277.081757 2.039763 
277.097687 0.795776 
277.909454 0.140144 
278.051971 0.166637 
278.067871 4.877681 
278.101929 0.18305 
278.116577 0.513087 
278.139038 0.060567 
279.043274 0.631923 
279.060822 3.278654 
279.080078 9.415423 
279.098053 2.480285 
279.114441 0.053506 
279.898163 0.213097 
280.065002 0.323257 
280.08313 1.168645 
280.104736 0.74074 
280.132416 0.061115 
280.899841 0.222845 
281.059052 1.479316 
281.076508 0.596775 
281.094025 0.809133 
281.112 0.19075 
281.896606 4.330588 
282.04245 0.04842 
282.111908 0.785886 
282.897583 2.412344 
283.074005 0.266517 
283.108124 0.59046 
283.144196 4.284709 
283.263367 8.847534 
283.892975 9.011817 
283.988953 1.19365 
284.092133 0.191311 
284.111603 0.058573 
284.127228 0.712843 
284.148773 0.389405 
284.266724 2.271233 
284.895233 0.552869 
284.995239 1.276382 
285.010712 2.44165 
285.060455 0.31652 
285.098999 1.486718 
285.123291 1.739251 
285.160034 0.268276 
285.271637 0.053387 
285.890747 1.071866 
286.01062 3.716244 
286.10733 1.113087 
286.126221 0.048941 
286.143616 0.61888 
286.89502 0.998751 
286.91571 0.662964 
287.007233 5.394554 
287.081055 0.052289 
287.139923 0.222514 
288.007843 0.454417 
288.123199 0.816298 
288.914429 2.90116 
289.027496 0.446546 
289.064941 2.231813 
289.097748 0.19644 
289.155029 0.52843 
289.916443 0.180896 
290.047974 1.031811 
290.067627 0.124271 
290.138123 0.485164 
290.912048 0.741957 
291.044037 1.228049 
292.118256 0.214985 
292.152466 0.096791 
293.058502 0.12438 
293.077423 0.064349 
293.129242 0.061502 
293.161316 2.905748 
294.079681 0.578403 
294.124268 4.692744 
294.165009 0.220671 
294.904633 0.181468 
295.074829 1.83776 
295.108887 0.071895 
295.127441 1.592106 
295.144714 0.164013 
295.195068 0.722776 
295.926697 0.054286 
296.013519 0.154796 
296.075592 0.061484 
296.095184 0.067151 
296.113678 0.137161 
296.128723 0.868806 
297.053741 1.017959 
297.072693 0.393294 
297.090454 2.534522 
297.112213 0.765759 
297.159271 0.257721 
297.816589 0.315693 
297.909302 0.062898 
298.054901 0.17146 
298.093292 0.312582 
298.110168 6.140532 
298.14325 0.301012 
298.913269 0.102451 
299.105896 5.079069 
299.139099 0.597347 
299.907379 1.196717 
300.06131 0.692793 
300.078369 1.162265 
300.108429 0.212941 
300.909882 2.529337 
300.968323 0.980818 
300.988403 0.06137 
301.061188 0.760044 
301.154266 0.080002 
301.903809 2.628255 
302.138489 0.070044 
303.006073 0.336996 
303.071381 0.54591 
303.90152 0.149634 
304.020447 0.100473 
304.118073 0.515289 
304.170319 0.079377 
304.905945 0.114741 
305.019836 0.721736 
306.07663 0.065549 
306.134155 0.512825 
306.829224 0.709968 
307.056915 0.086655 
307.075043 2.528101 
307.108093 0.066031 
307.142822 0.058166 
308.04599 0.598359 
308.080658 0.103846 
308.128662 0.177783 
308.937103 0.460679 
309.070221 0.098925 
309.089691 0.38723 
309.141998 0.187708 
309.16098 0.44593 
309.180939 0.182199 
310.121033 0.550058 
310.143616 0.234308 
310.845032 0.059041 
310.91629 0.784895 
311.084625 0.132277 
311.101562 0.420512 
311.119995 0.641658 
311.139832 0.892952 
311.917358 0.077169 
312.016754 0.101973 
312.102112 0.184424 
312.123291 0.661969 
312.144501 0.334573 
312.914703 3.586369 
312.933502 0.257794 
313.078766 1.690732 
313.117859 1.5259 
313.136017 0.119073 
313.154419 0.958215 
313.173706 0.048386 
313.20575 5.766769 
313.22522 0.05595 
313.914703 0.30383 
313.932739 0.649756 
314.009918 0.140533 
314.08197 0.178254 
314.102997 0.238248 
314.12265 0.134764 
314.139893 0.796819 
314.209106 0.791669 
314.911194 1.088481 
314.930267 1.3093 
315.006714 1.562101 
315.083282 5.894264 
315.123718 0.756928 
315.170227 0.399692 
316.027527 0.143666 
316.063202 0.057534 
316.085602 0.527908 
316.120667 5.91211 
316.152466 0.048507 
316.904968 0.82923 
316.924591 0.183848 
317.078552 0.1326 
317.149597 1.768988 
317.185364 0.037417 
317.823242 0.052075 
317.993958 0.908582 
318.920898 3.835679 
319.040558 0.053746 
319.921509 0.133179 
322.128174 1.211605 
322.82486 0.253335 
322.952545 1.065815 
323.133698 0.273141 
324.123566 0.334857 
324.144196 0.841544 
324.840118 0.387464 
325.067047 0.491531 
325.085693 1.600492 
325.118774 0.186476 
325.154663 1.586013 
326.092041 0.233207 
326.139069 0.622079 
326.157593 0.126338 
326.342255 4.287099 
327.06369 0.06746 
327.100433 1.802984 
327.136353 0.06654 
327.170166 1.269933 
327.345306 0.605731 
328.116882 0.058017 
328.154297 0.608945 
328.201233 0.052784 
328.92691 0.0877 
329.021118 0.064138 
329.080811 0.07058 
329.098206 0.075922 
329.130493 0.190727 
329.15097 0.229156 
329.185974 0.257666 
330.026459 0.301263 
330.133484 0.127923 
330.218689 0.105075 
330.829529 0.077375 
330.924927 1.933588 
331.072845 1.149815 
331.216492 2.903097 
331.237732 0.162597 
331.926758 0.329191 
331.953033 0.066714 
332.021149 2.20404 
332.219269 0.192215 
332.923676 0.35421 
333.017365 2.948388 
333.836487 0.33299 
334.019531 0.057907 
334.844238 0.825372 
336.123657 0.158999 
336.144714 2.757144 
336.839691 0.414136 
336.931 0.362826 
337.12262 0.055603 
337.15094 1.300781 
338.139313 0.668329 
338.159607 1.666291 
338.819336 0.655385 
339.111206 0.106311 
339.135132 0.208891 
339.169739 0.474806 
340.117218 0.400455 
340.137207 2.680925 
341.113617 0.908276 
341.146515 1.377382 
341.186035 0.142344 
342.132202 0.320813 
342.15274 0.307902 
342.851074 0.414003 
342.997803 0.199429 
343.058624 0.075488 
343.077606 0.124168 
343.129333 0.918558 
343.165436 1.025931 
343.202179 0.055264 
344.107574 0.396372 
344.148438 0.323172 
344.196259 0.058368 
345.093567 0.791229 
345.118225 0.045551 
345.181091 0.123858 
346.04718 0.242363 
347.073608 0.126685 
348.839478 0.271174 
349.846985 0.129557 
350.030731 0.037842 
350.947327 1.303402 
351.028564 0.199168 
351.846741 2.455044 
351.951599 0.049156 
354.133026 0.775755 
354.153931 3.487029 
354.215881 0.056183 
355.130219 1.573361 
355.164001 4.159039 
355.215851 0.104633 
356.069946 1.628457 
356.112 0.241577 
356.148743 2.781118 
356.16922 2.299594 
356.214355 0.966404 
356.352356 0.341863 
357.07074 0.117487 
357.120514 1.084582 
357.145203 3.231846 
357.180176 2.706554 
357.219635 1.162677 
358.023499 0.224382 
358.127716 0.443917 
358.166779 1.782658 
358.186462 0.288581 
358.222534 0.098802 
359.028687 1.369036 
359.987091 0.28527 
361.070099 3.438159 
362.073792 0.374783 
364.834747 0.874007 
366.8508 1.020456 
367.857269 0.236459 
369.857758 0.057806 
372.143066 3.340047 
372.166443 2.427131 
372.200165 3.533418 
372.243744 100.0 
373.047455 1.202343 
373.141266 4.318671 
373.176331 15.326904 
373.216766 8.950249 
373.246979 44.942394 
374.067383 2.852609 
374.121765 1.652045 
374.158661 9.924334 
374.180206 4.15558 
374.20816 5.556177 
374.247589 5.23067 
374.302948 14.459831 
374.361694 5.26101 
375.01123 1.187056 
375.044403 0.140039 
375.070282 0.322623 
375.100433 0.129991 
375.132141 2.453695 
375.161224 5.706667 
375.192322 11.323505 
375.233582 9.82695 
375.306152 3.877249 
375.337189 1.704602 
375.366638 1.029796 
376.135529 1.964043 
376.175354 8.302335 
376.194214 1.463131 
376.224335 4.227791 
376.261261 0.239942 
376.287292 0.053941 
376.318298 3.02809 
377.997101 0.201908 
378.97879 0.052322 
379.731079 0.045753 
381.837341 0.127513 
383.851471 0.088654 
384.861176 4.073637 
385.862091 0.687008 
386.749146 0.143389 
386.862061 0.060244 
388.835754 0.106233 
395.296173 0.049753 
END IONS

