BEGIN IONS
PEPMASS=544.0
CHARGE=1+
COMPOUNDNAME=Massbank:KO008944 Doxorubicin|Adriamycin
LIBRARYQUALITY=3
SMILES=c(c43)(C[C@](C(=O)CO)(C[C@@H]4OC(C5)O[C@@H](C)[C@@H](O)[C@@H](N)5)O)c(O)c(c1c(O)3)c(c(c2)c(c(OC)cc2)c1=O)=O
INCHIKEY=AOJJSUZBOXZQNB-DCBNVMRFSA-N
INCHI=1S/C27H29NO11/c1-10-22(31)13(28)6-17(38-10)39-15-8-27(36,16(30)9-29)7-12-19(15)26(35)21-20(24(12)33)23(32)11-4-3-5-14(37-2)18(11)25(21)34/h3-5,10,13,15,17,22,29,31,33,35-36H,6-9,28H2,1-2H3
MSLEVEL=2
SOURCE_INSTRUMENT=ESI-LC-ESI-IT
FILENAME=Massbank_ESI_positive_8_1_2014_peaks.mgf
SEQ=*..*
IONMODE=Positive
ORGANISM=MASSBANK
NAME=Massbank:KO008944 Doxorubicin|Adriamycin [M+H]+
PI=Putative Massbank Match
DATACOLLECTOR=Massbank
PUBMED=N/A
SUBMITUSER=mwang87
TAGS=
SPECTRUMID=CCMSLIB00000221182
SCANS=10120
171.9 1.67 
292.6 5.2 
303.0 3.53 
321.1 88.11 
322.2 3.46 
337.1 8.07 
346.2 3.4 
351.2 5.14 
361.0 162.66 
364.1 3.4 
378.0 5.14 
379.0 197.5 
380.7 11.53 
383.1 15.54 
386.1 4.2 
389.1 9.53 
390.2 1.53 
391.0 21.06 
392.2 14.86 
396.3 7.73 
397.1 1420.91 
398.1 19.06 
399.2 26.26 
400.1 5.0 
401.1 10.66 
402.2 3.33 
414.0 20.13 
415.1 12.93 
415.8 14.66 
416.8 18.59 
417.8 20.45 
419.9 32.2 
421.8 5.27 
426.2 4.46 
427.7 13.19 
436.0 7.67 
438.1 5.47 
441.3 1.8 
455.9 2.8 
459.1 32.6 
498.9 3.73 
499.9 12.93 
500.9 2.2 
508.1 10.87 
524.9 34.12 
525.9 207.41 
527.0 3.2 
542.0 0.87 
543.8 2.53 
544.5 2.0 
574.0 3.27 
584.1 9.79 
588.8 6.79 
END IONS

