BEGIN IONS
TITLE=Scan Number: 1
PEPMASS=402.29999
CHARGE=1+
COMPOUNDNAME=Myxalamid B
LIBRARYQUALITY=1
SMILES=N/A
INCHIKEY=QQZJCNSHAVQKIC-DDKJXSSXSA-N
INCHI=InChI=1S/C25H39NO3/c1-18(2)15-21(5)24(28)22(6)16-19(3)13-11-9-8-10-12-14-20(4)25(29)26-23(7)17-27/h8-16,18,22-24,27-28H,17H2,1-7H3,(H,26,29)/b9-8-,12-10+,13-11+,19-16+,20-14+,21-15+/t22-,23+,24+/m1/s1
MSLEVEL=2
SOURCE_INSTRUMENT=DI-ESI-qTof
FILENAME=MyxalamidB_CID-15eV.mgf
SEQ=*..*
NOTES=
IONMODE=Positive
ORGANISM=GNPS-LIBRARY
NAME=Myxalamid B M+H
SPECTRUMID=CCMSLIB00000427300
ACTIVATION=CID
INSTRUMENT=ion trap
SCANS=1
145.100235 20.0 
154.085434 13.0 
159.117126 110.0 
168.101273 34.0 
170.116165 13.0 
171.118271 16.0 
173.097244 73.0 
173.132843 46.0 
175.110291 13.0 
175.148041 15.0 
177.162292 19.0 
182.117477 241.0 
184.119415 13.0 
184.132858 84.0 
185.095795 123.0 
185.132553 28.0 
187.111923 128.0 
187.148193 711.0 
188.152054 152.0 
189.129333 39.0 
189.163879 257.0 
190.123047 46.0 
190.167206 38.0 
191.146545 15.0 
191.177933 12.0 
194.117142 28.0 
194.153931 272.0 
195.158585 19.0 
196.133316 275.0 
197.132828 370.0 
198.112579 12.0 
198.136505 51.0 
198.145538 15.0 
199.112335 91.0 
199.148071 194.0 
200.11702 16.0 
200.151291 25.0 
201.127655 75.0 
201.16394 2129.0 
202.170776 1026.0 
202.582733 22.0 
203.106415 103.0 
203.144424 21.0 
203.175171 218.0 
204.179703 13.0 
206.120911 28.0 
207.113007 25.0 
208.133408 5332.0 
209.136353 775.0 
210.139435 82.0 
210.148026 38.0 
210.153442 17.0 
211.111893 240.0 
211.148483 290.0 
211.587723 13.0 
212.115829 29.0 
212.125092 13.0 
212.151642 42.0 
212.578659 12.0 
212.993591 21.0 
213.127625 433.0 
213.163757 649.0 
214.132828 84.0 
214.167282 154.0 
214.173874 15.0 
215.143219 10004.0 
215.179398 549.0 
216.146591 1685.0 
216.182953 121.0 
217.149551 127.0 
217.157196 137.0 
217.196198 13.0 
218.162094 15.0 
218.597473 14.0 
219.101501 33.0 
219.617874 16.0 
221.132034 33.0 
221.138748 34.0 
221.599274 12.0 
222.148422 173.0 
223.149124 77.0 
224.162582 76.0 
225.127502 1174.0 
225.164307 530.0 
226.131302 243.0 
226.167496 148.0 
226.174225 14.0 
226.575485 12.0 
227.107956 22.0 
227.142685 729.0 
227.179535 1720.0 
228.146149 180.0 
228.185135 557.0 
228.625153 25.0 
229.123962 85.0 
229.144272 24.0 
229.158371 306.0 
229.19426 614.0 
230.160736 55.0 
230.198822 115.0 
230.610764 22.0 
231.100754 86.0 
231.137054 28.0 
231.17363 24.0 
232.16861 36.0 
233.152786 65.0 
234.149536 100.0 
235.148178 153.0 
235.609985 13.0 
235.616653 13.0 
235.632233 42.0 
236.118896 17.0 
236.130203 33.0 
236.164444 210.0 
236.587601 13.0 
236.622925 25.0 
237.127182 15.0 
237.164474 91.0 
237.170547 22.0 
237.624725 22.0 
238.140213 18.0 
238.168655 20.0 
238.180542 42.0 
238.605042 17.0 
239.14299 638.0 
239.179535 773.0 
240.147064 182.0 
240.18306 213.0 
240.58078 17.0 
241.121429 39.0 
241.158356 308.0 
241.195099 704.0 
241.58812 16.0 
242.160934 21.0 
242.167786 13.0 
242.198624 199.0 
243.136383 43.0 
243.174805 125.0 
243.627823 19.0 
244.176117 13.0 
244.621155 39.0 
244.637329 18.0 
245.153336 13.0 
245.626556 23.0 
246.147003 29.0 
246.632492 17.0 
247.149033 17.0 
248.164917 769.0 
249.112076 657.0 
249.164734 571.0 
249.621552 50.0 
250.116043 109.0 
250.165848 98.0 
250.179733 192.0 
250.595078 156.0 
250.627777 76.0 
251.000748 73.0 
251.094986 32.0 
251.102081 17.0 
251.128204 79.0 
251.143539 91.0 
251.179993 389.0 
251.5961 27.0 
251.620209 23.0 
251.640305 12.0 
252.075775 33.0 
252.120224 19.0 
252.150314 25.0 
252.182037 37.0 
252.587387 17.0 
252.619064 16.0 
252.629272 13.0 
252.996887 19.0 
253.085556 17.0 
253.158737 2001.0 
253.19516 618.0 
253.625183 13.0 
254.124374 19.0 
254.161987 487.0 
254.198914 124.0 
254.618271 22.0 
255.074829 13.0 
255.164337 32.0 
255.173996 64.0 
255.209824 40.0 
255.645386 13.0 
256.127686 14.0 
257.159149 12.0 
257.581177 13.0 
257.601257 28.0 
258.148682 23.0 
258.15567 18.0 
258.598602 13.0 
258.626495 164.0 
259.105591 19.0 
259.12738 34.0 
259.164948 12.0 
259.589661 15.0 
259.633362 116.0 
260.13562 38.0 
260.164581 610.0 
260.582062 13.0 
260.614136 27.0 
260.634338 22.0 
261.092316 36.0 
261.111633 25.0 
261.151367 18.0 
261.168335 122.0 
261.570007 15.0 
261.606354 16.0 
261.623444 25.0 
261.640137 20.0 
262.07724 18.0 
262.143066 68.0 
262.179932 508.0 
263.058167 102.0 
263.093018 24.0 
263.109253 13.0 
263.138397 20.0 
263.182983 149.0 
264.056885 13.0 
264.08252 20.0 
264.123535 17.0 
264.160339 32.0 
264.196045 605.0 
264.600739 46.0 
264.632416 18.0 
265.106812 68.0 
265.159332 211.0 
265.19812 164.0 
265.204773 27.0 
265.606842 18.0 
265.61618 19.0 
265.634338 216.0 
266.123047 14.0 
266.136169 43.0 
266.16684 255.0 
266.199615 32.0 
266.211304 13.0 
266.587585 23.0 
266.596405 25.0 
266.62384 36.0 
267.122955 9149.0 
267.174377 3136.0 
267.21109 186.0 
267.226715 18.0 
267.621826 13.0 
267.631927 177.0 
268.105286 12.0 
268.126495 1385.0 
268.178009 704.0 
268.214081 20.0 
268.582062 12.0 
268.612549 18.0 
268.629547 19.0 
268.639099 28.0 
269.128357 161.0 
269.154999 93.0 
269.189941 533.0 
269.228333 17.0 
269.585968 20.0 
269.617401 18.0 
269.625732 15.0 
269.632904 17.0 
270.116302 18.0 
270.132538 36.0 
270.192566 140.0 
270.607452 12.0 
270.618835 18.0 
270.627747 22.0 
271.114655 33.0 
271.168274 46.0 
271.190857 13.0 
271.591614 26.0 
272.097015 13.0 
272.162903 16.0 
272.201019 360.0 
272.598083 13.0 
272.615601 13.0 
273.129028 13.0 
273.184204 38.0 
273.204193 82.0 
273.603973 13.0 
273.613586 24.0 
273.632141 22.0 
274.180298 338.0 
274.216492 16.0 
274.61972 34.0 
274.639008 313.0 
275.118378 16.0 
275.141205 60.0 
275.183228 38.0 
275.190674 20.0 
275.628296 82.0 
275.636505 72.0 
276.129547 40.0 
276.159882 276.0 
276.19577 327.0 
276.232056 34.0 
276.637482 14.0 
277.10791 19.0 
277.164215 21.0 
277.198364 75.0 
277.626709 14.0 
277.636322 30.0 
278.101013 40.0 
278.11499 15.0 
278.136963 21.0 
278.175323 555.0 
278.211029 269.0 
279.095001 18.0 
279.17865 122.0 
279.193604 13.0 
279.210907 208.0 
279.648865 15.0 
280.181763 22.0 
280.211761 39.0 
281.102478 79.0 
281.120697 18.0 
281.190125 117.0 
281.226685 3502.0 
281.60434 31.0 
281.61676 21.0 
282.095886 17.0 
282.109619 16.0 
282.131195 12.0 
282.151154 14.0 
282.229889 889.0 
282.623016 92.0 
282.637482 105.0 
282.652985 18.0 
283.107147 27.0 
283.119324 79.0 
283.129089 25.0 
283.149384 20.0 
283.16983 110.0 
283.204803 30.0 
283.241913 831.0 
283.616943 29.0 
283.626892 203.0 
283.644531 668.0 
284.089142 16.0 
284.110931 16.0 
284.126282 48.0 
284.146393 300.0 
284.177185 19.0 
284.214111 15.0 
284.245667 237.0 
284.611816 23.0 
284.633728 236.0 
284.646088 33.0 
285.093109 14.0 
285.116638 35.0 
285.137085 89.0 
285.148315 27.0 
285.186554 18.0 
285.603424 41.0 
285.623383 189.0 
285.638916 42.0 
285.658539 19.0 
286.096802 190.0 
286.124481 59.0 
286.135742 26.0 
286.180084 172.0 
286.189697 14.0 
286.597504 46.0 
286.610229 21.0 
286.635498 22.0 
286.646484 20.0 
287.121613 27.0 
287.143646 32.0 
287.164673 27.0 
287.188141 308.0 
287.601501 17.0 
287.623108 13.0 
287.637146 22.0 
287.674622 14.0 
288.094818 15.0 
288.150543 20.0 
288.196014 2031.0 
288.232239 208.0 
288.624237 33.0 
288.636902 56.0 
288.654755 45.0 
289.084503 15.0 
289.203156 2176.0 
289.237152 17.0 
289.631012 14.0 
289.663696 21.0 
290.135284 16.0 
290.1586 20.0 
290.181305 12.0 
290.211792 19819.0 
290.612946 27.0 
290.626892 50.0 
290.652557 48.0 
291.113037 27.0 
291.126709 14.0 
291.137726 13.0 
291.15271 16.0 
291.163269 23.0 
291.185272 14.0 
291.214508 4619.0 
291.618408 38.0 
291.629272 49.0 
291.646271 50.0 
292.21756 651.0 
292.626373 42.0 
292.646088 17.0 
293.136993 36.0 
293.163544 17.0 
293.175018 19.0 
293.195129 14.0 
293.21875 47.0 
293.227356 14.0 
293.618896 15.0 
293.656128 80.0 
294.1315 31.0 
294.158569 41.0 
294.169586 16.0 
294.202698 18.0 
295.117401 34.0 
295.206757 36.0 
295.640381 12.0 
296.105347 17.0 
296.122345 15.0 
296.135071 13.0 
296.148926 20.0 
296.172363 13.0 
296.2948 171.0 
296.630768 15.0 
296.666534 13.0 
297.119385 28.0 
297.146545 17.0 
297.166595 12.0 
297.221344 262.0 
297.295227 27.0 
297.595245 15.0 
297.609955 14.0 
297.635468 30.0 
297.677368 18.0 
298.225006 41.0 
298.608368 28.0 
298.629761 31.0 
298.637939 22.0 
299.163757 19.0 
299.177795 14.0 
299.237488 156.0 
299.622406 12.0 
300.19574 509.0 
300.240967 29.0 
300.631897 42.0 
301.138275 17.0 
301.199615 149.0 
301.603668 18.0 
301.67868 18.0 
302.111755 15.0 
302.175232 132.0 
302.211884 2481.0 
302.602203 19.0 
302.62027 21.0 
302.661285 59.0 
302.681244 30.0 
303.120239 18.0 
303.139618 13.0 
303.157257 17.0 
303.168549 18.0 
303.181976 14.0 
303.21524 661.0 
303.650146 17.0 
304.106171 43.0 
304.137238 17.0 
304.146027 15.0 
304.190277 195.0 
304.219177 76.0 
304.226929 15.0 
304.613129 17.0 
304.626221 21.0 
304.642517 41.0 
304.656464 28.0 
305.107483 13.0 
305.139648 23.0 
305.152588 17.0 
305.172394 13.0 
305.19223 38.0 
305.620972 18.0 
305.636749 50.0 
305.644531 13.0 
305.662842 33.0 
306.113953 12.0 
306.135406 32.0 
306.160858 22.0 
306.204193 17.0 
306.245361 22.0 
306.625824 17.0 
306.644531 230.0 
306.65802 13.0 
306.667297 12.0 
307.104309 20.0 
307.139252 39.0 
307.148071 66.0 
307.166718 14.0 
307.205811 567.0 
307.615723 14.0 
307.636627 14.0 
307.65683 18.0 
308.169586 33.0 
308.183044 14.0 
308.209229 160.0 
308.625122 25.0 
308.645996 21.0 
308.666931 19.0 
309.16925 32.0 
309.221588 15952.0 
309.279846 48.0 
310.126221 17.0 
310.224915 4274.0 
310.631927 13.0 
311.164093 52.0 
311.196594 19.0 
311.228668 550.0 
311.294312 62.0 
311.626434 18.0 
312.173706 27.0 
312.230499 47.0 
312.671143 14.0 
313.137299 18.0 
313.646729 27.0 
313.666138 17.0 
314.212341 101.0 
314.6362 48.0 
315.135284 12.0 
315.149597 24.0 
315.186493 22.0 
315.214264 14.0 
315.608734 17.0 
315.626434 13.0 
315.63446 29.0 
316.125305 15.0 
316.165497 30.0 
316.189514 36.0 
316.227417 167.0 
316.628296 26.0 
317.180115 20.0 
318.119049 13.0 
318.163391 24.0 
318.205505 86.0 
318.621765 12.0 
318.677704 13.0 
319.140045 14.0 
319.664062 25.0 
320.107483 12.0 
320.118927 20.0 
320.147705 26.0 
320.166595 45.0 
320.19101 29.0 
320.626831 25.0 
320.642059 71.0 
320.6521 21.0 
320.662354 30.0 
320.704346 21.0 
321.12973 77.0 
321.144287 91.0 
321.161743 57.0 
321.176697 40.0 
321.202942 17.0 
321.22348 24.0 
321.60321 13.0 
321.617462 56.0 
321.634705 126.0 
321.645538 38.0 
321.654541 89.0 
321.668823 25.0 
321.679382 26.0 
322.064697 17.0 
322.081238 13.0 
322.111969 23.0 
322.127625 38.0 
322.140594 54.0 
322.152924 47.0 
322.161438 39.0 
322.169647 35.0 
322.184113 20.0 
322.202515 39.0 
322.599396 22.0 
322.613129 33.0 
322.621826 36.0 
322.630524 37.0 
322.640717 179.0 
322.652802 71.0 
322.669006 58.0 
322.683197 36.0 
323.081604 228.0 
323.113007 56.0 
323.121094 37.0 
323.132629 48.0 
323.151978 130.0 
323.163757 20.0 
323.17691 96.0 
323.188812 16.0 
323.200165 242.0 
323.233429 17.0 
323.601166 13.0 
323.635956 136.0 
323.646576 43.0 
323.658234 44.0 
323.679962 47.0 
323.688354 15.0 
324.091125 23.0 
324.102753 18.0 
324.116943 38.0 
324.12674 27.0 
324.135193 33.0 
324.144104 98.0 
324.164368 25.0 
324.18045 73.0 
324.202881 105.0 
324.213867 27.0 
324.234161 71.0 
324.61969 67.0 
324.633118 96.0 
324.64389 19.0 
324.65509 43.0 
324.681305 69.0 
325.008148 38.0 
325.113251 31.0 
325.129242 65.0 
325.141968 63.0 
325.158325 101.0 
325.175415 83.0 
325.18512 12.0 
325.196167 17.0 
325.21637 1382.0 
325.250946 13.0 
325.626526 19.0 
325.636292 37.0 
325.650574 18.0 
325.665771 22.0 
325.679382 36.0 
326.092621 14.0 
326.114655 25.0 
326.13028 51.0 
326.1474 115.0 
326.161255 69.0 
326.173157 18.0 
326.187683 100.0 
326.219604 404.0 
326.238922 20.0 
326.248016 51.0 
326.627167 57.0 
326.641632 46.0 
326.658203 76.0 
326.671844 21.0 
326.686554 23.0 
327.00885 321.0 
327.076782 177.0 
327.108154 21.0 
327.11853 18.0 
327.127258 19.0 
327.137604 45.0 
327.151367 51.0 
327.163422 74.0 
327.177155 55.0 
327.193176 47.0 
327.201904 29.0 
327.231964 2707.0 
327.268494 36.0 
327.608124 20.0 
327.641754 88.0 
327.655334 28.0 
327.669556 19.0 
327.677765 36.0 
327.696869 15.0 
328.010376 13.0 
328.072083 18.0 
328.081451 13.0 
328.104309 25.0 
328.125549 25.0 
328.139465 35.0 
328.157562 211.0 
328.165863 25.0 
328.183594 27.0 
328.231537 974.0 
328.625122 21.0 
328.653717 36.0 
328.663818 22.0 
328.673889 29.0 
328.684814 14.0 
329.004669 146.0 
329.120758 16.0 
329.154877 48.0 
329.175079 23.0 
329.212402 56.0 
329.232849 248.0 
329.639343 28.0 
329.665283 54.0 
330.050446 13.0 
330.131195 21.0 
330.167175 41.0 
330.189148 12.0 
330.228912 12.0 
330.639374 13.0 
330.648956 24.0 
332.158508 15.0 
332.688873 22.0 
334.168488 12.0 
335.182434 23.0 
335.190918 26.0 
336.150238 13.0 
336.18396 13.0 
336.654053 13.0 
336.672943 25.0 
337.147766 17.0 
337.691833 14.0 
340.162537 12.0 
340.227386 106.0 
341.089325 47.0 
341.186493 16.0 
341.199219 13.0 
341.232819 111.0 
341.650055 12.0 
342.207489 28.0 
342.243011 816.0 
343.166534 12.0 
343.230591 15.0 
343.246094 270.0 
344.130432 12.0 
344.22226 100.0 
344.233917 17.0 
344.259277 89.0 
345.154755 12.0 
346.125458 264.0 
346.164978 15.0 
346.626862 93.0 
346.673767 18.0 
346.713989 18.0 
347.16864 13.0 
347.648438 13.0 
347.701355 13.0 
348.133362 13.0 
348.180969 21.0 
348.676178 12.0 
350.696808 51.0 
351.180389 16.0 
351.189636 16.0 
351.204773 29.0 
352.174042 23.0 
353.170227 20.0 
353.191681 29.0 
353.685547 400.0 
354.187164 239.0 
354.688019 17.0 
355.155914 12.0 
355.187073 15.0 
355.685059 20.0 
356.216003 19.0 
356.260437 22.0 
356.660095 13.0 
357.179657 12.0 
357.675629 12.0 
358.237823 149.0 
358.27417 35.0 
358.689941 13.0 
359.242249 19.0 
359.649445 23.0 
359.664764 14.0 
359.684296 14.0 
359.700104 88.0 
360.129333 20.0 
360.147461 20.0 
360.165924 17.0 
360.199951 41.0 
360.640808 13.0 
360.660614 31.0 
360.697113 17.0 
360.713837 18.0 
360.730896 20.0 
361.157928 34.0 
361.169495 14.0 
361.185516 22.0 
361.206146 21.0 
361.6362 13.0 
361.654602 12.0 
361.670441 25.0 
361.68396 51.0 
361.705444 59.0 
362.163361 65.0 
362.182983 26.0 
362.202728 20.0 
362.645081 38.0 
362.655396 29.0 
362.690247 872.0 
362.723389 23.0 
363.134796 16.0 
363.144196 15.0 
363.153748 13.0 
363.167999 18.0 
363.191925 403.0 
363.651184 14.0 
363.669189 18.0 
363.679169 27.0 
363.693634 172.0 
363.710052 13.0 
363.72406 13.0 
364.138794 20.0 
364.149963 19.0 
364.164001 34.0 
364.175751 52.0 
364.192566 76.0 
364.638641 20.0 
364.66333 28.0 
364.691101 59.0 
365.150635 19.0 
365.170441 51.0 
365.193848 252.0 
365.652039 15.0 
365.664001 13.0 
365.675598 34.0 
365.684814 13.0 
365.696594 81.0 
365.726501 13.0 
366.163208 29.0 
366.179474 24.0 
366.193542 101.0 
366.279449 406.0 
366.681244 40.0 
366.698029 22.0 
367.139374 18.0 
367.165649 20.0 
367.178864 28.0 
367.194183 54.0 
367.220978 18.0 
367.266052 65.0 
367.281586 100.0 
367.654297 16.0 
367.666351 14.0 
367.693146 18.0 
368.152008 17.0 
368.178894 32.0 
368.19519 38.0 
368.692291 18.0 
369.169983 202.0 
370.172882 33.0 
370.183929 20.0 
370.198273 20.0 
371.177643 24.0 
371.211548 16.0 
371.282745 13.0 
372.189026 16.0 
372.29425 18.0 
374.23114 32.0 
380.164886 17.0 
380.213806 16.0 
380.257141 65.0 
381.201477 14.0 
381.218628 24.0 
381.243347 13.0 
381.267761 14.0 
382.147797 16.0 
382.187469 40.0 
382.224182 14.0 
382.236877 15.0 
382.273865 1397.0 
382.4104 13.0 
383.182007 22.0 
383.278107 439.0 
384.169525 36.0 
384.182617 14.0 
384.199982 36.0 
384.233551 23.0 
384.256561 27.0 
384.29007 30649.0 
384.340271 32.0 
384.358429 27.0 
385.153351 12.0 
385.203949 47.0 
385.216278 29.0 
385.235748 14.0 
385.25296 14.0 
385.29306 8909.0 
385.343597 31.0 
385.367279 23.0 
386.178253 21.0 
386.192383 21.0 
386.23233 31.0 
386.268738 37.0 
386.295929 1451.0 
387.136139 16.0 
387.180206 1939.0 
387.271027 19.0 
387.299194 176.0 
388.183502 587.0 
388.247681 100.0 
388.302521 14.0 
389.188293 102.0 
398.10495 13.0 
398.18045 22.0 
398.196625 17.0 
398.22052 52.0 
398.236328 13.0 
398.268646 539.0 
398.298828 35.0 
398.362915 271.0 
398.788788 13.0 
399.140167 24.0 
399.163696 19.0 
399.182861 69.0 
399.205475 26.0 
399.217773 69.0 
399.245239 19.0 
399.272156 375.0 
399.363373 194.0 
399.695129 16.0 
400.164551 35.0 
400.174744 42.0 
400.193695 141.0 
400.208984 84.0 
400.234833 68.0 
400.250214 139.0 
400.284576 6206.0 
400.322144 30.0 
400.341248 18.0 
400.378571 897.0 
400.400757 12.0 
400.708344 19.0 
401.14447 20.0 
401.174622 13.0 
401.193146 102.0 
401.210358 57.0 
401.230408 49.0 
401.251373 41.0 
401.288025 1870.0 
401.368195 12.0 
401.381775 237.0 
402.09314 12.0 
402.177094 99.0 
402.193298 95.0 
402.210571 42.0 
402.226959 123.0 
402.246216 75.0 
402.263428 234.0 
402.300537 34549.0 
402.341217 33.0 
402.356293 241.0 
402.381317 42.0 
402.449646 15.0 
402.686951 16.0 
403.126587 17.0 
403.145325 13.0 
403.160339 23.0 
403.177185 43.0 
403.190063 22.0 
403.208252 135.0 
403.227844 20.0 
403.24472 84.0 
403.265839 46.0 
403.303741 10143.0 
403.355957 56.0 
403.366364 19.0 
403.6828 26.0 
403.695312 12.0 
404.143433 33.0 
404.160004 47.0 
404.19278 108.0 
404.20752 132.0 
404.24411 133.0 
404.255096 18.0 
404.279449 301.0 
404.306641 1554.0 
404.338531 15.0 
404.744049 15.0 
405.153931 34.0 
405.174744 35.0 
405.188934 24.0 
405.206848 27.0 
405.217743 36.0 
405.229004 93.0 
405.240448 23.0 
405.254547 32.0 
405.282654 89.0 
405.30896 295.0 
405.338104 17.0 
405.743103 14.0 
406.15506 96.0 
406.184723 53.0 
406.20343 17.0 
406.220886 177.0 
406.243073 14.0 
406.258484 159.0 
406.287231 38.0 
406.701233 12.0 
407.145355 18.0 
407.172089 57.0 
407.209534 22.0 
407.226257 25.0 
407.286346 17.0 
408.715851 12.0 
422.167542 102.0 
464.210083 55.0 
470.260071 13.0 
END IONS

