BEGIN IONS
PEPMASS=268.118
CHARGE=1+
COMPOUNDNAME=Citrinin
LIBRARYQUALITY=3
SMILES=N/A
INCHIKEY=CQIUKKVOEOPUDV-IYSWYEEDSA-N
INCHI=InChI=1S/C13H14O5/c1-5-7(3)18-4-8-9(5)6(2)11(14)10(12(8)15)13(16)17/h4-5,7,15H,1-3H3,(H,16,17)/t5-,7-/m1/s1
MSLEVEL=2
SOURCE_INSTRUMENT=N/A-ESI-QFT
FILENAME=library_mgf.mgf
SEQ=*..*
IONMODE=positive
ORGANISM=MONA
NAME=Citrinin [M+NH4]+
PI=MoNA
DATACOLLECTOR=MoNA:VF-NPL-QEHF027302
PUBMED=N/A
SUBMITUSER=mwang87
TAGS=
SPECTRUMID=CCMSLIB00004720883
SCANS=27302
50.04425 0.083693 
50.431614 0.08577 
50.681896 0.090499 
51.29557 0.088455 
51.30106 0.093373 
51.940243 3.549879 
52.976234 0.088954 
53.028736 0.088489 
53.479881 0.082161 
54.501507 0.091514 
54.642723 0.086689 
55.018105 0.326167 
55.054489 8.620562 
56.049667 1.102619 
56.219154 0.089496 
56.965027 28.209221 
57.033714 1.414092 
57.07011 16.155046 
57.935081 0.096178 
58.065342 4.624263 
58.073402 0.09985 
59.049328 2.758495 
60.646679 0.097573 
60.957863 0.278544 
61.010834 35.607437 
62.010193 0.090056 
62.018639 45.392437 
62.317081 0.077814 
62.526478 0.100253 
62.558914 0.089784 
62.763077 0.090184 
63.006531 0.353327 
63.02195 0.164179 
63.02639 0.456557 
63.202789 0.086411 
63.997814 1.340699 
64.002327 0.075911 
64.014412 0.697661 
64.429001 0.097463 
65.003258 0.095086 
65.723106 0.09131 
65.984528 0.094124 
66.353256 0.077883 
67.054276 6.921712 
67.934937 0.663295 
68.057518 0.113802 
68.270256 0.081608 
68.942673 0.318832 
69.033424 0.245971 
69.069916 9.544304 
69.341492 0.086723 
69.787582 0.088166 
70.06514 4.818592 
70.524635 0.082895 
70.980415 0.488384 
71.012589 0.095132 
71.049133 6.023893 
71.085533 5.734921 
71.836174 0.089132 
71.911064 0.084325 
72.080765 0.360303 
72.678093 0.080698 
73.028145 0.131862 
73.046753 0.136955 
73.064651 0.392879 
73.956223 0.090958 
74.096321 0.328112 
74.975372 0.781335 
75.77536 0.085861 
79.017288 0.092509 
79.021179 39.786755 
79.02404 0.149474 
79.054207 2.873879 
80.020348 0.089354 
80.349335 0.081573 
80.971687 0.100662 
81.016869 0.63893 
81.069862 9.879545 
82.064987 0.468847 
82.242111 0.096219 
83.049065 2.041343 
83.085472 5.374966 
83.929649 0.248465 
84.044273 0.203871 
84.066391 0.091469 
84.080673 0.831043 
84.959587 0.510979 
85.028275 0.377425 
85.064735 1.244558 
85.101089 2.125811 
85.945251 0.128607 
86.003708 0.10754 
86.059921 0.695704 
86.096352 2.198376 
86.481079 0.078752 
86.996834 0.096952 
87.043983 2.166641 
88.075592 0.801743 
88.838417 0.093124 
89.059654 11.210414 
89.579079 0.102595 
90.003189 0.091916 
90.018204 0.101671 
90.168678 0.086782 
91.054161 4.757526 
91.057304 2.20644 
92.47551 0.078524 
93.069801 5.415801 
95.049072 1.733163 
95.085495 11.550954 
96.080612 0.493486 
97.064697 0.533907 
97.101059 2.408142 
97.773094 0.092169 
97.994827 0.148917 
98.060051 0.108491 
98.09642 0.174355 
98.984138 87.81752 
98.988152 0.868614 
99.044044 0.200016 
99.488144 0.299744 
99.567093 0.086604 
100.068069 0.095995 
100.075569 0.905647 
101.059578 0.706394 
101.541252 0.090293 
101.940224 0.464922 
102.256317 0.100424 
102.94809 1.661375 
103.038803 0.418763 
103.538658 0.196098 
103.95594 0.112771 
104.992363 0.090281 
105.03347 0.25094 
105.069839 4.067431 
106.073349 0.086766 
106.999893 1.489652 
107.048927 0.32337 
107.052513 0.421132 
107.085426 4.517103 
108.016312 0.125064 
108.493401 2.814122 
108.548996 0.330269 
109.064636 2.119477 
109.101128 5.81579 
110.071266 1.010354 
110.096344 0.621972 
110.546135 0.151514 
110.8564 0.112479 
111.043831 0.131053 
111.080223 0.871058 
111.116638 0.091545 
112.00808 0.108139 
112.111893 0.422815 
113.059669 0.505522 
113.620193 0.088783 
114.091225 0.116183 
114.664841 0.105481 
115.305161 0.12598 
116.005203 5.359741 
116.093803 0.087718 
116.414169 0.0867 
116.933701 0.092572 
116.966103 0.131827 
116.985847 0.131487 
116.994644 1.699508 
117.002884 0.31468 
117.054634 0.102165 
117.069717 0.615144 
117.498657 0.344964 
117.553474 0.095195 
117.805099 0.107614 
118.943031 1.537635 
119.001381 0.211584 
119.04911 0.181376 
119.085533 8.208642 
119.950775 3.672169 
120.088593 0.21313 
121.064682 1.170894 
121.100952 3.189083 
121.672729 0.091091 
122.091034 0.083961 
123.080368 1.861742 
123.116783 1.06962 
123.670532 0.095861 
124.112411 0.130879 
124.185066 0.093887 
124.705833 0.102666 
124.94796 0.103734 
125.010208 0.097199 
125.059357 0.38491 
126.127914 0.104665 
126.191437 0.090656 
128.050644 0.094864 
128.061798 0.128287 
128.963928 0.593584 
128.985748 0.123736 
129.069748 1.857879 
129.572327 2.046477 
130.50621 0.095846 
130.942886 0.975723 
130.960388 0.089063 
131.049118 0.097866 
131.085373 2.757055 
131.365601 0.07797 
131.88942 0.092415 
131.950943 0.350451 
131.961288 0.862579 
133.034363 0.358182 
133.064621 2.148151 
133.085419 0.095398 
133.100983 1.197804 
133.3255 0.098865 
134.9785 5.131293 
135.043945 0.843048 
135.080292 1.166175 
135.116806 0.401973 
135.206772 0.086814 
135.394333 0.100986 
135.981674 0.088376 
136.061539 0.223672 
136.075226 0.227276 
136.580185 0.839971 
136.974686 0.101265 
137.011658 7.078475 
137.059616 4.457985 
137.070374 0.090101 
137.095963 2.738906 
137.13208 0.184984 
137.494431 0.097654 
137.954376 0.095255 
138.127777 0.114053 
138.577698 0.678155 
138.971588 0.120068 
139.111801 0.388092 
139.585556 0.249949 
141.069168 0.102037 
141.590515 0.385383 
142.122543 0.114578 
142.220047 0.099204 
142.950134 0.095959 
143.085632 0.308552 
143.58812 0.110141 
144.947342 6.919593 
144.958542 14.649101 
144.997284 0.472146 
145.064423 0.607451 
145.948303 0.478673 
145.958588 0.265933 
146.07254 0.1218 
146.663895 0.100035 
146.91954 0.14064 
146.945755 3.883915 
146.956467 2.985764 
146.97435 10.934004 
146.996429 0.09233 
147.043945 1.314172 
147.080292 11.675014 
147.974716 7.121733 
147.980743 0.131995 
148.083542 1.054914 
148.105927 0.093316 
148.598328 3.737733 
149.012039 0.33832 
149.059494 1.032891 
149.095795 0.591038 
149.971725 3.61752 
150.595901 0.887197 
151.038803 0.826875 
151.075226 2.883785 
151.111542 0.915756 
151.584885 0.111934 
152.143402 0.642045 
152.248489 0.089981 
152.951111 0.555715 
152.989243 7.447581 
153.054169 0.143053 
153.949158 0.546112 
154.984634 0.214565 
155.022186 4.346714 
155.606216 0.122673 
156.415329 0.078215 
156.981537 0.234092 
157.064941 0.249193 
157.603592 5.784315 
158.105835 0.223022 
158.190338 0.52967 
158.97435 0.120366 
159.080231 0.95458 
159.601151 0.217541 
159.99202 0.113571 
161.059525 4.249029 
161.095901 0.682843 
162.951477 0.129731 
162.969101 0.788379 
163.027267 2.044918 
163.075623 0.312674 
163.11142 0.210831 
163.534363 0.097622 
163.959274 0.60002 
164.611435 0.244116 
164.930695 0.697766 
164.967163 2.697323 
164.986862 0.43395 
165.032074 0.093259 
165.054642 0.727475 
165.090851 3.964361 
166.608734 1.590438 
167.055344 0.217935 
167.069962 0.354237 
169.049316 5.141219 
169.064621 0.120634 
169.397995 0.099009 
170.999924 0.4892 
171.079971 0.137565 
171.672058 0.113619 
171.95961 0.489836 
172.028076 0.097227 
172.952621 0.114609 
173.059586 0.318209 
173.096085 0.120061 
174.068161 0.110095 
175.075333 12.777551 
175.110352 0.093265 
176.078476 0.434913 
176.941452 0.324382 
176.966843 0.108613 
177.054169 0.361335 
177.090866 1.510802 
177.127487 0.110113 
177.368362 0.081825 
178.946152 1.215618 
179.036209 0.103854 
179.070023 5.287693 
179.106522 2.28661 
179.954239 3.647979 
180.074539 0.110975 
180.468353 0.095596 
180.799393 0.086863 
180.92511 0.159811 
181.037796 0.673146 
182.923386 0.111451 
183.033066 0.111707 
184.003922 0.25491 
187.026993 0.112424 
187.136505 0.095003 
187.602234 0.098577 
187.639832 0.629026 
188.142731 0.099412 
188.21608 0.091127 
188.647858 66.278069 
188.967148 3.091973 
189.021713 0.230932 
189.054077 0.131668 
189.090744 2.11109 
189.149551 16.999384 
189.651321 0.797491 
190.644424 0.861195 
190.965912 0.763058 
191.000366 0.107172 
191.022079 4.275742 
191.038025 0.150142 
191.070343 0.240859 
191.106354 0.100312 
191.964645 5.159554 
192.009262 1.762239 
192.023193 0.093354 
192.073563 0.095951 
192.962296 1.124016 
193.037903 1.969738 
193.047028 0.096535 
193.0858 3.369605 
193.287979 0.094806 
194.941666 0.130546 
194.951569 1.446594 
195.033096 0.33027 
196.645493 1.284072 
196.920425 1.170634 
196.956314 0.103624 
197.014603 1.059324 
197.047684 0.200456 
197.147049 0.139728 
197.653152 100.0 
197.928452 0.40066 
198.154785 24.63372 
198.656067 1.544273 
198.936218 0.316134 
199.649719 1.378693 
199.799622 0.092223 
201.043213 0.204163 
201.090942 0.433886 
202.09848 0.370506 
203.070206 1.360365 
204.661057 4.019726 
205.085724 1.355357 
205.122696 0.138217 
205.162704 0.551815 
205.650726 0.123631 
205.969055 0.086274 
206.089172 0.9544 
206.151917 0.09667 
206.658447 57.795231 
206.977692 32.620049 
207.032715 22.299196 
207.054108 0.100726 
207.091248 0.082721 
207.10144 5.590594 
207.160172 14.616137 
207.662155 0.681185 
207.97789 6.217987 
208.036011 1.384253 
208.206085 1.181118 
208.654556 0.454361 
208.956436 0.118335 
208.974854 2.782436 
209.011932 1.553441 
209.032257 0.451637 
209.048325 2.884774 
209.095352 0.092941 
209.161133 0.728078 
209.975037 5.525674 
210.019836 7.484035 
210.080566 1.190169 
210.185074 2.015407 
211.064575 0.110327 
211.075027 1.01018 
211.110916 0.088548 
212.079834 0.213395 
212.095718 0.121173 
213.042953 0.116198 
213.090744 0.116416 
213.666229 3.03237 
214.168213 0.442773 
215.024979 0.139706 
215.566696 0.418711 
215.663681 5.321172 
215.854996 2.166289 
216.073303 0.304571 
216.090897 0.113972 
216.165527 1.078515 
216.671478 0.408016 
217.954132 0.134527 
218.094101 0.244288 
218.571991 0.088903 
218.896866 0.096887 
218.953842 0.098084 
219.101318 10.739947 
220.10553 0.616798 
220.650787 0.093257 
220.956802 0.386536 
221.011047 0.121855 
221.080185 0.255884 
221.180252 0.62461 
222.066559 0.110172 
223.027618 0.261023 
223.063629 0.10802 
223.074799 0.108311 
224.069138 0.131062 
224.08287 0.564052 
224.571579 0.132597 
225.043121 30.442318 
225.090683 0.80798 
226.046616 2.437243 
227.022522 6.3482 
227.058716 5.986082 
228.030304 0.638132 
228.090454 0.693933 
228.263748 0.089385 
229.002274 0.114725 
233.080521 1.969921 
234.071396 0.844498 
234.083954 11.515695 
234.185822 0.1315 
234.99176 0.095339 
235.086243 4.816575 
237.044083 0.11583 
237.057068 0.757011 
237.091095 0.424711 
237.158127 0.142125 
238.098343 1.335919 
238.110809 0.107017 
238.216492 0.2893 
238.967484 7.396397 
239.022232 0.173564 
239.070084 2.280605 
239.106216 3.551895 
239.967804 1.050416 
240.077316 0.823181 
241.037628 0.457884 
241.085571 1.199687 
243.017593 0.130999 
243.053589 2.936369 
245.069016 1.252608 
248.099823 3.221194 
248.151535 0.089306 
249.043228 0.119801 
249.075943 0.365253 
249.090561 0.109154 
249.102219 0.56331 
250.217422 0.106119 
251.070084 0.507442 
251.091461 0.586099 
251.106049 1.505682 
252.053452 0.10844 
252.079453 4.013577 
252.094421 7.135959 
252.112808 0.857157 
252.126953 0.630077 
252.983063 0.235665 
253.085007 3.376376 
253.097305 2.456232 
254.092667 0.753034 
254.142288 3.208196 
255.064621 0.121046 
260.153595 0.105254 
261.368683 0.11545 
265.086029 0.895332 
266.089783 3.037861 
266.110138 0.692169 
266.125763 0.481318 
266.173889 0.235848 
266.210876 0.660974 
266.247772 1.860969 
266.283752 1.445167 
266.99881 2.709439 
267.014771 0.126613 
267.066437 8.037524 
267.101562 58.070053 
267.137054 3.800666 
267.207367 0.119861 
267.242279 0.566072 
268.071228 0.899855 
268.088409 2.189824 
268.10556 12.167656 
268.133667 0.103076 
268.190338 0.363436 
268.206329 0.629354 
268.226959 0.587368 
268.263214 8.15945 
268.299927 1.316872 
268.634399 0.086601 
268.978027 54.504971 
268.994232 2.543498 
269.013672 0.153743 
269.080475 6.430521 
269.095978 4.009667 
269.116547 5.366338 
269.134979 2.617811 
269.20874 0.315914 
269.2677 0.469871 
269.977997 12.547898 
270.085358 0.10798 
270.102142 0.414443 
270.148712 0.407005 
270.2211 0.266977 
270.278717 2.43739 
270.315247 7.480275 
270.958252 1.531228 
270.975159 6.976057 
270.995178 0.100924 
271.048309 0.483666 
272.15329 1.214392 
281.069519 0.634656 
282.172943 0.115939 
283.029846 0.264495 
283.813629 0.110205 
284.15329 1.126911 
284.170654 0.137426 
285.009369 16.952751 
285.026184 1.963693 
286.009644 4.149054 
287.006714 2.457382 
287.024689 1.225895 
288.967957 0.106823 
289.016724 0.456964 
291.031647 0.957772 
END IONS

