BEGIN IONS
PEPMASS=125.032
CHARGE=1+
COMPOUNDNAME=CYCLOSERINE
LIBRARYQUALITY=3
SMILES=N/A
INCHIKEY=DYDCUQKUCUHJBH-UWTATZPHSA-N
INCHI=InChI=1S/C3H6N2O2/c4-2-1-7-5-3(2)6/h2H,1,4H2,(H,5,6)/t2-/m1/s1
MSLEVEL=2
SOURCE_INSTRUMENT=N/A-ESI-QFT
FILENAME=library_mgf.mgf
SEQ=*..*
IONMODE=positive
ORGANISM=MONA
NAME=CYCLOSERINE [M+Na]+
PI=MoNA
DATACOLLECTOR=MoNA:VF-NPL-QEHF027819
PUBMED=N/A
SUBMITUSER=mwang87
TAGS=
SPECTRUMID=CCMSLIB00004721400
SCANS=27819
50.088451 0.782719 
50.563995 0.734762 
51.024231 0.735014 
51.081028 0.691005 
51.768051 0.803727 
53.038857 2.418444 
54.034142 8.853089 
54.085312 0.806502 
54.161022 0.641285 
54.467209 0.8012 
54.476727 0.762452 
54.566669 0.698065 
54.644413 0.728965 
55.018139 1.719088 
55.054523 27.203735 
55.997936 0.685766 
56.037189 8.406477 
56.04974 38.91824 
56.965118 0.840176 
57.021221 4.937816 
57.045006 22.82999 
57.470947 0.732297 
57.52206 0.719198 
57.93502 1.641422 
58.029003 17.743904 
58.052792 6.689149 
58.583382 0.781026 
58.893944 0.739754 
59.08942 0.707619 
59.147316 0.681055 
60.300079 0.777544 
60.445225 0.753014 
60.769928 0.661004 
62.683971 0.84731 
62.782711 0.657129 
63.322517 0.669903 
63.473686 0.652221 
63.690907 0.646766 
64.415886 0.698214 
65.428329 0.709082 
65.695168 0.671542 
66.903069 0.755851 
66.923981 0.752622 
67.054298 19.085201 
67.239647 0.747759 
68.321518 0.65739 
69.044769 21.286196 
70.065186 6.833125 
70.855911 0.698847 
71.060371 44.100632 
71.199776 0.666592 
72.005211 0.721848 
72.46151 0.801021 
72.903534 0.721702 
73.997948 0.719516 
74.414932 0.707322 
75.026733 0.858644 
75.395348 0.737361 
78.213394 0.723326 
78.282654 0.856072 
79.054214 37.338459 
79.715385 0.665328 
80.049454 50.606895 
80.597115 0.847308 
80.747086 0.748276 
81.044739 39.325333 
81.052773 0.994644 
81.069901 42.782127 
82.001305 0.68147 
82.028763 8.938762 
82.052567 16.464659 
82.065109 8.579524 
83.060341 30.465849 
83.072945 0.724335 
84.080704 16.817698 
85.05088 13.260693 
86.145332 0.753136 
87.706581 0.730502 
90.073151 0.826267 
90.157661 0.690781 
90.388847 0.759762 
91.054085 2.496912 
92.057457 2.396669 
93.346664 0.812613 
93.749298 0.806858 
94.345253 0.846122 
95.060364 5.555561 
95.085533 0.762566 
95.227768 0.730794 
95.685699 0.770619 
95.694344 0.658337 
96.044304 8.773473 
96.055656 4.349831 
96.068222 9.78843 
96.080704 2.838496 
97.039619 16.059326 
97.075958 5.166185 
97.271103 0.878167 
98.071281 3.370709 
98.627403 0.801414 
99.055275 11.824816 
99.213875 0.740084 
100.431084 0.738748 
101.148109 0.783871 
101.997475 0.999381 
103.262779 0.811548 
105.070068 1.019585 
106.221985 0.753681 
106.933311 0.677842 
107.085533 0.822187 
107.712166 0.785851 
108.055847 0.985412 
109.063957 2.95184 
109.07605 1.720177 
110.047523 1.101751 
110.083832 10.814003 
112.069283 0.815349 
112.398712 0.68187 
114.30088 0.697695 
116.701149 0.688876 
116.971939 0.692531 
118.253227 0.768315 
120.401131 0.769008 
123.043335 0.742074 
123.055229 25.87425 
123.080414 12.602425 
123.091576 20.928993 
124.038879 0.729619 
124.058533 1.86269 
124.075699 53.092197 
124.094543 0.853312 
124.112076 17.619892 
124.320419 0.682045 
125.059029 0.661005 
125.070755 0.849834 
125.08239 1.762679 
125.107315 100.0 
125.115135 0.787022 
125.740555 0.674282 
126.054886 0.833819 
126.066116 5.122961 
126.091309 1.716574 
126.110565 1.603079 
126.127708 0.848641 
126.443108 0.822227 
127.050102 13.301973 
127.072639 7.01528 
129.301285 0.781932 
130.161102 0.772207 
130.874466 0.767802 
133.940872 0.872579 
135.756653 0.812326 
141.169113 0.75049 
141.330505 0.783538 
142.481522 0.6211 
END IONS

