BEGIN IONS
PEPMASS=319.118
CHARGE=1+
COMPOUNDNAME=Dechlorogriseofulvin
LIBRARYQUALITY=3
SMILES=N/A
INCHIKEY=QPCYNIYZPDJCMB-UHFFFAOYSA-N
INCHI=InChI=1S/C17H18O6/c1-9-5-10(18)6-14(22-4)17(9)16(19)15-12(21-3)7-11(20-2)8-13(15)23-17/h6-9H,5H2,1-4H3
MSLEVEL=2
SOURCE_INSTRUMENT=N/A-ESI-QFT
FILENAME=library_mgf.mgf
SEQ=*..*
IONMODE=positive
ORGANISM=MONA
NAME=Dechlorogriseofulvin [M+H]+
PI=MoNA
DATACOLLECTOR=MoNA:VF-NPL-QEHF000828
PUBMED=N/A
SUBMITUSER=mwang87
TAGS=
SPECTRUMID=CCMSLIB00004691891
SCANS=828
50.050026 0.03719 
50.404289 0.038684 
50.999294 0.034608 
51.024063 0.052825 
51.517456 0.036913 
52.031364 0.043762 
52.959473 0.037063 
53.002914 1.811428 
53.03931 2.608029 
53.790436 0.0392 
53.905205 0.038324 
54.106274 0.03313 
55.013351 0.035304 
55.018562 2.890745 
55.114048 0.052708 
55.529861 0.040816 
55.808655 0.033637 
56.357243 0.038405 
56.673935 0.035405 
57.800095 0.036896 
58.393978 0.035211 
59.623768 0.03468 
59.679398 0.039028 
60.487289 0.04293 
61.454437 0.047461 
61.66119 0.037363 
61.861294 0.036308 
61.883545 0.037021 
62.081631 0.041491 
63.023682 0.080747 
63.289177 0.037749 
64.470993 0.041236 
64.618233 0.03699 
64.914314 0.039348 
64.964859 0.03475 
65.039246 2.582931 
66.001015 0.049099 
66.047104 0.202046 
66.144394 0.028065 
66.222748 0.033502 
66.842674 0.040863 
67.018402 0.049799 
67.054893 0.662271 
67.664658 0.041865 
68.082039 0.047354 
68.483284 0.037252 
68.997765 2.749376 
69.034103 100.0 
70.037468 4.147693 
72.633858 0.039771 
72.696434 0.042674 
72.75692 0.040843 
73.468262 0.043468 
74.630302 0.035759 
74.724609 0.043204 
77.039192 0.299209 
77.715469 0.042456 
79.054756 5.587724 
80.026199 1.817533 
80.405792 0.046447 
80.532913 0.046368 
80.56073 0.035869 
81.034004 0.47924 
81.052055 0.03421 
81.070412 1.010964 
81.322067 0.050103 
81.32299 0.037544 
82.041847 0.107367 
82.860588 0.042358 
83.013298 0.05788 
83.049606 0.103109 
83.562027 0.035884 
84.249054 0.03065 
84.877892 0.030784 
85.511253 0.046857 
86.753845 0.050004 
87.177856 0.038471 
88.368721 0.045109 
89.415405 0.046105 
90.972374 0.03564 
91.054665 1.024038 
91.096725 0.049879 
91.196442 0.033619 
92.447021 0.052055 
93.033936 2.149594 
93.746635 0.036385 
94.041702 1.684127 
94.9039 0.044497 
95.013161 1.351569 
95.049515 10.893262 
95.10701 0.030326 
95.202591 0.045843 
95.437904 0.03631 
96.052963 0.135986 
96.242126 0.046895 
97.065193 0.492775 
98.054382 0.056212 
99.044434 0.760336 
99.271004 0.047071 
99.349625 0.048187 
99.494011 0.046002 
99.657249 0.0388 
100.527153 0.031237 
100.817139 0.044758 
101.761986 0.036579 
101.973 0.033313 
102.154396 0.043476 
102.497375 0.045284 
102.888435 0.040228 
103.054535 0.670172 
103.327957 0.035544 
103.462967 0.080338 
103.465981 0.041243 
104.944664 0.049064 
105.044968 0.430528 
105.070183 1.848142 
105.658714 0.02936 
105.91172 0.044244 
106.792007 0.028785 
107.049446 7.39991 
108.020905 0.268487 
109.028603 0.594185 
109.065048 3.496106 
110.029854 0.043813 
110.036438 0.913717 
110.124054 0.043635 
110.307785 0.030342 
110.415672 0.029969 
110.840431 0.045045 
111.044327 2.759468 
113.059921 0.350726 
114.153275 0.043372 
116.30397 0.042975 
117.069984 0.0348 
117.182526 0.045167 
119.012764 0.047261 
119.049362 0.11347 
120.057182 0.064355 
120.471443 0.034996 
121.028587 0.982307 
121.065094 0.252793 
121.467171 0.039691 
122.036339 14.472738 
123.007698 0.101356 
123.039589 0.512171 
123.04425 2.052639 
124.247429 0.049351 
125.017029 0.041757 
125.02327 0.094699 
125.059822 6.844262 
126.062988 0.055075 
127.27195 0.06053 
127.699799 0.029019 
128.210327 0.045589 
128.703857 0.043482 
130.065948 0.033519 
132.63681 0.035562 
133.06485 0.43257 
134.732407 0.027643 
135.044067 2.256771 
135.055359 0.443913 
135.080322 4.51394 
135.085602 0.037055 
136.015228 0.027204 
136.641724 0.032502 
136.888184 0.044104 
137.023315 0.640409 
137.059616 0.980763 
138.031021 16.288746 
139.034378 0.724603 
139.075241 0.160443 
140.036148 0.043195 
140.678055 0.033776 
141.054626 0.640988 
145.064575 0.141445 
145.456833 0.057634 
146.036179 0.047172 
147.044312 0.109389 
148.051712 0.58865 
149.023392 0.309565 
149.058868 0.05178 
150.030991 7.379023 
151.039062 2.747959 
151.27774 0.030646 
152.228409 0.049601 
153.054565 0.822265 
154.171494 0.038858 
154.973373 0.053229 
155.033722 0.197067 
156.943649 0.030197 
157.065079 0.042444 
161.059647 1.273525 
162.067566 1.103668 
163.07518 5.684909 
164.078384 0.058539 
164.331055 0.048318 
164.716049 0.039782 
165.054474 51.787399 
165.090744 0.120717 
166.025909 15.514758 
166.057831 4.907665 
167.029358 0.691907 
168.041733 2.546781 
169.188171 0.052547 
171.623444 0.055215 
173.05983 0.051144 
175.027863 0.043161 
176.046616 0.214619 
176.966751 0.03133 
177.054672 0.809897 
181.049347 65.937584 
182.05275 6.307208 
183.054611 0.047349 
184.03656 6.722221 
185.039352 0.090291 
188.425064 0.04185 
189.054153 0.049544 
190.06221 16.486654 
191.033661 0.030615 
191.066162 0.764469 
191.77681 0.044692 
192.078049 0.858789 
192.892563 0.042103 
193.049622 1.758523 
194.056808 0.149164 
195.065674 0.074088 
197.233063 0.054508 
197.951279 0.045713 
199.495911 0.038651 
201.054535 1.348735 
204.88504 0.046538 
205.049515 0.388243 
206.057465 2.370811 
207.06514 2.935513 
208.072296 0.067488 
209.405777 0.054921 
209.831009 0.03505 
210.096069 0.041731 
214.061783 0.046821 
215.070328 0.870196 
215.862793 0.037195 
216.00087 0.034199 
216.077332 0.146599 
216.349319 0.050244 
218.057236 3.430287 
219.065033 0.405039 
220.052567 0.137142 
220.070572 0.202298 
220.111343 0.039405 
221.044495 1.484311 
221.070435 0.044009 
221.080719 3.827367 
222.442963 0.034317 
223.096481 0.516383 
229.049561 0.389382 
230.057266 1.158097 
231.101669 0.745031 
234.088303 0.047304 
235.059631 0.275245 
235.163651 0.040401 
236.067596 8.85833 
237.071213 0.51942 
240.752563 0.040468 
242.057068 0.193638 
242.66774 0.037037 
243.064743 8.462798 
244.071075 1.645589 
245.080627 0.66539 
247.059921 0.03291 
247.839828 0.050337 
248.296295 0.061993 
249.074844 0.038002 
251.091202 5.281413 
252.094727 0.251911 
259.095581 0.047956 
261.669525 0.038966 
262.257385 0.043259 
268.464996 0.041895 
271.059937 0.040628 
272.067719 0.264734 
274.356262 0.0419 
278.244598 0.037432 
279.816742 0.030944 
281.467377 0.036497 
292.233063 0.045712 
300.224548 0.058283 
308.604553 0.060167 
312.526489 0.052536 
312.769226 0.037076 
320.685791 0.045639 
331.958313 0.031276 
END IONS

