BEGIN IONS
PEPMASS=243.0
CHARGE=1+
COMPOUNDNAME=Massbank:KO003262 Kanamycin
LIBRARYQUALITY=3
SMILES=NCC(O1)C(O)C(O)C(O)C1OC(C(N)3)C(O)C(C(N)C3)OC(O2)C(O)C(N)C(O)C(CO)2
INCHIKEY=SBUJHOSQTJFQJX-UHFFFAOYSA-N
INCHI=1S/C18H36N4O11/c19-2-6-10(25)12(27)13(28)18(30-6)33-16-5(21)1-4(20)15(14(16)29)32-17-11(26)8(22)9(24)7(3-23)31-17/h4-18,23-29H,1-3,19-22H2/t4-,5+,6-,7-,8+,9-,10-,11-,12+,13-,14-,15+,16-,17-,18-/m1/s1
MSLEVEL=2
SOURCE_INSTRUMENT=ESI-LC-ESI-QQ
FILENAME=Massbank_ESI_positive_8_1_2014_peaks.mgf
SEQ=*..*
IONMODE=Positive
ORGANISM=MASSBANK
NAME=Massbank:KO003262 Kanamycin [M+2H]++
PI=Putative Massbank Match
DATACOLLECTOR=Massbank
PUBMED=N/A
SUBMITUSER=mwang87
TAGS=
SPECTRUMID=CCMSLIB00000219044
SCANS=9064
84.3 59406.0 
115.1 64356.5 
120.4 113861.5 
122.3 9901.0 
127.4 39604.0 
141.4 84158.5 
144.2 292079.5 
153.9 79208.0 
162.3 628713.5 
163.3 207921.0 
165.4 34653.5 
171.3 29703.0 
174.7 9901.0 
183.2 311881.5 
204.8 19802.0 
211.2 54455.5 
226.4 787129.5 
243.3 13544568.0 
324.8 599010.5 
325.7 34653.5 
END IONS

