BEGIN IONS
PEPMASS=341.1
CHARGE=1+
COMPOUNDNAME=Dechlorogriseofulvin
LIBRARYQUALITY=3
SMILES=N/A
INCHIKEY=QPCYNIYZPDJCMB-UHFFFAOYSA-N
INCHI=InChI=1S/C17H18O6/c1-9-5-10(18)6-14(22-4)17(9)16(19)15-12(21-3)7-11(20-2)8-13(15)23-17/h6-9H,5H2,1-4H3
MSLEVEL=2
SOURCE_INSTRUMENT=N/A-ESI-QFT
FILENAME=library_mgf.mgf
SEQ=*..*
IONMODE=positive
ORGANISM=MONA
NAME=Dechlorogriseofulvin [M+Na]+
PI=MoNA
DATACOLLECTOR=MoNA:VF-NPL-QEHF000824
PUBMED=N/A
SUBMITUSER=mwang87
TAGS=
SPECTRUMID=CCMSLIB00004691887
SCANS=824
50.471561 0.530501 
50.531822 1.23908 
50.650436 0.446928 
50.909058 1.520213 
51.197556 1.235675 
51.237465 0.768874 
52.31015 1.284791 
52.31723 1.303884 
52.381687 0.407233 
53.721806 0.742356 
54.05724 1.329838 
54.573692 1.471263 
54.887188 0.669489 
55.972427 0.391248 
56.375027 0.541879 
57.07061 1.582549 
57.570492 1.412284 
57.688644 1.532912 
57.755619 1.676809 
58.871113 1.044975 
59.061089 3.836415 
59.215672 0.99597 
59.525177 0.44851 
59.576508 0.994105 
60.081467 8.064835 
60.13604 0.788342 
61.011333 22.164104 
61.472088 1.55165 
61.682182 1.734196 
61.847992 0.760605 
62.019222 0.965358 
62.990688 0.704841 
63.785503 1.571735 
64.248154 1.655979 
64.464882 1.511904 
65.319489 0.498152 
65.890556 0.773086 
66.962326 1.083801 
67.164696 1.013636 
67.360741 0.504961 
67.680611 1.125989 
67.836075 0.417835 
68.232841 0.731437 
68.793098 1.448633 
69.034119 1.33542 
69.07061 0.500495 
69.304207 1.139218 
70.065704 0.472787 
70.359482 1.271331 
70.763641 1.122204 
71.086281 0.958288 
72.864227 1.643575 
72.937698 1.079648 
73.047417 1.655559 
73.781906 1.439102 
74.298378 0.579186 
74.852325 0.551762 
75.227226 0.396966 
76.039566 1.382392 
76.126457 0.554547 
76.160034 0.435899 
78.013954 7.248122 
78.973701 1.900751 
79.009224 1.551386 
79.021729 3.429844 
79.962784 1.21256 
80.208313 1.501619 
80.725014 0.878116 
81.070236 0.828918 
81.911156 1.65246 
81.936577 0.43684 
82.601784 1.266092 
83.371635 0.437477 
86.900749 1.915951 
87.044456 0.712215 
87.05088 1.474291 
87.336372 1.278714 
87.424118 0.569931 
87.935303 1.447718 
88.403107 1.491339 
89.05999 2.669527 
89.158867 0.941036 
89.335075 0.99318 
90.723625 1.168138 
90.75573 1.55152 
92.37397 1.445538 
93.257332 0.406331 
95.085869 1.990703 
96.819588 0.465978 
97.634773 0.556869 
98.784988 1.221914 
98.902992 1.326018 
99.286018 1.581683 
99.332764 0.982766 
99.701576 0.494727 
100.903709 0.451539 
102.701599 0.474097 
103.039551 0.598112 
105.768288 0.502097 
107.085831 2.231262 
108.33136 1.325044 
110.539688 1.554257 
113.20829 1.143713 
115.71534 1.570771 
118.661011 1.565782 
119.998749 1.372689 
120.422668 1.945554 
121.818924 1.724106 
123.054733 0.852698 
123.819267 0.551725 
125.865524 0.477653 
126.12841 1.492165 
126.407173 1.379727 
126.559906 1.308402 
127.408089 0.443824 
129.16571 0.589365 
129.751831 0.54533 
132.491776 1.44124 
134.028305 1.853768 
134.853806 1.821281 
134.956116 2.720533 
141.117462 1.620164 
142.35611 0.498923 
143.382568 1.662192 
148.572769 1.719692 
148.971588 7.795042 
149.05954 6.727223 
150.063187 1.380466 
150.361679 1.545859 
150.872711 0.466219 
150.95105 25.896553 
152.966537 0.53685 
153.5896 0.432259 
154.332794 0.952181 
155.05748 1.31112 
155.23587 1.354697 
158.200058 1.181941 
161.056503 1.374537 
162.915665 1.549731 
165.865936 1.542905 
167.335846 1.962124 
167.438171 0.500343 
168.961594 2.842899 
171.06752 2.394371 
171.85881 1.70376 
171.931351 0.590223 
175.107147 1.287879 
180.943649 12.703409 
181.048355 0.755666 
181.945877 1.892095 
182.939697 5.151444 
187.062912 0.602016 
190.133194 1.424688 
190.374161 1.5439 
192.96167 3.292061 
195.317245 1.464417 
198.954208 1.530375 
200.949829 1.162674 
202.08606 100.0 
203.089981 2.584649 
206.577042 1.616206 
212.976532 1.654854 
214.728577 4.957251 
214.741516 43.520466 
216.010971 1.623841 
217.145599 0.586668 
222.898422 19.38682 
229.895752 3.371201 
233.48819 1.97925 
235.271866 1.487322 
238.913116 1.000251 
239.901138 1.622969 
240.231903 21.657772 
240.257751 1.636237 
240.90892 10.41072 
247.179138 1.76461 
247.906631 1.069471 
249.763321 1.219234 
252.998199 0.492683 
260.542816 0.782666 
263.901337 1.025714 
264.908752 5.2484 
265.939301 6.232692 
267.845215 0.561034 
268.258026 0.46098 
270.121155 1.605536 
272.948456 1.554976 
281.911438 18.330675 
282.902557 0.529463 
282.91922 2.504623 
296.127716 1.784909 
296.294495 0.826058 
297.129517 0.487849 
304.704742 0.503989 
310.107697 0.5508 
312.439423 1.635146 
315.194672 1.876002 
324.122711 67.432114 
325.12738 8.53997 
325.82077 0.92915 
331.053192 1.485302 
331.468628 0.887549 
340.153687 49.461445 
340.393372 35.502159 
341.099365 2.866629 
341.157379 3.62589 
341.396393 7.758994 
341.711456 1.676686 
344.059418 0.467604 
345.96405 1.944251 
357.488922 1.660611 
359.410156 1.378768 
END IONS

