BEGIN IONS
PEPMASS=173.11
CHARGE=1+
COMPOUNDNAME=ReSpect:PS004607 cis-Aconitic acid|Achilleaic acid|cis-aconitate|cis-Oxaloacetic acid|cis-1,2,3-Propenetricarboxylic Acid|cis-Propene-1,2,3-tricarboxylic acid
LIBRARYQUALITY=3
SMILES=C(C(=CC(=O)O)C(=O)O)C(=O)O
INCHIKEY=GTZCVFVGUGFEME-UHFFFAOYSA-N
INCHI=N/A
MSLEVEL=2
SOURCE_INSTRUMENT=ESI-Flow-injection QqQ/MS
FILENAME=respect_8_1_2014_GNPS_peaks.mgf
SEQ=*..*
IONMODE=Positive
ORGANISM=RESPECT
NAME=ReSpect:PS004607 cis-Aconitic acid|Achilleaic acid|cis-aconitate|cis-Oxaloacetic acid|cis-1,2,3-Propenetricarboxylic Acid|cis-Propene-1,2,3-tricarboxylic acid [M+H]
PI=Putative ReSpect Match
DATACOLLECTOR=ReSpect
PUBMED=N/A
SUBMITUSER=mwang87
TAGS=
SPECTRUMID=CCMSLIB00000212530
SCANS=1926
85.0 93.0 
129.0 364.0 
172.0 84.0 
173.0 999.0 
END IONS

