BEGIN IONS
PEPMASS=351.064
CHARGE=1+
COMPOUNDNAME=Griseofulvin
LIBRARYQUALITY=3
SMILES=N/A
INCHIKEY=DDUHZTYCFQRHIY-RBHXEPJQSA-N
INCHI=InChI=1S/C17H17ClO6/c1-8-5-9(19)6-12(23-4)17(8)16(20)13-10(21-2)7-11(22-3)14(18)15(13)24-17/h6-8H,5H2,1-4H3/t8-,17+/m1/s1
MSLEVEL=2
SOURCE_INSTRUMENT=N/A-ESI-QFT
FILENAME=library_mgf.mgf
SEQ=*..*
IONMODE=negative
ORGANISM=MONA
NAME=Griseofulvin [M-H]-
PI=MoNA
DATACOLLECTOR=MoNA:VF-NPL-QEHF001066
PUBMED=N/A
SUBMITUSER=mwang87
TAGS=
SPECTRUMID=CCMSLIB00004692129
SCANS=1066
50.435551 0.017358 
50.473114 0.012511 
50.816551 0.026573 
50.828831 0.012115 
51.796688 0.019671 
51.89756 0.01468 
52.01318 0.020776 
52.291718 0.028776 
52.901306 0.019424 
53.499519 0.016031 
53.638107 0.013058 
55.546597 0.013793 
55.691784 0.023355 
56.28709 0.023134 
56.414658 0.017974 
56.429707 0.016507 
56.787571 0.019091 
57.033184 0.207525 
57.520485 0.022033 
59.012447 1.764367 
60.584805 0.02002 
61.523724 0.016115 
61.545284 0.015376 
61.986984 2.616007 
63.206566 0.01582 
63.755558 0.031112 
63.960983 0.125131 
64.698456 0.015141 
64.714134 0.025556 
64.875778 0.015617 
65.028847 0.009398 
65.169357 0.008679 
65.558266 0.028338 
65.731689 0.013246 
66.032776 0.027943 
66.78653 0.014497 
66.932152 0.022914 
67.317726 0.022559 
67.445976 0.024859 
67.611168 0.027017 
68.01828 0.016043 
68.996765 0.033039 
69.033226 0.01168 
69.466072 0.021788 
69.594376 0.028188 
69.612724 0.008859 
71.01239 0.06113 
71.16555 0.014665 
72.991699 0.363791 
73.028061 0.028525 
73.047981 0.014963 
73.842537 0.012973 
74.616829 0.022752 
75.007347 0.072943 
75.820534 0.014077 
77.6483 0.029252 
78.984482 0.874544 
79.955925 0.55456 
80.963837 0.10315 
81.033279 0.049566 
82.478645 0.016174 
83.012436 0.056142 
83.048943 0.031966 
83.407143 0.016518 
85.028038 0.254119 
86.106522 0.023085 
86.898445 0.014319 
87.007339 0.435098 
88.885857 0.020644 
89.023018 0.052606 
89.139099 0.013317 
89.33091 0.018476 
89.606369 0.015154 
93.03331 0.212778 
93.348862 0.022269 
93.74897 0.015114 
94.979462 0.046387 
95.012627 0.019709 
95.629829 0.015566 
95.882797 0.026202 
96.439842 0.026835 
96.958763 3.121858 
97.028137 0.045158 
99.007416 0.013158 
101.023071 0.029965 
101.279907 0.020997 
103.059822 0.010886 
103.319473 0.014504 
104.01873 0.018101 
104.03405 0.069191 
107.048912 0.644397 
109.028191 0.176103 
109.064583 0.012131 
111.007561 0.052665 
111.043785 0.017884 
112.642265 0.014073 
113.023132 0.027159 
115.324196 0.022395 
116.903008 0.021554 
117.033455 0.718764 
118.65377 0.021639 
119.049049 0.019143 
121.028206 0.210681 
121.064484 0.040228 
121.747833 0.015364 
121.782341 0.011219 
123.0439 0.340802 
124.015327 0.018708 
125.023293 0.261617 
126.459778 0.015116 
127.483795 0.017467 
128.773972 0.013056 
130.630341 0.023176 
131.884827 0.012426 
133.028305 0.484099 
133.064774 0.063156 
133.989899 0.013044 
135.04393 34.748383 
135.859344 0.013669 
136.047089 2.267979 
137.023315 0.219471 
137.059586 1.385027 
138.063095 0.011575 
139.038879 0.029299 
139.335938 0.013098 
140.570251 0.032217 
141.018509 0.013123 
143.048935 0.016502 
143.442169 0.021898 
145.028793 0.025865 
145.064331 0.031529 
147.04393 1.358154 
147.065338 0.011512 
148.709412 0.023391 
149.0233 0.693642 
149.059647 0.382282 
149.994568 0.288531 
151.03894 0.603574 
152.010681 0.047857 
153.018295 0.025961 
157.064499 0.056697 
158.735886 0.026551 
159.044037 0.183197 
160.039169 0.012313 
161.023331 60.048401 
161.060196 0.039153 
162.026459 5.01931 
163.002869 0.133529 
163.038925 2.286253 
163.111618 0.015403 
164.010437 0.286925 
164.042465 0.012197 
164.446808 0.02567 
165.018234 0.036047 
165.05484 0.101551 
165.49762 0.013183 
166.02652 0.043761 
167.034195 0.035804 
167.407394 0.027673 
169.479797 0.026248 
169.918365 0.015652 
171.101288 0.037564 
173.023499 0.024796 
173.059875 0.049521 
173.117294 0.01142 
173.367706 0.028556 
174.031357 0.099203 
175.002853 0.164636 
175.039032 0.469633 
175.075577 0.020391 
176.010651 0.482435 
176.034378 0.104692 
176.045792 0.015379 
177.018539 0.206629 
177.054688 1.060443 
177.091049 0.028114 
178.025406 0.040685 
178.049805 0.021727 
178.058228 0.017936 
179.034027 100.0 
179.070358 0.267756 
180.037277 8.990258 
180.539444 0.01782 
181.039291 0.124059 
181.049789 0.090523 
184.052383 0.014735 
185.023941 0.053759 
185.059952 0.275294 
187.002914 0.032612 
187.039078 0.203927 
187.075745 0.028212 
188.012527 0.023004 
188.046768 0.014412 
188.577576 0.027359 
188.852646 0.029107 
189.018768 1.752547 
189.054825 0.316682 
190.026627 0.18213 
191.03421 1.010335 
191.070557 0.199817 
193.013443 1.065438 
193.050385 0.094272 
195.044937 0.017988 
195.066742 0.012069 
196.812271 0.014213 
197.060226 0.010028 
199.040222 0.025378 
199.075607 0.016674 
199.210236 0.012924 
201.054962 0.108302 
201.091446 0.060881 
202.025543 0.031965 
203.025055 0.01167 
203.034378 1.098275 
203.070496 0.146511 
203.144058 0.022313 
204.029633 0.063148 
204.040955 0.035389 
205.013718 1.182763 
205.049927 1.084231 
205.123032 0.029951 
207.029358 0.444459 
207.06572 0.018183 
207.081573 0.04106 
209.045197 0.053607 
209.059753 0.036728 
210.067719 0.02366 
211.039322 0.138586 
211.893204 0.026852 
212.047058 0.57682 
213.052551 0.104165 
214.711105 0.376857 
214.722748 0.432001 
214.730743 0.347529 
214.738922 0.137767 
215.034256 0.510007 
215.070969 0.021707 
216.042297 0.057212 
217.050095 0.319337 
217.086639 0.028231 
217.15921 0.133487 
218.045303 0.018833 
219.029144 0.042086 
219.065796 0.02597 
219.138443 0.079903 
220.052231 0.0975 
221.044724 0.080711 
221.503891 0.024119 
222.039612 0.019914 
223.024323 1.259073 
223.06073 0.913209 
223.205536 0.017919 
223.389984 0.016498 
224.04689 0.146531 
225.254974 0.028387 
227.034363 0.024487 
227.07106 0.020333 
229.050323 0.029085 
229.12291 0.656359 
230.057755 0.013876 
230.126129 0.010542 
231.029495 0.02821 
231.066147 0.12068 
231.080429 0.023674 
231.102341 0.060247 
231.138672 0.289669 
232.037277 0.161946 
232.485779 0.012399 
233.044998 0.558648 
233.118134 0.157619 
233.154129 0.326697 
235.0616 0.02418 
235.076019 0.412588 
235.123184 0.118936 
235.135147 0.034317 
236.056046 0.166165 
236.079483 0.262506 
237.484238 0.013303 
238.06337 0.115088 
240.654984 0.027252 
241.050262 0.020168 
241.085922 0.019876 
243.029587 0.020816 
243.066086 0.064936 
245.044922 0.030248 
245.081604 0.515403 
245.118057 0.09028 
245.154419 0.173673 
246.671112 0.029436 
247.060745 0.696592 
247.13356 1.083677 
248.141617 1.463742 
249.076416 0.079436 
249.112701 0.240775 
249.14827 0.312999 
249.323334 0.010534 
251.071945 0.013737 
252.078781 0.200825 
252.378204 0.015816 
253.084946 0.127654 
253.217255 0.061309 
255.029953 0.060946 
255.232803 2.012372 
256.03595 0.037166 
259.025269 0.021203 
259.060638 0.031771 
259.133728 0.259945 
261.04068 0.028766 
261.113312 0.060872 
261.135071 0.023273 
261.149597 3.429191 
261.186188 0.018878 
261.222168 0.072348 
262.152832 0.474269 
263.001465 0.610615 
263.05545 0.025801 
263.129028 2.552113 
263.165192 4.5819 
264.168701 0.620422 
265.133667 0.024158 
265.147797 1.441473 
266.151154 0.061391 
267.233124 0.137982 
269.08136 0.031366 
269.121887 0.183049 
269.21167 0.055517 
269.248505 1.299988 
269.958282 0.02719 
270.090332 0.018643 
270.25174 0.076809 
271.061249 1.088018 
271.134033 0.044021 
272.06427 0.027124 
272.105194 0.047319 
273.050171 0.7401 
273.113159 1.12002 
274.053406 0.507255 
274.118164 0.197208 
275.055634 0.281606 
275.092987 0.280208 
275.128937 5.730827 
275.165192 1.668836 
276.132355 0.889685 
276.168274 0.104534 
277.108093 2.150117 
277.144623 2.651214 
279.159607 0.244968 
281.045715 0.012295 
283.024475 0.404538 
283.264282 0.880116 
284.028259 0.629084 
284.267731 0.048219 
285.030457 0.021268 
285.113464 0.013557 
287.128723 3.694352 
287.163391 0.017082 
287.201385 0.071322 
288.132263 0.616392 
289.071686 0.013289 
289.107727 0.290216 
289.144501 9.434911 
289.217712 0.104515 
290.148041 1.560848 
290.16449 0.02846 
291.123779 0.407912 
291.149323 0.064823 
292.131653 1.54546 
293.103149 0.230782 
293.137329 0.241453 
293.179047 0.166568 
295.155792 0.036281 
301.107971 0.68961 
301.144318 1.391035 
302.148041 0.104784 
303.087677 1.28151 
303.123566 1.88384 
305.076996 0.107711 
305.139313 5.503311 
305.174988 0.239744 
306.079956 0.120551 
306.1427 1.108123 
307.038605 0.010453 
307.062225 0.026108 
307.1203 0.195518 
307.15506 26.600225 
308.158508 4.615309 
309.164673 0.036154 
311.019775 0.012323 
312.023071 0.242744 
317.102936 0.895597 
318.105957 0.175081 
319.11908 2.125881 
319.154755 2.645809 
320.122101 0.235032 
320.158203 0.349509 
320.998108 0.016965 
321.098145 4.633565 
321.133972 4.59999 
323.148743 0.018257 
331.118591 0.720973 
331.154755 0.187021 
332.122192 0.141315 
333.098846 0.130348 
333.134277 12.005226 
333.169922 0.350225 
333.529022 0.020112 
334.137848 2.186044 
335.113678 0.310326 
335.151031 0.021709 
348.993225 2.82163 
349.128479 0.051517 
349.165527 0.425264 
349.204041 0.314678 
349.241364 1.221083 
349.996613 7.609906 
350.163666 0.125064 
350.205719 0.031412 
350.2453 0.157521 
350.998291 1.113458 
351.091553 0.591281 
351.144806 32.232773 
351.179657 1.887299 
351.220673 5.533913 
352.14856 6.229295 
352.184113 0.317384 
352.224213 0.915953 
353.124939 0.277347 
353.159027 0.67105 
353.19577 0.271588 
353.217865 6.466163 
353.343079 0.196312 
END IONS

