BEGIN IONS
PEPMASS=540.288
CHARGE=1+
COMPOUNDNAME=Massbank: Apramycin
LIBRARYQUALITY=3
SMILES=[H]OC([H])([H])C([H])(O1)C([H])(N([H])[H])C([H])(O[H])C([H])(O[H])C([H])1OC([H])(O2)C([H])(N([H])C([H])([H])[H])C([H])(O[H])C([H])(O3)C([H])2C([H])([H])C([H])(N([H])[H])C([H])(OC([H])(C([H])(O[H])4)C([H])(N([H])[H])C([H])([H])C([H])(N([H])[H])C([H])(O[H])4)3
INCHIKEY=XZNUGFQTQHRASN-UHFFFAOYSA-N
INCHI=1S/C21H41N5O11/c1-26-11-14(30)18-8(33-20(11)37-21-16(32)13(29)10(25)9(4-27)34-21)3-7(24)19(36-18)35-17-6(23)2-5(22)12(28)15(17)31/h5-21,26-32H,2-4,22-25H2,1H3/t5-,6+,7-,8+,9-,10-,11+,12+,13+,14-,15-,16-,17-,18+,19?,20-,21-/m1/s1
MSLEVEL=2
SOURCE_INSTRUMENT=ESI-LC-ESI-QTOF
FILENAME=Massbank_ESI_positive_8_1_2014_peaks.mgf
SEQ=*..*
IONMODE=Positive
ORGANISM=MASSBANK
NAME=Massbank: Apramycin [M+H]+
PI=Putative Massbank Match
DATACOLLECTOR=Massbank
PUBMED=N/A
SUBMITUSER=mwang87
TAGS=
SPECTRUMID=CCMSLIB00000206045
SCANS=1305
60.0426 1617.486 
68.0478 1904.762 
69.0302 697.424 
70.0641 747.385 
72.0446 3417.642 
73.0282 512.646 
74.0596 3088.212 
80.051 825.137 
81.0328 1829.04 
82.0294 540.671 
82.0642 1733.021 
83.0498 764.169 
84.0451 5743.95 
85.0331 467.135 
86.0605 5897.736 
90.0543 1434.817 
94.0653 1896.956 
96.0458 7130.367 
96.0815 475.02 
97.0301 914.13 
97.0793 399.375 
98.0609 4334.114 
99.0457 717.252 
102.056 3188.915 
108.0421 740.203 
108.082 1297.424 
109.029 737.783 
109.0774 518.111 
110.0601 7395.785 
111.0458 3391.881 
112.0759 468.15 
114.0565 1772.834 
116.0735 2533.958 
120.0837 536.612 
122.0634 2421.546 
124.0801 1233.411 
126.0559 10000.0 
127.08 418.189 
128.0725 2209.212 
132.0441 658.782 
134.0868 739.891 
135.0936 1441.842 
136.0787 1428.571 
138.0577 1006.245 
140.072 1839.969 
142.0491 1248.244 
144.0676 4405.933 
145.0958 1623.731 
146.0798 1184.231 
149.0734 419.204 
150.0538 1460.578 
151.0833 630.367 
152.0974 1323.966 
153.0994 1324.746 
154.0841 660.5 
156.0605 512.646 
162.0786 2791.569 
163.1043 3543.326 
164.0707 1352.069 
168.0647 1818.891 
172.0966 836.846 
181.099 884.465 
182.0786 596.487 
187.1161 495.863 
199.1087 7829.82 
200.0987 1479.313 
217.1183 8782.201 
225.1194 586.885 
253.1187 740.203 
271.1275 500.703 
313.1355 417.877 
END IONS

