BEGIN IONS
PEPMASS=243.0
CHARGE=1+
COMPOUNDNAME=Massbank:KO003264 Kanamycin
LIBRARYQUALITY=3
SMILES=NCC(O1)C(O)C(O)C(O)C1OC(C(N)3)C(O)C(C(N)C3)OC(O2)C(O)C(N)C(O)C(CO)2
INCHIKEY=SBUJHOSQTJFQJX-UHFFFAOYSA-N
INCHI=1S/C18H36N4O11/c19-2-6-10(25)12(27)13(28)18(30-6)33-16-5(21)1-4(20)15(14(16)29)32-17-11(26)8(22)9(24)7(3-23)31-17/h4-18,23-29H,1-3,19-22H2/t4-,5+,6-,7-,8+,9-,10-,11-,12+,13-,14-,15+,16-,17-,18-/m1/s1
MSLEVEL=2
SOURCE_INSTRUMENT=ESI-LC-ESI-QQ
FILENAME=Massbank_ESI_positive_8_1_2014_peaks.mgf
SEQ=*..*
IONMODE=Positive
ORGANISM=MASSBANK
NAME=Massbank:KO003264 Kanamycin [M+2H]++
PI=Putative Massbank Match
DATACOLLECTOR=Massbank
PUBMED=N/A
SUBMITUSER=mwang87
TAGS=
SPECTRUMID=CCMSLIB00000219048
SCANS=9066
56.0 24752.5 
61.0 69307.0 
68.1 44554.5 
69.0 64356.5 
72.4 39604.0 
80.7 29703.0 
84.0 272277.5 
85.0 74257.5 
92.4 14851.5 
95.7 29703.0 
98.0 59406.0 
102.2 193069.5 
105.1 19802.0 
111.9 24752.5 
113.4 14851.5 
114.8 79208.0 
115.4 44554.5 
126.2 29703.0 
126.8 19802.0 
133.9 24752.5 
140.9 44554.5 
144.2 69307.0 
145.0 69307.0 
159.1 608911.5 
162.4 44554.5 
163.1 311881.5 
184.0 14851.5 
201.2 301980.5 
226.4 3826736.5 
243.2 118812.0 
END IONS

