BEGIN IONS
PEPMASS=453.0
CHARGE=1+
COMPOUNDNAME=MoNA:2300174 Ribostamycin
LIBRARYQUALITY=3
SMILES=N/A
INCHIKEY=NSKGQURZWSPSBC-DLBSIDPUSA-N
INCHI=InChI=1S/C17H34N4O10/c18-2-6-10(24)12(26)8(21)16(28-6)30-14-5(20)1-4(19)9(23)15(14)31-17-13(27)11(25)7(3-22)29-17/h4-17,22-27H,1-3,18-21H2/t4-,5+,6-,7-,8-,9+,10-,11-,12-,13-,14-,15-,16-,17-/m1/s1
MSLEVEL=2
SOURCE_INSTRUMENT=LC-ESI-QQ-LC-ESI-QQ
FILENAME=output_mgf.mgf
SEQ=*..*
IONMODE=
ORGANISM=MONA
NAME=MoNA:2300174 Ribostamycin [M-H]-
PI=MoNA
DATACOLLECTOR=MoNA
PUBMED=N/A
SUBMITUSER=mwang87
TAGS=
SPECTRUMID=CCMSLIB00000571961
SCANS=9212
96.8 12.278107 
156.7 0.591716 
274.9 0.591716 
287.0 10.946746 
288.2 4.733728 
297.1 1.035503 
306.1 10.35503 
309.2 0.591716 
393.3 6.213018 
409.7 0.295858 
435.2 0.443787 
453.4 100.0 
END IONS

