BEGIN IONS
PEPMASS=516.307
CHARGE=1+
COMPOUNDNAME=(3E,5S,7R,8R,11E,13S,15R,16R)-3,5,7,11,13,15-hexamethyl-8,16-bis(1,3-oxazol-5-ylmethyl)-1,9-dioxacyclohexadeca-3,11-diene-2,10-dione
LIBRARYQUALITY=3
SMILES=N/A
INCHIKEY=LAJRJVDLKYGLOO-HLRFMGGZSA-N
INCHI=InChI=1S/C28H38N2O6/c1-17-7-19(3)25(11-23-13-29-15-33-23)35-28(32)22(6)10-18(2)8-20(4)26(12-24-14-30-16-34-24)36-27(31)21(5)9-17/h9-10,13-20,25-26H,7-8,11-12H2,1-6H3/b21-9+,22-10+/t17-,18-,19+,20+,25+,26+/m0/s1
MSLEVEL=2
SOURCE_INSTRUMENT=N/A-ESI-QFT
FILENAME=library_mgf.mgf
SEQ=*..*
IONMODE=positive
ORGANISM=MONA
NAME=(3E,5S,7R,8R,11E,13S,15R,16R)-3,5,7,11,13,15-hexamethyl-8,16-bis(1,3-oxazol-5-ylmethyl)-1,9-dioxacyclohexadeca-3,11-diene-2,10-dione [M+NH4]+
PI=MoNA
DATACOLLECTOR=MoNA:VF-NPL-QEHF019232
PUBMED=N/A
SUBMITUSER=mwang87
TAGS=
SPECTRUMID=CCMSLIB00004710295
SCANS=19232
50.24633 0.044727 
50.524239 0.0707 
50.720573 0.158936 
51.633553 0.057499 
52.605614 0.151886 
52.632832 0.141449 
52.690815 0.115983 
53.038887 0.184596 
54.034081 0.304511 
54.184124 0.047141 
54.900105 0.097804 
55.01807 0.712207 
55.054462 6.74813 
55.215744 0.048263 
55.702038 0.147384 
55.931805 0.068378 
56.049675 2.818168 
56.602833 0.052851 
56.965 1.333633 
57.033699 4.901308 
57.070068 2.982434 
58.065334 2.537109 
58.284889 0.050115 
59.049324 14.986339 
59.073002 0.070629 
59.414349 0.071556 
59.705105 0.153651 
59.885063 0.16429 
60.080956 7.754722 
60.266804 0.046148 
60.392857 0.052568 
60.404465 0.081469 
60.905727 0.045909 
61.413944 0.162253 
61.569252 0.137893 
61.671825 0.044869 
62.471592 0.044834 
63.104507 0.173384 
64.446884 0.04835 
64.701271 0.137389 
64.882149 0.133255 
64.951614 0.145188 
65.038521 0.309515 
65.286461 0.135701 
65.587769 0.176099 
66.754982 0.14899 
67.015549 0.322453 
67.054283 17.822239 
68.046944 0.045906 
68.049393 0.226926 
68.057625 0.155631 
69.033501 7.253334 
69.069893 12.747508 
70.065094 0.958342 
70.292793 0.158062 
70.693718 0.049483 
70.716827 0.055203 
71.04908 2.009745 
71.085617 0.104524 
71.193031 0.202457 
72.044312 3.337742 
72.04657 0.094799 
72.080818 0.124192 
73.064766 2.67355 
74.059998 9.272951 
74.367676 0.045597 
74.7789 0.055577 
74.783569 0.048535 
75.044029 0.161165 
77.038696 0.122976 
77.413559 0.046425 
77.737633 0.045182 
79.021065 0.060157 
79.054169 12.186107 
79.179428 0.053098 
79.313026 0.050968 
79.686317 0.048403 
80.049362 3.261545 
80.216408 0.148674 
81.033424 0.218299 
81.069817 25.258871 
81.3508 0.052428 
81.422951 0.05589 
81.731483 0.050858 
82.028664 38.7771 
82.031448 0.111396 
82.065002 1.535339 
82.073135 0.407471 
82.683487 0.053755 
83.032021 0.35181 
83.049026 5.821313 
83.085457 4.053222 
83.340309 0.10834 
83.630188 0.151859 
84.041962 0.177314 
84.044296 7.060021 
84.080589 0.122791 
84.574387 0.099157 
84.669731 0.046348 
84.848434 0.052431 
85.028244 0.627369 
85.06469 5.653265 
86.023506 0.512567 
86.059906 1.495418 
86.096344 0.301254 
87.043938 0.475275 
87.97921 0.113082 
88.075539 0.112352 
89.059601 0.851208 
89.267075 0.063439 
90.495308 0.176001 
90.640465 0.125582 
91.030861 0.119463 
91.054123 8.028311 
92.864571 0.133691 
93.057198 0.384383 
93.069794 29.898487 
94.065018 11.826051 
94.073082 0.187635 
95.049049 21.491081 
95.085434 42.011921 
96.044281 24.386122 
96.047867 0.085834 
96.080658 2.325168 
96.088768 1.588916 
97.047935 0.058091 
97.064705 7.210193 
97.100975 0.747848 
97.555412 0.05031 
98.059837 1.269646 
99.0439 0.18978 
99.080208 0.301497 
100.039215 1.025969 
100.075615 0.330173 
100.654366 0.20946 
101.059677 0.432215 
101.251419 0.047118 
101.817726 0.156856 
102.78614 0.056447 
103.054115 6.013634 
104.888924 0.178617 
105.044594 0.182631 
105.069817 21.7812 
106.065094 0.217893 
106.073143 0.55112 
107.049049 9.002419 
107.085411 49.385345 
108.044212 0.532075 
108.080559 3.656341 
108.088745 1.795953 
109.060509 0.063505 
109.064682 26.385605 
109.101089 30.244478 
109.105347 0.095832 
110.059937 16.870279 
110.067802 0.760346 
110.096291 0.995936 
110.104362 0.786131 
111.043922 1.586688 
111.06311 0.063065 
111.080299 7.919941 
111.116684 1.049967 
111.17733 0.187404 
111.912422 0.060058 
112.075516 2.093829 
112.543091 0.051273 
113.059563 12.813723 
114.054947 0.228823 
114.063293 0.118183 
114.216347 0.050804 
115.477821 0.063213 
117.069733 8.524237 
118.065041 0.136279 
118.25441 0.051207 
119.085472 20.211372 
120.044121 0.38581 
120.080566 1.438682 
120.088875 0.502278 
120.860565 0.050078 
121.064674 8.724799 
121.087738 0.046818 
121.101044 100.0 
122.023453 0.227268 
122.059929 34.396835 
122.09639 0.07074 
122.104317 4.891673 
122.108788 5.133135 
123.063126 0.453436 
123.080307 12.152135 
123.116661 4.046628 
123.383949 0.051258 
123.919479 0.16176 
124.038704 0.076265 
124.075562 6.145396 
124.083549 0.36859 
125.059669 0.531467 
125.095985 2.153641 
125.741249 0.042991 
126.054611 0.30829 
126.091148 0.440053 
126.986511 0.163531 
127.075172 0.26032 
128.290421 0.05345 
128.527954 0.162663 
129.069702 1.187579 
130.077545 0.05145 
130.440033 0.044761 
131.04895 17.305651 
131.069916 0.335688 
131.085403 19.931564 
132.052185 0.127277 
132.080597 0.068489 
132.088547 0.390075 
133.064514 0.474934 
133.075836 0.120391 
133.100983 18.418753 
134.059845 8.682704 
134.096237 4.178465 
134.104279 0.556771 
134.787445 0.141266 
135.043976 3.435849 
135.080246 11.661049 
135.116684 32.603333 
136.025116 0.046847 
136.039398 0.112038 
136.04744 0.286918 
136.075592 13.559747 
136.081131 0.158001 
136.112 0.154844 
136.120041 0.314898 
136.258698 0.078442 
137.058426 0.493602 
137.083557 0.206585 
137.095963 9.398132 
137.132278 4.319684 
138.05481 1.129123 
138.091217 25.419123 
139.073776 0.339583 
139.094528 0.431064 
139.111633 0.450368 
140.070389 1.739655 
141.054474 0.188522 
141.090469 0.078514 
142.077118 0.255356 
143.085403 2.334892 
144.080704 0.476322 
144.093338 5.578425 
144.098785 0.159915 
145.064438 0.473293 
145.101074 13.995292 
146.096298 0.914729 
146.104004 0.057006 
147.080185 2.681596 
147.116608 13.30237 
148.075546 11.184411 
148.081696 0.142632 
148.111786 2.488114 
148.11972 0.177039 
148.605682 0.074973 
149.05957 6.581868 
149.078751 0.065421 
149.095871 24.681776 
149.119751 0.131957 
149.126404 0.150408 
149.132385 10.106062 
150.09111 5.623968 
150.098618 0.62567 
150.136627 0.071451 
151.07489 1.334673 
151.111633 1.441118 
152.070236 1.561211 
152.077621 0.057538 
153.05455 0.374443 
153.127029 0.079433 
154.086212 0.075888 
155.05751 0.067761 
155.817368 0.055591 
156.093246 0.13215 
157.06839 0.069458 
157.100998 6.316482 
158.072464 0.173601 
158.096024 0.295526 
159.080261 2.001403 
159.116592 91.993057 
159.472733 0.044646 
160.112305 1.797369 
160.119904 7.077963 
161.095795 4.461515 
161.132095 3.560117 
162.091064 6.726339 
162.098587 0.085531 
162.12738 0.900131 
163.075119 0.694205 
163.11145 22.484526 
163.527298 0.141785 
164.106812 4.010219 
164.114502 0.507026 
164.143326 0.303488 
164.355759 0.185571 
164.652847 0.079835 
164.764832 0.051628 
165.042084 0.071054 
165.090591 0.154686 
165.127518 0.696404 
166.086136 0.162462 
166.12236 4.451427 
167.106705 0.772033 
168.065353 5.22527 
169.017014 0.164789 
169.101028 4.628709 
170.080719 0.065481 
171.103699 0.455122 
171.116577 2.069664 
172.07518 0.174351 
172.087997 2.555739 
173.095703 1.081073 
173.132568 0.266652 
174.09108 1.851143 
174.127502 0.905448 
175.097946 0.054191 
175.111588 8.626095 
175.148071 0.131302 
176.070847 0.136911 
176.106628 5.35465 
176.143066 9.473677 
177.090897 0.640231 
177.127167 22.215199 
177.14624 0.293825 
178.085419 0.050869 
178.130554 0.766619 
179.106567 0.087774 
180.066788 0.168438 
180.101974 0.050308 
180.19043 0.053788 
181.551926 0.13474 
182.081009 29.278616 
183.019592 0.062234 
183.052414 7.284919 
183.084106 1.870018 
184.056137 0.301091 
185.09613 0.110696 
185.132523 0.188061 
186.075806 2.93784 
186.127396 4.370253 
187.027695 2.24091 
187.079254 0.052856 
187.111526 24.489878 
187.708298 0.17618 
188.035187 0.311782 
188.106796 0.083352 
188.115005 1.004493 
189.04303 0.766464 
189.127182 0.072303 
190.04686 0.109692 
190.085815 0.164567 
190.122406 14.049344 
190.366745 0.163693 
191.095032 0.059476 
191.106277 4.670979 
191.124649 0.200898 
191.394974 0.14761 
192.101639 0.068679 
192.137848 1.840243 
192.545898 0.165067 
193.120316 1.509431 
194.048965 0.078195 
194.080429 0.239613 
194.153778 1.785566 
195.09874 0.061739 
196.096481 1.34849 
197.06781 1.794015 
198.075867 70.620163 
199.07933 16.93932 
200.081024 1.134359 
201.126968 0.058319 
202.085892 0.109394 
202.12204 0.22403 
202.211105 0.221631 
203.106186 0.595914 
203.143341 0.059224 
204.128098 0.086337 
204.138077 26.737976 
204.85643 0.060603 
205.038696 0.099326 
205.071442 0.159283 
205.122253 7.111452 
205.141327 0.779166 
206.081055 1.638821 
206.124969 0.059844 
206.15303 0.0683 
208.096451 0.646009 
208.133072 33.413219 
209.104095 0.177152 
209.13623 0.726954 
210.075912 2.505517 
210.111923 0.331044 
211.116104 0.097916 
212.059265 1.025354 
212.091522 15.50149 
212.101624 0.292986 
213.094757 2.588758 
213.149399 4.553267 
213.156433 5.709738 
214.070389 0.594803 
214.122604 3.328908 
218.116364 0.144644 
219.088608 0.114943 
220.058884 0.070564 
220.096405 0.3075 
220.132721 0.719138 
220.572205 0.147376 
221.10347 0.498365 
222.07518 0.178652 
222.111923 0.9138 
222.148743 4.256265 
223.132462 0.055261 
224.091583 0.290507 
224.127853 3.525318 
225.131287 0.345261 
226.107239 0.205875 
227.047806 0.142636 
232.13295 11.427013 
233.104843 0.077143 
233.116943 0.078075 
234.073746 0.080621 
234.112076 0.591816 
234.949341 0.054489 
235.115891 0.060996 
236.127502 0.541082 
238.106934 1.515853 
239.10994 0.241185 
240.908722 0.144256 
246.110779 0.124365 
248.091309 0.266454 
248.127853 0.154829 
248.141754 0.0516 
249.109528 0.191774 
249.203506 0.066453 
250.107254 0.31167 
250.143387 4.956523 
251.096542 0.183805 
251.315002 0.079236 
252.122604 3.61148 
253.126465 0.180219 
253.140198 0.115229 
254.102097 0.367678 
257.105103 0.125101 
257.450592 0.127027 
258.110596 0.050567 
260.089386 0.063944 
260.128143 0.079502 
262.109497 1.592075 
262.145447 0.056454 
264.122406 0.684199 
266.102539 0.122482 
266.290863 0.06137 
272.085724 0.15646 
276.121857 0.25807 
277.039276 0.158473 
279.089691 0.378963 
279.156311 3.360806 
280.119781 0.215709 
288.09082 1.053478 
288.173431 0.080481 
290.135895 6.157149 
291.119995 0.075293 
291.139801 0.121664 
292.116547 0.059368 
295.308624 0.168902 
298.896454 0.259502 
299.818451 0.189221 
301.47348 0.142503 
306.100861 18.324839 
307.1875 0.184035 
311.183044 0.061733 
313.163177 0.057539 
316.906281 0.187958 
319.837097 0.056497 
322.411407 0.143831 
324.111206 19.4254 
329.193024 0.059271 
337.197906 0.164545 
338.125519 0.067483 
345.060608 0.055554 
345.863739 0.06342 
349.183716 0.060912 
353.22995 0.151226 
358.074371 0.057379 
359.805511 0.140273 
360.180634 0.05067 
362.992645 0.110536 
363.80011 0.184067 
369.224548 1.39617 
370.197601 0.140739 
374.783203 0.184188 
385.219269 0.166752 
387.06839 0.057086 
387.234467 0.082232 
398.462891 0.055957 
400.286377 0.072197 
402.043182 0.182391 
407.668976 0.132393 
411.271027 3.941657 
412.274323 0.603281 
415.629272 0.15276 
418.251923 0.135176 
423.434479 0.190483 
427.266144 2.841569 
428.268188 0.303862 
429.279541 0.229184 
439.264618 0.174126 
443.260742 0.573225 
445.276672 1.144808 
447.291809 0.347298 
447.345886 0.671726 
448.348694 0.062833 
461.381744 0.137754 
467.268158 0.135912 
469.312347 7.828308 
469.547058 0.09089 
470.315521 1.367337 
471.323547 0.058614 
473.271179 0.35933 
475.283936 0.058894 
485.306641 3.32009 
485.542603 0.114539 
486.169861 0.129346 
486.31073 0.404074 
501.378387 0.079951 
509.139862 0.0512 
509.423309 0.062753 
515.318481 3.127436 
515.389648 5.180544 
516.245789 0.280406 
516.313843 0.24791 
516.350098 2.014589 
516.388672 2.287605 
517.292664 0.253791 
517.332947 3.57693 
517.372864 7.591042 
518.332886 0.914395 
518.373779 0.721166 
END IONS

