BEGIN IONS
PEPMASS=323.02
CHARGE=1+
COMPOUNDNAME=Massbank:BML00969 Chloramphenicol
LIBRARYQUALITY=3
SMILES=C1=CC(=CC=C1[C@H]([C@@H](CO)NC(=O)C(Cl)Cl)O)[N+](=O)[O-]
INCHIKEY=WIIZWVCIJKGZOK-RKDXNWHRSA-N
INCHI=1S/C11H12Cl2N2O5/c12-10(13)11(18)14-8(5-16)9(17)6-1-3-7(4-2-6)15(19)20/h1-4,8-10,16-17H,5H2,(H,14,18)/t8-,9-/m1/s1
MSLEVEL=2
SOURCE_INSTRUMENT=ESI-LC-ESI-QTOF
FILENAME=Massbank_ESI_positive_8_1_2014_peaks.mgf
SEQ=*..*
IONMODE=Positive
ORGANISM=MASSBANK
NAME=Massbank:BML00969 Chloramphenicol [M+H]+
PI=Putative Massbank Match
DATACOLLECTOR=Massbank
PUBMED=N/A
SUBMITUSER=mwang87
TAGS=
SPECTRUMID=CCMSLIB00000205132
SCANS=392
118.0669 29.0 
146.0548 24.0 
148.058 29.0 
165.0664 263.0 
206.0357 20.0 
241.0155 31.0 
257.9915 84.0 
274.9982 96.0 
END IONS

