BEGIN IONS
PEPMASS=177.016
CHARGE=1+
COMPOUNDNAME=Patulin
LIBRARYQUALITY=3
SMILES=N/A
INCHIKEY=ZRWPUFFVAOMMNM-UHFFFAOYSA-N
INCHI=InChI=1S/C7H6O4/c8-6-3-4-5(11-6)1-2-10-7(4)9/h1,3,7,9H,2H2
MSLEVEL=2
SOURCE_INSTRUMENT=N/A-ESI-QFT
FILENAME=library_mgf.mgf
SEQ=*..*
IONMODE=positive
ORGANISM=MONA
NAME=Patulin [M+Na]+
PI=MoNA
DATACOLLECTOR=MoNA:VF-NPL-QEHF025935
PUBMED=N/A
SUBMITUSER=mwang87
TAGS=
SPECTRUMID=CCMSLIB00004716998
SCANS=25935
51.940281 0.060638 
52.797707 0.014341 
52.850929 0.034802 
53.189594 0.035701 
53.544014 0.037379 
54.018974 0.021125 
54.152 0.01623 
54.163624 0.049521 
54.805927 0.009893 
54.992233 0.040433 
55.054474 0.042983 
55.429916 0.035672 
55.919533 0.030941 
56.00219 0.016374 
56.049816 0.06685 
56.415871 0.010644 
56.965054 20.103634 
56.973171 0.047988 
58.065514 0.038977 
58.574455 0.019416 
58.624519 0.027469 
58.988087 0.419406 
59.049343 0.018411 
59.272114 0.043703 
59.37093 0.02179 
59.977802 0.039671 
60.044662 0.016035 
60.05582 1.477885 
60.079273 0.014509 
60.11842 0.04439 
60.471943 0.017198 
60.481525 0.330482 
60.902905 0.047822 
61.010872 0.800407 
61.039959 0.011926 
62.015289 0.018685 
62.018654 0.263236 
62.990112 0.39537 
63.483231 0.012413 
63.997925 0.983852 
64.058449 0.012628 
64.885933 0.027904 
65.033806 0.018154 
65.993584 0.04138 
66.432854 0.085527 
66.645355 0.016503 
67.054329 0.121293 
67.332947 0.014045 
67.392349 0.041855 
67.993034 3.315677 
68.202522 0.043896 
68.98275 0.051903 
68.991081 0.018679 
69.486626 1.527266 
70.063026 0.02549 
70.065178 8.341522 
70.957924 0.077111 
70.980476 0.073643 
71.044525 0.037511 
71.068497 0.301264 
71.868301 0.021973 
71.951935 1.473031 
72.080696 0.025013 
72.937187 0.04689 
74.059807 0.012348 
74.975349 0.903044 
75.544647 0.015287 
75.96244 0.046832 
75.980072 0.042936 
76.05069 0.037935 
76.99826 30.100405 
77.000839 0.454028 
77.330368 0.017278 
77.427979 0.022661 
77.440804 0.039284 
77.500061 0.325223 
77.987808 0.084675 
77.996201 1.604606 
78.491837 2.592346 
78.49411 0.029168 
78.994728 0.312936 
79.021179 4.258784 
79.054237 0.374116 
79.388962 0.022095 
80.049461 0.083063 
80.404266 0.052367 
81.017021 0.034533 
81.069878 0.48032 
81.320923 0.012687 
81.339584 0.041026 
81.359093 0.020042 
82.971336 0.034562 
83.511688 0.04334 
84.006081 0.436396 
85.18206 0.025164 
85.198586 0.033722 
86.003532 78.682671 
86.059723 0.022495 
86.502823 0.145219 
86.505379 1.480636 
86.993347 0.020711 
87.00148 4.108111 
87.005775 0.433229 
87.497124 0.589913 
87.600372 0.04009 
88.000008 1.724436 
88.075615 0.013789 
88.499115 0.015377 
89.088966 0.020461 
89.979225 0.022139 
90.482887 3.110251 
91.054176 1.007168 
91.072815 0.010542 
91.48098 0.04325 
91.976501 0.453116 
92.057396 0.01872 
93.011383 2.13874 
93.033363 0.019881 
93.069916 0.216358 
93.69075 0.031524 
94.073242 0.030217 
95.008827 23.129438 
95.01223 0.228707 
95.085487 0.239967 
95.510628 0.321518 
95.589386 0.041847 
96.006775 1.237493 
96.010864 0.075118 
96.617317 0.047008 
97.005348 0.195434 
97.511429 0.045216 
97.994659 1.306386 
98.004669 0.042842 
98.975365 49.896358 
98.984299 0.242973 
99.488213 38.348194 
99.978752 0.842318 
99.989983 0.809492 
100.486176 3.791567 
100.489845 0.137865 
100.97049 0.046193 
100.981827 0.395618 
101.003166 1.368583 
101.484634 0.875019 
102.016708 0.369752 
104.013992 0.337805 
105.069901 0.664459 
106.496063 0.828506 
106.516785 0.022698 
106.999947 12.109731 
107.501785 0.227825 
107.989578 1.897764 
107.997925 1.357321 
108.493423 100.0 
108.989281 0.009884 
108.995628 2.561028 
109.28022 0.047094 
109.491432 10.91023 
109.495453 0.727028 
109.974976 0.063767 
109.987045 0.150419 
109.992714 0.04943 
110.489906 2.364907 
110.514984 0.022828 
112.800362 0.027734 
113.070854 1.261405 
114.007828 0.086499 
114.949989 0.032067 
115.501305 2.933859 
116.005264 25.336138 
116.070602 0.065563 
116.499374 0.124228 
116.506821 0.871067 
116.985886 22.081202 
116.995117 0.019392 
117.003098 2.63901 
117.007339 0.15164 
117.069786 0.033512 
117.498772 19.954927 
117.989334 0.165573 
118.001091 0.953677 
118.065079 0.032817 
118.496712 2.197274 
118.500862 0.049832 
118.99971 0.02662 
119.018906 0.106507 
119.060394 0.246638 
119.085625 0.346474 
119.495171 0.431 
120.001404 0.019727 
120.063545 0.013049 
120.080719 0.031437 
121.028313 0.079803 
121.088631 0.012697 
122.851166 0.014223 
123.012985 0.393626 
123.09169 0.187372 
123.71907 0.042679 
124.011162 0.036335 
124.506607 0.253449 
124.621193 0.0168 
125.010544 2.277871 
125.134277 0.023692 
126.008377 0.038643 
126.204475 0.01331 
126.503944 0.020171 
126.879784 0.044754 
127.006958 0.038303 
128.890366 0.018262 
129.092239 0.010285 
129.543549 0.040375 
130.064987 0.056024 
130.218826 0.021674 
131.001556 0.074486 
131.084854 0.016136 
132.080719 0.123575 
132.958221 0.662985 
133.101074 0.213148 
133.244202 0.014263 
134.059769 0.011386 
134.096375 0.011465 
134.978714 0.224467 
134.996429 4.952517 
135.043915 0.280764 
135.091507 0.01658 
135.474335 0.022176 
137.108002 0.022187 
137.173965 0.014752 
145.484879 0.017106 
147.488937 0.054832 
149.011993 0.016427 
150.968781 0.522036 
152.989746 0.013638 
153.006973 0.132665 
155.412964 0.017537 
157.841904 0.042926 
159.091721 0.059057 
160.111877 0.042328 
161.445129 0.012413 
169.862045 0.040036 
174.066956 0.013592 
176.143372 0.248121 
177.102386 0.048333 
178.085678 0.01595 
178.124023 0.056536 
178.133774 5.376047 
179.137115 0.041834 
180.473938 0.019877 
183.488388 0.012653 
190.504868 0.048548 
191.521896 0.020443 
196.515381 0.018562 
END IONS

