BEGIN IONS
PEPMASS=1253.62
CHARGE=1+
COMPOUNDNAME=Dactinomycin
LIBRARYQUALITY=3
SMILES=N/A
INCHIKEY=RJURFGZVJUQBHK-UHFFFAOYSA-N
INCHI=InChI=1S/C62H86N12O16/c1-27(2)42-59(84)73-23-17-19-36(73)57(82)69(13)25-38(75)71(15)48(29(5)6)61(86)88-33(11)44(55(80)65-42)67-53(78)35-22-21-31(9)51-46(35)64-47-40(41(63)50(77)32(10)52(47)90-51)54(79)68-45-34(12)89-62(87)49(30(7)8)72(16)39(76)26-70(14)58(83)37-20-18-24-74(37)60(85)43(28(3)4)66-56(45)81/h21-22,27-30,33-34,36-37,42-45,48-49H,17-20,23-26,63H2,1-16H3,(H,65,80)(H,66,81)(H,67,78)(H,68,79)
MSLEVEL=2
SOURCE_INSTRUMENT=N/A-ESI-QFT
FILENAME=library_mgf.mgf
SEQ=*..*
IONMODE=negative
ORGANISM=MONA
NAME=Dactinomycin [M-H]-
PI=MoNA
DATACOLLECTOR=MoNA:VF-NPL-QEHF000887
PUBMED=N/A
SUBMITUSER=mwang87
TAGS=
SPECTRUMID=CCMSLIB00004691950
SCANS=887
87.868698 0.113929 
88.0392 0.129572 
88.051376 0.136644 
88.067108 0.124386 
89.770203 0.128486 
91.215157 0.117059 
91.646553 0.118816 
91.696091 0.119007 
92.310669 0.187461 
92.315262 0.104046 
92.720535 0.119168 
93.961998 0.111966 
94.048866 0.099843 
95.185524 0.117061 
95.673813 0.142957 
96.044289 0.162831 
97.002884 0.112998 
97.583656 0.129269 
97.70549 0.099953 
98.188461 0.169932 
99.303314 0.118593 
100.039093 6.331872 
101.070694 0.400718 
104.45295 0.113309 
105.719109 0.145662 
105.925972 0.136813 
106.315704 0.130904 
106.559647 0.12048 
108.044174 0.864264 
108.498611 0.116169 
109.075455 0.116495 
112.0392 2.288537 
112.688049 0.136336 
113.761215 0.106456 
114.05484 1.690274 
114.668167 0.1207 
114.822998 0.163632 
115.086487 0.597186 
117.860168 0.105521 
118.483025 0.248002 
119.707611 0.10864 
119.942207 0.111817 
120.044319 0.137267 
121.686073 0.13185 
122.288727 0.21531 
122.506714 0.138925 
124.026588 2.488563 
124.039337 3.586433 
124.97982 0.117738 
125.03447 1.629771 
125.056656 0.143204 
125.07093 2.880513 
126.054863 5.014417 
126.531349 0.110032 
127.086594 9.03135 
130.086258 72.205688 
131.08963 1.314946 
132.217834 0.112996 
133.683838 0.187527 
134.474014 0.109517 
134.491592 0.119276 
135.497803 0.111597 
136.039276 0.173662 
137.071167 0.129359 
137.107346 1.779579 
137.334518 0.133616 
138.042419 1.588153 
138.055008 1.257526 
138.091583 0.174954 
138.411194 0.138713 
139.050262 20.154631 
139.086639 0.59866 
140.069992 0.164761 
141.011215 0.143005 
141.065857 8.804445 
141.102249 1.391028 
141.242096 0.151151 
145.006287 0.117438 
145.341461 0.115094 
147.055527 0.276702 
148.333054 0.113855 
148.817505 0.113766 
149.071228 0.487306 
150.042358 0.264741 
151.050232 0.882943 
151.086624 0.829047 
152.058136 3.16071 
152.107132 0.290741 
153.055389 0.208466 
153.066025 3.956182 
153.10228 1.663585 
157.186966 0.139171 
158.15741 0.121226 
163.087021 0.724889 
163.829849 0.163523 
164.070816 19.773876 
164.295929 0.104381 
165.066147 2.319921 
165.073837 0.283525 
165.102478 0.190991 
166.923843 0.11291 
167.04538 9.218206 
167.081696 35.257053 
167.203186 0.121099 
168.090012 0.561523 
168.387848 0.121717 
168.440277 0.144568 
169.09726 0.425473 
174.04248 0.098972 
175.050232 0.441221 
177.102448 0.583389 
179.045288 2.230617 
179.081848 2.384446 
180.10202 2.175106 
181.097458 25.050911 
181.832657 0.107132 
183.113174 7.784865 
185.092819 0.465751 
189.065735 0.134881 
189.102493 0.433107 
193.097534 9.915683 
193.106491 0.11207 
194.257828 0.142838 
195.076813 8.474361 
195.113281 87.381691 
196.080261 0.130685 
196.116547 5.621931 
198.193939 0.125118 
198.980698 0.118811 
199.07135 0.12975 
199.310852 0.128985 
199.674301 0.136972 
202.074509 0.118078 
203.081787 1.317704 
204.077225 2.799552 
204.290421 0.20461 
207.076981 5.527882 
207.970001 0.192828 
210.096619 0.146162 
211.144745 1.146292 
212.436081 0.099945 
212.813034 0.190295 
214.06131 0.271407 
216.904099 0.165974 
217.097687 2.813236 
218.069046 0.127707 
223.608536 0.104216 
224.059631 0.253651 
224.102783 0.124402 
225.624496 0.125705 
226.15593 0.165962 
227.454803 0.147634 
231.079407 0.232458 
232.072372 2.656114 
236.633469 0.111948 
237.06662 0.988527 
237.597519 0.21837 
239.082443 22.312696 
239.477997 0.169102 
240.087006 1.077642 
241.061768 0.441939 
242.723145 0.113791 
245.840942 0.107223 
248.140305 1.340384 
250.074799 0.252361 
250.156113 1.056769 
251.082489 0.845741 
252.134705 0.146548 
253.09819 1.306949 
253.774002 0.105299 
254.186966 0.2695 
255.767426 0.143886 
256.074341 0.124727 
260.1763 0.125379 
262.087311 0.606562 
263.096405 0.162762 
264.07785 4.523555 
264.135345 4.898238 
265.084808 0.507932 
265.099243 0.239206 
266.134827 0.135042 
266.151215 13.488268 
267.077423 0.407757 
267.113495 0.301995 
268.085052 0.202618 
269.039124 0.196973 
275.897949 0.126607 
277.098389 2.21375 
278.070435 0.122789 
278.092957 0.494774 
278.151031 2.662643 
278.847992 0.136822 
279.077515 1.32659 
279.113922 27.922773 
280.117371 0.857645 
280.16684 82.208588 
280.527191 0.104392 
281.093658 0.500679 
281.169922 9.112333 
282.088196 0.835722 
283.095428 0.606285 
284.103882 0.156346 
289.084717 1.083129 
289.448303 0.146405 
289.981812 0.12149 
290.092255 0.198513 
291.099579 0.186948 
292.072601 0.716858 
292.109375 8.879996 
293.080078 9.230126 
293.112488 0.135585 
294.088379 6.247466 
294.662262 0.12577 
297.544861 0.12278 
303.113068 0.132007 
304.073273 0.636098 
304.109772 3.097974 
304.139252 1.882699 
304.992737 0.104959 
305.093842 4.363979 
305.130157 0.563384 
306.088074 0.840389 
306.125122 0.303925 
307.109863 0.162723 
307.128448 0.151304 
308.067963 2.953663 
308.103699 2.730399 
309.075104 1.089383 
310.121368 0.211916 
310.777649 0.120169 
316.108734 0.372026 
317.115387 0.145094 
318.08963 0.604154 
318.121979 0.107712 
318.169525 0.313858 
319.083527 5.951891 
319.110046 0.634882 
320.067719 0.17351 
320.103912 31.131256 
321.111359 41.291008 
322.084442 1.19895 
322.119629 48.330788 
323.124359 5.912805 
323.210175 0.146245 
324.099182 3.081126 
324.132721 0.20373 
330.088745 2.101108 
331.177826 1.001534 
332.104553 1.982911 
332.140839 16.558245 
332.160614 0.525372 
333.144043 0.524165 
334.083923 0.439594 
334.11969 9.741872 
335.091949 0.306925 
335.126648 3.640182 
336.100586 12.096764 
336.133453 0.142717 
337.095337 3.805548 
338.07959 0.140244 
338.115082 7.174843 
344.103729 0.300393 
345.099426 5.85648 
346.10611 27.3857 
347.11499 100.0 
348.09787 3.220843 
348.117188 11.819805 
348.137024 4.320271 
349.106049 0.549077 
349.142517 5.559705 
349.188202 3.979907 
350.114594 2.393217 
350.150452 1.95676 
352.093903 11.346171 
353.097382 0.776297 
357.101227 0.293625 
358.120117 5.188432 
359.11554 6.134713 
360.098755 0.935707 
360.119659 0.274033 
360.137695 0.246804 
360.172119 0.956299 
361.106262 0.390037 
361.130585 2.03066 
362.115021 1.995498 
362.151642 2.211081 
363.110107 7.956959 
363.20459 0.192342 
363.66748 0.133417 
364.117889 18.419479 
365.125305 49.838726 
366.10849 5.199613 
366.129974 4.086428 
367.11853 3.351707 
368.77713 0.236239 
370.106873 1.962793 
370.145111 0.136938 
371.112335 0.29798 
372.121857 0.148189 
373.130585 1.011085 
374.151672 1.589717 
375.109955 5.884819 
375.146484 4.628795 
375.469543 0.130375 
376.12973 4.806893 
377.125763 8.683084 
378.131561 1.51959 
379.235443 18.109579 
380.238373 0.848165 
381.133667 0.395291 
385.130798 20.049566 
386.136566 4.095065 
387.146606 66.707558 
388.126312 1.045978 
388.151093 11.006366 
389.126617 2.040844 
389.161987 3.987894 
389.318298 0.225471 
390.13736 0.277142 
391.141144 3.40657 
392.144104 0.167187 
399.065582 0.118823 
399.146088 0.577474 
401.124542 0.60417 
402.133087 0.575919 
402.182373 2.58404 
403.105011 6.405999 
403.141083 18.068871 
403.176025 1.654946 
404.108093 0.272746 
404.149323 20.234745 
405.157043 39.894554 
405.215363 0.237214 
406.161285 6.861389 
414.120544 0.206117 
415.171692 0.163699 
416.182312 0.19132 
417.156189 2.192998 
418.162933 0.135573 
419.172668 0.601625 
421.151642 1.036273 
423.674042 0.202982 
427.141876 0.123997 
429.144867 4.114544 
430.152588 1.467475 
430.186401 0.175255 
431.135986 30.572908 
431.167999 1.609546 
431.206604 0.623486 
432.139343 5.38658 
442.153809 1.543773 
442.188507 5.0143 
443.163666 0.498795 
443.208954 0.473154 
444.167999 1.554467 
446.149139 0.148862 
448.16333 2.584949 
451.559174 0.235877 
456.168365 0.660757 
458.183685 9.417117 
459.201263 0.292929 
460.163116 7.436484 
460.198639 1.909033 
461.165344 0.391668 
468.203583 1.423354 
469.187378 1.213773 
470.184723 1.591809 
471.195068 0.142654 
472.162048 0.26431 
474.178558 8.259735 
475.185425 4.421562 
476.194 1.057423 
484.161957 0.123536 
484.199097 4.631264 
485.204681 0.970176 
486.178497 2.988772 
486.215118 42.061779 
487.218475 8.709024 
488.193909 24.67107 
489.197845 4.582751 
490.288483 0.133467 
492.455536 0.215449 
502.210022 16.267357 
503.216553 7.325088 
504.222595 0.62559 
512.191223 0.159908 
515.225647 0.11889 
516.233093 0.153475 
523.911133 0.125124 
528.227356 0.174009 
529.242432 0.131459 
532.265198 0.126388 
543.834778 0.173049 
544.257935 5.922256 
545.259766 0.469686 
548.716064 0.12027 
557.225281 1.043402 
559.232727 0.162549 
564.851685 0.126578 
569.253174 0.111049 
571.23175 1.350317 
572.203674 0.135068 
572.249939 9.049489 
573.253418 1.56623 
584.500427 0.137207 
585.656189 0.135595 
591.349548 0.122992 
599.263855 6.357577 
600.268738 1.516695 
610.243164 0.14701 
613.27771 0.34172 
615.256042 0.184549 
620.635925 0.133627 
628.25293 0.123129 
642.268982 0.16756 
643.275208 0.697542 
644.284851 0.332701 
647.793518 0.129108 
647.916992 0.147246 
650.276245 0.163171 
654.310852 0.154927 
655.291992 0.56671 
656.287659 1.339983 
658.299805 0.564579 
668.290527 0.129604 
670.302551 2.756337 
671.306519 1.176824 
672.316162 0.687363 
672.949036 0.162342 
675.077698 0.19772 
681.832581 0.130572 
683.536438 0.126663 
689.768677 0.151322 
698.296082 1.382557 
701.915222 0.168556 
709.515198 0.21827 
709.696899 0.987222 
720.425659 0.164261 
725.342712 0.130347 
727.339722 0.141382 
742.361145 0.110132 
748.977356 0.115628 
750.384216 0.139964 
756.371277 0.163043 
757.36792 0.252362 
763.556396 0.142524 
769.369202 2.163997 
777.22467 0.158104 
784.392639 0.254167 
785.399536 0.999984 
786.40918 0.149818 
798.371033 0.178413 
818.885376 0.146263 
821.919739 0.14223 
825.214905 0.125458 
832.279724 0.162462 
852.326233 0.128194 
921.565186 0.150512 
948.86377 0.214866 
972.15033 0.183081 
1011.410645 0.209578 
1011.793884 0.135137 
1049.985352 0.143692 
1107.109131 0.147764 
1132.370483 0.13714 
1141.567261 0.147294 
1169.556641 0.126439 
1212.900146 0.168573 
1244.238647 0.14742 
END IONS

