BEGIN IONS
PEPMASS=247.108
CHARGE=1+
COMPOUNDNAME=N-acetyltryptophan
LIBRARYQUALITY=3
SMILES=N/A
INCHIKEY=DZTHIGRZJZPRDV-UHFFFAOYSA-N
INCHI=InChI=1S/C13H14N2O3/c1-8(16)15-12(13(17)18)6-9-7-14-11-5-3-2-4-10(9)11/h2-5,7,12,14H,6H2,1H3,(H,15,16)(H,17,18)
MSLEVEL=2
SOURCE_INSTRUMENT=N/A-ESI-QFT
FILENAME=library_mgf.mgf
SEQ=*..*
IONMODE=positive
ORGANISM=MONA
NAME=N-acetyltryptophan [M+H]+
PI=MoNA
DATACOLLECTOR=MoNA:VF-NPL-QEHF000858
PUBMED=N/A
SUBMITUSER=mwang87
TAGS=
SPECTRUMID=CCMSLIB00004691921
SCANS=858
50.732437 0.021373 
51.473045 0.116108 
52.879444 0.056059 
52.953072 0.026162 
53.838943 0.020384 
54.127937 0.081983 
54.128941 0.02608 
54.129631 0.036397 
54.706181 0.023205 
55.018608 0.612825 
55.054996 1.006474 
55.438763 0.042691 
55.580788 0.018729 
55.835522 0.020098 
55.935169 0.182913 
56.050255 0.456168 
56.965565 0.404699 
57.523144 0.019515 
57.692867 0.045112 
57.695587 0.028197 
57.884872 0.023258 
57.929398 0.058219 
57.935532 0.245403 
57.939911 0.030215 
58.065853 0.314617 
58.695457 0.026764 
59.049919 0.238276 
60.045139 0.54347 
60.51918 0.027468 
61.011353 2.597562 
61.191406 0.035343 
61.941345 0.050393 
62.01918 7.220934 
62.924305 0.029257 
63.130821 0.023332 
63.436283 0.030425 
64.141426 0.049904 
65.328712 0.030811 
66.243057 0.061218 
66.669632 0.024264 
66.707169 0.019967 
67.054924 0.504092 
67.993195 0.017293 
68.207893 0.055178 
68.782776 0.032766 
69.070564 0.748461 
70.065788 1.09948 
70.182281 0.026064 
70.29747 0.022109 
70.343666 0.020704 
71.049858 0.021079 
71.066544 0.020902 
71.086128 0.035686 
71.405792 0.025127 
71.471741 0.044046 
71.486038 0.020785 
71.930038 0.125701 
72.045029 0.031501 
72.081429 0.895533 
72.084236 0.019394 
72.407021 0.021536 
72.937798 0.359323 
73.029198 0.032665 
73.296349 0.027811 
73.633514 0.049601 
73.703796 0.021561 
74.024307 1.670789 
74.060677 0.065254 
74.77916 0.022307 
75.629585 0.029009 
76.201538 0.021748 
77.000168 0.042885 
77.767708 0.04233 
79.021805 0.099619 
79.054794 0.14754 
79.269409 0.023722 
80.585236 0.024066 
80.740692 0.055853 
81.070465 0.095679 
81.237679 0.033159 
81.381226 0.023988 
81.696991 0.022128 
81.85228 0.022499 
82.073875 0.025168 
82.206909 0.027062 
83.086227 0.03371 
83.38797 0.02328 
83.973686 0.023529 
84.045021 0.201737 
84.081352 0.246152 
84.727768 0.054418 
84.80497 0.022356 
84.920341 0.022392 
85.02906 0.046649 
85.040405 0.021038 
85.065468 0.030916 
85.945969 0.266522 
86.041832 0.028502 
86.060577 0.024914 
86.069031 0.026504 
86.096947 1.78513 
86.438225 0.022774 
86.456017 0.029981 
87.278748 0.02815 
87.69487 0.056319 
87.906586 0.06732 
88.039787 1.54378 
88.268929 0.029763 
89.232422 0.023027 
89.587082 0.030358 
89.829056 0.024714 
89.906891 0.929725 
90.903702 6.342663 
90.948204 0.075139 
91.054749 1.859368 
91.392326 0.021451 
91.903954 0.119385 
91.968155 0.035679 
92.397217 0.034262 
92.900803 0.721703 
92.903923 0.031724 
93.057449 0.033668 
93.07029 0.066813 
93.704788 0.035552 
94.784119 0.021432 
95.049591 0.036921 
95.085915 0.380907 
95.666161 0.021037 
98.975838 0.06569 
102.372215 0.029624 
103.054604 0.869542 
103.421707 0.048008 
104.213509 0.054397 
104.730774 0.020882 
104.930695 0.023811 
105.070206 0.424597 
105.926872 0.036277 
107.085968 0.080777 
108.914093 5.139201 
110.857155 0.024972 
110.911171 0.526196 
112.112221 0.133713 
114.115402 0.027411 
114.563782 0.02205 
115.054482 11.254917 
116.049736 0.328384 
116.057785 0.541215 
116.351028 0.029371 
117.057541 5.014695 
117.070091 4.04543 
118.065315 57.03709 
119.068695 4.448011 
120.08107 0.025613 
120.913589 0.030569 
122.192451 0.024627 
122.941002 0.162268 
123.235146 0.047373 
123.932251 0.035336 
124.087311 0.028283 
124.9366 0.027888 
125.587013 0.019993 
126.924507 0.278207 
127.955963 0.03389 
128.062042 0.036854 
129.069885 0.646737 
130.017838 0.027847 
130.065186 60.304089 
131.068375 5.655291 
132.044342 0.33842 
132.080811 85.646484 
132.341217 0.044654 
132.354614 0.02753 
132.497025 0.050008 
133.084122 7.763421 
134.248444 0.031639 
134.9785 0.07068 
135.009766 0.052826 
135.183228 0.0267 
136.676208 0.024178 
137.278778 0.020552 
137.927963 1.172556 
138.935806 0.024382 
140.049805 0.04579 
141.242828 0.022428 
141.707138 0.06119 
141.987289 0.059649 
142.065094 27.31599 
143.068573 1.302448 
143.073257 8.056436 
143.25386 0.047386 
144.044373 1.021548 
144.08075 27.668024 
145.052078 0.019599 
145.064804 0.320908 
145.077454 0.035609 
145.084015 2.618153 
145.966583 2.09227 
146.059982 100.0 
147.05719 0.332093 
147.063263 9.040124 
148.066986 0.024265 
149.2836 0.031447 
150.634613 0.037573 
152.238235 0.026772 
152.896866 1.377979 
152.951584 0.100927 
153.893631 12.965112 
154.893692 0.36236 
154.947159 0.037237 
155.060349 0.670517 
155.071487 0.026633 
155.890182 2.161747 
156.080765 1.998238 
156.138763 0.035763 
156.608551 0.0595 
156.946289 0.038226 
157.076019 1.621928 
157.082886 0.022339 
157.163696 0.024185 
158.060059 1.228214 
158.084091 4.093621 
158.096085 0.230972 
158.267395 0.021738 
159.091644 94.681778 
159.788849 0.025713 
160.068588 0.040918 
160.075623 12.442809 
160.083435 0.034593 
160.08786 0.55129 
160.094955 9.272142 
160.482895 0.022776 
161.078842 0.936527 
161.098404 0.066906 
161.256165 0.030122 
163.591492 0.018704 
163.976959 1.068149 
167.410538 0.057565 
167.920227 0.146785 
168.081055 0.034134 
168.917099 8.528048 
169.075958 6.032786 
169.083878 0.069893 
169.917252 0.143398 
170.059937 37.765896 
170.078354 0.080769 
170.907028 0.853991 
170.914474 1.238678 
171.063293 4.154288 
171.090759 0.033866 
171.90416 17.8249 
171.912766 0.223756 
172.075348 0.03041 
172.904556 0.402951 
172.988617 0.093862 
173.188614 0.051044 
173.90097 3.787209 
174.091263 0.06626 
176.070572 0.278635 
183.091705 2.173032 
184.075745 0.852831 
184.095657 0.043458 
185.070679 0.029896 
185.920074 0.406008 
185.930191 0.259713 
186.927673 12.379047 
187.086395 0.228754 
187.928085 0.290986 
188.070496 15.914551 
188.924652 2.420179 
189.073929 1.553962 
189.914841 0.250966 
190.891388 0.02444 
199.627075 0.053153 
200.943512 0.103886 
201.065948 0.121996 
201.102417 0.097901 
202.086563 0.035114 
202.405899 0.055452 
203.762085 0.05856 
203.894241 0.152094 
204.938843 0.022558 
214.658844 0.02385 
219.715698 0.187435 
219.727676 0.090759 
220.076233 0.020658 
220.997757 0.029586 
232.364243 0.032579 
236.933899 0.026294 
248.091156 0.034177 
253.470108 0.04665 
END IONS

