BEGIN IONS
PEPMASS=319.976
CHARGE=1+
COMPOUNDNAME=Isocycloheximide
LIBRARYQUALITY=3
SMILES=N/A
INCHIKEY=YPHMISFOHDHNIV-UHFFFAOYSA-N
INCHI=InChI=1S/C15H23NO4/c1-8-3-9(2)15(20)11(4-8)12(17)5-10-6-13(18)16-14(19)7-10/h8-12,17H,3-7H2,1-2H3,(H,16,18,19)
MSLEVEL=2
SOURCE_INSTRUMENT=N/A-Linear Ion Trap
FILENAME=library_mgf.mgf
SEQ=*..*
IONMODE=positive
ORGANISM=MONA
NAME=Isocycloheximide M-H
PI=MoNA
DATACOLLECTOR=MoNA:VF-NPL-LTQ005739
PUBMED=N/A
SUBMITUSER=mwang87
TAGS=
SPECTRUMID=CCMSLIB00004689307
SCANS=4928
224.020004 1.06345 
241.789993 94.513046 
255.979996 3.872944 
257.799988 100.0 
275.980011 10.076597 
287.059998 5.343493 
301.040009 5.170316 
END IONS

