BEGIN IONS
PEPMASS=266.139
CHARGE=1+
COMPOUNDNAME=Massbank:BML00905 Anisomycin
LIBRARYQUALITY=3
SMILES=CC(=O)OC1C(CNC1CC2=CC=C(C=C2)OC)O
INCHIKEY=YKJYKKNCCRKFSL-UHFFFAOYSA-N
INCHI=1S/C14H19NO4/c1-9(16)19-14-12(15-8-13(14)17)7-10-3-5-11(18-2)6-4-10/h3-6,12-15,17H,7-8H2,1-2H3
MSLEVEL=2
SOURCE_INSTRUMENT=ESI-LC-ESI-QTOF
FILENAME=Massbank_ESI_positive_8_1_2014_peaks.mgf
SEQ=*..*
IONMODE=Positive
ORGANISM=MASSBANK
NAME=Massbank:BML00905 Anisomycin [M+H]+
PI=Putative Massbank Match
DATACOLLECTOR=Massbank
PUBMED=N/A
SUBMITUSER=mwang87
TAGS=
SPECTRUMID=CCMSLIB00000205100
SCANS=360
114.9436 28.0 
121.0645 1818.0 
121.0919 62.0 
121.1058 21.0 
121.1671 25.0 
144.0597 27.0 
145.065 110.0 
147.0774 98.0 
149.0952 23.0 
150.0906 105.0 
159.0781 155.0 
159.0843 62.0 
161.0939 66.0 
163.0706 22.0 
163.0938 26.0 
171.0818 30.0 
173.9651 21.0 
176.1075 24.0 
177.0903 28.0 
188.1042 567.0 
188.1333 23.0 
189.0884 77.0 
206.1156 1801.0 
206.1584 75.0 
206.2518 23.0 
224.1227 82.0 
224.1525 21.0 
266.1365 3661.0 
END IONS

