BEGIN IONS
TITLE=Scan Number: 1347
PEPMASS=251.091
CHARGE=1+
COMPOUNDNAME=Citrinin_120248
LIBRARYQUALITY=2
SMILES=OC(C(C(C(C)=C1[C@@H]2C)=O)=C(O)C1=CO[C@@H]2C)=O
INCHIKEY=CQIUKKVOEOPUDV-IYSWYEEDSA-N
INCHI=N/A
MSLEVEL=2
SOURCE_INSTRUMENT=LC-ESI-qToF
FILENAME=P1_C3_conc_GA3_01_2409.mzXML
SEQ=*..*
NOTES=
IONMODE=Positive
ORGANISM=GNPS-LIBRARY
NAME=Citrinin_120248 M+H
SPECTRUMID=CCMSLIB00000478087
ACTIVATION=CID
INSTRUMENT=ion trap
SCANS=1347
95.086174 256.0 
105.071236 712.0 
107.012245 832.0 
107.04776 472.0 
116.060532 356.0 
119.086029 1376.0 
121.065186 648.0 
121.101006 272.0 
123.079483 424.0 
129.07164 332.0 
131.084076 1568.0 
135.083191 364.0 
137.09613 1156.0 
141.070145 544.0 
144.055695 484.0 
145.065094 256.0 
147.046738 744.0 
147.07991 3392.0 
148.081436 376.0 
149.057877 472.0 
159.080627 1192.0 
162.067062 1220.0 
162.976349 724.0 
163.041092 616.0 
163.077118 408.0 
164.047729 380.0 
165.088715 340.0 
169.064713 1336.0 
172.053696 532.0 
175.039764 1100.0 
177.01683 1328.0 
177.087921 448.0 
181.052094 440.0 
185.058594 600.0 
187.077362 1236.0 
188.071472 560.0 
189.051636 728.0 
189.090546 380.0 
190.06456 1496.0 
191.037338 280.0 
191.069199 3640.0 
192.071884 724.0 
202.583542 272.0 
203.032776 2208.0 
203.067993 612.0 
203.572403 264.0 
204.040146 576.0 
205.043076 696.0 
205.084915 9952.0 
206.08905 560.0 
209.081711 540.0 
211.577713 576.0 
213.072678 264.0 
215.069885 2980.0 
216.075211 640.0 
218.054901 1644.0 
219.059387 360.0 
231.063919 292.0 
233.081039 60424.0 
234.083527 8040.0 
235.084091 1968.0 
251.091354 26304.0 
252.09433 2996.0 
253.094818 824.0 
290.134125 412.0 
304.153198 256.0 
326.132996 448.0 
344.135376 308.0 
360.106079 392.0 
362.144684 356.0 
363.145538 644.0 
END IONS

