BEGIN IONS
PEPMASS=353.079
CHARGE=1+
COMPOUNDNAME=Griseofulvin
LIBRARYQUALITY=3
SMILES=N/A
INCHIKEY=DDUHZTYCFQRHIY-RBHXEPJQSA-N
INCHI=InChI=1S/C17H17ClO6/c1-8-5-9(19)6-12(23-4)17(8)16(20)13-10(21-2)7-11(22-3)14(18)15(13)24-17/h6-8H,5H2,1-4H3/t8-,17+/m1/s1
MSLEVEL=2
SOURCE_INSTRUMENT=N/A-ESI-QFT
FILENAME=library_mgf.mgf
SEQ=*..*
IONMODE=positive
ORGANISM=MONA
NAME=Griseofulvin [M+H]+
PI=MoNA
DATACOLLECTOR=MoNA:VF-NPL-QEHF001077
PUBMED=N/A
SUBMITUSER=mwang87
TAGS=
SPECTRUMID=CCMSLIB00004692140
SCANS=1077
50.37891 0.020113 
50.90324 0.023015 
51.018497 0.015686 
51.697842 0.032379 
52.457958 0.038127 
52.586788 0.031724 
52.667095 0.031511 
52.997822 0.047487 
53.002926 1.748411 
53.039291 1.101629 
53.081581 0.054732 
53.556988 0.023977 
53.99815 0.129675 
55.018555 0.396991 
55.05489 0.222141 
55.11153 0.032102 
55.191582 0.058254 
55.312595 0.047641 
56.058456 0.022581 
56.364338 0.056736 
58.381374 0.02288 
58.53447 0.023777 
58.732727 0.020062 
58.949493 0.054192 
59.049828 0.0309 
59.061035 0.070432 
59.705177 0.036595 
60.820358 0.030846 
61.011314 0.027062 
61.413948 0.034738 
61.878899 0.033911 
63.243385 0.056533 
64.048706 0.035325 
64.662659 0.030745 
64.857239 0.059841 
65.039261 0.882369 
65.10688 0.058526 
65.662918 0.039526 
65.960953 0.05146 
66.047028 0.51479 
66.139267 0.058988 
66.28022 0.084387 
66.355522 0.021018 
66.448425 0.026781 
67.054886 0.525185 
67.597099 0.032784 
67.989891 0.037226 
68.997749 2.564775 
69.034119 100.0 
69.070496 0.363217 
69.13031 0.021972 
69.216988 0.016677 
69.449837 0.016664 
70.037483 3.404353 
71.320503 0.034597 
72.756752 0.032123 
73.047386 1.606198 
73.049362 0.023465 
73.812668 0.020844 
74.262527 0.029869 
74.646767 0.021101 
74.733704 0.030793 
74.915192 0.021977 
77.039192 0.61005 
77.084892 0.032976 
79.018501 0.117644 
79.054787 5.488558 
79.868858 0.059701 
80.026131 0.040171 
80.058121 0.044755 
81.033966 0.141502 
81.070404 1.667859 
81.466766 0.052837 
82.604515 0.047405 
83.04969 0.020848 
85.014343 0.089824 
87.000107 0.208307 
88.859604 0.018626 
89.825844 0.052684 
90.05928 0.0489 
90.58654 0.059945 
91.054642 1.10444 
91.057762 0.977843 
92.720985 0.031883 
93.070259 0.140719 
93.969025 0.036757 
94.038559 0.04145 
94.041687 2.091785 
95.049522 4.270778 
95.085747 0.072477 
95.474983 0.021734 
95.758339 0.046978 
96.185272 0.075037 
96.456841 0.020359 
96.731522 0.023999 
97.149002 0.034495 
98.999985 0.82657 
99.04435 0.159289 
100.37706 0.026075 
101.832008 0.021148 
102.994881 0.27426 
103.054497 0.02466 
103.222145 0.079514 
103.443993 0.134337 
103.447227 0.155801 
103.98317 0.05521 
105.033546 0.079678 
105.044991 1.059785 
105.069977 0.043507 
106.383736 0.01793 
107.013092 0.066945 
107.049423 6.919596 
107.648743 0.020673 
108.052589 0.019934 
109.064995 2.240488 
109.277679 0.016855 
109.912827 0.035721 
110.008865 0.032926 
110.220268 0.034906 
111.590477 0.057671 
111.83078 0.033292 
114.065582 0.045001 
114.167915 0.01641 
114.994781 0.468907 
115.053978 0.021411 
115.299652 0.017119 
115.391335 0.055145 
116.793716 0.016364 
117.522926 0.079759 
117.728943 0.019614 
118.574333 0.029371 
118.645889 0.056343 
119.049316 0.327959 
121.064957 0.070219 
122.036293 17.994869 
123.039551 0.52358 
123.044167 0.224577 
124.052032 0.026351 
125.059746 1.85108 
125.645111 0.03915 
126.920006 0.038983 
126.994629 0.148075 
127.879051 0.061578 
128.357956 0.027833 
128.973785 0.715371 
129.010162 1.577589 
131.904266 0.036508 
133.446945 0.018056 
135.044037 1.53334 
135.055328 0.593963 
136.047684 0.051843 
137.059631 0.661305 
139.031342 0.05313 
139.560471 0.036419 
139.848831 0.046037 
141.264404 0.036014 
141.981537 0.674196 
142.989609 0.510771 
143.997192 0.84926 
145.064896 0.038865 
145.80249 0.088053 
147.0439 0.301911 
147.307632 0.039113 
150.03096 7.939992 
151.034286 0.133612 
153.836304 0.037816 
154.307587 0.049154 
154.394058 0.019022 
154.989075 0.033471 
156.96843 1.1888 
157.005157 0.152292 
158.965744 0.122914 
159.020462 0.286921 
159.323624 0.045735 
161.059647 0.455556 
161.677399 0.038305 
162.067383 0.538207 
162.795471 0.034897 
164.430573 0.018303 
165.054489 48.889969 
165.253372 0.035864 
166.057785 3.852122 
167.025085 0.024702 
168.034683 0.044336 
168.041443 3.058938 
169.041077 0.027067 
169.506256 0.023562 
169.976303 1.474945 
170.984283 0.795222 
171.991913 13.031434 
172.995453 0.472628 
173.060059 0.026648 
173.989105 2.04778 
174.979172 0.086328 
175.015381 0.063045 
175.039169 0.062527 
175.447922 0.088712 
175.683792 0.039204 
175.985672 0.065067 
179.060196 1.372193 
180.063324 0.115716 
181.004532 0.028398 
182.984497 0.076453 
185.000153 0.380761 
186.327957 0.028734 
187.015518 0.130247 
187.074356 0.036293 
187.986984 1.436895 
188.994797 0.584023 
189.054276 0.052357 
190.063324 0.02527 
190.890594 0.023888 
190.99382 0.022476 
191.818283 0.031128 
192.463333 0.022469 
193.075668 0.136829 
194.950134 0.075587 
195.021103 0.048621 
196.028732 0.042309 
197.436005 0.024738 
199.986816 11.634118 
200.990921 0.242895 
201.108749 0.046364 
201.983978 1.667569 
204.566757 0.035775 
205.677979 0.057046 
206.083649 0.050254 
207.065033 0.898044 
208.999832 0.106545 
210.00769 0.16945 
211.015717 0.311298 
212.518738 0.020616 
213.320984 0.03664 
214.998779 0.090202 
215.010178 21.208105 
215.070084 0.067811 
216.01384 1.848138 
217.007416 3.204632 
217.997375 11.698073 
219.0009 0.523906 
219.994537 1.87941 
220.238937 0.12868 
220.256439 0.100452 
221.395844 0.025853 
223.086716 0.029197 
224.023224 9.399028 
224.994995 0.120326 
225.027557 0.765886 
226.020416 1.150255 
227.010223 0.421191 
230.338806 0.023391 
233.989105 0.031467 
235.015533 0.540231 
235.122208 0.060036 
237.138016 0.053033 
238.585266 0.030958 
239.01033 0.148405 
240.018158 0.863313 
241.025665 1.937433 
242.057144 0.707255 
243.065079 0.126441 
248.023499 0.026652 
248.383774 0.055163 
249.029266 0.082454 
250.002151 0.068246 
250.039902 0.049505 
250.083344 0.022813 
250.146454 0.033003 
251.080124 0.025736 
252.000443 0.032727 
252.017822 0.837649 
255.005142 0.550737 
255.041458 0.285974 
255.910431 0.035614 
259.122833 0.169809 
261.13855 0.794219 
262.002411 0.06174 
263.010468 0.342317 
263.117096 0.040229 
263.605988 0.061963 
264.018036 0.949321 
265.008057 0.091464 
265.024841 0.122295 
267.023132 0.066864 
268.978027 0.658127 
270.028534 3.3646 
271.031433 0.108178 
272.02533 0.210311 
272.46402 0.020483 
274.145721 0.025677 
275.153107 0.221711 
276.018616 0.095187 
276.159576 0.027154 
276.228516 0.034346 
277.025543 2.885838 
277.168915 0.033737 
277.379303 0.081221 
277.998077 0.31115 
278.03183 0.328515 
279.001129 0.140188 
279.022491 0.088373 
279.041809 0.062235 
279.148956 0.593104 
279.994263 0.437428 
280.151825 0.039539 
285.052216 0.81073 
286.057037 0.065695 
287.051392 0.035402 
292.091339 0.066737 
293.020996 0.711594 
293.039459 0.035297 
294.023956 0.165999 
295.017975 1.137683 
297.245026 0.071238 
299.297363 0.023177 
301.475006 0.03638 
307.989777 0.045366 
309.562927 0.081122 
321.015717 0.395152 
322.018799 0.432637 
323.012604 1.305964 
324.015808 0.039862 
340.380951 0.101485 
360.586823 0.025708 
END IONS

