BEGIN IONS
TITLE=Scan Number: 1
PEPMASS=869.383
CHARGE=1+
COMPOUNDNAME=Microsclerodermin M
LIBRARYQUALITY=1
SMILES=N/A
INCHIKEY=QHVAQCHLFYOGDB-WMCSLGIDSA-N
INCHI=InChI=1S/C44H54N8O12/c1-52-25-37(58)48-31(18-27-22-45-30-16-11-10-15-29(27)30)42(62)47-24-36(57)46-23-28(53)19-34(55)50-39(41(61)43(63)49-33-20-35(56)51-44(33,64)21-38(52)59)40(60)32(54)17-9-4-2-3-6-12-26-13-7-5-8-14-26/h2-16,22,28,31-33,39-41,45,53-54,60-61,64H,17-21,23-25H2,1H3,(H,46,57)(H,47,62)(H,48,58)(H,49,63)(H,50,55)(H,51,56)/b3-2+,9-4+,12-6+/t28-,31-,32+,33-,39-,40-,41+,44-/m1/s1
MSLEVEL=2
SOURCE_INSTRUMENT=LC-ESI-Hybrid Ft
FILENAME=MicroscleroderminM_M-H2O+H_CID_maxis4G.mgf
SEQ=*..*
NOTES=
IONMODE=Positive
ORGANISM=GNPS-LIBRARY
NAME=Microsclerodermin M M+H-H2O
SPECTRUMID=CCMSLIB00000427299
ACTIVATION=CID
INSTRUMENT=ion trap
SCANS=1
169.103165 315.0 
207.115387 215.0 
210.087234 1343.0 
211.091507 256.0 
221.055817 226.0 
224.067474 367.0 
230.129349 445.0 
231.127136 208.0 
245.095963 249.0 
258.124146 1883.0 
259.125397 271.0 
263.106689 401.0 
266.080322 252.0 
280.131531 427.0 
281.116669 471.0 
298.140869 234.0 
315.145691 1210.0 
316.148407 252.0 
321.151947 230.0 
325.115723 223.0 
327.155182 245.0 
328.13092 282.0 
345.158295 212.0 
353.182007 223.0 
368.169342 289.0 
374.183411 282.0 
379.141876 200.0 
381.148743 193.0 
396.16568 1076.0 
397.171631 215.0 
401.149994 468.0 
402.154999 453.0 
416.191589 327.0 
417.197662 438.0 
418.17691 382.0 
419.159912 705.0 
420.167694 219.0 
433.218964 583.0 
434.220734 193.0 
436.184906 542.0 
438.20163 219.0 
453.186615 241.0 
454.197174 1474.0 
455.198761 464.0 
456.210571 850.0 
457.217316 367.0 
470.214813 230.0 
474.222931 1080.0 
475.226013 412.0 
476.223267 204.0 
478.194855 308.0 
482.182465 219.0 
484.193756 230.0 
491.201447 193.0 
502.195312 271.0 
507.222534 423.0 
519.222046 390.0 
537.23468 546.0 
538.235352 241.0 
539.238892 234.0 
541.228027 356.0 
545.257935 494.0 
550.260559 223.0 
552.241028 204.0 
555.244263 1653.0 
556.24292 442.0 
558.234558 330.0 
559.232361 230.0 
565.22699 271.0 
576.242859 1063.0 
577.245667 572.0 
586.289307 234.0 
592.248352 275.0 
594.255432 2559.0 
595.256958 1303.0 
596.265259 349.0 
608.266296 431.0 
612.266602 1648.0 
613.268372 998.0 
626.282776 523.0 
627.282471 230.0 
629.269775 212.0 
639.25061 238.0 
642.290344 200.0 
647.283508 364.0 
660.299377 690.0 
661.29718 189.0 
665.291504 1188.0 
666.289185 412.0 
667.305176 264.0 
681.275574 241.0 
682.298279 226.0 
683.302368 1139.0 
684.306946 442.0 
691.269958 208.0 
695.312866 189.0 
696.313293 197.0 
699.267456 393.0 
704.303711 278.0 
713.327637 776.0 
714.332825 399.0 
715.326721 293.0 
722.312622 609.0 
723.318542 282.0 
724.3172 200.0 
731.338928 5437.0 
732.341492 2472.0 
733.344543 794.0 
739.303833 249.0 
740.30896 252.0 
768.343018 197.0 
780.331726 563.0 
781.332703 586.0 
798.344788 531.0 
799.357056 212.0 
805.366699 204.0 
806.370117 208.0 
808.390625 241.0 
817.347412 271.0 
823.375916 223.0 
825.388062 315.0 
826.393982 215.0 
833.360107 1852.0 
834.363403 965.0 
841.38446 557.0 
842.396362 276.0 
851.371704 10971.0 
852.373779 5501.0 
853.374634 1274.0 
854.383179 200.0 
869.382324 14304.0 
870.385925 7336.0 
871.388916 2059.0 
872.392151 345.0 
2138.065674 367.0 
END IONS

