BEGIN IONS
PEPMASS=616.311
CHARGE=1+
COMPOUNDNAME=destruxin A
LIBRARYQUALITY=3
SMILES=N/A
INCHIKEY=XIYSEKITPHTMJT-UHFFFAOYSA-N
INCHI=InChI=1S/C29H47N5O7/c1-9-12-21-27(38)34-16-11-13-20(34)26(37)31-23(18(5)10-2)28(39)33(8)24(17(3)4)29(40)32(7)19(6)25(36)30-15-14-22(35)41-21/h9,17-21,23-24H,1,10-16H2,2-8H3,(H,30,36)(H,31,37)
MSLEVEL=2
SOURCE_INSTRUMENT=N/A-ESI-QFT
FILENAME=library_mgf.mgf
SEQ=*..*
IONMODE=positive
ORGANISM=MONA
NAME=destruxin A [M+K]+
PI=MoNA
DATACOLLECTOR=MoNA:VF-NPL-QEHF017778
PUBMED=N/A
SUBMITUSER=mwang87
TAGS=
SPECTRUMID=CCMSLIB00004708841
SCANS=17778
50.131008 0.050052 
50.381809 0.059199 
50.746471 0.054898 
50.912354 0.059024 
51.129349 0.078264 
51.522228 0.067853 
52.027748 0.053813 
52.11414 0.141419 
52.494949 0.06971 
52.828995 0.058384 
53.190617 0.062235 
53.604446 0.07883 
53.824371 0.085408 
53.847218 0.058641 
53.996639 0.06202 
54.297703 0.068684 
54.31638 0.085844 
54.798412 0.07851 
55.035297 0.057778 
55.054508 0.176003 
55.0625 0.093381 
56.965099 0.943454 
57.070229 0.066912 
57.175701 0.053041 
57.479275 0.064649 
58.065399 1.624757 
58.849598 0.077466 
59.529552 0.075957 
59.592709 0.096061 
59.841232 0.059316 
60.444019 0.060451 
60.514874 0.070773 
60.571457 0.051649 
60.84539 0.061313 
61.18602 0.147576 
61.741451 0.062167 
62.498245 0.057249 
63.115601 0.048647 
63.323139 0.05965 
63.347816 0.050618 
63.405258 0.055121 
63.602139 0.059477 
64.346436 0.039307 
65.140198 0.0485 
65.944077 0.061318 
66.332077 0.071375 
66.983849 0.064008 
67.054192 0.053369 
67.205833 0.068596 
67.566299 0.045608 
68.267288 0.160245 
68.639877 0.13978 
69.048111 0.131927 
69.069962 0.099792 
69.647118 0.061533 
69.658989 0.067758 
69.88858 0.067276 
70.065224 3.185969 
70.105957 0.05006 
70.713364 0.055373 
71.121964 0.058091 
71.234344 0.065507 
71.968719 0.063785 
72.311737 0.057469 
73.209663 0.064241 
73.596352 0.069002 
74.606743 0.052705 
75.102928 0.055882 
76.006638 0.057768 
76.349205 0.107343 
76.630569 0.153478 
78.596405 0.065898 
78.703842 0.050169 
78.712029 0.0506 
79.072098 0.059493 
79.683487 0.050732 
80.049423 0.067988 
80.295853 0.059916 
80.339088 0.064415 
80.522148 0.051418 
80.641548 0.056814 
80.800461 0.094745 
81.03344 0.210662 
81.061066 0.143258 
81.070328 0.161459 
81.377449 0.063017 
82.493675 0.100401 
83.85714 0.146619 
85.583229 0.064511 
85.613914 0.049963 
86.09642 2.65884 
86.310661 0.066467 
86.585526 0.054341 
87.390549 0.048396 
87.408875 0.051201 
87.846062 0.054997 
88.811363 0.07494 
89.041687 0.053068 
89.119675 0.0879 
89.711853 0.057444 
89.81282 0.054271 
91.258987 0.064388 
91.895462 0.056847 
92.50267 0.064141 
92.892242 0.070318 
93.825455 0.065559 
95.049355 0.059305 
95.137627 0.056359 
96.391891 0.076444 
98.795723 0.065695 
99.185379 0.068912 
99.248444 0.055239 
99.505898 0.055479 
99.723801 0.066495 
100.583778 0.05037 
101.184837 0.064685 
101.635628 0.063216 
101.641205 0.098622 
101.766006 0.061582 
104.11039 0.058356 
104.978897 0.069202 
105.950462 0.080884 
107.25589 0.058724 
108.079514 0.052214 
109.017632 0.038473 
110.585419 0.068631 
111.368164 0.052338 
111.550232 0.057097 
111.557106 0.095279 
114.81665 0.063585 
116.783127 0.09451 
117.04895 0.061736 
117.646797 0.089429 
118.431831 0.05706 
121.72493 0.086798 
122.589157 0.073711 
123.657104 0.081517 
124.342049 0.071898 
124.458549 0.080821 
125.071045 0.064891 
128.093277 0.084761 
129.263046 0.067925 
129.285995 0.053887 
130.763397 0.096755 
131.118256 0.057621 
132.958069 0.365402 
133.616653 0.054004 
134.363876 0.082875 
135.154907 0.072402 
136.000137 0.056951 
139.114655 0.051111 
140.199173 0.064705 
140.380966 0.083452 
140.672913 0.065188 
141.842621 0.145745 
141.966614 0.090485 
146.021088 0.159664 
147.243195 0.072283 
148.051346 0.056558 
148.972183 0.115721 
149.172943 0.054517 
149.777359 0.081979 
150.059601 0.063485 
152.866241 0.049591 
153.066101 0.059475 
153.378616 0.054877 
154.123138 0.054097 
154.499908 0.061409 
156.033218 0.338605 
156.289749 0.058131 
157.97113 0.152084 
159.380371 0.064933 
160.134125 0.073229 
161.091278 0.053575 
164.228577 0.063088 
169.390274 0.064118 
171.100845 0.052632 
171.459244 0.069519 
174.043732 0.055675 
174.72319 0.063166 
174.921799 0.070079 
180.88829 1.85583 
182.665268 0.048353 
183.767685 0.071735 
185.126068 0.05437 
186.878647 1.802757 
188.830811 0.061935 
188.981369 0.097958 
190.064072 0.05623 
192.277985 0.061343 
201.23764 0.056903 
204.888184 14.065829 
207.454742 0.056008 
208.703186 0.045205 
212.065842 0.107317 
219.668396 0.869044 
219.677917 0.902089 
220.903351 1.916669 
221.490585 0.056159 
221.891037 1.366493 
221.904724 0.080713 
222.15799 0.08004 
222.898682 100.0 
223.899902 4.816615 
224.902832 0.64665 
228.892426 0.060948 
229.896027 2.254968 
230.896408 0.193917 
231.983047 0.050055 
234.996017 0.074416 
236.519821 0.053062 
236.914734 0.835468 
237.922272 1.7411 
238.893295 1.694306 
238.914185 1.55853 
239.901505 9.56354 
239.915192 0.492631 
240.909317 79.247459 
240.983627 0.087196 
241.910507 4.153221 
242.912827 0.219344 
245.891296 1.007824 
246.898651 0.227286 
247.906921 0.332235 
249.437241 0.075944 
249.45874 0.101163 
250.487808 0.037178 
250.780807 0.080806 
254.925385 0.368845 
256.355164 0.052099 
258.808899 0.313513 
259.125519 0.049646 
261.894867 0.056395 
263.901428 27.929749 
264.908508 2.242894 
279.916687 1.790724 
280.668457 0.059319 
280.903625 1.123533 
280.919037 0.202286 
281.912109 97.020073 
282.91394 7.268713 
282.961609 0.067217 
283.915955 0.921198 
285.816284 0.072211 
290.612518 0.044633 
292.318817 0.179949 
293.200104 0.042959 
293.820618 0.754918 
294.827576 0.652411 
295.927704 0.574813 
301.827393 0.407407 
305.382202 0.07157 
310.428406 0.078906 
310.823608 1.06119 
311.495483 0.058943 
311.831024 2.523327 
312.839111 3.76556 
314.657562 0.052764 
315.92215 0.059176 
318.828278 4.202484 
319.836365 15.672544 
320.838104 0.901151 
326.818146 2.060561 
327.332245 0.06621 
327.825928 2.832424 
328.833984 3.583606 
329.841217 0.563394 
332.000946 0.073925 
333.815369 1.564492 
335.180847 0.069052 
335.830902 15.062731 
335.852814 0.198849 
336.838806 27.685207 
337.845917 7.174224 
338.846802 0.47853 
338.912079 0.039043 
339.277588 0.054707 
344.829803 3.881532 
351.673828 0.080248 
351.8255 1.381389 
352.833313 0.327837 
353.818939 0.221182 
353.841766 22.747606 
353.866302 0.257833 
354.847504 4.081542 
355.279938 0.078046 
358.843903 1.444516 
359.84491 0.763591 
360.838898 79.62571 
361.841034 9.946622 
362.841431 1.046562 
369.836548 17.794773 
369.861786 0.151464 
370.839874 1.87803 
371.471771 0.060192 
371.852448 0.883853 
372.854004 0.188864 
378.849548 15.670505 
379.851501 1.226056 
387.847412 2.139829 
389.213226 0.068358 
394.844482 1.270842 
402.964691 0.113919 
416.69632 0.081869 
429.590088 0.085738 
431.156219 0.068446 
518.514832 0.05551 
547.222778 0.056897 
560.124878 0.074685 
562.670654 0.071654 
571.221924 0.078279 
574.816772 0.062138 
581.609558 0.056171 
582.56781 0.054515 
602.887451 0.181119 
617.465942 0.064018 
617.501221 0.071936 
635.923828 0.095063 
643.399902 0.112349 
END IONS

