BEGIN IONS
PEPMASS=508.29
CHARGE=1+
COMPOUNDNAME=(2E,6E,12E)-18-(2,6-dioxopiperidin-4-yl)-9,11-dihydroxy-8-methoxy-10,12,14-trimethyl-15-oxooctadeca-2,6,12-trienoic acid
LIBRARYQUALITY=3
SMILES=N/A
INCHIKEY=YQDJUXPUIRGKNV-MNOLRWOYSA-N
INCHI=InChI=1S/C27H41NO8/c1-17(21(29)11-9-10-20-15-23(30)28-24(31)16-20)14-18(2)26(34)19(3)27(35)22(36-4)12-7-5-6-8-13-25(32)33/h7-8,12-14,17,19-20,22,26-27,34-35H,5-6,9-11,15-16H2,1-4H3,(H,32,33)(H,28,30,31)/b12-7+,13-8+,18-14+
MSLEVEL=2
SOURCE_INSTRUMENT=N/A-ESI-QFT
FILENAME=library_mgf.mgf
SEQ=*..*
IONMODE=positive
ORGANISM=MONA
NAME=(2E,6E,12E)-18-(2,6-dioxopiperidin-4-yl)-9,11-dihydroxy-8-methoxy-10,12,14-trimethyl-15-oxooctadeca-2,6,12-trienoic acid [M+H]+
PI=MoNA
DATACOLLECTOR=MoNA:VF-NPL-QEHF001657
PUBMED=N/A
SUBMITUSER=mwang87
TAGS=
SPECTRUMID=CCMSLIB00004692720
SCANS=1657
50.767696 0.006189 
50.80994 0.005298 
50.847679 0.008329 
51.189304 0.008865 
51.612099 0.007098 
51.760536 0.008665 
52.001225 0.008625 
52.351002 0.009879 
52.554951 0.006513 
52.641281 0.008211 
53.039341 0.1491 
53.346703 0.006387 
53.442802 0.009254 
53.782162 0.006164 
53.802933 0.009824 
54.037193 0.007669 
54.235828 0.005506 
54.430107 0.008292 
54.694305 0.010139 
54.945538 0.009392 
55.018631 0.251113 
55.055004 0.127991 
55.438244 0.01345 
55.464828 0.007503 
56.19191 0.008156 
56.84798 0.007779 
57.03421 0.369594 
57.075108 0.006802 
57.266186 0.010614 
57.419483 0.004255 
58.19997 0.00765 
58.950001 0.010662 
59.023708 0.009605 
59.045986 0.003944 
59.061131 0.078063 
59.257816 0.003808 
59.559788 0.004569 
60.045139 2.247471 
60.10144 0.01053 
60.178101 0.008165 
60.253078 0.009762 
60.64904 0.010826 
60.823662 0.006442 
61.029095 0.1101 
61.172279 0.010085 
61.293941 0.00564 
61.958946 0.006364 
61.979874 0.007724 
62.113644 0.004515 
62.153175 0.007639 
62.358044 0.009905 
63.557476 0.006227 
63.983479 0.006627 
64.244934 0.004488 
64.768532 0.01089 
64.842255 0.007251 
65.046028 0.007982 
65.081963 0.010073 
65.273239 0.010636 
65.536575 0.007592 
65.701141 0.011084 
65.808357 0.007572 
66.108818 0.006564 
66.409721 0.00527 
66.658821 0.009782 
66.844788 0.007917 
66.857727 0.006692 
67.054909 1.06409 
67.307648 0.005704 
67.493179 0.008738 
68.14798 0.007779 
69.034142 0.371379 
69.070511 0.602592 
69.078888 0.007619 
69.37088 0.004022 
69.922897 0.005227 
70.109451 0.003816 
70.321724 0.005149 
70.390091 0.010564 
70.52301 0.007088 
71.049759 0.118475 
71.94075 0.010572 
72.038589 0.006555 
72.685936 0.007031 
72.947845 0.006074 
72.956955 0.006026 
73.591148 0.008324 
74.185448 0.008349 
74.616798 0.007138 
77.039291 0.006777 
77.277222 0.007301 
77.439125 0.007551 
78.191017 0.00698 
78.448051 0.005184 
78.692444 0.010715 
79.008133 0.005702 
79.05484 1.805379 
79.172302 0.007324 
79.242188 0.013078 
79.388847 0.009021 
80.057579 0.005114 
80.80201 0.010171 
81.034073 2.438802 
81.07045 1.404007 
81.15889 0.010405 
81.317642 0.008837 
81.738617 0.006704 
82.824554 0.004084 
83.049698 0.21724 
83.086029 0.12537 
83.20929 0.008204 
83.22216 0.008319 
84.337196 0.010437 
85.0653 0.357322 
85.363495 0.009144 
85.81324 0.011279 
86.184158 0.004567 
87.540726 0.009635 
87.726181 0.007001 
88.594627 0.010383 
88.851326 0.010261 
88.88501 0.006877 
89.060326 0.01432 
91.054756 1.276781 
92.281288 0.011385 
92.907669 0.005458 
93.070335 5.831522 
94.065536 0.769594 
94.073662 0.299444 
94.950966 0.007888 
95.049591 1.503982 
95.086006 1.677082 
95.794304 0.007292 
96.044685 0.038525 
96.081223 0.223327 
96.584755 0.006734 
96.660828 0.00746 
97.065201 0.979107 
97.230659 0.008193 
97.841057 0.010736 
98.368439 0.009612 
98.957726 0.005214 
99.044327 0.055411 
99.165062 0.011443 
99.395836 0.010683 
99.841705 0.006357 
99.885124 0.008456 
100.69558 0.006004 
100.831436 0.0096 
100.834991 0.009556 
100.847015 0.004558 
101.329559 0.006798 
103.054695 0.015504 
103.145958 0.00452 
103.151756 0.008847 
105.033791 0.62607 
105.070251 1.594356 
106.073448 0.022281 
107.049484 1.804868 
107.085854 1.997324 
107.693146 0.013309 
108.052719 0.020603 
108.089081 0.02208 
108.75222 0.007257 
109.065094 1.434038 
109.101486 4.708796 
109.389084 0.008188 
109.587997 0.006321 
109.793381 0.006232 
110.060455 0.0279 
110.068695 0.007765 
110.104782 0.180546 
110.579971 0.011814 
110.813423 0.007894 
111.044151 0.010277 
111.080643 0.90893 
113.060295 0.014466 
113.482399 0.00578 
114.11721 0.007258 
114.406013 0.011398 
114.557755 0.00718 
115.025887 0.005852 
115.198097 0.007718 
115.385223 0.005232 
115.639694 0.005601 
115.680473 0.006538 
116.480179 0.006858 
116.658394 0.008139 
116.872078 0.010621 
117.070076 0.181087 
118.977242 0.008332 
119.049316 0.562114 
119.085754 2.827995 
119.310997 0.011053 
119.779732 0.006141 
120.080978 0.009214 
120.089027 0.0736 
120.507751 0.005099 
120.528809 0.006967 
121.028526 0.187102 
121.060654 0.00993 
121.064941 2.198899 
121.101387 1.334526 
121.910904 0.007682 
121.946136 0.006937 
122.068535 0.010332 
122.870544 0.010245 
123.044205 1.385886 
123.080582 0.975578 
123.117233 0.024756 
124.075653 0.017869 
125.059769 0.402123 
125.538101 0.009589 
126.951492 0.007517 
127.193344 0.007896 
128.070984 0.018027 
129.069977 0.213425 
129.260345 0.010919 
129.441772 0.01246 
129.89476 0.00906 
130.159744 0.008513 
131.049133 0.011394 
131.085602 1.476359 
131.876465 0.007456 
131.972214 0.004354 
132.088959 0.021169 
133.06485 0.614967 
133.101242 3.37902 
133.817627 0.006616 
134.073013 0.006921 
134.104385 0.148492 
134.109436 0.057065 
134.135376 0.007631 
134.213791 0.008532 
134.353027 0.009212 
134.486404 0.007274 
135.04393 0.032081 
135.08049 1.566382 
135.116791 0.239452 
136.075729 0.160048 
137.059647 1.258823 
137.09613 0.863214 
137.609711 0.008402 
138.054932 2.585605 
138.091248 0.753119 
138.42186 0.0072 
139.038757 0.032311 
139.05806 0.016141 
139.075348 0.660085 
139.08876 0.00482 
139.372711 0.004473 
140.070602 22.627304 
141.054581 1.37806 
141.073898 1.379915 
141.119949 0.008733 
141.224411 0.006223 
141.351746 0.010887 
142.491592 0.004491 
142.809128 0.010612 
143.085541 1.401991 
144.093475 0.293965 
145.064743 0.286883 
145.101257 1.976499 
145.752045 0.006898 
146.10434 0.028999 
147.080383 3.514319 
147.116669 0.810312 
148.083557 0.160133 
148.120621 0.010315 
149.053497 0.004613 
149.059631 1.102495 
149.096115 1.23583 
149.132523 0.172023 
149.290146 0.008278 
150.063782 0.011031 
151.075317 0.242142 
151.11174 0.054788 
151.450455 0.008212 
151.569382 0.007588 
152.070877 0.044798 
152.106766 0.017451 
152.669495 0.007334 
153.090591 0.025632 
153.626221 0.008161 
154.086212 3.663515 
154.545242 0.00453 
154.70401 0.007944 
155.070221 0.721651 
155.084976 0.080287 
155.554932 0.010862 
156.073471 0.008454 
156.101837 0.21338 
157.063919 0.011897 
157.101105 1.77143 
158.080887 0.010136 
158.104462 0.020907 
158.812805 0.011334 
159.080399 0.739486 
159.116806 2.249843 
159.274521 0.012052 
160.088623 0.008774 
160.119858 0.0539 
160.763336 0.009776 
161.096024 7.96471 
161.132278 0.113808 
162.061539 0.004666 
162.098267 0.147845 
162.103973 0.926664 
163.075378 0.118688 
163.11174 0.481733 
163.367462 0.009745 
164.070511 1.041745 
165.054657 1.619949 
165.06134 0.006797 
165.090942 0.130768 
165.326996 0.006992 
165.398575 0.009092 
166.086334 0.062884 
167.070236 0.357982 
167.106628 0.150192 
168.093384 0.0157 
169.085861 0.094124 
169.101151 0.633694 
169.623978 0.011252 
171.080429 0.133309 
171.11676 1.344299 
172.096695 0.150911 
172.159668 0.007057 
172.197754 0.00648 
173.09613 1.314209 
173.132523 2.811355 
174.099335 0.022445 
174.135818 0.040495 
175.075378 0.06601 
175.11174 1.210061 
175.147995 0.009594 
176.11998 0.01655 
176.524734 0.007452 
177.091064 0.287424 
177.127563 0.023414 
177.310318 0.008424 
178.086288 0.004703 
178.267731 0.008724 
179.106995 0.00595 
180.10173 0.240244 
180.186096 0.007962 
181.101135 0.197023 
181.122177 0.170936 
181.964035 0.007358 
182.081223 20.808327 
182.125107 0.004801 
183.065262 2.82883 
183.084763 1.739524 
183.116867 2.702044 
184.068405 0.056041 
184.119965 0.153679 
185.081009 0.088113 
185.0961 0.608581 
185.116165 0.010253 
185.132401 0.962051 
185.149689 0.006308 
186.135422 0.009445 
187.074921 0.027376 
187.111725 1.575823 
187.148163 0.397847 
188.11496 0.032532 
188.99202 0.006427 
189.090912 0.141646 
189.127396 0.229185 
190.121552 0.007826 
191.106491 0.299488 
191.143555 0.019043 
192.101913 0.102032 
193.085785 0.093907 
193.101059 0.350802 
194.117615 0.157574 
195.081345 0.004925 
195.101547 0.010092 
195.116867 0.458601 
196.08815 0.038442 
196.119644 0.006257 
197.081085 0.077995 
197.096069 0.09482 
197.132477 1.744302 
197.761993 0.008181 
198.112167 0.061076 
198.136139 0.055439 
199.11171 0.80998 
199.148071 0.279713 
200.091705 15.715619 
200.102646 0.231849 
201.095276 1.347336 
201.12735 2.137079 
202.095398 0.014273 
202.13089 0.061301 
203.106537 0.601758 
203.14328 0.074717 
205.085922 0.013869 
205.122162 0.023867 
206.116623 0.012809 
206.942825 0.008068 
207.101883 0.02449 
207.625122 0.004691 
208.133347 0.066938 
209.096085 0.039901 
209.132645 0.119765 
209.969147 0.00682 
211.111725 3.110948 
211.148071 0.587907 
212.115524 0.211607 
212.128021 0.066622 
213.127487 0.984131 
213.137772 0.008373 
213.163605 0.474349 
213.255402 0.738934 
213.26561 0.516824 
213.277756 0.130457 
214.107437 0.038852 
214.166458 0.019896 
214.483658 0.005175 
214.98764 0.012171 
215.106781 0.057191 
215.142975 1.162967 
216.137833 0.010968 
217.122208 0.435675 
218.153854 0.008059 
218.689194 0.012644 
219.137772 0.60444 
220.718964 0.008212 
221.0784 0.394471 
221.132339 0.049785 
223.111618 0.040715 
223.147949 0.239927 
225.127289 0.191623 
226.947144 0.008173 
227.1064 0.031627 
227.142899 0.057092 
229.122299 2.34497 
229.158401 0.225363 
230.125641 0.142952 
231.137878 0.324963 
231.175003 0.019735 
231.421402 0.005839 
231.443344 0.004993 
232.132828 0.116713 
232.170227 0.012198 
233.11734 0.193068 
233.15303 0.078319 
234.120743 0.005106 
234.148773 0.112025 
234.594543 0.006141 
235.134003 0.009872 
235.149109 0.006379 
235.832489 0.006673 
236.164291 0.145597 
237.079285 0.600653 
237.127075 0.06992 
237.164169 0.011428 
238.078812 0.014406 
239.143097 0.78686 
240.147888 0.023829 
240.620804 0.004944 
241.078873 0.012193 
241.158737 0.855457 
242.161621 0.004572 
242.548615 0.005528 
243.138123 0.125526 
244.132904 0.040444 
244.241257 0.006567 
245.117233 0.399691 
245.153397 0.031419 
246.149048 0.050054 
246.184799 0.008081 
247.13269 100.0 
247.890411 0.008445 
248.136154 14.961065 
248.160736 0.035214 
248.200684 0.007815 
249.126083 0.012381 
249.138824 0.876561 
250.143692 0.463578 
251.144196 0.035497 
252.159195 0.040431 
253.140961 0.011262 
254.152771 0.007709 
255.010361 0.007256 
255.138046 0.252719 
256.16925 0.278027 
256.759308 0.011215 
256.927216 0.008084 
257.153503 1.350903 
257.167755 0.01302 
258.156281 0.011535 
259.16925 2.70055 
260.17276 0.294181 
261.148438 0.361894 
262.143677 4.323814 
263.127625 0.722298 
263.146088 0.622444 
267.137848 0.3433 
267.501587 0.009343 
268.140472 0.013722 
272.164337 0.818591 
273.148254 0.237014 
273.166962 0.033316 
274.179962 3.91893 
275.164551 0.3168 
275.183441 0.678423 
277.15799 0.01157 
277.43396 0.008451 
277.959015 0.008004 
279.138245 0.012594 
280.154083 5.016014 
281.157074 0.816365 
284.257599 0.006669 
285.145111 0.008889 
290.174896 0.718657 
291.158569 0.189765 
291.175903 0.010691 
292.163544 0.008692 
292.190582 1.543488 
293.174072 0.074846 
293.193512 0.097126 
294.169647 0.00802 
294.719208 0.009496 
297.761993 0.007943 
299.925934 0.006966 
300.159149 0.005928 
300.721802 0.006119 
304.111389 0.01189 
306.303467 0.006947 
306.917633 0.009138 
307.226685 0.008448 
308.185272 0.122154 
308.874634 0.009245 
312.236298 0.007406 
312.725952 0.006251 
314.172882 0.006764 
314.59256 0.007123 
316.598083 0.01123 
318.599915 0.012106 
322.179626 0.00605 
322.914093 0.006782 
323.158295 0.006675 
326.174957 0.152603 
326.328491 0.007806 
329.340912 0.007481 
330.220245 0.008395 
335.687927 0.008963 
336.09201 0.009777 
336.194489 0.006203 
340.189758 0.018549 
345.186005 0.00607 
346.034119 0.008491 
346.168091 0.006417 
347.030518 0.006889 
348.399384 0.008711 
350.021423 0.007016 
354.206726 0.005985 
354.426361 0.009411 
358.841156 0.004268 
359.199524 0.004881 
360.838135 0.063729 
363.102112 0.008743 
363.195038 0.008158 
366.706421 0.006951 
367.900604 0.008874 
375.173981 0.008028 
376.225708 0.027267 
376.504608 0.007061 
386.211578 0.01257 
387.197083 0.009944 
387.498718 0.007879 
391.901825 0.010001 
392.986298 0.011142 
394.237701 0.039447 
404.221527 0.190203 
405.205414 0.01265 
405.527435 0.006237 
406.17807 0.010372 
416.455048 0.010627 
419.644531 0.010341 
419.85199 0.041473 
422.232178 0.468778 
423.214294 0.021778 
427.592224 0.009404 
431.762756 0.0085 
438.020355 0.007095 
440.243225 0.081497 
447.346436 0.025697 
471.041534 0.007303 
473.401306 0.006125 
487.508972 0.013821 
489.509705 0.014467 
491.09436 0.011215 
492.295532 0.035261 
507.200073 0.028415 
507.29187 0.391874 
507.329498 0.433263 
508.294861 0.021466 
508.33255 0.035891 
509.2901 0.061595 
509.78183 0.007393 
510.306732 0.093746 
521.716125 0.008189 
527.62677 0.007624 
529.657227 0.00837 
533.311279 0.012867 
END IONS

