BEGIN IONS
PEPMASS=321.005
CHARGE=1+
COMPOUNDNAME=Chloramphenicol
LIBRARYQUALITY=3
SMILES=N/A
INCHIKEY=WIIZWVCIJKGZOK-RKDXNWHRSA-N
INCHI=InChI=1S/C11H12Cl2N2O5/c12-10(13)11(18)14-8(5-16)9(17)6-1-3-7(4-2-6)15(19)20/h1-4,8-10,16-17H,5H2,(H,14,18)/t8-,9-/m1/s1
MSLEVEL=2
SOURCE_INSTRUMENT=N/A-ESI-QFT
FILENAME=library_mgf.mgf
SEQ=*..*
IONMODE=negative
ORGANISM=MONA
NAME=Chloramphenicol [M-H]-
PI=MoNA
DATACOLLECTOR=MoNA:VF-NPL-QEHF000406
PUBMED=N/A
SUBMITUSER=mwang87
TAGS=
SPECTRUMID=CCMSLIB00004691469
SCANS=406
51.305195 0.014137 
51.539822 0.014291 
51.784042 0.010339 
53.007092 0.018651 
54.114616 0.017761 
54.257915 0.015582 
54.468861 0.017717 
55.387177 0.014542 
56.364574 0.016491 
57.005291 0.013932 
57.297558 0.016489 
58.798279 0.018241 
59.01247 0.092037 
59.043812 0.01277 
59.721336 0.017087 
59.77845 0.015718 
59.858467 0.015079 
60.955917 0.019113 
61.140461 0.014358 
61.555271 0.01962 
61.852631 0.016537 
61.987007 0.768201 
62.949135 0.010714 
63.089298 0.013871 
63.156704 0.014329 
63.317608 0.015867 
63.980694 0.017503 
63.991135 0.012907 
65.476379 0.010353 
65.902519 0.017599 
66.046989 0.01503 
66.104591 0.016648 
66.162827 0.019937 
69.139297 0.017422 
70.028526 0.036999 
70.833221 0.019225 
70.94474 0.159121 
71.01252 0.191738 
71.481018 0.015821 
72.007507 0.018079 
72.475334 0.015027 
72.94175 0.110691 
72.968895 0.012514 
72.991829 0.011885 
74.172203 0.017161 
74.618721 0.018728 
74.764236 0.018137 
74.989471 0.278378 
75.180374 0.018146 
76.017876 0.019058 
76.515877 0.018816 
76.764824 0.016861 
76.940659 0.020919 
77.614693 0.018134 
78.033607 2.710879 
78.371475 0.020661 
78.909615 0.020251 
79.036842 0.02132 
79.485474 0.021434 
79.927788 0.015378 
81.128822 0.016322 
81.871552 0.015035 
82.412926 0.013826 
82.944763 2.086365 
82.98642 0.01409 
84.00779 2.10819 
84.941811 1.342813 
86.023453 0.207699 
86.757111 0.010484 
86.938904 0.049852 
87.276024 0.016246 
87.351837 0.015248 
88.409508 0.015282 
89.205559 0.012994 
90.467697 0.020164 
91.020813 3.037129 
91.726425 0.010654 
92.020294 0.02272 
92.025124 0.0288 
93.000084 0.027002 
93.03331 0.232129 
94.810745 0.017839 
94.923828 0.016706 
95.588135 0.02654 
96.368622 0.019007 
96.958748 0.020389 
98.019012 0.010884 
98.023445 0.57625 
99.001778 0.017301 
101.63192 0.015095 
102.088623 0.011736 
104.776314 0.019438 
105.020767 0.275609 
106.028595 0.382512 
106.981171 0.015417 
107.748024 0.015479 
111.526833 0.0176 
112.768867 0.012534 
113.036026 0.020517 
114.703819 0.01354 
115.003998 0.014507 
117.615303 0.013178 
117.934456 0.017857 
118.028549 0.068408 
118.041199 0.407528 
118.207626 0.019896 
119.012306 0.018354 
121.028343 19.478928 
122.023636 3.086305 
122.031593 1.370212 
122.102577 0.017161 
124.039276 0.011618 
125.950729 0.407091 
126.934753 2.581297 
127.601891 0.013763 
127.947762 0.209665 
128.063995 0.016702 
128.931793 1.526499 
130.728882 0.021113 
130.928894 0.051157 
131.036621 0.013175 
131.534378 0.014121 
133.02832 0.018645 
134.036163 0.023537 
135.031433 0.157688 
136.039261 0.720149 
136.058014 0.022629 
136.189682 0.016974 
139.252197 0.015232 
139.632324 0.018724 
140.541992 0.020826 
140.548141 0.020135 
140.63942 0.017348 
142.629517 0.019902 
145.028198 0.02838 
146.036285 0.990759 
148.039368 6.919664 
149.008789 0.061665 
149.042801 0.50843 
150.018677 1.033935 
151.026474 41.37764 
152.034302 100.0 
152.905991 0.014461 
153.031372 0.53603 
153.037598 7.929325 
153.428986 0.017482 
154.038879 0.596638 
155.647751 0.020568 
159.031616 1.697784 
159.660995 0.022253 
160.039688 0.231123 
161.034607 0.480667 
162.018677 0.755881 
162.774719 0.01751 
164.034546 0.289331 
166.013779 0.974826 
166.049973 0.261568 
168.245163 0.019698 
168.818451 0.018243 
170.036728 0.011866 
170.312653 0.020971 
174.060074 0.018998 
174.259735 0.017057 
175.026871 0.042077 
175.0504 0.345566 
176.034424 15.144226 
177.037842 1.450269 
177.617615 0.01455 
178.049927 0.055291 
179.045471 1.342236 
180.014206 0.017193 
181.7491 0.015874 
183.00386 0.014602 
183.011475 0.818255 
184.621674 0.015245 
184.798096 0.012936 
187.840317 0.01075 
189.985413 0.017403 
190.638611 0.017272 
191.045334 0.095588 
192.029404 0.119304 
194.045303 3.124586 
195.048553 0.1003 
197.427795 0.014023 
198.906799 0.016766 
201.52774 0.020571 
201.908707 0.017445 
203.045822 0.015209 
207.041183 0.023305 
210.702438 0.019724 
214.680817 0.015405 
214.88031 0.019174 
215.883514 0.017906 
215.897263 0.299579 
215.904922 0.348344 
215.917145 0.512184 
215.929077 0.069267 
219.040894 1.489088 
220.043732 0.014447 
223.588821 0.018666 
229.268265 0.016832 
233.651978 0.012954 
235.022995 0.019285 
236.911346 0.015986 
245.171967 0.020553 
248.099701 0.013121 
249.051544 1.02327 
250.055542 0.012723 
250.281067 0.010993 
251.645309 0.016607 
255.032867 0.021974 
257.033325 1.193206 
257.585785 0.022136 
258.03714 0.020681 
259.030426 0.215361 
264.985229 0.063414 
279.480316 0.01835 
283.264496 0.025057 
286.178375 0.013602 
289.510895 0.013122 
295.400055 0.011442 
296.292847 0.016033 
297.047974 0.036846 
297.152832 2.428566 
297.68869 0.018557 
298.156097 0.268407 
299.026489 0.039576 
304.86261 0.022187 
307.194855 0.027103 
310.494904 0.01881 
311.16861 7.139486 
311.295166 0.197662 
312.172211 1.330623 
313.164642 0.121863 
314.582306 0.019482 
321.370483 0.017312 
321.745392 0.016884 
325.184204 8.72392 
326.187622 1.613534 
327.181732 0.102073 
339.19989 3.06567 
340.203278 0.55282 
341.194885 0.019336 
349.090179 0.013077 
369.758636 0.020597 
END IONS

