BEGIN IONS
PEPMASS=583.051
CHARGE=1+
COMPOUNDNAME=Naringenin
LIBRARYQUALITY=3
SMILES=N/A
INCHIKEY=FTVWIRXFELQLPI-ZDUSSCGKSA-N
INCHI=InChI=1S/C15H12O5/c16-9-3-1-8(2-4-9)13-7-12(19)15-11(18)5-10(17)6-14(15)20-13/h1-6,13,16-18H,7H2/t13-/m0/s1
MSLEVEL=2
SOURCE_INSTRUMENT=N/A-Linear Ion Trap
FILENAME=library_mgf.mgf
SEQ=*..*
IONMODE=positive
ORGANISM=MONA
NAME=Naringenin M-H
PI=MoNA
DATACOLLECTOR=MoNA:VF-NPL-LTQ005998
PUBMED=N/A
SUBMITUSER=mwang87
TAGS=
SPECTRUMID=CCMSLIB00004689531
SCANS=5152
158.779999 0.978213 
188.779999 4.797297 
206.770004 0.895536 
216.800003 1.927731 
224.839996 3.408687 
248.880005 3.860786 
266.890015 25.056206 
286.73999 1.404714 
292.859985 4.272268 
292.890015 19.242441 
310.359985 0.709379 
310.950012 100.0 
328.640015 7.409936 
394.820007 3.739693 
436.920013 1.609868 
444.970001 8.03423 
496.959991 3.391876 
498.959991 12.081089 
END IONS

