BEGIN IONS
PEPMASS=276.0
CHARGE=1+
COMPOUNDNAME=Massbank:KO008958 Eserine|Physostigmine
LIBRARYQUALITY=3
SMILES=CNC(=O)Oc(c3)cc(c(c3)1)C(C)(C2)C(N(C)C2)N(C)1
INCHIKEY=PIJVFDBKTWXHHD-UHFFFAOYSA-N
INCHI=1S/C15H21N3O2/c1-15-7-8-17(3)13(15)18(4)12-6-5-10(9-11(12)15)20-14(19)16-2/h5-6,9,13H,7-8H2,1-4H3,(H,16,19)/t13-,15+/m1/s1
MSLEVEL=2
SOURCE_INSTRUMENT=ESI-LC-ESI-IT
FILENAME=Massbank_ESI_positive_8_1_2014_peaks.mgf
SEQ=*..*
IONMODE=Positive
ORGANISM=MASSBANK
NAME=Massbank:KO008958 Eserine|Physostigmine [M+H]+
PI=Putative Massbank Match
DATACOLLECTOR=Massbank
PUBMED=N/A
SUBMITUSER=mwang87
TAGS=
SPECTRUMID=CCMSLIB00000221194
SCANS=10126
134.1 1681.67 
147.1 624.23 
162.1 278469.05 
163.1 802.02 
176.1 8448.09 
187.2 218.57 
188.1 1051.15 
202.2 204.39 
217.1 5538.87 
218.3 8703.04 
219.1 3551687.45 
220.1 2516.39 
221.2 263.34 
229.0 977.77 
232.1 7134.52 
233.1 41388.49 
235.2 117.48 
245.1 15794.16 
275.2 2412.66 
276.2 20179.26 
END IONS

