BEGIN IONS
PEPMASS=490.248
CHARGE=1+
COMPOUNDNAME=TOBRAMYCIN
LIBRARYQUALITY=3
SMILES=N/A
INCHIKEY=NLVFBUXFDBBNBW-PBSUHMDJSA-N
INCHI=InChI=1S/C18H37N5O9/c19-3-9-8(25)2-7(22)17(29-9)31-15-5(20)1-6(21)16(14(15)28)32-18-13(27)11(23)12(26)10(4-24)30-18/h5-18,24-28H,1-4,19-23H2/t5-,6+,7+,8-,9+,10+,11-,12+,13+,14-,15+,16-,17+,18+/m0/s1
MSLEVEL=2
SOURCE_INSTRUMENT=N/A-ESI-QFT
FILENAME=library_mgf.mgf
SEQ=*..*
IONMODE=positive
ORGANISM=MONA
NAME=TOBRAMYCIN [M+Na]+
PI=MoNA
DATACOLLECTOR=MoNA:VF-NPL-QEHF011815
PUBMED=N/A
SUBMITUSER=mwang87
TAGS=
SPECTRUMID=CCMSLIB00004702878
SCANS=11815
50.562141 0.085089 
51.537395 0.083331 
51.773598 0.078302 
53.002911 0.370988 
53.208691 0.084437 
53.226665 0.084018 
54.039509 0.083463 
54.712929 0.082268 
55.018551 0.343702 
55.054943 3.66334 
55.305466 0.078026 
55.895897 0.088736 
55.935101 1.398225 
56.050213 1.233446 
56.917313 0.084402 
57.034191 0.785688 
57.070614 85.988945 
57.710258 0.091495 
57.850555 0.082943 
58.06588 1.439981 
58.073959 2.684981 
58.421261 0.083375 
58.717758 0.082119 
58.947933 0.081978 
59.049835 3.351122 
59.061073 3.258521 
59.895748 0.072527 
59.990921 2.982237 
60.184975 0.112875 
60.263027 0.079958 
61.011349 13.705702 
61.012894 0.100587 
61.235806 0.09376 
61.309555 0.091222 
61.451336 0.08358 
61.695103 0.092395 
62.010437 0.088615 
62.019154 5.594197 
62.020924 0.072331 
62.190758 0.108974 
62.982376 0.892745 
63.998421 0.344401 
64.108192 0.085593 
64.977982 0.088235 
65.667603 0.081232 
65.837959 0.092165 
67.054893 10.930313 
68.232681 0.078044 
68.507668 0.080298 
68.970573 0.091662 
69.034096 0.439711 
69.070526 7.866051 
69.896286 0.089067 
70.065788 0.754285 
71.049728 2.295701 
71.086166 10.354764 
71.723236 0.074651 
71.929848 0.159874 
72.045036 0.213874 
72.08136 0.207674 
72.406387 0.085722 
72.930397 0.096838 
72.937775 0.53529 
73.029045 7.703082 
73.04734 0.111066 
73.065376 1.501727 
74.096924 0.279649 
75.834564 0.078701 
75.947113 0.087186 
76.076241 0.507899 
76.878578 0.095938 
79.021782 15.427479 
79.054741 3.022008 
79.49453 0.08165 
80.02504 0.083415 
80.054863 2.212968 
80.948364 2.83893 
81.017502 0.12273 
81.019165 0.0833 
81.070427 10.699595 
82.073685 0.093558 
82.945305 0.439075 
83.04966 0.518221 
83.086044 5.301844 
84.081215 0.440926 
85.029121 0.100456 
85.040237 0.280416 
85.065247 1.224603 
85.101669 5.350259 
86.060562 0.147481 
86.096893 2.020578 
87.026825 0.122259 
87.044525 16.16938 
88.047783 0.189387 
88.978561 1.103833 
89.060165 42.99741 
90.063515 1.090404 
90.091789 0.095395 
90.948074 1.218981 
91.054649 2.448274 
91.057777 6.529591 
91.547012 0.098512 
93.070282 5.254213 
93.657211 0.10938 
94.026306 0.089562 
94.073593 0.09656 
94.555313 0.109322 
95.049431 0.60971 
95.085938 11.336103 
95.859894 0.085693 
96.081085 1.734523 
96.089188 0.261068 
96.653778 0.101257 
96.922035 0.269303 
97.065178 1.06428 
97.076736 0.092173 
97.101532 3.821137 
97.800552 0.087862 
98.096733 0.458704 
99.044357 0.632466 
99.080841 0.530525 
99.117172 0.122791 
99.957916 0.099613 
100.076027 6.357086 
100.11219 0.112949 
100.896812 0.105904 
101.000084 0.110171 
101.003525 13.101793 
101.060005 0.756039 
101.969193 0.086005 
102.067757 0.890214 
102.091476 0.116041 
103.03923 4.002474 
103.075684 0.822241 
104.989037 0.08849 
104.992523 4.200218 
105.033737 0.635163 
105.070061 2.279388 
106.050552 0.115147 
107.04924 0.459756 
107.070496 1.710291 
107.085739 3.886318 
107.966705 0.123212 
108.081215 0.216538 
108.452438 0.098001 
108.526596 0.098464 
108.958458 0.532321 
109.065323 0.123571 
109.097176 0.125151 
109.101395 15.194193 
109.572868 0.113519 
110.096512 0.26831 
110.104721 0.278447 
111.044235 0.132787 
111.080559 1.019143 
111.117012 1.540242 
111.495087 0.097909 
112.52108 0.087341 
113.059868 1.541358 
113.096245 0.106648 
113.107475 2.946101 
114.005028 0.084029 
114.091324 0.094205 
114.128128 0.085672 
115.075218 0.153271 
116.053032 12.98198 
116.367943 0.103646 
116.977188 0.748345 
117.055962 0.187263 
117.069893 0.342038 
117.091118 0.276733 
118.086441 0.786381 
118.971779 1.076992 
119.085625 3.527734 
120.00354 0.137008 
120.080933 0.373112 
121.064972 5.246534 
121.10128 4.098068 
121.916779 0.10419 
122.068085 0.100897 
122.096512 0.129429 
123.080536 0.281778 
123.091698 0.422381 
123.116859 3.785366 
123.945389 0.09878 
124.080383 0.196652 
124.11232 0.092119 
125.096069 0.852633 
125.960945 0.21195 
127.111778 0.517392 
128.143295 0.621312 
128.963425 0.190591 
129.054535 0.149487 
129.102661 0.105179 
130.159027 10.485971 
130.291473 0.110217 
131.07019 2.192966 
131.085541 1.416865 
131.162476 0.096719 
132.080872 0.205205 
132.987076 0.416177 
133.080292 0.11372 
133.085831 16.245419 
133.101059 2.744028 
134.089371 0.175291 
134.096283 0.628948 
134.955963 0.37679 
134.973557 0.216741 
134.996552 1.121711 
135.002777 2.299401 
135.080429 1.093676 
135.116745 2.473285 
136.11203 0.290403 
137.095886 1.278117 
137.132339 0.973621 
139.111618 0.203219 
140.06813 0.901154 
140.143188 2.242476 
140.95903 1.052832 
142.714401 0.083938 
143.07019 0.127342 
145.101013 0.791366 
146.095917 0.23517 
146.973709 0.530296 
147.065643 0.088143 
147.080246 0.606556 
147.116684 1.9776 
148.971695 0.964876 
149.023117 0.106558 
149.059464 0.145205 
149.070786 0.642171 
149.096024 2.504127 
149.132355 1.032339 
150.951065 9.619218 
151.074585 0.09227 
151.111649 0.21191 
151.147934 0.135172 
151.976364 0.466892 
152.946564 0.985605 
152.966507 0.757327 
152.98912 1.73721 
153.090866 0.115344 
153.127182 0.11601 
153.228088 0.082906 
154.122467 40.447849 
155.125992 0.269436 
155.995667 0.102803 
156.138199 9.440796 
156.926544 0.086243 
157.10051 0.11676 
157.141205 0.216164 
159.046738 0.08122 
159.080246 0.234577 
159.116592 0.61876 
160.111801 0.216456 
161.072327 0.083458 
161.096008 0.193177 
161.132202 0.892851 
163.075394 0.300396 
163.111481 0.133403 
163.122787 0.630575 
163.148209 0.507967 
164.920364 6.387449 
164.984726 0.355224 
165.09082 2.693714 
166.916626 0.088849 
166.966568 0.098237 
167.055267 2.052863 
168.054871 0.095955 
168.139114 0.090821 
168.917191 0.118812 
168.961578 7.097487 
170.956848 5.595648 
171.0056 0.107497 
171.116638 0.22208 
171.149048 16.083834 
172.115295 7.45842 
173.009857 0.193847 
173.118027 0.757527 
173.132553 0.383099 
175.096481 0.332517 
175.148071 0.797445 
175.632599 0.079572 
177.091156 0.30611 
177.111984 2.438893 
177.127335 0.406982 
177.30455 0.109633 
178.239471 0.100363 
179.000641 0.219468 
179.106583 0.103991 
180.89473 0.334815 
182.153931 0.284794 
182.976654 0.245899 
183.137527 0.948625 
184.111267 0.111228 
185.153427 0.320706 
185.964554 0.170039 
186.927567 2.370255 
187.876434 0.096136 
188.924576 0.529415 
188.966034 0.836025 
189.005768 0.109359 
189.015549 0.566617 
189.12738 0.221269 
190.015732 0.102843 
190.964996 0.337482 
191.1064 0.389778 
191.953629 0.160119 
192.961624 12.383585 
194.11525 0.32672 
194.999832 1.171805 
195.100952 0.447819 
196.424683 0.087619 
196.956207 0.089468 
197.012375 0.096363 
197.974213 0.863911 
198.98851 0.095054 
200.221161 0.084331 
202.971634 0.089561 
203.021683 0.114241 
204.031616 0.090502 
204.087158 0.452773 
204.961624 0.657204 
205.015594 0.458528 
206.977554 3.402045 
207.015869 0.721422 
207.101013 1.33502 
208.13063 0.232122 
208.950348 0.272188 
208.976303 0.172562 
209.116653 0.345152 
210.185089 36.239212 
210.196732 0.382983 
210.971939 11.407191 
211.188919 1.11217 
211.355728 0.082067 
212.058487 0.102458 
212.972809 0.153089 
213.041611 0.11684 
213.14888 0.115555 
213.471161 3.478071 
213.482864 2.477595 
213.490707 2.472192 
213.501709 0.15111 
213.907715 0.094476 
214.893463 1.582504 
215.022598 0.099247 
215.057877 0.095154 
215.126862 0.16357 
215.900253 0.086101 
217.103592 0.113344 
219.174194 4.715697 
220.177994 0.264248 
220.98053 0.545332 
221.595001 0.089751 
222.097977 0.482996 
222.889526 0.110539 
222.898331 0.13315 
222.972382 0.115666 
223.409668 0.099584 
223.463379 0.08592 
223.929504 0.109867 
224.050446 0.101843 
224.94957 0.102458 
224.987244 0.325516 
225.010056 1.498194 
225.042572 0.267738 
225.565948 0.090441 
227.200363 1.814482 
227.211731 2.703578 
228.267151 0.115903 
229.073608 0.116851 
229.896545 2.220747 
229.927277 0.101918 
232.027176 0.158925 
232.945892 1.659094 
233.068604 0.095102 
233.189682 1.534053 
233.891022 0.265474 
238.582993 0.090716 
238.967331 0.477443 
239.901123 2.134566 
240.068008 0.120118 
240.231689 0.100837 
240.89119 0.247237 
240.908813 0.746388 
241.05162 0.099234 
242.082565 0.122497 
242.101486 0.094004 
243.067947 0.121378 
244.062683 0.36153 
244.079605 0.342314 
245.046936 0.368559 
246.100922 0.102304 
247.084473 0.105441 
247.906082 0.838801 
248.91597 0.229111 
248.937042 0.391541 
249.043106 0.095663 
249.191345 0.095722 
250.177811 1.013675 
250.893188 0.383384 
250.956253 1.643315 
252.71283 0.087686 
252.948898 0.14104 
254.97699 3.831659 
255.066879 0.141218 
255.896088 1.224167 
255.964035 0.089398 
255.980072 0.105174 
257.190765 0.108472 
257.89444 0.086018 
258.318176 0.099232 
260.68573 0.093472 
261.121857 0.102507 
262.912689 0.207449 
263.902008 1.553525 
264.268402 0.104183 
264.908813 5.23095 
265.061859 1.714939 
265.939545 1.385587 
266.083374 0.111202 
266.948059 0.183214 
267.041229 0.366481 
267.896118 0.121673 
268.942719 0.114801 
269.13562 1.305282 
269.20108 0.128925 
269.891479 1.067644 
270.900146 0.818699 
272.898743 0.252633 
272.912323 0.100211 
274.893646 4.307579 
274.91391 0.665392 
275.900818 1.142847 
276.909149 0.994414 
277.215729 0.617556 
278.925079 0.42152 
278.94693 0.484801 
279.00058 0.105198 
279.896912 0.248955 
280.301453 0.088483 
280.905792 0.285741 
280.924042 0.344403 
281.911438 1.420911 
282.113037 0.101774 
282.901672 7.213964 
282.919495 5.38494 
283.950012 0.119875 
284.152069 0.101735 
285.862335 0.107415 
286.913696 2.302661 
287.128296 0.09591 
288.881317 0.094322 
288.908691 12.154118 
288.926025 0.158736 
289.915283 0.101921 
290.947083 0.89988 
291.124664 0.223525 
292.904022 0.819073 
292.941772 0.09928 
292.984222 0.08312 
294.903168 0.122949 
295.206482 0.12778 
295.927887 0.096647 
296.294434 1.956121 
296.935577 0.489585 
296.958344 0.425292 
297.906586 0.344975 
298.914673 0.464925 
299.130066 0.202244 
300.125214 1.733674 
300.193604 0.092566 
300.911102 2.419311 
301.141083 2.493574 
302.948212 0.101976 
304.905792 0.135572 
304.924133 20.63633 
305.045715 0.112399 
305.927002 0.777878 
306.919281 100.0 
307.921997 0.575447 
308.889252 1.521635 
308.957245 0.51203 
309.149506 0.130077 
310.9151 0.153454 
311.294403 0.187218 
312.838776 0.410918 
312.928772 0.092286 
314.891418 0.136623 
314.90921 0.151183 
315.954498 0.098912 
316.904388 4.989519 
316.92453 1.638323 
317.903076 0.117305 
317.948883 3.14203 
318.828339 0.265136 
318.919617 2.624943 
318.939667 1.222595 
319.064514 0.109875 
320.848114 0.365364 
320.935394 6.048865 
321.125122 4.753824 
321.942719 0.101148 
322.128662 0.143654 
322.819885 0.1161 
322.915863 0.151851 
322.934601 6.332417 
323.103851 2.413934 
323.922546 0.145349 
324.765991 0.109803 
324.929871 31.64784 
325.214478 0.268759 
326.967896 2.017324 
327.077881 2.792031 
327.227448 0.095641 
327.435944 0.09629 
328.833893 0.112243 
329.241272 0.107383 
331.134216 0.1344 
331.154938 0.42018 
333.15036 4.073081 
333.171204 5.68966 
334.171051 1.626528 
334.84491 0.093732 
334.914459 0.318012 
334.953003 0.266218 
335.093353 1.919316 
335.166107 18.790577 
335.187195 5.632592 
335.830627 0.448301 
336.166992 1.046991 
336.186951 3.133039 
336.838501 21.421614 
337.14621 0.10393 
337.181946 1.407709 
337.840698 1.450361 
337.93808 0.126146 
338.945923 1.863744 
340.044647 2.591324 
345.904449 0.242948 
347.833954 0.097106 
350.878082 0.683539 
350.918304 0.901915 
350.9422 0.120839 
350.966217 0.127581 
351.125336 4.81626 
351.161102 0.1846 
351.182281 0.809344 
351.915222 2.604613 
351.952789 0.147892 
352.128235 0.598264 
352.191742 0.476268 
352.830902 1.270908 
352.919739 0.30848 
352.962555 6.808487 
353.129364 0.100262 
353.176697 1.066081 
353.197601 9.846737 
353.841187 5.601574 
353.916412 0.228574 
354.196075 4.723631 
354.848846 7.241414 
355.192169 1.943721 
356.19519 0.157309 
356.938446 0.129561 
357.20813 3.715121 
358.211487 0.152053 
358.842957 0.416354 
360.838928 2.721568 
362.877075 0.138889 
363.242462 0.108064 
366.010742 0.137071 
367.213928 0.250941 
367.85675 0.11375 
368.889038 0.910115 
368.94873 3.957752 
369.124115 0.980919 
369.162384 0.108418 
369.836334 0.777006 
369.951141 0.257901 
370.840973 4.089369 
370.946289 1.546211 
370.972992 1.772671 
371.163025 0.656518 
371.240326 0.149308 
374.814636 0.20583 
375.218048 1.806789 
375.370758 0.121235 
375.823883 3.126904 
376.220459 0.111369 
376.288177 0.710972 
377.187134 4.266634 
377.210571 0.095279 
377.816315 0.099125 
377.842468 0.541107 
378.189697 0.46094 
378.849121 0.971444 
379.166168 0.478201 
387.847229 0.621314 
387.879669 0.190095 
389.30777 0.109881 
389.839172 0.094861 
390.253113 0.7654 
391.855377 0.09715 
394.298645 7.390976 
394.843292 0.202297 
395.301605 0.798143 
395.851257 0.299539 
400.832733 0.410884 
400.984039 0.211133 
402.851349 0.126176 
404.849091 0.868685 
406.843628 3.507509 
406.886383 0.541236 
408.260193 0.10545 
408.862061 0.112998 
410.270355 1.127511 
411.128021 2.398137 
412.308838 0.099211 
413.092133 0.354328 
413.266022 3.812811 
415.182159 0.125663 
415.859406 0.280405 
417.211304 12.181047 
417.83316 3.095565 
418.214325 2.005416 
418.994904 3.83894 
419.848877 0.141006 
419.994476 1.501214 
420.860168 0.996134 
420.992798 0.632865 
422.279327 2.042696 
423.301727 0.121019 
424.240479 0.106126 
428.9534 0.114538 
429.205719 0.115179 
429.281616 3.917855 
430.285339 0.102404 
431.177307 0.128516 
433.19101 0.448961 
433.274414 0.584579 
435.150024 0.630777 
435.221344 0.852983 
436.196869 1.681708 
439.879425 0.131398 
443.261322 0.152445 
447.346375 1.960967 
447.847046 0.274734 
449.187164 3.814077 
449.238129 0.159121 
457.328583 0.152106 
459.132019 4.157643 
459.255768 0.393129 
459.30661 1.025062 
459.867981 1.015762 
460.255646 0.693853 
461.861084 6.416005 
463.879578 3.608339 
465.853973 0.097866 
476.140594 0.113538 
477.142059 12.866223 
478.144379 1.489638 
481.889008 1.637913 
488.328339 2.302629 
488.363312 39.300552 
488.445404 0.81768 
489.070862 0.136077 
489.119751 0.112358 
489.265625 2.197735 
489.302155 33.251926 
489.336945 18.183146 
489.369629 5.579532 
489.428345 0.284376 
490.26358 0.319535 
490.30426 10.992739 
490.340485 6.038964 
490.380859 0.256044 
490.425446 0.434924 
490.56778 0.116977 
491.156372 1.180842 
491.281708 3.483759 
491.317047 10.286238 
491.366577 0.19324 
491.404144 0.142505 
492.258942 52.030369 
495.904999 1.938374 
513.356812 0.089765 
END IONS

