BEGIN IONS
PEPMASS=580.0
CHARGE=1+
COMPOUNDNAME=MoNA:2366441 Streptomycin (TN)
LIBRARYQUALITY=3
SMILES=N/A
INCHIKEY=UCSJYZPVAKXKNQ-HZYVHMACSA-N
INCHI=InChI=1S/C21H39N7O12/c1-5-21(36,4-30)16(40-17-9(26-2)13(34)10(31)6(3-29)38-17)18(37-5)39-15-8(28-20(24)25)11(32)7(27-19(22)23)12(33)14(15)35/h4-18,26,29,31-36H,3H2,1-2H3,(H4,22,23,27)(H4,24,25,28)/t5-,6-,7+,8-,9-,10-,11+,12-,13-,14+,15+,16-,17-,18-,21+/m0/s1
MSLEVEL=2
SOURCE_INSTRUMENT=LC-ESI-QQ-LC-ESI-QQ
FILENAME=output_mgf.mgf
SEQ=*..*
IONMODE=
ORGANISM=MONA
NAME=MoNA:2366441 Streptomycin (TN) [M-H]-
PI=MoNA
DATACOLLECTOR=MoNA
PUBMED=N/A
SUBMITUSER=mwang87
TAGS=
SPECTRUMID=CCMSLIB00000574208
SCANS=11459
88.4 5.109489 
96.7 28.467153 
125.2 3.649635 
147.7 1.459854 
152.2 9.489051 
219.3 67.153285 
244.1 16.058394 
259.1 11.678832 
261.3 100.0 
318.2 2.189781 
END IONS

