BEGIN IONS
PEPMASS=279.16
CHARGE=1+
COMPOUNDNAME=(1R,2E,7R,10E,12S,13S,15R)-12,15-dihydroxy-7-methyl-8-oxabicyclo[11.3.0]hexadeca-2,10-dien-9-one
LIBRARYQUALITY=3
SMILES=N/A
INCHIKEY=KQNZDYYTLMIZCT-SWGFJCPHSA-N
INCHI=InChI=1S/C16H24O4/c1-11-5-3-2-4-6-12-9-13(17)10-14(12)15(18)7-8-16(19)20-11/h4,6-8,11-15,17-18H,2-3,5,9-10H2,1H3/b6-4+,8-7+/t11-,12+,13-,14+,15+/m1/s1
MSLEVEL=2
SOURCE_INSTRUMENT=N/A-ESI-QFT
FILENAME=library_mgf.mgf
SEQ=*..*
IONMODE=negative
ORGANISM=MONA
NAME=(1R,2E,7R,10E,12S,13S,15R)-12,15-dihydroxy-7-methyl-8-oxabicyclo[11.3.0]hexadeca-2,10-dien-9-one [M-H]-
PI=MoNA
DATACOLLECTOR=MoNA:VF-NPL-QEHF022871
PUBMED=N/A
SUBMITUSER=mwang87
TAGS=
SPECTRUMID=CCMSLIB00004713934
SCANS=22871
51.363281 0.071354 
51.405182 0.055576 
51.657307 0.041798 
51.967808 0.075994 
52.243584 0.033845 
55.017498 0.933761 
55.032192 0.108363 
55.579445 0.11467 
55.60006 0.061843 
56.458637 0.026308 
56.484097 0.025478 
56.860443 0.079653 
56.940907 0.08202 
57.03318 7.012977 
57.88821 0.05677 
57.962475 0.051607 
58.120121 0.018137 
58.140366 0.028741 
58.224976 0.027645 
58.782597 0.019967 
58.828758 0.065696 
59.010883 0.023994 
59.012447 6.146844 
59.184502 0.024754 
59.356777 0.018228 
59.451401 0.051266 
59.643375 0.052717 
60.07299 0.034165 
60.319427 0.059097 
60.964256 0.07237 
61.159428 0.080622 
61.161465 0.102656 
61.986958 2.029688 
62.455803 0.026241 
62.561981 0.079041 
63.199608 0.061299 
63.504494 0.073571 
63.705742 0.065836 
63.961037 0.159286 
65.038307 1.213645 
65.234367 0.055161 
65.620445 0.091042 
66.545784 0.059376 
66.726265 0.113742 
66.944176 0.078376 
69.033218 1.12684 
69.543221 0.071535 
69.731911 0.053207 
70.962128 0.039975 
71.012497 0.170249 
71.048889 1.082755 
71.359329 0.036793 
71.623085 0.079893 
73.897011 0.116607 
76.316704 0.072071 
76.395218 0.098799 
76.951141 0.096393 
78.711235 0.083652 
78.957512 0.168103 
78.966774 1.992835 
78.98455 0.905246 
79.053917 0.036168 
79.59359 0.101937 
79.796043 0.056105 
79.92897 0.054396 
79.955971 4.44601 
80.02533 0.276337 
80.318993 0.103377 
80.963791 2.321048 
81.033218 5.957224 
81.724564 0.019919 
82.640533 0.06066 
83.012466 5.040041 
83.048828 2.693098 
83.394592 0.060884 
83.486694 0.118711 
84.910202 0.069324 
85.028214 0.441194 
85.064537 0.025276 
85.220726 0.098797 
85.331505 0.076327 
86.691513 0.089075 
87.431969 0.072019 
88.07209 0.077953 
89.182663 0.061299 
90.376633 0.02807 
90.932198 0.022563 
91.053818 0.103155 
92.858879 0.017561 
92.927696 0.098178 
92.946022 0.017935 
93.03318 0.980709 
93.069633 0.183847 
93.658951 0.021628 
93.840073 0.022649 
94.9795 1.395667 
95.012482 0.660263 
95.048866 2.688088 
95.210182 0.075196 
95.498878 0.064949 
95.527237 0.01911 
96.139046 0.095548 
96.958786 31.268719 
96.975304 0.183399 
97.028214 0.158444 
97.064499 0.599971 
97.278595 0.05976 
98.954498 0.404829 
99.007385 0.025377 
99.924553 0.825187 
100.924606 0.08466 
100.932327 0.047035 
101.023026 0.189372 
101.694839 0.032575 
101.92289 0.022964 
105.069679 5.692449 
105.278709 0.066636 
106.041199 0.394505 
106.28228 0.090351 
107.048866 0.387798 
107.085297 0.105766 
107.596184 0.028587 
108.020401 5.544557 
108.761185 0.111519 
109.028198 100.0 
109.049515 0.147068 
109.064583 1.911749 
109.256943 0.040272 
110.031517 5.182323 
110.035942 2.536226 
110.95665 0.119862 
111.043823 8.536109 
112.047226 0.054849 
112.241646 0.065809 
112.936317 0.021229 
113.924599 0.026014 
113.928047 0.083102 
115.053825 0.091254 
115.919479 0.589554 
116.919296 0.025203 
116.927338 0.091171 
119.048782 0.037848 
119.085274 0.556058 
119.660042 0.120113 
120.043671 0.066776 
120.056808 0.717452 
120.395874 0.05679 
121.028259 7.696738 
121.064598 5.330964 
121.101051 0.105658 
121.520943 0.028916 
121.596893 0.026352 
122.031502 0.102845 
122.098846 0.073359 
123.080215 3.031367 
124.954674 0.27962 
125.810547 0.028064 
127.879364 0.116663 
128.725143 0.091514 
129.075424 0.083501 
129.420044 0.066099 
130.052887 0.061657 
130.22731 0.03652 
130.744202 0.029916 
131.085434 0.431117 
131.418839 0.120773 
133.064819 0.108969 
133.101089 0.082952 
134.383057 0.119765 
135.043777 0.448832 
135.080475 1.098182 
135.10173 0.074563 
136.051697 0.493892 
137.023254 1.213689 
137.059586 0.402112 
137.096008 1.291418 
138.03096 2.451124 
138.067413 0.150851 
138.920517 0.048932 
139.000061 0.698537 
139.038849 36.775558 
140.042114 2.699476 
141.72374 0.02266 
142.026031 0.456509 
145.100998 0.454355 
145.917465 0.023616 
145.971481 0.078513 
146.897369 0.247098 
147.04393 0.031294 
147.117004 0.104386 
147.446213 0.148776 
148.052887 0.056318 
148.899368 3.288577 
149.096008 0.669659 
150.888641 0.089646 
151.111954 0.027443 
152.046722 0.63741 
152.355316 0.031041 
157.904083 0.027978 
160.051865 1.428741 
160.268738 0.05766 
162.892258 0.224372 
162.915161 0.034088 
163.11174 0.158631 
164.894379 3.976499 
165.054474 0.65754 
168.90976 0.028069 
171.138443 0.025344 
171.243225 0.03025 
173.059769 0.066356 
173.132645 6.857247 
174.135651 0.12894 
174.937439 0.026024 
174.991608 0.046529 
175.112717 0.084323 
176.26268 0.029335 
177.127533 2.107909 
177.903091 0.032817 
178.130798 0.135614 
178.724487 0.035462 
178.910339 0.081932 
179.143234 0.366693 
182.756775 0.028326 
184.756058 0.044289 
187.283066 0.076997 
188.082672 0.166846 
189.127533 1.754659 
190.841156 0.055166 
191.046585 0.078655 
191.143341 1.468553 
193.123093 0.061148 
194.257141 0.090063 
195.138046 0.475319 
195.894211 0.120406 
199.112 0.078864 
199.148468 0.207076 
199.169556 3.599966 
199.850449 0.029708 
201.038147 0.02053 
204.903809 0.062076 
205.123215 0.117121 
205.159195 0.119994 
205.432541 0.019087 
206.905548 3.279124 
207.090729 0.064925 
207.13797 0.284118 
215.143661 0.165491 
215.622284 2.902376 
216.517426 0.124203 
217.12291 0.793194 
217.159225 13.31201 
218.162476 1.682468 
219.138092 0.03083 
220.758606 0.069696 
221.707077 0.125643 
226.05484 0.109553 
230.085922 0.058619 
230.938965 0.026029 
233.154175 3.471405 
235.133301 1.650297 
235.170074 0.491809 
237.007782 0.115008 
239.482315 0.056484 
243.138885 0.525936 
251.164078 0.099914 
256.086212 0.08557 
259.817749 0.102483 
261.149475 16.107376 
262.152802 2.133319 
264.981995 0.087596 
272.754547 0.029651 
277.183655 0.382915 
278.18692 0.111148 
279.160767 33.941887 
279.232697 5.112117 
280.164093 5.72471 
280.235779 0.487708 
281.014648 0.022923 
281.120728 0.476535 
281.248413 23.402077 
END IONS

