BEGIN IONS
PEPMASS=425.379
CHARGE=1+
COMPOUNDNAME=(1R,3aR,5aR,5bR,9S,11aR)-3a,5a,5b,8,8,11a-hexamethyl-1-prop-1-en-2-yl-1,2,3,4,5,6,7,7a,9,10,11,11b,12,13,13a,13b-hexadecahydrocyclopenta[a]chrysen-9-ol
LIBRARYQUALITY=3
SMILES=N/A
INCHIKEY=MQYXUWHLBZFQQO-KIIHVYTKSA-N
INCHI=InChI=1S/C30H50O/c1-19(2)20-11-14-27(5)17-18-29(7)21(25(20)27)9-10-23-28(6)15-13-24(31)26(3,4)22(28)12-16-30(23,29)8/h20-25,31H,1,9-18H2,2-8H3/t20-,21?,22?,23?,24-,25?,27+,28-,29+,30+/m0/s1
MSLEVEL=2
SOURCE_INSTRUMENT=N/A-ESI-QFT
FILENAME=library_mgf.mgf
SEQ=*..*
IONMODE=negative
ORGANISM=MONA
NAME=(1R,3aR,5aR,5bR,9S,11aR)-3a,5a,5b,8,8,11a-hexamethyl-1-prop-1-en-2-yl-1,2,3,4,5,6,7,7a,9,10,11,11b,12,13,13a,13b-hexadecahydrocyclopenta[a]chrysen-9-ol [M-H]-
PI=MoNA
DATACOLLECTOR=MoNA:VF-NPL-QEHF009278
PUBMED=N/A
SUBMITUSER=mwang87
TAGS=
SPECTRUMID=CCMSLIB00004700341
SCANS=9278
50.126934 0.022894 
51.412861 0.02329 
53.460976 0.025856 
54.026554 0.03206 
56.110039 0.027666 
56.176563 0.029994 
57.062717 0.024008 
57.55085 0.02184 
57.986671 0.024778 
58.548344 0.024434 
58.994766 0.086946 
59.012527 1.487408 
59.570499 0.026646 
60.974007 1.222183 
61.508854 0.023554 
61.658581 0.023913 
61.986988 0.08902 
62.035347 0.024777 
63.199615 0.03058 
63.943398 0.299656 
63.961079 5.89847 
64.501671 0.029812 
64.951172 3.095901 
65.957001 0.037318 
67.219154 0.023658 
67.282516 0.026364 
68.006844 0.022897 
70.239365 0.022227 
70.846878 0.024614 
71.012459 0.066137 
74.25766 0.032438 
74.989754 0.141838 
76.166702 0.032945 
76.951187 2.884443 
77.152451 0.024597 
78.966858 2.078247 
78.984604 4.224961 
79.938293 0.397976 
79.942688 0.093495 
79.944412 0.026642 
79.956024 33.530983 
79.968979 0.137069 
80.95015 0.239249 
80.96386 59.35218 
80.977028 0.219216 
80.980515 0.030044 
81.033356 0.092639 
81.300896 0.025533 
81.519318 0.022877 
81.951828 1.148718 
81.960442 0.029001 
81.963226 0.372171 
82.959656 2.460289 
82.968086 0.283038 
83.048912 0.758353 
85.106506 0.025662 
85.287209 0.024585 
86.251007 0.022164 
86.952942 0.028765 
87.007462 0.16851 
89.033829 0.029018 
89.037613 0.025145 
89.948502 0.02603 
90.110107 0.022671 
90.354782 0.023024 
90.966965 0.176768 
90.984673 0.202353 
92.946114 1.132613 
92.982574 0.195213 
93.000336 0.927313 
93.971687 0.193841 
94.979591 12.990993 
95.340309 0.030219 
95.915497 4.348136 
95.933281 0.054084 
95.951019 0.181964 
95.98307 0.033434 
96.923325 1.034219 
96.941116 0.256446 
96.958847 20.753546 
96.97541 0.352191 
97.911354 0.352233 
98.954628 0.717839 
98.963013 0.033622 
99.924553 1.569929 
100.552116 0.027852 
100.877022 0.02561 
101.005638 0.032975 
102.945885 3.324178 
103.02961 0.023632 
104.941628 0.041862 
105.245956 0.026887 
105.468338 0.025142 
106.909813 0.031077 
106.979652 0.234654 
107.490425 0.022927 
107.783707 0.02638 
108.551697 0.026614 
108.923393 1.473789 
108.977631 0.027494 
108.995438 0.05661 
109.238953 0.027737 
109.484802 0.025202 
110.525253 0.029836 
110.935638 0.027879 
110.939117 1.626468 
110.956825 3.655133 
110.974556 13.122494 
111.008148 0.032577 
111.052902 0.029242 
111.080482 0.026833 
111.913452 0.025716 
111.92823 1.057618 
112.058662 0.029139 
112.936089 11.395419 
112.952675 0.260357 
112.970367 0.298067 
113.060013 0.025046 
113.241417 0.028215 
113.64193 0.027215 
113.688667 0.025092 
113.924469 0.058234 
113.935699 0.119934 
114.050293 0.030063 
114.931931 0.852881 
115.919601 1.014433 
115.987152 0.024254 
116.493683 0.025595 
116.927368 0.318734 
117.190735 0.023467 
118.923157 1.578461 
118.940887 9.42045 
119.56237 0.028457 
120.880112 0.024525 
120.95665 0.374053 
121.991089 0.028119 
122.790161 0.03128 
122.919815 0.025811 
122.956947 0.169754 
122.974548 0.223404 
123.48909 0.031164 
124.063095 0.027147 
124.51561 0.033008 
124.829269 0.0309 
124.936134 0.823885 
124.947929 0.384372 
124.954491 0.101267 
124.972458 0.63688 
124.977859 0.026424 
124.990257 0.146889 
125.943954 0.094601 
126.924545 0.342397 
126.943558 0.026197 
126.951797 100.0 
126.977249 0.477625 
127.951004 0.760225 
127.955605 0.215952 
128.034271 0.234036 
128.871582 0.056203 
128.895691 0.031913 
128.947571 4.813418 
128.955948 0.056391 
129.5327 0.023869 
129.917389 0.026289 
132.904602 0.854672 
132.956589 0.288596 
134.90036 0.543102 
134.918152 8.177127 
134.972321 0.831826 
136.913742 0.22314 
136.951477 0.175627 
138.951813 1.221705 
138.969742 0.02776 
140.967438 9.356183 
140.984329 0.039075 
142.911194 0.215125 
142.938599 0.271635 
142.963272 0.562159 
143.89476 0.192425 
143.900452 3.901376 
144.908188 0.508927 
145.896347 0.257429 
147.873962 0.028167 
147.928085 0.052053 
148.933838 2.135807 
150.892075 0.455727 
150.912735 0.025937 
150.967194 0.064581 
151.897263 0.061565 
152.893845 0.310725 
152.916245 0.027636 
154.894318 0.057868 
154.964096 0.025401 
154.982971 0.223325 
156.90834 6.069672 
156.94458 0.936699 
156.96254 3.193482 
157.452652 0.02866 
157.844391 0.056618 
157.861877 0.029518 
157.916107 0.168481 
158.140808 0.023991 
158.845688 0.245963 
158.904358 0.10917 
158.924026 9.750579 
158.933197 0.88249 
158.93959 0.130555 
158.958572 0.076467 
159.318665 0.023174 
159.8414 0.067376 
159.858658 0.031726 
160.72821 0.026688 
160.841095 4.150613 
162.838135 3.429928 
162.949677 0.183966 
163.002792 0.031284 
164.835251 0.236912 
164.928955 0.298549 
164.94606 0.061246 
165.568588 0.025444 
166.890442 2.194817 
166.907913 0.460546 
166.944565 1.471771 
167.034653 0.039428 
167.892181 0.029743 
168.025879 0.032082 
168.886734 0.031716 
169.896942 0.414789 
170.09108 0.024716 
170.615234 0.027851 
170.889526 0.413777 
170.977982 0.166954 
170.995117 0.028092 
171.887253 0.191044 
171.982498 0.065192 
172.867691 0.635539 
172.885178 0.151815 
172.939896 13.093867 
172.957428 3.241921 
173.867737 0.025369 
174.864914 0.228576 
174.910751 1.013354 
174.935028 0.534358 
174.952728 0.032566 
175.872681 1.050683 
176.882599 0.026499 
177.868073 0.028662 
178.04274 0.032814 
178.927231 0.038016 
178.944809 0.962262 
179.882019 0.096711 
180.314087 0.026678 
180.906143 2.329351 
180.923279 0.0373 
180.941559 0.038965 
180.960342 0.309147 
182.885559 2.533833 
182.893845 0.035042 
182.903091 2.070508 
183.910294 0.030046 
184.918976 4.834734 
185.677261 0.02395 
186.867142 0.083988 
186.882385 0.025673 
186.914566 0.207342 
186.955597 0.274781 
186.973022 0.033248 
188.862778 0.09131 
188.880661 0.133442 
188.926544 0.338071 
188.935654 0.032642 
188.951553 0.025419 
189.888412 1.239493 
190.545303 0.028873 
190.890869 0.035616 
191.884567 0.038826 
194.921722 0.381751 
194.939346 0.201987 
195.111954 0.031638 
196.901367 1.51195 
196.918564 0.81054 
198.862366 0.452565 
198.934479 0.136064 
200.88269 0.051431 
200.892792 0.031278 
200.913986 0.98935 
201.879898 0.061802 
202.878311 0.046987 
204.912186 0.240095 
205.566666 0.027518 
206.900558 0.104968 
206.921646 0.02736 
207.895462 0.032266 
208.125763 0.026506 
209.889374 0.026278 
210.899307 0.049768 
210.916901 0.138906 
210.934647 0.43648 
212.878616 2.994204 
212.895111 0.03463 
212.911819 0.03145 
213.809433 1.967287 
214.874634 0.377299 
214.899872 0.086672 
214.929428 0.247566 
215.848526 1.096149 
217.857086 0.108778 
218.83902 0.081315 
218.855347 0.384803 
218.866425 0.071677 
218.883377 0.161438 
220.276627 0.029406 
220.852905 0.060673 
220.89888 0.80916 
220.917023 0.120196 
222.725525 0.024992 
222.848999 0.027235 
222.880829 0.045926 
222.897522 0.035019 
226.893265 0.045917 
228.873215 2.900182 
228.883759 0.423695 
230.906509 0.346505 
236.356644 0.029273 
236.912109 0.03929 
238.839401 0.035174 
242.907028 0.847613 
242.9189 0.028924 
244.878128 1.359827 
244.902344 0.028653 
247.631638 0.03027 
250.196884 0.024076 
251.84552 0.035605 
252.888977 0.240107 
255.2323 0.030589 
255.989563 0.027984 
257.374329 0.030294 
258.057587 0.029267 
258.883453 0.037178 
260.637115 0.02717 
260.863312 1.864375 
260.87616 0.027486 
262.858704 0.03802 
263.623749 0.028901 
271.02359 0.03111 
272.829315 0.031765 
273.827332 0.070805 
274.82489 0.124031 
274.879852 0.275981 
276.836151 0.037607 
277.143127 0.028764 
281.687134 0.029697 
283.262451 0.031336 
283.871063 0.057789 
292.835541 0.856822 
293.179443 2.16972 
306.644257 0.038498 
307.061584 0.029141 
307.193085 0.039643 
310.048065 0.030449 
311.020355 0.026121 
312.966278 0.027807 
317.563904 0.028541 
318.89679 0.032236 
325.184174 1.635461 
345.67804 0.024256 
347.07489 0.231278 
351.183289 0.121351 
355.118835 0.0624 
358.519135 0.025243 
366.971405 0.032318 
368.234985 0.027944 
370.813568 0.042559 
371.113129 0.186434 
377.894684 0.028841 
383.112885 0.171147 
384.084656 0.819503 
395.027496 0.025747 
399.107697 0.435811 
407.90451 0.026353 
413.922668 0.029144 
424.32724 0.122515 
424.423431 0.073433 
425.105194 0.033848 
425.226715 0.166074 
425.257965 2.085492 
426.260437 0.174434 
427.031372 0.13856 
427.104553 0.029984 
427.233215 0.028068 
431.446167 0.028909 
END IONS

