BEGIN IONS
PEPMASS=635.35
CHARGE=1+
COMPOUNDNAME=Astaxanthin
LIBRARYQUALITY=3
SMILES=N/A
INCHIKEY=MQZIGYBFDRPAKN-QISQUURKSA-N
INCHI=InChI=1S/C40H52O4/c1-27(17-13-19-29(3)21-23-33-31(5)37(43)35(41)25-39(33,7)8)15-11-12-16-28(2)18-14-20-30(4)22-24-34-32(6)38(44)36(42)26-40(34,9)10/h11-24,35-36,41-42H,25-26H2,1-10H3/b12-11+,17-13+,18-14+,23-21+,24-22+,27-15+,28-16+,29-19+,30-20+
MSLEVEL=2
SOURCE_INSTRUMENT=N/A-ESI-QFT
FILENAME=library_mgf.mgf
SEQ=*..*
IONMODE=positive
ORGANISM=MONA
NAME=Astaxanthin [M+K]+
PI=MoNA
DATACOLLECTOR=MoNA:VF-NPL-QEHF003110
PUBMED=N/A
SUBMITUSER=mwang87
TAGS=
SPECTRUMID=CCMSLIB00004694173
SCANS=3110
50.76479 0.202575 
51.798584 0.215972 
52.245766 0.180581 
52.535088 0.186189 
52.606224 0.229857 
53.003029 0.28725 
53.039391 0.519692 
54.020298 0.211667 
55.018555 1.459549 
55.054985 16.779768 
56.050274 0.390151 
56.058441 0.237159 
57.034286 2.699759 
57.070644 57.102081 
58.042122 0.359679 
58.074066 0.831789 
58.256649 0.229204 
58.276649 0.22601 
58.815411 0.189783 
58.901951 0.216049 
59.049877 9.283022 
59.061123 0.597013 
59.544327 0.21349 
60.045116 9.461964 
60.538086 0.215523 
61.011372 1.051608 
61.925453 0.225681 
62.019135 0.274444 
62.757957 0.204924 
62.982479 14.944315 
64.55304 0.238765 
64.647774 0.202519 
64.897743 0.212507 
65.308945 0.240358 
65.529182 0.192054 
65.643219 0.176956 
66.693359 0.201116 
66.757729 0.238145 
67.054932 27.865839 
67.346649 0.209051 
68.058319 0.300392 
68.064606 0.185148 
69.034157 3.607911 
69.07058 22.370596 
70.065826 3.124067 
70.07386 0.350921 
71.049805 5.885517 
71.061089 0.625737 
71.086212 54.43552 
71.397377 0.207665 
71.449921 0.178007 
71.504349 0.244063 
72.081429 0.254579 
72.089554 0.951993 
73.029045 7.961011 
73.047409 2.134183 
73.06543 6.284101 
73.240067 0.190573 
74.097069 1.92108 
75.026581 0.25287 
75.044647 0.639988 
75.726746 0.208098 
77.141037 0.243821 
77.901657 0.213807 
78.956291 0.984288 
79.021774 8.188499 
79.054848 11.24096 
79.545715 0.218134 
79.780983 0.253844 
80.050262 0.227334 
80.055153 0.883013 
80.058113 0.227688 
80.948448 9.987012 
81.01899 0.270628 
81.034103 0.691244 
81.070457 30.103588 
81.905708 0.202755 
82.065674 0.925614 
82.073875 0.291535 
82.184601 0.183954 
82.945381 2.616441 
83.049667 8.65886 
83.083549 0.328823 
83.086098 16.115656 
83.281174 0.201547 
84.081337 1.130722 
85.028954 1.32236 
85.065361 4.785844 
85.10173 27.390738 
86.060631 0.298889 
86.097031 1.304927 
86.105133 0.384339 
87.044601 25.330849 
87.23822 0.225146 
87.602531 0.21544 
88.075981 0.412758 
88.978569 0.835908 
89.060242 100.0 
90.06353 2.048335 
90.977173 0.219287 
91.054733 12.864359 
91.057831 27.117689 
92.05761 1.125848 
92.061203 0.97652 
93.037125 0.282553 
93.054604 2.319477 
93.070343 19.465204 
94.073662 0.507016 
94.128937 0.196407 
95.049553 12.192526 
95.085968 30.900862 
96.089294 0.741153 
96.879616 0.291538 
96.922165 2.364743 
97.028709 0.385027 
97.065193 5.769128 
97.101624 11.072117 
98.105103 0.31108 
99.044525 3.185293 
99.080849 1.248663 
101.060028 2.057972 
102.067795 0.4808 
102.091713 1.639684 
103.039246 0.38316 
104.992744 6.568908 
105.033379 0.231495 
105.07019 12.503793 
105.230217 0.227764 
105.643906 0.240126 
106.073494 0.279855 
106.556389 0.229014 
107.049423 3.536648 
107.070549 3.702651 
107.085823 18.470663 
107.488495 0.207823 
107.967087 6.619563 
108.18293 0.235073 
108.486183 0.242786 
108.753601 0.210285 
108.98954 0.25289 
109.028725 1.218418 
109.036781 0.199402 
109.064995 6.646033 
109.101509 22.765055 
110.104691 0.889599 
111.044289 2.83732 
111.080719 5.118989 
111.117043 2.107911 
112.845665 0.230804 
113.02372 0.270849 
113.060059 2.828367 
113.064766 0.212176 
114.612251 0.237838 
115.086777 1.441454 
116.404594 0.242926 
116.992844 0.259982 
117.070129 2.968448 
117.091171 0.783251 
118.972023 0.294253 
119.049393 1.965723 
119.085747 15.970259 
120.003395 0.486434 
120.089455 0.323115 
121.064987 25.260691 
121.101303 11.371691 
122.068283 1.043733 
122.104805 0.265507 
123.044144 1.16636 
123.080566 6.417418 
123.117027 5.489722 
123.941238 0.275676 
125.059845 0.803577 
125.096214 5.903225 
127.039368 0.30916 
127.075546 0.812358 
127.527443 0.201041 
127.665146 0.202987 
128.50386 0.260998 
128.953568 1.223313 
129.054733 1.009041 
129.070007 1.273927 
131.070572 0.459639 
131.085526 6.736536 
132.093506 0.289519 
132.12674 0.237267 
132.636261 0.251117 
132.987137 1.634021 
133.064911 2.402648 
133.085953 15.438966 
133.101151 9.76452 
134.104767 0.306308 
134.192154 0.259048 
135.002853 6.746355 
135.044052 0.263505 
135.080475 13.074701 
135.116852 7.816814 
137.059692 2.659135 
137.096008 4.822635 
137.131958 0.277425 
139.075302 1.307716 
139.914505 0.200216 
140.95903 0.861245 
142.938644 0.811558 
143.085571 3.601441 
144.599777 0.26488 
145.064926 1.017957 
145.101181 6.818983 
147.044312 0.335297 
147.080399 12.088316 
147.116821 9.977654 
149.059692 0.960142 
149.096008 10.476245 
149.132431 3.911578 
150.013412 0.961451 
150.067062 0.267538 
150.95163 0.250322 
151.039337 0.332102 
151.075378 0.611033 
151.111679 1.311189 
153.054398 0.226594 
153.091019 1.10897 
154.122665 3.200764 
155.085464 0.276547 
157.064835 0.242627 
157.101242 4.265257 
158.437546 0.265843 
159.080246 2.39369 
159.11676 4.794684 
161.059738 0.279055 
161.096008 4.207701 
161.132324 4.384409 
163.075333 1.421402 
163.111771 4.538887 
163.148376 1.290313 
164.083405 0.255555 
164.920624 8.517723 
164.929337 0.320172 
165.091034 2.483399 
166.094238 0.329458 
166.130447 0.273073 
167.055328 1.527473 
167.070084 0.289749 
167.08548 0.289962 
169.101227 1.136695 
171.080139 0.592722 
171.116867 2.439253 
172.088074 0.267669 
173.096207 2.696821 
173.132568 2.720442 
174.006729 0.311937 
174.013718 0.547756 
175.075211 1.189404 
175.111923 1.704355 
175.148193 0.693345 
177.090363 0.599031 
177.127441 1.401891 
179.106674 0.342491 
180.894501 0.405325 
181.101425 0.221675 
183.04306 0.224628 
183.080231 0.266378 
183.116913 1.599951 
184.979706 0.268236 
185.081207 0.263697 
185.132599 1.335928 
186.927719 0.359045 
187.075531 0.403564 
187.111847 1.220365 
187.585678 0.231487 
188.391251 0.242096 
188.925308 0.247005 
189.090851 0.939027 
189.127289 0.94575 
190.096893 0.276336 
191.070206 1.506775 
191.107025 0.476016 
191.142731 0.643944 
192.96196 0.263166 
193.086105 0.240259 
193.130829 0.240537 
194.115494 1.655183 
195.117767 0.333183 
197.095978 0.413661 
199.111923 0.43016 
201.090057 1.563312 
201.127609 0.629104 
203.052139 0.312676 
203.069931 1.898689 
203.106155 0.648456 
208.496704 0.209849 
209.11702 5.700896 
210.185593 1.562107 
211.111862 1.183335 
213.090912 0.504292 
213.127686 0.254028 
214.116852 0.234736 
215.104828 0.242248 
217.049561 0.715899 
217.081131 1.740712 
217.104935 0.288326 
217.121979 0.209939 
219.17392 0.401852 
219.996872 0.193453 
222.146484 0.469569 
223.109726 0.271067 
223.837341 0.215008 
225.042847 5.505426 
225.088776 0.487776 
225.128265 0.276219 
225.402649 0.181023 
227.039536 1.565004 
227.104446 3.611418 
227.200882 0.367795 
229.122421 1.217657 
231.09964 0.731967 
231.137909 0.86387 
232.091736 8.18625 
235.096359 6.313424 
235.10788 0.235272 
236.236786 0.549674 
238.989853 0.218924 
239.031921 0.507846 
241.122101 0.634928 
243.308365 0.221786 
245.115845 0.238714 
247.205627 8.040812 
248.093689 0.23086 
248.161896 0.580521 
248.208359 0.929336 
250.177658 3.440719 
250.252853 1.765205 
250.383682 0.230471 
251.709213 0.208448 
253.10704 6.36534 
255.231735 2.713814 
260.057037 0.300099 
260.122559 0.228887 
263.90213 0.818984 
264.26889 0.860481 
264.9086 0.55567 
265.991455 0.299411 
266.410583 0.208822 
267.156586 0.542287 
268.030823 0.219855 
272.351807 0.211825 
275.127716 0.280312 
279.916016 0.430516 
281.911896 8.679493 
282.278595 5.044285 
282.913574 0.328419 
283.263489 6.453751 
283.945557 0.257227 
285.009644 1.698916 
287.006531 0.878512 
288.154297 13.331036 
289.157593 0.283927 
291.23172 0.320766 
292.097565 0.265831 
296.933563 0.316793 
299.060913 0.919851 
300.147705 0.866277 
303.020203 0.30262 
304.101135 1.231022 
304.111664 0.936859 
305.927917 0.225997 
306.918793 0.62305 
309.278564 1.66891 
310.309967 9.156085 
311.12735 1.298613 
311.29483 0.713702 
315.12265 0.262377 
320.611603 0.262167 
322.914276 7.706516 
334.069427 0.253213 
336.838623 0.276183 
337.02417 0.298189 
338.192627 0.261193 
341.234894 0.290577 
343.117035 13.856358 
344.976227 1.534201 
345.975372 0.254518 
347.126038 0.228 
347.146271 0.508208 
347.229797 0.277282 
353.175293 1.415844 
353.842804 0.62219 
357.146423 1.253004 
357.201202 0.228545 
357.628448 0.244563 
358.843414 1.056594 
359.028778 0.230375 
360.839203 13.491566 
361.237244 0.750348 
361.8414 0.85661 
371.161438 1.696203 
373.117676 0.626 
376.854004 0.271775 
378.848846 5.145667 
381.172272 0.232603 
383.148224 1.547419 
385.177368 1.152705 
388.221863 0.219754 
394.845001 3.778601 
395.846558 1.004789 
396.84079 4.157751 
405.146332 0.250761 
406.846405 0.258618 
414.851959 0.792222 
418.087738 0.26437 
419.851685 7.309545 
420.855103 2.014242 
425.159729 1.170648 
437.863251 3.693729 
447.214203 0.248725 
447.346252 2.755556 
453.190552 0.371156 
453.859497 0.305536 
455.851654 0.273393 
465.229095 0.297063 
469.257416 2.979349 
493.222015 7.029143 
511.22934 0.881622 
572.402588 0.893639 
604.062195 0.214413 
611.227234 0.279872 
633.453674 22.018492 
634.457947 14.533509 
635.432312 31.771406 
636.43634 9.462755 
637.375854 1.497846 
637.435364 0.489668 
639.281555 0.252663 
641.341248 0.222645 
661.085022 0.260105 
END IONS

