BEGIN IONS
PEPMASS=1876.55
CHARGE=1+
COMPOUNDNAME=Teichomycin
LIBRARYQUALITY=3
SMILES=N/A
INCHIKEY=BJNLLBUOHPVGFT-QRZIFLFXSA-N
INCHI=InChI=1S/C88H97Cl2N9O33/c1-3-4-5-6-7-8-9-10-60(108)94-68-74(113)71(110)58(32-101)129-87(68)132-78-55-26-40-27-56(78)126-52-18-14-38(24-47(52)90)77(131-86-67(92-34(2)103)73(112)70(109)57(31-100)128-86)69-84(121)98-66(85(122)123)45-29-42(105)30-54(127-88-76(115)75(114)72(111)59(33-102)130-88)61(45)44-23-37(13-15-49(44)106)63(81(118)99-69)96-83(120)65(40)97-82(119)64-39-21-41(104)28-43(22-39)124-53-25-36(12-16-50(53)107)62(91)80(117)93-48(79(116)95-64)20-35-11-17-51(125-55)46(89)19-35/h11-19,21-30,48,57-59,62-77,86-88,100-102,104-107,109-115H,3-10,20,31-33,91H2,1-2H3,(H,92,103)(H,93,117)(H,94,108)(H,95,116)(H,96,120)(H,97,119)(H,98,121)(H,99,118)(H,122,123)/t48-,57-,58-,59-,62-,63-,64+,65-,66-,67-,68-,69+,70-,71-,72-,73-,74-,75+,76+,77-,86+,87+,88+/m1/s1
MSLEVEL=2
SOURCE_INSTRUMENT=N/A-ESI-QFT
FILENAME=library_mgf.mgf
SEQ=*..*
IONMODE=positive
ORGANISM=MONA
NAME=Teichomycin [M+H]+
PI=MoNA
DATACOLLECTOR=MoNA:VF-NPL-QEHF027946
PUBMED=N/A
SUBMITUSER=mwang87
TAGS=
SPECTRUMID=CCMSLIB00004721527
SCANS=27946
129.365219 0.023777 
130.836945 0.02414 
133.102798 0.025162 
133.1539 0.023103 
133.433395 0.02399 
135.116623 2.253621 
135.944885 0.023835 
137.132401 0.565602 
137.468018 0.028242 
138.054886 82.671013 
138.211273 0.025478 
139.058289 3.475881 
144.065475 100.0 
144.411957 0.023172 
145.062729 0.096626 
145.068771 3.878982 
146.069809 0.028967 
147.091599 0.875629 
150.055145 0.027081 
153.127228 0.542571 
162.075928 0.683051 
168.065414 15.339179 
169.064651 0.141379 
170.153717 0.022676 
172.169373 1.069266 
184.787811 0.024968 
185.468185 0.029046 
186.075928 10.646388 
186.114243 0.023328 
187.079514 0.200644 
192.439758 0.02364 
195.185715 0.055437 
197.05954 1.171863 
201.572433 0.028771 
204.086533 14.145879 
205.090073 0.284371 
208.041763 0.025272 
208.92717 0.024668 
209.63298 0.023784 
211.634979 0.025351 
211.843582 0.022116 
212.070465 0.125674 
212.6035 0.02327 
213.054321 0.54033 
214.086136 0.171795 
215.070038 3.537726 
216.073639 0.091155 
216.098389 0.022586 
220.169479 0.031486 
222.148804 0.030525 
224.070114 0.155984 
225.054245 0.1101 
225.475174 0.023621 
227.069855 0.072251 
229.399796 0.024894 
229.972733 0.029692 
230.15361 0.18779 
232.169312 0.027168 
235.916367 0.028572 
236.164124 3.319026 
237.167847 0.084167 
237.196259 0.077837 
238.047775 0.025903 
238.179916 1.908804 
239.08107 0.160707 
240.065308 5.621487 
240.087555 0.085486 
240.189987 0.025532 
241.047699 0.02874 
241.069458 0.274375 
241.096863 0.526666 
242.080963 14.788415 
243.030396 0.030381 
243.084198 1.372496 
248.164185 13.021492 
249.167603 1.06011 
250.179932 19.306395 
251.183212 1.590706 
252.065277 0.380333 
253.049133 0.569377 
255.076218 0.029525 
256.655823 0.030549 
257.091644 4.125985 
258.075989 0.079712 
258.095947 0.067083 
259.107452 1.74525 
260.164246 0.114579 
263.989166 0.023131 
264.195496 1.10118 
264.348969 0.025674 
264.376984 0.02716 
265.198425 0.030006 
267.709259 0.028534 
268.059875 1.304991 
269.042786 0.049017 
270.075531 0.140518 
270.968933 0.02719 
276.618805 0.024472 
278.174469 0.678571 
279.207001 0.030572 
280.059967 0.152768 
280.190186 0.855208 
282.075836 0.028786 
284.184448 0.157511 
285.086639 2.986666 
286.070801 2.031862 
286.087738 0.082747 
295.071014 0.144148 
295.128418 0.024665 
296.185303 2.957627 
297.038513 0.026563 
297.085968 0.164468 
297.189026 0.15089 
298.200867 4.201097 
299.060822 0.02555 
299.102173 1.021782 
299.204407 0.135454 
303.097229 13.12971 
304.100311 1.276276 
304.165039 0.189751 
304.188812 0.079346 
308.054596 0.232558 
312.216064 0.024731 
314.065704 0.296515 
314.195679 0.523976 
315.227478 0.347603 
315.679901 0.024904 
316.211151 1.250617 
316.985168 0.028232 
322.290375 0.026689 
324.09787 0.110605 
325.081848 0.073401 
329.076477 14.6099 
329.242828 0.035242 
330.079224 1.4772 
331.39325 0.029983 
332.07608 0.125496 
338.192047 0.025985 
342.10791 0.890935 
343.091797 1.265497 
343.82724 0.029144 
355.801208 0.025961 
356.203278 0.033032 
360.118347 2.192832 
366.104828 0.157724 
374.022491 0.029195 
386.585724 0.024258 
386.639557 0.028254 
397.822906 0.024146 
400.315399 0.030997 
403.015961 0.028061 
406.922943 0.024048 
414.638397 0.025578 
433.412506 0.025218 
438.125244 0.034143 
460.371948 0.030494 
461.476562 0.024298 
463.038788 0.027906 
486.164185 0.026377 
491.206055 0.029876 
493.762146 0.027728 
495.741425 0.024146 
499.151215 0.029566 
508.884979 0.029198 
540.655334 0.029625 
568.471375 0.028604 
572.394531 0.030065 
584.39447 0.071993 
590.400513 0.06112 
592.118408 0.026955 
612.016663 0.024341 
620.708923 0.023779 
637.716736 0.027838 
641.684387 0.024631 
685.775818 0.027125 
691.097961 0.054557 
693.078308 0.058767 
694.106506 0.029277 
704.098389 0.029308 
705.08783 0.054689 
706.111877 1.523346 
707.117859 0.079528 
708.121155 0.134467 
708.203613 0.031948 
710.108704 0.218833 
713.234741 0.054897 
713.30957 0.042147 
713.689697 0.114871 
713.752869 0.08975 
716.096069 0.317355 
718.103882 0.031742 
719.091248 0.026494 
720.097656 0.036606 
720.729797 0.024934 
721.124451 0.153654 
722.108276 0.271572 
723.137268 0.344779 
724.110107 0.029256 
725.12616 0.025042 
732.089661 0.365674 
733.120728 0.173278 
733.782104 0.032122 
734.107483 1.895642 
735.12915 0.208926 
736.114441 0.361539 
737.117798 0.030213 
738.101135 1.212847 
740.109924 0.032423 
744.089233 0.216322 
749.116028 1.081597 
750.103516 0.402394 
751.134521 3.0162 
752.130737 0.361082 
753.128296 0.235689 
755.13324 0.054783 
755.483643 0.03068 
759.100037 0.110645 
760.085144 0.316328 
761.114807 0.991805 
762.101318 0.78423 
763.127869 0.637956 
765.117554 0.057441 
766.096924 0.055448 
767.128418 0.12211 
777.114136 2.877615 
778.112854 0.38349 
779.124451 1.895808 
780.11969 0.144196 
781.11908 0.170873 
782.111145 0.026533 
783.121277 0.258303 
785.129211 0.049108 
787.09552 0.378185 
789.108459 1.567001 
790.101135 0.386923 
791.109436 0.069535 
794.139709 0.062646 
795.122925 0.154923 
796.154358 0.093469 
796.564453 0.026932 
804.122498 0.175657 
805.107056 1.816482 
806.117126 0.189406 
807.107605 0.592097 
808.10791 0.030918 
809.081238 0.038348 
822.132812 0.378236 
823.127869 0.027249 
832.115112 1.484116 
833.103516 2.222958 
834.108276 0.50304 
835.10199 0.452349 
836.10791 0.085265 
841.130127 0.025498 
850.12085 0.06988 
851.131897 0.037098 
868.081787 0.03052 
912.43573 0.250301 
913.452271 0.028919 
924.916931 0.031723 
928.138245 0.064001 
929.144653 0.029835 
930.150757 0.106215 
930.445923 0.037274 
932.155212 0.027746 
940.141907 0.080856 
941.130554 0.065287 
945.046387 0.027661 
945.161865 0.117696 
946.160339 0.112795 
947.182373 0.064282 
955.146423 0.030845 
956.13446 0.606791 
957.158386 0.569502 
958.149536 0.74707 
959.163513 0.100844 
960.155945 0.090778 
961.156982 0.031605 
962.15155 0.030152 
963.165527 0.071962 
967.945312 0.028597 
968.134827 0.029864 
971.149841 0.032919 
973.160828 1.539222 
974.16394 0.547588 
975.171021 0.711584 
976.168396 0.107774 
977.174194 0.029631 
983.140869 0.164141 
984.131775 0.509915 
985.156433 1.284663 
986.155762 0.318311 
987.155823 0.068587 
988.145935 0.028519 
989.158386 0.175782 
989.481018 0.03442 
990.183167 1.055675 
991.171448 0.596553 
992.183716 0.231192 
993.175476 0.065361 
1000.172668 0.2124 
1001.160034 2.647324 
1002.176331 1.779973 
1003.166748 1.118631 
1004.16803 0.251534 
1005.1698 0.070199 
1006.174072 0.095864 
1007.169678 0.092588 
1007.929565 0.02853 
1008.192627 0.179947 
1011.133118 0.066219 
1012.148743 0.062128 
1013.1521 0.244289 
1016.165771 0.143576 
1017.158875 0.501093 
1017.637451 0.030169 
1018.1875 2.571462 
1019.175415 1.415486 
1020.183228 1.048444 
1021.190247 0.272663 
1022.18634 0.075373 
1023.170044 0.033621 
1024.193726 0.030855 
1026.183105 0.028555 
1026.852417 0.027481 
1027.132446 0.069488 
1028.167114 0.510845 
1029.153687 1.866827 
1030.169678 1.535669 
1031.16272 0.491483 
1032.175781 0.114091 
1034.173706 1.205386 
1035.19104 1.250149 
1036.192627 1.660974 
1037.195068 0.456811 
1038.187012 0.098213 
1044.162964 0.183511 
1045.149658 1.663855 
1046.17981 2.878721 
1047.180054 1.700345 
1048.18042 0.976935 
1049.18103 0.288117 
1050.180298 0.031487 
1051.198975 0.097374 
1052.187378 0.631924 
1053.211914 0.497623 
1054.186768 0.034736 
1056.150391 0.102234 
1057.144165 0.338638 
1058.151245 0.058722 
1059.948364 0.029094 
1061.180786 0.183949 
1062.178833 3.043919 
1063.193726 2.962164 
1064.189697 2.558929 
1065.190552 1.46998 
1066.189697 0.532156 
1067.19043 0.094553 
1072.15686 0.202806 
1073.143921 0.913508 
1074.175415 3.042534 
1075.168335 1.04775 
1076.16687 0.783575 
1077.172241 0.102348 
1079.203979 2.5133 
1080.190674 3.940716 
1081.209961 2.949148 
1082.192505 1.128765 
1083.197754 0.393214 
1084.200439 0.073219 
1089.180908 0.200399 
1090.173462 3.616338 
1091.185791 2.531505 
1092.180176 2.135949 
1093.175415 0.955543 
1094.175293 0.316409 
1096.178833 0.028515 
1097.214844 4.134776 
1098.206543 1.325368 
1099.203857 0.728095 
1100.196167 0.146283 
1101.160889 0.076295 
1102.162354 0.060371 
1103.179932 0.059259 
1107.19812 4.662064 
1108.188965 4.043074 
1109.20166 3.931605 
1110.19519 1.762946 
1111.193115 1.070554 
1112.193481 0.260954 
1113.185913 0.20531 
1114.162598 0.075488 
1115.177246 0.096057 
1116.152222 0.063449 
1117.174561 0.125341 
1118.158203 0.976901 
1119.168823 0.375655 
1119.311768 0.031596 
1120.156372 0.401149 
1121.152588 0.112473 
1122.137695 0.07712 
1124.215332 0.101253 
1125.208862 14.43894 
1126.213989 4.670516 
1127.209839 3.862539 
1128.209473 1.864203 
1129.19812 0.905811 
1130.200562 0.340062 
1131.185669 0.429508 
1132.19458 0.314208 
1133.187012 0.262194 
1134.194946 0.073068 
1135.192749 2.530104 
1136.178589 1.484196 
1137.178955 0.942413 
1138.182617 0.414714 
1139.184204 0.109835 
1141.160156 0.062099 
1142.220947 0.161115 
1143.153442 0.058483 
1145.139771 0.126247 
1148.20813 0.064415 
1150.210815 0.105169 
1151.216431 0.034602 
1153.204712 4.229636 
1154.195679 1.586382 
1155.193237 1.303371 
1156.19751 0.701341 
1157.180786 0.274435 
1158.171875 0.760495 
1159.171753 1.476336 
1160.175171 1.162548 
1161.172119 0.964011 
1162.180542 0.631168 
1163.164185 2.511988 
1164.163452 1.254229 
1165.162231 1.404782 
1166.152588 0.660328 
1167.146118 0.156855 
1168.141357 0.064225 
1175.181885 2.00771 
1176.209106 3.647248 
1177.200806 3.064796 
1178.20813 2.993227 
1179.205811 1.470028 
1180.19812 1.105952 
1181.184326 0.490203 
1182.180176 0.306633 
1183.17041 0.117126 
1185.136597 0.230683 
1186.13855 0.117427 
1187.135376 0.325089 
1188.155518 0.04042 
1192.199219 0.866661 
1193.202271 0.434469 
1194.195923 0.770729 
1195.206177 0.319104 
1196.198975 0.033207 
1202.164185 0.045925 
1203.171875 0.075885 
1204.174561 0.087892 
1205.170776 0.093357 
1218.169312 0.037742 
1220.195312 0.925324 
1220.36377 0.028155 
1221.196777 0.585911 
1222.193848 0.854416 
1223.19873 0.402318 
1224.196655 0.068099 
1320.22522 0.034798 
1321.237183 0.038495 
1322.24939 0.039038 
1338.252563 0.493111 
1339.252197 0.317456 
1340.255249 0.523014 
1341.257202 0.162684 
1342.247559 0.051286 
1343.231079 0.033223 
1355.268555 0.048409 
1362.255127 0.122853 
1364.25 0.195594 
1365.253296 0.076309 
1379.291504 1.794216 
1380.290039 1.308244 
1381.292969 1.790164 
1382.278198 1.750038 
1383.268433 1.024632 
1384.249268 0.982864 
1385.258789 0.298742 
1386.25061 0.047812 
1423.270264 0.490108 
1424.276978 0.232128 
1425.263794 0.593145 
1426.268921 0.210488 
1541.324829 0.683977 
1542.326294 0.496705 
1543.328857 0.850215 
1544.328613 0.372312 
1545.336426 0.114625 
1585.318237 0.920817 
1586.316772 0.597404 
1587.318604 0.941088 
1588.31897 0.508086 
1589.327637 0.081128 
1726.109619 0.031593 
1875.638916 0.127227 
1876.121948 0.092017 
1876.38501 0.039203 
1934.468872 0.031165 
END IONS

