BEGIN IONS
PEPMASS=669.422
CHARGE=1+
COMPOUNDNAME=MassbankEU:SM849951 Monensin
LIBRARYQUALITY=3
SMILES=CC[C@]1(CC[C@@H](O1)[C@@]1(C)CC[C@]2(C[C@H](O)[C@@H](C)[C@H](O2)[C@H](C)[C@H](OC)[C@@H](C)C(O)=O)O1)[C@H]1O[C@@H](C[C@H]1C)[C@H]1O[C@@](O)(CO)[C@H](C)C[C@@H]1C
INCHIKEY=GAOZTHIDHYLHMS-GDMSFIFLSA-N
INCHI=1S/C36H62O11/c1-10-34(31-20(3)16-26(43-31)28-19(2)15-21(4)36(41,18-37)46-28)12-11-27(44-34)33(8)13-14-35(47-33)17-25(38)22(5)30(45-35)23(6)29(42-9)24(7)32(39)40/h19-31,37-38,41H,10-18H2,1-9H3,(H,39,40)/t19-,20+,21+,22+,23+,24+,25-,26-,27+,28-,29-,30-,31-,33+,34-,35+,36-/m0/s1
MSLEVEL=2
SOURCE_INSTRUMENT=ESI-LC-ESI-QFT
FILENAME=/home/mingxun/Data/Spectral_Libraries/MB_EU_Dec2016_newRecords/merged/massbankue.12.2016.mgf
SEQ=*..*
IONMODE=Negative
ORGANISM=MASSBANKEU
NAME=MassbankEU:SM849951 Monensin [M-H]-
PI=Massbank EU
DATACOLLECTOR=Massbank
PUBMED=N/A
SUBMITUSER=mwang87
TAGS=
SPECTRUMID=CCMSLIB00000841832
SCANS=471
135.081696 4018.899902 
137.097 25494.199219 
153.092194 9603.599609 
194.304001 4055.5 
276.241699 3781.600098 
318.017395 4166.600098 
507.153107 4322.600098 
637.393799 27241.0 
669.421875 515574.0 
END IONS

