BEGIN IONS
PEPMASS=537.446
CHARGE=1+
COMPOUNDNAME=HMDB:HMDB00561-784 B-Carotene
LIBRARYQUALITY=3
SMILES=C\C(\C=C\C=C(/C)\C=C\C1=C(C)CCCC1(C)C)=C/C=C/C=C(\C)/C=C/C=C(\C)/C=C/C1=C(C)CCCC1(C)C
INCHIKEY=OENHQHLEOONYIE-JLTXGRSLSA-N
INCHI=InChI=1S/C40H56/c1-31(19-13-21-33(3)25-27-37-35(5)23-15-29-39(37,7)8)17-11-12-18-32(2)20-14-22-34(4)26-28-38-36(6)24-16-30-40(38,9)10/h11-14,17-22,25-28H,15-16,23-24,29-30H2,1-10H3/b12-11+,19-13+,20-14+,27-25+,28-26+,31-17+,32-18+,33-21+,34-22+
MSLEVEL=2
SOURCE_INSTRUMENT=Positive-Quattro_QQQ:40eV
FILENAME=hmdb_intermediate.mgf
SEQ=*..*
IONMODE=Positive
ORGANISM=HMDB
NAME=HMDB:HMDB00561-784 B-Carotene M+H
PI=HMDB
DATACOLLECTOR=HMDB
PUBMED=N/A
SUBMITUSER=mwang87
TAGS=
SPECTRUMID=CCMSLIB00000425921
SCANS=893
52.585 10.574 
92.439 13.461 
172.277 12.979 
333.09 100.0 
352.844 11.536 
372.356 48.074 
377.234 11.536 
409.185 95.19 
461.628 10.574 
536.519 12.5 
542.74 12.5 
END IONS

