BEGIN IONS
TITLE=Scan Number: 40
PEPMASS=924.0
CHARGE=1+
COMPOUNDNAME=Amphotericin B
LIBRARYQUALITY=3
SMILES=C[C@H]([C@@H](O)[C@H]([C@@H](OC(C[C@H](O)C[C@H](O)CC[C@@H](O)[C@H](O)C[C@H](O)C1)=O)C)C)/C=C/C=C/C=C/C=C/C=C/C=C/C=C/[C@H](O[C@H]2[C@@H](O)[C@@H](N)[C@H](O)[C@H](C)O2)C[C@@H]3O[C@@]1(O)C[C@H](O)[C@H]3C(O)=O
INCHIKEY=APKFDSVGJQXUKY-HXSTXIQVSA-N
INCHI=InChI=1S/C47H73NO17/c1-27-17-15-13-11-9-7-5-6-8-10-12-14-16-18-34(64-46-44(58)41(48)43(57)30(4)63-46)24-38-40(45(59)60)37(54)26-47(61,65-38)25-33(51)22-36(53)35(52)20-19-31(49)21-32(50)23-39(55)62-29(3)28(2)42(27)56/h5-18,27-38,40-44,46,49-54,56-58,61H,19-26,48H2,1-4H3,(H,59,60)/b6-5+,9-7+,10-8+,13-11+,14-12+,17-15+,18-16+/t27-,28-,29-,30-,31+,32+,33-,34-,35+,36+,37-,38-,40?,41-,42+,43+,44-,46-,47+/m0/s1
MSLEVEL=2
SOURCE_INSTRUMENT=LC-ESI-Hybrid FT
FILENAME=f.amcaraballor/20140930_Rice1_RLe7vsFLe4_LTQ-FT.mzXML/20140930_R1-A7-A-e2_IT2FT.mzXML;
SEQ=*..*
NOTES=
IONMODE=Positive
ORGANISM=GNPS-LIBRARY
NAME=Amphotericin B M+H
SPECTRUMID=CCMSLIB00000223998
ACTIVATION=CID
INSTRUMENT=ion trap
SCANS=40
215.193604 2.949534 
216.094086 0.830773 
218.319214 2.85922 
219.122177 1.181146 
223.064911 3.845314 
226.198196 5.236857 
227.31041 4.173249 
229.150421 7.825947 
231.067551 6.658601 
233.322601 3.874498 
236.208389 6.28046 
237.27536 7.298187 
238.345215 3.744643 
239.224808 14.127707 
240.371231 2.603933 
241.296066 5.21105 
242.339005 5.601349 
243.541779 3.690965 
244.472595 0.975736 
245.246384 7.490635 
245.941879 2.033858 
247.08049 4.144645 
249.163879 6.193279 
250.479706 1.255885 
251.298111 5.7742 
253.230301 1.928636 
255.165085 1.449498 
257.25766 2.062348 
258.351562 1.753191 
259.271271 14.127116 
261.152649 9.3181 
262.141998 1.058447 
263.145264 2.225263 
264.483093 2.489585 
265.176331 5.093571 
267.254608 7.17642 
268.479584 11.995329 
269.341766 3.645662 
271.184631 9.406904 
273.514832 1.62778 
275.139771 6.31373 
276.146057 6.31815 
277.084045 8.79419 
279.233032 1.894035 
281.437927 1.678466 
283.205658 11.201532 
283.830505 2.460259 
286.193024 3.117888 
287.390564 5.206282 
289.608398 4.294264 
290.519867 1.179464 
291.195374 9.547203 
292.381439 1.909592 
293.019775 7.439835 
294.479462 4.693817 
295.3302 5.549131 
296.227997 3.527117 
297.359436 2.147646 
298.23172 2.310751 
299.291138 1.839516 
301.129425 40.93264 
302.325562 1.934169 
303.181824 4.51382 
304.391052 1.509484 
305.236115 3.811714 
307.388733 10.252996 
308.340607 6.677111 
309.326141 5.91124 
310.520355 9.372637 
311.138611 4.716884 
313.26355 5.112217 
314.793579 4.367514 
315.395477 2.396308 
316.337952 5.629373 
317.345734 10.018615 
318.565552 5.279518 
319.235962 33.631298 
321.121033 11.365387 
323.480316 4.748937 
324.929199 16.629711 
325.591614 1.831944 
326.771393 11.365676 
327.48233 3.314961 
328.351288 6.127058 
329.129456 14.619514 
330.255798 3.984798 
332.598846 11.516603 
333.373047 5.453997 
335.201233 9.9159 
337.239868 26.807201 
338.210846 3.189976 
339.29184 10.794957 
341.475464 4.528547 
343.012299 4.202463 
344.639893 13.049237 
345.419006 10.64348 
346.444061 2.260585 
348.057465 12.693071 
349.240204 1.397859 
351.432556 7.363121 
352.241699 10.557398 
353.345398 6.392997 
354.723999 6.965616 
355.370026 14.674815 
357.243164 15.0153 
358.264496 1.854069 
359.170258 7.011991 
361.325012 25.83493 
362.385986 4.425489 
363.149963 6.317914 
365.261902 8.382318 
366.463745 4.511353 
367.697205 7.167737 
369.533844 1.19815 
371.388489 4.376687 
372.512085 5.602643 
373.438202 1.453837 
374.284607 1.57737 
377.131165 12.062433 
379.023224 6.636898 
381.34494 3.937894 
382.370819 4.140304 
383.439819 11.640741 
385.382202 5.064581 
387.375122 10.425375 
388.191986 3.757318 
389.40863 20.407352 
391.283417 4.081912 
392.404175 1.256366 
393.41394 6.463988 
394.367279 1.996672 
395.155609 17.592566 
397.180725 12.430039 
398.225037 2.70683 
399.367798 4.342302 
400.202576 5.751791 
401.27655 48.076504 
402.251495 15.291311 
403.326294 15.607216 
405.303162 5.665736 
406.229584 5.801585 
406.932556 8.126826 
409.291016 26.121065 
410.396942 2.451023 
411.447021 20.251747 
412.262238 5.858377 
413.454773 9.342239 
415.351318 15.41947 
417.231567 7.461043 
418.007324 0.900305 
419.372803 28.143286 
420.769073 12.506035 
421.448914 21.315632 
422.256409 4.03615 
423.251465 16.832884 
424.330994 8.012083 
425.375275 8.335685 
426.191284 1.925649 
427.335205 18.52923 
428.636169 2.775722 
429.471252 2.546843 
430.339142 1.160321 
431.440491 2.513766 
432.378052 6.278015 
433.300079 10.167297 
434.329803 9.006536 
435.343567 3.599858 
437.297546 21.549477 
438.956909 12.795238 
439.572235 3.905142 
441.205505 31.51321 
442.434937 2.957344 
443.367126 17.561192 
445.187317 26.39138 
447.151428 4.576274 
448.204132 7.949262 
449.5383 1.417994 
450.414551 2.719013 
451.364349 6.03368 
452.172821 1.337824 
453.29068 4.98662 
454.419434 4.842966 
455.616791 3.722512 
456.262604 2.271656 
457.308746 7.996428 
458.173828 2.052457 
459.446747 9.807693 
460.419128 3.019541 
461.332977 11.855484 
462.630829 6.524117 
463.360565 5.887407 
464.436096 18.476585 
465.150024 1.079948 
467.371857 5.537808 
468.346039 7.703069 
469.399139 10.579921 
471.113129 8.304201 
473.241516 1.673523 
474.403046 11.784691 
475.418304 6.695975 
476.073883 1.515745 
477.492218 22.433716 
478.599579 1.945774 
479.34726 2.880424 
480.372467 3.424874 
481.350098 7.186512 
483.1185 6.047369 
484.475616 5.228877 
485.390045 8.469219 
487.203033 11.037973 
489.187592 11.901422 
490.362366 3.264257 
491.377411 15.108856 
492.329742 11.266848 
493.22699 8.34445 
494.280609 3.428813 
495.356049 7.980831 
496.792786 2.000826 
499.476898 9.279783 
500.261322 7.551488 
501.09433 9.547495 
503.256256 30.353848 
504.534973 1.594849 
505.319489 1.273144 
507.330872 9.924434 
508.397705 6.671683 
509.440765 10.085577 
510.477753 7.528956 
511.370667 10.034845 
512.716553 0.96226 
513.423096 4.387345 
514.377991 0.993023 
515.366577 20.420212 
516.238098 10.720068 
517.383667 17.068005 
519.283325 49.645836 
520.668091 14.580679 
521.516663 8.109872 
522.246155 10.78999 
523.411072 28.816938 
525.268677 36.178513 
526.533386 12.353018 
527.429199 14.808009 
528.304199 1.954511 
529.499512 8.673891 
530.291016 5.890158 
531.316589 6.492126 
532.446045 4.416157 
533.347778 19.150505 
534.284729 20.607742 
535.262939 15.688413 
537.184448 30.858198 
538.287109 11.189754 
539.543701 25.480194 
540.405151 0.764751 
541.452942 7.740062 
542.550903 11.13042 
543.595825 15.11898 
544.426208 7.62058 
545.305725 1.163377 
546.328369 0.686954 
547.435669 4.195915 
548.426208 10.484213 
549.311584 11.560468 
550.970581 32.728817 
552.326233 17.728035 
553.734985 11.750489 
555.015808 9.153727 
555.713135 6.200683 
557.279053 18.452448 
558.134033 4.823896 
559.422485 1.873396 
560.441528 4.864276 
561.641357 17.428671 
562.316406 1.839515 
563.442261 15.874369 
564.30127 2.152084 
565.374634 18.311815 
566.254883 1.473343 
567.447144 4.670134 
569.290283 33.898594 
570.772339 3.525432 
571.550659 6.878604 
573.404419 11.045654 
574.442139 5.104295 
575.348694 10.535213 
576.396179 12.07306 
577.503784 0.947456 
578.217773 5.174214 
579.408447 34.074631 
580.230103 2.736332 
581.379639 39.934532 
582.662292 7.672686 
583.416138 13.102205 
584.45105 1.323147 
585.855957 4.38031 
587.381104 28.530233 
589.615845 13.425647 
590.618225 7.187484 
591.592285 21.66367 
592.335938 8.817274 
593.130066 3.41034 
594.195923 11.148102 
595.405457 18.640284 
596.128784 6.38849 
597.362244 11.746662 
598.399414 12.869183 
599.283875 22.247416 
601.48822 410.363098 
602.444946 27.463373 
603.405273 8.265334 
604.485962 9.379384 
605.3125 5.40271 
606.213989 4.127953 
607.462952 5.870788 
608.525879 14.040637 
609.381287 37.280598 
610.479492 5.39806 
611.366943 9.64631 
613.338135 14.999786 
614.696167 1.468868 
615.414917 11.607731 
616.398376 3.439309 
617.506897 19.768223 
618.590332 12.178111 
619.730042 13.896717 
620.582275 6.330379 
621.241333 7.295826 
622.591064 1.39612 
623.405273 8.223472 
624.00769 4.555169 
625.37439 17.596752 
626.668091 21.551956 
627.450195 47.297554 
628.532959 18.22636 
629.472168 9.648708 
630.539917 2.935812 
632.372192 2.165609 
634.068848 23.164234 
635.254944 54.026207 
636.39563 32.278118 
637.36084 9.183202 
638.059204 1.209909 
639.145935 17.655769 
639.832764 8.255783 
640.464355 3.290613 
641.37616 6.534656 
642.42627 9.156015 
643.503357 7.714285 
645.29541 31.277065 
646.427246 13.318096 
650.314453 2.458461 
651.008789 11.926941 
651.739929 3.159448 
653.213013 109.533218 
654.363892 71.877937 
655.393982 20.354458 
656.216492 2.695075 
657.615906 2.520366 
658.45697 12.450031 
660.360962 2.663124 
661.498474 19.694941 
662.629272 5.60209 
663.765259 10.982225 
664.620789 6.284588 
666.159668 11.149164 
667.288208 8.431778 
668.46106 19.828125 
669.459167 34.436592 
671.322266 250.770554 
672.487915 77.524704 
673.824341 8.74653 
676.303345 14.55478 
677.43335 6.719356 
678.166748 3.829146 
679.499878 45.349003 
680.443054 9.992393 
681.065674 11.300564 
681.849609 15.966329 
682.558716 10.473187 
683.495239 10.929989 
684.430603 2.358824 
685.290649 10.084623 
686.30835 18.6605 
687.414307 61.197189 
688.638794 54.814438 
689.410339 207.339737 
690.373657 108.558411 
691.229553 11.215047 
692.170105 1.603438 
693.364624 11.529547 
694.796021 4.489717 
695.761475 17.718294 
697.480652 123.386421 
698.584961 28.190056 
699.785583 17.898163 
700.796814 5.046456 
701.547607 0.996762 
703.365601 7.308294 
704.276611 16.702866 
705.286133 29.422699 
706.533325 70.51532 
707.325562 333.479858 
708.380737 111.62326 
709.541748 18.027054 
710.513428 16.624815 
711.530884 1.448158 
712.277466 13.108196 
713.301147 12.148555 
714.241943 0.654027 
715.347534 10.143513 
716.604858 3.275879 
717.609497 5.985292 
718.398193 3.896887 
719.394531 6.019681 
720.400269 11.141861 
721.374512 12.980914 
722.402588 20.132114 
723.406738 51.782173 
724.541504 68.459335 
725.278809 458.305878 
726.302124 124.406342 
727.389526 17.698648 
728.293823 13.547093 
728.992065 11.746936 
730.438965 13.707907 
731.528687 10.776394 
732.403076 12.376617 
733.431519 13.743322 
734.407349 3.929651 
735.394653 3.736621 
737.483154 2.879678 
738.691406 1.222653 
739.62854 12.089872 
741.179443 65.788551 
742.284302 48.61459 
743.467285 117.889282 
744.525391 56.577229 
745.465576 35.831848 
746.265503 17.668732 
746.917358 14.512309 
748.31604 45.78157 
749.369263 33.706551 
750.643677 15.741256 
751.411865 5.205929 
752.017578 6.399135 
752.74292 1.957663 
753.420288 4.904477 
754.423584 9.788225 
755.478149 11.602451 
756.466064 10.091796 
757.658813 21.966322 
758.787964 31.622835 
759.549194 49.593563 
760.675171 12.663482 
761.552734 10.120985 
762.5896 78.685501 
763.480713 150.426132 
764.406494 29.687283 
765.601318 3.996665 
766.749634 18.905235 
767.361816 53.181911 
768.26416 25.744551 
768.87561 2.474071 
769.879028 23.011562 
770.973145 18.79257 
771.691284 0.700446 
772.418091 2.884322 
773.954834 14.316251 
774.822876 11.786251 
775.616333 10.289296 
776.39917 6.637487 
777.430176 28.445568 
778.41333 7.258599 
779.240356 16.689983 
780.464111 240.655212 
781.45752 114.287857 
782.578491 29.851673 
783.779297 3.631709 
784.449707 4.346802 
785.450562 3.151914 
786.502197 22.64592 
787.374756 7.577628 
788.561157 13.094985 
790.072021 34.69175 
791.399902 11.174454 
792.384277 5.955053 
793.36145 22.808496 
794.414429 15.457165 
795.761108 24.853394 
796.840576 8.98578 
798.27124 21.214104 
799.185547 14.989972 
800.362061 13.054941 
801.439819 73.193687 
802.552002 41.224506 
803.415405 27.878914 
804.460083 10.274414 
805.428345 70.078674 
806.36853 40.847382 
807.430054 33.536774 
808.655518 21.664627 
809.487671 27.47633 
810.271362 9.485345 
811.101807 20.848387 
812.18042 14.567904 
813.156372 7.160648 
814.337524 6.803654 
816.698853 13.983098 
817.625977 41.417007 
818.752563 33.603672 
819.584473 400.241272 
820.492432 183.10585 
821.650635 81.768639 
822.312622 2.204274 
823.392334 16.019688 
824.417725 34.592052 
825.465942 10.79887 
826.527466 32.135059 
827.409424 13.093874 
828.394653 9.416262 
829.413452 87.275452 
830.460205 28.965956 
831.692017 10.455764 
832.67395 7.693768 
833.888794 17.825476 
834.750854 11.941581 
835.989624 3.079577 
837.41272 110.579216 
838.329834 74.248726 
839.463501 28.005022 
840.199341 9.286243 
841.258911 53.216965 
842.353638 96.325882 
843.485962 45.162392 
844.529907 174.995697 
845.501709 72.762192 
846.44043 62.73859 
847.459595 10.187399 
848.583618 20.3829 
849.387817 12.852847 
852.010864 15.605616 
852.954834 22.395618 
853.880249 10.022726 
855.450073 13.759131 
856.37561 5.819376 
857.615356 19.296431 
858.514526 3.412227 
859.82312 37.89698 
860.658691 42.222691 
861.703125 87.026627 
862.567139 867.327332 
863.549438 506.560486 
864.545044 207.241486 
865.581177 18.783518 
866.759155 24.414999 
867.484009 14.189822 
868.509399 8.964746 
869.608521 10.47481 
870.594238 48.432842 
871.417725 20.029255 
872.29541 30.010437 
873.635132 13.496773 
874.622925 25.354996 
875.557007 10.04202 
876.519531 30.125565 
877.469238 20.000246 
878.81665 48.113689 
879.865479 51.803143 
880.574829 163.911255 
881.496704 108.87838 
882.536133 64.46032 
883.979614 38.789253 
884.78772 11.189381 
885.651245 29.660166 
886.529419 74.334068 
888.426025 1200.98877 
889.479126 676.746826 
890.506958 359.254761 
891.566772 84.38829 
892.442749 94.810074 
893.325317 58.612602 
894.281616 6.522666 
895.088013 16.466549 
896.055786 41.538376 
897.444458 16.643362 
898.856323 17.540815 
899.655151 18.699207 
900.653198 16.716454 
901.480469 32.098488 
902.319702 14.744429 
903.420166 135.740112 
904.513794 1028.231812 
906.462769 20616.4375 
907.48999 8577.554688 
908.475464 2442.922119 
909.198242 8.296295 
909.891235 1.248224 
914.640137 8.372717 
921.793213 2.90644 
926.364136 7.375163 
END IONS

