BEGIN IONS
PEPMASS=143.0
CHARGE=1+
COMPOUNDNAME=Massbank:KO002838 Ectoine
LIBRARYQUALITY=3
SMILES=CC(N1)=NC(CC1)C(O)=O
INCHIKEY=WQXNXVUDBPYKBA-UHFFFAOYSA-N
INCHI=1S/C6H10N2O2/c1-4-7-3-2-5(8-4)6(9)10/h5H,2-3H2,1H3,(H,7,8)(H,9,10)
MSLEVEL=2
SOURCE_INSTRUMENT=ESI-LC-ESI-QQ
FILENAME=Massbank_ESI_positive_8_1_2014_peaks.mgf
SEQ=*..*
IONMODE=Positive
ORGANISM=MASSBANK
NAME=Massbank:KO002838 Ectoine [M+H]+
PI=Putative Massbank Match
DATACOLLECTOR=Massbank
PUBMED=N/A
SUBMITUSER=mwang87
TAGS=
SPECTRUMID=CCMSLIB00000218178
SCANS=8640
41.6 54455.5 
42.0 1826734.5 
43.1 108911.0 
44.0 168317.0 
54.1 49505.0 
56.3 2217824.0 
58.2 34653.5 
68.1 19138633.0 
69.9 163366.5 
73.7 24752.5 
80.1 198020.0 
82.1 54455.5 
83.1 1450496.5 
96.5 39604.0 
97.1 1539605.5 
97.9 64356.5 
END IONS

