BEGIN IONS
PEPMASS=243.0
CHARGE=1+
COMPOUNDNAME=MoNA:2233815 5-(2-Oxohexahydro-1H-thieno[3,4-D]imidazol-4-yl)pentanoate
LIBRARYQUALITY=3
SMILES=N/A
INCHIKEY=YBJHBAHKTGYVGT-ZKWXMUAHSA-N
INCHI=InChI=1S/C10H16N2O3S/c13-8(14)4-2-1-3-7-9-6(5-16-7)11-10(15)12-9/h6-7,9H,1-5H2,(H,13,14)(H2,11,12,15)/t6-,7-,9-/m0/s1
MSLEVEL=2
SOURCE_INSTRUMENT=LC-ESI-QQ-LC-ESI-QQ
FILENAME=output_mgf.mgf
SEQ=*..*
IONMODE=
ORGANISM=MONA
NAME=MoNA:2233815 5-(2-Oxohexahydro-1H-thieno[3,4-D]imidazol-4-yl)pentanoate [M-H]-
PI=MoNA
DATACOLLECTOR=MoNA
PUBMED=N/A
SUBMITUSER=mwang87
TAGS=
SPECTRUMID=CCMSLIB00000573977
SCANS=11228
33.3 1.104972 
42.0 70.797159 
46.0 0.394633 
59.3 2.841358 
68.4 9.234412 
72.1 0.789266 
72.9 2.762431 
73.9 10.181531 
79.4 0.394633 
80.7 0.789266 
82.3 0.710339 
82.8 1.026046 
85.0 0.552486 
91.3 2.446725 
92.8 2.209945 
93.9 0.947119 
95.1 8.602999 
96.3 2.367798 
97.4 4.893449 
98.1 0.868193 
99.4 0.394633 
100.9 0.631413 
103.3 5.288082 
104.8 0.710339 
109.1 1.578532 
110.0 2.131018 
111.3 7.4191 
113.1 1.026046 
114.3 0.23678 
114.9 0.23678 
119.5 0.631413 
120.9 0.710339 
122.3 78.768745 
124.0 1.420679 
127.1 0.552486 
129.8 5.051302 
132.8 2.446725 
133.4 1.420679 
134.9 6.787687 
136.0 0.947119 
136.8 0.789266 
139.2 23.283346 
139.7 1.815312 
140.5 0.552486 
145.3 0.947119 
146.9 0.47356 
148.3 2.367798 
149.0 0.315706 
150.7 0.47356 
152.9 4.340963 
154.0 5.682715 
156.3 44.277822 
157.0 0.552486 
163.5 17.127072 
165.4 12.707182 
166.2 100.0 
168.1 0.552486 
170.3 0.631413 
179.1 5.130229 
181.1 0.631413 
183.3 0.394633 
189.1 0.394633 
191.2 2.446725 
197.2 6.945541 
197.6 1.894238 
199.3 4.893449 
200.4 65.982636 
207.0 2.446725 
209.2 2.683504 
209.7 0.23678 
212.2 0.552486 
227.4 0.710339 
237.1 0.23678 
243.3 42.936069 
268.0 0.552486 
312.4 0.552486 
327.3 0.23678 
END IONS

