BEGIN IONS
PEPMASS=443.219
CHARGE=1+
COMPOUNDNAME=Lovastatin
LIBRARYQUALITY=3
SMILES=N/A
INCHIKEY=PCZOHLXUXFIOCF-BXMDZJJMSA-N
INCHI=InChI=1S/C24H36O5/c1-5-15(3)24(27)29-21-11-14(2)10-17-7-6-16(4)20(23(17)21)9-8-19-12-18(25)13-22(26)28-19/h6-7,10,14-16,18-21,23,25H,5,8-9,11-13H2,1-4H3/t14-,15-,16-,18+,19+,20-,21-,23-/m0/s1
MSLEVEL=2
SOURCE_INSTRUMENT=N/A-ESI-QFT
FILENAME=library_mgf.mgf
SEQ=*..*
IONMODE=positive
ORGANISM=MONA
NAME=Lovastatin [M+K]+
PI=MoNA
DATACOLLECTOR=MoNA:VF-NPL-QEHF002556
PUBMED=N/A
SUBMITUSER=mwang87
TAGS=
SPECTRUMID=CCMSLIB00004693619
SCANS=2556
50.086014 0.653932 
50.568851 0.058996 
50.603287 0.058721 
51.517056 0.654155 
51.94062 0.082222 
52.237049 1.207222 
52.268726 0.987357 
52.280491 0.065609 
53.129093 0.393187 
53.743221 0.388646 
53.844681 0.380865 
53.912159 0.051137 
54.002865 1.769024 
54.156857 1.947881 
54.500584 1.735276 
55.054966 0.773316 
55.126427 1.004929 
55.468166 1.719088 
55.584229 0.36953 
56.123554 0.170677 
56.612083 0.049097 
56.835735 0.495861 
56.965504 29.734768 
56.967018 0.087623 
56.982594 1.966639 
57.070618 3.332161 
57.489861 0.055811 
57.910934 0.057311 
57.914471 0.795284 
58.065914 0.361459 
58.528835 0.050797 
59.049908 0.208133 
59.061089 100.0 
59.720211 0.070374 
59.838348 0.060876 
60.045017 0.069629 
60.25779 1.585726 
60.361141 0.548506 
60.457413 1.653078 
60.842556 0.557475 
61.011318 2.182545 
61.353695 1.674265 
62.019211 0.422352 
62.953449 0.50418 
63.195255 0.049247 
63.501156 0.059431 
63.58218 0.858847 
64.651443 1.655456 
64.666527 0.607085 
64.986549 0.634937 
65.777962 0.892158 
66.609238 1.361081 
66.721458 0.052667 
67.054909 0.184457 
67.065292 1.664854 
68.042999 0.057093 
68.168488 0.479625 
68.411514 0.482331 
68.888222 0.053861 
69.070534 0.328736 
69.170082 0.398162 
69.304565 1.380791 
70.137245 0.371703 
70.193535 0.078335 
70.958633 0.060687 
70.980957 0.152132 
71.086098 0.065609 
71.129364 0.893565 
71.356995 1.150076 
71.394196 1.910481 
71.464241 0.989549 
71.554817 1.58143 
71.853302 0.196575 
71.952492 0.595049 
72.514282 1.170291 
72.960396 0.12144 
73.047455 6.204925 
73.180939 0.506424 
73.558815 1.15898 
74.831573 0.071141 
75.026505 0.067084 
75.252121 0.046083 
75.338127 1.126278 
75.360954 1.2111 
76.761864 0.054061 
77.77169 1.681937 
78.804192 0.048992 
79.054779 0.246167 
79.750336 1.966719 
79.886177 0.361623 
80.243828 0.051987 
80.805977 1.740868 
81.07045 0.512244 
81.563179 1.702366 
81.966827 0.60947 
81.978035 1.168907 
82.014687 1.119564 
82.731659 0.690705 
83.251251 0.053871 
84.070152 0.0566 
84.211418 0.065806 
84.220459 0.045352 
84.960197 0.154174 
85.213058 0.331686 
85.223785 1.683387 
85.401291 0.063769 
85.515472 0.342815 
86.325394 1.429466 
87.257866 1.092304 
89.056183 0.06914 
89.060135 0.573379 
89.859352 0.852667 
90.168144 1.19953 
90.487045 0.720809 
90.780273 1.372636 
91.054726 3.03641 
91.057838 7.07609 
91.118729 1.695693 
91.225922 0.046631 
93.07032 0.981801 
93.549042 0.463429 
94.264946 0.421056 
95.049583 0.164119 
96.009094 1.20173 
96.350952 1.438195 
96.364868 0.780394 
96.456688 0.387846 
96.561989 1.135396 
97.320061 0.556129 
98.975616 0.0622 
100.630234 1.293216 
100.990944 0.058219 
101.456238 1.256505 
102.524124 0.410929 
104.125542 0.924568 
104.433769 1.685298 
105.070251 1.17201 
107.018234 1.126268 
107.0858 0.070284 
107.465309 0.90058 
108.312469 0.049011 
108.621803 1.262346 
109.047256 0.054481 
109.411987 0.345691 
109.475365 0.364869 
110.200439 0.35835 
110.207191 0.060407 
110.763451 1.87971 
111.461555 0.45835 
111.697411 0.068274 
112.572197 2.006386 
114.809174 1.514053 
115.916794 0.046915 
117.070053 0.988211 
117.163544 1.84615 
119.085648 0.395662 
119.258003 0.199203 
121.012077 1.053092 
121.064896 0.932325 
121.705368 0.187325 
121.985168 1.730327 
123.608208 0.172744 
125.932487 0.053119 
127.006119 0.066872 
127.09288 0.356177 
128.644943 0.794473 
128.738205 1.951454 
129.069885 0.419053 
130.841003 1.863354 
131.08551 3.141293 
133.537048 0.831603 
134.124146 0.396918 
134.331238 0.183725 
136.521423 1.038897 
139.006989 0.066595 
139.746719 0.061359 
141.022125 0.309457 
142.077682 0.197799 
143.085464 0.646359 
144.056396 1.865172 
145.01709 0.076335 
145.10112 0.742219 
145.499039 0.196064 
146.974503 0.165932 
147.033432 0.055049 
147.520966 0.054054 
148.971802 0.254275 
148.978424 0.068632 
149.044769 0.539528 
149.360062 0.051153 
149.847412 0.494547 
152.037766 0.973377 
152.262299 1.575138 
152.624237 0.061092 
155.03775 0.138398 
155.085785 0.078878 
155.775375 1.831138 
156.792801 0.060098 
157.017715 0.081482 
157.101318 0.179621 
157.266144 0.19068 
157.516479 0.054283 
158.108902 0.113389 
158.363724 1.181601 
159.032761 2.402204 
159.902374 2.214959 
160.715714 1.625324 
163.91333 2.113103 
164.407669 1.643075 
166.084381 1.095648 
167.048264 1.38468 
167.055374 1.442207 
173.048203 0.191462 
174.511414 1.702981 
177.043304 9.4884 
177.530746 0.050044 
181.100388 0.366303 
181.455612 0.064941 
183.928101 1.797304 
184.295227 2.093106 
184.887177 0.951352 
186.160873 1.511408 
192.169464 1.05603 
193.057541 0.056354 
193.099564 0.053952 
195.053833 1.516149 
202.615128 0.714493 
202.959976 0.610395 
203.127335 0.241445 
203.381439 0.239911 
205.15831 0.061357 
207.293869 0.050885 
209.010849 0.226754 
214.067444 1.572084 
216.950089 0.063009 
217.052856 0.073696 
218.775177 1.034525 
218.945236 0.052419 
220.083374 0.914937 
220.10083 8.565822 
220.902557 1.166231 
222.89859 4.10533 
225.042831 1.255336 
227.021973 0.514949 
228.119614 1.495655 
229.895889 0.325916 
231.264877 0.589648 
231.69957 0.733796 
231.895828 0.831191 
232.02977 0.516139 
238.913589 0.091681 
240.909241 1.546226 
242.284271 0.073401 
243.203873 0.17975 
245.04834 0.064356 
245.084305 0.060002 
247.063934 0.070767 
247.130447 0.190174 
247.906799 0.067626 
250.024414 1.141985 
251.782089 0.068181 
254.00853 1.687397 
255.720993 0.190779 
256.4617 0.528402 
257.36853 0.068636 
259.063751 0.097151 
263.401398 0.061393 
264.639435 0.069024 
266.266144 0.472628 
269.084381 0.178885 
273.860779 2.056008 
274.149139 0.931499 
277.074738 0.265207 
280.687469 1.33448 
293.881866 1.731213 
294.911865 0.054446 
295.024078 0.057476 
297.114685 0.305814 
299.131744 0.396578 
305.825165 0.192618 
305.940033 0.056417 
311.183075 0.055354 
312.760498 0.053153 
315.252228 1.861965 
317.142548 0.067093 
317.284576 1.136309 
318.623199 1.597318 
320.405853 1.907896 
324.902161 2.012048 
324.97998 0.17057 
331.03009 1.32751 
338.261078 0.065013 
338.886627 0.366416 
341.164337 0.083852 
341.565735 0.07439 
342.996765 0.110238 
343.104462 1.042248 
346.077454 0.470148 
358.920776 0.065524 
360.245605 1.6463 
360.755646 0.062904 
364.803253 1.659586 
370.214691 1.089286 
378.700928 1.64771 
383.243958 0.180291 
383.475433 1.363225 
386.161407 0.049887 
389.920288 1.003378 
392.905579 0.061646 
393.966553 0.051256 
399.170135 0.372589 
400.173004 0.061486 
400.279785 1.548769 
405.464111 0.050833 
406.75708 0.060312 
407.147522 0.620387 
409.531708 1.882244 
412.267303 1.847492 
423.702454 0.97585 
426.822937 1.868548 
428.333923 1.392468 
434.42215 0.053337 
438.42157 2.192788 
439.759491 1.46941 
443.533813 0.468509 
452.230713 0.049227 
453.04245 0.899954 
464.753601 0.185064 
END IONS

