BEGIN IONS
PEPMASS=289.047
CHARGE=1+
COMPOUNDNAME=Citrinin
LIBRARYQUALITY=3
SMILES=N/A
INCHIKEY=CQIUKKVOEOPUDV-IYSWYEEDSA-N
INCHI=InChI=1S/C13H14O5/c1-5-7(3)18-4-8-9(5)6(2)11(14)10(12(8)15)13(16)17/h4-5,7,15H,1-3H3,(H,16,17)/t5-,7-/m1/s1
MSLEVEL=2
SOURCE_INSTRUMENT=N/A-ESI-QFT
FILENAME=library_mgf.mgf
SEQ=*..*
IONMODE=positive
ORGANISM=MONA
NAME=Citrinin [M+K]+
PI=MoNA
DATACOLLECTOR=MoNA:VF-NPL-QEHF027299
PUBMED=N/A
SUBMITUSER=mwang87
TAGS=
SPECTRUMID=CCMSLIB00004720880
SCANS=27299
50.26722 0.052193 
51.578407 0.03414 
51.940262 0.053547 
52.005013 0.02849 
53.002464 0.253892 
53.948853 0.036477 
54.997051 0.038317 
55.054462 1.973618 
56.035831 0.030851 
56.049709 0.039581 
56.220589 0.024911 
56.965038 22.323198 
57.07011 29.873358 
57.227112 0.033785 
57.69474 0.017806 
58.06535 3.482188 
58.073463 0.928536 
58.209435 0.051098 
59.06871 0.27749 
60.044662 0.071507 
60.307346 0.027377 
60.967747 0.019306 
61.010796 1.967619 
62.018604 1.797931 
62.060184 1.05827 
62.122799 0.028587 
63.997868 0.333988 
64.014359 0.092552 
64.15509 0.020423 
65.421997 0.017554 
65.645996 0.03253 
66.9636 0.027651 
67.054291 0.203127 
67.129326 0.028157 
67.361351 0.05277 
69.069908 0.530893 
69.319153 0.016532 
69.862946 0.057865 
70.06514 22.254135 
70.48838 0.030136 
70.562386 0.030113 
70.980453 0.651187 
71.048988 0.044352 
71.068512 0.766425 
71.085548 19.004494 
71.087799 0.172112 
71.685806 0.032827 
71.952019 0.03741 
72.080971 0.036127 
72.088882 0.74613 
74.710808 0.037172 
74.945732 0.038939 
74.975426 0.270115 
76.192528 0.035794 
76.912895 0.043333 
78.100555 0.031546 
79.003677 0.045707 
79.021172 15.565085 
79.097267 0.033271 
79.141899 0.052077 
79.4729 0.04762 
80.020699 0.024979 
80.024582 0.090019 
81.01693 0.256054 
81.069908 0.15424 
83.08548 0.202924 
83.411057 0.035928 
84.959656 14.03119 
85.046135 0.046852 
85.101151 8.940958 
86.060005 0.41272 
86.096397 0.032406 
86.104469 0.199264 
86.25013 0.029564 
86.361084 0.060241 
86.411057 0.024633 
88.075653 50.592182 
88.580193 0.049166 
88.936676 0.066545 
89.059708 0.159672 
89.07251 0.058781 
89.078949 2.113582 
91.05426 0.103391 
91.057327 0.087465 
92.985924 0.080669 
93.069756 0.039335 
94.154465 0.046622 
95.085495 0.373014 
95.730377 0.04586 
96.028374 0.043519 
96.112297 0.030985 
97.101212 0.089097 
97.893837 0.029995 
98.975281 0.418378 
100.075523 0.03477 
100.251228 0.049262 
100.987686 0.030822 
101.600746 0.055643 
102.091309 5.925854 
102.470718 0.047876 
102.526947 0.030259 
102.952469 0.115719 
102.970169 1.522328 
103.094849 0.034928 
103.596939 0.051342 
104.030815 0.042843 
104.070862 0.038235 
105.069962 0.164786 
106.086235 62.243145 
107.051903 0.056747 
107.085899 0.099998 
107.089478 2.420858 
107.558167 0.044127 
108.090088 0.073406 
108.2453 0.031619 
109.101044 0.099076 
109.942604 0.025911 
110.995636 0.080862 
113.986565 0.030684 
116.985764 0.487004 
117.069725 0.080411 
117.81292 0.031088 
119.001549 0.033937 
119.08532 0.020928 
119.257851 0.037007 
119.530357 0.050579 
119.918762 0.216058 
120.632568 0.03624 
120.980537 0.045928 
121.064461 0.044078 
121.101295 0.03487 
123.349068 0.02045 
123.938896 0.030517 
124.102196 0.044679 
126.192184 0.052599 
128.892166 0.040522 
129.780457 0.032967 
129.879684 0.029173 
131.048996 0.049247 
131.857025 0.047913 
133.017212 0.021488 
133.083237 0.053703 
133.100754 0.056116 
134.978607 3.839422 
134.996262 0.068476 
135.08046 0.036694 
135.400558 0.019227 
135.938599 0.021479 
137.011612 1.555651 
137.059586 0.629885 
137.929031 0.080273 
137.954315 0.035653 
138.012466 0.030855 
138.972198 0.042895 
140.322601 0.035122 
141.427292 0.052198 
141.490158 0.030151 
142.895996 0.030087 
145.028 0.086401 
145.064819 0.108171 
146.072479 0.724123 
147.043991 0.355431 
147.080643 0.024537 
148.101257 0.024044 
148.884888 0.02652 
149.059616 0.043482 
149.766998 0.049645 
152.064362 0.028119 
152.952057 0.506468 
152.989136 2.764724 
153.949051 0.161975 
153.959595 0.037057 
154.946503 0.04715 
155.022034 0.606312 
159.080383 0.131034 
159.759186 0.033313 
160.299744 0.034303 
161.059555 0.405447 
161.096069 0.019165 
162.080917 0.021439 
162.731232 0.038605 
163.074966 0.252664 
165.09079 0.047695 
166.606125 0.03478 
169.016357 0.036692 
169.113358 0.023357 
169.288116 0.033659 
170.963074 0.823983 
170.99942 0.037056 
171.025589 0.027634 
171.080338 1.023378 
171.543777 0.039103 
172.272247 0.024295 
173.077881 0.047939 
174.066849 0.034627 
174.104874 0.035723 
175.042694 0.076386 
175.075317 0.44946 
175.95108 0.034144 
177.037964 0.026928 
177.054276 0.203853 
177.090866 0.197723 
179.036041 0.080695 
179.537781 0.053572 
180.009155 1.380629 
181.015717 0.067165 
184.902786 0.030339 
186.043655 0.79936 
186.626541 0.024668 
187.027252 0.052723 
188.040558 0.115819 
188.973831 0.381712 
189.090866 0.576425 
190.158844 0.256706 
190.307465 0.047831 
190.550003 0.142265 
190.999802 0.063247 
191.733505 0.029532 
192.043259 0.03376 
192.54715 0.031149 
193.01683 0.078545 
193.053131 0.339095 
195.049072 1.122836 
196.135757 0.054366 
196.645752 0.094122 
197.014832 2.671081 
197.04631 0.037752 
197.287918 0.038577 
197.973816 0.076616 
198.019836 3.109401 
198.061447 0.129811 
198.080521 0.066183 
198.802399 0.031921 
199.012085 0.11418 
199.02742 0.262331 
199.051117 0.184017 
199.555359 0.740338 
200.058823 0.175776 
202.029892 0.037025 
202.056366 0.090679 
203.0858 0.03371 
204.007751 0.038931 
205.016098 0.378391 
205.0513 0.118612 
205.553238 0.031489 
205.650406 0.221272 
206.024979 0.044436 
206.9953 0.17 
207.032196 0.641798 
207.049194 0.121098 
207.067093 0.679275 
207.101608 0.159478 
207.570724 0.061828 
208.056686 0.574325 
208.56015 0.198728 
209.064011 0.140036 
210.010376 0.044711 
210.020813 0.032698 
210.555038 0.021392 
211.027313 0.461248 
211.06424 0.042937 
211.277847 0.044016 
211.555069 0.039325 
212.014328 0.718679 
213.006058 0.125042 
213.041199 0.044356 
213.067383 0.113196 
213.083221 0.024847 
213.551529 0.020516 
213.567657 0.031775 
214.056183 0.188616 
214.07959 0.582494 
214.533981 0.040075 
214.655914 0.245412 
215.02533 0.615122 
215.036499 0.145734 
215.064301 0.080693 
215.085236 0.061429 
215.413177 0.890824 
216.030533 0.216274 
216.045364 1.500177 
216.093033 0.037826 
216.547028 0.137128 
217.017242 0.041222 
217.036819 0.080006 
217.053085 0.202654 
217.53743 0.039296 
218.042191 0.250978 
218.545792 0.047564 
218.68541 0.027802 
218.99411 0.020332 
219.032852 0.298688 
219.067474 0.044552 
219.080475 0.037986 
219.174072 0.29167 
220.00177 0.04145 
220.040451 0.993893 
220.07518 0.440168 
220.576355 0.036086 
220.894501 0.033492 
221.011475 0.114016 
221.04776 0.07213 
221.062607 0.175887 
221.096848 0.037718 
222.044708 0.047134 
222.072098 0.2589 
222.573303 0.138249 
223.027222 0.085127 
223.064545 0.075097 
223.539276 0.118504 
224.035187 0.327919 
224.737625 0.036826 
225.005646 1.005782 
225.04213 1.408956 
225.051224 1.547052 
225.55188 0.364794 
226.014526 0.137153 
226.047562 0.078357 
226.252533 0.1845 
227.037796 0.130968 
227.565521 0.032515 
228.072327 1.310887 
228.106857 1.242725 
228.574387 0.268927 
229.01741 0.043202 
229.052383 0.079287 
229.079956 1.561241 
229.102768 2.521925 
229.582047 0.353592 
230.024734 5.704984 
230.036911 0.065411 
230.295685 0.033066 
230.966614 0.398366 
231.028336 0.383585 
231.050552 0.082288 
231.080475 0.034226 
232.087799 0.028158 
233.011978 0.417508 
233.048447 0.766423 
233.080978 2.286481 
233.094177 0.077789 
234.019394 0.887964 
234.054642 0.047215 
235.027359 0.422991 
235.052063 0.035727 
235.064041 2.126181 
235.076797 0.084094 
235.111664 0.027557 
236.035873 0.056664 
236.069382 0.77543 
236.571335 0.069306 
236.91275 0.037582 
237.005524 0.990287 
237.043228 0.887123 
237.077621 1.043765 
237.579361 0.082727 
238.014099 0.057878 
238.050552 4.6896 
238.085251 0.644534 
238.56192 0.26105 
239.022308 0.030133 
239.056519 0.439959 
242.045502 0.036526 
243.017059 0.061207 
243.053558 0.17563 
243.411987 0.03528 
243.622528 0.056355 
244.004105 0.918377 
244.05835 0.064118 
244.263367 1.218151 
244.559555 0.02734 
245.048172 2.547775 
245.060684 0.038859 
245.095749 0.207229 
245.266541 0.051792 
246.053024 0.053719 
246.067917 0.020944 
246.082764 0.084013 
246.103424 0.168518 
246.990479 0.021284 
247.027542 0.07996 
247.082031 0.193512 
247.112701 0.037405 
247.998703 0.060417 
248.035278 25.246555 
248.083054 0.25517 
249.040375 3.610826 
249.65361 0.037012 
250.015305 0.07304 
250.045609 0.025212 
250.823944 0.055175 
251.022446 1.564271 
251.058502 0.94115 
251.091232 0.031631 
251.994293 0.032615 
252.030075 1.918907 
252.066467 1.098151 
253.036224 0.176347 
253.074493 4.748033 
254.077576 0.175882 
255.053558 0.174029 
256.061615 0.813292 
256.287933 0.02109 
257.070953 0.055977 
257.135529 2.090698 
258.069397 0.239931 
259.081024 0.577418 
259.114319 0.954771 
259.58313 0.113141 
260.082153 0.205463 
261.090607 1.21442 
262.014465 1.387026 
262.050568 0.566692 
262.097809 0.432941 
263.058624 31.236156 
263.105713 0.38882 
264.062195 4.08849 
265.000763 0.031809 
265.038086 0.300105 
265.091431 0.625365 
265.123962 0.032352 
266.00943 0.312113 
266.045776 8.214982 
266.093201 0.129065 
267.053436 4.364183 
268.057495 0.223739 
268.994293 0.021773 
269.032043 0.058918 
269.068909 0.146756 
269.303528 0.040933 
270.040894 0.070267 
270.077301 0.172192 
270.2789 9.75114 
271.084595 0.450246 
271.28241 1.554699 
272.096863 0.212367 
273.091919 1.966062 
274.062286 0.203865 
274.098389 1.261398 
275.069672 0.105433 
275.105713 1.171134 
276.077789 2.875996 
276.113342 0.033285 
277.03717 0.115028 
278.127686 0.038533 
279.05365 0.221949 
279.101196 0.193073 
279.988586 0.061318 
280.024536 0.043848 
280.060822 0.065642 
281.069244 100.0 
282.072632 13.111989 
283.074829 0.497956 
284.056061 0.316198 
285.063782 0.287149 
287.069885 1.036149 
287.10614 1.612046 
287.146271 0.119063 
287.184906 0.034643 
287.31369 0.121604 
288.077087 1.900441 
288.112518 1.457229 
288.195709 0.085984 
288.231201 0.294489 
288.289215 57.650002 
289.017334 0.030565 
289.049072 0.095997 
289.085846 7.623208 
289.105133 0.158429 
289.122437 9.518421 
289.161438 1.181622 
289.292694 11.698211 
290.055664 0.023451 
290.092407 4.193397 
290.107605 0.169925 
290.124969 1.973671 
290.210907 0.575043 
290.247223 1.219717 
290.282806 2.840633 
291.065063 0.562263 
291.082062 0.119332 
291.101349 17.490316 
291.140259 3.939038 
293.116028 0.037541 
293.154297 0.035812 
294.99469 0.163188 
295.048431 0.391006 
295.084747 1.642082 
296.088623 0.043869 
297.046021 0.122667 
299.042419 0.082269 
299.079742 27.562061 
300.083466 3.5263 
301.087097 0.053458 
304.086304 0.027379 
305.116821 0.527231 
306.122375 0.032579 
307.029633 0.3693 
307.048737 0.502996 
311.724792 0.039256 
313.058807 0.393772 
313.095337 0.269331 
END IONS

