BEGIN IONS
PEPMASS=490.248
CHARGE=1+
COMPOUNDNAME=TOBRAMYCIN
LIBRARYQUALITY=3
SMILES=N/A
INCHIKEY=NLVFBUXFDBBNBW-PBSUHMDJSA-N
INCHI=InChI=1S/C18H37N5O9/c19-3-9-8(25)2-7(22)17(29-9)31-15-5(20)1-6(21)16(14(15)28)32-18-13(27)11(23)12(26)10(4-24)30-18/h5-18,24-28H,1-4,19-23H2/t5-,6+,7+,8-,9+,10+,11-,12+,13+,14-,15+,16-,17+,18+/m0/s1
MSLEVEL=2
SOURCE_INSTRUMENT=N/A-ESI-QFT
FILENAME=library_mgf.mgf
SEQ=*..*
IONMODE=positive
ORGANISM=MONA
NAME=TOBRAMYCIN [M+Na]+
PI=MoNA
DATACOLLECTOR=MoNA:VF-NPL-QEHF011817
PUBMED=N/A
SUBMITUSER=mwang87
TAGS=
SPECTRUMID=CCMSLIB00004702880
SCANS=11817
50.348755 0.141777 
51.025475 0.158572 
51.394447 0.141708 
51.940739 3.635458 
53.002964 2.150079 
53.039364 1.474025 
53.939816 0.447438 
53.998344 0.177689 
54.247189 0.139719 
54.29858 0.145251 
54.771118 0.181069 
54.938255 0.508963 
55.018593 2.971297 
55.054974 21.637215 
55.056488 0.211847 
55.588154 0.14345 
55.809723 0.14498 
55.826736 0.145732 
55.935116 13.673861 
56.050213 15.521859 
56.92762 0.149804 
56.942978 0.366818 
56.9655 23.452446 
57.034267 1.371335 
57.069069 0.724372 
57.070606 71.137306 
57.825298 0.140294 
57.851955 0.137266 
57.935539 2.48937 
58.042011 0.203857 
58.065853 3.45007 
58.073948 1.432738 
58.675285 0.149477 
58.99575 0.213625 
59.049866 2.810863 
59.061066 2.32689 
59.449978 0.134034 
59.930981 0.290118 
59.978142 0.174994 
59.990982 2.922286 
60.045101 0.457757 
60.880039 0.152037 
61.009705 0.295532 
61.01136 47.91547 
61.064651 0.146249 
61.854969 0.136779 
62.014572 0.196289 
62.019169 8.302617 
62.188866 0.154688 
62.982399 1.509913 
63.007118 1.20461 
63.174843 0.171194 
63.738438 0.159214 
63.998447 1.108212 
64.381882 0.195585 
64.978012 0.147928 
65.039268 1.937112 
66.37851 0.142367 
66.828178 0.141683 
67.054893 32.137665 
67.213531 0.150478 
67.314857 0.157258 
67.556892 0.151889 
68.050186 0.340245 
68.058273 0.428192 
69.034203 1.213064 
69.070518 15.255804 
70.065796 4.09881 
70.942421 0.681954 
70.958519 4.918079 
71.049789 2.687297 
71.086128 4.49112 
71.929947 2.272174 
71.952423 0.23942 
72.045021 0.806007 
72.08139 0.726453 
72.937729 11.05194 
73.029015 8.386047 
74.097046 1.406525 
74.447983 0.159672 
74.931541 2.849582 
74.975807 0.189026 
75.026985 0.137914 
76.08683 0.16145 
76.928604 0.170932 
79.021797 14.940659 
79.054771 13.898856 
79.481491 0.152067 
79.495979 0.180836 
80.050087 2.366628 
80.058113 0.178545 
80.394104 0.13543 
80.749733 0.143363 
80.948387 0.925154 
81.034012 1.303214 
81.070412 21.645254 
82.06562 1.200229 
82.073792 0.196245 
82.221725 0.168293 
82.378288 0.155971 
82.850159 0.152073 
82.945587 0.289259 
83.049667 1.137078 
83.086067 5.565793 
83.486511 0.137727 
83.660973 0.159457 
84.044762 0.203934 
84.081322 1.992396 
84.795441 0.171 
85.040184 0.169074 
85.065048 0.229787 
85.101677 0.645176 
86.060722 0.207711 
86.096916 1.101738 
86.973633 0.177294 
87.044556 6.327645 
88.022064 0.312639 
88.076057 0.224732 
88.949348 0.170759 
88.952843 2.031696 
88.968948 5.636515 
88.978607 0.834371 
89.060165 7.830132 
89.964149 1.935426 
90.286148 0.148861 
90.948158 17.723383 
91.054672 18.575193 
91.057838 6.642491 
92.058113 0.390985 
92.213585 0.180578 
93.070282 13.088263 
94.065475 1.978988 
95.049553 6.346633 
95.085922 15.615366 
96.081184 0.910485 
96.995674 0.210075 
97.028625 0.142631 
97.039909 0.498414 
97.065178 0.683115 
97.101654 0.878919 
98.096779 0.645484 
98.950958 0.149175 
98.975731 2.283054 
99.04422 0.161348 
99.080917 0.344712 
99.136086 0.13702 
99.665482 0.132699 
100.104538 0.149696 
101.003227 0.18045 
102.948441 0.575414 
103.039497 0.198927 
103.054482 0.992609 
104.178902 0.139041 
104.963692 0.604162 
105.033775 2.964074 
105.044876 0.376669 
105.070175 11.047805 
105.935181 0.185019 
106.065384 2.100028 
106.073479 0.193818 
106.963242 0.906906 
106.979317 0.878009 
107.0495 1.773553 
107.073151 0.163552 
107.085808 6.005879 
107.95092 0.415869 
107.961792 0.187695 
108.080994 1.944795 
108.958496 12.639627 
109.064911 1.2601 
109.101349 8.60314 
109.85408 0.145877 
110.096886 0.377492 
111.080887 0.210858 
111.11676 0.154083 
112.522308 0.161581 
113.107513 3.080964 
114.055519 0.166283 
115.054306 0.225584 
115.809883 0.132469 
116.053085 0.610056 
116.963646 0.968475 
116.985977 7.326403 
117.069984 3.051424 
117.959244 0.193463 
118.086426 0.199939 
118.943199 0.45489 
118.979706 0.310655 
119.001701 0.160792 
119.049171 0.212659 
119.072906 0.338424 
119.085648 7.577058 
119.95105 0.186681 
120.080917 1.857986 
120.577881 0.155309 
120.940651 0.217399 
120.958549 0.184049 
121.064941 3.100432 
121.088692 0.722888 
121.101257 2.869971 
122.07972 0.160179 
122.096535 0.887514 
122.974037 0.879673 
123.068451 0.183034 
123.08062 0.622329 
123.091759 0.160483 
123.11689 0.159101 
123.945457 0.452616 
124.935608 0.763202 
125.961075 2.464776 
126.968674 0.310111 
127.059738 0.162156 
127.241943 0.182962 
127.825424 0.145785 
127.902809 0.16039 
128.062393 0.299968 
128.726746 0.181459 
128.963577 1.685132 
129.069946 1.909076 
130.064972 0.575407 
130.158966 2.378501 
130.979004 0.601905 
131.000229 1.214554 
131.08551 3.208622 
131.974121 0.266338 
131.986771 0.800892 
132.08078 2.226004 
132.958481 2.120624 
132.995331 0.359006 
133.064514 0.204205 
133.101166 2.276809 
134.096481 3.572342 
134.95639 1.921605 
134.973816 1.941014 
134.978851 0.212615 
134.996353 17.544802 
135.044266 0.271986 
135.080292 1.131067 
135.117233 0.200392 
136.111923 0.268748 
136.77182 0.153835 
136.952972 0.743485 
137.01178 0.156363 
137.096085 0.909559 
138.950928 2.369131 
138.983978 0.263376 
140.983948 0.19839 
141.069778 0.328868 
142.979218 0.922374 
142.999786 0.201874 
143.085571 1.108237 
144.080826 0.628309 
144.958405 1.443276 
144.979385 0.169462 
144.994675 0.579627 
145.016373 0.198056 
145.064758 0.422814 
145.088394 0.170086 
145.101242 1.947652 
146.096497 0.986116 
146.974182 16.609743 
146.980164 0.294405 
146.995819 0.874671 
147.080276 0.834813 
147.11676 1.240517 
147.974579 0.21409 
148.95578 0.204335 
148.971848 8.662686 
148.989517 1.994693 
149.01149 1.62683 
149.024857 0.174351 
149.096115 0.373065 
149.961151 0.184918 
150.950943 10.319913 
150.968719 11.056821 
150.983826 0.158007 
151.020203 0.468279 
151.976608 0.710962 
152.96669 4.208314 
152.989227 5.16968 
153.006912 4.505963 
153.069916 0.273756 
153.958603 0.180183 
154.122574 4.512392 
154.376022 0.149487 
154.96875 0.139319 
154.978073 0.193934 
155.08577 0.250959 
155.935043 0.181349 
155.974091 0.220385 
156.994507 0.225391 
157.101166 0.322182 
158.096542 0.450538 
158.974121 0.444185 
159.011063 0.250901 
159.080521 0.160961 
159.11676 0.195942 
160.111862 0.690032 
160.9897 1.514842 
160.997559 0.200261 
161.010742 0.348558 
161.096344 0.258295 
162.12825 0.198598 
162.416718 0.176327 
162.968887 1.423349 
163.004501 0.445453 
163.111633 0.60117 
164.914734 0.205875 
164.920456 1.221654 
164.984528 1.35522 
164.999649 1.462089 
165.006821 0.153195 
165.090988 0.376055 
165.533539 0.145578 
166.98204 2.410469 
166.990723 0.14726 
167.055359 0.598667 
167.084518 0.171739 
168.916611 0.191208 
168.961609 7.281271 
168.968491 0.174056 
168.97908 0.21746 
168.994492 0.236819 
170.509781 0.145781 
170.956573 2.612823 
170.973709 0.258792 
171.903854 0.388077 
172.005615 0.426448 
172.989502 0.343389 
173.026001 0.162056 
173.984863 0.367026 
175.111786 0.205169 
176.984711 0.56781 
176.999619 0.200765 
177.127396 0.461295 
178.96431 0.519444 
178.978836 0.173773 
179.519958 0.143431 
180.887894 8.286384 
180.994751 0.233121 
181.987885 0.267092 
182.926178 2.208093 
183.981903 0.555548 
184.005981 0.189552 
184.149704 0.133534 
184.989548 1.704113 
185.010941 0.206808 
186.927673 1.337611 
188.021225 0.246274 
188.038452 0.151634 
188.924484 1.684273 
188.973877 0.203573 
189.064224 0.162492 
189.828812 0.173009 
191.880905 0.257084 
192.961823 0.447329 
192.994614 0.663501 
194.97377 0.29042 
196.989868 0.482483 
197.011948 2.462803 
197.890686 0.762063 
198.854095 0.55264 
198.898483 3.528782 
198.920776 0.151655 
199.005783 0.220312 
199.928284 0.177935 
200.878372 0.166036 
201.019272 0.168259 
203.142578 0.454265 
204.888611 0.824666 
205.122131 0.598544 
206.926056 5.462831 
206.978607 0.186123 
208.883316 1.558418 
208.926315 0.183485 
209.891357 2.588082 
210.18512 0.887876 
210.247986 0.161011 
210.920471 0.359833 
210.971375 0.926275 
213.021133 0.203055 
213.88559 0.904891 
214.893631 3.553301 
215.0224 1.634232 
215.901443 2.112471 
218.164261 0.154339 
218.868057 1.011679 
219.173828 0.272525 
220.279358 0.378098 
220.29538 0.851421 
220.311539 0.436764 
220.903168 6.982724 
221.891663 0.193128 
222.885925 0.201534 
222.898483 32.91053 
224.878357 1.326376 
224.897964 0.185168 
224.936829 4.737838 
225.886337 1.80626 
226.534851 0.154472 
226.894058 0.704512 
226.937042 0.601145 
227.900497 1.08833 
228.888077 0.204023 
228.93187 0.64239 
229.895889 9.103124 
231.89621 0.428091 
232.90416 1.047267 
233.1548 0.182177 
233.89093 4.340762 
234.898773 3.640712 
236.914001 1.13082 
237.921539 0.168325 
238.893585 0.517386 
238.913681 19.109015 
239.901291 1.395867 
239.913864 0.244541 
240.718094 0.201076 
240.90892 100.0 
241.910599 0.781803 
241.940384 0.205146 
242.91011 2.512214 
244.90506 0.152241 
245.911575 3.034997 
246.898438 0.196778 
247.906219 12.676161 
248.144806 0.153736 
248.879105 0.228741 
249.130432 1.557071 
249.184586 0.186204 
250.893951 2.688554 
252.929901 0.174514 
252.949432 0.852555 
254.92485 6.886862 
255.896637 1.251838 
257.896362 1.135736 
258.865021 0.17861 
260.237976 0.175463 
262.882538 0.363467 
262.914368 0.243764 
263.902039 2.175395 
264.894226 0.397678 
264.909149 6.403323 
265.034821 0.224883 
265.062347 1.35788 
266.889252 0.644711 
266.926422 0.179199 
268.902344 0.420979 
275.867584 0.385421 
275.901886 1.118564 
276.875946 3.622651 
277.004791 0.973362 
277.901489 0.403756 
279.896179 7.07456 
279.912598 0.183449 
280.923645 0.563305 
281.101013 0.27204 
281.911407 0.767866 
282.919769 8.556456 
285.81601 0.296887 
286.823486 0.216113 
287.81192 0.426144 
287.831024 2.973205 
293.834259 0.518556 
294.032043 0.15924 
294.841888 0.588389 
295.911102 0.45953 
297.906555 8.175452 
300.876801 0.173553 
301.809387 0.631155 
302.741821 0.154417 
302.818085 6.072508 
303.516266 0.157775 
305.045776 0.470084 
310.824066 0.280523 
310.84436 0.172678 
310.911652 0.183731 
312.53595 0.174533 
312.838776 6.991658 
312.911499 0.191328 
322.823639 0.213361 
323.830872 0.254344 
326.818848 0.602704 
327.825836 1.344992 
328.833618 4.028958 
336.841858 1.827547 
337.845764 0.233312 
344.828186 9.158146 
347.622009 0.151793 
351.092926 0.157465 
352.764435 0.166812 
353.844696 0.274649 
358.250824 0.15567 
360.839264 0.214653 
374.271271 0.172709 
379.865234 0.176 
379.908752 0.169896 
380.13501 0.215226 
383.852386 0.250466 
392.282837 0.397015 
402.96402 1.201683 
403.963867 0.21531 
404.847534 0.183892 
407.163544 0.183639 
410.187866 0.150297 
419.039734 0.15842 
420.860962 0.167827 
442.382996 0.17234 
445.807983 0.178975 
447.346497 1.523144 
449.829681 0.157408 
496.759918 0.150707 
497.933167 0.167156 
501.038422 0.148825 
502.489899 0.18978 
511.496796 0.186754 
END IONS

