BEGIN IONS
PEPMASS=293.042
CHARGE=1+
COMPOUNDNAME=Emodin
LIBRARYQUALITY=3
SMILES=N/A
INCHIKEY=RHMXXJGYXNZAPX-UHFFFAOYSA-N
INCHI=InChI=1S/C15H10O5/c1-6-2-8-12(10(17)3-6)15(20)13-9(14(8)19)4-7(16)5-11(13)18/h2-5,16-18H,1H3
MSLEVEL=2
SOURCE_INSTRUMENT=N/A-ESI-QFT
FILENAME=library_mgf.mgf
SEQ=*..*
IONMODE=positive
ORGANISM=MONA
NAME=Emodin [M+Na]+
PI=MoNA
DATACOLLECTOR=MoNA:VF-NPL-QEHF011215
PUBMED=N/A
SUBMITUSER=mwang87
TAGS=
SPECTRUMID=CCMSLIB00004702278
SCANS=11215
50.012928 0.004516 
51.148533 0.004368 
51.465282 0.006156 
51.904114 0.006068 
51.931087 0.004552 
52.535 0.005983 
52.645008 0.004826 
53.002983 0.013783 
53.129864 0.004462 
54.668289 0.036161 
54.834442 0.006578 
55.018646 0.030695 
55.055038 0.246325 
56.050388 0.013344 
56.5387 0.005331 
56.627537 0.005461 
56.763248 0.006802 
56.965672 0.129988 
57.03426 0.394756 
57.070641 3.047124 
57.26239 0.00672 
57.709099 0.004782 
58.065861 0.477353 
58.074009 0.132486 
59.038074 0.005067 
59.049881 0.673936 
59.252945 0.005274 
60.045135 0.036803 
60.555389 0.007567 
61.011375 0.108216 
61.2211 0.006263 
61.805161 0.004598 
61.865227 0.00454 
62.019333 0.022512 
62.188221 0.005274 
62.336605 0.00507 
62.982471 0.120504 
64.287872 0.005883 
67.054939 0.410828 
67.388252 0.005628 
69.03421 0.45844 
69.070557 0.389597 
69.108398 0.004768 
70.037498 0.006229 
70.065826 0.156531 
70.114937 0.005731 
71.049805 0.160694 
71.086189 2.861493 
72.081436 0.145646 
72.089531 0.13822 
72.51577 0.004918 
72.749344 0.005085 
72.965462 0.00632 
73.029099 0.014204 
73.065437 0.115697 
73.343712 0.004246 
73.860146 0.005303 
74.097046 5.981009 
74.976181 0.02349 
75.100441 0.22602 
76.076401 0.005676 
76.525444 0.007402 
76.567459 0.005869 
79.021774 0.506018 
79.054825 0.191988 
79.612663 0.00503 
80.948395 0.247429 
81.034142 0.057856 
81.070419 0.616918 
81.09671 0.008157 
82.945503 0.046234 
83.049744 0.072941 
83.086044 0.411252 
84.04496 0.165814 
84.081329 0.033282 
85.028969 0.057383 
85.040138 0.027546 
85.065331 0.475626 
85.1017 2.27868 
85.177979 0.006262 
85.528992 0.005586 
86.032402 0.006644 
86.096947 1.007475 
86.105057 0.181254 
87.044563 0.147699 
87.100372 0.013509 
88.021996 0.025302 
88.039825 0.21608 
88.076195 0.0057 
88.9785 0.005564 
89.060196 7.066134 
89.974739 0.007087 
90.063545 0.393729 
91.054802 0.112663 
91.064125 0.00491 
92.494537 0.004675 
93.070305 0.445632 
94.049835 0.006444 
95.049576 0.318747 
95.06086 0.029986 
95.085968 2.114011 
95.764038 0.005779 
96.04493 0.006237 
96.08934 0.145232 
96.922348 0.006378 
97.028755 0.07224 
97.065224 0.129132 
97.101578 0.226814 
98.06015 0.006872 
98.426033 0.005621 
99.044418 0.108388 
99.080833 0.204148 
99.117256 0.048818 
100.07605 0.129566 
100.112465 0.055326 
100.266548 0.005511 
100.692589 0.005061 
101.00354 0.56169 
101.060097 0.885275 
101.49604 0.006301 
101.950371 0.013235 
102.006874 0.004525 
102.456032 0.006047 
102.999405 0.015882 
103.256203 0.005546 
104.547424 0.005409 
104.992661 0.017209 
105.070244 0.202747 
106.050041 0.006387 
107.049477 0.049187 
107.07058 0.438633 
107.085846 0.42101 
107.431908 0.005724 
107.705894 0.005992 
107.96711 0.007026 
108.040871 0.006191 
108.080597 0.005698 
109.028595 0.006926 
109.065048 0.086982 
109.101425 0.439037 
109.221275 0.004859 
111.044228 0.036207 
111.080658 0.113502 
111.909554 0.005907 
112.112701 0.005194 
112.578659 0.005173 
113.059914 0.100215 
113.096313 0.437208 
114.055214 0.006425 
114.099724 0.005102 
115.055977 0.005251 
115.075706 0.016198 
115.471657 0.006234 
116.053047 0.260803 
116.070778 0.278534 
116.107361 0.011399 
116.731255 0.006266 
116.985786 0.007198 
117.070107 0.029997 
118.086464 0.241539 
119.049362 0.007727 
119.085655 0.242848 
119.624474 0.005624 
120.003304 0.00979 
120.080971 0.599476 
120.088142 0.005145 
121.064903 0.065639 
121.101341 0.357346 
121.325905 0.006896 
123.042007 0.007614 
123.080627 0.161664 
123.116989 0.221553 
123.356834 0.006779 
123.940247 0.006243 
124.671768 0.005498 
125.09623 0.155937 
126.052338 0.028663 
126.09127 0.00922 
127.039124 0.086754 
127.112549 0.006842 
128.472488 0.005606 
128.611664 0.006084 
128.953537 0.009062 
129.054871 0.007525 
130.049896 0.040693 
130.068008 0.005171 
131.049088 0.025143 
131.085571 0.103934 
131.705566 0.005006 
132.066086 0.007267 
132.101913 0.317947 
133.085861 0.464849 
133.101196 0.248085 
134.117737 0.006629 
134.978683 2.924107 
134.996292 0.021305 
135.08046 0.109644 
135.116791 0.282131 
135.948639 0.006253 
136.075653 0.388597 
136.165985 0.004306 
136.922409 0.004529 
136.967804 0.036012 
136.97438 0.042864 
137.05957 0.007924 
137.096024 0.133035 
137.110825 0.007073 
137.132446 0.122766 
137.970871 0.016179 
139.075256 0.005686 
139.111526 0.049256 
140.959488 0.005556 
143.057877 0.0234 
144.080811 0.00631 
144.101898 0.291165 
145.04892 0.008296 
145.101059 0.137382 
146.018539 0.005293 
147.080658 0.017948 
147.116714 0.18857 
148.199753 0.005373 
148.971802 0.046698 
149.023178 0.094586 
149.059799 0.008304 
149.096054 0.103281 
149.132492 0.143738 
150.007507 0.005411 
150.013641 0.111672 
150.091217 0.006178 
150.972198 0.194114 
151.075027 0.011397 
151.096466 0.348269 
151.111649 0.449864 
151.970016 0.588994 
152.070465 0.005836 
152.143158 0.039058 
152.951691 0.124197 
152.989182 6.352389 
153.091049 0.008638 
153.111847 0.006607 
153.127762 0.007415 
153.959259 0.388103 
153.992722 0.055946 
154.122253 0.007083 
154.932587 0.014901 
154.94165 0.065884 
154.977859 1.078563 
154.984909 0.21755 
155.106567 0.156218 
155.954666 0.050513 
155.97847 0.048209 
156.137527 0.004384 
156.974945 0.305267 
157.049515 0.111402 
157.101425 0.017299 
159.04718 0.017457 
159.116882 0.080852 
160.083466 0.007879 
161.002304 0.006265 
161.067917 0.008314 
161.096313 0.049247 
161.132492 0.106065 
163.027542 0.045911 
163.074448 0.006714 
163.111511 0.112033 
163.14859 0.006517 
164.10701 0.010622 
164.913177 0.004653 
164.920319 0.201517 
165.055298 0.009349 
165.07843 0.618305 
165.127411 0.037509 
165.572479 0.006947 
166.086243 0.139799 
166.982407 0.009083 
167.004822 0.258732 
167.106903 0.016431 
168.982681 0.803177 
169.049683 0.007048 
169.980453 0.209332 
170.001358 0.005396 
170.117065 0.022225 
170.963181 0.387522 
170.977982 0.178902 
170.999756 1.179043 
171.013458 0.060034 
171.116913 0.029803 
171.13765 0.00778 
171.853653 0.007855 
172.942947 0.244058 
172.952255 0.556925 
172.958389 0.047161 
172.988312 1.975935 
173.06012 0.006505 
173.080521 0.053658 
173.132462 0.040823 
173.989258 0.218572 
174.00679 0.005915 
174.01384 0.03511 
174.63298 0.004938 
174.955719 0.007423 
174.972412 0.124337 
174.985306 0.487325 
175.027542 0.009138 
175.038712 0.008359 
175.11145 0.027785 
175.14827 0.0506 
176.475327 0.007037 
177.023941 0.008902 
177.056839 0.028273 
177.127304 0.126359 
177.244186 0.005244 
178.057571 0.006286 
178.12178 0.006588 
179.106247 0.015175 
180.064514 0.006815 
180.101517 0.174787 
180.974747 0.008005 
181.039001 0.00509 
181.985321 0.006889 
182.081085 0.077582 
183.637466 0.021442 
183.981415 0.027334 
185.131927 0.007885 
185.948776 0.085318 
186.968033 0.006228 
187.004089 0.068986 
187.075272 0.005884 
187.110733 0.008438 
188.070755 0.023053 
188.973953 0.443958 
189.018051 0.370961 
189.045166 0.033947 
189.054489 0.64346 
189.126999 0.008725 
189.9552 0.025239 
190.021484 0.012791 
190.057434 0.014901 
190.953156 0.363139 
190.962494 0.289318 
190.970535 0.059622 
191.058685 0.019676 
191.10437 0.007636 
191.142838 0.008923 
192.642792 0.10483 
192.981522 0.00618 
194.115463 0.006109 
195.098953 0.096931 
197.974304 0.287527 
198.992233 0.005509 
199.147858 0.017325 
199.267593 0.006687 
199.969955 0.281754 
199.979462 0.008257 
201.054565 0.008309 
201.127243 0.006467 
201.647827 0.006329 
201.967209 0.087832 
203.033173 0.006383 
203.069977 0.097981 
203.142883 0.655243 
203.67804 0.005975 
204.101807 0.006823 
204.146225 0.03951 
205.099228 0.007376 
205.195694 0.00771 
207.028366 0.06308 
207.053787 0.15398 
207.064789 0.044218 
207.96637 0.005745 
210.051178 0.005592 
210.112305 0.130168 
211.071274 0.008263 
212.127853 0.162125 
212.955719 0.007194 
212.988205 0.016161 
213.054398 0.405935 
213.957489 0.007131 
214.06076 0.115713 
214.935165 0.499996 
214.945053 0.02421 
214.970001 0.0431 
214.98111 1.410148 
215.069931 0.046048 
215.127426 0.016069 
215.432114 0.121242 
215.440918 0.099754 
215.452835 0.081981 
215.456802 0.074065 
215.932007 0.019907 
215.983093 0.254998 
216.054276 0.102202 
216.136383 0.006531 
216.929092 0.007205 
216.978088 0.457701 
217.0495 0.644003 
217.980606 0.043391 
218.020905 0.158416 
218.052979 0.151667 
218.288925 0.021444 
219.064865 0.019055 
219.17424 100.0 
220.065216 0.026738 
220.177582 16.428997 
221.116928 0.015101 
221.153748 0.089831 
221.167923 0.019655 
221.180817 1.250284 
222.89856 0.120081 
229.074432 0.007111 
229.085739 0.240742 
229.895767 0.568746 
230.08931 0.02286 
230.138657 0.938483 
230.896667 0.008884 
230.966675 0.552168 
230.979507 0.023356 
231.065277 0.055086 
231.968826 0.220271 
232.059952 0.066086 
232.096497 0.00872 
232.168976 0.021204 
232.945709 5.744088 
232.95787 0.407047 
232.991562 1.742322 
233.032028 0.034292 
233.044067 0.291133 
233.068542 0.094007 
233.126053 0.097049 
233.942871 0.102155 
233.963501 0.007528 
233.992645 0.276688 
234.047836 0.031617 
234.064148 0.023471 
234.872543 0.039032 
234.940964 0.383922 
234.96019 0.026395 
234.988266 0.558649 
235.030945 0.008028 
235.049683 0.04017 
235.061768 0.059412 
235.095581 0.006868 
235.130203 0.059028 
237.144394 0.00635 
238.913513 0.016715 
239.088531 0.014724 
240.908859 0.384848 
241.049469 0.590834 
242.052567 0.192878 
242.101501 0.007305 
243.065216 0.027574 
243.101273 0.038718 
243.613266 0.007105 
244.093201 0.007017 
244.150635 0.005244 
244.98085 0.006644 
245.080658 0.42541 
246.083786 0.108228 
246.961243 0.280642 
247.006866 0.057288 
247.084991 0.0058 
247.204681 0.01278 
247.906265 0.594046 
248.149109 0.077789 
248.162247 0.196085 
248.199646 0.008013 
248.97702 0.261684 
248.990997 0.089596 
249.09993 0.00604 
249.184189 0.006587 
249.979446 0.069858 
250.070572 0.005913 
250.956253 4.080417 
250.970749 0.282508 
251.025055 0.0171 
251.04007 0.006892 
251.079559 0.098402 
251.958084 0.064 
252.421585 0.005443 
252.951981 0.253745 
255.10173 0.0063 
255.2108 0.014744 
257.189575 0.008814 
258.133179 0.737208 
259.059235 0.008138 
259.098328 0.014317 
259.11496 1.095669 
259.129364 0.08026 
259.167419 0.027632 
260.114746 0.376347 
261.075714 0.022865 
261.112274 0.006939 
261.145966 0.105611 
262.17804 0.102466 
263.091095 0.036155 
264.231964 0.007575 
264.908722 0.112987 
264.971893 0.187104 
265.938629 0.00669 
266.172638 0.005392 
268.967926 0.005963 
273.075928 0.180655 
273.093658 0.054724 
273.111237 0.023071 
273.220978 0.006024 
274.078674 0.028657 
274.179596 0.124569 
274.216064 0.514951 
274.252594 0.231246 
275.109985 0.04242 
275.161469 0.118222 
275.199066 0.025258 
275.219177 0.011244 
276.144165 0.496996 
276.157532 0.014297 
276.195251 0.158998 
276.213348 0.006058 
276.232147 0.144357 
277.07135 0.007249 
277.202057 0.05873 
277.216919 0.062266 
279.897095 0.085198 
279.916016 0.114702 
282.919403 0.106351 
287.428528 0.006207 
287.830017 0.016614 
291.086212 0.19658 
291.103729 0.061967 
291.122955 0.389376 
291.140869 2.790397 
291.156677 0.289754 
291.192291 0.322703 
291.212799 0.106962 
291.228485 0.044266 
291.242798 0.3979 
291.286713 0.130583 
292.090546 0.014902 
292.124237 0.047045 
292.142151 0.57533 
292.188354 0.477271 
292.209961 0.05118 
292.226898 1.345934 
292.246002 0.08166 
292.263184 0.885365 
292.298981 0.007102 
293.080658 0.346374 
293.098419 0.0245 
293.11908 0.008654 
293.134186 0.400978 
293.171021 1.278518 
293.209229 0.76339 
293.225281 0.161494 
293.265717 0.097032 
293.294678 0.016728 
294.054901 0.007549 
294.073761 0.613606 
294.109192 0.024449 
294.131348 0.055251 
294.16922 0.372403 
294.204071 0.446181 
294.240265 2.532662 
294.278687 0.625081 
294.314453 0.035599 
295.027802 0.006744 
295.059998 1.30002 
295.078064 0.041609 
295.095306 0.013144 
295.113892 0.040857 
295.13385 0.010875 
295.150543 0.73123 
295.183258 0.113135 
295.203796 0.02124 
295.243134 0.104616 
297.907013 0.047687 
301.812836 0.007005 
302.818604 0.006762 
310.250366 0.005865 
310.843109 0.00708 
311.829681 0.00666 
312.838593 0.115087 
END IONS

