BEGIN IONS
PEPMASS=267.159
CHARGE=1+
COMPOUNDNAME=(1S,8R,9R)-8-hydroxy-4-(propan-2-ylidene)-10-oxatricyclo[7.2.1.01,5]dodecane-8-carboxylic acid
LIBRARYQUALITY=3
SMILES=N/A
INCHIKEY=IOYVXXQKVQKQIG-ZJPTYJIISA-N
INCHI=InChI=1S/C15H22O4/c1-9(2)10-3-5-14-7-12(19-8-14)15(18,13(16)17)6-4-11(10)14/h11-12,18H,3-8H2,1-2H3,(H,16,17)/t11?,12-,14-,15-/m1/s1
MSLEVEL=2
SOURCE_INSTRUMENT=N/A-ESI-QFT
FILENAME=library_mgf.mgf
SEQ=*..*
IONMODE=positive
ORGANISM=MONA
NAME=(1S,8R,9R)-8-hydroxy-4-(propan-2-ylidene)-10-oxatricyclo[7.2.1.01,5]dodecane-8-carboxylic acid [M+H]+
PI=MoNA
DATACOLLECTOR=MoNA:VF-NPL-QEHF021472
PUBMED=N/A
SUBMITUSER=mwang87
TAGS=
SPECTRUMID=CCMSLIB00004712535
SCANS=21472
50.34034 0.017402 
50.557182 0.021114 
52.061275 0.021881 
52.35836 0.017532 
52.405258 0.01507 
52.725796 0.017263 
53.002567 0.016077 
53.038937 0.138323 
55.009258 0.018165 
55.018196 0.599781 
55.054581 2.604728 
56.049862 0.072275 
56.057865 0.025391 
56.059509 0.017435 
56.245991 0.024987 
57.033813 4.568216 
57.07021 1.991952 
57.772694 0.008709 
57.935032 0.034424 
58.037273 0.021603 
58.065441 0.298431 
58.465443 0.014155 
58.697258 0.019647 
59.049446 2.747163 
60.044453 0.014929 
60.052792 0.022246 
61.010921 32.294899 
61.570412 0.010143 
62.018799 0.037837 
62.08173 0.011046 
62.355129 0.021168 
62.510494 0.018021 
64.401009 0.022762 
65.038742 0.03283 
67.054405 8.655628 
67.215576 0.023085 
68.049606 0.040735 
68.057755 0.139256 
68.197159 0.016253 
68.631073 0.010122 
68.962959 0.0879 
68.997276 0.082149 
69.033653 1.483791 
69.07003 5.430715 
69.896881 0.01196 
70.065277 1.349353 
70.073387 0.112086 
70.307198 0.021181 
70.352097 0.019852 
70.368034 0.010753 
70.60762 0.023195 
71.012955 0.018564 
71.049271 1.738385 
71.085648 4.078702 
71.821472 0.020052 
72.044678 0.031708 
72.080887 1.301212 
72.089027 0.014231 
72.937248 0.097075 
73.028473 0.532119 
73.06485 0.647474 
74.060143 0.179668 
74.277451 0.01804 
75.044174 0.122232 
75.889137 0.0151 
78.926079 0.015685 
79.021294 0.881621 
79.054314 4.074815 
80.057579 0.050068 
81.033585 0.669998 
81.069977 13.030539 
82.036697 0.020447 
82.065453 0.01409 
82.073303 0.255799 
83.012856 0.124628 
83.049248 4.000538 
83.085594 3.52911 
83.383278 0.025209 
84.052628 0.204594 
84.080833 0.310557 
84.655502 0.011168 
85.028496 0.857687 
85.064903 2.147629 
85.101265 0.318509 
85.265068 0.009863 
85.844643 0.016428 
86.056252 0.018507 
86.060089 0.45431 
86.096397 0.077363 
87.044212 1.633804 
88.352577 0.014883 
89.059814 5.54371 
89.063011 0.027962 
90.063156 0.064282 
90.9478 0.059262 
91.054344 3.135257 
91.773407 0.021107 
92.057693 0.089453 
93.070015 10.03132 
93.516808 0.024995 
94.065353 0.086994 
94.073288 0.22928 
95.04924 2.362336 
95.060326 0.038862 
95.085617 7.200071 
95.11882 0.015025 
96.044518 0.03168 
96.052498 0.270464 
96.055626 0.247465 
96.080856 0.039012 
96.088974 0.315163 
97.028526 0.562508 
97.064934 6.954334 
97.101295 1.261939 
97.230392 0.015437 
97.478966 0.015418 
98.060135 0.222071 
98.06813 0.499619 
98.071304 0.362747 
98.096581 0.146898 
98.393692 0.01008 
98.984337 3.229407 
99.044159 1.000172 
99.080544 4.631925 
99.978439 0.021187 
100.075775 0.428266 
100.083847 0.120708 
100.112289 0.013723 
100.325165 0.020956 
100.975182 0.010604 
101.059853 1.988335 
101.567719 0.022867 
102.055328 0.036294 
103.039055 0.569443 
103.075462 0.443286 
103.191116 0.023615 
105.033798 0.045921 
105.070023 4.849997 
105.406555 0.022227 
106.073296 0.287871 
107.049187 0.864034 
107.070328 0.102541 
107.085632 7.761114 
108.08889 0.384513 
109.02858 0.055437 
109.052376 1.233633 
109.064957 1.752448 
109.101318 4.811479 
110.05574 0.797524 
110.060181 1.783391 
110.067657 0.043871 
110.071404 0.445501 
110.095917 0.021796 
110.104622 0.269672 
111.044228 1.720543 
111.055748 0.026761 
111.06353 0.927878 
111.080528 2.573389 
111.116913 0.324834 
112.047379 0.012787 
112.075729 0.165791 
112.0839 0.109516 
112.953079 0.617337 
113.023346 0.634865 
113.059799 0.670441 
113.096207 0.50968 
114.05529 0.022299 
114.09166 0.040488 
114.751457 0.020475 
115.039093 0.219013 
115.054443 0.014863 
115.075417 0.362692 
115.434402 0.015232 
116.004944 0.024607 
116.053062 0.089176 
116.070793 0.178287 
116.079079 0.017103 
116.10701 0.157367 
116.921272 0.022007 
117.069969 4.012773 
117.090714 0.025256 
117.979881 0.551776 
118.073204 0.181469 
118.094185 0.179501 
118.294029 0.011172 
118.945267 0.066558 
119.049309 0.040341 
119.08567 4.072356 
120.080971 0.480513 
120.089027 0.459542 
121.028366 0.01565 
121.064934 1.329376 
121.101341 5.419619 
122.060089 0.145442 
122.096519 0.051398 
122.104645 0.253297 
123.044044 0.217485 
123.080513 3.393997 
123.11692 2.402878 
124.039452 0.020347 
124.075821 0.021122 
124.083778 0.547995 
124.120361 0.037318 
125.023445 1.653995 
125.059837 0.926497 
125.087402 0.016456 
125.09166 0.086812 
125.096344 3.178252 
125.132545 0.017387 
125.542351 0.018904 
126.026718 0.034195 
126.091537 0.09719 
126.099419 0.357921 
127.039093 1.088891 
127.075409 0.604438 
127.111885 0.906788 
127.727486 0.018666 
128.042297 0.04422 
128.062225 0.082742 
128.070663 0.05566 
128.107056 0.329421 
129.054657 0.336323 
129.06987 0.708529 
130.07341 0.015159 
130.077805 0.050961 
130.086365 0.023297 
130.945312 0.033092 
130.96315 0.964699 
131.04921 0.012864 
131.070496 0.035733 
131.085693 4.330719 
131.953537 0.538028 
132.088898 0.375803 
133.049789 0.078651 
133.064941 0.792366 
133.085968 1.150398 
133.101303 6.201903 
133.966812 0.011801 
134.067902 0.040664 
134.09668 0.068939 
134.104523 0.591944 
135.044189 0.116639 
135.080551 3.966489 
135.116913 3.269166 
136.061966 23.819914 
136.075302 0.204182 
136.087524 0.695735 
136.12027 0.110175 
136.955551 0.021831 
137.011871 0.139502 
137.059616 1.263164 
137.065399 0.606227 
137.0961 1.636548 
137.132599 0.429134 
138.055069 0.823876 
138.061737 0.029899 
138.0914 0.046322 
138.099579 0.075878 
138.127777 0.540784 
139.039062 6.031887 
139.058426 0.317673 
139.07547 2.455339 
139.111893 0.680462 
140.042404 0.955004 
140.072067 0.013628 
140.078857 0.355941 
140.106796 0.05732 
140.90361 0.013753 
141.043564 0.020711 
141.054642 3.764554 
141.070236 0.038711 
141.090958 0.085478 
141.127518 0.166482 
141.461334 0.018505 
142.05835 0.512748 
142.086746 0.020498 
142.122299 0.018727 
143.058975 0.022696 
143.070633 0.041961 
143.085785 1.574136 
144.088654 0.213903 
144.094513 0.017271 
145.064865 0.317623 
145.086151 0.049295 
145.101395 3.011835 
145.974838 0.103531 
146.072876 0.023006 
146.097214 0.042392 
146.10463 0.793125 
146.976593 26.758217 
147.043884 0.056768 
147.080475 2.465262 
147.108246 0.035814 
147.110123 0.053869 
147.116928 2.731088 
148.076263 0.113824 
148.083694 0.248419 
148.112198 0.022381 
148.120132 0.266393 
148.955948 0.801464 
148.973602 1.272207 
148.990387 0.011943 
149.059875 0.332192 
149.096329 2.243531 
149.132614 4.597446 
150.091553 0.151732 
150.099213 0.242228 
150.127777 0.153667 
150.951416 0.313547 
151.039658 0.024171 
151.075485 2.042733 
151.09584 0.071919 
151.111847 2.172077 
151.130936 0.017335 
152.070648 0.159466 
152.078629 0.253145 
152.107117 0.145 
152.114899 0.131422 
152.951736 0.245593 
153.054626 0.425695 
153.078751 0.514092 
153.091095 1.556381 
153.127319 0.194877 
153.959747 0.023154 
154.08197 0.327375 
154.094666 0.145484 
154.122986 0.16827 
155.070312 0.59022 
155.085754 0.170239 
155.106689 0.127895 
156.077103 0.245252 
156.093781 0.378454 
156.100616 0.020655 
156.138031 0.025851 
157.063873 0.012642 
157.101578 1.191872 
158.10408 0.044792 
159.080627 0.886907 
159.116974 5.245613 
160.083115 0.020779 
160.12027 0.606077 
160.955856 1.328785 
160.973846 0.058673 
161.048706 0.012878 
161.059891 0.08177 
161.096237 1.774777 
161.132553 1.698449 
162.091522 0.186817 
162.099289 0.22768 
162.136108 0.033776 
162.972031 0.102459 
163.027252 0.024985 
163.075439 0.580064 
163.112274 1.556339 
163.148361 0.376997 
163.342316 0.020303 
163.985306 0.921514 
164.070511 0.02494 
164.107162 2.614877 
164.114868 0.281583 
164.987198 5.508633 
165.054703 0.169063 
165.091171 5.469007 
165.110397 0.070361 
165.12764 0.531748 
166.086456 0.489282 
166.094666 0.906801 
166.122772 0.47919 
166.130295 0.023352 
166.966721 0.141421 
167.070343 2.957723 
167.096817 0.019062 
167.106766 0.397359 
167.118149 0.052594 
167.143188 0.059582 
168.073166 0.322392 
168.078934 0.218987 
168.102417 0.017698 
168.10994 0.012827 
168.13884 0.092861 
168.962128 0.107509 
169.075928 0.154778 
169.085999 1.243401 
169.101227 0.719457 
169.122299 0.018255 
170.090088 0.057498 
170.104568 0.030559 
171.055511 0.062635 
171.080719 0.241349 
171.116852 1.630071 
172.075974 0.311531 
172.088364 0.052572 
172.120239 0.019216 
173.09642 1.146351 
173.132721 1.659122 
174.091385 0.014863 
174.099411 0.088544 
174.135849 0.108619 
175.075623 1.645995 
175.11203 1.521252 
175.148148 2.011932 
175.942902 1.31163 
175.967438 0.060453 
176.081665 0.153052 
176.107193 0.049113 
176.115372 0.400398 
176.151657 0.125999 
177.054688 0.089425 
177.091095 1.617578 
177.119995 0.161821 
177.12764 1.633385 
177.163757 0.069972 
177.964462 0.387184 
177.983337 0.641083 
178.086334 0.065965 
178.094727 0.296254 
178.122604 0.106147 
178.131317 0.163564 
178.966492 2.246675 
179.070328 0.726148 
179.106766 3.700813 
179.143051 0.179111 
180.074234 0.021017 
180.101944 0.52706 
180.110535 0.897546 
180.138199 0.036416 
181.085999 1.109085 
181.113846 0.032652 
181.122482 0.167442 
181.131332 0.027318 
182.089432 0.112404 
182.117783 0.022896 
183.055527 0.05485 
183.06543 0.02267 
183.116989 0.356249 
184.121078 0.014254 
185.096115 0.146741 
185.132721 1.354694 
185.961594 0.24344 
186.104156 0.087385 
186.135864 0.067087 
187.075882 0.039929 
187.112366 1.293517 
187.148331 1.015434 
187.640518 0.019921 
187.979263 0.027623 
188.11937 0.22826 
188.151718 0.101633 
188.436844 0.016869 
188.648178 1.464053 
189.091339 1.295388 
189.127731 1.001005 
189.149475 0.270447 
189.164017 1.584341 
189.607422 0.011221 
189.928055 0.120545 
190.095718 0.435762 
190.122757 0.048813 
190.13147 0.027354 
190.167969 0.089155 
190.966415 100.0 
191.022354 0.476332 
191.070572 0.477315 
191.107285 1.299666 
191.143066 0.794873 
191.179459 0.02737 
192.076508 0.021888 
192.110382 0.254167 
192.138367 0.101034 
192.146866 0.083603 
192.982025 0.040817 
193.086227 1.160346 
193.122406 0.415215 
193.158127 0.01657 
193.953613 0.993163 
194.091187 0.050913 
194.117325 0.127733 
194.126785 0.054416 
195.092392 0.03695 
195.101715 0.440207 
195.117722 0.021482 
195.128937 0.041057 
195.138245 0.556944 
195.652542 0.014542 
197.015182 0.041088 
197.070953 0.022938 
197.096191 0.224799 
197.132202 0.138686 
197.653519 2.757281 
197.663071 0.024494 
198.15538 0.542375 
199.111877 0.147777 
199.148727 0.032718 
199.246567 0.029729 
200.070847 0.103232 
201.127365 0.949163 
201.16394 0.319961 
202.13118 0.198887 
203.106873 0.683036 
203.13327 0.018502 
203.143372 4.746391 
203.179672 1.421707 
204.077911 0.06428 
204.11203 0.592818 
204.137558 0.135944 
204.146973 0.628766 
204.174667 0.090761 
204.183609 0.02276 
205.086304 0.883558 
205.11261 0.167713 
205.122513 0.831812 
205.132278 0.044508 
205.159149 0.449386 
205.194992 0.172824 
205.51001 0.024647 
205.988037 0.666428 
206.090408 0.119969 
206.117203 1.2756 
206.127426 0.143636 
206.154129 0.916129 
206.658752 2.032963 
206.978104 0.328405 
206.988403 0.062615 
207.016663 0.120909 
207.031662 0.227541 
207.065887 0.068611 
207.091919 0.097747 
207.101898 7.278529 
207.119705 0.018463 
207.13829 0.4168 
207.148773 0.014036 
207.160095 0.383255 
207.174591 0.278728 
207.938904 0.738054 
208.104797 1.655815 
208.118546 0.020129 
208.133652 0.378886 
208.169693 0.16618 
208.938263 0.485815 
208.977127 56.782604 
209.033173 0.15703 
209.081146 0.076805 
209.117538 9.547359 
209.128021 0.175572 
209.154266 0.075846 
210.121002 3.130896 
211.112213 0.085528 
211.122833 0.150198 
211.148239 0.020675 
211.20639 0.027176 
213.090897 0.024949 
213.127502 0.120247 
213.164169 0.635913 
215.106918 0.22372 
215.143112 0.038553 
215.179321 0.01789 
215.664047 0.117219 
215.71608 0.17577 
215.722351 0.241735 
215.727112 0.194653 
215.733917 0.238574 
216.110382 0.022664 
216.891006 0.014318 
217.122543 0.414087 
219.102005 0.149572 
219.138351 1.316592 
219.173965 0.113719 
220.132889 3.045112 
220.168854 0.889757 
220.179825 0.135192 
221.103775 0.245312 
221.117279 0.520821 
221.137054 0.351551 
221.153992 0.677807 
221.173355 1.274886 
221.190735 0.041977 
221.350159 0.010904 
221.972748 0.077941 
222.07663 0.072295 
222.094543 0.023792 
222.121674 0.902153 
222.1483 0.043042 
222.159058 0.023651 
222.185425 0.253881 
222.992676 0.147023 
223.086441 0.484681 
223.098007 0.024101 
223.122711 0.57766 
223.133759 1.76372 
223.147202 0.040937 
224.125854 0.109026 
224.137451 0.837706 
225.043365 0.022725 
225.128021 0.018308 
226.14592 0.242239 
226.947937 0.17092 
227.044342 0.015188 
227.65506 0.213185 
229.052505 0.17129 
229.12265 0.270276 
230.102295 0.055872 
230.126785 0.011463 
230.153961 0.207038 
231.101501 0.029598 
231.138367 0.447348 
231.157104 0.010841 
231.16011 0.012395 
231.174606 2.097239 
232.133057 0.991229 
232.168427 0.024987 
232.178955 0.201945 
233.117203 0.42124 
233.153824 0.266873 
234.111938 0.207815 
234.149124 1.124267 
235.09697 0.233531 
235.132797 0.239097 
235.154327 0.09739 
235.16951 0.017784 
236.164093 0.194681 
236.199982 0.020703 
236.953186 0.040455 
237.066086 0.089301 
237.102615 0.015905 
239.179504 0.204626 
240.1138 0.020813 
240.182373 0.011935 
240.908661 0.023246 
241.052078 0.026496 
241.086273 0.312443 
242.909164 0.030923 
247.133331 1.056266 
247.169159 0.640579 
247.190948 0.025907 
248.113541 0.200351 
248.127319 2.695933 
248.163757 1.488346 
248.201004 0.504992 
248.216202 0.039928 
249.075104 0.022091 
249.098648 0.112338 
249.133423 0.420449 
249.148499 2.765453 
249.160431 0.126804 
249.170532 0.066603 
249.18425 1.12762 
250.106689 0.023881 
250.121857 0.022042 
250.143494 0.416889 
250.155319 0.145695 
250.179672 0.74438 
250.216522 0.051183 
250.968384 0.070952 
251.081696 0.427091 
251.128235 0.049637 
251.163345 0.022442 
251.976578 0.042921 
252.138657 0.024374 
252.948029 0.113242 
253.955521 0.512389 
257.211426 0.010728 
265.051849 0.010728 
265.097504 0.363322 
265.143982 3.637892 
265.199463 49.806652 
265.225586 0.191147 
265.99118 0.081915 
266.020721 0.43429 
266.081146 0.083298 
266.102295 0.425945 
266.118591 0.217166 
266.138 7.185971 
266.174774 4.15407 
266.201141 8.458957 
266.22757 2.490636 
266.246704 0.129615 
266.284729 0.026976 
266.999298 13.59556 
267.067108 0.440769 
267.084229 0.073267 
267.112915 0.375619 
267.122772 0.07308 
267.143524 1.112964 
267.158051 0.334302 
267.178375 0.527428 
267.207123 0.962821 
267.231384 0.292909 
267.999268 5.024251 
268.018646 0.022014 
268.021667 0.02191 
268.071777 0.283863 
268.106903 0.574158 
268.132507 0.849172 
268.15448 0.837689 
268.169128 0.552997 
268.190552 1.669281 
268.206207 1.941098 
268.224335 0.110088 
268.263489 4.856312 
268.2995 0.0921 
268.978668 64.862907 
269.080414 0.361451 
269.093628 0.075051 
269.115295 0.02162 
269.138519 0.88285 
269.151276 0.040999 
269.174713 1.331841 
269.190186 0.400365 
269.208893 0.182546 
269.22525 0.23596 
269.266907 0.257085 
269.978363 11.159288 
270.957855 7.772801 
270.9758 4.892197 
271.957886 0.267071 
272.936066 0.044342 
272.954956 0.025238 
283.029846 0.028586 
284.030884 8.862189 
285.01001 80.207756 
285.027069 5.782697 
285.735748 0.022895 
285.816071 0.293431 
286.010071 19.415066 
286.945648 0.01349 
286.989014 0.57715 
287.006531 8.25541 
287.693909 0.022965 
288.968384 2.342685 
289.966827 0.022171 
END IONS

