BEGIN IONS
PEPMASS=241.135
CHARGE=1+
COMPOUNDNAME=Huperzine A
LIBRARYQUALITY=3
SMILES=N/A
INCHIKEY=ZRJBHWIHUMBLCN-UHFFFAOYSA-N
INCHI=InChI=1S/C15H18N2O/c1-3-11-10-6-9(2)8-15(11,16)12-4-5-14(18)17-13(12)7-10/h3-6,10H,7-8,16H2,1-2H3,(H,17,18)
MSLEVEL=2
SOURCE_INSTRUMENT=N/A-ESI-QFT
FILENAME=library_mgf.mgf
SEQ=*..*
IONMODE=negative
ORGANISM=MONA
NAME=Huperzine A [M-H]-
PI=MoNA
DATACOLLECTOR=MoNA:VF-NPL-QEHF027219
PUBMED=N/A
SUBMITUSER=mwang87
TAGS=
SPECTRUMID=CCMSLIB00004720800
SCANS=27219
50.004795 0.128933 
50.048882 0.255853 
50.121384 0.131773 
50.542915 0.26682 
50.644367 0.237931 
51.009895 0.165464 
51.778896 0.206925 
52.542931 0.143369 
52.614716 0.213922 
53.338444 0.172774 
53.588982 0.259136 
53.887386 0.170546 
53.986526 0.123795 
54.104301 0.166813 
54.228584 0.197275 
54.47364 0.142674 
54.649517 0.115524 
55.048393 0.243171 
55.411339 0.227714 
55.530773 0.223391 
55.64196 0.263053 
55.939461 0.17736 
56.408016 0.202851 
57.033291 0.270278 
57.620934 0.219025 
58.049255 0.174527 
58.261364 0.280709 
58.86095 0.154385 
59.012463 23.298214 
59.16399 0.185453 
59.965935 6.223481 
61.131374 0.255078 
61.391857 0.116674 
61.541367 0.25509 
61.942772 0.187905 
61.986977 4.088041 
62.633881 0.207053 
62.915916 0.33105 
63.672676 0.124276 
64.137802 0.114213 
64.231979 0.133721 
64.726837 0.190607 
66.033569 1.866499 
66.365623 0.226614 
66.865952 0.246246 
68.908806 0.155928 
69.564346 0.185016 
69.690292 0.194965 
69.788513 0.199371 
70.394966 0.12044 
70.71492 0.129951 
71.462952 0.282712 
72.157417 0.206417 
72.746124 0.257517 
73.761971 0.172411 
74.42215 0.289734 
74.989441 100.0 
75.988991 20.640829 
75.99276 2.918595 
76.373306 0.321374 
76.694672 0.134978 
76.986259 14.498683 
76.993729 0.186441 
77.397209 0.198032 
77.421295 0.311907 
77.782471 0.282363 
78.031891 0.28053 
78.778481 0.272294 
78.957695 0.362311 
79.095268 0.222827 
79.956032 31.495155 
80.17083 0.148182 
80.963814 0.550097 
81.942612 0.266 
82.944679 0.37246 
83.128494 0.269417 
83.314049 0.227756 
83.704872 0.116577 
84.145828 0.121292 
84.276436 0.196196 
84.360001 0.129653 
84.941765 3.165395 
85.429146 0.125041 
85.475082 0.289427 
85.972336 0.140831 
86.242577 0.240193 
86.26355 0.176562 
87.338394 0.186184 
87.587379 0.215077 
89.023109 3.790676 
89.092972 0.297804 
89.497894 0.18461 
90.008408 1.376373 
90.154129 0.190092 
90.430466 0.167341 
90.782059 0.126072 
91.01767 4.011943 
91.020744 27.70067 
91.252258 0.137043 
91.451027 0.210929 
91.68586 0.194435 
91.763023 0.288579 
92.020401 6.328902 
92.02401 1.132618 
93.000046 34.377323 
93.017487 2.610382 
93.389473 0.264405 
93.722183 0.26284 
93.999535 6.877062 
94.002998 0.257158 
94.724533 0.28349 
94.996971 4.572658 
95.012505 0.17991 
95.214989 0.309383 
95.528397 0.124365 
96.303497 0.245596 
96.958786 3.446188 
101.013344 0.353014 
101.059464 0.237071 
103.91893 1.267202 
104.020905 0.265029 
107.860489 0.259317 
108.020454 0.540361 
108.044289 13.64824 
108.175171 0.238687 
112.207695 0.193763 
113.296471 0.164169 
116.024178 0.613863 
116.177063 0.172782 
117.01947 9.234946 
117.395355 0.24736 
118.471916 0.262522 
119.023888 4.181922 
119.057076 0.192936 
119.985336 0.21187 
122.019043 0.22589 
131.009933 0.182795 
132.031769 4.402623 
132.080948 0.274266 
132.386261 0.242206 
132.614655 0.211974 
133.034561 0.267313 
133.039566 27.843836 
133.633789 0.140344 
134.043015 0.296175 
134.297958 0.282215 
135.00769 1.239245 
137.621536 0.18141 
137.827515 0.247601 
139.038925 0.842952 
139.467651 0.228187 
139.890442 0.198789 
140.496613 0.272841 
140.898834 12.04165 
142.989746 0.144394 
143.964005 0.194288 
145.904816 0.130487 
148.051849 0.446491 
149.00853 29.957369 
150.007614 17.09853 
150.171082 0.181567 
150.987869 9.322453 
151.005325 12.869406 
151.443359 0.204304 
151.646149 0.286156 
151.987335 0.259333 
152.01976 1.496705 
152.360245 0.299428 
152.377335 0.119601 
152.96698 9.784231 
153.047012 0.132052 
154.946182 0.130513 
155.987656 0.17759 
156.90686 0.187535 
157.039307 0.281979 
159.055634 0.378831 
160.448059 0.25578 
164.981598 0.21703 
165.536163 0.144008 
165.78801 0.202171 
170.003845 0.138605 
170.909561 4.732467 
171.055954 0.6576 
171.690613 0.125372 
171.982758 2.634415 
176.993134 4.281941 
177.495529 0.246361 
178.997803 0.502793 
181.159149 21.012869 
182.161469 0.168246 
184.000992 42.12809 
184.075912 1.216235 
184.50264 5.074638 
184.998917 2.41518 
185.071335 43.227806 
186.031281 0.131726 
186.074905 2.183049 
187.171463 0.132051 
187.661469 0.153125 
190.809341 0.26821 
191.009933 0.128492 
193.817429 0.299754 
194.96048 0.369685 
197.027222 1.438694 
197.071259 4.990228 
198.054672 0.137067 
199.086838 0.302667 
206.996597 3.952419 
207.996277 11.153111 
208.076202 2.283054 
208.975922 4.366438 
208.993332 5.51242 
209.071487 0.699844 
210.092178 1.151462 
210.955017 2.964352 
211.087036 3.928872 
211.414551 0.13092 
212.170685 0.142504 
212.934189 2.618078 
212.970428 0.131082 
213.291534 0.269345 
219.731659 1.702846 
222.092041 0.676036 
223.028107 16.908859 
223.087372 84.993744 
224.027802 64.753929 
224.043243 0.125445 
224.071259 0.964744 
224.090744 10.010387 
224.108307 0.390279 
224.165405 1.281363 
224.970184 0.526492 
225.02417 40.075394 
225.052994 0.271155 
225.102982 40.913261 
225.1492 13.415566 
225.298325 0.297793 
226.025513 1.789725 
226.106659 3.60432 
227.020813 0.229056 
227.723587 0.135526 
234.282913 0.219255 
236.276138 0.17623 
237.102768 0.808858 
239.118912 0.359403 
240.989899 0.136004 
241.13443 11.866944 
242.13765 0.237348 
249.53363 0.16728 
251.013123 0.278632 
251.988785 0.28992 
261.326569 0.22671 
END IONS

