BEGIN IONS
PEPMASS=351.22
CHARGE=1+
COMPOUNDNAME=Griseofulvin
LIBRARYQUALITY=3
SMILES=N/A
INCHIKEY=DDUHZTYCFQRHIY-RBHXEPJQSA-N
INCHI=InChI=1S/C17H17ClO6/c1-8-5-9(19)6-12(23-4)17(8)16(20)13-10(21-2)7-11(22-3)14(18)15(13)24-17/h6-8H,5H2,1-4H3/t8-,17+/m1/s1
MSLEVEL=2
SOURCE_INSTRUMENT=N/A-Linear Ion Trap
FILENAME=library_mgf.mgf
SEQ=*..*
IONMODE=negative
ORGANISM=MONA
NAME=Griseofulvin M-H
PI=MoNA
DATACOLLECTOR=MoNA:VF-NPL-LTQ000683
PUBMED=N/A
SUBMITUSER=mwang87
TAGS=
SPECTRUMID=CCMSLIB00004684927
SCANS=548
160.889999 100.0 
275.109985 15.52334 
305.160004 82.396057 
END IONS

