BEGIN IONS
PEPMASS=345.37
CHARGE=1+
COMPOUNDNAME=ReSpect:PS064408 Gibberelin A3|GA3|Gibberellic acid|Ceku-Gib|Kri-Gibb|Berelex|Gibrescol|gibberamine
LIBRARYQUALITY=3
SMILES=CC12C(C=CC3(C1C(C45C3CCC(C4)(C(=C)C5)O)C(=O)O)OC2=O)O
INCHIKEY=IXORZMNAPKEEDV-UHFFFAOYSA-N
INCHI=N/A
MSLEVEL=2
SOURCE_INSTRUMENT=ESI-Flow-injection QqQ/MS
FILENAME=respect_8_1_2014_GNPS_peaks.mgf
SEQ=*..*
IONMODE=Positive
ORGANISM=RESPECT
NAME=ReSpect:PS064408 Gibberelin A3|GA3|Gibberellic acid|Ceku-Gib|Kri-Gibb|Berelex|Gibrescol|gibberamine [M+H]
PI=Putative ReSpect Match
DATACOLLECTOR=ReSpect
PUBMED=N/A
SUBMITUSER=mwang87
TAGS=
SPECTRUMID=CCMSLIB00000216687
SCANS=4030
143.0 63.0 
239.0 365.0 
344.0 159.0 
345.0 999.0 
346.0 57.0 
END IONS

