BEGIN IONS
PEPMASS=910.492
CHARGE=1+
COMPOUNDNAME=MoNA:738831 Microcystin-LA
LIBRARYQUALITY=3
SMILES=N/A
INCHIKEY=DIAQQISRBBDJIM-DRSCAGMXSA-N
INCHI=InChI=1S/C46H67N7O12/c1-24(2)21-35-44(60)52-38(46(63)64)28(6)40(56)47-29(7)41(57)49-33(18-17-25(3)22-26(4)36(65-11)23-32-15-13-12-14-16-32)27(5)39(55)50-34(45(61)62)19-20-37(54)53(10)31(9)43(59)48-30(8)42(58)51-35/h12-18,22,24,26-30,33-36,38H,9,19-21,23H2,1-8,10-11H3,(H,47,56)(H,48,59)(H,49,57)(H,50,55)(H,51,58)(H,52,60)(H,61,62)(H,63,64)/b18-17+,25-22+/t26-,27-,28-,29-,30+,33-,34+,35-,36-,38+/m0/s1
MSLEVEL=2
SOURCE_INSTRUMENT=LC-ESI-QFT-LC-ESI-QFT
FILENAME=output_mgf.mgf
SEQ=*..*
IONMODE=
ORGANISM=MONA
NAME=MoNA:738831 Microcystin-LA [M+H]+
PI=MoNA
DATACOLLECTOR=MoNA
PUBMED=N/A
SUBMITUSER=mwang87
TAGS=
SPECTRUMID=CCMSLIB00000570702
SCANS=7953
65.0385 2.268471 
67.0542 1.431967 
68.0494 0.607486 
69.0334 3.434149 
69.0698 1.458908 
70.0651 0.858019 
71.0604 0.102241 
74.0236 1.185805 
77.0384 1.063538 
78.0464 0.10142 
79.0542 12.882711 
80.0494 1.440683 
81.0335 0.133542 
81.0698 1.217981 
82.0287 1.687969 
82.0651 9.811391 
83.0491 0.108971 
84.0443 16.930066 
84.0807 1.629834 
85.0283 1.046574 
85.0648 0.148032 
86.0964 40.075584 
88.0392 0.333779 
89.0709 1.510902 
90.0548 0.181156 
91.0542 32.699635 
92.062 0.414506 
93.0698 22.255163 
94.0651 2.203766 
94.0733 0.847978 
95.0491 7.232982 
95.0854 2.444679 
96.0444 0.401184 
96.0807 1.378098 
97.076 0.164566 
98.0601 0.404071 
99.0916 8.884987 
100.0392 0.353544 
100.0756 0.404644 
101.0711 0.17588 
102.0463 0.424781 
102.055 2.229341 
103.0542 44.308118 
104.0576 1.835679 
105.0698 41.682342 
106.065 0.160298 
106.0732 1.638867 
107.0855 100.0 
108.068 0.446876 
108.0808 0.902239 
108.0888 4.306433 
109.0647 5.340591 
109.1009 0.331827 
110.06 7.068654 
110.0965 0.751731 
111.0553 0.136958 
111.0634 0.154114 
111.0917 0.16461 
112.0391 0.941441 
112.0759 0.72034 
112.112 1.437711 
113.0233 2.896565 
113.0709 0.437212 
114.0549 0.143527 
115.0542 6.17241 
116.0576 0.144508 
116.0619 0.44146 
117.0698 14.693091 
118.065 0.187155 
118.0731 0.733359 
119.0604 1.047262 
119.0855 5.499737 
120.057 0.902985 
120.0807 1.175203 
120.0931 0.680491 
121.0645 0.933849 
121.076 2.962337 
121.1011 1.843165 
122.0599 1.312946 
122.0724 0.155189 
122.0839 0.201469 
122.0963 1.875482 
123.0678 0.110699 
123.0804 0.46107 
123.0916 1.606921 
124.0757 2.968283 
124.112 3.040827 
125.0711 0.622817 
125.1072 0.139929 
126.0549 0.356754 
126.1279 0.217862 
127.0865 82.194107 
128.0621 2.533402 
128.0705 3.190281 
128.0898 2.836594 
129.0697 2.557524 
129.0745 0.164243 
130.0498 3.452645 
130.0651 1.297857 
130.0733 0.179811 
130.0777 0.801005 
131.0854 7.156747 
132.0808 0.918886 
132.0888 0.380922 
133.0648 0.409001 
133.1011 3.685382 
134.0961 0.66278 
135.0804 45.697318 
135.1167 37.819973 
136.0755 0.784033 
136.0836 2.009226 
136.1121 0.198338 
136.1201 2.478634 
137.0709 0.429732 
137.0959 0.359555 
138.0547 9.918641 
139.0579 0.135507 
139.0864 1.347435 
140.0705 0.804412 
141.0649 0.123631 
141.07 0.663622 
141.1018 0.497923 
142.0775 0.432796 
143.0855 3.84301 
144.0806 0.182088 
144.0885 0.115668 
144.0933 0.336404 
145.1012 5.317647 
146.0964 3.600603 
146.1091 1.589218 
147.0803 0.327493 
147.0916 0.112731 
147.1042 0.156481 
147.1168 0.41263 
148.0757 0.188854 
148.1119 0.573137 
149.0709 6.771433 
150.0548 0.764628 
150.0913 0.170735 
150.1278 0.371428 
151.0865 0.984964 
152.0707 0.407804 
152.1069 0.741238 
153.0698 0.176093 
153.1023 0.631431 
153.1382 0.150017 
154.0776 0.370276 
154.0972 0.130711 
155.0812 11.621717 
156.0653 3.128815 
156.0846 0.204901 
157.1011 0.451852 
157.1333 1.328596 
158.0726 0.139117 
158.0965 0.805409 
159.0804 0.6233 
159.1169 1.352229 
160.1119 0.873276 
160.1192 0.141133 
161.096 1.811052 
161.1323 0.379759 
162.0912 0.17738 
162.1276 1.226965 
163.1116 10.358157 
164.07 0.102765 
164.1151 0.558445 
165.0705 0.884921 
165.1022 0.42685 
166.0776 0.527106 
167.0813 25.42449 
168.0654 1.995069 
168.0846 0.673461 
169.1019 0.636901 
169.1331 0.114305 
170.0812 0.107342 
171.0802 0.419439 
171.1165 0.572965 
172.0882 0.127643 
172.1118 0.430111 
173.0916 7.897907 
174.0959 0.201106 
174.1039 0.547798 
175.0989 0.138223 
176.0704 0.106101 
176.1069 0.50969 
177.1026 0.127594 
178.0779 0.156781 
178.0859 0.404047 
178.1225 0.487467 
179.0858 1.069942 
180.0932 0.917099 
181.1016 1.705026 
181.1334 2.116916 
182.0805 0.124031 
183.1168 0.199604 
183.1489 0.201717 
184.1119 0.588125 
187.1117 0.455523 
188.1068 0.657284 
188.1434 1.032045 
190.1223 0.450803 
190.1588 0.56364 
192.0933 0.375415 
192.113 0.122928 
193.1003 0.566668 
194.1088 0.510284 
194.1649 0.70693 
195.0761 8.875395 
195.1166 1.385463 
196.0601 1.921701 
196.0791 0.59915 
197.1279 0.123717 
200.1433 0.422836 
201.0867 0.997564 
205.1012 0.107769 
207.1165 0.585962 
208.1242 0.117468 
211.0712 0.398793 
213.0867 14.225493 
214.0705 0.186469 
214.0902 0.797603 
216.1379 0.1518 
218.1538 1.477984 
220.1078 0.15628 
221.0916 0.15144 
222.1597 0.210035 
223.1085 0.164554 
226.1589 1.795095 
227.1621 0.14242 
228.138 0.19768 
232.124 0.424922 
237.1633 0.36487 
239.066 1.553779 
239.1018 0.209815 
243.1333 0.188084 
246.1485 0.505612 
END IONS

