BEGIN IONS
PEPMASS=1439.78
CHARGE=1+
COMPOUNDNAME=BACITRACIN
LIBRARYQUALITY=3
SMILES=N/A
INCHIKEY=CLKOFPXJLQSYAH-NVOBBBONSA-N
INCHI=InChI=1S/C66H103N17O16S/c1-9-35(6)52(69)66-81-48(32-100-66)63(97)76-43(26-34(4)5)59(93)74-42(22-23-50(85)86)58(92)83-53(36(7)10-2)64(98)75-40-20-15-16-25-71-55(89)46(29-49(68)84)78-62(96)47(30-51(87)88)79-61(95)45(28-39-31-70-33-72-39)77-60(94)44(27-38-18-13-12-14-19-38)80-65(99)54(37(8)11-3)82-57(91)41(21-17-24-67)73-56(40)90/h12-14,18-19,31,33-37,40-48,52-54H,9-11,15-17,20-30,32,67,69H2,1-8H3,(H2,68,84)(H,70,72)(H,71,89)(H,73,90)(H,74,93)(H,75,98)(H,76,97)(H,77,94)(H,78,96)(H,79,95)(H,80,99)(H,82,91)(H,83,92)(H,85,86)(H,87,88)/t35?,36?,37?,40-,41+,42+,43-,44+,45-,46-,47+,48?,52?,53-,54-/m0/s1
MSLEVEL=2
SOURCE_INSTRUMENT=N/A-ESI-QFT
FILENAME=library_mgf.mgf
SEQ=*..*
IONMODE=positive
ORGANISM=MONA
NAME=BACITRACIN [M+NH4]+
PI=MoNA
DATACOLLECTOR=MoNA:VF-NPL-QEHF027780
PUBMED=N/A
SUBMITUSER=mwang87
TAGS=
SPECTRUMID=CCMSLIB00004721361
SCANS=27780
99.948021 0.005467 
100.021484 0.150194 
100.039322 0.005169 
100.075577 0.071495 
100.111893 0.026717 
101.016823 0.123353 
101.041954 0.038592 
101.107323 0.12225 
101.181458 0.003515 
102.000854 0.104112 
102.016907 0.008281 
102.037079 0.004062 
102.0466 0.03582 
102.054977 3.745211 
102.091385 0.047629 
103.054268 2.481173 
103.05806 0.203405 
103.796944 0.004308 
104.016426 0.081262 
104.033882 0.004249 
104.0494 0.036589 
104.057533 0.162684 
105.044724 0.040886 
105.069878 0.754779 
105.977867 0.009981 
106.052444 0.051228 
106.065163 0.329776 
106.073174 0.022864 
107.048897 0.004861 
107.060402 0.721477 
107.072929 0.030302 
107.085358 0.009205 
107.993668 0.073082 
108.044456 0.268414 
108.055618 0.884239 
108.063805 0.014371 
108.068153 0.104933 
108.080765 0.833805 
108.228088 0.003037 
108.600403 0.003702 
109.039803 0.240859 
109.059364 0.017514 
109.063545 0.845844 
109.076149 1.392075 
109.084549 0.021737 
109.101234 0.004559 
109.755547 0.005316 
110.024254 0.283399 
110.06208 0.035596 
110.064278 0.131765 
110.071182 100.0 
110.095924 0.520237 
110.376801 0.003774 
110.388382 0.006418 
110.392052 0.005273 
111.000961 0.02451 
111.026268 0.056566 
111.055183 1.094366 
111.068222 1.253871 
111.074501 6.588691 
111.091515 2.653689 
111.099312 0.027852 
111.985207 0.191259 
112.021523 0.201174 
112.039268 0.043353 
112.050423 0.114907 
112.0588 0.010007 
112.071663 0.075436 
112.075417 1.1662 
112.086899 0.222819 
112.094994 0.155903 
112.098915 0.019265 
112.107933 0.003989 
112.11187 0.21726 
112.988617 0.003811 
113.01667 0.027314 
113.023071 0.004444 
113.029457 0.022039 
113.034424 0.083034 
113.041931 0.046067 
113.059067 0.025534 
113.070847 0.43689 
113.078873 0.048335 
113.094307 0.004254 
113.107216 0.440795 
114.000801 0.048743 
114.0373 0.054468 
114.054939 0.132914 
114.066139 0.076783 
114.074356 0.004772 
114.091423 0.289452 
114.102585 0.115356 
114.110672 0.004455 
115.032379 0.037059 
115.050171 0.075752 
115.054153 1.033046 
115.086555 4.528344 
115.97879 0.004068 
116.016457 0.450492 
116.033821 0.014159 
116.052887 0.106735 
116.057457 0.074235 
116.070503 0.05976 
116.083801 0.012361 
116.08976 0.242986 
116.404335 0.004229 
117.011444 0.045 
117.057137 0.17492 
117.069893 0.219919 
117.97818 0.00377 
118.012047 0.004624 
118.064751 0.535055 
118.068352 0.049161 
118.072296 0.004001 
119.007111 0.003735 
119.027328 0.009335 
119.049126 0.011555 
119.060371 0.423214 
119.068344 0.032861 
119.072884 0.060965 
119.085243 0.008068 
120.044853 0.015476 
120.055679 2.185733 
120.08075 13.10044 
121.039642 1.95745 
121.058838 0.116391 
121.063538 0.128789 
121.076134 0.668455 
121.084023 1.32949 
121.088455 0.097054 
122.023636 0.029508 
122.0429 0.104711 
122.060097 0.312728 
122.071182 1.724467 
122.079254 0.031563 
122.083542 0.252033 
122.087845 0.012925 
122.09639 0.252571 
123.013313 0.004828 
123.055252 1.654602 
123.062851 0.005293 
123.068039 0.004333 
123.074448 0.078675 
123.079201 0.052029 
123.091576 0.942052 
123.099525 0.00527 
124.021355 0.019008 
124.039307 0.4185 
124.050613 0.260441 
124.058655 0.061971 
124.062935 0.013465 
124.075706 0.361439 
124.086876 0.701283 
124.094872 0.033664 
124.099747 0.006252 
124.11216 0.29595 
125.016945 0.01919 
125.029533 0.006681 
125.034561 0.338598 
125.041931 0.066406 
125.070976 0.699914 
125.090218 0.020502 
125.1073 0.593004 
126.018448 0.01023 
126.037262 0.21747 
126.054825 0.017111 
126.066071 0.107948 
126.074295 0.011219 
126.091232 0.748097 
126.102608 0.012363 
126.110992 0.025485 
126.12751 0.016999 
126.453415 0.003861 
127.032288 0.033901 
127.050179 0.373659 
127.057472 0.027954 
127.086578 0.426796 
127.094452 0.023551 
127.122849 0.194584 
127.97921 0.010036 
128.016296 0.03923 
128.027527 0.004061 
128.034714 0.004035 
128.052979 0.151987 
128.062057 0.049975 
128.070557 0.068477 
128.090027 0.010764 
128.106262 0.004603 
128.118149 0.01127 
129.011581 0.382536 
129.056427 0.009187 
129.065598 0.553145 
129.102112 4.27126 
129.995682 1.192392 
130.032364 0.004346 
130.049835 0.297447 
130.065048 1.584145 
130.086258 0.102712 
130.100067 0.011516 
130.105362 0.249775 
130.998993 0.021199 
131.007446 0.004852 
131.027283 0.695304 
131.049118 0.294839 
131.06044 0.044001 
131.068405 0.128609 
131.073105 0.02247 
131.117569 0.005593 
131.973633 0.004065 
131.993576 0.202748 
132.011292 0.004717 
132.031006 0.004702 
132.053925 0.039846 
132.068253 0.005772 
132.080734 0.785084 
132.404709 0.003723 
133.013962 0.005569 
133.023117 0.004109 
133.04007 0.003845 
133.063446 1.517578 
133.075897 0.281418 
133.083878 0.029822 
134.059982 0.091214 
134.066528 0.057049 
134.071304 0.607084 
134.078659 0.004366 
134.083969 0.040998 
134.096375 0.177502 
135.055237 0.252467 
135.066986 0.017104 
135.073944 0.004526 
135.079239 0.019551 
135.091553 2.19323 
135.969849 0.004524 
136.021805 0.005972 
136.039261 0.090512 
136.050568 0.968223 
136.063553 0.006829 
136.075729 3.093114 
136.086853 5.598038 
136.093201 0.049335 
136.099274 0.199603 
136.112045 0.330742 
137.029266 0.011236 
137.034409 0.101835 
137.053909 0.02496 
137.070953 0.905276 
137.078384 0.07155 
137.082687 0.248822 
137.09021 0.484288 
137.107315 1.944084 
138.037277 0.11869 
138.055267 0.24469 
138.066101 1.899662 
138.072739 0.01253 
138.074509 0.012727 
138.078918 0.00604 
138.08609 0.013849 
138.091263 0.707423 
138.102417 0.340632 
138.110565 0.134797 
138.115585 0.005694 
138.121964 0.004767 
138.12767 1.037247 
139.032501 0.010498 
139.050247 0.338987 
139.055801 0.003878 
139.069534 0.098851 
139.086502 6.616684 
139.122971 0.288956 
139.130997 0.076984 
140.016449 0.018245 
140.028046 0.010816 
140.034119 0.141181 
140.04631 0.006 
140.052811 0.445395 
140.070557 0.043528 
140.082214 0.108553 
140.089813 0.593329 
140.106903 0.566535 
140.117996 0.103135 
140.125732 0.003783 
140.143143 0.072506 
140.974731 0.020307 
141.011749 0.523692 
141.048035 0.018071 
141.055908 0.004939 
141.065689 0.091632 
141.102112 0.955719 
141.109116 0.011849 
141.995285 0.006336 
142.014542 0.004869 
142.032028 0.010569 
142.043228 0.042598 
142.049484 0.026488 
142.061249 0.172634 
142.068481 0.552663 
142.086624 0.005863 
142.09761 0.046029 
142.105148 0.035316 
143.027328 0.61841 
143.045013 0.82693 
143.072739 0.116045 
143.081421 0.044865 
143.974121 0.042364 
144.011154 0.01191 
144.030548 0.015834 
144.048523 0.030895 
144.055618 0.029423 
144.064102 0.008626 
144.080719 0.280115 
145.0065 0.020713 
145.075989 0.22536 
145.083649 0.007991 
145.990234 0.024605 
146.060089 0.144078 
146.071198 0.457864 
146.083969 0.006997 
146.096329 0.2354 
146.128738 0.078473 
147.055145 0.140474 
147.066803 0.014233 
147.074265 0.00572 
147.079407 0.017363 
147.091583 0.465994 
147.098679 0.009807 
148.050476 0.892583 
148.075424 0.145063 
148.086838 0.607635 
148.093307 0.007755 
148.099396 0.061378 
148.111923 0.096347 
149.034561 0.181468 
149.04747 0.044495 
149.053513 0.021201 
149.070953 0.433475 
149.08226 0.144598 
149.088852 0.006662 
149.095093 0.041904 
149.10733 0.508893 
149.26062 0.007414 
150.018417 0.146101 
150.037308 0.028127 
150.05484 0.057737 
150.066132 0.439847 
150.079102 0.020131 
150.09108 0.106271 
150.102524 0.406014 
150.10939 0.02015 
150.127762 0.066565 
151.021454 0.004312 
151.05011 0.167079 
151.069138 0.007182 
151.086517 0.642305 
151.097824 0.006832 
151.110611 0.025691 
151.122925 0.513694 
152.034058 0.052241 
152.046143 0.024646 
152.052658 0.206203 
152.070663 0.038824 
152.081802 0.240129 
152.088013 0.008778 
152.106979 0.439486 
152.118179 0.3305 
152.131409 0.021002 
152.143326 0.438267 
152.974411 0.018691 
153.047867 0.037145 
153.065796 0.139294 
153.090607 0.004683 
153.102158 1.503093 
153.109283 0.022213 
153.138443 0.175119 
153.145584 0.01425 
153.995071 0.004822 
154.032166 0.01983 
154.043396 0.008955 
154.049698 0.021488 
154.061432 0.022209 
154.068436 1.007751 
154.086029 0.178473 
154.097855 0.035588 
154.105392 0.080981 
154.133942 0.123199 
154.15892 0.283434 
154.990173 0.041446 
155.027191 0.065448 
155.044617 0.027889 
155.063873 0.033544 
155.071884 0.079237 
155.08136 0.078013 
155.092651 0.270132 
155.117783 1.149833 
155.154099 0.00688 
155.162323 0.005456 
155.973465 0.009238 
156.022812 0.004232 
156.047821 0.031096 
156.065002 0.079428 
156.076431 0.130865 
156.08165 0.08851 
156.101791 0.080273 
156.113174 0.860064 
156.12059 0.116521 
157.006195 0.012085 
157.043121 0.013215 
157.060806 0.096003 
157.079285 0.056441 
157.097061 0.168632 
157.116302 0.024852 
157.133179 0.013623 
157.989548 0.020518 
158.011581 0.017245 
158.063324 0.013956 
158.083694 0.012658 
158.096542 0.039484 
159.022705 0.004584 
159.067184 0.009433 
159.075653 0.005203 
159.091431 0.582881 
159.988831 0.005672 
160.026794 0.004387 
160.075562 0.052839 
160.087006 0.289222 
160.094421 0.04474 
160.111832 0.010644 
160.474442 0.003802 
161.070999 0.092204 
161.082169 0.297464 
161.095032 0.01939 
161.107315 0.273362 
161.98465 0.01033 
162.066071 0.969598 
162.090759 0.018399 
162.102448 2.832702 
162.109482 0.063601 
162.127182 0.017205 
163.050034 0.087088 
163.061722 0.037019 
163.069748 0.027683 
163.086441 4.559767 
163.098145 0.266867 
163.105865 0.188356 
163.111084 0.012293 
163.122803 0.733056 
164.045486 0.389804 
164.052475 0.005757 
164.070435 2.109338 
164.081894 1.376667 
164.089493 0.358431 
164.095139 0.06374 
164.106888 0.056564 
164.118286 0.818595 
164.125748 0.046936 
164.143097 0.022825 
165.048218 0.01191 
165.065735 0.073088 
165.077194 1.540447 
165.084946 0.095476 
165.102219 1.428629 
165.113647 0.04059 
165.126572 0.039014 
165.138535 0.910574 
166.043716 0.006544 
166.061005 2.571304 
166.079697 0.062973 
166.08667 0.174302 
166.097473 0.309178 
166.105408 0.133496 
166.122482 0.261283 
166.133881 0.662496 
166.141373 0.072512 
166.99025 0.02401 
167.027222 0.018113 
167.045059 0.543149 
167.064041 0.610222 
167.072815 0.082263 
167.081161 0.653304 
167.117889 0.409439 
167.125137 0.006593 
167.136612 0.006746 
167.154068 0.18867 
168.021866 0.020408 
168.029236 0.060262 
168.047684 0.262523 
168.066422 0.03098 
168.080795 0.159877 
168.101822 0.067164 
168.113251 0.070777 
168.120728 0.016269 
168.137955 0.010536 
168.149368 0.070072 
168.156784 0.009908 
168.969208 0.027699 
169.006775 0.004669 
169.027161 0.011126 
169.042969 0.021349 
169.060379 0.068259 
169.079224 0.213368 
169.088577 0.004547 
169.096756 0.1811 
169.13356 0.188881 
169.989059 0.020557 
170.026947 0.057257 
170.055832 0.029651 
170.063339 0.20467 
170.08223 0.009349 
170.096313 0.087944 
170.117462 0.341779 
170.128479 0.005043 
170.985153 0.018231 
171.02179 0.027045 
171.039703 0.009964 
171.058441 0.013592 
171.066391 0.044863 
171.076263 0.00846 
171.093674 0.184309 
171.120529 0.004221 
172.005234 0.02291 
172.042679 0.034804 
172.05043 0.130387 
172.058395 0.004139 
172.071854 0.080674 
172.079041 1.022623 
172.086807 0.148107 
172.097275 0.015862 
172.111847 0.181135 
173.070908 0.026886 
173.082367 0.118195 
173.090088 0.010065 
173.107391 0.05003 
173.984009 0.014273 
174.066101 0.208193 
174.074173 0.016114 
174.090805 0.009106 
174.1026 0.283181 
174.127716 0.018533 
175.049759 0.004479 
175.061523 0.016172 
175.086456 0.574785 
175.0979 0.05631 
175.122955 0.133194 
176.056015 0.044783 
176.06926 0.125661 
176.081863 0.320119 
176.089508 0.015495 
176.109741 0.007775 
176.118134 1.542836 
177.065826 0.07552 
177.076813 0.028522 
177.089401 0.010205 
177.102219 0.187747 
177.113281 0.034259 
177.121552 0.079512 
177.138657 0.346158 
178.03186 0.006214 
178.061035 0.14182 
178.085037 0.004264 
178.09758 0.241432 
178.109528 0.011333 
178.133865 1.42592 
178.142151 0.034237 
179.063293 0.054774 
179.081909 0.224595 
179.092743 0.522587 
179.117737 0.731598 
179.127518 0.010076 
179.137009 0.065088 
179.154282 0.343656 
180.047882 0.011423 
180.076035 0.39441 
180.103226 0.01424 
180.11293 1.038796 
180.121078 0.042013 
180.139709 0.010395 
180.149323 0.481821 
180.157562 0.03226 
181.043335 0.005555 
181.060913 0.033664 
181.071609 0.019478 
181.079315 0.082694 
181.097137 2.819765 
181.108215 2.706569 
181.11618 0.087996 
181.133118 0.617246 
181.152512 0.00465 
181.169739 0.035187 
181.985474 0.010366 
182.000946 0.051994 
182.038467 0.004845 
182.055481 0.016568 
182.063858 0.063217 
182.08168 0.091305 
182.092255 0.038277 
182.100845 0.235376 
182.111374 0.197704 
182.128693 0.382321 
182.136734 0.032458 
182.155685 0.012791 
182.165085 0.781078 
182.173538 0.00439 
183.021515 0.010923 
183.040176 0.021375 
183.058624 0.138472 
183.066818 0.004811 
183.076584 0.017018 
183.091888 0.227019 
183.112732 0.363629 
183.131943 0.005092 
183.149124 0.822049 
183.168655 0.03225 
184.003998 0.011595 
184.042603 0.416418 
184.061646 0.008889 
184.071579 0.064238 
184.096741 0.047586 
184.107742 0.035749 
184.152603 0.056922 
184.180069 0.004751 
185.000107 0.031233 
185.022659 0.00502 
185.037582 0.010784 
185.046371 0.032425 
185.055466 1.09564 
185.07428 1.218415 
185.09198 0.093987 
185.107101 0.203338 
185.972198 0.023643 
186.020935 0.032731 
186.039017 0.011555 
186.058334 0.858109 
186.07663 0.343033 
186.091293 0.027583 
186.102539 0.073319 
186.127655 0.268598 
187.016327 0.023182 
187.061188 0.116299 
187.070267 0.094974 
187.089111 0.805082 
187.098785 0.007806 
187.106369 0.010281 
187.122528 0.010374 
187.999847 0.006745 
188.044281 0.004361 
188.054214 0.014921 
188.073441 0.010843 
188.081802 0.027594 
188.092545 0.069598 
188.106567 0.010639 
188.11821 0.3334 
188.143265 0.293939 
189.076996 1.030921 
189.085541 0.024239 
189.103943 0.346324 
189.113632 0.235085 
189.122375 0.011908 
189.138443 0.069003 
189.146866 0.015756 
190.061005 1.737614 
190.080551 0.053588 
190.097519 0.451761 
190.107727 0.065742 
190.124908 0.008445 
190.133713 0.870578 
191.064865 0.177436 
191.08136 0.758383 
191.09256 1.242248 
191.10112 0.037621 
191.117828 1.052715 
191.127945 0.023591 
191.138779 0.029907 
191.154327 0.059166 
192.076599 0.186601 
192.086639 0.10104 
192.096161 0.0715 
192.113007 0.376115 
192.12149 0.086635 
192.149338 1.428351 
193.061996 0.005381 
193.071777 0.39021 
193.09726 0.255561 
193.10759 0.007439 
193.133545 1.583846 
193.156799 0.152855 
193.169205 0.027369 
194.055801 0.0175 
194.074921 0.031961 
194.092285 0.472853 
194.101364 0.012638 
194.128555 0.132517 
194.137329 0.124559 
194.164978 0.105959 
195.040115 0.277967 
195.058807 0.084327 
195.076111 0.050144 
195.091476 0.778292 
195.112778 0.384709 
195.149002 0.125848 
195.185272 0.009295 
196.02504 0.004754 
196.042831 0.104488 
196.088547 0.12326 
196.107834 0.080131 
196.144379 0.320956 
196.180527 0.09027 
197.000885 0.012299 
197.03775 0.016802 
197.074203 0.885673 
197.091461 0.150161 
197.107071 0.156015 
197.12822 0.489769 
197.164551 0.05916 
197.980865 0.009934 
198.021439 0.017334 
198.058334 1.136683 
198.077469 0.07569 
198.090881 0.011203 
198.102127 0.004704 
198.113358 0.006622 
198.123276 0.51224 
198.978622 0.030711 
198.988419 0.101223 
199.016342 0.038797 
199.03653 0.024975 
199.053268 0.078435 
199.061829 0.074777 
199.072021 0.013412 
199.08989 3.807312 
199.107117 0.046903 
199.125916 0.027739 
199.986389 0.020477 
200.037567 0.816908 
200.053955 0.039262 
200.073471 0.075753 
200.093292 0.497367 
200.105347 0.017815 
200.143539 0.004373 
200.175797 0.010611 
200.983826 0.026162 
201.031693 0.051421 
201.041092 0.023881 
201.068344 0.014641 
201.085754 0.2082 
201.103622 0.028959 
201.113495 0.025328 
201.123306 0.020237 
201.138199 0.010618 
202.053055 0.018485 
202.082611 0.025884 
202.097305 0.100565 
202.123016 0.024367 
202.133728 0.061231 
203.081497 0.012438 
203.092056 0.01737 
203.118591 0.048003 
203.128891 0.450411 
203.154205 0.061451 
204.077072 0.019884 
204.087845 0.128817 
204.113007 0.169048 
204.123154 0.026789 
204.132828 0.013592 
204.149353 0.201565 
204.159363 0.004053 
205.096802 0.135678 
205.107361 0.024283 
205.133545 0.090181 
205.14418 0.03931 
205.157562 0.005288 
205.169495 0.013363 
206.05603 0.004579 
206.092346 0.065978 
206.103561 0.233619 
206.128632 0.427464 
206.165009 1.855523 
206.995773 0.007052 
207.077438 0.030131 
207.087173 1.215192 
207.112488 0.383686 
207.123795 0.284705 
207.149277 0.398544 
207.170166 0.169591 
207.182541 0.004337 
207.980698 0.015977 
208.071884 0.250772 
208.090973 0.131051 
208.107712 0.972634 
208.144135 0.628939 
208.180695 1.609766 
208.267685 0.018352 
209.037079 0.005951 
209.058899 0.018141 
209.074539 0.103672 
209.092285 0.514766 
209.111221 0.095007 
209.128357 0.377838 
209.147903 0.029367 
209.164932 0.094905 
209.184067 0.145404 
209.995682 0.048429 
210.032333 0.00502 
210.076706 0.003938 
210.086731 0.023367 
210.103699 0.059116 
210.123215 0.403762 
210.160034 1.649599 
211.015884 0.012357 
211.053391 0.234063 
211.074158 0.003944 
211.088684 0.032608 
211.107574 0.082143 
211.126068 0.032458 
211.143951 0.068982 
211.163467 0.195953 
212.011337 0.025324 
212.037582 0.282468 
212.067093 0.025235 
212.085327 0.016391 
212.118073 6.139831 
212.994476 0.030361 
213.031937 0.019852 
213.040939 0.006209 
213.051102 0.172096 
213.06897 0.916414 
213.10321 0.029807 
213.121902 1.042541 
213.138641 0.04581 
214.05307 7.694932 
214.071899 0.044911 
214.099335 0.145124 
214.123871 0.026045 
214.155212 0.006039 
215.011108 0.019691 
215.036758 0.004613 
215.056686 0.966583 
215.083084 0.129852 
215.093658 0.03042 
215.10376 0.004504 
215.12851 0.026848 
215.138947 0.565235 
215.153915 0.085293 
216.048859 0.450352 
216.06842 0.135417 
216.087509 0.047023 
216.112991 0.054523 
216.124207 0.013329 
217.052795 0.016675 
217.071869 0.960261 
217.097412 0.117533 
217.108353 0.180149 
217.133316 0.054873 
217.144608 0.073193 
218.055939 0.219314 
218.075287 0.068304 
218.092056 0.100189 
218.103195 0.091575 
218.128372 0.196986 
218.1651 0.131005 
219.060425 0.014191 
219.076416 0.015211 
219.087067 0.005983 
219.112137 0.048676 
219.123337 0.043255 
219.14888 0.05319 
219.159943 0.016853 
219.904434 0.027044 
219.909561 0.042682 
220.107315 0.169691 
220.144318 0.199216 
220.180756 1.912092 
221.036987 0.004459 
221.077316 0.210652 
221.090088 0.032824 
221.111252 0.0164 
221.128036 0.077852 
221.138672 0.011419 
221.150101 0.005693 
221.164749 0.136296 
221.185425 0.232435 
222.004318 0.093192 
222.102631 0.487533 
222.123077 0.122269 
222.159561 0.091791 
222.196335 2.589434 
223.036636 0.004988 
223.074738 0.017784 
223.088654 0.013917 
223.106827 0.115371 
223.12616 0.07696 
223.143967 0.018192 
223.156021 0.008921 
223.18074 0.158927 
223.200073 0.282332 
223.999527 0.019757 
224.067169 0.007425 
224.084961 0.052443 
224.118271 1.423205 
224.138931 0.164186 
224.17514 0.210093 
225.031769 0.018219 
225.069046 1.092986 
225.097885 0.454879 
225.122223 0.330824 
225.133606 0.0063 
225.170547 0.011352 
226.072525 0.09652 
226.099808 0.029024 
226.117935 0.269579 
226.135635 0.009938 
226.154724 0.04903 
227.047394 0.01854 
227.065338 0.024177 
227.084213 0.104332 
227.102768 0.020049 
227.119049 0.011637 
227.153824 0.068537 
228.043488 0.007339 
228.067978 0.023835 
228.112808 0.018593 
228.170441 0.130644 
229.027328 0.015831 
229.047867 0.006924 
229.06308 0.017163 
229.097061 0.004685 
229.133224 0.037456 
229.144379 0.029404 
230.008316 0.005046 
230.04744 0.013173 
230.076965 0.006294 
230.103775 0.02224 
230.126831 0.004071 
230.165039 0.021958 
231.062027 0.006364 
231.076355 0.004893 
231.123825 0.098401 
231.148972 0.062631 
231.160492 0.004539 
232.081879 0.018379 
232.10762 0.146481 
232.119431 0.113006 
232.143814 0.029945 
232.180618 0.072252 
233.012054 0.007081 
233.092133 0.15323 
233.127747 0.027125 
233.139694 0.044038 
233.16449 0.141141 
233.176224 0.006303 
234.034897 0.231755 
234.054657 0.0111 
234.098389 0.449348 
234.123306 0.240934 
234.135086 0.006115 
234.148071 0.004212 
234.159744 0.317191 
234.19632 0.025224 
235.016388 0.005631 
235.037338 0.005873 
235.082458 2.356083 
235.104813 0.021106 
235.117599 0.050204 
235.1436 0.095639 
235.155212 0.207746 
236.033951 0.004684 
236.06691 0.28164 
236.085938 0.321867 
236.102783 0.774818 
236.138992 0.597185 
236.159744 0.004764 
236.175262 0.145331 
237.031082 0.040612 
237.054489 0.009539 
237.068802 0.043485 
237.087097 0.043051 
237.106003 0.084209 
237.13176 0.078614 
237.142624 0.109641 
238.099777 0.062638 
238.119064 0.044177 
238.135727 0.017106 
238.154877 0.10862 
239.047226 0.012429 
239.084671 0.232905 
239.101273 0.007322 
239.129562 0.326542 
239.15416 0.005342 
240.079315 0.010004 
240.112946 0.246032 
240.132858 0.06532 
240.152649 0.080406 
240.308319 0.016194 
241.045975 0.005696 
241.063019 0.007173 
241.08461 0.005976 
241.116913 0.026673 
241.133698 0.024205 
242.092728 0.049344 
242.104553 0.035116 
242.128204 0.013798 
242.1651 0.011603 
243.062119 0.005206 
243.075409 0.010979 
243.08757 0.10737 
243.133835 0.051303 
243.148834 0.305372 
243.181778 0.022777 
243.328522 0.003912 
244.082336 0.049036 
244.153168 0.011149 
244.182831 0.005199 
245.077454 0.162778 
245.090729 0.03813 
245.103348 0.004955 
246.073944 0.005146 
246.098282 0.195791 
246.122849 0.062791 
246.136765 0.008328 
246.159454 0.054038 
247.102554 0.02701 
247.118378 0.012196 
247.14241 0.004923 
247.155579 0.036875 
247.192368 0.0046 
248.102402 0.078597 
248.138931 0.080328 
248.175476 0.461524 
249.072983 0.005534 
249.114594 0.008115 
249.133041 0.020221 
249.158981 0.183918 
249.179382 0.019393 
250.097809 0.132275 
250.11821 0.141682 
250.139023 0.005621 
250.153534 0.005567 
250.191284 0.094497 
251.084747 0.013025 
251.100708 0.023134 
251.120575 0.023874 
251.174469 0.018093 
252.042358 0.007148 
252.065445 0.006701 
252.079468 0.022051 
252.1091 0.482064 
252.134338 0.042974 
252.152588 0.071988 
252.17038 0.166741 
253.06337 0.011908 
253.093063 1.989306 
253.117279 0.071116 
253.136978 0.29756 
253.153214 0.064089 
253.166107 0.261103 
254.081528 0.005292 
254.095886 0.245374 
254.112061 0.037973 
254.13945 0.005985 
254.168808 0.221897 
254.991974 0.028134 
255.04158 0.023493 
255.07811 0.004154 
255.123688 0.129513 
255.151291 0.017651 
255.170685 0.006302 
256.108032 0.052364 
257.139526 1.049733 
258.098389 0.156837 
258.142731 0.094613 
258.158508 0.017367 
259.082611 0.007174 
259.118347 0.017655 
260.087921 0.004576 
260.101135 0.16758 
260.115479 0.360607 
260.138153 0.02129 
260.175018 0.027557 
261.069427 0.004743 
261.086151 0.049674 
261.118805 0.017296 
261.158752 0.004632 
262.093262 0.059956 
262.118774 0.016372 
262.154968 0.100774 
262.191071 0.036419 
263.077484 0.701177 
263.121216 0.099405 
263.14978 0.045507 
264.04248 0.011337 
264.080048 0.069628 
264.096741 0.01996 
264.117706 0.004261 
264.133575 0.00966 
264.152252 0.022575 
264.168823 0.025795 
264.458038 0.017036 
265.111176 0.004953 
265.13678 0.147732 
265.163727 0.00507 
266.080322 0.005834 
266.095917 0.030708 
266.114075 0.009832 
266.130585 0.006888 
266.149628 0.035207 
266.186096 0.109755 
267.100006 0.005282 
267.124298 1.829701 
267.151306 0.173876 
268.107819 2.056955 
268.126556 0.366107 
268.145172 0.024606 
269.111511 0.361612 
269.127502 0.01691 
269.139252 0.00682 
269.678558 0.005133 
270.074768 0.006621 
270.117615 0.004323 
270.16275 0.029784 
271.144287 0.256953 
272.149017 0.016603 
273.134247 0.38809 
274.13797 0.041336 
274.165894 0.021776 
274.191467 0.009499 
275.096466 0.004436 
275.110443 0.007076 
275.186646 0.00736 
276.170227 0.06685 
276.206696 0.016289 
277.092285 0.008753 
277.129425 0.134838 
277.200958 0.004958 
278.113159 0.553528 
278.129395 0.06104 
278.184509 0.010453 
279.0979 0.040222 
279.116547 0.158377 
279.18222 0.005234 
279.217407 0.005407 
280.036926 0.006959 
280.074829 0.009536 
280.147736 0.227155 
280.164673 0.059134 
281.056976 0.006588 
281.088593 0.176242 
281.131592 1.319837 
281.147278 0.011271 
281.194977 0.006222 
282.0737 0.004862 
282.091461 0.015095 
282.135284 0.24564 
282.163483 0.195794 
283.074097 0.005437 
283.118103 0.037577 
283.146515 0.067692 
283.164917 0.01594 
284.14978 0.02143 
284.178802 0.043467 
284.999207 0.007841 
285.134277 1.648354 
285.162262 0.708973 
286.09314 0.058969 
286.138275 0.232519 
286.166046 0.077945 
287.187103 0.005352 
288.109131 0.044442 
288.133667 0.012077 
288.169952 0.017598 
289.201233 0.00486 
290.091797 0.004533 
290.131409 0.005751 
290.161285 0.213197 
290.185608 0.017035 
291.14444 0.005938 
291.163574 0.009942 
291.21701 0.005672 
292.147675 0.083194 
292.20166 0.014903 
293.139587 0.383429 
294.143738 0.092225 
294.162994 0.206277 
294.196014 0.05109 
295.118835 0.166993 
295.139984 0.277077 
295.162262 0.010996 
295.182251 0.005054 
296.123413 0.162107 
296.142334 0.059736 
297.126343 0.033939 
298.084808 0.005421 
298.158081 0.718682 
298.188934 0.005011 
299.068176 0.004526 
299.16098 0.193459 
300.151062 0.013638 
300.170105 0.004893 
302.11319 0.010454 
303.113464 0.36445 
303.180847 0.01749 
303.218048 0.005395 
304.103821 1.084295 
304.16507 0.005348 
304.20105 0.005051 
305.107178 0.150032 
305.124695 0.033335 
305.159882 0.020917 
306.120758 0.023014 
306.16272 0.017628 
306.181091 0.004499 
307.192261 0.028382 
308.141663 0.005881 
308.196472 0.01017 
309.173889 0.185851 
310.158386 0.017986 
311.057831 0.00441 
312.154541 0.005246 
312.17334 0.034477 
312.206451 0.013675 
313.150513 0.073563 
313.190918 0.095112 
315.180298 0.006778 
316.13205 0.021146 
316.164398 0.041042 
317.195892 0.012969 
319.118744 0.018155 
319.212311 0.010096 
319.248688 0.005735 
320.124268 0.006186 
321.130585 0.005043 
321.172424 0.020058 
321.22702 0.00503 
323.135223 0.018588 
328.138397 0.004458 
330.147522 0.048301 
331.111847 0.012004 
331.2117 0.006589 
332.098602 0.097433 
333.153839 0.006733 
333.172607 0.017118 
333.191559 0.020941 
333.265076 0.007329 
335.087952 0.008125 
335.188141 0.326703 
335.605896 0.017281 
336.087463 0.005147 
336.144867 0.018013 
336.190399 0.04972 
337.129395 0.050444 
338.082031 0.004405 
340.201355 0.027603 
344.171753 0.007053 
346.152557 0.004798 
347.148743 0.006442 
349.124908 0.186682 
350.108643 0.078303 
350.157227 0.004772 
350.223785 0.065077 
351.110565 0.006469 
352.213654 0.004764 
360.093262 0.005667 
361.167633 0.013753 
361.185425 0.006663 
364.137665 0.004954 
365.123901 0.084542 
369.225922 0.027819 
370.150818 0.084816 
378.209198 0.005924 
378.246918 0.032251 
380.20813 0.013674 
382.150391 0.047439 
384.070374 0.0047 
387.177216 0.11118 
388.1604 0.051904 
389.164795 0.005507 
392.205017 0.04867 
395.237549 0.039265 
400.160828 0.03989 
405.187347 0.053487 
415.171143 0.012125 
418.186676 0.005393 
425.169342 0.004481 
432.155945 0.227754 
433.182617 0.006286 
440.270172 0.076421 
440.308136 0.096561 
446.213501 0.004349 
447.346863 0.251235 
448.348999 0.054434 
455.457001 0.004193 
456.251068 0.010125 
458.155396 0.004306 
460.149445 0.023865 
460.194458 0.009368 
492.287445 0.004886 
493.534149 0.01841 
502.048767 0.008823 
506.284149 0.028839 
529.400085 0.013044 
530.419312 0.033142 
531.42218 0.004704 
556.410767 0.275547 
556.455261 0.005055 
557.412476 0.06183 
558.407166 0.004221 
601.228394 0.003962 
615.695007 0.010581 
680.989624 0.003372 
695.679199 0.00424 
713.104004 0.00903 
753.568359 0.004196 
756.389648 0.004631 
817.22522 0.007438 
847.317322 0.007887 
915.44928 0.003754 
962.776428 0.007556 
1022.432495 0.004305 
1079.786499 0.004084 
1113.331299 0.006058 
1125.515137 0.017722 
1301.868652 0.010611 
1302.628662 0.01746 
END IONS

