BEGIN IONS
PEPMASS=338.16
CHARGE=1+
COMPOUNDNAME=Mycophenolic Acid
LIBRARYQUALITY=3
SMILES=N/A
INCHIKEY=HPNSFSBZBAHARI-RUDMXATFSA-N
INCHI=InChI=1S/C17H20O6/c1-9(5-7-13(18)19)4-6-11-15(20)14-12(8-23-17(14)21)10(2)16(11)22-3/h4,20H,5-8H2,1-3H3,(H,18,19)/b9-4+
MSLEVEL=2
SOURCE_INSTRUMENT=N/A-ESI-QFT
FILENAME=library_mgf.mgf
SEQ=*..*
IONMODE=positive
ORGANISM=MONA
NAME=Mycophenolic Acid [M+NH4]+
PI=MoNA
DATACOLLECTOR=MoNA:VF-NPL-QEHF004801
PUBMED=N/A
SUBMITUSER=mwang87
TAGS=
SPECTRUMID=CCMSLIB00004695864
SCANS=4801
50.233318 0.006109 
50.258884 0.006609 
50.597389 0.007061 
50.655788 0.009448 
50.797974 0.007244 
51.175236 0.01036 
51.852535 0.006622 
51.891682 0.037201 
52.039097 0.00968 
52.244476 0.006844 
52.454742 0.006623 
52.578892 0.010946 
52.589607 0.007347 
52.915688 0.007935 
52.959557 0.009724 
54.470718 0.00804 
54.595486 0.011122 
54.828819 0.006904 
55.018681 0.139878 
55.476944 0.008118 
55.663399 0.007331 
56.43642 0.011133 
56.47084 0.008033 
56.737309 0.005542 
56.760899 0.00655 
56.945229 0.009372 
58.253078 0.008367 
58.48954 0.009951 
58.551044 0.008561 
58.595772 0.00783 
58.841515 0.007483 
58.889103 0.014009 
59.297005 0.008168 
59.723709 0.010065 
59.866871 0.007131 
60.269623 0.008355 
61.143501 0.006177 
62.020844 0.008994 
62.068466 0.007102 
62.378922 0.006749 
62.443001 0.008484 
62.525906 0.006343 
62.679947 0.011265 
63.393631 0.00924 
64.938911 0.006635 
65.747757 0.010746 
66.111031 0.006076 
67.230461 0.006004 
67.256165 0.008924 
67.367912 0.007026 
67.575012 0.011651 
67.635345 0.007916 
67.921875 0.005842 
68.346153 0.00762 
68.742813 0.011046 
69.518265 0.008862 
69.855972 0.010885 
70.012924 0.006211 
70.329819 0.006051 
70.56118 0.009422 
70.923805 0.008358 
71.232628 0.009632 
71.284058 0.009531 
71.839867 0.007103 
72.431557 0.006112 
72.497154 0.006155 
72.797791 0.008086 
72.809044 0.005149 
72.928856 0.006836 
72.951767 0.01094 
74.228485 0.004794 
74.61525 0.011542 
74.74131 0.006437 
75.041557 0.006986 
75.939262 0.010394 
76.389984 0.011292 
76.417595 0.005904 
76.552025 0.009814 
77.544662 0.009811 
77.903793 0.008876 
78.056496 0.008654 
79.372025 0.010218 
80.528084 0.009523 
80.589546 0.009133 
80.687866 0.011349 
81.070557 1.102845 
81.507149 0.007072 
81.548866 0.007138 
81.976807 0.009378 
82.073883 0.156351 
82.476387 0.009362 
84.306419 0.005501 
84.358742 0.009337 
84.612755 0.00676 
85.101532 0.010546 
85.852913 0.007243 
86.623596 0.008247 
86.653923 0.006148 
93.866615 0.008495 
94.231697 0.0091 
94.509537 0.01207 
94.540909 0.010355 
96.052757 0.007843 
97.06546 0.020028 
97.406616 0.008723 
97.828407 0.009406 
98.462318 0.005588 
98.590324 0.008862 
101.133842 0.012559 
102.837189 0.012703 
103.533333 0.008398 
103.790039 0.009466 
104.777344 0.008329 
104.886391 0.012158 
105.567047 0.007324 
106.309067 0.006594 
106.407448 0.006153 
108.058105 0.009536 
108.174004 0.008893 
109.065201 0.655245 
109.197441 0.00879 
109.487099 0.007611 
109.71566 0.009976 
110.068535 0.053996 
111.377563 0.010006 
111.478539 0.005922 
114.913017 0.006714 
115.730637 0.008696 
116.978714 0.006599 
118.252396 0.011708 
119.215302 0.007927 
119.853012 0.01069 
120.18911 0.007958 
120.554436 0.01218 
121.364304 0.008281 
122.722359 0.009326 
122.883682 0.011212 
124.083916 0.006222 
124.110786 0.008159 
124.893135 0.010707 
124.907249 0.011293 
125.790573 0.010686 
127.075645 0.14401 
127.581909 0.006145 
129.276779 0.006076 
130.771088 0.011406 
132.503738 0.006044 
134.720901 0.011149 
140.938019 0.011249 
141.48291 0.007373 
141.542206 0.011545 
141.748184 0.008165 
142.746246 0.011807 
143.732285 0.008347 
143.966003 0.00768 
144.523865 0.005826 
145.248688 0.006142 
146.300095 0.010423 
151.438141 0.009508 
154.133987 0.00665 
154.166183 0.010123 
154.451126 0.006493 
154.848129 0.008096 
154.984192 0.006692 
157.373169 0.009055 
159.044266 1.02586 
159.638306 0.007189 
160.047623 0.768591 
169.625488 0.008159 
171.083817 0.010431 
171.613434 0.011231 
174.298904 0.006636 
174.714874 0.007417 
174.812714 0.006605 
175.074875 0.019828 
176.810547 0.011951 
177.054688 1.660047 
177.936508 0.008823 
178.05809 1.302607 
179.060501 0.032056 
179.262909 0.005554 
180.074036 0.014194 
181.479492 0.013612 
185.751022 0.007755 
186.685425 0.01047 
186.825546 0.011275 
189.639648 0.009804 
191.070145 0.009979 
191.981949 0.007388 
192.17363 0.009746 
192.289856 0.010416 
193.049347 0.035334 
193.086426 0.006893 
193.129807 0.010426 
194.089935 0.007661 
194.425995 0.006185 
195.065384 5.437977 
196.068665 2.452562 
197.070496 0.565336 
197.97435 0.063525 
197.990402 0.006695 
198.924789 0.010208 
200.056686 0.011072 
203.757156 0.00984 
207.065353 100.0 
207.220932 0.011515 
207.545166 0.008891 
208.06868 56.415222 
209.070618 15.228904 
209.084381 0.012746 
209.086929 0.011926 
209.246063 0.005612 
209.727844 0.011887 
210.073257 1.265264 
212.163666 0.008034 
212.439728 0.012175 
212.729782 0.011763 
213.820786 0.012181 
214.75798 0.081992 
214.769989 0.296096 
214.78035 0.36851 
214.82193 0.008585 
215.106781 0.137038 
216.110504 0.060177 
218.224792 0.006815 
219.065216 0.60015 
220.068832 0.226346 
221.023666 0.006168 
221.07019 0.0181 
221.081116 0.248787 
222.084305 0.422536 
223.060287 1.005937 
223.086349 0.038222 
224.063644 0.449064 
224.329529 0.010473 
224.989655 0.009572 
225.06572 0.04205 
225.715591 0.013105 
229.122543 0.010451 
231.466064 0.008928 
233.080063 0.011008 
233.751175 0.010618 
233.997742 0.009949 
234.083496 0.008948 
238.329086 0.007314 
239.09198 0.030181 
239.614044 0.008454 
241.085541 0.046084 
245.081024 0.079983 
247.096832 0.052774 
247.117859 0.0085 
248.100189 0.038749 
249.781982 0.013994 
251.204315 0.006651 
252.729294 0.007305 
257.115295 0.008371 
259.096771 0.720248 
260.10022 0.545907 
261.112762 0.303078 
262.115692 0.248224 
264.112946 0.010175 
265.958862 0.010265 
269.080475 0.011407 
269.855469 0.006952 
271.288788 0.01102 
271.714661 0.008143 
273.112915 0.0492 
275.127838 8.377906 
275.229553 0.009688 
276.131134 6.393028 
276.763794 0.007531 
277.133759 2.498511 
278.136383 0.047435 
279.424377 0.010067 
281.913422 0.010468 
285.112122 2.810988 
286.115509 2.856217 
287.11795 1.037206 
292.848358 0.011175 
292.940277 0.009138 
297.272736 0.009552 
300.813477 0.007307 
301.107452 0.257957 
302.110229 0.043535 
303.12262 3.204073 
304.102905 0.037616 
305.128876 1.429136 
305.147583 0.009747 
306.131042 0.037422 
318.669647 0.009572 
319.125153 0.008111 
319.231506 0.007961 
321.133331 2.074434 
322.136566 1.963601 
322.483307 0.008656 
323.139099 0.916303 
336.18689 0.01058 
339.083954 0.195733 
340.618256 0.008916 
360.016754 0.00715 
363.596527 0.007443 
END IONS

