BEGIN IONS
PEPMASS=319.119
CHARGE=1+
COMPOUNDNAME=MoNA:508832 Mycophenolic (Mycophenolate) [M+H]
LIBRARYQUALITY=3
SMILES=N/A
INCHIKEY=HPNSFSBZBAHARI-RUDMXATFSA-N
INCHI=InChI=1S/C17H20O6/c1-9(5-7-13(18)19)4-6-11-15(20)14-12(8-23-17(14)21)10(2)16(11)22-3/h4,20H,5-8H2,1-3H3,(H,18,19)/b9-4+
MSLEVEL=2
SOURCE_INSTRUMENT=LC-ESI-ITFT-LC-ESI-ITFT
FILENAME=output_mgf.mgf
SEQ=*..*
IONMODE=
ORGANISM=MONA
NAME=MoNA:508832 Mycophenolic (Mycophenolate) [M+H] [M-H]-
PI=MoNA
DATACOLLECTOR=MoNA
PUBMED=N/A
SUBMITUSER=mwang87
TAGS=
SPECTRUMID=CCMSLIB00000564773
SCANS=2025
119.05 26.683465 
158.0374 35.756867 
161.0604 55.626651 
163.0394 32.792421 
173.0606 100.0 
187.0761 36.555076 
191.0354 90.58833 
203.0355 47.777169 
END IONS

