BEGIN IONS
PEPMASS=312.16
CHARGE=1+
COMPOUNDNAME=Massbank:PB003643 Thebaine|Morphinan, 6,7,8,14-tetradehydro-4,5-epoxy-3,6-dimethoxy-17-methyl-, (5.alpha.)-
LIBRARYQUALITY=3
SMILES=CN1CCC23C4C(=CC=C2C1CC5=C3C(=C(C=C5)OC)O4)OC
INCHIKEY=FQXXSQDCDRQNQE-UHFFFAOYSA-N
INCHI=1S/C19H21NO3/c1-20-9-8-19-12-5-7-15(22-3)18(19)23-17-14(21-2)6-4-11(16(17)19)10-13(12)20/h4-7,13,18H,8-10H2,1-3H3
MSLEVEL=2
SOURCE_INSTRUMENT=ESI-LC-ESI-QQ
FILENAME=Massbank_ESI_positive_8_1_2014_peaks.mgf
SEQ=*..*
IONMODE=Positive
ORGANISM=MASSBANK
NAME=Massbank:PB003643 Thebaine|Morphinan, 6,7,8,14-tetradehydro-4,5-epoxy-3,6-dimethoxy-17-methyl-, (5.alpha.)- [M+H]+
PI=Putative Massbank Match
DATACOLLECTOR=Massbank
PUBMED=N/A
SUBMITUSER=mwang87
TAGS=
SPECTRUMID=CCMSLIB00000222171
SCANS=10604
30.0 109.864 
31.0 14.285 
42.0 18.957 
43.0 85.935 
44.0 244.141 
55.0 12.646 
56.0 120.506 
57.0 24.498 
58.0 10000.0 
59.0 16.789 
152.0 48.12 
153.0 21.636 
165.0 148.228 
166.0 37.216 
167.0 116.662 
169.0 20.102 
176.0 31.016 
177.0 319.515 
178.0 199.752 
179.0 75.836 
180.0 107.894 
181.0 75.594 
182.0 40.359 
183.0 25.714 
184.0 30.837 
189.0 206.17 
190.0 181.276 
191.0 166.312 
192.0 46.731 
193.0 206.014 
194.0 135.708 
195.0 651.441 
196.0 70.349 
197.0 139.009 
198.0 27.219 
199.0 16.568 
201.0 19.381 
202.0 75.693 
203.0 98.833 
204.0 12.33 
205.0 331.238 
206.0 334.669 
207.0 134.784 
208.0 66.018 
209.0 270.067 
210.0 171.722 
211.0 113.542 
212.0 126.581 
213.0 32.239 
216.0 17.187 
217.0 229.441 
218.0 855.962 
219.0 133.605 
220.0 73.338 
221.0 1019.823 
222.0 179.316 
223.0 531.16 
224.0 145.766 
225.0 181.535 
226.0 39.375 
227.0 94.045 
228.0 14.551 
231.0 25.637 
232.0 44.928 
233.0 181.438 
234.0 554.588 
235.0 232.413 
236.0 495.722 
237.0 217.202 
238.0 139.238 
239.0 421.856 
240.0 213.776 
241.0 40.885 
242.0 12.246 
246.0 13.605 
247.0 13.964 
248.0 108.052 
249.0 318.175 
250.0 120.439 
251.0 2993.221 
252.0 66.511 
253.0 99.58 
254.0 171.545 
255.0 224.287 
256.0 14.76 
263.0 16.971 
264.0 61.606 
265.0 139.72 
266.0 632.187 
267.0 33.602 
268.0 62.834 
269.0 29.682 
280.0 95.201 
281.0 250.986 
282.0 80.175 
296.0 74.332 
297.0 84.048 
312.0 224.533 
313.0 11.395 
END IONS

