BEGIN IONS
TITLE=Scan Number: 938
PEPMASS=419.23599
CHARGE=1+
COMPOUNDNAME=Ambiguine D isonitrile
LIBRARYQUALITY=3
SMILES=C[C@]1([C@@H]2[C@@]3([C@@]([C@]([C@@H](C2)Cl)(C=C)C)([C@H]4O[C@H]4[C@@](C5=Nc6c(c1ccc6)[C@]35O)(C)C)[N+]#[C-])O)C
INCHIKEY=BEUWKFSFCQGVEY-QJQSJIDVSA-N
INCHI=
MSLEVEL=2
SOURCE_INSTRUMENT=LC-ESI-qTof
FILENAME=f.philipwi/0_WilliamsFreshwaterCyanosStandardsConvertedTo_mzXML_v2/PW-45_P1-E-9_Ambiguine_D_isonitrile_452amu_Scan933-988_01_15560.mzXML;
SEQ=*..*
NOTES=
IONMODE=Positive
ORGANISM=GNPS-LIBRARY
NAME=Ambiguine D isonitrile M+H
SPECTRUMID=CCMSLIB00000424903
ACTIVATION=CID
INSTRUMENT=ion trap
SCANS=938
52.543697 20.0 
74.848381 68.0 
85.521004 132.0 
97.37606 144.0 
100.418533 100.0 
100.834129 36.0 
102.511574 52.0 
102.724648 96.0 
109.406395 36.0 
109.893631 36.0 
114.996346 112.0 
121.104073 24.0 
122.7369 132.0 
125.563515 44.0 
135.087082 48.0 
136.029602 64.0 
138.614014 48.0 
141.920486 84.0 
142.076141 132.0 
143.084686 112.0 
144.108215 92.0 
145.166092 44.0 
145.534973 40.0 
149.849625 36.0 
150.224396 32.0 
152.648178 24.0 
153.057968 76.0 
153.405151 24.0 
154.069031 120.0 
154.385666 176.0 
154.623367 152.0 
155.074249 384.0 
155.456726 24.0 
155.758881 28.0 
156.101151 128.0 
157.109711 128.0 
158.102448 184.0 
158.579727 40.0 
158.77243 36.0 
159.102951 116.0 
160.205322 40.0 
160.730164 32.0 
160.794815 24.0 
161.082703 80.0 
162.106903 120.0 
162.2043 80.0 
164.379105 28.0 
165.072922 172.0 
165.221939 32.0 
165.541626 76.0 
166.075134 96.0 
166.223038 68.0 
167.080902 196.0 
167.210678 40.0 
167.35907 36.0 
167.507538 92.0 
168.087265 388.0 
169.083405 120.0 
170.099686 124.0 
170.340851 40.0 
170.55722 40.0 
171.148788 20.0 
172.122772 76.0 
175.090561 172.0 
176.112625 76.0 
178.067963 76.0 
178.828705 136.0 
178.940781 32.0 
179.063431 2076.0 
179.333221 28.0 
179.392975 76.0 
179.888504 20.0 
180.081924 264.0 
180.179291 36.0 
180.328339 28.0 
180.701599 52.0 
181.084518 288.0 
181.525131 64.0 
181.613327 104.0 
181.782867 64.0 
182.096024 348.0 
182.600235 52.0 
182.927689 52.0 
183.099518 268.0 
183.609406 32.0 
183.704422 32.0 
184.116516 240.0 
184.309692 96.0 
184.413544 160.0 
184.771515 108.0 
185.151443 100.0 
185.375641 104.0 
186.00972 24.0 
186.113708 96.0 
187.106735 228.0 
187.263702 96.0 
188.137848 84.0 
188.924713 64.0 
189.035049 88.0 
189.13504 104.0 
190.769104 16.0 
191.075165 160.0 
191.165482 24.0 
191.288895 36.0 
191.615234 32.0 
191.968338 28.0 
192.074631 2016.0 
192.174881 52.0 
192.251053 28.0 
192.542831 32.0 
192.845642 36.0 
193.001572 24.0 
193.079803 5928.0 
193.247421 68.0 
193.348557 28.0 
193.582626 40.0 
193.74762 36.0 
194.087906 1208.0 
194.493637 28.0 
194.608795 48.0 
194.973969 28.0 
195.097092 756.0 
195.454895 24.0 
195.552933 28.0 
195.624252 32.0 
195.927505 28.0 
196.083862 316.0 
196.507874 28.0 
196.84758 32.0 
196.98175 92.0 
197.088959 424.0 
197.393494 52.0 
197.769821 52.0 
197.904297 36.0 
198.130341 252.0 
199.143723 76.0 
199.305664 24.0 
199.368668 28.0 
200.116394 120.0 
200.377975 72.0 
200.883591 44.0 
201.119995 128.0 
201.34462 24.0 
201.471268 28.0 
201.932968 44.0 
202.132294 72.0 
203.084976 40.0 
203.52124 36.0 
203.976181 28.0 
204.083771 568.0 
204.203842 24.0 
204.281982 152.0 
204.577469 20.0 
204.914948 52.0 
205.082993 2136.0 
205.234436 40.0 
205.389709 36.0 
205.627289 28.0 
205.855865 108.0 
206.089172 6716.0 
206.268478 44.0 
206.410706 60.0 
206.486938 80.0 
206.506302 36.0 
206.535492 80.0 
206.766571 32.0 
206.852646 36.0 
207.095703 7992.0 
207.187271 160.0 
207.297577 44.0 
207.335129 44.0 
207.384201 64.0 
207.514557 36.0 
207.604431 56.0 
207.736023 36.0 
207.874878 84.0 
207.955551 32.0 
208.103088 1192.0 
208.194626 48.0 
208.360214 76.0 
208.424622 32.0 
208.492111 72.0 
208.783676 16.0 
208.957184 24.0 
209.110565 1396.0 
209.318222 40.0 
209.50885 72.0 
209.728821 24.0 
209.816528 44.0 
210.11644 296.0 
210.226929 32.0 
210.426361 32.0 
210.546585 32.0 
210.611328 28.0 
210.888947 40.0 
210.981522 20.0 
211.10939 368.0 
211.388397 52.0 
211.916626 140.0 
211.937225 156.0 
212.122467 64.0 
212.289032 48.0 
213.121902 184.0 
213.305695 40.0 
213.386368 32.0 
213.526062 36.0 
214.123947 660.0 
214.455414 40.0 
214.794724 36.0 
215.131165 88.0 
215.308838 180.0 
215.926605 20.0 
216.074097 584.0 
216.329559 20.0 
216.67659 72.0 
216.74852 56.0 
216.817352 36.0 
216.932358 32.0 
217.083786 2436.0 
217.363266 32.0 
217.521881 36.0 
217.803177 92.0 
217.816101 84.0 
218.097 1868.0 
218.315933 52.0 
218.557251 40.0 
218.830612 80.0 
218.955429 136.0 
219.097504 5716.0 
219.218445 36.0 
219.363708 48.0 
219.510071 24.0 
219.642303 16.0 
219.774582 40.0 
219.840744 76.0 
219.944214 76.0 
220.099548 3552.0 
220.345734 40.0 
220.501923 84.0 
220.700775 44.0 
220.843719 68.0 
220.942001 68.0 
221.111969 28736.0 
221.223511 68.0 
221.3508 40.0 
221.387543 32.0 
221.421371 68.0 
221.522919 40.0 
221.536789 88.0 
221.628769 52.0 
221.67099 32.0 
221.767334 60.0 
221.954361 40.0 
222.115631 4428.0 
222.33638 72.0 
222.45607 72.0 
222.559631 172.0 
222.695496 56.0 
222.871384 36.0 
222.994507 24.0 
223.109604 812.0 
223.290115 44.0 
223.385376 44.0 
223.416718 24.0 
223.557571 52.0 
223.885406 40.0 
224.112915 836.0 
224.272598 44.0 
224.381638 40.0 
224.591751 32.0 
225.127838 460.0 
225.416672 44.0 
225.519333 32.0 
225.777878 24.0 
225.864075 108.0 
226.127151 676.0 
226.406982 44.0 
226.66951 40.0 
226.813477 16.0 
227.134949 316.0 
227.457138 36.0 
227.600235 68.0 
227.707153 24.0 
227.851471 44.0 
227.966949 40.0 
228.080322 244.0 
228.284653 56.0 
228.363876 160.0 
228.470901 96.0 
229.08287 1204.0 
229.16568 108.0 
229.306686 72.0 
229.370132 56.0 
229.787643 40.0 
229.920044 48.0 
230.091766 996.0 
230.173264 36.0 
230.26329 64.0 
230.329926 36.0 
230.467957 52.0 
230.863388 44.0 
230.889206 36.0 
230.928772 32.0 
231.01062 20.0 
231.096161 8968.0 
231.340149 40.0 
231.679443 44.0 
231.842636 36.0 
231.94545 112.0 
232.104004 5876.0 
232.347626 36.0 
232.432159 40.0 
232.564682 40.0 
232.792099 44.0 
232.820724 36.0 
232.936646 68.0 
233.111237 8660.0 
233.241165 40.0 
233.32515 48.0 
233.375046 32.0 
233.5271 100.0 
233.687164 40.0 
233.862106 52.0 
233.927277 56.0 
234.114105 3232.0 
234.279846 124.0 
234.356766 48.0 
234.456955 60.0 
234.558472 20.0 
234.79039 44.0 
234.895401 84.0 
235.121658 14832.0 
235.30101 28.0 
235.397415 64.0 
235.418365 100.0 
235.524933 44.0 
235.604233 56.0 
235.698654 44.0 
235.923721 76.0 
236.111206 1300.0 
236.226334 80.0 
236.331543 72.0 
236.47583 32.0 
236.774902 32.0 
236.868088 24.0 
237.1026 608.0 
237.286438 32.0 
237.427612 32.0 
237.516022 32.0 
237.629013 24.0 
237.739563 28.0 
237.977966 36.0 
238.12085 696.0 
238.288422 100.0 
238.440369 24.0 
238.548645 48.0 
238.69635 36.0 
239.011597 44.0 
239.135437 264.0 
239.318832 72.0 
239.830246 40.0 
240.139297 320.0 
240.274673 28.0 
240.422913 28.0 
240.630508 36.0 
240.809769 32.0 
240.917358 48.0 
241.09201 204.0 
241.288513 40.0 
241.382599 68.0 
241.486053 36.0 
241.967255 44.0 
242.103439 416.0 
242.364044 20.0 
242.72142 108.0 
242.927292 44.0 
242.946167 32.0 
243.096542 2612.0 
243.361404 60.0 
243.571548 36.0 
243.735428 36.0 
243.854874 20.0 
244.013046 36.0 
244.104141 2448.0 
244.297577 44.0 
244.670853 124.0 
244.764694 48.0 
244.96637 84.0 
245.113251 6976.0 
245.215286 92.0 
245.28038 36.0 
245.390732 44.0 
245.544388 36.0 
245.68573 116.0 
245.893814 64.0 
245.973053 156.0 
246.118729 7528.0 
246.302231 48.0 
246.464813 88.0 
246.58992 36.0 
246.730087 44.0 
246.776398 32.0 
246.81218 64.0 
246.921082 40.0 
247.122025 7764.0 
247.275528 72.0 
247.414017 108.0 
247.553467 68.0 
247.68721 36.0 
247.829468 124.0 
247.901825 36.0 
248.123932 1868.0 
248.348099 60.0 
248.576843 40.0 
248.748489 36.0 
248.827164 24.0 
248.98555 112.0 
249.110825 1868.0 
249.408447 36.0 
249.482605 28.0 
249.521439 48.0 
249.657394 56.0 
249.793381 32.0 
249.863907 44.0 
250.117325 1600.0 
250.337708 28.0 
250.497101 40.0 
250.660553 36.0 
250.731201 56.0 
250.915955 40.0 
251.129501 1380.0 
251.342224 28.0 
251.495514 48.0 
251.644485 48.0 
251.838776 44.0 
251.967789 44.0 
252.139481 692.0 
252.358887 40.0 
252.500671 44.0 
252.586227 72.0 
252.733688 100.0 
252.855316 60.0 
253.088501 76.0 
253.150803 160.0 
253.382675 40.0 
253.494293 36.0 
253.666855 28.0 
253.819168 40.0 
253.919464 32.0 
254.101074 656.0 
254.276367 60.0 
254.479706 28.0 
254.670044 52.0 
254.742798 180.0 
254.823242 88.0 
254.891357 32.0 
255.110352 388.0 
255.332901 24.0 
255.585892 24.0 
255.664719 80.0 
255.900208 48.0 
255.997086 56.0 
256.107544 1372.0 
256.2164 40.0 
256.289551 24.0 
256.306549 36.0 
256.507294 48.0 
256.946472 52.0 
257.113403 4264.0 
257.307281 68.0 
257.59436 48.0 
257.689484 36.0 
257.728729 24.0 
257.76712 48.0 
257.993835 76.0 
258.120636 2516.0 
258.37735 76.0 
258.500061 96.0 
258.81546 48.0 
258.934418 68.0 
259.125702 6724.0 
259.267059 40.0 
259.379486 36.0 
259.555206 36.0 
259.855896 64.0 
259.957489 68.0 
260.131256 8060.0 
260.269928 152.0 
260.36441 32.0 
260.512878 24.0 
260.617493 60.0 
260.737549 36.0 
260.846588 96.0 
260.978516 56.0 
261.133057 6524.0 
261.367065 76.0 
261.399719 68.0 
261.574402 88.0 
261.69043 40.0 
261.779785 104.0 
261.996521 48.0 
262.134979 2084.0 
262.310913 48.0 
262.465576 44.0 
262.485626 56.0 
262.670471 36.0 
262.769196 36.0 
262.878571 48.0 
263.124603 2760.0 
263.289551 36.0 
263.389557 36.0 
263.431793 48.0 
263.523743 88.0 
263.632294 32.0 
263.724152 20.0 
263.835724 36.0 
264.123413 880.0 
264.287476 56.0 
264.501099 32.0 
264.584045 36.0 
264.699158 40.0 
264.801819 32.0 
264.872284 76.0 
265.13855 796.0 
265.310333 20.0 
265.41095 64.0 
265.538818 36.0 
265.666595 40.0 
265.878418 152.0 
265.97525 28.0 
266.15863 1656.0 
266.401672 40.0 
266.474487 32.0 
266.588959 36.0 
266.678223 60.0 
266.807587 24.0 
267.151733 456.0 
267.432678 40.0 
267.740753 88.0 
267.899109 44.0 
267.96109 96.0 
268.11911 676.0 
268.329895 20.0 
268.403015 40.0 
268.488892 36.0 
268.622345 56.0 
268.83136 44.0 
268.977692 48.0 
269.117737 1928.0 
269.354187 32.0 
269.484192 28.0 
269.598663 44.0 
269.753754 44.0 
269.940338 40.0 
270.120361 1948.0 
270.275574 24.0 
270.367279 48.0 
270.558624 32.0 
270.775757 128.0 
270.904724 20.0 
271.128937 4016.0 
271.329285 64.0 
271.45874 112.0 
271.555603 44.0 
271.693787 28.0 
271.819672 40.0 
271.959137 60.0 
272.135223 3588.0 
272.296661 40.0 
272.329102 48.0 
272.426666 28.0 
272.653381 76.0 
272.799591 56.0 
272.876984 100.0 
272.950958 72.0 
273.138855 4672.0 
273.26297 28.0 
273.383972 40.0 
273.554138 56.0 
273.675781 112.0 
273.757538 44.0 
273.836945 56.0 
273.941803 60.0 
273.984344 84.0 
274.148224 6140.0 
274.512177 44.0 
274.695587 48.0 
274.764648 56.0 
274.921356 100.0 
275.153839 10128.0 
275.313293 84.0 
275.510712 100.0 
275.662445 44.0 
275.881378 104.0 
276.148193 2288.0 
276.389771 56.0 
276.568085 56.0 
276.700043 36.0 
276.803619 124.0 
276.929382 56.0 
277.142975 1412.0 
277.278809 24.0 
277.384949 108.0 
277.480499 36.0 
277.607941 32.0 
277.703522 44.0 
277.799133 36.0 
277.923737 44.0 
278.027191 52.0 
278.142731 276.0 
278.468872 32.0 
278.564636 24.0 
278.639099 96.0 
278.766815 32.0 
278.845398 64.0 
278.921509 32.0 
278.997955 28.0 
279.131439 3248.0 
279.322449 44.0 
279.43338 52.0 
279.650879 104.0 
279.745483 32.0 
279.920105 32.0 
280.130524 444.0 
280.33139 40.0 
280.36554 32.0 
280.549683 32.0 
280.691162 40.0 
280.805695 36.0 
280.828247 36.0 
280.974243 32.0 
281.118744 744.0 
281.348328 60.0 
281.48645 48.0 
281.602325 128.0 
281.924469 56.0 
282.117218 624.0 
282.290039 100.0 
282.552063 52.0 
282.686432 84.0 
282.847229 48.0 
282.950867 48.0 
282.990631 32.0 
283.125824 1652.0 
283.36203 28.0 
283.533752 36.0 
283.662567 32.0 
284.014282 32.0 
284.136566 1872.0 
284.531494 64.0 
284.655182 32.0 
284.930817 24.0 
285.139679 2972.0 
285.291382 40.0 
285.409851 36.0 
285.544464 52.0 
285.630646 56.0 
285.736847 28.0 
285.847351 36.0 
286.012146 80.0 
286.144379 3012.0 
286.257172 68.0 
286.4133 36.0 
286.536316 40.0 
286.687378 40.0 
286.766541 48.0 
286.857788 56.0 
286.886627 44.0 
286.931641 32.0 
287.153809 8312.0 
287.433411 52.0 
287.542389 152.0 
287.628815 56.0 
287.709137 48.0 
287.728516 32.0 
287.914001 144.0 
288.147186 2288.0 
288.281158 72.0 
288.467407 24.0 
288.487244 32.0 
288.591003 132.0 
288.705994 40.0 
288.868378 92.0 
288.945343 160.0 
289.171051 15016.0 
289.286591 72.0 
289.501434 44.0 
289.631531 48.0 
289.73822 124.0 
289.896454 64.0 
290.167786 3536.0 
290.385071 48.0 
290.493713 24.0 
290.61731 32.0 
290.680939 104.0 
290.965668 52.0 
291.030426 216.0 
291.158234 1684.0 
291.277679 44.0 
291.577881 160.0 
291.655884 44.0 
291.760803 28.0 
291.9086 32.0 
291.983734 36.0 
292.134796 1528.0 
292.30545 20.0 
292.447144 36.0 
292.57019 28.0 
292.676117 104.0 
292.786255 40.0 
292.82663 56.0 
292.963348 44.0 
293.164001 440.0 
293.450897 68.0 
293.646393 40.0 
293.904236 64.0 
294.152771 8364.0 
294.33606 24.0 
294.457092 52.0 
294.587646 72.0 
294.675171 20.0 
294.806488 36.0 
294.972565 156.0 
295.153503 2124.0 
295.332062 20.0 
295.507385 40.0 
295.599152 32.0 
295.733429 32.0 
295.97876 52.0 
296.138 1580.0 
296.261505 100.0 
296.417572 44.0 
296.536285 44.0 
296.702972 44.0 
296.862213 56.0 
297.000885 32.0 
297.140717 2484.0 
297.241241 44.0 
297.340149 104.0 
297.549042 32.0 
297.671844 48.0 
298.027252 44.0 
298.147888 1248.0 
298.24707 36.0 
298.290924 28.0 
298.525146 48.0 
298.616577 28.0 
298.881012 48.0 
299.000854 64.0 
299.147583 2448.0 
299.4552 28.0 
299.670074 72.0 
299.795441 92.0 
299.999817 104.0 
300.141846 1704.0 
300.345459 44.0 
300.47644 84.0 
300.624725 28.0 
300.741577 56.0 
300.893372 64.0 
301.168274 5648.0 
301.356842 40.0 
301.491089 40.0 
301.675629 44.0 
301.769348 64.0 
301.875488 92.0 
302.160919 3320.0 
302.338287 116.0 
302.412323 64.0 
302.521667 44.0 
302.657257 68.0 
302.81015 32.0 
302.901917 80.0 
302.995239 68.0 
303.149536 1904.0 
303.383057 84.0 
303.559021 52.0 
303.731506 56.0 
303.991364 84.0 
304.160492 1068.0 
304.327545 40.0 
304.485596 44.0 
304.790802 40.0 
304.900482 40.0 
305.142548 1336.0 
305.362579 32.0 
305.459503 40.0 
305.493103 28.0 
305.860687 40.0 
305.907043 28.0 
305.958221 36.0 
306.156189 300.0 
306.510986 136.0 
306.633759 48.0 
306.711914 24.0 
306.895813 76.0 
306.991058 36.0 
307.152771 172.0 
307.348572 24.0 
307.560913 32.0 
308.0177 172.0 
308.14917 276.0 
308.489502 24.0 
308.89267 112.0 
309.148773 388.0 
309.340973 40.0 
309.554016 32.0 
309.845703 40.0 
309.93335 128.0 
310.150909 308.0 
310.305908 32.0 
310.743988 20.0 
311.002472 28.0 
311.15387 2252.0 
311.338318 96.0 
311.609802 24.0 
311.688599 44.0 
312.026306 44.0 
312.16037 1116.0 
312.546356 64.0 
312.66394 40.0 
312.856873 28.0 
313.037872 80.0 
313.168304 2032.0 
313.439606 36.0 
313.645325 80.0 
313.794556 44.0 
313.905212 52.0 
313.971649 64.0 
314.151123 2320.0 
314.498108 88.0 
314.591309 36.0 
314.77655 84.0 
314.977722 36.0 
315.156372 5600.0 
315.350372 32.0 
315.537231 60.0 
315.65921 68.0 
315.768494 56.0 
316.158142 1348.0 
316.350128 128.0 
316.571136 48.0 
316.696594 52.0 
316.94928 72.0 
317.16449 3020.0 
317.302521 52.0 
317.449524 32.0 
317.721436 48.0 
317.818024 32.0 
317.968933 84.0 
318.144501 4364.0 
318.362305 32.0 
318.384399 44.0 
318.611877 64.0 
318.686218 56.0 
318.804932 36.0 
318.950989 40.0 
319.148529 3312.0 
319.270508 24.0 
319.41098 28.0 
319.610382 104.0 
319.688995 40.0 
319.912445 68.0 
320.15451 772.0 
320.679047 40.0 
320.877747 60.0 
321.085083 184.0 
321.157501 336.0 
321.423889 40.0 
321.522064 32.0 
321.862488 36.0 
321.967987 60.0 
322.139557 80.0 
322.225647 160.0 
322.372803 52.0 
322.494324 48.0 
322.60672 88.0 
322.991058 64.0 
323.158356 248.0 
323.296143 40.0 
323.410767 28.0 
323.697418 48.0 
324.179016 240.0 
324.558136 28.0 
324.707458 32.0 
325.170074 1224.0 
325.713287 28.0 
325.788086 72.0 
326.04126 64.0 
326.163879 680.0 
326.490295 48.0 
326.593964 20.0 
326.679657 36.0 
326.985748 64.0 
327.155029 444.0 
327.354706 40.0 
327.573883 32.0 
327.810883 28.0 
327.91626 48.0 
328.022552 32.0 
328.158875 948.0 
328.510498 32.0 
328.750275 32.0 
328.907135 36.0 
329.009888 60.0 
329.169525 5796.0 
329.37616 28.0 
329.508392 32.0 
329.619141 36.0 
329.725616 80.0 
329.850647 32.0 
329.989563 60.0 
330.176361 2040.0 
330.447113 32.0 
330.55722 36.0 
330.962982 52.0 
331.180481 2440.0 
331.438599 24.0 
331.552094 40.0 
331.752014 24.0 
332.019104 24.0 
332.170624 496.0 
332.585602 32.0 
333.016998 52.0 
333.168732 1508.0 
333.40274 52.0 
333.675507 28.0 
333.782043 44.0 
333.901093 60.0 
334.172668 440.0 
334.337646 60.0 
334.451111 40.0 
334.609955 40.0 
334.750732 132.0 
335.158234 408.0 
335.288971 116.0 
335.638916 40.0 
335.851471 40.0 
336.136047 128.0 
336.915375 128.0 
337.133972 100.0 
337.395264 32.0 
337.922363 52.0 
338.05127 32.0 
338.183289 152.0 
338.766602 24.0 
338.954346 36.0 
339.177338 416.0 
340.188171 588.0 
340.352325 28.0 
340.764069 28.0 
340.858856 72.0 
341.195343 720.0 
341.39978 20.0 
341.562714 48.0 
341.682495 24.0 
341.823914 36.0 
341.945007 88.0 
342.181152 1108.0 
342.44574 96.0 
342.590393 28.0 
342.720184 72.0 
343.020813 36.0 
343.181366 2252.0 
343.407349 36.0 
343.558563 28.0 
343.840912 40.0 
343.976532 44.0 
344.184448 940.0 
344.421631 32.0 
344.536987 32.0 
344.667725 40.0 
345.013367 24.0 
345.175781 428.0 
345.500214 40.0 
345.664886 28.0 
345.773743 132.0 
345.874695 40.0 
346.188965 884.0 
346.613647 36.0 
346.874786 44.0 
347.07666 16.0 
347.188263 200.0 
347.625793 108.0 
347.925079 60.0 
348.188873 48.0 
349.181824 56.0 
349.992279 40.0 
350.188324 232.0 
350.362061 48.0 
350.887238 24.0 
351.19165 156.0 
352.788361 104.0 
353.172028 536.0 
353.459167 48.0 
353.878754 44.0 
354.058655 24.0 
354.205688 232.0 
354.5896 112.0 
354.706635 36.0 
355.030853 128.0 
355.217865 1000.0 
355.487427 56.0 
355.787964 52.0 
356.218903 384.0 
356.822754 48.0 
357.2005 1636.0 
357.383301 120.0 
357.581726 32.0 
357.792908 140.0 
358.030273 40.0 
358.203552 1264.0 
358.591553 56.0 
358.997131 92.0 
359.205322 1036.0 
359.404205 36.0 
359.600281 36.0 
360.199554 188.0 
360.371643 32.0 
360.795288 20.0 
360.916382 28.0 
361.20343 384.0 
361.449402 60.0 
361.631226 44.0 
362.216248 116.0 
362.650208 28.0 
363.222198 80.0 
363.354614 56.0 
363.437256 40.0 
364.219696 104.0 
364.753296 120.0 
365.050201 52.0 
365.21579 344.0 
365.532867 40.0 
366.195465 264.0 
366.532898 56.0 
367.171753 108.0 
367.925476 144.0 
368.189941 620.0 
368.409851 48.0 
368.488129 148.0 
369.016876 148.0 
369.194458 168.0 
369.565735 32.0 
370.189392 64.0 
371.025421 16.0 
371.184113 744.0 
371.632782 36.0 
371.836273 24.0 
371.934601 20.0 
372.212891 436.0 
372.463409 44.0 
372.598755 20.0 
372.795654 140.0 
372.93103 24.0 
373.055939 28.0 
373.225586 3016.0 
373.576355 36.0 
373.682343 56.0 
373.835114 36.0 
374.22229 1068.0 
374.434387 36.0 
374.619415 40.0 
375.100739 128.0 
375.24646 156.0 
375.373749 36.0 
375.811432 52.0 
376.212677 76.0 
376.447632 20.0 
377.251984 48.0 
377.809326 100.0 
378.50351 176.0 
379.37439 152.0 
379.608063 72.0 
379.915802 124.0 
380.692444 120.0 
381.202789 148.0 
381.772156 44.0 
381.971466 92.0 
382.183289 32.0 
382.873962 20.0 
383.090424 96.0 
383.213684 2412.0 
383.6427 68.0 
383.767578 28.0 
383.942413 56.0 
384.212097 612.0 
384.542206 24.0 
384.679718 28.0 
384.767242 96.0 
384.894318 172.0 
385.202057 72.0 
385.380157 20.0 
385.487793 40.0 
385.705597 96.0 
386.028015 32.0 
386.20163 2564.0 
386.406982 24.0 
386.699188 88.0 
386.996124 20.0 
387.210358 892.0 
387.623383 36.0 
387.758453 64.0 
388.087891 72.0 
389.113464 32.0 
390.011566 112.0 
390.213013 24.0 
390.679077 28.0 
390.99411 128.0 
391.473236 32.0 
391.940033 28.0 
392.186768 88.0 
393.405304 36.0 
395.101349 64.0 
395.291412 36.0 
395.938049 36.0 
396.856873 120.0 
397.245575 40.0 
397.842926 32.0 
398.084564 36.0 
398.867126 40.0 
398.973511 32.0 
399.095795 160.0 
399.201385 148.0 
399.442352 24.0 
399.664581 36.0 
399.790649 48.0 
400.103607 80.0 
400.206665 144.0 
400.300629 24.0 
400.389923 160.0 
400.504028 144.0 
400.643707 76.0 
400.756409 132.0 
401.022278 196.0 
401.227539 49144.0 
401.595032 80.0 
401.645966 128.0 
401.694427 164.0 
401.810913 148.0 
401.843384 52.0 
401.954987 80.0 
402.227173 15088.0 
402.392334 96.0 
402.491577 84.0 
402.664307 100.0 
402.859924 80.0 
403.081909 40.0 
403.231445 1828.0 
403.477264 48.0 
403.654083 40.0 
404.002686 120.0 
404.11026 48.0 
404.258148 104.0 
404.42749 16.0 
404.489075 36.0 
404.712769 52.0 
404.811096 48.0 
404.943604 40.0 
405.390839 28.0 
405.687958 84.0 
405.777832 36.0 
406.201691 52.0 
406.522949 104.0 
406.715759 28.0 
407.140076 28.0 
407.358765 36.0 
407.53891 48.0 
407.744843 52.0 
408.646362 28.0 
408.749451 64.0 
409.161957 144.0 
409.252228 104.0 
409.742401 36.0 
409.845642 36.0 
410.710724 68.0 
411.279327 32.0 
411.576721 48.0 
412.003601 72.0 
412.517609 112.0 
412.676697 32.0 
413.246643 48.0 
414.141266 32.0 
414.400757 28.0 
414.76416 124.0 
414.932953 44.0 
415.218658 28.0 
415.859711 48.0 
416.024384 44.0 
416.141418 36.0 
416.451172 44.0 
416.953217 40.0 
417.338593 20.0 
417.768463 36.0 
417.937836 32.0 
418.35498 56.0 
418.563599 48.0 
418.97171 60.0 
419.234741 1764.0 
419.703888 60.0 
419.88916 64.0 
420.237946 592.0 
420.40448 20.0 
420.962006 44.0 
421.234253 100.0 
422.170776 44.0 
422.891449 80.0 
423.717712 96.0 
424.439697 48.0 
425.819733 152.0 
426.043396 24.0 
426.319733 96.0 
426.451355 140.0 
426.556671 152.0 
426.964905 32.0 
427.29425 16.0 
427.70285 20.0 
428.217133 120.0 
431.52121 28.0 
432.435394 160.0 
433.111694 104.0 
434.678528 120.0 
436.061798 64.0 
436.581085 120.0 
437.034058 68.0 
438.487793 144.0 
440.010834 92.0 
440.612732 128.0 
443.709076 136.0 
443.950806 56.0 
444.246338 76.0 
444.757019 100.0 
447.382324 88.0 
447.759949 40.0 
447.921814 92.0 
449.528687 100.0 
449.8396 108.0 
450.461731 132.0 
452.14093 76.0 
457.510773 120.0 
459.585602 72.0 
461.952789 32.0 
462.528412 40.0 
462.79776 124.0 
464.765717 84.0 
466.953308 28.0 
468.773346 44.0 
469.436066 56.0 
470.491394 120.0 
479.111877 100.0 
484.288361 140.0 
484.526855 24.0 
485.312927 56.0 
485.748352 100.0 
485.945068 92.0 
487.323151 88.0 
489.97226 104.0 
491.2854 128.0 
497.25174 76.0 
497.536072 116.0 
498.31839 232.0 
498.574554 112.0 
500.412354 160.0 
503.325562 28.0 
505.086151 52.0 
505.931732 128.0 
506.505432 104.0 
509.047913 164.0 
509.364349 124.0 
511.351654 72.0 
512.491028 68.0 
517.365723 76.0 
520.575073 52.0 
521.928528 156.0 
526.101868 172.0 
526.716125 48.0 
527.726074 100.0 
527.94574 124.0 
529.587463 36.0 
531.334534 108.0 
534.631042 88.0 
536.371704 104.0 
537.804688 44.0 
538.514465 84.0 
543.392212 88.0 
543.540833 88.0 
543.838135 52.0 
544.923828 68.0 
546.114929 100.0 
549.098328 52.0 
555.119507 88.0 
557.344543 60.0 
560.282959 80.0 
561.26416 112.0 
561.430298 208.0 
564.046326 72.0 
566.031311 56.0 
566.243652 100.0 
571.468689 96.0 
578.259705 48.0 
579.118408 60.0 
596.691528 48.0 
598.873474 132.0 
605.364868 116.0 
606.227783 40.0 
607.75116 108.0 
610.520142 112.0 
611.134521 88.0 
614.558899 136.0 
615.286072 104.0 
622.9151 80.0 
624.284119 44.0 
624.45929 36.0 
625.319824 52.0 
626.085144 140.0 
628.943481 152.0 
636.238403 100.0 
637.638 84.0 
638.040466 60.0 
639.248657 156.0 
640.006409 84.0 
640.312866 128.0 
650.206421 72.0 
652.581726 108.0 
654.35791 44.0 
657.525146 92.0 
660.110291 84.0 
662.831787 84.0 
666.068848 128.0 
674.502075 120.0 
676.29895 120.0 
678.481262 88.0 
678.780151 128.0 
681.972595 68.0 
682.405457 40.0 
685.439514 216.0 
692.433289 120.0 
699.36145 92.0 
702.095032 108.0 
702.500488 156.0 
709.173096 100.0 
715.007629 68.0 
719.12146 156.0 
721.636475 84.0 
727.0578 128.0 
736.663208 24.0 
738.169189 64.0 
740.040833 136.0 
743.374084 88.0 
745.35675 20.0 
745.965942 76.0 
750.115356 96.0 
761.682373 28.0 
765.73407 76.0 
776.443176 104.0 
778.505005 88.0 
782.70813 32.0 
785.349792 136.0 
787.763306 48.0 
792.027222 128.0 
792.511658 112.0 
793.445068 32.0 
794.145508 64.0 
808.67218 48.0 
816.394653 112.0 
822.67218 132.0 
825.215576 64.0 
832.299072 96.0 
861.085449 36.0 
864.343262 36.0 
871.347778 84.0 
876.56781 40.0 
885.498474 44.0 
891.046021 52.0 
891.845398 40.0 
915.954407 36.0 
929.233276 88.0 
934.178955 84.0 
971.504395 48.0 
979.448181 92.0 
987.644653 96.0 
991.856079 132.0 
1028.485107 68.0 
1041.507446 84.0 
1060.14624 68.0 
1064.966919 52.0 
1165.439697 72.0 
END IONS

