BEGIN IONS
PEPMASS=319.119
CHARGE=1+
COMPOUNDNAME=MYCOPHENOLIC ACID
LIBRARYQUALITY=3
SMILES=N/A
INCHIKEY=HPNSFSBZBAHARI-RUDMXATFSA-N
INCHI=InChI=1S/C17H20O6/c1-9(5-7-13(18)19)4-6-11-15(20)14-12(8-23-17(14)21)10(2)16(11)22-3/h4,20H,5-8H2,1-3H3,(H,18,19)/b9-4+
MSLEVEL=2
SOURCE_INSTRUMENT=N/A-ESI-QFT
FILENAME=library_mgf.mgf
SEQ=*..*
IONMODE=negative
ORGANISM=MONA
NAME=MYCOPHENOLIC ACID [M-H]-
PI=MoNA
DATACOLLECTOR=MoNA:VF-NPL-QEHF011294
PUBMED=N/A
SUBMITUSER=mwang87
TAGS=
SPECTRUMID=CCMSLIB00004702357
SCANS=11294
50.136509 0.047731 
50.842777 0.051025 
50.914913 0.043423 
51.52813 0.048367 
51.660992 0.058079 
51.742233 0.059849 
52.19746 0.055165 
52.472454 0.059411 
54.161282 0.04809 
54.18399 0.068924 
54.279999 0.033106 
54.349857 0.046483 
54.353065 0.039006 
54.568657 0.045701 
54.594563 0.048055 
54.633827 0.045431 
54.663586 0.053351 
55.017612 0.053872 
55.651814 0.033632 
55.662987 0.047925 
55.820778 0.053336 
56.810444 0.055765 
57.673599 0.052954 
58.16021 0.040724 
58.377773 0.033352 
59.012432 0.882167 
59.323967 0.053612 
60.098206 0.056436 
60.588848 0.039811 
60.907551 0.053712 
60.986176 0.055156 
62.393356 0.044851 
63.521019 0.050925 
63.794441 0.049446 
64.219749 0.048456 
64.381409 0.035446 
66.736664 0.049695 
66.845924 0.047373 
66.983299 0.057623 
69.72747 0.056666 
69.834251 0.049317 
70.875549 0.046758 
71.713417 0.064818 
71.808182 0.050007 
72.757004 0.053602 
73.028076 1.628677 
73.236626 0.051291 
73.584572 0.057704 
73.886581 0.050062 
74.289612 0.047747 
74.704903 0.048687 
74.844406 0.049148 
74.864189 0.047906 
75.717102 0.061716 
75.766129 0.050004 
75.860321 0.052703 
76.688255 0.050694 
76.852165 0.047384 
76.954025 0.049335 
77.856621 0.050833 
80.872581 0.044536 
81.033211 0.062284 
81.215729 0.051895 
83.464996 0.063625 
84.241814 0.051111 
84.500511 0.047892 
84.678375 0.053457 
85.405205 0.04871 
86.298515 0.052432 
86.820007 0.049795 
88.487503 0.045185 
88.822701 0.049659 
88.896446 0.054751 
89.16938 0.050512 
89.728798 0.057912 
89.814018 0.047815 
89.980034 0.04631 
90.258263 0.052831 
90.452629 0.052696 
90.846344 0.047165 
91.053947 0.106976 
91.115974 0.045971 
91.186707 0.052619 
91.968124 0.047498 
92.277657 0.061482 
93.033134 0.062946 
95.048889 6.020915 
96.451248 0.056124 
96.703903 0.035687 
97.424294 0.035753 
99.253357 0.052409 
99.812309 0.053161 
100.705261 0.050334 
100.722656 0.050778 
100.963295 0.055871 
103.364807 0.055082 
104.003082 0.049968 
104.751022 0.056028 
104.784599 0.055883 
107.048851 1.028237 
107.830399 0.049745 
108.954544 0.060297 
109.264328 0.050518 
110.587852 0.054995 
112.041977 0.05464 
112.198807 0.059995 
112.73967 0.042267 
115.262215 0.049845 
116.194443 0.047034 
118.530975 0.057998 
119.048965 0.17337 
119.343575 0.048327 
121.064674 0.878905 
122.249916 0.036141 
125.56279 0.053602 
130.031815 0.050837 
130.385971 0.043187 
131.583603 0.040195 
132.244659 0.054691 
134.036362 0.13363 
135.043976 3.57267 
137.023376 0.26435 
137.059525 0.185259 
140.541031 0.05963 
141.257904 0.047975 
142.136368 0.035954 
142.396301 0.055599 
143.890106 0.043252 
144.467621 0.060507 
144.76683 0.054436 
147.044174 0.67898 
148.051956 3.722353 
148.950516 0.053406 
149.05983 1.64037 
149.087646 0.056808 
151.779755 0.063255 
153.545609 0.058162 
157.942398 0.047285 
160.052017 1.74304 
161.059814 3.157486 
161.096222 2.84831 
162.943481 0.063405 
163.039215 0.424308 
164.046844 1.922226 
165.35408 0.054267 
166.062469 0.392293 
167.44632 0.058759 
169.783203 0.055003 
170.385803 0.052788 
170.773865 0.05329 
171.080353 0.06094 
171.116852 0.350563 
173.059799 4.543898 
173.095871 0.057805 
174.068161 0.271014 
174.179779 0.064162 
174.49852 0.069203 
175.039307 0.055622 
175.477936 0.055673 
177.018478 1.402081 
178.026138 1.660221 
179.025208 0.162107 
179.033997 25.622496 
180.03746 1.628607 
183.080673 0.22962 
184.088425 0.185174 
184.135635 0.041643 
185.751343 0.063202 
186.792267 0.052871 
187.075653 2.51026 
187.651459 0.057215 
188.083572 0.786122 
188.426865 0.054769 
189.091431 1.284976 
190.776276 0.046035 
191.034088 100.0 
192.04248 43.373013 
192.056686 0.071911 
192.197372 0.056789 
193.045288 3.917867 
195.423035 0.047704 
197.09642 0.784489 
197.296112 0.047724 
197.644775 0.047987 
198.050903 0.058245 
198.152054 0.053565 
199.111908 4.724374 
200.083359 0.295306 
200.11557 0.195887 
201.091263 3.577944 
201.711731 0.055105 
202.094894 0.076215 
203.034317 8.230145 
204.041473 0.634368 
205.049866 43.665199 
206.053116 4.733507 
207.065491 8.977047 
208.069366 0.241889 
209.812225 0.05139 
210.035797 0.052097 
215.054306 1.59365 
215.060928 1.995291 
215.10701 7.223324 
216.111008 0.531474 
217.086899 0.103415 
219.143311 0.049488 
224.032013 2.861358 
224.896652 0.052489 
225.035156 0.065922 
225.091583 1.171383 
226.094009 0.055922 
227.071243 0.495339 
228.077896 0.275295 
231.065994 4.334898 
231.628616 0.048155 
232.073166 0.885544 
233.081741 5.360932 
234.085144 0.203742 
236.550613 0.043042 
237.226288 0.049892 
238.278824 0.053665 
241.086685 0.513659 
242.094345 0.056621 
243.065948 1.562956 
243.102539 5.707157 
244.105606 0.26394 
244.438705 0.05009 
245.081543 12.504627 
246.085068 1.275359 
247.096893 0.208699 
247.132675 0.052994 
247.697876 0.060913 
256.094879 0.058346 
257.081024 0.071269 
259.097382 1.23722 
269.081757 4.120117 
269.619324 0.058028 
275.128906 11.464771 
275.788879 0.059013 
276.132416 1.275256 
279.722321 0.054645 
285.076691 0.661462 
285.231049 0.057153 
286.080383 0.053474 
287.092285 9.000621 
288.096008 0.91956 
293.166046 0.0515 
296.145721 0.055439 
301.108093 0.071676 
304.207672 0.053286 
319.118317 10.731332 
319.791656 0.052723 
320.121979 1.406936 
323.411469 0.055192 
336.244202 0.051209 
342.65567 0.053203 
END IONS

