BEGIN IONS
PEPMASS=172.097
CHARGE=1+
COMPOUNDNAME=terrein
LIBRARYQUALITY=3
SMILES=N/A
INCHIKEY=MHOOPNKRBMHHEC-HZIBQTDNSA-N
INCHI=InChI=1S/C8H10O3/c1-2-3-5-4-6(9)8(11)7(5)10/h2-4,7-8,10-11H,1H3/b3-2+/t7-,8-/m0/s1
MSLEVEL=2
SOURCE_INSTRUMENT=N/A-ESI-QFT
FILENAME=library_mgf.mgf
SEQ=*..*
IONMODE=positive
ORGANISM=MONA
NAME=terrein [M+NH4]+
PI=MoNA
DATACOLLECTOR=MoNA:VF-NPL-QEHF021232
PUBMED=N/A
SUBMITUSER=mwang87
TAGS=
SPECTRUMID=CCMSLIB00004712295
SCANS=21232
50.413795 0.004412 
50.418388 0.004558 
50.535107 0.005189 
50.722729 0.009972 
50.849167 0.006057 
51.078484 0.005498 
51.192383 0.006778 
51.297619 0.005551 
51.304287 0.003966 
51.788284 0.004461 
51.87252 0.004821 
52.073502 0.005507 
52.326996 0.006878 
52.33532 0.008866 
52.991722 0.009281 
53.038952 0.010007 
53.341785 0.004514 
53.487656 0.005617 
54.105675 0.008982 
54.13435 0.004741 
55.054501 0.500873 
55.138596 0.004918 
55.364349 0.005382 
55.396049 0.013197 
55.515621 0.007973 
55.824196 0.005519 
55.833839 0.00619 
56.04974 0.063026 
56.270466 0.006333 
56.320591 0.008421 
56.354794 0.006106 
56.40987 0.008437 
56.428135 0.004628 
56.561718 0.005022 
56.706284 0.005195 
56.715736 0.005951 
56.965012 0.123979 
57.033779 0.032283 
57.070141 0.91344 
57.533825 0.005571 
57.790199 0.005129 
57.935062 0.013039 
58.065372 0.482811 
58.193565 0.008539 
58.377541 0.007827 
58.515217 0.008441 
58.5322 0.008852 
58.714615 0.006469 
58.960621 0.011522 
59.049358 0.115178 
59.111191 0.004565 
59.433331 0.010943 
59.819237 0.010002 
59.930492 0.046128 
59.990433 0.068852 
60.044559 0.059538 
60.263771 0.006154 
60.392944 0.009956 
60.554806 0.009088 
61.010868 1.358828 
61.03981 0.022579 
61.512787 0.010595 
61.854359 0.00516 
61.927982 0.081883 
62.018688 1.232688 
62.066135 0.010972 
62.892078 0.004668 
62.929146 0.028812 
62.989979 0.009298 
62.992649 0.01042 
63.006588 0.010632 
63.224121 0.005501 
63.424751 0.005313 
63.650936 0.004854 
63.878822 0.00468 
63.997715 0.007847 
64.507378 0.005217 
64.665321 0.004657 
64.677322 0.004736 
65.961823 0.005121 
66.785995 0.005229 
67.054329 1.228933 
67.160774 0.004537 
67.469048 0.010405 
67.479507 0.010843 
68.057587 0.02035 
68.769012 0.005346 
69.033516 0.082492 
69.069923 0.303838 
69.544022 0.005037 
69.651054 0.004415 
69.862915 0.005359 
70.063087 0.009086 
70.065186 2.426987 
70.883476 0.010587 
71.012749 0.009919 
71.049133 0.139299 
71.068504 0.006843 
71.316391 0.004438 
71.328789 0.005015 
72.044395 1.446003 
72.08078 0.188001 
72.551537 0.005997 
73.035538 0.004879 
73.047684 0.006533 
73.473381 0.00473 
73.955559 0.010862 
74.060066 0.029335 
74.096191 0.005877 
76.525101 0.010555 
76.721725 0.006171 
76.927864 0.010807 
76.979256 0.007551 
78.013359 0.134623 
78.963783 0.005034 
79.02121 2.246988 
79.054237 0.516255 
79.304977 0.006381 
79.392014 0.010563 
79.796883 0.005707 
80.945099 0.050849 
80.998688 0.00543 
81.017036 0.0328 
81.033516 0.139457 
81.067345 0.085825 
81.069893 3.452319 
81.072647 0.011531 
81.363632 0.00556 
81.768959 0.007454 
81.978157 0.008232 
82.065102 0.206424 
82.073219 0.140721 
82.342926 0.005212 
82.539917 0.011163 
83.049126 0.533819 
83.08551 0.627086 
83.990028 0.005357 
84.044594 0.005364 
84.080765 0.780246 
84.947769 0.005327 
85.025826 0.021391 
85.028412 2.61849 
85.039497 0.007152 
85.064758 0.184268 
85.07605 0.009213 
86.060005 0.176337 
86.096466 0.061328 
87.044029 0.059582 
87.07489 0.012066 
88.494087 0.009383 
89.067978 0.019496 
89.07093 2.461635 
90.074257 0.018432 
90.947746 0.005233 
90.976357 0.011236 
91.05423 1.062198 
91.789589 0.008818 
92.084084 0.005771 
92.460899 0.009225 
92.903641 0.009047 
93.036842 0.011109 
93.059784 0.01381 
93.06987 0.589294 
93.955864 0.024035 
94.065315 0.012256 
94.294533 0.011054 
95.049149 2.601907 
95.060257 0.006542 
95.08551 0.379117 
95.825211 0.005165 
96.052437 0.063894 
96.080528 0.005656 
96.098152 0.005395 
96.517891 0.004456 
96.959641 0.015139 
97.064888 0.031795 
97.101097 0.105862 
97.279366 0.005403 
97.372772 0.009607 
97.948921 0.047991 
98.034576 0.008759 
98.060028 0.022788 
98.096397 0.249964 
98.955055 0.007693 
98.975334 0.007244 
99.099854 0.008761 
99.511024 0.005619 
100.009628 0.04591 
100.075706 0.052847 
100.509911 0.016883 
101.007713 0.091784 
101.503197 0.010429 
101.875046 0.012219 
101.934921 0.006313 
103.023819 0.008211 
103.041718 0.005964 
104.030396 0.006135 
104.303528 0.005895 
104.489136 0.011292 
104.992271 0.01847 
105.045013 0.006049 
105.069794 0.027283 
105.335327 0.009311 
105.524269 0.009772 
106.999901 0.083886 
107.085541 0.201446 
108.016396 0.036492 
108.080688 0.072317 
108.453156 0.005228 
108.493286 0.007771 
108.516899 0.095385 
109.014946 0.903934 
109.064796 2.996214 
109.07605 3.298649 
109.101204 1.993058 
109.335342 0.005743 
109.514793 0.695593 
110.013046 1.226122 
110.016991 0.060179 
110.067932 0.082798 
110.079384 0.087341 
110.083237 0.01018 
110.096375 0.012383 
110.104538 0.088935 
110.125694 0.006266 
110.514626 0.141686 
110.715134 0.01326 
110.948616 0.007102 
111.011063 0.079765 
111.044037 4.795301 
111.08036 0.081437 
111.091988 0.007808 
111.94326 0.009123 
112.047226 0.165796 
112.075745 0.257355 
112.086906 1.081851 
112.111984 0.404095 
113.02327 0.036404 
113.036011 0.012056 
113.059586 0.281318 
113.070686 0.009357 
113.107307 0.137606 
113.988464 0.46725 
114.054947 0.151254 
114.09137 1.176856 
114.970642 0.013691 
115.039337 0.004852 
115.086655 0.060162 
115.969757 0.018748 
116.005188 0.27119 
116.052864 0.045002 
116.07058 0.205215 
116.106911 0.3384 
116.546532 0.007286 
116.966156 1.047031 
116.985886 0.019168 
117.003166 0.011779 
117.02095 0.006895 
117.069794 0.110783 
117.814056 0.004915 
118.001404 0.006186 
118.086296 0.013985 
118.569763 0.019628 
119.049202 0.388961 
119.085472 0.14207 
119.950226 0.006196 
121.899765 0.011485 
122.564316 0.00636 
122.940842 0.275095 
122.993736 0.395671 
122.999199 0.048911 
123.091629 2.960615 
123.482719 0.005141 
123.497467 0.192471 
123.938744 0.014632 
123.998772 0.083573 
124.095001 0.105507 
124.112022 0.014598 
124.495575 0.050923 
124.936325 0.109225 
125.096077 0.060236 
125.233337 0.009004 
125.484947 0.009016 
126.066284 0.026746 
126.091339 0.072816 
126.933662 0.154513 
126.987587 0.00534 
127.035164 0.005012 
127.075485 0.024104 
127.086372 0.027598 
127.575005 0.685026 
127.58342 0.005853 
128.070633 0.039946 
128.076462 0.014902 
128.081833 0.00652 
128.106979 0.018913 
128.708221 0.010333 
128.93367 0.093435 
128.986282 0.031348 
129.102219 3.512411 
129.572388 0.041161 
129.985489 0.031906 
130.105515 0.149463 
130.159058 0.144271 
130.210785 0.006422 
130.302795 0.006269 
130.511765 0.069043 
130.942368 0.006429 
130.962982 0.039008 
130.981903 1.197983 
131.009232 0.144992 
131.085571 1.358536 
131.504562 0.15916 
131.510162 0.153579 
131.953018 0.02362 
132.005035 0.571712 
132.502716 1.176042 
132.958267 0.115557 
132.978577 0.01693 
133.00354 0.817342 
133.500671 0.501152 
133.540329 0.016883 
133.57515 0.036548 
133.583694 0.084166 
134.136383 0.005045 
134.380295 0.009898 
134.582565 0.014445 
134.940552 0.008038 
134.978714 0.011928 
134.996109 0.012284 
135.080612 0.010271 
135.219666 0.005311 
135.572357 0.027191 
136.07579 1.055481 
136.478561 0.021047 
136.580292 2.444755 
137.011673 0.145439 
137.059708 7.662977 
137.082047 0.180678 
137.095978 0.038985 
137.129089 0.005174 
137.927948 0.623817 
138.062973 0.584046 
138.935791 0.316576 
139.016464 0.070479 
139.511566 0.00553 
139.5168 0.489744 
139.923279 0.126646 
140.01445 0.787182 
140.106888 0.012996 
140.51535 0.766122 
140.922989 0.010706 
140.931381 0.018708 
140.951447 0.008267 
141.002136 0.005322 
141.012543 0.338788 
141.572174 0.044604 
141.9207 0.204342 
142.086105 0.007932 
142.122742 0.359494 
142.561874 0.037552 
142.580307 0.487957 
142.588974 0.18395 
142.928131 0.00619 
142.950333 0.106466 
143.002609 0.005636 
143.319565 0.007282 
143.551422 0.138985 
143.560547 0.007753 
143.570267 0.011121 
143.587952 0.073564 
143.920273 0.007362 
143.930115 0.012281 
143.990112 0.246648 
144.00119 0.00594 
144.080643 0.023558 
144.577377 0.033785 
144.587387 0.010006 
144.997513 0.894235 
145.101135 0.180031 
145.585464 1.127986 
146.087189 0.052715 
146.974792 0.02918 
146.994324 0.584224 
147.000275 0.006703 
147.049957 0.007939 
148.580002 0.026538 
148.955811 0.121548 
148.973465 0.123266 
149.262421 0.009703 
150.577499 0.053126 
150.96875 0.217912 
151.585526 0.988002 
152.087341 0.055818 
152.567551 0.006115 
152.593567 0.012266 
152.951355 1.244959 
152.969864 0.006036 
152.988922 0.022611 
153.102188 3.166828 
153.582809 0.025158 
154.086243 1.022239 
154.105865 0.131477 
154.122604 0.629844 
154.946808 0.380226 
155.001831 0.005271 
155.022476 0.017945 
155.070129 3.909008 
155.081345 0.068481 
155.089325 0.016206 
155.106445 0.154459 
155.117798 0.012576 
155.893967 0.277386 
155.95462 0.106518 
156.073807 0.233811 
156.113068 0.420125 
156.138245 0.076019 
156.891998 0.015196 
156.945084 0.974213 
156.954956 0.465112 
156.974655 0.02502 
156.98909 0.008508 
156.997391 0.54872 
157.017685 0.650253 
157.576553 0.155658 
157.585007 0.016192 
157.890259 0.13287 
157.952057 2.200104 
158.0168 0.665924 
158.593048 0.006834 
158.942383 0.233909 
158.953415 2.090387 
158.959869 0.12915 
158.9767 0.02456 
159.013016 6.88767 
159.095047 0.009351 
159.951706 0.268675 
159.983154 0.009358 
160.013046 0.173409 
160.590851 0.390191 
160.939026 0.0136 
160.951538 0.306428 
162.095535 0.005121 
163.027359 0.006298 
163.584961 0.056464 
164.977341 0.01094 
166.581863 0.245217 
166.966202 0.11119 
167.08316 0.007589 
169.918015 0.029548 
170.081512 0.199809 
170.096176 0.014204 
170.117569 0.20614 
170.128723 0.196534 
170.153793 0.22868 
170.917603 0.937383 
170.961838 0.679347 
171.062851 0.025189 
171.099915 0.006457 
171.112762 12.642793 
171.149078 3.544461 
171.914963 0.108923 
172.075607 0.031249 
172.096741 10.315561 
172.116028 1.03453 
172.133118 0.720909 
172.141068 0.013964 
172.152481 0.270086 
172.161438 0.007677 
172.169479 2.613263 
172.178543 0.017131 
172.206009 0.320756 
172.582306 0.008343 
172.590363 0.050144 
172.913574 0.619951 
172.957397 0.152866 
173.028763 0.034612 
173.078369 100.0 
173.100128 0.170686 
173.117035 0.309197 
173.132339 2.804298 
173.139832 0.46712 
173.146835 0.00686 
173.164932 0.157776 
173.172714 0.163091 
173.904617 0.771956 
174.081711 3.651824 
174.090347 0.143643 
174.112289 0.158426 
174.127701 0.553167 
174.135559 0.102742 
174.148911 0.892526 
174.185104 0.041511 
174.902328 0.296314 
174.954544 0.360247 
174.985352 0.026199 
175.007858 0.17232 
175.900772 0.52335 
176.899353 0.024663 
181.586975 0.013346 
187.920074 0.006327 
187.944855 0.031349 
188.928223 1.767839 
188.943619 0.480608 
189.005402 0.017786 
189.926041 0.933578 
189.941574 1.322872 
190.60849 0.012738 
190.924057 1.310228 
190.966354 0.112046 
191.914612 0.04877 
191.923065 0.19437 
191.941498 0.093032 
192.912811 0.031702 
193.570175 0.01068 
193.911682 0.015371 
END IONS

