BEGIN IONS
PEPMASS=412.14
CHARGE=1+
COMPOUNDNAME=(S,R)-Nosapine
LIBRARYQUALITY=3
SMILES=N/A
INCHIKEY=AKNNEGZIBPJZJG-MSOLQXFVSA-N
INCHI=InChI=1S/C22H23NO7/c1-23-8-7-11-9-14-20(29-10-28-14)21(27-4)15(11)17(23)18-12-5-6-13(25-2)19(26-3)16(12)22(24)30-18/h5-6,9,17-18H,7-8,10H2,1-4H3/t17-,18+/m1/s1
MSLEVEL=2
SOURCE_INSTRUMENT=N/A-ESI-QFT
FILENAME=library_mgf.mgf
SEQ=*..*
IONMODE=negative
ORGANISM=MONA
NAME=(S,R)-Nosapine [M-H]-
PI=MoNA
DATACOLLECTOR=MoNA:VF-NPL-QEHF000045
PUBMED=N/A
SUBMITUSER=mwang87
TAGS=
SPECTRUMID=CCMSLIB00004691108
SCANS=45
50.891529 0.062017 
52.047012 0.049496 
55.751431 0.04814 
55.852993 0.081849 
56.370823 0.043075 
56.815872 0.052594 
57.033199 2.273222 
57.796875 0.098239 
59.012466 34.352463 
59.266609 0.067412 
60.015759 0.244349 
60.309361 0.057624 
60.449066 0.067531 
60.488232 0.060762 
61.073624 0.093165 
61.720104 0.050737 
61.97818 0.093181 
61.98698 59.431828 
63.256355 0.040861 
63.961082 14.428889 
63.991241 0.257015 
64.623901 0.051505 
64.862114 0.100904 
64.930824 0.059125 
65.746696 0.058489 
65.956841 0.40871 
68.048569 0.088301 
68.43187 0.057141 
69.033165 0.65564 
70.370178 0.059086 
71.012436 1.43363 
71.049026 0.091252 
72.991737 0.906527 
73.028076 0.700745 
73.152924 0.078701 
73.638496 0.086527 
74.023392 6.51325 
75.007454 0.213165 
75.758369 0.081761 
76.083099 0.081294 
76.849159 0.048511 
77.168007 0.086478 
78.984581 24.985062 
79.463715 0.102103 
79.956017 9.181225 
80.01487 0.067408 
80.963837 2.543999 
80.980316 0.956142 
81.005714 0.106058 
81.03318 1.515821 
81.95192 0.066859 
82.959541 0.116276 
83.048866 4.936824 
85.028259 0.220654 
85.440697 0.063619 
86.023682 0.104378 
87.00737 3.011995 
87.043793 0.279327 
88.039085 0.061669 
89.023064 6.45255 
89.492935 0.069409 
89.924362 0.364807 
90.932159 0.519927 
90.969894 0.06358 
91.053566 0.057924 
91.206757 0.048719 
91.919777 0.056053 
92.926811 0.776686 
94.923691 0.169904 
94.979507 24.335989 
95.048744 0.203615 
95.484558 0.055876 
95.950989 1.424145 
96.958748 43.804745 
96.975304 0.182794 
97.028099 0.069608 
97.064514 1.762334 
97.36396 0.063107 
97.929985 0.191425 
98.954544 2.159665 
99.0075 0.917851 
99.043777 1.059296 
99.924438 28.374207 
100.924576 2.682528 
100.932259 0.833219 
101.023109 0.222409 
101.059647 0.170633 
101.213112 0.043545 
101.922874 0.263728 
102.292572 0.093969 
103.918831 0.197968 
104.033997 1.360975 
104.266418 0.106922 
104.364967 0.060516 
106.091797 0.061413 
106.916817 0.044537 
106.9272 0.089071 
107.120628 0.045119 
108.898315 0.088908 
109.064133 0.062497 
110.956657 0.123236 
110.974365 0.344838 
111.043732 0.352964 
111.080353 0.343373 
113.059525 0.243206 
113.879539 0.118214 
114.947807 0.104311 
115.019379 0.172578 
115.075157 0.073278 
115.749168 0.063204 
115.919395 5.452217 
116.919724 0.365053 
116.927223 7.77457 
116.938591 0.177896 
117.401306 0.106091 
117.927376 0.140645 
119.945724 0.53779 
121.028244 2.788097 
122.809631 0.116402 
122.974464 1.053633 
123.043831 0.13136 
123.080444 0.07632 
123.761261 0.064639 
123.909729 0.05862 
124.89328 0.052986 
125.095963 2.032581 
125.426872 0.062303 
125.871521 0.097247 
127.11161 12.007783 
127.872475 12.255114 
128.033997 1.569268 
128.114853 0.246521 
128.25148 0.068858 
128.870255 1.642796 
128.87674 0.591301 
129.002777 0.056606 
129.054611 0.079321 
129.869064 10.512631 
130.867569 0.210825 
130.942947 0.276382 
131.865143 0.127038 
132.980728 0.114406 
134.893341 0.080964 
135.043823 0.344644 
135.211761 0.05291 
135.865616 0.070452 
136.280685 0.04871 
136.319962 0.06233 
139.111206 0.106958 
141.016418 0.104195 
141.091049 0.444219 
143.070312 0.064231 
143.825958 0.055665 
143.893448 0.054084 
145.122131 0.270429 
146.360306 0.086998 
146.817596 0.080479 
147.147552 0.085818 
149.00824 1.531226 
151.039108 0.063824 
151.067398 0.075812 
151.075577 0.185948 
152.916611 0.063351 
152.939117 0.074829 
155.106689 6.764349 
156.110001 0.225133 
156.756638 0.109737 
156.893799 0.071663 
157.122116 0.306611 
158.938171 0.468954 
159.859055 0.057213 
159.893372 0.077475 
160.975494 0.066359 
163.002579 3.381458 
163.111969 0.832075 
164.236313 0.061282 
166.664261 0.07142 
166.909668 0.317523 
167.031982 0.07658 
167.903259 0.059102 
168.909592 0.062182 
170.003174 0.314145 
170.117691 0.072958 
171.013962 0.188558 
171.101685 3.25422 
171.13739 0.108997 
171.982849 0.457941 
172.104645 0.072232 
173.117249 57.11451 
173.943512 2.015121 
174.120651 5.683191 
174.933975 0.057493 
174.991608 1.281576 
175.122269 0.285231 
175.92305 0.687889 
176.90036 0.088133 
177.901917 0.209658 
177.91153 0.083635 
178.910095 0.082016 
181.085205 0.228902 
181.158691 0.291703 
183.01123 17.115751 
183.019287 0.411534 
184.00087 0.696029 
184.014938 1.037454 
184.017517 0.86889 
184.831955 0.09898 
184.975845 0.067712 
185.007156 1.219522 
185.022552 0.071984 
186.112839 0.29168 
186.991547 0.451189 
187.134262 0.067824 
188.984772 0.152365 
189.978668 0.445593 
190.851044 0.122526 
190.946671 0.159701 
192.018082 0.076525 
193.083603 0.605361 
197.026871 5.26945 
198.033997 0.993057 
198.65094 0.06545 
205.002121 0.273449 
205.037354 0.267017 
207.011597 0.115322 
208.094269 0.590122 
209.078751 3.261946 
209.15358 0.181452 
210.069977 0.114445 
216.009125 0.173298 
217.002441 0.156066 
218.974899 1.566298 
220.147491 0.076192 
220.963638 0.175003 
220.974518 0.576465 
221.153641 0.141813 
224.165741 0.051551 
225.148392 0.306035 
227.201599 0.224674 
230.02475 0.176607 
230.894485 0.276881 
232.022446 0.082096 
235.133728 0.103057 
236.105011 0.058326 
239.074951 0.087369 
241.071289 0.096422 
241.216919 0.618243 
242.175766 0.199638 
245.479385 0.137305 
246.397583 0.072922 
246.936462 0.087358 
246.955704 0.114151 
247.014084 0.066619 
247.062988 0.098375 
247.851089 0.099175 
248.079056 0.079144 
248.582062 0.073916 
249.313705 0.078308 
249.941895 0.087509 
253.089676 0.30325 
253.217422 0.297882 
254.221344 0.058268 
255.232727 100.0 
256.236115 17.81069 
257.238922 1.062525 
258.360168 0.102676 
261.913147 0.40726 
262.05127 0.066881 
262.691681 0.120163 
264.965912 0.075279 
265.148132 0.116043 
267.105438 0.085205 
269.07019 0.218361 
269.248901 0.10771 
269.444153 0.099282 
272.828583 0.099822 
278.046143 0.109625 
279.053101 0.079655 
279.944183 0.076244 
281.249451 0.05707 
282.936737 0.182112 
282.995209 0.13373 
283.264374 1.931724 
284.267456 0.192035 
290.824463 0.054233 
292.024689 0.068085 
292.982025 0.063639 
293.17926 5.797015 
294.18222 0.421984 
294.957367 0.066793 
295.157532 0.070917 
296.953461 0.070088 
306.040619 0.246368 
308.951599 0.601626 
309.154022 0.351291 
309.174072 1.589536 
311.168518 44.366459 
311.294708 0.217907 
312.172058 5.277677 
312.968964 0.098992 
314.903748 0.531022 
321.027435 0.736972 
322.031525 1.47537 
323.043121 0.868502 
324.046509 0.068549 
325.18399 78.236374 
326.187347 63.376247 
327.179718 11.349818 
328.183472 2.457655 
329.085754 0.071632 
332.914001 1.049066 
333.632965 0.071269 
336.166626 0.108343 
337.054413 0.091166 
338.066498 0.485801 
339.070221 0.113021 
339.199463 0.437684 
347.131378 3.5852 
348.134155 0.64885 
349.346375 0.117093 
353.197998 0.383503 
353.216583 0.316104 
355.43927 0.086675 
358.89679 0.104027 
363.363953 0.340302 
365.378601 6.988138 
366.381897 1.675884 
367.181213 0.276378 
367.932373 0.058382 
369.195923 0.207576 
371.212524 0.08901 
382.956116 0.839745 
383.960571 0.054772 
393.337646 0.174761 
393.375641 0.086812 
396.659363 0.107149 
396.972229 0.204222 
402.976288 0.063515 
403.185852 0.069993 
410.266754 0.103515 
410.407654 0.06998 
410.846619 0.056257 
411.094482 0.184644 
411.241455 6.37564 
411.383881 0.781178 
412.246063 1.357088 
412.823761 0.576137 
413.24469 0.07856 
415.399109 0.11828 
439.047272 0.081611 
END IONS

