BEGIN IONS
PEPMASS=924.496
CHARGE=1+
COMPOUNDNAME=MoNA:688742 Nystatin
LIBRARYQUALITY=3
SMILES=N/A
INCHIKEY=VQOXZBDYSJBXMA-NQTDYLQESA-N
INCHI=InChI=1S/C47H75NO17/c1-27-17-15-13-11-9-7-5-6-8-10-12-14-16-18-34(64-46-44(58)41(48)43(57)30(4)63-46)24-38-40(45(59)60)37(54)26-47(61,65-38)25-36(53)35(52)20-19-31(49)21-32(50)22-33(51)23-39(55)62-29(3)28(2)42(27)56/h5-6,8,10-18,27-38,40-44,46,49-54,56-58,61H,7,9,19-26,48H2,1-4H3,(H,59,60)/b6-5+,10-8+,13-11+,14-12+,17-15+,18-16+/t27-,28-,29-,30+,31+,32+,33+,34-,35+,36+,37-,38-,40+,41-,42+,43+,44-,46-,47+/m0/s1
MSLEVEL=2
SOURCE_INSTRUMENT=LC-ESI-QFT-LC-ESI-QFT
FILENAME=output_mgf.mgf
SEQ=*..*
IONMODE=
ORGANISM=MONA
NAME=MoNA:688742 Nystatin [M-H]-
PI=MoNA
DATACOLLECTOR=MoNA
PUBMED=N/A
SUBMITUSER=mwang87
TAGS=
SPECTRUMID=CCMSLIB00000566325
SCANS=3577
65.0396 3.607837 
67.0189 4.128453 
67.0553 2.735139 
69.0346 45.37121 
70.0298 2.195281 
71.0138 34.323686 
72.0091 0.816729 
72.9931 2.172629 
73.0295 6.146613 
74.0247 0.401671 
75.0088 0.123259 
81.0346 3.754819 
83.0502 24.192215 
85.0295 15.441706 
86.0247 6.282534 
87.0088 3.705789 
87.0452 0.863535 
88.0404 29.603436 
91.0553 0.854576 
93.0346 14.827343 
95.0139 0.591129 
95.0503 6.974974 
96.0454 0.143599 
97.0295 4.549982 
97.0659 0.618142 
99.0452 2.107935 
100.0405 0.910877 
102.0562 0.175481 
105.0346 2.759127 
105.071 0.6495 
107.0503 2.022539 
107.0866 1.154346 
109.0296 1.408391 
109.0659 3.052011 
110.0373 0.512356 
111.0452 100.0 
112.0486 0.701849 
113.0609 1.1885 
115.0401 24.37678 
117.0711 0.76145 
119.0503 1.544772 
119.0867 0.735694 
121.0294 1.012337 
121.066 3.495486 
122.0612 0.509649 
123.0452 36.608107 
124.0485 0.46891 
125.0607 1.587567 
127.04 0.726022 
129.071 2.100679 
130.0423 0.483599 
131.0502 6.447826 
131.0714 0.449629 
132.0581 0.558217 
133.066 1.462327 
133.1023 0.556928 
134.0377 0.141187 
135.0453 0.859176 
135.0817 1.462427 
137.0607 10.466153 
138.056 0.772977 
139.0399 0.867681 
139.0765 2.389353 
141.0557 4.149957 
143.0501 0.224476 
143.0865 0.441134 
145.0659 2.198963 
145.1022 0.511506 
146.0612 0.146695 
146.0738 0.10792 
147.0452 1.245587 
147.0815 4.616997 
148.0531 0.664907 
149.0607 8.788348 
150.0687 0.861872 
151.0766 0.583264 
153.0922 0.583373 
155.0865 0.20328 
155.1077 0.177894 
156.0581 0.1083 
157.0657 0.249278 
157.0872 0.295426 
158.0734 0.152329 
159.0457 0.115776 
159.0818 0.376638 
159.118 0.48363 
160.0531 0.182645 
161.0608 0.492654 
161.0972 0.678667 
162.0924 0.425143 
163.0765 8.626264 
165.0556 0.941806 
165.092 5.911444 
167.0711 1.41533 
169.066 0.240416 
169.1022 0.186698 
171.0817 0.63685 
171.118 1.423764 
173.0607 0.707945 
173.097 10.035081 
175.0762 0.254178 
181.0872 0.628044 
181.1024 0.228498 
183.0817 0.183454 
183.1026 0.917716 
184.0894 0.196117 
185.1338 0.634599 
186.1056 0.144429 
187.113 0.177464 
189.092 1.3576 
191.0712 1.440682 
195.1178 0.16108 
197.097 0.556769 
197.1341 0.817222 
198.1051 0.768085 
199.0774 0.199917 
199.1128 3.710095 
207.1019 0.13355 
209.0813 0.770708 
209.0978 0.133249 
211.0765 0.137497 
213.0927 0.175955 
213.1285 0.637581 
215.108 0.253349 
225.1653 0.389497 
227.0925 1.31857 
238.1368 0.172462 
239.1441 3.169053 
239.1807 0.227133 
245.1033 0.634409 
248.1063 0.119983 
257.1914 0.435727 
265.1962 0.595428 
267.1753 1.325759 
285.186 0.807921 
291.1752 0.142746 
291.2124 0.682469 
293.191 2.472951 
307.2069 0.66617 
333.2217 0.970068 
338.212 0.880488 
351.2333 0.20897 
369.244 0.197019 
377.2495 0.71006 
395.2604 0.19643 
437.2711 0.226359 
463.2867 0.160417 
END IONS

