BEGIN IONS
PEPMASS=271.061
CHARGE=1+
COMPOUNDNAME=naringenin
LIBRARYQUALITY=3
SMILES=N/A
INCHIKEY=FTVWIRXFELQLPI-ZDUSSCGKSA-N
INCHI=InChI=1S/C15H12O5/c16-9-3-1-8(2-4-9)13-7-12(19)15-11(18)5-10(17)6-14(15)20-13/h1-6,13,16-18H,7H2/t13-/m0/s1
MSLEVEL=2
SOURCE_INSTRUMENT=N/A-ESI-QFT
FILENAME=library_mgf.mgf
SEQ=*..*
IONMODE=negative
ORGANISM=MONA
NAME=naringenin [M-H]-
PI=MoNA
DATACOLLECTOR=MoNA:VF-NPL-QEHF000566
PUBMED=N/A
SUBMITUSER=mwang87
TAGS=
SPECTRUMID=CCMSLIB00004691629
SCANS=566
51.883823 0.024464 
52.030861 0.024738 
52.527599 0.023176 
52.71479 0.030167 
52.854443 0.024028 
54.064091 0.029566 
54.792301 0.017719 
55.703678 0.031953 
55.731709 0.041033 
55.910774 0.022211 
55.938103 0.023604 
56.399223 0.033735 
56.456947 0.024125 
57.614895 0.025383 
58.6577 0.027166 
58.728935 0.016342 
59.561363 0.031655 
62.279617 0.017029 
63.022648 1.985191 
63.898495 0.018503 
63.959843 0.020367 
65.001923 2.976451 
66.106628 0.014313 
68.210899 0.014175 
70.118446 0.027921 
70.747513 0.023921 
70.944115 0.021955 
71.04805 0.029794 
72.801361 0.019776 
73.714722 0.014518 
75.440666 0.02183 
76.208488 0.025717 
78.888161 0.026805 
80.667343 0.017426 
81.197762 0.020518 
81.232376 0.029897 
82.297073 0.035919 
83.012527 4.165026 
83.264229 0.02774 
84.015846 0.03419 
84.862251 0.037506 
87.51844 0.027002 
87.534035 0.02839 
87.803711 0.040731 
88.351997 0.041133 
88.854561 0.021243 
89.165688 0.020899 
89.721581 0.020786 
91.626183 0.014054 
93.033257 13.294018 
94.036606 0.709346 
98.562225 0.015406 
99.023064 0.016156 
99.271126 0.021932 
99.988731 0.017813 
100.760529 0.029483 
105.200348 0.024237 
106.977333 0.025991 
107.012589 13.883413 
108.01593 0.679365 
109.32914 0.023786 
109.609589 0.013083 
111.843597 0.031487 
113.804878 0.024095 
117.100174 0.026018 
117.160591 0.012461 
119.048996 42.747398 
120.052338 3.303506 
120.401337 0.024843 
121.02829 0.272662 
121.616913 0.023458 
122.756371 0.025696 
125.023193 1.181167 
126.057739 0.028584 
129.898224 0.023834 
133.495697 0.016067 
133.811752 0.016472 
135.383682 0.024866 
139.902557 0.043785 
140.569687 0.01878 
140.930054 0.016622 
140.954849 0.017533 
143.049286 0.060914 
145.028473 1.025164 
146.032669 0.025036 
146.602051 0.02914 
148.527115 0.027794 
148.982346 0.022584 
149.023529 0.01757 
149.456711 0.031966 
150.659134 0.031676 
151.002579 100.0 
151.090637 0.01623 
152.005951 6.61327 
152.351135 0.026345 
153.007416 0.167527 
154.378448 0.040931 
157.0634 0.027343 
160.518906 0.033215 
161.059845 0.08922 
162.512115 0.019704 
162.950592 0.037784 
165.018356 3.764653 
165.303345 0.018154 
166.021439 0.078074 
166.852219 0.026487 
169.013199 1.773917 
171.856644 0.035046 
177.018387 11.768538 
178.022003 1.068831 
181.12822 0.013796 
182.740494 0.024418 
185.059982 0.3218 
186.589813 0.024473 
187.039169 0.272637 
188.077591 0.027565 
196.27742 0.026514 
203.071121 0.018096 
209.676132 0.022739 
216.562393 0.741989 
217.256577 0.028743 
227.070862 1.574181 
228.074905 0.032159 
228.735748 0.023574 
229.050339 0.126229 
231.974884 0.035698 
237.192032 0.033461 
249.109299 0.023176 
251.333817 0.024616 
252.869003 0.028656 
253.050323 0.332133 
255.16481 0.025032 
258.853607 0.039179 
262.689911 0.030643 
271.061249 33.937759 
272.064484 5.539288 
273.06665 0.052324 
286.271606 0.032782 
291.530487 0.033636 
292.796661 0.017848 
END IONS

