BEGIN IONS
PEPMASS=304.095
CHARGE=1+
COMPOUNDNAME=ANISOMYCIN
LIBRARYQUALITY=3
SMILES=N/A
INCHIKEY=YKJYKKNCCRKFSL-BFHYXJOUSA-N
INCHI=InChI=1S/C14H19NO4/c1-9(16)19-14-12(15-8-13(14)17)7-10-3-5-11(18-2)6-4-10/h3-6,12-15,17H,7-8H2,1-2H3/t12-,13+,14+/m0/s1
MSLEVEL=2
SOURCE_INSTRUMENT=N/A-ESI-QFT
FILENAME=library_mgf.mgf
SEQ=*..*
IONMODE=positive
ORGANISM=MONA
NAME=ANISOMYCIN [M+K]+
PI=MoNA
DATACOLLECTOR=MoNA:VF-NPL-QEHF027598
PUBMED=N/A
SUBMITUSER=mwang87
TAGS=
SPECTRUMID=CCMSLIB00004721179
SCANS=27598
50.079117 0.00684 
50.243015 0.005161 
52.073612 0.005619 
52.790497 0.010396 
52.867374 0.008241 
53.523846 0.006679 
54.800346 0.007597 
55.054535 0.109325 
55.373184 0.007962 
56.049774 0.166785 
56.615196 0.009021 
57.070187 1.939264 
57.073097 0.008471 
57.123375 0.006878 
58.065414 3.377743 
58.073399 0.01084 
58.331554 0.005657 
59.068714 0.022804 
59.439068 0.008643 
60.044659 0.152218 
60.256626 0.010255 
60.430401 0.006819 
61.010883 0.121161 
61.233585 0.008863 
62.018707 0.479108 
62.668568 0.006046 
62.981998 0.022357 
63.022091 0.005101 
63.673668 0.009179 
64.014435 0.084929 
65.788704 0.007601 
66.945763 0.005334 
67.961594 0.006892 
68.477882 0.007727 
68.574219 0.007908 
69.044846 1.416581 
69.07003 0.034519 
69.108025 0.005452 
69.561211 0.005379 
70.065216 0.232078 
70.492516 0.009291 
71.049225 0.010368 
71.085625 1.276877 
71.92923 0.007442 
72.044418 0.053836 
72.089043 0.015896 
72.67083 0.007404 
74.060127 0.273548 
76.161926 0.009374 
78.611229 0.010131 
80.049507 14.189349 
80.947937 0.096932 
81.052879 0.576488 
82.129929 0.008069 
83.049179 2.083682 
83.060402 0.423859 
83.085587 0.008502 
83.498985 0.008898 
84.044487 0.138996 
84.505928 0.011726 
85.039703 0.310612 
85.101196 0.722942 
85.85392 0.009084 
86.060043 0.040065 
86.796883 0.010013 
88.075676 0.07734 
89.420593 0.012129 
90.386871 0.01156 
90.947807 0.060278 
91.054283 10.01094 
91.469223 0.007884 
92.05761 0.630638 
92.508682 0.008468 
94.065254 0.046147 
95.060387 0.066199 
96.110817 0.005893 
96.811264 0.009119 
97.215157 0.008581 
97.501144 0.006162 
98.060104 0.064982 
98.74334 0.007659 
99.925201 0.010557 
100.075722 0.021311 
100.108017 0.009809 
100.530869 0.007092 
100.917068 0.008524 
101.003265 0.141488 
102.090759 0.008903 
103.022141 0.008079 
104.96347 0.006536 
104.992355 0.034067 
105.143936 0.008781 
105.917084 0.008338 
106.020607 0.009319 
107.652115 0.007537 
107.690804 0.008917 
108.957977 0.008663 
110.059822 0.008411 
112.049995 0.007505 
112.075691 0.05501 
112.482986 0.010003 
115.062576 0.005925 
115.853745 0.005233 
116.00528 0.018484 
116.808456 0.005088 
118.086296 0.083023 
118.925072 0.007119 
119.08535 0.007888 
119.705643 0.005652 
120.5112 0.007491 
121.064903 5.724766 
121.300056 0.013556 
122.068222 0.153989 
122.081238 0.358336 
125.757133 0.008927 
126.085052 0.006874 
127.712105 0.010777 
129.320953 0.008448 
130.883377 0.009578 
132.101807 0.012023 
132.958282 0.111233 
135.002991 0.256682 
135.080444 0.338819 
135.927704 0.009485 
136.112152 0.199192 
137.071075 0.025986 
142.061111 0.00923 
142.097702 0.025758 
144.057129 0.03429 
145.06485 0.159393 
146.918472 0.398656 
146.97403 0.038833 
147.080536 0.593586 
148.083817 0.005383 
148.209595 0.006445 
149.155716 0.007574 
150.968872 0.198305 
151.95929 0.069535 
152.461914 0.00846 
152.951599 0.954225 
153.949173 0.028041 
153.959671 0.064912 
154.947006 0.362628 
156.357635 0.01103 
159.080505 0.872504 
160.084137 0.008905 
161.0961 0.206224 
162.091415 0.197964 
162.951141 0.214258 
163.958984 0.267221 
163.976501 0.044807 
164.921295 0.014335 
164.929123 0.117927 
164.94722 0.026264 
164.961441 0.023486 
164.984711 0.023115 
165.938217 0.511922 
165.955124 0.076875 
166.939148 0.06665 
167.934128 0.152699 
168.917358 0.036336 
169.193008 0.006405 
170.962128 0.16285 
171.062775 0.015158 
171.080475 0.08941 
171.959885 0.024801 
171.97348 0.137106 
173.096542 0.044939 
174.091599 0.025046 
175.075394 0.010356 
175.958939 0.733365 
176.106598 0.009947 
176.96167 0.288208 
177.091278 0.009336 
177.534012 0.008685 
177.954865 0.375811 
179.954193 0.059041 
180.961639 0.40133 
181.773331 0.011927 
181.950165 0.006495 
181.962158 0.030496 
181.970215 0.008368 
182.939514 0.014634 
182.957458 0.117915 
183.080765 0.007508 
183.948746 0.238627 
184.169327 0.026074 
184.178024 0.012382 
184.95108 0.016419 
185.116348 0.007976 
185.153809 0.015901 
185.3703 0.008745 
185.944916 0.041822 
186.091278 0.039821 
186.927902 0.160627 
187.099182 0.020622 
188.106979 0.24774 
188.648331 0.04548 
189.091095 0.212396 
189.101471 0.005686 
190.122849 0.029119 
192.961823 0.476174 
193.486099 0.007406 
193.961243 0.018682 
193.969635 0.248484 
194.957962 0.112186 
194.972076 0.135667 
195.180511 0.008173 
195.965576 0.134755 
197.653366 0.092913 
197.854858 0.008452 
199.310425 0.008795 
200.10704 1.925956 
201.073837 0.010443 
201.110672 0.020834 
201.141205 0.006922 
204.102463 0.011508 
204.17421 0.024843 
205.10994 0.238801 
206.117615 1.159634 
206.658371 0.021788 
210.972473 0.221346 
211.975159 0.070127 
212.23732 6.749733 
212.249252 0.080504 
212.972351 0.062449 
213.090942 0.228753 
213.240982 0.903165 
215.127991 0.335871 
215.168915 0.11134 
215.178207 0.153524 
216.102112 0.298381 
217.988419 0.008864 
218.078918 0.009452 
218.117706 2.618693 
219.121201 0.077492 
219.174438 1.455461 
222.112381 0.070342 
222.192368 0.007675 
222.898849 0.184037 
223.979996 0.406774 
224.128311 2.029075 
224.93277 0.006847 
224.982574 0.345292 
225.131454 0.062842 
225.976013 0.156932 
226.96788 0.008818 
227.11763 0.055591 
227.6548 0.006703 
227.930908 0.075771 
229.094986 0.00962 
230.140274 0.011944 
231.101593 0.05701 
231.183014 0.011001 
234.112778 0.016105 
236.128281 0.87293 
240.232315 0.761665 
240.909546 0.306668 
241.235764 4.593027 
241.990479 0.009157 
242.079025 0.024835 
242.238815 0.60748 
243.035675 0.013419 
244.085739 0.009888 
244.59082 0.010373 
245.128571 0.607404 
246.132019 0.008002 
246.149017 0.132066 
247.537857 0.007782 
248.824585 0.009773 
250.238983 0.012231 
251.914734 0.007153 
256.263458 0.769518 
257.266724 0.040365 
258.874969 0.022117 
261.906403 0.007585 
263.139557 0.076988 
263.901855 0.346083 
264.909332 0.023889 
271.151398 0.211496 
273.094849 0.045787 
273.131195 0.016638 
277.154633 1.085899 
277.905212 0.01177 
278.13858 1.663641 
279.142578 0.107093 
279.917145 0.152786 
281.912079 1.623652 
282.913239 0.016685 
286.217712 0.042155 
286.274109 0.008821 
287.106262 0.042844 
288.196838 0.009612 
288.231415 0.086733 
291.913818 0.012719 
292.330872 0.008959 
298.614075 0.008601 
302.128754 1.038715 
302.173645 0.063685 
302.213226 0.020616 
302.248077 0.158486 
302.284973 0.165375 
302.304565 0.084395 
303.105194 0.024076 
303.140991 0.804338 
303.178711 1.050964 
303.207794 0.016418 
303.243439 0.091894 
303.309052 0.007962 
304.115021 0.024998 
304.136108 0.031666 
304.153595 0.128301 
304.190094 0.133158 
304.266998 0.312644 
304.300018 80.485123 
305.157043 100.0 
305.260132 0.47903 
305.303223 17.931154 
306.118561 0.011746 
306.160706 7.231973 
306.181152 3.980779 
306.203613 0.224788 
306.242249 0.20085 
306.260437 0.027632 
306.280701 0.030271 
306.306305 0.846445 
312.838287 0.011833 
322.913788 0.013131 
327.826996 0.037478 
328.112061 0.008186 
END IONS

