BEGIN IONS
PEPMASS=140.995
CHARGE=1+
COMPOUNDNAME=HMDB:HMDB04110-2366 Phosphonoacetate
LIBRARYQUALITY=3
SMILES=OC(=O)CP(O)(O)=O
INCHIKEY=XUYJLQHKOGNDPB-UHFFFAOYSA-N
INCHI=InChI=1S/C2H5O5P/c3-2(4)1-8(5,6)7/h1H2,(H,3,4)(H2,5,6,7)
MSLEVEL=2
SOURCE_INSTRUMENT=Positive-Quattro_QQQ:40eV
FILENAME=hmdb_intermediate.mgf
SEQ=*..*
IONMODE=Positive
ORGANISM=HMDB
NAME=HMDB:HMDB04110-2366 Phosphonoacetate M+H
PI=HMDB
DATACOLLECTOR=HMDB
PUBMED=N/A
SUBMITUSER=mwang87
TAGS=
SPECTRUMID=CCMSLIB00000427229
SCANS=2201
42.0 9.656 
43.0 13.962 
47.0 21.602 
49.0 5.147 
63.0 63.704 
65.0 24.523 
77.0 5.557 
78.0 5.196 
80.0 5.631 
81.0 100.0 
105.0 11.758 
123.0 6.295 
END IONS

