BEGIN IONS
PEPMASS=270.5
CHARGE=1+
COMPOUNDNAME=Massbank:KO002245 Apramycin sulfate|Apramycin
LIBRARYQUALITY=3
SMILES=OC[C@@H](O1)[C@@H](N)[C@H](O)[C@@H](O)[C@H]1O[C@H](O2)[C@@H](NC)[C@@H](O)[C@@H](O3)[C@@H](C[C@@H](N)[C@@H](O[C@H]([C@@H](N)4)[C@H](O)[C@@H](O)[C@H](N)C4)3)2
INCHIKEY=XZNUGFQTQHRASN-UXNWEDNLSA-N
INCHI=1S/C21H41N5O11/c1-26-11-14(30)18-8(33-20(11)37-21-16(32)13(29)10(25)9(4-27)34-21)3-7(24)19(36-18)35-17-6(23)2-5(22)12(28)15(17)31/h5-21,26-32H,2-4,22-25H2,1H3/t5-,6+,7-,8-,9-,10-,11+,12+,13+,14-,15-,16-,17-,18+,19+,20+,21-/m1/s1
MSLEVEL=2
SOURCE_INSTRUMENT=ESI-LC-ESI-QQ
FILENAME=Massbank_ESI_positive_8_1_2014_peaks.mgf
SEQ=*..*
IONMODE=Positive
ORGANISM=MASSBANK
NAME=Massbank:KO002245 Apramycin sulfate|Apramycin [M+2H]++
PI=Putative Massbank Match
DATACOLLECTOR=Massbank
PUBMED=N/A
SUBMITUSER=mwang87
TAGS=
SPECTRUMID=CCMSLIB00000216981
SCANS=8047
43.7 34653.5 
53.2 39604.0 
55.3 74257.5 
56.2 242574.5 
56.5 29703.0 
58.1 133663.5 
60.0 1712873.0 
66.8 39604.0 
68.1 1163367.5 
68.9 688119.5 
70.1 366337.0 
70.9 128713.0 
71.9 1707922.5 
72.9 371287.5 
73.8 410891.5 
76.1 29703.0 
80.2 410891.5 
80.9 495050.0 
82.1 1262377.5 
83.4 257426.0 
84.1 4049509.0 
84.9 861387.0 
86.2 886139.5 
86.8 163366.5 
88.1 108911.0 
88.9 19802.0 
90.0 1851487.0 
91.2 29703.0 
92.4 123762.5 
93.1 59406.0 
94.1 222772.5 
95.1 128713.0 
96.2 2480200.5 
96.8 698020.5 
97.9 1277229.0 
99.1 366337.0 
100.0 346535.0 
100.8 272277.5 
102.0 2797032.5 
102.8 178218.0 
104.4 24752.5 
105.2 24752.5 
106.2 74257.5 
108.0 500000.5 
109.1 693070.0 
110.1 1782180.0 
111.2 1787130.5 
112.1 252475.5 
112.9 74257.5 
114.2 564357.0 
114.8 103960.5 
116.4 584159.0 
118.0 282178.5 
119.9 29703.0 
121.3 59406.0 
122.4 386139.0 
124.0 366337.0 
126.2 2247527.0 
127.0 212871.5 
128.0 782179.0 
130.3 39604.0 
131.9 99010.0 
133.8 39604.0 
134.8 252475.5 
136.3 460396.5 
138.2 158416.0 
138.9 89109.0 
140.3 232673.5 
142.3 371287.5 
144.2 2034655.5 
145.1 1519803.5 
146.1 445545.0 
146.8 49505.0 
149.0 34653.5 
149.9 311881.5 
151.3 123762.5 
152.2 262376.5 
153.1 227723.0 
154.2 168317.0 
157.2 94059.5 
158.0 34653.5 
162.1 2024754.5 
163.2 6356442.0 
164.1 430693.5 
165.5 24752.5 
166.4 34653.5 
168.2 470297.5 
170.3 99010.0 
172.4 64356.5 
173.1 49505.0 
174.4 19802.0 
175.5 94059.5 
175.8 39604.0 
178.9 24752.5 
180.1 44554.5 
181.2 321782.5 
182.0 242574.5 
183.1 84158.5 
185.9 128713.0 
187.3 103960.5 
194.5 34653.5 
196.1 29703.0 
198.0 64356.5 
199.2 1579209.5 
200.4 678218.5 
201.6 331683.5 
202.5 54455.5 
204.0 19802.0 
208.3 29703.0 
211.1 99010.0 
213.2 49505.0 
215.1 49505.0 
216.3 59406.0 
217.4 6425749.0 
218.5 425743.0 
219.5 24752.5 
225.3 123762.5 
226.9 44554.5 
229.0 99010.0 
231.4 29703.0 
235.7 44554.5 
237.3 34653.5 
240.4 24752.5 
253.2 287129.0 
254.1 118812.0 
255.6 99010.0 
271.3 584159.0 
272.7 64356.5 
273.4 34653.5 
277.5 44554.5 
280.6 39604.0 
289.4 371287.5 
295.4 59406.0 
308.6 138614.0 
313.4 113861.5 
326.6 99010.0 
327.2 24752.5 
331.5 34653.5 
344.4 89109.0 
END IONS

