BEGIN IONS
PEPMASS=544.182
CHARGE=1+
COMPOUNDNAME=Massbank: Doxorubicin
LIBRARYQUALITY=3
SMILES=c(=O)(c12)c(c5O[H])c(c(O[H])c(c35)C(C(C(=O)C([H])([H])O[H])(C(C3(OC([H])(C([H])([H])4)OC([H])(C([H])(O[H])C([H])(N([H])[H])4)C([H])([H])[H])[H])([H])[H])O[H])([H])[H])c(c1c(c(c(c2OC([H])([H])[H])[H])[H])[H])=O
INCHIKEY=AOJJSUZBOXZQNB-UHFFFAOYSA-N
INCHI=1S/C27H29NO11/c1-10-22(31)13(28)6-17(38-10)39-15-8-27(36,16(30)9-29)7-12-19(15)26(35)21-20(24(12)33)23(32)11-4-3-5-14(37-2)18(11)25(21)34/h3-5,10,13,15,17,22,29,31,33,35-36H,6-9,28H2,1-2H3
MSLEVEL=2
SOURCE_INSTRUMENT=ESI-LC-ESI-QTOF
FILENAME=Massbank_ESI_positive_8_1_2014_peaks.mgf
SEQ=*..*
IONMODE=Positive
ORGANISM=MASSBANK
NAME=Massbank: Doxorubicin [M+H]+
PI=Putative Massbank Match
DATACOLLECTOR=Massbank
PUBMED=N/A
SUBMITUSER=mwang87
TAGS=
SPECTRUMID=CCMSLIB00000206118
SCANS=1378
69.0329 355.367 
72.0437 812.994 
86.0602 1913.559 
95.0502 114.859 
112.076 253.785 
113.06 964.407 
130.0863 2366.102 
306.0505 233.22 
321.0747 6310.734 
323.0919 111.017 
333.0755 1022.599 
337.0705 107.571 
346.0472 1863.842 
351.0865 231.412 
361.0707 10000.0 
379.0809 1323.164 
397.0934 114.011 
END IONS

