BEGIN IONS
PEPMASS=269.046
CHARGE=1+
COMPOUNDNAME=Emodin
LIBRARYQUALITY=3
SMILES=N/A
INCHIKEY=RHMXXJGYXNZAPX-UHFFFAOYSA-N
INCHI=InChI=1S/C15H10O5/c1-6-2-8-12(10(17)3-6)15(20)13-9(14(8)19)4-7(16)5-11(13)18/h2-5,16-18H,1H3
MSLEVEL=2
SOURCE_INSTRUMENT=N/A-ESI-QFT
FILENAME=library_mgf.mgf
SEQ=*..*
IONMODE=negative
ORGANISM=MONA
NAME=Emodin [M-H]-
PI=MoNA
DATACOLLECTOR=MoNA:VF-NPL-QEHF011212
PUBMED=N/A
SUBMITUSER=mwang87
TAGS=
SPECTRUMID=CCMSLIB00004702275
SCANS=11212
50.347042 0.007519 
52.181953 0.007925 
53.044666 0.006459 
53.082016 0.005861 
54.103985 0.008917 
54.385845 0.00787 
56.795742 0.007937 
57.593193 0.007991 
58.561977 0.005909 
59.050339 0.008769 
60.05526 0.008996 
61.531822 0.007207 
62.334919 0.007202 
64.060432 0.007551 
65.246544 0.007035 
65.7033 0.008249 
65.986877 0.00767 
67.136963 0.058964 
67.387123 0.008238 
67.603004 0.006464 
67.709091 0.007324 
68.174721 0.007847 
70.223335 0.008425 
71.328987 0.008343 
73.783379 0.008051 
73.86071 0.007616 
74.876434 0.008415 
75.367294 0.006023 
77.304596 0.005827 
77.692802 0.006776 
82.17717 0.007979 
82.527435 0.007934 
82.693207 0.007782 
82.725067 0.008037 
86.535316 0.008141 
86.579147 0.007546 
88.647873 0.010072 
91.700943 0.008197 
91.948242 0.009519 
94.546921 0.007648 
98.53508 0.007725 
99.053009 0.008555 
100.697227 0.007552 
104.096649 0.008612 
104.521606 0.00816 
105.128876 0.007832 
107.680725 0.008971 
108.686241 0.008578 
112.833832 0.007943 
116.90049 0.006817 
120.210152 0.008244 
122.068977 0.007768 
123.252007 0.008815 
128.49231 0.008023 
129.283035 0.007732 
130.046829 0.008311 
131.280304 0.008616 
137.205612 0.007532 
141.927322 0.008798 
151.732574 0.007244 
159.320984 0.007908 
164.729218 0.009438 
174.330276 0.009515 
178.941879 0.008008 
181.065216 0.038497 
184.835648 0.008837 
187.939316 0.008778 
191.656281 0.008732 
195.990952 0.008523 
197.059906 0.077626 
199.533707 0.006979 
201.884613 0.009331 
202.454132 0.008387 
204.314835 0.008371 
206.434052 0.008333 
207.047012 0.008252 
207.25589 0.008676 
209.497635 0.008164 
212.419876 0.009392 
213.054993 0.010373 
215.948334 0.094377 
215.955276 0.107482 
215.961151 0.095829 
224.046677 0.011218 
225.055023 3.153292 
226.058533 0.427429 
227.034653 0.01014 
235.482361 0.007302 
241.050018 0.870675 
242.053406 0.051497 
243.110641 0.00723 
246.620636 0.00911 
253.67131 0.008111 
254.021484 0.053565 
268.037598 0.028492 
268.051941 0.025518 
269.019318 0.045552 
269.04538 100.0 
270.048798 15.502095 
270.083069 0.011247 
271.050201 0.547322 
271.089966 0.00657 
287.965851 0.007403 
291.004303 0.008742 
291.082611 0.009163 
291.925995 0.009184 
END IONS

