BEGIN IONS
PEPMASS=273.076
CHARGE=1+
COMPOUNDNAME=naringenin
LIBRARYQUALITY=3
SMILES=N/A
INCHIKEY=FTVWIRXFELQLPI-ZDUSSCGKSA-N
INCHI=InChI=1S/C15H12O5/c16-9-3-1-8(2-4-9)13-7-12(19)15-11(18)5-10(17)6-14(15)20-13/h1-6,13,16-18H,7H2/t13-/m0/s1
MSLEVEL=2
SOURCE_INSTRUMENT=N/A-ESI-QFT
FILENAME=library_mgf.mgf
SEQ=*..*
IONMODE=positive
ORGANISM=MONA
NAME=naringenin [M+H]+
PI=MoNA
DATACOLLECTOR=MoNA:VF-NPL-QEHF000569
PUBMED=N/A
SUBMITUSER=mwang87
TAGS=
SPECTRUMID=CCMSLIB00004691632
SCANS=569
50.488491 0.031045 
51.74955 0.031358 
51.766991 0.044666 
52.954742 0.034065 
53.846867 0.026621 
53.93692 0.029946 
55.242661 0.042227 
55.934978 0.038579 
57.025406 0.028929 
57.070782 0.035856 
57.331841 0.029686 
57.908653 0.03912 
58.161655 0.031963 
61.011414 100.0 
61.47559 0.037538 
62.010796 1.689118 
62.014763 4.64362 
63.00721 9.317954 
63.036057 0.03985 
63.684517 0.032555 
63.958553 0.035888 
63.990185 0.03327 
66.8461 0.033611 
68.486504 0.029669 
68.971497 0.037213 
69.449265 0.035077 
69.569168 0.038 
69.809631 0.040125 
69.818748 0.047513 
70.111465 0.028153 
70.199173 0.034316 
70.958679 0.191106 
71.026184 0.035037 
71.348747 0.025138 
71.366905 0.02989 
71.929909 0.033341 
72.288696 0.033228 
72.425049 0.02907 
72.715691 0.032036 
72.937927 0.038192 
73.334244 0.031561 
73.615723 0.032992 
75.313972 0.03486 
75.498962 0.027837 
77.19265 0.027937 
78.429337 0.034577 
78.919914 0.036614 
80.219429 0.041106 
80.609238 0.043777 
80.948608 0.040902 
80.986305 0.040236 
81.812256 0.030928 
82.036156 0.035313 
83.815041 0.034314 
84.227737 0.029938 
84.370415 0.041478 
85.090691 0.039944 
85.422394 0.033559 
88.070717 0.034421 
88.136215 0.034945 
89.565094 0.028806 
91.047241 0.03048 
92.546593 0.037298 
92.604996 0.035421 
92.988663 0.032161 
92.998985 0.035407 
95.949921 0.033477 
96.402542 0.037099 
98.270576 0.035295 
98.554192 0.0303 
98.70771 0.033162 
98.975838 0.976892 
100.695534 0.038839 
101.003685 2.057924 
102.297676 0.03584 
103.511932 0.035449 
103.580925 0.038016 
104.100548 0.036722 
104.930801 1.819842 
104.992943 0.030359 
105.917427 0.240359 
106.926086 0.093473 
107.851219 0.051266 
107.906181 0.035921 
108.044518 0.036282 
109.406784 0.041799 
112.663712 0.036248 
114.94841 0.412501 
116.948898 0.152415 
116.986214 0.306721 
117.917274 0.117169 
121.211517 0.038764 
122.838364 0.030323 
122.936821 0.048365 
122.941154 6.50262 
124.936691 1.34726 
127.868027 0.027866 
128.635406 0.036099 
129.538422 0.037681 
129.578705 0.040691 
130.360916 0.030808 
132.958572 0.957327 
133.948669 0.239805 
134.919998 0.745249 
134.941193 0.290341 
134.959106 0.453547 
135.927841 0.620608 
135.949341 1.021013 
135.966766 0.442644 
136.936996 0.047417 
136.956696 4.041927 
138.089661 0.044085 
138.952011 0.597416 
140.210724 0.031304 
140.373779 0.047349 
143.969833 0.039942 
145.830917 0.034139 
146.106232 0.031237 
148.165436 0.039823 
148.971893 23.815842 
149.943741 0.138935 
149.975189 3.525247 
150.226257 0.039193 
150.951279 4.527223 
150.967621 3.221681 
150.973114 11.101431 
151.768433 0.031549 
151.970169 2.323996 
152.951553 16.894583 
152.967728 3.077918 
153.018494 0.393776 
153.938782 0.096107 
153.959427 6.729116 
154.946899 3.507822 
155.902344 0.029846 
155.955002 1.346425 
160.254868 0.029085 
161.162048 0.033151 
162.951172 1.102775 
163.94281 0.039502 
163.9543 0.047434 
164.21701 0.034849 
164.95166 12.529559 
165.938232 5.270585 
165.949417 0.138913 
165.956024 0.03429 
166.199326 0.046539 
166.362839 0.039133 
166.947052 2.889872 
166.967224 0.272211 
166.982437 3.069635 
167.95401 1.96261 
167.984665 0.168586 
168.962021 0.879596 
168.982925 14.071622 
169.342743 0.030842 
169.981033 0.051105 
170.962097 2.855579 
170.970413 0.029444 
170.978287 3.044363 
172.957809 0.309015 
175.83725 0.044053 
177.9384 0.653119 
178.978394 0.535401 
179.938049 0.210876 
180.190002 0.041574 
180.961945 1.183485 
181.020599 0.044172 
181.915268 0.11248 
181.962982 0.038219 
182.510193 0.0361 
182.962296 11.55865 
182.998276 0.04151 
183.94902 1.988412 
183.960358 0.202938 
183.96785 0.052475 
184.957687 2.67494 
185.263474 0.04485 
185.949585 0.533276 
185.964584 1.930867 
188.415085 0.031059 
191.808228 0.034979 
191.965057 0.432967 
192.583801 0.044489 
192.961807 60.282295 
193.96431 26.637589 
194.962585 69.420517 
195.936417 1.483449 
195.949188 0.343996 
195.959839 4.654599 
196.660797 0.034102 
196.957596 16.068024 
196.977173 0.034811 
197.947754 0.507553 
201.396042 0.040337 
202.89566 0.040502 
207.974991 0.030926 
209.975861 0.084288 
210.960999 0.221267 
210.972244 22.369013 
211.974548 10.980137 
212.95372 0.375268 
212.972763 73.30011 
213.330231 0.035742 
213.946762 2.518695 
213.971085 3.903959 
214.968109 15.809296 
216.120438 0.038969 
216.466873 0.824293 
221.296463 0.037716 
224.137695 0.038597 
224.538635 0.043755 
224.988037 0.581218 
225.990341 0.049183 
226.294037 0.042145 
226.965286 0.04788 
226.988342 1.946629 
228.813416 0.042571 
228.983765 0.104205 
230.983521 0.986603 
232.97995 0.036892 
234.368286 0.031261 
235.989777 0.058929 
251.174652 0.035151 
267.934753 0.036611 
271.060059 0.095115 
271.151123 0.052914 
271.188721 0.068655 
271.952698 0.037705 
273.075623 0.052459 
273.115906 0.041466 
273.131348 1.446986 
273.167206 4.039435 
274.171326 0.09348 
275.110809 0.379482 
275.146484 3.762196 
281.450531 0.029672 
290.948975 0.045935 
292.526367 0.045235 
END IONS

