BEGIN IONS
PEPMASS=198.085
CHARGE=1+
COMPOUNDNAME=Citrulline
LIBRARYQUALITY=3
SMILES=N/A
INCHIKEY=RHGKLRLOHDJJDR-BYPYZUCNSA-N
INCHI=InChI=1S/C6H13N3O3/c7-4(5(10)11)2-1-3-9-6(8)12/h4H,1-3,7H2,(H,10,11)(H3,8,9,12)/t4-/m0/s1
MSLEVEL=2
SOURCE_INSTRUMENT=N/A-ESI-QFT
FILENAME=library_mgf.mgf
SEQ=*..*
IONMODE=positive
ORGANISM=MONA
NAME=Citrulline [M+Na]+
PI=MoNA
DATACOLLECTOR=MoNA:VF-NPL-QEHF026471
PUBMED=N/A
SUBMITUSER=mwang87
TAGS=
SPECTRUMID=CCMSLIB00004717968
SCANS=26471
50.364574 0.041894 
50.853462 0.0359 
51.071674 0.032744 
51.267059 0.040728 
51.317364 0.046573 
51.450634 0.037445 
51.500763 0.032352 
52.171043 0.04241 
52.284206 0.027034 
52.723694 0.049012 
52.857944 0.045682 
53.088615 0.042846 
53.250492 0.041339 
53.770004 0.037062 
54.67313 0.04574 
54.922295 0.04266 
55.004555 0.02452 
55.018181 0.037552 
55.05455 1.825944 
55.106518 0.036602 
55.325474 0.041921 
55.620007 0.026341 
56.049763 0.101608 
56.400814 0.035523 
56.856361 0.02213 
56.965073 0.333409 
57.070183 1.144921 
57.507286 0.045625 
57.935081 0.631354 
58.065495 0.031779 
58.145733 0.031142 
58.148743 0.02565 
58.327507 0.047403 
59.203316 0.031104 
59.930515 4.50439 
60.512428 0.035688 
60.601467 0.051192 
61.010906 40.149635 
61.012756 0.325941 
61.399269 0.04726 
61.928089 0.108365 
62.010288 0.116834 
62.014267 1.445437 
62.528999 0.03475 
62.89423 0.044505 
63.00668 7.860848 
64.806412 0.057436 
65.196396 0.043528 
65.749878 0.031052 
66.087128 0.046165 
66.239777 0.039289 
67.054405 1.441505 
67.129776 0.041816 
67.93087 0.02696 
69.070007 2.889994 
70.065216 0.57318 
71.085663 0.187939 
71.179497 0.046485 
71.529984 0.03785 
72.660568 0.043544 
72.819809 0.031578 
73.09848 0.031869 
73.442352 0.030129 
73.584129 0.038898 
73.956184 1.528866 
74.096481 0.032684 
74.579292 0.040584 
74.953789 0.927989 
75.405624 0.050119 
75.7677 0.040207 
75.945435 0.61696 
76.022682 0.042651 
76.727562 0.040332 
76.951408 0.046515 
77.232758 0.047767 
77.940857 6.380076 
78.341614 0.037848 
78.501411 0.026059 
78.53756 0.035733 
79.021271 4.068833 
79.054253 0.341548 
79.301308 0.025725 
79.938408 0.308001 
80.871986 0.031778 
81.069946 2.895045 
81.593346 0.043716 
82.91877 0.030832 
83.085571 2.998083 
83.139091 0.044437 
84.044472 2.119852 
84.080856 0.360167 
84.088966 0.047136 
84.618904 0.03524 
85.064865 0.035096 
85.51516 0.039517 
86.060081 0.326779 
86.457458 0.031478 
86.84874 0.038503 
87.141289 0.042124 
87.341293 0.037515 
87.45919 0.034245 
87.676582 0.042856 
88.133705 0.034735 
88.313446 0.030189 
89.096619 0.034329 
89.94091 0.078247 
91.05442 0.044535 
92.046913 0.125634 
92.260666 0.043881 
92.322159 0.041234 
93.069984 0.550548 
93.313553 0.037159 
93.914803 0.035205 
93.956215 0.037801 
94.016258 0.040522 
94.95443 0.036345 
95.085579 3.56932 
95.344894 0.040201 
95.841805 0.032477 
95.951393 2.743891 
96.088821 0.076071 
97.064919 0.436826 
97.10128 1.360503 
97.149773 0.032724 
98.096512 0.037024 
100.07576 0.560286 
100.28743 0.039726 
100.441864 0.04232 
103.309128 0.047017 
103.529884 0.032275 
103.546829 0.039108 
104.642838 0.047047 
104.91021 1.967882 
105.041122 0.046947 
105.069839 0.105208 
105.704277 0.029831 
106.572609 0.040102 
106.925888 6.45648 
106.999245 0.033327 
107.085457 0.210754 
107.729706 0.03827 
107.822685 0.038638 
107.951515 0.508269 
108.923355 0.068665 
109.034027 0.032642 
109.101357 0.125654 
110.105499 0.058628 
111.080544 0.173069 
112.324707 0.037221 
112.754974 0.037097 
113.611198 0.043881 
114.091469 0.090809 
114.260269 0.045849 
115.068016 0.050016 
115.547096 0.057191 
119.085724 0.167741 
119.951782 0.082638 
120.580437 0.048174 
121.101288 0.284493 
121.373062 0.032193 
121.912773 0.053799 
122.246506 0.036428 
122.423546 0.050789 
122.526268 0.053903 
122.920937 0.354822 
122.941071 0.181851 
123.938873 0.381642 
124.927383 0.045989 
124.936516 23.131746 
125.191231 0.035034 
125.394615 0.025826 
125.936234 0.331316 
126.933693 3.050876 
127.575165 0.027639 
130.182953 0.034393 
130.398499 0.034459 
133.101242 0.060738 
134.932083 0.236441 
134.958664 0.968759 
135.281311 0.032935 
135.956619 2.128223 
135.966553 0.154395 
136.58049 0.845881 
136.920395 0.257009 
136.936447 0.257015 
136.954285 11.489516 
136.960037 0.343773 
137.012085 0.053355 
137.068695 0.438033 
137.466782 0.027369 
137.928116 0.735836 
137.944427 1.462519 
137.954941 0.635007 
137.961929 4.810455 
138.052704 14.981068 
138.058746 0.097632 
138.951996 4.43541 
139.055939 0.339722 
139.259384 0.054828 
139.273987 0.03769 
139.923569 8.409437 
139.959518 0.123649 
140.923218 0.051323 
140.931503 0.280692 
141.9207 0.426366 
142.820847 0.038051 
142.946991 0.430024 
145.480347 0.04035 
145.585373 0.032098 
145.743927 0.0478 
149.132782 0.149146 
149.442062 0.047643 
150.125656 0.029891 
150.950897 0.092034 
151.325363 0.041711 
151.970154 0.695363 
152.95166 0.14975 
152.967728 4.966172 
152.97406 0.528257 
153.063553 39.419254 
153.561432 0.039098 
153.959274 6.845216 
153.9664 4.372361 
153.972809 0.04358 
154.06694 1.64955 
154.158356 0.033054 
154.907974 0.037037 
154.930313 0.040226 
154.947098 36.498283 
154.958084 0.5295 
154.964539 12.433901 
155.079163 3.264503 
155.954819 100.0 
156.913544 0.033722 
156.944489 5.301077 
156.954575 3.929524 
156.962738 0.352471 
157.952179 14.397461 
158.041748 0.036724 
158.942505 0.032455 
158.953445 0.411643 
159.612671 0.036062 
161.132202 0.141872 
161.803223 0.047879 
162.136368 0.040391 
164.626923 0.033242 
165.949951 0.058078 
166.946991 0.713597 
166.973343 0.036053 
168.93718 0.044929 
168.962372 0.134895 
169.05278 0.033595 
169.933746 0.19415 
169.95195 0.149738 
169.970322 0.301694 
170.932312 0.366753 
170.978271 6.180336 
171.913177 0.072571 
171.976547 0.085998 
172.957779 6.069428 
172.975388 1.229208 
174.954559 0.251052 
175.707474 0.043198 
178.158997 0.285515 
179.107071 0.030954 
180.074677 0.152193 
180.918457 0.049702 
180.973587 0.123936 
181.058289 5.461638 
181.933853 0.744498 
184.957733 0.175148 
185.949295 0.565677 
186.946991 0.566616 
186.955765 0.044029 
187.329208 0.036397 
187.944534 14.63813 
188.943329 1.049249 
189.941696 2.057242 
191.464783 0.039863 
191.488602 0.02627 
192.351639 0.042222 
192.962204 0.048311 
196.169632 45.683056 
196.764297 0.026964 
196.918076 0.035063 
196.957413 1.015373 
197.173187 11.332807 
198.084946 6.843441 
198.185287 36.70023 
199.188751 4.582119 
199.944412 0.692499 
202.230911 0.041914 
207.548004 0.035031 
208.730011 0.035796 
214.252808 0.050181 
214.968414 0.680793 
216.102173 0.035795 
217.653854 1.34546 
218.74501 0.050127 
219.444199 0.047758 
END IONS

