BEGIN IONS
PEPMASS=395.05
CHARGE=1+
COMPOUNDNAME=bisdethiobis(methylthio)gliotoxin
LIBRARYQUALITY=3
SMILES=N/A
INCHIKEY=OVBAGMZLGLXSBN-UOVKNHIHSA-N
INCHI=InChI=1S/C15H20N2O4S2/c1-16-12(20)14(22-2)7-9-5-4-6-10(19)11(9)17(14)13(21)15(16,8-18)23-3/h4-6,10-11,18-19H,7-8H2,1-3H3/t10-,11-,14+,15+/m0/s1
MSLEVEL=2
SOURCE_INSTRUMENT=N/A-ESI-QFT
FILENAME=library_mgf.mgf
SEQ=*..*
IONMODE=positive
ORGANISM=MONA
NAME=bisdethiobis(methylthio)gliotoxin [M+K]+
PI=MoNA
DATACOLLECTOR=MoNA:VF-NPL-QEHF024554
PUBMED=N/A
SUBMITUSER=mwang87
TAGS=
SPECTRUMID=CCMSLIB00004715617
SCANS=24554
50.440056 0.110589 
50.782143 0.068848 
51.030838 0.098007 
51.556931 0.120539 
51.940353 4.553454 
52.940453 0.069648 
53.038898 0.420249 
53.708958 0.050244 
54.016338 0.098589 
54.09597 0.109927 
54.419464 0.058323 
54.586746 0.057164 
54.861431 0.091321 
55.018204 1.544723 
55.054592 4.805074 
55.352779 0.10726 
55.450256 0.165094 
55.638805 0.093866 
55.934734 3.916765 
56.049801 2.462969 
56.154282 0.154442 
56.965099 0.10632 
57.033825 1.174653 
57.070213 5.966703 
57.935089 1.884636 
58.065468 12.107757 
58.066856 0.10113 
59.049438 0.649758 
59.068748 0.085711 
59.803246 0.075398 
59.930347 0.07125 
60.044521 0.187617 
60.055901 0.919098 
60.558987 0.065674 
61.010941 26.307524 
61.028637 1.307222 
61.762611 0.07952 
62.01873 2.990379 
63.006649 0.812399 
63.042664 0.100224 
63.997875 0.220864 
64.41349 0.173576 
64.558632 0.106174 
65.038773 0.330308 
66.151039 0.107603 
67.05439 3.584324 
67.430771 0.126285 
67.935028 0.175252 
68.049614 1.276652 
68.885605 0.126598 
68.942833 0.227983 
69.03363 4.708385 
69.07003 5.732648 
70.065285 27.056896 
70.073311 0.089173 
70.509216 0.12532 
71.049271 3.369592 
71.068535 0.517327 
71.08564 2.996859 
71.571411 0.145606 
71.92939 0.731701 
72.044464 1.812305 
72.080887 5.018381 
72.937233 6.271242 
73.028488 0.68406 
73.064842 2.007873 
74.060089 0.786597 
74.096321 0.134715 
75.044205 0.193549 
75.060532 0.102226 
75.964088 0.165881 
76.070152 0.124066 
77.964378 0.100818 
78.96698 0.116895 
79.021317 4.616011 
79.054298 1.736125 
80.049568 1.950604 
80.823433 0.125165 
81.033646 8.918087 
81.044739 0.333395 
81.069916 3.436333 
81.191788 0.158717 
82.028793 0.077549 
82.03701 0.155873 
82.065193 3.000377 
83.049255 6.725344 
83.085556 1.851494 
83.228722 0.08419 
84.044426 1.212491 
84.052635 0.058297 
84.080902 9.963702 
84.937691 2.885055 
85.028481 3.617157 
85.039711 0.296588 
85.064888 0.905617 
85.101311 0.633711 
85.945595 0.117979 
86.060081 2.589873 
86.096504 5.800059 
87.044121 1.969701 
87.905968 0.118365 
88.021713 0.377316 
88.039391 0.34492 
88.075798 0.16085 
89.059837 4.007775 
90.037193 0.100756 
90.440849 0.083295 
90.947792 4.919628 
91.054375 4.804151 
91.057373 0.105926 
91.077873 0.184469 
92.032562 0.121051 
92.98278 0.311158 
93.069969 2.07162 
93.754425 0.07856 
94.041634 0.055061 
94.065247 1.105466 
95.012939 0.471922 
95.049232 5.39628 
95.060471 0.917515 
95.085587 3.612254 
96.044456 0.992573 
96.080856 1.990242 
96.584801 0.056756 
97.028534 3.644514 
97.039589 0.374424 
97.06488 1.826693 
97.076096 1.670222 
97.101288 0.129725 
97.724854 0.119615 
97.7286 0.075444 
98.056786 0.083474 
98.060181 9.022099 
98.096497 1.463169 
98.33284 0.115383 
98.975464 0.27498 
98.984253 0.081762 
99.044174 2.452193 
99.063217 0.068581 
99.080383 0.154407 
100.039291 0.105006 
100.075737 2.699393 
100.111938 0.067391 
100.213242 0.088638 
100.66954 0.067303 
100.953789 0.402794 
101.059814 2.542594 
101.586914 0.117209 
101.940231 0.104317 
102.037277 0.291318 
102.055153 0.195999 
102.117767 0.093865 
102.251503 0.088444 
102.948334 13.192091 
103.039047 0.268282 
103.054443 0.827547 
104.049866 0.18415 
104.070732 0.084495 
104.10714 0.482245 
104.952446 0.083738 
105.033623 2.876319 
105.066467 0.109864 
105.070015 6.282474 
106.065254 1.471117 
107.049263 5.604187 
107.085732 1.577112 
108.044403 1.435441 
108.052353 0.107656 
108.080826 0.94097 
108.284134 0.112266 
108.958382 0.816839 
109.028549 3.639623 
109.064957 0.631996 
109.076431 0.109933 
109.10125 1.51004 
110.031799 0.102472 
110.060097 2.724682 
110.071579 0.296304 
110.096581 1.450401 
111.04422 11.44177 
111.055382 1.282539 
111.080429 0.076108 
111.68969 0.082001 
112.047501 0.089775 
112.075851 3.059342 
112.086952 1.357103 
112.112236 0.182654 
113.034729 0.155704 
113.059746 2.077712 
113.07106 0.213398 
113.107422 0.099878 
114.055061 0.589584 
114.091461 1.02537 
114.10276 2.627762 
114.948311 1.791625 
115.039062 0.168883 
115.075615 0.081003 
115.0867 1.115329 
115.944107 0.146724 
116.070808 1.154253 
116.963905 4.76894 
116.971771 0.11276 
116.985893 0.289543 
117.054581 1.214421 
117.069969 0.44606 
117.971916 0.381457 
118.032127 0.850013 
118.065201 2.6618 
118.086365 6.563131 
118.943192 2.405563 
118.980019 0.296728 
119.049263 4.212686 
119.060631 0.086903 
119.085556 1.771073 
119.951096 2.574084 
120.044342 0.096265 
120.048203 0.104026 
120.056862 0.271178 
120.080978 3.507444 
120.940346 0.079025 
120.958984 3.19929 
120.963547 0.102299 
121.028572 1.05862 
121.064934 3.823794 
121.068977 0.068495 
121.076004 0.291353 
121.10128 0.774829 
121.356934 0.079945 
122.060196 3.182778 
122.071526 1.841216 
122.083893 0.094858 
122.096443 0.982497 
123.044182 0.870622 
123.055298 0.14571 
123.067993 0.167 
123.079506 1.62286 
123.091843 0.197237 
123.116783 0.309619 
124.039322 0.452463 
124.075844 2.376792 
124.112228 0.219964 
124.936516 0.271817 
125.023491 0.301127 
125.05986 0.367624 
125.071045 1.041439 
125.096054 0.089587 
125.538483 0.087982 
126.018738 0.129391 
126.055008 1.461534 
126.066673 0.168835 
126.091423 0.978299 
127.039062 1.425315 
127.050323 0.49909 
127.086586 0.101897 
128.070755 0.717851 
128.107056 0.978606 
128.963882 2.374622 
128.985443 0.10669 
129.070023 0.239071 
130.03215 0.061516 
130.065292 6.522715 
130.086502 0.601311 
130.159271 0.099586 
130.337204 0.169182 
130.943222 1.248037 
130.979492 1.880993 
131.049271 0.696306 
131.068375 0.090995 
131.07312 0.081456 
131.085464 0.4731 
131.129303 0.350156 
131.95105 2.101726 
131.97435 0.679851 
132.044495 1.658469 
132.080902 1.780531 
132.958618 3.006029 
132.995667 0.608161 
133.052383 0.064057 
133.064789 0.951984 
133.076248 0.165447 
133.085434 0.158688 
133.101349 0.367777 
133.96637 0.346233 
134.060104 4.475873 
134.096436 2.250918 
134.768784 0.071551 
134.956085 2.483806 
134.974365 1.321863 
134.996292 0.162094 
135.044052 0.213436 
135.063171 0.073728 
135.080399 0.648697 
135.091888 0.511837 
135.116699 0.148422 
135.264923 0.095577 
135.928223 0.085257 
135.982513 0.209217 
136.039383 0.330418 
136.061966 1.672307 
136.075851 4.800198 
136.083893 0.131812 
136.112183 1.508456 
136.953384 0.095204 
137.059708 1.219007 
137.070847 0.367421 
137.078827 0.067206 
137.107285 0.191458 
138.018723 0.213196 
138.055237 2.205408 
138.091354 1.067981 
138.127838 0.188986 
138.951187 0.124784 
139.038803 0.11784 
139.050217 1.538115 
139.086746 0.585468 
140.070114 0.993493 
140.107101 0.288308 
140.963608 0.08339 
141.054718 0.642505 
141.065796 0.370272 
141.10231 0.743087 
141.972183 0.187347 
142.065186 0.083617 
142.086395 1.564537 
142.979279 0.1462 
143.00058 0.118496 
143.049042 0.244597 
143.085098 0.129063 
143.951141 0.086581 
144.044449 5.900338 
144.065765 0.114083 
144.080963 1.817235 
144.102173 0.079497 
144.958572 0.483504 
144.980026 0.371316 
144.995377 1.126037 
145.048141 0.262192 
145.064926 0.319108 
145.076538 0.189787 
145.101166 0.189854 
145.267014 0.132802 
145.96669 0.634882 
145.990158 0.100407 
146.060181 2.965084 
146.096634 0.85503 
146.974472 15.684104 
147.011276 0.212938 
147.044342 0.799556 
147.080765 0.370817 
147.091705 7.797077 
147.116898 0.124827 
147.974487 0.347065 
148.039352 0.205645 
148.075806 2.74631 
148.09491 0.186686 
148.112106 0.557207 
148.578278 0.146897 
148.78363 0.108871 
148.955826 0.119925 
148.972076 4.152701 
148.990128 0.298495 
149.059906 0.873328 
149.070953 0.194408 
149.08345 0.069313 
149.096191 0.11265 
149.107498 0.953887 
150.055084 2.594861 
150.06601 0.072202 
150.091461 2.682566 
150.128036 0.096209 
150.951233 13.788113 
150.968948 1.174146 
151.049866 0.137355 
151.07547 0.570449 
151.086746 1.25759 
151.094193 0.073967 
151.122726 0.091271 
152.070724 2.359664 
152.081879 0.181615 
152.107147 0.624616 
152.95166 1.132774 
152.966797 2.221245 
153.054657 0.108668 
153.065811 0.290792 
153.10228 0.065078 
153.959244 0.751611 
154.049683 0.110904 
154.06546 0.177593 
154.086212 0.718736 
154.702438 0.117381 
154.947052 2.167563 
154.967621 0.228829 
155.081528 0.129893 
155.954742 7.166678 
155.974808 0.066329 
156.065582 0.078657 
156.080963 0.375332 
156.102081 0.239484 
156.867981 0.091514 
156.944717 0.070707 
156.962814 0.082028 
156.97934 0.074191 
157.076187 0.864941 
157.101349 0.215248 
157.108398 0.912315 
157.952164 1.52126 
157.990189 0.109028 
158.060181 4.053298 
158.081619 0.1982 
158.096725 0.350443 
158.974442 3.916289 
159.011154 0.303552 
159.068207 0.095829 
159.080353 0.209927 
159.091858 4.365314 
159.982376 8.097649 
160.033234 0.162089 
160.039276 1.21037 
160.075851 2.576542 
160.112091 0.339317 
160.701202 0.06282 
160.983795 0.086312 
160.990204 4.239909 
161.009857 0.082447 
161.059601 0.896005 
161.071198 0.337823 
161.095642 0.091592 
161.107651 0.220547 
161.961899 0.183135 
162.054993 2.570327 
162.091553 3.413746 
162.102905 0.103213 
162.969421 0.202395 
163.00589 3.126094 
163.04953 0.104482 
163.07518 0.736547 
163.086594 0.828859 
163.977219 2.724682 
164.034454 0.108516 
164.070755 1.014298 
164.082153 0.063022 
164.093307 1.111199 
164.10704 4.046302 
164.967606 0.293379 
164.985489 0.309382 
165.054611 0.217046 
165.066513 0.250346 
165.090729 0.131422 
165.102432 0.517603 
165.110657 0.072539 
165.139038 0.068862 
165.972427 0.181825 
166.072784 0.095432 
166.086533 1.717719 
166.097549 0.242033 
166.966385 0.163499 
166.982971 1.188845 
166.990952 0.064308 
167.070679 0.170721 
167.081635 0.722941 
167.118073 0.667661 
168.065765 0.90593 
168.102066 0.632117 
168.138153 0.064886 
168.917297 0.304083 
168.961823 6.929351 
169.076065 0.917311 
169.097076 0.390296 
169.990601 0.102038 
170.060333 0.321866 
170.096375 0.299239 
170.962402 0.399217 
171.044235 1.799382 
171.063416 0.089247 
171.080551 0.103252 
171.091751 0.381493 
172.005875 0.238038 
172.03952 1.803621 
172.047165 0.070662 
172.075745 0.980187 
172.112106 0.125078 
172.957687 1.274149 
172.98996 0.096378 
173.026794 0.073468 
173.059708 0.335847 
173.071091 1.794826 
173.107407 5.525914 
173.870941 0.082193 
173.985168 0.097831 
174.006256 1.829027 
174.021835 0.071525 
174.055069 3.420513 
174.091507 1.886913 
174.955399 0.076142 
174.969009 0.088373 
174.990265 0.078017 
175.006165 0.203164 
175.07637 0.316436 
175.086685 4.492004 
175.978378 0.459977 
176.001297 0.659775 
176.070694 1.255487 
176.107117 1.575385 
176.985733 2.28812 
177.055237 0.191301 
177.065948 0.551746 
177.102448 0.424527 
177.993042 13.83492 
178.01712 0.076854 
178.050003 1.260626 
178.086502 2.682833 
178.096436 0.195166 
178.123093 0.100027 
178.964401 0.234431 
178.983841 1.7086 
178.992615 0.547341 
179.001114 1.588359 
179.094055 0.11 
179.117905 0.292211 
179.954178 0.07091 
180.065582 0.354809 
180.102127 1.693852 
180.888412 0.102152 
180.960938 0.210307 
180.981445 0.404095 
181.015884 0.087795 
181.076355 0.081427 
181.085739 0.1175 
181.097275 0.1243 
181.133682 0.083942 
181.543335 0.138807 
181.988312 0.527636 
182.082947 0.377727 
182.097275 0.09451 
182.118073 0.294358 
182.977036 0.229082 
182.985794 0.287471 
183.047775 0.098127 
183.081787 0.128533 
183.091827 0.098355 
183.113052 0.089864 
183.868851 0.124901 
183.982513 0.076891 
184.005539 0.085071 
184.026703 0.129569 
184.063141 0.069959 
184.075928 0.889756 
184.097641 0.508837 
184.112183 0.086542 
184.989731 0.098372 
185.061584 0.14903 
185.070953 3.084186 
185.107468 1.694154 
185.931274 0.117063 
185.961731 0.271602 
186.022247 0.192672 
186.055161 0.803656 
186.07576 0.178293 
186.0914 1.645238 
186.114029 0.10794 
186.927902 3.056074 
187.07692 0.10624 
187.086731 3.959659 
187.944824 2.642036 
187.977325 0.678832 
188.021774 1.259615 
188.03627 0.245703 
188.070923 1.405109 
188.080551 0.130371 
188.091293 0.312023 
188.107101 1.228165 
188.967163 0.599579 
188.986847 0.871598 
189.005692 0.197094 
189.054581 0.066513 
189.065567 0.260461 
189.091858 0.24437 
189.102463 1.438644 
189.12767 0.12379 
189.886139 0.580201 
189.940384 0.156635 
189.995117 3.698136 
190.00415 0.10588 
190.016266 0.9565 
190.032196 0.661977 
190.049896 0.44849 
190.086166 1.732764 
190.122833 0.314922 
190.873001 0.685468 
191.001099 3.334674 
191.045258 0.069054 
191.070984 0.186194 
191.081696 0.596247 
191.117935 0.109702 
191.128769 0.076653 
191.880981 7.684097 
192.010941 0.101022 
192.06546 0.460048 
192.102234 2.769534 
192.111588 0.158985 
192.138504 0.08102 
192.888931 0.813651 
192.961868 5.212385 
192.980759 0.209847 
192.997559 0.334423 
193.0513 0.092721 
193.097443 0.392904 
193.133545 0.917335 
193.990173 0.774749 
194.044891 0.122298 
194.081436 0.491914 
194.117706 2.771817 
194.153534 0.078342 
194.973846 0.372256 
194.997086 0.211236 
195.081741 0.104105 
195.091339 1.284301 
195.112793 1.93731 
195.121719 0.08589 
195.149719 0.128093 
196.00386 3.492905 
196.075653 0.436901 
196.096848 0.584834 
197.002899 0.106697 
197.012375 3.75131 
197.071243 0.252684 
197.107605 0.482804 
197.164749 0.239452 
197.983902 0.074447 
198.066833 0.119712 
198.07814 0.174065 
198.091461 1.000699 
198.112595 0.673987 
198.878693 1.141365 
198.969177 0.356037 
198.979935 0.228891 
199.086411 0.646045 
199.123535 0.079284 
200.058594 0.208083 
200.07077 4.566475 
200.092712 0.191133 
200.106979 0.862268 
200.128571 0.192986 
200.984375 0.09121 
201.065903 0.512752 
201.075516 0.192366 
201.102142 0.43331 
201.995483 0.075871 
202.038071 0.088453 
202.05011 0.365736 
202.086502 3.324464 
202.097 0.394153 
202.10965 0.220193 
202.122208 0.285494 
203.071228 0.091823 
203.081451 2.745123 
203.091217 0.107986 
203.118118 0.615492 
203.974014 0.266362 
204.030594 0.077352 
204.065598 0.250552 
204.087585 0.12302 
204.102066 1.04959 
204.111923 0.068968 
204.888748 0.078628 
204.962021 0.700364 
204.982346 2.499232 
205.015961 0.422567 
205.060394 0.205638 
205.096756 0.453682 
205.133621 1.166703 
205.989014 11.729803 
206.011337 0.251233 
206.081421 0.425825 
206.117859 0.799818 
206.128494 0.109287 
206.868073 0.721131 
206.88887 1.858527 
206.926666 1.052231 
206.978012 14.067222 
206.988297 0.31498 
206.99765 0.670983 
207.066132 0.179308 
207.076584 0.077042 
207.112808 1.248536 
207.875763 4.78142 
207.896515 2.533114 
207.986359 3.121812 
208.005569 2.723941 
208.026001 0.094953 
208.096909 0.206659 
208.883774 14.606995 
208.976273 0.423686 
208.998215 0.102671 
209.095306 0.635877 
209.106354 0.103165 
209.128738 0.916735 
209.876358 1.442759 
209.891602 17.308847 
209.984756 0.306058 
210.090851 0.332158 
210.112564 0.223617 
210.899536 1.747453 
210.972076 3.39738 
210.992645 0.086271 
211.075699 0.115897 
211.086914 0.217652 
211.145172 0.07656 
211.892319 1.615036 
212.001175 0.090896 
212.071548 0.476989 
212.091812 0.236756 
212.106644 0.424447 
213.06601 5.914964 
213.090958 0.778769 
213.101944 0.531468 
213.908142 0.078424 
214.045959 3.525369 
214.072052 0.774618 
214.086334 1.97233 
214.107117 0.244308 
214.123184 0.279397 
214.873993 0.181787 
214.894165 0.145531 
215.023117 0.921182 
215.081512 3.814276 
215.091995 0.109695 
215.117981 0.717997 
215.881607 0.85408 
216.066071 0.398803 
216.087784 1.929856 
216.101639 1.59983 
216.123199 0.108277 
216.888885 3.372725 
216.991348 0.16987 
217.061096 0.10794 
217.097305 1.385522 
217.881638 1.376676 
217.990158 3.652707 
218.081497 1.337646 
218.092285 0.474119 
218.117813 0.601552 
218.904724 2.166766 
218.962402 0.216154 
218.994232 0.263508 
219.079269 3.786327 
219.112991 0.400566 
219.969162 0.24305 
219.988937 0.879983 
220.007034 0.209325 
220.096909 0.740822 
220.903595 2.733635 
221.012421 0.254635 
221.092422 0.563855 
221.128799 0.463425 
221.902039 2.640539 
221.913086 0.189401 
221.984909 1.181009 
222.021637 0.106629 
222.040512 0.27317 
222.076141 0.080593 
222.090698 0.069226 
222.113007 0.129952 
222.885284 0.115599 
222.898911 11.922512 
222.992828 2.019052 
223.10878 0.240573 
223.145142 0.208242 
223.891663 0.503974 
224.000763 4.505024 
224.022263 0.100676 
224.036636 0.087329 
224.070374 0.110541 
224.107193 0.118148 
224.87854 3.331582 
224.899551 0.337743 
224.937332 0.070939 
225.005264 0.118541 
225.03035 0.093682 
225.066544 0.091664 
225.102585 0.519409 
225.159927 3.235428 
225.886536 9.603264 
225.980225 0.127344 
226.000961 0.083818 
226.086212 0.231174 
226.106827 0.0746 
226.121277 0.17892 
226.894485 3.574411 
227.081711 3.018605 
227.139481 0.239307 
227.901093 4.05352 
227.99794 0.286188 
228.065826 0.227404 
228.08609 0.309936 
228.101852 0.94941 
228.895523 0.097873 
229.004562 0.128877 
229.06134 0.239447 
229.09761 0.466827 
229.896469 0.179718 
230.081299 0.419475 
230.104828 0.236628 
230.11763 0.812417 
230.139587 0.09063 
230.868515 0.533415 
230.889359 0.711503 
231.021561 0.140372 
231.07663 2.632351 
231.111954 1.148942 
231.896912 1.202539 
231.96933 0.092663 
232.005035 0.109864 
232.027237 0.140707 
232.08284 0.293471 
232.096634 1.762515 
232.118942 0.409058 
232.133347 0.728834 
232.154816 0.09974 
232.884018 11.000505 
232.90451 9.393275 
232.918518 0.536726 
232.942795 0.16267 
233.000748 0.111069 
233.092499 0.768265 
233.114014 0.130842 
233.128754 0.878266 
233.891602 100.0 
233.985153 2.536074 
234.076065 0.215347 
234.112854 0.691163 
234.148697 0.08886 
234.900223 64.543808 
234.990799 0.347529 
235.073257 0.077848 
235.086472 0.31711 
235.107651 0.076355 
235.144974 0.153553 
235.891464 29.633505 
236.000488 3.141284 
236.02243 0.102838 
236.0923 0.082608 
236.128769 0.080875 
236.900879 7.948732 
237.003601 0.075044 
237.079178 0.156024 
237.090988 4.530772 
237.102814 0.393975 
237.160965 0.075219 
237.898117 0.210451 
237.907776 0.185228 
238.085419 0.220301 
238.094315 0.187456 
238.107803 0.10048 
238.122894 0.096614 
238.914383 4.276778 
238.967957 2.062998 
239.081757 2.192522 
239.11882 0.098771 
239.900925 0.170846 
239.91301 3.847729 
239.995163 0.078241 
240.065536 0.115702 
240.08783 1.145635 
240.101822 0.735297 
240.909515 19.920601 
240.988998 0.121036 
241.085663 3.850959 
241.097458 0.21126 
242.067352 0.096003 
242.081268 0.436479 
242.117722 0.443858 
242.186432 0.294713 
243.076401 2.052241 
243.088654 0.419657 
243.112228 0.123608 
243.148972 0.096492 
243.912598 1.719887 
244.041977 0.122113 
244.083969 0.306013 
244.920654 0.632278 
245.001434 0.184482 
245.038834 0.64831 
245.128204 0.752968 
245.912415 6.499569 
245.984528 0.075015 
246.008286 0.281934 
246.021149 0.254216 
246.038376 0.091591 
246.076706 0.341951 
246.113007 0.148398 
246.884216 1.904954 
246.899338 2.539651 
246.911255 0.232949 
247.016602 1.252439 
247.0755 3.897157 
247.109772 0.103873 
247.144333 0.414485 
247.907166 1.811434 
248.000305 0.311657 
248.023743 0.083176 
248.07843 0.281928 
248.092377 0.124438 
248.10498 0.184317 
248.128616 0.098567 
248.878799 18.875782 
248.899643 4.618407 
248.914459 1.138242 
248.937149 0.599924 
248.956848 0.075723 
248.996719 0.126419 
249.031509 0.08735 
249.087616 0.11882 
249.101425 0.192511 
249.122742 0.240197 
249.886353 0.860837 
249.908325 0.126192 
250.016891 0.669046 
250.108688 0.126667 
250.894394 42.492573 
250.987656 0.071559 
251.081924 0.206585 
251.118744 0.122421 
251.13974 0.107861 
251.902679 9.718147 
251.995255 1.831999 
252.122604 0.110012 
252.893127 1.760067 
252.910202 3.750959 
253.059067 0.46492 
253.097565 0.556264 
253.133698 0.117862 
253.902557 83.715492 
254.011642 0.144997 
254.080734 0.248295 
254.103912 0.095793 
254.117142 0.364469 
254.90239 6.359867 
254.924332 0.100597 
255.076324 0.407793 
255.112839 0.23611 
255.918869 3.066705 
256.096527 0.127432 
256.132721 0.224247 
256.905273 1.065111 
257.001312 0.398856 
257.015106 0.591075 
257.891937 3.915821 
258.112885 0.097434 
258.899384 8.191301 
259.017303 1.573092 
259.053802 0.218205 
259.071167 0.097086 
259.144135 0.307717 
259.891998 5.842549 
260.020813 0.480329 
260.092163 0.083091 
260.128876 0.674034 
260.937103 0.167164 
260.995758 0.189572 
261.069366 1.048565 
261.087067 0.090169 
261.101898 0.125496 
261.159332 0.087908 
262.003632 0.177545 
262.896179 0.44508 
262.914612 5.03984 
262.930878 5.570379 
263.011871 0.204797 
263.08255 0.141816 
263.102966 0.173979 
263.13916 0.380545 
263.912933 4.431182 
264.719025 0.106222 
264.894623 1.097025 
264.909546 15.819172 
264.924042 0.191079 
265.027252 0.363042 
265.059937 0.454204 
265.085754 9.212102 
265.992737 0.083161 
266.089783 1.163182 
266.139038 0.248888 
266.889313 12.935276 
266.908691 0.202799 
267.075104 1.353419 
267.113159 0.119149 
267.890594 0.09353 
267.918762 0.427852 
268.008667 0.203526 
268.098083 0.199879 
268.89035 0.21283 
268.904938 5.321061 
269.091095 0.099514 
269.129059 0.254494 
269.905792 0.138019 
270.061951 3.11831 
270.112946 0.340917 
270.903015 3.13182 
271.016541 0.321478 
271.068909 0.430896 
271.913269 6.604605 
272.127625 0.089299 
272.899292 1.537477 
272.914429 0.096352 
272.995483 0.741684 
273.887054 0.502443 
273.907501 0.541646 
273.928772 0.223157 
274.075989 0.135153 
274.092468 0.683929 
274.143433 0.25386 
274.894287 17.913322 
274.914825 5.72225 
274.985596 0.117151 
275.011444 1.865114 
275.15387 0.18342 
275.902252 66.467651 
276.016113 0.096916 
276.087738 0.105037 
276.123383 0.19855 
276.910645 38.16589 
277.027191 0.749484 
277.097107 0.09039 
277.118317 0.100767 
277.902557 81.584328 
277.917511 5.575902 
278.104736 0.12717 
278.139526 0.096218 
278.902618 8.468341 
278.920441 0.194415 
279.11322 0.114456 
279.91687 0.355428 
280.813141 0.185646 
280.90741 0.597283 
280.924561 3.001133 
280.940948 0.227908 
281.05365 0.537059 
281.128906 0.107589 
281.908112 0.306425 
281.923737 2.147689 
282.114319 0.076129 
282.902344 6.652458 
282.920349 8.077679 
283.069336 5.448848 
283.107391 0.550542 
284.074097 0.50428 
284.996582 0.225783 
285.084991 16.400953 
285.122162 0.291553 
286.000793 0.127364 
286.038391 0.148684 
286.088409 1.691717 
286.126862 0.088241 
286.914703 1.263937 
287.011627 1.913474 
288.015015 0.286201 
288.90976 5.912826 
288.991211 0.630783 
289.027527 0.73006 
289.126129 0.11179 
289.91803 0.202951 
290.925476 0.693194 
291.006195 0.591761 
291.080383 0.510087 
291.880219 0.092875 
291.896942 5.975944 
292.085297 1.796084 
292.103424 0.498983 
292.904114 1.930723 
292.941406 1.033285 
293.913696 2.994644 
293.932159 0.200998 
294.112488 0.069439 
294.920319 1.806486 
295.14328 0.157354 
295.912903 26.841686 
295.928986 15.793127 
296.913025 2.456093 
296.92981 2.476808 
297.816833 0.504036 
297.928497 0.676954 
299.012024 1.434465 
300.123291 0.114375 
300.640289 0.076848 
300.91272 0.664183 
300.990723 0.563196 
301.062744 0.407179 
301.08017 2.34117 
301.996368 0.263624 
302.07196 1.52441 
302.925751 0.869712 
303.006531 2.659415 
303.079071 0.391912 
303.095367 10.832677 
303.114075 0.123443 
303.930084 0.263673 
304.01178 0.260277 
304.924622 6.23852 
305.022034 1.190332 
305.820282 0.074351 
305.923309 3.599932 
306.123444 0.088524 
306.134613 0.131999 
306.920715 3.532374 
307.000519 0.11301 
307.107391 0.110116 
308.148773 0.153207 
310.915527 3.402598 
311.831848 0.099358 
312.838959 1.184291 
315.006256 2.73486 
315.977142 0.108084 
316.008728 0.172379 
316.905121 9.647611 
316.94632 0.21532 
316.966278 0.087681 
317.022003 1.886697 
317.056732 0.898269 
317.095337 1.304022 
317.129028 0.127734 
317.906372 1.545565 
319.001373 0.28205 
320.005554 0.118989 
320.936768 0.422974 
321.943604 1.311534 
322.823975 0.360403 
322.936035 2.688554 
323.829712 0.127517 
323.932312 0.236905 
324.931213 10.927307 
328.834686 0.558919 
331.00174 0.101305 
333.017426 2.359115 
334.020172 0.774994 
334.095978 0.872898 
334.125519 0.091723 
334.916168 0.952941 
335.101074 0.147019 
335.270203 1.513411 
335.831909 0.110863 
336.839233 0.680886 
337.155426 0.200133 
344.829285 0.796331 
349.083221 0.161588 
349.153992 0.102523 
351.169891 0.093663 
352.029907 0.15164 
352.672394 0.085689 
352.92688 0.162607 
353.842224 4.103218 
364.138458 0.145407 
364.180115 0.08115 
369.255402 0.163256 
375.193665 0.232475 
376.175232 0.707662 
377.148407 0.666251 
377.207306 0.803212 
378.154968 0.467263 
378.191223 0.224991 
379.076843 0.188263 
379.165527 0.102665 
393.147247 0.213442 
393.17984 2.560443 
393.20993 91.324677 
394.148743 1.197401 
394.184265 3.043247 
394.213257 30.549507 
394.242065 0.554265 
394.328003 0.149379 
395.160004 2.90509 
395.189728 1.505994 
395.217957 5.860042 
396.157806 2.407401 
396.198181 0.617382 
396.224121 0.399605 
397.177307 1.557305 
397.213226 0.458887 
END IONS

