BEGIN IONS
PEPMASS=343.082
CHARGE=1+
COMPOUNDNAME=MoNA:2842905 Usnic acid
LIBRARYQUALITY=3
SMILES=N/A
INCHIKEY=CUCUKLJLRRAKFN-UHFFFAOYSA-N
INCHI=InChI=1S/C18H16O7/c1-6-14(22)12(8(3)20)16-13(15(6)23)18(4)10(25-16)5-9(21)11(7(2)19)17(18)24/h5,11,22-23H,1-4H3
MSLEVEL=2
SOURCE_INSTRUMENT=LC-ESI-QTOF-LC-ESI-QTOF
FILENAME=output_mgf.mgf
SEQ=*..*
IONMODE=
ORGANISM=MONA
NAME=MoNA:2842905 Usnic acid [M-H]-
PI=MoNA
DATACOLLECTOR=MoNA
PUBMED=N/A
SUBMITUSER=mwang87
TAGS=
SPECTRUMID=CCMSLIB00000573723
SCANS=10974
110.7754 1.154856 
131.6711 1.049869 
144.7703 1.102362 
153.3279 1.259843 
164.3095 1.154856 
171.045 1.417323 
199.0802 1.154856 
211.0907 1.207349 
215.0767 1.312336 
231.0641 22.204724 
235.7032 1.312336 
235.9816 1.574803 
250.2893 2.414698 
252.8423 1.52231 
255.0653 1.889764 
257.0711 1.364829 
259.0587 68.818898 
259.1042 4.986877 
259.1354 1.259843 
259.3535 1.259843 
283.0661 1.67979 
286.0429 1.469816 
299.0906 16.7979 
301.0714 5.931759 
311.8099 1.784777 
313.0344 10.761155 
315.0831 3.569554 
328.0554 100.0 
328.1022 4.356955 
328.1456 2.204724 
343.0823 30.603675 
END IONS

