BEGIN IONS
PEPMASS=304.152
CHARGE=1+
COMPOUNDNAME=Isocycloheximide
LIBRARYQUALITY=3
SMILES=N/A
INCHIKEY=YPHMISFOHDHNIV-UHFFFAOYSA-N
INCHI=InChI=1S/C15H23NO4/c1-8-3-9(2)15(20)11(4-8)12(17)5-10-6-13(18)16-14(19)7-10/h8-12,17H,3-7H2,1-2H3,(H,16,18,19)
MSLEVEL=2
SOURCE_INSTRUMENT=N/A-ESI-QFT
FILENAME=library_mgf.mgf
SEQ=*..*
IONMODE=positive
ORGANISM=MONA
NAME=Isocycloheximide [M+Na]+
PI=MoNA
DATACOLLECTOR=MoNA:VF-NPL-QEHF023905
PUBMED=N/A
SUBMITUSER=mwang87
TAGS=
SPECTRUMID=CCMSLIB00004714968
SCANS=23905
50.681549 0.032608 
50.860672 0.016086 
52.870934 0.047416 
53.306606 0.019391 
54.357544 0.05122 
54.373222 0.014272 
54.859894 0.014941 
55.054661 0.052062 
55.301991 0.038629 
56.049606 0.040772 
57.070198 2.341711 
58.032978 0.016965 
58.065304 0.06699 
58.145821 0.030123 
58.265385 0.051244 
58.419445 0.01509 
58.789116 0.016748 
58.963055 0.043939 
59.091114 0.0526 
59.567909 0.056424 
59.579937 0.017908 
60.733006 0.043932 
61.010918 20.311192 
61.0825 0.015482 
61.094921 0.041474 
61.409637 0.049799 
62.018745 0.020523 
62.31995 0.046206 
62.993069 0.013575 
63.0215 0.013495 
66.483765 0.034932 
67.054398 0.079761 
67.260551 0.019496 
67.851143 0.05188 
68.598244 0.016396 
68.753799 0.047203 
69.069962 0.134318 
70.467972 0.019884 
71.049232 0.017276 
71.085587 1.454691 
71.108139 0.025857 
71.920876 0.032696 
72.437088 0.017113 
72.937111 0.020151 
77.826736 0.053394 
79.02124 0.568278 
80.04953 18.101879 
80.911026 0.015797 
81.052841 0.658271 
81.069885 0.15371 
81.144753 0.01486 
81.860497 0.053972 
83.07299 0.021728 
83.085373 0.019278 
83.161949 0.040242 
83.439163 0.039393 
84.044044 0.018912 
84.080833 4.104665 
84.686752 0.01824 
85.025444 0.020231 
85.028542 0.021811 
85.039536 0.054726 
85.101181 0.610437 
86.096352 0.058219 
88.518784 0.047918 
89.059723 0.021024 
89.725792 0.044569 
90.023354 0.035953 
90.758957 0.056288 
91.054245 0.74046 
91.597595 0.053148 
91.721954 0.048077 
92.982712 0.05333 
93.069977 0.102761 
95.048904 0.037946 
95.085541 0.147326 
96.044426 0.900749 
96.081039 0.040233 
96.138138 0.038021 
96.906029 0.015112 
97.047928 0.015003 
98.659431 0.017063 
98.975441 0.020493 
99.044006 0.087343 
100.075729 0.166214 
100.116165 0.021316 
100.67524 0.048149 
100.992081 0.055675 
101.059631 0.030179 
102.091385 1.842934 
103.49749 0.054847 
103.759102 0.019517 
104.209923 0.039863 
104.256798 0.016134 
104.527794 0.027677 
105.069977 0.070269 
105.465393 0.040932 
106.354523 0.021323 
106.954575 0.035628 
107.085617 0.057114 
108.635117 0.043144 
109.10128 0.122124 
109.394897 0.03552 
110.059868 0.017128 
112.039268 0.134353 
112.062836 0.031921 
112.075722 1.265296 
113.059792 0.178947 
113.096428 0.016878 
114.646194 0.054107 
119.085243 0.063721 
120.759079 0.038933 
121.064903 0.082268 
121.101273 0.057604 
122.636879 0.035152 
122.861649 0.055386 
123.116653 0.017793 
123.486496 0.061521 
124.039551 0.05419 
126.054726 0.03812 
130.567032 0.040667 
130.716888 0.017158 
131.433563 0.05023 
132.657669 0.015039 
133.101044 0.0594 
133.813019 0.014094 
134.956284 0.110007 
135.080276 0.023669 
138.054855 0.059678 
138.28363 0.030507 
138.955276 0.052268 
143.070328 0.015146 
143.715836 0.070481 
144.138351 0.05067 
144.957825 0.017232 
145.052261 0.45983 
145.101746 0.024183 
145.939407 0.061074 
146.976166 0.401585 
147.080505 0.062631 
147.974808 0.180944 
148.033417 0.018234 
148.075134 0.021592 
148.955704 0.076575 
148.97197 4.487352 
149.096161 0.10407 
149.918472 0.157082 
149.954956 0.044733 
150.054626 0.017262 
150.896973 0.026472 
150.951187 1.966317 
151.658432 0.047063 
152.930511 0.037387 
152.951691 5.704034 
152.967102 0.02457 
153.959366 1.0492 
154.947113 2.407076 
155.954803 0.140127 
156.065811 0.050837 
157.101089 0.083022 
158.117203 0.019875 
158.861206 0.026786 
159.080444 0.04726 
159.116333 0.055049 
160.076019 0.040524 
161.047165 0.066852 
161.095871 0.017998 
162.022049 0.049071 
162.95108 0.020965 
163.959259 0.026434 
164.932892 0.051008 
165.09935 0.025055 
165.195084 0.042864 
165.938614 0.020553 
166.928299 2.003437 
166.982361 0.43177 
167.269714 0.039566 
167.928909 0.438393 
168.452927 0.015733 
168.924332 0.016131 
168.96138 0.282617 
169.755936 0.020736 
170.941208 0.065755 
170.962112 0.854329 
172.088547 0.070495 
172.957886 0.113462 
173.096161 1.908803 
175.076004 0.04503 
175.958862 0.125395 
176.070602 0.043929 
176.960342 0.047582 
177.127609 0.017466 
178.047562 37.387058 
179.050995 2.554971 
179.946732 0.401925 
180.943542 0.108668 
180.961472 0.023222 
182.638397 0.01437 
182.923813 0.021695 
182.943253 0.021635 
184.04425 0.019339 
184.432632 0.059162 
184.54541 0.041676 
184.938965 1.764056 
184.979034 0.043654 
185.096024 0.191801 
185.939102 0.870513 
185.984222 0.022449 
186.041016 0.040565 
186.927658 0.094917 
187.075562 0.162334 
187.111847 0.48356 
189.090927 0.292525 
190.086075 0.019319 
192.961777 0.083434 
194.962234 0.027478 
195.045883 0.026247 
196.938797 0.773581 
197.01091 0.048732 
197.096329 0.055316 
197.892441 1.55686 
197.957687 0.078607 
198.95433 0.019981 
199.074982 0.044158 
199.11145 0.025579 
200.106827 0.09056 
201.090897 0.379399 
201.98967 0.047776 
202.085632 0.017925 
203.106842 0.140317 
203.949402 0.102981 
204.065521 0.198032 
204.102173 0.03424 
204.980331 0.031346 
205.015198 0.029029 
208.883438 0.027904 
209.985291 0.054298 
210.920517 0.260132 
210.971558 0.016788 
211.909897 0.619536 
211.919785 0.053423 
212.237381 0.372025 
212.916718 5.985347 
212.933929 0.316236 
212.972534 0.12062 
213.091232 0.080867 
213.916641 0.026384 
214.086517 0.409488 
214.122711 1.072803 
215.07019 0.240762 
215.106964 0.838394 
215.146271 0.556035 
215.156387 0.900827 
215.164352 0.80193 
215.903091 0.259982 
216.101364 0.028657 
217.085999 0.071832 
217.121948 0.020029 
218.117905 0.050793 
218.176544 0.049481 
219.174515 0.200768 
220.970078 0.017491 
222.03981 0.870227 
222.899033 0.365874 
223.980011 0.05872 
224.972534 0.113906 
226.087036 0.092165 
226.933395 27.980658 
227.070312 0.093522 
227.116638 0.03993 
227.243515 0.063889 
227.931702 22.528374 
227.995605 0.720931 
228.102142 0.165026 
228.138138 0.052487 
229.0867 0.176938 
229.121964 0.062563 
229.92041 2.602851 
230.033691 0.06055 
230.918365 5.150227 
230.94455 0.018482 
231.101685 0.369164 
231.915314 0.020734 
232.09671 0.4243 
232.132858 0.083493 
233.891785 0.059083 
235.967834 0.017558 
238.034164 0.024031 
240.581757 0.032113 
240.909409 0.758196 
241.086502 0.052864 
242.105743 0.10499 
242.118118 0.390274 
242.929596 0.027093 
243.101044 0.028153 
243.990143 0.024934 
244.096802 0.146948 
244.925003 0.960479 
244.944183 58.519299 
244.983047 0.067155 
245.047333 0.128493 
245.080658 0.32629 
245.116928 0.115996 
245.942413 97.210999 
246.005768 0.222696 
246.112442 0.607962 
246.149353 0.119135 
246.935913 0.195298 
247.096771 0.493996 
247.133224 0.022499 
248.929153 1.290965 
250.894806 0.111886 
255.063751 0.050056 
256.097107 0.074913 
257.117554 0.068685 
258.112457 0.237647 
258.939209 0.167983 
258.959167 0.116415 
259.09671 0.595893 
259.958038 0.240821 
260.128632 0.271916 
260.991791 0.082956 
261.113647 0.022045 
262.934875 0.301316 
262.954498 1.344469 
263.90152 0.533449 
263.952881 10.612324 
264.016541 0.027286 
264.946625 0.689666 
267.961823 0.02204 
268.299377 0.033326 
268.835785 0.041534 
271.071442 0.057178 
272.128784 0.060417 
274.106079 0.032675 
274.144012 1.462481 
274.893158 0.043786 
277.118164 0.056586 
278.876404 0.022476 
279.345581 0.031005 
279.916901 0.23658 
279.957092 0.06063 
280.814484 0.058072 
281.912048 4.950287 
286.107666 0.101303 
286.141968 0.025125 
286.213837 0.023459 
287.102997 2.320026 
287.125458 2.905242 
287.961761 0.029082 
288.106598 0.117853 
288.124023 1.261664 
289.107391 0.021454 
290.072266 1.037524 
291.888611 0.035847 
295.927124 0.091952 
297.816437 0.089838 
302.136261 0.451931 
302.19342 0.069621 
302.247925 0.018835 
302.282532 0.050955 
302.990295 0.048973 
303.050049 0.534291 
303.097656 0.21972 
303.136414 0.174939 
303.168274 0.771244 
303.209076 0.046228 
304.152069 85.276817 
304.299957 100.0 
304.926788 0.61741 
305.095947 0.237184 
305.116241 0.017269 
305.156281 25.012339 
305.186096 0.134982 
305.303314 22.429283 
305.908691 0.022056 
305.97345 0.058565 
306.009003 0.090394 
306.114868 0.047347 
306.134155 0.259915 
306.158936 1.730114 
306.306946 0.75343 
313.107422 0.048349 
314.457062 0.04832 
318.832397 0.017855 
321.533234 0.026418 
322.824341 0.021298 
323.983612 0.043671 
324.910126 0.051545 
327.825317 0.024857 
329.388062 0.058645 
END IONS

