BEGIN IONS
TITLE=Scan Number: 1280
PEPMASS=291.125
CHARGE=1+
COMPOUNDNAME="a,b-Dehydrocurvularin_120247"
LIBRARYQUALITY=2
SMILES=O=C1O[C@@H](C)CCC/C=C\C(C2=C(O)C=C(O)C=C2C1)=O
INCHIKEY=AVIRMQMUBGNCKS-OAQKJQOQSA-N
INCHI=N/A
MSLEVEL=2
SOURCE_INSTRUMENT=LC-ESI-qToF
FILENAME=P1_C2_conc_GA2_01_2408.mzXML
SEQ=*..*
NOTES=
IONMODE=Positive
ORGANISM=GNPS-LIBRARY
NAME="a,b-Dehydrocurvularin_120247" M+H
SPECTRUMID=CCMSLIB00000478085
ACTIVATION=CID
INSTRUMENT=ion trap
SCANS=1280
91.054626 548.0 
93.069511 572.0 
95.048271 488.0 
95.085236 8152.0 
96.089371 844.0 
103.055214 708.0 
105.069382 1384.0 
107.048653 1256.0 
111.044395 1340.0 
115.053764 648.0 
117.066704 424.0 
119.048187 1540.0 
121.029549 2068.0 
121.063141 924.0 
122.037163 348.0 
123.04422 19780.0 
123.080429 23560.0 
124.047989 1668.0 
124.082382 1520.0 
125.056732 580.0 
125.094383 456.0 
128.064102 412.0 
129.068878 476.0 
131.049332 1616.0 
131.080811 384.0 
132.055878 324.0 
133.064987 668.0 
134.03421 252.0 
135.044434 1108.0 
135.077423 564.0 
136.046738 260.0 
136.964447 608.0 
137.060089 672.0 
141.090515 5196.0 
142.07254 568.0 
143.048416 560.0 
145.063812 1080.0 
147.043976 2116.0 
147.08136 420.0 
148.050873 612.0 
149.02243 604.0 
149.059586 8312.0 
150.025116 260.0 
150.064545 796.0 
151.038651 9252.0 
152.04097 632.0 
152.95047 444.0 
153.055054 1624.0 
155.0522 536.0 
157.064514 1436.0 
157.102448 468.0 
159.04567 1312.0 
159.080353 564.0 
160.050247 1368.0 
161.058838 7156.0 
162.063141 1064.0 
163.039795 2944.0 
163.075241 3012.0 
164.045227 588.0 
164.07373 416.0 
165.054932 1880.0 
167.033829 38736.0 
168.037125 3352.0 
169.049377 14900.0 
170.052933 1848.0 
171.054764 636.0 
172.051407 360.0 
173.058884 1736.0 
174.063492 408.0 
175.038925 4540.0 
175.075287 2160.0 
176.04422 2012.0 
176.078293 612.0 
177.018677 1032.0 
177.05426 27780.0 
178.056961 3216.0 
179.033356 1920.0 
180.034195 484.0 
181.049515 2252.0 
182.047363 396.0 
185.057968 1308.0 
185.093109 672.0 
186.064087 696.0 
187.044891 1440.0 
187.073563 1092.0 
188.046219 572.0 
188.079453 448.0 
189.054825 19112.0 
190.061584 5360.0 
191.068451 3380.0 
192.073273 820.0 
193.04921 38760.0 
193.334991 280.0 
194.05278 3460.0 
195.028427 15104.0 
195.058136 1332.0 
196.032135 1808.0 
197.033005 448.0 
197.054764 352.0 
198.06575 1284.0 
199.072418 1788.0 
199.109833 292.0 
200.042358 372.0 
201.053345 940.0 
201.093216 572.0 
202.097931 272.0 
203.032837 1328.0 
203.069565 3556.0 
203.104462 1056.0 
204.075836 660.0 
205.048691 12288.0 
206.052902 1848.0 
207.065414 856.0 
210.099121 256.0 
211.069656 956.0 
212.08136 1148.0 
213.054016 448.0 
213.089417 864.0 
214.059708 836.0 
214.980042 276.0 
215.067856 892.0 
217.046448 856.0 
217.083633 356.0 
217.117233 892.0 
218.053329 540.0 
218.126892 316.0 
219.06517 2908.0 
220.071609 364.0 
221.042984 4692.0 
222.045258 620.0 
223.052704 260.0 
227.065323 468.0 
227.105209 3052.0 
228.109283 988.0 
229.082291 352.0 
229.120682 344.0 
231.06395 1984.0 
231.102051 1412.0 
232.070404 440.0 
232.103226 360.0 
233.076996 320.0 
237.089401 684.0 
240.078659 504.0 
245.116653 6804.0 
246.121582 732.0 
247.127441 400.0 
249.071991 536.0 
249.112213 1432.0 
250.120605 428.0 
252.54454 256.0 
255.100571 2860.0 
256.104248 756.0 
263.130066 428.0 
273.111511 28764.0 
274.1138 3868.0 
275.118988 264.0 
291.122284 28332.0 
292.123871 4072.0 
293.12735 1112.0 
END IONS

