BEGIN IONS
PEPMASS=271.061
CHARGE=1+
COMPOUNDNAME=naringenin
LIBRARYQUALITY=3
SMILES=N/A
INCHIKEY=FTVWIRXFELQLPI-UHFFFAOYSA-N
INCHI=InChI=1S/C15H12O5/c16-9-3-1-8(2-4-9)13-7-12(19)15-11(18)5-10(17)6-14(15)20-13/h1-6,13,16-18H,7H2
MSLEVEL=2
SOURCE_INSTRUMENT=N/A-ESI-QTOF
FILENAME=library_mgf.mgf
SEQ=*..*
IONMODE=negative
ORGANISM=MONA
NAME=naringenin [M-H]-
PI=MoNA
DATACOLLECTOR=MoNA:VF-NPL-QTOF000576
PUBMED=N/A
SUBMITUSER=mwang87
TAGS=
SPECTRUMID=CCMSLIB00004718123
SCANS=573
39.016701 0.408485 
40.993198 0.432519 
40.997601 0.373717 
63.014599 7.627325 
63.018101 1.595117 
63.060501 0.514312 
64.994301 13.949472 
65.029503 0.341479 
65.064796 0.304024 
83.003197 12.037493 
83.038101 0.433271 
83.062599 0.418731 
83.088699 0.290148 
93.0243 14.540261 
93.111298 0.44496 
107.0028 31.979147 
107.055298 0.348193 
107.065498 0.798605 
107.078598 0.302679 
107.088501 0.448901 
107.094597 0.393967 
107.120201 0.343614 
107.128304 0.327941 
107.153702 0.410397 
107.183998 0.345022 
107.257103 0.27704 
108.005898 0.349694 
108.979897 0.519396 
109.015602 0.326236 
117.024399 0.482303 
119.038597 89.590591 
119.109703 0.903375 
119.136803 3.680148 
119.163002 0.358453 
119.174301 0.882341 
119.190697 0.997838 
119.215103 0.330642 
119.230301 0.329829 
119.237999 0.774341 
119.261101 0.3233 
119.272102 0.306638 
119.286797 0.51659 
119.334602 0.518073 
119.404999 0.286372 
120.039597 0.849395 
121.0149 0.529818 
121.020699 0.388293 
125.012497 0.80147 
137.015396 0.45116 
143.039001 0.779006 
145.014893 1.570106 
145.023697 0.493453 
150.991699 100.0 
151.069107 1.809089 
151.088593 1.030982 
151.101593 2.138104 
151.128799 0.524341 
151.137802 1.147972 
151.162292 0.615417 
151.172104 0.272468 
151.189301 0.414378 
151.212097 0.927696 
151.250198 0.349452 
151.294693 0.378388 
151.308105 0.314796 
151.319107 0.426933 
151.368805 0.413923 
151.382401 0.297803 
151.414001 0.352779 
151.438095 0.354622 
151.506393 0.425988 
151.586395 0.303836 
151.621002 0.327683 
151.650406 0.27915 
151.693405 0.275867 
151.878204 0.27617 
151.992493 0.290252 
152.0 0.328877 
157.051102 0.401169 
161.048798 1.68549 
165.005493 5.207953 
177.005402 12.194973 
177.059204 0.340028 
177.1987 0.277267 
185.045807 1.364842 
187.024597 2.288476 
203.057205 0.511089 
209.048798 0.408673 
225.048904 0.271601 
227.059906 2.379608 
229.040405 0.910976 
253.042404 0.483758 
271.048309 20.398046 
271.12439 0.382257 
271.148712 0.628076 
271.186798 0.683714 
271.235687 0.397827 
272.053009 0.27461 
END IONS

