BEGIN IONS
PEPMASS=444.42
CHARGE=1+
COMPOUNDNAME=(1R,3aR,5aR,5bR,9S,11aR)-3a,5a,5b,8,8,11a-hexamethyl-1-prop-1-en-2-yl-1,2,3,4,5,6,7,7a,9,10,11,11b,12,13,13a,13b-hexadecahydrocyclopenta[a]chrysen-9-ol
LIBRARYQUALITY=3
SMILES=N/A
INCHIKEY=MQYXUWHLBZFQQO-KIIHVYTKSA-N
INCHI=InChI=1S/C30H50O/c1-19(2)20-11-14-27(5)17-18-29(7)21(25(20)27)9-10-23-28(6)15-13-24(31)26(3,4)22(28)12-16-30(23,29)8/h20-25,31H,1,9-18H2,2-8H3/t20-,21?,22?,23?,24-,25?,27+,28-,29+,30+/m0/s1
MSLEVEL=2
SOURCE_INSTRUMENT=N/A-ESI-QFT
FILENAME=library_mgf.mgf
SEQ=*..*
IONMODE=positive
ORGANISM=MONA
NAME=(1R,3aR,5aR,5bR,9S,11aR)-3a,5a,5b,8,8,11a-hexamethyl-1-prop-1-en-2-yl-1,2,3,4,5,6,7,7a,9,10,11,11b,12,13,13a,13b-hexadecahydrocyclopenta[a]chrysen-9-ol [M+NH4]+
PI=MoNA
DATACOLLECTOR=MoNA:VF-NPL-QEHF009288
PUBMED=N/A
SUBMITUSER=mwang87
TAGS=
SPECTRUMID=CCMSLIB00004700351
SCANS=9288
50.261173 0.023626 
50.317822 0.013961 
50.373093 0.014954 
50.456036 0.01405 
50.479786 0.021863 
50.537411 0.01477 
50.779572 0.014418 
50.943371 0.022465 
51.05698 0.024959 
51.135468 0.02553 
51.346008 0.020351 
51.484234 0.020896 
51.584641 0.013354 
51.867722 0.013533 
51.940781 1.492281 
52.231544 0.017212 
52.575825 0.020531 
52.673553 0.012913 
52.937443 0.015639 
52.940971 0.032457 
53.003071 0.079168 
53.039402 0.698378 
53.08083 0.024834 
53.628654 0.019143 
54.006916 0.015298 
54.144146 0.013701 
54.182598 0.015644 
54.2118 0.014777 
54.544216 0.012517 
54.718285 0.01448 
54.742649 0.014473 
54.853397 0.015662 
55.018654 0.605797 
55.055061 4.625747 
55.253036 0.021708 
55.264603 0.014564 
55.35527 0.014815 
55.921036 0.020588 
56.050327 0.056365 
56.348984 0.014593 
56.84668 0.012824 
56.889969 0.018815 
56.965618 0.61334 
57.034286 1.283948 
57.070705 12.849378 
57.07235 0.051892 
57.823799 0.018038 
57.896595 0.02856 
57.918743 0.017283 
58.001995 0.026158 
58.024303 0.020976 
58.065926 0.429008 
58.07402 0.148827 
58.083126 0.016342 
58.390465 0.023469 
58.616112 0.046517 
58.995625 0.103974 
59.031841 0.028454 
59.049961 5.855597 
59.061207 2.168514 
60.045223 0.134366 
60.053349 0.029894 
60.363277 0.013792 
60.620178 0.012943 
60.783981 0.012262 
61.011372 8.193741 
61.15205 0.020579 
61.938591 0.02618 
62.019279 5.240023 
62.377052 0.021656 
62.503494 0.024135 
62.658726 0.013169 
62.769375 0.013355 
62.783791 0.014104 
62.982529 2.140357 
62.990498 2.089992 
63.026958 0.177702 
63.449265 0.017748 
63.844872 0.013984 
63.998577 0.172633 
64.034134 0.017071 
64.804192 0.023096 
64.812439 0.013956 
65.039368 0.111505 
65.390411 0.022132 
65.961594 0.01954 
66.125809 0.022195 
67.055023 4.464261 
67.468231 0.013161 
67.935661 0.161271 
68.058266 0.014605 
68.06694 0.012349 
68.388863 0.018915 
68.653877 0.024498 
68.943428 0.067618 
69.034241 1.756346 
69.070648 4.201124 
69.193741 0.012982 
69.324028 0.02689 
69.404381 0.019003 
69.474106 0.029577 
69.523399 0.015105 
69.882111 0.01936 
70.065887 0.305557 
70.079849 0.014487 
70.517174 0.013979 
70.523758 0.015156 
70.709579 0.012876 
70.763374 0.020608 
71.049904 2.973316 
71.08625 0.456898 
71.483597 0.013083 
71.865974 0.013703 
72.012772 0.01362 
72.045074 0.047001 
72.546974 0.016018 
72.642914 0.012634 
73.029144 1.45795 
73.047554 32.748383 
73.065514 0.439086 
73.483353 0.015312 
74.044014 0.014683 
74.047096 0.584102 
74.050903 0.244036 
74.118217 0.015817 
74.507317 0.013757 
74.735817 0.014343 
74.876839 0.015238 
75.026825 1.426707 
75.044701 0.052264 
75.162621 0.022883 
75.213737 0.016161 
75.249161 0.013249 
75.631821 0.014662 
75.891525 0.029605 
75.931152 0.024977 
75.942574 0.012977 
76.025398 0.013644 
77.006035 0.660118 
77.042435 0.11753 
77.056259 0.015181 
77.059998 0.050072 
78.504997 0.013356 
78.604118 0.0167 
78.920792 0.021677 
78.956337 0.546471 
79.02179 6.94885 
79.054901 3.351121 
79.280563 0.014807 
79.701279 0.01392 
80.049988 0.023255 
80.058083 0.019882 
80.181755 0.023717 
80.24733 0.020558 
80.954559 0.028288 
81.000923 1.100487 
81.034286 0.021683 
81.070549 6.58988 
81.258255 0.019809 
81.406891 0.029498 
81.669243 0.01525 
82.065735 0.024563 
82.073929 0.12321 
82.318275 0.017174 
82.57547 0.019976 
83.049782 0.451079 
83.086159 1.631533 
83.930618 0.034311 
84.04509 0.119956 
84.081467 0.295217 
84.297668 0.023036 
84.420364 0.013731 
84.904457 0.013694 
84.949303 0.014961 
85.029022 0.3812 
85.065422 0.734582 
86.37928 0.014176 
87.032631 0.018952 
87.044685 21.936632 
87.107422 0.015398 
87.589111 0.013095 
87.692696 0.020389 
88.022591 0.028019 
88.420631 0.015565 
89.060333 8.488889 
89.063217 0.029934 
89.115334 0.01456 
89.606194 0.015601 
90.051262 0.029678 
90.544724 0.016021 
90.795898 0.014579 
90.936287 0.023028 
91.055031 6.669827 
91.057938 100.0 
91.964622 0.398937 
92.057556 3.218175 
92.061234 1.65901 
92.59153 0.015758 
92.962402 0.042152 
92.983337 0.047151 
93.037201 2.893029 
93.070435 9.404858 
93.220383 0.013615 
93.29493 0.014248 
93.712418 0.013434 
93.765053 0.014252 
93.959846 0.071185 
94.073769 0.259794 
94.930191 0.084771 
95.016449 2.493642 
95.049713 2.361944 
95.082802 0.040209 
95.086067 7.364946 
95.322311 0.022989 
95.771019 0.013532 
96.081345 0.021963 
96.089371 0.106016 
96.351738 0.014548 
96.792183 0.022032 
96.825737 0.015963 
96.957794 0.440638 
96.995712 0.357528 
97.065308 0.527216 
97.101669 0.229951 
98.06089 0.038584 
98.097115 0.075598 
98.308197 0.026061 
98.613274 0.015952 
98.975838 0.196105 
99.044571 1.648301 
100.112442 0.015178 
100.283936 0.01512 
101.00367 0.567691 
101.023911 0.071335 
101.041245 0.016812 
101.060112 0.086223 
101.185997 0.012851 
101.94091 0.057021 
102.699577 0.01382 
102.948647 0.168425 
103.039452 2.063333 
103.05471 1.070396 
104.533302 0.03337 
104.670937 0.013321 
104.914551 0.03765 
105.045174 0.948855 
105.070206 5.764894 
105.073662 4.295134 
106.065544 0.076998 
106.073547 0.255382 
106.501724 0.029167 
107.049301 0.460935 
107.052834 0.424734 
107.071114 0.0153 
107.085999 8.238028 
107.20694 0.020272 
107.407494 0.027959 
107.590065 0.018443 
108.080887 0.032351 
108.089279 0.368522 
109.065048 0.608472 
109.068733 0.407493 
109.097557 0.015304 
109.101578 3.417436 
109.328743 0.0143 
109.817604 0.019268 
110.105042 0.019422 
110.162537 0.014868 
110.48481 0.014781 
111.044647 0.090727 
111.080841 0.457779 
111.943604 0.016843 
112.091545 0.014491 
112.134888 0.024855 
112.491592 0.015225 
113.060059 0.189889 
113.186325 0.024992 
113.215134 0.018211 
113.533966 0.015126 
113.629959 0.022965 
113.826706 0.017091 
114.073593 0.279283 
114.682457 0.012672 
114.754387 0.015979 
115.055229 0.204567 
115.250893 0.014533 
115.655067 0.023992 
115.672562 0.015493 
116.148445 0.022868 
116.98632 0.334155 
117.070251 0.912936 
117.254395 0.016575 
118.07814 0.245213 
119.049423 0.301279 
119.085892 7.822402 
119.090385 0.048429 
119.375374 0.015719 
119.941788 0.125499 
119.951347 0.110169 
120.089157 0.361483 
121.065109 4.952077 
121.101463 4.225951 
121.539703 0.021986 
121.60022 0.016494 
121.741577 0.027431 
121.95713 0.176009 
122.068008 0.044059 
122.104889 0.041511 
122.110809 0.017099 
122.349037 0.016737 
122.594627 0.020882 
122.955025 0.023774 
123.08078 0.384526 
123.117096 1.053352 
125.01017 0.024037 
125.096207 0.029328 
125.936119 0.117779 
126.540756 0.016511 
128.06221 0.062444 
128.529388 0.01703 
129.070084 0.459049 
129.588196 0.027675 
130.478424 0.032505 
130.491653 0.019112 
131.049271 0.02634 
131.070297 0.097043 
131.085678 2.010783 
131.226318 0.015761 
131.54422 0.015626 
131.961731 0.013844 
132.080994 0.019155 
132.088608 0.025326 
132.610489 0.016448 
133.05899 0.019505 
133.064972 0.411185 
133.085938 0.023566 
133.101364 5.547497 
133.10704 0.02783 
134.068375 0.045971 
134.104492 0.21191 
134.978973 0.197776 
134.996658 0.302035 
135.080551 0.458773 
135.116974 4.012539 
136.120392 0.08952 
136.825851 0.015358 
136.958435 0.017987 
137.011948 0.09026 
137.096268 0.046044 
137.460403 0.023523 
138.415665 0.020307 
139.162582 0.013274 
139.736328 0.015063 
141.73465 0.014 
142.077454 0.01829 
143.085693 1.085937 
143.997116 0.015937 
144.093719 0.045139 
144.958862 0.875611 
145.06572 0.024904 
145.101318 2.847708 
145.369827 0.026286 
146.104736 0.068746 
146.95665 0.03521 
146.974548 1.885491 
147.080536 0.829526 
147.116959 3.082233 
147.122787 0.030482 
148.12056 0.082356 
148.412994 0.026903 
148.925674 0.303117 
148.972305 0.022971 
149.045029 7.013806 
149.096329 0.114888 
149.132706 1.166367 
149.695953 0.018894 
149.803589 0.018102 
149.958252 0.014644 
150.043976 0.032363 
150.067719 0.953186 
150.472717 0.018384 
150.539688 0.033119 
150.968933 0.016041 
151.111954 0.09994 
152.952271 0.019036 
152.989502 0.341978 
153.960251 0.020448 
154.968521 0.01539 
155.085464 0.020281 
155.143829 0.02702 
155.557556 0.026264 
156.31694 0.032695 
157.011246 0.05212 
157.101379 0.995389 
157.597336 0.016352 
157.73938 0.025148 
159.116943 2.596283 
159.170792 0.017006 
159.728195 0.01528 
160.120346 0.027745 
160.168198 0.013692 
160.972656 0.034945 
161.096405 0.218034 
161.132629 1.438381 
161.60788 0.013912 
162.617081 0.016032 
162.951508 0.055874 
162.968994 0.017539 
163.111725 0.054615 
163.147949 0.05648 
163.788635 0.015311 
164.751526 0.014735 
164.9207 0.616082 
164.93129 0.01885 
164.967499 0.017281 
167.055573 20.371912 
167.211014 0.018118 
168.055222 0.593982 
168.771591 0.01667 
169.034912 0.695134 
169.101578 0.069778 
169.549438 0.016873 
170.109589 0.04293 
170.784439 0.013904 
170.963333 0.037091 
171.117035 0.483056 
171.802917 0.014672 
172.035095 0.024363 
172.634262 0.016564 
173.005997 0.022137 
173.132629 0.70627 
173.27034 0.022572 
173.493164 0.020591 
173.790787 0.016489 
173.895218 0.017629 
174.135742 0.022998 
174.383972 0.025553 
175.11084 0.052806 
175.148285 0.46563 
175.689636 0.017619 
176.095306 0.026109 
176.915039 0.018548 
177.060593 0.022292 
177.128113 0.076284 
177.315155 0.018387 
177.99295 0.025009 
179.084763 0.030717 
179.425598 0.015637 
179.558792 0.017828 
179.954407 0.16974 
180.129242 0.014851 
180.418015 0.014669 
180.894577 0.159126 
181.071671 0.028723 
181.101593 0.031279 
181.897308 0.020347 
182.261185 0.01723 
183.055298 0.01713 
183.117355 0.021434 
183.792862 0.021668 
185.132553 0.535466 
187.148331 0.404226 
188.974319 0.028298 
189.164032 1.028377 
191.136307 0.020439 
193.67276 0.013812 
194.925018 0.080248 
196.447205 0.015834 
197.113312 0.015967 
197.13269 0.152275 
198.091568 0.022837 
199.148178 0.052211 
199.220428 0.03214 
201.164185 0.022842 
201.693222 0.020552 
202.295944 0.014015 
203.143417 0.577259 
203.179443 0.021379 
205.040421 0.016586 
206.978027 1.027626 
207.176331 0.019995 
207.875717 0.029371 
209.011902 0.904722 
209.133545 0.019516 
209.411667 0.022644 
209.891922 0.085138 
212.094162 0.031969 
212.93605 0.046309 
217.566132 0.019918 
217.861938 0.015754 
218.63649 0.021619 
218.644836 0.018003 
218.86879 0.675762 
220.279022 0.372916 
220.304749 0.030219 
220.311539 0.046629 
220.88382 0.016333 
221.901794 0.017221 
222.898453 0.071148 
223.027206 0.025133 
223.611267 0.02545 
224.43045 0.016045 
224.878113 0.019103 
225.043121 15.653759 
225.432114 0.014392 
225.886581 0.052337 
226.043533 1.357735 
227.022308 9.868065 
227.363083 0.014209 
228.022308 0.623986 
228.889236 0.221602 
229.001816 0.060156 
229.711807 0.013975 
229.890976 0.028893 
230.713165 0.021748 
230.933762 0.186126 
231.758728 0.017645 
231.89679 0.031181 
232.884232 0.026602 
233.891647 2.045668 
234.899994 0.161272 
236.18132 0.015712 
236.759979 0.024975 
237.552017 0.015166 
238.702667 0.01871 
238.914444 0.026391 
238.967896 0.028092 
240.731003 0.014641 
240.909561 0.408587 
241.037888 0.034249 
242.096344 0.027645 
242.601196 0.02839 
242.891113 0.024305 
244.490372 0.015773 
244.872879 0.425957 
245.892151 0.015535 
247.907593 0.061693 
248.243866 0.01501 
248.878098 0.044934 
250.459213 0.015491 
250.702026 0.016425 
250.894547 0.158655 
251.901978 0.033659 
254.028366 0.025175 
255.951157 0.025481 
258.116211 0.01501 
258.456512 0.013988 
260.903992 0.246955 
262.406921 0.016859 
262.883331 0.488402 
262.904938 0.221381 
263.902557 0.299567 
266.889618 0.063074 
266.999359 2.170948 
267.998627 0.165985 
268.978485 3.141682 
269.129852 0.015842 
269.213165 0.028355 
269.978546 0.13783 
270.152374 0.024071 
275.531097 0.024384 
275.902527 0.756091 
276.901123 0.028049 
280.849976 0.015165 
282.412384 0.028951 
283.030487 1.08108 
285.009979 0.378422 
285.182312 0.015127 
285.331238 0.035797 
287.631134 0.014163 
287.877136 0.022967 
291.984833 0.018458 
297.878632 0.027256 
298.419495 0.015419 
299.062561 0.038073 
301.961609 0.023651 
302.82016 0.025843 
309.202332 0.015361 
312.234253 0.015368 
312.94928 0.027907 
313.544434 0.022996 
314.998779 0.014854 
317.692108 0.015826 
324.34552 0.018597 
324.461151 0.015235 
324.986694 2.272442 
325.987427 0.094954 
326.966675 0.023568 
331.978638 0.014279 
333.026672 0.01464 
334.198151 0.018269 
335.319733 0.013909 
342.997162 5.876566 
343.99765 0.950014 
344.728424 0.019893 
344.827942 0.016649 
357.632904 0.014688 
362.120544 0.01812 
369.900879 0.029207 
370.110413 0.021047 
370.142029 0.023994 
370.505066 0.014106 
379.237091 0.017023 
388.737518 0.014347 
399.168823 0.028979 
400.862427 0.024799 
403.044403 0.014639 
406.496582 0.024229 
406.912384 0.015653 
419.056274 0.017334 
420.294312 0.02792 
421.555603 0.020778 
425.95755 0.015371 
443.59079 0.016432 
446.830811 0.024442 
447.34726 0.654075 
447.427979 0.026161 
448.352448 0.053604 
448.739441 0.016195 
456.933594 0.01606 
459.70697 0.021751 
460.244995 0.022095 
460.617188 0.023893 
467.594879 0.015601 
471.453308 0.015434 
471.654785 0.015519 
END IONS

