BEGIN IONS
PEPMASS=312.0
CHARGE=1+
COMPOUNDNAME=MoNA:2452421 Blasticidin S
LIBRARYQUALITY=3
SMILES=N/A
INCHIKEY=CXNPLSGKWMLZPZ-UHFFFAOYSA-N
INCHI=InChI=1S/C17H26N8O5/c1-24(16(20)21)6-4-9(18)8-12(26)22-10-2-3-13(30-14(10)15(27)28)25-7-5-11(19)23-17(25)29/h2-3,5,7,9-10,13-14H,4,6,8,18H2,1H3,(H3,20,21)(H,22,26)(H,27,28)(H2,19,23,29)
MSLEVEL=2
SOURCE_INSTRUMENT=LC-ESI-IT-LC-ESI-IT
FILENAME=output_mgf.mgf
SEQ=*..*
IONMODE=
ORGANISM=MONA
NAME=MoNA:2452421 Blasticidin S [M+H]+
PI=MoNA
DATACOLLECTOR=MoNA
PUBMED=N/A
SUBMITUSER=mwang87
TAGS=
SPECTRUMID=CCMSLIB00000567278
SCANS=4529
68.2 2.161944 
80.2 0.572841 
81.1 6.932437 
96.1 17.827023 
98.0 0.539956 
106.0 2.491858 
123.1 0.848653 
124.0 100.0 
130.1 0.169731 
141.9 3.986549 
150.0 0.180339 
176.1 0.23338 
178.0 0.541016 
204.0 3.289592 
222.0 3.774386 
END IONS

