BEGIN IONS
PEPMASS=271.061
CHARGE=1+
COMPOUNDNAME=naringenin
LIBRARYQUALITY=3
SMILES=N/A
INCHIKEY=FTVWIRXFELQLPI-ZDUSSCGKSA-N
INCHI=InChI=1S/C15H12O5/c16-9-3-1-8(2-4-9)13-7-12(19)15-11(18)5-10(17)6-14(15)20-13/h1-6,13,16-18H,7H2/t13-/m0/s1
MSLEVEL=2
SOURCE_INSTRUMENT=N/A-ESI-QTOF
FILENAME=library_mgf.mgf
SEQ=*..*
IONMODE=negative
ORGANISM=MONA
NAME=naringenin [M-H]-
PI=MoNA
DATACOLLECTOR=MoNA:VF-NPL-QTOF002116
PUBMED=N/A
SUBMITUSER=mwang87
TAGS=
SPECTRUMID=CCMSLIB00004719912
SCANS=2113
39.0261 1.657303 
41.0056 6.222333 
51.026299 0.141832 
59.016499 0.211136 
63.0266 23.91601 
63.092098 0.110973 
63.0966 0.565115 
63.101601 0.1114 
63.1222 0.115608 
63.126499 0.127896 
63.145 0.122479 
63.173 0.119278 
65.005898 39.505398 
65.076401 0.899425 
65.096603 0.117229 
65.101196 0.418735 
65.108498 0.152868 
65.119301 0.220543 
65.141098 0.137681 
65.1455 0.164756 
65.164101 0.128463 
65.208099 0.158594 
66.007797 0.22303 
67.021301 0.333904 
69.000504 1.55107 
69.004097 0.23215 
77.040703 0.16989 
79.020897 0.199957 
80.026001 0.185486 
80.029701 0.30356 
81.033501 0.206125 
83.016296 14.10735 
83.093803 0.365137 
83.0979 0.204259 
83.119102 0.112899 
83.128502 0.121283 
89.003502 0.222 
89.040901 0.232463 
91.057198 0.795903 
91.990196 0.121781 
91.994698 0.204481 
93.037003 9.498111 
93.1213 0.206433 
95.013603 0.312015 
95.017899 0.322621 
104.029099 0.120621 
107.0159 10.473518 
107.102097 0.165679 
107.109497 0.16403 
108.023102 1.015716 
109.0317 0.729664 
115.056 0.422801 
117.036697 3.536239 
119.052498 100.0 
119.146896 2.320724 
119.152901 0.524421 
119.179802 0.328055 
119.1959 0.131562 
119.213303 0.143754 
119.255402 0.128739 
119.281303 0.138814 
119.289803 0.152346 
119.327599 0.114658 
119.339699 0.114777 
119.347504 0.138137 
119.410698 0.123635 
119.419601 0.13108 
119.468498 0.123756 
119.7612 0.123779 
120.050301 0.202399 
120.055397 0.814315 
121.031898 0.919842 
123.0093 0.126439 
125.0205 0.114967 
133.030701 0.562575 
133.062103 0.112558 
136.015793 0.301045 
137.026794 0.356928 
142.044006 0.202651 
143.0522 2.133654 
145.031906 1.79871 
151.005798 2.847236 
155.050797 0.122898 
156.057297 0.271208 
156.063797 0.173472 
157.067398 0.208279 
159.049103 0.148572 
161.062897 1.088222 
165.0215 0.385643 
167.050903 0.347737 
177.020996 0.673994 
185.061005 0.46473 
187.041702 2.152131 
201.055405 0.2388 
END IONS

