BEGIN IONS
PEPMASS=1439.78
CHARGE=1+
COMPOUNDNAME=BACITRACIN
LIBRARYQUALITY=3
SMILES=N/A
INCHIKEY=CLKOFPXJLQSYAH-NVOBBBONSA-N
INCHI=InChI=1S/C66H103N17O16S/c1-9-35(6)52(69)66-81-48(32-100-66)63(97)76-43(26-34(4)5)59(93)74-42(22-23-50(85)86)58(92)83-53(36(7)10-2)64(98)75-40-20-15-16-25-71-55(89)46(29-49(68)84)78-62(96)47(30-51(87)88)79-61(95)45(28-39-31-70-33-72-39)77-60(94)44(27-38-18-13-12-14-19-38)80-65(99)54(37(8)11-3)82-57(91)41(21-17-24-67)73-56(40)90/h12-14,18-19,31,33-37,40-48,52-54H,9-11,15-17,20-30,32,67,69H2,1-8H3,(H2,68,84)(H,70,72)(H,71,89)(H,73,90)(H,74,93)(H,75,98)(H,76,97)(H,77,94)(H,78,96)(H,79,95)(H,80,99)(H,82,91)(H,83,92)(H,85,86)(H,87,88)/t35?,36?,37?,40-,41+,42+,43-,44+,45-,46-,47+,48?,52?,53-,54-/m0/s1
MSLEVEL=2
SOURCE_INSTRUMENT=N/A-ESI-QFT
FILENAME=library_mgf.mgf
SEQ=*..*
IONMODE=positive
ORGANISM=MONA
NAME=BACITRACIN [M+NH4]+
PI=MoNA
DATACOLLECTOR=MoNA:VF-NPL-QEHF027778
PUBMED=N/A
SUBMITUSER=mwang87
TAGS=
SPECTRUMID=CCMSLIB00004721359
SCANS=27778
101.107414 0.488824 
101.110634 0.010487 
102.055061 6.999012 
102.058968 0.099288 
102.091393 0.048325 
103.054314 0.32475 
103.058327 0.334993 
103.846512 0.015224 
105.069923 0.020628 
107.060509 0.029278 
108.055679 0.10333 
108.080803 0.062494 
108.823906 0.007523 
109.063667 0.084973 
109.076057 0.160112 
109.756546 0.016424 
110.071274 100.0 
110.096146 0.351838 
110.726158 0.014949 
111.055313 0.128644 
111.068382 1.205257 
111.074623 6.390687 
111.09169 2.219712 
112.0755 0.858403 
112.086937 0.376021 
112.095161 0.082827 
112.111977 0.138077 
113.071144 0.068517 
113.107315 0.621477 
114.091782 0.070825 
114.102654 0.442312 
115.054321 0.013571 
115.08667 7.964629 
115.091179 0.123188 
115.122986 0.032757 
116.070694 0.278113 
116.089912 0.435965 
116.955513 0.012878 
118.429649 0.012902 
119.060616 0.020739 
119.277443 0.014315 
119.976913 0.011255 
120.055809 0.244963 
120.080833 7.697052 
120.153709 0.011628 
120.158791 0.012263 
120.437302 0.011299 
121.039719 0.350145 
121.076088 0.015325 
121.084137 0.631792 
122.059868 0.047559 
122.071289 0.867845 
122.475891 0.010176 
123.055336 0.63913 
123.091667 0.141401 
124.039177 0.019264 
124.075806 0.03876 
124.086952 0.403441 
124.112083 0.136303 
125.070946 0.30096 
125.107346 0.258647 
125.896179 0.009769 
126.066177 0.071461 
126.110542 0.011728 
127.050293 0.055432 
127.086639 0.309487 
127.122581 0.01219 
128.118164 0.099403 
129.012878 0.011359 
129.065689 0.213103 
129.102219 26.317621 
130.04985 0.3471 
130.059875 0.013084 
130.065262 0.254788 
130.086243 0.153663 
130.099869 0.173548 
130.105499 2.065123 
131.027008 0.048585 
131.068588 0.012793 
131.117828 0.534878 
132.080734 0.06226 
133.063629 0.054981 
134.071274 0.038224 
134.09642 0.013934 
135.09166 0.450353 
136.050537 0.044695 
136.075775 0.80038 
136.087006 2.038476 
136.112167 0.067208 
136.708542 0.016836 
137.071106 0.195739 
137.083252 0.01321 
137.090256 0.083988 
137.107269 0.95994 
138.066238 4.624105 
138.091293 0.09389 
138.102432 0.093314 
138.127716 1.02574 
139.050537 0.018709 
139.06955 0.275608 
139.086594 7.226164 
139.123001 0.168284 
139.131012 0.013368 
139.440414 0.013418 
140.084213 0.056607 
140.08992 0.606071 
140.107071 0.146773 
140.118134 0.147328 
140.143356 0.118201 
141.102295 0.869669 
142.06131 0.013348 
142.06842 0.106306 
142.097565 0.037081 
143.027557 0.007568 
143.045197 0.397825 
143.064331 0.017454 
143.081512 0.250346 
143.790665 0.009575 
146.096451 0.075284 
146.12883 2.028483 
147.09201 0.010147 
147.113052 0.071171 
147.131989 0.055144 
148.050674 0.050669 
148.06044 0.014571 
148.086929 0.326329 
149.082596 0.027982 
149.107315 0.082888 
150.054672 0.013133 
150.065948 0.023545 
150.090942 0.020199 
151.086548 0.151211 
151.122986 0.039573 
152.08194 0.01522 
152.107071 0.143043 
152.118454 0.047905 
152.143433 0.461267 
153.102295 0.89314 
153.108917 0.016403 
153.138977 0.061748 
154.061142 0.225666 
154.068176 0.046873 
154.086044 0.030509 
154.122711 0.077901 
154.133896 0.460435 
154.159012 0.499187 
155.063782 0.012784 
155.092682 4.410332 
155.099686 0.022783 
155.117767 1.364335 
156.076706 2.422786 
156.096161 0.24443 
156.102386 0.065096 
156.113159 2.800235 
156.120285 0.117668 
157.060486 0.026823 
157.07991 0.136838 
157.097198 0.368133 
157.116516 0.118923 
157.132858 0.011243 
157.450638 0.01363 
158.147949 0.013802 
159.091568 0.140889 
160.086609 0.00654 
162.066147 0.270977 
162.102554 2.763622 
163.074722 0.013763 
163.086563 2.600733 
163.098068 0.316748 
163.105698 0.190642 
163.12294 0.244614 
164.070557 2.376049 
164.082138 1.175051 
164.089401 0.18689 
164.108337 0.013218 
164.118332 0.306797 
164.125214 0.012992 
165.077332 1.860888 
165.084518 0.018994 
165.102341 1.039789 
165.113602 0.162172 
165.138687 0.361779 
166.061111 8.206147 
166.086685 0.050827 
166.097656 0.163614 
166.105652 0.032804 
166.12294 0.155253 
166.133789 0.255932 
167.045166 0.031056 
167.057602 0.041046 
167.064453 0.72981 
167.081528 1.040518 
167.117813 0.444283 
167.154312 0.325359 
168.101929 0.361463 
168.11351 0.054844 
168.138092 0.015427 
168.149673 0.126568 
169.079041 0.013887 
169.097198 0.083323 
169.133484 0.44148 
170.05661 0.017797 
170.117416 0.043206 
171.095032 0.05539 
171.113007 0.022699 
172.079025 0.171313 
172.097321 0.023204 
172.112137 0.372333 
174.066254 0.03657 
174.103363 0.016065 
174.128082 0.013731 
175.086716 0.336671 
175.412292 0.012893 
176.082581 0.034605 
176.118408 1.023424 
177.121719 0.016306 
177.138535 1.243455 
178.09787 0.023277 
178.133881 1.64112 
178.141663 0.152917 
179.081909 0.030046 
179.092957 0.17082 
179.118027 0.645743 
179.137024 0.036322 
179.154266 0.103842 
180.076736 0.6487 
180.113129 1.185301 
180.121109 0.034131 
180.149628 0.362183 
181.097229 10.203391 
181.108261 6.053302 
181.133362 1.51264 
181.170029 0.080328 
182.081253 0.222988 
182.100754 1.075633 
182.111801 0.492952 
182.128845 0.245091 
182.137115 0.090849 
182.165237 1.593822 
183.087479 0.112594 
183.10434 0.032591 
183.11293 1.501615 
183.149231 3.157851 
183.168884 0.066125 
184.072113 0.015933 
184.098587 0.022084 
184.108124 0.487476 
184.11647 0.067723 
184.152649 0.283716 
184.180954 0.325441 
184.455093 0.011082 
185.055679 1.17891 
185.074265 0.335051 
185.092133 0.353614 
185.128708 0.036998 
185.622818 0.01155 
186.058807 0.065274 
186.127716 0.349525 
186.159775 0.034981 
187.089737 0.615694 
188.143463 0.619594 
189.077332 0.102889 
189.10495 0.197555 
189.113541 0.562713 
189.138748 0.015643 
189.145905 0.025106 
190.061081 0.347447 
190.09758 0.540411 
190.133774 0.296139 
190.160736 0.01296 
191.081879 0.57539 
191.092728 2.153968 
191.101456 0.078338 
191.117798 1.142778 
192.050003 0.015889 
192.076752 0.158333 
192.096161 0.091812 
192.113037 0.164005 
192.149384 0.729803 
193.071838 0.098792 
193.097504 0.226607 
193.107635 0.079087 
193.133575 4.144479 
193.143295 0.036918 
193.153702 0.018955 
194.092453 0.208717 
194.119202 0.007015 
194.128525 0.231457 
194.137283 0.453749 
194.165329 0.302015 
195.040253 0.184427 
195.076416 0.070397 
195.11293 0.393251 
195.123215 0.012408 
195.149384 0.343018 
196.043976 0.205149 
196.108276 0.148113 
196.144394 1.340087 
196.180847 1.083763 
197.074356 0.984565 
197.09169 0.012329 
197.11116 0.036319 
197.12851 2.33203 
197.148056 0.03317 
197.164734 0.951384 
197.184158 0.043928 
198.058807 0.109203 
198.078186 0.036767 
198.123657 14.55086 
198.159668 0.087623 
198.168823 0.038622 
199.072189 0.080734 
199.089981 4.49322 
199.107117 1.203335 
199.117798 0.016288 
199.127335 1.742031 
199.143784 0.036847 
199.181137 0.019436 
200.037521 0.02202 
200.074234 0.064325 
200.093292 0.499963 
200.110901 0.021075 
200.129303 0.066034 
200.139984 0.015019 
200.175858 0.771206 
201.086014 0.114876 
201.123352 0.154947 
202.082291 0.672645 
203.066544 0.015751 
203.0849 0.017364 
203.129059 0.050612 
203.154297 0.017003 
204.113815 0.097724 
204.15007 0.007742 
205.097321 0.01922 
205.108597 0.018912 
205.133713 0.069167 
205.144547 0.033805 
206.103897 0.046601 
206.128906 0.527288 
206.165344 1.486871 
207.087524 1.392085 
207.112854 0.402683 
207.124008 4.873486 
207.149109 0.758835 
207.159714 0.151289 
207.172577 0.246339 
208.071777 0.457973 
208.091278 0.031934 
208.108063 2.326041 
208.127487 0.51769 
208.144394 2.288647 
208.180923 0.772798 
209.074768 0.016086 
209.092361 1.443716 
209.102631 0.166881 
209.112167 0.102541 
209.128616 1.366054 
209.148026 0.222603 
209.165024 0.147351 
209.185257 0.016474 
210.086884 0.096083 
210.096375 0.015951 
210.123596 0.642938 
210.160049 10.794207 
211.054321 0.017605 
211.10791 0.27013 
211.126648 0.170126 
211.144333 1.89266 
211.163467 1.531831 
212.03714 0.015185 
212.06665 0.529162 
212.102768 0.10601 
212.105011 0.136702 
212.118286 5.416463 
212.14827 0.136036 
212.164764 0.015888 
213.050644 0.675286 
213.069168 0.741653 
213.087631 0.016803 
213.103745 0.016765 
213.121948 0.961726 
213.140503 0.01811 
214.053391 0.890137 
214.100967 0.029077 
214.13472 0.022888 
214.155106 0.466294 
215.085052 0.476243 
215.13916 3.444008 
215.151505 0.073526 
216.114868 0.010586 
216.142426 0.34589 
217.072113 0.468967 
217.098969 0.44239 
217.109192 0.521603 
217.133652 0.722845 
217.144104 0.049512 
217.169815 0.14296 
218.056259 0.07893 
218.128204 0.069247 
218.16507 0.060666 
219.124176 0.011725 
219.1492 0.377266 
220.108109 0.010655 
220.144348 0.308277 
220.180847 2.41798 
221.077637 0.344522 
221.128418 0.152985 
221.139709 0.555866 
221.16452 0.047347 
221.188461 0.67059 
222.102982 0.15652 
222.124039 0.164601 
222.160278 0.182378 
222.196625 1.427651 
223.107712 0.0922 
223.126877 0.013359 
223.144394 0.080565 
223.155136 0.031129 
223.180679 0.17058 
223.200195 0.09312 
224.085541 0.012826 
224.118454 1.52048 
224.139069 1.336409 
224.175598 1.043078 
225.069443 1.564552 
225.098145 1.638915 
225.123215 1.035161 
225.134979 1.142308 
225.15979 0.168662 
225.171082 0.851023 
226.072678 0.078479 
226.106842 0.12726 
226.118439 2.907892 
226.137726 0.089599 
226.154846 1.390136 
226.174408 0.036557 
227.084961 4.16701 
227.103027 0.180577 
227.121948 0.320595 
227.138962 0.093164 
227.149902 0.064383 
227.159592 0.042755 
227.18631 0.034883 
228.088287 0.461382 
228.134659 0.109406 
228.15863 0.028434 
228.170761 4.435445 
229.08078 0.107394 
229.117935 0.052345 
229.132248 0.08708 
229.155075 0.098931 
229.174194 0.613904 
230.077133 2.863588 
231.061707 0.085909 
231.080215 0.149317 
231.124146 0.106477 
231.149414 0.771422 
232.083237 0.01467 
232.1436 0.018985 
232.180588 0.032223 
233.09201 0.03979 
233.128662 0.05794 
233.164917 3.140645 
234.098694 1.381656 
234.123856 0.535664 
234.135498 0.051924 
234.158661 1.279714 
234.171463 0.017048 
234.196365 0.032574 
235.082611 11.466293 
235.104645 0.062776 
235.119034 0.032928 
235.144058 0.56579 
235.155685 0.393798 
236.066849 0.637476 
236.085999 1.401582 
236.102844 0.504796 
236.139008 1.016942 
236.175751 0.583586 
237.06958 0.030273 
237.086624 0.147369 
237.098541 0.586842 
237.122162 0.010453 
237.143158 0.039564 
237.159348 0.040124 
237.170868 0.015067 
238.101212 0.045001 
238.119537 0.064754 
238.139664 0.103441 
238.154907 2.087565 
239.114853 0.151532 
239.128998 0.737762 
239.159103 0.164837 
240.061401 0.066451 
240.079849 0.011238 
240.099899 0.021214 
240.113388 1.120133 
240.133514 0.171865 
240.152878 0.274502 
240.170135 0.024724 
241.045822 0.034574 
241.117706 0.42938 
241.132553 0.016515 
241.144852 0.85729 
241.156464 0.011631 
242.095306 0.02862 
242.128387 0.021293 
242.149597 0.545274 
242.186234 2.889684 
243.133926 6.603276 
243.146576 1.577019 
243.181473 11.15155 
244.092896 0.426178 
244.127243 0.023322 
244.138107 0.552835 
244.150253 0.127187 
244.16449 0.014786 
244.185135 1.650929 
245.095474 0.013129 
245.127548 0.010647 
245.139359 0.017205 
245.164917 0.050698 
245.187439 0.014345 
246.159012 0.023885 
247.056885 0.012086 
247.143478 0.212061 
247.155807 0.008298 
248.087753 0.121253 
248.138397 0.048169 
248.175842 2.13535 
249.072693 0.665798 
249.122147 0.018122 
249.135468 0.019668 
249.159607 0.820037 
249.180435 0.111872 
249.207336 0.019561 
250.096756 0.090124 
250.118927 0.167858 
250.154633 0.184486 
250.19162 0.528897 
251.077652 0.024612 
251.101334 0.010665 
251.121323 0.031685 
251.150681 0.175475 
251.17453 0.170209 
251.187454 0.02005 
252.109177 8.317062 
252.134171 0.563112 
252.153458 0.520594 
252.170807 1.550786 
253.093262 42.637108 
253.109818 0.484737 
253.11676 0.194717 
253.141083 0.020101 
253.165802 10.1598 
253.188202 0.025546 
254.079941 0.012593 
254.096771 5.430679 
254.113342 1.099469 
254.153 0.066893 
254.169296 2.529636 
254.186127 0.023414 
255.098297 0.751308 
255.113052 0.023079 
255.152115 0.056526 
255.170044 0.081385 
255.182892 0.019261 
256.16568 0.238644 
257.139679 11.994555 
257.198151 0.056398 
258.143524 2.142995 
258.158661 0.024722 
259.144684 0.192207 
259.180298 0.112506 
259.212952 0.247318 
260.102417 0.020803 
260.115143 0.016696 
260.17218 2.292318 
260.196381 0.034257 
260.212372 0.016671 
261.086914 0.037194 
261.159058 1.613909 
261.174683 0.263237 
262.093414 0.386008 
262.118256 0.020899 
262.154724 0.324428 
263.077576 2.409073 
263.13739 0.072552 
263.150879 0.159864 
263.174072 0.062016 
264.081177 0.276643 
264.097321 0.04457 
264.171021 0.438365 
265.101379 0.01962 
265.117676 0.013725 
265.13739 0.740292 
265.202423 0.032879 
266.149872 0.09473 
266.186401 0.914157 
267.125458 2.781961 
267.151855 0.259326 
267.167664 0.020583 
267.184357 0.036309 
268.108246 12.181115 
268.126984 0.73751 
268.145996 0.190756 
268.201538 0.039444 
269.088928 0.020508 
269.111847 2.581337 
269.139465 0.64521 
269.197174 0.623121 
270.119751 5.681918 
270.143341 0.033053 
270.158722 0.148593 
270.181091 0.094789 
271.104919 1.027207 
271.124695 0.682346 
271.141907 3.483259 
271.176208 0.195102 
272.107819 0.05584 
272.124725 0.279335 
272.145233 0.567728 
273.134186 0.087657 
275.187164 0.195975 
275.33902 0.014449 
276.146271 0.043971 
276.170898 0.462704 
276.207306 0.016084 
277.093353 0.107395 
277.130127 0.226417 
277.154022 0.721852 
278.112671 2.4377 
278.149445 0.130273 
278.186523 0.514986 
279.097748 1.432725 
279.116608 0.844824 
279.14563 0.106249 
279.167999 0.048745 
279.182556 0.310666 
280.103607 1.144544 
280.129791 0.018713 
280.147583 0.472695 
280.165863 1.073013 
280.181549 0.017322 
281.088287 3.748042 
281.13208 15.802524 
281.160919 0.146868 
282.091309 0.561375 
282.108124 0.282862 
282.135406 3.203903 
282.163513 1.301123 
282.180908 0.19307 
283.128662 0.725265 
283.147614 0.729893 
283.165955 0.127037 
283.201477 0.023394 
284.134796 0.117014 
284.150421 0.954218 
284.178589 0.634046 
284.235077 0.015766 
285.134735 38.921001 
285.161163 2.933659 
286.138397 8.351678 
286.166656 0.43141 
287.140472 0.776202 
287.15683 0.014299 
287.174377 0.022717 
288.109222 0.43693 
288.170135 0.065115 
289.093109 0.138958 
289.15329 0.09165 
290.149231 0.070218 
291.180817 0.007698 
292.147858 0.210942 
292.165375 0.062009 
292.201355 0.06873 
293.138123 0.30732 
293.18457 0.014956 
293.199707 0.052992 
293.235382 0.016854 
294.144257 0.373523 
294.163177 0.095522 
294.180756 1.313042 
294.217499 0.162478 
295.118469 1.743384 
295.140594 3.199753 
295.178436 0.467469 
296.123932 5.271965 
296.142212 0.997036 
296.17981 0.034966 
296.197174 0.300747 
296.213013 0.027054 
297.065521 0.014797 
297.103088 0.03385 
297.106567 0.034859 
297.127197 1.796974 
297.144623 0.523022 
297.161743 0.056545 
297.194672 0.196785 
298.128479 0.065164 
298.141296 0.362161 
298.158264 5.04356 
299.12326 0.029128 
299.142059 2.197005 
299.161621 1.671139 
300.121155 0.05141 
300.153931 0.28049 
300.1716 0.082315 
301.099121 0.020148 
301.114319 0.049631 
301.13147 0.015413 
301.157227 0.122581 
302.115204 0.024739 
302.161499 1.647642 
302.19751 0.014842 
303.120667 0.036045 
303.145447 0.698511 
303.164062 0.24001 
303.182831 0.061588 
303.217834 0.034223 
304.10434 1.582396 
304.143921 0.145833 
304.16394 0.069489 
304.184967 0.146046 
305.088501 0.015713 
305.107239 0.149137 
305.124939 0.046554 
305.161224 1.478945 
305.197906 0.013313 
306.090149 0.028635 
306.120453 0.643525 
306.143677 0.09879 
306.163574 0.262412 
307.12561 0.017225 
307.143341 0.016315 
307.176636 0.22249 
307.213837 0.049915 
308.124451 0.057536 
308.142792 0.244455 
308.160675 0.20797 
308.17926 0.015498 
308.196777 0.08802 
309.126862 12.089265 
309.173309 0.040065 
310.128754 2.432013 
310.158112 0.835696 
310.193695 0.017143 
310.211945 0.554824 
311.10498 0.059512 
311.122253 0.426547 
311.142151 0.575089 
311.161163 0.017865 
311.209106 0.035882 
311.244202 0.137863 
312.122955 0.021737 
312.154663 1.048038 
312.174194 2.212219 
312.204498 0.198627 
313.1297 2.598817 
313.151733 10.375111 
313.192749 0.780625 
314.114868 0.017082 
314.13382 1.142726 
314.154785 1.763563 
314.194427 0.086598 
315.136749 0.041824 
315.154877 0.160591 
315.20224 0.091171 
316.132477 0.988842 
316.166107 0.038874 
317.135162 0.052948 
317.197021 0.009771 
318.155273 0.066994 
319.213074 0.248432 
320.210449 0.077269 
320.245209 0.168767 
321.085449 0.007294 
321.131439 0.326696 
321.154358 0.161914 
321.174164 0.019321 
321.19223 0.110897 
321.228821 0.30786 
322.11499 2.326676 
322.138092 0.360172 
322.190247 1.327629 
323.117096 0.235779 
323.135773 1.482276 
323.171021 2.976246 
324.119263 1.089517 
324.137817 0.450595 
324.173859 0.574861 
324.20401 0.129135 
324.239105 0.088725 
325.121552 1.871239 
325.1521 0.115092 
325.186188 0.209042 
325.203308 0.450529 
326.081787 0.015796 
326.125671 0.660262 
326.153259 3.892852 
326.187744 0.407985 
326.206238 0.053545 
327.137787 4.305319 
327.157867 1.059686 
327.187195 0.021183 
328.138031 0.663503 
328.176849 0.902966 
328.196838 0.019431 
328.271637 0.06681 
329.112183 0.062632 
329.133423 0.157547 
329.15387 0.099026 
329.178986 0.085946 
330.148254 1.630242 
330.1828 0.073986 
330.217224 0.169993 
331.114807 0.420046 
331.151855 0.228869 
331.175262 0.025588 
331.212891 0.056814 
332.099304 1.306086 
332.120605 0.092471 
333.081268 0.015361 
333.102112 0.12517 
333.155884 0.215461 
333.228668 0.057195 
333.26474 0.043883 
334.223785 0.061563 
335.188263 0.799268 
335.220367 0.054638 
336.100922 0.014949 
336.146179 0.020908 
336.191223 0.584281 
337.129974 0.46966 
337.150452 0.114884 
337.20285 0.117981 
337.224884 0.072594 
338.13443 0.114739 
338.158569 0.549772 
338.183838 0.061415 
338.219025 0.384598 
338.254913 1.686516 
339.141602 2.783575 
339.164917 0.362569 
339.214325 0.912888 
339.238007 0.02635 
339.258667 0.342883 
340.098999 0.052685 
340.124084 0.02363 
340.145203 0.253264 
340.167358 0.997588 
340.199829 6.074101 
341.145813 2.851266 
341.183289 1.02416 
341.205994 1.200478 
342.128723 0.022161 
342.149078 0.440016 
342.188049 0.116477 
342.210693 0.05974 
342.250275 0.106283 
343.161102 0.341018 
344.127441 0.286983 
344.161224 0.061094 
344.198364 0.042139 
345.204224 0.085554 
345.228455 0.235967 
346.145294 0.31226 
347.20816 0.038436 
347.243896 0.970628 
348.094757 0.018538 
348.167114 0.018719 
348.205139 0.095617 
348.240204 0.877667 
349.125427 15.845665 
349.186066 0.039982 
349.223053 0.032322 
349.243591 0.03371 
350.109711 7.138282 
350.129486 2.423123 
350.182892 0.636322 
350.222656 0.031548 
351.110321 1.24341 
351.13269 0.660247 
351.165588 0.053299 
352.113495 0.181543 
352.213409 0.16458 
352.235931 0.096505 
353.159973 0.014089 
353.197479 0.200965 
353.218842 0.383644 
354.111877 0.606948 
354.156769 0.284481 
354.202759 0.342391 
354.228638 1.335332 
355.117676 0.03544 
355.140228 0.553884 
355.161682 0.177667 
355.184845 0.038221 
355.210449 0.046139 
355.232544 0.33829 
356.127197 4.243811 
356.167969 0.110525 
356.195221 0.022797 
356.218689 0.698776 
356.265167 1.597945 
357.13089 0.837446 
357.187775 0.189357 
357.224762 6.55226 
357.268555 0.348444 
358.124908 0.115213 
358.172119 2.926768 
358.21051 0.945019 
358.229156 0.996633 
359.109772 0.069456 
359.15509 0.29079 
359.177124 0.533594 
359.21344 0.234062 
360.093903 0.633705 
360.158691 0.009049 
361.09787 0.055377 
361.124512 0.199541 
361.223633 0.078287 
361.259827 0.678875 
362.155914 0.0858 
362.262604 0.039662 
363.141144 0.520744 
363.180603 0.507258 
363.20285 0.583398 
364.142639 0.563776 
364.184967 0.365288 
364.208008 0.025239 
365.12384 1.792158 
365.187622 0.055188 
365.230682 0.04313 
366.104095 0.041649 
366.127472 0.393994 
366.151794 0.040554 
366.19339 0.308246 
366.216125 0.110902 
366.250183 1.300361 
367.136139 21.386236 
367.199738 0.450398 
367.253479 0.190759 
368.120026 0.71561 
368.139923 3.797155 
368.192657 1.41453 
369.141327 1.939907 
369.195801 0.233922 
370.144989 0.384699 
370.223419 0.56358 
370.246521 0.118134 
371.137207 0.043434 
371.182892 0.42348 
371.227631 0.41637 
372.12262 0.019514 
372.165955 0.269342 
372.188385 0.125904 
372.229584 0.024439 
373.189606 0.092871 
373.22226 0.054694 
373.252991 0.09174 
374.145691 0.016583 
374.254822 0.045351 
375.198669 1.396698 
375.238403 1.164919 
376.105988 0.009672 
376.181854 0.022229 
376.20224 0.204351 
376.238831 0.346572 
377.092346 0.048462 
377.120575 2.330792 
377.145813 0.075306 
377.18222 0.033661 
378.103058 3.482134 
378.145569 0.028827 
378.201599 0.184736 
378.249786 0.044201 
379.107391 0.850698 
379.134552 0.102154 
379.205231 0.05271 
380.110901 0.079635 
380.136932 0.026826 
380.207733 4.492986 
380.265503 0.12909 
381.122437 0.019745 
381.151215 0.581935 
381.212738 2.225705 
382.150818 5.11765 
382.192444 0.020364 
382.2164 0.261727 
383.132446 0.331809 
383.157135 1.270414 
384.161072 0.420431 
384.202026 1.286272 
385.146515 1.617463 
385.176727 0.032023 
385.204224 0.06716 
385.225861 0.135381 
386.168274 1.704351 
386.207794 0.027015 
387.173431 0.473347 
388.160889 0.269427 
389.192596 0.244359 
389.218109 0.067023 
390.200256 0.058069 
390.250275 0.422405 
391.171631 0.340641 
391.198578 0.301194 
391.232483 0.031279 
392.12088 0.012802 
392.193787 0.067947 
392.265442 0.387157 
393.114105 0.013368 
393.219849 0.150912 
393.265778 0.009277 
394.121735 0.019044 
394.209656 0.41087 
394.245361 0.06986 
395.13089 5.685756 
395.19101 0.080162 
396.136505 1.004673 
396.161255 0.046769 
396.196228 0.036435 
397.137207 0.07486 
397.162903 0.071744 
398.218536 10.10389 
399.178223 1.672995 
399.221771 3.077348 
400.161438 26.780264 
400.223114 0.509832 
401.164551 7.167137 
401.225525 0.02031 
402.118134 0.016337 
402.167419 1.250685 
403.167908 0.062179 
403.233887 0.165688 
404.23056 0.017498 
405.187775 1.510815 
405.21347 0.210714 
406.194458 0.834751 
406.24469 0.018734 
407.201447 0.222305 
407.229004 0.204517 
407.274841 0.036885 
408.166901 0.117845 
408.203156 0.72096 
408.232025 0.054728 
408.260864 0.336065 
409.162933 0.156279 
409.207397 0.764872 
410.145721 2.523596 
410.172729 0.260585 
410.20343 0.134185 
411.149384 0.68421 
411.175568 0.019756 
411.204712 0.021628 
412.127197 0.06945 
412.159149 0.027147 
412.191711 0.128333 
412.219482 0.479698 
413.128723 0.038728 
413.222351 0.303792 
414.124603 0.019206 
414.180206 0.436795 
414.211731 0.022858 
415.172058 2.760581 
415.244812 0.501174 
416.177216 0.582271 
416.20285 0.063229 
416.228424 0.049621 
417.187836 1.893393 
417.260223 0.101155 
418.167877 0.101543 
418.193359 0.230969 
418.244293 0.637907 
419.167694 0.628003 
419.200592 0.363634 
419.247559 0.047379 
420.158966 0.063287 
420.188934 0.584636 
421.187897 0.068364 
421.255707 0.109422 
422.173279 0.069947 
422.20639 0.140061 
422.240387 0.059791 
423.224152 0.434038 
424.154236 0.443816 
424.187073 0.040195 
424.229858 0.053216 
424.257172 0.022632 
425.157227 0.091829 
425.189667 0.197998 
425.237793 0.486397 
425.287354 0.152754 
426.142853 0.82009 
426.211578 1.145562 
426.242157 0.057667 
426.319092 0.099068 
427.14325 0.277824 
427.172546 1.102263 
427.204681 0.367351 
428.156372 3.038496 
428.182373 0.279793 
429.160095 0.885499 
429.216705 0.218103 
430.163635 0.020388 
430.220062 0.029691 
430.246979 0.018747 
431.169434 0.025457 
432.1987 2.108289 
432.229675 0.167965 
433.182434 10.440356 
433.331726 0.016598 
434.148651 0.025964 
434.185516 2.925111 
434.240143 0.068189 
435.194275 0.711676 
435.226288 0.047021 
435.27124 0.980711 
436.192749 0.161461 
436.221954 0.380985 
436.256012 0.647527 
437.214996 1.84286 
437.255768 0.031928 
437.32373 0.025035 
438.169037 5.358221 
438.19986 0.664785 
438.282135 0.374936 
439.172058 1.694234 
439.201782 0.681445 
439.230621 0.077785 
439.265411 0.0389 
440.183044 0.224123 
440.213135 0.327909 
440.304932 0.021031 
441.120941 0.01844 
441.185394 0.345886 
441.217285 0.84417 
441.253601 0.16634 
442.200775 2.344192 
442.25061 0.013876 
443.168243 0.434545 
443.203156 0.888674 
443.233856 0.317289 
444.16922 0.020403 
444.199799 0.366014 
444.232239 0.039985 
444.262848 0.067434 
445.181183 0.07371 
445.256714 0.037733 
446.178925 0.127417 
446.210938 0.023313 
446.241028 0.037628 
447.16394 0.023748 
447.199066 0.501059 
447.346069 0.062206 
448.197357 0.069171 
449.255127 0.092951 
450.209381 9.334666 
450.267761 0.014675 
451.172089 0.50014 
451.212799 2.608543 
451.339386 0.58232 
452.175934 0.052503 
452.217896 0.609964 
452.256104 0.01343 
452.262817 0.012996 
452.298004 2.990935 
452.336243 0.085795 
453.183777 0.345666 
453.248596 0.05129 
453.282501 1.054684 
453.304108 0.210708 
454.164795 0.542322 
454.235962 1.385319 
454.28418 0.281336 
455.134186 0.074073 
455.165619 0.104165 
455.195282 3.100468 
455.226288 5.060102 
456.174927 0.668984 
456.199036 1.191844 
456.230194 1.259243 
456.29187 0.100827 
457.126953 0.018348 
457.188751 0.661931 
457.236603 0.071831 
458.195343 0.499061 
458.27771 0.008945 
459.229553 0.04145 
459.274933 0.010335 
460.192261 1.476521 
461.17691 0.735907 
461.323059 0.267658 
462.142578 0.115128 
462.178314 0.127116 
462.2099 0.297865 
462.27951 0.025814 
463.196564 0.280672 
463.266235 0.167183 
464.190491 0.431979 
464.223785 0.22881 
465.211945 0.820819 
465.261169 0.164148 
466.211151 0.251815 
466.298431 0.061346 
467.196899 0.184633 
467.239014 0.488682 
467.272339 0.39985 
467.303772 0.039901 
468.194946 0.073536 
468.245148 0.388633 
468.279144 0.029595 
468.305603 0.021998 
469.146149 0.029633 
469.182434 4.071032 
469.213684 0.719587 
469.244171 0.241641 
469.350708 0.277673 
470.183075 1.254007 
470.21582 0.269776 
470.246063 0.052596 
470.309662 1.289717 
470.35379 0.015944 
471.187042 0.1055 
471.256775 0.538803 
471.311157 0.376186 
472.217194 0.025907 
472.252319 3.55159 
472.291016 0.027845 
473.203552 0.042618 
473.255768 0.870004 
474.171753 0.078535 
474.25592 0.026702 
476.251251 0.01161 
476.287354 0.560797 
477.220917 1.009335 
477.253571 0.090719 
477.286255 0.166726 
478.204376 2.544838 
479.167328 1.637738 
479.207611 0.784181 
479.334381 0.072495 
480.170563 0.217883 
480.219391 0.362329 
480.294708 0.12653 
481.158691 0.018765 
481.217224 0.295116 
481.279358 0.09475 
482.227844 0.349692 
482.281219 0.022122 
483.221649 0.854253 
484.223877 0.301807 
484.30365 1.242356 
485.271759 0.357317 
485.310089 0.594977 
486.209625 3.288373 
486.27179 0.308309 
486.309052 0.112333 
487.211395 1.122998 
487.269135 0.0603 
488.188965 0.538137 
488.221161 0.07506 
488.282593 0.053224 
489.188324 0.109651 
489.28299 0.116508 
489.320221 0.034452 
490.168243 0.189112 
490.230164 0.02281 
490.266937 0.040888 
490.303314 0.526097 
491.197998 0.284721 
491.232544 0.052203 
492.183929 0.372972 
492.287384 0.280713 
493.255249 0.287824 
494.248779 0.332527 
494.291626 1.002416 
495.232025 3.11152 
495.269165 0.412351 
495.29834 0.262451 
496.193726 1.849782 
496.234528 1.177992 
497.177032 5.544463 
497.239532 0.178679 
498.180115 2.055329 
498.242432 0.079071 
498.282166 0.273017 
499.185181 0.384952 
499.230957 1.343461 
500.231873 0.340568 
501.340973 0.030316 
503.335144 0.475421 
505.213745 0.88138 
505.249603 0.303935 
506.199524 1.592869 
506.246033 0.039973 
506.287384 0.041258 
507.161591 0.328757 
507.201935 0.435135 
508.263855 0.019579 
508.309418 0.0172 
509.212524 0.167005 
509.277832 0.016058 
510.280426 0.113466 
511.268616 0.019053 
511.322021 0.111926 
512.258179 1.970835 
512.29895 2.612239 
513.245728 9.459607 
513.300842 0.750409 
514.204651 13.269655 
514.248779 3.682498 
514.313171 0.017176 
515.208069 4.041109 
515.252258 0.704125 
516.2099 0.826433 
516.254089 0.147209 
517.214294 0.037288 
518.30304 0.011125 
519.265015 0.023161 
521.280945 0.020974 
522.242126 0.26122 
522.281372 0.543928 
523.226379 3.764078 
524.188843 1.569593 
524.230469 1.191232 
524.293457 0.162489 
525.174927 1.222568 
525.234924 0.171999 
526.176697 0.365538 
526.271484 0.071159 
526.311584 0.027397 
527.263794 0.055465 
528.220154 0.219924 
528.259949 0.098125 
529.249329 0.023778 
529.3255 0.064858 
530.270264 0.898064 
530.422913 0.032187 
531.197937 0.023379 
531.268677 0.462036 
531.328674 0.068412 
532.21582 0.327378 
532.286926 0.066918 
533.209717 0.095419 
533.274048 0.203964 
534.195557 0.229248 
534.241882 0.061711 
535.750366 0.018967 
536.302856 0.185567 
537.239807 0.11021 
538.237854 0.066743 
538.277283 0.697489 
538.317688 0.058068 
539.279907 0.065979 
539.320496 0.06093 
539.403748 0.130207 
540.254761 0.283019 
540.292664 0.231041 
541.243652 0.356342 
542.199707 1.845221 
542.241577 0.262469 
543.202393 0.601905 
544.234253 0.041447 
544.280151 0.883187 
545.215332 0.068493 
545.281677 0.142449 
546.276855 0.264962 
547.261047 0.400172 
548.265015 0.023631 
548.357666 0.158982 
549.277039 0.081319 
550.301819 0.637843 
551.25177 0.556936 
551.301941 0.249251 
551.365356 0.119453 
552.25415 0.873218 
552.352356 0.009324 
553.260315 0.261861 
553.310059 0.077469 
554.261902 0.03678 
554.305603 0.052739 
555.279663 0.122473 
555.334839 0.07483 
556.261353 0.451018 
556.410645 0.168647 
557.24823 0.149054 
558.258606 0.920129 
559.261353 0.400764 
560.260742 0.040178 
561.258972 0.021035 
562.240356 1.55732 
562.373901 0.071875 
563.244202 0.671913 
563.316467 0.058826 
564.248962 0.174369 
564.293579 0.788974 
565.258362 0.38742 
565.30188 0.157949 
565.381042 0.818656 
566.235291 0.199061 
566.271729 0.023575 
566.373779 0.356774 
567.240417 0.084514 
567.326721 1.472386 
567.372314 0.126571 
568.253052 0.409923 
568.316223 0.72359 
569.263 0.173396 
569.318054 0.133244 
570.265076 0.081467 
571.278625 0.069915 
572.274841 1.383652 
572.356201 0.078599 
573.280579 0.85486 
574.27301 1.612693 
575.261475 0.811409 
576.290161 0.122789 
577.273193 0.249377 
578.233887 0.02357 
578.294373 0.290631 
579.264526 0.882654 
580.251038 4.46659 
580.336853 0.122075 
580.383911 0.365008 
581.253052 1.612847 
581.327881 0.393895 
581.385437 0.020554 
582.265869 3.31161 
582.326416 0.163179 
583.269897 1.805614 
583.322083 0.061145 
583.392517 0.231605 
584.272034 0.609462 
584.390686 0.040001 
585.232849 0.020428 
585.284424 0.124642 
585.334717 0.650788 
586.282898 0.047387 
586.337097 0.131146 
587.283081 0.147784 
588.286987 0.08642 
589.249634 0.151391 
589.376099 0.052553 
590.235779 0.115591 
590.369873 0.168339 
591.247131 0.043323 
591.298035 2.028519 
592.28894 3.118359 
593.288391 1.064119 
594.272034 0.241702 
594.358276 0.021383 
595.258545 0.086807 
595.312561 0.057863 
595.370911 0.019415 
596.247314 0.572577 
596.295715 0.095229 
597.156372 0.017805 
597.280457 0.63224 
598.277832 0.294662 
598.395264 0.280065 
599.29248 0.844548 
599.34137 0.085826 
599.397522 0.021691 
600.29718 0.794011 
600.349609 0.255649 
601.292542 0.262013 
602.266174 0.730964 
603.266541 0.101139 
605.266724 0.01835 
607.26001 0.793427 
608.276794 0.240794 
608.32489 0.173 
608.377258 0.388969 
609.317505 3.93907 
609.375244 0.047761 
610.260681 3.88497 
610.311951 1.695166 
611.260498 2.318239 
612.264771 0.652964 
612.396057 0.01896 
613.268372 0.903757 
613.31958 0.023786 
614.2724 0.081311 
615.276245 0.022469 
616.2854 0.022511 
617.37738 0.157863 
618.300964 0.019487 
618.367249 0.074823 
619.29303 0.693499 
620.283447 1.133155 
621.283997 0.374817 
622.383179 0.044879 
623.330627 0.043931 
624.286865 0.520444 
625.27478 1.560839 
625.335327 0.299528 
626.275513 0.605893 
626.341248 0.149108 
627.281982 5.222044 
627.327698 0.729903 
628.284973 2.353109 
628.332397 0.303576 
629.288696 0.615275 
632.372437 0.030057 
633.31134 0.011032 
635.25885 0.415781 
635.331787 0.061656 
636.255798 0.049835 
636.315063 0.109278 
637.270081 0.623388 
637.315735 0.491685 
637.366394 0.030451 
638.266113 0.294356 
639.254517 0.217084 
640.394165 0.210779 
641.305237 0.043481 
641.352478 0.042941 
642.29834 1.549124 
643.298645 0.745834 
644.287354 0.082212 
644.356079 0.009719 
645.30072 0.032278 
645.363464 0.01994 
646.299133 0.045128 
646.35907 0.039142 
647.28125 0.023574 
649.308777 0.100945 
650.382141 0.183376 
651.328552 0.145086 
651.387085 0.025138 
652.283325 0.328572 
652.351929 0.054543 
653.268555 1.257646 
653.338379 0.040395 
654.270752 0.493762 
655.277405 0.115235 
655.329651 0.02047 
657.361023 0.021641 
659.326355 0.406109 
659.384216 0.011586 
660.332825 0.188374 
661.313599 0.094787 
661.375 0.016481 
662.31781 0.058062 
664.392151 0.01519 
665.322632 0.008447 
666.337646 0.022567 
666.396118 0.020271 
668.356018 0.017166 
669.351257 0.121288 
670.29248 0.657419 
670.35437 0.089868 
671.294556 0.156833 
672.275269 0.030575 
674.332642 0.029472 
675.324768 0.541872 
676.323914 0.296087 
676.414307 0.022919 
677.306396 0.08846 
677.384094 0.180994 
678.337891 0.393443 
678.40509 0.016798 
679.321045 0.792968 
679.450623 0.024048 
680.3349 0.325786 
680.40979 0.320331 
681.409302 0.129585 
682.33313 0.078634 
683.336365 0.021238 
685.305237 0.02029 
686.374146 0.204431 
687.360535 0.730468 
688.367126 0.218298 
689.332886 0.050487 
690.369873 0.093509 
691.371094 0.012049 
692.351257 0.381311 
693.338074 1.192028 
693.466553 0.459025 
694.334717 0.979916 
694.422241 0.300157 
694.479431 0.023804 
695.342102 0.166638 
695.420105 0.214464 
696.3479 1.364205 
697.352295 0.862923 
698.354797 0.269253 
698.421082 0.045042 
699.360718 0.113957 
699.427246 0.049629 
700.363647 0.017569 
702.323669 0.267382 
703.325928 0.317619 
703.451111 0.106653 
704.319763 0.458582 
704.384399 1.531603 
705.312378 0.055957 
705.38324 1.090129 
706.32605 1.407315 
706.393921 0.026251 
707.319031 1.262915 
708.31958 0.579385 
709.33844 0.087309 
709.417114 0.019318 
710.324524 0.342687 
710.369812 0.113455 
710.578613 0.020097 
710.849548 0.020215 
711.089905 0.023177 
711.362122 0.359067 
711.474365 0.069758 
712.362976 0.083605 
712.434387 0.084651 
713.376221 0.501752 
713.439636 0.049842 
714.378113 0.404987 
714.445007 0.010633 
715.368591 0.35166 
716.373352 0.03495 
719.345032 0.186387 
720.342041 0.834664 
721.338623 1.411279 
721.45929 0.026302 
722.328979 1.182664 
722.398132 0.284005 
723.346313 0.709356 
724.341492 3.684128 
725.344727 1.950946 
726.348877 0.470268 
727.352417 0.286305 
731.320618 0.115982 
732.388062 0.072998 
733.364136 0.103658 
734.32666 0.184069 
735.33606 0.020424 
736.352112 0.009586 
737.357849 0.305576 
737.424927 0.021473 
738.36084 1.734132 
739.355591 2.726423 
740.357544 1.291629 
741.367126 2.167233 
742.371094 1.162233 
743.370972 0.250742 
744.375671 0.063809 
745.460327 0.018545 
747.34436 0.019997 
747.393127 0.017165 
747.470337 0.019893 
748.341248 0.437583 
749.337463 0.608052 
750.337036 0.212023 
751.349731 0.205175 
752.33905 0.575456 
753.349548 0.177827 
754.439148 0.024726 
755.379028 0.62653 
756.379761 1.554424 
757.381653 0.856043 
758.383362 0.155377 
759.382507 0.043052 
760.392456 0.037421 
763.465576 0.014815 
765.407654 0.249143 
766.351257 0.797402 
767.35144 0.71501 
768.350281 0.179971 
769.360535 0.098813 
770.382629 0.016345 
771.389404 0.091077 
772.392456 0.071124 
774.409973 0.033526 
775.389282 0.18496 
776.379639 0.081326 
777.398804 0.054803 
779.417908 0.092328 
781.529236 0.109298 
782.53479 0.014571 
783.379028 0.384417 
784.381592 0.188007 
785.374329 0.014708 
787.380493 0.256949 
788.406006 0.041624 
789.404846 0.541771 
790.398193 0.363059 
790.48407 0.156926 
791.392517 0.079274 
791.473633 0.01265 
792.418457 0.163119 
793.416138 0.40882 
794.41095 0.071703 
795.436279 0.027977 
796.438171 0.035592 
798.401306 0.012891 
799.391174 0.075387 
800.435059 0.030857 
801.440674 0.017277 
803.455444 0.025354 
805.409607 0.020635 
806.432861 0.616255 
807.422729 1.067736 
807.507507 0.692253 
808.422424 0.46879 
808.507751 0.489393 
809.435059 0.219483 
809.521912 0.025378 
810.435791 0.474166 
811.437012 0.133046 
813.442688 0.020286 
815.408569 0.207555 
816.40979 0.586654 
817.396362 0.571038 
817.474976 0.204425 
818.397522 0.203554 
818.47821 0.100461 
819.40332 0.02586 
819.474304 0.056378 
820.411987 0.437557 
821.403992 0.176454 
822.425903 0.052094 
823.449463 0.05514 
824.445374 1.30462 
825.446167 0.730232 
826.447327 0.065268 
827.458679 0.168806 
828.457581 0.065613 
831.391479 0.019218 
832.403076 0.306464 
833.426086 0.621764 
834.423645 2.007727 
835.419373 1.536281 
836.419006 0.731053 
837.431335 0.614181 
838.424072 0.744396 
839.42688 0.307627 
840.433472 0.087663 
841.467407 0.408029 
842.470276 0.184105 
843.402527 0.040213 
844.404846 0.186784 
845.407471 0.048452 
846.420166 0.293315 
847.421875 0.025283 
848.412781 0.09917 
849.388 0.041767 
850.43866 0.585464 
851.449768 2.309698 
852.440735 3.922463 
853.441956 2.000016 
854.441895 0.617071 
855.447937 0.750903 
856.448914 0.303675 
857.447205 0.016848 
858.410095 0.022169 
860.419189 0.021841 
860.512146 0.055337 
861.425171 0.237186 
861.508423 0.439391 
862.424255 0.629899 
862.515625 0.023219 
863.427551 0.256166 
864.426025 0.075593 
865.447449 0.038251 
866.426941 0.219738 
867.40033 0.05445 
867.457825 0.035387 
868.399231 0.018775 
868.470764 0.009108 
869.463135 3.125037 
870.468079 1.902471 
871.469482 0.586556 
873.42804 0.034968 
877.517822 0.070558 
878.422729 0.013995 
878.510681 0.038389 
879.443115 0.631079 
880.437012 0.648572 
881.441772 0.23437 
882.437012 0.01733 
883.462891 0.026597 
884.423279 0.065093 
888.501587 0.475 
889.504944 0.384184 
890.502991 0.103864 
891.444092 0.907378 
892.493652 0.010912 
895.386963 0.0094 
897.458252 0.18753 
898.47522 0.083826 
899.486572 0.03458 
900.488953 0.039202 
901.431091 0.109994 
902.437012 0.033831 
903.452087 0.02342 
904.515442 0.028003 
905.515869 0.072959 
906.519287 0.808659 
907.51062 0.405654 
908.514282 0.132395 
909.412903 0.018015 
912.419678 0.095466 
915.497498 0.031713 
916.498108 0.11524 
917.496887 0.10492 
919.492981 0.049086 
920.50293 0.197434 
921.442993 0.018778 
921.499451 0.05605 
922.530701 0.265749 
923.531555 0.253261 
924.52948 0.127579 
928.489502 0.021071 
929.451721 0.785409 
930.482361 0.089556 
931.488525 0.037405 
932.543518 0.414019 
933.505859 0.097702 
934.497375 0.104656 
937.516968 0.077898 
938.531128 0.079473 
939.485535 0.02165 
940.548523 0.020685 
943.511353 0.02178 
946.511597 0.27017 
947.507446 0.570631 
948.505615 0.393497 
949.503052 0.022223 
950.51709 0.142041 
951.509521 0.127899 
952.50769 0.095618 
953.496643 0.011778 
957.499573 0.058751 
958.512329 0.056075 
959.507019 0.158088 
960.531067 0.173817 
962.494263 0.062796 
963.463074 0.042779 
964.531738 0.633577 
965.530579 0.78301 
966.523499 0.333802 
967.523376 0.027354 
968.515625 0.147555 
969.508362 0.060971 
970.50824 0.019538 
971.492859 0.041792 
972.490723 0.012602 
973.492004 0.023073 
974.528687 0.060363 
975.510376 0.072714 
976.539062 0.50537 
977.563232 0.03908 
979.510315 0.079465 
980.488159 0.248504 
981.484741 0.258913 
982.545288 0.55989 
983.548157 0.21374 
985.501831 0.035325 
986.517029 0.778514 
987.503906 0.423419 
989.497314 0.01097 
990.514282 0.101722 
991.514648 0.057056 
992.535278 0.153749 
993.531738 0.049995 
997.511597 0.222211 
998.509277 0.184874 
999.494446 0.148372 
1000.509399 0.079866 
1001.508118 0.052889 
1002.536194 0.261953 
1003.534119 0.597476 
1004.530334 4.63379 
1005.535034 0.109521 
1006.531006 0.020957 
1008.478821 0.01461 
1014.53363 0.246461 
1016.514343 0.144672 
1017.512756 0.090954 
1018.518005 0.041971 
1019.538452 0.014561 
1020.552612 0.360351 
1021.551758 0.384804 
1022.555481 0.158213 
1028.454102 0.058642 
1029.452393 0.021709 
1031.527588 0.014651 
1032.479614 0.018331 
1033.48938 0.011117 
1035.501221 0.056758 
1036.529541 0.023549 
1037.551025 0.01623 
1038.573975 0.043977 
1039.562622 0.083612 
1042.574341 0.020183 
1045.47229 0.120466 
1046.480347 0.224276 
1047.464355 0.029767 
1047.574585 0.026178 
1048.515381 0.014047 
1049.526123 0.025878 
1050.515259 0.072079 
1051.541382 0.037523 
1053.527222 0.051828 
1058.541016 0.038428 
1059.590088 0.303758 
1060.592651 0.262211 
1061.579102 0.077409 
1062.519897 0.045897 
1063.504028 0.07536 
1064.503174 0.017734 
1066.543701 0.021684 
1067.57019 0.025825 
1071.577271 0.021632 
1075.565063 0.142171 
1076.553955 0.344626 
1077.549561 0.162747 
1078.561401 0.015616 
1079.555176 0.051519 
1080.555054 0.021249 
1086.571777 0.076105 
1087.571777 0.01708 
1089.584595 0.009539 
1093.576782 0.51105 
1094.569946 0.580184 
1095.568726 0.216913 
1096.562866 0.020386 
1097.568359 0.09955 
1098.555298 0.034078 
1101.581543 0.020054 
1103.547485 0.0139 
1104.542603 0.03629 
1105.566284 0.063897 
1109.591675 0.011062 
1111.590088 0.50031 
1112.589844 0.214988 
1113.593262 0.06357 
1114.516235 0.05018 
1115.557617 0.1499 
1116.549194 0.031675 
1117.566772 0.096861 
1118.567383 0.157738 
1119.565918 0.138753 
1120.574829 0.12469 
1121.583374 0.087573 
1122.572021 0.116402 
1123.576782 0.016066 
1125.577881 0.021171 
1127.579956 0.017836 
1128.561035 0.013027 
1130.576538 0.015674 
1131.550781 0.042893 
1132.572876 0.054859 
1133.569092 0.324699 
1134.573364 0.063407 
1135.578735 0.241094 
1136.58374 0.139178 
1137.587524 0.147123 
1138.580811 0.032222 
1139.591431 0.053888 
1142.536377 0.023259 
1143.550293 0.138447 
1144.578247 0.078277 
1145.599731 0.067763 
1146.568726 0.046606 
1147.586426 0.225886 
1148.578247 0.232652 
1149.576294 0.091799 
1150.584229 0.025868 
1151.59021 0.018754 
1154.597656 0.042147 
1158.582886 0.022494 
1159.559448 0.105344 
1160.562866 0.058301 
1161.612671 0.653066 
1162.600098 0.010432 
1163.584839 0.051144 
1164.598877 0.023033 
1165.598755 0.25591 
1166.602905 0.143828 
1167.602539 0.022179 
1172.594727 0.076318 
1173.600098 0.027553 
1174.599365 0.026079 
1178.556519 0.015534 
1179.653931 0.024188 
1180.675659 0.025184 
1181.685303 0.020122 
1184.625854 0.214203 
1187.585327 0.046995 
1188.606323 0.031857 
1189.62146 0.232741 
1190.627319 0.160462 
1192.634399 0.035287 
1193.640381 0.019716 
1194.614014 0.028658 
1204.624512 0.020778 
1206.650635 0.486369 
1207.654053 0.685387 
1208.655273 0.35631 
1209.650391 0.019736 
1210.651855 0.07677 
1211.632568 0.022268 
1216.63208 0.014815 
1217.617554 0.020887 
1224.667603 0.421515 
1225.673706 0.282428 
1226.666748 0.02146 
1228.628418 0.048675 
1229.639404 0.340686 
1230.617676 0.019845 
1232.637451 0.04832 
1233.628906 0.085872 
1234.653076 0.064266 
1235.658325 0.019713 
1240.641846 0.021701 
1243.64502 0.009965 
1244.642578 0.050678 
1245.641846 0.051412 
1246.64917 0.124323 
1247.662109 0.050056 
1248.655884 0.021224 
1250.642944 0.021386 
1254.630493 0.12051 
1255.646973 0.528875 
1256.63208 0.171986 
1258.651733 0.029527 
1259.651489 0.042368 
1260.639526 0.089439 
1261.648804 0.060681 
1262.634277 0.139623 
1263.634155 0.059981 
1264.648804 0.043135 
1265.652588 0.063035 
1272.636353 0.166102 
1273.646851 0.104678 
1274.648438 0.092672 
1275.658813 0.022865 
1276.655273 0.251989 
1277.664062 0.146099 
1278.666992 0.074165 
1279.645508 0.09078 
1280.664185 0.02464 
1281.639893 0.256011 
1282.662109 0.08229 
1283.674438 0.021953 
1287.638916 0.012059 
1288.65332 0.020767 
1289.626709 0.018385 
1290.643555 0.029994 
1291.646851 0.022279 
1292.646362 0.019751 
1293.655518 0.012164 
1298.670288 1.44505 
1305.682983 0.020742 
1306.651611 0.023317 
1307.642212 0.028886 
1308.654785 0.12681 
1309.640259 0.079278 
1310.670288 0.029312 
1319.663208 0.02357 
1320.648315 0.022929 
1325.666992 0.096798 
1326.65979 0.362706 
1327.648315 0.380677 
1328.60791 0.043549 
1334.666504 0.019927 
1337.643311 0.01965 
1338.663208 0.025416 
1343.685059 0.587255 
1344.655762 0.021824 
1351.689575 0.088002 
1352.675537 0.327306 
1353.702271 0.2469 
1359.65979 0.022603 
1369.706665 2.002709 
1370.69104 0.022901 
1374.712769 0.035896 
1375.703369 0.067678 
1378.726074 0.016121 
1379.699341 0.044767 
1393.721313 0.05133 
1395.680298 0.077097 
1396.666748 0.628976 
1397.702148 0.100005 
1401.712158 0.021714 
1402.696899 0.039946 
1403.701538 0.055052 
1405.702271 0.009469 
1413.693848 0.941365 
1420.726074 0.117443 
1421.712769 0.033918 
1423.678589 1.283539 
1424.663818 0.47419 
1437.962036 0.801062 
1438.71106 0.061006 
1438.966675 0.90721 
1439.678223 0.1042 
1439.966553 0.374301 
1440.678467 0.044121 
1441.691162 8.855364 
1441.89624 0.028373 
END IONS

