BEGIN IONS
PEPMASS=823.436
CHARGE=1+
COMPOUNDNAME=MoNA:748328 Nodularin
LIBRARYQUALITY=3
SMILES=N/A
INCHIKEY=IXBQSRWSVIBXNC-HSKGSTCASA-N
INCHI=InChI=1S/C41H60N8O10/c1-8-31-38(54)48-34(40(57)58)26(5)36(52)46-29(15-12-20-44-41(42)43)37(53)45-28(25(4)35(51)47-30(39(55)56)18-19-33(50)49(31)6)17-16-23(2)21-24(3)32(59-7)22-27-13-10-9-11-14-27/h8-11,13-14,16-17,21,24-26,28-30,32,34H,12,15,18-20,22H2,1-7H3,(H,45,53)(H,46,52)(H,47,51)(H,48,54)(H,55,56)(H,57,58)(H4,42,43,44)/b17-16+,23-21+,31-8-/t24-,25-,26-,28-,29-,30+,32-,34+/m0/s1
MSLEVEL=2
SOURCE_INSTRUMENT=LC-ESI-QFT-LC-ESI-QFT
FILENAME=output_mgf.mgf
SEQ=*..*
IONMODE=
ORGANISM=MONA
NAME=MoNA:748328 Nodularin [M-H]-
PI=MoNA
DATACOLLECTOR=MoNA
PUBMED=N/A
SUBMITUSER=mwang87
TAGS=
SPECTRUMID=CCMSLIB00000566543
SCANS=3795
58.0298 16.714687 
58.041 8.740619 
65.9986 1.506569 
66.0349 24.114771 
67.0189 9.236434 
67.0302 4.791602 
68.0507 5.459338 
70.0299 5.28821 
71.0251 1.108623 
71.0503 1.395524 
72.0092 7.317799 
72.0455 49.480563 
73.0296 10.220166 
74.0247 38.877945 
80.0507 4.835642 
81.0221 4.834361 
81.0459 2.026356 
82.0298 33.369566 
83.0615 9.912893 
84.0455 71.028787 
85.0296 1.657994 
85.066 4.901671 
86.0249 1.51828 
86.0612 1.143239 
94.0299 5.946766 
95.0251 20.947707 
95.0376 5.761152 
95.0615 1.217381 
96.0455 7.219624 
97.0657 1.474393 
98.0613 2.357235 
102.0559 1.671688 
106.0664 2.484658 
107.0377 1.380854 
108.0455 8.234587 
109.0169 2.028949 
109.0408 6.283623 
110.0248 100.0 
110.0486 9.365992 
111.0327 2.308956 
111.0565 5.007654 
112.0404 24.48661 
112.0768 8.201008 
113.072 22.825413 
121.0407 8.046441 
121.0534 2.229294 
122.0246 1.698131 
122.0487 14.550538 
122.061 1.642379 
122.0974 1.493973 
123.0327 17.165425 
123.0566 1.770473 
124.0402 1.675592 
124.0768 2.116266 
127.0514 6.384146 
128.0354 30.158675 
130.0983 4.623341 
135.0565 6.727408 
136.0404 1.506843 
137.0721 5.482059 
138.0559 7.467364 
139.0515 2.230697 
148.0403 1.519043 
149.0481 2.847714 
163.0876 1.625879 
END IONS

