BEGIN IONS
PEPMASS=176.0
CHARGE=1+
COMPOUNDNAME=Massbank:KO002529 Citrulline|L-Citrulline|2-Amino-5-ureidovaleric acid
LIBRARYQUALITY=3
SMILES=NC(=O)NCCC[C@H](N)C(O)=O
INCHIKEY=RHGKLRLOHDJJDR-BYPYZUCNSA-N
INCHI=1S/C6H13N3O3/c7-4(5(10)11)2-1-3-9-6(8)12/h4H,1-3,7H2,(H,10,11)(H3,8,9,12)/t4-/m0/s1
MSLEVEL=2
SOURCE_INSTRUMENT=ESI-LC-ESI-QQ
FILENAME=Massbank_ESI_positive_8_1_2014_peaks.mgf
SEQ=*..*
IONMODE=Positive
ORGANISM=MASSBANK
NAME=Massbank:KO002529 Citrulline|L-Citrulline|2-Amino-5-ureidovaleric acid [M+H]+
PI=Putative Massbank Match
DATACOLLECTOR=Massbank
PUBMED=N/A
SUBMITUSER=mwang87
TAGS=
SPECTRUMID=CCMSLIB00000217554
SCANS=8331
43.0 59406.0 
55.0 49505.0 
57.1 49505.0 
61.1 336634.0 
68.1 193069.5 
69.3 99010.0 
70.0 37589146.5 
71.3 287129.0 
72.7 222772.5 
73.8 128713.0 
78.9 34653.5 
79.4 14851.5 
81.1 133663.5 
83.1 59406.0 
84.0 202970.5 
84.8 74257.5 
86.2 1341585.5 
86.9 29703.0 
88.1 89109.0 
90.8 24752.5 
93.3 19802.0 
94.9 133663.5 
95.9 549505.5 
97.0 222772.5 
98.3 148515.0 
99.0 405941.0 
102.4 19802.0 
106.5 24752.5 
113.3 12534666.0 
114.2 1891091.0 
115.3 326733.0 
116.2 732674.0 
116.6 69307.0 
123.5 94059.5 
130.4 19802.0 
133.5 24752.5 
133.9 400990.5 
140.8 64356.5 
142.2 69307.0 
142.8 14851.5 
157.8 29703.0 
159.1 470297.5 
END IONS

