BEGIN IONS
PEPMASS=308.5
CHARGE=1+
COMPOUNDNAME=Massbank:KO003899 Paromomycin|Zygomycin A1|Catenulin|Monomycin A|Hydroxymycin|Aminosidin
LIBRARYQUALITY=3
SMILES=OCC(O1)C(O)C(O)C(N)C1OC(C(N)4)C(C(O)C(N)C4)OC(O3)C(O)C(C(CO)3)OC([H])(O2)C(N)C(O)C(O)C(CN)2
INCHIKEY=UOZODPSAJZTQNH-UHFFFAOYSA-N
INCHI=1S/C23H45N5O14/c24-2-7-13(32)15(34)10(27)21(37-7)41-19-9(4-30)39-23(17(19)36)42-20-12(31)5(25)1-6(26)18(20)40-22-11(28)16(35)14(33)8(3-29)38-22/h5-23,29-36H,1-4,24-28H2/t5-,6+,7+,8-,9-,10-,11-,12+,13-,14-,15-,16-,17-,18-,19-,20-,21-,22-,23-/m1/s1
MSLEVEL=2
SOURCE_INSTRUMENT=ESI-LC-ESI-QQ
FILENAME=Massbank_ESI_positive_8_1_2014_peaks.mgf
SEQ=*..*
IONMODE=Positive
ORGANISM=MASSBANK
NAME=Massbank:KO003899 Paromomycin|Zygomycin A1|Catenulin|Monomycin A|Hydroxymycin|Aminosidin [M+2H]++
PI=Putative Massbank Match
DATACOLLECTOR=Massbank
PUBMED=N/A
SUBMITUSER=mwang87
TAGS=
SPECTRUMID=CCMSLIB00000220313
SCANS=9691
44.1 44554.5 
56.1 123762.5 
56.5 49505.0 
60.0 1019803.0 
67.9 326733.0 
69.2 217822.0 
70.0 217822.0 
72.1 2767329.5 
73.0 158416.0 
77.8 29703.0 
80.1 1108912.0 
80.8 237624.0 
82.3 133663.5 
83.0 49505.0 
84.1 3014854.5 
85.1 960397.0 
85.9 306931.0 
87.7 39604.0 
90.1 89109.0 
94.0 24752.5 
95.3 44554.5 
96.0 891090.0 
96.9 985149.5 
97.9 1000001.0 
99.1 143564.5 
99.8 29703.0 
102.0 732674.0 
107.2 44554.5 
107.9 1183169.5 
109.0 153465.5 
110.2 153465.5 
112.1 24752.5 
114.0 1777229.5 
115.1 123762.5 
116.1 59406.0 
117.0 24752.5 
122.3 59406.0 
122.9 49505.0 
125.1 2193071.5 
126.1 1113862.5 
127.2 346535.0 
128.2 69307.0 
128.7 39604.0 
131.1 14851.5 
132.1 69307.0 
132.8 84158.5 
143.3 257426.0 
144.2 1252476.5 
145.1 287129.0 
145.6 69307.0 
147.7 19802.0 
151.5 29703.0 
156.1 44554.5 
157.9 34653.5 
161.1 2905943.5 
162.1 955446.5 
163.3 6440600.5 
167.4 123762.5 
168.9 138614.0 
169.6 14851.5 
173.5 34653.5 
175.6 24752.5 
181.9 9901.0 
185.0 113861.5 
186.2 69307.0 
187.1 608911.5 
187.6 34653.5 
189.2 59406.0 
190.5 24752.5 
194.2 44554.5 
197.3 29703.0 
198.6 54455.5 
199.5 9901.0 
203.1 1148516.0 
204.9 74257.5 
205.3 193069.5 
205.7 29703.0 
211.2 49505.0 
215.9 29703.0 
221.6 39604.0 
222.3 34653.5 
228.3 118812.0 
229.3 138614.0 
241.4 331683.5 
255.0 19802.0 
257.2 222772.5 
258.6 19802.0 
259.3 272277.5 
271.6 123762.5 
275.8 49505.0 
277.2 44554.5 
289.5 475248.0 
293.5 133663.5 
295.4 361386.5 
307.2 371287.5 
319.4 108911.0 
324.8 24752.5 
END IONS

