BEGIN IONS
PEPMASS=405.207
CHARGE=1+
COMPOUNDNAME=MoNA:970805 Lincomycin
LIBRARYQUALITY=3
SMILES=N/A
INCHIKEY=OJMMVQQUTAEWLP-UHFFFAOYSA-N
INCHI=InChI=1S/C18H34N2O6S/c1-5-6-10-7-11(20(3)8-10)17(25)19-12(9(2)21)16-14(23)13(22)15(24)18(26-16)27-4/h9-16,18,21-24H,5-8H2,1-4H3,(H,19,25)
MSLEVEL=2
SOURCE_INSTRUMENT=LC-ESI-QFT-LC-ESI-QFT
FILENAME=output_mgf.mgf
SEQ=*..*
IONMODE=
ORGANISM=MONA
NAME=MoNA:970805 Lincomycin [M-H]-
PI=MoNA
DATACOLLECTOR=MoNA
PUBMED=N/A
SUBMITUSER=mwang87
TAGS=
SPECTRUMID=CCMSLIB00000568872
SCANS=6123
55.0189 0.802264 
57.0346 1.462964 
58.006 0.150996 
58.0298 0.257341 
59.0138 6.508493 
65.0397 0.353286 
66.0349 0.198541 
67.0189 0.282661 
68.0142 0.168459 
68.9982 1.986058 
69.0346 3.441136 
70.0299 0.445138 
71.0139 45.08939 
72.9932 0.718958 
73.0296 1.765974 
73.9832 0.228975 
75.0088 0.335315 
79.019 0.426229 
80.0506 2.15788 
81.022 1.371239 
81.0345 11.712076 
82.0298 0.680873 
83.0138 1.854556 
83.0502 10.014279 
84.0216 0.502082 
84.0455 0.392532 
85.0295 30.202998 
86.0247 0.128171 
87.0087 3.392023 
88.9703 0.256097 
89.0067 0.426634 
89.0244 1.564173 
93.0345 0.335005 
94.0298 0.773318 
95.0138 1.736807 
95.0502 0.397141 
96.0217 0.46902 
96.0454 0.546429 
97.0294 9.711108 
98.0247 0.300196 
98.0612 0.10157 
99.0451 9.165681 
99.9988 0.211934 
100.0404 0.388648 
101.0244 0.598278 
101.978 1.35494 
105.0219 1.522489 
106.0298 0.41745 
107.0139 0.237125 
107.0377 0.535112 
107.0502 0.314627 
108.0217 2.111542 
108.0455 0.637161 
109.0169 2.864929 
109.0294 10.116532 
110.0247 0.914432 
110.0611 0.187425 
111.0087 0.252554 
111.0451 3.46938 
112.0166 0.168455 
112.0405 0.284953 
113.0244 1.518914 
115.04 4.673538 
117.0016 1.760409 
120.0455 0.110028 
122.0247 0.456005 
123.0325 0.424182 
123.0451 0.403883 
124.0403 5.795207 
125.0243 1.545212 
126.056 0.815507 
126.0924 0.55508 
126.9859 0.976939 
127.04 9.460293 
129.0558 0.304927 
133.0167 0.24524 
134.0246 0.526398 
135.0325 0.124486 
137.0066 0.155942 
138.0018 0.536161 
138.0196 0.313532 
139.0096 0.162601 
139.9937 0.162711 
147.0326 0.130428 
150.0198 0.140683 
151.0274 0.977786 
151.0402 0.338659 
152.1084 0.104957 
153.0431 0.331811 
154.0331 0.118275 
165.9968 1.170439 
166.124 0.200322 
168.1395 0.452817 
169.1346 100.0 
170.1186 19.239652 
182.1548 0.569064 
184.1343 0.258236 
191.1554 0.13725 
193.1347 0.264453 
195.1501 2.453884 
197.1295 2.922559 
207.1502 1.147229 
209.1294 0.587254 
209.1659 10.411129 
211.1452 2.423398 
212.1293 0.439171 
217.1339 0.199469 
219.1504 0.15276 
221.1656 0.250441 
223.1452 4.995252 
223.1815 0.515728 
224.1531 0.169543 
225.1246 0.456202 
225.1608 4.222749 
231.15 0.4675 
233.1659 2.639822 
235.1451 3.58837 
237.1608 7.044251 
239.1402 0.1192 
239.1765 1.464875 
241.1558 0.181557 
247.1452 0.146207 
249.1608 1.605313 
251.1764 0.308072 
253.1557 7.602829 
259.1451 7.318872 
260.1533 0.132495 
261.1608 0.425937 
263.1764 0.760877 
265.1558 0.929701 
267.1712 0.131057 
277.1556 3.989372 
279.1711 0.235941 
292.1251 0.930592 
310.1357 0.663479 
325.1591 0.45471 
END IONS

