BEGIN IONS
PEPMASS=212.98
CHARGE=1+
COMPOUNDNAME=Aconitic Acid
LIBRARYQUALITY=3
SMILES=N/A
INCHIKEY=GTZCVFVGUGFEME-IWQZZHSRSA-N
INCHI=InChI=1S/C6H6O6/c7-4(8)1-3(6(11)12)2-5(9)10/h1H,2H2,(H,7,8)(H,9,10)(H,11,12)/b3-1-
MSLEVEL=2
SOURCE_INSTRUMENT=N/A-ESI-QFT
FILENAME=library_mgf.mgf
SEQ=*..*
IONMODE=positive
ORGANISM=MONA
NAME=Aconitic Acid [M+K]+
PI=MoNA
DATACOLLECTOR=MoNA:VF-NPL-QEHF026293
PUBMED=N/A
SUBMITUSER=mwang87
TAGS=
SPECTRUMID=CCMSLIB00004717356
SCANS=26293
50.349136 0.007484 
50.825306 0.008362 
50.90155 0.005134 
51.329445 0.006257 
51.416641 0.009033 
51.940365 0.253332 
53.038979 0.010463 
53.090668 0.006891 
53.116028 0.010197 
54.307964 0.007358 
54.421181 0.007111 
54.772751 0.009016 
54.805237 0.010604 
55.018154 0.026391 
55.054554 2.164636 
55.523174 0.007097 
55.618187 0.007582 
55.934628 0.010008 
56.049809 0.26339 
56.057926 0.027971 
56.133003 0.00619 
56.667683 0.007346 
56.96508 0.849598 
57.03381 0.250655 
57.070194 2.976112 
57.638 0.009657 
57.79958 0.008583 
57.935066 1.292173 
58.065422 1.755158 
58.376659 0.00813 
58.998135 0.029099 
59.049435 0.023916 
60.079643 0.010127 
61.010895 4.490511 
61.039886 0.184612 
61.41507 0.007239 
61.651585 0.009021 
61.707775 0.006389 
61.7579 0.010629 
62.014282 0.016182 
62.018684 2.055482 
62.229561 0.008459 
62.309502 0.008141 
62.38398 0.007097 
62.404003 0.008475 
62.9226 0.009683 
62.992176 0.006632 
63.006618 0.029097 
63.60598 0.007038 
65.005829 0.010325 
65.101799 0.007349 
66.05925 0.006835 
66.554054 0.008461 
67.05439 3.677373 
67.511162 0.008374 
67.675598 0.007727 
67.934967 0.010784 
67.977585 0.009568 
68.057678 0.111671 
68.095688 0.007976 
69.033737 0.041759 
69.07 3.907219 
69.452911 0.006261 
69.461487 0.008314 
70.065269 0.548962 
70.073296 0.051087 
70.566566 0.005368 
71.049255 1.358316 
71.060486 0.590048 
71.085617 1.667272 
71.457657 0.009516 
71.624397 0.008518 
71.929428 0.027015 
71.988892 0.010197 
72.080902 0.158229 
72.533897 0.008437 
72.686638 0.009135 
72.761871 0.008489 
72.937218 0.070069 
72.958412 0.035981 
73.06485 0.059087 
73.929802 0.327633 
73.956284 0.021836 
74.023621 0.007049 
74.060013 0.037537 
75.412094 0.00689 
75.945351 1.121925 
77.008438 0.055414 
77.032959 0.005163 
77.091652 0.007518 
78.760437 0.008893 
79.021286 3.732177 
79.023781 0.053074 
79.054298 0.82564 
79.688332 0.007509 
80.877594 0.007913 
80.984337 0.008899 
81.016991 0.033097 
81.069939 6.382683 
81.566612 0.008466 
81.924973 0.005631 
81.988808 0.00913 
82.073265 0.291917 
82.588562 0.008692 
82.92495 0.006705 
83.012573 0.005395 
83.049248 0.384519 
83.085556 4.480073 
84.044525 0.007624 
84.080841 0.183096 
84.088959 0.232142 
85.028412 0.021826 
85.039627 0.043334 
85.064873 1.897843 
85.10125 0.818538 
85.426262 0.008541 
85.720383 0.008846 
86.060066 0.141714 
86.096458 0.282465 
86.639191 0.006861 
86.794617 0.008428 
86.892647 0.008752 
87.044128 0.138678 
88.075775 0.340404 
88.82267 0.005858 
88.969658 0.008232 
89.008316 0.017489 
89.192146 0.008539 
89.94001 0.021263 
90.004219 0.010144 
90.667 0.009397 
90.947769 0.136344 
90.969025 0.013912 
91.054298 1.007458 
92.938171 0.081083 
93.069962 1.983128 
93.873337 0.008377 
93.956001 1.234997 
94.065208 0.241315 
94.07338 0.088077 
95.049202 0.172034 
95.085556 12.679147 
95.368301 0.009416 
96.080849 0.054746 
96.088936 0.649613 
97.064888 2.05854 
97.075394 0.006867 
97.101265 1.864298 
97.22451 0.004842 
97.578529 0.005996 
98.059952 0.030987 
98.068237 0.046411 
98.096497 0.03182 
98.104698 0.045041 
98.20134 0.005572 
98.462982 0.010021 
98.97541 0.424278 
98.984253 1.882199 
99.044106 0.062105 
99.080513 0.640618 
100.075722 0.224515 
100.746849 0.010783 
100.971588 0.016117 
101.059769 0.049679 
101.070869 0.008831 
101.946938 0.008757 
101.949974 0.610516 
102.914886 0.026203 
102.948067 0.022004 
102.968369 0.355808 
103.476326 0.008429 
103.92276 0.009887 
103.976768 0.162515 
104.236519 0.008295 
104.930489 0.192279 
105.044838 0.005918 
105.069969 0.991159 
105.142509 0.006856 
105.917145 0.076026 
105.928345 0.038606 
105.994492 0.006699 
107.060364 0.019823 
107.085609 1.67009 
107.217796 0.00852 
107.824409 0.010042 
107.936134 0.014609 
107.971382 0.017458 
108.044502 0.056879 
108.088905 0.04876 
108.393654 0.007892 
109.064873 0.318532 
109.101227 4.623227 
110.096481 0.108268 
110.104591 0.325193 
110.949005 0.035839 
111.080513 1.064229 
111.116837 0.168647 
111.969376 0.008314 
112.075676 0.008196 
112.112129 0.012207 
112.997932 0.005155 
113.059677 0.018813 
113.09613 0.1259 
114.00386 0.004787 
114.091354 0.294722 
114.102646 0.025475 
115.075478 0.108117 
115.106049 0.009992 
115.95002 0.015671 
116.070435 0.01404 
116.985947 0.321621 
117.070061 0.009242 
117.917007 0.024834 
118.924873 0.006244 
119.00119 0.718806 
119.060463 0.146426 
119.085632 1.994332 
119.917862 0.073449 
119.927963 0.009122 
119.96051 0.252225 
120.089035 0.032188 
120.228409 0.009557 
120.925583 0.408318 
120.940666 0.035329 
120.97892 0.246899 
120.997856 0.00746 
121.10125 1.069632 
121.933144 0.390004 
122.104843 0.019261 
122.348915 0.005218 
122.931152 0.047858 
122.940887 2.138252 
122.975517 0.01204 
123.080437 0.709559 
123.116806 0.522627 
123.912483 0.038867 
123.938812 0.732924 
123.948799 0.520692 
123.991249 0.012577 
124.076141 0.008814 
124.112007 0.030542 
124.936424 0.145644 
124.946213 0.008631 
125.096046 0.334314 
126.091156 0.009025 
126.128433 0.007839 
127.075455 0.102803 
127.575127 0.0457 
128.079376 0.009428 
128.107086 0.070524 
128.302231 0.008794 
129.090698 0.01063 
129.760605 0.007215 
130.159042 0.009397 
132.530014 0.013087 
133.101166 2.353844 
134.104355 0.167695 
134.298416 0.006963 
134.919601 0.036227 
134.940979 0.192346 
134.956085 0.749059 
134.978653 0.529491 
134.996368 0.1433 
135.080429 0.055308 
135.116776 1.274786 
135.417511 0.00956 
135.927475 0.02669 
135.939362 0.005928 
135.948715 2.28128 
135.956406 0.093645 
136.075806 0.009045 
136.11235 0.016102 
136.580383 0.375472 
136.920395 0.122062 
136.935364 0.008498 
136.956696 0.314303 
137.01178 6.089458 
137.096207 0.691974 
137.132523 0.668391 
137.137451 0.006933 
137.918594 0.019064 
137.928085 4.561613 
137.95462 0.718717 
137.964432 1.908089 
137.970551 0.142206 
138.012421 0.758399 
138.926041 0.00603 
138.935822 0.883155 
138.951141 0.048929 
138.962265 0.291603 
138.989487 0.09536 
139.009033 0.37778 
139.112091 0.011318 
139.943771 0.036884 
139.959641 0.046325 
140.070663 0.010121 
140.107178 0.034694 
140.951538 0.231718 
140.985809 0.261941 
141.000595 0.180336 
141.040695 0.111364 
141.090836 0.036422 
141.922729 0.016917 
141.949417 0.131841 
142.086334 0.502674 
142.323868 0.004687 
142.580322 0.335852 
143.001114 0.018159 
143.019043 0.006897 
143.348434 0.00948 
145.585632 0.105771 
145.699005 0.00803 
147.116943 0.675854 
148.120026 0.02352 
148.831055 0.006771 
148.956589 0.061518 
148.971878 0.841178 
149.095947 0.009866 
149.132553 1.592669 
149.473587 0.00829 
150.135864 0.104284 
150.450378 0.009965 
150.918686 0.009257 
150.951172 1.63393 
150.972198 4.454592 
151.027435 0.06148 
151.11174 0.62782 
151.148117 0.751966 
151.585602 0.8049 
151.943741 0.448373 
151.949829 0.007361 
151.958984 0.062663 
151.998856 0.009111 
152.056564 0.008898 
152.08699 0.021128 
152.106964 0.136212 
152.11496 0.011018 
152.143127 0.040134 
152.951508 9.9182 
152.966568 0.51788 
152.989319 0.374056 
153.090958 0.14871 
153.127274 0.138441 
153.95932 88.696785 
154.086243 0.037467 
154.097626 0.04522 
154.122772 0.779701 
154.912827 0.009563 
154.930923 0.009786 
154.941208 0.017948 
154.947144 0.084727 
154.95665 0.029993 
154.962631 0.758848 
154.977936 0.788176 
154.9841 0.009252 
154.990585 0.009287 
155.015701 0.030362 
155.022263 3.035832 
155.106659 0.197362 
155.928543 0.025048 
155.954987 0.073767 
155.964645 0.674082 
156.02301 0.296533 
156.138123 0.033536 
156.443039 0.009412 
156.94635 0.976141 
157.019577 0.165747 
157.576508 0.074031 
158.027008 0.020585 
158.153564 0.010269 
158.593079 0.013573 
158.996399 0.47587 
159.006699 0.021124 
159.116867 0.145267 
159.223694 0.009802 
160.591095 0.272962 
161.012054 0.030728 
161.132477 2.496262 
162.13588 0.007518 
163.9543 0.110573 
164.988998 0.008242 
165.127335 0.012044 
165.574554 0.010002 
165.941437 0.012478 
166.159027 0.957629 
166.165985 0.012077 
166.582184 0.101563 
166.912415 0.010341 
166.942245 0.009389 
166.967148 0.609831 
166.98259 0.125571 
167.14299 0.248956 
167.162369 0.038431 
167.260742 0.009253 
167.920792 0.373251 
167.93866 0.762619 
167.975082 1.662816 
167.982178 0.01465 
168.138367 0.146967 
168.919006 0.013758 
168.936752 0.034482 
168.961731 0.640931 
168.982758 15.041817 
169.097153 0.037309 
169.917877 0.546095 
169.944534 0.254197 
169.954102 0.584928 
169.986359 0.11077 
170.154175 0.010308 
170.952515 0.493828 
170.962158 4.684538 
171.000488 0.015571 
171.959991 0.224557 
172.133972 0.00983 
172.582031 0.16622 
172.923477 0.053498 
172.952209 0.090079 
172.988434 0.938769 
174.579651 0.25841 
175.148178 1.900954 
175.587509 0.045104 
176.151718 0.37533 
176.975296 0.111875 
176.988647 0.008197 
177.00737 0.038446 
177.12764 0.008908 
177.136429 0.006934 
177.164154 0.011676 
177.590561 0.005969 
178.978378 0.499164 
178.986145 0.020881 
179.143036 1.037717 
179.964066 0.040414 
180.05191 0.021181 
180.100479 0.11964 
180.138626 0.010055 
180.906189 0.006169 
180.928635 1.087238 
180.943802 0.610398 
180.961823 0.012836 
180.982208 0.019998 
181.587479 0.185775 
181.926483 0.316787 
182.089432 0.014004 
182.154312 0.099459 
182.924698 0.129329 
182.934952 0.0932 
182.944427 3.121834 
182.977951 0.011221 
182.99855 0.184996 
183.916534 0.037568 
183.942245 2.771481 
183.951248 0.248023 
184.169464 0.046767 
184.939758 0.615905 
184.977951 0.019974 
185.933578 0.021289 
185.949203 31.077709 
186.091293 0.010794 
186.946945 0.257083 
186.953766 0.071314 
186.991562 0.973486 
187.004944 0.010536 
187.181137 0.009625 
187.954285 0.311415 
188.973892 0.028519 
189.511292 0.009554 
189.933548 0.008611 
191.745804 0.00921 
192.96167 0.028143 
193.116348 0.128377 
193.158966 0.501236 
194.117325 0.058692 
194.128372 0.059973 
194.154037 0.497237 
194.163055 0.011908 
195.000015 0.010939 
195.112854 0.02085 
195.137924 0.057907 
195.148804 0.026599 
195.157822 0.008918 
196.13327 0.117346 
196.169754 2.649079 
196.995895 0.07293 
197.015228 1.561675 
197.153809 0.355802 
197.172852 0.155288 
197.974609 0.423486 
198.016388 0.486583 
198.049667 0.008817 
198.939194 10.080887 
198.95491 0.456089 
198.992844 0.08503 
199.011948 0.696447 
199.943176 0.032542 
199.955261 0.03334 
199.965042 0.634749 
200.954865 0.226372 
201.452026 0.011926 
201.926239 0.028133 
201.943665 0.051733 
201.952713 1.469023 
203.022202 0.684431 
205.002106 0.444947 
210.971802 0.017172 
211.065414 0.04083 
211.094925 0.043753 
211.106171 0.021726 
211.129303 0.048744 
211.1436 0.029531 
211.169693 0.15782 
211.179337 0.06697 
211.18927 0.912604 
211.299316 0.008428 
212.053101 0.400435 
212.092575 0.047637 
212.107574 0.152918 
212.119263 0.626133 
212.128433 0.327495 
212.139267 5.841153 
212.164566 2.489481 
212.175644 0.627861 
212.200943 1.377227 
212.237473 2.126144 
212.954315 0.008621 
212.971207 0.012189 
213.056473 0.01033 
213.110062 0.974818 
213.123032 0.295308 
213.145187 1.125958 
213.15918 0.240168 
213.168747 0.168836 
213.195297 0.037723 
213.205383 0.035606 
213.23233 0.305906 
213.241547 0.144681 
213.962814 6.792211 
214.070847 0.010124 
214.086304 1.9225 
214.108109 0.193877 
214.122849 0.849628 
214.143616 0.669425 
214.159424 0.993821 
214.180161 1.082085 
214.252914 100.0 
214.96611 0.085127 
215.016037 0.527965 
215.026016 0.331014 
215.089722 0.229192 
215.125641 4.137593 
215.137589 0.168713 
215.164215 0.121703 
215.256378 0.054094 
215.984894 0.030984 
216.027374 0.037684 
216.94986 13.810024 
217.022598 0.123391 
217.260849 0.193267 
217.269211 0.163801 
217.952286 0.135349 
221.032913 0.071602 
226.945374 0.530004 
230.966019 0.074821 
230.981323 0.097434 
231.017548 0.250051 
END IONS

