BEGIN IONS
PEPMASS=319.118
CHARGE=1+
COMPOUNDNAME=Dechlorogriseofulvin
LIBRARYQUALITY=3
SMILES=N/A
INCHIKEY=QPCYNIYZPDJCMB-UHFFFAOYSA-N
INCHI=InChI=1S/C17H18O6/c1-9-5-10(18)6-14(22-4)17(9)16(19)15-12(21-3)7-11(20-2)8-13(15)23-17/h6-9H,5H2,1-4H3
MSLEVEL=2
SOURCE_INSTRUMENT=N/A-ESI-QFT
FILENAME=library_mgf.mgf
SEQ=*..*
IONMODE=positive
ORGANISM=MONA
NAME=Dechlorogriseofulvin [M+H]+
PI=MoNA
DATACOLLECTOR=MoNA:VF-NPL-QEHF000827
PUBMED=N/A
SUBMITUSER=mwang87
TAGS=
SPECTRUMID=CCMSLIB00004691890
SCANS=827
50.341377 0.023943 
50.640396 0.024485 
50.78294 0.020724 
50.933853 0.026869 
51.471638 0.016527 
51.484795 0.017197 
52.213432 0.016823 
52.574524 0.017299 
52.623318 0.024662 
52.687164 0.022249 
53.002945 0.179786 
54.249077 0.025231 
54.430737 0.025037 
54.791241 0.023466 
55.018578 0.706051 
55.038368 0.025322 
55.184017 0.025101 
55.709469 0.02573 
56.521603 0.017195 
58.096802 0.02257 
58.765759 0.031695 
58.964676 0.018156 
59.298294 0.024455 
59.674686 0.031913 
60.119434 0.01627 
60.266125 0.025403 
60.537334 0.016493 
61.955215 0.021111 
62.250061 0.027362 
63.655781 0.020753 
65.570854 0.027151 
66.52903 0.023491 
66.965683 0.022315 
68.101715 0.021677 
68.124245 0.031451 
68.558746 0.021483 
68.617058 0.026175 
69.034103 63.647079 
69.243462 0.026304 
69.670891 0.023715 
70.037476 2.56398 
70.817642 0.02489 
71.426994 0.030918 
72.19223 0.021912 
72.451714 0.019985 
72.624893 0.029417 
72.76619 0.021897 
73.29612 0.024173 
74.417358 0.023903 
75.654266 0.024721 
76.694939 0.024064 
77.113312 0.027281 
77.126915 0.018877 
77.515518 0.028002 
78.183525 0.021164 
79.054832 0.048591 
79.128868 0.023046 
81.070419 0.036934 
81.344704 0.027675 
82.14325 0.023134 
82.53569 0.023326 
84.34417 0.027308 
84.577309 0.021237 
84.733887 0.035645 
85.759422 0.023304 
87.223686 0.027353 
87.451645 0.028247 
87.744965 0.028516 
87.874214 0.017243 
88.377083 0.025218 
89.748207 0.034271 
89.997269 0.017402 
91.08429 0.028855 
91.86911 0.024902 
92.217255 0.030964 
93.033852 0.031327 
94.339478 0.026841 
95.049469 0.353475 
96.823959 0.019654 
97.120728 0.017985 
98.098412 0.024928 
98.409073 0.027302 
98.942802 0.020425 
99.044342 0.994498 
100.557884 0.028411 
101.489037 0.023178 
101.670372 0.030847 
102.549782 0.033663 
103.005684 0.03027 
107.049339 0.435746 
108.509552 0.022469 
109.064995 0.371272 
109.735817 0.029399 
110.602325 0.02638 
111.044266 0.112005 
112.197327 0.027756 
112.221085 0.02492 
113.059883 0.947129 
114.232109 0.02891 
114.824356 0.03063 
117.224594 0.028747 
117.827103 0.024351 
118.536224 0.025333 
120.202652 0.027658 
121.028435 0.027292 
122.036339 0.392916 
123.044411 0.031863 
123.953026 0.029372 
125.059753 0.864907 
125.992378 0.015404 
130.428146 0.029641 
132.471313 0.024719 
134.558731 0.029594 
135.080276 0.671605 
135.154617 0.017833 
135.487106 0.02216 
136.541382 0.023495 
137.05957 0.138553 
138.030869 0.325282 
139.075226 0.377417 
143.262314 0.023507 
143.759827 0.030537 
143.880188 0.024733 
144.285828 0.024117 
148.400375 0.02992 
150.031052 0.5395 
150.445847 0.024596 
151.03894 0.218425 
153.054367 0.22469 
153.421356 0.019023 
154.062408 0.032271 
155.509079 0.030616 
158.802322 0.02465 
158.907394 0.027689 
161.90271 0.017518 
161.955841 0.034504 
163.075165 6.297533 
164.078552 0.313561 
165.054459 61.899162 
166.02597 2.284287 
166.057816 5.50298 
168.041534 0.018859 
169.380463 0.029831 
170.383774 0.032514 
170.705536 0.022572 
171.425034 0.030404 
175.07515 0.02986 
176.797623 0.024547 
178.866653 0.017359 
181.049362 100.0 
181.903488 0.021426 
182.052826 9.163739 
183.054596 0.17612 
183.065109 0.133136 
183.560287 0.025528 
184.036499 0.404949 
190.062286 0.442135 
191.070068 0.798528 
191.392319 0.022089 
192.077744 0.411644 
192.21965 0.031941 
193.049255 0.038631 
197.830948 0.017298 
198.431854 0.017644 
202.779297 0.018156 
205.259048 0.027625 
205.648254 0.029122 
207.063477 0.029148 
208.072891 0.027321 
209.376572 0.030746 
215.078033 0.60289 
215.090271 0.551846 
216.098297 0.027468 
217.086044 0.033315 
218.057236 0.323559 
218.493469 0.016837 
219.064987 3.219857 
220.06842 0.159144 
221.044281 0.922488 
221.080643 5.436797 
222.083908 0.387584 
223.096252 8.08996 
223.441711 0.032163 
223.448898 0.018418 
223.51712 0.025293 
224.099625 0.758515 
224.160324 0.022472 
224.380737 0.02129 
225.026596 0.029156 
225.896057 0.030133 
231.101166 2.203734 
234.308426 0.02343 
235.501083 0.01744 
236.06752 5.409131 
237.07103 0.436137 
239.944138 0.022722 
243.064667 1.985313 
244.072281 1.881768 
244.199554 0.022309 
244.529816 0.02567 
245.080505 1.813588 
245.951996 0.029166 
246.083862 0.034171 
249.075531 0.824457 
249.132629 0.020352 
250.761902 0.021374 
251.091049 34.76107 
252.09436 5.111402 
253.096405 0.10007 
254.058075 0.018576 
255.326538 0.02924 
256.264069 0.026704 
257.536743 0.029523 
259.096313 3.801877 
260.099945 0.340525 
271.059845 0.070631 
272.067505 2.099936 
273.070892 0.138969 
275.613647 0.026095 
277.070374 0.269114 
277.106567 1.352263 
277.679596 0.02438 
279.339722 0.026263 
286.082977 0.064398 
286.180695 0.018501 
287.090851 2.23497 
288.094391 0.192416 
289.111298 0.023979 
301.106628 0.068564 
310.635834 0.030113 
315.628082 0.025858 
318.322174 0.025223 
319.13559 0.03543 
319.607483 0.026881 
324.14267 0.03224 
328.525909 0.023304 
340.106659 0.022645 
342.424561 0.029626 
342.980042 0.02171 
END IONS

