BEGIN IONS
PEPMASS=506.222
CHARGE=1+
COMPOUNDNAME=TOBRAMYCIN
LIBRARYQUALITY=3
SMILES=N/A
INCHIKEY=NLVFBUXFDBBNBW-PBSUHMDJSA-N
INCHI=InChI=1S/C18H37N5O9/c19-3-9-8(25)2-7(22)17(29-9)31-15-5(20)1-6(21)16(14(15)28)32-18-13(27)11(23)12(26)10(4-24)30-18/h5-18,24-28H,1-4,19-23H2/t5-,6+,7+,8-,9+,10+,11-,12+,13+,14-,15+,16-,17+,18+/m0/s1
MSLEVEL=2
SOURCE_INSTRUMENT=N/A-ESI-QFT
FILENAME=library_mgf.mgf
SEQ=*..*
IONMODE=positive
ORGANISM=MONA
NAME=TOBRAMYCIN [M+K]+
PI=MoNA
DATACOLLECTOR=MoNA:VF-NPL-QEHF011820
PUBMED=N/A
SUBMITUSER=mwang87
TAGS=
SPECTRUMID=CCMSLIB00004702883
SCANS=11820
50.182655 0.062756 
50.453045 0.04053 
50.505039 0.044271 
50.87376 0.045896 
51.680691 0.037035 
51.940704 1.441532 
51.979607 0.03923 
52.151604 0.064616 
52.528145 0.063253 
52.558678 0.066251 
53.002907 0.417739 
53.039314 0.44657 
54.921448 0.079792 
55.018536 0.914534 
55.054974 6.510638 
55.205853 0.037038 
55.510311 0.038031 
55.812881 0.076433 
55.935135 2.66991 
56.050194 1.332128 
56.058315 0.048875 
56.228252 0.068953 
56.854088 0.043221 
56.965504 7.547832 
57.034203 0.607422 
57.069126 0.15382 
57.07061 17.047842 
57.072212 0.070422 
57.255592 0.033092 
57.680828 0.041327 
57.766747 0.042076 
57.935551 0.059513 
58.065845 0.376671 
58.073929 0.257899 
58.374809 0.034832 
58.938438 0.037569 
59.049831 0.653971 
59.061089 0.658586 
59.296967 0.062955 
59.743206 0.044355 
59.888512 0.040803 
59.990959 1.25685 
60.045094 0.056468 
60.244698 0.059186 
60.689507 0.046201 
61.011372 5.24789 
62.019176 1.121792 
62.982441 3.228446 
63.846199 0.053137 
64.50946 0.045369 
64.98774 0.045388 
65.039207 0.143533 
65.056801 0.042295 
65.139908 0.068967 
65.750305 0.037808 
65.883156 0.049047 
66.090515 0.038218 
66.218163 0.047289 
67.054909 8.235592 
67.118362 0.037833 
67.147888 0.040063 
67.334732 0.040887 
67.48362 0.067066 
67.842285 0.045565 
68.049995 0.113001 
68.058121 0.046696 
68.218178 0.042669 
68.919464 0.070954 
68.943382 0.101097 
69.034195 0.398794 
69.070526 4.790942 
70.02932 0.043868 
70.065758 0.790621 
70.073868 0.115427 
70.958466 0.49245 
71.049744 0.599852 
71.086128 1.719333 
71.654541 0.052043 
71.880661 0.037251 
71.929756 0.147021 
71.952522 0.050065 
72.044952 0.09761 
72.081474 0.382336 
72.264496 0.037735 
72.757713 0.040103 
72.937752 1.67117 
73.02906 4.733165 
73.047409 1.707675 
73.065422 0.105633 
73.945526 0.047236 
74.060722 0.049587 
74.097015 3.030999 
74.367661 0.047795 
74.917099 0.046284 
75.627281 0.038527 
76.434265 0.054309 
76.712227 0.03737 
76.744164 0.044745 
78.013756 0.047246 
79.021706 3.313642 
79.054794 4.045809 
79.065735 0.064709 
79.14016 0.045015 
79.379715 0.041235 
80.050011 0.212393 
80.626564 0.059692 
80.761116 0.041681 
80.948433 0.546311 
81.000839 0.231403 
81.017334 0.042343 
81.033928 0.070999 
81.070419 6.638038 
82.065628 0.44238 
82.073853 0.051498 
82.092018 0.035074 
83.002296 0.039354 
83.010849 0.916685 
83.049599 0.418464 
83.08606 2.025378 
83.646774 0.041823 
84.044838 0.062331 
84.081215 0.379356 
84.089325 0.042911 
84.6717 0.057801 
84.946274 0.036441 
84.96022 0.509554 
85.029076 0.100197 
85.065262 0.095112 
85.101707 0.167422 
86.096893 0.46475 
87.044525 2.204129 
87.051888 0.043074 
87.055038 0.039789 
88.021965 0.049327 
88.03447 0.052882 
88.076202 0.044007 
88.968895 0.37906 
88.978569 0.34403 
89.053406 0.039857 
89.060165 2.335273 
89.531815 0.036197 
89.729042 0.044632 
89.9403 0.043247 
89.964096 0.04891 
90.712379 0.045335 
90.895355 0.055248 
90.945419 0.048665 
90.948135 2.798052 
91.054657 4.630583 
91.057777 18.398485 
91.061218 0.036363 
91.113136 0.045053 
92.057495 0.969857 
92.061073 0.333843 
92.448639 0.034202 
93.036987 0.318342 
93.054558 0.896972 
93.057663 0.051923 
93.07029 3.579996 
94.065491 0.156606 
94.073486 0.05217 
95.016205 0.175984 
95.019302 0.101536 
95.0495 1.456047 
95.073364 0.049137 
95.08593 4.568733 
95.365456 0.042358 
95.807663 0.053827 
96.08107 0.34195 
96.089287 0.056 
96.995689 0.040913 
97.065147 0.357425 
97.101471 0.337076 
97.777565 0.043487 
98.096703 0.260973 
98.975578 0.307011 
99.044411 0.086252 
99.145592 0.049323 
99.655411 0.049802 
99.878998 0.062635 
100.030853 0.046524 
100.075905 0.042075 
101.428001 0.043512 
101.530632 0.04054 
101.848442 0.051891 
102.12561 0.05395 
102.948196 0.065325 
103.054596 0.133566 
104.038544 0.034759 
104.963554 0.111372 
105.033684 0.110756 
105.066483 0.052894 
105.070107 2.92358 
105.073532 0.254384 
106.065323 0.265344 
106.073601 0.071262 
106.582016 0.050636 
107.049309 0.32023 
107.08577 2.044043 
108.067856 0.053245 
108.080757 0.162803 
108.422905 0.066381 
108.958397 1.406153 
109.064873 0.26253 
109.101334 1.386405 
110.181267 0.050527 
110.813492 0.046503 
111.041809 0.147934 
111.044472 0.043701 
111.080498 0.122186 
113.035172 0.048648 
113.107635 1.644322 
113.662621 0.045992 
115.807228 0.044094 
116.052917 0.126315 
116.986076 1.463378 
117.069923 0.456399 
118.065018 0.041539 
118.087181 0.051289 
118.433647 0.043193 
118.640808 0.067032 
118.943115 0.155743 
119.085632 1.618566 
119.136482 0.037311 
119.950775 0.052506 
120.080795 0.516624 
121.028542 0.059957 
121.064934 0.32186 
121.088554 0.048127 
121.101334 0.365922 
122.476158 0.078547 
122.974045 0.116289 
123.080376 0.056508 
123.091789 0.058445 
123.116852 0.17475 
123.945724 0.066382 
125.540306 0.049488 
125.961014 0.25618 
127.036804 0.052551 
128.96373 0.557266 
129.069885 0.208386 
130.159012 9.933247 
130.706146 0.043215 
131.00032 0.055278 
131.085495 0.882177 
131.162262 0.181698 
132.080521 0.146435 
132.958237 2.023974 
133.033813 0.061193 
133.064697 0.048134 
133.101074 0.478594 
133.454391 0.052674 
134.096497 0.118175 
134.955688 0.055345 
134.996414 3.081354 
135.00264 0.046183 
135.080307 0.527213 
135.116531 0.169397 
135.939255 0.047842 
136.270599 0.057106 
137.095764 0.112878 
137.161606 0.055057 
138.445419 0.047094 
138.951782 0.042952 
140.143188 0.475474 
140.42865 0.040508 
142.507446 0.073968 
143.085205 0.14377 
144.0811 0.047105 
144.958466 0.058781 
145.064713 0.101551 
145.101074 0.158909 
146.012054 0.164791 
146.096146 0.13232 
146.974167 8.517741 
146.996658 0.055545 
147.080154 0.118413 
147.116623 0.299312 
147.974396 0.232585 
148.540771 0.050996 
148.972198 0.58689 
149.011261 0.045034 
149.044678 0.382391 
150.289017 0.0569 
150.47612 0.038956 
150.951004 0.864048 
150.968735 7.508287 
151.075104 0.048263 
152.55304 0.067683 
152.951172 0.107918 
152.966461 0.128623 
153.00708 0.213451 
154.999283 0.053126 
155.067841 0.212118 
158.096069 0.049678 
159.080597 0.04494 
159.669281 0.038242 
160.027939 0.062232 
160.112091 0.048247 
160.989655 0.179205 
161.095718 0.097477 
161.131805 0.051806 
161.914276 0.044104 
161.984619 0.072007 
162.87088 0.056829 
163.976898 0.567694 
164.284821 0.048967 
164.920486 2.276874 
164.984238 1.774577 
166.982224 0.055728 
167.055389 3.747033 
167.223633 0.04536 
168.054871 0.138124 
168.138321 0.106892 
168.916794 0.233447 
168.961563 0.444464 
169.052521 0.324525 
169.398422 0.063075 
169.812561 0.038018 
170.962601 0.164934 
171.062592 0.374909 
171.904175 1.090143 
173.048355 0.23527 
173.197266 0.040178 
173.900864 0.176613 
174.006104 0.123659 
176.93959 0.046273 
177.128281 0.062588 
178.569412 0.049333 
178.892654 1.641318 
178.963989 0.219201 
180.887985 2.102171 
181.987198 0.06519 
184.064407 0.053347 
184.883316 0.046603 
186.415207 0.088378 
186.878403 0.68356 
186.927597 2.095006 
188.021896 0.064331 
188.9245 0.589479 
191.880676 2.244063 
192.88884 0.047174 
194.407623 0.072163 
194.810303 0.036466 
196.903015 0.468925 
197.890686 0.107125 
198.898438 0.603462 
199.093872 0.08005 
201.04306 0.048867 
202.892944 0.350347 
203.067444 0.044689 
203.14296 0.180757 
203.881638 0.117304 
204.394531 0.068349 
204.888092 1.253357 
206.867737 0.787265 
207.875626 4.464697 
208.883575 3.372258 
208.904175 0.038214 
209.891388 7.752094 
210.079681 0.098688 
210.890121 0.177794 
210.899704 0.688363 
211.156189 0.053565 
212.618118 0.045986 
213.885498 0.066569 
214.452682 0.039019 
214.893402 1.158605 
215.087372 0.060432 
215.881149 0.049106 
215.901001 0.117838 
216.090973 0.059716 
216.888474 0.401559 
217.783752 0.041123 
218.868134 0.050416 
218.907501 0.540981 
219.174194 0.130532 
219.87709 0.056059 
220.293671 0.040873 
220.318024 0.324447 
220.338211 0.148993 
220.903152 21.733589 
221.891586 0.216811 
222.898453 41.747505 
223.06369 0.103362 
223.788574 0.070234 
223.900131 0.79956 
224.878281 5.182991 
224.937225 0.045306 
225.042786 0.382891 
225.886276 11.991804 
226.074478 0.095412 
226.884979 0.28973 
226.895386 0.453724 
227.022018 0.054361 
227.900925 0.558193 
228.090576 0.444086 
228.908737 0.057751 
228.96669 0.070519 
229.074936 0.059204 
229.194275 0.083844 
229.357941 0.070772 
229.883804 0.073674 
229.895798 11.601073 
230.897888 0.203385 
231.896576 0.11705 
232.883636 0.544047 
232.904236 0.950871 
233.891205 14.565171 
233.903732 0.174256 
234.899124 32.938911 
234.91925 0.734306 
235.064545 0.049896 
235.899216 3.57483 
236.898514 0.304694 
236.91655 3.35004 
237.886505 0.057736 
237.905975 2.190042 
237.921722 0.981079 
238.892532 0.979408 
238.913742 51.044155 
239.591187 0.049106 
239.901413 2.127039 
239.914642 0.180567 
240.908997 100.0 
241.910538 3.815878 
242.106003 0.047826 
242.912842 0.359756 
245.455215 0.048297 
245.910843 0.755945 
245.962097 0.061195 
246.101334 0.278222 
246.884109 0.041161 
246.898727 0.315376 
246.910889 0.274629 
247.906265 16.078279 
248.87825 9.228317 
248.913589 1.609288 
249.880249 0.371335 
250.893982 5.578906 
251.132416 0.05246 
251.195236 0.069143 
251.902008 1.722242 
252.909836 2.55215 
252.929398 2.770083 
253.917404 2.618412 
254.924789 5.968853 
255.895966 0.517371 
256.13385 0.044 
258.899353 0.095721 
258.91983 0.06155 
258.994873 0.419313 
261.885712 0.278415 
261.906342 0.714793 
261.921814 0.2764 
262.913177 0.331477 
263.046844 0.081881 
263.901611 1.680497 
264.894806 0.448294 
264.908905 14.412094 
265.912079 0.458931 
266.888855 10.589984 
266.999084 0.770902 
267.88916 0.908239 
267.998901 0.097749 
268.904572 0.263884 
268.979645 0.046582 
268.995728 0.466636 
274.893585 0.24928 
274.914673 0.052817 
275.901703 4.021796 
276.909546 4.600868 
277.005157 5.101393 
277.791229 0.036968 
277.920746 0.22499 
278.012543 0.483886 
278.924988 0.149735 
279.896271 8.568606 
279.916473 13.45874 
280.812927 0.628727 
280.899658 0.110276 
280.924133 0.31149 
281.911652 10.712734 
282.919586 15.491411 
283.030762 0.144451 
283.820068 0.16682 
283.921112 0.461835 
284.825653 0.061808 
285.026642 0.084906 
285.835785 0.157933 
286.520721 0.043908 
288.909088 0.173053 
288.994507 0.046681 
291.021088 0.69617 
291.569763 0.053843 
291.826263 0.044477 
292.027924 0.069781 
292.814758 0.038018 
293.88382 0.083887 
293.931854 0.192305 
295.01651 0.069787 
295.910706 0.166003 
295.927765 1.326351 
296.209656 0.049624 
296.933868 0.306031 
297.815613 0.567522 
297.906738 7.669191 
298.908478 0.094418 
299.830841 0.056919 
300.82309 0.187887 
302.817902 0.113041 
303.330078 0.047693 
305.046478 0.091066 
305.820038 0.115942 
306.919586 5.287423 
307.920349 0.069647 
308.805298 0.055811 
308.828369 0.186298 
308.847931 0.215738 
309.816498 0.202349 
309.835785 1.32963 
310.843414 5.633908 
312.839386 0.099415 
313.293671 0.049952 
315.845184 0.611981 
317.036011 0.052962 
317.840302 8.76978 
322.823486 1.238498 
323.831696 4.827686 
324.822021 0.192428 
324.930023 1.283509 
325.830414 5.570914 
326.837891 3.559369 
327.825714 0.122549 
327.846283 1.097035 
331.819366 0.412636 
331.855316 0.04403 
332.847839 0.524623 
333.835754 0.118576 
333.856018 0.362272 
334.843018 8.418372 
335.851318 8.246092 
338.81842 0.067675 
339.824127 0.099535 
340.83725 0.272116 
341.841797 1.211154 
342.832764 5.499957 
344.827911 0.345172 
344.975647 0.808433 
345.976471 0.068571 
346.973816 0.711574 
349.830231 0.534429 
349.86792 0.188562 
350.236755 0.042589 
351.846375 3.226869 
351.87085 0.039894 
352.853638 2.090299 
355.858215 0.053007 
356.848145 0.660468 
358.842987 11.344923 
359.852112 0.202092 
362.053986 0.056615 
364.834106 1.369903 
365.844238 1.550629 
366.618591 0.04204 
367.840454 13.068028 
369.855865 0.156496 
371.835388 0.076589 
376.854065 4.879972 
381.8573 0.211723 
382.843262 0.153735 
383.852753 4.83674 
384.855652 0.622588 
385.850952 8.167574 
385.90213 0.063581 
387.149658 0.133746 
394.791687 0.050712 
401.863098 0.494014 
402.963135 1.645727 
403.1987 0.130707 
403.963745 0.309534 
405.161133 1.842337 
405.594666 0.076226 
406.164612 0.059702 
406.845093 2.998107 
407.845245 0.178071 
409.818237 0.044502 
411.390381 0.05179 
413.530518 0.043834 
420.859161 0.21953 
421.215668 0.058074 
424.852661 0.051753 
441.997437 0.070868 
443.11261 0.038765 
447.346588 0.579511 
450.828369 0.04691 
462.603424 0.04129 
475.585999 0.03981 
486.309418 0.035853 
488.766632 0.042767 
492.506927 0.056854 
500.303436 0.040324 
505.333527 0.122644 
516.947632 0.062309 
519.542847 0.047215 
519.672546 0.036321 
END IONS

