BEGIN IONS
PEPMASS=556.933
CHARGE=1+
COMPOUNDNAME=Adenosine
LIBRARYQUALITY=3
SMILES=N/A
INCHIKEY=OIRDTQYFTABQOQ-KQYNXXCUSA-N
INCHI=InChI=1S/C10H13N5O4/c11-8-5-9(13-2-12-8)15(3-14-5)10-7(18)6(17)4(1-16)19-10/h2-4,6-7,10,16-18H,1H2,(H2,11,12,13)/t4-,6-,7-,10-/m1/s1
MSLEVEL=2
SOURCE_INSTRUMENT=N/A-Linear Ion Trap
FILENAME=library_mgf.mgf
SEQ=*..*
IONMODE=positive
ORGANISM=MONA
NAME=Adenosine [2M+Na]+
PI=MoNA
DATACOLLECTOR=MoNA:VF-NPL-LTQ000177
PUBMED=N/A
SUBMITUSER=mwang87
TAGS=
SPECTRUMID=CCMSLIB00004684528
SCANS=149
272.130005 12.035185 
283.309998 84.837357 
308.019989 16.015882 
316.089996 11.071604 
421.98999 100.0 
497.26001 11.276955 
525.330017 25.450834 
END IONS

