BEGIN IONS
PEPMASS=525.317
CHARGE=1+
COMPOUNDNAME=(2E,6E,12E)-18-(2,6-dioxopiperidin-4-yl)-9,11-dihydroxy-8-methoxy-10,12,14-trimethyl-15-oxooctadeca-2,6,12-trienoic acid
LIBRARYQUALITY=3
SMILES=N/A
INCHIKEY=YQDJUXPUIRGKNV-MNOLRWOYSA-N
INCHI=InChI=1S/C27H41NO8/c1-17(21(29)11-9-10-20-15-23(30)28-24(31)16-20)14-18(2)26(34)19(3)27(35)22(36-4)12-7-5-6-8-13-25(32)33/h7-8,12-14,17,19-20,22,26-27,34-35H,5-6,9-11,15-16H2,1-4H3,(H,32,33)(H,28,30,31)/b12-7+,13-8+,18-14+
MSLEVEL=2
SOURCE_INSTRUMENT=N/A-ESI-QFT
FILENAME=library_mgf.mgf
SEQ=*..*
IONMODE=positive
ORGANISM=MONA
NAME=(2E,6E,12E)-18-(2,6-dioxopiperidin-4-yl)-9,11-dihydroxy-8-methoxy-10,12,14-trimethyl-15-oxooctadeca-2,6,12-trienoic acid [M+NH4]+
PI=MoNA
DATACOLLECTOR=MoNA:VF-NPL-QEHF001654
PUBMED=N/A
SUBMITUSER=mwang87
TAGS=
SPECTRUMID=CCMSLIB00004692717
SCANS=1654
50.036709 0.007544 
50.146412 0.008543 
50.366447 0.007102 
50.390896 0.008193 
50.974648 0.007077 
51.464401 0.006063 
51.547901 0.007459 
51.603348 0.009663 
51.719761 0.007718 
51.853256 0.010469 
52.041832 0.008312 
52.271118 0.011805 
52.790134 0.006679 
52.874653 0.00867 
53.039375 0.321244 
53.274109 0.009468 
53.320316 0.007572 
54.099735 0.008284 
54.108749 0.007125 
54.431534 0.010073 
54.782101 0.008163 
54.982742 0.006643 
55.01862 0.273125 
55.054974 0.031898 
55.451492 0.009221 
55.917969 0.008683 
56.094933 0.009035 
56.313622 0.007753 
56.377453 0.008914 
56.929935 0.010535 
56.962025 0.010838 
57.034241 1.033238 
57.180801 0.011776 
57.310596 0.007115 
57.552013 0.007566 
57.842575 0.007703 
57.91259 0.007392 
58.853634 0.010804 
59.04969 0.007213 
59.410324 0.007678 
59.58448 0.009733 
59.602486 0.007379 
59.776283 0.00692 
59.89357 0.008315 
60.045151 1.237696 
60.046913 0.01032 
60.247814 0.008211 
60.379311 0.007729 
60.390736 0.010606 
61.029125 0.289088 
61.177158 0.007459 
61.839123 0.007274 
62.21468 0.008272 
62.750153 0.00618 
63.383183 0.007108 
63.439899 0.009335 
63.482716 0.009436 
63.581902 0.008154 
63.823597 0.008323 
64.087753 0.010209 
64.561935 0.010027 
64.677689 0.00953 
65.185486 0.00678 
65.576752 0.009281 
65.844971 0.009079 
66.211433 0.008545 
66.775314 0.00902 
66.942322 0.010048 
66.957092 0.010235 
67.054932 1.13177 
67.234726 0.010043 
67.452873 0.007658 
67.601562 0.007823 
67.655441 0.008233 
67.803467 0.008056 
68.153694 0.008657 
68.293419 0.006072 
68.555779 0.00719 
68.645409 0.007549 
68.921211 0.014013 
68.978226 0.007078 
69.034164 0.405835 
69.070534 0.727296 
70.119759 0.010015 
70.608185 0.009521 
70.882736 0.008609 
71.003578 0.009582 
71.049797 0.051951 
71.413406 0.009885 
71.610107 0.007593 
72.525185 0.006004 
72.562065 0.005234 
72.627518 0.008303 
73.764572 0.009215 
74.38176 0.01241 
74.591599 0.009419 
74.652519 0.007527 
74.825333 0.010665 
75.475281 0.008386 
76.680435 0.009485 
77.160683 0.006723 
77.735336 0.009465 
77.904343 0.00822 
78.030548 0.008823 
78.119354 0.006159 
78.4925 0.005911 
79.054863 2.493919 
79.374466 0.012207 
79.480408 0.006681 
80.019737 0.008483 
80.058151 0.007485 
80.503929 0.009238 
80.540482 0.009864 
80.608749 0.009844 
80.770042 0.01043 
81.034103 4.939285 
81.07048 1.58408 
81.575233 0.008902 
82.037468 0.030849 
83.049744 0.172752 
83.086052 0.065276 
83.444908 0.007763 
83.875809 0.008147 
84.025558 0.006736 
84.637741 0.00882 
84.763229 0.008438 
85.065315 0.250761 
85.087608 0.008459 
86.0625 0.008132 
87.139381 0.007379 
87.186073 0.005883 
87.47496 0.007561 
88.515854 0.008028 
88.552948 0.01002 
89.135582 0.009756 
90.531342 0.009319 
91.054771 1.054344 
91.574425 0.010811 
92.156487 0.006405 
93.070366 9.690742 
93.184715 0.005767 
94.065575 0.276201 
94.073692 0.44448 
94.255646 0.008956 
94.311501 0.01193 
94.907387 0.00802 
95.049568 0.907748 
95.085991 2.744329 
95.265327 0.009484 
95.771568 0.009253 
95.806473 0.011126 
96.044907 0.009223 
96.089371 0.034375 
97.065254 1.716148 
97.769249 0.009114 
97.855072 0.008109 
98.577438 0.01041 
98.602676 0.009474 
99.044563 0.009819 
99.156876 0.00684 
100.684784 0.007893 
101.803864 0.010658 
102.832924 0.006451 
103.054565 0.048072 
103.698959 0.007248 
103.921455 0.010455 
104.039398 0.010093 
104.514534 0.010232 
105.034027 0.024522 
105.070274 1.825696 
105.102158 0.008738 
105.508789 0.010986 
106.073647 0.012689 
106.274147 0.008822 
106.594482 0.007934 
107.049522 2.192845 
107.081978 0.008159 
107.085892 1.488566 
107.454468 0.009568 
108.337646 0.009632 
109.065155 1.396931 
109.097588 0.11277 
109.101532 5.742281 
109.329765 0.007884 
110.104805 0.237002 
110.251442 0.013161 
110.746407 0.007127 
111.076866 0.007152 
111.080765 1.397678 
111.943146 0.012267 
112.039642 0.020966 
113.074501 0.010279 
113.211403 0.011427 
113.285881 0.008358 
113.387695 0.00605 
114.616562 0.010156 
116.952721 0.010705 
117.070206 0.050618 
118.22963 0.007993 
118.281326 0.01244 
118.468216 0.009586 
119.002296 0.010632 
119.049324 0.290224 
119.085777 2.023724 
120.089172 0.029383 
120.120384 0.011218 
121.065002 3.849814 
121.101372 1.283561 
122.068443 0.080567 
123.04425 0.60987 
123.080627 1.070483 
123.085052 0.010311 
123.116943 0.072297 
124.076393 0.00791 
124.41111 0.010505 
125.059837 1.044425 
125.096367 0.005946 
126.42054 0.007473 
128.441132 0.009185 
129.012146 0.009757 
129.069962 0.141703 
129.858047 0.010583 
131.049194 0.117882 
131.085632 1.104915 
131.116135 0.009298 
131.921112 0.006834 
133.064926 0.404163 
133.101273 3.415806 
134.104416 0.13375 
135.075272 0.008867 
135.080536 1.067486 
135.116867 0.297198 
135.257553 0.007661 
136.075699 0.05125 
136.343491 0.007288 
137.059708 0.761893 
137.096191 1.173063 
137.101517 0.019275 
138.054977 1.619361 
138.091248 0.495233 
139.075378 1.192971 
139.354095 0.011576 
140.070663 12.482764 
141.054565 0.26021 
141.074036 0.636618 
142.293625 0.00857 
143.085541 1.241699 
144.093536 0.087442 
144.564194 0.010341 
145.064789 0.208532 
145.101242 2.036923 
146.104355 0.030355 
146.547928 0.008113 
147.043854 0.010498 
147.080414 1.798301 
147.116776 0.883027 
149.059769 2.851992 
149.096146 1.254023 
149.132568 0.353429 
149.796753 0.007533 
150.062881 0.086681 
151.075302 0.209527 
151.111893 0.134079 
152.070847 0.023815 
152.106995 0.065069 
153.090637 0.033031 
154.086243 2.165771 
155.070038 0.020461 
155.085129 0.062957 
156.10199 0.153702 
157.101181 1.666283 
158.104492 0.022915 
159.080429 0.419991 
159.116928 2.077618 
160.11998 0.043838 
160.616837 0.009856 
161.096054 6.382878 
161.132538 0.124688 
161.708908 0.010406 
161.775375 0.011005 
162.098511 0.141825 
162.104645 0.233138 
162.391571 0.011534 
163.075485 0.011817 
163.111725 1.13851 
164.070572 0.461066 
164.105759 0.009107 
165.054611 0.726095 
165.091003 0.112417 
165.687256 0.008073 
166.086349 0.014683 
167.070297 1.530218 
169.085754 0.145312 
169.101181 0.59221 
171.080566 0.132099 
171.116821 1.476307 
171.422668 0.011776 
171.941147 0.009091 
173.096237 1.320981 
173.132538 2.549472 
174.099274 0.018901 
174.136002 0.0246 
175.018539 0.009103 
175.075867 0.010965 
175.111771 0.960858 
175.148285 0.023942 
176.135239 0.009132 
177.090942 0.60819 
177.12764 0.053921 
177.135895 0.005881 
177.18277 0.007169 
178.536621 0.009303 
179.106766 0.104589 
180.101868 0.712346 
180.942322 0.01199 
181.085907 0.16682 
181.101212 0.061782 
181.378952 0.006766 
182.081268 14.466813 
182.117111 0.033213 
183.065262 0.439729 
183.084824 1.164234 
183.116882 2.824625 
184.087372 0.010837 
184.096878 0.056937 
184.119843 0.141006 
185.080933 0.75852 
185.096054 0.244066 
185.132523 1.142803 
186.135742 0.021979 
186.867432 0.010035 
187.111801 1.683253 
187.148254 0.388549 
187.445999 0.010352 
189.090607 0.069153 
189.127502 0.265787 
190.123047 0.012362 
190.251999 0.009925 
191.106567 0.219365 
192.101807 0.281127 
193.101273 0.250961 
193.188522 0.007762 
194.117691 0.135318 
194.724854 0.008123 
194.769623 0.008978 
195.116699 0.196688 
195.456375 0.008022 
196.088196 0.034483 
197.095657 0.015081 
197.117416 0.041823 
197.132507 2.268603 
197.979599 0.013246 
198.112534 0.402052 
198.136292 0.094886 
199.096466 0.475423 
199.111755 0.992602 
199.148071 0.333409 
200.091766 10.315791 
200.115799 0.010878 
201.09523 0.838986 
201.127426 2.502286 
202.130783 0.134305 
202.268265 0.006231 
203.043625 0.008744 
203.106522 0.084115 
203.143112 0.244344 
203.180496 0.009176 
205.122101 0.012591 
208.133362 0.26695 
208.273636 0.011571 
209.096359 0.061994 
210.149094 0.012957 
211.11174 3.790439 
211.148315 0.661715 
212.115509 0.328408 
213.127289 0.940282 
213.137436 0.579603 
213.148972 0.383538 
213.163757 1.194373 
214.106506 0.010518 
214.130066 0.012026 
215.106781 0.042733 
215.143066 1.199705 
216.147644 0.018521 
216.260971 0.007747 
217.12233 0.354115 
217.747467 0.009518 
219.138016 0.738455 
221.132324 0.024497 
222.512894 0.008074 
223.14801 0.457956 
225.12738 0.029471 
225.823654 0.009964 
228.273697 0.007308 
229.122421 3.232834 
229.158539 0.275861 
230.125916 0.262333 
231.101486 0.009029 
231.137314 0.008237 
231.174774 0.113089 
232.133133 0.422814 
232.169067 0.017511 
233.135086 0.009155 
233.152908 0.031702 
234.148773 0.416481 
236.164352 1.485553 
237.167999 0.085609 
238.20462 0.007231 
239.143204 0.635708 
240.149506 0.006142 
241.158783 1.732709 
242.162033 0.102977 
243.138092 0.176879 
245.116821 0.009136 
245.426453 0.009205 
246.069092 0.009554 
246.185226 0.020935 
246.79158 0.007575 
247.132782 100.0 
248.13623 14.932376 
248.164658 0.286057 
249.104706 0.009827 
249.13887 0.763773 
250.14418 1.621475 
250.180084 0.083234 
251.14566 0.112746 
252.159424 0.271765 
256.169464 0.574411 
257.153625 1.711082 
258.157288 0.1202 
259.16925 7.881887 
260.172913 1.249774 
260.860931 0.00793 
261.148468 0.456686 
262.143707 10.809515 
263.1474 1.665329 
265.012787 0.00795 
266.384674 0.010114 
272.164612 0.056705 
274.180054 16.476004 
274.450653 0.01029 
275.165558 0.022827 
275.183716 2.81863 
275.552643 0.007386 
276.144775 0.008897 
276.187469 0.025614 
277.051361 0.007324 
278.710266 0.005342 
278.909821 0.009303 
280.154327 0.060715 
288.772827 0.010693 
290.174957 0.435443 
291.175873 0.016611 
292.190552 8.810411 
293.194214 1.605224 
299.182343 0.011704 
300.160126 0.019998 
304.19046 0.008786 
304.271942 0.006342 
305.06604 0.009498 
310.180786 0.022931 
310.717255 0.011394 
310.916504 0.008828 
312.793671 0.010164 
314.176971 0.008532 
318.18573 0.097549 
319.012756 0.012074 
320.880646 0.012153 
322.18042 0.02674 
326.175018 0.24113 
326.750885 0.008034 
327.176056 0.012206 
328.192139 0.038864 
328.245453 0.009451 
329.371033 0.012406 
330.070068 0.008361 
334.101807 0.01032 
336.193573 0.01002 
337.956207 0.010855 
338.176178 0.011093 
340.01709 0.011642 
340.190369 0.268456 
341.029724 0.012003 
342.615997 0.007447 
344.185852 0.159633 
345.186462 0.021627 
346.179596 0.135229 
347.794922 0.010539 
350.229584 0.007825 
352.193787 0.008432 
352.276001 0.012166 
354.206177 0.266295 
354.612427 0.010001 
362.211823 0.008474 
364.12088 0.012248 
364.190704 0.618279 
365.194214 0.028554 
367.334351 0.009774 
372.216339 0.043215 
376.226471 0.180358 
380.220551 0.027772 
381.225677 0.00869 
382.201569 0.103836 
386.211151 0.03052 
390.134155 0.01031 
394.23761 0.502602 
401.976929 0.009226 
404.221832 0.791173 
405.225372 0.012744 
405.327393 0.007003 
411.306793 0.006913 
412.248444 0.074948 
415.279877 0.008692 
415.527069 0.008561 
422.232391 1.021348 
423.235626 0.079615 
424.246307 0.007633 
432.095734 0.008192 
434.467834 0.008726 
435.740173 0.009689 
437.169861 0.010854 
440.242737 0.425684 
440.476959 0.008214 
440.514984 0.008918 
441.2453 0.023212 
442.99408 0.008036 
443.13327 0.007499 
443.795715 0.007505 
445.416779 0.005659 
447.348145 0.023412 
449.450623 0.009028 
451.016571 0.006298 
454.71167 0.008838 
460.575806 0.009679 
461.271942 0.007893 
463.714905 0.011468 
467.868866 0.011972 
473.284668 0.00721 
475.22287 0.010303 
479.046753 0.009519 
492.028503 0.007328 
495.33493 0.009487 
499.359772 0.009237 
508.049561 0.01104 
508.657959 0.008839 
510.165131 0.010376 
513.733215 0.007411 
517.045105 0.008524 
524.325928 0.007182 
543.434448 0.007191 
END IONS

