BEGIN IONS
PEPMASS=1224.83
CHARGE=1+
COMPOUNDNAME=CYCLOSPORINE
LIBRARYQUALITY=3
SMILES=N/A
INCHIKEY=PMATZTZNYRCHOR-KMSBSJHKSA-N
INCHI=InChI=1S/C62H111N11O12/c1-25-27-28-40(15)52(75)51-56(79)65-43(26-2)58(81)67(18)33-48(74)68(19)44(29-34(3)4)55(78)66-49(38(11)12)61(84)69(20)45(30-35(5)6)54(77)63-41(16)53(76)64-42(17)57(80)70(21)46(31-36(7)8)59(82)71(22)47(32-37(9)10)60(83)72(23)50(39(13)14)62(85)73(51)24/h25,27,34-47,49-52,75H,26,28-33H2,1-24H3,(H,63,77)(H,64,76)(H,65,79)(H,66,78)/b27-25+/t40-,41?,42?,43?,44?,45?,46?,47?,49?,50?,51?,52-/m1/s1
MSLEVEL=2
SOURCE_INSTRUMENT=N/A-ESI-QFT
FILENAME=library_mgf.mgf
SEQ=*..*
IONMODE=positive
ORGANISM=MONA
NAME=CYCLOSPORINE [M+Na]+
PI=MoNA
DATACOLLECTOR=MoNA:VF-NPL-QEHF028194
PUBMED=N/A
SUBMITUSER=mwang87
TAGS=
SPECTRUMID=CCMSLIB00004721775
SCANS=28194
85.421333 0.40648 
85.472618 0.309136 
86.05085 0.182112 
86.096397 1.755089 
86.321625 0.109104 
88.45871 0.1369 
89.184135 0.381086 
91.640427 0.175103 
91.741821 0.254497 
97.075623 0.092701 
97.249809 0.261483 
98.096336 0.476734 
100.039268 2.642886 
100.111984 59.706173 
100.668434 0.274726 
101.115265 0.28328 
101.297798 0.128777 
103.554543 0.28469 
105.019951 0.203195 
105.500275 0.217138 
105.73098 0.129761 
108.153343 0.104204 
109.049744 1.819661 
112.036797 6.114674 
112.076035 0.269225 
114.091492 0.482705 
116.887001 0.421216 
117.875122 0.395313 
119.029282 0.115918 
120.684448 0.364771 
122.020844 0.778474 
122.057617 0.49197 
122.093582 0.354802 
122.921616 0.368314 
123.052773 1.434027 
123.091606 6.33121 
125.068314 1.177577 
126.054977 0.427074 
127.370865 0.327919 
128.106796 11.619758 
128.22168 0.253672 
128.330002 0.418075 
129.264374 0.185271 
129.296387 0.185002 
130.593628 0.247047 
130.845596 0.326303 
131.946945 0.233581 
133.436691 0.255292 
134.664703 0.278549 
135.052383 0.495514 
135.677307 0.25205 
136.073212 0.626636 
136.112244 1.096065 
137.06842 2.446459 
139.084183 0.72979 
139.184097 0.139752 
140.070114 1.461345 
140.86174 0.446515 
140.923615 0.138416 
141.774445 0.351312 
149.068375 4.091714 
150.089035 0.432076 
151.084076 1.51867 
151.355835 0.228035 
151.784363 0.317145 
152.070267 2.13162 
153.138443 0.899882 
153.214233 0.134349 
155.097 0.250077 
155.414841 0.131386 
156.10173 2.708864 
156.116379 0.13218 
156.164551 0.182094 
156.250778 0.413948 
156.316452 0.381764 
157.097351 0.536092 
160.881683 0.30108 
163.084579 0.357298 
164.06813 0.789121 
164.104279 0.438016 
165.063828 0.172713 
166.75087 0.4155 
166.948578 0.209995 
167.245148 0.370843 
168.100815 1.510835 
169.125137 0.129852 
170.422165 0.233799 
171.148788 0.706714 
171.536026 0.224226 
173.575714 0.364625 
175.610809 0.240938 
176.067673 0.098611 
177.099762 3.025389 
177.522064 0.322115 
178.083908 1.039583 
179.078934 7.480495 
179.115417 0.116981 
182.11734 2.058593 
183.07486 0.30159 
183.643997 0.137356 
184.338074 0.341561 
185.092163 0.302625 
190.083801 0.277607 
191.011627 0.366763 
191.078979 7.58798 
191.115097 1.242485 
192.08638 0.25126 
193.094513 1.640325 
193.131226 7.462507 
194.078827 0.256907 
196.408569 0.165109 
197.089478 14.950341 
198.665161 0.302586 
199.143921 1.051524 
199.834808 0.117736 
200.902039 0.336954 
203.459412 0.12399 
205.09462 0.253942 
205.577652 0.423788 
206.089951 0.838103 
207.110519 3.531338 
207.147415 0.490723 
207.73468 0.288996 
208.105026 0.452833 
209.127121 0.294008 
209.163849 0.501891 
210.121017 1.908691 
210.148773 4.266394 
216.869019 0.256488 
217.750076 0.130361 
218.125946 0.172429 
219.110336 5.284658 
219.66217 4.650555 
219.676315 0.282926 
220.105255 2.064176 
220.141479 1.745505 
221.125809 17.981407 
221.162476 2.278161 
222.120911 2.048534 
223.068237 0.707498 
225.265976 0.125386 
227.073227 0.193567 
228.986145 0.180089 
231.146637 0.196611 
232.104019 0.393957 
233.125931 11.809226 
233.359985 0.255478 
235.141541 1.481714 
235.178665 0.481789 
236.136475 3.753871 
236.847977 0.166034 
238.122696 0.228679 
238.152206 5.516927 
239.136719 1.918054 
239.708969 0.124422 
242.435303 0.154376 
243.384186 0.146883 
245.898911 0.38909 
247.298294 0.261665 
247.899536 0.214138 
248.136917 0.575563 
248.93869 0.208735 
249.157089 0.889883 
250.11554 1.670809 
250.152283 2.561651 
252.168457 0.906844 
255.08078 0.200386 
260.492157 0.277641 
261.157623 0.696046 
262.115265 0.196362 
262.1521 0.410381 
263.172852 1.793388 
264.131348 0.540075 
264.167847 22.246119 
266.01825 0.277653 
267.167358 0.207484 
271.253937 0.313024 
273.156403 0.919893 
274.188568 5.799317 
274.372345 0.135005 
276.131226 2.944401 
276.168915 0.467431 
278.183472 14.791287 
279.143524 0.403654 
279.189758 0.376798 
281.159637 0.460443 
283.549347 0.149771 
287.963715 0.174604 
288.168182 0.491239 
290.147003 0.460993 
290.183197 1.195852 
290.826019 0.397503 
292.162415 3.035604 
292.199036 56.986118 
293.203064 2.344031 
293.493317 0.134023 
302.183502 9.54708 
305.157532 2.533304 
305.194489 3.9989 
306.178894 9.223347 
308.230743 0.398572 
310.173584 1.993028 
316.262421 0.116067 
318.178436 28.941868 
318.306519 0.171037 
319.180145 0.847592 
319.346222 0.327434 
320.194183 8.588598 
320.810364 0.266816 
321.189423 1.074144 
322.243164 0.45373 
323.204895 16.990402 
328.549347 0.167572 
330.776062 0.125427 
331.174011 0.721809 
332.194244 0.468049 
333.153656 0.537001 
333.189362 4.390696 
335.205444 2.567396 
338.269684 0.125803 
345.19043 0.35441 
346.172821 0.156704 
346.209564 22.616438 
347.167969 0.566801 
347.205597 7.444153 
348.262451 1.303218 
349.185028 2.444471 
349.220642 14.796716 
350.165314 0.388986 
350.225006 0.421107 
351.236847 2.526447 
353.195862 0.125249 
359.202576 0.299843 
359.243011 0.122401 
360.225067 4.505747 
361.185028 0.461488 
361.220764 2.007912 
363.200378 1.005073 
363.235992 10.123848 
373.220703 4.495293 
373.372406 0.343778 
375.200775 1.70368 
375.236847 1.748625 
376.193726 0.147023 
377.221313 2.590647 
377.251587 100.0 
378.255096 11.900451 
379.270325 0.635569 
387.23642 6.160965 
387.443542 0.193703 
389.215637 8.366752 
389.252777 2.060188 
390.625397 0.250651 
391.232544 0.738664 
391.26767 16.261673 
392.226074 0.412596 
401.080566 0.274095 
403.230835 37.330467 
403.261688 0.521068 
403.681885 0.140454 
404.230286 5.142949 
406.239807 0.198931 
417.246521 12.242756 
418.243164 5.740287 
419.262878 11.373206 
419.29834 30.47131 
420.261841 1.206133 
420.300476 2.167035 
422.272247 0.097898 
432.25708 5.658415 
433.314362 1.311721 
436.288757 3.254351 
445.277924 7.588863 
446.273499 18.782362 
446.3078 3.835688 
448.287872 30.97401 
449.291199 2.812371 
450.305145 1.765236 
458.270813 0.370638 
460.251221 0.114556 
460.290466 0.199223 
462.304352 5.164962 
472.28952 1.104233 
472.324188 0.820868 
474.267822 5.160046 
474.304474 1.118061 
476.283783 2.149828 
476.319458 2.747963 
485.680695 0.159475 
486.303711 1.565034 
488.283417 1.291193 
488.320557 2.428245 
489.279755 1.561351 
490.299042 1.403034 
490.335022 43.311172 
491.338531 7.130321 
494.399048 0.325336 
502.297943 0.504727 
503.294098 6.000394 
503.802948 0.233404 
504.351105 11.382855 
505.354523 1.252587 
508.552124 0.252283 
513.348267 0.419217 
514.336182 0.194476 
516.314209 11.873114 
517.312134 4.277317 
518.327881 1.026571 
518.36731 7.005546 
519.327271 0.994976 
530.330688 7.647983 
531.328796 0.70134 
531.364197 0.149867 
533.341797 2.108449 
544.346619 0.648451 
555.520447 0.111497 
559.359131 1.068018 
561.371826 5.063516 
566.090454 0.384657 
570.365295 0.236684 
574.328247 0.246358 
575.388916 28.052357 
575.436218 0.172099 
576.392578 4.759703 
585.371155 0.401974 
589.405396 2.3638 
601.366333 11.411923 
602.367798 1.585328 
615.383301 0.90208 
616.383301 0.178048 
628.199036 0.151717 
642.4646 0.201078 
646.425171 2.001588 
648.830383 0.198569 
672.400024 0.505074 
699.656494 0.235445 
728.468994 0.234999 
748.695068 0.312517 
756.891052 0.340453 
789.372314 0.355238 
792.812866 0.312848 
802.112976 0.315625 
828.592896 0.25862 
880.742798 0.491805 
885.239014 0.143939 
890.026367 0.186846 
928.8172 0.471631 
963.295593 0.301186 
1013.54718 0.163853 
1041.057251 0.270062 
1110.072021 0.207322 
1136.049683 0.246692 
1140.732788 0.128902 
1251.103149 0.449871 
END IONS

