BEGIN IONS
PEPMASS=268.0
CHARGE=1+
COMPOUNDNAME=Massbank:KO002041 Adenosine
LIBRARYQUALITY=3
SMILES=OC[C@@H](O1)[C@@H](O)[C@@H](O)[C@@H]1n(c3)c(n2)c(n3)c(N)nc2
INCHIKEY=OIRDTQYFTABQOQ-KQYNXXCUSA-N
INCHI=1S/C10H13N5O4/c11-8-5-9(13-2-12-8)15(3-14-5)10-7(18)6(17)4(1-16)19-10/h2-4,6-7,10,16-18H,1H2,(H2,11,12,13)/t4-,6-,7-,10-/m1/s1
MSLEVEL=2
SOURCE_INSTRUMENT=ESI-LC-ESI-QQ
FILENAME=Massbank_ESI_positive_8_1_2014_peaks.mgf
SEQ=*..*
IONMODE=Positive
ORGANISM=MASSBANK
NAME=Massbank:KO002041 Adenosine [M+H]+
PI=Putative Massbank Match
DATACOLLECTOR=Massbank
PUBMED=N/A
SUBMITUSER=mwang87
TAGS=
SPECTRUMID=CCMSLIB00000216564
SCANS=7843
41.2 69307.0 
42.9 178218.0 
45.1 128713.0 
55.2 772278.0 
57.2 1747526.5 
59.1 490099.5 
61.0 420792.5 
65.8 39604.0 
68.8 777228.5 
71.2 549505.5 
73.0 1138615.0 
73.9 722773.0 
78.6 39604.0 
78.9 89109.0 
84.9 1173268.5 
87.2 138614.0 
89.7 29703.0 
92.4 19802.0 
93.0 44554.5 
94.1 400990.5 
97.2 321782.5 
107.1 29703.0 
109.3 178218.0 
115.1 113861.5 
119.1 2361388.5 
121.2 1029704.0 
133.2 39604.0 
134.6 69307.0 
136.0 75549580.5 
137.1 173267.5 
138.3 128713.0 
148.4 19802.0 
163.2 64356.5 
177.8 54455.5 
END IONS

