BEGIN IONS
PEPMASS=911.455
CHARGE=1+
COMPOUNDNAME=ABAMECTIN
LIBRARYQUALITY=3
SMILES=N/A
INCHIKEY=RRZXIRBKKLTSOM-XPNPUAGNSA-N
INCHI=InChI=1S/C48H72O14/c1-11-25(2)43-28(5)17-18-47(62-43)23-34-20-33(61-47)16-15-27(4)42(26(3)13-12-14-32-24-55-45-40(49)29(6)19-35(46(51)58-34)48(32,45)52)59-39-22-37(54-10)44(31(8)57-39)60-38-21-36(53-9)41(50)30(7)56-38/h12-15,17-19,25-26,28,30-31,33-45,49-50,52H,11,16,20-24H2,1-10H3/b13-12+,27-15+,32-14+/t25-,26-,28-,30-,31-,33+,34-,35-,36-,37-,38-,39-,40+,41-,42-,43+,44-,45+,47+,48+/m0/s1
MSLEVEL=2
SOURCE_INSTRUMENT=N/A-ESI-QFT
FILENAME=library_mgf.mgf
SEQ=*..*
IONMODE=positive
ORGANISM=MONA
NAME=ABAMECTIN [M+K]+
PI=MoNA
DATACOLLECTOR=MoNA:VF-NPL-QEHF028046
PUBMED=N/A
SUBMITUSER=mwang87
TAGS=
SPECTRUMID=CCMSLIB00004721627
SCANS=28046
63.56802 0.08042 
63.991131 0.559956 
64.498787 0.096143 
64.770119 0.311572 
65.039024 0.228859 
66.774643 0.093408 
66.974213 0.404244 
67.054306 34.700439 
68.366646 0.470284 
68.373291 0.419267 
68.850609 0.076045 
68.985123 0.385321 
69.033554 84.995354 
69.070084 1.034222 
69.104309 0.412447 
69.171028 0.118858 
69.339317 0.184365 
70.54142 0.451427 
70.688431 0.577485 
70.706215 0.421031 
70.750542 0.28195 
70.812866 0.421244 
71.03286 0.168831 
71.049171 5.224619 
71.223923 0.44743 
71.526978 0.134788 
71.921906 0.400609 
71.950005 0.426751 
72.746986 0.372089 
72.951378 0.384618 
73.046791 6.223191 
73.064789 7.758298 
73.519341 0.423098 
74.761391 0.501364 
76.020096 0.269728 
76.236435 0.098765 
78.422806 0.052385 
79.054207 7.495367 
81.069809 27.438816 
81.63044 0.480159 
81.75843 0.188295 
82.214073 0.240314 
82.497406 0.301052 
83.049301 0.675239 
83.071228 0.420043 
83.250473 0.388659 
83.775337 0.404583 
84.898506 0.196589 
85.028351 0.151737 
85.064743 8.658069 
85.94384 0.36837 
86.11438 0.591025 
86.15509 0.095385 
86.387016 0.400768 
87.044029 14.854901 
87.599007 0.157933 
88.681717 0.078253 
88.72551 0.387597 
89.808907 0.21377 
90.689346 0.301932 
91.054398 0.559964 
91.057289 4.780953 
92.411636 0.33402 
92.41481 0.38275 
93.069885 13.224118 
93.092514 0.376567 
93.450645 0.503455 
93.580147 0.079108 
94.056175 0.153684 
95.049103 83.291985 
95.085388 3.985851 
95.743233 0.058783 
96.052475 1.704859 
97.064751 7.125826 
97.247772 0.115926 
98.029541 0.49376 
98.389626 0.425975 
98.618942 0.243162 
99.080376 0.172291 
99.203667 0.27433 
99.27224 0.219718 
99.505264 0.460228 
99.711823 0.459159 
99.760941 0.3435 
100.681633 0.111404 
101.059578 2.390158 
101.177658 0.45244 
101.219864 0.46009 
101.288467 0.556067 
102.742363 0.142038 
103.336533 0.115846 
105.069748 0.711653 
105.325905 0.59992 
106.729057 0.102994 
107.085396 6.353052 
107.178368 0.305681 
107.247894 0.33363 
107.345055 0.419099 
107.441849 0.495988 
108.106956 0.211001 
108.164993 0.077723 
108.252724 0.259094 
109.064827 11.646467 
109.097488 0.461191 
109.101089 33.58799 
109.226318 0.507296 
109.772438 0.447621 
111.59536 0.532506 
112.133461 0.298439 
112.51165 0.238429 
113.059654 93.853767 
113.65477 0.328526 
114.062981 0.975879 
116.867195 0.179943 
118.586449 0.135892 
118.93486 0.052927 
119.085396 1.871087 
119.590187 0.16374 
121.064636 0.198997 
121.101143 4.796392 
121.433945 0.057719 
123.116753 100.0 
124.050491 0.121323 
124.120132 4.443633 
124.818954 0.09357 
125.021263 0.345051 
126.368011 0.189484 
126.787949 0.238747 
127.075218 19.457014 
127.57103 0.522244 
129.936874 0.440818 
130.22113 0.07755 
131.04686 0.254485 
132.054245 0.060992 
132.154984 0.085716 
133.101151 0.957667 
135.041565 4.58169 
135.237167 0.083375 
136.339874 0.39483 
137.096008 0.10755 
137.429474 0.557819 
138.078003 0.451328 
139.0728 8.516088 
140.019958 0.104255 
140.648819 0.408927 
141.939453 0.266029 
142.032288 0.122368 
144.710602 0.403932 
144.838821 0.364376 
145.085815 23.27524 
146.027039 0.194233 
147.116928 0.284011 
147.161148 0.333676 
149.045013 0.158865 
149.184326 0.534981 
149.743759 0.413125 
150.232407 0.076384 
151.036545 0.620293 
151.072922 2.292961 
151.111649 33.250946 
152.115799 0.05522 
152.303574 0.316484 
153.052063 16.687138 
153.522461 0.482665 
155.162338 0.483534 
158.458878 0.377284 
159.439285 0.318161 
163.11496 0.240091 
167.055176 0.712276 
167.06778 15.535455 
168.322586 0.4243 
168.586517 0.139866 
169.122101 12.79361 
172.049469 0.413438 
173.020844 5.157038 
174.028183 0.074966 
175.03688 0.501514 
176.203598 0.467664 
177.063614 0.098837 
179.06752 1.782591 
180.230621 0.492522 
183.062622 22.78833 
185.078262 21.655409 
185.094376 0.095722 
185.541565 0.563097 
191.031311 2.853215 
191.10408 16.205317 
191.23436 0.403341 
192.372116 0.265257 
193.854919 0.409982 
194.15094 0.360798 
197.887604 0.261019 
198.437347 0.188029 
204.595901 0.429605 
204.659637 0.077827 
209.041672 1.056144 
214.472229 0.544703 
215.273895 0.528913 
217.137787 0.119543 
217.562302 0.056214 
218.880844 0.501834 
222.080017 0.309634 
223.337708 0.455403 
224.569077 0.542829 
225.006332 0.14569 
225.042542 0.379913 
227.068085 0.403575 
227.103882 0.13143 
227.837814 0.063131 
233.112213 0.317073 
236.228073 0.153666 
238.096329 0.977305 
239.104126 10.941803 
241.11853 0.656642 
245.018478 0.099692 
245.114594 0.943893 
246.642532 0.101714 
247.159714 0.14121 
256.106873 10.660278 
257.114258 14.89 
261.080963 0.254403 
263.65625 0.144147 
264.301117 0.508601 
267.565308 0.579186 
269.151367 0.270472 
270.610535 0.235106 
271.057678 0.258024 
273.350403 0.106818 
275.663971 0.240755 
276.130829 0.494356 
277.141479 1.568994 
277.341705 0.249951 
278.656647 0.44127 
283.093506 6.485675 
287.006287 0.128328 
288.939453 0.460339 
292.905762 0.285793 
298.135681 0.073958 
299.061798 0.07049 
301.104462 38.488411 
302.107574 1.241108 
302.168701 0.268411 
304.165009 0.263175 
305.173645 1.474488 
309.18222 2.427999 
310.908478 0.444863 
311.145996 12.303973 
311.656647 0.08633 
312.149811 0.514882 
323.689056 0.4825 
327.192596 15.292787 
329.156677 0.799398 
336.896027 0.339481 
339.739716 0.461474 
343.187622 0.560817 
343.713196 0.465707 
347.155518 0.38636 
347.665894 0.059171 
350.209534 0.117345 
351.155731 2.386553 
354.317963 0.570338 
358.807312 0.525001 
362.91925 0.587315 
369.165588 0.957622 
374.845428 0.447931 
375.19281 0.395348 
379.497131 0.373006 
385.158936 0.245518 
386.356415 0.144347 
390.20166 0.574324 
393.203033 0.098556 
397.742798 0.159628 
398.824097 0.399498 
401.193329 1.581525 
413.156311 11.558674 
413.302673 0.465591 
413.344971 0.219146 
417.920563 0.088152 
437.192963 4.39287 
445.181915 0.484109 
446.065735 0.66315 
446.500946 0.460515 
452.254578 0.078842 
455.062073 0.349699 
455.203339 0.493322 
455.238861 4.265557 
480.046692 0.327542 
484.533478 0.34484 
492.218262 0.087477 
500.888275 0.260793 
522.934143 0.441669 
524.623535 0.065044 
525.292725 0.226021 
532.376404 0.105907 
534.028381 0.406787 
536.336243 0.090889 
539.357849 0.547555 
543.306274 0.575133 
554.912598 0.275751 
568.753296 0.6094 
575.028137 0.165608 
594.905518 0.220278 
600.59198 0.256308 
605.306274 6.856244 
606.309509 0.169876 
607.771362 0.284321 
616.676331 0.558177 
616.780579 0.141314 
619.13269 0.135057 
623.314697 0.196146 
627.715332 0.145966 
644.669617 0.139494 
654.928101 0.729439 
662.968323 0.160609 
699.499023 0.086308 
707.97052 0.510708 
708.107422 0.576081 
708.179016 0.210403 
708.273254 0.365251 
708.563965 0.070418 
708.736084 0.435926 
708.888672 0.877422 
712.75354 0.513698 
733.124268 0.367483 
744.105835 0.304935 
754.112915 0.144955 
762.60199 0.169409 
772.258423 0.064958 
773.148499 0.110452 
790.480652 0.596517 
814.24176 0.163271 
845.544861 0.54099 
847.15863 0.197587 
855.791687 0.174405 
877.659241 0.13835 
886.895386 0.23565 
890.711426 0.327174 
893.509155 0.240108 
909.641968 0.267877 
916.357788 0.057853 
927.0896 0.638411 
928.173584 0.110491 
931.053284 0.122923 
936.783813 0.695656 
END IONS

