BEGIN IONS
PEPMASS=175.024
CHARGE=1+
COMPOUNDNAME=Aconitic Acid
LIBRARYQUALITY=3
SMILES=N/A
INCHIKEY=GTZCVFVGUGFEME-IWQZZHSRSA-N
INCHI=InChI=1S/C6H6O6/c7-4(8)1-3(6(11)12)2-5(9)10/h1H,2H2,(H,7,8)(H,9,10)(H,11,12)/b3-1-
MSLEVEL=2
SOURCE_INSTRUMENT=N/A-ESI-QFT
FILENAME=library_mgf.mgf
SEQ=*..*
IONMODE=positive
ORGANISM=MONA
NAME=Aconitic Acid [M+H]+
PI=MoNA
DATACOLLECTOR=MoNA:VF-NPL-QEHF026284
PUBMED=N/A
SUBMITUSER=mwang87
TAGS=
SPECTRUMID=CCMSLIB00004717347
SCANS=26284
50.183861 0.008199 
50.40197 0.005454 
50.47197 0.007937 
50.582882 0.007671 
50.866844 0.006776 
51.226692 0.008113 
51.517338 0.00633 
51.831886 0.008833 
52.035851 0.007968 
52.148827 0.007295 
52.21582 0.006962 
52.220955 0.007899 
52.420265 0.002742 
52.456093 0.002316 
52.493713 0.007547 
52.57959 0.003052 
52.587532 0.003117 
52.770905 0.006107 
52.877209 0.002754 
53.002563 0.002983 
53.086941 0.003174 
53.656204 0.004427 
53.747669 0.007116 
53.837883 0.010016 
53.916885 0.008431 
53.979424 0.007192 
55.054585 0.007496 
55.613922 0.002648 
56.185009 0.00245 
56.965137 0.234983 
56.988262 0.008149 
57.070198 0.056078 
57.270706 0.008463 
57.677826 0.002862 
57.834003 0.003719 
57.987232 0.003546 
58.065414 0.0911 
58.096546 0.002364 
58.988239 0.290719 
59.049461 0.032116 
59.409115 0.008517 
59.776958 0.008529 
60.044704 0.004422 
60.055885 0.468059 
60.137867 0.007125 
60.348568 0.009093 
60.534668 0.008466 
60.797272 0.003288 
60.843842 0.003885 
61.010914 0.229703 
61.039833 0.00881 
61.188103 0.011715 
62.018757 0.087129 
62.347027 0.00607 
62.773228 0.003592 
62.98196 1.888256 
62.990173 0.038887 
63.220222 0.003218 
65.096664 0.007952 
66.602913 0.009779 
67.054382 0.045591 
67.185951 0.00809 
67.735466 0.002959 
67.792931 0.008956 
67.991379 0.011431 
67.993217 0.600202 
68.894028 0.002956 
69.070053 0.032457 
69.181648 0.007881 
69.486633 0.009634 
70.065231 1.585187 
70.206825 0.005119 
70.440323 0.00266 
70.970688 0.010513 
71.068695 0.003337 
72.080818 0.182054 
72.975067 0.006545 
73.165504 0.007117 
73.550957 0.00278 
74.002113 0.003794 
74.28289 0.003427 
74.462303 0.004787 
75.53994 0.004269 
76.998207 1.407386 
77.046898 0.008933 
77.690079 0.008326 
77.7827 0.007843 
78.013451 0.132073 
78.525742 0.00791 
78.837486 0.008047 
79.02124 0.362207 
79.054268 0.046457 
79.511429 0.008918 
80.312981 0.010742 
80.870964 0.003095 
81.069984 0.231293 
82.919716 0.005644 
82.971062 0.003954 
84.241325 0.0125 
85.039658 0.003207 
85.528 0.00967 
86.003601 0.727204 
86.060257 0.014655 
86.096527 0.014887 
86.975822 0.00783 
87.044106 0.116449 
87.171112 0.008944 
87.463394 0.00262 
88.69323 0.010253 
88.901657 0.003326 
89.059731 0.005325 
89.314857 0.003127 
89.725899 0.006531 
89.97921 0.217729 
90.482857 1.159224 
91.054306 0.259102 
91.430519 0.009473 
91.444641 0.003092 
91.846855 0.011761 
91.949615 0.010149 
92.2295 0.008092 
93.069908 0.266878 
93.388985 0.002906 
94.272095 0.008043 
95.008904 0.116233 
95.085579 0.175208 
96.725159 0.004627 
97.032196 0.01108 
97.994713 5.909452 
98.096504 0.028274 
98.496498 0.06261 
98.975418 15.936442 
98.984169 0.006043 
98.992661 0.176492 
99.217163 0.00268 
99.488258 4.25776 
99.990204 0.003204 
100.075592 0.015916 
100.486107 0.134574 
100.645416 0.008265 
105.070007 0.288902 
105.073723 0.009278 
105.980843 0.005063 
106.042633 0.003967 
106.496094 0.024311 
106.618866 0.002881 
106.968575 0.009531 
106.999992 48.417885 
107.085602 0.078293 
107.495857 0.006897 
107.502045 1.645844 
107.989639 0.068248 
107.99794 2.243473 
108.001869 0.222207 
108.493507 9.74422 
108.995255 0.114429 
109.491539 0.451247 
109.495499 0.012341 
111.211937 0.008963 
112.075745 0.145719 
112.086929 0.007536 
112.880501 0.008522 
113.071014 1.171093 
114.007843 0.882816 
114.054993 0.261817 
114.091469 0.027976 
114.16555 0.003805 
114.509727 0.00311 
114.968872 0.004195 
114.986206 0.247818 
115.019035 0.003477 
115.075516 0.011162 
115.086685 0.295619 
115.501366 0.130045 
115.998116 0.061007 
116.005318 100.0 
116.070648 0.840154 
116.107025 0.070076 
116.50724 3.705745 
116.985947 4.937476 
116.99588 0.006592 
117.003204 4.5884 
117.007454 0.589301 
117.069847 0.052461 
117.498817 2.071004 
118.496994 0.021684 
118.50808 0.053555 
119.085625 0.63497 
119.95005 0.002964 
120.04953 0.008212 
120.088799 0.014409 
120.226982 0.009804 
121.101601 0.009123 
123.013138 2.547922 
123.017929 0.004376 
123.514046 0.013431 
123.899765 0.004561 
123.991539 0.259063 
124.010994 0.012326 
124.989594 0.00349 
125.010612 10.208332 
125.512093 0.382332 
125.579735 0.007643 
126.008514 0.448052 
126.013138 0.00803 
126.197342 0.040049 
127.513298 0.141146 
129.102386 0.005413 
129.48999 1.501542 
129.991943 0.024479 
130.086533 0.007876 
130.097549 0.075918 
130.122696 0.00701 
130.159195 0.02367 
130.487671 0.012872 
130.971497 0.004597 
131.007965 0.03535 
131.085602 0.856808 
132.018372 0.147253 
132.088928 0.063148 
132.101959 0.003245 
132.958389 0.022816 
133.101227 0.640072 
134.096497 0.086621 
134.104187 0.003409 
134.978806 0.047957 
134.996536 0.771765 
136.478745 0.003117 
137.001785 4.073134 
137.476074 0.028767 
137.503036 0.19914 
137.999588 0.311212 
138.495255 2.878462 
138.996811 0.035046 
139.493179 0.09949 
141.065948 0.018461 
141.195587 0.004439 
142.942276 0.008171 
144.618668 0.007039 
144.987808 0.128083 
145.101212 0.135856 
145.248108 0.008799 
145.587234 0.006538 
146.007019 5.758591 
146.480804 0.004326 
146.508484 0.385637 
147.004868 0.405837 
147.116882 0.316789 
147.50061 0.02425 
149.106079 0.004659 
150.211411 0.011516 
150.951218 0.131878 
153.014572 0.016172 
155.012436 0.007906 
156.138321 0.212791 
156.679459 0.009124 
156.987289 0.023893 
158.080933 0.003082 
158.092361 0.0746 
159.013321 0.014674 
159.076477 1.867806 
159.691071 0.002769 
159.949005 0.00667 
160.86412 0.006838 
160.935059 0.003339 
161.002441 0.318022 
161.526566 0.00389 
162.26886 0.009212 
162.998016 0.008909 
163.695267 0.010225 
166.918762 0.009276 
168.347504 0.00656 
168.961685 0.102138 
172.343918 0.008264 
173.078476 2.948899 
173.091949 0.085576 
173.107254 0.030947 
173.132553 1.527127 
173.164764 0.027778 
174.046707 0.009756 
174.055099 0.319303 
174.081894 0.320725 
174.09137 0.333106 
174.111679 0.00295 
174.127762 0.276696 
174.135803 0.243666 
174.148987 1.586488 
174.185196 0.039517 
174.702591 0.003152 
174.997803 0.469939 
175.036453 0.003503 
175.08345 0.009256 
175.111008 0.019515 
175.119034 0.547404 
175.131241 0.003343 
175.147995 1.995184 
176.001465 0.003051 
176.070801 0.007335 
176.107101 0.093648 
176.118164 0.584369 
176.127609 0.103448 
176.143326 0.472177 
176.151566 0.223473 
176.911865 0.010932 
176.989349 0.722749 
177.087082 0.003286 
177.102234 0.110304 
177.113281 0.011553 
177.485718 0.007082 
183.73587 0.010547 
184.960922 0.005253 
189.378632 0.011142 
191.41246 0.00853 
191.922775 0.003572 
192.961823 0.089425 
193.318954 0.002794 
194.207947 0.008312 
194.999939 0.473809 
195.923904 0.00317 
198.385651 0.003968 
199.282516 0.011055 
END IONS

