BEGIN IONS
PEPMASS=321.133
CHARGE=1+
COMPOUNDNAME=Mycophenolic Acid
LIBRARYQUALITY=3
SMILES=N/A
INCHIKEY=HPNSFSBZBAHARI-RUDMXATFSA-N
INCHI=InChI=1S/C17H20O6/c1-9(5-7-13(18)19)4-6-11-15(20)14-12(8-23-17(14)21)10(2)16(11)22-3/h4,20H,5-8H2,1-3H3,(H,18,19)/b9-4+
MSLEVEL=2
SOURCE_INSTRUMENT=N/A-ESI-QFT
FILENAME=library_mgf.mgf
SEQ=*..*
IONMODE=positive
ORGANISM=MONA
NAME=Mycophenolic Acid [M+H]+
PI=MoNA
DATACOLLECTOR=MoNA:VF-NPL-QEHF004804
PUBMED=N/A
SUBMITUSER=mwang87
TAGS=
SPECTRUMID=CCMSLIB00004695867
SCANS=4804
51.241291 0.002512 
51.317062 0.003702 
51.440479 0.003065 
51.641193 0.006531 
53.099739 0.003752 
53.138145 0.004014 
53.617203 0.002298 
53.786339 0.003876 
54.374599 0.003401 
55.009651 0.002881 
55.018665 0.170171 
55.298508 0.002649 
56.138424 0.003679 
56.671879 0.002974 
56.763214 0.003663 
56.879272 0.002632 
58.876431 0.004107 
59.098766 0.001921 
59.466831 0.002552 
61.256298 0.00251 
61.724556 0.002456 
61.995472 0.004165 
62.572742 0.003559 
62.927643 0.00331 
63.464054 0.004223 
63.752693 0.003028 
64.041962 0.00324 
64.815994 0.002736 
65.223236 0.002682 
66.317879 0.002811 
66.442917 0.003609 
66.499138 0.003021 
66.520393 0.001765 
66.965073 0.002142 
67.054878 0.002981 
68.876701 0.002724 
69.382111 0.00292 
69.488747 0.002255 
69.538513 0.001822 
69.662361 0.003284 
70.067741 0.00275 
70.331337 0.002554 
71.115372 0.004535 
71.186813 0.002722 
72.515587 0.002914 
72.66713 0.002917 
73.393967 0.002427 
73.502731 0.002889 
75.312912 0.003914 
76.209656 0.002365 
76.518074 0.002956 
77.018394 0.003153 
77.275276 0.002583 
78.038689 0.003457 
78.637169 0.005513 
79.054977 0.010784 
80.159737 0.003336 
80.652901 0.001816 
81.005905 0.002699 
81.070549 0.87087 
81.591667 0.003477 
82.07383 0.014646 
82.537582 0.004457 
82.659401 0.00375 
83.271484 0.003901 
84.00312 0.003096 
85.343323 0.002421 
85.473801 0.002753 
86.944778 0.003606 
87.127937 0.003321 
87.238998 0.002575 
87.437881 0.003443 
87.864471 0.003623 
88.418602 0.003869 
88.442543 0.002581 
90.096306 0.00229 
90.326363 0.002098 
91.008469 0.002414 
91.055283 0.014548 
91.087753 0.004293 
91.142593 0.002792 
91.151901 0.002818 
91.817657 0.002759 
93.070572 0.006928 
93.247421 0.002771 
93.46312 0.003451 
93.977287 0.003726 
94.275932 0.003837 
95.049873 0.002944 
95.720612 0.002337 
97.065147 0.01624 
97.823692 0.002929 
99.309578 0.002479 
99.98037 0.002425 
100.10717 0.004076 
101.377068 0.003715 
101.573425 0.003134 
102.656013 0.002861 
103.305031 0.002301 
103.784294 0.002405 
103.977676 0.004228 
104.313713 0.002822 
104.972916 0.003328 
105.994972 0.003554 
106.846146 0.004402 
108.761765 0.002873 
109.065208 0.501896 
109.49942 0.00327 
109.900528 0.003865 
109.988609 0.004126 
110.224098 0.003087 
110.599037 0.003025 
111.017883 0.003908 
112.245903 0.004203 
113.648293 0.002457 
113.784843 0.003515 
114.306969 0.002679 
115.643829 0.002493 
116.097168 0.00282 
117.036377 0.004662 
117.166473 0.004242 
117.737152 0.004011 
117.87574 0.002655 
118.725677 0.002239 
118.91552 0.002379 
119.614708 0.003174 
123.396049 0.00407 
123.615479 0.004094 
125.193268 0.003821 
127.069733 0.003066 
127.075523 0.240883 
127.588219 0.002662 
128.660065 0.002711 
128.919952 0.002956 
130.475967 0.003022 
131.262268 0.002294 
131.572128 0.003803 
135.080582 0.033118 
135.534927 0.002968 
138.0289 0.003688 
141.651184 0.003561 
142.215027 0.002244 
143.958969 0.003949 
144.287827 0.002297 
144.710449 0.004218 
144.96405 0.002281 
148.622772 0.002318 
148.647736 0.00231 
149.167694 0.002963 
152.342468 0.002141 
155.678238 0.004635 
155.867386 0.004072 
156.055588 0.002677 
158.473587 0.004912 
158.915161 0.004075 
158.978241 0.003283 
159.044128 0.804197 
159.499527 0.003035 
160.047806 0.019515 
161.059235 0.00701 
162.116669 0.003015 
163.039108 0.003682 
164.27562 0.004162 
164.31749 0.002822 
165.115356 0.003537 
166.52887 0.002857 
166.908051 0.003352 
168.629395 0.002994 
173.783829 0.002846 
174.331345 0.002963 
175.075394 0.087234 
175.189697 0.00368 
175.244492 0.00491 
175.897446 0.002634 
176.346634 0.001798 
176.41835 0.003186 
177.054794 1.322752 
178.058075 0.077522 
179.013245 0.003222 
179.071014 0.010706 
180.152908 0.002846 
181.401688 0.003015 
182.343414 0.002828 
183.724808 0.003543 
184.886978 0.003764 
189.641296 0.002259 
191.070297 0.065546 
191.10437 0.002647 
192.042206 0.022893 
193.049637 0.065165 
194.745605 0.005121 
195.065399 4.963054 
196.06868 0.520397 
196.320694 0.003268 
199.193634 0.002851 
202.650299 0.003791 
203.272873 0.002028 
205.049988 0.030625 
205.925095 0.002783 
207.047165 0.021226 
207.065292 100.0 
207.8806 0.003185 
208.068619 11.483387 
208.105789 0.005517 
209.070587 0.576425 
210.504807 0.003311 
213.779404 0.003148 
215.012695 0.075729 
215.024292 0.106702 
215.032181 0.140325 
215.106827 0.274757 
216.025009 0.004347 
216.112442 0.002315 
219.053207 0.003718 
219.065094 0.535489 
219.100784 0.002215 
219.88829 0.004466 
220.069031 0.024449 
221.081009 0.131419 
223.060181 0.972624 
224.063736 0.062324 
225.22113 0.003329 
226.526031 0.005063 
231.137527 0.002767 
231.555206 0.003738 
233.081024 0.056179 
233.756058 0.002495 
239.091843 0.079298 
239.106201 0.057357 
240.372314 0.003533 
241.122513 0.056959 
242.392563 0.002625 
245.081284 0.026396 
247.096649 0.254407 
257.117462 0.062581 
259.096863 0.625116 
260.100525 0.054254 
261.112396 0.611886 
262.115784 0.028921 
262.881897 0.002857 
266.477112 0.005069 
267.100647 0.018099 
273.112671 0.009955 
275.127838 8.87397 
276.131134 1.518794 
277.133545 0.038825 
278.210266 0.002747 
280.906708 0.004901 
283.029144 0.003529 
284.960693 0.002453 
285.11203 3.431538 
285.475922 0.002065 
286.115417 0.611353 
286.608124 0.003877 
288.899048 0.002852 
289.020264 0.003981 
294.323059 0.002665 
295.803619 0.002749 
301.45813 0.003523 
303.122528 3.719412 
304.105164 0.015981 
305.128265 0.007339 
307.193909 0.003073 
308.135529 0.004327 
321.133118 2.325851 
322.136627 0.410183 
322.252533 0.004658 
323.138702 0.003445 
325.755188 0.003992 
333.736816 0.004082 
344.939301 0.002707 
END IONS

