BEGIN IONS
PEPMASS=313.105
CHARGE=1+
COMPOUNDNAME=dehydrocurvularin
LIBRARYQUALITY=3
SMILES=N/A
INCHIKEY=AVIRMQMUBGNCKS-GQCTYLIASA-N
INCHI=InChI=1S/C16H18O5/c1-10-5-3-2-4-6-13(18)16-11(8-15(20)21-10)7-12(17)9-14(16)19/h4,6-7,9-10,17,19H,2-3,5,8H2,1H3/b6-4+
MSLEVEL=2
SOURCE_INSTRUMENT=N/A-ESI-QFT
FILENAME=library_mgf.mgf
SEQ=*..*
IONMODE=positive
ORGANISM=MONA
NAME=dehydrocurvularin [M+Na]+
PI=MoNA
DATACOLLECTOR=MoNA:VF-NPL-QEHF016196
PUBMED=N/A
SUBMITUSER=mwang87
TAGS=
SPECTRUMID=CCMSLIB00004707259
SCANS=16196
50.258965 0.00711 
50.318691 0.006891 
50.329033 0.007108 
50.433868 0.010808 
50.550678 0.01284 
50.674515 0.008936 
50.801395 0.010323 
50.824848 0.00724 
51.043331 0.010894 
51.646248 0.009195 
51.940353 0.245807 
52.423328 0.011108 
52.729118 0.006072 
52.781998 0.008052 
53.002567 0.135916 
53.038929 0.128777 
53.062729 0.011255 
53.07029 0.010514 
53.266014 0.006007 
53.484577 0.010328 
53.706642 0.009894 
53.755062 0.019552 
54.094219 0.006434 
54.218876 0.006897 
54.491772 0.006594 
54.520611 0.007375 
54.842236 0.006409 
55.018173 0.279546 
55.053043 0.022195 
55.054558 4.756356 
55.407574 0.007416 
55.412697 0.016724 
55.624565 0.009551 
55.677357 0.019493 
55.820042 0.006104 
55.91045 0.006356 
55.934723 0.215467 
55.985924 0.006513 
56.049805 0.173179 
56.057911 0.084244 
56.06237 0.161259 
56.241405 0.006152 
56.346317 0.010242 
56.883408 0.01108 
56.965038 0.0473 
57.033806 1.100382 
57.070187 7.448732 
57.794147 0.006845 
57.935192 0.027623 
58.06543 0.516439 
58.073544 0.043831 
58.555267 0.007143 
58.82935 0.007027 
58.972099 0.007586 
58.995304 0.147987 
59.049423 2.373054 
59.103973 0.006263 
59.930531 0.013378 
59.960007 0.00683 
59.966766 0.021873 
59.990471 0.026012 
60.044601 0.02133 
60.081062 1.239388 
61.010914 51.010792 
61.039825 0.011488 
61.199352 0.007899 
61.261425 0.006643 
61.708939 0.008049 
61.74855 0.007676 
61.807945 0.012664 
61.893658 0.006415 
62.010311 1.340505 
62.014252 3.554262 
62.016998 0.026345 
62.018723 1.161984 
62.060287 0.74943 
62.117569 0.0073 
62.130695 0.012892 
62.142548 0.007781 
62.20961 0.011597 
62.558537 0.007157 
62.9697 0.006311 
62.990154 2.061869 
63.006691 9.683994 
63.513573 0.020916 
63.897701 0.013342 
63.927822 0.0081 
63.943886 0.010468 
63.997906 0.138193 
64.010033 0.59841 
64.434509 0.006468 
64.913582 0.007498 
64.985985 0.009724 
64.997063 0.01217 
65.005821 0.264033 
65.038734 0.047444 
65.093498 0.007658 
65.422035 0.011318 
65.570587 0.006512 
65.59127 0.012191 
65.950989 0.011013 
66.224304 0.006849 
66.371155 0.008109 
66.415375 0.005848 
66.687798 0.010273 
67.054413 4.375326 
67.258842 0.006104 
67.642036 0.007539 
67.816277 0.006233 
68.057755 0.107005 
68.780296 0.008494 
68.80751 0.019149 
69.033623 0.492464 
69.070007 5.788111 
69.267242 0.007154 
69.490097 0.007292 
69.705536 0.006765 
70.045227 0.006548 
70.065224 0.182322 
70.073349 0.131302 
70.077881 0.090962 
70.157455 0.005999 
70.173866 0.006099 
70.374336 0.01927 
70.885895 0.006669 
70.957993 0.070975 
71.001137 0.007432 
71.049271 1.048619 
71.085648 3.407757 
71.636513 0.006613 
71.92939 0.029408 
72.028175 0.006855 
72.044418 0.032779 
72.052696 0.012343 
72.080856 0.949287 
72.088875 0.019498 
72.209236 0.006674 
72.937233 0.656156 
72.996391 0.006616 
73.010742 0.082676 
73.028511 0.050798 
73.046883 0.171552 
73.064857 0.07178 
74.060318 0.010307 
74.096565 0.015257 
74.376556 0.006864 
75.02639 0.112201 
75.044144 0.121169 
75.94561 0.027122 
76.087471 0.007171 
76.225273 0.014239 
76.404274 0.006867 
76.605103 0.007067 
76.93335 0.156741 
77.005554 0.394019 
77.041824 0.015877 
77.508606 0.007438 
77.720215 0.009356 
77.86541 0.00802 
77.941002 0.077795 
77.959373 0.229322 
78.013458 0.034977 
78.864166 0.008175 
78.967148 2.53719 
78.984947 0.034235 
79.021263 7.566746 
79.054314 1.712181 
79.214386 0.017474 
79.39122 0.006967 
79.518715 0.007416 
80.024704 0.079125 
80.057686 0.013334 
80.837677 0.007205 
80.96286 0.026482 
80.982849 0.148914 
81.000572 0.919147 
81.017097 0.17248 
81.033607 0.210254 
81.069969 7.023253 
81.268494 0.006525 
82.014091 0.007119 
82.065308 0.019019 
82.073318 1.073254 
83.012947 0.032427 
83.049202 0.526107 
83.076477 0.024972 
83.085587 3.390099 
83.276947 0.006595 
84.080643 0.018246 
84.089081 0.01572 
84.45417 0.007528 
85.028488 0.240592 
85.06485 0.745714 
85.101242 1.404181 
85.221474 0.01179 
85.558418 0.008459 
85.755714 0.00823 
86.060089 0.030657 
86.096504 1.179526 
86.116829 0.007202 
86.505615 0.007164 
86.666115 0.009444 
87.041229 0.007656 
87.044144 3.142984 
87.08522 0.00657 
87.363663 0.011986 
87.538246 0.006459 
88.075768 0.144182 
88.456467 0.009965 
88.572701 0.008584 
88.922829 0.00604 
88.952499 0.015637 
89.059769 2.583441 
89.801651 0.009598 
89.963768 0.446573 
90.055038 4.940459 
90.787804 0.014079 
90.815407 0.007101 
90.947769 0.725556 
90.967133 0.237659 
91.054314 2.221917 
91.057457 1.956084 
92.057167 0.145855 
92.060699 0.016307 
92.23716 0.012759 
92.661804 0.010818 
92.971733 0.007078 
92.982796 3.415809 
93.036697 0.034039 
93.054337 0.030261 
93.069962 2.247772 
93.381104 0.006857 
93.384056 0.010378 
93.890724 0.007621 
93.955963 0.24069 
94.073441 0.038646 
94.352287 0.007846 
94.961914 0.010674 
94.978554 0.075992 
95.04921 2.588854 
95.085602 5.71686 
95.678291 0.008627 
95.951424 0.796926 
96.044418 0.19478 
96.052483 0.059784 
96.088921 0.308973 
96.396011 0.008285 
96.45607 0.006793 
96.545715 0.013905 
96.899124 0.007268 
97.028442 0.190148 
97.064903 0.861097 
97.101257 1.688462 
97.948669 0.014277 
98.060265 0.042247 
98.071625 0.006977 
98.096512 0.455505 
98.862862 0.006589 
98.920654 0.008538 
98.975388 0.059383 
99.044106 0.750904 
99.047104 0.014254 
99.080528 1.383651 
99.099937 0.152988 
99.293144 0.022277 
100.046936 0.010039 
100.07579 0.073219 
100.083893 0.377777 
100.112076 0.120503 
101.003258 1.994361 
101.042709 0.018708 
101.059845 0.429879 
101.390373 0.021004 
101.797188 0.007135 
102.091652 0.007809 
102.14827 0.007174 
102.421532 0.009207 
102.948257 0.19977 
102.998955 0.033668 
103.039047 0.493962 
103.054329 0.02063 
103.075417 0.314548 
103.117973 0.009474 
103.204132 0.011883 
104.089462 0.00817 
104.697517 0.008997 
104.910286 0.064833 
104.93042 0.024744 
104.982918 0.09533 
105.033638 0.057207 
105.037209 0.011237 
105.07003 1.080827 
105.500832 0.006835 
105.972206 0.024337 
105.980865 0.020768 
106.605362 0.007275 
106.825684 0.00668 
106.925903 0.380748 
106.998505 0.419858 
107.049263 0.31536 
107.052406 0.57247 
107.070259 0.006559 
107.085632 1.557537 
107.950912 0.101057 
107.96991 1.849505 
107.973831 0.05946 
108.051888 0.008629 
108.088806 0.015049 
108.923553 0.056367 
108.958351 0.294596 
108.977768 0.221863 
108.994209 0.148045 
109.028503 0.06614 
109.049355 0.015047 
109.064911 0.590269 
109.101265 2.450589 
109.931412 0.073906 
109.965393 0.012408 
110.096268 0.012969 
110.10482 0.041587 
110.432228 0.012397 
110.934975 0.026037 
110.939224 5.58819 
110.993042 0.012872 
111.044136 0.301551 
111.080528 0.409303 
111.116974 0.130231 
111.947021 0.236193 
112.075806 0.014381 
112.935013 0.341497 
112.972626 0.0772 
113.059708 0.107822 
113.096237 0.065141 
113.647346 0.006786 
113.960342 0.007233 
113.988556 0.050653 
114.091454 0.043227 
114.487808 0.124249 
114.643303 0.006988 
114.986191 1.29518 
115.038879 0.009861 
115.054306 0.01336 
115.075165 0.020689 
115.324547 0.008176 
115.984222 0.021014 
116.052925 0.119176 
116.142723 0.009184 
116.219398 0.006938 
116.963455 0.089688 
116.985954 0.197023 
117.054588 0.101033 
117.069946 0.220166 
117.156883 0.007106 
118.141167 0.012287 
118.858139 0.0067 
118.924774 0.00861 
118.943039 0.127478 
119.04921 0.10556 
119.085625 1.013897 
119.327934 0.007497 
119.951286 0.028675 
119.956528 0.170321 
120.080879 0.180521 
120.089111 0.014804 
120.293854 0.007475 
120.624107 0.008125 
120.940643 0.038167 
120.958862 0.008893 
121.028404 0.027434 
121.064857 1.141279 
121.101257 1.406944 
121.912872 0.048697 
121.956764 0.010692 
122.0317 0.013405 
122.92083 0.060884 
122.940857 2.193469 
122.993553 0.160759 
123.044098 0.897222 
123.080505 0.552492 
123.116951 0.756817 
123.227432 0.008557 
123.493042 0.715386 
123.497696 0.01637 
123.934296 0.013954 
123.939034 1.244891 
123.947212 1.020637 
123.991516 1.915213 
124.047493 0.374163 
124.491585 0.07404 
124.749161 0.008684 
124.918205 0.008694 
124.936478 7.495356 
124.954926 0.13725 
124.972588 0.475547 
124.989075 0.083839 
125.023483 0.00842 
125.048416 0.022905 
125.059845 0.319508 
125.09623 0.227719 
125.936493 0.541107 
125.943245 0.012093 
125.960999 0.105157 
126.28334 0.00833 
126.933968 1.597279 
126.938629 0.01026 
127.015579 0.060613 
127.038925 0.043699 
128.143524 0.01805 
128.933899 0.031682 
128.963638 0.514761 
129.054672 0.026718 
129.069962 0.057281 
130.959854 0.011931 
130.999634 0.034583 
131.070374 0.311579 
131.085602 0.522787 
131.974396 0.027063 
132.958176 0.069722 
133.064896 0.15827 
133.085953 0.13882 
133.101257 0.839 
133.366089 0.007222 
133.491852 0.010117 
133.790604 0.009262 
133.948273 0.009036 
133.959274 0.243802 
134.104477 0.009753 
134.920029 0.052378 
134.95108 0.013658 
134.956146 0.688551 
134.973907 0.04818 
134.996567 0.400899 
135.043976 0.119258 
135.080505 0.296923 
135.116898 0.523284 
135.780548 0.014083 
135.798523 0.008421 
135.927612 0.015101 
135.949249 0.007542 
136.076187 0.012013 
136.119522 0.007303 
136.281586 0.006889 
136.738937 0.008229 
136.936584 0.193479 
136.953674 0.08145 
137.02359 0.029406 
137.059891 0.580279 
137.096161 0.170273 
137.132477 0.043738 
137.47612 0.505568 
137.928207 0.208482 
137.938446 0.008214 
137.944397 0.192598 
137.967209 0.102963 
137.978302 0.011607 
138.091522 0.012721 
138.521454 0.015016 
138.833115 0.007729 
138.951523 0.110796 
138.970612 0.245998 
138.98822 0.113527 
139.039124 0.056924 
139.075485 0.138429 
139.111435 0.011795 
139.923615 1.436998 
139.959641 0.016314 
140.172806 0.008575 
140.923233 0.029009 
140.950546 0.879651 
140.959198 0.087723 
140.967545 0.452052 
141.054779 0.018402 
141.091324 0.012021 
141.836929 0.006842 
141.903519 0.355684 
141.920837 0.446989 
141.949539 0.804818 
142.085648 0.007216 
142.159241 0.12311 
142.564316 0.009747 
142.604218 0.009991 
142.941055 0.009964 
142.947067 1.855317 
143.085526 0.163031 
143.734818 0.011151 
143.920929 0.011689 
143.947067 0.010707 
143.974457 0.053792 
144.068161 0.022216 
144.489258 0.013681 
144.539825 0.016333 
144.824661 0.006431 
144.944183 0.158686 
144.958374 0.033622 
144.980316 0.122101 
144.987915 0.664908 
145.064667 0.07528 
145.101303 0.376165 
145.75647 0.006683 
145.96669 0.079374 
145.990128 0.032628 
146.48143 0.172267 
146.801147 0.00685 
146.974411 2.353972 
147.044357 0.044743 
147.080566 0.265667 
147.116928 0.886956 
147.974487 0.042985 
148.120499 0.013567 
148.955902 0.07251 
148.972046 0.107857 
149.023453 0.180095 
149.059875 0.332735 
149.07811 0.014005 
149.096237 0.215009 
149.132538 0.147988 
149.256378 0.012529 
149.515411 0.008891 
149.954285 0.392972 
150.068314 0.013748 
150.08313 0.018268 
150.951157 8.492338 
150.968658 0.100559 
151.039078 0.101221 
151.075684 0.155688 
151.096176 0.006673 
151.111679 0.050213 
151.148529 0.01248 
151.172897 0.00826 
151.547607 0.054973 
151.951599 2.094458 
151.969879 0.104816 
152.070343 0.010703 
152.191086 0.009242 
152.95192 28.761427 
152.966843 0.307982 
152.989334 0.085626 
153.006958 0.010001 
153.054764 0.15535 
153.080124 0.007016 
153.088333 0.010159 
153.12796 0.019327 
153.713715 0.009811 
153.940247 0.036542 
153.949448 9.672071 
153.955215 3.008822 
153.967697 0.01012 
153.993134 0.016371 
154.122772 0.014677 
154.262619 0.014298 
154.946991 100.0 
155.919113 0.063714 
155.946548 3.743962 
156.13855 0.018175 
156.944321 11.550429 
156.95105 0.203936 
156.966034 0.197815 
157.101242 0.066979 
157.952179 0.082687 
157.957886 0.006984 
158.415985 0.006696 
158.555496 0.04684 
158.904785 0.094037 
158.942291 0.03562 
158.953705 1.274096 
158.978271 0.035217 
159.047775 0.03045 
159.080704 0.082801 
159.116882 0.165217 
159.952377 0.012481 
159.968948 0.032668 
159.981415 0.013108 
160.075623 0.013426 
160.951508 0.031433 
160.989807 0.014965 
161.059723 0.145596 
161.095993 0.125879 
161.132553 0.184842 
161.491943 0.007924 
161.985367 0.013973 
162.177429 0.006558 
162.235504 0.006859 
162.969177 0.01185 
163.039001 0.038883 
163.075455 0.087768 
163.086227 0.007119 
163.11174 0.02273 
163.189728 0.008173 
163.7164 0.007006 
163.977203 0.38566 
164.071198 0.01008 
164.966766 0.114599 
165.05481 0.069081 
165.091522 0.071573 
165.516632 0.00946 
165.532776 0.011423 
166.060425 0.007939 
166.236389 0.011378 
166.621262 0.008719 
166.96698 0.275826 
166.983154 0.029263 
167.034103 0.300512 
167.36113 0.006762 
167.954163 0.038772 
167.964615 0.243948 
168.037521 0.06448 
168.088074 0.007519 
168.850708 0.011358 
168.961868 6.271201 
168.982742 0.027052 
169.038651 0.069358 
169.10144 0.01174 
169.91832 0.016984 
169.961746 1.51487 
170.827316 0.010051 
170.962601 12.630604 
170.978424 0.713222 
171.080933 0.053568 
171.116791 0.028145 
171.913345 0.233694 
171.959564 14.735743 
171.978439 0.097597 
172.005722 0.0584 
172.570847 0.014306 
172.914383 0.014327 
172.922104 0.439525 
172.957642 44.690029 
172.975037 0.405296 
173.059738 0.013045 
173.096237 0.165248 
173.910721 0.029086 
173.929321 0.078598 
173.957336 2.120914 
173.984787 0.024123 
174.560638 0.008375 
174.917923 0.007099 
174.954773 5.563902 
174.974686 0.048804 
175.03891 0.013016 
175.075378 0.220063 
175.096725 0.051189 
175.11203 0.040308 
175.148514 0.021024 
175.925964 0.029646 
176.812256 0.014326 
176.914246 0.626145 
176.955048 0.02331 
177.054459 0.075184 
177.091507 0.039324 
177.10231 0.009922 
177.992798 0.020081 
178.963806 0.033779 
180.887848 0.018582 
180.928299 0.009263 
180.94397 0.051157 
181.049805 0.014566 
181.085693 0.018518 
181.149719 0.006787 
181.904694 0.011397 
181.92659 0.007695 
181.987885 0.026233 
182.866196 0.010528 
182.924561 0.031921 
182.941925 0.03724 
182.977448 0.218312 
183.080322 0.011785 
183.689545 0.009978 
183.942078 2.266381 
184.93985 1.877768 
184.956131 0.009592 
185.077911 0.006958 
185.096451 0.027547 
185.293182 0.00626 
185.938812 0.026842 
185.950836 0.196141 
185.964691 0.280397 
185.975128 0.034706 
186.9366 0.217631 
186.973053 0.0431 
186.99234 0.008568 
187.075333 0.082929 
187.110092 0.015111 
187.148468 0.106017 
187.944809 0.122436 
188.000488 0.063384 
188.916672 0.056585 
188.966965 0.103127 
189.054565 0.036709 
189.091232 0.06241 
189.163803 0.05572 
189.942047 0.04662 
189.97052 0.842509 
190.086395 0.015542 
190.5159 0.006866 
190.932114 0.253609 
190.968277 0.039059 
191.03598 0.082596 
191.07019 0.092773 
191.881165 0.007421 
191.931885 0.010232 
191.97229 0.028562 
192.894455 0.007257 
192.929214 0.198468 
192.96199 0.044511 
193.050171 0.027181 
193.086426 0.026376 
193.977554 0.014771 
194.924805 3.58688 
194.974808 0.040958 
195.08017 0.026035 
195.974243 0.011066 
196.491562 0.006525 
197.059952 0.01206 
197.096146 0.053691 
198.954529 0.026338 
199.050232 0.072929 
199.075623 0.100953 
199.954071 0.013245 
200.094833 0.009434 
200.934525 0.010203 
200.950272 0.189821 
201.039017 0.008786 
201.054962 0.034305 
201.091568 0.101508 
201.952744 1.862348 
202.086716 0.03519 
202.748932 0.006558 
202.932571 0.784625 
202.9505 0.137308 
203.046738 5.738762 
203.070541 0.042581 
203.143097 0.043772 
203.94899 0.013542 
204.911423 0.014796 
205.049606 0.041948 
205.08609 0.024064 
205.73732 0.013211 
205.918869 0.262133 
205.987732 0.188962 
206.160675 0.014263 
206.918961 0.023494 
206.977951 4.231983 
207.065323 0.024787 
207.897079 0.029878 
207.915985 0.322614 
207.977417 0.185057 
207.986526 0.23296 
208.753387 0.006903 
208.942505 0.332608 
208.974976 0.141579 
209.095932 0.029284 
209.891556 0.113417 
209.943253 0.032246 
210.699661 0.008741 
210.939529 0.291643 
210.95491 0.036877 
210.970825 0.045043 
211.027145 0.061225 
211.075577 0.066056 
211.955643 0.009911 
212.028992 0.007231 
212.047134 0.007222 
212.200684 0.029543 
212.935196 2.191185 
212.950302 0.12295 
212.98468 0.017015 
213.054733 0.015376 
213.090958 0.050569 
213.329025 0.008236 
213.952698 1.062188 
213.962418 0.013155 
214.020905 0.007869 
214.052536 0.015355 
214.062973 0.014263 
214.084503 0.007639 
214.122314 0.013755 
214.93512 0.01406 
214.950165 0.470724 
214.966461 0.247032 
215.070145 0.07661 
215.531021 0.009277 
216.8741 0.023277 
216.968567 0.031119 
216.986618 0.0133 
217.050629 0.011291 
217.086258 0.160314 
217.901154 0.063492 
218.86853 1.30196 
218.878845 0.008598 
218.901154 0.022888 
219.065369 0.037737 
219.174545 0.908701 
219.199463 0.012721 
219.304245 0.008778 
219.876678 0.007285 
219.897888 0.17086 
220.884552 0.01676 
220.924591 0.179191 
220.956619 0.04108 
221.895691 0.024065 
221.924866 0.03332 
222.119431 0.008373 
222.899445 0.062309 
222.921371 0.609931 
223.07515 0.016225 
223.892258 0.080176 
224.898102 0.007998 
224.957108 0.012399 
225.043045 1.133534 
225.091354 0.182155 
226.043228 0.357999 
226.893921 0.02523 
227.022415 0.345507 
227.045197 3.577506 
227.070724 0.129499 
227.106812 0.082057 
227.204056 0.012322 
228.022339 0.05269 
228.049362 0.380708 
228.889313 0.687904 
228.966812 0.012907 
228.979202 0.013558 
229.020798 0.007242 
229.049026 0.014237 
229.085648 0.015176 
230.889023 0.062183 
230.925201 0.012729 
230.961334 0.01132 
231.527145 0.013229 
231.896759 1.105622 
231.927032 0.021129 
231.96402 0.059686 
232.061813 0.00916 
232.904831 0.054118 
232.924744 0.389912 
232.960999 0.189117 
233.924927 0.322498 
234.921814 0.867401 
234.968979 0.020996 
234.979935 0.015071 
235.062302 0.009643 
235.132645 0.012401 
235.911453 0.715265 
236.879242 0.126672 
236.911285 0.594429 
236.923843 0.01139 
236.984833 0.045629 
237.0802 0.018501 
237.128952 0.009432 
237.426392 0.007512 
237.453247 0.007464 
237.908279 1.574212 
238.93483 0.028657 
238.967697 1.41758 
238.986023 0.012232 
239.07074 0.036873 
239.908737 0.070308 
240.101746 0.014466 
240.909439 0.209799 
240.931747 0.109744 
241.037888 0.019434 
241.086426 0.070469 
241.152588 0.007196 
242.083618 0.056144 
242.117569 0.058661 
242.598145 0.007244 
242.906738 0.024746 
244.722656 0.008191 
244.884216 0.151332 
244.906052 0.019204 
245.055954 0.393973 
245.908142 0.008061 
246.884109 0.021846 
246.905075 0.053569 
247.908203 0.008777 
248.899643 0.357287 
248.937637 0.067664 
249.891815 0.011717 
249.906586 0.014687 
249.937698 0.762706 
250.339264 0.007361 
250.894012 0.006579 
250.93515 4.813114 
251.887909 0.143569 
251.91983 0.008601 
251.935577 4.911734 
252.917313 0.046573 
252.931808 11.559289 
252.958755 0.025521 
253.085831 0.135445 
253.434998 0.00747 
253.903198 0.010428 
253.921494 0.269156 
253.934479 0.533866 
254.082565 0.015819 
254.933426 1.80207 
254.955261 0.011534 
254.978256 0.029487 
255.065414 0.129192 
255.101593 0.091599 
255.918976 1.082914 
256.09906 0.07499 
256.974579 0.03625 
258.86676 0.011979 
259.050964 0.006818 
259.790497 0.007079 
260.286316 0.010911 
261.603271 0.012912 
262.894928 0.807201 
263.902008 0.025655 
264.034943 0.011121 
265.88205 0.008128 
266.947845 0.025112 
266.999573 0.120414 
267.102844 0.01227 
267.950104 0.011212 
268.037781 0.027169 
268.132172 0.014426 
268.263672 0.805598 
268.925262 0.007155 
268.945831 0.965306 
269.015533 0.007049 
269.081268 0.0072 
269.117981 0.059837 
269.26709 0.023098 
269.823212 0.011347 
269.947052 0.916396 
270.115479 0.119524 
270.901093 0.02924 
270.926483 0.014134 
270.942291 2.440567 
271.151947 0.112154 
272.12793 0.114175 
272.899597 0.025186 
272.942749 0.235552 
273.907043 0.153406 
276.818542 0.025406 
276.876495 0.488907 
277.098755 0.026596 
278.818085 0.053826 
280.813904 0.519702 
281.051331 0.015677 
281.821381 0.033876 
282.115204 0.027963 
283.03067 1.559795 
283.060486 0.646437 
283.820068 0.008334 
283.841919 0.007314 
283.892395 0.102198 
284.031006 0.250938 
284.130371 0.113934 
285.009735 0.018095 
285.027985 0.039368 
285.046143 0.119777 
285.112122 0.011685 
285.816193 0.025821 
287.814026 0.010589 
287.831879 0.11875 
288.79718 0.008069 
288.918762 0.054908 
291.806458 0.070259 
293.670929 0.008806 
295.108215 0.379155 
295.202362 0.016549 
296.091858 0.012654 
296.331604 0.118259 
297.045624 0.007572 
297.816376 0.131224 
298.048584 0.014454 
298.145874 0.039052 
299.061768 1.592701 
299.905975 0.013658 
300.062683 0.302724 
301.05957 0.021979 
301.810486 0.017586 
301.902679 0.013514 
302.818878 0.100485 
302.857574 0.015566 
306.138794 0.007346 
307.822479 0.022181 
308.809296 0.145249 
308.936432 0.062671 
309.816986 0.564544 
310.817047 0.033325 
311.294586 0.161551 
312.086334 0.042897 
312.161041 0.071895 
312.289429 0.006662 
312.327271 1.229395 
312.362457 4.625858 
312.733704 0.007957 
313.10672 0.066444 
313.198486 1.067881 
313.235138 0.058933 
313.329681 0.093253 
313.365875 0.93348 
313.811432 0.02388 
314.175323 0.015429 
314.203064 0.033067 
314.28476 0.053711 
314.305786 0.022039 
314.341858 1.4842 
314.909851 0.012133 
315.177765 0.022992 
315.303741 0.011599 
315.347046 0.01204 
319.549255 0.007164 
320.278717 0.013284 
322.82431 0.095778 
324.689087 0.007686 
325.831146 0.029009 
326.838501 0.006892 
327.827271 0.019811 
328.172455 0.00741 
328.996796 0.018637 
329.703796 0.021423 
330.962097 0.01069 
336.200287 0.007007 
337.028534 0.009153 
END IONS

