BEGIN IONS
PEPMASS=414.155
CHARGE=1+
COMPOUNDNAME=Massbank: Noscapine
LIBRARYQUALITY=3
SMILES=[H]C([H])([H])Oc(c([H])5)c(OC([H])([H])[H])c(C(=O)4)c(c([H])5)C([H])(O4)C([H])(N(C([H])([H])[H])1)c(c(OC([H])([H])[H])2)c(c([H])c(O3)c(OC([H])([H])3)2)C([H])([H])C([H])([H])1
INCHIKEY=AKNNEGZIBPJZJG-UHFFFAOYSA-N
INCHI=1S/C22H23NO7/c1-23-8-7-11-9-14-20(29-10-28-14)21(27-4)15(11)17(23)18-12-5-6-13(25-2)19(26-3)16(12)22(24)30-18/h5-6,9,17-18H,7-8,10H2,1-4H3
MSLEVEL=2
SOURCE_INSTRUMENT=ESI-LC-ESI-QTOF
FILENAME=Massbank_ESI_positive_8_1_2014_peaks.mgf
SEQ=*..*
IONMODE=Positive
ORGANISM=MASSBANK
NAME=Massbank: Noscapine [M+H]+
PI=Putative Massbank Match
DATACOLLECTOR=Massbank
PUBMED=N/A
SUBMITUSER=mwang87
TAGS=
SPECTRUMID=CCMSLIB00000206280
SCANS=1539
91.0568 161.106 
119.0521 108.961 
121.0682 380.076 
131.0522 122.784 
149.063 164.442 
163.046 108.484 
165.0598 287.417 
174.054 103.908 
175.0645 138.418 
176.0601 138.322 
177.062 256.53 
178.0789 104.004 
179.0734 555.863 
188.0543 179.314 
189.0605 265.872 
190.0746 185.033 
191.0647 433.746 
193.0552 246.044 
194.075 110.2 
195.0799 113.251 
203.0619 212.583 
204.0665 422.307 
205.0747 5904.671 
206.0823 2007.626 
207.0802 151.382 
208.082 106.292 
209.0667 228.98 
218.0807 515.539 
219.0865 381.602 
220.0983 10000.0 
221.0654 310.296 
222.0713 199.905 
223.0768 239.466 
224.0836 209.342 
232.0567 118.303 
233.0621 332.507 
234.0695 537.75 
235.0774 384.461 
236.0807 217.445 
237.0602 541.563 
238.082 127.073 
239.0809 209.247 
246.0692 251.478 
247.0745 299.237 
248.0729 380.744 
249.0608 801.43 
250.0652 332.507 
251.0717 621.449 
252.0789 487.035 
253.0847 162.059 
254.0921 125.167 
260.0564 141.659 
261.0572 336.13 
262.0634 758.627 
263.0706 801.049 
264.0773 772.45 
265.0572 1434.7 
266.0807 269.971 
267.084 499.428 
269.0974 125.453 
274.063 285.129 
275.0698 353.765 
276.075 424.023 
277.0643 941.468 
278.0654 439.561 
279.0684 1011.439 
280.0734 2558.627 
281.0817 568.16 
282.0866 269.495 
283.0644 104.385 
289.0536 416.301 
290.0625 370.448 
291.067 680.267 
292.0729 625.643 
293.0717 860.82 
294.0799 473.213 
295.0864 2322.212 
296.0951 255.958 
297.0804 288.751 
302.0591 264.633 
303.0664 162.154 
304.0715 281.03 
305.0717 830.791 
306.0607 1067.684 
307.063 2095.329 
308.0737 814.871 
309.0775 856.244 
310.083 1067.684 
312.0976 169.971 
318.0743 140.229 
319.0635 742.898 
320.0723 526.692 
321.0742 520.686 
322.082 1184.938 
323.0845 2165.872 
324.0916 408.389 
325.1058 616.206 
332.0685 200.858 
333.0777 101.907 
334.0774 926.787 
335.0637 504.957 
336.0859 593.422 
337.0758 720.114 
338.0771 1188.751 
348.0707 158.437 
349.0788 142.135 
350.0815 546.235 
351.074 293.994 
352.0968 530.219 
353.0988 869.304 
362.0717 452.812 
364.085 477.216 
366.0938 640.801 
368.1147 131.935 
END IONS

