BEGIN IONS
PEPMASS=449.375
CHARGE=1+
COMPOUNDNAME=(1R,3aR,5aR,5bR,9S,11aR)-3a,5a,5b,8,8,11a-hexamethyl-1-prop-1-en-2-yl-1,2,3,4,5,6,7,7a,9,10,11,11b,12,13,13a,13b-hexadecahydrocyclopenta[a]chrysen-9-ol
LIBRARYQUALITY=3
SMILES=N/A
INCHIKEY=MQYXUWHLBZFQQO-KIIHVYTKSA-N
INCHI=InChI=1S/C30H50O/c1-19(2)20-11-14-27(5)17-18-29(7)21(25(20)27)9-10-23-28(6)15-13-24(31)26(3,4)22(28)12-16-30(23,29)8/h20-25,31H,1,9-18H2,2-8H3/t20-,21?,22?,23?,24-,25?,27+,28-,29+,30+/m0/s1
MSLEVEL=2
SOURCE_INSTRUMENT=N/A-ESI-QFT
FILENAME=library_mgf.mgf
SEQ=*..*
IONMODE=positive
ORGANISM=MONA
NAME=(1R,3aR,5aR,5bR,9S,11aR)-3a,5a,5b,8,8,11a-hexamethyl-1-prop-1-en-2-yl-1,2,3,4,5,6,7,7a,9,10,11,11b,12,13,13a,13b-hexadecahydrocyclopenta[a]chrysen-9-ol [M+Na]+
PI=MoNA
DATACOLLECTOR=MoNA:VF-NPL-QEHF009282
PUBMED=N/A
SUBMITUSER=mwang87
TAGS=
SPECTRUMID=CCMSLIB00004700345
SCANS=9282
50.992294 0.439748 
51.892056 0.429559 
51.9408 7.335711 
51.974697 0.390907 
52.269447 0.429805 
53.003132 0.438186 
53.03941 1.478603 
53.279114 0.366321 
53.712521 0.407727 
54.122124 0.358738 
55.018665 2.85568 
55.055038 22.8748 
55.565769 0.445698 
55.935223 7.424036 
56.050278 8.772743 
56.175442 0.408648 
56.965603 4.618383 
57.034306 2.067486 
57.07069 26.206572 
57.935623 0.92517 
58.065964 2.697049 
58.612854 0.479005 
58.995754 0.508755 
59.049915 14.467501 
59.10474 0.432431 
59.930977 0.523593 
60.045208 0.67359 
60.053234 0.371615 
60.477268 0.358538 
61.01144 100.0 
61.013309 1.105437 
62.01469 0.742616 
62.019272 51.523659 
62.982517 14.934148 
62.990589 1.407997 
63.007248 5.366848 
63.02702 0.702182 
63.998573 4.912914 
64.015007 3.133714 
64.532951 0.39541 
65.006386 1.006949 
65.039429 1.890792 
65.627281 0.375708 
65.855865 0.384238 
67.054993 21.297419 
68.050179 1.073374 
69.034218 1.952715 
69.070663 16.137905 
70.065895 7.982084 
70.091354 0.391581 
70.373833 0.43364 
70.847603 0.366002 
70.958611 9.855513 
70.981239 0.430184 
71.049858 2.116645 
71.086273 12.005585 
71.930038 6.79782 
72.937866 12.213924 
73.029053 1.069773 
73.047508 8.073857 
73.065659 0.40901 
74.046974 0.512631 
75.026855 0.859458 
75.044388 0.55782 
78.014099 0.479298 
78.956406 0.858487 
78.959267 0.542237 
78.967606 0.454927 
79.021904 42.356979 
79.054886 16.286936 
80.050095 1.946535 
81.034248 0.442584 
81.070534 28.894979 
81.699013 0.451246 
82.06572 0.548837 
83.049706 2.248628 
83.086235 5.828933 
83.982758 0.465746 
84.08136 1.182475 
85.02887 0.539375 
85.065437 0.722739 
85.10183 0.760313 
86.097092 0.494845 
87.044693 14.277019 
87.907043 1.585862 
88.887268 0.41379 
88.914925 0.723819 
88.930069 0.415437 
88.969032 5.666915 
89.060287 9.804761 
89.964127 0.721768 
90.948296 21.502813 
91.054794 13.584269 
91.057961 36.881012 
92.057541 4.724695 
92.061249 1.942525 
92.983315 3.097484 
93.03743 4.77498 
93.054779 6.482684 
93.070381 15.781123 
94.065605 1.818966 
95.01619 0.538305 
95.049789 6.352177 
95.086075 19.177248 
96.081329 3.292037 
97.029068 0.497202 
97.065208 2.071262 
97.076401 0.430605 
97.1017 1.586101 
98.096992 20.51495 
98.975716 0.615692 
101.500076 0.43565 
102.948624 2.1104 
104.907715 0.417311 
104.963791 1.061984 
105.037476 0.544631 
105.045082 0.535007 
105.07032 11.477034 
105.917427 1.57331 
105.935165 0.591551 
106.065475 0.484287 
106.073608 0.465922 
107.049522 1.070528 
107.085968 12.127488 
107.950104 0.497926 
108.081093 0.598252 
108.958687 3.446479 
109.065178 1.00964 
109.10157 5.251328 
110.993645 1.12479 
112.681541 0.437958 
114.091812 2.415178 
114.490112 0.355592 
115.823814 0.417869 
116.367104 0.412132 
116.963638 0.916381 
116.985893 0.764807 
117.070358 1.949399 
117.857285 0.433101 
118.925812 0.431595 
118.94323 1.294205 
119.049034 0.527554 
119.085861 9.122336 
119.09388 0.479005 
119.943924 0.455293 
119.951256 0.967142 
119.978699 0.475376 
120.081116 0.681304 
120.940811 7.183087 
121.028809 2.847539 
121.064964 1.479798 
121.101494 4.320977 
122.940933 1.553413 
123.080627 0.451435 
123.09198 0.517254 
123.117294 1.492295 
123.578552 0.380755 
123.927811 0.536714 
124.414848 0.420982 
124.935669 1.076005 
125.096535 0.462685 
125.93615 2.467767 
125.961098 0.980038 
128.963669 1.001397 
129.070511 0.504 
131.000244 0.488187 
131.049347 0.539772 
131.085602 3.134528 
132.958221 3.723252 
133.101273 3.938078 
133.959335 1.721693 
134.919815 2.836463 
134.956284 16.287191 
134.996582 0.95881 
135.08075 1.755007 
135.116974 2.608079 
135.900146 0.418519 
135.927826 1.319218 
136.935287 1.326829 
137.011948 0.709799 
137.95369 0.524374 
138.896942 0.966714 
138.95134 8.602093 
140.064468 0.432333 
140.643723 0.446696 
140.959885 0.486247 
144.958664 1.072716 
145.101349 2.277391 
146.974411 13.060864 
147.117233 1.571547 
147.974915 6.171227 
148.925644 2.719996 
148.935776 0.654359 
148.955948 1.828727 
148.972031 50.325047 
149.023575 1.280712 
149.043671 0.466485 
149.095917 0.435981 
149.954163 1.157684 
150.896942 3.061427 
150.951202 49.768917 
150.968887 9.222048 
151.951843 0.519568 
151.958908 0.520847 
152.93042 1.808395 
152.946548 0.475723 
152.966751 17.250559 
152.989502 1.135509 
153.938309 2.089104 
153.959518 8.32576 
154.968246 1.062359 
155.95491 1.704808 
156.138565 10.906561 
156.907455 0.55717 
157.101578 0.843285 
158.096725 0.470389 
159.117111 0.564913 
160.593552 0.437776 
161.132294 0.425594 
161.43074 0.458786 
162.950806 0.423218 
163.977036 1.046703 
164.920715 14.3904 
164.966949 5.511413 
165.095703 0.478278 
165.300247 0.491967 
166.92836 3.937673 
166.966171 0.480909 
166.982513 16.339079 
167.03363 0.476847 
167.055542 1.004778 
167.920624 0.503856 
168.01561 0.404308 
168.054657 0.485798 
168.907532 3.867674 
168.925278 0.673887 
168.944702 0.482611 
168.961746 23.637501 
169.052185 0.56047 
170.021164 0.938722 
170.941208 1.896335 
170.963242 1.735196 
177.938217 0.652821 
178.892883 1.252454 
179.946732 1.265748 
180.842529 0.43742 
180.888214 12.620465 
180.895828 0.560992 
180.927475 0.449018 
180.943924 19.874573 
180.952194 0.466066 
180.997803 0.565473 
181.936707 0.467162 
182.923401 1.376183 
182.94371 0.74676 
182.977493 5.902243 
183.931168 4.291044 
184.098083 0.45545 
184.939362 6.933918 
185.153702 4.32477 
185.939789 0.461904 
185.949158 3.299458 
185.96434 1.883142 
186.927582 2.287243 
186.936234 5.304932 
188.973923 0.737487 
190.899796 0.419001 
191.880981 6.148807 
192.961975 3.546225 
194.903656 0.556697 
195.949081 2.066304 
196.939133 2.366611 
197.875305 0.474538 
197.892227 3.624384 
197.957993 0.535502 
198.899719 6.496326 
198.95462 20.255585 
201.941772 2.086028 
203.143341 1.625238 
203.881332 0.766654 
204.888718 1.449754 
204.946701 0.970293 
206.868546 0.612477 
206.926605 0.71241 
206.977402 1.831665 
207.876175 8.202634 
208.883789 9.785412 
209.891968 15.330384 
210.90007 0.867178 
210.972534 0.863044 
211.891815 0.448838 
212.934021 0.599335 
212.970749 1.129373 
213.905334 1.268578 
214.895584 0.512817 
215.903137 1.905117 
216.71051 0.408212 
217.902252 0.699842 
219.173477 0.481042 
220.318619 3.063885 
220.866547 0.409992 
220.903687 9.054104 
222.898819 41.669697 
224.878876 5.122329 
224.898254 0.693549 
225.042923 0.516635 
225.886749 13.774263 
226.043198 0.570441 
226.895111 1.694359 
227.040527 0.521979 
228.928711 0.537657 
228.948517 0.463205 
229.896332 3.224604 
231.916016 9.800641 
232.883682 0.737797 
233.891785 2.811972 
234.899353 5.445098 
236.914536 1.542159 
238.914001 16.192652 
239.901123 0.857543 
239.914429 0.492871 
240.909378 69.141716 
241.911072 1.100679 
242.05748 7.13275 
242.910095 2.681748 
243.060745 12.458466 
243.90863 0.869263 
244.062332 0.717229 
244.904617 5.635832 
246.939896 2.448312 
247.072296 0.453603 
247.906631 2.621334 
248.878296 3.032967 
250.893921 8.036398 
253.917633 2.819231 
254.860825 0.468685 
254.924774 4.296919 
264.909149 0.694598 
266.889526 1.652758 
268.904114 0.497296 
269.044525 4.517292 
270.052094 35.024216 
270.866364 5.260951 
271.055695 60.697521 
271.86615 3.053875 
272.058563 7.464395 
272.196991 0.448387 
272.862488 0.527903 
276.875946 1.762165 
278.874237 0.697379 
279.897583 0.531639 
280.813507 7.957829 
281.821106 1.74052 
282.919495 0.815157 
283.89267 0.946277 
285.076172 5.750892 
285.814728 0.667256 
286.078949 14.839456 
287.053741 0.531771 
287.083405 0.690044 
287.831635 0.623081 
288.877228 0.517798 
291.578888 0.512137 
294.082062 0.484107 
297.815887 3.652265 
301.901642 0.446723 
302.817688 1.729103 
302.856445 2.964957 
303.856384 2.417733 
305.82135 0.518948 
308.808594 0.5627 
309.816254 0.442845 
310.823273 0.411117 
310.843353 4.92064 
311.830566 0.977181 
312.838867 6.528279 
313.81015 0.663692 
317.707611 0.442196 
317.821594 0.504949 
317.841034 7.800036 
319.8367 11.360753 
322.823822 7.771578 
323.832092 15.171894 
325.830719 6.937507 
326.818878 0.790858 
326.838867 1.012234 
326.968506 0.557416 
327.826294 10.821072 
328.323486 0.459825 
328.834473 2.616836 
333.816711 0.687922 
335.339417 0.456216 
335.851898 2.376443 
336.8396 2.318148 
337.846924 7.397658 
341.841888 1.7663 
342.83316 4.659684 
344.828918 7.832039 
344.976288 5.380831 
360.838623 1.0119 
364.8349 1.504837 
365.843323 1.073317 
366.849884 0.479289 
367.841583 8.27934 
369.836761 10.227208 
383.852753 8.00759 
385.852386 2.255715 
387.846802 2.487928 
401.961914 0.546491 
462.796021 0.41996 
473.759003 0.525838 
479.506866 0.457105 
END IONS

