BEGIN IONS
PEPMASS=323.02
CHARGE=1+
COMPOUNDNAME=MoNA:641415 2,2-bis(chloranyl)-N-[(1R,2R)-1-(4-nitrophenyl)-1,3-bis(oxidanyl)propan-2-yl]ethanamide
LIBRARYQUALITY=3
SMILES=N/A
INCHIKEY=WIIZWVCIJKGZOK-RKDXNWHRSA-N
INCHI=InChI=1S/C11H12Cl2N2O5/c12-10(13)11(18)14-8(5-16)9(17)6-1-3-7(4-2-6)15(19)20/h1-4,8-10,16-17H,5H2,(H,14,18)/t8-,9-/m1/s1
MSLEVEL=2
SOURCE_INSTRUMENT=LC-ESI-QFT-LC-ESI-QFT
FILENAME=output_mgf.mgf
SEQ=*..*
IONMODE=
ORGANISM=MONA
NAME=MoNA:641415 2,2-bis(chloranyl)-N-[(1R,2R)-1-(4-nitrophenyl)-1,3-bis(oxidanyl)propan-2-yl]ethanamide [M+H]+
PI=MoNA
DATACOLLECTOR=MoNA
PUBMED=N/A
SUBMITUSER=mwang87
TAGS=
SPECTRUMID=CCMSLIB00000572472
SCANS=9723
63.0228 0.125252 
63.9949 1.907078 
65.0386 1.026969 
66.0464 0.166193 
67.0417 0.163566 
77.0385 0.138945 
78.0464 2.586225 
79.0542 0.314309 
80.0494 0.913282 
80.0624 0.111501 
82.945 100.0 
89.0386 0.666059 
90.0464 1.385389 
91.0542 12.251314 
92.0494 1.069155 
92.062 5.142876 
93.0572 0.196451 
94.0651 0.56044 
95.0491 0.294112 
102.0464 2.343956 
103.0542 9.577466 
104.0495 0.974953 
104.0621 2.341927 
105.0335 0.689319 
105.0448 0.169637 
106.0412 0.287399 
106.0651 2.11603 
107.0493 0.882593 
107.073 1.944471 
108.057 0.235971 
109.0648 0.13575 
109.9559 0.625948 
115.0542 11.001903 
116.0494 0.448257 
117.0572 11.152081 
118.0413 1.970636 
118.0651 28.385242 
119.0729 80.735005 
120.0444 0.258959 
120.0569 3.196754 
121.0521 0.942354 
122.0599 0.17303 
125.0152 1.491276 
127.9664 1.197299 
128.0494 0.978213 
128.0621 4.620231 
129.0445 0.166891 
129.0572 1.392602 
130.0651 15.101086 
131.0364 0.561448 
131.0492 7.621205 
131.073 5.387124 
132.057 8.901335 
133.0285 0.292584 
134.06 5.337883 
135.0678 0.788901 
136.0395 0.185475 
136.0759 1.358848 
137.0152 2.388005 
137.0598 0.287037 
138.0231 3.465118 
138.0549 1.00255 
140.0495 0.166129 
142.0652 2.958488 
145.0522 6.20525 
145.0646 2.261412 
146.0601 3.460412 
147.0551 0.852172 
148.0393 0.538633 
148.0631 5.203779 
149.0153 5.109091 
149.0472 3.733817 
150.0231 2.628777 
151.0628 25.295369 
154.0179 0.610709 
155.0604 1.84971 
157.0524 0.218317 
158.06 0.957846 
160.063 0.267116 
161.0471 0.858998 
162.0231 0.304028 
162.055 0.277321 
163.0307 1.608045 
164.0261 32.162097 
164.0577 2.211579 
165.0659 81.918592 
167.0257 0.157327 
170.06 6.052143 
171.0676 0.1643 
175.0503 0.172444 
177.0214 0.536048 
177.042 5.364765 
179.0132 0.666979 
184.0164 0.145675 
192.0211 0.786748 
193.0287 0.495993 
206.0369 1.384228 
227.9976 4.645222 
229.0057 0.871588 
239.998 0.659097 
256.0041 0.5293 
257.9959 7.212987 
258.0085 1.112664 
259.9881 0.164351 
END IONS

