BEGIN IONS
PEPMASS=370.105
CHARGE=1+
COMPOUNDNAME=Griseofulvin
LIBRARYQUALITY=3
SMILES=N/A
INCHIKEY=DDUHZTYCFQRHIY-RBHXEPJQSA-N
INCHI=InChI=1S/C17H17ClO6/c1-8-5-9(19)6-12(23-4)17(8)16(20)13-10(21-2)7-11(22-3)14(18)15(13)24-17/h6-8H,5H2,1-4H3/t8-,17+/m1/s1
MSLEVEL=2
SOURCE_INSTRUMENT=N/A-ESI-QFT
FILENAME=library_mgf.mgf
SEQ=*..*
IONMODE=positive
ORGANISM=MONA
NAME=Griseofulvin [M+NH4]+
PI=MoNA
DATACOLLECTOR=MoNA:VF-NPL-QEHF001074
PUBMED=N/A
SUBMITUSER=mwang87
TAGS=
SPECTRUMID=CCMSLIB00004692137
SCANS=1074
50.336319 0.078839 
50.991676 0.053279 
51.023529 0.118737 
51.342136 0.05457 
51.35355 0.128946 
51.899628 0.113549 
52.643909 0.119971 
53.002922 0.246288 
53.039284 2.598298 
53.100052 0.144799 
53.493286 0.04677 
54.010323 0.126666 
54.46003 0.049979 
54.50388 0.136076 
54.586586 0.151224 
54.681747 0.099547 
54.736229 0.036474 
54.774731 0.123387 
55.0186 1.362243 
55.054939 12.758165 
55.148418 0.074066 
55.727776 0.129732 
56.105354 0.143912 
56.203606 0.101227 
56.679253 0.097943 
56.965515 1.517675 
57.034222 2.617957 
57.070576 13.783724 
57.227341 0.044677 
57.367092 0.109521 
57.920467 0.092367 
57.935379 0.041523 
58.065838 4.577263 
59.049843 19.984592 
59.051395 0.164754 
59.061077 2.826637 
59.331188 0.077327 
59.671944 0.119149 
60.081478 19.183657 
60.12521 0.128043 
60.128975 0.042994 
61.011143 2.695732 
61.029125 0.720454 
61.084831 0.243435 
61.155853 0.122061 
61.503078 0.052454 
62.494282 0.053999 
62.990372 0.434093 
63.029305 0.146965 
63.115559 0.050243 
63.479427 0.045465 
63.554031 0.050048 
64.609627 0.152295 
65.039276 0.928474 
66.321732 0.045366 
67.054893 5.869285 
67.306221 0.121085 
68.997658 0.049556 
69.028831 0.109752 
69.034111 1.054419 
69.070511 6.194164 
69.175774 0.153758 
69.209343 0.037382 
69.357254 0.11709 
70.065781 1.155799 
70.988892 0.045914 
71.049698 0.062961 
71.086143 6.283606 
71.847099 0.150122 
72.053787 0.045253 
72.46225 0.049678 
73.047394 29.113005 
73.059235 0.07355 
73.06543 1.683993 
73.94014 0.035951 
74.046951 0.175555 
74.07589 0.048025 
74.529007 0.107327 
74.560616 0.085548 
75.024185 0.074282 
75.026711 0.333985 
75.044701 0.058534 
75.088287 0.126075 
75.90313 0.140802 
75.956223 0.056388 
76.405083 0.101855 
76.61898 0.049931 
77.039215 0.186483 
77.655586 0.110025 
79.021652 1.005144 
79.054779 14.230375 
80.050056 0.323245 
80.096298 0.102106 
80.853172 0.073438 
81.034088 0.196338 
81.070412 6.143436 
81.282349 0.107285 
81.870338 0.146797 
82.864708 0.055 
83.049652 0.526969 
83.085953 0.341374 
83.876686 0.119977 
84.080887 0.07224 
85.028778 0.219612 
85.040787 0.048543 
85.101669 1.54658 
85.33165 0.146778 
85.696106 0.0654 
86.096878 0.477821 
86.190369 0.148534 
87.04451 1.813493 
89.060135 3.081499 
89.707993 0.104136 
91.054657 8.793294 
91.05777 32.98436 
92.057632 0.634706 
92.06102 0.181504 
92.151649 0.055003 
93.037003 0.355914 
93.057625 0.065416 
93.070297 6.810214 
93.651833 0.049597 
95.036858 0.249907 
95.049515 5.87732 
95.085938 3.911473 
97.065567 0.164074 
98.838097 0.047938 
98.975685 0.168054 
99.958229 0.104134 
101.060181 0.055679 
101.092453 0.051953 
101.464546 0.042299 
102.587852 0.150286 
102.942383 0.081327 
103.054558 4.103049 
105.034088 0.165957 
105.045082 1.238643 
105.070107 2.983522 
105.073555 0.357933 
105.873192 0.055539 
106.065407 0.413607 
107.0494 0.409899 
107.053078 0.103639 
107.085831 0.428892 
107.781136 0.105803 
108.044594 1.199438 
109.052795 0.054211 
109.064957 0.276148 
109.101433 0.493816 
110.94709 0.081843 
111.455658 0.13722 
111.460228 0.117779 
113.973007 0.052524 
114.714661 0.102049 
115.054474 2.668093 
115.587151 0.135133 
116.986069 0.138374 
117.07 1.621534 
117.951515 0.140088 
118.028961 0.823958 
118.065208 0.045145 
119.049408 1.056103 
119.08567 0.366219 
120.044434 0.446226 
120.080849 0.396631 
120.327637 0.166005 
121.06488 0.847227 
123.044319 0.057542 
124.039436 0.192111 
127.054771 0.05466 
128.062164 0.491213 
128.680191 0.098512 
129.069931 2.008012 
130.065125 0.644845 
130.556473 0.122033 
131.049042 0.054289 
131.085342 0.246107 
132.044449 5.222253 
133.0522 4.640092 
133.064804 0.046102 
133.1008 0.170895 
134.059952 1.440477 
134.978592 1.758779 
135.030731 0.134396 
136.039307 3.390648 
137.059616 0.039912 
139.054352 0.107876 
141.069946 0.972698 
141.544083 0.079314 
141.788605 0.051519 
142.078461 0.08827 
142.501053 0.054142 
143.072586 0.084196 
143.085785 0.178651 
144.080658 0.761276 
144.338104 0.084706 
145.064697 3.863316 
146.023422 1.692353 
146.060028 0.612643 
147.043762 0.20126 
147.067719 0.38068 
148.039154 7.584884 
149.047104 1.987594 
150.054871 3.831447 
151.024643 0.181328 
151.038483 0.148427 
151.058685 0.064691 
151.453018 0.099427 
152.061737 0.15143 
152.98912 0.682596 
153.069809 2.311213 
154.040115 0.041425 
154.049789 1.662052 
154.065109 2.928591 
154.077484 0.729621 
154.669739 0.053099 
155.060226 5.234314 
155.08548 6.058015 
155.805527 0.060559 
156.063568 0.073438 
157.06456 0.167311 
159.031631 0.103539 
160.0392 4.665661 
160.075531 0.476619 
161.059189 0.054918 
162.047882 0.085765 
162.054901 2.451018 
163.062485 0.056839 
164.034103 0.784459 
165.042053 1.584723 
165.06987 4.488037 
166.050201 0.339576 
166.065186 0.606155 
166.077438 0.180696 
167.05542 1.065434 
167.07283 10.008631 
167.085541 0.204056 
168.057053 0.096082 
168.067535 0.290626 
168.081207 1.6473 
169.034576 2.078643 
169.064438 0.228194 
169.075836 1.748476 
169.088654 0.171082 
170.059875 1.528742 
170.963028 0.197052 
171.043884 0.142016 
171.068298 0.090712 
171.728714 0.178783 
172.039185 0.065217 
172.202637 0.08502 
173.059357 0.283329 
174.311081 0.131023 
175.542267 0.043146 
176.03418 1.727498 
177.041992 6.592792 
178.049744 29.852516 
179.060211 89.560501 
180.063675 11.183075 
180.080612 2.538987 
181.065506 0.499542 
181.075912 3.981107 
181.08844 3.257348 
181.458374 0.140203 
182.059967 1.998696 
182.083282 0.123324 
182.096436 5.140026 
183.06781 1.176569 
183.080338 1.063125 
184.075897 0.855961 
184.085236 0.078619 
186.05481 0.145802 
188.070129 0.366584 
188.973801 0.129464 
190.049652 7.763574 
191.057556 64.479248 
191.073044 0.454954 
191.083389 0.116877 
192.061615 3.812685 
192.066269 4.030233 
192.080582 0.497531 
193.066116 0.486001 
193.075974 16.861294 
193.086319 1.162059 
194.059845 0.872668 
194.079666 1.169926 
194.096527 1.318175 
195.067825 4.035062 
195.081909 0.350153 
195.0914 10.180193 
195.101349 0.501791 
196.075668 6.778721 
196.09494 0.348234 
196.111588 0.058905 
197.060165 0.056131 
197.083786 1.113416 
197.097046 0.100774 
198.055038 1.026469 
198.091156 0.66901 
199.062897 0.295926 
199.076294 0.059335 
200.070587 0.639993 
202.049881 0.154764 
202.086563 0.344086 
203.05777 0.056227 
204.065353 8.838906 
204.075821 0.112144 
205.075348 4.343348 
206.083832 9.50913 
206.09465 0.179474 
207.091415 5.902218 
207.10199 0.054385 
208.075668 3.594051 
208.09935 0.064731 
208.111969 0.902555 
209.083206 2.491554 
209.567505 0.156153 
210.054764 0.161984 
210.091187 22.944105 
211.063065 0.238054 
211.076126 0.073049 
211.086258 0.25436 
211.095718 1.550553 
212.070465 5.218762 
214.049652 0.723527 
214.929642 0.150282 
215.05722 0.388087 
216.065506 1.328924 
217.073837 0.453975 
218.082886 0.954023 
218.095673 0.862373 
219.051514 0.042332 
219.091568 4.876953 
220.075607 0.750709 
220.099213 2.853196 
220.264481 0.227052 
220.27858 0.170885 
220.283752 0.093005 
221.107056 6.019844 
222.054825 5.805699 
222.078354 0.818585 
222.091003 0.259246 
222.113525 0.284106 
223.061295 0.839117 
223.086349 8.37442 
224.069672 0.217939 
224.092697 1.26466 
224.10675 1.734651 
225.042801 1.128089 
226.085938 4.414628 
227.058304 0.162511 
227.090332 0.144182 
228.06517 3.262837 
229.073471 0.467282 
230.361145 0.129262 
231.091049 1.130701 
233.106979 0.52942 
234.078827 0.278931 
234.115158 0.084657 
235.08638 1.577619 
235.122971 1.992295 
236.07016 1.722029 
236.094482 0.157629 
236.108139 0.060853 
236.130661 1.04041 
237.10231 0.258 
237.138382 13.47128 
237.151627 0.080601 
238.085938 10.216462 
238.14183 1.136367 
238.419525 0.141991 
239.090073 0.624984 
240.065201 6.464476 
240.947235 0.598709 
241.072998 8.536529 
241.176849 0.162852 
242.080536 5.512854 
244.098907 0.505294 
245.106964 3.502662 
246.053497 0.152921 
246.114258 0.754393 
247.086533 0.856654 
247.122696 5.418099 
248.128662 0.063585 
249.101807 0.956726 
250.145889 1.743408 
251.117416 5.304862 
252.101227 0.317361 
252.121353 0.12411 
253.025146 0.051531 
253.13295 7.591258 
254.080856 100.0 
254.13678 0.618353 
255.086029 20.682104 
256.091156 0.873968 
257.107452 0.616624 
259.08667 0.162618 
259.122772 5.3407 
260.093933 1.506169 
260.127045 0.237138 
261.100159 0.315081 
261.138367 14.918933 
261.152802 0.125198 
262.141968 2.33978 
263.117737 13.384943 
263.153992 22.474396 
264.122864 2.152609 
264.157745 2.171234 
265.132812 0.071656 
266.998566 5.971382 
267.064209 0.076595 
267.999359 0.128053 
268.017334 0.04893 
268.096466 19.114225 
268.264465 0.05297 
268.977997 18.391483 
269.100311 2.435765 
269.977875 1.751475 
270.112274 13.689201 
270.957947 0.360758 
271.120819 1.484377 
272.124939 0.13105 
272.487671 0.091834 
273.138336 0.132722 
274.109924 0.661194 
274.145844 4.742822 
275.117554 4.129506 
275.15387 11.071345 
276.120209 0.183978 
276.158081 1.496253 
277.133423 0.774551 
277.171295 0.063264 
278.058655 0.130533 
279.148682 43.503998 
280.097443 0.188067 
280.152313 9.459417 
281.155151 0.128143 
282.112091 0.190753 
283.030029 2.411417 
285.009308 2.681898 
286.009094 0.057128 
287.11731 1.410678 
287.154114 3.098086 
288.158661 0.128232 
289.132904 1.91601 
290.140686 7.350134 
291.148102 3.905802 
292.151642 0.20281 
293.163147 0.077983 
296.117889 0.040915 
298.40213 0.142475 
299.117279 0.314047 
302.179321 0.052635 
303.148407 8.483178 
304.154297 2.795764 
305.163269 0.175451 
310.142914 0.113456 
315.148743 0.562471 
318.21524 0.129153 
339.823944 0.05713 
345.856293 0.062155 
354.137817 0.077341 
354.973724 0.091738 
356.211334 0.061114 
361.740997 0.159083 
366.144592 0.058717 
366.315308 0.049488 
372.175018 0.0519 
375.649689 0.077356 
383.660828 0.081765 
384.274323 0.116858 
384.902985 0.087797 
388.350525 0.137923 
END IONS

