BEGIN IONS
PEPMASS=343.213
CHARGE=1+
COMPOUNDNAME=ERGONOVINE MALEATE
LIBRARYQUALITY=3
SMILES=N/A
INCHIKEY=WVVSZNPYNCNODU-XTQGRXLLSA-N
INCHI=InChI=1S/C19H23N3O2/c1-11(10-23)21-19(24)13-6-15-14-4-3-5-16-18(14)12(8-20-16)7-17(15)22(2)9-13/h3-6,8,11,13,17,20,23H,7,9-10H2,1-2H3,(H,21,24)/t11-,13+,17+/m0/s1
MSLEVEL=2
SOURCE_INSTRUMENT=N/A-ESI-QFT
FILENAME=library_mgf.mgf
SEQ=*..*
IONMODE=positive
ORGANISM=MONA
NAME=ERGONOVINE MALEATE [M+NH4]+
PI=MoNA
DATACOLLECTOR=MoNA:VF-NPL-QEHF027721
PUBMED=N/A
SUBMITUSER=mwang87
TAGS=
SPECTRUMID=CCMSLIB00004721302
SCANS=27721
50.136257 0.016911 
52.937248 0.016807 
53.348686 0.018267 
53.766613 0.009208 
54.011112 0.014849 
54.8895 0.018143 
54.953297 0.022854 
54.999592 0.02797 
55.208256 0.020315 
55.554878 0.02192 
56.049686 0.050642 
56.073391 0.012659 
56.217728 0.02158 
56.231258 0.023822 
56.372398 0.011222 
56.923805 0.019221 
57.800564 0.010684 
58.065384 0.977217 
58.386307 0.010746 
58.860218 0.011563 
58.87347 0.016519 
59.049347 0.08147 
59.930515 0.044865 
60.044567 0.168625 
61.010845 0.245156 
62.018627 0.180542 
62.555542 0.014798 
63.021908 0.018314 
63.944809 0.021845 
64.567986 0.019286 
65.961258 0.011665 
66.878197 0.011072 
66.891083 0.016803 
67.643806 0.019977 
68.275093 0.019792 
69.745781 0.024224 
70.06514 0.022769 
70.822922 0.011145 
70.945343 0.020978 
71.005135 0.024066 
71.085823 0.010207 
71.24231 0.012775 
71.494743 0.023023 
71.78698 0.010933 
72.238411 0.010474 
72.906273 0.021352 
73.014709 0.010623 
73.04715 0.018791 
73.155663 0.020154 
73.271942 0.013446 
73.874649 0.031693 
74.060059 3.052028 
75.467621 0.011705 
76.075684 1.220438 
77.261086 0.023514 
78.216301 0.0261 
78.770569 0.02254 
79.021202 0.097411 
80.213043 0.010576 
81.582695 0.011733 
82.542656 0.015935 
82.945908 0.013972 
83.020569 0.024745 
83.24102 0.032922 
83.340813 0.011231 
83.887161 0.022634 
84.044365 0.040612 
85.605247 0.014641 
87.223167 0.01249 
88.646385 0.028472 
89.059731 4.280497 
90.211601 0.012289 
90.407745 0.014511 
92.070602 1.541801 
92.924896 0.021271 
98.084755 0.016294 
98.975212 0.013169 
99.840057 0.010997 
100.668892 0.019461 
102.054977 0.12165 
102.362823 0.013508 
104.121109 0.012392 
104.767647 0.009167 
105.382889 0.022932 
109.104866 0.023561 
109.523399 0.01015 
110.785187 0.010352 
112.039192 0.201183 
112.075691 0.185318 
114.193031 0.012411 
120.454964 0.009611 
122.605072 0.022509 
123.547752 0.01362 
125.084518 0.017154 
126.090988 0.019889 
127.501694 0.011573 
128.070557 4.113474 
128.075806 0.021565 
128.963776 0.98308 
129.073975 0.122982 
130.064941 0.128554 
130.086517 0.026377 
130.698929 0.012423 
130.979492 0.35502 
133.085892 1.629786 
134.55275 0.022003 
137.954453 0.011905 
138.784683 0.017026 
138.92601 0.018297 
139.589035 0.020935 
141.211395 0.02703 
144.987259 0.018598 
146.0811 0.826295 
146.97435 1.778068 
147.956039 0.01758 
149.356323 0.013701 
149.693329 0.018465 
152.782715 0.022928 
152.951294 0.301955 
153.949249 0.015216 
153.959137 0.04351 
154.065277 0.208835 
154.123795 0.02192 
154.946701 0.024946 
155.068192 0.01902 
155.954361 0.023062 
156.080612 0.122552 
156.526855 0.018543 
157.966599 0.144937 
158.011017 0.224183 
158.349121 0.018401 
158.974197 0.082454 
159.013229 0.02045 
159.793762 0.021582 
159.982269 0.012338 
160.989914 1.022473 
161.972137 0.09053 
162.972137 0.225536 
164.417267 0.014455 
166.967056 0.3599 
167.073318 0.104005 
167.893616 0.027293 
167.964844 0.017867 
168.080826 1.775958 
168.961945 0.032668 
169.084076 0.144436 
170.010941 0.062477 
170.223969 0.021822 
170.961304 0.011968 
172.026718 0.093638 
172.990128 0.049154 
173.078201 0.024985 
174.006165 0.174969 
175.003296 0.013748 
176.021255 0.052887 
177.112061 0.01455 
178.065308 0.010941 
179.062363 0.025906 
180.080719 10.259443 
181.08374 1.517238 
182.061096 0.021833 
182.087891 0.065763 
182.096344 1.225138 
183.099884 0.06958 
184.0271 0.024178 
184.075256 0.024328 
184.333542 0.010188 
184.676529 0.017562 
185.107437 0.023768 
185.974777 0.022408 
187.008102 0.034456 
187.197311 0.017703 
188.021805 0.244995 
188.781433 0.025902 
189.019897 0.034103 
191.000671 0.286193 
192.08075 7.701886 
192.628036 0.010679 
192.962692 0.022091 
193.084 1.058045 
194.096466 5.064967 
194.214203 0.022796 
194.924866 0.012651 
195.100067 0.774602 
196.075714 2.416223 
196.111664 0.090348 
196.804062 0.020968 
197.079193 0.102752 
197.10733 13.996076 
198.078751 0.261999 
198.09111 0.074088 
198.110931 2.403198 
198.880859 0.06035 
199.114151 0.071845 
201.905167 0.026379 
204.364807 0.024442 
205.987671 0.195674 
206.059845 0.072722 
206.083725 0.182816 
206.977676 0.114909 
207.068069 0.563294 
207.091904 0.878337 
208.075775 66.245071 
208.098892 4.757976 
209.079132 12.27677 
209.103058 0.690859 
210.082184 1.151685 
210.091934 0.16142 
211.085068 0.021437 
211.122849 0.048192 
213.102127 1.114552 
213.904129 0.018842 
214.105286 0.039532 
214.676743 0.603925 
214.686417 0.301655 
214.912506 0.039375 
215.883957 0.054954 
216.891434 0.341497 
218.291962 0.01359 
218.868256 0.051113 
220.075668 1.235841 
220.099548 0.368582 
220.766159 0.02017 
220.977936 0.14791 
221.079758 0.027834 
221.107269 17.124126 
221.975433 0.542313 
222.09198 0.041676 
222.112839 3.354208 
222.975037 0.015202 
223.122864 100.0 
224.070618 4.755842 
224.094162 0.935888 
224.126404 18.809229 
225.073944 0.748256 
225.1017 0.784076 
225.129288 1.695792 
226.086456 0.162551 
226.105484 0.089916 
227.8974 0.020582 
227.919601 0.180935 
228.88884 2.065993 
229.889465 0.340761 
233.639725 0.020909 
235.123611 0.017614 
236.070541 0.064508 
237.10202 1.453687 
238.106277 0.112816 
239.117783 8.393813 
240.121292 1.487468 
240.232178 2.205627 
241.096191 0.068306 
241.235443 0.163401 
241.898651 0.022826 
242.20047 0.012307 
242.90564 0.023271 
243.914902 0.291606 
244.88446 0.049588 
245.907486 0.107098 
246.905426 0.015001 
249.102066 2.309955 
250.105606 0.27506 
251.117783 5.149648 
252.121048 1.060182 
253.134598 0.012942 
253.323227 0.024436 
255.232346 0.020098 
255.91481 1.028518 
256.922089 0.078413 
256.969971 0.011451 
258.635101 0.021985 
258.899597 2.707906 
259.899963 0.556173 
261.925598 0.077039 
263.117676 0.234361 
265.133606 0.200387 
267.112762 2.158791 
267.950958 0.069679 
268.116608 0.265823 
268.922882 0.047315 
268.958588 0.036298 
269.128448 5.019794 
270.131683 0.97808 
270.899506 4.901617 
270.936676 0.065663 
271.900177 0.994571 
272.898376 0.062629 
275.10733 0.022547 
276.910217 0.310216 
277.911133 0.033198 
278.911774 0.013544 
280.152466 0.065406 
281.128265 23.889479 
282.131805 4.806912 
282.798126 0.017066 
282.96347 0.033581 
283.144409 4.705727 
284.147491 0.896765 
284.170349 0.318308 
284.451111 0.011684 
285.123627 0.228767 
285.961578 1.835214 
286.930878 0.303435 
286.961853 0.082663 
288.910278 0.351361 
289.917633 0.058873 
295.144104 3.044107 
295.161469 0.02691 
296.147339 0.559541 
296.293945 0.084063 
297.12323 0.03629 
298.163025 0.926913 
298.931488 0.028397 
299.138885 22.221313 
299.169159 0.021993 
300.142365 4.266412 
300.974579 0.020139 
301.14505 0.239787 
302.126129 0.242709 
302.181183 0.191481 
302.92218 0.013125 
303.123901 0.163877 
303.972198 1.085443 
304.941315 1.15115 
304.972778 0.023744 
305.942505 0.145615 
305.970032 0.019575 
306.159882 0.485287 
307.163055 0.024376 
308.935638 0.026962 
309.146912 0.077281 
310.969421 0.214278 
311.138947 1.550426 
311.157928 0.025253 
312.142059 0.21208 
312.909943 0.418003 
314.185699 0.031058 
316.943817 0.01306 
318.920868 0.076526 
321.132751 0.017731 
322.154938 0.752228 
322.95166 1.948836 
323.158813 0.05261 
323.953156 0.296178 
324.170471 7.832642 
324.949738 0.023226 
325.174774 1.936289 
325.671906 0.017765 
326.182709 0.252176 
327.157654 2.271241 
328.161102 0.394571 
330.920624 1.72338 
331.921509 0.305923 
341.205414 1.27732 
341.2659 0.030182 
341.397339 0.539199 
342.144287 0.040298 
342.181335 43.182228 
342.960052 0.019674 
343.135834 0.033469 
343.184509 9.828628 
343.207397 0.309704 
343.244934 0.057684 
344.16391 0.020684 
344.187042 1.079374 
345.152008 0.115331 
345.188965 0.052317 
347.974823 0.020137 
353.68158 0.012426 
END IONS

