BEGIN IONS
PEPMASS=353.079
CHARGE=1+
COMPOUNDNAME=Griseofulvin
LIBRARYQUALITY=3
SMILES=N/A
INCHIKEY=DDUHZTYCFQRHIY-RBHXEPJQSA-N
INCHI=InChI=1S/C17H17ClO6/c1-8-5-9(19)6-12(23-4)17(8)16(20)13-10(21-2)7-11(22-3)14(18)15(13)24-17/h6-8H,5H2,1-4H3/t8-,17+/m1/s1
MSLEVEL=2
SOURCE_INSTRUMENT=N/A-ESI-QFT
FILENAME=library_mgf.mgf
SEQ=*..*
IONMODE=positive
ORGANISM=MONA
NAME=Griseofulvin [M+H]+
PI=MoNA
DATACOLLECTOR=MoNA:VF-NPL-QEHF001076
PUBMED=N/A
SUBMITUSER=mwang87
TAGS=
SPECTRUMID=CCMSLIB00004692139
SCANS=1076
50.137096 0.016387 
50.49424 0.064638 
50.653214 0.026389 
51.19474 0.051951 
51.835724 0.028256 
52.057961 0.018036 
52.670582 0.026939 
52.783478 0.015986 
52.895721 0.022984 
53.002926 0.602357 
55.018677 0.056939 
55.054848 0.017808 
55.456917 0.013407 
57.047714 0.01869 
57.070702 0.018421 
57.211987 0.035385 
57.236343 0.02751 
57.905994 0.013592 
59.025913 0.062872 
59.785671 0.036267 
60.781712 0.069803 
61.011562 0.024621 
61.241455 0.033474 
62.182407 0.017573 
63.059311 0.059065 
63.143585 0.025837 
63.190559 0.031988 
64.632225 0.044241 
64.850151 0.017301 
65.264465 0.017157 
66.042526 0.037793 
66.06266 0.070328 
66.701988 0.04266 
66.802101 0.016721 
67.05481 0.044007 
68.17453 0.019654 
68.591766 0.042955 
68.997787 0.31591 
69.034126 100.0 
69.070389 0.075718 
69.604019 0.021754 
69.786537 0.064082 
70.03746 3.217782 
70.284698 0.02776 
70.793182 0.030267 
70.892372 0.047143 
72.177376 0.054599 
73.047371 1.621359 
74.292366 0.027648 
74.690971 0.029531 
75.167465 0.025916 
76.404442 0.046404 
79.054741 0.267805 
79.163589 0.031676 
81.070358 0.247999 
81.312401 0.016726 
82.450012 0.027258 
82.940544 0.027632 
83.239052 0.037425 
86.107971 0.060716 
86.443367 0.019157 
88.988777 0.014647 
90.302536 0.028487 
91.054626 0.11253 
91.057762 0.588162 
92.338875 0.019746 
93.070259 0.04302 
93.590782 0.036729 
95.049583 0.338245 
95.085686 0.072915 
96.235031 0.024024 
98.539108 0.030028 
98.975555 0.089209 
99.044418 0.494567 
99.906738 0.040025 
101.233475 0.022086 
102.307289 0.015628 
105.03373 0.022843 
105.070686 0.024491 
106.042519 0.024407 
106.394424 0.073631 
107.049393 0.874126 
109.064941 0.453997 
109.694206 0.060405 
114.508148 0.016462 
114.614693 0.028001 
115.640053 0.017337 
121.064842 0.181166 
121.780609 0.014404 
122.036316 1.371277 
122.05883 0.018335 
123.044289 0.084515 
123.520439 0.020465 
125.059708 0.210708 
127.520065 0.023636 
128.630096 0.026854 
128.92276 0.04353 
132.666397 0.017608 
133.19957 0.020228 
133.369324 0.045984 
134.109055 0.027727 
135.044418 0.034423 
135.055298 0.052881 
136.745651 0.016092 
137.05957 0.225209 
139.075211 0.107932 
140.357849 0.015985 
142.205566 0.017434 
143.226318 0.014491 
145.841248 0.062931 
146.072266 0.048009 
147.07486 0.046604 
150.031097 1.378702 
150.723038 0.018084 
151.093491 0.029135 
152.352234 0.018067 
152.535522 0.029428 
152.895279 0.017741 
155.28183 0.019285 
157.801514 0.042386 
161.166077 0.025208 
161.521912 0.025431 
162.067368 0.129863 
162.58963 0.046407 
163.038925 0.021745 
164.230453 0.025578 
165.054489 86.407646 
166.057785 6.22139 
166.065872 0.035733 
168.041321 0.124707 
168.223465 0.02872 
168.354614 0.027292 
169.809875 0.022153 
171.992096 0.553316 
174.928665 0.033357 
179.060165 0.18431 
182.984665 0.024224 
183.064819 0.047715 
183.784821 0.044587 
187.015472 0.022509 
190.062653 0.06873 
191.630219 0.065885 
195.74913 0.028199 
197.036301 1.528981 
198.588303 0.01717 
199.033157 0.03564 
199.987015 3.674073 
200.895401 0.029412 
201.096832 0.023028 
201.983887 0.407842 
203.938721 0.032098 
206.544785 0.046255 
207.065033 0.085914 
211.717987 0.020607 
214.085953 0.028951 
214.678711 0.86279 
214.691467 0.27644 
215.010391 60.518967 
216.013718 5.440226 
216.093002 0.022941 
217.007248 10.725515 
217.773758 0.023723 
217.997421 2.973991 
218.057648 0.043423 
219.093719 0.02624 
219.994354 0.238408 
221.080399 0.110697 
221.106049 0.016217 
222.088058 0.250535 
223.608856 0.041485 
223.673691 0.031106 
224.023254 0.649256 
225.030563 0.294218 
226.038391 0.216666 
226.72699 0.028215 
229.187027 0.03992 
230.095154 0.041415 
231.688705 0.022975 
232.262009 0.016225 
235.80603 0.044765 
238.450912 0.026282 
240.829391 0.03284 
241.02562 0.166679 
242.130661 0.016211 
242.436325 0.014374 
248.949646 0.030065 
250.038208 0.082015 
252.017624 0.492756 
253.02562 1.648045 
253.133087 0.237949 
254.081497 0.067746 
254.744888 0.040526 
255.005829 0.068435 
255.024994 0.077357 
255.041199 1.503009 
257.04245 0.046175 
257.057098 2.248914 
258.086487 0.02263 
259.054626 0.192945 
260.526154 0.020744 
264.017883 0.101412 
264.13501 0.015179 
265.062256 1.39919 
270.028656 6.177764 
271.032013 0.25088 
272.025635 0.720244 
274.145142 0.056279 
275.153687 0.259714 
276.161133 0.423817 
277.025482 0.879392 
277.167999 0.083718 
278.03363 2.020917 
279.024963 0.045787 
279.040527 1.618943 
279.148743 1.159189 
280.030426 0.093619 
280.1521 0.341085 
281.038727 0.140292 
283.036469 0.558742 
285.00943 0.575247 
285.052032 21.207014 
286.055084 2.721033 
287.048767 3.829504 
289.168549 0.033706 
291.023102 0.019427 
291.040955 0.023466 
292.046692 0.025712 
293.020447 0.059314 
293.039368 0.305284 
293.057037 1.686623 
294.043213 0.019693 
295.017944 0.077461 
296.008118 0.018615 
298.914215 0.034088 
302.315369 0.030346 
303.147247 0.018083 
303.616608 0.01946 
304.030029 0.018464 
304.100342 0.021411 
304.282288 0.043902 
306.02829 2.086756 
307.032501 0.189843 
307.14386 0.167102 
308.025452 0.204326 
308.041718 0.021528 
308.144928 0.077179 
309.032227 0.037052 
310.039062 0.059417 
311.031616 0.036138 
311.067261 1.6169 
313.651062 0.067891 
315.148102 0.022457 
321.015442 1.371926 
321.051636 0.519048 
322.018982 1.137698 
323.012665 2.377112 
323.047638 0.025237 
324.0159 0.140882 
324.123566 0.052072 
324.375061 0.033285 
330.547241 0.032868 
332.045654 0.023864 
335.174438 0.336371 
336.038239 0.558183 
337.042145 0.435494 
337.190674 0.20857 
337.704834 0.047696 
338.036041 1.257966 
339.040375 0.072033 
347.481628 0.019955 
351.168427 0.089961 
351.188263 0.052545 
353.69809 0.042302 
367.581451 0.053048 
376.574768 0.029957 
END IONS

