BEGIN IONS
PEPMASS=427.246
CHARGE=1+
COMPOUNDNAME=LOVASTATIN
LIBRARYQUALITY=3
SMILES=N/A
INCHIKEY=PCZOHLXUXFIOCF-BXMDZJJMSA-N
INCHI=InChI=1S/C24H36O5/c1-5-15(3)24(27)29-21-11-14(2)10-17-7-6-16(4)20(23(17)21)9-8-19-12-18(25)13-22(26)28-19/h6-7,10,14-16,18-21,23,25H,5,8-9,11-13H2,1-4H3/t14-,15-,16-,18+,19+,20-,21-,23-/m0/s1
MSLEVEL=2
SOURCE_INSTRUMENT=N/A-ESI-QFT
FILENAME=library_mgf.mgf
SEQ=*..*
IONMODE=positive
ORGANISM=MONA
NAME=LOVASTATIN [M+Na]+
PI=MoNA
DATACOLLECTOR=MoNA:VF-NPL-QEHF003459
PUBMED=N/A
SUBMITUSER=mwang87
TAGS=
SPECTRUMID=CCMSLIB00004694522
SCANS=3459
50.478588 7.541492 
50.938255 7.130201 
50.970661 2.338107 
51.145809 2.914775 
51.287106 1.963415 
51.649467 6.946825 
52.285191 3.520185 
52.753696 3.803827 
53.117008 2.31237 
54.071815 3.242288 
54.124027 3.38443 
54.568195 9.846879 
54.628777 7.619275 
54.725803 1.033504 
55.054832 1.074997 
56.223129 8.203393 
56.284008 9.840141 
56.421417 7.078789 
56.427845 6.28297 
56.824322 4.045753 
56.834457 1.901825 
57.070786 1.283432 
57.213772 4.707474 
57.275959 7.571024 
57.492767 1.337008 
57.987598 3.506119 
58.074135 7.025766 
58.103279 7.034517 
58.196213 2.94257 
58.43906 1.060826 
58.795212 3.893927 
59.370445 2.249268 
59.375038 3.576072 
59.793129 3.514511 
60.103775 7.488428 
60.115875 8.821792 
60.361439 5.028576 
60.369015 3.328933 
60.545513 3.598918 
60.673115 6.496422 
61.259254 3.268073 
61.625072 3.071556 
61.899792 4.76448 
61.90295 5.426412 
62.08363 3.304741 
62.097195 3.496567 
62.500687 2.869455 
63.115215 2.931276 
63.218773 5.396813 
65.734612 8.733418 
65.974197 2.599326 
66.216705 2.423771 
66.99939 4.943103 
67.200554 1.906852 
67.644974 5.33367 
67.703186 3.206497 
67.717476 3.636975 
69.431252 3.007778 
70.197533 6.589634 
71.377937 3.159362 
73.680458 2.103205 
74.007477 5.408119 
74.656197 3.042431 
75.836922 8.447251 
76.68129 7.507322 
76.699692 2.039648 
76.897797 2.303805 
79.013496 8.552435 
79.054787 4.93046 
79.458351 1.662285 
80.468643 7.766427 
80.748985 3.202173 
80.924713 2.087233 
81.070419 8.08004 
81.139641 2.517338 
81.949821 7.343091 
82.174889 8.340959 
83.546501 8.057646 
83.995407 8.026922 
84.296478 5.229963 
84.730446 3.448938 
85.179817 3.178913 
85.237152 8.406587 
85.617996 5.299481 
86.578316 7.348205 
87.526794 2.071752 
87.538338 1.0671 
88.184303 3.788392 
88.239075 7.06732 
90.477127 2.503761 
91.054649 1.648665 
91.731415 4.882751 
92.916405 1.236518 
92.928734 4.646528 
93.070549 3.580144 
93.399635 4.158088 
93.468414 3.383152 
94.702812 3.513196 
95.749443 2.853469 
97.669189 1.048926 
98.280701 8.370973 
98.362846 3.586253 
99.811211 4.05852 
100.191528 5.162583 
100.469147 6.57323 
100.734055 1.990701 
101.881042 2.392451 
103.58831 2.081903 
103.850555 7.62729 
104.054695 1.466767 
104.870796 3.813022 
105.070274 81.513954 
107.060097 6.813961 
112.198921 2.896186 
113.652527 2.341229 
115.275681 5.769392 
115.452316 5.601301 
117.070099 26.311939 
119.085785 10.218081 
119.479752 4.952136 
119.5252 4.548348 
119.577896 3.449211 
119.676155 3.173775 
120.082085 4.189918 
121.084114 5.961322 
122.250198 0.992542 
122.778862 1.058191 
124.34977 3.13687 
125.519157 5.716844 
126.018456 7.823099 
126.734978 5.410849 
127.321976 3.279227 
128.238358 8.478789 
128.976151 2.877192 
129.069901 5.524054 
129.315353 2.940324 
129.335785 7.731365 
129.583862 1.956357 
130.086578 3.471278 
130.621323 9.979313 
131.085464 100.0 
131.240692 8.550307 
132.391098 3.619382 
132.453339 3.504 
132.958481 1.211648 
133.991486 0.978419 
138.335739 5.676992 
139.143219 3.733087 
139.278702 3.027447 
139.833466 1.01153 
141.069702 1.265423 
141.581009 4.930066 
141.620789 2.259934 
142.078033 3.177526 
142.874481 2.030438 
143.085526 42.625969 
143.675552 5.846742 
144.093552 8.302985 
145.101074 7.04133 
147.65741 3.064584 
150.773544 2.880013 
152.381424 1.145557 
155.085007 1.182911 
155.890915 2.009716 
155.982986 9.796447 
156.093536 4.414369 
157.101227 4.388239 
159.116577 39.580608 
159.855545 5.225975 
164.596527 2.038048 
165.983856 7.879001 
169.101379 2.068415 
175.88446 5.818321 
175.969421 7.564922 
178.115524 3.120137 
180.347275 7.681427 
180.548782 5.414173 
181.908386 5.493778 
183.773438 1.047144 
184.290817 3.299247 
186.038605 5.494343 
189.23764 8.944704 
189.852692 1.166668 
191.566605 0.978435 
193.963181 8.06226 
195.635956 2.308122 
197.580048 7.911438 
205.127884 1.716862 
207.753189 6.816327 
209.362289 1.112373 
210.54808 2.986588 
210.619034 2.246576 
220.165588 72.3283 
220.192764 3.8052 
222.898407 4.165021 
224.820343 5.171948 
225.02533 8.482929 
229.89621 1.080698 
230.271454 8.46139 
240.908829 13.305282 
243.40361 6.893742 
247.906387 1.233751 
248.115784 1.174363 
249.577957 1.104824 
250.255081 1.500445 
254.468185 4.163407 
261.735168 5.658221 
263.619598 4.408441 
264.909363 1.258465 
265.538879 1.022527 
266.556793 4.878934 
267.055939 2.838435 
271.206299 5.832818 
271.33078 2.229536 
272.597687 7.487829 
273.529175 7.236832 
275.241028 8.088894 
279.412231 7.851716 
284.153351 7.265731 
289.880676 8.168396 
294.927979 1.508414 
295.130585 35.821198 
304.10556 4.347208 
311.644836 8.511818 
319.877502 3.842379 
340.239258 3.290119 
345.233673 5.562868 
345.9935 1.167982 
352.783844 2.126232 
354.458893 3.675441 
362.118683 8.952736 
363.683136 3.527717 
365.30191 9.109655 
368.963989 2.728282 
373.427917 3.480687 
381.620361 7.645171 
383.856354 4.188683 
386.45752 7.475837 
393.276215 1.501904 
407.076324 1.647129 
407.192352 3.809199 
410.14328 6.238565 
411.245605 2.381849 
425.019958 9.786798 
426.059265 7.522408 
427.326752 1.869735 
433.207428 1.547702 
438.79364 5.110115 
445.338196 9.346014 
END IONS

