BEGIN IONS
PEPMASS=193.13
CHARGE=1+
COMPOUNDNAME=L-citrulline
LIBRARYQUALITY=3
SMILES=N/A
INCHIKEY=RHGKLRLOHDJJDR-BYPYZUCNSA-N
INCHI=InChI=1S/C6H13N3O3/c7-4(5(10)11)2-1-3-9-6(8)12/h4H,1-3,7H2,(H,10,11)(H3,8,9,12)/t4-/m0/s1
MSLEVEL=2
SOURCE_INSTRUMENT=N/A-ESI-QFT
FILENAME=library_mgf.mgf
SEQ=*..*
IONMODE=positive
ORGANISM=MONA
NAME=L-citrulline [M+NH4]+
PI=MoNA
DATACOLLECTOR=MoNA:VF-NPL-QEHF000509
PUBMED=N/A
SUBMITUSER=mwang87
TAGS=
SPECTRUMID=CCMSLIB00004691572
SCANS=509
50.685719 0.051509 
51.505821 0.05725 
51.660591 0.049048 
53.188065 0.044716 
53.573364 0.051075 
53.684269 0.04539 
53.708778 0.042424 
54.046928 0.053108 
54.558842 0.044275 
55.049168 0.04582 
56.892433 0.048155 
57.238445 0.042794 
57.364494 0.040659 
58.675228 0.05402 
59.049885 0.059024 
60.609844 0.049205 
61.011395 94.714401 
62.010818 0.170938 
62.014755 1.299921 
62.019241 0.911794 
62.375248 0.050963 
62.3806 0.054003 
62.49057 0.048134 
63.007206 2.605698 
64.775696 0.052972 
65.263412 0.043072 
66.068306 0.044162 
66.437218 0.04449 
66.992493 0.044161 
67.158546 0.043216 
67.190651 0.064011 
68.469986 0.054361 
70.065804 0.058078 
70.958534 3.819691 
71.767357 0.047883 
72.007843 0.060083 
72.937866 0.75291 
74.206589 0.040445 
75.946091 0.196495 
77.069199 0.044799 
77.216972 0.047525 
78.37426 0.042661 
79.069199 0.044266 
80.695518 0.042208 
82.438477 0.042522 
82.886444 0.049757 
84.101021 0.068252 
85.96846 0.036699 
87.79731 0.048819 
88.879608 0.04044 
89.060326 4.253448 
89.694611 0.051816 
89.940414 0.252658 
90.620087 0.042817 
90.948265 0.477444 
91.636543 0.046438 
94.220985 0.04875 
95.958588 0.046641 
98.060555 0.04641 
98.096886 0.208124 
98.975792 1.824873 
98.979088 0.061011 
101.652878 0.043885 
102.930443 0.100704 
104.711044 0.053476 
104.930786 1.743355 
105.917503 0.22104 
107.070816 0.048114 
107.518959 0.045283 
110.693771 0.05611 
110.912827 0.066747 
113.071358 0.156642 
114.091408 0.067346 
114.948174 0.072427 
116.107224 0.043409 
116.986229 0.514399 
118.086418 0.065412 
118.924965 0.05627 
119.049332 1.096597 
120.936134 0.040271 
120.940735 1.714147 
122.941101 6.379436 
131.961517 1.046242 
131.975174 0.047535 
132.940582 0.143116 
132.958313 9.986723 
133.086197 0.425763 
133.948502 1.508215 
134.958191 1.109675 
134.996887 0.058324 
135.04422 0.14223 
135.927612 0.400808 
135.948685 0.065615 
135.966553 0.697652 
136.95668 1.77362 
137.01178 0.789281 
137.928131 0.176857 
140.46167 0.074547 
142.395081 0.046255 
142.440659 0.061711 
145.223114 0.0693 
146.973801 0.078285 
147.300171 0.048715 
147.97493 1.649847 
148.971832 100.0 
149.96106 0.464791 
149.972321 2.155588 
149.974915 1.50388 
150.951126 1.682686 
150.968124 6.9524 
150.972946 1.030609 
151.959 0.291313 
152.442398 0.052559 
152.456268 0.050393 
152.945053 0.209864 
152.951523 16.386909 
152.968872 2.553388 
153.939133 0.05802 
153.95929 18.030519 
156.138107 0.181763 
157.479996 0.046053 
159.076416 0.237856 
159.574249 0.052731 
161.01178 1.920734 
162.951157 0.672753 
163.998886 0.585076 
164.951492 1.324514 
164.983368 0.045567 
165.000397 0.064542 
165.375671 0.046569 
165.938187 0.609422 
166.01683 0.047291 
166.982346 14.90551 
167.974686 0.139536 
167.984848 0.096208 
168.926285 0.052349 
168.961075 0.046518 
168.982986 5.736946 
170.962006 3.210825 
173.641708 0.050605 
174.095215 0.046852 
174.149017 1.826051 
175.358643 0.047522 
176.94101 0.084811 
176.989487 0.18516 
177.938156 7.698725 
178.941223 0.056215 
179.022263 14.831169 
179.939117 0.073333 
180.023422 2.058208 
180.961639 0.819813 
180.998077 0.234691 
181.019409 1.486159 
182.962219 1.098658 
185.949249 2.816592 
191.9646 0.154814 
192.101929 0.255623 
192.138229 2.776249 
192.150253 0.047442 
192.15947 2.169987 
192.174423 0.05141 
192.961639 25.129879 
193.038193 0.058004 
193.964127 0.909623 
194.117371 1.451399 
194.154007 10.120451 
194.403152 0.054911 
194.962479 2.811441 
195.157227 0.11369 
195.948822 6.504941 
197.033005 1.385085 
197.948853 0.075198 
199.85527 0.049694 
202.038635 0.065111 
207.011887 0.073221 
207.393845 0.062785 
209.975906 0.054123 
210.962021 0.073982 
210.972122 10.793264 
210.982346 0.060493 
211.974136 0.448075 
212.519073 0.06134 
212.972763 3.58601 
END IONS

