BEGIN IONS
PEPMASS=141.006
CHARGE=1+
COMPOUNDNAME=CYCLOSERINE
LIBRARYQUALITY=3
SMILES=N/A
INCHIKEY=DYDCUQKUCUHJBH-UWTATZPHSA-N
INCHI=InChI=1S/C3H6N2O2/c4-2-1-7-5-3(2)6/h2H,1,4H2,(H,5,6)/t2-/m1/s1
MSLEVEL=2
SOURCE_INSTRUMENT=N/A-ESI-QFT
FILENAME=library_mgf.mgf
SEQ=*..*
IONMODE=positive
ORGANISM=MONA
NAME=CYCLOSERINE [M+K]+
PI=MoNA
DATACOLLECTOR=MoNA:VF-NPL-QEHF027821
PUBMED=N/A
SUBMITUSER=mwang87
TAGS=
SPECTRUMID=CCMSLIB00004721402
SCANS=27821
50.386909 0.121595 
50.658344 0.064285 
50.694553 0.067543 
50.732201 0.107062 
50.738464 0.073445 
50.987526 0.06615 
51.221359 0.071948 
51.556347 0.068281 
51.970661 0.070619 
52.021721 0.080874 
53.03009 0.080498 
54.192165 0.080977 
54.652664 0.077183 
55.029324 0.40348 
55.054504 1.279439 
55.315048 0.127502 
56.017925 0.066506 
56.049728 2.438949 
56.17606 0.079616 
56.965038 0.500833 
57.070042 0.072644 
58.028988 0.092237 
58.065372 0.403497 
58.106876 0.109264 
58.151138 0.069802 
58.701836 0.075791 
58.726257 0.155371 
58.778839 0.071376 
58.815559 0.131312 
59.426254 0.07516 
59.793896 0.076875 
59.93045 0.114049 
59.940933 0.068885 
60.044731 0.126808 
60.088181 0.075215 
60.386112 0.070691 
60.620205 0.075079 
60.719067 0.069 
60.957874 1.826771 
61.010838 3.45357 
61.142883 0.075192 
61.590618 0.076445 
61.628532 0.076727 
61.928017 0.071566 
62.018658 12.0153 
62.92926 0.071936 
62.990067 1.39995 
63.006577 0.172412 
63.021973 0.075957 
63.50602 0.074908 
63.632874 0.084185 
63.997944 0.338429 
64.014404 0.774162 
64.130722 0.073709 
64.4767 0.073626 
65.309753 0.064424 
66.075996 0.075618 
67.029182 0.572532 
67.054367 0.077821 
67.987991 0.132989 
69.044662 0.210667 
69.069962 0.701832 
69.076019 0.069168 
69.989532 0.719546 
70.028755 0.2683 
70.065147 0.409143 
70.527596 0.069698 
71.02404 0.162011 
71.036568 1.508554 
71.483109 0.295116 
71.807159 0.096224 
71.843742 0.127063 
72.080772 0.075807 
73.039604 0.191281 
74.096428 4.201447 
75.45813 0.126905 
75.475349 0.091184 
75.592712 0.070556 
76.410507 0.073846 
76.610336 0.075378 
76.703255 0.071968 
76.998253 0.602246 
77.030685 0.070821 
77.993675 0.083148 
77.996216 1.602687 
78.013382 1.68731 
78.059235 0.122626 
78.585785 0.077291 
78.994698 13.839799 
79.021225 3.575091 
79.478874 0.083117 
79.489799 0.085332 
79.496361 0.198887 
79.99263 1.041469 
80.101944 0.077088 
80.488228 1.626267 
80.722359 0.158433 
80.993217 1.656805 
81.016968 0.088377 
81.044693 1.752846 
81.069954 0.09114 
81.558098 0.078265 
82.052574 0.176978 
82.06514 0.821563 
83.060349 28.501225 
83.085564 0.107765 
83.549767 0.076994 
83.744507 0.079754 
84.057381 0.17886 
84.063698 4.272691 
84.080765 0.552639 
84.097076 0.073206 
84.40554 0.085664 
85.03952 0.161057 
85.773109 0.078292 
86.003479 4.862941 
86.505379 0.085451 
87.00148 6.982144 
87.055328 0.222553 
87.076202 0.076863 
87.501694 0.181138 
88.000008 45.990822 
88.003006 0.490179 
88.304001 0.074261 
88.499397 0.181453 
88.501747 0.819356 
88.904404 0.137468 
88.997864 3.676512 
89.002098 0.085976 
89.257782 0.137492 
89.998505 9.095137 
90.996384 0.079734 
91.480698 0.19852 
92.47924 2.255483 
93.044731 1.446555 
93.070122 0.066652 
93.468918 0.117599 
93.532181 0.072528 
94.035286 0.084875 
94.477913 0.212908 
94.882195 0.078219 
95.008194 2.007366 
95.060349 1.764519 
95.830078 0.075725 
96.006706 2.57022 
96.055382 0.089234 
97.005302 16.825344 
97.039642 5.073963 
97.063545 0.417196 
97.075958 0.510687 
97.28141 0.070857 
97.506981 0.086627 
98.003143 0.418871 
98.071312 0.176825 
98.092972 0.101849 
98.096397 0.600081 
98.992371 0.083311 
99.003731 2.168932 
99.488304 0.111888 
99.507835 0.075413 
99.990982 1.103888 
100.064034 0.132331 
100.486153 4.06437 
100.489441 0.089078 
100.988022 0.085228 
101.484596 31.469818 
101.986412 1.299908 
102.263855 0.069012 
102.343399 0.077685 
102.479225 0.078856 
102.482574 7.276798 
102.486053 0.084873 
103.483185 6.372789 
103.927078 0.088002 
104.480972 0.228827 
106.010567 0.228213 
106.971237 0.069958 
107.240326 0.12372 
107.444435 0.068254 
107.493935 0.081388 
107.997818 2.606226 
108.492714 0.807537 
108.796562 0.131138 
108.996307 16.417286 
109.039642 2.621285 
109.059631 0.071306 
109.487312 0.180772 
109.491432 15.818265 
109.495567 0.40501 
109.498108 0.778575 
109.864914 0.07849 
109.985939 0.764254 
109.994278 4.27433 
110.047432 30.495144 
110.083733 0.07651 
110.489861 100.0 
110.985054 0.093497 
110.991623 5.555153 
110.995209 2.619209 
111.055229 46.54504 
111.483841 0.255292 
111.487793 22.097269 
111.491844 1.364064 
111.956451 0.079168 
111.993179 0.083504 
112.051819 0.208518 
112.058578 8.88571 
112.062523 0.180026 
112.129234 0.13579 
112.488434 23.396927 
112.990089 0.277342 
113.039948 0.126959 
113.486298 1.249108 
114.066185 0.916135 
114.462936 0.085906 
115.683441 0.081283 
116.004883 0.335412 
116.49913 0.103385 
116.965958 0.139112 
117.003075 5.760799 
117.007286 0.094034 
117.497688 4.079482 
117.504379 0.701268 
118.001633 40.740059 
118.052559 0.085556 
118.496696 3.737301 
118.503159 3.709486 
118.994911 0.075783 
118.999596 10.333814 
119.004021 0.241782 
119.495171 22.131409 
120.000381 10.085078 
120.493164 4.675071 
120.934258 0.132919 
120.998055 0.353258 
121.039566 11.272634 
121.493797 5.219584 
121.997719 0.087212 
122.042953 1.87686 
122.764015 0.076353 
122.931053 0.154835 
123.055214 1.011205 
124.050041 0.079718 
125.009476 0.667558 
125.034294 0.080093 
125.058289 1.149257 
126.007858 0.487155 
126.502937 0.265051 
127.006927 4.062237 
128.004761 0.416728 
128.372513 0.150791 
128.992615 0.085171 
129.005035 0.173863 
132.041275 0.087952 
133.059937 0.076247 
133.301956 0.080278 
134.739029 0.077861 
137.917938 2.423251 
139.050217 11.636965 
139.094727 0.115331 
139.122971 2.447112 
139.274033 0.067597 
140.04628 0.18795 
140.053284 2.532095 
140.068024 3.328395 
140.10675 0.539538 
141.05455 0.092766 
141.077042 0.798134 
141.102142 0.112322 
142.061111 7.239982 
142.12265 14.113751 
142.158997 1.700461 
143.044739 0.088487 
143.081345 0.204948 
143.092331 0.079016 
144.791306 0.078484 
147.038635 0.130748 
147.931091 0.073045 
152.418365 0.080657 
152.594543 0.078198 
152.941711 0.10731 
155.928513 2.715214 
155.954575 0.866589 
157.924316 0.097465 
158.120514 0.080572 
158.266647 0.079367 
158.876678 0.08777 
163.969543 0.077542 
164.662155 0.129905 
END IONS

