BEGIN IONS
PEPMASS=804.489
CHARGE=1+
COMPOUNDNAME=MoNA:603779 Tacrolimus
LIBRARYQUALITY=3
SMILES=N/A
INCHIKEY=QJJXYPPXXYFBGM-LJIGMGMYSA-N
INCHI=InChI=1S/C44H69NO12/c1-10-13-31-19-25(2)18-26(3)20-37(54-8)40-38(55-9)22-28(5)44(52,57-40)41(49)42(50)45-17-12-11-14-32(45)43(51)56-39(29(6)34(47)24-35(31)48)27(4)21-30-15-16-33(46)36(23-30)53-7/h10,19,21,26,28-34,36-40,46-47,52H,1,11-18,20,22-24H2,2-9H3/b25-19-,27-21+/t26-,28+,29+,30-,31+,32-,33+,34-,36+,37-,38-,39+,40+,44+/m0/s1
MSLEVEL=2
SOURCE_INSTRUMENT=LC-ESI-QFT-LC-ESI-QFT
FILENAME=output_mgf.mgf
SEQ=*..*
IONMODE=
ORGANISM=MONA
NAME=MoNA:603779 Tacrolimus [M+H]+
PI=MoNA
DATACOLLECTOR=MoNA
PUBMED=N/A
SUBMITUSER=mwang87
TAGS=
SPECTRUMID=CCMSLIB00000570451
SCANS=7702
84.0808 1.727964 
85.0644 0.209926 
111.0805 0.540858 
128.0707 0.33594 
130.0864 1.972097 
145.1008 0.162542 
161.1323 0.280856 
171.1168 1.123535 
173.132 0.225848 
175.1478 0.193976 
181.1227 0.319534 
185.1323 0.252891 
187.1481 0.519589 
189.1273 0.601911 
199.1478 0.215896 
203.1433 0.731279 
207.1164 0.263811 
207.1382 0.404588 
209.1321 0.157165 
213.1269 0.248886 
215.1428 0.16691 
217.1584 0.230216 
219.1747 0.420054 
220.0972 0.275002 
221.1538 1.843594 
234.1127 1.872239 
247.1478 0.205247 
249.1639 2.313222 
254.1025 0.803148 
255.1739 0.186214 
263.1639 0.204504 
265.1584 0.308176 
266.1024 2.101804 
267.1746 0.802151 
280.118 0.277335 
281.1899 0.247757 
283.1691 0.233812 
289.195 0.43185 
291.2107 0.304292 
292.118 0.150561 
293.1531 0.328996 
299.2009 0.578654 
303.2105 0.15788 
304.1179 0.232267 
306.1334 0.183701 
307.2066 0.148879 
310.1288 0.151334 
311.1641 0.216288 
317.2114 0.487573 
321.2216 0.19053 
322.1287 0.185493 
331.2421 0.156249 
332.1493 0.248754 
346.1652 0.161136 
349.2532 0.223024 
362.1591 0.162409 
386.1973 0.389865 
394.2378 0.223906 
407.2953 0.162766 
413.2665 9.172809 
414.27 9.34041 
422.2325 1.135907 
440.2435 2.363909 
450.227 0.249261 
458.2906 0.309594 
465.2497 0.15448 
466.2603 0.433723 
468.2387 0.251762 
472.2694 0.536969 
476.2992 0.175328 
479.2943 0.245458 
482.2543 0.328241 
484.2701 0.464252 
486.2856 1.574211 
488.3006 0.194736 
494.2537 0.290387 
498.2864 0.26297 
500.2649 1.726662 
502.3151 0.467577 
504.296 2.146855 
512.2647 0.379792 
512.3013 0.210422 
514.2803 0.975872 
514.3171 0.24521 
516.297 0.609264 
526.2807 0.398059 
530.3116 2.473828 
532.2909 9.903891 
544.291 0.431729 
548.3223 8.30205 
558.3067 5.918929 
561.3574 0.163458 
576.3173 17.598596 
658.4117 0.52334 
672.4323 1.119253 
700.4215 6.352098 
706.4673 0.27699 
718.4322 22.610446 
736.4429 10.186465 
750.4582 13.100813 
768.4691 100.0 
786.4794 11.4599 
END IONS

