BEGIN IONS
PEPMASS=141.0
CHARGE=1+
COMPOUNDNAME=MoNA:2262827 Ectoine
LIBRARYQUALITY=3
SMILES=N/A
INCHIKEY=WQXNXVUDBPYKBA-UHFFFAOYSA-N
INCHI=InChI=1S/C6H10N2O2/c1-4-7-3-2-5(8-4)6(9)10/h5H,2-3H2,1H3,(H,7,8)(H,9,10)
MSLEVEL=2
SOURCE_INSTRUMENT=LC-ESI-QQ-LC-ESI-QQ
FILENAME=output_mgf.mgf
SEQ=*..*
IONMODE=
ORGANISM=MONA
NAME=MoNA:2262827 Ectoine [M-H]-
PI=MoNA
DATACOLLECTOR=MoNA
PUBMED=N/A
SUBMITUSER=mwang87
TAGS=
SPECTRUMID=CCMSLIB00000565320
SCANS=2572
44.6 0.510204 
59.1 100.0 
END IONS

