BEGIN IONS
PEPMASS=1101.57
CHARGE=1+
COMPOUNDNAME=N-[(3S,6S,9S,11R,15S,18S,20R,21R,24S,25S,26S)-3-[(1R)-2-carbamoyl-1-hydroxyethyl]-6-[(1S,2S)-1,2-dihydroxy-2-(4-hydroxyphenyl)ethyl]-11,20,21,25-tetrahydroxy-15-[(1R)-1-hydroxyethyl]-26-methyl-2,5,8,14,17,23-hexaoxo-1,4,7,13,16,22-hexaazatricyclo[22.3.0.0?,��]heptacosan-18-yl]-10,12-dimethyltetradecanamide
LIBRARYQUALITY=3
SMILES=N/A
INCHIKEY=DFQUSLQYURJBIT-MFKXNLKNSA-N
INCHI=InChI=1S/C51H82N8O17/c1-6-25(2)19-26(3)13-11-9-7-8-10-12-14-37(66)53-32-21-35(64)47(72)57-49(74)41-42(67)27(4)23-59(41)51(76)39(34(63)22-36(52)65)55-48(73)40(44(69)43(68)29-15-17-30(61)18-16-29)56-46(71)33-20-31(62)24-58(33)50(75)38(28(5)60)54-45(32)70/h15-18,25-28,31-35,38-44,47,60-64,67-69,72H,6-14,19-24H2,1-5H3,(H2,52,65)(H,53,66)(H,54,70)(H,55,73)(H,56,71)(H,57,74)/t25?,26?,27-,28+,31+,32-,33-,34+,35+,38-,39-,40-,41-,42-,43-,44-,47+/m0/s1
MSLEVEL=2
SOURCE_INSTRUMENT=N/A-ESI-QFT
FILENAME=library_mgf.mgf
SEQ=*..*
IONMODE=positive
ORGANISM=MONA
NAME=N-[(3S,6S,9S,11R,15S,18S,20R,21R,24S,25S,26S)-3-[(1R)-2-carbamoyl-1-hydroxyethyl]-6-[(1S,2S)-1,2-dihydroxy-2-(4-hydroxyphenyl)ethyl]-11,20,21,25-tetrahydroxy-15-[(1R)-1-hydroxyethyl]-26-methyl-2,5,8,14,17,23-hexaoxo-1,4,7,13,16,22-hexaazatricyclo[22.3.0.0?,��]heptacosan-18-yl]-10,12-dimethyltetradecanamide [M+Na]+
PI=MoNA
DATACOLLECTOR=MoNA:VF-NPL-QEHF024865
PUBMED=N/A
SUBMITUSER=mwang87
TAGS=
SPECTRUMID=CCMSLIB00004715928
SCANS=24865
78.156281 0.018517 
78.782372 0.01486 
78.842522 0.052523 
80.262856 0.051258 
80.353485 0.014305 
80.747467 0.008152 
80.970032 0.038129 
81.069847 0.052052 
81.530251 0.011205 
82.065308 0.026597 
83.085373 0.032608 
83.269188 0.066033 
84.044357 0.735694 
85.028496 0.013639 
85.101234 0.011922 
85.949303 0.050244 
86.051659 0.063167 
86.05999 9.361125 
86.062698 0.183822 
86.461739 0.052425 
87.030304 0.009399 
87.044273 0.010612 
87.063316 0.343307 
87.066055 0.010614 
89.059639 0.065825 
89.172302 0.011503 
89.471527 0.029117 
89.970871 0.068736 
90.159325 0.061337 
91.057495 0.01269 
91.33213 0.015485 
92.994362 0.058865 
93.093224 0.014646 
93.329422 0.049848 
93.670197 0.070747 
93.89592 0.049276 
95.085442 0.153504 
95.649635 0.028023 
97.101349 0.01332 
99.13784 0.069554 
100.039162 0.227329 
100.07563 2.362224 
100.643646 0.030032 
100.674667 0.016131 
101.033356 0.010919 
101.070992 0.049148 
101.079132 0.057481 
102.054802 0.065778 
106.065117 0.015654 
106.16954 0.035874 
107.049202 0.055058 
107.085434 0.013613 
109.039803 0.035489 
109.101143 0.057324 
114.171165 0.057148 
117.06601 0.035071 
120.796906 0.060863 
121.604324 0.026727 
123.116821 0.011593 
125.071068 0.024835 
127.050056 0.012966 
127.086479 0.009457 
128.632568 0.058709 
129.065857 0.011353 
129.208176 0.064307 
130.050034 0.010347 
130.926636 0.081259 
131.081543 0.49012 
131.423737 0.017182 
134.508606 0.018336 
136.075638 0.077199 
136.900681 0.060999 
138.834656 0.085877 
139.050476 0.01164 
140.070602 0.024151 
141.065582 0.406696 
142.086182 0.023842 
143.006195 0.05363 
143.081284 0.056114 
144.735779 0.027539 
145.060593 0.013226 
145.097275 5.086063 
145.102982 0.020626 
145.503983 0.078365 
146.044693 0.011665 
146.100372 0.302073 
146.292633 0.012684 
147.044006 0.153329 
148.083679 0.008721 
148.165848 0.063053 
149.071106 0.012068 
149.553528 0.065935 
151.086731 0.012704 
153.065628 0.009268 
153.354141 0.063214 
154.047363 0.044807 
155.081512 0.03141 
156.984985 0.010443 
157.097046 0.096736 
158.379898 0.05858 
158.801941 0.061521 
159.854919 0.008434 
163.071442 0.02979 
164.070145 0.01468 
165.065979 0.200098 
166.086594 0.013974 
167.055725 0.028783 
167.080063 1.237464 
167.747894 0.075749 
168.084747 0.034895 
169.060745 0.085582 
169.096848 0.082477 
171.07637 0.117731 
174.054642 0.06193 
175.039734 0.01087 
176.070908 0.009821 
176.483551 0.04141 
177.065811 0.121056 
179.081238 0.064677 
181.096542 0.019411 
183.076935 0.039798 
183.634964 0.04044 
185.092087 0.627937 
186.095871 0.016661 
187.107941 0.176558 
188.070297 0.04361 
191.081726 0.015238 
192.065353 0.042277 
194.325195 0.060295 
195.07634 0.672446 
195.458954 0.06239 
196.079498 0.048482 
197.092041 0.332441 
197.245636 0.032118 
199.088745 0.044499 
199.26355 0.038789 
199.633835 0.075763 
202.118652 0.123054 
208.108673 0.028645 
208.233032 0.072374 
209.092102 0.287145 
211.039825 0.058016 
211.07164 0.019419 
211.108032 0.010337 
212.102631 0.014056 
212.619995 0.066131 
213.086975 0.26435 
214.089935 0.009558 
215.102921 0.121738 
215.978668 0.01122 
216.355774 0.012804 
217.027863 0.01404 
218.710815 0.053608 
219.076324 0.08399 
220.09758 0.013516 
221.091888 0.076168 
223.062561 0.018931 
224.100784 5.119212 
225.087357 0.089047 
225.104324 0.126915 
225.556732 0.008448 
227.102905 0.102622 
228.096405 0.023679 
231.410568 0.036959 
231.682831 0.035701 
234.082764 0.017517 
236.102753 0.276633 
237.078735 0.853717 
237.088608 0.088658 
238.079056 0.033425 
238.091492 0.025079 
240.99324 0.065794 
243.38063 0.041218 
248.0914 0.012533 
250.0793 0.023589 
250.996262 0.074586 
252.094849 0.113196 
253.129623 0.065101 
254.11322 0.260135 
255.097641 1.167532 
256.10144 0.07099 
256.263611 0.012024 
257.091309 0.012127 
257.966034 0.075735 
259.10791 1.009895 
260.102509 0.202102 
261.123688 0.0567 
262.118744 0.190381 
263.138672 0.013729 
265.081604 0.008783 
270.108917 0.018468 
271.140015 0.135796 
272.124756 0.033127 
272.5896 0.029715 
272.870544 0.008657 
273.08725 0.174764 
273.593567 0.009264 
275.073883 0.014498 
275.75351 0.071579 
277.11795 0.462465 
278.074493 0.12078 
278.113373 0.069087 
279.106964 0.098542 
279.133667 0.38034 
280.129181 0.137503 
281.595764 0.030991 
282.108795 0.09079 
283.071472 0.094093 
283.716248 0.016741 
284.03186 0.012643 
285.086945 0.011732 
287.102448 0.371365 
288.105835 0.019499 
288.328156 0.071504 
289.118317 0.154608 
290.088928 0.032324 
290.115051 0.024097 
290.592529 0.030125 
291.104767 0.08356 
292.093872 0.040631 
293.121063 0.096579 
294.105774 0.212704 
294.956421 0.05912 
297.119446 0.07325 
297.163605 0.013026 
299.13559 0.017906 
300.097748 0.26935 
301.082306 0.130431 
301.099945 0.385085 
301.601715 0.2178 
302.08429 0.014504 
303.096771 0.010102 
304.129395 0.179216 
304.186401 0.184708 
305.112915 1.045038 
305.131256 0.085564 
306.115814 0.183396 
306.143341 0.013864 
307.100006 0.01228 
308.123932 0.3922 
309.124542 0.049604 
309.943207 0.011495 
310.105042 0.150205 
310.60672 0.081603 
311.096527 0.033099 
311.132507 5.027237 
311.587128 0.071962 
312.101318 0.067593 
312.134918 0.119788 
312.603241 0.011956 
313.04361 0.14569 
315.039886 0.024173 
315.130737 0.010853 
318.108093 0.285911 
318.957336 0.014181 
319.09259 0.067457 
322.100739 0.012652 
322.139221 0.481661 
322.75885 0.01306 
322.951416 0.067772 
323.143402 0.064851 
324.028107 0.013793 
325.035339 0.012306 
326.044189 0.033641 
326.065765 0.099577 
327.130402 0.194136 
328.132416 0.021156 
329.054596 0.010312 
331.070435 0.104106 
332.033447 0.009314 
334.972626 0.009884 
335.096924 0.07538 
335.132935 0.137126 
336.118591 0.071903 
336.967255 0.340343 
337.113434 0.128776 
337.96759 0.027811 
338.044098 0.034987 
338.57309 0.065139 
339.041138 0.010692 
341.038635 0.038109 
342.037811 0.057166 
342.280487 0.013156 
343.034729 0.015183 
344.124176 0.041002 
344.157501 0.013053 
344.191772 0.036149 
344.692017 0.092076 
347.083771 0.024789 
348.102356 0.07325 
348.604462 0.059521 
349.102173 0.009792 
354.039093 0.089609 
356.065369 0.083882 
356.090118 0.022457 
357.048981 0.066232 
357.108398 0.251638 
357.609924 0.265954 
358.111389 0.098363 
358.138214 0.057094 
359.179993 0.079219 
361.284027 0.011956 
362.096008 0.092967 
362.132446 0.323095 
362.688019 0.054334 
363.134247 0.067383 
364.111572 0.14478 
364.601654 0.014386 
366.03772 0.066024 
366.12793 0.439064 
367.145508 0.066166 
369.151917 0.017929 
370.617401 0.014551 
371.595734 0.063381 
371.692383 0.035056 
372.193604 0.020037 
372.591766 0.01733 
376.159729 0.093491 
377.054077 0.014751 
378.127441 0.044203 
379.121307 0.429857 
379.623077 0.242967 
380.124878 0.113155 
380.626892 0.012512 
381.05014 0.013965 
381.136932 0.334352 
382.080139 0.284774 
383.085693 0.035584 
386.133423 0.34282 
387.165833 0.018324 
388.12616 0.149629 
388.628357 0.127241 
389.128845 0.022815 
390.076904 0.014946 
390.26181 0.342133 
390.970459 0.065312 
392.075775 0.055934 
392.154388 0.222656 
393.050232 0.025868 
394.16983 7.13447 
394.866302 0.029568 
395.172394 0.491412 
396.119537 0.020085 
398.132355 0.753887 
400.960388 0.077989 
402.128571 0.01489 
403.12381 0.260385 
403.161957 0.013704 
403.293671 0.276333 
404.151947 0.040426 
404.766968 0.012392 
405.049316 0.013004 
406.122223 1.112981 
406.312256 0.011284 
407.104401 0.31953 
407.127686 0.035946 
408.091339 0.020925 
408.138 1.041377 
409.081604 0.128308 
410.133148 0.010351 
411.20932 0.019972 
411.711914 0.030036 
411.921539 0.011246 
412.214233 0.020598 
413.086914 0.624572 
413.145569 0.179076 
414.088348 0.088336 
414.149994 0.017643 
415.089966 0.112258 
415.159149 0.862814 
416.570312 0.078605 
416.709625 0.015326 
417.207031 0.014122 
417.717224 0.037616 
418.219757 0.011293 
419.029846 0.037578 
421.044922 0.271054 
422.047546 0.039826 
422.111542 0.068175 
422.164948 0.28778 
423.052032 0.013679 
423.082764 0.039669 
423.324921 0.011923 
424.08844 0.026263 
425.086761 0.013413 
426.106812 0.136569 
427.160919 0.016435 
427.927399 0.053766 
428.112549 0.026999 
430.071045 0.070813 
430.122162 1.221431 
430.305115 0.02004 
431.156158 1.165298 
432.160339 0.15494 
433.169128 0.322082 
433.307404 0.014022 
433.723877 0.021304 
433.905334 0.017519 
434.066254 0.018554 
439.225067 0.072613 
439.726654 0.019863 
439.914368 0.017477 
440.231476 0.064581 
440.734741 0.017784 
443.153046 0.084575 
444.225006 0.011389 
445.134552 0.226076 
445.170959 0.054334 
447.114197 0.182781 
447.148285 1.925239 
447.282959 0.217954 
447.31781 0.043331 
448.091278 0.059267 
449.16748 0.38537 
450.171112 0.06982 
451.192078 3.140645 
452.14151 0.071461 
452.192535 0.029458 
455.111877 0.059482 
457.204651 0.01367 
457.911072 0.065986 
458.209137 0.010691 
461.89975 0.012601 
463.143005 3.196251 
463.314606 2.527722 
464.085175 0.14087 
464.144684 0.370136 
464.31778 0.104953 
466.10199 0.201118 
466.727966 0.012228 
467.103394 0.043231 
467.178772 0.011851 
467.223969 0.019235 
467.947876 0.020562 
470.298828 0.075918 
471.150787 0.050461 
472.080902 0.015461 
475.731689 0.056673 
476.232056 0.289546 
476.73349 0.131695 
477.156891 0.237335 
479.12027 0.61171 
479.184875 0.078558 
480.123505 0.124391 
480.322723 0.010707 
481.115326 0.072513 
481.202209 3.22919 
482.205658 0.07553 
483.129364 0.849635 
484.130859 0.208022 
484.736053 0.180387 
485.131256 0.073547 
485.166748 0.245644 
485.23761 0.241539 
485.739532 0.040861 
486.237701 0.01743 
487.067017 0.080885 
487.143616 0.750277 
487.180634 0.163865 
488.145355 0.07774 
489.159515 0.247227 
490.155121 0.068422 
491.138245 1.504904 
491.309692 0.968433 
493.078217 0.055769 
493.740265 0.033393 
495.092102 0.201711 
495.216644 0.64722 
495.941742 0.036155 
496.092926 0.031117 
496.170074 0.052643 
498.245178 0.020506 
498.332397 0.017778 
498.747528 0.030901 
500.349396 0.015308 
501.107117 0.016461 
502.103241 0.017669 
502.191467 0.177968 
504.120941 0.011781 
506.23111 0.066593 
506.74939 0.035397 
507.093353 0.018019 
507.249878 0.148357 
507.753326 0.086303 
509.107697 0.12901 
509.370667 0.01539 
510.19519 0.374085 
514.141541 0.045717 
514.180115 0.228044 
515.175964 0.154907 
515.754456 0.01073 
516.162903 0.013674 
516.25531 0.090916 
516.758423 0.099672 
517.198425 0.059717 
520.204895 0.215335 
520.249084 0.029235 
521.991455 0.044779 
522.177429 0.042701 
528.206848 0.477213 
528.33905 0.047551 
530.175659 0.205833 
531.167786 0.583975 
532.154358 0.016367 
533.185425 0.607398 
534.187683 0.01303 
536.7323 0.013899 
538.224182 0.736148 
540.158447 0.231337 
545.110291 0.012145 
545.191101 0.069126 
545.740967 0.01519 
546.217651 12.477785 
546.351196 0.447035 
547.122925 0.037424 
547.22052 2.9053 
548.109863 0.058851 
548.219971 0.055468 
549.16156 0.017199 
550.167847 0.03956 
550.344299 0.024067 
555.171997 0.148166 
555.351257 0.02092 
557.234497 0.014908 
558.168945 0.590058 
559.121826 0.014907 
559.344238 0.021131 
560.279785 0.014359 
560.330688 1.694478 
561.13446 0.012442 
563.118958 0.559295 
563.207397 6.15462 
564.123657 0.125861 
564.209473 1.030765 
565.133362 0.832614 
566.135864 0.158169 
567.136963 0.043639 
567.213318 0.079798 
573.27417 0.012351 
573.361206 2.278892 
574.211426 1.873358 
574.364746 0.115131 
575.203918 0.097315 
576.35968 0.369534 
577.130432 0.157968 
577.269287 0.158628 
577.358093 2.224929 
578.262024 0.030646 
578.356445 0.294809 
580.886658 0.07903 
581.186951 0.15062 
582.249512 0.240806 
587.283569 0.01818 
589.223145 0.117129 
589.266602 0.188292 
589.313721 0.01254 
589.356812 0.651733 
590.270325 0.021947 
591.27771 0.075243 
595.129517 0.040436 
595.276794 0.016668 
596.265503 0.031127 
597.127808 0.01282 
599.152222 0.531333 
599.19873 1.243575 
600.198792 0.092349 
601.360046 0.027055 
603.239319 7.344827 
603.372864 0.233373 
604.242004 1.459262 
604.357422 1.717927 
605.216797 0.728144 
605.357849 0.020674 
607.233154 8.827553 
608.235901 2.156269 
612.359741 0.06214 
615.239502 0.367657 
615.282898 0.016564 
617.347351 1.573224 
617.391357 1.9954 
618.273438 0.017485 
618.346985 0.113842 
618.394592 0.157088 
619.366882 4.240812 
620.370422 1.202693 
621.383118 10.789743 
622.386841 2.928982 
623.385559 0.10818 
625.175415 0.053756 
629.253113 0.157486 
630.198547 0.06985 
630.381348 0.097069 
631.234619 0.594727 
631.372009 0.05797 
632.232422 0.159292 
633.249329 15.165474 
633.382263 4.354334 
634.252075 3.727821 
634.385071 1.148661 
640.367126 0.082225 
642.201233 0.25295 
643.185791 5.446741 
643.368469 0.138469 
644.188049 1.342472 
644.366516 0.026614 
645.382324 0.131077 
646.287476 0.028286 
646.379578 0.76095 
647.265381 3.52388 
647.392456 0.05183 
648.269592 0.507411 
650.237976 1.516735 
658.378967 3.856083 
658.436707 0.073489 
659.375183 0.986116 
661.378052 10.977049 
662.381775 3.21543 
662.434509 0.039374 
663.393616 10.215919 
664.397156 3.047126 
671.409546 1.652453 
672.307678 0.014562 
672.405396 0.106929 
674.228577 1.239517 
674.285645 0.056942 
674.36908 0.108753 
674.410645 0.609737 
676.255737 0.270575 
678.402771 0.127549 
679.233643 0.411165 
679.40155 0.068728 
685.335388 0.062803 
686.32489 0.050102 
690.27063 6.899167 
690.404236 1.510696 
691.274231 2.098816 
691.407166 0.148524 
692.25116 0.073877 
694.265747 4.22558 
695.268433 0.677763 
697.243774 0.626015 
697.427917 0.10717 
700.393433 0.183667 
701.274658 1.074814 
701.389221 0.119791 
702.291748 0.196362 
702.411621 10.725439 
703.348633 0.088013 
703.414978 3.257727 
704.350891 0.057977 
704.415283 0.2274 
707.398682 1.11947 
707.835144 0.146201 
708.086487 0.093175 
708.399536 0.099513 
708.528381 0.07983 
715.254456 10.557788 
715.438049 0.319992 
716.255554 3.068261 
716.384338 0.096855 
717.261353 0.021217 
718.400085 3.154108 
719.401855 0.748977 
723.260742 0.788928 
723.392639 0.276218 
724.261902 0.053699 
725.324463 0.031974 
725.40802 1.029156 
728.382324 0.216864 
733.409851 0.671057 
734.29718 5.377675 
735.299194 1.563806 
741.270264 2.0483 
741.404236 0.456761 
742.272095 0.404521 
743.251221 0.117512 
744.380432 1.022294 
745.385681 0.053819 
746.395264 11.572248 
747.396851 4.002021 
748.401733 0.26174 
749.411072 0.068888 
750.403992 0.149297 
751.423767 1.903097 
752.425781 0.281708 
757.264832 1.141866 
758.27002 0.401177 
758.443115 0.806048 
759.280579 23.625122 
759.439941 0.179465 
760.283875 7.53238 
760.409973 0.530973 
761.283936 0.607231 
761.439148 0.350189 
767.418884 1.607376 
768.423157 0.354508 
769.430237 2.17686 
770.435425 0.322192 
777.438232 2.99071 
778.437561 0.745215 
781.361938 0.015604 
782.433105 0.265051 
783.426941 0.065668 
784.284241 0.091604 
785.430176 2.815632 
786.431824 1.218216 
787.276245 1.788393 
787.422791 1.087313 
788.425659 0.137077 
792.417725 0.462788 
794.428711 0.644808 
795.416077 3.210042 
796.418884 0.779192 
798.426819 0.615211 
799.366821 0.107903 
799.433167 0.14433 
800.268433 0.084682 
800.365662 0.153796 
800.452148 2.23649 
801.353027 0.247583 
801.455872 0.363035 
802.286072 5.856413 
802.362488 0.116505 
802.461914 0.060018 
803.289368 1.979916 
805.431458 0.591452 
806.436279 0.047734 
810.424744 3.422646 
811.427917 1.710321 
812.43573 0.506272 
813.426697 4.317417 
814.429871 1.463314 
815.432251 0.061307 
816.385376 0.020461 
816.447754 0.471055 
817.384155 0.022766 
817.451233 0.092924 
818.464172 15.815611 
819.46698 6.091664 
820.468445 0.340455 
823.456726 0.533861 
824.452148 0.181823 
826.455444 2.162277 
827.460632 0.273224 
828.303223 0.885677 
830.451233 0.466138 
831.450562 0.142897 
832.382202 0.01729 
834.42572 0.089747 
836.439514 2.31933 
837.441284 0.549151 
842.455078 3.599848 
843.457031 1.755799 
844.297058 1.471314 
844.476868 2.62544 
845.304199 0.506788 
845.4776 0.685424 
846.313354 21.603985 
846.459229 0.723235 
847.316284 7.354611 
848.316895 0.906606 
850.164734 0.095458 
850.388428 0.014247 
852.434204 0.885027 
853.441101 0.731637 
854.453918 14.971354 
855.456543 6.274747 
856.458374 0.649421 
860.475037 3.509457 
861.477539 1.825818 
862.490112 27.875114 
863.493408 11.071303 
864.495972 1.676231 
867.481384 1.543279 
868.444275 0.141122 
870.448486 3.552459 
871.450623 1.157161 
880.431091 3.671081 
881.434814 1.416814 
885.457947 2.802918 
886.460449 1.142131 
887.482361 1.739682 
888.476074 0.897496 
890.48468 2.085071 
891.487549 0.367984 
892.482117 0.087059 
895.460205 0.069393 
896.426392 1.388155 
897.428833 1.50931 
898.442261 41.215385 
899.445129 17.276369 
900.44873 2.793082 
903.475281 0.013727 
905.496338 6.296082 
906.497009 2.345429 
907.49762 0.108152 
910.488708 0.561588 
911.48053 0.4492 
912.461548 2.039467 
913.468994 0.822007 
914.491516 0.102071 
928.480225 0.058234 
929.485168 8.843633 
930.488525 4.540274 
931.509766 3.973301 
932.506287 1.589455 
934.491516 1.815583 
935.489868 0.491162 
936.49707 0.110117 
939.469177 0.714518 
940.470276 0.186204 
947.504578 1.621898 
948.511719 1.351463 
949.522339 17.924789 
950.526062 7.976359 
951.52478 1.52703 
952.500061 3.850982 
953.500977 2.076184 
954.512024 2.119758 
955.517456 0.533032 
957.476807 0.346903 
968.496521 0.032765 
969.496765 0.207702 
970.510925 34.187733 
971.514526 16.180513 
972.518066 2.804868 
978.515198 2.776494 
979.516602 1.611682 
994.507446 0.716402 
995.513 0.955423 
996.525879 7.953053 
997.528931 4.398686 
998.513977 2.512819 
999.506836 0.340842 
1000.505432 0.070807 
1012.521912 2.976534 
1013.525574 3.809378 
1014.537048 84.175369 
1015.540283 42.991577 
1016.544067 8.568748 
1021.517883 0.248824 
1022.529236 0.111872 
1039.532471 2.053309 
1040.532227 0.962946 
1041.533936 0.231225 
1042.532349 6.871164 
1043.536621 3.595181 
1044.536499 0.248629 
1055.531372 0.05102 
1056.53186 0.27855 
1057.543579 26.029675 
1058.546509 13.34659 
1059.547119 2.787665 
1065.546143 1.713468 
1066.549316 0.646202 
1072.923584 0.083497 
1081.536987 0.169912 
1082.545044 0.903118 
1083.558716 5.380577 
1084.43042 0.095647 
1084.561401 3.02752 
1085.559692 0.364555 
1099.554688 3.3752 
1100.559204 4.953824 
1101.56897 100.0 
1101.739746 5.780753 
1102.572144 54.459347 
1102.744263 2.994097 
1103.574707 11.814551 
1103.719238 0.214163 
END IONS

