BEGIN IONS
TITLE=Scan Number: 1490
PEPMASS=458.177
CHARGE=1+
COMPOUNDNAME=Himeic acid A_120102
LIBRARYQUALITY=2
SMILES=O=C1C=C(/C=C/CCCCCCCCC(O)=O)OC=C1C(NC(C[C@H](C)C(O)=O)=O)=O
INCHIKEY=OKGLROPOZIVCCZ-HQPKTYMTSA-N
INCHI=N/A
MSLEVEL=2
SOURCE_INSTRUMENT=LC-ESI-qToF
FILENAME=P1_C3_conc_GA3_01_2409.mzXML
SEQ=*..*
NOTES=
IONMODE=Positive
ORGANISM=GNPS-LIBRARY
NAME=Himeic acid A_120102 M+Na
SPECTRUMID=CCMSLIB00000478061
ACTIVATION=CID
INSTRUMENT=ion trap
SCANS=1490
287.127197 304.0 
313.202911 304.0 
322.158875 828.0 
323.171906 272.0 
344.145233 2072.0 
345.14212 732.0 
360.106567 704.0 
361.115356 292.0 
378.116241 712.0 
379.12262 336.0 
393.169861 480.0 
394.17749 368.0 
405.591919 268.0 
437.154816 384.0 
458.178619 8120.0 
459.180695 3460.0 
460.182281 652.0 
474.144531 360.0 
END IONS

