BEGIN IONS
TITLE=Scan Number: 2450
PEPMASS=229.00999
CHARGE=1+
COMPOUNDNAME=Thiolutin
LIBRARYQUALITY=3
SMILES=CC(=O)NC1=C2C(=CSS2)N(C1=O)C
INCHIKEY=MHMRAFONCSQAIA-UHFFFAOYSA-N
INCHI=
MSLEVEL=2
SOURCE_INSTRUMENT=LC-ESI-Orbitrap
FILENAME=f.ktahlan/KT-1/MUN/Ethyl Acetate/SC/14 SC on GSPG EthAc-pos.mzXML;
SEQ=*..*
NOTES=
IONMODE=Positive
ORGANISM=GNPS-LIBRARY
NAME=Thiolutin M+H
SPECTRUMID=CCMSLIB00005435935
ACTIVATION=CID
INSTRUMENT=ion trap
SCANS=2450
70.065765 1064.863403 
81.070152 1879.5448 
83.049164 1239.617554 
85.065315 1030.149292 
86.989883 1528.477295 
93.069786 1628.539917 
95.049065 1696.872925 
95.085693 1235.496582 
97.039673 4018.718506 
97.60984 881.042114 
98.005783 3811.314453 
99.044106 2266.800293 
102.091599 906.278015 
107.085571 1371.023438 
109.064796 4236.876953 
111.080894 985.22522 
113.059425 1518.852051 
114.966888 8984.382812 
123.054939 1564.390991 
123.080521 2376.174561 
123.116943 1639.223022 
124.083496 921.204346 
125.016884 4842.331543 
126.000908 8012.578613 
126.024742 23885.169922 
135.080704 1204.12207 
137.095978 2047.147949 
141.011826 83680.867188 
141.978287 17166.316406 
142.122147 1136.358032 
143.993469 4610.890137 
145.049576 1107.531006 
147.080612 1269.16687 
151.032318 1767.729736 
153.01178 17102.796875 
153.054413 3843.705811 
154.019699 168202.1875 
155.027603 2399.623535 
155.994308 4743.39502 
166.875565 1843.540161 
167.027588 26210.150391 
168.989532 5538.845215 
169.006683 39280.152344 
169.972626 11484.512695 
171.976135 392516.84375 
177.011475 8320.155273 
178.020172 9801.975586 
179.027542 13751.100586 
183.004807 36932.308594 
183.989105 7281.604004 
186.999603 2332202.25 
193.086014 2098.45166 
195.021957 1689.718628 
195.975998 38473.132812 
199.983841 1656.855225 
209.991394 6904.629883 
210.99968 639227.375 
211.096771 8252.334961 
228.231812 3872.304688 
229.010315 214454.703125 
229.058975 5170.353027 
229.106445 8510.126953 
229.139893 13345.803711 
229.234695 1183.791016 
END IONS

