BEGIN IONS
PEPMASS=268.104
CHARGE=1+
COMPOUNDNAME=Massbank:CE000142 Adenosine
LIBRARYQUALITY=3
SMILES=C1=NC2=C(C(=N1)N)N=CN2[C@H]3[C@@H]([C@@H]([C@H](O3)CO)O)O
INCHIKEY=OIRDTQYFTABQOQ-KQYNXXCUSA-N
INCHI=1S/C10H13N5O4/c11-8-5-9(13-2-12-8)15(3-14-5)10-7(18)6(17)4(1-16)19-10/h2-4,6-7,10,16-18H,1H2,(H2,11,12,13)/t4-,6-,7-,10-/m1/s1
MSLEVEL=2
SOURCE_INSTRUMENT=ESI-LC-ESI-ITFT
FILENAME=Massbank_ESI_positive_8_1_2014_peaks.mgf
SEQ=*..*
IONMODE=Positive
ORGANISM=MASSBANK
NAME=Massbank:CE000142 Adenosine [M+H]+
PI=Putative Massbank Match
DATACOLLECTOR=Massbank
PUBMED=N/A
SUBMITUSER=mwang87
TAGS=
SPECTRUMID=CCMSLIB00000205726
SCANS=986
71.922905 1168.92627 
86.384125 1086.932007 
88.572914 1198.690308 
91.148155 1037.16626 
95.603256 1174.916748 
105.883995 1280.624512 
121.095306 1218.95105 
127.85215 1310.811768 
128.547546 1216.928711 
135.713348 1369.120117 
135.887939 3427.430664 
135.92981 1381.973877 
135.944977 1788.466064 
135.992493 5190.715332 
136.002197 3235.018555 
136.037704 4143.075195 
136.044449 2459.861084 
136.061462 808143.8125 
136.075928 2569.08667 
136.085114 5399.498535 
136.129578 3077.448486 
136.235718 1980.895874 
136.65358 1199.851196 
148.380707 1309.12854 
173.249008 1297.152832 
178.870758 1225.314453 
193.455704 1229.872314 
219.080276 20152.074219 
220.575867 1263.865601 
237.090668 183238.328125 
265.827484 1109.604614 
274.342316 1462.66272 
END IONS

