BEGIN IONS
PEPMASS=289.108
CHARGE=1+
COMPOUNDNAME=dehydrocurvularin
LIBRARYQUALITY=3
SMILES=N/A
INCHIKEY=AVIRMQMUBGNCKS-GQCTYLIASA-N
INCHI=InChI=1S/C16H18O5/c1-10-5-3-2-4-6-13(18)16-11(8-15(20)21-10)7-12(17)9-14(16)19/h4,6-7,9-10,17,19H,2-3,5,8H2,1H3/b6-4+
MSLEVEL=2
SOURCE_INSTRUMENT=N/A-ESI-QFT
FILENAME=library_mgf.mgf
SEQ=*..*
IONMODE=negative
ORGANISM=MONA
NAME=dehydrocurvularin [M-H]-
PI=MoNA
DATACOLLECTOR=MoNA:VF-NPL-QEHF016193
PUBMED=N/A
SUBMITUSER=mwang87
TAGS=
SPECTRUMID=CCMSLIB00004707256
SCANS=16193
51.3437 0.100502 
51.467693 0.085461 
51.539749 0.068095 
52.058723 0.066228 
52.17812 0.08478 
52.431198 0.078366 
52.849236 0.087858 
52.857548 0.060598 
53.125805 0.06683 
53.161449 0.071323 
53.77232 0.06753 
54.340988 0.090246 
56.143791 0.087043 
56.84874 0.066927 
57.033173 0.100004 
57.360653 0.075773 
57.64275 0.098686 
57.751419 0.08097 
58.021221 0.060045 
58.442356 0.05758 
58.771503 0.09499 
59.012402 2.676352 
59.092461 0.081791 
59.627228 0.069264 
59.977116 0.054729 
60.067856 0.081312 
60.812153 0.086461 
61.680958 0.068266 
62.321949 0.063972 
62.366043 0.057659 
62.61647 0.04919 
62.81789 0.063135 
62.838165 0.089543 
62.8694 0.070171 
63.196678 0.080337 
64.309166 0.084939 
64.951019 0.157373 
69.438583 0.063924 
69.48275 0.063564 
71.430191 0.069926 
72.450233 0.064544 
72.557999 0.053815 
73.214439 0.092248 
73.616982 0.061958 
73.803452 0.064043 
74.133499 0.068931 
74.417961 0.062507 
76.254463 0.072207 
78.082481 0.083088 
79.955887 1.255628 
80.33757 0.068495 
80.525543 0.10868 
80.963699 0.530738 
81.033195 0.61585 
84.132202 0.051396 
86.281281 0.069221 
87.026108 0.072821 
87.276962 0.072483 
90.76548 0.063719 
91.287178 0.062471 
91.689003 0.066834 
92.303772 0.072654 
92.694702 0.11607 
94.582397 0.065981 
94.979416 2.670977 
95.752762 0.077106 
96.958672 0.67612 
99.317024 0.078162 
99.924355 2.170615 
100.689651 0.073409 
102.406471 0.095419 
102.573273 0.076535 
103.771576 0.08361 
103.890182 0.094824 
103.986389 0.067244 
105.033157 0.899425 
106.230957 0.08315 
106.275482 0.068323 
106.413368 0.061996 
106.979095 0.060317 
109.554848 0.061695 
110.204315 0.069711 
110.335114 0.061974 
110.97435 0.14542 
111.345757 0.058888 
114.553558 0.08807 
115.563148 0.095451 
115.699409 0.092847 
115.901779 0.069487 
115.919334 0.610083 
116.652092 0.067251 
116.927139 0.065549 
117.407204 0.089354 
118.898293 0.172823 
119.185173 0.063804 
119.739052 0.061594 
121.064186 0.076355 
122.036133 0.354227 
123.043839 8.712958 
124.891571 0.078561 
126.00972 0.090945 
126.071533 0.0887 
127.07074 0.082092 
128.174088 0.087837 
128.947632 0.064603 
130.59108 0.091205 
131.048996 0.100622 
131.878784 0.940764 
131.896698 0.358964 
132.904312 1.820957 
132.910767 0.080864 
133.02832 0.072532 
135.364212 0.092063 
136.121506 0.072236 
136.416412 0.068247 
137.402954 0.075002 
138.024811 0.059177 
138.083252 0.062196 
138.610382 0.105915 
138.6539 0.06172 
139.075089 0.401795 
139.494537 0.088328 
140.844498 0.084079 
141.521896 0.064209 
143.252106 0.091623 
143.368134 0.094751 
145.373123 0.095865 
145.836578 0.062041 
146.036072 1.243142 
147.044067 1.034705 
147.079758 0.063573 
147.873764 0.36727 
149.023178 7.35615 
150.885284 0.065287 
151.038849 0.128596 
151.604172 0.054348 
151.840363 0.083447 
152.028763 0.070272 
152.876877 0.063533 
154.803558 0.073265 
155.374222 0.061619 
157.29985 0.066463 
159.043869 0.423222 
159.080505 0.330037 
159.117111 0.070318 
160.051849 0.094957 
161.023346 3.503127 
162.031326 0.330154 
162.384232 0.067369 
164.344986 0.061359 
164.841049 0.059622 
167.050552 0.05524 
169.128342 0.071874 
171.475189 0.06153 
172.05191 1.476765 
172.95726 0.171079 
173.059601 1.004795 
173.230804 0.064949 
174.031143 2.749352 
175.038986 17.362165 
176.042023 0.502558 
177.018143 0.843859 
177.090927 0.398534 
179.185883 0.062695 
183.082169 0.056364 
185.058975 0.093283 
185.348694 0.074587 
186.067993 0.202586 
186.919647 0.057438 
187.03923 0.337239 
188.047028 4.836979 
188.210449 0.06154 
189.054886 1.265643 
190.026276 51.263199 
190.062469 0.306533 
191.03363 5.807567 
193.490082 0.091671 
195.819809 0.086115 
201.055313 0.072027 
201.091278 3.150334 
201.127686 4.066616 
201.393875 0.05441 
202.029404 0.097198 
202.130997 0.093306 
202.892181 0.069769 
203.03418 10.859163 
203.070602 0.201076 
203.106873 2.425185 
204.042252 26.313704 
204.110504 0.09318 
205.045609 2.601931 
206.24408 0.066857 
211.679535 0.05494 
212.047211 0.292204 
215.034378 28.652561 
215.376633 2.436748 
215.457397 0.060098 
216.042252 8.179847 
216.321564 0.089487 
217.047821 0.086531 
217.122498 0.366167 
218.57254 0.094605 
221.117554 2.995899 
221.28862 0.088481 
222.768372 0.072352 
224.687134 0.070103 
227.070755 0.074993 
227.107498 1.831686 
229.050079 2.669593 
229.086761 0.827278 
229.100922 0.076951 
230.058014 34.228024 
230.894867 0.512138 
231.061676 4.065132 
236.032181 6.909674 
237.035782 0.16032 
238.54747 0.099904 
243.065826 2.528653 
243.102371 0.100984 
243.97081 0.066038 
244.073303 0.555463 
245.081635 17.235971 
245.11795 14.058515 
245.374969 0.075159 
246.084915 2.050518 
246.121414 1.153496 
247.097214 6.250041 
256.962006 0.097512 
261.112915 6.378088 
262.048004 0.073163 
262.116669 0.254341 
262.183777 0.074048 
267.538635 0.081849 
269.89679 0.076827 
271.097382 2.63602 
278.699738 0.099017 
281.679108 0.077648 
287.092682 0.157291 
289.10791 100.0 
290.11145 17.793373 
291.11441 0.25442 
292.71405 0.072617 
294.025116 0.079089 
294.219727 0.068716 
311.134003 0.075019 
312.405029 0.066583 
END IONS

