BEGIN IONS
PEPMASS=304.152
CHARGE=1+
COMPOUNDNAME=Isocycloheximide
LIBRARYQUALITY=3
SMILES=N/A
INCHIKEY=YPHMISFOHDHNIV-UHFFFAOYSA-N
INCHI=InChI=1S/C15H23NO4/c1-8-3-9(2)15(20)11(4-8)12(17)5-10-6-13(18)16-14(19)7-10/h8-12,17H,3-7H2,1-2H3,(H,16,18,19)
MSLEVEL=2
SOURCE_INSTRUMENT=N/A-ESI-QFT
FILENAME=library_mgf.mgf
SEQ=*..*
IONMODE=positive
ORGANISM=MONA
NAME=Isocycloheximide [M+Na]+
PI=MoNA
DATACOLLECTOR=MoNA:VF-NPL-QEHF023907
PUBMED=N/A
SUBMITUSER=mwang87
TAGS=
SPECTRUMID=CCMSLIB00004714970
SCANS=23907
50.24189 0.19501 
50.315289 0.200604 
50.546989 0.077266 
50.948738 0.050325 
51.420235 0.213561 
51.940365 0.06762 
52.419838 0.073403 
52.469006 0.101954 
52.476379 0.052345 
52.642693 0.172418 
52.854523 0.164087 
52.993225 0.230163 
53.03896 0.162045 
53.560699 0.069771 
53.939407 0.184228 
54.528538 0.05948 
54.937862 0.703949 
55.018169 0.096505 
55.054604 1.486179 
55.209171 0.054478 
55.934719 1.333071 
56.04985 0.41354 
56.505955 0.217973 
56.701244 0.204576 
56.942406 0.115267 
56.96508 0.490372 
57.070202 15.618434 
57.395485 0.109431 
57.528828 0.149401 
57.604115 0.253708 
57.93512 0.459843 
58.065384 0.289191 
58.143692 0.17564 
58.76981 0.139837 
59.079624 0.239242 
59.930447 0.056614 
60.512699 0.078524 
60.554306 0.056424 
61.010921 57.17392 
61.034981 0.138626 
62.0187 3.059802 
62.052139 0.256063 
62.938656 0.080716 
63.00666 0.05574 
63.026611 0.139676 
63.868259 0.179315 
64.190956 0.115626 
65.601074 0.182435 
67.054375 1.232593 
67.898399 0.116465 
68.049606 0.064712 
68.962639 1.63802 
69.033615 0.678585 
69.070015 0.33252 
69.934174 0.067413 
69.961052 4.804086 
70.065201 0.212244 
70.174141 0.143425 
70.48867 0.137232 
70.580276 0.085293 
70.941895 0.087889 
70.957985 4.603128 
71.04921 0.143373 
71.085556 2.025741 
71.929382 2.175664 
72.93721 2.283768 
73.424583 0.055742 
73.944962 0.162434 
74.033432 0.157659 
75.723717 0.208698 
77.357201 0.12018 
78.017204 0.199141 
78.728722 0.078984 
78.79583 0.233908 
79.021294 1.316985 
79.054268 0.392607 
79.246078 0.27708 
80.049553 100.0 
81.052872 2.940228 
81.069984 0.576542 
82.065399 0.291418 
82.81665 0.081891 
83.138374 0.109577 
84.044411 0.491533 
84.080833 6.660247 
84.498169 0.307188 
85.459106 0.06624 
85.462456 0.06173 
85.91114 0.240085 
87.67807 0.281982 
87.906578 0.084569 
87.971855 0.095516 
88.914299 1.017704 
88.952354 0.29669 
88.96843 0.550307 
89.750252 0.234685 
89.940048 0.142303 
90.947792 0.932728 
91.054298 5.416883 
92.983894 0.269165 
93.069977 0.854232 
94.028786 0.070992 
95.012833 0.284664 
95.049171 0.531508 
95.085663 0.447523 
95.090309 0.146612 
96.026299 0.23879 
96.044449 1.247409 
96.095436 0.232413 
96.337601 0.233917 
97.028404 0.194336 
97.064789 0.085017 
98.059891 0.054919 
98.239517 0.249659 
100.970207 0.269173 
101.949532 0.115156 
102.091408 1.547691 
102.215515 0.238777 
102.803795 0.062813 
103.921768 0.097723 
104.930099 0.174537 
105.043945 0.240799 
105.070007 1.499257 
105.876839 0.249525 
105.917191 0.095998 
106.065315 0.30856 
106.769073 0.175172 
107.049133 0.313586 
107.085556 0.085707 
108.092537 0.062072 
108.94722 0.06187 
108.95871 0.06461 
109.064957 0.070799 
110.06002 0.085658 
110.190186 0.15949 
112.039558 0.178293 
112.075523 0.275991 
114.914032 0.435876 
115.054092 0.065323 
115.351868 0.147553 
115.778641 0.232904 
116.985779 0.072326 
117.057419 0.084625 
117.069824 0.42875 
117.282043 0.054257 
118.925049 0.299845 
119.085655 1.077028 
119.943359 0.083806 
120.940636 0.997665 
120.945442 0.076612 
121.064865 0.741806 
121.08886 0.086742 
122.161842 0.232956 
122.940979 1.27019 
123.933533 0.268713 
124.936256 0.083221 
126.211929 0.06252 
126.923698 0.244568 
128.062042 0.290502 
129.069916 0.209222 
130.065079 0.072066 
130.073334 0.233376 
130.91571 0.062907 
131.0858 0.322449 
131.943649 0.091437 
132.044632 0.093026 
132.9245 1.147234 
132.958176 0.192535 
133.122238 0.093877 
133.922928 0.919975 
133.948227 0.246054 
133.959717 0.10235 
134.956207 1.109573 
137.087158 0.190298 
137.927963 0.578358 
138.926086 0.157848 
138.951096 0.263069 
139.19458 0.06579 
139.923843 0.323028 
140.07045 0.15408 
142.077972 0.096073 
143.085541 0.585507 
145.064377 0.077845 
145.101013 0.309168 
145.963791 0.067723 
146.059708 0.167299 
146.976227 2.418882 
147.974808 1.249409 
148.9561 0.119409 
148.971909 9.424001 
149.297623 0.080273 
149.453522 0.231939 
149.91806 0.170907 
150.469818 0.052557 
150.934784 0.151541 
150.951141 1.595091 
150.969162 0.067257 
151.93338 0.565668 
151.95842 0.06178 
152.930359 1.497607 
152.951553 3.569145 
152.966751 0.476962 
153.95929 3.79363 
154.947159 0.819412 
155.085205 0.067154 
155.233948 0.08194 
155.955093 0.285345 
156.928925 0.056098 
157.064453 0.315732 
157.088318 0.097621 
157.101089 0.241578 
158.023483 0.107151 
159.080765 0.80215 
160.075882 0.085712 
162.079681 0.0687 
164.437607 0.212243 
164.987 0.067671 
165.021774 0.274577 
166.929825 8.271028 
166.982422 0.492566 
167.928436 19.123404 
167.935425 0.231998 
167.974243 0.302101 
168.958572 0.304715 
170.940933 0.718925 
170.962967 0.160743 
171.080063 0.202136 
172.08876 0.084571 
173.096237 1.658394 
176.034744 0.082892 
176.069717 0.141828 
177.663467 0.293628 
178.39212 0.227828 
180.888123 1.138439 
181.097427 0.25586 
181.144348 0.064647 
182.861252 0.127033 
183.080185 0.100598 
183.116745 0.173077 
183.932755 2.736749 
184.940506 37.35841 
184.979202 0.37505 
185.095398 0.063934 
185.939026 96.19886 
185.984314 0.080389 
186.091629 0.257422 
186.512802 0.23988 
186.927567 0.074318 
186.935944 0.689087 
187.074799 0.125222 
187.111755 0.234751 
189.091156 0.726093 
193.899399 0.323657 
194.897736 0.09632 
197.892227 1.621555 
199.0755 0.417102 
199.910065 2.960131 
200.106918 0.176442 
201.943253 3.693419 
202.950974 4.304012 
202.989441 0.223979 
203.949631 29.524876 
207.765961 0.278044 
211.909958 9.674756 
212.206406 0.059604 
212.908401 7.442712 
213.388046 0.062063 
213.659515 0.140395 
213.699371 0.080261 
214.122314 0.106874 
215.902588 0.477842 
217.920624 2.001181 
219.592285 1.284966 
220.903427 0.145988 
222.039673 3.00631 
222.89888 4.290679 
225.32579 0.242105 
225.823975 0.219775 
226.933517 1.509443 
227.931732 0.904898 
229.920609 31.366838 
230.91893 47.650723 
232.889832 0.078221 
233.153473 0.277152 
238.91449 0.135263 
240.90918 4.674501 
244.944016 2.837931 
245.942307 7.48071 
247.931152 1.743237 
248.92926 11.33588 
251.959946 0.134001 
252.84874 0.284425 
256.100098 0.256031 
263.952576 0.144732 
266.218231 0.254162 
275.351685 0.088218 
288.19696 0.21235 
291.500366 0.191447 
302.121124 0.069883 
303.118561 0.056923 
308.328278 0.101837 
322.206085 0.061556 
329.36908 0.058281 
END IONS

