BEGIN IONS
PEPMASS=734.469
CHARGE=1+
COMPOUNDNAME=ERYTHROMYCIN
LIBRARYQUALITY=3
SMILES=N/A
INCHIKEY=ULGZDMOVFRHVEP-RWJQBGPGSA-N
INCHI=InChI=1S/C37H67NO13/c1-14-25-37(10,45)30(41)20(4)27(39)18(2)16-35(8,44)32(51-34-28(40)24(38(11)12)15-19(3)47-34)21(5)29(22(6)33(43)49-25)50-26-17-36(9,46-13)31(42)23(7)48-26/h18-26,28-32,34,40-42,44-45H,14-17H2,1-13H3/t18-,19-,20+,21+,22-,23+,24+,25-,26+,28-,29+,30-,31+,32-,34+,35-,36-,37-/m1/s1
MSLEVEL=2
SOURCE_INSTRUMENT=N/A-ESI-QFT
FILENAME=library_mgf.mgf
SEQ=*..*
IONMODE=positive
ORGANISM=MONA
NAME=ERYTHROMYCIN [M+H]+
PI=MoNA
DATACOLLECTOR=MoNA:VF-NPL-QEHF003381
PUBMED=N/A
SUBMITUSER=mwang87
TAGS=
SPECTRUMID=CCMSLIB00004694444
SCANS=3381
51.646675 0.016974 
52.837852 0.017936 
53.001781 0.017879 
53.002968 1.489511 
53.039371 0.856872 
53.594875 0.017815 
53.88163 0.021076 
53.99818 0.024806 
54.534828 0.016929 
54.637455 0.01792 
55.0186 0.508129 
55.042458 0.044159 
55.054996 18.051622 
55.056458 0.316904 
55.874783 0.016107 
56.050232 0.81046 
56.058315 0.258521 
56.285168 0.017042 
56.311726 0.017564 
56.499462 0.018035 
56.946583 0.01687 
57.034222 0.179978 
57.058067 2.415093 
57.070621 0.220661 
57.828655 0.016987 
58.065876 1.84134 
58.16906 0.018386 
58.2369 0.019951 
58.434784 0.019101 
59.049889 11.747989 
59.109123 0.019806 
59.779835 0.019262 
60.053375 0.021938 
60.300053 0.017469 
60.324444 0.017609 
60.769588 0.018122 
60.942074 0.021178 
61.029171 0.087989 
62.600643 0.016634 
62.678501 0.025414 
63.13089 0.021484 
63.543823 0.017061 
64.830986 0.02428 
65.039291 0.116856 
67.054939 0.898036 
67.795753 0.017426 
67.990013 0.024023 
68.050194 0.212894 
68.580597 0.018999 
69.034172 0.664942 
69.070541 0.400251 
69.820602 0.022772 
70.065811 3.187619 
70.35363 0.019233 
70.904747 0.022645 
71.049812 0.694822 
71.073631 0.877829 
71.086288 0.084936 
71.185539 0.019154 
71.85524 0.021251 
71.938698 0.018102 
71.954727 0.022911 
72.045006 0.027973 
72.070015 0.021899 
72.081444 53.287643 
73.052872 2.206712 
73.065468 0.899341 
73.067612 0.01919 
73.084793 1.341772 
73.445061 0.018643 
75.638947 0.016251 
75.735458 0.018965 
75.906342 0.020857 
77.046715 0.021288 
77.594315 0.018212 
78.650551 0.01853 
79.054832 1.52531 
79.922806 0.022564 
80.228813 0.020113 
80.949966 0.022089 
80.994659 0.018999 
81.070465 3.665239 
81.427666 0.022848 
81.905266 0.020142 
82.073639 0.049355 
83.049744 100.0 
83.073479 0.158851 
83.456779 0.016377 
84.053085 3.147424 
84.055527 0.022026 
84.08136 6.16181 
84.225494 0.024271 
84.230942 0.165788 
84.232285 0.171336 
84.561783 0.01787 
84.85865 0.019484 
84.886475 0.019309 
85.028969 1.127863 
85.065392 0.427734 
86.060577 0.551824 
86.097 0.067271 
87.044609 13.348113 
87.068443 0.736995 
87.43058 0.022939 
88.047974 0.060669 
88.076248 9.849704 
88.555717 0.018346 
89.079491 0.047778 
89.972603 0.019518 
90.11451 0.021271 
90.90712 0.019045 
92.954971 0.019477 
94.246063 0.021457 
94.733643 0.021674 
95.049568 0.539863 
95.08609 0.026927 
95.517883 0.018154 
97.065277 0.578661 
97.480484 0.01977 
98.029884 0.022022 
98.060493 0.878089 
98.096886 26.509434 
98.210022 0.037064 
98.213676 0.062458 
98.216515 0.025116 
98.727104 0.024069 
99.080902 0.302227 
99.100235 0.880565 
99.104637 0.806968 
99.605278 0.018627 
99.834564 0.018971 
100.076126 1.377538 
100.244072 0.018998 
100.336143 0.019533 
100.678093 0.019348 
101.083794 0.052119 
101.110245 0.020438 
102.216904 0.019895 
104.074028 0.018487 
105.625694 0.019243 
105.833618 0.018171 
106.206451 0.021781 
107.562599 0.01684 
109.065102 0.471468 
109.102051 0.017614 
109.518814 0.016418 
109.706009 0.019646 
110.096848 0.02129 
111.625641 0.019904 
113.056068 0.022828 
113.059975 1.190485 
113.59111 0.023607 
114.091614 1.053984 
114.892967 0.02147 
115.075912 0.020651 
115.991447 0.017892 
116.070877 12.420901 
116.107246 7.991022 
117.074112 0.220647 
117.110611 0.08484 
117.757034 0.019953 
118.839668 0.020289 
119.085785 0.022592 
121.101349 0.133235 
123.080566 3.748996 
124.08416 0.020423 
124.368912 0.018786 
124.58593 0.017844 
125.096184 0.023671 
125.752869 0.020621 
127.075516 0.055441 
128.107224 0.03009 
128.764755 0.019198 
129.624405 0.020585 
130.089218 0.022072 
134.376923 0.01912 
135.962357 0.022157 
137.095779 0.071624 
139.491394 0.019577 
139.810593 0.022056 
142.222458 0.021579 
144.650253 0.018685 
145.153931 0.020478 
147.15683 0.019092 
147.958374 0.01835 
148.353424 0.018058 
148.532623 0.021399 
148.900269 0.020669 
152.250046 0.019747 
152.411804 0.023762 
156.958145 0.021056 
157.865753 0.020414 
158.117416 2.719369 
159.116241 0.021801 
160.959641 0.018971 
165.989883 0.021888 
166.152252 0.018418 
171.643387 0.022529 
171.867981 0.021863 
172.772369 0.019717 
177.733429 0.019832 
177.989594 0.021807 
182.498367 0.021271 
186.356857 0.019886 
186.612549 0.019988 
193.999557 0.017934 
197.350082 0.021742 
198.948074 0.023354 
201.869644 0.017484 
202.174469 0.019863 
202.553177 0.019229 
203.191528 0.022472 
208.89798 0.021334 
211.833206 0.019548 
219.926926 0.313889 
219.958801 0.027259 
225.496429 0.02096 
227.308395 0.023455 
235.98587 0.020745 
239.094315 0.019957 
244.394241 0.021879 
245.910553 0.019561 
246.963303 0.020723 
247.03035 0.020605 
249.524094 0.022321 
250.541702 0.022601 
259.505676 0.020374 
260.916931 0.022307 
266.134491 0.022683 
266.992493 0.019849 
281.438904 0.021172 
284.379364 0.022312 
295.540894 0.021099 
309.463684 0.027727 
324.043365 0.019378 
324.887543 0.020582 
349.543854 0.020101 
368.188019 0.021008 
368.381683 0.024118 
390.285156 0.024859 
395.079193 0.021171 
400.609741 0.021864 
401.284363 0.023257 
420.811188 0.022018 
447.344727 0.047211 
450.542969 0.02046 
466.242279 0.020067 
472.383057 0.020355 
477.451202 0.020482 
486.725433 0.022307 
504.445862 0.021717 
541.812805 0.023826 
547.136292 0.023444 
550.276855 0.02452 
555.55603 0.019456 
588.582214 0.021019 
592.122925 0.02441 
606.267334 0.024404 
613.43219 0.019993 
641.063354 0.018629 
688.376099 0.022811 
689.288208 0.02096 
714.433105 0.020621 
722.873596 0.021147 
761.388428 0.023775 
END IONS

