BEGIN IONS
PEPMASS=282.17
CHARGE=1+
COMPOUNDNAME=Massbank:BML00709 Cycloheximide
LIBRARYQUALITY=3
SMILES=CC1CC(C(=O)C(C1)C(CC2CC(=O)NC(=O)C2)O)C
INCHIKEY=YPHMISFOHDHNIV-UHFFFAOYSA-N
INCHI=1S/C15H23NO4/c1-8-3-9(2)15(20)11(4-8)12(17)5-10-6-13(18)16-14(19)7-10/h8-12,17H,3-7H2,1-2H3,(H,16,18,19)
MSLEVEL=2
SOURCE_INSTRUMENT=ESI-LC-ESI-QTOF
FILENAME=Massbank_ESI_positive_8_1_2014_peaks.mgf
SEQ=*..*
IONMODE=Positive
ORGANISM=MASSBANK
NAME=Massbank:BML00709 Cycloheximide [M+H]+
PI=Putative Massbank Match
DATACOLLECTOR=Massbank
PUBMED=N/A
SUBMITUSER=mwang87
TAGS=
SPECTRUMID=CCMSLIB00000205009
SCANS=269
107.0453 60.0 
107.086 90.0 
112.0393 28.0 
121.0264 97.0 
121.0669 29.0 
121.0909 35.0 
123.0768 28.0 
125.0983 52.0 
129.0631 33.0 
131.0849 61.0 
133.0564 24.0 
133.1026 43.0 
135.0774 33.0 
135.1175 45.0 
136.0754 34.0 
137.0915 34.0 
138.051 69.0 
138.0891 25.0 
143.0813 67.0 
145.1022 37.0 
147.0806 55.0 
149.0629 44.0 
149.0918 34.0 
153.0575 34.0 
153.0938 47.0 
155.0828 58.0 
156.0594 26.0 
157.0983 80.0 
159.1155 161.0 
161.0904 32.0 
161.1278 33.0 
166.0924 21.0 
169.0943 22.0 
170.101 39.0 
173.1288 122.0 
175.1031 37.0 
177.0834 36.0 
177.1313 75.0 
181.0427 32.0 
183.1073 33.0 
183.1221 30.0 
187.0687 27.0 
187.1105 151.0 
189.0913 51.0 
201.1293 100.0 
202.1215 36.0 
203.1362 37.0 
205.1213 68.0 
211.1065 80.0 
218.1551 49.0 
219.135 67.0 
228.1361 23.0 
229.1201 112.0 
246.1492 89.0 
247.1305 202.0 
264.1606 42.0 
END IONS

