BEGIN IONS
PEPMASS=1301.72
CHARGE=1+
COMPOUNDNAME=POLYMYXIN B SULFATE
LIBRARYQUALITY=3
SMILES=N/A
INCHIKEY=HFMDLUQUEXNBOP-UHFFFAOYSA-N
INCHI=InChI=1S/C56H98N16O13.H2O4S/c1-7-32(4)13-11-12-16-44(75)63-36(17-23-57)51(80)72-46(34(6)74)56(85)68-39(20-26-60)48(77)67-41-22-28-62-55(84)45(33(5)73)71-52(81)40(21-27-61)65-47(76)37(18-24-58)66-53(82)42(29-31(2)3)69-54(83)43(30-35-14-9-8-10-15-35)70-49(78)38(19-25-59)64-50(41)79;1-5(2,3)4/h8-10,14-15,31-34,36-43,45-46,73-74H,7,11-13,16-30,57-61H2,1-6H3,(H,62,84)(H,63,75)(H,64,79)(H,65,76)(H,66,82)(H,67,77)(H,68,85)(H,69,83)(H,70,78)(H,71,81)(H,72,80);(H2,1,2,3,4)
MSLEVEL=2
SOURCE_INSTRUMENT=N/A-ESI-QFT
FILENAME=library_mgf.mgf
SEQ=*..*
IONMODE=positive
ORGANISM=MONA
NAME=POLYMYXIN B SULFATE [M+H]+
PI=MoNA
DATACOLLECTOR=MoNA:VF-NPL-QEHF027916
PUBMED=N/A
SUBMITUSER=mwang87
TAGS=
SPECTRUMID=CCMSLIB00004721497
SCANS=27916
89.810318 0.057202 
91.884987 0.048163 
93.342499 0.04673 
94.065033 0.058059 
95.085556 0.050175 
96.845551 0.051997 
97.037704 0.046154 
98.071167 0.353156 
98.09626 0.049231 
100.086861 3.6341 
100.548927 0.049997 
101.070908 62.579609 
102.054817 0.594892 
102.068092 0.044015 
102.074165 2.191422 
102.736252 0.048887 
103.395699 0.050118 
104.687408 0.056933 
107.916405 0.049678 
111.055145 0.408076 
111.091522 0.241359 
112.075409 0.061305 
112.086952 0.05639 
113.006767 0.05833 
113.070808 1.275728 
113.811691 0.053608 
117.122208 0.048473 
118.097214 0.308995 
118.379623 0.043035 
119.081436 18.043972 
119.993484 0.045901 
120.076195 0.217657 
120.080688 20.085493 
121.075722 0.051441 
121.084053 0.933815 
123.055046 1.814125 
123.091461 0.101036 
123.116638 0.483771 
123.678482 0.049967 
123.700699 0.054315 
125.746513 0.052069 
127.071014 0.048067 
127.086441 5.223635 
128.081589 0.213926 
129.065659 0.253881 
130.097336 0.067631 
131.117523 0.135412 
132.079697 0.056569 
135.105438 0.049677 
137.070801 0.653788 
138.102631 0.204974 
139.086441 4.204778 
139.947769 0.048796 
140.081665 2.328133 
141.065582 1.868217 
141.101776 0.105838 
143.19072 0.056487 
147.121887 0.051166 
148.086716 0.636727 
149.070816 2.875707 
149.319107 0.050715 
150.102432 0.057587 
150.49881 0.04155 
150.936859 0.046777 
151.183029 0.044956 
152.83847 0.047901 
156.112976 3.850247 
156.186676 0.042037 
157.096954 13.534035 
157.108368 1.792221 
157.144653 0.058964 
158.092224 5.967525 
158.099472 0.380636 
158.12851 0.311832 
158.153946 0.293642 
159.75 0.045418 
161.502945 0.049381 
165.065842 0.075292 
165.102142 0.267359 
165.113098 0.063769 
166.097244 6.264866 
167.08136 3.807948 
167.100082 0.048107 
168.076599 0.268313 
168.112946 0.190215 
169.09697 0.192018 
169.133347 1.522677 
170.09166 0.048496 
174.123444 7.955457 
175.085983 0.062455 
179.515915 0.056414 
180.485489 0.046441 
182.092072 0.708364 
183.123901 30.122993 
183.655075 0.047635 
184.107819 40.379784 
184.12738 1.724731 
185.091919 6.085534 
185.11116 2.626203 
185.213547 0.050008 
186.037628 0.052823 
186.160004 0.823418 
187.121414 0.058832 
188.802673 0.052511 
192.06601 0.050648 
192.465744 0.052719 
193.108154 0.116696 
194.092285 2.332709 
195.18544 0.120301 
196.107727 0.476713 
197.128189 0.114372 
201.134399 43.653515 
202.118378 100.0 
202.13649 2.555101 
202.221573 0.045724 
203.12233 5.684249 
204.123077 0.088437 
204.149323 1.001646 
205.107635 0.152364 
206.092224 0.25146 
206.377563 0.055121 
209.128113 0.161189 
209.163986 0.110327 
211.118774 3.668971 
211.159454 0.062006 
212.012512 0.050262 
212.102783 2.842027 
212.140076 0.047567 
213.102325 0.274163 
213.134338 1.675779 
213.170715 0.210391 
214.154816 17.857515 
214.166321 0.564796 
215.158401 1.106904 
215.999557 0.054436 
219.144867 5.530831 
219.55574 0.054697 
220.107529 0.176544 
220.128738 0.177076 
220.144867 0.715705 
221.127167 0.045296 
222.123779 0.271456 
222.134613 0.431772 
223.118546 1.589046 
223.155289 0.061123 
223.180298 7.201333 
224.102707 1.169328 
224.139297 2.335453 
224.183868 0.35449 
227.113297 0.115799 
227.149704 0.136702 
227.175186 0.383228 
228.134476 0.063389 
229.096634 0.065501 
229.129486 0.113296 
230.128723 6.851723 
231.11261 0.938328 
231.131378 0.054376 
232.107635 0.168791 
232.142624 0.059096 
233.164673 53.332115 
234.168243 6.700452 
237.09465 0.045929 
237.212784 0.0476 
238.118271 0.940893 
239.150116 6.981108 
239.176254 0.04738 
239.378021 0.060118 
240.144882 6.708479 
240.206802 1.490976 
241.129211 7.412704 
241.143524 0.055055 
241.14827 0.050099 
241.177597 0.179014 
241.190811 20.798367 
241.204651 0.17954 
242.13269 0.242229 
242.175186 0.319546 
242.194305 2.319711 
243.147766 0.057311 
246.645294 0.047806 
248.139038 15.717977 
249.133911 1.708825 
249.144958 0.122439 
250.118256 2.312001 
252.170822 0.050223 
252.206696 0.056192 
255.14476 0.235625 
256.176483 0.382933 
257.160553 10.889883 
258.123352 2.534306 
258.156097 2.239647 
258.192047 0.680102 
258.413483 0.055299 
261.159576 49.846863 
262.163147 6.709162 
265.101929 0.058718 
265.12915 0.098753 
265.165466 0.247775 
266.16098 8.508668 
266.898468 0.053765 
267.144989 16.089703 
267.161377 0.54574 
267.696381 0.052554 
268.147461 0.744289 
269.160797 0.061669 
269.19635 0.055337 
270.180939 0.176605 
271.143799 0.364719 
276.913696 0.047187 
277.565125 0.042723 
278.185272 0.751379 
279.205902 0.053143 
280.139771 0.169116 
280.20166 6.421535 
281.204681 0.457777 
282.703156 0.056343 
283.141205 0.062295 
283.186615 0.117105 
284.171448 65.714615 
285.155243 26.502861 
285.17395 7.183169 
286.158203 3.445037 
286.174805 0.049832 
294.155731 2.641354 
295.139404 0.10391 
295.158569 0.110717 
296.172272 0.115843 
296.207794 8.17104 
296.233002 2.613703 
297.157959 0.060191 
297.192139 4.952062 
297.215424 3.225167 
297.731598 0.046448 
298.194885 0.257037 
298.214264 0.057719 
299.17511 1.062502 
301.168945 0.057727 
301.198059 1.037005 
302.181885 96.992203 
303.166962 0.060363 
303.18512 11.456764 
303.670105 0.062522 
304.166138 0.065119 
304.190155 0.250405 
305.171783 0.223652 
306.155579 1.733416 
306.192596 0.252757 
306.217072 1.829204 
307.139099 0.065535 
307.177399 0.064126 
307.199219 0.067855 
310.149536 0.048873 
312.165863 2.842849 
312.183563 0.185763 
313.166565 0.504259 
314.149689 0.371156 
314.181915 0.146333 
314.218079 2.864608 
314.238007 0.060933 
315.218567 0.291992 
316.20105 2.218237 
320.171661 0.280376 
322.198608 0.714269 
323.182343 4.269969 
323.243622 0.266417 
324.16626 2.782145 
324.184509 0.060762 
324.205261 0.167676 
324.227448 3.795924 
325.167755 0.051863 
325.210876 0.184533 
325.22998 0.147999 
326.18573 5.860527 
327.169281 0.382266 
327.189758 0.543691 
328.19751 0.122048 
328.222809 0.059733 
330.191864 2.160234 
331.176025 1.371004 
332.171204 0.432507 
332.343475 0.056177 
333.227753 0.773166 
336.264526 0.059704 
340.198456 0.144785 
341.159302 0.068327 
341.192505 3.863418 
341.253998 0.992379 
342.176453 0.24125 
342.237885 4.444448 
343.212219 7.159053 
343.238129 0.210106 
344.196228 3.58205 
344.214935 0.317442 
345.199799 0.238159 
348.206177 0.13752 
349.197876 3.514736 
350.181488 3.53055 
351.183868 0.118134 
352.234619 0.151442 
355.182556 0.052017 
357.224335 0.484661 
358.219879 0.05371 
358.261536 0.046908 
359.170746 0.214109 
359.203156 2.430051 
359.239655 0.131786 
360.208435 0.049296 
360.238556 3.503988 
361.222748 36.915394 
362.225708 6.467045 
362.254242 3.002694 
363.258881 0.064084 
366.176483 0.055493 
366.224426 3.029288 
367.20813 13.428197 
367.230499 0.31304 
368.190216 3.715777 
368.213318 1.245448 
369.196503 0.210642 
369.973053 0.054268 
370.244904 0.757006 
371.20697 10.477709 
372.21048 1.489093 
377.194672 0.05421 
378.249207 0.28975 
379.28125 1.454914 
380.264618 2.036575 
381.24881 0.564317 
384.234711 11.704214 
385.217804 17.758104 
386.22171 3.184525 
387.213379 0.886132 
388.267853 0.058538 
388.823822 0.049029 
395.201813 0.235932 
396.203979 0.128396 
397.258179 0.158518 
399.238861 0.367591 
402.24527 14.2177 
403.226471 12.796148 
404.230621 2.906503 
405.225098 0.825486 
405.297516 0.130149 
406.222198 0.135347 
406.280365 1.629604 
407.203033 0.326474 
407.263855 1.411249 
408.237946 0.842723 
409.223145 0.10621 
410.360291 0.054531 
412.228973 0.517741 
413.228455 2.408398 
414.213165 2.444145 
414.242584 0.051923 
415.215057 0.115376 
416.264984 0.667429 
417.295319 0.062981 
420.256714 0.276375 
421.219177 0.062476 
421.254822 0.306317 
423.247559 0.30854 
423.30719 0.920856 
424.229858 0.616027 
424.291107 10.882358 
425.214996 0.587055 
425.271393 6.152991 
426.249268 2.562275 
426.278137 0.692784 
427.232056 0.567525 
431.239563 15.849574 
432.221588 1.933636 
432.244965 1.098827 
433.222107 0.204271 
436.339142 0.101875 
441.256683 2.436371 
441.317871 9.185283 
442.239838 3.975985 
442.297272 6.359838 
443.275787 31.673075 
444.255493 15.610152 
445.262634 3.321718 
446.269012 0.06015 
449.249969 22.370136 
450.251923 5.436685 
451.228699 0.220658 
453.26004 0.362533 
454.243713 0.132433 
456.268402 0.052142 
459.233521 0.149967 
459.26825 0.249853 
460.302765 3.234673 
461.286346 59.534874 
462.289673 11.458339 
462.319427 1.563531 
463.293945 0.747524 
464.28183 0.062705 
464.777435 0.064308 
466.283051 0.107028 
467.272491 3.710408 
468.256653 2.317351 
469.257874 0.325858 
471.27005 4.67747 
472.271698 0.122227 
473.285156 0.343643 
479.240204 0.062218 
480.329956 0.516453 
482.285034 1.061844 
483.270599 0.187911 
484.298737 1.341528 
485.282196 12.677961 
486.26767 2.89268 
487.268616 0.323623 
487.306183 0.065365 
488.269165 0.056689 
488.334412 0.47857 
489.315186 0.073285 
489.72348 0.060826 
490.29425 0.446755 
491.208527 0.139723 
491.280609 0.048683 
495.273712 0.071456 
496.265656 0.053737 
497.248108 0.147729 
497.319061 0.076035 
498.317169 0.116092 
498.375366 3.187748 
499.301971 2.93245 
499.378204 0.125885 
500.297913 3.559098 
502.309265 0.511081 
503.292694 10.697573 
504.296234 2.621957 
506.344452 1.738267 
507.204376 0.392199 
507.272888 0.071631 
507.326874 1.446096 
508.302399 2.863795 
509.287231 2.64679 
510.281128 0.194421 
513.291382 1.120816 
514.277771 0.355842 
515.260925 0.096877 
516.328674 2.563777 
517.312561 2.057793 
518.31012 0.821075 
523.309631 0.149285 
523.368591 0.073265 
524.303894 0.375159 
524.354553 18.736008 
525.285767 0.240362 
525.327576 4.416432 
525.362366 1.959767 
525.394714 0.055969 
526.311157 6.231448 
527.295715 4.157978 
528.297302 0.43342 
531.303284 3.767398 
532.294312 0.54557 
534.337891 1.910459 
537.385254 0.85416 
539.298401 0.053022 
541.319946 0.345496 
542.31311 0.239475 
542.362427 2.86724 
543.339539 23.959774 
544.322021 16.4027 
545.315979 3.59311 
546.332764 0.271984 
549.313721 1.400677 
550.312683 0.803589 
551.294739 0.160015 
553.323364 0.959707 
554.309204 0.4751 
555.395935 0.401664 
560.367004 0.143499 
561.350159 7.146333 
562.334167 13.537543 
563.330322 1.564087 
563.368164 2.787707 
564.365356 0.324292 
566.310974 0.061664 
567.340454 0.200981 
568.321228 0.422631 
570.308716 0.085778 
571.333496 0.256607 
571.69104 0.045991 
572.359009 0.129923 
579.338501 0.27925 
581.37323 2.147711 
581.418945 0.059294 
582.34668 4.829161 
583.337708 2.585287 
584.326782 0.058824 
585.346191 3.891661 
586.341248 0.722898 
587.330444 0.071726 
588.323547 0.485635 
589.379883 2.869096 
590.364746 1.069694 
591.343201 0.138116 
592.326599 0.190049 
593.863037 0.055916 
598.332764 0.252218 
599.373169 1.2509 
599.4245 1.309718 
600.358459 5.733413 
601.356567 1.491818 
602.357605 0.090574 
603.356445 2.485118 
604.357849 0.349161 
606.335754 0.067749 
606.407227 1.737644 
607.390625 8.46397 
608.367859 3.299632 
609.352112 1.973583 
610.338623 1.211566 
614.339417 2.391622 
615.331116 0.76179 
616.390686 0.86044 
617.377258 1.574753 
618.37085 0.267262 
620.421631 0.445178 
621.355225 0.059546 
624.416992 2.206169 
625.401489 10.70132 
626.375366 6.383471 
627.35907 7.409451 
628.35791 2.273141 
632.350586 5.059302 
632.400757 0.064585 
633.350037 1.251264 
634.400085 0.061586 
635.388428 0.066573 
636.36145 0.58059 
637.35022 0.053503 
637.449036 1.769272 
638.380432 0.076196 
639.412292 0.049521 
642.428101 0.594522 
643.41156 18.679329 
644.384827 31.303288 
645.38269 11.570012 
646.382751 2.21095 
647.378723 0.668529 
648.36261 0.133995 
650.361206 6.542809 
651.363464 1.723953 
652.323608 0.36154 
653.388489 0.06363 
654.370422 1.440456 
655.375549 0.114915 
661.412598 0.220064 
662.397949 25.541449 
663.39679 7.894482 
664.40094 4.720456 
665.391541 3.223679 
666.377502 0.797773 
669.350525 0.735039 
672.380127 0.210225 
673.399109 0.280358 
674.381226 0.192817 
675.381348 0.073189 
680.387085 2.82802 
681.380005 0.122715 
681.437073 0.740384 
682.411865 9.56767 
683.404541 4.894232 
684.391602 0.698089 
689.443848 1.07274 
690.424805 2.347261 
691.407837 2.338126 
692.390503 2.318188 
693.381592 0.373091 
699.427612 2.388195 
699.488037 0.18322 
700.421204 7.201489 
701.41687 3.078903 
702.388977 0.153102 
702.458191 0.059049 
707.45636 4.274069 
708.431396 7.16929 
709.056641 0.059405 
709.132507 0.078865 
709.41687 6.762276 
709.619019 0.209521 
710.401062 4.1992 
711.396057 0.667467 
714.403931 0.200727 
715.38916 0.125523 
716.45459 1.524064 
717.441956 2.252854 
718.417908 1.129713 
719.411865 0.382189 
724.48291 0.071399 
725.407043 0.988264 
725.466431 10.530806 
726.440247 20.833372 
727.426453 18.682549 
728.422363 7.302516 
729.419189 0.945586 
730.424133 0.285513 
732.413513 0.831521 
733.410034 0.059504 
736.423157 0.673921 
737.421875 0.167919 
738.20166 0.061581 
742.49353 0.197108 
743.478149 6.611706 
744.4505 76.312019 
745.448242 35.839012 
746.446594 8.327892 
747.440063 1.128914 
748.447021 0.134193 
750.417969 0.188358 
753.470642 0.143288 
754.435364 1.185073 
755.441101 0.269552 
756.432617 0.059422 
762.460876 23.940332 
762.578491 0.0543 
763.459473 10.113888 
763.550903 0.053071 
764.459717 2.23655 
765.448975 0.208821 
766.432739 0.063638 
773.46051 0.063344 
774.442505 0.417418 
775.446533 0.064293 
780.449646 9.537522 
781.450623 3.510018 
782.463196 0.283626 
783.460938 0.401352 
784.445312 0.158918 
784.51416 0.081322 
785.434814 0.072967 
788.180298 0.059265 
789.504395 0.241376 
790.494507 0.262774 
791.471619 0.674038 
792.450867 1.516271 
793.443298 0.480032 
799.482239 0.077859 
801.472839 1.165602 
802.457642 0.408058 
807.516052 1.027187 
808.502747 1.051004 
809.479065 2.135583 
810.465637 1.868786 
811.455627 0.403655 
817.502197 0.064305 
825.529724 5.552678 
826.518555 3.848122 
827.490845 3.941825 
828.47876 2.570369 
829.474426 0.503187 
836.506653 0.221125 
837.491943 0.12195 
843.538452 2.427237 
844.516907 5.973097 
845.501526 6.992752 
846.494141 2.892627 
847.492432 0.505267 
854.520874 3.093716 
855.515686 1.020444 
856.505432 0.151064 
862.520569 0.367647 
863.507446 4.13785 
864.510925 1.187983 
865.511414 1.121167 
866.500916 1.005662 
867.481323 0.133706 
868.543579 0.067997 
872.533508 4.228998 
873.527649 2.387524 
874.523865 0.241571 
883.521973 3.03928 
884.510315 3.236477 
885.555603 1.173702 
890.541565 2.687299 
891.541809 0.909471 
892.518799 0.353401 
893.501831 0.409736 
901.533264 5.662958 
902.531677 3.072184 
903.553711 0.059787 
909.53949 1.745016 
910.527588 3.631346 
911.518188 2.113963 
912.518005 0.075289 
919.565308 0.067127 
922.585938 0.076693 
923.584656 0.222379 
924.578491 0.134868 
927.55072 7.334291 
928.540955 7.390809 
929.535522 2.649581 
930.533508 0.057838 
934.771057 0.06177 
937.540649 0.090655 
939.607483 0.077981 
940.601135 0.072768 
941.590149 0.350901 
945.56073 15.571348 
946.557556 8.935303 
947.555908 2.741891 
949.597961 0.212807 
950.588745 0.065867 
954.582214 1.245064 
955.576782 0.322935 
958.617737 0.058885 
963.570312 4.308844 
963.670288 0.058577 
964.571167 2.134487 
966.626465 0.82847 
967.608704 2.678959 
968.59906 1.484036 
969.594543 0.345297 
972.59198 1.120006 
973.59314 0.395174 
974.620605 0.061754 
984.633362 1.169956 
985.619324 3.329489 
986.615479 1.88213 
987.614075 0.291209 
988.609497 0.062095 
990.606323 0.208465 
1001.65625 0.393818 
1002.652588 0.199148 
1003.627747 1.953065 
1004.63092 0.491085 
1005.63208 0.797435 
1006.621948 0.387258 
1007.619934 0.063598 
1010.616394 0.058717 
1022.636597 0.124672 
1023.643494 2.059913 
1024.640869 1.228608 
1025.631714 0.097502 
1031.644653 0.076715 
1032.642822 0.237461 
1041.66272 0.86874 
1042.658936 0.280274 
1043.658081 0.207481 
1044.658936 0.143032 
1045.6604 0.063665 
1049.658203 1.480928 
1050.650391 1.925771 
1051.639404 0.732823 
1052.633667 0.081257 
1059.683594 0.226142 
1061.680298 0.652444 
1062.678955 0.587597 
1066.680298 0.795019 
1067.672729 5.147355 
1068.665039 4.798061 
1069.659302 1.896718 
1070.661499 0.726833 
1071.659546 0.3251 
1072.650391 0.200539 
1079.700073 0.959709 
1080.697632 0.604332 
1084.694702 1.498086 
1085.682129 8.155332 
1086.679077 5.688012 
1087.683105 3.74409 
1088.67749 3.240189 
1089.671021 1.555432 
1090.66626 0.336215 
1095.675293 0.064497 
1097.715088 0.764441 
1098.721313 0.06395 
1103.69104 5.159746 
1104.688354 2.985229 
1105.697754 8.081663 
1106.693481 7.625269 
1107.686523 3.473171 
1108.681763 0.392412 
1113.703613 0.091188 
1114.69104 0.996567 
1115.685303 0.134946 
1122.703369 0.861413 
1123.708984 14.172417 
1124.707642 11.949137 
1125.704468 4.257543 
1126.69397 0.256114 
1131.709106 2.778619 
1132.703979 4.186675 
1133.692749 2.474953 
1134.685181 0.482158 
1139.72583 0.428206 
1140.719849 3.032355 
1141.728271 7.866568 
1142.72876 4.859958 
1143.723633 0.981884 
1148.685303 0.134023 
1149.723389 11.855845 
1150.715698 14.051818 
1151.71228 7.406767 
1152.701904 2.259024 
1153.714111 0.79393 
1154.716553 0.256496 
1157.741089 0.462493 
1158.738403 0.945141 
1159.755615 2.778934 
1160.762695 0.725628 
1165.713623 0.073801 
1166.705933 0.851417 
1167.733154 37.301861 
1168.729736 36.315102 
1169.726562 16.164089 
1170.720825 3.29753 
1171.723145 2.683554 
1172.725708 0.973691 
1173.715942 0.15289 
1181.721558 0.069405 
1183.72644 0.439209 
1184.720215 0.599861 
1185.743896 52.639809 
1186.744995 39.476143 
1186.894775 0.06755 
1187.744141 13.533891 
1188.73877 2.691195 
1189.736694 1.711028 
1190.743286 0.307635 
1191.737671 0.061063 
1201.739624 0.144324 
1203.755615 13.104876 
1204.756958 8.963749 
1205.757324 3.014341 
1211.716919 0.361038 
1212.720337 0.318672 
1225.737549 3.481619 
1226.736206 2.391246 
1227.743042 0.361314 
1299.792114 0.098911 
1300.787231 0.372677 
END IONS

