BEGIN IONS
PEPMASS=578.355
CHARGE=1+
COMPOUNDNAME=destruxin A
LIBRARYQUALITY=3
SMILES=N/A
INCHIKEY=XIYSEKITPHTMJT-UHFFFAOYSA-N
INCHI=InChI=1S/C29H47N5O7/c1-9-12-21-27(38)34-16-11-13-20(34)26(37)31-23(18(5)10-2)28(39)33(8)24(17(3)4)29(40)32(7)19(6)25(36)30-15-14-22(35)41-21/h9,17-21,23-24H,1,10-16H2,2-8H3,(H,30,36)(H,31,37)
MSLEVEL=2
SOURCE_INSTRUMENT=N/A-ESI-QFT
FILENAME=library_mgf.mgf
SEQ=*..*
IONMODE=positive
ORGANISM=MONA
NAME=destruxin A [M+H]+
PI=MoNA
DATACOLLECTOR=MoNA:VF-NPL-QEHF017767
PUBMED=N/A
SUBMITUSER=mwang87
TAGS=
SPECTRUMID=CCMSLIB00004708830
SCANS=17767
51.628246 0.015251 
51.983681 0.017159 
52.479633 0.022478 
53.198261 0.022682 
53.348984 0.02141 
53.521175 0.015167 
53.854851 0.021639 
53.929825 0.023225 
53.979828 0.021006 
53.988537 0.02073 
54.311806 0.02116 
54.654751 0.016711 
55.018185 0.588012 
55.054554 0.035249 
55.087002 0.020419 
55.127075 0.019171 
57.144119 0.017654 
57.223301 0.020503 
57.489635 0.019816 
58.065426 26.954849 
58.365906 0.013198 
58.746002 0.015201 
58.772182 0.025013 
59.019112 0.015519 
59.068729 0.511059 
59.510105 0.019486 
59.579628 0.016844 
59.686596 0.02552 
59.790157 0.027036 
60.246098 0.020629 
60.527622 0.017401 
60.583778 0.018869 
60.622768 0.021125 
60.87088 0.018343 
61.787579 0.014806 
61.888607 0.014518 
62.012676 0.019279 
63.525738 0.020614 
63.575184 0.022623 
64.028038 0.025338 
64.2155 0.015816 
65.255569 0.023505 
66.247192 0.01703 
66.684601 0.013111 
66.883194 0.0245 
67.061325 0.022767 
67.567703 0.02438 
68.054665 0.018892 
69.71524 0.019786 
69.787231 0.02105 
69.954559 0.019441 
70.058098 0.021989 
70.065239 2.348488 
70.286987 0.020535 
70.361168 0.023827 
71.049202 0.708523 
71.073021 0.016709 
71.16153 0.019613 
71.800758 0.018459 
72.080818 0.200737 
72.501266 0.015753 
73.028481 0.46794 
74.04686 0.021719 
75.048805 0.016285 
76.968132 0.023093 
78.159035 0.021364 
79.257088 0.019417 
79.586632 0.020181 
80.486244 0.017364 
81.033745 0.087655 
81.482681 0.025563 
82.629341 0.020301 
83.284676 0.018167 
83.430023 0.021627 
84.080826 0.037706 
84.204041 0.021118 
84.990334 0.021731 
86.057266 0.26759 
86.060104 13.70474 
86.063057 0.0651 
86.096489 16.333954 
86.197449 0.022176 
87.063461 0.198587 
87.099854 0.506666 
89.294678 0.021969 
90.054939 0.022824 
90.090462 0.018847 
96.965645 0.019852 
97.036903 0.02105 
97.957993 0.017847 
98.060097 0.089718 
98.341675 0.017031 
99.958977 0.023316 
100.03933 1.520578 
100.075752 0.120486 
102.524521 0.029622 
102.983574 0.018318 
103.094315 0.025854 
104.210281 0.023843 
104.28801 0.019376 
105.137932 0.020552 
105.490654 0.0158 
106.115479 0.021834 
109.068436 0.017148 
112.112099 0.057863 
112.447861 0.025288 
112.592934 0.021342 
112.980682 0.019384 
113.059731 0.121577 
113.236595 0.023203 
114.055046 35.461975 
114.091393 1.585278 
114.217079 0.023584 
115.058365 1.569418 
115.086716 0.018925 
115.390961 0.019024 
116.081352 0.014334 
116.656898 0.017175 
118.775124 0.017067 
119.824501 0.01613 
121.60817 0.023521 
121.787033 0.022095 
121.988731 0.020516 
122.865189 0.024904 
123.017464 0.022185 
123.885704 0.017438 
124.861244 0.018518 
125.059814 0.643494 
126.127831 2.368931 
126.450752 0.031656 
128.070648 0.0916 
130.257385 0.015782 
132.101883 0.060544 
134.050766 0.016092 
135.592239 0.015898 
135.997269 0.022429 
136.061447 0.017678 
136.363953 0.017669 
137.036087 0.023625 
138.091293 0.022328 
138.427567 0.020205 
140.106995 0.701287 
140.315262 0.017813 
141.048904 0.024853 
141.054672 1.254054 
142.086227 0.411515 
143.015579 0.016217 
146.820892 0.02087 
150.091385 2.259812 
150.127289 0.017625 
151.096024 0.022172 
152.107056 0.069022 
152.522873 0.017416 
153.054657 1.968374 
154.157791 0.025942 
154.689346 0.025383 
155.081619 1.00645 
155.118073 0.328004 
155.675659 0.022706 
155.845734 0.02194 
157.097168 43.907612 
158.100479 2.734864 
158.117203 0.046068 
159.101746 0.01631 
164.844711 0.018421 
166.079346 0.036073 
166.086258 6.181688 
166.122696 0.140487 
167.089767 0.222882 
167.154495 0.02891 
168.101929 4.729011 
168.436371 0.015968 
169.097275 0.464877 
169.10498 0.096319 
169.5728 0.02373 
169.748322 0.026342 
170.081223 3.98053 
172.55127 0.01917 
175.107742 24.385338 
175.492249 0.016058 
176.111252 1.563262 
177.926483 0.017888 
178.086243 100.0 
178.25473 0.017377 
179.089645 9.813097 
179.098038 0.036748 
180.093063 0.041423 
180.10202 1.107423 
180.813141 0.020125 
182.15416 0.024226 
182.629715 0.021229 
183.149384 1.304331 
183.395279 0.019547 
183.949921 0.023875 
186.819992 0.017206 
187.108414 0.021012 
187.560272 0.026026 
187.881561 0.020212 
193.074051 0.022167 
194.117844 0.019729 
195.113358 0.066116 
196.096893 22.564318 
196.425354 0.022421 
196.524033 0.021735 
197.100479 2.191662 
197.164551 0.113841 
199.143982 0.37169 
203.580338 0.022112 
206.869751 0.026806 
207.689606 0.020847 
207.7005 0.021569 
209.128616 0.079908 
210.112381 0.150706 
210.149063 3.710517 
211.152618 0.038562 
212.581146 2.000523 
217.586777 0.017786 
219.040527 0.016841 
222.113266 0.024953 
225.159851 2.012496 
225.170944 0.0181 
227.138977 1.992337 
227.288055 0.016412 
228.14299 0.022518 
232.869659 0.017404 
233.216553 0.024269 
238.10733 2.123195 
238.789856 0.019238 
239.139023 11.242656 
240.142563 1.128677 
243.031799 0.026314 
249.123627 0.184368 
252.33699 0.016847 
253.118362 0.10046 
253.154282 0.596521 
255.133804 24.620796 
255.687958 0.016675 
256.137482 2.750556 
259.207764 0.017714 
261.302063 0.022598 
261.533691 0.01709 
263.175446 7.26201 
264.178802 0.82543 
265.19162 0.108183 
266.149902 0.19292 
267.117462 0.073394 
267.13385 12.174099 
268.137238 1.433422 
268.198425 0.023203 
271.517059 0.023275 
273.144501 0.824048 
275.462677 0.015176 
276.812592 0.019576 
277.117767 0.070122 
281.149506 0.381158 
281.185974 2.614166 
282.189667 0.078346 
283.129761 0.024668 
290.869049 0.025471 
291.169983 0.044123 
295.129669 0.044946 
297.685394 0.015291 
300.839996 0.019265 
307.201538 0.296975 
309.180878 0.809093 
311.769043 0.018649 
316.548126 0.027409 
320.971008 0.024296 
323.696625 0.020125 
324.191833 25.920378 
324.698883 0.01627 
325.195221 4.281588 
326.19812 0.051255 
336.191589 0.242872 
336.22934 0.024001 
338.207672 0.078535 
341.767914 0.022557 
351.202789 1.254461 
351.308319 0.022303 
352.186829 8.921009 
352.223297 30.037228 
353.189941 1.377185 
353.226501 5.489111 
354.188416 0.017837 
354.229218 0.10987 
355.119537 0.018876 
355.312836 0.022666 
360.985168 0.022463 
361.044495 0.016244 
362.207489 0.499661 
367.603943 0.020701 
374.254303 0.018963 
375.315582 0.02252 
378.101837 0.017792 
380.217926 2.982304 
381.220398 0.214281 
385.747467 0.01733 
386.513519 0.025952 
392.253906 0.177116 
404.448944 0.018621 
421.280457 1.170696 
422.021362 0.017623 
422.259552 0.021467 
424.150909 0.024213 
425.290375 0.017922 
437.275482 93.730835 
438.278687 22.442879 
439.248779 0.025968 
439.28125 2.083315 
449.30899 0.042138 
451.820648 0.021331 
456.304016 0.016553 
465.27063 11.049589 
465.305206 0.594009 
466.273682 2.861134 
467.276825 0.059403 
469.178894 0.020531 
469.270782 0.02252 
475.237213 0.023605 
507.321808 0.023282 
516.146851 0.021354 
526.624512 0.027327 
527.123352 0.022771 
533.747986 0.019311 
534.365051 0.386238 
606.09491 0.015118 
END IONS

