BEGIN IONS
PEPMASS=125.032
CHARGE=1+
COMPOUNDNAME=CYCLOSERINE
LIBRARYQUALITY=3
SMILES=N/A
INCHIKEY=DYDCUQKUCUHJBH-UWTATZPHSA-N
INCHI=InChI=1S/C3H6N2O2/c4-2-1-7-5-3(2)6/h2H,1,4H2,(H,5,6)/t2-/m1/s1
MSLEVEL=2
SOURCE_INSTRUMENT=N/A-ESI-QFT
FILENAME=library_mgf.mgf
SEQ=*..*
IONMODE=positive
ORGANISM=MONA
NAME=CYCLOSERINE [M+Na]+
PI=MoNA
DATACOLLECTOR=MoNA:VF-NPL-QEHF027818
PUBMED=N/A
SUBMITUSER=mwang87
TAGS=
SPECTRUMID=CCMSLIB00004721399
SCANS=27818
50.172348 0.382148 
50.414131 0.369988 
50.658691 0.345212 
50.717487 0.289848 
50.834778 0.359425 
52.058853 0.366298 
52.353539 0.310134 
52.929363 0.298334 
52.959541 0.325691 
53.456779 0.313592 
53.690472 0.35245 
54.03418 0.378298 
54.055901 0.368692 
54.3055 0.35716 
54.679825 0.357745 
54.913277 0.312295 
55.029369 0.844711 
55.054489 3.985931 
55.409256 0.423856 
55.424805 0.318787 
56.037148 2.363122 
56.049751 7.309633 
56.449669 0.376626 
57.021137 1.778262 
57.044998 10.110346 
57.754143 0.322876 
58.02898 3.977854 
58.052849 0.505433 
58.567451 0.332057 
58.932961 0.397633 
59.244164 0.338138 
60.030022 0.374913 
60.313354 0.336992 
60.353939 0.311587 
60.532314 0.311056 
60.620842 0.347251 
62.505466 0.374173 
62.615822 0.328294 
62.830772 0.336165 
63.082367 0.311699 
63.531872 0.311733 
63.907879 0.309571 
64.254967 0.37273 
65.270905 0.377094 
66.227272 0.312137 
66.646721 0.331458 
67.054314 4.513569 
68.520836 0.342728 
69.044823 8.14387 
70.028801 0.912709 
71.06041 30.255653 
71.553314 0.343814 
71.978592 0.404901 
72.768623 0.335907 
74.287598 0.365072 
75.890793 0.416285 
79.05426 13.456001 
79.546738 0.352587 
79.67308 0.354069 
80.049438 6.614813 
80.712524 0.376098 
81.044739 15.105584 
81.069878 23.232336 
82.028732 2.063827 
82.052567 1.81215 
82.065163 4.936837 
82.068199 0.396701 
82.073059 0.729298 
83.060333 12.192313 
83.085487 1.374308 
84.044273 0.415067 
84.08078 6.006461 
85.051018 0.417868 
85.386223 0.384366 
86.023605 4.688913 
87.196373 0.385988 
87.679321 0.413047 
88.061905 0.392819 
88.309525 0.365064 
88.529594 0.376093 
88.888016 0.389875 
89.492538 0.342526 
91.054245 0.46605 
91.153297 0.38394 
92.057442 0.524353 
92.068787 0.384191 
92.335831 0.409261 
92.677124 0.454061 
92.922005 0.399133 
93.397896 0.353019 
95.060356 0.759872 
96.055519 6.41928 
96.08062 0.847326 
97.039619 20.356707 
97.0634 1.114479 
97.076164 0.577746 
98.071266 6.216206 
98.082443 0.359501 
99.055321 18.57572 
99.696037 0.399454 
100.105362 0.442155 
101.621056 0.367546 
102.501633 0.350692 
102.548729 0.387657 
105.593437 0.369059 
107.085335 1.663729 
108.055779 0.797284 
108.080566 0.388482 
108.409241 0.374011 
109.722443 0.357342 
109.907272 0.367044 
110.04734 1.318352 
110.083733 1.891622 
110.404495 0.417382 
111.452003 0.3715 
111.745155 0.357188 
113.65361 0.380275 
115.31012 0.357539 
117.338341 0.363559 
119.534607 0.335287 
119.681496 0.342697 
119.952553 0.372195 
121.706093 0.361903 
121.76667 0.394172 
123.055244 31.033453 
123.080322 14.102594 
123.091614 18.875662 
123.686806 0.400574 
124.050377 1.379455 
124.058624 2.202929 
124.075798 39.103615 
124.083481 0.427715 
124.086937 0.539172 
124.095078 0.52799 
124.11216 28.948692 
124.271446 0.379121 
125.058479 12.013866 
125.070999 7.587235 
125.082298 12.49974 
125.096054 1.490011 
125.107338 100.0 
125.115433 1.577689 
126.042213 4.356435 
126.054718 1.740198 
126.066216 27.25201 
126.09124 8.008104 
126.098747 0.364015 
126.110756 5.280047 
126.12764 1.864319 
127.050179 38.499775 
127.072617 14.86897 
130.981903 0.369467 
135.858414 0.449907 
END IONS

