BEGIN IONS
PEPMASS=407.223
CHARGE=1+
COMPOUNDNAME=Lincomycin aka "(2S,4R)-N-[(1R,2R)-2-hydroxy-1-[(2R,3S,4S,5R,6R)-3,4,5-trihydroxy-6-methylsulfanyloxan-2-yl]propyl]-1-methyl-4-propylpyrrolidine-2-carboxamide"
LIBRARYQUALITY=1
SMILES=CCC[C@@H]1C[C@H](N(C)C1)C(=O)N[C@H]([C@@H](C)O)[C@H]2O[C@H](SC)[C@H](O)[C@@H](O)[C@@H]2O
INCHIKEY=OJMMVQQUTAEWLP-HZUSHKNOSA-N
INCHI=
MSLEVEL=2
SOURCE_INSTRUMENT=LC-ESI-qTof
FILENAME=NCP003106_C2_D11_BB3_01_15706.mzXML
SEQ=*..*
IONMODE=Positive
ORGANISM=GNPS-NIH-CLINICALCOLLECTION2
NAME=Lincomycin aka "(2S,4R)-N-[(1R,2R)-2-hydroxy-1-[(2R,3S,4S,5R,6R)-3,4,5-trihydroxy-6-methylsulfanyloxan-2-yl]propyl]-1-methyl-4-propylpyrrolidine-2-carboxamide" M+H
PI=Dorrestein
DATACOLLECTOR=Garg_Neha
PUBMED=N/A
SUBMITUSER=negarg
TAGS=
SPECTRUMID=CCMSLIB00000077092
SCANS=994
45.064297 148.0 
46.781212 160.0 
48.819046 152.0 
59.126083 148.0 
59.790615 164.0 
61.980297 184.0 
68.044792 148.0 
84.499031 152.0 
89.341644 192.0 
95.815376 212.0 
97.083946 172.0 
105.785637 168.0 
122.357521 148.0 
123.943359 164.0 
124.113525 520.0 
124.893539 156.0 
125.956551 120.0 
125.984566 112.0 
126.046143 148.0 
126.128456 19548.0 
126.165344 132.0 
126.31163 140.0 
127.130455 1912.0 
128.135986 312.0 
128.879623 140.0 
131.657791 152.0 
133.061432 176.0 
134.511765 152.0 
136.97438 180.0 
139.137527 220.0 
153.323792 168.0 
170.091278 204.0 
171.709137 168.0 
186.676437 204.0 
205.514572 172.0 
206.097061 172.0 
207.568314 180.0 
216.088089 240.0 
220.814423 140.0 
234.092453 316.0 
237.162857 148.0 
259.940521 220.0 
260.839783 148.0 
265.100098 168.0 
266.683868 188.0 
279.16449 152.0 
280.639618 208.0 
285.774231 200.0 
286.973267 164.0 
296.820557 176.0 
301.208588 172.0 
302.803101 168.0 
311.997833 148.0 
317.209412 780.0 
318.214172 136.0 
319.207214 144.0 
319.253448 168.0 
325.367096 144.0 
330.029266 168.0 
340.2052 236.0 
341.197113 260.0 
341.649445 156.0 
350.859924 160.0 
359.173767 268.0 
359.216888 3100.0 
360.219788 480.0 
360.306244 148.0 
361.223022 148.0 
365.88501 212.0 
371.779053 176.0 
380.056274 208.0 
381.030823 168.0 
381.520477 284.0 
382.816132 216.0 
384.871124 172.0 
387.244843 180.0 
388.797394 160.0 
389.209229 1052.0 
390.205475 240.0 
391.214447 144.0 
391.517853 152.0 
401.054382 168.0 
401.899841 192.0 
405.20459 756.0 
405.795532 176.0 
406.205505 320.0 
406.26474 144.0 
406.365631 112.0 
407.017273 136.0 
407.118469 148.0 
407.172272 152.0 
407.222046 52600.0 
407.320618 164.0 
407.486603 96.0 
407.520874 260.0 
407.722809 104.0 
407.835785 116.0 
407.932373 180.0 
407.993439 112.0 
408.159821 168.0 
408.224792 13444.0 
408.487213 96.0 
409.123322 192.0 
409.222076 3008.0 
409.33139 168.0 
409.695465 112.0 
410.223755 560.0 
410.369446 148.0 
410.399445 128.0 
410.59494 144.0 
410.634521 168.0 
410.739075 144.0 
410.994843 100.0 
491.901367 156.0 
572.126526 144.0 
929.393616 144.0 
1256.375488 152.0 
1427.592407 188.0 
1470.579956 236.0 
1557.839722 240.0 
1593.334839 148.0 
1702.235962 168.0 
1767.14856 172.0 
1770.413086 180.0 
1786.469604 252.0 
1823.607666 196.0 
1832.755859 188.0 
1855.507935 208.0 
1862.905518 188.0 
1870.670776 172.0 
1873.168091 188.0 
1890.643433 140.0 
1909.008667 204.0 
1917.121948 160.0 
END IONS

