BEGIN IONS
PEPMASS=508.29
CHARGE=1+
COMPOUNDNAME=(2E,6E,12E)-18-(2,6-dioxopiperidin-4-yl)-9,11-dihydroxy-8-methoxy-10,12,14-trimethyl-15-oxooctadeca-2,6,12-trienoic acid
LIBRARYQUALITY=3
SMILES=N/A
INCHIKEY=YQDJUXPUIRGKNV-MNOLRWOYSA-N
INCHI=InChI=1S/C27H41NO8/c1-17(21(29)11-9-10-20-15-23(30)28-24(31)16-20)14-18(2)26(34)19(3)27(35)22(36-4)12-7-5-6-8-13-25(32)33/h7-8,12-14,17,19-20,22,26-27,34-35H,5-6,9-11,15-16H2,1-4H3,(H,32,33)(H,28,30,31)/b12-7+,13-8+,18-14+
MSLEVEL=2
SOURCE_INSTRUMENT=N/A-ESI-QFT
FILENAME=library_mgf.mgf
SEQ=*..*
IONMODE=positive
ORGANISM=MONA
NAME=(2E,6E,12E)-18-(2,6-dioxopiperidin-4-yl)-9,11-dihydroxy-8-methoxy-10,12,14-trimethyl-15-oxooctadeca-2,6,12-trienoic acid [M+H]+
PI=MoNA
DATACOLLECTOR=MoNA:VF-NPL-QEHF001658
PUBMED=N/A
SUBMITUSER=mwang87
TAGS=
SPECTRUMID=CCMSLIB00004692721
SCANS=1658
50.211655 0.052812 
50.298729 0.048732 
51.085785 0.04557 
51.42141 0.040555 
52.14624 0.061943 
52.279694 0.050704 
52.690475 0.035085 
52.981621 0.038 
53.039364 1.104034 
54.214027 0.02807 
54.637665 0.04506 
55.018631 1.18395 
55.055004 1.217979 
55.094868 0.029944 
55.307297 0.036176 
55.38324 0.032094 
55.598412 0.024466 
56.139267 0.03216 
56.659916 0.023754 
57.034248 0.683744 
57.346252 0.025539 
57.403881 0.031807 
58.171574 0.029542 
58.421391 0.040363 
58.569359 0.045563 
58.710781 0.030896 
59.135117 0.03199 
59.182957 0.058622 
59.713844 0.040175 
60.045151 7.829431 
60.380516 0.034505 
60.709412 0.031002 
61.295761 0.044264 
61.297531 0.04225 
61.573975 0.037053 
61.584049 0.053166 
61.688435 0.047253 
62.410305 0.040646 
62.587624 0.032419 
62.84388 0.038776 
62.96825 0.054233 
63.082642 0.050009 
63.376114 0.053133 
63.553894 0.021489 
63.640804 0.03953 
63.827011 0.041446 
63.92981 0.03352 
63.958694 0.044537 
64.339645 0.029529 
64.470451 0.041142 
64.533218 0.038162 
64.670387 0.050002 
65.277504 0.038669 
66.160843 0.038002 
67.054916 5.186695 
67.547127 0.053112 
67.847328 0.042864 
68.06916 0.056551 
68.670708 0.02741 
69.034142 0.845375 
69.070564 1.747715 
69.336487 0.037897 
69.958282 0.032937 
70.942947 0.037831 
71.049828 0.364629 
71.066917 0.021533 
72.402725 0.036677 
73.111771 0.035823 
73.829987 0.036113 
73.890556 0.041357 
74.44854 0.055503 
74.714836 0.055493 
74.824074 0.043633 
75.033104 0.021816 
75.544724 0.051655 
75.951965 0.04208 
76.182526 0.032499 
76.22406 0.047574 
76.265793 0.026462 
77.11953 0.051831 
77.232231 0.065761 
78.046318 0.033422 
78.100388 0.058444 
78.726463 0.036879 
79.054817 6.216858 
79.274368 0.048013 
79.465141 0.03869 
79.649132 0.062332 
80.023956 0.033745 
80.037979 0.038475 
81.034058 7.023872 
81.070457 5.491166 
81.125893 0.040657 
81.892303 0.056808 
83.049728 0.236596 
83.086105 1.080041 
84.10321 0.045965 
84.743584 0.045591 
85.065254 0.469591 
85.699982 0.048734 
85.756561 0.041765 
85.940697 0.040452 
87.149834 0.038936 
87.252686 0.040515 
87.302696 0.050208 
87.396149 0.026733 
88.207092 0.032142 
88.907204 0.040988 
89.202621 0.059119 
89.450653 0.047037 
89.579308 0.046534 
90.145538 0.064881 
91.054741 7.032789 
91.198792 0.039343 
91.403107 0.050328 
91.433952 0.035181 
91.53125 0.03958 
91.708611 0.036325 
92.058189 0.046589 
92.062531 0.337764 
92.151657 0.047953 
92.358978 0.0532 
93.070335 15.981926 
94.065552 3.317292 
94.073608 0.339763 
94.153915 0.028214 
95.049583 8.548168 
95.085938 4.282244 
95.654251 0.050371 
96.044945 0.022511 
96.053032 0.022846 
96.057381 0.073698 
96.080887 0.062993 
96.089317 0.050516 
96.736717 0.035144 
96.976982 0.057782 
97.065224 2.498982 
97.072968 0.059331 
97.471687 0.039648 
97.794235 0.037432 
97.862442 0.028927 
98.25341 0.031956 
98.946777 0.039078 
98.960159 0.02597 
99.044472 0.382302 
99.436935 0.040192 
99.636848 0.041099 
99.640587 0.04592 
99.679535 0.041168 
99.807358 0.035438 
100.673065 0.046245 
100.790527 0.045627 
101.105904 0.063348 
101.175774 0.022606 
102.178764 0.062831 
102.492165 0.041885 
102.879059 0.065373 
103.054863 0.081792 
103.94043 0.04256 
104.057777 0.039079 
104.539627 0.050053 
104.673523 0.040119 
105.033882 4.35367 
105.070244 6.619798 
106.073868 0.028485 
106.077972 0.023728 
107.045784 0.033018 
107.049477 4.383726 
107.085861 6.581098 
107.08963 0.076032 
107.46756 0.04387 
107.718704 0.033616 
108.08947 0.045773 
108.101837 0.052342 
108.762268 0.026557 
109.065079 4.467982 
109.101494 10.790862 
109.579887 0.034786 
110.060249 0.471427 
110.10466 0.06762 
111.009605 0.045114 
111.044205 0.042253 
111.08075 1.011283 
111.325165 0.059755 
112.075844 0.060154 
112.93988 0.040561 
113.060143 0.098141 
114.188377 0.057938 
114.532158 0.073415 
117.070091 0.66148 
118.189003 0.040245 
119.049332 0.863873 
119.085754 9.855647 
119.142403 0.028546 
120.089172 0.122607 
120.938301 0.054274 
121.000427 0.037514 
121.028641 1.932895 
121.064964 5.052688 
121.101364 2.571515 
121.932007 0.039772 
122.060089 0.166619 
122.072937 0.062913 
122.804558 0.043714 
122.915924 0.030263 
123.044243 11.113412 
123.080643 2.057478 
124.03933 0.038353 
124.047707 0.122126 
125.096207 0.05381 
126.720551 0.072827 
127.050446 0.021682 
128.190704 0.058567 
129.069901 1.530088 
129.126205 0.023938 
130.002762 0.022824 
131.049011 0.066017 
131.085632 5.282296 
132.088745 0.042761 
133.064926 2.460626 
133.101273 9.29523 
133.879608 0.035158 
134.072723 0.029299 
134.104111 0.032107 
134.109177 0.952262 
135.080429 5.429166 
135.49762 0.057664 
135.90593 0.038046 
136.075699 0.25534 
137.059647 5.424221 
137.0961 1.02672 
137.406128 0.022596 
137.852615 0.03682 
137.961456 0.035838 
138.054916 5.851402 
138.091507 0.363363 
138.670486 0.023341 
139.075241 0.342827 
139.646042 0.040608 
140.070602 62.444744 
141.05455 11.12921 
141.074036 3.444531 
141.521698 0.044214 
142.058243 0.080877 
142.077759 0.116954 
142.287781 0.042854 
142.408203 0.02587 
142.843536 0.050979 
143.085526 4.063226 
144.093384 3.724969 
145.064819 0.241476 
145.101242 5.809647 
146.058594 0.049094 
146.10498 0.048887 
147.044113 0.041832 
147.080383 16.5387 
147.116898 1.613674 
148.08342 0.406626 
148.08873 0.101796 
149.059662 0.365704 
149.096146 3.134853 
149.132111 0.088477 
151.075104 0.086948 
151.111694 0.055531 
153.239075 0.039185 
153.470825 0.038076 
154.086273 7.603226 
154.759232 0.045174 
155.070328 2.016957 
155.085281 0.421785 
157.101151 5.328377 
157.630493 0.033122 
157.645523 0.042301 
159.080414 1.357872 
159.116867 5.638473 
160.119751 0.071281 
161.059052 0.026743 
161.096024 38.664536 
162.098145 0.355365 
162.10434 5.125108 
162.93837 0.04663 
163.074448 0.036823 
163.111572 0.169768 
164.044601 0.049625 
164.070602 3.124143 
165.054642 4.543985 
165.211761 0.026405 
167.085739 0.03748 
167.282135 0.028191 
168.093246 0.272408 
169.101227 1.158731 
169.252472 0.054718 
169.652435 0.063227 
171.08046 0.167181 
171.11673 3.220822 
172.096817 0.138992 
172.19635 0.033638 
173.096024 2.390899 
173.132538 5.739558 
174.099365 0.042206 
174.135406 0.030176 
174.922714 0.03896 
175.103134 0.039108 
175.111755 5.160449 
176.277939 0.049152 
177.090332 0.08454 
179.07135 0.058352 
180.165543 0.068739 
181.101196 0.073086 
181.303711 0.035557 
181.478897 0.064931 
181.852203 0.071281 
182.081253 17.791891 
183.065231 5.858623 
183.084885 0.525074 
183.116837 4.673935 
183.243423 0.060893 
183.925644 0.05384 
184.06868 0.025485 
184.120728 0.064331 
185.096024 0.999596 
185.132507 1.396867 
187.074646 0.027599 
187.111755 1.6356 
187.129303 0.080986 
187.148087 0.89962 
187.632797 0.033026 
188.837082 0.052559 
189.091248 0.065875 
189.127304 0.104549 
193.10112 0.627361 
193.260452 0.031492 
194.772736 0.031893 
195.116821 0.312339 
195.930756 0.040225 
196.088348 0.249197 
197.096603 0.086225 
197.132431 3.140344 
197.14238 0.035287 
199.111832 0.871533 
199.148468 0.065006 
200.010574 0.042105 
200.091766 5.932825 
201.092621 0.067742 
201.127289 1.895539 
201.977264 0.035214 
202.131851 0.039202 
203.106552 1.210366 
203.238113 0.025833 
205.901901 0.069926 
206.808334 0.025006 
207.116959 0.030127 
207.939056 0.041148 
208.000198 0.031965 
209.132401 0.047528 
210.65686 0.039365 
211.11171 2.938101 
211.148544 0.279901 
213.127426 1.196014 
213.257019 3.695329 
213.872543 0.034324 
214.943817 0.05067 
215.104462 0.03777 
215.143066 1.367158 
217.121811 0.211641 
219.925293 0.048346 
220.0354 0.030962 
223.931488 0.048453 
224.119431 0.05384 
224.350021 0.034614 
225.127182 0.080544 
225.701218 0.033657 
229.122284 0.849819 
229.15863 0.076262 
231.138809 0.032638 
233.133575 0.055499 
235.535049 0.058119 
237.078918 0.383753 
239.143372 0.100532 
239.424744 0.031351 
239.443466 0.06573 
245.648071 0.038975 
246.36972 0.048422 
247.132675 100.0 
248.136185 14.231042 
248.421677 0.036667 
248.984024 0.052361 
249.126892 0.04325 
251.051163 0.024629 
254.966354 0.028386 
255.218109 0.026825 
256.170319 0.046438 
257.153503 0.129406 
259.168945 0.340844 
262.14386 4.123019 
263.127838 0.491351 
263.146118 0.097781 
265.629242 0.063629 
266.974487 0.042313 
267.808807 0.02797 
268.152374 0.041805 
268.378815 0.033802 
268.3909 0.045443 
269.661285 0.025455 
271.150452 0.042641 
272.165375 0.076238 
274.179932 0.865034 
275.853973 0.04337 
276.925598 0.054764 
277.438507 0.022776 
278.156281 0.033436 
279.474335 0.071532 
279.742615 0.043237 
280.154358 3.339094 
281.157593 0.054138 
281.182831 0.030128 
281.912994 0.052936 
282.685425 0.043706 
292.191895 0.056921 
292.414215 0.031855 
292.574738 0.037689 
296.12384 0.059686 
297.853302 0.068323 
299.001038 0.024 
316.033051 0.039357 
317.711212 0.044774 
318.473175 0.044816 
326.282013 0.0382 
327.698181 0.024882 
329.810364 0.044556 
330.260315 0.06183 
330.486908 0.037418 
333.690186 0.040461 
345.061493 0.037973 
350.029999 0.032995 
356.741943 0.046424 
360.838165 0.027193 
373.863617 0.034132 
377.203156 0.039943 
378.518005 0.031459 
382.662109 0.044067 
392.398346 0.062869 
400.136597 0.045562 
405.080109 0.050121 
406.24588 0.045207 
407.864044 0.041705 
418.882477 0.071217 
418.976746 0.041873 
425.909454 0.042786 
427.011139 0.043033 
441.370483 0.032567 
446.01355 0.053181 
447.344482 0.058908 
449.425171 0.050504 
455.919952 0.043929 
462.131073 0.043651 
462.215057 0.040732 
464.83551 0.039774 
474.360352 0.0485 
476.380554 0.042657 
480.475037 0.042879 
488.011505 0.036633 
490.761139 0.038063 
490.961365 0.066876 
493.010834 0.070906 
507.329376 0.065082 
510.58667 0.059228 
512.318787 0.025526 
516.625488 0.058662 
530.339233 0.029933 
531.136108 0.059064 
END IONS

