BEGIN IONS
PEPMASS=427.245
CHARGE=1+
COMPOUNDNAME=Lovastatin
LIBRARYQUALITY=3
SMILES=N/A
INCHIKEY=PCZOHLXUXFIOCF-BXMDZJJMSA-N
INCHI=InChI=1S/C24H36O5/c1-5-15(3)24(27)29-21-11-14(2)10-17-7-6-16(4)20(23(17)21)9-8-19-12-18(25)13-22(26)28-19/h6-7,10,14-16,18-21,23,25H,5,8-9,11-13H2,1-4H3/t14-,15-,16-,18+,19+,20-,21-,23-/m0/s1
MSLEVEL=2
SOURCE_INSTRUMENT=N/A-ESI-QFT
FILENAME=library_mgf.mgf
SEQ=*..*
IONMODE=positive
ORGANISM=MONA
NAME=Lovastatin [M+Na]+
PI=MoNA
DATACOLLECTOR=MoNA:VF-NPL-QEHF002553
PUBMED=N/A
SUBMITUSER=mwang87
TAGS=
SPECTRUMID=CCMSLIB00004693616
SCANS=2553
50.173466 1.369242 
50.324005 1.290213 
50.608078 1.244756 
50.678955 1.061736 
50.980701 3.225929 
51.042118 4.563883 
51.268829 0.624921 
51.616337 1.049955 
51.695084 5.980434 
51.940983 0.58911 
52.079506 1.302772 
52.139694 2.615744 
52.159344 2.944247 
52.499577 7.534897 
53.518391 1.453417 
53.924713 3.046959 
54.235397 0.693152 
54.278553 6.241045 
54.393826 4.413228 
54.645634 0.632221 
55.054974 0.696304 
55.423355 1.439682 
55.600529 1.38572 
56.066013 0.987903 
56.85783 6.978302 
57.259377 3.901559 
57.985275 6.365718 
58.065887 1.48209 
58.150154 4.709387 
59.330284 2.801549 
59.89555 1.436731 
60.460224 6.808098 
61.011379 1.141913 
61.096836 4.413462 
61.490326 2.882169 
61.559151 1.788763 
61.778286 5.754632 
61.906036 2.438876 
63.104702 3.329385 
63.540565 3.402788 
63.757557 2.035732 
66.349808 2.827749 
67.054817 1.728028 
67.215752 7.54684 
67.676102 5.403875 
67.906639 2.655287 
68.118942 1.107285 
68.572502 6.686782 
68.857552 1.162591 
69.508141 0.634197 
72.060867 1.335251 
72.069374 4.42054 
72.776283 6.162128 
72.787033 2.757901 
74.340088 2.390787 
74.608498 1.623054 
77.312103 7.279269 
79.054665 2.910253 
79.109428 7.759206 
79.669846 8.012617 
79.795227 2.052677 
80.737358 1.953417 
81.022766 1.531161 
81.070358 25.896038 
82.549316 4.236009 
83.084595 7.650193 
83.424309 5.325886 
85.192841 4.880361 
86.818336 5.410135 
87.406311 7.369658 
88.211319 2.552032 
89.274635 1.593987 
89.727928 2.010459 
89.866768 2.01465 
90.843971 0.685219 
91.037537 7.244392 
91.054794 1.906422 
92.05687 3.896758 
92.463112 1.212904 
93.514511 6.818168 
94.930115 8.339936 
95.085999 0.735981 
95.173134 5.310188 
96.550331 2.046279 
96.593765 0.674687 
96.684608 1.319065 
97.38179 3.310375 
97.749046 6.501161 
98.975693 72.762123 
99.327995 5.837203 
100.481697 5.600884 
101.643684 0.698212 
102.352776 2.153304 
105.070168 100.0 
105.138588 2.258398 
105.249535 8.066896 
106.61618 0.605328 
106.845627 0.669728 
107.256828 5.309577 
107.604866 0.552536 
109.46608 1.959853 
111.540512 3.075427 
112.387993 1.28337 
113.699692 1.94104 
113.709312 7.47222 
114.780144 2.679426 
115.129417 2.649811 
115.965881 3.155115 
116.986076 20.503696 
117.069809 6.71575 
117.543907 6.826011 
117.856102 2.845029 
119.046432 5.714331 
119.08567 18.812351 
119.156616 4.382903 
119.647804 1.415972 
120.682999 0.567854 
121.18457 7.165142 
125.205887 1.178993 
126.938385 4.437932 
129.06987 3.057091 
129.147064 6.001423 
129.373611 2.769242 
129.885254 0.954818 
130.422623 5.061455 
130.914001 1.03283 
131.08551 84.218239 
132.958054 4.588977 
133.595993 1.932913 
133.773529 6.493626 
134.044556 5.050083 
134.711594 9.485336 
134.851135 2.127512 
136.392273 5.939849 
140.535751 6.755685 
142.077469 5.971204 
142.416107 4.739885 
143.085632 42.045719 
143.657822 1.009194 
144.093155 9.721449 
145.034149 3.137064 
145.100983 34.185856 
148.108383 0.587885 
150.968872 1.251519 
151.644104 2.02703 
152.594101 0.550539 
152.661804 1.70244 
152.991333 1.538547 
154.529755 0.610699 
155.085434 5.481416 
157.100861 7.253919 
157.951355 0.962365 
158.1091 1.137342 
159.116562 68.368271 
163.117371 0.704805 
164.123032 1.530701 
165.649902 5.331126 
168.401352 0.603955 
169.101303 2.100765 
169.717941 0.627893 
172.230911 7.754428 
176.672104 1.098464 
183.04213 1.364412 
183.117249 1.782563 
183.192139 7.6023 
187.617416 5.867812 
188.284637 6.358383 
189.125046 2.041865 
191.393631 1.846822 
192.067688 7.681395 
195.216187 4.858345 
195.798813 3.051003 
195.869995 4.838276 
199.063995 0.762475 
203.652405 0.617968 
203.672119 3.077022 
204.887985 1.289449 
210.306564 4.559225 
210.805038 2.873894 
215.02005 2.726849 
215.05278 3.352931 
216.343796 7.028646 
216.868973 8.039407 
219.97229 2.809987 
219.99086 8.698651 
220.007034 12.759579 
220.362823 0.703629 
220.881332 2.741395 
222.106461 0.815908 
222.89827 42.235229 
223.40799 5.231595 
223.952591 7.422201 
225.916168 5.633078 
229.13118 8.406408 
229.896149 6.758169 
230.289429 2.178533 
230.419113 3.458788 
234.143005 6.652821 
234.746353 2.977228 
240.908783 42.046753 
241.708023 0.568513 
242.385651 1.507606 
245.738312 5.370034 
247.906845 0.896258 
248.769501 4.663214 
249.17691 4.836574 
249.931824 6.15058 
251.957718 3.006948 
254.922455 3.139232 
257.039581 6.955315 
260.391052 1.632475 
262.376099 3.366416 
264.909607 5.157456 
273.600189 6.118616 
277.422028 5.036894 
279.502319 2.684721 
282.496979 5.143204 
282.92038 1.25055 
283.207184 0.968177 
284.918976 7.834923 
286.618042 7.009849 
288.032715 0.558695 
292.535645 3.329354 
294.124023 1.672848 
294.754608 1.364356 
294.941345 2.755131 
295.053772 1.417003 
295.1297 14.447784 
301.959808 1.85851 
306.431152 4.994964 
307.331818 5.439183 
309.723602 8.217566 
313.556488 2.153652 
321.996979 1.280626 
324.007141 1.152957 
328.983856 1.171588 
343.400085 3.487202 
346.700745 7.357703 
348.284882 3.328099 
351.165955 3.216039 
366.949249 3.608429 
371.529236 1.715567 
373.656525 2.894407 
374.11438 2.36084 
384.715424 5.532731 
387.346008 1.990117 
403.011414 5.41595 
403.581177 2.006285 
403.629364 0.683362 
404.920959 5.212777 
405.481598 2.453993 
419.093567 5.338798 
419.822845 2.289513 
419.855988 2.859608 
421.174622 0.644786 
427.798981 0.712762 
430.00351 5.083156 
438.256195 5.096145 
440.048737 7.968711 
END IONS

