BEGIN IONS
PEPMASS=412.14
CHARGE=1+
COMPOUNDNAME=(S,R)-Nosapine
LIBRARYQUALITY=3
SMILES=N/A
INCHIKEY=AKNNEGZIBPJZJG-MSOLQXFVSA-N
INCHI=InChI=1S/C22H23NO7/c1-23-8-7-11-9-14-20(29-10-28-14)21(27-4)15(11)17(23)18-12-5-6-13(25-2)19(26-3)16(12)22(24)30-18/h5-6,9,17-18H,7-8,10H2,1-4H3/t17-,18+/m1/s1
MSLEVEL=2
SOURCE_INSTRUMENT=N/A-ESI-QFT
FILENAME=library_mgf.mgf
SEQ=*..*
IONMODE=negative
ORGANISM=MONA
NAME=(S,R)-Nosapine [M-H]-
PI=MoNA
DATACOLLECTOR=MoNA:VF-NPL-QEHF000043
PUBMED=N/A
SUBMITUSER=mwang87
TAGS=
SPECTRUMID=CCMSLIB00004691106
SCANS=43
50.099415 0.051613 
50.421368 0.043116 
50.845184 0.036545 
51.135414 0.054045 
51.990818 0.028148 
52.058758 0.058959 
52.133904 0.059013 
52.173019 0.033118 
53.130108 0.029897 
54.167809 0.034895 
55.284756 0.038323 
57.033283 0.931716 
59.012463 24.161175 
60.015881 0.04176 
60.762959 0.040199 
60.786957 0.037792 
61.986977 42.54076 
63.961079 3.706926 
63.991219 0.149639 
65.736931 0.044912 
65.742363 0.040653 
65.956886 0.036782 
68.403404 0.03728 
68.924553 0.049047 
69.033318 0.386651 
71.012566 0.656462 
71.04879 0.031472 
72.512833 0.037794 
72.672691 0.041526 
72.729156 0.048403 
72.991814 0.45249 
73.028191 0.343025 
73.311386 0.029046 
74.02346 0.705173 
75.007446 0.215354 
75.854424 0.046726 
76.584526 0.052497 
76.986435 0.046211 
77.065842 0.026006 
77.542542 0.038456 
77.565117 0.037294 
77.877075 0.049584 
78.207512 0.030932 
78.984589 21.276787 
79.956039 2.304548 
79.988281 0.06506 
80.963943 0.662801 
80.980354 1.149013 
81.626991 0.040607 
83.048889 3.846527 
85.028214 0.206019 
86.978798 0.039304 
87.007462 1.908197 
87.043777 0.067651 
88.667702 0.05892 
89.023079 4.170083 
90.026421 0.049571 
90.932274 0.145915 
91.23571 0.041272 
92.926758 1.20215 
94.025948 0.041223 
94.923775 0.25839 
94.976021 0.070426 
94.9795 17.593199 
95.048965 0.063102 
95.950951 0.605221 
96.187889 0.04529 
96.958763 9.587874 
96.975319 0.346333 
97.064522 0.954824 
98.954681 0.37536 
99.007477 0.619632 
99.0439 0.886201 
99.924461 1.957593 
99.949837 0.047161 
100.747971 0.059087 
100.932327 0.29517 
101.023102 0.142451 
101.97953 0.050232 
103.918854 0.124976 
104.034019 1.829831 
104.258202 0.044544 
104.382484 0.046409 
104.873161 0.029856 
108.995392 0.050175 
109.028091 0.031333 
110.717628 0.028544 
110.839157 0.038121 
110.957001 0.138414 
110.974503 0.349422 
111.043854 0.037582 
111.080147 0.14869 
113.023193 0.901472 
113.05957 0.517465 
113.149734 0.053619 
114.023407 0.129272 
114.932655 0.158193 
114.948067 0.109372 
115.019646 0.465238 
115.038925 0.114097 
115.075348 0.167243 
115.919472 1.588938 
116.919998 0.063941 
116.927238 6.481212 
116.971184 0.248126 
117.075836 0.045737 
117.927498 0.239683 
118.977356 0.132746 
119.463287 0.041762 
119.945786 1.76292 
121.028145 1.887675 
121.227676 0.056742 
121.942863 0.465532 
123.007553 0.418606 
125.095993 1.07828 
126.582146 0.031811 
127.000191 0.407755 
127.03878 0.287816 
127.075302 0.069129 
127.111557 0.189918 
127.872429 4.036837 
128.034149 0.726782 
128.468506 0.040586 
128.869705 0.043457 
129.054642 0.435328 
129.86908 3.384574 
130.943054 1.318728 
131.865494 0.201445 
133.622757 0.039612 
135.043915 0.117213 
135.412094 0.04015 
136.94342 0.375754 
136.990112 0.109361 
137.023285 0.047007 
139.075226 0.096631 
141.015717 1.122153 
141.055054 0.048064 
141.09108 0.054117 
142.896088 0.175366 
142.980515 0.081548 
143.07016 0.306273 
143.106827 0.034867 
143.89386 0.10979 
143.990372 0.342178 
144.89238 0.115284 
145.049561 0.170784 
145.890442 0.033449 
146.96489 1.505258 
146.972229 0.511125 
146.98201 0.858424 
147.38649 0.042378 
151.002594 0.097841 
151.039001 1.675254 
151.980423 0.045408 
152.939026 0.93311 
153.090988 0.085698 
155.070602 0.092978 
155.106644 14.085838 
155.951645 0.059588 
156.110107 1.075366 
156.889114 0.065305 
157.086136 0.226241 
157.122421 0.689774 
158.938065 0.25481 
160.987991 1.344701 
163.002899 0.1029 
163.112167 0.028995 
163.962616 0.120226 
165.054794 0.15095 
166.997955 0.098627 
167.031738 0.17813 
167.070023 0.064518 
167.106705 0.04903 
169.085846 0.055966 
170.117416 0.034488 
171.014023 0.331167 
171.026657 0.114262 
171.101639 3.307085 
171.98288 0.054133 
172.104691 0.061969 
173.117325 97.1492 
173.94368 0.528845 
173.961655 0.605607 
174.120682 9.639147 
174.99144 0.044261 
175.122574 0.303217 
176.899445 0.058785 
177.911896 0.235821 
178.026581 0.036297 
178.988403 0.046315 
178.997437 0.116273 
179.105957 0.08671 
179.957611 1.043941 
180.960434 0.620505 
181.047394 0.107375 
183.012512 0.661143 
183.101852 0.031885 
184.295761 0.047108 
185.080978 0.160734 
186.112747 1.522175 
186.991455 0.056895 
187.096573 0.266936 
187.133377 0.052849 
188.984573 1.100362 
189.966614 0.043028 
189.978729 0.286052 
190.040253 0.04071 
190.946564 2.807168 
190.985367 0.068548 
190.998672 0.15865 
191.036469 0.726082 
193.049759 1.758405 
193.083786 1.567469 
195.063583 0.047047 
196.955139 0.420604 
197.027817 0.120708 
197.926926 0.049778 
200.773087 0.046846 
204.566772 0.03796 
205.002014 0.049341 
206.045044 0.190745 
206.85849 0.08913 
206.960815 0.038285 
206.993759 0.315288 
207.011261 0.047673 
207.068497 0.109359 
207.856293 0.061426 
207.939346 0.042926 
207.967056 0.048967 
208.094681 0.774928 
209.044693 0.546574 
209.078812 4.99629 
209.116898 0.045182 
209.154068 0.116727 
211.133636 0.051649 
212.94989 0.469502 
213.012085 0.173148 
214.601364 0.965444 
214.610596 0.587779 
214.936707 0.056012 
216.980896 0.177687 
217.002411 1.13462 
217.207458 0.031229 
219.088165 0.039621 
220.060806 2.127891 
221.084869 0.191307 
221.154175 0.200444 
222.900253 0.047491 
222.927536 0.242887 
223.277863 0.040014 
226.945969 0.033122 
227.201279 0.38418 
227.972763 0.036531 
228.941605 0.048377 
229.180099 0.154297 
229.997467 0.113005 
230.009689 0.04618 
230.871506 0.238104 
232.974503 0.186717 
233.115158 0.105998 
234.975281 1.75225 
235.973572 0.115164 
236.105347 0.252741 
236.912064 0.034993 
236.953384 0.17434 
236.973557 0.476995 
239.055038 0.059702 
241.071732 0.59419 
241.216599 0.52613 
242.175797 2.30565 
242.868958 0.353843 
242.909744 0.032823 
242.98201 0.047291 
245.918793 0.061097 
246.98085 0.150486 
247.012894 2.296491 
247.970459 0.710688 
248.016769 0.064638 
248.079529 1.032756 
248.580414 0.071093 
249.035263 0.342008 
249.110748 0.169935 
249.987793 0.153119 
250.141754 0.115821 
251.126068 0.040966 
252.946854 0.799787 
253.217026 0.4558 
254.220306 0.231705 
255.232727 100.0 
256.08017 0.122629 
256.236115 17.695652 
257.239075 1.589383 
258.095612 0.205653 
260.909058 0.030448 
261.913422 0.157838 
264.157562 0.193365 
264.965912 1.00952 
265.038452 0.786667 
265.147339 0.125838 
267.141937 0.033643 
269.070648 1.166773 
269.249176 0.036266 
276.066376 0.154046 
281.248077 0.046809 
283.050842 0.610512 
283.264252 0.674035 
284.973846 0.05711 
289.038757 0.057937 
291.033295 0.189302 
292.890991 0.099994 
292.913544 0.119382 
293.179077 10.06205 
294.182281 1.534379 
294.870483 0.449404 
295.157806 0.096707 
295.174469 0.058595 
297.154388 0.05164 
299.026428 0.341538 
299.148834 0.095684 
306.040649 0.126656 
307.194977 0.084731 
308.908661 0.45856 
308.950989 0.732541 
309.153046 0.313998 
309.173096 3.531575 
309.205811 0.158144 
309.991364 0.056865 
310.176117 0.353018 
310.903931 0.03965 
311.054993 0.409536 
311.168488 46.015671 
311.22226 0.668963 
311.294983 0.594141 
312.17157 5.60435 
320.057556 0.043225 
321.064178 0.238468 
322.068542 0.048071 
323.080261 0.259945 
325.18396 82.593414 
326.187347 64.844788 
326.232544 0.069066 
327.180023 11.647323 
328.183777 2.812063 
328.212921 0.425671 
329.085907 0.782369 
329.127563 0.126506 
329.17865 0.102667 
329.233154 1.218664 
330.086212 0.108229 
330.192017 1.290552 
330.231537 0.058599 
331.10788 0.128396 
331.15451 0.59399 
331.193268 0.060179 
331.906708 0.27058 
332.072113 0.18645 
332.20755 0.624829 
332.913544 1.767786 
333.155731 0.036044 
333.914215 0.158366 
334.070709 0.101991 
334.911194 0.327986 
336.050812 1.252811 
336.087219 0.042417 
337.055176 2.071963 
337.180664 0.26689 
338.067596 3.11506 
338.103088 0.044244 
338.270996 0.032946 
339.071075 0.482414 
339.199524 0.705486 
339.902496 0.050184 
342.226624 0.123212 
347.131622 5.871225 
348.133698 1.508048 
348.864838 0.033691 
349.13501 0.137045 
350.817108 0.045741 
351.075684 0.093902 
351.113464 0.182591 
351.216858 0.336092 
351.99173 0.041521 
352.079163 0.920471 
352.173065 0.099567 
352.798523 0.03992 
352.997284 0.070948 
353.089203 0.22379 
353.17865 0.061522 
353.198181 1.186445 
353.21817 0.47693 
353.268982 0.143773 
353.98877 0.419321 
354.188232 0.251725 
365.377869 0.378152 
369.123383 0.087023 
370.870209 0.050662 
371.211609 0.189444 
374.814789 0.050177 
375.070099 0.178307 
380.280426 0.39255 
381.105957 0.289104 
381.206848 0.046411 
381.947784 0.060486 
382.956116 0.456507 
386.544159 0.032768 
395.830658 0.094464 
396.001251 0.317413 
396.971893 0.375249 
397.00177 0.038838 
397.979553 5.321163 
398.197632 0.035249 
398.246704 0.380968 
398.980011 1.431606 
399.242737 0.054323 
410.161804 4.220524 
410.192474 0.069268 
410.235809 0.038252 
410.266785 1.242772 
410.373138 0.194007 
410.407684 1.743715 
410.846619 0.067235 
411.029327 0.062425 
411.093475 14.250074 
411.13623 9.653701 
411.165253 3.848568 
411.210449 1.234652 
411.241577 18.139662 
411.314301 0.454816 
411.347839 4.540367 
411.38382 13.053018 
411.880463 0.069298 
412.013123 1.492437 
412.095367 4.279534 
412.137878 2.239717 
412.16452 0.36375 
412.211243 0.197578 
412.245026 4.275386 
412.284332 0.057344 
412.351318 1.396446 
412.387115 4.065313 
412.41687 0.055631 
412.824219 0.823277 
413.002777 5.003418 
413.070068 0.281713 
413.094849 0.565568 
413.134186 7.564831 
413.221191 12.571027 
413.269135 0.49228 
413.360077 0.191358 
413.389862 0.240484 
414.004761 1.387516 
414.134766 1.242531 
414.226593 1.768064 
END IONS

