BEGIN IONS
PEPMASS=356.28
CHARGE=1+
COMPOUNDNAME=Aphidicolin
LIBRARYQUALITY=3
SMILES=N/A
INCHIKEY=NOFOAYPPHIUXJR-APNQCZIXSA-N
INCHI=InChI=1S/C20H34O4/c1-17(11-21)15-4-3-13-9-14-10-19(13,7-8-20(14,24)12-22)18(15,2)6-5-16(17)23/h13-16,21-24H,3-12H2,1-2H3/t13-,14+,15-,16+,17-,18-,19-,20-/m0/s1
MSLEVEL=2
SOURCE_INSTRUMENT=N/A-ESI-QFT
FILENAME=library_mgf.mgf
SEQ=*..*
IONMODE=positive
ORGANISM=MONA
NAME=Aphidicolin [M+NH4]+
PI=MoNA
DATACOLLECTOR=MoNA:VF-NPL-QEHF004578
PUBMED=N/A
SUBMITUSER=mwang87
TAGS=
SPECTRUMID=CCMSLIB00004695641
SCANS=4578
51.137035 0.041027 
51.463936 0.045962 
52.026703 0.033658 
52.079475 0.046089 
52.667049 0.046171 
53.002972 0.850243 
53.023842 0.025856 
53.039364 1.55386 
54.218208 0.046445 
55.018631 4.797122 
55.055023 11.493024 
56.050255 1.563415 
56.058372 0.382973 
56.765839 0.023209 
56.964153 0.047383 
56.965572 4.729418 
57.034256 1.39168 
57.070663 7.491778 
57.444435 0.035578 
57.834465 0.039631 
58.065895 2.195915 
58.073959 0.100184 
58.998627 0.036063 
59.032074 0.048916 
59.049908 1.424652 
59.061073 0.025257 
59.331894 0.025625 
59.441822 0.024004 
59.879475 0.048073 
60.045094 0.127953 
60.209492 0.057653 
61.011311 3.189229 
62.019203 0.347374 
62.06081 0.052167 
62.982525 0.044992 
62.990421 0.894952 
63.026966 0.264653 
63.110218 0.024113 
63.88298 0.040958 
65.039322 0.588153 
65.274757 0.033842 
65.514191 0.049381 
65.949219 0.048437 
66.046669 0.047841 
66.270889 0.036828 
67.054977 12.947937 
68.050201 0.679027 
68.058266 0.589414 
69.034203 2.777958 
69.070618 6.049445 
70.02948 0.052428 
70.065842 7.05762 
70.073914 0.131139 
70.406448 0.038864 
70.886177 0.036678 
71.049805 1.302654 
71.086235 2.662649 
72.045052 1.627943 
72.081444 1.277021 
73.029068 1.454017 
73.047516 11.619104 
73.614471 0.044619 
73.923935 0.051207 
74.04705 0.23718 
74.060547 0.066787 
74.434364 0.045684 
74.708275 0.047453 
74.976265 0.024774 
75.026741 0.542184 
75.044434 0.143996 
76.833122 0.023954 
77.00602 0.049148 
77.00898 0.10742 
77.039536 0.051462 
77.042351 0.200718 
78.095978 0.044282 
78.433014 0.045673 
79.021729 2.536721 
79.054886 8.172001 
79.057388 0.063224 
79.87632 0.045141 
80.050079 1.061534 
80.058167 0.312606 
80.236229 0.054919 
80.521828 0.040558 
81.000755 0.185711 
81.034058 1.163511 
81.070496 11.021466 
82.029259 0.12454 
82.065651 1.398496 
82.073845 0.316064 
83.013428 0.058351 
83.049759 5.77275 
83.086113 2.449824 
83.189056 0.050527 
83.976234 0.217263 
84.044952 0.400251 
84.07193 0.050728 
84.081329 2.145509 
85.028931 0.306817 
85.04026 0.235419 
85.065315 0.508542 
85.101822 0.148705 
85.261581 0.047216 
85.842133 0.025535 
86.06057 0.452158 
86.09697 0.79528 
87.044662 2.81874 
87.202713 0.041135 
87.878166 0.045663 
88.076248 2.72128 
88.253334 0.036983 
88.439293 0.049642 
89.060242 0.821129 
89.128754 0.026522 
90.233131 0.050651 
90.727058 0.047906 
91.054756 6.775502 
91.057846 30.557329 
92.057518 1.795869 
92.061073 0.774141 
92.146477 0.026931 
92.64444 0.040064 
92.9832 0.396564 
93.037102 0.440862 
93.054649 0.290331 
93.057732 0.054538 
93.070404 7.031052 
93.972961 0.048109 
94.029213 0.657704 
94.065575 0.932714 
94.073608 0.150497 
95.013184 0.826109 
95.016304 0.168461 
95.049622 3.610705 
95.073509 0.166529 
95.086006 10.331692 
96.044884 0.869343 
96.081177 0.370302 
96.089378 0.331928 
96.925407 0.051416 
96.995949 0.076506 
97.028961 0.13398 
97.065277 1.059148 
97.076477 0.069961 
97.101654 0.75044 
97.991753 0.331607 
98.02404 0.297551 
98.060455 0.288036 
98.096886 0.181776 
98.963409 0.059298 
99.044449 0.319405 
99.080902 0.235795 
99.104042 0.025637 
100.039864 0.163717 
100.075989 0.078816 
100.112411 0.143489 
100.372086 0.048099 
100.658676 0.042908 
101.415825 0.026504 
102.091789 0.747456 
102.242157 0.042248 
103.039345 0.48541 
103.054565 1.517325 
104.231178 0.039737 
105.033943 0.138629 
105.044983 0.202619 
105.06649 0.034985 
105.070267 6.546468 
105.073776 0.287152 
106.065552 1.823354 
106.073639 0.29311 
106.086678 0.377766 
106.955147 0.04405 
107.049522 24.619711 
107.073273 0.070504 
107.085915 4.620156 
108.044632 0.23469 
108.052795 1.612383 
108.081039 0.971152 
109.028671 1.70494 
109.065086 1.56269 
109.101547 3.14673 
109.225807 0.046571 
110.024017 3.548844 
110.06031 0.453977 
110.096733 0.627665 
110.104088 0.024677 
111.044388 0.327803 
111.080849 0.103238 
111.110924 0.034879 
112.03952 0.074364 
112.076103 0.087096 
112.664589 0.049288 
112.803566 0.05682 
113.022324 0.048665 
114.091377 0.055629 
114.315186 0.022897 
115.046181 0.044627 
115.054565 1.050698 
116.002228 0.044482 
116.034515 2.522844 
116.04982 0.149073 
117.070198 2.579464 
118.065369 0.755022 
119.049408 3.701012 
119.085846 2.544878 
120.04454 1.213988 
120.080978 2.178786 
121.028542 1.947615 
121.064972 2.293953 
121.101402 1.667175 
122.060219 0.563068 
122.079926 0.045573 
122.096657 0.238383 
122.104294 0.027456 
122.97506 0.040588 
123.044334 0.457371 
123.080704 0.650185 
123.117088 0.347403 
124.039459 0.895033 
124.075836 0.061656 
124.112473 0.071326 
124.657982 0.04181 
125.060104 0.049304 
125.096031 0.226329 
126.179131 0.044691 
128.001999 0.676558 
128.034164 0.057801 
128.06221 0.40053 
128.107178 0.128328 
128.194382 0.051487 
129.070007 1.371206 
129.966873 0.046262 
130.017365 0.048596 
130.065247 1.08299 
131.049286 7.183493 
131.085648 1.782259 
131.148132 0.048837 
132.044495 0.32115 
132.052155 0.30053 
132.080673 0.403551 
133.05217 0.730386 
133.056992 0.255153 
133.064804 1.039858 
133.101227 1.250005 
133.128937 0.046357 
134.060181 7.092594 
134.096344 0.237619 
134.978912 0.984941 
134.996597 0.032435 
135.044067 0.050451 
135.063232 0.210648 
135.068085 0.053651 
135.080444 1.065069 
135.116928 0.420166 
136.039169 0.049458 
136.075745 0.382143 
136.112076 0.410018 
136.685822 0.025705 
137.011795 1.754668 
137.059677 0.10185 
137.096237 0.065294 
138.012131 0.033476 
138.054871 0.257177 
138.091217 0.028871 
139.111664 0.061616 
141.069855 0.19353 
141.852264 0.039975 
142.065018 0.274699 
142.078278 0.118702 
143.049103 0.389738 
143.0737 0.02752 
143.085724 0.798658 
144.044373 0.233035 
144.080795 1.755665 
144.086609 0.055176 
145.028366 1.570796 
145.064835 2.605283 
145.101212 1.132236 
146.012634 0.515452 
146.06015 4.372624 
146.066452 0.081037 
146.09642 0.184794 
146.103683 0.025621 
146.713974 0.05209 
147.044128 0.98439 
147.063217 0.052669 
147.080521 0.378891 
147.116806 0.60052 
148.075745 12.605332 
148.112259 0.074355 
149.07901 0.569824 
149.096069 0.132046 
149.745514 0.062227 
149.952072 0.048488 
150.055161 0.161739 
150.090744 0.032831 
152.062927 0.052911 
152.106964 0.255207 
152.950897 0.050692 
152.98941 1.096405 
153.070053 0.252199 
154.064957 0.083844 
155.022278 1.024149 
155.060577 0.067923 
155.073196 0.044763 
155.085678 0.070613 
156.023315 0.026921 
156.080841 0.759004 
157.019455 0.076916 
157.064774 1.16725 
157.101166 0.202502 
158.060165 1.467529 
158.072983 0.047539 
158.954865 0.055365 
159.044128 1.875645 
159.06842 0.088023 
159.080719 0.245469 
159.117035 0.236552 
160.039581 0.159464 
160.075745 4.243577 
161.059784 0.276915 
161.095779 0.119412 
161.132584 0.029732 
161.997818 0.046247 
162.054962 10.697949 
162.091324 0.370912 
162.840576 0.05491 
163.058289 0.655913 
164.023209 1.066623 
164.070557 0.405101 
165.069931 0.052066 
165.608017 0.063331 
166.06517 0.303704 
166.086395 0.063687 
167.073151 0.393748 
168.08078 0.119316 
169.064789 0.13017 
169.101044 0.037793 
169.257309 0.028839 
170.009369 0.041579 
170.060059 2.593778 
170.096512 0.181143 
170.999435 0.047079 
171.044083 1.277596 
171.068634 0.056933 
171.080322 0.459961 
172.075653 2.237781 
173.059845 0.098662 
173.06987 0.045669 
174.00766 0.043966 
174.054886 1.348748 
174.091339 0.769491 
175.062698 0.365928 
175.094681 0.040884 
176.070786 0.316392 
177.127289 0.261632 
177.346634 0.047421 
177.357986 0.053686 
178.04982 0.106057 
179.085281 0.058062 
180.080673 0.631115 
180.887604 0.045785 
181.064896 0.752989 
181.775711 0.045289 
182.033813 0.389182 
182.060333 0.05187 
182.096191 0.145862 
183.06813 1.417819 
183.080338 0.028344 
184.07576 2.424656 
185.059937 0.297978 
185.08223 0.030317 
186.055038 1.737792 
186.091415 0.427877 
187.039062 0.491068 
188.070694 5.554078 
189.054855 0.200245 
189.074356 0.163767 
190.086243 1.482801 
192.018219 0.041786 
192.064636 0.045363 
192.137497 0.051628 
194.060211 0.568254 
195.067841 0.045238 
195.081268 0.050894 
196.075638 0.987922 
197.014969 0.494692 
197.083405 0.145432 
198.055099 2.086781 
198.091431 3.478 
199.039001 1.219702 
199.062439 0.102002 
199.085373 0.053475 
199.781342 0.054337 
200.070694 0.934931 
200.106842 0.323445 
201.505829 0.051361 
202.086288 0.28361 
203.057693 1.191075 
204.065643 5.00959 
205.068405 0.226282 
208.075928 0.516812 
208.112442 0.167351 
209.084488 0.055609 
210.091629 0.423032 
212.070679 2.195827 
214.049561 0.092232 
214.086334 0.54974 
214.380875 0.057711 
216.065536 100.0 
217.069061 12.516822 
218.071457 0.37256 
220.02066 0.052685 
220.034195 0.391333 
220.060181 0.533284 
220.077332 0.027244 
220.8992 0.053647 
222.898422 0.060957 
224.070557 10.03994 
224.106567 0.03381 
225.077545 3.113372 
226.086258 9.941181 
227.089859 1.326712 
227.217529 0.039984 
228.065186 0.758627 
228.101883 0.957134 
230.081207 18.586346 
231.084427 2.312081 
232.060593 2.964791 
233.064377 0.051929 
234.128555 0.063967 
235.075897 0.058874 
235.086517 0.058151 
235.13118 0.051431 
238.08606 0.438775 
239.09343 0.060288 
240.064987 0.187325 
240.100922 0.042163 
240.464447 0.049215 
240.908951 0.312798 
240.947006 0.20788 
241.073105 0.774458 
242.080994 2.137197 
243.016586 0.033547 
244.096848 47.358257 
245.10022 7.105237 
246.075775 0.241581 
246.101822 0.06029 
248.055542 0.11198 
248.070374 0.096178 
249.078827 0.062175 
252.102493 0.033937 
253.13269 0.04804 
254.080978 2.362288 
255.086121 0.160001 
256.096405 2.215981 
257.068115 2.144976 
258.07196 0.095854 
258.95752 0.185362 
260.093201 0.075483 
264.101562 0.198735 
265.109833 0.098294 
265.133636 0.04044 
266.116974 0.054426 
268.096558 0.477069 
268.247894 0.027847 
268.978424 9.940753 
269.067749 0.708844 
269.977936 1.956711 
270.074341 0.049486 
270.112152 0.186025 
270.958435 0.237003 
270.975006 0.856025 
272.091858 0.070133 
273.467865 0.032297 
277.131989 0.037356 
280.13327 0.471235 
282.111877 0.379731 
282.27887 0.370116 
284.091949 0.657755 
285.009735 1.450915 
292.337311 0.058013 
294.112305 0.592367 
294.148346 0.185331 
296.05545 0.391945 
298.071686 0.037067 
308.127716 0.195748 
310.279724 0.052766 
310.307587 0.050972 
316.949249 0.042251 
320.543365 0.027761 
322.108917 0.056591 
324.986542 0.505665 
325.154968 0.071101 
326.161743 0.093747 
328.037567 0.057393 
331.168274 0.045548 
331.600708 0.064127 
341.121399 0.054461 
342.99707 2.063116 
343.996918 0.205376 
354.355743 0.139012 
356.22229 0.055971 
379.063843 0.035749 
END IONS

