BEGIN IONS
PEPMASS=1117.54
CHARGE=1+
COMPOUNDNAME=N-[(3S,6S,9S,11R,15S,18S,20R,21R,24S,25S,26S)-3-[(1R)-2-carbamoyl-1-hydroxyethyl]-6-[(1S,2S)-1,2-dihydroxy-2-(4-hydroxyphenyl)ethyl]-11,20,21,25-tetrahydroxy-15-[(1R)-1-hydroxyethyl]-26-methyl-2,5,8,14,17,23-hexaoxo-1,4,7,13,16,22-hexaazatricyclo[22.3.0.0?,��]heptacosan-18-yl]-10,12-dimethyltetradecanamide
LIBRARYQUALITY=3
SMILES=N/A
INCHIKEY=DFQUSLQYURJBIT-MFKXNLKNSA-N
INCHI=InChI=1S/C51H82N8O17/c1-6-25(2)19-26(3)13-11-9-7-8-10-12-14-37(66)53-32-21-35(64)47(72)57-49(74)41-42(67)27(4)23-59(41)51(76)39(34(63)22-36(52)65)55-48(73)40(44(69)43(68)29-15-17-30(61)18-16-29)56-46(71)33-20-31(62)24-58(33)50(75)38(28(5)60)54-45(32)70/h15-18,25-28,31-35,38-44,47,60-64,67-69,72H,6-14,19-24H2,1-5H3,(H2,52,65)(H,53,66)(H,54,70)(H,55,73)(H,56,71)(H,57,74)/t25?,26?,27-,28+,31+,32-,33-,34+,35+,38-,39-,40-,41-,42-,43-,44-,47+/m0/s1
MSLEVEL=2
SOURCE_INSTRUMENT=N/A-ESI-QFT
FILENAME=library_mgf.mgf
SEQ=*..*
IONMODE=positive
ORGANISM=MONA
NAME=N-[(3S,6S,9S,11R,15S,18S,20R,21R,24S,25S,26S)-3-[(1R)-2-carbamoyl-1-hydroxyethyl]-6-[(1S,2S)-1,2-dihydroxy-2-(4-hydroxyphenyl)ethyl]-11,20,21,25-tetrahydroxy-15-[(1R)-1-hydroxyethyl]-26-methyl-2,5,8,14,17,23-hexaoxo-1,4,7,13,16,22-hexaazatricyclo[22.3.0.0?,��]heptacosan-18-yl]-10,12-dimethyltetradecanamide [M+K]+
PI=MoNA
DATACOLLECTOR=MoNA:VF-NPL-QEHF024870
PUBMED=N/A
SUBMITUSER=mwang87
TAGS=
SPECTRUMID=CCMSLIB00004715933
SCANS=24870
77.406609 0.449203 
79.054314 2.761142 
80.049538 6.692111 
80.057587 0.094044 
81.033638 1.327152 
81.044769 0.239692 
81.069992 5.906577 
81.390678 0.056825 
81.717575 0.448637 
82.028847 2.781399 
82.065247 13.752849 
82.227234 0.086799 
83.012802 0.07017 
83.049194 0.441577 
83.060455 0.723907 
83.068573 0.082501 
83.085655 1.492308 
83.194992 0.387529 
83.975807 0.155478 
84.044518 18.686459 
84.080887 1.07919 
85.028503 0.162277 
85.039787 0.436071 
85.047852 0.188873 
85.101273 0.345631 
85.614037 0.053693 
85.788231 0.052878 
85.992111 0.055568 
86.06015 100.0 
86.096474 0.646008 
87.044212 0.1362 
87.06353 2.602927 
87.06588 0.060278 
88.952507 0.102811 
88.968643 0.260356 
89.963821 3.395599 
90.737602 0.077423 
90.842712 0.097838 
90.947807 10.008544 
91.054428 5.759625 
91.057465 47.897633 
91.933151 0.173672 
91.985558 0.415204 
92.049606 0.380717 
92.057159 2.299656 
92.060738 0.846794 
93.036736 0.854689 
93.054283 0.520903 
93.069984 2.199125 
93.351387 0.443788 
93.429703 0.409321 
93.439934 0.078159 
94.028831 1.237281 
94.065224 4.489448 
95.012894 0.059978 
95.04921 1.579302 
95.060402 1.746232 
95.085625 4.928985 
96.044495 6.916026 
96.080856 1.869796 
96.088905 0.086797 
97.039764 0.50719 
97.076202 0.526881 
97.101303 0.631571 
98.019081 0.16761 
98.060211 2.730314 
98.984398 0.337002 
99.055443 0.837898 
99.948112 4.768789 
100.039436 5.307104 
100.07579 52.82225 
100.11013 0.173913 
100.308807 0.447228 
100.668732 0.479748 
101.07917 1.819026 
101.963821 5.105812 
101.986061 0.061276 
102.05513 0.653916 
102.84993 0.43398 
102.948273 0.337478 
103.054512 0.174966 
104.107056 0.813393 
104.849838 0.091535 
105.033875 0.053338 
105.044922 0.189177 
105.069984 2.264823 
105.935081 0.056986 
105.979942 1.59491 
106.065269 1.516212 
107.049263 9.07784 
107.060509 0.745557 
107.072739 0.062744 
107.085724 0.967623 
107.974808 0.207198 
108.044464 1.739687 
108.052544 0.344141 
108.080887 0.595763 
108.958344 2.266825 
109.039818 2.60199 
109.064911 0.073407 
109.076149 2.864905 
109.101288 2.526124 
109.455933 0.082682 
110.023903 2.012846 
110.06015 2.804676 
110.096733 0.080505 
111.055397 2.368733 
111.091812 0.080551 
112.039429 2.353167 
112.075798 1.755982 
113.034561 0.081371 
113.071083 2.714412 
113.075058 0.055623 
113.963829 2.896761 
114.055023 0.871978 
114.074135 0.067989 
114.867706 0.18798 
114.980148 0.140163 
115.054367 0.15349 
115.9636 0.074249 
115.979477 0.599323 
116.002007 0.315557 
116.070778 0.424177 
116.963402 0.379046 
116.98481 0.270855 
117.057762 0.06802 
117.070068 0.272124 
117.95871 4.298685 
118.065224 0.427872 
118.943214 0.182292 
119.049263 3.799524 
119.060532 0.680803 
119.085663 0.335769 
119.974342 0.797658 
120.044586 0.454259 
120.080818 0.442166 
120.810028 0.464279 
120.82766 0.059096 
121.028717 0.171888 
121.050331 0.067458 
121.065025 0.479613 
121.076134 2.572821 
121.101227 0.139435 
122.060059 1.450662 
122.09642 0.083441 
123.055458 2.815189 
123.091705 0.94751 
123.117218 0.267884 
124.007286 0.122061 
124.039467 0.955897 
124.075806 1.487746 
124.999794 0.083145 
125.034966 0.062152 
125.071075 6.785833 
125.231674 0.078382 
125.964272 0.0879 
126.055244 0.526627 
126.21035 0.437781 
126.340576 0.534492 
127.050247 0.474482 
127.086639 0.722098 
127.831947 0.090166 
127.979507 1.342194 
128.001862 0.414116 
128.034454 0.076912 
128.070724 0.771832 
128.96347 1.764125 
128.974716 0.091999 
129.069916 0.2059 
129.958771 1.906025 
129.979294 0.172417 
130.049973 0.480888 
130.065552 0.066977 
130.979309 0.192055 
130.990417 0.278932 
131.000229 0.176206 
131.012924 3.61375 
131.049179 1.973373 
131.081314 0.373492 
131.086105 0.06614 
131.974335 7.421883 
131.979568 0.129223 
132.044296 0.088453 
132.080765 0.176832 
132.946014 0.062304 
132.957916 0.130635 
133.065002 0.466644 
133.076385 0.107471 
133.101105 0.155381 
133.953644 0.997768 
133.989868 0.171991 
134.012497 0.068618 
134.060165 1.378408 
134.091141 0.058072 
134.974091 1.128227 
135.055374 1.287596 
135.117081 0.078761 
135.969254 0.787014 
136.013123 0.052561 
136.039429 0.206184 
136.075836 0.544275 
136.400803 0.092644 
137.034927 0.070191 
137.059677 0.064699 
137.071136 3.256328 
137.983566 0.071643 
138.055176 1.694506 
138.06633 0.066368 
138.09166 0.091573 
138.366058 0.499781 
139.050247 0.699398 
139.086685 1.928371 
139.979401 7.699912 
140.033707 0.063588 
140.070862 0.480613 
140.388062 0.08961 
140.974487 0.499181 
140.995422 0.061448 
141.065918 2.919316 
141.102448 0.063465 
141.958771 2.775562 
141.97966 1.525971 
141.995193 2.805179 
142.01767 7.318453 
142.979126 1.574424 
142.990326 1.838445 
143.012482 0.12415 
143.081726 2.438237 
143.97435 6.530047 
143.995987 1.739658 
144.958542 1.293854 
144.969666 2.355296 
144.976562 0.166184 
144.989655 0.064699 
145.015839 0.06225 
145.097214 7.940424 
145.95372 0.232135 
145.989548 2.084658 
146.012482 0.84212 
146.060211 3.349578 
146.974426 2.214771 
146.985245 13.863457 
147.044205 5.818524 
147.055176 0.39423 
147.062393 0.054595 
147.969269 0.731091 
148.075806 1.138445 
148.9897 0.415989 
149.023697 0.936744 
149.034531 0.170292 
149.045059 3.544216 
149.059845 0.144198 
149.071075 2.614211 
149.077728 0.068058 
149.985077 1.278988 
150.055191 0.219114 
150.091995 0.071636 
150.969254 0.152871 
151.020706 0.076001 
151.0504 1.420144 
151.0867 1.488779 
151.979462 0.986174 
152.001617 0.175645 
152.056137 0.0637 
152.070908 0.163781 
152.974472 0.09941 
152.995956 0.572153 
153.065826 1.503869 
153.959076 0.072989 
153.995224 4.394909 
154.01741 0.287168 
154.050156 0.094005 
154.99028 0.713563 
155.002792 0.05627 
155.011963 1.134853 
155.081665 0.206524 
155.974274 6.48994 
155.995407 0.918176 
156.010559 0.746018 
156.033066 0.250772 
156.969681 2.048589 
156.982605 0.187975 
156.99231 0.121009 
157.006226 0.395359 
157.027863 0.070826 
157.043991 0.088155 
157.974365 0.526571 
157.990051 14.302723 
158.012283 0.778538 
158.060196 0.18467 
158.973999 0.704723 
158.985291 7.4943 
158.992416 0.198817 
159.007553 0.440245 
159.02182 0.503206 
159.969406 4.220821 
159.990631 0.601527 
160.005722 5.018004 
160.028122 4.61781 
160.075806 1.027725 
160.977219 0.08995 
160.98967 0.823181 
161.000854 0.744383 
161.059601 0.074129 
161.07135 0.210834 
161.985031 1.927286 
162.006561 0.056576 
162.054962 0.111939 
162.968933 0.424832 
163.039169 0.064529 
163.086884 1.153624 
164.070618 0.708439 
164.082275 0.082727 
164.995605 0.121026 
165.029709 0.065633 
165.065918 9.810951 
165.994568 0.087944 
166.016998 0.075494 
166.070007 0.070579 
166.978394 0.063106 
166.990402 1.809234 
167.012619 0.423013 
167.047455 0.14194 
167.055557 12.475223 
167.080795 4.696537 
167.974503 3.418042 
167.995209 0.179764 
168.008926 0.064694 
168.05481 0.224232 
168.969376 2.103016 
168.977661 0.084272 
168.990997 0.135439 
169.005981 4.572707 
169.028168 0.17301 
169.035034 0.331832 
169.052856 0.15156 
169.06102 1.509345 
169.07634 0.072142 
169.097534 0.515166 
169.952957 0.073892 
169.989975 8.208924 
170.012314 4.974828 
170.024551 0.067361 
170.985229 9.419834 
171.00705 1.670741 
171.021851 2.136573 
171.031372 0.103722 
171.076431 0.093766 
171.96933 1.435768 
171.990067 0.383351 
172.00563 4.561497 
172.028122 4.786646 
172.07579 0.066644 
172.964661 0.26134 
172.977585 0.131657 
172.987701 0.070343 
173.001175 1.342082 
173.022369 4.278225 
173.070892 0.064236 
173.985062 6.308707 
174.007324 3.634043 
174.021286 0.457356 
174.055252 2.330117 
174.161011 0.577082 
174.980347 2.021159 
174.992386 0.080958 
175.003601 0.109003 
175.039062 3.015688 
176.000809 2.302989 
176.009995 0.05262 
176.042313 0.069174 
176.070557 0.364878 
176.983414 0.375521 
177.065903 0.386346 
177.979767 0.110031 
178.016479 0.086411 
178.979355 0.373607 
178.98999 0.929364 
179.012527 0.076592 
179.081482 0.833567 
179.974274 0.584349 
180.888062 0.193224 
180.991592 0.297803 
181.006042 4.451356 
181.028381 0.251664 
181.059769 0.406568 
181.097382 2.0347 
181.989822 3.159599 
182.012238 0.282713 
182.985321 7.531824 
182.994034 0.22522 
183.007095 0.530635 
183.021866 2.671013 
183.043915 0.080446 
183.076599 0.437997 
183.969543 3.638183 
183.979553 0.214933 
183.990479 0.153182 
184.005493 2.807088 
184.028168 4.221584 
184.038712 0.076046 
184.074249 0.09451 
184.964554 0.347773 
184.988419 1.201312 
185.001068 7.750033 
185.023361 7.074704 
185.985031 11.885868 
185.995895 2.114436 
186.006149 0.53092 
186.020859 0.381046 
186.043716 0.46914 
186.055267 0.082595 
186.128693 0.060918 
186.980301 4.244237 
187.002213 1.118148 
187.016678 0.821052 
187.039276 2.155456 
187.076035 0.073529 
187.08783 0.202822 
187.96431 0.167084 
187.985855 0.096649 
188.000641 7.955555 
188.010986 0.761239 
188.023041 3.585697 
188.034409 6.04132 
188.070816 1.403279 
188.924683 0.089935 
188.983124 0.090137 
188.99585 5.805331 
189.004898 0.100783 
189.017975 1.942381 
189.031006 0.298973 
189.065506 0.068582 
189.979889 2.006494 
190.016266 0.204119 
190.038681 1.749544 
190.989975 0.292019 
191.033493 0.11272 
191.081558 0.614843 
191.995529 0.140804 
192.018005 3.506278 
192.065674 0.071891 
192.113022 0.069645 
192.989822 0.106916 
193.005875 1.417385 
193.097336 0.075555 
193.990204 0.518588 
194.985336 2.275562 
195.00647 0.403654 
195.02182 0.923924 
195.969559 0.848494 
195.98027 0.441677 
196.005051 1.362667 
196.027847 0.059835 
196.9646 0.525685 
196.990677 0.251793 
197.000854 14.103107 
197.022659 2.532347 
197.037201 0.330399 
197.060516 0.123468 
197.53157 0.531991 
197.891098 0.136959 
197.985184 4.919624 
197.995758 1.204094 
198.007385 0.668286 
198.020035 1.382839 
198.043396 0.097063 
198.055557 0.119539 
198.98027 4.528937 
198.990295 0.073772 
199.002136 2.301741 
199.016602 18.028351 
199.026596 0.123377 
199.03894 4.355148 
199.964279 0.107054 
199.975327 0.603749 
199.987183 0.334624 
200.000214 3.169705 
200.010818 0.815892 
200.021866 0.670427 
200.035278 0.082228 
200.984299 0.154323 
200.995804 9.101518 
201.006088 0.2134 
201.017624 1.169862 
201.032318 1.59508 
201.055023 1.140197 
201.065414 0.077652 
201.979797 2.070766 
201.990265 0.51626 
202.015747 1.678053 
202.02652 0.092229 
202.038071 1.857396 
202.05011 0.438307 
202.999054 0.238274 
203.011093 3.426358 
203.022415 0.067639 
203.03392 1.477977 
203.081604 1.423499 
203.99556 1.962777 
204.006744 10.943551 
204.075623 0.064867 
204.085968 0.07614 
204.359894 0.386849 
204.991684 0.360994 
205.00502 0.191465 
205.027817 0.108564 
205.049988 1.952013 
205.974777 0.103976 
206.011505 0.19582 
206.03421 0.063363 
206.044998 0.873458 
206.985306 1.234258 
207.006622 0.144508 
207.021103 0.320435 
207.031921 0.06782 
207.990845 1.019844 
208.004639 0.375438 
208.017029 0.184894 
208.88385 0.622394 
208.98909 0.33557 
209.000809 5.438911 
209.0233 0.716253 
209.037643 0.065017 
209.092224 1.723817 
209.8918 0.67499 
209.985306 0.383341 
209.995972 0.294775 
210.007172 0.870656 
210.019058 0.603827 
210.032883 0.096385 
210.980118 3.775081 
211.001633 0.283696 
211.016708 5.88896 
211.038895 1.216522 
211.52449 0.057487 
211.963547 0.098982 
212.000412 1.046807 
212.011414 0.454043 
212.022934 0.375346 
212.035294 1.075732 
212.058655 0.064099 
212.070984 0.202938 
212.985016 0.147505 
212.995956 9.908669 
213.006714 0.21126 
213.018082 2.794193 
213.032379 7.383112 
213.054352 0.433256 
213.979645 1.468396 
213.990982 3.155341 
214.002579 0.534467 
214.015549 4.222876 
214.02684 0.074603 
214.036743 0.158902 
214.975204 0.510562 
214.99855 0.549766 
215.01152 13.11662 
215.022141 0.176783 
215.03363 4.480346 
215.070724 0.206489 
215.901367 0.201014 
215.98378 0.058568 
215.995361 0.762199 
216.006653 1.563611 
216.018097 1.634925 
216.029907 1.089908 
216.053177 0.084831 
216.991257 0.65817 
217.01268 2.886683 
217.027206 9.173142 
217.049835 2.034756 
218.010895 0.355005 
218.092758 0.079455 
218.984818 0.167009 
219.007446 0.442831 
219.065659 0.434295 
219.077118 0.144353 
219.594833 1.901715 
219.60701 0.68104 
220.005417 1.848209 
220.016235 0.185332 
220.989197 0.063041 
221.001007 1.536299 
221.023132 1.408707 
221.036545 0.078677 
221.985107 0.218452 
221.996017 0.359891 
222.007034 0.320687 
222.020035 0.456382 
222.03212 0.16122 
222.085327 0.429961 
222.898987 1.389509 
222.980072 1.173717 
223.003189 0.233406 
223.01651 3.507647 
223.027252 0.162288 
223.038544 0.955692 
223.964569 0.151571 
224.000031 0.524882 
224.011749 3.078499 
224.034317 0.355145 
224.071182 0.102296 
224.100861 2.777902 
224.995743 7.826457 
225.005646 0.293455 
225.017456 0.44736 
225.031876 2.013456 
225.043182 4.33651 
225.054672 0.272602 
225.88652 0.204784 
225.979752 0.467593 
225.991257 0.892149 
226.014343 0.802581 
226.027374 2.543578 
226.050827 0.341934 
226.97522 0.18836 
226.99939 0.103848 
227.011276 8.414306 
227.022491 4.520351 
227.033829 1.405201 
227.045609 1.112026 
227.994919 0.105928 
228.006958 0.545929 
228.019791 0.079325 
228.029495 1.735984 
228.042892 0.65842 
228.990677 0.799378 
229.013382 0.154778 
229.026489 4.712401 
229.049393 0.534843 
229.097183 0.085814 
229.98613 0.697305 
229.998611 0.228268 
230.022919 0.110595 
230.044052 1.696996 
231.006287 1.207626 
231.029129 1.126174 
231.041824 0.248971 
231.990356 0.103088 
232.000977 0.579608 
232.013672 0.287105 
232.025848 0.297479 
232.883896 0.092365 
232.987167 0.209249 
232.999771 0.234275 
233.022247 0.296108 
233.044922 0.102702 
233.891586 0.180162 
233.996338 0.216702 
234.017746 0.101856 
234.031174 0.183102 
234.899734 0.907471 
234.980148 0.463789 
235.003235 0.324644 
235.016434 1.703624 
235.999893 1.175215 
236.011795 2.247776 
236.996323 3.686469 
237.018646 26.946627 
237.03215 4.566742 
237.08696 0.421172 
237.979095 0.066721 
237.991028 0.3393 
238.002914 0.081623 
238.014465 0.380554 
238.027481 2.913702 
238.050171 0.491307 
239.011383 8.443274 
239.033936 3.111148 
239.048782 0.769599 
239.994736 0.165942 
240.006882 1.427218 
240.029663 0.200677 
240.042831 0.856579 
240.065643 1.697493 
240.897491 0.103153 
240.90921 3.707997 
240.990723 2.679809 
241.013123 0.614121 
241.026855 3.501409 
241.049469 1.991972 
242.009964 0.216582 
242.021896 5.465306 
242.045029 0.524518 
243.006348 5.424995 
243.028625 0.324339 
243.04068 0.179497 
244.002487 0.077992 
244.038193 1.713928 
244.060501 6.296434 
245.000839 0.390812 
245.022079 2.092252 
245.044342 1.702139 
245.056686 1.07701 
246.018845 0.083199 
247.015839 0.547643 
247.906799 0.654072 
247.999954 0.717444 
248.012543 0.916618 
248.916046 0.070297 
248.980667 0.309397 
248.995499 1.283444 
249.018097 0.371471 
249.032166 0.600889 
249.978287 0.167247 
249.991196 0.263741 
250.014572 0.332347 
250.027557 1.573218 
250.894302 1.112651 
250.975281 3.705016 
251.011276 3.975297 
251.033646 0.56825 
251.047333 0.316812 
251.993805 2.535131 
252.006729 0.939389 
252.030029 0.693916 
252.043259 0.536755 
252.097076 0.072066 
252.99054 12.707167 
253.01329 0.351301 
253.026749 11.063982 
253.986115 0.191892 
254.008926 0.218675 
254.022293 4.261597 
254.044479 0.401656 
254.058167 0.217435 
254.081757 0.676511 
255.006912 4.016431 
255.028854 60.964527 
256.002014 0.420869 
256.037628 4.723914 
256.060272 0.226589 
257.02182 3.402104 
257.044617 0.262754 
257.080353 0.2323 
257.58371 0.489668 
258.017578 1.523783 
258.039734 0.134319 
258.053467 0.663792 
258.076569 0.746729 
259.001221 0.263426 
259.022766 0.576903 
259.037201 0.758423 
259.059326 0.201072 
259.10788 0.316726 
260.03299 4.034282 
260.995819 0.071897 
261.017212 0.790994 
261.032166 0.138786 
262.027954 0.948235 
262.050873 0.119689 
262.071503 0.79152 
263.011322 2.581472 
263.034058 0.51119 
263.054871 0.087511 
264.007172 2.314561 
264.02948 0.383322 
264.043488 0.604144 
264.26886 1.312098 
264.909637 0.62275 
264.991089 1.621435 
265.012726 0.129221 
265.026947 2.361644 
265.049988 1.25214 
266.008728 0.065938 
266.022705 3.110099 
266.0448 1.382619 
266.999573 2.467747 
267.027924 0.772188 
267.043335 0.297868 
267.066406 0.134101 
268.000916 0.566821 
268.037903 3.877973 
268.060638 0.641515 
268.978424 3.012097 
269.021973 1.432319 
269.044525 0.262321 
269.057343 0.081429 
269.979401 0.330404 
270.003906 0.702774 
270.0177 1.811843 
270.039642 0.681277 
270.113617 0.073431 
270.279572 0.217952 
271.000702 4.811213 
271.03656 0.881853 
272.018799 0.127851 
272.033081 4.370118 
272.053375 0.060205 
273.01825 0.491273 
273.039276 8.873715 
274.048492 1.615517 
275.011322 0.53775 
276.007416 0.105871 
276.045715 0.3815 
276.992554 0.072423 
277.026794 0.496708 
278.007446 0.082907 
278.023224 0.760004 
278.043915 0.580861 
279.006317 0.898102 
279.106079 0.169639 
280.001648 0.836404 
280.02356 0.087402 
280.038208 3.371553 
280.060059 0.749613 
281.005585 0.08939 
281.021484 2.231112 
281.043671 0.088352 
281.057739 0.325726 
281.122345 0.098113 
282.017487 3.583048 
282.039246 0.37153 
283.001526 1.797601 
283.031586 0.733479 
283.048157 0.197194 
283.060577 3.427764 
284.033112 6.840548 
284.055054 3.332145 
285.012054 0.265494 
285.815826 0.102243 
286.012848 0.42012 
286.048767 0.864221 
286.070496 0.080562 
287.009552 0.178242 
288.029755 0.372785 
288.050385 3.004455 
290.022888 0.16544 
291.005646 0.17679 
292.002594 0.20495 
292.038239 0.160583 
292.060059 0.123828 
293.020935 0.105584 
293.045044 3.211311 
294.0177 0.610172 
294.053253 0.110398 
296.0336 2.396318 
297.016174 0.410342 
297.032806 0.189649 
297.816711 0.181092 
298.012512 2.584795 
298.04892 0.259682 
298.069092 0.197319 
299.04483 1.598978 
300.02832 1.524995 
300.047577 0.230383 
301.059113 0.165471 
302.044769 0.184005 
302.066132 0.672042 
303.613342 0.209056 
304.039429 0.347012 
306.018219 0.395769 
306.038361 0.182585 
306.055786 0.217593 
307.000458 0.082188 
307.10202 0.124511 
308.034393 0.545618 
308.055328 5.63182 
309.017273 0.281481 
309.039673 1.222977 
309.064545 0.077064 
310.014374 0.162054 
310.03244 0.09594 
310.070892 0.706943 
311.055817 1.987458 
312.028442 1.011504 
312.161926 0.110823 
312.221222 0.152998 
312.839172 1.250747 
313.04422 0.111454 
314.044342 0.370088 
315.042633 0.618214 
316.024323 0.0817 
317.055573 1.272273 
318.019226 0.11705 
318.053802 0.068986 
318.829895 0.108338 
319.001373 0.100354 
319.835999 0.693796 
321.029297 0.082919 
322.048859 0.155181 
322.824463 0.135005 
323.044586 0.589979 
323.065521 0.250517 
324.028107 1.945648 
324.06485 0.084586 
324.086426 0.095999 
324.931244 0.068954 
325.059631 0.560317 
326.045227 0.537331 
326.066223 31.973446 
326.178223 1.287185 
326.96756 0.267489 
327.049316 2.235078 
327.069916 1.811107 
327.826935 0.598409 
328.193695 0.742349 
328.834412 0.111211 
329.054718 0.778391 
330.960876 0.081195 
331.037811 0.179453 
332.033203 0.172846 
334.048706 0.079576 
334.100708 0.071477 
335.046051 0.126909 
335.829346 0.098154 
336.028442 0.275073 
336.064789 0.07079 
336.839539 1.774241 
337.060089 0.07741 
337.847443 0.486816 
338.044159 0.12513 
338.065369 2.319634 
339.038574 0.067017 
340.022827 0.38977 
340.082489 0.175525 
341.077209 0.118278 
342.038757 0.436492 
342.997528 0.348917 
343.035461 0.079699 
343.996582 0.067143 
344.077118 2.771725 
344.828247 0.304798 
344.976685 12.312882 
345.97699 2.686719 
346.975189 0.710867 
347.066467 0.274056 
348.029022 0.15431 
350.043121 0.130673 
352.023315 0.309112 
352.194 0.073772 
353.05603 0.510777 
353.84259 0.248029 
354.038818 2.595442 
354.209534 0.411747 
355.041138 0.22986 
356.076813 2.909223 
357.135406 0.190702 
358.843323 0.087535 
359.143524 0.185036 
360.839661 3.318019 
361.841919 0.187357 
363.075348 0.088654 
364.020966 0.078591 
364.835175 0.265282 
365.054443 0.279237 
365.076965 5.149645 
365.838135 0.062793 
366.03833 0.255243 
367.861511 0.06721 
369.006622 0.439451 
369.83667 0.274189 
377.054901 0.077713 
378.850464 1.257006 
380.003021 0.493133 
383.086853 0.149417 
383.854126 0.231011 
389.293274 0.207321 
391.069397 0.128326 
394.120575 0.113223 
394.171234 0.089664 
402.963806 6.181244 
403.965118 1.341303 
404.962769 0.238566 
405.071167 0.12049 
406.845398 1.663215 
407.847351 0.108442 
417.681976 0.167082 
420.860016 0.183007 
432.049011 0.058312 
442.214905 0.078525 
445.870819 0.397937 
447.348175 0.289218 
450.780701 0.516279 
454.497833 0.189611 
459.778351 0.11249 
460.441467 0.392561 
460.951599 3.067968 
461.951111 0.873275 
462.035858 0.34491 
462.948273 0.086863 
473.086884 0.332063 
475.772186 0.061624 
478.961884 2.351662 
479.962067 0.58392 
483.748962 0.208599 
491.205566 0.20029 
492.205078 0.333896 
494.014832 0.185669 
502.909119 0.856682 
518.93866 0.21084 
519.938049 0.072755 
521.923096 0.072122 
532.715393 0.070724 
536.953064 0.22054 
578.906616 0.287955 
580.898987 0.060697 
581.503845 0.20605 
615.659058 0.056044 
621.047913 0.330327 
633.583679 0.430582 
638.871582 1.208912 
639.872803 0.289813 
640.855652 0.732319 
641.853516 0.321451 
658.116455 0.482458 
670.074463 0.21118 
674.702271 0.571216 
684.910095 0.061245 
709.274719 0.327051 
731.294373 0.525681 
735.004089 0.36571 
773.048157 0.065801 
813.537598 0.069274 
895.223816 0.384243 
999.09082 0.201877 
1002.162415 0.460309 
1020.488525 0.532446 
1090.274414 0.210209 
1158.947021 0.498016 
END IONS

