BEGIN IONS
PEPMASS=477.107
CHARGE=1+
COMPOUNDNAME=MoNA:945614 Chlortetracycline
LIBRARYQUALITY=3
SMILES=N/A
INCHIKEY=DHPRQBPJLMKORJ-UHFFFAOYSA-N
INCHI=InChI=1S/C22H23ClN2O8/c1-21(32)7-6-8-15(25(2)3)17(28)13(20(24)31)19(30)22(8,33)18(29)11(7)16(27)12-10(26)5-4-9(23)14(12)21/h4-5,7-8,15,26-27,30,32-33H,6H2,1-3H3,(H2,24,31)
MSLEVEL=2
SOURCE_INSTRUMENT=LC-ESI-QFT-LC-ESI-QFT
FILENAME=output_mgf.mgf
SEQ=*..*
IONMODE=
ORGANISM=MONA
NAME=MoNA:945614 Chlortetracycline [M-H]-
PI=MoNA
DATACOLLECTOR=MoNA
PUBMED=N/A
SUBMITUSER=mwang87
TAGS=
SPECTRUMID=CCMSLIB00000569131
SCANS=6382
50.0035 15.93555 
51.024 1.357102 
53.0031 2.681169 
55.0189 3.00716 
59.0139 1.443742 
63.024 30.411151 
64.0192 1.700079 
65.0033 52.442519 
65.0397 26.393605 
65.9985 100.0 
67.0189 8.432297 
68.0142 5.555097 
68.9982 28.997016 
73.0085 6.705883 
75.0242 2.791962 
79.0189 4.798554 
79.0553 2.41782 
81.0346 7.791846 
83.0503 1.899694 
84.0091 4.911996 
89.0032 13.434362 
89.0397 20.040359 
90.0349 3.056869 
91.0189 14.057048 
93.0345 28.338177 
95.0137 2.969138 
95.0503 1.908264 
96.0091 4.957498 
101.0396 2.331492 
103.0189 2.734306 
108.0217 8.139341 
109.0294 6.228583 
113.0396 7.748837 
117.0347 13.890001 
121.0295 2.852891 
124.98 9.027091 
126.9955 5.445394 
134.0245 4.849198 
137.0397 6.511722 
139.0554 2.404731 
141.0346 7.890952 
167.0498 1.81243 
169.0295 2.449921 
182.0368 1.350869 
183.0452 1.290252 
END IONS

