BEGIN IONS
PEPMASS=331.0
CHARGE=1+
COMPOUNDNAME=MoNA:2563896 Gibberellic acid A4
LIBRARYQUALITY=3
SMILES=N/A
INCHIKEY=RSQSQJNRHICNNH-NFMPGMCNSA-N
INCHI=InChI=1S/C19H24O5/c1-9-7-18-8-10(9)3-4-11(18)19-6-5-12(20)17(2,16(23)24-19)14(19)13(18)15(21)22/h10-14,20H,1,3-8H2,2H3,(H,21,22)/t10-,11-,12+,13-,14-,17-,18+,19-/m1/s1
MSLEVEL=2
SOURCE_INSTRUMENT=LC-ESI-QQ-LC-ESI-QQ
FILENAME=output_mgf.mgf
SEQ=*..*
IONMODE=
ORGANISM=MONA
NAME=MoNA:2563896 Gibberellic acid A4 [M-H]-
PI=MoNA
DATACOLLECTOR=MoNA
PUBMED=N/A
SUBMITUSER=mwang87
TAGS=
SPECTRUMID=CCMSLIB00000574441
SCANS=11692
225.226 2.544612 
242.979 1.752028 
269.221 1.179606 
286.885 1.641947 
287.613 1.043453 
330.94 100.0 
331.557 28.360371 
END IONS

