BEGIN IONS
PEPMASS=279.16
CHARGE=1+
COMPOUNDNAME=(1R,2E,7R,10E,12S,13S,15R)-12,15-dihydroxy-7-methyl-8-oxabicyclo[11.3.0]hexadeca-2,10-dien-9-one
LIBRARYQUALITY=3
SMILES=N/A
INCHIKEY=KQNZDYYTLMIZCT-SWGFJCPHSA-N
INCHI=InChI=1S/C16H24O4/c1-11-5-3-2-4-6-12-9-13(17)10-14(12)15(18)7-8-16(19)20-11/h4,6-8,11-15,17-18H,2-3,5,9-10H2,1H3/b6-4+,8-7+/t11-,12+,13-,14+,15+/m1/s1
MSLEVEL=2
SOURCE_INSTRUMENT=N/A-ESI-QFT
FILENAME=library_mgf.mgf
SEQ=*..*
IONMODE=negative
ORGANISM=MONA
NAME=(1R,2E,7R,10E,12S,13S,15R)-12,15-dihydroxy-7-methyl-8-oxabicyclo[11.3.0]hexadeca-2,10-dien-9-one [M-H]-
PI=MoNA
DATACOLLECTOR=MoNA:VF-NPL-QEHF022872
PUBMED=N/A
SUBMITUSER=mwang87
TAGS=
SPECTRUMID=CCMSLIB00004713935
SCANS=22872
50.08691 0.104498 
50.475708 0.150131 
50.511688 0.036581 
52.012405 0.100249 
52.014828 0.029475 
53.716438 0.1132 
54.486168 0.039072 
55.017536 2.986652 
56.446304 0.046772 
57.033199 7.884979 
57.158623 0.170392 
57.276936 0.031461 
58.420082 0.046817 
58.92923 0.133549 
59.01247 6.782723 
59.179893 0.030484 
60.331676 0.030376 
60.417881 0.07934 
60.583195 0.114039 
61.226456 0.029845 
61.98695 2.973196 
62.559753 0.093403 
62.652962 0.143949 
63.119335 0.028969 
63.943268 0.56027 
63.961098 1.023635 
65.038307 4.780384 
66.131783 0.109231 
66.217636 0.117685 
67.508774 0.112196 
68.246429 0.049596 
68.691139 0.14297 
68.810837 0.083956 
69.033203 1.366121 
69.25322 0.147488 
69.84742 0.086871 
70.217773 0.095408 
71.012543 0.245507 
71.048798 0.05637 
71.085213 0.117909 
71.192482 0.030409 
73.27298 0.177292 
73.590546 0.191968 
75.533318 0.113625 
75.700867 0.042091 
76.951187 0.10105 
77.925232 0.138321 
78.014366 0.097292 
78.437447 0.096939 
78.957642 0.182901 
78.966827 2.231664 
78.984566 0.857428 
79.488441 0.123774 
79.892616 0.092038 
79.955986 14.536636 
80.025436 0.376457 
80.683945 0.129855 
80.963882 2.629633 
81.033234 22.620419 
81.220856 0.086488 
81.951805 0.195369 
81.992989 0.177213 
82.036545 0.302173 
82.073555 0.173579 
82.361145 0.107943 
83.012482 5.419345 
83.048897 5.623156 
84.647942 0.042547 
84.686836 0.065129 
88.317673 0.162807 
88.3862 0.160748 
90.931992 0.095127 
91.05394 0.918127 
92.447006 0.093587 
92.927635 0.404807 
93.033226 1.821248 
93.415436 0.170524 
93.673271 0.121614 
94.919037 0.117518 
94.979523 2.555114 
95.012474 4.735357 
95.048882 2.944964 
95.950935 0.965379 
96.553871 0.082524 
96.796341 0.170264 
96.958778 65.938217 
96.975197 0.055679 
97.028351 0.705264 
97.064461 0.270199 
97.929871 0.034895 
98.655518 0.086545 
98.954536 0.954891 
98.963013 0.164263 
99.087257 0.031635 
99.635048 0.04482 
99.924484 1.896123 
100.924622 0.12761 
100.932159 0.100713 
101.716866 0.126728 
101.95787 0.115579 
105.069656 4.783326 
105.756599 0.089713 
106.041122 1.170379 
106.069077 0.064525 
106.237579 0.085827 
107.04895 1.004126 
107.922539 0.154243 
108.020416 19.802437 
109.028191 100.0 
109.064583 1.148784 
109.161285 0.043819 
109.390465 0.085168 
110.031563 5.830604 
110.03595 3.279615 
111.043854 20.012943 
111.321182 0.083827 
111.460724 0.113198 
112.047432 0.729384 
113.924721 0.032998 
115.054291 0.26968 
115.148941 0.03062 
115.919434 1.210011 
116.105965 0.038141 
116.919693 0.038801 
116.927284 0.051543 
118.334099 0.166631 
119.085075 0.101072 
119.802986 0.137704 
121.028244 2.963337 
121.064674 3.06101 
123.043716 0.290881 
123.080254 0.449654 
124.222878 0.102633 
125.510765 0.163613 
125.539642 0.172756 
125.794456 0.085321 
126.95153 0.033416 
127.038681 0.152525 
129.552536 0.168296 
131.057129 0.117466 
135.08046 0.630774 
135.122986 0.17026 
135.240112 0.168557 
135.269852 0.12054 
136.051819 0.412513 
137.023254 6.68755 
138.031143 1.257141 
138.130508 0.032812 
138.991959 0.160235 
138.999802 0.422682 
139.038879 33.156925 
139.706665 0.127531 
140.042282 1.280767 
140.480927 0.039862 
142.026489 0.269647 
142.813263 0.128003 
145.100754 0.107179 
145.897995 0.062512 
146.131729 0.097539 
146.8974 0.235687 
147.535355 0.182434 
147.589813 0.041141 
148.899445 4.956125 
149.044418 0.146038 
151.906204 0.092328 
152.046921 0.900553 
152.328552 0.08546 
152.517715 0.099096 
152.916809 0.235151 
153.284485 0.03766 
153.422729 0.13573 
154.03212 0.088309 
154.91243 0.059423 
155.20163 0.118094 
156.906708 0.044753 
160.051941 2.144949 
162.519974 0.09976 
162.892471 0.650022 
162.915207 0.321132 
164.894485 9.266781 
165.05484 0.410918 
167.49649 0.036702 
167.889374 0.087712 
168.379868 0.093301 
169.64003 0.116297 
171.401993 0.058192 
172.187851 0.123927 
173.06012 0.399037 
173.132706 0.313831 
176.215927 0.095892 
177.127518 1.154485 
177.902161 0.574608 
177.927612 0.144203 
178.13089 0.033679 
178.811829 0.089391 
180.146515 0.17115 
186.897598 0.087267 
187.075928 0.062795 
187.535812 0.040135 
188.003738 0.146184 
188.082718 0.042692 
189.728745 0.133439 
191.056168 0.114458 
193.316544 0.032216 
194.99617 0.040707 
201.649994 0.03205 
205.159195 0.056454 
205.325531 0.154417 
205.860092 0.081327 
206.90564 0.040306 
206.9823 0.060926 
210.176208 0.135685 
217.158783 0.176387 
217.425461 0.040196 
219.582611 1.056263 
219.59227 0.927103 
221.958359 0.117815 
223.839645 0.031923 
226.632828 0.058755 
226.821152 0.160965 
230.084076 0.247539 
232.144257 0.044951 
235.827087 0.177058 
240.60994 0.251843 
254.995209 0.046085 
255.453934 0.168048 
257.898071 0.176345 
259.03949 0.036979 
261.149567 2.015283 
261.340973 0.057592 
263.920349 0.114901 
271.947723 0.110169 
274.448883 0.100067 
275.542114 0.036638 
278.580048 0.104545 
279.161621 0.295329 
281.120148 0.047152 
283.698517 0.129077 
290.783417 0.103006 
302.553802 0.110255 
END IONS

