BEGIN IONS
PEPMASS=403.291
CHARGE=1+
COMPOUNDNAME=ACTINONIN
LIBRARYQUALITY=3
SMILES=N/A
INCHIKEY=XJLATMLVMSFZBN-VYDXJSESSA-N
INCHI=InChI=1S/C19H35N3O5/c1-4-5-6-8-14(11-16(24)21-27)18(25)20-17(13(2)3)19(26)22-10-7-9-15(22)12-23/h13-15,17,23,27H,4-12H2,1-3H3,(H,20,25)(H,21,24)/t14-,15+,17+/m1/s1
MSLEVEL=2
SOURCE_INSTRUMENT=N/A-ESI-QFT
FILENAME=library_mgf.mgf
SEQ=*..*
IONMODE=positive
ORGANISM=MONA
NAME=ACTINONIN [M+NH4]+
PI=MoNA
DATACOLLECTOR=MoNA:VF-NPL-QEHF027318
PUBMED=N/A
SUBMITUSER=mwang87
TAGS=
SPECTRUMID=CCMSLIB00004720899
SCANS=27318
50.440475 0.03373 
50.444866 0.036766 
50.44603 0.075908 
51.940224 0.065205 
52.361244 0.048373 
52.604134 0.044195 
52.727898 0.078586 
53.038887 0.206317 
53.131081 0.061462 
53.150661 0.033899 
53.18457 0.04291 
53.315166 0.091739 
53.348042 0.068765 
53.433552 0.077977 
53.823578 0.046527 
53.933708 0.034821 
54.483829 0.072619 
54.515781 0.038604 
55.018066 0.041304 
55.054482 25.119205 
55.934624 0.343369 
56.049721 14.865964 
56.365459 0.080495 
56.458931 0.034825 
56.681812 0.084371 
56.852364 0.040697 
56.965023 96.823143 
56.97316 0.035954 
57.033699 0.394255 
57.05751 0.647608 
57.070107 10.562771 
57.071617 0.082678 
57.158989 0.076226 
57.464882 0.044745 
57.492901 0.021828 
57.570824 0.065574 
57.935009 0.28126 
58.065369 0.143912 
59.435448 0.085254 
59.529976 0.088962 
59.930393 0.670974 
60.530148 0.046063 
61.010853 0.597218 
61.294647 0.076198 
61.44458 0.079214 
61.500095 0.04902 
61.594952 0.043299 
61.663937 0.020426 
62.0186 0.265242 
62.866039 0.04472 
63.619698 0.101568 
63.708176 0.105064 
63.850872 0.087234 
64.262665 0.0254 
64.817749 0.083202 
64.862572 0.037375 
65.06163 0.086531 
65.298119 0.070497 
66.084229 0.044236 
66.47126 0.077418 
67.054298 12.940247 
67.497299 0.077602 
67.593575 0.059073 
67.715981 0.025452 
67.721512 0.021505 
67.84407 0.099257 
67.848167 0.080551 
67.989517 0.049571 
68.049545 0.043995 
68.08886 0.018568 
68.564095 0.044616 
68.825027 0.065609 
68.921242 0.040051 
68.924545 0.026073 
69.0336 0.137797 
69.069885 1.589538 
69.349548 0.05033 
69.469536 0.077862 
69.758575 0.037294 
70.030182 0.071355 
70.065117 1.047175 
70.205498 0.08331 
70.957932 0.055286 
70.980438 0.486541 
71.08551 1.825219 
71.520958 0.049669 
71.554276 0.038721 
71.6549 0.083617 
71.853119 0.096886 
71.871201 0.070842 
71.929192 0.027938 
71.951736 0.11804 
72.044136 0.068592 
72.080757 68.772987 
72.937164 0.112065 
72.959641 0.260321 
73.028313 0.23046 
73.06443 0.041235 
73.118896 0.060579 
74.855751 0.023978 
74.975357 1.563629 
75.12442 0.061065 
75.309303 0.077802 
76.329819 0.043539 
78.152176 0.020649 
78.395073 0.024876 
78.402008 0.084992 
78.907616 0.080575 
79.054207 0.209421 
79.797905 0.054021 
79.9701 0.053397 
81.069847 0.773732 
81.096649 0.038485 
81.333878 0.035248 
81.540749 0.090751 
81.60228 0.041723 
82.065048 2.610049 
82.378044 0.041985 
83.049088 0.732337 
83.085495 0.759754 
83.134338 0.095957 
83.556702 0.063821 
83.975693 1.64731 
84.080757 54.240082 
84.083618 0.916808 
84.433571 0.049734 
84.95961 0.293119 
85.039642 0.077498 
85.064728 9.252317 
85.101112 0.239939 
85.364967 0.038151 
85.502647 0.085987 
86.251831 0.036486 
86.868378 0.058135 
87.043961 1.374848 
87.403442 0.038604 
88.580948 0.0436 
88.880684 0.048357 
89.05954 0.104303 
89.939522 0.05472 
90.201721 0.025813 
90.447914 0.038223 
90.618881 0.094206 
90.636459 0.04858 
90.751732 0.079101 
90.929161 0.039595 
90.947662 0.185398 
91.054268 0.303747 
91.234406 0.079586 
91.980476 0.087745 
93.610512 0.043007 
94.69503 0.042001 
95.085403 1.162253 
95.665298 0.058108 
95.975739 0.048502 
97.101089 1.125444 
98.0597 0.048354 
98.526512 0.085001 
98.856995 0.021867 
98.975151 0.095651 
100.075661 1.437002 
101.400887 0.082777 
101.986092 0.053547 
102.091293 100.0 
102.267792 0.042927 
105.069672 0.06532 
105.106171 0.043367 
105.30619 0.034549 
106.789688 0.088462 
106.79966 0.02326 
106.966599 0.02376 
107.085548 0.061542 
107.678535 0.040491 
107.950722 0.024566 
109.101334 0.026479 
109.282616 0.022604 
109.633789 0.037887 
109.886879 0.088769 
109.991348 0.577559 
110.676254 0.042542 
110.975388 0.029953 
111.044128 0.221286 
111.864334 0.079411 
112.075577 13.780839 
112.079163 0.100152 
113.279549 0.043369 
114.475586 0.090237 
114.969055 0.021376 
115.006546 0.307614 
115.343231 0.041958 
115.747429 0.038364 
116.001663 0.319085 
118.765694 0.036211 
119.824074 0.038345 
120.720047 0.042189 
121.064407 0.047561 
122.105103 0.045634 
122.25885 0.041294 
123.386871 0.107454 
124.006989 1.195855 
124.02346 0.089639 
124.470673 0.09045 
124.787743 0.051063 
125.096024 0.233508 
125.515045 0.040716 
126.02253 1.073741 
126.282173 0.037632 
127.006485 0.127197 
127.630402 0.043688 
128.001724 0.451671 
128.07045 1.319659 
128.297699 0.085039 
128.96344 0.038272 
129.022461 0.08187 
129.553726 0.068757 
130.017715 0.094516 
130.979263 0.089088 
131.036301 0.027027 
132.95816 1.049229 
133.004761 0.060367 
133.016586 0.027628 
133.549759 0.04339 
133.774094 0.038675 
133.922836 0.022913 
134.167343 0.029164 
134.6203 0.040906 
135.211731 0.066809 
135.280212 0.024081 
136.007019 0.984841 
137.318832 0.076547 
138.022507 5.607883 
138.569778 0.065331 
140.001541 0.117112 
140.037781 0.047146 
140.106995 0.171773 
141.022278 0.64022 
141.225739 0.055278 
142.01738 0.660756 
144.03302 0.511045 
145.491379 0.022424 
145.715668 0.089639 
146.011902 0.026532 
146.048798 0.030492 
146.974274 1.005681 
147.032257 0.158193 
147.749634 0.047935 
147.973831 0.051039 
148.972412 0.074674 
149.985901 0.041662 
150.451355 0.088546 
150.968796 0.788575 
152.108444 0.040061 
152.951508 0.043128 
153.99205 0.025549 
154.017395 7.968082 
154.946762 0.054663 
155.000183 0.031731 
155.037827 0.043585 
155.136154 0.027171 
155.727493 0.043448 
156.033035 22.229015 
157.883377 0.094009 
158.048706 5.793593 
158.579849 0.022313 
159.032715 0.528521 
160.027634 0.073954 
160.111908 0.030233 
160.681046 0.101128 
161.05777 0.048595 
161.251022 0.043033 
162.732071 0.041057 
163.017029 0.090669 
163.252182 0.042881 
165.13826 0.045669 
166.017426 0.386945 
166.665344 0.034522 
167.116653 0.028331 
167.31842 0.024711 
168.032974 3.865554 
169.004211 0.335303 
170.117264 0.100309 
170.265488 0.081381 
172.005798 0.043796 
172.027832 6.195255 
172.368729 0.047113 
172.911255 0.04008 
173.467606 0.094594 
174.043671 14.229438 
175.02771 0.026396 
175.599518 0.019492 
176.05928 3.685928 
179.099136 0.086045 
179.117966 0.10617 
180.070145 0.024609 
180.887711 0.06616 
181.028198 3.414047 
181.734009 0.081884 
181.764191 0.079476 
182.048737 0.092515 
183.060501 0.037167 
183.069199 0.090654 
184.028046 2.914416 
184.06459 0.1608 
184.883453 0.083952 
186.04361 3.379786 
186.080093 0.292187 
186.112473 0.027807 
186.272293 0.045237 
186.600555 0.023877 
187.015106 0.092771 
187.038422 0.058125 
188.059143 0.040143 
188.733215 0.026035 
189.079575 0.304738 
190.038574 0.369888 
190.874374 0.0222 
192.054153 0.504019 
192.222549 0.0216 
192.788498 0.087665 
193.632721 0.047296 
194.047745 0.049325 
196.064453 0.320809 
196.859436 0.069877 
198.043671 0.053894 
198.079941 11.597733 
198.854111 1.611813 
199.038818 4.360639 
199.064041 0.102537 
199.074951 0.100497 
199.870789 0.046358 
200.059036 0.020569 
200.279053 0.0433 
200.381546 0.051032 
201.053436 0.1105 
201.079254 0.044762 
202.0383 1.078854 
202.074692 0.102026 
203.095856 0.086764 
204.054886 0.086381 
204.090179 0.140447 
208.063843 0.333802 
210.080032 1.840113 
210.943726 0.109825 
212.059647 0.204046 
212.09581 0.507643 
214.074768 0.584247 
215.106873 0.114509 
215.474213 0.085493 
216.0905 15.731302 
216.864563 0.545 
217.049744 0.345077 
217.313919 0.045403 
218.54422 0.041148 
219.770798 0.730304 
219.787659 0.101213 
219.862808 0.028598 
220.099792 0.130103 
220.903244 0.171093 
222.080154 0.089937 
222.115204 0.057154 
222.46846 0.070287 
222.898575 1.570895 
225.041534 0.076562 
225.090668 0.557166 
226.074707 2.760979 
226.894302 0.192573 
228.090439 3.968009 
228.163712 0.042547 
229.896393 0.040368 
230.106232 1.260938 
232.048721 0.067949 
232.303711 0.042349 
234.101044 2.984295 
235.059631 0.28442 
238.111053 0.625342 
238.388046 0.068384 
238.913727 0.107989 
239.092514 0.044388 
239.174347 0.041594 
240.090363 1.45741 
240.127808 0.073117 
240.86438 0.02655 
240.909103 1.502938 
241.085831 1.696408 
241.866058 0.10043 
241.881714 0.460143 
243.101242 0.978713 
244.085449 1.376943 
244.904984 0.336987 
246.100601 0.146417 
247.600723 0.041623 
248.117004 0.138218 
248.772339 0.068076 
250.110596 0.049342 
250.710754 0.044428 
251.902451 0.246406 
252.126602 1.831475 
254.128067 0.110744 
256.12207 0.136845 
258.101044 0.206027 
258.875 0.307789 
259.096344 12.093367 
259.891693 0.130217 
266.009216 0.040687 
268.121887 0.025371 
269.153534 0.083332 
270.137421 4.787419 
270.858887 0.024789 
270.930206 0.089646 
271.151855 0.111405 
277.091309 0.088993 
277.106873 8.215635 
277.122589 0.114189 
279.137695 0.815181 
283.262421 0.163287 
284.893555 0.030418 
285.181427 0.09526 
285.982117 0.045417 
288.147797 0.794031 
297.148499 0.608651 
301.016449 0.023748 
313.143219 0.031626 
324.356567 0.042963 
329.754822 0.105053 
331.155182 0.054666 
338.991516 0.082213 
340.270752 0.048529 
340.652802 0.050641 
341.018646 0.13686 
349.957275 0.044252 
352.433594 0.041392 
358.854126 0.106925 
374.717194 0.098473 
381.640137 0.026868 
385.722748 0.042543 
389.665405 0.046703 
392.312592 0.08923 
397.043457 0.101024 
401.279541 0.041332 
403.346252 0.037093 
403.964203 0.161674 
404.444366 0.09554 
404.960663 0.056946 
413.397705 0.026318 
END IONS

