BEGIN IONS
PEPMASS=619.376
CHARGE=1+
COMPOUNDNAME=Astaxanthin
LIBRARYQUALITY=3
SMILES=N/A
INCHIKEY=MQZIGYBFDRPAKN-QISQUURKSA-N
INCHI=InChI=1S/C40H52O4/c1-27(17-13-19-29(3)21-23-33-31(5)37(43)35(41)25-39(33,7)8)15-11-12-16-28(2)18-14-20-30(4)22-24-34-32(6)38(44)36(42)26-40(34,9)10/h11-24,35-36,41-42H,25-26H2,1-10H3/b12-11+,17-13+,18-14+,23-21+,24-22+,27-15+,28-16+,29-19+,30-20+
MSLEVEL=2
SOURCE_INSTRUMENT=N/A-ESI-QFT
FILENAME=library_mgf.mgf
SEQ=*..*
IONMODE=positive
ORGANISM=MONA
NAME=Astaxanthin [M+Na]+
PI=MoNA
DATACOLLECTOR=MoNA:VF-NPL-QEHF003107
PUBMED=N/A
SUBMITUSER=mwang87
TAGS=
SPECTRUMID=CCMSLIB00004694170
SCANS=3107
50.715332 0.079696 
51.524384 0.066914 
53.039379 0.441464 
53.233822 0.08188 
53.490604 0.075275 
54.088753 0.073744 
54.885742 0.089558 
55.018631 0.77906 
55.055 8.734532 
55.40913 0.067632 
55.935173 0.329475 
56.943695 0.071773 
57.034256 0.404534 
57.070633 14.710519 
58.06583 0.101836 
58.073845 0.216162 
59.049854 1.287637 
59.370384 0.085344 
59.650688 0.071639 
59.742622 0.155955 
60.04517 0.570973 
60.129959 0.077516 
60.40958 0.077166 
61.011368 11.672321 
61.543369 0.075862 
62.019142 0.11811 
62.951759 0.098986 
62.982456 2.243911 
63.007111 0.405828 
64.497154 0.06938 
64.654549 0.078138 
64.978096 0.104236 
65.686104 0.064456 
65.980286 0.178408 
66.614128 0.077368 
66.640457 0.06629 
67.004456 0.069731 
67.054924 18.80685 
67.638176 0.159911 
69.034164 2.71511 
69.070557 21.720226 
69.092224 0.190518 
70.065742 0.329686 
71.013153 0.106179 
71.02626 0.077803 
71.049744 1.414137 
71.057503 0.196192 
71.08622 6.576029 
72.937759 0.548695 
73.029091 0.341444 
73.065414 0.578622 
73.624275 0.178192 
74.097038 0.156986 
75.044647 0.201444 
77.685852 0.074583 
78.763092 0.099713 
79.02182 6.752732 
79.052406 0.094272 
79.054855 4.510521 
80.948441 3.152337 
81.034088 0.103562 
81.070457 11.644582 
82.073921 0.20248 
82.945412 0.471295 
83.049683 4.166217 
83.086082 8.437888 
84.081306 0.177829 
84.497971 0.169003 
85.028954 0.123675 
85.065331 1.406288 
85.09507 0.16386 
85.101723 2.589469 
86.097084 0.214779 
87.04464 1.83778 
87.17791 0.20565 
87.488564 0.203777 
87.982056 0.087118 
88.978653 1.109158 
89.060211 11.569649 
89.96402 0.163146 
90.948105 1.011252 
91.054779 4.136625 
91.05761 0.294875 
92.020332 0.076165 
93.070358 9.525838 
94.02684 0.13883 
94.029961 0.076579 
95.049599 4.714574 
95.085953 41.662109 
96.052498 0.085603 
96.089394 0.132269 
96.922256 0.280904 
97.065178 2.00224 
97.101601 5.273887 
98.548141 0.074945 
98.611992 0.205876 
99.04454 1.188684 
99.080811 0.227359 
100.075623 0.112119 
100.112694 0.083094 
101.003532 1.610293 
101.060104 1.552311 
104.992653 3.245229 
105.070274 5.463775 
107.0495 0.831075 
107.085838 10.172751 
107.967163 1.524672 
108.74955 0.080081 
108.958366 0.223018 
109.028702 0.386778 
109.065048 4.017618 
109.101501 7.044197 
110.104454 0.358529 
111.044342 1.344521 
111.080704 2.102308 
111.11705 0.515855 
112.102249 0.18638 
113.059891 0.328811 
113.666115 0.08707 
114.892319 0.084459 
115.77253 0.075993 
116.425316 0.084418 
116.963326 0.097696 
116.985519 0.092793 
117.070099 0.807842 
118.143242 0.090508 
118.395264 0.082514 
118.971695 0.087276 
119.049446 0.1836 
119.081642 0.270362 
119.085808 5.333662 
119.355209 0.083612 
119.392799 0.083164 
120.00325 0.188135 
121.065002 4.34002 
121.101349 3.405144 
122.046028 0.225821 
123.044403 0.260777 
123.08065 6.141685 
123.11705 1.660043 
124.487549 0.185623 
125.059853 1.193512 
125.096252 3.631908 
125.961182 0.107035 
127.075455 0.218261 
127.557259 0.093498 
128.953506 0.257656 
128.963196 0.680762 
129.049301 0.08281 
129.054657 0.344891 
129.360138 0.06963 
130.213882 0.081415 
131.049164 0.107697 
131.085571 3.402044 
131.468811 0.079948 
131.974548 0.093183 
132.987244 0.855898 
133.064911 0.561022 
133.086029 1.569528 
133.101257 3.909031 
134.956619 0.445883 
134.974106 0.403064 
135.002762 1.131037 
135.043915 0.377915 
135.080536 3.892233 
135.116928 3.141987 
137.05957 1.129802 
137.0961 2.040833 
139.039032 0.433538 
139.075195 1.044573 
140.959183 0.308074 
141.090607 0.077208 
142.463593 0.075797 
142.661041 0.069379 
142.938492 2.018756 
143.085526 1.852588 
144.95787 0.108053 
145.06485 0.863256 
145.101181 3.790783 
145.989792 0.097357 
146.272614 0.074478 
146.973984 0.794949 
147.080475 3.371736 
147.116837 3.607168 
148.971741 1.638111 
149.039078 0.209918 
149.059845 4.318136 
149.096085 1.764965 
149.132492 0.334321 
149.905563 0.079576 
150.013779 0.08635 
150.951126 1.910467 
150.968201 0.356642 
151.039429 0.101371 
151.075348 2.975634 
151.111786 0.200479 
152.966644 0.525782 
153.05481 0.63186 
153.090927 0.493081 
153.959091 0.096837 
154.122528 0.501228 
155.08551 0.822046 
157.101089 1.983163 
158.011093 0.430768 
159.080368 2.174046 
159.116745 2.313726 
160.005859 0.177386 
160.120041 0.090449 
160.989441 0.116306 
161.059692 0.123251 
161.095993 1.346475 
161.13266 0.559289 
163.075073 1.05115 
163.11174 1.113493 
163.148575 0.182778 
164.920471 1.722829 
165.054657 0.100342 
165.091064 2.788443 
166.932175 0.166927 
166.982254 0.257842 
167.034012 1.77218 
168.917328 1.396645 
168.961624 1.425395 
169.101135 0.775757 
170.010681 0.114516 
170.961777 0.151064 
171.080475 0.783762 
171.116882 0.549645 
171.904007 0.105172 
172.005493 0.716235 
172.02626 0.159011 
172.989029 0.108251 
173.078354 0.090758 
173.0961 1.762883 
173.132492 1.645803 
173.985214 0.147551 
174.005905 1.604154 
174.415817 0.07854 
175.0755 1.449844 
175.111649 1.07368 
175.820389 0.095356 
176.001221 0.406676 
176.021744 0.273987 
177.090927 8.154458 
177.127808 0.660397 
179.033737 2.555452 
179.104858 0.084306 
181.100998 0.139011 
183.116913 0.343064 
183.981308 0.098984 
184.291718 0.088086 
184.932419 0.188314 
185.059692 0.116597 
185.09613 0.509204 
185.132523 0.814975 
186.021027 0.144423 
186.778336 0.163495 
186.878281 0.105848 
186.927765 9.854394 
187.075012 0.104679 
187.111877 3.962415 
187.148575 0.712392 
188.000687 0.114242 
188.0215 1.275262 
188.372452 0.09688 
188.924683 0.809373 
189.054764 0.228565 
189.091156 0.717678 
189.127487 0.436458 
189.631058 0.169139 
190.01709 0.227633 
191.07016 2.934669 
191.106583 1.055899 
192.96167 4.470043 
193.031754 0.181574 
193.049973 0.451084 
193.085983 0.45539 
193.122818 0.122832 
194.114944 0.553775 
195.065292 8.551143 
195.080963 0.112958 
195.117172 0.58266 
197.04451 0.183778 
197.09549 0.099808 
197.132492 1.144325 
199.005417 0.113822 
199.075272 0.259935 
199.111893 0.31528 
201.021454 0.139287 
201.091156 0.297713 
201.12706 0.352143 
202.037598 0.146435 
203.070328 1.152542 
203.106583 1.953134 
203.143417 0.12298 
205.051682 0.194807 
205.085999 1.925974 
205.122253 0.989099 
207.030472 0.12645 
207.047607 0.096371 
209.011612 0.095081 
209.11702 7.842664 
209.133011 0.098512 
209.457123 0.197623 
209.97525 0.10288 
210.184921 0.104818 
210.972168 3.963023 
213.022247 0.093832 
213.090744 0.250611 
213.12735 3.1127 
214.893112 0.214432 
215.07045 0.1089 
215.107162 0.1115 
215.143066 5.537824 
217.049271 0.169313 
217.0858 2.673854 
217.122208 0.336522 
218.058258 0.109975 
218.284332 0.087342 
219.065353 0.868425 
219.138306 0.236365 
221.024857 0.097815 
221.062485 0.0978 
221.080475 1.384191 
221.117294 1.227301 
222.898605 1.203955 
223.096329 0.461323 
223.112335 0.592477 
224.072998 0.248294 
225.021027 0.36911 
225.126587 0.219762 
227.104507 1.839739 
227.200531 0.276997 
229.085876 0.148816 
229.895203 0.453562 
231.028946 3.36137 
231.065231 3.92057 
231.101212 0.754949 
231.137909 1.032024 
232.073364 0.523644 
232.091675 0.90683 
233.044632 4.588333 
233.081116 0.786217 
233.116806 0.221983 
233.153641 1.690733 
233.189667 0.176781 
235.09642 27.520617 
235.132523 0.101646 
236.162354 0.088934 
237.112198 2.091088 
238.66217 0.088545 
238.913269 0.130239 
239.086731 0.412413 
239.106155 0.124148 
239.900925 0.180922 
240.909424 4.464705 
241.051163 0.273639 
241.086304 0.183122 
241.122314 2.870831 
242.0466 0.289349 
243.065796 1.213276 
243.101959 0.111104 
243.121796 0.214052 
243.137924 3.478784 
245.04512 2.468325 
245.081131 0.890355 
245.117508 0.377589 
245.891495 0.124506 
245.91124 0.142308 
247.026016 0.210663 
247.060028 1.233848 
247.096863 0.109764 
247.132812 0.420103 
247.906403 0.750875 
249.020859 0.089109 
249.113052 0.199236 
250.177216 0.177594 
251.071579 0.097681 
251.106735 0.189345 
252.031296 0.260911 
253.092194 0.366666 
253.106857 19.939083 
253.121277 0.24383 
255.065979 1.603693 
255.895935 0.157924 
256.073212 0.123759 
257.081573 1.199109 
257.117126 0.129364 
257.154083 0.101697 
257.66156 0.206666 
258.088898 3.105876 
259.096313 1.754341 
259.132599 3.535758 
260.0578 4.507003 
261.05896 0.103841 
261.075592 0.098263 
261.111572 0.555864 
261.148438 0.869155 
262.913574 0.209414 
263.036621 0.101814 
263.901245 5.54405 
264.908936 3.58006 
265.087402 0.155911 
265.10199 0.111432 
265.910919 0.103296 
266.924591 0.092184 
267.065582 0.32417 
268.071075 0.093346 
269.082336 1.137273 
269.116791 0.178016 
269.246979 0.561956 
270.106842 0.082511 
271.060944 0.125038 
271.097107 0.36278 
271.132904 6.515489 
273.075928 1.579719 
273.111603 0.362067 
273.146759 0.175402 
274.104492 0.10858 
274.11972 3.003307 
275.127777 0.583537 
277.916809 0.168011 
278.924652 0.47875 
279.917236 0.406693 
280.9039 1.579818 
280.923126 0.202213 
281.08139 0.259831 
281.11792 0.207376 
281.911835 48.671921 
282.914368 11.178299 
283.059753 6.993173 
283.097229 0.225195 
283.132874 1.037848 
283.263184 1.538768 
283.915344 8.468364 
284.918945 0.403183 
285.075989 0.178945 
285.11264 0.466603 
285.148285 5.73888 
285.164093 0.089811 
287.090912 0.189116 
287.127808 1.564983 
287.164062 1.26805 
288.135468 27.673306 
288.151428 0.884296 
289.107239 0.213963 
289.142395 0.343164 
289.916199 0.088641 
291.100159 0.119319 
293.117126 0.164881 
295.059814 8.440331 
295.132507 0.196993 
295.927429 1.447478 
296.933929 0.285342 
297.075806 2.778407 
297.111603 0.575503 
297.148682 0.348337 
297.434692 0.181192 
298.109253 0.947984 
298.218903 0.097667 
299.093109 0.111271 
299.127533 4.514707 
299.164185 1.608582 
300.126923 0.179049 
301.106384 0.124154 
301.143677 0.203771 
301.826996 0.109603 
303.121887 0.215187 
304.904572 0.489951 
304.92453 0.417159 
306.920166 2.245778 
307.097015 0.128451 
307.134735 0.106344 
309.075989 1.102284 
309.11203 0.514275 
309.149567 0.821085 
309.326263 1.483998 
310.153809 0.104939 
310.31012 0.577135 
311.091461 1.13756 
311.127533 9.923876 
311.163727 1.4937 
312.135559 0.133664 
312.839996 0.10784 
313.143524 3.228843 
313.179596 3.668674 
314.151215 4.166857 
315.086945 0.221733 
315.123779 2.578569 
315.158813 16.481974 
316.120789 0.944513 
316.904694 0.152587 
317.032166 0.247329 
318.824921 0.103266 
318.919617 0.140621 
318.949921 0.177273 
319.096252 0.735435 
319.132446 0.113617 
320.104218 0.118565 
321.111328 0.224964 
322.914459 24.845659 
323.091217 2.376725 
323.127411 1.365507 
323.916748 6.714841 
324.917938 6.723567 
325.106934 0.809832 
325.143372 3.433724 
325.179596 0.118359 
325.921448 0.209032 
326.151184 0.125142 
327.122833 3.414951 
327.159058 7.133658 
329.101318 0.166131 
329.138123 2.710787 
329.174896 3.175774 
333.11264 0.412461 
333.149078 0.682945 
335.127777 0.139348 
335.165863 2.506688 
335.831757 0.10093 
336.168945 0.153419 
336.838654 1.547677 
336.930206 0.205566 
337.106659 4.891003 
337.142822 2.169675 
337.18045 2.55352 
337.355865 0.118659 
337.844879 0.12803 
338.115417 0.572811 
338.931549 0.115395 
339.086121 1.712121 
339.122711 1.447252 
339.158966 4.217257 
340.182495 0.078519 
341.102386 0.413439 
341.138458 0.699073 
341.174927 1.5544 
343.153992 3.968539 
344.160339 0.331977 
345.132996 0.266611 
345.169312 0.665605 
347.139893 0.668137 
347.164856 0.247524 
347.187714 0.274338 
349.142059 0.165645 
349.179993 0.6795 
349.926666 0.085075 
351.086212 0.617091 
351.122467 13.282097 
351.158691 1.995427 
351.195709 1.332052 
353.101685 0.319154 
353.138 8.298042 
353.174225 7.414931 
353.211426 0.72504 
353.841583 1.736211 
354.14682 0.489366 
354.846436 0.499238 
355.080475 0.10715 
355.118317 0.385898 
355.154175 1.687553 
355.191498 1.99148 
355.842529 0.167994 
356.123016 0.181491 
357.095612 0.260592 
357.132996 1.193394 
357.168915 7.4473 
357.206665 0.162288 
360.838379 27.415522 
361.181396 0.13314 
361.237366 4.46581 
361.840363 9.069948 
362.841339 11.892326 
363.158722 1.626235 
364.166473 0.136862 
365.103912 0.091523 
365.13855 3.006904 
365.174286 9.125698 
366.182465 3.017298 
367.116882 0.780245 
367.153503 9.247175 
367.190247 3.810229 
369.097046 0.158944 
369.169739 5.415534 
371.147949 2.467086 
371.185272 0.413619 
372.157532 0.378207 
373.16391 9.58149 
375.15863 1.78204 
376.165619 0.249564 
376.834839 0.138804 
377.174225 1.503343 
377.212219 0.09136 
377.841888 1.62234 
378.186646 0.110505 
378.848999 11.452735 
379.153748 18.744509 
379.189606 5.144459 
379.851227 3.60228 
380.161377 1.94144 
380.851532 5.58784 
381.169403 20.711538 
381.205658 3.006664 
381.513092 0.23606 
383.148712 0.957471 
383.185211 0.57838 
383.22113 0.152815 
385.164215 100.0 
387.180939 0.102956 
389.1763 2.385033 
390.182861 0.408061 
391.154083 0.123973 
391.188812 0.500393 
392.864349 0.359083 
393.169281 22.256319 
393.200745 0.874436 
393.242279 1.726201 
393.864929 0.149051 
394.176941 0.915744 
394.843811 9.434606 
395.18515 3.557548 
395.218719 0.118401 
395.847687 3.81964 
396.847961 3.710341 
397.165558 1.114634 
397.200989 4.74175 
397.273804 0.731404 
399.180023 5.071164 
400.260834 5.312583 
401.869049 0.265299 
403.192352 0.335686 
403.226471 1.97337 
405.243439 0.235291 
406.845367 0.203811 
407.148895 8.39179 
407.18512 14.301783 
407.215912 0.143925 
409.164001 39.379105 
409.198059 2.149253 
410.282471 0.119714 
411.179565 4.231754 
411.288025 0.352622 
412.854797 2.851937 
413.195557 4.214361 
413.857391 0.378346 
414.275909 43.686764 
414.855957 0.621049 
419.851593 20.911804 
419.881561 0.169376 
420.854187 7.764633 
421.165009 5.431778 
421.202271 1.436511 
421.235992 13.32615 
421.854492 13.697094 
422.856903 0.988771 
423.180176 0.160615 
425.159515 18.938215 
425.19455 3.205547 
425.267242 0.116719 
426.168152 0.199911 
427.174591 29.736055 
431.221283 5.162014 
433.236847 0.297562 
437.268555 1.111108 
437.861786 9.141233 
438.86496 3.221315 
439.175385 6.72287 
439.209259 0.738845 
439.246918 2.945475 
439.281525 0.133186 
439.865326 5.577026 
440.289917 0.144748 
441.299347 1.418866 
445.133636 0.208782 
447.214264 0.117427 
447.345673 0.576156 
449.231689 65.29509 
451.247589 1.336543 
451.878021 0.141172 
459.216003 3.280152 
465.297485 0.157369 
467.24231 27.338276 
470.302063 0.129926 
477.226654 40.019531 
479.280396 0.343144 
480.142731 1.006524 
481.138275 0.490957 
481.256866 0.209994 
493.223755 0.459884 
493.294586 2.73454 
494.221588 0.092795 
495.237 91.120773 
499.303864 0.173313 
499.360046 6.17787 
500.362793 0.641615 
505.293976 1.322322 
507.310028 1.007352 
519.309814 3.005316 
529.17395 0.15129 
533.325867 1.189262 
535.30426 2.547036 
542.48761 0.101158 
547.378479 0.747004 
551.299683 1.986347 
553.315247 1.384741 
575.372498 4.420785 
577.204285 0.114575 
593.382568 0.63332 
603.36438 0.129286 
617.459717 12.988065 
618.463562 9.434508 
619.313904 4.848011 
619.438293 68.275978 
620.314758 1.057743 
620.441833 21.435417 
621.416199 2.68831 
636.081116 0.104042 
END IONS

