BEGIN IONS
PEPMASS=282.17
CHARGE=1+
COMPOUNDNAME=Massbank:BML00718 Cycloheximide
LIBRARYQUALITY=3
SMILES=CC1CC(C(=O)C(C1)C(CC2CC(=O)NC(=O)C2)O)C
INCHIKEY=YPHMISFOHDHNIV-UHFFFAOYSA-N
INCHI=1S/C15H23NO4/c1-8-3-9(2)15(20)11(4-8)12(17)5-10-6-13(18)16-14(19)7-10/h8-12,17H,3-7H2,1-2H3,(H,16,18,19)
MSLEVEL=2
SOURCE_INSTRUMENT=ESI-LC-ESI-QTOF
FILENAME=Massbank_ESI_positive_8_1_2014_peaks.mgf
SEQ=*..*
IONMODE=Positive
ORGANISM=MASSBANK
NAME=Massbank:BML00718 Cycloheximide [M+H]+
PI=Putative Massbank Match
DATACOLLECTOR=Massbank
PUBMED=N/A
SUBMITUSER=mwang87
TAGS=
SPECTRUMID=CCMSLIB00000205017
SCANS=277
105.07 74.0 
107.0483 33.0 
107.0839 28.0 
107.0909 30.0 
109.0985 28.0 
115.0507 33.0 
117.0705 76.0 
119.0831 90.0 
121.0212 26.0 
121.0665 25.0 
121.1008 24.0 
123.0455 60.0 
127.0519 39.0 
128.0602 23.0 
129.0678 27.0 
131.0875 60.0 
142.0761 40.0 
143.0808 26.0 
144.0932 40.0 
159.0881 35.0 
159.1148 32.0 
170.1117 20.0 
END IONS

