BEGIN IONS
PEPMASS=734.469
CHARGE=1+
COMPOUNDNAME=Massbank:PB005803 Erythromycin|(2R,3R,4S,5R,8R,9S,10S,11R,12R,14R)-11-[(2S,3R,4S,6R)-4-(dimethylamino)-3-hydroxy-6-methyloxan-2-yl]oxy-5-ethyl-3,4,12-trihydroxy-9-[(2R,4R,5S,6S)-5-hydroxy-4-methoxy-4,6-dimethyloxan-2-y
LIBRARYQUALITY=3
SMILES=CCC1C(C(C(C(=O)C(CC(C(C(C(C(C(=O)O1)C)OC2CC(C(C(O2)C)O)(C)OC)C)OC3C(C(CC(O3)C)N(C)C)O)(C)O)C)C)O)(C)O
INCHIKEY=ULGZDMOVFRHVEP-UHFFFAOYSA-N
INCHI=1S/C37H67NO13/c1-14-25-37(10,45)30(41)20(4)27(39)18(2)16-35(8,44)32(51-34-28(40)24(38(11)12)15-19(3)47-34)21(5)29(22(6)33(43)49-25)50-26-17-36(9,46-13)31(42)23(7)48-26/h18-26,28-32,34,40-42,44-45H,14-17H2,1-13H3/t18-,19-,20+,21+,22-,23+,24+,25-,26+,28-,29+,30-,31+,32-,34+,35-,36-,37-/m1/s1
MSLEVEL=2
SOURCE_INSTRUMENT=ESI-LC-ESI-QTOF
FILENAME=Massbank_ESI_positive_8_1_2014_peaks.mgf
SEQ=*..*
IONMODE=Positive
ORGANISM=MASSBANK
NAME=Massbank:PB005803 Erythromycin|(2R,3R,4S,5R,8R,9S,10S,11R,12R,14R)-11-[(2S,3R,4S,6R)-4-(dimethylamino)-3-hydroxy-6-methyloxan-2-yl]oxy-5-ethyl-3,4,12-trihydroxy-9-[(2R,4R,5S,6S)-5-hydroxy-4-methoxy-4,6-dimethyloxan-2-y [M+H]+
PI=Putative Massbank Match
DATACOLLECTOR=Massbank
PUBMED=N/A
SUBMITUSER=mwang87
TAGS=
SPECTRUMID=CCMSLIB00000222301
SCANS=10668
116.106 30.03 
127.074 30.03 
158.117 3983.984 
159.119 280.28 
160.122 10.01 
176.127 20.02 
233.151 30.03 
284.182 30.03 
289.176 10.01 
307.187 20.02 
316.209 550.551 
317.212 80.08 
325.198 80.08 
326.201 10.01 
342.224 50.05 
343.225 10.01 
347.219 30.03 
365.229 120.12 
366.233 20.02 
383.239 130.13 
384.243 20.02 
401.25 10.01 
408.271 100.1 
409.273 20.02 
444.292 10.01 
464.296 60.06 
465.3 10.01 
482.307 60.06 
483.31 10.01 
500.318 80.08 
501.321 20.02 
522.338 1341.341 
523.341 370.37 
524.344 50.05 
540.349 1021.021 
541.352 280.28 
542.356 40.04 
558.36 2092.092 
559.362 620.621 
560.365 90.09 
574.354 10.01 
576.37 10000.0 
576.928 10.01 
577.374 2792.793 
578.376 390.39 
579.379 20.02 
698.441 110.11 
699.445 40.04 
716.452 190.19 
717.456 70.07 
718.46 10.01 
734.463 1011.011 
735.466 370.37 
736.468 70.07 
END IONS

