BEGIN IONS
TITLE=Scan Number: 2090
PEPMASS=405.267
CHARGE=1+
COMPOUNDNAME=lovastatin
LIBRARYQUALITY=3
SMILES=O=C([C@H](CC)C)O[C@@H]1[C@H]2C(C=C[C@H](C)[C@@H]2CC[C@H]3OC(C[C@@H](C3)O)=O)=C[C@@H](C1)C
INCHIKEY=PCZOHLXUXFIOCF-BXMDZJJMSA-N
INCHI=
MSLEVEL=2
SOURCE_INSTRUMENT=LC-ESI-qTof
FILENAME=f.TJLing/201606/standards new/20160706_lovastatin_P1-C-1_01_35240.mzXML;
SEQ=*..*
NOTES=
IONMODE=Positive
ORGANISM=GNPS-LIBRARY
NAME=lovastatin M+H
SPECTRUMID=CCMSLIB00000839194
ACTIVATION=CID
INSTRUMENT=ion trap
SCANS=2090
77.037712 412.0 
79.052811 9492.0 
80.054642 296.0 
81.068443 9912.0 
82.069939 576.0 
83.04863 3216.0 
85.063782 2064.0 
87.035789 496.0 
89.021904 1600.0 
91.053291 3500.0 
92.055 228.0 
93.067284 9436.0 
94.070839 496.0 
95.084084 5472.0 
96.085548 340.0 
97.063087 5592.0 
98.063904 680.0 
101.05587 392.0 
103.050377 364.0 
105.069229 28168.0 
106.07122 1376.0 
107.084991 19212.0 
108.089211 1656.0 
109.072884 2440.0 
110.103165 392.0 
111.079414 788.0 
113.059242 420.0 
115.057053 312.0 
116.060684 448.0 
117.069458 6712.0 
118.072868 1268.0 
119.085892 21244.0 
120.089012 2136.0 
121.100311 9320.0 
122.104218 1016.0 
123.083656 1108.0 
125.061707 3244.0 
126.064926 516.0 
127.0746 1520.0 
128.062759 2280.0 
129.07077 6748.0 
130.073837 1528.0 
131.086349 52580.0 
132.090408 3952.0 
133.101334 9612.0 
134.103668 828.0 
135.108383 1932.0 
136.122116 296.0 
137.0914 660.0 
139.075455 724.0 
141.072037 2748.0 
142.079391 9680.0 
143.086105 82648.0 
144.092194 16656.0 
145.102539 59120.0 
146.105331 6756.0 
147.114059 5212.0 
148.115707 860.0 
149.096008 2000.0 
150.103745 436.0 
151.077332 2632.0 
152.079163 268.0 
153.083923 308.0 
154.08252 1028.0 
155.087082 16292.0 
156.094742 11040.0 
157.102676 49720.0 
158.108871 22784.0 
159.118576 73168.0 
160.122711 9236.0 
161.127914 2548.0 
162.132431 444.0 
163.106079 2756.0 
164.119217 300.0 
165.093109 2708.0 
166.08757 280.0 
167.09407 1320.0 
168.096512 2384.0 
169.102875 41248.0 
170.107819 9536.0 
171.118179 54552.0 
172.122437 7508.0 
173.012024 224.0 
173.13501 195124.0 
174.137497 20548.0 
175.138565 1216.0 
177.095795 1224.0 
178.07933 716.0 
179.092255 1736.0 
180.095581 552.0 
181.103333 5688.0 
182.110977 2812.0 
183.119049 31936.0 
184.125076 6268.0 
185.134338 10500.0 
186.138535 1380.0 
187.121979 2144.0 
188.125732 312.0 
189.097656 1552.0 
191.108917 9880.0 
192.103378 1884.0 
193.106842 5160.0 
194.109741 2096.0 
195.119614 4880.0 
196.124374 2692.0 
197.134735 22588.0 
198.140579 4792.0 
199.033722 600.0 
199.151306 295156.0 
199.265854 244.0 
199.454086 308.0 
199.5979 224.0 
200.154541 36964.0 
201.166336 42744.0 
202.169998 6388.0 
203.117157 960.0 
205.122284 4044.0 
206.116806 1064.0 
207.118622 6712.0 
208.124283 2416.0 
209.122696 5340.0 
210.140991 3044.0 
211.140747 7796.0 
212.146332 1240.0 
213.16301 1880.0 
214.167007 584.0 
215.181137 5708.0 
216.190613 1096.0 
217.135056 884.0 
219.11937 2096.0 
220.127182 1000.0 
221.135651 3600.0 
222.138702 308.0 
223.150574 24460.0 
224.155441 3576.0 
225.166412 108968.0 
226.16951 19084.0 
227.16748 1388.0 
229.127319 6284.0 
230.128876 1188.0 
231.142273 556.0 
233.139008 452.0 
234.142609 2680.0 
235.146088 700.0 
236.155869 268.0 
237.154678 552.0 
239.18161 23812.0 
240.187805 4036.0 
241.184143 1580.0 
242.19603 428.0 
243.17865 112792.0 
244.181381 15440.0 
245.184158 1432.0 
247.14035 676.0 
249.167496 27852.0 
250.172119 5076.0 
251.177567 388.0 
252.160049 452.0 
257.167358 1676.0 
258.171051 408.0 
259.204681 496.0 
260.214264 416.0 
261.181 428.0 
267.179108 58064.0 
268.182007 10440.0 
269.181427 1172.0 
270.164795 304.0 
283.74762 208.0 
285.022003 316.0 
285.19043 200656.0 
285.436188 308.0 
285.881287 236.0 
286.19281 32784.0 
287.195648 3380.0 
288.202911 544.0 
303.200806 130688.0 
304.203827 18360.0 
305.205933 2072.0 
321.210724 1900.0 
322.214233 300.0 
404.995239 292.0 
405.267914 144100.0 
405.750793 260.0 
406.269562 31076.0 
407.271698 4592.0 
408.289093 340.0 
END IONS

