BEGIN IONS
PEPMASS=249.077
CHARGE=1+
COMPOUNDNAME=Citrinin
LIBRARYQUALITY=3
SMILES=N/A
INCHIKEY=CQIUKKVOEOPUDV-IYSWYEEDSA-N
INCHI=InChI=1S/C13H14O5/c1-5-7(3)18-4-8-9(5)6(2)11(14)10(12(8)15)13(16)17/h4-5,7,15H,1-3H3,(H,16,17)/t5-,7-/m1/s1
MSLEVEL=2
SOURCE_INSTRUMENT=N/A-ESI-QFT
FILENAME=library_mgf.mgf
SEQ=*..*
IONMODE=negative
ORGANISM=MONA
NAME=Citrinin [M-H]-
PI=MoNA
DATACOLLECTOR=MoNA:VF-NPL-QEHF027294
PUBMED=N/A
SUBMITUSER=mwang87
TAGS=
SPECTRUMID=CCMSLIB00004720875
SCANS=27294
50.161194 0.165776 
50.387371 0.165652 
50.651897 0.117123 
50.887878 0.143793 
50.968498 0.104986 
51.432274 0.133463 
51.541374 0.092396 
51.961517 0.095824 
52.056141 0.091673 
52.140099 0.195605 
52.181801 0.114715 
53.088726 0.167075 
53.144405 0.096575 
53.767361 0.106787 
54.607155 0.146828 
55.199585 0.100589 
55.50705 0.161447 
56.212105 0.175047 
56.490498 0.106621 
56.922234 0.149648 
57.0131 0.149469 
57.526943 0.092317 
58.029572 0.139297 
58.380802 0.133013 
59.227974 0.113616 
60.672028 0.094704 
60.805328 0.120055 
61.100765 0.106052 
61.130512 0.125165 
61.182175 0.114561 
61.98222 0.093339 
62.426426 0.143728 
62.596207 0.111928 
63.009274 0.120788 
63.017906 0.103663 
63.21814 0.163298 
63.873558 0.102058 
64.579918 0.140845 
64.630051 0.160916 
65.064339 0.105435 
65.982384 0.085541 
66.477226 0.086993 
67.087654 0.124905 
67.207748 0.082039 
67.848312 0.102929 
68.250633 0.092923 
68.996742 4.261862 
70.48011 0.109023 
71.427856 0.098572 
72.424339 0.116858 
72.565536 0.09876 
73.027634 0.183994 
73.086433 0.181755 
73.188454 0.143594 
73.823814 0.08344 
74.213539 0.115688 
74.69545 0.076351 
74.794327 0.097372 
75.680885 0.171826 
76.211205 0.220419 
76.768623 0.125273 
77.038231 4.108884 
77.109268 0.110233 
78.71743 0.11189 
78.990395 0.135593 
79.053711 0.307139 
79.184166 0.089966 
79.608681 0.153762 
80.335159 0.13613 
81.033051 0.161492 
81.906197 0.136479 
82.302635 0.118195 
82.513443 0.169769 
82.764404 0.100391 
82.888603 0.103586 
82.903091 0.122737 
83.464371 0.159025 
84.697433 0.158862 
85.183479 0.155124 
86.555565 0.162267 
86.630104 0.122759 
86.844597 0.138621 
89.377563 0.098611 
89.534088 0.10015 
89.688675 0.147749 
90.103165 0.08381 
90.176468 0.102632 
90.906265 0.15457 
91.066948 0.142696 
94.627472 0.1024 
94.631432 0.093074 
95.768532 0.097398 
96.3508 0.17685 
96.693283 0.125902 
98.037872 0.113701 
98.074516 0.164255 
98.379173 0.111019 
98.462662 0.141284 
99.866989 0.089054 
103.01902 0.147383 
104.025314 1.844743 
105.033203 10.701744 
105.069588 4.109815 
106.041046 1.815356 
106.381416 0.112325 
106.765495 0.169306 
107.04879 0.521704 
107.323532 0.159822 
110.782059 0.115033 
114.174988 0.157387 
115.029404 0.14941 
115.354347 0.19091 
115.478798 0.130156 
116.774811 0.125695 
116.790459 0.154583 
117.415207 0.119631 
118.394562 0.158249 
118.716675 0.101377 
119.048531 0.161952 
119.085197 0.618835 
119.814194 0.130003 
119.976814 0.149401 
120.056633 6.266002 
121.064568 2.191991 
121.657845 0.118924 
123.775154 0.104423 
124.068405 0.123787 
125.509811 0.102587 
127.814896 0.144769 
131.048935 4.233852 
131.345367 0.119005 
132.31102 0.154453 
133.064575 1.305262 
133.100937 4.014275 
133.171661 0.128507 
133.223434 0.144262 
134.035889 0.241726 
134.917557 0.191387 
135.080185 19.317247 
135.612961 0.131162 
135.870071 0.107213 
136.084061 0.128218 
137.095718 1.609344 
139.320862 0.104446 
140.460846 0.149762 
143.085373 0.158584 
144.056824 0.973222 
144.253754 0.136832 
145.064697 6.521424 
146.072342 1.548155 
146.973175 0.163328 
147.043839 2.163541 
147.221405 0.12393 
148.05188 13.921599 
149.042435 0.101835 
149.059586 1.307211 
154.586472 0.176688 
154.691116 0.16642 
159.080444 3.975057 
160.051758 0.675347 
161.059753 5.687117 
161.096085 18.671959 
162.067505 2.581431 
162.099136 1.095192 
162.126144 0.087405 
163.075333 42.366001 
166.955505 0.094605 
168.008545 0.126915 
168.847198 0.10678 
169.426453 0.102589 
173.73317 0.090274 
175.039047 100.0 
175.075546 1.863454 
176.042419 9.641495 
177.09108 45.43697 
178.094406 3.241449 
179.911255 0.116074 
183.772018 0.103695 
187.075424 1.301032 
188.047394 0.124011 
189.054764 33.279819 
189.56723 0.116233 
190.062531 0.518069 
190.694305 0.151576 
192.104843 0.1539 
192.880432 0.102969 
194.562256 0.181804 
198.525391 0.116687 
203.070633 0.569173 
204.34874 0.18077 
205.086151 24.049681 
206.089645 1.404623 
212.630264 0.189142 
213.614532 0.205384 
214.641418 0.11768 
214.804382 0.124318 
218.48526 0.105166 
219.591995 0.124939 
219.729752 1.911323 
219.753494 0.194899 
219.932297 0.119223 
225.687393 0.087114 
226.395325 0.117571 
228.76799 0.198212 
231.065689 1.933703 
233.081345 0.767416 
237.959778 0.119634 
240.607346 0.116171 
240.737061 0.089347 
243.618134 0.147041 
246.179489 0.157951 
257.228516 0.142523 
257.829193 0.106682 
266.259644 0.093366 
266.33606 0.111181 
271.379364 0.107411 
271.68692 0.0955 
272.861237 0.121622 
274.360687 0.101888 
END IONS

