BEGIN IONS
PEPMASS=616.0
CHARGE=1+
COMPOUNDNAME=Massbank:KO003895 Paromomycin|Zygomycin A1|Catenulin|Monomycin A|Hydroxymycin|Aminosidin
LIBRARYQUALITY=3
SMILES=OCC(O1)C(O)C(O)C(N)C1OC(C(N)4)C(C(O)C(N)C4)OC(O3)C(O)C(C(CO)3)OC([H])(O2)C(N)C(O)C(O)C(CN)2
INCHIKEY=UOZODPSAJZTQNH-UHFFFAOYSA-N
INCHI=1S/C23H45N5O14/c24-2-7-13(32)15(34)10(27)21(37-7)41-19-9(4-30)39-23(17(19)36)42-20-12(31)5(25)1-6(26)18(20)40-22-11(28)16(35)14(33)8(3-29)38-22/h5-23,29-36H,1-4,24-28H2/t5-,6+,7+,8-,9-,10-,11-,12+,13-,14-,15-,16-,17-,18-,19-,20-,21-,22-,23-/m1/s1
MSLEVEL=2
SOURCE_INSTRUMENT=ESI-LC-ESI-QQ
FILENAME=Massbank_ESI_positive_8_1_2014_peaks.mgf
SEQ=*..*
IONMODE=Positive
ORGANISM=MASSBANK
NAME=Massbank:KO003895 Paromomycin|Zygomycin A1|Catenulin|Monomycin A|Hydroxymycin|Aminosidin [M+H]+
PI=Putative Massbank Match
DATACOLLECTOR=Massbank
PUBMED=N/A
SUBMITUSER=mwang87
TAGS=
SPECTRUMID=CCMSLIB00000220305
SCANS=9687
68.1 9901.0 
107.7 19802.0 
109.7 14851.5 
114.1 54455.5 
114.7 9901.0 
125.1 108911.0 
143.1 64356.5 
144.0 49505.0 
145.1 59406.0 
155.1 34653.5 
161.2 1707922.5 
162.4 202970.5 
163.3 2915844.5 
165.1 19802.0 
176.1 14851.5 
187.0 99010.0 
203.4 1554457.0 
212.7 9901.0 
226.3 183168.5 
228.9 19802.0 
239.3 44554.5 
257.4 178218.0 
258.1 49505.0 
258.5 39604.0 
259.4 193069.5 
275.5 188119.0 
277.5 163366.5 
283.4 29703.0 
289.6 44554.5 
293.4 772278.0 
294.6 34653.5 
295.4 445545.0 
305.4 29703.0 
307.3 287129.0 
319.6 19802.0 
324.8 534654.0 
326.9 14851.5 
336.4 19802.0 
420.3 49505.0 
438.7 118812.0 
455.7 163366.5 
456.3 301980.5 
479.2 14851.5 
616.8 69307.0 
END IONS

