BEGIN IONS
PEPMASS=329.079
CHARGE=1+
COMPOUNDNAME=dehydrocurvularin
LIBRARYQUALITY=3
SMILES=N/A
INCHIKEY=AVIRMQMUBGNCKS-GQCTYLIASA-N
INCHI=InChI=1S/C16H18O5/c1-10-5-3-2-4-6-13(18)16-11(8-15(20)21-10)7-12(17)9-14(16)19/h4,6-7,9-10,17,19H,2-3,5,8H2,1H3/b6-4+
MSLEVEL=2
SOURCE_INSTRUMENT=N/A-ESI-QFT
FILENAME=library_mgf.mgf
SEQ=*..*
IONMODE=positive
ORGANISM=MONA
NAME=dehydrocurvularin [M+K]+
PI=MoNA
DATACOLLECTOR=MoNA:VF-NPL-QEHF016199
PUBMED=N/A
SUBMITUSER=mwang87
TAGS=
SPECTRUMID=CCMSLIB00004707262
SCANS=16199
50.058895 0.013608 
50.103184 0.017707 
50.156181 0.014606 
50.544052 0.018556 
50.546013 0.014169 
50.586674 0.019302 
50.714535 0.015424 
50.722523 0.016024 
50.759674 0.016373 
50.79557 0.020453 
50.798286 0.015709 
50.837997 0.015489 
50.933514 0.042681 
51.048294 0.014097 
51.131893 0.01722 
51.192749 0.039339 
51.461254 0.016736 
51.48653 0.01643 
51.940342 0.645594 
52.055798 0.020755 
52.182426 0.014783 
52.551319 0.014996 
52.629982 0.015179 
52.81163 0.016162 
52.85535 0.013938 
52.855751 0.013316 
52.856167 0.015197 
53.002529 0.427995 
53.038971 0.753375 
53.343784 0.04014 
53.62981 0.020366 
53.97311 0.019548 
54.088398 0.036364 
54.214233 0.042799 
54.256706 0.013793 
54.39407 0.013668 
54.697014 0.021935 
54.716816 0.017724 
54.867088 0.016849 
55.018177 1.902197 
55.054577 8.646066 
55.355114 0.023009 
55.509628 0.014845 
55.526119 0.01609 
55.533951 0.01968 
55.865986 0.015812 
55.876537 0.015098 
55.934727 0.0476 
56.01194 0.037336 
56.049747 0.188106 
56.057877 0.277513 
56.060825 0.50319 
56.10957 0.015122 
56.274494 0.027132 
56.291222 0.034246 
56.295341 0.014411 
56.325909 0.017368 
56.413387 0.038708 
56.78289 0.014566 
56.827213 0.015616 
56.965099 0.654404 
57.033775 1.949639 
57.07021 22.57428 
57.208382 0.016824 
57.237015 0.016773 
57.315159 0.016984 
57.347118 0.015691 
57.355293 0.014157 
57.517502 0.014893 
57.661446 0.019181 
57.668468 0.036934 
57.760921 0.016133 
57.935184 0.122613 
58.000885 0.013731 
58.065426 2.5313 
58.073513 0.131874 
58.297031 0.022831 
58.308018 0.014757 
58.344906 0.014561 
58.547184 0.02028 
58.986145 0.015877 
58.995331 0.14869 
59.049435 3.691649 
59.126926 0.018505 
59.142525 0.016127 
59.199032 0.01478 
59.232822 0.023939 
59.504272 0.017598 
59.617195 0.015451 
59.870632 0.014453 
59.990391 0.017983 
60.000324 0.01721 
60.044647 0.442579 
60.062012 0.015574 
60.066093 0.041131 
60.085136 0.014666 
60.408512 0.034487 
60.438557 0.015216 
60.445839 0.014621 
60.539997 0.01574 
60.625931 0.051236 
60.68259 0.037831 
60.781811 0.01488 
60.813061 0.025121 
61.010937 29.696518 
61.028679 0.081957 
61.216713 0.019293 
61.224335 0.013941 
61.373604 0.015364 
61.831985 0.014236 
61.881565 0.014557 
62.014263 0.079236 
62.018711 3.105996 
62.06023 1.176972 
62.068138 0.043987 
62.088364 0.034566 
62.358212 0.013257 
62.478935 0.013737 
62.562271 0.014817 
62.645279 0.01461 
62.822582 0.015601 
62.990154 0.966207 
63.00666 0.84308 
63.026554 0.065187 
63.111008 0.014756 
63.243538 0.016694 
63.880806 0.050359 
63.963249 0.016585 
63.997955 0.838504 
64.014481 0.752505 
64.485176 0.015367 
64.677597 0.018747 
64.843445 0.018476 
64.927666 0.022138 
65.038795 0.131768 
65.136597 0.015104 
65.173752 0.017904 
65.209396 0.014743 
65.227242 0.015504 
65.324074 0.01617 
65.396439 0.01686 
65.575089 0.015132 
65.580521 0.014743 
65.971497 0.017753 
66.250229 0.016981 
66.261078 0.01821 
66.372055 0.013518 
66.548256 0.022521 
66.563133 0.016272 
66.710999 0.018583 
66.885345 0.014898 
67.054413 10.53604 
67.164406 0.015669 
67.630302 0.017763 
67.945457 0.014385 
67.980949 0.014639 
67.985146 0.019833 
68.049576 0.054126 
68.057678 0.386231 
68.060631 0.228917 
68.338676 0.043889 
68.945419 0.047063 
68.997208 0.121178 
69.033607 1.939368 
69.070023 8.493046 
69.634171 0.015701 
70.065262 22.032368 
70.067413 0.126969 
70.069199 0.014813 
70.07328 0.182317 
70.07827 0.040902 
70.232094 0.018582 
70.496536 0.022923 
70.532883 0.016927 
70.561981 0.015748 
70.585823 0.019888 
70.672981 0.01797 
70.732658 0.018417 
71.040855 0.01537 
71.049255 2.479097 
71.085632 12.392167 
71.319672 0.018458 
71.600655 0.034912 
71.677414 0.017143 
71.914932 0.015224 
71.933327 0.014066 
71.993256 0.016058 
72.044312 0.074155 
72.080856 1.123377 
72.088898 0.074216 
72.531265 0.017745 
72.564049 0.016491 
72.832932 0.0163 
72.937241 0.268689 
73.010757 0.248431 
73.028465 0.376127 
73.064888 1.074952 
73.60775 0.015363 
74.060005 0.182071 
74.068031 3.769535 
74.213966 0.014719 
74.534668 0.017342 
74.573959 0.014639 
74.739548 0.018899 
75.026344 0.200568 
75.044113 0.283273 
75.071419 0.185492 
75.24485 0.021455 
75.739395 0.020224 
75.827415 0.016403 
75.907028 0.018391 
76.039398 0.467536 
76.340508 0.019804 
76.494026 0.023472 
76.721542 0.014408 
76.836113 0.03911 
76.879715 0.018793 
76.888359 0.017711 
77.005592 0.471001 
77.041512 0.017222 
77.085419 0.018078 
77.238327 0.019699 
77.358582 0.017311 
77.548752 0.014857 
77.959282 0.055616 
78.08902 0.015833 
78.199631 0.01601 
78.752602 0.018009 
78.967125 2.349626 
79.021301 31.752966 
79.054291 4.766433 
79.327065 0.01556 
79.354202 0.016657 
80.02076 0.024103 
80.024612 0.283764 
80.057632 0.122316 
80.10154 0.015081 
80.174576 0.016828 
80.570114 0.015288 
80.74868 0.016646 
80.786041 0.018784 
80.962845 0.101122 
81.000587 0.078373 
81.017036 1.071602 
81.0336 0.58337 
81.069954 30.065874 
81.072838 0.129746 
81.314636 0.017088 
81.455322 0.016905 
81.686737 0.017122 
81.88559 0.015893 
82.073349 4.856849 
82.075981 0.586882 
82.394547 0.015806 
82.673111 0.016882 
82.732643 0.016564 
82.968811 0.014831 
83.012787 0.584873 
83.049202 1.420743 
83.085579 4.277993 
83.153542 0.015955 
83.212784 0.018834 
83.571877 0.014993 
83.863792 0.016145 
84.044395 0.028273 
84.080864 0.738548 
84.088837 0.024183 
84.190575 0.015313 
85.028488 0.556746 
85.039719 0.251431 
85.064796 1.88255 
85.101273 6.069378 
85.289688 0.017259 
85.685982 0.014987 
86.060104 0.663302 
86.096413 0.376594 
86.10434 0.019026 
86.608757 0.047945 
86.735596 0.017625 
87.026421 0.051726 
87.044189 15.779254 
87.057144 0.049825 
87.17131 0.015117 
87.519585 0.016106 
88.047424 0.040465 
88.075798 47.850239 
89.005356 0.023598 
89.059799 33.097885 
89.079048 0.209749 
89.218788 0.047132 
89.56208 0.014855 
89.930801 0.015428 
89.94046 0.020397 
90.055069 4.743164 
90.063187 1.746083 
90.186943 0.016473 
90.278496 0.018396 
90.475937 0.050643 
90.568954 0.022317 
90.947754 0.435213 
90.96701 0.152458 
91.054298 2.235248 
91.057442 0.302211 
91.06385 0.038112 
91.209518 0.020266 
91.527786 0.018034 
91.571045 0.018661 
91.832924 0.054734 
91.940125 0.058847 
91.948662 0.043691 
91.983643 0.016806 
92.030113 0.014769 
92.057495 0.034358 
92.128853 0.016035 
92.593468 0.017532 
92.982819 4.456951 
93.054489 0.048096 
93.069977 4.091621 
93.57634 0.015949 
93.935791 0.037051 
94.073357 0.022797 
94.294937 0.018241 
94.631577 0.015533 
94.688316 0.021204 
94.943619 0.030205 
94.962021 0.052412 
94.978462 0.439108 
95.043083 0.015671 
95.049217 8.191824 
95.052536 0.06526 
95.085594 13.558091 
95.980286 0.024342 
96.052528 0.105818 
96.088829 1.987159 
96.091881 6.844349 
96.578354 0.014478 
96.769333 0.015148 
96.941643 0.021892 
97.028526 0.14526 
97.064835 1.653593 
97.095261 0.752952 
97.101257 2.515722 
97.140335 0.019009 
97.333969 0.022043 
97.926994 0.017141 
98.060188 0.054695 
98.096252 0.157418 
98.104424 0.025741 
98.97554 0.677714 
98.984299 15.747877 
99.040382 0.015975 
99.044128 0.924711 
99.080582 3.014988 
99.13102 0.015644 
99.801506 0.01671 
100.075706 0.173475 
100.083961 0.285268 
100.466034 0.042949 
100.968765 0.042943 
100.992645 0.016187 
101.003258 1.046905 
101.059753 1.034212 
101.137764 0.018043 
101.640884 0.017615 
102.055077 0.021383 
102.091438 12.796311 
102.392586 0.014863 
102.860031 0.05377 
102.878944 0.015826 
103.03904 0.521944 
103.075447 0.064293 
103.09491 0.03818 
103.473862 0.024719 
103.884476 0.04197 
103.89959 0.017337 
104.070648 0.432641 
104.964256 0.048792 
104.982765 0.361559 
105.023003 0.017757 
105.033401 0.038092 
105.069923 1.888989 
105.120445 0.018753 
105.3508 0.017359 
106.036995 0.019397 
106.086349 31.838442 
106.090752 0.209967 
106.423744 0.018856 
106.99839 1.23145 
107.049187 0.679335 
107.052452 0.225733 
107.070312 0.277332 
107.085625 2.773769 
107.089256 0.327006 
107.585052 0.015373 
108.055687 0.024446 
108.296097 0.016017 
108.610977 0.01827 
108.923317 0.035556 
108.958527 0.022625 
108.977646 0.153323 
108.994354 0.04898 
109.028404 0.13109 
109.064911 0.97527 
109.076378 0.059907 
109.084068 0.037851 
109.101288 3.595725 
109.198364 0.018323 
109.838806 0.017183 
109.967216 0.045277 
110.060043 0.065477 
110.111176 0.018101 
110.355049 0.017757 
110.381248 0.014866 
110.530121 0.016077 
110.939224 3.60136 
111.044106 1.681279 
111.080589 0.614432 
111.116852 0.117501 
111.644676 0.016437 
111.684731 0.014272 
111.947044 0.028308 
111.96463 0.023437 
112.330841 0.023422 
112.70491 0.01747 
112.788963 0.024799 
112.935036 0.208074 
112.972572 0.111225 
113.024155 0.046007 
113.059814 0.226185 
113.316406 0.01734 
113.424088 0.018359 
113.563538 0.016025 
113.767967 0.038191 
114.948051 0.031893 
114.979355 0.016997 
115.038765 0.051872 
115.075241 0.036229 
115.284142 0.017092 
115.700485 0.017435 
116.042068 0.023294 
116.052994 0.050022 
116.070763 0.150659 
116.114914 0.619074 
116.475777 0.020213 
116.788666 0.016654 
116.986046 1.509685 
116.994667 0.10186 
117.002136 0.018278 
117.054665 1.193105 
117.069931 0.542969 
117.091011 0.069949 
117.118042 0.044391 
117.431252 0.019742 
117.446815 0.023596 
118.086494 0.070131 
118.943169 0.181022 
119.049271 0.312396 
119.085617 2.063652 
119.933449 0.015944 
119.951141 0.04109 
119.963554 0.016147 
119.997528 0.047626 
120.08094 0.186327 
120.669731 0.017886 
120.941612 0.020873 
120.962463 0.016723 
121.028511 0.164052 
121.064842 1.063153 
121.101242 2.317791 
121.224846 0.015846 
121.501419 0.014652 
122.115669 0.015286 
122.805367 0.01551 
122.831108 0.015038 
122.93924 2.515752 
122.993286 0.712077 
123.044151 7.536687 
123.080482 1.966476 
123.116913 0.646131 
123.301605 0.014128 
123.311829 0.017079 
123.439056 0.017567 
123.690796 0.01661 
123.947037 3.443887 
124.047379 1.158092 
124.076096 0.049477 
124.086899 1.505261 
124.936203 0.181411 
124.954735 0.121392 
124.97271 0.103909 
125.059685 0.321309 
125.096146 0.414211 
125.675537 0.016638 
125.923241 0.016601 
125.936043 0.057106 
126.932632 0.017081 
127.039116 0.083039 
127.956253 0.025875 
128.070465 0.020362 
128.730728 0.015674 
128.801483 0.016428 
128.963928 0.370388 
129.01828 3.435236 
129.054703 0.445658 
129.069885 0.222177 
129.565506 0.025817 
130.02095 0.019624 
130.065613 0.039833 
130.086517 0.025866 
130.963135 0.098424 
130.979553 0.082145 
131.049042 0.067448 
131.070221 0.241047 
131.085526 0.789062 
131.462509 0.015212 
132.662537 0.026198 
132.958267 7.92743 
133.026596 0.017547 
133.064835 0.800307 
133.085922 2.747171 
133.101257 1.516453 
134.937119 0.016367 
134.9561 0.022978 
134.978806 2.985015 
134.996521 2.646496 
135.044098 0.320798 
135.080429 0.836871 
135.116852 1.027201 
135.586411 0.01633 
136.516861 0.018843 
136.954529 0.023351 
137.023376 0.101763 
137.059753 2.023313 
137.096176 0.342048 
137.132446 0.066902 
137.37645 0.016715 
138.054932 0.020762 
138.091782 0.017357 
138.452301 0.015633 
138.492355 0.014858 
138.951477 0.195964 
138.970673 0.073901 
138.988052 0.04075 
139.002655 0.701505 
139.075409 0.214728 
139.111649 0.024526 
139.98407 0.015088 
140.016647 0.209323 
140.931046 0.060989 
140.949814 0.561421 
140.98439 0.04016 
141.069733 0.023262 
141.240021 0.015011 
141.903564 2.810408 
142.086502 0.018032 
142.511597 0.051781 
142.928513 0.143037 
142.950607 0.129942 
143.085571 0.582751 
143.177811 0.014074 
143.568817 0.016962 
144.010803 0.045416 
144.031631 0.015562 
144.570358 0.01957 
144.768326 0.016785 
144.958893 0.318932 
145.003342 0.382333 
145.06488 0.381502 
145.101273 0.758014 
145.222656 0.058038 
145.903549 0.041557 
145.96666 2.622231 
146.096329 0.02629 
146.104706 0.057134 
146.226349 0.016654 
146.968063 0.086606 
146.974487 6.129833 
147.044098 0.171317 
147.058487 0.047729 
147.080505 0.532671 
147.091873 0.099104 
147.099136 0.022764 
147.116745 0.564124 
147.964859 0.468549 
147.974777 0.093776 
148.03717 0.015433 
148.66098 0.020178 
148.972214 5.725236 
149.023224 0.02854 
149.059769 0.589511 
149.07431 0.015907 
149.096207 0.408292 
149.13266 0.14246 
149.763046 0.016171 
149.954422 0.201203 
149.960968 0.704988 
149.971771 0.019735 
150.539368 0.017824 
150.951187 4.191168 
150.968933 16.755573 
151.039001 0.682432 
151.075439 0.333465 
151.112076 0.030985 
151.553619 0.019514 
151.897247 0.016989 
151.970261 0.040148 
152.017105 0.017244 
152.062149 0.575014 
152.070938 0.023 
152.95163 9.234207 
152.969238 0.082475 
152.989395 6.269542 
152.99704 0.045912 
153.006989 0.173845 
153.054459 0.36258 
153.070084 0.678391 
153.12851 0.023747 
153.950409 0.07052 
153.959305 0.041068 
153.992615 0.203421 
154.019745 0.015728 
154.073044 0.127704 
154.946976 8.400608 
154.965302 0.098469 
154.979523 0.015641 
155.034317 0.045769 
155.085571 0.137405 
155.919373 0.049018 
155.947327 0.532011 
155.954819 1.052309 
156.927063 0.050303 
156.944397 2.919625 
156.962601 1.459975 
157.013184 0.142964 
157.049438 0.02807 
157.065201 0.042032 
157.101105 0.316865 
157.270172 0.016762 
157.721207 0.016255 
157.90799 0.191961 
157.952057 0.626338 
158.942474 0.380387 
158.953598 0.48501 
158.959885 1.621652 
159.044327 0.039861 
159.08049 0.744454 
159.116974 0.220482 
159.146805 0.046638 
159.713806 0.014317 
159.808243 0.045577 
160.939194 0.357811 
160.951767 0.157968 
160.959991 0.029217 
161.059616 1.132189 
161.095856 0.694876 
161.132874 0.095545 
162.363831 0.020052 
163.027466 0.056013 
163.03894 0.272436 
163.075134 0.238086 
163.111542 0.048371 
163.977173 10.31353 
164.042892 0.015845 
164.070801 0.038182 
164.448456 0.014977 
164.96701 0.027312 
164.97731 1.342648 
165.041565 0.016135 
165.054642 0.701044 
165.070618 0.039307 
165.091354 0.023411 
165.371658 0.017006 
165.975357 2.40569 
166.060822 0.634895 
166.178543 0.015732 
166.630707 0.016866 
166.890472 0.017921 
166.947128 0.213056 
166.966888 0.170263 
166.982559 0.813396 
167.033951 18.763033 
167.821396 0.019214 
167.947067 0.031911 
167.971954 0.331297 
168.037338 5.25531 
168.944199 0.187182 
168.962097 4.053329 
168.970261 0.026812 
168.98201 0.418982 
169.038742 0.492451 
169.049271 0.071423 
169.101746 0.085947 
169.40184 0.015851 
169.965225 0.221895 
170.96167 6.87756 
170.977844 0.351288 
171.0 0.362189 
171.080444 0.384496 
171.96019 0.028236 
172.173233 0.020842 
172.913467 0.181161 
172.957687 4.095291 
173.059784 0.322993 
173.096222 0.426561 
173.133438 0.024232 
173.185638 0.015897 
173.944336 0.045493 
173.959961 0.210473 
174.055328 0.022049 
174.529984 0.018153 
174.939072 0.024271 
174.954956 1.330383 
174.973846 0.041466 
175.029495 0.019226 
175.039139 0.055256 
175.057785 0.244533 
175.075409 0.860605 
175.111359 0.027678 
175.14769 0.067617 
176.000748 0.017939 
176.071106 0.025039 
176.10849 0.022886 
176.890823 0.019101 
176.931152 0.027838 
176.954788 0.029643 
176.969101 0.069796 
176.992874 0.060452 
177.018158 0.040726 
177.05484 0.81789 
177.0914 0.175015 
177.379181 0.017635 
177.938766 0.021462 
178.06015 0.123933 
179.033463 0.020026 
179.070602 0.029265 
179.500778 0.015511 
179.549164 0.041611 
179.954163 0.080685 
179.9953 0.017764 
180.888123 0.190423 
180.961349 0.021898 
181.049759 0.342464 
181.224274 0.01742 
181.987762 2.987841 
182.759567 0.018757 
182.772217 0.019208 
182.988449 0.068059 
183.080612 0.362571 
183.116043 0.026222 
183.985977 0.21216 
184.078171 0.021857 
184.511688 0.018115 
184.939774 0.159369 
184.957581 0.114705 
185.060059 0.243503 
185.096115 0.407304 
185.132156 0.040687 
185.266663 0.017 
185.949661 0.141901 
185.961563 14.824969 
186.067459 0.050808 
186.090866 0.047855 
186.22171 0.394785 
186.470413 0.016216 
186.936401 0.439657 
186.953903 0.109485 
186.962189 2.183437 
187.0755 1.364959 
187.111725 0.341198 
187.147797 0.030073 
187.225037 0.894343 
187.73848 0.01743 
187.944687 0.60682 
187.959366 2.827376 
187.96701 0.208833 
187.977081 6.090506 
188.928879 0.017306 
188.953659 0.032912 
188.974518 1.632517 
189.054626 2.490747 
189.091019 0.495386 
189.152145 0.018336 
189.645508 0.017885 
189.925919 0.695648 
189.941788 0.472486 
189.975662 2.021242 
190.059311 0.168896 
190.924393 0.607633 
190.953629 0.139921 
190.96637 2.79885 
190.985504 0.060726 
191.000626 0.198644 
191.031952 0.446276 
191.07045 0.271462 
191.106491 0.070692 
191.880829 0.019601 
191.923065 0.044894 
191.971649 18.143703 
191.980927 0.02567 
192.887817 0.05256 
192.961838 54.140533 
192.971695 0.793885 
193.049866 0.593382 
193.069077 0.073028 
193.102173 0.041122 
193.964081 1.028908 
194.055344 0.384309 
194.460754 0.015867 
194.927521 0.023054 
194.94162 0.017602 
195.000107 0.056874 
195.028992 1.01115 
195.927017 0.042156 
196.03212 0.112789 
196.088394 0.059742 
197.059921 0.042716 
197.096161 0.339643 
198.066757 0.064623 
198.57637 0.017972 
199.027954 0.139099 
199.075485 0.628945 
199.112366 0.018639 
199.330002 0.01525 
200.106384 0.088025 
200.539963 0.018286 
200.935196 0.50044 
201.054382 0.076848 
201.091156 1.163806 
201.935135 0.046404 
202.931839 0.664876 
203.070374 1.286118 
203.106949 1.027611 
203.921707 0.087514 
203.972305 0.462675 
204.246704 0.01905 
204.566864 0.017881 
204.889786 0.024575 
204.930298 0.026777 
204.993576 0.023023 
205.049881 0.47042 
205.085938 0.202865 
205.918671 0.325798 
205.987946 42.740017 
206.926132 0.147461 
206.977722 1.69554 
206.988647 8.49047 
207.065292 0.062805 
207.985306 10.703021 
208.926971 1.11876 
208.975952 3.382181 
208.991333 0.404988 
209.010895 0.168623 
209.096207 0.059659 
209.891678 0.096792 
209.900452 0.312247 
209.982407 4.688815 
210.021118 0.01628 
210.898514 1.253831 
210.972366 37.167465 
211.075638 0.478506 
211.111938 0.654847 
211.785995 0.019842 
211.974854 0.549308 
212.070724 0.514236 
212.082962 0.076867 
212.956451 0.048758 
212.972839 0.450049 
213.054428 0.282771 
213.091248 0.473788 
214.062164 0.075504 
214.086838 0.071739 
214.099258 0.047208 
214.710464 0.995427 
214.717422 0.482983 
214.725418 0.649452 
214.730087 0.642924 
214.935364 0.03463 
214.970108 0.015748 
215.070343 1.934712 
215.106796 0.376928 
216.10199 0.111045 
216.948807 0.174868 
217.038818 0.050987 
217.049683 0.243954 
217.086197 0.361118 
217.123199 0.024055 
217.95076 0.023052 
218.081375 0.096858 
218.868561 2.913329 
218.945099 1.960369 
219.065536 0.081539 
219.174515 0.811018 
219.868713 0.045104 
219.946609 0.281608 
220.02713 0.020554 
220.17897 0.021977 
220.884399 0.476823 
220.903885 0.037983 
220.942123 1.731285 
221.044495 0.028588 
221.081696 0.026485 
221.096344 0.055299 
221.153641 0.050576 
222.899002 2.026344 
222.925201 0.051713 
223.123276 0.059369 
223.707825 0.019162 
224.107681 0.086728 
224.249207 0.015236 
224.539703 0.01796 
224.878433 0.144379 
224.936935 0.105593 
224.98848 0.080166 
225.001862 0.028398 
225.04274 0.018562 
225.091415 0.867337 
225.211197 0.016742 
226.086212 0.100323 
226.727097 0.017117 
226.89801 0.127045 
226.916092 0.01607 
226.937485 1.759068 
227.046967 0.019143 
227.070175 0.519199 
227.094406 0.347319 
227.106323 0.247064 
227.142044 0.027893 
228.064438 0.031135 
228.101898 0.733121 
228.889679 1.171979 
228.909546 0.482135 
229.024399 0.109804 
229.049683 0.10335 
229.086182 0.591424 
229.097595 0.032625 
229.476807 0.019816 
230.081879 0.075109 
230.906891 0.550251 
230.967102 4.978002 
231.03093 0.024213 
231.101318 0.53768 
232.09758 0.124603 
232.119003 0.015183 
232.904617 0.227607 
232.946289 6.593608 
232.960938 0.443913 
233.042435 2.618008 
233.080933 0.02767 
233.568893 0.015009 
233.806778 0.017448 
234.039688 0.343298 
234.899506 0.089003 
234.922318 0.016382 
234.960007 0.028273 
236.879074 0.173461 
237.890121 0.017412 
238.914352 0.509776 
238.967117 0.173383 
239.070267 0.140898 
239.106766 1.580788 
239.968277 0.077401 
240.065689 0.457202 
240.114075 0.040674 
240.889343 0.019455 
240.909485 4.161835 
240.96463 0.093723 
241.038376 0.149365 
241.085938 0.638522 
242.081238 0.099953 
242.117462 0.533413 
242.909576 0.084316 
242.966309 0.016787 
243.06546 0.610831 
243.101929 0.346246 
243.740936 0.018972 
244.096802 0.305154 
244.884171 7.563731 
244.909637 3.163828 
244.923157 0.040566 
245.080856 0.104957 
245.884445 0.813618 
245.907639 0.093644 
246.123047 0.029593 
246.883698 0.113425 
246.905563 1.769985 
246.920349 0.016752 
247.905762 0.099292 
247.980759 0.031128 
248.90184 0.284295 
248.91713 0.268193 
248.977432 1.542905 
249.090805 0.233451 
249.968491 0.056196 
249.978226 0.032735 
250.541855 0.018029 
250.693161 0.018994 
250.846207 0.017501 
250.894974 0.193567 
250.917084 0.051668 
250.956711 3.488286 
250.971466 0.121658 
251.023178 0.140195 
251.046829 0.280824 
251.878906 0.026432 
251.893616 0.06117 
251.908081 0.045438 
251.975159 2.454913 
252.051147 0.030996 
252.889755 1.068489 
252.915161 0.022699 
253.086029 0.420479 
253.140839 0.031202 
253.903091 0.292909 
255.065659 0.093909 
255.08873 0.826673 
255.102631 0.069398 
255.498459 0.018419 
255.899445 0.324311 
256.073914 0.018568 
256.096771 0.053231 
256.900574 0.032391 
256.974823 0.060694 
257.080872 2.799697 
258.021118 0.020511 
259.071808 1.009321 
259.13324 0.175045 
259.347656 0.01946 
260.076477 0.480635 
260.27713 0.017315 
261.901276 0.018568 
262.012329 0.016786 
262.894897 21.677507 
263.01825 0.017271 
263.496613 0.016902 
263.894043 3.946739 
264.893646 0.501745 
265.991302 2.43985 
266.926086 1.476335 
266.992462 0.179428 
267.101746 3.690722 
267.361877 0.01869 
267.987427 3.549238 
268.26355 5.279691 
268.299866 0.885968 
268.884155 0.442485 
268.909302 0.528209 
269.014526 0.020401 
269.081055 0.18447 
269.266876 0.705307 
269.891418 0.064839 
269.904053 0.236745 
270.050598 0.029198 
270.075592 0.185502 
270.112091 0.154906 
270.166412 0.017551 
270.901093 0.962987 
271.060394 0.369909 
271.096771 0.11796 
271.414551 0.016735 
271.909454 0.111776 
272.901245 0.036339 
272.917267 0.132764 
273.039246 0.034123 
273.075928 0.045485 
274.773804 0.018639 
274.895447 0.018416 
274.914642 0.125135 
277.495117 0.016841 
277.903473 0.030003 
278.818268 0.214224 
278.888428 0.019471 
279.80481 0.018733 
279.826019 0.074785 
280.813354 3.218436 
280.924957 0.064177 
281.079193 0.023432 
281.821442 2.771585 
282.827301 0.019919 
283.030609 2.046239 
283.820251 0.120598 
283.9888 0.603707 
284.030853 0.061774 
284.295288 0.109581 
284.808563 0.056194 
284.829346 0.050026 
284.912323 0.016961 
284.936401 0.4942 
285.046112 0.680252 
285.076569 1.156727 
285.112 0.027458 
285.349579 0.026605 
285.81604 0.229754 
285.835876 0.032999 
286.047699 0.0355 
286.310822 2.984147 
286.823364 0.749302 
286.894928 2.87045 
286.918976 0.072111 
286.93454 0.084595 
286.985748 0.034101 
287.115082 1.257184 
287.812897 0.028104 
287.895355 0.311459 
288.062286 0.105623 
288.123047 2.033968 
288.246735 0.017235 
288.883636 0.285037 
288.917053 0.093629 
288.997253 0.019342 
289.104797 0.029435 
289.916504 0.055329 
290.349396 0.018842 
290.820557 0.020166 
290.91217 0.045716 
292.813812 0.021642 
293.116669 0.034106 
294.813385 2.034682 
295.821075 0.377418 
296.808411 10.354358 
297.045837 0.477478 
297.130066 0.076832 
297.816406 2.976604 
298.824554 0.079965 
298.843842 0.018076 
299.832428 0.044183 
300.839691 0.715818 
301.22348 0.017362 
302.448151 0.017206 
302.819366 0.017906 
303.089233 0.2335 
303.897064 0.023858 
304.834106 0.120391 
304.905273 2.32366 
305.820251 0.041729 
305.906128 0.041406 
306.829651 0.387038 
306.894257 1.142395 
307.802032 0.041521 
307.819397 0.0211 
308.807098 0.040448 
308.848083 0.019765 
308.936462 6.965137 
309.937317 1.221747 
310.310486 1.760655 
310.825104 0.114571 
310.843903 1.169486 
310.93689 0.01591 
311.313751 0.048372 
312.326172 23.992434 
312.824127 0.019021 
313.105225 1.101017 
313.329498 1.396993 
313.811218 1.079979 
314.818665 1.178824 
315.110901 0.150448 
315.173615 0.110205 
315.827118 0.044649 
318.849854 0.192001 
320.215637 0.052187 
320.829651 0.039626 
320.852783 0.018448 
321.817078 0.020569 
322.719269 0.018056 
322.824463 1.277899 
322.960754 0.019414 
323.145233 0.018256 
323.83255 1.65356 
323.877441 0.017374 
324.016571 0.020184 
324.822906 0.041001 
324.840363 0.317179 
325.831146 3.981994 
326.717743 0.017356 
326.839447 0.017283 
326.947449 0.338023 
327.080872 0.124361 
327.381836 5.986491 
327.82666 0.09426 
327.966278 0.246136 
327.986725 0.042485 
328.084412 0.228982 
328.155121 0.239099 
328.228882 0.054286 
328.299927 0.121369 
328.32132 6.557596 
328.356812 0.056831 
328.38504 0.581737 
328.834534 0.074332 
328.963776 0.038125 
329.098511 0.072318 
329.159882 0.018821 
329.194275 0.051539 
329.22879 0.03354 
329.287506 0.103333 
329.324402 1.114254 
330.13327 0.210377 
330.17276 0.430803 
330.196594 10.132665 
330.336914 100.0 
331.115509 3.363559 
331.209259 3.300249 
331.340179 6.964111 
332.758301 0.01648 
332.94101 0.039197 
336.823853 0.138826 
338.819092 2.251115 
338.873535 0.020383 
339.201447 0.019038 
341.841949 0.073712 
342.832306 0.704331 
342.852448 0.421679 
344.468414 0.018272 
345.976776 15.665304 
346.974274 10.828217 
347.974548 1.926835 
348.972443 0.076445 
350.065857 0.018393 
350.947754 0.35036 
351.10257 0.048939 
351.948242 0.021598 
END IONS

