BEGIN IONS
PEPMASS=280.155
CHARGE=1+
COMPOUNDNAME=MoNA:2859113 Cycloheximide
LIBRARYQUALITY=3
SMILES=N/A
INCHIKEY=YPHMISFOHDHNIV-UHFFFAOYSA-N
INCHI=InChI=1S/C15H23NO4/c1-8-3-9(2)15(20)11(4-8)12(17)5-10-6-13(18)16-14(19)7-10/h8-12,17H,3-7H2,1-2H3,(H,16,18,19)
MSLEVEL=2
SOURCE_INSTRUMENT=LC-ESI-QTOF-LC-ESI-QTOF
FILENAME=output_mgf.mgf
SEQ=*..*
IONMODE=
ORGANISM=MONA
NAME=MoNA:2859113 Cycloheximide [M-H]-
PI=MoNA
DATACOLLECTOR=MoNA
PUBMED=N/A
SUBMITUSER=mwang87
TAGS=
SPECTRUMID=CCMSLIB00000569442
SCANS=6693
107.0433 1.488266 
107.0493 1.888952 
107.9295 1.831712 
108.037 1.259302 
110.0246 100.0 
110.0617 2.117916 
110.0864 1.831712 
111.0521 1.545507 
121.0659 6.582713 
123.0816 72.524327 
123.1131 2.862049 
123.1325 1.602748 
123.175 1.316543 
125.0967 29.021179 
125.1186 1.259302 
146.9386 1.659989 
149.0978 3.548941 
151.1137 12.535776 
151.1386 2.690326 
154.0524 4.235833 
156.107 2.804808 
161.096 1.831712 
177.1263 5.495135 
183.9951 1.373784 
187.7225 1.259302 
194.9099 2.91929 
203.0979 1.373784 
257.0358 1.545507 
END IONS

