BEGIN IONS
PEPMASS=174.088
CHARGE=1+
COMPOUNDNAME=L-citrulline
LIBRARYQUALITY=3
SMILES=N/A
INCHIKEY=RHGKLRLOHDJJDR-BYPYZUCNSA-N
INCHI=InChI=1S/C6H13N3O3/c7-4(5(10)11)2-1-3-9-6(8)12/h4H,1-3,7H2,(H,10,11)(H3,8,9,12)/t4-/m0/s1
MSLEVEL=2
SOURCE_INSTRUMENT=N/A-ESI-QFT
FILENAME=library_mgf.mgf
SEQ=*..*
IONMODE=negative
ORGANISM=MONA
NAME=L-citrulline [M-H]-
PI=MoNA
DATACOLLECTOR=MoNA:VF-NPL-QEHF000504
PUBMED=N/A
SUBMITUSER=mwang87
TAGS=
SPECTRUMID=CCMSLIB00004691567
SCANS=504
50.229187 0.016849 
51.962196 0.013517 
52.509682 0.015352 
54.403549 0.016818 
54.725712 0.010352 
54.774673 0.009499 
55.181728 0.005187 
55.193054 0.014034 
55.61134 0.005908 
55.798916 0.00469 
56.269539 0.014512 
56.925243 0.01478 
57.124252 0.004737 
57.794243 0.013415 
58.022552 0.123914 
58.4468 0.016478 
58.833466 0.013849 
58.849426 0.005367 
59.012508 0.058292 
59.023884 0.006244 
59.664448 0.01373 
60.021179 0.014497 
60.974056 0.040098 
61.475285 0.009451 
61.923889 0.005267 
63.502949 0.016433 
63.961071 1.634151 
64.965569 0.014714 
66.806221 0.015436 
66.918625 0.016711 
67.416611 0.009652 
68.044716 0.017183 
68.475281 0.009647 
69.055183 0.004692 
69.473358 0.01707 
70.890511 0.016176 
71.050278 0.016145 
71.734398 0.014567 
72.171463 0.009855 
72.991524 0.014455 
73.426315 0.017919 
74.483414 0.004847 
74.828392 0.004988 
74.96772 0.004915 
75.416397 0.014555 
77.392212 0.004953 
78.381691 0.016618 
78.980804 0.019432 
78.984604 9.052323 
79.956032 14.215457 
79.987831 0.018177 
80.279205 0.017093 
80.955467 0.01852 
80.961411 0.022128 
80.963852 1.536491 
80.980453 0.308645 
81.26062 0.013686 
81.951828 0.52514 
82.251465 0.015415 
82.959694 0.011734 
83.060112 0.22415 
85.075752 0.15997 
85.15094 0.01074 
86.901398 0.011838 
88.422195 0.009927 
88.840073 0.01412 
89.429787 0.016861 
90.732872 0.019297 
93.000252 0.215756 
93.225197 0.017 
93.971718 8.793854 
94.975189 0.023725 
94.979523 0.093501 
95.809952 0.010697 
95.915741 0.01774 
95.967522 0.241606 
96.84848 0.017193 
96.958801 0.070607 
98.194321 0.020848 
98.208511 0.016935 
99.924507 0.055379 
100.924652 0.006079 
100.932343 0.179576 
101.343689 0.010601 
101.932854 0.005481 
101.984245 0.013871 
102.757156 0.026039 
103.735489 0.014169 
104.533058 0.014601 
107.217613 0.015038 
108.956306 0.019326 
108.995369 0.039747 
110.189003 0.018345 
111.080376 0.056016 
113.070763 0.281932 
113.925461 0.006415 
114.054817 0.169524 
114.149879 0.016147 
115.716949 0.010105 
115.919472 0.604445 
116.545486 0.015689 
116.919571 0.008634 
116.927246 0.310859 
117.076172 0.016044 
119.002602 0.015813 
119.845222 0.011231 
120.445808 0.016065 
121.792473 0.018414 
124.669441 0.013539 
124.69101 0.01724 
124.935997 0.0648 
125.095917 0.071025 
125.961723 0.28695 
126.928345 0.006112 
126.951897 0.110264 
127.111702 5.452884 
128.115005 0.459453 
129.6595 0.010337 
130.247208 0.005619 
130.669479 0.020826 
131.072327 0.267482 
131.081406 100.0 
131.109253 0.291083 
131.133453 0.013539 
131.500183 0.018966 
131.764618 0.017378 
132.07869 0.682661 
132.084641 5.083965 
133.085983 0.068345 
133.510132 0.015972 
137.317459 0.018795 
137.746841 0.013737 
141.425278 0.014316 
141.956879 0.028831 
142.897034 0.221283 
142.943024 0.376511 
143.888947 0.013252 
143.897812 0.450004 
144.896637 0.335068 
145.897949 0.095409 
148.524414 0.018082 
150.198639 0.01554 
154.946289 0.512234 
155.553314 0.016602 
155.946259 0.005707 
157.916168 0.674988 
157.933899 0.344042 
158.915253 0.007005 
159.315292 0.017369 
159.911713 0.020645 
160.26622 0.014103 
164.986832 0.017531 
165.387955 0.017674 
171.101944 0.020534 
172.943314 0.020716 
172.957458 32.055141 
173.117386 3.902013 
173.908447 0.010739 
173.960907 0.471957 
173.988449 0.005313 
174.120697 0.383481 
174.90741 0.018645 
174.933487 0.113935 
174.953339 2.829525 
174.961563 0.376975 
178.028839 0.017588 
180.222198 0.014967 
185.729996 0.006143 
188.701157 0.016429 
192.411102 0.014708 
END IONS

