BEGIN IONS
PEPMASS=528.186
CHARGE=1+
COMPOUNDNAME=DAUNORUBICIN
LIBRARYQUALITY=3
SMILES=N/A
INCHIKEY=STQGQHZAVUOBTE-VGBVRHCVSA-N
INCHI=InChI=1S/C27H29NO10/c1-10-22(30)14(28)7-17(37-10)38-16-9-27(35,11(2)29)8-13-19(16)26(34)21-20(24(13)32)23(31)12-5-4-6-15(36-3)18(12)25(21)33/h4-6,10,14,16-17,22,30,32,34-35H,7-9,28H2,1-3H3/t10-,14-,16-,17-,22+,27-/m0/s1
MSLEVEL=2
SOURCE_INSTRUMENT=N/A-ESI-QFT
FILENAME=library_mgf.mgf
SEQ=*..*
IONMODE=positive
ORGANISM=MONA
NAME=DAUNORUBICIN [M+H]+
PI=MoNA
DATACOLLECTOR=MoNA:VF-NPL-QEHF003441
PUBMED=N/A
SUBMITUSER=mwang87
TAGS=
SPECTRUMID=CCMSLIB00004694504
SCANS=3441
50.178577 0.021933 
50.243095 0.026939 
50.969074 0.015058 
51.138309 0.022462 
51.278561 0.026687 
51.556313 0.013743 
51.737942 0.025469 
51.838158 0.027241 
52.081635 0.021605 
52.345829 0.019874 
52.517391 0.018542 
52.774597 0.023941 
52.883282 0.018031 
53.446671 0.022893 
53.610374 0.023129 
53.889599 0.013134 
54.108418 0.029939 
54.408119 0.013185 
54.544956 0.025145 
54.739544 0.025769 
54.92873 0.029147 
55.142982 0.019201 
55.415737 0.016327 
56.140537 0.02396 
56.190838 0.019597 
56.407108 0.015534 
56.479294 0.019597 
57.034214 0.128956 
57.070484 0.01682 
57.171051 0.021497 
57.208057 0.01702 
57.479134 0.016443 
57.666862 0.015976 
57.737671 0.015286 
58.064415 0.037113 
58.065861 5.775253 
59.069214 0.027733 
59.445667 0.019231 
59.492996 0.021678 
59.766632 0.015867 
60.045128 4.378784 
60.332298 0.023645 
60.382648 0.017002 
60.634842 0.022706 
61.029099 0.287975 
61.337189 0.023134 
61.532738 0.023849 
61.667206 0.016845 
61.824497 0.025532 
61.878319 0.024809 
62.642937 0.031906 
63.945709 0.023851 
64.318047 0.017021 
64.895889 0.016901 
65.322815 0.013034 
65.665337 0.026008 
65.681252 0.022294 
65.697418 0.02127 
65.891724 0.021994 
66.383247 0.017125 
66.745361 0.014977 
66.912292 0.02974 
67.028519 0.020591 
67.054863 1.894741 
67.533134 0.015256 
67.939285 0.015916 
68.05014 0.813311 
68.225243 0.026902 
68.982788 0.018151 
69.03418 3.875039 
70.509682 0.016201 
70.678566 0.023241 
70.9291 0.016889 
71.049812 4.150049 
71.385986 0.0232 
72.045067 5.709662 
72.363831 0.012783 
72.529488 0.027839 
72.895203 0.027987 
73.505455 0.02388 
73.63166 0.02291 
73.703262 0.019232 
73.924873 0.044101 
74.517097 0.022951 
74.741791 0.024822 
75.868843 0.030104 
76.088844 0.017909 
77.391388 0.0155 
77.731522 0.021147 
77.740334 0.028838 
78.084747 0.023863 
78.164803 0.022849 
78.578217 0.024771 
79.03846 0.01899 
79.281731 0.028756 
79.438774 0.019094 
79.789993 0.023612 
79.798256 0.033905 
80.601425 0.030407 
82.069733 0.024868 
82.21302 0.015514 
82.981918 0.024692 
83.049591 0.04926 
83.609314 0.01706 
84.081253 0.122458 
85.06546 0.073155 
85.503311 0.017666 
85.559669 0.02345 
86.060577 18.343628 
86.487442 0.016459 
86.875259 0.014764 
87.06382 0.357092 
87.241257 0.013956 
88.194519 0.026457 
89.913849 0.022823 
90.178581 0.022527 
90.328712 0.01465 
90.54718 0.019352 
90.651787 0.024544 
90.994843 0.023014 
91.008286 0.025729 
91.054665 1.943675 
91.085686 0.022605 
92.025925 0.019576 
92.230209 0.021354 
92.531181 0.019582 
93.284447 0.026861 
94.472984 0.016958 
95.049553 2.529969 
95.212395 0.020042 
95.460335 0.017487 
95.823669 0.023031 
96.053009 0.024171 
96.082336 0.024211 
96.785469 0.024354 
98.297829 0.014346 
98.796509 0.017963 
98.925659 0.017425 
99.924347 0.019277 
100.053581 0.013937 
100.673264 0.027842 
102.259529 0.023774 
102.464859 0.019919 
102.699219 0.020011 
102.98259 0.013931 
103.422035 0.027501 
103.952682 0.023244 
104.403961 0.024421 
104.560822 0.016532 
105.033752 2.032758 
106.037201 0.017041 
106.803047 0.017988 
107.049339 0.035311 
108.687675 0.025791 
109.064896 0.035052 
109.851753 0.01919 
109.856514 0.023095 
110.367455 0.026357 
111.130875 0.030871 
111.325455 0.013119 
112.075859 0.101357 
112.194664 0.013869 
112.334984 0.024893 
112.542717 0.024968 
112.599358 0.014768 
113.059914 2.014673 
113.679619 0.016375 
115.054436 0.86612 
115.308243 0.024269 
117.772392 0.020115 
118.397224 0.028522 
119.04937 0.027208 
121.028572 0.670708 
121.064957 7.995183 
121.069695 0.018088 
121.356033 0.024337 
121.390663 0.017022 
122.068176 0.354327 
122.507614 0.024282 
122.868607 0.030898 
123.154442 0.016959 
124.20932 0.018837 
124.940109 0.021285 
125.001968 0.0189 
125.059776 1.211987 
125.67868 0.016125 
125.901512 0.014875 
127.57589 0.022022 
127.868263 0.025396 
129.033417 0.083606 
129.742401 0.027287 
130.086456 0.161348 
130.167801 0.017861 
130.57222 0.016971 
131.204498 0.01689 
133.028275 2.497758 
133.113235 0.021024 
133.208832 0.015858 
135.044022 11.379965 
135.049133 0.058147 
135.054977 0.048893 
136.047287 0.385769 
142.565826 0.016441 
142.609848 0.017142 
143.048676 0.035197 
143.934052 0.030021 
144.594269 0.013135 
145.028427 0.020737 
145.064667 0.457969 
146.884857 0.020606 
147.043777 0.040784 
147.199936 0.027329 
148.705566 0.025132 
150.509201 0.032068 
153.03447 0.029722 
153.139587 0.015834 
156.195908 0.019612 
157.028244 2.045371 
158.434204 0.028046 
159.043976 0.459619 
160.048035 0.016951 
160.747238 0.02387 
161.46994 0.020393 
162.733948 0.030729 
163.038925 0.294674 
164.845505 0.022103 
167.944153 0.028678 
171.356232 0.024934 
172.078506 0.024382 
172.694687 0.024973 
173.059738 0.404226 
175.038879 0.104978 
175.098129 0.024121 
176.273087 0.015483 
178.859726 0.019701 
179.303467 0.014095 
184.015533 0.331963 
184.399933 0.025717 
186.030792 0.032797 
186.593521 0.027039 
186.741394 0.02444 
189.070511 0.026841 
190.180374 0.031102 
191.034042 0.189967 
191.085007 0.019087 
191.841324 0.025695 
194.520142 0.016372 
196.289795 0.031841 
198.805222 0.024336 
199.200989 0.016587 
200.554977 0.025726 
201.181793 0.03038 
202.07753 0.031205 
202.776611 0.019573 
203.03363 1.041082 
204.04129 0.086404 
204.056747 0.143296 
205.533585 0.03057 
206.072556 0.057644 
206.935837 0.033514 
207.535522 0.01564 
209.906845 0.026146 
212.15007 0.016081 
213.523819 0.013875 
214.304993 0.023081 
216.101532 0.018291 
217.064713 0.85136 
218.072266 0.197072 
219.080261 0.89698 
220.284485 0.232877 
220.288239 0.247312 
220.293671 0.316156 
221.044357 0.025127 
221.097214 0.014816 
221.838226 0.021834 
222.067612 0.122555 
223.075012 0.785588 
227.923813 0.023895 
231.079788 0.032476 
232.051743 1.077946 
232.716629 0.025142 
233.058929 0.259722 
234.067535 1.239689 
235.911697 0.019196 
236.361176 0.016365 
236.853973 0.021391 
237.090851 1.447316 
238.98233 0.026602 
243.610275 0.016622 
245.894318 0.017687 
246.955215 0.026867 
247.075089 6.272117 
248.030411 0.022628 
248.078659 0.560652 
249.05452 0.260956 
249.091034 0.031768 
250.061813 0.175835 
251.069382 0.08919 
257.036621 0.016262 
260.046539 0.965685 
261.053833 0.671269 
262.06189 1.01775 
263.067352 0.07502 
264.074799 0.02089 
265.085388 0.670421 
274.370605 0.016716 
275.070038 3.849559 
275.084259 0.023231 
276.07373 0.291033 
277.049622 0.751671 
277.085297 0.142347 
277.192932 0.020436 
278.057159 3.877248 
279.062378 0.552834 
283.140686 0.030348 
283.883331 0.028702 
284.129913 0.02851 
286.40329 0.032835 
286.964294 0.015896 
287.218842 0.030831 
288.041046 0.379854 
289.049225 3.830115 
290.056274 2.589283 
291.061127 0.077591 
291.98349 0.027141 
292.074097 0.022942 
293.080383 2.426094 
294.084839 0.031429 
297.150879 0.019913 
299.012726 0.033673 
300.953033 0.019485 
302.056305 0.014683 
303.064484 2.839255 
304.069214 0.028653 
305.04422 2.025016 
306.05191 100.0 
307.055267 18.128313 
308.058044 1.436218 
308.098816 0.026193 
311.113678 0.020974 
311.634125 0.018073 
313.080933 0.01713 
317.766357 0.030081 
318.724792 0.039512 
319.564819 0.020708 
319.915405 0.01679 
320.067444 0.363344 
321.075287 12.396667 
322.078674 2.221809 
322.408905 0.025296 
323.080872 0.020574 
323.680786 0.027325 
328.205231 0.026557 
328.631012 0.03694 
329.553375 0.02435 
333.039459 0.522058 
344.270813 0.017655 
346.260101 0.035905 
348.063049 0.031113 
362.623352 0.018795 
366.652557 0.025148 
390.308228 0.014388 
408.795105 0.030591 
411.367706 0.023726 
417.665833 0.019119 
431.124146 0.020269 
432.65033 0.024435 
437.951691 0.025457 
443.450531 0.033341 
449.83432 0.021818 
459.046082 0.028004 
466.297485 0.026504 
482.817535 0.023821 
483.353546 0.023131 
491.623322 0.027675 
495.852844 0.024264 
498.54892 0.014483 
518.350952 0.032866 
518.725952 0.03121 
520.309814 0.017983 
534.525452 0.029984 
540.863892 0.019743 
541.903198 0.0178 
END IONS

