BEGIN IONS
PEPMASS=361.235
CHARGE=1+
COMPOUNDNAME=Aphidicolin
LIBRARYQUALITY=3
SMILES=N/A
INCHIKEY=NOFOAYPPHIUXJR-APNQCZIXSA-N
INCHI=InChI=1S/C20H34O4/c1-17(11-21)15-4-3-13-9-14-10-19(13,7-8-20(14,24)12-22)18(15,2)6-5-16(17)23/h13-16,21-24H,3-12H2,1-2H3/t13-,14+,15-,16+,17-,18-,19-,20-/m0/s1
MSLEVEL=2
SOURCE_INSTRUMENT=N/A-ESI-QFT
FILENAME=library_mgf.mgf
SEQ=*..*
IONMODE=positive
ORGANISM=MONA
NAME=Aphidicolin [M+Na]+
PI=MoNA
DATACOLLECTOR=MoNA:VF-NPL-QEHF004572
PUBMED=N/A
SUBMITUSER=mwang87
TAGS=
SPECTRUMID=CCMSLIB00004695635
SCANS=4572
50.899826 0.070124 
51.0238 0.075643 
51.036102 0.06624 
51.833252 0.073364 
51.940777 0.791659 
52.166183 0.07254 
52.553429 0.076213 
53.003006 2.383317 
53.039364 5.485847 
53.723709 0.060836 
53.998199 0.080855 
54.034611 0.166444 
54.194695 0.06211 
54.223194 0.067823 
54.59655 0.071743 
54.633244 0.063329 
55.018639 11.551958 
55.055023 51.0303 
55.9352 2.721165 
56.022034 0.147534 
56.050266 7.358278 
56.058388 2.681041 
56.266678 0.065364 
56.736851 0.070859 
56.965576 7.928894 
57.034298 6.730643 
57.070667 21.942938 
57.081722 0.077078 
57.398857 0.064583 
57.595673 0.073518 
57.935638 0.155334 
58.062939 0.22681 
58.06591 29.167734 
58.074032 1.087553 
58.393833 0.066962 
58.969799 0.064362 
58.995731 0.113198 
59.037357 0.732974 
59.049919 6.473023 
59.061172 1.165554 
59.069229 0.60022 
59.898705 0.066122 
59.991051 2.589431 
60.045162 19.346516 
60.081566 0.209281 
60.958481 0.216443 
61.011414 10.419792 
61.029148 0.250526 
61.04842 0.085908 
61.316051 0.091303 
62.019238 2.286114 
62.060787 0.140191 
62.178104 0.081023 
62.896431 0.064089 
62.982559 0.088685 
62.990673 1.852481 
63.027058 0.18459 
63.198936 0.073725 
63.8559 0.067322 
63.998531 0.556776 
64.094154 0.068963 
64.160484 0.068178 
65.039314 6.771825 
65.496696 0.070705 
66.042648 0.069946 
66.31134 0.070613 
67.05497 49.777355 
68.050224 2.741943 
68.058327 2.95267 
68.124214 0.071778 
68.972191 0.068968 
68.997849 0.747101 
69.03421 11.032045 
69.070587 30.378786 
70.029457 1.922596 
70.03759 0.188202 
70.065819 22.500965 
70.073959 1.275923 
70.227737 0.066973 
70.958611 0.235438 
71.013458 0.450367 
71.049835 10.018975 
71.061172 0.208791 
71.069176 1.770195 
71.086243 8.05155 
71.929955 0.194511 
72.045082 6.35349 
72.053108 0.084861 
72.081451 6.384955 
72.937828 1.599976 
73.029091 1.559067 
73.047508 0.108607 
73.065491 1.750739 
73.633392 0.075441 
73.835266 0.076784 
74.02433 3.853729 
74.060745 5.149719 
74.097107 0.455011 
76.039978 0.47879 
76.369522 0.071219 
76.455948 0.101127 
77.006294 0.353904 
77.03936 0.308186 
77.499405 0.075143 
78.014206 0.084496 
78.967644 0.343051 
79.021835 6.38043 
79.054871 39.28331 
79.448051 0.069576 
80.050079 3.631675 
80.058212 2.84472 
80.18869 0.071547 
81.034142 6.713047 
81.057976 0.073172 
81.07048 46.915318 
81.363792 0.077372 
82.029388 0.317919 
82.065765 4.939199 
82.073868 3.261619 
82.076645 0.072099 
82.164673 0.080536 
83.013412 0.199824 
83.049751 22.447088 
83.060867 0.392307 
83.069031 0.067954 
83.086128 12.16064 
84.044968 3.352456 
84.053116 0.946941 
84.08136 12.395796 
84.089424 0.174144 
85.0112 0.407323 
85.029015 5.485866 
85.04026 1.253718 
85.065369 5.459048 
85.076607 0.076712 
85.101768 0.726628 
86.032013 0.09616 
86.060616 3.715272 
86.097 8.781766 
87.026978 0.313445 
87.044655 10.214268 
88.022125 4.842593 
88.039886 0.657798 
88.047882 0.209585 
88.076256 5.995801 
88.968803 0.132557 
89.06028 1.579639 
89.079536 0.571843 
89.79612 0.072686 
90.948242 3.263658 
91.054771 100.0 
92.049988 1.014445 
92.058098 7.853368 
92.061081 0.636803 
92.870316 0.067588 
92.983276 2.733541 
93.034149 0.327528 
93.054764 0.192713 
93.057877 3.275352 
93.061111 0.104487 
93.070404 34.47982 
94.029663 0.06663 
94.041969 0.083218 
94.065666 4.392128 
94.0737 2.749582 
95.013329 0.187193 
95.049637 16.420492 
95.06089 0.799641 
95.076996 0.077995 
95.086014 35.086544 
95.097481 0.074501 
96.044914 3.119309 
96.053024 0.300414 
96.081345 3.080639 
96.089386 2.278406 
96.09243 0.085798 
97.011177 0.820357 
97.028908 2.357033 
97.040176 0.634937 
97.065292 8.544408 
97.076569 0.177684 
97.101662 5.374499 
97.931206 0.075918 
98.023956 0.08806 
98.054657 0.066472 
98.060539 4.178204 
98.068489 0.203445 
98.096893 3.740967 
98.105034 0.173618 
99.044525 5.215955 
99.080948 1.971298 
99.900406 0.075092 
100.039757 1.090475 
100.04776 0.07766 
100.076187 1.444087 
100.112526 0.422497 
101.017288 0.209683 
101.023697 0.207134 
101.060188 1.744258 
102.055313 0.080122 
102.091782 2.324352 
102.948631 0.079157 
103.011726 0.09087 
103.054657 5.175631 
103.757805 0.068771 
104.050224 0.072881 
104.058159 0.162279 
104.062355 0.562448 
104.107208 0.097404 
104.964287 0.103357 
105.033928 3.626632 
105.045166 2.080429 
105.070312 33.028767 
105.074211 0.613143 
106.037575 0.092731 
106.065544 8.471645 
106.0737 2.507129 
106.086617 0.573903 
107.049545 11.765685 
107.069534 0.134224 
107.073349 5.308038 
107.08593 20.384609 
107.488632 0.072805 
107.882202 0.066908 
108.044739 1.317403 
108.05278 0.292109 
108.077469 0.093479 
108.0811 3.774012 
108.089325 1.982314 
108.958702 1.810197 
109.028809 1.067213 
109.05294 0.092447 
109.065147 7.459044 
109.076469 0.210041 
109.101555 13.331196 
110.016434 0.07578 
110.024002 0.326677 
110.060478 4.319356 
110.096832 2.05382 
110.104797 0.644312 
110.939583 0.472915 
111.026566 0.237861 
111.044403 3.657597 
111.055527 0.32079 
111.08075 3.186331 
112.039642 0.81032 
112.076073 1.667321 
112.112366 0.778652 
112.935913 0.084449 
113.023491 0.077753 
113.06002 1.404024 
114.055229 1.314986 
114.091843 0.090219 
115.039185 0.083563 
115.050507 0.084762 
115.054558 4.211035 
115.450821 0.067901 
116.053291 2.212569 
116.05764 0.154409 
116.062286 0.408572 
116.070969 1.290382 
116.107277 0.587704 
116.155365 0.086203 
116.436996 0.067406 
116.985939 0.570212 
117.057503 1.117311 
117.065636 0.140319 
117.070183 13.693487 
118.065498 5.806107 
118.073433 0.832366 
118.08651 0.095514 
119.001923 0.098546 
119.049438 3.651354 
119.060616 0.476544 
119.068855 0.102734 
119.073257 7.919184 
119.085831 34.975655 
119.35051 0.084186 
119.95166 0.074741 
120.044746 1.657835 
120.076874 0.418743 
120.081047 10.64008 
120.088844 3.041859 
121.028648 6.923871 
121.039688 0.538959 
121.065132 6.254338 
121.075989 0.074712 
121.084526 0.272448 
121.088913 3.160085 
121.101479 7.847783 
122.032097 0.162641 
122.060303 4.278346 
122.068375 0.08754 
122.096725 2.083365 
122.104591 0.308002 
122.964836 0.071858 
122.973763 0.102264 
123.044258 2.669127 
123.055527 0.086874 
123.063728 0.068829 
123.068321 0.15947 
123.080711 4.826362 
123.091759 0.186284 
123.117058 2.2247 
124.039497 2.575407 
124.075935 2.21868 
124.112404 0.384365 
125.023621 0.105133 
125.059982 2.051025 
125.071098 0.21276 
125.096321 1.980697 
125.961067 0.09649 
126.055161 2.862702 
126.091629 0.451181 
127.038948 0.39048 
127.095657 0.061956 
128.034607 0.087617 
128.06221 4.62946 
128.107269 0.2966 
129.012619 0.072485 
129.018173 0.107526 
129.029221 0.063479 
129.054962 0.086382 
129.070038 7.342933 
129.090561 0.073907 
130.050171 0.18861 
130.065216 4.021536 
130.073303 0.087071 
130.07782 0.762578 
130.086075 0.083901 
131.000092 0.342497 
131.04924 3.428508 
131.060226 0.084516 
131.073212 2.565066 
131.085587 11.175293 
132.044479 0.604778 
132.080933 6.294727 
132.088989 0.556843 
132.102142 0.115769 
132.958405 0.126425 
133.028427 0.23294 
133.052628 0.210802 
133.064911 4.332711 
133.070282 0.080184 
133.088699 2.541824 
133.101257 7.725283 
133.518402 0.064303 
133.908478 0.076062 
134.060181 5.905206 
134.096558 5.485344 
134.105026 0.114607 
134.920135 0.072181 
134.978867 0.652478 
134.996613 1.318991 
135.044174 1.590187 
135.080475 6.896691 
135.09198 0.173801 
135.104401 1.130264 
135.11702 2.749777 
136.039459 0.574365 
136.061905 2.344537 
136.075912 2.495677 
136.112198 1.400095 
137.011856 1.663352 
137.023544 0.064958 
137.034668 0.281956 
137.059799 1.232548 
137.071014 0.087699 
137.079132 0.157252 
137.096252 1.821745 
137.132446 1.113053 
138.054993 2.287577 
138.091537 0.840868 
138.128006 0.216842 
138.951218 0.154166 
138.984375 0.100106 
139.038864 0.086713 
139.075165 0.081816 
139.111786 0.3263 
140.07074 0.096259 
140.14357 0.132099 
140.984421 0.205481 
141.06987 2.777176 
141.091003 0.088203 
142.049225 0.076907 
142.077774 2.25815 
143.073029 0.667551 
143.085648 6.633758 
143.116943 0.081375 
144.044418 0.572072 
144.057129 0.077484 
144.080933 4.642232 
144.087646 0.13348 
145.028778 0.162773 
145.064865 3.400836 
145.076248 0.076903 
145.088791 1.446404 
145.101212 8.988786 
146.060165 4.972502 
146.073074 0.082288 
146.082809 0.069048 
146.096466 10.292489 
146.974197 0.632437 
147.044067 3.785415 
147.0681 0.231913 
147.080551 3.547274 
147.0914 0.266508 
147.104477 8.286585 
147.116852 3.949551 
148.039307 0.863699 
148.075745 4.130727 
148.112091 36.646118 
148.381302 0.094092 
148.972031 0.565202 
148.979675 0.076462 
149.059937 1.547956 
149.071167 0.073658 
149.096252 2.554835 
149.115356 3.209852 
149.132263 0.267669 
150.055054 1.573322 
150.091537 0.934204 
150.099335 0.100511 
150.127853 6.780753 
150.951065 1.404193 
150.968857 1.373905 
151.0392 0.303681 
151.07547 0.160334 
151.087357 0.081233 
151.111984 0.934513 
151.95903 0.103872 
152.062775 0.112894 
152.070663 0.757931 
152.107178 0.271487 
152.95195 0.079411 
152.96666 0.408528 
152.98941 2.576301 
153.006866 0.074293 
153.070023 0.650566 
154.049805 0.237786 
154.065643 0.348359 
154.077972 0.306345 
154.122925 0.321034 
154.918716 0.08019 
155.022293 0.919443 
155.060516 0.086234 
155.085632 2.696877 
156.080872 1.413353 
156.093628 0.523596 
156.497116 0.081015 
156.552689 0.068076 
157.0112 0.117956 
157.065125 0.689722 
157.088852 0.441023 
157.101288 3.813783 
158.044388 0.093866 
158.060165 2.653205 
158.072617 0.402232 
158.096634 3.111832 
159.006638 0.208408 
159.044128 1.37994 
159.067963 0.444006 
159.080597 2.959102 
159.091721 0.199423 
159.104492 1.122249 
159.116837 2.101105 
160.039368 0.170545 
160.07579 5.965428 
160.112213 9.547214 
161.010925 0.094531 
161.059692 0.639046 
161.071564 0.08094 
161.083389 0.587453 
161.096115 2.515853 
161.10759 0.100865 
161.120514 0.974383 
161.132538 0.401516 
162.055099 3.793963 
162.091248 3.231471 
162.098709 0.074247 
162.127808 4.377206 
162.877594 0.442318 
162.917038 0.100608 
163.038651 0.296177 
163.058197 0.127405 
163.0755 0.446928 
163.086868 0.176777 
163.094696 0.088316 
163.111679 0.713714 
164.03418 0.106249 
164.070801 0.652822 
164.100662 0.204921 
164.107391 0.720487 
164.143005 0.08197 
164.920731 0.074813 
164.999268 0.092649 
165.054962 0.082008 
165.070145 0.300217 
165.091034 0.110842 
166.049454 0.099955 
166.078415 0.085515 
166.086227 0.097127 
166.159088 0.077697 
166.945801 0.135792 
167.085663 0.783367 
167.106445 0.085627 
168.029526 0.153768 
168.080872 0.224637 
168.093826 0.076412 
168.961716 0.709998 
168.981567 0.091851 
169.064774 0.671505 
169.07608 0.407489 
169.101334 1.548991 
169.408661 0.068598 
170.060059 1.307217 
170.096603 1.533004 
170.962753 0.28489 
170.999481 0.093521 
171.080597 1.39057 
171.116974 1.049407 
172.004913 0.074038 
172.039337 0.820286 
172.075745 4.546818 
172.112228 2.803677 
173.060059 0.23164 
173.071823 0.088725 
173.078705 0.188643 
173.096191 1.308468 
173.107483 0.384888 
173.119995 0.284522 
173.132431 0.183341 
174.005676 0.157682 
174.055267 1.658248 
174.091476 2.760727 
174.127945 6.091415 
175.039108 8.157076 
175.075607 0.45756 
175.086426 0.199625 
175.094727 0.101257 
175.111786 0.975538 
175.135849 5.502093 
176.042587 0.236761 
176.070663 1.704229 
176.107132 1.516154 
176.143478 2.48953 
177.091064 0.29215 
178.050262 0.291238 
178.086044 0.219408 
178.123016 0.388703 
178.159714 0.168243 
178.892929 0.077177 
178.908951 2.693209 
179.085327 0.273066 
180.080734 0.205457 
180.888138 38.475819 
181.064713 0.235445 
181.088608 0.095925 
181.101196 0.507565 
181.888977 1.260215 
182.06076 0.091416 
182.071533 0.080153 
182.096405 0.203946 
182.109634 0.084741 
183.080582 0.61166 
183.116699 0.631583 
184.039291 0.070468 
184.075745 1.835744 
184.112442 1.014657 
184.956406 0.63471 
185.06015 0.255179 
185.071198 0.318696 
185.096024 0.652236 
185.108078 0.073581 
185.132385 0.219277 
186.055038 0.696101 
186.091476 2.296797 
186.127945 2.492354 
186.92717 0.117574 
187.038925 0.467541 
187.051514 0.075551 
187.075592 1.797516 
187.085434 0.091218 
187.098267 0.092877 
187.111908 0.364941 
187.886597 0.081604 
188.07074 1.911393 
188.106796 1.198838 
188.143387 6.095015 
188.924469 0.484918 
189.091187 0.125503 
189.127258 0.102624 
189.151123 0.533952 
190.050079 2.597463 
190.086472 1.883345 
190.122772 3.239005 
190.159134 1.60145 
191.117676 0.084354 
192.138229 0.102268 
192.174942 2.485228 
193.101364 0.114022 
194.096771 0.092636 
194.90387 3.461251 
195.081207 0.096014 
195.87529 1.377756 
196.075623 0.714589 
196.111847 0.098804 
196.919662 0.514782 
197.070999 0.067933 
197.083191 0.173179 
197.096054 0.168243 
197.891113 1.424031 
198.055313 0.610748 
198.080154 0.158753 
198.091339 1.773638 
198.127701 0.39457 
198.898758 19.202902 
199.075607 0.272584 
199.085587 0.081187 
199.09874 0.081857 
199.111664 0.331699 
199.149063 0.105543 
199.899399 0.232626 
199.944244 0.435976 
200.070847 1.01115 
200.094254 0.078091 
200.107056 0.812343 
200.143524 2.348978 
200.851776 0.147742 
201.090927 0.195544 
201.988953 0.087672 
202.05043 0.096026 
202.086441 1.184676 
202.122726 1.196534 
202.159027 2.25653 
202.966415 0.173795 
203.060211 0.090183 
203.070572 4.228842 
203.118073 0.094362 
203.143173 0.360197 
204.065643 2.170563 
204.102173 2.262243 
204.138046 1.538685 
204.17482 0.737742 
204.887939 0.184583 
206.044983 0.092081 
206.927048 0.145834 
208.111908 0.199138 
208.883209 0.227941 
208.956924 0.301946 
209.08342 0.103145 
209.096695 0.17628 
210.091263 0.810647 
211.098038 0.105103 
211.123505 0.08236 
212.070862 1.037838 
212.107224 0.688437 
212.143784 0.424293 
212.811691 0.077875 
212.878128 0.218373 
212.914658 0.590483 
213.090775 0.080896 
213.149246 0.085367 
213.885696 8.892777 
214.086243 0.631396 
214.122665 0.388645 
214.159302 1.101486 
215.07045 0.314947 
215.90152 2.168784 
216.065475 8.797308 
216.101974 0.264167 
216.138229 0.903271 
216.174881 0.554796 
217.069214 0.805148 
217.954697 0.728475 
218.082001 0.249925 
218.105942 0.086568 
218.117401 0.933368 
218.15387 0.336821 
218.190384 0.720554 
219.174194 0.570024 
220.05278 0.412173 
222.898697 18.584679 
223.132843 0.085865 
223.899734 0.390189 
224.071152 0.495373 
225.055817 0.079625 
226.085968 0.452132 
226.893921 1.069305 
226.966705 0.176535 
227.069931 0.338546 
228.138382 0.842083 
229.075821 0.08941 
230.081421 0.895135 
230.117599 0.45752 
230.153976 1.518953 
230.18985 0.089115 
231.123581 0.166748 
231.896408 1.459061 
232.133194 0.676507 
232.169891 0.113662 
232.205811 0.224162 
234.127304 0.086653 
236.914291 0.466214 
238.086304 2.141668 
238.914993 0.176202 
239.093964 5.958284 
240.099655 0.456789 
240.138245 0.104866 
240.909164 39.02676 
241.07312 0.281383 
241.910843 2.307618 
241.954651 0.251051 
242.08075 0.626245 
242.1539 0.305565 
242.911545 0.100689 
242.944305 0.095675 
243.018433 0.08434 
243.065735 0.491461 
244.132858 0.221033 
244.169937 0.29311 
244.206085 0.099639 
244.905426 0.796449 
245.164536 0.156682 
246.149185 1.955731 
246.185059 0.311417 
246.221848 0.134712 
248.055481 0.713334 
248.164368 0.080285 
254.081055 1.057557 
254.141235 0.076241 
254.924911 3.148882 
256.20639 0.080795 
258.075745 0.09908 
258.148865 1.537815 
258.185333 0.848439 
260.164673 2.564871 
260.20166 0.096384 
260.237305 0.076217 
260.61441 0.07094 
261.171753 1.312651 
262.179718 0.166119 
268.097198 0.089703 
268.299622 2.17728 
268.976135 0.072799 
269.82077 1.059046 
270.82843 0.96684 
271.084045 0.866708 
272.200928 0.262828 
274.179993 4.849543 
275.183777 0.617175 
276.818695 0.503292 
277.825714 1.313185 
281.069733 0.092303 
282.137634 1.536669 
283.1409 0.082068 
283.820648 0.17453 
284.807526 2.900975 
285.815674 12.607153 
286.180145 0.333127 
286.823883 2.450645 
286.839447 0.07644 
287.042419 1.742622 
287.831238 7.192446 
288.196259 0.966039 
288.268494 0.084579 
288.83902 5.814066 
290.137695 0.107224 
291.075531 0.089625 
291.805328 0.235692 
294.828613 2.259971 
295.836334 2.064594 
296.12912 0.103429 
299.831299 0.53481 
300.148132 1.384939 
300.195831 0.983659 
300.823303 0.208436 
300.93158 0.848411 
301.810333 0.57434 
302.211578 0.206247 
302.818268 15.951912 
302.853516 0.072652 
303.825073 2.040015 
309.815857 0.364452 
309.850464 0.164177 
310.823456 1.026933 
310.842926 0.30397 
311.830872 1.094023 
312.838715 38.278988 
313.840027 3.428673 
316.227264 0.76142 
316.299164 0.190788 
318.11261 0.571595 
319.836823 2.80829 
325.830719 0.619072 
326.209442 0.07807 
326.817627 4.900224 
326.854736 2.338628 
327.825806 34.60297 
327.963806 0.095239 
328.172638 0.089361 
328.832306 5.475536 
328.96405 0.085751 
329.180145 0.127094 
329.841583 0.297125 
330.112732 0.098942 
330.849091 1.034238 
331.110443 0.779974 
331.182495 0.083695 
332.094116 0.167375 
332.117279 0.920128 
337.846405 2.158598 
341.841888 2.060039 
342.243378 0.174674 
342.832642 0.215307 
344.0914 0.171793 
344.222198 1.965512 
344.25827 0.11637 
344.294189 0.414306 
344.828796 25.797022 
344.976929 0.203161 
345.833679 4.163721 
345.976471 4.556424 
346.107269 1.1583 
346.832642 0.294739 
346.954803 0.202247 
346.974396 3.053109 
347.974243 0.484601 
353.622253 0.080851 
359.10556 0.381273 
360.112488 4.82975 
360.252869 6.107562 
360.361572 2.254625 
361.11673 0.497146 
361.256348 1.479032 
361.291107 0.078435 
361.365662 0.455433 
362.232208 0.441062 
362.268494 1.761464 
363.264923 0.097736 
367.59845 0.089906 
369.836395 2.254421 
387.847412 1.02311 
END IONS

