BEGIN IONS
PEPMASS=268.0
CHARGE=1+
COMPOUNDNAME=Massbank:KO002040 Adenosine
LIBRARYQUALITY=3
SMILES=OC[C@@H](O1)[C@@H](O)[C@@H](O)[C@@H]1n(c3)c(n2)c(n3)c(N)nc2
INCHIKEY=OIRDTQYFTABQOQ-KQYNXXCUSA-N
INCHI=1S/C10H13N5O4/c11-8-5-9(13-2-12-8)15(3-14-5)10-7(18)6(17)4(1-16)19-10/h2-4,6-7,10,16-18H,1H2,(H2,11,12,13)/t4-,6-,7-,10-/m1/s1
MSLEVEL=2
SOURCE_INSTRUMENT=ESI-LC-ESI-QQ
FILENAME=Massbank_ESI_positive_8_1_2014_peaks.mgf
SEQ=*..*
IONMODE=Positive
ORGANISM=MASSBANK
NAME=Massbank:KO002040 Adenosine [M+H]+
PI=Putative Massbank Match
DATACOLLECTOR=Massbank
PUBMED=N/A
SUBMITUSER=mwang87
TAGS=
SPECTRUMID=CCMSLIB00000216561
SCANS=7842
40.8 14851.5 
43.2 99010.0 
44.8 24752.5 
55.0 376238.0 
57.2 896040.5 
59.1 544555.0 
61.0 178218.0 
69.1 504951.0 
71.1 198020.0 
72.9 955446.5 
73.9 1014852.5 
76.8 24752.5 
85.0 1282179.5 
86.8 282178.5 
89.9 14851.5 
93.3 44554.5 
94.2 54455.5 
94.4 19802.0 
97.1 584159.0 
103.0 247525.0 
106.9 59406.0 
115.2 613862.0 
119.1 341584.5 
120.3 89109.0 
121.0 1029704.0 
133.0 435644.0 
136.1 126128839.0 
136.9 79208.0 
138.0 702971.0 
148.9 54455.5 
150.3 34653.5 
154.1 9901.0 
161.0 29703.0 
163.4 39604.0 
177.1 64356.5 
178.3 133663.5 
195.1 59406.0 
202.6 29703.0 
208.0 34653.5 
268.1 326733.0 
END IONS

