BEGIN IONS
PEPMASS=319.118
CHARGE=1+
COMPOUNDNAME=Dechlorogriseofulvin
LIBRARYQUALITY=3
SMILES=N/A
INCHIKEY=QPCYNIYZPDJCMB-UHFFFAOYSA-N
INCHI=InChI=1S/C17H18O6/c1-9-5-10(18)6-14(22-4)17(9)16(19)15-12(21-3)7-11(20-2)8-13(15)23-17/h6-9H,5H2,1-4H3
MSLEVEL=2
SOURCE_INSTRUMENT=N/A-ESI-QFT
FILENAME=library_mgf.mgf
SEQ=*..*
IONMODE=positive
ORGANISM=MONA
NAME=Dechlorogriseofulvin [M+H]+
PI=MoNA
DATACOLLECTOR=MoNA:VF-NPL-QEHF000826
PUBMED=N/A
SUBMITUSER=mwang87
TAGS=
SPECTRUMID=CCMSLIB00004691889
SCANS=826
50.498634 0.010688 
50.639389 0.009924 
51.51189 0.006773 
51.568115 0.007133 
51.687843 0.008643 
51.779877 0.011134 
52.039036 0.011656 
52.366829 0.012068 
52.610023 0.010205 
52.855091 0.01073 
52.948788 0.009281 
53.002911 0.048842 
54.098194 0.010813 
55.018589 0.273363 
55.686848 0.009193 
56.372093 0.011757 
56.714005 0.010629 
56.999435 0.009897 
57.252266 0.010311 
57.274597 0.011995 
57.33876 0.008451 
57.57008 0.007807 
57.729336 0.009143 
59.064087 0.011893 
59.285847 0.010565 
60.566959 0.01222 
60.903618 0.009902 
61.856159 0.007692 
63.044971 0.011146 
63.167713 0.010367 
63.174194 0.009485 
63.665894 0.007544 
63.688248 0.010182 
65.075417 0.010014 
65.214058 0.010201 
65.529121 0.010092 
65.880936 0.009456 
66.553009 0.011705 
66.59124 0.009038 
67.036263 0.009128 
68.314697 0.009558 
68.821327 0.00986 
69.034103 40.91927 
69.285927 0.008834 
69.45623 0.008108 
69.954933 0.010265 
70.037453 1.581422 
70.390839 0.00956 
70.865669 0.009953 
71.063614 0.010875 
72.538895 0.012189 
72.75959 0.010472 
72.767151 0.010171 
73.228485 0.010941 
73.5476 0.010615 
74.490417 0.011415 
74.501328 0.011956 
74.639694 0.012868 
78.655449 0.01157 
79.079826 0.008671 
80.249252 0.012534 
80.469208 0.00874 
80.826553 0.007888 
81.148918 0.012432 
81.610115 0.009465 
83.227417 0.009293 
84.094063 0.011403 
84.122643 0.010711 
84.429596 0.011665 
84.983971 0.010582 
85.653984 0.006901 
86.096901 0.027987 
86.493027 0.010309 
87.450607 0.009559 
89.898445 0.009541 
89.976814 0.009553 
90.107231 0.013607 
91.335022 0.00988 
91.790794 0.011689 
93.521278 0.012777 
94.590515 0.009765 
95.374557 0.009607 
95.94725 0.01106 
96.688622 0.010784 
96.707314 0.007269 
96.7472 0.010508 
97.205666 0.007961 
97.396461 0.008124 
99.044411 1.262663 
101.356018 0.009379 
102.157127 0.009549 
102.330437 0.007465 
102.387108 0.00786 
103.061913 0.007405 
103.355751 0.010222 
104.804916 0.00847 
106.852554 0.009991 
107.049599 0.026986 
108.199532 0.009405 
109.01754 0.007826 
109.064926 0.025721 
110.375694 0.011477 
111.087822 0.011246 
111.344131 0.007617 
111.894341 0.010967 
112.223549 0.010643 
113.059914 1.42522 
113.103157 0.00818 
113.792068 0.014184 
117.237976 0.00836 
121.979637 0.011733 
124.596985 0.011701 
125.059837 0.083041 
125.90583 0.008522 
126.400436 0.009039 
131.130157 0.010503 
131.258286 0.007375 
133.354904 0.011968 
135.080353 0.011686 
137.103394 0.008748 
138.782181 0.007174 
139.034485 0.00913 
139.075195 0.425931 
139.59845 0.010702 
141.417313 0.011798 
141.54599 0.008854 
142.618042 0.007095 
143.824722 0.00895 
148.269043 0.009559 
149.077988 0.012852 
150.031235 0.042691 
151.039474 0.011563 
151.888702 0.008533 
155.426987 0.007084 
156.162216 0.008067 
158.629486 0.010233 
158.939972 0.011417 
160.181091 0.013319 
161.03447 0.012821 
161.436813 0.009978 
163.07518 1.609902 
164.078659 0.032441 
164.328796 0.011486 
165.054474 58.073559 
166.025955 0.275717 
166.057861 5.341536 
167.059723 0.097768 
173.974243 0.009917 
174.042267 0.008498 
178.262909 0.008985 
179.134262 0.011891 
180.333359 0.007245 
181.049377 100.0 
181.159515 0.010712 
182.052811 9.480745 
183.054321 0.401363 
183.064972 0.577035 
187.292252 0.010912 
187.556046 0.009154 
188.314209 0.010342 
188.485748 0.011302 
190.819321 0.009473 
191.069839 0.174625 
191.939178 0.009712 
192.027695 0.010425 
192.077896 0.094956 
192.694305 0.00896 
208.387665 0.007763 
214.312637 0.011546 
215.070618 0.152444 
215.082153 0.23447 
215.084625 0.22874 
215.095474 0.090172 
215.098373 0.091366 
217.324066 0.008461 
217.635651 0.012116 
218.287415 0.010608 
219.065048 3.152552 
220.068314 0.291817 
221.044296 0.75726 
221.080688 4.310111 
222.047852 0.01183 
222.083908 0.436704 
223.059875 0.033232 
223.084564 0.062089 
223.096237 6.514491 
224.09964 0.775839 
225.838745 0.01162 
229.41745 0.011053 
230.111801 0.010072 
231.101166 1.305324 
232.104767 0.065063 
232.863525 0.011794 
233.771942 0.010946 
236.067734 0.767706 
241.504578 0.007859 
243.065308 0.12093 
244.07251 0.322465 
245.080566 0.931847 
246.082458 0.010388 
246.181732 0.010732 
249.075562 0.789776 
250.077133 0.012186 
251.091064 54.486568 
251.574646 0.010905 
252.09436 7.519402 
253.096375 0.456721 
254.37204 0.010566 
259.096191 5.211832 
259.111206 0.011885 
260.099579 0.79271 
261.077484 0.010068 
262.994659 0.008996 
269.080322 0.046825 
272.067352 1.280195 
273.070831 0.022701 
273.242065 0.010929 
277.070221 0.606813 
277.106537 2.06841 
278.072296 0.011644 
278.110016 0.228978 
279.256897 0.010855 
286.083405 0.125561 
287.090973 6.989317 
287.517914 0.01395 
288.093994 1.207095 
291.121552 0.069061 
292.128174 0.007414 
301.106934 0.94295 
302.108948 0.014484 
304.088989 0.012209 
305.125031 0.011149 
310.155426 0.012596 
311.227905 0.011083 
318.555634 0.008798 
319.117188 5.061783 
319.135742 0.352866 
319.882385 0.009325 
320.120453 0.908636 
324.672424 0.010001 
330.704193 0.010245 
338.108093 0.009109 
END IONS

