BEGIN IONS
TITLE=Scan Number: 1281
PEPMASS=313.10501
CHARGE=1+
COMPOUNDNAME="a,b-Dehydrocurvularin_120247"
LIBRARYQUALITY=2
SMILES=O=C1O[C@@H](C)CCC/C=C\C(C2=C(O)C=C(O)C=C2C1)=O
INCHIKEY=AVIRMQMUBGNCKS-OAQKJQOQSA-N
INCHI=N/A
MSLEVEL=2
SOURCE_INSTRUMENT=LC-ESI-qToF
FILENAME=P1_C2_conc_GA2_01_2408.mzXML
SEQ=*..*
NOTES=
IONMODE=Positive
ORGANISM=GNPS-LIBRARY
NAME="a,b-Dehydrocurvularin_120247" M+Na
SPECTRUMID=CCMSLIB00000478086
ACTIVATION=CID
INSTRUMENT=ion trap
SCANS=1281
143.083359 448.0 
154.941986 596.0 
232.956436 368.0 
235.090485 384.0 
311.044342 344.0 
311.187622 388.0 
313.10376 4760.0 
313.195404 252.0 
314.106506 868.0 
315.116913 508.0 
329.062683 332.0 
END IONS

