BEGIN IONS
PEPMASS=324.172
CHARGE=1+
COMPOUNDNAME=ERGONOVINE MALEATE
LIBRARYQUALITY=3
SMILES=N/A
INCHIKEY=WVVSZNPYNCNODU-XTQGRXLLSA-N
INCHI=InChI=1S/C19H23N3O2/c1-11(10-23)21-19(24)13-6-15-14-4-3-5-16-18(14)12(8-20-16)7-17(15)22(2)9-13/h3-6,8,11,13,17,20,23H,7,9-10H2,1-2H3,(H,21,24)/t11-,13+,17+/m0/s1
MSLEVEL=2
SOURCE_INSTRUMENT=N/A-ESI-QFT
FILENAME=library_mgf.mgf
SEQ=*..*
IONMODE=negative
ORGANISM=MONA
NAME=ERGONOVINE MALEATE [M-H]-
PI=MoNA
DATACOLLECTOR=MoNA:VF-NPL-QEHF027714
PUBMED=N/A
SUBMITUSER=mwang87
TAGS=
SPECTRUMID=CCMSLIB00004721295
SCANS=27714
50.561504 0.063417 
50.589729 0.049128 
50.893974 0.049273 
50.96854 0.055672 
51.044044 0.065918 
51.970791 0.064295 
52.318287 0.056696 
52.486317 0.059398 
53.466038 0.053132 
53.531872 0.061037 
54.570534 0.065172 
54.683685 0.058084 
55.474541 0.071721 
55.758282 0.054695 
55.960339 0.058545 
55.991676 0.051969 
56.690063 0.043932 
56.866955 0.066353 
56.957932 0.050403 
57.330494 0.059763 
57.379364 0.067297 
57.532028 0.051878 
57.763809 0.068713 
58.565651 0.057395 
59.038651 0.050102 
59.179874 0.05102 
59.356552 0.048027 
59.46759 0.049934 
60.319221 0.046375 
60.747559 0.068905 
60.801018 0.064674 
61.304443 0.054743 
61.419048 0.042323 
61.670689 0.05929 
62.866165 0.052501 
63.521347 0.046353 
63.547443 0.053252 
63.809029 0.057489 
64.609253 0.040944 
64.677643 0.061413 
65.199585 0.052299 
65.537247 0.064049 
65.762383 0.067916 
65.809906 0.05731 
66.317291 0.057198 
66.921524 0.055582 
67.934448 0.077134 
68.256775 0.067023 
69.769165 0.068095 
70.028419 0.354666 
70.493675 0.06775 
70.668434 0.050624 
71.469833 0.05478 
72.044144 0.235197 
72.877655 0.067815 
73.550652 0.077751 
73.740578 0.058958 
74.636795 0.068066 
75.388206 0.057336 
76.383743 0.065185 
76.903961 0.057369 
77.165993 0.063382 
77.774025 0.074754 
79.956062 3.247499 
80.603004 0.066927 
80.65892 0.049957 
85.409828 0.070349 
85.52681 0.051751 
87.628593 0.05951 
88.055931 0.062155 
89.679527 0.042649 
92.227806 0.057218 
92.294975 0.064297 
92.686134 0.050572 
94.655975 0.057503 
94.90612 0.055035 
94.94915 0.05337 
94.960815 0.050917 
95.457542 0.06518 
96.415131 0.061094 
96.958786 0.509949 
97.191689 0.067953 
98.434273 0.053398 
98.73497 0.057246 
98.942734 0.072297 
100.148392 0.058944 
100.489243 0.070847 
101.150665 0.064091 
101.239952 0.06832 
102.532463 0.066967 
102.931465 0.070475 
103.3508 0.061084 
103.867371 0.059341 
105.285072 0.065537 
106.465858 0.066365 
111.977165 0.060571 
112.553108 0.052199 
113.102615 0.06436 
115.106789 0.073005 
116.728424 0.058648 
118.382278 0.066226 
119.048973 1.709743 
121.857819 0.062268 
122.509872 0.056689 
123.186684 0.057692 
125.161964 0.057096 
126.055008 0.147941 
127.140327 0.050371 
127.749527 0.06796 
129.057129 0.138138 
129.214325 0.060705 
131.286789 0.052263 
131.657455 0.060606 
133.064774 0.547156 
134.135895 0.062276 
134.655762 0.062035 
135.804184 0.04607 
137.08046 0.051383 
137.831757 0.068256 
138.46196 0.086314 
139.356598 0.063062 
140.646057 0.063173 
140.656357 0.052786 
141.920837 0.047685 
142.20668 0.062993 
144.001541 0.066504 
145.345886 0.06956 
148.090576 0.052155 
148.664978 0.056381 
148.841919 0.059668 
150.032867 0.061617 
151.357742 0.066682 
153.057358 1.66588 
154.065338 0.101112 
155.345947 0.04917 
157.464966 0.056996 
163.828705 0.061418 
164.703445 0.069064 
166.065262 1.694287 
167.060654 0.452277 
168.081009 0.457798 
169.423676 0.063109 
169.711746 0.063121 
170.003448 2.316067 
170.060242 0.097198 
172.436569 0.067921 
173.363998 0.064311 
178.052841 0.166852 
178.064987 0.118772 
179.060532 1.656367 
179.073288 10.297056 
179.702896 0.048506 
180.068451 25.16398 
180.081085 15.056836 
180.748459 0.076117 
181.071793 1.626772 
181.084488 1.291594 
182.083527 0.081777 
182.096237 0.075032 
183.011322 80.456818 
184.019302 5.131702 
185.572083 0.078932 
189.057236 0.06677 
190.065445 0.074514 
190.085953 0.074912 
191.06073 0.545129 
191.49353 0.063921 
192.081009 1.029478 
193.076355 2.68902 
194.060547 0.181211 
194.08429 2.430319 
194.096207 0.252961 
195.092148 3.666133 
195.935379 0.060587 
196.094315 0.071564 
196.112259 0.613311 
197.027039 100.0 
197.078384 0.061957 
198.035675 12.138902 
199.038727 0.318781 
199.532639 0.078711 
199.587189 0.064181 
201.018616 0.082131 
204.068542 0.32035 
205.076385 0.647555 
205.455505 0.066275 
206.083817 0.300651 
206.261063 0.080193 
207.092117 10.568638 
207.522842 0.06837 
208.099228 1.381092 
208.705826 0.058989 
209.282364 0.068164 
211.032928 0.054682 
211.042938 4.096154 
212.050629 0.063133 
213.492554 0.070947 
214.372253 0.06352 
216.775574 0.048883 
217.473282 0.053205 
219.957199 0.553253 
219.995636 0.085369 
221.107788 3.124738 
222.111481 0.150512 
223.086868 0.067674 
223.12352 5.261567 
224.127533 0.086198 
224.556015 0.06552 
224.585052 0.064948 
225.058502 0.995003 
228.096222 0.069277 
229.917236 0.057783 
229.967331 0.049461 
229.985596 0.056469 
230.024902 1.518163 
233.071976 0.088464 
234.276703 0.050803 
239.074234 0.916291 
239.166443 0.049329 
248.111542 0.053954 
249.284637 0.065702 
250.036774 0.056051 
253.090668 0.524456 
254.949661 0.062655 
259.215607 0.061787 
265.189789 0.064969 
267.106049 0.136248 
281.12146 0.117825 
295.137482 0.177913 
306.280762 0.066826 
307.783936 0.064669 
308.140839 0.087607 
320.236267 0.068051 
322.22171 0.072149 
323.168823 0.202824 
325.184113 13.379669 
326.187378 1.128067 
328.380463 0.066543 
328.676575 0.064496 
331.302124 0.056159 
337.37439 0.062014 
338.725311 0.061172 
342.979401 0.075166 
349.772308 0.070781 
END IONS

