BEGIN IONS
PEPMASS=582.274
CHARGE=1+
COMPOUNDNAME=Massbank: Streptomycin
LIBRARYQUALITY=3
SMILES=[H]N([H])C(N([H])[H])=NC([H])(C([H])(O[H])1)C([H])(O[H])C([H])(N=C(N([H])[H])N([H])[H])C([H])(OC([H])(O2)C([H])(OC([H])(O3)C([H])(N([H])C([H])([H])[H])C([H])(O[H])C([H])(O[H])C([H])(C([H])([H])O[H])3)C(O[H])(C([H])=O)C([H])(C([H])([H])[H])2)C([H])(O[H])1
INCHIKEY=UCSJYZPVAKXKNQ-UHFFFAOYSA-N
INCHI=1S/C21H39N7O12/c1-5-21(36,4-30)16(40-17-9(26-2)13(34)10(31)6(3-29)38-17)18(37-5)39-15-8(28-20(24)25)11(32)7(27-19(22)23)12(33)14(15)35/h4-18,26,29,31-36H,3H2,1-2H3,(H4,22,23,27)(H4,24,25,28)/t5-,6-,7+,8-,9-,10-,11+,12-,13-,14+,15+,16-,17-,18-,21+/m0/s1
MSLEVEL=2
SOURCE_INSTRUMENT=ESI-LC-ESI-QTOF
FILENAME=Massbank_ESI_positive_8_1_2014_peaks.mgf
SEQ=*..*
IONMODE=Positive
ORGANISM=MASSBANK
NAME=Massbank: Streptomycin [M+H]+
PI=Putative Massbank Match
DATACOLLECTOR=Massbank
PUBMED=N/A
SUBMITUSER=mwang87
TAGS=
SPECTRUMID=CCMSLIB00000206381
SCANS=1640
57.031 109.553 
57.0447 126.156 
57.0542 132.07 
58.0695 407.506 
60.0519 805.914 
61.0371 177.18 
69.0347 491.281 
70.0678 1003.033 
71.0664 140.637 
72.0442 389.765 
73.0212 120.773 
73.0436 169.143 
73.0537 341.471 
74.0593 2901.44 
80.0485 609.401 
81.0328 656.634 
82.0593 249.128 
84.0482 682.411 
84.0822 227.066 
85.0369 1429.113 
86.0604 4821.077 
87.0414 136.922 
94.0635 376.876 
96.0661 173.92 
97.0182 258.226 
97.0387 539.575 
97.0525 609.401 
98.0568 2216.831 
99.0377 162.168 
99.054 529.871 
100.0762 670.053 
101.0374 218.499 
102.0598 249.128 
103.0482 243.215 
104.0623 177.18 
108.0433 769.522 
109.0241 418.271 
109.0382 156.255 
109.064 309.249 
110.0587 1752.085 
111.0426 161.031 
111.0537 229.265 
112.0703 672.707 
113.0288 173.92 
114.0537 1068.992 
115.0551 389.765 
122.0619 788.476 
124.0672 265.732 
125.0458 165.353 
126.0598 2153.146 
127.0402 488.021 
127.0742 103.639 
128.0712 805.155 
130.1006 249.128 
132.0467 177.18 
133.0623 177.18 
134.0513 115.997 
136.0715 177.18 
138.0546 177.18 
139.0623 421.456 
140.0708 830.174 
142.0814 167.475 
143.0616 265.732 
144.0682 1963.609 
146.0667 301.213 
150.0641 218.499 
151.0476 924.185 
152.067 587.87 
156.0635 265.732 
158.0739 1043.973 
158.1068 127.748 
160.0917 185.216 
161.0893 332.904 
164.0616 265.732 
168.077 557.316 
169.0607 165.353 
170.0801 249.659 
172.0898 200.758 
172.1097 116.528 
174.0732 402.654 
175.0598 457.998 
176.0886 2595.906 
179.0996 1770.281 
183.0845 167.475 
185.0979 520.773 
186.0842 2634.572 
187.0648 335.027 
188.0854 324.261 
191.0957 165.353 
193.0515 177.18 
194.0713 115.997 
199.0901 432.221 
200.0821 165.353 
203.1099 1592.873 
204.0939 10000.0 
208.1019 138.514 
210.0807 165.353 
211.0743 326.99 
212.096 165.353 
217.0896 2819.56 
220.9279 165.353 
221.121 7482.942 
226.0828 265.732 
227.1274 265.732 
229.0959 471.418 
232.0825 167.475 
245.1289 556.179 
246.1165 9454.132 
247.0893 320.015 
248.579 165.353 
249.1058 255.042 
262.0952 354.359 
263.1392 3178.165 
270.1154 165.353 
274.0977 167.475 
279.1234 165.353 
286.0907 177.18 
288.1222 491.281 
302.1381 100.91 
303.1218 265.732 
304.1121 165.353 
346.1366 255.042 
348.1422 343.594 
365.1645 477.862 
END IONS

