BEGIN IONS
TITLE=Scan Number: 1291
PEPMASS=259.06
CHARGE=1+
COMPOUNDNAME=Alternariol_120108
LIBRARYQUALITY=2
SMILES=OC1=C2C(C(C(C)=CC(O)=C3)=C3OC2=O)=CC(O)=C1
INCHIKEY=CEBXXEKPIIDJHL-UHFFFAOYSA-N
INCHI=N/A
MSLEVEL=2
SOURCE_INSTRUMENT=LC-ESI-qToF
FILENAME=P1_C9_conc_GA9_01_2415.mzXML
SEQ=*..*
NOTES=
IONMODE=Positive
ORGANISM=GNPS-LIBRARY
NAME=Alternariol_120108 M+H
SPECTRUMID=CCMSLIB00000478422
ACTIVATION=CID
INSTRUMENT=ion trap
SCANS=1291
103.055077 252.0 
115.055519 932.0 
116.06076 576.0 
117.066551 572.0 
128.060989 1432.0 
129.069336 1020.0 
131.046585 320.0 
131.086212 424.0 
135.078445 676.0 
139.05304 1196.0 
140.054276 264.0 
141.070236 1716.0 
143.047668 492.0 
144.054901 688.0 
145.064957 1140.0 
146.036301 364.0 
147.041031 848.0 
149.062347 344.0 
151.039642 848.0 
157.06427 4792.0 
158.066971 816.0 
159.079376 1332.0 
160.051254 644.0 
161.059647 4460.0 
162.062943 724.0 
163.07486 1792.0 
164.082352 380.0 
167.046112 1760.0 
169.065002 984.0 
171.042618 2284.0 
172.052048 588.0 
173.058151 1380.0 
174.028915 616.0 
175.036316 352.0 
175.076477 920.0 
184.053909 540.0 
185.020432 472.0 
185.059021 19592.0 
186.061707 2880.0 
187.074188 2096.0 
188.074539 456.0 
189.014496 440.0 
189.054123 3676.0 
190.059998 444.0 
191.070541 4168.0 
192.071899 512.0 
195.044693 624.0 
197.058029 588.0 
198.069168 796.0 
199.037766 1180.0 
200.045593 1896.0 
201.050262 328.0 
202.028564 396.0 
203.030273 448.0 
203.068161 1564.0 
204.07312 424.0 
207.026321 744.0 
211.039474 620.0 
212.05043 420.0 
213.053925 19460.0 
214.058151 1640.0 
215.056839 504.0 
216.040237 2028.0 
217.049118 7184.0 
218.049744 412.0 
223.033264 548.0 
229.053757 564.0 
231.064606 1592.0 
240.04715 360.0 
241.049347 13292.0 
242.052582 2256.0 
243.049728 448.0 
244.03624 19044.0 
245.038376 2204.0 
246.037979 396.0 
257.042419 396.0 
257.207703 340.0 
257.2453 1044.0 
258.245819 384.0 
259.060303 196072.0 
259.307129 324.0 
259.369354 468.0 
259.587372 416.0 
260.008575 296.0 
260.062988 22916.0 
260.309113 344.0 
261.063782 3868.0 
261.125763 556.0 
261.533264 252.0 
262.071838 380.0 
END IONS

