BEGIN IONS
PEPMASS=804.489
CHARGE=1+
COMPOUNDNAME=MoNA:606845 Tacrolimus
LIBRARYQUALITY=3
SMILES=N/A
INCHIKEY=QJJXYPPXXYFBGM-LJIGMGMYSA-N
INCHI=InChI=1S/C44H69NO12/c1-10-13-31-19-25(2)18-26(3)20-37(54-8)40-38(55-9)22-28(5)44(52,57-40)41(49)42(50)45-17-12-11-14-32(45)43(51)56-39(29(6)34(47)24-35(31)48)27(4)21-30-15-16-33(46)36(23-30)53-7/h10,19,21,26,28-34,36-40,46-47,52H,1,11-18,20,22-24H2,2-9H3/b25-19-,27-21+/t26-,28+,29+,30-,31+,32-,33+,34-,36+,37-,38-,39+,40+,44+/m0/s1
MSLEVEL=2
SOURCE_INSTRUMENT=LC-ESI-QFT-LC-ESI-QFT
FILENAME=output_mgf.mgf
SEQ=*..*
IONMODE=
ORGANISM=MONA
NAME=MoNA:606845 Tacrolimus [M+H]+
PI=MoNA
DATACOLLECTOR=MoNA
PUBMED=N/A
SUBMITUSER=mwang87
TAGS=
SPECTRUMID=CCMSLIB00000572843
SCANS=10094
56.0495 8.809271 
57.0335 0.851551 
57.0699 0.905583 
59.0492 1.48142 
63.0227 0.295464 
65.0386 8.117112 
66.0464 0.308324 
67.0542 31.902961 
69.0335 18.077498 
69.0699 6.29144 
71.0128 4.287602 
71.0491 4.461472 
73.0284 0.323052 
73.0648 0.248963 
74.0965 0.405984 
77.0384 2.43847 
78.0464 1.069467 
79.0542 45.239536 
80.0494 0.350724 
80.062 0.318338 
81.0335 4.681228 
81.0699 21.137385 
82.0288 1.088045 
82.0413 0.800754 
82.0652 3.834085 
83.0129 0.340207 
83.0491 4.250139 
83.0855 0.72435 
84.0808 100.0 
85.0284 0.89808 
85.0648 8.525886 
87.0441 0.188291 
91.0543 76.232841 
92.0621 0.862765 
93.07 32.859983 
94.0414 1.422952 
94.0654 0.255379 
94.0778 0.831466 
95.0492 25.984924 
95.0856 12.635573 
96.0571 0.386206 
96.0808 0.288406 
97.0649 4.650934 
99.044 0.330751 
99.0805 0.677123 
101.0596 0.207623 
103.0543 4.905448 
104.0621 1.444403 
105.0448 7.536533 
105.0699 54.427705 
106.0776 0.372984 
107.0492 4.590793 
107.0855 22.811783 
108.0569 1.518102 
108.0809 0.379679 
109.0285 74.706593 
109.0649 13.584757 
110.06 2.319916 
110.0727 0.257694 
110.0966 0.333596 
111.0441 2.377854 
111.0805 6.277185 
112.0756 0.283079 
113.0597 0.880311 
115.0543 9.419753 
116.0621 3.701639 
117.0699 17.774168 
118.0777 1.100793 
119.0493 1.941018 
119.0604 2.339164 
119.0856 33.273861 
120.0571 0.277583 
120.0809 0.175739 
120.0937 0.306901 
121.0284 0.998167 
121.0648 8.255025 
121.1012 4.066339 
122.0728 0.36827 
122.0965 0.25178 
123.044 5.008632 
123.0805 3.950184 
124.0521 0.222825 
125.0237 0.20037 
125.0597 2.27428 
125.0963 0.194149 
127.0389 0.254877 
127.0541 0.347042 
127.0749 0.185558 
128.0621 22.775101 
128.0705 13.538172 
129.0699 21.239425 
130.0779 6.488936 
130.0862 4.47687 
131.0491 1.189025 
131.0856 20.274398 
132.057 1.08771 
132.0933 0.758186 
133.0649 3.434098 
133.1012 8.744945 
134.0726 0.295575 
135.0441 3.013219 
135.0804 5.134578 
135.1169 0.854647 
136.1122 1.744358 
137.0236 0.320458 
137.0598 2.768412 
137.0962 0.978473 
139.0392 1.28967 
139.0753 0.386178 
140.0709 0.212783 
141.0699 12.954832 
142.0778 15.664329 
143.0856 22.576377 
144.057 1.304454 
144.0934 4.072085 
145.065 4.391148 
145.1013 12.244932 
146.0727 2.122894 
146.1091 0.684962 
147.0805 4.513189 
147.1168 2.320697 
148.0883 0.685241 
148.1121 0.197525 
149.0235 0.223495 
149.0597 1.425184 
149.0961 1.130166 
150.0914 0.27909 
151.0753 1.130166 
151.1117 0.279062 
152.0619 1.349867 
152.107 0.934511 
153.0547 0.373486 
153.07 6.098378 
154.0778 3.94162 
155.0341 1.302836 
155.0605 2.371912 
155.0856 11.85574 
156.0935 12.668768 
157.065 2.203957 
157.1013 9.231043 
158.0728 1.784193 
158.109 1.923556 
159.0806 4.229887 
159.1169 4.421693 
160.0882 1.210504 
160.1244 0.195237 
161.0599 0.693247 
161.0962 3.995988 
161.1325 1.437458 
162.1032 0.168625 
163.0755 0.831801 
163.1116 0.386402 
164.1071 0.404254 
165.07 8.205986 
166.0777 3.195987 
167.0856 6.218411 
168.0934 3.883069 
169.0496 0.40233 
169.0648 0.391953 
169.1013 6.264437 
170.0726 0.434269 
170.1091 2.330181 
171.0805 3.232501 
171.1169 4.574669 
172.0883 2.420896 
173.0596 0.184972 
173.0963 2.932295 
173.1325 1.651468 
174.0677 0.265812 
174.1041 0.415887 
175.0753 1.623461 
175.112 1.060373 
177.0915 0.235573 
178.0778 2.727936 
179.0703 0.277053 
179.0856 5.105763 
180.0935 3.684847 
181.0649 0.997665 
181.1013 4.953902 
182.0726 1.099621 
182.1092 1.475451 
182.117 0.473322 
183.0648 0.17956 
183.0805 2.49214 
183.1169 3.543196 
184.0884 1.189359 
184.1247 0.186227 
185.0963 1.450596 
185.1325 1.344149 
186.1038 0.756764 
187.0599 0.38947 
187.1119 1.202749 
189.0701 0.307766 
189.0907 0.572824 
189.1277 0.384588 
190.0778 0.418035 
191.0855 2.042584 
192.0934 1.916833 
192.1015 0.557844 
193.1013 4.328859 
194.1092 1.633615 
195.0804 1.861852 
195.1169 2.695746 
196.0884 1.189276 
196.1248 0.40975 
197.096 1.618608 
197.1326 1.144448 
198.1039 0.923464 
199.0755 0.283999 
199.1119 1.439578 
200.1193 0.209882 
201.1274 0.392566 
202.0778 0.371813 
203.0857 1.003523 
204.0936 0.399066 
205.1014 1.763773 
206.1091 1.429173 
207.0802 0.259061 
207.1169 2.358941 
208.0882 0.798271 
208.1251 0.288351 
209.0963 1.568201 
209.1329 0.795677 
210.1041 0.639354 
210.1131 0.213676 
211.1119 1.1606 
212.1198 0.222156 
213.0905 0.199979 
213.1274 0.289606 
215.0861 0.30082 
216.0937 0.316608 
217.1011 1.464042 
218.1091 0.414269 
219.0803 0.198919 
219.1175 1.299768 
220.088 0.234234 
220.1237 0.245309 
221.0958 0.901706 
221.1323 0.361212 
222.1046 0.332983 
223.0748 0.211584 
223.112 0.784938 
224.12 0.286872 
225.0901 0.207065 
225.1276 0.416445 
229.1019 0.230273 
231.1173 1.264983 
232.1251 0.414994 
233.0962 0.253036 
233.1329 0.313651 
235.1115 0.693749 
236.1196 0.231584 
237.1279 0.324782 
239.1071 0.169853 
245.097 0.206702 
247.1476 0.196381 
249.1275 0.231026 
251.1073 0.189044 
252.1137 0.240037 
END IONS

