BEGIN IONS
PEPMASS=243.081
CHARGE=1+
COMPOUNDNAME=BIOTIN
LIBRARYQUALITY=3
SMILES=N/A
INCHIKEY=YBJHBAHKTGYVGT-ZKWXMUAHSA-N
INCHI=InChI=1S/C10H16N2O3S/c13-8(14)4-2-1-3-7-9-6(5-16-7)11-10(15)12-9/h6-7,9H,1-5H2,(H,13,14)(H2,11,12,15)/t6-,7-,9-/m0/s1
MSLEVEL=2
SOURCE_INSTRUMENT=N/A-ESI-QFT
FILENAME=library_mgf.mgf
SEQ=*..*
IONMODE=negative
ORGANISM=MONA
NAME=BIOTIN [M-H]-
PI=MoNA
DATACOLLECTOR=MoNA:VF-NPL-QEHF028115
PUBMED=N/A
SUBMITUSER=mwang87
TAGS=
SPECTRUMID=CCMSLIB00004721696
SCANS=28115
50.068203 0.100396 
50.278507 0.103355 
50.4841 0.097349 
50.486622 0.13331 
50.56163 0.098421 
50.72863 0.11484 
51.219433 0.129611 
51.250164 0.116274 
51.452839 0.138003 
51.689674 0.121792 
51.865448 0.14516 
52.017803 0.471773 
52.513905 0.162377 
53.216846 0.101362 
53.46093 0.07273 
53.562332 0.144272 
53.702194 0.109591 
53.76881 0.137594 
53.894985 0.103511 
54.494553 0.123462 
55.0065 0.108605 
55.300743 0.104787 
55.779171 0.122684 
55.831104 0.129255 
55.881374 0.123555 
56.105324 0.110934 
56.167713 0.09713 
57.085796 0.135459 
57.818485 0.117493 
57.85054 0.121723 
57.88216 0.152739 
58.391785 0.120421 
58.440559 0.133242 
58.481125 0.111806 
58.572285 0.104473 
58.984692 0.147557 
59.012268 0.138507 
59.023567 0.130308 
59.421394 0.141208 
59.553246 0.120411 
59.566704 0.121322 
59.578499 0.105677 
60.026894 0.128102 
60.424652 0.12667 
60.625385 0.112216 
60.807869 0.128316 
61.067497 0.129689 
61.239864 0.129632 
61.296703 0.103211 
61.883118 0.102225 
62.373661 0.138552 
62.89455 0.127547 
62.922657 0.100144 
63.283688 0.154011 
63.666615 0.094994 
63.931541 0.158189 
65.741905 0.112301 
65.802727 0.173404 
66.317146 0.089064 
66.683113 0.113928 
66.879486 0.11384 
67.497971 0.12321 
67.920624 0.123396 
67.981522 0.127702 
68.049141 14.954936 
68.051758 0.10889 
69.088211 0.09716 
70.225311 0.126931 
70.4599 0.145819 
71.534515 0.11887 
71.989899 2.067191 
72.73494 0.132033 
73.335579 0.089892 
74.005554 15.368572 
74.606697 0.141506 
76.400139 0.111219 
76.896225 0.121974 
77.93766 0.085165 
78.14019 0.13512 
78.47686 0.094616 
79.219627 0.123224 
79.624413 0.161215 
79.704971 0.137908 
80.034027 0.145566 
81.170349 0.089246 
81.985657 0.113503 
82.109772 0.118111 
82.152016 0.14184 
82.587486 0.152579 
84.388298 0.117146 
85.28717 0.116554 
85.332085 0.12926 
86.711731 0.112645 
86.824692 0.134498 
87.108292 0.129763 
87.357338 0.123964 
87.491112 0.121941 
87.697136 0.117712 
88.052338 0.122238 
88.255363 0.108849 
89.077713 0.158604 
89.268623 0.137286 
90.323006 0.073771 
90.516586 0.186631 
91.627975 0.122789 
91.811729 0.112579 
92.011826 0.183235 
92.387337 0.153127 
92.528091 0.142279 
92.911133 0.11624 
92.962296 0.125755 
93.486069 0.116394 
93.816498 0.100784 
94.006454 0.150529 
94.352203 0.134349 
94.586006 0.152785 
94.897392 0.13311 
94.905884 0.080893 
94.95488 0.147047 
95.023674 6.497252 
96.00103 0.165018 
96.089729 0.142299 
97.039383 1.199135 
97.234665 0.124789 
98.064003 0.11447 
98.24115 0.118684 
100.261925 0.133772 
100.533539 0.145943 
101.146622 0.101947 
102.194771 0.147944 
102.221962 0.104741 
102.323799 0.149878 
103.057266 2.131627 
103.835426 0.08542 
104.278229 0.114078 
106.563133 0.137195 
107.928925 0.126219 
108.258873 0.099619 
108.609436 0.130886 
108.825462 0.115038 
109.390144 0.081678 
109.435654 0.144466 
109.46405 0.128149 
109.833214 0.133151 
110.518066 0.094414 
110.632637 0.135554 
111.044266 0.154586 
111.055023 3.064446 
111.972 0.123451 
112.018349 0.115467 
113.695755 0.127409 
113.872971 0.076565 
116.642204 0.115808 
119.108025 0.092991 
119.697105 0.11544 
120.080559 9.249967 
122.096207 36.540539 
122.759674 0.085536 
123.099609 1.177195 
123.155312 0.11451 
123.608032 0.107139 
124.247322 0.129045 
125.07972 0.126055 
125.448601 0.102187 
127.816345 0.14216 
130.068222 1.542278 
130.364548 0.103727 
131.097137 0.141478 
132.443512 0.154949 
136.279648 0.13232 
136.350861 0.115829 
137.660507 0.174021 
137.728897 0.125115 
138.600098 0.142145 
139.057358 15.304241 
140.06044 0.134798 
141.595337 0.104936 
142.368347 0.154093 
144.920151 0.109719 
147.676987 0.119568 
148.075623 0.097578 
150.561203 0.079855 
150.569031 0.077641 
150.72023 0.151039 
151.173065 0.122606 
151.261444 0.119331 
151.335632 0.136697 
151.589813 0.125318 
151.905869 0.128861 
152.034302 0.134824 
152.115982 0.124936 
153.102112 4.764418 
154.086121 2.516963 
156.083984 39.540775 
156.578217 0.101263 
157.087387 1.524925 
157.214401 0.101586 
160.668304 0.133692 
161.087128 0.147816 
164.392807 0.12643 
164.606796 0.148863 
165.102127 13.144751 
165.738617 0.081467 
166.086151 100.0 
166.105713 0.12489 
166.567581 0.124404 
166.809143 0.136332 
167.089645 7.438137 
167.405075 0.084758 
171.494247 0.126452 
171.805344 0.131505 
173.60437 0.112117 
176.052063 0.151713 
176.551041 0.111905 
177.226837 0.122936 
178.284546 0.097638 
178.390778 0.122511 
178.674561 0.148547 
179.081726 0.569885 
181.158737 1.684826 
184.502014 0.125393 
184.608017 0.10377 
188.41803 0.127023 
189.087036 0.099734 
190.641846 0.136496 
191.081528 0.650329 
191.289917 0.114258 
191.477448 0.143037 
197.092316 8.825853 
197.427109 0.114023 
197.699158 0.150907 
199.090103 3.798836 
200.074265 78.628403 
201.077576 4.856401 
201.205856 0.131579 
201.679092 0.107087 
202.069321 0.517539 
203.196182 0.187404 
209.092453 1.455962 
210.674911 0.110091 
210.870483 0.149848 
212.517532 0.137556 
216.23114 0.124816 
216.392044 0.13027 
216.675797 6.393701 
220.914764 0.128719 
222.432266 0.155329 
225.149139 1.47969 
228.152283 0.126669 
230.644012 0.126719 
231.631012 0.128045 
238.227859 0.128087 
240.053085 0.087212 
243.080414 39.350468 
244.083298 2.234507 
245.075745 0.108057 
247.161591 0.138839 
248.025818 0.148636 
250.710541 0.124483 
252.991989 0.144133 
253.794159 0.137075 
255.172043 0.083555 
END IONS

