BEGIN IONS
PEPMASS=343.115
CHARGE=1+
COMPOUNDNAME=MYCOPHENOLIC ACID
LIBRARYQUALITY=3
SMILES=N/A
INCHIKEY=HPNSFSBZBAHARI-RUDMXATFSA-N
INCHI=InChI=1S/C17H20O6/c1-9(5-7-13(18)19)4-6-11-15(20)14-12(8-23-17(14)21)10(2)16(11)22-3/h4,20H,5-8H2,1-3H3,(H,18,19)/b9-4+
MSLEVEL=2
SOURCE_INSTRUMENT=N/A-ESI-QFT
FILENAME=library_mgf.mgf
SEQ=*..*
IONMODE=positive
ORGANISM=MONA
NAME=MYCOPHENOLIC ACID [M+Na]+
PI=MoNA
DATACOLLECTOR=MoNA:VF-NPL-QEHF011296
PUBMED=N/A
SUBMITUSER=mwang87
TAGS=
SPECTRUMID=CCMSLIB00004702359
SCANS=11296
50.218174 0.008369 
51.34845 0.018103 
51.488365 0.01148 
51.624058 0.020153 
51.872498 0.012857 
51.89278 0.007394 
52.061604 0.003912 
52.972317 0.018135 
53.022652 0.011452 
53.119984 0.003799 
53.258205 0.009755 
53.974949 0.007871 
54.995838 0.018749 
55.195202 0.021723 
55.582092 0.006289 
55.651146 0.012542 
56.997364 0.01825 
57.529366 0.007747 
57.549789 0.004421 
58.255909 0.013264 
59.333492 0.020505 
60.11985 0.013775 
60.128597 0.011856 
60.715378 0.013559 
61.252342 0.018415 
62.14407 0.006877 
62.180138 0.01273 
62.880379 0.005834 
65.982689 0.008101 
66.966431 0.007896 
67.224152 0.013963 
67.433258 0.012861 
67.936691 0.019995 
68.248688 0.008871 
68.473862 0.006216 
68.843491 0.017921 
69.284103 0.00776 
69.622841 0.018212 
69.912865 0.004807 
70.009697 0.019189 
71.000465 0.01146 
71.763626 0.007042 
72.114288 0.018289 
72.918465 0.012671 
73.156487 0.009256 
75.36869 0.007325 
75.564522 0.005346 
75.591881 0.014874 
75.662125 0.032909 
76.297882 0.010737 
77.050232 0.022897 
77.18364 0.018371 
78.382973 0.025304 
78.65435 0.011499 
79.023544 0.004417 
79.031883 0.009215 
79.159508 0.004696 
79.21505 0.00989 
79.503891 0.007868 
80.041466 0.01221 
80.542892 0.020943 
80.971443 0.011177 
81.227089 0.019764 
81.322205 0.013021 
81.90374 0.006795 
81.990578 0.018807 
83.1147 0.005091 
83.358528 0.014539 
83.479149 0.006527 
83.578209 0.006014 
83.610237 0.004855 
84.619667 0.005239 
84.851646 0.008965 
85.205841 0.019113 
85.676819 0.007028 
86.508354 0.020127 
87.253647 0.004753 
87.751663 0.012817 
88.147552 0.004806 
89.060204 0.412184 
89.19297 0.005934 
90.294395 0.011348 
94.250854 0.020976 
94.362312 0.02595 
94.386047 0.005641 
95.166267 0.016092 
95.353378 0.018401 
96.241158 0.022765 
97.353218 0.021083 
98.045227 0.009925 
98.912636 0.019028 
99.624855 0.008057 
101.953629 0.012272 
103.610115 0.011304 
104.375328 0.018106 
104.716766 0.012767 
106.704391 0.018993 
106.84967 0.008008 
107.18029 0.017126 
107.902023 0.013829 
107.928062 0.008053 
108.201134 0.010771 
109.096275 0.013739 
109.770355 0.005776 
110.402 0.01252 
111.379242 0.006516 
111.572693 0.011463 
112.040504 0.011893 
112.677376 0.011564 
112.821243 0.004566 
114.104301 0.004851 
115.501564 0.014266 
115.778656 0.018217 
118.079887 0.008975 
119.138977 0.02154 
119.425926 0.00799 
124.059441 0.004174 
125.783257 0.011082 
126.984924 0.003772 
128.271622 0.007699 
128.665009 0.015877 
128.855499 0.018572 
132.175934 0.007442 
133.022736 0.007689 
133.085846 0.063526 
133.645096 0.016318 
134.743652 0.008595 
138.091721 0.008638 
139.864212 0.005452 
141.06987 0.022454 
141.317032 0.019855 
142.179489 0.022929 
143.243118 0.005496 
143.303436 0.021276 
144.33522 0.00428 
147.824799 0.020127 
148.127029 0.005577 
148.552002 0.005232 
149.861252 0.023638 
150.199341 0.004975 
150.218582 0.020145 
150.226898 0.018533 
155.971298 0.022393 
162.697693 0.013554 
162.825806 0.019236 
169.105042 0.013253 
171.197464 0.006757 
172.302246 0.006892 
172.857101 0.007948 
175.117188 0.004462 
175.897385 0.009698 
177.353928 0.01777 
184.481079 0.019554 
185.314194 0.005135 
186.808472 0.005631 
189.234131 0.012992 
192.32547 0.008804 
192.826279 0.023171 
193.759979 0.019217 
193.777252 0.016101 
193.872543 0.014938 
194.8564 0.021052 
199.036499 0.896459 
199.731491 0.022897 
201.214447 0.01756 
202.395905 0.006072 
203.740311 0.009382 
206.013351 0.006485 
208.649414 0.008708 
214.023544 0.037559 
214.662735 0.62868 
214.6763 0.448538 
217.047134 0.057425 
217.251068 0.020158 
220.50676 0.007872 
220.640915 0.008511 
222.52417 0.020429 
222.726532 0.015654 
224.243027 0.008696 
225.281342 0.015863 
226.049545 0.019372 
229.046997 62.450542 
230.050385 7.238078 
231.052597 0.276048 
232.054001 0.011869 
232.936432 0.015572 
233.684296 0.004327 
236.650558 0.021486 
240.232132 0.014022 
243.278381 0.004221 
246.839294 0.017774 
247.057404 0.150046 
251.728882 0.012116 
252.700989 0.008131 
253.439774 0.007119 
256.537842 0.012058 
258.220184 0.015489 
261.402313 0.015613 
261.452362 0.013572 
263.073761 0.021958 
268.685547 0.010668 
268.768341 0.005396 
281.492493 0.024463 
281.690369 0.012736 
285.369202 0.004115 
289.04364 0.007318 
290.020477 0.009056 
294.452057 0.016475 
305.842041 0.010747 
305.856018 0.016948 
308.636871 0.007906 
309.561584 0.008546 
318.483856 0.006106 
323.096924 0.014178 
328.899963 0.005386 
331.00116 0.006767 
335.778198 0.013008 
340.187653 0.0194 
343.078735 0.011541 
343.114777 100.0 
344.118286 18.918015 
345.120514 1.398392 
347.706451 0.007494 
350.480164 0.008283 
352.462799 0.013645 
353.757599 0.015368 
369.216248 0.007592 
END IONS

