BEGIN IONS
PEPMASS=1420.74
CHARGE=1+
COMPOUNDNAME=BACITRACIN
LIBRARYQUALITY=3
SMILES=N/A
INCHIKEY=CLKOFPXJLQSYAH-NVOBBBONSA-N
INCHI=InChI=1S/C66H103N17O16S/c1-9-35(6)52(69)66-81-48(32-100-66)63(97)76-43(26-34(4)5)59(93)74-42(22-23-50(85)86)58(92)83-53(36(7)10-2)64(98)75-40-20-15-16-25-71-55(89)46(29-49(68)84)78-62(96)47(30-51(87)88)79-61(95)45(28-39-31-70-33-72-39)77-60(94)44(27-38-18-13-12-14-19-38)80-65(99)54(37(8)11-3)82-57(91)41(21-17-24-67)73-56(40)90/h12-14,18-19,31,33-37,40-48,52-54H,9-11,15-17,20-30,32,67,69H2,1-8H3,(H2,68,84)(H,70,72)(H,71,89)(H,73,90)(H,74,93)(H,75,98)(H,76,97)(H,77,94)(H,78,96)(H,79,95)(H,80,99)(H,82,91)(H,83,92)(H,85,86)(H,87,88)/t35?,36?,37?,40-,41+,42+,43-,44+,45-,46-,47+,48?,52?,53-,54-/m0/s1
MSLEVEL=2
SOURCE_INSTRUMENT=N/A-ESI-QFT
FILENAME=library_mgf.mgf
SEQ=*..*
IONMODE=negative
ORGANISM=MONA
NAME=BACITRACIN [M-H]-
PI=MoNA
DATACOLLECTOR=MoNA:VF-NPL-QEHF027770
PUBMED=N/A
SUBMITUSER=mwang87
TAGS=
SPECTRUMID=CCMSLIB00004721351
SCANS=27770
98.011009 0.533133 
98.02343 22.550884 
98.060028 0.060946 
98.249519 0.054947 
99.0187 0.503241 
99.026642 0.550641 
100.44928 0.089334 
100.923439 0.04653 
101.070717 0.768855 
102.550758 0.077816 
103.083748 0.081776 
105.03196 0.075755 
106.039795 0.752792 
107.023872 0.2626 
107.047684 0.446343 
108.031776 0.073078 
108.044029 0.090658 
108.051476 0.107489 
108.055405 24.000965 
109.039429 11.066591 
109.058762 1.086686 
110.023453 4.541204 
110.034737 3.188185 
110.042809 0.245689 
110.059814 0.088622 
110.082863 0.057126 
111.018707 3.735117 
111.055115 0.35181 
112.039078 1.640026 
113.03434 11.736504 
113.038475 0.105556 
113.070869 0.428431 
114.01841 1.637315 
114.037651 0.143944 
114.091164 0.44307 
114.659981 0.073268 
115.049889 0.06904 
115.08638 0.156034 
116.049294 2.178815 
117.596718 0.08217 
117.628563 0.067203 
117.802559 0.060131 
118.039749 11.781711 
118.064972 2.920978 
118.119171 0.0745 
119.043121 0.344931 
120.055534 0.943627 
120.209213 0.068908 
121.03949 0.864442 
122.023598 0.26046 
122.035049 0.057903 
122.047493 0.078917 
123.031342 2.16665 
123.055122 2.965611 
124.034668 0.165225 
124.039139 7.827197 
125.0345 1.291848 
125.070786 1.242717 
125.288864 0.04557 
126.054871 0.083931 
126.996063 0.305419 
127.050003 27.438644 
127.086479 2.148032 
128.034119 19.260794 
128.053406 1.12196 
128.070465 0.084651 
128.081467 0.078797 
128.089767 0.069505 
129.037445 1.003167 
129.102051 22.148672 
130.086151 1.718002 
130.097305 6.488828 
130.105423 1.139669 
131.047974 0.73361 
131.08139 0.737848 
131.795807 0.087017 
133.026352 0.075192 
133.838516 0.080451 
134.03479 5.900922 
135.001343 0.120935 
135.03804 0.096092 
135.055298 2.466095 
135.066467 1.30535 
135.549484 0.052976 
136.050385 41.534649 
136.075577 0.120695 
136.111984 4.498009 
136.409241 0.072254 
137.034363 0.125878 
137.047592 1.110069 
137.053726 3.077733 
137.070816 1.09476 
137.115845 0.080204 
138.054947 2.77906 
139.050278 0.688169 
139.086456 8.886973 
140.052856 0.569493 
140.070541 7.461618 
140.081741 4.919398 
140.090042 0.089997 
140.463791 0.081873 
141.065704 8.341618 
141.072678 0.388282 
142.260147 0.074936 
144.047714 21.214499 
144.113113 2.460344 
145.051117 2.651948 
145.060791 2.464014 
145.096909 0.154881 
146.043503 1.565327 
146.059921 38.782307 
147.043594 0.086105 
147.0569 0.137655 
147.063507 4.671708 
148.075134 0.078074 
149.034195 0.083923 
149.071075 1.320706 
150.054626 0.143265 
150.066406 0.086883 
150.767685 0.049495 
151.037598 1.992518 
151.086609 7.262795 
152.034042 0.089334 
152.052902 0.271446 
152.070618 0.181398 
152.08223 0.598002 
152.089462 0.118554 
152.107086 3.095608 
152.478531 0.067834 
152.658813 0.085119 
153.029922 0.059813 
153.065994 3.120578 
153.077103 17.750175 
153.102386 1.991824 
154.061264 0.105959 
154.074142 0.10008 
154.080276 0.550906 
154.086685 0.079961 
154.09761 1.215334 
154.104462 0.083789 
155.081482 32.137848 
156.077011 3.905826 
156.084961 3.64099 
158.060089 7.001857 
158.900238 0.078467 
159.063324 0.259241 
161.071075 0.913269 
162.06665 0.23533 
163.061584 4.279191 
163.086594 9.401646 
164.045593 0.61851 
164.070862 0.597983 
164.082245 0.175656 
164.094818 3.187399 
165.053497 1.921647 
165.066025 0.580614 
165.078659 0.13562 
165.102585 1.990769 
166.061981 0.092362 
166.086517 3.994787 
166.097916 0.287858 
167.045319 3.498748 
167.081741 4.731759 
167.089706 0.104693 
167.118134 0.173484 
167.871765 0.081616 
168.047974 6.756807 
168.100967 0.278008 
168.113235 0.169895 
169.051376 0.402622 
169.097305 1.048417 
170.092407 0.485634 
170.127853 0.073087 
173.071243 1.820545 
174.054871 3.658192 
175.061371 0.76659 
175.590866 0.086993 
176.082016 0.236008 
177.102493 0.767478 
178.086304 0.063877 
178.097824 4.697671 
178.110443 0.550873 
179.064194 0.338946 
179.08168 9.896819 
179.100906 0.089165 
179.118271 9.949174 
180.085327 0.075562 
180.102142 37.988483 
180.112366 2.335413 
180.121353 1.190449 
181.060883 0.21586 
181.097412 4.240888 
181.105576 5.996166 
182.092255 0.22291 
182.978455 0.093842 
183.113403 0.080453 
184.063416 0.53873 
185.071228 80.762642 
186.055206 8.67147 
186.074722 14.239184 
186.124237 0.818506 
187.058792 0.978122 
187.077835 0.160554 
189.011215 0.079072 
189.067673 0.709312 
189.077362 8.798665 
189.102783 0.071316 
190.061523 0.40782 
190.072174 0.139898 
190.081497 0.177836 
190.097733 0.394527 
191.081711 0.697764 
191.11821 0.697896 
193.085175 0.181491 
193.097641 1.113267 
194.092697 1.756645 
194.129089 2.136266 
195.076614 0.512843 
195.091888 1.35504 
195.113174 5.691037 
196.097977 0.288734 
196.108322 10.616484 
196.14473 0.959517 
196.68541 0.070495 
197.071259 13.80401 
197.111786 0.563033 
197.12886 4.743039 
198.07486 2.400753 
198.123978 0.501972 
198.160553 3.881886 
199.119049 0.356723 
199.163834 0.09768 
200.071274 1.289216 
200.081619 0.049846 
201.066254 0.090669 
202.073959 0.153743 
202.098022 0.485262 
203.08197 6.932294 
204.076187 0.064325 
204.085434 0.216865 
204.113403 0.192408 
205.061356 4.337243 
205.133835 0.761264 
205.719742 0.074921 
206.09285 3.845627 
206.103256 0.480862 
206.129211 3.173957 
207.077286 0.763946 
207.088135 1.647937 
207.100082 0.136286 
207.113281 0.372484 
207.149338 0.074044 
208.098511 0.099407 
208.108551 17.848379 
208.144928 85.861183 
208.156143 1.33566 
209.092957 0.769259 
209.112122 0.762207 
209.130081 0.548922 
209.148636 14.581265 
210.124603 0.237254 
210.150848 0.425028 
211.087982 0.084828 
212.103683 0.782842 
212.117783 0.082541 
212.139343 0.108693 
212.176498 0.191123 
213.02121 0.053592 
213.10318 0.579088 
213.124374 0.084139 
213.135468 0.143903 
214.098495 0.08428 
214.155594 1.177559 
214.40271 0.085587 
215.082458 0.08029 
217.134094 0.774761 
220.067337 1.564031 
220.087402 2.731716 
220.108521 1.02214 
220.144302 0.150517 
221.070465 0.209482 
221.091507 0.421989 
221.140045 0.677352 
222.046356 1.234449 
222.088348 1.806622 
222.103287 5.852206 
222.124268 47.643398 
222.13623 0.944201 
222.160492 4.31152 
223.05365 1.324594 
223.108139 21.006958 
223.119659 21.831888 
223.127563 3.387117 
223.144714 1.51574 
223.155457 2.408458 
224.10318 4.529397 
224.113327 2.90508 
224.123459 2.241817 
224.139877 3.928253 
224.15892 0.123631 
224.946426 0.068492 
225.088013 0.07363 
225.10788 0.056184 
225.124374 0.177107 
225.143982 0.233388 
225.171555 9.547187 
226.119263 2.113449 
226.155655 7.381988 
226.174957 0.75491 
227.12178 0.0652 
227.15892 0.33431 
228.171326 0.088725 
229.16684 0.323513 
231.149734 5.055043 
232.108704 0.110506 
232.144836 0.19918 
233.129135 0.17704 
233.165588 1.702941 
233.757675 0.052038 
234.088562 0.145707 
234.126373 0.089765 
234.149231 0.58751 
234.160934 1.681753 
234.611832 0.057249 
234.828094 0.083463 
235.144897 0.443515 
236.112305 0.166592 
236.139572 0.230456 
237.114334 0.163353 
237.13475 0.08905 
238.098114 37.488445 
238.118851 0.275036 
238.155685 0.267128 
239.082016 0.560683 
239.10202 7.728334 
239.129517 0.077086 
239.187073 0.141353 
240.082138 0.522209 
240.114532 5.331146 
240.134872 32.189144 
240.157104 0.087673 
240.171402 2.772901 
240.183762 0.099071 
240.266312 0.097005 
241.117691 2.038965 
241.13031 22.487906 
241.16658 1.809643 
242.115921 4.883788 
242.135284 3.548916 
243.120331 0.509175 
243.13562 0.066695 
243.16835 0.356816 
243.18219 40.588779 
244.186203 6.80745 
244.496094 0.062439 
245.188095 0.102234 
248.104187 0.195184 
248.140305 0.495741 
249.160263 1.026777 
250.041306 2.411991 
250.055237 0.07851 
250.155518 0.408565 
251.047241 0.385221 
251.113571 0.939683 
251.123199 0.471859 
251.15126 0.548171 
252.098694 0.787446 
252.559525 0.06288 
253.131607 0.055799 
253.167007 1.36288 
254.236404 0.085977 
255.124878 14.094186 
255.147003 0.174019 
256.109375 0.584144 
256.128387 2.641138 
257.127472 0.060693 
257.198273 3.499302 
258.145447 0.739478 
258.160248 1.7278 
258.192841 1.226626 
259.144348 5.967991 
260.139771 1.261835 
260.150238 0.083406 
261.135193 6.423288 
262.139252 0.440042 
262.155792 0.756313 
263.122498 1.196267 
264.057312 0.064663 
264.125366 0.114599 
264.169708 0.07213 
265.109344 100.0 
265.191254 0.095401 
266.09375 2.572575 
266.112762 22.749546 
266.14978 0.323365 
266.187256 0.067521 
267.096283 0.091906 
267.111023 1.43999 
267.182495 0.459773 
269.161835 6.290459 
270.164917 0.326476 
271.17868 0.085299 
273.135162 0.077553 
274.119904 0.070804 
274.156128 0.825804 
275.151184 1.954713 
275.187439 0.078185 
276.115631 0.087365 
276.135345 0.079059 
276.155243 0.703805 
276.171326 16.394461 
277.174164 1.528723 
279.145691 0.1203 
280.165497 0.083715 
281.132629 0.982164 
281.184998 0.067937 
282.135834 5.661416 
283.119873 26.116678 
283.136658 1.283739 
283.177521 0.782969 
284.123474 5.465261 
288.731598 0.082186 
290.116211 0.092195 
291.146667 0.22483 
291.182587 3.093765 
292.129944 0.143443 
292.166718 0.545204 
292.185333 0.26044 
292.203461 0.092182 
293.16153 0.589743 
293.197968 0.103494 
294.181366 0.157778 
295.177307 1.452825 
300.146454 10.042497 
301.149261 1.97835 
301.16687 5.125755 
302.150574 3.2269 
302.169067 0.366534 
303.147064 1.205905 
304.167389 0.169951 
304.199341 0.232784 
304.224365 0.262849 
305.161743 0.760588 
307.111847 15.860245 
307.141144 0.099549 
307.177063 0.237609 
307.212616 0.080534 
308.115326 6.878651 
308.142517 0.231411 
308.174042 0.065791 
309.107788 1.208517 
309.15741 0.082807 
309.193054 5.862927 
309.229675 0.167469 
310.193878 0.788047 
311.208771 0.098188 
312.204437 0.361403 
317.125122 0.06253 
318.194275 0.441257 
319.120239 0.480556 
319.176788 21.062017 
319.21228 0.07552 
320.176147 8.690424 
321.156128 0.611819 
321.175995 0.898611 
321.193451 0.068671 
322.190491 0.186723 
323.209076 0.089316 
325.187897 0.103761 
329.198456 0.058333 
329.234192 0.527607 
332.13913 0.078273 
332.363495 0.05995 
333.19223 0.484336 
334.152313 0.99281 
334.224915 0.094605 
336.204132 13.050556 
336.239838 0.066365 
337.151764 0.068931 
337.202789 8.248689 
338.182617 6.141892 
338.204041 0.891709 
338.891541 0.092319 
339.185822 0.884044 
339.205078 0.196654 
340.199188 0.08138 
343.214752 0.101019 
345.229126 1.840707 
346.233948 0.092529 
347.173859 0.060224 
349.188751 0.193109 
350.197845 0.090786 
350.219391 1.683004 
351.202606 0.769086 
351.223022 0.07181 
352.162201 0.405213 
352.235687 0.428487 
353.218689 0.093227 
353.266815 6.028786 
354.157959 0.139685 
354.214417 12.45799 
354.250183 0.094724 
354.270264 0.766404 
355.211945 5.224381 
355.574738 0.078208 
356.213715 0.278164 
357.219208 0.066456 
361.225037 0.179867 
362.184814 0.053681 
363.167236 0.057807 
364.199127 1.293304 
365.182312 1.795939 
366.181061 0.306033 
366.214966 0.071861 
366.496796 0.069312 
368.208282 5.011581 
368.230957 6.278063 
369.211365 1.231291 
369.234467 0.783653 
371.208191 0.097834 
371.277313 2.752479 
372.240051 5.674233 
372.279785 0.096673 
373.028809 0.088927 
373.221008 0.20005 
373.244415 1.014819 
376.233521 0.069193 
377.219818 0.224808 
379.238922 0.058853 
380.193573 3.167984 
381.193176 0.267585 
382.443115 0.059425 
386.218994 0.184802 
387.202148 0.209814 
388.235352 0.17312 
390.250763 7.463745 
391.253662 1.916637 
394.210297 0.709028 
395.219574 1.365327 
396.2229 0.086261 
397.255981 0.941246 
402.214722 0.770174 
404.230194 1.21436 
405.213928 3.843077 
405.261353 1.198758 
406.215027 0.577627 
406.244812 0.097552 
407.248535 0.106099 
407.278503 0.116766 
408.261444 0.059842 
409.265442 0.086477 
409.636292 0.069914 
411.236115 0.092558 
413.197723 0.062751 
413.23053 5.818776 
414.232391 0.77333 
416.229645 0.628005 
417.229767 0.08007 
420.225159 3.892886 
421.228729 0.66386 
421.256439 0.098364 
422.240326 0.946046 
423.242035 0.505231 
423.273041 3.815608 
424.27594 0.74411 
425.286163 0.109465 
427.528259 0.074821 
433.256134 3.254352 
434.259766 0.171113 
435.273438 0.106281 
437.250122 0.067516 
442.654968 0.083425 
447.235992 8.195722 
447.269226 0.082952 
448.240662 1.077975 
449.21759 0.144545 
450.251404 0.125663 
450.283478 6.606309 
451.232513 0.18499 
451.263855 1.665767 
451.290039 0.285315 
452.269257 0.423997 
464.276031 0.071273 
465.24646 20.123215 
465.28006 0.90489 
466.250763 6.483489 
466.351776 0.092366 
467.250885 0.237673 
467.298065 0.085092 
468.293976 6.532893 
469.297089 1.409761 
477.246552 0.445268 
478.279144 0.092669 
479.261108 0.482178 
482.285461 1.546989 
483.292358 0.188312 
484.36087 0.094862 
485.68631 0.07586 
488.688721 0.076801 
491.264435 0.06274 
494.273132 2.252071 
494.311707 0.090084 
495.275269 0.293679 
496.716705 0.105297 
512.224548 0.080915 
518.308655 0.214777 
519.293213 0.389201 
521.328979 0.088643 
524.878418 0.066657 
527.31012 3.771507 
528.311829 0.62946 
529.884399 0.082078 
532.543823 0.069994 
536.317383 0.214418 
536.356567 0.253426 
537.363098 0.326405 
546.341431 0.090212 
550.376099 0.070855 
561.315674 1.035713 
562.30072 0.929443 
563.309082 0.080693 
563.367859 0.969126 
570.340759 0.136563 
573.359924 0.093645 
576.724609 0.100031 
579.325867 3.680954 
579.37207 0.10448 
580.327637 1.150426 
581.329956 0.085815 
581.378235 2.397849 
582.380981 0.33306 
595.393555 1.522782 
597.350342 0.20884 
601.091736 0.084443 
607.357361 1.092125 
608.361389 0.098682 
615.36322 0.781226 
618.377319 0.104503 
629.381653 0.239539 
632.380676 0.281573 
633.379333 0.244131 
647.388367 0.968789 
648.389954 0.361576 
660.042847 0.055976 
674.400269 1.346401 
675.395935 0.769862 
689.388855 0.130988 
692.409851 4.86614 
693.411743 2.027543 
707.39917 0.117227 
710.528992 0.109942 
710.601807 0.115022 
710.7948 0.124305 
710.849976 0.165566 
711.021423 0.122473 
711.118958 0.43825 
732.77356 0.066967 
734.407471 0.087109 
798.458374 0.073289 
805.50354 0.092265 
839.228882 0.083181 
839.474792 0.062205 
839.615601 0.097507 
841.474609 0.095195 
846.255493 0.070506 
861.452393 0.084236 
866.683289 0.05629 
921.718201 0.061421 
964.655457 0.080335 
976.086426 0.099284 
976.542786 0.103639 
981.493347 0.061592 
997.850769 0.084383 
1086.796753 0.081489 
1172.107178 0.102626 
1185.609619 0.057843 
1206.120483 0.076896 
1209.593994 0.079818 
1232.373779 0.096454 
1298.621582 0.072236 
1323.144409 0.06721 
1348.002686 0.088975 
1397.608398 0.078913 
END IONS

