BEGIN IONS
PEPMASS=271.061
CHARGE=1+
COMPOUNDNAME=naringenin
LIBRARYQUALITY=3
SMILES=N/A
INCHIKEY=FTVWIRXFELQLPI-UHFFFAOYSA-N
INCHI=InChI=1S/C15H12O5/c16-9-3-1-8(2-4-9)13-7-12(19)15-11(18)5-10(17)6-14(15)20-13/h1-6,13,16-18H,7H2
MSLEVEL=2
SOURCE_INSTRUMENT=N/A-ESI-QFT
FILENAME=library_mgf.mgf
SEQ=*..*
IONMODE=negative
ORGANISM=MONA
NAME=naringenin [M-H]-
PI=MoNA
DATACOLLECTOR=MoNA:VF-NPL-QEHF013126
PUBMED=N/A
SUBMITUSER=mwang87
TAGS=
SPECTRUMID=CCMSLIB00004704189
SCANS=13126
50.732498 0.01413 
50.792686 0.017241 
50.851322 0.016298 
50.938988 0.012732 
51.11668 0.014396 
51.159302 0.015127 
51.868706 0.015011 
52.103104 0.016423 
52.626846 0.014256 
52.806335 0.013855 
53.124905 0.014027 
53.350368 0.015335 
53.630596 0.013126 
53.947872 0.018923 
53.972763 0.012799 
54.134502 0.014847 
54.242214 0.014548 
54.570145 0.014267 
55.111092 0.014221 
55.23682 0.015889 
55.620689 0.014735 
56.776325 0.017138 
57.033295 0.016303 
57.126076 0.017418 
57.211483 0.018853 
57.921791 0.014925 
57.974323 0.578886 
58.28223 0.014345 
58.289162 0.014193 
58.392284 0.014308 
58.71825 0.014931 
58.857224 0.01554 
58.963467 0.013189 
58.994644 0.03381 
59.012512 7.327295 
59.252117 0.015481 
59.637993 0.014248 
59.849197 0.015165 
60.015846 0.017852 
60.129581 0.015471 
60.2281 0.015332 
60.382763 0.017016 
60.844284 0.014122 
60.940578 0.015146 
61.044399 0.014942 
61.91914 0.013841 
61.935581 0.01481 
61.987034 6.043064 
62.100548 0.016984 
62.361233 0.014518 
62.365284 0.013904 
62.827892 0.013813 
63.02269 1.545928 
63.20097 0.015146 
63.230083 0.014601 
63.943352 0.016351 
63.961105 0.592461 
64.112755 0.014376 
64.222366 0.013151 
64.619774 0.015544 
64.951187 0.452724 
65.001938 2.751679 
65.10611 0.013743 
65.255943 0.01266 
65.858131 0.015045 
65.995193 0.013076 
65.996872 0.017557 
66.070335 0.015713 
66.515755 0.015892 
67.308044 0.01529 
67.779816 0.016345 
68.573479 0.015839 
68.689056 0.017853 
69.207687 0.014613 
69.418427 0.016983 
70.291046 0.017566 
70.795738 0.018731 
70.971153 0.012497 
71.441071 0.015612 
72.10054 0.014993 
72.119637 0.015956 
73.028244 0.016377 
73.135506 0.015096 
73.654716 0.013267 
73.911293 0.014296 
73.985664 0.014447 
74.070206 0.01654 
74.150711 0.018674 
74.186043 0.015209 
74.472565 0.014776 
74.517929 0.01713 
74.898193 0.01651 
74.947601 0.016409 
74.989723 0.866906 
75.368034 0.014557 
76.011475 0.013473 
76.220413 0.013567 
76.851059 0.019012 
76.951134 0.059954 
77.971756 0.017832 
78.966904 0.065259 
78.984642 2.42708 
79.059425 0.016344 
79.432495 0.013138 
79.956078 5.462455 
80.285416 0.019066 
80.963898 2.241228 
81.18306 0.014206 
81.434593 0.015231 
81.951981 0.015018 
82.754807 0.013368 
82.782722 0.013624 
82.959869 0.018851 
83.01255 3.56043 
85.112839 0.016322 
85.188232 0.018439 
85.983643 0.015373 
86.355385 0.018345 
86.520119 0.014029 
88.649925 0.01475 
90.634605 0.013657 
90.842804 0.012848 
90.966919 0.018199 
90.984619 0.172035 
91.020882 0.079229 
91.053543 0.016214 
91.132416 0.020236 
91.63224 0.01495 
91.890427 0.015244 
92.05703 0.015177 
92.337906 0.014944 
93.03334 12.977089 
93.03672 0.037498 
93.435249 0.012918 
93.650032 0.014299 
94.036659 0.629354 
94.641708 0.015742 
94.979561 7.874009 
96.282639 0.014172 
96.607498 0.013626 
96.923317 0.018046 
96.941055 0.016936 
96.958855 38.639126 
96.975449 0.052802 
96.992104 0.017849 
97.711555 0.020039 
97.780853 0.015915 
97.958275 0.071084 
97.976105 0.017526 
97.98037 0.015959 
98.95462 1.51931 
98.963089 0.105183 
99.198883 0.015014 
99.477577 0.015907 
100.187065 0.014273 
100.273605 0.01624 
100.712547 0.018145 
103.648384 0.012868 
103.919083 0.01821 
104.508636 0.013393 
104.647476 0.014836 
105.000198 0.101225 
106.516602 0.015129 
106.567879 0.017616 
106.774559 0.0199 
107.012665 12.308094 
107.072266 0.017136 
107.39547 0.016352 
107.951492 0.016198 
108.01593 0.577794 
108.019646 0.015585 
108.069122 0.014078 
108.674759 0.017007 
108.977539 0.359204 
109.02861 0.016374 
110.956802 5.487938 
110.974449 0.586964 
111.782677 0.017884 
112.278397 0.014808 
112.936081 0.138603 
112.952507 0.329621 
112.997787 0.017406 
113.667671 0.016197 
114.805649 0.013435 
115.010651 0.014524 
115.503075 0.015299 
117.02002 0.016646 
118.940765 0.018059 
118.979752 0.016291 
119.049088 40.618401 
119.142685 0.016267 
119.789459 0.013113 
120.052383 3.199627 
121.028305 0.310542 
121.33371 0.017429 
121.444893 0.015031 
121.573906 0.016682 
122.12941 0.013897 
122.682068 0.01745 
124.310905 0.016108 
124.343758 0.015882 
124.42778 0.015624 
124.954941 0.029149 
125.023315 1.841655 
125.770294 0.013609 
125.994598 0.021021 
126.951828 0.110316 
127.026039 0.016935 
127.868935 0.013695 
128.413803 0.019363 
128.924179 0.0126 
130.567444 0.016144 
130.942627 1.537766 
133.068192 0.047657 
134.682419 0.015334 
135.044098 1.121322 
136.93927 0.020526 
136.986908 0.494557 
138.951859 0.337579 
140.337784 0.016313 
140.967697 0.146373 
141.021255 0.016981 
141.041061 0.015912 
141.698792 0.020051 
142.911224 0.018052 
142.980316 0.017565 
143.049118 0.117089 
145.028534 1.103896 
145.758026 0.013301 
145.966187 0.354008 
147.945328 0.269019 
149.023331 0.159874 
149.733246 0.02028 
151.002701 100.0 
151.623535 0.014785 
151.793884 0.018641 
152.006012 7.368198 
152.035416 0.01394 
152.916672 1.765914 
152.926773 0.020902 
153.007156 0.554611 
153.018936 0.023141 
153.32988 0.014256 
153.545212 0.013639 
153.556244 0.015838 
156.17215 0.014608 
158.845261 0.019603 
158.938171 0.199434 
160.555328 0.017797 
160.584015 0.017551 
160.841064 0.992586 
161.059845 0.148852 
161.578079 0.01659 
162.838242 0.884808 
162.847488 0.018105 
163.08844 0.016994 
164.364868 0.015917 
164.835327 0.157261 
164.982025 1.484568 
165.018387 3.863282 
165.214508 0.012941 
165.956131 0.978847 
166.021988 0.070938 
167.223663 0.016987 
167.830856 0.015921 
167.903839 0.140712 
168.151352 0.013883 
168.179367 0.013114 
168.889175 0.089215 
169.013428 2.18616 
169.215042 0.020834 
169.351807 0.013647 
169.906906 0.017259 
170.003738 0.01938 
170.889557 0.998075 
171.044525 0.013663 
171.505707 0.018907 
171.887375 1.106465 
172.885422 0.219004 
172.953461 0.432953 
173.079056 0.019288 
174.910141 0.014637 
176.99321 0.27188 
177.018524 11.803001 
177.498505 0.017483 
178.022079 1.070326 
179.882294 0.020209 
179.952423 0.017379 
181.644135 0.013957 
181.789612 0.015987 
182.699768 0.014551 
184.000946 7.128111 
184.503235 1.520675 
184.998917 0.249222 
185.060165 0.493944 
185.892136 0.081812 
187.039429 0.60371 
187.97702 0.059086 
188.98494 0.086402 
189.956497 0.13372 
190.540619 0.01252 
191.008835 0.183985 
192.178375 0.017654 
192.429642 0.017109 
192.682465 0.01554 
194.927475 4.091926 
196.923431 0.153948 
197.902069 1.847593 
198.921585 0.01953 
199.876389 0.26184 
200.499619 0.029947 
201.993698 0.165906 
203.07106 0.074804 
203.888901 0.017832 
205.859253 0.296927 
206.905807 0.035864 
207.01178 0.701272 
207.856659 0.080568 
207.967072 0.272797 
208.014374 0.019674 
208.157074 0.017882 
210.900223 0.425097 
212.823547 0.016007 
214.899857 0.983193 
216.59726 0.014577 
216.89624 0.206284 
216.947662 0.190317 
216.9599 0.156415 
216.966843 0.180712 
216.976562 0.243774 
216.988525 0.339648 
216.99292 0.312643 
217.008743 0.044704 
217.050354 0.035067 
219.844925 0.023531 
220.853348 0.235735 
221.841797 0.017786 
222.278793 0.020522 
222.850281 0.107773 
224.115768 0.019411 
225.293259 0.016989 
227.071045 1.501986 
229.050446 0.154906 
229.488174 0.016398 
230.894974 2.852531 
232.874283 8.171479 
232.975388 0.153712 
234.151382 0.015503 
234.86998 0.526147 
236.566971 0.016571 
237.221954 0.038521 
237.659561 0.017682 
239.504135 0.016938 
246.239822 0.019497 
247.839447 0.047717 
248.079941 2.506974 
248.581589 0.58336 
248.839325 0.018926 
248.905579 0.053721 
249.032104 0.048568 
249.059341 0.019489 
249.079086 0.050594 
249.152161 0.33909 
249.579514 0.01722 
250.144608 0.038808 
250.884888 0.781833 
251.132324 0.836102 
253.050781 0.166122 
253.217117 0.048814 
254.856583 1.115821 
255.088135 0.084865 
255.105865 0.162315 
255.233047 65.141602 
256.23642 11.538915 
257.046326 0.084232 
257.23941 0.99654 
260.72049 0.014042 
262.035126 0.018324 
265.148102 37.382191 
266.151611 5.088584 
267.143311 1.24093 
269.046234 0.036923 
269.121887 0.383814 
269.177094 0.020359 
269.212128 0.205884 
269.24881 2.419736 
270.252319 0.110412 
270.82959 0.020272 
271.061371 36.176342 
271.228729 0.063002 
272.064972 6.262411 
272.829437 0.35795 
273.067078 0.664486 
273.827606 0.048575 
274.824982 0.104072 
275.168854 3.014561 
276.171753 0.219749 
277.181732 0.020365 
277.241699 0.017599 
278.11438 0.014167 
278.172516 0.01653 
279.163696 7.461588 
279.191071 0.017299 
280.004333 0.015546 
280.107178 0.018183 
280.166992 0.913103 
281.121948 0.401489 
281.160645 0.033711 
281.248688 2.874204 
282.252136 0.264023 
283.110596 0.828029 
283.137695 3.263886 
283.264404 98.939888 
284.140747 0.33087 
284.267822 19.823423 
284.844543 0.071387 
285.040558 7.328058 
285.270691 2.128788 
286.044281 1.065715 
286.842529 0.02417 
286.968933 0.601264 
291.912659 0.015652 
293.179352 27.025019 
293.401367 0.019704 
294.182831 4.191481 
295.137604 1.34679 
295.157471 0.419682 
295.175171 0.691946 
317.60611 0.016618 
END IONS

