BEGIN IONS
PEPMASS=1293.59
CHARGE=1+
COMPOUNDNAME=DACTINOMYCIN
LIBRARYQUALITY=3
SMILES=N/A
INCHIKEY=RJURFGZVJUQBHK-IIXSONLDSA-N
INCHI=InChI=1S/C62H86N12O16/c1-27(2)42-59(84)73-23-17-19-36(73)57(82)69(13)25-38(75)71(15)48(29(5)6)61(86)88-33(11)44(55(80)65-42)67-53(78)35-22-21-31(9)51-46(35)64-47-40(41(63)50(77)32(10)52(47)90-51)54(79)68-45-34(12)89-62(87)49(30(7)8)72(16)39(76)26-70(14)58(83)37-20-18-24-74(37)60(85)43(28(3)4)66-56(45)81/h21-22,27-30,33-34,36-37,42-45,48-49H,17-20,23-26,63H2,1-16H3,(H,65,80)(H,66,81)(H,67,78)(H,68,79)/t33-,34-,36+,37+,42-,43-,44+,45+,48+,49+/m1/s1
MSLEVEL=2
SOURCE_INSTRUMENT=N/A-ESI-QFT
FILENAME=library_mgf.mgf
SEQ=*..*
IONMODE=positive
ORGANISM=MONA
NAME=DACTINOMYCIN [M+K]+
PI=MoNA
DATACOLLECTOR=MoNA:VF-NPL-QEHF002897
PUBMED=N/A
SUBMITUSER=mwang87
TAGS=
SPECTRUMID=CCMSLIB00004693960
SCANS=2897
90.041702 0.114323 
90.704163 0.023471 
90.725815 0.277183 
91.054939 0.079303 
91.057854 6.313017 
91.06118 0.032412 
91.71801 0.076827 
92.001274 0.071758 
92.057442 0.088094 
92.230949 0.081701 
92.788887 0.143472 
93.037086 0.080777 
93.274803 0.179105 
94.065346 0.025522 
94.508102 0.101973 
95.642235 0.069872 
96.081169 0.096711 
96.122162 0.090377 
98.060478 1.617071 
98.093857 0.178432 
98.096893 8.955161 
98.23455 0.151346 
98.384613 0.222509 
98.730888 0.25979 
99.100143 0.430838 
99.118462 0.288052 
100.039726 53.953876 
100.043587 0.180454 
100.075981 0.234374 
100.112503 0.03623 
101.043076 3.074289 
101.321182 0.086024 
101.447853 0.289172 
101.910652 0.083203 
102.043991 0.043916 
102.645782 0.284062 
103.737549 0.136066 
105.000061 0.248103 
105.073311 0.132324 
105.34951 0.174776 
107.05275 0.021177 
108.080902 0.034516 
108.79248 0.06591 
109.792465 0.165629 
110.096718 0.78833 
110.349136 0.139426 
110.656509 0.04725 
111.734467 0.142778 
112.037407 0.867986 
112.075867 0.025007 
112.11232 2.984272 
112.580856 0.144731 
113.116074 0.08633 
113.459358 0.164361 
114.055145 0.061898 
114.091568 30.67326 
114.434998 0.188927 
115.094994 2.105144 
115.955132 0.158806 
116.070755 0.149088 
116.635185 0.201352 
117.959702 0.179972 
118.086411 0.033237 
118.141457 0.082556 
118.207443 0.0934 
119.531631 0.079578 
120.384888 0.106463 
121.540573 0.226789 
122.096649 0.261037 
122.556091 0.04513 
122.984482 0.103396 
123.091873 0.383481 
124.077339 0.205428 
124.112228 69.711594 
124.661072 0.019131 
124.797272 0.173477 
125.107483 0.781485 
125.115517 10.243747 
126.055115 0.896256 
126.091423 3.558303 
126.118896 0.062628 
126.128082 0.177807 
126.585777 0.090399 
126.637619 0.079922 
127.050201 0.252467 
127.094612 0.057387 
127.122993 0.026922 
128.014221 0.233866 
128.106903 0.245402 
129.102295 0.138978 
129.919739 0.222284 
130.08606 0.063544 
130.87854 0.230491 
131.091171 0.228595 
131.918076 0.110409 
132.101929 85.098259 
132.344345 0.106607 
132.390381 0.282129 
133.09993 0.036138 
133.105316 9.511976 
134.106323 0.042716 
134.778564 0.096574 
136.712692 0.235425 
137.107239 0.035946 
137.118729 0.150874 
137.163025 0.271153 
137.83638 0.275843 
138.05246 5.29111 
138.091385 0.349276 
138.334549 0.165725 
138.360229 0.076559 
139.086594 3.310132 
139.122589 0.037536 
140.070267 0.034625 
140.089447 0.027978 
141.102066 0.463004 
141.14505 0.072382 
141.42038 0.168731 
142.086258 17.513878 
142.0923 0.033819 
142.12265 1.276419 
142.832718 0.019502 
143.081512 0.0763 
143.089615 1.416252 
143.118073 0.119833 
143.125854 0.051314 
144.101639 0.080297 
145.348633 0.095483 
148.741013 0.218789 
148.942139 0.187466 
149.04483 1.561582 
150.091599 0.031994 
150.133118 0.205224 
150.46347 0.143996 
151.086594 0.4148 
151.12294 0.041682 
151.945496 0.175223 
152.070511 0.103743 
152.106934 1.021023 
153.065918 0.023001 
153.102234 3.860261 
153.109207 0.154346 
153.138641 0.03019 
153.289276 0.021256 
153.347153 0.02049 
153.47879 0.079206 
154.086166 4.532639 
154.105545 0.043531 
154.973984 0.156346 
155.081787 0.027347 
155.089645 0.128682 
155.117874 1.266617 
156.101883 0.09455 
157.133514 5.877266 
157.8116 0.170336 
158.136246 0.074266 
158.141388 0.772236 
159.14946 0.247955 
160.450943 0.212871 
163.084091 0.326558 
163.563599 0.270372 
165.102249 0.059426 
165.930984 0.021702 
167.055374 9.75708 
167.081482 2.040089 
167.117508 0.322105 
168.055313 0.03959 
168.089508 0.410784 
168.139236 0.20601 
168.539032 0.099237 
169.034439 0.168618 
169.097168 11.231932 
169.133514 5.86488 
170.100372 1.272525 
170.117416 1.188202 
170.136978 0.742137 
170.540298 0.312415 
170.679825 0.159811 
171.112656 0.024109 
171.12056 0.025537 
171.842941 0.248794 
172.096375 0.020063 
172.25769 0.077055 
173.128555 0.153097 
176.338181 0.169286 
176.933197 0.299381 
177.099991 0.763324 
179.117813 0.662584 
180.101639 1.296542 
180.121017 0.024295 
181.097 4.487719 
181.105713 0.070378 
181.132736 0.061777 
181.907364 0.30156 
182.099945 0.179984 
183.112701 0.661423 
183.819077 0.027392 
184.610809 0.211224 
185.128464 13.655062 
185.275635 0.144872 
186.131805 1.104468 
186.149124 0.023231 
187.069489 0.025135 
187.107574 7.50942 
187.114868 0.032093 
188.111298 0.231052 
189.123077 0.05861 
190.047943 0.078115 
190.989487 0.18954 
191.079269 0.048609 
191.116119 0.26647 
191.153809 0.02275 
191.972641 0.214346 
192.550751 0.02357 
195.112625 0.489622 
195.983185 0.104441 
197.128311 3.032037 
198.132111 0.365501 
198.665161 0.102318 
199.107681 3.643401 
199.975327 0.15327 
200.110977 0.065918 
200.678177 0.259869 
201.765076 0.025564 
203.138916 100.0 
203.545822 0.254818 
204.142563 21.057465 
205.133835 0.025652 
205.144196 1.523635 
207.032578 0.044295 
208.353088 0.099656 
209.089645 11.140179 
213.123291 0.435725 
216.449585 0.226856 
218.894684 0.211115 
219.098068 0.245406 
219.110367 0.206327 
219.148819 0.04097 
221.084839 0.03276 
222.121445 0.10541 
223.063431 0.297672 
223.105164 3.283229 
223.644836 0.302368 
223.939041 0.104541 
224.322678 0.026703 
225.042694 10.775835 
225.062912 0.422132 
225.123383 0.050574 
225.373032 0.285637 
226.042557 0.307466 
227.021973 1.557558 
227.102234 2.794236 
228.065536 0.024118 
228.105087 0.039213 
228.591492 0.04807 
229.000992 0.034763 
231.830017 0.202387 
233.125198 0.187195 
235.162003 0.025554 
236.137909 0.025285 
236.192596 0.021211 
237.12088 9.097439 
237.300812 0.1111 
238.124435 0.02833 
238.333893 0.166049 
239.094681 0.890392 
240.064972 0.124556 
240.08844 0.033663 
240.134613 0.084593 
241.093872 0.094207 
241.154343 1.796367 
242.157913 0.172794 
242.901672 0.241078 
243.076675 0.033395 
243.170959 0.084504 
244.073563 0.022526 
244.603516 0.146219 
245.032242 0.072596 
247.010422 0.026101 
250.15271 0.254088 
251.136154 1.419811 
253.680161 0.24803 
255.076065 0.3921 
255.113297 0.026415 
256.082123 0.128379 
257.18573 0.172895 
257.559753 0.094422 
258.07608 0.058093 
258.144684 0.051475 
258.189087 0.028196 
259.141876 0.096854 
260.054901 0.186419 
262.170319 0.157075 
263.100128 3.476823 
263.1362 1.754947 
264.168823 0.027289 
265.019653 0.101956 
265.815796 0.151191 
266.99881 2.414217 
267.076019 1.235278 
267.112457 0.029263 
267.999573 0.115501 
268.082794 1.832237 
268.164886 0.267708 
268.978058 4.274881 
269.09021 1.998709 
269.978455 0.117488 
270.095734 0.646284 
270.14444 0.06765 
271.071045 0.259317 
271.107452 0.12362 
272.054779 0.052093 
272.077972 0.029327 
273.122589 0.08641 
276.168274 3.120482 
276.216888 0.264807 
277.115753 10.192445 
277.151947 3.243352 
277.168854 0.046634 
278.116852 0.124866 
278.149963 0.156413 
278.183777 0.272164 
279.074097 0.026757 
279.109344 0.308665 
279.130402 0.02211 
280.164093 0.07091 
281.051605 0.772531 
281.091736 0.253399 
282.181061 1.729518 
283.03006 5.451594 
283.070404 0.276195 
283.107574 1.266297 
283.183685 0.132081 
284.030121 0.189619 
284.074493 0.218208 
284.111237 0.249307 
284.127625 0.028591 
284.159729 0.024722 
285.009338 17.523537 
285.086639 0.244013 
285.122925 0.815889 
286.009369 0.984252 
286.364441 0.10185 
287.065399 0.061521 
289.057983 0.205638 
290.147095 1.521506 
290.183502 0.22558 
291.273743 0.078109 
293.05542 0.275358 
293.089996 1.680898 
294.1474 0.028859 
295.071472 0.312434 
296.075623 0.132881 
296.102722 2.40143 
296.160278 0.418556 
297.086853 0.684199 
297.105743 0.817229 
298.088654 0.032759 
298.12262 0.113873 
298.139374 7.813933 
299.061523 16.122238 
299.101349 0.122403 
299.1427 0.606181 
300.062042 1.020894 
300.191559 9.12335 
301.08136 0.114291 
301.194885 2.084039 
302.066254 0.13953 
302.196808 0.257217 
302.237122 0.181308 
303.02002 2.312646 
303.133545 1.065813 
304.019928 0.156096 
304.095093 0.326408 
304.11618 0.936142 
304.16272 0.66572 
305.147797 0.305954 
305.48468 0.26479 
306.087646 0.058658 
306.144562 0.424287 
307.496002 0.296479 
307.890076 0.081573 
308.106384 0.023018 
308.157806 14.904862 
309.086304 0.442286 
309.159271 0.098273 
309.465424 0.142304 
310.082214 0.142175 
310.141327 0.02295 
311.06427 0.08209 
311.102478 0.314253 
312.173645 0.033734 
312.191467 8.749067 
313.080933 0.15329 
313.121613 0.222288 
313.194733 0.947186 
314.083191 0.031223 
315.098083 0.027385 
316.126801 0.336944 
316.163208 2.129476 
317.038269 0.026972 
318.143616 0.152462 
320.102722 0.03381 
320.157623 22.507401 
321.088043 0.346941 
321.107422 0.029097 
321.161133 0.686177 
321.189178 0.02585 
322.082275 1.377739 
322.11795 2.640023 
322.173615 10.589618 
323.06546 0.031103 
323.084991 0.294573 
323.102814 0.103339 
323.123657 2.055214 
323.177216 0.790411 
324.10025 0.172929 
324.131165 8.744518 
324.154938 0.383613 
324.985748 0.502112 
325.081329 0.698874 
326.113525 0.047922 
327.060547 0.062335 
327.096771 0.482038 
327.786835 0.076865 
328.099609 0.253834 
328.118408 0.510755 
329.075897 0.154231 
329.112488 0.261354 
330.081024 0.043831 
333.188782 0.051564 
334.081146 0.028626 
334.116455 0.479088 
334.137665 5.518279 
334.173157 51.170353 
335.140198 0.067382 
335.176544 7.682831 
336.097382 0.388839 
336.131683 11.228469 
337.080658 0.890946 
337.103088 0.169543 
337.13562 0.049374 
338.038727 0.296715 
338.082733 0.050229 
338.111938 0.317245 
338.137787 0.133657 
338.207153 0.48202 
339.039246 0.025587 
339.09671 0.402464 
339.209015 0.0376 
340.094086 0.530733 
340.186157 1.203937 
341.018768 0.025638 
341.095276 0.08986 
341.188232 0.027138 
342.10791 0.054128 
342.132721 0.024275 
342.996887 3.171036 
343.112976 0.033375 
343.99707 0.340595 
344.099548 0.416857 
344.976105 1.799352 
345.070618 0.14476 
345.976135 0.089705 
346.076752 0.153921 
346.116425 0.444865 
346.137329 9.825323 
347.140625 0.206453 
347.167603 0.103692 
347.204956 0.876797 
348.09787 1.632925 
348.130157 0.110397 
348.15274 3.110039 
348.188904 8.93246 
349.080872 0.097291 
349.104706 3.088566 
349.155914 0.176654 
349.192566 1.082617 
350.111755 10.376408 
350.147644 7.950347 
350.521576 0.256807 
351.118713 6.789719 
352.093994 0.098169 
352.124451 3.434678 
353.128143 0.682225 
354.107391 0.352692 
354.132904 0.137094 
354.238342 0.399947 
355.069122 0.029415 
355.111603 0.028981 
355.240692 0.085261 
356.149139 0.938422 
357.106476 0.15851 
357.249268 0.056884 
359.027802 3.179967 
359.111694 0.190951 
360.02829 0.050522 
360.095306 0.41283 
360.152618 2.93666 
361.128998 0.105889 
361.155518 0.288519 
361.1828 0.185331 
361.220367 0.997592 
362.111084 1.16255 
363.115112 0.050696 
364.092316 6.174469 
364.126068 0.345291 
365.096588 4.565076 
365.130829 0.028959 
366.107178 7.614856 
366.134521 0.031293 
366.143707 0.022608 
367.089081 0.802397 
367.113373 2.113176 
367.197021 0.031749 
368.093536 0.608157 
368.1203 1.16508 
369.092499 0.03017 
369.126343 0.167074 
370.078979 0.249174 
370.099213 0.023782 
371.111298 0.413657 
372.095093 2.794362 
372.119812 0.63205 
373.102051 0.133529 
373.12854 7.530478 
373.184662 0.082711 
374.132751 6.333575 
375.108887 0.087207 
375.135223 1.468059 
375.23645 0.264164 
376.090332 0.031945 
377.12442 0.276733 
377.182129 0.097526 
378.080902 0.026949 
378.107544 12.874576 
379.111572 12.239741 
380.115112 3.271784 
381.144897 0.036617 
382.102081 0.863494 
382.137177 0.118857 
383.107483 0.555886 
383.141724 0.082482 
383.228302 3.107263 
384.11438 0.028813 
384.154236 0.289367 
384.231201 0.289923 
385.100372 0.131608 
386.074951 0.399441 
387.144257 2.628755 
387.200653 0.452774 
388.090454 3.919569 
388.116364 0.065388 
388.148804 1.076177 
389.094299 0.110597 
389.122833 0.678973 
389.151703 0.856916 
390.105896 0.955982 
390.199799 0.067308 
391.109344 0.034499 
391.194702 28.751511 
392.122742 0.431404 
392.198029 2.528438 
393.144958 0.417777 
394.074005 0.0826 
394.102966 19.334356 
395.108124 11.975198 
395.13446 0.044089 
395.192902 0.165751 
396.085541 0.072775 
396.112762 3.419333 
396.154144 0.11376 
397.115967 0.516257 
397.155853 0.031993 
397.547852 0.153174 
398.098602 0.066601 
399.106171 0.174093 
400.112732 0.127604 
401.119415 0.098119 
401.164917 0.228585 
401.215851 0.110109 
401.251404 0.302649 
402.963715 0.072672 
403.10257 0.220677 
403.138519 0.254555 
403.230652 0.150149 
403.267548 0.056006 
404.110046 0.341963 
404.228149 0.212459 
405.088959 0.099594 
405.119202 4.347361 
405.154144 0.879934 
405.210541 41.024876 
406.096344 0.0791 
406.123535 1.565518 
406.159454 0.241163 
406.213501 8.358361 
407.132111 0.077698 
407.168762 50.189545 
408.171906 4.255111 
409.127319 0.053459 
409.151154 0.028036 
409.243896 0.037529 
409.491516 0.157083 
410.097473 0.8695 
410.131378 0.328524 
411.103699 1.264388 
411.131744 0.028498 
411.223145 0.856752 
412.107666 0.132817 
412.15213 0.030071 
412.22641 0.04117 
414.070374 0.908733 
414.160004 0.088995 
415.100952 0.584599 
416.084808 13.702973 
417.089294 1.946339 
417.174469 5.082067 
417.246918 0.223694 
418.160492 0.118538 
418.243256 0.578373 
418.994293 0.295335 
419.105499 0.039436 
419.136139 0.033125 
419.168213 0.073763 
419.199524 0.084912 
419.245972 0.363189 
420.115997 0.098796 
420.2005 0.348826 
421.116394 0.08461 
421.151184 0.326572 
421.18338 0.145062 
422.131989 0.169427 
422.19101 0.161032 
423.097412 0.447078 
423.137756 0.184351 
425.120728 0.074168 
427.102295 0.169767 
427.13678 3.312151 
427.174286 0.218405 
428.107635 0.519407 
428.143616 1.168789 
428.608887 0.244934 
429.115692 1.009237 
429.15213 3.438783 
430.116364 0.03678 
430.157288 0.305027 
431.134674 5.161884 
431.189789 1.278719 
432.058319 1.093589 
432.140961 4.676739 
432.936615 0.384913 
433.113434 0.311805 
433.146576 7.941763 
434.122192 0.127479 
434.153046 1.730519 
434.189911 0.170428 
435.127686 0.034015 
435.159821 0.911534 
436.165741 0.090311 
437.146179 0.051869 
437.207245 0.78344 
439.164062 0.032604 
443.099518 0.030934 
443.168091 34.792778 
444.172058 7.479302 
445.113647 0.066568 
445.145264 0.493238 
447.132111 0.170224 
447.162445 0.074789 
447.34671 0.032152 
448.134247 0.034748 
449.144104 0.798338 
449.179993 0.264514 
450.151855 1.23772 
450.184357 0.412958 
451.125916 0.041576 
451.156647 1.23805 
451.188263 0.12422 
452.158936 0.129012 
453.115723 0.377574 
453.177979 0.071802 
455.132202 2.825306 
455.16571 0.155048 
456.13382 0.346883 
457.183807 1.92553 
458.186218 0.032304 
459.130157 8.210196 
459.163879 9.875841 
460.136444 18.663107 
460.286469 0.125966 
461.140717 17.108477 
462.143707 5.785119 
463.126953 0.246757 
463.154053 0.264372 
463.186615 0.692774 
463.221649 0.286237 
465.141113 0.080841 
465.17569 0.042104 
466.144196 0.048402 
466.179718 0.076892 
467.190277 0.106808 
468.166656 0.07577 
469.110565 0.162202 
469.146729 2.003934 
470.114136 0.029727 
470.148529 0.307525 
471.12561 0.07489 
471.161804 1.703216 
473.142822 1.552002 
474.304199 0.375724 
475.124725 0.034494 
475.162323 0.096063 
475.189514 0.029294 
476.128815 0.106381 
476.193481 0.103809 
476.668671 0.210273 
477.140076 0.251624 
478.144684 0.208508 
479.153259 0.045918 
480.160522 0.034784 
480.28183 0.294101 
481.112518 0.376761 
481.91098 0.102556 
482.178833 1.102198 
483.16333 0.961047 
483.222015 0.088028 
484.164429 0.633002 
485.144257 1.359989 
486.108521 0.028673 
487.122711 0.18094 
487.158905 11.366287 
488.124146 0.227672 
488.161133 1.491873 
489.173431 3.627671 
490.177246 0.264441 
493.133087 0.259167 
494.138031 0.344124 
494.174652 0.0368 
495.144287 0.080595 
496.194489 0.540056 
498.17453 5.409841 
499.122345 0.315289 
499.178009 0.398033 
501.173492 0.592311 
502.265503 0.068234 
503.131317 2.126795 
504.184845 0.033729 
504.221741 0.03547 
504.281067 0.125616 
505.042084 0.028054 
505.168427 2.27393 
508.194672 0.149501 
510.174744 0.036775 
512.190186 3.096633 
513.133667 0.093184 
513.195312 0.101271 
515.152832 1.240526 
516.154663 0.387323 
517.226562 0.030071 
518.298035 0.392059 
519.057922 0.038899 
519.299011 0.122657 
520.250854 0.603889 
521.200928 0.095239 
522.207764 0.114816 
523.20697 0.029912 
524.189575 3.619788 
524.227966 0.354092 
525.195679 1.400054 
526.206116 21.300707 
527.210693 9.5254 
528.183411 0.347061 
528.216614 0.105152 
529.186523 0.132065 
530.203552 1.376672 
530.258423 2.618905 
531.15094 0.172785 
531.209045 1.909546 
531.257263 0.066884 
532.213989 1.974722 
533.217529 0.531843 
538.205139 0.481342 
540.222656 5.735332 
541.225159 0.942738 
542.178101 11.225305 
543.184631 1.869456 
544.181152 0.658298 
544.673584 0.157995 
546.224426 0.208241 
548.181946 0.090304 
552.184875 6.32268 
553.188782 0.743853 
554.198181 0.484846 
556.218384 0.033709 
559.203857 0.108253 
560.210144 0.439721 
561.210205 0.13713 
561.781006 0.238869 
566.200806 2.182165 
567.203064 0.382774 
568.158386 0.487137 
568.21637 3.268608 
569.217407 0.780248 
570.195435 2.347571 
571.197876 0.099298 
572.211548 4.398793 
573.213806 0.823807 
582.232178 0.183329 
584.2099 7.077801 
585.213684 1.521205 
586.177612 0.792328 
586.226562 22.462854 
587.178894 0.14107 
587.229736 8.610002 
588.182129 0.025077 
588.234192 0.223844 
593.24823 0.199049 
595.223022 0.318913 
596.243774 0.110044 
597.242065 0.084565 
598.187988 3.489041 
599.192749 0.203383 
599.257141 2.893217 
600.191284 1.466189 
600.25354 0.549693 
601.241272 0.027365 
602.213745 13.75167 
603.221252 1.027044 
609.242249 0.038822 
611.209045 0.040235 
611.259277 8.314735 
612.206604 4.244681 
612.260864 1.808656 
613.209229 0.605276 
614.165405 0.663581 
621.241394 0.182915 
623.257568 3.556111 
624.262451 1.256223 
625.233276 3.093607 
626.228271 1.735184 
627.233521 2.221273 
628.18988 4.223114 
629.235046 0.028177 
630.21698 0.214534 
637.276123 2.411254 
638.280518 0.212636 
639.252869 20.045528 
640.255554 7.423284 
641.227722 5.398976 
642.230103 0.521121 
644.233704 0.065066 
651.253723 0.931225 
652.239319 0.860069 
653.265686 0.411595 
654.263489 0.512955 
655.228333 13.44553 
656.232788 1.283503 
657.204102 0.292144 
657.263245 2.168388 
658.264221 0.320135 
665.227539 1.161569 
666.231995 0.189455 
667.246582 10.098637 
668.251648 3.669908 
669.265625 18.935184 
670.265625 8.035233 
671.219238 0.590543 
671.27417 0.152297 
673.11908 0.076266 
673.238281 2.817361 
674.263916 0.053706 
676.252563 0.088431 
681.264038 2.530588 
682.261658 2.610695 
683.228577 5.813828 
683.283691 0.151575 
684.233887 2.694439 
685.238586 18.110041 
686.242615 2.144468 
694.251343 0.130581 
695.242981 20.881771 
695.299438 0.267455 
696.24646 8.665368 
697.258545 4.514612 
698.246155 0.843211 
699.216187 7.320772 
699.473083 0.245027 
700.21875 0.217464 
709.257935 7.264535 
709.662048 0.417785 
709.829834 0.452762 
709.975403 0.148756 
710.083008 0.091844 
710.180847 1.219138 
710.261658 3.937937 
711.215088 17.715204 
712.217773 1.02139 
712.270325 1.552474 
713.257324 0.750053 
715.263184 0.05975 
717.229248 0.205199 
721.926819 0.116005 
724.339844 1.223374 
725.339661 0.209142 
729.227905 0.198219 
730.507507 0.253221 
734.325439 0.038635 
735.329224 0.151605 
736.309753 0.775727 
737.310364 0.32591 
738.270996 1.568669 
739.26416 0.219446 
740.305847 3.778788 
741.309875 0.34893 
743.264404 0.261123 
750.313721 0.445218 
752.335754 1.545355 
753.336792 0.339992 
754.256897 1.201308 
754.323425 0.066527 
755.255432 0.028119 
756.2724 1.827151 
757.276245 0.539122 
763.295776 0.069776 
766.275085 6.710245 
767.282166 2.565477 
768.303589 3.487172 
769.301575 0.029448 
779.321106 0.030386 
780.333374 10.799436 
781.333008 6.448446 
782.260864 9.900297 
783.293762 1.189919 
796.32428 0.079305 
797.327209 0.206517 
807.660889 0.120324 
809.327393 1.235369 
812.316895 1.687811 
813.322449 0.615124 
826.336182 4.337425 
827.338135 1.493499 
828.295105 8.806175 
829.292603 1.037245 
837.346985 0.182117 
848.377136 0.200869 
851.367004 2.301856 
852.369812 0.64467 
853.326599 4.78744 
854.328857 0.217187 
879.375244 0.027286 
883.354675 0.088683 
884.359497 0.12707 
897.371277 0.120583 
898.376343 0.101964 
899.330933 3.022956 
900.340271 0.275106 
913.74231 0.085078 
923.390137 8.095029 
924.39093 6.495213 
925.345581 14.65397 
926.351074 4.213368 
948.612244 0.107241 
954.392822 0.205794 
969.981445 0.17768 
978.062744 0.250652 
994.42511 1.628414 
995.427002 1.304948 
996.385681 8.668616 
997.384644 3.096962 
1005.202332 0.325856 
1044.659424 0.13692 
1047.983521 0.139923 
1065.131348 0.275496 
1065.489014 0.117038 
1066.756836 0.163446 
1094.700195 0.085624 
1141.02124 0.264353 
1141.329468 0.1881 
1190.850586 0.100396 
1224.520264 0.309273 
1224.793579 0.103929 
1244.310059 0.259392 
1263.424072 0.345364 
1333.897827 0.081664 
1335.376831 0.400096 
1338.387451 0.249299 
END IONS

