BEGIN IONS
PEPMASS=359.089
CHARGE=1+
COMPOUNDNAME=MYCOPHENOLIC ACID
LIBRARYQUALITY=3
SMILES=N/A
INCHIKEY=HPNSFSBZBAHARI-RUDMXATFSA-N
INCHI=InChI=1S/C17H20O6/c1-9(5-7-13(18)19)4-6-11-15(20)14-12(8-23-17(14)21)10(2)16(11)22-3/h4,20H,5-8H2,1-3H3,(H,18,19)/b9-4+
MSLEVEL=2
SOURCE_INSTRUMENT=N/A-ESI-QFT
FILENAME=library_mgf.mgf
SEQ=*..*
IONMODE=positive
ORGANISM=MONA
NAME=MYCOPHENOLIC ACID [M+K]+
PI=MoNA
DATACOLLECTOR=MoNA:VF-NPL-QEHF011299
PUBMED=N/A
SUBMITUSER=mwang87
TAGS=
SPECTRUMID=CCMSLIB00004702362
SCANS=11299
50.104683 0.041322 
50.236797 0.015888 
50.774761 0.015277 
51.164764 0.059471 
51.530785 0.011909 
51.607983 0.099067 
51.764999 0.033093 
52.422699 0.087699 
52.564407 0.096969 
52.865269 0.015968 
53.647484 0.023558 
53.6828 0.011352 
53.896519 0.076281 
54.286507 0.081888 
54.325207 0.013974 
54.580067 0.014982 
55.054935 0.103798 
55.355183 0.030601 
55.461254 0.0311 
55.63464 0.014461 
55.766624 0.102723 
56.392704 0.014374 
56.683495 0.031289 
56.78928 0.01514 
56.882233 0.014512 
57.070595 1.479391 
57.226292 0.013143 
58.065853 1.500314 
58.362522 0.096827 
58.631107 0.022887 
58.980045 0.09825 
59.04982 0.126097 
59.197514 0.103703 
59.356815 0.011317 
59.892216 0.013965 
60.045116 0.30759 
60.73473 0.023571 
60.87368 0.084528 
60.989388 0.013539 
61.034473 0.132691 
61.688934 0.04949 
62.292015 0.112057 
62.695618 0.011169 
62.704433 0.020919 
63.116726 0.036789 
63.466316 0.063657 
63.598869 0.016405 
63.930294 0.032379 
64.727501 0.042505 
64.807327 0.032702 
65.056633 0.037022 
65.139748 0.10598 
65.511818 0.128021 
65.722794 0.092046 
65.82058 0.113337 
66.34333 0.041283 
66.348648 0.047134 
66.470016 0.015839 
66.821159 0.102241 
66.889557 0.031328 
67.054893 0.884048 
67.277977 0.015398 
68.999229 0.022702 
69.070496 0.600535 
69.085197 0.082398 
70.065773 0.564223 
70.195679 0.109946 
71.055092 0.023389 
71.086227 0.765131 
72.081322 0.024284 
73.047432 0.127026 
73.168831 0.086289 
73.524704 0.056986 
74.116318 0.107374 
74.261017 0.109445 
76.076309 0.14861 
76.551628 0.047948 
77.068451 0.047901 
77.18251 0.013252 
77.348824 0.092985 
79.02179 3.598178 
79.02388 0.048701 
79.308434 0.019744 
79.510704 0.06853 
80.6091 0.083823 
81.070435 0.904537 
81.509766 0.08319 
81.648506 0.040652 
81.871696 0.101741 
82.411324 0.060501 
82.854439 0.052525 
83.086029 0.21576 
83.546715 0.06614 
84.081535 0.09723 
84.788467 0.096337 
85.028915 0.537108 
85.040146 0.407181 
85.065453 0.110347 
85.101753 0.153944 
85.261971 0.013658 
86.096901 1.01769 
86.199402 0.069396 
86.49173 0.043695 
87.044586 4.267111 
87.632622 0.014044 
88.076202 2.370946 
89.060234 3.154046 
89.169518 0.026708 
89.518448 0.043786 
89.930504 0.016968 
90.34288 0.118833 
91.054695 3.359997 
91.057793 3.97622 
91.060539 0.026994 
91.601944 0.049468 
92.05748 0.090039 
92.806862 0.09863 
93.054573 0.116728 
93.070366 0.461944 
93.397385 0.052511 
93.636246 0.047793 
94.342331 0.079133 
95.049591 1.242878 
95.085899 1.583965 
95.762741 0.096927 
96.134499 0.113438 
96.158028 0.091027 
96.198647 0.105318 
97.029114 0.08151 
97.227013 0.091663 
98.463104 0.061157 
98.975693 0.079572 
98.998833 0.048901 
99.080696 0.101185 
99.509087 0.015372 
99.881012 0.091362 
100.075851 0.197788 
100.12738 0.016064 
100.637695 0.096511 
102.091583 0.510769 
102.738029 0.094668 
102.749657 0.099187 
103.039268 1.701225 
103.075485 0.024869 
103.701462 0.014865 
105.641159 0.012072 
106.086563 2.571418 
106.908707 0.096846 
107.085754 0.340245 
107.500748 0.015098 
107.722359 0.039007 
107.90097 0.099088 
108.278152 0.029553 
108.300194 0.066889 
108.381577 0.064241 
108.718468 0.099961 
109.10141 0.773029 
109.254868 0.048237 
111.382439 0.060156 
112.930817 0.102753 
113.059837 0.318892 
115.071053 0.090821 
116.393875 0.081892 
116.940651 0.096531 
116.985924 0.141849 
117.386688 0.102579 
118.705856 0.025115 
119.085732 4.330875 
120.433105 0.053873 
121.101357 0.042777 
121.624519 0.097016 
121.808281 0.029271 
123.189926 0.045514 
123.940964 0.040284 
125.096268 0.13153 
125.457458 0.050911 
125.947983 0.08789 
127.038872 0.327174 
127.978836 0.024861 
128.106918 0.510797 
130.686722 0.092718 
131.070099 0.77631 
131.351456 0.04695 
132.04216 0.085176 
132.101868 5.804922 
132.11232 0.069265 
133.085815 0.917989 
134.19191 0.045652 
134.996384 0.579846 
135.11731 0.027165 
136.319382 0.113594 
137.367905 0.048443 
138.128113 0.109657 
141.028763 0.078895 
142.554611 0.041724 
143.666519 0.102504 
144.101852 0.101482 
145.049469 0.131708 
145.602478 0.012127 
145.666748 0.013125 
147.181793 0.015639 
148.602707 0.127559 
149.432816 0.040937 
151.039307 0.037468 
154.234879 0.038976 
154.380798 0.017949 
154.414978 0.112783 
156.122452 0.087263 
156.469666 0.049947 
156.882538 0.058583 
161.155029 0.017071 
162.423813 0.018513 
163.122879 0.227159 
164.296082 0.06734 
164.515213 0.057984 
165.361511 0.016861 
165.710403 0.015663 
167.643433 0.038795 
167.767426 0.115201 
167.894226 0.09672 
168.7397 0.097682 
170.992157 0.050971 
171.032318 0.111511 
175.096588 0.661194 
177.054092 0.136277 
177.58345 0.017746 
177.7883 0.016793 
177.867676 0.100615 
177.916 0.050945 
181.882568 0.012697 
183.141541 0.045053 
186.878632 0.01829 
187.267288 0.045775 
188.127533 0.094046 
189.015884 0.153921 
189.043427 4.52294 
189.204788 0.047718 
191.070084 0.632849 
193.216446 0.117227 
193.230667 0.102007 
195.065048 3.533729 
195.122574 0.057941 
195.148193 0.032864 
195.491394 0.098813 
196.067795 0.022864 
200.633591 0.016222 
202.347122 0.070743 
203.106354 0.504733 
203.139221 0.026861 
204.952805 0.01522 
207.033035 0.539226 
207.054077 3.400428 
207.064987 15.2616 
208.068314 0.486739 
208.948669 0.014111 
209.683762 0.104722 
209.963867 0.056466 
212.283463 0.088163 
213.111832 0.11704 
214.023376 0.975104 
214.473022 2.720617 
214.487717 2.758938 
215.899399 0.051215 
216.337936 0.08735 
216.785202 0.122865 
219.174179 1.352625 
220.903427 0.352385 
221.08136 0.125699 
222.898376 4.449624 
223.922211 0.099707 
224.127838 0.965041 
229.046982 18.823671 
230.050217 3.22373 
231.026123 12.230265 
231.050949 0.102332 
232.034012 10.652247 
233.01239 1.560633 
233.040268 0.624894 
238.913589 1.414394 
240.232346 0.34795 
240.268204 0.189985 
240.893997 0.103261 
240.909058 11.89156 
241.074036 0.099957 
241.171722 0.079709 
243.026154 1.463192 
243.064056 0.067436 
244.150726 0.051168 
245.041824 0.446811 
246.112335 0.90716 
247.096222 15.476063 
248.099823 2.902515 
251.022324 8.507211 
252.025208 0.019283 
253.03833 0.971798 
254.924866 0.232593 
256.227417 0.019045 
257.041626 0.172033 
257.59375 0.018059 
259.817017 0.042482 
260.824677 0.127961 
262.643402 0.098337 
262.999847 0.080892 
263.023254 0.207479 
265.03833 0.955608 
265.056 0.051923 
267.017212 1.368826 
267.071136 0.342948 
267.100372 0.102776 
268.299713 2.664142 
269.032928 59.062191 
270.036285 5.795717 
270.343445 0.01645 
271.036743 0.06096 
273.565216 0.016266 
275.126984 0.116016 
277.038422 0.312005 
278.99472 0.132172 
281.03299 11.99232 
282.003479 0.146945 
282.038239 1.041915 
282.989532 0.023705 
283.048615 16.073643 
283.094147 0.577984 
283.591644 0.102302 
284.052277 1.18122 
285.027161 0.207668 
285.072998 17.818445 
285.111694 10.081173 
285.815765 0.066823 
286.076416 2.018311 
287.006073 0.072519 
287.043365 22.855486 
288.046997 1.791448 
294.128387 0.01781 
295.048492 8.898229 
295.981873 1.136114 
296.01944 0.064189 
296.05246 0.46139 
296.294647 0.155432 
297.005249 0.469145 
297.064056 0.360861 
298.310455 0.098483 
298.941772 0.785264 
299.023712 0.224313 
299.043396 6.247555 
299.060242 0.112291 
299.088898 1.196934 
299.829468 0.01903 
300.046692 0.371232 
300.937622 0.122154 
301.059296 6.249593 
301.826172 0.906643 
302.062378 0.076516 
303.089447 2.786727 
303.207062 0.063156 
304.114075 0.072164 
309.06369 0.401584 
310.823608 0.088115 
310.845367 0.073139 
312.838501 1.733696 
313.058929 4.82585 
314.062134 0.19019 
315.089752 3.331876 
316.092041 0.16661 
316.949951 0.053193 
317.819946 0.091701 
317.840637 8.270846 
318.827942 0.817097 
319.835999 34.597797 
321.100555 0.940759 
325.830566 0.192432 
326.83847 0.223209 
327.08316 0.795502 
327.825928 1.970244 
327.845123 0.017601 
328.091705 0.014417 
328.122437 0.278401 
328.833405 3.506034 
329.030609 0.020355 
329.047821 0.144355 
329.098907 0.36885 
329.118774 1.090016 
329.84082 0.229687 
331.046204 0.112059 
331.818512 0.023697 
332.185974 0.264011 
333.100403 14.175065 
333.81543 1.716014 
333.852142 0.26941 
333.884216 0.099032 
334.103973 2.095339 
334.843262 7.814658 
335.851105 7.625541 
336.838654 30.731335 
336.860962 0.260234 
337.846588 29.283108 
339.711731 0.050228 
340.3573 3.722736 
341.069214 1.583605 
341.099091 5.325988 
341.361176 0.383153 
342.102448 0.314422 
342.995483 0.048711 
343.078339 5.078165 
343.102448 5.404783 
344.08551 4.929687 
344.105591 1.743813 
344.828735 0.553401 
344.976044 4.925977 
345.101013 0.497585 
345.976501 1.07724 
346.132782 1.434106 
346.974182 0.074388 
347.020752 0.235383 
347.057922 2.005667 
347.079498 0.679741 
347.129822 4.408366 
350.854309 0.260848 
351.111206 55.772659 
351.82608 1.703412 
351.862427 1.387551 
352.114441 9.086323 
352.853851 1.999079 
353.116455 0.064044 
353.840759 0.17744 
354.849396 9.336764 
357.093628 1.110932 
357.130585 12.962669 
357.260651 100.0 
358.097473 0.281529 
358.134064 5.403041 
358.228485 1.143275 
358.263763 27.050817 
358.367676 57.463539 
358.843414 9.11513 
359.026062 0.464952 
359.080536 15.904976 
359.109497 69.506226 
359.203613 2.209732 
359.233643 0.161547 
359.268036 3.899737 
359.305878 0.142352 
359.371002 13.355814 
359.845154 0.320919 
360.028015 0.057398 
360.084259 2.80536 
360.112793 13.753333 
360.23703 2.206207 
360.290192 0.38912 
360.324799 0.502655 
360.361786 6.954674 
360.838684 35.552498 
361.113007 6.361396 
361.143951 0.094103 
362.11499 0.841508 
363.115601 0.121417 
365.126953 2.297195 
367.841095 5.002244 
368.865387 0.085841 
369.121552 21.587687 
369.836365 21.58441 
370.124756 3.358944 
371.127869 0.057526 
375.052277 0.74639 
376.055237 0.873882 
376.854095 4.05066 
377.090424 25.458578 
378.093658 4.674402 
378.849335 17.208723 
378.877502 0.021311 
383.137268 0.435201 
383.85199 0.52259 
END IONS

