BEGIN IONS
TITLE=Scan Number: 1477
PEPMASS=425.194
CHARGE=1+
COMPOUNDNAME=_130029
LIBRARYQUALITY=2
SMILES=O=C1C=C(OC)C(C)=C(/C=C/C=C/C=C/C(C)=C\[C@]2(C)O[C@H](C)[C@@](O)(C)[C@H]2O)O1
INCHIKEY=JLSVDPQAIKFBTO-JMZHKIFESA-N
INCHI=N/A
MSLEVEL=2
SOURCE_INSTRUMENT=LC-ESI-qToF
FILENAME=P2_C9_conc_GE9_01_2428.mzXML
SEQ=*..*
NOTES=
IONMODE=Positive
ORGANISM=GNPS-LIBRARY
NAME=_130029 M+Na
SPECTRUMID=CCMSLIB00000478463
ACTIVATION=CID
INSTRUMENT=ion trap
SCANS=1477
129.073975 528.0 
139.00856 544.0 
139.041336 588.0 
140.037552 288.0 
141.077194 252.0 
145.019531 256.0 
157.042297 424.0 
157.096313 312.0 
161.030472 276.0 
167.049423 492.0 
168.053635 292.0 
177.057037 1040.0 
179.005478 384.0 
179.055969 328.0 
180.092224 304.0 
185.05246 456.0 
186.065262 252.0 
186.565994 596.0 
188.05658 252.0 
188.08812 444.0 
189.091583 280.0 
193.086655 260.0 
195.568939 280.0 
196.05896 432.0 
199.074051 1008.0 
202.06076 328.0 
204.576111 260.0 
206.108398 392.0 
222.140152 300.0 
228.074295 308.0 
238.100189 252.0 
238.132416 296.0 
244.073441 464.0 
259.127136 344.0 
265.086487 396.0 
269.085236 284.0 
275.07196 684.0 
276.07605 260.0 
277.088318 376.0 
278.098297 252.0 
279.594086 252.0 
280.106049 392.0 
293.081482 616.0 
295.104645 516.0 
297.148193 464.0 
298.153595 344.0 
315.157684 568.0 
316.61969 632.0 
319.129456 316.0 
325.125854 940.0 
325.630371 896.0 
326.132538 736.0 
327.123199 332.0 
327.630219 256.0 
334.131378 1420.0 
334.63562 812.0 
335.13858 816.0 
337.142792 1984.0 
338.637115 468.0 
347.645599 280.0 
350.144318 540.0 
350.643494 436.0 
353.101837 524.0 
354.104095 252.0 
356.144592 404.0 
369.098877 264.0 
369.151062 352.0 
369.655945 976.0 
370.141815 488.0 
371.115631 276.0 
378.157257 1000.0 
378.662476 1840.0 
379.161682 1296.0 
379.662781 764.0 
380.158173 424.0 
385.125397 356.0 
397.120331 308.0 
422.183075 916.0 
422.686218 1728.0 
423.191162 464.0 
424.181946 440.0 
424.686768 256.0 
425.194336 74164.0 
426.19574 15664.0 
426.472321 272.0 
427.200531 2296.0 
427.259521 312.0 
428.200348 272.0 
441.155212 400.0 
459.175354 408.0 
END IONS

