BEGIN IONS
PEPMASS=266.09
CHARGE=1+
COMPOUNDNAME=Adenosine
LIBRARYQUALITY=3
SMILES=N/A
INCHIKEY=OIRDTQYFTABQOQ-KQYNXXCUSA-N
INCHI=InChI=1S/C10H13N5O4/c11-8-5-9(13-2-12-8)15(3-14-5)10-7(18)6(17)4(1-16)19-10/h2-4,6-7,10,16-18H,1H2,(H2,11,12,13)/t4-,6-,7-,10-/m1/s1
MSLEVEL=2
SOURCE_INSTRUMENT=N/A-ESI-QFT
FILENAME=library_mgf.mgf
SEQ=*..*
IONMODE=negative
ORGANISM=MONA
NAME=Adenosine [M-H]-
PI=MoNA
DATACOLLECTOR=MoNA:VF-NPL-QEHF000388
PUBMED=N/A
SUBMITUSER=mwang87
TAGS=
SPECTRUMID=CCMSLIB00004691451
SCANS=388
50.693192 0.00712 
51.531082 0.008495 
51.71965 0.005392 
52.634415 0.008224 
52.664173 0.007344 
52.859344 0.005827 
52.878044 0.00728 
53.065914 0.008792 
53.080254 0.007656 
54.456047 0.006841 
54.617359 0.008147 
54.7239 0.007193 
55.038033 0.007081 
55.213409 0.005645 
55.529087 0.007465 
55.745113 0.007857 
56.257034 0.007119 
56.512104 0.00818 
56.520817 0.007715 
56.580345 0.005176 
56.676495 0.007748 
57.033249 0.023073 
57.524719 0.030975 
57.577282 0.006426 
59.012505 1.622068 
59.392719 0.005367 
59.758522 0.005215 
60.010307 0.005833 
60.487785 0.008394 
60.783787 0.006864 
61.450218 0.00729 
61.987019 0.660255 
62.439316 0.006732 
62.952141 0.006388 
62.954006 0.00525 
66.336159 0.007258 
66.659676 0.005779 
67.885277 0.007865 
69.594154 0.008465 
71.373367 0.008419 
71.683578 0.007532 
72.80513 0.00565 
75.030136 0.006774 
75.374947 0.007304 
75.659637 0.007297 
77.579102 0.007864 
78.013039 0.007647 
78.902161 0.006317 
78.984566 0.052551 
79.334824 0.008338 
79.4403 0.007629 
79.956062 0.180876 
80.963898 0.489602 
81.681396 0.010581 
82.701767 0.00738 
83.04892 0.005898 
83.397827 0.007741 
83.703743 0.008 
85.704628 0.008128 
86.351494 0.008431 
89.023087 0.228286 
89.69294 0.00717 
90.338501 0.007087 
90.417053 0.006794 
90.671364 0.005782 
91.609779 0.005596 
92.024139 0.084906 
92.591743 0.007284 
93.033447 0.011843 
93.103233 0.006614 
94.720161 0.009348 
94.979889 0.007512 
96.958817 2.132531 
97.213066 0.008699 
98.954613 0.029291 
99.744118 0.005042 
99.924484 0.06595 
100.932487 0.021989 
102.043221 0.005004 
103.609451 0.007623 
103.918922 0.006617 
107.035072 0.55536 
108.045525 0.009707 
108.748207 0.007444 
109.028191 0.004882 
109.620438 0.007726 
115.919533 0.267384 
116.163963 0.007773 
116.920311 0.009053 
116.927376 0.592431 
117.927521 0.009433 
119.049133 0.137375 
119.77655 0.008053 
120.959091 0.021204 
121.772614 0.008026 
122.023087 0.009215 
122.677231 0.009485 
122.71862 0.006176 
126.037415 0.008488 
128.069656 0.007674 
129.311966 0.010066 
130.427399 0.009383 
130.942886 0.191925 
133.240158 0.007784 
134.046097 100.0 
135.030212 1.00712 
135.043198 1.904095 
135.049469 5.60086 
136.034073 0.009975 
136.046555 0.01665 
136.052719 0.045914 
137.205811 0.007952 
139.323578 0.010475 
140.617035 0.007556 
140.618912 0.008998 
140.620743 0.008775 
141.016006 0.00879 
141.822327 0.009577 
142.590927 0.00785 
145.072723 0.007607 
145.966324 0.009891 
146.191696 0.007712 
147.445969 0.008493 
148.061676 0.057912 
149.009109 0.008635 
149.013779 0.007958 
158.938156 0.04243 
161.024841 0.008121 
162.389587 0.009504 
163.039078 0.050684 
165.956253 0.033993 
171.102066 0.165784 
171.13826 0.050934 
173.11734 0.030598 
174.991425 0.009938 
176.056534 0.021459 
178.050751 0.0074 
179.070496 0.227865 
179.078064 0.00778 
181.159058 0.448539 
181.448441 0.006618 
184.000946 0.105843 
186.11351 0.008508 
190.209915 0.009782 
199.16983 0.103712 
202.986969 0.030913 
203.972092 0.015134 
205.00296 0.006319 
205.159119 0.150917 
208.692413 0.007665 
210.700974 0.005918 
214.763214 0.008154 
217.003143 0.006744 
217.031448 0.03626 
217.05159 0.15649 
217.065582 0.085964 
217.075439 0.006674 
223.028931 0.01052 
224.164734 0.03155 
225.024994 0.289746 
225.149094 0.621168 
226.01358 0.007364 
226.025986 0.144832 
226.153778 0.008288 
227.021255 0.01154 
228.589203 0.007623 
239.889221 0.007598 
241.217148 0.089886 
241.697083 0.005428 
242.176178 0.443509 
243.161209 0.012591 
243.178741 0.019007 
244.493011 0.006479 
246.782745 0.00806 
249.032135 0.082485 
249.149765 0.498426 
249.942749 0.106471 
250.143784 0.067211 
253.217453 0.729171 
254.219955 0.026576 
255.233017 11.337824 
256.236359 2.015172 
257.239227 0.147659 
259.485687 0.005988 
264.160309 0.278024 
265.148041 3.354871 
265.252655 0.008791 
266.089569 2.214541 
266.151489 0.418415 
266.652435 0.009686 
267.073761 0.133971 
267.092377 0.209603 
267.143524 0.041281 
267.233002 0.102242 
269.24881 0.495127 
270.252258 0.024719 
279.163483 0.146833 
279.232971 0.764162 
280.236115 0.069042 
280.891357 0.008278 
281.248749 3.982084 
282.204956 0.009896 
282.252197 0.749712 
283.13739 0.068294 
283.264435 20.054125 
284.267853 3.939176 
285.044159 0.092083 
285.270874 0.421844 
END IONS

