BEGIN IONS
PEPMASS=293.042
CHARGE=1+
COMPOUNDNAME=Emodin
LIBRARYQUALITY=3
SMILES=N/A
INCHIKEY=RHMXXJGYXNZAPX-UHFFFAOYSA-N
INCHI=InChI=1S/C15H10O5/c1-6-2-8-12(10(17)3-6)15(20)13-9(14(8)19)4-7(16)5-11(13)18/h2-5,16-18H,1H3
MSLEVEL=2
SOURCE_INSTRUMENT=N/A-ESI-QFT
FILENAME=library_mgf.mgf
SEQ=*..*
IONMODE=positive
ORGANISM=MONA
NAME=Emodin [M+Na]+
PI=MoNA
DATACOLLECTOR=MoNA:VF-NPL-QEHF011216
PUBMED=N/A
SUBMITUSER=mwang87
TAGS=
SPECTRUMID=CCMSLIB00004702279
SCANS=11216
50.047825 0.012124 
50.413124 0.010215 
52.463543 0.006893 
52.698368 0.008017 
52.75526 0.007637 
53.002934 0.035268 
53.039333 0.010838 
53.518288 0.008229 
53.596592 0.008962 
53.618294 0.008202 
54.605614 0.010261 
54.918297 0.009966 
55.01852 0.121855 
55.054966 0.641117 
55.533436 0.008226 
56.050297 0.023928 
56.965534 1.143749 
56.966854 0.012378 
56.985859 0.01173 
57.03421 0.498386 
57.070637 3.757821 
57.072269 0.015205 
57.203148 0.010724 
57.205456 0.009766 
57.425785 0.014904 
57.435986 0.010671 
57.701187 0.010143 
58.065845 0.659988 
58.073914 0.161256 
58.721283 0.009702 
59.049873 0.688185 
59.267349 0.007901 
60.045074 0.063089 
60.468334 0.008057 
60.739662 0.009807 
61.011311 0.23043 
61.360935 0.010419 
61.90012 0.011537 
62.019306 0.0097 
62.247894 0.007977 
62.251305 0.011871 
62.982445 0.13304 
63.923855 0.009869 
64.658684 0.010223 
66.472527 0.012019 
67.054909 0.920359 
67.550346 0.009402 
68.050049 0.014562 
68.05822 0.008507 
68.272156 0.012426 
68.5373 0.008028 
68.99437 0.006967 
69.03418 0.537351 
69.070534 0.696867 
69.095383 0.007081 
69.097618 0.007064 
69.346207 0.006866 
69.463631 0.007404 
70.065781 0.443802 
70.604172 0.008319 
71.049736 0.223506 
71.086189 2.428215 
71.525658 0.007473 
71.842163 0.010929 
72.044968 0.053831 
72.081406 0.122017 
72.089439 0.080778 
72.623222 0.007459 
72.748009 0.010661 
73.028992 0.020388 
73.065392 0.071135 
74.060661 0.024332 
74.097054 5.032296 
74.431404 0.012628 
74.976036 0.196831 
75.100372 0.134389 
75.292503 0.006454 
75.330032 0.008078 
76.724472 0.009571 
77.689354 0.007392 
77.723946 0.008257 
79.021744 0.470569 
79.054794 0.460081 
80.050179 0.020301 
80.948318 0.229606 
81.033966 0.156403 
81.070473 1.01642 
82.065491 0.015627 
82.073784 0.009954 
82.945335 0.00953 
83.049599 0.144438 
83.086044 0.452917 
84.044891 0.392217 
84.081284 0.091542 
84.206924 0.008131 
85.028885 0.153273 
85.065315 0.382142 
85.06797 0.006837 
85.101715 1.563804 
85.718674 0.013581 
86.060577 0.011232 
86.068489 0.008882 
86.096947 1.218853 
86.105019 0.037187 
87.031982 0.011044 
87.044563 0.050308 
88.022011 0.149939 
88.039711 0.260736 
88.076118 0.021052 
89.060196 4.067582 
89.063202 0.041447 
89.256432 0.01036 
89.358192 0.014853 
90.063499 0.181781 
91.016205 0.012673 
91.054688 0.439917 
92.737053 0.008564 
92.986145 0.022327 
93.070267 0.765468 
94.065582 0.020589 
94.458008 0.007686 
95.049522 0.581042 
95.06076 0.012027 
95.085953 2.347143 
96.044868 0.007273 
96.081161 0.023541 
96.089256 0.132656 
97.028671 0.173225 
97.065163 0.213183 
97.101517 0.159981 
98.060104 0.008246 
98.096771 0.116853 
98.975838 0.010766 
99.044373 0.156444 
99.080795 0.115857 
100.075958 0.083669 
100.112343 0.025447 
100.825859 0.007983 
101.00351 0.271918 
101.060043 0.675439 
101.950203 0.034094 
102.54496 0.011593 
102.860161 0.011743 
103.0392 0.007583 
103.054543 0.007836 
105.070152 0.391111 
105.541626 0.008361 
106.065399 0.065239 
107.049446 0.095735 
107.070534 0.110364 
107.08577 0.643436 
108.081062 0.01112 
109.064972 0.145151 
109.101334 0.501492 
110.060326 0.025438 
110.116646 0.010931 
111.044258 0.024787 
111.080605 0.125026 
112.039413 0.022841 
113.059837 0.010302 
113.096252 0.276152 
113.250679 0.008435 
114.055031 0.012879 
114.923546 0.010979 
115.038834 0.010556 
115.096931 0.011586 
116.005402 0.030998 
116.052994 0.341163 
116.070854 0.228727 
116.107201 0.026528 
116.986023 0.011648 
117.070152 0.051328 
118.086395 0.127023 
119.049271 0.056238 
119.085625 0.407836 
119.960449 0.02576 
120.003563 0.020721 
120.076355 0.012183 
120.08094 0.751222 
120.488251 0.009158 
121.028496 0.011101 
121.064926 0.072578 
121.101311 0.550898 
122.068123 0.012869 
122.104576 0.010331 
123.080528 0.21499 
123.116837 0.152389 
123.994537 0.008294 
124.112 0.013462 
124.366844 0.01415 
125.096138 0.081612 
126.09137 0.020775 
127.038994 0.079444 
128.106873 0.028185 
128.953857 0.008513 
129.070068 0.031083 
129.291733 0.011775 
130.049789 0.016611 
131.049026 0.080399 
131.085495 0.106898 
132.101883 0.07689 
133.064758 0.011186 
133.085648 0.025954 
133.101181 0.398512 
133.976059 0.012317 
134.059738 0.011743 
134.978683 4.455085 
134.996155 0.080708 
135.04393 0.020439 
135.080368 0.081639 
135.116791 0.157972 
136.000443 0.009404 
136.075623 0.375345 
136.967148 0.020748 
136.974228 0.031472 
137.011932 0.017509 
137.095978 0.074691 
137.132401 0.079658 
137.970871 0.10456 
139.07489 0.01116 
139.111465 0.008956 
143.085373 0.020943 
143.452805 0.012213 
144.101746 0.066876 
145.101074 0.129206 
147.080368 0.064199 
147.116638 0.154468 
148.075836 0.008831 
148.971802 0.065222 
149.023132 0.088458 
149.096207 0.086323 
149.132278 0.02803 
150.013885 0.038831 
150.972672 0.021287 
151.111633 0.31362 
151.969955 0.639091 
152.142944 0.024103 
152.951874 0.144146 
152.989182 11.288923 
153.959259 0.877826 
153.992844 0.097291 
154.932114 0.023612 
154.941422 0.093818 
154.971069 0.013694 
154.977844 1.987169 
154.984787 0.342586 
154.992508 0.009748 
155.954453 0.157448 
155.978912 0.125702 
156.452408 0.009426 
156.974854 0.506536 
157.049423 0.019058 
157.101395 0.011559 
158.994873 0.008463 
159.006592 0.008528 
159.046371 0.008376 
159.080414 0.008322 
159.091568 0.013419 
159.116928 0.044049 
161.068039 0.064716 
161.095886 0.158373 
161.132324 0.156449 
163.027588 0.088182 
163.11145 0.077239 
164.070419 0.020949 
164.107101 0.010353 
164.920471 0.114996 
165.054443 0.03447 
165.078506 0.67583 
165.091095 0.010992 
165.127655 0.017847 
166.122498 0.015499 
166.158417 0.009995 
167.004761 0.467854 
168.982712 0.407432 
169.980484 0.231249 
170.116913 0.03762 
170.96312 0.826691 
170.977951 0.070642 
170.986267 0.012139 
170.999725 2.212243 
171.01358 0.081175 
171.117142 0.015093 
171.967453 0.009963 
172.877396 0.008856 
172.94281 0.567566 
172.952194 0.968638 
172.959244 0.138981 
172.988312 4.103751 
173.059586 0.039298 
173.887024 0.013115 
173.989319 0.472628 
174.955978 0.023722 
174.972244 0.197554 
174.985291 1.090663 
175.027771 0.029074 
175.039215 0.017915 
175.11145 0.020692 
175.148071 0.155348 
177.017685 0.013319 
177.057388 0.009877 
177.127365 0.036896 
178.057968 0.007795 
180.101791 0.155856 
181.038223 0.019546 
182.080917 0.016046 
182.154083 0.013047 
183.637772 0.038449 
183.738327 0.008653 
183.982101 0.013233 
184.615921 0.010791 
185.015488 0.034893 
185.059891 0.01603 
185.131882 0.02045 
185.949158 0.285903 
186.946671 0.015287 
186.967743 0.010405 
187.003983 0.165581 
187.365341 0.008353 
187.944504 0.023599 
188.973953 1.163731 
189.018097 0.624466 
189.045288 0.018972 
189.054413 0.836252 
189.977158 0.009617 
190.021484 0.022134 
190.057312 0.009108 
190.953354 0.936562 
190.962524 0.56805 
190.970749 0.193936 
190.977753 0.009995 
192.642792 0.052112 
192.967285 0.024593 
194.116516 0.014479 
195.028748 0.172468 
197.974304 0.073308 
199.970016 0.090681 
201.054581 0.040283 
201.967834 0.009149 
202.989716 0.011428 
203.070007 0.070816 
203.142944 8.3121 
204.146317 1.241467 
204.968765 0.008915 
205.085739 0.011034 
206.116913 0.010568 
206.619995 0.008756 
207.02861 0.095155 
207.053818 0.086375 
207.065628 0.014337 
208.964203 0.019409 
210.112366 0.043454 
210.427628 0.008401 
212.12796 0.229404 
213.010666 0.012007 
213.05455 0.666816 
213.164612 0.013214 
214.060669 0.176952 
214.935211 0.047719 
214.981293 0.318373 
215.069016 0.026816 
215.43309 0.231347 
215.441925 0.255701 
215.450043 0.035081 
215.983963 0.03362 
216.054016 0.03389 
216.976624 0.008722 
217.049393 0.577941 
217.158936 0.013451 
217.980042 0.01005 
218.02092 0.383039 
218.052902 0.072531 
219.024826 0.01836 
219.064896 0.0092 
219.174255 100.0 
220.177612 16.477526 
220.309204 0.010774 
220.903473 0.014956 
221.044662 0.011261 
221.180786 1.28789 
222.898575 0.418487 
225.936234 0.008539 
227.223465 0.008493 
229.085526 0.035071 
229.895691 0.255601 
230.13858 0.863894 
230.966888 0.173873 
230.979721 0.052436 
231.089233 0.011227 
231.968628 0.013315 
232.945862 1.726047 
232.959305 0.166717 
232.991669 0.459932 
233.044037 0.041901 
233.068909 0.009569 
233.945358 0.008264 
233.992432 0.012336 
234.589294 0.009095 
234.699554 0.01918 
234.722107 0.011223 
234.941544 0.010659 
234.988541 0.088486 
235.944778 0.00982 
236.200699 0.008602 
237.568436 0.009813 
238.913742 0.077633 
240.908966 0.95891 
241.0495 0.198892 
242.052368 0.009616 
245.080948 0.069376 
246.186676 0.012145 
246.921616 0.014263 
246.961761 0.010213 
247.906326 0.31878 
248.977386 0.06704 
248.991028 0.132477 
250.177231 0.012149 
250.956329 1.30884 
250.970901 0.14456 
250.986755 0.009441 
252.952393 0.02015 
255.50679 0.008489 
257.035858 0.012896 
257.099884 0.022596 
258.13324 0.195318 
258.185791 0.0104 
259.115021 0.517633 
260.114319 0.187469 
261.289429 0.012436 
265.95401 0.008465 
274.081299 0.010861 
274.216217 0.761704 
274.252472 0.232887 
275.162201 0.009174 
275.219696 0.065219 
276.143005 0.012588 
276.195526 0.025021 
276.23172 0.038925 
279.89624 0.026035 
279.916443 0.013506 
285.814636 0.034254 
287.831177 0.067549 
291.102692 0.012273 
291.141022 0.844502 
291.213318 0.008565 
291.243744 0.122511 
291.286957 0.188993 
292.143646 0.108943 
292.189789 0.111059 
292.209442 0.008766 
292.226807 0.695633 
292.244934 0.015158 
292.263306 0.584723 
292.288971 0.008831 
293.080536 0.196067 
293.135712 0.030151 
293.172119 0.269295 
293.192963 0.009999 
293.210114 0.248378 
293.229065 0.014059 
294.074646 0.589654 
294.168793 0.020627 
294.205139 0.045209 
294.223724 0.011824 
294.240295 0.694186 
294.279083 0.156425 
295.060059 0.98353 
295.076904 0.027217 
295.151184 0.04713 
297.906952 0.018659 
302.818146 0.021586 
308.570984 0.010296 
312.838623 0.07353 
END IONS

