BEGIN IONS
PEPMASS=281.175
CHARGE=1+
COMPOUNDNAME=Massbank:FIO00534 Brefeldin-A
LIBRARYQUALITY=3
SMILES=C[C@@H](C2)OC(=O)C=C[C@@H](O)[C@]([H])(C1)[C@]([H])(C=CCC2)C[C@H](O)1
INCHIKEY=KQNZDYYTLMIZCT-XPABHHOTSA-N
INCHI=1S/C16H24O4/c1-11-5-3-2-4-6-12-9-13(17)10-14(12)15(18)7-8-16(19)20-11/h4,6-8,11-15,17-18H,2-3,5,9-10H2,1H3/b6-4+,8-7+/t11-,12+,13-,14+,15+/m0/s1
MSLEVEL=2
SOURCE_INSTRUMENT=ESI-LC-ESI-QTOF
FILENAME=Massbank_ESI_positive_8_1_2014_peaks.mgf
SEQ=*..*
IONMODE=Positive
ORGANISM=MASSBANK
NAME=Massbank:FIO00534 Brefeldin-A [M+H]+
PI=Putative Massbank Match
DATACOLLECTOR=Massbank
PUBMED=N/A
SUBMITUSER=mwang87
TAGS=
SPECTRUMID=CCMSLIB00000214424
SCANS=6787
79.0524 297.0 
81.0676 197.0 
91.0545 1448.0 
92.0553 172.0 
93.0695 561.0 
95.0851 627.0 
99.0083 365.0 
101.0237 503.0 
103.0555 623.0 
104.0612 171.0 
105.0704 2572.0 
106.075 259.0 
107.0867 607.0 
109.1028 253.0 
113.0603 420.0 
115.0546 1345.0 
116.0616 331.0 
117.0703 2414.0 
118.0751 400.0 
119.0863 1104.0 
121.1021 319.0 
128.0628 2736.0 
129.0702 1936.0 
130.0766 496.0 
131.0858 1576.0 
132.0902 224.0 
133.0652 399.0 
135.0452 141.0 
141.0707 637.0 
142.0783 893.0 
143.0858 1043.0 
144.091 220.0 
145.1017 560.0 
147.0817 199.0 
149.0599 145.0 
152.0629 159.0 
153.0703 131.0 
155.0611 712.0 
156.0927 101.0 
157.1016 488.0 
159.1167 184.0 
161.0962 104.0 
167.0859 116.0 
169.1015 233.0 
171.1168 205.0 
END IONS

