BEGIN IONS
PEPMASS=273.076
CHARGE=1+
COMPOUNDNAME=naringenin
LIBRARYQUALITY=3
SMILES=N/A
INCHIKEY=FTVWIRXFELQLPI-UHFFFAOYSA-N
INCHI=InChI=1S/C15H12O5/c16-9-3-1-8(2-4-9)13-7-12(19)15-11(18)5-10(17)6-14(15)20-13/h1-6,13,16-18H,7H2
MSLEVEL=2
SOURCE_INSTRUMENT=N/A-ESI-QFT
FILENAME=library_mgf.mgf
SEQ=*..*
IONMODE=positive
ORGANISM=MONA
NAME=naringenin [M+H]+
PI=MoNA
DATACOLLECTOR=MoNA:VF-NPL-QEHF013129
PUBMED=N/A
SUBMITUSER=mwang87
TAGS=
SPECTRUMID=CCMSLIB00004704192
SCANS=13129
50.053669 0.041323 
52.588207 0.036969 
52.66465 0.01328 
52.983982 0.032903 
53.445236 0.039892 
53.450466 0.039446 
53.954079 0.026278 
53.995522 0.039549 
54.475494 0.013531 
54.949821 0.041105 
55.686131 0.014504 
56.525238 0.025964 
56.641773 0.038757 
56.965565 5.541584 
56.976513 0.030009 
57.070713 0.103434 
57.570644 0.022248 
57.888847 0.030767 
58.065952 0.452701 
58.645187 0.02933 
58.945976 0.026407 
59.049942 0.04797 
59.237026 0.054454 
59.728645 0.025166 
59.86301 0.02967 
60.098557 0.035028 
60.113705 0.034567 
61.011421 62.341763 
61.345203 0.038951 
61.555408 0.030023 
61.773094 0.031688 
61.94899 0.027078 
62.010899 0.202035 
62.014793 0.750693 
62.019276 2.014764 
62.060902 0.029074 
62.27161 0.023244 
63.007236 2.851892 
63.027 0.030423 
63.575752 0.050024 
63.716885 0.025843 
67.155861 0.027883 
67.476196 0.01466 
67.680656 0.04302 
67.877907 0.024084 
68.048668 0.029595 
68.257217 0.022024 
68.909233 0.025225 
69.041092 0.023779 
69.215446 0.023044 
69.565887 0.032794 
69.995621 0.029067 
70.92392 0.025998 
70.958702 0.048846 
71.086098 0.068685 
72.868881 0.029392 
74.552345 0.049548 
74.976097 0.619622 
77.500557 0.029655 
77.654442 0.055868 
78.01403 0.325526 
78.619125 0.043636 
79.021866 5.958985 
79.574104 0.041337 
79.589333 0.013917 
80.907974 0.060228 
81.037308 0.014035 
81.075226 0.032405 
82.03907 0.045526 
82.612091 0.04479 
83.057053 0.048666 
83.057625 0.046535 
83.05854 0.036842 
83.102966 0.033991 
83.625137 0.05383 
85.101791 0.023755 
85.413681 0.015588 
85.734657 0.039167 
86.096771 0.024669 
86.520508 0.053747 
86.975952 0.313779 
87.04454 0.017939 
87.726273 0.047606 
87.949966 0.030565 
88.076294 0.237864 
89.060257 0.58232 
89.366356 0.03522 
89.500259 0.034227 
89.864403 0.036559 
90.948067 0.04195 
92.510231 0.015691 
92.512199 0.056204 
92.53614 0.028182 
94.981285 0.036573 
96.131302 0.045225 
98.975861 100.0 
99.979218 1.7347 
100.775162 0.023938 
100.971832 0.317144 
100.980019 0.141205 
101.950356 12.353641 
102.000305 0.02212 
102.555092 0.026638 
102.953278 0.147723 
102.968681 1.923197 
104.028366 0.024992 
104.93074 0.064041 
105.891556 0.020729 
106.086952 0.061644 
106.49736 0.032904 
107.000397 0.092886 
107.34034 0.027106 
107.381561 0.022705 
108.822525 0.028937 
108.999077 0.031507 
113.975449 0.022192 
114.948494 0.164031 
116.005585 0.850454 
116.454025 0.044201 
116.456764 0.033227 
116.968727 0.080008 
116.98629 45.647575 
117.003807 0.014346 
117.989555 0.747936 
118.89032 0.022615 
118.947731 10.588723 
118.981697 0.054957 
118.990814 0.061244 
119.001785 0.122809 
119.956238 0.090114 
119.960686 3.730573 
120.943527 0.051206 
120.979073 0.756665 
122.941154 2.634149 
123.939613 0.026522 
124.936623 0.719471 
125.010544 0.016041 
125.560875 0.047315 
126.933708 0.05973 
128.025436 0.036487 
129.044754 0.053409 
130.646912 0.033423 
131.001648 0.357929 
132.958527 0.612642 
133.08609 0.061176 
133.948685 0.106055 
134.321823 0.055836 
134.942383 5.01471 
134.978821 76.671654 
134.996567 9.582312 
135.518478 0.048962 
135.977341 0.100063 
135.982315 1.102458 
136.921326 0.158611 
136.938034 0.029478 
136.958023 9.951233 
136.97464 3.829675 
136.982971 0.021024 
137.001862 0.050169 
137.011871 2.027667 
137.883438 0.025117 
137.971039 0.578687 
138.013031 0.088493 
138.899216 0.042218 
138.935349 0.013695 
138.952621 0.417802 
138.97171 1.157789 
139.062851 0.044459 
140.002335 0.063202 
140.959198 0.251228 
144.040817 0.028081 
145.722458 0.043842 
146.006943 0.233494 
146.976532 1.209887 
147.599182 0.053701 
147.974838 0.197094 
148.761475 0.044594 
148.803482 0.014938 
148.971878 22.954226 
148.994659 0.082699 
149.012344 0.046617 
149.261185 0.045883 
149.965805 0.376273 
149.971863 0.111572 
150.680786 0.039183 
150.951111 2.149678 
150.967529 0.077782 
150.972717 3.422224 
151.943741 1.866303 
151.970169 8.958478 
151.998871 0.345589 
152.153992 0.022619 
152.519257 0.035612 
152.941498 0.05647 
152.952606 17.117893 
152.96788 1.953855 
152.989365 37.60323 
153.007095 0.345127 
153.177597 0.051238 
153.939041 0.657606 
153.959656 3.388559 
153.965988 0.303028 
153.993149 0.268819 
154.15921 0.049305 
154.696945 0.046624 
154.932205 0.597827 
154.947296 2.765713 
154.968628 3.210267 
154.978149 0.423711 
154.985092 2.069142 
154.992462 0.118569 
155.022141 0.394821 
155.891357 0.050438 
155.954819 1.071656 
156.364288 0.033888 
156.553177 0.043246 
156.94545 0.180134 
156.9646 0.05039 
156.975189 0.018637 
156.982254 0.422085 
157.927444 0.048844 
158.012512 0.051945 
158.484558 0.030978 
159.855621 0.050647 
161.956238 0.03919 
161.965866 0.11458 
162.04303 0.031896 
162.951096 1.15363 
162.966064 1.948198 
164.920502 0.0154 
164.951614 3.749128 
165.111328 0.015525 
165.819901 0.051871 
165.938263 1.146564 
165.950165 0.508146 
166.947067 1.076596 
166.967255 0.058019 
166.982529 3.619431 
167.005234 0.299399 
167.954102 0.093561 
167.976288 0.302854 
168.525391 0.028633 
168.961777 0.444755 
168.98288 6.71423 
169.980743 1.650601 
170.32637 0.02671 
170.774933 0.048925 
170.914444 1.868815 
170.95546 1.07731 
170.963486 23.251314 
170.977844 2.73872 
170.999985 2.613489 
171.915329 0.286093 
171.971375 1.473058 
172.914017 0.303073 
172.942886 0.922652 
172.95134 0.062208 
172.959015 1.244555 
172.988403 0.285545 
174.579559 0.039451 
174.956909 0.551937 
174.98613 0.01917 
176.450272 0.138029 
176.989395 43.227058 
177.067947 0.015105 
177.592056 0.036797 
177.938126 0.418277 
177.992905 1.561134 
178.907837 0.065299 
178.985306 2.001852 
178.993347 0.074501 
179.02153 0.09175 
179.954971 0.328751 
179.963852 7.505644 
180.45726 0.057844 
180.943939 0.266678 
180.961624 1.187507 
180.982361 0.776076 
182.943954 0.182298 
182.953125 0.122207 
182.96228 4.202862 
182.971024 0.049138 
182.985153 0.017445 
183.006546 0.057115 
183.942291 0.044756 
183.949249 0.212292 
183.962357 7.658215 
184.464203 0.070454 
184.940201 0.036306 
184.958633 1.951488 
184.979065 0.554837 
185.456192 0.439066 
185.964508 0.056907 
186.927902 0.309592 
188.495438 0.051486 
188.924728 5.079662 
188.965622 0.324841 
188.974106 9.017499 
189.461197 0.025028 
189.49707 0.026066 
189.92601 2.245128 
190.923874 0.376391 
190.953156 0.046433 
190.966171 3.245742 
191.923141 0.597053 
191.948853 0.277463 
191.964523 0.919979 
192.517532 0.016298 
192.96109 52.545933 
193.442032 0.050662 
193.469193 0.353264 
193.965042 3.872678 
193.98468 0.030777 
194.461655 0.081885 
194.962463 20.033747 
194.983078 0.020559 
195.000061 43.724216 
195.061859 0.056375 
195.94989 0.255224 
195.959778 12.903689 
196.003662 1.683278 
196.96019 10.965589 
196.978119 0.039619 
196.995743 2.062765 
197.005524 0.130274 
197.015244 8.695138 
197.329117 0.039813 
197.933975 0.081171 
197.957336 0.11905 
197.965454 0.462481 
197.974396 18.512041 
198.016098 1.219985 
198.955627 2.129803 
198.977585 0.473949 
198.993881 2.345956 
199.011856 1.64792 
199.94809 0.158415 
199.970108 0.31003 
199.979691 0.044577 
200.95459 1.626544 
200.974106 0.040771 
200.992142 0.01838 
201.00856 0.037697 
201.017563 0.281145 
201.952713 0.046121 
201.973312 4.780733 
202.474518 0.063251 
202.952667 0.105807 
202.971039 0.252749 
204.271622 0.029075 
204.962234 0.802019 
205.987656 0.103164 
206.977707 1.682529 
207.936768 0.053024 
208.977356 1.547263 
209.015564 0.303167 
209.933655 0.061346 
209.9646 0.57304 
209.97522 0.506237 
210.972366 27.697174 
211.97467 1.411694 
212.002182 0.376247 
212.933884 1.992428 
212.956436 13.770967 
212.972672 27.00495 
212.992477 15.857204 
213.010315 2.952118 
213.946869 0.350331 
213.970413 16.500713 
213.995926 0.394378 
214.254303 0.027514 
214.935715 5.632781 
214.952103 0.62401 
214.969986 15.82252 
214.989212 6.899741 
215.025574 2.021336 
215.931488 0.043999 
215.945358 0.273314 
215.967346 0.417363 
215.984467 3.464365 
216.026657 0.101711 
216.533997 0.028477 
216.930801 0.247587 
216.949112 0.118372 
216.966843 2.929878 
216.986771 1.383316 
217.00473 0.578979 
217.022202 0.5577 
217.032928 0.171754 
217.942413 0.058799 
218.965317 0.760003 
219.174408 0.949073 
219.708206 0.02562 
220.178452 0.027015 
224.987823 0.082052 
226.988068 0.147002 
227.201279 0.024733 
228.131363 0.030499 
230.966843 87.814636 
231.002594 0.977483 
231.969681 3.202889 
231.985397 0.036871 
232.507614 0.023831 
232.946243 36.536968 
232.962387 7.861855 
232.982147 0.316831 
233.000458 2.802255 
233.948624 0.285052 
233.965057 0.019561 
234.001358 0.13451 
234.941483 3.239649 
234.959869 1.751127 
234.978622 0.221758 
234.990173 0.015162 
234.997971 0.107792 
236.939209 0.479739 
236.951752 0.037137 
240.231827 0.025884 
241.278381 0.045479 
244.982559 0.545566 
246.961884 0.080296 
248.977509 28.877979 
249.979904 0.861296 
250.956863 16.010689 
250.972672 2.535469 
251.121841 0.03247 
251.959549 0.127507 
251.975433 0.106782 
252.952515 1.147111 
252.969543 0.194815 
254.949402 0.040711 
258.279175 0.03053 
259.115326 0.046975 
259.15155 0.02428 
261.130859 5.618211 
262.134186 0.411437 
262.993988 0.027579 
266.043884 0.040207 
270.975952 0.106259 
273.167297 0.964145 
276.061707 0.043194 
283.263519 0.164899 
283.30365 0.044016 
284.331238 1.359098 
285.334778 0.076449 
288.289185 0.290369 
290.971313 0.074415 
291.129333 0.06035 
293.691559 0.041969 
296.248871 0.051661 
298.241425 0.038395 
298.347168 0.022225 
END IONS

