BEGIN IONS
TITLE=Scan Number: 1
PEPMASS=276.164
CHARGE=1+
COMPOUNDNAME=Physostigmine
LIBRARYQUALITY=3
SMILES=CN1C2=CC=C(OC(NC)=O)C=C2C3(C)C1N(C)CC3
INCHIKEY=PIJVFDBKTWXHHD-UHFFFAOYSA-N
INCHI=InChI=1S/C15H21N3O2/c1-15-7-8-17(3)13(15)18(4)12-6-5-10(9-11(12)15)20-14(19)16-2/h5-6,9,13H,7-8H2,1-4H3,(H,16,19)
MSLEVEL=2
SOURCE_INSTRUMENT=DI-ESI-qTof
FILENAME=f.rsilva/q_tof_25_05/gnps_Physostigmine_pos_MplusH.mgf;
SEQ=*..*
NOTES=
IONMODE=Positive
ORGANISM=GNPS-LIBRARY
NAME=Physostigmine M+H
SPECTRUMID=CCMSLIB00000081265
ACTIVATION=CID
INSTRUMENT=ion trap
SCANS=1
147.060684 18510.0 
162.086853 1133563.0 
163.088913 84119.0 
176.100327 301301.0 
177.10466 19677.0 
188.102295 81625.0 
189.104797 6523.0 
219.107895 820175.0 
220.109207 65152.0 
233.124207 160615.0 
245.123215 52940.0 
276.164001 7480.0 
END IONS

