BEGIN IONS
PEPMASS=270.5
CHARGE=1+
COMPOUNDNAME=Massbank:KO002247 Apramycin sulfate|Apramycin
LIBRARYQUALITY=3
SMILES=OC[C@@H](O1)[C@@H](N)[C@H](O)[C@@H](O)[C@H]1O[C@H](O2)[C@@H](NC)[C@@H](O)[C@@H](O3)[C@@H](C[C@@H](N)[C@@H](O[C@H]([C@@H](N)4)[C@H](O)[C@@H](O)[C@H](N)C4)3)2
INCHIKEY=XZNUGFQTQHRASN-UXNWEDNLSA-N
INCHI=1S/C21H41N5O11/c1-26-11-14(30)18-8(33-20(11)37-21-16(32)13(29)10(25)9(4-27)34-21)3-7(24)19(36-18)35-17-6(23)2-5(22)12(28)15(17)31/h5-21,26-32H,2-4,22-25H2,1H3/t5-,6+,7-,8-,9-,10-,11+,12+,13+,14-,15-,16-,17-,18+,19+,20+,21-/m1/s1
MSLEVEL=2
SOURCE_INSTRUMENT=ESI-LC-ESI-QQ
FILENAME=Massbank_ESI_positive_8_1_2014_peaks.mgf
SEQ=*..*
IONMODE=Positive
ORGANISM=MASSBANK
NAME=Massbank:KO002247 Apramycin sulfate|Apramycin [M+2H]++
PI=Putative Massbank Match
DATACOLLECTOR=Massbank
PUBMED=N/A
SUBMITUSER=mwang87
TAGS=
SPECTRUMID=CCMSLIB00000216985
SCANS=8049
41.3 24752.5 
42.2 59406.0 
44.2 232673.5 
54.3 34653.5 
55.1 163366.5 
56.2 470297.5 
57.2 257426.0 
58.1 301980.5 
59.1 173267.5 
60.0 1475249.0 
61.0 64356.5 
64.9 59406.0 
66.8 207921.0 
67.9 1811883.0 
69.1 896040.5 
69.8 529703.5 
71.0 242574.5 
72.0 1381189.5 
73.0 212871.5 
74.0 450495.5 
76.9 49505.0 
78.0 34653.5 
80.2 623763.0 
81.0 633664.0 
82.2 990100.0 
82.9 470297.5 
84.1 1504952.0 
85.3 599010.5 
85.9 688119.5 
87.2 29703.0 
87.9 24752.5 
90.2 84158.5 
92.1 306931.0 
92.8 113861.5 
94.1 277228.0 
94.9 113861.5 
96.1 910892.0 
97.1 178218.0 
98.2 500000.5 
99.1 69307.0 
100.1 94059.5 
100.9 49505.0 
102.2 410891.5 
106.3 69307.0 
107.0 84158.5 
108.1 207921.0 
109.3 277228.0 
110.2 450495.5 
111.2 445545.0 
112.0 108911.0 
113.3 89109.0 
114.1 94059.5 
116.2 158416.0 
118.3 64356.5 
119.5 39604.0 
120.4 39604.0 
122.4 103960.5 
124.4 54455.5 
125.9 178218.0 
127.9 79208.0 
134.8 59406.0 
135.8 84158.5 
138.2 69307.0 
138.9 19802.0 
142.1 14851.5 
144.0 69307.0 
145.3 79208.0 
146.2 94059.5 
150.2 44554.5 
151.1 29703.0 
152.0 24752.5 
163.0 178218.0 
164.9 14851.5 
170.5 24752.5 
END IONS

