BEGIN IONS
PEPMASS=412.174
CHARGE=1+
COMPOUNDNAME=Roquefortine C
LIBRARYQUALITY=3
SMILES=N/A
INCHIKEY=SPWSUFUPTSJWNG-LIMLNZRCSA-N
INCHI=InChI=1S/C22H23N5O2/c1-4-21(2,3)22-10-17-18(28)25-16(9-13-11-23-12-24-13)19(29)27(17)20(22)26-15-8-6-5-7-14(15)22/h4-9,11-12,17,20,26H,1,10H2,2-3H3,(H,23,24)(H,25,28)/b16-9-/t17-,20-,22+/m0/s1
MSLEVEL=2
SOURCE_INSTRUMENT=N/A-ESI-QFT
FILENAME=library_mgf.mgf
SEQ=*..*
IONMODE=positive
ORGANISM=MONA
NAME=Roquefortine C [M+Na]+
PI=MoNA
DATACOLLECTOR=MoNA:VF-NPL-QEHF016407
PUBMED=N/A
SUBMITUSER=mwang87
TAGS=
SPECTRUMID=CCMSLIB00004707470
SCANS=16407
50.031097 0.031592 
50.377823 0.030574 
50.686207 0.052761 
50.829067 0.049872 
51.396358 0.102869 
51.461815 0.031731 
51.757046 0.053188 
51.940311 1.611294 
52.018681 0.038998 
52.062828 0.059573 
52.854145 0.027791 
52.94043 0.040048 
53.002541 0.654552 
53.038933 0.578852 
53.939255 0.035265 
53.997574 0.03397 
54.034172 1.948438 
54.042278 0.033786 
54.306122 0.053137 
54.323044 0.112273 
54.332306 0.027438 
54.337711 0.049934 
54.714066 0.031357 
54.937859 0.117033 
54.956078 0.097066 
55.018185 1.051807 
55.054581 4.2685 
55.382942 0.097323 
55.934723 2.03233 
55.969082 0.05388 
56.049843 0.614818 
56.057926 0.038809 
56.301018 0.119799 
56.364624 0.053137 
56.942516 0.245609 
56.96513 0.274337 
57.021229 0.421038 
57.033745 0.120266 
57.045135 0.039982 
57.070194 3.444889 
57.935085 0.707213 
58.02906 0.251105 
58.065456 0.862545 
58.27224 0.026593 
58.27457 0.059944 
59.049435 2.331209 
59.077824 0.063451 
59.674896 0.09351 
59.930443 0.031088 
59.966698 1.027772 
60.044678 0.881225 
60.08083 0.028358 
61.010906 12.505166 
62.014168 0.086489 
62.018707 1.802443 
62.603157 0.028228 
62.929279 8.83536 
63.006645 0.180173 
63.997955 0.225353 
64.099716 0.0985 
64.741318 0.034821 
64.874886 0.05487 
64.927437 14.579304 
65.038757 0.616882 
65.450768 0.057208 
65.614746 0.026845 
65.669968 0.050252 
65.741936 0.026217 
66.034065 0.026391 
67.029152 0.074597 
67.041748 0.119034 
67.054398 6.542118 
67.980286 0.031791 
68.013237 1.370578 
68.04541 0.058058 
68.049644 0.338561 
68.524445 0.06182 
68.942825 0.15707 
69.033646 1.165901 
69.044846 5.596814 
69.07 15.602479 
69.627808 0.058256 
69.757538 0.033437 
69.910454 0.029068 
69.961037 0.09917 
70.028831 0.192214 
70.065231 1.408665 
70.073357 0.36615 
70.099457 0.058588 
70.941742 0.0461 
70.957985 2.212316 
71.049232 0.445938 
71.085632 0.782926 
71.38063 0.028087 
71.914085 0.102397 
71.929367 0.338358 
72.04454 0.082077 
72.080872 6.316939 
72.937225 2.993732 
72.953239 0.03414 
73.064827 0.179613 
73.084198 0.079308 
73.463867 0.108498 
74.006424 0.030115 
74.059982 0.032973 
74.095917 0.030404 
74.37394 0.029888 
75.044205 0.572899 
75.471474 0.065803 
75.539864 0.049305 
76.887817 0.064947 
77.038826 0.035445 
77.95929 0.516313 
78.14505 0.026879 
78.683716 0.122153 
78.967133 0.545438 
79.021309 2.487758 
79.023674 0.028961 
79.029099 0.210651 
79.054291 2.211104 
79.088295 0.135529 
80.013084 0.110026 
80.049545 0.644041 
80.588753 0.028115 
81.01693 0.03752 
81.033615 0.320801 
81.0448 59.063107 
81.069939 2.624965 
81.072418 0.037898 
81.200882 0.029554 
82.028847 0.045375 
82.04184 0.271247 
82.048279 3.184583 
82.05069 0.392423 
82.05275 3.38523 
82.065178 0.205629 
82.449181 0.028007 
82.938049 0.07917 
83.012779 0.450698 
83.049187 0.788915 
83.060425 1.824756 
83.085571 0.23896 
83.088242 0.031347 
83.92701 0.061872 
84.044342 0.095122 
84.080811 0.38632 
85.028496 0.201362 
85.039734 6.598658 
85.064835 0.59705 
85.076172 0.070658 
85.101349 0.03992 
86.060234 0.273716 
86.096458 0.123168 
86.208832 0.097577 
86.682289 0.111269 
86.973122 0.036018 
87.044136 0.434234 
87.080704 0.03715 
87.981834 0.057436 
88.02964 0.051103 
88.356911 0.106624 
88.952469 0.166371 
88.968483 1.509078 
88.971573 0.045037 
89.059784 0.916822 
89.796486 0.030427 
89.940048 2.023915 
89.950859 0.040748 
90.82357 0.098709 
90.947792 3.839015 
90.967049 0.036171 
91.054306 4.908325 
91.938263 3.254182 
91.963966 0.030588 
92.049484 0.229452 
92.057648 0.137855 
92.982826 37.834679 
93.044815 2.555128 
93.057365 0.039675 
93.069977 1.661488 
93.955818 0.044526 
94.029007 0.091567 
94.039948 0.075679 
94.05262 16.657621 
94.065201 0.299611 
94.188339 0.051221 
95.023933 0.173035 
95.049202 3.375625 
95.060455 5.889323 
95.085594 1.086881 
95.463814 0.054208 
96.044411 0.191827 
96.055695 0.526746 
96.068268 1.959907 
97.028488 0.806646 
97.039742 4.146545 
97.064911 0.150276 
97.101234 0.041189 
97.185982 0.111548 
98.060081 0.106058 
99.044098 0.259217 
99.055389 2.167058 
99.080307 0.035562 
100.021561 0.060821 
100.039337 0.094577 
100.948509 0.083717 
101.059814 0.275411 
102.948204 0.222005 
103.054337 1.843789 
103.434357 0.03242 
104.049484 0.138058 
104.258026 0.052415 
104.656464 0.026295 
104.983109 0.028387 
105.03363 0.048456 
105.044868 1.862999 
105.070007 2.502651 
105.66375 0.035198 
106.040085 6.604635 
106.052574 1.249473 
106.056938 0.051551 
106.065186 0.537912 
106.963097 0.068512 
106.979149 0.0886 
107.023796 0.04401 
107.036606 0.033278 
107.043861 0.094052 
107.047928 5.017853 
107.06044 0.982078 
107.085625 0.56525 
107.950562 4.856851 
107.961502 0.047405 
108.031876 0.419407 
108.044678 0.079687 
108.055695 20.045513 
108.067986 0.073237 
108.080933 0.431859 
108.692139 0.107962 
108.954193 0.045725 
108.958252 1.623443 
109.028503 0.075705 
109.039749 2.069564 
109.059258 0.542005 
109.063522 10.101789 
109.076187 0.035773 
109.101028 0.073604 
109.948799 8.144289 
110.060043 0.143872 
110.067421 0.030804 
110.071381 1.20419 
111.044128 0.26647 
111.055328 4.489852 
111.080566 0.037004 
111.194252 0.03132 
111.332527 0.027712 
112.058594 0.055171 
112.075478 0.05835 
112.509338 0.064285 
113.016876 0.085806 
113.034637 4.963248 
114.161102 0.030729 
115.032547 0.284293 
115.05426 1.725946 
116.049515 0.259611 
116.963737 0.647207 
116.984589 0.100482 
117.057465 1.466438 
117.069946 0.742822 
118.040176 0.063318 
118.06517 1.502232 
118.943153 0.322578 
119.024185 0.143182 
119.048691 1.382484 
119.060493 0.960827 
119.085617 0.899902 
119.95092 0.132764 
120.044632 0.461649 
120.055756 13.705325 
120.080933 2.490359 
120.559372 0.030354 
120.940636 0.318783 
121.028374 0.081562 
121.039742 1.414207 
121.063599 7.274191 
121.076195 0.091835 
121.084038 0.199221 
121.101311 0.113658 
121.195694 0.046264 
122.035141 0.066097 
122.047508 0.462795 
122.060417 0.059798 
122.071335 10.493153 
122.096191 0.081557 
122.940926 0.048153 
122.974052 0.045224 
123.003922 0.058074 
123.044113 0.068464 
123.055298 0.434205 
123.079201 12.657237 
123.192444 0.11265 
123.318985 0.053036 
124.050529 0.511642 
124.07579 0.23463 
124.687965 0.028489 
125.016914 0.299029 
125.034599 1.326045 
125.059685 0.055195 
125.960899 0.15034 
126.042488 0.818329 
127.032555 0.582736 
127.050392 0.160697 
127.453545 0.054901 
128.0495 1.224789 
128.062134 0.401066 
128.803146 0.060193 
128.963669 0.602899 
129.069885 0.972221 
129.102142 0.107281 
130.065186 100.0 
130.979355 0.82437 
131.00032 0.136578 
131.060364 0.122812 
131.068298 1.959318 
131.073242 1.511922 
131.08548 0.34565 
131.858383 0.048937 
131.950562 0.036939 
131.987122 0.035909 
132.04454 0.441073 
132.055725 3.198839 
132.068115 0.03987 
132.080841 1.830167 
132.958405 0.374826 
133.039673 2.112018 
133.064178 0.928259 
133.076126 1.355372 
133.084 0.032811 
133.101166 0.245076 
133.523544 0.031587 
133.966125 0.778499 
134.034851 0.229551 
134.047531 0.7171 
134.059906 0.350476 
134.071381 1.729425 
134.956131 1.684979 
134.97403 0.394605 
134.996048 0.176545 
135.043808 0.141103 
135.055328 0.556858 
135.066605 0.541079 
135.079987 0.256528 
135.091629 0.129783 
135.964539 1.836664 
136.05069 3.278636 
136.075745 3.855095 
136.851776 0.058055 
136.953064 0.083564 
137.017471 0.075291 
137.023376 1.757719 
137.034592 0.189183 
137.058868 0.873327 
137.071304 0.078556 
137.08252 1.028336 
137.928009 0.16802 
138.030441 0.033855 
138.042557 0.302608 
138.951019 0.519799 
138.984116 0.182752 
139.050278 0.115315 
140.049545 0.874555 
140.143295 0.036275 
140.33783 0.113005 
140.974915 0.034097 
140.984482 0.103024 
141.069946 0.032873 
142.052826 0.152715 
142.065262 2.998086 
142.077896 0.142146 
142.97937 0.076952 
143.060471 1.772751 
143.067017 0.025979 
143.073242 4.27414 
143.085648 0.403827 
144.044571 0.331163 
144.068665 0.128133 
144.081024 7.126275 
144.958588 0.120098 
144.965149 0.03991 
144.9944 0.107354 
145.039536 0.180866 
145.052246 0.034145 
145.064728 0.528035 
145.076111 1.276768 
145.082993 0.036741 
145.089233 0.041067 
145.101303 0.162899 
146.034897 1.183173 
146.060028 3.277055 
146.071442 0.060181 
146.096558 0.284407 
146.974411 6.663616 
147.043991 0.144011 
147.055298 0.735481 
147.066757 0.591036 
147.080429 0.151621 
147.091064 0.048973 
147.974716 0.430465 
148.050583 3.724939 
148.074966 0.641538 
148.112335 0.076879 
148.971878 1.464674 
148.989822 0.604663 
149.011215 0.032239 
149.034653 0.886235 
149.058899 1.390775 
149.082214 2.231331 
149.09581 0.044297 
149.107208 0.037319 
149.972855 0.03071 
150.066223 3.641353 
150.090225 0.120216 
150.951218 2.774672 
150.968918 1.067368 
151.02063 0.257768 
151.038589 0.135528 
151.050247 0.208684 
151.074463 0.210969 
152.02774 0.85099 
152.045456 0.714437 
152.082336 0.032234 
152.796677 0.05019 
152.951736 0.52465 
152.966751 1.729509 
153.959335 2.343157 
154.037109 0.039291 
154.04332 0.383553 
154.054001 0.048794 
154.06514 5.1628 
154.967407 0.030188 
155.000214 0.038258 
155.060425 4.56889 
155.067566 0.055542 
155.073364 0.200126 
155.085327 0.034676 
156.044388 0.1624 
156.068283 0.80531 
156.080872 1.083802 
156.946381 0.042021 
156.994949 0.0761 
157.064987 0.037018 
157.076294 2.411851 
157.08812 0.033685 
157.101196 0.072125 
157.228165 0.030542 
158.06012 0.820473 
158.084274 0.338207 
158.096603 0.270276 
158.974091 0.139076 
159.032196 0.055961 
159.043808 0.036149 
159.055328 0.034284 
159.067398 0.352941 
159.080429 0.221212 
159.09169 1.078375 
160.039429 0.398431 
160.050568 2.844347 
160.075729 2.525742 
160.087036 0.230715 
160.112122 0.195644 
160.977142 8.444326 
160.989273 0.239558 
161.011475 0.030795 
161.046585 0.123719 
161.058746 1.106524 
161.070831 0.595907 
161.082306 1.063199 
161.132126 0.03759 
161.980972 0.81517 
162.029831 2.853661 
162.042465 0.382195 
162.054688 0.137209 
162.066391 0.199976 
162.074188 0.060054 
162.127487 0.037859 
162.4953 0.060966 
162.97525 17.272705 
162.992142 0.045583 
163.037491 0.039347 
163.050003 0.321534 
163.061432 10.767091 
163.075104 0.031319 
163.187927 0.063395 
163.97818 0.323953 
163.990265 0.090099 
164.027084 0.038514 
164.045624 1.910644 
164.069702 1.102821 
164.907608 0.040706 
164.967026 0.038081 
164.984146 0.035619 
165.000046 0.111496 
165.036316 0.109195 
165.045273 0.096669 
165.053818 0.363154 
165.069901 0.162361 
165.077133 5.429648 
165.971512 0.036397 
166.052719 0.246812 
166.061798 0.088576 
166.910416 0.205158 
166.982407 0.267332 
167.060547 2.182225 
167.072922 0.498098 
168.068481 3.77701 
168.080963 2.020685 
168.961639 1.546147 
168.969635 1.222143 
168.994141 0.039606 
169.039948 0.09586 
169.064133 0.044266 
169.076233 11.604579 
169.088593 0.250602 
169.977448 1.962998 
170.060165 3.066593 
170.071548 0.050593 
170.079254 0.517777 
170.096466 0.134287 
170.960953 0.136892 
170.967911 0.960556 
170.981094 0.032497 
171.055344 9.116935 
171.091812 3.058898 
171.975708 2.16213 
171.992981 0.141841 
172.058762 0.691032 
172.075562 0.416904 
172.086258 0.043137 
172.112381 0.046613 
172.97731 2.852877 
172.989777 0.104091 
173.017075 0.031399 
173.059769 0.039345 
173.070908 0.098899 
173.095703 0.048572 
173.107117 0.071973 
173.983322 0.03718 
174.02977 1.091331 
174.091599 0.146762 
174.128372 0.038556 
174.975433 2.990409 
174.990128 0.089079 
175.037796 1.22238 
175.061691 0.824695 
175.123047 0.237323 
176.045517 3.266107 
176.069931 0.269905 
176.106918 0.086378 
177.042221 0.876766 
177.053589 2.18771 
177.077164 12.76799 
177.663681 0.066986 
178.048431 0.103833 
178.061142 9.600591 
178.085129 0.995005 
178.964523 0.093283 
178.978958 0.109346 
179.060516 0.308332 
179.069138 0.18715 
179.080872 0.034804 
179.985886 0.200977 
180.055038 0.038852 
180.080948 0.72267 
180.888153 0.27127 
181.076172 1.571972 
181.088638 1.344375 
181.9879 0.049721 
182.047165 0.031962 
182.060135 0.293344 
182.071533 0.106388 
182.084351 0.19639 
182.096542 0.970497 
182.961578 0.950454 
183.010422 0.042877 
183.055405 3.994685 
183.069046 0.036604 
183.079315 2.426579 
183.091797 1.305358 
183.104263 0.221135 
183.982407 0.052064 
184.063141 0.929103 
184.075638 0.315751 
184.085861 0.04545 
184.111694 0.113848 
184.96022 0.113432 
184.98996 0.4493 
185.061356 0.083716 
185.071091 8.537679 
185.107422 0.130208 
185.750473 0.032946 
185.949249 1.227203 
186.055481 0.03651 
186.06604 0.210803 
186.074677 0.541913 
186.092102 0.071155 
186.980194 11.338017 
186.989227 0.195984 
187.050232 0.040498 
187.061417 0.036235 
187.086655 0.089721 
187.124237 0.031117 
187.988098 23.653154 
188.045532 0.799896 
188.070633 0.185835 
188.081848 0.040701 
188.106934 0.248138 
188.978302 13.189863 
188.992538 3.050422 
189.004532 0.038574 
189.05336 1.684534 
189.066986 0.037298 
189.077347 0.198915 
189.102371 0.042933 
189.986282 27.01881 
190.061234 0.346578 
190.990692 1.076748 
191.056381 5.504207 
191.880829 0.79823 
192.064285 15.444558 
192.073914 0.063179 
192.994812 0.206455 
193.039871 0.691879 
193.072083 24.13369 
194.047699 0.510177 
194.07132 0.860157 
194.096497 0.240003 
194.325363 0.113122 
194.339554 0.035907 
194.973312 0.112917 
195.055542 3.335338 
195.091843 0.292162 
195.104324 0.033036 
195.967621 0.037033 
196.063492 0.147389 
196.075439 0.190407 
196.087036 0.746881 
196.112167 0.437909 
196.903336 0.032829 
196.988541 0.167205 
197.071167 2.115662 
197.081619 0.079224 
197.096329 0.099145 
197.107681 0.036292 
197.89183 0.034968 
197.960876 0.034328 
197.9841 0.035213 
198.065964 0.200502 
198.075531 0.035598 
198.091644 0.054905 
198.127853 1.344748 
198.979477 0.043858 
199.050781 0.206036 
199.075531 0.0464 
199.086594 0.606522 
199.131149 0.097234 
199.982407 0.035858 
200.057877 0.191264 
200.082092 0.07778 
200.972046 1.687832 
201.065475 0.159993 
202.003616 0.033918 
202.970383 0.304612 
203.056427 0.571713 
203.142929 0.272178 
203.736786 0.141944 
203.881271 0.046837 
204.002274 0.039042 
204.065063 0.307217 
204.10257 0.035627 
205.072174 22.403156 
205.880798 0.099579 
206.07106 1.066778 
206.080292 6.165843 
206.868332 0.195566 
206.88916 0.102642 
206.977859 0.113874 
207.009521 0.036557 
207.078903 0.8985 
207.091141 0.125115 
207.875916 1.27515 
207.896484 0.110537 
207.9814 0.078717 
208.006012 0.041565 
208.017532 0.04406 
208.08699 1.139027 
208.111649 0.086638 
208.88382 1.743495 
208.959503 0.386531 
208.989212 0.213121 
209.049194 0.27102 
209.071106 0.520591 
209.082565 0.038619 
209.095108 0.045 
209.875443 0.107041 
209.89183 2.742218 
209.980789 0.125749 
209.994537 0.034247 
210.066315 0.823244 
210.091431 0.125562 
210.102737 0.668803 
210.899811 0.081089 
210.968979 0.033582 
210.988297 0.982469 
211.050568 0.117254 
211.074463 2.078564 
211.085312 0.07983 
211.89064 0.056033 
212.058212 0.637802 
212.081558 0.180511 
212.107147 0.338275 
212.119232 0.037564 
212.984161 0.30284 
213.039291 0.067281 
213.066055 2.99689 
213.077057 0.043586 
213.11142 0.047334 
214.046432 0.238701 
214.070541 0.088962 
214.085663 0.034493 
214.122986 0.736127 
214.982361 0.246712 
215.034714 0.031878 
215.081406 0.080719 
218.071365 0.143483 
218.081223 0.044859 
218.868225 0.152631 
219.079575 0.083486 
219.091339 0.087778 
219.174469 0.166117 
219.568192 0.118853 
219.583252 0.386735 
220.05069 0.037974 
220.087204 1.699605 
220.097961 0.076497 
220.903564 0.428795 
220.988785 0.080093 
221.070984 0.134861 
221.09259 0.133798 
221.107758 0.035704 
222.042496 0.906913 
222.066315 0.312453 
222.090561 0.042188 
222.102112 0.135614 
222.898743 0.504608 
223.003754 0.035214 
223.02887 0.073042 
223.049728 0.314507 
223.074493 0.07397 
223.08696 0.041315 
223.098175 0.034235 
223.278687 0.112171 
223.891632 0.50654 
223.975311 0.034549 
224.037048 0.033446 
224.058014 0.464687 
224.069901 0.16094 
224.082077 0.565673 
224.878525 1.133741 
224.897964 0.035491 
224.983078 0.034499 
225.064377 0.049416 
225.886566 3.586847 
225.975174 0.587467 
226.087357 0.039115 
226.098419 0.034005 
226.894653 0.660877 
227.081955 0.040782 
228.076996 3.144585 
228.102646 0.03577 
228.89093 0.032699 
228.922653 0.048058 
229.080521 0.684316 
230.082001 0.03831 
232.074234 0.180949 
232.086823 0.122503 
232.883728 0.16949 
232.95961 0.462317 
232.976746 0.150128 
233.082458 1.579091 
233.094208 0.06708 
233.891678 0.78599 
234.065781 0.072065 
234.089783 0.786799 
234.102325 0.340655 
234.89946 6.921146 
234.9758 0.358301 
234.992737 2.784804 
235.005157 0.047833 
235.097839 0.555593 
235.900406 0.40114 
235.996429 0.208231 
236.081848 0.415349 
236.899475 0.271878 
236.991226 1.144959 
237.043655 0.137562 
237.077026 0.246841 
238.061234 1.029943 
238.473831 0.060615 
238.91423 1.902649 
239.059891 0.171535 
240.077682 0.052303 
240.909363 1.466185 
240.979095 0.174864 
241.096634 0.038546 
241.969864 0.158726 
241.982559 0.037123 
242.97789 1.233404 
243.066345 0.037011 
244.514587 0.030929 
245.082153 1.177176 
246.065094 0.040744 
246.088547 0.081552 
247.097702 0.599075 
248.082138 0.105874 
248.878433 1.713656 
248.90007 0.080914 
248.98349 0.636693 
249.008316 0.033743 
249.113678 0.15462 
250.06105 0.254046 
250.096924 0.038025 
250.894226 2.179117 
250.970016 0.507391 
250.983551 0.048632 
251.006454 0.142655 
251.071533 0.034056 
251.894409 0.051586 
252.088455 0.366039 
252.910019 0.167502 
252.985703 0.343461 
253.902435 0.319233 
253.917221 0.360652 
254.056458 0.035185 
254.079514 0.032992 
255.087082 0.080999 
256.941284 0.03687 
260.06839 0.04038 
260.093353 1.052042 
261.077026 0.710185 
261.098419 0.083897 
261.113342 0.094778 
262.082733 0.046336 
263.092926 0.088747 
264.076935 0.042711 
265.001556 0.297245 
265.072815 0.040299 
266.056702 0.046193 
266.889282 1.815217 
267.890137 0.096542 
268.904816 0.10313 
268.993683 0.874362 
269.821198 0.039739 
269.991577 0.081309 
270.866669 0.039416 
270.994446 0.110115 
271.098541 0.154122 
272.925171 0.066431 
273.113586 0.04818 
274.079987 0.055233 
274.712036 0.096695 
274.989166 0.036151 
275.092957 0.077826 
275.901947 0.222158 
276.062653 0.064886 
276.876831 0.112241 
276.909576 0.140683 
276.986542 0.622292 
277.902435 0.053088 
277.98996 0.056606 
278.056854 0.089796 
278.818237 0.429796 
280.082977 0.094391 
281.152832 0.061982 
287.012207 0.043497 
287.831177 0.284423 
288.088104 0.873769 
291.124817 0.04018 
292.998138 5.522047 
294.001801 5.09716 
294.996399 17.878775 
295.821503 0.344948 
295.999268 1.494074 
296.808136 0.053092 
297.001923 0.127395 
297.816711 0.091878 
298.984955 0.768704 
299.9888 0.292224 
300.983185 2.392626 
301.813171 0.036658 
301.986725 0.05139 
308.808594 0.0433 
309.019958 0.451501 
309.817871 0.036578 
311.017609 0.103092 
312.839386 0.079198 
313.013977 0.049126 
314.021515 0.279561 
316.020172 0.036903 
320.828705 0.296138 
321.836823 0.620295 
322.015015 2.09105 
322.129456 0.087038 
323.018768 0.389637 
324.012787 0.846474 
325.016541 0.082132 
327.826904 0.043403 
329.10968 0.066228 
329.17392 0.119031 
339.848053 0.079079 
340.025757 0.036076 
340.120361 0.03522 
344.829651 0.086133 
346.827881 0.040105 
349.961914 0.036447 
350.010193 11.755147 
351.013855 2.830876 
352.008087 5.445784 
353.011749 0.542314 
363.84787 0.034601 
373.586609 0.101186 
380.421387 0.111504 
381.858093 0.335472 
383.914429 0.05921 
396.653595 0.031584 
423.70575 0.035641 
429.676849 0.027761 
435.477112 0.032598 
437.567627 0.032725 
439.359344 0.031671 
END IONS

