BEGIN IONS
PEPMASS=337.238
CHARGE=1+
COMPOUNDNAME=Aphidicolin
LIBRARYQUALITY=3
SMILES=N/A
INCHIKEY=NOFOAYPPHIUXJR-APNQCZIXSA-N
INCHI=InChI=1S/C20H34O4/c1-17(11-21)15-4-3-13-9-14-10-19(13,7-8-20(14,24)12-22)18(15,2)6-5-16(17)23/h13-16,21-24H,3-12H2,1-2H3/t13-,14+,15-,16+,17-,18-,19-,20-/m0/s1
MSLEVEL=2
SOURCE_INSTRUMENT=N/A-ESI-QFT
FILENAME=library_mgf.mgf
SEQ=*..*
IONMODE=negative
ORGANISM=MONA
NAME=Aphidicolin [M-H]-
PI=MoNA
DATACOLLECTOR=MoNA:VF-NPL-QEHF004569
PUBMED=N/A
SUBMITUSER=mwang87
TAGS=
SPECTRUMID=CCMSLIB00004695632
SCANS=4569
50.137825 0.055133 
50.22673 0.071637 
51.375118 0.039877 
51.685703 0.045539 
51.773369 0.048276 
52.064098 0.056626 
52.592754 0.08805 
52.863937 0.038046 
54.016651 0.070649 
54.163326 0.033914 
54.757141 0.062732 
54.815437 0.040584 
54.944359 0.069219 
55.228889 0.059438 
55.678181 0.062952 
55.869511 0.070728 
56.010841 0.04205 
56.35672 0.05783 
56.397831 0.062488 
57.03323 2.089706 
57.641647 0.060677 
57.739021 0.07114 
58.004692 1.757105 
58.51086 0.072353 
58.772003 0.068986 
58.994736 0.067622 
59.012489 5.169639 
59.523109 0.070083 
61.220875 0.059088 
61.445789 0.063513 
61.987011 2.684308 
62.535221 0.060524 
62.837646 0.065946 
63.097881 0.069077 
63.57148 0.060915 
63.891293 0.055442 
63.961086 1.558825 
64.701271 0.068131 
64.951111 0.050726 
65.265854 0.058076 
65.435043 0.061792 
66.190262 0.057063 
66.659599 0.037561 
68.359589 0.055427 
68.614929 0.055273 
69.033234 0.383733 
69.75119 0.059294 
69.804337 0.052657 
71.012497 1.681917 
71.048882 0.250359 
71.167076 0.04428 
72.896492 0.050921 
73.028191 0.284384 
73.328117 0.059383 
73.854065 0.068443 
76.763535 0.058349 
77.715118 0.038871 
78.403419 0.059522 
78.973366 0.043587 
78.984589 1.002431 
79.956032 12.92088 
80.96386 3.293313 
81.033218 0.204201 
82.292801 0.0532 
82.871208 0.046725 
83.048897 1.09919 
83.778748 0.071696 
84.046356 0.058599 
84.270164 0.064077 
84.890503 0.060726 
85.027962 0.170444 
86.424194 0.080975 
86.512779 0.060781 
88.039078 8.097717 
88.534904 0.05927 
88.801506 0.076243 
89.586685 0.044112 
93.033348 0.062102 
93.862473 0.056103 
94.979546 7.830388 
95.049042 0.154296 
95.950981 1.130199 
96.941437 0.182208 
96.958824 100.0 
96.976913 0.344375 
97.028488 0.071977 
97.064713 0.295904 
97.123955 0.038821 
97.223038 0.070621 
97.958221 0.582339 
98.023415 0.443026 
98.839088 0.077902 
98.954651 3.931312 
98.96299 0.130322 
99.043907 0.102243 
103.547241 0.072813 
104.739807 0.070365 
106.319351 0.065316 
106.759186 0.067558 
107.049049 0.047903 
108.217743 0.07772 
109.064583 0.322144 
110.248901 0.061461 
110.956879 0.099311 
110.974487 0.421012 
111.044159 0.050375 
112.495865 0.074542 
112.831444 0.049098 
113.681938 0.068359 
114.018524 1.43337 
116.321678 0.08173 
118.941063 0.096149 
119.049141 2.737631 
119.085526 2.072214 
119.659073 0.06264 
119.717278 0.081097 
121.064529 0.109729 
122.974762 0.170938 
123.044006 0.143976 
123.080658 0.098527 
125.096169 0.112859 
127.026382 7.226351 
127.075394 0.046141 
128.034378 0.606699 
128.453125 0.081979 
128.58255 0.052507 
129.334671 0.065869 
133.065018 0.121106 
134.544159 0.082013 
135.080505 0.158362 
137.09613 2.690883 
143.252274 0.074513 
144.400772 0.09279 
144.912933 0.076286 
145.163071 0.062056 
145.886765 0.051122 
147.08046 0.057623 
149.096069 0.48674 
149.883987 0.055653 
149.991257 0.079537 
150.363281 0.055473 
153.450638 0.066378 
155.056854 0.058523 
156.106247 0.056422 
157.16423 0.044317 
158.314911 0.045253 
158.608215 0.066552 
161.096924 0.04471 
163.111755 0.10853 
165.127548 0.048802 
167.411469 0.065482 
167.496033 0.047469 
169.357574 0.064211 
170.00354 2.368949 
172.008499 0.054007 
173.097 0.063488 
175.112854 0.077829 
178.123352 0.056564 
180.217453 0.037572 
182.965652 0.085642 
183.011337 80.985329 
184.001007 0.08231 
184.019348 4.965048 
186.440262 0.049391 
193.123123 0.135634 
197.027206 26.067585 
198.035156 3.856694 
204.017532 0.086448 
205.123291 0.242765 
209.028564 0.097879 
209.117889 1.696401 
211.043152 1.070352 
211.18927 0.043091 
212.934204 0.070574 
217.07164 0.039672 
220.04158 0.494394 
223.304794 0.059452 
223.78891 0.047256 
225.058685 1.161549 
225.563232 0.042583 
226.231659 0.083363 
227.611176 0.089373 
229.788483 0.061597 
230.025375 0.353673 
233.119308 0.05612 
234.856796 0.087294 
239.074631 1.468193 
240.885162 0.04649 
241.083786 0.069122 
253.090759 0.266689 
254.855789 0.160749 
255.232208 0.098151 
255.905884 0.061492 
256.873871 0.048638 
257.191223 2.526678 
258.195953 0.072253 
259.854767 0.047855 
260.209839 0.062337 
262.725372 0.060153 
267.105957 0.08056 
269.191101 0.141534 
273.186676 0.046755 
279.856659 0.106058 
287.201874 0.964334 
290.154541 0.047517 
301.992401 0.061271 
304.994873 0.068938 
305.212738 0.254228 
308.85849 0.070443 
315.196045 0.060997 
317.212128 1.235953 
320.841675 0.244096 
323.120422 0.079824 
333.376678 0.056783 
335.223236 1.612271 
336.226074 0.818204 
337.184235 0.441497 
337.587616 0.080845 
339.199921 6.923498 
340.029938 0.075763 
345.619751 0.047346 
346.667175 0.081013 
351.75119 0.063168 
360.95929 0.074807 
END IONS

