BEGIN IONS
TITLE=Scan Number: 1488
PEPMASS=403.21399
CHARGE=1+
COMPOUNDNAME=_130029
LIBRARYQUALITY=2
SMILES=O=C1C=C(OC)C(C)=C(/C=C/C=C/C=C/C(C)=C\[C@]2(C)O[C@H](C)[C@@](O)(C)[C@H]2O)O1
INCHIKEY=JLSVDPQAIKFBTO-JMZHKIFESA-N
INCHI=N/A
MSLEVEL=2
SOURCE_INSTRUMENT=LC-ESI-qToF
FILENAME=P2_C9_conc_GE9_01_2428.mzXML
SEQ=*..*
NOTES=
IONMODE=Positive
ORGANISM=GNPS-LIBRARY
NAME=_130029 M+H
SPECTRUMID=CCMSLIB00000478462
ACTIVATION=CID
INSTRUMENT=ion trap
SCANS=1488
91.057396 2024.0 
92.060875 256.0 
94.721947 264.0 
95.014076 400.0 
95.088409 1756.0 
96.059959 384.0 
96.092598 444.0 
97.02964 472.0 
97.067841 1740.0 
98.070129 268.0 
99.079918 664.0 
101.059547 252.0 
103.056801 904.0 
104.062134 552.0 
105.035637 1428.0 
105.071922 4444.0 
106.078537 684.0 
107.051758 1148.0 
107.087547 4892.0 
108.059593 720.0 
108.091309 628.0 
109.029854 988.0 
109.066895 8136.0 
109.103363 968.0 
110.037193 412.0 
110.070908 416.0 
111.047607 1748.0 
111.081429 780.0 
112.051231 272.0 
112.08905 492.0 
113.064545 900.0 
115.055725 3540.0 
116.063721 1132.0 
117.070938 5128.0 
118.080063 1128.0 
119.05085 2604.0 
119.086967 6004.0 
120.055565 648.0 
120.09288 404.0 
121.029152 340.0 
121.067062 1204.0 
121.104095 516.0 
122.072487 632.0 
122.105743 488.0 
123.046936 908.0 
123.082458 4408.0 
124.085609 256.0 
125.061188 2856.0 
125.0961 464.0 
126.03717 252.0 
126.066833 336.0 
127.043182 524.0 
127.082214 380.0 
128.064285 8916.0 
129.071716 7964.0 
130.077667 1020.0 
131.050522 1872.0 
131.087494 7924.0 
132.056503 560.0 
132.092453 1128.0 
133.066498 3612.0 
133.10289 3876.0 
134.072281 636.0 
134.106995 932.0 
135.045609 1332.0 
135.081985 4908.0 
136.052383 316.0 
136.08667 980.0 
137.061295 1264.0 
137.097458 6232.0 
138.068481 856.0 
138.09993 512.0 
138.217957 264.0 
139.041199 64020.0 
139.076584 2860.0 
140.044464 3876.0 
141.067688 1836.0 
142.0793 3208.0 
143.049255 620.0 
143.087402 19948.0 
144.058029 872.0 
144.091934 3680.0 
145.066467 4600.0 
145.099106 2208.0 
146.072372 2024.0 
146.106293 424.0 
147.045975 1160.0 
147.081146 3628.0 
147.118225 1200.0 
148.054504 632.0 
148.086594 1092.0 
149.062271 876.0 
149.098053 2316.0 
150.072708 648.0 
151.076385 12668.0 
152.081375 1884.0 
153.062958 644.0 
154.065414 1692.0 
155.070648 3456.0 
156.063644 1084.0 
156.093887 1124.0 
157.067413 1540.0 
157.102798 5788.0 
158.071854 1292.0 
158.107437 1228.0 
159.045303 1172.0 
159.081879 3292.0 
159.118088 740.0 
160.087936 1476.0 
161.061844 3460.0 
161.097397 8052.0 
162.066437 412.0 
162.101395 1084.0 
163.03801 676.0 
163.07637 3588.0 
163.111771 532.0 
164.081604 684.0 
165.057251 4528.0 
165.091446 5520.0 
166.077972 1448.0 
167.071671 18752.0 
168.075485 2768.0 
169.061249 324.0 
169.10257 2120.0 
170.07135 800.0 
170.110825 1096.0 
171.082062 828.0 
171.117111 1324.0 
172.086578 488.0 
172.12381 332.0 
173.060028 1116.0 
173.096878 3280.0 
174.068954 4092.0 
174.09967 568.0 
175.037018 256.0 
175.07576 4720.0 
175.113464 2408.0 
176.046906 940.0 
176.084961 1008.0 
177.055328 2856.0 
177.092438 4440.0 
177.127991 292.0 
178.065308 1768.0 
178.097198 908.0 
178.943024 252.0 
179.072708 8836.0 
180.092026 2704.0 
181.064362 348.0 
181.098785 5024.0 
182.076141 484.0 
182.110138 968.0 
183.080917 1924.0 
183.119202 1284.0 
184.091125 336.0 
184.126526 544.0 
185.059753 752.0 
185.096268 6904.0 
186.102142 1080.0 
186.13237 348.0 
187.076233 1128.0 
187.112762 1552.0 
188.082932 656.0 
188.122437 524.0 
189.059509 568.0 
189.091263 1448.0 
189.123184 468.0 
190.0625 420.0 
190.094452 948.0 
191.072342 11656.0 
192.078308 1320.0 
193.087494 16932.0 
194.108627 3472.0 
195.084824 892.0 
195.116821 4588.0 
196.089584 1460.0 
196.12352 1676.0 
197.095337 1596.0 
197.131058 868.0 
198.067215 372.0 
198.104111 996.0 
199.074722 888.0 
199.113831 1252.0 
200.077438 368.0 
200.120682 480.0 
201.089355 1292.0 
201.129807 704.0 
202.092926 336.0 
203.075333 1212.0 
203.106628 2856.0 
204.093292 1792.0 
205.087387 10480.0 
206.098572 3160.0 
207.115738 3000.0 
208.089432 712.0 
208.123535 1292.0 
209.087128 2136.0 
209.13324 3796.0 
210.104874 1368.0 
210.136734 1224.0 
211.080933 780.0 
211.113068 3212.0 
211.14975 492.0 
212.079941 1048.0 
212.120544 964.0 
212.151978 268.0 
213.091309 832.0 
213.127808 1044.0 
214.100754 496.0 
214.135864 584.0 
215.106674 720.0 
215.142014 344.0 
217.087234 5548.0 
217.123474 468.0 
218.09288 1136.0 
219.071106 356.0 
219.105515 3980.0 
220.082764 372.0 
220.124817 1452.0 
221.081451 9840.0 
221.132828 3224.0 
222.103714 2740.0 
222.141205 316.0 
223.112823 5456.0 
224.08429 528.0 
224.116165 1648.0 
225.091873 996.0 
225.128723 2124.0 
226.067307 304.0 
226.101776 1048.0 
226.134949 2364.0 
227.070801 356.0 
227.108078 984.0 
227.143326 688.0 
228.08078 368.0 
228.112976 816.0 
228.149338 384.0 
229.085587 592.0 
229.123871 920.0 
229.154938 404.0 
230.098694 780.0 
230.124649 684.0 
231.10437 1988.0 
232.091095 760.0 
233.112701 656.0 
234.103745 484.0 
235.106674 832.0 
236.078156 612.0 
236.120026 2768.0 
237.127441 4156.0 
237.165039 380.0 
238.040268 264.0 
238.134995 2740.0 
239.108353 2096.0 
239.143234 1684.0 
240.07782 520.0 
240.113297 1772.0 
240.149292 628.0 
241.087006 992.0 
241.121948 484.0 
241.160278 1024.0 
242.097702 600.0 
242.129776 412.0 
242.162552 804.0 
243.101166 1388.0 
243.137543 732.0 
243.181305 388.0 
244.106812 764.0 
245.065826 256.0 
245.119202 1752.0 
246.113144 644.0 
247.110733 2264.0 
248.120117 1172.0 
249.091141 1652.0 
250.10144 848.0 
251.107452 440.0 
251.141006 2516.0 
252.116089 808.0 
252.147552 804.0 
253.083298 336.0 
253.120926 1472.0 
253.157135 2224.0 
254.130066 1060.0 
254.162811 508.0 
255.100067 2268.0 
255.137833 956.0 
256.109528 420.0 
257.117218 3224.0 
257.154602 608.0 
258.124969 588.0 
259.133484 10028.0 
260.137329 2056.0 
261.126251 732.0 
261.14621 716.0 
263.10498 320.0 
263.144775 372.0 
264.111877 1592.0 
265.084442 420.0 
265.122559 4272.0 
265.166687 284.0 
266.123322 1244.0 
267.104034 996.0 
267.137787 992.0 
268.107147 360.0 
269.114258 444.0 
269.153839 2428.0 
270.121704 472.0 
270.160645 728.0 
271.136353 1744.0 
272.13443 492.0 
273.110229 744.0 
273.152069 960.0 
276.130463 356.0 
279.138153 1908.0 
280.137512 640.0 
280.176941 276.0 
281.11731 596.0 
282.125122 1044.0 
283.135864 1004.0 
284.135864 392.0 
285.14917 28420.0 
286.152161 6088.0 
287.164246 4900.0 
288.167938 1116.0 
295.130554 620.0 
297.097992 284.0 
297.149902 57928.0 
297.260345 296.0 
298.153046 10136.0 
299.156189 1892.0 
300.124634 356.0 
300.162598 424.0 
301.146606 448.0 
302.149902 352.0 
311.124207 400.0 
313.142242 1920.0 
314.149017 1048.0 
315.086029 280.0 
315.160767 87696.0 
316.163727 13732.0 
317.166107 2752.0 
317.274933 308.0 
317.747131 328.0 
318.125305 364.0 
323.162994 1008.0 
325.179291 1888.0 
326.184418 580.0 
340.168884 460.0 
341.174805 4076.0 
342.175873 692.0 
343.188477 516.0 
344.190887 308.0 
349.179199 644.0 
359.206635 604.0 
360.190765 288.0 
367.190491 1548.0 
383.135468 392.0 
385.205719 816.0 
386.210297 268.0 
401.99707 284.0 
402.189423 280.0 
402.464752 328.0 
403.02594 380.0 
403.083099 368.0 
403.214294 219344.0 
403.474884 260.0 
403.547668 256.0 
403.590363 364.0 
403.720245 312.0 
403.871582 1812.0 
403.920776 428.0 
404.215637 62840.0 
404.482605 340.0 
404.883209 336.0 
405.117096 340.0 
405.21875 8372.0 
406.033844 372.0 
406.220276 1024.0 
406.404572 368.0 
406.788483 284.0 
407.828583 296.0 
1278.841797 412.0 
END IONS

