BEGIN IONS
PEPMASS=245.096
CHARGE=1+
COMPOUNDNAME=Massbank:FIO00020 Biotin
LIBRARYQUALITY=3
SMILES=OC(=O)CCCC[C@H](S1)[C@@]([H])(N2)[C@@]([H])(NC(=O)2)C1
INCHIKEY=YBJHBAHKTGYVGT-ZKWXMUAHSA-N
INCHI=1S/C10H16N2O3S/c13-8(14)4-2-1-3-7-9-6(5-16-7)11-10(15)12-9/h6-7,9H,1-5H2,(H,13,14)(H2,11,12,15)/t6-,7-,9-/m0/s1
MSLEVEL=2
SOURCE_INSTRUMENT=ESI-LC-ESI-QTOF
FILENAME=Massbank_ESI_positive_8_1_2014_peaks.mgf
SEQ=*..*
IONMODE=Positive
ORGANISM=MASSBANK
NAME=Massbank:FIO00020 Biotin [M+H]+
PI=Putative Massbank Match
DATACOLLECTOR=Massbank
PUBMED=N/A
SUBMITUSER=mwang87
TAGS=
SPECTRUMID=CCMSLIB00000213626
SCANS=6392
91.0544 576.0 
93.0703 258.0 
94.0652 272.0 
97.0397 2621.0 
99.0267 307.0 
100.0216 358.0 
103.0543 363.0 
105.0701 2497.0 
106.0667 370.0 
108.0809 461.0 
111.0265 1057.0 
112.0218 573.0 
113.0424 305.0 
115.0548 252.0 
118.0653 250.0 
120.0807 307.0 
122.0965 261.0 
123.0264 3197.0 
124.03 246.0 
125.0295 532.0 
132.0808 341.0 
133.0888 338.0 
134.0188 255.0 
138.0008 583.0 
139.0576 618.0 
151.0867 255.0 
END IONS

