BEGIN IONS
PEPMASS=266.09
CHARGE=1+
COMPOUNDNAME=Adenosine
LIBRARYQUALITY=3
SMILES=N/A
INCHIKEY=OIRDTQYFTABQOQ-KQYNXXCUSA-N
INCHI=InChI=1S/C10H13N5O4/c11-8-5-9(13-2-12-8)15(3-14-5)10-7(18)6(17)4(1-16)19-10/h2-4,6-7,10,16-18H,1H2,(H2,11,12,13)/t4-,6-,7-,10-/m1/s1
MSLEVEL=2
SOURCE_INSTRUMENT=N/A-ESI-QFT
FILENAME=library_mgf.mgf
SEQ=*..*
IONMODE=negative
ORGANISM=MONA
NAME=Adenosine [M-H]-
PI=MoNA
DATACOLLECTOR=MoNA:VF-NPL-QEHF000389
PUBMED=N/A
SUBMITUSER=mwang87
TAGS=
SPECTRUMID=CCMSLIB00004691452
SCANS=389
51.673294 0.016374 
51.972603 0.012293 
52.783043 0.014576 
53.137859 0.009903 
54.631809 0.012548 
56.128021 0.016945 
56.382572 0.009119 
56.456951 0.013702 
57.033226 0.02632 
57.523712 0.024612 
57.525082 0.097382 
57.944485 0.015717 
58.893612 0.013894 
59.012497 1.690449 
59.204807 0.014286 
60.114368 0.013654 
61.250759 0.012318 
61.307171 0.010117 
61.987015 0.619612 
62.345695 0.01414 
64.150818 0.011802 
65.21122 0.015538 
66.531235 0.014319 
67.013794 0.018539 
67.241585 0.014018 
67.66169 0.013963 
68.315628 0.013701 
68.52433 0.012189 
69.211128 0.013219 
70.362587 0.016114 
70.825279 0.011855 
71.339684 0.013444 
71.751732 0.014586 
72.200096 0.023849 
73.824623 0.0171 
74.989426 0.020364 
77.765335 0.011517 
78.984596 0.14295 
79.9561 0.320454 
80.264511 0.015859 
80.377235 0.015127 
80.66909 0.01838 
80.96386 0.485134 
81.962837 0.01797 
83.568565 0.012099 
84.034904 0.014606 
85.205505 0.015939 
85.992905 0.014911 
86.440399 0.018865 
87.017876 0.013339 
89.023041 0.153437 
89.884804 0.016244 
91.718124 0.012623 
92.024117 0.55507 
93.03318 0.033153 
93.752571 0.010183 
94.979668 0.016731 
95.464828 0.009286 
95.797234 0.014525 
95.825401 0.016123 
96.4561 0.012708 
96.807388 0.013641 
96.958824 4.616249 
97.585327 0.009162 
97.588913 0.011771 
98.954605 0.077032 
99.924538 0.099572 
100.198166 0.0151 
100.767532 0.0136 
100.932526 0.0206 
103.092155 0.014596 
103.319763 0.015356 
104.682037 0.016429 
105.484993 0.016266 
107.035049 2.05024 
107.989952 0.016238 
108.941551 0.015003 
109.019714 0.011685 
109.400276 0.016217 
109.86467 0.020908 
111.28244 0.014335 
112.450165 0.015272 
114.699997 0.016375 
115.919518 0.352875 
116.927368 0.576952 
117.842644 0.01555 
118.318237 0.016703 
118.47094 0.016454 
119.048996 0.102625 
119.939156 0.015201 
120.062042 0.014962 
120.859093 0.014147 
121.028183 0.013071 
122.478775 0.011118 
122.962936 0.01125 
124.669342 0.014647 
127.274796 0.015306 
129.397476 0.014097 
130.942657 0.040595 
132.37738 0.015593 
134.016312 0.063816 
134.046097 100.0 
134.058197 0.052747 
135.030121 1.123317 
135.043182 2.002822 
135.049454 5.632297 
136.047104 0.021718 
136.052322 0.013252 
137.523148 0.017563 
138.131821 0.016338 
140.507904 0.020543 
145.916245 0.01413 
146.101746 0.0161 
147.463257 0.012477 
148.061905 0.040851 
149.008774 0.014491 
150.556732 0.016391 
153.855423 0.015877 
154.25061 0.014104 
157.816177 0.019747 
161.369064 0.015491 
161.588013 0.01552 
162.891724 0.012419 
164.127899 0.016192 
165.488754 0.014493 
168.537308 0.015781 
170.452255 0.012871 
170.595398 0.019453 
170.833084 0.017656 
171.102158 0.032379 
178.050323 0.017328 
180.079315 0.014798 
181.15918 0.287827 
184.000977 0.101489 
194.927399 0.012782 
199.169861 0.020478 
205.159348 0.315996 
217.032211 0.072525 
217.042892 0.171629 
217.054718 0.228653 
218.492157 0.015919 
225.025345 0.145439 
225.149323 0.111654 
226.025208 0.11422 
226.87149 0.014027 
238.475433 0.014282 
242.433014 0.01442 
249.15004 0.106462 
249.941895 0.018172 
250.144531 0.01396 
254.971527 0.020041 
255.232956 2.982408 
255.763412 0.011494 
256.236359 0.467991 
263.347107 0.016456 
265.148041 1.327763 
266.090149 0.089288 
266.152802 0.034599 
268.12793 0.012667 
269.248505 0.080245 
273.924561 0.013634 
274.799103 0.016502 
279.163025 0.023309 
279.232635 0.074836 
281.248718 1.404574 
282.251923 0.17094 
283.264465 8.536688 
284.267883 1.738244 
285.044647 0.035638 
285.270691 0.074604 
288.458008 0.015592 
292.046448 0.011473 
310.144562 0.01538 
END IONS

