BEGIN IONS
PEPMASS=288.121
CHARGE=1+
COMPOUNDNAME=ANISOMYCIN
LIBRARYQUALITY=3
SMILES=N/A
INCHIKEY=YKJYKKNCCRKFSL-BFHYXJOUSA-N
INCHI=InChI=1S/C14H19NO4/c1-9(16)19-14-12(15-8-13(14)17)7-10-3-5-11(18-2)6-4-10/h3-6,12-15,17H,7-8H2,1-2H3/t12-,13+,14+/m0/s1
MSLEVEL=2
SOURCE_INSTRUMENT=N/A-ESI-QFT
FILENAME=library_mgf.mgf
SEQ=*..*
IONMODE=positive
ORGANISM=MONA
NAME=ANISOMYCIN [M+Na]+
PI=MoNA
DATACOLLECTOR=MoNA:VF-NPL-QEHF027595
PUBMED=N/A
SUBMITUSER=mwang87
TAGS=
SPECTRUMID=CCMSLIB00004721176
SCANS=27595
50.472294 0.020898 
50.727966 0.011147 
50.771088 0.017046 
51.154198 0.020151 
51.242344 0.01179 
51.633972 0.005299 
51.817383 0.017064 
53.383884 0.016401 
53.561428 0.012041 
53.600674 0.019246 
54.302738 0.013096 
56.409286 0.005827 
56.466129 0.005369 
57.07019 4.827912 
57.474014 0.005891 
57.513824 0.005231 
58.065411 2.608391 
58.073547 0.121209 
59.068752 0.032123 
59.259388 0.017012 
59.418423 0.019099 
59.499847 0.012145 
59.532928 0.00496 
59.681618 0.005165 
59.935261 0.017746 
60.044739 0.007313 
61.010864 0.018801 
61.377834 0.022925 
61.783569 0.023266 
61.933777 0.020231 
62.018646 0.013824 
62.06028 0.454016 
62.59367 0.006867 
62.708618 0.014314 
62.98193 0.064764 
64.062569 0.020904 
64.174896 0.019196 
65.259148 0.006188 
66.97995 0.019187 
67.054527 0.008231 
67.089165 0.013658 
67.136719 0.019735 
67.794189 0.01912 
69.07003 0.058653 
69.510506 0.014244 
70.065239 2.535873 
71.068604 0.030477 
71.085625 4.030816 
71.087814 0.031446 
72.050545 0.019432 
72.088943 0.069504 
72.331871 0.005193 
74.942284 0.013053 
76.594101 0.018314 
78.934471 0.022871 
78.955856 0.004629 
79.233536 0.017551 
80.057159 0.030217 
80.218796 0.005757 
80.501541 0.005139 
80.584663 0.012677 
81.070168 0.00628 
82.466446 0.005929 
82.722458 0.006237 
83.085587 0.006636 
84.789131 0.005896 
85.039619 0.105444 
85.065102 0.005972 
85.10125 2.4333 
86.060127 0.035372 
86.096825 0.00616 
86.10453 0.066158 
86.58709 0.022107 
88.075768 9.968635 
88.791298 0.011945 
89.079109 0.294897 
90.354828 0.00553 
90.358093 0.006102 
93.070061 0.005105 
94.064941 0.006395 
94.458694 0.005475 
95.01635 0.005868 
95.024384 0.016906 
96.134689 0.006876 
96.257278 0.018062 
96.885506 0.012577 
98.251541 0.00588 
98.975433 0.386086 
99.121216 0.025629 
99.553123 0.005966 
100.07579 0.033062 
100.669052 0.0069 
101.827797 0.013874 
102.0914 1.071519 
102.395622 0.011772 
104.070679 0.059784 
104.328552 0.01451 
104.99231 0.025309 
106.086327 23.974468 
107.08963 0.886163 
107.093521 0.006084 
108.942924 0.018847 
109.969017 0.013426 
115.134834 0.024559 
116.07048 0.005336 
116.985931 0.267636 
118.087181 0.006378 
121.064919 0.838012 
124.112274 0.023984 
127.291718 0.006673 
128.002625 0.020159 
128.851669 0.005813 
134.978683 0.013937 
134.996613 0.069083 
138.204117 0.022226 
140.449677 0.023579 
141.849808 0.013564 
145.62561 0.020691 
147.683197 0.01833 
149.153091 0.012071 
150.18338 0.005821 
150.968597 0.021458 
152.946732 0.181616 
159.93811 0.005784 
160.075745 0.012585 
161.843018 0.00585 
163.504211 0.016416 
166.53978 0.006127 
170.902542 0.015685 
170.957504 0.175121 
174.585526 0.019917 
176.989334 0.550687 
177.879288 0.020552 
181.526871 0.023519 
181.986526 0.027308 
182.10553 0.017834 
184.169708 0.372673 
188.493179 0.015554 
191.184158 0.025823 
194.999908 0.770521 
195.820847 0.00702 
197.015137 0.013553 
199.133026 0.258528 
203.107895 0.013993 
206.117691 0.386815 
206.190567 0.006565 
209.096146 0.030395 
209.964447 0.006897 
211.960312 0.153893 
213.091095 1.116039 
213.101944 0.02198 
214.094406 0.049489 
215.126205 0.043384 
215.464737 0.139921 
215.473877 0.061964 
215.480576 0.111155 
217.105011 0.066369 
220.903763 0.033884 
222.898804 0.723982 
225.012878 0.005939 
225.091003 0.208403 
226.216904 0.143255 
226.253372 0.04793 
227.900833 0.071189 
228.099014 0.041839 
229.074829 0.025061 
229.896103 0.73515 
229.970627 0.131406 
230.212631 0.006055 
231.101562 0.663124 
231.215179 0.022942 
238.508209 0.00702 
238.913895 0.022451 
240.909241 0.901271 
241.067917 0.014281 
241.235733 0.211685 
241.910034 0.008303 
243.852966 0.021461 
244.263458 0.362168 
245.266571 0.007315 
245.91188 0.054269 
246.898682 0.047726 
247.906754 0.442943 
252.196411 0.006272 
255.120605 0.117125 
257.13678 3.855331 
258.140228 0.075941 
262.91394 0.055041 
264.909241 1.186266 
265.910767 0.021129 
266.27063 0.018128 
268.263458 0.020811 
268.300537 0.150826 
269.304199 0.009596 
270.112061 0.029758 
270.148834 0.178134 
270.279236 4.639848 
271.282471 0.788036 
272.201447 0.007474 
277.902344 0.006872 
279.897095 0.036098 
280.925446 0.030117 
281.352905 0.021428 
282.919708 0.775109 
283.921936 0.006791 
286.032928 0.02769 
286.144135 0.01532 
286.217865 0.007404 
286.253784 0.066082 
286.273773 0.063034 
286.310638 2.190821 
286.337891 0.247611 
287.109314 0.011629 
287.146423 0.955181 
287.183105 0.773517 
287.212402 0.007706 
287.314087 0.630024 
288.120667 21.231749 
288.154022 2.649052 
288.240509 0.062342 
288.260162 0.056397 
288.289703 100.0 
288.909607 0.007253 
289.089874 0.156829 
289.124634 4.164486 
289.162689 2.61577 
289.228119 0.027903 
289.292999 17.534798 
290.126587 0.180633 
290.175842 0.492261 
290.211365 0.129687 
290.24762 0.102654 
290.268219 0.00711 
290.2966 0.695308 
297.907196 0.006226 
301.924042 0.022766 
304.04541 0.027161 
306.885406 0.012829 
306.91983 0.369498 
END IONS

