BEGIN IONS
PEPMASS=303.157
CHARGE=1+
COMPOUNDNAME=(1R,2E,7R,10E,12S,13S,15R)-12,15-dihydroxy-7-methyl-8-oxabicyclo[11.3.0]hexadeca-2,10-dien-9-one
LIBRARYQUALITY=3
SMILES=N/A
INCHIKEY=KQNZDYYTLMIZCT-SWGFJCPHSA-N
INCHI=InChI=1S/C16H24O4/c1-11-5-3-2-4-6-12-9-13(17)10-14(12)15(18)7-8-16(19)20-11/h4,6-8,11-15,17-18H,2-3,5,9-10H2,1H3/b6-4+,8-7+/t11-,12+,13-,14+,15+/m1/s1
MSLEVEL=2
SOURCE_INSTRUMENT=N/A-ESI-QFT
FILENAME=library_mgf.mgf
SEQ=*..*
IONMODE=positive
ORGANISM=MONA
NAME=(1R,2E,7R,10E,12S,13S,15R)-12,15-dihydroxy-7-methyl-8-oxabicyclo[11.3.0]hexadeca-2,10-dien-9-one [M+Na]+
PI=MoNA
DATACOLLECTOR=MoNA:VF-NPL-QEHF022874
PUBMED=N/A
SUBMITUSER=mwang87
TAGS=
SPECTRUMID=CCMSLIB00004713937
SCANS=22874
51.716877 0.121146 
51.940243 0.141178 
52.171524 0.111667 
52.315472 0.06521 
52.561672 0.132207 
53.002617 0.130624 
53.039066 0.117674 
54.790398 0.064444 
55.054577 0.776145 
55.833954 0.129569 
55.934715 1.397698 
56.96513 0.369409 
57.070171 15.173428 
57.521244 0.099366 
57.593452 0.108544 
57.706318 0.099585 
57.730968 0.096542 
57.935123 0.085053 
58.065414 1.859273 
61.01086 25.297857 
61.681725 0.095149 
62.014214 1.072725 
62.018684 11.934009 
63.006706 2.970315 
63.358273 0.106099 
64.000061 0.060315 
64.014404 0.081106 
64.232712 0.115712 
67.054375 0.499525 
69.069977 0.240586 
69.875313 0.069595 
70.065239 0.089311 
70.958 0.329881 
71.085625 8.658626 
71.929359 1.589999 
72.937218 2.868267 
73.579208 0.058799 
73.945068 0.272222 
75.139023 0.062648 
75.945374 0.102131 
77.005623 0.150648 
79.02124 2.958879 
79.054222 0.234053 
80.049484 100.0 
81.052849 2.220407 
81.069939 0.75668 
82.426498 0.111507 
82.541901 0.068341 
82.978561 0.100346 
83.085518 0.131211 
85.012093 0.127075 
85.101257 3.818321 
87.906517 0.323782 
89.0597 0.607712 
89.939957 1.669385 
90.06311 0.108057 
90.947746 4.25587 
91.054253 7.535045 
92.845154 0.105301 
93.069969 0.411676 
93.315857 0.117892 
93.349785 0.110923 
93.955933 0.223126 
95.085594 0.578578 
98.975426 1.769171 
100.389877 0.118788 
100.840034 0.09731 
102.947701 0.31045 
104.930466 0.379106 
105.070129 0.133287 
105.917076 3.406463 
105.971062 0.232874 
106.125 0.108122 
106.925697 0.109281 
107.085426 0.186827 
107.950394 0.553604 
108.958313 0.445991 
116.98584 1.397485 
117.916992 1.362315 
118.92482 1.286922 
118.942871 0.19386 
120.940414 0.164519 
120.958687 0.065702 
121.064819 0.504616 
122.940857 4.592012 
123.116531 0.131858 
123.245605 0.108353 
123.927505 0.12279 
124.56781 0.080852 
124.936172 1.247662 
125.960869 0.066976 
128.602661 0.088008 
128.963608 0.293357 
130.978775 0.240794 
132.063461 0.099408 
132.958252 4.644781 
133.423737 0.092501 
133.948273 2.163983 
133.965897 0.081072 
134.956055 2.520112 
134.996368 0.538533 
135.927689 3.07274 
135.94902 0.131518 
136.341812 0.12816 
136.935593 0.724955 
136.952271 0.367126 
137.013153 0.11654 
137.927994 0.468532 
139.203033 0.064697 
139.314255 0.076162 
140.951477 0.126631 
140.984772 0.115114 
141.459549 0.116687 
142.980011 0.112177 
144.958557 0.160543 
145.966446 0.123534 
146.91864 0.070325 
146.974182 2.286193 
147.927597 0.567993 
148.599548 0.103054 
148.971832 4.015432 
148.989716 0.202647 
149.699326 0.116378 
149.954071 2.306365 
149.960495 0.244175 
150.951065 38.996292 
150.968552 5.223818 
151.951416 8.101819 
151.959076 3.211558 
152.951797 65.618103 
152.966476 0.547485 
153.938553 0.959261 
153.949142 2.64659 
153.959366 26.326967 
154.755997 0.110373 
154.946869 22.809383 
154.966827 0.14154 
155.954788 8.40849 
157.651566 0.144026 
159.320374 0.118297 
160.935532 2.365733 
160.942276 0.074677 
160.971817 1.339682 
161.064911 0.205426 
161.975616 0.115729 
162.950989 5.284708 
162.972031 0.32266 
163.959122 3.207651 
163.976547 1.228146 
164.966965 0.113316 
164.984436 0.479296 
165.938232 6.516753 
166.967178 0.27432 
166.981842 0.231929 
167.964615 0.492072 
167.972 0.143656 
168.961685 16.492073 
168.98291 2.427039 
169.961929 3.578953 
169.978104 1.448469 
170.96283 15.553777 
170.978424 0.408236 
171.959991 2.786195 
171.972992 0.153176 
172.95755 5.637166 
175.958908 8.725753 
178.945953 4.129046 
179.01564 0.140952 
179.953857 1.175047 
180.96167 11.72328 
181.969727 0.57124 
182.95723 0.080366 
183.948639 2.862193 
184.940292 0.122541 
185.949295 4.847667 
185.995819 0.100697 
187.038864 0.111481 
187.944611 1.05905 
191.880585 0.37202 
191.964645 0.110758 
192.961639 16.582094 
193.969986 3.585509 
194.940735 0.099277 
194.960587 0.123016 
195.948303 0.066802 
204.1745 0.093948 
204.730331 0.120125 
204.888412 0.25778 
204.961456 0.560093 
205.964066 0.284897 
205.988052 0.085966 
206.186264 0.131082 
206.926529 0.109147 
206.957932 0.188896 
207.069626 0.11125 
208.883301 0.864036 
209.89122 0.552389 
210.972183 10.404537 
210.982361 0.138986 
211.909805 0.107085 
211.975983 0.113062 
212.237274 1.074146 
212.972397 0.931712 
215.212936 2.292102 
215.221191 0.254983 
219.729095 0.115856 
220.903366 1.534227 
221.902405 0.113762 
222.898697 9.098375 
222.972534 0.195784 
223.980042 0.497814 
224.971283 0.23475 
225.886978 0.106639 
226.933456 2.011986 
227.036392 0.371517 
229.895737 0.095705 
229.920273 1.957845 
232.884308 0.105856 
233.891052 0.620437 
234.899414 0.282254 
235.899567 0.131222 
236.896545 0.068938 
238.913895 2.601812 
239.901352 1.190829 
240.232483 0.503072 
240.909073 16.380926 
241.236618 0.137258 
242.040314 0.077733 
243.032166 0.41026 
244.050583 0.305691 
244.943771 4.747665 
245.047058 2.449198 
247.284164 0.14605 
250.893814 1.183952 
253.916733 0.14865 
255.917404 0.097079 
263.901367 1.88648 
264.909241 0.300945 
265.794617 0.126531 
273.962189 0.146362 
274.892944 0.109076 
275.901398 0.366114 
279.805359 0.191879 
279.916443 1.815396 
280.813385 1.726415 
280.924805 0.097889 
281.912079 12.275764 
282.919769 0.144915 
285.815826 1.454532 
287.831635 0.514077 
289.02597 0.458448 
290.947479 0.144183 
295.819824 0.089055 
296.808105 0.449947 
297.815979 2.527563 
299.262817 0.136813 
302.211578 0.065887 
302.285614 0.109767 
302.818481 0.527778 
303.142426 0.116489 
304.173889 0.144207 
304.299774 74.760651 
305.157074 45.749783 
305.186554 0.139871 
305.303528 8.036056 
307.289642 0.064902 
312.839142 1.454865 
321.096619 0.098013 
322.823059 0.235496 
325.444031 0.104319 
325.986786 0.070252 
327.826111 2.142027 
END IONS

