BEGIN IONS
PEPMASS=734.469
CHARGE=1+
COMPOUNDNAME=Massbank:PB005804 Erythromycin|(2R,3R,4S,5R,8R,9S,10S,11R,12R,14R)-11-[(2S,3R,4S,6R)-4-(dimethylamino)-3-hydroxy-6-methyloxan-2-yl]oxy-5-ethyl-3,4,12-trihydroxy-9-[(2R,4R,5S,6S)-5-hydroxy-4-methoxy-4,6-dimethyloxan-2-y
LIBRARYQUALITY=3
SMILES=CCC1C(C(C(C(=O)C(CC(C(C(C(C(C(=O)O1)C)OC2CC(C(C(O2)C)O)(C)OC)C)OC3C(C(CC(O3)C)N(C)C)O)(C)O)C)C)O)(C)O
INCHIKEY=ULGZDMOVFRHVEP-UHFFFAOYSA-N
INCHI=1S/C37H67NO13/c1-14-25-37(10,45)30(41)20(4)27(39)18(2)16-35(8,44)32(51-34-28(40)24(38(11)12)15-19(3)47-34)21(5)29(22(6)33(43)49-25)50-26-17-36(9,46-13)31(42)23(7)48-26/h18-26,28-32,34,40-42,44-45H,14-17H2,1-13H3/t18-,19-,20+,21+,22-,23+,24+,25-,26+,28-,29+,30-,31+,32-,34+,35-,36-,37-/m1/s1
MSLEVEL=2
SOURCE_INSTRUMENT=ESI-LC-ESI-QTOF
FILENAME=Massbank_ESI_positive_8_1_2014_peaks.mgf
SEQ=*..*
IONMODE=Positive
ORGANISM=MASSBANK
NAME=Massbank:PB005804 Erythromycin|(2R,3R,4S,5R,8R,9S,10S,11R,12R,14R)-11-[(2S,3R,4S,6R)-4-(dimethylamino)-3-hydroxy-6-methyloxan-2-yl]oxy-5-ethyl-3,4,12-trihydroxy-9-[(2R,4R,5S,6S)-5-hydroxy-4-methoxy-4,6-dimethyloxan-2-y [M+H]+
PI=Putative Massbank Match
DATACOLLECTOR=Massbank
PUBMED=N/A
SUBMITUSER=mwang87
TAGS=
SPECTRUMID=CCMSLIB00000222303
SCANS=10669
116.071 60.06 
116.105 80.08 
123.079 70.07 
127.074 50.05 
140.105 10.01 
158.005 10.01 
158.116 10000.0 
159.119 820.821 
160.121 40.04 
176.126 60.06 
177.127 10.01 
233.151 430.43 
234.154 50.05 
245.187 10.01 
251.161 20.02 
263.197 10.01 
269.172 10.01 
272.182 50.05 
284.182 20.02 
286.199 30.03 
289.176 100.1 
290.18 10.01 
307.187 90.09 
308.19 10.01 
316.209 30.03 
325.197 80.08 
326.199 10.01 
342.224 170.17 
343.226 30.03 
347.218 50.05 
348.22 10.01 
360.232 10.01 
365.228 120.12 
366.231 20.02 
383.238 60.06 
384.243 10.01 
408.269 290.29 
409.273 70.07 
444.291 20.02 
464.295 120.12 
465.299 30.03 
482.306 40.04 
483.31 10.01 
500.315 30.03 
522.337 450.45 
523.34 130.13 
524.342 10.01 
540.348 300.3 
541.35 90.09 
542.353 10.01 
558.358 450.45 
559.361 140.14 
560.363 20.02 
574.355 10.01 
576.368 1541.542 
577.372 470.47 
578.373 70.07 
734.459 20.02 
END IONS

