BEGIN IONS
PEPMASS=908.477
CHARGE=1+
COMPOUNDNAME=MoNA:749143 Microcystin-LA
LIBRARYQUALITY=3
SMILES=N/A
INCHIKEY=DIAQQISRBBDJIM-DRSCAGMXSA-N
INCHI=InChI=1S/C46H67N7O12/c1-24(2)21-35-44(60)52-38(46(63)64)28(6)40(56)47-29(7)41(57)49-33(18-17-25(3)22-26(4)36(65-11)23-32-15-13-12-14-16-32)27(5)39(55)50-34(45(61)62)19-20-37(54)53(10)31(9)43(59)48-30(8)42(58)51-35/h12-18,22,24,26-30,33-36,38H,9,19-21,23H2,1-8,10-11H3,(H,47,56)(H,48,59)(H,49,57)(H,50,55)(H,51,58)(H,52,60)(H,61,62)(H,63,64)/b18-17+,25-22+/t26-,27-,28-,29-,30+,33-,34+,35-,36-,38+/m0/s1
MSLEVEL=2
SOURCE_INSTRUMENT=LC-ESI-QFT-LC-ESI-QFT
FILENAME=output_mgf.mgf
SEQ=*..*
IONMODE=
ORGANISM=MONA
NAME=MoNA:749143 Microcystin-LA [M-H]-
PI=MoNA
DATACOLLECTOR=MoNA
PUBMED=N/A
SUBMITUSER=mwang87
TAGS=
SPECTRUMID=CCMSLIB00000566461
SCANS=3713
65.9986 3.426235 
66.0349 26.587773 
67.019 4.961527 
68.0505 1.923279 
69.0346 1.300632 
70.0298 12.603984 
71.0139 0.869309 
71.0251 7.215619 
71.0502 0.911919 
72.0091 8.401645 
72.0455 29.499732 
73.0295 11.15784 
74.0248 35.764112 
80.0506 9.450361 
81.0221 1.792484 
81.0459 4.124254 
81.0709 1.229511 
82.0173 4.053496 
82.0298 27.340469 
82.0662 29.726937 
83.0251 4.829343 
83.0504 1.492298 
84.0455 61.259941 
84.0819 8.667957 
85.0408 4.38922 
85.0661 0.981396 
86.0612 0.922149 
87.0564 52.462278 
88.0404 5.034272 
92.0507 3.773258 
94.0299 4.717321 
94.0662 7.630838 
95.0251 13.256318 
95.0376 3.379376 
96.0091 1.231646 
96.033 10.804495 
96.0454 7.809219 
96.0819 10.367298 
97.0408 20.81817 
98.0121 5.25413 
98.0247 5.428219 
98.061 1.606841 
99.0564 20.747326 
100.0404 0.971507 
101.0721 4.232475 
102.0561 1.131456 
106.0661 1.261825 
107.0613 1.125284 
108.0212 4.850637 
108.0329 12.556612 
108.0455 4.891494 
109.0169 8.712979 
109.0408 40.65535 
109.0771 4.745171 
110.0248 100.0 
110.0359 12.204078 
110.0488 5.900784 
111.0201 10.781684 
111.028 1.411928 
111.0565 7.777802 
112.0404 19.077138 
112.0768 17.268508 
113.0357 15.377649 
113.0719 1.152259 
120.0453 1.52724 
121.0295 1.569507 
121.0407 1.974581 
121.0533 1.692785 
122.0248 2.062426 
122.0486 9.267388 
122.0611 1.955722 
122.0975 1.850193 
123.02 5.577489 
123.0326 20.688891 
123.0437 4.702028 
123.0564 13.699068 
124.0276 1.506394 
124.0404 29.545331 
124.0516 6.574711 
125.0356 2.017852 
125.0595 21.624346 
125.0719 7.820688 
126.056 1.686655 
127.0514 8.750078 
127.0877 1.297407 
128.0353 42.94637 
129.1034 35.441501 
130.0873 3.376963 
135.0326 6.983245 
135.0565 5.909925 
137.072 4.824473 
138.0435 12.728201 
138.0559 4.481273 
138.0798 1.40802 
139.0877 14.770807 
148.0281 0.988059 
150.0561 6.913234 
150.067 1.267656 
153.0667 3.405112 
153.1033 3.863068 
155.0825 1.059779 
155.1189 4.504425 
163.0511 1.129449 
165.1033 7.709371 
180.1139 1.187585 
182.1298 14.479229 
193.0729 0.925395 
END IONS

