BEGIN IONS
PEPMASS=576.34
CHARGE=1+
COMPOUNDNAME=destruxin A
LIBRARYQUALITY=3
SMILES=N/A
INCHIKEY=XIYSEKITPHTMJT-UHFFFAOYSA-N
INCHI=InChI=1S/C29H47N5O7/c1-9-12-21-27(38)34-16-11-13-20(34)26(37)31-23(18(5)10-2)28(39)33(8)24(17(3)4)29(40)32(7)19(6)25(36)30-15-14-22(35)41-21/h9,17-21,23-24H,1,10-16H2,2-8H3,(H,30,36)(H,31,37)
MSLEVEL=2
SOURCE_INSTRUMENT=N/A-ESI-QFT
FILENAME=library_mgf.mgf
SEQ=*..*
IONMODE=negative
ORGANISM=MONA
NAME=destruxin A [M-H]-
PI=MoNA
DATACOLLECTOR=MoNA:VF-NPL-QEHF017771
PUBMED=N/A
SUBMITUSER=mwang87
TAGS=
SPECTRUMID=CCMSLIB00004708834
SCANS=17771
50.079769 0.025191 
50.425812 0.04853 
50.499729 0.025302 
50.901707 0.017353 
51.051849 0.018982 
51.469273 0.016357 
51.476807 0.026118 
51.653732 0.031925 
51.656521 0.025511 
53.197647 0.023046 
53.843983 0.04946 
54.455891 0.033147 
55.478508 0.020059 
55.73518 0.046736 
55.956486 0.05309 
56.147568 0.048065 
56.180943 0.040826 
56.438206 0.045826 
56.749397 0.039226 
57.007534 0.022141 
57.566635 0.017427 
58.535385 0.017366 
58.541279 0.019017 
58.761993 0.016358 
58.793941 0.04874 
59.012463 0.032617 
59.449284 0.046821 
59.638905 0.027271 
59.837902 0.022886 
60.550621 0.013903 
60.988869 0.019539 
61.986992 1.631872 
62.02898 0.065056 
62.41943 0.038419 
62.483517 0.021902 
62.722519 0.022161 
62.962269 0.045204 
63.558456 0.018629 
64.189857 0.039301 
64.235191 0.03891 
64.507362 0.051194 
65.910103 0.053802 
65.939415 0.037579 
66.152626 0.024797 
67.168892 0.050955 
67.362343 0.016958 
68.002724 0.02684 
68.128952 0.020683 
68.56974 0.021529 
69.077621 0.041801 
70.792168 0.017441 
71.001297 0.31548 
71.012466 100.0 
71.023376 0.481304 
72.015839 2.811623 
72.204948 0.032003 
72.272842 0.019546 
72.433853 0.037991 
72.681358 0.029273 
72.7276 0.035291 
74.324417 0.041228 
74.998116 0.020159 
75.221077 0.044711 
75.389748 0.017213 
75.680656 0.017794 
76.189667 0.015792 
76.386375 0.028761 
76.421196 0.047029 
77.688522 0.018129 
77.804306 0.038965 
78.812294 0.019309 
78.958054 0.044865 
79.07325 0.019284 
79.094299 0.025443 
79.548645 0.027634 
79.956093 0.020105 
80.207245 0.01896 
80.466949 0.022658 
81.100464 0.01874 
81.875626 0.016561 
82.66069 0.035572 
82.787689 0.022107 
83.104355 0.019382 
83.299507 0.018975 
83.30323 0.03899 
83.472481 0.017035 
85.028137 0.076963 
85.399239 0.044224 
85.596657 0.027103 
85.93766 0.022921 
86.230103 0.02408 
88.039032 0.248063 
89.435715 0.023184 
89.772713 0.029123 
89.923195 0.053086 
90.996552 0.034681 
92.627953 0.04318 
93.577942 0.04646 
93.913315 0.042534 
93.98349 0.025187 
94.979553 0.982008 
95.034271 0.047924 
95.577843 0.027123 
95.667274 0.021963 
95.880173 0.02317 
96.044182 0.654752 
96.229408 0.017033 
96.550339 0.049167 
96.709694 0.051136 
96.958763 0.137389 
97.460365 0.057863 
97.83744 0.028217 
99.736786 0.043752 
100.414024 0.046455 
100.541443 0.04891 
100.637146 0.023434 
100.8013 0.023002 
101.07077 6.416983 
101.401001 0.021148 
101.478188 0.02411 
103.481041 0.027553 
104.029915 0.01751 
105.956467 0.046375 
106.293327 0.046809 
106.86116 0.022816 
107.274879 0.022776 
110.015549 0.032689 
110.152672 0.065097 
110.525093 0.018218 
111.055061 0.293541 
112.026581 0.627055 
112.201271 0.032984 
113.285515 0.025452 
113.325417 0.033553 
114.054672 0.030054 
114.214836 0.050345 
118.73584 0.02391 
120.572723 0.049388 
122.438538 0.028893 
122.87101 0.020416 
123.120132 0.0562 
124.075516 0.526867 
125.343338 0.017464 
125.64595 0.052705 
127.050095 3.304431 
127.722107 0.02589 
129.078583 0.056991 
129.102478 0.020391 
129.400101 0.019236 
129.956436 0.023287 
130.214371 0.016366 
130.80777 0.018522 
130.977112 0.017725 
133.412537 0.019922 
135.039368 0.028461 
136.112045 0.58707 
137.502243 0.01597 
139.049683 0.0245 
139.504745 0.019922 
141.05484 0.053333 
141.809647 0.028992 
143.11792 0.561078 
144.837402 0.017101 
145.730469 0.018691 
146.431503 0.049094 
148.959595 0.025364 
150.091324 0.365847 
153.065506 0.112659 
154.411377 0.051627 
155.081879 0.070811 
155.602951 0.023762 
158.237 0.018931 
161.353607 0.051256 
162.60611 0.02058 
163.695312 0.057323 
164.808395 0.020249 
165.102295 4.866416 
165.109634 0.022216 
165.56488 0.028601 
166.086182 0.057971 
166.106247 0.07885 
168.089584 2.251173 
168.102188 0.033795 
168.13829 0.019921 
168.160843 0.04519 
169.097504 2.846599 
169.133057 0.027982 
172.095184 0.018726 
173.092346 0.593913 
173.755371 0.055497 
175.394028 0.018535 
176.480042 0.037186 
176.976959 0.053024 
177.244278 0.019582 
177.314865 0.021317 
178.086655 0.035768 
180.102448 0.021989 
182.468735 0.023709 
183.593475 0.021591 
184.522461 0.024852 
192.10231 0.097501 
192.165024 0.023668 
192.374435 0.050842 
194.081726 0.688211 
198.701721 0.038235 
199.112885 0.020637 
199.473969 0.045012 
209.128723 0.416309 
210.137161 0.200557 
212.64267 2.624938 
212.648743 3.326873 
214.155807 0.502648 
215.771805 0.058904 
218.778091 0.033126 
219.079803 0.023906 
219.909775 0.045861 
225.160538 2.558913 
225.171707 0.050005 
227.635086 0.048415 
227.891998 0.046439 
229.325851 0.039422 
232.129852 0.052619 
233.803055 0.06571 
234.502243 0.024478 
236.150116 0.02117 
238.903671 0.048377 
240.171494 2.082537 
240.421951 0.029306 
243.980667 0.016906 
252.847549 0.050201 
275.210083 0.023085 
278.517029 0.044011 
283.738922 0.044914 
284.966675 0.05899 
286.320679 0.036266 
289.208984 0.02793 
293.812439 0.03034 
297.295959 0.052752 
304.202484 0.021484 
304.222504 0.118859 
310.534271 0.033573 
317.174194 0.025144 
320.197845 0.15923 
321.263855 0.038496 
322.215332 0.046324 
335.575104 0.020731 
340.898224 0.019457 
345.543884 0.048875 
347.484314 0.018382 
347.682343 0.020383 
355.041809 0.017669 
357.454132 0.028945 
359.950592 0.019673 
364.659088 0.036271 
371.667816 0.037348 
374.791077 0.037191 
385.250488 0.052914 
391.667053 0.044316 
394.128326 0.025324 
402.596741 0.046672 
403.557617 0.038267 
406.360687 0.051459 
410.52832 0.027902 
429.185577 0.02329 
430.395294 0.018652 
430.559235 0.018639 
433.736755 0.025364 
433.791565 0.017292 
436.224976 0.044728 
437.009644 0.021642 
456.486603 0.047437 
456.779663 0.023574 
459.650269 0.055176 
464.602661 0.05304 
466.008911 0.017715 
473.216858 0.020707 
473.964874 0.018357 
487.258698 0.032622 
492.290436 0.02093 
507.85733 0.032146 
509.38031 0.05396 
516.957703 0.02554 
531.092163 0.028034 
536.468933 0.050793 
541.752014 0.049218 
546.666748 0.050043 
564.597656 0.030101 
578.399963 0.029778 
583.482117 0.021709 
583.81543 0.030668 
589.332947 0.021474 
604.081482 0.029521 
END IONS

