BEGIN IONS
PEPMASS=260.176
CHARGE=1+
COMPOUNDNAME=Huperzine A
LIBRARYQUALITY=3
SMILES=N/A
INCHIKEY=ZRJBHWIHUMBLCN-UHFFFAOYSA-N
INCHI=InChI=1S/C15H18N2O/c1-3-11-10-6-9(2)8-15(11,16)12-4-5-14(18)17-13(12)7-10/h3-6,10H,7-8,16H2,1-2H3,(H,17,18)
MSLEVEL=2
SOURCE_INSTRUMENT=N/A-ESI-QFT
FILENAME=library_mgf.mgf
SEQ=*..*
IONMODE=positive
ORGANISM=MONA
NAME=Huperzine A [M+NH4]+
PI=MoNA
DATACOLLECTOR=MoNA:VF-NPL-QEHF027227
PUBMED=N/A
SUBMITUSER=mwang87
TAGS=
SPECTRUMID=CCMSLIB00004720808
SCANS=27227
50.478561 0.023201 
51.002117 0.037552 
51.452927 0.019636 
51.530323 0.050517 
53.471596 0.03277 
53.871719 0.02274 
53.935448 0.032071 
54.471062 0.032793 
55.054497 0.300126 
55.49588 0.04165 
56.341171 0.049436 
57.014942 0.051984 
57.070137 2.725649 
57.320091 0.041334 
57.364185 0.030141 
57.938614 0.049794 
58.065388 34.44239 
58.073238 0.044194 
58.137787 0.038568 
58.324032 0.052828 
59.068668 1.801327 
59.573204 0.040515 
62.060223 3.601384 
62.32045 0.020504 
62.491997 0.032412 
63.984406 0.034775 
64.107483 0.047826 
64.113197 0.042997 
65.174141 0.031745 
65.445602 0.03194 
65.46949 0.039753 
65.785522 0.047804 
65.93029 0.055948 
66.341339 0.039971 
66.897484 0.051943 
67.061478 0.039677 
67.537781 0.042305 
67.751968 0.04941 
68.049377 0.044249 
68.234787 0.031593 
68.361412 0.051617 
69.033592 0.144191 
69.069893 0.19448 
69.177696 0.041691 
71.085526 1.326842 
71.134758 0.050878 
71.7062 0.055129 
71.952431 0.053074 
72.773033 0.019072 
73.16658 0.053274 
73.968109 0.055536 
74.687775 0.045679 
74.897903 0.045603 
75.638115 0.04729 
75.85482 0.060648 
77.934517 0.054843 
78.466934 0.050658 
78.487701 0.051559 
78.530685 0.051569 
79.021309 0.148691 
79.054207 0.696673 
80.049538 0.055193 
80.86145 0.033685 
81.069817 2.783945 
82.065086 0.20684 
82.072975 0.026537 
82.485794 0.046188 
83.107529 0.032912 
85.039543 0.144465 
85.101105 0.17606 
86.463493 0.042365 
87.090614 0.053809 
87.184372 0.05203 
88.861771 0.039281 
90.657043 0.035433 
91.054016 0.060761 
92.80307 0.033844 
93.069893 0.207511 
94.065155 0.16563 
95.049179 0.032036 
95.35984 0.058048 
95.491447 0.02069 
95.886551 0.044014 
96.080574 0.043498 
98.975288 0.254599 
99.080338 0.041589 
100.271172 0.049432 
101.499496 0.023965 
102.150375 0.058889 
102.70929 0.043632 
102.968231 4.605574 
103.535881 0.059459 
105.069855 0.216838 
106.064972 0.130171 
106.316643 0.035565 
107.0728 0.07876 
107.085365 0.150506 
108.080605 0.516841 
110.038277 0.040251 
110.05999 0.975288 
111.141068 0.037572 
112.658134 0.040108 
114.283997 0.047651 
115.149872 0.052203 
116.232353 0.065219 
116.494873 0.034066 
116.985718 0.070239 
118.065437 0.04617 
119.085068 0.024998 
119.279594 0.042044 
120.978737 1.65577 
121.039391 0.105289 
122.096489 0.163466 
123.796211 0.062017 
126.054558 0.078844 
127.864143 0.038518 
132.044296 0.187883 
132.080795 0.618902 
133.052277 0.044593 
133.088501 0.346605 
134.059937 1.14315 
134.082199 0.04897 
134.096375 0.961179 
135.055191 0.366108 
135.063538 0.047272 
136.075684 0.582049 
136.612747 0.061609 
138.139938 0.056327 
138.989334 0.21852 
141.255646 0.035307 
143.085495 0.419589 
144.080688 1.659132 
146.05986 2.008393 
147.055145 1.470474 
147.063293 0.1567 
147.236664 0.041432 
147.626328 0.035841 
147.682953 0.021303 
149.096069 1.362774 
150.054688 0.054726 
150.091476 4.018024 
150.09848 0.212778 
151.099258 0.022141 
152.951355 0.577795 
153.070267 0.028912 
153.595963 0.031361 
153.667618 0.033264 
154.064713 0.131568 
154.880341 0.052883 
154.946732 0.211592 
154.967361 0.038351 
155.072495 0.159738 
155.08551 0.022468 
155.537308 0.040917 
156.081039 0.118937 
157.693802 0.053705 
158.059921 2.157077 
158.096878 0.045911 
158.342834 0.055262 
160.063339 0.642008 
160.075638 14.280393 
161.07074 7.336388 
161.078781 1.876747 
161.890427 0.043192 
162.054642 0.317975 
162.074188 0.104014 
162.091171 0.035908 
162.227325 0.055798 
164.269882 0.060254 
164.504105 0.022222 
164.827866 0.05614 
165.06987 0.043947 
168.080811 0.239508 
168.342926 0.041104 
169.076126 0.024246 
169.10112 0.234132 
169.357208 0.048218 
170.059875 0.076643 
170.084564 0.057225 
170.096512 3.885295 
170.898483 0.037751 
171.067474 0.101595 
171.099518 0.193034 
172.063034 0.16607 
172.075638 3.290858 
172.111679 0.403493 
173.07106 7.112771 
173.08345 0.070712 
173.10759 0.038635 
174.07402 0.224899 
174.091095 1.467511 
175.085907 0.085058 
176.070343 0.276085 
177.065659 0.058242 
178.064865 0.800975 
179.08548 3.802279 
179.856644 0.043761 
180.080521 2.828672 
180.088684 0.099326 
180.981918 0.1498 
181.075714 0.622421 
181.088348 3.094867 
181.100922 0.449798 
182.059891 1.189539 
182.096161 0.232403 
182.104233 0.058469 
183.067963 3.348528 
184.062943 0.109962 
184.075623 3.113513 
184.098923 0.052496 
184.112137 0.031927 
185.07106 5.299322 
185.079163 0.716497 
186.079071 0.487467 
186.091095 4.000044 
186.12738 0.142834 
187.0867 5.660492 
187.095123 0.21264 
188.094467 10.485033 
188.103699 0.067873 
189.098007 0.414219 
190.06514 0.235364 
190.794479 0.057363 
191.072845 6.290116 
191.205078 0.066295 
192.076141 0.591768 
193.995865 0.042956 
194.09549 0.072658 
195.067642 1.447456 
195.091415 0.052883 
196.075821 6.048183 
196.112091 5.776784 
196.351868 0.061809 
197.070847 12.303911 
197.080963 1.227183 
197.094437 0.093474 
197.106705 0.10951 
197.115677 0.355631 
198.055115 0.110505 
198.078568 8.051277 
198.091049 33.773796 
198.127609 0.027995 
198.992477 0.183209 
199.086273 19.296898 
199.095108 3.966556 
199.348236 0.041858 
200.070389 1.686293 
200.090149 1.620341 
200.106766 5.637747 
201.101105 0.031158 
201.110611 0.504756 
201.237259 0.036021 
203.081314 0.798386 
204.080063 0.068642 
205.088242 0.214021 
205.376404 0.061479 
206.096375 20.682644 
207.099579 3.223999 
207.3806 0.0428 
208.07486 0.055972 
208.111847 0.333958 
209.083466 32.609932 
209.092789 0.459267 
209.114502 0.19088 
210.009888 0.062334 
210.086807 4.842567 
211.086441 19.665524 
211.097198 0.767564 
212.070465 0.073637 
212.094299 35.938866 
212.106476 6.570752 
213.078339 1.714549 
213.100708 6.739728 
213.111374 0.961097 
213.137451 0.054714 
214.086014 0.777591 
214.105057 0.435972 
214.122452 4.065502 
215.117737 12.648027 
216.036987 0.73638 
216.04303 0.869021 
216.120895 1.72777 
220.915421 0.037871 
222.090836 0.031944 
222.898315 0.619209 
223.123108 1.089444 
224.106979 83.985764 
225.101425 6.751828 
225.111206 9.271039 
226.086731 0.31299 
226.109741 19.196564 
226.122345 20.971613 
227.093567 0.537584 
227.114014 2.476645 
227.125992 14.62755 
228.101303 0.736775 
228.127472 1.326385 
228.138275 2.585407 
228.631012 0.043044 
229.105118 0.365634 
229.141663 2.869041 
230.14447 0.047445 
239.117493 1.633846 
240.120453 0.044841 
240.268448 0.888933 
240.908859 0.276452 
241.110382 0.018069 
241.133362 46.813461 
241.270844 0.063569 
242.11731 9.114374 
242.137024 7.480857 
243.121323 1.382517 
243.139481 0.247033 
244.119629 0.078346 
246.840424 0.040748 
253.296219 0.02339 
257.147675 0.050133 
258.134644 0.409935 
258.148987 14.020925 
258.166656 1.044494 
258.279053 2.892358 
259.143555 100.0 
259.282288 0.752517 
260.147461 16.78627 
260.162537 0.378288 
261.130829 7.308077 
261.147949 0.812118 
261.353333 0.041016 
262.134064 0.124929 
262.216614 0.024373 
265.812195 0.045547 
270.577179 0.050291 
280.509338 0.064764 
END IONS

