BEGIN IONS
PEPMASS=1101.57
CHARGE=1+
COMPOUNDNAME=N-[(3S,6S,9S,11R,15S,18S,20R,21R,24S,25S,26S)-3-[(1R)-2-carbamoyl-1-hydroxyethyl]-6-[(1S,2S)-1,2-dihydroxy-2-(4-hydroxyphenyl)ethyl]-11,20,21,25-tetrahydroxy-15-[(1R)-1-hydroxyethyl]-26-methyl-2,5,8,14,17,23-hexaoxo-1,4,7,13,16,22-hexaazatricyclo[22.3.0.0?,��]heptacosan-18-yl]-10,12-dimethyltetradecanamide
LIBRARYQUALITY=3
SMILES=N/A
INCHIKEY=DFQUSLQYURJBIT-MFKXNLKNSA-N
INCHI=InChI=1S/C51H82N8O17/c1-6-25(2)19-26(3)13-11-9-7-8-10-12-14-37(66)53-32-21-35(64)47(72)57-49(74)41-42(67)27(4)23-59(41)51(76)39(34(63)22-36(52)65)55-48(73)40(44(69)43(68)29-15-17-30(61)18-16-29)56-46(71)33-20-31(62)24-58(33)50(75)38(28(5)60)54-45(32)70/h15-18,25-28,31-35,38-44,47,60-64,67-69,72H,6-14,19-24H2,1-5H3,(H2,52,65)(H,53,66)(H,54,70)(H,55,73)(H,56,71)(H,57,74)/t25?,26?,27-,28+,31+,32-,33-,34+,35+,38-,39-,40-,41-,42-,43-,44-,47+/m0/s1
MSLEVEL=2
SOURCE_INSTRUMENT=N/A-ESI-QFT
FILENAME=library_mgf.mgf
SEQ=*..*
IONMODE=positive
ORGANISM=MONA
NAME=N-[(3S,6S,9S,11R,15S,18S,20R,21R,24S,25S,26S)-3-[(1R)-2-carbamoyl-1-hydroxyethyl]-6-[(1S,2S)-1,2-dihydroxy-2-(4-hydroxyphenyl)ethyl]-11,20,21,25-tetrahydroxy-15-[(1R)-1-hydroxyethyl]-26-methyl-2,5,8,14,17,23-hexaoxo-1,4,7,13,16,22-hexaazatricyclo[22.3.0.0?,��]heptacosan-18-yl]-10,12-dimethyltetradecanamide [M+Na]+
PI=MoNA
DATACOLLECTOR=MoNA:VF-NPL-QEHF024867
PUBMED=N/A
SUBMITUSER=mwang87
TAGS=
SPECTRUMID=CCMSLIB00004715930
SCANS=24867
77.604568 0.344487 
79.054268 0.514524 
79.874512 0.276708 
80.049553 1.62182 
80.629616 0.512219 
81.033478 0.093441 
81.069992 1.592435 
81.806259 0.097166 
82.028748 0.273324 
82.065247 6.164966 
82.068077 0.236019 
82.334381 0.28532 
83.060478 0.275501 
83.068436 0.099718 
83.085526 0.173853 
83.277794 0.079776 
84.044533 23.786299 
84.553482 0.239165 
85.039436 0.107226 
85.047668 0.195055 
85.64743 0.094937 
86.06015 100.0 
87.063499 3.685641 
87.560173 0.129264 
90.729759 0.092568 
90.947678 0.498024 
91.025497 0.521143 
91.054314 1.650204 
91.057335 1.141547 
91.537888 0.089094 
93.069931 0.146858 
94.028633 0.248428 
94.065178 0.661509 
94.364288 0.553648 
95.049309 0.144752 
95.060486 0.253211 
95.085587 1.079082 
95.720367 0.249521 
96.044434 1.660188 
96.077278 0.563597 
97.03994 0.10832 
97.101295 0.490708 
98.060013 0.350971 
99.055397 0.351707 
99.108246 0.117071 
99.511284 0.750718 
99.913475 0.66599 
100.039429 3.785901 
100.075775 47.941368 
100.204033 0.618003 
101.079056 2.018882 
101.986618 0.480033 
102.055061 3.640184 
103.05455 0.102333 
104.7145 0.76608 
106.065132 0.20369 
107.049156 10.223796 
107.060287 0.091583 
107.085617 0.112028 
108.041992 2.514917 
108.052505 0.285632 
108.080765 0.135806 
109.037582 1.046988 
109.076172 0.581048 
109.091797 0.689132 
109.101448 0.110539 
109.60405 0.543296 
110.021339 0.433853 
110.023773 0.329715 
110.057632 1.353957 
110.060181 0.333904 
111.055481 0.998186 
111.658241 0.123853 
112.039467 0.56917 
112.07576 0.30169 
113.070953 1.439913 
113.963554 0.120425 
114.055077 0.474167 
114.394653 0.580603 
115.964935 0.089886 
116.06134 0.097296 
116.984222 0.097949 
117.069664 0.267276 
117.958313 0.122401 
119.04924 2.374117 
121.03727 1.728624 
121.04969 2.305121 
121.064835 0.212756 
121.076118 0.228802 
122.84726 0.542699 
123.055191 0.390108 
123.63459 0.087173 
125.070885 1.910663 
126.054962 0.134604 
127.050285 0.099998 
127.086777 0.483141 
127.979553 0.08945 
128.950577 0.101111 
131.049149 1.443054 
131.081436 0.307486 
131.974274 0.437425 
132.052887 0.09585 
133.064636 0.165376 
134.060013 0.280014 
135.055023 0.150949 
135.142838 0.315011 
136.013184 1.092342 
136.038986 0.094787 
136.075806 1.051605 
137.071014 0.205023 
139.05011 0.229858 
139.086685 0.324331 
139.97934 0.665612 
140.035065 0.098766 
141.065918 1.44327 
141.958862 0.226745 
141.979492 0.094499 
141.994812 0.094193 
142.017258 0.107826 
142.387314 0.487015 
143.081482 0.384217 
143.974258 0.501918 
143.995682 0.248478 
144.547318 0.088078 
144.957657 0.281828 
145.097351 5.054897 
145.979843 0.091584 
146.060089 1.644365 
146.974319 0.287445 
146.985229 0.931135 
147.044067 3.368979 
147.055084 0.111565 
148.075821 0.305556 
149.059998 0.240014 
149.070816 0.63769 
149.220413 0.602597 
149.539062 0.098047 
151.050201 0.47181 
152.055405 0.268764 
153.064041 5.216964 
153.772797 0.077287 
153.995224 0.107974 
155.081665 0.354141 
155.974594 0.243989 
157.097351 0.090334 
157.989929 1.446066 
158.053116 0.105197 
158.984726 0.371184 
159.663116 0.742287 
159.691422 0.491396 
159.969284 0.224872 
160.005112 0.210411 
160.027802 0.09119 
160.07579 0.149121 
160.08316 0.087677 
161.85524 0.0905 
163.011566 0.469012 
163.047958 1.164244 
164.070465 0.253761 
165.063675 23.649197 
166.990738 0.113217 
167.056839 0.622786 
167.079208 33.568424 
167.974243 0.145055 
168.049576 0.118421 
168.99028 0.1229 
169.00592 0.320466 
169.060852 0.397114 
169.990082 0.370849 
170.011765 0.207822 
170.985214 0.758744 
171.006912 0.144434 
171.022003 0.117006 
171.968826 0.136677 
172.005646 0.124753 
172.161209 0.461589 
173.022018 0.307374 
173.98468 0.17615 
174.00647 0.105515 
174.055161 1.030213 
174.697464 0.503605 
175.017242 0.105095 
175.039047 1.830847 
176.070618 0.114797 
177.063187 0.536912 
178.09819 0.106498 
179.079544 1.625545 
181.006012 0.141426 
181.096924 1.229369 
182.617172 0.308527 
182.985306 0.292861 
183.060715 0.099774 
183.076401 0.247265 
183.968887 0.135947 
185.001022 0.415309 
185.022919 0.255058 
185.058304 0.120493 
185.984848 0.917514 
186.054977 0.190023 
186.979965 0.15857 
187.058167 0.103963 
188.000183 0.541357 
188.070618 1.006966 
188.99585 0.542253 
191.081528 0.211421 
193.004532 0.103081 
193.058578 2.43159 
195.074509 2.979455 
197.000854 2.150969 
197.059036 0.126278 
197.985886 0.227245 
198.980118 0.120461 
199.00174 0.14404 
199.016281 1.434076 
199.164215 0.276654 
200.021927 0.121103 
200.99559 1.076003 
201.0168 0.13991 
202.014679 0.092427 
203.011139 0.14215 
203.042542 0.100259 
203.08136 0.419257 
204.006424 0.699438 
205.572449 0.142303 
206.089828 1.998256 
206.953491 0.351185 
208.883224 0.346862 
209.000626 0.455202 
209.09198 0.820768 
210.085495 3.298019 
210.980255 0.140843 
211.016937 0.13803 
211.069504 0.633559 
212.99559 0.804917 
213.032074 0.262201 
213.733124 0.630988 
213.991486 0.110493 
214.015533 0.284976 
214.996124 0.11034 
215.010956 1.115832 
215.94519 0.681368 
216.667587 0.257068 
217.012421 0.309714 
217.026703 0.324172 
219.027084 0.115509 
219.561844 3.39533 
220.069977 0.116896 
221.000717 0.295711 
222.085251 18.133554 
222.897934 0.227682 
223.015869 0.10017 
223.063751 1.112256 
224.01149 0.096925 
224.100677 39.466694 
224.995132 0.36046 
225.04306 0.13592 
225.103119 0.67475 
227.01059 0.347042 
227.032074 0.109087 
227.081009 0.120473 
229.024033 0.304407 
231.464355 0.09973 
232.069443 0.95965 
234.085236 1.761466 
234.900589 0.17064 
236.995468 0.1506 
237.017944 0.197233 
237.032242 0.276802 
237.085083 1.512068 
237.593597 0.619675 
238.026733 0.128285 
239.011475 0.581131 
239.033356 0.110997 
239.050888 1.800314 
240.006195 0.090442 
240.909378 0.584786 
243.006699 0.616776 
244.00267 0.08558 
244.061584 0.120451 
245.022049 0.108035 
250.045212 0.580615 
250.080109 4.784985 
250.893875 0.270198 
250.974747 0.395005 
251.010986 0.110465 
251.06282 0.097153 
252.095657 14.277203 
252.99054 0.68438 
253.026443 0.367524 
253.098129 0.519835 
254.022095 0.29149 
255.006256 0.427222 
255.028458 0.844779 
256.037933 0.256445 
257.021698 0.167908 
260.032501 0.165334 
266.021362 0.123788 
267.026062 0.104462 
268.984894 0.101102 
269.023315 0.095449 
271.213959 0.706702 
272.03363 0.145661 
276.096619 0.132318 
277.05011 0.123269 
277.07962 1.07209 
278.074982 0.819823 
279.106628 13.851708 
280.03833 0.225381 
280.060425 0.100183 
280.111206 1.191243 
281.122314 9.61052 
282.018433 0.138615 
284.03299 0.365983 
288.050507 0.743054 
291.106842 3.71626 
292.092163 0.620667 
294.279877 0.991303 
298.01355 0.12108 
299.927917 0.544159 
302.066559 0.127702 
302.66983 0.110214 
303.974091 0.581418 
306.107269 0.559663 
307.101562 8.818275 
307.341278 0.094677 
307.967773 0.244669 
309.253632 0.605964 
315.600525 0.310631 
318.107666 0.145074 
322.100586 1.560074 
324.027405 0.140018 
324.047729 0.121618 
324.127777 0.756774 
326.064728 0.278975 
332.803955 0.55805 
333.115143 0.126462 
333.258148 0.680652 
334.100891 18.465961 
335.132751 2.466591 
345.983795 0.155123 
349.111206 0.369419 
353.077942 0.627101 
354.038391 0.104551 
354.642822 0.519644 
360.838684 0.270708 
361.111938 0.351022 
362.095734 0.688117 
364.111633 6.490258 
370.33252 0.572455 
374.14386 0.384026 
376.160309 0.266914 
383.015594 0.098562 
383.721558 0.129489 
385.161407 0.659129 
387.055328 0.091453 
391.123077 1.552995 
392.153595 6.844389 
394.170349 17.045527 
398.136536 0.618712 
412.339203 0.617729 
416.841309 0.105415 
417.186859 0.618535 
423.405334 0.104006 
423.447021 0.097628 
433.180756 0.166332 
437.467468 0.609745 
449.176788 0.120767 
451.191071 4.121456 
453.29483 0.286401 
461.938263 0.105487 
464.352112 0.525846 
532.144409 0.559592 
534.088989 0.515948 
558.417542 0.586714 
567.483704 0.786378 
602.369812 0.127761 
610.017273 0.579501 
615.355103 0.615196 
661.789856 0.102665 
771.957703 0.515985 
808.749207 0.099496 
817.714661 0.368639 
847.456238 0.361738 
857.840332 0.59973 
867.784302 0.721887 
871.945312 0.099273 
911.818665 0.613934 
919.805847 0.112612 
937.015869 0.653361 
1095.47876 0.700333 
1095.888916 0.104006 
1105.556885 0.10597 
1124.948853 0.593434 
END IONS

