BEGIN IONS
PEPMASS=273.073
CHARGE=1+
COMPOUNDNAME=Citrinin
LIBRARYQUALITY=3
SMILES=N/A
INCHIKEY=CQIUKKVOEOPUDV-IYSWYEEDSA-N
INCHI=InChI=1S/C13H14O5/c1-5-7(3)18-4-8-9(5)6(2)11(14)10(12(8)15)13(16)17/h4-5,7,15H,1-3H3,(H,16,17)/t5-,7-/m1/s1
MSLEVEL=2
SOURCE_INSTRUMENT=N/A-ESI-QFT
FILENAME=library_mgf.mgf
SEQ=*..*
IONMODE=positive
ORGANISM=MONA
NAME=Citrinin [M+Na]+
PI=MoNA
DATACOLLECTOR=MoNA:VF-NPL-QEHF027295
PUBMED=N/A
SUBMITUSER=mwang87
TAGS=
SPECTRUMID=CCMSLIB00004720876
SCANS=27295
50.274063 0.023411 
50.454647 0.019429 
50.686462 0.034257 
50.911877 0.027911 
51.047482 0.017456 
51.141632 0.017664 
52.12664 0.027958 
52.427837 0.024674 
52.689907 0.017865 
52.952618 0.027486 
53.001526 0.027294 
53.376045 0.021805 
53.518871 0.026363 
53.796604 0.033031 
54.005974 0.026984 
54.509373 0.031621 
55.054474 0.037519 
55.794193 0.037791 
55.942581 0.038422 
56.159775 0.018682 
57.070065 0.106477 
57.117214 0.027107 
57.169712 0.032005 
57.175758 0.024985 
57.428082 0.029556 
58.438141 0.025291 
58.813999 0.024065 
59.635265 0.019318 
60.584667 0.030167 
60.895756 0.017777 
61.010826 100.0 
61.504684 0.027625 
61.787979 0.019869 
61.814091 0.034036 
61.89143 0.03315 
61.98138 0.030283 
62.010235 0.168665 
62.014141 1.379889 
62.018669 0.271919 
62.090401 0.027518 
62.103355 0.023866 
62.687412 0.028731 
62.726841 0.026636 
62.876514 0.031811 
63.006607 1.405113 
63.533978 0.029494 
63.640705 0.02536 
64.704384 0.023413 
64.990944 0.031131 
65.392799 0.018928 
65.420906 0.034563 
65.685074 0.03088 
65.762932 0.02018 
65.864922 0.032447 
66.619858 0.019092 
67.661621 0.029546 
68.05381 0.023362 
68.380623 0.021098 
68.689262 0.026015 
69.507957 0.02594 
69.706955 0.029982 
71.085709 0.029018 
71.881897 0.03786 
72.722015 0.033324 
72.849876 0.019286 
73.030418 0.019457 
73.956421 0.077993 
74.318436 0.018483 
75.275337 0.02708 
75.675613 0.019582 
75.733932 0.036496 
77.955147 0.019441 
78.219719 0.020028 
79.021164 1.671508 
79.579895 0.030649 
80.508865 0.02425 
82.095459 0.032801 
83.436836 0.030381 
83.953178 0.027083 
84.349365 0.022896 
84.525955 0.023222 
85.126762 0.030233 
85.29715 0.033462 
87.107155 0.025416 
87.560349 0.030604 
88.733337 0.02025 
89.385315 0.034006 
89.954369 0.023289 
91.143715 0.034009 
91.865547 0.032016 
92.608917 0.018614 
97.292091 0.019266 
97.455719 0.020898 
100.60907 0.017586 
101.330109 0.025839 
104.788971 0.027971 
104.930367 1.285837 
106.925797 0.096912 
108.429443 0.017642 
112.762451 0.023653 
112.889084 0.042102 
116.717026 0.046369 
116.948402 0.09713 
117.134331 0.029557 
117.946289 0.454206 
118.367851 0.017329 
119.483269 0.040862 
121.390892 0.028939 
122.231163 0.020674 
122.940849 5.529358 
123.862999 0.033937 
123.938766 2.132998 
124.507889 0.036354 
124.514778 0.024456 
124.93631 1.186223 
127.552505 0.020682 
127.93441 0.020003 
128.721283 0.018876 
132.454071 0.023219 
133.602966 0.019448 
134.940781 0.280391 
134.958633 0.507653 
134.978439 0.030805 
135.949112 0.879692 
135.956665 1.042042 
135.966522 0.379724 
136.36734 0.026158 
136.946899 0.760273 
136.956558 3.179413 
136.973923 0.027788 
137.944336 0.069576 
138.951935 0.421339 
140.352219 0.033982 
141.949203 0.113589 
142.690598 0.025903 
142.739304 0.030778 
143.529556 0.039191 
143.651047 0.027336 
146.553986 0.019765 
146.940628 0.034184 
147.938736 0.025062 
148.004181 0.020755 
148.019775 0.020929 
149.191895 0.028892 
150.70224 0.020252 
150.972168 11.242066 
151.96994 40.984589 
152.95134 16.644005 
152.967316 3.360038 
153.959305 6.870776 
153.966263 0.566188 
154.946686 4.725888 
154.957108 0.428603 
155.394424 0.018437 
155.954559 1.824649 
162.94693 0.020487 
163.427902 0.036075 
164.702438 0.021461 
164.951309 12.712756 
164.958939 0.057754 
165.94902 7.355204 
166.54184 0.033437 
166.946869 3.616823 
168.936432 0.152902 
168.982574 14.420942 
169.009415 0.018079 
169.639862 0.028543 
169.980392 6.336188 
170.961853 2.750394 
170.977997 4.077599 
171.062424 0.148166 
172.957458 0.476889 
173.53038 0.02909 
176.675247 0.022362 
178.978134 1.421214 
179.938507 0.327224 
180.936386 0.88857 
182.953217 0.023983 
182.96196 9.622412 
183.842133 0.025694 
183.959763 9.007892 
184.957214 2.434509 
185.264603 0.028929 
185.948914 0.557054 
186.946854 0.359327 
187.495926 0.037783 
189.207169 0.031433 
189.326096 0.021994 
190.740784 0.034822 
191.357834 0.036122 
192.961594 0.043343 
193.515259 0.031037 
194.799194 0.030218 
194.961929 70.697098 
195.959686 85.322571 
196.645416 0.036545 
196.673019 0.038879 
196.956955 18.068321 
197.948685 0.10848 
198.946808 0.72351 
202.450378 0.028071 
202.968018 0.036384 
203.18718 0.027283 
212.066376 0.533386 
212.095581 0.594086 
212.972488 64.02343 
213.067123 0.049616 
213.200333 0.032816 
213.970245 72.287682 
213.983368 0.053738 
213.987213 0.03859 
214.097702 0.028775 
214.654648 0.037496 
214.967392 17.297174 
215.195831 0.030633 
215.767685 0.601385 
215.773376 0.562855 
222.07225 0.032274 
226.988022 0.401625 
227.743011 0.030619 
227.985992 0.467084 
230.106293 0.129366 
230.301315 0.019472 
230.982819 0.672627 
231.080475 0.036242 
231.982147 0.281976 
231.994827 2.163803 
232.966248 0.031855 
234.645447 0.034204 
236.060944 0.025852 
237.994827 0.024732 
241.734573 0.021293 
243.062683 0.740864 
245.343933 0.021553 
250.005463 0.468326 
255.062469 35.397957 
256.065979 4.925467 
257.067841 0.043657 
257.384399 0.026371 
257.872925 0.018797 
258.702515 0.030051 
260.369659 0.024815 
271.187683 0.298128 
271.319641 0.032655 
272.083923 0.08391 
272.258881 0.041071 
272.294556 0.446659 
273.07309 46.375668 
273.129761 0.519717 
273.14978 0.1985 
273.16684 13.103378 
274.076508 6.635012 
274.095276 0.637142 
274.169922 1.609477 
274.21637 0.193275 
274.252045 0.030481 
274.3078 0.039101 
275.069672 0.063966 
275.109375 6.214485 
275.145905 0.579175 
277.079346 0.020395 
277.101562 0.038959 
282.052917 0.022173 
283.491486 0.036998 
289.298004 0.030133 
291.081146 0.210414 
295.177704 0.041844 
298.483459 0.036534 
299.460327 0.033976 
299.527771 0.032746 
END IONS

