BEGIN IONS
PEPMASS=1277.62
CHARGE=1+
COMPOUNDNAME=DACTINOMYCIN
LIBRARYQUALITY=3
SMILES=N/A
INCHIKEY=RJURFGZVJUQBHK-IIXSONLDSA-N
INCHI=InChI=1S/C62H86N12O16/c1-27(2)42-59(84)73-23-17-19-36(73)57(82)69(13)25-38(75)71(15)48(29(5)6)61(86)88-33(11)44(55(80)65-42)67-53(78)35-22-21-31(9)51-46(35)64-47-40(41(63)50(77)32(10)52(47)90-51)54(79)68-45-34(12)89-62(87)49(30(7)8)72(16)39(76)26-70(14)58(83)37-20-18-24-74(37)60(85)43(28(3)4)66-56(45)81/h21-22,27-30,33-34,36-37,42-45,48-49H,17-20,23-26,63H2,1-16H3,(H,65,80)(H,66,81)(H,67,78)(H,68,79)/t33-,34-,36+,37+,42-,43-,44+,45+,48+,49+/m1/s1
MSLEVEL=2
SOURCE_INSTRUMENT=N/A-ESI-QFT
FILENAME=library_mgf.mgf
SEQ=*..*
IONMODE=positive
ORGANISM=MONA
NAME=DACTINOMYCIN [M+Na]+
PI=MoNA
DATACOLLECTOR=MoNA:VF-NPL-QEHF002894
PUBMED=N/A
SUBMITUSER=mwang87
TAGS=
SPECTRUMID=CCMSLIB00004693957
SCANS=2894
89.811195 0.06527 
90.825218 0.067585 
91.745461 0.104837 
93.095688 0.177221 
93.145073 0.016769 
93.516388 0.091112 
93.774239 0.019661 
94.347321 0.01781 
94.653526 0.018395 
95.190887 0.140974 
96.56871 0.136753 
96.855446 0.013343 
97.296494 0.125722 
97.461678 0.015562 
97.514519 0.105205 
97.833633 0.062886 
98.096893 0.09225 
98.181793 0.015422 
98.562515 0.018082 
99.337242 0.093954 
100.039673 1.978204 
100.681534 0.156621 
100.817741 0.181629 
103.404488 0.015902 
105.400856 0.015114 
106.512283 0.148899 
106.856819 0.137774 
106.873901 0.159022 
107.61525 0.056258 
108.141106 0.022764 
109.885475 0.03489 
112.036995 0.896174 
112.112511 0.043703 
113.979317 0.126835 
114.091537 0.56992 
118.806351 0.019244 
120.024628 0.129914 
120.636963 0.023197 
121.24614 0.056074 
122.827614 0.030295 
122.860435 0.130987 
123.617104 0.020498 
124.112183 1.655524 
124.67083 0.119254 
125.115555 0.085186 
125.454803 0.096751 
125.614326 0.111437 
125.878807 0.022249 
128.992508 0.018116 
130.697968 0.113796 
131.493576 0.093565 
131.497467 0.01827 
131.924347 0.1471 
132.101822 3.450721 
133.105118 0.082414 
134.829819 0.086661 
135.209763 0.016978 
136.368393 0.098545 
136.697174 0.031136 
137.222992 0.140207 
137.229263 0.166742 
138.052429 6.760055 
138.410553 0.149618 
140.067978 0.023312 
141.594299 0.084294 
142.086121 0.170655 
145.346527 0.113376 
148.456284 0.128312 
150.176331 0.01501 
150.536591 0.10496 
151.083832 0.016308 
152.034195 0.067273 
152.106979 0.210902 
153.101791 0.037372 
154.085556 0.058394 
154.675354 0.138783 
156.888443 0.154862 
157.132751 0.020784 
157.786957 0.074522 
158.290237 0.134284 
159.703674 0.120641 
160.46489 0.080347 
161.23822 0.020494 
163.084 1.891128 
165.53537 0.171544 
166.083771 0.943413 
166.095184 0.017844 
167.789658 0.108624 
168.325485 0.020068 
169.097137 0.243175 
169.13327 0.079652 
173.055481 0.013513 
174.960831 0.140963 
175.094177 0.074506 
175.611374 0.110225 
177.099701 2.292182 
178.211212 0.061395 
178.738983 0.014139 
179.931244 0.016627 
180.568268 0.121985 
183.348694 0.120798 
184.511047 0.014246 
184.688385 0.023974 
185.128418 0.145083 
186.276077 0.145858 
187.10759 0.126402 
191.078918 0.463418 
191.771576 0.013434 
195.112335 0.018108 
195.777328 0.139951 
195.931656 0.134779 
195.945114 0.022913 
196.141022 0.014916 
197.128647 0.035966 
199.093933 0.12006 
199.831909 0.01675 
201.099945 0.158716 
202.971512 0.156817 
203.138916 4.018529 
204.142273 0.493104 
205.095322 0.034747 
207.111191 0.034539 
208.614182 0.014089 
208.63028 0.134346 
208.76033 0.071856 
209.089417 12.359012 
209.264725 0.025529 
210.093842 0.073841 
210.601913 0.017485 
214.724091 0.072566 
215.539368 0.131898 
217.639969 0.118116 
218.908646 0.071312 
219.110168 0.906033 
219.532532 0.136009 
222.121063 0.716584 
222.626678 0.158227 
223.105164 9.966311 
224.05603 0.014449 
227.26712 0.112695 
228.547119 0.016771 
228.652786 0.117354 
230.71637 0.071832 
234.946564 0.122715 
237.108551 0.191047 
237.120651 7.463885 
238.829773 0.091968 
242.132278 0.11951 
245.125534 0.265544 
245.176697 0.112997 
246.374527 0.141576 
247.105148 0.286001 
247.141937 0.139469 
249.083847 0.029395 
250.152725 1.11832 
257.608887 0.079742 
258.030457 0.159233 
259.74826 0.01447 
260.136963 0.015479 
261.999695 0.072433 
262.152161 0.117187 
263.100098 14.217465 
263.1362 12.274496 
264.104126 0.14636 
264.139557 0.244192 
265.782654 0.019241 
267.076538 0.113682 
272.135834 0.042204 
272.639252 0.013996 
273.365997 0.082709 
273.511078 0.09019 
274.152344 0.660586 
276.1315 0.426631 
276.167908 8.905857 
277.115662 5.235413 
277.170441 0.016039 
278.183685 1.123642 
278.553711 0.1208 
279.984528 0.019868 
281.620117 0.1337 
283.844879 0.019766 
285.086304 0.016406 
287.07901 0.017626 
288.168243 0.16878 
289.057678 0.149186 
290.063232 0.016914 
290.147186 3.871767 
290.18222 0.225179 
291.131561 0.082744 
292.135529 0.078758 
292.524811 0.023827 
295.070984 0.023582 
300.19165 0.065312 
302.090393 0.097951 
302.146973 0.658927 
304.091522 0.026243 
304.115875 0.23835 
304.16275 0.528824 
306.359802 0.124114 
308.157684 29.466831 
309.161407 0.859068 
312.191223 0.021412 
314.357513 0.023087 
316.126099 0.996691 
316.162842 4.105291 
318.141693 1.293156 
320.157684 85.12574 
321.160767 8.753374 
321.188812 1.012444 
324.467072 0.070606 
328.101746 0.025594 
328.35791 0.069686 
332.062805 0.132844 
333.189728 0.275701 
334.137451 18.156097 
334.172974 33.538006 
334.999786 0.013743 
335.140808 0.903777 
335.1763 2.440315 
343.80011 0.068475 
344.100128 1.0974 
345.108948 0.018128 
346.079102 0.160051 
346.115326 0.905964 
346.136902 9.098932 
346.209473 0.08472 
346.944214 0.137615 
347.108429 0.06978 
347.142395 0.084492 
347.168182 1.831659 
347.205231 7.517048 
348.098389 0.065584 
350.113373 0.425376 
351.057861 0.375007 
351.118256 0.01971 
354.11026 0.019615 
356.098267 0.085678 
358.115906 0.091487 
362.073853 0.076856 
362.110901 0.302589 
366.108185 0.123207 
370.078949 0.666595 
371.110901 3.615352 
372.095093 8.415102 
372.118927 0.048099 
373.101105 0.477961 
373.127838 0.040775 
373.183441 2.356891 
374.93988 0.097204 
375.236176 1.709646 
376.181946 0.035625 
377.251953 0.510936 
378.10791 0.089611 
379.113342 0.021374 
380.731964 0.116364 
381.096008 0.19518 
385.219757 0.162856 
386.983856 0.154599 
387.143982 0.063255 
387.235229 0.115324 
388.089661 2.769392 
388.114441 0.034934 
388.147003 0.021006 
389.093231 0.114091 
389.120789 0.351371 
390.105438 3.087367 
390.199768 0.298027 
391.19455 100.0 
392.197937 12.840999 
394.102814 2.493107 
395.106567 0.472426 
396.109802 0.057139 
398.073608 0.191014 
399.105499 0.345007 
399.140198 0.016564 
400.112823 0.025868 
401.12085 0.746263 
401.216461 0.877659 
401.252075 2.594189 
403.231445 4.54251 
403.26712 2.482946 
404.226807 6.13993 
408.182861 0.017634 
409.125397 0.431515 
410.127289 0.022318 
410.197021 0.015928 
411.105927 0.461476 
412.090088 0.170738 
415.10083 3.132269 
416.084015 22.100554 
417.088318 2.809517 
417.173859 7.931243 
418.177429 0.163277 
420.192322 0.149447 
421.243134 0.238421 
425.121399 0.451071 
425.154083 0.033509 
427.104034 1.170077 
427.137085 7.443771 
427.170563 0.927983 
428.143951 2.79267 
429.118317 1.301325 
429.152435 5.710541 
429.211121 0.310276 
429.246399 2.133011 
430.156677 0.20346 
431.134003 0.372369 
432.138733 0.140735 
433.111389 0.543132 
437.122986 0.025774 
440.500244 0.144428 
442.161102 0.036197 
442.499908 0.019073 
443.135986 1.550904 
443.167999 57.031658 
444.172546 11.502505 
445.435455 0.133889 
449.179169 0.016432 
452.133057 0.067194 
453.115967 1.843892 
453.15213 0.034626 
454.120514 0.227044 
455.099365 0.092551 
455.131622 7.753855 
455.166565 1.628265 
456.134216 0.422849 
456.174683 0.031811 
458.273865 0.079561 
459.128357 0.482536 
460.133362 0.147319 
460.288971 2.342346 
463.321411 0.063424 
467.058533 0.166489 
468.164032 0.326801 
469.112518 1.238361 
469.147827 6.087047 
470.148529 0.257229 
470.555267 0.021369 
471.126831 1.061658 
471.162415 5.489748 
472.163727 0.635469 
473.107147 0.039726 
473.14267 4.284849 
473.238007 0.162654 
475.614594 0.017175 
475.858368 0.157108 
479.169922 0.088346 
480.164795 0.4188 
480.457977 0.066607 
481.111237 1.810058 
481.175079 0.020264 
481.608948 0.175142 
482.179565 3.416164 
483.162964 4.073918 
484.161285 1.062514 
485.172211 0.040345 
486.268646 0.581043 
487.157501 20.97661 
488.161499 3.532539 
489.17337 9.595324 
490.176819 0.67288 
496.1586 0.025184 
496.194427 1.89694 
496.427765 0.074109 
498.174042 9.531906 
498.931335 0.035809 
499.116638 0.185674 
499.17868 0.605112 
500.188873 0.147036 
504.278656 1.517185 
507.226898 0.020226 
508.194641 1.581722 
509.17868 0.761643 
510.174103 0.184821 
510.213196 0.036267 
510.870178 0.071663 
512.189453 6.182337 
513.194031 0.305852 
515.15271 5.748989 
516.15564 0.035235 
523.619263 0.128592 
524.189148 9.244261 
524.227905 1.886136 
525.198853 5.605358 
526.169006 2.212212 
526.20575 40.820206 
527.210632 13.852444 
528.183105 3.688225 
528.221191 0.187823 
529.026184 0.104695 
529.177551 0.051077 
530.20282 0.414897 
535.210754 0.020248 
536.189026 0.092531 
536.793457 0.143043 
538.163818 0.167896 
540.18103 1.225305 
540.22168 10.541797 
541.225647 1.233519 
542.199341 3.484414 
543.208923 0.129882 
544.178345 2.097118 
550.205139 0.456073 
551.199463 0.108619 
552.184753 14.64668 
553.185974 2.480765 
554.198669 2.5151 
566.200073 1.493763 
568.217041 10.843561 
569.21875 1.644785 
570.194092 8.020534 
571.199158 1.045295 
572.210205 12.478898 
573.21405 1.430218 
578.232544 0.208659 
578.993347 0.107627 
579.233276 0.817116 
580.177124 0.038478 
581.250122 0.029029 
582.23114 0.206799 
583.26416 0.149089 
584.21051 16.437723 
585.213501 2.941851 
586.226135 43.696388 
587.229553 10.087869 
595.223389 1.402462 
596.243774 0.938522 
597.244751 0.783178 
598.187927 7.708131 
599.198975 0.63199 
599.257446 10.188073 
600.260254 1.162979 
605.247681 0.090786 
607.225403 0.266578 
607.264587 0.052078 
609.243591 0.275478 
611.262695 21.672869 
612.205811 12.649905 
612.260925 5.684541 
612.690796 0.167455 
613.209412 1.85726 
613.267883 0.322753 
618.782227 0.14462 
621.240845 0.243907 
622.23938 0.040405 
623.259216 18.921066 
624.262085 5.843511 
625.234253 14.226995 
626.229797 3.10609 
627.236084 0.020121 
629.245178 0.201268 
630.215759 3.034564 
633.249329 0.103013 
637.236572 0.130991 
639.253052 37.820927 
640.257202 10.069139 
641.229187 10.562042 
642.233765 1.222668 
643.241028 0.192528 
646.360535 0.08274 
649.240173 0.360637 
650.238464 0.050635 
651.253418 8.047621 
652.239624 3.163426 
653.240234 0.386322 
655.246826 4.410837 
656.252747 0.194624 
657.263916 10.51888 
658.266174 1.185147 
665.231689 5.581512 
665.29126 0.056659 
666.233459 0.521546 
667.247437 27.725285 
668.250366 9.147718 
669.264404 43.690346 
670.266907 11.01594 
677.22876 0.036683 
678.266724 0.019427 
681.293823 0.023052 
682.257996 2.919877 
683.242432 17.836994 
684.244629 4.811192 
684.571716 0.1389 
685.256836 1.663912 
686.260193 0.131099 
687.0224 0.186503 
694.256287 0.866139 
695.24231 57.334843 
695.307617 0.944042 
696.241089 14.075553 
697.257385 2.300467 
706.340271 0.127031 
708.34668 0.603208 
709.574402 0.248769 
709.704407 0.198363 
709.815918 0.174908 
709.880127 0.034543 
709.922791 0.208544 
710.044678 0.035613 
710.112488 0.562068 
710.147339 0.540804 
712.269104 1.420662 
712.631531 0.019188 
713.253479 3.464124 
714.24707 0.02437 
722.289307 6.008725 
723.282471 0.660193 
724.27948 0.222028 
724.341309 6.791242 
725.348022 0.990253 
726.359863 0.170385 
728.274048 0.016803 
729.894043 0.085372 
732.306885 0.022022 
733.297913 0.021304 
734.324219 2.103938 
735.325195 0.09488 
737.268066 0.029025 
738.284302 7.024121 
739.287476 1.198661 
740.298584 5.687248 
740.467468 0.021164 
741.302979 0.798456 
749.285095 0.59012 
750.285706 1.340432 
751.307739 0.458508 
752.335754 9.942053 
753.335754 2.445989 
765.286072 0.201096 
766.309937 26.725706 
767.315613 8.860946 
768.326965 1.634041 
769.336792 0.072516 
778.318787 0.424851 
779.314026 0.452511 
784.291321 0.990337 
793.353638 0.262928 
794.310669 1.700678 
795.310852 0.487582 
796.32489 2.099918 
797.332764 0.324943 
800.512146 0.023117 
812.321655 15.703502 
812.997925 0.01722 
813.323242 5.65776 
819.345398 0.164482 
837.353088 12.587058 
838.353943 3.546745 
850.38031 0.279881 
863.368225 0.508659 
865.352295 2.694438 
866.358154 0.183262 
883.357483 6.55045 
884.360962 0.866734 
891.363953 0.13499 
892.347412 0.181127 
909.373291 30.125925 
910.376709 10.722815 
911.375183 0.258164 
936.400696 0.473624 
980.41095 15.342845 
981.411255 6.133041 
982.40332 0.093255 
993.442688 0.41315 
1004.194946 0.027341 
1051.448242 0.535128 
1058.534546 0.020986 
1236.714111 0.092527 
1252.358154 0.020953 
1287.844238 0.177714 
1303.416016 0.019616 
END IONS

