BEGIN IONS
PEPMASS=544.182
CHARGE=1+
COMPOUNDNAME=Massbank: Doxorubicin
LIBRARYQUALITY=3
SMILES=c(=O)(c12)c(c5O[H])c(c(O[H])c(c35)C(C(C(=O)C([H])([H])O[H])(C(C3(OC([H])(C([H])([H])4)OC([H])(C([H])(O[H])C([H])(N([H])[H])4)C([H])([H])[H])[H])([H])[H])O[H])([H])[H])c(c1c(c(c(c2OC([H])([H])[H])[H])[H])[H])=O
INCHIKEY=AOJJSUZBOXZQNB-UHFFFAOYSA-N
INCHI=1S/C27H29NO11/c1-10-22(31)13(28)6-17(38-10)39-15-8-27(36,16(30)9-29)7-12-19(15)26(35)21-20(24(12)33)23(32)11-4-3-5-14(37-2)18(11)25(21)34/h3-5,10,13,15,17,22,29,31,33,35-36H,6-9,28H2,1-2H3
MSLEVEL=2
SOURCE_INSTRUMENT=ESI-LC-ESI-QTOF
FILENAME=Massbank_ESI_positive_8_1_2014_peaks.mgf
SEQ=*..*
IONMODE=Positive
ORGANISM=MASSBANK
NAME=Massbank: Doxorubicin [M+H]+
PI=Putative Massbank Match
DATACOLLECTOR=Massbank
PUBMED=N/A
SUBMITUSER=mwang87
TAGS=
SPECTRUMID=CCMSLIB00000206119
SCANS=1379
58.0645 178.706 
60.0437 176.517 
69.0326 559.502 
71.049 407.761 
72.0442 1898.507 
84.0799 119.005 
86.0605 4454.726 
95.0497 328.259 
112.076 375.323 
113.0603 1334.328 
121.0655 353.93 
130.0865 1553.234 
131.0483 106.667 
135.044 581.194 
145.0295 279.701 
217.0504 127.164 
275.0686 206.368 
277.086 147.463 
287.07 522.587 
290.0572 177.413 
293.0812 390.547 
302.0583 110.746 
303.0644 360.597 
305.0815 370.348 
306.0516 2440.796 
315.0656 498.408 
318.0526 152.637 
321.0755 7483.582 
323.0901 276.119 
332.069 155.522 
333.0762 1563.184 
336.0636 112.537 
337.0703 123.98 
343.0629 177.313 
346.0474 10000.0 
351.0874 181.791 
361.0711 4628.856 
364.0593 240.896 
379.0828 229.95 
END IONS

