BEGIN IONS
PEPMASS=1876.55
CHARGE=1+
COMPOUNDNAME=Teichomycin
LIBRARYQUALITY=3
SMILES=N/A
INCHIKEY=BJNLLBUOHPVGFT-QRZIFLFXSA-N
INCHI=InChI=1S/C88H97Cl2N9O33/c1-3-4-5-6-7-8-9-10-60(108)94-68-74(113)71(110)58(32-101)129-87(68)132-78-55-26-40-27-56(78)126-52-18-14-38(24-47(52)90)77(131-86-67(92-34(2)103)73(112)70(109)57(31-100)128-86)69-84(121)98-66(85(122)123)45-29-42(105)30-54(127-88-76(115)75(114)72(111)59(33-102)130-88)61(45)44-23-37(13-15-49(44)106)63(81(118)99-69)96-83(120)65(40)97-82(119)64-39-21-41(104)28-43(22-39)124-53-25-36(12-16-50(53)107)62(91)80(117)93-48(79(116)95-64)20-35-11-17-51(125-55)46(89)19-35/h11-19,21-30,48,57-59,62-77,86-88,100-102,104-107,109-115H,3-10,20,31-33,91H2,1-2H3,(H,92,103)(H,93,117)(H,94,108)(H,95,116)(H,96,120)(H,97,119)(H,98,121)(H,99,118)(H,122,123)/t48-,57-,58-,59-,62-,63-,64+,65-,66-,67-,68-,69+,70-,71-,72-,73-,74-,75+,76+,77-,86+,87+,88+/m1/s1
MSLEVEL=2
SOURCE_INSTRUMENT=N/A-ESI-QFT
FILENAME=library_mgf.mgf
SEQ=*..*
IONMODE=positive
ORGANISM=MONA
NAME=Teichomycin [M+H]+
PI=MoNA
DATACOLLECTOR=MoNA:VF-NPL-QEHF027947
PUBMED=N/A
SUBMITUSER=mwang87
TAGS=
SPECTRUMID=CCMSLIB00004721528
SCANS=27947
129.125977 0.058903 
129.834152 0.070413 
134.269363 0.063097 
135.116592 1.342103 
136.061905 0.055376 
136.075394 0.052443 
137.115997 0.059322 
137.13237 0.063658 
138.054901 100.0 
139.058228 3.904093 
140.143356 0.062955 
141.069595 0.634697 
141.905197 0.063158 
143.052887 0.052602 
144.06543 88.057289 
144.224014 0.052043 
145.068802 3.451167 
147.091431 0.393121 
150.054916 0.061603 
151.230911 0.064052 
152.544785 0.050771 
153.033829 0.572707 
153.867371 0.05401 
153.933685 0.0625 
158.60376 0.068453 
162.075729 0.220484 
163.63295 0.061448 
164.469254 0.056593 
165.943298 0.055548 
166.161942 0.057428 
168.058167 0.08748 
168.065414 7.316682 
169.06456 4.161055 
171.175064 0.058076 
171.326355 0.051894 
171.784805 0.058701 
172.16954 0.669251 
172.613251 0.081789 
173.125107 0.056409 
179.499496 0.071975 
185.059265 0.206225 
186.075928 3.425341 
187.075058 0.24176 
189.474319 0.05629 
190.869598 0.070512 
196.075317 0.218506 
197.059479 7.790988 
200.231247 0.06247 
202.655701 0.058854 
204.086578 2.930463 
204.09639 0.058006 
205.769333 0.055959 
212.070282 1.837625 
213.054276 4.713279 
214.058929 0.067709 
214.08609 2.387302 
215.070023 14.623948 
216.073547 0.626975 
217.857971 0.072157 
220.170319 0.073496 
221.693253 0.072971 
224.070541 1.352172 
225.054214 1.739082 
226.497177 0.066181 
227.070023 0.714087 
230.080475 0.134862 
230.769302 0.060538 
231.268768 0.057696 
236.164261 1.038778 
238.049484 0.680495 
239.081116 0.342279 
240.065292 16.55794 
240.087967 0.695503 
240.252106 0.058477 
241.049301 1.591835 
241.069901 0.91304 
241.096588 1.098135 
242.080948 38.008484 
243.084183 3.559261 
245.658081 0.052807 
248.16423 7.609118 
249.168411 0.060178 
250.179947 17.157553 
251.183105 0.745719 
251.43779 0.064249 
252.065231 2.458507 
253.049225 2.172824 
254.081024 0.491957 
254.191864 0.067935 
255.075745 0.0701 
257.091736 10.37993 
258.075867 0.358708 
258.09491 0.304492 
259.107605 0.549391 
264.195892 0.303827 
264.870911 0.071565 
267.076233 0.081689 
268.06012 6.942144 
269.043915 0.195097 
269.065948 0.311026 
269.091492 0.060034 
270.045471 0.070673 
270.075317 0.35721 
278.042725 0.067954 
279.076508 0.064469 
280.059967 0.236608 
283.070587 0.062354 
283.234314 0.063026 
284.055054 0.063787 
285.086609 4.706031 
286.07074 5.269798 
286.087189 0.22138 
287.076874 0.05805 
292.081238 0.070751 
293.580292 0.059115 
295.070892 0.388405 
296.054382 0.069507 
297.08667 0.137959 
299.102173 1.145661 
303.097229 4.733016 
304.164581 0.185913 
304.189941 0.376762 
308.054901 0.114868 
311.058105 0.055557 
314.063751 0.066314 
322.202576 0.064726 
324.070892 0.05927 
324.096497 0.082306 
329.076355 9.205186 
330.079865 0.252362 
331.815857 0.062974 
334.146057 0.070757 
338.110626 0.147904 
339.207123 0.065662 
343.091797 0.354097 
365.073792 0.149131 
366.10556 0.332605 
369.492645 0.066259 
390.045349 0.059277 
396.74472 0.060915 
401.84552 0.064248 
404.483276 0.055806 
414.031097 0.070695 
419.425201 0.061518 
427.060181 0.149575 
433.622345 0.058951 
436.116516 0.069203 
442.696106 0.054971 
453.041901 0.227287 
456.088135 0.077021 
458.089661 0.058695 
474.051361 0.058989 
482.066284 0.090416 
491.207214 0.077953 
491.88858 0.055551 
492.194122 0.065272 
492.304413 0.061269 
508.912048 0.073642 
510.553619 0.061757 
515.074036 0.067375 
532.080688 0.058581 
542.087158 0.069441 
579.955078 0.06079 
606.107666 0.065419 
638.075256 0.06266 
644.064148 0.065104 
661.091858 0.169677 
663.109436 0.213227 
667.099976 0.112706 
667.61322 0.063758 
668.126709 0.104245 
670.140381 0.070618 
671.165588 0.061419 
675.120605 0.079779 
676.104065 0.188105 
677.087158 0.260047 
678.116821 1.241534 
679.108276 0.059711 
680.119629 0.346088 
688.100586 0.32616 
689.086914 0.994141 
690.106934 0.133618 
691.100586 0.133236 
693.079224 0.201538 
693.134705 0.074514 
694.112549 0.259852 
703.259949 0.060644 
704.095215 1.612684 
705.119568 0.08206 
706.113708 4.858027 
707.11377 0.633398 
708.114563 0.451833 
710.109619 0.46389 
713.28064 0.077196 
713.338135 0.177555 
713.534912 0.12495 
713.756531 0.748332 
714.077148 0.087471 
715.091431 0.055747 
716.09552 0.505618 
716.559021 0.066142 
717.084229 0.210812 
718.098694 0.050087 
721.122925 1.822762 
722.109741 0.319512 
723.134766 0.837682 
725.136597 0.152118 
728.280518 0.076309 
731.104492 0.058044 
732.091736 1.357328 
733.116699 0.360802 
734.105347 2.361785 
735.121887 0.134339 
738.104736 0.084464 
749.11792 0.339353 
751.129211 0.763609 
760.084717 0.444157 
761.114441 0.074464 
762.105713 0.129639 
767.124939 0.090989 
777.110413 1.29317 
778.112183 0.070086 
779.111023 0.467377 
781.117981 0.086598 
787.11615 0.060811 
789.101746 0.130657 
790.100037 0.065553 
793.399536 0.062103 
805.100891 0.248764 
806.097961 0.066774 
807.103882 0.082704 
829.467102 0.057717 
835.100403 0.068699 
844.34552 0.067225 
862.197449 0.068839 
863.174561 0.068308 
866.651733 0.071243 
868.647522 0.060034 
874.130981 0.068531 
905.171387 0.063246 
907.001282 0.064175 
912.139832 0.168528 
912.512451 0.062821 
913.135376 0.170263 
915.150818 0.06368 
918.152283 0.15303 
920.179443 0.073524 
928.142944 0.575387 
929.15741 0.141092 
930.15332 0.586042 
945.166687 0.279117 
946.155762 0.154748 
955.142517 0.137074 
956.138306 1.156094 
957.153259 0.514284 
958.152588 0.47295 
968.137085 0.059901 
972.16626 0.142871 
973.161194 0.880184 
974.154358 0.317813 
975.162415 0.086112 
977.178772 0.075191 
984.146057 0.082537 
985.151123 0.158122 
985.594299 0.073469 
986.144348 0.065456 
990.190613 0.250941 
991.185974 0.073998 
1001.160645 0.756781 
1002.170166 0.223864 
1003.17218 0.073747 
1017.158569 0.086858 
1019.173279 0.158365 
1022.798645 0.063388 
1029.155029 0.06864 
1037.456909 0.070697 
1038.195679 0.076065 
1050.160278 0.078356 
1052.165527 0.074618 
1074.171997 0.09026 
1077.409424 0.068094 
1080.183838 0.078452 
1105.894287 0.07634 
1115.1875 0.083362 
1131.192505 0.066669 
1156.83252 0.067222 
1159.186157 0.204416 
1161.18103 0.186819 
1176.205444 0.684892 
1177.20752 0.179698 
1178.209351 0.633967 
1218.375732 0.069252 
1236.84082 0.077394 
1244.634888 0.088882 
1312.990723 0.067635 
1349.576782 0.064946 
1415.841309 0.07239 
1431.984375 0.075593 
1540.940918 0.067164 
1633.051392 0.06782 
1643.556885 0.066013 
1696.912231 0.067634 
1734.144409 0.065854 
1737.128174 0.064541 
1854.009033 0.065866 
1867.02063 0.063825 
1909.371582 0.111535 
END IONS

