BEGIN IONS
PEPMASS=269.09
CHARGE=1+
COMPOUNDNAME=N-acetyltryptophan
LIBRARYQUALITY=3
SMILES=N/A
INCHIKEY=DZTHIGRZJZPRDV-UHFFFAOYSA-N
INCHI=InChI=1S/C13H14N2O3/c1-8(16)15-12(13(17)18)6-9-7-14-11-5-3-2-4-10(9)11/h2-5,7,12,14H,6H2,1H3,(H,15,16)(H,17,18)
MSLEVEL=2
SOURCE_INSTRUMENT=N/A-ESI-QFT
FILENAME=library_mgf.mgf
SEQ=*..*
IONMODE=positive
ORGANISM=MONA
NAME=N-acetyltryptophan [M+Na]+
PI=MoNA
DATACOLLECTOR=MoNA:VF-NPL-QEHF000855
PUBMED=N/A
SUBMITUSER=mwang87
TAGS=
SPECTRUMID=CCMSLIB00004691918
SCANS=855
50.065277 0.04074 
50.337563 0.057174 
50.458603 0.042379 
51.088528 0.045186 
51.209595 0.035009 
51.395786 0.060996 
52.500191 0.024832 
52.714611 0.031562 
53.485882 0.138342 
53.48698 0.054149 
53.939823 0.045331 
53.951809 0.034514 
54.12368 0.069708 
54.938282 0.047407 
55.054939 0.065954 
55.935097 3.765794 
56.139236 0.051998 
56.942936 0.921201 
57.442978 0.029108 
57.808083 0.031574 
58.078087 0.047113 
58.120476 0.037847 
58.593571 0.035133 
58.992271 0.068415 
59.049828 2.368896 
59.139755 0.045075 
61.011337 77.127159 
62.019173 4.412026 
62.044086 0.031752 
63.026985 3.907517 
65.25251 0.041315 
65.994743 0.028155 
67.419563 0.023579 
67.454529 0.027211 
67.470413 0.038772 
68.963181 3.934118 
69.827026 0.024598 
69.961609 1.48531 
70.065964 0.063163 
70.942406 1.08443 
70.958488 39.260693 
71.929901 1.931421 
72.088509 0.042154 
72.937737 12.143143 
73.139267 0.065017 
73.945633 0.283672 
74.953415 0.291694 
77.535751 0.029726 
78.347031 0.047855 
78.398186 0.039211 
78.524017 0.05884 
78.881927 0.040023 
79.163834 0.026303 
80.671204 0.038503 
81.682892 0.065568 
81.904671 0.031133 
82.254906 0.034121 
83.230728 0.04325 
84.363464 0.042024 
85.199615 0.034431 
85.768318 0.033967 
85.954842 0.04011 
86.953224 1.953047 
86.973534 0.091169 
87.385948 0.043491 
87.73851 0.063375 
87.753136 0.044458 
87.906891 1.047196 
87.945076 0.059615 
88.914719 0.650441 
88.95285 0.230518 
88.968864 4.854679 
89.138863 0.071301 
89.940331 3.017117 
90.740074 0.051649 
90.937614 0.035309 
90.948128 6.354227 
91.199715 0.026398 
91.931351 0.04209 
92.195328 0.033788 
92.722824 0.031305 
93.424866 0.050465 
93.721695 0.035301 
94.531593 0.07498 
95.598373 0.024511 
95.636971 0.03129 
96.04039 0.035763 
96.098564 0.033897 
96.592819 0.032609 
97.638702 0.042645 
98.04026 0.052041 
98.474609 0.035066 
98.484207 0.061757 
99.818741 0.036466 
100.112358 0.457254 
101.027985 0.036293 
101.060028 0.83379 
101.972816 0.027436 
102.200745 0.058079 
102.930275 1.558964 
102.94799 1.689095 
103.13372 0.071245 
103.718391 0.059644 
104.455132 0.030034 
104.963631 1.895965 
105.913742 0.042297 
105.917336 3.555629 
105.92099 0.03276 
107.425224 0.046552 
107.643806 0.037492 
107.9505 0.527752 
108.958572 0.222653 
109.643158 0.029544 
111.138863 0.044049 
111.850555 0.073796 
111.98455 0.027534 
112.113403 0.039758 
114.948067 0.477004 
115.6987 0.065712 
115.921669 0.029933 
116.705559 0.038675 
116.929924 0.03651 
117.917183 2.983113 
118.925041 3.585758 
118.945396 0.257902 
120.940628 6.679171 
121.715683 0.043892 
123.927773 0.029635 
127.115158 0.038428 
128.413956 0.071067 
130.676666 0.036616 
130.962891 4.801527 
131.62822 0.05013 
131.952988 0.147918 
131.961349 6.04137 
132.940475 0.640302 
132.958221 42.495434 
133.948257 8.022747 
134.919724 0.652873 
134.956131 3.888145 
134.961105 0.038535 
135.391449 0.025912 
135.927582 3.647193 
136.918518 0.058944 
136.935379 0.527185 
138.950928 1.457713 
141.033661 0.024014 
146.976395 10.683418 
147.927414 0.944614 
147.965393 0.323753 
147.974503 2.536012 
148.31395 0.042405 
148.971771 100.0 
149.960922 5.437039 
149.971695 2.739252 
150.950958 3.945155 
150.962097 0.223129 
150.968704 22.52368 
151.958771 3.331575 
152.929886 0.039476 
152.966522 1.96464 
153.938049 0.336373 
160.799255 0.045802 
162.950882 0.125694 
163.94313 0.046719 
164.986664 0.977838 
165.938004 4.226174 
166.982269 12.021823 
167.971451 1.258796 
168.925232 0.269237 
168.961182 0.037537 
175.942657 1.128958 
176.906158 0.040749 
176.941116 0.638025 
177.938019 11.874544 
179.881866 0.035306 
180.401245 0.03843 
180.99733 0.034633 
182.951477 0.1228 
183.94873 0.274139 
186.935638 0.107125 
187.584641 0.071855 
192.961594 5.181953 
193.953186 0.210567 
194.582443 0.074831 
194.951782 0.611325 
195.948608 7.955237 
195.981049 0.031832 
207.40567 0.041938 
209.289261 0.039334 
209.816422 0.03384 
209.964172 0.039467 
210.972107 2.14064 
216.362701 0.041842 
217.630798 0.035291 
219.696564 0.254542 
219.70845 0.147791 
220.377167 0.039501 
226.692261 0.025869 
226.868378 0.026191 
227.412827 0.038022 
241.148804 0.064112 
243.67952 0.036861 
252.149658 0.048348 
260.80191 0.053574 
270.956787 0.080857 
271.95636 0.032968 
289.394897 0.031871 
END IONS

