BEGIN IONS
PEPMASS=321.005
CHARGE=1+
COMPOUNDNAME=MoNA:2740434 2,2-bis(chloranyl)-N-[1-(4-nitrophenyl)-1,3-bis(oxidanyl)propan-2-yl]ethanamide
LIBRARYQUALITY=3
SMILES=N/A
INCHIKEY=WIIZWVCIJKGZOK-UHFFFAOYSA-N
INCHI=InChI=1S/C11H12Cl2N2O5/c12-10(13)11(18)14-8(5-16)9(17)6-1-3-7(4-2-6)15(19)20/h1-4,8-10,16-17H,5H2,(H,14,18)
MSLEVEL=2
SOURCE_INSTRUMENT=LC-ESI-ITFT-LC-ESI-ITFT
FILENAME=output_mgf.mgf
SEQ=*..*
IONMODE=
ORGANISM=MONA
NAME=MoNA:2740434 2,2-bis(chloranyl)-N-[1-(4-nitrophenyl)-1,3-bis(oxidanyl)propan-2-yl]ethanamide [M-H]-
PI=MoNA
DATACOLLECTOR=MoNA
PUBMED=N/A
SUBMITUSER=mwang87
TAGS=
SPECTRUMID=CCMSLIB00000564992
SCANS=2244
152.0353 13.989741 
176.0352 8.092545 
194.0459 32.688139 
237.0511 4.691808 
249.0515 11.524484 
257.0334 100.0 
END IONS

