BEGIN IONS
PEPMASS=174.088
CHARGE=1+
COMPOUNDNAME=Citrulline
LIBRARYQUALITY=3
SMILES=N/A
INCHIKEY=RHGKLRLOHDJJDR-BYPYZUCNSA-N
INCHI=InChI=1S/C6H13N3O3/c7-4(5(10)11)2-1-3-9-6(8)12/h4H,1-3,7H2,(H,10,11)(H3,8,9,12)/t4-/m0/s1
MSLEVEL=2
SOURCE_INSTRUMENT=N/A-ESI-QFT
FILENAME=library_mgf.mgf
SEQ=*..*
IONMODE=negative
ORGANISM=MONA
NAME=Citrulline [M-H]-
PI=MoNA
DATACOLLECTOR=MoNA:VF-NPL-QEHF026466
PUBMED=N/A
SUBMITUSER=mwang87
TAGS=
SPECTRUMID=CCMSLIB00004717907
SCANS=26466
50.242641 0.015285 
51.198402 0.011892 
51.247452 0.009982 
51.379871 0.012337 
54.016594 0.015314 
55.886799 0.010632 
56.951889 0.016458 
57.033222 0.05347 
57.605984 0.01179 
57.976479 0.2655 
58.531013 0.009843 
58.917271 0.014956 
59.012463 0.628935 
59.023682 0.162104 
59.304066 0.015102 
59.640759 0.013339 
59.880093 0.014147 
59.983147 0.008997 
60.824902 0.012648 
61.945953 0.013954 
61.978233 0.014557 
61.986977 6.647777 
62.565979 0.01427 
63.523212 0.012035 
63.642349 0.016018 
63.800308 0.011687 
63.88348 0.010823 
65.105362 0.009774 
65.116661 0.010588 
65.218178 0.014596 
65.795349 0.016267 
68.203804 0.009877 
69.033226 0.01267 
70.526512 0.014592 
71.513229 0.015091 
71.605171 0.010642 
72.007797 0.013209 
72.333549 0.013702 
73.796486 0.016316 
74.016342 0.010574 
74.757935 0.011078 
74.924782 0.014861 
74.989403 0.165568 
75.307945 0.015414 
75.810699 0.01366 
75.990669 0.014433 
76.61441 0.015031 
77.205673 0.014388 
77.290016 0.009475 
78.165977 0.012141 
79.956017 0.017339 
80.195763 0.012881 
80.598045 0.017826 
81.709579 0.009442 
82.937737 0.01347 
83.048798 0.04643 
83.06012 1.824425 
83.458885 0.012033 
84.948784 0.013886 
85.075752 0.773167 
87.839859 0.008506 
88.60006 0.013719 
88.787193 0.011338 
89.023102 0.380177 
89.924454 0.0329 
90.932213 0.012675 
91.020729 0.122777 
92.164795 0.014466 
92.964203 0.010415 
93.000099 0.012362 
94.056389 0.011169 
96.356453 0.01704 
97.856422 0.012554 
97.975006 0.013095 
98.134125 0.011233 
99.924469 0.682779 
100.4813 0.0155 
100.924614 0.089846 
106.220322 0.010596 
106.621895 0.018055 
107.148865 0.016416 
109.064468 0.012275 
109.166656 0.011203 
110.103302 0.0113 
110.759338 0.0115 
111.080246 0.197899 
113.070793 0.983959 
113.774246 0.013272 
114.054832 0.574458 
114.505676 0.02239 
115.139389 0.013604 
116.139351 0.014209 
116.938522 0.094838 
123.544769 0.011417 
125.176926 0.014108 
125.63784 0.017089 
127.111618 0.053158 
128.276276 0.015254 
128.700226 0.015093 
128.936203 0.011285 
129.065659 0.056631 
129.090591 0.014344 
129.226151 0.012644 
130.036682 0.013107 
130.954132 0.018859 
131.053268 0.628033 
131.072235 0.044858 
131.08139 100.0 
131.107178 0.301318 
131.111984 0.044912 
131.415878 0.015695 
132.07872 0.696042 
132.084641 5.231779 
132.888062 0.015591 
133.085724 0.014364 
133.815903 0.013476 
134.579102 0.014341 
135.334305 0.01602 
136.059219 0.015507 
136.367432 0.014131 
136.722168 0.014234 
138.195114 0.013103 
139.439041 0.01268 
139.449478 0.015238 
140.903381 0.017672 
141.889252 0.024971 
142.890854 0.062118 
142.897003 1.622129 
143.888916 0.010921 
143.891647 0.012572 
143.897797 2.66644 
144.334213 0.01298 
144.3862 0.010561 
144.890549 0.021539 
144.896652 2.782016 
145.897949 1.222611 
147.706299 0.012759 
149.215332 0.013655 
153.688614 0.013993 
154.197266 0.018595 
154.946274 0.94975 
156.893646 0.013728 
161.109894 0.012077 
166.352661 0.01642 
173.952057 0.011418 
178.640518 0.012327 
179.951477 0.011659 
188.497498 0.0133 
191.899429 0.011823 
194.138931 0.013058 
194.35022 0.014276 
END IONS

