BEGIN IONS
PEPMASS=331.154
CHARGE=1+
COMPOUNDNAME=Gibberellin A4&A7
LIBRARYQUALITY=3
SMILES=N/A
INCHIKEY=SEEGHKWOBVVBTQ-UKJRIFTCSA-N
INCHI=InChI=1S/C19H22O5/c1-9-7-18-8-10(9)3-4-11(18)19-6-5-12(20)17(2,16(23)24-19)14(19)13(18)15(21)22/h5-6,10-14,20H,1,3-4,7-8H2,2H3,(H,21,22)/t10-,11-,12+,13-,14-,17+,18+,19-/m1/s1
MSLEVEL=2
SOURCE_INSTRUMENT=N/A-ESI-QFT
FILENAME=library_mgf.mgf
SEQ=*..*
IONMODE=positive
ORGANISM=MONA
NAME=Gibberellin A4&A7 [M+H]+
PI=MoNA
DATACOLLECTOR=MoNA:VF-NPL-QEHF006601
PUBMED=N/A
SUBMITUSER=mwang87
TAGS=
SPECTRUMID=CCMSLIB00004697664
SCANS=6601
50.025085 0.021307 
50.026394 0.026742 
50.114483 0.032969 
50.474533 0.023399 
50.485847 0.020141 
50.543716 0.021058 
52.214649 0.019688 
52.236763 0.02895 
52.883644 0.020184 
52.919609 0.022344 
53.066856 0.026017 
53.175392 0.02556 
53.248703 0.032521 
53.259975 0.02582 
54.548103 0.02894 
55.018646 0.90648 
55.055027 2.972732 
55.445866 0.025486 
56.050266 0.362651 
56.343708 0.025879 
57.03429 0.712031 
57.070656 4.382441 
57.29591 0.020798 
57.298542 0.02192 
57.354401 0.033143 
57.844227 0.0305 
57.885803 0.02641 
58.065903 24.3526 
58.089237 0.018829 
58.972935 0.022772 
59.049904 0.36275 
59.067207 0.01987 
59.069279 0.05972 
59.744488 0.02292 
59.812248 0.031652 
60.045162 2.384372 
60.046635 0.029713 
60.058125 0.028149 
60.68298 0.025039 
60.898167 0.027089 
61.011417 0.368046 
61.167118 0.025736 
61.502071 0.024754 
61.543797 0.030521 
61.92741 0.020509 
62.019081 0.034 
62.060825 0.099995 
62.215427 0.023622 
62.980743 0.019573 
62.982475 1.618718 
63.245304 0.026172 
63.619896 0.020471 
63.626209 0.03037 
65.03936 0.183521 
65.12278 0.0294 
66.210533 0.02961 
66.882141 0.028364 
67.054955 3.772835 
67.058289 0.032219 
67.299484 0.031773 
67.329376 0.022345 
67.439003 0.03185 
67.4562 0.023337 
69.034218 0.649029 
69.070549 4.083407 
70.065842 0.951392 
70.111031 0.0324 
70.209274 0.026082 
70.71888 0.03074 
71.04985 1.575976 
71.086182 4.102991 
72.045021 0.201321 
72.053207 0.023996 
72.081467 1.58376 
72.469879 0.028532 
72.682167 0.026054 
72.75724 0.02214 
73.065369 0.092064 
73.077599 0.021802 
74.043098 0.026105 
74.060707 1.299528 
74.512611 0.022996 
75.308098 0.033694 
77.88131 0.022995 
78.286652 0.024002 
78.929703 0.022049 
79.021866 1.218375 
79.054817 2.984382 
79.751312 0.021726 
81.034088 0.16507 
81.070457 7.63908 
82.065948 0.042942 
82.073769 0.273237 
83.047157 0.030526 
83.049728 1.840632 
83.080879 0.382527 
83.083763 0.123917 
83.086075 3.08201 
83.903015 0.025782 
83.924782 0.028115 
84.044868 0.109636 
84.081367 1.2461 
84.0895 0.083077 
84.223297 0.027778 
84.487862 0.029893 
84.580124 0.024837 
85.028984 0.784504 
85.040169 0.245431 
85.065346 2.081082 
85.099167 0.025503 
85.101746 1.942574 
85.182556 0.029842 
85.591057 0.032105 
86.060555 0.473381 
86.096985 3.107246 
87.027 0.027507 
87.044586 2.165777 
87.431175 0.031662 
88.03994 0.037949 
88.076225 1.598024 
89.060219 2.711682 
89.821693 0.021378 
90.055382 0.027344 
90.357109 0.039099 
90.528534 0.023324 
90.625664 0.02241 
91.054703 60.815247 
92.058052 0.896771 
92.921989 0.030777 
93.070343 5.880332 
93.206726 0.028322 
94.073677 0.072594 
94.314941 0.033934 
94.546715 0.028083 
94.85762 0.031322 
94.88546 0.028738 
95.049652 1.302849 
95.082703 0.081184 
95.085983 9.43342 
95.657051 0.034398 
95.761726 0.020868 
96.017509 0.034568 
96.044815 0.237394 
96.081131 0.048552 
96.08931 0.503786 
97.000298 0.0303 
97.028709 0.062337 
97.065269 1.98791 
97.101616 2.300023 
98.06044 0.061491 
98.096878 0.093237 
98.975761 4.140442 
99.044525 0.601361 
99.080879 2.525562 
100.076088 2.622308 
100.112427 0.799012 
100.707901 0.028158 
101.003571 0.224264 
101.06012 1.848935 
101.59964 0.021618 
102.055328 0.21215 
102.091507 0.056338 
103.054619 0.498705 
103.244873 0.02311 
103.252724 0.019933 
104.070946 0.832166 
104.852135 0.037745 
105.03392 0.087098 
105.070251 5.295006 
106.073769 0.163747 
106.086594 1.211172 
106.430901 0.029384 
107.049538 1.038732 
107.070816 0.030713 
107.085876 6.480173 
107.952248 0.032092 
108.089081 0.085283 
109.029007 0.070874 
109.065094 1.717155 
109.101479 6.650257 
109.352966 0.031382 
110.06041 0.086515 
110.096611 0.123119 
110.104759 0.309692 
111.044357 2.636751 
111.08075 2.880026 
111.117142 0.256912 
112.075752 0.051184 
113.059952 0.856023 
113.09639 1.198792 
113.107491 0.023314 
115.054619 0.065952 
115.075813 0.031018 
115.087158 0.030347 
116.053139 0.467584 
116.070877 0.304218 
116.986191 5.348938 
117.070114 2.251151 
117.342117 0.040946 
118.086594 0.240922 
119.04953 0.163552 
119.085732 77.87236 
119.1866 0.027887 
119.843964 0.028297 
120.080971 1.437073 
120.089012 1.843459 
121.028542 0.059745 
121.064941 3.047119 
121.101349 5.442704 
121.441849 0.023923 
122.060066 0.104198 
122.080978 0.052099 
122.10466 0.194648 
123.044281 0.336409 
123.080635 2.774851 
123.091743 0.090856 
123.116997 1.640576 
124.039337 0.028105 
124.075684 0.106508 
124.112282 0.026944 
125.039101 0.032983 
125.059853 1.362844 
125.096283 2.413477 
125.176102 0.0289 
126.100052 0.031734 
126.60054 0.024941 
127.039162 0.182079 
127.075516 0.307917 
127.111832 0.026438 
128.038727 0.02746 
128.062775 0.021864 
128.070648 0.032402 
129.018417 0.41974 
129.054718 0.962592 
129.070053 1.091349 
129.090942 0.497632 
130.086136 0.142616 
131.049225 0.780129 
131.085587 3.417455 
131.324997 0.035871 
131.41391 0.026451 
132.088791 0.041001 
132.101807 0.078981 
132.958435 0.10262 
133.064911 0.979036 
133.085663 0.038113 
133.101196 5.736764 
133.197647 0.033125 
133.565689 0.030289 
134.072495 0.031273 
134.096359 0.030971 
134.104538 0.433624 
134.979263 0.025881 
134.996506 5.164652 
135.044052 0.272903 
135.08046 2.523927 
135.116852 4.564611 
135.781754 0.036063 
136.049271 0.058057 
136.075623 0.397467 
136.083939 0.060596 
136.112122 2.447441 
136.120102 0.092559 
137.059738 0.901254 
137.09613 1.87151 
137.132812 0.182783 
137.791656 0.028965 
138.054977 0.213097 
138.091309 0.594359 
138.127655 0.122373 
139.038986 0.172421 
139.075409 2.09404 
139.11174 1.276381 
139.135437 0.414773 
139.538086 0.032118 
140.070435 0.026362 
140.081635 0.569699 
140.143509 0.028238 
141.054611 0.090845 
141.070038 0.134239 
141.09111 0.269922 
141.127365 0.312096 
141.308578 0.036373 
143.070328 0.255264 
143.085541 2.270757 
143.106812 0.032388 
143.818558 0.029613 
144.0802 0.053993 
144.088043 0.03009 
144.12085 0.034031 
145.064911 0.548551 
145.101135 3.561562 
146.059738 0.054028 
146.096756 0.069746 
146.104568 0.147531 
146.117859 0.037011 
146.124863 0.024255 
147.044418 0.038587 
147.08046 1.506279 
147.116837 2.901752 
147.635727 0.027822 
148.048965 0.025298 
148.112015 0.460652 
148.119522 0.055582 
149.012131 0.167004 
149.059738 1.136373 
149.096146 2.279606 
149.132492 1.036626 
150.090973 0.030987 
150.098953 0.097044 
150.968948 0.451484 
151.038773 0.033799 
151.075424 1.097646 
151.096695 0.068649 
151.11174 2.326358 
151.420883 0.028369 
152.070892 0.092772 
152.115173 0.027669 
152.14299 0.027393 
152.989853 0.03049 
153.007095 0.935679 
153.054413 0.229732 
153.090942 2.21874 
153.127365 0.511206 
154.093872 0.026136 
154.122757 0.105262 
154.353241 0.024606 
155.085495 1.603936 
155.106613 0.20566 
156.080841 0.065533 
157.013489 0.056532 
157.065048 0.136987 
157.085495 0.084754 
157.101181 3.018942 
157.340103 0.037207 
158.08075 0.033016 
158.104324 0.178423 
158.117706 0.031806 
159.047028 0.102208 
159.080353 1.256628 
159.11673 2.471321 
160.049347 0.024017 
160.075836 0.121498 
160.083359 0.030689 
160.112259 0.025124 
160.120056 0.108274 
160.461441 0.029116 
160.769821 0.026216 
160.935867 0.030879 
161.059555 0.191587 
161.096039 2.038666 
161.132462 1.408776 
162.091461 0.118143 
162.098846 0.032665 
162.112579 0.253322 
163.038498 0.036798 
163.075241 1.265175 
163.111771 1.288225 
163.148026 0.062634 
164.107117 0.175851 
164.143524 0.029783 
165.054459 0.1788 
165.091049 1.5017 
165.127533 0.181031 
165.413513 0.030223 
166.086349 0.135509 
167.070236 0.184901 
167.085449 0.335152 
167.106689 1.11374 
168.138245 0.665062 
169.101303 2.061309 
169.12233 0.844765 
170.10437 0.038941 
170.117218 0.050192 
170.38295 0.033687 
171.080505 0.596827 
171.116898 2.336119 
171.468765 0.023734 
172.075638 0.15997 
172.112305 0.174834 
172.132751 0.02703 
172.913849 0.096221 
173.059341 0.042032 
173.078506 0.050208 
173.096176 1.540886 
173.117889 0.266736 
173.132416 1.439647 
174.091324 2.422137 
174.098648 0.051891 
174.910339 0.363066 
174.97316 0.036514 
175.075287 0.706511 
175.095856 0.266325 
175.111847 1.600311 
175.1483 0.601431 
176.753708 0.025413 
176.989288 17.877516 
177.01329 0.091195 
177.05748 0.058416 
177.090988 1.130735 
177.127441 0.565545 
177.164261 0.031121 
178.086075 0.116853 
178.123062 0.031281 
179.070511 0.093834 
179.085571 1.722907 
179.106705 0.886741 
179.143204 0.02826 
180.06514 0.063511 
180.089203 0.097317 
180.101852 0.334624 
181.085739 0.138834 
181.101212 2.948754 
181.122406 0.203133 
181.158936 0.024587 
182.080994 0.064911 
182.104538 0.107874 
182.452866 0.036346 
183.080383 0.213088 
183.116852 3.175639 
184.075897 0.751404 
184.098129 0.033678 
184.120346 0.289695 
185.079987 0.130856 
185.096222 1.560046 
185.117249 0.090245 
185.132492 1.896636 
186.091278 0.104733 
186.135788 0.054497 
186.148849 2.456852 
187.075333 0.657901 
187.111877 1.380843 
187.1483 0.77744 
188.069 0.114689 
188.106674 0.029278 
188.115402 0.063581 
188.152054 0.030848 
189.09111 0.857081 
189.111877 0.321349 
189.127625 0.699219 
189.163834 0.108115 
189.653992 0.023048 
189.925873 0.096307 
190.050034 0.034076 
190.92421 0.467192 
191.069595 0.101248 
191.106659 0.918347 
191.143265 0.085783 
191.179092 0.030324 
191.92308 1.902493 
191.963913 0.098205 
191.97171 2.712082 
191.980774 0.051729 
192.101898 0.037526 
192.88826 0.035834 
192.920792 1.823368 
192.951645 0.057411 
192.961639 6.894892 
192.977371 0.043763 
193.101227 2.691535 
193.122559 0.593945 
193.964005 0.126669 
194.104599 0.214931 
194.922287 0.035282 
194.957611 0.041491 
194.977188 0.031772 
194.999832 54.125336 
195.080322 0.648575 
195.101242 0.073005 
195.116791 3.380991 
196.085922 0.034784 
196.120514 0.347345 
196.132812 0.041615 
197.096222 1.553313 
197.132492 2.834813 
198.075882 0.057433 
198.136368 0.210079 
199.075195 0.144449 
199.111694 1.561195 
199.148193 1.382079 
199.382584 0.037635 
200.070602 0.031667 
200.125336 0.112456 
201.07338 0.158892 
201.091217 0.922873 
201.127441 1.978224 
201.163879 0.290015 
202.086258 0.121891 
203.029129 0.205916 
203.070206 0.060848 
203.106537 1.433517 
203.142792 0.314765 
203.957535 0.032544 
204.664856 0.02914 
205.044739 0.036059 
205.085953 0.072171 
205.100906 0.052075 
205.122391 1.194504 
205.15889 0.046009 
205.987656 0.044494 
206.080338 0.029928 
206.116943 0.062384 
206.977859 0.110462 
207.101028 0.065239 
207.116684 0.514201 
207.138153 0.066379 
209.015488 1.697865 
209.096191 1.817614 
209.132446 1.75889 
209.933517 0.322045 
209.964539 0.038112 
209.974136 1.256528 
209.982956 0.451113 
210.101471 0.076849 
210.136337 0.212728 
210.185379 0.055669 
210.89856 0.115302 
210.97226 5.474261 
211.07579 0.067216 
211.111588 2.524761 
211.136749 0.044706 
211.148041 2.577235 
211.973007 0.129223 
212.115677 0.02634 
212.151932 0.176645 
212.200592 0.434314 
212.237213 11.434364 
213.010361 7.317794 
213.091019 0.417488 
213.127411 1.726369 
213.148361 0.12286 
213.163727 1.428784 
213.24086 0.128912 
214.167252 0.113112 
214.252945 1.219308 
214.893341 0.611358 
214.899063 0.615483 
214.911469 0.939397 
214.922241 0.275355 
215.106705 0.856771 
215.143112 0.673659 
215.179657 0.0357 
216.064056 0.115098 
216.07724 0.031294 
216.102264 0.033707 
216.138199 0.045851 
216.775665 0.027401 
217.085083 0.390392 
217.122421 0.907202 
217.158569 0.030037 
218.08049 0.033277 
219.101257 0.329635 
219.137787 0.30719 
219.174118 0.392187 
220.057632 0.12049 
220.094864 0.062804 
220.133255 0.719467 
220.557617 0.025241 
221.096115 0.272195 
221.132584 0.869551 
221.153351 0.0464 
222.134903 0.040249 
223.111679 2.325071 
223.147903 1.066819 
224.115799 0.122017 
225.091019 1.170578 
225.127365 2.077673 
225.163635 0.518789 
226.216461 1.170978 
227.106598 1.670218 
227.14299 1.016126 
227.17952 1.360008 
228.159332 0.32339 
228.183105 0.119368 
228.910095 0.040183 
229.068558 0.029737 
229.085648 0.043731 
229.095032 0.474657 
229.122269 1.322126 
229.15889 0.307325 
229.195099 1.521395 
230.198441 0.197771 
231.100784 0.373427 
231.137817 0.572607 
231.174423 1.554131 
232.095551 0.029288 
232.13295 0.030238 
233.095566 0.070782 
233.117737 0.081056 
233.153595 0.191497 
234.899017 0.119999 
235.111404 0.270292 
235.133514 0.078919 
237.090973 0.979795 
237.127319 1.406784 
237.163803 3.052232 
238.133545 0.333332 
238.167267 0.943335 
239.106522 2.207003 
239.143051 4.217423 
239.179321 5.267679 
240.113022 0.030506 
240.148148 0.662834 
240.1828 0.923027 
240.268524 44.857685 
241.085464 0.144123 
241.122009 1.975904 
241.1586 0.691864 
241.195175 1.270754 
241.271988 1.47382 
242.048386 0.02277 
242.092422 0.023815 
243.101273 0.360653 
243.138092 0.666879 
243.174316 0.03531 
244.132401 0.032567 
245.083664 0.038448 
245.116974 0.209774 
245.153183 0.134084 
245.190201 0.24081 
247.131439 0.031028 
247.168716 0.119717 
248.127838 0.11649 
249.126785 0.038731 
249.148941 0.109475 
249.163284 0.03437 
249.184769 2.504233 
249.991592 0.035862 
250.188446 0.129652 
251.106628 2.675307 
251.142609 0.428876 
251.164078 0.104439 
251.924774 0.035047 
251.975113 3.579695 
252.110321 0.069863 
252.123749 0.094185 
252.949783 0.907387 
252.978424 0.084479 
252.991165 0.032848 
253.086197 0.08743 
253.122131 1.816262 
253.158524 0.201745 
253.429367 0.039501 
254.153168 0.142564 
255.101639 0.703544 
255.137955 1.78069 
255.174149 4.813074 
256.096466 0.083527 
256.142273 0.164785 
256.177765 1.752445 
257.116241 0.229956 
257.153442 1.01844 
257.190033 2.410137 
258.113525 0.027945 
258.131958 0.023529 
258.193726 0.187143 
259.099487 0.026792 
259.132721 0.154421 
259.168701 0.388269 
261.14859 0.075557 
265.122345 0.178179 
265.158142 0.965919 
266.11731 0.453851 
266.161957 0.16749 
267.101379 0.146316 
267.122131 0.068167 
267.137482 2.318069 
267.174347 1.592802 
268.13028 0.031739 
268.177795 0.035883 
268.263428 3.431647 
269.117065 3.310323 
269.15271 0.688149 
269.18988 0.299261 
269.266907 0.571557 
269.977783 0.324872 
270.148834 0.174087 
270.278778 1.180579 
271.085083 0.434879 
271.096649 0.0808 
271.132141 0.343616 
271.168457 0.776219 
271.205078 0.074847 
272.128479 0.239798 
272.164215 0.170867 
273.12204 0.191442 
273.147614 0.038005 
273.184662 1.161571 
274.106903 0.113918 
274.188782 0.218259 
274.914734 0.034531 
275.109741 0.030789 
275.125153 0.027697 
275.163544 0.040669 
275.200317 0.068049 
276.909607 1.25143 
277.179413 0.176304 
277.215912 0.038925 
277.820251 0.027933 
279.101532 2.643256 
281.117096 0.047479 
283.132141 0.127083 
283.169159 6.381318 
284.129272 0.046312 
284.172607 2.71546 
285.095856 0.030924 
285.13092 0.025967 
285.147461 2.247168 
285.184937 4.814221 
285.201172 0.039477 
285.816437 0.043867 
286.143768 0.147404 
286.186249 0.303492 
287.127106 0.186287 
287.162781 0.354727 
287.200348 0.495577 
289.095673 0.348265 
295.132538 0.301833 
295.169464 0.163506 
295.206299 0.03542 
296.128937 0.0668 
297.111755 1.53539 
297.14978 0.038177 
297.185089 0.182228 
298.107361 0.385781 
298.143951 0.039949 
298.479553 0.025139 
299.123627 0.028387 
299.144226 0.0287 
300.087006 0.037554 
300.122437 0.127305 
300.159271 0.027161 
301.139069 0.261227 
301.179565 1.042388 
302.138519 0.479527 
302.183044 0.149827 
302.210999 0.028834 
303.195129 0.28445 
305.146454 0.33643 
309.594971 0.036636 
310.843475 0.232686 
311.163849 0.440861 
311.198578 0.037757 
312.123291 0.215226 
312.160065 0.170736 
312.195099 0.071888 
312.288757 0.099568 
312.325867 0.550886 
312.838776 1.260363 
313.141418 0.415615 
313.179169 0.97219 
313.216736 0.071139 
314.118378 0.031099 
314.138092 0.924757 
314.175354 0.598335 
314.211548 0.312198 
314.305176 0.700479 
315.121887 0.196275 
315.195038 0.38099 
325.830719 0.066662 
327.343048 0.02306 
327.826111 0.395423 
329.115875 0.075324 
329.135315 0.665082 
329.154297 0.411545 
329.17337 3.955971 
329.19278 2.615868 
329.210175 1.220916 
329.228668 5.415646 
329.25354 0.133679 
329.323639 0.056779 
330.13446 3.993405 
330.171173 2.873572 
330.206146 1.688852 
330.240326 1.711619 
330.279755 2.852693 
330.298218 0.630511 
330.31543 1.727277 
330.336578 3.34262 
331.080475 0.31029 
331.114716 2.566868 
331.132019 1.818763 
331.151794 7.517234 
331.170715 2.776049 
331.189178 4.449328 
331.208679 62.052967 
331.244446 0.287776 
331.281982 0.083402 
331.319092 0.19229 
331.339142 0.423238 
332.113495 0.46622 
332.149658 2.913407 
332.186035 2.539192 
332.213135 9.388431 
332.258026 3.421335 
332.293854 1.71401 
332.331299 100.0 
333.112885 2.16519 
333.13028 0.608283 
333.150604 2.215171 
333.167358 9.954772 
333.186768 2.759869 
333.205322 0.879071 
333.290802 0.147235 
333.334503 5.763727 
336.839966 0.243183 
347.972717 0.03517 
350.946442 0.049689 
END IONS

