BEGIN IONS
PEPMASS=599.341
CHARGE=1+
COMPOUNDNAME=deferrioxamine E
LIBRARYQUALITY=3
SMILES=N/A
INCHIKEY=NHKCCADZVLTPPO-UHFFFAOYSA-N
INCHI=InChI=1S/C27H48N6O9/c34-22-10-14-26(38)32(41)20-8-3-6-18-30-24(36)12-15-27(39)33(42)21-9-2-5-17-29-23(35)11-13-25(37)31(40)19-7-1-4-16-28-22/h40-42H,1-21H2,(H,28,34)(H,29,35)(H,30,36)
MSLEVEL=2
SOURCE_INSTRUMENT=N/A-ESI-QFT
FILENAME=library_mgf.mgf
SEQ=*..*
IONMODE=negative
ORGANISM=MONA
NAME=deferrioxamine E [M-H]-
PI=MoNA
DATACOLLECTOR=MoNA:VF-NPL-QEHF004053
PUBMED=N/A
SUBMITUSER=mwang87
TAGS=
SPECTRUMID=CCMSLIB00004695116
SCANS=4053
50.162144 0.051394 
50.379711 0.050514 
51.052967 0.062925 
51.596767 0.069029 
51.938499 0.050231 
52.134811 0.040113 
52.283901 0.054692 
52.555145 0.058548 
54.007793 0.062733 
54.857693 0.058718 
54.872055 0.066293 
55.017597 1.869131 
55.101295 0.052303 
55.843723 0.03442 
56.111008 0.057649 
57.408485 0.031291 
57.514992 0.032294 
57.784286 0.059413 
58.0285 2.63335 
58.048286 0.055662 
58.293945 0.060745 
58.296597 0.055217 
58.4179 0.027983 
58.608322 0.05184 
59.012531 0.972154 
59.679874 0.057805 
59.926231 0.036102 
60.221973 0.059566 
60.587116 0.031485 
60.933292 0.054875 
61.043259 0.063285 
61.398952 0.095533 
62.584892 0.050218 
62.734539 0.066998 
63.046799 0.054178 
63.06303 0.056579 
63.193306 0.067601 
64.013702 0.065137 
64.602631 0.061792 
64.967064 0.06958 
66.033539 0.04891 
66.108749 0.053627 
67.262619 0.030514 
67.354767 0.034963 
67.385422 0.060418 
68.049278 0.321226 
68.420937 0.0535 
69.444603 0.062928 
69.561638 0.042862 
70.028496 7.34726 
70.500809 0.052646 
71.012505 4.09009 
71.049004 0.18609 
71.79467 0.057407 
72.044159 7.034776 
72.234093 0.081529 
72.23597 0.036383 
73.831917 0.056122 
74.624321 0.050757 
74.98838 0.052429 
75.001213 0.07228 
76.04895 0.042774 
76.260826 0.064399 
76.35482 0.068458 
77.057457 0.054742 
77.426292 0.054125 
77.865295 0.052565 
78.38282 0.052031 
78.948097 0.058159 
79.789268 0.050919 
81.612228 0.050513 
81.729988 0.038808 
82.028534 9.389391 
82.064568 0.060942 
82.473267 0.029647 
83.012642 0.034219 
83.905472 0.066162 
84.071953 0.063807 
84.697861 0.045271 
85.923759 0.059988 
86.263603 0.048629 
86.273903 0.047685 
86.803787 0.040947 
87.76075 0.046109 
88.035324 0.050044 
88.064651 0.044711 
88.427155 0.029968 
89.21389 0.059567 
90.79908 0.043592 
91.323402 0.06395 
91.455399 0.05489 
92.519669 0.058662 
93.229546 0.056293 
93.331451 0.058344 
94.018181 0.06188 
94.776596 0.055262 
96.749092 0.046459 
97.039421 0.11209 
97.075798 0.315226 
98.023483 100.0 
98.041443 0.209702 
98.059845 0.528678 
98.139297 0.033013 
99.007561 1.95146 
99.026848 3.443905 
100.039215 0.318441 
100.705353 0.056473 
101.080231 0.034037 
103.12442 0.061306 
103.641655 0.058997 
104.200188 0.051408 
104.65921 0.064435 
107.036674 0.058719 
107.061104 0.049402 
107.157166 0.07155 
110.023682 0.195382 
111.32309 0.046838 
114.323006 0.035102 
114.681396 0.062979 
114.993233 0.046116 
116.012886 0.052918 
118.140373 0.064542 
120.515839 0.058112 
122.605545 0.063055 
122.703239 0.029878 
123.45903 0.064897 
124.039307 0.045629 
124.143181 0.055928 
125.070564 0.052645 
125.141121 0.031068 
125.732498 0.064087 
126.091377 1.127102 
127.109184 0.05242 
127.592972 0.069132 
127.982353 0.053949 
128.107239 0.142267 
129.394928 0.078536 
132.058563 0.053445 
132.302795 0.065081 
134.060028 0.16934 
135.091888 0.168292 
136.075775 6.962387 
136.976639 0.040365 
137.148224 0.072956 
141.67691 0.057052 
142.049896 0.22479 
142.147736 0.053578 
142.360886 0.061241 
151.086685 5.708241 
153.102417 4.873414 
154.105728 0.038404 
154.529678 0.04953 
155.06636 0.079404 
155.118042 1.784463 
155.348053 0.058804 
160.754013 0.047849 
161.071075 2.613792 
161.951294 0.063506 
162.043137 0.057314 
162.337646 0.033785 
163.086777 3.936122 
164.908997 0.064581 
165.101746 0.036594 
166.086929 0.047004 
166.314423 0.052101 
167.027023 0.053419 
167.711304 0.056803 
169.139801 0.044514 
170.215027 0.042439 
172.396347 0.05666 
173.137253 0.044031 
175.469284 0.073089 
176.487671 0.032892 
179.081879 0.970589 
179.662827 0.031228 
180.618195 0.058828 
181.097473 3.751905 
183.113342 0.454904 
185.36647 0.06436 
186.072693 0.060581 
189.662827 0.061332 
190.399948 0.050456 
196.05455 0.063924 
197.635254 0.046319 
206.509796 0.031453 
208.559616 0.053149 
211.661209 0.064602 
212.123093 0.056194 
212.291016 0.051442 
213.816467 0.057121 
220.097687 0.210354 
220.112381 0.403849 
220.12204 0.396574 
223.683121 0.051754 
226.665787 0.065302 
228.03685 0.059949 
230.410187 0.066375 
231.639862 0.060311 
236.21698 0.035622 
236.73584 0.032536 
239.72258 0.06379 
240.359741 0.058327 
241.390182 0.052558 
253.85675 0.055155 
272.532379 0.032828 
278.403107 0.055734 
281.775452 0.078133 
282.307037 0.059572 
301.072784 0.066833 
301.17334 0.080386 
319.400635 0.095571 
342.222351 0.066425 
343.121674 0.064959 
343.520874 0.05605 
345.93103 0.062674 
348.808502 0.063735 
349.754242 0.065195 
357.341431 0.063295 
364.314392 0.048177 
372.121643 0.070735 
380.102661 0.038892 
408.089874 0.048628 
437.342957 0.046557 
441.866119 0.03408 
446.437592 0.030932 
449.244537 0.063779 
462.275757 0.075415 
463.937927 0.064984 
471.562469 0.040103 
482.378296 0.056575 
485.683594 0.066157 
486.336487 0.065469 
511.648499 0.050634 
553.977661 0.077664 
555.217224 0.042536 
557.664062 0.065215 
607.234741 0.056189 
END IONS

