BEGIN IONS
PEPMASS=266.09
CHARGE=1+
COMPOUNDNAME=Adenosine
LIBRARYQUALITY=3
SMILES=N/A
INCHIKEY=OIRDTQYFTABQOQ-KQYNXXCUSA-N
INCHI=InChI=1S/C10H13N5O4/c11-8-5-9(13-2-12-8)15(3-14-5)10-7(18)6(17)4(1-16)19-10/h2-4,6-7,10,16-18H,1H2,(H2,11,12,13)/t4-,6-,7-,10-/m1/s1
MSLEVEL=2
SOURCE_INSTRUMENT=N/A-ESI-QTOF
FILENAME=library_mgf.mgf
SEQ=*..*
IONMODE=negative
ORGANISM=MONA
NAME=Adenosine [M-H]-
PI=MoNA
DATACOLLECTOR=MoNA:VF-NPL-QTOF002037
PUBMED=N/A
SUBMITUSER=mwang87
TAGS=
SPECTRUMID=CCMSLIB00004719818
SCANS=2034
64.831902 0.121167 
65.0112 0.126763 
92.0149 0.270287 
92.020599 1.139615 
107.031197 2.767022 
107.040398 0.162381 
107.082298 0.19515 
107.123299 0.150129 
119.037399 0.170003 
129.8228 0.121519 
134.041107 100.0 
134.119202 1.151559 
134.130402 0.840266 
134.140793 1.029419 
134.166306 1.064754 
134.179596 0.57074 
134.1978 0.305894 
134.208298 0.474625 
134.218002 0.87627 
134.233398 0.467775 
134.254593 0.446509 
134.267593 0.313516 
134.281097 0.546816 
134.294998 0.207684 
134.306793 0.372357 
134.323196 0.274912 
134.337494 0.326999 
134.348999 0.440763 
134.359604 0.287908 
134.379593 0.167091 
134.404007 0.217344 
134.411499 0.268057 
134.425095 0.253013 
134.436798 0.289146 
134.456406 0.270003 
134.486206 0.351586 
134.508698 0.277189 
134.514694 0.164948 
134.531494 0.155801 
134.556305 0.132811 
134.563293 0.243825 
134.571899 0.14306 
134.596893 0.233993 
134.622894 0.174633 
134.632904 0.142445 
134.655807 0.307426 
134.688507 0.149181 
134.727295 0.243845 
134.749802 0.262095 
134.800003 0.127074 
134.813507 0.22242 
134.8302 0.179212 
134.843002 0.177269 
134.878693 0.120255 
134.889999 0.151283 
134.934799 0.145503 
134.961899 0.145741 
134.994904 0.132584 
135.005798 0.145397 
135.029999 0.216571 
135.038406 0.219078 
135.045593 0.156139 
135.076401 0.145594 
135.185501 0.196603 
135.213303 0.221823 
135.291794 0.13458 
135.323593 0.122676 
135.367203 0.142636 
135.471207 0.156236 
135.485794 0.14439 
135.612305 0.130961 
135.6259 0.137952 
135.864502 0.139768 
137.016907 0.153315 
141.226807 0.140713 
148.051193 0.23333 
164.916595 0.186278 
221.971497 0.220277 
266.079712 0.945178 
266.121002 0.179497 
401.343414 0.133438 
629.135925 0.12019 
681.577515 0.15433 
813.975586 0.159132 
906.7276 0.120038 
952.899292 0.136795 
980.749512 0.146977 
1050.617554 0.123737 
1184.27002 0.122427 
1203.616455 0.140806 
1300.148438 0.128125 
1316.401489 0.144504 
1332.831909 0.125453 
1364.000366 0.144643 
1421.458862 0.142046 
1455.041504 0.1358 
1477.026489 0.122662 
1483.225342 0.137051 
1671.135742 0.122737 
END IONS

