BEGIN IONS
PEPMASS=276.171
CHARGE=1+
COMPOUNDNAME=Massbank:BML00357 Eserine
LIBRARYQUALITY=3
SMILES=CC12CCN(C1N(C3=C2C=C(C=C3)OC(=O)NC)C)C
INCHIKEY=PIJVFDBKTWXHHD-UHFFFAOYSA-N
INCHI=1S/C15H21N3O2/c1-15-7-8-17(3)13(15)18(4)12-6-5-10(9-11(12)15)20-14(19)16-2/h5-6,9,13H,7-8H2,1-4H3,(H,16,19)
MSLEVEL=2
SOURCE_INSTRUMENT=ESI-LC-ESI-QTOF
FILENAME=Massbank_ESI_positive_8_1_2014_peaks.mgf
SEQ=*..*
IONMODE=Positive
ORGANISM=MASSBANK
NAME=Massbank:BML00357 Eserine [M+H]+
PI=Putative Massbank Match
DATACOLLECTOR=Massbank
PUBMED=N/A
SUBMITUSER=mwang87
TAGS=
SPECTRUMID=CCMSLIB00000204887
SCANS=147
146.0576 31.0 
147.0627 54.0 
160.0715 25.0 
161.0808 44.0 
162.0896 1041.0 
162.1255 29.0 
176.1056 180.0 
188.1021 37.0 
188.1128 24.0 
219.114 36.0 
END IONS

