BEGIN IONS
PEPMASS=140.0
CHARGE=1+
COMPOUNDNAME=MoNA:2483539 Specitinomycin
LIBRARYQUALITY=3
SMILES=N/A
INCHIKEY=UNFWWIHTNXNPBV-WXKVUWSESA-N
INCHI=InChI=1S/C14H24N2O7/c1-5-4-6(17)14(20)13(21-5)22-12-10(19)7(15-2)9(18)8(16-3)11(12)23-14/h5,7-13,15-16,18-20H,4H2,1-3H3/t5-,7-,8+,9+,10+,11-,12-,13+,14+/m1/s1
MSLEVEL=2
SOURCE_INSTRUMENT=LC-ESI-IT-LC-ESI-IT
FILENAME=output_mgf.mgf
SEQ=*..*
IONMODE=
ORGANISM=MONA
NAME=MoNA:2483539 Specitinomycin [M+H]+
PI=MoNA
DATACOLLECTOR=MoNA
PUBMED=N/A
SUBMITUSER=mwang87
TAGS=
SPECTRUMID=CCMSLIB00000567380
SCANS=4631
71.2 2.130165 
81.0 9.890816 
83.1 5.512738 
84.2 6.765147 
93.1 6.497538 
94.2 5.609077 
95.0 8.745451 
96.1 3.832156 
97.1 8.552772 
98.0 12.202954 
109.0 2.494113 
111.0 3.660886 
112.1 100.0 
122.0 70.884179 
122.9 2.761721 
140.0 23.603083 
141.0 46.349818 
157.9 12.620424 
160.4 1.05973 
END IONS

