BEGIN IONS
PEPMASS=339.086
CHARGE=1+
COMPOUNDNAME=rabelomycin
LIBRARYQUALITY=3
SMILES=N/A
INCHIKEY=JJOLHRYZQSDLSA-UHFFFAOYSA-N
INCHI=InChI=1S/C19H14O6/c1-19(25)6-8-5-11(21)15-16(13(8)12(22)7-19)17(23)9-3-2-4-10(20)14(9)18(15)24/h2-5,20-21,25H,6-7H2,1H3
MSLEVEL=2
SOURCE_INSTRUMENT=N/A-ESI-QFT
FILENAME=library_mgf.mgf
SEQ=*..*
IONMODE=positive
ORGANISM=MONA
NAME=rabelomycin [M+H]+
PI=MoNA
DATACOLLECTOR=MoNA:VF-NPL-QEHF000947
PUBMED=N/A
SUBMITUSER=mwang87
TAGS=
SPECTRUMID=CCMSLIB00004692010
SCANS=947
50.360069 0.059128 
50.520248 0.036618 
50.71986 0.028754 
51.25309 0.039104 
51.357616 0.039341 
51.735203 0.042726 
52.203053 0.042052 
52.933193 0.031013 
53.881165 0.038227 
55.055035 0.041679 
55.752487 0.044874 
55.860203 0.049624 
55.977318 0.037826 
56.808842 0.0394 
57.034145 0.032831 
57.070541 0.261171 
57.795155 0.037754 
57.835529 0.039569 
58.208286 0.029614 
59.049969 0.051978 
59.061016 0.293344 
59.795242 0.031051 
60.299343 0.038238 
60.63792 0.040811 
60.918186 0.055388 
61.011345 0.065763 
61.86586 0.069832 
62.119427 0.104206 
63.321194 0.039632 
64.092178 0.032578 
64.479836 0.045663 
65.00238 0.050544 
66.106277 0.029866 
66.650734 0.064044 
66.862419 0.063069 
67.054855 0.10441 
67.264687 0.10547 
67.735718 0.03829 
67.757896 0.037973 
68.288994 0.0344 
68.47258 0.055202 
69.070648 0.239192 
70.208641 0.031618 
70.857704 0.035592 
70.988228 0.034327 
71.389946 0.044837 
72.267281 0.036941 
72.445671 0.045336 
72.910706 0.046565 
72.927567 0.060793 
73.047455 0.555723 
73.636574 0.063574 
75.060783 0.035028 
75.240211 0.041867 
76.100159 0.036889 
76.83757 0.093177 
76.860001 0.090953 
76.863182 0.097829 
79.021469 0.039599 
81.070396 0.219559 
81.439507 0.033814 
83.085876 0.052555 
83.951859 0.047779 
83.95668 0.068852 
84.081055 0.114949 
84.7911 0.038382 
85.064835 0.040164 
85.173462 0.061071 
87.044632 0.153997 
89.060135 0.320657 
89.970428 0.078198 
90.490753 0.038892 
91.057808 0.272875 
93.07032 0.062368 
94.392326 0.041226 
95.085983 0.09654 
95.28196 0.051827 
97.101532 0.053423 
100.463402 0.036388 
101.950172 1.282367 
102.091698 0.071724 
103.039162 0.138787 
103.63903 0.05398 
104.985634 0.096863 
105.070328 0.056513 
105.662888 0.102888 
105.792908 0.079667 
107.085564 0.078806 
107.810829 0.05799 
111.74025 0.040377 
118.092178 0.044582 
118.969162 0.056622 
119.085571 0.048998 
119.96035 0.055489 
120.895027 0.039136 
121.028587 0.585937 
122.831528 0.04056 
125.924179 0.0389 
127.123077 0.034817 
129.069901 0.296018 
129.380585 0.071502 
130.002914 0.033081 
130.515396 0.044168 
134.956024 0.060798 
135.774536 0.068295 
136.606552 0.040769 
140.653015 0.033885 
141.248886 0.030982 
142.914825 0.045509 
143.117798 0.036665 
143.305374 0.046764 
145.829163 0.048892 
146.380875 0.042644 
147.029434 0.042781 
147.080414 0.186561 
147.396484 0.071371 
148.166687 0.042999 
149.02301 0.438124 
152.939667 0.043728 
154.686096 0.039724 
156.015533 0.099605 
157.076157 0.152725 
159.205948 0.065935 
160.677567 0.064732 
161.791016 0.063757 
162.867203 0.047805 
163.997131 0.054138 
164.265594 0.072704 
165.860825 0.048259 
169.967743 0.071853 
170.191284 0.048819 
170.97673 0.072005 
171.067719 0.111725 
172.896484 0.068184 
173.059509 0.620878 
173.078308 0.261003 
179.963837 0.448782 
180.393112 0.050921 
180.571594 0.031808 
181.959747 0.079744 
182.366104 0.041595 
182.622757 0.035974 
184.993988 0.07039 
188.262299 0.039294 
189.69928 0.046594 
195.178253 0.074186 
195.796021 0.035756 
196.973923 0.043691 
197.97403 0.983358 
199.039261 0.106629 
199.96991 0.288748 
200.974701 0.033722 
201.967331 0.117526 
202.086166 3.630467 
204.8022 0.102361 
206.109863 0.037513 
214.799606 1.423081 
214.80986 0.918299 
218.009171 0.045046 
219.080322 0.707355 
221.095596 0.077486 
221.323181 0.05068 
221.543671 0.046687 
223.075623 0.119352 
224.62413 0.061963 
225.054459 0.056519 
225.440002 0.054952 
227.070099 0.070748 
228.683975 0.047333 
229.324478 0.039196 
231.078644 0.047205 
236.185684 0.038671 
237.053772 0.048017 
237.090652 2.18214 
238.682922 0.051912 
245.057831 0.040766 
247.012421 0.053436 
247.075043 6.692691 
247.105652 0.052631 
248.078674 0.605525 
249.090897 0.045325 
249.559143 0.042327 
250.062119 0.813728 
251.069946 5.972741 
252.041245 0.04456 
252.073883 0.381123 
253.04921 0.777551 
254.056778 1.537844 
254.947632 0.044324 
255.064774 61.043236 
255.080444 0.745162 
256.06839 9.791855 
257.071136 0.098421 
258.110626 0.044259 
265.049316 0.284801 
265.08551 9.001983 
265.939545 0.08859 
266.088959 1.257588 
266.480316 0.04442 
268.229645 0.036346 
269.080536 0.404568 
275.070007 12.509968 
276.073853 2.653451 
277.049988 0.049844 
277.084991 0.572134 
278.057068 7.444632 
279.064758 35.575195 
279.387177 0.036127 
279.626648 0.04716 
280.068329 6.727423 
284.158722 0.068082 
291.06488 0.753825 
292.070953 0.246706 
292.364014 0.071521 
293.050598 0.149476 
293.080414 97.352394 
294.08371 18.803963 
295.085236 0.607429 
295.094574 0.349738 
296.127777 0.050768 
297.075378 95.428955 
298.078766 17.689985 
299.081299 1.048769 
303.064697 8.064289 
304.099579 0.083733 
305.079132 0.097723 
306.051819 1.351081 
308.961548 0.048221 
312.692566 0.044151 
316.530182 0.037475 
317.690887 0.033862 
321.075287 100.0 
322.078705 20.622866 
323.080841 1.490022 
323.810516 0.033579 
324.122681 2.383896 
325.128082 0.092091 
327.680389 0.093348 
332.825287 0.075592 
337.897949 0.044959 
340.153961 2.17152 
340.393097 0.77458 
353.594818 0.043651 
356.17572 0.048153 
END IONS

