BEGIN IONS
PEPMASS=639.172
CHARGE=1+
COMPOUNDNAME=3-{[(2S,3R,4S,5R,6R)-3-{[(2S,3S,4R,5R,6S)-3,5-dihydroxy-4-methoxy-6-methyloxan-2-yl]oxy}-4,5-dihydroxy-6-methyloxan-2-yl]oxy}-8-hydroxy-15-methyl-11,18-dioxapentacyclo[10.6.2.0�,?.0?,�?.0�?,�?]icosa-1,3,5,7,9(19),12(20),13,15-octaene-10,17-dione
LIBRARYQUALITY=3
SMILES=N/A
INCHIKEY=PONPPNYZKHNPKZ-BAHCCNBTSA-N
INCHI=InChI=1S/C32H32O14/c1-10-8-9-15-18-16(10)29(38)45-26-17-13(23(35)20(19(18)26)30(39)43-15)6-5-7-14(17)44-32-28(24(36)21(33)11(2)42-32)46-31-25(37)27(40-4)22(34)12(3)41-31/h5-9,11-12,21-22,24-25,27-28,31-37H,1-4H3/t11-,12+,21+,22-,24+,25+,27-,28-,31+,32+/m1/s1
MSLEVEL=2
SOURCE_INSTRUMENT=N/A-ESI-QFT
FILENAME=library_mgf.mgf
SEQ=*..*
IONMODE=negative
ORGANISM=MONA
NAME=3-{[(2S,3R,4S,5R,6R)-3-{[(2S,3S,4R,5R,6S)-3,5-dihydroxy-4-methoxy-6-methyloxan-2-yl]oxy}-4,5-dihydroxy-6-methyloxan-2-yl]oxy}-8-hydroxy-15-methyl-11,18-dioxapentacyclo[10.6.2.0�,?.0?,�?.0�?,�?]icosa-1,3,5,7,9(19),12(20),13,15-octaene-10,17-dione [M-H]-
PI=MoNA
DATACOLLECTOR=MoNA:VF-NPL-QEHF001567
PUBMED=N/A
SUBMITUSER=mwang87
TAGS=
SPECTRUMID=CCMSLIB00004692630
SCANS=1567
50.272659 0.005919 
50.35585 0.005398 
50.640179 0.004368 
51.249298 0.003633 
52.003052 0.004569 
52.435806 0.003018 
53.205132 0.003631 
53.21888 0.002436 
53.444736 0.005978 
53.723324 0.004564 
53.878624 0.00566 
54.081844 0.005342 
54.723755 0.005052 
55.326408 0.003366 
55.405354 0.004341 
55.95676 0.003401 
56.352196 0.003287 
56.866871 0.004057 
57.564365 0.005211 
58.260441 0.005931 
59.134636 0.002588 
59.192375 0.002626 
59.968948 0.005755 
60.151165 0.006338 
60.204445 0.002506 
60.637409 0.00282 
61.180042 0.002506 
61.414986 0.002531 
61.513531 0.004661 
61.749554 0.006134 
61.792133 0.00401 
61.877045 0.002604 
61.986961 0.045341 
62.127399 0.005389 
62.305405 0.002387 
62.714046 0.005015 
62.963005 0.002581 
63.226967 0.004013 
63.389782 0.002456 
64.538353 0.005374 
65.142143 0.003179 
65.345871 0.005096 
65.388229 0.00541 
65.464806 0.005613 
65.935181 0.004955 
66.627068 0.006709 
66.87587 0.003547 
67.009964 0.003371 
67.493538 0.004691 
67.625298 0.003506 
68.243004 0.006127 
68.62632 0.007134 
68.784889 0.00424 
69.356102 0.004395 
69.618324 0.003931 
70.375656 0.002738 
70.833008 0.003134 
70.847809 0.005572 
70.886986 0.003101 
70.90831 0.004899 
71.043243 0.005339 
71.414299 0.005165 
71.73188 0.00608 
71.969803 0.00504 
72.757225 0.002677 
73.057503 0.005026 
73.387375 0.005721 
73.468361 0.002793 
74.062019 0.006987 
74.308502 0.005508 
74.452599 0.005911 
74.756248 0.002911 
75.15271 0.005394 
76.500893 0.004331 
77.557739 0.00513 
77.79361 0.004815 
77.796104 0.00576 
78.370964 0.002806 
79.469872 0.006176 
79.556877 0.003808 
79.955978 0.01445 
80.622391 0.004488 
80.938736 0.004004 
81.249687 0.004136 
81.457024 0.005794 
81.858009 0.005753 
82.163689 0.002356 
82.246056 0.003793 
82.883965 0.002742 
83.132988 0.00571 
84.201363 0.00398 
84.892174 0.00516 
85.028107 0.006791 
85.778275 0.006251 
86.178131 0.002509 
86.517593 0.005454 
86.976112 0.005661 
87.757629 0.003927 
87.862 0.003296 
88.014351 0.004151 
88.545677 0.006961 
90.516197 0.002919 
90.665634 0.002944 
90.992836 0.002723 
92.158752 0.004779 
92.73616 0.004927 
93.791267 0.002673 
94.917305 0.002859 
94.979507 0.440311 
95.785706 0.00583 
96.604111 0.004985 
96.958809 0.788693 
96.975609 0.004515 
97.045807 0.002803 
97.367973 0.004093 
98.241409 0.005466 
99.388412 0.005765 
100.700142 0.00289 
102.120331 0.002416 
104.741188 0.005012 
106.936722 0.003996 
110.801987 0.006173 
110.974464 0.164314 
112.422523 0.005462 
112.957474 0.005122 
113.641418 0.005033 
116.141579 0.002666 
121.835663 0.005247 
123.02993 0.002638 
123.877785 0.005948 
125.39341 0.004526 
127.003304 0.002927 
127.03875 0.014042 
128.658844 0.00242 
128.981461 0.006353 
129.123993 0.006623 
129.169632 0.002895 
130.014633 0.0044 
130.360046 0.002442 
130.485825 0.003276 
131.702271 0.007269 
133.637756 0.003223 
134.334915 0.005803 
134.66301 0.008685 
134.850403 0.002592 
136.925171 0.006197 
139.525955 0.004272 
140.097397 0.007208 
144.232498 0.003455 
146.941101 0.00471 
148.47699 0.003035 
149.014999 0.003668 
153.848694 0.006892 
155.410507 0.002886 
158.380173 0.003666 
160.787323 0.004438 
161.10318 0.005018 
162.40976 0.005688 
164.57933 0.006163 
165.18187 0.003396 
166.146759 0.002997 
171.749908 0.007019 
172.899673 0.00582 
177.023285 0.005427 
177.305695 0.003586 
181.760345 0.007012 
184.391281 0.006174 
186.225189 0.003356 
189.802216 0.006653 
189.820282 0.003354 
190.247253 0.003127 
194.181717 0.004343 
194.736938 0.007098 
196.580017 0.006434 
196.756454 0.003699 
197.859085 0.003883 
201.181305 0.004812 
202.029587 0.004065 
205.106506 0.005717 
216.087036 0.005345 
221.882187 0.003557 
226.652328 0.003031 
230.866898 0.004685 
233.045166 0.009314 
238.891708 0.003702 
239.18782 0.005365 
241.354889 0.006229 
246.390991 0.005229 
246.714798 0.003821 
248.381607 0.003952 
251.221527 0.003267 
253.423325 0.002973 
255.662613 0.003574 
262.037018 0.00453 
265.425568 0.005579 
265.749115 0.003236 
270.351959 0.006411 
270.505157 0.002836 
274.610138 0.002723 
285.826355 0.005939 
289.050415 0.187623 
291.713226 0.00552 
299.008911 0.005491 
304.037262 0.027033 
304.11673 0.007914 
305.045288 0.094015 
306.815338 0.002564 
310.739044 0.005265 
318.064545 0.00438 
326.032104 0.006603 
326.960602 0.003636 
330.373779 0.011851 
331.024323 0.050023 
331.997589 0.013427 
332.03244 100.0 
333.037201 24.305832 
333.703278 0.013019 
334.041229 2.654695 
334.766632 0.003832 
335.045746 0.068768 
342.990234 0.004469 
343.023438 0.022491 
345.040466 0.079463 
346.047943 0.343991 
347.051453 0.009021 
357.040588 1.915286 
358.043884 0.402786 
359.052734 0.010748 
374.04306 0.023311 
376.056915 0.005499 
380.489105 0.007649 
386.04306 0.138452 
387.05011 0.194016 
388.286255 0.004777 
390.447083 0.005085 
391.098785 0.00571 
394.597504 0.005962 
399.051056 0.181011 
399.079987 0.00609 
400.693176 0.003359 
401.30188 0.003032 
410.933807 0.004505 
412.289368 0.006606 
429.93988 0.003014 
433.058746 0.005081 
443.07486 0.003008 
449.181946 0.00344 
454.63205 0.003991 
461.087616 0.026705 
462.090729 0.006356 
479.098022 0.780001 
479.292267 0.004622 
480.102448 0.111424 
508.56134 0.00324 
519.771912 0.002719 
524.693787 0.004996 
527.366455 0.005822 
535.480774 0.008411 
570.363647 0.005382 
578.873169 0.00316 
584.919189 0.005603 
608.489197 0.007086 
615.040344 0.006685 
619.462097 0.0072 
624.3078 0.003861 
639.172729 1.50672 
640.175659 0.557865 
641.177979 0.007477 
658.064819 0.003661 
661.874023 0.004103 
663.968933 0.005464 
665.767395 0.007473 
END IONS

