BEGIN IONS
PEPMASS=153.056
CHARGE=1+
COMPOUNDNAME=terrein
LIBRARYQUALITY=3
SMILES=N/A
INCHIKEY=MHOOPNKRBMHHEC-HZIBQTDNSA-N
INCHI=InChI=1S/C8H10O3/c1-2-3-5-4-6(9)8(11)7(5)10/h2-4,7-8,10-11H,1H3/b3-2+/t7-,8-/m0/s1
MSLEVEL=2
SOURCE_INSTRUMENT=N/A-ESI-QFT
FILENAME=library_mgf.mgf
SEQ=*..*
IONMODE=negative
ORGANISM=MONA
NAME=terrein [M-H]-
PI=MoNA
DATACOLLECTOR=MoNA:VF-NPL-QEHF021223
PUBMED=N/A
SUBMITUSER=mwang87
TAGS=
SPECTRUMID=CCMSLIB00004712286
SCANS=21223
50.052364 0.018331 
51.546608 0.018554 
51.845463 0.020253 
51.923981 0.020519 
52.799034 0.016196 
53.826778 0.020061 
54.527939 0.019431 
54.897312 0.021886 
55.017498 2.387924 
55.163982 0.022777 
55.340401 0.022502 
55.562096 0.019165 
55.913975 0.018811 
56.334976 0.019978 
57.033173 1.978427 
57.535431 0.024073 
58.004627 0.454566 
59.012447 0.252997 
59.235695 0.018225 
59.290565 0.020866 
59.994583 0.022013 
60.035709 0.025131 
60.111763 0.02302 
61.048115 0.020557 
61.15221 0.020363 
61.779327 0.019336 
63.523975 0.025076 
64.649719 0.01941 
65.038284 0.358398 
65.217743 0.025214 
65.842796 0.022195 
67.017532 1.950228 
67.053917 0.164214 
67.203033 0.018342 
68.814102 0.022876 
68.860413 0.024248 
68.996811 0.896383 
69.033173 11.09862 
70.036545 0.265748 
70.188385 0.020928 
71.012444 3.755754 
71.048866 0.833714 
71.230988 0.020638 
71.680321 0.020108 
71.835632 0.024432 
72.991753 0.506484 
73.033791 0.019832 
73.635971 0.02092 
73.748436 0.025538 
74.018211 0.028772 
74.118706 0.020311 
74.30442 0.022114 
74.409752 0.019302 
74.682106 0.021556 
77.275665 0.021532 
77.821014 0.024076 
78.338966 0.024454 
78.95771 0.021768 
79.053978 0.809146 
79.956009 0.306857 
80.025414 1.269686 
80.963829 0.960256 
81.033195 4.375048 
82.036446 0.024701 
82.681984 0.023419 
83.012527 2.423743 
83.048859 2.828843 
83.239021 0.021732 
83.670708 0.026631 
83.777542 0.024425 
84.020287 11.049991 
85.023766 0.31905 
85.028137 8.876717 
85.120216 0.022183 
86.031487 0.132345 
88.934143 0.021909 
90.03215 0.018117 
90.25267 0.021301 
90.308571 0.023839 
91.054001 6.8355 
92.057297 0.175296 
93.033264 4.152693 
93.528748 0.023389 
93.575714 0.023143 
94.041008 0.024179 
94.443756 0.026601 
94.979553 0.44166 
95.012527 4.686045 
95.048889 23.636238 
96.01577 0.03658 
96.020325 2.369767 
96.052261 1.489096 
96.055443 0.019836 
96.571686 0.020519 
96.958794 1.478686 
97.028198 16.419649 
97.064575 61.00951 
97.175545 0.024769 
98.03154 0.633591 
98.067902 3.729813 
98.574669 0.021066 
99.043648 0.024722 
101.954567 0.023309 
102.053627 0.021084 
102.537849 0.028497 
102.699265 0.021541 
106.040916 0.055003 
107.04895 29.756409 
107.915306 0.024265 
108.020355 1.321993 
108.044258 0.223771 
108.052223 2.052188 
108.799416 0.025106 
109.028221 7.931453 
109.064583 17.871847 
110.031944 0.499054 
110.03598 5.790651 
110.067963 1.215274 
110.136223 0.02733 
110.489548 0.02191 
110.838997 0.022281 
111.007484 0.300683 
111.019356 0.136925 
111.039688 0.372965 
111.043861 5.164265 
111.080345 0.17677 
112.015297 98.93013 
112.742317 0.03071 
113.018623 5.094835 
113.022369 0.214373 
113.059448 0.050825 
113.113693 0.021152 
114.019669 0.064752 
117.768593 0.022021 
118.543518 0.021579 
118.574554 0.024849 
120.452362 0.021318 
120.958611 0.022942 
121.028198 0.337546 
121.439095 0.021135 
122.036346 0.028703 
122.594772 0.022771 
122.905708 0.250358 
122.974586 0.062605 
123.007538 0.102219 
123.0439 7.56298 
123.048332 0.125645 
123.365829 0.021698 
124.01532 40.836094 
124.047279 0.471017 
124.051682 3.592202 
125.018562 2.396212 
125.059525 94.952126 
125.095711 0.021575 
126.018501 0.959064 
126.062767 6.800173 
126.532883 0.022334 
127.038849 0.024282 
127.063469 0.023649 
127.07518 0.913418 
127.174042 0.023647 
127.741592 0.022581 
127.895531 0.022407 
129.266113 0.02273 
130.516144 0.023443 
134.036438 0.024842 
135.0439 100.0 
136.015396 4.623109 
136.020477 0.03008 
136.047134 8.177949 
137.018555 0.982768 
137.023544 0.5044 
138.025604 0.023297 
138.031082 4.612623 
138.709503 0.02096 
139.002365 0.369209 
139.033752 0.060875 
139.039001 0.560485 
139.072495 0.023494 
140.264526 0.019109 
140.334793 0.0252 
141.054565 0.201063 
145.441681 0.018601 
145.628204 0.026314 
148.293015 0.020672 
149.008011 0.0475 
149.42691 0.021253 
150.987228 0.058623 
151.00499 0.105655 
151.038879 2.113032 
151.075317 0.154368 
152.001282 0.321672 
152.034225 1.491596 
152.041748 0.364252 
152.070633 0.288265 
152.966843 0.204747 
152.985153 0.330794 
152.994019 0.098235 
153.017853 1.746449 
153.054626 96.007828 
153.09082 3.933421 
154.013443 0.046316 
154.057816 7.968485 
154.094345 0.171592 
154.946182 0.475942 
155.00148 0.070761 
155.009521 1.045401 
155.033829 0.326047 
155.05899 0.110011 
155.070297 0.361257 
155.106613 0.022561 
157.582611 0.025956 
161.098541 0.02138 
162.346252 0.024908 
162.924133 0.022183 
165.703613 0.022265 
170.528793 0.025366 
174.978012 0.022773 
END IONS

