BEGIN IONS
PEPMASS=506.222
CHARGE=1+
COMPOUNDNAME=TOBRAMYCIN
LIBRARYQUALITY=3
SMILES=N/A
INCHIKEY=NLVFBUXFDBBNBW-PBSUHMDJSA-N
INCHI=InChI=1S/C18H37N5O9/c19-3-9-8(25)2-7(22)17(29-9)31-15-5(20)1-6(21)16(14(15)28)32-18-13(27)11(23)12(26)10(4-24)30-18/h5-18,24-28H,1-4,19-23H2/t5-,6+,7+,8-,9+,10+,11-,12+,13+,14-,15+,16-,17+,18+/m0/s1
MSLEVEL=2
SOURCE_INSTRUMENT=N/A-ESI-QFT
FILENAME=library_mgf.mgf
SEQ=*..*
IONMODE=positive
ORGANISM=MONA
NAME=TOBRAMYCIN [M+K]+
PI=MoNA
DATACOLLECTOR=MoNA:VF-NPL-QEHF011819
PUBMED=N/A
SUBMITUSER=mwang87
TAGS=
SPECTRUMID=CCMSLIB00004702882
SCANS=11819
50.895271 0.021293 
51.077473 0.026055 
51.758003 0.026114 
51.816414 0.025988 
52.613342 0.015136 
52.619881 0.024568 
52.781845 0.015149 
53.00293 0.018175 
53.03933 0.020804 
53.078011 0.013347 
53.530815 0.013003 
54.059132 0.015014 
55.018536 0.103671 
55.054962 1.163575 
56.05019 0.14447 
56.058163 0.026123 
56.075249 0.027399 
56.098438 0.024612 
56.965515 0.109291 
57.034191 0.223368 
57.070595 6.256864 
57.301414 0.014685 
57.904888 0.019025 
58.065845 0.108767 
58.073887 0.086014 
58.153454 0.013857 
58.432823 0.014286 
59.049809 0.486275 
59.061096 0.296042 
59.334949 0.019467 
59.546173 0.01597 
59.990891 0.365101 
60.034805 0.015612 
60.045151 0.033181 
60.059448 0.01453 
60.094536 0.022014 
61.011333 1.113697 
61.949577 0.017256 
62.019119 0.135676 
62.401295 0.013413 
62.891693 0.01792 
62.980694 0.030862 
62.982414 1.742227 
63.039185 0.016999 
63.192696 0.015491 
64.497765 0.023063 
64.936951 0.013367 
65.124641 0.028055 
65.227005 0.015332 
66.887154 0.014621 
66.912453 0.017299 
67.054878 2.107724 
67.697464 0.016269 
68.245995 0.025693 
69.034065 0.095134 
69.070518 1.6627 
70.065727 0.045831 
70.461349 0.015099 
70.672676 0.020726 
71.049713 0.34238 
71.086143 1.521288 
72.044823 0.023392 
72.081299 0.072336 
72.937744 0.05625 
73.029007 2.423422 
73.047363 0.542707 
73.065361 0.131359 
73.888687 0.017815 
74.03212 0.01649 
74.060577 0.023258 
74.097023 0.69692 
74.14743 0.02249 
75.519279 0.01426 
76.07621 0.015273 
76.241768 0.014472 
77.601791 0.018328 
77.635674 0.015131 
77.969131 0.022689 
79.021713 0.978463 
79.054756 0.713098 
80.948303 0.294072 
81.034004 0.025951 
81.070404 2.044183 
81.521919 0.01594 
82.065659 0.034732 
82.073662 0.017318 
82.945381 0.021576 
83.010826 0.28649 
83.049637 0.119027 
83.086021 1.154891 
83.792465 0.028083 
84.081261 0.116925 
84.18293 0.017818 
84.542107 0.014386 
84.812157 0.016196 
85.028908 0.064692 
85.065277 0.167583 
85.101639 0.601833 
85.489464 0.015642 
86.096901 0.264024 
87.044556 2.166152 
87.6353 0.01402 
88.053932 0.027742 
88.270493 0.016879 
88.9786 0.140618 
89.060188 4.185467 
89.347656 0.022188 
89.764885 0.027096 
89.830261 0.023337 
90.063446 0.058686 
90.948044 0.160597 
91.054771 0.62784 
91.057785 5.55035 
91.889526 0.025104 
91.958496 0.014101 
92.057289 0.13616 
92.060814 0.029245 
92.206604 0.018474 
92.361816 0.026542 
93.037056 0.063922 
93.054581 0.093462 
93.07032 1.009131 
94.544907 0.027955 
94.85611 0.02696 
94.997467 0.015372 
95.016052 0.020492 
95.034554 0.020796 
95.049454 0.171722 
95.05542 0.021609 
95.08593 1.991528 
95.099113 0.031677 
96.081154 0.069167 
96.089172 0.033003 
97.065117 0.13588 
97.101494 0.52848 
97.75338 0.020858 
98.096649 0.068672 
98.979378 0.019157 
99.044418 0.097695 
99.191803 0.01912 
100.075928 0.111702 
101.003456 0.330273 
101.059967 0.111543 
102.055557 0.015942 
102.091705 0.023529 
103.039146 0.043153 
103.106255 0.024662 
104.873901 0.015453 
104.992538 0.219096 
105.033699 0.039736 
105.070084 0.353774 
105.073524 0.054323 
105.604614 0.018943 
107.049179 0.045211 
107.085777 0.741669 
108.032547 0.029241 
108.081017 0.022213 
108.436234 0.016254 
108.958443 0.046857 
109.101364 1.130603 
110.104919 0.018988 
111.041756 0.331276 
111.080582 0.102364 
111.116959 0.042049 
111.141502 0.019887 
112.138 0.024378 
113.059845 0.045444 
113.107468 0.707371 
113.388657 0.022851 
114.368561 0.025935 
114.893021 0.019343 
114.901291 0.015998 
115.802742 0.023777 
116.052956 0.85926 
116.056839 0.020637 
116.933823 0.01817 
116.946922 0.015774 
116.985931 0.092549 
117.069855 0.051835 
117.873077 0.018027 
119.085609 0.45119 
120.047905 0.017973 
120.080673 0.043363 
120.851318 0.0159 
120.987137 0.029214 
121.064758 0.173672 
121.101219 0.663327 
121.156425 0.021379 
121.357201 0.015783 
121.484993 0.016091 
121.588158 0.019508 
122.916679 0.017104 
123.080498 0.046889 
123.091499 0.077919 
123.116814 0.289639 
123.415756 0.020916 
123.852066 0.020958 
125.059967 0.02081 
125.096123 0.057833 
125.96096 0.024501 
126.457458 0.020203 
127.036568 0.964128 
128.72702 0.016444 
128.832199 0.026761 
129.069672 0.022416 
129.168625 0.032198 
130.153534 0.067253 
130.158951 9.315823 
130.210983 0.01735 
131.085312 0.256747 
131.162186 0.392119 
131.188705 0.016409 
132.063599 0.019068 
132.986893 0.035986 
133.085663 0.403756 
133.10112 0.317091 
134.973831 0.030983 
134.996277 0.528488 
135.002701 0.449631 
135.080246 0.27421 
135.116699 0.170083 
136.038223 0.019749 
137.132462 0.043322 
138.269806 0.025884 
139.072998 0.056036 
140.143188 0.451687 
140.901169 0.020373 
141.146225 0.024446 
141.835526 0.024772 
142.969452 0.021809 
143.08429 0.015843 
143.773117 0.020039 
145.100906 0.179771 
145.791901 0.018793 
146.096054 0.024406 
146.116425 0.02538 
146.973907 0.548782 
147.11647 0.260248 
148.971619 0.072559 
149.044739 0.327968 
149.070663 0.054787 
149.132462 0.024854 
150.043762 0.020743 
150.560593 0.02137 
150.95079 0.610505 
150.968658 0.201404 
151.041534 0.018706 
151.074936 0.021429 
151.311249 0.022527 
152.951447 0.05816 
152.96698 0.02385 
152.988998 0.034089 
153.006989 0.022349 
155.067551 0.963704 
156.138123 0.114895 
156.482849 0.014451 
156.953491 0.021846 
157.101334 0.067036 
157.966782 0.057118 
158.097015 0.017581 
159.080612 0.021739 
159.116653 0.018439 
159.369278 0.025258 
161.132309 0.051542 
163.062347 0.036352 
163.111099 0.023577 
163.147995 0.018075 
163.976746 0.130752 
163.985886 0.013587 
164.920364 2.655844 
164.966751 0.022898 
164.984329 0.460312 
166.085968 0.016601 
167.055237 2.896116 
168.05455 0.083419 
168.138 0.741904 
168.333511 0.025776 
168.916931 0.150697 
168.961441 0.44538 
169.052246 0.298721 
169.100616 0.019622 
171.0625 1.203936 
171.847931 0.032731 
171.903976 0.018169 
172.114639 0.081965 
174.005524 0.062884 
175.97673 0.180142 
176.797913 0.015105 
177.127258 0.114434 
180.894516 0.035825 
183.523804 0.019083 
184.073044 0.118072 
184.464401 0.019387 
184.883102 0.020823 
185.1073 0.019485 
186.878738 0.146022 
186.927551 1.343571 
187.524323 0.028165 
188.021362 0.096007 
188.924362 0.408118 
188.984222 0.039779 
189.126678 0.020777 
191.144135 0.018629 
191.838654 0.025843 
191.970871 0.019871 
192.961334 0.23029 
194.999405 0.162687 
195.301376 0.027372 
196.169342 0.019835 
199.093704 0.050521 
203.930298 0.125193 
205.927094 0.039735 
206.994537 0.064208 
208.55574 0.018077 
208.883255 0.02572 
209.8909 0.023518 
210.079956 0.021705 
210.972198 0.242358 
213.110001 0.021186 
213.390305 0.57645 
213.401443 1.050427 
215.088898 1.160802 
216.888321 0.035713 
217.105789 0.028336 
218.760681 0.017842 
219.174149 0.520596 
220.309891 0.021987 
220.883118 0.018422 
220.903259 0.702469 
222.898361 1.05337 
225.042694 0.211107 
225.886185 0.175211 
226.075241 0.035367 
228.090363 0.890049 
229.895599 3.62462 
230.851883 0.019437 
232.883469 0.306185 
233.891129 2.009317 
234.8992 3.023465 
235.128448 0.020397 
235.899567 0.145174 
237.078644 0.149565 
237.906036 0.021597 
237.921326 0.01633 
238.893265 0.174602 
238.913483 2.209554 
239.093216 0.026484 
239.901321 0.025297 
240.908722 2.976465 
242.908859 0.022467 
243.119934 0.297656 
243.895737 0.0393 
244.085892 0.054958 
245.890945 0.12444 
246.100845 0.726433 
246.898544 0.090304 
247.143204 0.025768 
247.906067 4.395647 
247.919174 0.028694 
248.87851 0.224074 
249.886215 0.130152 
250.252411 0.035912 
250.802017 0.016584 
250.893585 3.361863 
251.894211 0.082567 
252.909348 0.144748 
253.916153 0.019731 
255.156738 0.037614 
257.514404 0.016768 
257.891479 0.087594 
258.898773 1.983601 
258.940735 0.016846 
259.114868 0.471144 
259.90097 0.026881 
261.8862 0.062378 
261.905945 1.576245 
261.920715 0.192234 
262.896423 0.019552 
262.913513 0.811324 
263.901428 1.829121 
264.908997 4.969146 
265.913025 0.088103 
266.888702 0.56345 
266.924683 0.022546 
267.397949 0.026831 
268.904541 0.049613 
269.891327 0.13572 
270.899414 0.059381 
273.167297 0.118051 
273.885193 0.016798 
274.893555 1.802001 
274.913422 0.592893 
275.901459 8.818512 
276.436554 0.019511 
276.909637 16.947514 
277.909149 1.518487 
278.246521 0.021644 
278.9086 0.613322 
278.925232 0.101984 
279.896393 2.26306 
279.916016 14.821141 
280.904083 0.108385 
280.923615 1.007464 
281.911438 10.466562 
282.919373 5.171202 
283.030029 0.178817 
283.096008 0.01754 
283.920258 0.093755 
284.0289 0.0474 
284.152527 0.02668 
285.027161 0.147198 
286.379669 0.028782 
286.913483 0.036736 
287.187439 0.024646 
288.908691 3.602022 
289.91571 0.479706 
290.924622 0.803811 
290.943787 0.019198 
291.896118 1.031798 
292.902802 0.115493 
293.912384 0.552505 
293.931854 0.727716 
295.927551 3.592043 
296.932098 0.334306 
297.906433 2.169128 
297.926361 0.030275 
299.061401 0.957198 
299.831024 0.181331 
300.06189 0.249053 
300.909393 1.687881 
301.058777 0.657754 
301.909668 0.048012 
302.90921 0.022506 
304.087616 0.016952 
304.923767 1.402462 
305.927521 0.116183 
306.919403 29.079582 
307.92157 2.68447 
308.922729 0.063929 
309.944275 0.047542 
311.293457 0.048559 
313.204132 0.025979 
316.904266 2.156903 
317.822388 0.02301 
317.840729 0.475798 
317.906189 0.13023 
318.91983 5.495182 
318.939331 0.027196 
319.921356 0.806005 
320.901031 0.01883 
320.917755 2.346212 
320.936829 0.999093 
322.822418 0.026087 
322.914276 1.077205 
322.934082 0.178435 
323.830536 0.053024 
323.921875 0.197765 
324.92981 8.244063 
325.93222 0.575978 
327.824921 0.025989 
328.153229 0.019032 
328.276855 0.020299 
329.95462 0.023067 
330.36618 0.016383 
331.207886 0.026288 
332.847443 0.024112 
332.935089 0.059779 
333.81546 0.025999 
333.835144 0.218262 
334.843323 2.606291 
334.914734 0.235364 
335.851166 0.263046 
336.838104 0.032816 
336.930298 0.983666 
337.936859 0.191223 
338.945801 0.257758 
341.843719 0.035284 
342.997009 0.024647 
344.975769 0.022448 
345.97583 0.072894 
346.973328 0.248854 
349.849426 0.146976 
350.948212 0.020948 
351.130829 0.0251 
351.846069 2.54306 
352.854126 0.719218 
352.92572 0.041672 
353.841583 0.023538 
356.848083 3.078939 
358.843231 26.64777 
359.217255 0.034505 
360.58847 0.017352 
360.837952 0.062545 
363.824707 0.026375 
364.833801 0.738791 
365.836212 0.043881 
365.861938 0.02507 
367.84024 0.558735 
367.861969 0.032908 
369.266266 0.057655 
369.856354 0.112089 
371.240448 0.148978 
374.858582 1.392959 
375.82431 0.025743 
375.84668 0.088868 
376.853729 12.476027 
377.317047 0.016238 
378.848053 0.041743 
379.816498 0.024261 
381.188232 0.350967 
381.836121 0.452361 
382.843506 0.107714 
383.851959 0.116473 
384.859528 0.136529 
385.2164 0.021285 
385.852539 0.276242 
387.150848 0.715005 
388.466522 0.029815 
388.83429 1.086843 
389.836609 0.026248 
390.869934 0.698371 
391.858917 0.047453 
392.2836 0.132374 
392.849182 0.749054 
393.287262 0.027198 
393.856232 0.053868 
395.167694 0.027935 
395.860138 0.030316 
402.963257 0.763575 
403.200012 0.078714 
403.244812 0.31601 
403.963593 0.122764 
404.849976 0.097661 
404.961273 0.041007 
405.132446 0.032178 
405.161407 3.100038 
405.849579 0.075751 
406.163971 0.25203 
406.844604 10.58624 
407.52829 0.016541 
407.845703 2.168672 
408.860809 0.712399 
409.27533 0.020617 
409.862427 0.04155 
409.894592 0.023191 
410.858917 0.128342 
414.930847 0.027647 
415.861237 0.235198 
416.90451 0.019731 
417.856445 3.371889 
418.994843 0.648589 
419.176453 0.020778 
419.994446 0.072362 
420.860077 0.698281 
421.218811 1.053899 
421.86264 0.074349 
422.873962 0.01873 
423.171783 0.440958 
424.396027 0.018275 
424.85495 1.377741 
425.854767 0.047326 
428.239807 0.028757 
429.281952 0.11244 
433.868164 0.195129 
435.198425 0.024519 
435.866974 1.429812 
438.871521 0.022843 
445.187225 0.01902 
445.859924 0.015878 
446.613373 0.017136 
447.292786 0.193754 
447.346283 0.197691 
447.847839 0.754912 
449.287231 0.020204 
461.863617 0.052208 
463.202942 0.826657 
464.205597 0.091475 
465.858368 0.419429 
473.071625 0.019343 
481.19696 0.018431 
488.425812 0.020358 
504.321075 1.244715 
504.359039 0.286613 
505.334259 100.0 
506.337677 27.76482 
507.291229 3.28923 
507.333588 8.43784 
508.29541 0.42577 
508.334473 0.988838 
508.502502 0.023483 
END IONS

