BEGIN IONS
PEPMASS=804.489
CHARGE=1+
COMPOUNDNAME=MoNA:594286 Tacrolimus
LIBRARYQUALITY=3
SMILES=N/A
INCHIKEY=QJJXYPPXXYFBGM-LJIGMGMYSA-N
INCHI=InChI=1S/C44H69NO12/c1-10-13-31-19-25(2)18-26(3)20-37(54-8)40-38(55-9)22-28(5)44(52,57-40)41(49)42(50)45-17-12-11-14-32(45)43(51)56-39(29(6)34(47)24-35(31)48)27(4)21-30-15-16-33(46)36(23-30)53-7/h10,19,21,26,28-34,36-40,46-47,52H,1,11-18,20,22-24H2,2-9H3/b25-19-,27-21+/t26-,28+,29+,30-,31+,32-,33+,34-,36+,37-,38-,39+,40+,44+/m0/s1
MSLEVEL=2
SOURCE_INSTRUMENT=LC-ESI-QFT-LC-ESI-QFT
FILENAME=output_mgf.mgf
SEQ=*..*
IONMODE=
ORGANISM=MONA
NAME=MoNA:594286 Tacrolimus [M+H]+
PI=MoNA
DATACOLLECTOR=MoNA
PUBMED=N/A
SUBMITUSER=mwang87
TAGS=
SPECTRUMID=CCMSLIB00000572829
SCANS=10080
56.0495 2.630546 
57.0335 0.920242 
57.0699 0.470987 
59.0491 1.275744 
65.0386 1.913369 
67.0542 14.431532 
69.0335 20.363837 
69.0699 6.005776 
70.0652 0.21958 
71.0127 1.635444 
71.0491 5.07794 
73.0283 0.347815 
75.044 0.382791 
77.0384 0.434159 
79.0542 19.556333 
80.0494 0.193865 
81.0335 1.123893 
81.0699 18.532799 
82.0651 2.231425 
83.0491 5.940485 
83.0855 1.161308 
84.0808 100.0 
85.0284 0.894496 
85.0648 12.903208 
91.0543 20.843746 
93.07 31.933141 
95.0492 15.642942 
95.0856 20.997263 
97.0649 7.73133 
97.1013 0.444501 
99.0441 1.244225 
99.0805 1.92192 
101.0597 0.768021 
103.0541 0.407919 
105.0448 1.329242 
105.0699 26.478831 
107.0491 3.684457 
107.0856 37.281998 
109.0285 60.772281 
109.0649 14.990067 
109.1012 8.18253 
110.0601 7.487517 
111.0442 2.717354 
111.0805 13.821011 
112.0758 0.414804 
113.0598 1.861507 
115.0542 2.10427 
116.0621 0.26286 
117.07 7.511225 
119.049 1.541413 
119.0856 30.745316 
121.0649 11.404488 
121.1012 11.122735 
123.0441 6.89311 
123.0805 8.486108 
123.1169 0.916105 
125.0597 4.718332 
125.0964 2.142519 
127.039 1.063758 
127.0755 0.900763 
128.0622 2.841575 
128.0707 35.896665 
129.0699 10.645944 
130.0864 32.515941 
131.0856 18.680636 
133.0648 3.738603 
133.1013 19.975211 
135.0442 3.465556 
135.0805 11.008824 
135.1169 10.61103 
136.1122 2.460143 
137.0598 5.569301 
137.0963 3.923763 
137.1324 1.219838 
138.0551 0.252673 
139.039 2.66188 
139.0754 1.812855 
139.1117 0.455954 
140.0704 0.420607 
141.0547 0.842079 
141.0698 2.604615 
141.0909 0.756599 
142.0778 3.386404 
143.0856 28.900695 
144.0934 1.82579 
145.0651 2.47922 
145.1013 27.032551 
146.0727 0.24014 
147.0805 12.44392 
147.1169 10.567441 
148.0882 0.401406 
148.1121 0.211677 
149.0598 5.185152 
149.0962 7.94631 
149.1325 1.277411 
150.0914 0.790957 
151.0391 1.54876 
151.0754 2.907391 
151.1118 2.670832 
152.1071 16.565469 
153.0547 5.284215 
153.0698 1.347672 
153.0913 0.804355 
154.0778 0.465863 
155.0339 0.899868 
155.0856 5.645489 
156.0656 0.794662 
156.0935 7.987399 
157.0648 2.114334 
157.1013 19.909735 
158.0728 0.230971 
158.1093 1.480815 
159.0805 5.256431 
159.1169 17.198402 
160.0883 0.81269 
160.1248 0.470617 
161.0962 11.784871 
161.1325 16.6407 
163.0755 3.183926 
163.1118 8.901004 
163.1481 1.070364 
164.107 1.329057 
165.0548 2.483079 
165.0699 1.505233 
165.0913 1.622756 
165.1273 0.485373 
166.0779 0.304875 
167.0703 1.214528 
167.0855 1.805693 
168.0933 2.313602 
168.1013 0.674114 
168.1382 0.4959 
169.0493 0.984483 
169.1012 9.120893 
170.1091 2.339903 
171.0805 4.14538 
171.1169 36.241702 
172.0881 0.932065 
172.1249 0.895145 
173.0962 7.140412 
173.1326 10.088088 
174.1038 0.423169 
175.0755 7.743771 
175.1119 5.807743 
175.1481 2.836698 
176.107 0.322532 
177.0546 0.363065 
177.0912 3.068256 
177.1275 2.315948 
178.0781 0.261378 
178.0865 0.430609 
179.0701 0.963275 
179.0856 1.644612 
179.1067 1.5445 
179.1429 0.312932 
180.0935 1.561325 
180.1018 10.914547 
181.0857 0.319878 
181.1013 4.205886 
181.1217 0.285858 
182.109 1.768649 
182.1172 0.384829 
183.0651 0.94676 
183.0805 1.522582 
183.1169 12.262897 
184.0886 0.493152 
184.125 1.08725 
185.0962 4.356996 
185.1326 16.375987 
186.1037 1.08123 
186.1401 0.444871 
187.06 0.819883 
187.0753 1.314208 
187.1119 6.555575 
187.1483 5.569147 
188.1194 0.440055 
189.091 5.479129 
189.1275 13.926804 
190.1225 0.326052 
191.0703 0.843807 
191.1068 1.258549 
191.1433 0.799323 
192.094 1.322173 
192.1019 23.065323 
193.0859 0.883229 
193.1013 3.806826 
194.1088 1.350419 
195.0658 0.624721 
195.117 10.818417 
196.088 0.832324 
196.0967 0.271288 
196.1246 1.56401 
196.1333 2.291962 
197.0807 0.871436 
197.0961 2.348269 
197.1326 7.645943 
198.1041 1.387803 
199.0755 0.808183 
199.112 5.041111 
199.1482 5.558898 
200.1195 0.47284 
201.0912 1.795136 
201.1275 7.272783 
201.1638 1.036067 
203.1067 1.619855 
203.1433 9.862334 
204.102 0.311326 
205.0858 0.815962 
205.1011 1.175385 
205.1223 1.088423 
205.1587 0.429096 
206.1089 1.065332 
206.1177 2.662991 
207.1013 0.42817 
207.1169 4.901516 
207.138 1.25929 
208.0886 0.410667 
208.0971 6.357203 
208.125 2.346293 
209.0962 1.804798 
209.1326 5.098592 
210.1039 0.785 
210.1126 3.407736 
210.1405 0.776109 
211.112 6.110333 
211.1482 3.912927 
212.1196 1.385889 
213.091 1.33131 
213.1276 9.343374 
213.1636 1.563763 
214.1356 0.946544 
215.1069 2.179501 
215.1432 4.190204 
217.0859 0.394275 
217.101 0.375444 
217.1225 1.166618 
217.1588 2.108407 
218.1087 0.809881 
218.1177 0.813061 
218.1667 0.769287 
219.1015 0.329015 
219.1173 2.03722 
219.1378 0.452496 
220.097 9.336552 
220.1249 0.776942 
221.0963 0.460677 
221.1325 3.444718 
221.1539 2.327709 
222.1033 0.324168 
222.1125 0.842356 
222.1406 1.745558 
223.1119 3.350163 
223.148 3.18936 
224.1191 0.744683 
224.1283 1.019737 
225.0906 0.433202 
225.1275 3.48877 
225.1641 1.539777 
226.1082 0.275826 
226.1354 1.0039 
227.107 1.575062 
227.1432 2.775174 
227.1795 2.661478 
228.1502 0.22739 
229.1224 2.913596 
229.1589 1.370083 
231.1166 0.379673 
231.138 1.851721 
232.1244 1.111483 
232.1341 0.712084 
233.1166 0.240819 
233.1324 1.128678 
233.1534 0.273819 
234.1128 6.73916 
234.1401 1.794642 
235.1116 1.007389 
235.1484 1.573333 
236.092 0.735885 
236.1284 0.81019 
237.0912 0.331392 
237.1274 1.566819 
237.1638 4.14893 
238.1075 0.936542 
239.1069 1.725616 
239.1435 2.646846 
239.1793 1.051904 
240.1508 0.425824 
241.1225 1.838015 
241.1591 2.205401 
243.1378 1.427872 
243.1741 0.493276 
245.097 0.277215 
245.1321 0.873505 
245.1537 0.436968 
246.1124 0.260329 
247.1481 2.241118 
248.1282 0.880913 
249.1273 1.304144 
249.1639 2.554822 
250.1069 0.231434 
250.1349 0.822507 
251.1067 0.868318 
251.1433 2.016352 
251.179 0.802935 
252.1139 0.330682 
253.1219 0.376463 
253.1585 0.965868 
254.1021 0.410482 
255.1379 0.346827 
255.1744 3.857268 
257.117 1.140254 
257.1313 0.318704 
257.1531 0.267059 
257.1901 0.234984 
259.1478 0.338523 
259.1698 0.305554 
261.1643 1.233915 
262.1072 0.475525 
263.1432 0.489016 
263.1796 1.051101 
265.159 4.963411 
265.1948 0.328429 
266.1028 1.735371 
267.1381 0.785957 
267.1746 2.496045 
269.1532 0.787654 
269.1895 0.217759 
273.1635 0.419804 
275.1422 0.427831 
277.1227 0.25931 
277.1584 0.291693 
278.102 0.377018 
279.1739 0.336702 
281.1899 1.14081 
283.1698 3.973155 
285.1846 0.892706 
286.1436 0.27953 
289.1573 0.297929 
289.1947 0.436598 
291.1737 0.816611 
293.1542 2.538337 
293.1894 0.403412 
295.168 0.331608 
297.1846 0.407487 
299.2001 1.148589 
304.1189 0.410852 
304.1544 0.256223 
306.1326 0.270732 
307.2054 0.309258 
309.1843 0.932374 
311.1641 2.59023 
313.2153 0.249679 
315.1948 0.388008 
319.1686 0.369733 
327.1958 0.959355 
329.1749 0.416409 
332.1491 0.477871 
337.1795 0.465739 
355.1904 0.232113 
END IONS

