BEGIN IONS
PEPMASS=192.05
CHARGE=1+
COMPOUNDNAME=Aconitic Acid
LIBRARYQUALITY=3
SMILES=N/A
INCHIKEY=GTZCVFVGUGFEME-IWQZZHSRSA-N
INCHI=InChI=1S/C6H6O6/c7-4(8)1-3(6(11)12)2-5(9)10/h1H,2H2,(H,7,8)(H,9,10)(H,11,12)/b3-1-
MSLEVEL=2
SOURCE_INSTRUMENT=N/A-ESI-QFT
FILENAME=library_mgf.mgf
SEQ=*..*
IONMODE=positive
ORGANISM=MONA
NAME=Aconitic Acid [M+NH4]+
PI=MoNA
DATACOLLECTOR=MoNA:VF-NPL-QEHF026297
PUBMED=N/A
SUBMITUSER=mwang87
TAGS=
SPECTRUMID=CCMSLIB00004717360
SCANS=26297
50.281788 0.02536 
50.373138 0.020041 
50.509914 0.024955 
50.893314 0.010523 
51.940346 1.271737 
52.343475 0.033968 
52.67363 0.026388 
52.940338 0.028233 
52.993435 0.028744 
53.125366 0.021574 
53.239178 0.030713 
53.521526 0.027323 
53.760765 0.010786 
53.914391 0.025703 
54.238228 0.027034 
54.5975 0.027508 
54.675396 0.029869 
55.018326 0.075061 
55.054558 0.700066 
55.297932 0.026778 
55.602406 0.011561 
55.934742 1.037098 
56.283047 0.022308 
56.540764 0.033273 
56.911716 0.025608 
56.942463 0.106362 
57.033794 0.201134 
57.060673 0.030855 
57.070183 1.448223 
57.36758 0.02261 
57.461971 0.024491 
57.594437 0.031405 
57.935135 0.031472 
58.038677 0.024803 
58.065414 0.155277 
58.413067 0.025203 
58.762173 0.024295 
58.852798 0.025776 
59.049408 1.044741 
59.324043 0.024662 
59.770943 0.019364 
60.04472 0.139184 
61.01088 68.997833 
61.715446 0.023892 
62.010273 0.126427 
62.014194 0.635559 
62.018677 6.629228 
62.412041 0.026402 
62.751373 0.024987 
62.789627 0.033893 
63.006607 0.080228 
63.026512 1.748265 
64.014458 0.025016 
64.391472 0.025816 
65.038902 0.02571 
65.256905 0.022763 
65.655823 0.022266 
66.141777 0.032817 
66.297485 0.030346 
66.542435 0.011602 
66.943016 0.032449 
67.054382 3.25171 
67.93499 0.875034 
68.936806 0.025353 
68.962646 0.770113 
69.069984 0.988853 
69.961082 0.407973 
70.065292 0.474214 
70.555733 0.032698 
70.941887 0.080406 
70.957962 16.044786 
71.049202 0.388042 
71.92939 0.280846 
72.044472 4.255803 
72.046631 0.013637 
72.080894 0.303178 
72.224464 0.025949 
72.235184 0.020835 
72.779579 0.025841 
72.93721 4.134265 
74.023743 0.041575 
74.060036 0.072361 
74.952789 0.024907 
75.476852 0.031173 
75.763931 0.027615 
77.26413 0.032611 
78.000885 0.618872 
78.490219 0.024524 
78.615875 0.029239 
79.021217 0.15145 
79.054237 2.232 
79.511887 0.027026 
80.143456 0.02923 
81.069931 4.583574 
81.208054 0.013404 
82.065102 0.055694 
83.049164 0.284669 
83.085526 0.689547 
83.858513 0.03252 
83.929855 0.937009 
84.080788 0.013359 
84.313057 0.012525 
84.937332 0.029152 
85.028458 0.067755 
85.064819 0.31766 
85.94548 0.084333 
86.060081 0.857729 
86.096542 0.15993 
86.952774 0.237152 
86.973129 0.073879 
87.044136 3.462531 
87.441818 0.011522 
87.812675 0.02982 
87.822868 0.02749 
87.906487 0.274152 
88.039207 0.091418 
88.04744 0.030174 
88.075737 0.25369 
88.914177 0.054318 
88.952621 0.014302 
88.96846 4.510382 
89.059837 0.097995 
89.317886 0.025131 
89.505936 0.024231 
89.939941 1.01005 
90.009171 0.031481 
90.032555 0.023475 
90.947746 4.258262 
91.054291 3.640857 
91.390106 0.029235 
91.765282 0.025258 
92.046638 0.023446 
93.069946 4.445873 
94.073318 0.014587 
94.100899 0.025652 
95.049149 0.282032 
95.085541 5.68343 
97.06488 1.315543 
97.670227 0.030172 
97.788513 0.027225 
97.790649 0.024567 
98.072617 0.106306 
98.096512 0.027005 
99.04438 0.012235 
99.080429 0.16493 
99.594978 0.026099 
100.075706 5.097322 
100.647697 0.024507 
101.079262 0.07302 
101.917244 0.035989 
101.940392 0.331782 
102.929932 0.1793 
102.948006 0.877669 
102.984154 0.02552 
102.990746 0.030352 
103.038696 0.039033 
104.850891 0.024778 
104.963432 0.948711 
105.069923 2.33917 
105.917099 1.854199 
106.064987 0.014184 
106.924637 0.028494 
106.978622 0.048657 
107.073219 0.033171 
107.085579 4.004186 
107.178436 0.02946 
107.315681 0.027031 
107.593864 0.024803 
107.950386 0.493706 
108.080864 0.01665 
108.088837 0.032531 
108.147865 0.03418 
108.186394 0.025072 
108.958313 0.330949 
109.06488 2.041973 
109.101196 2.186167 
109.459015 0.029246 
110.059944 0.016149 
111.080444 0.883898 
112.075554 0.093205 
113.629623 0.024482 
114.091385 0.236341 
114.947914 0.37665 
116.257668 0.011701 
117.069901 0.385983 
117.097809 0.027246 
117.916992 1.08063 
118.924988 0.985503 
118.943619 0.019216 
118.961769 0.024914 
119.001137 0.096619 
119.019005 0.697352 
119.049187 76.06768 
119.059868 0.247523 
119.085533 3.02929 
119.950966 0.948439 
120.052544 6.152668 
120.080841 0.127303 
120.940506 4.13507 
121.088707 0.029094 
121.101166 1.456556 
122.974037 0.018455 
123.080452 0.349644 
123.92775 0.076507 
125.096024 0.037118 
125.961037 0.0671 
128.106979 7.312244 
128.81926 0.031001 
129.110306 0.840376 
130.086273 1.173351 
130.793457 0.02989 
130.943237 0.272244 
130.962891 1.539032 
131.085464 2.254989 
131.143585 0.029275 
131.951736 0.097402 
131.961288 2.906755 
132.095917 0.024417 
132.101868 0.797223 
132.940414 0.314287 
132.958206 22.340265 
133.05896 0.026387 
133.101151 2.770701 
133.132339 0.026427 
133.948273 4.572592 
133.961426 0.063826 
134.063431 0.91105 
134.096481 0.259676 
134.919785 0.254518 
134.930847 0.032946 
134.956192 3.068791 
135.080551 0.215955 
135.11673 1.99938 
135.351624 0.024797 
135.515793 0.024029 
135.927673 2.023012 
136.075836 0.048508 
136.112244 0.079218 
136.759399 0.026682 
136.935471 0.313409 
136.954788 0.068904 
137.011765 2.184555 
137.096176 0.225305 
137.107437 0.162882 
137.9384 0.026574 
138.054932 0.055274 
138.95108 2.192797 
139.041565 0.025914 
139.138397 0.023787 
139.515457 0.02674 
144.102188 0.067798 
144.958817 0.18251 
145.101074 0.434461 
145.389008 0.025021 
145.437378 0.02208 
145.958374 0.026654 
145.988586 0.060687 
146.060257 0.044298 
146.096664 0.01397 
146.956619 0.033916 
146.976501 6.102739 
147.116867 2.507975 
147.927612 0.185057 
147.964981 0.024733 
147.974792 2.622995 
148.112183 0.040138 
148.119827 0.012324 
148.971893 100.0 
149.018295 0.033646 
149.046234 0.036741 
149.096146 0.752167 
149.116058 0.025872 
149.120239 0.014742 
149.132477 1.512389 
149.790726 0.028981 
149.961075 3.212686 
149.972 3.68652 
150.091415 0.024649 
150.951096 3.414815 
150.968826 22.253851 
151.111862 0.035394 
151.958878 3.3137 
151.96994 0.056183 
152.966751 2.80866 
153.93811 0.64681 
155.022339 0.660068 
155.316498 0.030538 
155.490921 0.031451 
155.73822 0.034329 
157.603027 0.030277 
157.892273 0.036349 
161.01181 1.077363 
162.951492 0.575835 
163.111908 0.201092 
163.147598 0.022677 
163.99881 2.559949 
164.118484 0.013672 
164.93071 0.049403 
164.986725 0.92157 
165.938187 3.038755 
165.985123 0.031293 
166.982407 18.292347 
167.056458 0.016415 
167.971634 1.44365 
167.982971 0.056292 
168.434448 0.024102 
168.769196 0.035093 
168.92514 0.030543 
168.961594 0.515595 
168.979431 0.057622 
171.844467 0.025996 
172.133102 0.098715 
173.108047 0.02737 
173.132477 3.55964 
174.090317 0.026878 
174.127777 0.115377 
174.136078 0.161028 
174.148804 0.042098 
174.348541 0.025213 
175.086426 0.023487 
175.112045 0.025585 
175.148148 3.4061 
175.942947 0.290391 
176.106689 0.030055 
176.143478 0.02472 
176.227814 0.026048 
176.941544 0.398534 
177.938171 10.853692 
177.946732 0.046431 
178.938583 0.030252 
179.022308 8.890177 
179.031067 0.029099 
179.953857 0.108535 
180.023621 0.265919 
180.961853 0.449043 
180.998154 0.32997 
182.009476 0.346865 
182.535721 0.02859 
183.948792 0.698273 
186.936218 0.168537 
189.998337 0.030988 
190.086502 0.013109 
190.107849 0.022097 
190.125137 0.765914 
190.143753 3.524849 
190.15892 2.303316 
190.966278 0.124651 
191.071594 0.012041 
191.11792 1.280471 
191.128128 0.364764 
191.142853 2.551207 
191.162613 0.2198 
191.964813 0.145378 
192.085175 0.03485 
192.102173 1.718246 
192.112762 0.498555 
192.122574 0.651256 
192.13829 19.787819 
192.174728 5.734231 
192.961731 6.956213 
193.097076 0.037841 
193.105637 0.038199 
193.141922 2.507554 
193.158829 1.883891 
193.169006 0.272244 
193.178253 0.388079 
193.953583 0.255332 
193.962997 0.06526 
194.067368 0.407682 
194.081512 0.014706 
194.095901 0.014099 
194.117905 0.468467 
194.128815 0.291068 
194.138275 0.0345 
194.154037 12.040547 
194.952011 0.603845 
195.948853 10.071392 
196.949692 0.027136 
197.03299 0.714304 
197.985413 0.020525 
199.588043 0.026313 
207.979752 0.014865 
208.858246 0.012867 
208.975418 0.012632 
209.96463 0.033606 
209.974396 0.013482 
210.972198 3.599568 
214.30545 0.023005 
214.840897 0.027322 
END IONS

