BEGIN IONS
PEPMASS=395.05
CHARGE=1+
COMPOUNDNAME=bisdethiobis(methylthio)gliotoxin
LIBRARYQUALITY=3
SMILES=N/A
INCHIKEY=OVBAGMZLGLXSBN-UOVKNHIHSA-N
INCHI=InChI=1S/C15H20N2O4S2/c1-16-12(20)14(22-2)7-9-5-4-6-10(19)11(9)17(14)13(21)15(16,8-18)23-3/h4-6,10-11,18-19H,7-8H2,1-3H3/t10-,11-,14+,15+/m0/s1
MSLEVEL=2
SOURCE_INSTRUMENT=N/A-ESI-QFT
FILENAME=library_mgf.mgf
SEQ=*..*
IONMODE=positive
ORGANISM=MONA
NAME=bisdethiobis(methylthio)gliotoxin [M+K]+
PI=MoNA
DATACOLLECTOR=MoNA:VF-NPL-QEHF024553
PUBMED=N/A
SUBMITUSER=mwang87
TAGS=
SPECTRUMID=CCMSLIB00004715616
SCANS=24553
50.689972 0.025581 
51.345287 0.023237 
52.602901 0.026091 
53.002544 0.021911 
53.039001 0.023083 
54.033825 0.026343 
54.449249 0.027578 
54.663269 0.02527 
55.018169 0.097978 
55.054543 0.788251 
55.40078 0.023971 
55.934696 0.47625 
56.049793 0.328644 
56.470203 0.027097 
57.033791 0.161401 
57.070206 1.923533 
57.431374 0.022682 
58.065453 5.049791 
59.049408 0.115346 
59.06057 0.027358 
59.121288 0.02086 
59.411331 0.023945 
59.598976 0.029659 
60.03793 0.025928 
60.044762 0.04541 
60.05587 0.301494 
60.488571 0.028939 
61.010941 5.417748 
61.02869 0.067023 
61.826752 0.024021 
62.0187 0.658548 
63.006641 0.195595 
66.152542 0.023775 
66.607544 0.023536 
66.976219 0.023542 
67.05439 0.556268 
67.214958 0.025971 
67.648163 0.027153 
68.04969 0.102188 
68.630463 0.021942 
69.033638 0.809578 
69.070015 1.53065 
70.065269 6.638766 
70.164932 0.028752 
70.923065 0.02519 
71.049271 0.439473 
71.068558 0.20304 
71.085632 1.234731 
72.044495 0.394547 
72.080864 1.15798 
72.510597 0.025688 
72.937263 0.299039 
73.028496 0.124672 
73.064865 0.887523 
73.254814 0.032901 
73.877609 0.023399 
74.060104 0.173464 
74.369194 0.021906 
75.044151 0.126428 
75.625359 0.03005 
77.340721 0.02195 
77.904762 0.028293 
78.928627 0.028121 
79.021286 1.920689 
79.054298 0.169318 
80.049469 0.037744 
80.609344 0.027675 
81.017075 0.028661 
81.033615 2.487515 
81.069885 0.788544 
82.065193 0.49391 
82.572601 0.024282 
83.006912 0.027232 
83.049217 1.265053 
83.060425 0.037609 
83.085602 0.512666 
84.044441 0.161434 
84.080879 2.139325 
84.342033 0.030023 
84.458031 0.029205 
84.937653 0.168067 
85.025917 0.023762 
85.028473 1.229569 
85.03965 0.111007 
85.064842 0.243585 
85.101227 0.573052 
85.520119 0.028806 
86.060104 0.526446 
86.096489 1.120431 
87.044167 0.60374 
87.055412 0.080324 
88.00222 0.025075 
88.021645 0.07257 
88.075851 0.069291 
89.059807 2.479414 
90.947769 0.271825 
91.054367 0.488607 
92.982796 0.104499 
93.069954 0.471733 
94.065109 0.109513 
94.92366 0.034171 
95.012848 0.099915 
95.049194 1.279596 
95.060341 0.043054 
95.068474 0.021071 
95.085587 1.270608 
96.04435 0.073968 
96.080803 0.159208 
96.088875 0.021359 
97.028511 1.141764 
97.064865 0.291954 
97.076096 0.446149 
97.101326 0.180508 
98.060188 1.988305 
98.096512 0.170549 
98.131248 0.027752 
99.044121 0.860217 
99.080559 0.094324 
99.091835 0.028872 
100.039268 0.059621 
100.075752 0.838674 
100.213394 0.023057 
100.868889 0.025259 
101.059822 1.364868 
102.037285 0.258146 
102.055138 0.108941 
102.948303 1.181966 
103.039085 0.066359 
103.842476 0.031122 
104.10714 0.265512 
105.033577 0.9821 
105.07003 0.986551 
106.065353 0.137914 
106.998116 0.038868 
107.049202 1.025107 
107.085632 0.38974 
108.044411 0.152705 
108.08091 0.029136 
109.028572 1.054778 
109.064835 0.225082 
109.10128 0.717887 
109.513382 0.026757 
110.06015 0.504625 
110.096603 0.186327 
111.044228 4.675487 
111.055428 0.161344 
111.080757 0.084944 
112.047371 0.095388 
112.075745 0.486539 
112.087044 0.887519 
112.111794 0.029843 
113.059792 0.467221 
113.070801 0.042454 
114.055145 0.110205 
114.091454 0.2791 
114.102753 1.615164 
114.933228 0.02737 
114.948166 0.151475 
115.039047 0.096841 
115.075356 0.028711 
115.0867 0.730547 
116.052818 0.031804 
116.070656 0.342169 
116.963852 0.828595 
117.054527 1.54452 
118.032173 0.320793 
118.065201 0.465943 
118.08638 2.961772 
118.943268 0.150896 
119.049179 0.167933 
119.085579 0.516649 
119.442581 0.027582 
120.047958 0.121528 
120.080971 0.783893 
120.94046 0.026087 
120.958992 0.186245 
121.028473 0.347535 
121.064911 0.880593 
121.075577 0.03769 
121.101334 0.210351 
122.060051 0.762427 
122.071449 0.86584 
122.096504 0.038254 
123.04422 0.234948 
123.074745 0.03215 
123.079475 0.553293 
123.116829 0.316035 
124.039673 0.041953 
124.075851 0.412464 
125.023262 0.044893 
125.059921 0.157765 
125.071114 0.069815 
125.095856 0.056956 
126.018677 0.026309 
126.055 0.320777 
126.091408 0.21997 
127.039101 0.964096 
127.050217 0.19685 
128.04332 0.028737 
128.070648 0.284626 
128.082047 0.061116 
128.107025 0.712816 
128.963776 0.119456 
129.102081 0.030893 
130.049744 0.034296 
130.065262 1.359683 
130.086349 0.234648 
131.049469 0.100309 
131.068253 0.036035 
131.085587 0.032231 
131.129166 0.506389 
131.950623 0.067492 
132.044403 0.203172 
132.080917 0.177892 
132.958633 0.267555 
132.995605 0.103313 
133.065033 0.229665 
133.085938 0.625552 
133.101151 0.174775 
133.966019 0.03031 
134.060165 1.155592 
134.096466 0.450296 
134.32373 0.029167 
134.956131 0.467465 
134.974182 0.108625 
135.044159 0.029984 
135.08075 0.12413 
135.091385 0.029144 
135.116867 0.066715 
136.061874 0.549272 
136.07579 1.677624 
136.112106 0.115673 
136.596375 0.030982 
137.059769 0.505295 
137.070862 0.025142 
137.132843 0.02991 
137.181519 0.028277 
138.055084 0.409048 
138.091278 0.176748 
138.127731 0.029293 
139.050339 0.697696 
139.087006 0.035504 
139.563629 0.027882 
140.068985 0.469229 
140.081711 0.228429 
140.107193 0.101305 
141.054581 1.22889 
141.102158 0.07283 
141.971832 0.121835 
142.049988 0.036133 
142.086411 0.380519 
144.044418 1.645167 
144.065811 0.083836 
144.080887 0.414908 
144.101929 0.068329 
144.995255 0.861477 
145.048798 0.119993 
145.065018 0.038906 
145.101562 0.037635 
145.966415 0.03679 
146.010925 0.026898 
146.060043 0.562187 
146.974319 0.680124 
147.011475 0.101791 
147.044022 0.157323 
147.080719 0.179671 
147.091736 1.657771 
147.117386 0.046345 
148.075836 0.763018 
148.112015 0.057811 
148.972076 0.480857 
149.059952 0.147599 
149.071136 0.032407 
149.095978 0.057408 
149.107391 0.068441 
150.026962 0.040616 
150.055069 0.652123 
150.091553 0.616051 
150.855225 0.025852 
150.951218 6.351686 
150.969086 0.086902 
151.038437 0.035442 
151.050568 0.04489 
151.075165 0.22186 
151.086746 0.181765 
151.111816 0.077603 
152.070679 0.795769 
152.081558 0.033061 
152.107147 0.049103 
152.951782 0.21015 
152.966965 0.412585 
153.037338 0.02623 
153.055008 0.034894 
153.065918 0.043921 
153.102127 0.036834 
154.086349 0.246976 
154.122421 0.02971 
154.947006 0.65572 
154.967239 0.035929 
155.010452 0.069006 
155.95491 1.550431 
156.065445 0.028674 
156.102188 0.130454 
156.138199 0.024141 
156.868423 0.058833 
156.944397 0.055181 
157.015579 0.030185 
157.076553 0.031344 
157.108429 0.601117 
157.95192 0.123618 
157.966721 0.179477 
157.990463 0.028478 
158.060196 1.250668 
158.081436 0.067218 
158.097 0.040102 
158.97438 0.275584 
159.091858 0.76902 
159.891754 0.039149 
159.9823 2.121575 
160.039246 0.251389 
160.075623 0.579458 
160.983109 0.090669 
160.99028 1.061103 
161.010925 0.036811 
161.059814 0.242548 
161.070984 0.029911 
161.09668 0.032892 
162.054993 0.496694 
162.091446 1.188463 
162.969177 0.038332 
163.005707 1.545324 
163.075302 0.269095 
163.087021 0.074486 
163.977051 0.028955 
164.070694 0.517537 
164.08194 0.054119 
164.09346 0.323152 
164.10701 1.051894 
164.967285 0.210378 
165.054901 0.087236 
165.066498 0.030187 
165.09108 0.065848 
165.102203 0.038022 
165.93866 0.040225 
166.049438 0.032516 
166.072388 0.113185 
166.086456 0.59182 
166.09758 0.145454 
166.966843 0.144604 
166.983353 0.692994 
167.04483 0.034712 
167.070312 0.140844 
167.081497 0.149271 
167.118073 0.34131 
168.065613 0.317486 
168.101883 0.129979 
168.139099 0.067466 
168.917358 0.221838 
168.961746 3.25582 
168.981918 0.024069 
169.031998 0.038312 
169.076004 0.287755 
169.097549 0.067221 
170.010895 0.035627 
170.081024 0.162493 
170.961426 0.036008 
170.978897 0.06684 
171.044205 0.058615 
171.063141 0.032677 
172.026978 0.054159 
172.039551 0.241093 
172.075821 0.247395 
172.957565 0.135586 
172.990158 0.157204 
173.010391 0.032752 
173.059799 0.035474 
173.07106 0.164901 
173.09433 0.029308 
173.107391 0.921784 
173.674622 0.027183 
173.870331 0.034755 
173.985886 0.032584 
174.006134 0.435792 
174.022125 0.028656 
174.055054 0.697606 
174.077469 0.056106 
174.091446 0.566998 
174.102707 0.030637 
174.128174 0.031418 
174.968582 0.073763 
175.006149 0.466627 
175.075546 0.120157 
175.086884 1.71242 
175.094208 0.02937 
175.119217 0.27637 
175.872284 0.030326 
175.977203 0.254755 
176.00087 0.086296 
176.021469 0.122781 
176.07077 0.362334 
176.090591 0.056177 
176.107025 0.55464 
176.985825 0.807051 
177.055161 0.061086 
177.066025 0.169759 
177.102249 0.114343 
177.992996 3.321313 
178.050018 0.355074 
178.086502 0.887426 
178.097687 0.027295 
178.122879 0.157689 
178.983612 1.448368 
178.992203 0.163298 
179.001221 0.803855 
179.070374 0.069589 
179.08075 0.031728 
179.117981 0.157551 
180.065277 0.072621 
180.101929 0.627345 
180.961609 0.031331 
180.981216 0.233897 
180.999161 0.104581 
181.01619 0.054006 
181.051422 0.058032 
181.097321 0.102385 
181.133774 0.068485 
182.081833 0.188166 
182.117813 0.07016 
182.884827 0.035925 
182.977509 0.295091 
182.997284 0.044604 
183.047623 0.070507 
183.112793 0.157919 
184.026627 0.29746 
184.075836 0.179116 
184.097015 0.519166 
185.070999 0.361815 
185.079407 0.037596 
185.107452 0.253488 
185.931427 0.026657 
185.961761 0.408301 
186.021667 0.077122 
186.055679 0.077117 
186.076859 0.112733 
186.091309 0.343856 
186.878479 0.034212 
186.92775 1.283984 
187.005951 0.078606 
187.086746 1.855632 
187.944672 0.245184 
187.977325 0.134514 
188.021744 0.647832 
188.035263 0.04037 
188.070786 0.436151 
188.091232 0.380648 
188.106979 0.236749 
188.924973 0.031119 
188.967148 0.170853 
188.986755 0.271554 
189.005569 0.099846 
189.02124 0.025191 
189.055588 0.029117 
189.065674 0.065518 
189.102371 0.486759 
189.163345 0.029055 
189.94133 0.034337 
189.974823 0.089339 
189.995148 1.814327 
190.016571 0.521841 
190.032166 0.206876 
190.050232 0.035309 
190.08606 0.413179 
190.096146 0.027578 
190.122757 0.065629 
190.965714 0.038799 
191.001068 2.221673 
191.070541 0.062289 
191.081711 0.365614 
191.117798 0.050491 
191.880859 0.238579 
191.964233 0.071678 
191.972748 0.123158 
192.050323 0.028903 
192.065277 0.164486 
192.102066 0.96649 
192.138931 0.031841 
192.961899 3.149263 
192.998932 0.304449 
193.016891 0.050721 
193.061157 0.037339 
193.096954 0.087725 
193.133606 0.104378 
193.990402 0.096071 
194.011215 0.026227 
194.081451 0.170978 
194.117584 1.39061 
194.127304 0.031645 
194.974152 0.049559 
194.996796 0.038862 
195.091904 0.122043 
195.113037 0.687209 
195.122589 0.157187 
195.149139 0.039253 
196.003784 0.553327 
196.061325 0.028956 
196.096817 0.19735 
197.012497 0.315386 
197.072021 0.038563 
197.1651 0.032708 
198.04248 0.110318 
198.077179 0.065411 
198.091339 0.208305 
198.112793 0.314352 
198.879044 0.540272 
198.968842 0.070929 
198.981339 0.028581 
199.086578 0.04121 
199.886887 0.110148 
200.060135 0.073658 
200.070847 1.548801 
200.09285 0.060428 
200.106979 0.199601 
200.128662 0.212324 
200.879547 0.031408 
201.021439 0.109084 
201.065506 0.085854 
201.074631 0.04266 
201.101746 0.073795 
201.996078 0.029973 
202.037125 0.105027 
202.049789 0.077174 
202.086487 0.638193 
202.108856 0.061647 
202.123138 0.064231 
203.001053 0.061902 
203.071854 0.099768 
203.081604 1.208539 
203.091095 0.035793 
203.117859 0.099369 
203.974365 0.030771 
204.066162 0.182321 
204.087265 0.0314 
204.102097 0.243173 
204.962112 1.739086 
204.982285 0.489257 
205.016632 0.510543 
205.060852 0.0751 
205.087082 0.040116 
205.09729 0.209673 
205.133759 0.261757 
205.881393 0.032099 
205.962601 0.034159 
205.98912 2.384347 
206.012329 0.035561 
206.081192 0.125848 
206.11795 0.216042 
206.128693 0.187489 
206.868683 0.078888 
206.978271 2.114948 
206.988358 0.262443 
206.998047 0.374473 
207.113113 0.253115 
207.875916 1.288069 
207.985992 2.658496 
208.005905 0.492272 
208.096924 0.246158 
208.133011 0.062729 
208.883987 0.389595 
208.98671 0.136242 
209.092484 0.032667 
209.128815 0.476849 
209.891525 0.697351 
209.984695 0.035285 
210.091461 0.045924 
210.112579 0.128641 
210.899429 0.080382 
210.972366 1.999219 
211.144653 0.139585 
211.892471 0.043717 
212.070816 0.072505 
212.105881 0.038154 
213.055618 0.04076 
213.06604 2.589955 
213.090393 0.081757 
213.101761 0.043649 
214.036652 0.264702 
214.050873 0.769237 
214.059631 0.234555 
214.071945 0.298174 
214.08638 0.626201 
214.107819 0.128485 
214.122818 0.465233 
214.143982 0.036666 
214.873703 0.188217 
214.893539 0.144932 
215.023254 0.085267 
215.081528 1.85181 
215.091522 0.057627 
215.117874 0.345574 
215.881454 0.549773 
216.054504 0.032119 
216.065689 0.12998 
216.088104 0.901068 
216.101959 0.654492 
216.12352 0.091874 
216.888947 1.288664 
217.097321 0.873146 
217.881454 0.726245 
217.990433 0.653655 
218.081421 0.452276 
218.092575 0.489878 
218.117828 0.262078 
218.905273 0.064741 
218.995026 0.064555 
219.076508 1.240129 
219.969315 0.047594 
219.987885 0.729104 
220.00824 0.134448 
220.05983 0.035108 
220.080276 0.028816 
220.097198 0.260585 
220.108826 0.037277 
220.133881 0.085732 
220.977386 0.073828 
221.012817 0.029674 
221.056244 0.032682 
221.092407 0.380796 
221.11705 0.035179 
221.128799 0.622565 
221.192444 0.031888 
221.902344 0.034857 
221.969894 0.027402 
221.984894 0.359322 
222.021317 0.031236 
222.040741 0.100405 
222.07579 0.031896 
222.112823 0.380646 
222.160294 0.041468 
222.898727 0.970512 
222.992905 0.512154 
223.144287 0.196611 
223.891174 0.039848 
223.980331 0.051119 
224.000916 0.736572 
224.024124 0.031144 
224.070633 0.033185 
224.878555 0.243113 
224.937454 0.032628 
225.030731 0.829027 
225.066544 0.027386 
225.102798 0.074147 
225.160004 2.073172 
225.886612 2.190895 
225.902039 0.111302 
226.074173 0.077397 
226.085968 0.193862 
226.10762 0.034185 
227.081558 1.375126 
227.117813 0.075133 
227.90097 1.707114 
227.997406 0.123551 
228.065567 0.187735 
228.08522 0.180926 
228.101868 0.356653 
229.006165 0.031756 
229.060928 0.583103 
229.096832 0.131556 
229.896149 0.268174 
230.013092 0.079998 
230.06723 0.097728 
230.080795 0.118078 
230.104507 0.037092 
230.117783 0.310364 
230.868301 0.096851 
230.889664 0.035811 
231.076782 1.614645 
231.088181 0.244907 
231.111755 0.257632 
231.896881 0.179785 
232.005341 0.045131 
232.026779 0.287362 
232.081299 0.384669 
232.096863 0.836997 
232.118362 0.323283 
232.132874 0.279841 
232.154648 0.09397 
232.884048 2.1884 
232.904343 2.56849 
233.092285 0.547531 
233.11409 0.035828 
233.128647 0.550969 
233.891602 36.837376 
233.985077 0.625627 
234.008499 0.154177 
234.076065 0.129793 
234.098892 0.083141 
234.112717 0.472574 
234.148621 0.04207 
234.90033 20.390158 
234.991013 0.096866 
235.107468 0.036207 
235.143829 0.066425 
235.891525 13.268349 
236.000854 0.401084 
236.022278 0.031081 
236.091812 0.036421 
236.10527 0.039301 
236.128403 0.073824 
236.891068 0.616111 
236.900757 0.531484 
237.004272 0.033514 
237.090988 0.676614 
237.102905 0.13845 
237.995483 0.07232 
238.085861 0.035741 
238.10791 0.043845 
238.914383 0.086586 
238.968826 0.273219 
238.987991 0.033513 
239.081543 0.742962 
239.901428 0.406328 
239.995041 0.124927 
240.087738 0.244983 
240.101868 0.118392 
240.909485 1.486277 
240.989517 0.027243 
241.059906 0.032138 
241.085587 2.948125 
241.896988 0.037322 
242.067032 0.070357 
242.080917 0.151761 
242.117828 0.103141 
242.186447 1.662129 
242.905899 0.083493 
243.076553 1.133399 
243.912582 1.003386 
244.026672 0.045217 
244.082733 0.142576 
244.096771 0.186673 
244.133362 0.066339 
244.904556 0.301427 
244.919708 0.078268 
244.999878 0.037541 
245.037552 0.072585 
245.056198 0.040034 
245.128464 0.622573 
245.912506 3.189858 
245.988205 0.032278 
246.008087 0.105829 
246.021484 0.495645 
246.076523 0.057619 
246.112808 0.154445 
246.884521 0.448293 
246.899277 2.728024 
246.911209 0.42364 
246.931366 0.103298 
247.016525 1.100902 
247.07457 0.391411 
247.144058 0.444439 
247.906967 0.852397 
248.001297 0.041283 
248.023499 0.096473 
248.074448 0.119882 
248.091187 0.077454 
248.103714 0.082334 
248.127289 0.074108 
248.878586 5.775866 
248.899994 0.487883 
248.91423 0.510274 
248.937164 0.988685 
248.956573 0.027594 
249.042419 0.041581 
249.087662 0.082231 
249.121674 0.072167 
249.885941 0.348024 
249.922302 0.037341 
250.016754 0.076967 
250.107407 0.100686 
250.89447 7.849138 
250.986755 0.039737 
251.083588 0.120343 
251.903244 3.244336 
251.975723 0.189684 
251.996109 0.604606 
252.101379 0.094874 
252.135223 0.457205 
252.893753 0.557728 
252.909729 1.19259 
253.097351 0.211814 
253.902481 35.649803 
254.081314 0.03642 
254.116653 0.033156 
254.902298 3.24084 
255.017197 0.031355 
255.075806 0.17811 
255.113327 0.033821 
255.895966 0.040681 
255.907028 0.058367 
255.9198 0.043048 
256.096436 0.093563 
256.132416 0.044889 
256.904785 0.772547 
257.001068 0.072841 
257.015564 1.420537 
257.09021 0.040884 
257.128906 0.032826 
257.446167 0.03032 
257.891449 1.617159 
258.112152 0.107776 
258.899506 4.362909 
259.016541 0.648764 
259.071289 0.303643 
259.142761 0.031802 
259.866669 0.029316 
259.891846 3.141383 
260.020538 0.184375 
260.128357 0.787708 
260.892181 0.144441 
260.935913 0.348436 
260.995819 0.151914 
261.069427 0.221545 
261.086975 0.300889 
261.131805 0.032767 
262.003265 0.392851 
262.10733 0.034948 
262.144073 0.034566 
262.897919 0.070885 
262.914459 2.726789 
262.930786 2.812401 
262.952881 0.061768 
263.011566 0.246999 
263.139496 0.286394 
263.912781 2.441796 
264.01825 0.051015 
264.123016 0.120491 
264.894836 0.328585 
264.909546 13.537836 
265.027466 0.318196 
265.059784 0.096325 
265.085846 7.865629 
265.155518 0.077582 
265.99173 1.077729 
266.065796 0.138092 
266.089661 1.245658 
266.103149 0.045603 
266.889099 3.616302 
266.947998 0.09662 
267.074585 0.605644 
267.097046 0.039838 
267.112976 0.120119 
267.889038 0.044582 
267.919006 0.08227 
267.993073 0.079661 
268.009094 1.51362 
268.097015 0.038443 
268.132629 0.036173 
268.182098 0.214601 
268.905579 0.252675 
269.054504 0.032769 
269.092133 0.304471 
270.006653 0.084839 
270.061462 2.108886 
270.112793 0.110864 
270.902771 0.649646 
271.016998 0.16529 
271.067261 0.334846 
271.14386 0.050826 
271.913513 2.494404 
271.987793 0.045555 
272.127991 0.040585 
272.899353 2.054267 
272.914459 0.108483 
272.935577 0.103927 
272.99585 0.625479 
273.12326 0.188926 
273.886322 0.531104 
273.906647 0.184781 
274.001556 0.049303 
274.07489 0.030736 
274.092255 0.112365 
274.107452 0.043716 
274.165009 0.026615 
274.894348 12.974452 
274.914612 4.19819 
274.930847 1.458529 
274.969788 0.13746 
275.01123 0.800384 
275.026917 0.039093 
275.902191 24.786316 
276.017426 0.29059 
276.910278 25.79991 
277.009338 0.03383 
277.027069 0.298927 
277.081726 0.033967 
277.902435 41.735916 
277.916992 2.836138 
277.979797 0.037464 
278.084534 0.040146 
278.139191 0.042181 
278.902557 4.747775 
278.920959 0.343784 
279.005463 0.031681 
279.917572 0.511679 
280.906952 1.067402 
280.924408 1.242561 
280.941376 0.237813 
281.053711 0.701822 
281.908356 0.761844 
281.924133 0.969219 
282.058258 0.378458 
282.90213 6.306882 
282.920135 6.014559 
283.052948 0.047685 
283.069244 3.891092 
283.107727 0.41456 
283.144653 0.034155 
284.074615 0.672363 
284.127472 0.041264 
284.996033 0.179577 
285.084839 16.437559 
285.123535 0.352033 
285.923035 0.093538 
286.003082 0.272235 
286.019867 0.396419 
286.038177 0.387309 
286.088684 2.242501 
286.106873 0.148228 
286.914368 2.351025 
287.011505 1.051749 
287.064606 0.370344 
287.965607 0.032534 
288.017212 0.611404 
288.123352 0.041916 
288.90979 9.973185 
288.990021 0.153531 
289.010315 0.093492 
289.027466 0.562582 
289.064667 0.035872 
289.100433 0.069822 
289.125336 0.113622 
289.918274 0.044403 
289.998047 0.186621 
290.138733 0.040064 
290.909546 0.04614 
290.925842 1.471906 
290.945618 0.580455 
290.972076 0.032417 
291.006348 0.517546 
291.079773 1.294638 
291.134094 1.297298 
291.897278 2.807547 
291.916443 0.060891 
292.011871 0.045387 
292.085449 0.666427 
292.136047 0.070628 
292.153961 0.041395 
292.90506 1.376448 
292.941101 3.691266 
293.128815 0.057661 
293.914734 1.202691 
293.93338 0.033178 
294.920135 0.326942 
295.913025 12.520507 
295.929047 6.864251 
296.913361 1.306542 
296.930176 0.986208 
297.816559 0.323448 
297.929596 0.554087 
298.003326 0.140127 
298.107819 0.093094 
298.916534 0.096136 
299.01178 1.187133 
299.06424 0.44018 
299.916077 0.387583 
300.070862 0.760292 
300.108673 0.150237 
300.125397 0.03597 
300.912323 1.410869 
300.990845 0.755158 
301.062195 0.659183 
301.079803 4.032597 
301.995697 0.121895 
302.071808 0.404215 
302.087677 0.790126 
302.926453 0.454871 
303.006561 1.525311 
303.04187 0.035524 
303.095459 13.474302 
303.933441 7.061438 
303.978302 0.111937 
304.011536 0.682393 
304.09845 0.664139 
304.923401 3.812035 
304.965698 0.035609 
305.022644 1.268298 
305.148712 0.036625 
305.923035 1.868507 
305.975159 0.264436 
306.025421 0.259066 
306.07724 0.039912 
306.92038 5.291956 
306.956512 0.245542 
307.020935 0.220829 
307.991119 0.044927 
308.921173 0.070572 
309.943756 0.748033 
310.915466 1.317396 
311.009735 0.034413 
312.839325 0.050846 
313.061401 0.077014 
314.891968 0.138267 
315.006531 1.585263 
315.077667 0.435448 
315.977386 0.034377 
316.011139 0.666063 
316.085297 0.191933 
316.905121 2.568251 
316.966705 0.709529 
316.986786 0.300617 
317.023346 2.340007 
317.057098 3.578201 
317.095215 3.208736 
317.906708 0.363655 
317.933563 0.094034 
317.975067 0.040128 
317.993835 0.342536 
318.02597 0.171204 
318.060699 0.19302 
318.09787 0.525265 
318.921082 0.834054 
318.957123 1.640836 
319.001129 1.558102 
319.107574 0.140448 
319.83609 0.047573 
320.006134 0.137222 
321.122131 0.036974 
321.944183 10.131338 
322.936737 2.937282 
323.831085 0.054696 
323.93634 0.332499 
324.931091 15.265634 
325.030884 0.52665 
328.834778 0.092333 
331.001648 0.175705 
331.072784 0.921085 
331.109894 0.036491 
332.079468 0.267121 
333.016998 2.467315 
333.944336 2.747605 
333.967865 0.050611 
334.020294 1.616953 
334.095734 1.624373 
334.162781 0.049982 
334.916321 0.12796 
334.945923 0.408233 
334.973175 1.463816 
334.995605 0.050654 
335.101501 0.59243 
335.123962 1.451805 
335.175354 0.045671 
335.195953 0.083095 
335.234344 0.051126 
335.269623 1.077721 
335.831177 0.420238 
335.944366 1.843553 
335.985199 0.043389 
336.00528 0.043927 
336.124786 0.033205 
336.160736 0.053823 
336.271454 0.045362 
336.839569 1.608195 
336.944977 0.165157 
336.967377 8.696338 
337.115997 0.077157 
337.844208 0.233272 
337.939301 0.195423 
343.041504 2.04087 
345.159546 0.038121 
346.12912 0.036507 
346.829681 0.047587 
347.067993 0.215068 
348.99411 0.479168 
349.083466 2.499717 
350.038025 0.157612 
350.088287 0.082149 
351.028015 0.563969 
351.170685 0.047782 
351.954865 5.868391 
352.03067 0.282787 
352.150696 0.090267 
352.956299 1.105886 
353.842468 2.080939 
353.955292 3.402557 
354.847778 0.09676 
354.956116 0.337458 
355.271423 0.037746 
361.150055 0.129512 
361.176331 0.035742 
361.84079 0.089873 
362.122742 0.083177 
362.842346 0.078049 
363.010742 0.03695 
363.093475 0.031914 
363.133728 0.174634 
364.138062 0.116104 
365.059723 0.259086 
365.149139 0.038886 
365.938995 0.038361 
369.144348 0.032603 
369.836792 0.132971 
370.84375 0.141909 
375.16214 0.035943 
375.192322 0.22686 
376.136993 0.239369 
376.1763 1.068951 
376.198608 0.057777 
377.149231 0.482195 
377.178741 0.287994 
377.20694 1.172702 
378.132111 0.074233 
378.154083 0.687698 
378.188354 0.613332 
378.215271 0.046408 
379.075714 2.244327 
379.13208 0.041076 
379.163788 0.221564 
379.189972 0.045911 
379.994873 0.031269 
380.079163 0.138184 
381.055481 0.19788 
393.021027 0.347756 
393.146759 0.46649 
393.179077 4.099009 
393.209625 100.0 
394.023529 0.268881 
394.149109 1.487374 
394.183777 4.591678 
394.212708 31.790201 
394.328735 2.108006 
394.845428 0.469528 
395.071564 0.845164 
395.124207 0.243089 
395.15976 3.304745 
395.189056 2.299635 
395.217346 7.480545 
395.241913 0.079064 
395.277344 1.881394 
395.332489 0.521471 
396.072571 0.042287 
396.162659 2.423959 
396.196259 1.621717 
396.223419 0.585206 
396.253662 0.050798 
396.280182 0.200496 
396.420074 0.047955 
396.456909 0.05758 
397.086121 0.599154 
397.139862 0.534213 
397.179321 2.754498 
397.214996 0.547176 
397.254608 0.274064 
397.328674 0.029227 
411.030762 0.049388 
END IONS

