BEGIN IONS
PEPMASS=321.0
CHARGE=1+
COMPOUNDNAME=MoNA:2243082 2,2-Dichloro-N-[(1s,2s)-1,3-Dihydroxy-1-(4-Nitrophenyl)propan-2-Yl]acetamide
LIBRARYQUALITY=3
SMILES=N/A
INCHIKEY=WIIZWVCIJKGZOK-IUCAKERBSA-N
INCHI=InChI=1S/C11H12Cl2N2O5/c12-10(13)11(18)14-8(5-16)9(17)6-1-3-7(4-2-6)15(19)20/h1-4,8-10,16-17H,5H2,(H,14,18)/t8-,9-/m0/s1
MSLEVEL=2
SOURCE_INSTRUMENT=LC-ESI-QQ-LC-ESI-QQ
FILENAME=output_mgf.mgf
SEQ=*..*
IONMODE=
ORGANISM=MONA
NAME=MoNA:2243082 2,2-Dichloro-N-[(1s,2s)-1,3-Dihydroxy-1-(4-Nitrophenyl)propan-2-Yl]acetamide [M-H]-
PI=MoNA
DATACOLLECTOR=MoNA
PUBMED=N/A
SUBMITUSER=mwang87
TAGS=
SPECTRUMID=CCMSLIB00000565351
SCANS=2603
35.2 5.242137 
42.1 1.347978 
45.9 0.549176 
47.0 0.549176 
54.2 0.149775 
59.1 17.57364 
69.9 0.449326 
70.8 0.898652 
74.8 0.1997 
77.0 8.287569 
77.9 1.397903 
79.1 2.096855 
83.0 2.396405 
84.2 1.397903 
85.4 0.349476 
91.0 3.045432 
92.9 1.497753 
95.2 0.998502 
96.4 0.349476 
96.8 15.277084 
97.9 0.549176 
99.0 12.181727 
100.8 0.249626 
103.0 0.149775 
105.0 1.347978 
106.2 1.497753 
106.6 0.349476 
109.3 0.149775 
110.9 0.249626 
111.4 0.499251 
113.1 6.64004 
114.8 0.898652 
117.0 0.698952 
117.9 2.096855 
118.4 1.347978 
120.9 12.631053 
121.9 0.149775 
123.1 0.499251 
126.1 1.248128 
126.9 3.494758 
129.2 0.249626 
130.4 0.349476 
131.8 0.399401 
133.2 0.349476 
134.3 0.549176 
135.0 0.249626 
136.8 1.048427 
137.2 1.597604 
138.8 1.597604 
141.2 14.128807 
146.0 1.497753 
146.9 1.997004 
148.0 6.140789 
148.3 3.894159 
149.4 0.449326 
151.4 26.510235 
152.1 100.0 
154.8 0.149775 
156.8 0.599101 
159.1 1.547678 
160.3 0.1997 
161.2 1.148278 
163.0 0.299551 
164.9 1.098352 
169.2 0.649026 
174.9 0.549176 
176.0 11.732401 
177.2 0.998502 
178.1 0.149775 
179.1 2.945582 
187.1 2.596106 
189.1 0.149775 
191.6 0.349476 
194.4 1.647529 
195.7 0.149775 
203.1 0.349476 
205.5 0.349476 
214.9 0.149775 
219.1 0.748877 
229.1 1.847229 
231.0 0.349476 
249.7 0.649026 
257.1 0.998502 
261.5 6.440339 
275.5 0.798802 
285.3 0.449326 
321.2 0.449326 
END IONS

