BEGIN IONS
PEPMASS=369.131
CHARGE=1+
COMPOUNDNAME=GIBBERELLIC ACID
LIBRARYQUALITY=3
SMILES=N/A
INCHIKEY=IXORZMNAPKEEDV-SNTJWBGVSA-N
INCHI=InChI=1S/C19H22O6/c1-9-7-17-8-18(9,24)5-3-10(17)19-6-4-11(20)16(2,15(23)25-19)13(19)12(17)14(21)22/h4,6,10-13,20,24H,1,3,5,7-8H2,2H3,(H,21,22)/t10-,11+,12-,13-,16+,17+,18+,19-/m1/s1
MSLEVEL=2
SOURCE_INSTRUMENT=N/A-ESI-QFT
FILENAME=library_mgf.mgf
SEQ=*..*
IONMODE=positive
ORGANISM=MONA
NAME=GIBBERELLIC ACID [M+Na]+
PI=MoNA
DATACOLLECTOR=MoNA:VF-NPL-QEHF006368
PUBMED=N/A
SUBMITUSER=mwang87
TAGS=
SPECTRUMID=CCMSLIB00004697431
SCANS=6368
50.012886 0.013504 
50.303192 0.013811 
50.31675 0.012359 
50.436676 0.01588 
50.505192 0.044572 
50.557331 0.020445 
50.993977 0.012545 
51.02393 0.015433 
51.246014 0.010864 
51.556236 0.01177 
51.796028 0.011374 
51.820499 0.038763 
51.940628 0.013052 
52.891926 0.016711 
53.002934 0.217603 
53.039337 0.466364 
53.209885 0.011212 
53.558147 0.017803 
53.565491 0.024745 
53.641838 0.013984 
53.944984 0.011655 
53.99815 0.01281 
54.0014 0.020903 
54.137585 0.012546 
54.561344 0.014415 
54.59277 0.022957 
55.018578 3.231256 
55.054974 9.710431 
55.056522 0.024159 
55.454628 0.031241 
55.528561 0.022595 
55.82724 0.011074 
55.935104 0.158299 
56.050209 1.510069 
56.058266 0.02784 
56.087975 0.018177 
56.342487 0.019361 
56.359329 0.017899 
56.960674 0.02664 
56.965504 3.322401 
57.034199 2.689362 
57.053516 0.032924 
57.07061 14.941173 
57.072186 0.068067 
57.457264 0.014485 
58.058334 0.013472 
58.065853 22.354776 
58.067532 0.263699 
58.073948 0.129781 
58.909565 0.017896 
58.917122 0.040838 
59.049847 3.007312 
59.051567 0.041418 
59.059566 0.016472 
59.061092 0.565575 
59.069176 0.321113 
59.426678 0.014663 
59.597244 0.015173 
59.988697 0.0163 
60.045094 1.336711 
60.056179 0.017166 
60.081482 21.778845 
60.083305 0.265478 
60.205589 0.019611 
60.607128 0.0458 
60.63982 0.021636 
61.011353 3.943293 
61.040318 0.214487 
61.078552 0.038826 
61.084816 0.430487 
61.216366 0.019525 
61.256508 0.013894 
61.376961 0.031986 
61.739986 0.030201 
62.019123 0.057979 
62.901718 0.0169 
62.982395 0.453094 
63.013168 0.020925 
63.157558 0.014493 
63.385498 0.018869 
63.508377 0.013605 
64.148293 0.013377 
64.311813 0.016258 
64.654083 0.013473 
64.719719 0.0161 
65.039268 0.083213 
66.037323 0.011996 
66.06192 0.013343 
66.802139 0.014457 
67.054901 12.342946 
67.114929 0.014352 
67.182243 0.041011 
67.612907 0.013932 
67.735435 0.019053 
68.050095 0.727882 
68.058212 0.237072 
68.292374 0.013694 
68.442902 0.040082 
68.512253 0.013588 
68.630127 0.036058 
69.034119 2.442407 
69.05616 0.039911 
69.070511 13.25373 
69.209023 0.017085 
69.367119 0.019562 
70.029358 0.141754 
70.051498 0.033928 
70.065773 14.398632 
70.073784 0.24428 
70.391869 0.015098 
71.049767 4.761137 
71.069107 0.095051 
71.086151 8.954878 
71.088249 0.02094 
71.490822 0.013602 
71.521729 0.012678 
71.705933 0.017401 
71.899643 0.016579 
71.952454 0.037287 
72.044991 0.533942 
72.053162 0.017091 
72.076172 0.020066 
72.081413 3.291345 
72.089539 0.065974 
72.36866 0.013486 
72.937714 0.047795 
73.029045 0.0843 
73.047417 0.486541 
73.065361 1.464087 
73.090012 0.014971 
73.13501 0.012543 
74.024254 0.328834 
74.0606 0.730814 
74.097031 0.144946 
74.774658 0.013824 
74.976044 0.053635 
75.031479 0.015322 
75.044556 0.237138 
75.191528 0.01583 
75.747299 0.053581 
76.039864 0.024074 
76.07618 0.039041 
76.458527 0.016483 
77.008972 0.056103 
77.461594 0.026331 
77.621651 0.015649 
78.134575 0.012412 
78.956383 0.031672 
79.021774 2.267955 
79.054794 6.57511 
79.091362 0.026363 
80.02372 0.020102 
80.049995 0.679585 
80.05809 0.101431 
80.948341 0.029552 
81.034004 1.555952 
81.045311 0.071685 
81.057411 0.017454 
81.070419 18.699236 
81.557465 0.014177 
82.017441 0.015872 
82.065666 2.576659 
82.073738 0.747634 
82.118828 0.013812 
82.186867 0.048243 
82.248581 0.016735 
83.04969 7.161524 
83.060844 0.49119 
83.086044 9.032503 
83.922348 0.019773 
84.044914 4.69627 
84.053078 0.017504 
84.081299 12.076617 
84.089378 0.081146 
84.110977 0.018392 
84.183922 0.013152 
84.960205 0.065325 
85.028893 2.188379 
85.04026 0.089918 
85.065308 5.88491 
85.076614 0.017353 
85.084633 0.143797 
85.101715 3.656295 
85.572205 0.013718 
86.03196 0.015042 
86.060562 1.83463 
86.068626 0.048916 
86.096931 10.539087 
87.044556 2.337329 
87.055779 0.18409 
87.080772 0.016705 
87.100227 0.158873 
87.419762 0.018298 
87.509438 0.012538 
87.7966 0.019105 
87.997787 0.024863 
88.039787 2.065748 
88.076103 0.604618 
88.184845 0.044982 
88.675735 0.027144 
89.043221 0.019522 
89.060135 2.465753 
89.166336 0.03013 
89.802094 0.024801 
90.055367 0.032799 
90.369713 0.024245 
90.655853 0.045589 
90.941833 0.014665 
90.948029 0.263867 
91.054611 4.544055 
91.057777 4.254605 
91.341827 0.043058 
92.057838 0.036302 
92.403725 0.037746 
92.683838 0.014913 
92.986252 0.013084 
93.070328 10.046421 
94.065529 1.227655 
94.073616 0.418178 
94.781067 0.035456 
95.046333 0.015122 
95.049545 3.618162 
95.06076 1.472562 
95.08593 17.647142 
96.044769 0.957151 
96.052872 0.028931 
96.081154 1.979027 
96.089211 1.044239 
96.349724 0.022853 
96.682541 0.013254 
97.028793 0.663532 
97.039963 0.287623 
97.065208 6.304142 
97.076447 0.088956 
97.101578 5.36114 
98.060349 1.880193 
98.068459 0.081886 
98.096802 9.414998 
98.100266 0.017726 
98.104614 0.117455 
98.975731 8.771468 
99.008224 0.01931 
99.044441 2.051333 
99.055618 0.110435 
99.080811 3.816921 
99.100113 0.456126 
99.115768 0.012717 
99.979118 0.156801 
100.039642 0.314359 
100.076073 2.765664 
100.083893 0.035221 
100.112343 0.468154 
100.259995 0.014544 
100.776695 0.016118 
101.003418 0.048446 
101.02372 0.065312 
101.060051 6.688628 
101.071198 0.045878 
101.48262 0.024866 
102.055244 1.781689 
102.091682 0.388789 
102.218468 0.015173 
102.968651 0.046388 
103.032501 0.045574 
103.039299 0.219138 
103.054459 0.320708 
103.075462 0.051384 
104.070885 0.019088 
104.107452 0.020731 
104.380554 0.029446 
104.436142 0.020821 
105.033875 0.101213 
105.070206 6.488389 
105.230141 0.014347 
105.975098 0.024538 
106.065445 0.22995 
106.073547 0.180057 
106.086609 0.032817 
106.181068 0.045849 
107.049416 2.29956 
107.085777 9.183425 
107.089691 0.044143 
108.044662 0.543407 
108.081024 3.303883 
108.088997 0.38752 
108.517738 0.014842 
108.958504 0.032551 
109.026031 0.143518 
109.028633 0.277662 
109.03978 0.033697 
109.064949 4.144114 
109.076195 1.142559 
109.101433 8.931687 
109.297234 0.021919 
109.486351 0.031549 
110.060219 2.837314 
110.071579 2.371205 
110.078865 0.045399 
110.083939 0.082341 
110.096588 2.046604 
110.104622 0.268212 
110.506531 0.014998 
111.044235 4.914939 
111.05545 1.759772 
111.080643 3.512383 
111.091858 0.103958 
111.116989 0.898116 
111.760902 0.013088 
112.039536 0.746625 
112.050766 0.229449 
112.07589 2.641131 
112.087326 0.019609 
112.112198 0.713193 
113.023552 0.117989 
113.034706 0.18975 
113.059822 1.816527 
113.071053 0.386393 
113.096313 4.257555 
114.037636 0.019171 
114.055069 1.936034 
114.091537 0.6244 
114.099525 0.02398 
115.039024 0.707197 
115.075485 0.877007 
115.086899 0.118201 
115.09803 0.014618 
116.002113 0.016973 
116.053062 0.017064 
116.070801 3.193071 
116.107063 0.197039 
116.986046 14.062973 
117.054642 0.017199 
117.069992 1.349607 
117.989243 0.367227 
118.032082 0.018366 
118.0653 0.153593 
118.086159 0.081479 
118.561104 0.013317 
118.982307 0.031954 
119.019096 0.018961 
119.049042 0.366767 
119.08567 5.788386 
120.044281 0.253238 
120.080872 2.611235 
120.088898 0.136009 
120.978867 0.149789 
121.028435 0.209694 
121.039543 0.04895 
121.06485 3.181925 
121.07608 0.161205 
121.084061 0.057517 
121.088364 0.01337 
121.101227 7.600797 
122.060043 2.688438 
122.06797 0.034924 
122.096504 1.30029 
122.104485 0.419192 
123.044052 1.323264 
123.055382 0.532463 
123.068207 0.054201 
123.08049 4.160442 
123.091461 0.267095 
123.116837 3.266788 
123.950569 0.01801 
124.039207 0.905691 
124.075729 4.001498 
124.083649 0.020035 
124.112053 1.352124 
124.120171 0.049456 
124.999641 0.015325 
125.021042 0.122702 
125.059692 2.866122 
125.070831 0.424388 
125.096146 2.725262 
125.107368 0.197844 
125.115356 0.019078 
126.054947 1.254532 
126.066422 0.059975 
126.091301 2.104291 
126.099731 0.020925 
126.127731 1.076573 
126.759315 0.053277 
127.038811 0.329859 
127.050156 0.470692 
127.075394 0.745769 
127.086479 0.894631 
127.111748 0.088951 
127.488258 0.019833 
128.007538 0.015135 
128.070557 2.026085 
128.081665 0.016823 
128.106934 1.292841 
128.143311 0.017356 
129.05452 2.37312 
129.065338 0.0211 
129.069885 0.535964 
129.102295 0.046213 
130.049713 1.418514 
130.065063 0.474311 
130.086044 1.011546 
130.154816 0.015378 
131.001358 0.313575 
131.049042 0.291545 
131.070587 0.017181 
131.085419 3.29983 
131.37439 0.021854 
132.080719 0.455868 
132.088669 0.094831 
132.101761 0.171018 
133.064651 1.002392 
133.075836 0.017414 
133.08638 0.047753 
133.101028 5.036065 
133.591095 0.015007 
133.947601 0.039985 
134.012009 0.01885 
134.046005 0.019412 
134.059845 0.932896 
134.096146 0.783717 
134.104477 0.163758 
134.956223 0.016844 
134.978714 2.960676 
134.996399 20.68416 
135.002243 0.274033 
135.043823 0.580339 
135.05513 0.023247 
135.080307 3.375227 
135.091766 0.09684 
135.116745 4.372276 
135.866745 0.039568 
135.999649 0.514057 
136.039154 0.226993 
136.061768 0.018802 
136.075607 3.095711 
136.111969 0.623767 
136.12001 0.068911 
136.844803 0.031446 
136.957596 0.11666 
136.992416 0.133515 
137.000671 0.03061 
137.011597 2.442023 
137.021652 0.013301 
137.04599 0.013937 
137.059525 1.780955 
137.070816 0.622144 
137.078598 0.042122 
137.095932 2.556154 
137.107635 0.019059 
137.132309 0.925836 
137.463867 0.043125 
137.478699 0.04203 
138.01236 0.535789 
138.029373 0.020487 
138.054794 2.098942 
138.091217 2.761247 
138.099396 0.024252 
138.127335 0.279894 
138.989136 0.275599 
139.008942 0.935653 
139.03688 0.627818 
139.049973 0.28647 
139.075134 1.595582 
139.086441 0.827765 
139.094681 0.013371 
139.111465 0.957564 
140.033981 0.421242 
140.070389 2.275857 
140.106766 0.679651 
141.017242 0.021483 
141.054337 0.247931 
141.065475 0.779207 
141.090698 0.370306 
141.101807 0.043476 
141.12735 0.113128 
141.441376 0.033106 
142.049393 0.198038 
142.086121 1.094761 
142.122559 0.469404 
142.158966 0.12633 
143.070267 0.206164 
143.085541 0.976634 
143.11795 0.029297 
144.065353 0.326448 
144.080612 0.409086 
144.101669 0.274532 
144.474121 0.014122 
145.064682 0.493134 
145.101044 3.503355 
145.89827 0.020365 
146.059799 1.584157 
146.096359 0.339306 
146.104248 0.197475 
146.572449 0.049617 
146.917999 0.163798 
146.996338 0.073158 
147.024765 0.033238 
147.043823 0.255026 
147.064972 0.631287 
147.080231 1.723369 
147.116699 3.361709 
147.677917 0.021656 
148.039383 0.032038 
148.075455 2.326267 
148.08287 0.02885 
148.111877 3.172112 
148.119049 0.066642 
148.971634 1.060783 
149.011917 1.151345 
149.059555 1.340157 
149.070694 0.273506 
149.095963 2.579575 
149.107758 0.122121 
149.11525 1.475847 
149.132309 2.102714 
150.054794 1.209049 
150.066635 0.015632 
150.078445 0.01664 
150.091217 2.423606 
150.127686 0.447729 
150.722992 0.020889 
150.950867 0.938327 
150.957703 0.02515 
150.968567 0.454467 
151.027527 0.036204 
151.039078 0.119512 
151.049942 0.05143 
151.075043 1.756788 
151.086365 0.398098 
151.111588 1.267699 
151.122635 0.159052 
151.147934 0.180194 
152.033829 0.019252 
152.044708 0.036702 
152.070511 2.904552 
152.08136 0.178197 
152.106888 2.171226 
152.143387 0.08426 
152.55571 0.015931 
152.643906 0.020657 
152.945084 0.014011 
152.951996 0.23548 
152.966995 0.039664 
152.98912 7.342767 
153.006805 4.164325 
153.052673 0.750248 
153.06546 0.279927 
153.090836 0.882078 
153.102036 0.563798 
153.127151 0.184344 
153.559052 0.053008 
153.737396 0.035775 
153.959274 0.017153 
154.010361 0.016018 
154.049667 0.31456 
154.086105 1.689067 
154.096878 0.070718 
154.122421 0.582743 
154.500443 0.012368 
154.968307 0.553791 
155.02211 2.072326 
155.031281 1.304361 
155.044846 0.08398 
155.070053 0.327938 
155.0811 0.026483 
155.085419 0.085229 
155.106293 0.018046 
155.117645 0.562034 
156.022705 0.286435 
156.065475 0.523116 
156.076309 0.024443 
156.10173 0.384164 
156.137909 0.033829 
157.019333 0.823367 
157.060593 0.502321 
157.085648 0.028407 
157.101105 1.009536 
157.349136 0.017236 
158.011917 0.01607 
158.060043 0.131021 
158.08075 0.192886 
158.09642 0.044388 
158.117432 0.138368 
158.495132 0.015992 
159.080246 0.923697 
159.091476 0.059409 
159.11673 1.678249 
160.027847 1.05928 
160.075394 0.731918 
160.097458 0.051976 
160.112244 0.230612 
160.119644 0.094697 
160.678009 0.015616 
161.011536 0.175473 
161.059586 0.292143 
161.070663 0.158497 
161.095779 1.85192 
161.107117 0.128579 
161.132202 1.682278 
162.05484 0.831941 
162.091156 1.547913 
162.09816 0.02398 
162.127579 0.131518 
162.135239 0.033306 
162.983215 0.021901 
163.05011 0.053074 
163.075043 1.181118 
163.086563 0.414836 
163.093887 0.017032 
163.111435 1.299271 
163.122803 0.07652 
163.147766 0.555105 
163.723083 0.018117 
163.998672 0.048157 
164.033737 0.01922 
164.070389 2.384314 
164.081741 1.537891 
164.089111 0.017137 
164.106812 1.89846 
164.143387 0.103562 
164.929077 0.020414 
165.05394 0.667398 
165.065704 0.194938 
165.090729 1.112476 
165.102142 0.482933 
165.127258 0.419675 
165.423492 0.016936 
166.049545 0.207891 
166.060867 0.552407 
166.086212 3.008475 
166.097305 0.803278 
166.110062 0.03728 
166.122467 0.970957 
166.464447 0.017415 
166.982224 0.170547 
167.004547 0.110041 
167.022736 0.10576 
167.044983 0.020808 
167.055145 0.035588 
167.069717 0.530711 
167.081329 0.608903 
167.106461 0.198528 
167.117783 0.705088 
167.125854 0.017188 
167.143234 0.024548 
167.15152 0.046329 
168.065384 1.058653 
168.101791 2.082156 
168.112793 0.039067 
168.138107 0.922369 
168.961395 0.430161 
168.983032 0.133137 
169.038666 0.01482 
169.046921 0.637628 
169.060364 0.065776 
169.085632 0.144309 
169.101151 0.139619 
169.133667 0.017906 
170.060669 0.08865 
170.080902 2.385846 
170.11731 0.448424 
170.905853 0.238119 
170.962997 1.499488 
170.988953 0.025092 
170.99971 1.205915 
171.032547 0.01685 
171.080719 0.055768 
171.116776 0.515826 
172.075241 0.16818 
172.095657 0.020096 
172.112015 0.100859 
172.133179 0.09839 
172.943222 0.118884 
172.951859 0.086087 
172.979172 0.019912 
173.070679 0.016598 
173.095947 0.560755 
173.107483 0.038334 
173.132263 0.777832 
174.054733 0.074497 
174.091248 0.883859 
174.113281 0.015412 
174.127472 0.23095 
174.30246 0.040628 
174.820206 0.013675 
175.027771 0.070144 
175.036453 0.296898 
175.075165 0.615264 
175.086395 0.181902 
175.111572 0.963375 
175.14798 0.595503 
176.059082 0.081723 
176.070404 1.76741 
176.079575 0.060589 
176.106796 1.490213 
176.988983 0.07425 
177.007095 0.015239 
177.043076 0.08293 
177.054337 0.150724 
177.065659 0.191766 
177.07811 0.029975 
177.090759 0.762561 
177.101883 0.491546 
177.127365 0.358131 
177.138748 0.107587 
177.163559 0.096148 
178.038345 0.730601 
178.048843 0.056384 
178.060516 0.075106 
178.08606 2.002693 
178.09404 0.023104 
178.122543 2.728801 
178.131302 0.017596 
179.007019 0.013752 
179.022095 3.037021 
179.039825 0.145584 
179.069901 0.39581 
179.081207 0.311595 
179.089279 0.020245 
179.1064 0.580771 
179.117584 0.709192 
179.142624 0.16604 
179.154144 0.036162 
179.502274 0.057398 
180.02327 0.25296 
180.065247 0.716175 
180.075806 0.07629 
180.101685 1.648634 
180.138168 0.28431 
180.46611 0.014188 
180.551392 0.054679 
181.019119 0.336081 
181.039124 0.014824 
181.04892 0.077783 
181.060532 0.156836 
181.085098 0.511238 
181.097107 1.071238 
181.122421 0.069737 
181.133286 0.203334 
181.917984 0.021479 
182.0811 0.92862 
182.092606 0.020595 
182.117279 0.935037 
182.153946 0.096764 
182.926041 0.020443 
182.938644 0.014727 
182.976822 0.014483 
183.066879 0.017746 
183.076309 0.040724 
183.102676 0.041189 
183.1129 0.911745 
184.060379 0.024217 
184.072708 0.464995 
184.087067 0.123729 
184.096619 0.864609 
184.133072 0.468989 
185.07048 0.063836 
185.095627 0.238911 
185.132034 0.389684 
186.055054 0.028445 
186.091003 0.252163 
186.126724 0.047791 
186.135773 0.039515 
186.92746 0.317703 
187.027512 0.116064 
187.074753 0.157959 
187.086319 0.021912 
187.111404 0.597577 
187.12236 0.017694 
187.147873 0.239262 
187.654419 0.026806 
187.908768 0.103251 
188.02327 0.033366 
188.058975 0.016352 
188.070343 0.576371 
188.080612 0.01478 
188.106781 0.834405 
188.143143 0.036117 
188.915451 2.133829 
188.973862 1.893301 
189.005569 0.09203 
189.042389 0.018924 
189.055054 0.017749 
189.064957 0.074652 
189.090927 0.848103 
189.101776 0.404044 
189.111649 0.071072 
189.127594 0.225402 
189.137756 0.086561 
189.163559 0.096561 
190.04924 0.03808 
190.08606 1.411935 
190.12236 1.35129 
190.953491 0.905742 
190.96283 0.054565 
191.000732 0.024243 
191.021576 0.055432 
191.070023 0.213512 
191.080933 0.512532 
191.106476 0.646091 
191.117249 0.438145 
191.142731 0.042267 
191.154129 0.021159 
191.178543 0.020684 
191.971207 0.021204 
192.054398 0.018171 
192.065216 0.858085 
192.075089 0.033506 
192.101608 1.945904 
192.111053 0.048187 
192.138123 1.535233 
192.949341 0.049512 
192.961517 0.807797 
192.986694 0.039591 
193.037369 0.071349 
193.060501 0.400053 
193.085663 0.332637 
193.097122 0.52344 
193.122314 0.545419 
193.133179 0.523018 
193.142212 0.041447 
193.158508 0.052444 
194.080948 1.606253 
194.091202 0.075468 
194.117371 1.60892 
194.126694 0.019453 
194.13768 0.017674 
194.962723 0.015513 
194.999786 0.62488 
195.063034 0.044354 
195.076752 0.112118 
195.100494 0.241222 
195.112732 0.367598 
195.137589 0.066521 
195.148666 0.145187 
196.060181 2.539166 
196.070602 0.024682 
196.096695 2.001897 
196.106323 0.015656 
196.132874 1.037596 
196.169342 0.043153 
197.014816 0.065848 
197.032593 0.558275 
197.050232 0.084169 
197.080643 0.058375 
197.093048 0.154902 
197.118423 0.047979 
197.128448 1.154808 
198.036362 0.184879 
198.090469 0.021188 
198.112045 0.426988 
198.122162 0.016897 
198.148743 0.117362 
199.010483 0.036671 
199.028015 0.263483 
199.086212 0.019967 
199.097351 0.020609 
199.111053 0.229538 
199.130402 0.080815 
199.147705 0.045272 
199.929031 0.057614 
200.070847 0.074757 
200.106277 0.235113 
200.128113 0.075156 
200.143082 0.01732 
200.973434 0.062717 
201.043274 0.039733 
201.079636 0.038266 
201.090775 0.140649 
201.101486 0.086243 
201.126892 0.260751 
201.138565 0.020077 
201.163757 0.083993 
202.08577 0.370206 
202.12233 0.41826 
203.0224 0.021135 
203.058212 0.033439 
203.070007 0.019651 
203.081329 0.155002 
203.089615 0.041364 
203.106552 0.205446 
203.11734 0.342604 
203.14296 0.545648 
204.064728 0.436789 
204.090469 0.910627 
204.101669 1.088199 
204.112244 0.020275 
204.125687 0.053049 
204.137589 0.355389 
204.146927 0.144674 
204.909363 0.023112 
205.037918 0.123695 
205.074432 0.11521 
205.085464 0.200441 
205.096832 0.46239 
205.121964 0.094789 
205.133148 0.538427 
205.158722 0.021226 
205.195145 0.019944 
205.918259 1.708688 
206.080704 0.848487 
206.091019 0.086468 
206.117355 1.292465 
206.153702 0.01822 
206.926117 11.979214 
207.034775 0.059377 
207.065033 0.105792 
207.07605 0.321965 
207.101166 0.338937 
207.112518 0.817699 
207.137985 0.019143 
207.148804 0.569565 
207.174133 0.029247 
207.928436 0.261308 
208.05983 0.088497 
208.096558 1.133523 
208.107239 0.024894 
208.133102 0.741446 
208.962296 0.162062 
209.048538 0.018243 
209.078705 0.043584 
209.092117 0.619758 
209.116623 0.204626 
209.128296 1.479715 
209.206741 0.031559 
209.301575 0.024182 
210.007278 0.015951 
210.075104 0.368231 
210.08757 0.32516 
210.11235 1.153824 
210.148605 0.969221 
210.351135 0.015587 
210.922852 0.017045 
210.959045 0.756144 
210.971725 0.683548 
211.027008 0.019029 
211.065186 0.022578 
211.095596 0.015991 
211.109818 0.180259 
211.132874 0.065689 
211.144073 0.021453 
211.205322 0.11933 
212.092041 0.244791 
212.102646 2.571113 
212.127792 0.064794 
212.138428 0.038191 
212.494339 0.014091 
212.935623 0.172488 
212.955643 0.355615 
212.972397 0.4625 
213.043091 0.442073 
213.090607 0.138637 
213.103241 0.028589 
213.124634 0.145275 
213.163605 0.037527 
214.047775 0.019627 
214.085831 0.149309 
214.121979 0.068575 
214.410843 1.620303 
214.429108 1.174093 
214.935165 0.043357 
214.953827 0.630194 
214.96875 0.034053 
215.022736 0.037416 
215.057648 0.018627 
215.106216 0.051035 
215.117538 0.075139 
215.142609 0.038262 
216.101639 0.192312 
216.112503 0.019151 
216.137955 0.18445 
216.949539 0.016733 
216.98671 0.273297 
217.03804 0.149457 
217.073746 0.03814 
217.096512 0.108656 
217.105392 0.020708 
217.121674 0.038804 
217.133194 0.187658 
218.080963 0.301837 
218.117081 1.517904 
218.127945 0.025813 
218.153641 0.105309 
218.657257 0.046588 
218.984222 0.07916 
219.052521 0.016346 
219.076401 0.20708 
219.088348 0.022755 
219.101456 0.054575 
219.112457 0.393923 
219.148788 0.299655 
219.174301 4.539417 
220.096375 0.608782 
220.132889 1.249019 
220.143646 0.024689 
220.177505 6.034325 
220.926208 0.028692 
220.941833 0.368477 
221.032883 0.015039 
221.091782 0.331452 
221.116013 0.076474 
221.128159 0.823284 
221.180954 0.211665 
222.062927 0.021431 
222.075104 0.212878 
222.086472 0.017509 
222.100967 0.126083 
222.112045 0.838652 
222.148834 0.212479 
222.15947 0.022547 
222.898407 0.16674 
222.921173 0.415499 
223.03035 0.048849 
223.068344 0.139673 
223.095139 0.038548 
223.107773 0.793974 
223.131668 0.027096 
223.144028 0.658769 
223.928757 21.29958 
224.02301 0.029708 
224.091507 0.199189 
224.104248 0.050106 
224.127716 0.384779 
224.151596 0.058427 
224.163696 0.06285 
224.898911 0.288402 
224.936905 9.032925 
225.072495 0.021642 
225.123138 0.268351 
225.159714 0.139037 
225.936737 0.031322 
226.085022 0.018753 
226.107437 0.217463 
226.121063 0.018064 
226.144135 0.053567 
226.179718 0.06842 
226.893829 0.017455 
226.936798 0.024279 
226.951416 0.136796 
227.106293 0.069286 
227.139008 0.587418 
228.101227 0.081746 
228.932968 0.054242 
229.037735 0.0353 
229.07431 0.721321 
229.121353 0.056092 
229.133118 0.022464 
229.44281 0.046657 
229.895905 1.267969 
229.918503 0.994216 
230.068008 0.068236 
230.079788 0.078202 
230.104675 0.017199 
230.11702 0.264871 
230.154099 0.038414 
230.92627 1.249992 
230.947205 0.031344 
230.966522 3.361072 
230.982956 0.069449 
231.002304 0.299887 
231.053696 1.999508 
231.089996 0.055118 
231.100388 0.040963 
231.137283 0.016765 
231.14888 0.019029 
231.173126 0.01953 
231.967758 0.01664 
231.986649 0.043784 
232.059143 0.058998 
232.096481 0.297132 
232.13266 0.189235 
232.922302 0.350923 
232.946091 3.634592 
232.96405 4.070734 
233.035507 0.143205 
233.067642 0.822705 
233.079315 0.017346 
233.092438 0.063131 
233.116119 0.10334 
233.128311 0.261121 
233.153839 0.046338 
233.605911 0.048692 
233.959946 0.27992 
234.075287 0.031439 
234.112015 0.448585 
234.148209 0.237816 
234.958145 3.888826 
234.997101 0.61224 
235.04776 0.057079 
235.078812 0.581338 
235.107513 0.191604 
235.131668 0.040924 
235.143845 1.436995 
235.961044 0.386224 
235.999451 0.204072 
236.058701 0.021868 
236.078979 0.066631 
236.091278 0.157579 
236.127686 1.064145 
236.164032 0.108789 
236.956024 1.235526 
236.974426 0.0368 
236.994598 0.089369 
237.086349 0.161574 
237.110901 0.032916 
237.123413 0.334594 
237.15918 0.205354 
237.922363 0.021867 
237.944183 0.868633 
238.06842 1.158858 
238.083847 0.021264 
238.106873 0.223516 
238.119278 0.105585 
238.143188 0.531805 
238.155396 0.020056 
238.934799 0.014475 
238.952255 0.415949 
239.008591 0.01906 
239.059296 0.025969 
239.103943 0.050345 
239.138977 0.427477 
240.069077 0.021221 
240.087357 0.052303 
240.100906 0.036125 
240.124069 0.045919 
240.909027 1.175989 
240.93158 0.196708 
241.049042 0.039644 
241.074051 0.067621 
241.097672 0.083774 
241.12027 0.0714 
241.156525 0.041186 
241.910507 0.066811 
241.939224 8.32715 
242.117188 0.028114 
242.909393 1.973987 
242.945984 0.295963 
243.08667 0.056007 
243.112503 0.041553 
243.134216 0.740206 
243.172195 0.022107 
243.907425 0.022255 
244.096283 0.108935 
244.133011 0.063405 
244.905319 0.338455 
245.000397 0.050563 
245.069489 0.027079 
245.103989 0.067362 
245.127655 0.020881 
245.164169 0.026033 
245.912109 0.042979 
246.075027 0.066951 
246.111801 0.182397 
246.148193 0.379497 
246.893951 0.05996 
246.961655 0.032128 
247.014435 0.90799 
247.062729 0.028646 
247.084579 0.425785 
247.102463 0.076372 
247.143875 0.385215 
247.204086 0.021909 
247.906631 1.368545 
247.928635 9.52671 
248.015671 2.2494 
248.036606 0.017998 
248.052475 0.021648 
248.079651 0.347225 
248.090881 0.052553 
248.12793 0.399014 
248.163498 0.055985 
248.889801 0.079767 
248.936569 8.743339 
248.976578 1.886741 
248.993774 0.130389 
249.012009 2.674129 
249.06424 0.996702 
249.078491 0.183133 
249.15947 0.024066 
249.9245 0.021313 
249.943466 0.189366 
249.961395 0.366437 
250.013519 0.276343 
250.068771 0.016157 
250.106659 0.333033 
250.143082 0.418174 
250.932541 4.27902 
250.956207 2.764786 
250.973251 3.070289 
251.009079 0.071096 
251.059113 0.031292 
251.078003 0.368479 
251.103622 0.035727 
251.125198 0.046378 
251.138779 0.811099 
251.174896 0.019332 
251.90683 0.105294 
251.957886 0.034301 
251.971161 0.312121 
252.122482 0.067386 
252.137115 0.088838 
252.158203 0.074213 
252.931458 0.018906 
252.969055 6.072021 
253.037521 0.053465 
253.091492 0.074257 
253.118622 0.372033 
253.154343 0.223475 
253.969574 0.924245 
254.088898 0.025651 
254.115204 0.15775 
254.13858 0.080418 
254.946411 0.288435 
254.966309 1.982933 
255.074188 0.056801 
255.095673 0.171639 
255.111755 0.092284 
255.135284 0.021936 
255.171021 0.026927 
255.954712 0.127614 
256.078857 3.157512 
256.132141 0.10554 
256.582001 0.014705 
256.919952 0.044691 
256.963867 0.567448 
257.068726 0.020806 
257.128998 0.023216 
257.431213 0.015469 
257.967377 0.027556 
258.111389 0.053247 
258.147034 0.041412 
258.958008 0.218389 
259.143738 0.057152 
260.128174 0.020809 
260.16391 0.027637 
260.957367 0.053321 
261.100281 0.043195 
261.123566 0.046879 
261.159515 0.122996 
261.885956 0.021447 
262.073578 0.037099 
262.105896 0.025479 
262.141968 0.098857 
262.155334 0.128535 
262.178955 0.02006 
262.951965 0.129982 
263.027008 0.017604 
263.096954 0.022482 
263.116608 0.018351 
263.138611 0.298384 
263.174652 0.033536 
263.884186 0.014747 
263.923859 0.165015 
263.944611 0.69806 
264.053955 0.044405 
264.089935 0.017276 
264.12149 0.112647 
264.158051 0.123678 
264.170807 0.052042 
264.908478 0.130395 
264.947815 0.037677 
265.094757 0.026434 
265.129028 0.016011 
265.154297 0.602039 
265.914124 0.025655 
265.939178 100.0 
266.027069 0.349684 
266.068939 0.034198 
266.117584 0.019272 
266.137878 0.035213 
266.149841 0.039845 
266.909973 1.124692 
266.944092 7.739913 
266.984344 0.287327 
267.053375 0.09376 
267.089813 0.203999 
267.143646 0.026594 
267.908081 0.037714 
267.935883 0.97146 
267.957275 0.822251 
268.117371 0.05676 
268.130188 0.036202 
268.263123 8.535012 
268.90686 0.125823 
268.942963 9.954678 
268.978271 0.343959 
269.113892 0.015168 
269.132172 0.292279 
269.149902 0.386365 
269.952362 0.063423 
270.109009 0.215149 
270.149017 0.087361 
270.977631 0.016252 
271.048798 0.024254 
271.146851 0.254483 
272.126984 0.086785 
272.163727 0.074894 
272.956726 0.304318 
273.122498 0.067379 
273.159882 0.087703 
273.900909 0.045712 
274.972992 3.628254 
275.11264 0.04555 
275.138397 0.051107 
275.175751 0.021841 
275.977295 1.711042 
276.158295 0.042402 
276.931427 0.330914 
276.968109 9.629836 
277.154327 0.348127 
277.191742 0.022718 
277.970459 1.508894 
278.103424 0.054587 
278.187744 0.060377 
278.899261 0.046676 
278.9664 2.192042 
279.133331 0.194782 
279.170441 0.07454 
279.896454 1.063344 
279.954803 4.017237 
280.120575 0.021545 
280.165436 7.286571 
280.899139 0.067163 
280.960388 0.219428 
281.129547 0.021258 
281.150909 0.015388 
281.168671 0.966528 
281.186096 0.068502 
281.896118 1.564732 
281.934753 0.162359 
281.955658 0.838773 
282.181152 0.364054 
282.278503 1.779161 
282.919128 0.077614 
282.95816 0.359455 
283.141602 0.04378 
283.281616 0.133109 
283.891754 0.323879 
283.949707 22.444618 
284.919891 2.150167 
284.952484 1.500293 
285.009399 1.012072 
285.101227 0.025943 
285.91922 0.078211 
285.951782 0.060744 
286.915955 0.509235 
286.953491 1.288681 
287.162292 0.018753 
288.156525 0.056488 
288.170807 0.029369 
288.955414 0.10792 
289.154572 0.607985 
289.190765 0.184617 
289.939209 0.025555 
290.099609 0.016435 
290.13736 0.023473 
290.15741 0.024479 
290.174805 0.394368 
290.94693 0.334808 
290.984253 0.11693 
291.106781 0.016685 
291.133575 0.162184 
291.170105 0.270307 
291.205597 0.018204 
291.267609 0.058859 
291.906311 0.042747 
292.135712 0.021055 
292.1539 0.712602 
292.946594 0.01767 
292.984283 2.401413 
293.069153 0.048287 
293.123016 0.035719 
293.148926 0.252664 
293.171783 0.027334 
293.186707 0.056781 
293.988617 1.261227 
294.182159 0.044067 
294.941589 0.202389 
294.979187 5.465902 
295.143524 0.023266 
295.164612 0.045281 
295.895477 0.082881 
295.911377 0.04143 
295.960541 0.157254 
295.980286 1.042169 
296.16687 0.057613 
296.908417 0.022378 
296.977325 1.89284 
297.757812 0.023073 
297.906494 0.837139 
297.965118 0.605039 
298.910065 0.027077 
299.060883 0.154504 
299.906921 0.46686 
301.90274 0.043395 
303.019073 0.04391 
304.189331 0.061446 
304.853912 0.026947 
305.148804 0.132407 
305.186157 0.231256 
307.059845 0.016327 
307.164154 0.341511 
307.183868 0.021463 
307.201996 0.207654 
307.949493 1.089013 
308.919922 0.147328 
308.952606 0.078573 
308.9953 0.150256 
309.16217 0.023364 
309.180237 0.145126 
309.945496 0.889437 
310.183441 0.057734 
310.20047 0.019426 
310.917938 0.049695 
311.079559 0.41289 
311.139893 0.095203 
311.294312 0.057094 
312.1203 0.019707 
312.837921 0.046025 
313.117493 0.108556 
313.15387 0.028512 
313.286255 0.052192 
313.969513 0.021718 
314.138733 0.032949 
315.169098 0.0197 
316.173279 0.033125 
319.164825 0.024443 
322.178986 0.021065 
322.198822 0.058557 
323.140839 0.022172 
323.159485 0.141756 
323.195831 0.166231 
324.193451 0.017876 
324.325439 5.482571 
324.379669 0.023347 
325.154724 0.054994 
325.20993 0.053108 
325.328796 0.959253 
326.170502 0.291184 
326.929413 0.017892 
327.077118 0.469248 
327.173492 0.05373 
327.825928 0.020218 
332.18454 0.089762 
333.180634 1.137031 
334.1763 0.107985 
335.195831 0.025285 
335.217316 0.052302 
336.191193 0.041332 
337.160034 0.656673 
338.164307 0.022325 
339.133514 0.019269 
339.168243 0.552995 
340.169891 0.084122 
341.941406 0.019255 
344.828552 0.120165 
345.896179 0.027494 
347.018311 0.01501 
349.180389 0.022289 
349.216309 0.225574 
350.194275 0.250192 
351.191071 2.046066 
351.228027 0.042623 
352.189453 0.083986 
353.206482 0.09076 
353.841522 0.024782 
357.514038 0.022904 
363.906036 0.0266 
367.170746 0.076213 
367.204132 0.071895 
367.226501 0.766511 
368.003723 0.021844 
368.104523 0.040972 
368.167236 0.174881 
368.20343 0.113042 
368.222839 0.30324 
368.424316 78.5784 
369.147247 0.538506 
369.183716 1.126549 
369.201385 0.802143 
369.238525 0.404611 
369.297607 0.318477 
369.427795 21.748255 
369.453857 0.209799 
370.138794 0.058073 
370.175751 0.099514 
370.209625 0.176775 
370.235138 0.690603 
370.276367 0.019872 
370.345551 0.066911 
370.43103 2.576165 
371.124207 0.062753 
371.164246 0.48111 
371.19635 0.480791 
371.218567 0.023888 
371.239166 0.489532 
371.276154 0.603229 
371.911133 0.033706 
381.340851 0.024711 
383.378815 0.017417 
392.98822 0.049412 
END IONS

