BEGIN IONS
PEPMASS=271.061
CHARGE=1+
COMPOUNDNAME=Naringenin
LIBRARYQUALITY=3
SMILES=N/A
INCHIKEY=FTVWIRXFELQLPI-UHFFFAOYSA-N
INCHI=InChI=1S/C15H12O5/c16-9-3-1-8(2-4-9)13-7-12(19)15-11(18)5-10(17)6-14(15)20-13/h1-6,13,16-18H,7H2
MSLEVEL=2
SOURCE_INSTRUMENT=N/A-ESI-QFT
FILENAME=library_mgf.mgf
SEQ=*..*
IONMODE=negative
ORGANISM=MONA
NAME=Naringenin [M-H]-
PI=MoNA
DATACOLLECTOR=MoNA:VF-NPL-QEHF013811
PUBMED=N/A
SUBMITUSER=mwang87
TAGS=
SPECTRUMID=CCMSLIB00004704874
SCANS=13811
50.323055 0.02739 
50.437668 0.025261 
50.512169 0.029436 
50.810116 0.018934 
51.909698 0.028925 
53.242104 0.034676 
53.791451 0.029753 
53.898617 0.027431 
54.145245 0.018894 
54.464947 0.023791 
54.859638 0.026358 
55.024715 0.027653 
55.033497 0.028816 
55.98534 0.029303 
56.078293 0.028062 
56.266159 0.016165 
56.784534 0.025898 
57.627731 0.023231 
58.422104 0.032201 
58.501492 0.025411 
58.518654 0.027321 
59.428738 0.023988 
59.589413 0.034693 
59.923077 0.022701 
60.153767 0.026724 
60.50153 0.018004 
60.998734 0.028814 
61.451359 0.028791 
62.252663 0.021883 
62.448719 0.024638 
62.682625 0.026024 
62.734322 0.024052 
62.853951 0.026653 
63.022675 9.325268 
63.163544 0.024045 
63.972275 0.02512 
63.981647 0.024296 
64.026054 0.094867 
64.812523 0.029195 
64.864677 0.02918 
64.926743 0.026578 
65.001923 14.691061 
65.570198 0.032545 
66.005287 0.185883 
66.039284 0.029743 
66.629074 0.02657 
66.964317 0.025274 
67.603462 0.024777 
68.864388 0.029084 
70.56176 0.026536 
71.159142 0.031806 
71.205406 0.029808 
71.531487 0.025168 
72.086815 0.027964 
72.696564 0.028458 
74.378716 0.026909 
75.212532 0.038536 
75.711403 0.027242 
77.269997 0.029182 
77.902115 0.026282 
78.711571 0.034776 
78.977783 0.020939 
80.173676 0.031296 
80.17421 0.028858 
80.175163 0.02738 
81.033028 0.022164 
83.01252 13.679473 
83.031761 0.033814 
83.111809 0.026088 
83.254814 0.026967 
84.015892 0.179725 
85.553726 0.025845 
85.683662 0.02261 
85.803375 0.026825 
87.519463 0.027814 
89.378769 0.027226 
91.242088 0.022651 
91.644676 0.025431 
92.231544 0.035002 
92.809441 0.023948 
93.03331 17.162937 
93.036484 0.040152 
93.301628 0.030203 
94.036598 0.805779 
95.143394 0.029638 
95.682663 0.031573 
96.405975 0.027597 
97.012497 0.024568 
97.504234 0.023342 
98.212669 0.028314 
98.642014 0.024298 
101.408081 0.030387 
102.073593 0.03051 
102.79351 0.027573 
103.303391 0.027927 
103.461723 0.031408 
103.714424 0.027393 
104.539276 0.024494 
105.802162 0.029855 
107.012642 38.524879 
107.033401 0.01821 
108.015976 2.442633 
108.019753 0.072671 
108.295959 0.022648 
108.991943 0.07541 
109.244835 0.025995 
111.249512 0.031228 
111.65583 0.022391 
111.768005 0.026522 
112.92836 0.025416 
115.93631 0.032299 
118.838455 0.037684 
119.049019 100.0 
119.073517 0.164046 
120.052383 7.675708 
121.028313 0.668941 
122.873024 0.025457 
124.881363 0.025002 
125.023186 1.15825 
134.49588 0.030743 
135.437088 0.029569 
136.015778 0.029259 
137.023178 0.22098 
137.748352 0.024311 
137.790863 0.025156 
139.99736 0.031984 
143.049057 0.258914 
143.590897 0.024306 
144.474487 0.03394 
145.028412 1.727498 
146.789764 0.027602 
148.267532 0.027462 
148.520096 0.029585 
149.023315 0.060892 
150.530655 0.028796 
151.002655 99.48513 
151.946823 0.025698 
152.005966 6.881924 
155.101868 0.028917 
156.470413 0.029092 
156.648911 0.023258 
159.565704 0.032234 
159.941864 0.029797 
161.059799 1.335843 
161.20462 0.023371 
163.719666 0.026313 
163.926941 0.033807 
164.010803 0.041286 
165.018433 4.646219 
165.72641 0.028939 
166.021652 0.035165 
167.048691 0.033287 
168.145172 0.035372 
169.01326 1.985635 
169.065582 0.022797 
171.752991 0.020022 
174.199234 0.031708 
175.13855 0.024226 
176.906677 0.031882 
177.018448 10.359414 
178.021851 0.653433 
178.133636 0.027086 
178.541168 0.024963 
179.969818 0.028355 
185.051376 0.028207 
185.060013 2.104738 
185.075699 0.029917 
187.039291 2.266103 
188.877945 0.030722 
189.422455 0.03079 
195.122055 0.031363 
195.943024 0.028775 
201.05481 0.054742 
201.478333 0.023996 
203.070755 0.025784 
209.060623 0.025032 
211.514877 0.025048 
215.875854 0.754846 
215.888138 0.545068 
224.041931 0.032109 
225.053711 0.02562 
225.79306 0.025145 
225.880737 0.029401 
227.070847 2.018409 
228.075287 0.056276 
229.050049 0.595234 
238.35556 0.038612 
244.788483 0.029376 
252.089706 0.02419 
253.05072 0.213423 
254.166946 0.031947 
255.593414 0.02448 
258.655243 0.02508 
261.955536 0.030519 
266.675537 0.022732 
267.891815 0.032861 
269.046204 0.031965 
269.361359 0.024179 
271.06131 8.904651 
271.077118 0.037467 
272.064453 1.095078 
272.86496 0.019343 
276.679688 0.034801 
282.459503 0.031703 
282.774078 0.027635 
284.236053 0.027086 
END IONS

