BEGIN IONS
PEPMASS=639.391
CHARGE=1+
COMPOUNDNAME=deferrioxamine E
LIBRARYQUALITY=3
SMILES=N/A
INCHIKEY=NHKCCADZVLTPPO-UHFFFAOYSA-N
INCHI=InChI=1S/C27H48N6O9/c34-22-10-14-26(38)32(41)20-8-3-6-18-30-24(36)12-15-27(39)33(42)21-9-2-5-17-29-23(35)11-13-25(37)31(40)19-7-1-4-16-28-22/h40-42H,1-21H2,(H,28,34)(H,29,35)(H,30,36)
MSLEVEL=2
SOURCE_INSTRUMENT=N/A-Linear Ion Trap
FILENAME=library_mgf.mgf
SEQ=*..*
IONMODE=positive
ORGANISM=MONA
NAME=deferrioxamine E M-H
PI=MoNA
DATACOLLECTOR=MoNA:VF-NPL-LTQ001798
PUBMED=N/A
SUBMITUSER=mwang87
TAGS=
SPECTRUMID=CCMSLIB00004685953
SCANS=1574
207.039993 3.261112 
238.940002 21.404936 
267.109985 2.683729 
277.079987 2.165411 
305.079987 7.081454 
319.109985 0.861615 
322.119995 4.961908 
339.089996 13.650088 
357.170013 1.283336 
377.149994 23.571577 
385.209991 1.897702 
392.26001 16.963968 
403.130005 10.571493 
405.269989 5.447505 
408.25 3.237418 
421.140015 95.481911 
423.170013 23.379574 
439.190002 100.0 
479.25 2.036961 
487.269989 4.794983 
509.299988 0.871054 
535.409973 1.745806 
554.380005 1.638185 
564.409973 1.174644 
580.409973 1.779738 
607.320007 5.823777 
620.289978 6.11935 
END IONS

