BEGIN IONS
PEPMASS=531.273
CHARGE=1+
COMPOUNDNAME=(2E,4E)-1-[(2R,6S,14S,22S,25R)-25-(3,3-dimethyloxiran-2-yl)-15-methyl-1,3,13,15-tetraazaheptacyclo[18.4.1.0�,?.0?,��.0?,��.0�?,��.0�?,��]pentacosa-7,9,11,16(21),17,19-hexaen-3-yl]hexa-2,4-dien-1-one
LIBRARYQUALITY=3
SMILES=N/A
INCHIKEY=XZFSMUXVAYCHFO-QREHLELFSA-N
INCHI=InChI=1S/C32H36N4O2/c1-5-6-7-15-24(37)35-18-16-31-21-12-8-9-13-22(21)33-28-32(31)17-19-36(29(31)35)26(27-30(2,3)38-27)20-11-10-14-23(25(20)32)34(28)4/h5-15,26-29,33H,16-19H2,1-4H3/b6-5+,15-7+/t26-,27?,28+,29+,31-,32-/m1/s1
MSLEVEL=2
SOURCE_INSTRUMENT=N/A-ESI-QFT
FILENAME=library_mgf.mgf
SEQ=*..*
IONMODE=positive
ORGANISM=MONA
NAME=(2E,4E)-1-[(2R,6S,14S,22S,25R)-25-(3,3-dimethyloxiran-2-yl)-15-methyl-1,3,13,15-tetraazaheptacyclo[18.4.1.0�,?.0?,��.0?,��.0�?,��.0�?,��]pentacosa-7,9,11,16(21),17,19-hexaen-3-yl]hexa-2,4-dien-1-one [M+Na]+
PI=MoNA
DATACOLLECTOR=MoNA:VF-NPL-QEHF021749
PUBMED=N/A
SUBMITUSER=mwang87
TAGS=
SPECTRUMID=CCMSLIB00004712812
SCANS=21749
51.323841 0.032421 
51.371475 0.047556 
51.827259 0.036226 
52.94849 0.052435 
54.033791 0.019662 
54.547894 0.007823 
54.588402 0.039124 
54.619755 0.055555 
55.25845 0.036664 
55.293499 0.007628 
56.018867 0.049968 
57.035854 0.007546 
57.070129 0.010733 
57.176109 0.007716 
57.973099 0.036114 
58.134396 0.042297 
59.350857 0.007593 
59.508102 0.047249 
60.292675 0.048859 
60.553867 0.048193 
60.712814 0.042148 
61.010818 0.042797 
61.721664 0.019425 
61.965576 0.008319 
64.525215 0.007087 
65.038857 0.033567 
65.20591 0.048712 
67.052521 0.00936 
67.054337 1.558864 
67.178841 0.029256 
67.253708 0.007992 
67.448128 0.04637 
68.057693 0.240074 
68.899841 0.01475 
69.500702 0.023036 
69.728874 0.009929 
69.874306 0.042325 
69.946732 0.007492 
70.712509 0.043733 
72.729004 0.050969 
73.692162 0.029428 
73.823029 0.008243 
76.527779 0.014411 
77.997116 0.050272 
78.629852 0.015497 
79.153778 0.008335 
80.260948 0.02507 
82.313789 0.046319 
83.013489 0.04458 
84.201836 0.054505 
85.923607 0.043867 
86.169273 0.054596 
87.259544 0.037685 
87.376053 0.030914 
88.446693 0.040254 
88.907639 0.040368 
89.059929 0.014356 
89.161957 0.00766 
90.180443 0.014677 
92.939445 0.008876 
95.049179 3.381685 
95.595604 0.007263 
95.605118 0.045119 
96.052544 0.58493 
96.369621 0.013511 
96.713547 0.046615 
97.053429 0.00961 
97.747383 0.008291 
98.426117 0.007782 
100.083633 0.013315 
100.385788 0.049504 
107.246704 0.008812 
108.414764 0.037668 
108.594727 0.02072 
109.113991 0.052887 
111.090652 0.014073 
116.896988 0.033774 
116.906471 0.007163 
122.54277 0.0143 
123.103958 0.010621 
124.659279 0.023652 
126.21003 0.045374 
128.541107 0.033718 
130.065125 0.103158 
130.107666 0.047744 
130.627029 0.045849 
131.902145 0.00714 
132.857834 0.052465 
140.506363 0.037442 
143.073029 0.036119 
144.080765 0.21382 
145.084167 0.013895 
146.057648 100.0 
147.054565 0.199598 
147.060928 6.897994 
148.063217 0.050498 
148.222809 0.021993 
148.47316 0.031953 
148.489685 0.047393 
148.971817 0.04668 
152.429153 0.036613 
156.081543 0.027525 
159.065384 0.049831 
159.09166 1.03899 
160.094925 0.130698 
164.068268 1.455149 
164.184799 0.008171 
166.227966 0.007492 
166.700653 0.048735 
168.068268 0.068249 
168.080887 0.048567 
169.076019 0.220751 
169.083633 0.014095 
171.091583 0.248327 
171.099442 0.010219 
176.63739 0.05002 
178.911499 0.05612 
180.080627 0.011478 
181.073914 0.504006 
181.238663 0.009214 
182.096161 0.016407 
182.673691 0.0424 
183.091583 0.204986 
184.094742 0.017971 
185.070999 0.028628 
185.107452 0.575008 
187.086731 0.172089 
187.095566 0.01339 
188.089737 0.012641 
189.529587 0.008549 
192.094482 0.055048 
192.961777 0.047434 
193.076218 0.009171 
195.091858 0.10577 
196.099625 0.25577 
197.107056 0.013694 
198.345581 0.00877 
199.521362 0.010586 
205.406342 0.038896 
206.084015 0.093883 
207.09137 3.535581 
208.099106 0.601711 
209.107239 0.124978 
209.310944 0.048232 
210.972702 0.015672 
212.938904 1.998201 
214.338257 0.037885 
215.118134 0.306633 
216.121277 0.294029 
217.124374 0.033121 
220.097885 0.008264 
220.564957 0.008776 
221.109451 0.007622 
222.89856 0.03036 
227.900558 0.032594 
229.895233 0.011229 
232.904404 0.04486 
234.899185 0.112312 
235.122787 0.970914 
235.90274 0.008679 
237.906738 0.00999 
238.914017 0.025335 
239.599426 0.053897 
240.909012 0.030792 
243.896133 0.009836 
244.623398 0.049456 
247.084534 0.076691 
248.879456 0.015075 
249.907425 0.010469 
252.173996 0.041804 
253.071487 0.021766 
255.149017 0.010988 
256.7229 0.05133 
256.905182 0.032778 
258.672211 0.009406 
258.89917 0.052235 
261.099792 6.750297 
261.114105 0.055082 
261.906342 0.119114 
262.103363 1.049364 
262.913879 0.182649 
263.117828 0.163107 
264.099121 0.05069 
264.908997 0.057366 
265.461853 0.022408 
271.071411 0.010436 
273.906982 0.449785 
274.914825 0.912197 
275.115601 0.378497 
275.901886 0.170032 
276.123352 1.4926 
276.611206 0.007454 
276.90979 0.669814 
277.130371 0.147601 
277.650757 0.017783 
278.141296 0.877163 
278.286499 0.047087 
279.147064 0.138245 
279.916626 1.504464 
280.923706 0.102303 
281.912201 0.609066 
282.919189 0.031066 
284.920013 0.010033 
286.914154 0.756725 
288.909607 0.191055 
289.917877 0.026881 
295.122711 0.045887 
296.709045 0.054466 
298.915344 0.12878 
300.128967 0.022118 
300.909363 0.031826 
302.883484 0.05598 
304.189697 0.051833 
304.92453 2.753305 
305.926453 0.049127 
306.9198 0.740531 
309.137878 0.024168 
312.150208 0.039952 
313.204285 0.009813 
316.468109 0.049034 
316.925446 0.381865 
317.773865 0.049562 
318.920929 0.232927 
321.138885 0.020381 
321.926025 0.010666 
322.13443 0.394914 
322.935059 0.223416 
324.158203 0.00836 
324.931488 0.076306 
326.165192 0.091034 
328.151276 0.010484 
329.156128 0.012315 
330.178589 0.01199 
331.216339 0.010071 
331.555939 0.044964 
331.929596 0.011131 
332.218323 0.008252 
334.134644 0.02699 
336.150085 0.174985 
337.142181 4.961232 
338.145935 0.609534 
341.183014 0.047151 
342.16922 0.012399 
343.170563 0.046205 
343.191956 0.053867 
348.150208 0.022755 
360.838348 0.028486 
361.841064 0.009872 
362.838715 0.063428 
365.174286 2.237111 
366.177124 0.488913 
372.860931 0.011914 
373.221344 0.033002 
380.849213 0.033433 
382.845428 0.008879 
404.849609 0.122678 
406.841919 0.011152 
406.869171 0.010175 
408.84317 0.014189 
413.461243 0.044366 
415.394806 0.058904 
418.190887 0.037193 
425.197968 0.013598 
426.856262 0.012475 
428.892792 0.009711 
431.184387 0.682676 
431.873108 0.029369 
432.18866 0.152846 
433.202545 0.054756 
437.232147 0.034611 
438.234314 0.012065 
439.239777 0.113861 
445.198456 0.042396 
445.851654 0.010568 
448.297211 0.042871 
453.229248 0.01127 
457.225128 0.022803 
458.229004 0.015583 
459.216125 0.102227 
460.225098 0.709136 
461.231018 1.781548 
462.232544 0.096736 
463.864044 0.010752 
468.179169 0.01729 
473.23407 0.267123 
480.610565 0.008747 
498.706696 0.039926 
512.792786 0.046931 
531.273376 8.842419 
531.387024 0.076092 
532.276855 3.116553 
533.280396 0.133029 
533.366455 0.283519 
555.190796 0.009949 
END IONS

