BEGIN IONS
PEPMASS=319.155
CHARGE=1+
COMPOUNDNAME=ReSpect:PT111310 zearalenone|FES|Fusarium toxin|Mycotoxin F2|Benzoxacyclotetradecin-1,7(8H)-dione|Zenone|6-(10-Hydroxy-6-oxo-trans-1-undecenyl)-beta-resorcylic acid-N-lactone|(4S,12E)-16,18-dihydroxy-4-methyl-3-oxabic
LIBRARYQUALITY=3
SMILES=CC1CCCC(=O)CCCC=CC2=CC(=CC(=C2C(=O)O1)O)O
INCHIKEY=MBMQEIFVQACCCH-UHFFFAOYSA-N
INCHI=1/C18H22O5/c1-12-6-5-9-14(19)8-4-2-3-7-13-10-15(20)11-16(21)17(13)18(22)23-12/h3,7,10-12,20-21H,2,4-6,8-9H2,1H3/b7-3+/t12-/m0/s1
MSLEVEL=2
SOURCE_INSTRUMENT=ESI-LC-Q-TOF/MS
FILENAME=respect_8_1_2014_GNPS_peaks.mgf
SEQ=*..*
IONMODE=Positive
ORGANISM=RESPECT
NAME=ReSpect:PT111310 zearalenone|FES|Fusarium toxin|Mycotoxin F2|Benzoxacyclotetradecin-1,7(8H)-dione|Zenone|6-(10-Hydroxy-6-oxo-trans-1-undecenyl)-beta-resorcylic acid-N-lactone|(4S,12E)-16,18-dihydroxy-4-methyl-3-oxabic [M+H]
PI=Putative ReSpect Match
DATACOLLECTOR=ReSpect
PUBMED=N/A
SUBMITUSER=mwang87
TAGS=
SPECTRUMID=CCMSLIB00000221638
SCANS=6540
69.071701 509.0 
157.066895 579.0 
185.062103 932.0 
187.077301 991.0 
203.072906 655.0 
283.134491 999.0 
301.144897 714.0 
319.15451 609.0 
END IONS

