BEGIN IONS
PEPMASS=390.192
CHARGE=1+
COMPOUNDNAME=Roquefortine C
LIBRARYQUALITY=3
SMILES=N/A
INCHIKEY=SPWSUFUPTSJWNG-LIMLNZRCSA-N
INCHI=InChI=1S/C22H23N5O2/c1-4-21(2,3)22-10-17-18(28)25-16(9-13-11-23-12-24-13)19(29)27(17)20(22)26-15-8-6-5-7-14(15)22/h4-9,11-12,17,20,26H,1,10H2,2-3H3,(H,23,24)(H,25,28)/b16-9-/t17-,20-,22+/m0/s1
MSLEVEL=2
SOURCE_INSTRUMENT=N/A-ESI-QFT
FILENAME=library_mgf.mgf
SEQ=*..*
IONMODE=positive
ORGANISM=MONA
NAME=Roquefortine C [M+H]+
PI=MoNA
DATACOLLECTOR=MoNA:VF-NPL-QEHF016416
PUBMED=N/A
SUBMITUSER=mwang87
TAGS=
SPECTRUMID=CCMSLIB00004707479
SCANS=16416
50.060223 0.053162 
50.06517 0.077855 
50.223618 0.079303 
50.362835 0.064683 
50.851898 0.075712 
51.083599 0.085476 
51.600533 0.071337 
51.937389 0.08198 
52.39695 0.058099 
52.450321 0.074619 
53.002613 0.092961 
53.117229 0.069551 
53.461163 0.070935 
54.034241 0.355997 
54.117069 0.069247 
54.197926 0.041122 
54.301384 0.073381 
55.301231 0.086165 
55.371639 0.073512 
55.405933 0.048653 
56.406647 0.077667 
56.421665 0.071924 
57.034821 0.066861 
57.093201 0.071707 
57.152058 0.072766 
57.417446 0.048733 
57.767441 0.089248 
58.029026 0.393174 
58.938019 0.081156 
59.169014 0.077588 
59.220409 0.043394 
60.585602 0.060664 
60.66996 0.062195 
61.610771 0.077309 
64.744675 0.071787 
64.803421 0.038916 
65.161469 0.038816 
65.967896 0.071244 
66.975174 0.079085 
66.977455 0.084305 
67.006073 0.072784 
67.054497 0.064057 
67.843781 0.079743 
67.973236 0.049338 
68.08503 0.063506 
69.044884 37.842354 
69.070023 15.347112 
70.048187 0.374151 
70.07341 0.13122 
70.076744 0.078868 
71.428391 0.058146 
72.121475 0.054545 
72.29142 0.044461 
72.293709 0.072605 
72.351791 0.080082 
73.573494 0.055649 
74.177002 0.089697 
74.517403 0.065991 
74.655006 0.069254 
76.007843 0.053345 
76.775497 0.05843 
77.048546 0.054157 
77.114944 0.075208 
77.30616 0.052622 
78.035088 0.089921 
78.287231 0.071073 
79.054352 0.126654 
79.800987 0.058691 
81.044792 48.650536 
81.069969 1.21041 
81.624458 0.042524 
81.896317 0.046025 
82.048225 1.532862 
82.052711 11.433505 
82.725243 0.041395 
83.056213 0.059967 
83.06044 0.543605 
83.341766 0.055713 
84.371452 0.080451 
84.51387 0.038193 
85.039703 35.497208 
86.043015 0.100836 
87.164062 0.102094 
88.925247 0.067239 
91.154343 0.089508 
92.316101 0.050156 
93.044823 2.966626 
93.128365 0.082326 
93.393295 0.094552 
94.028786 0.867074 
94.430191 0.093139 
95.060455 4.7689 
95.643394 0.087188 
96.011185 0.079831 
96.261322 0.076907 
97.039726 16.449497 
97.115189 0.052254 
97.204788 0.062173 
97.210403 0.0874 
98.04303 0.09003 
100.12455 0.082819 
100.595802 0.077783 
103.054001 0.093881 
103.255844 0.090392 
104.087616 0.047727 
104.460091 0.090329 
105.044754 0.543627 
106.0401 13.308886 
107.044258 0.128898 
107.047897 7.59161 
107.152443 0.09195 
108.055649 73.710983 
109.039673 1.008595 
109.052765 0.045511 
109.059364 3.302111 
109.06353 49.645267 
109.18811 0.057988 
110.067024 1.557844 
110.071289 19.59516 
110.451141 0.073273 
110.708221 0.078102 
110.719727 0.085721 
111.055298 0.101882 
111.074455 0.142881 
111.383057 0.063483 
111.631523 0.07774 
113.034416 0.107312 
115.024681 0.081326 
115.053802 0.070669 
115.213654 0.078893 
115.536903 0.049309 
115.796997 0.081172 
115.833618 0.045248 
115.968971 0.042431 
116.540489 0.083781 
117.983498 0.043656 
119.169106 0.100369 
120.05571 22.169497 
121.039719 0.833746 
121.058914 0.554864 
121.45665 0.068686 
122.071327 8.993681 
122.467735 0.062133 
124.139496 0.061552 
124.564812 0.100219 
125.03466 11.111117 
125.399857 0.06843 
125.832954 0.048923 
125.904037 0.063518 
126.037994 0.051266 
126.8172 0.093413 
128.432999 0.087178 
128.629517 0.073049 
129.069855 3.076261 
130.065201 75.749397 
131.063629 0.088541 
131.068497 6.91621 
132.055664 2.147466 
132.080887 1.120034 
133.181168 0.0765 
135.066589 1.256077 
135.101135 0.075333 
135.741287 0.079379 
136.050659 7.236154 
136.074387 0.419068 
137.058411 2.460101 
137.082291 15.579263 
137.851547 0.073232 
138.066345 0.169476 
138.08493 0.081599 
141.051926 0.053403 
142.065216 6.567232 
143.073151 2.287786 
144.080933 1.946642 
145.017441 0.088516 
145.065964 0.058362 
146.058929 0.251089 
147.066483 1.865185 
148.050644 6.22999 
148.074295 0.058934 
149.034698 9.137205 
149.082367 3.173343 
150.037933 0.081164 
150.066391 1.055136 
151.072433 0.08483 
151.655685 0.043729 
152.203125 0.048758 
153.860947 0.089603 
154.065323 2.679631 
155.073105 5.431311 
156.081024 7.219438 
157.075943 0.076744 
157.084518 0.064792 
157.587692 0.082383 
159.092026 0.067539 
160.075668 0.5939 
162.029831 9.450146 
163.03331 0.099088 
163.061523 27.101318 
164.046127 0.049381 
164.069244 4.197906 
165.077209 42.122456 
166.042145 0.054768 
166.061401 0.243035 
166.081161 1.581941 
167.727356 0.054991 
168.080856 13.602192 
169.089081 6.308565 
170.060242 1.771679 
170.096817 0.647681 
170.166901 0.085814 
171.091934 0.058777 
175.061584 0.534828 
175.162262 0.059375 
176.038208 0.064215 
176.045593 7.119385 
177.077591 0.29631 
178.049591 0.058922 
178.156845 0.049963 
181.088715 1.967332 
182.09668 13.060656 
182.835007 0.056154 
183.104706 16.783615 
184.107727 0.850428 
187.105682 0.091054 
191.056442 2.770018 
192.064194 40.670864 
193.072266 100.0 
194.076157 8.378796 
196.112228 4.16048 
198.127792 24.361818 
199.131256 2.660706 
207.928513 0.080949 
208.533752 0.06019 
210.550797 0.119618 
211.559372 0.085686 
214.902771 0.090284 
219.563034 0.19811 
219.575256 0.605075 
219.586639 0.443164 
219.616623 0.083459 
220.294632 0.082603 
223.69455 0.091394 
227.081589 0.059966 
231.442581 0.0829 
231.872955 0.090561 
232.333893 0.088581 
236.856262 0.106883 
246.75296 0.104834 
246.832932 0.09258 
249.468384 0.078435 
254.437286 0.094058 
254.554443 0.080145 
255.205872 0.087741 
256.130432 0.051872 
256.649719 0.095405 
267.039154 0.048017 
267.863342 0.07439 
268.370483 0.043374 
269.28653 0.08978 
271.816071 0.067834 
274.631104 0.080221 
276.042206 0.090272 
279.649719 0.048967 
289.564819 0.06864 
292.167603 0.087536 
293.221497 0.071309 
301.355743 0.049653 
301.971832 0.083049 
304.726105 0.06103 
314.045319 0.062697 
328.820496 0.079148 
331.074097 0.043473 
331.83429 0.066498 
333.886169 0.042859 
343.168823 0.0736 
351.526428 0.055383 
353.180634 0.081318 
356.208984 0.091165 
399.6763 0.117436 
400.160828 0.049795 
406.963104 0.089969 
409.291138 0.09974 
END IONS

