BEGIN IONS
PEPMASS=245.095
CHARGE=1+
COMPOUNDNAME=BIOTIN
LIBRARYQUALITY=3
SMILES=N/A
INCHIKEY=YBJHBAHKTGYVGT-ZKWXMUAHSA-N
INCHI=InChI=1S/C10H16N2O3S/c13-8(14)4-2-1-3-7-9-6(5-16-7)11-10(15)12-9/h6-7,9H,1-5H2,(H,13,14)(H2,11,12,15)/t6-,7-,9-/m0/s1
MSLEVEL=2
SOURCE_INSTRUMENT=N/A-ESI-QFT
FILENAME=library_mgf.mgf
SEQ=*..*
IONMODE=positive
ORGANISM=MONA
NAME=BIOTIN [M+H]+
PI=MoNA
DATACOLLECTOR=MoNA:VF-NPL-QEHF028111
PUBMED=N/A
SUBMITUSER=mwang87
TAGS=
SPECTRUMID=CCMSLIB00004721692
SCANS=28111
50.070454 0.00258 
50.252258 0.003219 
50.353371 0.003262 
50.39753 0.002792 
50.506844 0.002363 
50.665874 0.002574 
50.81522 0.00358 
50.948769 0.002781 
51.716702 0.003177 
52.532333 0.002783 
52.718426 0.002761 
53.40892 0.002641 
53.691006 0.0022 
53.710209 0.003521 
53.757385 0.003069 
54.143307 0.002942 
54.242134 0.003188 
55.0546 0.003937 
55.491508 0.00344 
55.559895 0.003112 
56.318844 0.003696 
56.645248 0.008049 
56.895203 0.003952 
56.986958 0.002128 
57.069988 0.016262 
57.253788 0.003085 
57.951805 0.00306 
57.95929 0.003079 
57.991863 0.00256 
58.004238 0.003452 
58.119629 0.00343 
58.247631 0.002412 
58.453171 0.003359 
58.745811 0.003027 
58.8218 0.003073 
59.171829 0.003507 
59.598572 0.003682 
59.759857 0.003902 
60.715473 0.002853 
61.010624 0.003848 
61.039757 0.437506 
61.041042 0.004205 
61.167843 0.002127 
61.701946 0.002053 
61.902534 0.002578 
62.769073 0.004085 
63.086571 0.003056 
64.468346 0.002223 
66.803352 0.002724 
67.05423 0.057513 
67.604271 0.003873 
67.905479 0.003393 
68.30558 0.002787 
69.80735 0.002275 
73.399323 0.003077 
73.533112 0.002979 
73.573158 0.003267 
73.799263 0.003499 
74.26857 0.003747 
74.294594 0.003761 
74.355927 0.003119 
74.511177 0.00232 
74.60022 0.003443 
75.283752 0.003348 
76.021469 0.167596 
76.120735 0.003056 
76.242859 0.002466 
76.33947 0.002454 
76.923416 0.003482 
77.138908 0.002229 
77.377663 0.002309 
77.459297 0.002748 
78.984032 0.00374 
79.054047 0.005228 
79.118439 0.004331 
79.68821 0.003202 
80.767387 0.003396 
81.069801 0.045242 
82.028717 0.002294 
82.994484 0.003475 
83.048904 0.016886 
84.082283 0.003794 
84.157593 0.002901 
85.010773 0.031762 
86.570511 0.002734 
89.556625 0.002404 
89.792259 0.003883 
90.100945 0.003331 
90.90403 0.003325 
91.05423 0.006388 
92.342522 0.0032 
93.069557 0.003202 
93.411339 0.003519 
95.085373 0.009439 
96.008621 0.003518 
96.219543 0.003264 
96.908264 0.003363 
97.010689 0.107482 
97.039566 2.15827 
97.064651 0.00269 
98.042908 0.033656 
98.096275 0.074927 
98.501198 0.003349 
99.025841 0.002545 
99.09024 0.003393 
99.477875 0.002508 
99.939301 0.002532 
100.021515 0.032823 
100.667046 0.003812 
100.669662 0.002245 
100.67334 0.002378 
101.005486 0.003821 
102.000664 0.028708 
102.389694 0.002513 
102.98262 0.003814 
105.069756 0.194887 
107.085327 0.05828 
107.991119 0.003785 
108.080528 0.136927 
108.776848 0.002495 
109.064758 0.008101 
109.231636 0.003433 
109.817116 0.002596 
111.026184 0.087307 
112.284668 0.00365 
113.041756 0.185708 
113.422096 0.002524 
113.516731 0.003087 
113.643532 0.003153 
114.695557 0.003554 
115.057465 0.14631 
115.721275 0.003258 
116.714813 0.003857 
117.105667 0.00289 
119.464355 0.003426 
119.530449 0.003774 
120.080559 0.013325 
121.00174 0.003771 
121.064659 0.244716 
121.115395 0.002813 
121.848915 0.00268 
122.09642 0.014801 
122.800552 0.003833 
123.026131 0.854113 
124.029503 0.018608 
124.075691 0.002623 
125.041786 0.315423 
126.091171 0.007173 
126.134117 0.003924 
126.503082 0.002873 
126.572769 0.003877 
129.169342 0.0023 
129.299652 0.003126 
129.351212 0.003502 
129.976547 0.002736 
130.017746 0.003061 
131.027115 0.09105 
131.586609 0.002962 
132.080597 0.002621 
132.703094 0.00431 
132.714417 0.002981 
133.064514 0.107282 
133.088242 0.012294 
133.152573 0.004242 
134.526428 0.002456 
134.90773 0.002124 
136.075104 0.003021 
137.828186 0.002921 
138.037018 0.010309 
139.057465 0.7748 
139.085922 0.002915 
140.060791 0.01344 
140.572128 0.00282 
140.808746 0.002928 
141.011597 0.040604 
141.170822 0.002131 
143.027237 0.308554 
143.052155 0.020441 
144.997314 0.099112 
145.160004 0.003115 
147.381302 0.002966 
149.041687 0.319957 
150.091263 0.354724 
150.873489 0.003226 
151.075226 0.034218 
151.086411 0.190522 
152.280045 0.003291 
152.32132 0.003337 
153.102219 0.014443 
155.027008 0.006565 
156.083969 0.085799 
157.976044 0.003357 
162.431702 0.002273 
163.086014 0.017131 
164.052536 0.019936 
165.102142 0.066218 
165.693115 0.002713 
166.03212 0.003814 
166.068283 1.966252 
167.052307 2.494689 
167.07135 0.134636 
167.468567 0.003346 
167.652893 0.003031 
168.055695 0.197168 
168.063507 0.008983 
168.997238 0.033485 
169.047791 0.003317 
171.485016 0.002332 
172.207169 0.002785 
174.976181 0.003026 
175.086136 0.009699 
175.482574 0.00424 
175.893463 0.002875 
176.058716 0.004681 
179.655792 0.003051 
181.096741 0.026909 
182.063293 0.222377 
184.042618 0.039097 
184.078857 1.838509 
185.012238 0.018936 
185.064026 0.009737 
185.073883 0.144329 
185.082199 0.121233 
186.011353 0.015758 
186.074707 0.002677 
187.007645 0.30204 
187.880997 0.002321 
189.935318 0.003903 
192.047501 0.544568 
193.050461 0.003307 
193.096802 0.270347 
193.452606 0.002146 
196.457428 0.003921 
199.089691 2.254547 
200.092926 0.17882 
201.085861 0.005188 
203.303757 0.002962 
209.074081 3.471815 
210.058182 0.232898 
210.077698 0.338897 
211.059265 0.003243 
211.070328 0.004492 
213.334351 0.003886 
214.357132 0.003583 
216.818054 0.064085 
216.825729 0.084551 
224.299789 0.003279 
225.105133 0.03468 
227.084595 100.0 
228.088043 10.685743 
229.079987 2.038247 
229.089722 0.253704 
238.032486 0.003755 
238.977539 0.003194 
243.115997 0.589859 
244.119415 0.163992 
244.263153 0.003366 
245.0952 2.857892 
245.135651 0.028555 
246.098755 0.328479 
247.090698 0.008124 
247.114685 0.011589 
250.861862 0.003265 
255.27533 0.002185 
262.701813 0.002175 
263.745178 0.003513 
264.423126 0.003429 
269.037201 0.002565 
END IONS

