BEGIN IONS
PEPMASS=261.161
CHARGE=1+
COMPOUNDNAME=Cadin-4-En-10-Ol
LIBRARYQUALITY=3
SMILES=N/A
INCHIKEY=LHYHMMRYTDARSZ-UHFFFAOYSA-N
INCHI=InChI=1S/C15H26O/c1-10(2)12-7-8-15(4,16)14-6-5-11(3)9-13(12)14/h9-10,12-14,16H,5-8H2,1-4H3
MSLEVEL=2
SOURCE_INSTRUMENT=N/A-ESI-QFT
FILENAME=library_mgf.mgf
SEQ=*..*
IONMODE=positive
ORGANISM=MONA
NAME=Cadin-4-En-10-Ol [M+K]+
PI=MoNA
DATACOLLECTOR=MoNA:VF-NPL-QEHF002910
PUBMED=N/A
SUBMITUSER=mwang87
TAGS=
SPECTRUMID=CCMSLIB00004693973
SCANS=2910
51.9953 0.081359 
52.165226 0.045324 
52.556198 0.065828 
52.61134 0.092537 
52.669807 0.084289 
52.686577 0.075691 
52.873524 0.070499 
52.954975 0.090998 
52.958443 0.069204 
53.039349 0.06308 
54.299862 0.071987 
55.0186 0.159955 
55.054985 3.099201 
55.315262 0.07162 
55.933819 0.047439 
55.935127 2.489945 
56.058342 0.049676 
56.490555 0.109784 
56.942875 0.16141 
56.965488 0.341221 
57.070606 1.946889 
57.353699 0.072642 
57.461765 0.085307 
57.641132 0.073706 
57.935471 0.094918 
58.065796 1.837683 
58.731842 0.052607 
58.735878 0.046269 
58.804367 0.096678 
58.89724 0.089878 
59.069149 0.093304 
59.193535 0.093145 
59.563881 0.046479 
60.044983 0.04894 
60.081478 0.417656 
60.126205 0.054473 
60.297775 0.076236 
60.559032 0.07811 
61.011356 5.307556 
62.019173 1.884507 
62.982445 0.699222 
62.990601 0.079217 
63.026985 0.053999 
64.627579 0.060439 
64.945885 0.078808 
65.98307 0.061754 
66.318779 0.060718 
66.741188 0.043772 
67.054871 2.7249 
68.46846 0.092761 
69.070503 2.225985 
69.499588 0.067693 
69.977943 0.076148 
70.065804 0.075474 
70.958466 0.445834 
71.049751 0.207868 
71.739281 0.087473 
71.92984 0.227664 
72.764748 0.10033 
72.937729 2.102681 
73.90641 0.062224 
73.995209 0.058691 
74.57058 0.077361 
74.931526 14.445187 
75.470581 0.079267 
76.33374 0.083898 
77.026253 0.095093 
77.321571 0.058514 
78.014015 0.189616 
78.594292 0.082016 
78.704758 0.070415 
79.021797 2.727215 
79.054787 2.151523 
79.140358 0.04171 
79.741043 0.062627 
79.897301 0.059835 
80.016502 0.083756 
80.205933 0.090052 
80.948372 0.356496 
81.017448 0.052129 
81.070389 3.055168 
81.277878 0.07925 
81.536713 0.070754 
82.07373 0.047844 
82.60112 0.080387 
82.945503 0.082466 
83.049683 0.058325 
83.086029 0.263015 
83.286209 0.093455 
84.927567 0.047148 
85.0401 0.185091 
86.096634 0.064535 
86.68306 0.100264 
86.959679 0.09401 
87.060715 0.087786 
87.90696 0.149083 
88.507675 0.043837 
88.969017 0.063932 
89.193535 0.043411 
89.519272 0.044454 
89.799927 0.069889 
89.964043 0.38029 
90.083954 0.057779 
90.903671 0.199341 
90.948128 2.009751 
91.000397 0.077201 
91.054657 4.9777 
91.657837 0.065643 
91.704956 0.075914 
92.883087 0.07198 
93.070236 2.01978 
94.065315 0.051976 
94.512291 0.083218 
94.609123 0.055976 
95.049477 0.385022 
95.085876 1.548611 
96.085175 0.086611 
96.131714 0.07314 
97.065407 0.051534 
98.97567 0.365558 
100.087463 0.094092 
101.703293 0.071296 
101.950211 4.300916 
102.257416 0.079572 
102.922554 0.093174 
102.968575 0.887426 
103.882011 0.107762 
103.945961 0.076912 
104.057823 0.103235 
104.910172 0.153946 
105.045044 0.08519 
105.070198 2.105397 
105.917213 0.369208 
105.943077 0.2238 
106.065414 0.201432 
106.41095 0.070481 
106.965691 0.057745 
107.073235 0.053644 
107.085709 0.932429 
108.080589 0.043291 
108.914139 0.270864 
108.958481 0.246074 
109.064949 0.174955 
109.101326 0.24616 
109.470222 0.066452 
110.630547 0.076081 
111.080933 0.04189 
112.400017 0.041623 
116.908997 0.050963 
116.929237 0.093082 
116.985939 0.201191 
117.070007 0.259587 
118.556274 0.115824 
118.92495 1.512006 
119.085617 1.264645 
119.960579 1.509612 
120.080849 0.277652 
120.940498 0.077867 
120.978928 1.021473 
121.101517 0.235889 
122.940903 0.095826 
123.428467 0.061045 
123.927803 0.054061 
123.953362 0.052143 
124.936043 0.612062 
124.975761 0.23227 
126.086731 0.085595 
128.963348 0.072575 
129.069626 0.134054 
131.085449 0.33147 
131.805618 0.049453 
133.101151 0.386061 
133.947556 0.053119 
134.096313 0.07624 
134.955978 0.154366 
134.996323 0.075997 
135.927383 0.160262 
136.93541 1.032305 
137.970779 0.761601 
138.746109 0.080281 
138.951324 0.056544 
138.989197 0.074214 
141.313431 0.058442 
141.603561 0.097111 
143.085388 0.262423 
145.101105 0.893494 
146.700974 0.110126 
146.974258 0.065181 
147.116577 0.15509 
149.413544 0.103215 
150.938049 0.082294 
150.950821 0.370188 
150.968765 0.072978 
151.458099 0.074903 
151.958817 0.186964 
152.945053 0.246894 
152.966507 0.271642 
153.893509 0.283143 
153.937714 0.077143 
153.959351 0.190998 
154.81076 0.079432 
154.946747 0.460615 
154.978424 0.073515 
155.085358 0.178162 
155.262466 0.051604 
155.890579 0.065476 
155.95488 0.108151 
155.980957 0.057958 
157.101776 0.135561 
158.072342 0.396096 
159.116882 0.08181 
160.088013 0.045586 
161.095612 0.08274 
162.003433 0.085266 
163.00235 0.635918 
165.20137 0.116904 
165.644669 0.079037 
168.079544 0.048032 
168.916977 1.164995 
168.961655 0.067901 
170.91394 0.210926 
170.955246 1.615927 
170.962555 0.098762 
171.903931 2.865058 
172.692383 0.051134 
172.957687 0.094914 
173.096039 0.794248 
173.900848 0.67734 
174.290649 0.09225 
175.298157 0.062586 
177.054443 0.155859 
178.049835 0.067858 
178.8927 0.056908 
180.275665 0.072059 
180.887924 0.584661 
180.96167 0.148479 
181.013168 0.121644 
186.927505 7.027705 
186.935669 0.554599 
188.924423 2.273451 
188.96579 0.509754 
190.997299 0.536032 
192.061508 0.067192 
197.156921 0.064092 
197.890915 0.057857 
198.898193 0.078198 
198.949463 0.0957 
199.275604 0.108893 
200.943558 0.079169 
201.12764 0.057403 
201.139771 0.049034 
203.000412 0.081866 
203.035416 0.104676 
204.937668 0.051082 
204.946609 0.074315 
205.049408 4.841727 
208.958908 0.076456 
209.007828 1.82381 
209.62886 0.082653 
210.011169 0.07617 
211.793716 0.076014 
215.159241 0.111116 
215.901138 0.088131 
220.153961 0.065709 
220.167938 0.906885 
222.588547 0.123257 
222.89856 1.198829 
231.028473 100.0 
231.91449 0.051107 
232.031876 12.08199 
232.960587 0.101168 
233.033859 0.41061 
233.961151 0.070088 
236.955048 0.072267 
237.724396 0.099351 
238.913574 0.275994 
240.90889 3.806644 
241.912201 0.067083 
244.902863 0.094759 
246.051422 0.442414 
246.638229 0.083253 
247.889297 0.081313 
249.316238 0.062578 
249.560287 0.083435 
252.950882 0.068623 
253.949478 0.063741 
258.153656 0.080651 
261.130463 1.236664 
262.252594 0.374494 
263.161377 0.379519 
264.683655 0.077763 
280.15741 0.085525 
END IONS

