BEGIN IONS
TITLE=Scan Number: 1381
PEPMASS=418.185
CHARGE=1+
COMPOUNDNAME=_130033
LIBRARYQUALITY=2
SMILES=CC(/C=C/C=C/C=C(C)/C([C@]1(O2)[C@@H]2C(CCO)(O)NC1=O)=O)=C\C(C(OC)=O)=C/C
INCHIKEY=OHWILISHWFHITP-DVRJAZNUSA-N
INCHI=N/A
MSLEVEL=2
SOURCE_INSTRUMENT=LC-ESI-qToF
FILENAME=P2_C11_conc_GE11_01_2430.mzXML
SEQ=*..*
NOTES=
IONMODE=Positive
ORGANISM=GNPS-LIBRARY
NAME=_130033 M+H
SPECTRUMID=CCMSLIB00000478466
ACTIVATION=CID
INSTRUMENT=ion trap
SCANS=1381
91.055794 616.0 
105.070908 1032.0 
107.051865 392.0 
107.086876 384.0 
108.049408 476.0 
109.067719 392.0 
112.040955 932.0 
115.053413 940.0 
116.062607 396.0 
117.070984 1492.0 
118.070984 324.0 
119.050903 1176.0 
119.088089 1248.0 
121.028801 400.0 
121.065819 1080.0 
121.099281 724.0 
122.026192 1060.0 
122.055855 308.0 
123.00724 272.0 
123.024483 556.0 
123.044968 772.0 
124.006584 372.0 
124.041649 500.0 
126.058357 420.0 
127.060837 448.0 
128.063599 3128.0 
129.069855 3744.0 
131.051483 656.0 
131.085663 1684.0 
133.064957 788.0 
134.06897 396.0 
135.044128 1076.0 
135.080704 844.0 
136.040588 656.0 
136.076538 656.0 
137.060623 720.0 
138.056396 376.0 
139.07518 340.0 
141.06987 2448.0 
142.060165 656.0 
142.079224 2108.0 
143.086395 6728.0 
144.091721 2108.0 
145.068573 1348.0 
145.101532 1260.0 
146.063797 696.0 
147.045792 604.0 
147.08078 2520.0 
148.052429 1192.0 
148.078583 668.0 
149.061325 1680.0 
150.058823 412.0 
151.040192 392.0 
151.077011 1344.0 
152.035156 900.0 
152.08255 2396.0 
153.071426 1176.0 
154.05011 696.0 
154.079926 680.0 
155.058014 452.0 
155.084457 1844.0 
156.093536 5988.0 
157.065582 596.0 
157.100479 1920.0 
158.041306 336.0 
158.073654 1500.0 
159.040146 456.0 
159.081451 6448.0 
159.117035 488.0 
160.084061 1076.0 
161.060791 940.0 
161.097885 904.0 
163.040894 1420.0 
163.074799 780.0 
164.039673 388.0 
164.070175 1200.0 
165.070557 5508.0 
166.077911 2740.0 
167.08519 2784.0 
168.056534 440.0 
168.092468 1132.0 
169.067108 1724.0 
169.102066 2016.0 
170.049149 820.0 
170.072067 956.0 
170.106781 540.0 
171.045578 744.0 
171.081284 4776.0 
171.117996 8200.0 
172.08342 816.0 
172.12149 1328.0 
173.057343 620.0 
173.096664 1708.0 
173.131348 440.0 
174.070938 272.0 
174.099182 300.0 
175.074997 896.0 
175.111557 852.0 
176.051025 436.0 
176.071243 712.0 
177.059097 520.0 
178.056183 400.0 
178.081436 896.0 
179.086899 1460.0 
180.093842 3128.0 
181.067459 596.0 
181.101059 4224.0 
182.073425 440.0 
182.107788 1932.0 
183.080399 1896.0 
183.118256 2544.0 
184.089005 6608.0 
185.05957 1060.0 
185.093353 1948.0 
185.129868 380.0 
187.074127 1764.0 
187.106445 388.0 
188.077347 648.0 
188.108887 252.0 
189.070984 572.0 
190.075836 552.0 
191.088669 612.0 
191.100708 440.0 
192.093353 872.0 
193.100815 2496.0 
194.076538 1104.0 
194.106125 572.0 
195.081772 1420.0 
195.116379 4280.0 
196.087708 1348.0 
196.119049 1052.0 
197.097 2524.0 
197.128555 700.0 
198.068451 640.0 
198.10202 1432.0 
198.129959 256.0 
199.078506 412.0 
199.112137 32836.0 
200.115494 5084.0 
201.091644 820.0 
201.125153 976.0 
202.083649 500.0 
203.106796 2628.0 
203.143631 524.0 
204.065842 1268.0 
204.092743 1340.0 
205.063599 764.0 
205.102417 1948.0 
206.079834 748.0 
206.110672 1452.0 
207.082199 1024.0 
207.114792 404.0 
207.902924 276.0 
208.08783 1568.0 
209.096558 3368.0 
209.134109 492.0 
210.103455 2512.0 
211.073349 852.0 
211.110428 4816.0 
212.083771 1264.0 
212.11554 912.0 
213.019028 424.0 
213.089081 992.0 
213.130478 1028.0 
214.091324 692.0 
214.131104 364.0 
215.03978 252.0 
215.08316 376.0 
216.065506 764.0 
216.095184 948.0 
217.04805 408.0 
217.101028 584.0 
218.07431 700.0 
218.107162 620.0 
219.079147 488.0 
219.113281 392.0 
220.083099 652.0 
220.115463 368.0 
221.097382 2128.0 
221.128281 916.0 
222.072952 604.0 
222.097366 892.0 
222.133469 336.0 
223.074005 464.0 
223.112076 8360.0 
224.078964 672.0 
224.113724 2020.0 
225.091782 1548.0 
225.124374 848.0 
226.098282 1240.0 
227.107666 18304.0 
228.082382 488.0 
228.10965 2348.0 
229.120148 648.0 
230.088516 644.0 
230.114975 396.0 
231.137024 3684.0 
232.115906 464.0 
232.143478 1032.0 
233.054428 440.0 
233.0914 1036.0 
234.095261 988.0 
235.076035 528.0 
235.109207 552.0 
236.083801 1112.0 
236.144974 1176.0 
237.08934 2676.0 
238.092453 936.0 
238.158112 340.0 
239.107071 3552.0 
240.109177 616.0 
241.041763 808.0 
241.088531 520.0 
241.12265 2228.0 
242.129211 576.0 
243.075958 436.0 
243.126266 352.0 
244.091568 488.0 
245.115875 472.0 
246.092224 512.0 
246.118256 800.0 
247.026718 392.0 
247.075836 784.0 
247.112244 540.0 
248.108795 1036.0 
248.14151 840.0 
249.04924 356.0 
249.091995 2344.0 
249.125839 952.0 
250.091858 808.0 
250.128952 928.0 
251.106659 11136.0 
252.108154 2780.0 
253.085999 608.0 
253.120651 956.0 
254.091736 544.0 
254.115265 376.0 
255.098251 600.0 
255.163803 344.0 
257.119293 936.0 
258.120636 436.0 
259.133026 5256.0 
260.107208 1032.0 
260.13855 1720.0 
261.1138 1576.0 
262.089142 716.0 
262.120514 744.0 
263.097412 392.0 
263.131561 444.0 
264.105804 816.0 
264.137634 1040.0 
265.087097 944.0 
265.130219 616.0 
266.115997 720.0 
266.152252 408.0 
267.101654 2316.0 
267.133911 648.0 
268.098694 920.0 
268.133728 1476.0 
269.117432 6116.0 
270.073151 292.0 
270.119965 1984.0 
271.096008 588.0 
271.126953 988.0 
272.102234 284.0 
273.116638 380.0 
274.121796 1880.0 
275.117798 404.0 
276.101959 544.0 
276.13681 1696.0 
277.092194 672.0 
277.118927 1332.0 
278.11554 884.0 
278.160797 288.0 
279.066986 484.0 
279.100983 3880.0 
279.136688 1164.0 
280.108368 596.0 
281.072113 392.0 
281.117401 404.0 
282.07132 440.0 
282.094238 376.0 
282.151154 1004.0 
283.133118 836.0 
284.126801 448.0 
284.170807 276.0 
285.111053 504.0 
286.117035 464.0 
287.119385 388.0 
288.08017 900.0 
288.117035 680.0 
289.114471 376.0 
291.126465 536.0 
292.133606 9612.0 
293.13443 2064.0 
294.148712 1496.0 
295.098206 496.0 
295.145172 556.0 
296.120422 812.0 
297.113251 8012.0 
298.115631 1672.0 
299.125824 952.0 
300.125214 624.0 
301.141846 1256.0 
302.071045 268.0 
302.117798 1536.0 
303.119751 408.0 
304.133362 3368.0 
305.125641 1028.0 
306.1185 424.0 
306.150116 604.0 
307.126038 756.0 
308.118713 360.0 
309.11377 480.0 
310.142487 4152.0 
311.125366 716.0 
312.158722 816.0 
313.149536 436.0 
314.134979 520.0 
314.172668 268.0 
315.114655 304.0 
320.128479 6784.0 
321.133667 1888.0 
322.143158 7900.0 
323.141815 1648.0 
324.149445 764.0 
325.136871 432.0 
326.14856 368.0 
327.125732 572.0 
328.131744 280.0 
329.13678 2680.0 
330.141632 364.0 
332.127472 1388.0 
333.121887 428.0 
334.141327 328.0 
335.041687 624.0 
338.137177 5484.0 
339.142395 1000.0 
340.154572 4404.0 
341.154205 1424.0 
342.168579 524.0 
343.081757 328.0 
346.163391 524.0 
350.138 5996.0 
351.140167 1824.0 
352.152954 1268.0 
353.044769 372.0 
354.16922 1068.0 
355.171936 288.0 
356.192566 360.0 
358.161041 904.0 
359.167358 252.0 
364.151245 1820.0 
365.161957 436.0 
368.14798 5224.0 
369.146179 1696.0 
370.16452 2344.0 
371.167236 708.0 
372.17984 324.0 
382.164917 2160.0 
383.164154 644.0 
384.153229 344.0 
386.157684 976.0 
387.165833 544.0 
395.108368 256.0 
400.177521 4176.0 
401.177399 896.0 
418.185333 940.0 
455.100037 572.0 
456.097107 356.0 
473.121063 356.0 
474.115112 424.0 
477.104065 440.0 
558.131348 564.0 
END IONS

