BEGIN IONS
PEPMASS=599.341
CHARGE=1+
COMPOUNDNAME=deferrioxamine E
LIBRARYQUALITY=3
SMILES=N/A
INCHIKEY=NHKCCADZVLTPPO-UHFFFAOYSA-N
INCHI=InChI=1S/C27H48N6O9/c34-22-10-14-26(38)32(41)20-8-3-6-18-30-24(36)12-15-27(39)33(42)21-9-2-5-17-29-23(35)11-13-25(37)31(40)19-7-1-4-16-28-22/h40-42H,1-21H2,(H,28,34)(H,29,35)(H,30,36)
MSLEVEL=2
SOURCE_INSTRUMENT=N/A-ESI-QFT
FILENAME=library_mgf.mgf
SEQ=*..*
IONMODE=negative
ORGANISM=MONA
NAME=deferrioxamine E [M-H]-
PI=MoNA
DATACOLLECTOR=MoNA:VF-NPL-QEHF004051
PUBMED=N/A
SUBMITUSER=mwang87
TAGS=
SPECTRUMID=CCMSLIB00004695114
SCANS=4051
50.238941 0.016751 
50.725903 0.009974 
50.736904 0.016721 
50.870464 0.009941 
50.906384 0.015348 
51.185577 0.014272 
51.739758 0.015577 
52.068176 0.014473 
52.131386 0.013082 
52.493164 0.016537 
53.020859 0.011353 
53.199646 0.014663 
53.785149 0.014747 
54.05302 0.014862 
54.845695 0.011622 
55.017647 0.261507 
55.044037 0.012843 
55.105022 0.013384 
55.994122 0.0136 
56.551537 0.016989 
56.819706 0.017404 
57.033268 0.081411 
57.444984 0.013951 
58.026932 0.016595 
58.028481 4.602181 
58.569477 0.014575 
59.012493 1.624224 
59.20591 0.017061 
59.494469 0.014112 
60.068665 0.012949 
60.127968 0.014209 
60.43396 0.018099 
60.640911 0.009599 
61.579872 0.014748 
61.696701 0.014811 
62.065727 0.01549 
62.496235 0.015886 
62.920605 0.013162 
63.361488 0.014446 
64.191086 0.013832 
64.642044 0.017021 
65.338623 0.01448 
65.455246 0.010329 
65.811066 0.015097 
65.992279 0.014331 
66.36602 0.012556 
66.763191 0.012709 
67.008385 0.011845 
68.023659 0.013565 
68.489082 0.014548 
68.493011 0.014504 
68.52285 0.014694 
68.677193 0.015908 
68.934441 0.017648 
69.149261 0.017486 
69.159088 0.011532 
69.268898 0.015774 
69.463371 0.015436 
69.691277 0.019171 
69.812119 0.012151 
69.995026 0.013062 
70.028503 1.173457 
70.284348 0.015749 
70.393852 0.009141 
71.01252 1.038571 
71.571701 0.015336 
71.882668 0.015691 
72.044182 2.195953 
72.511627 0.017267 
72.941048 0.016774 
73.201492 0.014079 
73.986755 0.013194 
74.108757 0.015379 
77.35511 0.015314 
78.20208 0.018458 
79.882385 0.01238 
80.132721 0.018912 
81.03334 0.012072 
81.133133 0.017066 
81.259918 0.008815 
82.028542 5.047984 
82.031296 0.011473 
82.064903 0.21186 
83.012505 0.249404 
83.026123 0.015 
83.031876 0.017593 
88.677124 0.01783 
91.554634 0.014575 
92.434662 0.013391 
92.950211 0.016543 
93.902405 0.014877 
95.353455 0.016219 
96.007866 0.032975 
97.03936 0.241229 
97.075859 0.473088 
97.383575 0.013932 
98.023476 60.571701 
98.059807 0.096756 
98.065529 0.013601 
98.123566 0.009909 
99.007538 2.434458 
99.02681 2.210859 
99.051758 0.009131 
99.091522 0.09735 
100.010681 0.044497 
100.039124 3.028298 
100.045288 0.015146 
100.075562 0.434569 
100.095078 0.016357 
100.699654 0.016325 
101.053787 0.014924 
101.060097 0.016454 
101.233879 0.00897 
101.534935 0.011362 
106.241348 0.016512 
109.420563 0.016924 
109.701942 0.015154 
110.023575 0.09551 
110.035522 0.016373 
110.163177 0.015867 
110.703369 0.01008 
112.039162 0.09769 
112.086189 0.015231 
112.283401 0.011809 
113.107437 0.015673 
113.496391 0.015899 
115.050331 0.076532 
116.0345 0.015162 
117.621536 0.016085 
118.084579 0.018636 
120.080414 0.019936 
122.508606 0.009815 
123.055199 0.019843 
123.1996 0.016004 
124.075378 0.019387 
124.758072 0.015827 
126.0914 0.933012 
126.646416 0.013982 
127.08831 0.014694 
128.106995 0.888929 
128.665161 0.014225 
130.534317 0.010612 
130.803879 0.016918 
135.091507 0.180871 
135.570282 0.019149 
136.075745 10.439961 
137.071686 0.030166 
137.079102 0.701441 
137.107254 0.092606 
138.055054 0.136454 
138.091339 0.134013 
139.086685 0.706065 
141.102341 0.290856 
142.049911 1.248135 
142.106079 0.016295 
142.281784 0.017433 
142.877991 0.023223 
146.029709 0.015717 
151.086731 1.17554 
152.070816 0.015816 
153.102341 10.755606 
154.086365 3.253461 
154.105713 0.684652 
155.089996 0.076315 
155.118027 15.561878 
156.121521 1.111554 
157.09726 2.117547 
157.134262 0.020902 
159.695602 0.014703 
160.681625 0.017869 
161.031693 0.050789 
161.07106 4.429963 
162.074463 0.187757 
163.086761 20.64011 
164.070801 0.69213 
164.083572 0.016528 
164.090164 1.633922 
166.086517 0.458391 
168.146469 0.015466 
170.081558 0.121908 
179.081848 9.086747 
179.230209 0.015115 
180.077286 0.015272 
180.085236 0.823238 
181.097412 100.0 
182.081635 1.806093 
182.100937 8.400202 
183.084961 0.016805 
183.104019 0.19042 
183.113083 5.26807 
183.121765 0.020072 
184.116714 0.183467 
185.373306 0.012762 
186.47818 0.014295 
188.406876 0.016606 
193.097595 0.065817 
194.344131 0.019009 
195.113251 0.331627 
197.092422 0.086486 
198.100281 0.034697 
198.545456 0.014612 
199.10817 30.224508 
200.111771 2.590841 
200.216354 0.017934 
201.123886 0.860625 
203.892883 0.018522 
206.265747 0.016339 
207.263611 0.015157 
209.092789 0.420033 
209.128906 0.252464 
210.661163 0.014444 
211.10881 0.024465 
211.221985 0.016174 
212.79483 0.253581 
212.810944 1.557172 
212.823868 0.5894 
213.935211 0.015157 
214.108093 0.166825 
214.604523 0.016678 
215.102844 0.41044 
216.11113 1.208894 
217.118912 18.180428 
217.91658 0.015213 
218.122742 1.48027 
222.711075 0.015489 
225.653687 0.015062 
225.708359 0.01594 
227.102829 0.020911 
227.174377 0.017286 
230.355637 0.014559 
232.13002 0.03702 
235.357513 0.021284 
235.588013 0.016084 
237.12439 1.463112 
237.604385 0.015751 
240.958649 0.01617 
241.119217 0.113297 
241.774567 0.015933 
242.122238 0.0143 
247.292694 0.01817 
247.645782 0.015469 
252.524063 0.012716 
255.134735 0.039056 
255.414429 0.013134 
257.877289 0.015483 
258.973328 0.017928 
259.131958 0.017331 
262.245667 0.015639 
263.102753 0.014079 
265.119598 2.161362 
266.122742 0.035097 
271.131165 0.018479 
282.136292 0.010607 
284.034454 0.015883 
287.516418 0.015629 
292.501221 0.016649 
294.319366 0.015321 
295.638641 0.017701 
297.674103 0.01743 
304.114197 0.013707 
312.01532 0.0165 
313.356232 0.017122 
314.009583 0.013934 
315.270111 0.017418 
315.725708 0.015443 
320.642517 0.014925 
326.171906 0.215493 
326.59024 0.012864 
330.222992 0.019555 
332.669373 0.013784 
332.73114 0.017805 
342.167908 0.036191 
350.330597 0.016587 
363.160217 0.017491 
365.219147 0.041099 
372.489594 0.01691 
372.795776 0.017888 
374.113678 0.014094 
382.286743 0.014013 
391.062531 0.017047 
391.453491 0.017451 
394.359985 0.017495 
399.225006 0.618467 
400.229156 0.017455 
412.975922 0.016619 
413.855255 0.014434 
417.237885 0.016379 
417.81665 0.01392 
454.608826 0.016758 
457.467804 0.016243 
459.068359 0.016069 
462.481659 0.016521 
468.003021 0.018561 
473.903442 0.0159 
477.07373 0.018587 
483.27597 0.020235 
500.959229 0.022237 
512.968018 0.016149 
518.925232 0.018908 
529.244507 0.012775 
535.27301 0.019199 
536.03656 0.015878 
536.329773 0.015852 
552.246765 0.019483 
592.827393 0.016573 
624.723572 0.019506 
END IONS

