BEGIN IONS
PEPMASS=172.06
CHARGE=1+
COMPOUNDNAME=Patulin
LIBRARYQUALITY=3
SMILES=N/A
INCHIKEY=ZRWPUFFVAOMMNM-UHFFFAOYSA-N
INCHI=InChI=1S/C7H6O4/c8-6-3-4-5(11-6)1-2-10-7(4)9/h1,3,7,9H,2H2
MSLEVEL=2
SOURCE_INSTRUMENT=N/A-ESI-QFT
FILENAME=library_mgf.mgf
SEQ=*..*
IONMODE=positive
ORGANISM=MONA
NAME=Patulin [M+NH4]+
PI=MoNA
DATACOLLECTOR=MoNA:VF-NPL-QEHF025939
PUBMED=N/A
SUBMITUSER=mwang87
TAGS=
SPECTRUMID=CCMSLIB00004717002
SCANS=25939
50.316113 0.005555 
50.705318 0.005433 
50.842339 0.005657 
51.19698 0.005267 
52.251106 0.009163 
53.002499 0.203159 
53.068401 0.004399 
53.91721 0.005385 
54.194626 0.004944 
54.726849 0.006879 
55.018112 0.322138 
55.054516 0.116399 
55.528469 0.007747 
55.769585 0.004368 
55.791992 0.008634 
55.881119 0.007229 
56.021549 0.002932 
56.04974 0.031794 
56.703377 0.006568 
56.716606 0.00745 
56.965057 0.070817 
57.033733 0.012313 
57.07011 0.126033 
57.356613 0.007658 
57.531918 0.008182 
58.065395 0.05197 
58.358368 0.008491 
59.04929 0.006787 
59.129284 0.008698 
59.346626 0.005446 
59.492031 0.008193 
59.714565 0.006447 
60.556095 0.003096 
61.010853 0.259563 
61.311409 0.006516 
61.834274 0.009252 
62.018642 0.235685 
62.02417 0.005997 
63.581047 0.00593 
63.813313 0.00767 
64.092964 0.004182 
64.779655 0.004207 
65.246094 0.009081 
65.900917 0.006766 
65.962486 0.007625 
66.148079 0.008165 
67.054359 0.44115 
68.217209 0.005016 
68.657433 0.005588 
68.997086 0.020575 
69.033554 0.175051 
69.069939 0.169455 
69.250656 0.006201 
70.06517 0.577916 
71.012802 0.790893 
71.049171 0.020654 
72.016098 0.00316 
72.04438 0.198622 
72.153183 0.009693 
72.379295 0.003273 
72.435349 0.009845 
74.410141 0.003026 
75.044006 0.019504 
75.19664 0.003583 
75.330933 0.006017 
75.567017 0.006694 
76.395523 0.005891 
77.424004 0.008971 
78.004074 0.006437 
79.018814 0.004029 
79.021202 0.271784 
79.054207 0.114765 
79.955528 0.006302 
80.945129 0.003952 
80.990479 0.005224 
81.033463 0.008056 
81.069832 0.204508 
81.296494 0.006676 
81.628212 0.006359 
82.073036 0.003352 
82.350327 0.007959 
83.010078 0.004488 
83.012749 0.601143 
83.08551 0.215935 
83.624527 0.010498 
84.080734 0.006806 
84.481911 0.005899 
84.874603 0.006423 
85.028397 0.268984 
86.059982 0.07699 
86.096405 0.005568 
87.044014 0.012324 
89.070908 0.379575 
89.591843 0.00495 
90.998924 0.007831 
91.054207 0.247996 
91.362328 0.009626 
91.490746 0.003651 
92.644348 0.008432 
93.069794 0.181645 
93.080811 0.007405 
95.08548 0.155037 
96.212524 0.003629 
97.028404 0.444277 
97.053146 0.006877 
97.064888 0.013906 
97.076134 0.017658 
97.101173 0.09608 
97.584839 0.007741 
97.615021 0.0098 
98.096405 0.099628 
99.007675 1.177024 
99.01133 0.010934 
99.023193 0.004625 
99.0438 0.005362 
99.900894 0.005742 
99.975822 0.009131 
100.010201 0.028502 
100.075676 0.021664 
100.662201 0.010108 
101.007759 0.010375 
101.429466 0.006034 
102.418243 0.009277 
103.136177 0.005029 
105.069839 0.134932 
106.999649 0.003302 
107.085464 0.167085 
108.016396 0.013358 
108.089081 0.00658 
108.516876 0.004669 
109.014893 0.464184 
109.071335 0.004855 
109.101196 0.87697 
109.514877 0.032343 
109.974785 0.009967 
110.013016 0.392263 
110.016693 0.003679 
110.104507 0.011745 
110.492325 0.009567 
110.508087 0.006729 
111.007576 0.290911 
111.036888 0.00297 
111.043907 0.010817 
111.054901 0.004503 
111.080177 0.02178 
111.565292 0.00701 
112.039238 0.006573 
112.075401 0.020913 
112.08696 0.012571 
113.023224 0.181462 
113.988533 0.009571 
114.091339 0.006718 
116.005219 0.015052 
116.07058 0.180923 
116.812492 0.00656 
116.96595 0.043198 
117.069832 0.261183 
118.128555 0.006472 
118.414383 0.008632 
119.085587 0.128197 
119.584694 0.008016 
119.88855 0.006348 
121.198441 0.009698 
122.499382 0.010334 
122.940956 0.010756 
123.49749 0.062784 
123.938797 0.009317 
124.112091 0.023883 
124.119713 0.006629 
124.278908 0.008871 
124.318466 0.010455 
124.936218 0.003929 
125.023323 0.792662 
125.096031 0.080872 
126.026497 0.020057 
126.933731 0.004851 
127.002541 0.097266 
127.039032 0.220064 
127.575035 0.087251 
128.106873 0.036449 
128.504318 0.006608 
128.573303 0.004895 
130.159103 0.013276 
130.981857 0.083224 
131.009171 0.046474 
131.085556 2.140461 
131.152496 0.007142 
131.504776 0.140706 
131.510147 0.004196 
132.005676 0.024136 
132.08876 0.005268 
132.502747 0.541178 
132.958893 0.006818 
133.003937 0.025613 
133.500656 0.006184 
135.080597 0.017215 
135.116837 0.006579 
136.580307 0.338522 
137.081741 0.005199 
137.134399 0.007472 
137.140961 0.00624 
137.927887 0.032279 
138.935806 0.020311 
139.016586 0.107918 
139.102905 0.005209 
139.211487 0.007769 
139.516434 0.003938 
139.923294 0.012933 
140.014481 0.334815 
140.515427 0.023867 
141.012848 0.007834 
141.018219 0.154101 
142.580307 0.056038 
142.588776 0.011018 
143.07045 0.006489 
144.6297 0.006699 
144.997513 0.042494 
145.101135 0.370532 
145.585526 0.170751 
146.575104 0.010648 
146.994415 0.013519 
149.972061 0.008805 
150.28447 0.009261 
151.585663 0.133873 
152.087387 0.003766 
152.143341 0.171885 
152.951401 0.150792 
153.018158 0.030066 
153.127823 0.00553 
154.122665 0.418868 
154.946762 0.033207 
155.106598 0.054236 
155.207397 0.004775 
155.444244 0.008728 
155.893738 0.014347 
155.95462 0.147735 
155.995132 0.005913 
156.891708 0.005017 
156.944763 0.12991 
156.954178 0.034442 
156.99733 0.012241 
157.017853 0.011839 
157.889923 0.004785 
157.951981 0.328845 
158.016693 0.005327 
158.942596 0.003145 
158.953384 0.066764 
158.960281 0.004069 
159.013046 0.711302 
159.951889 0.01029 
160.590912 0.025861 
162.475235 0.00571 
164.507751 0.00836 
166.581848 0.020287 
166.966217 0.008389 
167.302658 0.004131 
170.096436 0.034848 
170.117844 0.030549 
170.1539 27.909897 
170.917496 0.145477 
170.962067 0.023925 
171.028748 0.013584 
171.062363 0.018447 
171.091797 0.028217 
171.112854 0.019874 
171.149445 0.617314 
171.157211 5.074288 
171.915268 0.037442 
172.09639 0.17753 
172.112122 0.358039 
172.133148 0.18343 
172.15242 0.004384 
172.160568 0.223618 
172.16954 0.32084 
172.205978 0.127178 
172.913681 0.053816 
173.065002 0.060881 
173.078415 100.0 
173.116974 0.014999 
173.132401 4.387539 
173.903961 0.040016 
174.081711 2.794942 
174.111984 0.01917 
174.127655 0.066957 
174.13559 0.089893 
174.148849 0.458649 
174.185242 0.007776 
174.90242 0.050597 
174.954575 0.004534 
175.007645 0.003544 
175.265594 0.01071 
175.528732 0.007054 
175.900986 0.01961 
176.077911 0.005769 
185.914169 0.006639 
187.944458 0.005995 
188.927963 0.12416 
188.943466 0.011461 
189.925949 0.216643 
189.941528 0.027291 
190.924057 0.07556 
190.966492 0.003485 
191.922699 0.036061 
192.94429 0.007081 
END IONS

