BEGIN IONS
PEPMASS=297.016
CHARGE=1+
COMPOUNDNAME=norlichexanthone
LIBRARYQUALITY=3
SMILES=N/A
INCHIKEY=AQZHBCDRWFMXIN-UHFFFAOYSA-N
INCHI=InChI=1S/C14H10O5/c1-6-2-7(15)4-10-12(6)14(18)13-9(17)3-8(16)5-11(13)19-10/h2-5,15-17H,1H3
MSLEVEL=2
SOURCE_INSTRUMENT=N/A-ESI-QFT
FILENAME=library_mgf.mgf
SEQ=*..*
IONMODE=positive
ORGANISM=MONA
NAME=norlichexanthone [M+K]+
PI=MoNA
DATACOLLECTOR=MoNA:VF-NPL-QEHF017953
PUBMED=N/A
SUBMITUSER=mwang87
TAGS=
SPECTRUMID=CCMSLIB00004709016
SCANS=17953
50.339371 0.028655 
50.870869 0.029997 
51.035858 0.02934 
51.03714 0.0282 
51.620117 0.032158 
51.780178 0.02647 
51.940311 0.533417 
52.058395 0.031243 
52.120365 0.029983 
52.166496 0.033397 
54.579803 0.030624 
54.630009 0.026779 
54.754261 0.025488 
54.858452 0.02983 
55.054577 1.557393 
55.512527 0.025351 
56.049755 0.230207 
56.62899 0.030716 
56.965073 0.539943 
57.026779 0.030988 
57.033726 0.072022 
57.070148 3.975947 
58.065376 1.0085 
58.593296 0.02381 
59.049397 4.266323 
59.537926 0.026538 
60.044628 0.129414 
60.081017 0.743652 
60.175365 0.031393 
61.01086 9.146934 
61.314156 0.026434 
62.014233 0.11292 
62.018669 7.076569 
62.981907 0.370374 
63.006611 0.624258 
63.026348 0.033751 
63.488243 0.025608 
63.594757 0.026557 
63.997906 0.102798 
64.140411 0.02347 
64.343895 0.030295 
65.436974 0.028809 
65.959908 0.030336 
66.241447 0.030096 
66.308418 0.033354 
67.054344 2.078473 
67.088158 0.024187 
67.649765 0.033305 
68.557854 0.02965 
68.950912 0.0268 
69.033653 0.087041 
69.069992 3.596044 
70.065239 1.101732 
70.514313 0.03072 
70.688507 0.025692 
71.049225 0.575036 
71.085602 1.928042 
72.044418 0.068979 
72.080826 1.344442 
72.53215 0.029115 
73.028511 0.394198 
73.04689 0.53958 
73.064781 0.285492 
74.060066 0.151568 
74.096451 0.32375 
74.975929 0.024192 
75.044106 1.49483 
75.159355 0.030995 
75.554741 0.032406 
76.075699 0.39811 
77.059731 0.470756 
77.202477 0.030967 
77.976471 0.025886 
79.010284 0.03235 
79.021263 11.308923 
79.023819 0.042042 
79.054245 0.497447 
80.024513 0.030626 
81.016884 0.054777 
81.018646 0.180949 
81.069916 3.582999 
81.243202 0.028285 
82.065193 0.030537 
82.583153 0.028814 
82.711967 0.027783 
83.04911 0.750253 
83.085518 2.385736 
83.211693 0.027547 
84.044395 0.199058 
84.080818 0.609076 
85.028381 0.20187 
85.064781 1.130039 
85.101181 0.500168 
86.060081 1.005336 
86.09642 2.362309 
87.044128 16.428684 
88.047447 0.291772 
88.073128 0.030717 
88.075714 2.333973 
89.059746 19.640291 
90.063133 0.44437 
90.111153 0.029066 
91.054382 0.578369 
91.057373 1.88054 
93.03627 0.035644 
93.069939 6.335089 
94.026321 0.076027 
94.073425 0.026334 
94.076706 0.027343 
94.408463 0.024737 
94.76973 0.031601 
94.980797 0.031978 
95.049095 0.144578 
95.085541 5.925056 
96.088966 0.083125 
96.789024 0.031809 
97.064812 0.437031 
97.101219 1.156787 
97.457214 0.033918 
97.782143 0.031333 
98.060188 0.044718 
98.975304 0.183981 
99.011185 0.18545 
99.044044 0.220847 
99.080482 0.39872 
100.039886 0.031611 
100.075684 0.668767 
100.111984 0.062431 
101.003204 2.851762 
101.059792 0.212071 
101.529579 0.026879 
102.226349 0.028814 
102.948151 0.286895 
103.038979 21.413095 
103.05381 0.035581 
103.075409 2.859036 
104.04229 0.608097 
104.076813 0.026158 
104.739624 0.028472 
104.992134 0.025927 
105.033508 0.455465 
105.069939 0.569369 
105.205002 0.030536 
105.344261 0.028029 
105.48011 0.034463 
105.926994 0.029117 
106.086998 0.032127 
107.070305 0.285368 
107.085556 10.035439 
107.847366 0.03692 
108.016418 1.027444 
108.088852 0.166173 
108.432121 0.028284 
108.602768 0.035903 
109.064781 0.345362 
109.101219 2.472728 
109.2211 0.0277 
110.059952 0.034014 
110.075233 0.028509 
110.10482 0.070103 
110.95369 0.101842 
111.026291 0.164869 
111.080467 0.210152 
111.116714 0.123839 
111.845566 0.028349 
111.894394 0.029273 
112.075455 0.033797 
113.083328 0.02747 
113.095993 0.77936 
114.091484 0.03439 
114.762505 0.025007 
114.940811 0.0265 
115.075554 0.0437 
115.728096 0.031756 
115.858742 0.038683 
116.070587 0.238743 
116.966003 0.121148 
116.985855 0.169817 
117.055199 0.032598 
118.877907 0.035761 
118.942902 0.069966 
119.085533 1.466052 
120.08075 0.248486 
121.064774 1.298875 
121.085945 0.065703 
121.101189 3.082005 
121.501106 0.676876 
122.35836 0.032365 
122.499527 0.030956 
123.080391 0.200602 
123.116798 1.036365 
125.0961 0.341126 
126.043785 0.203966 
126.091347 19.543341 
127.075218 0.046605 
127.089996 0.028883 
127.094566 2.100171 
127.111862 0.032646 
128.106995 0.109946 
128.96402 0.162341 
129.012787 4.160938 
129.0522 1.489391 
129.513367 0.283987 
129.838501 0.029566 
129.954559 0.033336 
130.011169 0.552594 
130.506393 2.461138 
131.006927 0.115269 
131.070251 4.090276 
131.085556 0.329496 
131.504364 0.064018 
132.115372 0.028716 
132.958359 0.401286 
133.064774 0.079058 
133.085907 5.495689 
133.101227 0.802609 
133.492264 0.02731 
134.089127 0.080115 
134.205811 0.033838 
134.978714 1.284555 
134.996643 0.102009 
135.002731 0.161846 
135.080368 4.358657 
135.116745 1.415156 
136.024628 0.028009 
136.061874 0.03239 
136.075729 1.930184 
136.974457 0.777022 
137.011719 0.445566 
137.060059 0.036629 
137.078949 0.043685 
137.096069 0.160579 
137.132492 0.123154 
137.801514 0.024831 
138.018112 8.497969 
138.518738 1.30313 
138.971542 0.378934 
139.010696 0.028118 
139.016418 1.766419 
139.075272 0.108514 
139.111618 0.112948 
140.966125 0.026089 
141.126984 0.030315 
141.26503 0.033486 
141.972 0.432617 
142.159286 0.07668 
144.958832 0.081011 
145.025665 0.034495 
145.101089 0.080256 
145.966599 1.390086 
146.920212 0.154193 
146.974411 0.51018 
147.06517 0.670862 
147.080048 0.033836 
147.116776 2.188717 
147.990112 0.112789 
149.059906 0.02918 
149.096115 0.966339 
149.132492 14.307537 
150.091171 0.064578 
150.135895 0.452007 
150.752563 0.032467 
150.968826 0.341071 
151.096497 0.353351 
151.111908 0.115402 
151.96994 0.170317 
152.989349 1.261669 
153.07431 0.032423 
153.091019 3.101226 
153.300583 0.030604 
154.086121 0.033822 
154.703262 0.030823 
154.984955 0.071043 
155.022156 0.117105 
155.106598 0.296051 
155.894135 0.031934 
155.972244 0.239482 
156.138809 0.029441 
156.975021 0.556361 
156.982117 0.43899 
157.103165 0.034192 
157.966568 9.896189 
157.973999 0.053928 
158.063217 0.114434 
158.173584 0.032134 
158.260162 0.032501 
158.966843 0.241835 
158.976608 1.281969 
158.996704 0.170401 
159.030029 0.037039 
159.116867 0.043282 
159.982346 2.964434 
160.97345 0.26309 
161.132294 0.317393 
161.944122 0.031277 
162.951538 3.115697 
163.027435 0.438901 
163.075073 0.034889 
163.096542 0.538402 
163.112122 0.029687 
163.148041 6.581535 
163.218719 0.033602 
163.95929 0.399798 
163.976974 2.600486 
164.105774 0.040964 
164.15155 0.300609 
164.326019 0.034691 
164.36557 0.02776 
164.930771 0.363174 
165.05481 0.142679 
165.112137 0.138341 
165.938736 0.163268 
166.060547 0.032905 
167.005066 0.52883 
167.106674 8.782194 
168.101501 0.037605 
168.109863 0.269596 
170.117523 100.0 
171.120972 14.640866 
172.123154 0.377619 
172.257629 0.031543 
172.849686 0.040181 
172.957626 0.035036 
172.988434 0.030936 
173.132568 1.353119 
173.140015 0.035102 
173.483917 0.032229 
173.943665 0.037064 
173.983078 0.251858 
174.951553 4.278773 
174.98558 0.665735 
175.096466 1.679885 
175.148697 0.029001 
175.95166 0.283954 
175.959396 3.494274 
175.968231 0.065475 
175.977158 10.862957 
175.985168 0.317896 
176.944855 0.030454 
176.959641 0.045925 
176.977127 0.277665 
177.006973 0.118904 
177.112366 0.62374 
177.127686 0.065108 
177.992844 3.839091 
178.946548 1.102123 
178.984955 0.033746 
178.9944 0.029437 
179.617157 0.032485 
179.9543 4.411264 
180.362335 0.032109 
180.659546 0.041467 
180.954041 0.031026 
180.962128 0.816899 
181.000885 0.031627 
181.039398 0.033655 
181.123001 0.029218 
181.158386 0.039434 
181.933319 0.079203 
181.970245 0.035146 
181.987717 0.379581 
181.998871 0.037962 
185.071869 0.040535 
186.973267 0.121355 
187.028519 0.028999 
187.959351 0.455284 
187.980545 0.285314 
188.967163 6.636385 
189.043564 0.1454 
189.975113 10.517414 
189.992249 0.059557 
190.946564 3.332176 
190.95517 0.026601 
190.967468 1.803366 
190.975739 0.403434 
191.022247 0.115839 
191.05867 0.069902 
191.07019 0.036472 
191.091431 0.512189 
191.143066 4.516891 
191.508957 0.033481 
191.946655 0.082992 
191.97551 1.56977 
192.146545 0.081642 
192.962189 39.780308 
192.972641 0.313573 
193.037582 0.028793 
193.970245 34.711342 
194.924622 0.034949 
194.960892 0.811464 
194.970383 2.445002 
195.060516 0.046783 
195.122528 0.059004 
195.912537 0.669754 
195.94931 0.062629 
196.003693 0.40051 
196.920898 0.040851 
196.95726 0.073635 
197.016037 0.038394 
197.928467 0.685119 
198.669876 1.033312 
198.854614 0.064121 
198.936432 0.039939 
199.171677 0.143773 
199.943893 0.031758 
202.967758 0.522659 
204.027832 0.205147 
204.10376 0.034241 
204.962219 14.603362 
204.98317 3.422771 
205.96254 1.022376 
205.991119 3.957149 
206.977844 60.194763 
207.054047 0.737078 
207.675201 1.273634 
207.985901 78.24762 
208.133102 0.816281 
208.176773 0.156893 
208.957092 0.176948 
208.986084 6.475892 
209.137619 0.032985 
209.964355 0.085911 
210.091187 0.037085 
210.175201 0.035267 
210.185501 1.185651 
211.086182 0.033699 
212.11792 0.107632 
212.951172 0.031282 
212.992676 0.121338 
213.066498 0.075642 
215.181854 0.618501 
215.188614 0.675073 
215.857254 0.034373 
216.122772 0.138361 
216.977493 0.260287 
217.954544 0.144018 
217.979446 0.191088 
217.990692 0.042821 
218.151596 14.474248 
218.975372 0.150644 
219.017166 0.470993 
219.15538 1.972171 
219.666061 5.624147 
219.949387 1.535908 
219.973602 0.038446 
219.985733 5.906202 
220.010086 0.039476 
220.167496 3.282411 
220.177795 0.183287 
220.665573 0.556898 
220.957321 2.051781 
220.993927 1.271285 
221.153076 0.144736 
221.163498 0.03664 
222.00145 1.529504 
222.898605 0.286123 
222.936508 0.107828 
222.971863 0.038185 
223.086685 0.833301 
223.144989 0.036152 
223.169327 1.687929 
223.980698 0.143542 
224.951981 2.897049 
225.042953 1.468323 
225.994949 0.040376 
226.043274 0.029727 
227.022781 0.033769 
227.101974 0.07549 
228.671463 12.674492 
229.172699 4.753083 
229.670502 2.020401 
230.171753 0.047052 
231.001205 0.036434 
232.859787 0.114824 
233.069748 0.766661 
234.074768 0.029433 
234.942078 0.114791 
234.975082 0.027518 
234.988342 0.244759 
235.084717 0.157449 
235.679276 0.394636 
235.965134 0.756123 
235.989853 0.179738 
236.001755 0.086797 
236.091705 0.067519 
236.163879 1.318763 
236.182251 0.030796 
236.678299 0.031072 
236.938522 0.561251 
236.972702 0.56974 
236.985168 0.16209 
237.007553 0.040026 
237.027649 0.406073 
237.109787 0.66946 
237.121658 0.076119 
237.676575 5.214388 
237.95961 17.937584 
237.99614 7.016677 
238.022324 0.0623 
238.054596 0.032164 
238.178009 2.092146 
238.676025 0.470304 
238.869324 0.073534 
238.950317 1.516299 
238.96785 11.215292 
238.996338 0.277879 
239.177963 0.034864 
239.968201 0.828517 
240.864761 1.34001 
240.909409 0.480562 
244.684372 0.030571 
244.88533 0.033204 
246.60434 0.143577 
249.10257 0.261271 
250.180756 0.040522 
250.970993 0.123529 
251.080185 0.31964 
252.011581 0.039983 
252.039871 0.0675 
252.951309 0.083843 
252.965454 6.902703 
252.980988 0.214743 
253.966812 0.300871 
254.112762 0.036183 
254.880417 0.191666 
254.94783 0.285311 
254.980972 0.129333 
255.120422 0.093347 
255.969727 0.344607 
256.006561 1.225724 
256.121643 0.081167 
256.880127 0.226932 
256.961121 0.294286 
258.875427 4.219549 
260.871979 0.031443 
261.22168 0.059938 
262.180145 0.440072 
262.895111 0.17127 
264.156891 2.073634 
264.193359 0.665642 
265.020111 0.942341 
265.140961 0.551454 
265.158936 0.038553 
266.172668 0.526826 
266.999023 1.804473 
267.034943 0.03145 
267.112549 9.285274 
267.999573 0.03993 
268.978302 2.301945 
268.993591 0.892825 
270.993774 0.815685 
271.060242 0.721192 
271.167938 0.034254 
272.8909 1.470659 
274.132111 0.038828 
278.101044 0.036565 
279.157074 0.041001 
280.170959 0.174828 
280.190857 1.252819 
280.2258 0.084792 
280.261993 0.037544 
281.014282 0.102977 
281.051147 3.046365 
281.117279 0.581748 
282.052216 0.400357 
282.138092 0.074222 
282.875397 0.036993 
282.99408 5.937457 
283.012207 0.058363 
283.030365 18.255619 
283.892426 0.448061 
284.030609 4.379161 
284.153503 0.45473 
284.169861 0.039205 
284.95517 3.318375 
285.009583 9.627566 
285.027832 1.310539 
285.045593 2.080662 
285.955444 0.171529 
286.046814 0.259305 
289.003998 0.080166 
289.547058 0.039532 
295.060394 0.122827 
295.081818 0.041991 
295.114471 0.045924 
295.151337 1.461524 
295.181702 0.743946 
295.202271 0.590215 
295.240814 0.120305 
296.093079 0.037649 
296.112152 0.826233 
296.147675 0.092889 
296.164825 0.320869 
296.183533 0.609283 
296.200378 0.222399 
296.221497 1.054137 
296.238312 0.601316 
296.257111 0.242828 
296.294861 4.90463 
296.330688 0.253691 
297.00769 1.590452 
297.04657 6.717003 
297.075043 1.764764 
297.091949 9.983576 
297.129791 1.421318 
297.147705 0.054452 
297.167175 6.592265 
297.183899 0.215771 
297.201965 0.348156 
297.220947 0.309835 
297.239929 9.627469 
297.257721 0.211078 
297.297974 0.849941 
298.011322 0.047584 
298.047089 3.720188 
298.07547 0.923229 
298.097778 0.792012 
298.103271 0.797934 
298.125854 5.811851 
298.14386 0.279569 
298.179962 1.065109 
298.198853 0.153559 
298.216858 0.593339 
298.237122 7.530867 
298.272034 0.204651 
298.310333 0.685023 
298.346741 28.354448 
299.061462 30.431385 
299.092194 0.580031 
299.109711 2.643283 
299.128052 0.408107 
299.145844 1.04055 
299.1633 0.683506 
299.182709 4.201583 
299.200012 0.144342 
299.219208 3.730981 
299.238708 0.233403 
299.269958 0.039684 
299.35199 0.043531 
300.061981 7.541939 
300.885925 0.14743 
300.983856 0.559981 
301.040741 0.147337 
301.058289 2.502181 
302.163116 0.083128 
302.18042 0.043897 
303.019897 0.658837 
303.037781 0.033166 
309.109711 0.032082 
313.204987 3.158457 
314.208374 0.640048 
314.929382 0.796502 
315.017517 6.518562 
315.037109 0.100766 
316.020721 0.763077 
END IONS

