BEGIN IONS
PEPMASS=247.108
CHARGE=1+
COMPOUNDNAME=N-acetyltryptophan
LIBRARYQUALITY=3
SMILES=N/A
INCHIKEY=DZTHIGRZJZPRDV-UHFFFAOYSA-N
INCHI=InChI=1S/C13H14N2O3/c1-8(16)15-12(13(17)18)6-9-7-14-11-5-3-2-4-10(9)11/h2-5,7,12,14H,6H2,1H3,(H,15,16)(H,17,18)
MSLEVEL=2
SOURCE_INSTRUMENT=N/A-ESI-QFT
FILENAME=library_mgf.mgf
SEQ=*..*
IONMODE=positive
ORGANISM=MONA
NAME=N-acetyltryptophan [M+H]+
PI=MoNA
DATACOLLECTOR=MoNA:VF-NPL-QEHF000857
PUBMED=N/A
SUBMITUSER=mwang87
TAGS=
SPECTRUMID=CCMSLIB00004691920
SCANS=857
50.64159 0.025691 
51.005341 0.013539 
51.757748 0.011717 
52.724953 0.026556 
52.954723 0.015087 
53.290375 0.024555 
53.295921 0.012724 
54.055115 0.010671 
54.512093 0.01622 
55.018608 0.333951 
55.05497 0.157446 
55.335716 0.013477 
55.337372 0.016478 
56.132561 0.015357 
56.585667 0.015701 
57.034344 0.013545 
57.070637 0.07293 
57.088299 0.013131 
57.356972 0.012503 
57.64711 0.011046 
57.78072 0.012841 
57.998482 0.025826 
58.060638 0.015514 
58.06588 0.073068 
58.210785 0.014679 
58.438766 0.02848 
58.836647 0.016815 
59.049938 0.254918 
59.519787 0.015376 
60.045177 0.387033 
60.303295 0.011761 
60.399296 0.013698 
60.444378 0.011141 
60.870304 0.012575 
61.011433 0.688001 
61.387634 0.027309 
61.975147 0.015917 
62.019218 0.957641 
62.060757 0.023213 
62.942825 0.015355 
64.479233 0.015659 
64.901817 0.027883 
65.047661 0.022648 
65.982552 0.011292 
67.054977 0.084232 
68.535912 0.015122 
68.986267 0.0154 
69.070541 0.162306 
70.065834 0.321077 
70.270523 0.012744 
70.324921 0.014889 
71.049873 0.012348 
71.548546 0.012469 
72.045204 0.031044 
72.081436 0.595581 
74.0243 0.432781 
74.060684 0.03096 
74.180603 0.014381 
74.284653 0.015168 
75.640114 0.016985 
77.039635 0.011406 
77.601852 0.014312 
78.545555 0.017183 
78.92907 0.011488 
79.022011 0.016961 
83.08606 0.030922 
84.044937 0.13044 
84.081429 0.03042 
84.109489 0.011145 
85.028809 0.01252 
85.03994 0.014346 
85.360329 0.015023 
86.09697 1.987346 
87.075233 0.017166 
87.100281 0.043726 
87.342957 0.016172 
88.03981 1.839169 
88.233551 0.011011 
89.042854 0.012801 
89.873367 0.027814 
90.903961 0.106422 
91.054955 0.02738 
91.204575 0.017599 
92.600655 0.012878 
93.016167 0.02915 
93.07048 0.016057 
93.393517 0.016739 
94.108315 0.026687 
94.308128 0.011985 
94.577568 0.017296 
95.085938 0.162927 
95.65155 0.012888 
96.723122 0.028535 
97.101524 0.054405 
98.984428 0.014725 
102.055916 0.013625 
103.949028 0.010432 
105.184181 0.028709 
105.707176 0.012008 
107.085938 0.010147 
107.991913 0.012963 
108.50605 0.02954 
108.914154 0.767463 
109.101639 0.085088 
109.63485 0.013173 
111.405907 0.012376 
111.907578 0.026824 
112.040016 0.010594 
112.112457 0.051857 
112.224144 0.014195 
112.628685 0.011307 
113.059952 0.147437 
113.968895 0.02004 
115.054588 0.116646 
116.070755 0.044375 
116.429642 0.018761 
117.057861 0.047934 
117.069839 0.033698 
118.061165 0.054943 
118.065323 3.365214 
119.068604 0.085216 
119.085579 0.017032 
123.319855 0.015069 
124.087143 0.154555 
126.92424 0.014983 
127.956345 0.021963 
128.697968 0.030287 
128.792236 0.028818 
130.065186 25.505869 
131.063354 0.031216 
131.068359 2.167292 
131.787155 0.011884 
132.080841 15.851673 
133.084183 1.543238 
133.173721 0.014892 
133.953766 0.018602 
134.97879 0.047719 
135.818695 0.011186 
137.095963 0.018289 
138.20993 0.016554 
142.065079 1.881163 
143.067902 0.017075 
143.073196 0.264004 
144.044434 0.360522 
144.08075 8.090085 
145.084122 0.567567 
145.502838 0.015903 
145.966553 0.74469 
146.059998 42.334671 
147.057648 0.070177 
147.063278 3.754729 
149.954712 0.015847 
151.6922 0.031233 
152.636307 0.014865 
152.896561 0.075902 
152.951447 0.379534 
152.989197 0.014462 
153.763504 0.013181 
153.893631 2.332569 
154.122406 0.018548 
154.89325 0.041693 
154.946915 0.018353 
154.978012 0.019786 
155.254379 0.015066 
155.533279 0.012007 
155.890778 0.109571 
156.080795 1.007677 
156.137833 0.014904 
157.07605 1.051624 
158.060074 0.630255 
158.084229 1.259182 
158.096283 0.396534 
159.091644 100.0 
160.075623 4.822207 
160.088699 0.523535 
160.094986 9.761162 
160.878052 0.015077 
161.078964 0.319458 
161.097992 0.058902 
161.106018 0.013751 
163.97702 0.554585 
167.920227 0.971362 
168.870651 0.013574 
168.917145 14.513898 
169.075958 3.670189 
169.084381 0.090167 
169.91745 0.573049 
170.059937 16.909515 
170.078293 0.104385 
170.91362 2.718342 
171.028198 0.017632 
171.063293 1.844524 
171.904099 3.141305 
172.904297 0.026041 
172.988327 0.016143 
173.901031 0.445385 
174.054382 0.013652 
174.09137 0.528034 
174.148407 0.012173 
174.92334 0.028324 
175.98291 0.015009 
176.070602 0.035149 
183.091675 2.197046 
184.075684 2.647748 
184.095978 0.014896 
184.586411 0.015187 
185.070938 0.051523 
185.079208 0.160502 
185.920517 0.026606 
185.930862 0.801848 
186.054565 0.024642 
186.091156 0.018444 
186.121597 0.019996 
186.927704 20.550648 
187.086548 4.807102 
187.09584 0.012462 
187.928207 0.8133 
187.977127 0.122189 
188.070511 71.005844 
188.9245 4.181287 
189.073914 8.447313 
190.07634 0.059094 
200.943405 0.47281 
201.066086 0.073227 
201.102173 8.911547 
202.086456 0.137912 
202.105667 1.01218 
202.941101 0.01746 
203.081329 0.465111 
204.084869 0.057483 
205.097061 0.485859 
205.987534 0.67094 
206.977005 0.020284 
207.018585 0.023848 
211.086456 0.01942 
215.08876 0.366566 
216.343613 0.221731 
216.352509 0.321209 
225.852585 0.014599 
226.1091 0.018925 
229.097305 0.159032 
230.081085 0.459479 
242.162933 0.014817 
242.734863 0.015575 
245.135681 0.086654 
245.156677 0.017342 
246.076035 0.052885 
246.090668 0.021189 
246.24205 0.031778 
247.114944 0.382199 
248.091644 0.931144 
248.104721 0.062766 
248.128159 0.014632 
248.163788 0.028682 
248.237 0.080784 
254.862671 0.017261 
257.338074 0.014183 
265.217468 0.032557 
END IONS

