BEGIN IONS
PEPMASS=320.126
CHARGE=1+
COMPOUNDNAME=Isocycloheximide
LIBRARYQUALITY=3
SMILES=N/A
INCHIKEY=YPHMISFOHDHNIV-UHFFFAOYSA-N
INCHI=InChI=1S/C15H23NO4/c1-8-3-9(2)15(20)11(4-8)12(17)5-10-6-13(18)16-14(19)7-10/h8-12,17H,3-7H2,1-2H3,(H,16,18,19)
MSLEVEL=2
SOURCE_INSTRUMENT=N/A-ESI-QFT
FILENAME=library_mgf.mgf
SEQ=*..*
IONMODE=positive
ORGANISM=MONA
NAME=Isocycloheximide [M+K]+
PI=MoNA
DATACOLLECTOR=MoNA:VF-NPL-QEHF023910
PUBMED=N/A
SUBMITUSER=mwang87
TAGS=
SPECTRUMID=CCMSLIB00004714973
SCANS=23910
50.386024 0.045315 
50.509171 0.357299 
50.690998 0.041946 
50.91312 0.383005 
51.042076 0.272617 
51.940346 4.634042 
52.337612 0.041146 
52.375294 0.222608 
52.565483 0.224913 
52.678349 0.193 
52.94046 0.378029 
53.002548 0.332816 
53.038937 1.381717 
54.660412 0.177378 
54.93787 1.16638 
54.947311 0.052756 
55.018204 2.275242 
55.054562 11.070403 
55.724586 0.396894 
55.934692 7.55197 
55.945709 0.506986 
56.049812 5.043843 
56.057888 0.051295 
56.942513 1.591529 
56.965103 5.343088 
57.033848 0.776639 
57.070183 4.205866 
57.935108 2.251207 
57.939575 0.314578 
58.065414 0.526114 
58.496376 0.330792 
58.532921 0.061744 
58.995316 0.140464 
59.0494 0.817715 
59.930504 0.958793 
60.044643 0.196804 
60.239315 0.19209 
60.6497 0.084406 
61.010918 100.0 
61.447971 0.172371 
61.469971 0.15963 
62.010292 0.097375 
62.014263 1.244022 
62.0187 3.914135 
62.032742 0.047238 
62.076805 0.087751 
62.466137 0.047023 
62.864681 0.046733 
62.990185 0.630278 
63.006668 0.943527 
63.242603 0.098448 
63.552746 0.259084 
63.997971 0.637898 
64.983627 0.383094 
65.038803 0.889747 
67.018059 0.050251 
67.041862 0.052464 
67.054405 16.518164 
67.056183 0.126686 
67.935036 1.064678 
68.049644 1.459144 
68.057755 0.171789 
68.935211 0.049111 
68.942848 3.062239 
68.962692 0.461626 
68.997192 0.109477 
69.03363 4.665464 
69.070007 7.443721 
69.722542 0.099537 
69.94294 0.077419 
69.961014 0.122825 
70.065239 6.840071 
70.235458 0.048713 
70.279053 0.069319 
70.941978 1.186681 
70.957977 5.77141 
71.049263 1.588949 
71.085632 0.417164 
71.92942 2.692328 
71.940323 2.799228 
72.044319 0.366778 
72.080879 0.36362 
72.5644 0.228732 
72.937218 25.264498 
72.939491 0.134594 
73.028511 0.084906 
73.064835 0.144253 
73.084076 0.254448 
73.533211 0.11001 
73.937675 0.051406 
73.945137 0.133128 
73.955963 0.061233 
74.055031 0.107967 
74.527336 0.249754 
74.952682 0.174699 
75.044121 0.366335 
76.831055 0.220933 
77.005692 0.127964 
77.038902 0.108779 
78.013535 0.131528 
78.967148 2.529971 
78.984924 0.064695 
79.021309 17.847347 
79.054276 8.920304 
79.064911 0.32749 
79.453835 0.376523 
80.04953 4.246341 
80.057541 0.151965 
81.033577 2.227588 
81.069984 10.787417 
81.740646 0.184125 
81.784256 0.358158 
82.028946 0.141511 
82.065224 3.228233 
82.073311 0.175459 
82.477928 0.052498 
83.049232 1.393205 
83.068474 0.073394 
83.073013 0.434374 
83.085571 1.595485 
83.663399 0.050739 
83.929947 0.137044 
84.044472 3.017783 
84.078056 0.136603 
84.080864 22.788523 
84.893021 0.364626 
84.937675 5.984228 
85.010597 0.229194 
85.028442 0.888765 
85.03968 1.056123 
85.064911 0.751916 
85.084229 1.788915 
85.837334 0.106399 
85.937881 0.131701 
85.945496 0.443809 
86.05999 0.199979 
86.096405 0.513134 
86.194626 0.174057 
86.567123 0.104459 
86.973358 0.283372 
87.194901 0.16476 
87.906578 1.381886 
87.944595 0.345654 
88.914383 0.608595 
88.952377 1.543865 
88.968521 1.841025 
89.619919 0.043213 
89.757683 0.054043 
89.939896 0.990157 
89.950943 1.327041 
89.963768 0.432222 
90.947792 14.729972 
90.966873 0.064836 
91.054314 12.93267 
91.772881 0.044028 
92.049393 0.095265 
92.057663 0.748186 
92.982841 1.256828 
93.006119 0.046502 
93.037041 0.189949 
93.070007 6.873319 
94.028908 0.465685 
94.065231 1.37115 
94.073341 0.246883 
94.157326 0.230256 
94.757217 0.095123 
94.880157 0.042785 
94.978416 0.046877 
95.012833 2.548289 
95.049179 4.89625 
95.060394 0.140827 
95.085609 8.28432 
95.837502 0.047967 
95.99836 0.379109 
96.044472 8.603456 
96.080818 0.593945 
96.088951 0.047161 
96.346413 0.092255 
97.010765 0.323488 
97.028511 1.911546 
97.03965 0.048145 
97.064888 0.630989 
97.101311 0.147446 
97.954643 0.355118 
98.060219 0.380416 
98.096474 0.058297 
98.672409 0.118017 
99.044212 2.358518 
99.080475 0.325401 
99.315826 0.322433 
99.802208 0.189567 
99.948204 0.057671 
100.075668 0.566636 
100.968559 0.072537 
101.059731 0.104727 
101.940407 0.085693 
101.950638 0.045406 
102.091476 1.202047 
102.929611 0.407531 
102.948227 11.893856 
102.96804 0.076898 
103.054283 0.847533 
103.948425 0.711009 
103.956017 0.280474 
104.049614 0.141046 
104.920609 0.052445 
104.963486 0.30612 
105.03363 0.496763 
105.044708 0.403904 
105.070007 10.826857 
105.917198 1.855065 
105.93502 0.201616 
105.9552 0.061189 
106.028709 0.131179 
106.065178 1.860413 
106.073334 0.442823 
106.924683 0.106295 
106.962914 0.121385 
106.979179 0.051751 
107.049171 3.449804 
107.06031 0.063362 
107.072983 0.13604 
107.085571 6.06871 
107.950493 0.904541 
107.96138 0.074667 
107.97438 0.068781 
108.044472 4.759125 
108.056847 0.220302 
108.080811 0.607571 
108.362633 0.114484 
108.958374 2.216849 
109.011238 0.061088 
109.028458 0.184353 
109.064911 2.260531 
109.10125 1.694235 
109.348785 0.304055 
110.060104 1.673715 
110.09671 0.080857 
111.044243 0.418572 
111.080658 0.208418 
111.891457 0.063066 
112.03933 2.127224 
112.051819 0.044602 
112.075775 2.618905 
112.08886 0.233595 
113.059982 0.0681 
113.079185 0.053247 
113.649681 0.261114 
113.963631 0.072189 
114.091454 2.951049 
114.948219 0.153695 
115.054337 1.69941 
115.974983 0.065992 
116.062126 0.095081 
116.909332 0.540882 
116.963638 2.763854 
116.984482 0.299932 
117.057465 0.63874 
117.069946 4.265327 
117.441238 0.052873 
118.065285 1.245745 
118.924652 0.126589 
118.943062 4.472858 
118.979721 0.137375 
119.049309 0.616983 
119.060463 0.165002 
119.072853 0.045793 
119.085594 6.644703 
119.943581 1.23066 
119.951012 3.071626 
119.956207 0.176498 
120.044472 0.529181 
120.080818 1.19834 
120.94062 7.33596 
120.95118 0.10983 
120.95887 1.745514 
121.028389 0.492863 
121.064896 2.514135 
121.076027 0.229139 
121.088966 0.10564 
121.101349 0.97006 
121.95932 0.050231 
122.060265 0.470504 
122.067993 0.255656 
122.096786 0.59829 
122.940475 0.085087 
122.973915 0.083984 
122.989983 0.858107 
123.044106 0.375047 
123.068314 0.067433 
123.080406 2.954325 
123.09185 0.485728 
123.117065 0.094926 
123.927956 0.384861 
123.945312 0.062136 
123.965729 0.228443 
124.039276 0.097228 
124.07579 0.392604 
124.936005 0.203057 
125.059624 0.394281 
125.070999 0.492725 
125.096161 0.153706 
125.960999 1.023676 
126.05513 1.51973 
126.984154 0.258304 
127.006729 0.567983 
127.038963 0.072218 
127.365395 0.367986 
128.062012 2.491572 
128.963715 8.877447 
128.984528 0.075821 
129.069901 3.51804 
129.195023 0.058104 
129.963699 0.135523 
130.065338 0.73224 
130.077744 0.36372 
130.96228 0.097515 
130.979309 1.142608 
131.000137 0.089062 
131.049133 0.211538 
131.085602 4.357404 
131.945374 0.061474 
131.950836 5.57637 
131.96077 0.04628 
131.974396 0.169073 
132.044357 0.930189 
132.080902 1.084155 
132.088867 0.119033 
132.311356 0.348423 
132.904709 0.067437 
132.940552 0.142578 
132.951569 0.288512 
132.96106 22.017756 
132.995544 0.075043 
133.052277 0.175732 
133.06485 1.487585 
133.076309 0.055585 
133.08873 0.070791 
133.101181 1.859205 
133.630417 0.432329 
133.959305 57.131214 
134.012772 0.060807 
134.023849 0.07185 
134.060196 1.08495 
134.09639 0.916643 
134.104553 0.062421 
134.449585 0.375387 
134.919815 1.733085 
134.940369 0.063992 
134.956146 12.574877 
134.974152 1.028953 
135.044174 0.172049 
135.055298 6.250828 
135.080475 1.68698 
135.104523 0.04949 
135.116608 0.063237 
135.92775 1.050281 
136.039444 0.293594 
136.058762 0.077749 
136.075943 0.779831 
136.256195 0.053168 
136.935333 0.054296 
136.95491 0.211957 
137.01152 0.125206 
137.05986 0.133035 
137.0961 0.092884 
137.9543 0.195108 
137.96756 0.069658 
138.054993 0.278211 
138.091553 0.081371 
138.896774 0.055286 
138.951065 3.681523 
138.984253 0.269137 
139.039581 0.065099 
139.979477 0.085129 
140.034103 0.05622 
140.402267 0.350307 
140.984573 0.291893 
141.069962 1.523573 
141.982239 0.066655 
142.056213 0.438244 
142.077942 4.36451 
142.979065 3.738213 
143.000198 0.071645 
143.073135 0.150839 
143.085526 4.43489 
143.974014 0.052259 
144.04454 0.863359 
144.080994 0.898331 
144.093781 0.077738 
144.674316 0.392009 
144.958221 0.290243 
144.980011 0.067049 
145.01738 0.3641 
145.06485 3.994948 
145.101288 3.032216 
146.023621 0.091908 
146.060196 2.590149 
146.072769 0.091319 
146.096588 1.230803 
146.103851 0.17576 
146.300232 0.353965 
146.974411 32.353863 
147.044067 0.461875 
147.062958 0.068881 
147.068237 0.059194 
147.080566 1.317708 
147.116745 0.238473 
147.974548 5.704487 
148.039505 0.76566 
148.075714 0.953619 
148.11203 0.237358 
148.867676 0.383384 
148.955841 24.33869 
148.972153 4.125571 
148.989929 0.307546 
149.047928 0.101323 
149.059723 0.357091 
149.070755 0.07096 
149.096039 0.409113 
149.954239 11.172783 
149.960052 0.263683 
150.054977 0.543816 
150.091553 0.232583 
150.897263 0.173672 
150.951202 31.257713 
150.971436 10.101973 
151.026657 0.082555 
151.075684 0.214992 
151.969894 10.000661 
151.975952 0.255094 
152.034378 0.162737 
152.061951 0.097586 
152.070877 0.244399 
152.930313 0.834037 
152.951965 0.262103 
152.966888 4.874376 
152.98938 0.07558 
153.070084 0.342458 
153.938202 1.080188 
153.959244 0.28937 
153.992889 0.12812 
154.077774 0.078221 
154.947205 0.098407 
155.000336 0.194407 
155.060303 0.074771 
155.085587 2.025647 
156.042297 0.336334 
156.081161 0.174797 
156.093628 0.488823 
157.052094 0.062791 
157.064789 0.943123 
157.088913 0.064411 
157.101288 5.130245 
157.990112 0.183016 
158.06015 0.658393 
158.072662 0.569308 
158.096558 0.799017 
158.104004 0.190889 
158.707718 0.306669 
158.974106 0.41376 
159.032288 0.06663 
159.08049 3.408772 
159.091949 0.062468 
159.116928 1.765263 
160.039536 0.140617 
160.075897 2.920849 
160.082336 0.076392 
160.087891 0.121625 
160.112427 0.229092 
160.989716 0.823485 
161.059677 0.761082 
161.096298 1.373205 
161.13269 0.07062 
162.05513 2.394253 
162.091507 0.307927 
162.128281 0.073165 
162.971207 0.746631 
163.058289 0.411403 
163.075546 0.087357 
163.112 0.07164 
163.970001 0.351868 
164.016678 0.119047 
164.034195 0.469572 
164.070724 0.146134 
164.107513 0.058261 
164.98642 0.051579 
164.999756 0.074619 
165.036484 0.053169 
165.055206 0.082431 
165.922501 0.058998 
165.958969 0.047403 
166.050049 0.08722 
166.08696 0.072562 
166.928955 0.223829 
166.966354 7.015562 
166.979019 0.562456 
167.072922 0.116526 
167.086044 0.281206 
167.910873 0.234616 
167.964966 3.191019 
167.974411 6.114641 
168.066055 0.141787 
168.080978 0.076933 
168.907776 0.430361 
168.945267 0.075544 
168.961838 7.484582 
168.995132 0.132811 
169.015625 0.084346 
169.06488 0.157449 
169.101395 0.855386 
169.961014 0.078868 
169.978394 0.075431 
169.990616 0.069887 
170.012558 0.419085 
170.060669 0.117155 
170.072479 0.134498 
170.096527 0.414787 
170.941238 0.237434 
170.963058 0.943111 
170.974152 0.109875 
171.08049 3.033023 
171.116959 0.661804 
172.075943 0.432255 
172.088364 0.526442 
172.112366 0.381849 
172.990005 0.220799 
173.05954 0.585687 
173.083405 0.142263 
173.096268 3.023912 
173.132782 0.199433 
174.055176 0.547015 
174.067566 0.077092 
174.091476 3.214158 
174.128204 0.069346 
174.403427 0.366095 
175.075363 1.686223 
175.08667 2.159671 
175.111877 0.72431 
176.034668 0.192939 
176.070938 1.267658 
176.107224 0.160963 
177.042313 0.589999 
177.073853 0.077495 
177.127533 0.368253 
177.949997 0.45037 
178.050064 0.279136 
178.893204 0.616087 
178.964539 0.200409 
180.011185 0.190464 
180.888229 6.186158 
180.925858 4.017717 
180.94426 0.844975 
180.982086 1.785483 
180.994385 0.167472 
181.016129 0.077319 
181.926254 0.179405 
181.980621 1.087313 
182.096664 0.266854 
182.888763 0.069906 
182.92363 0.247778 
182.941696 1.086856 
182.951492 0.233151 
183.011276 0.083242 
183.080704 1.501667 
183.11702 0.060805 
183.761612 0.383963 
183.96933 0.616429 
184.075867 0.579559 
184.939835 1.199009 
184.989258 0.625861 
185.059937 0.197607 
185.070557 0.28875 
185.083694 0.071957 
185.096207 4.283605 
185.938751 0.072508 
185.963989 0.067647 
185.984818 3.105952 
186.006058 0.152679 
186.067642 0.075459 
186.091568 1.973387 
186.935974 1.700986 
186.968994 1.172172 
187.075668 1.269399 
187.085419 0.064375 
187.112045 1.85034 
188.070709 0.438623 
188.083313 0.369789 
188.107208 0.82109 
188.974167 0.634805 
189.005722 0.07905 
189.091156 2.823282 
189.128006 0.14729 
190.031982 0.143771 
190.049942 0.625247 
190.086533 0.122894 
190.493729 0.26072 
190.873123 0.577455 
191.880692 7.132474 
192.011276 0.525664 
192.029068 0.165344 
192.880676 0.077069 
192.889297 0.196193 
194.098907 0.087794 
196.076401 0.108363 
197.011398 0.074814 
197.891647 0.991388 
198.06752 0.066485 
198.09198 0.622874 
198.899307 1.085632 
198.936035 5.24904 
198.955765 1.575767 
199.005753 0.138483 
199.065796 0.10828 
199.075241 3.799389 
199.111877 0.178799 
199.944336 1.488251 
199.954819 4.547304 
200.070663 0.369063 
200.107376 0.753987 
200.951645 21.228582 
200.983994 0.129772 
201.091339 1.084051 
201.101639 0.083685 
201.916183 0.473367 
201.95285 0.183603 
201.979782 1.200278 
202.048767 0.136212 
202.086456 0.740667 
202.122803 0.950972 
203.053345 0.241688 
203.070724 0.179962 
203.107132 0.778063 
204.102448 0.126815 
204.88913 0.057184 
204.946701 0.079284 
205.086182 0.351169 
206.868118 0.310393 
206.996429 0.388846 
207.876068 0.352041 
208.883713 10.893285 
209.875443 0.210757 
209.8918 10.567444 
209.985214 0.283228 
210.091431 0.05615 
210.891327 0.548949 
210.900681 0.205163 
211.075912 0.123696 
211.89064 0.347917 
212.070847 0.12402 
212.107193 0.188697 
213.09108 0.184659 
213.102158 0.14556 
213.886185 0.2325 
213.906921 0.151083 
214.086472 1.323758 
214.122986 0.060987 
214.894241 0.312066 
214.986069 2.128052 
215.037506 0.078521 
215.070648 0.375039 
215.081436 0.059607 
215.107224 0.518506 
215.90239 0.941793 
215.921158 0.838551 
216.10202 1.35802 
216.138657 0.169995 
216.946854 0.594635 
217.086456 0.061592 
217.954376 3.112718 
217.965698 1.57005 
218.081619 0.081297 
218.904846 1.086411 
218.962219 3.065624 
219.574783 1.836263 
219.584976 0.967588 
220.90358 2.864459 
221.902878 0.063523 
222.546478 0.294623 
222.898697 18.971975 
223.900864 0.156723 
224.355865 0.372599 
224.703003 0.198664 
224.878967 1.087508 
225.886627 0.820038 
225.905853 0.061885 
226.89447 1.734431 
227.070541 0.288053 
227.901382 0.461873 
227.921097 1.413907 
228.101288 0.143176 
229.89624 1.877762 
230.033844 0.060271 
230.117172 0.095631 
230.980972 1.004704 
231.916275 0.113413 
232.132446 0.05513 
232.883591 3.834115 
232.996155 0.077601 
233.891907 0.204963 
233.931824 0.908532 
234.899704 0.756135 
235.103119 0.209812 
235.891342 0.053889 
236.107849 0.056468 
236.722992 0.405676 
237.886856 0.060383 
238.914154 5.78559 
239.913208 0.185126 
240.909149 26.202719 
241.086182 0.08869 
241.911316 0.578941 
242.910065 0.201425 
242.944916 0.152999 
243.916183 1.536636 
243.936218 0.153323 
244.096878 0.068667 
244.934891 0.977126 
244.996628 0.91602 
245.009872 0.052291 
245.912003 0.144013 
245.914993 0.150702 
245.931625 14.468629 
246.00647 0.200789 
246.934937 0.055874 
247.096054 0.139824 
247.90683 0.861931 
249.580353 0.228347 
250.64473 0.055992 
250.894104 11.167084 
251.895248 0.745367 
252.894867 0.062434 
253.902771 0.071623 
255.897736 0.265067 
257.896179 0.060918 
258.921448 0.072815 
259.096252 0.313197 
260.130219 0.53781 
260.90451 0.063593 
260.938171 0.124287 
260.954956 0.783319 
262.944458 0.084647 
263.006622 0.087926 
263.942566 0.258827 
264.016754 0.128037 
268.905121 1.29782 
269.819977 0.056718 
270.237305 0.273182 
270.82962 0.538343 
275.902588 0.135428 
276.876801 1.283481 
276.932068 0.286884 
277.902557 0.051692 
277.922058 0.059061 
279.896576 0.102971 
280.813995 0.109606 
281.821716 0.216301 
284.808228 0.837061 
285.815704 0.537523 
287.831879 0.703502 
288.839203 0.835593 
292.134399 0.327904 
296.808655 0.156796 
297.816437 1.513816 
302.248047 0.058113 
302.818604 5.38643 
303.819092 0.155172 
312.839447 0.315932 
313.81189 0.087336 
321.166534 0.241592 
333.796661 0.048467 
337.369019 0.273597 
344.828583 0.075519 
END IONS

