BEGIN IONS
PEPMASS=303.232
CHARGE=1+
COMPOUNDNAME=Eicosanoids_EPA_C20H30O2
LIBRARYQUALITY=1
SMILES=n/a
INCHIKEY=JAZBEHYOTPTENJ-JLNKQSITSA-N
INCHI=InChI=1S/C20H30O2/c1-2-3-4-5-6-7-8-9-10-11-12-13-14-15-16-17-18-19-20(21)22/h3-4,6-7,9-10,12-13,15-16H,2,5,8,11,14,17-19H2,1H3,(H,21,22)/b4-3-,7-6-,10-9-,13-12-,16-15-
MSLEVEL=2
SOURCE_INSTRUMENT=LC-ESI-Maxis II HD Q-TOF Bruker
FILENAME=JnJ_10uL_A1_GA1_01_2571.mzXML
SEQ=*..*
IONMODE=positive
ORGANISM=GNPS-COLLECTIONS-MISC
NAME=Eicosanoids_EPA_C20H30O2 M+H
PI=Dorrestein/Wu
DATACOLLECTOR=lfnothias
PUBMED=n/a
SUBMITUSER=mwang87
TAGS=
SPECTRUMID=CCMSLIB00001058188
SCANS=1189
79.051582 319.0 
81.071793 299.0 
91.055016 1082.0 
93.071434 905.0 
94.075645 132.0 
95.090912 434.0 
105.070908 857.0 
106.07267 132.0 
107.084854 827.0 
109.100334 206.0 
117.071495 186.0 
119.057587 141.0 
119.085915 677.0 
120.086006 120.0 
121.099091 247.0 
123.113274 131.0 
129.065445 174.0 
131.068863 220.0 
132.093597 95.0 
133.10582 259.0 
134.057083 119.0 
135.117477 269.0 
142.073929 162.0 
146.104095 152.0 
147.116852 433.0 
149.097244 173.0 
159.115616 871.0 
161.127975 545.0 
163.111389 133.0 
167.109482 107.0 
175.149658 266.0 
183.120789 123.0 
189.131973 462.0 
189.166061 182.0 
195.140778 179.0 
203.164017 129.0 
209.160782 219.0 
215.139374 247.0 
219.143112 172.0 
229.156555 134.0 
233.15593 186.0 
239.181259 169.0 
257.190399 136.0 
303.142639 157.0 
303.230743 602.0 
END IONS

