BEGIN IONS
PEPMASS=312.16
CHARGE=1+
COMPOUNDNAME=Massbank:PB003641 Thebaine|Morphinan, 6,7,8,14-tetradehydro-4,5-epoxy-3,6-dimethoxy-17-methyl-, (5.alpha.)-
LIBRARYQUALITY=3
SMILES=CN1CCC23C4C(=CC=C2C1CC5=C3C(=C(C=C5)OC)O4)OC
INCHIKEY=FQXXSQDCDRQNQE-UHFFFAOYSA-N
INCHI=1S/C19H21NO3/c1-20-9-8-19-12-5-7-15(22-3)18(19)23-17-14(21-2)6-4-11(16(17)19)10-13(12)20/h4-7,13,18H,8-10H2,1-3H3
MSLEVEL=2
SOURCE_INSTRUMENT=ESI-LC-ESI-QQ
FILENAME=Massbank_ESI_positive_8_1_2014_peaks.mgf
SEQ=*..*
IONMODE=Positive
ORGANISM=MASSBANK
NAME=Massbank:PB003641 Thebaine|Morphinan, 6,7,8,14-tetradehydro-4,5-epoxy-3,6-dimethoxy-17-methyl-, (5.alpha.)- [M+H]+
PI=Putative Massbank Match
DATACOLLECTOR=Massbank
PUBMED=N/A
SUBMITUSER=mwang87
TAGS=
SPECTRUMID=CCMSLIB00000222167
SCANS=10602
30.0 32.587 
31.0 14.208 
43.0 18.32 
44.0 117.05 
45.0 14.394 
56.0 27.05 
57.0 14.598 
58.0 10000.0 
59.0 12.49 
167.0 26.845 
177.0 53.587 
178.0 32.247 
179.0 14.427 
180.0 13.918 
181.0 23.132 
189.0 27.203 
191.0 44.14 
193.0 95.038 
194.0 25.864 
195.0 234.524 
196.0 27.688 
197.0 20.494 
201.0 10.972 
202.0 14.01 
203.0 46.36 
205.0 60.658 
206.0 52.825 
207.0 42.825 
208.0 17.426 
209.0 109.371 
210.0 31.894 
212.0 32.365 
213.0 44.283 
217.0 101.478 
218.0 585.073 
219.0 72.051 
220.0 20.556 
221.0 1210.1 
222.0 116.962 
223.0 782.932 
224.0 90.609 
225.0 74.793 
226.0 13.011 
227.0 63.059 
231.0 29.132 
232.0 83.254 
233.0 18.715 
234.0 323.442 
235.0 68.333 
236.0 49.921 
237.0 461.945 
238.0 84.4 
239.0 88.323 
240.0 77.078 
241.0 33.68 
247.0 14.057 
248.0 97.968 
249.0 1992.259 
250.0 131.345 
251.0 1880.827 
252.0 142.425 
253.0 141.471 
254.0 205.317 
255.0 743.004 
256.0 67.078 
263.0 32.368 
264.0 14.518 
265.0 70.725 
266.0 2360.8 
267.0 93.982 
268.0 19.687 
269.0 105.994 
280.0 159.202 
281.0 1385.079 
282.0 131.035 
283.0 32.158 
296.0 19.91 
297.0 172.989 
298.0 13.831 
312.0 2485.162 
313.0 223.87 
END IONS

