BEGIN IONS
PEPMASS=243.081
CHARGE=1+
COMPOUNDNAME=Biotin
LIBRARYQUALITY=3
SMILES=N/A
INCHIKEY=YBJHBAHKTGYVGT-ZKWXMUAHSA-N
INCHI=InChI=1S/C10H16N2O3S/c13-8(14)4-2-1-3-7-9-6(5-16-7)11-10(15)12-9/h6-7,9H,1-5H2,(H,13,14)(H2,11,12,15)/t6-,7-,9-/m0/s1
MSLEVEL=2
SOURCE_INSTRUMENT=N/A-ESI-QTOF
FILENAME=library_mgf.mgf
SEQ=*..*
IONMODE=negative
ORGANISM=MONA
NAME=Biotin [M-H]-
PI=MoNA
DATACOLLECTOR=MoNA:VF-NPL-QTOF002084
PUBMED=N/A
SUBMITUSER=mwang87
TAGS=
SPECTRUMID=CCMSLIB00004719874
SCANS=2081
41.996399 10.046467 
42.051998 0.111499 
42.055599 0.117171 
68.046997 0.237407 
68.0494 0.379673 
74.003502 1.328288 
97.035896 0.18596 
111.047401 0.320731 
122.0933 3.374013 
139.050903 0.15676 
139.0578 0.141476 
148.069901 0.140846 
153.095901 0.130089 
156.080399 2.36928 
165.099106 2.508607 
165.214401 0.12279 
166.082901 14.93562 
166.165298 0.260733 
166.177704 0.132589 
166.196899 0.404603 
166.232697 0.14064 
166.250793 0.139911 
167.081802 0.123644 
179.075897 0.117172 
191.075806 0.348684 
197.087708 1.150416 
199.086395 4.690744 
199.192505 0.121372 
199.213196 0.148032 
199.256897 0.112973 
200.070297 24.403553 
200.166702 0.203498 
200.1978 0.604429 
200.234802 0.318782 
200.246201 0.111002 
200.276901 0.201309 
200.295807 0.200593 
200.322006 0.126736 
200.341904 0.145234 
200.3815 0.112109 
200.509598 0.126561 
201.073303 0.242604 
209.087997 3.534218 
225.059006 0.119541 
243.076294 100.0 
243.212708 1.859622 
243.260605 1.560856 
243.298599 0.460416 
243.321701 0.410801 
243.342606 0.590618 
243.365906 0.400137 
243.375595 0.122272 
243.394608 0.13658 
243.409607 0.376724 
243.434998 0.397167 
243.455093 0.152227 
243.474304 0.22405 
243.491394 0.283032 
243.509598 0.141471 
243.521606 0.125586 
243.543594 0.246221 
243.565002 0.311037 
243.585098 0.159978 
243.613403 0.337887 
243.644394 0.152404 
243.6586 0.215748 
243.693695 0.220182 
243.7108 0.120069 
243.7229 0.142535 
243.740402 0.217789 
243.790695 0.205149 
243.830994 0.144732 
243.844894 0.122275 
243.861603 0.185033 
243.878906 0.122305 
243.897003 0.117045 
243.937698 0.197581 
243.959 0.149063 
243.990402 0.183807 
244.077301 1.242333 
244.184906 0.135633 
244.2267 0.110098 
244.257004 0.156505 
244.303406 0.126604 
244.440506 0.150939 
244.5168 0.128364 
244.605606 0.126914 
244.804001 0.110073 
END IONS

