BEGIN IONS
PEPMASS=405.207
CHARGE=1+
COMPOUNDNAME=MoNA:953586 Lincomycin
LIBRARYQUALITY=3
SMILES=N/A
INCHIKEY=OJMMVQQUTAEWLP-UHFFFAOYSA-N
INCHI=InChI=1S/C18H34N2O6S/c1-5-6-10-7-11(20(3)8-10)17(25)19-12(9(2)21)16-14(23)13(22)15(24)18(26-16)27-4/h9-16,18,21-24H,5-8H2,1-4H3,(H,19,25)
MSLEVEL=2
SOURCE_INSTRUMENT=LC-ESI-QFT-LC-ESI-QFT
FILENAME=output_mgf.mgf
SEQ=*..*
IONMODE=
ORGANISM=MONA
NAME=MoNA:953586 Lincomycin [M-H]-
PI=MoNA
DATACOLLECTOR=MoNA
PUBMED=N/A
SUBMITUSER=mwang87
TAGS=
SPECTRUMID=CCMSLIB00000568450
SCANS=5701
50.0036 100.0 
51.0239 16.839925 
52.0192 19.773496 
53.0032 51.861122 
55.0189 88.581817 
56.9804 42.504877 
57.0345 4.413372 
59.0138 15.643612 
60.9754 54.953458 
63.9624 15.285462 
64.0193 16.169395 
65.0033 8.772964 
65.0397 8.594747 
65.9986 28.871998 
66.0349 39.645683 
67.0189 73.450257 
68.0142 78.212338 
68.9982 95.316299 
69.0347 9.645168 
71.0138 29.055651 
72.9754 17.221246 
72.993 4.269482 
73.9833 24.881141 
76.0194 18.16182 
80.9803 19.26316 
84.9754 5.210914 
90.035 4.048928 
94.0298 50.611029 
END IONS

