BEGIN IONS
PEPMASS=271.061
CHARGE=1+
COMPOUNDNAME=naringenin
LIBRARYQUALITY=3
SMILES=N/A
INCHIKEY=FTVWIRXFELQLPI-ZDUSSCGKSA-N
INCHI=InChI=1S/C15H12O5/c16-9-3-1-8(2-4-9)13-7-12(19)15-11(18)5-10(17)6-14(15)20-13/h1-6,13,16-18H,7H2/t13-/m0/s1
MSLEVEL=2
SOURCE_INSTRUMENT=N/A-ESI-QTOF
FILENAME=library_mgf.mgf
SEQ=*..*
IONMODE=negative
ORGANISM=MONA
NAME=naringenin [M-H]-
PI=MoNA
DATACOLLECTOR=MoNA:VF-NPL-QTOF002115
PUBMED=N/A
SUBMITUSER=mwang87
TAGS=
SPECTRUMID=CCMSLIB00004719910
SCANS=2112
41.004398 0.395495 
41.007198 0.144614 
63.026501 7.414057 
63.0756 0.132394 
65.005997 10.807825 
65.0784 0.173345 
83.016296 10.169538 
83.095001 0.259307 
89.040604 0.123735 
93.037003 13.447415 
93.120903 0.431105 
107.015999 29.573942 
107.107498 0.988137 
107.136902 0.228328 
107.163002 0.144066 
107.197601 0.162963 
108.020798 0.312754 
108.994598 0.611925 
109.024101 0.122939 
109.030502 0.194762 
117.035202 0.404797 
119.052299 85.215073 
119.141296 0.215112 
119.147797 3.253351 
119.176399 0.128747 
119.185303 0.888109 
119.206902 0.128825 
119.2173 0.168929 
119.232101 0.213356 
119.251701 0.132963 
119.256897 0.215866 
119.286102 0.216213 
119.3022 0.15361 
119.310997 0.124757 
119.347801 0.199857 
119.360901 0.155747 
119.395699 0.124153 
119.413597 0.121737 
119.444 0.12076 
119.487396 0.12051 
120.051598 0.194343 
120.057701 0.578739 
121.031403 0.92917 
125.026398 1.27172 
133.032394 0.29341 
136.017303 0.160481 
137.024399 0.36448 
143.049606 0.549334 
143.055695 0.206387 
145.031097 1.910844 
149.026596 0.312961 
151.005997 100.0 
151.113495 3.142004 
151.148407 0.276625 
151.177795 0.146182 
151.206696 0.13914 
151.234894 0.262891 
151.283005 0.16787 
151.324203 0.123253 
151.479599 0.160453 
151.585297 0.12201 
151.6754 0.14446 
152.009003 0.817226 
157.069199 0.170699 
161.062302 1.370961 
164.013794 0.201352 
165.021393 4.632209 
165.130707 0.135359 
177.021606 10.90636 
177.107895 0.123622 
177.138702 0.270139 
177.183701 0.124588 
185.0634 1.708621 
187.042496 1.870146 
188.044693 0.140738 
199.076004 0.229451 
203.074005 0.28109 
209.056595 0.131783 
227.072906 1.927847 
229.052307 1.055864 
253.051498 0.822596 
271.062988 18.415152 
271.200012 0.186037 
271.216614 0.18346 
271.249695 0.185818 
271.262085 0.229498 
271.285889 0.160639 
271.332092 0.132391 
271.410095 0.145221 
271.516113 0.121009 
272.065796 0.298734 
END IONS

