BEGIN IONS
PEPMASS=1874.53
CHARGE=1+
COMPOUNDNAME=Teichomycin
LIBRARYQUALITY=3
SMILES=N/A
INCHIKEY=BJNLLBUOHPVGFT-QRZIFLFXSA-N
INCHI=InChI=1S/C88H97Cl2N9O33/c1-3-4-5-6-7-8-9-10-60(108)94-68-74(113)71(110)58(32-101)129-87(68)132-78-55-26-40-27-56(78)126-52-18-14-38(24-47(52)90)77(131-86-67(92-34(2)103)73(112)70(109)57(31-100)128-86)69-84(121)98-66(85(122)123)45-29-42(105)30-54(127-88-76(115)75(114)72(111)59(33-102)130-88)61(45)44-23-37(13-15-49(44)106)63(81(118)99-69)96-83(120)65(40)97-82(119)64-39-21-41(104)28-43(22-39)124-53-25-36(12-16-50(53)107)62(91)80(117)93-48(79(116)95-64)20-35-11-17-51(125-55)46(89)19-35/h11-19,21-30,48,57-59,62-77,86-88,100-102,104-107,109-115H,3-10,20,31-33,91H2,1-2H3,(H,92,103)(H,93,117)(H,94,108)(H,95,116)(H,96,120)(H,97,119)(H,98,121)(H,99,118)(H,122,123)/t48-,57-,58-,59-,62-,63-,64+,65-,66-,67-,68-,69+,70-,71-,72-,73-,74-,75+,76+,77-,86+,87+,88+/m1/s1
MSLEVEL=2
SOURCE_INSTRUMENT=N/A-ESI-QFT
FILENAME=library_mgf.mgf
SEQ=*..*
IONMODE=negative
ORGANISM=MONA
NAME=Teichomycin [M-H]-
PI=MoNA
DATACOLLECTOR=MoNA:VF-NPL-QEHF027951
PUBMED=N/A
SUBMITUSER=mwang87
TAGS=
SPECTRUMID=CCMSLIB00004721532
SCANS=27951
129.606857 2.297046 
130.200699 2.570684 
134.023499 13.0363 
135.392746 2.280762 
135.663727 2.323394 
136.039154 35.855556 
137.351913 2.352864 
139.771515 2.334911 
140.154816 2.208634 
143.751816 2.166337 
146.02327 7.634096 
146.036499 2.398643 
147.818848 2.152621 
148.483887 2.047961 
148.895721 2.173092 
149.008392 2.812599 
149.410858 2.502006 
150.40329 2.208244 
153.459747 2.109598 
156.678406 2.298871 
162.603867 2.07259 
163.540863 2.419888 
166.278687 2.755774 
170.260178 2.296171 
173.154861 2.411854 
173.848679 2.310919 
174.040955 2.828316 
174.748581 2.61002 
175.76944 2.08169 
176.034134 2.532234 
178.262833 2.238312 
179.629272 2.332916 
183.011185 100.0 
183.61171 2.459662 
184.311676 2.604575 
185.059937 2.475808 
186.16011 2.29845 
189.727036 2.40445 
197.026901 24.469143 
197.060379 2.816535 
198.653122 2.536509 
202.377701 2.778328 
208.777924 2.713227 
213.054871 54.603333 
214.894119 2.44193 
220.03894 19.196465 
220.051483 13.914291 
221.164627 2.594122 
221.774063 2.37599 
223.028229 2.607151 
225.055496 29.80039 
225.630661 2.662351 
226.050812 3.170609 
227.07196 2.385157 
228.066406 2.603289 
228.578476 2.325072 
234.248123 2.869223 
238.050476 27.1217 
240.066452 24.356382 
246.092285 2.424894 
247.382874 2.39022 
248.277985 2.51229 
250.050491 5.766408 
252.066147 18.691498 
253.477631 2.670761 
255.076889 2.607786 
263.588165 2.341703 
265.036865 2.507615 
265.454376 2.510193 
266.045685 30.313396 
267.053314 6.661137 
268.061401 18.038771 
268.942871 4.222563 
274.050812 2.61542 
276.976929 2.530271 
277.060547 5.211295 
280.060638 7.874358 
280.800476 2.467866 
283.99585 2.407971 
294.041077 2.548892 
294.061218 2.93355 
295.072601 2.466308 
302.647064 2.48758 
305.057007 2.855626 
310.170807 2.343686 
311.168823 8.859988 
313.353088 2.605873 
319.138794 2.305853 
321.050873 2.940404 
325.183777 34.909054 
328.223358 2.474456 
339.200775 2.416844 
342.961609 6.90538 
345.833588 2.33339 
348.193512 2.357319 
349.502319 2.80688 
350.574005 2.308788 
365.495392 2.878355 
377.97876 13.547786 
378.984314 6.20569 
389.575684 2.611562 
390.994324 2.61871 
394.316711 2.387225 
396.093903 2.694426 
399.172699 2.414858 
402.926788 8.355066 
405.329346 2.648104 
416.180481 2.697352 
416.977875 2.571998 
424.746521 2.480859 
434.893005 2.46986 
453.393036 2.86219 
476.945404 2.501137 
569.62146 2.551974 
614.115967 2.718184 
634.032898 3.198745 
636.107849 2.7815 
648.735046 2.995576 
665.861389 2.818254 
669.12207 2.369985 
683.135071 2.880112 
720.33783 2.568172 
721.105896 2.583678 
725.132629 2.842044 
729.637024 2.690569 
746.442993 2.724082 
750.887207 2.898708 
784.209717 2.788667 
843.314209 2.773101 
872.023682 2.635531 
883.478638 2.729391 
894.980042 2.811658 
916.40271 2.877089 
920.616882 2.809938 
922.71991 2.973677 
1022.599915 3.002859 
1053.079102 2.5019 
1053.585938 2.973764 
1089.982422 3.606263 
1090.873291 2.607053 
1154.495361 2.630913 
1174.721436 2.592132 
1242.824341 2.509213 
1264.442017 2.77911 
1277.356934 2.77095 
1288.657837 3.092031 
1353.410889 2.868778 
1386.044067 2.696545 
1477.328857 3.205792 
1491.699341 2.790108 
1501.735962 2.906631 
1547.626831 3.108724 
1556.680176 2.805983 
1565.701172 2.692726 
1618.294434 2.869142 
1682.293335 2.709261 
1748.02417 2.99623 
1750.982666 2.774443 
1760.019653 2.959811 
1881.061035 3.004001 
END IONS

