BEGIN IONS
PEPMASS=1323.71
CHARGE=1+
COMPOUNDNAME=POLYMYXIN B SULFATE
LIBRARYQUALITY=3
SMILES=N/A
INCHIKEY=HFMDLUQUEXNBOP-UHFFFAOYSA-N
INCHI=InChI=1S/C56H98N16O13.H2O4S/c1-7-32(4)13-11-12-16-44(75)63-36(17-23-57)51(80)72-46(34(6)74)56(85)68-39(20-26-60)48(77)67-41-22-28-62-55(84)45(33(5)73)71-52(81)40(21-27-61)65-47(76)37(18-24-58)66-53(82)42(29-31(2)3)69-54(83)43(30-35-14-9-8-10-15-35)70-49(78)38(19-25-59)64-50(41)79;1-5(2,3)4/h8-10,14-15,31-34,36-43,45-46,73-74H,7,11-13,16-30,57-61H2,1-6H3,(H,62,84)(H,63,75)(H,64,79)(H,65,76)(H,66,82)(H,67,77)(H,68,85)(H,69,83)(H,70,78)(H,71,81)(H,72,80);(H2,1,2,3,4)
MSLEVEL=2
SOURCE_INSTRUMENT=N/A-ESI-QFT
FILENAME=library_mgf.mgf
SEQ=*..*
IONMODE=positive
ORGANISM=MONA
NAME=POLYMYXIN B SULFATE [M+Na]+
PI=MoNA
DATACOLLECTOR=MoNA:VF-NPL-QEHF027924
PUBMED=N/A
SUBMITUSER=mwang87
TAGS=
SPECTRUMID=CCMSLIB00004721505
SCANS=27924
93.069878 0.705189 
94.065109 5.361565 
95.048996 0.475646 
95.060333 6.952373 
96.044449 1.179218 
96.068687 0.15877 
96.080879 0.354882 
97.076042 1.929086 
98.060158 0.188048 
98.071289 5.50832 
98.09639 2.446225 
99.055244 3.96998 
99.091797 0.158028 
100.075729 1.290977 
100.086929 15.182224 
101.070969 89.013779 
101.074791 0.947501 
102.054886 5.727611 
102.074287 2.559143 
103.054214 11.117354 
105.044914 0.140308 
105.06601 0.123537 
105.069855 3.721074 
106.065056 0.161075 
107.060432 0.272689 
108.04425 0.142177 
109.075974 6.477652 
109.101212 1.122654 
110.059944 5.420748 
110.071167 3.532863 
111.055229 14.756197 
111.091537 5.082104 
112.039101 0.525866 
112.07563 3.845587 
112.086868 7.776607 
112.112106 0.317678 
113.070839 9.26226 
115.054184 0.327009 
115.086563 1.230825 
118.064911 0.925468 
119.060379 1.782616 
119.08149 23.275396 
120.080765 100.0 
120.08567 1.698563 
121.076057 17.068346 
121.083992 8.116422 
122.059982 1.36961 
122.071152 0.539203 
122.096718 0.136674 
123.031693 0.111252 
123.055229 17.089579 
123.06321 0.107894 
123.091606 5.536291 
123.11673 4.036243 
124.075592 0.502974 
124.087029 0.237212 
124.094795 0.132241 
124.559624 0.101332 
125.070847 2.834791 
125.108368 0.101053 
125.63768 0.100248 
126.055077 0.263839 
126.066063 0.485162 
126.102448 1.011786 
126.735657 0.104853 
127.04982 0.121852 
127.086533 9.025904 
127.60434 0.09795 
128.062042 0.266769 
128.070282 0.227145 
128.08168 6.252797 
129.065674 5.751962 
129.070084 0.130256 
130.04982 0.125966 
130.064972 3.32359 
130.689987 0.11044 
131.012787 0.122136 
131.048965 0.313024 
131.118149 0.181153 
131.857819 0.119129 
132.080734 8.615081 
133.075821 0.872956 
133.083908 0.257937 
134.071014 0.402919 
134.096252 0.12037 
136.086823 3.036916 
137.070908 20.631353 
138.054901 0.740808 
138.066208 3.027298 
138.074188 0.666402 
138.102463 15.509382 
139.050095 0.729308 
139.086548 13.477307 
140.070633 1.626245 
140.081741 9.667954 
140.118103 2.54532 
141.065689 5.225505 
141.102219 1.419133 
141.139496 0.106625 
144.138382 0.150087 
145.097015 0.1356 
146.096115 0.294422 
146.589874 0.108823 
147.055725 0.097635 
147.091705 0.717059 
148.086807 7.579604 
149.070892 17.633764 
150.065628 0.104323 
150.074402 0.338945 
150.102554 2.622687 
150.830597 0.101657 
151.086563 2.182464 
152.081711 1.564314 
152.106644 0.110022 
152.11795 0.133562 
152.142929 0.16553 
152.763321 0.102814 
153.065811 0.321064 
154.097321 2.492171 
155.081451 2.567893 
155.559418 0.119767 
156.080643 0.592922 
156.113129 2.78065 
157.028442 2.347807 
157.097031 4.69349 
157.108414 4.887981 
157.115051 0.125866 
157.664581 0.109742 
157.774811 0.093257 
158.060104 0.145999 
158.092148 3.592903 
158.153809 2.318619 
159.061966 0.115933 
159.349777 0.107791 
160.086838 0.62094 
162.10228 0.457167 
164.020447 0.100092 
164.081772 4.434816 
164.118484 0.110812 
165.06601 1.545126 
165.101898 0.15259 
165.113464 1.738952 
166.097397 22.103333 
166.159058 1.159039 
167.081421 17.032761 
167.089218 0.135282 
167.092834 0.123599 
167.100388 0.597643 
167.118027 0.186108 
167.128769 0.119931 
168.076538 2.211233 
168.112991 0.878532 
169.097183 0.340639 
169.133514 0.945091 
174.102463 1.98821 
175.038757 1.633011 
175.086517 3.744776 
176.081848 1.146044 
176.118256 0.433601 
177.102295 0.732846 
177.113129 0.149587 
178.097321 2.475458 
178.744873 0.111874 
179.080948 0.156056 
180.112869 0.651395 
181.108414 0.24221 
181.134415 0.103688 
181.169861 0.554257 
182.092377 1.540704 
182.154053 0.261303 
183.076126 0.122187 
183.092438 0.111466 
183.115234 0.172661 
183.123993 23.964392 
184.075882 0.27522 
184.099731 0.221656 
184.107941 21.215408 
184.12738 0.708899 
185.02327 0.133911 
185.092026 3.452619 
185.107208 5.199734 
186.091293 5.783062 
186.110931 0.37132 
187.122696 1.119836 
188.143829 0.131385 
189.24498 0.135781 
192.07634 0.263879 
192.113159 1.183603 
193.097656 0.245563 
193.108353 2.829996 
194.092407 7.038341 
194.128464 0.28203 
195.076248 0.57458 
195.123856 6.417316 
195.185562 3.447935 
195.92511 0.109851 
196.107834 2.759884 
196.144379 1.112802 
196.169556 0.527212 
197.128845 0.360448 
197.139404 0.514034 
198.072998 0.106336 
198.859711 0.103594 
200.117661 0.15682 
201.101837 0.274401 
201.134491 4.899387 
202.096527 0.145434 
202.118515 2.470486 
202.13382 6.530836 
203.117889 5.15576 
204.112732 0.924322 
204.149704 0.294974 
205.108063 1.709104 
206.092148 1.383684 
208.107101 0.120499 
209.092682 0.116191 
209.103333 2.197747 
209.128754 0.103797 
209.139938 0.376335 
210.086868 0.131507 
210.123825 0.130877 
211.108353 0.267646 
211.118866 8.757412 
212.10289 4.220563 
212.119339 0.181512 
213.088287 0.098281 
213.102386 3.774445 
213.170395 0.137285 
214.049759 0.911299 
214.155228 0.14667 
215.297119 0.104889 
217.901718 0.127272 
219.123871 0.724958 
219.843704 1.342118 
220.107971 1.203358 
221.102982 0.248659 
221.139526 1.100086 
222.055084 0.141491 
222.123398 1.254589 
222.134628 0.493976 
223.118301 1.67036 
223.155731 0.118489 
223.180679 1.543883 
224.103058 0.392514 
224.139252 1.584999 
224.164978 0.114883 
227.116165 0.114533 
230.128708 14.765451 
231.11264 3.773485 
231.123642 0.178796 
231.13295 0.567121 
232.107773 0.440232 
233.164749 2.597953 
235.085007 0.106145 
235.118591 0.115188 
237.134354 0.795049 
238.118423 0.556078 
238.13298 0.634211 
239.150299 6.188157 
239.553986 0.09231 
240.145569 4.711701 
241.115845 0.477316 
241.129257 1.362144 
241.190811 0.131777 
243.149902 0.127073 
243.92897 0.098533 
246.560852 0.125413 
248.139084 5.498059 
248.152145 0.121892 
249.133987 1.051424 
250.118271 0.275982 
251.112 0.116384 
252.206268 0.572636 
257.091248 0.131573 
257.16095 0.150675 
258.123535 2.328014 
258.158997 0.146298 
266.16095 2.531295 
267.144958 0.850709 
267.160461 0.110309 
268.144043 0.168311 
269.16452 0.158433 
270.159363 0.700512 
278.094604 0.104079 
280.13855 0.142197 
280.182526 0.118568 
280.201599 0.41669 
283.201996 0.127867 
284.139313 0.545549 
284.171661 3.823362 
285.17099 3.929465 
286.15509 0.248988 
286.625488 0.104893 
293.553223 0.096537 
295.154541 0.229256 
296.135925 0.094289 
296.208313 0.377187 
296.233521 0.305951 
297.21698 1.663863 
301.707275 0.095823 
302.197723 0.110072 
303.181488 0.112323 
313.165009 0.122753 
314.149353 0.435633 
321.168701 0.131276 
323.18158 0.555375 
326.186096 0.626472 
328.545319 0.1204 
329.938202 0.112693 
337.456238 0.105415 
337.826447 0.125919 
341.21051 0.112887 
345.818634 0.10596 
357.437378 0.115686 
378.848785 0.116531 
380.975311 0.10842 
396.073456 0.112307 
425.283203 0.114399 
446.988007 0.110712 
447.344055 0.128016 
461.753296 0.104525 
462.387939 0.1134 
473.27356 0.110406 
483.268219 0.14856 
498.120178 0.106374 
502.733704 0.136495 
504.254547 0.109737 
506.864563 0.120768 
516.390686 0.104209 
563.846252 0.114364 
580.231323 0.138891 
594.099548 0.112429 
603.471741 0.102182 
612.868713 0.111825 
641.955444 0.111328 
659.475037 0.102917 
681.004944 0.117513 
725.628174 0.113907 
727.80072 0.131795 
765.731079 0.111785 
781.617432 0.104877 
788.86853 0.113741 
789.194275 0.11092 
797.39856 0.105847 
803.904541 0.111107 
806.395569 0.131131 
842.67395 0.124593 
879.805481 0.134053 
904.131958 0.122972 
917.51001 0.116145 
1015.116882 0.106128 
1042.096191 0.130979 
1080.258179 0.110559 
1081.387085 0.119687 
1103.818848 0.102783 
1158.971558 0.117666 
END IONS

