BEGIN IONS
PEPMASS=443.219
CHARGE=1+
COMPOUNDNAME=Lovastatin
LIBRARYQUALITY=3
SMILES=N/A
INCHIKEY=PCZOHLXUXFIOCF-BXMDZJJMSA-N
INCHI=InChI=1S/C24H36O5/c1-5-15(3)24(27)29-21-11-14(2)10-17-7-6-16(4)20(23(17)21)9-8-19-12-18(25)13-22(26)28-19/h6-7,10,14-16,18-21,23,25H,5,8-9,11-13H2,1-4H3/t14-,15-,16-,18+,19+,20-,21-,23-/m0/s1
MSLEVEL=2
SOURCE_INSTRUMENT=N/A-ESI-QFT
FILENAME=library_mgf.mgf
SEQ=*..*
IONMODE=positive
ORGANISM=MONA
NAME=Lovastatin [M+K]+
PI=MoNA
DATACOLLECTOR=MoNA:VF-NPL-QEHF002555
PUBMED=N/A
SUBMITUSER=mwang87
TAGS=
SPECTRUMID=CCMSLIB00004693618
SCANS=2555
50.193901 0.052311 
50.340488 1.312521 
50.800533 1.004248 
50.852768 0.559557 
50.870235 0.335385 
51.116215 1.145465 
51.117226 1.39525 
51.2117 0.035006 
51.297081 0.043602 
51.519382 1.031512 
51.834629 0.323642 
51.86068 0.051681 
52.571682 0.757598 
52.596092 1.299512 
54.333557 0.136734 
54.84222 0.133045 
55.365997 0.641971 
55.392815 0.796908 
55.715828 1.183917 
55.881893 1.423306 
56.204727 0.443433 
56.449833 0.042646 
56.965511 2.936881 
57.070625 2.950105 
57.328926 0.367476 
57.525665 1.559014 
58.065849 0.280693 
58.275318 1.466159 
59.049843 0.38073 
59.061089 100.0 
60.045132 0.053673 
60.199604 0.043458 
60.880455 0.26602 
61.011295 0.070084 
61.138634 1.361435 
61.176319 1.355577 
61.839993 1.515106 
62.019245 0.047508 
62.516193 0.384675 
62.738533 0.535393 
63.956707 0.928012 
64.152649 1.47234 
64.664177 0.718298 
65.342117 0.488186 
65.589188 0.637 
65.794434 0.056022 
65.873161 0.047344 
66.616814 0.03954 
67.343742 0.043173 
67.886482 0.043872 
67.972771 1.49157 
68.305321 0.773145 
68.411255 1.467913 
69.070602 0.057617 
69.250671 0.055038 
71.008759 1.349854 
71.058571 0.039981 
71.086159 0.056668 
71.314339 1.533978 
72.051041 1.24532 
72.495064 0.340586 
72.971329 1.066306 
73.04747 4.925344 
73.144073 0.040627 
73.213196 1.441067 
74.318794 0.135809 
74.404518 1.38187 
74.415215 0.567091 
75.853706 0.277409 
76.447678 1.105674 
76.617088 0.04643 
78.120522 1.339404 
78.61219 1.633173 
78.823158 0.045172 
79.02182 0.056197 
79.054764 0.055568 
79.1353 0.874768 
79.37635 0.042587 
80.355331 0.678608 
81.070435 0.233701 
81.319801 0.427944 
82.156395 0.141611 
82.214844 0.038061 
82.404892 1.183923 
83.049683 0.051657 
83.086113 0.058013 
83.681206 1.00359 
84.498428 0.055222 
86.988556 0.686426 
87.044571 0.053866 
87.575951 0.294004 
87.729057 1.06135 
89.060173 2.101105 
90.031715 0.496387 
90.770515 1.140513 
90.775787 1.467639 
90.785858 0.660076 
90.96402 0.04473 
91.054741 0.677555 
91.057777 4.618224 
92.083382 1.089945 
92.65377 1.913907 
92.738426 0.477749 
93.070251 0.141052 
95.085938 0.060228 
95.221054 0.322236 
95.335312 1.388757 
96.53849 0.838569 
96.746735 0.048206 
97.530769 0.30568 
99.634079 0.069037 
99.874977 0.969603 
100.190018 0.051317 
100.204956 1.536898 
100.233498 1.710576 
100.325554 0.047988 
100.722466 0.82585 
101.330383 0.049632 
101.660812 0.881238 
102.513008 0.439231 
104.549026 0.677377 
105.070236 0.156115 
106.264565 0.044309 
106.321274 0.042545 
107.085739 0.052233 
108.06601 0.444673 
111.487282 1.007902 
111.547363 0.835728 
112.053673 0.048449 
112.474045 1.273029 
113.662659 0.593407 
113.685349 0.041848 
114.421761 1.525914 
114.425102 0.27178 
116.009377 1.674231 
117.070152 0.517996 
117.709595 1.416704 
118.737267 1.475345 
118.784668 0.140726 
119.085777 0.086013 
120.499596 0.046739 
121.064957 2.302992 
121.465721 1.483847 
121.830002 0.044866 
123.937401 0.800968 
124.547798 0.048124 
124.894043 1.42448 
127.125275 0.878187 
127.30088 1.538885 
127.308044 0.799136 
128.397705 1.049102 
129.388977 0.833014 
129.767578 0.167657 
130.419403 0.057961 
131.08551 0.840419 
131.791367 0.054694 
132.345322 1.379389 
133.086029 0.293325 
134.606583 0.041463 
135.044464 0.142922 
137.074722 0.048129 
137.212631 0.411635 
139.696106 1.319331 
140.348236 1.229559 
140.69516 0.780685 
140.779602 0.900153 
141.022293 0.212096 
141.281281 1.369233 
143.08548 0.154139 
145.06398 0.465621 
145.101089 0.40449 
145.118423 0.677848 
146.589005 0.333699 
147.080368 0.184219 
147.818527 0.054945 
148.421539 0.057586 
149.044846 1.200073 
149.19429 0.049888 
152.034729 0.983772 
152.676071 0.432971 
152.990646 1.459438 
153.79216 0.04179 
153.939957 0.575346 
154.883408 0.053603 
155.085403 0.06746 
155.937561 0.057889 
156.445557 0.04149 
157.10112 0.509381 
158.171036 0.059078 
159.03273 2.180127 
159.116486 0.386107 
161.709091 1.487898 
162.830154 0.152958 
165.091293 0.246207 
167.055328 2.240407 
169.101685 0.054595 
170.439819 0.495106 
171.116852 0.074324 
171.39975 1.307303 
172.477554 0.049782 
173.048996 0.049678 
173.132385 1.784213 
174.13623 0.051996 
174.50766 1.834115 
175.11171 0.10605 
176.216019 0.056939 
176.967087 0.050602 
177.043335 5.916295 
180.740753 0.062398 
181.778809 0.466842 
184.627899 0.620493 
184.988144 0.046347 
185.376419 0.049123 
186.841888 0.053763 
189.835312 0.05172 
191.059021 0.062133 
192.961487 0.070751 
195.053848 1.128659 
196.557327 0.424956 
196.782089 2.095712 
198.023087 1.84612 
199.148071 0.130821 
199.852081 0.950733 
199.916718 0.194887 
203.386734 0.438238 
203.838181 1.560929 
204.455032 0.98436 
206.977844 1.276801 
212.01503 0.049132 
213.650024 41.103947 
216.909134 0.705773 
217.637451 0.611844 
222.183243 0.299218 
222.898895 0.045462 
223.149261 0.061928 
225.042664 1.432975 
225.162384 0.050878 
226.165421 0.045232 
227.023453 0.072982 
227.253754 0.055149 
228.890366 0.06717 
229.895813 0.138108 
230.023163 0.050592 
231.41394 1.00741 
233.189423 0.267936 
233.362946 1.094101 
233.659042 0.482652 
235.262329 0.624251 
237.221786 0.052044 
240.908737 0.066443 
248.307159 0.297162 
253.732544 0.751627 
256.277435 0.153942 
259.065186 0.064993 
261.438843 0.486071 
261.900482 1.662835 
262.912781 0.044359 
264.908844 0.644572 
265.324127 1.606109 
271.811829 0.92122 
273.115601 0.047544 
276.309875 0.854119 
276.763489 0.733336 
277.919128 1.012006 
278.162506 0.054947 
278.441956 1.625756 
280.43692 0.069599 
281.120758 1.42469 
281.490753 1.603384 
282.918671 0.134445 
287.004364 0.043925 
288.908447 0.12657 
291.127991 0.056597 
295.134033 0.057372 
296.992767 0.580615 
297.115997 1.320517 
298.119049 0.042714 
299.062317 0.055375 
299.131531 16.888178 
300.134674 0.943362 
301.273529 0.054044 
304.661774 1.502932 
306.919312 1.454104 
308.109467 1.738433 
309.280121 0.055102 
311.183563 0.04059 
311.221558 0.552127 
311.294067 0.461753 
313.14679 0.073978 
313.769501 0.050881 
315.125916 0.105524 
317.141968 1.998447 
318.145355 0.067615 
323.161377 0.092376 
323.93219 0.056805 
324.931976 0.055283 
324.986237 0.29809 
325.17691 2.181662 
326.180115 0.259819 
328.791199 0.160188 
329.434235 0.33139 
330.139252 0.061828 
330.688538 0.680154 
339.213043 0.042921 
341.142395 0.120106 
341.171783 0.632744 
341.230011 0.140974 
341.399506 0.945836 
342.176758 0.052225 
342.996613 0.331174 
353.308044 0.159931 
354.259094 1.470248 
357.225403 1.503272 
357.583649 0.363897 
358.476562 1.030306 
359.026031 0.043681 
364.560974 0.651544 
365.773346 0.066521 
372.221161 0.810585 
375.379364 0.059734 
380.706421 0.588028 
381.558258 0.039923 
384.084137 0.146148 
385.850403 0.991614 
394.626648 1.034534 
396.841949 0.055415 
398.510254 0.853267 
412.227264 0.440932 
415.20105 0.978723 
416.203674 0.078396 
420.644623 1.438254 
422.818939 1.687603 
429.155273 0.06231 
436.139008 0.385633 
443.234375 1.066842 
443.334656 0.203166 
444.23703 0.061342 
445.152405 0.565179 
459.062592 0.679519 
END IONS

