BEGIN IONS
PEPMASS=1293.59
CHARGE=1+
COMPOUNDNAME=DACTINOMYCIN
LIBRARYQUALITY=3
SMILES=N/A
INCHIKEY=RJURFGZVJUQBHK-IIXSONLDSA-N
INCHI=InChI=1S/C62H86N12O16/c1-27(2)42-59(84)73-23-17-19-36(73)57(82)69(13)25-38(75)71(15)48(29(5)6)61(86)88-33(11)44(55(80)65-42)67-53(78)35-22-21-31(9)51-46(35)64-47-40(41(63)50(77)32(10)52(47)90-51)54(79)68-45-34(12)89-62(87)49(30(7)8)72(16)39(76)26-70(14)58(83)37-20-18-24-74(37)60(85)43(28(3)4)66-56(45)81/h21-22,27-30,33-34,36-37,42-45,48-49H,17-20,23-26,63H2,1-16H3,(H,65,80)(H,66,81)(H,67,78)(H,68,79)/t33-,34-,36+,37+,42-,43-,44+,45+,48+,49+/m1/s1
MSLEVEL=2
SOURCE_INSTRUMENT=N/A-ESI-QFT
FILENAME=library_mgf.mgf
SEQ=*..*
IONMODE=positive
ORGANISM=MONA
NAME=DACTINOMYCIN [M+K]+
PI=MoNA
DATACOLLECTOR=MoNA:VF-NPL-QEHF002898
PUBMED=N/A
SUBMITUSER=mwang87
TAGS=
SPECTRUMID=CCMSLIB00004693961
SCANS=2898
89.676361 0.192669 
89.964622 0.035582 
90.397804 0.313925 
91.057854 10.953366 
91.061295 0.054968 
91.203865 0.449031 
91.299385 0.422218 
91.880554 0.411883 
92.057289 0.050345 
93.012001 0.28541 
93.037018 0.1317 
93.070511 0.084374 
94.065575 0.589119 
94.327087 0.042554 
94.565651 0.163159 
94.649124 0.038707 
95.049713 0.052074 
95.069107 0.044005 
95.073204 0.067808 
95.085823 0.063416 
96.044792 0.768602 
96.081238 1.399698 
96.330963 0.036054 
97.052765 0.054215 
97.51371 0.247259 
97.717392 0.302037 
98.060463 5.741256 
98.096901 25.49707 
99.063957 0.03491 
99.100212 0.808137 
100.039719 36.810493 
100.075981 0.681953 
101.043053 0.618212 
101.071114 0.039656 
101.525139 0.459531 
102.055237 0.099335 
102.79763 0.464791 
104.561806 0.470957 
105.073334 0.214078 
105.178436 0.203469 
105.587471 0.040544 
105.74765 0.444363 
106.042458 0.144144 
106.295074 0.487124 
108.081085 0.783962 
109.076256 0.056093 
110.060287 0.042217 
110.096703 2.341051 
112.037102 4.542392 
112.075752 0.238709 
112.112389 2.2031 
112.26918 0.285506 
112.955399 0.182694 
113.071045 0.136684 
113.354866 0.28125 
114.055229 0.374489 
114.091599 66.816406 
114.095833 0.590601 
115.094971 6.468323 
116.002159 0.047084 
116.070892 0.095709 
116.10675 0.036033 
116.204964 0.15848 
116.788864 0.291665 
117.103256 0.152989 
117.33828 0.403429 
117.569984 0.142495 
118.663063 0.322476 
118.768776 0.555735 
118.901306 0.189815 
119.086937 0.207169 
119.658371 0.290031 
121.399834 0.465495 
122.096581 0.599296 
122.132149 0.532237 
122.609444 0.286201 
123.055786 0.23696 
123.091881 0.898302 
124.037064 4.845138 
124.112198 63.036423 
125.10746 1.291977 
125.115547 6.644101 
125.816429 0.145973 
126.05529 0.307074 
126.091415 8.724696 
126.128395 0.087389 
127.050346 7.90024 
127.09494 0.320797 
127.123123 0.180653 
128.002258 0.050048 
128.034302 0.038501 
128.053665 0.134338 
128.070847 0.040467 
128.107193 0.10419 
129.065842 0.191652 
129.267578 0.182813 
130.01767 0.045448 
131.659683 0.070093 
132.101898 100.0 
133.105225 9.078231 
134.106201 0.177217 
134.295471 0.187887 
134.581329 0.145323 
134.817245 0.287931 
136.037064 0.046718 
138.052475 28.316507 
138.091446 2.7994 
138.288177 0.146445 
138.904877 0.163695 
139.086502 5.781347 
139.987259 0.037465 
140.068024 0.631589 
140.089828 0.122175 
140.842621 0.397453 
141.102005 0.307918 
141.139526 0.44846 
141.444427 0.226958 
142.017944 0.034303 
142.086151 2.107499 
142.122635 7.756487 
142.852142 0.142251 
143.125778 0.075442 
143.451752 0.361392 
143.642761 0.141268 
143.834427 0.036028 
144.032913 0.051587 
144.101456 0.06156 
145.011261 0.276844 
145.162689 0.421402 
146.011734 0.099785 
146.444382 0.171036 
148.027832 0.082145 
148.45726 0.465158 
149.0448 2.096509 
150.054886 0.292772 
151.024277 0.083405 
151.086197 0.494285 
152.070374 0.052296 
152.106888 0.255039 
153.102066 1.035203 
154.017593 0.053717 
154.085907 1.16678 
155.089539 0.079326 
155.117798 0.792355 
157.028305 0.049104 
157.133423 0.650356 
157.995819 0.160233 
158.012299 0.04022 
158.13649 0.037898 
159.044342 0.182968 
159.149506 0.041042 
160.005524 0.038349 
160.258728 0.154414 
160.699951 0.516286 
162.075363 0.209611 
163.084152 1.538224 
166.04747 0.166809 
166.083954 7.020874 
167.048248 0.153061 
167.05542 9.301363 
167.072617 0.04648 
167.080841 0.064951 
167.117691 0.144959 
169.034622 1.423218 
169.097366 0.20668 
169.133713 0.067216 
169.472931 0.291534 
170.117462 0.284497 
170.694183 0.464387 
171.013611 0.050725 
171.281082 0.306361 
171.999527 0.202199 
172.028046 0.571478 
172.075745 0.214218 
172.739624 0.511165 
173.080902 0.436683 
173.605972 0.159268 
174.043915 0.771075 
174.089539 0.043597 
174.579407 0.487673 
177.099915 2.238463 
177.42337 0.134501 
178.049637 0.644301 
179.117706 0.101762 
180.099579 5.425905 
181.097 5.847892 
182.100739 0.05357 
182.546646 0.170137 
184.07576 0.30931 
185.000641 0.082509 
185.128372 0.771772 
186.042908 0.039215 
186.148636 0.242976 
186.792755 0.62252 
187.038406 0.373513 
187.107162 0.037476 
188.059464 0.048734 
188.068802 0.277363 
189.634949 0.146882 
190.407089 0.260964 
191.002136 0.038925 
191.115433 2.584103 
192.06572 0.057056 
192.147003 0.272078 
193.058914 0.048852 
193.133408 0.049551 
194.540543 0.271865 
194.845062 0.279433 
195.112442 0.297664 
197.070343 0.051616 
199.085983 0.053797 
199.107681 6.637546 
199.806488 0.14675 
200.070648 0.597338 
200.11116 0.121545 
201.064819 0.048153 
201.100571 0.056214 
201.606934 0.288629 
202.073608 0.047719 
202.084061 0.042614 
203.08107 0.04461 
203.139084 6.843622 
204.142776 0.650344 
205.515747 0.335937 
206.078918 9.487806 
207.031647 0.058821 
208.216415 0.132334 
209.089661 3.285263 
209.165222 0.049132 
210.361267 0.141462 
211.086578 1.321125 
212.059052 0.045831 
212.071503 0.238794 
212.093246 0.159201 
214.086273 0.069731 
214.985214 0.044148 
215.069702 0.191845 
215.081253 0.105325 
216.065598 0.110988 
218.081757 0.167145 
219.02887 0.731185 
219.110901 0.769379 
220.094299 0.083361 
220.211548 6.258837 
221.090012 0.045799 
222.12088 0.280212 
223.027023 0.707254 
223.105362 20.64497 
223.993195 0.452772 
224.107269 0.469234 
225.042801 21.414036 
225.06488 0.070851 
225.101807 0.057515 
226.042358 0.758184 
226.074448 0.138585 
226.086288 0.176641 
226.961334 0.134513 
227.010284 0.16877 
227.022141 12.595137 
227.046036 0.051353 
227.081177 0.43927 
227.102234 0.071146 
227.117188 0.188743 
228.02121 0.13299 
228.065323 2.644828 
228.090012 0.224416 
229.001297 0.791718 
229.059921 0.052189 
229.097198 0.045462 
229.184845 0.37039 
230.081009 0.051028 
232.996094 0.048878 
233.054153 0.311417 
233.126053 1.440001 
237.12088 33.072788 
238.073013 0.395305 
238.085892 0.529747 
238.124893 1.075717 
238.967453 0.040528 
239.081116 3.637261 
239.117554 0.052672 
240.06572 1.947294 
240.08902 18.168921 
240.101395 0.210982 
241.037674 0.065827 
241.059753 0.287959 
241.096375 15.957809 
242.044571 0.446209 
242.067749 0.043602 
242.080856 0.133959 
242.099915 4.305378 
243.016724 0.039158 
243.051437 0.190959 
243.076248 1.921411 
243.102158 0.070637 
244.059967 0.612685 
244.08136 0.333893 
246.075897 0.044554 
247.01207 0.104727 
248.990433 0.056097 
249.102493 0.050722 
251.080978 0.52364 
251.136185 3.363375 
252.052032 0.050096 
252.087143 0.232612 
252.139618 0.045677 
253.060577 3.190462 
253.096756 1.38333 
254.064987 0.734263 
254.079803 0.483611 
254.103592 0.279737 
255.076431 10.260807 
255.112656 0.779378 
256.060333 1.410455 
256.082153 4.134602 
257.066162 0.148423 
257.089691 1.505065 
258.062317 0.134233 
258.075592 1.76616 
258.09256 0.222461 
258.957306 0.424089 
259.069702 0.05324 
259.429993 0.348033 
260.055115 4.316595 
261.061127 0.050704 
262.070862 0.465244 
263.100342 3.063267 
263.136322 3.697072 
265.019745 0.23325 
265.060181 0.247762 
265.096649 1.257837 
266.044464 1.8653 
266.068115 0.116694 
266.0914 0.076102 
266.104889 0.060026 
266.998932 16.594929 
267.076233 53.693958 
267.09375 0.057355 
267.099396 0.069251 
267.112579 0.86485 
267.998962 0.974565 
268.061371 0.039975 
268.080597 25.303738 
268.97818 25.498297 
269.055939 0.108183 
269.091858 6.992758 
269.978149 1.114418 
270.062439 0.139433 
270.096069 2.263201 
270.957153 0.325913 
271.070862 1.729104 
271.095825 0.371929 
271.107788 0.474344 
272.055237 1.7961 
272.078125 3.354486 
273.060089 0.127608 
273.083038 0.643332 
273.122711 0.13602 
274.057556 0.135861 
274.071442 0.33325 
276.168274 2.303167 
277.097534 0.675626 
277.115845 6.698391 
277.151764 3.849566 
278.092377 0.528508 
278.707123 0.481727 
279.07608 1.048346 
279.09903 0.561349 
280.105988 0.081847 
280.130737 0.285446 
281.053833 0.286282 
281.09198 5.143139 
281.108459 0.20862 
282.039368 0.045288 
282.060944 0.109344 
282.095978 0.146372 
283.030212 10.748304 
283.070831 7.383709 
283.107544 1.870216 
284.030029 0.57039 
284.055389 0.967975 
284.075562 0.867299 
284.111359 0.241432 
285.00943 7.080236 
285.049133 0.135003 
285.086639 9.675162 
285.125397 0.045373 
285.933685 0.155493 
286.009277 0.252126 
286.05545 0.12168 
286.071625 0.163192 
286.09021 3.924352 
286.988373 0.14473 
287.065674 0.349303 
287.093506 0.486165 
288.050079 0.066998 
288.071075 0.100665 
288.96814 0.130238 
289.057892 2.479047 
290.063324 0.528903 
290.148041 2.268518 
290.184631 0.056369 
291.075348 0.262563 
293.055389 20.753023 
293.091675 1.410699 
293.113495 0.26338 
294.039673 0.440527 
294.058929 4.372711 
294.086823 1.349724 
295.070953 9.878723 
295.092041 2.531738 
295.107635 0.502999 
296.075043 3.970669 
296.102081 11.658683 
297.085266 1.157477 
297.106079 3.74299 
298.09024 0.059033 
298.108276 0.246267 
299.064453 9.08467 
299.102753 0.41948 
300.049744 0.084157 
300.069977 2.338978 
301.079742 0.153056 
301.118103 0.145804 
301.622803 0.53155 
302.06601 1.144731 
302.083679 0.115769 
303.020203 0.895376 
303.064911 0.100588 
305.054993 0.042461 
305.076813 0.234704 
305.093201 0.310826 
305.111084 0.049664 
306.061127 0.056506 
306.086731 7.93009 
306.120605 0.052468 
307.070709 0.423986 
307.091278 4.216924 
307.12793 0.045589 
308.098755 0.882512 
309.073029 1.065593 
309.087921 0.810417 
309.104828 0.063597 
310.080811 6.27418 
311.065521 0.356976 
311.085144 0.764522 
311.102325 0.431116 
311.217316 0.202662 
311.704681 0.186015 
311.825409 0.551795 
312.068817 0.122684 
312.191132 0.337791 
313.081604 1.378377 
315.064514 3.531151 
316.105927 0.082695 
317.07663 1.152841 
318.082733 1.325227 
318.123505 0.05226 
319.092468 0.05317 
320.102753 13.472134 
320.157776 9.999713 
321.05014 0.055567 
321.086609 3.333656 
321.107391 4.229374 
322.081604 10.428156 
322.117493 9.272398 
322.173615 0.233727 
323.06546 0.381351 
323.085419 3.510753 
323.12207 4.935927 
324.07016 0.266164 
324.089203 0.485372 
324.12738 0.419754 
324.987122 0.559981 
325.066559 0.123758 
325.10202 0.129278 
326.075195 0.138112 
327.060638 0.746593 
327.097015 0.146312 
328.065369 0.260212 
328.118866 0.070126 
329.076447 3.486844 
329.709076 0.19011 
330.060089 0.072013 
330.080688 0.468216 
332.062958 0.488038 
332.101837 1.601753 
333.05072 0.048905 
333.073975 1.648512 
333.104156 0.310663 
333.133423 0.166929 
334.080536 7.789083 
334.116364 0.685576 
334.137085 0.276494 
334.173584 9.7508 
334.319244 0.167263 
335.087799 1.894384 
335.122559 0.56228 
335.177704 0.864411 
336.096222 2.715025 
336.126007 0.038661 
337.08252 0.876856 
337.104187 3.313692 
338.08606 0.16489 
338.109711 2.393463 
338.763336 0.046597 
339.096771 0.731197 
340.061249 0.247778 
340.092072 2.094486 
340.681305 0.336519 
341.096893 0.555064 
342.996918 2.889927 
343.997772 0.162658 
344.100311 2.487253 
344.976105 2.265848 
345.070862 2.111116 
345.107666 0.492041 
345.58255 0.61096 
345.975952 0.132145 
346.050049 0.04913 
346.078796 2.454473 
346.115906 0.948087 
346.137177 0.76779 
346.209778 0.465406 
347.085815 0.14734 
347.118713 0.097365 
348.059448 0.437559 
348.097351 46.639122 
349.079529 0.147574 
349.10141 19.353193 
350.08374 0.042617 
350.111969 11.2544 
351.05838 0.449876 
351.117065 6.081912 
352.062653 0.043997 
352.094513 0.206248 
352.1203 0.420383 
353.077759 0.062061 
353.099792 0.365055 
354.083618 0.116074 
354.107666 0.369579 
355.090759 0.162867 
355.114075 0.217796 
356.063995 0.11208 
357.107483 0.14002 
358.106262 0.372546 
359.113373 0.979645 
360.095795 1.331234 
361.128235 0.417685 
361.221466 0.047472 
362.074677 0.571087 
362.111084 10.570888 
363.115448 0.250629 
364.092621 2.970483 
365.098602 6.619258 
366.107056 15.248895 
367.08136 0.261521 
367.111786 4.153075 
368.055603 0.052777 
368.089264 0.044564 
368.118591 0.16667 
369.01239 0.153889 
369.096008 0.500414 
370.079315 0.420961 
370.103363 0.14772 
371.085876 0.097635 
371.112457 2.331879 
372.09436 1.0586 
372.120026 0.483235 
372.585938 0.458687 
373.10083 0.535514 
373.128448 5.667487 
373.16452 0.424756 
374.132446 3.437438 
375.082031 0.342835 
375.109802 0.293795 
375.137421 0.591267 
376.089905 0.227104 
376.11438 0.070176 
377.123108 0.590627 
377.667236 0.418754 
378.07666 1.226368 
378.107391 2.428934 
379.086243 0.301395 
379.110565 1.451034 
380.06424 0.345265 
380.090912 0.079757 
380.116882 0.051438 
382.10379 0.524198 
383.108185 0.134713 
385.125702 0.108874 
386.076019 0.357384 
387.078094 0.045024 
387.108734 0.044835 
387.143951 0.331824 
388.090729 2.844772 
388.147522 0.11469 
389.095276 0.076613 
389.123352 0.053983 
390.105713 1.052077 
390.1409 0.041326 
392.054077 0.061291 
394.074677 0.510638 
394.103088 11.890281 
394.5401 0.527784 
395.107819 4.228344 
396.085938 3.956552 
396.111206 0.312293 
397.092041 1.584081 
398.099823 0.119977 
399.105804 3.717551 
400.114105 1.18356 
401.121674 2.59433 
401.158875 0.105871 
402.124786 0.110123 
402.963562 0.555803 
403.138641 0.044837 
403.539001 0.146494 
405.087372 0.184207 
406.099609 0.179845 
408.852997 0.275134 
409.121368 0.098186 
410.099762 0.045538 
411.105774 0.18904 
412.083221 0.424514 
412.107513 0.157649 
413.117859 0.351432 
414.41217 0.518131 
415.101074 0.225984 
416.084717 1.233161 
417.151306 0.051779 
418.065094 0.04185 
419.066986 0.163363 
421.08255 0.051248 
423.095978 0.262714 
426.095032 0.043862 
426.125427 0.412563 
427.137939 7.911044 
428.142883 2.34852 
429.152496 2.591295 
430.155975 0.057825 
432.505035 0.470844 
432.648407 0.170437 
434.100342 0.065334 
434.346466 0.270714 
443.168427 12.182542 
444.171875 1.044015 
445.112762 0.231284 
447.345886 0.275156 
448.346344 0.043333 
454.11264 0.089022 
455.168488 0.06245 
456.350952 0.290375 
459.166962 0.682566 
468.164368 0.102757 
470.147461 0.247555 
471.12854 0.700518 
474.147308 0.314116 
474.650085 0.598628 
475.195984 0.141426 
475.490814 0.041141 
478.808533 0.471934 
482.753235 0.184895 
483.16217 0.310624 
484.161163 0.059223 
484.517975 0.444551 
485.14328 0.255512 
485.362091 0.165082 
487.158417 0.197244 
498.175537 1.296551 
499.175568 0.045457 
504.492645 0.469536 
508.191101 0.04967 
524.191711 0.093654 
526.205505 0.860629 
527.206238 0.05596 
535.31604 0.197599 
535.385925 0.697996 
535.500732 0.437422 
548.951599 0.044316 
557.714478 0.535614 
560.103455 0.198614 
591.736267 0.253111 
612.214478 0.08251 
632.734192 0.040589 
636.81604 0.176712 
668.240845 0.205999 
671.088928 0.474911 
682.411804 0.043762 
688.626709 0.567432 
692.194214 0.574791 
696.442444 0.045099 
726.936096 0.169105 
732.229675 0.138232 
732.661682 0.540909 
734.147949 0.557479 
734.626282 0.159812 
747.712158 0.199393 
750.577881 0.183733 
754.89917 0.325912 
778.794556 0.040443 
778.866821 0.231045 
780.130798 0.354505 
795.091003 0.329421 
829.139587 0.492206 
832.8302 0.187271 
847.068176 0.082849 
861.870422 0.220244 
870.189331 0.187167 
928.039917 0.037589 
928.402466 0.315264 
978.81897 0.044166 
979.477844 0.141053 
987.140808 0.408599 
994.226379 0.59319 
1002.283752 0.088262 
1004.639771 0.33739 
1031.81604 0.334921 
1066.62854 0.172065 
1068.518433 0.164967 
1104.511719 0.040954 
1110.049072 0.320757 
1118.52124 0.276634 
1126.877563 0.316976 
1136.786987 0.444844 
1160.430786 0.187731 
1161.939331 0.199185 
1201.650024 0.596255 
1204.010864 0.359788 
1213.137939 0.041406 
1218.193237 0.08272 
1220.38623 0.20227 
1251.808472 0.045953 
1297.648315 0.368508 
1318.45813 0.488749 
END IONS

