BEGIN IONS
PEPMASS=924.496
CHARGE=1+
COMPOUNDNAME=MoNA:695535 Nystatin
LIBRARYQUALITY=3
SMILES=N/A
INCHIKEY=VQOXZBDYSJBXMA-NQTDYLQESA-N
INCHI=InChI=1S/C47H75NO17/c1-27-17-15-13-11-9-7-5-6-8-10-12-14-16-18-34(64-46-44(58)41(48)43(57)30(4)63-46)24-38-40(45(59)60)37(54)26-47(61,65-38)25-36(53)35(52)20-19-31(49)21-32(50)22-33(51)23-39(55)62-29(3)28(2)42(27)56/h5-6,8,10-18,27-38,40-44,46,49-54,56-58,61H,7,9,19-26,48H2,1-4H3,(H,59,60)/b6-5+,10-8+,13-11+,14-12+,17-15+,18-16+/t27-,28-,29-,30+,31+,32+,33+,34-,35+,36+,37-,38-,40+,41-,42+,43+,44-,46-,47+/m0/s1
MSLEVEL=2
SOURCE_INSTRUMENT=LC-ESI-QFT-LC-ESI-QFT
FILENAME=output_mgf.mgf
SEQ=*..*
IONMODE=
ORGANISM=MONA
NAME=MoNA:695535 Nystatin [M-H]-
PI=MoNA
DATACOLLECTOR=MoNA
PUBMED=N/A
SUBMITUSER=mwang87
TAGS=
SPECTRUMID=CCMSLIB00000566883
SCANS=4134
129.071 29.359692 
130.0422 34.677011 
131.0502 100.0 
132.0582 9.155333 
133.0658 30.998954 
135.0453 8.424226 
135.0817 18.832863 
137.0608 86.485893 
138.0558 3.33698 
139.0402 16.705425 
139.0766 7.135544 
141.056 3.489431 
141.0711 7.316984 
143.0501 30.292443 
143.0866 9.407288 
145.0658 52.399438 
145.1025 5.446211 
147.045 53.000934 
147.0815 20.199887 
148.0531 8.434687 
149.0606 28.531796 
155.0863 5.517365 
156.0577 3.918033 
157.0659 26.313398 
158.0737 8.439319 
159.0814 5.081496 
160.0533 3.589015 
161.061 6.126688 
161.097 3.77828 
163.0764 32.032327 
165.0556 6.066395 
165.0924 4.903491 
169.0658 24.091087 
169.1021 7.735044 
171.0815 25.345589 
171.1182 2.720231 
173.0607 9.256834 
173.097 39.731515 
181.0654 3.193714 
181.1023 3.223501 
183.0816 20.611479 
184.0892 6.311561 
185.097 6.100175 
187.0767 2.766788 
191.0718 5.775868 
195.0815 8.000256 
195.1179 3.826355 
197.0971 34.840642 
198.1046 3.645315 
199.1129 5.420976 
211.0762 5.410275 
239.1071 3.452216 
END IONS

