BEGIN IONS
PEPMASS=273.076
CHARGE=1+
COMPOUNDNAME=naringenin
LIBRARYQUALITY=3
SMILES=N/A
INCHIKEY=FTVWIRXFELQLPI-UHFFFAOYSA-N
INCHI=InChI=1S/C15H12O5/c16-9-3-1-8(2-4-9)13-7-12(19)15-11(18)5-10(17)6-14(15)20-13/h1-6,13,16-18H,7H2
MSLEVEL=2
SOURCE_INSTRUMENT=N/A-ESI-QFT
FILENAME=library_mgf.mgf
SEQ=*..*
IONMODE=positive
ORGANISM=MONA
NAME=naringenin [M+H]+
PI=MoNA
DATACOLLECTOR=MoNA:VF-NPL-QEHF013131
PUBMED=N/A
SUBMITUSER=mwang87
TAGS=
SPECTRUMID=CCMSLIB00004704194
SCANS=13131
50.284561 0.061906 
51.056084 0.038669 
51.760391 0.046107 
52.037651 0.064587 
52.374222 0.026908 
53.425297 0.050941 
53.477085 0.042926 
53.571754 0.023306 
54.081879 0.036328 
54.891056 0.03837 
55.055016 0.033356 
55.719997 0.064991 
55.935165 0.713386 
56.508636 0.047754 
56.520706 0.066201 
56.692455 0.06815 
56.965576 64.708099 
56.967213 0.906184 
57.070675 0.330876 
57.334209 0.02609 
57.895859 0.04466 
57.935574 2.985469 
58.065914 0.578023 
58.452473 0.027328 
58.933395 0.038404 
58.998543 0.03746 
59.067699 0.066711 
59.211342 0.045027 
59.213413 0.040948 
59.268169 0.088763 
59.905262 0.037398 
59.930984 1.057432 
60.081432 0.035873 
60.102097 0.056931 
60.224426 0.056003 
60.288231 0.063433 
60.958447 0.692469 
61.011429 39.036018 
61.013214 0.437158 
61.877518 0.039945 
62.014832 0.214078 
62.019238 4.639431 
62.020729 0.066677 
62.167377 0.05382 
62.171535 0.026255 
63.00721 1.703774 
63.027092 0.743816 
63.998508 0.069435 
64.097389 0.03946 
64.613594 0.072864 
65.086533 0.047618 
66.577835 0.066063 
66.929535 0.042583 
67.368591 0.041291 
68.72686 0.07408 
69.070518 0.041194 
69.832069 0.058154 
70.06131 0.025866 
70.06588 0.050145 
70.958588 10.574105 
70.981148 0.958013 
71.015182 0.073039 
71.126335 0.03869 
71.574577 0.039743 
71.614578 0.038889 
71.929977 0.086122 
71.952614 4.557184 
72.037422 0.046631 
72.61554 0.036971 
72.937836 3.901148 
72.958969 0.180462 
73.069122 0.042186 
73.706711 0.06356 
73.956818 2.699416 
74.191887 0.055 
74.553444 0.036233 
74.931557 1.005699 
74.976044 2.322512 
75.946045 2.805966 
76.288086 0.059053 
76.403809 0.054456 
76.667427 0.057325 
76.693703 0.040795 
76.720169 0.067406 
77.941475 0.502668 
78.013985 0.167045 
78.316727 0.068994 
78.931328 0.045875 
79.021858 3.127014 
79.446053 0.070724 
79.449219 0.071435 
81.038498 0.024694 
81.340874 0.038605 
81.639999 0.067143 
81.965416 0.040165 
82.523109 0.062654 
82.587837 0.060499 
83.14492 0.054905 
83.280258 0.062771 
83.434181 0.04734 
86.004105 0.027095 
86.312309 0.047575 
86.975899 0.985982 
87.518394 0.042913 
87.907043 0.3579 
88.076172 0.042981 
88.275597 0.066596 
88.915092 0.076997 
88.937408 2.244897 
88.968948 1.384445 
88.991432 0.090571 
89.3638 0.053311 
89.940552 0.069278 
89.963043 0.255863 
90.915184 0.076078 
90.94825 2.436456 
91.02375 0.025332 
91.322433 0.072024 
91.789719 0.045113 
91.96698 0.113884 
92.900795 0.274832 
93.956436 0.756318 
95.201218 0.058268 
95.214233 0.038396 
95.515732 0.034299 
95.951813 0.140972 
98.97583 100.0 
99.106934 0.055779 
99.537964 0.062203 
99.594467 0.054301 
99.97924 1.960089 
100.253098 0.043549 
100.937508 0.078834 
100.971786 0.366061 
100.980148 0.168247 
101.510963 0.035464 
101.95034 24.353254 
102.915176 0.209171 
102.93042 0.075389 
102.948196 0.060893 
102.968712 1.827267 
103.924393 3.829744 
104.93074 1.307365 
104.963837 0.085553 
105.531891 0.067805 
105.643013 0.030756 
105.917351 0.787659 
105.928314 0.0573 
106.925949 0.389901 
107.725288 0.040647 
107.747017 0.045439 
108.030899 0.068134 
108.198685 0.039983 
108.493896 0.070307 
108.958641 0.075175 
109.481895 0.035512 
110.500999 0.066586 
111.932899 0.065957 
114.160492 0.026652 
114.201164 0.070219 
114.32505 0.059593 
114.383011 0.044052 
114.812698 0.03732 
115.886208 0.05774 
116.910866 0.052942 
116.986244 55.57016 
117.91703 0.168166 
117.93338 0.035501 
117.989578 0.726754 
118.173187 0.062594 
118.606781 0.04136 
118.925179 0.679673 
118.947723 11.192588 
118.982338 0.068052 
119.00161 0.166422 
119.689873 0.056203 
119.918983 0.099112 
119.960678 7.70141 
120.925407 0.06654 
120.94075 1.535102 
120.979279 0.544593 
121.968712 0.170982 
122.006454 0.044344 
122.931366 0.148833 
122.941139 6.364073 
123.478584 0.064679 
123.927948 0.054934 
123.939034 0.962581 
123.959251 0.168651 
124.93663 2.338828 
124.946678 0.069436 
125.008759 0.063193 
125.050163 0.05724 
126.652603 0.070857 
126.934181 0.040268 
128.391571 0.069989 
129.069778 0.039816 
129.859329 0.051726 
130.974045 0.09042 
131.001862 0.351115 
131.171921 0.052626 
131.591843 0.040587 
131.711777 0.065921 
131.96167 0.104452 
132.046814 0.050389 
132.888962 0.075289 
132.95845 9.256884 
132.964355 2.17311 
133.948517 2.230915 
133.99939 0.047183 
134.919998 0.601274 
134.94249 8.619213 
134.957581 0.822261 
134.978867 45.915588 
134.996597 13.671533 
135.927612 0.299723 
135.949768 0.114346 
135.956726 1.970889 
135.966599 0.546339 
135.982437 0.300378 
136.893402 0.049695 
136.920776 0.739278 
136.930801 0.088123 
136.936371 0.113808 
136.958176 11.663281 
136.974716 2.457723 
137.011795 4.868982 
137.928146 4.244728 
137.971039 2.441649 
138.012573 0.162245 
138.817444 0.042094 
138.915878 0.059374 
138.925949 0.238138 
138.935791 0.472241 
138.951553 0.401342 
138.971542 0.258706 
139.009247 0.248247 
139.394684 0.052567 
139.923615 1.2902 
140.951584 0.047374 
141.457535 0.064226 
141.969757 3.223561 
142.967712 0.079982 
144.123764 0.045227 
146.44902 0.241477 
146.871567 0.054444 
146.976105 1.073725 
147.545959 0.072016 
147.975525 0.051547 
148.971954 23.674189 
149.961136 0.51385 
149.972092 0.528146 
150.951111 0.719501 
150.968735 7.996202 
151.959091 1.212536 
151.970108 5.086752 
151.998886 1.05904 
152.952789 32.700569 
152.968826 3.544584 
152.989319 24.871361 
153.007004 0.430546 
153.959549 26.485573 
153.966949 3.935881 
154.932098 1.44212 
154.947647 2.638055 
154.957489 3.16217 
154.969055 3.79778 
154.977966 0.657274 
154.985428 1.767995 
154.992676 0.045893 
155.022324 1.149806 
155.454346 1.491601 
155.781998 0.043401 
155.890686 0.322303 
155.954803 10.516243 
156.223389 0.076107 
156.945969 0.56592 
156.954498 0.095499 
156.974899 0.114588 
156.98233 0.112859 
157.952118 0.983331 
159.339249 0.064628 
161.947723 0.058934 
162.966125 5.344979 
163.963821 0.09544 
164.305771 0.042284 
164.459732 3.096003 
165.938354 0.740947 
166.982437 3.918092 
167.974304 0.126181 
167.98381 0.071709 
168.936462 1.175926 
168.983017 0.295148 
169.885529 0.036502 
169.980865 0.816821 
170.009506 0.047194 
170.96347 61.929684 
170.980316 0.066324 
170.999969 1.488519 
171.963974 0.078268 
171.971405 4.019219 
172.942886 2.333415 
172.959381 3.326459 
172.967545 0.604199 
172.988403 0.373669 
172.996353 0.414539 
173.800247 0.077434 
173.901413 1.400142 
174.442001 0.046906 
174.956528 1.110171 
174.98555 0.049033 
175.403503 0.072303 
175.897766 0.078643 
176.989319 0.184707 
177.938263 2.034141 
180.072418 0.053609 
180.260605 0.045157 
180.975677 0.058872 
182.633286 0.06475 
182.951401 0.06897 
184.978928 0.330255 
185.949402 3.715441 
186.938446 0.064258 
186.947159 4.387355 
187.945038 1.371034 
188.925079 0.151284 
188.974136 28.601999 
190.953339 0.446761 
190.969818 0.79588 
190.979126 0.048471 
192.962143 0.084262 
193.151688 0.027065 
195.607437 0.06836 
195.949158 2.01325 
197.015182 1.142111 
197.973068 0.087106 
198.947098 0.270072 
199.965897 1.146119 
200.840088 0.056044 
206.984848 0.071928 
207.706436 0.035459 
210.078125 0.026166 
210.972 0.040075 
211.360291 0.058976 
212.95726 0.047683 
213.147476 0.042706 
213.935059 0.064211 
214.989304 0.293694 
217.976715 1.67829 
220.577545 0.119917 
220.595825 0.187601 
220.613647 0.4051 
220.631256 0.196956 
220.642822 0.150033 
221.235199 0.066848 
224.006271 0.043935 
224.54866 0.031106 
227.003143 0.068314 
227.679352 0.085069 
230.966827 1.934948 
233.000595 0.085853 
235.999252 0.073553 
236.151489 0.07148 
242.396698 0.037967 
248.976273 0.102416 
249.184067 0.02668 
251.943924 0.034123 
257.017792 0.04644 
262.160217 0.056273 
262.877716 0.038642 
267.315491 0.075642 
272.184662 0.038571 
279.883423 0.072224 
286.771027 0.053378 
292.924164 0.044739 
297.84552 0.039719 
298.749817 0.034279 
305.526093 0.039069 
306.904053 0.040158 
308.36087 0.026746 
313.10611 0.030958 
318.213867 0.069985 
318.226685 0.048834 
END IONS

