BEGIN IONS
PEPMASS=369.131
CHARGE=1+
COMPOUNDNAME=GIBBERELLIC ACID
LIBRARYQUALITY=3
SMILES=N/A
INCHIKEY=IXORZMNAPKEEDV-SNTJWBGVSA-N
INCHI=InChI=1S/C19H22O6/c1-9-7-17-8-18(9,24)5-3-10(17)19-6-4-11(20)16(2,15(23)25-19)13(19)12(17)14(21)22/h4,6,10-13,20,24H,1,3,5,7-8H2,2H3,(H,21,22)/t10-,11+,12-,13-,16+,17+,18+,19-/m1/s1
MSLEVEL=2
SOURCE_INSTRUMENT=N/A-ESI-QFT
FILENAME=library_mgf.mgf
SEQ=*..*
IONMODE=positive
ORGANISM=MONA
NAME=GIBBERELLIC ACID [M+Na]+
PI=MoNA
DATACOLLECTOR=MoNA:VF-NPL-QEHF006369
PUBMED=N/A
SUBMITUSER=mwang87
TAGS=
SPECTRUMID=CCMSLIB00004697432
SCANS=6369
50.194881 0.053308 
50.369118 0.047929 
50.732197 0.018738 
51.005032 0.020028 
51.023746 0.031749 
51.108799 0.042805 
51.199894 0.018157 
51.235622 0.050148 
51.467274 0.024391 
51.537762 0.04086 
51.886578 0.049258 
51.88903 0.022933 
52.011406 0.029725 
52.707233 0.02246 
52.764862 0.017038 
52.885307 0.049628 
53.002941 2.90334 
53.009037 0.029716 
53.027798 0.022882 
53.039326 4.587164 
53.52354 0.050381 
53.550446 0.031509 
53.863781 0.023008 
53.897205 0.054298 
53.998211 0.119073 
54.034592 0.414075 
54.042763 0.021907 
54.524967 0.060491 
54.680363 0.022778 
54.761848 0.050763 
54.810883 0.039886 
54.93829 0.074275 
54.986458 0.070921 
55.018589 9.861888 
55.044434 0.056582 
55.05497 35.51482 
55.056515 0.4274 
55.277763 0.05221 
55.284515 0.050834 
55.363644 0.038098 
55.447784 0.022252 
55.548981 0.019847 
55.664093 0.018105 
55.935112 2.358526 
55.958149 0.020106 
56.021942 0.069563 
56.048763 0.026772 
56.050213 7.098155 
56.058292 0.842709 
56.063805 0.02425 
56.853237 0.203498 
56.934349 0.023689 
56.942905 0.04635 
56.965511 34.329613 
57.034233 4.482868 
57.07061 28.831593 
57.072224 0.374937 
57.301472 0.016196 
57.313141 0.043937 
57.363945 0.036529 
57.656425 0.040982 
57.659237 0.0176 
57.935509 1.246479 
58.021259 0.019787 
58.029606 0.014435 
58.065853 35.676136 
58.067513 0.398177 
58.073982 0.781202 
58.234924 0.026434 
58.571144 0.025733 
58.901405 0.059642 
58.961296 0.075334 
58.971786 0.026197 
58.995701 0.043505 
58.998585 0.023765 
59.04985 5.77447 
59.061108 0.487677 
59.069241 0.600967 
59.217873 0.022427 
59.473145 0.02993 
59.559685 0.016208 
59.819416 0.028211 
59.873074 0.020234 
59.930916 0.14842 
60.011703 0.018889 
60.045132 2.214677 
60.056263 0.023359 
60.081478 48.264256 
60.111034 0.064128 
60.116875 0.021518 
60.167206 0.022898 
60.958408 0.521534 
61.011349 8.149321 
61.040352 0.04786 
61.068584 0.016083 
61.084862 1.383047 
62.019207 0.368787 
62.020908 0.017934 
62.604599 0.041584 
62.717495 0.031521 
62.753052 0.040705 
62.797871 0.020687 
62.836323 0.057642 
62.98241 0.339319 
63.00713 0.13211 
63.998379 0.172648 
64.037376 0.019785 
64.248764 0.060264 
64.829994 0.016513 
64.948708 0.018405 
64.993607 0.022283 
65.039284 2.100186 
65.098198 0.053376 
65.167007 0.023235 
65.252693 0.026703 
65.295486 0.019708 
65.825523 0.066738 
66.02813 0.019742 
66.047279 0.020725 
66.777779 0.026797 
66.812866 0.026224 
67.018456 0.051701 
67.042358 0.028008 
67.054893 32.322845 
67.246948 0.015625 
68.050117 4.831587 
68.058235 1.170907 
68.322968 0.017303 
68.520248 0.017237 
68.890434 0.056447 
68.99501 0.017098 
68.997795 0.308475 
69.034149 6.14452 
69.045372 0.387179 
69.070518 22.659309 
70.029366 1.36213 
70.037491 0.021563 
70.065773 28.38653 
70.073868 0.673179 
70.134521 0.029259 
70.153976 0.018058 
70.206917 0.017992 
70.519386 0.050531 
70.578011 0.017216 
70.958496 1.9996 
70.981071 0.452363 
71.013359 0.215336 
71.049767 7.866283 
71.06913 0.584311 
71.086136 10.393363 
71.326599 0.016392 
71.409805 0.016505 
71.714996 0.01724 
71.929893 0.15453 
71.952499 2.302336 
72.045006 1.246794 
72.052925 0.066012 
72.081406 4.655674 
72.089516 0.041047 
72.371735 0.053266 
72.42186 0.023475 
72.45665 0.01853 
72.748276 0.018687 
72.937729 1.233349 
72.960251 0.041183 
73.028999 0.649483 
73.040398 0.053891 
73.047356 0.149464 
73.065399 2.601676 
73.08477 0.026763 
73.508217 0.068078 
73.956985 0.018343 
74.006371 0.03506 
74.024284 1.164877 
74.060661 0.824025 
74.097054 0.230287 
74.931503 0.439869 
74.975929 1.385878 
75.04467 0.324577 
75.059097 0.016545 
75.220245 0.052085 
75.650925 0.017943 
75.783501 0.025405 
75.984261 0.020546 
76.896881 0.017288 
76.928368 0.041462 
77.006325 0.020746 
77.008934 0.732231 
77.039246 0.171015 
78.009621 0.031371 
78.034309 0.065559 
78.047462 0.017029 
78.514511 0.016837 
78.56105 0.017689 
78.616806 0.018985 
79.006447 0.039531 
79.019112 0.0318 
79.021751 3.007787 
79.054771 25.971893 
79.431244 0.02098 
79.468994 0.05091 
79.546005 0.055521 
80.050026 5.012145 
80.058083 1.236943 
80.516518 0.019137 
80.790779 0.020245 
81.034012 4.100825 
81.045227 2.053881 
81.057877 0.218659 
81.070396 33.724716 
82.029259 0.595968 
82.041656 0.026882 
82.053047 0.254931 
82.065643 8.375747 
82.07373 1.709499 
83.013298 0.128707 
83.049667 13.468541 
83.06086 3.431611 
83.068741 0.066802 
83.086037 9.78875 
83.088783 0.028472 
83.285034 0.018874 
83.975853 0.018377 
84.044907 9.798242 
84.052925 0.397793 
84.064529 0.050525 
84.081284 17.989262 
84.089302 0.029108 
84.573303 0.017806 
84.797813 0.026121 
84.88195 0.042195 
84.96019 0.763567 
85.028946 4.522261 
85.040192 0.194226 
85.048065 0.079452 
85.065254 5.617743 
85.076622 0.10443 
85.084625 0.218079 
85.101639 2.828928 
85.980019 0.060633 
86.060562 2.928395 
86.06868 0.11661 
86.096901 11.774846 
87.044518 2.896423 
87.055801 0.263762 
87.100159 0.11728 
87.938667 0.042866 
87.945328 0.016564 
88.021553 0.023156 
88.039764 1.966917 
88.055626 0.057872 
88.076157 0.747717 
88.262794 0.018483 
88.758095 0.027218 
88.953262 0.018675 
88.968887 1.920128 
88.99147 0.241878 
89.042992 0.019195 
89.06015 0.355718 
89.805199 0.020191 
89.962784 0.087229 
90.817245 0.018441 
90.912598 0.058474 
90.948097 1.787847 
91.054657 20.659552 
91.057777 4.468904 
91.074722 0.020422 
91.748543 0.018933 
92.04985 0.631392 
92.057991 1.212884 
92.986366 0.219922 
93.033791 0.031638 
93.045113 0.680597 
93.057732 0.678028 
93.070267 22.025698 
93.073273 0.20699 
93.688576 0.053894 
93.956367 0.167686 
94.029144 0.320422 
94.065521 6.886832 
94.073563 1.105762 
94.746552 0.049965 
95.013054 0.134982 
95.01931 0.30032 
95.049553 10.334614 
95.060745 6.079183 
95.068825 0.033367 
95.073303 0.510782 
95.08593 23.942055 
95.363022 0.060099 
96.044777 4.239421 
96.052727 0.26465 
96.063988 0.022109 
96.068764 0.143149 
96.081131 6.193196 
96.089218 0.975006 
96.320168 0.055585 
96.754608 0.024041 
96.906433 0.025391 
97.01693 0.022385 
97.028702 1.737308 
97.039993 0.903526 
97.06517 8.067826 
97.076363 1.024461 
97.084473 0.093796 
97.101517 3.451859 
98.024094 0.113698 
98.035271 0.145 
98.06041 4.171615 
98.068283 0.101161 
98.09333 0.060814 
98.096794 10.088152 
98.10482 0.022736 
98.975677 37.711193 
98.984711 0.019962 
99.007858 0.051385 
99.044403 2.404595 
99.055595 0.598199 
99.063515 0.025553 
99.080795 2.939731 
99.091949 0.047278 
99.100151 0.220878 
99.979042 0.861026 
100.039665 0.824474 
100.051086 0.02084 
100.062408 0.017349 
100.075996 2.295953 
100.11235 0.466322 
100.670776 0.043947 
100.950066 0.044694 
100.971703 0.163161 
101.003349 0.036726 
101.008751 0.045735 
101.023399 0.040176 
101.034676 0.025696 
101.060051 5.170857 
101.072212 0.051377 
101.090965 0.026608 
101.096184 0.019361 
102.05529 1.199363 
102.064102 0.019432 
102.09153 0.065802 
102.287971 0.020405 
102.968468 0.199511 
103.039047 0.09343 
103.05455 3.829545 
103.346848 0.016978 
103.664185 0.070735 
104.049805 0.287466 
104.062302 0.022157 
104.963745 0.036038 
105.033821 0.570387 
105.045036 0.74049 
105.070152 17.397369 
106.028763 0.023239 
106.065376 3.331103 
106.073456 0.904995 
106.979195 0.094309 
107.001724 0.042547 
107.049431 4.790652 
107.060631 0.976951 
107.073189 0.981091 
107.0858 12.982985 
108.044685 2.733643 
108.057022 0.022163 
108.068375 0.113878 
108.081017 9.704215 
108.089172 0.638998 
108.615921 0.056518 
108.958504 0.539702 
109.02861 1.464314 
109.039932 0.124535 
109.052277 0.482849 
109.065018 7.383882 
109.076218 4.192569 
109.08445 0.258762 
109.088791 0.13759 
109.101372 7.940834 
110.023926 0.418308 
110.056511 0.115816 
110.060242 7.469485 
110.07151 6.375123 
110.083916 0.48984 
110.096642 3.940155 
110.104622 0.077607 
110.156792 0.027794 
111.044296 4.546744 
111.048096 0.065307 
111.055527 4.376544 
111.06353 0.175126 
111.06813 0.027813 
111.07502 0.018652 
111.080688 2.827722 
111.09182 0.176738 
111.117188 0.055466 
112.009262 0.074421 
112.035553 0.022734 
112.039513 1.578784 
112.050835 0.335897 
112.075851 3.766942 
112.087288 0.058194 
112.112175 0.952909 
112.719856 0.062378 
113.023521 0.627757 
113.034683 0.740373 
113.059898 1.177443 
113.071083 0.398236 
113.096252 3.123416 
113.648605 0.047278 
113.658775 0.026407 
114.05513 1.863046 
114.091614 0.528798 
114.099632 0.053232 
114.956749 0.033102 
115.039177 0.172082 
115.050591 0.022799 
115.05442 1.62738 
115.075363 0.13404 
116.001923 0.075789 
116.062248 0.134086 
116.070778 1.242584 
116.986076 67.873726 
117.05748 0.524577 
117.069992 5.545087 
117.989403 1.828875 
118.065262 2.914978 
118.073303 0.122922 
118.947624 0.074225 
118.973106 0.02722 
118.981918 0.31475 
118.990211 0.22224 
119.019058 3.190313 
119.049255 2.024116 
119.060478 0.776476 
119.068748 0.022257 
119.073067 0.147149 
119.085648 10.68179 
119.518974 0.01746 
120.019882 0.148271 
120.044456 1.143149 
120.08091 7.517705 
120.088898 0.803876 
120.94059 0.024451 
120.978973 0.689501 
121.016701 0.387674 
121.028404 0.612568 
121.039833 0.300678 
121.051926 0.047478 
121.064903 5.180067 
121.076141 2.677539 
121.084229 0.423688 
121.088585 0.757807 
121.101265 6.612177 
121.638306 0.031064 
122.060143 6.884193 
122.067726 0.025834 
122.071915 0.077419 
122.083931 0.286111 
122.092056 0.024769 
122.096558 4.199065 
122.104385 0.267414 
122.551102 0.036741 
122.940918 0.306404 
123.044151 2.180762 
123.055351 2.314324 
123.063179 0.079451 
123.067818 0.445039 
123.080536 4.650207 
123.091782 1.750952 
123.116905 1.112882 
124.039398 2.126249 
124.051422 0.026524 
124.070778 0.023443 
124.075752 8.241165 
124.083611 0.032337 
124.112167 2.005519 
124.936005 0.066195 
124.999794 0.041722 
125.023476 0.131334 
125.034401 0.059363 
125.059761 2.421486 
125.070961 0.962236 
125.078926 0.205993 
125.096146 1.257992 
125.10714 0.128034 
125.426888 0.023839 
125.944275 0.015818 
125.960999 0.056431 
126.055031 1.789503 
126.091324 2.282092 
126.127625 1.099564 
126.439758 0.018854 
126.735741 0.04244 
127.038933 0.23743 
127.050232 0.479193 
127.075356 0.163209 
127.086563 0.417507 
127.462738 0.022209 
128.034363 0.026281 
128.049454 0.02409 
128.062149 1.160987 
128.070633 1.118464 
128.106888 0.223231 
128.98558 0.066524 
129.054581 0.353885 
129.069916 3.176153 
129.903214 0.052249 
129.982132 0.035017 
130.049774 0.451914 
130.065079 3.100197 
130.072952 0.026983 
130.077698 0.198474 
130.086288 0.032083 
130.932831 0.372312 
131.001434 2.24558 
131.049194 0.237826 
131.072952 0.7364 
131.08548 5.991334 
132.044327 0.622216 
132.080719 3.596373 
132.088959 0.233701 
132.958282 0.684797 
133.017136 0.183984 
133.028397 0.025007 
133.0345 0.087554 
133.039444 0.024707 
133.052002 0.054394 
133.064728 2.343635 
133.075958 1.119487 
133.088638 0.271191 
133.101135 5.301806 
134.012283 0.471717 
134.060043 3.751574 
134.071915 0.035762 
134.08374 0.075519 
134.096329 3.652518 
134.104492 0.255681 
134.313828 0.01942 
134.323959 0.018988 
134.559006 0.019585 
134.936111 0.061598 
134.955872 0.047266 
134.978897 4.176075 
134.985153 0.015031 
134.996368 100.0 
135.043991 1.403332 
135.055161 0.603745 
135.062744 0.025106 
135.06781 0.141336 
135.080368 4.413736 
135.091522 1.24152 
135.099396 0.075245 
135.104446 0.029369 
135.116699 1.615248 
135.835251 0.057004 
135.99971 2.975127 
136.03923 0.895003 
136.05098 0.031227 
136.075592 5.801556 
136.087204 0.201177 
136.112 2.346765 
136.41684 0.039423 
136.69722 0.030741 
136.957825 0.277852 
136.992508 0.632222 
137.000656 0.738054 
137.011658 6.482591 
137.029251 1.455866 
137.046768 0.055937 
137.059555 1.79189 
137.070923 1.652673 
137.07869 0.120798 
137.083725 0.022768 
137.095947 1.873392 
137.107254 0.526883 
137.132248 0.022395 
137.366104 0.0458 
137.971191 0.033613 
138.012238 1.162944 
138.0298 0.027517 
138.054871 2.930847 
138.065887 0.028048 
138.074356 0.028652 
138.091248 3.597656 
138.127533 0.19366 
138.382294 0.043442 
138.950867 0.075746 
138.989243 1.176253 
139.008835 2.32142 
139.026825 0.122758 
139.038879 0.252419 
139.050079 0.928619 
139.057861 0.019296 
139.07515 0.49385 
139.086548 1.076235 
139.111649 0.064728 
139.122757 0.05014 
140.000412 0.018874 
140.033981 0.661113 
140.070496 2.025249 
140.106888 0.470429 
141.054932 0.025262 
141.064987 0.113182 
141.069931 0.243263 
142.01741 0.133466 
142.049911 0.168008 
142.06517 0.073548 
142.077621 0.771239 
142.086243 0.51702 
142.122299 0.022404 
142.979233 0.03116 
143.000381 0.079253 
143.049332 0.022009 
143.06044 0.028638 
143.072327 0.15313 
143.085556 3.003551 
143.091232 0.019572 
143.179672 0.061225 
143.36203 0.020778 
144.044174 0.075804 
144.050308 0.028296 
144.056549 0.018423 
144.065247 0.117961 
144.080719 2.777364 
144.087769 0.093555 
144.093704 0.026727 
144.958832 0.032056 
144.994751 0.049322 
145.016769 0.142115 
145.04982 0.064278 
145.064667 1.648261 
145.075928 1.30667 
145.088699 0.370195 
145.101151 4.28229 
145.138596 0.043025 
146.012375 0.084653 
146.059967 3.33263 
146.072556 0.042964 
146.083633 0.024108 
146.096298 2.573594 
146.10408 0.383789 
146.905441 0.279355 
146.91835 0.242723 
146.974625 0.047632 
146.996292 0.394094 
147.032822 0.066152 
147.043823 0.648272 
147.055023 0.393929 
147.067841 0.125207 
147.080276 2.283902 
147.091537 1.138218 
147.104446 0.064427 
147.11673 1.753663 
147.248123 0.020005 
148.03923 0.35171 
148.063019 0.076132 
148.075562 5.225477 
148.111923 4.907717 
148.943329 0.305415 
148.971771 1.851805 
148.989532 0.032004 
149.012054 6.061201 
149.059464 1.370415 
149.070831 1.51107 
149.077728 0.113671 
149.084106 0.035513 
149.096039 1.578055 
149.107376 1.008391 
149.115326 1.268365 
149.132263 0.165043 
149.971878 0.302358 
150.015533 0.071582 
150.054871 2.10242 
150.066406 0.229302 
150.085358 0.048578 
150.091309 4.379675 
150.127548 0.835233 
150.951035 0.652422 
150.968689 2.594706 
151.027405 0.24411 
151.038651 0.104431 
151.050385 0.407578 
151.057449 0.02323 
151.075287 1.1204 
151.086472 1.436562 
151.094131 0.02299 
151.111633 0.236343 
151.12294 0.272305 
151.958633 0.03207 
151.998688 0.169513 
152.034119 0.054462 
152.062256 0.322601 
152.070511 3.262127 
152.081665 0.151096 
152.106903 1.897485 
152.142883 0.022582 
152.618423 0.027809 
152.935974 0.030437 
152.952057 0.459115 
152.968719 0.387867 
152.989136 11.896044 
153.006912 19.637451 
153.054276 0.104662 
153.065308 0.449196 
153.090591 0.134286 
153.10202 0.220073 
153.80069 0.018133 
153.937927 0.043503 
153.959167 0.938348 
153.966537 0.017948 
153.995514 0.048478 
154.010239 0.321568 
154.049805 0.710485 
154.065247 0.119931 
154.077667 0.07538 
154.086029 0.792058 
154.122284 0.339323 
154.968399 0.989112 
154.978851 0.022979 
155.011063 0.034046 
155.015533 0.029778 
155.02211 4.321563 
155.038116 0.071799 
155.045044 0.230027 
155.059952 0.06638 
155.070267 0.02655 
155.085587 1.226437 
155.117722 0.059616 
155.954834 0.058591 
156.022781 1.001515 
156.080826 0.460694 
156.093658 0.155155 
156.101654 0.086667 
156.999725 0.041502 
157.019043 2.135867 
157.064651 0.057213 
157.076004 0.135925 
157.088501 0.050062 
157.101135 1.836968 
157.293655 0.026751 
158.01236 0.383258 
158.059875 0.763952 
158.072021 0.025666 
158.09639 1.578889 
158.103577 0.025207 
158.90654 0.023514 
159.032639 0.325487 
159.067932 0.060168 
159.080292 1.168754 
159.091629 0.806378 
159.116684 1.380055 
160.027985 1.91646 
160.038956 0.026081 
160.075607 2.659379 
160.082474 0.020314 
160.087387 0.082349 
160.099258 0.149298 
160.112 1.193392 
160.119156 0.041206 
161.011765 0.266447 
161.05957 0.521154 
161.070847 1.106951 
161.083435 0.288389 
161.095901 1.469765 
161.107162 1.023807 
161.114426 0.019823 
161.13237 0.462486 
161.891861 0.027797 
162.043488 0.021451 
162.054825 1.429385 
162.07869 0.052746 
162.091232 3.066488 
162.09906 0.028877 
162.127563 0.528027 
162.135361 0.023258 
163.027481 0.133358 
163.038834 0.024989 
163.050079 0.241702 
163.074997 0.687546 
163.086578 1.024398 
163.09816 0.02465 
163.111725 0.372702 
163.122711 0.514544 
163.907928 0.385981 
163.998703 1.466689 
164.034058 0.052123 
164.070496 2.730352 
164.081741 1.767222 
164.107071 2.357217 
164.114044 0.044875 
164.142807 0.027251 
164.457886 0.018097 
164.91568 2.643973 
164.928604 0.072407 
164.984268 0.020984 
164.999359 0.108519 
165.054367 0.188654 
165.065613 0.261966 
165.077301 0.02726 
165.090775 0.271176 
165.102051 0.771146 
165.539093 0.018525 
165.99585 0.060471 
166.033005 0.021145 
166.049667 0.122447 
166.06073 0.104979 
166.078125 0.129337 
166.086105 2.19345 
166.097366 2.107095 
166.122513 0.590759 
166.494385 0.017825 
166.954269 0.019266 
166.982361 0.221067 
167.004883 0.109498 
167.02269 1.158213 
167.054535 0.050756 
167.071487 0.052279 
167.081009 0.249419 
167.117935 0.136959 
167.983276 0.026038 
168.057571 0.039241 
168.065399 0.52066 
168.080582 0.151685 
168.088562 0.062219 
168.094223 0.075624 
168.101791 1.14496 
168.120926 0.04856 
168.138229 0.181706 
168.802109 0.031838 
168.961441 0.221851 
169.016891 0.097071 
169.037247 0.10811 
169.075851 0.329939 
169.088623 0.047385 
169.100983 0.510857 
169.132645 0.076227 
170.010269 0.049198 
170.059601 0.184004 
170.0811 1.05254 
170.096161 0.568362 
170.117508 0.072462 
170.905701 0.102077 
170.925217 0.043452 
170.963226 4.967708 
170.999664 1.934142 
171.007187 0.021817 
171.032883 0.400566 
171.0802 0.367651 
171.09137 0.123557 
171.104507 0.086512 
171.11702 0.216657 
171.904358 0.037156 
172.005875 0.125974 
172.075516 0.962221 
172.087448 0.022183 
172.111984 0.715971 
172.943268 1.293689 
172.95137 0.229821 
172.959808 0.026541 
172.978897 0.139945 
173.012039 0.045648 
173.048416 0.30958 
173.059052 0.050421 
173.070953 0.537126 
173.095978 0.568756 
173.10733 0.434735 
173.132416 0.065902 
174.043671 0.087382 
174.05452 0.424098 
174.091187 1.997029 
174.099884 0.017983 
174.114853 0.042166 
174.127655 0.351065 
174.97641 0.558073 
175.027664 0.636602 
175.036423 1.468262 
175.050308 0.105729 
175.063385 0.081302 
175.07518 0.333902 
175.086411 0.881164 
175.098206 0.024328 
175.11171 0.404612 
175.123062 0.393104 
175.148285 0.020438 
176.022598 0.026368 
176.039474 0.09797 
176.070465 1.870538 
176.081299 0.056717 
176.106857 2.029703 
176.143295 0.023647 
177.009186 0.980224 
177.043228 0.093724 
177.065857 0.321384 
177.078323 0.050404 
177.090637 0.393704 
177.102203 1.022716 
177.110016 0.080932 
177.138443 0.204745 
178.010284 1.147045 
178.038498 0.923471 
178.049957 0.132176 
178.077972 0.222427 
178.085968 2.04757 
178.097153 0.029947 
178.122635 1.33739 
179.006775 1.205712 
179.02211 2.39921 
179.04509 0.077535 
179.056717 0.020923 
179.069824 0.046492 
179.08139 0.353008 
179.10675 0.031726 
179.117569 0.50475 
179.126343 0.030413 
179.153824 0.258298 
179.902847 0.108678 
180.017731 0.021042 
180.023117 0.096952 
180.065384 0.314429 
180.079865 0.023981 
180.101791 1.304485 
180.137604 0.040036 
180.888016 0.213566 
181.018433 0.166059 
181.036331 0.046853 
181.061295 0.062267 
181.087082 0.024216 
181.097321 0.341214 
181.91832 4.327779 
182.009262 0.572634 
182.044556 0.046938 
182.072647 0.020672 
182.081696 0.256214 
182.096268 0.320013 
182.117645 0.122497 
182.152863 0.023679 
182.888824 0.03839 
182.9263 4.172611 
183.032913 0.086639 
183.080704 0.115196 
183.091385 0.039912 
183.10408 0.050137 
183.116882 0.141138 
183.467163 0.020371 
183.770096 0.036843 
183.936096 0.136734 
184.004578 0.023541 
184.028183 0.024729 
184.075531 0.256633 
184.087341 0.250457 
184.096878 0.174321 
184.111755 0.048602 
185.014481 0.029615 
185.048508 0.099195 
185.070831 0.489614 
185.082062 0.067832 
185.096207 0.373676 
185.107056 0.231176 
185.132462 0.22436 
185.949173 1.074579 
186.016296 0.031508 
186.042816 0.025759 
186.054657 0.029862 
186.079514 0.033633 
186.09137 0.967466 
186.12764 0.117917 
186.927383 0.233541 
187.027832 0.293064 
187.064117 0.176434 
187.07486 0.089685 
187.086288 0.160306 
187.099106 0.031906 
187.11171 0.151356 
187.122513 0.119977 
187.147522 0.036895 
187.425797 0.022088 
187.907516 0.054591 
187.944595 0.047743 
188.022842 0.110845 
188.059341 0.072575 
188.070099 0.59534 
188.106766 1.045212 
188.915619 4.928266 
188.973923 6.786959 
189.034363 0.034484 
189.043106 0.26518 
189.065262 0.158852 
189.077209 0.091293 
189.091537 0.153169 
189.102097 1.626202 
189.112473 0.07132 
189.138565 0.19042 
190.049591 0.034151 
190.086029 1.209235 
190.09584 0.04538 
190.107635 0.022442 
190.122284 0.886143 
190.131805 0.024751 
190.282394 0.026577 
190.954132 4.728665 
190.963058 0.131946 
191.022888 0.017907 
191.058884 0.023881 
191.081146 0.271199 
191.092453 0.023684 
191.106522 0.025907 
191.117554 0.146922 
191.949631 0.16767 
192.065475 0.275925 
192.093094 0.031486 
192.101669 0.90186 
192.11174 0.050687 
192.138092 0.524461 
192.947311 2.431347 
192.960251 0.019688 
192.986954 0.861348 
193.038101 0.173013 
193.060608 0.313419 
193.073944 0.024412 
193.08728 0.025597 
193.09787 0.425874 
193.133087 0.216242 
193.950409 0.024019 
193.990067 0.029895 
194.04483 0.023621 
194.081299 0.677846 
194.097198 0.11816 
194.117416 0.259294 
194.94632 0.644104 
194.983353 0.095889 
195.032867 0.083966 
195.053024 0.021423 
195.068146 0.021587 
195.079941 0.204252 
195.090912 0.053618 
195.114288 0.09936 
195.948166 0.042842 
196.028305 0.025144 
196.060318 0.345267 
196.075409 0.10293 
196.097321 0.488033 
196.111267 0.097615 
196.942169 0.020807 
197.032867 0.184636 
197.049255 0.150417 
197.066544 0.032906 
197.095901 0.091798 
197.107224 0.063342 
197.128693 0.059028 
197.875549 0.094933 
197.913223 0.227296 
198.04361 0.071462 
198.064758 0.025705 
198.091049 0.757054 
198.112183 0.070556 
198.126999 0.022784 
198.572449 0.025565 
198.898804 0.026653 
198.921509 0.031295 
199.027893 0.288171 
199.064026 0.103566 
199.073593 0.030585 
199.085907 0.081147 
199.111343 0.060243 
199.122528 0.042111 
199.928848 3.990589 
200.023163 0.021801 
200.070084 0.098109 
200.106567 0.314705 
200.937103 0.019892 
200.973343 0.032165 
201.043213 0.165282 
201.078461 0.153522 
201.090851 0.063296 
201.102066 0.187898 
202.038696 0.022653 
202.046371 0.028506 
202.086395 0.282986 
202.097061 0.044381 
202.122269 0.31447 
202.989273 0.092621 
203.024567 0.210345 
203.058395 0.275974 
203.070557 0.026533 
203.081375 0.059065 
203.094269 0.021385 
203.117249 0.286757 
203.142853 1.854312 
203.153412 0.023435 
204.026123 0.597557 
204.065216 0.119936 
204.090668 0.718892 
204.101868 0.670029 
204.137344 0.115014 
204.146729 2.178494 
204.931137 0.062826 
204.969208 0.026152 
205.022369 0.609103 
205.037964 0.027171 
205.073532 0.045707 
205.087448 0.030445 
205.097153 0.30862 
205.133209 0.53434 
205.149628 0.032469 
205.636658 0.04459 
205.918365 2.834835 
206.0811 0.568129 
206.117371 0.213935 
206.926224 40.636337 
206.963318 0.058688 
206.984726 0.069081 
207.076904 0.09698 
207.091309 0.025432 
207.113525 0.228823 
207.149109 0.154552 
207.927887 1.115942 
207.937546 0.025913 
207.951599 0.049841 
208.0746 0.022242 
208.097046 0.210947 
208.923279 0.112731 
208.930817 0.044944 
208.94136 0.045323 
208.959595 2.612868 
209.000656 0.019056 
209.031708 0.02042 
209.048462 0.089586 
209.094376 0.210013 
209.128128 0.210391 
209.949844 0.022228 
209.960083 0.892261 
210.037079 0.026006 
210.076126 0.0299 
210.090607 0.204364 
210.101974 0.104054 
210.114243 0.047474 
210.958466 8.770012 
211.027008 0.03548 
211.063599 0.023531 
211.087128 0.161638 
211.110291 0.132248 
211.122467 0.026658 
211.959457 1.081201 
212.104553 0.442855 
212.118286 0.025678 
212.935989 0.187851 
212.955399 2.586495 
213.043182 0.744476 
213.078903 0.023919 
213.101334 0.028106 
213.943771 0.021598 
214.085403 0.187667 
214.122116 0.061782 
214.89325 0.10542 
214.953278 0.097376 
215.058853 0.042902 
215.081482 0.060956 
215.117752 0.135083 
215.90155 0.026463 
216.101898 0.219687 
216.137512 0.035147 
216.987244 0.021689 
217.037903 0.20962 
217.074371 0.224104 
217.097076 0.116277 
217.133179 0.130646 
217.939911 0.081109 
217.990387 0.029182 
218.082611 0.069405 
218.11731 0.190718 
218.153748 0.027264 
218.9617 0.018849 
218.984619 0.022635 
219.020462 0.029364 
219.050247 0.074751 
219.076309 0.027791 
219.090729 0.03694 
219.112411 0.223033 
219.148361 0.081487 
219.174225 1.765015 
220.024414 0.47088 
220.039352 0.2303 
220.045151 0.19466 
220.049271 0.19111 
220.05925 0.182217 
220.082443 0.040048 
220.09726 0.053029 
220.132996 0.354413 
220.177628 2.394415 
220.880905 0.029466 
220.941711 1.591743 
221.017227 0.148162 
221.067963 0.144302 
221.092102 0.058957 
221.129166 0.083522 
221.933838 0.053734 
222.112961 0.078487 
222.898575 2.098258 
222.921692 0.030645 
222.941254 0.034345 
223.122147 0.023865 
223.144485 0.025227 
223.510941 0.028387 
223.928879 35.234417 
224.069885 0.023464 
224.08989 0.026251 
224.106613 0.239502 
224.8992 0.840917 
224.936813 33.446648 
224.974503 0.120383 
225.042908 0.049182 
225.102234 0.085742 
225.925247 0.82262 
225.936584 0.58727 
225.94754 0.819043 
226.08606 0.143554 
226.121109 0.079384 
226.894608 0.067434 
226.925049 0.063958 
226.934555 0.200067 
226.951477 0.077658 
227.059204 0.045454 
227.117279 0.045654 
227.398895 0.061875 
227.94252 0.234296 
228.101959 0.089393 
228.138275 0.081769 
228.18689 0.03348 
228.930374 0.019022 
228.969635 0.044108 
229.061768 0.027411 
229.074463 0.196888 
229.895233 0.06291 
230.105469 0.028096 
230.117401 0.108536 
230.897705 0.02178 
230.946777 0.038938 
231.053864 0.804809 
231.089935 0.026936 
231.112854 0.080795 
231.148804 0.057003 
232.096207 0.02534 
232.13324 0.050894 
232.946487 0.082938 
232.963257 1.694203 
233.035004 0.05298 
233.067886 0.277089 
233.128342 0.129716 
233.928268 0.045488 
233.959885 0.300057 
234.076385 0.027549 
234.091232 0.021101 
234.114304 0.026101 
234.957397 4.152807 
234.997452 0.093984 
235.04866 0.048785 
235.086624 0.050818 
235.144058 0.05554 
235.960098 0.262657 
235.999329 0.202534 
236.127914 0.02844 
236.559036 0.027283 
236.603806 0.049594 
236.955933 0.336902 
237.100555 0.079779 
237.122604 0.018385 
237.89183 0.028203 
237.921585 0.020273 
237.944473 1.477107 
238.913666 0.293102 
238.95224 1.719479 
239.057938 0.030633 
239.117645 0.169312 
239.885422 0.053596 
239.912796 0.105693 
239.94603 0.050571 
239.962662 0.024196 
240.908829 5.068963 
240.930786 0.062797 
241.096161 0.026531 
241.910706 0.639343 
241.939346 13.363925 
242.909424 4.647382 
242.94696 1.743647 
243.112442 0.053763 
243.907944 0.275913 
243.935318 0.066761 
244.096756 0.026058 
244.905411 1.037582 
245.165192 0.029047 
246.112061 0.058798 
246.147934 0.026493 
246.404968 0.06782 
247.014832 0.071483 
247.084259 0.030417 
247.108368 0.023318 
247.906509 0.121749 
247.928818 0.953182 
248.015732 0.391838 
248.088211 0.038591 
248.107239 0.026197 
248.936737 1.142736 
248.975266 0.115482 
249.012329 0.331943 
249.054657 0.061837 
249.09967 0.025587 
249.125092 0.053954 
249.94603 0.944016 
249.961014 0.031423 
249.977692 0.020969 
250.932159 0.215686 
250.953629 0.036523 
250.971603 1.62097 
251.046814 0.02834 
251.079483 0.076697 
251.116653 0.090433 
251.138779 0.183521 
251.941528 0.062066 
251.971161 0.359767 
252.101532 0.031195 
252.96843 5.726259 
253.095428 0.026001 
253.15477 0.025549 
253.969177 0.540951 
254.966034 1.27192 
255.112289 0.024094 
255.897339 0.019246 
255.955383 0.249639 
256.924805 0.080082 
257.896393 0.539296 
259.558075 0.020732 
259.893524 0.049524 
262.155121 0.0465 
263.085175 0.051502 
263.945038 0.053086 
264.880768 0.031131 
264.986847 0.022663 
265.133972 0.053564 
265.939301 10.27669 
265.955627 0.100957 
266.944672 0.630854 
266.983795 0.063716 
266.999481 0.03354 
267.058502 0.058245 
267.113098 0.027765 
267.147858 0.022329 
267.936218 0.306197 
267.956757 3.520579 
268.263153 0.025167 
268.94223 0.699117 
268.957336 0.556298 
268.977905 1.642322 
269.907166 0.032414 
269.953278 0.783914 
273.448425 0.026604 
274.97049 0.190499 
275.971985 0.044682 
276.967163 1.324481 
277.048737 0.024633 
277.098236 0.066202 
277.154572 0.026079 
277.968994 0.024754 
279.112061 0.085812 
279.895172 0.070947 
279.954437 0.137141 
280.165375 0.871446 
281.128204 0.023894 
281.16925 0.027462 
281.652924 0.025798 
281.896423 0.624281 
281.933838 0.025386 
281.955353 0.118375 
282.278839 0.125441 
283.028564 0.025277 
283.892059 0.02848 
283.949707 2.179506 
285.815826 0.025498 
287.718384 0.021495 
290.997192 0.072357 
291.064636 0.026348 
291.956757 0.019831 
292.980194 0.040521 
294.978699 0.382743 
295.325592 0.061391 
297.90744 0.07451 
297.966644 0.035093 
299.19989 0.020848 
302.818146 0.472503 
303.02771 0.06577 
305.91098 0.030495 
309.244659 0.063304 
312.839386 0.026647 
318.480286 0.03175 
335.633911 0.059556 
339.134491 0.021799 
344.828857 0.082792 
345.107086 0.031832 
360.137604 0.031766 
363.671478 0.041736 
365.570312 0.049132 
365.637878 0.017435 
367.149139 0.073139 
368.424805 1.598579 
369.427277 0.243991 
372.29007 0.071321 
376.351837 0.035106 
379.578766 0.048565 
380.209351 0.0271 
389.084015 0.029438 
389.491669 0.053774 
END IONS

