BEGIN IONS
TITLE=Scan Number: 1074
PEPMASS=369.25601
CHARGE=1+
COMPOUNDNAME=Ambiguine_E_isonitrile
LIBRARYQUALITY=3
SMILES=C[C@]1([C@@H]2[C@@]3([C@@]([C@]([C@@H](C2)Cl)(C=C)C)([C@H]4O[C@H]4[C@@](c5c3c6c1cccc6[nH]5)(C)C)[N+]#[C-])O)C
INCHIKEY=LYCKQMCCONKVPQ-CXGOSFSJSA-N
INCHI=
MSLEVEL=2
SOURCE_INSTRUMENT=LC-ESI-qTof
FILENAME=f.philipwi/0_WilliamsFreshwaterCyanosStandardsConvertedTo_mzXML_v2/PW-49_P1-F-4_Ambiguine_E_isonitrile_436amu_Scan1072-1079_15564.mzXML;
SEQ=*..*
NOTES=
IONMODE=Positive
ORGANISM=GNPS-LIBRARY
NAME=Ambiguine_E_isonitrile M+H
SPECTRUMID=CCMSLIB00000424893
ACTIVATION=CID
INSTRUMENT=ion trap
SCANS=1074
145.089218 64.0 
164.076752 76.0 
164.215576 24.0 
167.103424 144.0 
168.093674 120.0 
169.103424 68.0 
171.102966 120.0 
171.323837 52.0 
174.155472 28.0 
178.101425 104.0 
182.100861 84.0 
183.108658 24.0 
184.075989 120.0 
185.887909 24.0 
186.08786 164.0 
187.102249 84.0 
190.065292 112.0 
190.122238 92.0 
190.17688 144.0 
190.645737 32.0 
191.121857 128.0 
191.562164 36.0 
191.82692 36.0 
194.093674 184.0 
196.085129 112.0 
197.097946 212.0 
198.13739 72.0 
199.125595 96.0 
199.278534 44.0 
200.143311 56.0 
201.127472 100.0 
202.086853 72.0 
204.03978 36.0 
205.124741 80.0 
208.106949 116.0 
208.986221 40.0 
210.12027 120.0 
210.259811 36.0 
211.148071 76.0 
212.028931 64.0 
212.136459 48.0 
213.116287 64.0 
213.227966 28.0 
215.131226 100.0 
215.729813 20.0 
216.13562 148.0 
217.117676 72.0 
219.160629 64.0 
221.118362 92.0 
223.037201 24.0 
224.138077 128.0 
224.410141 32.0 
225.147842 104.0 
226.168228 308.0 
227.109695 144.0 
228.136292 112.0 
230.640533 28.0 
232.16832 136.0 
232.736282 36.0 
233.407761 36.0 
234.158234 112.0 
235.134659 120.0 
236.158432 132.0 
237.144897 72.0 
237.663254 64.0 
237.820511 28.0 
238.11969 116.0 
239.140976 112.0 
239.494568 40.0 
239.770859 32.0 
240.151794 284.0 
240.323929 40.0 
241.142334 96.0 
242.195206 168.0 
242.413498 24.0 
243.237946 32.0 
244.153427 124.0 
245.170425 96.0 
246.169525 56.0 
247.12056 76.0 
249.128738 136.0 
250.147339 88.0 
250.862274 24.0 
252.152435 64.0 
252.834885 44.0 
253.115112 100.0 
254.161789 316.0 
254.449036 24.0 
255.137863 120.0 
256.173035 76.0 
258.163666 88.0 
260.31897 56.0 
265.029907 32.0 
266.11026 104.0 
266.734528 24.0 
267.16983 232.0 
268.173248 220.0 
268.361053 40.0 
269.14859 88.0 
270.149658 64.0 
271.160767 136.0 
271.891663 32.0 
274.152161 84.0 
277.140656 92.0 
278.20285 48.0 
280.139801 88.0 
280.632233 32.0 
280.931305 28.0 
281.162628 124.0 
282.229584 212.0 
283.203217 128.0 
283.479889 20.0 
284.038269 92.0 
284.218903 128.0 
284.339142 44.0 
285.22464 76.0 
290.151367 48.0 
292.163605 64.0 
293.197845 372.0 
294.204651 104.0 
295.188843 204.0 
296.000488 48.0 
296.170502 304.0 
297.168243 120.0 
298.197937 92.0 
299.20047 68.0 
299.917603 24.0 
302.173859 40.0 
305.863861 20.0 
307.169586 88.0 
308.198273 108.0 
308.993317 24.0 
309.195038 76.0 
310.036255 24.0 
310.221924 1048.0 
310.361847 32.0 
311.177429 104.0 
311.598358 36.0 
312.232178 196.0 
314.203033 108.0 
319.262695 48.0 
320.201416 100.0 
320.97345 24.0 
323.364716 60.0 
324.202026 48.0 
324.328278 44.0 
324.534973 20.0 
325.18573 100.0 
326.259766 100.0 
326.950958 32.0 
327.205811 492.0 
327.885254 48.0 
328.226654 172.0 
328.578156 32.0 
329.248688 84.0 
331.217926 104.0 
333.146515 32.0 
334.43924 56.0 
336.669495 28.0 
336.99707 40.0 
337.617554 32.0 
338.216064 1500.0 
338.441467 52.0 
338.699493 40.0 
339.218781 352.0 
339.353241 44.0 
340.197968 72.0 
340.693237 24.0 
341.26413 112.0 
342.271698 92.0 
344.575195 40.0 
351.245331 380.0 
352.24411 212.0 
353.25177 152.0 
354.214355 88.0 
354.862488 36.0 
356.232727 72.0 
361.97049 24.0 
367.207916 92.0 
367.424103 44.0 
368.830597 40.0 
369.002014 72.0 
369.259613 1512.0 
369.406189 44.0 
369.62677 32.0 
370.261292 568.0 
370.626251 48.0 
370.914703 56.0 
371.000641 36.0 
371.10611 68.0 
371.256592 96.0 
371.774567 72.0 
372.131073 100.0 
372.635406 32.0 
372.967743 48.0 
373.213989 84.0 
373.682098 36.0 
378.404053 28.0 
380.8508 32.0 
384.741974 32.0 
404.584259 64.0 
414.270721 188.0 
477.243683 144.0 
549.292175 40.0 
551.116333 68.0 
578.581238 28.0 
763.230835 28.0 
766.298157 88.0 
798.17395 88.0 
END IONS

