BEGIN IONS
TITLE=Scan Number: 1079
PEPMASS=389.26199
CHARGE=1+
COMPOUNDNAME=Ambiguine_C_isonitrile
LIBRARYQUALITY=3
SMILES=C[C@]1([C@@H]2[C@]([C@H]([C@](CC2)(C=C)C)[N+]#[C-])(c3c([nH]c4c3c1ccc4)C(C=C)(C)C)O)C
INCHIKEY=FDEFKOBGABILIC-XQHQYKGYSA-N
INCHI=
MSLEVEL=2
SOURCE_INSTRUMENT=LC-ESI-qTof
FILENAME=f.philipwi/0_WilliamsFreshwaterCyanosStandardsConvertedTo_mzXML_v2/PW-50_P1-F-5_Ambiguine_C_isonitrile_388amu_01_15565-Scan1074-1081.mzXML;
SEQ=*..*
NOTES=
IONMODE=Positive
ORGANISM=GNPS-LIBRARY
NAME=Ambiguine_C_isonitrile M+H
SPECTRUMID=CCMSLIB00000424890
ACTIVATION=CID
INSTRUMENT=ion trap
SCANS=1079
111.408844 24.0 
125.849289 24.0 
127.845009 32.0 
137.229065 124.0 
143.092209 32.0 
145.319641 40.0 
146.806427 56.0 
149.467438 28.0 
154.084763 96.0 
154.258881 40.0 
154.718399 84.0 
158.098373 84.0 
159.125931 120.0 
166.625854 32.0 
167.075775 124.0 
168.087997 132.0 
168.358231 52.0 
169.092422 196.0 
169.808731 28.0 
170.099579 156.0 
171.115326 64.0 
171.432312 44.0 
171.532486 40.0 
172.109009 116.0 
176.857712 68.0 
179.094177 72.0 
179.367249 28.0 
180.093628 88.0 
181.093582 304.0 
181.387619 52.0 
181.490662 32.0 
182.099945 592.0 
182.996552 28.0 
183.10907 252.0 
183.445206 20.0 
184.115158 432.0 
184.40477 32.0 
184.933167 32.0 
185.002518 32.0 
185.063217 136.0 
185.127167 96.0 
188.451767 40.0 
189.380463 64.0 
192.083038 96.0 
193.088745 188.0 
193.171204 32.0 
194.106079 152.0 
194.964935 36.0 
195.109009 640.0 
196.115341 412.0 
196.382675 44.0 
197.084915 520.0 
197.307999 32.0 
197.563568 48.0 
197.972778 80.0 
198.097763 140.0 
198.51442 32.0 
198.620407 40.0 
198.96373 44.0 
199.026672 32.0 
199.092972 128.0 
200.143326 92.0 
200.77507 88.0 
201.480179 28.0 
202.485764 32.0 
203.139359 96.0 
204.087128 272.0 
205.085281 76.0 
206.099396 396.0 
206.600266 36.0 
206.945511 32.0 
207.096695 412.0 
208.11412 780.0 
208.396881 20.0 
209.01387 36.0 
209.114944 1040.0 
209.456451 20.0 
209.816391 28.0 
210.118088 288.0 
210.343002 52.0 
210.500198 40.0 
210.722214 52.0 
210.972122 28.0 
211.09317 860.0 
211.562302 40.0 
211.676361 32.0 
211.936127 32.0 
212.100525 1100.0 
212.261032 40.0 
212.920212 52.0 
213.103134 84.0 
214.097519 108.0 
214.225082 72.0 
214.383728 52.0 
215.411606 56.0 
215.804718 104.0 
216.085724 52.0 
217.88855 80.0 
218.101898 252.0 
218.217987 56.0 
218.811615 28.0 
219.028549 32.0 
219.104172 520.0 
219.231415 64.0 
219.443817 60.0 
219.613831 48.0 
220.001297 32.0 
220.109528 812.0 
220.332336 104.0 
220.417496 24.0 
220.528076 52.0 
220.673096 56.0 
220.931992 48.0 
221.113068 4280.0 
221.44075 36.0 
221.516647 40.0 
221.863068 64.0 
222.122192 944.0 
222.989609 68.0 
223.130402 288.0 
223.885254 96.0 
224.018814 28.0 
224.123764 760.0 
224.467438 24.0 
225.129227 196.0 
225.222534 32.0 
225.87352 36.0 
225.940582 36.0 
226.145355 140.0 
226.400726 68.0 
226.602188 24.0 
226.717346 20.0 
226.822937 36.0 
227.121796 824.0 
227.572372 40.0 
227.745483 36.0 
228.123337 192.0 
228.573532 32.0 
229.084579 112.0 
229.973053 48.0 
230.093903 100.0 
230.534058 32.0 
231.106247 164.0 
231.270203 24.0 
231.648422 64.0 
232.113693 768.0 
232.454361 40.0 
233.116592 864.0 
233.490555 48.0 
233.826706 36.0 
234.127655 1252.0 
234.294815 56.0 
234.405411 48.0 
234.792679 32.0 
235.006531 36.0 
235.129761 1048.0 
235.54538 68.0 
235.858536 32.0 
236.146759 1612.0 
236.364914 84.0 
236.661957 32.0 
236.740417 36.0 
236.897369 40.0 
236.995483 52.0 
237.144012 912.0 
238.132828 456.0 
238.774994 28.0 
239.116562 132.0 
240.126572 108.0 
240.264633 32.0 
240.46228 20.0 
241.095322 84.0 
241.303207 28.0 
242.105942 152.0 
243.105408 248.0 
244.113754 264.0 
244.871094 24.0 
245.11647 252.0 
245.497604 52.0 
245.799622 60.0 
245.919571 28.0 
246.130356 700.0 
246.559738 44.0 
247.131592 1400.0 
247.792404 28.0 
247.932892 32.0 
248.010696 32.0 
248.147186 468.0 
248.324493 40.0 
248.542175 48.0 
249.146561 340.0 
249.749725 88.0 
249.859268 36.0 
250.161865 1288.0 
250.355438 88.0 
250.488846 28.0 
250.758957 68.0 
250.891296 32.0 
251.158264 532.0 
251.286484 32.0 
251.401535 64.0 
251.830597 44.0 
251.969864 64.0 
252.142365 3280.0 
252.541031 40.0 
252.763931 60.0 
252.853699 28.0 
253.010269 40.0 
253.137634 5596.0 
253.337189 32.0 
253.420197 28.0 
253.890091 72.0 
253.97023 36.0 
253.998032 32.0 
254.140274 1004.0 
254.347366 24.0 
254.71347 24.0 
254.819031 60.0 
254.967865 36.0 
255.094254 28.0 
255.232574 36.0 
255.840042 52.0 
256.114014 1400.0 
256.221344 36.0 
256.302979 28.0 
256.456085 40.0 
256.79306 20.0 
257.118073 484.0 
257.662048 44.0 
257.743927 20.0 
258.020294 132.0 
258.128082 640.0 
258.307068 24.0 
258.809326 28.0 
259.004181 32.0 
259.134338 732.0 
259.620087 36.0 
259.753632 44.0 
259.825531 40.0 
259.897461 32.0 
260.000244 52.0 
260.140533 956.0 
260.267548 52.0 
260.869843 60.0 
261.059998 28.0 
261.151367 848.0 
261.255707 32.0 
261.420593 28.0 
261.647369 44.0 
261.760803 44.0 
262.157288 828.0 
262.297363 32.0 
262.41095 40.0 
262.514221 36.0 
262.596832 100.0 
262.896484 112.0 
262.968842 40.0 
263.160706 192.0 
263.661865 28.0 
263.794739 48.0 
263.918121 32.0 
264.174866 1708.0 
264.272919 64.0 
264.521667 60.0 
264.594238 32.0 
264.718689 48.0 
264.963501 100.0 
265.176331 376.0 
265.434784 28.0 
265.819183 48.0 
265.891937 24.0 
265.99588 28.0 
266.178955 472.0 
266.339081 40.0 
266.444153 48.0 
266.588806 32.0 
266.981628 76.0 
267.057343 36.0 
267.186829 224.0 
267.324768 72.0 
267.401215 28.0 
267.818329 28.0 
268.110504 188.0 
268.214874 100.0 
269.134338 32.0 
269.487701 36.0 
269.91922 44.0 
269.992554 24.0 
270.134827 516.0 
270.789154 52.0 
271.137146 1572.0 
271.229889 48.0 
271.686188 36.0 
271.78656 32.0 
271.913849 36.0 
271.991547 20.0 
272.141724 1108.0 
272.659515 76.0 
272.870056 36.0 
273.059631 40.0 
273.145935 840.0 
273.344086 32.0 
273.470581 32.0 
273.628723 32.0 
273.934601 40.0 
274.019012 48.0 
274.157074 936.0 
274.346222 20.0 
274.549744 64.0 
274.620789 44.0 
274.72644 20.0 
275.047729 40.0 
275.157501 776.0 
275.32901 40.0 
275.697205 40.0 
276.176025 2548.0 
276.345337 32.0 
276.604065 40.0 
276.776428 48.0 
276.814423 64.0 
276.939056 32.0 
277.176361 1272.0 
277.338745 36.0 
277.541931 40.0 
277.830841 44.0 
277.958344 32.0 
278.191742 3588.0 
278.298523 44.0 
278.48999 28.0 
278.596375 28.0 
278.809204 104.0 
279.195801 764.0 
279.533447 32.0 
279.799957 32.0 
280.183136 232.0 
280.482758 48.0 
280.931335 24.0 
281.05954 44.0 
281.173492 164.0 
281.273315 32.0 
281.679718 40.0 
281.936523 40.0 
282.022156 32.0 
282.129211 224.0 
282.439819 68.0 
283.143097 92.0 
283.329651 32.0 
284.151489 308.0 
284.3284 44.0 
284.704712 24.0 
284.844574 48.0 
284.984436 32.0 
285.070526 40.0 
285.151794 156.0 
285.630463 28.0 
285.996857 24.0 
286.163239 4212.0 
286.374298 32.0 
286.606506 48.0 
286.762756 36.0 
286.8815 40.0 
287.000275 28.0 
287.164185 1768.0 
287.341919 32.0 
287.814026 40.0 
287.897308 24.0 
288.173523 2644.0 
288.386505 44.0 
288.698212 52.0 
289.178741 1304.0 
289.65213 48.0 
289.735291 36.0 
290.021088 28.0 
290.159821 204.0 
290.281708 48.0 
290.52066 32.0 
290.705414 136.0 
290.803223 40.0 
291.168457 160.0 
291.379639 64.0 
291.739899 40.0 
291.836823 24.0 
292.065552 40.0 
292.189423 108.0 
292.316162 20.0 
292.46875 44.0 
292.555969 40.0 
292.730438 24.0 
293.173981 376.0 
294.029724 24.0 
294.187073 1864.0 
294.300323 32.0 
294.467102 48.0 
294.609314 20.0 
294.828186 28.0 
295.014282 64.0 
295.097015 36.0 
295.192474 228.0 
295.605804 60.0 
296.141998 188.0 
296.428345 28.0 
297.131165 76.0 
298.076874 44.0 
298.160583 216.0 
298.418152 24.0 
298.935913 24.0 
299.168945 84.0 
299.72995 44.0 
300.180359 356.0 
301.186401 212.0 
301.447601 48.0 
301.53891 36.0 
301.75293 24.0 
301.919037 32.0 
302.180908 564.0 
302.640625 36.0 
302.803009 48.0 
302.856476 56.0 
303.011322 76.0 
303.189026 13756.0 
303.533203 32.0 
303.612366 36.0 
303.738251 36.0 
303.827148 40.0 
303.969208 56.0 
304.1922 3808.0 
304.420471 32.0 
304.60379 28.0 
304.667908 80.0 
304.777161 36.0 
304.867279 32.0 
305.171692 744.0 
305.358704 48.0 
305.462646 24.0 
305.553406 28.0 
305.728394 52.0 
305.927704 44.0 
306.059296 56.0 
306.187408 7480.0 
306.418549 60.0 
306.664948 64.0 
306.870056 44.0 
307.015289 96.0 
307.188477 1944.0 
307.372009 68.0 
307.571899 40.0 
307.655762 48.0 
307.750793 72.0 
307.947662 40.0 
308.193054 80.0 
308.321381 28.0 
308.458771 44.0 
308.847656 36.0 
309.060547 64.0 
309.408051 32.0 
309.85672 24.0 
310.036255 24.0 
310.159302 104.0 
310.511322 104.0 
310.721313 44.0 
311.013519 44.0 
311.154633 152.0 
312.181335 256.0 
312.63443 28.0 
313.029022 44.0 
313.184204 576.0 
313.322327 28.0 
313.920624 52.0 
314.18631 552.0 
314.349945 32.0 
314.462982 76.0 
315.191193 328.0 
316.182129 104.0 
316.444275 32.0 
316.920685 40.0 
317.193115 32.0 
317.579224 32.0 
317.829193 28.0 
318.057739 36.0 
318.211273 160.0 
318.807251 32.0 
319.180878 128.0 
319.296844 28.0 
319.467743 32.0 
319.581665 72.0 
319.708191 40.0 
319.809631 32.0 
319.895142 28.0 
320.060455 36.0 
320.205658 500.0 
320.59668 52.0 
320.745087 52.0 
320.919189 32.0 
320.984863 40.0 
321.198792 9292.0 
321.520691 60.0 
321.561035 56.0 
321.765717 56.0 
321.892181 56.0 
321.979218 24.0 
322.090881 64.0 
322.205963 2524.0 
322.375854 84.0 
322.45343 72.0 
322.598602 32.0 
322.780365 32.0 
322.917816 28.0 
323.202515 280.0 
323.605469 24.0 
324.174988 56.0 
324.626831 24.0 
324.799133 32.0 
324.914032 32.0 
325.05191 24.0 
325.19577 92.0 
325.868408 28.0 
326.177856 84.0 
326.547668 28.0 
327.206085 368.0 
328.023773 36.0 
328.210632 816.0 
328.335571 40.0 
328.705292 32.0 
329.213989 588.0 
329.850433 32.0 
329.989349 24.0 
330.217773 72.0 
331.219604 104.0 
331.566071 32.0 
331.693756 32.0 
332.204041 128.0 
332.425537 36.0 
332.57666 24.0 
332.800476 32.0 
333.188416 120.0 
333.577148 40.0 
333.833313 28.0 
333.938141 36.0 
334.256195 232.0 
334.462555 20.0 
335.244659 76.0 
335.500885 28.0 
336.833252 36.0 
337.722961 28.0 
338.051056 44.0 
338.183105 232.0 
338.566956 64.0 
339.186523 200.0 
340.046417 44.0 
340.199249 128.0 
341.205139 404.0 
341.481995 84.0 
341.894409 36.0 
342.207001 68.0 
342.64917 32.0 
342.826202 56.0 
343.211121 192.0 
343.84198 44.0 
343.960175 36.0 
344.243378 700.0 
344.923889 52.0 
345.24231 304.0 
345.97287 40.0 
346.215332 340.0 
346.340546 96.0 
346.459167 24.0 
346.660919 52.0 
347.217651 252.0 
352.189758 76.0 
352.548737 32.0 
353.205597 104.0 
354.22583 692.0 
355.222839 236.0 
355.913971 44.0 
356.234467 892.0 
356.665985 20.0 
357.009186 48.0 
357.221954 144.0 
357.677948 40.0 
358.227814 88.0 
358.643036 24.0 
359.252167 64.0 
360.262482 20.0 
360.83139 28.0 
361.861359 52.0 
361.97049 32.0 
362.067505 36.0 
362.251038 2908.0 
362.598083 44.0 
362.819916 124.0 
362.917053 48.0 
363.026367 32.0 
363.125305 28.0 
363.253082 556.0 
363.767609 44.0 
364.12027 28.0 
364.255096 228.0 
364.473114 24.0 
366.642517 148.0 
367.202148 48.0 
367.521851 48.0 
368.223572 272.0 
368.341064 28.0 
369.227295 240.0 
369.357208 28.0 
369.442963 40.0 
369.59613 40.0 
369.994507 80.0 
370.222534 64.0 
370.644653 44.0 
370.742828 60.0 
370.964966 84.0 
371.251129 1804.0 
371.688538 28.0 
371.836029 32.0 
372.057312 36.0 
372.249786 628.0 
372.500061 56.0 
372.717468 72.0 
373.240051 212.0 
373.756012 24.0 
374.051849 36.0 
374.247833 128.0 
374.372467 40.0 
374.754913 28.0 
374.853638 68.0 
374.98941 40.0 
375.236328 44.0 
375.680969 36.0 
376.459778 140.0 
378.863007 56.0 
379.83139 56.0 
385.267303 24.0 
385.980804 36.0 
386.236786 224.0 
387.244019 204.0 
387.59491 52.0 
387.748657 36.0 
388.250885 60.0 
388.439331 24.0 
388.812714 28.0 
388.89621 56.0 
389.005371 52.0 
389.260742 7232.0 
389.482788 32.0 
389.614288 44.0 
389.877441 44.0 
390.132263 80.0 
390.264618 1912.0 
390.489838 20.0 
390.729218 20.0 
390.918243 16.0 
391.260529 280.0 
391.674805 24.0 
391.775726 36.0 
391.995972 44.0 
392.282715 44.0 
392.760498 20.0 
393.240692 32.0 
393.480927 32.0 
394.708405 36.0 
395.265839 24.0 
395.532013 68.0 
396.953156 40.0 
397.715546 76.0 
398.516846 84.0 
399.089691 24.0 
400.045319 24.0 
402.369141 40.0 
406.998352 40.0 
407.564392 32.0 
411.240295 64.0 
411.938629 24.0 
413.972382 20.0 
415.608154 68.0 
416.570374 108.0 
417.064911 52.0 
419.254822 104.0 
420.626404 32.0 
422.563507 100.0 
427.544373 104.0 
432.647217 128.0 
441.629974 60.0 
443.373138 32.0 
444.904633 124.0 
445.052551 64.0 
450.085754 136.0 
450.89447 32.0 
485.846405 100.0 
499.599579 108.0 
520.371094 108.0 
527.476807 148.0 
528.311646 104.0 
537.819092 160.0 
541.298706 80.0 
541.550903 96.0 
569.311523 68.0 
595.088379 96.0 
603.546509 104.0 
608.127991 132.0 
618.182678 148.0 
640.748047 60.0 
653.265442 84.0 
653.982483 96.0 
657.769897 100.0 
667.813416 64.0 
694.951233 76.0 
699.782471 60.0 
713.661255 108.0 
727.831055 112.0 
766.651123 44.0 
818.544739 76.0 
949.496033 108.0 
953.310486 64.0 
1087.341187 68.0 
1134.613403 120.0 
1438.208008 104.0 
END IONS

