BEGIN IONS
PEPMASS=341.1
CHARGE=1+
COMPOUNDNAME=Dechlorogriseofulvin
LIBRARYQUALITY=3
SMILES=N/A
INCHIKEY=QPCYNIYZPDJCMB-UHFFFAOYSA-N
INCHI=InChI=1S/C17H18O6/c1-9-5-10(18)6-14(22-4)17(9)16(19)15-12(21-3)7-11(20-2)8-13(15)23-17/h6-9H,5H2,1-4H3
MSLEVEL=2
SOURCE_INSTRUMENT=N/A-ESI-QFT
FILENAME=library_mgf.mgf
SEQ=*..*
IONMODE=positive
ORGANISM=MONA
NAME=Dechlorogriseofulvin [M+Na]+
PI=MoNA
DATACOLLECTOR=MoNA:VF-NPL-QEHF000825
PUBMED=N/A
SUBMITUSER=mwang87
TAGS=
SPECTRUMID=CCMSLIB00004691888
SCANS=825
50.589375 1.822654 
50.992947 3.203423 
51.144024 2.908529 
51.262527 2.233315 
51.476242 2.499808 
51.625473 2.044839 
51.887119 2.708417 
54.670338 2.876284 
55.044964 2.349823 
55.055016 2.523153 
55.783745 2.847522 
55.93504 1.953125 
57.070625 21.097721 
57.446278 2.210156 
57.539509 0.751895 
57.598583 2.760942 
58.065788 1.308393 
58.367577 3.047995 
59.021488 1.297282 
59.061066 5.560723 
60.057117 1.755061 
60.081486 23.474766 
61.011333 62.405441 
61.38625 0.816551 
61.72905 0.823023 
62.019173 2.430933 
62.666683 2.332236 
62.884628 1.499563 
62.890476 2.460695 
62.990582 2.154821 
63.143265 2.988324 
63.195232 1.821063 
63.575687 3.106862 
65.963051 2.877164 
66.288452 2.841886 
66.910889 0.904301 
66.984062 0.843387 
67.054932 2.707207 
68.042015 0.985842 
68.549927 2.398086 
68.635994 2.623473 
68.732567 0.804543 
69.034088 1.140329 
69.070648 0.886386 
70.065926 2.740867 
70.958481 9.191886 
71.086067 1.924448 
71.560043 2.962205 
71.680756 0.754562 
72.158012 2.462298 
72.354553 2.944548 
72.598671 3.198277 
72.937759 14.933805 
73.021851 2.598908 
73.047348 1.455598 
73.493225 1.898767 
74.325676 2.783911 
74.362068 1.358876 
74.925407 1.372461 
75.865425 1.92221 
76.212196 2.252155 
76.213959 2.041961 
77.863869 1.024595 
78.013847 1.259202 
79.021774 16.76247 
79.280388 0.797294 
80.144432 2.987097 
81.070335 5.077291 
81.17765 2.85811 
81.508247 1.973348 
82.492172 0.994116 
82.730156 2.701036 
82.811714 0.693807 
83.798203 0.837263 
84.306808 2.506798 
84.681 0.819444 
85.271568 3.21475 
86.096687 0.778479 
87.044556 1.457269 
89.939911 0.915324 
90.948212 3.868086 
91.054527 6.05478 
91.057777 2.426725 
91.63327 2.798905 
92.05777 0.993093 
95.049591 2.479861 
95.086006 8.169492 
95.416962 0.911165 
97.657837 2.55339 
98.975739 16.972897 
100.461678 1.6764 
102.416611 0.826711 
103.03933 0.973207 
103.385674 2.596084 
103.682297 0.818629 
103.948433 0.880205 
104.419968 2.813106 
105.190849 2.452872 
106.049911 2.008854 
106.171883 0.879753 
107.085899 1.899698 
107.913658 2.713114 
108.251976 0.718682 
108.256668 0.894139 
110.07756 2.947201 
110.273743 2.173964 
110.569611 1.682848 
111.250999 3.102154 
111.320541 1.753626 
111.654182 2.355407 
111.760902 2.498751 
114.33094 3.051747 
118.135353 1.352153 
119.522987 0.874717 
120.042938 1.33518 
120.279137 1.384703 
120.94062 10.29714 
122.94075 1.742914 
123.575157 3.327448 
123.789795 2.053569 
124.823006 0.897252 
129.376923 3.442919 
134.777588 1.026177 
134.95607 22.309719 
134.985443 2.764566 
136.911285 2.898937 
139.393387 3.05268 
139.633804 0.859198 
140.784821 0.911838 
147.385254 2.515917 
148.971649 7.086768 
149.830734 3.253018 
149.971863 0.899351 
150.897919 0.849741 
150.950928 24.458132 
152.518097 2.402978 
152.951035 1.430872 
152.966949 3.525787 
153.148926 2.197156 
155.43837 2.760088 
156.333267 0.789652 
158.059952 2.29693 
160.380508 1.303495 
163.333511 1.997857 
163.719666 2.7018 
166.242249 0.866386 
168.833923 2.751163 
168.961151 1.171244 
169.430481 2.681635 
170.059769 1.04583 
171.058365 2.804626 
171.067612 60.908913 
180.88797 8.02231 
180.943359 0.847598 
186.387711 0.98905 
187.062714 4.212522 
188.103104 2.446609 
192.06398 0.957312 
193.294281 2.012123 
194.457336 1.571374 
196.903244 1.724544 
202.086075 63.085751 
203.686432 0.842542 
203.800323 2.140328 
204.775467 2.214051 
204.888275 0.935852 
206.533295 3.206116 
206.925751 1.235967 
209.876892 1.441439 
219.951614 2.550936 
220.035873 8.022975 
220.048981 8.480913 
220.539902 1.085865 
220.902939 1.477919 
221.236191 0.765313 
221.902237 0.996154 
222.898438 82.530205 
223.925659 1.030877 
227.145508 2.779225 
228.63269 2.887948 
229.896088 1.357229 
231.166565 3.306002 
232.903778 2.714816 
234.225464 2.778853 
238.913147 3.999409 
239.900696 1.258446 
240.909164 76.676926 
241.912125 0.760062 
242.23558 2.510591 
242.519165 1.876874 
242.750336 2.705291 
248.325897 2.682928 
248.495758 2.946374 
250.808609 1.949154 
254.761932 2.706627 
257.790863 2.302845 
262.540466 1.72588 
267.164001 2.925497 
275.649109 2.921067 
280.096008 3.597033 
296.128204 2.34722 
306.29657 0.866459 
308.091125 8.201906 
314.151825 3.048617 
324.122345 100.0 
325.126068 10.530354 
325.535278 3.055648 
329.108887 3.17689 
334.59671 3.325136 
348.182373 1.517494 
358.28598 2.946313 
360.090637 0.87806 
361.648041 0.754771 
362.861603 2.330437 
END IONS

