BEGIN IONS
PEPMASS=407.221
CHARGE=1+
COMPOUNDNAME=Massbank:UF410504 Lincomycin
LIBRARYQUALITY=3
SMILES=CCC[C@@H]1C[C@H](N(C)C1)C(=O)N[C@H]([C@@H](C)O)[C@H]1O[C@H](SC)[C@H](O)[C@@H](O)[C@H]1O
INCHIKEY=OJMMVQQUTAEWLP-KIDUDLJLSA-N
INCHI=1S/C18H34N2O6S/c1-5-6-10-7-11(20(3)8-10)17(25)19-12(9(2)21)16-14(23)13(22)15(24)18(26-16)27-4/h9-16,18,21-24H,5-8H2,1-4H3,(H,19,25)/t9-,10-,11+,12-,13+,14-,15-,16-,18-/m1/s1
MSLEVEL=2
SOURCE_INSTRUMENT=ESI-LC-ESI-ITFT
FILENAME=Massbank_ESI_positive_8_1_2014_peaks.mgf
SEQ=*..*
IONMODE=Positive
ORGANISM=MASSBANK
NAME=Massbank:UF410504 Lincomycin [M+H]+
PI=Putative Massbank Match
DATACOLLECTOR=Massbank
PUBMED=N/A
SUBMITUSER=mwang87
TAGS=
SPECTRUMID=CCMSLIB00000223747
SCANS=11879
126.1276 149943.5 
172.1331 10019.0 
216.0864 2086.0 
234.0965 3604.1 
287.196 1923.8 
299.1965 21071.2 
317.2071 16072.7 
341.2071 14333.0 
359.2174 445040.9 
371.1998 7962.2 
389.2106 189078.8 
END IONS

