BEGIN IONS
PEPMASS=197.006
CHARGE=1+
COMPOUNDNAME=Aconitic Acid
LIBRARYQUALITY=3
SMILES=N/A
INCHIKEY=GTZCVFVGUGFEME-IWQZZHSRSA-N
INCHI=InChI=1S/C6H6O6/c7-4(8)1-3(6(11)12)2-5(9)10/h1H,2H2,(H,7,8)(H,9,10)(H,11,12)/b3-1-
MSLEVEL=2
SOURCE_INSTRUMENT=N/A-ESI-QFT
FILENAME=library_mgf.mgf
SEQ=*..*
IONMODE=positive
ORGANISM=MONA
NAME=Aconitic Acid [M+Na]+
PI=MoNA
DATACOLLECTOR=MoNA:VF-NPL-QEHF026292
PUBMED=N/A
SUBMITUSER=mwang87
TAGS=
SPECTRUMID=CCMSLIB00004717355
SCANS=26292
50.194725 0.041763 
50.306789 0.088879 
50.367378 0.074819 
50.943333 0.043481 
51.532162 0.102635 
51.601997 0.039631 
51.756603 0.05924 
51.940327 0.951503 
53.002544 0.494784 
53.03891 2.016631 
53.158916 0.070669 
53.234112 0.055572 
53.362564 0.046752 
53.455429 0.083247 
53.539761 0.044026 
54.046825 0.039903 
54.123623 0.074192 
54.809299 0.088816 
55.018192 10.905465 
55.054577 72.750595 
55.056072 0.563069 
55.26202 0.042798 
55.771259 0.05213 
55.885265 0.071406 
55.934761 0.510694 
55.936798 0.039908 
56.031796 0.105365 
56.049805 7.760612 
56.057869 1.577507 
56.386578 0.101924 
56.942471 0.394527 
56.965111 0.312939 
57.033787 1.384465 
57.070206 22.224567 
57.118649 0.07411 
57.461521 0.038958 
57.854561 0.089 
57.935097 16.323732 
58.065403 2.837433 
58.073498 0.079499 
58.223984 0.107637 
58.390594 0.08426 
58.932941 14.051254 
59.049431 0.049955 
59.115479 0.110137 
59.551315 0.059288 
59.930504 28.88032 
60.044571 0.281532 
60.293613 0.038339 
60.930641 0.045513 
60.965614 0.060358 
61.010929 38.761436 
61.928013 1.62633 
62.014263 0.455747 
62.018726 18.173599 
62.064358 0.139087 
62.957813 0.061809 
62.98196 1.845328 
63.006649 1.648659 
64.014381 0.076202 
65.038765 0.360344 
65.588692 0.097246 
66.47142 0.044776 
67.054405 46.138824 
67.056488 0.08728 
67.213455 0.053635 
67.526421 0.044472 
68.049507 0.198247 
68.057701 1.569517 
68.235931 0.056449 
68.439064 0.094515 
69.033623 0.751063 
69.044792 0.281717 
69.067955 0.365136 
69.070007 52.385838 
69.529907 0.083391 
70.065262 14.8221 
70.073303 1.322877 
70.957916 0.256941 
71.049232 1.824763 
71.085594 5.643389 
71.929222 0.107822 
72.044449 3.091168 
72.080841 3.887388 
72.937187 3.136083 
72.958298 0.612747 
73.649902 0.047285 
73.812195 0.066495 
73.956184 47.212509 
73.958824 0.073341 
74.096443 0.049429 
74.124031 0.052844 
74.953751 2.670315 
75.10363 0.086509 
75.925301 0.089662 
75.935463 14.00956 
75.945435 5.962647 
76.933029 0.377433 
76.943253 0.418947 
77.922905 0.116197 
77.94091 12.726265 
79.021301 9.386674 
79.054306 21.112606 
80.049446 0.139122 
80.057655 0.238432 
80.413559 0.070194 
81.033356 0.041666 
81.069954 60.864315 
81.072823 0.33975 
81.647293 0.084929 
81.932091 0.118655 
82.065163 3.599482 
82.073257 3.340766 
82.693916 0.081158 
83.049194 2.636071 
83.06041 2.24719 
83.085587 33.013626 
83.814713 0.106121 
84.044487 38.822044 
84.080856 12.769135 
84.088966 0.488007 
84.707619 0.051799 
85.047798 0.914102 
85.064842 2.335563 
85.101181 0.348036 
86.032722 0.039108 
86.060127 7.594245 
86.096481 1.029375 
87.490128 0.076014 
88.396706 0.129742 
88.968544 0.104052 
89.059792 2.74402 
89.167732 0.082125 
89.487869 0.0474 
89.951263 0.347659 
90.904816 0.722944 
90.947617 0.755331 
91.054337 11.164342 
91.912552 0.915832 
91.966759 8.854638 
92.964523 0.075767 
93.069984 21.476156 
93.946007 4.588254 
93.955956 2.748534 
94.065155 0.326443 
94.073334 0.436148 
94.332397 0.117814 
94.953865 0.046777 
94.995392 0.112811 
95.049126 1.456997 
95.085602 62.534061 
95.951477 8.644011 
96.044411 0.125573 
96.080795 4.82099 
96.088905 3.935471 
96.905708 0.112307 
97.064903 9.771794 
97.10128 9.879395 
98.060158 7.310081 
98.096497 4.912094 
98.596832 0.043503 
99.07206 0.044482 
99.080482 0.521295 
100.075722 6.205578 
100.112183 0.117228 
102.604736 0.062374 
102.914673 0.260564 
102.958893 0.227803 
103.912643 0.855608 
104.910271 2.665619 
104.920341 1.043743 
104.930588 0.260647 
105.044907 0.097062 
105.069939 6.674044 
105.571007 0.117676 
105.917175 0.073661 
105.928192 1.194873 
106.637917 0.043376 
106.907555 0.090964 
106.92588 1.935029 
107.073082 0.043516 
107.085587 8.975091 
107.951347 0.237992 
108.080803 0.22965 
108.409607 0.073206 
108.915276 0.219726 
109.064857 1.581025 
109.097183 0.089645 
109.10125 7.217304 
110.060211 0.04749 
110.071426 0.329252 
110.096504 0.892883 
111.080475 4.529987 
111.116982 0.074283 
111.341118 0.043038 
112.075615 0.430222 
112.112015 1.268412 
114.016884 0.065667 
114.091339 1.944664 
114.899498 0.094438 
118.92485 0.158855 
118.947487 0.131828 
119.085663 8.217718 
119.951332 0.164904 
120.089134 0.096552 
120.915215 0.082317 
120.940544 0.615516 
121.084267 0.043394 
121.101219 3.881037 
121.312164 0.097681 
121.923126 2.745741 
121.968246 0.048347 
122.060074 0.050382 
122.09655 0.148051 
122.920761 0.256704 
122.930992 5.860776 
122.940857 3.135966 
123.08036 1.781065 
123.938866 7.182646 
124.075645 0.091347 
124.11216 0.410227 
124.936523 12.403403 
124.946648 1.22411 
125.096245 0.266174 
125.93631 0.098646 
126.091354 0.608453 
126.450134 0.038663 
126.933739 0.102605 
128.107483 0.077453 
128.573639 0.041742 
129.983978 0.073289 
130.000031 0.113256 
130.631699 0.063745 
130.797012 0.123518 
131.873245 0.056756 
133.101181 3.708889 
134.09613 0.075915 
134.956299 2.534839 
135.116837 2.669692 
135.956635 29.593159 
135.96579 0.249941 
136.920837 0.090603 
136.946716 0.504631 
136.954132 5.637236 
136.959274 0.071109 
136.970016 0.10831 
137.011795 0.464 
137.07048 0.054653 
137.096268 0.572327 
137.132523 0.972382 
137.928055 5.174099 
137.944275 0.40779 
137.962036 1.157009 
138.091553 0.068276 
138.127762 0.579256 
138.925919 4.61378 
138.935913 1.004106 
138.951599 0.280775 
139.123077 0.332973 
139.923584 16.121836 
139.933578 0.754572 
140.028458 0.124142 
140.106995 0.69641 
140.143448 0.044632 
140.931168 4.115147 
140.971375 0.117527 
141.920731 0.418488 
141.949371 0.279715 
142.159027 0.085938 
142.701965 0.121209 
142.947342 0.127899 
144.57782 0.153783 
145.557373 0.050297 
146.764084 0.136576 
149.132599 2.743759 
150.12886 0.068188 
150.951126 1.854568 
151.970154 8.376171 
152.144089 0.043419 
152.951508 0.381824 
152.968689 3.393687 
153.127258 0.048202 
153.959335 13.828802 
153.966995 35.397079 
154.123489 0.101891 
154.946976 4.830076 
154.957153 17.789459 
154.964401 11.703593 
155.048599 0.060989 
155.954742 56.394951 
156.946289 1.638128 
156.954193 1.165106 
157.95195 5.190517 
158.941864 3.423451 
161.132538 2.464601 
161.610168 0.078701 
161.709686 0.079359 
162.01387 0.086815 
162.135513 0.071238 
163.523239 0.11144 
164.070755 0.126689 
164.107513 0.063188 
164.470566 0.042209 
164.706436 0.101526 
165.171707 0.072484 
167.356445 0.062881 
168.174255 0.116879 
168.936554 12.31211 
169.088913 0.050848 
169.934875 0.051698 
169.98053 0.287698 
170.623245 0.089523 
170.932129 0.120598 
171.702957 0.042937 
171.91333 0.311751 
171.977356 0.455269 
172.001999 0.107754 
172.506897 0.111849 
172.957672 0.584669 
172.975204 0.103651 
178.019745 0.138027 
178.159195 4.231554 
178.305252 0.051897 
179.143173 0.12512 
179.161667 0.052278 
180.937439 0.095858 
183.536362 0.046898 
185.8573 0.08533 
185.949051 2.600071 
186.938217 0.206628 
186.947052 28.40188 
187.944626 12.152455 
188.291428 0.060037 
188.943146 0.368472 
189.941589 0.190483 
195.157471 1.648635 
196.112457 0.122659 
196.169769 100.0 
196.821014 0.054926 
197.173096 13.997851 
198.127869 0.565915 
198.175873 1.386215 
198.18541 30.01029 
198.947052 0.134518 
199.188339 0.238117 
200.429291 0.079842 
210.744568 0.110524 
211.969528 0.104972 
214.86084 0.09029 
219.519196 0.862035 
219.526932 0.921622 
219.553085 0.074786 
END IONS

