BEGIN IONS
PEPMASS=1898.53
CHARGE=1+
COMPOUNDNAME=Teichomycin
LIBRARYQUALITY=3
SMILES=N/A
INCHIKEY=BJNLLBUOHPVGFT-QRZIFLFXSA-N
INCHI=InChI=1S/C88H97Cl2N9O33/c1-3-4-5-6-7-8-9-10-60(108)94-68-74(113)71(110)58(32-101)129-87(68)132-78-55-26-40-27-56(78)126-52-18-14-38(24-47(52)90)77(131-86-67(92-34(2)103)73(112)70(109)57(31-100)128-86)69-84(121)98-66(85(122)123)45-29-42(105)30-54(127-88-76(115)75(114)72(111)59(33-102)130-88)61(45)44-23-37(13-15-49(44)106)63(81(118)99-69)96-83(120)65(40)97-82(119)64-39-21-41(104)28-43(22-39)124-53-25-36(12-16-50(53)107)62(91)80(117)93-48(79(116)95-64)20-35-11-17-51(125-55)46(89)19-35/h11-19,21-30,48,57-59,62-77,86-88,100-102,104-107,109-115H,3-10,20,31-33,91H2,1-2H3,(H,92,103)(H,93,117)(H,94,108)(H,95,116)(H,96,120)(H,97,119)(H,98,121)(H,99,118)(H,122,123)/t48-,57-,58-,59-,62-,63-,64+,65-,66-,67-,68-,69+,70-,71-,72-,73-,74-,75+,76+,77-,86+,87+,88+/m1/s1
MSLEVEL=2
SOURCE_INSTRUMENT=N/A-ESI-QFT
FILENAME=library_mgf.mgf
SEQ=*..*
IONMODE=positive
ORGANISM=MONA
NAME=Teichomycin [M+Na]+
PI=MoNA
DATACOLLECTOR=MoNA:VF-NPL-QEHF027952
PUBMED=N/A
SUBMITUSER=mwang87
TAGS=
SPECTRUMID=CCMSLIB00004721533
SCANS=27952
131.782089 0.025571 
132.218399 0.017451 
135.116684 0.182217 
136.331619 0.022774 
137.132416 0.920663 
137.751755 0.017066 
137.773499 0.021739 
138.054901 72.000114 
138.666733 0.021162 
139.052536 0.282145 
139.058212 6.029629 
140.060516 0.05172 
140.070648 0.068473 
141.069946 0.041908 
144.06543 100.0 
145.062805 0.336634 
145.068741 6.991496 
146.06987 0.488916 
147.091843 0.023813 
148.952759 0.019225 
150.768509 0.019226 
151.148071 0.026043 
152.497467 0.021426 
153.214462 0.019638 
155.143066 0.079391 
157.902252 0.025838 
159.306076 0.018624 
160.561935 0.018972 
162.075836 0.77324 
162.410522 0.016431 
168.065369 12.768135 
169.069061 0.888162 
170.067932 0.015082 
171.922592 0.02319 
172.169418 1.39885 
173.302521 0.017251 
173.568069 0.020651 
181.986649 0.020217 
183.651184 0.01615 
186.075897 9.096757 
186.084702 0.063253 
186.090836 0.027619 
186.18515 0.543601 
187.07933 0.830901 
187.189316 0.023551 
188.303009 0.018534 
195.186554 0.019045 
195.425156 0.021335 
195.71608 0.017723 
197.059586 1.002198 
204.086517 11.802031 
205.089981 1.049855 
206.091202 0.044938 
210.184845 0.058586 
212.070694 0.24066 
213.00238 0.016126 
213.054382 0.488176 
214.086121 0.182149 
215.070038 2.727899 
216.073563 0.209401 
221.742538 0.014677 
224.070709 0.165084 
225.054977 0.039249 
225.078384 0.021027 
227.070358 0.099179 
228.642441 0.017252 
229.330109 0.017735 
236.164276 0.276781 
238.180038 2.212996 
239.081238 0.091853 
239.18338 0.172035 
240.065414 4.393209 
240.146179 0.016376 
241.049133 0.052223 
241.069229 0.518439 
241.096939 0.401844 
242.080948 11.010962 
243.084534 1.751865 
244.0793 0.066517 
248.164169 1.746516 
248.888229 0.024827 
249.167358 0.071551 
250.04509 0.025598 
250.179962 22.698879 
251.183411 3.674316 
252.06517 0.355304 
252.195938 0.87217 
253.049347 0.677488 
254.055252 0.020723 
254.080399 0.022504 
255.969879 0.019986 
257.091736 3.202838 
258.095276 0.295025 
259.107727 1.420383 
260.11084 0.017651 
262.179962 0.105747 
264.195587 8.918589 
264.692444 0.018219 
265.199005 2.039517 
266.201447 0.090551 
268.060364 1.00638 
269.043793 0.08722 
269.090942 0.017727 
270.075836 0.188681 
271.060883 0.029565 
278.17395 0.02692 
278.579315 0.024733 
280.060028 0.192519 
280.190552 1.117077 
281.090759 0.070391 
282.075836 0.127349 
285.086578 2.280455 
286.070892 1.497833 
286.088257 0.319412 
287.073914 0.049833 
288.902374 0.017402 
290.967041 0.021999 
294.20575 0.130791 
295.071075 0.112601 
296.056458 0.020285 
296.185486 0.390892 
297.087463 0.073742 
298.201019 5.061933 
298.219727 0.025852 
298.380707 0.019706 
299.102386 0.777248 
299.204437 0.810876 
300.105316 0.023664 
303.097168 9.689595 
304.100739 1.881995 
304.16272 0.07535 
304.188507 0.13155 
308.054962 0.245807 
312.216461 1.576543 
313.21991 0.214076 
314.065704 0.222667 
314.196655 0.021794 
316.211578 1.731166 
317.214783 0.085188 
317.589783 0.023368 
321.083038 0.031988 
324.097687 0.213457 
325.082245 0.094079 
329.076538 10.74658 
330.079712 2.174718 
330.227478 0.326727 
331.082062 0.135565 
332.076752 0.055666 
338.111084 1.063655 
342.10849 0.822834 
342.851227 0.020855 
343.091949 0.996417 
343.112915 0.053897 
344.094208 0.037543 
348.681488 0.02605 
349.078339 0.054096 
352.367371 0.024623 
356.20166 0.018812 
360.11853 1.645906 
361.121094 0.16565 
363.957397 0.017204 
365.042908 0.021896 
365.074677 0.546376 
366.105591 2.199859 
367.088654 0.104342 
367.111816 0.067759 
375.861481 0.023059 
378.485168 0.015967 
382.100464 0.250098 
391.144836 0.020891 
396.8237 0.018381 
406.270721 0.018803 
410.095856 0.271971 
426.955475 0.018078 
441.219177 0.018367 
443.142395 0.105661 
483.137329 0.021011 
483.899872 0.021564 
486.095093 0.01918 
492.049622 0.028106 
500.162628 0.070144 
510.578094 0.019805 
528.15863 0.212825 
544.150024 0.02932 
553.293884 0.021618 
553.491333 0.015429 
554.653687 0.022038 
572.073364 0.018751 
572.393616 0.051669 
584.388489 0.069505 
586.315857 0.019274 
587.657166 0.017359 
590.40448 0.17236 
595.336365 0.017046 
603.990295 0.022349 
613.019531 0.030427 
651.473022 0.023143 
671.90686 0.017819 
676.967651 0.026154 
689.093506 0.027015 
691.109924 0.024516 
705.087646 0.027102 
706.111328 0.57546 
707.117554 0.059124 
707.29895 0.023427 
708.108948 0.42454 
709.116089 0.08475 
710.111389 0.244104 
713.634216 0.03981 
713.682129 0.067502 
713.784119 0.093679 
713.851074 0.145152 
713.899841 0.100262 
716.100098 0.060727 
717.093323 0.023919 
718.10321 0.12269 
719.087585 0.023893 
721.12262 0.036843 
722.106445 0.133411 
723.13269 0.131722 
724.106201 0.052189 
725.136108 0.043426 
727.075439 0.014871 
729.254395 0.017585 
732.095276 0.083494 
733.113892 0.118971 
734.104675 0.922284 
735.110168 0.314074 
736.105774 0.575735 
737.115051 0.25023 
738.105042 0.614852 
739.111938 0.079192 
740.101257 0.263063 
744.085938 0.050333 
745.201294 0.017877 
746.090088 0.043861 
747.102539 0.013984 
748.095642 0.057894 
749.118591 0.335898 
750.109863 0.193711 
751.131042 1.24542 
751.616821 0.019111 
752.132324 0.5591 
753.130249 1.038973 
754.134521 0.296584 
755.129395 0.187219 
756.126831 0.046614 
758.643005 0.01672 
759.106201 0.025587 
760.086792 0.299119 
761.111877 0.637315 
762.102112 0.611705 
763.119385 0.477164 
764.104248 0.279149 
765.124817 0.289943 
766.107178 0.067384 
767.120728 0.129558 
768.098145 0.029504 
769.130005 0.022503 
777.112854 2.301228 
778.11615 1.025094 
779.116943 1.805502 
780.115967 0.780566 
781.121643 0.764284 
782.12561 0.108617 
783.121521 0.198294 
784.12677 0.037154 
785.12262 0.166819 
786.115356 0.016776 
787.102417 0.154522 
788.079651 0.466636 
789.111938 1.544276 
790.105713 0.514266 
791.110168 0.9912 
792.110046 0.243243 
793.113098 0.078928 
795.120117 0.067044 
796.141357 0.067265 
799.140991 0.019917 
801.106323 0.03712 
802.141479 0.054641 
803.105408 0.023393 
805.107178 4.207126 
806.046753 0.46588 
806.115845 1.118668 
807.108948 1.998481 
808.053589 0.398054 
808.114441 0.592133 
809.115112 0.317369 
815.085876 0.025203 
816.12207 0.153314 
817.099609 0.059916 
818.135925 0.387552 
819.139282 0.093411 
820.132019 0.031182 
822.134583 0.166874 
823.082153 0.202078 
824.127441 0.078577 
825.105591 0.063543 
826.080444 0.028484 
829.088989 0.022956 
832.117126 1.157181 
832.201782 0.017616 
833.103394 2.824679 
834.112793 1.745526 
835.10144 1.523919 
836.106995 0.639746 
837.104065 0.254535 
843.141113 0.02877 
844.123901 0.048201 
845.136963 0.020178 
846.131836 0.258279 
849.066345 0.880357 
850.129211 2.106432 
851.058289 0.295914 
851.130615 0.60219 
852.124695 0.853898 
853.059509 0.018885 
853.128296 0.184257 
861.138428 0.024634 
862.129456 0.083172 
863.13501 0.029689 
864.140198 0.053256 
866.089844 0.255962 
867.076477 0.297969 
868.08197 0.151455 
868.389709 0.015773 
869.072876 0.091366 
879.141602 0.024393 
884.098938 0.043353 
886.094482 0.024381 
892.1203 0.027386 
901.123047 0.026405 
911.861145 0.023173 
917.134949 0.025611 
924.198425 0.024321 
929.163391 0.020562 
930.154846 0.052786 
931.154419 0.020657 
932.153137 0.022778 
934.15979 0.036446 
941.153625 0.021892 
942.146423 0.046141 
943.159363 0.026741 
945.13623 0.025122 
946.158813 0.122799 
948.174255 0.034077 
949.175903 0.026506 
956.142395 0.16937 
957.162842 0.285012 
958.148926 0.488104 
959.159485 0.460028 
960.151306 0.307643 
961.159302 0.119088 
962.159363 0.111753 
968.15033 0.028667 
972.109863 0.023905 
973.161499 0.490528 
974.167908 0.308147 
975.166138 0.744597 
976.176819 0.270381 
977.173828 0.309432 
978.174683 0.133009 
978.50824 0.019408 
979.168091 0.021697 
980.335449 0.02692 
984.138062 0.112565 
985.158997 0.500506 
986.157593 0.490724 
987.157593 0.50231 
988.164734 0.256645 
989.158936 0.235556 
990.179321 0.267725 
991.177734 0.321865 
992.185608 0.454201 
993.181274 0.266943 
994.190308 0.193363 
995.175659 0.021833 
997.136292 0.026308 
1000.170288 0.062036 
1001.158081 1.076306 
1002.170715 1.193957 
1003.166138 1.371355 
1004.175415 1.210857 
1005.170715 0.706552 
1006.177246 0.365546 
1007.179688 0.219305 
1008.19104 0.15077 
1009.203613 0.1209 
1010.200439 0.083847 
1011.129822 0.028347 
1013.153198 0.166413 
1014.150146 0.157614 
1015.148682 0.100131 
1016.160583 0.15947 
1017.156494 0.225437 
1018.179871 1.17809 
1019.180298 1.109122 
1020.187927 1.364934 
1021.190857 1.1707 
1022.193298 0.874199 
1023.201355 0.330231 
1024.191895 0.110361 
1025.193481 0.031028 
1026.196655 0.028656 
1027.132324 0.023881 
1028.168091 0.20237 
1029.155396 0.943601 
1030.168091 1.125127 
1031.16333 1.144001 
1032.169922 0.865454 
1033.168579 0.453139 
1034.17627 0.594439 
1035.192017 0.560609 
1036.189575 1.126509 
1037.207153 1.40997 
1038.198364 1.092045 
1039.203369 0.546234 
1040.204468 0.177878 
1041.117432 0.043693 
1041.206055 0.026003 
1042.174072 0.100063 
1043.141968 0.074643 
1044.17334 0.129493 
1045.152466 0.622651 
1046.179199 1.462385 
1047.178955 1.363136 
1048.18335 1.574377 
1049.181396 1.153126 
1050.184448 0.771069 
1051.192871 0.370851 
1052.187012 0.325252 
1053.207031 0.375375 
1054.200928 0.251483 
1055.214844 0.072717 
1056.163208 0.1568 
1057.150146 0.934396 
1058.151123 0.603056 
1059.148071 0.442655 
1060.16687 0.270388 
1061.174438 0.125893 
1062.179443 1.449896 
1063.190918 1.701783 
1064.192627 2.267652 
1065.203125 2.713009 
1066.202148 1.781643 
1067.200195 1.190531 
1068.189575 0.301589 
1069.199463 0.240171 
1070.167847 0.334702 
1071.177856 0.31442 
1072.165283 0.633498 
1073.15564 0.808751 
1074.174683 2.77073 
1075.181152 1.800753 
1076.176758 1.952193 
1077.177734 1.192387 
1078.174194 0.552214 
1079.197998 1.180991 
1080.196289 1.886408 
1081.205322 2.38905 
1082.203735 2.139851 
1083.211548 1.572404 
1084.200317 0.854713 
1085.193115 1.006483 
1086.164429 0.886347 
1087.194214 0.982216 
1088.176392 0.537289 
1089.189453 0.536089 
1090.17688 1.808744 
1091.18689 2.10178 
1092.180176 2.303372 
1093.187744 1.993982 
1094.182617 1.336121 
1095.184326 0.560372 
1096.161865 0.571128 
1097.212646 1.783237 
1098.212036 1.250757 
1099.213867 1.797029 
1100.200928 1.124599 
1101.188599 0.631303 
1102.185547 0.746022 
1103.195557 1.359516 
1104.213623 0.880796 
1105.08667 0.019848 
1105.206177 0.807518 
1106.109741 0.04212 
1106.216797 0.320661 
1107.200928 2.187275 
1108.195923 2.569766 
1109.199829 3.656252 
1110.19812 2.763633 
1111.20459 2.094689 
1112.196411 1.160075 
1113.187866 2.932793 
1114.171021 2.857545 
1115.187378 2.705389 
1116.174561 1.758043 
1117.181396 1.251742 
1118.170166 1.39425 
1119.17334 1.151306 
1120.169556 0.859857 
1121.174805 0.425039 
1122.177734 0.139088 
1123.178711 0.140847 
1124.189453 0.04246 
1125.211426 6.37966 
1126.214355 4.586867 
1127.209229 6.179266 
1128.213013 3.759963 
1129.206543 2.318353 
1130.209839 3.064195 
1131.199219 6.54853 
1132.204712 3.780428 
1133.198242 2.920666 
1134.196289 1.535131 
1135.196045 2.114577 
1136.193604 1.544253 
1137.193115 1.686337 
1138.185913 1.061048 
1139.178955 0.707655 
1140.159668 0.35271 
1141.177979 1.794696 
1142.176025 1.147628 
1143.176025 0.991814 
1144.182861 0.459871 
1145.178955 0.257367 
1146.190918 0.753156 
1147.193359 1.782846 
1148.223267 4.22314 
1149.222778 1.863372 
1150.219116 1.613282 
1151.218628 0.675471 
1152.216919 0.269202 
1153.20813 2.288191 
1154.208008 1.46309 
1155.207275 2.093384 
1156.200928 1.33689 
1157.159424 3.442165 
1158.181152 8.427559 
1159.187622 11.710986 
1160.190308 7.060685 
1161.189575 5.392821 
1162.190918 2.732231 
1163.175293 2.173847 
1164.177246 1.109648 
1165.161377 0.972811 
1166.167358 0.416818 
1167.162964 0.184509 
1170.228394 0.030458 
1173.145508 0.100063 
1174.189697 3.936986 
1175.185425 22.391491 
1176.213135 38.159519 
1177.208862 19.460735 
1178.21167 15.233776 
1179.213135 7.526382 
1180.211304 3.906021 
1181.209595 1.479636 
1182.201538 0.388154 
1183.192627 0.030488 
1185.161499 0.344392 
1186.165405 0.222967 
1187.168091 0.397828 
1188.199585 0.375316 
1189.192139 0.287132 
1190.202026 0.334242 
1191.17041 0.524396 
1192.212036 12.870911 
1193.216309 6.207213 
1194.212402 5.696071 
1195.213989 2.860612 
1196.211304 1.44238 
1197.214478 0.323693 
1201.137695 0.054282 
1202.191528 1.173948 
1203.183594 2.318896 
1204.192749 1.921206 
1205.187012 1.377594 
1206.193115 0.741679 
1207.199341 0.175899 
1208.179077 0.116639 
1209.175049 0.056652 
1210.201172 0.037296 
1211.126709 0.023151 
1212.134644 0.048057 
1218.160767 0.934833 
1219.167969 1.076848 
1220.207764 13.205072 
1221.211914 6.22842 
1222.207397 5.526245 
1223.20813 2.880947 
1224.206177 1.313402 
1225.208008 0.355541 
1236.168823 0.133749 
1237.155518 0.064127 
1238.15564 0.027379 
1240.111816 0.025253 
1248.250244 0.032926 
1250.242798 0.035131 
1265.26416 0.03511 
1277.253296 0.071157 
1289.284912 0.03455 
1290.281128 0.133718 
1291.275269 0.124916 
1292.267822 0.357908 
1293.253296 0.755241 
1294.265381 0.523614 
1295.264648 0.125315 
1296.269409 0.053123 
1297.254272 0.044123 
1303.229492 0.035191 
1306.278198 0.570277 
1307.302246 1.235393 
1308.300171 0.841975 
1309.289307 0.493363 
1310.27417 2.071877 
1311.274902 0.966745 
1312.275391 0.865324 
1313.274414 0.191633 
1314.281494 0.053154 
1317.250854 0.076877 
1318.271484 0.420695 
1319.255981 0.28031 
1320.25708 1.544718 
1321.250122 1.820195 
1322.253296 1.241038 
1323.266846 1.042007 
1324.276245 0.525762 
1325.275513 0.042704 
1326.278687 0.033337 
1333.268555 0.032439 
1334.275391 1.689658 
1335.291016 1.683845 
1336.278809 1.373429 
1337.245972 1.599983 
1338.27002 9.007573 
1339.272095 4.845908 
1340.268799 4.34883 
1341.268799 2.230126 
1342.267334 1.079076 
1343.267212 0.315042 
1344.266846 0.060119 
1350.272217 0.678305 
1351.301147 2.666205 
1352.296875 1.422433 
1353.291382 1.05577 
1354.270142 2.865255 
1355.268799 1.62473 
1356.264893 1.359284 
1357.271118 0.59926 
1358.266846 0.198579 
1361.271606 0.325687 
1362.269043 3.319197 
1363.273438 1.850686 
1364.264404 2.183015 
1365.256958 1.605001 
1366.251709 1.039883 
1367.258667 0.521196 
1368.263062 0.163004 
1369.244507 0.028294 
1377.280273 0.209912 
1378.270142 2.38263 
1379.295654 20.746037 
1380.299316 11.335318 
1381.297363 9.616625 
1382.270752 12.784929 
1383.273804 7.304154 
1384.263916 5.818768 
1385.262695 2.969593 
1386.256348 1.400009 
1387.261841 0.427469 
1388.248291 0.055831 
1394.275024 0.080633 
1395.289062 2.476423 
1396.287842 1.353279 
1397.284424 1.234785 
1398.288452 0.517467 
1400.286255 0.032201 
1405.281006 0.520902 
1406.270874 0.766141 
1407.270752 0.408567 
1408.27063 0.357205 
1423.286865 6.896825 
1424.289429 4.23931 
1425.287598 4.181586 
1426.286865 2.214371 
1427.284424 1.082195 
1428.293457 0.265803 
1439.265015 0.02774 
1469.355225 0.069448 
1485.358398 0.036773 
1496.332153 0.121394 
1497.349609 0.118808 
1498.345703 0.039553 
1499.334839 0.039369 
1513.351074 0.743749 
1514.347778 0.448163 
1515.355103 0.274913 
1516.354126 0.048579 
1524.321777 0.578463 
1525.331421 0.29974 
1526.320801 0.281237 
1527.305908 0.030424 
1540.319824 0.204439 
1541.348267 7.973846 
1542.351929 5.1421 
1543.349854 4.760143 
1544.348389 2.781868 
1545.347412 1.409316 
1546.348145 0.293123 
1547.354614 0.039614 
1557.339355 0.451262 
1558.349121 0.155105 
1559.321289 0.036434 
1560.355103 0.03373 
1567.326904 0.387901 
1568.323242 0.535701 
1569.31897 0.391695 
1570.328247 0.305142 
1585.340454 8.021169 
1586.341797 5.714886 
1587.341431 5.81178 
1588.340698 3.503161 
1589.339722 1.773259 
1590.336792 0.821955 
1591.340698 0.036975 
1807.170654 0.456999 
1808.174316 0.572397 
1809.171143 0.475164 
1810.151123 0.024395 
1821.730225 0.02593 
1896.223755 0.061052 
1897.220459 2.165705 
1897.688477 0.039113 
1898.219238 2.798562 
1899.217407 2.179661 
1900.216675 0.78091 
END IONS

