BEGIN IONS
PEPMASS=461.156
CHARGE=1+
COMPOUNDNAME=Massbank: Oxytetracycline
LIBRARYQUALITY=3
SMILES=[H]OC(N([H])[H])=C(C(=O)4)C(=O)C(O[H])(C(=O)3)C([H])(C([H])(N(C([H])([H])[H])C([H])([H])[H])4)C([H])(O[H])C([H])(C=13)C(O[H])(C([H])([H])[H])c(c([H])2)c(c(O[H])c([H])c([H])2)C(O[H])1
INCHIKEY=FYDOORKXBWEKQM-UHFFFAOYSA-N
INCHI=1S/C22H24N2O9/c1-21(32)7-5-4-6-8(25)9(7)15(26)10-12(21)17(28)13-14(24(2)3)16(27)11(20(23)31)19(30)22(13,33)18(10)29/h4-6,12-14,17,25-26,28,31-33H,23H2,1-3H3/b20-11-/t12-,13-,14+,17+,21-,22+/m1/s1
MSLEVEL=2
SOURCE_INSTRUMENT=ESI-LC-ESI-QTOF
FILENAME=Massbank_ESI_positive_8_1_2014_peaks.mgf
SEQ=*..*
IONMODE=Positive
ORGANISM=MASSBANK
NAME=Massbank: Oxytetracycline [M+H]+
PI=Putative Massbank Match
DATACOLLECTOR=Massbank
PUBMED=N/A
SUBMITUSER=mwang87
TAGS=Antibiotic[Drug Class]
SPECTRUMID=CCMSLIB00000206304
SCANS=1563
86.0603 235.637 
98.0605 795.545 
126.0551 534.951 
152.0378 102.97 
153.0175 103.998 
154.0497 2382.638 
170.0477 155.797 
172.0598 204.055 
178.995 124.386 
180.0642 311.708 
187.0727 135.123 
196.0597 168.704 
198.0767 533.981 
201.0544 4428.327 
208.059 760.708 
213.0552 650.485 
226.0693 2591.662 
239.0671 454.712 
241.0529 139.634 
257.0466 489.949 
259.0566 106.967 
263.0655 232.096 
265.0782 127.813 
267.0638 957.167 
268.0409 159.052 
270.0499 125.871 
273.0741 510.851 
279.0621 375.043 
283.0586 2519.703 
285.0729 393.547 
291.0602 341.234 
293.0786 142.547 
295.0568 199.143 
297.0725 228.726 
301.0697 210.965 
307.059 969.732 
309.0735 434.495 
312.121 519.246 
317.0476 157.51 
319.0578 304.512 
322.0465 325.928 
325.0709 348.886 
335.0548 1594.517 
337.0699 6818.961 
350.0404 1121.074 
352.1132 129.069 
353.0656 662.479 
362.0974 237.122 
363.0519 1191.89 
364.1152 145.174 
365.0654 5026.271 
376.0839 106.453 
380.1111 556.768 
381.0605 3800.114 
390.0968 268.646 
391.103 146.374 
393.0931 179.155 
408.1065 1864.078 
426.1181 10000.0 
444.1276 379.612 
END IONS

