BEGIN IONS
PEPMASS=355.079
CHARGE=1+
COMPOUNDNAME=bisdethiobis(methylthio)gliotoxin
LIBRARYQUALITY=3
SMILES=N/A
INCHIKEY=OVBAGMZLGLXSBN-UOVKNHIHSA-N
INCHI=InChI=1S/C15H20N2O4S2/c1-16-12(20)14(22-2)7-9-5-4-6-10(19)11(9)17(14)13(21)15(16,8-18)23-3/h4-6,10-11,18-19H,7-8H2,1-3H3/t10-,11-,14+,15+/m0/s1
MSLEVEL=2
SOURCE_INSTRUMENT=N/A-ESI-QFT
FILENAME=library_mgf.mgf
SEQ=*..*
IONMODE=negative
ORGANISM=MONA
NAME=bisdethiobis(methylthio)gliotoxin [M-H]-
PI=MoNA
DATACOLLECTOR=MoNA:VF-NPL-QEHF024549
PUBMED=N/A
SUBMITUSER=mwang87
TAGS=
SPECTRUMID=CCMSLIB00004715612
SCANS=24549
50.483978 0.079048 
50.663357 0.055244 
50.719936 0.052753 
51.605991 0.057275 
52.37479 0.088499 
53.078564 0.080793 
53.537647 0.110714 
53.748779 0.057053 
53.914017 0.083394 
54.546963 0.057899 
54.736839 0.079535 
54.980495 0.062243 
55.017487 0.161329 
55.863842 0.081379 
56.574188 0.067811 
57.033096 0.343433 
57.208706 0.079311 
57.611111 0.056295 
57.97427 16.393307 
58.028416 0.19618 
58.38607 0.088918 
58.480255 0.081025 
58.554741 0.058576 
59.012444 8.953763 
59.107185 0.094798 
59.221458 0.074701 
59.926308 0.087366 
60.001221 0.062202 
60.650547 0.060527 
60.973946 0.725476 
61.300858 0.054696 
61.8326 0.061816 
61.986935 8.113934 
62.28688 0.051219 
62.819641 0.064368 
63.07819 0.101195 
63.385883 0.052354 
63.439354 0.083189 
63.96104 4.274264 
64.635414 0.085358 
64.757576 0.076542 
64.877464 0.066381 
65.038338 0.3397 
65.275986 0.0885 
65.890686 0.063817 
65.997192 1.25628 
66.033508 0.434588 
66.357857 0.061832 
66.826973 0.112728 
67.017555 0.205783 
67.028908 0.093071 
67.17292 0.081741 
68.012787 0.072978 
68.996834 0.293194 
69.033104 0.066356 
70.028435 0.658815 
70.31105 0.053026 
70.388741 0.103761 
70.561455 0.055601 
70.772232 0.069972 
71.012466 1.372988 
71.048843 1.324363 
72.991661 0.406986 
73.323547 0.090786 
74.005577 2.734038 
74.71946 0.06555 
74.740623 0.091107 
75.007385 0.513535 
75.065636 0.091792 
75.684502 0.076714 
76.161926 0.097792 
76.229172 0.086207 
78.033699 0.065077 
78.957687 2.811452 
78.966858 0.083459 
78.984528 2.706612 
79.955971 15.759284 
80.963821 7.941787 
81.03315 0.838907 
81.951866 0.214235 
82.015877 0.35753 
82.028465 1.571156 
82.959328 0.108572 
83.012398 0.142819 
83.859749 0.076078 
84.561043 0.081164 
84.650421 0.095304 
84.937454 0.299476 
85.028 0.259021 
85.114761 0.082144 
86.2043 0.070385 
86.935196 0.065966 
87.055084 0.129028 
89.023041 2.156367 
89.041397 0.17459 
89.976646 0.089243 
90.033531 0.429516 
90.909004 0.069355 
90.932198 0.0604 
91.017426 0.070632 
92.049149 0.548058 
93.033264 5.172422 
93.241142 0.091425 
93.521942 0.10759 
94.028503 1.765505 
94.040543 0.0883 
94.979485 2.994286 
95.01252 1.41896 
95.048576 0.080132 
95.950928 1.234988 
96.007629 0.103207 
96.04422 0.235926 
96.958763 34.88176 
97.028236 0.421806 
97.039375 9.004218 
97.872292 0.079221 
98.023483 0.139049 
98.954575 1.922629 
99.043793 0.10044 
99.924454 11.668408 
100.924614 0.597776 
100.93222 3.211378 
100.935463 0.100421 
101.932358 0.09409 
102.00061 4.654459 
102.931084 0.089302 
103.041252 0.082744 
103.390739 0.112607 
103.61747 0.057626 
104.049232 0.309881 
106.02845 0.169899 
106.523476 0.105605 
107.036331 1.010479 
107.048866 0.558062 
108.020309 0.561377 
108.044235 4.127329 
108.678963 0.07274 
109.0149 0.049954 
109.028114 1.948516 
109.069878 0.067969 
110.02356 0.474647 
110.632011 0.10915 
110.97448 0.096603 
111.007408 1.364247 
111.403839 0.054078 
112.039078 2.854769 
113.717438 0.055994 
114.932861 0.296656 
115.919418 5.904161 
116.049278 15.834827 
116.919777 0.140553 
116.927261 16.018187 
117.033218 1.039656 
117.927444 1.076543 
118.028526 9.736908 
118.262825 0.095992 
118.89872 0.085691 
119.048943 3.900298 
120.008125 0.117681 
120.044197 1.434445 
121.028206 2.545872 
121.052284 0.083172 
122.023468 1.930667 
122.05986 0.09411 
122.349556 0.131235 
122.97435 0.205849 
123.007507 1.056525 
123.018288 0.078313 
123.031265 0.100234 
124.015327 0.698266 
124.039169 4.485754 
124.535263 0.060237 
125.034386 0.298055 
125.471565 0.09156 
126.019073 0.066148 
126.721832 0.088844 
126.903481 0.247636 
127.391205 0.102814 
127.620499 0.096483 
128.016479 0.186957 
128.919235 0.057894 
131.036423 5.986924 
132.044266 18.299326 
133.028244 4.593916 
133.052322 0.067673 
134.023514 5.326623 
134.059845 0.720697 
135.031631 0.065217 
135.043915 0.917344 
135.055161 1.447476 
136.039169 0.278717 
137.00528 0.0874 
139.049805 0.374904 
139.936234 0.093575 
141.01152 1.565436 
141.044601 0.107795 
141.995499 0.557392 
142.028641 0.779451 
144.04422 6.95431 
144.572906 0.071292 
146.023575 2.39994 
146.060089 0.11135 
146.081131 2.066286 
147.031403 4.886172 
147.044006 0.173377 
147.055054 0.152723 
148.021393 6.090993 
148.039246 3.818261 
150.000519 0.448024 
150.018555 2.158632 
150.054916 0.917976 
152.375839 0.095119 
154.990997 0.22412 
155.00354 0.252897 
155.987167 0.123103 
155.998703 0.266709 
156.031952 0.133247 
156.043747 0.105101 
156.139069 0.083323 
156.89386 0.131646 
157.039627 0.841565 
157.335876 0.094958 
158.023712 1.667722 
158.060135 0.251427 
159.031464 0.422758 
159.055252 0.393272 
160.039276 13.55529 
160.062943 0.108588 
160.074127 0.066349 
162.001083 0.154289 
162.018661 1.358272 
162.042465 1.690419 
162.055084 0.693606 
162.077499 0.255319 
162.892181 0.097066 
163.008652 0.853002 
163.026474 0.388409 
163.050461 0.474683 
164.016525 3.5739 
164.034271 0.087521 
165.011642 0.188434 
165.065933 0.639813 
165.847183 0.111588 
165.995651 0.421382 
166.462082 0.056717 
166.99054 0.076148 
167.060196 0.231238 
168.043777 0.125676 
169.006699 2.323781 
169.613586 0.102896 
170.003403 2.488183 
170.014587 0.351473 
170.22728 0.099244 
171.214737 0.106831 
172.039398 0.867511 
173.034882 0.206016 
173.047577 0.186175 
173.058609 0.155073 
173.070953 0.962847 
174.001022 0.502272 
174.018524 0.199917 
174.055374 0.20441 
175.026443 0.246749 
175.050385 2.263074 
176.016647 1.98156 
176.034409 0.966302 
177.000351 0.609057 
177.995667 0.122557 
179.003494 0.150173 
180.011536 1.131618 
180.984146 0.092601 
183.011246 100.0 
184.014053 6.978792 
184.039856 0.174365 
185.00705 2.163561 
185.034851 0.468077 
186.043228 0.258102 
187.05043 0.404914 
187.492767 0.065128 
188.03476 0.326658 
188.058472 0.091509 
188.286819 0.090475 
188.615936 0.098006 
189.066086 2.398611 
189.996033 0.210788 
191.045822 0.400624 
191.05806 0.10169 
191.082031 0.075519 
192.011703 5.078563 
192.065842 0.131756 
192.078415 0.098749 
193.006897 2.521552 
194.014771 0.26677 
197.027084 11.476457 
198.034058 0.485077 
199.006332 1.041043 
199.050369 3.388286 
199.850082 0.102904 
200.022247 0.117042 
201.01088 0.06977 
201.028961 0.063269 
201.066284 4.015227 
203.027664 0.284915 
203.045486 0.631075 
204.010849 0.106667 
204.757935 0.087845 
205.007401 0.062479 
205.043564 2.110412 
205.991318 0.095481 
206.028122 0.094962 
206.775452 0.099562 
206.998184 0.234947 
207.022614 0.652906 
207.738861 0.092343 
208.006668 0.367375 
208.030548 3.149016 
208.975739 0.348504 
210.022064 1.522691 
210.955338 0.091647 
211.042648 0.99184 
212.059509 0.111502 
213.029816 0.472476 
213.065277 0.08796 
214.037796 1.783164 
215.027847 1.059495 
215.045746 1.508595 
215.201782 0.104422 
216.009491 0.125278 
216.035675 2.455572 
217.007126 1.339354 
217.025192 0.112612 
217.061203 1.902295 
218.015488 0.257963 
219.023148 0.075962 
219.769791 0.677425 
219.777527 0.972583 
220.006668 1.342687 
221.002182 0.190968 
222.571945 0.074209 
223.279419 0.099964 
225.009369 0.206704 
225.05838 3.258739 
227.045441 1.429752 
228.053802 0.23433 
229.007065 0.750518 
229.060944 0.383083 
231.022873 4.919374 
231.040466 0.56416 
231.076843 0.744706 
232.030701 6.042529 
232.043076 0.083483 
233.001816 0.12813 
233.038712 7.472691 
234.046204 0.100371 
234.231705 0.119371 
235.018311 0.273465 
235.169189 0.097029 
236.002472 0.080199 
236.025909 0.867902 
236.585373 0.072754 
237.119705 0.093583 
237.586945 0.066795 
237.87027 0.106238 
239.074371 1.686759 
240.075623 0.098969 
241.06163 0.083198 
242.032883 1.091421 
242.064804 0.120403 
243.023178 0.914289 
244.03064 5.172513 
245.002792 1.430145 
245.016891 0.075695 
245.056686 0.164068 
246.999466 0.155687 
247.017975 2.726448 
248.025452 0.678722 
249.033981 0.265062 
249.055313 1.79591 
250.058777 0.098407 
250.572433 0.098734 
253.090012 0.140996 
256.847168 0.074183 
259.018036 1.499533 
260.025604 3.847721 
261.033813 6.609285 
262.041473 3.10326 
262.058655 0.084719 
262.9953 0.595971 
265.009857 0.160223 
266.964325 0.686169 
267.524475 0.091468 
267.800232 0.100354 
270.810944 0.091601 
275.01297 0.089237 
281.007324 0.099838 
282.995056 0.132301 
285.832275 0.110717 
292.987518 1.189578 
295.626648 0.101637 
301.692902 0.071046 
303.567047 0.058786 
310.161072 0.101805 
310.839874 0.086836 
319.054596 0.097024 
325.480438 0.070654 
325.955566 0.088882 
329.678192 0.112687 
330.113525 0.096634 
334.07666 0.098811 
337.185455 0.081861 
339.20874 0.100049 
353.180817 0.065478 
353.215179 0.109642 
353.944183 0.088163 
354.903809 0.09445 
355.194611 3.978662 
369.643646 0.104362 
370.893219 0.100627 
375.967804 0.102019 
END IONS

