BEGIN IONS
PEPMASS=873.499
CHARGE=1+
COMPOUNDNAME=ABAMECTIN
LIBRARYQUALITY=3
SMILES=N/A
INCHIKEY=RRZXIRBKKLTSOM-XPNPUAGNSA-N
INCHI=InChI=1S/C48H72O14/c1-11-25(2)43-28(5)17-18-47(62-43)23-34-20-33(61-47)16-15-27(4)42(26(3)13-12-14-32-24-55-45-40(49)29(6)19-35(46(51)58-34)48(32,45)52)59-39-22-37(54-10)44(31(8)57-39)60-38-21-36(53-9)41(50)30(7)56-38/h12-15,17-19,25-26,28,30-31,33-45,49-50,52H,11,16,20-24H2,1-10H3/b13-12+,27-15+,32-14+/t25-,26-,28-,30-,31-,33+,34-,35-,36-,37-,38-,39-,40+,41-,42-,43+,44-,45+,47+,48+/m0/s1
MSLEVEL=2
SOURCE_INSTRUMENT=N/A-ESI-QFT
FILENAME=library_mgf.mgf
SEQ=*..*
IONMODE=positive
ORGANISM=MONA
NAME=ABAMECTIN [M+H]+
PI=MoNA
DATACOLLECTOR=MoNA:VF-NPL-QEHF028037
PUBMED=N/A
SUBMITUSER=mwang87
TAGS=
SPECTRUMID=CCMSLIB00004721618
SCANS=28037
60.823071 0.028266 
62.726524 0.046005 
63.393082 0.026914 
63.768692 0.061036 
65.038696 2.313855 
65.067528 0.030701 
65.599617 0.070507 
66.411018 0.047768 
67.052399 0.556291 
67.054314 34.529411 
67.505257 0.059547 
68.057579 1.437711 
68.483307 0.052761 
69.033531 100.0 
69.069908 5.69027 
69.452667 0.045757 
70.036858 3.776854 
70.550308 0.051682 
70.595055 0.053467 
70.875107 0.050486 
71.012741 0.121359 
71.049156 10.287722 
71.054398 0.054725 
71.085533 0.509959 
71.23687 0.057452 
71.776627 0.06865 
72.321053 0.04148 
72.544914 0.060487 
73.028328 0.044659 
73.046928 0.097295 
73.064758 11.62485 
73.842529 0.027746 
74.369316 0.053971 
74.443893 0.050984 
74.445175 0.062721 
74.675354 0.028539 
74.799217 0.039693 
75.043991 0.198438 
75.571564 0.051505 
75.579597 0.079494 
76.462822 0.027505 
76.482246 0.049649 
76.89035 0.065517 
77.819733 0.033396 
78.119858 0.03541 
79.054207 12.233899 
79.218269 0.06762 
79.731644 0.029067 
80.001961 0.070984 
80.05761 0.093774 
80.599289 0.046784 
80.942162 0.069121 
80.952782 0.022556 
81.03344 0.724707 
81.069855 28.795328 
81.118973 0.045351 
81.747765 0.048911 
82.073189 1.156402 
82.431885 0.03548 
82.472908 0.042672 
83.049088 4.119031 
83.085442 2.520542 
83.287254 0.023463 
83.55912 0.071008 
84.641159 0.024949 
85.028351 9.379091 
85.064774 11.252002 
85.101082 0.052734 
86.031548 0.053331 
86.193825 0.035017 
86.307365 0.072295 
86.903351 0.030248 
87.044044 14.512927 
87.176384 0.029527 
88.047363 0.133421 
88.062935 0.048528 
88.983727 0.043762 
89.059662 0.494938 
89.459206 0.037921 
89.498909 0.034182 
89.799255 0.069626 
89.82711 0.054602 
90.61145 0.034465 
91.054169 4.664428 
91.057159 0.95718 
91.718124 0.026317 
91.848946 0.034795 
92.599831 0.045555 
92.908302 0.083064 
93.069839 12.632357 
94.041321 0.070957 
94.073158 0.162678 
94.581299 0.02788 
95.049065 82.575623 
95.085434 7.626806 
95.635773 0.051487 
96.052383 5.359685 
96.388069 0.026503 
96.671577 0.034356 
97.028252 0.331617 
97.064751 17.160278 
97.10112 1.431594 
97.319496 0.051109 
98.068077 0.519178 
98.489342 0.034165 
98.511284 0.026103 
99.044159 0.163351 
99.080307 1.484729 
99.525055 0.062295 
100.328247 0.0547 
101.059723 5.353042 
101.218498 0.042389 
102.915932 0.068184 
103.054359 0.024524 
104.098076 0.022782 
105.044991 0.052385 
105.069847 7.394403 
106.073051 0.240391 
106.813354 0.073522 
107.049049 3.487763 
107.085464 8.646386 
108.08876 0.142504 
108.632835 0.048601 
108.641907 0.073227 
109.064743 12.546054 
109.101112 16.368238 
110.06794 0.32062 
110.104385 1.04435 
111.043968 5.389731 
111.080322 0.251828 
111.09919 0.074163 
111.871902 0.0222 
113.059563 74.464088 
114.006523 0.081091 
114.062958 4.462396 
114.353477 0.069353 
117.069733 1.996263 
119.048958 0.474718 
119.085442 6.916771 
120.088722 0.133994 
120.377632 0.044202 
121.06472 4.100982 
121.101067 7.95162 
121.151192 0.072672 
121.605171 0.066018 
122.104553 0.225271 
122.701027 0.075466 
123.043953 0.72139 
123.049103 0.052125 
123.080345 5.514021 
123.084938 0.104675 
123.116676 24.90353 
124.114738 0.032832 
124.120056 2.530359 
125.059502 0.519851 
125.095589 0.042882 
126.091621 0.02885 
127.075249 13.294896 
128.061859 0.425908 
128.078583 0.250563 
128.857544 0.067491 
129.069717 1.080317 
130.07811 0.040229 
131.085327 4.289311 
131.634354 0.041606 
133.064621 2.176532 
133.100967 4.263071 
133.319016 0.071734 
133.862122 0.052596 
134.10437 0.150813 
135.043839 1.242158 
135.0802 2.172107 
135.116592 2.780045 
136.119553 0.05042 
136.348251 0.029523 
137.05957 0.268969 
137.095886 1.203146 
137.11586 0.070785 
139.072815 0.024259 
141.054367 0.03487 
141.069824 0.244312 
142.077621 0.310097 
143.08551 5.416909 
145.064514 2.775468 
145.079727 0.056078 
145.0858 17.264915 
145.100967 6.544691 
146.089355 0.3336 
146.434174 0.048585 
146.485092 0.057895 
146.960999 0.064924 
147.043655 0.061474 
147.080276 2.434192 
147.116623 1.077204 
147.178085 0.05623 
148.690201 0.032038 
149.059692 0.424163 
149.095718 0.201362 
149.133072 0.052957 
151.075226 0.872555 
151.111603 7.586956 
151.733566 0.047819 
152.114792 0.470231 
153.054337 0.579148 
155.085358 0.463315 
156.093277 0.715103 
157.101013 2.59519 
157.282257 0.056354 
158.072388 0.17224 
159.080246 2.094389 
159.116592 2.800517 
161.059662 0.474538 
161.095871 0.891382 
161.132034 0.212782 
163.074844 0.349145 
163.741257 0.065941 
165.091202 0.130765 
166.077728 0.181029 
167.055023 0.137383 
167.899796 0.026799 
167.977371 0.021779 
168.093842 0.070274 
169.101044 2.924464 
169.122238 0.209747 
169.358994 0.064917 
169.79422 0.042941 
170.276367 0.045992 
171.080154 0.927284 
171.116684 4.167796 
171.430939 0.030184 
171.583923 0.062287 
172.088226 0.059009 
172.16481 0.021819 
173.095993 1.265362 
173.132339 0.289516 
173.350128 0.059028 
175.074875 0.057683 
175.11171 0.123516 
175.148178 0.519981 
178.416565 0.023076 
178.812668 0.047751 
179.085297 0.289453 
181.100555 0.315977 
182.072128 0.179631 
183.062607 0.02906 
183.080017 0.114861 
183.116531 0.45727 
184.087875 0.063436 
185.078201 0.027798 
185.09491 0.077819 
185.132629 0.159539 
187.075638 0.265142 
187.111588 1.248142 
189.054337 0.347382 
189.090851 0.052767 
189.127792 0.029232 
189.648285 0.061902 
190.15802 0.051792 
191.07077 0.070652 
191.142715 0.179428 
192.021988 0.057625 
192.510361 0.068108 
193.158737 1.118087 
194.162659 0.054196 
194.590378 0.075987 
195.080429 0.140115 
195.116425 0.09313 
197.095947 2.688794 
198.320023 0.030745 
199.07515 0.094188 
199.111572 2.618254 
199.148972 0.05282 
201.126572 0.137262 
204.744644 0.024818 
208.257935 0.080808 
208.998428 0.063868 
209.095886 0.26526 
211.11235 0.058296 
213.976913 0.047803 
215.027512 0.02248 
215.106323 0.766818 
217.122421 0.52527 
219.137741 0.653773 
221.094635 0.088662 
221.132294 0.069198 
221.359879 0.024691 
222.38974 0.039452 
224.119141 0.045914 
225.090836 0.496892 
226.045135 0.056742 
227.105667 0.043334 
228.096878 0.069216 
230.1633 0.045317 
230.425781 0.0604 
232.667007 0.022227 
233.172638 0.078473 
233.494156 0.052952 
237.088608 0.03856 
241.085373 0.325726 
241.621368 0.041192 
242.089249 0.039263 
245.116928 1.227815 
247.110886 0.054898 
247.1465 0.037535 
249.126984 0.089246 
265.348602 0.0772 
276.380035 0.024062 
277.28476 0.059666 
278.460754 0.060599 
281.099091 1.193462 
281.687927 0.066607 
282.103577 0.026134 
284.324982 0.052076 
288.207825 0.946111 
292.981781 0.080608 
298.77124 0.061871 
302.005005 0.06812 
304.166046 0.187277 
304.186737 0.227623 
306.394348 0.065027 
308.371307 0.054574 
310.559967 0.075691 
318.075348 0.073295 
330.938202 0.047446 
331.323303 0.03183 
336.786835 0.028012 
338.491364 0.060568 
344.252594 0.075976 
348.105286 0.043567 
348.347382 0.027027 
350.52359 0.042992 
351.99762 0.025093 
360.839142 0.154562 
367.817841 0.076905 
371.183533 0.062842 
375.054657 0.027252 
384.585358 0.039208 
391.526489 0.055481 
396.712555 0.073362 
398.275238 0.058375 
399.138031 0.056192 
401.681458 0.033296 
406.069794 0.021527 
406.270905 0.047557 
406.732666 0.068189 
412.348175 0.076768 
429.584656 0.066212 
434.192657 0.07776 
442.526917 0.034607 
442.936035 0.051591 
447.346466 0.612209 
447.785675 0.081116 
454.411255 0.031702 
458.932098 0.03377 
466.363159 0.056261 
467.44693 0.081649 
485.710144 0.059309 
489.420654 0.023713 
490.141815 0.056518 
490.510773 0.027491 
490.778564 0.06217 
502.669556 0.046455 
504.197388 0.024535 
513.87207 0.057196 
518.589722 0.028913 
527.789551 0.06817 
532.00824 0.032172 
534.360657 0.058388 
548.973389 0.081009 
577.779053 0.054244 
580.752075 0.029399 
582.106262 0.039068 
610.029358 0.025363 
626.229736 0.078445 
628.011292 0.034818 
631.371765 0.055243 
632.299438 0.035024 
645.645264 0.047985 
654.510498 0.055269 
659.835266 0.05339 
661.998352 0.071188 
678.363403 0.051323 
681.581787 0.069331 
701.173096 0.050368 
708.264343 0.098441 
708.403809 0.043172 
708.488831 0.128271 
708.614929 0.027497 
708.684937 0.073383 
708.742493 0.073742 
708.930969 0.073941 
721.79126 0.068282 
763.733093 0.097147 
771.761902 0.047869 
772.158997 0.064775 
775.387329 0.049724 
790.037781 0.063575 
795.144897 0.094393 
802.158325 0.026474 
810.921875 0.066685 
823.9505 0.045104 
842.155273 0.028015 
846.550476 0.062049 
854.79303 0.094096 
864.727112 0.063497 
871.679199 0.035166 
873.550781 0.076967 
883.461609 0.078196 
893.803955 0.060568 
893.899719 0.086632 
END IONS

