BEGIN IONS
PEPMASS=176.1
CHARGE=1+
COMPOUNDNAME=Massbank:KNA00100 L-Citrulline|2-Amino-5-ureidovaleric acid|Citrulline
LIBRARYQUALITY=3
SMILES=NC(=O)NCCC[C@H](N)C(O)=O
INCHIKEY=RHGKLRLOHDJJDR-BYPYZUCNSA-N
INCHI=1S/C6H13N3O3/c7-4(5(10)11)2-1-3-9-6(8)12/h4H,1-3,7H2,(H,10,11)(H3,8,9,12)/t4-/m0/s1
MSLEVEL=2
SOURCE_INSTRUMENT=ESI-LC-ESI-ITFT
FILENAME=Massbank_ESI_positive_8_1_2014_peaks.mgf
SEQ=*..*
IONMODE=Positive
ORGANISM=MASSBANK
NAME=Massbank:KNA00100 L-Citrulline|2-Amino-5-ureidovaleric acid|Citrulline [M+H]
PI=Putative Massbank Match
DATACOLLECTOR=Massbank
PUBMED=N/A
SUBMITUSER=mwang87
TAGS=
SPECTRUMID=CCMSLIB00000216105
SCANS=7618
113.017288 4048.509277 
114.486893 1103.279785 
115.143478 8477.53418 
116.151993 882.988098 
130.108841 4462.26416 
133.157013 6592.729004 
158.998047 1362701.5 
END IONS

