BEGIN IONS
PEPMASS=369.131
CHARGE=1+
COMPOUNDNAME=GIBBERELLIC ACID
LIBRARYQUALITY=3
SMILES=N/A
INCHIKEY=IXORZMNAPKEEDV-SNTJWBGVSA-N
INCHI=InChI=1S/C19H22O6/c1-9-7-17-8-18(9,24)5-3-10(17)19-6-4-11(20)16(2,15(23)25-19)13(19)12(17)14(21)22/h4,6,10-13,20,24H,1,3,5,7-8H2,2H3,(H,21,22)/t10-,11+,12-,13-,16+,17+,18+,19-/m1/s1
MSLEVEL=2
SOURCE_INSTRUMENT=N/A-ESI-QFT
FILENAME=library_mgf.mgf
SEQ=*..*
IONMODE=positive
ORGANISM=MONA
NAME=GIBBERELLIC ACID [M+Na]+
PI=MoNA
DATACOLLECTOR=MoNA:VF-NPL-QEHF006367
PUBMED=N/A
SUBMITUSER=mwang87
TAGS=
SPECTRUMID=CCMSLIB00004697430
SCANS=6367
50.325138 0.007565 
50.379089 0.008106 
50.405422 0.00649 
50.614723 0.017226 
50.846119 0.007371 
50.976471 0.011722 
51.060581 0.017256 
51.069096 0.017585 
51.192669 0.005874 
51.330235 0.011998 
51.415619 0.010842 
51.447105 0.008289 
51.502876 0.007863 
51.994701 0.006565 
52.031776 0.014197 
52.382221 0.008927 
52.881348 0.007207 
53.002903 0.034771 
53.039368 0.024041 
53.131866 0.014831 
53.483582 0.010581 
53.567886 0.008764 
53.626854 0.011139 
53.753857 0.008252 
53.988895 0.015425 
54.892162 0.008606 
54.993237 0.008869 
55.018585 1.354235 
55.054974 2.997255 
55.140984 0.016665 
55.49765 0.016567 
55.935108 0.030136 
56.021984 0.009187 
56.050205 0.522261 
56.058247 0.016658 
56.821945 0.00918 
56.96553 0.306517 
57.034203 1.447034 
57.070606 5.539025 
57.379047 0.009554 
57.936436 0.016479 
58.065857 13.385005 
58.067497 0.035623 
58.073952 0.065527 
58.134865 0.007134 
58.431873 0.022403 
58.476227 0.009694 
58.517365 0.007849 
58.612381 0.006748 
58.674759 0.020279 
58.816719 0.010775 
59.04985 1.729852 
59.061066 0.725522 
59.062603 0.011125 
59.069172 0.269619 
59.371639 0.019916 
59.420078 0.009945 
60.045071 0.756687 
60.056263 0.018636 
60.081486 1.894439 
60.151062 0.008475 
60.45821 0.007725 
61.011341 1.386258 
61.012959 0.008277 
61.040321 0.328341 
61.269661 0.007775 
61.685116 0.01784 
62.01915 0.046478 
62.45747 0.019711 
62.881824 0.01394 
62.887177 0.009237 
62.982388 0.342489 
63.59903 0.018679 
65.187149 0.008697 
65.488937 0.007018 
65.707413 0.009032 
65.734306 0.009174 
65.763466 0.007987 
66.121422 0.014986 
66.544861 0.010166 
67.054909 4.619501 
68.050148 0.135809 
68.058159 0.05035 
68.680779 0.022166 
68.798119 0.005865 
69.034126 0.968797 
69.070518 6.058219 
70.029343 0.040586 
70.065781 6.972238 
70.07383 0.149698 
70.34346 0.008679 
70.713516 0.009844 
70.913254 0.007763 
71.049774 2.482042 
71.069122 0.026552 
71.086166 3.762613 
71.447433 0.025963 
71.698685 0.010137 
72.044991 0.170777 
72.081413 2.08676 
72.089333 0.016072 
72.506012 0.024351 
72.937729 0.012922 
73.029007 0.066575 
73.047371 0.49724 
73.065353 0.742199 
73.511429 0.009042 
73.849937 0.008379 
74.0242 0.061282 
74.060616 0.418898 
74.097 0.328299 
74.965157 0.010197 
75.044617 0.236999 
75.223427 0.008809 
75.374687 0.009842 
75.395294 0.008654 
75.411926 0.00802 
75.99778 0.008682 
76.039909 0.076909 
76.07621 0.082864 
76.650093 0.020371 
76.687637 0.013826 
76.818398 0.022727 
76.964233 0.008911 
78.166183 0.008916 
78.322159 0.019425 
78.857979 0.016924 
79.021797 2.257143 
79.054787 1.940112 
79.362167 0.008411 
79.930473 0.0076 
79.955391 0.007982 
79.966148 0.01291 
80.023926 0.033756 
80.049957 0.083017 
80.057991 0.021847 
80.12574 0.017698 
80.599144 0.007715 
80.948341 0.098 
81.034004 0.63681 
81.04512 0.007789 
81.070419 9.40837 
81.14521 0.020121 
81.389755 0.006741 
82.06562 0.863695 
82.073761 0.480635 
82.265266 0.007196 
82.271202 0.007582 
82.274063 0.007073 
82.365913 0.011395 
83.013306 0.011475 
83.035751 0.008925 
83.049698 3.105162 
83.060799 0.042335 
83.086052 5.355516 
83.088821 0.015724 
83.848999 0.018412 
84.044907 1.977511 
84.052971 0.02075 
84.081314 6.291001 
84.089317 0.094208 
85.0289 1.070442 
85.040146 0.031094 
85.065323 3.73959 
85.084618 0.117989 
85.101692 1.28738 
85.196526 0.006804 
85.304672 0.005838 
86.060516 1.005539 
86.068619 0.061562 
86.096916 7.265517 
86.104935 0.012757 
86.488647 0.00721 
86.528641 0.009551 
87.044518 1.210007 
87.055634 0.103719 
87.080986 0.019523 
87.100227 0.192291 
88.039795 1.638969 
88.076111 0.882109 
88.725815 0.006629 
89.043228 0.053558 
89.060173 3.277823 
89.075043 0.008835 
90.055321 0.14823 
90.091682 0.010816 
90.164719 0.0081 
90.743378 0.020299 
90.947906 0.019793 
91.054634 1.565778 
91.05777 3.188228 
91.787224 0.009086 
92.022034 0.008686 
92.231285 0.009849 
92.811432 0.009701 
93.070305 3.956124 
94.03936 0.01851 
94.06546 0.234419 
94.07354 0.163364 
94.132469 0.008157 
94.704941 0.007865 
95.049583 1.547766 
95.06073 0.269768 
95.085945 10.17308 
95.980476 0.00811 
96.01841 0.105833 
96.044823 0.237449 
96.081062 0.578392 
96.089272 0.52345 
96.803734 0.020943 
96.922028 0.0225 
97.028793 0.332261 
97.039978 0.11266 
97.065201 3.37776 
97.076149 0.043113 
97.101562 4.075848 
98.060364 0.77862 
98.068474 0.042633 
98.096809 4.81843 
98.100342 0.012192 
98.104774 0.157689 
98.972359 0.016043 
98.975662 1.44523 
99.044395 1.375547 
99.055618 0.042585 
99.080795 2.575917 
99.100037 0.164143 
99.11689 0.011339 
99.492462 0.009848 
100.039574 0.137526 
100.07608 2.095162 
100.112343 0.322425 
100.348412 0.006118 
100.8853 0.022029 
100.90786 0.021203 
101.003433 0.336464 
101.02359 0.045683 
101.060066 4.048683 
101.071297 0.045386 
101.459129 0.006232 
101.754936 0.019214 
102.055244 1.066582 
102.063286 0.010956 
102.091621 0.356669 
102.215935 0.007169 
102.368774 0.010834 
103.039261 0.333005 
103.054581 0.025457 
103.07563 0.077902 
103.142815 0.010283 
103.545036 0.009034 
103.610764 0.007912 
103.996773 0.007867 
104.070801 0.155565 
104.107307 0.128931 
104.887405 0.013557 
105.0336 0.073439 
105.070175 2.485154 
106.065674 0.013167 
106.073425 0.082115 
106.086372 0.013706 
106.776672 0.009882 
106.971092 0.008581 
107.049416 0.926371 
107.070473 0.012574 
107.085793 4.698843 
108.044785 0.042099 
108.052727 0.00652 
108.081047 1.441013 
108.089119 0.156222 
108.303253 0.023058 
109.026085 0.369731 
109.065033 1.975257 
109.068466 0.023203 
109.076355 0.106056 
109.101402 6.44851 
109.263519 0.009478 
110.060196 1.152595 
110.071449 0.691523 
110.08374 0.01032 
110.090691 0.010293 
110.096581 0.819862 
110.104599 0.340615 
111.005386 0.039227 
111.040009 0.019756 
111.044289 3.583282 
111.05545 0.49485 
111.076569 0.007947 
111.080635 2.459674 
111.117027 1.321625 
112.039551 0.123008 
112.05072 0.2293 
112.07589 1.32391 
112.08371 0.010977 
112.087372 0.025911 
112.112282 0.378574 
112.120209 0.015234 
113.023491 0.020127 
113.034622 0.051674 
113.059914 1.433421 
113.063995 0.008143 
113.071098 0.345279 
113.096298 2.872616 
113.400856 0.009384 
114.037468 0.067071 
114.055092 0.955443 
114.091507 0.430068 
114.099464 0.036674 
115.039108 0.912096 
115.056381 0.009872 
115.075485 1.0771 
115.086685 0.139902 
116.052841 0.063863 
116.070778 3.094171 
116.107124 0.589271 
116.290154 0.006541 
116.986038 2.269491 
117.05481 0.122124 
117.069962 0.457782 
117.090912 0.029706 
117.989563 0.010589 
118.032463 0.024562 
118.065331 0.023201 
118.08638 0.34975 
119.049171 0.044243 
119.085678 2.771529 
119.17617 0.008876 
119.602051 0.008167 
120.044586 0.012514 
120.080902 1.259323 
120.088837 0.046477 
120.987518 0.01081 
121.028259 0.012729 
121.064926 1.763416 
121.075867 0.015267 
121.101257 5.477199 
121.720528 0.023974 
122.060051 0.923627 
122.096443 0.392221 
122.104599 0.311887 
122.347076 0.012237 
123.044113 0.533035 
123.055527 0.028812 
123.075706 0.012781 
123.080536 2.369178 
123.091721 0.039018 
123.116875 3.370134 
124.039299 0.522745 
124.075775 1.473715 
124.083649 0.008477 
124.112045 0.590261 
124.12011 0.047156 
124.938774 0.022215 
125.020836 0.472701 
125.059769 1.655698 
125.070885 0.254355 
125.079033 0.012599 
125.096146 2.23586 
125.107368 0.230203 
125.132431 0.145761 
125.950691 0.026346 
126.05497 0.612506 
126.091393 1.595632 
126.099442 0.040757 
126.127663 0.480225 
127.038956 0.331218 
127.050163 0.159953 
127.057587 0.011171 
127.075294 0.943891 
127.086517 0.389451 
127.111771 0.300625 
128.031448 0.02405 
128.070633 1.928403 
128.081924 0.014751 
128.10704 1.574058 
128.143433 0.154609 
129.054581 3.492264 
129.065567 0.060411 
129.069839 0.052587 
129.090942 0.198996 
129.102097 0.094419 
130.049774 1.370483 
130.064896 0.174494 
130.086166 1.062568 
130.158905 0.063911 
130.486877 0.010877 
131.031403 0.011321 
131.049011 0.097998 
131.069992 0.036818 
131.085419 1.610691 
131.176468 0.009296 
131.26918 0.006795 
132.080521 0.052415 
132.088486 0.045436 
132.101746 0.607873 
133.064743 0.411792 
133.08577 0.789894 
133.101105 3.261394 
133.206619 0.00917 
134.059937 0.158202 
134.096329 0.204131 
134.104446 0.182815 
134.956192 0.018298 
134.978607 0.96175 
134.996368 3.196382 
135.043976 0.366811 
135.080353 1.963305 
135.11673 4.210966 
135.999527 0.025282 
136.039215 0.065435 
136.061722 0.016254 
136.075592 1.455909 
136.084061 0.018367 
136.111923 0.17017 
136.120087 0.193637 
136.6436 0.006982 
136.958115 0.007762 
137.011612 0.921663 
137.017349 0.009698 
137.059509 1.256653 
137.07077 0.128217 
137.078705 0.023094 
137.096008 1.955552 
137.106934 0.023506 
137.132339 1.382913 
138.012207 0.115573 
138.028534 0.340323 
138.054672 0.747762 
138.065582 0.0122 
138.091202 1.33814 
138.099442 0.028231 
138.127579 0.141276 
138.294159 0.01273 
139.008774 0.260143 
139.036453 2.086411 
139.049927 0.167025 
139.075256 1.430611 
139.086258 0.215956 
139.111572 1.129191 
139.915649 0.006628 
140.033997 0.528359 
140.039459 0.012334 
140.07048 1.317751 
140.077835 0.01975 
140.106781 0.755142 
140.143188 0.03392 
141.015671 0.317371 
141.054382 0.320291 
141.065582 0.543618 
141.070862 0.007581 
141.09082 0.645821 
141.102036 0.122532 
141.127136 0.157031 
141.762558 0.009085 
142.049072 0.256177 
142.08609 0.987037 
142.122513 0.426514 
142.159073 0.263161 
142.364487 0.009213 
142.69603 0.00754 
142.938095 0.026526 
143.070221 0.50724 
143.085663 0.275493 
143.106384 0.097145 
143.117889 0.011078 
144.065292 0.42908 
144.080505 0.069152 
144.101761 0.764009 
144.405594 0.010435 
144.475113 0.016657 
145.049286 0.019135 
145.06459 0.115593 
145.101059 1.991872 
146.059937 0.376568 
146.09166 0.011815 
146.097046 0.041978 
146.104279 0.119081 
146.918091 0.024978 
147.043747 0.075382 
147.058685 0.033889 
147.065033 2.090454 
147.080246 1.026642 
147.090897 0.009595 
147.116714 2.516648 
148.075378 0.7364 
148.082886 0.008143 
148.111893 2.660903 
148.118835 0.09494 
148.893906 0.009281 
148.971481 0.228311 
149.012161 0.082106 
149.059555 0.798846 
149.070572 0.09747 
149.090317 0.01319 
149.095993 1.675943 
149.108276 0.021004 
149.115234 1.534281 
149.132309 2.622652 
150.054672 0.648571 
150.091187 1.013706 
150.098846 0.059641 
150.127594 0.245961 
150.135727 0.077991 
150.944733 0.007591 
150.950897 0.720143 
151.03775 0.079606 
151.075058 1.39308 
151.086334 0.063525 
151.111557 1.339028 
151.122604 0.057527 
151.147964 0.541541 
152.031754 0.162611 
152.044281 0.465046 
152.070557 1.605105 
152.081512 0.077376 
152.106918 1.445376 
152.113373 0.022249 
152.143173 0.058712 
152.951675 0.057876 
152.989151 2.386522 
153.006836 0.638113 
153.052261 2.283838 
153.065689 0.079317 
153.090851 1.299917 
153.102097 0.318757 
153.109268 0.021784 
153.127182 0.572066 
153.897903 0.008077 
154.049637 0.299547 
154.08606 1.135009 
154.122498 0.465635 
154.129883 0.01042 
154.968369 0.150341 
154.985153 0.011043 
155.022217 0.706774 
155.031296 1.173254 
155.044174 0.026789 
155.069977 0.59445 
155.081284 0.096464 
155.106354 0.31006 
155.117737 0.366329 
155.940872 0.012371 
156.026154 0.051986 
156.046371 0.01796 
156.065277 0.398291 
156.076447 0.112308 
156.1017 0.632691 
156.138184 0.15901 
157.019287 0.171029 
157.049255 0.010806 
157.060623 0.629153 
157.085754 0.117541 
157.101196 0.410211 
157.122086 0.019576 
158.002808 0.008735 
158.059586 0.062529 
158.081131 0.353798 
158.104065 0.009887 
158.117416 0.298011 
159.080368 0.31475 
159.100693 0.017207 
159.116791 1.399971 
160.027863 0.326747 
160.075562 0.202418 
160.096298 0.012409 
160.112015 0.061515 
160.119476 0.096594 
160.952667 0.012733 
160.962662 0.011873 
160.9897 0.01125 
161.011688 0.099648 
161.059341 0.162676 
161.080551 0.016173 
161.095917 1.207005 
161.132294 1.674303 
162.021805 0.094325 
162.054642 0.576231 
162.091064 0.713824 
162.098328 0.014955 
162.127899 0.048153 
162.135437 0.091489 
163.074982 1.022889 
163.086197 0.106106 
163.111557 1.246809 
163.147842 1.349435 
163.751892 0.010272 
164.070267 1.066692 
164.081696 0.510343 
164.106842 0.995864 
164.114273 0.03376 
164.143616 0.03219 
164.151321 0.01138 
164.928757 0.027465 
165.007202 0.012278 
165.053497 0.749673 
165.066025 0.069236 
165.090668 1.331339 
165.101974 0.225812 
165.109634 0.009014 
165.127182 0.691174 
165.138611 0.023356 
165.163712 0.120527 
166.049225 0.277459 
166.060669 0.21604 
166.086105 2.060421 
166.097244 0.328935 
166.122421 0.774802 
166.580933 0.009791 
166.740158 0.011431 
166.982529 0.02758 
167.004944 0.027959 
167.032501 0.007759 
167.068695 1.380715 
167.08136 0.397698 
167.088806 0.016445 
167.1064 0.652232 
167.117767 0.739087 
167.142914 0.230816 
168.028427 0.008506 
168.065277 1.068438 
168.101761 1.250102 
168.109177 0.017351 
168.138229 0.895552 
168.917587 0.02514 
168.961533 0.39068 
168.982727 0.034617 
169.040131 0.007515 
169.046982 1.062697 
169.060043 0.031299 
169.085571 0.291468 
169.101227 0.047922 
169.122162 0.081427 
169.133331 0.020327 
170.044144 0.033305 
170.080933 1.898674 
170.117355 0.613675 
170.905869 0.235883 
170.962814 0.134824 
170.999619 0.394128 
171.06459 0.033803 
171.101486 0.01585 
171.11676 0.447527 
171.440826 0.020768 
171.974747 0.009879 
172.07579 0.048867 
172.096451 0.119848 
172.133148 0.316272 
172.716125 0.017096 
172.726654 0.016501 
172.952087 0.025861 
172.978668 0.01005 
173.059708 0.030633 
173.079742 0.012004 
173.096069 0.52826 
173.116959 0.04535 
173.132248 0.809898 
174.054504 0.079816 
174.076187 0.031389 
174.091309 0.21912 
174.112274 0.121397 
174.127396 0.022879 
174.134583 0.007066 
175.027298 0.007576 
175.075027 0.474261 
175.085907 0.063359 
175.095383 0.010894 
175.111511 1.007632 
175.14798 1.101247 
176.058792 0.063691 
176.070236 1.216257 
176.106781 0.566207 
176.989105 0.228966 
177.054276 0.147054 
177.06575 0.037995 
177.077957 0.022258 
177.090714 0.927072 
177.101822 0.258046 
177.110031 0.008392 
177.127106 0.672545 
177.136444 0.014904 
177.163559 0.663444 
177.387222 0.011547 
178.038406 0.261445 
178.048996 0.065968 
178.056335 0.185028 
178.086044 1.338985 
178.094345 0.062405 
178.122482 2.945148 
178.131042 0.018167 
178.166962 0.025147 
179.022095 2.111326 
179.039886 0.047274 
179.069153 0.473435 
179.081253 0.271629 
179.106018 0.924632 
179.117584 0.311923 
179.142776 0.5328 
179.153137 0.014896 
179.179169 0.041358 
180.023529 0.224026 
180.06514 0.803198 
180.075333 0.156554 
180.101746 1.206167 
180.109879 0.070455 
180.138229 0.402397 
180.983658 0.021718 
181.01915 0.259317 
181.047348 0.212623 
181.060822 0.031066 
181.083969 1.64939 
181.097046 0.74766 
181.122299 0.309093 
181.133163 0.577054 
181.158173 0.088327 
182.044525 0.015507 
182.080872 0.851099 
182.09111 0.031598 
182.117355 0.87541 
182.1539 0.067248 
182.962296 0.007966 
182.977432 0.056231 
183.06308 0.392997 
183.076599 0.094263 
183.101807 0.282621 
183.112671 1.197149 
183.138016 0.019702 
183.789017 0.008738 
184.027496 0.008874 
184.059967 0.197905 
184.072647 0.746017 
184.096695 0.994802 
184.133118 0.5078 
185.095779 0.143284 
185.116928 0.053992 
185.132263 0.389045 
186.019913 0.011253 
186.112213 0.045059 
186.136002 0.03426 
186.149033 0.029534 
186.76503 0.011799 
186.927567 0.318764 
187.026733 0.03572 
187.048691 0.011053 
187.074905 0.0847 
187.086304 0.011109 
187.110672 0.440867 
187.147995 0.67271 
187.908752 0.061272 
188.070435 0.570911 
188.106842 0.183518 
188.152069 0.008931 
188.915482 0.814554 
188.965729 0.033441 
188.973923 0.097765 
189.006241 0.008185 
189.042389 0.022318 
189.054169 0.012 
189.075562 0.009229 
189.090836 0.843778 
189.101578 0.186818 
189.111755 0.177947 
189.127182 0.358442 
189.16362 0.506244 
190.049225 0.03737 
190.085754 0.732857 
190.094635 0.123593 
190.122437 0.567105 
190.953751 0.035109 
190.962662 0.022987 
191.00325 0.027462 
191.022003 0.018096 
191.054733 0.009791 
191.069473 0.405814 
191.080673 0.17331 
191.106415 0.872268 
191.11673 0.209071 
191.142776 0.253584 
191.179291 0.297216 
192.064957 0.750842 
192.074615 0.021339 
192.101639 1.266264 
192.110214 0.029621 
192.137924 0.715241 
192.961426 1.347511 
193.037766 0.045694 
193.049225 0.021999 
193.060455 0.10016 
193.085007 0.688923 
193.097076 0.520264 
193.121948 1.051273 
193.133179 0.431963 
193.158478 0.240125 
193.194946 0.043732 
194.043198 0.009679 
194.071274 0.022883 
194.080978 1.468223 
194.090393 0.065203 
194.11734 1.245704 
194.12645 0.046455 
194.962173 0.200052 
194.999634 1.014078 
195.062927 0.669132 
195.076096 0.090573 
195.099808 1.387262 
195.11264 0.496081 
195.137985 0.362527 
195.14888 0.315533 
195.173538 0.026261 
196.060165 2.115001 
196.096512 1.791901 
196.132965 1.532906 
196.169449 0.153184 
197.014923 0.084969 
197.032776 0.426104 
197.041824 0.075487 
197.050964 0.014311 
197.079285 0.418391 
197.09227 0.049152 
197.117096 0.071811 
197.128586 0.545372 
198.037186 0.578474 
198.052872 0.096382 
198.075851 0.18591 
198.089478 0.020791 
198.102081 0.021568 
198.112137 0.741122 
198.148544 0.295011 
198.989136 0.015476 
199.011063 0.078846 
199.028412 0.103006 
199.058838 0.00712 
199.074615 0.016971 
199.095947 0.012867 
199.110077 0.198151 
199.130676 0.171757 
199.147781 0.265573 
199.947372 0.020238 
200.070068 0.022308 
200.091995 0.041823 
200.10733 0.022897 
200.12793 0.138093 
201.05452 0.015408 
201.090271 0.149928 
201.101318 0.013998 
201.110291 0.023134 
201.127014 0.362432 
201.163666 0.284515 
202.085892 0.184915 
202.122467 0.166482 
202.166473 0.007164 
203.069458 0.155772 
203.080566 0.114019 
203.106293 0.507955 
203.117142 0.084258 
203.142807 0.17466 
203.179291 0.305191 
204.053909 0.016805 
204.064697 0.3608 
204.090408 0.211082 
204.101562 0.839091 
204.125748 0.019341 
204.137802 0.142123 
205.036819 0.007957 
205.074203 0.038191 
205.085541 0.258483 
205.096237 0.278504 
205.107132 0.008513 
205.122009 0.503594 
205.133072 0.41761 
205.158493 0.087328 
205.194916 0.048457 
205.918564 0.135346 
206.043915 0.008598 
206.068054 0.007227 
206.080811 0.741944 
206.117264 1.158793 
206.153473 0.011149 
206.926086 1.187661 
206.977097 0.025137 
207.06427 0.291269 
207.075409 0.298374 
207.100418 0.704816 
207.112534 0.840162 
207.137253 0.358204 
207.148666 0.156675 
207.174057 0.131069 
207.218903 0.012622 
207.604324 0.008556 
208.021927 0.032836 
208.059509 0.196546 
208.096542 1.141077 
208.10614 0.033966 
208.132782 0.88381 
208.976822 0.009789 
209.078796 0.639523 
209.091888 0.794097 
209.11554 1.185 
209.128525 1.188311 
209.153458 0.035197 
209.96405 0.009974 
210.008392 0.008275 
210.074921 0.651254 
210.087494 0.403686 
210.112106 1.230758 
210.122452 0.072725 
210.148712 0.856603 
210.185196 0.039127 
210.921738 0.0211 
210.960754 0.041198 
210.971924 1.194817 
211.027496 0.009158 
211.057617 0.218252 
211.071289 0.020255 
211.094757 0.295204 
211.107574 0.716713 
211.132507 0.687088 
211.143723 0.294414 
211.20546 0.019235 
212.052826 0.033102 
212.091476 0.818744 
212.102783 2.383253 
212.127914 0.389448 
212.138718 0.170938 
212.164291 0.033049 
212.955704 0.310486 
212.972473 0.913323 
212.992035 0.027297 
213.010162 0.068005 
213.042603 0.162145 
213.06395 0.085705 
213.089325 0.059616 
213.124512 0.343995 
213.148178 0.009501 
213.163284 0.033522 
213.539917 0.009941 
213.857971 0.007381 
214.085403 0.059149 
214.10701 0.033931 
214.131775 0.019736 
214.143524 0.078688 
214.406738 0.51054 
214.418869 0.797516 
214.437073 0.351914 
214.93541 0.192431 
214.953629 0.422893 
214.968689 0.096142 
215.023132 0.009554 
215.058304 0.0135 
215.070068 0.013242 
215.106094 0.188796 
215.117477 0.021516 
215.142288 0.139645 
215.179153 0.113621 
216.101456 0.175548 
216.137894 0.036342 
216.419785 0.02166 
216.947906 0.010235 
216.986908 0.149453 
217.021484 0.064499 
217.037659 0.063386 
217.085815 0.069593 
217.096451 0.035282 
217.105423 0.035901 
217.121857 0.197436 
217.133148 0.126389 
217.145996 0.011777 
217.158691 0.101287 
217.194809 0.099783 
218.080734 0.29284 
218.117157 1.249701 
219.052643 0.008917 
219.076187 0.081994 
219.101273 0.264133 
219.112534 0.406224 
219.13768 0.213991 
219.148834 0.11779 
219.174118 4.087487 
219.210922 0.053663 
219.58194 0.00902 
220.059006 0.103735 
220.096481 0.715547 
220.1073 0.038035 
220.120316 0.010177 
220.132599 0.813288 
220.143387 0.025865 
220.17746 5.120024 
220.926346 0.01061 
220.979904 0.009893 
221.079956 0.052432 
221.091675 0.61184 
221.103165 0.007866 
221.115814 0.497819 
221.128174 0.851449 
221.153168 0.230965 
221.180283 0.294759 
221.190247 0.017655 
222.075134 0.742489 
222.100296 0.021551 
222.111969 1.179552 
222.148254 0.210829 
222.159943 0.044725 
222.921234 0.122318 
223.068802 0.824436 
223.083145 0.05327 
223.094498 0.730167 
223.10762 0.827465 
223.130692 0.870256 
223.14386 0.566552 
223.168503 0.039874 
223.928802 2.450857 
224.053116 0.084839 
224.07309 0.011385 
224.09082 0.738289 
224.101974 0.017752 
224.127762 0.821857 
224.151276 0.057702 
224.898376 0.010277 
224.936783 0.842532 
225.043182 0.008806 
225.073395 0.472406 
225.087296 0.126679 
225.110947 0.908587 
225.123428 0.595368 
225.147629 0.013177 
225.159744 0.315424 
226.082474 0.065687 
226.107208 0.564381 
226.1436 0.305337 
226.180115 0.148912 
226.937088 0.014286 
226.951538 0.057742 
227.104584 0.162136 
227.128021 0.048879 
227.138809 1.067564 
227.178574 0.01565 
227.900742 0.028108 
227.972122 0.018364 
228.086395 0.041609 
228.101608 0.148737 
228.122925 0.092058 
228.159042 0.02044 
228.195862 0.014207 
229.037949 0.009571 
229.061005 0.010665 
229.074417 0.436694 
229.085251 0.022567 
229.121796 0.336053 
229.156845 0.065128 
229.194061 0.024441 
229.895844 1.144996 
229.917664 1.074416 
230.005569 0.031736 
230.069092 0.19026 
230.08017 0.173073 
230.11673 0.127264 
230.926071 1.324709 
230.966553 4.102085 
230.983627 0.199063 
231.002274 0.411492 
231.032516 0.029077 
231.053741 1.738554 
231.06543 0.012332 
231.100906 0.132577 
231.112534 0.053429 
231.137314 0.190344 
231.17366 0.039136 
231.210281 0.040195 
231.969803 0.010114 
232.059082 0.155497 
232.096115 0.338772 
232.13266 0.223185 
232.922897 0.450432 
232.945801 6.374458 
232.963654 3.075254 
233.049194 0.010458 
233.067398 0.682751 
233.07959 0.090083 
233.091934 0.10007 
233.116364 0.244651 
233.128036 0.205483 
233.15303 0.028382 
233.189102 0.029719 
233.960297 0.089732 
234.075485 0.049786 
234.099869 0.008378 
234.112045 0.542566 
234.135498 0.011518 
234.148315 0.206455 
234.95726 1.646615 
234.997101 0.446185 
235.04805 0.021852 
235.079117 0.590053 
235.094574 0.113428 
235.107391 0.398001 
235.131378 0.346761 
235.143753 1.887809 
235.16806 0.098983 
235.205215 0.051055 
235.960602 0.097824 
235.999466 0.173575 
236.056107 0.030151 
236.079224 0.387215 
236.091187 0.33043 
236.114838 0.105557 
236.127319 1.534482 
236.164108 0.077948 
236.956863 0.537994 
236.974319 0.012643 
236.994873 0.010599 
237.086746 0.38363 
237.109833 0.580023 
237.12323 0.695911 
237.146225 0.367793 
237.159439 0.240785 
237.184341 0.044332 
237.944641 0.026026 
237.957352 0.010832 
238.040756 0.020178 
238.068344 2.365847 
238.106552 0.774636 
238.118698 0.253354 
238.14328 0.822397 
238.155136 0.039777 
238.89267 0.022102 
238.952225 0.031621 
238.974701 0.008871 
239.008286 0.070819 
239.05954 0.009139 
239.071808 0.087755 
239.089035 0.262733 
239.102509 0.370925 
239.125259 0.198783 
239.138748 0.905508 
239.176941 0.020827 
240.086472 0.02531 
240.09938 0.024868 
240.122818 0.401441 
240.13707 0.013131 
240.158722 0.010832 
240.909042 0.145681 
240.931808 0.085641 
241.049881 0.077198 
241.074539 0.008985 
241.084824 0.012937 
241.119263 0.233293 
241.156693 0.17823 
241.194443 0.014425 
241.939301 0.979202 
242.041702 0.022642 
242.080719 0.020422 
242.102676 0.061679 
242.117294 0.032032 
242.909592 0.154842 
242.947235 0.013795 
243.100677 0.050003 
243.113007 0.032724 
243.134109 1.404578 
243.173676 0.103724 
243.210434 0.016633 
244.095673 0.070632 
244.118622 0.062173 
244.132919 0.077122 
244.982803 0.019698 
245.000656 0.360556 
245.068741 0.075079 
245.105057 0.150004 
245.128143 0.054473 
245.15274 0.130031 
245.911179 0.052877 
245.934097 0.011279 
246.075653 0.056956 
246.110535 0.431379 
246.148193 0.208685 
246.893555 0.083245 
246.941177 0.049167 
246.961243 0.134916 
246.978882 0.057562 
247.001175 0.027532 
247.014511 0.893101 
247.028839 0.007755 
247.084686 0.429007 
247.103043 0.120358 
247.120865 0.010399 
247.131805 0.081537 
247.144073 0.18684 
247.168304 0.11994 
247.204041 0.010806 
247.907074 1.515662 
247.928619 8.903226 
247.982727 0.059092 
248.015747 1.804472 
248.053238 0.330756 
248.079193 0.672636 
248.091461 0.147567 
248.12738 0.68292 
248.163895 0.162037 
248.500366 0.009479 
248.889984 0.127479 
248.908401 0.015931 
248.9366 8.267525 
248.976791 2.55404 
248.993912 0.250698 
249.012146 2.327273 
249.042862 0.011393 
249.064209 1.588804 
249.078491 0.162152 
249.110016 0.047695 
249.122772 0.220528 
249.146362 0.088102 
249.159256 0.04629 
249.183594 0.073337 
249.220596 0.017067 
249.5867 0.012697 
249.907486 0.009166 
249.940002 0.327221 
249.961502 0.252236 
249.979691 0.464847 
250.01413 0.269812 
250.040451 0.041349 
250.067078 0.202576 
250.106461 0.710974 
250.120895 0.018714 
250.143265 0.913352 
250.179199 0.025343 
250.89299 0.051924 
250.932648 3.731192 
250.956345 5.18031 
250.973526 2.588591 
251.010376 0.008153 
251.033447 0.02088 
251.060562 0.15848 
251.077881 0.370996 
251.089371 0.061567 
251.102051 0.074573 
251.125412 0.727514 
251.138733 0.676305 
251.161652 0.253141 
251.175629 0.061553 
251.236862 0.012957 
251.90773 0.011282 
251.935486 0.034919 
251.958466 0.040321 
251.971664 0.078019 
252.061279 0.014091 
252.085434 0.130728 
252.102234 0.023632 
252.122208 0.328823 
252.158218 0.098119 
252.932877 0.068399 
252.968277 2.104575 
253.037796 0.019478 
253.068069 0.018586 
253.081421 0.656487 
253.104599 0.241241 
253.118988 0.691233 
253.141068 0.120925 
253.154495 1.139112 
253.191055 0.021036 
253.970352 0.264432 
254.089767 0.011973 
254.10202 0.03401 
254.113892 0.304648 
254.138031 0.550965 
254.174973 0.05998 
254.946411 0.418894 
254.966965 0.861435 
255.08194 0.011476 
255.09523 0.784549 
255.109299 0.026119 
255.133774 0.552816 
255.170227 0.16699 
255.967957 0.010892 
256.078857 8.496337 
256.131989 0.073499 
256.963959 0.760117 
257.082153 0.598651 
257.115601 0.031337 
257.151886 0.014316 
257.967682 0.298761 
258.062714 0.008914 
258.111267 0.03103 
258.147217 0.013702 
258.742828 0.00975 
258.921387 0.015668 
258.95874 0.569964 
259.04715 0.008793 
259.096069 0.019542 
259.131592 0.018039 
259.14444 0.010789 
259.168243 0.086483 
259.205658 0.0925 
259.241882 0.03586 
260.090393 0.042273 
260.127106 0.106894 
260.163483 0.045627 
260.95694 0.241147 
261.028687 0.011434 
261.100006 0.046734 
261.123901 0.041958 
261.159912 0.140584 
261.18454 0.10007 
261.220947 0.092 
262.03125 0.016113 
262.074738 0.139444 
262.106781 0.11416 
262.143097 0.31174 
262.178436 0.008402 
262.952118 0.244714 
262.993256 0.008988 
263.010834 0.00974 
263.027435 0.038777 
263.079651 0.060283 
263.097076 0.055127 
263.11496 0.041552 
263.139465 0.343979 
263.161011 0.0262 
263.175232 0.013661 
263.199829 0.171636 
263.42218 0.009405 
263.923828 0.135934 
263.944275 0.480905 
264.031372 0.029582 
264.054382 0.186413 
264.092865 0.325049 
264.121765 0.551755 
264.158081 0.655901 
264.171509 0.113376 
264.907227 0.18175 
264.929901 0.011173 
264.949066 0.106962 
264.971283 0.091433 
264.988647 0.05339 
265.089844 0.042192 
265.103699 0.014494 
265.140778 0.411145 
265.154694 0.945001 
265.177551 0.178735 
265.215179 0.013537 
265.939301 100.0 
266.026947 1.003488 
266.069153 0.100148 
266.089569 0.009492 
266.102295 0.013573 
266.137939 0.413469 
266.174286 0.018255 
266.910126 0.975278 
266.943848 7.391136 
266.984283 0.304426 
267.029022 0.009445 
267.05365 0.081335 
267.07373 0.126518 
267.089752 0.17135 
267.119781 0.372009 
267.133972 0.125828 
267.156067 0.030966 
267.16983 0.210702 
267.878174 0.02175 
267.903595 0.019513 
267.944397 0.825613 
267.958221 0.011076 
268.033905 0.00882 
268.077057 0.02263 
268.095764 0.021762 
268.115845 0.570026 
268.130157 0.094888 
268.153778 0.044211 
268.263092 12.489015 
268.905579 0.148782 
268.942993 8.71887 
268.978638 0.04646 
269.043976 0.010755 
269.112488 0.205848 
269.133026 0.320366 
269.150146 0.678214 
269.945282 0.280409 
270.094055 0.042251 
270.108978 0.480795 
270.146606 0.177507 
271.08371 0.012868 
271.130096 0.332038 
271.146759 0.396565 
271.165863 0.171318 
272.088257 0.068036 
272.12674 0.080712 
272.161713 0.036972 
272.93808 0.069409 
272.956665 0.433369 
273.082092 0.009984 
273.145782 0.015868 
273.181793 0.157795 
273.221008 0.015057 
273.257477 0.11788 
274.142334 0.232168 
274.973969 4.696049 
275.057983 0.030261 
275.113068 0.011409 
275.139618 0.106632 
275.162201 0.010874 
275.200409 0.056733 
275.236664 0.021283 
275.954468 0.010309 
275.978058 2.440716 
276.122284 0.138937 
276.158081 0.069009 
276.932098 0.870267 
276.968781 11.316219 
277.057587 0.035105 
277.118256 0.062491 
277.139313 0.013968 
277.154694 0.29001 
277.191559 0.010089 
277.215576 0.290698 
277.251373 0.027881 
277.900848 0.030702 
277.950043 0.136106 
277.970764 2.033839 
278.065887 0.008393 
278.101624 0.042178 
278.137634 0.150195 
278.155548 0.011885 
278.174561 0.093476 
278.899139 0.011549 
278.966644 3.888158 
279.13446 0.200181 
279.155884 0.200902 
279.170288 0.26018 
279.194305 0.096339 
279.231506 0.104984 
279.268616 0.016702 
279.896576 1.013649 
279.954926 4.095547 
280.11792 0.097951 
280.165833 4.756614 
280.190643 0.334956 
280.898285 0.021257 
280.959625 0.344106 
281.135254 0.121728 
281.150635 0.252799 
281.168884 0.839839 
281.185364 0.078855 
281.247253 0.032509 
281.896362 0.71399 
281.912048 0.013032 
281.934448 0.190373 
281.955353 0.357299 
282.064209 0.045912 
282.082275 0.007984 
282.111877 0.024321 
282.13385 0.062534 
282.181427 0.473631 
282.278687 1.397294 
282.919403 0.17372 
282.958466 0.392374 
283.109436 0.025289 
283.128754 0.0146 
283.165131 0.321356 
283.282135 0.03071 
283.892151 0.164193 
283.949738 23.119289 
284.079132 0.056504 
284.919952 2.160853 
284.953125 1.378626 
285.009247 1.835075 
285.064453 0.0216 
285.084198 0.025157 
285.100159 0.033717 
285.120392 0.019516 
285.920013 0.113203 
285.953247 0.241367 
286.143066 0.016368 
286.17807 0.04175 
286.915985 0.515685 
286.953125 1.1849 
287.163208 0.291392 
287.200195 0.096065 
287.237762 0.050363 
287.271179 0.011752 
288.157013 0.074723 
288.171051 0.141681 
288.95517 0.192189 
288.989441 0.091659 
289.094543 0.089709 
289.118683 0.016733 
289.154663 1.079881 
289.191559 0.248225 
289.215729 0.05539 
289.252014 0.046399 
289.939117 3.569462 
289.992188 0.011688 
290.009186 0.011538 
290.070129 0.558788 
290.098267 0.252349 
290.136963 0.53836 
290.156738 0.031839 
290.174072 0.223419 
290.909454 0.084289 
290.946747 0.940811 
290.964569 0.051161 
290.984741 0.421184 
291.055847 0.057451 
291.073181 0.084025 
291.0914 0.15529 
291.134094 0.286209 
291.170593 0.408053 
291.192657 0.041916 
291.231842 0.18324 
291.267883 0.930066 
291.934601 0.569715 
291.985809 0.026473 
292.026306 0.019637 
292.116486 0.083634 
292.136383 0.019932 
292.153076 1.225369 
292.190277 0.036739 
292.27066 0.020431 
292.908203 0.063292 
292.947723 0.682333 
292.98468 3.33661 
293.069214 0.238144 
293.085785 0.086178 
293.107056 0.008833 
293.122314 0.05629 
293.150146 0.391409 
293.171814 0.427856 
293.187012 0.030597 
293.209198 0.115613 
293.247528 0.026689 
293.969147 0.118567 
293.988312 1.84397 
294.114716 0.010877 
294.132812 0.151863 
294.182526 0.157469 
294.206696 0.019678 
294.442139 0.00869 
294.876373 0.015746 
294.901642 0.010903 
294.941376 0.540376 
294.979889 7.342624 
295.113739 0.141015 
295.15094 0.760647 
295.165802 0.096189 
295.187012 0.171347 
295.895752 0.393352 
295.910614 0.018941 
295.959747 1.028541 
295.980682 1.721396 
296.12561 0.024614 
296.186279 0.015796 
296.909729 0.124995 
296.977386 3.041632 
297.129883 0.025623 
297.144226 0.073999 
297.181396 0.042711 
297.906708 0.811982 
297.965424 0.820816 
299.060913 0.082173 
299.125916 0.044163 
299.907227 0.21045 
300.159027 0.071241 
301.176392 0.072353 
301.215393 0.015398 
301.250244 0.017719 
303.019012 0.071944 
303.133179 0.042103 
303.232361 0.017155 
304.114197 0.033273 
304.151794 0.019028 
304.189209 0.008909 
305.149323 0.739247 
305.167542 0.00973 
305.185333 0.530435 
305.209473 0.045934 
305.247559 0.130446 
305.987915 0.369939 
306.130371 0.015726 
306.149933 0.047467 
306.167542 0.20367 
306.185089 0.052843 
306.204285 0.032057 
306.919159 0.328462 
306.996033 0.016933 
307.017456 0.010644 
307.059204 0.249048 
307.1073 0.016433 
307.128967 0.082813 
307.164673 1.042085 
307.185638 0.11445 
307.202606 0.2995 
307.22641 0.119312 
307.263214 0.058713 
307.922211 0.227205 
307.949677 17.015823 
307.985199 1.379869 
308.019012 0.258657 
308.043152 0.050891 
308.080048 0.871072 
308.112213 0.050644 
308.129669 0.040902 
308.146759 0.111138 
308.165192 0.137165 
308.185028 0.392244 
308.920135 2.231405 
308.952057 1.90215 
308.99472 0.397144 
309.015839 0.26679 
309.064301 0.011836 
309.08313 0.294671 
309.100006 0.024037 
309.115997 0.024967 
309.128265 0.021316 
309.144104 0.366045 
309.163422 0.062165 
309.180939 0.448544 
309.276215 0.013405 
309.918976 0.382551 
309.945007 4.473715 
309.975098 0.027965 
309.997192 0.01228 
310.09494 0.00952 
310.128204 0.032732 
310.144745 0.105161 
310.1633 0.430136 
310.181793 0.225208 
310.201111 0.05925 
310.918213 1.32091 
310.938873 0.029739 
310.957336 0.284556 
310.974731 0.023353 
310.993927 0.155804 
311.079376 1.752965 
311.096039 0.22779 
311.121033 1.088254 
311.140106 0.171664 
311.16037 0.176731 
311.195404 0.046419 
311.293701 0.235579 
312.083893 0.014667 
312.122192 0.105672 
312.194672 0.0266 
312.83786 0.050225 
313.117889 0.70616 
313.155823 0.042391 
313.906189 0.103703 
313.970093 0.158694 
314.137207 0.067624 
314.174408 0.015554 
316.200836 0.022468 
317.18692 0.024576 
317.247681 0.084521 
318.168701 0.205183 
319.128754 0.245362 
319.147003 0.011303 
319.165497 0.112136 
319.22644 0.12345 
319.262726 1.598639 
320.196686 0.010841 
320.265961 0.059782 
320.774963 0.010184 
321.143127 0.191279 
321.181732 0.27679 
321.929535 0.129912 
321.965546 0.623786 
322.176788 0.911542 
322.198975 0.023884 
322.934998 0.032148 
322.969604 0.009971 
323.141632 0.030701 
323.159546 1.084626 
323.178558 0.133695 
323.196838 0.383201 
323.960968 0.071561 
324.139069 0.123661 
324.159973 0.131748 
324.192383 0.287066 
324.325623 5.967217 
324.930267 0.033477 
325.154541 0.109222 
325.175079 0.212586 
325.193817 0.017147 
325.211487 0.145397 
325.329041 1.084622 
325.934784 0.124494 
325.960327 1.328213 
326.170715 1.556828 
326.911469 0.013135 
326.930389 1.07451 
326.96521 0.181059 
326.986938 0.009574 
327.077057 1.85007 
327.172272 0.211239 
327.202972 0.045215 
327.82605 0.036947 
327.933289 0.154763 
327.955475 1.247704 
328.081451 0.154388 
328.186096 0.015893 
328.833984 0.03923 
328.928772 0.417639 
328.952454 0.073171 
329.090179 0.176123 
329.216705 0.024327 
330.090729 0.011416 
331.164581 0.024416 
332.148499 0.199231 
332.184174 0.369526 
333.143372 0.186429 
333.181335 0.694079 
333.278046 0.014258 
334.141907 0.022349 
334.1763 0.875208 
334.2117 0.024637 
335.144562 0.312492 
335.160004 0.164663 
335.181732 0.750454 
335.217834 0.538221 
335.29422 0.057941 
336.142395 0.483978 
336.179382 0.771081 
336.192719 0.366352 
336.218994 0.131477 
337.124329 0.261977 
337.13797 0.043907 
337.159668 2.721343 
337.196686 0.999406 
337.272705 0.176118 
338.166962 0.436835 
338.205139 0.31265 
338.2323 0.009966 
339.100525 0.020941 
339.138855 0.093316 
339.168549 1.031958 
339.19162 0.088705 
339.940063 0.231581 
340.17038 0.715708 
341.236389 0.01468 
344.828552 0.040284 
344.977173 0.011884 
345.895721 0.050275 
348.352203 0.010594 
349.175568 0.595511 
349.214081 0.626747 
349.309509 0.048114 
350.137421 0.022263 
350.156372 0.335639 
350.173553 0.505148 
350.197144 1.125385 
350.23053 0.008212 
350.30545 0.021969 
351.152649 1.94709 
351.190247 2.60126 
351.228271 0.413549 
351.264282 0.327492 
352.126709 0.051319 
352.152771 0.620495 
352.188324 0.792708 
352.212524 0.638222 
353.15097 0.269437 
353.17041 0.078801 
353.207916 0.675802 
353.841156 0.202052 
362.980286 0.024098 
365.362885 0.016224 
367.135345 0.051347 
367.170807 1.723895 
367.206055 3.771633 
367.225067 1.279652 
367.246094 1.866974 
367.281799 0.385114 
368.11142 0.076204 
368.128693 0.142656 
368.161652 1.349108 
368.179169 1.975236 
368.210144 4.034734 
368.248657 0.714471 
368.277985 0.600351 
368.424713 89.735901 
369.09613 0.008419 
369.110962 0.051788 
369.149994 3.230478 
369.186157 5.563896 
369.203278 3.290707 
369.221344 2.072126 
369.237976 0.473793 
369.262573 0.556691 
369.277191 0.42645 
369.297028 7.010438 
369.384308 1.033074 
369.428009 24.030821 
370.103149 0.035212 
370.136841 2.677821 
370.176666 0.625087 
370.197876 1.821084 
370.233795 2.282156 
370.274323 0.114612 
370.299408 1.325725 
370.345764 0.212951 
370.406708 0.095373 
370.431152 2.795881 
371.125153 0.154376 
371.163788 4.657682 
371.197723 1.725512 
371.218231 0.962016 
371.239014 1.487348 
371.275757 2.621354 
371.301361 0.019571 
379.512299 0.012454 
385.331238 0.008968 
391.920502 0.013866 
392.742462 0.008099 
END IONS

