BEGIN IONS
PEPMASS=153.019
CHARGE=1+
COMPOUNDNAME=Patulin
LIBRARYQUALITY=3
SMILES=N/A
INCHIKEY=ZRWPUFFVAOMMNM-UHFFFAOYSA-N
INCHI=InChI=1S/C7H6O4/c8-6-3-4-5(11-6)1-2-10-7(4)9/h1,3,7,9H,2H2
MSLEVEL=2
SOURCE_INSTRUMENT=N/A-ESI-QFT
FILENAME=library_mgf.mgf
SEQ=*..*
IONMODE=negative
ORGANISM=MONA
NAME=Patulin [M-H]-
PI=MoNA
DATACOLLECTOR=MoNA:VF-NPL-QEHF025931
PUBMED=N/A
SUBMITUSER=mwang87
TAGS=
SPECTRUMID=CCMSLIB00004716994
SCANS=25931
50.441689 0.020327 
50.696354 0.02411 
50.706467 0.021472 
51.022713 0.020478 
51.08847 0.025715 
51.563908 0.025312 
51.652184 0.022736 
52.135311 0.024917 
52.216694 0.020568 
52.510208 0.02208 
52.808292 0.021727 
53.001888 0.168663 
53.038265 0.217793 
53.781479 0.026439 
54.071907 0.023847 
54.292679 0.028281 
54.622795 0.019093 
54.775627 0.0228 
55.017529 4.535788 
55.539246 0.025283 
56.020859 0.022682 
56.60421 0.018437 
56.64566 0.023796 
56.665539 0.026561 
57.534908 0.02631 
58.959572 0.020039 
58.990219 0.023408 
59.364571 0.022268 
60.349712 0.021179 
61.498203 0.022233 
61.775204 0.028679 
62.14994 0.021961 
62.398033 0.030962 
62.578743 0.020903 
62.708546 0.022272 
63.022633 1.566728 
63.031956 0.017626 
63.045856 0.020473 
65.038284 8.707899 
66.041618 0.215901 
66.391602 0.030641 
66.83728 0.022894 
67.017548 4.341161 
67.241562 0.020173 
68.020805 0.046129 
68.890968 0.02243 
68.996811 10.946 
69.033203 5.139101 
70.000267 0.057096 
70.036758 0.022681 
71.012466 2.610572 
72.221901 0.021032 
72.597412 0.023445 
72.641335 0.028777 
72.905365 0.023882 
73.041817 0.026198 
73.088791 0.020336 
74.336723 0.021363 
74.610939 0.022809 
74.744034 0.026025 
74.775658 0.019554 
75.220306 0.021293 
75.659241 0.023321 
76.104294 0.028923 
79.005501 0.018958 
79.017586 14.795914 
79.631721 0.021639 
80.020966 0.450859 
80.025406 0.89025 
81.019989 0.444183 
81.033234 100.0 
81.046387 0.354277 
82.036568 5.360637 
82.039093 0.058873 
82.992355 0.024635 
82.99855 0.050754 
83.012474 33.756645 
83.025711 0.036379 
84.015862 1.376602 
84.109215 0.029627 
84.501785 0.021952 
85.028145 0.39217 
85.054817 0.028019 
85.637215 0.023074 
86.449097 0.026335 
88.59079 0.017386 
90.467491 0.020194 
91.01757 0.031182 
93.332367 0.022965 
94.326889 0.022453 
94.963654 0.021804 
95.012535 2.191815 
95.978249 0.024155 
96.015633 0.02161 
96.815903 0.025367 
96.821266 0.018827 
97.024742 0.025129 
97.028145 5.218829 
97.368805 0.017683 
97.999565 0.025124 
98.031418 0.084002 
98.044159 0.0266 
99.00737 1.080883 
99.043793 2.203952 
100.046631 0.021526 
100.183929 0.019883 
100.675377 0.026978 
103.398384 0.02151 
105.895744 0.024761 
107.012573 2.963036 
107.016312 0.026523 
107.7295 0.018885 
108.016525 0.175539 
108.020355 2.492895 
108.708801 0.025879 
108.783188 0.024286 
109.00766 0.105997 
109.028183 56.677662 
109.049164 0.148806 
110.031601 3.603524 
111.007523 1.427712 
111.018654 0.837928 
112.011147 0.026908 
112.204903 0.022541 
112.313271 0.028828 
119.168419 0.023533 
120.361679 0.024903 
122.628883 0.021463 
122.905426 0.041078 
123.007507 7.111189 
123.044006 0.048783 
124.010727 0.220243 
124.01532 0.6692 
125.015297 0.025093 
125.023193 12.083365 
125.839722 0.018332 
126.026596 0.649912 
126.622261 0.027084 
127.038795 0.248426 
127.299553 0.023 
128.220001 0.027718 
130.180374 0.023851 
130.351608 0.027837 
130.654221 0.021725 
131.830109 0.031008 
135.007599 4.650303 
135.214508 0.021722 
136.010925 0.13708 
137.35318 0.024807 
138.031067 0.277113 
141.018021 0.274062 
142.276779 0.024995 
142.615173 0.016866 
147.840591 0.024677 
150.25502 0.029506 
151.002625 0.595332 
152.985489 0.019383 
153.018219 15.177683 
153.054688 0.02275 
154.021637 0.915722 
155.033752 0.102733 
159.691574 0.033078 
160.830658 0.025302 
163.252747 0.024613 
166.964188 0.025524 
170.925446 0.02162 
END IONS

