BEGIN IONS
PEPMASS=427.393
CHARGE=1+
COMPOUNDNAME=3-Epilupeol
LIBRARYQUALITY=3
SMILES=N/A
INCHIKEY=MQYXUWHLBZFQQO-ISZJTHHZSA-N
INCHI=InChI=1S/C30H50O/c1-19(2)20-11-14-27(5)17-18-29(7)21(25(20)27)9-10-23-28(6)15-13-24(31)26(3,4)22(28)12-16-30(23,29)8/h20-25,31H,1,9-18H2,2-8H3/t20-,21+,22-,23+,24+,25+,27+,28-,29+,30+/m0/s1
MSLEVEL=2
SOURCE_INSTRUMENT=N/A-ESI-QFT
FILENAME=library_mgf.mgf
SEQ=*..*
IONMODE=positive
ORGANISM=MONA
NAME=3-Epilupeol [M+H]+
PI=MoNA
DATACOLLECTOR=MoNA:VF-NPL-QEHF005660
PUBMED=N/A
SUBMITUSER=mwang87
TAGS=
SPECTRUMID=CCMSLIB00004696723
SCANS=5660
50.41185 0.028233 
50.422794 0.031231 
50.962299 0.026606 
50.997276 0.030182 
53.002895 0.090517 
53.397644 0.034317 
53.447109 0.032212 
53.54208 0.029323 
54.102833 0.028584 
54.698643 0.033275 
54.814468 0.026133 
54.88969 0.029117 
55.016502 0.039521 
55.018608 0.439301 
55.055004 5.595879 
55.131115 0.03191 
55.683163 0.035424 
55.824169 0.028683 
56.050228 0.129774 
56.696007 0.031335 
56.767975 0.041264 
56.965557 0.326264 
57.034252 1.638271 
57.070652 22.100979 
57.072292 0.206605 
57.316265 0.032207 
57.444374 0.027881 
58.065899 5.037573 
58.073997 0.494693 
58.375916 0.034297 
58.446304 0.031103 
58.644272 0.048605 
58.944756 0.03286 
59.00198 0.030338 
59.046104 0.032622 
59.048405 0.065669 
59.049904 5.433105 
59.061138 1.29614 
59.069138 0.05327 
59.472755 0.028103 
59.491234 0.033174 
59.537716 0.039452 
59.855728 0.032347 
59.99099 0.53197 
60.045116 1.049466 
60.053268 0.124338 
60.081509 0.308758 
60.304649 0.031478 
60.421715 0.032286 
60.447578 0.032391 
61.011395 4.482482 
62.019222 1.003636 
62.060787 0.329672 
62.374706 0.033852 
62.884216 0.03465 
62.979355 0.036454 
62.982529 0.2927 
63.70137 0.02801 
63.998547 0.032384 
64.006104 0.0336 
64.286766 0.027905 
64.533844 0.032205 
64.863106 0.032757 
65.562782 0.028618 
65.718353 0.027172 
65.846992 0.033779 
65.877708 0.026713 
67.054939 6.95107 
67.544647 0.029219 
67.792503 0.026853 
67.978043 0.031867 
68.058128 0.0768 
68.21981 0.027239 
68.997765 0.039679 
69.034187 0.922952 
69.07058 9.827914 
69.386261 0.033583 
69.782959 0.028774 
69.961784 0.031835 
70.065826 1.073608 
70.073959 0.28467 
70.174965 0.029148 
71.049812 1.651224 
71.08622 14.680319 
72.045059 0.828247 
72.053345 0.041754 
72.081367 0.585384 
72.0895 0.325505 
72.346031 0.02816 
72.95153 0.031013 
73.029015 0.395762 
73.047462 1.147286 
73.065422 0.162311 
73.308022 0.035705 
73.407188 0.029986 
74.060669 0.140512 
74.097076 1.997963 
74.432854 0.031751 
74.488091 0.031605 
74.524612 0.034267 
75.044632 0.176073 
75.056046 0.031488 
75.741722 0.029107 
76.028236 0.036159 
76.076378 0.317513 
76.201668 0.02737 
77.587379 0.034881 
77.613441 0.035954 
78.332298 0.033539 
78.956345 0.036916 
79.02182 3.695132 
79.054848 2.56815 
80.948425 0.599151 
81.033951 0.035214 
81.07048 16.061596 
81.073135 0.057548 
81.624573 0.03766 
82.073799 0.560813 
82.366364 0.032077 
82.751831 0.028231 
82.945488 0.096494 
82.963646 0.032205 
83.049713 1.332877 
83.086121 8.62095 
83.794647 0.032909 
84.044952 0.108102 
84.081345 0.22895 
84.089233 0.113615 
84.091995 0.027019 
84.557953 0.035222 
84.71347 0.028021 
84.902771 0.03158 
85.017479 0.027026 
85.028885 0.434789 
85.040215 0.062749 
85.065331 3.097996 
85.101753 9.133027 
86.060524 0.182391 
86.097008 1.799279 
86.105049 0.316789 
86.147835 0.026626 
86.479378 0.036833 
87.044601 1.796572 
88.022034 2.623588 
88.07618 0.225961 
89.060234 4.200351 
89.803688 0.03448 
90.055656 0.036199 
90.215393 0.030669 
91.054756 2.367899 
91.057861 9.964559 
93.037292 1.341735 
93.067085 0.038316 
93.070343 7.130469 
93.088501 0.037134 
93.71003 0.030382 
94.07373 0.154818 
94.192123 0.038219 
94.293289 0.02749 
95.049591 1.392627 
95.086006 23.823402 
95.267639 0.032796 
96.089287 1.645578 
96.41124 0.026558 
96.658783 0.032895 
96.922142 0.200197 
97.040298 0.070578 
97.065208 1.746359 
97.101616 6.295966 
97.128677 0.049216 
97.879883 0.027277 
98.060616 0.057821 
98.096863 0.356228 
98.104874 0.181097 
98.326691 0.034298 
98.771629 0.037389 
98.919708 0.032809 
98.975807 0.527933 
99.044411 0.971716 
99.080872 0.780165 
99.11731 0.337596 
100.076042 1.502463 
100.112457 1.212098 
100.880692 0.027627 
101.003578 1.900359 
101.060181 1.957482 
102.055344 0.129993 
103.039322 0.606474 
103.200256 0.034763 
104.107315 1.204603 
104.298523 0.02763 
104.992729 0.035495 
105.034012 0.13948 
105.07019 5.476461 
105.5214 0.031304 
106.073532 0.050199 
106.08651 0.16751 
107.049553 0.14375 
107.085884 15.363172 
107.457314 0.028671 
107.698013 0.027696 
108.089149 0.813744 
108.127235 0.028766 
108.985085 0.029741 
109.065086 2.100846 
109.101471 14.958875 
109.232681 0.033485 
109.24675 0.033903 
110.104797 0.910141 
110.177589 0.031049 
110.493515 0.033755 
111.044342 0.306502 
111.080719 1.421668 
111.117126 2.237975 
113.059975 0.137721 
113.096252 0.126136 
113.132843 0.038121 
114.091599 0.065471 
115.075897 0.040671 
116.053116 3.973691 
116.107254 0.109173 
116.194191 0.030638 
116.325249 0.031993 
116.538452 0.038627 
116.986153 1.163561 
117.056297 0.043589 
117.070068 0.559276 
118.048798 0.037002 
118.086502 0.034829 
118.413033 0.037399 
119.049294 1.236885 
119.085732 12.39704 
119.571472 0.03346 
120.080971 1.106007 
120.088989 0.762531 
121.064987 1.914349 
121.096649 0.111682 
121.101395 14.05527 
122.10466 1.384862 
122.941078 0.033508 
123.04406 0.044979 
123.080597 2.156965 
123.117004 7.638833 
123.652542 0.034222 
124.075249 0.03858 
124.083855 0.045271 
124.120163 0.387885 
125.000031 0.303523 
125.059639 0.125462 
125.096275 1.080725 
125.132683 0.350786 
125.54409 0.033925 
125.578651 0.038206 
126.914597 0.030729 
127.075226 0.042762 
128.175873 0.041227 
128.315887 0.039916 
129.054642 0.082008 
129.070236 0.036225 
129.878998 0.03279 
129.890091 0.034931 
130.159332 0.04501 
130.979309 0.032856 
131.085648 2.281935 
131.173447 0.038149 
131.222076 0.039213 
133.064804 1.190868 
133.08577 0.2865 
133.101227 8.861873 
133.159973 0.028024 
133.580063 0.030875 
134.104538 0.614896 
134.979385 0.029764 
134.996552 2.229908 
135.044006 0.121788 
135.080505 4.64887 
135.116837 14.599953 
135.122421 0.045019 
136.075531 0.079964 
136.120117 1.423916 
137.059799 0.249961 
137.09613 2.628621 
137.132492 4.026772 
137.971649 0.040272 
138.091019 0.039198 
138.099075 0.048081 
138.109238 0.034769 
138.127518 0.033719 
138.135651 0.148046 
139.075348 0.378912 
139.111542 0.356772 
139.170044 0.042008 
139.300491 0.036415 
140.068741 0.071252 
140.143234 0.901901 
140.959259 1.889213 
142.158813 0.078378 
142.938156 0.032466 
143.08551 0.657613 
144.597031 0.032319 
145.065201 0.059452 
145.101166 5.451819 
146.104431 0.261979 
146.967056 0.028083 
146.974426 0.750603 
147.080353 1.317903 
147.116776 8.912318 
147.764206 0.029757 
148.024826 0.24799 
148.120087 0.411116 
148.972198 0.033835 
149.012009 0.036422 
149.044815 0.437057 
149.059677 0.104092 
149.096207 1.955101 
149.132523 5.993103 
149.851624 0.03543 
150.020218 0.038513 
150.135925 0.30069 
150.992889 0.040725 
151.075485 0.498057 
151.11171 0.78688 
151.14798 0.372355 
151.970078 1.12298 
152.106659 0.036678 
152.951492 0.184463 
152.989548 0.147532 
153.007187 0.25346 
153.090866 0.138579 
153.674911 0.040081 
153.904358 0.033764 
153.959564 0.064307 
153.966553 0.035018 
154.158905 0.120148 
154.541168 0.032826 
154.968582 0.579182 
155.085739 0.099739 
156.138214 0.117992 
156.174835 0.05113 
156.933517 0.032511 
157.045441 0.037249 
157.101151 1.89911 
158.192688 0.033115 
159.046829 0.051643 
159.080338 0.448198 
159.116806 5.668135 
159.98996 0.041402 
160.120163 0.256424 
160.578369 0.04396 
160.749863 0.029842 
161.096115 3.523247 
161.132492 5.606486 
162.099655 0.095195 
162.135818 0.204173 
163.0271 0.034063 
163.075241 0.2459 
163.111771 1.430056 
163.14801 2.720523 
164.114487 0.035574 
164.920563 1.71989 
165.090958 0.059436 
165.127289 0.330638 
165.163177 0.040688 
165.529938 0.03166 
166.499252 0.03044 
166.915939 0.048821 
167.05545 4.567706 
168.209061 0.037729 
168.982803 0.092578 
169.101349 0.407428 
169.980728 0.237214 
170.962784 0.407137 
171.013824 0.037093 
171.080795 0.039218 
171.116745 1.967537 
172.979614 0.035203 
173.010254 0.035548 
173.096039 1.573876 
173.132492 3.791238 
174.006729 0.077375 
174.13588 0.146823 
174.63707 0.031275 
174.808243 0.034457 
174.972458 1.101093 
175.003784 0.035581 
175.039276 0.167496 
175.075348 0.05955 
175.111725 4.061639 
175.148148 3.833056 
176.114792 0.050685 
176.151321 0.232444 
177.057251 0.108441 
177.090927 0.235401 
177.127441 3.140645 
177.163742 3.473969 
177.999542 0.032863 
178.131119 0.040161 
179.106949 0.042138 
179.142624 0.086073 
180.894485 0.160847 
181.101196 0.039458 
181.122452 0.043853 
182.153946 0.053544 
183.035507 0.036859 
183.11676 0.873671 
184.073257 3.130104 
185.096191 0.287856 
185.132568 1.86654 
186.136017 0.089072 
186.927536 0.042271 
187.075302 0.040381 
187.111771 6.233 
187.148178 5.069543 
187.732544 0.0323 
188.115402 0.439596 
188.151443 0.297586 
188.974045 0.674372 
188.988419 0.056222 
189.091019 0.233542 
189.127396 1.514941 
189.163712 10.754369 
190.130768 0.042225 
190.167068 1.335324 
190.269547 0.041755 
190.953674 0.079828 
191.002838 0.042558 
191.10672 0.856803 
191.143021 1.089329 
191.179337 3.540042 
192.182587 0.151528 
192.961838 0.153714 
193.122147 0.212091 
193.159027 0.039243 
193.38501 0.036072 
194.96225 0.199872 
194.999863 0.445448 
195.117218 0.154152 
195.138092 0.102058 
195.27774 0.030098 
195.333527 0.035962 
195.959961 1.288488 
196.868561 0.054933 
196.957123 0.036574 
197.132629 0.464794 
198.573395 0.03684 
198.66864 0.039682 
199.111816 0.293198 
199.148087 1.492787 
200.151611 0.071113 
201.090805 0.044757 
201.127335 3.18919 
201.163879 2.878479 
202.132721 0.144879 
202.166962 0.169671 
203.106583 0.336217 
203.143143 3.123697 
203.179581 1.607865 
203.609589 0.036077 
204.146255 0.854297 
205.085464 0.103605 
205.122391 0.664215 
205.158661 8.47175 
205.195526 0.040106 
206.162125 1.056253 
206.977844 1.299952 
207.053787 0.043642 
207.100952 0.105499 
207.117447 0.040492 
207.174408 1.138199 
209.117645 0.094359 
209.132416 0.136399 
210.185257 0.28805 
210.972641 0.03471 
211.147858 0.517072 
212.235153 0.037868 
212.842484 0.04137 
212.972717 1.171272 
213.009995 0.354352 
213.127441 0.57595 
213.163651 1.044011 
213.801559 2.551828 
213.813843 0.701256 
213.81575 0.695965 
213.970428 3.181924 
214.969711 0.278136 
215.088501 0.091088 
215.106339 0.083109 
215.127274 0.042934 
215.142899 1.907461 
215.179398 1.369991 
215.198334 0.034207 
215.287827 0.037073 
216.065048 0.037398 
216.182602 0.041037 
216.969543 0.041775 
216.987503 0.070235 
217.122055 0.080659 
217.158768 0.891566 
217.195023 0.223192 
218.108566 0.032433 
218.668488 0.033543 
219.06398 0.049211 
219.138153 0.222922 
219.174423 1.76239 
221.11731 0.097555 
222.301025 0.033975 
222.898804 0.417346 
223.147324 0.135991 
224.968765 0.291322 
225.042618 0.487191 
225.163712 0.460808 
226.216217 0.752884 
226.988708 0.040032 
227.070312 0.92737 
227.1427 0.392662 
227.179474 0.481607 
227.985611 0.099042 
228.073792 0.218011 
228.671326 0.046424 
228.88916 0.121245 
229.158752 0.603017 
229.195114 0.2173 
230.980682 1.01052 
231.137787 0.155825 
231.174225 1.593089 
232.177979 0.052242 
232.964767 0.357448 
233.015182 0.408388 
233.142365 0.222853 
233.153244 0.042997 
233.189896 0.242119 
233.642914 0.034192 
233.891144 0.091284 
234.997391 0.546407 
236.960739 0.030753 
237.164062 0.041947 
238.96727 0.154666 
239.143372 0.097525 
239.179306 0.14762 
240.909027 1.328077 
241.158432 0.239238 
241.194962 0.16026 
242.979935 0.100822 
243.137894 0.2975 
243.174408 3.8665 
243.210648 0.161109 
244.17775 0.26124 
245.080826 1.140414 
245.190506 0.040082 
246.044708 0.039486 
246.084213 0.747015 
246.911346 0.127869 
248.954971 0.185872 
248.991379 2.737145 
249.257629 0.090155 
249.991089 0.189827 
250.893417 0.031523 
250.974777 0.11033 
251.025726 9.625692 
251.179199 0.083167 
251.938126 0.141829 
252.027618 1.112686 
252.949768 1.171141 
253.022247 0.189632 
253.157532 0.053348 
253.194595 0.230639 
253.945999 0.038118 
255.017593 0.086105 
255.13707 0.131192 
255.174438 0.254165 
255.210236 0.239307 
257.152924 0.096849 
257.189941 0.380352 
259.157898 0.117817 
259.205475 0.557018 
261.943909 0.030993 
263.180267 0.045656 
265.039856 0.046458 
266.965668 0.706858 
267.103729 0.036029 
267.210754 0.04948 
267.268036 0.473657 
267.911316 0.183937 
269.036469 3.474081 
269.22583 0.087324 
270.038879 0.141119 
270.137207 0.157253 
270.900787 0.032809 
271.168732 0.577105 
271.205231 0.090727 
272.116516 0.443384 
272.976471 0.713986 
273.22049 0.05683 
274.894318 0.078811 
275.071686 0.107558 
275.899567 0.114449 
281.031464 0.092752 
281.188904 0.042522 
281.911682 0.262005 
282.892883 0.039326 
282.919556 0.069798 
283.169739 0.038197 
284.151215 0.039376 
285.22049 0.055617 
285.918671 0.040766 
286.918213 0.037873 
286.957642 0.045473 
287.035919 0.157141 
287.256378 0.032646 
289.179352 1.142769 
289.950684 0.199385 
290.947571 0.852038 
290.987976 0.048874 
291.674194 0.031363 
291.898682 0.029824 
291.94696 0.055425 
293.406189 0.035029 
293.86026 0.035254 
294.904541 0.106183 
294.991608 0.031606 
295.240631 0.054574 
297.013306 0.447922 
297.220978 0.380279 
299.009796 0.032347 
299.04248 0.040737 
299.234375 0.046912 
303.184235 0.117332 
304.930145 0.066253 
305.045959 1.652268 
305.911224 0.11206 
306.596252 0.037236 
306.908783 0.037592 
307.9599 0.069887 
308.920959 0.038639 
309.078918 0.335727 
309.259583 0.110094 
309.278442 2.924885 
309.296936 0.044383 
309.918121 0.222175 
310.282837 0.095432 
310.992401 1.857844 
311.236847 1.172826 
311.293976 0.582908 
311.830383 0.051395 
311.992981 0.348929 
312.240326 0.053866 
312.838806 2.712751 
315.022888 0.045474 
316.904755 0.053938 
317.905914 0.178551 
319.836365 2.211757 
322.264465 0.038925 
324.325714 100.0 
324.887817 1.203073 
324.98761 0.090277 
325.252502 2.824619 
325.329132 21.712851 
325.89267 0.082933 
326.254883 0.430915 
326.332184 1.306659 
326.771576 0.031245 
327.230103 0.04427 
327.825989 1.630582 
327.926727 0.046154 
328.83197 0.349682 
329.003143 3.146777 
329.842316 0.262855 
330.004333 1.156323 
330.80722 0.045047 
330.846558 0.042497 
331.000824 0.215681 
333.862274 0.040372 
336.838287 0.436083 
337.846558 1.791082 
339.07724 0.040455 
339.267883 1.888311 
340.275604 5.387922 
341.279175 1.530278 
342.898926 0.687012 
342.99704 0.810572 
343.225616 0.049028 
344.829163 0.862791 
348.282196 0.038268 
348.99173 0.050304 
351.571869 0.035791 
351.735199 0.036574 
351.947632 0.143953 
352.834656 0.032884 
353.038727 0.054769 
353.283295 0.581157 
353.841553 1.488854 
353.926697 0.029432 
354.424683 0.042258 
355.328461 0.031932 
359.02832 0.136756 
363.268188 0.10019 
363.303101 0.099332 
369.836731 0.825354 
371.162323 0.040575 
371.850037 0.03861 
372.816193 0.042973 
375.089691 0.098733 
375.266937 0.044703 
379.074646 0.18801 
381.31488 6.437505 
382.318359 1.861285 
383.295074 0.044703 
387.151306 0.439941 
387.846924 0.164539 
392.732574 0.038434 
393.10025 1.023262 
394.979645 0.034541 
405.161896 1.037633 
405.531555 0.035762 
409.066559 0.212959 
409.273773 0.095843 
409.309387 0.275128 
409.345947 0.045345 
410.310577 0.047324 
410.614716 0.039075 
411.111481 1.347989 
413.140045 0.035541 
419.128998 0.166974 
425.340271 0.033227 
426.269836 0.039711 
426.307251 0.43783 
426.341187 0.523747 
426.373413 0.076233 
426.406403 0.182589 
427.246582 0.182542 
427.282471 1.288222 
427.318146 0.77254 
427.344086 0.186927 
428.154175 0.037177 
428.286438 0.087377 
428.32016 0.190951 
428.350708 0.04028 
428.390228 0.145365 
428.424255 0.63594 
429.121338 1.72979 
429.285492 0.148593 
429.319336 2.537855 
432.783264 0.03568 
437.140137 0.044866 
447.3461 0.867051 
448.351807 0.050583 
452.280029 0.036014 
END IONS

