BEGIN IONS
PEPMASS=497.266
CHARGE=1+
COMPOUNDNAME=(3E,5S,7R,8R,11E,13S,15R,16R)-3,5,7,11,13,15-hexamethyl-8,16-bis(1,3-oxazol-5-ylmethyl)-1,9-dioxacyclohexadeca-3,11-diene-2,10-dione
LIBRARYQUALITY=3
SMILES=N/A
INCHIKEY=LAJRJVDLKYGLOO-HLRFMGGZSA-N
INCHI=InChI=1S/C28H38N2O6/c1-17-7-19(3)25(11-23-13-29-15-33-23)35-28(32)22(6)10-18(2)8-20(4)26(12-24-14-30-16-34-24)36-27(31)21(5)9-17/h9-10,13-20,25-26H,7-8,11-12H2,1-6H3/b21-9+,22-10+/t17-,18-,19+,20+,25+,26+/m0/s1
MSLEVEL=2
SOURCE_INSTRUMENT=N/A-ESI-QFT
FILENAME=library_mgf.mgf
SEQ=*..*
IONMODE=negative
ORGANISM=MONA
NAME=(3E,5S,7R,8R,11E,13S,15R,16R)-3,5,7,11,13,15-hexamethyl-8,16-bis(1,3-oxazol-5-ylmethyl)-1,9-dioxacyclohexadeca-3,11-diene-2,10-dione [M-H]-
PI=MoNA
DATACOLLECTOR=MoNA:VF-NPL-QEHF019223
PUBMED=N/A
SUBMITUSER=mwang87
TAGS=
SPECTRUMID=CCMSLIB00004710286
SCANS=19223
50.164867 0.093262 
50.220844 0.098437 
50.70216 0.096337 
50.925945 0.083118 
50.995068 0.087389 
51.525913 0.121936 
51.717201 0.094808 
52.09388 0.090464 
52.293434 0.111411 
52.349136 0.105565 
52.969112 0.088504 
53.057171 0.084118 
53.156086 0.09095 
53.280968 0.098276 
53.619183 0.103171 
53.80175 0.09977 
54.103848 0.088755 
54.217453 0.097159 
54.769447 0.088623 
55.017479 4.30532 
55.613205 0.125808 
55.951607 0.089201 
56.470871 0.087239 
56.594746 0.08902 
56.731045 0.081444 
57.033142 7.110509 
57.199341 0.091233 
57.546497 0.094204 
58.093674 0.097589 
58.208942 0.10427 
58.749355 0.085825 
58.904144 0.084863 
59.012402 8.532114 
59.256958 0.097838 
60.518856 0.094099 
60.622822 0.086697 
61.986893 100.0 
62.003101 0.094958 
62.29073 0.095106 
62.839077 0.087733 
63.960922 0.243443 
64.596031 0.100923 
64.860367 0.090062 
65.237015 0.102171 
65.567093 0.129195 
65.569153 0.102545 
65.637314 0.086334 
65.993477 0.105843 
65.997078 0.105804 
66.874115 0.088397 
67.140564 0.09778 
67.24765 0.084091 
67.503387 0.080807 
68.396408 0.106503 
68.432045 0.122016 
68.599533 0.101844 
68.898628 0.112157 
69.033142 0.985819 
69.079048 0.103317 
69.176872 0.092992 
69.229759 0.121401 
69.553406 0.104478 
70.011284 0.086127 
71.012405 3.822077 
71.048798 7.878368 
71.299599 0.094404 
71.384781 0.097951 
72.052017 0.123818 
72.734772 0.107166 
72.991608 0.10789 
72.995811 0.092647 
73.028069 7.831936 
73.144775 0.092721 
73.176682 0.093763 
74.842995 0.092306 
75.309113 0.09488 
76.528824 0.095071 
77.953651 0.099899 
78.903084 0.100348 
78.957603 8.040112 
78.98439 0.124716 
79.69812 0.117657 
79.95591 19.773911 
80.355492 0.097069 
80.494278 0.095992 
80.963768 1.92849 
81.033096 0.459621 
81.579086 0.121326 
82.028435 0.559034 
82.192924 0.089519 
82.299065 0.108544 
82.425926 0.106292 
82.923531 0.098021 
83.048798 5.025409 
83.340965 0.092256 
84.196671 0.102034 
85.028053 1.233783 
85.064438 16.752102 
85.57476 0.09809 
86.067711 0.552254 
86.273346 0.092401 
87.007294 2.875798 
87.043716 6.501807 
87.649208 0.093791 
88.830574 0.091669 
89.022972 2.069317 
90.137604 0.101057 
90.334602 0.094185 
90.351601 0.090585 
90.417763 0.096854 
93.00647 0.110646 
94.70607 0.102152 
94.979378 82.796577 
95.03054 0.113992 
95.048798 6.036355 
95.389702 0.097199 
95.487869 0.092729 
95.673904 0.095465 
95.858948 0.1003 
95.932884 0.151793 
95.982941 0.189326 
96.172195 0.095696 
96.958664 26.944525 
96.968307 0.112918 
96.975166 3.831156 
97.028137 0.212047 
97.064484 2.011034 
98.023499 0.231675 
98.525848 0.126757 
99.043709 13.138396 
99.080116 2.080996 
100.047241 0.104548 
100.87056 0.096817 
101.471519 0.094247 
102.148033 0.109329 
103.956696 0.100435 
105.069336 0.0966 
106.41935 0.107472 
107.048828 7.160091 
107.910545 0.111719 
108.353683 0.096129 
109.028259 0.098697 
109.064438 4.036585 
110.023376 0.216225 
110.956612 9.083879 
110.97435 7.809504 
111.043716 5.505439 
111.080093 5.036979 
112.038948 0.164504 
113.059448 8.940067 
113.930496 0.092183 
114.445915 0.123972 
115.038361 0.136414 
117.033279 0.32348 
117.054268 3.550091 
118.057037 0.105976 
118.755043 0.08333 
119.048897 0.511567 
121.028046 0.629946 
121.064529 2.203689 
121.944778 0.103568 
123.006531 0.142071 
123.0802 60.302067 
123.577126 0.099521 
124.039001 1.889765 
124.083443 8.473411 
124.544464 0.099363 
125.022926 0.238229 
125.059631 0.141885 
125.095833 26.708174 
126.018677 0.091318 
126.099144 1.813386 
126.5541 0.09475 
127.075577 0.124449 
130.086029 0.233883 
131.069977 2.042715 
131.300369 0.092567 
131.726929 0.096378 
133.039459 1.449335 
133.355606 0.090022 
134.042755 0.116941 
135.080139 0.879909 
135.385132 0.102621 
135.975571 0.092041 
136.051575 0.568908 
137.047012 0.109567 
137.059433 7.091441 
137.095795 0.330838 
137.74025 0.088934 
137.803009 0.130297 
138.018433 4.071755 
138.054703 0.141578 
139.02626 1.529019 
139.038788 0.550818 
139.075302 0.389753 
139.111526 1.070214 
139.583725 0.109053 
140.033981 0.850948 
141.090973 0.341962 
142.979523 0.396999 
143.082611 0.122431 
143.445389 0.104065 
145.632141 0.104789 
146.647888 0.119354 
147.96785 0.129615 
149.059113 0.133483 
149.095932 1.565458 
151.038879 5.416332 
151.075165 8.474518 
152.034134 9.052339 
152.0466 0.097915 
152.078384 0.132299 
152.20578 0.111323 
152.994614 9.521628 
153.041977 4.30124 
153.05452 1.399802 
153.090164 0.129281 
154.013519 0.124942 
154.049759 4.771691 
155.07045 0.322528 
155.083176 0.110843 
157.064697 0.122846 
159.080688 0.172131 
161.034454 8.228758 
161.09581 0.135087 
162.03772 3.096408 
163.111588 2.058007 
163.440842 0.092833 
164.083298 0.783471 
165.054703 0.108146 
165.127319 1.998411 
166.013168 0.4834 
166.049774 2.056476 
166.062302 0.488495 
166.33696 0.101363 
166.408295 0.110152 
167.021286 8.162476 
167.05777 6.301956 
167.070099 30.076918 
168.029114 22.126038 
168.065857 1.792215 
168.073608 5.923992 
168.609283 0.103691 
169.032211 0.105968 
169.048523 0.111633 
169.100571 0.117661 
171.005539 0.372489 
171.101639 0.430596 
171.982422 2.409909 
172.386093 0.109779 
175.074631 0.097924 
175.112091 0.133517 
177.05275 0.118058 
177.090683 2.413069 
178.012695 0.101061 
178.049561 0.109419 
178.09433 0.115051 
178.096375 0.107681 
178.099014 0.108699 
179.106598 20.997089 
180.029083 9.25657 
180.065491 0.516359 
180.110107 4.929126 
181.037155 11.852958 
181.122177 6.272037 
182.045166 10.883466 
182.053177 0.114218 
182.081207 0.39689 
183.052963 10.794185 
183.137955 21.231842 
184.000717 0.736855 
185.116837 0.114147 
185.853622 0.109029 
187.096832 0.131814 
187.111679 0.822626 
188.115173 0.120091 
189.091278 0.210346 
189.126755 0.11495 
190.050003 0.562286 
191.08136 3.939598 
192.085022 0.852946 
194.044891 1.567012 
195.052628 7.403949 
195.064789 2.760268 
196.023605 0.113662 
196.060379 4.765658 
197.190247 1.751156 
198.076218 4.996957 
203.143066 0.251663 
203.592255 0.109495 
204.065979 0.110796 
205.074142 0.131531 
205.122162 0.117374 
205.158157 0.311717 
205.499512 0.093807 
206.044785 0.381732 
206.081223 1.27958 
207.101242 0.097923 
208.060669 0.267802 
209.116959 0.384379 
210.076263 1.754381 
211.133163 1.138064 
212.376373 0.100022 
213.148819 0.262826 
213.303024 9.24127 
213.813171 0.106449 
215.107132 0.792982 
217.086075 0.215292 
217.721924 0.107776 
219.077682 0.111273 
219.089706 0.110576 
219.100327 0.10507 
220.060699 1.984638 
220.096893 0.375889 
220.709534 0.12717 
221.068222 1.793922 
221.116547 0.094344 
223.169693 0.834221 
223.20636 0.349657 
225.11348 0.153153 
225.221725 1.711844 
234.113113 0.097617 
235.084412 2.558481 
236.088989 0.1035 
239.164688 0.260543 
241.508438 0.102989 
242.11232 0.112925 
243.318054 0.102695 
245.190796 1.701134 
246.1931 0.129178 
247.095108 0.291646 
248.080765 0.281604 
250.066147 0.106257 
250.883072 0.110198 
255.23262 1.406894 
256.23645 0.146021 
257.130341 0.112087 
258.985229 0.111613 
259.062866 0.107807 
261.766052 0.094426 
269.21286 0.228494 
269.403076 0.098972 
269.643066 0.088847 
275.164764 2.067482 
276.078491 0.273948 
276.168152 0.530706 
283.263123 0.246455 
286.784149 0.142285 
297.877319 0.10873 
303.443115 0.092184 
304.338837 0.114232 
309.290222 0.098557 
320.29187 0.105114 
325.183777 4.864154 
338.52597 0.124433 
345.832794 0.092537 
355.272858 0.100895 
362.450378 0.099432 
365.211456 0.105784 
369.717194 0.114328 
375.690338 0.104259 
400.259094 0.107967 
442.234711 0.117905 
463.845551 0.089753 
466.019684 0.10471 
474.908691 0.104851 
476.077606 0.1319 
499.364136 1.804708 
499.9198 0.110543 
500.666321 0.099208 
514.580261 0.136177 
517.075256 0.094079 
523.406982 0.117708 
END IONS

