BEGIN IONS
PEPMASS=284.186
CHARGE=1+
COMPOUNDNAME=(1S,8R,9R)-8-hydroxy-4-(propan-2-ylidene)-10-oxatricyclo[7.2.1.01,5]dodecane-8-carboxylic acid
LIBRARYQUALITY=3
SMILES=N/A
INCHIKEY=IOYVXXQKVQKQIG-ZJPTYJIISA-N
INCHI=InChI=1S/C15H22O4/c1-9(2)10-3-5-14-7-12(19-8-14)15(18,13(16)17)6-4-11(10)14/h11-12,18H,3-8H2,1-2H3,(H,16,17)/t11?,12-,14-,15-/m1/s1
MSLEVEL=2
SOURCE_INSTRUMENT=N/A-ESI-QFT
FILENAME=library_mgf.mgf
SEQ=*..*
IONMODE=positive
ORGANISM=MONA
NAME=(1S,8R,9R)-8-hydroxy-4-(propan-2-ylidene)-10-oxatricyclo[7.2.1.01,5]dodecane-8-carboxylic acid [M+NH4]+
PI=MoNA
DATACOLLECTOR=MoNA:VF-NPL-QEHF021469
PUBMED=N/A
SUBMITUSER=mwang87
TAGS=
SPECTRUMID=CCMSLIB00004712532
SCANS=21469
51.940411 0.081182 
52.055733 0.016014 
52.7607 0.051915 
53.038998 0.017342 
54.704525 0.013916 
54.937794 0.039677 
55.018204 0.297964 
55.054573 1.797107 
55.568188 0.015982 
55.934666 0.024817 
56.049789 0.165683 
56.147522 0.039227 
56.965149 0.08218 
57.033791 0.961262 
57.070206 4.210543 
58.065449 1.119958 
58.073582 0.022178 
58.893173 0.043418 
59.049431 1.279197 
59.185616 0.033166 
60.044651 0.048185 
60.081093 0.993274 
60.859936 0.026578 
61.010883 2.6328 
61.028709 0.016219 
62.018734 0.835522 
62.060307 0.182109 
62.981983 0.509548 
63.006618 0.064291 
63.026508 1.073321 
63.218048 0.018705 
63.388996 0.037717 
63.998039 0.024067 
65.084663 0.02927 
65.328964 0.031475 
67.054382 3.167855 
67.53006 0.025431 
68.455933 0.013156 
69.033615 0.828595 
69.070015 4.542857 
69.175056 0.027904 
70.065186 1.664174 
70.073372 0.137926 
70.48542 0.018298 
71.049255 1.383137 
71.080864 0.201596 
71.083511 0.112468 
71.085648 4.775336 
71.69133 0.015853 
72.044479 0.136984 
72.080902 0.648923 
72.088951 0.053382 
72.937218 0.097036 
73.028496 0.746027 
73.046913 0.40177 
73.064873 1.126828 
73.21666 0.01442 
74.060104 0.565329 
75.04409 0.090238 
77.937012 0.017046 
78.013489 0.260872 
79.021309 3.790413 
79.054276 2.053109 
80.421181 0.015084 
81.017082 0.049577 
81.023636 0.025603 
81.033569 0.920245 
81.06723 0.060519 
81.069946 6.182738 
82.065163 0.051827 
82.073326 0.313663 
83.012878 0.020781 
83.049194 1.239282 
83.085579 2.514246 
84.04454 0.050919 
84.080902 0.640735 
84.088936 0.023609 
85.028503 0.578251 
85.06488 1.847744 
85.10128 1.837899 
86.06012 0.604666 
86.068237 0.024624 
86.096489 1.072283 
87.044159 3.910648 
88.047485 0.062985 
88.075806 0.181472 
89.059769 100.0 
89.963768 0.548724 
90.063141 4.646583 
90.947739 0.084443 
91.054298 1.815303 
91.057419 1.169855 
91.063957 0.240569 
91.075485 0.055098 
91.994095 0.039181 
92.057396 0.054495 
93.054306 0.242697 
93.069992 3.114206 
93.353127 0.014152 
94.073326 0.10205 
95.049194 1.333406 
95.060493 0.091803 
95.085602 5.598913 
96.044556 0.024787 
96.088936 0.349406 
97.028389 0.097581 
97.064911 1.808632 
97.101318 1.51071 
98.060196 0.149952 
98.068245 0.022496 
98.096428 0.227138 
98.104393 0.037105 
98.504395 0.015238 
99.044159 0.967937 
99.080505 3.476091 
100.039635 0.018637 
100.075829 0.837599 
100.083542 0.026641 
100.112129 0.339262 
100.951157 0.025892 
100.990906 0.01279 
101.059822 1.296364 
102.055138 0.10474 
102.06311 0.046438 
102.091331 0.043202 
103.039047 0.694369 
103.054237 0.1154 
103.075417 0.219474 
104.070747 0.056252 
104.992432 0.052107 
105.070007 6.182553 
106.073311 0.241386 
107.049202 0.955086 
107.070374 1.72491 
107.085587 5.323905 
108.088844 0.284435 
109.028374 0.081038 
109.051163 0.051544 
109.064957 1.296073 
109.101288 4.303291 
110.060089 0.108142 
110.071457 1.179022 
110.104591 0.154891 
111.044212 1.314494 
111.055275 0.126332 
111.076538 0.025551 
111.080505 1.459893 
111.116898 0.267448 
112.051003 0.015267 
112.075775 0.210934 
112.112228 0.057881 
113.023041 0.023481 
113.059784 0.411579 
113.096153 0.583998 
114.054901 0.019559 
114.0914 0.123568 
114.127968 0.077855 
114.432167 0.036187 
115.039131 0.048176 
115.075546 0.250296 
115.086617 1.0624 
116.070625 0.326847 
116.08989 0.190297 
116.107079 0.357083 
116.780586 0.030305 
117.054543 0.052636 
117.069969 1.071578 
117.090988 0.102329 
118.064842 0.021659 
118.07267 0.023149 
119.049576 0.016262 
119.07 0.013004 
119.085648 2.852794 
119.871651 0.031097 
120.080894 0.291103 
120.089012 0.096405 
121.028404 0.159945 
121.040352 0.019119 
121.064941 1.438139 
121.101295 3.13602 
122.096458 0.026335 
122.10453 0.057266 
122.203423 0.028323 
122.560318 0.040476 
123.044113 0.093767 
123.080444 1.675983 
123.11692 4.102546 
123.907684 0.014733 
124.039505 0.080826 
124.075806 0.051161 
124.084 0.018951 
124.120293 0.242078 
125.023476 0.039742 
125.059738 0.59113 
125.096138 1.292346 
126.091591 0.105906 
126.127815 0.037832 
127.015671 0.03515 
127.039062 0.22895 
127.050278 0.085378 
127.07531 0.142568 
127.111839 0.780778 
128.070694 0.088574 
128.10704 0.082078 
128.963776 0.297133 
129.05452 0.321901 
129.069885 0.187459 
129.113388 0.018976 
129.388 0.034207 
130.058258 0.018142 
130.060059 0.017332 
130.065216 1.332771 
130.086227 0.081259 
130.122894 0.014499 
131.049179 0.325593 
131.07019 0.12623 
131.085663 1.669959 
132.044373 0.450399 
132.088943 0.027102 
132.185593 0.04548 
132.958572 0.037329 
133.064758 0.394638 
133.085953 20.746273 
133.101151 3.418656 
133.959167 0.082686 
134.067856 0.014418 
134.08931 1.237723 
134.096191 0.223405 
134.104568 0.245687 
134.9561 0.277065 
134.973221 0.025623 
134.978745 3.241677 
135.044113 0.061574 
135.075195 0.01759 
135.08049 2.084157 
135.116913 1.886555 
136.061813 0.01916 
136.07576 0.14301 
136.083466 0.063203 
136.112244 0.312336 
136.12027 0.087141 
137.059814 0.440104 
137.096115 0.688803 
137.108307 0.03961 
137.132477 0.318254 
137.137527 0.028714 
137.737854 0.025085 
138.05513 0.013874 
138.091293 0.023791 
138.099838 0.015828 
139.039108 0.388482 
139.050339 0.865581 
139.075348 0.543182 
139.111877 0.422317 
140.042297 0.0305 
140.07045 0.042873 
140.106842 0.085313 
141.054352 0.092889 
141.090881 0.095595 
141.127411 1.133203 
142.086319 0.155765 
142.122406 0.020228 
142.159164 0.017647 
143.070587 0.085069 
143.085556 0.589065 
143.106659 0.031158 
144.044479 0.10903 
145.051865 0.116172 
145.064926 0.181681 
145.086014 0.024597 
145.101273 2.01528 
146.06012 0.558924 
146.092468 2.216891 
146.104538 0.149756 
146.97435 1.485881 
146.996292 0.10754 
147.080444 0.467025 
147.098419 0.461793 
147.116806 2.344706 
147.974335 0.020883 
148.07576 0.042937 
148.08371 0.01961 
148.105652 0.020392 
148.120071 0.076724 
148.971756 0.016758 
149.05983 0.397739 
149.096222 1.26487 
149.13269 0.914925 
149.498718 0.015521 
149.954254 0.158243 
150.028687 0.091185 
150.077347 0.04132 
150.091324 0.177575 
150.099884 0.054459 
150.135788 0.02122 
150.951233 0.517736 
150.96904 0.046719 
151.050415 0.029171 
151.075455 1.865709 
151.082092 0.04974 
151.096542 0.40001 
151.111801 1.975245 
152.056747 0.782613 
152.07048 0.0389 
152.078278 0.070155 
152.093201 0.711655 
152.1073 0.046104 
152.115234 0.091426 
152.951797 0.020783 
152.966843 0.270131 
152.989319 3.212111 
153.054565 0.291965 
153.091263 0.867745 
153.099335 2.169154 
153.12738 0.18341 
154.086319 0.031186 
154.097397 0.106494 
154.105042 0.036177 
154.122574 0.506471 
154.264359 0.016278 
154.947784 0.024686 
155.044861 0.026146 
155.070297 0.102957 
155.085571 0.102668 
155.106613 0.248399 
156.081436 0.069158 
156.101883 0.088368 
156.138306 0.019577 
157.076157 0.056536 
157.087173 0.030845 
157.101227 1.321423 
158.060211 0.262601 
158.117004 0.02152 
159.067123 0.026452 
159.080551 0.376142 
159.116974 1.471908 
160.075745 0.057422 
160.120071 0.028312 
160.962051 0.017934 
161.059509 0.018589 
161.0961 0.754875 
161.132507 0.946009 
161.961334 0.017671 
162.135742 0.018521 
163.038971 0.017007 
163.075424 0.47695 
163.111664 0.999969 
163.148193 0.757882 
164.070587 0.023575 
164.107162 0.336673 
164.114746 0.02241 
165.00705 0.345685 
165.029312 0.027599 
165.054794 0.018595 
165.091064 0.38475 
165.127457 0.423961 
165.163162 0.01888 
166.061386 0.11485 
166.08638 0.0439 
166.094681 0.020706 
166.122635 0.117792 
166.738129 0.027238 
167.070663 0.097722 
167.106567 0.220311 
167.142868 0.023965 
167.964478 0.02846 
168.101974 0.050449 
168.1129 0.021808 
168.138596 0.031779 
168.174515 0.049482 
168.96167 0.100269 
169.076477 0.073997 
169.086014 0.581074 
169.101196 0.548267 
169.122498 0.179187 
170.060135 5.284465 
170.096786 0.055963 
170.117447 0.09998 
170.999954 0.125271 
171.055832 0.023458 
171.063614 0.351604 
171.080139 0.070201 
171.116974 0.911247 
172.075958 0.025672 
173.060196 0.018235 
173.070007 0.016611 
173.096191 0.533424 
173.132599 1.076521 
173.455261 0.0435 
174.055344 0.118626 
174.078934 0.01587 
174.135681 0.024478 
175.062759 0.053306 
175.075577 0.093887 
175.111801 0.755727 
175.148132 0.706825 
176.071075 0.030426 
176.152512 0.023449 
176.984299 0.016457 
177.080444 0.039603 
177.08876 1.733191 
177.112183 1.323456 
177.127335 0.339123 
177.16391 0.074717 
177.279266 0.029745 
178.194092 0.015933 
178.963806 0.017874 
179.070496 0.05178 
179.106628 0.34585 
180.101913 0.034001 
180.138901 0.047371 
180.887451 0.046126 
181.076843 0.123651 
181.085907 3.080975 
181.099747 0.027871 
181.122345 0.209555 
182.089386 0.070895 
182.117477 0.050771 
183.018066 0.103607 
183.091553 0.041473 
183.11734 0.559279 
184.075546 0.023598 
184.133591 0.018623 
185.070953 0.238369 
185.096054 0.088932 
185.132584 0.787405 
186.091461 0.090663 
187.075195 0.058582 
187.086563 0.058347 
187.111893 0.568553 
187.148239 1.033328 
187.358673 0.034782 
188.070786 0.071465 
188.106842 0.022583 
188.152084 0.01866 
188.989426 0.031902 
189.054733 0.015844 
189.091156 0.283735 
189.127563 0.372962 
189.163834 0.649312 
190.03157 0.038048 
190.086349 0.031567 
190.167603 0.026762 
191.10675 0.369092 
191.143021 0.563698 
192.064621 0.287667 
192.961945 0.248618 
193.086227 0.019445 
193.122314 0.396083 
193.158661 0.036492 
193.653503 0.020755 
194.127701 0.030897 
195.055435 0.019497 
195.101822 0.06232 
195.123383 0.079976 
195.138245 0.049837 
196.132919 0.042246 
196.169373 0.047089 
196.990585 0.022898 
197.071152 0.085911 
197.080948 0.049937 
197.096191 0.064069 
197.132385 0.407117 
198.091675 0.021715 
198.763611 0.040358 
199.11174 0.133739 
199.148254 0.308948 
199.887299 0.042622 
200.070679 0.052478 
201.091156 0.051425 
201.127579 0.92216 
201.16394 0.780614 
202.085785 0.021559 
202.1306 0.025427 
203.106705 0.096018 
203.143524 0.185829 
203.179611 1.495353 
204.183197 0.052506 
204.212753 0.043318 
204.95166 1.181373 
204.981796 0.02188 
205.015839 0.045998 
205.086823 0.027002 
205.122696 0.240866 
205.158615 0.322476 
205.980301 0.281844 
206.117752 0.035963 
206.154022 0.128531 
206.9776 2.003332 
207.000031 0.323886 
207.101395 0.161388 
207.137772 0.14528 
207.174332 0.04442 
208.131378 0.040705 
208.169083 0.016928 
209.079819 0.022415 
209.117706 0.139193 
209.129974 0.132859 
209.891281 0.051018 
210.18483 0.035778 
210.97197 0.083766 
211.086517 0.086048 
211.111313 0.058459 
211.148193 0.278855 
212.070923 0.024184 
212.094635 0.62889 
212.10614 0.05568 
212.118408 0.354102 
213.06604 0.444541 
213.078201 0.320013 
213.090576 0.075008 
213.10231 0.715186 
213.111832 0.018893 
213.12645 0.060498 
213.163712 0.23696 
214.086136 0.655254 
214.109131 0.155462 
214.122009 0.100003 
215.002304 0.026079 
215.070023 0.017591 
215.081604 0.24124 
215.093887 0.304042 
215.105728 0.099011 
215.117126 0.017444 
215.143112 0.107505 
215.375687 0.552023 
215.388229 0.35178 
216.065582 0.027258 
216.076477 0.116739 
216.10199 0.22561 
216.138123 0.190849 
217.122162 0.084032 
218.15419 0.028003 
219.123596 0.050144 
219.137863 0.275621 
219.174393 0.359378 
220.133026 0.041901 
220.169617 0.025719 
220.460022 0.043548 
220.962799 0.015684 
221.116653 0.019096 
221.153793 0.079286 
221.190338 0.053846 
222.148331 0.026221 
222.185333 0.062658 
222.898514 0.051401 
222.961868 0.62808 
223.086365 0.121946 
223.132751 0.079196 
223.144379 0.879107 
223.16925 0.093358 
223.893799 0.286749 
223.980194 0.072241 
223.991241 0.346473 
224.164291 0.113596 
224.200882 0.111055 
224.9879 1.203031 
225.010422 1.62646 
225.042984 0.220224 
225.065887 0.208435 
225.126785 0.268084 
225.163315 0.157753 
226.086075 0.051064 
226.110016 0.067973 
226.122238 0.115882 
226.179932 0.091235 
227.038422 0.018216 
227.069351 0.049015 
227.093872 0.205873 
227.105804 0.086613 
227.117584 0.052355 
227.129395 0.017807 
227.142914 0.103624 
228.101196 0.412241 
229.049545 0.032742 
229.085815 0.05294 
229.108688 0.051525 
229.122009 0.159933 
229.158417 0.260306 
230.11673 0.024508 
231.102112 0.06437 
231.137711 0.063749 
231.174347 0.384564 
231.896652 0.152876 
232.132706 0.056357 
232.179016 0.045241 
232.884094 0.023923 
233.152039 0.020729 
233.891479 1.318201 
234.89949 0.066045 
236.164352 0.047842 
237.148483 0.172032 
237.160767 0.251699 
237.183029 0.026399 
237.19603 0.026127 
238.097183 0.050266 
238.122559 0.017656 
238.154907 0.047119 
238.179916 0.411349 
238.913528 0.021102 
239.047546 0.019509 
239.105621 0.040767 
239.118073 0.017174 
239.12999 0.026699 
239.145889 0.081872 
239.179031 0.146567 
240.07782 0.043634 
240.10144 0.136822 
240.138077 0.143848 
240.195969 0.092011 
240.232224 4.290978 
240.909073 0.114543 
241.086197 0.025234 
241.12175 0.021265 
241.15889 0.495848 
241.235825 0.120822 
242.08075 0.027427 
242.117416 0.439485 
243.021011 0.159491 
243.174789 0.020118 
247.132751 0.058578 
247.169174 0.580097 
248.045624 0.025645 
248.127716 0.288663 
248.163284 0.032032 
248.878525 0.021533 
249.113129 0.021853 
249.147919 0.029469 
249.184753 0.454622 
250.178207 0.320994 
250.893814 0.1707 
251.068878 0.018412 
251.081528 0.149073 
252.101486 0.017185 
252.983658 0.032721 
253.955032 0.092059 
254.140244 0.023484 
254.186142 0.355572 
254.962524 0.41222 
255.100967 0.024278 
255.125015 0.040166 
255.174454 0.027015 
256.1091 0.025383 
256.132294 0.020695 
257.140106 0.555426 
257.153229 0.076725 
264.123047 0.636085 
264.158691 0.058113 
264.195526 0.361016 
265.128876 3.124201 
265.14386 0.028711 
265.163147 0.051922 
265.17865 0.179375 
265.196838 0.17276 
265.86441 0.0289 
266.092255 0.125846 
266.138916 1.09352 
266.153076 0.084609 
266.175018 0.266771 
266.211365 0.397321 
266.24881 0.019203 
266.999115 1.676858 
267.01712 0.701425 
267.112579 0.06131 
267.138824 0.034459 
267.15863 0.031938 
267.172455 0.031287 
267.186371 0.126793 
267.211456 0.091837 
267.970886 0.048858 
267.999451 0.083939 
268.095551 0.023944 
268.109924 0.020499 
268.135681 0.690779 
268.153503 0.059861 
268.169495 2.227016 
268.187012 0.054744 
268.203064 0.05478 
268.226807 0.026053 
268.263702 0.895415 
268.97879 16.932503 
268.996033 2.143377 
269.978455 2.939848 
269.996094 0.099272 
270.052826 0.0739 
270.958374 3.506116 
270.975677 0.644721 
270.993866 3.992837 
271.00943 0.086519 
271.957489 0.430498 
271.994141 0.755688 
272.990662 0.290335 
274.893707 0.102017 
274.953705 0.025992 
275.901855 0.435496 
278.818665 0.189323 
279.826233 0.020981 
282.133209 0.065117 
282.150299 0.161566 
282.169739 1.072443 
282.184479 0.033642 
282.205872 0.131437 
282.22113 0.262196 
282.241241 0.659396 
282.2565 0.500064 
282.279297 1.726049 
282.99411 20.548988 
283.014221 0.145803 
283.030304 3.222287 
283.048859 2.703248 
283.077576 0.064606 
283.095306 0.145852 
283.117462 0.300257 
283.139679 0.471956 
283.181 4.057715 
283.205414 0.751897 
283.244385 0.258591 
283.263153 12.983083 
283.281464 0.606611 
283.994324 4.968198 
284.030823 0.906506 
284.049622 0.41057 
284.075562 0.023552 
284.104065 0.831922 
284.127258 1.110095 
284.148254 0.406616 
284.164551 9.026724 
284.185028 3.796415 
284.200745 2.20839 
284.221588 0.411257 
284.23761 0.437907 
284.26767 2.376422 
284.29483 1.833058 
284.331238 30.019072 
284.97287 0.680869 
284.991394 3.133413 
285.009552 23.670002 
285.027924 13.849434 
285.075256 2.899608 
285.109711 98.084572 
285.14743 0.05889 
285.16803 2.025741 
285.185608 1.314942 
285.204529 0.057753 
285.220123 0.478937 
285.290009 0.334646 
285.334534 6.158387 
285.816467 0.025637 
285.974274 0.028247 
285.991882 0.258904 
286.009888 4.210023 
286.028381 2.397054 
286.079956 0.099235 
286.114105 14.677507 
286.142792 1.977263 
286.179901 12.04832 
286.21524 2.438568 
286.25351 0.076842 
286.273712 0.387806 
286.294006 0.02833 
286.310455 1.407951 
286.337921 0.054361 
286.988678 0.171213 
287.00647 0.073549 
287.025116 0.393789 
288.968414 1.139521 
288.985046 0.034693 
289.004608 0.999899 
289.968079 0.113003 
290.005127 0.116807 
301.058868 38.426781 
302.059265 7.603728 
302.088135 0.021625 
302.817505 0.080532 
303.020447 2.069536 
303.055145 1.913684 
304.020233 0.240489 
304.058105 0.02025 
309.81662 0.029196 
END IONS

