BEGIN IONS
PEPMASS=353.079
CHARGE=1+
COMPOUNDNAME=GRISEOFULVIN
LIBRARYQUALITY=3
SMILES=N/A
INCHIKEY=DDUHZTYCFQRHIY-RBHXEPJQSA-N
INCHI=InChI=1S/C17H17ClO6/c1-8-5-9(19)6-12(23-4)17(8)16(20)13-10(21-2)7-11(22-3)14(18)15(13)24-17/h6-8H,5H2,1-4H3/t8-,17+/m1/s1
MSLEVEL=2
SOURCE_INSTRUMENT=N/A-ESI-QFT
FILENAME=library_mgf.mgf
SEQ=*..*
IONMODE=positive
ORGANISM=MONA
NAME=GRISEOFULVIN [M+H]+
PI=MoNA
DATACOLLECTOR=MoNA:VF-NPL-QEHF002915
PUBMED=N/A
SUBMITUSER=mwang87
TAGS=
SPECTRUMID=CCMSLIB00004693978
SCANS=2915
50.128185 0.021858 
50.314938 0.027913 
50.384129 0.030369 
51.156731 0.026174 
51.289177 0.027194 
51.482746 0.028358 
51.52507 0.02743 
51.594013 0.025612 
51.802059 0.026922 
51.950039 0.023583 
52.234375 0.029231 
52.540489 0.027659 
52.713924 0.026169 
52.841805 0.021958 
53.002956 0.489163 
53.216763 0.023008 
53.331181 0.023392 
54.134617 0.029003 
54.20351 0.021401 
54.245747 0.026621 
54.280769 0.024333 
54.440037 0.026621 
54.518818 0.019058 
54.556221 0.021699 
54.629902 0.033383 
55.803322 0.029787 
56.266098 0.022052 
56.975857 0.023994 
57.698753 0.024479 
57.833088 0.019198 
58.130173 0.024458 
58.757656 0.02521 
58.886021 0.022035 
59.388771 0.020997 
59.494286 0.021588 
59.564671 0.028324 
59.91872 0.020743 
60.430187 0.021705 
62.011787 0.026841 
62.14167 0.020433 
62.890415 0.021201 
63.120518 0.026348 
63.385464 0.02947 
64.663048 0.022508 
64.67588 0.021269 
65.718552 0.027255 
67.305038 0.027008 
67.484444 0.022066 
68.095779 0.024282 
68.544014 0.020346 
68.549675 0.02397 
68.788681 0.02697 
68.962654 0.026185 
68.997803 0.141847 
69.034157 100.0 
69.236038 0.024157 
69.729523 0.023294 
70.037498 3.452493 
70.698532 0.022901 
71.052803 0.026649 
73.029694 0.028419 
73.258125 0.016803 
73.316093 0.022006 
73.600662 0.018321 
73.956261 0.026591 
74.522263 0.022227 
74.917267 0.028163 
74.923286 0.031807 
75.430267 0.028286 
75.477806 0.025813 
76.153633 0.034822 
76.962044 0.030731 
77.15287 0.021876 
77.691154 0.020761 
78.069862 0.020995 
79.054832 0.093347 
79.655006 0.027135 
79.881203 0.020905 
80.170242 0.025509 
80.447456 0.021053 
81.036987 0.030288 
82.019051 0.022494 
82.828987 0.023844 
82.991669 0.02284 
83.028503 0.020236 
83.261436 0.023086 
83.525337 0.030581 
83.724762 0.024375 
83.853264 0.018586 
84.422096 0.028376 
84.587143 0.022439 
85.234543 0.026361 
85.563377 0.027263 
85.586212 0.030787 
85.602554 0.019562 
85.772453 0.026949 
85.843277 0.022142 
86.236305 0.02625 
86.309906 0.019423 
87.059807 0.02176 
87.311684 0.01981 
87.458984 0.016972 
87.940979 0.029341 
88.297836 0.02303 
88.848114 0.028847 
89.876862 0.030351 
90.542534 0.031678 
91.127647 0.025454 
91.231018 0.023681 
92.193855 0.021469 
92.231941 0.029042 
92.936523 0.024031 
92.970161 0.020713 
93.693924 0.026664 
94.450691 0.032792 
94.76358 0.022571 
94.998161 0.030258 
95.049622 0.26704 
95.754547 0.025863 
97.300812 0.025964 
97.93998 0.022523 
99.044418 0.346572 
99.42614 0.022868 
99.502907 0.020169 
100.014397 0.022359 
100.035187 0.022971 
100.651489 0.021638 
101.475319 0.021571 
101.752815 0.025236 
101.990242 0.02955 
102.663406 0.023097 
103.11097 0.025615 
103.445045 0.02278 
105.269234 0.026046 
106.011353 0.023393 
107.049484 0.673975 
108.59774 0.025468 
108.741249 0.02156 
109.064972 0.380607 
109.47316 0.028693 
110.738258 0.026076 
111.323532 0.0233 
111.99334 0.024257 
112.478119 0.024091 
114.609665 0.031229 
114.838982 0.033647 
115.866165 0.031917 
118.189217 0.026141 
119.191788 0.030443 
122.03643 1.531792 
123.044197 0.057185 
125.059837 0.253886 
125.413582 0.031687 
125.815796 0.026709 
125.889923 0.020732 
126.673264 0.027109 
131.019547 0.033097 
134.775253 0.025674 
135.055161 0.030791 
135.687408 0.025273 
136.888 0.028673 
137.059418 0.050932 
139.074921 0.020905 
139.244003 0.026308 
141.597366 0.031942 
142.460953 0.026165 
143.208588 0.019246 
145.682251 0.03143 
145.70459 0.022712 
150.031113 0.884656 
150.50415 0.023712 
150.869537 0.020958 
151.766174 0.022707 
153.868729 0.020349 
156.365341 0.024333 
156.494736 0.022165 
156.757721 0.025121 
156.815826 0.025281 
157.714325 0.033445 
158.287354 0.031837 
158.339813 0.029565 
158.840515 0.032688 
159.925034 0.020694 
161.32634 0.018936 
161.766418 0.025674 
162.067215 0.131466 
162.697098 0.030415 
163.160355 0.023421 
164.877228 0.031036 
165.05455 81.972733 
165.223053 0.030545 
166.013641 0.032453 
166.057846 6.558325 
167.070892 0.07054 
168.041931 0.222551 
169.622772 0.029807 
169.650879 0.033915 
170.327164 0.030337 
171.992249 0.518482 
173.997055 0.034596 
175.267151 0.022869 
175.902863 0.034386 
177.115494 0.02167 
179.034225 0.030855 
179.052216 0.021425 
180.368118 0.028117 
180.399582 0.035124 
181.066467 0.024313 
182.013977 0.029002 
183.06546 0.023846 
183.315491 0.022934 
187.015808 0.026216 
191.382233 0.026253 
192.310425 0.023902 
192.740677 0.027449 
193.418854 0.022978 
194.244965 0.024298 
195.808533 0.032176 
196.231323 0.02732 
196.27951 0.03449 
197.036407 1.427438 
197.53746 0.022885 
197.89003 0.022651 
198.180237 0.01974 
198.269852 0.023102 
199.987106 3.249903 
201.393051 0.029588 
201.9841 0.0308 
202.333847 0.029693 
203.851974 0.021553 
207.065567 0.046697 
208.627167 0.029901 
209.189682 0.023425 
210.569427 0.027743 
211.943802 0.029988 
213.354355 0.028165 
214.631546 2.073797 
215.010391 61.568283 
216.013748 5.33572 
217.007248 6.123501 
217.997482 4.231887 
219.000748 0.026759 
219.55394 0.032026 
219.995132 0.108689 
220.281235 0.026197 
222.08844 0.138807 
222.69957 0.021721 
223.494217 0.024684 
223.507797 0.032126 
223.694611 0.023457 
223.77037 0.021868 
224.023392 0.746144 
224.097565 0.024727 
224.574707 0.028098 
225.030884 0.184714 
226.039246 0.234997 
231.746887 0.028639 
235.309357 0.03376 
238.495758 0.026886 
241.02594 0.101446 
242.017014 0.023224 
242.511063 0.025413 
243.063858 0.024829 
243.691666 0.021964 
244.917404 0.025263 
252.018204 0.384025 
253.026062 1.369015 
255.005219 0.052922 
255.041748 0.085592 
257.057343 2.187381 
262.985992 0.020793 
264.018372 0.032957 
265.062347 1.028268 
267.060272 0.02706 
268.118225 0.033223 
268.136292 0.025477 
270.028534 6.035598 
271.03244 0.260824 
272.026367 0.216705 
273.606567 0.025236 
277.026062 0.745963 
278.033569 1.555663 
279.041504 1.327278 
281.475037 0.039532 
283.036499 0.352398 
285.051941 20.044853 
286.055725 2.660473 
287.049225 2.331694 
289.867004 0.021048 
292.05307 0.035924 
293.057526 1.281679 
293.791351 0.020758 
294.060638 0.030425 
296.04245 0.025382 
299.639343 0.023926 
299.655823 0.039628 
299.771759 0.024354 
306.028778 1.956988 
307.033173 0.021531 
308.02478 0.037128 
311.032104 0.053973 
311.067993 1.332566 
312.913513 0.023845 
315.105743 0.025131 
316.411377 0.023587 
316.977051 0.028921 
319.334686 0.033177 
321.052704 0.352934 
322.501892 0.029173 
324.876648 0.030189 
326.612091 0.031855 
326.742096 0.030076 
327.378815 0.022851 
335.692749 0.023534 
343.121979 0.028684 
347.392578 0.021672 
359.810028 0.031633 
361.601379 0.029132 
370.489624 0.02071 
375.731781 0.024202 
377.934143 0.02988 
379.328094 0.026716 
END IONS

