BEGIN IONS
PEPMASS=321.0
CHARGE=1+
COMPOUNDNAME=MoNA:2241567 LCL
LIBRARYQUALITY=3
SMILES=N/A
INCHIKEY=WIIZWVCIJKGZOK-IUCAKERBSA-N
INCHI=InChI=1S/C11H12Cl2N2O5/c12-10(13)11(18)14-8(5-16)9(17)6-1-3-7(4-2-6)15(19)20/h1-4,8-10,16-17H,5H2,(H,14,18)/t8-,9-/m0/s1
MSLEVEL=2
SOURCE_INSTRUMENT=LC-ESI-QQ-LC-ESI-QQ
FILENAME=output_mgf.mgf
SEQ=*..*
IONMODE=
ORGANISM=MONA
NAME=MoNA:2241567 LCL [M-H]-
PI=MoNA
DATACOLLECTOR=MoNA
PUBMED=N/A
SUBMITUSER=mwang87
TAGS=
SPECTRUMID=CCMSLIB00000573848
SCANS=11099
59.3 2.891755 
61.9 0.078156 
77.2 5.549043 
78.8 0.273544 
83.9 0.586166 
91.2 8.55803 
93.3 1.172333 
95.0 5.23642 
97.0 4.337632 
99.0 6.682298 
105.0 1.016022 
108.9 5.23642 
110.9 0.429855 
113.2 3.634232 
115.1 1.0551 
116.9 0.273544 
117.3 0.273544 
118.1 0.156311 
118.9 0.234467 
120.9 1.484955 
123.0 0.664322 
125.7 1.797577 
126.0 2.852677 
126.7 5.744431 
131.5 0.547089 
132.8 0.508011 
133.2 0.468933 
134.0 0.664322 
137.1 2.071122 
139.2 0.547089 
141.1 34.701055 
142.8 0.273544 
146.0 0.625244 
147.3 11.840563 
148.4 1.953888 
151.2 8.362642 
152.2 100.0 
154.7 0.898789 
157.1 1.250488 
159.1 0.625244 
161.2 1.328644 
164.3 0.508011 
165.1 1.172333 
166.0 0.312622 
167.8 0.312622 
168.3 0.429855 
169.1 0.117233 
173.1 0.3517 
175.2 0.429855 
176.2 18.87456 
177.0 0.508011 
178.1 0.312622 
179.0 2.26651 
181.1 1.211411 
183.3 0.156311 
186.9 0.547089 
192.9 0.234467 
194.5 30.832356 
195.4 0.7034 
197.8 0.547089 
200.9 0.3517 
202.8 0.195389 
205.3 0.898789 
205.9 0.234467 
207.1 0.781555 
212.0 0.117233 
217.4 0.625244 
219.3 3.126221 
221.1 1.0551 
223.6 0.390778 
225.0 0.195389 
226.9 0.117233 
229.1 10.66823 
231.4 1.133255 
237.1 2.383744 
238.8 1.367722 
243.2 0.195389 
245.4 2.383744 
249.5 8.323564 
257.2 50.410317 
261.2 6.877687 
261.4 4.650254 
275.4 8.792497 
277.4 0.468933 
285.3 2.500977 
289.2 0.859711 
321.3 36.811254 
END IONS

