BEGIN IONS
PEPMASS=348.181
CHARGE=1+
COMPOUNDNAME=Gibberellin A4&A7
LIBRARYQUALITY=3
SMILES=N/A
INCHIKEY=SEEGHKWOBVVBTQ-UKJRIFTCSA-N
INCHI=InChI=1S/C19H22O5/c1-9-7-18-8-10(9)3-4-11(18)19-6-5-12(20)17(2,16(23)24-19)14(19)13(18)15(21)22/h5-6,10-14,20H,1,3-4,7-8H2,2H3,(H,21,22)/t10-,11-,12+,13-,14-,17+,18+,19-/m1/s1
MSLEVEL=2
SOURCE_INSTRUMENT=N/A-ESI-QFT
FILENAME=library_mgf.mgf
SEQ=*..*
IONMODE=positive
ORGANISM=MONA
NAME=Gibberellin A4&A7 [M+NH4]+
PI=MoNA
DATACOLLECTOR=MoNA:VF-NPL-QEHF006600
PUBMED=N/A
SUBMITUSER=mwang87
TAGS=
SPECTRUMID=CCMSLIB00004697663
SCANS=6600
50.161945 0.214448 
50.276566 0.101385 
50.293808 0.111542 
50.880302 0.172225 
51.034988 0.19448 
52.92522 0.118136 
53.002972 0.797702 
53.039398 3.622253 
54.644848 0.213498 
55.018623 11.573491 
55.055 37.267643 
55.771984 0.141219 
56.050259 1.379815 
56.058506 0.253103 
56.24791 0.113305 
56.395325 0.118564 
56.965542 4.144022 
57.034283 4.455867 
57.07066 20.512789 
57.159672 0.25096 
58.06588 31.591904 
58.07394 0.138347 
58.267441 0.157517 
58.496334 0.21985 
58.706219 0.122808 
58.8727 0.127193 
59.049965 1.635796 
59.991032 4.278875 
60.045177 5.11534 
60.395927 0.205399 
61.011429 0.469759 
61.189877 0.168092 
61.613846 0.135484 
61.738659 0.09416 
62.019321 0.10012 
63.097912 0.092696 
64.26152 0.107466 
64.519791 0.127598 
64.928017 0.123419 
65.039291 3.285511 
66.109535 0.111755 
66.308624 0.109743 
66.508865 0.14994 
66.931366 0.207239 
66.994286 0.149309 
67.054924 39.196045 
68.050232 0.123086 
68.058289 0.460821 
68.522102 0.169716 
68.760521 0.18604 
68.774925 0.092647 
68.943306 0.098073 
69.034142 5.223263 
69.070549 23.018457 
70.065842 5.031826 
70.074097 0.204092 
70.138863 0.154687 
71.049812 5.621226 
71.086182 6.565483 
71.374908 0.21631 
71.396935 0.142878 
72.045021 0.255667 
72.081421 2.595187 
72.728928 0.194668 
73.029045 0.196483 
73.065384 0.30745 
73.92112 0.132626 
74.060524 0.122851 
74.097137 2.011888 
74.253906 0.248908 
74.975426 0.223197 
77.039474 0.187868 
77.308205 0.186652 
77.437897 0.333142 
77.827484 0.129958 
78.157875 0.194376 
78.583786 0.170255 
79.021866 0.529698 
79.05481 43.425617 
79.077232 0.164906 
79.493896 0.196526 
79.617798 0.203166 
79.858093 0.123479 
80.05011 1.846256 
80.058228 1.963227 
80.65522 0.11745 
80.900352 0.106188 
81.034103 1.458702 
81.07045 48.419842 
82.06575 0.755718 
82.073875 1.270045 
82.343384 0.196951 
82.831284 0.186209 
83.013466 0.124746 
83.049744 8.880343 
83.08609 8.349372 
83.5653 0.137389 
84.044968 0.455541 
84.053101 0.137018 
84.081451 1.731417 
84.938339 0.174519 
85.028969 0.674969 
85.040062 0.160998 
85.065353 1.970684 
85.079079 0.144519 
86.097038 1.224935 
86.625854 0.125108 
86.907516 0.175011 
87.044624 0.822728 
88.022041 11.71174 
88.076187 1.431819 
88.717506 0.13349 
88.803558 0.154802 
89.060173 0.540078 
89.243759 0.123032 
89.262733 0.209106 
90.143631 0.109127 
90.758209 0.173443 
90.996056 0.133729 
91.03669 0.200207 
91.054695 86.754021 
92.050034 0.109085 
92.058083 5.120434 
92.323997 0.113413 
92.666832 0.143015 
93.057686 0.117162 
93.070328 48.95499 
93.814301 0.163279 
94.065613 1.336424 
94.0737 1.484384 
94.259804 0.171085 
94.313309 0.109459 
94.658058 0.122217 
95.049583 16.551296 
95.085991 33.304127 
96.044838 0.346553 
96.052963 0.149812 
96.081284 0.738147 
96.089264 0.974002 
97.028679 0.277574 
97.0653 4.507167 
97.101593 1.036333 
97.295059 0.135526 
98.096825 1.146764 
98.318069 0.144569 
98.375679 0.149032 
99.044609 0.494095 
99.080811 0.441347 
99.239952 0.15137 
100.076004 0.353259 
100.694847 0.126627 
101.060303 0.110254 
103.021568 0.194643 
103.054634 4.14944 
105.033897 0.51063 
105.04509 1.322186 
105.070229 50.163246 
106.065529 3.485379 
106.073547 3.036417 
107.049522 6.361066 
107.073372 0.927858 
107.085861 27.002028 
107.56012 0.146313 
108.044731 0.574196 
108.081093 1.59698 
108.089104 0.449171 
108.611626 0.170952 
108.833153 0.103581 
109.028763 0.609684 
109.065109 10.775729 
109.101433 10.312342 
109.250801 0.20077 
110.060257 0.578648 
110.068207 0.12167 
110.096832 0.341032 
110.104424 0.170792 
111.044312 9.114623 
111.080772 2.867748 
111.555031 0.143064 
113.023766 0.167967 
113.059891 0.161312 
113.674934 0.17268 
114.43364 0.171917 
115.054543 8.883392 
116.053154 4.286978 
116.057541 0.174127 
116.062309 0.627344 
116.946838 0.177236 
117.070068 24.310528 
117.360634 0.131501 
117.699524 0.156665 
118.065437 1.22002 
118.073433 0.857618 
118.086525 0.500631 
119.049423 1.355982 
119.060837 0.313089 
119.085701 44.352306 
120.04493 0.188343 
120.080978 20.149633 
120.089058 2.961818 
121.064949 7.961672 
121.076065 0.223553 
121.089027 0.459495 
121.101341 24.728655 
122.060104 1.082456 
122.096756 1.108892 
122.104713 0.512234 
122.407684 0.155942 
123.044327 1.252468 
123.080658 4.805571 
123.091263 0.122227 
123.117195 0.161677 
124.039597 0.432991 
124.075806 0.748974 
124.67968 0.12511 
125.059967 1.023127 
125.083664 0.181124 
125.096581 0.145381 
126.054726 0.155863 
126.807114 0.150155 
127.585762 0.155038 
128.062225 5.754202 
129.069962 15.494142 
130.065216 0.857006 
130.073212 0.339382 
130.077698 0.654657 
130.159088 3.017593 
130.813629 0.169992 
131.049088 0.46745 
131.073318 0.306749 
131.085571 21.220091 
132.080841 2.052851 
132.088882 0.344185 
132.99173 0.173928 
133.064941 9.880566 
133.088623 0.330524 
133.101196 22.826069 
133.257645 0.224369 
133.882126 0.20994 
134.059952 0.405368 
134.067734 0.338051 
134.096527 2.174916 
134.104523 0.618397 
134.951523 0.172396 
134.978622 0.501414 
135.044189 2.183972 
135.080505 6.948289 
135.116913 3.660506 
136.075653 1.269992 
136.578796 0.111259 
137.05986 0.968548 
137.096085 0.924156 
138.091705 0.301679 
138.226135 0.212053 
138.484451 0.224915 
139.075409 3.625392 
139.922958 0.129389 
141.069763 6.198109 
141.920792 0.18521 
142.07782 4.885484 
143.049271 0.364204 
143.085541 23.357134 
144.080902 1.41522 
144.088409 0.492271 
144.094223 0.318248 
144.102081 0.168152 
144.409958 0.107434 
145.064758 3.77776 
145.101227 16.528784 
146.059982 0.883138 
146.096588 1.272087 
146.103958 0.324513 
146.645493 0.172159 
146.97464 1.230159 
147.080383 6.166812 
147.116852 9.028673 
148.075851 0.664878 
148.112106 1.186951 
149.059723 1.153869 
149.096207 2.441084 
150.091629 0.169031 
151.075653 0.155833 
152.989243 0.648134 
153.070007 2.911779 
153.362305 0.151999 
153.513489 0.184545 
154.077835 1.628037 
155.085495 19.554831 
155.167908 0.143831 
156.093842 0.902752 
157.065079 2.216525 
157.101303 16.042597 
158.073135 0.166885 
158.096802 1.137797 
158.104492 0.613425 
159.080505 4.112402 
159.104126 0.166283 
159.116852 5.701025 
160.075729 1.255458 
160.083176 0.117511 
160.112366 0.318244 
160.119293 0.147367 
161.059692 0.592409 
161.083954 0.851642 
161.096085 7.954454 
161.132477 11.411452 
162.054733 0.165333 
162.091324 2.331927 
162.127884 0.362428 
163.039108 0.132205 
163.075226 1.070839 
163.111908 1.002145 
164.070511 0.334863 
165.06987 5.483268 
166.078018 5.631964 
166.085098 0.285668 
167.0858 6.388045 
168.081131 0.125974 
168.093597 1.325483 
169.064926 0.639909 
169.101303 12.847925 
170.10936 0.88916 
171.080399 3.029644 
171.116852 6.227232 
172.075958 0.294679 
173.059601 0.138713 
173.096329 3.822416 
173.132584 1.211031 
173.823029 0.187109 
174.091461 0.405285 
174.127777 0.351756 
174.97258 1.290172 
175.075424 0.37464 
175.087082 0.19083 
175.111877 0.654659 
175.14827 5.235951 
175.976074 0.217158 
176.106949 0.753165 
176.143585 0.206268 
177.090714 0.132582 
178.078064 1.22724 
178.086258 0.155277 
179.08551 10.836735 
179.775711 0.117576 
180.093445 5.72803 
181.065155 0.308308 
181.101196 16.644648 
182.073044 0.196803 
182.095978 0.164006 
182.10939 1.019178 
183.047424 0.112461 
183.080582 0.915532 
183.116837 8.158436 
184.089294 0.123946 
184.112 0.158955 
184.119934 0.129927 
185.09613 3.903239 
185.132568 5.076815 
186.091858 0.173023 
186.13652 0.20398 
187.075333 1.258007 
187.111923 4.320417 
187.808304 0.17561 
188.106979 0.46194 
188.119675 1.532614 
189.055222 0.143275 
190.08638 0.343089 
190.160034 0.122084 
190.422058 0.131832 
191.085556 0.300225 
191.707855 0.165523 
192.09346 0.912553 
193.101257 9.03046 
194.1082 0.873771 
195.067184 0.128767 
195.08078 1.527005 
195.116821 12.59966 
196.087936 0.21577 
196.121841 0.634288 
197.096497 1.489349 
197.132553 2.113195 
198.020569 0.177304 
198.091263 0.215293 
199.075836 0.295058 
199.112244 0.97523 
200.106903 0.257168 
201.127243 0.131936 
201.449615 0.143338 
202.123276 0.26407 
203.085571 0.165541 
203.106491 0.174343 
203.143005 100.0 
203.884506 0.125736 
204.087662 0.422311 
204.102951 0.14441 
204.146515 13.727926 
205.78421 0.235222 
206.083023 0.149636 
206.1091 0.548367 
207.116821 0.708985 
208.124191 0.464527 
209.095993 1.048572 
209.132355 3.55934 
211.075607 0.142327 
211.112228 0.893156 
211.148499 1.562712 
211.193497 0.224556 
213.127594 0.285501 
213.163757 1.007571 
213.482849 0.178787 
214.085587 0.195503 
217.791962 0.202591 
219.174316 99.768646 
220.014191 1.27483 
220.026413 1.452885 
220.038086 0.76555 
220.177704 13.559379 
221.132416 0.190201 
222.667969 0.163388 
223.112732 0.520919 
223.148117 0.980025 
225.127426 0.119703 
227.106262 0.153903 
227.143494 0.145427 
227.179657 0.213174 
233.066467 0.173489 
234.57872 0.222738 
236.976578 0.132403 
237.090973 0.138752 
237.164032 1.674785 
239.126358 0.12349 
239.143234 1.173872 
239.17923 0.328617 
240.90947 2.138488 
251.409851 0.169515 
252.121704 0.1711 
252.378464 0.134841 
255.174332 0.653611 
257.637299 0.142666 
260.766724 0.216929 
275.463257 0.180651 
284.329315 0.193788 
284.808777 0.126649 
299.706299 0.13588 
302.818115 1.322772 
312.838959 0.526934 
314.844757 0.158746 
322.261688 0.250391 
327.825989 0.299104 
330.279327 0.262453 
333.108521 0.196386 
344.829315 0.247089 
346.346985 0.399029 
346.973907 0.676368 
349.467346 0.120612 
359.910004 0.224539 
END IONS

