BEGIN IONS
TITLE=Scan Number: 3346
PEPMASS=405.26401
CHARGE=1+
COMPOUNDNAME=Lovastatin M+H; Mevinolin annotated in standard
LIBRARYQUALITY=3
SMILES=CC[C@H](C)C(=O)O[C@H]1C[C@H](C=C2[C@H]1[C@H]([C@H](C=C2)C)CC[C@@H]3C[C@H](CC(=O)O3)O)C
INCHIKEY=PCZOHLXUXFIOCF-BXMDZJJMSA-N
INCHI=InChI=1S/C24H36O5/c1-5-15(3)24(27)29-21-11-14(2)10-17-7-6-16(4)20(23(17)21)9-8-19-12-18(25)13-22(26)28-19/h6-7,10,14-16,18-21,23,25H,5,8-9,11-13H2,1-4H3/t14-,15-,16-,18+,19+,20-,21-,23-/m0/s1
MSLEVEL=2
SOURCE_INSTRUMENT=LC-ESI-Orbitrap
FILENAME=f.lfnothias/1904_statins_standards/Simvastatin_1uL.mzML;
SEQ=*..*
NOTES=
IONMODE=Positive
ORGANISM=GNPS-LIBRARY
NAME=Lovastatin M+H; Mevinolin annotated in standard M+H
SPECTRUMID=CCMSLIB00005435737
ACTIVATION=CID
INSTRUMENT=ion trap
SCANS=3346
79.054581 22167.015625 
81.070175 20699.03125 
83.04538 1478.805664 
83.049614 9683.186523 
85.065147 4915.064941 
89.023376 2567.508057 
91.054489 6163.878906 
92.690445 1511.251953 
93.070129 10304.680664 
95.085861 6150.601074 
97.065002 10703.328125 
105.070061 22746.498047 
107.049103 2135.057129 
107.085747 19325.171875 
109.065361 2768.313965 
109.100815 1616.460938 
111.08049 2516.854492 
117.070061 3115.135986 
119.085732 14626.823242 
121.101593 7945.590332 
125.059845 10357.740234 
127.074768 2242.265625 
128.062103 5124.427246 
129.070465 4359.113281 
131.085831 35017.195312 
133.101639 8601.632812 
135.116913 2857.133789 
141.069717 1767.181763 
142.07782 3925.265381 
143.070953 8165.65625 
143.085892 69723.25 
144.094208 3338.166016 
145.101562 39749.273438 
147.116776 3558.338135 
149.096619 2169.349121 
155.085831 12323.673828 
156.093781 5851.925293 
157.101578 34738.667969 
158.109344 10810.84375 
159.117218 51988.523438 
161.133881 2296.744385 
162.702164 1634.019775 
163.112045 2517.390625 
165.091385 1959.811157 
167.087036 1832.673218 
168.095047 1795.929077 
169.101334 40655.460938 
171.117142 37651.820312 
173.132828 117150.75 
181.101562 6296.14502 
182.109268 2341.117432 
183.117249 26424.339844 
184.12413 2093.29834 
185.132507 8232.858398 
189.092392 2570.003662 
191.106674 9795.236328 
192.093643 1735.667847 
193.101746 7038.524902 
195.116867 4644.36377 
196.125732 2286.894287 
197.132843 22377.517578 
198.140503 1898.005859 
199.148468 207765.59375 
201.16394 36112.441406 
205.122635 2611.05957 
207.117416 6397.812012 
210.141342 2745.811035 
211.112717 3911.86792 
211.147888 11514.138672 
215.179489 4345.703125 
221.133362 1894.332642 
223.148666 28488.544922 
225.164261 127763.34375 
229.12233 5496.255859 
234.141342 3279.835938 
239.143692 3707.918213 
239.180298 26944.748047 
243.174896 57980.953125 
249.164154 33366.152344 
267.174988 31764.294922 
285.185364 38873.382812 
303.196411 10127.341797 
394.105621 1681.391724 
END IONS

