BEGIN IONS
PEPMASS=427.393
CHARGE=1+
COMPOUNDNAME=3-Epilupeol
LIBRARYQUALITY=3
SMILES=N/A
INCHIKEY=MQYXUWHLBZFQQO-ISZJTHHZSA-N
INCHI=InChI=1S/C30H50O/c1-19(2)20-11-14-27(5)17-18-29(7)21(25(20)27)9-10-23-28(6)15-13-24(31)26(3,4)22(28)12-16-30(23,29)8/h20-25,31H,1,9-18H2,2-8H3/t20-,21+,22-,23+,24+,25+,27+,28-,29+,30+/m0/s1
MSLEVEL=2
SOURCE_INSTRUMENT=N/A-ESI-QFT
FILENAME=library_mgf.mgf
SEQ=*..*
IONMODE=positive
ORGANISM=MONA
NAME=3-Epilupeol [M+H]+
PI=MoNA
DATACOLLECTOR=MoNA:VF-NPL-QEHF005659
PUBMED=N/A
SUBMITUSER=mwang87
TAGS=
SPECTRUMID=CCMSLIB00004696722
SCANS=5659
51.125191 0.011289 
51.755497 0.010273 
52.794422 0.01144 
53.827541 0.013456 
53.858856 0.010412 
54.258072 0.010985 
54.469158 0.011114 
54.766876 0.014322 
55.018375 0.012029 
55.054989 0.890388 
57.034203 0.685745 
57.070648 3.992545 
57.072182 0.017999 
57.334568 0.010091 
57.507301 0.015028 
57.995541 0.008717 
58.065823 0.668624 
58.073917 0.06059 
58.469826 0.008208 
58.613171 0.009839 
59.049896 2.983649 
59.061062 0.887339 
59.605457 0.012005 
60.045097 0.568134 
60.053185 0.183701 
60.081516 0.038595 
60.393803 0.009052 
60.489105 0.013662 
60.652061 0.010294 
60.727234 0.008346 
60.73666 0.010744 
60.766346 0.008468 
60.807106 0.012383 
60.939735 0.011645 
61.01136 0.743404 
61.419701 0.008728 
61.814331 0.009649 
61.927673 0.011843 
62.01918 0.314147 
62.060684 0.342813 
62.09243 0.008589 
62.164955 0.0122 
62.901646 0.009334 
62.982384 0.094283 
63.515579 0.009643 
63.544411 0.01438 
63.649471 0.01226 
64.104218 0.010414 
65.652 0.011887 
66.438728 0.009809 
66.862831 0.013772 
66.978859 0.012308 
67.054916 1.343238 
68.058334 0.016187 
68.754822 0.009157 
68.846069 0.009407 
69.034157 0.180471 
69.07058 2.074036 
70.065727 0.231969 
70.073853 0.023668 
70.594292 0.012332 
71.049774 0.631979 
71.086197 1.920966 
71.257996 0.01065 
71.659752 0.011854 
72.044983 0.35223 
72.081383 0.106724 
72.089317 0.022584 
72.111031 0.00941 
72.465706 0.012609 
73.028946 0.296617 
73.047386 0.621956 
73.065399 0.147417 
73.601761 0.008313 
73.708565 0.010052 
74.060608 0.134186 
74.097092 1.305534 
74.328079 0.010746 
74.357323 0.01075 
74.628899 0.009153 
74.889313 0.009771 
75.044571 0.079819 
75.055984 0.045892 
75.513397 0.008817 
75.632324 0.010772 
75.634338 0.011669 
76.076309 0.260902 
77.554008 0.009836 
78.528503 0.012205 
78.956093 0.038194 
79.021851 2.048098 
79.054756 0.510274 
79.993553 0.008611 
80.035469 0.011081 
80.722656 0.014244 
80.948334 0.336933 
81.068245 0.081573 
81.070496 1.239033 
81.206421 0.047284 
82.073784 0.124381 
82.465637 0.009556 
82.945282 0.023935 
83.049599 0.456584 
83.086128 2.004067 
83.163216 0.0124 
84.044975 0.015677 
84.081116 0.026025 
84.089424 0.030615 
84.207634 0.009159 
84.381439 0.012961 
85.028862 0.159441 
85.04007 0.123635 
85.065353 1.72969 
85.101715 1.109705 
86.060463 0.074851 
86.096916 0.541853 
86.099358 0.010345 
86.10495 0.014437 
86.704231 0.014121 
87.044563 1.072202 
87.191818 0.008687 
88.021927 0.531695 
88.076172 0.079072 
88.127304 0.00818 
89.060249 3.113653 
90.374825 0.009045 
90.563751 0.011358 
91.054848 0.492626 
91.057884 4.266725 
91.629097 0.008639 
93.037216 0.858922 
93.070358 1.511876 
95.049431 0.317706 
95.086021 6.337191 
95.482841 0.008109 
95.513229 0.009767 
96.089172 0.420633 
96.922035 0.155855 
97.029114 0.014152 
97.040253 0.011904 
97.065086 0.616457 
97.101608 1.702027 
97.104607 0.011319 
97.22216 0.011359 
98.060493 0.024351 
98.096764 0.08419 
98.10482 0.029175 
98.184715 0.013856 
98.975761 0.011106 
99.044334 0.43332 
99.080765 0.475676 
99.116943 0.01352 
100.076118 1.152183 
100.112434 1.026805 
100.37146 0.014313 
100.817009 0.008685 
101.003586 2.277526 
101.06015 1.562715 
101.404358 0.013106 
102.055328 0.080465 
103.039307 0.615596 
103.075562 0.116088 
104.070747 0.076244 
104.107353 0.681267 
104.992622 0.020477 
105.07016 1.130313 
105.073509 0.047226 
106.073219 0.013362 
106.08654 0.123458 
106.307449 0.013395 
107.010651 0.010135 
107.049614 0.015363 
107.085892 3.518907 
107.342575 0.010365 
107.966927 0.058843 
108.089149 0.166868 
108.906448 0.013267 
108.913818 0.008369 
109.064972 0.56042 
109.101471 4.769686 
110.104698 0.318733 
110.574814 0.012173 
111.044205 0.196271 
111.080688 0.740167 
111.117027 0.773273 
111.231308 0.008246 
111.456734 0.012925 
111.734528 0.015684 
112.729431 0.014035 
112.895889 0.089936 
112.969688 0.011765 
113.059883 0.292854 
113.096321 0.181644 
113.665367 0.014357 
114.091438 0.014146 
114.127365 0.011787 
114.360962 0.009506 
114.893013 0.010339 
114.900719 0.010115 
115.075584 0.15668 
115.164619 0.009276 
116.053108 2.040714 
116.070724 0.07243 
116.107079 0.103213 
116.97715 0.279557 
116.986069 0.076682 
117.056061 0.063134 
117.070129 0.027637 
117.09108 0.257175 
118.048828 0.022232 
118.086456 0.014304 
119.049225 0.374905 
119.085724 3.874138 
120.08078 0.486227 
120.088898 0.250868 
121.064888 0.690304 
121.101372 4.501546 
121.699738 0.011661 
122.104568 0.360001 
122.109268 0.012653 
123.080521 0.823295 
123.116989 2.679884 
124.120117 0.146639 
125.059708 0.084885 
125.096062 0.629443 
125.132614 0.095389 
126.278336 0.009493 
127.07531 0.098593 
127.111549 0.032888 
128.143463 0.060379 
128.864929 0.01446 
129.054596 0.223191 
130.049942 0.013139 
130.158783 0.108298 
131.070297 0.119276 
131.085388 0.566262 
132.102188 0.011601 
132.450089 0.009521 
132.987335 0.010178 
133.064682 0.488664 
133.085876 0.921159 
133.101227 2.773496 
134.104507 0.160373 
134.99649 0.248694 
135.002686 0.009816 
135.010544 0.016722 
135.043854 0.048367 
135.080475 1.314714 
135.116837 5.550337 
135.742126 0.008573 
135.826721 0.009993 
136.075546 0.089156 
136.120026 0.552177 
136.95723 0.010794 
137.05957 0.077408 
137.096115 1.042105 
137.132492 1.806825 
138.135727 0.032425 
138.37886 0.009547 
139.075211 0.179983 
139.111664 0.505981 
139.914322 0.010414 
140.068375 0.025915 
140.143173 0.412476 
140.959183 1.302614 
141.071564 0.011501 
141.091095 0.014102 
141.113541 0.014726 
142.158798 0.062529 
142.938385 0.105322 
143.070297 0.013959 
143.085541 0.120687 
144.932526 0.010921 
145.049728 0.013978 
145.101181 1.523256 
146.104111 0.047901 
146.973633 0.011931 
147.080154 0.409995 
147.116776 3.556872 
148.024658 0.393607 
148.119995 0.172631 
148.126419 0.009466 
149.044769 0.290192 
149.059708 0.030688 
149.096039 0.732557 
149.132462 2.518206 
150.020432 0.030521 
150.04071 0.094982 
150.13559 0.163354 
151.075195 0.25782 
151.111588 0.539591 
151.148056 0.336293 
151.369308 0.008551 
151.969833 0.064014 
152.071548 0.013218 
152.950684 0.018161 
152.989166 0.035108 
152.99913 0.00962 
153.018082 0.127906 
153.090714 0.142624 
153.127274 0.150147 
153.502396 0.010329 
153.86618 0.00995 
153.959869 0.014934 
154.074677 0.010025 
154.122849 0.030747 
154.158981 0.177188 
154.968475 0.089803 
155.070312 0.01384 
155.085724 0.018653 
156.138245 0.40819 
156.174454 0.022922 
156.933029 0.330132 
157.101074 0.336119 
159.046921 0.12908 
159.080231 0.073579 
159.116821 1.864534 
160.119949 0.146531 
160.248734 0.008804 
161.096024 1.380957 
161.125259 0.017304 
161.132431 2.415631 
161.828857 0.009899 
162.099243 0.062499 
162.13588 0.190905 
163.075241 0.08466 
163.111694 0.631184 
163.148102 1.811084 
164.114517 0.01203 
164.151245 0.119015 
164.920471 0.778294 
165.054382 0.069937 
165.090836 0.364561 
165.127213 0.410075 
165.163483 0.048471 
165.808228 0.009282 
167.055389 2.254916 
167.106247 0.081283 
168.137833 0.01166 
169.048798 0.013624 
169.101105 0.026096 
169.122131 0.013585 
170.962677 0.03105 
171.013977 0.015312 
171.116486 0.533498 
171.960266 0.009948 
172.115433 0.031985 
172.730698 0.008085 
172.907028 0.125367 
173.079865 0.039995 
173.096085 0.311947 
173.132462 1.36841 
174.005676 0.011877 
174.135895 0.042279 
174.904434 0.011711 
174.972427 0.170808 
175.075485 0.023282 
175.095886 0.020417 
175.111679 1.752143 
175.148102 2.105065 
175.593552 0.009546 
176.11496 0.126475 
176.151367 0.166727 
176.870117 0.013079 
176.967072 0.053197 
177.057602 0.159616 
177.090912 0.122854 
177.111618 0.014719 
177.127411 1.676423 
177.163651 1.73615 
178.130585 0.030067 
178.166794 0.096776 
179.106262 0.226605 
179.142838 0.398613 
179.178879 0.014715 
180.894165 0.252118 
180.978806 0.013266 
180.999466 0.012301 
181.122101 0.187876 
181.158188 0.016204 
182.153885 0.1963 
182.962234 0.026023 
183.116714 0.233841 
183.496582 0.009429 
183.959976 0.009658 
184.073303 2.567847 
185.096024 0.078239 
185.132431 0.714096 
187.074814 0.030911 
187.111694 0.982757 
187.148117 2.672328 
188.115158 0.029217 
188.15126 0.270711 
188.966171 0.012118 
188.988464 0.011908 
189.090912 0.184685 
189.127243 0.711773 
189.163712 7.282567 
189.925888 0.011089 
190.167068 1.099567 
191.000656 0.022156 
191.106369 0.776783 
191.142914 0.779265 
191.170135 0.02909 
191.179352 3.174 
191.972031 0.013584 
192.109818 0.013683 
192.182678 0.420802 
192.961685 0.328218 
193.085754 0.053033 
193.122162 0.228007 
193.158707 0.3944 
193.557343 0.01003 
194.962082 0.389075 
194.999786 0.276068 
195.117111 0.026089 
195.137848 0.385144 
195.959793 1.27214 
196.86824 0.196729 
196.957504 0.098055 
197.132645 0.140294 
198.149307 0.019305 
199.007828 0.012416 
199.076065 0.014029 
199.111481 0.11226 
199.148026 0.591115 
199.18013 0.032539 
199.861862 0.011509 
200.150635 0.02775 
201.090607 0.010188 
201.12738 0.988489 
201.163727 2.059203 
201.452698 0.010188 
202.131287 0.032107 
202.167038 0.235747 
203.021561 0.010306 
203.106537 0.350951 
203.127823 0.168281 
203.143005 1.994672 
203.179489 1.436768 
203.675323 0.012744 
203.939499 0.00984 
204.087402 0.107032 
204.146317 0.584075 
204.182816 0.122996 
204.961945 0.218874 
205.085938 0.200904 
205.122269 0.622415 
205.15863 9.85302 
205.194885 0.180562 
205.962875 0.014382 
206.082687 0.01205 
206.162064 1.435003 
206.977844 0.424055 
207.053665 0.015032 
207.101181 0.11564 
207.137924 0.075597 
207.164566 0.042188 
207.174423 2.477537 
208.17775 0.277603 
209.116898 0.362991 
209.131256 0.027609 
209.943695 0.010048 
210.185226 0.39642 
210.972092 0.170538 
211.111435 0.011029 
211.147903 0.202965 
211.188614 0.015414 
212.842239 0.052881 
212.97258 1.390734 
212.983994 0.010049 
213.010269 0.013737 
213.126938 0.185599 
213.163467 0.61763 
213.787659 0.237638 
213.797058 0.462043 
213.807953 0.77644 
213.818909 0.294401 
213.970306 2.786797 
214.167938 0.028045 
214.956909 0.021299 
214.969345 0.55262 
215.089005 0.063343 
215.106735 0.011054 
215.127731 0.069675 
215.142685 0.648907 
215.179398 0.919789 
215.965836 0.010671 
216.146851 0.018816 
216.182343 0.020889 
216.98674 0.022211 
217.049271 0.03771 
217.085938 0.057842 
217.105072 0.012901 
217.122162 0.135834 
217.158691 0.909302 
217.194977 0.792607 
218.124817 0.015469 
218.162216 0.032265 
218.197723 0.01304 
219.137711 0.579095 
219.174377 1.573242 
219.666626 0.013712 
220.177734 0.130404 
221.117264 0.250999 
221.153214 0.081844 
222.431915 0.014697 
222.896744 0.014239 
223.096405 0.016674 
223.133148 0.019086 
223.147675 0.031092 
224.387573 0.008599 
224.968643 0.015926 
225.042648 0.316814 
225.127792 0.013597 
225.163757 0.222549 
225.975021 0.040565 
226.216476 0.681158 
226.988235 0.012826 
227.069992 0.446982 
227.106552 0.01256 
227.142944 0.215944 
227.179337 0.36395 
227.986191 0.127573 
228.073761 0.110413 
228.145523 0.019902 
228.671249 0.131204 
229.122162 0.041378 
229.158508 0.427761 
229.172318 0.01319 
229.194901 0.485812 
230.198486 0.033886 
230.967087 0.054699 
230.980881 0.395146 
231.137711 0.181872 
231.174286 0.907251 
231.186325 0.010471 
231.210251 0.053285 
232.109192 0.012281 
232.177505 0.057989 
232.839355 0.011468 
232.964264 0.155349 
233.014801 0.043429 
233.066528 0.047703 
233.081253 0.094856 
233.141693 0.010678 
233.153244 0.274666 
233.189835 0.536176 
233.227219 0.010557 
233.892212 0.014263 
234.99762 0.071427 
235.060669 0.161251 
235.148148 0.013792 
235.168747 0.090866 
237.024323 0.016927 
237.061493 0.017737 
237.126877 0.015694 
237.163391 0.043111 
237.676682 0.236365 
238.177628 0.047802 
238.676102 0.023396 
239.143158 0.03344 
239.17923 0.126686 
240.908798 0.083738 
241.158615 0.044258 
241.194641 0.200869 
243.137527 0.114912 
243.174377 1.580276 
243.210541 0.137532 
244.177856 0.095145 
245.08107 0.775698 
245.138687 0.014237 
245.153214 0.167147 
245.190216 0.183782 
245.226028 0.0166 
245.897186 0.009967 
246.083862 0.442681 
246.910217 0.015713 
247.16922 0.050048 
247.20549 0.078787 
248.111816 0.063729 
248.209 0.009928 
248.954666 0.195744 
248.990982 0.989488 
249.991486 0.062673 
250.178329 0.022835 
250.974136 0.10033 
250.986557 0.043789 
251.025681 3.508823 
251.178665 0.033236 
251.93837 0.124177 
252.027802 0.444369 
252.070679 0.027457 
252.949722 0.487258 
252.999817 0.017094 
253.0215 0.093515 
253.158447 0.071778 
253.194687 0.182757 
255.016953 0.128583 
255.13829 0.101671 
255.174438 0.143016 
255.210388 0.236453 
256.365082 0.011824 
257.152863 0.170183 
257.189758 0.212592 
257.226379 0.047497 
258.192993 0.012181 
258.929108 0.04544 
259.157776 0.011864 
259.168762 0.039003 
259.205566 0.454536 
261.060883 0.230641 
263.091705 0.019173 
264.90921 0.052592 
266.173615 0.011375 
266.912079 0.018031 
266.965546 0.160769 
267.210358 0.082613 
267.268005 0.286664 
267.849762 0.010224 
268.978851 0.039587 
268.996582 0.064647 
269.036163 2.26739 
269.190002 0.073963 
269.225983 0.147938 
269.892609 0.086352 
269.995056 0.015582 
270.038208 0.171289 
270.899475 0.330154 
271.169159 0.452174 
271.205597 0.24221 
271.243317 0.013565 
272.116486 0.362138 
272.1716 0.01749 
272.937073 0.061298 
272.976379 0.016486 
273.008606 0.010759 
273.14859 0.049002 
273.184692 0.050285 
273.221252 0.16166 
274.893677 0.301067 
274.970154 0.011052 
275.236542 0.30305 
275.899323 0.045646 
279.001434 0.014325 
279.070831 0.063858 
281.190796 0.02105 
281.225098 0.014698 
281.911591 0.498034 
282.8909 0.113836 
282.918762 0.062638 
283.168213 0.022011 
283.189362 0.012877 
283.205933 0.015326 
285.184082 0.017752 
285.221405 0.190166 
286.131958 0.015731 
287.236572 0.303841 
287.897827 0.057087 
288.145813 0.01383 
288.933014 0.010991 
288.952728 0.062065 
289.007385 0.013372 
289.094543 0.015116 
289.179626 0.800347 
289.250336 0.013501 
289.950409 0.38081 
290.126892 0.055359 
290.18399 0.029947 
290.927002 0.027284 
290.947266 0.981442 
290.968628 0.066322 
291.926483 0.025769 
291.948212 0.037292 
292.926666 0.015902 
292.944458 0.031904 
293.032043 0.065374 
293.189514 0.019124 
293.226166 0.017394 
294.903625 0.05484 
295.241699 0.109688 
296.24585 0.016573 
296.294312 0.068961 
297.013275 0.017157 
297.185455 0.025195 
297.203064 0.396491 
297.220764 0.223787 
299.200684 0.022454 
299.237091 0.033693 
303.184082 0.086167 
303.753815 0.010683 
304.8862 0.014559 
304.910736 0.071729 
304.927979 0.032824 
305.911285 0.196388 
305.927094 0.032462 
306.118561 0.021761 
306.877472 0.063768 
306.907867 0.143505 
306.922363 0.103951 
306.9646 0.103287 
307.01825 0.125338 
307.241821 0.063564 
307.262329 0.021869 
307.883362 0.128512 
307.961395 0.246862 
308.885223 0.025694 
308.920349 0.1843 
308.95816 0.196663 
308.979218 0.03177 
309.078156 1.761963 
309.097931 0.294783 
309.261017 0.117911 
309.278381 4.129316 
309.91864 0.317597 
310.077026 0.823605 
310.282227 0.446057 
310.992523 0.649008 
311.059601 0.016211 
311.079132 0.070079 
311.125275 0.011605 
311.237 0.912324 
311.274902 0.098436 
311.293915 0.640034 
311.829865 0.013669 
311.993225 0.167911 
312.23999 0.147675 
312.274292 0.01383 
312.83902 0.073483 
312.933105 0.010725 
312.989166 0.05511 
313.216858 0.013552 
313.252472 0.131767 
313.274414 0.015889 
315.983948 0.015967 
316.904205 0.667856 
317.905853 0.407399 
319.835938 2.057191 
320.837311 0.036506 
321.257477 0.140497 
322.311127 0.104441 
322.789978 0.010771 
323.237366 0.049143 
323.273285 0.032277 
323.313049 0.031512 
324.290314 0.150275 
324.325745 100.0 
324.887939 0.859298 
324.986938 0.078076 
325.252991 1.065413 
325.329102 21.235802 
325.892944 0.184842 
326.255463 0.131925 
326.332397 1.484084 
326.865265 0.023444 
326.930542 0.044758 
327.825806 0.071517 
327.928711 0.025632 
328.832794 0.158716 
329.002838 2.385965 
329.963715 0.359022 
330.00415 1.126565 
330.962067 0.031014 
330.981567 0.596667 
331.00119 0.417657 
331.920166 0.052732 
332.91803 0.014415 
332.996429 0.011513 
334.913635 0.01527 
335.028717 0.029309 
335.830536 0.166756 
336.83844 0.879841 
337.846161 1.615234 
338.846741 0.04042 
339.2677 2.06191 
339.326385 0.036042 
340.275604 6.478873 
341.017639 0.020466 
341.209747 0.023857 
341.229675 0.121085 
341.279297 1.838588 
342.28302 0.051368 
342.898773 0.421375 
342.997162 0.693341 
343.130951 0.088436 
343.226532 0.689983 
343.901825 0.012552 
344.877747 0.010308 
347.013489 0.520101 
347.210022 0.012587 
347.97406 0.0499 
348.015106 0.239728 
348.169342 0.069072 
348.99231 0.889793 
349.012909 0.040177 
349.184814 0.012632 
349.251404 0.013797 
350.131989 0.031295 
350.946808 0.017586 
350.985474 0.0126 
351.269012 0.019378 
351.94754 0.309097 
353.039307 0.029777 
353.283844 0.357105 
353.319489 0.054935 
353.841553 1.461544 
353.999146 0.013995 
354.804993 0.110393 
354.847504 0.238731 
356.91333 0.009442 
359.027832 2.647117 
362.841583 0.018226 
363.268097 0.408986 
363.303955 0.197862 
363.841766 0.020288 
366.195984 0.01355 
367.176086 0.017074 
367.263885 0.018467 
367.299408 0.10431 
367.857239 0.034678 
368.939575 0.090733 
369.836365 1.234758 
370.84137 0.027228 
371.161987 0.416168 
371.85199 0.086072 
372.468781 0.013765 
372.587585 0.011671 
372.815216 0.139229 
375.090027 0.478125 
375.267426 0.058107 
377.284241 0.01454 
378.075958 0.671593 
379.074432 2.000693 
380.0737 0.487457 
380.425415 0.056229 
381.072113 0.047078 
381.283112 0.128118 
381.314972 9.517757 
382.318176 2.598413 
383.257629 0.011267 
383.292206 0.022372 
383.32428 0.125691 
384.333008 0.111467 
384.892517 0.009617 
384.991394 0.015464 
387.150818 0.330632 
387.847046 0.698881 
389.770386 0.010821 
391.054718 0.186865 
391.26355 0.182806 
391.299103 0.63362 
391.335236 0.203022 
392.30307 0.026018 
392.428436 0.016151 
393.100403 2.186028 
393.243225 0.046166 
393.278595 0.253164 
394.842926 0.030328 
396.569427 0.009385 
399.214996 0.070986 
399.289398 0.088671 
400.718658 0.01476 
405.161774 0.736785 
407.331787 0.017688 
408.333496 0.18702 
408.96582 0.009791 
409.025269 0.011349 
409.065826 1.289273 
409.240692 0.071884 
409.273926 0.829845 
409.309784 1.985147 
409.345367 0.854847 
410.02774 0.020573 
410.066895 0.11715 
410.277863 0.02401 
410.312744 0.518496 
410.347107 0.11469 
410.435883 0.305012 
410.841797 0.011149 
411.064362 0.029795 
411.111237 4.510192 
411.217407 0.01797 
411.255219 0.077382 
411.288879 0.716671 
411.321808 0.092869 
413.190643 0.010351 
414.816376 0.130595 
423.170807 0.043175 
425.307648 0.078404 
425.340393 0.860725 
425.490387 0.113658 
426.182434 0.159573 
426.218445 0.14063 
426.269684 0.170162 
426.305603 0.594651 
426.343353 2.122816 
426.372742 0.214661 
426.40564 0.114468 
426.43457 0.022079 
427.039459 0.11397 
427.07608 0.249797 
427.105438 0.014272 
427.213165 0.14794 
427.246552 0.793426 
427.283142 2.881589 
427.320312 5.01288 
427.348022 0.552349 
427.407104 0.01986 
428.036377 0.178271 
428.230591 0.444803 
428.262054 0.214631 
428.287079 0.507265 
428.322113 1.569492 
428.352478 0.214873 
428.389709 0.136339 
428.424225 0.374774 
428.732697 0.141562 
428.855438 0.046041 
429.035675 0.025673 
429.121429 13.132866 
429.171753 0.129276 
429.226166 0.021005 
429.261505 0.05887 
429.32077 4.479975 
429.38623 0.015816 
429.424103 0.023698 
434.77182 0.010709 
446.865753 0.016976 
447.15271 0.014477 
447.346588 0.345785 
END IONS

