BEGIN IONS
PEPMASS=347.0
CHARGE=1+
COMPOUNDNAME=MoNA:2581244 Gibberellin A1
LIBRARYQUALITY=3
SMILES=N/A
INCHIKEY=JLJLRLWOEMWYQK-OBDJNFEBSA-N
INCHI=InChI=1S/C19H24O6/c1-9-7-17-8-18(9,24)5-3-10(17)19-6-4-11(20)16(2,15(23)25-19)13(19)12(17)14(21)22/h10-13,20,24H,1,3-8H2,2H3,(H,21,22)/t10-,11+,12-,13-,16-,17+,18+,19-/m1/s1
MSLEVEL=2
SOURCE_INSTRUMENT=LC-ESI-QQ-LC-ESI-QQ
FILENAME=output_mgf.mgf
SEQ=*..*
IONMODE=
ORGANISM=MONA
NAME=MoNA:2581244 Gibberellin A1 [M-H]-
PI=MoNA
DATACOLLECTOR=MoNA
PUBMED=N/A
SUBMITUSER=mwang87
TAGS=
SPECTRUMID=CCMSLIB00000574434
SCANS=11685
52.957 1.405296 
68.727 4.427173 
70.908 5.268279 
72.632 8.84859 
73.227 3.488774 
82.799 13.834197 
92.908 1.261946 
94.359 3.015544 
98.884 1.955095 
105.172 3.393782 
106.887 1.183074 
108.436 2.560737 
109.139 1.018998 
118.664 1.969488 
127.601 1.668969 
132.452 5.630973 
136.179 1.108233 
137.287 2.645941 
143.389 1.251583 
144.497 10.719632 
145.035 45.998849 
148.812 1.589522 
156.923 21.335636 
157.485 4.178469 
160.359 1.737478 
161.111 4.82844 
162.651 7.179044 
169.027 6.11399 
170.952 9.142199 
172.418 5.64479 
173.053 21.255037 
177.369 3.206102 
180.95 2.84859 
184.573 1.953944 
185.094 24.968336 
188.516 7.81232 
189.367 3.478411 
191.43 1.927461 
197.387 4.549223 
198.766 13.82844 
199.72 21.15141 
200.754 9.170984 
201.521 6.07369 
203.033 7.553253 
203.622 0.98791 
210.961 7.334485 
212.825 15.037421 
217.541 1.399539 
220.853 4.507196 
223.252 1.990213 
225.103 1.653425 
228.563 48.364997 
229.238 100.0 
232.917 1.12205 
236.776 1.998849 
239.19 3.031088 
240.285 2.237191 
241.437 19.694876 
244.753 4.071963 
247.69 2.895797 
255.135 2.092113 
256.601 8.721934 
257.535 2.656304 
258.603 1.396085 
259.243 11.69833 
260.417 0.978699 
267.517 2.806563 
272.48 1.896949 
273.197 48.267127 
284.459 2.590674 
285.173 40.103627 
289.469 1.080023 
297.489 1.439839 
298.415 1.098446 
299.436 1.062176 
302.288 3.561313 
303.342 6.954519 
329.559 6.11399 
346.344 2.317789 
347.155 3.815199 
363.839 1.015544 
377.737 1.331031 
392.816 1.237191 
END IONS

