BEGIN IONS
PEPMASS=1072.51
CHARGE=1+
COMPOUNDNAME=Tomatine
LIBRARYQUALITY=3
SMILES=N/A
INCHIKEY=REJLGAUYTKNVJM-SGXCCWNXSA-N
INCHI=InChI=1S/C50H83NO21/c1-20-7-12-50(51-15-20)21(2)32-28(72-50)14-26-24-6-5-22-13-23(8-10-48(22,3)25(24)9-11-49(26,32)4)65-45-40(63)37(60)41(31(18-54)68-45)69-47-43(71-46-39(62)36(59)34(57)29(16-52)66-46)42(35(58)30(17-53)67-47)70-44-38(61)33(56)27(55)19-64-44/h20-47,51-63H,5-19H2,1-4H3/t20-,21-,22-,23-,24+,25-,26-,27+,28-,29+,30+,31+,32-,33-,34+,35+,36-,37+,38+,39+,40+,41-,42-,43+,44-,45+,46-,47-,48-,49-,50-/m0/s1
MSLEVEL=2
SOURCE_INSTRUMENT=N/A-ESI-QFT
FILENAME=library_mgf.mgf
SEQ=*..*
IONMODE=positive
ORGANISM=MONA
NAME=Tomatine [M+K]+
PI=MoNA
DATACOLLECTOR=MoNA:VF-NPL-QEHF026713
PUBMED=N/A
SUBMITUSER=mwang87
TAGS=
SPECTRUMID=CCMSLIB00004719755
SCANS=26713
76.254768 0.044081 
77.530205 0.045317 
78.058128 0.052283 
78.203072 0.044303 
79.054108 0.228686 
79.41893 0.053323 
79.7323 0.04785 
79.845146 0.042554 
81.018539 10.009785 
81.020988 0.176862 
81.033417 1.635377 
81.069786 1.012284 
81.83918 0.044479 
82.021538 0.044018 
82.810631 0.042884 
83.085602 0.062347 
84.080574 0.769384 
85.02845 29.808273 
85.031029 0.621018 
86.03167 1.300774 
87.043968 1.017002 
87.572319 0.040208 
87.731583 0.04833 
88.390068 0.043535 
88.807045 0.046814 
89.531311 0.045256 
91.039024 5.335275 
91.05439 0.570334 
91.057297 3.104906 
92.041931 0.055814 
92.711479 0.048366 
93.069695 0.39379 
94.02639 4.125377 
94.268105 0.04584 
94.429398 0.050589 
95.033806 0.155602 
95.049202 0.15411 
95.085457 0.815725 
96.080711 0.242552 
97.028465 18.487574 
97.064789 0.109064 
98.0317 0.690824 
98.096397 0.535844 
98.260399 0.049738 
99.043854 1.661326 
102.422768 0.050554 
103.038994 0.189931 
105.069862 0.923221 
105.623795 0.043459 
106.244354 0.042484 
106.326096 0.042957 
107.085426 1.347341 
108.04171 0.730893 
108.125023 0.049637 
109.028343 2.639836 
109.101135 1.357801 
110.096169 0.232885 
110.162552 0.043788 
113.007668 0.050514 
113.100166 0.057166 
114.091408 5.777316 
114.695648 0.053296 
115.038986 11.928407 
115.094887 0.047024 
116.042381 0.448121 
116.301559 0.04311 
117.961685 0.041627 
119.085503 0.662857 
121.100998 0.873416 
121.498962 0.049912 
122.057381 0.428873 
123.116821 0.056357 
124.11216 5.16942 
125.115387 0.149325 
125.143974 0.043315 
126.127747 10.690597 
126.132774 0.060951 
127.039001 13.710037 
127.111519 0.459935 
127.130836 0.657176 
128.042313 0.692247 
128.070465 2.605276 
128.448212 0.041308 
131.085556 0.661431 
133.049423 2.877915 
133.100998 0.931724 
135.002808 0.041982 
135.0802 0.050766 
135.116653 0.783434 
136.072906 0.950557 
137.081024 0.049871 
137.09639 0.046148 
138.128586 0.058746 
140.106995 0.161217 
142.086319 0.296691 
142.560104 0.047651 
144.138229 0.208517 
145.049515 18.326035 
145.101044 2.2347 
146.052826 1.335209 
147.116806 3.613601 
149.04422 0.105326 
149.096024 0.377746 
149.132401 0.2992 
149.672623 0.047863 
150.088745 1.396598 
151.111694 0.117637 
152.106934 0.047149 
156.381668 0.040531 
157.100891 0.23507 
159.064758 0.045323 
159.116714 2.254134 
159.71109 0.041733 
160.120132 0.105922 
161.132324 7.206268 
162.135651 0.526125 
163.005707 0.050006 
163.060028 5.371976 
163.111465 0.860497 
164.104736 1.654804 
166.123001 0.051959 
166.403397 0.049353 
167.055283 1.020641 
169.738678 0.04447 
171.116623 0.155676 
173.061295 0.051197 
173.132477 1.60494 
176.14296 0.044558 
177.808807 0.046323 
178.120193 1.847489 
185.042068 0.389789 
187.148132 0.061038 
187.989716 0.059401 
190.820282 0.04518 
192.135651 1.233998 
194.093185 0.050855 
194.580475 0.046121 
198.939316 0.045695 
198.950989 0.053605 
199.147873 0.168768 
201.754425 0.050134 
203.2444 0.045385 
203.732819 0.047686 
205.424255 0.04597 
206.151215 1.660394 
207.15509 0.046971 
209.694901 0.05053 
213.163055 0.053912 
215.178925 0.049359 
215.968842 0.055084 
219.017105 0.049301 
219.287476 0.052965 
221.174866 1.307478 
222.441422 0.052845 
223.060806 0.338367 
225.04303 0.54316 
226.533493 0.046135 
226.593872 0.042181 
229.070053 0.050407 
231.737045 0.065017 
232.988693 0.053603 
234.989334 0.101408 
236.161896 0.055803 
236.989944 0.063537 
237.028183 0.200377 
237.907761 0.053287 
237.988846 0.053766 
239.095108 0.121519 
241.054916 0.048559 
241.070755 0.828158 
245.04985 0.050699 
246.14032 0.04479 
248.162094 0.774333 
250.177673 8.457802 
251.180817 1.546303 
253.194656 3.547829 
254.198425 0.573569 
255.210754 18.004486 
256.21402 3.82678 
258.972626 0.261098 
259.969727 0.066744 
260.493988 0.046977 
266.172852 2.183398 
266.998505 0.641697 
267.175629 0.113305 
268.0 0.04909 
270.844116 0.050578 
271.205414 1.446701 
272.209106 0.051607 
272.745331 0.049729 
273.221191 9.882057 
274.224823 1.798534 
276.999847 0.347169 
279.000305 1.361442 
279.039337 0.052419 
279.99884 0.428421 
281.449097 0.048893 
285.00943 2.567321 
286.011017 0.045234 
286.494324 0.049433 
297.973969 0.292015 
298.028656 0.058615 
299.06131 2.183037 
299.236816 0.261908 
300.062469 0.143647 
300.98233 0.127144 
302.21344 0.060238 
303.019775 0.046191 
304.184204 0.066309 
309.17923 0.449794 
314.999146 0.059088 
321.008301 0.170422 
322.950897 0.231234 
325.113708 0.057995 
327.627838 0.066639 
329.084259 0.399704 
334.367706 0.060529 
342.995667 0.060487 
345.049591 0.59809 
349.301056 0.046243 
351.020264 0.217792 
355.070496 0.765164 
356.071716 0.04891 
357.054352 0.058853 
359.028687 1.833601 
360.03006 0.121556 
363.022491 0.049652 
363.059937 1.92606 
364.065155 0.05145 
369.03006 0.544459 
369.353973 0.04831 
375.951996 0.05499 
378.315552 0.454857 
379.031403 0.166852 
380.331055 1.395684 
381.033295 0.768047 
381.070923 0.574616 
381.336151 0.059036 
382.031006 0.569612 
393.601898 0.058271 
394.31073 0.050512 
396.325562 2.829442 
397.330292 0.572588 
398.341339 5.740229 
399.345642 1.493565 
400.006073 0.390993 
403.014923 0.570544 
404.012939 0.675019 
408.324249 0.050987 
412.319733 0.107209 
414.336243 4.779636 
415.340363 1.646665 
416.35202 24.093655 
417.355316 7.309654 
418.358917 0.704962 
423.080688 0.144357 
434.302063 0.059174 
435.274414 0.78353 
436.280182 0.077626 
436.318176 0.071188 
438.335236 0.081216 
450.312286 0.061695 
452.120819 0.050419 
452.311737 0.818853 
453.31366 0.148296 
456.348328 0.615758 
458.362885 0.903393 
459.402344 0.051026 
463.034363 0.069617 
474.359222 0.066044 
479.136993 1.96487 
490.323822 0.05812 
497.237823 0.052238 
519.764282 0.19116 
520.261353 0.050607 
528.771118 2.118388 
529.273071 1.379647 
536.264282 0.054004 
560.394287 2.029441 
561.398071 0.25974 
576.389526 1.288395 
577.392639 0.408499 
578.404968 13.180933 
579.40802 4.893527 
580.411743 0.91427 
581.725952 0.059209 
589.288879 0.059226 
598.371643 0.106284 
599.178528 0.891751 
600.387268 2.439043 
601.391846 0.289886 
614.362 0.057245 
616.352539 0.794305 
622.368652 0.272752 
625.612244 0.051135 
634.362671 6.081192 
635.366943 1.634436 
641.189331 1.182553 
642.194214 0.056532 
651.359131 0.06117 
652.374573 1.709947 
653.380005 0.10893 
656.954102 0.04725 
659.201721 1.856823 
660.203125 0.115037 
670.410706 0.05125 
674.317871 0.410408 
675.319092 0.061766 
676.315552 0.064881 
685.435425 60.370193 
686.438843 35.981255 
687.442688 8.693106 
687.506226 0.072204 
688.446594 0.695763 
707.760681 0.073118 
707.885559 0.067976 
707.960266 0.068074 
708.168335 0.056987 
738.675964 0.051607 
740.458191 0.358796 
741.460571 0.107887 
751.795837 0.052761 
762.433472 0.055276 
764.424377 0.050777 
778.405212 1.275605 
779.408569 0.177395 
818.357666 0.156765 
819.358215 0.106835 
820.354065 0.053671 
854.493591 0.136534 
855.48938 0.110895 
872.497986 1.92659 
873.50415 0.633841 
875.385376 0.191295 
884.498962 0.230595 
900.495605 0.053146 
902.509338 1.458599 
903.51239 0.361044 
908.457458 0.1062 
909.467896 0.216481 
910.467468 0.132502 
911.461914 0.481852 
924.490295 0.310749 
938.473511 0.300357 
939.475586 0.467385 
940.465332 1.44603 
941.469971 1.651695 
942.48584 0.101411 
943.45874 0.060846 
977.973633 0.065976 
980.413513 0.15416 
982.413391 0.056523 
987.43927 0.352499 
988.441284 0.415699 
1004.867798 0.054245 
1010.70636 0.057479 
1011.686218 0.253827 
1014.526001 5.61209 
1015.529541 4.439572 
1016.540405 30.739094 
1017.544067 13.825458 
1018.545837 4.654984 
1019.547607 1.016443 
1026.522339 0.514192 
1030.522827 0.306525 
1032.536743 11.009759 
1033.539917 7.105378 
1034.551636 81.029633 
1035.55542 38.209869 
1035.679688 0.600378 
1036.558838 12.78783 
1037.561035 2.990379 
1038.565186 0.128032 
1046.548706 0.865035 
1047.553345 0.395003 
1048.546997 0.597619 
1049.552368 0.188178 
1050.545166 0.086724 
1052.501709 9.812157 
1053.505493 8.422704 
1054.515015 8.169229 
1055.523193 2.86397 
1056.535156 27.216267 
1057.537598 9.507113 
1058.542236 2.499589 
1059.547852 0.210272 
1062.545532 0.055539 
1064.56604 0.802734 
1065.567383 0.296762 
1067.559204 0.062186 
1070.515259 36.967163 
1070.721436 2.979221 
1071.516724 45.488834 
1071.716064 5.100357 
1071.943115 0.091168 
1072.512573 100.0 
1072.722534 2.614496 
1073.512695 87.972168 
1073.717773 2.272835 
1074.522095 30.63258 
1075.56189 0.278048 
1076.557373 0.270754 
1077.57019 0.072679 
1084.525757 0.560105 
1085.52124 0.058471 
1086.53186 1.003488 
1087.536865 0.436055 
1088.553833 0.254429 
1089.548096 0.133312 
1090.549316 0.213737 
1094.529785 0.059317 
1103.5177 0.068596 
1104.522827 0.113199 
1105.534668 0.065054 
1106.576904 1.217362 
1107.581787 0.786835 
1108.573242 0.814016 
1109.564453 0.08218 
1110.525757 0.618918 
1111.528076 0.455407 
1112.531494 3.501788 
1113.529541 1.941497 
1114.53894 13.103866 
END IONS

