BEGIN IONS
PEPMASS=270.5
CHARGE=1+
COMPOUNDNAME=Massbank:KO002243 Apramycin sulfate|Apramycin
LIBRARYQUALITY=3
SMILES=OC[C@@H](O1)[C@@H](N)[C@H](O)[C@@H](O)[C@H]1O[C@H](O2)[C@@H](NC)[C@@H](O)[C@@H](O3)[C@@H](C[C@@H](N)[C@@H](O[C@H]([C@@H](N)4)[C@H](O)[C@@H](O)[C@H](N)C4)3)2
INCHIKEY=XZNUGFQTQHRASN-UXNWEDNLSA-N
INCHI=1S/C21H41N5O11/c1-26-11-14(30)18-8(33-20(11)37-21-16(32)13(29)10(25)9(4-27)34-21)3-7(24)19(36-18)35-17-6(23)2-5(22)12(28)15(17)31/h5-21,26-32H,2-4,22-25H2,1H3/t5-,6+,7-,8-,9-,10-,11+,12+,13+,14-,15-,16-,17-,18+,19+,20+,21-/m1/s1
MSLEVEL=2
SOURCE_INSTRUMENT=ESI-LC-ESI-QQ
FILENAME=Massbank_ESI_positive_8_1_2014_peaks.mgf
SEQ=*..*
IONMODE=Positive
ORGANISM=MASSBANK
NAME=Massbank:KO002243 Apramycin sulfate|Apramycin [M+2H]++
PI=Putative Massbank Match
DATACOLLECTOR=Massbank
PUBMED=N/A
SUBMITUSER=mwang87
TAGS=
SPECTRUMID=CCMSLIB00000216977
SCANS=8045
80.3 24752.5 
84.1 103960.5 
89.1 39604.0 
90.1 198020.0 
95.9 133663.5 
97.0 59406.0 
98.0 24752.5 
99.0 39604.0 
113.8 29703.0 
115.9 84158.5 
126.2 267327.0 
126.6 19802.0 
144.2 806931.5 
145.1 113861.5 
150.0 29703.0 
161.0 183168.5 
162.2 9693079.0 
163.2 5222777.5 
164.2 148515.0 
168.3 24752.5 
180.1 539604.5 
180.8 44554.5 
181.5 54455.5 
182.4 9901.0 
190.1 470297.5 
191.7 34653.5 
199.3 247525.0 
200.2 143564.5 
201.4 153465.5 
211.1 118812.0 
216.2 34653.5 
217.2 4960401.0 
218.2 460396.5 
234.9 24752.5 
235.7 49505.0 
237.4 24752.5 
239.3 227723.0 
253.2 188119.0 
254.3 133663.5 
262.6 2702973.0 
271.0 82376320.0 
271.6 4504955.0 
280.1 44554.5 
289.6 79208.0 
313.3 24752.5 
323.3 69307.0 
324.0 19802.0 
326.7 113861.5 
331.1 34653.5 
344.4 797030.5 
345.1 74257.5 
361.3 544555.0 
362.4 2757428.5 
363.7 217822.0 
378.4 3886142.5 
379.5 7183175.5 
380.6 668317.5 
396.5 59406.0 
END IONS

