BEGIN IONS
PEPMASS=382.105
CHARGE=1+
COMPOUNDNAME=(4R,6S,8S,9Z,11E)-16-chloro-17,19-dihydroxy-4-methyl-3,7-dioxatricyclo[13.4.0.0?,?]nonadeca-1(15),9,11,16,18-pentaene-2,13-dione
LIBRARYQUALITY=3
SMILES=N/A
INCHIKEY=WYZWZEOGROVVHK-RPJJWQTDSA-N
INCHI=InChI=1S/C18H17ClO6/c1-9-6-15-14(25-15)5-3-2-4-10(20)7-11-16(18(23)24-9)12(21)8-13(22)17(11)19/h2-5,8-9,14-15,21-22H,6-7H2,1H3/b4-2+,5-3-/t9-,14+,15+/m1/s1
MSLEVEL=2
SOURCE_INSTRUMENT=N/A-ESI-QFT
FILENAME=library_mgf.mgf
SEQ=*..*
IONMODE=positive
ORGANISM=MONA
NAME=(4R,6S,8S,9Z,11E)-16-chloro-17,19-dihydroxy-4-methyl-3,7-dioxatricyclo[13.4.0.0?,?]nonadeca-1(15),9,11,16,18-pentaene-2,13-dione [M+NH4]+
PI=MoNA
DATACOLLECTOR=MoNA:VF-NPL-QEHF022115
PUBMED=N/A
SUBMITUSER=mwang87
TAGS=
SPECTRUMID=CCMSLIB00004713178
SCANS=22115
50.194336 0.147158 
51.66394 0.203343 
53.038948 5.65365 
53.323898 0.158509 
53.449612 0.242479 
53.679474 0.245153 
55.018169 6.89742 
55.054539 65.571686 
55.056068 0.872612 
55.56057 0.219915 
55.760536 0.192468 
55.863499 0.148171 
55.939323 0.199764 
56.057892 1.347853 
56.965103 0.174409 
57.033775 9.555291 
57.070213 2.43296 
57.411991 0.25081 
59.003521 0.244018 
59.049435 5.289547 
59.791073 0.20457 
60.052681 0.232304 
60.491264 0.239076 
61.010929 5.618673 
61.65337 0.175844 
62.068203 0.236707 
64.26712 0.226853 
64.332298 0.201146 
64.41436 0.150709 
65.038734 0.638985 
65.382477 0.231814 
65.483604 0.152883 
66.364212 0.179126 
66.55127 0.233935 
67.054352 12.321271 
67.60688 0.148961 
68.049614 2.744689 
68.997337 0.770527 
69.031624 0.306245 
69.033592 44.083012 
69.070023 2.262616 
69.30928 0.224901 
70.065125 0.207352 
70.204124 0.157231 
70.206345 0.147887 
71.012856 9.44724 
71.049232 10.705861 
71.085632 0.198782 
71.489723 0.179766 
72.040115 0.179988 
73.064857 5.910533 
74.173645 0.180199 
75.603935 0.221829 
77.039017 0.236326 
77.947334 0.217334 
77.992195 0.259713 
79.054245 16.046167 
79.703117 0.20164 
80.327873 0.186231 
81.033524 13.29098 
81.069893 17.146309 
81.712013 0.226494 
83.046608 0.281702 
83.049179 54.940525 
83.085518 0.194682 
84.052551 1.712248 
84.056824 0.237156 
85.064781 0.425322 
85.375114 0.226059 
87.044022 0.435762 
87.9021 0.215863 
89.059624 0.274376 
90.121063 0.195315 
91.054291 24.413637 
92.057549 0.831216 
92.060608 0.75946 
93.069923 27.471365 
93.072861 0.355649 
94.065193 2.483395 
94.073486 0.140773 
95.012787 1.923789 
95.049171 28.476883 
95.085503 2.152539 
96.210136 0.204299 
97.028503 0.280075 
97.064827 8.403113 
98.095772 0.152658 
99.044151 3.461035 
99.111931 0.192571 
99.19352 0.17079 
100.918976 0.148144 
101.059746 38.377323 
101.467125 0.174701 
102.063011 0.543418 
103.054214 3.870601 
105.044853 1.440608 
105.069931 2.438606 
105.230637 0.179496 
105.424706 0.177853 
106.446136 0.214343 
107.049156 2.026789 
107.085464 1.117575 
109.028488 0.364205 
109.064865 4.046673 
109.101105 0.236764 
109.18557 0.241404 
109.208893 0.16435 
111.02475 0.158787 
111.044357 0.287464 
111.080383 2.605948 
112.083717 0.208814 
112.298164 0.26561 
112.861259 0.226932 
113.645462 0.216239 
117.069969 2.273341 
119.049232 0.716911 
119.085625 8.661338 
119.127617 0.182028 
120.080826 1.824467 
120.091835 0.521597 
120.374832 0.169575 
121.028625 0.583868 
121.064857 26.164743 
122.072586 2.296959 
124.076714 0.244205 
125.059868 0.965703 
125.360916 0.214516 
131.049194 3.690152 
133.295013 0.216239 
133.49028 0.218239 
134.894043 0.213163 
134.956207 1.54724 
135.043915 0.434486 
135.080566 2.900575 
135.215195 0.239172 
136.991989 0.171485 
137.04184 0.219214 
137.059814 3.176177 
138.09137 1.013274 
142.337753 0.199494 
144.080719 0.155729 
145.005051 0.189232 
145.028091 0.517054 
145.064804 2.294424 
145.450806 0.235567 
146.974045 0.215713 
147.044098 1.00621 
147.080582 0.171892 
148.051483 0.73449 
148.97197 0.792955 
150.951096 3.378298 
150.963516 0.145425 
151.112122 0.167534 
153.110306 0.241858 
154.98938 7.491213 
155.27626 0.19016 
156.986618 2.107505 
157.00499 6.014565 
159.043961 1.637103 
159.080475 0.4591 
160.052124 1.6388 
161.059662 0.501788 
162.495895 0.148883 
163.038818 0.484034 
163.075943 0.170242 
166.982803 0.229844 
168.9617 0.837451 
169.005081 2.975012 
169.064941 1.614027 
171.062607 3.920074 
173.059753 5.520541 
173.078552 0.536452 
174.068008 0.690293 
175.039413 0.270471 
177.647217 0.198724 
180.101868 0.683944 
181.00499 37.755482 
182.008743 3.642673 
182.984604 1.917945 
183.002121 17.634022 
183.010727 0.291127 
183.021027 2.422613 
183.044678 0.887971 
184.005814 0.300319 
184.051865 0.68544 
184.999832 3.084753 
185.059738 5.266503 
187.039307 0.788334 
187.075195 0.304734 
188.082718 0.251459 
189.054764 2.353134 
192.041763 3.180328 
192.961868 1.085143 
195.020767 13.981702 
196.024246 0.469443 
197.0 100.0 
197.017059 1.220984 
197.059525 2.154995 
198.003876 8.153888 
198.06752 2.001872 
198.979568 8.044237 
198.996948 9.366828 
199.015808 4.071894 
199.038712 0.303204 
200.046448 0.534401 
200.084549 0.209906 
200.977081 1.619927 
200.994904 54.455601 
201.054703 5.36491 
201.998688 5.279975 
202.019119 0.22913 
202.062424 5.038128 
202.991974 19.426413 
203.995865 0.233172 
206.706085 0.230886 
207.020966 2.43514 
207.065323 0.246073 
209.000061 39.134743 
209.036316 6.498252 
209.891983 0.197483 
210.004364 2.749753 
210.884644 0.182569 
210.97934 63.223335 
210.99646 16.083208 
211.015411 3.196222 
211.074783 0.280227 
211.982788 7.15134 
212.000214 0.825306 
212.976151 25.763723 
212.994705 2.558381 
213.054626 7.279513 
213.729584 0.252387 
213.980225 0.778839 
214.062546 9.518376 
214.140823 5.240547 
214.149033 4.600826 
215.069 0.27569 
216.042099 0.476306 
216.077805 0.579122 
219.020752 5.477759 
219.065369 18.366236 
219.078339 1.268601 
220.024399 0.268091 
220.068695 3.009924 
221.000427 2.177174 
221.017578 0.778382 
221.036636 1.128175 
222.007233 0.636203 
222.898651 0.982045 
222.996811 0.635141 
223.015732 25.619354 
223.052185 5.008635 
223.074722 0.235274 
223.132217 0.228006 
223.929062 0.263034 
224.019516 0.909797 
224.994843 31.949228 
225.012802 4.719227 
225.072769 0.468452 
226.000122 1.695811 
226.062469 1.13733 
226.991913 0.955428 
227.010605 28.510164 
228.01413 1.443828 
228.041 0.614798 
228.990082 0.421051 
229.007874 0.817561 
229.049438 2.972574 
230.057541 7.931518 
230.889999 0.201712 
231.020859 3.692196 
231.063171 0.193827 
232.883804 0.201165 
233.036346 4.303991 
233.733246 0.202223 
234.883881 0.217025 
235.015366 2.089095 
235.051163 0.214074 
235.075287 0.826534 
235.156082 0.175861 
236.995071 4.611913 
237.031418 13.481123 
237.091125 0.678252 
238.09668 0.283585 
238.992493 1.08709 
239.010559 14.919608 
239.027649 1.952213 
239.069946 0.29069 
239.901794 0.238716 
240.015198 0.450265 
240.07576 0.192306 
240.909439 3.132767 
241.007553 1.737956 
241.047424 11.275534 
242.057571 3.19632 
245.115112 0.227401 
245.782227 0.246847 
247.015533 9.731009 
248.019745 0.825837 
248.083954 0.248831 
248.937073 0.238094 
248.995132 10.335928 
249.012314 2.097249 
249.031204 5.824449 
249.998611 0.420243 
250.893784 1.823445 
250.992126 2.665027 
251.010452 7.360759 
251.027603 0.239927 
251.046906 10.28784 
252.894638 1.774419 
253.00737 0.323012 
253.087158 0.519387 
253.90155 0.227485 
255.005692 6.005386 
255.918152 1.668737 
258.052338 0.406647 
259.015778 1.064696 
260.023407 0.505148 
261.031006 2.018056 
262.038239 0.191495 
263.010925 6.165893 
263.901367 2.100621 
264.078247 0.887673 
264.908661 0.483257 
264.989899 98.644852 
265.025085 3.528685 
265.085388 0.440714 
265.993561 15.42507 
266.092896 0.696358 
266.986481 49.520145 
267.022736 0.238581 
267.99057 3.97616 
270.256561 0.251431 
271.123749 0.272902 
274.894226 0.937606 
274.999268 13.0088 
275.027039 0.232005 
275.046906 0.302553 
276.00412 0.398995 
277.008789 0.409351 
277.026093 11.373098 
277.902618 0.424252 
278.030823 0.431283 
278.925415 0.223127 
279.024506 0.478303 
279.041901 4.545157 
279.917725 3.086975 
280.327301 0.185899 
281.002869 0.231908 
281.036346 0.209942 
281.912018 25.267893 
282.915894 0.27958 
287.010193 0.211112 
291.023224 0.245866 
292.07312 0.224508 
293.010101 6.806773 
295.018494 0.280558 
297.928406 2.856086 
299.922821 0.206374 
304.037689 0.362081 
305.020966 3.631296 
311.021545 1.865718 
322.91394 0.255179 
323.097351 0.293758 
324.981445 0.228673 
325.790619 0.245537 
333.907867 0.302692 
361.527069 0.174175 
371.370819 0.167093 
381.217438 11.02477 
381.259369 1.862917 
382.220215 2.734537 
388.597137 0.159963 
404.876831 0.189489 
408.975616 0.242386 
END IONS

