BEGIN IONS
PEPMASS=163.0
CHARGE=1+
COMPOUNDNAME=Massbank:KO002713 2-Deoxystreptamine
LIBRARYQUALITY=3
SMILES=N[C@H](C1)[C@H](O)[C@@H](O)[C@H](O)[C@@H](N)1
INCHIKEY=DTFAJAKTSMLKAT-JDCCYXBGSA-N
INCHI=1S/C6H14N2O3/c7-2-1-3(8)5(10)6(11)4(2)9/h2-6,9-11H,1,7-8H2/t2-,3+,4+,5-,6-
MSLEVEL=2
SOURCE_INSTRUMENT=ESI-LC-ESI-QQ
FILENAME=Massbank_ESI_positive_8_1_2014_peaks.mgf
SEQ=*..*
IONMODE=Positive
ORGANISM=MASSBANK
NAME=Massbank:KO002713 2-Deoxystreptamine [M+H]+
PI=Putative Massbank Match
DATACOLLECTOR=Massbank
PUBMED=N/A
SUBMITUSER=mwang87
TAGS=
SPECTRUMID=CCMSLIB00000217927
SCANS=8515
56.3 59406.0 
56.9 49505.0 
57.2 69307.0 
60.1 64356.5 
61.7 14851.5 
67.1 74257.5 
67.9 574258.0 
69.0 94059.5 
72.2 79208.0 
74.0 34653.5 
74.3 19802.0 
77.2 69307.0 
80.2 44554.5 
82.1 227723.0 
84.3 772278.0 
85.3 297030.0 
88.6 29703.0 
91.2 153465.5 
91.9 118812.0 
95.0 19802.0 
99.8 29703.0 
101.2 668317.5 
102.2 346535.0 
106.1 34653.5 
109.0 59406.0 
110.4 826733.5 
114.2 193069.5 
117.2 118812.0 
118.4 74257.5 
127.1 84158.5 
128.1 44703015.0 
130.4 64356.5 
131.8 39604.0 
146.0 39306970.0 
162.9 69307.0 
END IONS

