BEGIN IONS
PEPMASS=926.511
CHARGE=1+
COMPOUNDNAME=MoNA:688757 Nystatin
LIBRARYQUALITY=3
SMILES=N/A
INCHIKEY=VQOXZBDYSJBXMA-NQTDYLQESA-N
INCHI=InChI=1S/C47H75NO17/c1-27-17-15-13-11-9-7-5-6-8-10-12-14-16-18-34(64-46-44(58)41(48)43(57)30(4)63-46)24-38-40(45(59)60)37(54)26-47(61,65-38)25-36(53)35(52)20-19-31(49)21-32(50)22-33(51)23-39(55)62-29(3)28(2)42(27)56/h5-6,8,10-18,27-38,40-44,46,49-54,56-58,61H,7,9,19-26,48H2,1-4H3,(H,59,60)/b6-5+,10-8+,13-11+,14-12+,17-15+,18-16+/t27-,28-,29-,30+,31+,32+,33+,34-,35+,36+,37-,38-,40+,41-,42+,43+,44-,46-,47+/m0/s1
MSLEVEL=2
SOURCE_INSTRUMENT=LC-ESI-QFT-LC-ESI-QFT
FILENAME=output_mgf.mgf
SEQ=*..*
IONMODE=
ORGANISM=MONA
NAME=MoNA:688757 Nystatin [M+H]+
PI=MoNA
DATACOLLECTOR=MoNA
PUBMED=N/A
SUBMITUSER=mwang87
TAGS=
SPECTRUMID=CCMSLIB00000566568
SCANS=3820
128.0621 58.948358 
129.0699 100.0 
130.0732 4.248336 
130.0778 9.079193 
131.0492 22.114732 
131.0856 66.70792 
132.057 1.783874 
132.0889 2.31933 
133.0283 2.73772 
133.0648 42.348483 
133.1012 24.923222 
134.068 0.826703 
134.0726 0.502614 
134.1045 0.804548 
135.0441 14.427582 
135.0805 14.501682 
135.1169 7.835947 
137.0598 15.986725 
137.0962 3.598392 
139.039 7.310899 
139.0754 4.977524 
141.0548 4.146344 
141.0699 50.415321 
142.0733 1.92393 
142.0779 17.822335 
143.0493 3.210742 
143.0857 57.074859 
144.0571 3.912195 
144.0889 1.44757 
144.0935 4.598239 
145.0649 32.794234 
145.1013 36.636348 
146.0679 1.107372 
146.0731 0.868181 
146.1044 0.973402 
146.1093 0.590063 
147.0442 20.045226 
147.0805 34.934697 
147.117 5.939879 
148.0473 0.876236 
148.0837 2.021339 
149.0234 2.24458 
149.0598 16.846004 
149.0965 5.174518 
151.0391 20.049007 
151.0755 13.368147 
151.1117 2.023906 
152.0621 12.429669 
153.0548 3.276684 
153.07 31.279415 
154.0779 18.842705 
155.0605 6.713234 
155.0856 61.183155 
156.0571 0.569228 
156.0886 2.142264 
156.0941 6.00708 
157.0649 22.99625 
157.1013 28.704566 
158.0725 2.452675 
158.1096 1.164521 
159.0442 6.28952 
159.0805 16.596859 
159.1169 13.904723 
161.0598 11.719317 
161.0962 8.096409 
161.1326 6.328112 
162.0628 0.664452 
163.0391 5.142902 
163.0753 10.298091 
163.1116 2.264571 
165.0549 8.103544 
165.0699 37.598174 
165.0911 6.557947 
166.078 21.302973 
167.0705 7.837251 
167.0857 45.733556 
168.0568 1.882149 
168.094 9.614033 
169.0649 9.838015 
169.1012 36.838216 
170.0726 2.029916 
170.109 2.491291 
171.0442 1.774642 
171.0805 24.800877 
171.1169 15.125509 
173.0598 10.866656 
173.0962 14.542438 
173.1326 4.31648 
175.0391 7.418657 
175.0754 18.978469 
176.0614 0.631846 
176.0785 0.675834 
177.0547 5.38159 
177.0699 1.855775 
177.091 2.270019 
177.1274 0.456328 
178.0777 22.378171 
179.0701 3.153254 
179.0857 40.331885 
180.0941 8.572011 
181.0649 11.656404 
181.1013 39.620917 
182.0729 5.33975 
183.0807 15.533656 
183.117 19.655333 
184.0889 1.243449 
184.1244 2.08436 
185.0599 8.037223 
185.0962 9.788461 
185.1326 7.300456 
187.0756 7.417973 
187.1119 4.398762 
187.1483 0.711171 
189.055 3.471249 
189.0698 4.164837 
189.0912 10.831259 
190.0777 6.76972 
190.0945 0.546916 
191.0709 6.030955 
191.0857 18.374493 
191.1065 4.832321 
192.0938 11.819605 
193.1013 27.786901 
194.073 3.490916 
194.0902 0.367982 
194.1098 5.028298 
195.0806 15.725016 
195.117 19.154633 
196.088 2.647965 
196.125 1.767015 
197.0597 4.982998 
197.0962 16.888504 
197.1325 10.310393 
199.0755 11.791935 
199.1117 4.035919 
199.1479 3.006226 
201.0547 3.73814 
201.0911 7.503084 
201.1273 0.562717 
202.0779 9.976432 
203.0711 3.644604 
203.0856 16.900705 
203.1064 1.039617 
204.0937 12.318565 
205.1015 25.554203 
206.0724 2.360583 
206.1097 7.21904 
207.0807 8.566904 
207.1014 2.681599 
207.117 17.688746 
208.0877 2.447693 
208.124 2.667994 
209.0594 2.347673 
209.0805 1.791266 
209.0963 12.013353 
209.1326 9.186898 
211.0754 5.870202 
211.0966 0.462773 
211.1118 6.950664 
211.1484 4.353249 
212.0827 0.393902 
213.0549 0.597465 
213.091 4.866625 
213.1274 1.128705 
213.164 0.455679 
215.0701 2.942682 
215.0856 10.218452 
215.1068 5.41501 
216.0937 7.818036 
217.0861 3.891893 
217.1014 18.678069 
218.0725 2.228968 
218.1095 5.039101 
219.0653 1.105487 
219.0807 6.031117 
219.1016 2.553928 
219.117 19.106762 
220.0877 3.227584 
220.1241 3.20739 
221.0963 12.558108 
221.1327 13.034256 
223.0757 5.550514 
223.1119 7.89021 
223.1484 6.71134 
224.1525 0.483259 
225.0911 8.331575 
225.1272 2.120126 
225.1635 1.969573 
226.0775 0.869263 
227.0702 1.128978 
227.0852 2.371845 
227.1065 3.138043 
228.0934 4.686561 
229.0859 1.890404 
229.101 11.49111 
230.1096 5.311204 
231.0807 3.739839 
231.1171 12.970259 
232.0882 2.004781 
232.1254 4.047171 
233.0962 7.051173 
233.1172 2.105447 
233.1323 10.790222 
234.0678 0.760845 
234.1034 2.010431 
235.0752 2.970155 
235.112 9.238505 
235.1484 4.971203 
236.1553 0.543246 
237.0912 5.697029 
237.1271 3.10812 
237.1635 1.139453 
238.096 0.464144 
239.07 0.526947 
239.0853 2.947546 
239.1069 5.000152 
239.1428 0.683642 
239.1789 0.667232 
240.0932 2.505591 
241.0857 3.071949 
241.1009 7.482184 
241.1219 1.091752 
242.1095 5.792613 
243.0806 1.035447 
243.1014 4.437172 
243.1168 10.519247 
244.088 1.832936 
244.1061 0.479037 
244.1239 3.291314 
245.0964 5.732789 
245.1199 0.431996 
245.1326 8.466503 
246.1039 2.689675 
246.1408 3.249839 
247.0757 2.122814 
247.1118 6.611499 
247.1482 5.379916 
248.1186 1.056933 
248.1564 0.672915 
249.0913 3.833667 
249.1276 5.314666 
249.1634 2.003493 
250.1342 0.633474 
251.1063 3.039094 
251.1423 1.888692 
251.1793 1.047304 
252.0931 2.273949 
253.101 3.403968 
253.122 2.446021 
254.1093 3.365217 
255.1027 1.343069 
255.1166 6.469366 
255.1374 0.512871 
256.1246 4.19291 
257.0958 2.697278 
257.1327 8.181479 
258.1033 0.778366 
258.1395 2.80839 
259.112 5.587329 
259.148 4.697899 
260.1189 1.107632 
260.1552 0.659132 
261.0913 1.376976 
261.1123 2.196298 
261.1273 4.524656 
261.1638 1.912129 
263.1064 2.849535 
263.1428 2.636058 
263.1797 0.879289 
264.1132 0.423597 
265.0865 0.585389 
265.1006 0.96469 
265.1222 2.199684 
266.1093 1.065123 
267.1014 1.921314 
267.1168 4.653116 
267.1387 0.493824 
268.1243 2.448967 
269.0953 1.078472 
269.1184 0.900825 
269.1325 4.702378 
270.1034 1.033345 
270.1406 2.020679 
271.0966 0.90331 
271.1114 3.078527 
271.1486 4.448132 
272.1191 1.142569 
273.0911 0.792829 
273.1272 4.253559 
273.1634 2.820692 
274.1352 0.870872 
275.1065 1.795772 
275.1427 0.960316 
275.1797 0.698302 
277.1223 3.069252 
278.1081 0.51101 
279.1021 0.768318 
279.1174 2.545275 
279.1376 1.141782 
280.1243 0.953376 
281.1183 0.858476 
281.1323 4.333588 
282.1399 1.046712 
283.1117 0.739477 
283.1483 3.61999 
284.1187 0.446669 
285.1273 2.321201 
285.1629 2.407373 
287.1066 0.92332 
287.1427 2.761936 
289.1222 1.867522 
289.1586 2.189976 
291.1375 1.077346 
293.1327 2.277154 
293.1526 0.46785 
294.1401 1.843038 
295.1118 0.923675 
295.1483 2.001048 
297.1634 0.55866 
298.1346 0.483054 
299.1426 1.898821 
299.1791 0.582367 
301.1225 1.066579 
301.1581 1.161562 
303.1374 1.080652 
305.1335 0.930499 
305.1524 0.603557 
307.1322 0.684218 
307.148 0.66419 
309.1268 0.625016 
309.1641 0.610259 
311.143 1.107759 
311.1784 0.878946 
313.1588 0.862149 
315.1385 0.571803 
315.175 0.657176 
317.1534 0.534704 
319.1326 0.597979 
321.1479 0.711317 
321.1648 0.622874 
325.1594 0.628289 
327.1383 0.825091 
329.1538 1.08126 
339.1737 0.453223 
341.1547 0.51491 
349.1267 0.630504 
END IONS

