BEGIN IONS
PEPMASS=271.061
CHARGE=1+
COMPOUNDNAME=Naringenin
LIBRARYQUALITY=3
SMILES=N/A
INCHIKEY=FTVWIRXFELQLPI-UHFFFAOYSA-N
INCHI=InChI=1S/C15H12O5/c16-9-3-1-8(2-4-9)13-7-12(19)15-11(18)5-10(17)6-14(15)20-13/h1-6,13,16-18H,7H2
MSLEVEL=2
SOURCE_INSTRUMENT=N/A-ESI-QFT
FILENAME=library_mgf.mgf
SEQ=*..*
IONMODE=negative
ORGANISM=MONA
NAME=Naringenin [M-H]-
PI=MoNA
DATACOLLECTOR=MoNA:VF-NPL-QEHF013810
PUBMED=N/A
SUBMITUSER=mwang87
TAGS=
SPECTRUMID=CCMSLIB00004704873
SCANS=13810
50.397324 0.006623 
50.836819 0.008771 
50.871037 0.009404 
51.114033 0.008558 
51.558384 0.009627 
51.690845 0.009364 
52.295044 0.011949 
52.333218 0.008516 
52.52602 0.008294 
52.555237 0.009325 
52.888008 0.007443 
53.30257 0.007779 
53.346916 0.008503 
53.47752 0.010509 
53.505424 0.008838 
53.994598 0.010156 
54.106762 0.007352 
54.213989 0.007655 
54.331627 0.008153 
54.433247 0.008941 
54.776199 0.00619 
55.054157 0.008736 
55.204926 0.008628 
55.772762 0.007176 
55.774601 0.006089 
55.916794 0.009142 
55.979927 0.010288 
57.298203 0.008137 
57.710213 0.009882 
60.763931 0.010736 
61.986729 0.010654 
62.264816 0.00744 
62.469482 0.007224 
63.022667 1.867708 
63.033798 0.010948 
63.062607 0.009084 
63.3013 0.008447 
63.878433 0.008489 
64.757042 0.007407 
65.001923 2.938868 
65.275208 0.007886 
65.300758 0.009176 
65.377548 0.009601 
65.381348 0.009548 
66.005447 0.010694 
66.466103 0.009367 
66.753098 0.009089 
67.583786 0.008563 
68.08799 0.010284 
68.351738 0.011095 
68.536659 0.008208 
69.144524 0.010122 
70.374886 0.009327 
70.484512 0.008506 
70.840309 0.0142 
71.352684 0.008983 
71.38736 0.006724 
71.489258 0.009651 
72.834511 0.010513 
72.943123 0.00947 
72.963837 0.00892 
73.597885 0.010353 
76.439552 0.009254 
77.714233 0.008776 
77.740967 0.009685 
78.95517 0.008684 
81.876778 0.007714 
82.120087 0.009645 
82.392059 0.010537 
83.01252 3.622391 
83.162262 0.009277 
83.495155 0.007602 
83.790894 0.008085 
84.015892 0.030343 
84.108398 0.007845 
84.250389 0.009237 
84.943993 0.008742 
86.060783 0.008459 
86.172318 0.010761 
86.769814 0.009712 
86.93412 0.009346 
87.801361 0.00869 
88.634735 0.011993 
89.707329 0.005872 
90.318413 0.006283 
90.325783 0.010066 
90.671051 0.009371 
92.517906 0.007676 
92.566544 0.010401 
93.03331 13.804864 
93.036552 0.15897 
93.998703 0.00947 
94.036644 0.76243 
94.392014 0.006709 
95.517006 0.009139 
96.140198 0.00714 
96.162292 0.0104 
96.409912 0.00849 
96.78759 0.00969 
97.00634 0.008315 
99.200867 0.011103 
100.718254 0.010105 
101.776955 0.009765 
104.59613 0.007376 
105.014587 0.012696 
106.210106 0.006791 
106.371246 0.010299 
107.012627 13.125814 
107.934402 0.010292 
107.94175 0.011489 
108.015961 0.761703 
108.043549 0.012287 
108.748703 0.009009 
109.302391 0.009824 
110.054726 0.011242 
110.130951 0.006687 
110.304466 0.010367 
111.578186 0.007801 
111.931198 0.010446 
112.763458 0.010107 
113.493431 0.011298 
114.546005 0.010381 
118.201851 0.009954 
118.605225 0.009207 
119.048996 42.68187 
119.56086 0.01139 
120.052361 3.279226 
120.118256 0.008808 
121.028282 0.326903 
122.736435 0.010131 
123.18045 0.010071 
123.381882 0.011473 
124.341141 0.010775 
125.023232 1.397267 
125.049286 0.008411 
126.495644 0.009961 
127.867371 0.012152 
128.191284 0.010304 
129.363464 0.009163 
129.680939 0.008538 
131.160126 0.009185 
131.643082 0.010723 
131.77449 0.008699 
135.00737 0.006573 
135.0439 0.027412 
135.866501 0.010728 
136.894577 0.009559 
137.023087 0.009413 
138.335602 0.008739 
138.43985 0.011187 
139.569931 0.008304 
140.791656 0.009558 
140.79808 0.009605 
143.049332 0.043396 
145.028381 1.059286 
146.031967 0.010941 
149.023361 0.172517 
149.620987 0.00726 
149.855072 0.009184 
151.00264 100.0 
151.252472 0.010128 
152.005951 6.870996 
152.016434 0.012458 
152.193878 0.007262 
153.007111 0.15455 
153.354218 0.010141 
153.975342 0.009752 
154.064209 0.009203 
158.404587 0.009304 
158.883133 0.011277 
158.929718 0.01054 
159.871628 0.009631 
161.059723 0.18486 
161.562515 0.009563 
165.018433 3.883569 
165.814819 0.009064 
166.021896 0.21493 
169.013412 2.082169 
169.048676 0.010683 
170.016922 0.025086 
174.638214 0.009144 
175.583862 0.010628 
177.018524 12.168645 
178.021973 1.130867 
182.408264 0.012238 
185.060074 0.615261 
187.039368 0.393353 
187.950226 0.009752 
190.062195 0.009784 
194.19397 0.007519 
194.990646 0.011243 
195.275162 0.011616 
195.612839 0.010997 
198.309082 0.012874 
198.378052 0.009787 
199.075699 0.014592 
203.070328 0.076485 
208.524719 0.010512 
211.298477 0.011064 
212.157181 0.010789 
215.874664 0.142225 
215.886383 0.20473 
215.901535 0.015866 
223.610519 0.010759 
224.751495 0.00935 
225.037094 0.010005 
227.07106 1.685313 
227.150513 0.012461 
228.07428 0.146042 
229.05014 0.328244 
237.832047 0.008897 
249.052383 0.011674 
251.345673 0.009607 
253.050369 0.501431 
254.492874 0.009369 
269.045868 0.159749 
269.803162 0.008276 
270.048553 0.027629 
271.061188 40.333122 
272.064728 6.529013 
273.067047 0.246036 
END IONS

