BEGIN IONS
PEPMASS=497.266
CHARGE=1+
COMPOUNDNAME=(3E,5S,7R,8R,11E,13S,15R,16R)-3,5,7,11,13,15-hexamethyl-8,16-bis(1,3-oxazol-5-ylmethyl)-1,9-dioxacyclohexadeca-3,11-diene-2,10-dione
LIBRARYQUALITY=3
SMILES=N/A
INCHIKEY=LAJRJVDLKYGLOO-HLRFMGGZSA-N
INCHI=InChI=1S/C28H38N2O6/c1-17-7-19(3)25(11-23-13-29-15-33-23)35-28(32)22(6)10-18(2)8-20(4)26(12-24-14-30-16-34-24)36-27(31)21(5)9-17/h9-10,13-20,25-26H,7-8,11-12H2,1-6H3/b21-9+,22-10+/t17-,18-,19+,20+,25+,26+/m0/s1
MSLEVEL=2
SOURCE_INSTRUMENT=N/A-ESI-QFT
FILENAME=library_mgf.mgf
SEQ=*..*
IONMODE=negative
ORGANISM=MONA
NAME=(3E,5S,7R,8R,11E,13S,15R,16R)-3,5,7,11,13,15-hexamethyl-8,16-bis(1,3-oxazol-5-ylmethyl)-1,9-dioxacyclohexadeca-3,11-diene-2,10-dione [M-H]-
PI=MoNA
DATACOLLECTOR=MoNA:VF-NPL-QEHF019222
PUBMED=N/A
SUBMITUSER=mwang87
TAGS=
SPECTRUMID=CCMSLIB00004710285
SCANS=19222
50.020905 0.059561 
50.071705 0.052953 
50.14996 0.051009 
51.262398 0.050809 
51.921688 0.053276 
52.547764 0.046902 
52.722225 0.047921 
52.956886 0.053642 
53.122135 0.057492 
53.258163 0.050153 
53.457352 0.053398 
54.426182 0.044174 
55.017525 1.813832 
55.050415 0.053575 
55.590668 0.047694 
56.444035 0.05525 
57.033123 3.642106 
57.974319 0.06776 
58.572086 0.055985 
58.896935 0.057432 
58.939846 0.050062 
59.012394 8.257369 
59.203854 0.05722 
59.287785 0.049873 
59.361328 0.062188 
59.424271 0.049418 
60.514473 0.055172 
60.739048 0.051476 
61.195271 0.062852 
61.986893 100.0 
62.496922 0.061002 
62.501743 0.055845 
63.026073 0.054931 
63.456608 0.057179 
63.961014 0.267592 
65.002403 0.052681 
65.092224 0.051006 
65.572525 0.049653 
65.662735 0.056209 
66.407959 0.050789 
66.903748 0.06175 
68.711601 0.054024 
69.033165 0.44713 
70.408897 0.046621 
70.702919 0.051872 
71.012383 3.59397 
71.048798 6.069424 
71.292519 0.061461 
71.350769 0.056001 
71.409866 0.054626 
72.052177 0.082834 
72.215401 0.051191 
72.991646 0.587382 
73.028053 8.628612 
73.361893 0.047775 
74.031364 0.066187 
74.520767 0.047464 
75.007317 0.286437 
75.043686 0.597669 
75.193611 0.049939 
76.407715 0.057694 
77.227173 0.054862 
77.293739 0.06016 
78.957603 4.468968 
78.984428 0.874148 
79.95591 11.556131 
80.721497 0.057772 
80.805687 0.056055 
80.963737 2.290292 
81.033089 0.196183 
81.95163 0.069771 
82.028404 0.806041 
83.048805 2.836499 
83.455009 0.068501 
85.028023 1.627991 
85.064438 13.55846 
85.504578 0.050207 
85.806396 0.051302 
86.023094 0.058071 
86.067825 0.661502 
86.62944 0.050998 
87.007317 3.664674 
87.043701 5.689727 
87.31765 0.057336 
89.022957 3.444133 
89.155113 0.063087 
89.633606 0.062414 
90.076996 0.052322 
90.36364 0.054964 
90.409325 0.064756 
91.510864 0.054933 
92.58329 0.0582 
92.94426 0.056584 
94.962517 0.062357 
94.979385 82.416161 
95.045532 0.053582 
95.048798 3.002363 
95.628441 0.055796 
95.933136 0.118175 
95.978935 0.115552 
95.982727 0.310467 
96.178429 0.053627 
96.958672 21.484167 
96.968002 0.063346 
96.975174 3.986598 
96.983986 0.115695 
97.028091 0.534268 
97.064476 1.515118 
97.112206 0.054049 
98.02346 0.067231 
98.225418 0.063907 
98.954437 0.262795 
99.007355 0.151393 
99.043724 11.659725 
99.080116 1.547532 
99.226997 0.056317 
99.42115 0.055906 
99.531876 0.052475 
99.8862 0.061139 
99.924385 0.06946 
100.398613 0.053643 
101.022942 0.220128 
101.05928 0.141373 
102.244255 0.049965 
102.46772 0.058108 
102.633194 0.063189 
104.523422 0.048605 
104.978165 0.054733 
106.724541 0.054548 
107.048805 3.427209 
108.994766 0.054654 
109.028183 0.195982 
109.064514 5.322065 
110.023376 0.076147 
110.956619 10.103406 
110.974388 8.687878 
110.983833 0.066796 
111.043762 4.142257 
111.080093 2.687583 
111.339165 0.047526 
111.353996 0.071267 
111.709808 0.053266 
112.95237 0.24865 
112.984169 0.320146 
113.023087 0.381105 
113.05941 9.641714 
113.522995 0.059596 
113.674438 0.053436 
114.655342 0.058583 
115.038612 1.085976 
115.240891 0.051189 
115.42588 0.058838 
117.033081 0.06355 
117.0439 0.064803 
117.054344 5.302476 
118.057632 0.665014 
119.048828 0.419725 
121.028152 2.63762 
121.064484 1.398151 
122.806953 0.05761 
123.043503 0.058715 
123.056671 0.062465 
123.080193 70.172844 
123.910568 0.055066 
124.038933 0.655434 
124.083397 9.346836 
124.585625 0.059403 
124.814484 0.072402 
125.02301 0.66313 
125.059471 0.709222 
125.095825 22.748848 
125.917198 0.063586 
126.09922 2.042949 
126.415916 0.053625 
127.038551 0.167246 
127.075104 0.552063 
127.122505 0.049413 
128.034042 0.194059 
128.10704 0.054767 
128.412704 0.053903 
129.054306 0.734801 
129.707611 0.067755 
130.086609 0.056839 
131.070038 3.096987 
132.073318 0.057614 
133.065659 0.066762 
133.101028 0.222267 
135.080215 1.572792 
136.051682 0.326 
137.022842 0.196307 
137.059479 6.225281 
137.095901 0.620311 
138.018311 1.250131 
138.054871 0.192684 
138.368912 0.059774 
138.705978 0.057783 
139.026215 0.161547 
139.038773 1.205177 
139.075134 0.984034 
139.111496 1.848568 
139.491852 0.074145 
140.034119 0.133262 
141.054214 0.069857 
141.090851 0.814946 
142.979553 0.784508 
143.08519 0.074816 
143.613998 0.058574 
145.061829 0.051744 
145.581863 0.052739 
147.043884 0.151119 
147.080261 0.15575 
149.059555 0.799578 
149.095871 1.585774 
149.826614 0.048428 
150.090866 0.065709 
151.038834 7.9671 
151.075165 10.962657 
151.111603 0.326016 
152.034042 2.445891 
152.041245 0.267431 
152.070938 0.077175 
152.078415 0.431054 
152.994553 8.833432 
153.041931 2.198607 
153.054413 4.07282 
153.090897 0.414902 
154.013321 0.060436 
154.04982 2.191127 
154.056747 0.06163 
154.589874 0.067037 
154.631592 0.056406 
155.070129 2.9093 
155.106613 0.127401 
155.720581 0.082511 
155.973816 0.073231 
156.68808 0.057332 
157.889008 0.062871 
158.155624 0.053684 
159.951874 0.053333 
161.034409 8.273208 
161.095856 0.225667 
162.037857 2.757179 
163.111588 3.582734 
163.49852 0.076649 
163.561874 0.058576 
163.904922 0.069882 
164.083221 0.175837 
164.115173 0.118961 
165.054199 0.161856 
165.079544 0.074864 
165.091278 0.070497 
165.127243 2.976209 
165.299622 0.0524 
166.013763 0.069641 
166.049789 1.221402 
166.062378 1.973253 
166.130966 0.066267 
167.021164 3.200106 
167.058243 5.469993 
167.070236 35.629486 
167.106598 0.413142 
168.029083 11.239178 
168.065353 4.119051 
168.073654 6.653225 
169.075012 0.061586 
169.085983 0.329301 
169.393784 0.060317 
171.005173 0.514483 
171.081192 0.055598 
171.101349 1.321851 
171.942139 0.055888 
171.982391 2.149459 
173.070969 0.109535 
173.096405 0.069554 
173.108994 0.051163 
174.074265 0.081861 
175.042389 0.070397 
175.111755 0.234058 
177.091019 2.24293 
177.127121 0.071322 
177.252426 0.053531 
178.049438 0.071355 
179.001129 0.053756 
179.106613 33.626125 
179.142426 0.082933 
180.021378 0.064267 
180.029037 4.095416 
180.065628 0.951924 
180.110001 9.43985 
181.037323 6.828139 
181.049805 0.29012 
181.113724 0.150307 
181.122391 9.999688 
181.314194 0.064146 
182.045013 13.326059 
182.081116 4.677211 
182.125809 0.955579 
183.052994 9.373939 
183.10173 1.17561 
183.137924 14.751704 
184.060104 0.05761 
185.11734 0.221149 
187.096649 2.554591 
187.111893 3.602162 
188.115417 0.280226 
189.091415 0.547068 
190.403503 0.053055 
190.634048 0.053633 
191.081543 1.10555 
191.10672 0.540735 
192.065857 0.138873 
192.085007 0.264539 
193.037277 0.076962 
193.086502 0.134935 
193.122467 1.437754 
193.910187 0.055256 
193.975327 0.053526 
194.044815 1.686765 
194.054855 0.06116 
194.080795 0.073411 
195.052948 7.274117 
195.065323 12.982164 
195.100327 0.058173 
195.137878 0.434734 
196.060684 13.951296 
196.638779 0.064956 
196.688263 0.051238 
197.06427 0.45767 
197.117096 0.123183 
197.190216 0.789603 
198.040222 0.080146 
198.076279 20.831167 
199.079559 1.375146 
201.112335 0.697275 
201.127823 0.162968 
203.106445 0.135782 
203.143341 1.144105 
203.154022 0.068299 
205.073868 1.000133 
205.085739 0.32403 
205.12204 0.126275 
205.158981 0.776568 
206.045181 0.150233 
206.080841 0.245427 
207.101868 0.465672 
208.060547 0.223656 
209.117569 3.489698 
210.076447 9.099836 
211.04776 0.458982 
211.079773 0.630691 
211.096603 0.205767 
211.133011 1.404461 
212.055939 0.057495 
213.112442 0.280985 
213.148819 2.100203 
213.300629 4.994431 
213.311798 2.40659 
215.106995 2.190431 
215.1436 0.061469 
216.037003 0.055042 
216.111023 0.250728 
217.086258 0.536243 
219.07692 1.514799 
219.088196 0.13393 
219.138504 0.84932 
220.061081 0.669774 
220.080231 0.798291 
220.096878 0.535076 
220.145279 0.188971 
221.06842 2.029348 
221.104965 0.392708 
222.076508 0.135749 
223.08429 0.141737 
223.169922 0.144602 
223.205994 0.326573 
224.056534 0.060452 
225.112534 3.456242 
225.22171 4.279827 
226.071304 0.504584 
227.031876 0.47342 
227.128433 0.060322 
228.265045 0.058365 
228.433823 0.060388 
229.1073 0.095371 
231.10144 0.473296 
231.13768 0.284449 
231.17514 0.438448 
232.179016 0.056651 
234.076172 0.056636 
235.084427 3.66863 
235.133575 0.144196 
236.092148 2.12455 
236.128159 0.434888 
238.108185 0.145858 
239.164642 0.437956 
243.123276 0.125201 
243.175415 0.062122 
245.042435 2.852771 
245.056335 2.256772 
245.117416 0.311671 
245.190445 4.030225 
245.311142 0.05174 
246.059799 1.287619 
246.194 0.801258 
247.095154 4.872484 
247.108856 0.127685 
248.079956 3.66605 
248.128357 0.144999 
248.581192 0.175733 
248.900589 0.069332 
249.077393 0.122095 
250.108109 3.814985 
251.201004 0.133701 
252.088501 0.069039 
252.121902 0.06851 
254.101868 0.071347 
255.23259 4.003657 
255.60614 0.054948 
256.23584 0.234878 
257.211853 0.246561 
260.183685 0.066488 
261.148651 0.060316 
267.232727 1.223192 
268.118866 2.060132 
268.23645 0.272695 
269.211884 10.926464 
270.110992 0.074524 
270.215057 1.102328 
272.243256 0.04981 
274.598206 0.062107 
275.071411 0.070846 
275.16507 9.364961 
276.078796 0.144654 
276.168304 4.687207 
280.939453 0.065662 
283.263855 1.300516 
290.31958 0.068984 
293.212128 0.072086 
301.21698 0.603961 
302.116333 0.060767 
304.223572 0.07676 
307.117645 0.066454 
311.168945 0.078645 
314.305847 0.057418 
316.617981 0.060902 
322.11203 0.065179 
323.429413 0.0661 
325.183716 5.931991 
325.554291 0.063443 
325.787811 0.054347 
327.301727 0.05408 
329.212128 0.304939 
329.23288 0.447545 
357.479309 0.064302 
358.29953 0.063558 
365.21051 0.070318 
378.227478 0.216091 
379.680664 0.067257 
389.187714 0.06793 
395.258911 1.449015 
396.262512 1.555274 
417.209991 0.060338 
424.192566 0.056368 
433.715729 0.061822 
435.312897 0.07834 
439.952393 0.056732 
452.28833 0.16861 
464.228088 0.073411 
466.208099 0.092842 
467.215088 0.071621 
467.281189 0.061858 
468.107483 0.061122 
473.197113 0.066438 
473.530243 0.06862 
481.230835 0.858177 
481.352203 0.324592 
495.274628 0.05874 
495.31543 0.28073 
496.254211 2.437464 
496.322235 0.423738 
496.935425 0.159587 
497.255188 0.239733 
497.349091 0.655902 
498.289825 0.084046 
499.295715 2.43213 
499.363708 28.007738 
END IONS

