BEGIN IONS
PEPMASS=373.091
CHARGE=1+
COMPOUNDNAME=MITOMYCIN C
LIBRARYQUALITY=3
SMILES=N/A
INCHIKEY=NWIBSHFKIJFRCO-WUDYKRTCSA-N
INCHI=InChI=1S/C15H18N4O5/c1-5-9(16)12(21)8-6(4-24-14(17)22)15(23-2)13-7(18-13)3-19(15)10(8)11(5)20/h6-7,13,18H,3-4,16H2,1-2H3,(H2,17,22)/t6-,7+,13+,15-/m1/s1
MSLEVEL=2
SOURCE_INSTRUMENT=N/A-ESI-QFT
FILENAME=library_mgf.mgf
SEQ=*..*
IONMODE=positive
ORGANISM=MONA
NAME=MITOMYCIN C [M+K]+
PI=MoNA
DATACOLLECTOR=MoNA:VF-NPL-QEHF027733
PUBMED=N/A
SUBMITUSER=mwang87
TAGS=
SPECTRUMID=CCMSLIB00004721314
SCANS=27733
50.252254 0.066797 
50.501328 0.065372 
50.539318 0.069862 
50.622299 0.103979 
51.319923 0.104235 
51.382393 0.106643 
51.801945 0.081119 
51.899368 0.091133 
53.779964 0.047318 
53.991444 0.114613 
54.311123 0.074895 
54.815701 0.095563 
54.998386 0.07119 
55.97504 0.081826 
56.049767 7.479017 
56.228348 0.124452 
56.613819 0.057416 
56.822926 0.085399 
57.033733 0.195652 
57.070141 5.646525 
57.15976 0.073747 
57.515007 0.068499 
57.925636 0.105265 
58.033756 0.078246 
58.065403 9.203467 
58.073624 0.093048 
58.504955 0.045365 
58.514816 0.098611 
58.719097 0.072774 
58.771797 0.110104 
59.04937 0.390461 
59.846436 0.082366 
59.860867 0.089666 
60.044601 1.637186 
60.556648 0.080748 
61.010849 7.030651 
61.087406 0.119368 
62.018703 5.128927 
63.029686 0.10984 
63.057961 0.085776 
63.55064 0.111709 
63.796726 0.062032 
64.028481 0.081814 
64.391258 0.122615 
65.869293 0.043559 
66.232788 0.076743 
67.283867 0.126959 
67.821327 0.101856 
68.049698 0.07662 
68.684723 0.057161 
68.806442 0.114331 
69.07003 0.412902 
69.586945 0.093567 
69.906448 0.063728 
69.963936 0.093061 
70.065186 0.072573 
70.872459 0.157204 
71.085602 4.341947 
72.080772 0.082467 
72.51078 0.078709 
72.731918 0.194166 
73.028351 0.458583 
73.046844 19.459005 
73.064743 0.089159 
73.310837 0.117934 
74.046394 0.77556 
74.050079 0.478113 
74.057892 0.080633 
74.060081 12.202122 
75.022148 0.092649 
75.043602 0.121107 
75.772552 0.08689 
75.783043 0.088412 
75.812614 0.086172 
75.815331 0.073656 
75.998024 0.083344 
76.075661 0.190716 
77.565376 0.084655 
77.971802 0.101294 
78.112053 0.050683 
78.332344 0.061186 
78.638802 0.096608 
79.021202 1.321804 
79.25959 0.076234 
79.699387 0.066763 
79.713928 0.090769 
79.881721 0.107689 
80.708641 0.11132 
80.967323 0.08446 
80.986641 0.050682 
81.069969 0.555094 
81.487038 0.08083 
81.583092 0.085538 
83.085564 0.507009 
84.005615 1.388593 
84.301613 0.088628 
84.65255 0.077814 
84.670181 0.117775 
85.039619 0.657434 
85.101158 2.347331 
85.617767 0.133881 
85.767113 0.074412 
85.831238 0.081672 
86.060013 2.457612 
86.784309 0.079303 
87.044106 9.200251 
87.714462 0.063611 
88.075714 6.538872 
88.379524 0.077759 
88.675926 0.093994 
89.049965 0.105872 
89.059723 24.801649 
89.56234 0.071582 
89.730995 0.081771 
90.06308 0.320685 
90.091469 0.079721 
90.195465 0.075145 
90.828842 0.080664 
91.054359 1.061266 
91.057404 48.032967 
91.45871 0.100362 
91.55201 0.122928 
92.056946 3.657702 
92.060646 1.950134 
93.036659 0.129073 
93.054153 1.478701 
94.639519 0.105184 
95.085503 0.582274 
95.860985 0.130355 
96.036804 0.089891 
97.101089 0.243876 
97.984993 0.087011 
98.096283 0.201015 
98.975433 0.214153 
101.059715 1.691715 
102.09153 0.085407 
102.948128 0.099152 
103.03891 0.497663 
103.075409 0.067305 
103.276924 0.093605 
103.646461 0.087051 
104.070503 0.34827 
105.072945 0.095828 
107.060371 0.081346 
107.070427 0.08291 
107.306503 0.044368 
109.013908 0.325114 
109.10128 0.087487 
110.060051 0.102479 
110.268768 0.09486 
110.708641 0.06101 
111.028923 0.082081 
111.941833 0.084746 
112.060272 0.080584 
115.061935 0.060322 
116.070572 0.942025 
116.985794 0.431618 
118.086296 5.688856 
118.942474 0.128568 
119.494881 0.067757 
119.718895 0.100602 
120.499786 0.097211 
121.645844 0.137261 
122.081253 15.260555 
123.055328 1.230527 
125.838348 0.070415 
126.127632 0.445535 
127.050369 0.05666 
129.53418 0.086302 
130.156708 0.086732 
130.239777 0.136724 
130.979706 0.108131 
131.070358 1.107123 
131.641266 0.085086 
132.417374 0.092803 
133.034531 0.116999 
133.039597 0.704305 
133.064789 0.368644 
133.085953 7.498501 
134.160522 0.082341 
134.978775 0.813718 
134.99649 0.125745 
135.645386 0.120781 
136.355759 0.104979 
136.951477 0.11647 
137.757538 0.110127 
138.806503 0.068551 
139.111176 0.084111 
139.334579 0.050885 
140.064865 0.121421 
144.527405 0.089709 
146.231094 0.084193 
147.054749 0.079924 
147.960983 0.088821 
148.850998 0.083722 
149.616714 0.074264 
150.054947 0.066358 
151.050278 9.588692 
151.514465 0.071067 
152.95134 0.09017 
152.989075 0.451518 
153.473526 0.067415 
153.957672 0.100857 
154.610031 0.083837 
155.955063 0.062389 
157.04689 0.173066 
157.889771 0.107781 
157.95285 0.138659 
159.096329 0.069034 
161.322495 0.067257 
162.951416 4.352427 
163.454697 0.076761 
163.641281 0.11307 
163.959015 0.108902 
164.988007 0.416932 
166.152252 0.105755 
166.485306 0.059942 
166.873947 0.110863 
167.055435 0.740686 
167.68898 0.05242 
168.08609 0.078679 
169.933777 0.043455 
173.708603 0.129156 
174.127121 0.097061 
175.096252 0.066791 
176.012558 0.111557 
176.021164 0.114211 
176.988251 0.132201 
177.065811 1.390845 
177.112534 0.094731 
177.179642 0.084194 
177.810715 0.081187 
178.983322 0.158534 
179.954071 1.12077 
180.961929 0.901699 
182.96254 0.135675 
184.354828 0.083506 
186.102905 0.509153 
186.832428 0.063542 
188.070694 0.265922 
189.074341 0.416536 
190.355682 0.060309 
190.422913 0.064262 
190.765518 0.106517 
191.725189 0.045063 
192.564423 0.10786 
192.961914 0.620233 
192.982788 2.337906 
193.060867 0.216884 
194.43103 0.111756 
194.999786 0.438818 
195.9496 0.338691 
195.959869 0.139863 
196.234665 0.140234 
198.26651 0.101341 
200.070374 0.074708 
200.081985 0.189397 
201.067108 0.090157 
202.096832 0.08931 
203.081665 1.347215 
203.453049 0.099223 
204.076767 2.340311 
206.059723 0.089653 
207.07608 0.163625 
210.9729 0.071073 
211.204971 0.081534 
212.070587 2.143428 
212.081497 0.281859 
213.065659 1.356898 
213.970444 0.264725 
214.070938 0.134806 
214.09726 0.74939 
214.246872 4.171901 
214.258957 3.800697 
214.935471 0.140178 
215.043365 0.078823 
215.069855 0.134479 
215.081482 2.244736 
215.106979 0.109906 
215.640717 0.085857 
216.675552 0.083236 
217.060455 0.304804 
219.076385 2.342133 
220.01236 0.061593 
221.107224 4.221215 
222.112762 0.09048 
222.801804 0.07818 
222.898041 0.153399 
223.123032 0.20297 
224.051392 0.093463 
224.070496 0.745415 
224.93454 0.277707 
225.086655 0.072483 
225.102158 6.528826 
226.106369 0.084381 
226.318161 0.107766 
227.117844 8.300399 
228.065567 0.717803 
228.076813 7.738957 
228.575439 0.151768 
229.084106 0.873569 
229.895111 0.118649 
230.092453 59.32383 
231.076416 0.364802 
231.096085 2.18894 
231.884201 0.151252 
231.896286 18.306763 
232.108063 0.169492 
232.894638 2.396083 
232.946014 5.237271 
233.092026 0.168571 
233.658813 0.093088 
233.891861 6.02958 
233.948792 0.25698 
234.894455 0.121118 
234.94162 2.420301 
234.960388 0.652242 
236.914551 0.082843 
237.086609 0.063534 
237.102585 0.126311 
238.086197 1.399337 
238.893738 0.089645 
239.117508 0.81965 
239.885437 1.934278 
240.076874 3.360112 
240.910095 0.084713 
241.058716 1.171412 
241.083725 0.105108 
241.901535 0.510204 
242.092499 62.534447 
243.076324 0.184582 
243.095917 4.137634 
243.111618 0.075807 
243.121063 0.280303 
244.24855 0.075505 
244.818588 0.095716 
245.099945 3.864736 
247.072433 0.125093 
249.705688 0.089055 
249.906845 44.745346 
250.687668 0.08565 
250.905579 4.485108 
250.956894 1.741802 
250.969452 0.093276 
251.033554 1.141883 
251.066193 0.371055 
251.886017 0.385539 
251.90213 15.384256 
252.074554 3.207573 
252.885651 0.110887 
252.904633 0.420567 
252.952301 1.077742 
252.9702 0.099115 
253.095749 0.085541 
253.13353 2.781033 
253.902084 0.118287 
254.247757 0.07255 
255.112686 1.91188 
255.231918 8.515766 
255.898758 0.181582 
256.108185 0.30244 
256.811554 0.08585 
257.078369 0.095059 
257.092834 0.094605 
257.895813 4.464649 
258.087433 28.060581 
258.899048 0.071168 
259.056549 0.983453 
259.090912 2.580516 
259.895294 0.093017 
259.963257 0.123534 
260.103088 6.469319 
261.11084 0.060049 
262.118347 0.409487 
263.886292 5.819845 
264.383759 0.051981 
264.885895 0.122378 
265.881866 0.851575 
266.531952 0.092561 
266.999725 0.140676 
267.061371 0.203029 
267.918091 0.197759 
268.002686 0.139816 
268.068756 0.203853 
268.263458 27.623539 
268.978607 0.308538 
268.993866 0.530704 
269.266632 7.269714 
269.298492 0.072856 
269.907867 0.409306 
269.945129 0.2038 
269.978699 0.09361 
270.072113 6.81511 
270.897217 0.818108 
271.108185 0.098766 
271.905334 0.180963 
272.102722 1.684596 
273.084869 0.095772 
274.118378 2.361005 
277.066559 6.155441 
278.067474 0.114643 
279.293976 0.094284 
279.897583 0.241004 
280.069183 12.558593 
281.072815 0.410743 
281.128418 4.864686 
281.896759 100.0 
282.085388 7.129512 
282.279419 0.353619 
282.898651 7.911993 
283.068634 0.1639 
283.090302 0.166006 
283.263062 62.825638 
283.89209 35.031448 
284.051514 0.1133 
284.100525 4.383017 
284.266449 12.663939 
284.89325 1.253833 
285.009705 14.254907 
285.127289 0.091342 
285.269928 0.354169 
286.009796 11.32954 
286.049652 0.353093 
287.006866 6.278521 
287.098694 2.277503 
287.91803 0.743606 
287.934845 0.112111 
288.082947 41.356735 
288.916199 0.284673 
289.915863 1.009155 
292.128937 1.719263 
294.137665 0.375279 
295.194458 0.517309 
295.911987 0.26346 
297.095703 14.645762 
298.081299 0.139971 
298.098877 1.152864 
299.062042 1.429907 
299.112 4.820308 
299.163116 0.113998 
299.907257 25.993509 
300.062561 0.975959 
300.082977 0.70188 
300.095276 0.350168 
300.908813 1.318347 
300.983459 0.256505 
301.902649 8.585041 
302.097382 12.594534 
302.11264 3.773717 
303.020386 0.326917 
304.021149 0.061816 
304.060547 0.260849 
304.600708 0.137119 
306.093536 3.832476 
307.927643 0.109334 
309.412567 0.108156 
310.309967 0.062088 
311.08316 0.104694 
311.115845 0.097034 
311.918121 0.973045 
311.943451 2.13157 
312.081665 5.258068 
312.094666 2.54868 
312.148132 4.474147 
312.201721 0.09589 
312.325928 0.540789 
312.916595 0.109734 
312.940582 0.099237 
313.077698 0.829498 
313.117859 0.179099 
313.204803 11.561675 
313.914398 0.262956 
313.937622 0.133082 
314.110992 2.229667 
314.164215 0.522272 
314.207672 0.210718 
314.347992 0.095633 
315.12381 0.079166 
316.078156 3.517157 
318.093475 0.129937 
318.921417 0.184642 
319.12439 0.234015 
320.108826 3.296427 
324.082825 6.828284 
324.17041 3.317535 
325.085541 0.271687 
326.341797 55.142921 
327.083832 0.120035 
327.34491 3.177519 
329.928101 0.592828 
330.093414 7.166307 
330.158173 0.337692 
330.213043 0.101829 
330.926331 0.71803 
331.095032 0.237396 
331.136749 0.30745 
331.21524 5.152357 
331.9263 0.107292 
332.016418 0.390183 
332.108459 4.06056 
332.120178 1.62292 
334.088898 0.115835 
341.085815 2.716355 
342.092041 0.110338 
343.101135 5.968246 
344.108917 1.753885 
345.11673 8.093214 
346.177582 0.177043 
350.119659 34.118805 
353.156921 0.115987 
355.101257 0.088503 
356.194489 0.089542 
356.352325 5.772055 
359.02832 0.709929 
364.132538 0.094586 
366.991547 0.146721 
370.888062 0.113708 
371.129913 0.582244 
371.166443 2.464152 
371.240265 1.150754 
371.27652 2.289915 
371.437286 0.078081 
372.114532 0.144757 
372.16925 0.155234 
372.243073 0.871471 
372.287079 0.475967 
372.347382 2.150379 
373.089325 1.917184 
373.111755 9.399184 
373.139832 0.189863 
373.146301 0.186296 
373.182037 0.157001 
373.21936 5.446549 
373.349823 0.089528 
374.116547 0.757491 
374.172882 0.32007 
374.209442 0.214558 
374.2659 0.102974 
374.304749 4.48922 
374.363037 76.133598 
375.127747 18.321636 
375.162262 4.724221 
375.195557 0.06543 
375.213165 0.123047 
375.234955 0.642509 
375.341125 0.501963 
375.365997 5.193159 
377.795135 0.104173 
384.6633 0.140047 
387.92691 0.09511 
393.397614 0.089044 
398.758209 0.113441 
END IONS

