BEGIN IONS
PEPMASS=321.133
CHARGE=1+
COMPOUNDNAME=Massbank:EA280812 Mycophenolic acid| (E)-6-(4-hydroxy-3-keto-6-methoxy-7-methyl-phthalan-5-yl)-4-methyl-hex-4-enoic acid
LIBRARYQUALITY=3
SMILES=c12c(c(c(C\C=C(\CCC(O)=O)C)c(c1C)OC)O)C(=O)OC2
INCHIKEY=HPNSFSBZBAHARI-RUDMXATFSA-N
INCHI=1S/C17H20O6/c1-9(5-7-13(18)19)4-6-11-15(20)14-12(8-23-17(14)21)10(2)16(11)22-3/h4,20H,5-8H2,1-3H3,(H,18,19)/b9-4+
MSLEVEL=2
SOURCE_INSTRUMENT=ESI-LC-ESI-ITFT
FILENAME=Massbank_ESI_positive_8_1_2014_peaks.mgf
SEQ=*..*
IONMODE=Positive
ORGANISM=MASSBANK
NAME=Massbank:EA280812 Mycophenolic acid| (E)-6-(4-hydroxy-3-keto-6-methoxy-7-methyl-phthalan-5-yl)-4-methyl-hex-4-enoic acid [M+H]+
PI=Putative Massbank Match
DATACOLLECTOR=Massbank
PUBMED=N/A
SUBMITUSER=mwang87
TAGS=
SPECTRUMID=CCMSLIB00000211264
SCANS=5228
65.0385 3345.2 
67.0541 2359.4 
77.0386 51370.1 
79.0542 6547.7 
81.0699 17488.0 
91.0542 296897.9 
93.0698 2930.7 
95.0491 4693.4 
102.0466 5240.7 
103.0543 253625.8 
105.0336 4492.3 
105.0448 14200.7 
105.0699 6082.9 
109.0647 4157.8 
117.0335 12754.2 
119.0856 4263.2 
121.0648 7239.4 
131.0492 97581.4 
135.0805 25688.2 
136.0519 4138.8 
139.0754 4734.6 
145.0649 9281.5 
147.044 4380.0 
149.0596 23640.6 
159.0441 1610292.8 
161.0594 6154.7 
173.0594 3246.0 
175.0754 13634.9 
177.0546 233120.0 
179.0702 49807.0 
185.0959 2041.2 
189.0907 3294.7 
191.0699 2814.1 
192.0425 2487.1 
193.0493 6407.9 
195.0652 24097.9 
207.0653 353710.1 
215.1073 4100.2 
221.0803 2767.4 
239.1055 2836.6 
241.0865 3328.3 
255.0646 2681.0 
270.0892 2815.1 
END IONS

