BEGIN IONS
PEPMASS=321.133
CHARGE=1+
COMPOUNDNAME=Massbank:EA280805 Mycophenolic acid| (E)-6-(4-hydroxy-3-keto-6-methoxy-7-methyl-phthalan-5-yl)-4-methyl-hex-4-enoic acid
LIBRARYQUALITY=3
SMILES=c12c(c(c(C\C=C(\CCC(O)=O)C)c(c1C)OC)O)C(=O)OC2
INCHIKEY=HPNSFSBZBAHARI-RUDMXATFSA-N
INCHI=1S/C17H20O6/c1-9(5-7-13(18)19)4-6-11-15(20)14-12(8-23-17(14)21)10(2)16(11)22-3/h4,20H,5-8H2,1-3H3,(H,18,19)/b9-4+
MSLEVEL=2
SOURCE_INSTRUMENT=ESI-LC-ESI-ITFT
FILENAME=Massbank_ESI_positive_8_1_2014_peaks.mgf
SEQ=*..*
IONMODE=Positive
ORGANISM=MASSBANK
NAME=Massbank:EA280805 Mycophenolic acid| (E)-6-(4-hydroxy-3-keto-6-methoxy-7-methyl-phthalan-5-yl)-4-methyl-hex-4-enoic acid [M+H]+
PI=Putative Massbank Match
DATACOLLECTOR=Massbank
PUBMED=N/A
SUBMITUSER=mwang87
TAGS=
SPECTRUMID=CCMSLIB00000211249
SCANS=5221
77.0385 6606.8 
79.0543 8064.0 
81.0699 47610.6 
91.0542 154531.4 
95.0493 6321.2 
103.0542 101137.1 
109.0646 9682.6 
131.0491 58300.3 
135.0805 50207.5 
139.0751 7619.1 
149.0598 25669.4 
159.0439 2085057.1 
161.0591 14985.7 
175.075 32674.9 
177.0545 360238.7 
179.0703 63895.6 
193.0499 8988.3 
195.0652 118585.7 
207.0652 2958911.3 
215.1062 37551.3 
219.0656 16400.1 
221.0818 15076.1 
223.0606 18550.9 
239.1059 17367.9 
257.1166 8915.3 
261.1118 13133.1 
270.0892 21217.7 
275.1283 8862.2 
285.1126 18493.0 
END IONS

