BEGIN IONS
PEPMASS=363.064
CHARGE=1+
COMPOUNDNAME=(4R,6S,8S,9Z,11E)-16-chloro-17,19-dihydroxy-4-methyl-3,7-dioxatricyclo[13.4.0.0?,?]nonadeca-1(15),9,11,16,18-pentaene-2,13-dione
LIBRARYQUALITY=3
SMILES=N/A
INCHIKEY=WYZWZEOGROVVHK-RPJJWQTDSA-N
INCHI=InChI=1S/C18H17ClO6/c1-9-6-15-14(25-15)5-3-2-4-10(20)7-11-16(18(23)24-9)12(21)8-13(22)17(11)19/h2-5,8-9,14-15,21-22H,6-7H2,1H3/b4-2+,5-3-/t9-,14+,15+/m1/s1
MSLEVEL=2
SOURCE_INSTRUMENT=N/A-ESI-QFT
FILENAME=library_mgf.mgf
SEQ=*..*
IONMODE=negative
ORGANISM=MONA
NAME=(4R,6S,8S,9Z,11E)-16-chloro-17,19-dihydroxy-4-methyl-3,7-dioxatricyclo[13.4.0.0?,?]nonadeca-1(15),9,11,16,18-pentaene-2,13-dione [M-H]-
PI=MoNA
DATACOLLECTOR=MoNA:VF-NPL-QEHF022107
PUBMED=N/A
SUBMITUSER=mwang87
TAGS=
SPECTRUMID=CCMSLIB00004713170
SCANS=22107
50.087101 0.889807 
50.643616 0.856365 
51.838776 0.892137 
51.957397 0.706518 
52.444031 0.88564 
52.518486 0.591503 
52.593563 0.892691 
54.594528 0.963713 
54.968952 0.586029 
55.008347 0.687169 
55.212048 0.966426 
56.014999 0.838258 
56.122696 0.835251 
57.033066 2.130793 
57.124458 0.552449 
57.78817 0.886821 
58.439453 0.586523 
58.48048 0.994516 
58.602543 0.587015 
58.670525 0.599986 
58.854382 0.831435 
59.031746 1.095216 
59.097576 0.707011 
59.941185 0.860607 
60.578548 0.799948 
64.489159 0.904082 
64.836952 0.791866 
65.001877 28.277666 
65.038353 1.255419 
65.891693 0.906743 
66.386337 0.925711 
66.537781 0.627338 
66.934677 0.638994 
67.583305 1.168564 
67.639336 0.827341 
68.184433 0.623811 
70.051826 0.91314 
70.41423 0.649567 
72.12188 0.858603 
73.084618 0.690771 
73.459915 0.956493 
73.575005 0.642023 
73.93676 0.778117 
74.382111 0.702877 
74.564964 0.906143 
75.022675 1.639656 
76.616135 0.550827 
76.807945 0.742632 
77.0504 0.791521 
77.324036 0.870588 
79.310631 0.750284 
79.514618 0.592776 
79.599976 1.011493 
81.305656 0.662091 
81.364029 0.841192 
82.275322 0.64714 
83.301796 0.642382 
84.407814 1.206256 
84.787552 1.225697 
84.827194 0.680025 
86.766861 0.920244 
89.001862 1.079769 
89.038231 0.973574 
89.811417 0.847395 
90.186356 1.046067 
91.017578 18.485567 
91.070663 1.141965 
92.025192 1.072258 
93.033173 14.079259 
93.048538 0.84851 
93.20005 0.789966 
96.285934 0.718272 
96.833595 0.725748 
97.909073 1.101074 
98.403847 0.916432 
100.687096 0.846133 
100.828773 1.021906 
102.009766 3.124547 
102.613853 0.717814 
102.825699 0.711411 
102.837936 0.575288 
104.025246 1.043004 
104.266403 0.77303 
104.459915 0.81195 
106.744072 0.604502 
107.012177 0.749764 
107.238518 0.760511 
109.028389 0.751941 
109.050827 0.572645 
113.881538 0.942168 
114.994255 76.911354 
115.054085 2.586142 
116.025421 11.7166 
116.327843 0.989519 
117.033218 6.573782 
118.704025 0.603312 
119.012489 100.0 
120.781021 0.850163 
121.742996 0.794349 
121.97998 1.062045 
124.861664 0.680638 
125.415024 0.841011 
126.099556 0.969479 
126.77549 0.859143 
126.994308 4.825252 
128.294998 0.580974 
128.97258 0.965495 
129.033249 0.656322 
129.781525 0.639701 
130.041046 3.941087 
131.012421 0.666053 
131.048828 0.742506 
132.020325 32.325932 
132.916153 0.515562 
133.028122 3.953597 
133.604965 0.511091 
135.043732 0.869028 
136.987625 0.617612 
137.986755 0.722776 
138.262466 0.980641 
138.994324 16.255003 
139.054031 8.449613 
141.033386 10.678239 
143.049057 34.204498 
143.962891 1.080858 
144.020416 27.382902 
144.606461 0.547074 
145.028229 8.039123 
145.064987 0.936781 
145.999939 0.935631 
147.007553 20.109493 
147.044312 1.148205 
148.465622 1.041585 
151.490005 0.527429 
153.430756 1.058956 
153.937622 0.865037 
153.981537 1.00874 
153.987961 0.73193 
154.041214 3.937752 
154.989365 24.487663 
155.049149 19.255831 
157.028275 6.844496 
157.064941 3.46284 
158.036316 2.605912 
159.043564 0.781134 
160.015472 14.328124 
161.023346 14.245795 
165.722824 0.855688 
166.989777 0.946086 
167.049225 70.623665 
167.118729 0.61658 
167.321167 1.206625 
168.056625 1.055896 
169.028519 20.934441 
169.064774 6.558615 
171.043945 13.216829 
171.917389 0.883329 
172.014984 1.216196 
172.05159 0.951185 
173.059631 17.797073 
178.999161 1.083994 
179.108536 0.658732 
179.997253 17.719315 
181.028595 56.093098 
181.065125 0.862534 
181.976608 71.279556 
182.036591 14.461307 
182.984665 59.228497 
183.044281 68.353508 
183.779099 0.884728 
183.798004 0.908378 
183.973602 1.3801 
183.987671 0.77346 
184.052124 2.905412 
185.023315 8.219692 
185.059738 8.745302 
189.612793 0.766412 
191.025391 1.052275 
194.984589 53.024231 
195.044357 36.519398 
195.993164 1.412348 
196.051712 1.968012 
196.981201 0.646585 
197.023407 2.882133 
197.060394 1.071627 
198.031311 7.683528 
198.077835 0.989622 
199.039261 5.132399 
200.010529 4.010288 
204.038971 0.71827 
207.153427 0.950851 
207.993835 0.853829 
209.059952 2.639448 
211.039215 73.799583 
212.046722 7.836042 
213.054489 1.938159 
214.677231 0.612635 
216.788528 0.67913 
217.005554 8.329631 
219.771591 8.485994 
219.781586 2.996997 
223.987335 12.664028 
224.224136 0.681893 
224.388779 0.7931 
225.018188 4.345054 
225.94313 1.040413 
227.777359 0.980377 
230.645767 1.035018 
231.705444 0.943735 
233.000366 14.375134 
238.074203 0.934171 
239.034363 14.812784 
240.040848 0.904058 
247.016083 19.820198 
249.558014 0.879777 
257.329193 0.940625 
258.267548 0.832673 
263.906158 0.944472 
267.71167 1.049768 
287.012604 1.39141 
287.560913 0.803335 
289.007965 0.998305 
298.405334 0.880977 
309.679749 0.717213 
314.798859 0.936988 
324.000061 1.004028 
331.865356 0.786964 
360.86969 0.82282 
382.774048 0.722808 
END IONS

