BEGIN IONS
PEPMASS=509.291
CHARGE=1+
COMPOUNDNAME=(2E,4E)-1-[(2R,6S,14S,22S,25R)-25-(3,3-dimethyloxiran-2-yl)-15-methyl-1,3,13,15-tetraazaheptacyclo[18.4.1.0�,?.0?,��.0?,��.0�?,��.0�?,��]pentacosa-7,9,11,16(21),17,19-hexaen-3-yl]hexa-2,4-dien-1-one
LIBRARYQUALITY=3
SMILES=N/A
INCHIKEY=XZFSMUXVAYCHFO-QREHLELFSA-N
INCHI=InChI=1S/C32H36N4O2/c1-5-6-7-15-24(37)35-18-16-31-21-12-8-9-13-22(21)33-28-32(31)17-19-36(29(31)35)26(27-30(2,3)38-27)20-11-10-14-23(25(20)32)34(28)4/h5-15,26-29,33H,16-19H2,1-4H3/b6-5+,15-7+/t26-,27?,28+,29+,31-,32-/m1/s1
MSLEVEL=2
SOURCE_INSTRUMENT=N/A-ESI-QFT
FILENAME=library_mgf.mgf
SEQ=*..*
IONMODE=positive
ORGANISM=MONA
NAME=(2E,4E)-1-[(2R,6S,14S,22S,25R)-25-(3,3-dimethyloxiran-2-yl)-15-methyl-1,3,13,15-tetraazaheptacyclo[18.4.1.0�,?.0?,��.0?,��.0�?,��.0�?,��]pentacosa-7,9,11,16(21),17,19-hexaen-3-yl]hexa-2,4-dien-1-one [M+H]+
PI=MoNA
DATACOLLECTOR=MoNA:VF-NPL-QEHF021759
PUBMED=N/A
SUBMITUSER=mwang87
TAGS=
SPECTRUMID=CCMSLIB00004712822
SCANS=21759
50.515812 0.054149 
50.765057 0.064705 
52.065552 0.036032 
53.002548 0.265401 
53.34581 0.039131 
53.742973 0.074794 
53.757748 0.047857 
54.156845 0.066889 
54.364548 0.072946 
55.018158 0.05487 
55.168999 0.042465 
55.303261 0.056558 
55.411839 0.07391 
57.4566 0.042867 
58.263069 0.076675 
58.446609 0.064237 
59.737984 0.042352 
61.757416 0.040455 
62.872314 0.03271 
63.823784 0.046189 
64.194504 0.063164 
64.664055 0.046965 
65.038734 13.705914 
65.692734 0.032303 
66.042351 0.142403 
67.054352 100.0 
67.499939 0.078574 
67.568329 0.078574 
68.057693 4.568914 
68.081902 0.0553 
68.577095 0.039397 
70.724922 0.061819 
72.191376 0.084455 
72.285652 0.061926 
72.418236 0.059842 
73.086624 0.048676 
74.640686 0.071328 
75.036232 0.0582 
75.585403 0.033823 
76.888496 0.062316 
79.43856 0.068265 
80.159943 0.069554 
80.352669 0.05076 
82.384598 0.072387 
82.839561 0.046598 
83.183945 0.029058 
83.851028 0.09005 
83.885208 0.026757 
84.788033 0.080744 
84.870255 0.05147 
85.822762 0.033679 
85.90136 0.032572 
86.634926 0.048001 
87.096542 0.058072 
87.224518 0.083291 
87.248924 0.06019 
89.347878 0.026298 
89.367897 0.060453 
91.054237 0.053506 
91.784508 0.06829 
92.546593 0.073764 
93.49855 0.047277 
93.827415 0.065258 
94.298775 0.036705 
95.049126 53.232712 
95.27536 0.061494 
96.010963 0.040095 
96.052467 3.001632 
97.165573 0.082474 
97.419617 0.066073 
98.628716 0.025057 
100.118057 0.07003 
103.329498 0.07041 
104.281372 0.025807 
104.881851 0.073543 
105.250336 0.039856 
106.065125 0.085153 
106.753731 0.063936 
106.778229 0.066421 
106.996582 0.064996 
109.092354 0.074407 
109.638428 0.057772 
110.150398 0.032379 
112.369301 0.037613 
112.490623 0.055772 
113.137817 0.060296 
113.563057 0.068296 
113.659668 0.070105 
114.509041 0.026389 
115.054276 0.59609 
117.05722 0.03352 
117.589516 0.070345 
118.064972 0.217646 
118.517357 0.064695 
119.602402 0.033808 
120.923882 0.078512 
121.30088 0.06059 
122.072105 0.073954 
126.719856 0.076024 
128.897705 0.06999 
129.069565 0.383728 
129.711472 0.092431 
130.065094 10.527825 
131.060287 0.492535 
131.068558 0.378889 
131.073181 0.074875 
132.080505 0.72185 
132.155594 0.0776 
133.220047 0.081549 
138.395279 0.053921 
141.069839 0.062918 
142.06517 0.315533 
142.846405 0.067329 
143.073059 0.144953 
143.193253 0.046339 
144.080826 4.000001 
145.083481 0.086076 
145.925751 0.026169 
146.120056 0.075847 
147.884109 0.068563 
149.215225 0.055085 
149.545242 0.047287 
153.670242 0.042363 
154.065002 0.824709 
155.072769 0.06647 
156.080826 2.044698 
156.966873 0.043333 
157.076233 0.347646 
157.08873 0.282614 
158.096313 1.43956 
159.091644 18.547567 
159.183594 0.038406 
159.530533 0.080115 
160.076263 0.042484 
160.094818 1.221788 
160.586517 0.029787 
163.714722 0.043141 
165.271286 0.060025 
166.064957 0.250737 
166.842987 0.042516 
167.073013 1.796486 
167.355988 0.064105 
168.068176 1.43584 
168.080734 14.452169 
168.668243 0.057099 
169.076263 3.541365 
169.083542 0.519499 
169.089111 0.466961 
170.083908 1.133859 
170.096359 2.822407 
170.593872 0.081124 
171.091415 0.629803 
171.104721 0.071287 
173.025696 0.034358 
173.060913 0.030743 
174.357773 0.063966 
174.622498 0.043229 
174.647354 0.033263 
177.601685 0.07233 
180.080826 0.718265 
181.075989 0.759826 
181.088654 5.634722 
181.779694 0.065127 
182.083878 3.585653 
182.096436 3.966381 
182.230301 0.081174 
183.091705 17.673056 
183.101181 0.516278 
184.075775 0.087361 
184.100204 5.063002 
184.108673 0.125591 
185.107483 7.92443 
185.627884 0.075983 
185.637741 0.07218 
186.110413 0.202704 
186.299011 0.070788 
186.843903 0.066087 
191.071793 0.071379 
191.432648 0.068427 
194.096497 1.225084 
195.091644 2.087024 
195.104034 1.366518 
196.09964 1.151988 
196.112015 2.734272 
197.107269 8.464148 
197.116257 0.102196 
198.114868 2.74742 
198.126816 0.482631 
204.081131 0.086536 
206.0961 0.109564 
206.51442 0.034223 
207.091522 0.346641 
208.111053 0.078465 
209.107239 0.295511 
210.127777 0.783632 
211.09935 0.232223 
215.495361 0.077923 
219.804047 0.241591 
219.814133 0.659766 
219.84201 0.029168 
220.111832 0.232598 
221.107407 0.210862 
221.975281 0.087206 
222.114868 0.083036 
224.106979 1.265199 
224.125458 0.082916 
224.375854 0.029747 
226.122757 0.493208 
232.251114 0.060635 
237.137024 0.086453 
241.905334 0.048613 
246.113739 0.066498 
246.536728 0.042486 
250.558884 0.050843 
253.068939 0.072904 
255.092865 0.052719 
255.149094 0.551402 
255.789963 0.044373 
256.072479 0.026974 
256.099335 2.22081 
256.254608 0.076231 
257.105682 0.223148 
268.098724 0.067796 
268.112274 0.046113 
269.107239 1.044562 
270.100616 0.093963 
270.11499 1.712421 
271.122772 4.143413 
271.975342 0.074911 
272.401215 0.051857 
279.092072 0.105499 
280.098602 0.276143 
281.107056 2.965055 
282.114136 2.045794 
283.123108 6.123371 
284.11554 0.115734 
284.130371 1.676891 
285.054626 0.070606 
285.138397 1.197196 
285.758362 0.042377 
288.726074 0.081867 
292.110657 0.057759 
293.107086 5.409168 
294.11441 4.739062 
295.122864 10.586792 
296.115662 0.379853 
296.129578 3.324412 
297.139618 5.621949 
298.132141 4.09647 
299.137177 0.389255 
299.154572 0.37693 
299.188293 0.076394 
300.149811 0.282905 
302.821289 0.048185 
307.12265 5.229975 
308.129608 3.572483 
309.138885 7.477271 
310.133942 2.615114 
311.139099 1.023754 
311.156128 0.296173 
312.149139 5.727603 
313.153595 0.95903 
314.164124 0.405436 
321.138519 0.40932 
322.145874 0.141772 
323.117828 0.167285 
323.154053 2.552897 
323.195282 0.085026 
324.149384 1.303004 
325.13208 0.08063 
325.154083 0.068895 
326.164795 3.903864 
327.16864 0.231687 
331.636688 0.081462 
333.577637 0.09608 
337.131561 0.141695 
337.170715 0.248664 
339.149048 0.090159 
341.176392 0.223347 
343.19162 3.28479 
344.196442 0.056701 
347.77063 0.075515 
348.862946 0.088039 
351.149139 0.399061 
352.156555 0.052649 
353.505402 0.02848 
359.761902 0.028975 
365.164032 0.439612 
367.179779 0.204711 
396.160553 0.086125 
403.706696 0.05838 
409.789764 0.061264 
411.22052 0.088603 
416.652496 0.06689 
442.513702 0.026945 
449.663696 0.087195 
458.95636 0.094953 
462.701019 0.054765 
485.042908 0.038385 
492.690918 0.026657 
501.659607 0.077325 
514.465759 0.086772 
528.591309 0.035175 
530.344055 0.043559 
535.490662 0.050638 
END IONS

