BEGIN IONS
PEPMASS=323.02
CHARGE=1+
COMPOUNDNAME=Chloramphenicol
LIBRARYQUALITY=3
SMILES=N/A
INCHIKEY=WIIZWVCIJKGZOK-RKDXNWHRSA-N
INCHI=InChI=1S/C11H12Cl2N2O5/c12-10(13)11(18)14-8(5-16)9(17)6-1-3-7(4-2-6)15(19)20/h1-4,8-10,16-17H,5H2,(H,14,18)/t8-,9-/m1/s1
MSLEVEL=2
SOURCE_INSTRUMENT=N/A-ESI-QFT
FILENAME=library_mgf.mgf
SEQ=*..*
IONMODE=positive
ORGANISM=MONA
NAME=Chloramphenicol [M+H]+
PI=MoNA
DATACOLLECTOR=MoNA:VF-NPL-QEHF000410
PUBMED=N/A
SUBMITUSER=mwang87
TAGS=
SPECTRUMID=CCMSLIB00004691473
SCANS=410
50.412209 0.199982 
50.500008 0.200657 
50.852734 0.225759 
51.106213 0.171765 
51.32111 0.169776 
52.562775 0.166485 
52.890629 0.195064 
52.941677 0.177687 
53.592316 0.19891 
55.018623 17.227962 
55.045658 0.167489 
55.054996 16.809015 
55.478729 0.16682 
55.591595 0.20181 
55.935181 5.728062 
56.058304 0.303773 
56.062771 0.580558 
56.10677 0.194493 
56.942966 0.957979 
56.965546 2.700608 
57.034374 0.222121 
57.070641 12.928794 
57.334656 0.200293 
57.537731 0.173721 
57.873569 0.189283 
58.065884 16.360365 
58.358604 0.211237 
58.750393 0.214527 
59.049892 1.955392 
59.061085 0.89516 
60.045109 0.484832 
60.872635 0.197933 
60.880318 0.192207 
61.009636 0.785297 
61.011383 86.224602 
62.014782 0.45374 
62.019199 29.206451 
63.007206 1.789051 
63.022636 0.220666 
63.998451 1.698861 
64.340073 0.221516 
65.3619 0.170915 
65.764374 0.202426 
66.351204 0.198799 
67.054932 8.428429 
67.140007 0.23469 
67.264526 0.214478 
67.463799 0.202125 
67.519447 0.210205 
69.07058 16.198124 
69.162842 0.23037 
69.587532 0.18993 
69.910561 0.207553 
70.065796 0.378977 
70.078384 0.238092 
70.942558 0.637496 
70.958572 5.357936 
71.049881 0.577463 
71.086212 5.1898 
71.929993 2.721276 
72.937798 21.227442 
73.029137 0.213796 
73.047829 0.208851 
73.204475 0.196114 
73.248611 0.205069 
73.676239 0.215306 
73.945625 0.384271 
74.931595 1.529451 
74.953522 0.828087 
75.878586 0.218514 
78.888481 0.217067 
79.021851 48.320171 
79.054878 1.183438 
80.05011 7.823271 
81.017578 0.98408 
81.070465 8.653426 
82.731552 0.279007 
83.049194 0.220644 
83.086113 8.725841 
84.960251 0.7024 
85.040245 0.19226 
85.101845 0.939523 
86.06028 0.225429 
86.096992 19.707972 
87.044647 0.459747 
88.008987 0.195005 
88.076294 0.307757 
88.968933 1.23795 
89.060242 3.899391 
89.387352 0.184132 
89.698036 0.179428 
89.940407 4.471684 
89.964203 10.694347 
90.355156 0.170229 
90.948219 15.481964 
91.054802 12.111798 
91.057625 0.683913 
91.959984 0.241249 
93.070335 2.308312 
94.010445 0.198529 
94.06546 0.176426 
94.376709 0.205005 
94.785034 0.202597 
95.085983 7.4538 
97.065269 0.488801 
97.101654 3.339621 
98.736603 0.175626 
98.975822 100.0 
99.948578 0.319526 
99.979126 1.030663 
100.66893 0.210023 
101.060036 0.220155 
101.471443 0.205575 
101.950287 21.024748 
101.963875 0.232391 
102.930115 0.24161 
102.948105 1.321716 
102.968727 0.866953 
103.272659 0.177838 
103.674995 0.185388 
104.434586 0.165007 
104.96389 0.197132 
105.917419 3.428441 
106.740654 0.209956 
107.085823 1.810283 
107.95089 0.764728 
108.95858 1.931889 
109.101501 2.722474 
109.51506 0.17458 
111.080727 0.444384 
112.26413 0.200755 
113.06002 17.860104 
113.963913 0.625655 
114.318855 0.23071 
114.986412 6.170716 
116.005524 4.860199 
116.479713 0.241937 
116.963562 5.487491 
116.986137 64.807465 
117.917107 0.564551 
118.924988 0.898075 
118.94294 1.249174 
119.08577 3.752407 
119.892586 0.184065 
119.956421 1.085204 
119.960686 7.82148 
120.940788 2.047301 
120.978989 0.547895 
121.101326 0.892731 
122.312431 0.195538 
122.940865 0.246135 
123.116783 0.232143 
123.493103 1.134834 
123.991646 13.178683 
124.112465 0.242676 
125.622505 0.170552 
126.968132 0.20684 
126.984703 0.327039 
128.963409 12.509178 
129.479019 0.236391 
129.971054 0.214601 
130.979126 3.594559 
131.000732 1.764415 
131.974258 1.92234 
132.958221 16.802441 
132.99527 0.263655 
133.085953 0.190735 
133.101227 0.230933 
133.948151 0.796087 
133.959335 0.747847 
134.919693 1.054431 
134.956131 16.702696 
134.973785 1.807302 
134.978714 0.261422 
134.99646 18.549906 
135.080887 0.224763 
135.116699 0.234077 
135.927567 2.526173 
136.061722 0.266094 
136.935608 0.203205 
136.952942 0.77328 
137.011917 0.265957 
137.476044 0.539285 
137.52063 0.209227 
137.971115 0.943385 
138.951263 0.763696 
142.978958 1.238768 
143.974243 2.049446 
144.95842 4.779565 
144.9879 2.395138 
144.994827 0.449954 
145.966507 3.734765 
145.989975 1.612897 
146.481476 0.765004 
146.974091 9.238924 
148.95578 4.297432 
148.971756 24.437408 
148.989441 2.472513 
149.954208 1.677784 
149.960999 0.285668 
149.973221 0.262658 
150.951065 95.516106 
150.968674 18.288975 
151.004898 0.259097 
151.02066 0.209434 
151.950882 1.035306 
151.959198 0.617949 
151.976547 0.454964 
152.945602 3.160307 
152.951813 6.981134 
152.966721 8.56464 
152.990021 0.230382 
153.893463 0.255743 
153.938004 0.812187 
153.959183 3.756737 
154.947052 2.045777 
155.649155 0.199807 
155.954758 0.804988 
156.994675 0.173417 
157.083176 0.239116 
157.400085 0.215074 
157.989929 0.816435 
158.973938 1.457271 
158.994873 1.004705 
159.010452 0.645501 
159.969147 1.041096 
160.93544 0.949989 
160.953476 0.234087 
160.971237 0.237857 
160.98967 0.840295 
161.011734 0.219099 
161.306427 0.197105 
162.598602 0.174802 
162.950928 4.323871 
162.96907 0.783452 
163.668259 0.182098 
163.976974 5.242672 
163.998886 0.204218 
164.966583 3.241021 
164.985138 0.235389 
165.065857 4.353948 
165.938049 3.818342 
166.92128 0.161791 
166.966339 1.151262 
166.982269 3.539433 
167.920135 4.866418 
167.953812 0.464785 
168.909866 0.212324 
168.917175 15.321766 
168.961624 40.569057 
168.983017 0.240898 
169.917252 0.639362 
169.989609 0.17757 
170.011337 0.274755 
170.026443 0.671911 
170.90712 0.287638 
170.914169 3.605039 
170.955719 5.188599 
171.010162 0.446183 
171.904099 0.682058 
172.005295 2.761374 
172.913712 0.531014 
172.951523 0.218028 
172.989746 0.859494 
173.984665 1.038394 
174.005997 2.337721 
174.990021 1.008888 
175.958832 4.063949 
176.001099 0.279081 
176.989395 49.832268 
177.93782 0.243978 
177.992798 0.708722 
178.94603 4.10987 
178.984909 2.201049 
179.000305 0.994399 
179.014877 2.562828 
179.022339 14.710027 
179.955078 0.395046 
179.963593 13.20955 
180.023514 0.558354 
180.888336 0.460424 
180.944366 0.204349 
180.961533 9.707567 
180.982803 0.764908 
181.019394 1.66448 
181.988297 0.47681 
181.996643 7.141588 
182.977127 3.265368 
182.997406 0.213349 
183.948837 0.78573 
183.994247 0.481771 
184.00528 0.547858 
184.932358 0.821789 
185.930771 9.702344 
185.961761 13.461918 
186.021271 1.506893 
186.927704 40.70369 
187.005371 3.52043 
187.927933 4.079513 
187.977097 4.031938 
188.000259 1.658578 
188.021469 1.116741 
188.648148 1.469536 
188.916397 0.459671 
188.92453 15.170491 
188.9664 1.998362 
189.83017 0.199898 
189.925522 0.237597 
190.017227 0.230783 
190.924225 1.065726 
190.966171 6.20853 
191.001083 0.291074 
191.963043 0.544352 
191.97197 9.729092 
192.961624 60.121269 
192.995575 0.209329 
193.964203 0.765541 
194.957047 0.226655 
194.999817 69.870682 
196.003372 1.200177 
196.042007 2.783202 
196.956711 0.18798 
196.995743 2.91307 
197.024704 0.217397 
197.033279 1.209451 
197.653259 5.215576 
197.974258 49.486313 
198.953995 0.33714 
198.992523 0.621566 
199.040878 0.250916 
199.97023 1.106121 
200.00737 2.323503 
202.016022 0.600889 
203.993713 0.494183 
204.961334 0.782655 
205.015503 0.841292 
205.987701 30.590815 
206.658722 4.725274 
206.926407 2.401919 
206.977783 16.018883 
206.98819 2.67322 
207.977783 0.901337 
208.37674 0.222433 
208.959259 0.289834 
208.976334 2.964098 
209.014755 0.271181 
209.963806 0.247304 
209.974747 1.79135 
209.983292 0.400507 
210.020721 0.254899 
210.954529 0.866341 
210.972092 37.230793 
211.975098 0.910444 
212.968719 0.186354 
213.0103 4.816407 
213.905273 0.350956 
214.052078 0.272982 
215.036392 0.768569 
215.807892 2.592224 
215.818863 3.633237 
215.984802 12.748348 
219.173798 0.191296 
220.903198 0.528476 
222.53096 0.201725 
222.898483 17.71682 
223.899338 0.205246 
224.900192 0.428861 
224.93663 0.266481 
225.020859 3.119083 
226.510361 0.220184 
227.03627 1.420869 
227.954773 0.264508 
228.091034 0.23292 
228.928162 0.496689 
229.895874 7.550004 
231.915558 4.80433 
232.913864 0.224189 
232.959351 1.566411 
233.891449 0.573756 
234.899857 0.224267 
238.914001 2.472277 
238.96759 1.236982 
240.231781 0.642855 
240.268158 0.313649 
240.828491 0.215609 
240.909119 30.300608 
240.930527 0.217177 
241.911102 0.775359 
242.04747 8.054477 
242.084747 0.285512 
242.9095 3.041343 
243.031189 3.807742 
243.052109 0.25099 
244.06311 0.296234 
244.084778 0.284142 
245.046951 13.542409 
246.93927 4.760847 
247.047195 0.242949 
247.409653 0.195366 
247.906357 5.833782 
248.878357 0.26499 
248.936935 0.655032 
249.041473 0.222361 
250.89389 1.877488 
250.969681 1.686856 
251.125214 7.475756 
251.974594 1.290157 
256.062897 0.551127 
259.062256 0.709326 
260.05777 23.592957 
261.04184 4.826121 
261.059631 0.88267 
262.913422 0.224758 
264.909119 9.019266 
265.939484 1.417582 
265.990753 4.701362 
268.099152 0.236751 
270.078125 0.267769 
270.114563 0.281954 
270.138123 0.23219 
272.093262 0.21665 
274.073059 1.319587 
274.336609 0.237947 
274.969513 3.664961 
276.969147 0.302423 
279.896118 0.509525 
281.911682 7.678951 
282.115997 0.243885 
282.919556 7.732745 
284.153168 0.574927 
284.996552 0.184726 
288.089142 1.15408 
292.979767 0.53288 
298.79483 0.205301 
299.060852 0.603774 
301.161804 1.944144 
303.141571 0.306836 
303.177551 4.41755 
304.299591 1.947333 
305.156525 15.770561 
306.159912 0.754015 
306.919647 0.789087 
311.281372 0.226955 
314.294617 0.226549 
315.177277 1.518245 
317.155945 0.263527 
319.172363 9.980935 
323.145844 7.67153 
323.793915 0.219221 
325.197357 0.240525 
329.191956 0.239272 
331.172729 0.579276 
331.209137 1.849921 
333.188019 18.761789 
334.191772 1.557183 
339.05069 0.236503 
340.392731 0.942961 
345.187683 0.289955 
347.203552 11.543153 
348.084442 0.221608 
353.174469 0.175585 
353.731354 0.208731 
364.418884 0.194229 
END IONS

