BEGIN IONS
PEPMASS=243.0
CHARGE=1+
COMPOUNDNAME=MoNA:2233040 5-(2-Oxohexahydro-1H-thieno[3,4-D]imidazol-4-yl)pentanoate
LIBRARYQUALITY=3
SMILES=N/A
INCHIKEY=YBJHBAHKTGYVGT-ZKWXMUAHSA-N
INCHI=InChI=1S/C10H16N2O3S/c13-8(14)4-2-1-3-7-9-6(5-16-7)11-10(15)12-9/h6-7,9H,1-5H2,(H,13,14)(H2,11,12,15)/t6-,7-,9-/m0/s1
MSLEVEL=2
SOURCE_INSTRUMENT=LC-ESI-QQ-LC-ESI-QQ
FILENAME=output_mgf.mgf
SEQ=*..*
IONMODE=
ORGANISM=MONA
NAME=MoNA:2233040 5-(2-Oxohexahydro-1H-thieno[3,4-D]imidazol-4-yl)pentanoate [M-H]-
PI=MoNA
DATACOLLECTOR=MoNA
PUBMED=N/A
SUBMITUSER=mwang87
TAGS=
SPECTRUMID=CCMSLIB00000573993
SCANS=11244
33.4 2.538462 
39.8 0.153846 
42.0 100.0 
45.7 0.769231 
47.0 2.076923 
52.0 0.692308 
59.0 5.923077 
68.0 6.769231 
68.3 3.769231 
69.5 0.846154 
72.1 4.230769 
73.1 3.384615 
74.2 9.307692 
77.1 0.538462 
78.8 0.461538 
82.0 2.230769 
82.9 1.615385 
85.2 1.461538 
85.5 0.230769 
91.2 2.461538 
92.8 1.230769 
94.4 1.153846 
95.0 11.0 
96.3 2.307692 
96.9 3.538462 
100.8 0.923077 
103.2 9.076923 
104.9 0.692308 
108.0 0.923077 
109.0 1.230769 
109.9 1.384615 
111.1 2.307692 
113.0 1.0 
118.8 0.384615 
121.3 0.461538 
121.9 8.538462 
122.9 0.692308 
124.3 0.384615 
129.9 3.153846 
133.2 0.769231 
134.0 0.846154 
134.9 3.076923 
136.2 1.615385 
136.7 0.923077 
139.1 10.384615 
139.7 0.769231 
142.0 0.153846 
145.0 0.846154 
147.4 0.461538 
148.3 0.615385 
151.0 0.384615 
151.9 0.846154 
153.1 3.230769 
154.2 3.230769 
155.9 5.076923 
156.6 0.461538 
163.4 2.307692 
164.2 0.307692 
165.2 2.0 
166.2 5.230769 
167.6 0.461538 
179.4 0.384615 
191.0 0.230769 
197.2 0.769231 
198.0 0.461538 
206.8 0.307692 
227.6 0.153846 
243.4 0.615385 
END IONS

