BEGIN IONS
PEPMASS=1277.62
CHARGE=1+
COMPOUNDNAME=Dactinomycin
LIBRARYQUALITY=3
SMILES=N/A
INCHIKEY=RJURFGZVJUQBHK-UHFFFAOYSA-N
INCHI=InChI=1S/C62H86N12O16/c1-27(2)42-59(84)73-23-17-19-36(73)57(82)69(13)25-38(75)71(15)48(29(5)6)61(86)88-33(11)44(55(80)65-42)67-53(78)35-22-21-31(9)51-46(35)64-47-40(41(63)50(77)32(10)52(47)90-51)54(79)68-45-34(12)89-62(87)49(30(7)8)72(16)39(76)26-70(14)58(83)37-20-18-24-74(37)60(85)43(28(3)4)66-56(45)81/h21-22,27-30,33-34,36-37,42-45,48-49H,17-20,23-26,63H2,1-16H3,(H,65,80)(H,66,81)(H,67,78)(H,68,79)
MSLEVEL=2
SOURCE_INSTRUMENT=N/A-ESI-QFT
FILENAME=library_mgf.mgf
SEQ=*..*
IONMODE=positive
ORGANISM=MONA
NAME=Dactinomycin [M+Na]+
PI=MoNA
DATACOLLECTOR=MoNA:VF-NPL-QEHF000889
PUBMED=N/A
SUBMITUSER=mwang87
TAGS=
SPECTRUMID=CCMSLIB00004691952
SCANS=889
89.06041 0.008704 
89.314072 0.029197 
92.872963 0.008843 
93.8535 0.017375 
94.484505 0.006796 
96.287079 0.026636 
97.114159 0.007273 
97.951729 0.020276 
97.984879 0.010163 
98.096718 0.018189 
100.039604 1.850619 
100.043015 0.027653 
101.96566 0.009676 
103.73423 0.013347 
105.457954 0.012213 
108.793442 0.013869 
109.612259 0.019897 
109.979736 0.028728 
110.719002 0.015095 
110.765396 0.012102 
112.112137 0.010495 
112.274651 0.006633 
114.091324 0.226744 
114.111038 0.01069 
114.908836 0.014748 
117.334808 0.011956 
119.989952 0.0162 
121.419823 0.013507 
123.549171 0.011092 
124.112083 3.056901 
125.070419 0.016337 
125.115135 0.043918 
125.137939 0.029141 
125.374702 0.018476 
126.091675 0.00926 
128.647263 0.011357 
130.408264 0.009913 
132.101746 1.338498 
134.219162 0.016708 
135.887817 0.017911 
138.67514 0.006693 
141.953568 0.017722 
142.085938 0.367601 
144.308746 0.017018 
148.824478 0.026563 
149.044388 0.055211 
149.191833 0.010628 
150.110886 0.011653 
151.208801 0.006624 
151.420715 0.02647 
152.10582 0.008816 
153.101746 0.103564 
154.085693 0.164763 
154.121185 0.012851 
155.117783 0.006797 
157.038834 0.021435 
157.133255 0.038019 
161.027298 0.023416 
166.03064 0.019106 
167.055054 0.075708 
167.081467 0.050455 
169.096954 1.15274 
169.133118 0.248851 
170.099564 0.048989 
170.854126 0.010518 
172.449402 0.011132 
172.991501 0.010964 
178.13002 0.013101 
178.215836 0.013064 
179.385101 0.016229 
179.797714 0.005866 
180.100739 0.006669 
180.115479 0.025506 
180.281738 0.006139 
183.113007 0.006234 
183.640808 0.028065 
184.072678 0.066411 
185.128021 0.634546 
187.107437 0.553935 
188.945236 0.016144 
190.538635 0.015966 
193.307465 0.010007 
195.11264 0.011037 
195.474365 0.007516 
197.128174 0.243107 
201.123108 0.017346 
203.13884 5.56886 
204.142487 0.345559 
205.143936 0.014955 
208.176529 0.031832 
209.089264 0.648542 
209.16304 0.016052 
220.732117 0.025709 
221.084091 0.013837 
221.760056 0.010467 
225.042023 0.063547 
235.293427 0.018317 
236.766861 0.012106 
237.23938 0.016974 
238.41777 0.015043 
239.094543 0.13439 
241.154968 0.020818 
242.158264 0.007693 
242.657272 0.007652 
246.734573 0.014829 
247.170563 0.01123 
253.149689 0.024851 
268.164734 0.108304 
271.804535 0.01595 
274.693604 0.007117 
274.885986 0.006905 
276.168243 0.006528 
276.300964 0.025215 
279.130005 0.006822 
282.180603 0.534321 
283.183929 0.028608 
285.009003 0.047068 
286.176605 0.021237 
286.599518 0.012112 
289.213104 0.019868 
290.146881 0.107976 
290.575653 0.020298 
298.139282 0.16553 
299.060883 0.135021 
300.191345 3.420786 
300.21051 0.011733 
301.194153 0.39937 
302.196075 0.007949 
304.086853 0.215475 
304.110413 0.031103 
304.162415 0.096757 
305.316803 0.015322 
306.144958 0.01401 
308.157379 4.001631 
309.16098 0.182637 
309.305725 0.019125 
312.19046 0.086156 
316.1633 0.025367 
318.141052 0.018906 
320.157654 1.878824 
322.173065 0.433123 
326.721802 0.026885 
327.410248 0.011472 
334.13678 4.333685 
334.172455 3.461826 
335.139893 0.302755 
335.175537 0.16438 
338.206177 0.096107 
346.136963 0.251774 
347.203064 0.037961 
347.251068 0.025781 
354.109711 0.11074 
354.237671 0.179555 
357.246277 0.010884 
359.027191 0.022899 
364.091858 0.038944 
366.108307 0.008434 
366.380005 0.022522 
373.183899 0.321951 
375.235199 0.035109 
377.183075 0.007035 
382.419983 0.026488 
383.227783 0.211462 
384.945129 0.007716 
388.082214 0.032394 
390.200195 0.021669 
390.607513 0.009655 
391.194336 25.929708 
392.197571 3.554526 
394.10199 0.049684 
395.107666 0.012652 
395.191833 0.010417 
398.58783 0.013039 
399.259338 0.015525 
399.434509 0.027596 
403.230682 1.006198 
403.262573 0.076548 
404.145203 0.02196 
404.226868 0.207281 
411.222595 0.043668 
414.48288 0.012226 
416.084564 0.999144 
417.173828 3.887272 
418.177002 0.390148 
421.240845 1.210047 
422.24472 0.00865 
423.127625 0.008502 
424.139282 0.012386 
426.143158 0.018028 
427.135712 0.014382 
429.24527 0.215139 
431.135406 0.040203 
432.135773 0.01966 
433.146515 0.027224 
436.007355 0.016587 
437.559357 0.020335 
443.16806 2.026544 
444.172668 0.325848 
447.22171 0.426582 
447.25708 1.002919 
448.161316 0.009752 
448.260284 0.038642 
449.14386 0.010026 
453.179138 0.279534 
455.130981 0.073155 
459.12912 0.965161 
460.132599 0.483805 
460.288727 0.342241 
461.134644 0.137855 
462.139587 0.021618 
466.12323 0.013076 
471.161438 0.209597 
479.158508 0.09904 
480.16156 0.009204 
480.281311 0.227314 
481.286987 0.010702 
486.267944 0.454447 
487.15799 1.51968 
488.162506 0.131784 
489.172943 0.064998 
498.173981 0.23098 
498.691284 0.008198 
499.187469 0.059378 
504.278564 9.689082 
505.281158 1.861105 
508.277191 0.04717 
512.190308 0.3193 
515.153076 0.908516 
516.155029 0.016749 
524.18988 0.10076 
524.227783 0.033322 
525.204163 0.154405 
526.2052 4.858994 
527.210388 2.089682 
528.218994 0.059751 
530.204651 0.436315 
530.257446 2.06959 
531.206909 0.070795 
531.260254 0.199661 
540.216675 0.029284 
541.07312 0.008001 
542.199646 0.059031 
548.169739 0.014135 
550.901306 0.014327 
552.184204 1.479239 
553.189087 0.038869 
554.19928 0.133524 
558.144104 0.008136 
559.204163 0.015884 
562.196167 0.008599 
564.206848 0.00829 
568.217407 0.624213 
569.217285 0.024006 
572.211365 0.470152 
580.178894 0.007969 
584.12085 0.016497 
584.209717 0.265661 
585.215637 0.099181 
586.226746 4.479755 
587.229675 1.122743 
595.224731 0.021345 
596.242065 0.080579 
597.240173 0.011994 
598.227356 0.024224 
599.257812 1.106427 
600.261841 0.081109 
611.258789 2.085989 
612.11499 0.010207 
612.205872 1.953473 
612.25946 0.519709 
612.976318 0.011755 
613.208069 0.328115 
613.26886 0.020685 
620.955811 0.027433 
621.481689 0.019455 
622.238892 0.011707 
623.258484 2.788175 
624.261902 0.739748 
625.235596 1.471286 
626.236694 0.113139 
630.21698 0.492987 
631.220032 0.01278 
637.23584 0.012466 
639.253296 10.472723 
640.256348 2.901667 
641.231018 0.256427 
643.248352 0.572222 
644.248596 0.015017 
644.809692 0.011642 
651.252319 1.202642 
652.24231 0.298929 
653.263306 0.096952 
655.247925 1.516298 
656.251465 0.220827 
657.26355 13.630472 
658.267273 3.667585 
659.268677 0.092646 
665.232544 1.381338 
666.236023 0.063235 
667.247314 1.5778 
668.251709 0.533936 
669.264832 10.953487 
670.266724 3.109512 
671.274414 0.025449 
678.263306 0.033791 
681.299194 0.88434 
682.256531 0.536696 
683.242737 18.019167 
684.246399 5.235114 
685.256348 1.599443 
686.260193 0.046149 
687.275208 0.018502 
693.30426 0.063799 
694.253845 0.080963 
695.242432 6.722042 
695.303345 0.481985 
696.2724 2.949879 
697.269775 1.261685 
700.269348 0.213759 
701.254211 1.943461 
702.256958 0.457707 
704.281494 0.014893 
704.453064 0.0145 
708.346375 0.932824 
709.349487 0.133103 
709.432556 0.014755 
709.560852 0.025452 
712.269226 1.875988 
713.271545 0.419838 
722.290833 1.977083 
723.280273 1.247213 
724.281067 0.185932 
724.34259 2.891757 
725.34613 0.857272 
730.631592 0.008523 
732.305237 0.035162 
733.305359 0.035321 
734.326721 2.733798 
735.326477 0.951421 
736.326416 0.008819 
738.284302 3.059572 
739.28949 2.31025 
740.30304 15.00037 
741.306702 4.631039 
742.301514 0.080304 
748.263977 0.039609 
750.321533 0.298984 
751.321899 0.058608 
752.337036 14.333366 
753.339844 5.229134 
754.34021 0.409295 
756.29425 0.141498 
757.300232 0.031626 
765.295776 0.859064 
766.275208 35.627457 
767.278259 11.904645 
768.277283 0.289729 
768.333923 1.554435 
769.335266 0.455612 
770.347839 2.029707 
771.350952 0.480914 
774.735718 0.023863 
778.315979 1.758174 
779.315369 1.032074 
783.309998 0.038057 
784.293152 0.188458 
793.346069 0.411804 
794.307434 1.669051 
795.32312 0.4214 
796.327148 25.439974 
797.330017 8.725783 
797.410828 0.018011 
798.333679 0.978251 
804.328125 0.020543 
808.385925 0.285584 
809.372131 0.164183 
810.341492 0.323028 
811.34613 0.041648 
812.321228 0.887514 
813.327576 0.052177 
814.337585 0.543832 
815.347229 0.060518 
819.344849 0.216807 
820.331604 0.441086 
821.343689 1.259224 
822.347046 0.279322 
825.354004 0.254345 
835.373657 1.133193 
836.37439 0.342047 
837.353455 31.51664 
838.356445 11.959417 
839.362122 1.808776 
847.37323 0.082059 
850.385681 0.282876 
851.371521 0.661412 
852.374817 0.490727 
853.38678 1.856862 
854.385864 0.430465 
855.362427 0.159261 
861.360779 0.017584 
863.367004 0.232554 
865.346985 7.403439 
866.349976 2.776804 
867.354187 0.239109 
878.379578 0.135314 
879.364258 10.154718 
880.366638 4.052126 
881.372192 0.334052 
883.358948 5.177126 
884.361572 1.819215 
885.368652 0.049416 
891.36261 0.408669 
892.361816 0.111303 
896.398438 0.01585 
906.446228 0.196129 
907.449097 0.016127 
909.374634 8.803768 
910.377747 3.298697 
911.38208 0.332351 
918.411255 1.479615 
919.412231 0.538789 
922.416016 0.015722 
932.430298 0.009856 
933.427979 0.007388 
934.405457 1.909784 
935.412598 0.656116 
936.397278 2.466757 
937.400452 1.067999 
938.377258 0.026479 
947.912415 0.032546 
950.437134 7.036704 
951.441589 3.126482 
952.444458 0.531894 
962.401611 2.845359 
963.394958 2.019136 
964.402039 0.511663 
968.438538 0.016303 
978.431763 1.932765 
979.434204 0.809946 
980.411804 64.996483 
981.414429 28.404648 
982.417114 4.027438 
993.445496 1.453879 
994.445923 0.572337 
996.44165 1.040056 
997.44751 0.204361 
1005.447021 0.18815 
1006.445862 0.057673 
1007.42865 3.984877 
1008.431641 1.891006 
1009.442566 0.009995 
1031.491455 0.135379 
1032.483398 0.032911 
1033.436646 2.331663 
1034.431885 1.925164 
1035.436768 0.561789 
1038.643677 0.017445 
1047.487305 0.083817 
1049.50061 1.465273 
1050.504028 0.489117 
1051.44873 100.0 
1052.450684 48.711933 
1053.45459 8.009758 
1064.479736 3.410685 
1065.486938 2.074797 
1066.487427 0.204486 
1075.485352 1.464349 
1076.487061 0.872612 
1077.496216 0.08013 
1093.49585 10.356962 
1094.498047 5.249135 
1095.5 0.863033 
1102.524414 0.078716 
1103.522339 0.023081 
1120.529663 2.134537 
1121.533081 0.984654 
1136.53772 1.950037 
1137.538696 1.032626 
1146.519287 1.712052 
1147.519531 1.071887 
1148.530518 0.016302 
1160.206909 0.009427 
1164.532104 27.937271 
1165.534912 15.603268 
1166.535156 2.705239 
1177.564697 0.115213 
1178.570068 0.023889 
1213.045898 0.020862 
1219.237671 0.021533 
1249.618408 0.281462 
1250.619995 0.120874 
1275.764893 0.014427 
1277.614868 1.870924 
1277.844604 0.21578 
1278.616943 1.260691 
1278.849121 0.039641 
1279.631592 0.042022 
END IONS

