BEGIN IONS
PEPMASS=405.264
CHARGE=1+
COMPOUNDNAME=MoNA:686695 (1S,3R,7S,8S,8aR)-8-{2-[(2R,4R)-4-hydroxy-6-oxotetrahydro-2H-pyran-2-yl]ethyl}-3,7-dimethyl-1,2,3,7,8,8a-hexahydronaphthalen-1-yl (2S)-2-methylbutanoate
LIBRARYQUALITY=3
SMILES=N/A
INCHIKEY=PCZOHLXUXFIOCF-BXMDZJJMSA-N
INCHI=InChI=1S/C24H36O5/c1-5-15(3)24(27)29-21-11-14(2)10-17-7-6-16(4)20(23(17)21)9-8-19-12-18(25)13-22(26)28-19/h6-7,10,14-16,18-21,23,25H,5,8-9,11-13H2,1-4H3/t14-,15-,16-,18+,19+,20-,21-,23-/m0/s1
MSLEVEL=2
SOURCE_INSTRUMENT=LC-ESI-QFT-LC-ESI-QFT
FILENAME=output_mgf.mgf
SEQ=*..*
IONMODE=
ORGANISM=MONA
NAME=MoNA:686695 (1S,3R,7S,8S,8aR)-8-{2-[(2R,4R)-4-hydroxy-6-oxotetrahydro-2H-pyran-2-yl]ethyl}-3,7-dimethyl-1,2,3,7,8,8a-hexahydronaphthalen-1-yl (2S)-2-methylbutanoate [M+H]+
PI=MoNA
DATACOLLECTOR=MoNA
PUBMED=N/A
SUBMITUSER=mwang87
TAGS=
SPECTRUMID=CCMSLIB00000566328
SCANS=3580
55.0542 0.315718 
57.0699 0.657866 
67.0542 4.101817 
68.9971 1.255089 
69.0699 5.246729 
71.0128 0.641622 
71.0491 1.453174 
77.0384 0.498243 
79.0542 24.10114 
81.0699 24.615859 
83.0491 11.254362 
83.0855 1.203069 
85.0647 5.10032 
89.0232 2.683191 
91.0542 4.436862 
93.0698 10.393528 
95.0491 1.878459 
95.0854 7.037505 
97.0647 7.571121 
105.0699 20.69767 
107.0855 18.344542 
109.0647 2.200995 
109.1011 1.699326 
115.0539 0.606581 
117.0697 3.57907 
119.0855 12.736258 
121.1011 6.351867 
123.0803 0.498025 
125.0597 1.731625 
128.0619 2.86319 
129.0698 3.109342 
130.0775 0.494538 
131.0855 27.705275 
133.1011 5.962006 
135.0805 1.737214 
135.1168 1.465161 
141.0698 2.213339 
142.0779 4.536265 
143.0856 56.642688 
144.0935 3.070497 
145.1012 34.121525 
147.0801 0.350049 
147.1169 3.120282 
149.0963 1.926506 
151.0753 1.516307 
153.0693 0.38657 
154.0778 0.597057 
155.0855 11.94207 
156.0935 4.894877 
157.1012 27.897117 
158.109 8.769389 
159.1168 39.955508 
160.1248 0.404512 
161.0958 0.292809 
161.1326 1.172307 
163.0752 0.333107 
163.1115 0.977045 
165.0911 1.351285 
167.0854 1.578931 
168.0935 1.282204 
169.1011 30.843312 
170.1088 1.124951 
171.1168 30.882313 
173.1325 84.751855 
177.0908 0.669314 
177.1274 0.307902 
179.0856 1.307369 
181.1012 4.870903 
182.1086 2.022927 
183.1169 22.556477 
184.1248 1.806404 
185.0961 0.443895 
185.1326 6.199184 
187.1116 0.656229 
187.148 0.351083 
189.0908 0.384374 
191.1067 5.46653 
192.0934 0.366997 
193.1012 4.155382 
194.1093 1.039459 
195.1169 3.094212 
196.1247 1.272771 
197.1325 14.555251 
198.1405 1.388141 
199.148 100.0 
201.1637 14.738693 
203.1064 0.363551 
205.1014 0.457249 
205.1225 0.487133 
207.1169 7.068536 
208.1245 1.369719 
209.1326 0.57921 
210.1399 2.461014 
211.1118 3.547969 
211.1479 5.027625 
213.1637 0.497193 
215.1796 2.219906 
219.1171 1.422085 
220.1248 0.60654 
221.1324 2.153485 
223.1482 15.51951 
225.1637 51.793583 
229.1226 2.197013 
234.1405 2.34429 
239.1432 0.628058 
239.1795 5.854946 
243.1745 5.043487 
249.1637 7.68963 
267.1744 2.084509 
285.1851 1.863446 
END IONS

