BEGIN IONS
PEPMASS=443.237
CHARGE=1+
COMPOUNDNAME=LOVASTATIN
LIBRARYQUALITY=3
SMILES=N/A
INCHIKEY=PCZOHLXUXFIOCF-BXMDZJJMSA-N
INCHI=InChI=1S/C24H36O5/c1-5-15(3)24(27)29-21-11-14(2)10-17-7-6-16(4)20(23(17)21)9-8-19-12-18(25)13-22(26)28-19/h6-7,10,14-16,18-21,23,25H,5,8-9,11-13H2,1-4H3/t14-,15-,16-,18+,19+,20-,21-,23-/m0/s1
MSLEVEL=2
SOURCE_INSTRUMENT=N/A-Linear Ion Trap
FILENAME=library_mgf.mgf
SEQ=*..*
IONMODE=positive
ORGANISM=MONA
NAME=LOVASTATIN M+Na
PI=MoNA
DATACOLLECTOR=MoNA:VF-NPL-LTQ006479
PUBMED=N/A
SUBMITUSER=mwang87
TAGS=
SPECTRUMID=CCMSLIB00004689947
SCANS=5568
255.050003 4.176466 
299.019989 100.0 
383.170013 32.554928 
401.170013 5.390159 
END IONS

