BEGIN IONS
PEPMASS=995.556
CHARGE=1+
COMPOUNDNAME=Massbank:EA299203 Microcystin-LR|(5R,8R,11R,12S,15S,18S,19S,22R)-15-{3-[(Diaminomethylene)amino]propyl}-8-isobutyl-18-[(1E,3E,5S,6S)-6-methoxy-3,5-dimethyl-7-phenyl-1,3-heptadien-1-yl]-1,5,12,19-tetramethyl-2-methylene
LIBRARYQUALITY=3
SMILES=CC1C(NC(=O)C(NC(=O)C(C(NC(=O)C(NC(=O)C(NC(=O)C(=C)N(C(=O)CCC(NC1=O)C(=O)O)C)C)CC(C)C)C(=O)O)C)CCCN=C(N)N)C=CC(=CC(C)C(CC2=CC=CC=C2)OC)C
INCHIKEY=ZYZCGGRZINLQBL-UHFFFAOYSA-N
INCHI=1S/C49H74N10O12/c1-26(2)23-37-46(66)58-40(48(69)70)30(6)42(62)55-35(17-14-22-52-49(50)51)45(65)54-34(19-18-27(3)24-28(4)38(71-10)25-33-15-12-11-13-16-33)29(5)41(61)56-36(47(67)68)20-21-39(60)59(9)32(8)44(64)53-31(7)43(63)57-37/h11-13,15-16,18-19,24,26,28-31,34-38,40H,8,14,17,20-23,25H2,1-7,9-10H3,(H,53,64)(H,54,65)(H,55,62)(H,56,61)(H,57,63)(H,58,66)(H,67,68)(H,69,70)(H4,50,51,52)/b19-18+,27-24+/t28-,29-,30-,31+,34-,35-,36+,37-,38-,40+/m0/s1
MSLEVEL=2
SOURCE_INSTRUMENT=ESI-LC-ESI-ITFT
FILENAME=Massbank_ESI_positive_8_1_2014_peaks.mgf
SEQ=*..*
IONMODE=Positive
ORGANISM=MASSBANK
NAME=Massbank:EA299203 Microcystin-LR|(5R,8R,11R,12S,15S,18S,19S,22R)-15-{3-[(Diaminomethylene)amino]propyl}-8-isobutyl-18-[(1E,3E,5S,6S)-6-methoxy-3,5-dimethyl-7-phenyl-1,3-heptadien-1-yl]-1,5,12,19-tetramethyl-2-methylene [M+H]+
PI=Putative Massbank Match
DATACOLLECTOR=Massbank
PUBMED=N/A
SUBMITUSER=mwang87
TAGS=
SPECTRUMID=CCMSLIB00000213057
SCANS=6112
70.065 5465.0 
86.0964 8607.1 
107.0854 8148.8 
112.0868 7955.4 
127.0864 9258.0 
135.0802 36518.0 
135.1166 13006.7 
155.0811 8835.2 
156.1246 6670.8 
157.1084 10484.1 
163.1112 20574.0 
174.1349 21505.3 
195.0763 3277.2 
196.1004 3556.7 
213.0866 31723.9 
218.1522 2780.5 
237.1623 3239.1 
240.1437 3246.1 
241.1296 6201.7 
244.1283 6820.5 
246.1486 5537.8 
258.1847 10661.3 
265.1569 5258.7 
268.1666 7479.1 
269.1248 12683.0 
285.1668 19209.9 
286.1508 17437.9 
292.1531 3584.4 
347.1956 9233.9 
375.1909 41490.2 
446.2279 11757.9 
571.3604 4950.8 
910.5023 3966.6 
967.5601 9975.2 
995.5555 101271.2 
END IONS

