BEGIN IONS
PEPMASS=333.193
CHARGE=1+
COMPOUNDNAME=SPECTINOMYCIN
LIBRARYQUALITY=3
SMILES=N/A
INCHIKEY=UNFWWIHTNXNPBV-WXKVUWSESA-N
INCHI=InChI=1S/C14H24N2O7/c1-5-4-6(17)14(20)13(21-5)22-12-10(19)7(15-2)9(18)8(16-3)11(12)23-14/h5,7-13,15-16,18-20H,4H2,1-3H3/t5-,7-,8+,9+,10+,11-,12-,13+,14+/m1/s1
MSLEVEL=2
SOURCE_INSTRUMENT=N/A-Linear Ion Trap
FILENAME=library_mgf.mgf
SEQ=*..*
IONMODE=positive
ORGANISM=MONA
NAME=SPECTINOMYCIN M-H
PI=MoNA
DATACOLLECTOR=MoNA:VF-NPL-LTQ006458
PUBMED=N/A
SUBMITUSER=mwang87
TAGS=
SPECTRUMID=CCMSLIB00004689933
SCANS=5554
97.870003 15.373738 
109.860001 15.967269 
121.900002 27.056067 
131.919998 3.039294 
139.899994 70.523682 
152.960007 21.919434 
157.940002 28.014179 
169.960007 11.029024 
179.970001 4.024517 
183.929993 2.698121 
198.979996 22.557081 
205.020004 12.50056 
217.009995 4.175848 
219.020004 6.925601 
227.029999 76.45311 
231.050003 4.486662 
243.050003 28.147955 
266.019989 5.264818 
271.070007 34.867157 
284.059998 31.358793 
289.100006 100.0 
302.070007 58.285622 
END IONS

