BEGIN IONS
PEPMASS=556.933
CHARGE=1+
COMPOUNDNAME=Adenosine
LIBRARYQUALITY=3
SMILES=N/A
INCHIKEY=OIRDTQYFTABQOQ-KQYNXXCUSA-N
INCHI=InChI=1S/C10H13N5O4/c11-8-5-9(13-2-12-8)15(3-14-5)10-7(18)6(17)4(1-16)19-10/h2-4,6-7,10,16-18H,1H2,(H2,11,12,13)/t4-,6-,7-,10-/m1/s1
MSLEVEL=2
SOURCE_INSTRUMENT=N/A-Linear Ion Trap
FILENAME=library_mgf.mgf
SEQ=*..*
IONMODE=positive
ORGANISM=MONA
NAME=Adenosine [2M+Na]+
PI=MoNA
DATACOLLECTOR=MoNA:VF-NPL-LTQ000178
PUBMED=N/A
SUBMITUSER=mwang87
TAGS=
SPECTRUMID=CCMSLIB00004684529
SCANS=150
136.050003 1.260414 
191.029999 3.466597 
229.979996 26.579037 
272.130005 2.268619 
290.0 8.670577 
293.040009 34.563065 
311.26001 100.0 
316.089996 3.893047 
392.019989 14.164009 
404.059998 12.587835 
421.98999 18.849886 
497.26001 2.125693 
525.330017 4.797453 
END IONS

