BEGIN IONS
PEPMASS=243.11
CHARGE=1+
COMPOUNDNAME=Huperzine A
LIBRARYQUALITY=3
SMILES=N/A
INCHIKEY=ZRJBHWIHUMBLCN-UHFFFAOYSA-N
INCHI=InChI=1S/C15H18N2O/c1-3-11-10-6-9(2)8-15(11,16)12-4-5-14(18)17-13(12)7-10/h3-6,10H,7-8,16H2,1-2H3,(H,17,18)
MSLEVEL=2
SOURCE_INSTRUMENT=N/A-Linear Ion Trap
FILENAME=library_mgf.mgf
SEQ=*..*
IONMODE=positive
ORGANISM=MONA
NAME=Huperzine A M-H
PI=MoNA
DATACOLLECTOR=MoNA:VF-NPL-LTQ007656
PUBMED=N/A
SUBMITUSER=mwang87
TAGS=
SPECTRUMID=CCMSLIB00004690945
SCANS=6566
180.949997 1.978854 
181.029999 3.257502 
196.949997 2.228774 
198.070007 3.928744 
211.050003 6.549112 
226.089996 100.0 
END IONS

