BEGIN IONS
PEPMASS=323.02
CHARGE=1+
COMPOUNDNAME=Chloramphenicol
LIBRARYQUALITY=3
SMILES=N/A
INCHIKEY=WIIZWVCIJKGZOK-RKDXNWHRSA-N
INCHI=InChI=1S/C11H12Cl2N2O5/c12-10(13)11(18)14-8(5-16)9(17)6-1-3-7(4-2-6)15(19)20/h1-4,8-10,16-17H,5H2,(H,14,18)/t8-,9-/m1/s1
MSLEVEL=2
SOURCE_INSTRUMENT=N/A-ESI-QFT
FILENAME=library_mgf.mgf
SEQ=*..*
IONMODE=positive
ORGANISM=MONA
NAME=Chloramphenicol [M+H]+
PI=MoNA
DATACOLLECTOR=MoNA:VF-NPL-QEHF000411
PUBMED=N/A
SUBMITUSER=mwang87
TAGS=
SPECTRUMID=CCMSLIB00004691474
SCANS=411
50.097969 0.120791 
50.967854 0.118432 
51.30547 0.096281 
51.861431 0.107056 
51.940742 0.756166 
52.569107 0.098536 
52.742249 0.14065 
53.002998 0.261485 
53.039406 0.143521 
53.205158 0.111326 
53.51033 0.112894 
53.939877 0.13326 
54.326324 0.098045 
54.938339 0.150222 
55.018612 13.245689 
55.055 14.294451 
55.14484 0.108522 
55.146896 0.096295 
55.935165 13.515552 
56.021957 0.099348 
56.05027 0.13114 
56.062817 0.122773 
56.942974 6.592752 
56.965557 18.192116 
57.034241 0.284792 
57.070618 7.555206 
57.935562 2.098929 
57.937141 0.153667 
58.065868 12.65802 
58.341187 0.10915 
58.686569 0.111237 
58.70657 0.102348 
58.865765 0.113103 
59.049915 1.065091 
59.061165 0.124263 
59.914867 0.098586 
60.045135 0.239639 
60.081379 0.137296 
60.841515 0.090864 
61.011395 70.997505 
61.455948 0.129842 
62.014797 0.305121 
62.017639 0.174882 
62.019192 25.843981 
62.990574 0.375051 
63.007145 2.353494 
63.027 0.653233 
63.99847 4.02658 
64.014984 0.150491 
64.34214 0.097916 
66.720245 0.127074 
67.054924 8.011483 
67.925385 0.112018 
68.943314 0.342756 
68.963211 0.438708 
69.070557 7.822305 
70.065796 0.598807 
70.942474 1.469073 
70.958519 19.608423 
71.049744 0.151294 
71.086197 1.126688 
71.265419 0.09321 
71.929932 4.597744 
71.940872 0.58172 
71.952553 1.870637 
71.958908 0.126213 
72.044868 0.14618 
72.666435 0.100591 
72.937775 40.300346 
73.674194 0.09712 
73.938217 0.409527 
73.945618 0.989787 
74.176857 0.172072 
74.479576 0.125664 
74.931526 5.545358 
74.953484 1.344295 
75.80043 0.10258 
75.901688 0.128247 
75.946091 0.260129 
76.372078 0.120063 
76.928581 1.217915 
78.162628 0.118525 
78.606987 0.11125 
79.021843 22.389843 
79.054848 3.275931 
80.050064 3.485425 
81.034081 0.590391 
81.070488 5.317064 
82.440331 0.105408 
82.901169 0.116709 
82.94548 0.491836 
83.049713 0.27116 
83.086159 2.507461 
84.025475 0.111687 
84.928329 0.100417 
84.942657 0.4608 
84.960274 1.882354 
85.065186 0.114854 
85.946106 0.517558 
86.004166 0.691547 
86.060715 0.120264 
86.096992 6.070575 
86.953201 0.1284 
87.907013 1.582363 
87.968857 0.253963 
88.076271 0.319594 
88.168221 0.101119 
88.914986 0.383391 
88.952972 0.683296 
88.968994 6.171321 
89.906853 0.668946 
89.940453 4.566465 
89.964211 14.972954 
90.903793 1.474778 
90.948204 24.859024 
91.054756 11.573104 
92.900665 0.266075 
93.070351 2.455118 
94.943466 0.101921 
95.049568 0.528928 
95.085976 3.324496 
96.541267 0.117806 
97.101723 0.243412 
98.09697 0.127745 
98.975761 100.0 
99.948524 0.783415 
99.979149 1.740203 
100.968956 0.332731 
100.971809 0.157177 
101.950272 36.640633 
101.964317 0.154281 
102.930435 0.603177 
102.948219 2.636029 
102.968719 1.733741 
104.963829 0.805088 
105.033951 0.116397 
105.070312 1.131813 
105.471581 0.111797 
105.917397 2.26182 
105.935104 0.493995 
106.925201 0.141823 
106.966858 0.14086 
107.085938 0.888788 
107.950813 1.7088 
107.974518 0.679069 
108.33165 0.141203 
108.493721 0.908746 
108.914047 0.787982 
108.958557 3.46885 
109.101524 0.699077 
112.075897 0.11016 
112.956604 0.157109 
113.060028 1.142418 
113.942825 0.146648 
113.964088 1.530676 
114.986351 0.535103 
115.482033 0.133662 
115.966316 0.11625 
115.981422 0.135894 
116.005699 0.253922 
116.480003 1.813255 
116.909462 0.821809 
116.963654 5.371513 
116.986168 68.110558 
117.070351 0.304059 
117.499046 0.433605 
117.917152 0.292319 
117.958809 0.926112 
117.989365 0.91754 
118.065346 0.131581 
118.925102 2.081087 
118.943115 1.761998 
118.980003 0.352271 
119.019272 1.009943 
119.073128 0.74719 
119.085777 2.156365 
119.951294 0.246209 
119.960686 14.722115 
120.897041 0.116517 
120.940697 12.236945 
120.979012 1.331924 
121.101379 0.252697 
122.941124 1.63483 
123.116745 0.114538 
123.991501 2.475361 
124.781418 0.108431 
124.936157 0.521793 
125.55584 0.118442 
125.961227 0.2804 
126.521591 0.101595 
126.984207 2.041363 
127.510628 0.127386 
127.956039 0.147837 
128.165848 0.115026 
128.932037 0.129465 
128.963547 8.412996 
128.983948 0.096446 
130.065201 0.305388 
130.962616 0.251298 
130.979111 2.673433 
131.000992 1.45925 
131.961533 0.718559 
131.974258 5.636138 
131.987228 0.121189 
132.958298 14.777819 
132.995544 0.134156 
133.94841 0.386466 
133.958847 0.115364 
134.91983 5.787855 
134.956177 9.809178 
134.974075 2.021102 
134.978592 0.216708 
134.99086 0.205922 
134.996521 22.385921 
135.00206 0.318525 
135.927658 3.183742 
136.062073 0.146546 
136.935425 0.618861 
136.953201 0.557721 
136.993179 0.128331 
137.011841 2.049513 
137.928146 1.155944 
137.97113 5.499213 
138.951065 5.146864 
138.984024 2.164042 
139.92305 0.455048 
140.999451 0.119682 
142.942017 0.125194 
142.979187 1.186157 
143.000244 0.195805 
143.974136 1.717369 
143.995697 0.115881 
144.958527 4.772485 
144.994736 2.48732 
145.966583 8.954063 
145.989975 1.867843 
146.095764 0.11774 
146.967636 0.567067 
146.97406 10.107853 
147.974731 1.205366 
148.955963 0.895775 
148.971878 21.24122 
148.978439 0.1456 
148.989578 2.616485 
149.961121 0.975214 
149.972 0.77737 
149.98494 0.704415 
150.658554 0.111948 
150.951035 27.936581 
150.968781 16.945562 
151.02066 0.898135 
151.951294 0.122737 
151.958908 0.145007 
152.896973 0.526792 
152.930466 1.952004 
152.95163 2.761461 
152.966766 5.691566 
152.988907 0.13447 
153.007004 1.428389 
153.893753 2.717474 
153.938248 2.297143 
153.959442 5.048214 
154.89389 0.25154 
154.94693 0.691621 
154.978882 0.498942 
155.022476 0.515547 
155.158188 0.139162 
155.954697 1.229807 
155.973999 0.107453 
155.981461 0.129533 
156.994919 0.407081 
157.990021 1.14119 
158.63298 0.107495 
158.973969 0.828425 
158.994934 0.386943 
159.969284 1.477168 
159.990433 0.132081 
160.93541 0.141045 
160.953232 0.124166 
160.990036 0.271176 
161.011948 0.248604 
161.983734 0.378516 
162.968872 0.989797 
163.182419 0.098725 
163.97702 11.708254 
163.999222 2.552946 
164.055466 0.123682 
164.916214 0.202552 
164.976868 0.29465 
164.999741 1.18641 
165.065781 0.709341 
165.35434 0.128447 
166.674561 0.137847 
166.966171 0.156627 
166.973389 1.155523 
166.982239 3.894886 
167.290161 0.116314 
167.920258 0.953517 
167.953583 0.682195 
167.972122 0.313303 
168.192566 0.116972 
168.91713 4.546842 
168.9617 12.426084 
168.979263 0.149378 
168.994659 0.621005 
169.218765 0.113478 
170.010742 0.117051 
170.535034 0.121864 
170.907135 1.536886 
170.914505 0.664991 
170.955612 0.415634 
170.962479 0.223427 
170.973495 0.126485 
171.904221 8.652974 
172.005676 1.56407 
172.904419 0.463142 
172.952332 0.170269 
172.989548 0.329878 
173.901276 2.3379 
173.984726 0.97083 
174.005646 0.58443 
174.98938 0.114627 
176.989624 1.255139 
177.938599 0.424242 
178.946671 0.11675 
178.979462 0.172306 
179.022476 2.54511 
179.963867 0.277175 
180.023666 0.188732 
180.888199 4.688284 
181.019302 0.244425 
181.988113 1.162195 
181.996658 0.906048 
182.951859 0.483759 
183.9935 0.119915 
184.931778 0.127071 
184.983643 0.804214 
185.930634 1.719956 
185.94931 0.525357 
185.964249 1.490608 
186.021194 0.7286 
186.927811 12.032871 
186.93605 2.425741 
187.005142 0.567303 
187.92804 0.502248 
188.915848 0.343717 
188.925003 4.644965 
189.719254 0.119778 
189.925552 0.121848 
190.015625 0.144044 
190.949005 0.472208 
191.000824 0.181483 
192.961792 5.165355 
192.994736 0.478815 
194.026688 0.195222 
194.999741 2.856402 
195.829025 0.103315 
195.948944 0.858664 
197.642456 0.116344 
197.974457 4.716153 
198.89888 0.133621 
200.008072 0.307663 
205.987778 4.243098 
206.926697 1.484136 
206.977951 3.721863 
207.875961 0.120476 
208.959305 1.630624 
209.892334 0.10503 
209.974808 0.140017 
210.021515 0.13387 
210.97226 3.011967 
215.985107 0.396405 
216.090363 0.127823 
220.246964 0.212479 
220.260162 0.580956 
220.274246 0.367869 
220.285919 0.35585 
220.297089 0.124604 
220.903366 0.702589 
222.898529 14.463015 
223.898956 0.145797 
224.001419 0.112325 
224.936996 0.163033 
225.886215 0.311717 
227.050735 0.131286 
228.836273 0.115082 
229.89592 0.95221 
231.915527 0.892093 
232.915451 0.143917 
232.959518 0.264598 
236.706223 0.13328 
238.913803 2.702398 
239.912262 0.124954 
240.909103 26.92897 
241.910263 0.76988 
241.97934 0.124728 
242.048431 0.139089 
242.909836 1.973106 
244.905121 0.27388 
245.047104 0.124711 
247.906494 0.909612 
250.969482 0.188854 
257.905304 0.139648 
267.100647 0.118019 
269.690125 0.111622 
274.533356 0.110555 
280.500427 0.149271 
281.102539 0.119837 
283.603973 0.123818 
287.195892 0.124597 
290.912445 0.109616 
298.064636 0.142494 
298.860321 0.111655 
302.817719 0.256231 
305.411163 0.128037 
305.439423 0.11969 
309.319885 0.113674 
309.944031 0.116574 
312.071625 0.16108 
325.078461 0.125082 
325.566437 0.110321 
327.459961 0.119879 
333.1492 0.11132 
341.927887 0.136809 
344.977631 0.112136 
352.736328 0.103884 
360.657806 0.113835 
364.91626 0.100453 
END IONS

