BEGIN IONS
PEPMASS=1096.61
CHARGE=1+
COMPOUNDNAME=N-[(3S,6S,9S,11R,15S,18S,20R,21R,24S,25S,26S)-3-[(1R)-2-carbamoyl-1-hydroxyethyl]-6-[(1S,2S)-1,2-dihydroxy-2-(4-hydroxyphenyl)ethyl]-11,20,21,25-tetrahydroxy-15-[(1R)-1-hydroxyethyl]-26-methyl-2,5,8,14,17,23-hexaoxo-1,4,7,13,16,22-hexaazatricyclo[22.3.0.0?,��]heptacosan-18-yl]-10,12-dimethyltetradecanamide
LIBRARYQUALITY=3
SMILES=N/A
INCHIKEY=DFQUSLQYURJBIT-MFKXNLKNSA-N
INCHI=InChI=1S/C51H82N8O17/c1-6-25(2)19-26(3)13-11-9-7-8-10-12-14-37(66)53-32-21-35(64)47(72)57-49(74)41-42(67)27(4)23-59(41)51(76)39(34(63)22-36(52)65)55-48(73)40(44(69)43(68)29-15-17-30(61)18-16-29)56-46(71)33-20-31(62)24-58(33)50(75)38(28(5)60)54-45(32)70/h15-18,25-28,31-35,38-44,47,60-64,67-69,72H,6-14,19-24H2,1-5H3,(H2,52,65)(H,53,66)(H,54,70)(H,55,73)(H,56,71)(H,57,74)/t25?,26?,27-,28+,31+,32-,33-,34+,35+,38-,39-,40-,41-,42-,43-,44-,47+/m0/s1
MSLEVEL=2
SOURCE_INSTRUMENT=N/A-ESI-QFT
FILENAME=library_mgf.mgf
SEQ=*..*
IONMODE=positive
ORGANISM=MONA
NAME=N-[(3S,6S,9S,11R,15S,18S,20R,21R,24S,25S,26S)-3-[(1R)-2-carbamoyl-1-hydroxyethyl]-6-[(1S,2S)-1,2-dihydroxy-2-(4-hydroxyphenyl)ethyl]-11,20,21,25-tetrahydroxy-15-[(1R)-1-hydroxyethyl]-26-methyl-2,5,8,14,17,23-hexaoxo-1,4,7,13,16,22-hexaazatricyclo[22.3.0.0?,��]heptacosan-18-yl]-10,12-dimethyltetradecanamide [M+NH4]+
PI=MoNA
DATACOLLECTOR=MoNA:VF-NPL-QEHF024872
PUBMED=N/A
SUBMITUSER=mwang87
TAGS=
SPECTRUMID=CCMSLIB00004715935
SCANS=24872
76.227135 0.062419 
76.667877 0.055649 
77.344589 0.060488 
78.103951 0.066974 
79.658867 0.054357 
80.875824 0.058713 
81.069901 0.239347 
82.065201 1.453662 
82.072273 0.08382 
82.345963 0.0604 
83.085533 0.193118 
83.338242 0.086883 
84.044472 21.758688 
85.101173 0.071606 
85.556229 0.056985 
85.754066 0.062603 
86.035835 0.039503 
86.06012 100.0 
87.063499 3.999588 
87.749229 0.058266 
89.059776 0.308128 
89.097076 0.083714 
90.116302 0.076009 
91.67765 0.056867 
94.028847 0.384246 
94.065094 0.077925 
95.085655 0.501457 
95.535614 0.054854 
96.044411 0.55186 
96.838432 0.067281 
97.100723 0.053165 
98.059425 0.078505 
98.46804 0.06324 
98.677872 0.072531 
99.046852 0.086351 
99.055237 0.173442 
100.03936 5.000747 
100.07576 33.113281 
100.079277 0.136147 
100.201141 0.044392 
100.311508 0.062552 
100.645317 0.085371 
101.061218 0.040831 
101.07106 1.234586 
101.079147 1.00605 
101.479271 0.067355 
102.055038 1.543484 
103.733528 0.083202 
104.018005 0.071113 
104.604942 0.064298 
106.432587 0.061505 
106.812057 0.075616 
107.049164 0.765248 
109.039726 1.408912 
109.101463 0.068722 
109.322556 0.056719 
109.363441 0.079237 
110.023689 0.721022 
111.055336 0.622253 
112.039391 0.7775 
113.070976 0.59912 
113.526878 0.091263 
114.054924 0.223925 
116.070656 0.113157 
116.249931 0.067616 
117.065918 0.188079 
117.140495 0.075386 
119.049789 0.060548 
119.3228 0.062868 
122.060257 0.102075 
122.308838 0.081084 
123.055367 0.524301 
124.075974 0.071356 
125.071053 0.810776 
126.335663 0.095598 
127.050209 0.131398 
127.086853 0.14452 
127.967812 0.056185 
129.065979 0.327951 
130.050003 0.631379 
130.789368 0.050222 
131.081573 4.349961 
131.296051 0.065944 
132.418823 0.062882 
133.752167 0.069976 
134.060196 0.238597 
137.132462 0.060763 
137.725769 0.066626 
139.050278 0.252139 
139.086609 0.708716 
139.971283 0.060161 
140.070724 0.428876 
141.065933 7.243646 
142.086319 0.470913 
142.365295 0.050192 
142.846313 0.059081 
143.081573 1.097454 
143.763962 0.061255 
145.097214 17.884884 
146.0448 0.623021 
146.060089 0.33452 
146.10054 0.432269 
146.617325 0.042221 
147.044144 4.980424 
148.589844 0.059593 
149.070984 0.93668 
149.195145 0.072484 
150.054657 0.064753 
150.413681 0.045379 
151.050262 1.672657 
151.086426 0.278721 
152.567932 0.066121 
153.065872 0.101105 
154.273682 0.055836 
154.37355 0.07005 
155.045197 0.075929 
155.081497 0.568104 
157.09726 1.306406 
160.822983 0.042519 
161.091965 0.051357 
163.07132 0.541564 
163.087112 0.060035 
164.070663 1.406126 
165.065964 2.320619 
165.07518 0.067272 
166.069443 0.059311 
167.081558 9.429372 
167.189819 0.070857 
168.085434 0.252196 
168.418518 0.067837 
169.060837 1.748999 
169.097321 1.439879 
170.908783 0.061501 
171.076416 1.224576 
171.717026 0.073341 
173.026779 0.057222 
173.056976 0.062267 
173.072113 0.059134 
174.055054 2.091102 
175.039093 1.748313 
176.070786 0.124783 
176.536285 0.065054 
177.065765 0.996855 
178.262985 0.059839 
179.045074 0.427322 
179.081619 1.745099 
180.084976 0.058988 
180.906448 0.079695 
181.0616 0.066946 
181.097198 0.669442 
181.145996 0.073097 
182.056274 0.068666 
182.081543 0.072838 
183.076263 0.101356 
183.112534 0.16386 
184.821671 0.049274 
185.092285 4.634502 
186.096375 0.063401 
186.647064 0.075088 
187.107697 1.061529 
188.071045 0.093089 
191.081528 1.746935 
191.739365 0.079976 
191.814774 0.057237 
192.065598 2.743536 
192.29509 0.068224 
193.060638 0.060982 
193.097412 0.86039 
195.076416 7.325423 
196.080612 0.083914 
197.092133 3.962271 
199.84903 0.072836 
203.081406 1.40264 
204.065689 0.103335 
205.571594 0.106637 
207.301071 0.086369 
208.108307 0.181002 
209.092163 5.095258 
210.124527 0.226675 
211.107773 1.134133 
212.07019 0.074952 
213.086914 2.040378 
214.060883 0.074477 
215.102844 0.146336 
219.076431 1.208974 
220.097214 0.169336 
221.092133 3.113677 
225.087036 1.09925 
226.120697 0.049008 
227.102737 1.79408 
228.134384 0.324279 
229.097366 0.064201 
235.070038 0.098409 
235.23996 0.089848 
236.10321 2.242171 
236.91272 0.084459 
237.087097 5.647675 
238.118774 1.161791 
239.102585 0.443978 
245.092148 0.063904 
246.574371 0.052342 
249.265396 0.057474 
252.097504 0.057231 
252.640045 0.079955 
254.113617 1.579877 
255.097916 5.672148 
255.112823 0.070042 
256.060242 0.220238 
256.101074 0.063577 
256.263062 0.335355 
257.091644 0.083741 
259.10791 9.260645 
260.112 0.372616 
261.123535 0.320172 
261.510681 0.078931 
262.118774 1.992636 
265.061401 0.069087 
265.082031 0.290659 
266.936096 0.073902 
272.10318 0.317677 
272.58902 0.082366 
273.087158 4.978292 
273.124908 0.054418 
274.090729 0.209245 
276.133881 0.091567 
277.118378 4.979054 
278.117615 0.100382 
279.133942 0.337206 
279.633698 0.089152 
280.12915 0.561145 
281.946259 0.080574 
282.108337 1.218234 
283.071472 1.702533 
287.102692 3.10684 
290.112488 0.070013 
291.097015 0.095322 
292.09433 0.273195 
294.144623 0.077596 
300.097992 1.00142 
301.082123 1.621238 
301.100372 0.522413 
302.035004 0.086062 
304.129303 2.390492 
304.166199 0.369644 
304.174042 0.335939 
304.185913 0.274431 
305.113464 4.709454 
306.114899 0.090067 
308.123749 0.344442 
310.1026 0.117099 
314.33963 0.063011 
318.108856 0.253044 
319.092712 0.278753 
322.139984 2.143271 
326.067322 0.082522 
327.130066 0.33748 
328.127319 0.064837 
336.118561 0.081726 
340.150757 0.064275 
344.12439 0.324402 
347.369385 0.069746 
348.78894 0.068565 
354.932892 0.076963 
359.471466 0.094651 
362.473541 0.073954 
368.127014 0.065941 
378.697998 0.09127 
382.083038 0.076102 
383.243561 0.099907 
386.134613 0.331605 
389.70163 0.086705 
391.931335 0.083433 
398.903931 0.079844 
403.375153 0.091074 
407.921234 0.046764 
413.146667 0.154989 
414.131042 0.071572 
418.091553 0.06544 
425.368042 0.057415 
426.014008 0.090589 
430.343658 0.163558 
431.155701 1.06252 
438.164246 0.069623 
442.640717 0.072583 
448.354309 0.167958 
466.357941 0.05939 
468.235016 0.046998 
468.589722 0.066079 
471.072662 0.069863 
483.846405 0.070436 
486.798187 0.092852 
489.368439 0.074185 
492.34082 0.066286 
493.374329 0.065255 
496.180695 0.065565 
497.51297 0.066283 
515.1922 0.067468 
550.266357 0.06515 
553.176453 0.054576 
588.598206 0.08577 
594.305298 0.087714 
605.523499 0.054731 
605.900391 0.070186 
614.077698 0.063903 
616.098389 0.077696 
625.266846 0.047807 
637.070679 0.079812 
642.296143 0.072071 
671.475403 0.070592 
671.642151 0.07097 
687.324524 0.096384 
691.63208 0.075826 
702.401489 0.075291 
708.014404 0.106526 
708.347961 0.234787 
708.430969 0.069645 
708.704773 0.336828 
733.239929 0.072385 
759.683533 0.065175 
759.962463 0.090222 
782.380676 0.07238 
784.35675 0.066116 
800.500549 0.056124 
844.25 0.053512 
856.193115 0.046355 
862.238708 0.065758 
872.152405 0.080075 
893.368408 0.046291 
932.338013 0.081516 
934.574341 0.088731 
946.603577 0.043428 
977.932068 0.071511 
1023.58905 0.078808 
1111.315674 0.095383 
1123.290161 0.049747 
END IONS

