BEGIN IONS
PEPMASS=448.0
CHARGE=1+
COMPOUNDNAME=MoNA:2483824 Rickamicin
LIBRARYQUALITY=3
SMILES=N/A
INCHIKEY=URWAJWIAIPFPJE-YFMIWBNJSA-N
INCHI=InChI=1S/C19H37N5O7/c1-19(27)7-28-18(13(26)16(19)24-2)31-15-11(23)5-10(22)14(12(15)25)30-17-9(21)4-3-8(6-20)29-17/h3,9-18,24-27H,4-7,20-23H2,1-2H3/t9-,10+,11-,12+,13-,14-,15+,16-,17-,18-,19+/m1/s1
MSLEVEL=2
SOURCE_INSTRUMENT=LC-ESI-IT-LC-ESI-IT
FILENAME=output_mgf.mgf
SEQ=*..*
IONMODE=
ORGANISM=MONA
NAME=MoNA:2483824 Rickamicin [M+H]+
PI=MoNA
DATACOLLECTOR=MoNA
PUBMED=N/A
SUBMITUSER=mwang87
TAGS=
SPECTRUMID=CCMSLIB00000567207
SCANS=4458
123.2 0.004399 
126.1 0.042597 
127.1 0.207597 
127.9 0.05496 
142.1 0.572604 
145.0 0.169411 
146.1 0.034692 
149.1 0.003358 
150.1 0.004733 
151.1 0.225264 
160.1 5.591372 
161.0 0.027679 
163.1 4.509506 
164.1 0.027401 
168.9 0.042401 
173.1 0.05941 
174.6 0.006885 
187.1 0.277424 
192.1 0.025476 
199.2 0.038086 
201.1 0.018141 
202.1 0.00918 
205.1 1.797314 
206.2 0.047955 
211.0 0.017313 
214.2 0.057383 
226.2 0.02048 
237.0 0.071584 
250.2 0.046149 
251.2 0.134077 
253.0 0.007666 
254.2 3.835686 
255.1 0.169978 
260.1 0.003323 
268.1 0.082845 
270.1 0.01997 
271.2 2.835239 
272.1 0.097215 
273.2 0.088305 
274.1 0.022959 
277.2 0.017619 
278.2 0.104927 
283.3 0.008721 
287.9 0.034926 
289.2 0.63588 
290.1 0.044377 
291.0 0.025412 
295.3 0.712026 
296.2 0.397391 
302.1 0.01156 
304.2 0.04974 
313.2 2.055579 
314.3 0.041266 
321.3 1.01781 
322.2 100.0 
322.2 0.000255 
323.2 0.765403 
330.1 0.022069 
331.2 0.509178 
332.3 0.005248 
363.2 0.061853 
371.1 0.014176 
381.2 0.066984 
382.1 0.005271 
394.3 0.025991 
396.0 0.0061 
399.3 0.152869 
401.0 0.012312 
408.4 0.022173 
412.4 0.466318 
413.2 18.082585 
414.1 0.239583 
417.2 0.041577 
429.3 1.322844 
430.2 44.916285 
431.1 1.362228 
431.8 0.006049 
432.7 0.054669 
434.4 0.010825 
436.8 0.032167 
447.2 0.383554 
448.1 12.023357 
449.1 0.575789 
450.7 0.040389 
481.6 0.013388 
490.7 0.004832 
497.3 0.00634 
END IONS

