BEGIN IONS
PEPMASS=544.0
CHARGE=1+
COMPOUNDNAME=Massbank:KO002718 Doxorubicin|Adriamycin
LIBRARYQUALITY=3
SMILES=c(c43)(C[C@](C(=O)CO)(C[C@@H]4OC(C5)O[C@@H](C)[C@@H](O)[C@@H](N)5)O)c(O)c(c1c(O)3)c(c(c2)c(c(OC)cc2)c1=O)=O
INCHIKEY=AOJJSUZBOXZQNB-DCBNVMRFSA-N
INCHI=1S/C27H29NO11/c1-10-22(31)13(28)6-17(38-10)39-15-8-27(36,16(30)9-29)7-12-19(15)26(35)21-20(24(12)33)23(32)11-4-3-5-14(37-2)18(11)25(21)34/h3-5,10,13,15,17,22,29,31,33,35-36H,6-9,28H2,1-2H3
MSLEVEL=2
SOURCE_INSTRUMENT=ESI-LC-ESI-QQ
FILENAME=Massbank_ESI_positive_8_1_2014_peaks.mgf
SEQ=*..*
IONMODE=Positive
ORGANISM=MASSBANK
NAME=Massbank:KO002718 Doxorubicin|Adriamycin [M+H]+
PI=Putative Massbank Match
DATACOLLECTOR=Massbank
PUBMED=N/A
SUBMITUSER=mwang87
TAGS=
SPECTRUMID=CCMSLIB00000217937
SCANS=8520
69.0 252475.5 
72.1 435644.0 
84.0 44554.5 
85.9 1034654.5 
95.1 94059.5 
112.6 178218.0 
113.4 841585.0 
130.0 2158418.0 
148.9 19802.0 
214.5 34653.5 
321.6 1559407.5 
333.3 44554.5 
351.6 29703.0 
361.5 3014854.5 
379.5 2519804.5 
380.4 34653.5 
395.2 9901.0 
397.3 915842.5 
END IONS

