BEGIN IONS
PEPMASS=279.155
CHARGE=1+
COMPOUNDNAME=Lotaustralin
LIBRARYQUALITY=3
SMILES=N/A
INCHIKEY=WEWBWVMTOYUPHH-GXUZYPEDSA-N
INCHI=InChI=1S/C11H19NO6/c1-3-11(2,5-12)18-10-9(16)8(15)7(14)6(4-13)17-10/h6-10,13-16H,3-4H2,1-2H3/t6-,7-,8+,9-,10+,11?/m1/s1
MSLEVEL=2
SOURCE_INSTRUMENT=N/A-ESI-QFT
FILENAME=library_mgf.mgf
SEQ=*..*
IONMODE=positive
ORGANISM=MONA
NAME=Lotaustralin [M+NH4]+
PI=MoNA
DATACOLLECTOR=MoNA:VF-NPL-QEHF007870
PUBMED=N/A
SUBMITUSER=mwang87
TAGS=
SPECTRUMID=CCMSLIB00004698933
SCANS=7870
50.056278 0.02824 
50.604935 0.028279 
51.335529 0.102695 
51.52544 0.059734 
51.603142 0.026869 
52.991753 0.030814 
53.00296 0.032439 
53.039368 0.473219 
54.273556 0.033251 
54.349419 0.041182 
55.018612 2.141811 
55.054993 3.424971 
55.718056 0.029887 
56.050289 0.078219 
56.129608 0.026482 
56.476879 0.064839 
56.965611 1.010336 
57.034248 3.345927 
57.070641 13.897521 
57.920456 0.107847 
58.037724 0.032334 
58.065853 0.352662 
58.074001 0.525742 
58.184299 0.053702 
58.413509 0.031437 
58.728054 0.099113 
59.049858 1.479759 
59.434818 0.030254 
59.591385 0.093525 
59.637665 0.107458 
60.081604 0.044175 
60.861073 0.02586 
61.011383 16.175121 
61.02916 7.751691 
62.010769 0.19606 
62.014748 0.810666 
62.019192 0.372292 
62.060749 0.207578 
62.320595 0.028359 
62.513752 0.103427 
62.982479 0.096643 
63.007179 3.001127 
63.027058 0.539476 
63.029362 0.111774 
63.72908 0.030752 
65.136642 0.030819 
65.292549 0.024584 
65.39743 0.027348 
65.722191 0.063219 
65.911522 0.100362 
66.096382 0.029413 
66.422798 0.031508 
67.054909 7.261915 
67.874405 0.026509 
68.058151 0.13021 
69.034187 10.077274 
69.070549 5.769341 
70.037537 0.031363 
70.065842 0.592368 
70.073845 0.037325 
70.415367 0.023933 
71.049805 3.296666 
71.086182 15.056422 
72.045105 0.033829 
72.081429 0.163304 
72.089539 1.184575 
73.029068 5.121096 
73.031387 0.036415 
73.047523 0.056877 
73.06543 13.130693 
73.311485 0.032398 
73.370537 0.030877 
74.060677 0.453262 
74.275993 0.033929 
76.040031 0.059138 
76.424049 0.027265 
76.550354 0.037221 
76.934242 0.027844 
79.021812 4.37197 
79.054779 2.170098 
80.050034 0.080393 
80.57196 0.025892 
81.017746 0.078909 
81.034081 3.839924 
81.07045 12.525528 
81.073006 0.162139 
81.645233 0.030106 
81.781418 0.032426 
82.065582 0.024444 
82.073822 0.53762 
82.337814 0.025067 
82.392014 0.026539 
83.049721 1.249306 
83.08606 4.742617 
83.849174 0.033639 
84.042709 0.034111 
84.044945 0.13998 
84.081352 0.112691 
84.089333 0.025639 
84.96032 0.105913 
84.973976 0.026358 
85.028946 100.0 
85.065376 1.409517 
85.101738 7.690419 
86.032249 3.521333 
86.060577 0.995029 
86.09684 0.412642 
86.105049 0.489686 
87.044571 5.925332 
87.111847 0.030079 
88.076225 0.707345 
89.060226 24.037188 
90.063553 1.721068 
91.039474 9.001414 
91.054703 1.392145 
91.057838 1.678082 
92.043182 0.056465 
93.070351 4.534058 
94.073746 0.081135 
95.016304 0.029723 
95.049561 0.741991 
95.08596 12.918241 
96.089302 0.722655 
97.028839 23.485998 
97.03231 0.475379 
97.065277 1.697666 
97.101631 3.288885 
97.930611 0.02771 
98.032158 0.690303 
98.060455 2.689967 
98.096809 0.17519 
98.975754 2.595446 
99.044495 6.339208 
99.063751 0.187144 
99.080833 1.261268 
99.099686 0.027758 
99.447914 0.033843 
100.076088 1.02805 
101.003571 0.415716 
101.023705 0.295877 
101.060043 0.37398 
103.039307 1.220755 
103.075783 0.070545 
103.285645 0.110196 
104.074799 0.030716 
104.107399 0.10546 
104.992699 0.591819 
105.011894 0.10133 
105.070213 1.876999 
105.918045 0.030547 
106.086662 0.428953 
107.049461 1.085142 
107.070564 1.086575 
107.085838 4.884123 
107.967094 0.074035 
108.089279 0.09297 
108.542503 0.024863 
108.992683 0.028457 
109.028717 7.807303 
109.06514 0.771445 
109.101494 8.161775 
109.540443 0.028288 
110.031929 0.038047 
110.104874 0.219176 
110.453995 0.026809 
110.975807 0.229582 
111.044281 0.469181 
111.080757 1.092707 
111.117157 0.381909 
112.075974 0.11596 
113.059967 0.109131 
113.096359 0.357768 
113.252136 0.059905 
114.01693 1.213546 
114.055275 0.030057 
114.091591 0.722718 
114.518974 0.033771 
115.039215 1.602552 
115.075478 0.031773 
115.322861 0.035522 
116.005463 0.520774 
116.02829 0.101406 
116.070831 0.75793 
116.986145 2.62755 
117.055405 0.122689 
117.069969 0.216582 
117.102486 1.536124 
117.321693 0.031917 
118.086609 0.343311 
119.00132 0.034595 
119.049294 0.074324 
119.085739 2.622248 
120.080971 0.525777 
120.088684 0.06183 
121.028587 0.03074 
121.064896 0.356443 
121.101364 4.916754 
122.104668 0.111897 
122.119598 0.033411 
123.021996 0.269089 
123.080566 1.036985 
123.11702 4.216284 
123.928665 1.656663 
124.075584 0.043288 
124.120178 0.038787 
125.060013 0.062845 
125.096367 0.670783 
125.386993 0.028594 
125.632584 0.027977 
125.926277 0.028786 
126.054985 0.03514 
126.091522 0.088356 
126.682899 0.024229 
127.039116 29.815489 
127.0755 0.68017 
127.11158 0.066628 
127.910164 0.030861 
128.04248 1.449658 
128.070908 0.160134 
128.107025 0.566584 
128.933655 0.433652 
128.986115 1.23681 
129.054642 0.052842 
129.633499 0.056495 
130.086151 0.073319 
131.001663 0.911289 
131.085663 1.403291 
132.081055 0.034946 
133.017044 0.098895 
133.064972 0.168908 
133.085953 1.739062 
133.101242 2.742837 
134.096863 0.02975 
134.104385 0.03501 
134.978729 0.776648 
134.99649 1.478242 
135.002365 0.206654 
135.044128 0.176783 
135.080505 1.709599 
135.116867 3.766602 
135.195877 0.032491 
136.075836 0.394477 
136.112076 0.276436 
136.120117 0.238511 
136.920074 0.16174 
137.011917 0.141207 
137.059784 0.096057 
137.096115 0.998898 
137.132523 1.893509 
137.142685 0.027367 
137.516785 0.024467 
138.35968 0.033006 
138.915665 5.794598 
139.008636 0.0345 
139.039093 0.077914 
139.050537 0.033858 
139.075439 0.092625 
139.111832 0.305923 
139.918137 0.027817 
139.923477 2.19925 
140.02298 0.499197 
140.106842 0.03815 
140.912827 0.428699 
140.985962 0.129412 
141.070145 0.023956 
141.090958 0.118674 
141.127304 0.067345 
141.920578 0.030098 
141.939087 0.258369 
141.9767 0.031075 
142.685272 0.037336 
142.948776 0.072092 
143.001572 1.847546 
143.006973 0.030519 
143.033188 0.052177 
143.085663 0.036868 
144.065506 0.035683 
145.049545 32.546196 
145.101212 1.28772 
146.022949 0.291579 
146.052887 1.942912 
146.059586 0.105209 
146.414566 0.060666 
146.99646 1.805292 
147.032593 0.187306 
147.044006 0.032187 
147.080505 0.194307 
147.091629 0.036246 
147.11676 2.414842 
148.11998 0.067131 
149.012466 4.322666 
149.023254 12.126027 
149.059586 0.065272 
149.096191 1.008065 
149.132492 2.622814 
149.954147 0.030221 
150.026672 0.551192 
150.055161 0.032841 
151.027512 0.040524 
151.075851 0.035282 
151.096497 0.939826 
151.111786 0.674037 
151.148193 0.480528 
151.943604 3.009737 
151.970337 0.043787 
152.023056 0.825084 
152.100052 0.040203 
152.106735 0.124929 
152.989502 1.326638 
153.006317 0.085412 
153.018204 0.815913 
153.03064 0.043922 
153.090775 0.031386 
153.127396 0.387751 
153.939087 27.719791 
154.086639 0.029576 
154.721191 0.033047 
154.931412 0.087768 
154.939011 0.722691 
155.02211 0.080036 
155.028168 0.067351 
155.046326 0.123272 
155.36084 0.033639 
155.936325 3.75443 
155.954681 1.899905 
156.138382 0.860951 
156.926208 3.675308 
156.944275 0.220978 
156.965332 0.95526 
157.018219 0.068996 
157.04985 0.036764 
157.071747 0.026978 
157.952057 0.339573 
158.923431 0.225263 
158.94455 1.189024 
158.953506 9.513377 
158.961166 0.280345 
158.990082 0.0367 
158.996414 2.050961 
159.065033 0.178713 
159.116806 0.849142 
159.951935 0.26298 
160.02034 0.189561 
160.951675 4.328506 
161.0121 2.922679 
161.028214 0.506798 
161.096252 0.127005 
161.132416 1.61196 
161.156754 0.029738 
162.396896 0.115745 
162.990311 0.088748 
163.02774 0.187 
163.060104 2.163824 
163.111694 0.390007 
163.148071 1.963287 
163.958817 0.442517 
164.115448 0.03266 
164.151718 0.063264 
164.310791 0.025559 
165.006989 0.069928 
165.06958 0.034575 
165.090729 0.058961 
165.12735 0.434556 
165.528458 0.078166 
165.938187 0.169526 
166.08638 0.345401 
167.02272 1.363988 
167.14325 0.09816 
168.944229 0.171416 
169.025772 0.180713 
169.621826 0.162096 
169.954132 2.957707 
170.944382 0.671254 
170.95192 0.231917 
170.978912 0.031547 
170.996307 2.035718 
171.063248 0.032029 
171.080872 0.030261 
171.116501 0.03401 
171.913193 0.042842 
171.9496 26.883369 
171.980774 0.035863 
172.949631 1.093838 
172.975494 0.999109 
173.078979 0.040263 
173.096436 0.033619 
173.132538 0.999909 
173.946838 3.900297 
173.978424 0.04489 
174.091873 0.119373 
174.148849 3.237968 
174.937073 0.038864 
174.954651 0.217375 
174.975479 2.647171 
175.027817 0.364216 
175.111526 0.108974 
175.147964 0.622385 
176.954712 1.108522 
176.989136 0.357902 
177.00705 2.095642 
177.043503 0.173184 
177.127396 0.402895 
177.163864 0.699412 
178.627213 0.751006 
178.985168 0.077278 
179.022598 0.205867 
179.129318 0.034771 
179.142883 0.048045 
179.179062 0.038645 
180.086792 0.355191 
180.961594 0.336801 
181.000504 0.295165 
181.158569 0.037172 
182.033539 1.766199 
182.531158 0.031646 
182.996353 0.135133 
183.032867 0.123519 
183.931915 0.33346 
183.948883 0.115275 
184.050064 0.030601 
185.048492 0.059856 
185.132324 0.106853 
185.931183 0.039091 
185.961548 0.817203 
186.954605 0.602647 
187.148285 0.75201 
187.632797 0.034813 
187.944824 0.281687 
187.958176 0.064885 
188.152512 0.025686 
188.954727 2.355817 
188.96315 0.03696 
188.988449 0.040798 
189.007004 1.441472 
189.043472 0.241893 
189.0914 0.029186 
189.163788 0.075482 
189.941574 0.068014 
190.123322 0.034781 
190.958923 0.034787 
191.00383 0.038093 
191.038788 0.582826 
191.142578 0.033705 
191.941635 0.034104 
194.999969 0.620849 
195.016769 0.059154 
195.538727 0.178973 
195.851562 0.132492 
197.048706 0.216444 
197.059341 0.080974 
197.960205 0.039754 
198.016174 0.198268 
198.954727 1.732189 
199.011917 0.481428 
199.623596 0.208351 
199.932022 1.465757 
199.942032 0.030682 
199.957336 0.806058 
200.955215 8.542932 
201.007187 2.47402 
201.04335 1.795241 
201.112091 1.067628 
201.163498 0.139683 
201.958817 0.046502 
202.158798 0.048612 
202.952621 1.103347 
203.058899 0.327383 
203.142868 0.039197 
203.179443 0.100111 
203.939758 0.536117 
205.158737 0.038285 
205.193787 0.030959 
205.987778 1.4873 
206.102005 0.033098 
206.977478 0.034701 
206.999893 0.423389 
207.017593 0.029808 
207.054016 0.181196 
208.133301 0.193384 
208.629456 0.242081 
209.015427 2.140922 
210.01976 0.03421 
213.043549 0.235371 
214.14151 0.342608 
214.649445 0.122157 
214.967926 0.114077 
215.059204 0.484098 
215.070419 0.143118 
215.518524 0.420605 
215.523529 0.415079 
215.534851 0.661826 
215.543442 0.303101 
215.947174 1.686007 
215.969833 1.169758 
216.026581 0.066727 
216.945557 0.037441 
216.964981 4.57906 
217.021545 0.052363 
217.195251 0.074347 
217.942459 17.651951 
217.968063 3.264205 
218.944077 0.547222 
218.965302 16.044628 
219.017502 9.097687 
219.054092 1.130485 
219.065506 0.037159 
219.17421 3.33202 
219.210403 0.098565 
219.901077 0.081588 
219.939621 2.554143 
219.966354 0.258052 
220.132111 0.039796 
220.169388 4.310488 
220.96257 1.180508 
220.973114 0.239458 
221.018539 0.35135 
221.032654 0.041482 
221.115555 0.12737 
221.173416 0.228964 
222.898575 2.676031 
223.075272 0.246085 
223.11116 0.033235 
223.980789 0.152383 
225.042953 0.035825 
225.054459 0.026939 
227.02565 0.033799 
228.195892 0.052798 
229.047623 0.031999 
231.701599 0.030326 
232.167236 0.02852 
233.225906 0.238341 
233.957581 0.127181 
234.18576 0.037511 
235.076126 0.417721 
235.952896 3.306259 
235.979813 0.158482 
236.082306 0.047525 
236.975403 0.533845 
236.990921 0.150813 
237.028091 12.701134 
237.065353 0.077633 
237.090103 0.044572 
237.949692 0.122084 
238.031387 0.037717 
239.901184 0.216473 
240.909073 5.165901 
242.21051 0.228437 
243.053665 0.036444 
243.064987 0.298998 
243.090393 0.914686 
243.210754 1.273386 
244.117722 0.038672 
244.213501 0.169089 
245.226257 1.176443 
246.028488 0.738924 
248.16217 1.218562 
249.090698 0.261442 
250.025009 0.032606 
250.061111 0.031164 
250.096436 0.041698 
251.004745 0.034796 
251.070145 0.833419 
251.106033 0.385428 
252.077774 0.123776 
253.049545 0.041325 
253.085648 0.211885 
253.122253 0.034051 
255.000595 0.029417 
255.038605 0.692498 
260.16452 0.047124 
260.200592 0.907053 
260.222443 0.032864 
260.237579 0.095225 
261.02771 0.118068 
261.100952 0.157414 
261.206421 0.079812 
261.220825 2.22635 
262.128998 0.167263 
262.180054 0.286421 
262.22467 0.032103 
263.070038 0.847061 
263.107819 0.036698 
263.177399 0.064484 
263.236969 0.905425 
263.901489 0.368308 
264.039551 0.661174 
264.07724 0.369881 
265.019867 0.451603 
265.049652 0.400468 
265.085571 0.869649 
265.990875 0.726498 
266.058136 0.078334 
266.09256 0.078196 
266.998932 2.223046 
268.978241 0.469782 
269.014587 0.166178 
273.064301 1.029989 
277.088226 0.398743 
277.10434 0.132522 
277.126495 1.476983 
277.177032 0.311638 
277.191528 0.034912 
277.227814 0.976549 
278.055878 0.103262 
278.093018 1.801794 
278.109161 0.130966 
278.129669 0.539139 
278.156067 0.131789 
278.173218 1.338655 
278.194946 0.122939 
278.210388 3.1659 
278.229889 0.176293 
278.247528 1.350717 
279.065399 2.378593 
279.101196 4.411312 
279.119385 0.252436 
279.135223 0.321515 
279.156128 0.653337 
279.1698 0.169277 
279.204315 19.447119 
279.242706 0.937843 
280.054443 0.030367 
280.072357 1.71947 
280.108185 1.120502 
280.151337 2.253775 
280.189301 2.491765 
280.207611 2.849611 
280.226746 1.143574 
280.263062 1.160276 
281.014404 0.501102 
281.051453 3.645697 
281.080353 2.750671 
281.098145 0.293082 
281.117126 1.107078 
281.135284 0.663312 
281.149445 0.37407 
281.171661 0.359685 
281.186981 0.109734 
281.294128 0.062053 
281.911774 4.815333 
282.913483 0.138732 
283.030182 16.506716 
284.152496 0.074605 
284.407562 0.02891 
285.009735 0.043027 
291.07486 1.351781 
294.87854 0.028307 
298.168549 0.307518 
299.061401 56.059464 
299.471527 0.098057 
299.523499 0.034475 
299.888885 0.03092 
300.07605 0.176432 
300.229706 0.058947 
304.174164 0.045258 
END IONS

