BEGIN IONS
PEPMASS=444.42
CHARGE=1+
COMPOUNDNAME=3-Epilupeol
LIBRARYQUALITY=3
SMILES=N/A
INCHIKEY=MQYXUWHLBZFQQO-ISZJTHHZSA-N
INCHI=InChI=1S/C30H50O/c1-19(2)20-11-14-27(5)17-18-29(7)21(25(20)27)9-10-23-28(6)15-13-24(31)26(3,4)22(28)12-16-30(23,29)8/h20-25,31H,1,9-18H2,2-8H3/t20-,21+,22-,23+,24+,25+,27+,28-,29+,30+/m0/s1
MSLEVEL=2
SOURCE_INSTRUMENT=N/A-ESI-QFT
FILENAME=library_mgf.mgf
SEQ=*..*
IONMODE=positive
ORGANISM=MONA
NAME=3-Epilupeol [M+NH4]+
PI=MoNA
DATACOLLECTOR=MoNA:VF-NPL-QEHF005658
PUBMED=N/A
SUBMITUSER=mwang87
TAGS=
SPECTRUMID=CCMSLIB00004696721
SCANS=5658
50.182392 0.036166 
50.688278 0.124587 
50.693371 0.07826 
51.061886 0.040411 
51.135807 0.035307 
51.19923 0.035899 
51.487324 0.055267 
51.822914 0.022254 
51.959396 0.080898 
52.640289 0.034306 
52.755283 0.027572 
53.003033 0.446293 
53.032349 0.023233 
53.033783 0.059387 
53.039364 2.121475 
53.371784 0.101329 
54.250767 0.058689 
54.282566 0.05343 
54.437077 0.051714 
54.46077 0.039884 
54.743946 0.035276 
55.018631 1.558105 
55.035416 0.060646 
55.053669 0.081238 
55.054996 22.568243 
56.050381 0.11047 
56.058311 0.648027 
56.641468 0.024281 
56.733818 0.088916 
56.965557 6.883547 
57.034275 3.390087 
57.070633 12.688993 
57.300652 0.040599 
57.53289 0.064294 
57.935646 0.032053 
57.956707 0.059001 
58.065849 0.438332 
58.067478 0.025233 
59.049892 10.973584 
59.061146 6.180721 
59.99099 1.742973 
60.034996 0.039308 
60.045059 0.239959 
60.053284 0.095859 
60.219498 0.038407 
61.011349 2.582617 
62.019245 1.186843 
62.134193 0.073738 
62.82761 0.07573 
62.982452 0.086371 
62.990448 0.289092 
64.157372 0.049058 
64.766602 0.02762 
64.828194 0.056001 
65.03933 1.668216 
67.054916 31.090635 
67.0839 0.025156 
68.058311 0.939538 
69.03418 1.60442 
69.070572 25.885662 
69.773682 0.072432 
70.065834 0.897823 
70.073868 0.70533 
70.813667 0.050209 
71.049828 29.660461 
71.086227 1.004652 
71.102005 0.092286 
71.269539 0.050334 
72.045181 0.029715 
72.053185 0.338431 
72.639633 0.090203 
73.029037 5.687037 
73.047424 7.81669 
73.165298 0.070552 
74.097115 0.495314 
74.931427 0.097739 
74.975922 0.042909 
75.026764 0.070097 
75.173721 0.056952 
75.398972 0.102454 
76.076309 0.071845 
76.124397 0.046319 
76.460045 0.04042 
76.697662 0.086547 
76.915359 0.102832 
77.039375 0.334074 
77.095268 0.055823 
77.135086 0.048355 
77.221039 0.027206 
78.300209 0.085403 
79.021713 4.171342 
79.054832 26.748518 
80.058205 0.844581 
80.599976 0.05464 
81.000793 0.028962 
81.03421 0.086663 
81.070473 64.783554 
81.258163 0.079456 
82.073822 4.099921 
82.137222 0.07951 
83.049683 3.304052 
83.086098 10.296773 
83.548454 0.032922 
84.081268 0.204744 
84.959999 0.060145 
85.040237 0.110285 
85.065353 10.075378 
86.097015 0.138178 
87.044571 6.085939 
87.18219 0.088813 
87.458176 0.06068 
88.022026 4.050152 
88.414444 0.040836 
88.627274 0.053675 
88.664032 0.082351 
89.060211 4.274214 
90.335907 0.024532 
90.475021 0.091081 
90.915245 0.042002 
91.054718 34.534859 
91.057877 32.07819 
92.057976 3.217993 
92.061111 0.026213 
92.149681 0.037777 
93.037216 1.097106 
93.070328 73.045395 
93.990196 0.093563 
94.073723 5.756329 
94.877991 0.088869 
95.049599 8.973881 
95.08596 80.274979 
96.089302 5.881889 
96.995636 0.086582 
97.065201 5.348345 
97.101585 2.711798 
98.023605 0.086243 
98.200516 0.039666 
98.623352 0.093598 
98.975777 1.308814 
99.044586 0.244954 
99.080772 0.067752 
100.413246 0.056007 
100.761009 0.025151 
101.597198 0.025838 
102.008652 0.023332 
102.383545 0.088318 
102.487091 0.051317 
103.03923 0.618402 
103.054642 0.974554 
104.233147 0.022446 
105.045151 1.106334 
105.070213 64.307251 
105.238708 0.024819 
105.316673 0.098755 
106.073624 5.186236 
106.49128 0.041055 
106.699196 0.080391 
106.778481 0.093126 
107.049484 0.518119 
107.085861 100.0 
107.090179 1.716544 
107.60257 0.039993 
108.089226 8.642489 
109.065071 10.154512 
109.097252 0.169959 
109.101456 42.949974 
109.105446 0.331795 
110.104782 3.927962 
110.537338 0.027678 
110.964737 0.059241 
111.080765 6.742842 
111.116882 0.066303 
113.059296 0.080462 
115.054588 1.049109 
116.053085 0.15636 
116.107254 0.086914 
116.986198 2.334979 
117.070091 9.430109 
117.102783 0.04652 
117.526413 0.079582 
118.073494 0.19117 
118.901718 0.081818 
119.04937 0.289665 
119.060669 0.547241 
119.085724 84.854507 
120.081306 0.103065 
120.089096 8.410004 
120.093353 0.48365 
121.064941 4.540484 
121.06942 0.049994 
121.101379 47.298374 
121.106262 0.300256 
122.104622 4.000665 
122.281174 0.104324 
123.080566 6.587679 
123.112068 0.067721 
123.116974 17.775576 
124.012123 0.076665 
124.120262 0.537036 
125.096031 0.392907 
128.062195 4.940964 
128.985992 0.059089 
129.069946 5.086705 
130.07782 0.819799 
131.085617 22.719419 
132.088882 1.585602 
133.064835 0.90752 
133.101212 67.431709 
133.849655 0.103993 
134.104538 6.732786 
134.996521 2.24032 
135.08049 4.00801 
135.116837 54.442188 
135.178925 0.053104 
135.70787 0.053283 
136.120239 6.214847 
136.964081 0.11656 
137.09613 4.556985 
137.132462 3.983827 
137.697495 0.090771 
137.970367 0.026598 
138.13562 0.027598 
139.11174 0.111261 
139.349335 0.028819 
140.469421 0.098527 
141.069763 0.861843 
141.146011 0.023801 
142.077744 2.74324 
142.149963 0.111722 
143.085541 17.589367 
143.483994 0.023301 
144.088348 0.288084 
144.093582 1.828506 
144.889557 0.102407 
144.95871 0.02591 
145.064911 0.308614 
145.101196 38.477222 
145.66597 0.041378 
146.10434 4.878036 
146.97438 0.878282 
146.996368 0.236573 
147.080322 7.875413 
147.11673 40.520267 
148.083267 0.102107 
148.120087 4.848138 
148.932159 0.092568 
149.012268 0.247754 
149.044861 1.032736 
149.096207 2.185948 
149.132507 18.231833 
149.409546 0.095742 
150.135956 1.123973 
151.111771 5.130471 
152.115921 0.093414 
152.988892 0.169002 
153.007217 0.284154 
153.069489 0.136107 
153.959656 0.02779 
154.847855 0.085699 
154.968369 0.136981 
155.000458 0.062838 
155.085495 3.937852 
156.093475 2.16581 
156.689835 0.09898 
157.017029 0.057018 
157.101212 18.116297 
158.103745 0.426004 
158.109619 0.108687 
158.319794 0.059614 
159.044037 0.5573 
159.080276 0.521139 
159.116806 33.819588 
160.119812 2.675022 
160.370575 0.062527 
161.09613 5.899117 
161.132462 25.762787 
161.139984 0.03917 
161.352509 0.049712 
162.135651 2.514917 
162.405411 0.090907 
162.948456 0.04556 
163.111603 1.456451 
163.148102 4.894172 
165.071243 0.083704 
165.079208 0.064484 
165.127274 0.181075 
165.13501 0.083448 
165.573318 0.054759 
165.802307 0.04044 
166.735001 0.091785 
167.055405 6.020799 
167.084671 0.054095 
168.093369 0.358271 
168.626434 0.100896 
168.913162 0.085678 
169.101166 5.12216 
170.109085 2.020244 
170.963318 1.862405 
171.044022 1.318862 
171.080322 2.725076 
171.116821 13.07921 
172.119858 0.307896 
172.124878 0.129806 
172.595337 0.086434 
172.943695 0.144842 
173.096054 0.573638 
173.132523 14.373808 
174.13559 0.328689 
174.972229 0.109687 
175.111542 2.467253 
175.148132 14.284151 
176.151306 0.562457 
177.12738 7.13487 
177.163666 0.819662 
177.400757 0.061744 
177.944687 0.092616 
179.84845 0.027131 
181.064941 0.126925 
181.101028 0.462487 
182.108856 0.240347 
183.116959 6.321054 
184.051758 1.155434 
184.125137 0.034711 
185.132446 12.520095 
186.13562 0.838992 
186.46434 0.090689 
186.979843 0.101319 
187.11174 0.781584 
187.148178 12.264844 
188.151581 0.359834 
188.974136 2.865367 
189.127228 0.393019 
189.163651 18.654757 
190.167068 1.382337 
190.954025 1.220187 
191.107132 0.037217 
191.143082 0.297384 
191.179276 0.130431 
192.891663 0.060492 
194.999603 0.950357 
195.11676 0.746294 
196.071503 0.085588 
196.124268 0.337152 
197.132538 6.080028 
199.039001 7.398553 
199.0755 4.273961 
199.148117 7.192407 
199.442856 0.040597 
200.042618 0.031402 
201.127228 0.954459 
201.163818 5.554224 
202.167709 0.077741 
203.143021 9.435264 
203.179489 3.126032 
203.976929 0.10599 
204.146759 0.397849 
206.926773 0.024269 
207.116669 0.111859 
207.174042 0.112341 
208.123672 0.138792 
208.964569 0.578094 
209.132477 0.956957 
211.148041 3.662605 
212.047012 0.250539 
212.154129 0.060486 
212.935913 0.15527 
213.010315 1.104388 
213.163742 4.927072 
213.824478 0.096006 
214.167221 0.149668 
214.951553 0.064202 
215.14299 0.196946 
215.179413 1.519829 
216.970093 0.085792 
217.158936 0.084563 
219.649002 0.092465 
220.103607 0.065421 
220.121628 0.860956 
220.130127 0.541304 
220.170334 0.039947 
221.133148 0.09429 
221.593246 0.091954 
222.836258 0.0824 
222.898956 0.069358 
223.14772 0.624177 
224.155563 0.12821 
224.936935 0.095401 
225.042801 4.502071 
225.126846 0.089138 
225.163391 1.297822 
226.167572 0.141536 
226.936661 0.042271 
227.022278 2.65203 
227.070221 6.827766 
227.179337 1.617569 
227.797073 0.089985 
227.935242 0.093726 
228.888931 0.034672 
229.19458 0.23786 
232.964539 0.621136 
235.81279 0.066654 
236.475769 0.073315 
237.163025 0.4489 
239.178955 0.819324 
240.910034 0.269641 
241.158524 0.047691 
241.194839 0.189919 
242.329895 0.038865 
245.961258 0.130156 
247.205933 0.090728 
248.847092 0.093664 
248.991074 0.315862 
250.975266 0.318307 
251.025482 0.054743 
251.178207 0.037079 
252.94986 0.201423 
253.154984 0.055118 
253.195053 1.255671 
255.211639 0.042619 
257.907562 0.043785 
258.917969 0.083608 
258.994995 0.057209 
262.904144 0.34964 
263.572327 0.100632 
263.902222 0.476487 
264.876984 0.093767 
265.193909 0.138712 
266.913116 1.94545 
267.211121 0.108971 
267.911072 1.701372 
268.908142 0.116728 
268.978668 0.240079 
272.976685 0.412263 
274.915894 0.106101 
277.005096 3.40186 
278.012848 0.21471 
279.210052 0.04142 
281.913055 0.046051 
282.887329 0.471204 
284.923615 0.201811 
288.254578 0.048769 
291.021973 0.052902 
291.947296 0.156641 
292.927399 0.068975 
294.683746 0.083904 
295.015991 0.084 
295.932739 0.08658 
298.601654 0.038009 
301.906677 0.030424 
308.882904 0.050374 
312.838104 0.068749 
322.268097 0.101573 
324.255798 0.093391 
325.091187 0.055968 
327.30603 0.105296 
329.39093 0.086992 
331.984772 0.043945 
342.057068 0.102023 
342.996521 1.262363 
346.10144 0.040375 
346.95517 0.760829 
346.977325 0.026969 
348.932983 0.094409 
352.706635 0.038707 
354.062012 0.056547 
356.830078 0.089559 
366.94519 0.231544 
376.196625 0.098724 
391.51651 0.092686 
417.77832 0.081654 
428.108459 0.029582 
435.444 0.043946 
440.449402 0.068146 
442.915497 0.107419 
445.823242 0.094039 
447.345551 0.608249 
465.54361 0.064745 
END IONS

