BEGIN IONS
PEPMASS=911.455
CHARGE=1+
COMPOUNDNAME=ABAMECTIN
LIBRARYQUALITY=3
SMILES=N/A
INCHIKEY=RRZXIRBKKLTSOM-XPNPUAGNSA-N
INCHI=InChI=1S/C48H72O14/c1-11-25(2)43-28(5)17-18-47(62-43)23-34-20-33(61-47)16-15-27(4)42(26(3)13-12-14-32-24-55-45-40(49)29(6)19-35(46(51)58-34)48(32,45)52)59-39-22-37(54-10)44(31(8)57-39)60-38-21-36(53-9)41(50)30(7)56-38/h12-15,17-19,25-26,28,30-31,33-45,49-50,52H,11,16,20-24H2,1-10H3/b13-12+,27-15+,32-14+/t25-,26-,28-,30-,31-,33+,34-,35-,36-,37-,38-,39-,40+,41-,42-,43+,44-,45+,47+,48+/m0/s1
MSLEVEL=2
SOURCE_INSTRUMENT=N/A-ESI-QFT
FILENAME=library_mgf.mgf
SEQ=*..*
IONMODE=positive
ORGANISM=MONA
NAME=ABAMECTIN [M+K]+
PI=MoNA
DATACOLLECTOR=MoNA:VF-NPL-QEHF028047
PUBMED=N/A
SUBMITUSER=mwang87
TAGS=
SPECTRUMID=CCMSLIB00004721628
SCANS=28047
63.445255 0.284279 
63.539684 0.478544 
64.102272 0.48263 
65.038666 3.39107 
65.792404 0.2907 
65.974663 0.13762 
65.981316 0.575196 
66.803589 0.285536 
66.834938 0.410199 
67.054314 81.267281 
67.11248 0.602255 
67.528786 0.104479 
67.817238 0.263545 
67.993401 0.063669 
69.026688 0.486968 
69.033554 100.0 
69.069939 5.94085 
69.092278 0.422831 
70.036797 0.072099 
70.385155 0.165149 
70.75856 0.40755 
70.944885 0.37439 
71.049149 15.008133 
71.308937 0.115561 
71.424461 0.438523 
71.43589 0.650396 
71.983841 0.381587 
72.27961 0.504394 
72.767258 0.060517 
72.796036 0.481527 
73.046783 7.919973 
73.064789 10.719491 
74.030304 0.237176 
74.055649 0.082976 
75.504807 0.492037 
75.983086 0.637303 
76.28437 0.079276 
76.611618 0.597407 
77.319313 0.300708 
78.109009 0.138096 
78.178421 0.210714 
78.299927 0.319588 
78.531776 0.175874 
79.054222 19.653698 
80.554649 0.063964 
81.069862 72.13723 
81.372116 0.401189 
81.56398 0.502177 
82.073349 0.1535 
83.048889 0.197402 
83.085442 0.083023 
83.415939 0.331818 
83.622009 0.506627 
84.787285 0.516553 
84.894653 0.154748 
84.993065 0.547308 
85.064774 11.601806 
85.290535 0.220366 
86.011841 0.083129 
86.418159 0.324338 
87.044029 18.164545 
87.145638 0.365864 
87.542625 0.53179 
88.125618 0.25252 
88.63018 0.282099 
88.765755 0.148314 
89.129547 0.14598 
89.232712 0.155046 
89.274628 0.262996 
89.278824 0.253751 
89.578033 0.567013 
89.801903 0.786027 
89.890671 0.274785 
90.377602 0.07255 
90.816605 0.155576 
90.927635 0.51653 
91.054199 10.187466 
91.05735 10.790685 
91.544563 0.427298 
91.592461 0.194637 
93.069832 15.457485 
94.054283 0.627124 
94.791481 0.335691 
94.919777 0.09303 
95.04911 81.577965 
95.085464 10.184266 
95.310432 0.467342 
96.105705 0.092823 
96.916138 0.559591 
96.992775 0.154756 
97.064812 2.949302 
98.244087 0.379826 
98.953148 0.5214 
99.267975 0.116247 
100.158936 0.492401 
100.512604 0.580657 
100.681084 0.118851 
101.059814 0.213798 
103.412598 0.155977 
104.190598 0.228322 
104.842331 0.597328 
104.966858 0.181191 
105.069862 5.306119 
105.111107 0.13616 
105.957504 0.345222 
107.085487 4.626249 
108.627235 0.389314 
109.064758 10.573521 
109.101143 19.054649 
109.106033 0.114413 
110.084236 0.618929 
110.936928 0.224391 
111.685516 0.528774 
112.604073 0.059764 
113.059677 21.748165 
114.408203 0.601726 
114.947159 0.338152 
115.096024 0.319134 
115.33326 0.143444 
115.871124 0.455897 
116.145798 0.073782 
116.461388 0.220186 
117.069847 0.098505 
117.86351 0.442991 
118.457962 0.381802 
119.085449 0.861018 
121.064796 0.099095 
121.101341 0.118325 
121.462929 0.361427 
121.892227 0.085928 
122.019615 0.475193 
122.563477 0.330956 
123.080605 0.07081 
123.116783 51.455734 
123.706779 0.162658 
124.120094 0.512095 
124.617905 0.399198 
126.929825 0.592741 
127.075165 0.090573 
128.061218 0.372233 
128.241257 0.2765 
128.603867 0.444756 
128.98613 0.347548 
130.463821 0.058807 
130.886459 0.666176 
131.033325 0.48608 
131.690826 0.210559 
131.949341 0.5123 
132.807083 0.093125 
133.100983 0.423146 
133.222473 0.298796 
135.160278 0.479686 
139.865265 0.164823 
143.085419 0.168619 
144.59198 0.146497 
145.860229 0.556312 
147.895233 0.199725 
148.454041 0.266429 
151.11171 1.290357 
154.018845 0.389702 
154.573776 0.412152 
155.019211 0.563634 
155.673218 0.214865 
155.96138 0.061109 
156.99469 0.486662 
163.10643 0.109511 
166.623322 0.26188 
167.055099 0.202976 
168.945953 0.223807 
170.535568 0.106626 
171.025452 0.229152 
174.512405 0.158057 
176.000015 0.472703 
176.049911 0.529125 
176.062759 0.064983 
177.038742 0.059157 
177.826782 0.476556 
178.329468 0.141753 
179.19696 0.500057 
181.984116 0.240352 
182.647476 0.063819 
184.131607 0.487118 
187.569305 0.263393 
189.785614 0.368316 
193.734589 0.171285 
197.71138 0.358488 
197.826279 0.294994 
201.970108 0.558113 
203.351944 0.638146 
205.561813 0.459438 
205.999969 0.328488 
206.046707 0.38765 
206.495773 0.153379 
208.95874 0.108769 
211.41687 0.266778 
214.826477 0.232328 
215.299103 0.610667 
218.247986 0.05782 
219.769653 4.986879 
219.793564 0.167184 
219.805222 0.380583 
220.481094 0.116066 
225.00679 0.385929 
225.042831 0.903189 
225.721008 0.291818 
229.293045 0.354744 
229.502075 0.491178 
229.896347 0.11465 
232.711945 0.754691 
234.715088 0.554765 
240.908752 0.067617 
241.746506 0.391734 
250.500595 0.409815 
251.936493 0.597958 
257.929932 0.484161 
258.104248 0.112722 
259.308746 0.320653 
261.051636 0.63842 
263.478638 0.462133 
269.475677 0.06088 
274.090118 0.505923 
274.934784 0.128771 
275.680206 0.535373 
278.377899 0.56493 
280.516693 0.145512 
280.538879 0.170757 
281.185272 0.343292 
283.700562 0.591371 
285.066071 0.354321 
291.719299 0.563605 
308.112823 0.152447 
309.501953 0.42711 
312.105316 0.56398 
313.404236 0.602933 
323.789825 0.279002 
339.857635 0.094889 
343.46637 0.061844 
347.85498 0.09526 
352.686981 0.106405 
356.234192 0.699076 
357.996613 0.447485 
360.424713 0.298179 
366.52002 0.172255 
368.108337 0.666192 
373.900208 0.481251 
379.45755 0.653122 
379.621704 0.068432 
380.054138 0.218181 
381.747864 0.250901 
390.427582 0.547443 
392.405426 0.349941 
400.817474 0.542466 
404.186981 0.094742 
409.059479 0.253739 
421.44696 0.295818 
427.99411 0.649107 
449.862396 0.071249 
450.20636 0.356802 
462.676453 0.206466 
466.398804 0.433784 
469.424255 0.297152 
474.070557 0.514229 
484.64917 0.720767 
490.841278 0.372083 
505.545105 0.157445 
509.261353 0.47574 
516.942444 0.735209 
541.089233 0.602875 
555.900452 0.283162 
563.514465 0.496859 
569.79425 0.678142 
573.566101 0.539423 
576.107117 0.515082 
577.913208 0.580597 
580.070251 0.287361 
580.280823 0.078616 
581.775208 0.281546 
585.50238 0.104046 
592.577209 0.090315 
596.544128 0.102547 
617.068909 0.190231 
618.100708 0.091679 
625.612061 0.497988 
628.800049 0.390675 
631.194214 0.276388 
650.302368 0.516556 
651.392517 0.601467 
655.601318 0.561075 
656.449585 0.072536 
663.469482 0.695506 
691.972412 0.177515 
699.03241 0.629554 
725.484192 0.762237 
737.299255 0.327323 
753.977173 0.660746 
764.959656 0.160725 
793.87146 0.180635 
807.861877 0.076574 
816.447632 0.400225 
841.225403 0.468782 
842.089966 0.15798 
853.830872 0.519929 
899.304932 0.284075 
911.60791 0.092623 
941.091919 0.157079 
942.146851 0.170976 
949.439026 0.424396 
END IONS

