BEGIN IONS
PEPMASS=174.088
CHARGE=1+
COMPOUNDNAME=Citrulline
LIBRARYQUALITY=3
SMILES=N/A
INCHIKEY=RHGKLRLOHDJJDR-BYPYZUCNSA-N
INCHI=InChI=1S/C6H13N3O3/c7-4(5(10)11)2-1-3-9-6(8)12/h4H,1-3,7H2,(H,10,11)(H3,8,9,12)/t4-/m0/s1
MSLEVEL=2
SOURCE_INSTRUMENT=N/A-ESI-QFT
FILENAME=library_mgf.mgf
SEQ=*..*
IONMODE=negative
ORGANISM=MONA
NAME=Citrulline [M-H]-
PI=MoNA
DATACOLLECTOR=MoNA:VF-NPL-QEHF026464
PUBMED=N/A
SUBMITUSER=mwang87
TAGS=
SPECTRUMID=CCMSLIB00004717886
SCANS=26464
50.718029 0.003198 
50.855385 0.003996 
51.371208 0.002718 
51.927917 0.003159 
51.959785 0.003717 
53.417122 0.003941 
53.788456 0.003037 
54.480762 0.003671 
54.600838 0.003215 
54.799973 0.002915 
55.051788 0.003365 
55.500759 0.003086 
56.584152 0.003531 
57.033245 0.003329 
57.130764 0.002668 
57.920372 0.004222 
58.406189 0.003636 
58.917046 0.004426 
59.012451 0.228902 
59.023571 0.003867 
59.408581 0.003167 
60.218002 0.003237 
60.529263 0.003151 
60.761803 0.003179 
61.525169 0.00301 
61.986973 2.990481 
63.061226 0.002786 
63.490326 0.003205 
64.795677 0.002892 
65.314072 0.003662 
65.645882 0.004066 
66.34774 0.002704 
66.494118 0.003324 
66.702988 0.004137 
67.477486 0.003149 
68.172356 0.00356 
68.566795 0.003937 
68.679176 0.002966 
68.801811 0.0032 
68.932083 0.003648 
69.005745 0.003868 
69.35743 0.003898 
70.034286 0.003379 
70.59613 0.003052 
70.966629 0.004175 
70.970947 0.004207 
71.012627 0.012428 
71.04892 0.00337 
71.355736 0.002749 
71.39032 0.002875 
71.45195 0.003619 
72.332283 0.002883 
72.650703 0.003062 
73.02813 0.004605 
73.548927 0.003683 
74.167976 0.003288 
75.29734 0.003227 
76.341888 0.00434 
77.311455 0.002802 
78.125053 0.003899 
79.331558 0.003319 
79.834816 0.003938 
80.081825 0.003348 
81.026283 0.00415 
81.11554 0.003214 
81.192085 0.002879 
81.230621 0.003838 
81.765495 0.004021 
83.06015 0.043327 
84.061836 0.003927 
84.470299 0.004131 
85.075821 0.008203 
85.452095 0.003858 
85.83522 0.003319 
86.798302 0.004047 
87.454277 0.005064 
88.416862 0.002905 
88.635971 0.003718 
89.023109 0.2841 
89.340919 0.00373 
89.810539 0.002918 
89.924347 0.038977 
90.026489 0.024249 
90.932159 0.046797 
91.020767 0.279423 
91.939293 0.004628 
93.245407 0.00276 
93.946045 0.00398 
95.535446 0.003371 
95.95697 0.003397 
96.364891 0.003773 
97.064308 0.003334 
99.000053 0.003944 
99.9245 0.145182 
100.844467 0.0035 
100.924797 0.004193 
101.059425 0.021811 
102.028137 0.003087 
102.931831 0.003985 
104.494781 0.003584 
105.395828 0.003334 
105.478889 0.003775 
106.92691 0.003709 
107.543251 0.003749 
108.66993 0.004047 
108.903885 0.003486 
111.043549 0.004341 
111.080269 0.604071 
112.083649 0.011879 
113.070801 0.089661 
113.939835 0.003726 
114.054794 0.207307 
114.442352 0.004399 
114.922882 0.040309 
115.919411 0.065253 
116.920204 0.004023 
116.927322 0.043208 
119.955933 0.004254 
124.084076 0.004052 
127.111809 0.226271 
128.79425 0.003915 
129.090897 0.218423 
130.092972 0.004299 
130.914383 0.003619 
130.954422 0.104652 
130.962814 0.003514 
131.07222 0.499114 
131.08139 100.0 
131.495193 0.00454 
132.078629 0.707109 
132.084641 5.091352 
132.090393 0.03585 
133.085831 0.187422 
134.700211 0.003668 
136.322433 0.004107 
140.419785 0.004081 
142.133896 0.004164 
142.897018 0.462922 
143.897827 0.772681 
144.896667 0.792364 
145.897919 0.326722 
149.791473 0.003496 
151.131042 0.003751 
154.470306 0.004042 
154.946213 0.4349 
157.060928 0.260837 
159.108047 0.003982 
159.808548 0.00385 
159.883438 0.003667 
160.493729 0.003491 
161.960464 0.008282 
161.969147 0.003006 
163.286377 0.003622 
166.230164 0.004219 
166.592926 0.003869 
168.227112 0.003838 
171.098221 0.00421 
172.105072 0.045754 
172.141769 0.071531 
172.593185 0.003488 
172.829651 0.074925 
172.90773 0.350175 
172.957062 0.009231 
172.965149 0.003804 
172.990509 0.017135 
173.081116 0.374129 
173.11731 0.348975 
173.555237 0.004043 
173.908585 0.60558 
174.087524 0.598965 
174.121658 0.003206 
174.827316 0.022079 
174.860168 0.008528 
174.907349 0.631524 
175.060516 0.004453 
175.096802 0.111016 
175.908859 0.288403 
178.218246 0.003213 
181.390839 0.003633 
184.602478 0.003724 
185.543182 0.004979 
193.483719 0.003473 
END IONS

