BEGIN IONS
TITLE=Scan Number: 291
PEPMASS=297.134
CHARGE=1+
COMPOUNDNAME=Deoxynivalenol
LIBRARYQUALITY=3
SMILES=CC1=CC2C(C(C1=O)O)(C3(CC(C(C34CO4)O2)O)C)CO
INCHIKEY=LINOMUASTDIRTM-UHFFFAOYSA-N
INCHI=
MSLEVEL=2
SOURCE_INSTRUMENT=LC-ESI-Orbitrap
FILENAME=f.rmenezes/MS2_spectra/140717_RM_DON_2ul_ms2.mzXML;
SEQ=*..*
NOTES=
IONMODE=Positive
ORGANISM=GNPS-LIBRARY
NAME=Deoxynivalenol M+H
SPECTRUMID=CCMSLIB00004681484
ACTIVATION=CID
INSTRUMENT=ion trap
SCANS=291
96.876442 3800.863525 
105.34774 4117.692871 
121.544075 3800.411133 
125.970894 4617.751953 
133.480957 3858.98291 
162.480179 4492.617676 
181.843033 4011.258545 
188.739502 7498.037109 
193.333084 4423.493164 
193.399261 4661.152832 
196.208359 4439.226074 
203.107178 13398.662109 
211.005554 4433.100098 
219.101212 11093.553711 
231.101562 24959.816406 
249.112244 67586.085938 
251.129562 7382.081543 
261.111938 18905.994141 
263.52536 4866.761719 
267.123199 5222.32373 
274.479065 4265.44873 
279.121552 9418.200195 
291.391357 6788.734863 
298.741943 63732.21875 
END IONS

