BEGIN IONS
PEPMASS=465.349
CHARGE=1+
COMPOUNDNAME=3-Epilupeol
LIBRARYQUALITY=3
SMILES=N/A
INCHIKEY=MQYXUWHLBZFQQO-ISZJTHHZSA-N
INCHI=InChI=1S/C30H50O/c1-19(2)20-11-14-27(5)17-18-29(7)21(25(20)27)9-10-23-28(6)15-13-24(31)26(3,4)22(28)12-16-30(23,29)8/h20-25,31H,1,9-18H2,2-8H3/t20-,21+,22-,23+,24+,25+,27+,28-,29+,30+/m0/s1
MSLEVEL=2
SOURCE_INSTRUMENT=N/A-ESI-QFT
FILENAME=library_mgf.mgf
SEQ=*..*
IONMODE=positive
ORGANISM=MONA
NAME=3-Epilupeol [M+K]+
PI=MoNA
DATACOLLECTOR=MoNA:VF-NPL-QEHF005653
PUBMED=N/A
SUBMITUSER=mwang87
TAGS=
SPECTRUMID=CCMSLIB00004696716
SCANS=5653
50.384167 0.010205 
50.52755 0.010735 
50.994884 0.012012 
51.671192 0.012993 
51.771271 0.011547 
53.329868 0.010919 
53.493488 0.00994 
53.546883 0.011061 
53.765137 0.011051 
54.214287 0.009959 
54.282757 0.01402 
54.364182 0.011561 
55.023521 0.011264 
55.054977 0.742582 
55.139984 0.012732 
55.379696 0.010676 
55.406235 0.010863 
55.492897 0.012793 
56.050217 0.096005 
56.632729 0.011839 
56.703342 0.011028 
56.965576 0.026875 
57.034229 0.311126 
57.042042 0.01427 
57.070637 6.405582 
57.0723 0.03708 
58.065823 0.083826 
58.073975 0.099566 
58.467266 0.01204 
58.947567 0.011385 
59.049866 0.334339 
59.061047 0.390519 
59.258259 0.010859 
59.85783 0.011195 
59.990982 0.156737 
60.045109 0.315026 
60.188931 0.011468 
60.721367 0.010429 
61.011326 0.701002 
61.029137 0.021173 
61.320423 0.01161 
61.982246 0.013248 
62.01915 0.153156 
62.060715 0.139317 
62.851398 0.009189 
62.982399 0.035978 
63.27652 0.009333 
63.615402 0.011401 
63.998428 0.014607 
64.07476 0.01055 
65.638367 0.012056 
66.359711 0.011863 
66.476814 0.01189 
66.90966 0.009097 
66.91143 0.012341 
66.937317 0.012634 
67.054909 1.659917 
67.419029 0.010047 
67.770691 0.01067 
67.796143 0.00952 
68.091049 0.010729 
68.336929 0.01203 
69.034157 0.264228 
69.070549 1.514573 
69.395241 0.013363 
69.469017 0.010463 
70.06575 0.179693 
70.903206 0.012858 
71.049782 0.652178 
71.086205 3.442783 
71.387558 0.012181 
71.638885 0.010787 
72.045021 0.217648 
72.081436 0.091145 
72.089546 0.037857 
72.271713 0.012198 
72.572533 0.010046 
73.029015 0.761268 
73.047401 0.221243 
73.065453 0.279439 
73.279434 0.010815 
74.060677 0.039144 
74.097054 1.23214 
74.504669 0.010649 
74.960724 0.014076 
75.044731 0.034479 
75.898148 0.009151 
76.07621 0.303966 
76.373795 0.013183 
77.386604 0.010631 
78.379555 0.011781 
79.021805 2.970392 
79.05484 0.393898 
80.054977 0.25842 
80.177139 0.010739 
80.597969 0.015658 
80.948425 0.819337 
81.034035 0.014119 
81.070473 2.69653 
81.0728 0.017071 
81.120453 0.010306 
81.456207 0.011749 
82.073715 0.041422 
82.293076 0.015051 
82.849152 0.013387 
83.049637 0.472984 
83.083496 0.013716 
83.086098 1.563095 
83.128525 0.012321 
83.937912 0.011796 
84.081261 0.033704 
84.326927 0.011696 
84.941368 0.009916 
85.0289 0.630014 
85.065285 0.507847 
85.101707 2.729458 
85.540855 0.010588 
85.637939 0.011838 
86.060501 0.083592 
86.096939 0.381036 
86.104858 0.032563 
86.467606 0.011051 
87.044579 1.780459 
88.022034 0.048678 
88.047905 0.034227 
88.052727 0.01267 
88.076157 0.083118 
89.060226 5.257313 
89.182755 0.012156 
90.063614 0.065835 
91.054741 0.490571 
91.057816 2.320919 
92.057434 0.155455 
92.060997 0.0406 
92.431938 0.010595 
92.482468 0.011535 
93.03727 0.822239 
93.054672 0.027034 
93.070312 1.014666 
94.06559 0.011139 
94.073395 0.01149 
94.996857 0.013526 
95.049515 0.26483 
95.085968 3.570578 
95.212425 0.010615 
96.089371 0.080581 
96.922073 0.110461 
97.028793 0.012878 
97.065186 0.536735 
97.101578 0.971136 
97.463821 0.010325 
97.665314 0.011187 
97.844215 0.012821 
98.096809 0.950169 
98.919136 0.01267 
98.975769 0.031203 
99.044449 0.465043 
99.080811 0.362322 
99.117157 0.275837 
100.076065 1.011843 
100.112259 0.055435 
101.003433 0.465964 
101.026772 0.011279 
101.060043 0.258243 
102.067886 0.227022 
102.091324 0.017691 
102.917908 0.012559 
103.039162 0.086259 
103.075775 0.015619 
104.001427 0.014915 
104.107376 0.033563 
104.682144 0.012475 
104.992477 0.072804 
105.03373 0.013062 
105.070175 0.840589 
105.0737 0.012898 
106.050133 0.019033 
106.077126 0.012035 
106.086487 0.279326 
107.049294 0.02564 
107.070549 0.17379 
107.085838 1.659357 
107.89753 0.010236 
107.96685 0.012735 
108.089104 0.037307 
108.251045 0.013475 
108.458488 0.012873 
108.709007 0.012194 
109.064972 0.365005 
109.101456 3.866066 
109.193199 0.013137 
110.060478 0.017667 
110.104805 0.1136 
110.300117 0.013263 
110.364746 0.011357 
110.721062 0.009791 
111.04435 0.056661 
111.08065 0.467636 
111.117004 0.428559 
112.075844 0.031757 
112.895988 0.034964 
113.059944 0.1961 
113.096252 0.067553 
113.670258 0.012147 
114.091438 0.053219 
114.829712 0.012252 
115.056137 0.017145 
115.075386 0.033026 
115.615913 0.012498 
116.053101 1.627509 
116.070618 0.063478 
116.107178 0.425311 
116.204597 0.01273 
116.45771 0.053267 
116.977203 0.013466 
116.985916 0.084304 
117.070229 0.047492 
117.091095 0.128623 
118.086548 0.052606 
119.049141 0.06099 
119.085693 1.373874 
120.080978 0.36299 
121.02858 0.025799 
121.064941 0.502071 
121.101357 2.021842 
122.104675 0.053149 
123.080505 0.473736 
123.116966 1.49521 
123.802719 0.012362 
124.080368 0.011004 
125.059792 0.232518 
125.096199 0.355183 
125.132713 0.013382 
126.091331 0.185937 
127.036728 0.025172 
127.07534 0.082222 
127.111916 0.070827 
127.392487 0.012873 
127.523102 0.011926 
128.143448 0.706 
128.193863 0.012292 
129.054657 0.133646 
130.158966 0.305103 
131.070297 0.148405 
131.085495 0.222986 
133.065063 0.059828 
133.085907 1.770743 
133.101166 1.281193 
134.060104 0.019977 
134.089615 0.011387 
134.104446 0.040153 
134.978653 0.038043 
134.996323 0.300766 
135.00209 0.012157 
135.044022 0.331165 
135.080414 0.674157 
135.116821 1.94297 
135.584885 0.01315 
136.075546 0.063428 
136.120316 0.023427 
137.05957 0.208267 
137.095947 0.558392 
137.132446 0.869213 
138.12767 0.067206 
138.135925 0.015611 
139.075317 0.165555 
139.111588 0.158522 
140.143188 0.042584 
140.953857 0.018134 
140.959213 1.256648 
141.113434 0.067623 
141.127426 0.018138 
141.163712 0.04998 
141.844528 0.010645 
142.159088 0.043368 
142.93811 0.016425 
142.955246 0.030902 
143.085464 0.049774 
145.100983 0.67065 
145.225311 0.012258 
147.043991 0.028554 
147.064468 0.024287 
147.080338 0.184241 
147.116669 1.137332 
147.451172 0.012072 
148.024826 0.389144 
148.119797 0.026804 
149.044632 0.046831 
149.059891 0.03282 
149.096039 0.418546 
149.132507 1.093318 
150.135849 0.029147 
150.833328 0.012015 
150.951065 0.014763 
151.075134 0.203635 
151.096405 0.057596 
151.111786 0.21837 
151.148087 0.087264 
152.103409 0.011278 
152.951553 0.025569 
152.989182 0.327427 
153.006424 0.011511 
153.090897 0.183002 
153.120789 0.014545 
153.127182 0.146135 
154.122528 1.588978 
154.159012 0.164918 
155.069397 0.013891 
155.106293 0.114246 
155.125671 0.067614 
156.131821 0.048103 
156.13826 3.330273 
156.144684 0.02768 
156.933105 0.233437 
157.100983 0.182422 
157.141586 0.151361 
158.861862 0.011271 
159.047028 0.048245 
159.116806 0.804988 
160.027908 0.080309 
160.744339 0.012869 
161.059158 0.010694 
161.095963 0.262688 
161.132492 0.701081 
162.043671 0.099298 
162.136139 0.016618 
163.075424 0.098053 
163.111649 0.35153 
163.14798 0.996839 
163.698792 0.011768 
164.151489 0.018621 
164.306732 0.012541 
164.920441 0.674088 
165.054581 0.427209 
165.090912 0.284061 
165.127213 0.10562 
165.163498 0.012144 
165.631744 0.012292 
165.904633 0.012612 
166.159592 0.012009 
166.515778 0.017801 
167.055405 0.941721 
167.070648 0.025031 
167.106628 0.063232 
167.142838 0.01469 
168.054916 0.046562 
168.137909 0.011556 
169.052017 0.033851 
169.100693 0.026409 
170.153748 0.013975 
170.787415 0.012801 
170.955261 0.070242 
170.962784 0.043049 
170.999649 0.01057 
171.062744 0.068635 
171.116608 0.229435 
171.137894 12.292546 
171.149643 0.213997 
171.185654 0.037647 
171.958389 0.013266 
172.115433 0.400019 
172.13353 0.082056 
172.141113 1.291436 
172.149139 0.011823 
172.152542 0.013689 
172.173553 0.014647 
172.907288 0.217425 
172.952087 0.031955 
173.011795 0.012934 
173.096008 0.228707 
173.117538 0.067982 
173.132462 0.763064 
174.972336 0.117853 
174.98938 0.012272 
175.038956 0.943786 
175.07515 0.043451 
175.111618 0.375433 
175.148087 1.009461 
176.151566 0.041239 
176.988876 0.299947 
177.057449 0.144441 
177.091019 0.036203 
177.112381 0.12782 
177.127304 0.317658 
177.163681 0.410057 
178.783539 0.012732 
179.106583 0.224074 
179.143021 0.066787 
179.963669 0.044116 
180.894333 0.336361 
181.122345 0.069818 
182.153931 0.193816 
183.116928 0.091837 
184.073227 0.038236 
185.096222 0.035971 
185.13237 0.358494 
185.986404 0.013553 
186.996658 0.014011 
187.038376 0.012662 
187.111786 0.160402 
187.148178 0.945789 
188.051651 0.012245 
188.595154 0.011436 
188.965866 0.063399 
188.974884 0.015156 
189.005203 0.053916 
189.091278 0.081616 
189.127228 0.211511 
189.163696 1.947657 
189.498703 0.010946 
190.167328 0.06164 
190.962738 0.043837 
191.070175 0.03087 
191.106476 0.224833 
191.142807 0.139535 
191.179337 1.014197 
192.183167 0.029588 
192.598572 0.011118 
192.945404 0.196306 
192.961761 0.062909 
193.085907 0.026429 
193.122253 0.10048 
193.158798 0.392125 
194.9245 0.079602 
194.999847 1.139384 
195.137573 0.049707 
196.868454 0.08481 
197.132401 0.127578 
197.8284 0.013345 
197.974304 1.124396 
198.989136 0.014007 
199.075455 0.15186 
199.111862 0.082107 
199.148102 0.279842 
199.180176 0.065028 
201.090958 0.014119 
201.127228 0.28855 
201.163803 0.386474 
202.526657 0.011517 
203.021729 0.048086 
203.106659 0.058717 
203.142944 0.406225 
203.179337 0.719274 
204.182281 0.012718 
204.962112 0.035618 
205.005676 0.013037 
205.086105 0.014607 
205.122116 0.119165 
205.158691 0.268975 
205.19458 0.01657 
205.600235 0.015533 
205.808289 0.011025 
206.004471 0.064355 
206.330505 0.01074 
206.658966 0.012158 
207.101761 0.028475 
207.137894 0.045887 
207.174179 0.212321 
209.080795 0.055476 
209.117371 0.130484 
209.132294 0.032109 
209.151825 0.013992 
209.217499 0.015373 
210.185287 0.691782 
210.194901 0.014426 
210.970688 0.01358 
211.111771 0.019186 
211.147995 0.055299 
212.8423 0.03888 
212.935272 0.031712 
212.97261 0.015794 
213.010147 0.076051 
213.12735 0.155986 
213.163712 0.214282 
213.474731 0.357082 
213.487137 0.733021 
213.508423 0.066518 
213.969223 0.011481 
214.971039 0.028987 
215.069977 0.154756 
215.088776 0.131605 
215.106461 0.062127 
215.143021 0.385448 
215.179367 0.121262 
215.98497 0.298722 
217.0858 1.013897 
217.103958 0.013905 
217.122269 0.121788 
217.15863 0.284119 
217.194916 0.046871 
219.137878 0.095258 
219.174393 0.394256 
220.019897 0.059992 
221.115738 0.016218 
221.153717 0.100589 
221.190002 0.160465 
222.077393 0.012949 
222.147003 0.023903 
222.996155 0.015225 
223.063522 1.714167 
223.147385 0.070113 
224.063705 1.045747 
225.042801 2.965099 
225.060486 0.513441 
225.163818 0.065404 
226.042557 1.679269 
226.058426 0.020872 
226.937744 0.012298 
226.989288 0.022822 
227.021973 0.104632 
227.040466 0.928813 
227.070145 21.835281 
227.143112 0.105659 
227.179428 0.123713 
227.200073 0.016362 
227.21196 0.038412 
228.021423 0.029152 
228.073456 2.994908 
229.075073 0.328017 
229.122314 0.144756 
229.158295 0.116403 
229.195114 0.036505 
230.966644 0.201293 
231.084763 0.014578 
231.100266 0.041691 
231.137802 0.523881 
231.174179 0.029677 
231.210754 0.018117 
233.117065 0.02697 
233.153366 0.513485 
233.190292 0.012501 
235.060745 0.505867 
235.097214 0.030431 
235.169266 0.033924 
235.924454 0.009598 
236.995972 0.012372 
237.161591 0.01697 
237.994064 0.204185 
238.140335 0.015891 
238.216537 0.151619 
239.141632 0.013127 
239.178284 0.030988 
240.908859 0.013491 
241.122116 0.031708 
241.158417 0.063389 
241.195358 0.01486 
243.137695 0.067947 
243.174072 0.031907 
243.827637 0.011617 
245.000397 0.018346 
245.080627 35.642628 
245.153122 0.141409 
246.084061 5.079813 
247.0858 0.384147 
247.132202 0.033394 
247.168655 0.059462 
248.937119 0.062487 
248.977066 0.029805 
248.990997 0.016669 
249.163376 0.013153 
250.177643 0.292262 
251.012985 0.0307 
251.025482 1.047981 
251.17807 0.022687 
252.009537 0.247239 
252.949875 0.115039 
253.19455 0.012896 
255.137772 0.032134 
255.173569 0.014409 
255.231979 0.046101 
257.015778 0.013351 
257.068298 0.012223 
257.153473 0.051446 
257.22583 0.012112 
257.977448 0.070099 
258.192566 0.01133 
258.929749 0.017384 
259.046326 0.01372 
259.115601 0.1499 
259.170135 0.018087 
261.060699 0.014866 
262.031097 0.022524 
263.091278 0.01764 
264.909088 0.118499 
265.939392 0.148515 
266.948029 0.051006 
267.174103 0.046642 
268.263428 0.017385 
268.940887 0.013829 
269.036041 0.488157 
269.190277 0.042016 
269.208344 0.079772 
269.946045 0.040714 
269.978973 0.038605 
269.996155 0.054865 
270.031158 0.090138 
270.243317 0.018499 
270.31543 0.012204 
270.975555 0.013435 
271.204865 0.022394 
273.007507 0.029944 
273.094757 0.031459 
273.185577 0.012708 
273.922424 0.023279 
274.974976 0.227293 
275.107788 0.017079 
275.153015 0.018358 
279.057007 0.012724 
280.94809 0.01803 
281.051453 0.035618 
281.189636 0.013435 
281.912018 0.292167 
281.945129 0.027827 
282.037933 0.082318 
282.053192 0.027479 
282.919525 0.121858 
283.030853 0.014531 
283.047821 0.015839 
283.169556 0.04804 
283.847443 0.114449 
283.94873 0.028288 
284.153015 0.326314 
284.844849 0.047601 
285.009705 0.385371 
285.843445 0.013133 
286.009644 0.316812 
286.922638 0.012548 
286.940979 0.070944 
287.007019 0.172372 
287.09137 2.979398 
288.094696 0.359018 
288.153809 0.041786 
288.909546 0.140161 
289.2146 0.013199 
290.947571 0.116181 
292.985413 0.086559 
293.189972 0.016357 
294.90567 0.016568 
294.945923 0.011771 
294.958832 0.054523 
295.169098 0.014116 
297.184326 0.016742 
299.061401 2.831157 
299.200378 0.037104 
299.955505 0.027279 
300.061859 3.243243 
300.147614 0.017244 
300.956512 0.068272 
301.058197 2.014751 
301.857635 0.125013 
302.058807 0.132994 
302.163391 0.129734 
302.856262 0.068016 
302.936005 0.033993 
304.020813 0.013889 
304.046692 0.012408 
304.893768 0.010892 
304.913086 0.015838 
305.154877 0.015734 
306.919556 2.190174 
307.921814 0.054692 
309.14856 0.012387 
309.173096 0.145533 
311.294067 0.015303 
313.179199 0.053485 
313.273621 0.016658 
314.206085 0.011818 
314.223816 0.014291 
315.236694 0.01339 
315.826111 0.02163 
316.90451 0.015006 
316.92981 0.011276 
317.119659 0.072314 
319.136017 0.03621 
322.915588 0.027131 
324.930176 0.469891 
325.044006 0.033633 
325.840363 0.109691 
326.200623 0.232681 
326.83905 0.076075 
326.914795 0.094692 
326.934296 0.164235 
327.163483 0.040885 
327.183899 0.587919 
327.220337 0.16257 
327.913147 0.01063 
328.180634 0.26725 
328.836609 0.012296 
328.914124 0.124157 
329.002411 0.215074 
329.17688 0.280945 
330.963593 0.012309 
332.97467 0.425372 
333.835693 0.151473 
334.84314 1.40966 
335.84967 0.029291 
337.161316 0.04872 
341.23587 0.017458 
341.874878 0.01427 
342.852631 0.107836 
342.875244 0.047592 
342.925415 0.012963 
343.850494 1.688701 
343.927277 0.031039 
344.210846 0.090927 
344.848602 0.925187 
344.925049 0.01511 
344.945923 0.170982 
345.194427 0.123748 
345.230957 0.178385 
345.278381 0.440506 
345.847382 0.553212 
345.89621 0.266729 
345.940277 0.045559 
346.09433 0.059034 
346.191223 0.11411 
346.822479 0.014552 
346.845001 0.129945 
346.903137 0.017526 
346.924011 0.885607 
347.012573 0.015821 
347.09552 0.01779 
347.187714 0.143986 
348.109283 0.098154 
348.993225 0.046136 
349.098511 0.246526 
349.182953 0.102365 
349.850525 0.012983 
350.099274 0.086651 
350.947357 0.138894 
350.984711 2.083151 
351.846069 1.386527 
351.987213 0.10289 
352.853455 0.361723 
352.96402 0.751849 
353.038879 0.119103 
353.24588 0.015912 
353.841187 0.032495 
356.069702 0.014799 
356.957001 0.014857 
358.843292 0.350945 
359.028198 0.015827 
359.294434 0.015821 
360.028687 0.027574 
360.838715 0.287759 
360.881714 0.032759 
361.025848 0.053192 
361.11795 0.067824 
361.145599 0.062038 
361.279846 0.37107 
361.861603 0.237165 
362.281921 0.391787 
362.858398 0.107909 
362.879669 0.035469 
363.161621 0.03249 
363.233032 0.014617 
363.278809 0.083071 
363.856903 0.050198 
363.907227 0.119141 
364.93634 0.066691 
365.104767 0.036327 
367.001282 0.033641 
367.110413 0.015921 
367.840302 0.016933 
367.943604 0.034796 
368.848938 0.021269 
368.923279 0.077762 
368.995789 0.59306 
369.856964 0.113409 
369.979034 0.038231 
370.902466 0.094102 
370.975067 0.015707 
371.049957 0.118319 
371.161682 0.123446 
374.838989 0.411856 
375.846283 0.472 
376.31842 0.065599 
376.852661 0.101187 
378.849884 0.047515 
380.846771 0.016051 
383.292206 0.019557 
383.330383 0.034787 
385.011261 0.138644 
385.177887 0.148059 
385.311157 0.212371 
385.853485 0.016256 
386.091827 0.28572 
386.180908 0.376846 
386.219757 0.033636 
386.266663 0.01604 
386.939972 0.076577 
387.184845 0.031642 
387.289368 0.228758 
388.183807 0.074722 
388.29245 0.017939 
388.970032 0.05948 
389.180115 1.046967 
390.853485 0.361872 
392.304535 0.017304 
392.848724 8.132796 
393.209229 0.074241 
393.248352 0.013358 
393.277832 0.013434 
393.853241 0.788841 
394.300018 0.018729 
403.023682 0.014057 
403.164001 0.335835 
403.271729 0.197557 
403.298157 0.01495 
404.102478 0.015237 
404.275116 0.556125 
404.883606 0.013792 
404.950165 0.694999 
405.046753 0.013285 
405.272797 0.347107 
406.864716 0.454687 
407.189423 0.544202 
407.293884 0.017907 
408.861877 0.040577 
409.850952 0.041257 
410.026703 0.014987 
410.66864 0.014973 
410.858856 2.486991 
411.251678 0.04367 
411.288818 0.033264 
411.324524 0.033672 
411.860626 0.059503 
413.340515 0.015176 
419.224457 0.392192 
419.293335 0.101833 
421.204498 0.103624 
421.281647 0.391518 
421.310364 0.143911 
422.285431 1.013379 
422.96109 0.184787 
423.282074 0.580335 
426.248016 0.100032 
426.749786 0.044359 
429.211395 0.053786 
429.33551 0.204366 
429.383423 0.028918 
431.294067 0.257844 
433.309265 0.015067 
435.21936 2.135335 
435.285339 0.014867 
437.304352 0.112738 
439.318146 0.018296 
445.278198 0.029237 
446.279358 0.052451 
447.022522 0.029456 
447.215027 0.013624 
447.2565 0.013096 
447.288269 0.577308 
447.346741 0.251878 
448.291718 0.018994 
449.165497 0.013621 
449.198517 0.374504 
449.232147 0.03164 
449.269012 0.041763 
449.304352 1.302767 
449.337799 0.021756 
451.861328 0.079093 
452.109863 0.030927 
463.26416 0.043339 
463.309357 2.83214 
463.355225 1.43401 
463.949249 0.070531 
464.170349 0.012981 
464.216766 0.106182 
464.270172 0.39551 
464.310577 4.877669 
464.358368 0.942758 
464.387054 0.01482 
464.447876 0.041402 
464.946991 0.028937 
465.034363 0.079617 
465.12973 0.205175 
465.194092 3.20502 
465.230164 24.393204 
465.300018 4.965571 
465.33316 100.0 
466.112549 0.047647 
466.197571 0.555894 
466.233643 5.179179 
466.302765 1.359629 
466.336365 30.276072 
466.426758 0.026817 
466.499695 0.11869 
466.533936 3.872575 
467.107391 2.830732 
467.186432 0.127151 
467.211212 0.323695 
467.245026 6.456167 
467.277252 0.952286 
467.313965 6.216944 
467.345978 4.605136 
467.537262 0.299527 
481.959534 0.044591 
483.13855 0.013063 
483.344238 0.144361 
484.347961 0.014359 
END IONS

