BEGIN IONS
PEPMASS=436.137
CHARGE=1+
COMPOUNDNAME=NOSCAPINE
LIBRARYQUALITY=3
SMILES=N/A
INCHIKEY=AKNNEGZIBPJZJG-MSOLQXFVSA-N
INCHI=InChI=1S/C22H23NO7/c1-23-8-7-11-9-14-20(29-10-28-14)21(27-4)15(11)17(23)18-12-5-6-13(25-2)19(26-3)16(12)22(24)30-18/h5-6,9,17-18H,7-8,10H2,1-4H3/t17-,18+/m1/s1
MSLEVEL=2
SOURCE_INSTRUMENT=N/A-ESI-QFT
FILENAME=library_mgf.mgf
SEQ=*..*
IONMODE=positive
ORGANISM=MONA
NAME=NOSCAPINE [M+Na]+
PI=MoNA
DATACOLLECTOR=MoNA:VF-NPL-QEHF002752
PUBMED=N/A
SUBMITUSER=mwang87
TAGS=
SPECTRUMID=CCMSLIB00004693815
SCANS=2752
50.168732 0.004012 
50.492924 0.004777 
51.078587 0.004708 
51.165157 0.004141 
51.557228 0.004609 
51.726608 0.002839 
51.950264 0.003929 
52.361156 0.004569 
53.12767 0.003993 
53.60136 0.004117 
53.818806 0.004664 
53.98967 0.002619 
54.136501 0.001363 
54.524616 0.004469 
54.775311 0.002459 
54.898819 0.044972 
55.148846 0.01443 
55.35408 0.002865 
55.503819 0.00398 
56.262203 0.002064 
56.511364 0.003472 
56.557446 0.003766 
57.249107 0.003287 
57.263741 0.004673 
58.043877 0.004978 
58.886295 0.00399 
59.372757 0.004709 
60.518559 0.002367 
60.808289 0.002987 
61.278885 0.004712 
62.043728 0.003863 
62.680199 0.003559 
63.00856 0.001426 
63.02681 0.000908 
64.083961 0.003702 
65.68354 0.001045 
65.785507 0.001387 
66.072128 0.004156 
66.149979 0.002838 
67.180321 0.006762 
68.355484 0.002661 
68.605217 0.00438 
69.407181 0.002646 
69.591995 0.004196 
71.026901 0.004562 
72.665497 0.003264 
73.010468 0.004883 
73.755486 0.002252 
74.583717 0.004543 
74.908134 0.003241 
75.133156 0.0048 
75.717567 0.005222 
76.570305 0.000845 
76.677979 0.002669 
76.701805 0.004749 
76.720421 0.005215 
77.385132 0.004799 
78.324051 0.003472 
79.206001 0.002855 
79.328148 0.003691 
80.620369 0.003042 
81.868988 0.005127 
82.095421 0.004803 
82.537979 0.004102 
83.205086 0.00342 
84.843773 0.003616 
84.957687 0.000796 
85.243942 0.00279 
88.358803 0.004964 
88.36618 0.004889 
90.103622 0.004538 
91.431473 0.003487 
91.542862 0.001506 
91.935875 0.000896 
91.974976 0.001655 
92.57341 0.000951 
93.12365 0.004998 
95.867271 0.004844 
97.80365 0.003333 
101.8769 0.001548 
104.067268 0.003194 
104.500549 0.001443 
105.118752 0.004158 
109.725662 0.004689 
111.620392 0.001507 
112.291939 0.002546 
114.043159 0.0009 
114.367836 0.005516 
115.156677 0.004414 
115.961792 0.001489 
118.066437 0.005247 
118.640396 0.001028 
121.335739 0.003775 
121.925514 0.004188 
121.977692 0.00276 
122.38166 0.0054 
122.935745 0.002927 
124.252045 0.000841 
127.74324 0.002383 
127.805946 0.002773 
128.547684 0.000881 
131.421494 0.000877 
132.727982 0.004105 
133.081177 0.004519 
134.287384 0.000866 
138.854858 0.004504 
140.00032 0.005607 
141.881592 0.004855 
142.614365 0.002749 
149.563828 0.005211 
154.236115 0.004557 
156.532364 0.0026 
158.448898 0.001519 
159.971786 0.004004 
161.790192 0.002583 
165.343781 0.00094 
166.845169 0.004715 
172.013977 0.002689 
172.348648 0.002483 
174.299332 0.005403 
175.487503 0.003017 
182.423035 0.003919 
183.917969 0.006503 
188.39537 0.00538 
192.008209 0.003065 
197.818268 0.001379 
199.163376 0.00088 
199.709747 0.00279 
201.99437 0.004323 
203.057678 0.005294 
205.073257 0.595867 
206.076233 0.014218 
206.229202 0.005289 
207.915298 0.000839 
213.753159 0.151547 
213.769363 0.178733 
215.861084 0.004258 
215.875183 0.003816 
216.040909 0.001086 
216.146149 0.003258 
217.047272 0.273461 
218.050308 0.004314 
218.081192 0.00111 
219.104858 0.005269 
219.205078 0.006285 
220.076782 0.502909 
220.096603 100.0 
220.99292 0.005956 
221.100098 11.655902 
222.102341 0.588142 
232.923752 0.003759 
236.784714 0.005016 
242.079285 0.005095 
242.405609 0.004848 
249.593338 0.006312 
252.168823 0.001041 
257.366272 0.006463 
266.078522 0.003618 
269.96994 0.001006 
271.51712 0.000979 
284.669281 0.005785 
297.952484 0.004388 
315.39151 0.002638 
322.650269 0.002814 
325.944305 0.004659 
326.678009 0.001791 
329.589661 0.007079 
332.088806 0.529413 
333.091705 0.056546 
336.165131 0.005707 
337.424896 0.000995 
346.105408 0.059675 
347.11203 0.39547 
348.115753 0.034973 
354.946198 0.00501 
355.434509 0.003992 
362.1008 0.001039 
363.106567 0.012103 
367.238281 0.000932 
374.099884 0.181245 
375.034149 0.004655 
375.103333 0.005255 
376.078766 0.469307 
377.082031 0.042765 
389.837006 0.005419 
391.101959 1.522468 
391.638641 0.003075 
392.10556 0.306472 
393.425079 0.001618 
404.878601 0.003018 
406.125671 0.648497 
407.129089 0.118963 
410.112946 0.005666 
412.122162 0.003094 
413.139862 0.004115 
416.890778 0.003715 
419.126923 0.003789 
435.323273 0.001025 
436.135345 0.011866 
436.247101 0.001539 
437.235046 0.286419 
438.239166 0.006554 
441.433807 0.00313 
453.535583 0.004267 
455.49649 0.002877 
END IONS

