BEGIN IONS
PEPMASS=268.0
CHARGE=1+
COMPOUNDNAME=Massbank:KO002039 Adenosine
LIBRARYQUALITY=3
SMILES=OC[C@@H](O1)[C@@H](O)[C@@H](O)[C@@H]1n(c3)c(n2)c(n3)c(N)nc2
INCHIKEY=OIRDTQYFTABQOQ-KQYNXXCUSA-N
INCHI=1S/C10H13N5O4/c11-8-5-9(13-2-12-8)15(3-14-5)10-7(18)6(17)4(1-16)19-10/h2-4,6-7,10,16-18H,1H2,(H2,11,12,13)/t4-,6-,7-,10-/m1/s1
MSLEVEL=2
SOURCE_INSTRUMENT=ESI-LC-ESI-QQ
FILENAME=Massbank_ESI_positive_8_1_2014_peaks.mgf
SEQ=*..*
IONMODE=Positive
ORGANISM=MASSBANK
NAME=Massbank:KO002039 Adenosine [M+H]+
PI=Putative Massbank Match
DATACOLLECTOR=Massbank
PUBMED=N/A
SUBMITUSER=mwang87
TAGS=
SPECTRUMID=CCMSLIB00000216560
SCANS=7841
54.9 19802.0 
57.0 84158.5 
58.8 138614.0 
69.2 64356.5 
72.6 89109.0 
74.1 1707922.5 
77.8 39604.0 
80.8 14851.5 
85.0 445545.0 
87.0 54455.5 
97.3 89109.0 
98.8 69307.0 
103.0 128713.0 
115.2 440594.5 
117.1 514852.0 
120.2 49505.0 
120.9 272277.5 
133.0 876238.5 
136.0 130331813.5 
138.1 1841586.0 
138.9 24752.5 
149.5 59406.0 
150.3 59406.0 
153.3 54455.5 
154.9 14851.5 
159.5 14851.5 
163.4 89109.0 
175.1 69307.0 
176.0 24752.5 
177.1 59406.0 
178.2 148515.0 
179.1 59406.0 
195.2 391089.5 
196.1 29703.0 
208.5 113861.5 
218.2 79208.0 
233.1 44554.5 
250.6 34653.5 
251.5 242574.5 
268.4 23014874.5 
END IONS

