BEGIN IONS
PEPMASS=1219.88
CHARGE=1+
COMPOUNDNAME=CYCLOSPORINE
LIBRARYQUALITY=3
SMILES=N/A
INCHIKEY=PMATZTZNYRCHOR-KMSBSJHKSA-N
INCHI=InChI=1S/C62H111N11O12/c1-25-27-28-40(15)52(75)51-56(79)65-43(26-2)58(81)67(18)33-48(74)68(19)44(29-34(3)4)55(78)66-49(38(11)12)61(84)69(20)45(30-35(5)6)54(77)63-41(16)53(76)64-42(17)57(80)70(21)46(31-36(7)8)59(82)71(22)47(32-37(9)10)60(83)72(23)50(39(13)14)62(85)73(51)24/h25,27,34-47,49-52,75H,26,28-33H2,1-24H3,(H,63,77)(H,64,76)(H,65,79)(H,66,78)/b27-25+/t40-,41?,42?,43?,44?,45?,46?,47?,49?,50?,51?,52-/m1/s1
MSLEVEL=2
SOURCE_INSTRUMENT=N/A-ESI-QFT
FILENAME=library_mgf.mgf
SEQ=*..*
IONMODE=positive
ORGANISM=MONA
NAME=CYCLOSPORINE [M+NH4]+
PI=MoNA
DATACOLLECTOR=MoNA:VF-NPL-QEHF028199
PUBMED=N/A
SUBMITUSER=mwang87
TAGS=
SPECTRUMID=CCMSLIB00004721780
SCANS=28199
86.060349 0.147273 
86.096336 13.06706 
87.512215 0.038205 
89.621262 0.06374 
89.777573 0.055422 
90.474045 0.064164 
90.605034 0.049508 
91.054077 0.054081 
91.172173 0.058318 
92.740631 0.050906 
95.085495 0.134891 
95.279472 0.059945 
96.080681 1.590933 
98.06012 0.110167 
98.096306 0.726253 
100.039215 29.198107 
100.075638 0.325616 
100.112 100.0 
100.115784 1.514357 
100.605225 0.08744 
101.042702 0.115472 
101.115318 4.63994 
103.086754 0.130899 
107.085373 6.185825 
108.080849 0.262553 
108.088921 0.115882 
109.08844 0.480726 
109.101074 2.059421 
110.096283 0.090437 
110.448479 0.035307 
111.678391 0.138591 
111.888512 0.074276 
111.895317 0.106774 
112.075462 0.10064 
112.111809 0.203831 
114.091232 25.548859 
115.094482 0.152313 
117.095367 0.120901 
117.238426 0.090388 
120.44001 0.120669 
123.104187 0.224568 
124.112251 0.134853 
124.605789 0.108399 
125.096024 6.471109 
126.05481 2.7661 
126.099236 0.083257 
126.127762 0.092252 
127.086403 2.188632 
127.110146 0.103117 
127.558495 0.111981 
127.843056 0.052006 
128.106827 41.918571 
129.10173 0.436407 
129.110123 1.391524 
131.106339 0.105397 
131.998398 0.106879 
133.374542 0.108863 
135.080231 0.819031 
136.112 7.88471 
136.116974 0.065538 
138.054886 0.792487 
138.127579 12.878532 
139.123367 0.096227 
139.13031 0.092877 
140.070465 3.051039 
140.49086 0.109387 
141.101974 0.131513 
142.08609 9.27363 
143.081329 1.958828 
143.470825 0.105845 
145.953171 0.05816 
148.653641 0.043945 
152.070389 1.965947 
152.548279 0.067725 
153.102127 4.132478 
153.619247 0.113324 
153.783264 0.057293 
154.085968 1.037306 
154.122604 0.248537 
155.154099 0.200946 
156.101746 27.729975 
156.138138 70.852577 
157.097031 7.473497 
157.104507 1.489961 
157.134735 0.110946 
157.141388 4.974939 
160.370621 0.091915 
164.761368 0.116987 
165.147141 0.047586 
166.122467 28.412043 
166.295349 0.101944 
167.093842 1.636594 
167.118546 0.145845 
167.125885 1.353403 
168.101746 7.219844 
169.133331 1.206208 
170.088242 0.102628 
170.117401 4.829646 
171.076767 0.099126 
171.149017 35.391895 
172.15239 1.834832 
172.260651 0.110647 
172.851059 0.04877 
176.227036 0.05713 
176.380417 0.045142 
178.388412 0.110365 
181.132736 0.075796 
181.4328 0.048675 
182.117416 18.591068 
183.075516 0.104262 
183.12056 0.222877 
184.133041 8.703816 
185.091934 0.503898 
186.367676 0.101496 
188.565826 0.03895 
189.40773 0.097171 
190.76506 0.117787 
190.882828 0.12148 
192.146667 0.046016 
193.544571 0.089614 
194.117508 5.951485 
195.121262 0.116002 
195.184952 0.124921 
197.092102 0.101848 
197.848724 0.056929 
199.107849 1.664266 
199.143906 64.799088 
199.180191 1.36731 
200.147415 5.047775 
200.226288 0.074678 
205.867386 0.065051 
209.164734 0.951991 
210.148682 22.667604 
210.240128 0.137559 
211.152176 0.953356 
211.248505 0.060349 
212.127533 0.078586 
213.122711 0.189787 
215.389465 0.107546 
217.463913 0.089993 
218.289719 0.121744 
223.169312 0.055343 
223.180145 9.271563 
224.164185 45.929031 
224.677887 0.052541 
225.167679 4.475429 
226.118179 0.300977 
226.179947 1.366816 
227.138809 0.075175 
227.174957 1.27711 
228.134064 1.612253 
233.130569 0.035582 
237.005875 0.07379 
237.781815 0.08212 
239.175079 0.087224 
241.19075 16.413404 
242.194031 0.93629 
251.133484 0.100411 
251.175018 6.496992 
251.721771 0.077988 
252.206741 2.848333 
252.948196 0.067307 
253.154434 1.398109 
258.943054 0.052354 
260.073944 0.053585 
265.226105 0.076615 
269.185577 4.699633 
269.478912 0.065956 
270.180481 7.216946 
279.228363 0.087657 
283.45459 0.06367 
284.196259 0.985554 
289.008942 0.080137 
290.990601 0.126503 
295.528656 0.103189 
296.179626 0.180956 
298.211975 9.912737 
298.518707 0.039541 
299.215302 0.560041 
300.26297 0.05143 
303.169342 0.098749 
304.188263 0.182331 
310.177521 0.055705 
314.736267 0.063302 
318.691986 0.07059 
322.212067 1.924465 
322.351074 0.115278 
323.232513 14.801778 
324.236237 0.966668 
326.243561 0.145725 
331.698456 0.489904 
332.072693 0.098357 
337.222687 0.067155 
337.24881 0.100132 
340.222595 0.209621 
341.017731 0.08763 
341.217377 1.221222 
343.680939 0.066834 
350.20697 0.085217 
352.721191 0.103021 
354.274078 0.74699 
366.719055 0.188896 
373.727203 0.098754 
378.741211 0.04847 
381.534851 0.079125 
382.171753 0.127533 
397.281158 0.168959 
407.668793 0.107742 
408.471252 0.068913 
411.330231 0.106796 
416.271576 0.081 
420.751495 0.113707 
422.25174 0.055826 
425.311554 5.370422 
426.31601 0.289671 
435.297333 0.067828 
445.442017 0.089426 
451.791595 0.071473 
455.653687 0.071535 
466.268616 0.113181 
473.137177 0.117714 
476.65036 0.135107 
480.281494 0.081218 
481.239014 0.121901 
506.30069 0.06283 
559.948608 0.091069 
565.338318 0.060478 
581.759888 0.092262 
593.366333 0.07881 
610.085449 0.079499 
612.601562 0.087264 
615.56604 0.124597 
618.053894 0.088817 
620.79071 0.054696 
641.141846 0.114525 
645.190125 0.126455 
655.373718 0.077716 
680.759583 0.097951 
692.009766 0.063679 
694.079651 0.058784 
708.929199 0.214626 
709.138794 0.577833 
719.333801 0.070114 
730.076416 0.085241 
737.813538 0.098476 
767.451111 0.059496 
794.94104 0.064501 
819.626526 0.050966 
820.869812 0.071376 
822.279114 0.101045 
834.618469 0.042268 
834.789185 0.11424 
847.75708 0.120634 
901.090271 0.106076 
911.97937 0.056056 
937.509216 0.08406 
947.00647 0.096608 
984.875671 0.125713 
1066.784912 0.06933 
1078.812622 0.100023 
1128.417114 0.103413 
1168.359497 0.127966 
1218.826904 0.050525 
1219.434448 0.138764 
1257.513306 0.140427 
END IONS

