BEGIN IONS
PEPMASS=271.061
CHARGE=1+
COMPOUNDNAME=Massbank:FIO00061 Emodin
LIBRARYQUALITY=3
SMILES=Cc(c3)cc(c(=O)1)c(c(O)3)c(=O)c(c(O)2)c(cc(O)c2)1
INCHIKEY=RHMXXJGYXNZAPX-UHFFFAOYSA-N
INCHI=1S/C15H10O5/c1-6-2-8-12(10(17)3-6)15(20)13-9(14(8)19)4-7(16)5-11(13)18/h2-5,16-18H,1H3
MSLEVEL=2
SOURCE_INSTRUMENT=ESI-LC-ESI-QTOF
FILENAME=Massbank_ESI_positive_8_1_2014_peaks.mgf
SEQ=*..*
IONMODE=Positive
ORGANISM=MASSBANK
NAME=Massbank:FIO00061 Emodin [M+H]+
PI=Putative Massbank Match
DATACOLLECTOR=Massbank
PUBMED=N/A
SUBMITUSER=mwang87
TAGS=
SPECTRUMID=CCMSLIB00000213696
SCANS=6426
115.0545 4650.0 
116.0584 468.0 
127.0551 464.0 
135.0443 609.0 
141.0703 5980.0 
142.0737 701.0 
145.065 703.0 
151.055 645.0 
152.062 537.0 
155.0497 823.0 
168.057 1807.0 
169.0649 8628.0 
170.0682 915.0 
173.0598 765.0 
196.0517 489.0 
197.0598 6504.0 
198.0634 797.0 
225.0546 2350.0 
END IONS

