BEGIN IONS
PEPMASS=308.0
CHARGE=1+
COMPOUNDNAME=Massbank:KO003609 Neomycin|Fradiomycin B|Streptothricin B|Neomycin B
LIBRARYQUALITY=3
SMILES=NC[C@H](O1)[C@@H](O)[C@H](O)[C@@H](N)[C@H]1O[C@H]([C@@H](CO)4)[C@@H](O)[C@@H](O4)O[C@H]([C@@H](O)3)[C@@H]([C@@H](N)C[C@@H](N)3)O[C@@H](O2)[C@H](N)[C@@H](O)[C@H](O)[C@@H](CN)2
INCHIKEY=PGBHMTALBVVCIT-VCIWKGPPSA-N
INCHI=1S/C23H46N6O13/c24-2-7-13(32)15(34)10(28)21(37-7)40-18-6(27)1-5(26)12(31)20(18)42-23-17(36)19(9(4-30)39-23)41-22-11(29)16(35)14(33)8(3-25)38-22/h5-23,30-36H,1-4,24-29H2
MSLEVEL=2
SOURCE_INSTRUMENT=ESI-LC-ESI-QQ
FILENAME=Massbank_ESI_positive_8_1_2014_peaks.mgf
SEQ=*..*
IONMODE=Positive
ORGANISM=MASSBANK
NAME=Massbank:KO003609 Neomycin|Fradiomycin B|Streptothricin B|Neomycin B [M+2H]++
PI=Putative Massbank Match
DATACOLLECTOR=Massbank
PUBMED=N/A
SUBMITUSER=mwang87
TAGS=
SPECTRUMID=CCMSLIB00000219748
SCANS=9411
40.4 19802.0 
42.6 14851.5 
44.0 59406.0 
50.2 34653.5 
56.2 103960.5 
56.5 69307.0 
60.1 128713.0 
68.2 326733.0 
68.9 118812.0 
69.9 103960.5 
70.9 89109.0 
71.7 267327.0 
73.0 519802.5 
73.6 39604.0 
78.1 69307.0 
80.0 2613864.0 
81.3 64356.5 
82.2 217822.0 
83.0 242574.5 
84.3 673268.0 
85.0 212871.5 
86.3 361386.5 
88.3 19802.0 
89.7 29703.0 
95.1 118812.0 
96.0 1099011.0 
97.1 896040.5 
98.0 1584160.0 
101.1 108911.0 
101.9 391089.5 
104.9 118812.0 
106.0 54455.5 
107.2 99010.0 
108.1 960397.0 
109.4 277228.0 
110.5 59406.0 
111.9 49505.0 
114.2 6648521.5 
115.1 99010.0 
119.3 24752.5 
119.8 59406.0 
121.2 207921.0 
122.1 34653.5 
124.0 24752.5 
125.0 1772279.0 
126.3 673268.0 
128.2 74257.5 
132.9 44554.5 
134.0 247525.0 
134.7 29703.0 
138.2 39604.0 
138.6 14851.5 
143.1 722773.0 
144.0 599010.5 
145.1 257426.0 
146.1 84158.5 
148.4 59406.0 
155.0 34653.5 
161.1 3475251.0 
161.7 133663.5 
163.3 5742580.0 
164.2 39604.0 
165.5 34653.5 
166.9 113861.5 
168.7 19802.0 
173.2 193069.5 
173.6 34653.5 
185.1 59406.0 
186.8 193069.5 
193.3 108911.0 
197.3 24752.5 
203.6 980199.0 
205.1 178218.0 
223.3 44554.5 
239.2 74257.5 
241.3 391089.5 
245.4 19802.0 
257.2 138614.0 
259.3 326733.0 
262.9 24752.5 
270.5 44554.5 
271.2 14851.5 
277.2 89109.0 
295.6 188119.0 
420.7 44554.5 
END IONS

