BEGIN IONS
PEPMASS=542.0
CHARGE=1+
COMPOUNDNAME=MoNA:2510644 Adriamycin
LIBRARYQUALITY=3
SMILES=N/A
INCHIKEY=AOJJSUZBOXZQNB-UHFFFAOYSA-N
INCHI=InChI=1S/C27H29NO11/c1-10-22(31)13(28)6-17(38-10)39-15-8-27(36,16(30)9-29)7-12-19(15)26(35)21-20(24(12)33)23(32)11-4-3-5-14(37-2)18(11)25(21)34/h3-5,10,13,15,17,22,29,31,33,35-36H,6-9,28H2,1-2H3
MSLEVEL=2
SOURCE_INSTRUMENT=LC-ESI-QQ-LC-ESI-QQ
FILENAME=output_mgf.mgf
SEQ=*..*
IONMODE=
ORGANISM=MONA
NAME=MoNA:2510644 Adriamycin [M-H]-
PI=MoNA
DATACOLLECTOR=MoNA
PUBMED=N/A
SUBMITUSER=mwang87
TAGS=
SPECTRUMID=CCMSLIB00000574523
SCANS=11774
125.2 1.512287 
143.3 1.323251 
150.9 1.134216 
240.2 1.134216 
241.3 0.567108 
254.5 0.378072 
257.2 0.94518 
283.4 1.323251 
288.7 0.567108 
290.6 0.378072 
294.2 0.756144 
295.1 4.914934 
301.0 0.378072 
305.4 1.134216 
306.4 1.890359 
307.4 5.860113 
309.1 11.531191 
319.4 4.914934 
320.4 1.701323 
321.3 13.988658 
323.3 3.402647 
324.2 0.756144 
333.1 4.725898 
333.9 3.213611 
335.2 4.725898 
335.4 7.561437 
336.5 9.26276 
337.6 13.232514 
346.9 3.969754 
348.8 12.098299 
349.4 33.459357 
351.3 3.969754 
351.7 3.402647 
359.3 1.890359 
362.5 3.402647 
365.6 71.266541 
366.3 7.372401 
367.3 4.914934 
377.3 50.47259 
380.5 2.268431 
395.5 100.0 
412.3 2.835539 
542.7 2.646503 
END IONS

