BEGIN IONS
TITLE=Scan Number: 894
PEPMASS=832.526
CHARGE=1+
COMPOUNDNAME=Tolytoxin
LIBRARYQUALITY=3
SMILES=C[C@H]1[C@@H](C[C@@H]([C@]2(CO2)[C@H](C[C@@H]3CC=C[C@H](O3)C[C@H]([C@H](/C=C(/C=C/C(=O)O[C@@H]1[C@@H](C)[C@H]([C@@H](C)CCC(=O)[C@H](C)[C@@H]([C@H](C)/C=C/N(C)C=O)OC)O)\C)O)OC)OC)OC)OC
INCHIKEY=FTGOWEQDZZMPNJ-GUMZKTDUSA-N
INCHI=
MSLEVEL=2
SOURCE_INSTRUMENT=LC-ESI-qTof
FILENAME=f.philipwi/0_WilliamsFreshwaterCyanosStandardsConvertedTo_mzXML_v2/PW-19_P1-C-1_Tolytoxin_849_01_15538_Scan884-971.mzXML;
SEQ=*..*
NOTES=
IONMODE=Positive
ORGANISM=GNPS-LIBRARY
NAME=Tolytoxin M+H-H2O
SPECTRUMID=CCMSLIB00000424875
ACTIVATION=CID
INSTRUMENT=ion trap
SCANS=894
62.74419 44.0 
75.423622 56.0 
94.560905 92.0 
100.176849 76.0 
102.719093 56.0 
103.385559 72.0 
110.577217 88.0 
110.704605 52.0 
111.154396 68.0 
125.450371 124.0 
133.227798 76.0 
134.112137 112.0 
135.0495 136.0 
137.379745 28.0 
141.07254 56.0 
143.09697 108.0 
144.101837 108.0 
145.096283 108.0 
147.087708 380.0 
147.240646 60.0 
148.115952 244.0 
148.216827 36.0 
148.931625 36.0 
149.098328 656.0 
149.268433 44.0 
150.095963 124.0 
150.499283 40.0 
151.085739 124.0 
151.407745 32.0 
151.533264 44.0 
151.676773 56.0 
151.886566 44.0 
152.059448 76.0 
152.523544 56.0 
153.075104 112.0 
153.461777 48.0 
154.086227 100.0 
154.418716 32.0 
155.087891 120.0 
155.545547 48.0 
155.943283 36.0 
156.107361 192.0 
156.357483 72.0 
156.852051 36.0 
157.091629 104.0 
158.0728 148.0 
159.116302 384.0 
159.411926 132.0 
159.545837 32.0 
160.119339 256.0 
160.396713 52.0 
160.421951 36.0 
160.553848 48.0 
160.731583 32.0 
160.882965 44.0 
161.021744 40.0 
161.13768 2272.0 
161.386841 32.0 
161.467819 40.0 
162.144196 108.0 
162.319412 48.0 
162.416885 24.0 
162.741989 40.0 
163.115952 512.0 
164.127716 160.0 
164.315186 28.0 
164.593109 36.0 
165.125488 1340.0 
165.193237 60.0 
165.346329 80.0 
165.879517 36.0 
166.132996 324.0 
166.364243 84.0 
166.923782 52.0 
167.079895 244.0 
167.170944 44.0 
167.616287 36.0 
168.078751 88.0 
168.583221 40.0 
169.105698 332.0 
169.40358 40.0 
169.511444 36.0 
170.083557 96.0 
170.275818 36.0 
170.375641 36.0 
171.119324 792.0 
171.64267 28.0 
172.089081 88.0 
172.562515 56.0 
173.023361 48.0 
173.12767 224.0 
173.635971 40.0 
174.106659 512.0 
174.468521 44.0 
174.915039 40.0 
175.110565 632.0 
175.353683 40.0 
175.46344 32.0 
175.623901 88.0 
176.486588 36.0 
176.969604 40.0 
177.130951 3072.0 
177.334427 56.0 
177.410828 40.0 
177.613235 48.0 
177.708115 28.0 
177.767593 56.0 
178.13295 528.0 
178.53331 32.0 
178.899734 48.0 
179.105499 236.0 
179.941391 28.0 
180.092957 100.0 
180.172333 32.0 
180.994659 44.0 
181.09903 96.0 
182.188629 76.0 
182.369354 36.0 
182.713837 100.0 
182.998291 36.0 
183.116837 396.0 
183.524658 52.0 
184.134995 216.0 
184.328629 44.0 
184.633377 40.0 
185.105911 616.0 
185.377274 36.0 
186.095566 76.0 
186.533356 44.0 
186.637848 52.0 
186.986343 48.0 
187.103516 248.0 
187.310013 68.0 
188.09465 156.0 
188.208633 40.0 
188.289841 56.0 
188.900101 68.0 
189.130615 6808.0 
189.326401 76.0 
189.484207 52.0 
189.589035 92.0 
189.748672 48.0 
189.772339 36.0 
189.798615 64.0 
189.899368 44.0 
189.988022 28.0 
190.135376 728.0 
190.330826 36.0 
190.436371 24.0 
191.026199 36.0 
191.139999 152.0 
191.555161 32.0 
191.678696 24.0 
191.819931 32.0 
191.978867 40.0 
192.140747 324.0 
192.668381 32.0 
193.142517 72.0 
193.16217 220.0 
193.250748 52.0 
193.589661 44.0 
194.109146 212.0 
195.106323 116.0 
195.884628 40.0 
196.128983 100.0 
196.384537 32.0 
196.545364 68.0 
197.129959 372.0 
197.278839 28.0 
197.543533 36.0 
197.681931 32.0 
198.094421 104.0 
198.834198 52.0 
199.145782 176.0 
200.113113 100.0 
200.93959 48.0 
201.128311 540.0 
201.49115 28.0 
201.563538 48.0 
201.708359 116.0 
202.106232 108.0 
202.224716 40.0 
202.823425 44.0 
202.923309 40.0 
202.995956 28.0 
203.116623 196.0 
204.094543 68.0 
204.725189 52.0 
205.107254 340.0 
205.245392 68.0 
205.51944 56.0 
205.58342 24.0 
205.796295 112.0 
206.101654 96.0 
206.443436 60.0 
206.55336 40.0 
206.690796 92.0 
206.910797 40.0 
207.136505 328.0 
208.027878 36.0 
208.145889 72.0 
208.27005 60.0 
208.57373 32.0 
208.739471 40.0 
209.14267 624.0 
209.486115 36.0 
209.587616 64.0 
210.136139 180.0 
210.341125 124.0 
210.576202 32.0 
210.955612 36.0 
211.135742 116.0 
211.789688 64.0 
211.919571 80.0 
212.068069 116.0 
212.151215 88.0 
212.328064 52.0 
212.578934 36.0 
213.127457 352.0 
213.900711 32.0 
213.965973 52.0 
214.14444 292.0 
214.852676 44.0 
215.115067 332.0 
215.582092 44.0 
215.806763 36.0 
216.073303 148.0 
216.156509 144.0 
216.950699 48.0 
217.124908 756.0 
217.241867 88.0 
217.42981 40.0 
217.542618 52.0 
217.768311 48.0 
218.149277 636.0 
218.436691 40.0 
218.615738 56.0 
219.011765 36.0 
219.130081 464.0 
219.389252 48.0 
219.502579 68.0 
219.79184 84.0 
220.172882 5008.0 
220.343887 32.0 
220.424088 40.0 
220.552109 24.0 
220.769897 44.0 
220.870422 124.0 
220.977539 148.0 
221.165359 848.0 
221.26268 32.0 
221.415756 80.0 
221.53418 64.0 
221.888916 28.0 
222.147141 420.0 
222.3069 24.0 
222.382935 40.0 
222.744308 44.0 
223.148438 1072.0 
223.582275 88.0 
223.677612 40.0 
223.782486 40.0 
224.122314 132.0 
224.249969 48.0 
224.61644 60.0 
224.727509 88.0 
225.133698 424.0 
225.492615 20.0 
226.102722 92.0 
226.167816 168.0 
226.347076 44.0 
226.508392 24.0 
227.130768 436.0 
227.257309 48.0 
228.113007 344.0 
228.180054 112.0 
228.421539 40.0 
228.643173 28.0 
228.778137 40.0 
229.158371 1020.0 
229.281921 36.0 
229.530792 32.0 
229.857178 56.0 
230.160461 340.0 
230.342728 32.0 
230.846069 24.0 
230.962296 40.0 
231.114594 664.0 
231.131485 152.0 
232.029144 72.0 
232.169998 400.0 
232.573212 44.0 
232.991409 80.0 
233.14386 172.0 
233.293137 44.0 
233.448944 48.0 
233.546341 40.0 
233.70224 28.0 
234.095123 40.0 
234.173096 68.0 
234.193558 112.0 
234.404373 44.0 
235.146881 388.0 
235.254211 28.0 
235.352966 40.0 
235.684601 44.0 
236.125015 144.0 
236.218994 76.0 
236.517136 56.0 
237.129715 668.0 
237.331512 36.0 
237.704819 56.0 
237.773621 36.0 
237.930908 40.0 
238.153976 264.0 
238.462158 28.0 
238.737854 60.0 
239.14299 536.0 
239.289734 136.0 
239.723801 36.0 
239.822495 40.0 
239.911346 92.0 
240.073837 84.0 
240.117905 84.0 
240.140915 164.0 
240.306442 24.0 
241.175812 264.0 
241.187683 928.0 
242.137619 136.0 
242.16153 132.0 
242.663986 48.0 
242.832825 100.0 
243.136093 680.0 
243.349625 32.0 
243.648041 36.0 
243.862015 72.0 
244.177933 88.0 
245.153931 412.0 
245.424683 136.0 
245.781982 44.0 
245.9319 44.0 
246.143997 216.0 
246.241882 44.0 
246.512039 36.0 
246.592102 32.0 
246.71225 100.0 
246.873581 36.0 
246.952591 56.0 
247.158585 548.0 
247.925217 28.0 
248.166443 3968.0 
248.367035 56.0 
248.49765 44.0 
248.86882 52.0 
249.16629 1000.0 
249.335526 64.0 
249.503525 56.0 
249.644501 20.0 
249.943146 56.0 
250.174271 192.0 
251.02623 40.0 
251.173965 852.0 
251.40004 28.0 
251.51123 40.0 
251.733688 32.0 
251.84494 32.0 
252.189209 544.0 
252.452271 40.0 
252.665009 32.0 
252.746506 52.0 
252.939789 36.0 
253.15683 544.0 
253.455948 56.0 
253.821411 64.0 
254.133713 124.0 
254.168594 92.0 
254.210098 140.0 
254.461624 24.0 
254.970291 68.0 
255.151947 708.0 
255.632324 32.0 
255.876984 32.0 
256.146088 104.0 
256.254395 20.0 
256.574646 64.0 
256.958038 44.0 
257.151276 532.0 
258.150116 292.0 
258.811768 52.0 
258.963074 32.0 
259.196503 1004.0 
259.314514 28.0 
259.786926 32.0 
260.144348 360.0 
260.202271 224.0 
260.321442 52.0 
260.558044 44.0 
260.834076 44.0 
261.147491 396.0 
261.577698 136.0 
261.680817 32.0 
262.167664 320.0 
262.392792 32.0 
262.60968 40.0 
263.138123 444.0 
263.420624 40.0 
263.985352 52.0 
264.154205 216.0 
264.676056 136.0 
264.799469 44.0 
264.990936 32.0 
265.132782 716.0 
265.676208 32.0 
265.936035 24.0 
266.126923 420.0 
266.476868 32.0 
266.737061 40.0 
267.190765 416.0 
267.508026 44.0 
267.664429 36.0 
267.779144 32.0 
267.987823 32.0 
268.208191 248.0 
268.614288 24.0 
269.011444 48.0 
269.191864 1952.0 
269.286224 116.0 
269.565826 52.0 
269.869446 32.0 
269.960327 68.0 
270.193512 848.0 
270.319916 68.0 
270.403748 56.0 
270.561005 40.0 
271.147003 776.0 
271.768127 92.0 
271.841705 32.0 
272.126343 104.0 
272.176117 104.0 
272.196167 84.0 
272.346405 36.0 
272.693665 116.0 
272.94635 52.0 
273.023987 76.0 
273.145538 448.0 
273.652405 32.0 
273.757874 32.0 
274.162811 232.0 
274.591705 104.0 
274.750183 36.0 
275.035126 100.0 
275.137634 344.0 
275.553772 32.0 
275.659607 32.0 
275.881897 52.0 
275.961884 40.0 
276.141602 276.0 
276.655334 32.0 
277.02655 132.0 
277.194946 2224.0 
277.458099 164.0 
277.780365 36.0 
277.875977 96.0 
278.200287 468.0 
278.59903 36.0 
279.185211 484.0 
279.344299 32.0 
279.727966 64.0 
279.930573 32.0 
280.192566 2228.0 
280.560181 76.0 
281.177704 516.0 
281.607513 44.0 
281.764771 40.0 
282.194611 140.0 
283.180603 236.0 
283.200928 704.0 
283.450409 40.0 
283.5513 40.0 
283.836884 48.0 
284.171265 168.0 
284.886719 60.0 
285.154846 484.0 
285.453247 68.0 
286.190704 224.0 
286.491364 36.0 
286.577698 40.0 
286.722321 36.0 
286.830261 40.0 
287.003021 32.0 
287.187195 1020.0 
287.575653 36.0 
287.683777 32.0 
288.189545 356.0 
288.300354 36.0 
288.516876 28.0 
289.147034 860.0 
289.41626 132.0 
289.513855 64.0 
289.644043 76.0 
289.870087 24.0 
289.909393 44.0 
290.150604 184.0 
290.244629 96.0 
290.377747 40.0 
290.621246 48.0 
290.719055 40.0 
290.838623 40.0 
291.158081 348.0 
291.191406 176.0 
291.223969 528.0 
291.425934 28.0 
291.578308 44.0 
292.197845 232.0 
292.493347 28.0 
293.195984 436.0 
293.671936 44.0 
293.859833 40.0 
294.16861 196.0 
294.907623 32.0 
295.207153 3008.0 
295.374237 92.0 
295.4552 60.0 
295.564789 52.0 
295.652466 24.0 
295.902222 200.0 
296.207214 904.0 
296.311584 40.0 
296.628754 64.0 
297.149048 728.0 
297.222809 448.0 
297.474701 36.0 
297.683655 88.0 
298.207153 192.0 
298.652283 48.0 
299.200317 404.0 
299.335663 44.0 
299.76593 32.0 
300.052948 32.0 
300.236023 180.0 
300.737915 96.0 
301.21817 2156.0 
301.711517 36.0 
301.822235 32.0 
301.956543 32.0 
302.218109 372.0 
302.71994 40.0 
303.210144 816.0 
303.441254 40.0 
303.985596 24.0 
304.211945 244.0 
304.597168 36.0 
305.185608 320.0 
305.53241 40.0 
305.621552 36.0 
306.088165 28.0 
306.205658 220.0 
307.176208 440.0 
307.340118 52.0 
307.530121 36.0 
307.764923 84.0 
308.154602 176.0 
308.861816 32.0 
308.951447 28.0 
309.160095 604.0 
309.904541 36.0 
309.983093 40.0 
310.209076 272.0 
310.376038 32.0 
310.578217 48.0 
310.825409 40.0 
310.971527 24.0 
311.179321 144.0 
311.500061 72.0 
312.170959 120.0 
312.490906 64.0 
312.81778 24.0 
313.20932 672.0 
313.675201 28.0 
314.214111 488.0 
314.929596 44.0 
315.199554 284.0 
316.22287 240.0 
316.333893 36.0 
317.025848 88.0 
317.220123 200.0 
317.502716 84.0 
318.23053 120.0 
318.79892 28.0 
318.901337 32.0 
319.197693 496.0 
319.767059 44.0 
320.198914 164.0 
320.378754 44.0 
320.815369 36.0 
320.840881 32.0 
321.207184 1180.0 
321.368164 140.0 
321.559204 48.0 
321.696381 44.0 
321.845032 44.0 
322.005157 68.0 
322.227753 256.0 
322.623138 36.0 
323.046906 28.0 
323.180908 644.0 
323.344849 36.0 
323.849396 32.0 
324.109131 132.0 
324.153687 124.0 
324.186737 60.0 
325.190887 228.0 
325.440735 44.0 
325.526398 36.0 
325.664429 36.0 
325.940552 132.0 
326.067169 44.0 
326.210022 228.0 
326.827301 60.0 
326.93103 24.0 
327.061646 48.0 
327.232849 2512.0 
327.415283 44.0 
327.646027 32.0 
327.853729 32.0 
327.981995 40.0 
328.231049 1936.0 
328.535065 44.0 
328.835541 188.0 
328.951141 28.0 
329.225067 664.0 
329.471619 20.0 
329.818817 64.0 
330.050415 32.0 
330.236816 344.0 
330.861542 36.0 
331.205353 332.0 
331.511169 48.0 
331.720123 20.0 
332.187988 84.0 
332.382233 32.0 
332.777466 36.0 
332.893768 80.0 
333.219635 312.0 
333.708405 40.0 
333.859802 32.0 
334.237518 180.0 
334.477386 40.0 
334.955536 40.0 
335.239227 468.0 
335.749329 40.0 
336.230682 152.0 
336.392059 44.0 
336.485596 56.0 
336.719482 40.0 
336.988586 52.0 
337.14743 744.0 
337.421692 36.0 
337.552643 44.0 
337.644196 36.0 
337.773041 40.0 
338.042542 36.0 
338.228424 152.0 
338.523254 48.0 
339.223755 748.0 
339.626617 36.0 
339.779358 24.0 
340.208374 112.0 
340.484711 52.0 
340.679565 64.0 
341.187286 516.0 
341.367462 36.0 
341.4617 32.0 
342.161133 120.0 
342.241699 124.0 
342.449463 140.0 
342.581635 52.0 
342.912079 32.0 
343.193787 372.0 
343.502533 36.0 
343.597046 112.0 
344.245483 136.0 
344.412842 72.0 
344.901428 140.0 
345.231964 976.0 
345.395416 32.0 
346.106598 92.0 
346.238586 780.0 
346.71167 128.0 
347.224854 456.0 
347.852081 40.0 
348.006653 104.0 
348.238159 448.0 
348.518188 40.0 
349.21167 376.0 
349.488312 32.0 
349.737823 48.0 
350.230347 232.0 
350.436768 32.0 
350.651581 36.0 
351.030396 44.0 
351.16275 484.0 
351.417267 36.0 
351.810394 36.0 
352.189117 48.0 
352.208344 160.0 
352.444366 52.0 
352.552094 44.0 
352.940796 68.0 
353.090881 64.0 
353.248505 1968.0 
353.78595 40.0 
353.893494 84.0 
354.253387 856.0 
354.397705 28.0 
354.506805 44.0 
354.757812 36.0 
354.853851 32.0 
354.985962 44.0 
355.163239 548.0 
355.574707 92.0 
355.694916 40.0 
355.983521 108.0 
356.16394 60.0 
356.243225 140.0 
356.621246 36.0 
356.958374 40.0 
357.215363 612.0 
357.464386 28.0 
358.226288 460.0 
358.514893 80.0 
358.594147 24.0 
358.737 32.0 
358.827545 36.0 
359.257019 748.0 
359.391296 24.0 
359.643097 64.0 
359.810822 32.0 
359.888245 36.0 
360.01001 88.0 
360.255096 45072.0 
360.657501 80.0 
360.759033 80.0 
360.950378 124.0 
361.098663 100.0 
361.255707 9768.0 
361.520142 28.0 
361.696381 36.0 
361.877991 44.0 
362.053436 72.0 
362.262726 1304.0 
362.758636 48.0 
362.932678 32.0 
363.029816 32.0 
363.239319 288.0 
363.567474 32.0 
363.722443 76.0 
363.831879 36.0 
364.238892 244.0 
364.379211 48.0 
364.500916 28.0 
364.833344 52.0 
365.241089 392.0 
365.69455 32.0 
365.914032 44.0 
366.048157 36.0 
366.239929 156.0 
366.630463 88.0 
366.698883 96.0 
367.21991 84.0 
367.500916 44.0 
367.598694 56.0 
368.263733 624.0 
368.528107 60.0 
368.713562 44.0 
368.9198 48.0 
369.171234 1312.0 
369.576294 128.0 
370.176575 272.0 
370.284119 228.0 
370.415039 48.0 
370.622589 52.0 
370.758636 40.0 
371.047485 40.0 
371.254822 1192.0 
372.044647 76.0 
372.248474 708.0 
372.675873 36.0 
372.958954 24.0 
373.203766 128.0 
373.352997 40.0 
373.513153 52.0 
374.269745 564.0 
374.450043 44.0 
374.807831 32.0 
375.252625 404.0 
375.548645 32.0 
375.857544 40.0 
376.247894 432.0 
376.705139 88.0 
377.254303 392.0 
377.37915 48.0 
377.62439 40.0 
378.023346 40.0 
378.253204 260.0 
379.255463 344.0 
379.897125 24.0 
380.158081 64.0 
380.255676 268.0 
380.779785 68.0 
381.016174 36.0 
381.226837 92.0 
381.962402 136.0 
382.271637 128.0 
382.560638 36.0 
382.647919 28.0 
382.878632 104.0 
383.237427 204.0 
384.279816 304.0 
384.608093 52.0 
385.058289 44.0 
385.269196 816.0 
385.696503 52.0 
386.033264 116.0 
386.269409 4520.0 
386.548248 24.0 
386.670807 36.0 
386.884216 68.0 
387.182159 1620.0 
387.463684 40.0 
387.714142 52.0 
388.003418 40.0 
388.185547 1292.0 
388.28244 200.0 
388.644043 40.0 
389.008575 36.0 
389.214233 520.0 
389.360687 140.0 
389.662628 44.0 
389.887878 40.0 
390.246796 100.0 
391.217651 248.0 
391.527161 36.0 
391.77948 104.0 
392.082336 48.0 
392.278992 300.0 
393.080139 32.0 
393.235992 124.0 
393.459381 40.0 
393.982788 104.0 
394.178284 116.0 
394.26886 236.0 
394.800812 52.0 
395.254425 184.0 
396.242126 208.0 
396.817261 40.0 
397.247528 284.0 
397.554077 36.0 
397.973633 28.0 
398.252899 152.0 
398.584259 40.0 
398.88974 40.0 
399.25943 148.0 
400.273834 132.0 
400.495514 44.0 
401.04425 36.0 
401.204529 740.0 
401.695557 28.0 
402.200348 288.0 
402.293915 104.0 
402.782257 28.0 
402.884583 40.0 
403.063751 40.0 
403.267151 304.0 
404.281158 704.0 
404.588104 96.0 
404.793304 32.0 
405.239532 148.0 
405.421967 52.0 
405.97406 40.0 
406.274658 156.0 
407.262543 336.0 
407.709839 36.0 
407.85144 36.0 
408.2565 132.0 
408.469604 36.0 
409.042084 104.0 
409.249664 300.0 
409.526703 44.0 
409.617004 32.0 
409.730164 120.0 
409.849274 44.0 
410.032928 52.0 
410.222687 184.0 
410.244141 260.0 
410.885193 36.0 
411.024475 40.0 
411.248627 116.0 
411.901306 32.0 
412.283508 1940.0 
412.900513 40.0 
413.159607 140.0 
413.286713 728.0 
413.574341 92.0 
414.278717 192.0 
414.884705 32.0 
415.246307 372.0 
415.807068 36.0 
416.275391 116.0 
416.574341 28.0 
417.055847 36.0 
417.266357 536.0 
418.063843 52.0 
418.29187 1112.0 
419.036957 100.0 
419.283936 312.0 
419.624359 32.0 
419.794128 32.0 
420.221649 244.0 
420.813477 40.0 
421.215973 152.0 
421.415192 32.0 
422.122131 32.0 
422.308563 120.0 
422.633057 40.0 
423.220001 204.0 
423.708344 96.0 
423.94455 60.0 
424.271362 336.0 
424.758698 112.0 
425.267365 436.0 
426.272003 168.0 
427.263611 1152.0 
427.680267 56.0 
428.273682 404.0 
428.563965 48.0 
428.669525 96.0 
429.144806 64.0 
429.279816 232.0 
430.285095 784.0 
430.638306 148.0 
431.263763 232.0 
431.710449 52.0 
432.297241 228.0 
432.797211 140.0 
433.03595 32.0 
433.252258 312.0 
433.699463 120.0 
433.991547 36.0 
434.275024 252.0 
435.256592 104.0 
435.559967 32.0 
436.118896 32.0 
436.264374 108.0 
436.758118 92.0 
436.931335 36.0 
437.282104 136.0 
437.491119 32.0 
437.94162 36.0 
437.982666 28.0 
438.297272 124.0 
438.812103 44.0 
438.985718 52.0 
439.296295 568.0 
439.586945 36.0 
440.028107 32.0 
440.292023 360.0 
441.277557 256.0 
441.500214 44.0 
441.727936 44.0 
442.011169 148.0 
442.289886 492.0 
442.800385 36.0 
442.961365 44.0 
443.305023 708.0 
443.55188 228.0 
443.914429 28.0 
444.309265 3828.0 
444.929016 32.0 
445.297333 1332.0 
445.837097 52.0 
445.97171 68.0 
446.079407 40.0 
446.285797 620.0 
446.717133 44.0 
447.288605 232.0 
448.101196 36.0 
448.2836 440.0 
448.830139 52.0 
449.019226 40.0 
449.283417 220.0 
449.465088 32.0 
449.843597 40.0 
450.308258 336.0 
450.533356 48.0 
450.736359 80.0 
451.234039 272.0 
451.657104 36.0 
452.294952 96.0 
453.284241 36.0 
453.772949 52.0 
454.286682 132.0 
454.859894 36.0 
455.28125 164.0 
456.179596 36.0 
456.306885 360.0 
456.765228 32.0 
457.301392 308.0 
457.583008 32.0 
458.29071 360.0 
459.0159 36.0 
459.292175 1004.0 
459.42569 80.0 
459.766876 112.0 
460.027069 184.0 
460.302185 372.0 
461.121521 32.0 
461.307495 220.0 
461.696594 72.0 
462.320312 348.0 
462.79303 44.0 
463.151337 32.0 
463.296204 168.0 
463.849548 36.0 
463.986847 40.0 
464.323303 172.0 
464.563721 40.0 
464.673645 140.0 
465.291107 240.0 
465.842377 32.0 
465.952454 36.0 
466.090057 44.0 
466.296875 1164.0 
466.626923 44.0 
466.929901 44.0 
467.295746 680.0 
467.861938 108.0 
468.115265 36.0 
468.308044 120.0 
468.887939 28.0 
469.257141 68.0 
470.18634 36.0 
470.313721 212.0 
471.288177 72.0 
472.319885 228.0 
473.277283 260.0 
473.648285 44.0 
473.787018 92.0 
474.092316 40.0 
474.308685 180.0 
474.689331 32.0 
475.276093 192.0 
475.773254 40.0 
476.328918 372.0 
476.955841 40.0 
477.10202 32.0 
477.298218 1524.0 
477.498932 72.0 
477.787903 124.0 
477.972656 32.0 
478.301147 664.0 
478.67981 84.0 
479.301788 288.0 
479.548767 52.0 
479.939697 52.0 
480.312683 136.0 
480.833862 48.0 
481.316559 204.0 
481.53302 60.0 
482.299072 100.0 
482.848816 72.0 
483.304749 96.0 
484.304108 616.0 
484.755676 44.0 
485.300903 516.0 
486.300476 164.0 
486.849152 152.0 
487.289276 116.0 
488.158081 40.0 
488.326172 188.0 
489.310638 240.0 
490.131836 64.0 
490.316193 164.0 
491.309296 188.0 
492.31012 232.0 
493.30368 264.0 
494.30304 68.0 
494.325134 64.0 
495.306122 388.0 
495.864075 36.0 
496.298035 148.0 
496.534454 120.0 
497.853333 32.0 
498.194733 60.0 
498.321533 400.0 
499.105774 48.0 
499.329681 148.0 
500.308929 308.0 
500.630737 44.0 
501.145325 56.0 
501.278442 160.0 
501.986603 32.0 
502.312073 248.0 
503.28714 68.0 
504.316742 128.0 
504.9617 44.0 
505.317413 252.0 
505.57785 48.0 
505.950562 56.0 
506.326294 656.0 
507.141357 40.0 
507.320435 280.0 
507.500305 28.0 
508.323273 148.0 
508.764801 108.0 
509.023651 40.0 
509.325165 724.0 
510.330048 472.0 
510.822968 36.0 
511.183228 52.0 
511.572418 32.0 
512.30603 276.0 
512.452271 48.0 
512.856445 36.0 
513.188538 32.0 
513.289612 124.0 
514.142029 96.0 
515.168762 40.0 
515.333313 108.0 
515.660828 44.0 
515.762146 36.0 
516.335083 252.0 
516.544189 32.0 
517.09491 32.0 
517.349182 216.0 
517.500854 28.0 
517.754089 52.0 
517.964966 40.0 
518.32605 1744.0 
518.693848 36.0 
518.908386 52.0 
519.32666 580.0 
519.49707 40.0 
519.823608 40.0 
520.335144 212.0 
521.059753 44.0 
521.365356 112.0 
522.151611 144.0 
522.357422 156.0 
523.340454 112.0 
523.490051 116.0 
523.828064 32.0 
524.101318 88.0 
524.337341 168.0 
525.331116 84.0 
526.062683 84.0 
526.351807 96.0 
527.330139 332.0 
527.789307 104.0 
528.356812 160.0 
529.308716 172.0 
530.33905 156.0 
531.317932 112.0 
532.337891 260.0 
532.750793 64.0 
533.177612 192.0 
533.346436 372.0 
534.346069 336.0 
534.871643 40.0 
535.107544 32.0 
535.359314 108.0 
536.028625 36.0 
536.339294 1632.0 
536.522888 48.0 
536.848938 76.0 
537.342224 1008.0 
537.484253 120.0 
537.961365 124.0 
538.350037 1272.0 
538.563599 84.0 
538.833252 36.0 
538.977905 44.0 
539.353271 532.0 
539.667114 40.0 
540.029175 44.0 
540.363647 120.0 
540.518127 36.0 
541.111084 76.0 
541.214905 36.0 
541.352844 1004.0 
541.53009 32.0 
542.343506 332.0 
543.329346 136.0 
543.92926 148.0 
544.283386 124.0 
544.690613 84.0 
544.943542 56.0 
545.343445 60.0 
545.568726 32.0 
546.316528 96.0 
546.790344 136.0 
547.192871 80.0 
547.337219 300.0 
547.714905 28.0 
548.072998 32.0 
548.335083 288.0 
548.804504 40.0 
549.349365 148.0 
549.745667 48.0 
550.149292 44.0 
550.351013 1328.0 
550.553101 40.0 
551.076721 36.0 
551.353088 804.0 
552.359314 292.0 
553.330383 212.0 
554.360229 204.0 
555.3172 48.0 
555.920715 124.0 
556.126526 52.0 
556.419373 216.0 
557.439819 36.0 
558.313049 44.0 
558.795166 44.0 
558.991089 36.0 
559.341614 248.0 
560.167236 44.0 
560.340881 208.0 
560.580322 64.0 
560.831299 36.0 
561.042664 40.0 
561.343567 108.0 
562.307861 96.0 
562.508179 36.0 
563.321777 200.0 
563.657776 44.0 
563.854553 48.0 
564.347168 120.0 
564.512878 56.0 
565.334045 316.0 
565.49353 40.0 
566.344543 168.0 
566.599548 32.0 
567.113647 40.0 
567.347107 144.0 
567.721008 40.0 
567.841003 40.0 
567.994446 48.0 
568.191956 36.0 
568.364075 1640.0 
568.511108 100.0 
568.685913 40.0 
568.980713 36.0 
569.360168 868.0 
569.553284 32.0 
569.682068 48.0 
569.97113 44.0 
570.359131 320.0 
570.884644 68.0 
571.113098 44.0 
571.392456 72.0 
571.997009 28.0 
572.267944 132.0 
573.110535 44.0 
573.371887 500.0 
573.873779 76.0 
574.087585 48.0 
574.240356 64.0 
574.385254 384.0 
575.322205 324.0 
576.105469 44.0 
576.329407 88.0 
576.476562 32.0 
576.625793 36.0 
576.855408 40.0 
577.330383 656.0 
578.019592 36.0 
578.336731 392.0 
578.533081 40.0 
578.803345 32.0 
579.352234 2376.0 
579.653992 84.0 
579.849243 88.0 
580.044373 32.0 
580.167175 36.0 
580.351807 912.0 
580.581787 32.0 
581.365417 384.0 
581.888123 52.0 
582.372192 244.0 
583.36792 100.0 
584.351013 76.0 
585.152588 56.0 
585.47644 44.0 
586.402283 152.0 
586.710999 180.0 
587.410461 56.0 
587.606934 76.0 
588.341125 112.0 
588.518982 44.0 
588.90564 36.0 
589.075806 28.0 
589.400757 76.0 
590.360657 64.0 
591.338257 456.0 
592.38678 124.0 
592.950012 44.0 
593.364075 72.0 
594.350769 64.0 
595.346741 200.0 
595.498413 88.0 
596.366943 116.0 
596.899292 44.0 
597.358521 376.0 
597.506836 32.0 
598.36615 112.0 
599.356934 84.0 
599.580994 44.0 
600.049377 20.0 
600.385559 1900.0 
600.723633 48.0 
600.955383 36.0 
601.173279 140.0 
601.395386 508.0 
601.846436 56.0 
602.39801 352.0 
603.207764 44.0 
603.375793 120.0 
603.802795 32.0 
604.366821 48.0 
605.229065 32.0 
605.385925 68.0 
605.84082 40.0 
605.950684 24.0 
606.409851 140.0 
607.353821 84.0 
608.133789 76.0 
608.463928 76.0 
609.093079 32.0 
609.362 640.0 
609.835754 144.0 
610.021606 48.0 
610.365173 520.0 
611.366333 304.0 
612.396545 124.0 
612.653748 48.0 
613.400085 188.0 
614.058777 80.0 
614.421814 80.0 
615.355896 136.0 
616.405334 92.0 
616.905396 36.0 
617.405884 112.0 
618.364807 80.0 
618.997131 56.0 
620.364624 112.0 
621.388611 56.0 
622.093628 128.0 
622.406372 132.0 
622.936523 116.0 
623.381653 192.0 
623.65271 24.0 
624.098511 32.0 
624.391968 112.0 
625.374939 200.0 
626.413452 140.0 
626.585266 32.0 
627.363464 292.0 
628.367432 216.0 
629.392517 136.0 
629.924622 48.0 
630.395874 152.0 
631.404419 116.0 
631.693787 64.0 
632.166504 32.0 
632.413818 2260.0 
632.663452 132.0 
633.048279 36.0 
633.414307 1044.0 
633.576416 52.0 
633.914673 32.0 
634.171509 48.0 
634.41687 464.0 
635.417297 84.0 
636.388733 244.0 
637.381836 88.0 
638.394714 132.0 
638.609802 96.0 
639.391174 84.0 
639.931458 56.0 
640.416504 120.0 
640.705688 52.0 
641.389404 424.0 
641.771057 84.0 
642.395142 360.0 
643.403137 52.0 
644.432922 116.0 
645.369629 184.0 
645.830811 108.0 
646.041443 52.0 
646.405945 144.0 
647.41449 80.0 
647.597778 28.0 
648.035889 36.0 
648.16571 40.0 
648.40918 48.0 
648.620178 88.0 
649.38147 132.0 
650.147156 36.0 
650.394592 312.0 
651.401306 276.0 
652.408386 32.0 
653.379211 48.0 
654.369934 84.0 
655.162964 32.0 
655.405334 80.0 
656.060669 32.0 
656.396973 408.0 
656.548828 36.0 
656.926331 32.0 
657.089722 32.0 
657.405945 164.0 
658.005066 52.0 
658.40979 268.0 
659.389709 408.0 
659.755859 36.0 
660.157837 48.0 
660.413574 200.0 
660.820618 44.0 
661.401611 148.0 
662.164978 80.0 
662.401855 64.0 
663.412231 48.0 
664.036255 44.0 
664.392639 52.0 
665.400391 64.0 
666.025391 28.0 
666.420288 88.0 
667.415527 76.0 
668.083374 56.0 
668.403076 424.0 
668.577759 40.0 
669.403381 280.0 
670.395752 308.0 
670.804749 48.0 
671.416687 160.0 
671.746155 52.0 
672.425476 64.0 
673.018921 48.0 
673.412903 192.0 
674.390503 116.0 
675.416138 72.0 
675.899475 124.0 
676.394287 80.0 
677.432312 148.0 
679.134949 32.0 
679.450623 28.0 
679.766418 32.0 
680.18512 84.0 
680.664185 136.0 
681.679016 40.0 
682.06189 120.0 
682.409058 448.0 
683.422424 280.0 
684.393127 188.0 
684.878296 36.0 
685.36676 116.0 
685.762756 100.0 
686.403748 416.0 
687.015259 36.0 
687.382507 192.0 
687.616882 40.0 
687.966919 64.0 
688.436951 436.0 
688.754028 36.0 
689.416199 480.0 
689.565674 104.0 
690.483643 100.0 
690.729553 40.0 
691.416199 172.0 
691.885986 32.0 
692.238159 36.0 
692.421448 148.0 
693.393616 88.0 
693.563782 24.0 
694.453796 84.0 
695.512512 48.0 
696.180542 44.0 
696.454285 72.0 
697.463989 44.0 
698.036499 28.0 
699.401367 56.0 
700.419678 912.0 
700.700012 48.0 
700.974243 80.0 
701.420837 696.0 
701.814148 28.0 
702.042542 92.0 
702.422485 528.0 
703.42926 76.0 
704.41925 116.0 
705.429688 160.0 
705.90686 88.0 
706.27948 100.0 
706.445068 204.0 
706.838623 32.0 
707.453735 148.0 
707.838928 40.0 
708.093323 44.0 
708.415649 44.0 
708.551392 44.0 
709.42688 236.0 
710.425171 144.0 
711.422913 68.0 
711.778992 96.0 
712.357361 44.0 
713.736145 44.0 
714.042725 44.0 
714.460999 160.0 
714.792419 44.0 
715.443848 216.0 
716.451721 76.0 
717.459229 104.0 
718.433655 576.0 
718.837219 124.0 
719.025269 44.0 
719.425415 624.0 
720.443298 504.0 
720.718445 84.0 
721.447876 268.0 
721.762756 40.0 
722.473816 156.0 
723.442749 136.0 
723.92218 28.0 
724.458984 168.0 
725.191956 44.0 
726.46283 148.0 
727.906738 36.0 
730.471558 64.0 
732.445984 704.0 
732.730286 28.0 
732.95459 40.0 
733.457336 504.0 
734.443481 184.0 
735.420837 188.0 
736.289124 52.0 
736.43573 260.0 
737.4422 236.0 
737.829407 56.0 
738.441589 128.0 
739.454041 152.0 
740.458435 40.0 
741.470093 64.0 
741.990906 24.0 
742.477173 60.0 
743.206848 32.0 
744.702148 100.0 
746.451843 48.0 
747.488037 40.0 
748.324829 100.0 
748.446899 64.0 
750.46344 812.0 
751.117493 48.0 
751.464661 392.0 
751.711609 32.0 
752.480713 216.0 
752.91803 28.0 
753.477844 192.0 
754.072937 48.0 
754.458069 76.0 
755.530273 56.0 
755.894531 112.0 
756.44928 80.0 
757.460938 84.0 
758.443115 88.0 
758.947083 36.0 
759.21051 32.0 
759.702393 60.0 
760.299927 28.0 
760.440552 44.0 
762.833069 24.0 
763.255676 32.0 
764.486511 216.0 
765.463196 216.0 
766.440979 100.0 
767.409973 84.0 
767.558838 44.0 
768.159424 104.0 
768.458801 176.0 
769.476624 112.0 
770.061218 76.0 
770.489014 212.0 
770.617126 80.0 
771.46814 100.0 
772.500854 204.0 
773.007935 36.0 
773.491272 80.0 
774.478699 116.0 
775.047424 32.0 
781.253357 40.0 
781.467163 68.0 
781.841431 48.0 
782.484375 880.0 
783.245056 92.0 
783.476257 664.0 
784.481628 188.0 
785.382141 104.0 
785.507202 140.0 
786.475891 32.0 
787.448242 132.0 
787.59137 64.0 
788.351135 52.0 
788.568481 60.0 
789.417175 64.0 
791.280945 60.0 
791.872742 32.0 
796.345642 28.0 
796.487732 232.0 
797.515076 240.0 
798.47876 44.0 
798.974182 56.0 
799.454163 292.0 
800.235962 56.0 
800.472778 168.0 
801.137878 64.0 
801.47522 140.0 
802.462036 116.0 
802.834778 164.0 
803.423157 84.0 
804.529846 100.0 
804.822815 36.0 
804.949402 56.0 
805.546326 60.0 
806.540344 104.0 
809.531555 68.0 
811.346313 124.0 
812.476868 112.0 
812.635986 20.0 
813.466675 256.0 
814.054016 96.0 
814.518433 516.0 
815.501526 760.0 
815.728149 52.0 
815.964844 36.0 
816.498657 272.0 
816.766235 40.0 
816.948425 52.0 
817.462891 156.0 
818.519897 56.0 
819.592407 32.0 
820.99823 44.0 
825.589172 68.0 
827.091736 32.0 
827.641846 32.0 
827.770203 48.0 
828.102661 32.0 
828.508545 312.0 
828.83429 36.0 
829.036194 184.0 
829.483765 1152.0 
829.697083 32.0 
830.487244 908.0 
830.786926 60.0 
831.001221 56.0 
831.184998 40.0 
831.489563 6412.0 
831.986633 76.0 
832.30542 76.0 
832.493225 3680.0 
832.819458 40.0 
833.010193 88.0 
833.180237 72.0 
833.488892 1188.0 
833.662109 76.0 
833.8078 40.0 
833.878296 28.0 
833.931213 52.0 
834.220154 32.0 
834.482971 532.0 
834.993591 32.0 
835.494751 312.0 
835.712158 44.0 
836.136047 36.0 
836.283508 32.0 
836.965698 32.0 
837.297729 48.0 
837.832703 24.0 
838.201782 44.0 
841.471558 48.0 
848.40155 28.0 
853.273193 132.0 
853.496643 92.0 
854.688965 60.0 
855.844788 180.0 
857.822632 40.0 
859.092712 124.0 
864.032349 156.0 
865.100708 36.0 
866.301086 84.0 
883.648315 36.0 
893.376892 128.0 
901.148376 116.0 
908.569153 124.0 
908.953491 64.0 
912.916809 48.0 
913.340637 68.0 
915.364563 164.0 
923.831421 156.0 
937.072998 148.0 
938.771484 60.0 
945.737427 112.0 
946.541382 116.0 
956.451599 120.0 
960.398499 144.0 
962.829895 148.0 
963.20575 36.0 
982.551514 164.0 
984.470703 64.0 
987.613342 104.0 
996.387146 144.0 
1014.903809 72.0 
1038.720703 40.0 
1041.454956 64.0 
1073.668701 72.0 
1095.965698 156.0 
1180.755005 72.0 
1180.908325 96.0 
1235.993774 100.0 
1269.020996 152.0 
1353.259399 120.0 
1481.79541 84.0 
1855.825684 76.0 
END IONS

