BEGIN IONS
PEPMASS=432.165
CHARGE=1+
COMPOUNDNAME=(5S,8S)-8-benzoyl-2-[(Z,1S,2S)-1,2-dihydroxyhex-3-enyl]-9-hydroxy-8-methoxy-3-methyl-1-oxa-7-azaspiro[4.4]non-2-ene-4,6-dione
LIBRARYQUALITY=3
SMILES=N/A
INCHIKEY=SLYDIPAXCVVRNY-BBJHAQHQSA-N
INCHI=InChI=1S/C22H25NO8/c1-4-5-11-14(24)15(25)16-12(2)17(26)21(31-16)19(28)22(30-3,23-20(21)29)18(27)13-9-7-6-8-10-13/h5-11,14-15,19,24-25,28H,4H2,1-3H3,(H,23,29)/b11-5-/t14-,15-,19?,21+,22+/m0/s1
MSLEVEL=2
SOURCE_INSTRUMENT=N/A-ESI-QFT
FILENAME=library_mgf.mgf
SEQ=*..*
IONMODE=positive
ORGANISM=MONA
NAME=(5S,8S)-8-benzoyl-2-[(Z,1S,2S)-1,2-dihydroxyhex-3-enyl]-9-hydroxy-8-methoxy-3-methyl-1-oxa-7-azaspiro[4.4]non-2-ene-4,6-dione [M+H]+
PI=MoNA
DATACOLLECTOR=MoNA:VF-NPL-QEHF020452
PUBMED=N/A
SUBMITUSER=mwang87
TAGS=
SPECTRUMID=CCMSLIB00004711515
SCANS=20452
50.012589 0.017888 
50.112274 0.026427 
50.160442 0.027499 
50.411419 0.020837 
51.363899 0.016299 
51.472572 0.023868 
51.473782 0.021781 
51.721878 0.020839 
51.936218 0.026898 
52.456623 0.018877 
52.504635 0.017813 
53.038902 0.656404 
53.896507 0.021927 
54.075455 0.033627 
54.798073 0.02236 
55.009129 0.020106 
55.018131 0.347458 
55.05452 0.453116 
55.818718 0.020459 
56.049847 0.028718 
56.202332 0.023914 
56.508266 0.017832 
56.965019 1.496386 
57.033772 0.393339 
57.070129 1.237546 
57.396206 0.019102 
58.065372 2.891959 
58.929066 0.017418 
59.049366 0.264641 
59.34267 0.018631 
60.044586 3.125886 
60.081039 0.215514 
60.091862 0.028129 
60.821064 0.021382 
60.833321 0.020207 
60.965221 0.018464 
61.010868 0.199753 
61.148628 0.033524 
62.00309 0.02461 
62.018677 0.152533 
63.111912 0.020979 
63.67012 0.023379 
64.408646 0.02078 
64.739586 0.024175 
65.247345 0.034897 
65.495758 0.025896 
66.317543 0.025247 
66.824379 0.020633 
66.858414 0.020643 
67.054329 1.122737 
68.220879 0.018733 
68.695351 0.021511 
69.033546 0.360489 
69.069954 1.071466 
69.923309 0.027127 
70.065178 1.2827 
70.185234 0.025515 
70.882179 0.024434 
71.049187 0.57068 
71.085541 0.294128 
71.30275 0.0196 
71.556221 0.018559 
71.563034 0.020074 
71.706932 0.02608 
72.044441 0.092877 
72.080803 0.840594 
72.270927 0.028051 
72.976135 0.020739 
73.046806 0.23808 
73.064735 0.253151 
73.086258 0.030372 
73.365265 0.021469 
74.059998 0.093043 
74.096275 0.01898 
74.410423 0.016136 
75.043938 0.022532 
75.751709 0.01969 
77.038651 0.326445 
77.045227 0.018915 
77.295692 0.0225 
77.866173 0.023405 
78.40493 0.021919 
79.021194 2.035014 
79.054245 0.529044 
79.470528 0.016565 
79.625641 0.020687 
79.921097 0.024454 
81.033485 0.597626 
81.069901 1.738162 
82.899811 0.041741 
83.012718 0.272207 
83.049103 3.359709 
83.08548 0.276931 
83.548798 0.027152 
84.044388 0.018077 
84.052567 0.107765 
84.080795 1.412863 
84.616585 0.016749 
84.959656 1.303245 
85.028465 0.22107 
85.039474 0.043783 
85.064796 1.029869 
86.059998 0.746545 
86.096397 1.746687 
87.04406 1.523284 
87.147774 0.024637 
88.0756 0.15291 
88.562492 0.018458 
89.059692 11.194988 
90.054802 0.065777 
90.063087 0.234851 
91.054291 0.821609 
91.05735 1.085167 
91.495544 0.019899 
92.072983 0.021698 
93.069862 0.624293 
93.21106 0.020677 
93.570206 0.022858 
94.065048 0.072057 
94.533798 0.035712 
95.049187 2.862572 
95.060371 0.583657 
95.085518 0.966636 
95.287354 0.038246 
96.00795 0.272684 
96.080742 0.767786 
96.665138 0.018262 
96.901588 0.022369 
97.028404 0.055817 
97.064789 0.799435 
97.101257 0.135911 
98.041649 0.018625 
98.060043 0.188225 
98.096298 0.073908 
98.641594 0.026075 
98.71051 0.019113 
98.975304 1.807955 
99.044044 0.49352 
99.080269 0.148412 
99.329102 0.021398 
100.075691 0.100497 
100.682693 0.017479 
101.023079 0.022668 
101.04216 0.022011 
101.059715 0.696855 
101.512451 0.024002 
102.392273 0.022408 
102.78495 0.018893 
102.970337 0.044729 
104.070663 0.401524 
104.160965 0.018446 
105.033524 100.0 
105.04451 0.121111 
105.060127 0.022379 
105.069939 0.428868 
105.396767 0.020966 
106.036819 7.976963 
106.065163 0.302572 
106.888527 0.018027 
107.040062 0.025086 
107.049065 0.246626 
107.085526 0.942339 
107.089378 0.145641 
107.253159 0.021247 
108.044083 0.023527 
108.08062 0.024793 
109.02816 0.031498 
109.064774 2.106673 
109.076096 0.083237 
109.101189 0.28411 
109.248848 0.016419 
110.060043 0.880912 
111.044006 0.768858 
111.052788 0.193165 
111.080429 0.067985 
112.036743 1.784168 
112.075653 0.325042 
112.112076 0.120209 
113.023285 0.147536 
113.059639 0.608946 
113.384529 0.026382 
113.659088 0.02168 
114.018509 0.771255 
114.054848 0.119016 
114.707642 0.027999 
115.03894 1.321937 
115.086411 0.016142 
115.490425 0.018128 
115.881912 0.019771 
116.042191 0.021251 
116.070557 0.407703 
116.106949 0.145513 
116.985832 1.756109 
117.069748 0.049053 
117.151085 0.021571 
117.401558 0.028065 
118.057663 0.101695 
118.065125 0.20375 
118.08622 0.02068 
119.049118 0.169617 
119.085541 2.676819 
119.858742 0.018004 
120.080818 0.461062 
120.48452 0.032812 
121.028374 0.174264 
121.042122 0.019608 
121.064728 1.759166 
121.101158 0.293004 
121.630669 0.023551 
122.059944 0.098965 
123.043983 0.460289 
123.080421 0.580975 
124.039452 0.137225 
124.075844 0.159468 
124.083664 0.026025 
124.112389 0.022549 
124.991066 0.148159 
125.023293 0.265919 
125.059608 0.216025 
125.09613 0.270305 
126.007225 0.026606 
126.054848 0.109091 
126.091362 0.265646 
127.038788 0.407833 
127.050201 0.066281 
128.070801 0.0233 
128.458206 0.025987 
129.055191 0.016195 
130.065033 0.228743 
130.15889 0.021008 
131.085556 0.186197 
131.437531 0.017772 
131.833847 0.02552 
132.04454 0.107739 
133.064743 0.152452 
133.085831 4.210419 
133.101089 0.196581 
133.819809 0.019503 
134.059937 3.415419 
134.088974 0.032852 
134.096115 0.040422 
134.978683 1.280294 
134.996384 1.180388 
135.043961 0.570869 
135.063171 0.061912 
135.080353 1.558886 
135.091309 0.053333 
135.116333 0.040031 
136.039291 0.378624 
136.075714 0.924436 
136.083725 0.020621 
136.112152 0.350465 
136.744614 0.034172 
137.011887 0.047878 
137.02327 0.438933 
137.059708 0.494426 
137.096008 0.168171 
137.689346 0.020217 
138.054947 0.326771 
138.091339 0.099129 
138.127823 0.237125 
138.886276 0.022478 
139.038895 1.089272 
139.075302 0.172939 
139.111908 0.019052 
140.070709 0.0954 
140.107086 0.025564 
141.01799 0.043309 
141.054657 0.243747 
141.772659 0.016676 
142.12236 0.045774 
142.347183 0.021536 
143.001495 1.271522 
143.085861 0.078358 
144.044632 0.027131 
144.101929 0.337713 
145.101013 0.12778 
146.059998 0.813447 
147.043808 0.157942 
147.080215 0.167896 
147.116745 0.160781 
147.810287 0.018457 
148.075745 0.208847 
149.059662 0.193921 
149.089157 0.020532 
149.096054 0.15773 
149.10733 0.312902 
150.016006 0.045881 
150.054993 1.231806 
150.091187 0.263679 
150.584335 0.024987 
151.038895 0.379606 
151.075256 0.243178 
151.0867 0.043873 
152.070557 0.417186 
152.107025 1.52124 
152.989197 1.024888 
153.018158 0.642313 
153.054565 0.133623 
153.090836 0.09687 
154.049927 0.317495 
154.122742 0.19004 
154.758896 0.02155 
155.033691 19.454775 
156.037048 1.270228 
156.287811 0.0232 
156.803467 0.021842 
157.025711 0.025515 
157.049393 0.788161 
157.101578 0.043422 
157.480515 0.02441 
158.059998 0.085598 
158.08107 0.030239 
159.067596 0.127462 
159.080444 0.185588 
159.116592 0.044281 
160.039169 0.038919 
160.07576 0.067121 
161.011948 1.181272 
161.095886 0.067999 
161.132385 0.02338 
161.885071 0.032525 
162.05484 1.533294 
162.091156 0.091218 
163.038635 0.059902 
163.057999 0.021471 
163.075287 0.217218 
163.086853 0.032197 
163.111649 0.026311 
164.070496 4.235921 
164.106934 0.274933 
165.054565 0.144794 
165.074051 0.107427 
165.091202 0.043794 
165.102188 0.326767 
166.049728 1.257284 
166.086288 0.276176 
166.122665 0.29181 
166.836975 0.017533 
167.033875 0.902866 
167.055038 0.170564 
167.070892 0.074864 
167.125824 0.017584 
168.064941 0.01633 
168.113098 0.019764 
168.461182 0.020786 
169.086105 0.024693 
169.09758 0.029433 
170.044189 0.458617 
170.996414 0.081264 
171.080505 0.203851 
172.038727 0.026701 
172.059814 0.022695 
173.011642 0.127214 
173.06041 0.040927 
174.054855 1.807451 
174.091202 0.043675 
174.733521 0.025634 
175.058212 0.057124 
175.076065 0.0326 
175.086563 0.021033 
175.111938 0.01952 
176.034027 0.251126 
176.070419 0.226304 
176.106552 0.024433 
176.120651 0.024543 
176.989349 0.199339 
177.054749 0.026911 
177.090927 0.131089 
177.102142 2.530519 
177.110794 0.233332 
177.984222 0.03405 
178.049683 0.134065 
178.086121 0.598557 
178.107666 0.121992 
178.122726 0.048328 
178.938034 0.024692 
178.994904 0.031722 
179.001694 0.068268 
179.070236 0.581362 
179.106674 0.043598 
179.459778 0.021153 
180.064529 0.137646 
180.101822 6.175345 
181.085785 0.243358 
181.105484 0.492045 
182.0811 0.350233 
182.117615 0.3969 
182.902451 0.022694 
182.996597 0.237912 
183.080276 0.017314 
183.112717 0.145167 
183.50975 0.026326 
184.036713 0.370615 
184.075455 0.038663 
184.133179 1.127184 
185.011993 0.192907 
185.07077 0.174581 
186.053528 0.365203 
186.091705 0.021253 
187.038803 0.068487 
187.075104 0.259182 
187.086349 0.234867 
188.069809 0.174798 
188.106888 0.045045 
189.006973 0.585121 
189.102509 0.136707 
189.140137 0.027162 
190.049606 0.684892 
190.086426 0.078641 
190.096939 0.045603 
190.123245 0.017393 
191.021225 0.024642 
191.031265 0.029663 
191.069778 0.191048 
191.106812 0.026529 
192.026291 0.309191 
192.03334 0.775018 
192.065491 1.651867 
192.101822 0.081825 
192.961548 0.431092 
193.035675 0.020876 
193.08609 0.353179 
194.044769 4.938964 
194.081131 2.792941 
194.119232 0.058113 
194.128693 2.460639 
194.998688 0.504772 
195.029007 0.113963 
195.048569 0.100366 
195.064896 0.107069 
195.076248 0.088615 
195.101761 0.040373 
196.096756 0.323775 
197.012039 1.329829 
197.059525 1.263163 
198.075912 0.025336 
198.091019 0.095029 
198.148956 0.143449 
199.050583 0.055947 
199.075317 1.278542 
199.086365 0.61003 
200.034073 0.308447 
200.070068 0.025099 
201.007111 1.2884 
202.049942 0.258975 
202.086014 0.088611 
202.878204 0.021782 
203.003632 0.030923 
203.022934 0.050004 
203.057922 0.469972 
203.070099 0.508574 
203.081085 0.025362 
203.117325 0.073573 
203.141861 0.016396 
204.065399 0.336779 
204.101349 0.015925 
204.962189 0.021676 
205.058594 0.061638 
205.09584 0.023918 
206.042755 0.030719 
206.080734 0.051756 
206.117447 0.023688 
206.978058 0.060604 
208.060547 0.020273 
208.096436 0.12048 
209.059372 0.032481 
209.080078 0.019053 
209.128281 0.080905 
209.875687 0.02541 
210.007126 0.02717 
210.043777 1.049341 
210.112549 0.291111 
210.1353 0.020027 
210.972336 0.082713 
210.991837 0.214129 
211.027359 0.063053 
211.046478 0.027188 
211.075012 0.195724 
211.871536 0.022774 
211.955063 0.025493 
212.070679 0.194108 
212.091583 0.239646 
212.993225 0.460433 
213.007126 3.422312 
213.065826 0.299262 
213.076675 0.024722 
213.089294 0.021198 
213.224319 0.028133 
213.635757 1.336795 
213.648285 1.059036 
214.010483 0.060833 
214.049454 0.025413 
214.086304 0.601729 
214.374313 0.01912 
214.6306 0.022818 
215.012512 0.028504 
215.022415 0.484946 
215.044388 0.103354 
215.070297 1.254066 
215.080978 0.074561 
215.090622 0.050429 
215.142883 0.018695 
216.063187 1.330353 
216.102173 0.05265 
216.138168 0.048362 
216.922958 0.026155 
217.15831 0.123251 
218.012634 0.113625 
218.044571 0.099352 
218.080124 0.044818 
219.017548 0.196673 
219.052277 0.023531 
219.065186 0.033638 
219.10231 0.019375 
219.136948 0.022388 
219.174194 0.257546 
220.028214 0.878452 
220.060196 2.709107 
220.096558 0.41741 
221.012802 0.281499 
221.03331 0.023837 
221.080856 1.334575 
222.074356 0.02396 
222.085297 0.032287 
222.11232 0.347876 
222.990982 0.033334 
223.027954 0.051791 
223.120056 0.089169 
223.181427 0.023552 
224.057312 0.215288 
224.070312 0.032033 
224.128098 0.034033 
224.139481 0.071319 
224.164352 0.020509 
225.222519 0.018429 
226.002213 0.704837 
226.086029 0.518218 
226.767685 0.02018 
227.06987 1.232876 
227.080215 0.025999 
227.104034 0.225558 
227.744598 0.022696 
228.017746 0.445042 
229.00174 1.381437 
229.061081 0.085275 
229.896591 0.016519 
230.043549 0.054765 
230.081146 1.465725 
231.017426 9.402434 
231.137543 0.053548 
232.021378 0.701624 
232.060822 0.018006 
232.092728 0.019693 
233.062592 0.179006 
234.075821 0.203273 
236.022919 1.870531 
236.091354 0.112705 
236.14917 3.031153 
237.026138 0.017403 
237.075897 0.522172 
237.123062 0.078714 
237.579575 0.020058 
238.002457 0.196857 
238.038269 0.457562 
238.107437 0.537156 
239.022491 0.718332 
239.056091 0.091794 
239.091736 1.693979 
240.016602 0.019014 
240.027145 0.146874 
240.063416 0.886639 
240.095657 0.113229 
241.001724 0.878804 
241.03273 0.030367 
241.046982 1.828668 
241.072311 0.037207 
241.291367 0.021345 
242.044403 0.394806 
242.080826 1.629745 
243.06485 0.050991 
243.086716 1.232501 
244.012939 0.51752 
244.095657 2.294505 
244.99675 0.311324 
245.03299 0.072422 
245.046127 0.108887 
245.080826 1.310481 
245.099777 0.051364 
246.007751 0.027903 
246.027832 0.192576 
246.040604 1.076829 
246.0737 1.227534 
247.012238 0.136677 
247.144394 0.124846 
247.906723 0.026452 
248.02272 0.022642 
248.055145 0.42134 
249.028107 1.358894 
249.124084 0.025604 
250.000854 0.03273 
250.038239 0.054808 
250.107513 0.051516 
250.937286 0.073916 
251.022064 0.02045 
251.935699 0.063659 
252.036255 0.809592 
252.086044 0.022099 
253.037338 0.023567 
253.097382 0.01982 
253.118149 0.886004 
254.033432 0.987023 
254.081497 0.207949 
254.102448 0.019343 
254.119659 0.026658 
254.981171 0.473322 
255.034378 0.071804 
255.064835 0.465132 
255.086136 0.191726 
255.099167 0.208233 
255.744995 0.040472 
256.012604 2.050961 
256.132294 0.052759 
257.016052 0.049445 
257.032654 0.019218 
257.047638 0.163243 
257.067932 0.447279 
258.075165 0.218074 
258.148926 0.023693 
259.012604 0.640377 
260.036072 0.044758 
261.043365 0.183503 
262.069458 0.025299 
263.414337 0.017238 
263.886444 0.160393 
264.017883 2.508344 
264.051147 0.366506 
264.909058 0.591925 
265.021271 0.107339 
266.277557 0.025543 
268.012482 0.732779 
268.098297 0.033303 
268.832977 0.030337 
269.125519 0.024972 
269.149536 0.045822 
269.946411 0.027787 
270.046722 0.661793 
270.075653 2.141603 
270.11145 0.072606 
270.148834 0.024864 
271.028076 0.637635 
271.080353 0.522557 
271.094543 0.239946 
271.155609 0.080563 
272.007477 0.306265 
272.091705 0.275777 
272.12616 0.199806 
272.163422 0.048174 
272.991669 0.486658 
273.009613 0.141439 
273.043335 0.945968 
273.075745 1.607663 
273.094238 0.037756 
273.109467 1.177791 
274.02356 0.370803 
274.111908 0.022581 
274.937134 0.479132 
275.024872 0.018153 
275.058777 0.439336 
275.105438 0.031507 
275.934967 1.878278 
276.050262 0.030619 
276.086365 0.170367 
276.936279 0.085494 
277.037964 0.348599 
277.902313 0.08077 
278.015228 0.068346 
278.032959 0.030535 
278.099762 0.118304 
279.112885 0.407353 
279.899017 0.028308 
280.116608 0.020078 
281.0336 0.04382 
281.078644 0.081926 
281.188202 0.037503 
281.911255 0.032069 
281.935944 0.01864 
282.027954 0.663779 
282.043732 0.126996 
282.111847 0.031017 
282.148926 0.03318 
282.918427 0.18498 
283.028076 0.165497 
283.126648 0.158931 
283.1427 0.023667 
284.129181 0.023039 
285.008667 0.040555 
285.043121 0.49687 
286.023071 0.024488 
286.068726 0.025651 
286.144257 0.06386 
287.022369 0.061207 
288.086426 0.428171 
288.908783 0.086539 
289.037689 3.457772 
290.042511 0.195957 
290.064697 0.018573 
290.323822 0.025023 
291.020599 0.162284 
291.052856 0.308031 
291.127716 0.018526 
292.947571 2.962792 
293.110352 0.084681 
293.127686 0.82505 
293.144592 0.030765 
293.412781 0.027411 
293.945374 12.103965 
293.972778 0.030197 
294.028076 0.032966 
294.065521 0.140534 
294.132263 0.025958 
294.944916 1.330156 
295.04892 0.19522 
295.073425 0.069987 
295.948517 0.078549 
296.025848 1.345672 
296.079529 0.423239 
297.030273 0.027776 
298.039551 0.104505 
298.070801 4.473223 
298.104614 0.465212 
298.141052 0.260719 
298.870453 0.78499 
299.088867 13.424242 
300.054138 0.759666 
300.071686 0.022965 
300.092407 2.449025 
300.1474 0.053172 
301.005585 0.322863 
301.03833 1.745601 
301.055573 0.027423 
301.094269 0.026659 
301.161926 0.15145 
302.04071 0.027803 
303.053528 1.015107 
304.014038 0.030691 
304.163605 0.03284 
305.016113 0.029827 
305.032959 1.475421 
305.128693 0.319563 
305.157532 0.140586 
306.029449 0.024755 
306.919647 1.53188 
307.048737 7.082266 
307.107574 0.911964 
307.14444 0.166243 
307.923492 0.045552 
307.960632 0.125855 
308.023499 0.224045 
308.052246 0.795005 
308.073303 0.02388 
308.11261 0.179498 
310.038849 0.315845 
310.14682 0.026119 
310.958038 1.164305 
311.022888 0.06467 
311.040771 0.02658 
311.294159 7.833969 
311.956085 4.605782 
312.075226 0.145877 
312.182739 0.09218 
312.297638 2.409667 
312.886688 0.020452 
312.955566 0.600043 
313.059113 0.026523 
313.300598 0.10443 
314.035553 0.118027 
314.138458 2.667683 
314.722534 0.045758 
315.142273 0.018272 
316.016602 0.087653 
316.048676 0.207402 
316.081543 0.774942 
316.11496 0.118014 
317.033112 0.110746 
317.099396 43.968075 
318.102875 7.950617 
319.048767 1.659829 
319.068634 0.022799 
319.105286 0.915887 
320.052246 0.026272 
321.06488 0.069592 
321.122375 0.033918 
322.023285 0.145642 
323.04361 0.103988 
323.102753 0.057003 
323.138947 1.23379 
323.226196 0.07502 
324.01825 0.029136 
324.930542 0.068731 
325.05899 1.117013 
325.971405 0.02777 
326.013885 0.029174 
326.033234 1.763552 
326.05368 0.028368 
327.036713 0.087512 
328.04892 1.402942 
328.116425 0.072559 
329.032959 2.54133 
329.051941 0.105775 
329.12854 0.071102 
330.035797 0.070126 
332.043701 0.025449 
332.080017 0.203694 
334.02359 0.028953 
334.844574 0.055078 
335.044556 0.026285 
335.154083 0.053945 
336.018127 0.23044 
337.023224 0.02912 
341.236267 0.701786 
342.029175 0.03213 
342.094727 4.373176 
342.130951 0.066502 
343.097992 0.808443 
344.043976 3.860676 
344.146515 0.923571 
345.046875 0.295488 
345.101013 0.380565 
345.122375 0.021496 
345.149384 0.028221 
346.059601 0.387737 
347.04361 2.223321 
347.065277 0.031635 
347.136658 0.033256 
348.046875 0.058434 
348.14035 0.030605 
350.090973 1.807655 
351.093719 0.132552 
354.028198 4.149149 
355.031586 0.455941 
355.085419 0.366162 
356.042419 0.025754 
357.142242 0.019437 
359.087067 0.030463 
359.245636 0.043355 
360.105011 12.842441 
361.026581 0.060349 
361.108368 2.346721 
362.054443 1.334087 
362.11087 0.143169 
363.056 0.034309 
370.125916 1.472893 
371.137024 0.297219 
371.206848 0.333479 
371.239441 0.104656 
372.038574 6.536781 
373.041718 0.833633 
373.066162 0.135184 
373.095795 0.770527 
373.219116 0.019491 
374.855103 0.026571 
375.236725 0.224524 
381.144226 1.010953 
382.144989 0.034507 
385.135864 0.028358 
385.223633 0.099273 
386.055328 0.053757 
386.091522 0.237808 
387.153625 0.612565 
388.135925 17.314602 
389.139191 4.073307 
389.190491 0.047883 
390.049683 1.622031 
390.115143 2.778599 
390.140656 0.360302 
390.165833 0.323799 
391.119232 0.340982 
391.17276 0.075655 
391.209229 0.37073 
392.849243 0.05629 
397.138885 0.113928 
400.099915 0.203412 
401.20993 0.017923 
402.079376 0.114362 
404.101105 2.453285 
405.105103 0.351492 
405.161652 0.188302 
406.164856 0.150023 
407.159088 0.148969 
410.075378 0.050081 
413.212097 0.025648 
415.22818 0.060751 
416.264496 0.07961 
418.115051 0.025191 
418.993713 0.025821 
422.11145 0.140636 
430.173767 0.95809 
430.259125 0.378396 
430.290649 0.046365 
430.321594 8.58731 
431.142334 5.531777 
431.177612 2.054115 
431.223541 3.826845 
431.26062 1.932489 
431.295959 1.608684 
431.324768 2.756853 
432.090576 0.297623 
432.147278 1.330582 
432.187164 0.109413 
432.230133 1.457481 
432.268524 0.478525 
432.300201 0.197055 
432.32605 0.034853 
433.153503 3.141753 
433.188812 0.13287 
433.24057 48.494781 
434.105072 0.025983 
434.160187 0.205491 
434.212799 0.604909 
434.244354 7.399072 
434.275696 0.920896 
446.480072 0.021301 
447.345886 0.161413 
453.080688 0.026174 
END IONS

