BEGIN IONS
PEPMASS=472.0
CHARGE=1+
COMPOUNDNAME=Massbank:KO009213 Puromycin
LIBRARYQUALITY=3
SMILES=COc(c4)ccc(c4)CC(N)C(=O)NC(C(CO)3)C(O)C(O3)n(c2)c(n1)c(n2)c(N(C)C)nc1
INCHIKEY=RXWNCPJZOCPEPQ-UHFFFAOYSA-N
INCHI=1S/C22H29N7O5/c1-28(2)19-17-20(25-10-24-19)29(11-26-17)22-18(31)16(15(9-30)34-22)27-21(32)14(23)8-12-4-6-13(33-3)7-5-12/h4-7,10-11,14-16,18,22,30-31H,8-9,23H2,1-3H3,(H,27,32)/t14-,15+,16+,18+,22+/m0/s1
MSLEVEL=2
SOURCE_INSTRUMENT=ESI-LC-ESI-IT
FILENAME=Massbank_ESI_positive_8_1_2014_peaks.mgf
SEQ=*..*
IONMODE=Positive
ORGANISM=MASSBANK
NAME=Massbank:KO009213 Puromycin [M+H]+
PI=Putative Massbank Match
DATACOLLECTOR=Massbank
PUBMED=N/A
SUBMITUSER=mwang87
TAGS=
SPECTRUMID=CCMSLIB00000221342
SCANS=10200
131.1 77.5 
132.0 156.01 
133.1 252.33 
134.0 355.45 
135.1 559.02 
136.1 32.17 
137.1 202.68 
141.0 82.06 
142.0 1564.67 
144.0 194.95 
145.0 14.67 
148.1 256.4 
149.1 416.52 
150.1 83908.06 
157.1 214.34 
158.1 76.87 
158.9 269.27 
160.0 7246.38 
161.1 1260.41 
162.1 2034.78 
163.0 155.82 
164.1 38311.48 
165.0 33.39 
166.0 397.46 
170.0 54.67 
171.2 28.0 
172.0 76.45 
174.0 493.12 
175.1 48.62 
176.1 157.43 
177.1 256.07 
178.1 765.31 
179.1 130.59 
180.2 86.51 
182.1 81.47 
183.0 210.65 
184.1 15.81 
186.1 1170.13 
187.1 151.29 
188.2 331.24 
189.1 32.64 
190.1 271.05 
192.1 4264.74 
193.0 52.31 
194.1 25.0 
195.2 360.4 
196.1 12.47 
197.1 27.11 
197.9 86.7 
199.1 488.97 
200.0 66.83 
201.1 426.09 
202.1 6065.97 
202.9 24.0 
204.1 299.13 
205.1 136.04 
210.2 166.62 
211.1 176.45 
213.1 54.36 
214.1 873.37 
216.1 567.04 
217.1 52.56 
220.0 17.56 
222.1 1679.76 
228.1 702.92 
229.2 178.01 
230.1 410.01 
231.0 85.42 
232.1 2990.8 
233.3 167.93 
234.1 111.87 
243.1 50.67 
244.2 100.37 
245.2 37.64 
246.1 1769.74 
248.1 151.46 
250.0 812.61 
255.2 68.64 
256.1 420.35 
257.1 86.98 
260.1 20.78 
261.1 113.2 
262.1 5540.61 
263.2 739.46 
264.2 3233.3 
273.1 916.39 
274.1 2160.83 
277.2 60.51 
278.1 34.92 
280.3 195.92 
281.2 1573.04 
290.4 24.45 
291.2 16780.14 
292.2 10434.5 
305.2 132.7 
308.3 2150.58 
309.2 474299.77 
310.0 316.66 
311.4 42.89 
391.3 72.34 
421.3 58.34 
437.1 196.01 
449.4 22.0 
454.1 16296.29 
455.2 123.12 
472.0 2429.38 
475.5 13.72 
END IONS

