BEGIN IONS
PEPMASS=1318.75
CHARGE=1+
COMPOUNDNAME=POLYMYXIN B SULFATE
LIBRARYQUALITY=3
SMILES=N/A
INCHIKEY=HFMDLUQUEXNBOP-UHFFFAOYSA-N
INCHI=InChI=1S/C56H98N16O13.H2O4S/c1-7-32(4)13-11-12-16-44(75)63-36(17-23-57)51(80)72-46(34(6)74)56(85)68-39(20-26-60)48(77)67-41-22-28-62-55(84)45(33(5)73)71-52(81)40(21-27-61)65-47(76)37(18-24-58)66-53(82)42(29-31(2)3)69-54(83)43(30-35-14-9-8-10-15-35)70-49(78)38(19-25-59)64-50(41)79;1-5(2,3)4/h8-10,14-15,31-34,36-43,45-46,73-74H,7,11-13,16-30,57-61H2,1-6H3,(H,62,84)(H,63,75)(H,64,79)(H,65,76)(H,66,82)(H,67,77)(H,68,85)(H,69,83)(H,70,78)(H,71,81)(H,72,80);(H2,1,2,3,4)
MSLEVEL=2
SOURCE_INSTRUMENT=N/A-ESI-QFT
FILENAME=library_mgf.mgf
SEQ=*..*
IONMODE=positive
ORGANISM=MONA
NAME=POLYMYXIN B SULFATE [M+NH4]+
PI=MoNA
DATACOLLECTOR=MoNA:VF-NPL-QEHF027929
PUBMED=N/A
SUBMITUSER=mwang87
TAGS=
SPECTRUMID=CCMSLIB00004721510
SCANS=27929
91.054321 0.222269 
93.753555 0.158034 
96.080925 0.161941 
97.075912 0.211121 
98.071213 1.625567 
98.09642 0.779587 
98.34478 0.183541 
99.055359 0.242916 
100.075699 0.383176 
100.086922 10.902421 
101.058517 0.148625 
101.070961 100.0 
101.074821 1.875626 
102.054886 1.859811 
102.074249 2.611736 
103.054169 1.16097 
103.685921 0.159945 
106.4207 0.196807 
107.366699 0.138345 
109.101151 0.172519 
109.786575 0.151256 
110.060089 0.402904 
110.071106 0.193485 
111.055176 3.189738 
111.091591 1.135313 
112.075645 0.718179 
112.086906 1.278689 
112.095673 0.184961 
113.070808 3.512027 
113.678276 0.181115 
115.086433 0.527351 
115.634407 0.159446 
116.464867 0.155969 
116.536774 0.196754 
116.675781 0.165515 
117.113457 0.141176 
118.097794 0.159967 
119.081474 28.294224 
119.085747 0.188637 
120.080765 59.628319 
120.874237 0.140038 
121.076096 2.898094 
121.084084 4.800789 
122.308067 0.131245 
122.31218 0.161903 
123.055191 7.14907 
123.091599 0.56932 
123.116737 2.4305 
123.545197 0.149406 
125.070885 0.316119 
125.51445 0.153556 
127.08651 8.952599 
128.081696 2.164131 
129.06572 1.685871 
131.117859 0.212162 
132.080643 1.203856 
134.08754 0.193241 
137.070923 6.514802 
138.102509 3.520237 
139.086441 8.982249 
140.081802 6.395508 
140.118195 0.446568 
141.065842 2.762586 
141.102417 0.36023 
145.881607 0.157257 
148.075104 0.14899 
148.086899 0.799925 
149.070847 10.070592 
150.102676 0.706988 
150.646622 0.152772 
151.086823 0.177861 
154.09726 0.165855 
155.081497 0.647775 
156.113052 4.574016 
157.097153 11.373411 
157.108292 4.195394 
158.092361 6.409918 
158.129028 0.175987 
158.153824 1.250028 
164.279114 0.169815 
165.06601 0.206565 
165.10231 0.353407 
166.097412 15.355001 
167.055481 0.248998 
167.08139 10.612479 
168.025223 0.14556 
168.076752 0.849653 
168.084976 0.142888 
168.113297 0.755461 
169.133438 1.561815 
170.092377 0.183643 
174.123703 2.426798 
175.086685 0.424944 
175.917007 0.177153 
177.102371 0.180604 
178.097168 0.161862 
181.116898 0.144286 
182.092407 0.690666 
183.076447 0.18166 
183.124008 37.644253 
184.107956 35.557796 
184.127625 1.504559 
185.092056 6.19617 
185.11116 0.410029 
185.434509 0.144909 
186.091537 0.800221 
190.970276 0.155497 
193.096786 0.152533 
193.107956 0.334985 
194.092453 6.122753 
195.123932 1.987505 
195.185959 0.372727 
196.108139 1.109634 
196.785858 0.164066 
201.134567 24.145657 
202.118515 31.352119 
202.134628 1.369828 
203.117981 3.237309 
204.14946 1.000686 
205.108078 0.961034 
206.093002 0.481188 
206.128632 0.16584 
208.107803 0.194664 
209.103073 0.485377 
209.128403 1.832549 
209.164505 0.992007 
211.118866 8.1248 
212.102783 4.38762 
212.122086 0.182736 
213.102097 1.60531 
213.134857 0.365497 
213.170181 0.191352 
214.154877 9.637149 
214.165268 0.347988 
214.928406 0.167209 
215.158447 0.211386 
219.145081 0.800806 
220.108231 0.239266 
221.139938 0.38682 
222.12323 0.811628 
222.134872 0.186196 
223.118698 2.140755 
223.180481 6.33338 
224.102798 1.84289 
224.139084 4.000224 
225.042923 0.182298 
227.175522 1.38667 
230.12851 16.600298 
230.561249 0.171833 
231.112732 2.414298 
231.13237 0.469483 
232.107712 0.166918 
233.164658 31.910435 
234.16832 3.575591 
237.133911 0.346094 
238.118149 0.218943 
239.150085 8.093366 
239.162689 0.185859 
240.145096 10.18955 
240.207626 0.368205 
241.129471 7.043458 
241.14798 0.149326 
241.190933 7.198722 
242.768799 0.144938 
242.899582 0.157204 
243.148499 0.206908 
244.395599 0.147746 
245.612656 0.154914 
247.52507 0.145535 
248.138672 14.170157 
249.133713 1.903122 
250.118042 1.465001 
250.130585 0.185089 
252.030457 0.162916 
252.206589 0.481057 
253.19046 0.150919 
255.856415 0.15993 
256.965576 0.162726 
257.1604 5.742617 
258.123444 3.758316 
258.156372 0.365637 
258.192291 0.201294 
260.597626 0.157188 
261.159515 12.00264 
262.163147 0.665053 
263.89267 0.163093 
265.129089 0.166543 
266.161011 7.893261 
266.186157 0.443864 
267.144806 9.858134 
267.162903 0.148318 
268.147522 0.192165 
269.101379 0.172864 
270.158752 0.381237 
271.143829 0.329582 
276.145721 0.146358 
279.20697 0.169248 
280.201813 3.76647 
284.171417 30.001822 
285.155334 10.144508 
285.172699 5.131843 
286.156616 0.341364 
294.154907 0.537307 
296.207825 7.070243 
296.233276 2.074022 
297.191833 4.173435 
297.216278 4.310746 
297.550262 0.180692 
299.174377 0.334066 
302.181763 15.930566 
303.183105 2.490889 
304.166626 0.90581 
304.190033 0.15564 
305.172424 0.162128 
306.15567 1.140417 
306.192108 0.513598 
306.216248 0.318642 
306.256714 0.184639 
310.881134 0.168594 
312.166168 0.391898 
313.165436 0.425208 
314.14975 0.375201 
314.219299 0.157586 
316.201874 1.679667 
319.151306 0.153311 
321.100433 0.147644 
323.18219 2.648957 
323.244873 0.191535 
324.16629 0.774928 
324.228058 0.171409 
326.186127 4.920502 
327.190338 0.189501 
330.192749 0.963764 
331.175201 0.223512 
341.192719 0.578683 
343.212646 1.923858 
344.196777 0.53471 
348.16452 0.159192 
349.197083 0.44669 
350.182007 0.576691 
351.180908 0.207737 
359.202026 0.171459 
360.239655 1.639688 
361.223328 6.275694 
362.227112 0.250412 
362.254364 0.355177 
363.985901 0.159771 
366.224518 0.247887 
367.208466 3.362516 
368.190796 0.403443 
371.207031 4.85316 
374.959442 0.177107 
379.279633 0.161326 
384.234192 0.81222 
385.217987 1.028785 
386.047089 0.176149 
386.220612 0.669379 
390.365601 0.200438 
393.433075 0.164613 
399.170685 0.851227 
402.24472 0.854726 
403.22876 1.153239 
405.226807 0.350856 
406.743469 0.157868 
407.13916 0.156271 
408.238159 0.427508 
413.23111 0.240321 
414.210266 0.359491 
418.14563 0.193661 
419.306366 0.1659 
424.234528 0.17082 
424.292572 0.164852 
425.266968 0.214228 
426.249603 0.368247 
429.262878 0.183918 
431.239624 4.163151 
440.245056 0.151191 
441.317352 0.532672 
443.274933 10.285699 
444.25885 1.364006 
444.281189 0.400326 
449.250275 4.368441 
453.262939 0.189919 
455.698334 0.171766 
460.303223 0.235635 
461.28653 4.251093 
471.270844 0.642563 
474.881683 0.160112 
485.283936 0.66193 
499.301056 0.494096 
509.288605 0.511463 
513.979065 0.154588 
524.355225 1.134655 
526.314697 1.265153 
527.298218 0.213544 
528.492065 0.160958 
531.301086 0.218825 
543.338562 3.626437 
544.325623 1.395532 
553.324036 0.395028 
554.306641 0.180465 
562.332947 0.276618 
582.348877 0.183599 
593.879333 0.141068 
599.367981 0.169422 
600.362183 0.210069 
615.387024 0.160909 
616.496643 0.157469 
625.394653 0.18242 
626.375122 0.193131 
634.330505 0.187372 
643.404602 0.17644 
644.386963 1.445846 
647.369019 0.182109 
661.580078 0.181951 
662.391602 0.206621 
664.403137 0.421583 
678.546021 0.17114 
682.413452 0.182748 
684.402222 0.167069 
698.474976 0.168315 
708.42627 0.189204 
710.023682 0.263272 
710.068726 0.421699 
710.278137 1.11574 
712.442688 0.206867 
724.066223 0.171317 
726.439331 0.883374 
727.422302 0.725616 
744.44751 6.298652 
745.445984 1.965222 
753.192688 0.171399 
761.533997 0.198087 
766.426636 0.174314 
791.005676 0.167092 
851.21521 0.175239 
945.570923 0.185047 
1087.287964 0.176177 
1105.696045 0.163931 
1111.240601 0.168079 
1123.01001 0.164517 
1123.706665 0.183443 
1128.931152 0.158526 
1135.900269 0.195493 
1168.725342 0.219229 
1185.736816 0.212464 
1225.738403 0.415369 
1226.748413 0.221422 
1315.300781 0.183467 
1316.93457 3.329217 
1317.760742 0.437671 
1317.932373 3.270246 
1318.762817 0.236073 
1318.928955 0.731637 
1360.214233 0.174811 
END IONS

