BEGIN IONS
PEPMASS=279.16
CHARGE=1+
COMPOUNDNAME=(1R,2E,7R,10E,12S,13S,15R)-12,15-dihydroxy-7-methyl-8-oxabicyclo[11.3.0]hexadeca-2,10-dien-9-one
LIBRARYQUALITY=3
SMILES=N/A
INCHIKEY=KQNZDYYTLMIZCT-SWGFJCPHSA-N
INCHI=InChI=1S/C16H24O4/c1-11-5-3-2-4-6-12-9-13(17)10-14(12)15(18)7-8-16(19)20-11/h4,6-8,11-15,17-18H,2-3,5,9-10H2,1H3/b6-4+,8-7+/t11-,12+,13-,14+,15+/m1/s1
MSLEVEL=2
SOURCE_INSTRUMENT=N/A-ESI-QFT
FILENAME=library_mgf.mgf
SEQ=*..*
IONMODE=negative
ORGANISM=MONA
NAME=(1R,2E,7R,10E,12S,13S,15R)-12,15-dihydroxy-7-methyl-8-oxabicyclo[11.3.0]hexadeca-2,10-dien-9-one [M-H]-
PI=MoNA
DATACOLLECTOR=MoNA:VF-NPL-QEHF022870
PUBMED=N/A
SUBMITUSER=mwang87
TAGS=
SPECTRUMID=CCMSLIB00004713933
SCANS=22870
50.191025 0.042815 
50.57539 0.013268 
50.984222 0.014155 
51.214409 0.040003 
52.607468 0.045989 
52.68578 0.04223 
53.02153 0.029135 
53.083344 0.047547 
53.587879 0.047428 
54.535389 0.015236 
55.017563 0.706952 
55.580799 0.008187 
56.163738 0.01453 
57.033184 7.337435 
57.233566 0.014036 
57.392899 0.041171 
59.012447 6.380852 
59.130768 0.021286 
60.462776 0.030786 
60.961872 0.007607 
60.966537 0.023126 
61.083408 0.02033 
61.529007 0.007692 
61.986958 2.174916 
62.134354 0.035639 
62.203011 0.021613 
62.315224 0.025415 
62.356861 0.04258 
63.558975 0.045008 
63.639164 0.040946 
63.805195 0.01939 
63.961079 0.069364 
64.101212 0.011863 
64.637566 0.015983 
65.0383 0.785682 
66.590096 0.011766 
66.928238 0.028974 
66.932854 0.026271 
67.05397 0.08949 
68.531921 0.023454 
68.655945 0.032629 
68.830391 0.011006 
69.033241 1.306599 
70.049805 0.009579 
70.483574 0.03151 
71.012497 0.529658 
71.048889 1.738926 
71.186447 0.022074 
71.396492 0.038731 
72.952866 0.025949 
73.028038 0.038203 
74.030106 0.040409 
76.133553 0.013419 
76.480881 0.013353 
76.951088 0.064438 
77.21981 0.038714 
78.957649 0.013783 
78.966835 1.754698 
78.984566 1.408748 
79.053963 0.073204 
79.138527 0.031524 
79.956009 2.644141 
80.025444 0.191456 
80.051186 0.029804 
80.144653 0.012574 
80.963875 2.027255 
81.033249 2.870301 
81.679329 0.024214 
82.881508 0.008738 
83.012489 6.246697 
83.048904 2.213984 
84.015839 0.12884 
84.034447 0.009529 
85.028175 0.724528 
85.064598 0.318286 
87.007309 0.024244 
87.229767 0.008868 
87.870865 0.007687 
89.924576 0.009514 
90.503616 0.040099 
90.932198 0.010522 
91.048767 0.01424 
91.053902 0.050512 
91.856865 0.044024 
92.42128 0.023628 
92.927551 0.03051 
93.033272 0.562046 
93.069641 0.617609 
94.979485 1.74646 
95.012596 0.171731 
95.048973 2.215243 
95.08535 0.077564 
95.249611 0.024015 
95.951195 0.056763 
96.923386 0.117776 
96.958786 12.471453 
96.975243 0.136693 
97.028046 0.094987 
97.064545 0.777898 
97.999603 0.015813 
98.954697 0.06688 
99.007645 0.028373 
99.672371 0.035788 
99.811607 0.023442 
99.924423 0.497478 
100.924835 0.090006 
100.932404 0.152006 
101.023087 1.171352 
101.348633 0.026145 
101.737267 0.040944 
102.408821 0.021696 
104.66375 0.026899 
104.899193 0.012808 
105.069672 5.469058 
106.041046 0.209485 
106.072945 0.206692 
106.926201 0.034711 
107.048943 0.244171 
107.085228 0.186031 
108.020393 1.595526 
109.028198 79.250504 
109.064598 1.798781 
109.402939 0.033638 
110.031578 4.528312 
110.035957 1.031658 
110.956635 0.259119 
111.043877 5.18152 
111.080124 0.248964 
112.935966 0.017463 
114.675568 0.015904 
115.039177 0.026907 
115.919479 0.570328 
116.453072 0.013597 
116.919693 0.011714 
116.927216 0.075875 
116.971252 0.131297 
119.049049 0.099829 
119.085434 1.181438 
119.560905 0.029825 
120.056915 0.837963 
121.028275 9.828594 
121.064659 7.11605 
121.100929 0.446448 
121.5522 0.027813 
122.031662 0.518497 
122.067955 0.346068 
123.044037 0.099472 
123.080307 3.831153 
124.083481 0.073697 
124.935951 0.049873 
124.954758 1.523136 
124.972137 0.012245 
126.951675 0.117251 
129.054626 0.014653 
130.942917 0.127431 
131.085403 0.387121 
132.056824 0.093896 
133.064789 0.404909 
133.101349 0.053104 
135.0439 0.865694 
135.08049 1.531952 
135.116577 0.039301 
135.351761 0.026925 
136.051895 0.078411 
137.023239 0.554684 
137.034348 0.048532 
137.059647 0.631593 
137.096069 1.773497 
138.031128 0.864132 
138.69841 0.045762 
138.920624 0.111173 
139.000015 0.674224 
139.038895 27.353046 
139.075439 0.035717 
139.371109 0.039081 
140.042236 1.864725 
142.025986 0.147305 
142.943115 0.010126 
142.992447 0.020148 
144.876862 0.034941 
144.954376 0.02188 
145.10112 1.179244 
145.167358 0.021677 
145.917557 0.058117 
146.897476 0.192072 
147.044113 0.438379 
147.080551 0.441044 
147.116699 1.124406 
148.899414 2.488839 
149.060028 0.158855 
149.096161 1.205062 
150.777527 0.045824 
151.075333 0.049435 
152.046539 0.122169 
152.55011 0.066132 
153.091232 0.044083 
154.894012 0.01388 
158.086548 0.042103 
158.151016 0.033471 
158.938339 0.010571 
160.051971 0.895111 
161.002686 0.047338 
161.061554 0.493317 
161.096329 0.041832 
161.13266 0.198772 
162.892426 0.13915 
162.915451 0.040277 
163.111862 0.373573 
164.894501 1.381605 
165.054672 2.105962 
165.127335 0.072208 
167.106766 0.381784 
168.027695 0.023763 
171.116943 0.379018 
173.096436 0.094218 
173.113586 0.009523 
173.132599 12.179847 
173.295593 0.022189 
174.136047 1.478214 
174.934799 0.027454 
174.99173 0.186714 
175.112381 0.069007 
176.586044 0.014099 
177.127441 2.479779 
177.902466 0.011487 
178.130692 0.279185 
178.910431 0.029231 
179.107162 0.11576 
179.143143 1.33716 
179.65155 0.01227 
181.121628 0.028878 
183.101974 0.008736 
185.55867 0.054662 
188.878647 0.01441 
189.127853 2.783829 
190.131195 0.11023 
190.910278 0.433081 
191.107224 0.072385 
191.143356 6.448924 
192.146729 0.678782 
192.167084 0.007994 
193.084702 0.028182 
193.122574 1.090943 
193.157852 0.036277 
193.618561 0.02409 
194.927231 0.178326 
195.138184 1.682879 
195.563858 0.015753 
195.588837 0.032178 
195.930313 0.057348 
196.140884 0.043391 
196.922882 0.254879 
196.932968 0.033753 
197.1539 0.148364 
198.156372 0.009454 
198.919586 0.042768 
199.112473 0.121578 
199.148499 1.407904 
199.169632 6.281939 
199.850052 0.015022 
200.150757 0.024286 
201.127747 0.248987 
203.143768 0.142445 
204.059235 0.021548 
204.870453 0.038684 
204.903534 0.189837 
205.003265 0.03581 
205.122757 0.132688 
205.159088 0.635224 
205.860214 0.03201 
205.906876 0.218299 
206.905472 5.018339 
207.065445 0.124257 
207.101273 0.034152 
207.138214 0.547616 
207.175232 0.035033 
208.700241 0.020566 
209.779678 0.025861 
214.757996 0.026923 
215.143448 1.480676 
215.60675 0.048113 
215.625549 1.135509 
216.146957 0.136021 
217.122818 1.503792 
217.159271 36.7985 
217.934006 0.010017 
218.162582 5.758638 
219.138565 0.575411 
219.165207 0.055362 
220.920563 0.009849 
221.153931 0.301496 
223.133301 0.591445 
223.169373 0.02739 
225.15033 0.013265 
233.154388 7.184208 
233.924698 0.015039 
233.938248 0.029407 
234.157516 1.053773 
234.254318 0.034146 
234.918716 0.013909 
234.936813 0.146805 
234.990158 0.009207 
235.06073 0.529068 
235.133759 3.444382 
235.170059 5.431391 
235.661743 0.014205 
236.137634 0.047263 
236.154556 0.033047 
236.173355 0.72633 
237.007828 0.660595 
239.059372 0.075485 
243.138824 1.556667 
247.062347 0.035067 
247.170837 0.008494 
248.824387 0.026492 
249.148849 0.037462 
251.164932 0.777579 
254.505219 0.038534 
257.888763 0.045217 
259.133911 0.044707 
259.817688 0.105301 
260.138 0.050003 
260.818024 0.030115 
261.149506 20.562243 
261.222534 0.008545 
262.152985 3.570872 
263.237946 0.009321 
264.166504 0.0406 
264.985352 0.032881 
269.469116 0.023342 
272.102478 0.034802 
277.144989 0.276078 
277.164307 0.046231 
277.182312 2.978555 
277.216766 0.012208 
277.790771 0.010598 
277.823608 0.18054 
278.070587 0.028439 
278.144928 0.045414 
278.186096 1.164714 
278.220795 0.010909 
278.798981 0.010378 
278.820343 0.047491 
278.927643 0.028205 
279.018982 0.085989 
279.036774 0.031056 
279.132751 0.021236 
279.160736 100.0 
279.232849 21.084921 
280.089722 0.046914 
280.164124 16.036152 
280.236145 4.127119 
280.660492 0.013882 
280.932251 0.708271 
281.015564 0.128605 
281.121094 1.100202 
281.139954 0.109783 
281.166992 0.122956 
281.248505 75.672676 
286.254028 0.028968 
END IONS

