BEGIN IONS
PEPMASS=267.159
CHARGE=1+
COMPOUNDNAME=(1S,8R,9R)-8-hydroxy-4-(propan-2-ylidene)-10-oxatricyclo[7.2.1.01,5]dodecane-8-carboxylic acid
LIBRARYQUALITY=3
SMILES=N/A
INCHIKEY=IOYVXXQKVQKQIG-ZJPTYJIISA-N
INCHI=InChI=1S/C15H22O4/c1-9(2)10-3-5-14-7-12(19-8-14)15(18,13(16)17)6-4-11(10)14/h11-12,18H,3-8H2,1-2H3,(H,16,17)/t11?,12-,14-,15-/m1/s1
MSLEVEL=2
SOURCE_INSTRUMENT=N/A-ESI-QFT
FILENAME=library_mgf.mgf
SEQ=*..*
IONMODE=positive
ORGANISM=MONA
NAME=(1S,8R,9R)-8-hydroxy-4-(propan-2-ylidene)-10-oxatricyclo[7.2.1.01,5]dodecane-8-carboxylic acid [M+H]+
PI=MoNA
DATACOLLECTOR=MoNA:VF-NPL-QEHF021473
PUBMED=N/A
SUBMITUSER=mwang87
TAGS=
SPECTRUMID=CCMSLIB00004712536
SCANS=21473
50.804935 0.031197 
51.001755 0.029305 
51.415043 0.012607 
51.756626 0.014547 
51.940369 0.054237 
52.333099 0.012282 
53.002571 0.172301 
53.038937 0.740302 
54.777149 0.02595 
54.898205 0.025164 
55.018181 1.349137 
55.054577 5.686032 
55.639324 0.032053 
55.934643 0.013766 
56.049763 0.24769 
56.057903 0.102691 
56.120544 0.012433 
56.85849 0.016031 
56.965099 0.171209 
57.033821 6.242738 
57.070213 3.367581 
57.132729 0.033304 
58.037212 0.032031 
58.065437 0.412271 
58.073566 0.041145 
58.582169 0.013727 
59.049442 3.102138 
60.044609 0.0491 
60.052723 0.01541 
60.055752 0.013967 
61.010921 50.6483 
61.028561 0.04039 
61.986771 0.01276 
62.018738 0.289119 
62.058624 0.030975 
63.176807 0.012462 
64.496971 0.037648 
65.038803 0.19978 
65.981216 0.013066 
66.308853 0.043531 
66.773415 0.01623 
67.054398 11.4208 
67.422874 0.034169 
68.049675 0.122286 
68.057739 0.336613 
68.060661 0.050953 
68.962646 1.427634 
68.997246 0.227747 
69.033638 2.242782 
69.070015 7.753781 
69.269539 0.013558 
70.028893 0.19305 
70.037056 0.020852 
70.065277 2.015642 
70.073341 0.13541 
70.941963 0.136834 
70.958092 0.076499 
71.012901 0.191858 
71.049263 1.999201 
71.068794 0.013312 
71.08564 5.332798 
72.044579 0.09621 
72.052605 0.019309 
72.080887 1.351216 
72.088905 0.110301 
72.937263 0.267124 
73.028496 0.703817 
73.064873 0.946545 
73.278557 0.013411 
73.333107 0.02274 
74.060158 0.214209 
75.033188 0.025444 
75.044098 0.079461 
75.680595 0.03068 
76.060547 0.029168 
76.083702 0.04015 
76.206337 0.014236 
76.283661 0.028045 
77.271179 0.026072 
77.417694 0.026462 
77.420425 0.024172 
77.493805 0.027576 
79.021324 0.757442 
79.054298 7.718286 
79.105835 0.013914 
80.049606 0.06376 
80.057678 0.123286 
80.713158 0.029058 
81.033623 1.172016 
81.069954 15.436593 
82.065193 0.198402 
82.073296 0.367706 
82.667755 0.032019 
82.67466 0.027884 
83.012848 0.276583 
83.049225 6.442525 
83.085587 3.627478 
84.044502 0.396091 
84.052612 0.519464 
84.080849 0.375475 
84.880089 0.017586 
84.922874 0.037316 
85.028481 1.249999 
85.064873 1.895156 
85.101265 0.366365 
85.115074 0.014213 
86.060074 0.42811 
86.096489 0.110025 
86.973267 0.278452 
87.044212 1.612458 
88.81633 0.012477 
88.952423 0.296664 
89.059799 3.37242 
89.113129 0.014891 
89.963882 0.015207 
90.947792 0.301134 
91.054329 5.91354 
91.057259 0.172252 
91.542648 0.013306 
92.057671 0.360636 
92.948158 0.01721 
93.07 13.047268 
94.065186 0.238386 
94.073341 0.430935 
95.04924 2.734577 
95.060585 0.172134 
95.085602 8.332596 
96.044449 0.318554 
96.052437 0.171837 
96.055534 0.047166 
96.080841 0.144951 
96.088936 0.386661 
97.025269 0.028417 
97.028519 0.899039 
97.064919 5.421114 
97.068298 0.04206 
97.10125 0.937895 
97.110054 0.024359 
98.060127 0.360271 
98.068207 0.39542 
98.071457 0.053694 
98.096512 0.166424 
98.984276 3.061235 
99.044167 0.995041 
99.080536 3.175361 
100.075798 0.501811 
100.083817 0.029447 
100.106255 0.012175 
100.112228 0.013118 
101.059822 1.442398 
102.090988 0.01445 
102.417122 0.01351 
102.982201 0.026468 
103.038994 0.312476 
103.054451 0.095121 
103.075287 0.045681 
103.921768 0.104594 
104.437744 0.015525 
105.033562 0.075565 
105.044991 0.059422 
105.070007 9.130341 
105.483345 0.033132 
106.065521 0.016963 
106.073318 0.79265 
106.076622 0.014641 
106.962723 0.023451 
107.049232 1.469476 
107.07029 0.016673 
107.085625 8.788715 
108.044449 0.070644 
108.052589 0.020181 
108.080673 0.039992 
108.088936 0.549242 
109.028496 0.069205 
109.052361 5.827034 
109.064857 2.139791 
109.101311 4.979799 
110.049431 0.048084 
110.055702 3.449164 
110.060135 7.368106 
110.067169 0.018437 
110.071411 0.866298 
110.096527 0.051774 
110.104546 0.277635 
110.467262 0.012304 
111.044151 1.897978 
111.056496 0.166638 
111.063416 4.444792 
111.080559 2.4927 
111.116928 0.078892 
112.0476 0.041655 
112.064049 0.033324 
112.075714 0.063627 
112.08374 0.161721 
112.329285 0.011936 
112.952744 0.090132 
113.023315 0.313295 
113.042229 0.017385 
113.05983 0.534516 
113.096214 0.084665 
113.101173 0.033739 
113.301605 0.014478 
114.054832 0.015488 
114.091621 0.033602 
114.107468 0.077508 
114.836487 0.013972 
115.039032 0.089176 
115.054398 0.129421 
115.075539 0.069038 
115.203056 0.028339 
115.964233 0.025938 
116.062119 0.018246 
116.070595 0.253127 
116.107094 0.081955 
117.069969 4.947342 
117.97982 1.217275 
118.07325 0.435158 
118.094185 0.040782 
118.945351 0.638447 
119.049217 0.202932 
119.060585 0.016107 
119.085663 6.470273 
120.080963 0.62824 
120.088913 0.773626 
121.028374 0.061367 
121.064941 1.711993 
121.101334 4.943794 
122.060272 0.456434 
122.072525 0.051299 
122.096626 0.042432 
122.104523 0.307098 
122.12796 0.024552 
123.044006 0.209384 
123.055283 0.016411 
123.063339 0.053856 
123.067856 0.104577 
123.080551 3.498031 
123.116898 1.60896 
123.711487 0.013459 
124.039459 0.102801 
124.075844 0.156488 
124.083862 0.48464 
124.088173 0.020266 
124.112213 0.046113 
124.120338 0.01669 
125.02343 1.272527 
125.059814 0.98335 
125.071167 0.050276 
125.096436 2.536837 
125.101097 0.020646 
125.568039 0.038272 
126.027039 0.016654 
126.055023 0.018516 
126.091515 0.044306 
126.09948 0.208985 
127.039108 0.865045 
127.075409 0.399929 
127.111794 0.527026 
128.062103 0.283869 
128.070663 0.019372 
128.107071 0.236108 
128.962997 0.023123 
129.054718 0.096565 
129.069901 1.55517 
129.074844 0.013612 
130.06514 0.017482 
130.073273 0.083715 
130.077896 0.265255 
130.94519 0.124306 
130.963043 2.6672 
131.049347 0.134163 
131.085678 5.402173 
131.953278 0.745017 
132.080902 0.018264 
132.088928 0.60026 
132.331726 0.014308 
132.960785 0.104837 
133.064865 1.302475 
133.08577 0.097859 
133.101303 5.609328 
133.932358 0.115722 
134.060043 0.03425 
134.096588 0.170706 
134.104477 0.515926 
134.973907 0.029117 
135.044144 0.212923 
135.080536 3.809185 
135.116852 2.443539 
135.545731 0.016293 
135.990433 0.034761 
136.061951 22.026041 
136.075348 0.996455 
136.087723 0.517907 
136.112152 0.016872 
136.1203 0.077281 
136.501694 0.029163 
136.956009 0.62544 
137.011887 0.394479 
137.059662 1.296796 
137.065353 0.565133 
137.079117 0.137948 
137.090775 0.041379 
137.096252 2.166188 
137.132675 0.168453 
137.606613 0.034782 
138.054962 1.785905 
138.062683 0.070577 
138.068115 0.044986 
138.077621 0.025275 
138.091583 0.082726 
138.099518 0.185378 
138.127808 0.317897 
139.039001 3.382661 
139.05835 1.246375 
139.07547 2.631689 
139.111938 0.247019 
140.042358 0.429297 
140.070114 0.01706 
140.078857 0.432665 
141.054611 3.304652 
141.060532 0.021699 
141.069885 0.247516 
141.079651 0.014589 
141.091812 0.015052 
141.127731 0.038263 
142.049545 0.031527 
142.058182 0.231391 
142.077927 0.202689 
142.086212 0.018162 
142.207901 0.040309 
143.05928 0.014723 
143.085709 2.206041 
144.088547 0.348815 
144.093765 0.21229 
144.959061 0.040141 
145.027603 0.041794 
145.064972 0.378191 
145.101364 3.362534 
145.967056 0.075612 
145.974686 0.043282 
146.096573 0.111922 
146.104584 0.874353 
146.976593 58.370407 
147.04422 0.070119 
147.08046 3.188215 
147.116959 2.262345 
147.965576 0.076039 
148.075668 0.322803 
148.083481 0.353739 
148.089325 0.02635 
148.112366 0.067709 
148.120148 0.243422 
148.625778 0.024875 
148.955902 1.803728 
148.973557 4.431801 
149.012268 0.025081 
149.059921 0.393111 
149.071426 0.01463 
149.096313 2.046379 
149.132553 1.645522 
149.963974 0.134277 
150.055222 0.02091 
150.091629 0.595451 
150.098801 0.15548 
150.104645 0.050695 
150.127747 0.124645 
150.951157 0.196242 
150.971451 0.442538 
151.075546 1.852799 
151.094879 0.701068 
151.111893 1.890711 
151.94313 0.065917 
152.070847 0.298885 
152.078705 0.262391 
152.107162 0.198287 
152.115005 0.105264 
152.951599 0.29961 
153.054688 0.438418 
153.078751 0.906409 
153.09111 0.91897 
153.127289 0.041223 
153.959671 0.034295 
153.992218 0.037796 
154.082199 0.679196 
154.122345 0.065319 
154.967407 0.028549 
155.022308 0.192933 
155.070297 0.291138 
155.085541 0.373703 
155.106461 0.021982 
156.077209 0.077463 
156.093674 0.431513 
157.065338 0.062855 
157.075806 0.015802 
157.101471 1.42852 
158.073074 0.022827 
158.104095 0.051968 
159.080658 1.032993 
159.116974 3.631049 
160.075943 0.019913 
160.083023 0.014706 
160.088776 0.033054 
160.112656 0.042523 
160.120346 0.469172 
160.955765 0.780554 
160.973831 0.054845 
161.059967 0.087445 
161.096359 2.138473 
161.132431 1.304387 
161.853607 0.034886 
162.055496 0.016964 
162.091568 0.272873 
162.09903 0.198744 
162.127777 0.019933 
162.137009 0.032063 
163.075485 0.475849 
163.087097 0.02029 
163.112183 1.250129 
163.148621 0.098876 
163.942963 0.199736 
163.977661 0.104293 
163.985245 0.567352 
164.034714 0.015791 
164.070816 0.11219 
164.107162 3.400752 
164.11467 0.295982 
164.143738 0.04121 
164.987183 15.139376 
165.036377 0.021208 
165.054657 0.134044 
165.091125 7.361184 
165.110367 0.389344 
165.127594 0.15838 
165.976151 0.058706 
166.086868 0.249376 
166.094437 1.323547 
166.122757 0.428997 
166.966309 0.561567 
166.984161 0.021779 
167.070389 1.986203 
167.085999 0.052431 
167.106094 0.033199 
168.066284 0.019094 
168.073883 0.127585 
168.078629 0.212535 
168.102173 0.128789 
168.961807 0.056062 
169.07579 0.390365 
169.086029 0.298689 
169.101227 0.902191 
169.978195 0.160388 
170.104263 0.050875 
170.961914 0.034302 
171.055466 0.168824 
171.080612 0.236216 
171.116821 1.265414 
172.07579 0.599712 
172.088043 0.159727 
172.119797 0.042703 
173.059937 0.022242 
173.089218 0.026688 
173.096375 1.282435 
173.132568 1.055828 
174.091705 0.027169 
174.099533 0.061006 
174.127121 0.019485 
174.136108 0.061985 
175.075623 1.686479 
175.111908 1.270906 
175.148148 1.261598 
175.417633 0.029194 
175.942947 3.562597 
175.967346 0.018053 
176.082153 0.176923 
176.107071 0.141764 
176.115128 0.142275 
176.151566 0.014312 
177.054779 0.11757 
177.091263 0.97355 
177.127487 0.70456 
177.964798 0.159663 
177.983444 0.164051 
178.086395 0.161471 
178.094666 0.090613 
178.122696 0.216992 
178.966431 2.061115 
179.002869 0.027337 
179.070328 1.343494 
179.0858 0.064409 
179.106735 3.005068 
179.142822 0.016997 
180.0737 0.123144 
180.10199 0.304157 
180.110519 0.542969 
180.138306 0.084744 
181.086029 0.840302 
181.101776 0.030123 
181.113571 0.019814 
181.122299 0.02422 
181.953201 0.016366 
182.081406 0.020593 
183.055511 0.192663 
183.117126 0.575009 
184.940552 0.122536 
185.070801 0.236678 
185.096664 0.094352 
185.132629 0.935648 
186.10434 0.077564 
186.12767 0.017865 
186.135498 0.017142 
187.063568 0.065748 
187.075516 0.036721 
187.112137 0.581377 
187.148285 0.453197 
188.08374 0.061296 
188.106857 0.05347 
188.119537 0.175096 
188.15184 0.018957 
188.648087 1.037548 
189.091278 1.071189 
189.127625 0.501262 
189.149979 0.208691 
189.164032 0.682085 
189.928574 0.024184 
190.096375 0.244085 
190.122665 0.085632 
190.168121 0.016159 
190.966385 38.151005 
191.022369 0.480557 
191.070633 0.285051 
191.106949 0.656376 
191.143097 0.201826 
192.101791 0.031889 
192.110733 0.040985 
192.13829 0.072283 
192.14711 0.014785 
193.086136 1.096558 
193.102112 0.037713 
193.122452 0.030121 
193.913803 0.044559 
193.953568 4.723134 
194.079636 0.03887 
194.094025 0.294552 
194.117798 0.058392 
194.153854 0.026121 
195.090759 0.017666 
195.101593 0.256827 
196.096924 0.018969 
197.060364 0.015277 
197.071518 0.099303 
197.096252 0.094862 
197.132294 0.103379 
197.653488 2.093407 
198.155304 0.365947 
199.075897 0.020014 
199.112061 0.061807 
199.901062 0.016893 
201.127655 0.393793 
201.164108 0.055906 
202.072525 0.018172 
202.086014 0.027439 
202.098068 0.014631 
202.122711 0.14399 
202.131683 0.015947 
202.158112 0.018685 
203.107101 0.131791 
203.143341 1.611595 
203.179749 0.222724 
204.11293 0.193817 
204.138474 0.46676 
204.147797 0.092627 
205.08638 0.529267 
205.112915 0.029893 
205.122818 0.2967 
205.159317 0.047865 
205.988144 0.480058 
206.091476 0.076583 
206.117615 1.554376 
206.154129 1.478382 
206.658844 1.172215 
206.978058 0.023041 
206.988876 0.035015 
207.091492 0.023233 
207.101852 2.695932 
207.12001 0.101447 
207.138458 0.064339 
207.149506 0.0245 
207.159637 0.325411 
207.939255 0.268196 
208.106689 0.399825 
208.133316 0.100987 
208.169998 0.07503 
208.937439 0.385529 
208.977112 26.540461 
209.033447 0.029815 
209.117599 3.268389 
209.128479 0.237479 
210.121017 0.899398 
211.086838 0.01974 
211.110504 0.040632 
211.122787 0.059083 
211.148422 0.018896 
212.07988 0.018493 
213.065842 0.046903 
213.091263 0.020301 
213.127075 0.039423 
213.164108 0.127414 
215.104141 0.016136 
215.664246 0.054986 
215.717117 0.166708 
215.725891 0.608513 
217.122391 0.020527 
219.102188 0.026413 
219.138336 0.115207 
219.173996 0.042935 
220.133408 6.295894 
220.169327 0.98777 
220.179947 0.042 
221.103622 0.045709 
221.137299 0.84952 
221.153839 0.109447 
221.173416 2.408656 
222.123535 0.02203 
222.149124 0.133089 
222.160248 0.02748 
222.175842 0.057739 
222.186356 0.204293 
222.992462 0.027986 
223.08667 0.770101 
223.133255 0.297872 
224.138077 0.019562 
225.022659 0.015922 
225.162735 0.018707 
226.146255 0.062879 
226.948303 0.032214 
229.001663 0.069956 
230.117737 0.02245 
230.154312 0.061278 
231.138748 0.018205 
231.174622 0.209327 
232.108871 0.038607 
232.133514 0.327484 
232.169785 0.02149 
233.117111 0.078519 
234.149109 0.557498 
236.16423 0.018446 
237.066071 0.066368 
237.102341 0.032866 
239.180313 0.021563 
240.908157 0.037091 
240.947205 1.09586 
241.085648 0.067174 
241.946777 0.087398 
242.909485 0.052038 
243.017792 0.183394 
243.466919 0.030354 
247.133362 0.022005 
247.210999 0.017415 
247.330582 0.016343 
248.128189 0.897613 
248.164703 0.91775 
248.201263 0.236149 
248.216446 0.047071 
249.133408 0.028902 
249.148575 0.540605 
249.169739 0.021997 
249.19696 0.075302 
250.143173 0.068556 
250.179794 0.158408 
250.192902 0.016607 
250.968552 0.072769 
251.003998 0.0334 
251.080902 0.053665 
252.150864 0.015714 
252.374939 0.033625 
252.947968 0.168758 
252.976212 0.019048 
253.955276 0.829409 
256.942047 0.090805 
258.957947 0.671012 
260.937408 0.190976 
265.097351 0.120848 
265.143799 0.137986 
265.199432 24.656729 
265.220398 0.096968 
266.020813 0.115017 
266.082336 0.025444 
266.10199 0.160326 
266.121063 0.086476 
266.138885 3.858687 
266.175781 1.485007 
266.200928 4.098176 
266.227844 1.076642 
266.245758 0.033507 
266.999176 7.497714 
267.066925 0.018486 
267.113556 0.23 
267.143341 0.503362 
267.158264 0.017022 
267.178162 0.032242 
267.206329 0.391813 
267.231506 0.164579 
267.999268 6.398589 
268.096222 0.05033 
268.110199 0.067988 
268.133179 0.41408 
268.154449 0.136921 
268.169556 0.206159 
268.19104 0.299649 
268.206024 0.824057 
268.263489 1.995531 
268.951538 0.095388 
268.978668 100.0 
269.137634 0.162573 
269.189117 0.04392 
269.266357 0.040082 
269.978485 21.395458 
270.957855 15.700037 
270.975677 9.55863 
271.957733 0.915807 
272.937592 0.217596 
272.95459 0.321582 
274.267395 0.033364 
274.95285 0.125729 
274.969208 0.032194 
276.932495 0.01699 
283.029663 0.016706 
284.030945 4.495577 
285.009979 33.915298 
285.027374 3.024752 
285.720032 0.019028 
285.815979 0.130932 
286.01001 8.436079 
286.027985 0.299906 
286.400665 0.036832 
286.823975 0.066096 
286.988983 0.73685 
287.006897 3.644213 
287.990509 0.053763 
288.968231 5.210156 
289.968628 0.083741 
END IONS

