BEGIN IONS
PEPMASS=331.154
CHARGE=1+
COMPOUNDNAME=Gibberellin A4&A7
LIBRARYQUALITY=3
SMILES=N/A
INCHIKEY=SEEGHKWOBVVBTQ-UKJRIFTCSA-N
INCHI=InChI=1S/C19H22O5/c1-9-7-18-8-10(9)3-4-11(18)19-6-5-12(20)17(2,16(23)24-19)14(19)13(18)15(21)22/h5-6,10-14,20H,1,3-4,7-8H2,2H3,(H,21,22)/t10-,11-,12+,13-,14-,17+,18+,19-/m1/s1
MSLEVEL=2
SOURCE_INSTRUMENT=N/A-ESI-QFT
FILENAME=library_mgf.mgf
SEQ=*..*
IONMODE=positive
ORGANISM=MONA
NAME=Gibberellin A4&A7 [M+H]+
PI=MoNA
DATACOLLECTOR=MoNA:VF-NPL-QEHF006602
PUBMED=N/A
SUBMITUSER=mwang87
TAGS=
SPECTRUMID=CCMSLIB00004697665
SCANS=6602
50.276703 0.045212 
50.507229 0.059402 
51.044746 0.054638 
51.086292 0.060905 
51.528961 0.079201 
52.103687 0.046554 
52.448803 0.044385 
52.776737 0.057945 
52.930374 0.05592 
53.039371 0.145762 
53.174747 0.072707 
53.531311 0.032891 
54.363525 0.040884 
54.647858 0.047947 
54.995422 0.033014 
55.018616 1.520922 
55.055012 5.686816 
55.056274 0.046469 
56.050274 0.472526 
56.383865 0.06949 
56.43726 0.047513 
56.965611 0.182144 
57.034267 0.813769 
57.070656 5.515609 
57.12693 0.043227 
57.808544 0.038623 
58.065891 44.59901 
58.430428 0.041615 
58.879398 0.034292 
59.00296 0.04934 
59.0499 0.503673 
59.06918 0.042172 
59.257835 0.034616 
60.045128 1.891198 
60.046719 0.049059 
60.247429 0.04395 
61.011433 1.059265 
61.726631 0.060498 
61.809071 0.061361 
61.904129 0.030248 
62.019245 0.033459 
62.060734 0.110347 
62.424377 0.049534 
62.839806 0.057049 
62.982464 0.719815 
63.206738 0.052144 
63.804234 0.043535 
64.744598 0.040543 
64.832352 0.059891 
65.016251 0.045426 
65.039284 0.531133 
65.753922 0.058188 
65.945267 0.034963 
66.116837 0.064979 
67.054939 5.717489 
67.205605 0.056245 
68.058083 0.096296 
69.03418 0.703444 
69.070564 5.780768 
69.205025 0.0455 
69.327904 0.045443 
69.501389 0.037638 
70.065804 1.779942 
70.073776 0.048544 
70.221687 0.062692 
71.049812 1.572788 
71.086197 3.809407 
72.045074 0.296554 
72.081444 1.387868 
72.089561 0.044551 
72.322861 0.039516 
72.47226 0.068684 
72.884354 0.044101 
73.065521 0.045336 
73.096458 0.039231 
73.344749 0.063997 
73.654305 0.058265 
74.060654 0.536617 
74.256638 0.057535 
75.044563 0.098404 
75.488213 0.057438 
76.718369 0.049652 
78.216934 0.053892 
79.021767 0.561254 
79.054817 5.213134 
79.328835 0.050652 
79.561546 0.051495 
79.564095 0.040434 
80.049988 0.125865 
80.86515 0.033036 
81.034096 0.197686 
81.070457 9.591505 
81.446991 0.050194 
82.005089 0.049203 
82.065865 0.045698 
82.07383 0.332475 
82.082275 0.071075 
82.111267 0.066581 
82.239632 0.034744 
83.049667 1.974002 
83.086082 4.776774 
83.466034 0.050911 
84.044945 0.198514 
84.08139 0.721684 
84.089386 0.091017 
84.60714 0.064013 
85.028954 0.656002 
85.040398 0.042761 
85.065308 1.181493 
85.101692 1.178637 
85.941788 0.055988 
86.060555 0.208036 
86.096931 2.25095 
87.044579 1.187139 
87.39827 0.052733 
88.022041 0.139982 
88.07618 2.836587 
89.060211 0.712301 
90.602303 0.052694 
91.054695 100.0 
92.058037 1.620794 
92.857033 0.0454 
93.070343 7.82088 
93.453751 0.042098 
94.065636 0.054216 
94.073746 0.123667 
95.049583 1.528287 
95.085991 9.81071 
95.465714 0.062841 
95.551331 0.037056 
95.936699 0.062873 
96.044861 0.406707 
96.08123 0.045383 
96.08931 0.418499 
96.189606 0.055324 
97.02906 0.04481 
97.065224 1.504801 
97.101524 2.130246 
98.060493 0.085036 
98.096863 0.152422 
98.947479 0.071375 
98.972092 0.093164 
98.975746 13.72609 
98.979103 0.302722 
99.044426 0.337348 
99.080841 1.414762 
99.455299 0.058233 
99.463882 0.043515 
99.959381 0.050081 
100.07608 1.43143 
100.112411 0.49052 
101.06012 0.815384 
102.091637 0.199272 
102.949821 0.06512 
103.054543 0.9249 
103.424263 0.034335 
104.071068 0.301224 
104.161819 0.058402 
104.92453 0.047642 
105.033997 0.043825 
105.070267 7.04662 
106.073517 0.317096 
106.08654 1.271425 
106.663643 0.033692 
107.0495 1.144915 
107.081917 0.069111 
107.085876 7.378627 
107.180649 0.031877 
107.784386 0.031367 
108.089134 0.267803 
108.450584 0.048726 
109.065094 1.636826 
109.10144 5.066367 
109.289703 0.045645 
109.516014 0.050423 
109.602081 0.04193 
109.920921 0.074364 
110.060349 0.079494 
110.096786 0.114518 
110.104927 0.192115 
110.800407 0.050248 
110.815269 0.046885 
111.044334 1.755467 
111.055 0.051075 
111.080688 1.546864 
111.200943 0.045673 
112.076118 0.079432 
113.060074 0.287227 
113.096542 0.124086 
113.15551 0.046647 
114.388908 0.074511 
114.439392 0.03659 
115.05439 0.094965 
116.053108 0.288612 
116.071037 0.125781 
116.986153 13.98367 
117.070038 3.655349 
118.242149 0.039991 
118.340958 0.044751 
118.484398 0.043266 
119.049507 0.187712 
119.085709 69.351288 
120.032867 0.050975 
120.080994 1.843011 
120.088997 1.396218 
120.204231 0.051312 
121.064941 2.563938 
121.097092 0.048816 
121.101341 4.466722 
121.122047 0.042276 
122.060257 0.152316 
122.080956 0.04422 
122.104614 0.145519 
123.044228 0.243378 
123.080589 2.077651 
123.116936 0.614732 
123.232758 0.03636 
124.596207 0.04814 
125.059814 0.578704 
125.096176 1.198518 
126.926773 0.062485 
127.07534 0.092522 
127.111992 0.037609 
128.062271 0.052839 
129.01828 0.060291 
129.054535 0.043133 
129.069977 1.930328 
130.065872 0.071364 
131.00264 0.054301 
131.049194 0.260876 
131.085556 4.35199 
132.958313 0.466685 
133.009659 0.037183 
133.064911 0.687547 
133.101227 4.515684 
133.20256 0.072045 
133.313141 0.043868 
133.980164 0.054272 
134.096268 0.054584 
134.104401 0.173379 
134.99646 8.195576 
135.044006 0.383787 
135.075195 0.047532 
135.080444 1.943008 
135.116882 2.600995 
136.075821 0.112047 
136.112091 0.755095 
136.120163 0.057349 
137.059677 0.558443 
137.096024 0.720217 
138.05455 0.091292 
138.091248 0.146809 
138.127747 0.164745 
139.075409 0.929781 
139.111618 0.394391 
140.081665 0.310201 
140.498779 0.044263 
141.069855 0.234676 
141.090836 0.038037 
143.085464 2.613793 
144.080795 0.151181 
144.088242 0.049843 
144.868805 0.039561 
145.064743 0.648736 
145.101166 3.748142 
146.096512 0.197837 
146.442169 0.052275 
147.080414 1.588003 
147.116837 1.954687 
147.531937 0.085675 
148.076004 0.053582 
148.111923 0.542324 
148.971954 0.205195 
149.05983 0.897431 
149.09613 1.523141 
149.132523 0.279811 
149.67572 0.038434 
150.098892 0.056772 
150.96875 1.082509 
151.075165 0.363319 
151.111801 0.828537 
152.070374 0.043274 
152.106888 0.052582 
153.00705 0.658656 
153.09111 0.477793 
153.127502 0.044268 
154.122681 0.043224 
155.08548 2.122325 
156.0811 0.27652 
157.064957 0.234117 
157.084778 0.06621 
157.101212 3.922485 
158.104416 0.050572 
159.080307 1.411244 
159.116837 2.066047 
160.075668 0.051781 
160.111526 0.051839 
161.05983 0.207454 
161.096085 1.150652 
161.132553 0.591339 
162.090897 0.156032 
162.112488 0.109222 
163.075378 0.467523 
163.111755 0.440845 
163.951859 0.042176 
164.179916 0.058393 
165.054153 0.107683 
165.069977 0.091356 
165.090988 0.631361 
166.077805 0.051243 
166.382797 0.05173 
167.085495 0.493738 
167.106461 0.041098 
168.138321 0.791459 
168.393066 0.046381 
169.101212 2.603548 
169.121979 0.042996 
170.10495 0.066109 
171.080246 0.690856 
171.116913 2.243717 
171.750183 0.055621 
172.075317 0.126916 
172.088394 0.050966 
172.111832 0.123269 
173.096252 1.032249 
173.132416 0.490691 
173.961319 0.065813 
174.091293 1.166651 
174.744629 0.078705 
174.910065 0.08543 
174.97261 0.108405 
174.995361 0.051658 
175.066345 0.061956 
175.075241 0.241124 
175.11171 0.9013 
175.148514 0.079278 
176.071396 0.066037 
176.106583 0.041136 
176.989304 7.63039 
177.090958 0.428621 
177.127518 0.245683 
177.177811 0.073825 
178.086029 0.092802 
178.122452 0.03687 
179.085464 1.742138 
179.106689 0.171019 
180.093033 0.167798 
181.101212 3.411155 
182.09642 0.04532 
182.105606 0.031953 
182.63681 0.085488 
183.080612 0.252489 
183.116837 3.045373 
184.075623 0.148236 
184.112228 0.048003 
184.120316 0.131528 
185.096146 1.372944 
185.132645 1.106626 
186.091248 0.056658 
186.148636 0.616879 
187.075363 0.239562 
187.111908 0.625635 
187.148254 0.073517 
187.5103 0.038594 
188.070145 0.172479 
188.10701 0.041082 
188.937698 0.07454 
189.090775 0.120305 
189.127289 0.248407 
189.732788 0.062362 
190.923721 0.107017 
191.10675 0.288723 
191.92276 1.041975 
191.971634 0.977057 
192.063889 0.055389 
192.137283 0.04035 
192.920944 0.797934 
192.96167 4.576499 
193.101257 3.321635 
194.105087 0.196667 
194.999847 17.450024 
195.080505 0.450229 
195.116714 3.732796 
196.120499 0.191305 
197.096085 1.497722 
197.132538 2.312245 
198.076279 0.054385 
198.135071 0.049836 
199.075653 0.111107 
199.11174 1.050487 
199.147781 0.564389 
201.091095 0.292004 
201.127609 0.50726 
202.086441 0.045868 
203.028305 0.096642 
203.10675 0.408803 
205.101089 0.07583 
205.122238 0.293565 
207.116745 0.243925 
208.043961 0.054033 
208.088287 0.076863 
209.015472 0.070541 
209.09613 1.493215 
209.132401 1.648501 
209.933746 0.107707 
209.974335 0.982679 
209.98349 0.145704 
210.103012 0.067344 
210.115967 0.039028 
210.1362 0.189303 
210.972153 3.790255 
211.07486 0.10249 
211.111588 2.154194 
211.148087 1.905674 
212.152618 0.072567 
212.237213 3.785252 
213.010559 1.889084 
213.091125 0.253817 
213.127136 0.610398 
213.163788 0.903425 
214.167419 0.132309 
214.252609 0.279436 
214.893631 0.756856 
214.900299 1.047145 
214.90831 2.463135 
215.001175 0.076106 
215.106598 0.145786 
215.1436 0.144395 
216.122772 0.04899 
217.122162 0.092983 
218.08075 0.078383 
218.116806 0.047359 
219.113693 0.06645 
219.174377 0.140342 
220.133377 1.010312 
221.096664 0.117061 
221.13237 0.236002 
223.075623 0.038073 
223.11174 1.972078 
223.148117 0.214349 
223.618515 0.044292 
223.639755 0.039986 
225.091034 0.424994 
225.127228 1.037706 
225.164047 0.053803 
226.216553 0.511238 
227.106476 0.601307 
227.142807 0.337784 
227.179459 0.535039 
229.122421 0.104578 
231.099777 0.053968 
231.174576 0.317837 
234.899246 0.510912 
235.110931 0.0389 
237.090973 0.634404 
237.127151 0.587825 
237.163788 1.477385 
238.084381 0.038828 
238.166977 0.640385 
239.106613 0.921568 
239.143051 2.239579 
239.179245 1.940527 
239.909348 0.060277 
240.182663 0.073819 
240.268478 29.946321 
240.909195 0.086394 
241.122314 0.588216 
241.195221 0.1382 
241.271835 0.801968 
242.153809 0.056491 
243.101257 0.03737 
243.174835 0.053474 
249.184708 0.063852 
251.106506 1.160978 
251.973907 0.066604 
252.949768 0.546306 
253.122498 0.320595 
253.156281 0.113463 
254.155121 0.044492 
255.101181 0.045247 
255.137466 0.226417 
255.174225 1.563782 
255.249771 0.052583 
256.131958 0.065099 
256.177856 0.252073 
256.852112 0.049396 
257.18988 0.323182 
260.641937 0.053992 
263.325958 0.039002 
265.158356 0.314546 
266.117218 0.298854 
267.137451 0.256153 
267.173889 0.132924 
268.263092 1.364824 
269.117126 1.48483 
269.266541 0.042066 
270.118805 0.043824 
270.278961 0.240809 
273.16687 0.047453 
276.910065 0.068464 
276.996338 0.049374 
279.101288 0.991479 
283.168823 1.066457 
285.147797 0.068254 
285.184875 0.740763 
286.180908 0.057386 
288.09671 0.049806 
293.045105 0.038897 
295.188446 0.045976 
296.296112 0.044483 
300.161163 0.036184 
302.139465 0.041281 
312.157837 0.064315 
312.325714 0.057661 
312.839691 0.103836 
313.119293 0.05074 
313.153107 0.043648 
314.175476 0.042075 
314.30481 0.116349 
317.26947 0.056078 
321.762054 0.052709 
322.917328 0.038422 
324.552765 0.03936 
325.831207 0.103691 
327.826691 0.428452 
329.173096 0.337747 
329.191986 0.231522 
329.209839 0.054189 
329.229095 0.764708 
329.256104 0.048289 
329.381042 0.051293 
330.133759 0.490155 
330.171478 0.108048 
330.204803 0.106386 
330.242371 0.277244 
330.279114 1.209545 
330.315277 0.880945 
330.336212 0.477099 
331.132721 0.169295 
331.152191 0.708959 
331.171875 0.43769 
331.208801 21.879864 
332.14801 0.10699 
332.186768 0.244157 
332.211914 2.883963 
332.258026 0.835162 
332.294739 1.391721 
332.331268 11.897983 
333.11438 0.155183 
333.149994 0.208063 
333.168213 0.274852 
333.187164 0.627028 
333.335175 0.237302 
337.310852 0.039582 
341.164642 0.067498 
344.827332 0.064183 
344.873016 0.043734 
346.155396 0.03861 
347.978149 0.045738 
350.570709 0.068552 
351.013733 0.055349 
END IONS

