BEGIN IONS
PEPMASS=281.175
CHARGE=1+
COMPOUNDNAME=Massbank:FIO00532 Brefeldin-A
LIBRARYQUALITY=3
SMILES=C[C@@H](C2)OC(=O)C=C[C@@H](O)[C@]([H])(C1)[C@]([H])(C=CCC2)C[C@H](O)1
INCHIKEY=KQNZDYYTLMIZCT-XPABHHOTSA-N
INCHI=1S/C16H24O4/c1-11-5-3-2-4-6-12-9-13(17)10-14(12)15(18)7-8-16(19)20-11/h4,6-8,11-15,17-18H,2-3,5,9-10H2,1H3/b6-4+,8-7+/t11-,12+,13-,14+,15+/m0/s1
MSLEVEL=2
SOURCE_INSTRUMENT=ESI-LC-ESI-QTOF
FILENAME=Massbank_ESI_positive_8_1_2014_peaks.mgf
SEQ=*..*
IONMODE=Positive
ORGANISM=MASSBANK
NAME=Massbank:FIO00532 Brefeldin-A [M+H]+
PI=Putative Massbank Match
DATACOLLECTOR=Massbank
PUBMED=N/A
SUBMITUSER=mwang87
TAGS=
SPECTRUMID=CCMSLIB00000214420
SCANS=6785
81.0695 330.0 
91.0546 592.0 
93.0704 630.0 
95.0855 1450.0 
99.0081 458.0 
101.024 608.0 
105.0701 1710.0 
106.0737 188.0 
107.0858 1060.0 
109.1015 672.0 
111.0448 308.0 
113.0605 486.0 
115.0545 188.0 
117.0704 2553.0 
118.0738 304.0 
119.0858 2200.0 
120.0886 166.0 
121.1011 1140.0 
123.0442 314.0 
123.1177 510.0 
128.0624 298.0 
129.0699 1926.0 
130.0749 326.0 
131.0858 3306.0 
132.0901 334.0 
133.1017 1660.0 
134.108 282.0 
135.0807 350.0 
137.0609 236.0 
139.0387 512.0 
141.0551 258.0 
142.0782 294.0 
143.0857 3020.0 
144.0907 436.0 
145.1012 1636.0 
146.1054 234.0 
147.0805 852.0 
149.0597 1008.0 
149.1323 214.0 
150.0636 148.0 
151.0754 802.0 
152.0795 122.0 
153.0698 120.0 
154.8533 108.0 
155.085 212.0 
157.1009 1992.0 
158.1058 296.0 
159.1169 1854.0 
160.1241 968.0 
161.0599 610.0 
163.1482 1782.0 
164.1514 128.0 
165.0905 162.0 
167.0702 300.0 
169.1008 114.0 
170.1076 268.0 
171.1163 802.0 
173.1321 460.0 
175.0751 780.0 
175.1466 144.0 
176.0778 110.0 
177.0911 174.0 
181.1011 298.0 
183.1163 230.0 
184.1238 114.0 
185.1317 1156.0 
186.1356 206.0 
189.0909 626.0 
189.1634 284.0 
190.0957 170.0 
191.0696 114.0 
197.1315 100.0 
199.1472 1666.0 
200.1518 284.0 
201.1268 114.0 
203.1059 256.0 
217.1581 360.0 
227.1418 194.0 
245.1537 268.0 
949.7478 112.0 
971.3426 102.0 
998.5657 100.0 
END IONS

