BEGIN IONS
PEPMASS=506.276
CHARGE=1+
COMPOUNDNAME=(2E,6E,12E)-18-(2,6-dioxopiperidin-4-yl)-9,11-dihydroxy-8-methoxy-10,12,14-trimethyl-15-oxooctadeca-2,6,12-trienoic acid
LIBRARYQUALITY=3
SMILES=N/A
INCHIKEY=YQDJUXPUIRGKNV-MNOLRWOYSA-N
INCHI=InChI=1S/C27H41NO8/c1-17(21(29)11-9-10-20-15-23(30)28-24(31)16-20)14-18(2)26(34)19(3)27(35)22(36-4)12-7-5-6-8-13-25(32)33/h7-8,12-14,17,19-20,22,26-27,34-35H,5-6,9-11,15-16H2,1-4H3,(H,32,33)(H,28,30,31)/b12-7+,13-8+,18-14+
MSLEVEL=2
SOURCE_INSTRUMENT=N/A-ESI-QFT
FILENAME=library_mgf.mgf
SEQ=*..*
IONMODE=negative
ORGANISM=MONA
NAME=(2E,6E,12E)-18-(2,6-dioxopiperidin-4-yl)-9,11-dihydroxy-8-methoxy-10,12,14-trimethyl-15-oxooctadeca-2,6,12-trienoic acid [M-H]-
PI=MoNA
DATACOLLECTOR=MoNA:VF-NPL-QEHF001649
PUBMED=N/A
SUBMITUSER=mwang87
TAGS=
SPECTRUMID=CCMSLIB00004692712
SCANS=1649
50.636585 0.029638 
51.001167 0.073624 
51.204678 0.038859 
51.580414 0.050313 
51.718128 0.055119 
51.916725 0.042638 
52.049145 0.038279 
52.367382 0.056079 
52.471317 0.060443 
52.621201 0.054254 
52.650696 0.068453 
53.002785 0.070253 
53.136879 0.063324 
53.455177 0.040562 
53.828815 0.031868 
53.843819 0.062453 
54.375687 0.035557 
55.017601 0.088654 
55.23634 0.054632 
55.261082 0.059373 
55.300312 0.050632 
55.418365 0.035041 
55.730724 0.051545 
56.247543 0.053166 
56.269352 0.054635 
57.00523 0.085184 
57.011974 0.049967 
57.033245 1.292901 
57.050594 0.039695 
57.106407 0.056647 
57.532505 0.049782 
58.020294 0.065996 
58.028481 100.0 
58.036575 0.263402 
58.261219 0.050182 
58.747982 0.056222 
58.924297 0.056221 
59.01255 0.233873 
59.031876 1.03942 
59.034782 0.049474 
59.127934 0.057471 
59.141315 0.082189 
59.585773 0.039649 
59.816795 0.034548 
59.853348 0.04993 
60.067505 0.051567 
60.549019 0.033209 
61.440769 0.051353 
61.452198 0.045789 
62.315754 0.051753 
62.79039 0.035186 
62.825932 0.031578 
62.973534 0.036564 
63.271626 0.035451 
64.091698 0.048541 
64.674492 0.049565 
65.990158 0.055008 
66.108505 0.061546 
66.61972 0.046805 
66.80545 0.054934 
67.402176 0.051931 
68.20208 0.052321 
68.355476 0.053292 
68.500473 0.058696 
68.825226 0.059707 
69.044785 0.051887 
69.983009 0.051166 
70.424477 0.033689 
70.747063 0.038409 
70.812469 0.053136 
70.878738 0.058487 
70.97892 0.034966 
71.178566 0.066767 
72.157555 0.060683 
74.05265 0.057848 
74.181465 0.061621 
74.64917 0.032912 
74.801468 0.051609 
75.050705 0.055578 
75.322212 0.070768 
75.344116 0.086411 
75.50135 0.038396 
76.654747 0.055678 
77.303688 0.063798 
77.37429 0.060273 
77.556343 0.054232 
77.7658 0.055438 
77.827133 0.067852 
78.868797 0.070768 
79.080444 0.056604 
80.07431 0.086982 
80.509567 0.06551 
80.843063 0.06946 
81.033089 0.061518 
81.759338 0.051083 
82.56118 0.045577 
82.614952 0.051674 
83.175484 0.063532 
83.259743 0.050952 
83.358894 0.051448 
84.020248 0.268936 
84.044159 8.120549 
84.06678 0.063565 
84.907196 0.075609 
85.01326 0.077327 
85.028191 96.450745 
86.031517 2.36093 
86.070053 0.062306 
86.306953 0.036396 
87.110901 0.064045 
88.435966 0.037852 
89.104645 0.066061 
90.382195 0.050442 
90.622528 0.051815 
90.750786 0.071993 
90.78717 0.045972 
90.853615 0.052427 
90.951698 0.067176 
91.468475 0.067321 
92.019241 0.066549 
92.598412 0.052708 
92.690056 0.059446 
92.911499 0.05382 
94.605911 0.076318 
95.048973 20.856821 
95.359436 0.041111 
95.805023 0.055493 
96.044151 0.643565 
96.052223 0.381063 
97.028358 0.466027 
97.064613 7.910993 
98.68914 0.040566 
99.043823 0.384489 
99.648148 0.068272 
99.944481 0.058165 
100.549477 0.062743 
100.605591 0.064452 
100.699753 0.058242 
101.643501 0.04731 
101.972572 0.058214 
102.311081 0.051442 
102.650032 0.062619 
102.691521 0.042472 
102.739449 0.037844 
103.186371 0.0713 
103.941757 0.032114 
104.434395 0.062599 
105.233788 0.038345 
107.904465 0.058128 
108.682594 0.061704 
109.06485 0.15656 
110.023552 2.083936 
110.523888 0.049254 
111.080299 0.975875 
111.931503 0.058084 
112.075539 1.743079 
112.373894 0.05213 
112.797852 0.053066 
113.084206 0.06102 
114.008179 0.046938 
114.081459 0.054792 
114.731392 0.04698 
116.395462 0.039958 
116.415451 0.06102 
117.576202 0.063106 
117.587448 0.059393 
118.696198 0.06664 
118.744873 0.053641 
119.04921 0.037039 
119.197823 0.035848 
119.999702 0.054537 
120.427841 0.055564 
121.064751 3.176074 
122.683136 0.054348 
123.043877 0.061568 
123.080559 0.129766 
124.039238 10.417131 
124.478615 0.053188 
125.075912 0.055062 
125.095825 0.071176 
125.139778 0.051371 
125.590286 0.080002 
129.580612 0.056535 
131.159821 0.068592 
133.035751 0.060328 
133.101212 3.299668 
133.635605 0.07395 
133.820694 0.056126 
133.897858 0.068431 
135.080383 2.239821 
135.115631 0.036995 
136.039352 0.433198 
136.075836 0.146028 
137.059708 0.472145 
137.095963 0.064217 
137.761856 0.075556 
137.92485 0.068277 
138.054993 1.176476 
138.195038 0.051218 
138.347 0.056253 
139.111618 0.107337 
139.344177 0.038988 
140.474319 0.068207 
141.012985 0.056432 
141.18576 0.063144 
141.256912 0.040841 
141.678558 0.069918 
143.531662 0.066553 
146.4543 0.055247 
146.943558 0.074665 
147.326889 0.057124 
147.401443 0.062795 
148.33551 0.057466 
149.156784 0.056037 
149.557465 0.055819 
150.532455 0.09868 
151.075363 1.130875 
151.111664 0.484378 
152.10675 0.174679 
154.086365 11.172483 
154.231583 0.058412 
155.0896 0.037577 
155.589508 0.038404 
157.253983 0.044743 
157.500183 0.067755 
157.627945 0.07261 
161.088974 0.046221 
161.853394 0.035301 
162.0009 0.083281 
162.678864 0.042262 
163.381042 0.045868 
165.410904 0.065383 
166.164932 0.04192 
166.688416 0.038776 
168.315765 0.045864 
173.096283 2.654563 
174.897964 0.0597 
175.004562 0.063743 
175.111862 0.06204 
176.206253 0.049703 
178.298172 0.049304 
179.143036 0.108211 
180.065826 15.760776 
181.069321 0.505216 
181.274536 0.085737 
181.343369 0.074169 
182.081909 0.128155 
184.000717 0.042219 
184.465393 0.052726 
185.610077 0.062946 
186.274078 0.062021 
186.387512 0.05611 
187.881607 0.046597 
190.529419 0.048496 
191.006851 0.085336 
191.107086 18.378557 
192.110443 0.982696 
193.069031 0.056457 
194.060287 0.068661 
194.179916 0.036988 
194.369202 0.067294 
195.57663 0.062888 
197.080994 0.215338 
198.332504 0.060981 
198.42511 0.05872 
199.358505 0.060646 
201.091446 0.218515 
202.497894 0.058136 
203.545975 0.056492 
205.158401 0.064041 
205.900726 0.068672 
208.175232 0.063605 
210.112961 0.54389 
210.53302 0.060906 
211.644363 0.048334 
213.127869 0.094202 
213.305695 3.447871 
213.629044 0.057323 
214.342606 0.048513 
214.950195 0.05906 
215.107758 0.037656 
217.889526 0.083176 
218.808884 0.057029 
221.025497 0.061335 
222.394348 0.054772 
223.098862 0.0548 
224.657791 0.083591 
224.878601 0.053262 
226.042175 0.055103 
229.159866 0.044885 
230.9151 0.066515 
231.138855 22.767986 
232.132446 0.362069 
232.142975 1.29447 
236.93396 0.0579 
241.327042 0.069857 
242.827347 0.063516 
245.232208 0.05619 
248.20929 0.056734 
249.546219 0.055644 
250.144775 23.628223 
251.148514 2.417415 
253.808182 0.081738 
256.626648 0.036571 
257.217712 0.050324 
257.407318 0.050929 
260.129364 0.111796 
261.488922 0.042005 
263.925903 0.067707 
265.356628 0.068172 
268.399414 0.060457 
270.749176 0.064446 
272.165527 0.266377 
273.467682 0.036701 
273.795929 0.06257 
275.300018 0.040927 
277.712433 0.068937 
283.531342 0.060353 
287.117218 0.063604 
290.176361 28.071508 
291.180054 4.874568 
293.80899 0.053179 
295.92981 0.057288 
296.934753 0.083212 
297.973267 0.077075 
298.859467 0.065344 
300.892059 0.059418 
302.945953 0.072471 
303.603058 0.059967 
304.120697 0.073787 
308.186829 0.062836 
311.80835 0.061755 
313.250366 0.066212 
315.720367 0.056707 
317.443268 0.051662 
325.344208 0.051617 
327.043427 0.044485 
330.396332 0.061774 
331.130157 0.093155 
333.013977 0.06675 
339.128998 0.044817 
342.418091 0.064897 
353.487518 0.066328 
357.30896 0.060657 
363.32959 0.062254 
366.017731 0.062283 
367.209564 0.081186 
368.697815 0.049847 
371.981018 0.059742 
373.844391 0.050442 
376.020233 0.064763 
378.904694 0.060995 
382.189453 0.071077 
383.629395 0.066288 
385.609406 0.055625 
386.619965 0.040641 
403.212433 0.059368 
405.485931 0.068691 
405.867889 0.081606 
407.736053 0.069612 
408.823608 0.083153 
410.048889 0.058787 
413.725616 0.043345 
414.646576 0.048299 
415.805878 0.052958 
420.462158 0.047103 
429.940063 0.069039 
446.951263 0.091498 
461.788361 0.06514 
475.937012 0.073397 
483.437897 0.068408 
497.221863 0.065421 
511.7229 0.055699 
513.661621 0.041735 
522.640564 0.104658 
END IONS

