BEGIN IONS
PEPMASS=377.209
CHARGE=1+
COMPOUNDNAME=Aphidicolin
LIBRARYQUALITY=3
SMILES=N/A
INCHIKEY=NOFOAYPPHIUXJR-APNQCZIXSA-N
INCHI=InChI=1S/C20H34O4/c1-17(11-21)15-4-3-13-9-14-10-19(13,7-8-20(14,24)12-22)18(15,2)6-5-16(17)23/h13-16,21-24H,3-12H2,1-2H3/t13-,14+,15-,16+,17-,18-,19-,20-/m0/s1
MSLEVEL=2
SOURCE_INSTRUMENT=N/A-ESI-QFT
FILENAME=library_mgf.mgf
SEQ=*..*
IONMODE=positive
ORGANISM=MONA
NAME=Aphidicolin [M+K]+
PI=MoNA
DATACOLLECTOR=MoNA:VF-NPL-QEHF004573
PUBMED=N/A
SUBMITUSER=mwang87
TAGS=
SPECTRUMID=CCMSLIB00004695636
SCANS=4573
50.922268 0.063155 
51.112354 0.068396 
51.441387 0.057624 
51.920261 0.063694 
52.148026 0.059728 
52.678112 0.059911 
52.956512 0.062285 
53.002926 0.072383 
53.039425 0.191256 
53.076969 0.067297 
53.359512 0.073783 
53.565292 0.06063 
54.884327 0.051665 
55.0186 2.157759 
55.055027 9.796206 
55.131233 0.057108 
56.050282 5.17108 
56.058407 0.091239 
56.093658 0.069449 
56.148178 0.061259 
57.034279 3.662844 
57.053616 0.178729 
57.070667 20.0263 
57.762184 0.053588 
58.062916 0.06019 
58.065907 10.795489 
58.073986 0.710365 
58.325191 0.060536 
58.363029 0.056641 
59.049919 6.665741 
59.0611 1.344708 
59.069183 0.686908 
60.045143 3.781044 
60.078346 0.167414 
60.081509 0.406614 
60.099026 0.058393 
60.143147 0.065217 
61.011421 4.758752 
62.019211 3.065765 
62.060768 1.331612 
62.755302 0.063241 
62.982418 0.29428 
62.9907 0.080586 
63.047531 0.047406 
64.230125 0.066148 
64.812332 0.060594 
65.039436 0.090866 
65.057388 0.073968 
67.048683 0.054635 
67.05497 12.599719 
68.050156 0.215895 
68.058342 0.3483 
68.798347 0.064995 
69.03421 4.614526 
69.045433 0.067894 
69.060768 0.071693 
69.070625 16.142191 
69.670197 0.077462 
70.029488 0.142626 
70.065842 8.994711 
70.073959 0.364136 
70.928482 0.065148 
71.013214 0.063813 
71.049873 7.829021 
71.071976 0.077195 
71.086266 13.582949 
72.04512 4.867257 
72.081497 4.195648 
72.083466 0.087778 
72.089508 0.629467 
73.029045 0.87529 
73.047508 0.088494 
73.065514 5.256035 
73.315598 0.062711 
73.441383 0.061255 
74.060776 9.379298 
74.097099 1.392109 
75.044579 0.390973 
75.063995 0.757019 
76.039978 0.236099 
76.076408 0.09545 
76.685333 0.067977 
77.039452 0.083208 
78.968056 0.076611 
79.021873 7.740072 
79.054909 7.460957 
80.050011 0.356016 
80.058205 0.063288 
80.498192 0.065159 
80.948418 0.066063 
81.034019 1.972583 
81.070549 21.103815 
82.065651 0.608932 
82.073738 1.125501 
83.049789 11.318697 
83.052498 0.100931 
83.086197 18.152313 
84.044914 1.37954 
84.053047 0.169226 
84.081406 8.151647 
84.089302 1.005061 
85.028908 2.224215 
85.040176 1.158667 
85.065445 8.330478 
85.068466 0.083782 
85.101814 6.816042 
85.181206 0.055011 
85.477539 0.06479 
86.060677 6.925913 
86.068848 0.079245 
86.097061 10.905095 
86.105125 0.369673 
87.026649 0.13061 
87.044693 8.657464 
87.063972 0.14891 
87.080925 0.137014 
87.100288 0.218374 
87.237518 0.067788 
88.022118 0.285063 
88.039757 1.690841 
88.048019 0.41605 
88.076302 4.349473 
89.06031 32.895237 
89.079498 0.41091 
89.263031 0.060841 
89.768112 0.067061 
90.055405 0.754236 
90.063538 1.131419 
91.054665 8.109701 
91.057854 3.007589 
91.064438 0.068842 
92.057686 0.795543 
92.061073 0.145715 
92.983177 0.915037 
93.033875 0.067617 
93.054649 0.926091 
93.070442 19.921524 
93.717384 0.063332 
94.073639 0.799163 
95.04969 4.675372 
95.086029 37.895725 
96.044968 0.496391 
96.081268 0.369233 
96.089294 2.960844 
97.011055 0.15463 
97.028786 0.670679 
97.03997 0.080326 
97.065323 10.715612 
97.101692 10.958102 
98.024071 0.15243 
98.060509 0.923877 
98.068497 0.228963 
98.096825 1.756384 
98.104874 0.326244 
99.044556 6.06765 
99.055717 0.110298 
99.08094 7.92073 
99.116966 0.073961 
99.895813 0.066634 
100.039673 1.039985 
100.076187 4.519743 
100.112434 2.963693 
101.00354 2.355137 
101.023918 0.077504 
101.060104 4.004855 
102.055344 0.769463 
102.091728 0.637485 
103.039246 0.762509 
104.070984 0.72326 
104.08284 0.061997 
105.033836 2.523905 
105.066574 0.308768 
105.070297 13.068961 
105.074219 0.090671 
106.065681 0.138724 
106.07341 0.594035 
106.086281 0.252545 
106.998497 0.079721 
107.049522 4.179441 
107.070473 1.790594 
107.085922 26.947712 
107.176102 0.061237 
108.081108 0.420509 
108.089081 2.205553 
108.237267 0.07386 
109.028801 0.17266 
109.065132 5.780866 
109.101562 26.471146 
109.343773 0.05732 
110.060394 4.875732 
110.068069 0.07268 
110.096619 0.647489 
110.104752 2.116474 
110.939278 0.587993 
111.044266 2.927857 
111.080788 7.764942 
111.117058 1.61288 
112.039665 0.6786 
112.075935 1.185081 
112.083641 0.073242 
112.087456 0.262944 
112.112289 1.446088 
112.861084 0.063714 
113.059982 3.164346 
113.096367 2.999919 
113.63884 0.076876 
114.055191 1.518977 
114.091705 0.582028 
114.128471 0.091351 
115.039185 0.855035 
115.050346 0.161211 
115.075615 1.355621 
115.086861 0.943947 
116.053009 2.219255 
116.070793 2.023627 
116.107246 4.491406 
117.070145 3.660018 
118.057991 0.066851 
118.086609 3.519107 
118.96743 0.746126 
119.049316 1.006794 
119.085815 12.182425 
119.090118 0.726753 
119.975449 0.088685 
120.044464 0.161968 
120.081032 6.366909 
120.08886 0.653954 
121.028572 4.058695 
121.039772 0.085797 
121.065041 6.069193 
121.084663 0.070041 
121.101418 22.646488 
122.031693 0.095794 
122.060158 2.41132 
122.067528 0.078936 
122.081413 5.997138 
122.096489 0.589772 
122.104637 1.799209 
122.939384 0.986341 
122.993256 0.075353 
123.044197 1.552801 
123.067665 0.085501 
123.080597 6.655016 
123.084976 0.994596 
123.091751 0.403345 
123.117088 12.014472 
123.947166 0.395785 
124.039391 2.263898 
124.075798 0.80754 
124.084442 0.103547 
124.112206 0.356052 
124.120178 0.726421 
124.969551 0.069495 
125.023186 0.079307 
125.059944 4.138808 
125.096321 15.436396 
126.055099 2.952605 
126.091454 2.879062 
126.099495 0.771843 
127.03904 0.308099 
127.075417 2.33184 
127.111893 4.828413 
128.070633 1.293559 
128.10704 2.148473 
128.25563 0.088198 
129.025284 0.069366 
129.054642 2.91542 
129.069885 1.542907 
129.090973 0.334252 
130.049973 4.07123 
130.064774 0.086178 
130.086334 3.307615 
130.091034 0.06834 
130.122559 0.205869 
130.158875 0.08698 
131.049026 0.249845 
131.070038 0.218527 
131.085541 6.402015 
132.080872 0.151857 
132.08844 0.161157 
132.102005 0.911353 
133.064835 2.504092 
133.086029 6.91513 
133.101242 12.430863 
134.060043 0.505121 
134.068375 0.072741 
134.089447 0.149491 
134.096344 0.357116 
134.104477 0.992606 
134.978897 1.194301 
135.043991 0.704117 
135.080505 8.213754 
135.116913 54.701927 
136.038834 0.083 
136.075623 2.901364 
136.08371 0.277221 
136.11203 0.942039 
136.120193 5.680097 
137.022964 0.090174 
137.041611 0.092875 
137.059692 2.695476 
137.096207 6.124074 
137.132538 6.151252 
138.054794 1.549428 
138.091248 0.699514 
138.099869 0.093849 
138.127411 0.447041 
138.135666 0.397312 
138.988113 0.782524 
139.039001 0.322147 
139.075348 3.077562 
139.111771 5.182277 
140.032196 0.329058 
140.070648 4.010263 
140.106796 0.388669 
140.114868 0.153254 
140.657013 0.064232 
140.959305 3.044729 
141.054474 1.077988 
141.06546 0.157091 
141.090851 2.00615 
141.127258 0.755599 
141.303879 0.056131 
142.04985 0.71416 
142.086075 0.283731 
142.122513 1.284021 
142.12851 0.061727 
142.158875 1.364246 
142.836945 0.071601 
142.938538 0.264693 
143.07019 0.447423 
143.085632 3.018308 
143.106705 1.409077 
144.028976 0.114337 
144.065521 0.241283 
144.101624 0.272134 
145.064743 0.547071 
145.101212 11.3376 
145.974457 0.826383 
146.059891 1.245175 
146.096649 0.198563 
146.104202 0.677137 
146.117355 0.308007 
146.972763 1.173244 
147.044067 3.070043 
147.064789 0.180291 
147.08046 4.003574 
147.116882 19.365145 
147.970078 4.37399 
148.075623 1.240844 
148.111862 2.670189 
148.119766 1.067301 
148.209839 0.060868 
149.011963 0.07277 
149.059814 18.508669 
149.096161 6.996008 
149.114853 0.081775 
149.132568 10.019902 
149.835312 0.083581 
150.055115 0.748942 
150.062958 1.510064 
150.091385 0.828245 
150.099121 0.307808 
150.127747 0.253629 
150.135544 0.855577 
151.03952 0.084098 
151.057098 0.098379 
151.075317 3.016945 
151.096497 13.133903 
151.111633 5.400436 
151.147919 1.007831 
152.032349 0.07557 
152.07045 1.174531 
152.100082 0.408449 
152.106827 0.63518 
152.114212 0.067613 
152.1427 0.074845 
152.951508 0.396749 
152.989334 3.557893 
153.054596 0.694567 
153.065781 0.097667 
153.09108 4.767103 
153.101227 0.074166 
153.127411 10.033506 
153.950027 0.06887 
154.049759 1.713636 
154.085968 1.814683 
154.096542 0.074961 
154.122742 0.687651 
154.130371 0.855668 
154.158142 0.096432 
154.94693 3.760885 
155.070053 0.310493 
155.085541 0.287729 
155.106567 3.416402 
155.257812 0.067269 
156.065475 0.381819 
156.101929 0.521948 
156.138229 2.302804 
156.943878 0.097089 
157.08577 0.209794 
157.101257 3.64578 
157.122238 0.062495 
158.011078 0.852701 
158.044556 0.168738 
158.081192 0.34882 
158.096329 0.516378 
158.103912 0.078462 
158.117538 0.198785 
159.021881 0.251361 
159.080551 3.907849 
159.100861 0.114341 
159.116837 4.75221 
160.075516 0.663626 
160.112228 0.273795 
160.120255 0.233761 
160.989929 0.753775 
161.059555 1.211129 
161.0961 6.132326 
161.132355 3.15542 
162.021866 0.473317 
162.055008 0.238123 
162.091324 0.797163 
162.098724 0.086402 
162.127686 2.339863 
162.135193 0.094626 
162.951614 0.078926 
163.056961 0.076543 
163.075226 2.397796 
163.111801 5.713541 
163.148087 1.363987 
163.985107 0.198657 
164.070374 0.711661 
164.107162 1.31716 
164.114792 0.277259 
164.143326 0.644552 
164.920578 5.286165 
164.983429 0.069591 
165.054611 3.152471 
165.091034 3.14649 
165.127441 6.223369 
165.163361 0.067483 
165.980515 2.264159 
166.049805 0.412963 
166.057831 0.080987 
166.086258 0.94212 
166.122559 1.406919 
166.130478 0.269804 
167.004852 0.970583 
167.070023 0.726906 
167.08139 1.03654 
167.106674 5.38279 
167.117935 0.908184 
167.143051 1.980198 
167.888168 0.071494 
168.065475 1.070164 
168.073914 0.073428 
168.101791 0.865454 
168.109451 0.090891 
168.138199 0.904069 
168.146622 0.074363 
169.085678 0.650533 
169.101059 0.869249 
169.122192 0.76736 
170.044403 0.152919 
170.080902 0.081587 
170.117615 0.674672 
170.153702 0.189236 
170.960739 0.57319 
170.976135 0.074497 
170.999496 0.276852 
171.062927 0.539276 
171.080566 0.5832 
171.101456 0.40097 
171.116745 2.901316 
171.959869 0.252059 
172.026703 0.950829 
172.075912 0.100424 
172.096863 0.157238 
172.13324 0.237796 
172.957443 1.551607 
173.059738 0.316229 
173.078659 0.342285 
173.0961 4.72825 
173.117249 3.254745 
173.13237 2.884951 
174.006012 1.241286 
174.054733 0.176791 
174.091354 0.418029 
174.100037 0.108181 
174.127823 0.083417 
174.135422 0.072834 
174.148911 0.183716 
174.991333 0.057467 
175.038971 3.514916 
175.075409 1.214336 
175.096359 0.542758 
175.111832 6.188699 
175.148117 1.95956 
176.021484 1.353998 
176.07048 0.423642 
176.106934 0.469461 
176.115051 0.31013 
176.143234 0.592872 
176.204422 0.065667 
176.975235 1.664181 
177.054306 0.346258 
177.090836 2.502566 
177.101486 0.067871 
177.127457 4.066153 
177.163986 0.215727 
177.96283 1.797614 
177.97226 0.068735 
178.049911 0.261158 
178.086212 0.748178 
178.122696 0.778369 
178.130905 0.241019 
178.970795 16.019058 
179.070419 0.775997 
179.106705 3.111352 
179.115692 0.065957 
179.14296 0.653197 
179.96962 0.067587 
179.978699 0.234316 
180.065811 0.069798 
180.101593 0.637619 
180.138245 0.722024 
180.425369 0.067928 
180.894348 0.365046 
180.967987 1.872005 
181.085648 0.420944 
181.100784 0.176983 
181.122162 1.62636 
181.133026 0.140164 
182.081161 0.827639 
182.117538 0.882146 
182.154099 0.287067 
183.101837 0.503505 
183.116699 0.949777 
183.137939 0.189308 
184.060516 0.172428 
184.075424 0.062083 
184.096832 0.077161 
184.133087 0.631854 
185.096008 0.879783 
185.11763 0.447202 
185.132294 2.045375 
186.091751 0.096107 
186.927734 0.072684 
187.075119 0.980493 
187.111511 2.216147 
187.147888 1.728383 
188.021362 0.575336 
188.070236 0.192085 
188.106735 0.563136 
188.143219 0.665262 
189.054596 0.305723 
189.090973 2.722678 
189.112061 1.185146 
189.127274 2.259514 
189.163574 0.3911 
190.049911 1.155488 
190.062332 1.415074 
190.085999 0.671289 
190.122467 1.92291 
190.158844 0.50329 
191.000443 0.466157 
191.07019 0.578022 
191.080612 0.081065 
191.10672 3.933736 
191.115265 0.131686 
191.142792 1.05993 
191.179337 3.270043 
192.054825 1.64764 
192.065308 8.630982 
192.101776 1.045582 
192.137894 1.037495 
192.18306 0.25863 
192.961533 0.666863 
193.04895 0.085911 
193.068344 0.189193 
193.08548 0.73114 
193.102097 0.075515 
193.122421 3.651166 
193.131775 0.104778 
193.15863 0.258934 
194.044174 0.186961 
194.080856 0.609128 
194.117233 0.967009 
194.15451 0.069374 
195.101074 1.563124 
195.115051 0.078132 
195.13797 1.478682 
195.97345 1.636436 
196.060669 0.128404 
196.097107 0.089788 
196.13298 0.715421 
196.991623 0.574597 
197.081268 0.082945 
197.095932 0.433793 
197.116852 0.225546 
197.132477 0.7216 
197.988998 0.312843 
198.054886 0.173237 
199.026779 0.194003 
199.075348 0.734688 
199.111557 1.618544 
199.132767 0.091703 
199.148148 1.32515 
200.070465 0.401971 
200.106873 0.155525 
201.054428 1.047546 
201.090912 0.776787 
201.127182 2.416277 
201.163681 0.647663 
202.049026 0.09873 
202.08606 0.559974 
202.122177 0.308965 
202.180298 0.260135 
203.07045 5.972421 
203.106628 1.379694 
203.12764 0.424404 
203.14299 1.293502 
204.065231 0.56528 
204.101501 1.023482 
204.13829 1.380918 
204.174561 0.471672 
204.962143 1.182135 
205.017426 0.073994 
205.048721 0.097444 
205.08606 0.185848 
205.096146 0.072097 
205.122009 1.774183 
205.158463 0.284742 
206.043564 0.064256 
206.080963 0.495304 
206.117218 1.457985 
206.1539 3.054285 
206.190323 6.058021 
207.101379 2.331339 
207.112 0.116582 
207.137817 1.13397 
207.97374 0.097976 
207.985352 0.400489 
208.060333 0.300534 
208.096054 0.175085 
208.133133 4.479842 
208.965057 0.329734 
209.080475 0.610644 
209.096588 0.061614 
209.11734 8.264115 
209.128326 0.215044 
209.153488 0.161379 
209.189758 2.111123 
210.064438 0.135825 
210.148819 1.006189 
210.960709 6.675169 
210.971466 1.039821 
211.111176 0.409657 
211.132919 0.38105 
211.14772 0.257706 
212.055283 0.890239 
212.164124 0.156841 
212.935654 0.061137 
212.957199 0.280805 
212.992462 1.042192 
213.090179 0.414983 
213.112274 0.323032 
213.127274 0.761091 
213.149063 0.152125 
213.163956 0.73542 
214.085403 0.08474 
214.274811 1.922713 
214.291122 0.899872 
214.296478 0.604307 
214.478149 0.072209 
215.070099 1.347076 
215.088959 1.42403 
215.106522 1.096608 
215.142838 0.799046 
215.178909 0.178291 
216.065414 3.196486 
216.1017 1.228242 
216.137939 0.289478 
216.195358 0.194446 
217.014389 0.0965 
217.036804 0.069643 
217.049316 0.094081 
217.069809 0.153751 
217.085602 0.683428 
217.105316 0.920294 
217.12236 1.562217 
217.133011 0.078732 
217.143219 2.869484 
217.158112 0.382414 
218.044434 0.093182 
218.081482 0.768641 
218.117126 1.345849 
218.154327 0.205815 
219.065247 0.174327 
219.101425 0.516282 
219.137802 1.403964 
219.148849 0.52652 
219.174347 4.538079 
220.06012 0.819753 
220.096771 0.982244 
220.132675 1.350971 
220.168732 0.356945 
221.080093 0.086856 
221.116882 0.784846 
221.128525 0.186056 
221.153366 0.885675 
222.039627 0.179589 
222.112213 0.523872 
222.148361 1.79625 
223.111343 0.153618 
223.132645 0.733474 
223.146759 0.159549 
223.988007 0.512089 
224.127777 0.150047 
224.164001 0.304584 
224.986481 1.783435 
225.090363 0.077177 
225.111694 0.081894 
225.12648 0.078728 
225.148315 0.165669 
225.162949 0.207715 
225.983566 8.22027 
226.045471 0.076428 
226.98291 0.246539 
227.070251 1.364005 
227.106262 0.732598 
227.142548 0.624812 
227.164124 2.423484 
227.179123 0.271769 
227.200439 9.521025 
227.212524 0.082027 
227.981033 0.547046 
228.101379 0.105162 
228.203751 1.033777 
229.068253 0.907127 
229.084915 0.164947 
229.122177 0.799922 
229.15834 0.550385 
230.06575 0.124899 
230.080505 0.076888 
230.117096 1.130295 
230.139008 0.079564 
230.153931 0.177694 
231.064545 0.409791 
231.084381 0.573037 
231.101212 0.273909 
231.137405 0.803427 
231.174408 0.378901 
232.060043 0.313158 
232.096527 1.65234 
232.133057 0.922621 
232.16922 0.402164 
233.080582 1.113716 
233.115952 1.024752 
233.153397 0.573116 
234.075623 0.847084 
234.111847 0.540206 
234.148514 1.813688 
234.899292 1.209479 
235.096191 0.691186 
235.13205 0.678789 
235.168137 0.26169 
235.876572 0.089673 
236.055344 2.400268 
236.128067 0.089342 
236.164444 0.432095 
236.938446 0.177162 
237.996048 0.133771 
238.121231 0.073333 
238.143448 0.083934 
238.93457 0.109885 
239.10527 0.111574 
239.142715 0.089032 
240.101318 0.864896 
240.268448 0.071312 
240.964478 0.112644 
241.086288 0.097938 
241.120865 0.080681 
241.158188 0.386168 
241.194244 0.196834 
241.999313 0.177023 
242.081314 0.285833 
242.11673 0.263426 
242.996796 0.138809 
243.06488 1.045672 
243.088425 0.182133 
243.101089 0.715122 
243.137436 0.504697 
243.158676 0.206336 
243.174026 0.327836 
243.994385 5.877997 
244.096268 3.509856 
244.132523 1.505923 
244.169113 0.085022 
244.993942 0.080858 
245.0466 0.252991 
245.068771 0.195742 
245.080673 4.022981 
245.093033 0.372574 
245.115646 0.27194 
245.13913 0.108806 
245.153076 0.579388 
245.189484 0.183431 
245.975235 0.071548 
245.990982 0.613184 
246.075531 0.496352 
246.112198 0.451773 
246.148422 2.036546 
246.184662 0.190457 
247.095154 0.091358 
247.132156 0.100063 
247.16864 0.29886 
248.091507 0.293331 
248.12738 0.693099 
248.163986 0.785985 
249.112045 0.08779 
249.147507 0.283018 
249.184204 0.440585 
249.196243 0.069492 
250.071106 0.59736 
250.106964 0.546636 
250.142639 0.207949 
250.178894 0.217493 
250.893219 0.093151 
251.178375 0.117661 
252.057343 0.217274 
253.085205 0.067352 
253.107101 0.428865 
253.132751 0.076986 
253.160294 0.074039 
254.116196 0.16801 
254.928024 0.15053 
254.94928 0.265958 
255.101288 0.384004 
255.125168 3.721642 
255.138275 0.187655 
255.173767 0.162098 
255.231918 6.377971 
256.016083 1.105094 
256.095917 0.096741 
256.131165 0.284817 
256.235107 8.128096 
256.903839 0.087022 
257.080353 1.873975 
257.117065 2.819519 
257.161896 1.559959 
257.174774 3.887027 
257.188751 0.225385 
257.238068 0.614678 
258.009491 0.085835 
258.11145 0.692209 
258.147919 0.783375 
258.899017 2.131217 
258.928833 0.156195 
258.947937 0.064102 
259.096191 0.191568 
259.115967 0.737184 
259.13028 0.082326 
259.168304 0.56969 
259.205627 0.085242 
260.090942 0.362688 
260.127716 0.908754 
260.163818 1.261943 
260.200806 0.2059 
261.074951 0.655519 
261.109314 0.078367 
261.13089 1.294755 
261.147064 0.446899 
261.184113 0.167787 
262.107117 1.200155 
262.143219 0.842577 
262.179871 0.665738 
263.079926 0.109878 
263.125854 0.077533 
263.162933 0.666884 
264.086609 0.342187 
264.12204 0.090913 
264.158966 0.173505 
265.061432 0.114376 
265.11554 0.176531 
265.198425 0.077174 
266.078308 1.15653 
266.888306 0.078547 
268.132599 0.081501 
268.191223 0.09767 
269.081146 0.104329 
269.152771 0.603083 
269.188568 0.086493 
270.112244 0.508256 
270.148499 0.196107 
271.095795 0.70026 
271.168488 0.328256 
272.091278 0.080933 
272.110565 0.397789 
272.127045 0.305861 
272.16391 0.451107 
272.200043 0.395318 
273.076294 0.085296 
273.094147 2.418768 
273.147675 0.095528 
273.184418 0.708864 
274.026306 0.104199 
274.143646 0.199449 
274.179596 1.647901 
274.215973 0.340666 
274.89389 1.503596 
274.914215 2.939931 
275.092987 0.109497 
275.109955 1.926689 
275.162292 0.092133 
275.200409 0.530839 
275.914886 0.098097 
276.12265 0.199586 
276.15863 0.35728 
276.195374 0.412523 
276.909729 19.263155 
277.070129 0.33051 
277.178864 0.391455 
277.216309 0.33055 
278.101776 0.467284 
278.138489 0.30171 
278.175079 0.071577 
278.210632 0.067375 
280.132904 0.079398 
280.15387 0.572873 
282.993591 0.664702 
283.144165 0.466719 
283.169434 0.099136 
283.205139 0.103961 
283.242096 0.084553 
284.127777 0.196249 
284.294708 0.078854 
285.009735 0.177578 
285.075623 0.118864 
285.111908 0.308366 
285.224823 0.070075 
286.142853 0.297662 
286.179718 3.525385 
286.200134 1.356154 
287.089935 0.274291 
287.163391 0.257709 
287.182251 0.158935 
287.201172 0.114474 
288.158539 0.351232 
288.195587 2.436503 
289.190582 1.079789 
290.10025 0.086622 
290.174316 0.368814 
290.194672 0.078422 
290.21109 3.180063 
290.247101 0.206788 
290.925293 2.399798 
291.168823 0.083784 
291.194824 0.335352 
291.213867 0.171943 
292.057709 0.632631 
292.154053 0.493331 
292.190277 1.672915 
292.227203 3.759171 
293.055359 0.958559 
293.210846 0.103728 
295.319397 0.107096 
296.091583 1.967597 
297.096344 0.256623 
297.148407 0.43467 
298.009247 0.081844 
298.109863 6.393564 
298.143829 0.948782 
298.180115 0.083028 
298.914032 0.109481 
299.041626 0.088606 
299.091888 5.800692 
299.114014 4.897255 
299.199921 0.117016 
300.09494 0.35702 
300.124573 0.169491 
300.144836 0.178825 
300.1604 0.320212 
300.195068 0.424397 
300.909668 2.726113 
300.929199 0.085874 
300.967865 5.331576 
301.076355 0.192135 
301.108398 0.452793 
301.125427 0.192228 
301.199738 0.080547 
301.967957 0.399345 
302.157227 1.138221 
302.187256 0.079117 
302.211121 0.485107 
302.92926 0.240807 
302.946564 0.230795 
302.964539 0.118942 
303.140869 0.237616 
304.190491 0.7439 
304.227295 0.24733 
305.155823 0.601244 
306.07489 1.388052 
306.131439 0.073515 
306.206085 1.389243 
308.172699 0.951509 
312.122528 0.684101 
312.194885 0.221724 
313.216797 0.083665 
313.329712 0.304109 
314.064453 0.08612 
314.139313 0.073741 
314.175049 3.108746 
314.211273 0.975915 
314.909363 0.131883 
315.17691 0.221455 
315.194794 0.086312 
316.019531 0.307452 
316.080811 1.858481 
316.119843 8.226882 
316.153259 0.730038 
316.190613 0.81376 
316.22699 1.02306 
316.246613 0.410561 
316.904022 2.698034 
316.924652 0.862065 
317.102692 0.446671 
317.122833 1.09806 
318.120789 4.559795 
318.169739 0.105717 
318.205688 0.820715 
318.241852 0.563173 
318.920349 8.009415 
319.118408 2.112218 
319.136749 2.397628 
319.19043 0.167517 
319.835907 0.249018 
320.091309 0.724837 
326.138611 0.366547 
326.341187 1.599405 
327.345062 25.005482 
328.190155 0.309364 
328.226349 1.542685 
328.348297 4.422161 
329.101257 1.422818 
329.149567 0.155676 
330.136292 0.209527 
330.169617 0.294414 
330.206146 0.552166 
330.242645 1.848921 
331.171478 2.083308 
331.274536 0.167704 
331.29892 0.105992 
332.184174 0.317124 
332.221588 1.816649 
332.258942 0.079929 
333.202484 0.64073 
333.252899 0.077726 
333.289398 1.441863 
334.107635 0.398097 
334.162598 0.077848 
334.203339 0.092685 
334.237 0.557116 
334.915314 0.096381 
335.268951 1.513874 
336.252045 0.16035 
336.83847 1.268295 
336.93042 1.129118 
337.845856 0.104483 
340.19101 0.911658 
340.227112 0.690576 
341.101685 0.885339 
341.209503 0.203865 
342.106262 0.080907 
342.16922 0.813785 
342.206268 3.884391 
342.24231 1.888265 
343.167542 0.079307 
343.206818 0.179422 
344.07489 0.525902 
344.110687 0.077696 
344.14743 0.143873 
344.167816 0.340452 
344.185974 0.079308 
344.22168 1.40324 
344.976135 1.132188 
345.102478 0.603241 
345.16037 0.371509 
345.179443 2.209367 
345.2034 0.533138 
345.975433 0.086899 
346.106934 0.168069 
346.164032 1.656971 
346.201569 1.177955 
346.237305 5.040917 
346.952911 0.093157 
347.102295 0.36093 
347.165649 10.026604 
347.219086 0.126531 
347.239288 0.538112 
348.086456 1.21726 
350.947052 0.644887 
353.841858 1.844888 
354.847046 0.101262 
357.355011 2.678528 
358.126099 0.203705 
358.163849 0.488873 
358.201904 5.19127 
358.237671 7.027369 
358.275635 0.225906 
358.30957 1.254584 
358.843109 0.124095 
359.112305 1.556325 
359.157806 0.085623 
359.219604 8.775971 
359.240417 1.541699 
359.267151 0.363048 
359.306854 0.505076 
360.086243 0.256322 
360.121368 1.691589 
360.156982 0.714878 
360.17984 2.131218 
360.21698 9.411519 
360.252106 5.07054 
360.29187 0.079776 
360.838715 1.766983 
361.093201 0.626124 
361.123169 0.087727 
361.146423 0.493707 
361.172852 0.211232 
361.217865 0.306869 
361.25589 0.091497 
361.972076 0.277436 
362.025696 1.678267 
362.100525 0.280104 
362.948303 0.385463 
363.022095 0.189615 
363.109833 2.902515 
364.106506 0.589685 
369.836853 0.118392 
375.193726 1.624959 
375.214111 3.020688 
375.234924 6.49925 
375.264435 7.175853 
375.306793 3.449685 
375.337616 4.369214 
375.36499 29.987165 
376.085266 0.073578 
376.090088 0.079106 
376.116119 3.124768 
376.171539 1.283 
376.213593 11.226178 
376.247498 92.862434 
376.285858 4.288741 
376.31839 17.698643 
376.367859 5.714831 
376.394196 0.324257 
377.119232 1.665552 
377.14151 15.756244 
377.177948 100.0 
377.229401 89.469948 
377.24884 14.791482 
377.279846 22.464817 
377.318756 5.52368 
377.358307 0.121832 
378.095123 0.141515 
378.130035 12.959157 
378.185455 15.449052 
378.229614 37.275543 
378.262817 62.465031 
378.337921 0.072664 
378.371429 0.266264 
378.40918 0.313366 
378.848785 0.426147 
379.13092 15.508094 
379.16745 1.475513 
379.191925 46.445175 
379.263763 11.035723 
379.296783 0.133328 
380.960602 0.353989 
387.846375 0.109284 
389.069702 0.103147 
394.29837 0.129863 
END IONS

