BEGIN IONS
PEPMASS=1898.53
CHARGE=1+
COMPOUNDNAME=Teichomycin
LIBRARYQUALITY=3
SMILES=N/A
INCHIKEY=BJNLLBUOHPVGFT-QRZIFLFXSA-N
INCHI=InChI=1S/C88H97Cl2N9O33/c1-3-4-5-6-7-8-9-10-60(108)94-68-74(113)71(110)58(32-101)129-87(68)132-78-55-26-40-27-56(78)126-52-18-14-38(24-47(52)90)77(131-86-67(92-34(2)103)73(112)70(109)57(31-100)128-86)69-84(121)98-66(85(122)123)45-29-42(105)30-54(127-88-76(115)75(114)72(111)59(33-102)130-88)61(45)44-23-37(13-15-49(44)106)63(81(118)99-69)96-83(120)65(40)97-82(119)64-39-21-41(104)28-43(22-39)124-53-25-36(12-16-50(53)107)62(91)80(117)93-48(79(116)95-64)20-35-11-17-51(125-55)46(89)19-35/h11-19,21-30,48,57-59,62-77,86-88,100-102,104-107,109-115H,3-10,20,31-33,91H2,1-2H3,(H,92,103)(H,93,117)(H,94,108)(H,95,116)(H,96,120)(H,97,119)(H,98,121)(H,99,118)(H,122,123)/t48-,57-,58-,59-,62-,63-,64+,65-,66-,67-,68-,69+,70-,71-,72-,73-,74-,75+,76+,77-,86+,87+,88+/m1/s1
MSLEVEL=2
SOURCE_INSTRUMENT=N/A-ESI-QFT
FILENAME=library_mgf.mgf
SEQ=*..*
IONMODE=positive
ORGANISM=MONA
NAME=Teichomycin [M+Na]+
PI=MoNA
DATACOLLECTOR=MoNA:VF-NPL-QEHF027954
PUBMED=N/A
SUBMITUSER=mwang87
TAGS=
SPECTRUMID=CCMSLIB00004721535
SCANS=27954
130.357452 0.053133 
131.46991 0.052451 
132.044281 0.214073 
133.052307 0.268753 
136.292282 0.049794 
137.132523 0.050556 
138.054932 100.0 
139.058456 7.194916 
141.069824 2.965984 
141.223969 0.049258 
141.476913 0.058762 
144.06546 76.062645 
145.06897 4.895882 
146.059433 0.060256 
146.069916 0.188602 
146.376236 0.054088 
147.044052 0.180237 
148.873398 0.057625 
149.046951 0.062282 
150.055222 0.056014 
152.026215 0.060219 
153.033829 2.538724 
153.589966 0.047164 
154.82251 0.05122 
155.030945 0.581506 
157.064621 0.927605 
159.080109 0.053538 
160.042053 0.049052 
162.075424 0.052203 
163.079803 0.052387 
164.026123 0.200021 
166.004929 0.07519 
167.889816 0.051117 
168.021042 0.745965 
168.057877 0.400994 
168.065338 3.405302 
169.064667 11.685551 
170.017792 0.050586 
170.060547 0.104442 
170.067902 1.084681 
171.043671 0.056413 
172.075287 0.1721 
172.169586 1.005667 
173.059875 0.049873 
176.318527 0.051733 
178.023178 0.054146 
181.064713 0.364698 
182.005295 0.050954 
184.075806 0.077469 
185.059692 2.251681 
186.076004 0.844321 
186.185059 0.167982 
186.647446 0.054221 
187.075211 1.607079 
191.256958 0.048785 
194.06015 0.296266 
195.043839 0.066093 
196.075562 1.801309 
197.012344 0.135315 
197.059555 16.99391 
197.307312 0.055586 
198.054367 0.803622 
198.063232 1.955325 
199.062698 0.116172 
199.0755 0.188083 
199.148697 0.05106 
200.070007 0.187038 
201.054565 0.048535 
202.066101 0.050923 
202.524384 0.051402 
202.88858 0.055642 
204.087067 0.284253 
209.059616 0.060608 
210.055466 0.046546 
211.075455 0.051892 
211.572525 0.046183 
212.07048 5.910049 
213.054489 10.511475 
213.073257 0.550079 
214.058289 1.172472 
214.08609 4.611008 
215.070023 18.149475 
215.088638 0.357533 
216.073669 2.597753 
220.006165 0.602915 
220.02626 0.07069 
222.054596 0.696882 
222.185135 0.068985 
223.151581 0.055324 
224.070526 3.07665 
225.054489 4.27668 
225.077713 0.760176 
226.059921 0.135366 
226.086136 0.270715 
227.070084 2.376062 
228.569443 0.053362 
230.081238 0.702074 
231.668427 0.057687 
236.070419 0.598139 
238.049698 2.459173 
238.181427 0.119692 
239.054916 0.055638 
239.081436 1.309985 
240.065369 26.967098 
240.088593 2.085436 
241.003876 0.060204 
241.049561 3.549147 
241.069351 4.749046 
241.096405 0.895338 
242.081024 36.726254 
242.095123 0.515038 
243.051971 0.049267 
243.084473 5.960975 
244.087631 0.0567 
245.299042 0.050761 
248.164612 0.100002 
250.073135 0.063961 
250.180008 15.665822 
251.057465 0.139196 
251.183411 2.216771 
252.065201 4.751533 
253.049301 4.732222 
253.070267 0.439939 
254.034134 0.056051 
254.052719 0.216963 
254.081039 0.912043 
255.028381 0.05276 
255.076523 0.131902 
255.727402 0.046302 
256.033447 0.054749 
257.091827 9.934561 
258.076111 1.798818 
258.095245 1.178254 
262.04776 1.155029 
263.053375 0.075783 
264.063751 1.447196 
264.195709 5.730313 
265.070526 0.58903 
265.199097 0.714857 
266.078796 1.71882 
267.076538 0.472362 
268.060425 9.618577 
268.074371 0.066959 
268.141144 0.054359 
268.353973 0.053271 
269.044128 0.509233 
269.065338 1.802908 
269.091797 0.279835 
270.044586 0.070432 
270.075745 0.812297 
273.324341 0.049996 
274.047272 0.162393 
275.031525 0.344143 
277.057098 0.052656 
279.050568 0.051089 
279.074371 2.016329 
280.059448 0.883045 
281.090424 1.259729 
282.000671 0.060944 
282.075806 0.322901 
283.027313 0.05683 
283.071259 0.468423 
285.042358 0.055339 
285.08667 3.050157 
286.070831 5.457079 
286.087433 0.148401 
287.022369 0.0826 
287.074005 0.527294 
289.038727 0.065244 
290.041504 0.068488 
291.050659 0.061341 
292.058716 0.192397 
295.071381 0.465349 
296.05542 0.057845 
297.060638 0.586005 
297.08728 0.25579 
298.039673 0.276504 
299.102448 0.504298 
301.03833 0.457711 
303.097748 0.876042 
303.988678 0.070863 
307.069489 0.260154 
308.054749 0.27788 
308.075958 0.240176 
309.085419 0.059008 
310.070099 0.067459 
311.067139 0.056066 
312.053436 0.057282 
313.011871 0.060768 
313.995697 0.071833 
314.018921 0.050105 
314.034088 0.160512 
314.992859 0.125756 
316.049377 0.411022 
317.031616 0.072131 
321.085022 0.361113 
322.079834 0.258882 
323.064514 0.056957 
324.098541 0.173349 
326.032745 0.178251 
327.017273 0.0598 
328.04953 0.158666 
329.077087 3.297871 
330.08075 0.216569 
330.986786 0.05071 
334.079468 0.057334 
335.064911 0.052401 
336.026215 0.049572 
336.09552 0.644934 
337.047668 0.05944 
337.102295 0.054794 
338.110748 1.746763 
339.093811 0.276037 
342.028015 0.074899 
343.923492 0.054892 
344.043762 0.065382 
345.099121 0.065269 
348.041138 0.064871 
349.079803 0.450092 
355.060486 0.062336 
361.445251 0.056632 
363.223022 0.061621 
364.092041 0.17463 
365.074768 0.258649 
366.10614 1.877123 
367.088074 0.063571 
374.056183 0.126711 
375.959137 0.056237 
376.872803 0.049388 
382.101196 0.214814 
383.054962 0.419325 
388.064392 0.056242 
400.052979 0.062631 
401.066162 0.083863 
424.978027 0.054905 
427.058136 0.055231 
430.098846 0.057045 
431.084351 0.06824 
444.721802 0.054139 
463.020782 0.057313 
464.111084 0.105396 
465.039764 0.107497 
465.147552 0.096789 
466.026062 0.06455 
475.123322 0.061742 
476.055695 0.081075 
479.039795 0.060682 
492.109558 0.057792 
493.034576 0.344615 
495.024872 0.05849 
497.085571 0.05795 
507.029297 0.061856 
521.031372 0.120075 
523.023926 0.058228 
555.087524 0.069356 
584.102478 0.054564 
602.119507 0.060208 
606.406616 0.049962 
613.113464 0.160131 
641.114868 0.057277 
644.13501 0.05889 
649.090393 0.142038 
650.492249 0.053521 
651.108582 0.126935 
652.125977 0.056842 
654.106934 0.067698 
661.094177 0.148266 
663.097473 0.177651 
665.090332 0.06004 
666.116577 0.053048 
674.085022 0.065375 
676.103943 0.063648 
677.08905 0.274144 
678.111572 1.285565 
679.093384 0.297398 
680.119019 0.591388 
682.120544 0.255138 
683.100342 0.067813 
688.095947 0.059998 
689.088379 0.449938 
690.110168 0.189747 
691.09613 0.393307 
692.108948 0.254968 
692.402649 0.070621 
693.087097 0.136275 
694.10553 0.213499 
696.112854 0.12005 
701.071594 0.05958 
704.097107 0.638902 
705.106689 0.12568 
706.105835 2.054089 
707.106995 0.496022 
708.109192 1.425306 
709.108337 0.165089 
710.112793 0.096414 
716.094116 0.264339 
717.081116 0.120315 
718.099976 0.179372 
719.091614 0.055312 
720.091675 0.089089 
721.123779 0.295015 
722.119751 0.108074 
723.129944 0.381046 
724.121765 0.130497 
726.135376 0.063822 
732.093323 0.39151 
733.087891 0.181707 
734.104919 0.821882 
735.113953 0.210206 
736.104919 0.313551 
737.125366 0.05574 
743.096985 0.06916 
744.088135 0.260381 
745.075195 0.214419 
746.076111 0.075236 
747.072327 0.102816 
749.114746 0.243088 
750.107666 0.276204 
751.119141 0.244036 
752.11322 0.058102 
759.09314 0.055492 
760.08374 5.922194 
761.089355 1.840367 
762.085999 2.274425 
763.091919 0.405354 
764.084351 0.126815 
770.6698 0.054921 
771.096619 0.14328 
772.093933 0.109325 
773.113831 0.763268 
774.103394 0.204161 
775.111206 0.220166 
777.111938 5.3042 
778.113647 1.907952 
779.110474 2.231284 
780.113586 0.380084 
781.107056 0.17459 
788.07782 1.057833 
789.107117 0.661486 
790.0755 0.430562 
791.105042 0.089742 
792.098511 0.107532 
799.090271 0.061996 
801.107422 0.13262 
804.074829 0.067472 
805.104614 1.818243 
806.100464 0.287397 
807.109619 0.356835 
808.104431 0.110317 
809.960693 0.048686 
817.1073 0.079266 
818.117065 0.088863 
819.124146 0.177218 
821.116028 0.067503 
833.100464 1.078368 
834.106323 0.247156 
835.104675 0.275169 
837.105835 0.059618 
850.124756 0.181289 
851.116028 0.063968 
852.125061 0.138225 
886.769531 0.061015 
901.125916 0.060012 
902.150269 0.062592 
904.133118 0.056119 
909.145935 0.059345 
911.183228 0.058957 
914.145752 0.084676 
924.129456 0.064836 
928.126465 0.062819 
929.148071 0.209557 
931.157104 0.059181 
946.169983 0.069515 
958.140503 0.072951 
961.13562 0.062056 
968.122986 0.061697 
1001.139954 0.059082 
1002.920776 0.057969 
1007.175659 0.066872 
1010.593018 0.065855 
1041.172729 0.059999 
1042.159302 0.064345 
1052.153076 0.065174 
1068.174561 0.06916 
1070.170654 0.085855 
1087.181885 0.095438 
1088.194458 0.087401 
1114.172729 0.149962 
1116.181763 0.088289 
1132.193115 0.072625 
1133.190186 0.069983 
1159.183105 0.421258 
1160.17395 0.060231 
1176.205566 0.064639 
1222.654785 0.06089 
1249.296265 0.060587 
1257.492554 0.056284 
1263.454346 0.061929 
1315.356812 0.065017 
1420.125 0.069809 
1443.046021 0.061606 
1544.627808 0.065467 
1621.490601 0.063084 
1677.707153 0.076263 
1795.15332 0.060118 
1833.065308 0.056588 
END IONS

