BEGIN IONS
PEPMASS=141.0
CHARGE=1+
COMPOUNDNAME=Massbank:KO003844 Phosphonoacetate|Phosphonoacetic acid
LIBRARYQUALITY=3
SMILES=OC(=O)CP(O)(O)=O
INCHIKEY=XUYJLQHKOGNDPB-UHFFFAOYSA-N
INCHI=1S/C2H5O5P/c3-2(4)1-8(5,6)7/h1H2,(H,3,4)(H2,5,6,7)
MSLEVEL=2
SOURCE_INSTRUMENT=ESI-LC-ESI-QQ
FILENAME=Massbank_ESI_positive_8_1_2014_peaks.mgf
SEQ=*..*
IONMODE=Positive
ORGANISM=MASSBANK
NAME=Massbank:KO003844 Phosphonoacetate|Phosphonoacetic acid [M+H]+
PI=Putative Massbank Match
DATACOLLECTOR=Massbank
PUBMED=N/A
SUBMITUSER=mwang87
TAGS=
SPECTRUMID=CCMSLIB00000220211
SCANS=9641
51.4 19802.0 
54.9 64356.5 
59.8 69307.0 
71.0 69307.0 
78.3 54455.5 
80.1 574258.0 
81.0 148515.0 
82.9 24752.5 
85.4 49505.0 
94.8 34653.5 
95.9 89109.0 
106.2 178218.0 
107.1 34653.5 
109.4 14851.5 
112.1 168317.0 
123.2 11188130.0 
124.0 2821785.0 
141.1 247525.0 
END IONS

