BEGIN IONS
PEPMASS=176.103
CHARGE=1+
COMPOUNDNAME=L-citrulline
LIBRARYQUALITY=3
SMILES=N/A
INCHIKEY=RHGKLRLOHDJJDR-BYPYZUCNSA-N
INCHI=InChI=1S/C6H13N3O3/c7-4(5(10)11)2-1-3-9-6(8)12/h4H,1-3,7H2,(H,10,11)(H3,8,9,12)/t4-/m0/s1
MSLEVEL=2
SOURCE_INSTRUMENT=N/A-ESI-QFT
FILENAME=library_mgf.mgf
SEQ=*..*
IONMODE=positive
ORGANISM=MONA
NAME=L-citrulline [M+H]+
PI=MoNA
DATACOLLECTOR=MoNA:VF-NPL-QEHF000506
PUBMED=N/A
SUBMITUSER=mwang87
TAGS=
SPECTRUMID=CCMSLIB00004691569
SCANS=506
50.701763 0.006955 
50.976704 0.006758 
51.147995 0.021982 
51.397255 0.006883 
51.595245 0.004994 
51.706615 0.006376 
51.783314 0.030329 
52.668945 0.00499 
52.963062 0.016571 
53.903145 0.00516 
54.365883 0.012946 
54.797569 0.020665 
54.92717 0.007144 
55.506603 0.00817 
56.119549 0.006918 
56.944588 0.005096 
57.565601 0.013481 
58.21236 0.021473 
58.620831 0.016022 
58.713718 0.007976 
60.391293 0.00582 
60.933136 0.01412 
61.261288 0.007738 
62.461349 0.007192 
62.7188 0.006823 
63.674534 0.024162 
63.706051 0.013534 
64.513626 0.019565 
64.930679 0.005079 
65.004654 0.007666 
65.974731 0.014989 
66.717979 0.011052 
68.050186 0.032876 
69.190147 0.006156 
69.337723 0.006981 
69.589836 0.022828 
69.9048 0.008921 
70.065819 41.858723 
70.071556 0.006615 
70.443588 0.007627 
70.463509 0.021639 
71.049805 0.007586 
71.062843 0.102027 
71.069183 1.926969 
72.785103 0.016447 
72.874542 0.014335 
74.40435 0.025157 
74.525505 0.025424 
75.094818 0.023099 
76.243042 0.010046 
76.794624 0.026326 
78.085945 0.021089 
78.591942 0.015576 
79.328629 0.010973 
81.358208 0.005943 
81.581253 0.008014 
83.881004 0.017035 
84.045074 0.016311 
84.987488 0.020782 
86.060623 0.489275 
87.092247 0.466064 
88.076286 0.046304 
89.42955 0.006616 
89.865639 0.010565 
93.107468 0.007223 
95.555527 0.006454 
96.044914 0.06754 
96.162155 0.005617 
97.076553 1.309716 
97.142731 0.007656 
98.060722 0.073974 
98.975906 1.040499 
102.995461 0.005538 
105.336395 0.017514 
107.000351 0.323093 
107.79142 0.005534 
108.445847 0.011118 
108.493774 0.026028 
108.826805 0.010862 
109.776733 0.0148 
112.74305 0.016795 
113.071281 59.238125 
113.399567 0.024921 
113.403465 0.035535 
114.055336 10.304994 
114.068085 0.337475 
114.074577 3.11691 
115.05867 0.483887 
115.086937 17.704002 
116.005562 1.728703 
116.070915 10.515784 
116.08387 0.012982 
116.090172 0.935025 
116.50724 0.033025 
116.755424 0.024791 
116.986267 0.284826 
117.003365 0.065655 
117.074219 0.581493 
117.499397 0.011074 
119.684853 0.022459 
119.882065 0.024241 
121.112778 0.006543 
125.010658 0.055025 
129.468903 0.005874 
130.0 0.025737 
130.09761 0.748774 
131.081619 0.306659 
131.734848 0.015772 
132.957962 0.02557 
133.097198 1.055241 
134.996231 0.00781 
137.320709 0.020504 
138.141678 0.019902 
138.839005 0.005991 
139.256302 0.028932 
141.065887 2.621348 
142.050003 1.499675 
142.069199 0.064384 
142.459 0.008165 
142.89418 0.012144 
143.053741 0.007288 
145.358109 0.014479 
146.006561 0.012384 
150.968918 0.016395 
157.017624 0.006153 
157.562119 0.008479 
158.09285 0.013866 
158.525665 0.032888 
158.832336 0.007403 
159.076416 100.0 
159.628036 0.046503 
160.073364 0.527631 
160.079758 6.492165 
160.935638 0.008724 
161.080994 0.111142 
162.279114 0.022055 
162.899292 0.020363 
167.788971 0.025355 
172.758469 0.022542 
176.102982 2.128062 
176.989166 0.009673 
183.496353 0.007796 
184.81662 0.006115 
END IONS

