BEGIN IONS
PEPMASS=329.139
CHARGE=1+
COMPOUNDNAME=Gibberellin A4&A7
LIBRARYQUALITY=3
SMILES=N/A
INCHIKEY=SEEGHKWOBVVBTQ-UKJRIFTCSA-N
INCHI=InChI=1S/C19H22O5/c1-9-7-18-8-10(9)3-4-11(18)19-6-5-12(20)17(2,16(23)24-19)14(19)13(18)15(21)22/h5-6,10-14,20H,1,3-4,7-8H2,2H3,(H,21,22)/t10-,11-,12+,13-,14-,17+,18+,19-/m1/s1
MSLEVEL=2
SOURCE_INSTRUMENT=N/A-ESI-QFT
FILENAME=library_mgf.mgf
SEQ=*..*
IONMODE=negative
ORGANISM=MONA
NAME=Gibberellin A4&A7 [M-H]-
PI=MoNA
DATACOLLECTOR=MoNA:VF-NPL-QEHF006590
PUBMED=N/A
SUBMITUSER=mwang87
TAGS=
SPECTRUMID=CCMSLIB00004697653
SCANS=6590
50.233856 0.024489 
50.8853 0.024549 
50.998734 0.022451 
51.480209 0.019381 
51.556988 0.020652 
51.86203 0.021516 
52.274334 0.023963 
52.354736 0.028201 
52.769245 0.021819 
52.886562 0.0223 
53.185143 0.02304 
53.31665 0.023306 
53.389187 0.01997 
53.562157 0.017954 
53.62228 0.019871 
53.904388 0.019521 
53.968609 0.026431 
54.783951 0.021826 
54.796585 0.024269 
54.993542 0.018918 
55.017548 0.045097 
55.140526 0.023447 
55.898224 0.024198 
55.948158 0.023936 
56.145859 0.021668 
56.466911 0.023686 
57.063744 0.019692 
57.147594 0.020144 
58.964172 0.023818 
60.350975 0.022756 
60.99168 0.053097 
61.042637 0.0228 
61.050171 0.023365 
61.145935 0.020746 
62.834057 0.018746 
63.864071 0.023042 
63.944122 0.017654 
64.174438 0.024973 
64.301971 0.022545 
64.729652 0.019901 
64.793327 0.01871 
65.183975 0.018153 
65.393341 0.020419 
65.977501 0.022652 
66.141808 0.022449 
66.985161 0.024353 
67.067192 0.01858 
67.110207 0.022417 
67.947098 0.019672 
68.333092 0.02133 
68.679222 0.017838 
68.949501 0.023192 
69.910744 0.023685 
70.238243 0.018245 
71.003899 0.018472 
71.048851 2.427604 
71.434441 0.02212 
71.684624 0.017392 
71.808006 0.022208 
72.137627 0.026585 
72.253654 0.018973 
72.376198 0.019783 
72.76017 0.028105 
73.028107 4.375072 
73.047592 0.021777 
73.153969 0.021294 
73.293465 0.022302 
73.429199 0.027374 
75.014786 0.021845 
75.457573 0.019671 
76.142006 0.022602 
76.268562 0.028108 
76.714645 0.028932 
77.085388 0.020243 
77.369621 0.026062 
77.525787 0.019137 
78.152573 0.019269 
78.638176 0.018234 
79.250526 0.020896 
79.341568 0.027058 
79.793114 0.0227 
80.620995 0.022211 
81.149826 0.021804 
82.599113 0.022809 
82.815498 0.019954 
83.12751 0.024814 
83.658302 0.02103 
85.034035 0.026898 
86.696739 0.018894 
87.052925 0.024589 
88.411362 0.024199 
89.277229 0.019368 
91.530518 0.021108 
93.539902 0.01914 
95.162521 0.019106 
96.702003 0.019538 
98.107834 0.023055 
98.627609 0.027594 
99.252357 0.022489 
99.541199 0.025626 
100.041595 0.025784 
100.822052 0.019558 
103.153107 0.02301 
103.570267 0.020872 
103.651215 0.022626 
104.998901 0.021687 
105.391991 0.020579 
108.621964 0.028169 
109.397079 0.026153 
109.893227 0.022843 
110.317116 0.032132 
114.594101 0.022529 
115.320503 0.021892 
116.125931 0.018439 
117.784241 0.02465 
118.42849 0.020246 
118.465408 0.025619 
119.290535 0.022871 
122.208809 0.018039 
122.274834 0.028539 
123.161896 0.029142 
123.722649 0.022086 
123.917969 0.023907 
124.372414 0.023165 
124.65081 0.028909 
128.08371 0.023358 
128.115677 0.025214 
128.336426 0.023871 
128.891449 0.023633 
129.358047 0.02532 
129.888855 0.02033 
130.659332 0.027903 
131.993973 0.018344 
132.749863 0.026525 
134.430283 0.02189 
137.166168 0.021289 
137.901184 0.025445 
139.27536 0.020289 
141.044724 0.025302 
141.695465 0.026629 
144.222656 0.021049 
144.766281 0.023682 
148.350006 0.023448 
149.109085 0.020578 
152.408463 0.024981 
153.219391 0.025726 
153.30809 0.022937 
155.085464 8.551757 
156.088974 0.561973 
157.101379 0.03056 
158.761093 0.023348 
158.912567 0.020125 
160.167648 0.022894 
161.214188 0.022056 
162.304031 0.027022 
164.05574 0.019956 
166.113586 0.02461 
168.544754 0.026614 
169.885437 0.025797 
170.56311 0.019318 
170.713654 0.027221 
171.016769 0.020034 
172.005508 0.023673 
173.096222 0.569636 
176.314377 0.022745 
176.703339 0.022643 
179.084915 0.023294 
181.101151 0.106013 
181.954208 0.022637 
183.080719 0.080924 
183.117126 0.248199 
183.567062 0.021867 
185.132629 2.358193 
186.136337 0.0235 
186.562592 0.024213 
188.268951 0.021627 
188.962601 0.022577 
190.002029 0.027288 
191.808731 0.024029 
193.10141 1.485382 
195.995178 0.023513 
196.252655 0.02393 
196.372513 0.025875 
197.132751 0.498435 
199.14917 0.061473 
199.636459 0.01923 
199.98555 0.024044 
201.127701 0.170775 
207.117386 0.166353 
207.758987 0.024886 
211.112244 18.211433 
212.115585 2.829012 
212.66713 0.024732 
213.128326 0.080259 
214.476761 0.019976 
214.935165 0.944521 
214.946777 0.798035 
215.489014 0.020461 
215.747757 0.02141 
216.294632 0.02254 
221.133041 1.591006 
222.136505 0.052791 
223.085434 0.072445 
223.148682 100.0 
223.981522 0.021677 
224.152161 17.368778 
225.15535 0.505985 
227.071228 0.17157 
229.330811 0.022045 
230.24884 0.027096 
230.467575 0.022174 
236.008743 0.022887 
236.419952 0.022918 
237.12822 0.610043 
237.601624 0.023407 
239.143814 2.464118 
240.147141 0.15227 
241.159546 4.667057 
242.162964 0.40328 
245.894058 0.023231 
249.127533 0.095602 
255.102554 3.265382 
256.105743 0.171305 
257.154572 0.419276 
257.3909 0.033143 
260.035492 0.020346 
262.013977 0.020467 
263.521545 0.024246 
267.139191 2.461369 
268.142883 0.097553 
274.095123 0.022553 
274.585236 0.024536 
285.149872 0.658316 
286.152771 0.030782 
286.317352 0.024012 
288.829742 0.024636 
291.397095 0.028036 
298.170074 0.023401 
306.681366 0.023856 
307.975037 0.022205 
312.190063 0.022979 
316.991272 0.02252 
318.811951 0.031413 
320.379028 0.024641 
327.413849 0.025242 
328.513428 0.025532 
329.139435 0.563295 
330.140778 0.027384 
338.672333 0.021287 
346.790283 0.022966 
END IONS

