BEGIN IONS
PEPMASS=224.5
CHARGE=1+
COMPOUNDNAME=Massbank:KO004041 Sisomicin|Antibiotic 6640|Dehydrogentamicin Cla|Rickamicin
LIBRARYQUALITY=3
SMILES=NCC(=C3)O[C@@H]([C@H](N)C3)O[C@H]([C@@H](N)1)[C@H](O)[C@@H](O[C@@H](O2)[C@H](O)[C@@H](NC)[C@](C)(O)C2)[C@H](N)C1
INCHIKEY=URWAJWIAIPFPJE-GYHYWALZSA-N
INCHI=1S/C19H37N5O7/c1-19(27)7-28-18(13(26)16(19)24-2)31-15-11(23)5-10(22)14(12(15)25)30-17-9(21)4-3-8(6-20)29-17/h3,9-18,24-27H,4-7,20-23H2,1-2H3/t9-,10+,11-,12+,13-,14-,15+,16-,17-,18-,19+/m1/s1
MSLEVEL=2
SOURCE_INSTRUMENT=ESI-LC-ESI-QQ
FILENAME=Massbank_ESI_positive_8_1_2014_peaks.mgf
SEQ=*..*
IONMODE=Positive
ORGANISM=MASSBANK
NAME=Massbank:KO004041 Sisomicin|Antibiotic 6640|Dehydrogentamicin Cla|Rickamicin [M+2H]++
PI=Putative Massbank Match
DATACOLLECTOR=Massbank
PUBMED=N/A
SUBMITUSER=mwang87
TAGS=
SPECTRUMID=CCMSLIB00000220603
SCANS=9833
41.2 138614.0 
42.3 341584.5 
43.2 282178.5 
44.0 628713.5 
53.3 193069.5 
54.3 39604.0 
55.3 648515.5 
56.3 990100.0 
57.3 678218.5 
58.3 1500001.5 
59.1 89109.0 
60.1 341584.5 
65.1 1430694.5 
66.6 69307.0 
67.0 1138615.0 
68.1 2995052.5 
69.2 574258.0 
70.1 1410892.5 
71.1 1381189.5 
72.2 2693072.0 
73.2 440594.5 
73.9 138614.0 
77.0 54455.5 
78.0 39604.0 
79.0 173267.5 
80.2 4480202.5 
81.2 1163367.5 
82.2 3698023.5 
83.3 594060.0 
84.2 3044557.5 
85.1 217822.0 
86.2 1262377.5 
87.3 178218.0 
88.1 138614.0 
92.1 2262378.5 
93.1 306931.0 
94.3 292079.5 
95.2 207921.0 
96.1 247525.0 
97.0 108911.0 
98.0 415842.0 
99.0 1014852.5 
99.9 569307.5 
100.5 84158.5 
102.0 89109.0 
106.1 69307.0 
107.2 59406.0 
108.2 193069.5 
109.2 767327.5 
110.2 1594061.0 
111.3 59406.0 
112.2 386139.0 
113.2 108911.0 
114.0 49505.0 
116.5 29703.0 
117.8 24752.5 
118.1 128713.0 
119.0 54455.5 
120.3 44554.5 
126.0 19802.0 
127.1 128713.0 
131.0 54455.5 
132.1 49505.0 
133.1 44554.5 
134.1 19802.0 
135.4 39604.0 
137.9 19802.0 
144.5 34653.5 
145.3 49505.0 
147.0 39604.0 
155.4 19802.0 
173.2 227723.0 
END IONS

