BEGIN IONS
PEPMASS=260.114
CHARGE=1+
COMPOUNDNAME=Lotaustralin
LIBRARYQUALITY=3
SMILES=N/A
INCHIKEY=WEWBWVMTOYUPHH-GXUZYPEDSA-N
INCHI=InChI=1S/C11H19NO6/c1-3-11(2,5-12)18-10-9(16)8(15)7(14)6(4-13)17-10/h6-10,13-16H,3-4H2,1-2H3/t6-,7-,8+,9-,10+,11?/m1/s1
MSLEVEL=2
SOURCE_INSTRUMENT=N/A-ESI-QFT
FILENAME=library_mgf.mgf
SEQ=*..*
IONMODE=negative
ORGANISM=MONA
NAME=Lotaustralin [M-H]-
PI=MoNA
DATACOLLECTOR=MoNA:VF-NPL-QEHF007861
PUBMED=N/A
SUBMITUSER=mwang87
TAGS=
SPECTRUMID=CCMSLIB00004698924
SCANS=7861
50.503288 0.01456 
51.490765 0.015198 
53.102802 0.016782 
53.127636 0.014192 
53.225498 0.01735 
53.314877 0.017245 
53.495052 0.012294 
54.041351 0.014261 
54.290264 0.014417 
55.01749 2.609856 
55.505077 0.017089 
56.681347 0.012992 
57.033142 2.443887 
58.004593 0.523578 
58.03656 0.015166 
58.674343 0.015479 
58.880005 0.014638 
59.004372 0.031021 
59.01239 48.438595 
59.021107 0.024667 
60.015755 0.916634 
61.986927 2.680406 
63.063477 0.017311 
63.883579 0.01528 
63.961044 0.055843 
66.372452 0.012578 
66.443642 0.013513 
67.200302 0.012875 
67.774376 0.014649 
68.012764 0.555173 
68.746071 0.019571 
68.99678 0.190771 
69.033157 0.662857 
70.028427 0.255837 
71.00161 0.100884 
71.012428 100.0 
71.023918 0.105537 
72.015755 2.93774 
72.499107 0.013699 
72.727295 0.014649 
72.91153 0.015266 
72.991707 1.420069 
73.016731 0.038646 
73.028061 26.715424 
73.172226 0.014621 
73.383026 0.012969 
74.023331 0.065755 
74.031425 0.836562 
75.007332 1.760172 
75.155266 0.017148 
75.890678 0.012752 
76.06707 0.017552 
76.32399 0.014634 
78.438004 0.014078 
78.984512 0.236985 
79.000824 0.017998 
79.955956 0.858567 
79.961716 0.017884 
80.326164 0.01368 
80.606041 0.017056 
80.963768 0.913582 
81.033142 0.471307 
83.012436 7.732011 
83.44191 0.016292 
84.015816 0.146162 
84.020264 0.063667 
84.07032 0.014308 
85.028084 36.346653 
85.042778 0.024575 
85.347305 0.014754 
85.440193 0.017282 
85.99482 0.015981 
86.031464 1.415313 
86.807137 0.014444 
87.007339 2.518597 
87.043732 0.0498 
87.486832 0.016686 
87.800041 0.014484 
89.02301 17.430368 
89.45546 0.013851 
89.827187 0.016501 
90.021278 0.015923 
90.026382 0.46358 
90.256958 0.017587 
91.60424 0.013434 
91.896339 0.0151 
92.659813 0.014753 
93.005363 0.012896 
94.923645 0.052183 
94.979401 0.719129 
94.989136 1.044692 
95.012428 7.722109 
96.015823 0.22638 
96.958656 0.715386 
96.986221 0.204776 
97.028122 1.674068 
98.185654 0.016793 
99.007385 10.8376 
99.043709 0.0898 
100.010704 0.308628 
100.015083 0.018008 
100.085831 0.014014 
100.543221 0.01432 
101.023041 46.559612 
101.059471 0.076446 
101.508453 0.016007 
102.026382 1.804864 
103.439621 0.014668 
103.578056 0.017056 
107.858047 0.013544 
107.937912 0.016504 
109.29451 0.01495 
110.023361 0.091526 
111.043106 0.015084 
113.023056 48.355904 
113.128326 0.016026 
114.026405 2.434774 
115.038757 0.173454 
116.536621 0.014961 
117.63813 0.015624 
119.033638 3.839763 
119.155487 0.016164 
119.651474 0.017707 
119.94574 0.556244 
120.036888 0.02808 
121.013557 0.014194 
121.028221 0.035133 
124.889809 0.030888 
124.999817 1.095405 
125.023056 1.829718 
125.09594 0.635197 
125.152687 0.013394 
126.264305 0.016883 
126.996979 0.248492 
127.789024 0.019363 
129.018021 1.122396 
130.753754 0.018989 
131.033768 0.252307 
131.081375 0.097332 
133.632187 0.015892 
133.945297 0.017293 
134.322556 0.013967 
134.651825 0.016658 
143.033752 1.747289 
143.295197 0.015478 
144.71286 0.022994 
147.685577 0.013972 
158.259415 0.018262 
159.028687 6.440409 
159.961639 0.016135 
160.032181 0.294035 
160.0392 0.020837 
161.044357 19.099068 
162.047668 1.214251 
163.048935 0.014717 
163.989044 0.017304 
168.962021 0.210875 
172.357513 0.018021 
172.98793 0.015195 
176.899612 0.471915 
176.928482 0.02942 
177.091187 0.063163 
178.896454 0.085562 
178.949585 0.058618 
178.976776 0.02028 
179.010544 0.023279 
179.03418 0.050316 
180.033035 0.06224 
180.065491 0.157987 
180.767212 0.019219 
184.000717 1.120479 
184.504471 0.150346 
186.129959 0.015797 
187.096603 0.942919 
187.548569 0.016597 
191.008377 0.020825 
197.021301 2.434247 
198.024597 0.032167 
198.991028 0.133114 
199.018585 0.691901 
199.133575 0.016837 
200.500153 0.016408 
201.112061 0.031052 
201.338165 0.01599 
201.357971 0.017442 
202.047516 0.020194 
202.987396 0.014373 
203.931671 0.014353 
203.972504 0.024767 
205.034668 0.019633 
205.090668 0.01391 
205.905487 0.016321 
207.263229 0.013188 
214.919815 0.419992 
214.96434 0.047243 
215.954849 0.252675 
215.964722 0.114326 
216.918579 0.075971 
218.373169 0.014466 
218.466736 0.019051 
220.84491 0.098495 
221.841644 1.1121 
222.841675 0.308833 
223.692352 0.017977 
223.838501 0.801486 
228.929657 0.066577 
235.170914 0.013905 
235.624985 0.016263 
240.87001 0.014863 
242.945023 0.034842 
246.922501 0.014229 
247.034683 0.016498 
249.807297 0.016975 
252.465912 0.015128 
258.241028 1.384518 
258.53598 0.019864 
258.90979 0.052132 
259.012939 0.286482 
259.027893 0.402888 
259.153595 0.016616 
259.191467 0.024782 
259.245148 0.040112 
260.058899 0.014889 
260.095856 0.716406 
260.873413 0.261763 
260.95636 0.024679 
261.041595 0.19291 
261.066895 0.098451 
261.087677 0.30751 
261.101013 0.022204 
261.151337 0.03654 
261.222229 0.687745 
261.589233 0.091856 
261.699585 0.043019 
262.075623 0.131983 
262.095428 1.802596 
274.586365 0.015845 
276.075256 0.019574 
277.003601 0.01567 
279.856689 0.018574 
280.596771 0.014228 
284.822876 0.01846 
END IONS

