BEGIN IONS
PEPMASS=176.103
CHARGE=1+
COMPOUNDNAME=L-citrulline
LIBRARYQUALITY=3
SMILES=N/A
INCHIKEY=RHGKLRLOHDJJDR-BYPYZUCNSA-N
INCHI=InChI=1S/C6H13N3O3/c7-4(5(10)11)2-1-3-9-6(8)12/h4H,1-3,7H2,(H,10,11)(H3,8,9,12)/t4-/m0/s1
MSLEVEL=2
SOURCE_INSTRUMENT=N/A-ESI-QFT
FILENAME=library_mgf.mgf
SEQ=*..*
IONMODE=positive
ORGANISM=MONA
NAME=L-citrulline [M+H]+
PI=MoNA
DATACOLLECTOR=MoNA:VF-NPL-QEHF000505
PUBMED=N/A
SUBMITUSER=mwang87
TAGS=
SPECTRUMID=CCMSLIB00004691568
SCANS=505
50.185341 0.005352 
50.297176 0.009129 
50.970303 0.006829 
51.783447 0.036038 
52.154373 0.010614 
52.566437 0.00604 
53.5728 0.001984 
53.590466 0.002947 
54.07988 0.006523 
54.465893 0.002788 
56.012733 0.008674 
56.014076 0.021132 
57.045288 0.008177 
57.108295 0.007409 
57.35498 0.003441 
58.753155 0.002188 
59.399632 0.005969 
60.668373 0.002918 
60.670216 0.003504 
61.013062 0.005705 
62.387245 0.005247 
62.719303 0.007844 
62.983616 0.002733 
63.213001 0.00861 
63.389507 0.00788 
64.792931 0.009124 
65.678444 0.005779 
68.567726 0.005319 
69.428329 0.008012 
70.065849 12.423154 
71.062881 0.003725 
71.069168 0.493458 
71.343376 0.003331 
74.266441 0.009718 
74.268936 0.010804 
74.292458 0.006148 
74.441467 0.00942 
75.157753 0.008741 
75.436691 0.00438 
75.54303 0.007613 
75.917732 0.006593 
79.691391 0.003004 
81.371864 0.008094 
82.600769 0.008325 
83.937332 0.002806 
84.000473 0.009739 
85.461311 0.008342 
86.060646 0.0472 
86.164452 0.002845 
87.09227 0.279538 
87.712479 0.004012 
88.076286 0.008125 
89.858467 0.009167 
91.187767 0.005301 
91.545769 0.009547 
91.943443 0.003219 
93.624802 0.007369 
96.785034 0.003155 
96.924637 0.002164 
97.076485 0.559898 
97.995018 0.010996 
98.060555 0.044247 
98.079422 0.002917 
98.088776 0.005663 
98.540909 0.006716 
98.9758 0.591318 
100.89122 0.00216 
102.28447 0.003063 
102.321075 0.006978 
102.478195 0.002151 
103.465393 0.003185 
106.897652 0.002464 
107.000381 0.186434 
112.208046 0.005661 
113.071289 23.140186 
114.055275 3.851544 
114.068123 0.106284 
114.074623 1.244023 
114.078529 0.011149 
115.058647 0.171859 
115.086906 10.710894 
116.0056 0.967447 
116.009827 0.013156 
116.070915 5.216947 
116.083679 0.022011 
116.090134 0.522752 
116.986221 0.171431 
117.003426 0.059485 
117.074265 0.286406 
117.583038 0.010977 
119.767143 0.010083 
121.035217 0.013124 
122.472557 0.009084 
123.483528 0.002515 
124.814636 0.008856 
125.010727 0.116991 
125.812653 0.006598 
126.255417 0.004537 
128.972809 0.002337 
130.097656 1.003119 
130.219757 0.00445 
131.08168 0.318224 
131.101059 0.004469 
132.930801 0.003148 
132.958176 0.018868 
133.091873 0.011102 
133.097275 1.256656 
134.100784 0.01252 
134.657669 0.002978 
134.996475 0.007792 
135.328827 0.00276 
136.797012 0.00465 
137.001572 0.072585 
138.535675 0.002946 
140.188583 0.006492 
141.065948 1.415993 
142.049942 0.606109 
142.069382 0.022132 
144.49913 0.003954 
144.988068 0.004504 
146.007065 0.265586 
148.102524 0.0062 
148.508636 0.006636 
150.969269 0.004835 
152.443451 0.002546 
152.475555 0.002157 
152.958878 0.010239 
158.092453 0.216585 
158.52861 0.003043 
159.076477 100.0 
159.627136 0.004379 
160.07338 0.547353 
160.079819 6.465589 
161.080978 0.240808 
163.98085 0.008147 
171.814407 0.003187 
174.148972 0.022839 
174.272797 0.00307 
176.103027 5.845053 
176.396698 0.007467 
176.929306 0.00297 
176.989548 0.055318 
177.106659 0.377377 
178.122711 0.015598 
184.862305 0.006981 
191.000946 0.006488 
191.818314 0.006685 
195.000153 0.037941 
198.813782 0.009837 
END IONS

