BEGIN IONS
PEPMASS=273.076
CHARGE=1+
COMPOUNDNAME=Massbank:BML00656 Naringenin
LIBRARYQUALITY=3
SMILES=C1C(OC2=CC(=CC(=C2C1=O)O)O)C3=CC=C(C=C3)O
INCHIKEY=FTVWIRXFELQLPI-UHFFFAOYSA-N
INCHI=1S/C15H12O5/c16-9-3-1-8(2-4-9)13-7-12(19)15-11(18)5-10(17)6-14(15)20-13/h1-6,13,16-18H,7H2
MSLEVEL=2
SOURCE_INSTRUMENT=ESI-LC-ESI-QTOF
FILENAME=Massbank_ESI_positive_8_1_2014_peaks.mgf
SEQ=*..*
IONMODE=Positive
ORGANISM=MASSBANK
NAME=Massbank:BML00656 Naringenin [M+H]+
PI=Putative Massbank Match
DATACOLLECTOR=Massbank
PUBMED=N/A
SUBMITUSER=mwang87
TAGS=
SPECTRUMID=CCMSLIB00000204990
SCANS=250
107.0495 58.0 
119.0489 79.0 
123.0383 43.0 
123.0446 31.0 
135.9427 25.0 
147.0435 491.0 
147.0966 21.0 
153.0169 1158.0 
153.0582 39.0 
153.0763 24.0 
189.0547 23.0 
273.0744 85.0 
END IONS

