BEGIN IONS
PEPMASS=734.469
CHARGE=1+
COMPOUNDNAME=ERYTHROMYCIN
LIBRARYQUALITY=3
SMILES=N/A
INCHIKEY=ULGZDMOVFRHVEP-RWJQBGPGSA-N
INCHI=InChI=1S/C37H67NO13/c1-14-25-37(10,45)30(41)20(4)27(39)18(2)16-35(8,44)32(51-34-28(40)24(38(11)12)15-19(3)47-34)21(5)29(22(6)33(43)49-25)50-26-17-36(9,46-13)31(42)23(7)48-26/h18-26,28-32,34,40-42,44-45H,14-17H2,1-13H3/t18-,19-,20+,21+,22-,23+,24+,25-,26+,28-,29+,30-,31+,32-,34+,35-,36-,37-/m1/s1
MSLEVEL=2
SOURCE_INSTRUMENT=N/A-ESI-QFT
FILENAME=library_mgf.mgf
SEQ=*..*
IONMODE=positive
ORGANISM=MONA
NAME=ERYTHROMYCIN [M+H]+
PI=MoNA
DATACOLLECTOR=MoNA:VF-NPL-QEHF003379
PUBMED=N/A
SUBMITUSER=mwang87
TAGS=
SPECTRUMID=CCMSLIB00004694442
SCANS=3379
51.558273 0.006153 
51.612469 0.008264 
51.640881 0.008141 
51.643684 0.007307 
51.950348 0.008561 
52.684986 0.007018 
52.808994 0.007218 
53.002995 0.008216 
53.039391 0.057847 
53.552158 0.007198 
54.100666 0.008152 
54.695637 0.00616 
54.998772 0.00793 
55.018635 0.009823 
55.054996 2.499408 
55.372238 0.006883 
55.687328 0.009097 
56.050255 0.026583 
56.257938 0.005986 
56.573174 0.007411 
56.638683 0.007024 
56.713154 0.007789 
56.790493 0.006441 
57.05809 0.359704 
57.07074 0.017312 
57.523121 0.008195 
57.607594 0.006654 
58.065891 0.605641 
58.344643 0.008042 
59.049896 1.65342 
59.655685 0.006734 
60.234715 0.009946 
60.906437 0.007172 
61.029209 0.042367 
61.640865 0.006451 
62.205296 0.008062 
62.506607 0.007185 
62.652752 0.00799 
62.939796 0.006422 
67.054871 0.015105 
67.068634 0.006264 
68.050308 0.007609 
68.464928 0.006691 
69.034164 0.046145 
69.070549 0.013551 
70.065872 0.328608 
70.22583 0.008622 
71.049828 0.159845 
71.073631 0.077252 
71.086205 0.213078 
71.821411 0.009353 
72.081459 11.304045 
72.601425 0.007054 
72.624001 0.00793 
73.052917 0.117548 
73.065468 0.349338 
73.084801 0.205024 
73.189857 0.0084 
73.689621 0.006883 
75.52356 0.007609 
75.699051 0.006964 
77.768272 0.00668 
78.852226 0.008078 
79.054825 0.106663 
79.192177 0.006339 
79.352219 0.00734 
79.821793 0.008332 
80.025002 0.007787 
80.354843 0.007582 
81.070457 0.996847 
82.267311 0.007046 
82.324654 0.007427 
82.432335 0.006794 
82.842499 0.012025 
83.04528 0.022224 
83.049713 67.879791 
83.257324 0.007307 
84.053062 2.166776 
84.078835 0.00971 
84.081375 0.516694 
84.130821 0.00768 
84.64502 0.006426 
84.721954 0.006841 
85.028969 0.333718 
85.065361 0.143485 
85.478134 0.006266 
86.060623 0.009394 
86.097 0.010037 
87.044579 4.331049 
88.047997 0.042361 
88.076195 2.350521 
91.237762 0.008547 
92.150726 0.007314 
92.353676 0.008162 
94.40477 0.007972 
94.681694 0.009723 
95.049553 0.341142 
95.253624 0.007718 
96.453629 0.007683 
96.913452 0.007255 
97.065231 1.331637 
97.720596 0.008081 
98.060501 0.06488 
98.096878 16.116644 
99.080856 1.007129 
99.100197 0.563551 
99.104622 0.349614 
99.646347 0.008402 
100.07608 2.26441 
101.079369 0.009342 
101.083771 0.036413 
101.120537 0.006798 
102.222488 0.007587 
102.581314 0.008606 
103.769592 0.007614 
107.694572 0.008139 
107.815826 0.007621 
109.06514 0.533513 
109.134636 0.007852 
110.458282 0.010348 
111.104942 0.006608 
112.721169 0.008399 
112.889427 0.008019 
113.059975 7.695749 
113.161354 0.008563 
114.063324 0.247379 
114.091583 2.093031 
114.259834 0.007832 
115.075623 2.954872 
115.094894 0.028017 
116.061188 0.01229 
116.070839 24.257374 
116.107231 25.91573 
117.074135 0.763618 
117.110512 0.939464 
117.852074 0.008135 
121.016388 0.00676 
121.101326 0.118854 
121.667374 0.007293 
122.834518 0.008565 
123.080589 3.884502 
124.084007 0.071147 
125.096214 0.025484 
127.07019 0.053226 
127.075439 4.922918 
127.858772 0.007819 
128.078888 0.136631 
128.107086 0.358575 
133.427628 0.008585 
133.79425 0.006615 
134.799362 0.009128 
134.810425 0.007723 
135.731277 0.007442 
135.899384 0.008606 
137.0961 0.346686 
139.610077 0.009167 
140.106903 0.326143 
143.007294 0.007739 
143.353043 0.009598 
144.10228 0.019072 
145.311005 0.007043 
146.223831 0.0074 
149.6073 0.008454 
150.302261 0.00776 
151.194885 0.007854 
152.849976 0.008273 
153.090942 0.011467 
153.408646 0.008137 
158.105698 0.057936 
158.117477 100.0 
158.664703 0.009635 
159.115219 0.148681 
159.12085 4.99 
166.565552 0.007089 
169.236511 0.007844 
170.57338 0.007653 
171.450012 0.008715 
172.170105 0.007695 
172.961639 0.008442 
176.128098 0.457086 
177.127335 0.038558 
182.036438 0.008848 
189.310455 0.008772 
189.966705 0.008525 
190.187271 0.007689 
193.122116 0.141013 
195.203812 0.007019 
199.205032 0.009271 
204.722794 0.010643 
211.357101 0.007433 
211.877945 0.008058 
217.608627 0.008596 
222.615829 0.006822 
233.153458 1.641922 
234.156937 0.038445 
236.106964 0.007373 
238.103745 0.009277 
241.760056 0.010584 
245.189758 0.008829 
248.706573 0.006792 
248.903671 0.008004 
250.000443 0.008762 
250.770416 0.006342 
251.057098 0.008855 
251.164017 0.056101 
251.835281 0.009106 
259.467834 0.007605 
259.783508 0.009028 
260.56546 0.007883 
263.449341 0.009897 
264.367371 0.007663 
272.185211 0.167058 
272.880463 0.00905 
282.326233 0.00835 
286.201324 0.058982 
286.800262 0.007132 
288.418335 0.006677 
289.179871 0.239233 
298.282227 0.00796 
300.071442 0.008124 
300.500702 0.00925 
300.710754 0.008692 
303.118225 0.008501 
304.096985 0.012695 
307.189362 0.018467 
308.878845 0.007495 
321.373749 0.007326 
322.278687 0.008154 
324.684204 0.007638 
326.29248 0.007597 
326.595947 0.008358 
332.877625 0.008073 
333.802063 0.008255 
342.103912 0.008299 
342.227142 0.025309 
346.463287 0.008114 
347.357635 0.007588 
347.569305 0.010693 
350.469513 0.009094 
350.531128 0.00831 
352.602631 0.007776 
353.742615 0.00771 
358.160339 0.006975 
374.943909 0.008837 
392.329987 0.00858 
392.468567 0.008411 
394.229919 0.010069 
397.271057 0.008552 
401.859039 0.008537 
404.844604 0.007618 
408.273529 0.0097 
409.742828 0.006485 
410.741211 0.007514 
411.084198 0.019477 
412.309937 0.008462 
428.563721 0.008463 
446.463287 0.008134 
447.347565 0.038016 
448.531555 0.008391 
460.257629 0.007876 
461.456848 0.007769 
471.832947 0.007097 
481.958008 0.007496 
497.980743 0.007901 
506.782593 0.009114 
510.669281 0.008071 
515.966003 0.006624 
549.066895 0.008143 
558.361572 0.022476 
562.296204 0.008824 
569.735596 0.008364 
576.373413 0.355769 
577.373962 0.010646 
593.35144 0.006868 
601.406799 0.008511 
602.637329 0.008278 
604.457886 0.008485 
611.512329 0.007568 
620.733459 0.009273 
626.150208 0.008354 
673.292236 0.008463 
679.542175 0.008457 
708.413086 0.007741 
709.483521 0.007721 
709.594482 0.02119 
709.899414 0.008814 
730.667603 0.008982 
754.813782 0.00772 
760.670349 0.008658 
END IONS

