BEGIN IONS
PEPMASS=343.082
CHARGE=1+
COMPOUNDNAME=USNIC ACID
LIBRARYQUALITY=3
SMILES=N/A
INCHIKEY=CUCUKLJLRRAKFN-UHFFFAOYSA-N
INCHI=InChI=1S/C18H16O7/c1-6-14(22)12(8(3)20)16-13(15(6)23)18(4)10(25-16)5-9(21)11(7(2)19)17(18)24/h5,11,22-23H,1-4H3
MSLEVEL=2
SOURCE_INSTRUMENT=N/A-ESI-QFT
FILENAME=library_mgf.mgf
SEQ=*..*
IONMODE=negative
ORGANISM=MONA
NAME=USNIC ACID [M-H]-
PI=MoNA
DATACOLLECTOR=MoNA:VF-NPL-QEHF003233
PUBMED=N/A
SUBMITUSER=mwang87
TAGS=
SPECTRUMID=CCMSLIB00004694296
SCANS=3233
50.300797 0.051382 
51.332485 0.055093 
51.84116 0.082706 
52.001839 0.037204 
52.205334 0.073976 
52.403763 0.033355 
52.787735 0.037342 
53.015339 0.035191 
53.034451 0.032823 
54.149902 0.065985 
54.528194 0.076641 
54.643776 0.048746 
55.426517 0.074858 
55.497734 0.066509 
55.63002 0.068072 
56.89481 0.079865 
56.951363 0.047178 
57.448971 0.057459 
57.499874 0.047395 
58.569885 0.103433 
60.994701 0.09571 
61.281307 0.070471 
61.978657 0.071807 
62.00798 0.085112 
62.048836 0.088864 
64.704338 0.063555 
64.932625 0.034453 
65.48394 0.066042 
66.264473 0.065667 
68.399612 0.099439 
68.665314 0.069859 
69.151596 0.069408 
72.802795 0.035544 
75.963234 0.097427 
77.839661 0.110847 
78.830437 0.093527 
82.998039 0.122762 
83.012505 100.0 
83.025787 0.245594 
83.068115 0.062014 
84.013504 0.07711 
84.015839 3.742052 
84.468529 0.08922 
86.029045 0.08076 
86.456924 0.052195 
86.748878 0.079297 
86.801712 0.139911 
88.156364 0.059862 
90.976204 0.113462 
92.731049 0.064756 
95.048981 0.479416 
96.7967 0.105755 
97.298409 0.03314 
97.468636 0.091869 
97.687683 0.066197 
99.152802 0.068411 
100.702057 0.035619 
101.812553 0.079713 
102.580147 0.065866 
103.768616 0.076527 
109.314987 0.128737 
109.724648 0.055469 
112.689751 0.109776 
119.344513 0.088759 
123.212845 0.094508 
125.045547 0.075016 
128.327133 0.066141 
129.524902 0.090823 
131.049225 0.134053 
133.065002 0.372264 
133.511414 0.079054 
134.241852 0.05798 
137.856125 0.038445 
139.039062 0.670936 
144.730209 0.091285 
145.064377 0.075498 
146.097 0.113293 
150.867676 0.07595 
151.62233 0.126635 
155.920441 0.075607 
156.142105 0.090367 
157.682388 0.078055 
159.146759 0.083507 
163.468643 0.117978 
165.85405 0.060895 
166.431717 0.092637 
169.219818 0.063864 
171.080933 0.268645 
172.052628 0.092865 
172.448868 0.092535 
173.059647 0.162368 
186.007263 0.049764 
187.075912 0.353347 
189.055099 2.491379 
189.65567 0.116345 
193.09407 0.073993 
195.195236 0.050301 
201.706055 0.088318 
203.071167 0.612886 
206.559708 0.067822 
211.110977 0.079608 
213.055496 0.568929 
213.091553 0.364544 
214.711975 3.221945 
215.034775 2.725744 
215.071075 1.28756 
220.896194 0.124005 
225.198746 0.093172 
227.072205 0.08456 
227.307144 0.104436 
229.086838 0.272148 
231.066055 79.986336 
232.069336 10.188796 
232.687439 0.081775 
234.732635 0.115058 
235.000183 0.094605 
240.55748 0.063234 
240.763535 0.090101 
248.356735 0.116418 
249.958405 0.059517 
250.555847 0.062321 
253.982773 0.091234 
255.066132 5.677572 
256.07132 0.71185 
257.045532 0.365277 
257.081848 2.319594 
258.08374 0.076158 
259.061218 39.896797 
259.508453 0.111449 
260.064697 5.944728 
261.623657 0.060824 
269.046387 0.21092 
271.097626 0.677047 
273.076996 0.43976 
279.222473 0.097991 
281.969971 0.037796 
283.061554 0.800793 
283.948395 0.073025 
284.068085 0.455392 
285.040497 0.704286 
286.048187 2.599338 
287.053375 0.054786 
293.550385 0.076361 
294.949738 0.072647 
297.077942 0.041965 
299.09256 4.367236 
300.064026 1.868123 
300.096344 0.353107 
301.071259 2.527034 
313.035492 45.937572 
313.132812 0.082844 
314.038849 7.457586 
315.041901 0.16505 
315.087219 1.109094 
318.852814 0.077588 
327.050903 0.334918 
328.058777 86.68663 
329.062256 15.226579 
330.064789 0.656425 
333.451508 0.070196 
336.769165 0.084228 
343.083496 0.569656 
349.294647 0.074467 
355.811737 0.07504 
360.414246 0.093493 
369.257904 0.086155 
END IONS

