BEGIN IONS
PEPMASS=333.0
CHARGE=1+
COMPOUNDNAME=MoNA:2504054 Spectinomycin (INN)
LIBRARYQUALITY=3
SMILES=N/A
INCHIKEY=UNFWWIHTNXNPBV-WXKVUWSESA-N
INCHI=InChI=1S/C14H24N2O7/c1-5-4-6(17)14(20)13(21-5)22-12-10(19)7(15-2)9(18)8(16-3)11(12)23-14/h5,7-13,15-16,18-20H,4H2,1-3H3/t5-,7-,8+,9+,10+,11-,12-,13+,14+/m1/s1
MSLEVEL=2
SOURCE_INSTRUMENT=LC-ESI-IT-LC-ESI-IT
FILENAME=output_mgf.mgf
SEQ=*..*
IONMODE=
ORGANISM=MONA
NAME=MoNA:2504054 Spectinomycin (INN) [M+H]+
PI=MoNA
DATACOLLECTOR=MoNA
PUBMED=N/A
SUBMITUSER=mwang87
TAGS=
SPECTRUMID=CCMSLIB00000571824
SCANS=9075
60.2 16.459016 
68.1 4.349727 
69.1 6.863388 
71.2 2.010929 
82.2 12.918033 
85.1 62.251366 
86.1 61.704918 
87.2 9.726776 
94.1 13.945355 
96.2 4.52459 
97.0 21.661202 
98.1 10.754098 
99.4 26.688525 
100.1 53.289617 
110.0 63.978142 
112.1 36.218579 
117.0 4.021858 
122.0 27.803279 
123.1 12.065574 
134.9 6.338798 
140.1 100.0 
153.1 9.923497 
189.1 13.092896 
190.1 7.234973 
END IONS

