BEGIN IONS
PEPMASS=1079.59
CHARGE=1+
COMPOUNDNAME=N-[(3S,6S,9S,11R,15S,18S,20R,21R,24S,25S,26S)-3-[(1R)-2-carbamoyl-1-hydroxyethyl]-6-[(1S,2S)-1,2-dihydroxy-2-(4-hydroxyphenyl)ethyl]-11,20,21,25-tetrahydroxy-15-[(1R)-1-hydroxyethyl]-26-methyl-2,5,8,14,17,23-hexaoxo-1,4,7,13,16,22-hexaazatricyclo[22.3.0.0?,��]heptacosan-18-yl]-10,12-dimethyltetradecanamide
LIBRARYQUALITY=3
SMILES=N/A
INCHIKEY=DFQUSLQYURJBIT-MFKXNLKNSA-N
INCHI=InChI=1S/C51H82N8O17/c1-6-25(2)19-26(3)13-11-9-7-8-10-12-14-37(66)53-32-21-35(64)47(72)57-49(74)41-42(67)27(4)23-59(41)51(76)39(34(63)22-36(52)65)55-48(73)40(44(69)43(68)29-15-17-30(61)18-16-29)56-46(71)33-20-31(62)24-58(33)50(75)38(28(5)60)54-45(32)70/h15-18,25-28,31-35,38-44,47,60-64,67-69,72H,6-14,19-24H2,1-5H3,(H2,52,65)(H,53,66)(H,54,70)(H,55,73)(H,56,71)(H,57,74)/t25?,26?,27-,28+,31+,32-,33-,34+,35+,38-,39-,40-,41-,42-,43-,44-,47+/m0/s1
MSLEVEL=2
SOURCE_INSTRUMENT=N/A-ESI-QFT
FILENAME=library_mgf.mgf
SEQ=*..*
IONMODE=positive
ORGANISM=MONA
NAME=N-[(3S,6S,9S,11R,15S,18S,20R,21R,24S,25S,26S)-3-[(1R)-2-carbamoyl-1-hydroxyethyl]-6-[(1S,2S)-1,2-dihydroxy-2-(4-hydroxyphenyl)ethyl]-11,20,21,25-tetrahydroxy-15-[(1R)-1-hydroxyethyl]-26-methyl-2,5,8,14,17,23-hexaoxo-1,4,7,13,16,22-hexaazatricyclo[22.3.0.0?,��]heptacosan-18-yl]-10,12-dimethyltetradecanamide [M+H]+
PI=MoNA
DATACOLLECTOR=MoNA:VF-NPL-QEHF024875
PUBMED=N/A
SUBMITUSER=mwang87
TAGS=
SPECTRUMID=CCMSLIB00004715938
SCANS=24875
75.914635 0.032884 
77.088463 0.03307 
78.553879 0.032083 
78.900513 0.040748 
79.825989 0.032497 
80.049606 0.092691 
81.069977 0.489916 
81.739815 0.033135 
81.757263 0.035214 
82.028862 0.184642 
82.065224 1.813426 
82.590889 0.030273 
83.06044 0.070446 
83.085571 0.393582 
83.150719 0.028496 
83.499504 0.033139 
84.044487 21.825432 
84.174385 0.030003 
84.198135 0.030015 
85.047798 0.429159 
85.101311 0.036896 
86.060135 100.0 
87.057327 0.036619 
87.063499 2.951512 
92.560806 0.035093 
92.726151 0.03398 
93.597733 0.033057 
94.028885 1.081276 
94.065285 0.2058 
95.061043 0.032066 
95.085602 0.805173 
95.893044 0.031005 
96.044518 0.759982 
97.101318 0.051488 
97.263329 0.028424 
97.724518 0.032304 
98.060333 0.055491 
99.055412 0.596837 
99.85144 0.028514 
100.039413 5.017624 
100.075783 28.333199 
100.643044 0.036628 
100.665909 0.033234 
101.071068 1.462385 
101.079193 0.921603 
102.055008 1.036482 
102.901535 0.037202 
106.297043 0.030405 
107.049339 0.55733 
107.750076 0.032993 
108.044319 0.033121 
109.039787 2.096464 
109.101379 0.434664 
110.023727 1.008977 
110.060356 0.067214 
111.055382 0.584139 
112.039398 1.370197 
112.075775 0.342042 
112.290321 0.03187 
113.07106 1.582977 
114.055122 0.73567 
114.310753 0.036192 
115.341309 0.042531 
117.065926 0.437 
117.321716 0.034265 
117.527565 0.034164 
119.049416 0.281647 
121.028572 0.033932 
121.076134 0.097787 
121.505806 0.027825 
122.060188 0.347243 
123.055397 1.002443 
123.091652 0.228658 
123.1166 0.042846 
124.075806 0.213873 
125.071098 1.396087 
125.132423 0.026337 
127.050407 0.346951 
127.086876 0.247077 
127.720627 0.027732 
128.034409 0.155918 
129.065903 0.883238 
130.049927 0.864371 
131.081619 4.047278 
132.065826 0.034846 
132.084671 0.060211 
134.060181 0.782582 
135.055374 0.072259 
135.707062 0.034643 
136.075836 0.399201 
137.306839 0.029923 
138.05513 0.156321 
138.072296 0.036222 
138.605774 0.028946 
139.050262 0.550806 
139.086777 1.629178 
140.070724 0.773711 
141.065903 7.819496 
142.069183 0.040279 
142.086334 0.717807 
142.323715 0.036862 
143.081741 1.566335 
145.061005 0.307004 
145.097244 15.318922 
145.508331 0.033722 
146.044952 1.21929 
146.060242 0.563253 
146.100677 0.392171 
147.044022 4.711718 
148.047684 0.101401 
148.075485 0.039086 
149.071121 2.118773 
150.055206 0.327403 
151.050308 2.462353 
151.0867 1.066543 
152.034286 0.11894 
152.054916 0.031997 
152.983826 0.031621 
153.065826 0.128424 
155.04512 0.117682 
155.081604 0.630172 
156.065475 0.036793 
157.097397 1.373867 
161.071289 0.114768 
163.071548 0.577247 
163.08667 0.073928 
164.070724 1.858103 
165.029877 0.207736 
165.065857 3.358897 
165.102676 0.14127 
166.069763 0.114196 
166.086395 0.075776 
167.045425 0.238359 
167.081558 10.66531 
168.065857 0.077488 
168.077774 0.035235 
168.085312 0.465537 
169.060776 2.275614 
169.097336 1.931458 
171.076706 1.353565 
171.303391 0.033709 
173.09288 0.03453 
173.206604 0.033705 
174.055038 2.662402 
174.781555 0.021381 
175.039124 2.591992 
175.086761 0.036514 
176.070923 0.185348 
176.159515 0.034299 
177.066071 2.253832 
178.051224 0.043656 
178.82634 0.020513 
179.045334 0.914672 
179.081635 2.202467 
180.039673 0.036432 
181.097244 1.418285 
181.129013 0.039205 
182.056274 0.333542 
182.081497 0.073513 
183.076614 0.141319 
183.113235 0.437301 
183.891891 0.033684 
184.071472 0.033479 
185.092209 4.27324 
186.056427 0.040575 
186.096054 0.03277 
187.071167 0.043285 
187.107971 1.806792 
188.070511 0.141399 
188.093628 0.022177 
188.866623 0.022562 
190.097031 0.038502 
191.08168 2.345774 
191.498611 0.036476 
191.814911 0.032377 
192.065536 2.907249 
193.06105 0.166614 
193.097458 1.417418 
195.076462 6.991503 
195.112823 0.188585 
196.061646 0.034684 
196.080154 0.167341 
196.108139 0.042014 
197.092163 4.581596 
198.943832 0.030428 
199.072342 0.033234 
200.066666 0.172896 
200.095337 0.03626 
201.065353 0.041501 
202.050095 0.434704 
202.083466 0.084855 
203.081833 1.74536 
204.066071 0.040243 
204.174774 0.035299 
205.097076 0.040419 
205.505905 0.034315 
206.092697 0.038519 
208.108368 0.505447 
209.0923 5.020239 
209.503738 0.030176 
210.086533 0.037484 
210.096466 0.078392 
210.124039 0.28383 
211.071899 0.182772 
211.108078 1.687466 
212.071426 0.055671 
212.432648 0.034962 
213.08725 2.151531 
215.103027 0.790181 
218.081528 0.042823 
218.092621 0.223746 
219.076782 1.733413 
220.060928 0.249194 
220.097321 0.179258 
221.092285 2.897993 
223.108475 0.037816 
224.102219 0.040307 
225.087265 1.313625 
226.118668 0.342991 
227.082901 0.037191 
227.102997 2.302994 
227.772217 0.022305 
228.066025 0.135751 
228.134705 0.568563 
228.514389 0.034187 
229.097275 0.350792 
230.07988 0.035076 
231.07663 0.43752 
232.108597 0.137065 
234.123245 0.035687 
235.108887 0.04334 
235.52092 0.023511 
236.103409 2.319179 
237.087265 4.978288 
238.090302 0.132762 
238.119186 1.456296 
239.080704 0.034554 
239.102997 0.5464 
240.065308 0.111236 
240.099564 0.034888 
241.09758 0.12252 
244.1091 0.042197 
245.092621 0.249202 
249.123642 0.090551 
254.038696 0.033702 
254.113647 2.207838 
255.076813 0.613126 
255.097763 4.735239 
255.290771 0.021353 
256.060822 0.697326 
256.100983 0.029505 
256.264038 0.885682 
257.092255 0.584419 
259.107819 8.560429 
260.112488 0.212378 
260.139954 0.032277 
261.123657 0.300608 
262.118622 2.679684 
262.88031 0.031248 
263.913574 0.037881 
264.097961 0.131111 
264.877594 0.037126 
265.082428 0.713611 
266.954773 0.031458 
268.061615 0.025403 
270.076691 0.08159 
270.10849 0.134647 
270.215668 0.037452 
271.140472 0.110691 
272.103516 0.84314 
273.087158 4.643588 
273.104462 0.043423 
274.090576 0.153511 
276.134888 0.164191 
277.118378 4.646948 
278.113983 0.123533 
279.134644 0.480794 
280.111786 0.039878 
280.129761 1.218143 
280.506287 0.036266 
282.108917 1.63105 
283.071564 2.240969 
284.075165 0.059696 
286.119263 0.364848 
287.102875 2.967025 
288.105133 0.08261 
290.114044 0.367951 
291.097931 0.265591 
292.093201 0.049536 
294.145355 0.067098 
294.278442 0.074261 
297.119781 0.186957 
300.098419 1.501897 
301.082458 1.518081 
304.129669 0.707523 
304.181854 0.576893 
305.113464 3.431542 
305.131073 0.163405 
306.118439 0.071985 
306.746887 0.035932 
308.03183 0.030995 
308.124725 0.830841 
308.174103 0.030067 
309.120575 0.044073 
310.103729 0.217269 
311.063141 0.029033 
313.167938 0.031663 
318.108856 0.230484 
319.092651 0.566293 
322.140106 1.988796 
322.275269 0.027419 
323.121155 0.044026 
326.113525 0.064021 
327.130463 0.650552 
328.130341 0.435468 
332.643555 0.034707 
336.119019 0.277278 
338.308929 0.030155 
339.605408 0.03112 
344.124695 0.552999 
352.132812 0.037978 
366.148315 0.04784 
369.156616 0.192662 
370.140747 0.03991 
371.171753 0.196652 
372.116882 0.035237 
383.501984 0.033086 
386.136017 0.144257 
396.119904 0.386867 
398.569794 0.029626 
401.213501 0.042332 
411.263672 0.033854 
413.146698 0.405042 
413.330963 0.035123 
414.130035 0.274079 
415.16922 0.036294 
421.570923 0.038606 
426.178833 0.038967 
430.343323 0.497302 
431.157257 0.52137 
433.304749 0.025064 
433.744293 0.035151 
438.993774 0.022391 
440.47345 0.032836 
449.166748 0.038052 
458.727539 0.03772 
466.364502 0.065578 
474.099274 0.038129 
474.681427 0.025171 
476.348969 0.131117 
487.364807 0.032135 
532.29895 0.033643 
541.081482 0.0355 
571.294556 0.037126 
590.427856 0.032672 
598.28418 0.043025 
610.937256 0.036858 
612.128174 0.043724 
619.928101 0.041365 
639.194092 0.0339 
656.060303 0.038868 
677.512207 0.039675 
704.931335 0.034207 
708.24646 0.087968 
708.332642 0.039001 
708.505981 0.061568 
708.724609 0.056486 
714.556519 0.037899 
729.196899 0.031814 
758.850769 0.030788 
847.228149 0.041632 
856.787109 0.021996 
917.308716 0.031766 
922.892151 0.035335 
929.473328 0.045529 
932.443176 0.037247 
933.574341 0.032753 
958.312866 0.044916 
966.411865 0.031703 
1021.905518 0.039014 
1027.506104 0.036012 
1064.472778 0.037495 
1074.24707 0.025841 
1086.426514 0.042766 
1094.44873 0.033018 
END IONS

