BEGIN IONS
PEPMASS=173.0
CHARGE=1+
COMPOUNDNAME=MoNA:2230899 trans-Propene-1,2,3-tricarboxylic acid
LIBRARYQUALITY=3
SMILES=N/A
INCHIKEY=GTZCVFVGUGFEME-QECJGSJFNA-N
INCHI=InChI=1/C6H6O6/c7-4(8)1-3(6(11)12)2-5(9)10/h1H,2H2,(H,7,8)(H,9,10)(H,11,12)/b3-1-/f/h7,9,11H
MSLEVEL=2
SOURCE_INSTRUMENT=LC-ESI-QQ-LC-ESI-QQ
FILENAME=output_mgf.mgf
SEQ=*..*
IONMODE=
ORGANISM=MONA
NAME=MoNA:2230899 trans-Propene-1,2,3-tricarboxylic acid [M-H]-
PI=MoNA
DATACOLLECTOR=MoNA
PUBMED=N/A
SUBMITUSER=mwang87
TAGS=
SPECTRUMID=CCMSLIB00000573957
SCANS=11208
58.9 0.142045 
85.2 25.023674 
111.3 3.90625 
115.0 0.828598 
127.7 0.142045 
129.0 100.0 
173.1 65.222538 
END IONS

