BEGIN IONS
PEPMASS=432.165
CHARGE=1+
COMPOUNDNAME=(5S,8S)-8-benzoyl-2-[(Z,1S,2S)-1,2-dihydroxyhex-3-enyl]-9-hydroxy-8-methoxy-3-methyl-1-oxa-7-azaspiro[4.4]non-2-ene-4,6-dione
LIBRARYQUALITY=3
SMILES=N/A
INCHIKEY=SLYDIPAXCVVRNY-BBJHAQHQSA-N
INCHI=InChI=1S/C22H25NO8/c1-4-5-11-14(24)15(25)16-12(2)17(26)21(31-16)19(28)22(30-3,23-20(21)29)18(27)13-9-7-6-8-10-13/h5-11,14-15,19,24-25,28H,4H2,1-3H3,(H,23,29)/b11-5-/t14-,15-,19?,21+,22+/m0/s1
MSLEVEL=2
SOURCE_INSTRUMENT=N/A-ESI-QFT
FILENAME=library_mgf.mgf
SEQ=*..*
IONMODE=positive
ORGANISM=MONA
NAME=(5S,8S)-8-benzoyl-2-[(Z,1S,2S)-1,2-dihydroxyhex-3-enyl]-9-hydroxy-8-methoxy-3-methyl-1-oxa-7-azaspiro[4.4]non-2-ene-4,6-dione [M+H]+
PI=MoNA
DATACOLLECTOR=MoNA:VF-NPL-QEHF020453
PUBMED=N/A
SUBMITUSER=mwang87
TAGS=
SPECTRUMID=CCMSLIB00004711516
SCANS=20453
50.854233 0.055677 
51.023193 0.095034 
51.041691 0.049091 
51.501968 0.036444 
52.037872 0.034758 
52.108307 0.037451 
52.305611 0.049525 
53.035831 0.041303 
53.038879 1.806486 
53.394714 0.068654 
54.7369 0.090521 
54.863762 0.035959 
55.018093 0.666915 
55.054512 1.31051 
55.471375 0.046796 
56.049667 0.094195 
56.10516 0.03864 
56.299473 0.047043 
56.965042 8.368931 
57.033752 0.418177 
57.070107 1.729094 
57.222233 0.055867 
57.321373 0.050102 
57.708656 0.049511 
58.065376 3.723822 
58.215679 0.090318 
58.650539 0.062128 
58.683384 0.094479 
59.041615 0.050776 
59.049351 0.341383 
60.044594 2.934809 
60.081009 0.119909 
60.107456 0.034884 
60.466667 0.051274 
61.010826 0.464982 
61.140446 0.051463 
61.360958 0.042428 
61.745228 0.043851 
61.846939 0.035618 
62.018536 0.049782 
62.664482 0.03828 
62.730637 0.047239 
62.970879 0.041235 
63.052799 0.044007 
63.571827 0.036658 
65.239136 0.035396 
65.689735 0.039243 
67.054321 2.139986 
67.565895 0.053411 
67.657814 0.055815 
67.886314 0.047249 
67.99202 0.077979 
68.947296 0.043952 
69.033516 0.506647 
69.069901 1.721588 
70.06517 1.723528 
70.396133 0.045152 
70.467133 0.040805 
70.547501 0.052815 
71.049133 0.918828 
71.085571 0.483699 
72.080795 0.42751 
72.305336 0.063647 
72.380287 0.046171 
73.04673 0.197984 
73.064804 0.147489 
73.133881 0.070267 
73.558365 0.07129 
74.060097 0.035695 
74.382942 0.058128 
74.559891 0.050826 
74.705894 0.054881 
74.975754 0.037026 
75.043915 0.036862 
76.345657 0.04608 
76.354095 0.094673 
77.038643 0.151235 
79.021149 1.423251 
79.054192 1.129486 
79.71756 0.038527 
79.911041 0.04105 
81.033432 0.460011 
81.069885 3.026521 
81.326134 0.090167 
81.407616 0.053263 
82.065002 0.053115 
83.012772 0.192027 
83.049088 4.003236 
83.085518 0.463614 
84.044395 0.160967 
84.080727 1.334976 
84.859924 0.034417 
84.959663 2.733671 
85.028297 0.306161 
85.064789 0.864689 
85.622765 0.071081 
86.060036 0.278792 
86.096375 1.220081 
87.04406 1.566924 
87.450851 0.038062 
87.568748 0.058766 
88.075729 0.049556 
89.059685 6.763263 
89.730278 0.047997 
90.016678 0.085692 
90.054848 0.039445 
90.063049 0.083022 
91.054253 1.822033 
91.057243 0.751971 
91.331367 0.063776 
91.528801 0.056792 
92.250725 0.085677 
93.069809 1.359379 
94.065208 0.079069 
94.615318 0.047174 
95.011063 0.055529 
95.049126 5.687167 
95.060364 1.492215 
95.08551 1.440655 
95.102798 0.05461 
95.531082 0.035659 
96.007889 0.55328 
96.052628 0.067275 
96.080696 0.726633 
96.981094 0.067062 
97.028313 0.317026 
97.064789 0.592442 
98.059914 0.085654 
98.379723 0.049592 
98.975304 10.188238 
99.043983 0.526933 
101.059669 0.580831 
102.485191 0.060099 
102.885628 0.070877 
102.970276 0.050101 
103.532928 0.049504 
104.049713 0.048656 
104.07029 0.054243 
105.033524 100.0 
105.044601 1.572998 
105.069855 1.037089 
106.03685 7.769749 
106.065201 0.409771 
107.04908 0.239657 
107.085457 1.024192 
107.196243 0.053531 
108.594971 0.052005 
109.01368 0.051876 
109.02829 0.041646 
109.064713 1.863238 
109.075943 0.086291 
109.101128 0.255319 
110.033485 0.035819 
110.059982 0.916628 
110.068199 0.036326 
110.071434 0.044018 
111.043915 0.518173 
112.036758 0.243466 
112.075569 0.218984 
113.023048 0.035355 
113.059586 0.121642 
113.600517 0.059139 
114.018616 0.924465 
114.025352 0.072585 
114.054886 0.106566 
115.039017 0.229229 
115.086296 0.057433 
116.070534 0.171835 
116.122078 0.055961 
116.265594 0.078318 
116.985863 7.657515 
117.069809 0.192784 
117.337463 0.040161 
117.584084 0.070396 
118.064987 0.438026 
119.049255 0.106459 
119.085533 2.481843 
120.044273 0.030155 
120.080673 0.415937 
121.064713 1.849335 
121.101059 0.103528 
122.059853 0.107626 
123.04393 0.677054 
123.080376 0.528702 
123.091492 0.137008 
123.503212 0.036248 
124.0392 0.13288 
124.075798 0.296701 
124.990906 0.299776 
125.023148 0.090633 
125.070747 0.051887 
125.096085 0.100524 
126.054817 0.069755 
126.091423 0.042918 
126.716194 0.037267 
127.006165 0.082739 
127.038742 0.060515 
127.049599 0.066903 
127.111053 0.050045 
127.240646 0.05036 
128.510727 0.050899 
129.069519 0.107818 
129.625519 0.038906 
130.065063 0.210252 
131.085785 0.062542 
132.044403 0.253595 
132.080688 0.051698 
133.064545 0.23421 
133.085876 0.310862 
133.101044 0.108261 
133.798813 0.091801 
134.059906 3.82199 
134.978485 1.582911 
134.996429 2.592998 
135.044083 0.445561 
135.080185 0.390226 
135.090714 0.138348 
136.039322 0.204598 
136.075638 0.87767 
136.111954 0.367156 
137.01152 0.115012 
137.023224 0.278863 
137.059616 0.448738 
137.096024 0.061367 
138.054993 0.495824 
138.091248 0.037116 
138.127518 0.516032 
139.038834 0.404262 
140.488251 0.051991 
142.9198 0.055153 
143.001373 2.12388 
143.085541 0.152286 
143.972458 0.068256 
144.044769 0.073375 
145.064804 0.038025 
145.101227 0.042554 
146.060104 0.694128 
147.044235 0.335289 
147.080322 0.260066 
147.091919 0.072897 
147.117065 0.052543 
148.075668 0.219124 
149.059738 0.043399 
149.107208 0.159856 
150.05481 0.340907 
150.091263 0.443927 
151.038773 0.177081 
151.086472 0.213528 
152.070374 0.45902 
152.106796 1.824007 
152.989273 0.885688 
153.007065 0.119412 
153.018051 0.792935 
154.049622 0.173812 
155.033722 15.901151 
156.036957 0.459459 
156.044067 0.03478 
158.540985 0.045832 
159.043427 0.056218 
159.06781 0.050636 
161.011932 1.190154 
161.096207 0.047981 
161.108154 0.099148 
162.054749 0.744028 
162.062958 0.048274 
163.075104 0.047959 
163.123108 0.065299 
164.070435 2.644788 
164.10672 0.107525 
165.053879 0.039984 
165.09111 0.045453 
165.102371 0.045786 
165.158722 0.059241 
165.467926 0.061458 
166.049805 0.984239 
166.086243 0.143473 
166.122726 0.06657 
167.001144 0.11784 
167.033737 0.496921 
167.053574 0.116674 
168.949173 0.066747 
169.4198 0.061531 
170.044159 0.182132 
171.080246 0.232414 
172.059677 0.037512 
173.011795 0.046349 
174.054794 0.684254 
174.127335 0.041659 
176.070343 0.048267 
176.361557 0.053814 
177.102158 1.296171 
178.086212 0.114535 
178.12233 0.052212 
179.001236 0.106123 
179.598358 0.053428 
180.064957 0.107679 
180.101837 5.610807 
180.109589 0.059171 
181.017014 0.096622 
181.064941 0.054174 
181.106781 0.092737 
182.99678 0.146331 
184.075745 0.073652 
184.13298 0.28527 
185.0121 1.147285 
185.070816 0.492901 
186.055099 0.05225 
186.12793 0.046708 
186.769043 0.042232 
187.075241 0.121935 
187.0867 0.155846 
188.070435 0.08959 
188.426895 0.04995 
189.006546 0.239657 
189.102539 0.043632 
190.049622 0.133198 
192.033157 0.984848 
192.06514 0.339333 
192.103226 0.043461 
192.961533 0.046628 
193.085541 0.115048 
194.044754 1.324387 
194.080902 0.445717 
194.128967 0.939289 
194.996841 0.349007 
195.065201 0.045567 
196.09761 0.084552 
196.16806 0.089786 
197.012039 2.239822 
197.059311 0.231028 
198.091003 0.036042 
199.075287 0.445193 
199.086472 0.948938 
200.034164 0.254552 
201.007172 1.386906 
201.101715 0.073636 
202.086105 0.062043 
202.111984 0.042756 
203.001221 0.03877 
203.022278 0.251522 
204.065399 0.201664 
204.1017 0.049347 
205.037567 0.059594 
206.924866 0.061295 
208.096909 0.039657 
209.875626 0.054213 
210.007782 0.092616 
210.043503 1.211126 
210.091431 0.056782 
210.112793 0.063828 
210.991653 0.068599 
211.087082 0.048416 
211.669922 0.067283 
212.069916 0.197233 
212.995758 0.114834 
213.006805 4.772808 
213.633713 3.255192 
213.638092 3.462555 
213.906403 0.053453 
214.050583 0.049403 
214.085938 0.149405 
215.022873 0.628026 
215.06987 0.114856 
216.102112 0.041819 
218.012848 0.051838 
218.044556 0.131462 
219.174011 0.078697 
220.02803 1.652585 
220.06044 1.227183 
220.09642 0.046379 
221.012177 0.402592 
221.080856 0.250318 
222.112625 0.050416 
222.898239 0.11203 
226.002045 1.323838 
226.085709 0.132253 
226.106995 0.042053 
227.069626 0.390666 
228.0177 0.365041 
228.066238 0.076663 
228.101776 0.05797 
229.001678 0.989434 
230.081207 0.353945 
231.017426 9.60673 
231.112259 0.061902 
232.020981 0.209771 
233.048019 0.060271 
233.061981 0.050043 
233.10672 0.049134 
234.113037 0.10135 
236.022888 2.292422 
236.149155 2.306037 
236.160538 0.038377 
237.025604 0.037846 
238.002182 0.118493 
238.038284 0.497341 
238.107086 0.132014 
239.009872 0.040601 
239.022461 2.178881 
240.908829 0.241154 
241.001617 1.28432 
242.033249 0.056785 
242.044907 0.059663 
242.080719 0.225467 
243.032639 0.041768 
243.086609 0.646742 
244.012466 0.616244 
244.095169 0.060474 
244.132309 0.110697 
245.047562 0.172432 
246.040436 0.179286 
247.012527 0.170911 
247.028564 0.035525 
248.023895 0.04954 
249.027939 1.038652 
250.937134 0.1445 
251.057755 0.049574 
251.934402 0.401944 
252.033127 0.04768 
253.145844 0.088536 
254.033417 1.479562 
254.07988 0.064574 
254.101761 0.118337 
254.980072 0.039664 
255.034409 0.046525 
256.012512 1.378981 
257.033844 0.039351 
257.048676 0.107526 
258.075897 0.065995 
259.011963 0.762575 
261.043304 0.700413 
263.496948 0.069659 
264.017517 1.856871 
264.909424 0.295906 
268.011993 0.078758 
269.945221 0.159003 
270.07666 0.053577 
271.027496 0.743334 
273.042969 0.842198 
273.109894 0.294766 
274.023987 0.048134 
274.936249 0.079734 
275.058258 0.066129 
275.93457 0.636143 
276.017395 0.044061 
277.037537 0.066867 
279.053741 0.050741 
279.923309 0.075799 
282.027374 0.182539 
282.1492 0.055098 
283.027466 0.054784 
284.933807 0.051189 
285.013184 0.066678 
285.043121 0.08848 
287.178223 0.068113 
288.491394 0.072761 
288.988647 0.055424 
289.037659 4.322933 
290.042786 0.218199 
290.104218 0.054723 
291.05484 0.072228 
292.947357 0.38766 
293.127136 0.060329 
293.318848 0.070102 
293.499512 0.100072 
293.945404 4.628748 
294.946289 0.180829 
296.080505 0.202482 
298.038147 0.059479 
298.070801 0.188792 
298.140717 0.072746 
299.088898 1.532101 
300.05426 0.473291 
301.038208 0.987954 
303.05426 0.165327 
303.265839 0.076334 
304.110382 0.037877 
304.164429 0.05002 
305.03302 0.824046 
305.130005 0.041976 
305.157318 0.230136 
305.177002 0.045175 
307.048615 4.803411 
308.022522 0.116535 
308.052216 0.231325 
310.070587 0.049288 
310.958099 0.076343 
311.29422 3.759203 
311.956116 1.520746 
312.297302 0.584879 
314.138275 1.175894 
315.647888 0.072914 
316.416718 0.037945 
317.099365 9.264098 
318.102753 1.073714 
319.048737 0.386305 
323.140717 0.047971 
323.22702 0.054919 
325.059448 0.374042 
325.77066 0.057998 
326.033356 0.691202 
328.048676 0.322203 
329.032318 0.089172 
330.179901 0.066238 
332.080353 0.119301 
340.707306 0.064525 
341.235779 0.49778 
342.095947 0.061489 
344.044037 1.004145 
350.090485 3.41942 
350.11264 0.039211 
350.27771 0.052639 
351.094666 0.113525 
354.028381 0.509241 
360.10495 0.48586 
360.129089 0.064023 
362.053253 0.045033 
369.724518 0.073302 
371.208313 0.06443 
371.239624 0.062758 
372.038818 1.098741 
373.670227 0.06395 
375.23468 0.137265 
377.671661 0.061606 
387.673035 0.044826 
387.714996 0.050973 
387.845184 0.055924 
388.135559 0.283915 
401.193939 0.075241 
403.168732 0.058319 
403.755341 0.042171 
404.100677 0.192079 
405.162079 0.040913 
406.166077 0.042817 
406.303284 0.073921 
407.15976 0.05605 
409.718323 0.096683 
410.628082 0.045319 
411.909027 0.037088 
430.321533 1.95226 
431.218353 0.727457 
431.262482 0.151028 
431.296417 0.127127 
431.325104 0.237196 
432.223297 0.315768 
432.265991 0.046791 
433.153717 2.665772 
433.240692 16.444826 
433.272095 0.470733 
434.15799 0.091706 
434.243744 2.050263 
END IONS

