BEGIN IONS
PEPMASS=321.133
CHARGE=1+
COMPOUNDNAME=Massbank:EA280804 Mycophenolic acid| (E)-6-(4-hydroxy-3-keto-6-methoxy-7-methyl-phthalan-5-yl)-4-methyl-hex-4-enoic acid
LIBRARYQUALITY=3
SMILES=c12c(c(c(C\C=C(\CCC(O)=O)C)c(c1C)OC)O)C(=O)OC2
INCHIKEY=HPNSFSBZBAHARI-RUDMXATFSA-N
INCHI=1S/C17H20O6/c1-9(5-7-13(18)19)4-6-11-15(20)14-12(8-23-17(14)21)10(2)16(11)22-3/h4,20H,5-8H2,1-3H3,(H,18,19)/b9-4+
MSLEVEL=2
SOURCE_INSTRUMENT=ESI-LC-ESI-ITFT
FILENAME=Massbank_ESI_positive_8_1_2014_peaks.mgf
SEQ=*..*
IONMODE=Positive
ORGANISM=MASSBANK
NAME=Massbank:EA280804 Mycophenolic acid| (E)-6-(4-hydroxy-3-keto-6-methoxy-7-methyl-phthalan-5-yl)-4-methyl-hex-4-enoic acid [M+H]+
PI=Putative Massbank Match
DATACOLLECTOR=Massbank
PUBMED=N/A
SUBMITUSER=mwang87
TAGS=
SPECTRUMID=CCMSLIB00000211247
SCANS=5220
79.054 6703.3 
81.0699 39285.4 
91.0541 16743.4 
97.0644 6063.6 
103.054 6341.8 
109.0648 22036.2 
131.0488 6052.8 
135.0808 16641.6 
159.0439 323683.6 
175.0752 18358.2 
177.0546 65461.2 
179.0704 9394.1 
195.0652 209946.4 
207.0651 5431716.2 
215.1067 23544.0 
219.065 27252.8 
221.0815 16369.0 
223.0603 40845.7 
233.0805 7922.4 
239.1061 15499.9 
241.1234 6130.7 
247.0971 15382.7 
259.0961 27034.5 
261.112 46504.0 
275.1277 190161.6 
285.1122 145366.2 
303.1231 62765.2 
END IONS

