BEGIN IONS
PEPMASS=414.155
CHARGE=1+
COMPOUNDNAME=Massbank:PB005908 S,R-Noscapine|(3S)-6,7-dimethoxy-3-[(5R)-4-methoxy-6-methyl-7,8-dihydro-5H-[1,3]dioxolo[4,5-g]isoquinolin-5-yl]-3H-2-benzofuran-1-one
LIBRARYQUALITY=3
SMILES=CN1CCC2=CC3=C(C(=C2C1C4C5=C(C(=C(C=C5)OC)OC)C(=O)O4)OC)OCO3
INCHIKEY=AKNNEGZIBPJZJG-UHFFFAOYSA-N
INCHI=1S/C22H23NO7/c1-23-8-7-11-9-14-20(29-10-28-14)21(27-4)15(11)17(23)18-12-5-6-13(25-2)19(26-3)16(12)22(24)30-18/h5-6,9,17-18H,7-8,10H2,1-4H3/t17-,18+/m1/s1
MSLEVEL=2
SOURCE_INSTRUMENT=ESI-LC-ESI-QTOF
FILENAME=Massbank_ESI_positive_8_1_2014_peaks.mgf
SEQ=*..*
IONMODE=Positive
ORGANISM=MASSBANK
NAME=Massbank:PB005908 S,R-Noscapine|(3S)-6,7-dimethoxy-3-[(5R)-4-methoxy-6-methyl-7,8-dihydro-5H-[1,3]dioxolo[4,5-g]isoquinolin-5-yl]-3H-2-benzofuran-1-one [M+H]+
PI=Putative Massbank Match
DATACOLLECTOR=Massbank
PUBMED=N/A
SUBMITUSER=mwang87
TAGS=
SPECTRUMID=CCMSLIB00000222353
SCANS=10693
121.064 30.03 
148.067 10.01 
149.059 30.03 
161.056 10.01 
162.086 10.01 
163.042 10.01 
164.045 10.01 
165.053 60.06 
174.048 10.01 
175.063 20.02 
176.055 10.01 
177.055 30.03 
178.069 10.01 
179.068 340.34 
180.071 30.03 
188.052 20.02 
189.056 40.04 
190.077 20.02 
191.064 70.07 
192.069 10.01 
193.048 80.08 
194.059 10.01 
202.072 10.01 
203.057 50.05 
204.063 170.17 
205.071 1651.652 
206.078 1061.061 
207.08 120.12 
208.086 10.01 
209.074 20.02 
216.06 10.01 
217.058 30.03 
218.077 280.28 
219.085 310.31 
219.921 10.01 
220.094 10000.0 
221.097 1111.111 
222.083 40.04 
223.072 40.04 
224.078 40.04 
225.085 10.01 
231.076 20.02 
232.058 10.01 
233.058 50.05 
234.064 100.1 
235.072 120.12 
236.077 70.07 
237.064 70.07 
238.077 30.03 
239.072 10.01 
239.096 30.03 
240.074 10.01 
241.083 10.01 
245.055 20.02 
246.064 70.07 
247.071 90.09 
248.084 180.18 
249.071 130.13 
250.063 80.08 
251.068 140.14 
252.074 170.17 
253.081 70.07 
254.091 40.04 
255.077 10.01 
258.062 10.01 
259.069 10.01 
260.061 20.02 
261.055 70.07 
262.059 210.21 
263.066 360.36 
264.074 320.32 
265.07 230.23 
266.086 100.1 
267.092 180.18 
268.086 30.03 
269.108 50.05 
270.092 10.01 
273.053 10.01 
274.059 130.13 
275.065 170.17 
276.074 180.18 
277.076 270.27 
278.068 100.1 
279.065 280.28 
280.069 960.961 
281.076 340.34 
282.083 120.12 
283.078 30.03 
285.1 20.02 
287.067 10.01 
288.072 20.02 
289.051 60.06 
290.055 140.14 
291.062 310.31 
292.07 430.43 
293.073 400.4 
294.083 210.21 
295.09 1261.261 
296.095 290.29 
297.094 110.11 
298.08 30.03 
299.083 10.01 
302.053 130.13 
303.06 120.12 
304.069 180.18 
305.075 410.41 
306.054 430.43 
307.061 810.811 
308.066 500.5 
309.072 420.42 
310.079 630.631 
311.082 130.13 
312.093 180.18 
313.099 90.09 
314.092 10.01 
316.076 10.01 
317.048 30.03 
318.06 20.02 
319.056 280.28 
320.066 240.24 
321.072 350.35 
322.08 960.961 
323.086 2532.532 
324.092 710.711 
325.102 980.981 
326.105 180.18 
327.111 70.07 
328.11 20.02 
332.064 170.17 
333.071 80.08 
334.079 560.561 
335.07 310.31 
336.079 110.11 
337.072 310.31 
338.077 730.731 
339.083 130.13 
340.092 50.05 
341.095 40.04 
343.111 10.01 
347.096 10.01 
348.083 40.04 
349.084 70.07 
350.075 900.901 
351.078 230.23 
352.097 320.32 
353.097 2682.683 
354.101 490.49 
355.111 90.09 
356.105 20.02 
362.096 30.03 
363.105 60.06 
364.108 40.04 
365.097 370.37 
366.094 470.47 
367.099 100.1 
368.09 30.03 
371.108 10.01 
378.13 20.02 
380.107 30.03 
381.116 210.21 
382.121 40.04 
383.11 40.04 
384.106 10.01 
396.137 30.03 
399.129 10.01 
414.149 40.04 
END IONS

