BEGIN IONS
PEPMASS=271.061
CHARGE=1+
COMPOUNDNAME=HMDB:HMDB02670-2123 Naringenin
LIBRARYQUALITY=3
SMILES=OC1=CC=C(C=C1)[C@@H]1CC(=O)C2=C(O)C=C(O)C=C2O1
INCHIKEY=FTVWIRXFELQLPI-ZDUSSCGKSA-N
INCHI=InChI=1S/C15H12O5/c16-9-3-1-8(2-4-9)13-7-12(19)15-11(18)5-10(17)6-14(15)20-13/h1-6,13,16-18H,7H2/t13-/m0/s1
MSLEVEL=2
SOURCE_INSTRUMENT=Negative-Quattro_QQQ:25eV
FILENAME=hmdb_intermediate.mgf
SEQ=*..*
IONMODE=Negative
ORGANISM=HMDB
NAME=HMDB:HMDB02670-2123 Naringenin M-H
PI=HMDB
DATACOLLECTOR=HMDB
PUBMED=N/A
SUBMITUSER=mwang87
TAGS=
SPECTRUMID=CCMSLIB00000425762
SCANS=734
62.0 16.844 
63.0 13.433 
64.0 29.928 
65.0 26.846 
82.0 46.82 
83.0 24.233 
92.0 17.793 
93.0 11.348 
95.0 8.812 
106.0 61.733 
107.0 40.528 
108.0 10.794 
118.0 100.0 
119.0 69.739 
120.0 12.748 
123.0 10.341 
124.0 6.457 
144.0 6.651 
150.0 56.049 
151.0 37.322 
152.0 6.313 
160.0 5.708 
164.0 10.98 
176.0 7.123 
184.0 8.178 
185.0 5.515 
186.0 12.491 
187.0 9.337 
270.0 7.175 
END IONS

