BEGIN IONS
PEPMASS=333.166
CHARGE=1+
COMPOUNDNAME=Massbank: Spectinomycin
LIBRARYQUALITY=3
SMILES=[H]C([H])([H])N([H])C([H])(C([H])(O[H])1)C([H])(O[H])C([H])(O2)C([H])(OC(O[H])(C(=O)3)C([H])(OC([H])(C([H])([H])[H])C([H])([H])3)2)C([H])(N([H])C([H])([H])[H])1
INCHIKEY=UNFWWIHTNXNPBV-UHFFFAOYSA-N
INCHI=1S/C14H24N2O7/c1-5-4-6(17)14(20)13(21-5)22-12-10(19)7(15-2)9(18)8(16-3)11(12)23-14/h5,7-13,15-16,18-20H,4H2,1-3H3
MSLEVEL=2
SOURCE_INSTRUMENT=ESI-LC-ESI-QTOF
FILENAME=Massbank_ESI_positive_8_1_2014_peaks.mgf
SEQ=*..*
IONMODE=Positive
ORGANISM=MASSBANK
NAME=Massbank: Spectinomycin [M+H]+
PI=Putative Massbank Match
DATACOLLECTOR=Massbank
PUBMED=N/A
SUBMITUSER=mwang87
TAGS=
SPECTRUMID=CCMSLIB00000206376
SCANS=1635
53.0399 1033.521 
55.0181 511.591 
55.0539 961.779 
56.0501 1414.474 
57.0341 2620.927 
57.0628 157.456 
58.0288 767.231 
58.0653 1499.06 
59.0368 1661.341 
60.0445 263.127 
65.0386 505.326 
67.0511 1239.348 
68.0493 2294.799 
68.9965 274.655 
69.0338 4263.784 
70.0654 9432.957 
71.0125 226.347 
71.0495 4505.013 
72.0448 9219.925 
73.0234 553.885 
73.051 3108.083 
74.0608 4338.972 
77.04 348.997 
78.0357 183.02 
79.0509 314.223 
80.0499 757.206 
81.0343 5645.363 
81.0675 171.115 
82.0657 3944.236 
83.0128 354.95 
83.0502 1893.797 
83.0822 111.873 
84.0447 2902.256 
84.0826 1148.183 
85.0381 3142.231 
85.0834 124.624 
86.0605 3405.388 
87.0085 1510.965 
87.0447 327.381 
88.0765 349.937 
91.0529 153.603 
92.0491 136.623 
93.0581 839.912 
94.0656 10000.0 
95.0117 239.411 
95.055 720.238 
96.0455 1523.81 
96.0829 640.351 
97.0453 1718.045 
98.0608 6629.073 
99.0459 2991.855 
99.0772 226.786 
100.0397 1020.99 
100.0767 810.15 
101.0463 200.345 
102.055 784.461 
106.067 173.434 
107.0732 199.342 
108.0792 303.916 
109.0295 1206.454 
109.0701 253.195 
110.0602 4163.534 
111.0604 1816.729 
112.0386 2888.784 
112.0776 2903.195 
113.0248 1117.794 
114.0565 629.699 
115.0593 105.702 
116.0705 438.283 
122.0604 2473.058 
123.0776 714.286 
124.0374 128.822 
124.0766 474.937 
125.0286 166.134 
125.1054 137.187 
126.0554 531.015 
127.0406 166.667 
128.0606 337.093 
129.0548 513.471 
135.0923 411.341 
138.0621 301.441 
139.0626 220.52 
140.069 594.298 
154.084 121.773 
END IONS

