BEGIN IONS
PEPMASS=319.119
CHARGE=1+
COMPOUNDNAME=Mycophenolic Acid
LIBRARYQUALITY=3
SMILES=N/A
INCHIKEY=HPNSFSBZBAHARI-RUDMXATFSA-N
INCHI=InChI=1S/C17H20O6/c1-9(5-7-13(18)19)4-6-11-15(20)14-12(8-23-17(14)21)10(2)16(11)22-3/h4,20H,5-8H2,1-3H3,(H,18,19)/b9-4+
MSLEVEL=2
SOURCE_INSTRUMENT=N/A-ESI-QFT
FILENAME=library_mgf.mgf
SEQ=*..*
IONMODE=negative
ORGANISM=MONA
NAME=Mycophenolic Acid [M-H]-
PI=MoNA
DATACOLLECTOR=MoNA:VF-NPL-QEHF004792
PUBMED=N/A
SUBMITUSER=mwang87
TAGS=
SPECTRUMID=CCMSLIB00004695855
SCANS=4792
50.208576 0.018801 
51.006046 0.018199 
51.274487 0.017635 
52.026646 0.02278 
53.089428 0.022297 
54.27375 0.018515 
54.360134 0.017727 
54.436775 0.021384 
55.172401 0.015757 
55.867081 0.019801 
56.458481 0.018164 
56.650951 0.020881 
56.847672 0.018414 
57.112297 0.022967 
57.806751 0.020116 
58.036396 0.018539 
59.012482 0.583094 
59.668465 0.01995 
59.990028 0.019214 
60.424583 0.021887 
60.665848 0.017287 
60.685711 0.018294 
61.991955 0.018214 
62.043648 0.020075 
62.714066 0.02152 
62.922115 0.017502 
63.358181 0.017336 
63.827541 0.015222 
63.904366 0.021888 
64.341263 0.022523 
64.880409 0.021222 
65.610352 0.018862 
65.739357 0.017259 
66.026634 0.022651 
69.453087 0.018421 
69.643562 0.022777 
70.046974 0.023195 
70.7547 0.018794 
71.463844 0.021093 
71.690788 0.021067 
71.832108 0.020579 
72.908218 0.021127 
73.028107 1.272622 
74.109756 0.022956 
75.207634 0.022503 
75.617165 0.023096 
75.661705 0.019398 
75.809647 0.016496 
76.105331 0.018651 
76.876717 0.020564 
77.280937 0.022362 
78.812065 0.019964 
78.987556 0.023893 
79.475418 0.01981 
79.766258 0.019229 
80.731346 0.021036 
80.963699 0.018116 
81.089745 0.018899 
81.435829 0.019025 
81.583153 0.019078 
82.239937 0.020838 
83.550697 0.020581 
84.251602 0.018835 
85.027527 0.021769 
85.310364 0.021731 
85.47126 0.019853 
86.334663 0.022279 
88.584572 0.021267 
88.730682 0.018341 
89.55088 0.020358 
89.664352 0.024442 
90.588829 0.021579 
90.613754 0.018627 
90.708054 0.022592 
90.830444 0.018469 
91.016289 0.016451 
91.088997 0.020146 
94.080612 0.016191 
94.253403 0.019498 
94.356743 0.022705 
94.746597 0.0197 
95.048973 3.421782 
95.126633 0.019455 
95.304123 0.026899 
97.15062 0.018554 
98.939995 0.020967 
99.746948 0.02093 
100.836853 0.018894 
103.823402 0.022685 
103.922981 0.021253 
104.826874 0.018839 
106.667122 0.022249 
106.684135 0.020122 
107.049004 0.357008 
108.957413 0.02312 
110.226158 0.019829 
110.333641 0.020079 
111.228355 0.036235 
112.798271 0.020891 
113.059685 0.019143 
114.820786 0.020288 
118.774521 0.019897 
120.068794 0.021048 
120.209862 0.017239 
121.064697 0.30022 
124.494713 0.019388 
126.679596 0.025806 
128.58873 0.021513 
130.132965 0.022008 
130.505173 0.021278 
131.481186 0.027562 
132.874908 0.021993 
134.220032 0.021068 
135.044067 1.932971 
135.360809 0.024531 
135.462372 0.022587 
136.046906 0.025781 
137.023132 0.129203 
137.059738 0.412209 
137.141708 0.020461 
137.662292 0.020153 
137.847992 0.018027 
137.915771 0.0213 
138.128281 0.018909 
143.650375 0.020405 
145.326874 0.019225 
145.341156 0.021717 
145.872269 0.0224 
145.929825 0.01804 
147.044083 0.247567 
148.051987 1.859872 
149.059799 1.276953 
149.336853 0.020456 
157.15567 0.021363 
160.052032 0.541341 
160.575455 0.018112 
161.05983 1.137876 
161.096268 0.560978 
162.068329 0.021424 
162.526688 0.020595 
163.03923 0.061252 
163.075394 0.114483 
164.046997 1.308487 
166.062622 0.258413 
166.09494 0.021444 
166.255951 0.018299 
166.634247 0.020076 
167.636459 0.017768 
167.656113 0.020663 
168.432693 0.015516 
171.017029 0.021575 
171.08075 0.069442 
171.116943 0.209281 
171.128922 0.017902 
171.995209 0.020916 
173.059998 0.701072 
173.491684 0.021363 
174.067749 0.170847 
174.92485 0.020112 
177.018585 0.512329 
178.026428 1.550465 
178.904144 0.022638 
179.034225 42.540005 
180.03746 3.6178 
180.893814 0.022952 
181.372971 0.018223 
181.575165 0.01769 
181.818558 0.023805 
181.980118 0.018378 
183.080276 0.051655 
184.088821 0.13992 
185.929932 0.027128 
186.32814 0.023073 
187.075699 0.681653 
188.083618 0.373726 
189.091476 1.54047 
190.343765 0.017856 
191.034332 99.738663 
191.297684 0.024837 
191.636368 0.021146 
192.042526 44.506489 
192.818451 0.019491 
193.029602 0.018423 
193.04512 4.033972 
193.212616 0.021518 
195.133575 0.02273 
197.096542 0.283503 
197.642883 0.022644 
198.104279 0.192127 
198.275696 0.023487 
199.112305 7.732338 
200.115753 0.862494 
201.055206 0.175976 
201.091446 1.464327 
202.686172 0.018359 
203.034363 2.845243 
204.010361 0.024136 
204.04216 0.966503 
205.05014 25.139605 
206.053375 2.522759 
207.065857 21.849857 
208.069229 2.506046 
212.675079 0.020362 
214.789017 0.023304 
215.073105 0.547941 
215.085434 1.229858 
215.107361 6.524964 
215.325943 0.027357 
216.11467 1.846225 
217.086075 0.028623 
219.065445 0.030174 
224.032257 3.095805 
224.550293 0.025412 
225.080734 0.019497 
225.091705 1.597396 
226.097397 0.021644 
226.937332 0.02544 
227.071411 0.125022 
228.078781 0.231101 
229.051254 0.026354 
231.066116 2.093276 
231.138794 0.520717 
232.073868 2.005722 
232.085983 0.019039 
233.081665 7.199932 
234.085144 0.627023 
234.358566 0.021286 
235.019577 0.024075 
239.649567 0.024096 
239.679214 0.01921 
241.086655 0.509148 
242.094284 0.98746 
242.353195 0.021645 
243.05368 0.018943 
243.066193 2.34407 
243.102509 15.99616 
244.07135 0.035155 
244.105804 2.508598 
245.081894 8.635497 
246.062134 0.022819 
246.085312 1.034516 
246.252335 0.020263 
247.097153 0.904722 
247.133698 0.080901 
248.340164 0.019948 
251.519638 0.022744 
254.900803 0.024353 
255.572906 0.018902 
257.08194 0.021956 
257.118561 0.051241 
259.097443 2.399823 
260.084564 0.01919 
260.104095 0.599353 
261.761658 0.024835 
267.63147 0.022051 
269.082092 7.182685 
270.085419 0.997242 
273.851501 0.023447 
275.128937 66.345551 
275.582245 0.018938 
276.132294 11.302898 
277.134491 0.405779 
279.975555 0.02287 
285.076935 1.928135 
286.08255 0.211443 
287.09256 41.382103 
288.096008 7.0772 
289.098541 0.155575 
291.123932 0.359753 
293.859528 0.023311 
296.977539 0.02681 
298.690674 0.021236 
298.906403 0.020865 
301.108063 1.879425 
302.112366 0.054486 
302.904724 0.022975 
316.301453 0.023092 
319.118683 100.0 
320.122131 18.548382 
320.153809 0.028163 
321.124603 1.461505 
321.208771 0.030735 
328.760895 0.020748 
330.211029 0.023581 
339.527649 0.023791 
340.857452 0.022283 
END IONS

