BEGIN IONS
PEPMASS=193.13
CHARGE=1+
COMPOUNDNAME=Citrulline
LIBRARYQUALITY=3
SMILES=N/A
INCHIKEY=RHGKLRLOHDJJDR-BYPYZUCNSA-N
INCHI=InChI=1S/C6H13N3O3/c7-4(5(10)11)2-1-3-9-6(8)12/h4H,1-3,7H2,(H,10,11)(H3,8,9,12)/t4-/m0/s1
MSLEVEL=2
SOURCE_INSTRUMENT=N/A-ESI-QFT
FILENAME=library_mgf.mgf
SEQ=*..*
IONMODE=positive
ORGANISM=MONA
NAME=Citrulline [M+NH4]+
PI=MoNA
DATACOLLECTOR=MoNA:VF-NPL-QEHF026477
PUBMED=N/A
SUBMITUSER=mwang87
TAGS=
SPECTRUMID=CCMSLIB00004718030
SCANS=26477
50.218895 0.011656 
50.428413 0.019392 
50.539303 0.02279 
50.560635 0.032826 
50.565231 0.018827 
51.086403 0.009066 
51.127823 0.024355 
51.217781 0.016348 
51.584641 0.015034 
51.940315 0.011839 
52.279118 0.010463 
53.54842 0.017295 
53.834175 0.025401 
54.187344 0.026306 
54.402176 0.025649 
54.860386 0.01212 
55.052097 0.021962 
56.561504 0.013415 
56.889095 0.013593 
57.050251 0.015773 
57.849312 0.025284 
57.935089 4.087226 
58.137352 0.018574 
58.473938 0.024057 
58.63726 0.029761 
58.743168 0.009734 
59.00507 0.009865 
59.321857 0.026285 
59.704659 0.020362 
60.156059 0.011112 
61.010902 42.480511 
62.018707 0.301044 
62.397984 0.02352 
62.962883 0.010031 
63.006615 0.008697 
63.111759 0.021916 
63.164665 0.032241 
63.168312 0.02657 
63.338253 0.014045 
64.124382 0.023319 
64.146881 0.021332 
64.427467 0.021961 
64.793449 0.019292 
65.186966 0.018821 
65.564217 0.022864 
66.586128 0.022497 
67.190369 0.028352 
67.931419 0.01597 
69.362572 0.019391 
69.526405 0.014089 
70.721252 0.017788 
70.957993 0.471312 
71.414528 0.015945 
71.973137 0.013188 
72.937103 0.06078 
72.958321 1.437542 
73.587433 0.021062 
73.92981 0.023069 
74.503922 0.028736 
74.937752 0.061705 
75.257507 0.018791 
75.398239 0.015991 
75.945396 6.189592 
76.733932 0.009325 
76.967934 0.017678 
77.380737 0.023015 
77.391785 0.019396 
77.431206 0.015818 
77.556602 0.02283 
77.581673 0.017396 
77.912369 0.020118 
79.021049 0.034763 
79.223686 0.017704 
79.867325 0.015427 
80.590759 0.016547 
80.954414 0.016456 
81.252274 0.019947 
81.422203 0.013914 
83.052353 0.013508 
83.806396 0.01359 
84.174721 0.011257 
84.937553 0.027552 
84.959839 0.016199 
85.216553 0.014183 
85.966057 0.055648 
86.744011 0.023865 
87.785988 0.014099 
87.945412 0.19466 
89.059708 0.415865 
89.356812 0.017475 
90.144371 0.020785 
90.362083 0.014096 
90.569641 0.013995 
90.706238 0.014309 
90.715492 0.013598 
90.773476 0.022161 
90.968918 0.032905 
91.054131 0.020826 
91.326363 0.016874 
93.617813 0.019933 
93.739433 0.01423 
93.956009 2.23689 
93.99633 0.016684 
94.32943 0.015862 
94.656075 0.018031 
95.085342 0.051079 
96.994186 0.018264 
97.042931 0.015505 
97.651466 0.011853 
98.975342 0.036076 
100.075584 0.031826 
100.551041 0.026503 
100.720345 0.021467 
101.00856 0.092414 
101.940514 0.015092 
102.521523 0.02183 
102.671982 0.021178 
102.876358 0.021194 
102.914764 2.022926 
103.196434 0.023277 
103.976738 0.232486 
104.011757 0.01596 
104.334846 0.011054 
104.345078 0.010395 
104.930466 7.598848 
105.955917 0.928638 
106.794525 0.016334 
107.085411 0.014489 
107.176521 0.022122 
108.41198 0.032032 
109.424507 0.025594 
112.143845 0.022583 
113.950867 0.014665 
115.116035 0.014522 
116.398087 0.01624 
116.948402 0.037292 
117.062378 0.014339 
117.955986 0.324433 
119.00119 0.295515 
119.019066 0.357614 
119.049217 3.850036 
119.917534 0.109131 
120.052711 0.1191 
120.533104 0.017485 
120.925377 0.717989 
120.940613 0.03674 
122.511826 0.016363 
122.940979 23.275509 
123.949028 0.044451 
124.42318 0.022583 
124.920418 0.016277 
126.184715 0.026602 
126.510139 0.020415 
129.770981 0.021887 
131.96138 0.80387 
131.966644 0.013389 
132.936584 0.967341 
132.958313 1.010201 
133.948364 0.052095 
134.940903 1.178541 
134.95871 13.155375 
134.967621 0.022221 
135.116547 0.015881 
135.343887 0.022869 
135.458633 0.026195 
135.928772 0.017942 
135.948868 1.877534 
135.966644 5.34286 
136.956726 3.367402 
136.962204 0.042602 
137.011871 1.68614 
137.152206 0.010092 
137.477097 0.021975 
137.928131 8.083497 
138.39856 0.027961 
138.935959 0.765028 
139.762527 0.020095 
139.807678 0.022085 
140.951599 0.544525 
145.988281 0.11509 
146.941055 0.010416 
147.974869 0.342243 
148.971909 3.689397 
149.961258 0.031298 
149.972092 0.110208 
150.972519 5.62805 
151.943573 0.023534 
152.951599 42.09058 
152.969284 12.048738 
153.054901 0.013139 
153.959335 100.0 
155.022202 0.028256 
155.674713 0.025747 
155.735916 0.017683 
156.946274 0.084256 
161.011932 1.200734 
162.947113 0.310268 
163.876358 0.018256 
163.954865 0.253257 
163.99881 1.895481 
164.005646 0.021083 
164.015945 0.014744 
164.951721 1.457239 
164.999603 0.033584 
166.967377 0.138947 
166.982803 0.201474 
167.938629 1.203415 
167.956497 0.371526 
167.975082 0.605044 
168.98291 7.011224 
169.917816 0.100223 
170.962082 6.100078 
170.979782 0.57283 
173.231827 0.02423 
174.355515 0.021573 
176.573212 0.014623 
176.941742 0.035248 
176.974487 0.030275 
177.938187 0.219246 
178.978485 0.518597 
179.022415 5.529779 
179.336578 0.02078 
179.938538 1.43251 
180.023651 0.515689 
180.841858 0.016398 
181.019745 0.381938 
182.962051 0.505569 
185.949173 13.021529 
190.789932 0.021625 
191.309677 0.020573 
192.138336 0.681661 
192.174728 0.035046 
193.906113 0.020949 
194.128571 0.049855 
194.154083 2.592251 
194.952805 0.042736 
194.962067 2.002946 
195.617752 0.026459 
195.948547 0.070412 
197.032974 0.201611 
197.23027 0.015392 
197.491974 0.021109 
197.949219 1.902364 
198.93364 0.018884 
199.788086 0.025529 
204.436768 0.02369 
207.705688 0.020484 
208.259979 0.01579 
209.405045 0.02063 
211.16832 0.026246 
212.26326 0.030445 
212.534119 0.030686 
212.972504 1.871945 
213.784988 0.019681 
END IONS

