BEGIN IONS
PEPMASS=1034.55
CHARGE=1+
COMPOUNDNAME=Tomatine
LIBRARYQUALITY=3
SMILES=N/A
INCHIKEY=REJLGAUYTKNVJM-SGXCCWNXSA-N
INCHI=InChI=1S/C50H83NO21/c1-20-7-12-50(51-15-20)21(2)32-28(72-50)14-26-24-6-5-22-13-23(8-10-48(22,3)25(24)9-11-49(26,32)4)65-45-40(63)37(60)41(31(18-54)68-45)69-47-43(71-46-39(62)36(59)34(57)29(16-52)66-46)42(35(58)30(17-53)67-47)70-44-38(61)33(56)27(55)19-64-44/h20-47,51-63H,5-19H2,1-4H3/t20-,21-,22-,23-,24+,25-,26-,27+,28-,29+,30+,31+,32-,33-,34+,35+,36-,37+,38+,39+,40+,41-,42-,43+,44-,45+,46-,47-,48-,49-,50-/m0/s1
MSLEVEL=2
SOURCE_INSTRUMENT=N/A-ESI-QFT
FILENAME=library_mgf.mgf
SEQ=*..*
IONMODE=positive
ORGANISM=MONA
NAME=Tomatine [M+H]+
PI=MoNA
DATACOLLECTOR=MoNA:VF-NPL-QEHF026705
PUBMED=N/A
SUBMITUSER=mwang87
TAGS=
SPECTRUMID=CCMSLIB00004719699
SCANS=26705
71.897057 0.180298 
72.339973 0.141117 
72.507393 0.083113 
72.829124 0.20308 
73.028465 45.559841 
74.18734 0.102542 
74.433159 0.178464 
75.575386 0.115644 
77.033951 0.164865 
78.008064 0.138299 
78.323494 0.18249 
78.604149 0.131515 
79.054253 5.857461 
80.049675 0.409756 
81.033524 9.097625 
81.069946 9.590614 
82.065254 0.085361 
83.0131 0.208887 
83.085602 0.781571 
84.080688 0.19403 
84.31237 0.090607 
85.028465 100.0 
86.031853 1.555148 
86.096664 0.176182 
86.270721 0.141887 
86.494904 0.160507 
86.500992 0.191661 
87.044106 5.046843 
88.641846 0.146676 
89.795555 0.160686 
89.883423 0.120639 
91.039024 10.875618 
91.054253 6.125394 
93.069931 6.957989 
93.478935 0.105389 
95.049271 0.418775 
95.085548 8.364486 
96.08078 1.783856 
97.028481 60.45052 
97.06498 0.143028 
97.091156 0.090933 
97.898781 0.212508 
98.031723 1.094223 
98.096352 1.196479 
99.044128 7.87414 
99.047394 0.093546 
99.182137 0.093741 
101.023193 0.265948 
103.038986 1.122533 
103.872269 0.135356 
105.066475 0.0806 
105.069977 13.205634 
105.783661 0.079917 
107.085518 10.676681 
109.028435 12.073424 
109.101189 8.456206 
110.041039 0.157685 
110.304314 0.130707 
114.091377 10.743699 
115.039024 21.554565 
116.813316 0.160285 
117.069862 1.434534 
118.107574 0.160231 
119.085548 8.769801 
120.393257 0.151759 
121.101212 4.567211 
121.22303 0.129951 
123.116707 0.806609 
124.112198 24.355482 
125.115417 0.164341 
126.127762 38.918079 
126.132828 0.18433 
126.278175 0.120936 
127.039024 33.713867 
127.111893 0.814849 
127.13121 0.854744 
128.037048 0.101209 
128.042526 0.337835 
131.085556 4.688857 
131.485291 0.107544 
133.0495 1.423069 
133.101242 9.057691 
133.982834 0.139463 
134.416901 0.155521 
135.11676 3.82535 
135.525894 0.205683 
137.597565 0.14298 
138.325882 0.159817 
139.038818 0.202725 
139.099182 0.21353 
141.195053 0.128125 
143.085754 0.55948 
143.477509 0.145422 
145.049637 22.238176 
145.101257 14.78161 
145.278854 0.14667 
146.104401 0.172488 
147.116821 24.335825 
148.120163 0.948424 
148.503464 0.172563 
149.132568 1.442194 
150.127716 0.139058 
151.111664 0.427424 
155.447495 0.092932 
155.995178 0.139781 
157.101166 1.967344 
157.442673 0.206444 
159.116959 15.115415 
160.120346 0.103656 
161.132523 47.857334 
161.540588 0.1135 
162.135712 2.480716 
163.060287 0.364719 
164.143539 0.645834 
165.149734 0.138167 
169.336502 0.179014 
169.869675 0.16452 
171.116959 0.496569 
173.132584 11.273316 
173.185867 0.104962 
177.126328 0.135667 
184.26178 0.097895 
185.132736 1.606812 
185.207443 0.19373 
185.217468 0.207367 
187.147964 0.736484 
188.95433 0.140957 
197.560516 0.138381 
199.147964 1.926318 
201.591629 0.147715 
202.070328 0.11645 
204.603485 0.144652 
207.67981 0.176821 
210.406036 0.128533 
211.269211 0.176117 
213.164001 0.327072 
215.179108 0.349314 
216.078278 0.155797 
217.111465 0.096279 
223.435471 0.114938 
227.491867 0.160332 
233.094742 0.154522 
237.16507 0.191873 
241.070404 0.176469 
248.317505 0.07622 
248.45224 0.139589 
251.512772 0.214214 
253.19519 1.553276 
253.88681 0.150057 
254.197998 0.127264 
254.755768 0.132663 
254.905731 0.136744 
255.210754 30.568905 
256.213928 3.069478 
259.856384 0.123263 
273.221527 2.325848 
274.348328 0.201099 
278.878082 0.195293 
279.209412 0.169587 
285.621674 0.145648 
295.370911 0.140561 
300.263092 0.093415 
311.632996 0.153355 
314.326813 0.143504 
325.09259 0.137951 
329.908966 0.183043 
340.326569 0.154667 
341.244385 0.156644 
343.079315 0.128355 
345.10614 0.130049 
345.65625 0.135728 
350.88678 0.165832 
351.611359 0.082904 
351.682587 0.152407 
372.839569 0.156558 
372.984558 0.159071 
380.330475 3.904749 
381.335266 0.162065 
387.821136 0.100492 
388.556732 0.153452 
398.341217 5.705094 
399.343445 0.587377 
407.355194 0.182132 
413.639252 0.151806 
416.351562 0.67229 
446.698029 0.139159 
447.897247 0.149634 
453.90741 0.147492 
454.162018 0.129234 
458.710724 0.078131 
463.758179 0.132619 
473.131683 0.208157 
483.034393 0.09506 
521.763916 0.171788 
527.5401 0.226378 
541.6427 0.168701 
543.586792 0.113031 
544.584961 0.075092 
560.393738 5.361909 
561.08844 0.123281 
561.396851 0.341418 
563.746521 0.200143 
583.012024 0.152028 
598.49231 0.17474 
598.552673 0.155785 
619.895935 0.15108 
650.472534 0.215089 
659.099609 0.15285 
683.068604 0.134582 
690.352539 0.107111 
707.749756 0.303759 
707.812195 0.609809 
747.139099 0.183124 
763.597717 0.182538 
806.373291 0.150239 
806.975403 0.188179 
808.110718 0.182289 
811.459717 0.162087 
817.766296 0.177175 
819.753967 0.153897 
822.403503 0.199836 
854.487 2.205142 
855.485413 0.400359 
858.261108 0.172158 
870.789368 0.172949 
884.496399 1.750822 
885.171692 0.148247 
908.221069 0.14786 
945.809265 0.142144 
986.225647 0.210018 
990.424744 0.118588 
1002.268982 0.254762 
1014.525574 1.344824 
1015.519348 0.163183 
1016.541382 49.593624 
1017.546143 24.758358 
1018.544678 1.553899 
1020.731079 0.168457 
1033.526001 0.169609 
1034.54895 7.922108 
1035.553589 2.65936 
1055.212769 0.166775 
1063.416504 0.143765 
END IONS

