BEGIN IONS
PEPMASS=251.091
CHARGE=1+
COMPOUNDNAME=Citrinin
LIBRARYQUALITY=3
SMILES=N/A
INCHIKEY=CQIUKKVOEOPUDV-IYSWYEEDSA-N
INCHI=InChI=1S/C13H14O5/c1-5-7(3)18-4-8-9(5)6(2)11(14)10(12(8)15)13(16)17/h4-5,7,15H,1-3H3,(H,16,17)/t5-,7-/m1/s1
MSLEVEL=2
SOURCE_INSTRUMENT=N/A-ESI-QFT
FILENAME=library_mgf.mgf
SEQ=*..*
IONMODE=positive
ORGANISM=MONA
NAME=Citrinin [M+H]+
PI=MoNA
DATACOLLECTOR=MoNA:VF-NPL-QEHF027291
PUBMED=N/A
SUBMITUSER=mwang87
TAGS=
SPECTRUMID=CCMSLIB00004720872
SCANS=27291
50.438583 0.009332 
51.100769 0.054207 
51.876438 0.061828 
51.898102 0.018084 
52.478409 0.010307 
53.038895 0.111814 
53.129803 0.009556 
53.215294 0.040912 
53.53759 0.047619 
53.555294 0.030461 
54.940159 0.00881 
55.018066 0.55551 
55.054485 0.391959 
55.510448 0.057122 
56.025822 0.016582 
56.460167 0.011965 
56.600571 0.011971 
56.849236 0.034346 
56.965076 0.055247 
57.033691 0.831128 
57.700996 0.024409 
58.553932 0.020007 
58.67717 0.07273 
59.049377 0.018467 
59.337994 0.007937 
59.540524 0.024857 
59.835197 0.034478 
60.52417 0.008268 
60.541386 0.071281 
60.570683 0.009325 
61.01075 0.021024 
61.61306 0.009182 
61.855328 0.011922 
62.018589 0.089118 
62.553047 0.053667 
63.411674 0.014579 
63.831608 0.020789 
64.053459 0.046937 
64.195091 0.053179 
64.731781 0.008756 
64.864037 0.028607 
65.002251 0.016528 
65.038689 0.173345 
65.769142 0.009555 
65.835739 0.014936 
66.095634 0.01704 
66.698471 0.02563 
66.848824 0.05149 
67.017822 0.02055 
67.054298 2.723896 
67.270111 0.04936 
67.81459 0.057112 
68.05751 0.055775 
68.087067 0.063853 
68.150391 0.055398 
68.555496 0.036741 
68.763161 0.031328 
68.997116 1.744197 
69.033501 0.486967 
70.065147 0.023745 
70.286041 0.009948 
71.78875 0.018181 
71.859039 0.011861 
73.915962 0.046463 
76.581551 0.033598 
77.038727 0.150599 
77.452141 0.057181 
77.457474 0.031939 
77.488281 0.04922 
77.536003 0.009405 
77.832405 0.04624 
77.874535 0.010091 
78.068336 0.008411 
78.33094 0.048407 
78.451195 0.052713 
79.017738 0.010522 
79.021103 0.057711 
79.054214 2.919803 
80.579575 0.050137 
80.67701 0.055408 
81.069771 0.573187 
81.352356 0.047032 
82.175316 0.028056 
82.177711 0.008792 
83.012665 0.78252 
83.049141 0.173869 
83.475182 0.032137 
85.999489 0.011001 
86.02475 0.052613 
86.845398 0.031634 
88.253098 0.063427 
89.439011 0.040766 
89.773186 0.017195 
90.607841 0.02242 
91.054184 13.075978 
92.057487 0.303987 
92.774193 0.010495 
93.033463 0.037966 
93.069855 3.417533 
94.073257 0.038334 
94.676018 0.031969 
94.861481 0.020436 
95.049126 0.9046 
95.085487 9.983348 
95.571274 0.033778 
95.810822 0.049242 
96.088745 0.298706 
97.028107 0.05086 
97.810982 0.008287 
98.027504 0.009505 
99.37368 0.074699 
102.798935 0.016983 
103.054199 0.489278 
103.259407 0.021951 
105.069885 4.227261 
105.238853 0.007809 
106.073181 0.081607 
106.077682 0.059479 
107.012749 3.354885 
107.049103 8.200345 
107.085472 6.681526 
107.138176 0.008448 
108.052345 0.214442 
108.088623 0.261785 
109.028412 0.060256 
109.06469 1.694783 
109.101067 2.326179 
109.517029 0.067983 
111.347725 0.026688 
112.111145 0.009234 
112.275925 0.029493 
114.593727 0.011334 
115.054138 2.143779 
116.057564 0.049865 
116.061897 2.854102 
117.065445 0.014235 
117.069794 2.876422 
117.671181 0.009043 
118.717079 0.021929 
118.983025 0.052665 
119.04911 1.031179 
119.060242 0.053251 
119.085526 22.893654 
119.852394 0.033678 
120.056747 0.042747 
120.088806 1.9911 
121.028214 0.032253 
121.064781 3.355746 
121.101105 1.172545 
122.068161 0.020173 
122.072525 0.30996 
122.093277 0.056733 
122.904266 0.008894 
123.044228 0.116385 
123.08036 7.585329 
123.342148 0.008193 
124.08374 0.309788 
124.327698 0.01259 
125.499352 0.013292 
128.061905 1.482183 
128.401947 0.019007 
128.966583 0.061671 
129.069748 2.304078 
130.071472 0.013815 
130.364883 0.055893 
131.04895 0.29122 
131.08551 11.784987 
131.930679 0.012465 
132.056824 0.264304 
132.088806 0.908451 
132.931503 0.008541 
133.064636 0.929523 
133.100784 0.018763 
133.613876 0.050291 
134.072479 0.48958 
135.043915 2.2399 
135.080383 8.297282 
136.083908 0.372681 
136.787308 0.021348 
137.059662 0.079855 
137.096024 9.413904 
137.278259 0.017188 
138.099274 0.604878 
138.724747 0.052113 
139.021805 0.069549 
141.069748 2.992445 
142.072983 0.022786 
143.085541 0.207406 
144.0569 2.598386 
145.028137 0.375366 
145.064682 1.932794 
145.115921 0.067192 
146.068192 0.084011 
146.072556 0.016843 
146.194916 0.042302 
147.0439 1.090653 
147.080307 23.388399 
148.051865 0.703311 
148.083572 2.189939 
149.023331 0.110603 
149.059677 2.655194 
149.096054 3.655635 
149.10228 0.030615 
150.099167 0.014723 
151.038681 0.042075 
151.305878 0.025329 
152.019989 0.058412 
153.366257 0.009628 
154.989563 0.008805 
155.060501 0.01767 
156.892151 0.010824 
157.064865 0.048032 
158.658218 0.013049 
159.080383 8.945402 
160.083649 0.863177 
161.059525 0.992923 
162.067459 4.228636 
163.038788 3.19085 
163.075424 5.971891 
164.042068 0.011738 
164.078659 0.316753 
165.069778 0.010114 
165.090973 1.536619 
165.661072 0.033173 
167.00058 0.062362 
167.344528 0.032354 
168.075256 0.010288 
169.064621 5.556536 
169.07608 0.394195 
170.067947 0.317299 
171.950516 0.035231 
172.051758 1.422082 
172.229019 0.01877 
172.255234 0.010386 
172.544052 0.011051 
173.059616 0.467941 
174.067856 0.009972 
175.038864 5.244564 
176.047043 0.767085 
177.018158 4.237013 
177.054611 3.491349 
177.090805 3.353327 
178.021164 0.058522 
178.057541 0.056195 
178.094315 0.055829 
180.434723 0.009937 
181.049362 0.552972 
181.085632 1.024972 
183.639923 0.038192 
185.059525 2.317169 
187.07518 8.430361 
188.078598 0.53161 
189.054565 2.986757 
189.090622 0.012281 
190.026016 0.0257 
190.062393 7.047284 
191.033737 2.431975 
191.070145 25.822853 
192.037796 0.061651 
192.073349 2.93085 
195.019714 0.031091 
195.028564 5.825553 
195.065933 0.061195 
196.032471 0.233245 
196.101791 0.062055 
197.059631 0.396061 
197.80542 0.009553 
199.011795 0.010426 
200.046768 0.749171 
203.033752 18.82933 
203.070145 3.605349 
204.041992 5.742023 
204.074051 0.074859 
205.049957 4.231741 
205.085861 60.427006 
206.053116 0.324639 
206.089142 7.770259 
208.195114 0.019057 
209.044205 0.023482 
209.08075 10.045686 
209.091049 0.0579 
210.084091 0.641587 
215.05925 0.118918 
215.07019 19.444683 
216.062988 0.011029 
216.073502 2.492266 
217.049362 0.532748 
217.096237 0.009834 
218.057327 11.262054 
219.060791 1.419783 
219.846176 0.449747 
222.052155 0.421292 
223.09639 0.012851 
229.420258 0.008644 
230.200989 0.051045 
231.065125 1.02045 
233.08078 100.0 
234.084122 14.433153 
235.086502 0.361309 
236.067871 0.699756 
239.757187 0.009336 
239.906937 0.010482 
240.35582 0.055552 
244.198914 0.073522 
244.375122 0.04188 
245.672546 0.009344 
249.075745 0.014099 
249.903076 0.061274 
250.218918 0.010036 
251.091278 8.676429 
251.10582 0.01134 
252.094269 1.168716 
253.979813 0.013058 
254.53035 0.023815 
262.517212 0.059768 
264.140961 0.009083 
265.107452 0.010355 
270.882965 0.018054 
273.583435 0.030684 
END IONS

