BEGIN IONS
PEPMASS=530.272
CHARGE=1+
COMPOUNDNAME=(2E,6E,12E)-18-(2,6-dioxopiperidin-4-yl)-9,11-dihydroxy-8-methoxy-10,12,14-trimethyl-15-oxooctadeca-2,6,12-trienoic acid
LIBRARYQUALITY=3
SMILES=N/A
INCHIKEY=YQDJUXPUIRGKNV-MNOLRWOYSA-N
INCHI=InChI=1S/C27H41NO8/c1-17(21(29)11-9-10-20-15-23(30)28-24(31)16-20)14-18(2)26(34)19(3)27(35)22(36-4)12-7-5-6-8-13-25(32)33/h7-8,12-14,17,19-20,22,26-27,34-35H,5-6,9-11,15-16H2,1-4H3,(H,32,33)(H,28,30,31)/b12-7+,13-8+,18-14+
MSLEVEL=2
SOURCE_INSTRUMENT=N/A-ESI-QFT
FILENAME=library_mgf.mgf
SEQ=*..*
IONMODE=positive
ORGANISM=MONA
NAME=(2E,6E,12E)-18-(2,6-dioxopiperidin-4-yl)-9,11-dihydroxy-8-methoxy-10,12,14-trimethyl-15-oxooctadeca-2,6,12-trienoic acid [M+Na]+
PI=MoNA
DATACOLLECTOR=MoNA:VF-NPL-QEHF001653
PUBMED=N/A
SUBMITUSER=mwang87
TAGS=
SPECTRUMID=CCMSLIB00004692716
SCANS=1653
50.356049 1.835066 
50.358334 8.786271 
50.485588 1.011009 
51.310291 3.470113 
51.738579 1.730678 
51.917122 5.200914 
51.989052 7.273462 
52.498562 3.358578 
52.706963 1.685557 
53.083168 6.823147 
53.817799 5.774338 
54.099167 2.212534 
54.247257 6.660425 
54.26981 2.447807 
54.811508 2.023444 
55.673035 7.495942 
55.741508 6.56788 
55.982086 7.994944 
56.383411 8.887944 
56.667549 5.984401 
56.723053 4.899651 
56.830261 1.561594 
56.894779 0.889427 
57.012688 9.611246 
57.01704 3.45896 
57.049828 2.549003 
57.654324 3.237026 
57.816971 5.525234 
57.868668 2.183369 
58.124184 8.643669 
58.248409 5.550619 
58.26149 8.259425 
58.545216 4.27671 
58.914494 3.552023 
59.047813 9.488937 
59.057026 6.074688 
59.060974 3.918434 
59.127529 2.241834 
59.797642 3.599995 
60.039452 4.324037 
60.592484 1.661752 
60.604748 7.11781 
60.790539 7.435531 
61.307938 1.058375 
61.597595 8.011536 
61.829762 9.199141 
61.841206 5.850417 
61.964317 2.929022 
62.372959 8.76823 
62.617134 0.937362 
64.486 2.502759 
64.784508 2.316407 
65.044342 3.219092 
65.326851 0.780844 
65.362602 2.080313 
65.368195 1.682479 
66.172134 0.707417 
66.966431 1.782764 
67.106995 6.88544 
67.13298 1.617854 
67.167274 1.000985 
67.222946 6.704693 
67.779388 10.257238 
68.728592 7.962865 
69.264351 1.088428 
69.685753 2.174953 
69.966583 2.327264 
70.161774 2.061889 
70.622276 1.781192 
70.836205 1.929774 
70.956429 1.641622 
71.112991 2.211944 
71.196793 0.965357 
71.221115 3.094714 
71.677475 7.453514 
72.219833 2.640456 
72.447281 9.035668 
72.602219 1.657759 
72.921356 6.525037 
73.000343 5.211935 
73.029259 0.892171 
73.669464 0.800909 
74.474747 3.615298 
74.832321 0.763959 
74.917183 3.54823 
75.761055 4.478419 
76.114296 1.022653 
76.377373 3.258932 
76.488968 0.807933 
77.008949 7.87809 
77.340225 6.042009 
78.075752 8.411481 
78.359436 1.814062 
79.054832 5.955952 
79.182152 1.430476 
79.420998 6.514336 
80.597313 1.706819 
80.771759 3.536138 
81.034042 2.717497 
81.27446 3.52069 
81.520859 1.760453 
81.541054 2.664516 
82.093353 1.758552 
82.793114 1.140011 
82.844872 1.954799 
83.297195 1.57095 
84.032372 0.750383 
85.083633 1.588092 
85.223152 4.481177 
85.719093 8.715993 
85.722542 5.414658 
85.730309 6.005192 
86.156662 2.228922 
86.341248 0.730593 
87.454956 2.108253 
87.458504 6.087252 
88.020683 1.582839 
88.14476 1.880628 
88.22068 3.43429 
88.44873 6.398681 
89.279121 2.32472 
90.024803 1.791841 
90.183662 2.738475 
90.758369 8.346773 
90.984329 6.016419 
91.024376 2.671199 
91.054703 7.417573 
91.391159 1.050172 
91.719177 1.730435 
91.836174 5.555237 
92.602097 3.52265 
93.070526 2.589504 
93.560616 2.045273 
94.227882 1.834825 
94.496292 0.957987 
96.69455 2.396984 
97.176758 9.224004 
97.582367 2.10196 
99.029915 1.744995 
99.71611 11.458671 
100.152046 2.25311 
100.184303 0.790069 
101.4123 1.637943 
101.629791 1.726675 
101.70005 9.329494 
102.179832 0.993761 
102.777199 2.05556 
102.798203 1.838813 
102.940002 0.865352 
103.483727 8.538232 
103.48835 8.810811 
105.070381 5.329466 
106.869179 3.252728 
107.034775 5.525327 
107.450256 5.019752 
107.91571 0.82311 
108.587006 3.151964 
109.101372 2.154075 
112.99588 6.36106 
113.711868 3.565009 
113.745735 1.726781 
114.462906 1.788176 
114.898186 3.893834 
114.911926 1.660063 
115.024734 1.964333 
115.649216 10.583454 
116.536629 4.249092 
117.739059 9.001367 
118.358292 1.870729 
118.627403 2.055244 
120.479416 0.956815 
121.823662 1.694235 
122.657494 1.81139 
122.851562 6.610246 
122.991653 3.771134 
123.080589 7.924017 
123.25914 8.903751 
123.342186 4.065438 
123.502617 1.602917 
123.534271 1.030088 
124.977028 2.935689 
125.044762 3.160299 
125.062668 2.758897 
125.275993 4.629325 
126.645454 2.487491 
126.856133 5.806542 
127.507668 0.7657 
129.115204 3.10432 
130.341629 4.65659 
130.402359 3.091916 
131.755981 0.786828 
135.724945 9.120959 
136.849991 10.08036 
137.54985 3.396396 
138.110229 1.546386 
138.123993 2.135835 
139.272049 2.944083 
139.473511 3.746444 
140.233093 1.559809 
141.03952 2.791204 
142.497147 1.767222 
144.955978 1.510347 
145.497177 9.739499 
146.564362 3.988142 
147.080978 1.66531 
149.475616 1.041498 
152.796448 3.555289 
153.039795 34.565372 
153.602493 2.71262 
153.649307 2.292125 
153.75383 1.917801 
154.705353 9.817285 
155.055084 4.505464 
155.811386 8.080884 
157.56076 3.464344 
159.050018 2.644424 
161.044724 15.00945 
163.060562 30.409073 
164.05661 11.241988 
164.195129 3.333322 
165.03978 2.720849 
165.075912 4.116363 
166.576767 3.753384 
167.888031 1.027778 
168.614563 3.741478 
170.673737 3.393049 
170.993668 2.789958 
171.005997 1.993543 
171.050446 12.935002 
171.316147 3.890298 
171.333176 3.089311 
172.218018 1.482682 
173.066269 2.873991 
173.08046 8.425377 
175.060333 2.307524 
175.729187 1.786519 
176.714203 0.983655 
177.039825 1.916231 
177.555695 2.406457 
178.008377 2.040186 
178.228119 5.084824 
179.055313 100.0 
181.070969 85.94059 
182.073654 1.694694 
182.460495 2.114456 
183.133469 1.868899 
184.33963 6.106855 
186.380188 1.625966 
187.451736 3.556807 
189.039169 5.173812 
193.071045 29.27762 
193.83046 9.038739 
195.086792 23.89753 
196.082458 1.934131 
196.266815 3.794723 
197.065689 32.60479 
197.957764 4.029105 
198.351395 4.292383 
199.081528 17.744789 
200.06189 1.884199 
201.148102 3.388471 
202.704681 2.038854 
203.65332 3.291924 
203.82634 3.324783 
205.490829 1.945825 
206.599304 8.959857 
206.852982 2.942051 
207.050247 43.300129 
207.350555 2.456709 
207.605392 2.312522 
207.695724 1.57454 
208.052444 2.272831 
208.86496 10.001296 
210.864136 8.952525 
211.080811 4.36891 
213.096512 3.902669 
215.881531 0.900483 
218.628418 2.4511 
220.30455 62.673183 
220.32373 2.377725 
221.451782 2.27829 
221.977829 1.869774 
225.328476 1.951892 
228.752792 9.827908 
229.060928 1.067889 
229.499557 4.001576 
232.082443 2.069137 
232.465485 1.95671 
234.096924 6.79268 
235.079239 1.946443 
236.738815 2.032252 
237.991592 5.898995 
240.072388 5.161554 
240.916916 1.996533 
241.121307 1.550103 
243.048538 7.576176 
243.115723 1.062801 
248.026718 3.895822 
250.287537 2.132164 
252.107712 4.216972 
253.029709 3.042588 
253.151596 1.207136 
254.139679 4.158892 
256.678192 1.784211 
260.441925 2.256196 
261.024414 6.133285 
263.944122 10.15727 
264.344666 4.857476 
265.690948 10.673527 
266.521515 2.043466 
270.623047 7.304358 
270.848511 2.773651 
271.526733 4.044377 
272.278809 8.931145 
273.223694 2.793925 
273.843414 1.660114 
274.09256 2.576924 
274.569855 3.776902 
274.787811 1.871216 
277.325745 1.891833 
278.965668 6.450126 
283.915955 2.674761 
287.357819 2.72612 
290.505249 9.529504 
291.134674 5.913259 
291.620911 3.763145 
292.088593 3.995186 
296.148987 1.617134 
298.776581 3.950962 
301.001862 1.677934 
308.136292 3.242429 
313.842255 1.783636 
314.160156 5.185245 
314.561676 10.720463 
316.13089 2.02979 
328.160675 1.203744 
330.931824 6.140105 
331.830017 6.936265 
332.169067 8.164371 
332.384033 9.547125 
332.807953 8.62611 
333.173248 2.533581 
333.477661 9.373224 
345.31842 9.671753 
346.95871 2.011054 
349.012299 2.014874 
350.180145 3.351962 
351.94989 2.056626 
353.023163 1.587223 
353.433044 4.169154 
353.567535 2.297416 
358.366058 9.298433 
359.784882 3.125721 
361.140198 3.299751 
361.945129 2.192483 
366.056549 5.612575 
399.686981 4.406854 
404.046021 2.722822 
414.100708 1.153283 
417.476044 1.238872 
427.161652 5.717714 
431.050964 1.422282 
434.619476 9.511348 
437.180298 7.48522 
444.188477 6.088264 
458.456909 1.960037 
459.357422 4.204911 
460.42865 8.852002 
483.405365 2.422498 
488.722412 3.480881 
508.81308 2.929175 
521.67041 10.384756 
524.666565 9.540898 
534.828491 11.57255 
538.99939 2.227067 
END IONS

