BEGIN IONS
PEPMASS=283.165
CHARGE=1+
COMPOUNDNAME=ANISOMYCIN
LIBRARYQUALITY=3
SMILES=N/A
INCHIKEY=YKJYKKNCCRKFSL-BFHYXJOUSA-N
INCHI=InChI=1S/C14H19NO4/c1-9(16)19-14-12(15-8-13(14)17)7-10-3-5-11(18-2)6-4-10/h3-6,12-15,17H,7-8H2,1-2H3/t12-,13+,14+/m0/s1
MSLEVEL=2
SOURCE_INSTRUMENT=N/A-ESI-QFT
FILENAME=library_mgf.mgf
SEQ=*..*
IONMODE=positive
ORGANISM=MONA
NAME=ANISOMYCIN [M+NH4]+
PI=MoNA
DATACOLLECTOR=MoNA:VF-NPL-QEHF027602
PUBMED=N/A
SUBMITUSER=mwang87
TAGS=
SPECTRUMID=CCMSLIB00004721183
SCANS=27602
50.19067 0.019379 
51.023586 0.022727 
51.072704 0.022033 
51.732296 0.022429 
51.940285 0.011994 
52.556149 0.005776 
52.968887 0.006891 
53.038952 0.071768 
54.042305 0.007824 
55.018169 0.225204 
55.054546 0.099756 
55.577713 0.025978 
56.021557 0.015918 
56.049767 1.389563 
56.274796 0.006972 
56.497879 0.005357 
56.790226 0.005632 
56.965126 0.015865 
57.033791 5.228792 
57.045036 0.026647 
57.053154 0.304435 
57.070164 1.00456 
58.029022 0.043287 
58.037109 1.450465 
58.065411 0.122707 
58.203762 0.004947 
58.944847 0.020752 
59.038029 0.149121 
59.811333 0.020566 
60.044632 6.750165 
60.081024 1.884372 
60.112869 0.005427 
61.010868 1.034969 
61.041649 0.089406 
61.047955 1.108395 
61.676556 0.017878 
62.018707 0.130934 
62.048885 0.163374 
62.068794 0.02412 
62.726681 0.02108 
62.861275 0.004832 
63.006748 0.010493 
63.023735 0.005044 
63.077965 0.00526 
63.556671 0.007437 
63.691525 0.01869 
63.824596 0.027174 
64.816849 0.027338 
65.605698 0.019197 
65.613403 0.00805 
65.940933 0.005354 
67.054337 0.026713 
67.149139 0.020512 
67.470528 0.006438 
68.049622 0.483476 
68.528831 0.026083 
68.893074 0.020401 
69.05294 0.123064 
69.070038 0.063432 
70.065216 2.52271 
70.211891 0.022553 
70.275063 0.005539 
70.520477 0.025348 
71.062309 0.00717 
71.068565 0.746899 
71.080856 0.048728 
71.083565 0.011971 
71.085625 0.491682 
71.172989 0.005673 
72.044479 0.718052 
72.23011 0.007781 
72.466118 0.00728 
72.540291 0.019763 
73.028419 0.017723 
73.047775 0.131809 
73.085281 0.005654 
73.570869 0.022836 
74.060081 0.665503 
74.937119 0.027252 
75.055305 0.115574 
75.063484 0.122111 
76.058868 0.005653 
76.681015 0.023051 
77.038704 0.043759 
77.121262 0.02633 
77.305252 0.023077 
77.471542 0.020882 
77.856194 0.006946 
78.042442 0.0147 
78.046616 0.124388 
79.049965 0.081102 
79.723473 0.005028 
80.049484 0.469534 
81.018623 0.036362 
81.033531 0.12263 
81.052887 0.235283 
81.069946 0.05316 
81.703812 0.006369 
82.39431 0.008616 
82.5998 0.032578 
83.085579 0.035878 
84.044456 0.703582 
84.080849 0.033425 
85.00515 0.006518 
85.039619 0.43735 
85.047798 0.206755 
85.075615 0.008187 
85.101265 0.23337 
86.06012 0.042532 
86.514473 0.023805 
86.608574 0.007531 
87.055336 0.812052 
88.039375 0.021135 
88.058693 0.012477 
89.059547 0.006131 
90.055038 0.040933 
91.054268 1.476871 
91.430367 0.020957 
92.057594 1.031039 
93.069977 0.184214 
93.26342 0.029736 
93.269272 0.026039 
94.026337 0.007684 
94.073196 0.127214 
94.116402 0.007415 
95.049171 0.132139 
95.085609 0.088553 
95.262558 0.032318 
95.548706 0.029188 
95.835732 0.02308 
96.052429 0.031734 
97.101532 0.009818 
98.06012 3.32062 
98.499413 0.024866 
99.055328 0.045308 
99.063438 1.672232 
99.496262 0.008392 
100.039391 0.20319 
100.064087 0.042339 
101.841461 0.007351 
102.054832 0.005452 
102.959045 0.005013 
104.992447 0.035074 
105.044769 0.040499 
105.07 0.056954 
105.446854 0.008661 
106.041451 0.027956 
106.047836 0.008993 
106.065193 0.056164 
106.073402 0.041734 
107.044792 0.030724 
107.049049 0.091578 
108.052505 0.057534 
108.750648 0.025544 
109.060875 0.005076 
109.064827 0.155932 
110.068169 0.109423 
114.409004 0.005901 
115.036636 0.00571 
115.054375 0.00716 
115.406471 0.006716 
115.633842 0.007258 
116.057793 0.057412 
116.070663 0.138484 
116.284996 0.021858 
117.029099 0.026265 
117.065895 0.561309 
117.069824 0.04258 
117.074043 0.039286 
118.065208 0.286144 
118.069176 0.009684 
118.073296 0.035651 
119.049278 0.145413 
119.060577 0.030181 
119.06868 0.277554 
119.085587 0.082198 
120.052734 0.138663 
120.057449 0.00773 
120.071884 0.0097 
120.076263 0.014701 
120.088959 0.038102 
120.7015 0.009293 
121.057037 0.106888 
121.064896 100.0 
121.430191 0.009587 
121.699821 0.012062 
122.068161 97.192863 
122.093239 0.032943 
123.071152 6.586797 
123.080032 0.041303 
123.63176 0.026364 
124.072403 0.285887 
124.083633 0.016319 
124.112907 0.014689 
128.061966 0.024308 
128.384155 0.023003 
129.065247 0.055235 
129.070068 0.056385 
130.073273 0.119659 
131.044495 0.007856 
131.073044 0.100597 
131.864166 0.007181 
132.056946 0.06781 
132.076187 0.124101 
132.088516 0.017322 
133.060135 0.087656 
133.065063 0.087775 
134.059982 0.049041 
134.068176 0.128925 
134.978745 0.357887 
135.003159 0.021813 
135.063232 0.047558 
135.080505 0.499462 
135.740372 0.007088 
135.940918 0.007303 
136.083755 0.48138 
137.059769 0.198779 
137.442795 0.027833 
138.102371 0.027479 
142.073166 0.014265 
144.057098 1.625616 
145.060211 1.591866 
145.065186 2.63609 
145.088623 0.040029 
145.21492 0.026825 
146.068192 4.861068 
146.091995 0.108042 
146.731873 0.006882 
146.974228 0.007244 
147.06839 0.410894 
147.080597 2.691482 
148.071259 0.732615 
148.083725 4.460315 
148.230957 0.005812 
149.073578 0.020666 
149.084915 0.309814 
149.096191 0.703713 
150.091492 1.720688 
150.099503 1.22732 
150.226547 0.007375 
151.075546 0.098328 
151.094742 2.307423 
151.101578 0.065337 
151.132324 0.024957 
151.358734 0.008466 
152.07869 0.152545 
152.09761 0.142242 
152.989319 0.312841 
153.567352 0.025052 
154.464218 0.006945 
155.060699 0.009396 
156.063828 0.00634 
156.080841 0.055566 
157.083466 0.074022 
157.089081 0.121944 
158.092026 0.370004 
159.063675 0.009903 
159.080475 3.513627 
159.095322 0.009339 
159.845306 0.020483 
160.076599 0.157533 
160.083755 6.895052 
160.961685 0.115473 
161.079102 0.304392 
161.08696 0.821316 
161.096115 1.217294 
161.169724 0.00574 
162.091599 0.598564 
162.099518 2.286388 
163.075424 0.271932 
163.094208 0.657344 
163.101471 0.158023 
163.294403 0.025457 
164.078781 0.374401 
164.09581 0.009357 
164.102783 0.291458 
164.487106 0.031622 
164.920975 0.012829 
164.931168 0.0141 
165.007141 0.035409 
165.081238 0.008879 
165.105667 0.007278 
166.085907 0.008305 
167.370972 0.027968 
168.042297 0.008385 
171.080444 0.707013 
171.627716 0.007459 
172.083755 2.201769 
173.083588 0.745426 
173.912735 0.006603 
174.067673 0.021115 
174.086945 1.880122 
175.070908 0.072535 
175.08963 0.118179 
176.102432 0.039078 
177.090942 0.178287 
177.110428 0.076449 
178.09436 0.523377 
179.096985 0.035703 
179.125946 0.052768 
179.954681 0.007885 
180.130447 0.007804 
186.091476 0.123595 
187.094696 0.386156 
188.097443 0.057638 
188.107025 2.661586 
189.091064 0.297968 
189.110474 6.865851 
189.364044 0.005719 
189.510971 0.030413 
190.094482 0.80345 
190.113586 0.944796 
190.746613 0.029596 
191.096054 0.090788 
191.116287 0.006842 
191.450058 0.008237 
192.097656 0.138149 
192.962143 0.557466 
193.970551 0.11357 
194.491226 0.024434 
196.846863 0.005932 
198.854218 0.006826 
199.006241 0.273658 
199.17923 0.006308 
200.214005 0.019932 
200.896149 0.006869 
204.571991 0.026997 
204.951477 0.048716 
206.117661 6.684461 
207.121155 19.985935 
208.111053 0.004919 
208.123886 4.385245 
208.77681 0.019204 
208.956589 0.006868 
209.125946 0.199019 
212.06575 0.030715 
215.579971 0.358158 
216.89119 0.014288 
221.136688 0.007057 
221.929581 0.025024 
222.962265 0.021236 
223.115967 0.006883 
224.128128 1.288611 
224.951752 0.006787 
224.985153 0.006768 
225.131622 4.568898 
225.349792 0.03025 
226.133942 1.139714 
227.135635 0.027255 
230.61908 0.005462 
233.368011 0.005402 
240.232269 0.269267 
250.17775 8.786283 
251.181305 1.330869 
252.158035 0.008448 
252.183731 0.017177 
255.288345 0.020837 
257.939941 0.005867 
261.072327 0.005442 
265.504608 0.005485 
268.074341 0.011223 
274.453491 0.009469 
280.594879 0.021327 
281.158844 1.618819 
281.378479 0.029496 
282.160065 0.531598 
282.203735 0.022844 
282.279236 0.00826 
283.097351 0.057544 
283.262726 0.486677 
284.23819 0.007845 
284.265869 0.013545 
284.331146 8.611931 
285.334503 0.497253 
291.849365 0.006326 
297.91037 0.030259 
307.907806 0.029776 
END IONS

