BEGIN IONS
PEPMASS=356.28
CHARGE=1+
COMPOUNDNAME=Aphidicolin
LIBRARYQUALITY=3
SMILES=N/A
INCHIKEY=NOFOAYPPHIUXJR-APNQCZIXSA-N
INCHI=InChI=1S/C20H34O4/c1-17(11-21)15-4-3-13-9-14-10-19(13,7-8-20(14,24)12-22)18(15,2)6-5-16(17)23/h13-16,21-24H,3-12H2,1-2H3/t13-,14+,15-,16+,17-,18-,19-,20-/m0/s1
MSLEVEL=2
SOURCE_INSTRUMENT=N/A-ESI-QFT
FILENAME=library_mgf.mgf
SEQ=*..*
IONMODE=positive
ORGANISM=MONA
NAME=Aphidicolin [M+NH4]+
PI=MoNA
DATACOLLECTOR=MoNA:VF-NPL-QEHF004577
PUBMED=N/A
SUBMITUSER=mwang87
TAGS=
SPECTRUMID=CCMSLIB00004695640
SCANS=4577
50.451931 0.033769 
51.453171 0.034355 
52.08326 0.025104 
52.28241 0.036547 
52.885849 0.0322 
53.039387 0.019614 
53.58955 0.025286 
54.298332 0.032189 
54.413395 0.0348 
54.995403 0.017714 
55.018639 0.31062 
55.055016 2.706791 
56.050259 0.171406 
56.904598 0.036639 
56.96563 0.240726 
57.03429 0.600737 
57.070683 3.624024 
57.360138 0.038389 
57.669273 0.029406 
58.065891 0.966764 
58.073772 0.037408 
58.793804 0.01819 
59.049908 1.129459 
59.257526 0.037346 
60.421535 0.02919 
60.824207 0.028339 
61.011314 0.874552 
62.019115 0.053909 
62.06081 0.351863 
62.62788 0.027964 
62.990505 0.191428 
63.027042 0.247738 
63.557278 0.028552 
64.048073 0.034074 
65.361526 0.026037 
67.054977 3.427274 
67.838905 0.034774 
68.050125 0.070903 
68.058426 0.064345 
69.034241 0.500263 
69.07061 2.970933 
69.113457 0.033184 
70.065842 2.970698 
70.073914 0.099508 
70.708321 0.026342 
71.049835 0.691718 
71.086266 2.470536 
72.045067 0.856267 
72.081459 0.438536 
72.491631 0.036856 
72.501129 0.018691 
72.706871 0.032695 
73.029114 0.956298 
73.047516 9.594164 
73.054947 0.033737 
73.06543 0.030794 
74.04705 0.331078 
74.050758 0.08986 
74.793648 0.029227 
75.026718 0.224566 
75.044464 0.106111 
75.32505 0.036577 
75.814812 0.03044 
77.042107 0.031703 
77.472916 0.026643 
78.72834 0.031281 
79.021759 1.040931 
79.054916 1.720497 
80.039467 0.024299 
80.050171 0.03878 
80.177246 0.030544 
81.034065 0.207299 
81.070511 4.961303 
81.497353 0.032489 
82.06575 0.297994 
82.073914 0.084317 
83.049744 0.817139 
83.086151 2.355648 
83.819969 0.030097 
84.044907 0.049494 
84.08136 1.186302 
84.516106 0.028444 
84.868477 0.018799 
85.02906 0.067428 
85.040123 0.036198 
85.065338 0.653651 
85.101768 0.607828 
85.454926 0.03512 
85.521614 0.035595 
86.060669 0.210055 
86.096985 0.756271 
87.044662 3.254222 
88.076263 3.094407 
89.06028 2.819841 
90.698776 0.036975 
91.054962 1.328631 
91.057884 20.23975 
92.057503 0.949331 
92.061142 0.462932 
92.983238 0.350406 
93.037201 0.137115 
93.054779 0.330734 
93.070435 2.566477 
93.230438 0.029517 
93.971642 0.030302 
94.065636 0.10249 
95.049606 0.891434 
95.086029 7.207442 
96.044884 0.044361 
96.089348 0.357031 
96.584084 0.030225 
96.698975 0.033518 
97.029419 0.033958 
97.065239 0.659634 
97.101631 1.610971 
97.286598 0.02915 
98.060448 0.11664 
98.096962 0.106414 
99.044556 0.34119 
99.080879 0.958687 
99.94101 0.027494 
100.076103 0.270978 
100.11245 0.254924 
100.286133 0.033465 
101.06012 0.30198 
102.05497 0.042797 
102.091759 1.185052 
102.512619 0.025713 
103.03936 1.102296 
103.075775 0.218206 
105.070236 2.333398 
105.073669 0.392832 
106.073448 0.040636 
106.086685 2.116998 
106.710258 0.025244 
107.0494 2.339589 
107.052826 0.706722 
107.077095 0.03522 
107.085899 2.655254 
107.402618 0.031888 
108.081131 0.598339 
109.065079 0.504522 
109.101555 3.408769 
110.060471 0.162335 
110.096725 0.355844 
110.104828 0.017794 
110.448601 0.031005 
111.044395 0.20493 
111.080734 0.411147 
111.641022 0.026514 
112.039711 0.030458 
112.075966 0.036561 
112.112503 0.031506 
113.023766 0.039108 
113.06002 0.095394 
113.092049 0.034484 
116.034477 0.072257 
116.107147 0.144004 
117.070229 0.310593 
119.049309 0.123774 
119.085838 1.449672 
120.080894 0.080725 
121.028656 0.741446 
121.064972 1.220783 
121.101418 1.383947 
122.060295 0.044617 
122.638725 0.036371 
123.044678 0.041792 
123.080658 0.408176 
123.117096 1.263713 
124.039551 0.080405 
124.112404 0.100974 
125.059982 0.115389 
125.096306 0.850634 
127.111839 0.06516 
128.002182 0.113926 
128.070831 0.040771 
128.107132 0.349702 
128.143173 0.068419 
129.069931 0.073415 
130.04982 0.018761 
130.064911 0.019277 
130.159363 0.039764 
131.04921 0.172185 
131.070694 0.054614 
131.085602 0.535464 
133.065094 0.073919 
133.08606 0.205225 
133.101242 1.258599 
134.060303 0.279932 
134.115997 0.029353 
134.97876 1.131472 
135.044113 0.093872 
135.080582 0.823773 
135.116898 1.338516 
136.112152 0.57236 
137.011902 0.439836 
137.059814 0.147954 
137.096115 0.365434 
137.132492 0.724976 
138.054962 0.092239 
138.12793 0.074775 
139.111755 0.220531 
140.034729 0.020742 
140.870407 0.028555 
141.091446 0.028362 
142.122971 0.039643 
142.982941 0.02943 
143.085968 0.106362 
144.080826 0.317754 
145.064514 0.105895 
145.101181 0.80878 
146.012466 0.125587 
146.027039 0.039949 
146.060074 0.095602 
146.531342 0.034505 
147.0439 0.033384 
147.080505 0.274695 
147.116837 1.08064 
148.075638 1.039413 
149.096146 0.381697 
149.132614 0.226485 
150.054886 0.049222 
150.128189 0.031618 
151.075668 0.023931 
151.111877 0.482667 
152.107162 0.257066 
152.692108 0.033949 
152.989395 0.992896 
153.091156 0.171089 
153.801559 0.031478 
153.938477 0.017739 
154.12236 0.132438 
154.159241 0.018329 
154.683624 0.036409 
155.02243 0.110753 
155.928345 0.018185 
157.011169 0.015991 
157.101379 0.181653 
158.060364 0.038265 
158.096359 0.041312 
159.116898 0.444268 
160.075668 0.498103 
161.059845 0.085921 
161.096176 0.292255 
161.132401 0.160593 
162.055099 1.25083 
163.075256 0.103171 
163.111801 0.303313 
164.023026 1.162725 
164.10762 0.02398 
165.127808 0.063643 
166.086105 0.088692 
166.122787 0.237974 
167.520065 0.028111 
168.138824 0.037663 
169.101425 0.027422 
170.117523 0.041713 
171.000214 0.018147 
171.07959 0.028424 
171.116653 0.084304 
172.075806 0.274406 
173.096497 0.056705 
173.131943 0.06334 
174.007675 0.247049 
174.055161 0.408483 
174.091385 0.039075 
175.050949 0.089819 
175.111465 0.259734 
176.070419 0.107597 
177.127441 1.652198 
178.087296 0.057694 
179.070953 0.018466 
181.02298 0.031704 
182.033615 0.469696 
182.117386 0.192956 
185.094437 0.037291 
186.054672 0.138152 
186.091553 0.023126 
187.111588 0.088383 
187.149277 0.03268 
188.070663 0.752441 
188.891754 0.029531 
189.164322 0.037544 
190.049835 0.248393 
190.086334 1.303797 
191.089798 0.024007 
192.017899 0.124332 
192.066086 0.024017 
192.101242 0.020753 
193.060303 0.175265 
193.122803 0.036077 
194.117874 0.021423 
196.075272 0.022793 
196.133057 0.199719 
196.21846 0.035941 
197.015244 0.774666 
197.095505 0.041982 
197.129349 0.025668 
198.015686 0.020854 
198.055161 0.089368 
198.091553 0.149343 
198.252472 0.026236 
199.003723 0.039229 
199.012909 0.025496 
200.070084 0.038274 
202.086411 0.257201 
204.065613 4.760835 
204.101761 0.024599 
205.069229 0.203212 
205.620773 0.017383 
206.015823 0.019364 
207.102036 0.022351 
208.728241 0.024056 
212.069901 0.04963 
214.085938 0.142123 
214.52977 0.716954 
214.540024 0.777931 
214.846924 0.031663 
215.025986 0.172865 
215.140167 0.029434 
216.065582 68.81736 
216.906693 0.025784 
216.96846 0.345429 
217.069092 8.720919 
217.411041 0.026978 
218.071335 0.340936 
219.174301 0.152703 
220.06044 1.434333 
220.6129 0.036379 
221.062592 0.028018 
223.465714 0.02639 
224.026474 1.229032 
224.070633 1.426686 
225.077896 0.694579 
226.086227 0.556683 
228.065948 0.26877 
228.102097 0.275495 
228.393845 0.025671 
230.081177 23.115442 
231.084656 3.074908 
231.096878 0.03484 
231.10051 0.033657 
232.060608 4.507059 
233.064072 0.478306 
233.156128 0.035443 
234.076157 0.035193 
234.979202 0.404064 
235.980865 0.027946 
236.974106 0.017968 
240.101791 0.036046 
240.23465 0.029665 
240.908844 0.097373 
241.704407 0.02505 
242.036987 0.207762 
242.081161 1.755369 
243.085205 0.044926 
244.096893 100.0 
245.10022 14.952304 
245.768448 0.027497 
246.076126 1.073306 
246.102402 0.672299 
252.136887 0.01855 
253.134094 0.030101 
254.081238 1.369379 
254.211121 0.041578 
255.084198 0.0418 
256.096802 3.257303 
257.068207 0.690252 
257.100159 0.370975 
258.112762 0.971999 
260.091736 0.528516 
266.999054 0.282559 
268.097015 0.763056 
268.133575 0.123424 
268.978485 2.476983 
269.978302 0.395611 
270.112274 0.944074 
270.974884 0.068809 
272.090668 0.116227 
272.128082 0.03087 
274.107452 1.338866 
276.195068 0.036845 
277.213562 0.027242 
280.133179 0.523275 
280.171295 0.017458 
281.080048 0.070456 
282.112549 2.121403 
282.279053 2.65453 
283.116211 0.117892 
284.091675 1.586612 
284.128113 0.187436 
285.009644 6.891833 
285.095642 0.185463 
286.009857 1.579281 
287.00708 0.761592 
294.112732 0.022311 
294.148773 0.917483 
295.180206 0.044454 
296.055389 3.955834 
296.127899 1.445432 
296.2948 0.204056 
296.331299 0.041115 
297.059082 0.518478 
297.132111 0.060948 
298.070709 0.270481 
298.107422 0.039991 
298.18045 0.068098 
303.020172 0.308903 
304.112854 0.137628 
305.164825 0.032679 
308.128143 0.055009 
308.164337 0.18938 
309.134064 0.040656 
311.138306 0.051026 
311.184448 0.041915 
311.689423 0.043668 
312.08609 0.460819 
312.160675 0.02277 
314.342102 0.03517 
315.177673 0.108982 
320.222321 0.040492 
322.106537 0.064759 
323.175079 0.155468 
324.087982 0.03484 
324.325623 0.129944 
324.986664 0.597623 
325.15448 0.750339 
325.986816 0.043255 
326.161743 0.746965 
327.166473 0.081557 
328.036835 0.11008 
328.081207 0.221176 
328.117432 0.03629 
337.190674 1.952593 
338.174957 7.409611 
338.194855 0.384778 
339.17865 1.77775 
340.357452 1.671631 
340.624207 0.041319 
340.836517 0.027175 
342.996948 1.869478 
343.997528 0.252015 
345.012512 0.045855 
354.35614 0.594197 
355.126038 0.032941 
355.171082 0.053399 
355.202148 0.952486 
355.240234 0.035848 
355.260193 0.040932 
355.281799 0.113604 
355.35437 0.039573 
356.030914 0.113711 
356.07608 1.234292 
356.110809 0.021678 
356.185547 3.120667 
356.222443 0.553018 
356.259552 0.078218 
357.012634 0.072936 
357.079773 0.118781 
357.185852 0.788772 
357.222382 0.896151 
357.26123 1.429919 
358.09079 0.18697 
358.224243 0.045406 
358.266174 0.029981 
358.34549 0.089685 
358.367584 7.105396 
362.04248 0.0187 
375.089691 0.030558 
378.367157 0.035886 
381.605347 0.029353 
END IONS

