BEGIN IONS
TITLE=Scan Number: 1056
PEPMASS=301.17401
CHARGE=0+
COMPOUNDNAME=Ambiguine_B_isonitrile
LIBRARYQUALITY=3
SMILES=C[C@]1([C@@H]2[C@]([C@H]([C@]([C@@H](C2)Cl)(C=C)C)[N+]#[C-])(c3c([nH]c4c3c1ccc4)C(C=C)(C)C)O)C
INCHIKEY=XNSXDDHLEKKURV-PJYKFWTKSA-N
INCHI=
MSLEVEL=2
SOURCE_INSTRUMENT=LC-ESI-qTof
FILENAME=f.philipwi/0_WilliamsFreshwaterCyanosStandardsConvertedTo_mzXML_v2/PW-48_P1-F-3_Ambiguine_B_isonitrile_422amu_Scan1054_1093_01_15563.mzXML;
SEQ=*..*
NOTES=
IONMODE=Positive
ORGANISM=GNPS-LIBRARY
NAME=Ambiguine_B_isonitrile M+H
SPECTRUMID=CCMSLIB00000424898
ACTIVATION=CID
INSTRUMENT=ion trap
SCANS=1056
235.203171 24.0 
243.098862 76.0 
244.09375 320.0 
271.114532 76.0 
274.135193 64.0 
285.145966 124.0 
286.158691 80.0 
301.178589 84.0 
301.908081 32.0 
789.839844 56.0 
END IONS

