BEGIN IONS
PEPMASS=377.209
CHARGE=1+
COMPOUNDNAME=Aphidicolin
LIBRARYQUALITY=3
SMILES=N/A
INCHIKEY=NOFOAYPPHIUXJR-APNQCZIXSA-N
INCHI=InChI=1S/C20H34O4/c1-17(11-21)15-4-3-13-9-14-10-19(13,7-8-20(14,24)12-22)18(15,2)6-5-16(17)23/h13-16,21-24H,3-12H2,1-2H3/t13-,14+,15-,16+,17-,18-,19-,20-/m0/s1
MSLEVEL=2
SOURCE_INSTRUMENT=N/A-ESI-QFT
FILENAME=library_mgf.mgf
SEQ=*..*
IONMODE=positive
ORGANISM=MONA
NAME=Aphidicolin [M+K]+
PI=MoNA
DATACOLLECTOR=MoNA:VF-NPL-QEHF004574
PUBMED=N/A
SUBMITUSER=mwang87
TAGS=
SPECTRUMID=CCMSLIB00004695637
SCANS=4574
50.024818 0.14973 
52.256371 0.160618 
52.9333 0.160953 
53.002972 0.595691 
53.039364 1.016833 
53.404873 0.145989 
54.032864 0.137906 
54.510315 0.156705 
54.706818 0.146823 
55.018639 9.094505 
55.055023 37.732216 
56.050259 14.319555 
56.058357 1.011306 
56.087223 0.141058 
56.197201 0.137101 
56.965538 2.917301 
57.034294 9.586129 
57.053577 1.024266 
57.070667 45.717167 
57.768433 0.164045 
58.063015 0.174641 
58.065914 22.361881 
58.073975 2.694962 
59.049934 13.284731 
59.061153 1.320312 
59.069191 0.860723 
60.045166 9.292234 
60.078541 0.133422 
60.081509 0.653686 
61.011421 12.448126 
61.029507 0.142949 
62.019241 7.348506 
62.060719 0.900375 
62.87957 0.150013 
62.982456 0.957287 
62.99062 0.693477 
63.007107 0.158068 
63.632122 0.130412 
63.99847 0.312603 
64.209206 0.156412 
65.039352 0.437979 
65.10862 0.141872 
67.054977 43.399872 
67.48259 0.151698 
68.050156 1.119412 
68.058212 1.049883 
68.681458 0.134413 
69.034264 13.036095 
69.070625 41.792336 
69.770897 0.14857 
70.029457 0.26049 
70.060951 0.134181 
70.065857 20.550039 
70.073883 1.248984 
71.013321 0.425404 
71.049881 17.689299 
71.086281 22.399681 
72.045143 11.925299 
72.081474 7.527555 
72.089539 1.629532 
72.960312 0.16154 
73.029099 2.74164 
73.047646 0.170616 
73.065498 7.923378 
73.517509 0.139567 
74.009552 0.192383 
74.0243 0.670668 
74.060768 16.18441 
74.097076 1.851468 
75.044647 0.560712 
75.064041 1.029714 
75.066483 0.187617 
76.040009 0.189353 
78.129311 0.139501 
78.385429 0.130373 
78.511581 0.134108 
79.021873 11.523232 
79.054909 25.359783 
80.024849 0.124961 
80.050087 1.760657 
80.058121 0.428758 
80.947929 0.13751 
81.001015 0.185689 
81.034103 6.02784 
81.070549 55.906109 
81.998672 0.175968 
82.03727 0.165432 
82.065697 3.507687 
82.073799 2.865384 
82.130302 0.148588 
83.049789 22.213074 
83.086189 31.760015 
83.237183 0.136493 
84.04493 4.39792 
84.081406 28.526215 
84.089462 1.64823 
84.77832 0.149132 
85.028969 3.418814 
85.040131 1.108429 
85.065437 14.220056 
85.08474 0.37814 
85.093521 0.143975 
85.101768 9.433367 
86.023987 0.162165 
86.060684 10.912168 
86.068771 0.186393 
86.097031 22.72559 
86.105049 0.404868 
86.11235 0.151817 
87.044678 14.659457 
87.100243 0.226279 
87.905502 0.171322 
88.022064 2.005686 
88.03981 2.116012 
88.047882 0.704623 
88.076286 30.942316 
89.060326 33.47543 
89.063332 0.198261 
89.079544 7.019796 
89.217911 0.158967 
89.889389 0.145565 
90.063393 0.700834 
90.94828 0.189886 
91.054764 29.767715 
91.057907 6.789528 
91.297638 0.154532 
92.057816 3.488936 
92.060936 0.428278 
92.983276 0.684598 
93.054672 2.468143 
93.070419 52.157021 
94.073639 3.48811 
95.04966 13.470831 
95.086029 73.104652 
95.914452 0.165156 
96.044861 2.014313 
96.052864 0.180082 
96.081238 1.857173 
96.089325 5.131655 
97.011002 0.141901 
97.028923 2.073856 
97.040016 0.815574 
97.0653 20.806377 
97.098389 0.161498 
97.101715 18.741243 
97.434608 0.139143 
97.912506 0.158004 
98.02417 0.220025 
98.060509 2.171951 
98.068497 0.911926 
98.096855 5.48614 
99.044563 11.517506 
99.05555 0.189501 
99.080917 9.525584 
99.439148 0.150532 
100.039787 2.282852 
100.076111 5.7118 
100.112473 3.368055 
101.003609 0.742927 
101.060158 7.665343 
102.029274 0.145288 
102.055389 1.117319 
102.091728 1.921855 
102.66748 0.148683 
103.039375 0.709906 
103.05471 0.372777 
104.070976 0.662794 
105.033928 8.326678 
105.044952 0.174008 
105.070312 38.464737 
105.074219 0.852025 
106.065453 2.159873 
106.073601 2.085887 
107.049561 12.779643 
107.070274 0.825652 
107.085922 60.542461 
107.623245 0.159892 
108.044632 0.248941 
108.081093 2.458661 
108.089127 3.52426 
108.97847 0.181129 
109.028664 0.738032 
109.06514 13.273449 
109.097565 1.612973 
109.101547 42.773415 
110.060455 10.421403 
110.068527 0.196446 
110.096642 2.888434 
110.104767 3.246829 
110.679291 0.158237 
110.939362 1.131738 
111.044334 6.151539 
111.055443 0.22311 
111.080856 12.183572 
111.117088 0.662933 
112.039543 2.170095 
112.07605 2.360483 
112.112389 0.936747 
112.121307 0.146922 
112.705605 0.152384 
113.059959 5.048697 
113.096375 1.449275 
114.055229 1.164329 
114.091522 0.229269 
114.543892 0.143498 
115.039146 0.73322 
115.050323 0.557615 
115.054543 0.440979 
115.075645 1.332381 
115.086723 0.557271 
116.034302 0.18693 
116.053024 1.967398 
116.070877 2.137995 
116.107307 6.512925 
116.615562 0.201753 
116.972076 1.486434 
117.034973 0.14834 
117.070183 10.479509 
118.065414 0.715791 
118.073174 0.176053 
118.086456 6.342237 
118.217163 0.139993 
118.96756 8.174797 
119.049385 2.974578 
119.085831 32.011417 
119.090065 1.461173 
119.97538 1.053428 
120.044586 0.672618 
120.081001 13.271579 
120.088951 1.502179 
120.093704 0.275645 
121.028641 8.316377 
121.039589 0.366731 
121.065033 13.586671 
121.088921 0.437006 
121.101418 35.388947 
122.06031 8.03665 
122.068024 0.21533 
122.081436 3.110735 
122.096718 2.21665 
122.104729 2.225349 
122.939453 0.254334 
123.044266 3.767541 
123.06794 0.238802 
123.080696 12.888064 
123.091835 0.636054 
123.117073 16.296093 
123.947174 1.316214 
124.039497 6.54313 
124.075912 2.169159 
124.112015 0.908885 
124.120239 0.62962 
125.023529 0.419165 
125.05513 0.167755 
125.059921 8.489661 
125.096313 18.910881 
126.055122 6.774918 
126.091476 3.980258 
126.099602 0.710679 
126.982468 0.154211 
127.039108 0.429937 
127.075523 1.732524 
127.111877 4.814379 
128.070679 1.097898 
128.107056 2.135408 
129.054764 2.127507 
129.070068 5.392075 
129.091049 0.217499 
130.049927 5.621363 
130.058319 0.177706 
130.065292 1.437558 
130.086319 6.382293 
130.97934 0.353618 
131.049301 0.986171 
131.085632 14.859072 
132.044907 0.241214 
132.08075 1.643854 
132.089188 0.180812 
132.101425 0.179448 
133.06485 5.742394 
133.086014 2.350738 
133.101288 23.554455 
134.060074 2.347159 
134.096451 2.234696 
134.104538 0.548297 
134.978912 0.950689 
135.044067 1.778903 
135.080597 16.993147 
135.103821 0.319959 
135.116928 55.498737 
136.039261 0.734538 
136.07576 6.931916 
136.08313 0.392252 
136.112 2.300688 
136.120239 4.048118 
137.0233 0.432161 
137.059723 4.320386 
137.096161 8.497143 
137.132507 7.549546 
137.985489 0.349541 
138.054947 3.683287 
138.091476 1.495723 
138.127747 1.129988 
138.594254 0.191435 
139.039093 0.16113 
139.049973 0.180826 
139.075409 3.426878 
139.111679 4.859798 
140.034073 1.173924 
140.070602 6.837815 
140.078354 0.188133 
140.107025 1.214696 
140.143494 0.1465 
140.953125 0.152178 
140.959305 3.416692 
141.054565 0.620663 
141.09082 1.584826 
141.12735 0.248908 
141.57869 0.150644 
142.050064 0.683699 
142.08606 0.373738 
142.122925 1.007422 
142.159058 1.014071 
143.085693 8.910147 
143.60704 0.201934 
144.028961 0.285606 
144.080826 1.05298 
145.064728 2.791672 
145.101227 22.044939 
145.974625 0.902585 
146.060028 3.321988 
146.096527 2.70344 
146.104309 0.593687 
146.973999 4.864938 
147.044128 9.191484 
147.080521 7.979306 
147.091721 0.157046 
147.104187 0.214852 
147.116928 26.44326 
147.970032 7.061962 
148.039108 0.166128 
148.075653 4.044425 
148.11203 6.196332 
148.119675 0.835949 
148.971848 0.170653 
149.023804 0.17375 
149.059814 23.075258 
149.070694 0.177154 
149.096161 10.453628 
149.132584 8.902247 
150.055069 2.780936 
150.062881 1.365711 
150.091461 2.509659 
150.098251 0.174739 
150.127731 1.342564 
151.075378 3.093168 
151.09642 4.36269 
151.111649 6.708519 
152.070694 3.135789 
152.081589 0.176652 
152.106995 1.961905 
152.1147 0.200234 
152.143494 0.181444 
152.951492 1.247621 
152.989349 7.235166 
153.054504 0.909653 
153.091003 5.304191 
153.127243 6.194963 
153.465012 0.150787 
153.949066 0.207065 
153.95929 0.159206 
154.04985 1.959547 
154.086136 2.788001 
154.12262 1.102737 
154.946899 9.0215 
155.069901 0.314515 
155.085571 2.871161 
155.106903 0.908461 
155.954514 0.785413 
156.092056 0.157485 
156.101654 0.159804 
156.138428 0.98387 
156.944244 0.867857 
156.982346 0.233598 
157.064804 0.181896 
157.101181 7.453684 
158.010986 0.63471 
158.044189 0.175531 
158.059891 0.722954 
158.080597 0.176013 
158.096512 1.802327 
158.104004 0.152924 
159.044083 0.339641 
159.080597 7.34083 
159.11676 7.58516 
160.075775 2.421668 
160.083282 0.187941 
160.112061 2.908243 
160.119461 0.186836 
160.989868 1.244618 
161.059769 2.515545 
161.070831 0.174027 
161.09613 10.026784 
161.120026 0.173585 
161.132446 4.165537 
162.055176 1.008439 
162.091553 2.951059 
162.098907 0.192083 
162.127716 6.235048 
163.039185 0.5362 
163.075363 3.063063 
163.111832 8.313772 
163.148056 0.528943 
163.984741 0.249137 
164.070496 1.850967 
164.107086 3.708568 
164.143478 1.47811 
164.920609 6.937529 
164.983124 0.395801 
165.054657 3.410403 
165.091156 3.619147 
165.127502 5.835516 
165.980652 5.346864 
166.049957 0.162325 
166.086502 0.891641 
166.122711 2.274727 
166.982574 0.194311 
167.005203 0.233266 
167.07045 0.186284 
167.081329 0.352549 
167.106827 7.138021 
167.117401 0.902952 
167.143005 0.861688 
168.065399 0.244302 
168.101822 1.152254 
168.138245 0.698943 
169.086121 0.201648 
169.101334 2.191872 
170.961349 0.416644 
170.999939 0.415592 
171.062881 0.501503 
171.080399 2.560505 
171.116867 4.888212 
171.959885 2.300435 
171.973862 0.218277 
172.026764 1.267993 
172.075699 1.051438 
172.111465 0.159935 
172.95755 7.150625 
173.059586 1.146503 
173.078796 0.201623 
173.096176 6.622194 
173.117325 1.135452 
173.132568 4.685676 
173.955292 0.172537 
174.006119 4.980955 
174.055176 0.453562 
174.091354 1.373958 
174.100708 0.163141 
174.127731 1.661257 
174.955215 0.17334 
175.038956 6.890906 
175.075562 1.36939 
175.111755 7.89468 
175.148178 2.134189 
176.021637 1.714817 
176.034164 1.143796 
176.070633 1.965337 
176.106903 2.035053 
176.115906 0.377911 
176.143326 2.823251 
176.975494 1.896426 
177.054184 0.185512 
177.091309 2.039891 
177.127457 4.230034 
177.962921 1.590911 
178.049759 1.018803 
178.085938 0.950132 
178.122833 1.208793 
178.159195 0.37526 
178.97084 20.774166 
179.034592 0.165939 
179.070892 0.193914 
179.082214 0.20073 
179.106796 1.162256 
179.143387 0.350716 
179.970184 0.363987 
179.97879 0.188225 
180.065323 0.392727 
180.101898 0.497211 
180.138351 0.728 
180.968094 1.613849 
180.986267 0.206348 
181.049133 0.184299 
181.101318 0.544473 
181.122559 0.398128 
182.08078 0.248329 
182.11763 0.864384 
183.066132 0.186854 
183.116776 1.40277 
184.075638 0.557126 
184.11232 0.189409 
184.133453 0.18896 
185.070755 1.170324 
185.095963 2.024405 
185.117569 0.155874 
185.132324 1.768448 
186.09111 1.127739 
186.127914 0.563982 
187.075577 1.493972 
187.086105 0.211403 
187.111755 2.802514 
187.148041 0.464262 
188.021667 1.94563 
188.070557 1.562799 
188.107101 1.495637 
188.14325 4.31176 
189.055145 0.19951 
189.091248 3.873273 
189.127609 1.695571 
189.163315 0.411037 
190.049896 3.015721 
190.062393 2.362 
190.086227 2.176987 
190.122757 7.913785 
190.159225 1.287267 
191.070114 0.9826 
191.106583 4.55472 
191.142517 0.193903 
192.0298 0.20167 
192.054825 2.994437 
192.065399 6.405369 
192.101837 1.518449 
192.138367 1.256858 
192.962097 0.247138 
193.08638 0.442502 
193.122498 2.095941 
193.158127 0.19448 
194.044952 0.199356 
194.081406 0.579988 
194.117798 1.255996 
194.153656 0.363121 
195.101303 0.220165 
195.116119 0.215914 
195.138611 0.223534 
195.973663 2.01941 
196.132965 0.221908 
197.096039 0.555254 
197.132538 1.009325 
198.04364 0.187409 
198.054794 0.809649 
198.091461 0.715652 
199.075089 0.542262 
199.085907 0.186531 
199.111877 1.056052 
199.148407 0.88298 
200.070465 1.729605 
200.106644 1.139639 
200.143814 0.193553 
201.054565 1.243529 
201.090958 1.153583 
201.127167 1.543191 
202.037933 0.182278 
202.048874 0.236307 
202.086136 2.232929 
202.122604 1.342833 
203.070328 10.81285 
203.106766 0.831438 
203.117294 0.190202 
203.143082 1.163954 
204.065338 1.58312 
204.075729 0.284639 
204.101837 1.607095 
204.138412 7.98093 
204.174728 1.499513 
205.015305 0.176592 
205.086472 0.446055 
205.12262 0.701077 
205.988708 0.177494 
206.100067 0.701615 
206.117554 2.299742 
206.153915 2.753818 
206.190369 16.787119 
207.101761 1.196463 
207.137497 0.158238 
207.193878 1.124617 
207.985382 0.169813 
208.096588 0.176928 
208.13327 5.070759 
208.964752 0.159526 
209.095596 0.423123 
209.117294 4.733522 
209.131607 0.346668 
210.064194 0.274046 
210.960815 10.370224 
210.971329 0.719477 
211.098999 1.290305 
211.111832 0.558516 
212.935303 0.237374 
212.957932 0.225061 
213.065796 1.121022 
213.090027 0.275772 
213.127609 0.636747 
214.085678 0.691196 
214.122284 0.861554 
214.27713 5.978577 
214.290375 0.821242 
215.07019 2.125225 
215.089401 2.590563 
215.106171 0.415107 
216.065628 6.737135 
216.101959 3.536849 
216.138199 1.069085 
216.175262 0.220742 
217.086151 0.477401 
217.105453 0.518257 
217.122375 0.463221 
217.142975 0.650317 
218.04538 0.202138 
218.080917 2.598393 
218.117264 2.040356 
218.153931 0.836492 
218.189529 0.156141 
219.137589 0.721258 
219.148041 0.189595 
219.174362 6.897924 
220.060699 0.688058 
220.09671 0.987801 
220.13324 1.843911 
220.169174 0.629138 
222.112473 0.711342 
222.148529 2.240803 
225.0905 0.761695 
225.886673 0.253052 
225.98378 0.812965 
227.070526 0.719307 
227.10701 0.213423 
227.142838 0.451299 
227.164352 1.177951 
227.179276 0.154891 
227.200516 9.472231 
228.13829 0.358549 
228.204498 0.230264 
229.068283 0.509426 
229.085449 0.389085 
229.12204 0.554836 
230.080399 0.181948 
230.117722 1.373899 
230.153885 0.670686 
231.065369 0.657178 
231.084091 0.433087 
231.137299 0.198713 
232.060257 0.374922 
232.096695 2.283091 
232.133347 1.56597 
232.169067 0.932135 
232.904251 0.837588 
233.080765 0.298836 
233.153656 0.182075 
233.892029 0.416278 
234.076157 0.680378 
234.1129 0.446959 
234.149063 2.923518 
234.899231 15.479795 
236.055466 0.859473 
236.164124 0.221057 
238.107452 0.161549 
240.101532 7.31254 
240.908936 0.613294 
240.964523 1.125634 
241.085693 0.229962 
242.08223 0.872438 
242.117447 0.270177 
242.153442 0.443368 
243.065216 1.203402 
243.087402 0.421099 
243.101578 1.579237 
243.994247 0.453569 
244.096863 2.700032 
244.133514 1.451254 
244.168854 0.204563 
245.067688 0.217078 
245.08075 5.09578 
246.111969 0.674542 
246.148865 3.962717 
246.184708 0.444519 
248.091156 0.429042 
248.128174 0.505315 
248.164398 0.909851 
248.878174 0.914187 
248.914078 0.462469 
249.101685 0.182246 
249.196548 0.227816 
250.107376 0.193143 
250.894104 0.7958 
252.910004 0.686258 
253.08522 0.199029 
253.133316 0.405398 
254.116959 1.026308 
255.101242 0.17837 
255.125412 6.577976 
255.231628 6.486423 
256.131805 0.431146 
256.170013 0.206469 
256.23526 7.831382 
257.080536 4.336748 
257.116882 4.47598 
257.162262 0.905118 
257.174988 3.815139 
257.238861 0.204235 
258.111816 0.803789 
258.14859 1.689803 
258.185303 0.399399 
258.899048 1.028788 
258.975281 0.951883 
259.095947 0.18074 
259.115723 0.847725 
259.145721 0.187501 
260.127533 0.694319 
260.163971 2.549394 
260.200806 2.585455 
260.869537 0.160525 
261.130676 1.640065 
261.59137 0.178902 
262.107239 0.817177 
262.144012 0.19101 
262.180206 0.76715 
264.15918 0.317695 
264.196228 0.382842 
265.060547 1.95905 
266.068329 0.166225 
266.078827 0.453194 
266.140198 0.182445 
266.888916 1.48394 
269.106781 0.164762 
270.077179 0.188661 
270.110962 0.588807 
270.149933 0.360995 
270.183807 0.237301 
271.096313 0.405787 
271.168793 0.384624 
272.09137 0.913306 
272.164215 1.059552 
272.200989 1.813536 
273.094635 2.211114 
273.158508 0.209155 
274.143433 0.176592 
274.179962 2.987575 
274.215973 1.984121 
274.894714 0.498782 
274.914276 3.366045 
275.09256 0.20728 
275.109589 1.585271 
275.902313 0.190488 
276.159119 0.27 
276.196198 0.190363 
276.909668 21.589113 
277.146667 0.195705 
278.174561 0.432564 
278.211426 0.967664 
278.78952 0.16798 
282.075439 0.248863 
284.091705 0.166675 
284.127594 0.231491 
284.292877 0.221994 
285.009399 0.407251 
285.195984 0.198971 
286.143494 0.179482 
286.180176 4.548208 
288.160278 0.22905 
288.19574 5.288783 
290.138947 0.155407 
290.176056 0.350057 
290.211182 4.801683 
290.247986 0.243644 
290.924957 0.760105 
291.08905 1.319395 
291.213806 0.175045 
292.190491 1.138236 
292.227203 4.477772 
293.055511 2.162145 
293.230316 0.180867 
296.092102 3.062299 
298.109192 6.943227 
298.143707 0.375152 
299.091919 5.262575 
299.111633 1.255238 
300.160278 0.211972 
300.195648 0.748225 
300.967743 2.040009 
301.12616 0.234382 
302.157715 1.236871 
302.187592 0.250251 
302.210907 0.730423 
303.206909 0.717673 
304.190155 1.355695 
304.226746 1.112647 
306.075623 2.655715 
306.112549 0.214405 
306.206329 0.480288 
307.209656 0.214453 
308.172302 1.964853 
312.195801 0.197889 
312.837982 0.787612 
314.17511 0.967851 
314.211182 2.348301 
316.120178 4.09445 
316.190765 1.250603 
316.22702 3.577672 
316.904022 0.233209 
317.102631 0.907063 
317.122314 0.381829 
318.077179 0.197649 
318.109314 0.198161 
318.204132 0.260896 
318.243195 0.966751 
319.136414 2.896586 
319.171844 0.23196 
319.835876 0.608576 
320.091431 4.349835 
320.201752 0.186611 
326.210571 0.18438 
326.342133 1.098191 
327.345123 31.883165 
328.226593 0.444493 
328.34787 5.802417 
330.076141 0.249295 
330.205658 0.897314 
330.241791 0.831685 
331.172485 1.910753 
332.091431 1.413348 
332.22171 3.267538 
332.2789 0.178991 
333.290436 0.211871 
334.107147 2.771784 
334.237061 1.357122 
335.240784 0.161674 
335.268524 0.605749 
336.837799 0.199656 
340.190186 0.56753 
340.227295 0.91796 
342.206543 4.399259 
342.242462 1.827443 
344.092285 0.241264 
344.221893 2.937573 
344.976135 0.910828 
345.09726 0.458517 
345.975098 0.183895 
346.107086 1.290335 
346.165588 0.175903 
346.237396 7.750012 
347.100281 0.166027 
347.16684 10.355751 
347.240326 0.188515 
348.08667 7.711253 
349.084961 0.877867 
353.842346 0.456094 
357.355164 1.316735 
358.200989 2.186478 
358.23764 14.460525 
358.273651 0.213795 
358.310303 5.144993 
359.219116 2.133645 
359.240936 3.615392 
359.270599 0.302535 
359.313171 0.955245 
360.086761 1.925554 
360.114075 1.426052 
360.182404 0.182552 
360.216827 6.630829 
360.253021 6.928915 
360.329163 0.179187 
361.09314 0.819022 
361.252686 0.442809 
361.971649 0.383825 
362.101318 2.635459 
363.109222 1.713719 
375.196289 0.852869 
375.235229 4.85521 
375.265228 2.329317 
375.337921 2.215732 
375.382874 1.246916 
376.117889 0.712761 
376.211487 1.873293 
376.247986 100.0 
376.284302 4.748734 
376.320068 2.696991 
376.392273 0.473912 
377.141815 4.437976 
377.178406 42.237469 
377.229492 50.471767 
377.251068 21.633205 
377.281586 6.841976 
377.319794 0.666621 
378.125122 7.305753 
378.184235 7.286752 
378.230957 19.16466 
378.263275 52.441856 
379.129486 7.02329 
379.192657 30.268578 
379.238953 0.539807 
379.267029 7.766435 
382.940979 0.16554 
393.562988 0.198601 
394.459442 0.183967 
END IONS

