BEGIN IONS
PEPMASS=129.0
CHARGE=1+
COMPOUNDNAME=MoNA:2309835 2-Hydroxy-3-Naphthoyl-2-Naphthylamine
LIBRARYQUALITY=3
SMILES=N/A
INCHIKEY=LVHBHZANLOWSRM-UHFFFAOYSA-N
INCHI=InChI=1S/C5H6O4/c1-3(5(8)9)2-4(6)7/h1-2H2,(H,6,7)(H,8,9)
MSLEVEL=2
SOURCE_INSTRUMENT=LC-ESI-QQ-LC-ESI-QQ
FILENAME=output_mgf.mgf
SEQ=*..*
IONMODE=
ORGANISM=MONA
NAME=MoNA:2309835 2-Hydroxy-3-Naphthoyl-2-Naphthylamine [M-H]-
PI=MoNA
DATACOLLECTOR=MoNA
PUBMED=N/A
SUBMITUSER=mwang87
TAGS=
SPECTRUMID=CCMSLIB00000572168
SCANS=9419
41.0 100.0 
44.9 83.333333 
END IONS

