BEGIN IONS
PEPMASS=911.455
CHARGE=1+
COMPOUNDNAME=ABAMECTIN
LIBRARYQUALITY=3
SMILES=N/A
INCHIKEY=RRZXIRBKKLTSOM-XPNPUAGNSA-N
INCHI=InChI=1S/C48H72O14/c1-11-25(2)43-28(5)17-18-47(62-43)23-34-20-33(61-47)16-15-27(4)42(26(3)13-12-14-32-24-55-45-40(49)29(6)19-35(46(51)58-34)48(32,45)52)59-39-22-37(54-10)44(31(8)57-39)60-38-21-36(53-9)41(50)30(7)56-38/h12-15,17-19,25-26,28,30-31,33-45,49-50,52H,11,16,20-24H2,1-10H3/b13-12+,27-15+,32-14+/t25-,26-,28-,30-,31-,33+,34-,35-,36-,37-,38-,39-,40+,41-,42-,43+,44-,45+,47+,48+/m0/s1
MSLEVEL=2
SOURCE_INSTRUMENT=N/A-ESI-QFT
FILENAME=library_mgf.mgf
SEQ=*..*
IONMODE=positive
ORGANISM=MONA
NAME=ABAMECTIN [M+K]+
PI=MoNA
DATACOLLECTOR=MoNA:VF-NPL-QEHF028045
PUBMED=N/A
SUBMITUSER=mwang87
TAGS=
SPECTRUMID=CCMSLIB00004721626
SCANS=28045
64.764221 0.034448 
65.471214 0.042949 
65.983398 0.014182 
66.149277 0.07886 
66.231339 0.078596 
66.492683 0.02262 
67.054306 5.3982 
67.960793 0.042527 
68.172173 0.040615 
69.033554 21.417599 
69.069878 0.375265 
69.159828 0.012607 
69.508018 0.030516 
69.833038 0.027734 
70.036911 0.296888 
70.211105 0.011468 
70.232712 0.010106 
70.291466 0.037479 
70.363884 0.021939 
70.375008 0.030892 
71.049179 1.207737 
71.085526 0.049139 
71.157341 0.068487 
71.547142 0.033655 
71.957069 0.043422 
72.393433 0.043016 
72.742165 0.063575 
73.046768 3.537495 
73.064781 2.258925 
73.634155 0.078106 
73.675827 0.067922 
73.867165 0.071657 
74.050163 0.02499 
75.404373 0.010102 
75.441422 0.040287 
76.289581 0.010974 
76.321579 0.070273 
76.565781 0.08513 
76.762688 0.041426 
76.928726 0.070411 
76.983864 0.052742 
77.0513 0.074053 
79.054237 1.623903 
79.840675 0.043761 
80.181686 0.071411 
80.27935 0.066709 
80.322311 0.044255 
80.602966 0.130775 
81.033836 0.020465 
81.069855 4.162834 
81.360275 0.011376 
82.155716 0.024521 
83.049057 0.109711 
83.085526 0.009475 
83.555077 0.025928 
84.279266 0.01195 
84.758263 0.047555 
85.028374 1.134102 
85.064735 1.76391 
87.044052 3.716461 
88.208252 0.053344 
88.806419 0.044398 
88.844643 0.026081 
89.139763 0.065434 
89.504326 0.00912 
89.965248 0.068814 
89.993202 0.019941 
90.909058 0.075121 
91.054382 0.321408 
91.057297 4.153378 
91.216072 0.059937 
92.341423 0.035079 
92.702293 0.065496 
92.865417 0.009451 
93.054199 0.032475 
93.06987 4.113623 
93.960258 0.056451 
94.086891 0.06463 
95.049088 18.871511 
95.085457 1.098486 
95.326302 0.02578 
95.878792 0.024448 
96.052475 0.324376 
96.78511 0.06387 
96.933983 0.025428 
97.028374 0.014718 
97.064781 4.430408 
97.342293 0.012061 
97.418297 0.024193 
97.867638 0.027516 
99.043739 0.082935 
99.08062 0.042904 
99.709045 0.031801 
99.784378 0.062934 
100.873299 0.058031 
101.059692 1.526733 
101.068901 0.06925 
101.972649 0.013508 
102.091324 0.060035 
102.944962 0.013955 
104.796257 0.009642 
104.883797 0.021474 
105.069801 0.355534 
106.291763 0.009613 
107.022018 0.065264 
107.085487 2.887956 
107.611473 0.052023 
107.708298 0.040223 
109.025986 0.148775 
109.064873 3.100391 
109.101128 10.287559 
109.831055 0.073761 
110.070068 0.013412 
110.104507 0.138443 
110.460365 0.056785 
111.674583 0.022482 
111.764854 0.078775 
111.858406 0.045518 
112.386169 0.081598 
112.728226 0.010536 
112.864937 0.021185 
113.059654 36.390663 
113.064011 0.265792 
113.476616 0.035779 
114.063034 1.783479 
114.157188 0.071903 
115.0756 0.030051 
115.191681 0.009376 
116.200912 0.078714 
119.085541 2.03061 
119.475754 0.046741 
119.943336 0.054029 
120.804115 0.009358 
120.996284 0.014506 
121.064728 0.090713 
121.101196 3.798524 
121.30246 0.098902 
122.104347 0.034748 
122.895958 0.059292 
123.08049 0.432674 
123.11676 28.066755 
123.267273 0.073544 
124.120201 1.912003 
125.021049 0.163429 
125.452332 0.015472 
125.610298 0.03392 
126.060715 0.049925 
127.075256 6.564614 
129.232498 0.031882 
130.039246 0.047166 
131.046494 0.096905 
131.085358 0.21793 
131.691147 0.034344 
132.054611 0.338228 
133.101105 0.596603 
133.374649 0.038802 
135.041626 4.367031 
135.080429 0.211111 
135.116379 0.037861 
137.059204 0.048775 
137.096161 3.043746 
138.874756 0.026382 
138.9328 0.053698 
139.072876 6.954892 
139.625946 0.067795 
141.291031 0.046659 
143.001358 0.014652 
143.085785 0.03689 
143.270721 0.01279 
145.051697 0.068301 
145.085892 25.029909 
145.100906 0.024489 
145.133789 0.02375 
146.089218 0.992695 
146.453278 0.012334 
147.041641 0.399111 
147.080566 0.080822 
147.117035 0.029651 
148.020798 0.012614 
148.960175 0.027344 
149.044891 0.161313 
149.096313 0.044392 
149.211517 0.013792 
151.036591 1.461294 
151.073013 3.970385 
151.111694 13.17882 
151.913589 0.041575 
151.95015 0.060453 
152.115082 0.842877 
152.56488 0.075662 
153.052124 6.639196 
153.127762 0.032515 
153.263153 0.023355 
153.552048 0.06788 
154.060165 0.221779 
155.921677 0.013643 
157.235519 0.04829 
157.532761 0.052672 
158.741028 0.012974 
159.078751 0.01652 
160.155884 0.068485 
161.096085 0.042563 
161.132156 0.045119 
163.074631 0.036615 
163.937119 0.046665 
164.632355 0.079751 
165.052322 0.201501 
167.055481 1.863203 
167.067734 12.924319 
168.076096 0.085015 
168.734619 0.059253 
169.122131 15.210267 
170.12561 0.791282 
171.116745 0.010139 
171.378998 0.013246 
172.049622 0.380594 
173.021042 4.906505 
173.057632 0.051489 
174.023651 0.014654 
174.398117 0.027661 
175.036575 0.406301 
175.148575 0.03686 
175.286118 0.063208 
175.348541 0.012889 
177.089203 0.094807 
179.067841 2.549451 
179.14296 0.03986 
183.062622 21.893255 
183.282761 0.01363 
183.923737 0.073555 
184.066269 0.282441 
184.904404 0.040356 
185.078308 17.561287 
185.413834 0.085379 
186.081589 0.321065 
186.80838 0.028975 
190.06076 0.074123 
190.624893 0.043828 
190.760849 0.061815 
191.03157 3.413414 
191.104065 16.251911 
192.107651 0.740982 
193.046982 0.02529 
193.158859 3.131027 
193.911163 0.063477 
194.162354 0.026698 
194.561096 0.074833 
196.887115 0.063459 
199.111603 0.358517 
201.073349 0.748175 
201.089005 0.081174 
209.041901 6.397297 
209.057159 0.042203 
209.094681 0.011054 
209.114853 0.10211 
209.782669 0.046859 
210.833771 0.021906 
211.340714 0.083986 
211.397125 0.044628 
211.583298 0.080674 
211.785583 0.055232 
212.588501 0.05093 
213.088486 0.072487 
215.105438 0.08212 
215.446304 0.046206 
221.153641 1.362663 
221.265488 0.081451 
222.101379 0.091274 
223.063599 0.061749 
224.751068 0.080112 
225.006729 0.010759 
225.042953 0.855936 
225.109879 1.053473 
226.042938 0.01687 
227.038849 0.014786 
227.067917 4.72481 
227.104141 0.926497 
228.075012 0.28264 
229.082794 0.026992 
231.101547 0.053964 
234.790375 0.033173 
236.857544 0.075011 
237.088547 0.045313 
238.096481 4.049401 
239.104446 11.953118 
239.802689 0.037378 
239.840286 0.021431 
240.094574 0.023415 
240.1091 0.982913 
241.08371 0.067612 
241.119873 2.239768 
241.518845 0.015851 
242.123566 0.026226 
242.74295 0.10461 
243.135635 1.672847 
245.115005 1.89474 
246.117798 0.03939 
246.25032 0.013603 
251.125259 0.230693 
251.139755 0.110001 
253.119171 0.085026 
254.091492 0.432616 
254.127991 0.39147 
255.098953 2.807531 
255.439926 0.037639 
256.10675 9.905351 
256.804382 0.070394 
257.114624 16.758039 
258.118195 1.2528 
261.110016 1.050546 
263.567657 0.077697 
265.083679 0.684271 
265.693909 0.026728 
265.883148 0.0791 
266.109009 0.042999 
269.151245 0.78678 
269.44281 0.085462 
271.0578 4.505707 
271.130402 0.756866 
271.34491 0.088801 
272.062195 0.11943 
273.109344 0.201882 
275.125214 0.050317 
275.781799 0.045124 
275.978149 0.074185 
276.132416 0.15044 
277.111481 0.009626 
277.140472 5.854241 
278.14447 0.077232 
278.924042 0.030345 
279.775574 0.013675 
281.051086 0.026523 
281.135712 0.259564 
282.086334 1.000317 
282.937714 0.047861 
283.093903 13.966306 
283.150909 0.220431 
284.097565 1.038923 
285.009705 1.277649 
285.109161 0.028121 
285.146759 0.063715 
285.364838 0.053913 
286.009613 0.149505 
287.007141 0.225131 
287.200684 3.24644 
288.202972 0.07022 
289.068451 2.389751 
289.140533 0.463362 
290.887299 0.065513 
295.121857 0.017999 
296.936249 0.018868 
297.130859 1.447308 
299.061737 1.62556 
299.08902 4.369117 
300.062714 0.141713 
300.096222 3.870712 
301.038727 0.105079 
301.059479 0.105868 
301.104279 52.031136 
302.10791 7.242639 
304.165192 0.143226 
304.188568 0.058125 
305.153046 0.054725 
305.171539 7.611815 
305.21106 1.770956 
306.175446 0.494963 
307.131378 0.070075 
309.182373 8.189819 
310.186218 0.857772 
311.145905 32.301208 
311.196869 0.060709 
312.14978 4.4515 
317.099609 3.75122 
317.136627 0.027378 
318.106201 0.81384 
319.114899 14.474869 
320.046387 0.035 
320.118622 1.44286 
321.219055 0.365054 
322.062531 0.016742 
322.951599 0.242408 
323.161987 0.976436 
323.295349 0.069747 
325.141388 0.258975 
325.177307 1.250524 
326.097565 0.050236 
327.141968 4.489668 
327.192688 28.014614 
328.146423 0.067259 
328.196472 5.707773 
329.156616 24.396908 
330.160553 2.886454 
333.147369 0.095661 
337.949585 0.085473 
339.088104 0.012841 
339.229797 0.615304 
341.171021 0.091646 
343.18808 2.612389 
344.976349 0.057797 
345.203705 3.946635 
346.208862 0.041873 
349.212769 0.119256 
351.156433 11.366928 
351.194458 0.136689 
352.159821 1.604531 
352.98468 0.089277 
353.172089 0.426334 
355.069427 0.139225 
355.189301 0.029644 
356.070496 0.013141 
357.183014 0.21045 
359.028229 0.663461 
359.198883 0.320959 
360.028931 0.166791 
361.026062 0.233535 
362.025238 0.015126 
367.121338 0.049474 
367.151825 4.136346 
368.156494 0.410996 
369.131683 0.685938 
369.16687 8.400843 
370.170593 0.760179 
370.717072 0.094411 
375.192566 9.603702 
376.196625 2.006097 
376.39032 0.047547 
377.134796 0.243134 
377.208313 1.378883 
383.182587 5.798558 
384.186066 0.386456 
385.162262 2.870688 
387.141968 0.209598 
387.177521 1.20995 
389.169495 0.05448 
389.194244 2.132164 
390.195709 0.113447 
391.18515 0.096222 
393.203247 7.484096 
394.206818 1.021324 
395.146362 5.291074 
395.177612 0.013721 
395.204895 2.884974 
396.150055 0.549813 
396.206055 0.03729 
397.163391 0.384642 
397.197662 0.042899 
399.176849 0.226826 
399.979401 0.066191 
401.19342 10.911079 
401.243134 0.219332 
402.197388 1.425724 
406.644989 0.030418 
411.216064 0.337448 
413.156616 23.158962 
413.230286 3.401099 
414.131165 0.016406 
414.160309 4.359972 
414.235382 0.070073 
417.238312 0.092501 
419.181763 5.366624 
419.255737 2.114998 
420.184937 0.232985 
420.212952 0.736526 
421.220703 6.560756 
422.224121 0.37833 
426.911682 0.046337 
427.173492 1.170188 
427.257751 0.071835 
428.436798 0.046514 
431.167145 8.420997 
432.170868 0.662431 
432.207123 0.068673 
433.219299 0.432137 
435.249634 0.286901 
437.192932 20.905581 
437.266022 2.891805 
438.196259 4.781339 
438.26825 0.048261 
439.171143 0.192154 
441.239014 0.062901 
445.18277 7.29968 
446.18689 0.635908 
447.236511 0.216695 
449.250366 16.172497 
450.254364 4.150925 
452.253784 0.964474 
453.189941 0.07555 
453.226776 0.012295 
453.259796 0.553274 
453.959503 0.03223 
455.204132 9.08752 
455.240692 11.85601 
455.274872 1.254574 
456.208984 1.759664 
456.243866 2.885846 
457.236481 2.395083 
459.249878 0.335576 
461.175507 0.078186 
463.193115 5.627019 
463.226776 0.107735 
464.196625 0.332716 
469.256348 0.331125 
471.236023 0.519746 
471.324036 0.051261 
475.245209 0.633339 
478.268524 0.06441 
479.240479 3.706994 
480.245056 0.270723 
481.308136 2.496359 
482.313019 0.239739 
487.876801 0.069975 
493.294739 0.048205 
495.234344 5.641262 
495.27066 0.343087 
496.238831 1.011296 
497.299469 0.223333 
497.428528 0.042608 
499.31839 1.858071 
500.325958 0.097355 
501.223785 0.437935 
507.286713 5.55943 
508.290131 1.25537 
509.299622 0.66197 
511.268402 0.090924 
513.244995 10.871543 
514.249268 2.246187 
515.310913 0.094865 
517.328491 0.201597 
519.23468 3.718242 
519.271973 3.820524 
520.237427 0.16716 
520.276672 0.416545 
525.29657 20.226532 
526.30011 6.682399 
527.263977 1.507316 
527.312073 4.339241 
528.315491 0.59643 
531.25592 0.033562 
533.271912 2.158688 
533.322632 0.085228 
537.242859 0.46325 
537.282349 6.002398 
538.286377 1.174593 
541.289001 0.562517 
542.296997 0.035643 
543.3078 15.583116 
544.311157 5.144827 
545.272461 6.2269 
545.317627 1.27977 
546.218567 0.052921 
546.276489 0.996664 
551.276794 1.82597 
552.280273 0.012205 
553.278992 0.031698 
554.278748 0.069839 
555.292175 0.086594 
557.234741 5.543902 
557.309143 2.584913 
558.239685 0.91895 
558.31366 0.10309 
559.297058 1.177727 
560.30542 0.180367 
561.317566 9.111731 
562.322083 2.599578 
563.335327 0.051369 
564.480164 0.024537 
569.286987 13.765323 
570.290588 4.741758 
571.252197 0.081217 
571.299805 1.450812 
572.29895 0.078913 
575.246216 2.197824 
575.296326 0.345993 
576.305176 0.014769 
577.303284 1.419184 
579.329529 0.292178 
581.270813 6.150998 
581.344482 1.910529 
582.275452 1.153007 
587.296753 26.991301 
588.300049 8.816494 
589.260803 2.001737 
589.310791 2.541556 
590.321838 0.109589 
599.282898 2.520194 
599.357971 0.318521 
600.2854 0.017163 
603.291565 1.229843 
604.296509 0.834496 
605.307434 100.0 
606.255493 0.140428 
606.310974 32.475574 
607.267639 1.15617 
607.317871 4.383551 
618.481812 0.026439 
619.324097 0.196413 
621.299805 0.803628 
621.350891 0.070864 
622.304443 0.389007 
623.318054 31.895227 
624.321716 10.60449 
625.325073 0.386685 
635.437317 0.069766 
639.310669 0.513657 
651.195984 0.079964 
657.324036 3.212083 
658.32843 0.173026 
663.354797 0.237272 
669.374939 0.207404 
681.361877 2.781981 
682.366577 0.182667 
682.567688 0.014148 
687.322388 0.021636 
687.386169 5.383971 
688.389465 1.69679 
701.314636 1.617887 
702.315796 0.192289 
703.380371 0.954753 
705.396667 6.944476 
706.400818 2.24628 
707.947998 0.061391 
708.017761 0.059917 
708.141541 0.015203 
708.163879 0.020082 
708.181335 0.022476 
708.395386 0.157063 
708.683044 0.1515 
715.39978 0.204379 
715.71167 0.09907 
718.47052 0.046322 
721.39209 0.312041 
723.406006 0.016503 
725.351501 2.183518 
725.420837 2.049065 
726.354553 0.234278 
726.427551 0.379191 
728.436646 0.051391 
730.598572 0.092157 
731.376404 1.487956 
732.387085 0.058191 
743.359558 0.220784 
743.433899 0.855648 
744.437317 0.014085 
749.386963 38.200626 
750.390076 15.53893 
751.392578 2.332545 
759.422058 0.048508 
763.403564 0.031967 
765.381775 1.435087 
766.382385 1.314753 
767.396912 43.087334 
768.40033 17.973394 
769.403198 3.067936 
779.102783 0.094106 
779.602356 0.014441 
783.635193 0.040428 
784.502075 0.092371 
807.39624 0.047223 
821.485779 0.014039 
825.597961 0.029471 
831.46405 1.977476 
832.468323 0.623119 
846.077087 0.071847 
847.459717 1.042985 
848.462097 0.115932 
849.474243 4.491573 
849.583069 0.010946 
850.48053 1.563538 
850.5979 0.015826 
859.680786 0.100996 
865.467712 0.0825 
879.430054 0.075274 
893.4646 27.467817 
894.46759 13.893508 
895.468933 2.539708 
909.482788 1.015099 
909.642944 3.188514 
910.478943 1.361984 
910.643433 2.47739 
911.475098 41.320316 
911.630554 0.600348 
912.478027 20.41065 
913.48175 4.705629 
928.372253 0.07968 
END IONS

