BEGIN IONS
PEPMASS=414.155
CHARGE=1+
COMPOUNDNAME=(S,R)-Nosapine
LIBRARYQUALITY=3
SMILES=N/A
INCHIKEY=AKNNEGZIBPJZJG-MSOLQXFVSA-N
INCHI=InChI=1S/C22H23NO7/c1-23-8-7-11-9-14-20(29-10-28-14)21(27-4)15(11)17(23)18-12-5-6-13(25-2)19(26-3)16(12)22(24)30-18/h5-6,9,17-18H,7-8,10H2,1-4H3/t17-,18+/m1/s1
MSLEVEL=2
SOURCE_INSTRUMENT=N/A-ESI-QFT
FILENAME=library_mgf.mgf
SEQ=*..*
IONMODE=positive
ORGANISM=MONA
NAME=(S,R)-Nosapine [M+H]+
PI=MoNA
DATACOLLECTOR=MoNA:VF-NPL-QEHF000046
PUBMED=N/A
SUBMITUSER=mwang87
TAGS=
SPECTRUMID=CCMSLIB00004691109
SCANS=46
50.871933 0.006233 
51.305771 0.004035 
52.031788 0.006398 
52.352116 0.005886 
53.471779 0.007058 
53.951881 0.00668 
54.041794 0.006866 
54.071251 0.006095 
54.426735 0.006193 
54.560406 0.005081 
54.571461 0.006238 
55.061085 0.006071 
55.526264 0.006388 
56.413372 0.005907 
57.342838 0.006133 
58.342213 0.005173 
58.406384 0.005451 
58.816647 0.005934 
59.664951 0.006532 
60.19046 0.005637 
61.217487 0.006917 
61.968578 0.00608 
62.203548 0.005947 
62.731647 0.0052 
62.866898 0.00648 
65.395996 0.004919 
65.459648 0.006412 
66.546173 0.004785 
66.755096 0.007351 
67.255974 0.00589 
67.581741 0.006898 
68.730019 0.013962 
68.761696 0.006802 
68.852455 0.006982 
70.115471 0.00544 
70.543571 0.00405 
70.631508 0.007054 
71.142242 0.006386 
71.313965 0.004935 
71.92701 0.006286 
72.72319 0.006148 
72.787628 0.006258 
73.102669 0.005174 
73.181267 0.006157 
73.624954 0.209611 
73.868759 0.006648 
74.053001 0.00512 
74.312241 0.006134 
75.079979 0.006107 
76.661575 0.006036 
76.811035 0.006359 
77.506516 0.006511 
78.524643 0.005681 
78.599121 0.006205 
79.063522 0.005879 
79.589699 0.005667 
80.735352 0.004978 
81.085037 0.006213 
81.72509 0.006382 
82.479958 0.006463 
82.610504 0.005919 
82.72879 0.007658 
85.622101 0.004042 
86.684441 0.004474 
88.124313 0.004741 
88.357864 0.005639 
88.644936 0.006647 
88.649811 0.00586 
89.856621 0.006986 
89.859909 0.007839 
90.209389 0.006364 
90.821114 0.005838 
91.41571 0.005953 
91.59417 0.005896 
91.77301 0.006252 
92.024254 0.007367 
92.775734 0.004111 
92.958054 0.008055 
94.290932 0.005781 
94.421501 0.006063 
94.796097 0.005007 
95.420288 0.006042 
95.874962 0.006505 
96.642532 0.007678 
97.027916 0.004027 
97.288979 0.007121 
97.414246 0.00812 
97.754547 0.00465 
98.66526 0.006601 
99.060005 0.006425 
100.495781 0.007348 
100.901047 0.005772 
101.420563 0.004611 
101.840324 0.00399 
102.456093 0.004453 
106.280197 0.006549 
108.128548 0.007659 
109.123924 0.008087 
109.459923 0.00438 
110.547073 0.004779 
110.633194 0.007085 
112.577232 0.007296 
113.32415 0.007006 
114.298286 0.006679 
115.47847 0.007313 
116.308304 0.006567 
118.553841 0.007379 
120.080536 0.00668 
120.190674 0.006755 
122.357605 0.007542 
122.496689 0.007727 
122.992332 0.006468 
123.06633 0.005376 
123.960716 0.005029 
126.688416 0.006729 
127.081459 0.006749 
127.613304 0.006664 
128.422775 0.006297 
129.039108 0.006717 
129.396103 0.007047 
129.884628 0.00686 
131.552185 0.006975 
133.87915 0.005969 
135.78212 0.006417 
136.244614 0.043505 
138.476364 0.006344 
139.917953 0.006322 
140.826385 0.005203 
142.216705 0.004595 
142.958267 0.006953 
145.381454 0.006967 
145.822357 0.006727 
149.585678 0.005405 
150.813141 0.006712 
152.354553 0.006596 
153.418381 0.00817 
156.682251 0.007287 
165.054749 0.110756 
167.716217 0.006877 
175.973572 0.006229 
176.516876 0.006184 
176.612442 0.004646 
179.070251 4.886718 
180.073608 0.415074 
181.063751 0.007596 
190.02803 0.006714 
191.069824 0.022352 
196.039337 0.00599 
198.032303 0.006792 
199.374741 0.007273 
201.230911 0.005359 
201.379303 0.006246 
205.049866 0.007818 
205.073608 0.342744 
206.081268 1.598883 
207.084549 0.092192 
209.139694 0.00561 
209.246674 0.0059 
210.202103 0.006565 
212.40416 0.005754 
212.652512 0.006359 
214.089813 0.006916 
214.51503 0.261467 
214.528809 0.264881 
218.081192 0.391239 
218.414261 0.004767 
219.088974 0.492373 
220.096756 100.0 
221.100128 10.597569 
221.990051 0.006632 
222.102325 0.146886 
236.091888 0.05881 
237.717621 0.005904 
237.835709 0.006846 
239.403305 0.007075 
242.317276 0.004283 
242.487579 0.005703 
245.05574 0.0076 
248.091675 0.985017 
249.05513 0.005675 
249.094849 0.048456 
252.958557 0.007479 
257.90979 0.006955 
266.484283 0.004602 
268.355408 0.007432 
270.427277 0.004562 
274.972687 0.025423 
275.473389 0.00474 
279.958374 0.005605 
281.677155 0.007292 
282.452728 0.007732 
295.096619 0.017787 
301.060883 0.006708 
301.094879 0.006246 
307.096161 0.074119 
308.103607 0.057154 
312.098145 0.005396 
321.074829 0.011173 
321.672119 0.006329 
322.08313 0.044861 
323.091187 0.570943 
324.098694 0.98102 
325.104889 0.280317 
325.48819 0.007059 
327.122406 0.129586 
328.242523 0.005936 
329.199646 0.00621 
332.267395 0.006021 
334.083313 0.441111 
335.090393 0.51113 
336.094391 0.012746 
337.10672 0.055336 
338.078522 0.026941 
338.113464 0.014495 
339.122528 0.224371 
341.102081 0.021472 
347.361145 0.007262 
350.078217 1.053153 
351.083069 0.225065 
352.06955 0.005695 
352.093628 0.816404 
352.115875 0.026712 
353.101715 16.604588 
354.105133 3.212293 
355.117096 0.519516 
356.122009 0.033024 
359.919739 0.005737 
365.101776 6.28858 
366.105072 1.265068 
367.117065 0.055633 
368.147888 0.025289 
368.314392 0.007301 
371.111908 0.436054 
372.866638 0.006949 
378.132996 0.493327 
379.137054 0.022569 
381.119965 0.774617 
382.124451 0.073298 
382.321777 0.00417 
382.957092 0.006634 
383.111755 0.746695 
384.115479 0.087776 
396.143616 2.142912 
397.147034 0.429405 
397.923523 0.005991 
399.130646 0.035724 
406.110382 0.006787 
406.738861 0.007991 
414.154144 50.384998 
415.157471 10.95683 
416.160004 0.43194 
421.1987 0.00774 
428.945374 0.00678 
435.033691 0.006949 
END IONS

