BEGIN IONS
PEPMASS=895.481
CHARGE=1+
COMPOUNDNAME=ABAMECTIN
LIBRARYQUALITY=3
SMILES=N/A
INCHIKEY=RRZXIRBKKLTSOM-XPNPUAGNSA-N
INCHI=InChI=1S/C48H72O14/c1-11-25(2)43-28(5)17-18-47(62-43)23-34-20-33(61-47)16-15-27(4)42(26(3)13-12-14-32-24-55-45-40(49)29(6)19-35(46(51)58-34)48(32,45)52)59-39-22-37(54-10)44(31(8)57-39)60-38-21-36(53-9)41(50)30(7)56-38/h12-15,17-19,25-26,28,30-31,33-45,49-50,52H,11,16,20-24H2,1-10H3/b13-12+,27-15+,32-14+/t25-,26-,28-,30-,31-,33+,34-,35-,36-,37-,38-,39-,40+,41-,42-,43+,44-,45+,47+,48+/m0/s1
MSLEVEL=2
SOURCE_INSTRUMENT=N/A-ESI-QFT
FILENAME=library_mgf.mgf
SEQ=*..*
IONMODE=positive
ORGANISM=MONA
NAME=ABAMECTIN [M+Na]+
PI=MoNA
DATACOLLECTOR=MoNA:VF-NPL-QEHF028043
PUBMED=N/A
SUBMITUSER=mwang87
TAGS=
SPECTRUMID=CCMSLIB00004721624
SCANS=28043
64.12532 0.729515 
64.546463 0.207093 
64.62928 0.097993 
64.951302 0.139803 
65.344788 0.465223 
65.4245 0.103618 
65.444168 0.586313 
67.054314 13.631272 
67.289268 0.694846 
68.24028 0.739352 
68.42186 0.149779 
68.762619 0.470589 
68.995857 0.116961 
69.033539 34.756439 
69.054321 0.895087 
70.134087 0.473038 
70.712563 0.637497 
71.049324 0.489304 
71.383011 0.289653 
71.946472 0.415897 
73.046829 6.314037 
73.064774 7.767141 
73.565971 0.626149 
73.581841 0.311544 
74.776764 0.629738 
75.196854 0.568989 
75.253288 0.121504 
75.785698 0.284659 
76.063766 0.708476 
76.324051 0.555707 
77.057556 0.143689 
77.121208 0.423941 
77.722275 0.729339 
78.253792 0.574472 
78.93576 0.452291 
79.054192 4.723233 
79.061386 0.132519 
79.066589 0.21744 
79.136971 0.655915 
79.661636 0.884419 
80.50074 0.727046 
81.06987 21.502558 
81.082359 0.876473 
85.028046 0.109324 
86.126839 0.473831 
86.504852 0.699077 
86.944679 0.210457 
87.044121 0.952241 
87.859756 0.591845 
87.914589 0.61392 
88.077179 0.578883 
88.337402 0.450111 
88.866554 0.298452 
89.021477 0.215028 
89.255188 0.303738 
89.807503 0.823743 
89.89045 0.647855 
91.057304 4.431411 
92.671562 0.313624 
92.762924 0.121282 
93.069847 18.496088 
94.51899 0.67349 
95.04908 34.46331 
95.085594 0.711423 
95.444313 0.23224 
95.581139 0.218202 
95.66198 0.760661 
95.933907 0.185946 
95.985703 0.851271 
97.064827 1.133816 
97.176422 0.742275 
98.603096 0.777898 
99.956375 0.697014 
101.356865 0.668376 
101.510101 0.299272 
103.239601 0.646089 
103.582336 0.69098 
103.880081 0.26045 
104.726631 0.599373 
105.070084 1.177855 
105.40847 0.687669 
106.040794 0.873373 
106.343315 0.743212 
107.085487 3.592788 
107.15657 0.503009 
107.737282 0.653179 
108.016373 0.282382 
108.249001 0.764037 
108.861061 0.554124 
109.025917 4.791677 
109.062134 5.169993 
109.101128 19.997051 
109.149582 0.626006 
109.318649 0.471969 
109.672829 0.155571 
110.070084 0.939798 
110.830315 0.524422 
110.975365 2.449752 
111.936089 0.622976 
113.059563 34.773335 
114.968254 0.327446 
116.606438 0.703096 
116.877335 0.29914 
119.085548 1.125416 
120.110168 0.742973 
120.680016 0.210727 
121.101074 10.033198 
121.366486 0.589557 
123.080429 0.742449 
123.116684 83.35041 
123.323601 0.210979 
123.607193 0.389509 
124.120064 0.701918 
125.020668 0.144859 
125.057388 0.281536 
125.699547 0.158746 
127.075256 0.311964 
127.171951 0.281786 
128.985809 2.050118 
129.058838 0.248289 
130.236206 0.498219 
131.059418 0.513936 
131.416382 0.204209 
132.326294 0.204722 
132.424164 0.287481 
133.100998 0.488966 
133.886124 0.740348 
134.128296 1.008738 
134.975784 0.105691 
135.041428 29.293962 
136.436432 0.223351 
137.057251 0.387144 
138.020523 0.287365 
139.0728 67.661613 
140.076675 0.601955 
142.834717 0.632921 
143.001877 0.13929 
144.634918 0.743686 
144.965714 0.328701 
145.085709 4.916952 
145.334961 0.195908 
147.041534 0.294396 
148.653244 0.696964 
149.044708 1.020681 
149.950516 0.26024 
151.03653 13.212046 
151.072922 35.813232 
151.111603 25.271099 
151.287949 0.923178 
152.075989 0.307111 
152.896973 0.717692 
153.052109 83.72216 
153.696228 0.114083 
153.864929 0.206687 
154.054001 0.281808 
154.552551 0.23356 
157.452652 0.293862 
159.197433 0.197867 
159.327652 0.782795 
162.688522 0.492748 
162.786789 0.8616 
163.329819 0.110737 
164.663177 0.537289 
166.447357 0.229243 
167.055252 2.12117 
167.067795 46.360592 
168.071655 0.219153 
169.122162 4.732243 
169.859726 0.108899 
170.14119 0.934459 
170.437439 0.665361 
170.877869 0.792494 
171.310532 0.149973 
173.057358 0.55235 
174.071609 0.14188 
174.791901 0.163219 
175.527145 0.104368 
177.697128 0.193726 
180.935501 0.77021 
181.068375 0.220921 
181.692932 0.208986 
182.547928 0.230297 
183.062759 100.0 
184.065887 0.75535 
185.07843 13.329398 
187.073853 0.14524 
188.172134 0.638661 
188.381607 0.207186 
189.275879 0.108566 
189.323181 0.197474 
191.10408 56.139435 
192.105927 0.223246 
193.516357 0.560371 
194.158478 0.786267 
194.947647 0.720809 
198.446014 0.250234 
198.872955 0.699627 
203.090302 0.285998 
204.318802 0.190706 
206.550552 0.326377 
209.877029 0.737281 
211.072586 1.987596 
212.948944 0.750268 
214.037735 0.799438 
215.190414 0.498729 
218.210403 0.469027 
218.73941 0.328981 
219.483688 0.281355 
221.178833 0.751839 
222.985367 0.226322 
223.110138 0.473227 
223.908676 0.125727 
225.109528 5.159647 
227.875031 0.230547 
230.706604 0.287252 
237.193634 0.304018 
237.63092 0.301928 
239.088913 2.950961 
239.862656 0.43014 
240.11174 96.494766 
241.118286 11.601869 
245.067902 0.267529 
245.085678 0.235097 
246.472641 0.132331 
246.588379 0.17549 
249.122055 0.146382 
251.125168 8.154218 
252.86702 0.663501 
255.069687 0.284336 
268.523529 0.154316 
271.129517 1.412696 
273.532196 0.134671 
281.135559 1.763217 
285.109772 1.62793 
286.453339 0.489104 
287.124695 3.517075 
289.480377 0.222248 
295.761566 0.800849 
299.062469 0.236569 
301.104706 0.171607 
302.189697 0.236588 
303.12027 1.231883 
304.164734 3.405183 
304.186249 0.607157 
305.172272 32.92091 
306.1763 0.429811 
306.915863 0.343427 
308.168427 0.292111 
309.182037 10.342163 
309.502472 0.256791 
309.932861 0.496536 
311.127289 0.705905 
311.146179 39.790077 
312.150116 0.130589 
314.291656 0.66934 
315.240356 0.22654 
318.691864 0.280025 
327.142334 0.237862 
327.192749 65.3573 
328.196533 3.03432 
329.155518 0.33728 
335.161713 1.919715 
338.412628 0.286651 
339.055115 0.142254 
346.690491 0.303854 
353.171692 8.458558 
369.166504 0.54134 
376.378418 0.281265 
377.208862 2.009169 
381.914246 0.279474 
385.197906 0.642654 
386.674957 0.310558 
387.046906 0.52697 
390.335388 0.314651 
395.204346 0.499632 
401.167023 0.316 
409.367004 0.208568 
412.244385 0.268561 
415.207489 0.206122 
417.403259 0.453132 
436.509155 0.222132 
437.824219 0.562135 
449.250397 14.225373 
455.239838 58.010193 
455.311371 0.499882 
456.24295 7.353728 
464.174286 0.855789 
466.803314 0.128564 
476.168121 0.353103 
480.220978 0.240144 
488.218414 0.294031 
496.256897 0.168712 
496.862366 0.671031 
497.048492 0.149386 
497.245148 0.423156 
498.988831 0.280336 
504.983582 0.505693 
516.604858 0.51222 
521.285828 1.50157 
528.851685 0.782298 
530.391541 0.670577 
532.258972 0.325389 
533.427368 0.43905 
550.763184 0.814882 
553.761597 0.338954 
555.336304 0.640767 
582.439575 0.539248 
584.033447 0.311784 
589.781921 0.282163 
607.321228 1.790171 
616.017212 0.154978 
619.944702 0.248726 
657.848511 0.14882 
665.33136 0.238146 
670.280029 0.306835 
680.626465 0.799549 
683.457092 0.159024 
698.415588 0.736318 
705.466248 0.149453 
707.422241 0.769077 
707.963257 0.158675 
708.037659 0.73795 
708.258606 2.537265 
708.541992 0.403375 
708.655151 0.29719 
708.775635 0.818409 
725.397827 0.546569 
735.270996 0.519823 
735.408386 0.706393 
742.85144 0.271701 
751.074524 0.253052 
815.732178 0.56447 
817.123901 0.862871 
834.279053 0.164076 
840.026001 0.925188 
849.852478 0.221569 
859.975708 0.685332 
882.553406 0.881398 
884.36792 0.154271 
911.936462 0.482474 
921.162292 0.125121 
933.417664 0.799172 
934.862549 0.727893 
END IONS

