BEGIN IONS
PEPMASS=540.0
CHARGE=1+
COMPOUNDNAME=Massbank:KO002242 Apramycin sulfate|Apramycin
LIBRARYQUALITY=3
SMILES=OC[C@@H](O1)[C@@H](N)[C@H](O)[C@@H](O)[C@H]1O[C@H](O2)[C@@H](NC)[C@@H](O)[C@@H](O3)[C@@H](C[C@@H](N)[C@@H](O[C@H]([C@@H](N)4)[C@H](O)[C@@H](O)[C@H](N)C4)3)2
INCHIKEY=XZNUGFQTQHRASN-UXNWEDNLSA-N
INCHI=1S/C21H41N5O11/c1-26-11-14(30)18-8(33-20(11)37-21-16(32)13(29)10(25)9(4-27)34-21)3-7(24)19(36-18)35-17-6(23)2-5(22)12(28)15(17)31/h5-21,26-32H,2-4,22-25H2,1H3/t5-,6+,7-,8-,9-,10-,11+,12+,13+,14-,15-,16-,17-,18+,19+,20+,21-/m1/s1
MSLEVEL=2
SOURCE_INSTRUMENT=ESI-LC-ESI-QQ
FILENAME=Massbank_ESI_positive_8_1_2014_peaks.mgf
SEQ=*..*
IONMODE=Positive
ORGANISM=MASSBANK
NAME=Massbank:KO002242 Apramycin sulfate|Apramycin [M+H]+
PI=Putative Massbank Match
DATACOLLECTOR=Massbank
PUBMED=N/A
SUBMITUSER=mwang87
TAGS=
SPECTRUMID=CCMSLIB00000216975
SCANS=8044
68.9 24752.5 
72.1 99010.0 
74.0 74257.5 
81.2 39604.0 
82.3 24752.5 
84.0 99010.0 
86.3 84158.5 
88.9 24752.5 
89.5 84158.5 
94.2 34653.5 
96.2 351485.5 
97.7 39604.0 
102.0 79208.0 
108.2 39604.0 
110.3 198020.0 
111.1 138614.0 
112.9 24752.5 
114.2 49505.0 
120.2 9901.0 
126.1 153465.5 
135.2 79208.0 
135.9 44554.5 
141.9 39604.0 
144.2 118812.0 
149.9 39604.0 
152.0 59406.0 
162.2 282178.5 
163.3 341584.5 
170.0 84158.5 
180.0 44554.5 
180.5 39604.0 
182.0 64356.5 
182.4 14851.5 
199.4 400990.5 
200.5 54455.5 
201.2 118812.0 
217.4 1346536.0 
225.0 24752.5 
229.0 34653.5 
271.4 123762.5 
289.7 64356.5 
326.7 64356.5 
END IONS

