BEGIN IONS
PEPMASS=241.135
CHARGE=1+
COMPOUNDNAME=Huperzine A
LIBRARYQUALITY=3
SMILES=N/A
INCHIKEY=ZRJBHWIHUMBLCN-UHFFFAOYSA-N
INCHI=InChI=1S/C15H18N2O/c1-3-11-10-6-9(2)8-15(11,16)12-4-5-14(18)17-13(12)7-10/h3-6,10H,7-8,16H2,1-2H3,(H,17,18)
MSLEVEL=2
SOURCE_INSTRUMENT=N/A-ESI-QFT
FILENAME=library_mgf.mgf
SEQ=*..*
IONMODE=negative
ORGANISM=MONA
NAME=Huperzine A [M-H]-
PI=MoNA
DATACOLLECTOR=MoNA:VF-NPL-QEHF027217
PUBMED=N/A
SUBMITUSER=mwang87
TAGS=
SPECTRUMID=CCMSLIB00004720798
SCANS=27217
50.019146 0.036852 
50.335819 0.029462 
50.789234 0.038712 
51.123001 0.024939 
51.751801 0.018922 
52.016396 0.03144 
52.085804 0.03119 
52.626591 0.017995 
53.902451 0.039047 
54.116703 0.028837 
54.346733 0.019991 
54.604874 0.024015 
54.748135 0.023753 
54.791882 0.018518 
54.968704 0.022362 
55.280033 0.028658 
55.799328 0.038508 
55.916084 0.044424 
56.133343 0.028184 
56.161785 0.017837 
57.033241 0.019418 
57.291649 0.033849 
57.865498 0.01759 
58.104832 0.018689 
58.233959 0.038202 
59.012466 10.191534 
59.486397 0.018014 
60.015896 0.032836 
60.922489 0.028902 
61.03474 0.031748 
61.986996 1.961234 
62.010098 0.017849 
63.213158 0.035946 
63.777824 0.031883 
64.144196 0.036541 
64.896736 0.017806 
64.967552 0.020082 
65.086456 0.029771 
65.769043 0.026595 
69.074059 0.016536 
69.828224 0.030784 
70.151947 0.021446 
70.194038 0.024571 
70.441566 0.019495 
70.813408 0.029506 
71.021812 0.034898 
71.023849 0.03939 
71.343018 0.025257 
71.637985 0.030896 
72.534882 0.043856 
73.069489 0.045823 
73.273842 0.021373 
74.428085 0.040984 
74.98951 1.219526 
75.199875 0.019005 
75.320427 0.03205 
75.98912 0.039993 
76.708519 0.038965 
77.532249 0.020845 
78.56871 0.027765 
79.046165 0.017432 
79.276863 0.024633 
79.645744 0.032708 
79.956093 0.423962 
80.963867 0.058061 
81.691055 0.040916 
82.78566 0.022155 
84.341637 0.017325 
84.391151 0.028539 
84.941811 0.579223 
85.388443 0.035803 
86.201942 0.042994 
86.941628 0.036766 
87.007431 0.402244 
89.023125 1.484569 
89.309021 0.027098 
90.996834 0.026526 
91.02079 9.183911 
91.720245 0.01842 
92.02034 2.102649 
92.023994 0.73251 
92.23172 0.030834 
93.000084 0.122318 
93.017548 1.305741 
94.159836 0.017118 
94.979477 0.025343 
95.101562 0.02977 
95.846519 0.034684 
96.098534 0.030542 
96.689095 0.038165 
96.958824 1.09167 
97.064651 0.019302 
97.651436 0.03296 
98.302216 0.042471 
98.954659 0.206218 
99.007408 0.403606 
99.018684 0.911123 
101.059471 0.29582 
101.69397 0.021082 
103.918938 0.170152 
105.131874 0.01795 
108.04055 0.036368 
108.044205 1.483889 
108.23745 0.041923 
108.901337 0.027496 
109.028091 0.173007 
109.038757 0.028992 
109.064743 0.040072 
109.757126 0.03249 
111.984596 0.020172 
112.050285 0.08863 
112.32708 0.023914 
112.398842 0.033989 
112.574203 0.02774 
112.857025 0.041354 
113.034515 0.065417 
114.694267 0.029406 
115.643738 0.037868 
116.033493 0.022051 
117.019417 1.158137 
117.043755 0.023291 
118.0317 0.038012 
119.024078 0.219929 
119.9254 0.030574 
121.535576 0.028183 
125.871872 0.029647 
127.321312 0.025605 
128.034119 0.648212 
128.931808 0.833953 
129.027344 0.027566 
129.054657 0.040725 
130.142517 0.026931 
133.039551 2.241672 
133.845352 0.021577 
134.259918 0.039133 
135.007782 0.01829 
140.899094 0.04042 
141.163376 0.023768 
142.343826 0.037532 
146.98204 0.585879 
148.979202 0.58773 
149.008621 1.643281 
149.912094 0.152275 
150.00798 0.299122 
150.987823 5.134433 
151.005676 0.140298 
151.103821 0.020785 
151.755798 0.050601 
151.987137 0.185139 
152.63797 0.026338 
152.966599 0.055465 
152.98468 0.024504 
153.018265 0.135726 
153.102356 0.024499 
154.062485 1.478758 
155.065918 0.083456 
156.019653 0.045675 
156.040482 0.507736 
157.122513 0.377034 
157.535782 0.028789 
158.125641 0.039594 
159.030228 0.364988 
160.025513 3.585303 
160.033066 0.031711 
160.841446 0.028676 
162.892624 0.029751 
164.894104 0.034761 
167.143234 0.279918 
168.997665 0.033124 
170.422424 0.020048 
170.909561 5.859557 
176.993118 1.267305 
177.496414 0.122669 
178.919601 0.085508 
178.944626 0.021917 
178.997818 1.775189 
179.106613 0.034097 
181.158981 39.717953 
181.629822 0.029799 
182.045105 0.034212 
182.16243 2.552459 
182.893753 0.02503 
184.000885 14.110098 
184.014435 2.17306 
184.503754 3.846532 
184.991241 0.026192 
184.998657 0.853737 
185.007248 0.029299 
185.071228 3.156269 
185.501602 0.110911 
186.017639 0.096219 
186.079285 0.323606 
191.008957 0.354747 
191.511368 0.029428 
195.138428 3.628739 
195.905304 0.033034 
196.141785 1.491565 
197.008316 0.244505 
197.07132 0.246268 
197.117371 0.020839 
197.128647 0.034726 
197.154022 3.095236 
197.991364 0.200425 
198.157745 0.102114 
198.185715 3.866685 
200.500015 0.623863 
208.9758 0.485923 
210.092041 1.040616 
210.955139 1.444821 
211.900558 0.017549 
212.107193 0.030589 
216.577591 0.558592 
216.585449 0.339346 
220.516373 0.044257 
222.092102 0.139908 
222.187057 0.032629 
222.990295 0.089673 
223.028015 18.227974 
223.087143 2.264032 
224.027863 63.911266 
224.053421 0.033043 
224.107697 0.424014 
224.165237 9.427064 
224.970688 1.132328 
225.00621 0.156314 
225.024231 38.443329 
225.103027 17.386875 
225.149185 77.391792 
226.024353 4.035816 
226.106171 2.258896 
226.152695 5.692214 
227.021378 0.373591 
232.882751 0.021149 
239.119049 0.714722 
239.201202 0.140334 
240.023499 0.431759 
240.064316 0.604992 
240.077606 1.108171 
240.102814 4.718748 
240.352921 0.022731 
240.871185 0.064168 
241.002121 1.130316 
241.020081 0.127215 
241.037567 0.040501 
241.072205 17.371912 
241.088165 0.611135 
241.112747 0.055001 
241.134506 96.363228 
241.180344 0.038214 
241.217209 25.870678 
241.57373 4.144558 
242.038925 0.058193 
242.070358 1.368943 
242.123001 0.104632 
242.138138 15.205062 
242.175995 100.0 
242.220352 3.95188 
242.572052 0.112003 
242.981537 1.677511 
243.03566 0.050344 
243.140884 0.243918 
243.160034 7.314073 
243.179352 7.232506 
243.192459 0.079691 
244.163437 0.267262 
251.965607 0.035584 
261.996277 0.02666 
264.897491 0.03904 
END IONS

