BEGIN IONS
PEPMASS=446.0
CHARGE=1+
COMPOUNDNAME=MoNA:2355054 Sissomicin
LIBRARYQUALITY=3
SMILES=N/A
INCHIKEY=URWAJWIAIPFPJE-YFMIWBNJSA-N
INCHI=InChI=1S/C19H37N5O7/c1-19(27)7-28-18(13(26)16(19)24-2)31-15-11(23)5-10(22)14(12(15)25)30-17-9(21)4-3-8(6-20)29-17/h3,9-18,24-27H,4-7,20-23H2,1-2H3/t9-,10+,11-,12+,13-,14-,15+,16-,17-,18-,19+/m1/s1
MSLEVEL=2
SOURCE_INSTRUMENT=LC-ESI-QQ-LC-ESI-QQ
FILENAME=output_mgf.mgf
SEQ=*..*
IONMODE=
ORGANISM=MONA
NAME=MoNA:2355054 Sissomicin [M-H]-
PI=MoNA
DATACOLLECTOR=MoNA
PUBMED=N/A
SUBMITUSER=mwang87
TAGS=
SPECTRUMID=CCMSLIB00000571899
SCANS=9150
58.3 12.0 
59.2 54.0 
71.8 54.0 
72.7 16.0 
74.7 8.0 
82.0 10.0 
84.2 22.0 
85.9 16.0 
96.8 16.0 
101.9 100.0 
106.8 6.0 
108.3 10.0 
216.8 12.0 
287.0 6.0 
END IONS

