BEGIN IONS
PEPMASS=414.034
CHARGE=1+
COMPOUNDNAME=(S,R)-Nosapine
LIBRARYQUALITY=3
SMILES=N/A
INCHIKEY=AKNNEGZIBPJZJG-MSOLQXFVSA-N
INCHI=InChI=1S/C22H23NO7/c1-23-8-7-11-9-14-20(29-10-28-14)21(27-4)15(11)17(23)18-12-5-6-13(25-2)19(26-3)16(12)22(24)30-18/h5-6,9,17-18H,7-8,10H2,1-4H3/t17-,18+/m1/s1
MSLEVEL=2
SOURCE_INSTRUMENT=N/A-Linear Ion Trap
FILENAME=library_mgf.mgf
SEQ=*..*
IONMODE=positive
ORGANISM=MONA
NAME=(S,R)-Nosapine M+H
PI=MoNA
DATACOLLECTOR=MoNA:VF-NPL-LTQ000014
PUBMED=N/A
SUBMITUSER=mwang87
TAGS=
SPECTRUMID=CCMSLIB00004684387
SCANS=8
175.899994 2.728387 
187.880005 1.93178 
204.910004 24.150866 
220.039993 100.0 
323.019989 0.914403 
349.929993 2.208475 
END IONS

