BEGIN IONS
PEPMASS=175.024
CHARGE=1+
COMPOUNDNAME=Aconitic Acid
LIBRARYQUALITY=3
SMILES=N/A
INCHIKEY=GTZCVFVGUGFEME-IWQZZHSRSA-N
INCHI=InChI=1S/C6H6O6/c7-4(8)1-3(6(11)12)2-5(9)10/h1H,2H2,(H,7,8)(H,9,10)(H,11,12)/b3-1-
MSLEVEL=2
SOURCE_INSTRUMENT=N/A-ESI-QFT
FILENAME=library_mgf.mgf
SEQ=*..*
IONMODE=positive
ORGANISM=MONA
NAME=Aconitic Acid [M+H]+
PI=MoNA
DATACOLLECTOR=MoNA:VF-NPL-QEHF026286
PUBMED=N/A
SUBMITUSER=mwang87
TAGS=
SPECTRUMID=CCMSLIB00004717349
SCANS=26286
50.292057 0.006861 
51.47451 0.010957 
51.604038 0.013049 
51.703106 0.012627 
52.127628 0.006864 
52.174351 0.022925 
53.261398 0.026057 
53.80241 0.009043 
53.83107 0.007505 
54.543571 0.024057 
54.693508 0.036486 
55.05455 0.172067 
55.192814 0.02248 
55.934654 0.009258 
56.04977 0.042671 
56.458233 0.013121 
56.6441 0.02614 
56.965092 9.529971 
57.023247 0.007577 
57.070175 0.039574 
57.103264 0.029558 
57.263203 0.013102 
57.374397 0.007762 
57.442604 0.007979 
57.935085 0.069308 
58.065388 0.209993 
58.985634 0.02827 
58.988102 0.446634 
59.049412 0.126078 
59.549294 0.027391 
59.977619 0.061128 
60.055901 0.213476 
60.095078 0.00838 
60.481609 0.38091 
61.010891 0.600316 
61.122295 0.031511 
61.232449 0.010235 
62.018723 0.62951 
62.190098 0.022685 
62.195816 0.030738 
62.253922 0.027076 
62.591751 0.024575 
62.880138 0.024738 
62.981972 0.829133 
62.990139 0.458524 
63.587986 0.026879 
63.99794 0.699253 
64.070633 0.008454 
64.190598 0.038875 
64.390511 0.008358 
65.341103 0.021585 
65.641922 0.025428 
66.065018 0.028603 
66.102287 0.013149 
66.140312 0.024625 
66.416168 0.025945 
66.421677 0.02567 
66.710907 0.027166 
67.05439 0.583579 
67.993111 4.030349 
68.049477 0.013292 
68.117126 0.028294 
68.23143 0.028945 
68.372169 0.009927 
68.752632 0.027448 
68.982712 0.12877 
69.069984 0.074992 
69.486694 1.805201 
70.065224 8.321991 
70.609131 0.008926 
70.679558 0.025084 
70.957977 0.009149 
71.034073 0.00733 
71.049194 0.020831 
71.068558 0.11034 
71.353996 0.027113 
71.50676 0.024091 
71.519073 0.026693 
71.951988 0.441767 
72.055725 0.032765 
72.080833 0.281716 
73.670471 0.033425 
74.975449 0.848833 
75.40963 0.026858 
76.383766 0.007425 
76.401047 0.007661 
76.943459 0.012253 
76.998306 32.248241 
77.30352 0.014379 
77.497757 0.03442 
77.500099 0.284507 
77.701973 0.031003 
77.713089 0.008852 
77.771675 0.027104 
77.987869 0.054376 
77.996338 0.475414 
78.000626 0.027678 
78.013626 0.009316 
78.49189 2.099111 
78.51239 0.00914 
79.021248 3.893134 
79.02375 0.037016 
79.054283 0.604623 
79.648155 0.028907 
79.820915 0.032817 
80.178864 0.023853 
80.67495 0.023733 
81.069939 0.676075 
81.642822 0.008941 
82.608269 0.023906 
82.971237 0.088218 
83.61615 0.027254 
84.006218 0.302499 
84.081047 0.009361 
86.003586 67.582146 
86.060059 0.087084 
86.088768 0.036263 
86.09642 0.014408 
86.16272 0.01014 
86.477455 0.028357 
86.503014 0.052585 
86.50544 0.915971 
86.757515 0.027898 
87.001587 1.636172 
87.005836 0.332934 
87.044167 0.026362 
87.192474 0.008174 
87.497208 0.457138 
89.028236 0.022898 
89.205635 0.02665 
89.781326 0.010065 
89.848679 0.033645 
89.97908 0.060724 
90.482971 3.888402 
90.744431 0.03017 
91.054291 1.814061 
91.818588 0.02574 
91.976646 0.144154 
92.057503 0.01927 
92.605469 0.008822 
93.011467 1.574524 
93.069893 0.506313 
93.310318 0.024281 
94.175461 0.023311 
95.008888 18.066126 
95.049179 0.010847 
95.085564 0.231689 
95.511147 0.068387 
96.006882 0.125467 
96.080627 0.010875 
96.348183 0.012608 
97.83429 0.007746 
97.929337 0.007381 
97.994759 1.844932 
98.096489 0.629935 
98.586662 0.022759 
98.975426 22.602036 
98.984398 0.516578 
99.488281 42.546879 
99.735382 0.023262 
99.990051 0.586144 
100.07547 0.009167 
100.48304 0.022978 
100.486252 1.754117 
100.489746 0.034738 
100.708366 0.009413 
100.98185 0.437845 
101.492546 0.00957 
102.016762 0.173304 
102.619186 0.009063 
102.896797 0.009835 
103.000374 0.026124 
104.014168 0.344133 
105.069954 1.208774 
106.073174 0.019402 
106.496109 0.446308 
106.551613 0.025662 
106.996002 0.055444 
106.999992 13.912404 
107.085655 0.088528 
107.501823 0.207179 
107.989639 1.577987 
107.997971 0.490355 
108.415733 0.011043 
108.493492 100.0 
108.995506 2.599594 
109.284653 0.025105 
109.491501 4.407688 
109.49543 0.505298 
109.975143 0.01285 
109.987137 0.216542 
111.288773 0.014083 
113.070984 1.125671 
113.23555 0.028234 
114.007904 0.085741 
114.055031 0.141882 
114.091438 0.025599 
114.840355 0.01262 
114.867462 0.008242 
115.054565 0.013878 
115.08728 0.008741 
115.501389 2.343801 
115.976524 0.009821 
116.005341 26.203171 
116.070724 0.087647 
116.107132 0.055089 
116.202255 0.03442 
116.479675 0.011116 
116.506973 0.972076 
116.648026 0.027858 
116.909409 0.015545 
116.985962 7.478801 
116.995132 0.031889 
117.00322 1.376476 
117.069954 0.45039 
117.498856 19.690632 
117.788513 0.013761 
118.000557 0.343176 
118.496819 0.708732 
119.085655 0.900743 
120.001465 0.027368 
123.013145 0.328852 
123.091377 0.008803 
123.991394 0.010273 
124.188011 0.03277 
124.506813 0.128984 
124.781029 0.009393 
125.010651 2.382819 
126.008514 0.013453 
126.50457 0.070528 
126.860405 0.008978 
127.160706 0.01054 
128.129242 0.027583 
129.069778 0.025233 
129.425308 0.026314 
129.79155 0.034403 
129.865402 0.028734 
130.065201 0.107658 
131.073135 0.02197 
131.085663 1.904849 
132.080521 0.012927 
132.089035 0.083092 
132.927124 0.010592 
132.95813 0.043515 
133.051727 0.011671 
133.101212 0.490637 
133.789581 0.025982 
134.096527 0.28775 
134.2267 0.022238 
134.919907 0.136517 
134.978729 0.040694 
134.996567 0.856712 
139.923431 0.010477 
143.085403 0.00881 
143.978073 0.009789 
145.101303 0.278897 
145.979019 0.124904 
146.060211 0.044137 
146.096481 0.01928 
146.974609 0.010858 
147.116608 0.023819 
147.157791 0.010328 
147.523636 0.010279 
148.971649 0.009945 
150.256729 0.008363 
150.951263 0.051322 
152.930084 0.0089 
153.812103 0.012693 
154.075043 0.025471 
154.382462 0.032148 
156.138321 0.109548 
157.488297 0.028806 
159.067719 0.042082 
160.706451 0.025468 
161.002533 0.11981 
161.80127 0.032858 
161.858002 0.029621 
162.830688 0.027346 
163.049774 0.021289 
165.168243 0.020977 
168.182587 0.023116 
168.362686 0.029163 
168.935532 0.026068 
169.290802 0.021019 
172.428864 0.007719 
173.108109 0.009623 
173.132446 0.066808 
174.055481 0.057783 
174.091766 0.017208 
174.127899 0.080185 
174.148849 0.114128 
175.148392 0.052373 
176.117889 0.018065 
176.143677 0.289059 
176.643524 0.024649 
178.963562 0.022841 
188.019867 0.012941 
189.649918 0.00835 
190.327652 0.025643 
196.624344 0.028125 
198.759857 0.013307 
END IONS

