BEGIN IONS
PEPMASS=321.133
CHARGE=1+
COMPOUNDNAME=MYCOPHENOLIC ACID
LIBRARYQUALITY=3
SMILES=N/A
INCHIKEY=HPNSFSBZBAHARI-RUDMXATFSA-N
INCHI=InChI=1S/C17H20O6/c1-9(5-7-13(18)19)4-6-11-15(20)14-12(8-23-17(14)21)10(2)16(11)22-3/h4,20H,5-8H2,1-3H3,(H,18,19)/b9-4+
MSLEVEL=2
SOURCE_INSTRUMENT=N/A-ESI-QFT
FILENAME=library_mgf.mgf
SEQ=*..*
IONMODE=positive
ORGANISM=MONA
NAME=MYCOPHENOLIC ACID [M+H]+
PI=MoNA
DATACOLLECTOR=MoNA:VF-NPL-QEHF011307
PUBMED=N/A
SUBMITUSER=mwang87
TAGS=
SPECTRUMID=CCMSLIB00004702370
SCANS=11307
50.004383 0.019789 
50.162083 0.018866 
50.241138 0.019386 
50.391541 0.016497 
50.641994 0.017112 
51.003014 0.015632 
51.197418 0.016212 
51.410698 0.013323 
51.463924 0.017024 
51.464378 0.015331 
51.464962 0.031162 
51.46545 0.022486 
51.467129 0.021179 
51.632812 0.022345 
52.602306 0.024283 
52.994663 0.019029 
53.039364 0.25135 
53.821522 0.025891 
53.976677 0.015156 
54.228603 0.017151 
54.605965 0.020278 
55.018627 1.790667 
55.025024 0.017957 
55.055016 0.071343 
55.228439 0.016842 
55.901436 0.017561 
55.935558 0.016039 
55.953316 0.020125 
56.820339 0.018132 
57.164265 0.023388 
57.418983 0.019636 
58.15451 0.023478 
58.286461 0.020109 
58.665421 0.018024 
59.125259 0.022592 
59.257492 0.016732 
59.464794 0.017482 
60.630463 0.021121 
60.800228 0.01943 
60.967705 0.024112 
61.368542 0.017751 
61.558346 0.015378 
62.66832 0.017775 
63.643688 0.019095 
64.134132 0.018082 
64.627556 0.01588 
64.741478 0.017964 
65.03933 0.393644 
65.358154 0.016663 
65.969833 0.019852 
66.366928 0.01839 
66.735535 0.016106 
66.792496 0.020008 
67.054947 0.791575 
67.954422 0.018665 
68.710892 0.01723 
68.80426 0.021654 
69.034195 0.017062 
69.070419 0.021678 
69.633896 0.022986 
70.228027 0.019699 
70.388626 0.016289 
72.112839 0.012912 
72.212929 0.017568 
72.343971 0.015486 
72.669846 0.01858 
72.901672 0.015638 
72.961647 0.017991 
73.005096 0.01952 
73.265709 0.01804 
73.617058 0.016716 
75.97216 0.020287 
76.365837 0.019483 
77.02478 0.016989 
77.039322 0.23325 
77.209839 0.020808 
77.993019 0.016646 
78.317284 0.014425 
78.435776 0.015142 
79.054802 2.201984 
79.420639 0.022947 
80.058037 0.015432 
81.070427 4.071094 
82.073631 0.01873 
83.690392 0.018857 
84.2108 0.01848 
84.399971 0.023263 
84.769661 0.022822 
85.269157 0.018228 
85.272949 0.019329 
85.91024 0.018098 
86.082809 0.015634 
86.229233 0.013506 
86.515114 0.022534 
87.711647 0.020511 
89.562576 0.024208 
89.762421 0.017815 
90.028824 0.017978 
90.15731 0.018197 
90.265427 0.019217 
90.853851 0.020204 
91.054688 20.248693 
91.508385 0.018508 
91.592682 0.019915 
92.058022 1.429235 
92.083061 0.01615 
92.535988 0.019556 
93.070274 0.394125 
93.245369 0.020374 
94.756889 0.018556 
95.049583 2.080428 
95.298584 0.024289 
96.203476 0.022238 
97.367928 0.0199 
97.670555 0.023088 
99.858475 0.019218 
101.971428 0.020846 
102.047096 0.017314 
103.054611 20.352949 
104.057907 1.396328 
104.103386 0.020723 
104.796349 0.015429 
105.034172 0.020539 
105.045044 0.19812 
105.070206 0.356392 
105.539253 0.022671 
107.049355 0.041242 
107.75676 0.016241 
108.585587 0.019632 
109.06501 0.380246 
109.75489 0.024755 
110.502327 0.019368 
112.403572 0.021281 
112.704964 0.020972 
115.446777 0.019979 
115.614372 0.02456 
117.033699 0.521074 
118.275833 0.022364 
118.936157 0.018869 
119.085732 0.048089 
121.064949 0.875673 
121.837685 0.018972 
122.394485 0.02342 
122.686172 0.020508 
123.577118 0.013807 
124.250168 0.017914 
125.121834 0.019446 
126.034569 0.015227 
126.492928 0.027032 
127.220482 0.018316 
128.395096 0.018493 
129.334045 0.018169 
130.630768 0.0228 
131.049194 6.133075 
132.05246 0.31437 
133.064835 0.17206 
133.226471 0.022735 
134.484436 0.016954 
135.080399 3.70926 
136.083801 0.080442 
136.245773 0.021959 
136.837662 0.015984 
138.664169 0.019251 
138.829987 0.017174 
139.075256 0.485235 
143.085999 0.022464 
145.064758 0.54762 
145.666763 0.021142 
147.043839 0.042816 
147.768829 0.019692 
147.962311 0.017465 
148.005249 0.020475 
149.059738 2.321006 
150.063019 0.023074 
152.574753 0.021928 
153.148651 0.02743 
156.128815 0.019538 
158.072083 0.019241 
158.603104 0.023769 
158.959122 0.021459 
159.044006 88.302284 
159.284714 0.015335 
160.047348 9.205294 
161.059631 0.746955 
161.211304 0.021492 
163.074997 0.03803 
163.316803 0.019712 
165.054749 0.042828 
166.026031 0.016691 
167.275726 0.019873 
168.74353 0.023497 
169.049438 0.239553 
170.26799 0.014327 
172.78775 0.023168 
173.060333 0.021773 
173.938934 0.026095 
175.075363 1.486975 
176.463623 0.022407 
177.054565 100.0 
178.057907 10.337453 
179.061356 0.271146 
179.07016 4.431572 
179.977509 0.018892 
180.073502 0.182408 
184.352264 0.017023 
184.428482 0.021851 
185.096161 0.184617 
187.981155 0.028415 
190.340347 0.022132 
191.069839 0.040635 
193.049545 0.778656 
193.15773 0.018525 
195.065201 4.471051 
195.080887 0.020861 
196.068283 0.122509 
196.08844 0.026044 
199.250809 0.016348 
200.08345 0.045416 
202.030563 0.01909 
202.098709 0.020419 
203.246552 0.022731 
203.294907 0.023002 
207.065125 64.451088 
208.068451 7.605515 
209.069763 0.066637 
210.663025 0.017335 
211.075974 0.020252 
211.645584 0.019754 
212.383759 0.024074 
212.823395 0.017501 
213.102158 0.01542 
215.106598 1.236482 
216.339172 0.025134 
217.256088 0.018062 
218.665817 0.020095 
219.064529 0.088679 
219.925095 0.130369 
219.936356 0.143806 
219.944321 0.155483 
219.954636 0.052039 
221.0811 0.121846 
223.059891 0.167318 
239.106613 0.325194 
241.085648 0.097471 
242.090469 0.019249 
242.361176 0.02178 
242.520111 0.020174 
242.676056 0.020982 
243.455063 0.014339 
243.898361 0.019375 
248.573929 0.020145 
249.371552 0.017617 
253.859085 0.020944 
255.065353 0.078693 
257.148132 0.013739 
258.532013 0.016623 
262.427734 0.023031 
264.375366 0.019481 
268.505554 0.020565 
270.088379 0.429989 
277.503754 0.016739 
277.635376 0.020492 
281.355927 0.01451 
282.547913 0.023046 
285.111938 0.062045 
291.36618 0.021264 
292.21106 0.015175 
294.594269 0.020452 
311.292877 0.014186 
317.71814 0.02372 
319.465546 0.019881 
323.791016 0.022429 
337.653381 0.020677 
341.56189 0.020545 
END IONS

