BEGIN IONS
TITLE=Scan Number: 934
PEPMASS=850.53699
CHARGE=1+
COMPOUNDNAME=Tolytoxin
LIBRARYQUALITY=3
SMILES=C[C@H]1[C@@H](C[C@@H]([C@]2(CO2)[C@H](C[C@@H]3CC=C[C@H](O3)C[C@H]([C@H](/C=C(/C=C/C(=O)O[C@@H]1[C@@H](C)[C@H]([C@@H](C)CCC(=O)[C@H](C)[C@@H]([C@H](C)/C=C/N(C)C=O)OC)O)\C)O)OC)OC)OC)OC
INCHIKEY=FTGOWEQDZZMPNJ-GUMZKTDUSA-N
INCHI=
MSLEVEL=2
SOURCE_INSTRUMENT=LC-ESI-qTof
FILENAME=f.philipwi/0_WilliamsFreshwaterCyanosStandardsConvertedTo_mzXML_v2/PW-19_P1-C-1_Tolytoxin_849_01_15538_Scan884-971.mzXML;
SEQ=*..*
NOTES=
IONMODE=Positive
ORGANISM=GNPS-LIBRARY
NAME=Tolytoxin M+H
SPECTRUMID=CCMSLIB00000424877
ACTIVATION=CID
INSTRUMENT=ion trap
SCANS=934
95.646858 136.0 
101.200188 40.0 
123.820801 44.0 
132.727966 96.0 
134.112137 88.0 
135.04686 476.0 
135.105118 88.0 
135.295807 44.0 
135.384796 56.0 
135.769028 108.0 
136.060547 104.0 
136.410217 44.0 
137.066147 84.0 
137.2005 68.0 
137.753555 24.0 
138.727829 148.0 
139.043335 100.0 
140.157959 28.0 
140.580872 48.0 
141.083527 80.0 
142.081268 108.0 
143.101212 96.0 
144.094193 124.0 
144.879532 48.0 
145.10672 212.0 
146.128967 40.0 
146.923706 96.0 
146.985519 36.0 
148.403137 40.0 
149.104843 212.0 
149.655945 80.0 
150.100754 68.0 
150.935089 80.0 
151.112656 160.0 
151.446976 44.0 
152.059448 76.0 
152.515686 40.0 
153.075104 112.0 
155.082657 104.0 
156.105148 284.0 
157.106354 356.0 
157.819489 36.0 
157.955658 56.0 
158.099884 144.0 
158.320099 60.0 
159.115707 556.0 
159.304398 40.0 
160.126068 100.0 
161.11554 224.0 
161.313965 36.0 
162.133499 168.0 
162.93721 36.0 
163.112244 380.0 
164.119141 84.0 
164.519516 148.0 
164.797623 44.0 
165.095169 648.0 
165.387314 40.0 
166.027328 44.0 
166.098816 336.0 
166.191635 40.0 
166.356033 36.0 
166.462921 36.0 
166.841446 36.0 
167.07634 3364.0 
167.167892 108.0 
167.293839 44.0 
167.447159 104.0 
167.707077 56.0 
167.887695 32.0 
168.08107 428.0 
168.227539 32.0 
168.301956 32.0 
168.413177 44.0 
168.632889 32.0 
169.077652 296.0 
169.163071 40.0 
169.818649 52.0 
169.984818 52.0 
170.284134 28.0 
170.592041 28.0 
170.65033 60.0 
170.716949 36.0 
171.11055 168.0 
171.24205 44.0 
172.152466 116.0 
173.099899 268.0 
174.073029 216.0 
175.100555 244.0 
175.336807 76.0 
176.122452 112.0 
176.253525 32.0 
176.842438 28.0 
177.072327 160.0 
177.090973 160.0 
177.123215 448.0 
178.073685 124.0 
179.112717 240.0 
179.198257 32.0 
180.092697 216.0 
181.094879 284.0 
182.446838 60.0 
183.108978 128.0 
184.116669 64.0 
185.100601 640.0 
186.106354 104.0 
186.221954 56.0 
186.367996 52.0 
187.087814 368.0 
187.361343 40.0 
187.727966 36.0 
188.107864 88.0 
189.129074 584.0 
189.26825 40.0 
190.125351 172.0 
190.929306 32.0 
191.140259 216.0 
192.0672 80.0 
192.394196 88.0 
193.12413 600.0 
193.270508 32.0 
194.095535 96.0 
194.1577 84.0 
194.246521 40.0 
195.130676 124.0 
196.134506 188.0 
196.33989 36.0 
197.019287 36.0 
197.129181 396.0 
197.628174 64.0 
198.075195 112.0 
198.426514 28.0 
198.669022 40.0 
199.11972 104.0 
199.226456 28.0 
200.015381 48.0 
200.109161 88.0 
201.096115 548.0 
201.916641 36.0 
202.097015 128.0 
202.163361 104.0 
203.111053 368.0 
204.08725 236.0 
204.998901 28.0 
205.117569 436.0 
205.382401 56.0 
205.45549 32.0 
206.124008 196.0 
206.590012 24.0 
207.133286 576.0 
207.231842 32.0 
207.525589 100.0 
208.13736 428.0 
208.767105 124.0 
209.135529 312.0 
209.753754 60.0 
210.132431 100.0 
210.826019 32.0 
211.145447 768.0 
211.724762 32.0 
212.117599 148.0 
212.212906 80.0 
213.104446 752.0 
213.285858 60.0 
213.490707 56.0 
213.563477 64.0 
213.770218 52.0 
214.127396 288.0 
214.311111 40.0 
214.432434 28.0 
214.796631 116.0 
214.880722 84.0 
214.986069 44.0 
215.126297 156.0 
215.301407 68.0 
215.619522 148.0 
215.844223 36.0 
216.145477 112.0 
216.453384 52.0 
216.523727 32.0 
216.697281 40.0 
217.125946 412.0 
217.439209 52.0 
217.952057 36.0 
218.144928 140.0 
218.662857 52.0 
219.108307 1556.0 
219.398712 56.0 
219.804886 44.0 
219.993942 44.0 
220.1651 396.0 
220.438522 40.0 
220.533188 32.0 
220.930939 136.0 
221.148941 1296.0 
221.438126 56.0 
222.137131 180.0 
222.582611 36.0 
222.973999 88.0 
223.13855 768.0 
223.801559 44.0 
224.144806 160.0 
224.49823 40.0 
224.59375 44.0 
224.765732 72.0 
224.851761 36.0 
225.147385 348.0 
225.301224 32.0 
225.582367 64.0 
226.083923 60.0 
226.149734 120.0 
227.007538 32.0 
227.146011 464.0 
227.526459 32.0 
227.601166 52.0 
228.117813 220.0 
228.768494 68.0 
229.132019 224.0 
229.147827 752.0 
229.791611 40.0 
230.094589 140.0 
230.168625 244.0 
230.565292 44.0 
230.797653 40.0 
231.112335 880.0 
231.167145 220.0 
231.517471 44.0 
231.796173 28.0 
231.96579 40.0 
232.112488 244.0 
232.207016 72.0 
233.128876 360.0 
233.439209 100.0 
234.144867 140.0 
234.326324 32.0 
234.843765 68.0 
234.980545 28.0 
235.142395 548.0 
235.606323 28.0 
236.165665 424.0 
237.151001 1904.0 
237.449371 36.0 
237.921082 44.0 
238.151642 172.0 
238.373581 44.0 
238.836365 44.0 
239.139999 1384.0 
239.243484 52.0 
239.556046 32.0 
240.140732 220.0 
241.13031 528.0 
241.195267 576.0 
241.569641 36.0 
241.701752 32.0 
241.880173 28.0 
241.986755 48.0 
242.07518 108.0 
242.200867 148.0 
243.133133 320.0 
243.926727 36.0 
244.155243 320.0 
244.973175 36.0 
245.127731 672.0 
245.558365 84.0 
245.652084 32.0 
246.144852 196.0 
247.142807 468.0 
247.243179 40.0 
247.754623 44.0 
247.865005 32.0 
247.985443 44.0 
248.165588 488.0 
248.47757 48.0 
248.979095 36.0 
249.161362 348.0 
250.184952 216.0 
250.805923 44.0 
251.153732 416.0 
251.278778 32.0 
252.117569 68.0 
252.192169 332.0 
252.280121 40.0 
252.776474 48.0 
252.96907 40.0 
253.161896 660.0 
253.354477 32.0 
253.445801 44.0 
253.836365 68.0 
253.922989 60.0 
254.160797 208.0 
254.357086 128.0 
255.143219 364.0 
255.169418 308.0 
255.571182 36.0 
255.664536 100.0 
255.923615 56.0 
256.029968 44.0 
256.148468 188.0 
256.954163 68.0 
257.153198 3964.0 
257.623566 32.0 
257.787323 40.0 
257.980774 40.0 
258.150696 512.0 
258.289032 48.0 
258.616974 36.0 
258.975891 32.0 
259.206543 2496.0 
259.600555 56.0 
259.817749 60.0 
259.997833 84.0 
260.20874 1072.0 
260.372864 56.0 
260.475739 84.0 
260.990387 36.0 
261.120575 1192.0 
261.438995 44.0 
261.629272 28.0 
261.701447 48.0 
262.135864 280.0 
263.130768 2588.0 
263.500519 24.0 
263.622986 40.0 
264.152313 368.0 
264.607147 56.0 
264.73764 116.0 
264.824921 40.0 
264.907928 32.0 
265.022064 36.0 
265.127594 288.0 
265.451416 56.0 
265.697021 72.0 
265.967224 24.0 
266.163879 336.0 
266.601746 32.0 
266.705841 44.0 
266.79953 52.0 
267.007812 24.0 
267.141449 336.0 
267.309967 32.0 
267.841736 40.0 
267.941986 68.0 
268.193207 984.0 
268.447174 40.0 
268.823273 24.0 
269.189545 1352.0 
269.377502 48.0 
269.450745 52.0 
269.597229 32.0 
269.80661 36.0 
270.198364 168.0 
270.330383 32.0 
270.508575 64.0 
270.70459 52.0 
270.83371 32.0 
271.147369 684.0 
271.379486 40.0 
271.472809 36.0 
271.736633 28.0 
272.139893 148.0 
272.388489 92.0 
272.830536 88.0 
273.169922 292.0 
273.768433 44.0 
274.186584 76.0 
274.496674 68.0 
274.813599 176.0 
275.163361 696.0 
275.447968 36.0 
275.8078 36.0 
276.158447 184.0 
276.965576 32.0 
277.16452 188.0 
277.186768 244.0 
277.463654 44.0 
277.652893 40.0 
278.182281 236.0 
278.450073 36.0 
278.641571 148.0 
279.156036 128.0 
280.190674 592.0 
280.912628 44.0 
281.16452 168.0 
281.757294 40.0 
282.190918 116.0 
283.138397 640.0 
283.955048 60.0 
284.14389 400.0 
284.384857 140.0 
285.172302 396.0 
286.190704 276.0 
286.333862 24.0 
286.441742 52.0 
287.204224 1508.0 
287.456757 100.0 
287.614502 100.0 
287.835144 32.0 
287.932495 44.0 
288.198334 468.0 
288.354492 24.0 
289.153656 4224.0 
289.600647 36.0 
289.850189 96.0 
289.95874 48.0 
290.151398 624.0 
290.632111 24.0 
290.838623 32.0 
291.15271 540.0 
291.234619 828.0 
291.447723 28.0 
292.188171 144.0 
292.547852 40.0 
293.153625 184.0 
293.956024 28.0 
294.196503 100.0 
294.283997 40.0 
294.535553 60.0 
295.039001 36.0 
295.163055 264.0 
295.444244 52.0 
295.829437 28.0 
296.191833 236.0 
296.376312 52.0 
296.650726 36.0 
297.154419 236.0 
297.573669 48.0 
297.716644 36.0 
297.947662 80.0 
298.205139 484.0 
298.846069 68.0 
299.193176 172.0 
299.512146 40.0 
299.909424 32.0 
300.231598 240.0 
300.483734 40.0 
300.949127 40.0 
301.149048 980.0 
301.182953 160.0 
301.207764 996.0 
301.379425 28.0 
301.481812 32.0 
301.700439 40.0 
301.844391 52.0 
302.148285 328.0 
302.415375 68.0 
302.588898 44.0 
302.853027 32.0 
303.160828 2072.0 
303.387878 104.0 
303.520386 32.0 
304.163208 408.0 
304.541565 96.0 
304.644958 68.0 
304.75296 52.0 
304.864258 92.0 
304.964417 40.0 
305.172058 380.0 
305.911377 32.0 
306.209717 280.0 
306.446747 32.0 
306.837433 44.0 
307.161072 364.0 
307.418335 44.0 
308.161438 36.0 
309.018677 28.0 
309.176758 648.0 
309.489471 48.0 
309.885468 40.0 
310.061676 56.0 
310.199402 172.0 
310.915314 32.0 
311.166809 188.0 
311.466309 28.0 
311.907104 24.0 
312.217102 224.0 
312.772675 48.0 
313.212708 568.0 
313.528442 36.0 
313.754242 40.0 
313.84906 40.0 
314.220001 176.0 
314.82782 32.0 
314.974854 92.0 
315.157196 668.0 
315.812592 44.0 
316.16922 168.0 
317.179901 172.0 
317.582245 100.0 
317.773987 32.0 
318.238586 748.0 
318.451508 36.0 
318.852631 100.0 
319.015198 64.0 
319.226166 696.0 
319.482178 32.0 
319.662231 56.0 
320.143097 180.0 
320.226135 108.0 
320.325867 24.0 
320.679626 108.0 
320.895538 224.0 
321.009857 52.0 
321.173157 9236.0 
321.516327 48.0 
321.795807 68.0 
322.01944 32.0 
322.174377 1604.0 
322.285461 100.0 
322.428528 28.0 
322.698578 68.0 
322.828064 44.0 
322.943817 36.0 
323.177032 140.0 
323.413635 24.0 
323.6315 44.0 
323.849396 44.0 
323.952667 32.0 
324.153351 96.0 
324.503601 80.0 
325.174591 308.0 
325.767975 36.0 
326.22348 120.0 
326.481689 40.0 
326.714966 32.0 
327.180054 580.0 
327.455048 36.0 
327.599884 48.0 
328.224915 796.0 
328.669006 68.0 
328.870239 28.0 
329.176422 324.0 
329.853577 64.0 
330.061981 148.0 
330.231659 160.0 
330.502197 44.0 
331.22641 232.0 
331.43576 36.0 
331.743347 36.0 
332.23819 172.0 
332.789124 96.0 
332.940308 52.0 
333.174194 536.0 
333.569489 56.0 
333.743347 40.0 
333.883087 128.0 
334.180878 100.0 
334.257874 120.0 
334.973419 36.0 
335.140839 100.0 
335.237091 140.0 
335.609192 100.0 
335.796051 32.0 
336.236603 176.0 
336.625916 40.0 
336.70993 44.0 
337.149414 644.0 
338.042572 32.0 
338.150787 132.0 
338.233459 56.0 
338.79306 40.0 
339.161743 716.0 
339.90863 28.0 
340.166382 320.0 
341.176849 876.0 
341.355713 40.0 
341.50882 36.0 
341.826965 68.0 
342.180206 340.0 
342.487274 140.0 
343.228607 160.0 
343.939819 48.0 
344.255463 200.0 
344.708649 84.0 
345.170471 492.0 
345.715363 168.0 
345.833923 48.0 
346.237488 468.0 
346.367554 40.0 
346.937256 48.0 
347.032227 36.0 
347.224854 268.0 
347.471741 144.0 
348.249512 268.0 
348.553894 36.0 
348.863373 60.0 
349.1492 76.0 
349.324463 28.0 
350.268036 344.0 
350.407532 44.0 
350.794861 28.0 
351.000305 156.0 
351.182037 340.0 
352.169189 144.0 
352.257568 136.0 
352.462006 40.0 
352.576019 64.0 
353.185516 380.0 
353.761993 32.0 
354.085785 32.0 
354.258453 132.0 
355.034027 44.0 
355.176575 204.0 
355.49057 92.0 
356.164795 116.0 
356.464752 44.0 
356.982452 36.0 
357.177032 248.0 
358.251465 120.0 
358.501617 32.0 
359.193298 360.0 
359.649139 32.0 
360.011902 32.0 
360.255249 2256.0 
360.423248 32.0 
360.568481 36.0 
360.966797 40.0 
361.230164 712.0 
362.119476 40.0 
362.273132 240.0 
362.604858 64.0 
363.226746 560.0 
363.734619 28.0 
364.18457 76.0 
364.269745 76.0 
365.000061 36.0 
365.097504 24.0 
365.220886 252.0 
365.341156 36.0 
365.511749 44.0 
365.914032 44.0 
366.263763 172.0 
367.17569 168.0 
367.745361 128.0 
368.250153 100.0 
368.479187 40.0 
368.699463 32.0 
368.87085 32.0 
369.17392 2296.0 
369.372986 32.0 
369.507751 32.0 
369.91629 36.0 
370.170532 1088.0 
370.427338 48.0 
370.562286 28.0 
370.893677 52.0 
371.198486 768.0 
372.236328 400.0 
372.786652 36.0 
373.045166 36.0 
373.204498 420.0 
373.587067 28.0 
374.238586 140.0 
374.82019 40.0 
375.237183 448.0 
375.486908 28.0 
375.968781 28.0 
376.252258 328.0 
376.785004 36.0 
377.22699 452.0 
377.37915 32.0 
377.577301 120.0 
377.812683 40.0 
378.048157 40.0 
378.267639 1712.0 
378.779755 48.0 
379.027924 32.0 
379.265015 796.0 
379.516937 92.0 
379.748077 56.0 
379.847443 44.0 
379.959259 40.0 
380.058685 52.0 
380.244812 112.0 
381.191071 72.0 
381.688385 104.0 
382.206696 92.0 
382.897339 32.0 
383.205872 204.0 
384.199738 240.0 
384.486237 48.0 
384.920715 48.0 
385.251038 128.0 
386.277283 204.0 
386.397888 52.0 
387.024658 56.0 
387.180878 1660.0 
387.413513 76.0 
387.928101 60.0 
388.18277 420.0 
388.272064 92.0 
388.706909 60.0 
388.820007 32.0 
388.925995 32.0 
389.21106 1436.0 
389.719757 28.0 
390.224945 768.0 
390.619537 48.0 
391.060608 44.0 
391.224518 320.0 
391.665924 44.0 
392.272491 156.0 
392.365601 64.0 
393.192902 52.0 
393.258087 52.0 
394.259399 88.0 
395.221863 292.0 
395.317627 76.0 
396.224426 132.0 
397.271484 100.0 
398.049927 28.0 
398.268097 104.0 
399.2276 72.0 
400.073242 36.0 
400.167389 44.0 
400.263733 144.0 
400.444489 44.0 
400.610321 52.0 
400.891083 44.0 
401.005951 32.0 
401.19577 4760.0 
401.538361 56.0 
401.64447 48.0 
401.925568 24.0 
402.04483 36.0 
402.200806 1240.0 
402.534515 76.0 
402.679901 44.0 
402.76947 32.0 
403.204956 596.0 
403.524597 96.0 
403.778595 24.0 
403.947296 24.0 
404.049774 48.0 
404.278717 1256.0 
404.562469 32.0 
404.677887 128.0 
404.915863 40.0 
405.278839 452.0 
405.832794 40.0 
406.063995 56.0 
406.1539 40.0 
406.269531 52.0 
406.539398 24.0 
406.629364 40.0 
406.976501 40.0 
407.222748 3032.0 
407.465332 44.0 
407.632629 32.0 
407.814972 24.0 
408.223816 668.0 
408.534027 56.0 
408.662872 36.0 
409.235474 920.0 
409.444275 44.0 
409.939606 148.0 
410.242584 280.0 
410.533539 52.0 
411.2435 304.0 
411.412262 36.0 
411.502777 108.0 
412.279663 600.0 
412.900513 48.0 
413.226929 100.0 
413.561371 32.0 
414.247162 184.0 
414.4823 32.0 
415.273499 188.0 
416.276062 68.0 
417.284729 76.0 
417.967621 140.0 
418.110992 40.0 
418.294464 208.0 
418.932556 44.0 
419.220978 376.0 
419.428497 52.0 
419.712402 108.0 
420.214935 76.0 
420.313232 180.0 
420.878876 36.0 
421.238464 2480.0 
422.237152 1080.0 
422.659271 36.0 
422.790344 36.0 
422.892181 52.0 
423.091858 44.0 
423.204742 72.0 
423.286255 68.0 
424.287262 216.0 
425.047791 48.0 
425.27533 244.0 
426.243378 136.0 
426.415649 52.0 
427.259857 272.0 
427.891235 60.0 
428.267365 100.0 
428.603577 20.0 
428.867554 36.0 
429.295746 56.0 
430.291809 444.0 
430.889679 56.0 
431.292023 116.0 
431.670715 40.0 
432.316986 152.0 
432.598328 32.0 
433.22879 144.0 
433.911896 36.0 
434.018127 40.0 
434.226685 200.0 
434.669098 64.0 
435.04129 32.0 
435.266144 144.0 
435.737671 112.0 
436.303589 260.0 
436.531677 32.0 
436.782135 40.0 
436.994995 40.0 
437.255554 264.0 
437.544464 124.0 
437.717834 24.0 
437.949005 24.0 
438.104675 52.0 
438.290131 164.0 
438.757355 40.0 
438.877533 40.0 
439.088562 64.0 
439.247314 9304.0 
439.560211 40.0 
439.771637 76.0 
439.961243 80.0 
440.250397 2820.0 
440.445709 36.0 
440.616669 28.0 
440.817383 64.0 
441.10614 56.0 
441.254181 1040.0 
441.393066 28.0 
441.687744 44.0 
442.281616 380.0 
442.588623 132.0 
442.894287 52.0 
443.281219 148.0 
443.605591 32.0 
443.739868 84.0 
443.954742 36.0 
444.301666 236.0 
444.586243 52.0 
444.739716 472.0 
445.150909 116.0 
445.285126 248.0 
445.419952 52.0 
445.648682 32.0 
445.742889 112.0 
445.904419 60.0 
446.146729 32.0 
446.322205 124.0 
447.262085 128.0 
447.480682 52.0 
448.297821 144.0 
448.573608 44.0 
449.019257 44.0 
450.298279 112.0 
451.061218 32.0 
451.304932 68.0 
451.887421 36.0 
452.296326 72.0 
452.646606 44.0 
452.931458 32.0 
453.107819 24.0 
453.260651 3228.0 
453.759369 40.0 
454.112488 52.0 
454.268402 888.0 
454.574463 36.0 
454.873505 28.0 
455.270569 260.0 
456.125153 28.0 
456.310394 196.0 
456.806122 24.0 
457.273376 180.0 
457.664825 52.0 
458.253174 132.0 
458.374237 28.0 
459.279755 88.0 
460.315765 36.0 
460.834106 24.0 
461.217346 52.0 
462.319122 320.0 
462.806732 32.0 
463.319214 204.0 
464.305176 112.0 
464.577454 144.0 
464.852295 148.0 
465.300537 224.0 
465.443481 144.0 
466.241455 76.0 
467.294525 172.0 
468.30838 88.0 
468.645325 44.0 
469.012177 48.0 
469.219269 76.0 
470.276184 96.0 
471.271118 2956.0 
471.77417 36.0 
471.991638 100.0 
472.279785 1016.0 
472.857849 28.0 
473.292267 256.0 
473.620544 56.0 
474.305878 84.0 
474.633789 36.0 
475.329895 104.0 
476.305725 200.0 
476.580048 36.0 
476.74704 60.0 
477.316742 348.0 
478.306915 132.0 
479.255676 112.0 
480.330811 92.0 
480.722076 52.0 
480.917755 20.0 
481.351227 84.0 
482.750793 52.0 
482.946869 28.0 
483.249908 108.0 
484.310242 400.0 
484.938171 24.0 
485.294037 372.0 
485.752686 32.0 
486.314819 216.0 
487.314056 84.0 
488.346191 152.0 
488.453888 44.0 
489.295441 96.0 
489.750885 124.0 
490.319916 100.0 
491.276886 96.0 
492.283661 52.0 
493.085785 48.0 
493.321869 172.0 
493.58136 108.0 
494.349884 112.0 
495.297943 84.0 
496.091217 32.0 
496.348969 52.0 
497.099792 108.0 
497.319794 84.0 
498.47937 36.0 
499.875092 52.0 
501.294952 72.0 
501.729584 44.0 
501.975922 48.0 
502.289093 92.0 
503.086945 40.0 
503.297546 232.0 
503.659027 32.0 
503.845032 40.0 
504.32962 168.0 
505.291229 60.0 
506.342041 188.0 
507.378265 56.0 
508.34137 96.0 
509.326569 136.0 
510.261261 124.0 
510.362061 68.0 
511.307312 88.0 
512.005066 32.0 
512.250305 64.0 
514.358887 148.0 
515.309875 64.0 
516.138611 108.0 
516.339294 104.0 
517.34137 100.0 
518.330994 240.0 
519.328003 188.0 
519.794556 52.0 
520.274292 140.0 
520.390625 96.0 
521.355652 60.0 
522.327515 116.0 
523.339478 72.0 
524.337097 144.0 
524.703857 36.0 
525.326782 80.0 
525.974976 44.0 
526.348816 92.0 
527.327637 140.0 
527.437927 68.0 
528.32843 240.0 
529.166809 120.0 
529.50415 36.0 
529.724182 36.0 
530.325867 60.0 
531.331848 132.0 
532.321106 128.0 
534.366028 132.0 
535.306152 76.0 
536.347107 456.0 
536.479797 48.0 
537.336487 132.0 
538.335327 92.0 
539.368958 124.0 
540.382812 120.0 
540.992493 32.0 
541.354126 124.0 
542.357666 104.0 
543.14447 24.0 
543.322754 84.0 
544.363403 136.0 
545.318359 144.0 
546.313477 64.0 
547.329712 248.0 
548.320984 52.0 
549.305908 56.0 
550.343689 44.0 
551.306519 56.0 
551.585632 36.0 
552.301208 96.0 
552.768982 56.0 
553.338623 92.0 
554.339172 396.0 
555.169495 32.0 
555.338135 176.0 
556.377625 92.0 
557.333435 120.0 
558.011841 92.0 
558.388367 40.0 
559.187012 72.0 
559.399048 120.0 
560.363403 64.0 
561.163452 36.0 
562.357056 92.0 
563.334656 56.0 
564.33905 92.0 
564.460205 152.0 
565.12677 36.0 
565.326111 244.0 
566.333496 272.0 
566.536926 128.0 
566.688721 96.0 
567.007385 76.0 
567.353394 116.0 
567.812195 128.0 
568.365417 360.0 
568.860779 24.0 
569.368652 72.0 
570.123352 148.0 
570.355835 176.0 
570.732361 28.0 
571.143616 36.0 
571.381042 96.0 
572.012268 68.0 
572.347717 68.0 
572.66803 144.0 
573.304199 104.0 
573.843262 72.0 
574.240356 84.0 
574.34729 40.0 
575.357178 100.0 
575.7995 108.0 
576.304382 56.0 
577.320679 104.0 
577.973633 96.0 
579.353699 64.0 
579.737366 40.0 
580.352478 120.0 
581.352112 168.0 
582.353516 112.0 
583.340759 68.0 
584.150696 40.0 
584.387573 108.0 
585.369446 188.0 
586.365234 268.0 
587.375183 64.0 
588.370483 120.0 
589.292419 84.0 
589.493591 84.0 
590.382202 92.0 
591.352356 40.0 
592.2052 180.0 
592.360352 220.0 
593.369263 92.0 
594.386414 108.0 
595.329834 408.0 
595.498474 36.0 
596.105286 88.0 
596.358704 104.0 
597.357361 220.0 
597.678223 40.0 
599.388794 88.0 
600.002563 36.0 
600.353699 96.0 
601.393005 76.0 
602.378296 136.0 
604.257141 52.0 
605.417297 52.0 
606.386292 148.0 
608.361023 176.0 
609.353455 168.0 
609.974365 108.0 
610.366394 128.0 
611.368469 96.0 
611.675903 36.0 
612.354004 44.0 
613.356628 64.0 
614.374756 112.0 
615.330139 100.0 
615.449646 104.0 
616.380676 108.0 
617.398987 212.0 
617.64978 32.0 
618.401672 108.0 
619.02887 32.0 
619.437073 136.0 
619.710999 48.0 
620.425293 80.0 
621.379578 100.0 
622.361267 72.0 
623.000183 52.0 
623.372498 80.0 
624.392761 84.0 
626.390625 224.0 
626.69696 64.0 
627.175842 32.0 
627.382202 248.0 
628.372437 132.0 
629.380798 148.0 
630.40155 144.0 
631.09729 112.0 
631.406128 104.0 
632.406921 80.0 
632.599304 76.0 
633.442139 80.0 
634.267822 84.0 
634.380249 44.0 
634.572876 92.0 
635.380066 64.0 
636.340515 72.0 
636.533508 112.0 
638.395447 68.0 
639.416992 68.0 
640.406677 60.0 
641.391907 120.0 
641.690369 36.0 
642.384888 104.0 
643.377808 84.0 
643.985413 48.0 
644.412476 108.0 
645.380615 272.0 
646.171082 52.0 
646.349365 132.0 
646.527649 172.0 
647.322083 72.0 
647.906067 32.0 
648.052124 36.0 
648.425415 36.0 
649.399719 52.0 
649.529663 56.0 
649.87085 160.0 
650.387451 272.0 
650.748718 28.0 
651.453857 132.0 
652.164185 56.0 
652.2995 192.0 
652.415649 108.0 
653.43457 92.0 
653.679016 40.0 
654.388184 72.0 
655.407715 36.0 
655.995361 32.0 
656.401489 124.0 
657.405945 80.0 
657.776184 68.0 
658.407471 96.0 
659.39978 596.0 
659.559448 52.0 
660.418579 104.0 
660.796936 72.0 
661.050049 32.0 
661.385193 72.0 
662.457214 64.0 
662.497009 84.0 
662.62439 48.0 
665.383972 68.0 
666.394409 28.0 
666.979919 32.0 
667.4245 112.0 
668.380005 40.0 
668.709595 28.0 
669.402161 36.0 
670.062012 36.0 
670.425049 124.0 
671.300171 72.0 
672.384521 124.0 
672.820496 68.0 
673.00238 60.0 
673.115112 44.0 
673.415894 104.0 
674.399597 244.0 
675.402405 56.0 
676.44812 124.0 
677.225952 56.0 
677.413086 196.0 
677.922852 24.0 
678.421997 56.0 
679.434021 72.0 
680.414734 40.0 
682.434814 60.0 
682.961182 60.0 
683.71106 44.0 
684.37793 92.0 
685.078491 144.0 
685.419678 72.0 
686.394958 288.0 
686.981873 36.0 
687.182373 36.0 
687.408325 460.0 
688.391113 156.0 
688.80426 32.0 
689.429565 108.0 
690.42804 44.0 
691.417664 68.0 
692.053711 84.0 
692.42688 96.0 
693.448547 116.0 
695.448425 64.0 
695.663818 40.0 
696.437439 44.0 
697.61554 36.0 
697.91864 44.0 
698.154419 104.0 
698.407104 140.0 
698.727173 36.0 
699.4422 76.0 
700.092712 44.0 
700.416077 308.0 
701.307617 40.0 
701.445312 256.0 
702.371582 84.0 
703.432129 136.0 
704.045044 24.0 
704.41687 532.0 
704.620239 32.0 
705.423401 616.0 
706.435791 676.0 
706.850403 52.0 
707.441895 116.0 
708.467651 196.0 
708.687134 96.0 
708.839905 40.0 
709.247253 28.0 
709.450989 28.0 
710.44104 100.0 
711.462463 84.0 
712.425415 116.0 
712.850891 48.0 
714.439941 112.0 
714.673096 164.0 
715.40979 80.0 
715.934753 32.0 
716.403442 168.0 
716.941406 36.0 
717.436462 36.0 
718.433838 644.0 
718.87146 48.0 
719.424377 452.0 
720.465332 52.0 
721.449829 160.0 
722.439941 104.0 
723.442078 136.0 
725.466614 40.0 
726.433899 88.0 
727.432983 80.0 
729.817017 100.0 
732.46405 112.0 
733.428467 44.0 
733.459778 60.0 
734.465027 92.0 
735.43866 44.0 
735.995117 32.0 
736.133484 36.0 
736.441895 896.0 
736.600525 68.0 
736.963928 28.0 
737.439087 404.0 
738.158447 36.0 
738.44342 308.0 
739.38208 64.0 
740.453796 132.0 
741.522156 60.0 
742.320862 76.0 
742.529297 52.0 
743.259033 36.0 
743.4328 60.0 
744.406494 88.0 
745.467773 96.0 
746.442749 44.0 
747.439697 112.0 
749.45874 124.0 
750.462585 368.0 
751.309692 144.0 
751.463501 300.0 
752.45752 108.0 
753.482483 92.0 
754.468262 68.0 
755.473938 32.0 
756.472961 48.0 
756.963989 52.0 
759.521179 88.0 
760.440552 136.0 
761.759521 52.0 
763.48468 68.0 
764.488953 60.0 
764.7005 48.0 
765.430969 56.0 
765.846741 116.0 
766.446655 36.0 
767.735474 108.0 
768.467102 256.0 
769.464355 160.0 
770.46637 76.0 
771.488525 124.0 
772.493774 132.0 
773.16748 32.0 
773.504944 96.0 
774.457336 108.0 
774.532043 80.0 
774.55481 104.0 
775.508911 80.0 
778.467407 64.0 
781.877136 32.0 
782.470886 164.0 
783.482117 120.0 
784.495605 132.0 
785.499695 112.0 
786.501587 68.0 
786.661377 36.0 
787.450378 204.0 
787.627136 84.0 
788.074463 52.0 
788.485107 140.0 
789.512024 200.0 
790.080017 40.0 
790.514282 68.0 
792.508179 68.0 
795.428528 88.0 
796.49353 72.0 
797.227356 36.0 
797.508484 52.0 
798.145569 36.0 
798.433716 140.0 
799.442749 28.0 
799.586975 44.0 
800.308105 40.0 
800.500305 184.0 
801.499329 420.0 
802.512085 168.0 
802.834778 56.0 
803.412903 48.0 
804.334656 44.0 
804.559082 68.0 
804.859009 36.0 
805.817749 136.0 
806.360718 32.0 
812.545166 44.0 
814.510193 152.0 
815.054626 152.0 
815.437744 148.0 
816.541199 172.0 
817.003052 32.0 
817.479187 276.0 
818.492737 352.0 
818.734924 40.0 
818.86261 48.0 
819.501465 164.0 
820.512878 76.0 
821.03479 92.0 
821.509766 168.0 
822.313843 36.0 
822.531677 48.0 
823.99646 76.0 
824.435669 96.0 
828.436035 68.0 
829.45166 88.0 
830.481628 128.0 
831.497498 56.0 
832.518372 616.0 
833.539062 88.0 
833.759949 40.0 
834.256958 68.0 
834.529297 132.0 
835.012024 56.0 
838.441711 108.0 
843.118103 40.0 
844.303162 44.0 
845.025696 56.0 
845.500427 72.0 
846.119324 24.0 
846.497925 320.0 
846.731323 28.0 
847.490723 504.0 
848.501526 712.0 
848.73584 40.0 
849.064636 40.0 
849.500183 836.0 
849.869019 36.0 
850.240723 40.0 
850.52887 1416.0 
850.784485 32.0 
851.040222 40.0 
851.532776 796.0 
852.530579 612.0 
853.049744 140.0 
853.5672 188.0 
854.185852 52.0 
854.503174 632.0 
854.79541 56.0 
855.513367 88.0 
856.510864 84.0 
857.225342 40.0 
861.093079 36.0 
861.523376 48.0 
863.395386 92.0 
870.302063 36.0 
870.866333 104.0 
872.108337 44.0 
872.428406 72.0 
875.085205 60.0 
876.450378 108.0 
878.463928 48.0 
886.625854 40.0 
888.221008 36.0 
906.437622 48.0 
960.7146 148.0 
961.36676 24.0 
963.443176 72.0 
974.853821 56.0 
1003.583496 68.0 
1022.553894 48.0 
1031.05127 92.0 
1049.844482 72.0 
1069.536987 36.0 
1083.298462 116.0 
1088.865479 116.0 
1096.957886 88.0 
1138.772095 68.0 
1141.074951 76.0 
1266.501587 40.0 
1291.029053 136.0 
END IONS

