BEGIN IONS
PEPMASS=243.081
CHARGE=1+
COMPOUNDNAME=BIOTIN
LIBRARYQUALITY=3
SMILES=N/A
INCHIKEY=YBJHBAHKTGYVGT-ZKWXMUAHSA-N
INCHI=InChI=1S/C10H16N2O3S/c13-8(14)4-2-1-3-7-9-6(5-16-7)11-10(15)12-9/h6-7,9H,1-5H2,(H,13,14)(H2,11,12,15)/t6-,7-,9-/m0/s1
MSLEVEL=2
SOURCE_INSTRUMENT=N/A-ESI-QFT
FILENAME=library_mgf.mgf
SEQ=*..*
IONMODE=negative
ORGANISM=MONA
NAME=BIOTIN [M-H]-
PI=MoNA
DATACOLLECTOR=MoNA:VF-NPL-QEHF028116
PUBMED=N/A
SUBMITUSER=mwang87
TAGS=
SPECTRUMID=CCMSLIB00004721697
SCANS=28116
50.886719 1.221858 
51.193272 0.822782 
51.352135 0.970182 
51.776459 1.081652 
51.965134 1.274236 
52.017776 2.097907 
52.317787 0.738879 
52.764816 0.782688 
53.264854 1.060441 
53.275269 0.98072 
53.302422 0.839166 
53.368317 0.805829 
53.796883 1.093896 
55.517681 0.868269 
55.521503 0.711079 
55.705894 1.186733 
56.086632 1.007767 
56.231007 1.046614 
56.606468 1.094619 
56.631733 0.965624 
57.237179 1.108543 
57.401978 0.922539 
57.436275 0.959877 
57.479534 1.317008 
58.213863 0.862477 
58.373745 0.986651 
58.378719 0.821476 
59.012417 14.393393 
59.023663 5.354099 
59.835182 0.773603 
60.57708 1.40427 
62.42366 0.718715 
63.252457 0.89008 
63.554607 0.839677 
64.37867 0.86482 
64.688187 0.990767 
65.982628 0.723928 
66.071335 0.810939 
66.472542 1.288356 
66.669678 0.986186 
66.998703 0.619451 
68.012726 12.31653 
68.049126 88.626305 
68.312096 0.971771 
69.355713 1.072713 
69.696831 0.993511 
69.805855 0.926226 
69.817406 0.990272 
69.908783 0.871674 
70.175354 0.986635 
70.558472 1.073956 
71.970795 1.010956 
71.989876 41.21698 
72.440216 1.00044 
72.782921 0.967274 
72.997742 3.049929 
73.759773 0.791112 
74.005554 90.022247 
74.007584 1.032037 
74.257774 0.894091 
74.353172 0.881785 
74.381516 0.850464 
74.481041 0.937831 
74.683998 0.575248 
75.732712 0.912484 
75.750023 0.942715 
75.817421 1.034548 
76.177933 0.946868 
76.184082 1.078599 
76.847313 0.850856 
76.930084 0.750369 
77.06086 0.573404 
77.847321 1.106123 
82.015923 0.914258 
82.688354 0.927816 
82.870735 1.008607 
83.023628 2.108464 
84.620209 0.911966 
86.644264 0.778736 
87.586861 1.105932 
88.226326 0.945545 
88.696907 0.7467 
89.654007 0.934725 
90.023758 0.896592 
90.682617 0.927405 
91.261726 0.700439 
91.805923 0.805921 
91.944168 0.775719 
94.099342 0.617074 
94.311935 0.820023 
94.596291 0.871127 
95.023705 100.0 
95.196304 1.201889 
95.630203 0.696462 
97.039482 3.015609 
97.064545 3.007679 
98.362923 1.163863 
100.301048 1.019638 
102.502174 0.92115 
103.057297 51.380379 
106.648796 0.764672 
106.918617 1.138813 
107.311111 0.840428 
109.761536 0.835191 
110.909134 1.350856 
111.055031 8.246624 
112.805855 1.048673 
113.438377 0.894839 
113.663818 0.918264 
114.138969 0.597437 
114.691299 0.965897 
115.077415 0.926701 
115.276192 1.138378 
115.505028 1.077234 
115.994324 0.722065 
116.509712 0.920733 
116.648392 0.887391 
116.764008 0.899249 
117.893356 0.816447 
120.080284 1.741496 
122.096115 42.906868 
123.004715 1.072277 
123.66497 1.043163 
124.629585 1.097729 
125.379868 1.078634 
126.747635 0.917252 
126.861145 0.57224 
128.331345 0.881462 
130.068161 10.995443 
130.565201 0.764922 
131.821899 0.907803 
131.896408 1.281115 
132.610382 0.961065 
133.036514 1.330117 
133.329041 1.061323 
133.687729 0.924039 
135.595169 1.183277 
136.075745 1.676967 
137.242783 0.776736 
139.057358 68.571312 
140.413986 0.703361 
141.93132 0.897359 
143.214966 1.1495 
143.821762 1.079666 
143.945343 1.156957 
145.233749 0.703115 
149.413589 0.968397 
149.69455 1.027271 
150.865601 0.59937 
153.102112 19.021494 
154.086151 19.028469 
155.10437 0.92978 
155.803986 0.813749 
156.084106 55.212624 
156.638382 0.842411 
158.350006 0.942098 
159.055252 0.752527 
160.390488 0.836988 
161.119781 1.20382 
162.297043 0.685637 
163.131866 1.105866 
163.959274 0.929168 
165.883209 0.91518 
166.086349 42.461964 
167.841064 0.975039 
168.197998 1.138836 
169.36554 0.718842 
175.214233 0.936342 
176.81102 1.301715 
177.738846 0.896918 
177.879242 1.026333 
182.880524 0.975114 
186.559631 0.813243 
189.306671 0.88699 
190.327316 1.191383 
190.481247 0.784318 
191.050156 1.116816 
192.010025 1.10029 
195.22551 0.886137 
197.813766 1.043251 
199.163696 0.762408 
200.074295 15.64417 
203.209427 1.045857 
203.502304 1.165813 
211.392502 1.037494 
219.916107 19.430538 
219.943466 1.05649 
223.288849 1.205503 
224.108429 0.84516 
225.903961 0.724662 
229.422806 1.095782 
230.817047 1.083823 
235.274628 1.11325 
239.974625 0.904349 
242.786346 1.066366 
247.67128 1.013553 
249.911423 0.87868 
250.921036 0.947388 
254.048767 0.838875 
261.892975 1.245066 
262.918304 0.736502 
END IONS

