BEGIN IONS
PEPMASS=414.155
CHARGE=1+
COMPOUNDNAME=Massbank:CE000164 S,R-Noscapine
LIBRARYQUALITY=3
SMILES=CN1CCC2=CC3=C(C(=C2[C@@H]1[C@@H]4C5=C(C(=C(C=C5)OC)OC)C(=O)O4)OC)OCO3
INCHIKEY=AKNNEGZIBPJZJG-MSOLQXFVSA-N
INCHI=1S/C22H23NO7/c1-23-8-7-11-9-14-20(29-10-28-14)21(27-4)15(11)17(23)18-12-5-6-13(25-2)19(26-3)16(12)22(24)30-18/h5-6,9,17-18H,7-8,10H2,1-4H3/t17-,18+/m1/s1
MSLEVEL=2
SOURCE_INSTRUMENT=ESI-LC-ESI-ITFT
FILENAME=Massbank_ESI_positive_8_1_2014_peaks.mgf
SEQ=*..*
IONMODE=Positive
ORGANISM=MASSBANK
NAME=Massbank:CE000164 S,R-Noscapine [M+H]+
PI=Putative Massbank Match
DATACOLLECTOR=Massbank
PUBMED=N/A
SUBMITUSER=mwang87
TAGS=
SPECTRUMID=CCMSLIB00000205744
SCANS=1004
127.028114 1184.942505 
129.002625 975.36615 
144.01239 1195.549194 
164.769562 1044.829468 
179.07016 15226.042969 
188.047363 1764.508789 
205.0737 109803.273438 
206.081985 7489.328613 
216.476517 1255.23938 
218.084152 2580.404297 
218.687363 1186.712524 
220.096893 1881139.75 
220.822586 1460.359985 
221.09935 4798.805664 
236.093063 1858.767334 
248.092087 14186.337891 
284.901703 1301.141357 
286.882843 3576.107178 
296.454041 1289.594727 
324.099426 16224.992188 
334.087555 3101.93457 
335.090973 6099.083008 
337.109009 1775.875854 
339.12265 3513.355469 
350.078156 8943.536133 
352.099274 13749.894531 
353.102264 103924.007812 
355.116638 5327.864746 
358.095398 1346.834961 
360.125122 1130.888428 
360.226471 1175.014404 
365.10199 101467.765625 
366.096741 3152.429199 
368.146606 2045.181396 
371.114136 3179.860107 
378.13382 13364.202148 
381.120728 29890.046875 
382.251617 1196.182495 
383.112946 12655.547852 
386.510101 1354.968262 
396.143616 91269.742188 
END IONS

