BEGIN IONS
PEPMASS=448.0
CHARGE=1+
COMPOUNDNAME=Massbank:KO004033 Sisomicin|Antibiotic 6640|Dehydrogentamicin Cla|Rickamicin
LIBRARYQUALITY=3
SMILES=NCC(=C3)O[C@@H]([C@H](N)C3)O[C@H]([C@@H](N)1)[C@H](O)[C@@H](O[C@@H](O2)[C@H](O)[C@@H](NC)[C@](C)(O)C2)[C@H](N)C1
INCHIKEY=URWAJWIAIPFPJE-GYHYWALZSA-N
INCHI=1S/C19H37N5O7/c1-19(27)7-28-18(13(26)16(19)24-2)31-15-11(23)5-10(22)14(12(15)25)30-17-9(21)4-3-8(6-20)29-17/h3,9-18,24-27H,4-7,20-23H2,1-2H3/t9-,10+,11-,12+,13-,14-,15+,16-,17-,18-,19+/m1/s1
MSLEVEL=2
SOURCE_INSTRUMENT=ESI-LC-ESI-QQ
FILENAME=Massbank_ESI_positive_8_1_2014_peaks.mgf
SEQ=*..*
IONMODE=Positive
ORGANISM=MASSBANK
NAME=Massbank:KO004033 Sisomicin|Antibiotic 6640|Dehydrogentamicin Cla|Rickamicin [M+H]+
PI=Putative Massbank Match
DATACOLLECTOR=Massbank
PUBMED=N/A
SUBMITUSER=mwang87
TAGS=
SPECTRUMID=CCMSLIB00000220588
SCANS=9825
109.1 94059.5 
112.2 138614.0 
113.9 9901.0 
117.9 297030.0 
120.2 89109.0 
127.3 331683.5 
142.0 168317.0 
151.4 44554.5 
160.2 1955447.5 
163.2 930694.0 
169.1 34653.5 
205.4 475248.0 
228.3 49505.0 
235.7 49505.0 
254.2 2495052.0 
268.5 103960.5 
271.5 4732678.0 
272.5 440594.5 
273.4 19802.0 
278.5 89109.0 
289.5 1158417.0 
295.5 356436.0 
296.4 430693.5 
313.6 1594061.0 
314.7 59406.0 
322.7 4910896.0 
331.7 504951.0 
346.3 34653.5 
377.7 14851.5 
413.7 3178221.0 
414.4 19802.0 
430.6 5128718.0 
431.7 128713.0 
432.0 29703.0 
448.8 4371291.5 
546.1 29703.0 
END IONS

