BEGIN IONS
PEPMASS=1202.85
CHARGE=1+
COMPOUNDNAME=CYCLOSPORINE
LIBRARYQUALITY=3
SMILES=N/A
INCHIKEY=PMATZTZNYRCHOR-KMSBSJHKSA-N
INCHI=InChI=1S/C62H111N11O12/c1-25-27-28-40(15)52(75)51-56(79)65-43(26-2)58(81)67(18)33-48(74)68(19)44(29-34(3)4)55(78)66-49(38(11)12)61(84)69(20)45(30-35(5)6)54(77)63-41(16)53(76)64-42(17)57(80)70(21)46(31-36(7)8)59(82)71(22)47(32-37(9)10)60(83)72(23)50(39(13)14)62(85)73(51)24/h25,27,34-47,49-52,75H,26,28-33H2,1-24H3,(H,63,77)(H,64,76)(H,65,79)(H,66,78)/b27-25+/t40-,41?,42?,43?,44?,45?,46?,47?,49?,50?,51?,52-/m1/s1
MSLEVEL=2
SOURCE_INSTRUMENT=N/A-ESI-QFT
FILENAME=library_mgf.mgf
SEQ=*..*
IONMODE=positive
ORGANISM=MONA
NAME=CYCLOSPORINE [M+H]+
PI=MoNA
DATACOLLECTOR=MoNA:VF-NPL-QEHF028186
PUBMED=N/A
SUBMITUSER=mwang87
TAGS=
SPECTRUMID=CCMSLIB00004721767
SCANS=28186
83.018723 0.042931 
83.261574 0.030998 
84.08075 1.111143 
85.936073 0.019583 
86.060143 0.14503 
86.096367 12.90978 
87.099716 0.06842 
87.525322 0.025225 
88.039398 0.01682 
88.724297 0.034546 
90.043137 0.035983 
90.054955 0.136191 
90.297722 0.035475 
90.404251 0.034866 
91.054276 0.023716 
91.827133 0.043215 
91.863556 0.025907 
91.897713 0.024946 
92.084831 0.037187 
92.601135 0.019346 
93.728203 0.024918 
94.339287 0.025528 
95.085526 0.016142 
96.080734 1.04537 
97.027344 0.030209 
97.724823 0.032626 
98.096382 0.72439 
98.966454 0.017733 
100.039223 29.866911 
100.075607 0.373074 
100.112015 90.860344 
101.042625 0.470278 
101.115356 4.172222 
102.78167 0.018966 
103.086548 0.422298 
104.817581 0.014966 
105.069855 0.018922 
106.036224 0.015776 
106.895264 0.039161 
107.085426 4.171416 
107.834114 0.038508 
107.847229 0.013709 
108.08075 0.149311 
108.449104 0.04323 
109.088448 0.345751 
109.101044 1.649601 
110.096443 0.244477 
110.210899 0.015096 
111.210823 0.028776 
111.832581 0.013536 
112.075516 0.092225 
112.112122 0.327128 
113.26651 0.03407 
113.282692 0.040978 
114.091255 29.531317 
115.094604 1.143462 
116.057976 0.035874 
116.828758 0.035563 
116.8564 0.029997 
122.096436 0.135845 
122.876564 0.027016 
123.10405 0.017561 
124.075569 0.038485 
124.112175 0.06199 
125.095993 4.685831 
125.10717 0.023281 
125.276016 0.024162 
125.679604 0.030009 
126.054886 0.803621 
126.09977 0.021739 
126.127647 0.467084 
126.660599 0.029332 
127.06575 0.029628 
127.086502 2.319634 
128.106857 37.187923 
128.112381 0.501309 
129.102112 0.27541 
129.110245 2.169768 
130.138428 0.0415 
131.547668 0.031451 
132.690033 0.016089 
133.292847 0.015621 
135.080292 1.669689 
135.848694 0.03531 
135.974045 0.014803 
136.02478 0.022311 
136.111969 4.444161 
137.096237 0.040518 
138.055038 0.583884 
138.127609 9.605732 
138.13324 0.035425 
138.900558 0.016939 
139.086792 0.018798 
139.130981 0.326622 
140.07045 1.959866 
140.142914 0.038025 
140.797211 0.018088 
142.086136 30.695946 
143.081436 2.123092 
143.089493 1.489994 
143.91011 0.026771 
146.117447 0.554859 
146.789963 0.03659 
148.379166 0.01637 
149.514389 0.014915 
151.193604 0.036441 
152.07048 0.729302 
152.143402 0.038995 
152.801987 0.025207 
153.091293 0.029011 
153.102051 6.348789 
154.086121 0.581394 
154.122406 0.119261 
154.158875 0.03686 
155.081345 0.308961 
155.154053 0.617934 
156.091232 0.066181 
156.101791 49.311661 
156.138199 58.704659 
157.097061 6.355936 
157.105179 3.09932 
157.134384 0.236919 
157.141388 3.977171 
158.080994 0.085204 
159.149063 0.038614 
160.510178 0.035763 
165.976318 0.024372 
166.086838 0.032571 
166.122543 41.708305 
166.158905 0.101331 
166.546677 0.021124 
167.081406 0.438339 
167.093887 0.687829 
167.118652 0.459978 
167.125793 3.123051 
167.740112 0.03844 
168.10173 7.024757 
168.138077 0.464781 
168.174622 0.071436 
169.097443 0.062945 
169.105087 0.107284 
169.133347 0.846889 
170.117416 1.587908 
171.148987 44.314053 
172.152435 3.099522 
173.323776 0.037618 
181.109238 0.100949 
181.133163 0.031439 
182.117493 12.190902 
183.120773 0.558717 
183.149033 1.764132 
184.133102 17.159637 
184.152283 0.020433 
185.091949 1.803603 
185.128342 1.894363 
185.136703 0.986903 
188.450867 0.016069 
189.642548 0.042562 
192.054565 0.022195 
192.138046 0.302954 
193.133316 0.733555 
194.065079 0.020163 
194.117447 21.845501 
194.6651 0.037643 
195.120789 1.855404 
195.185364 0.53282 
197.092072 0.188734 
197.164764 0.028441 
197.61731 0.029851 
199.108261 3.536182 
199.143845 100.0 
199.180069 1.786432 
200.147522 7.877746 
206.12619 0.020272 
206.136032 0.026478 
209.164825 0.767627 
210.148651 33.848526 
210.185608 0.043564 
211.152206 3.375168 
212.127838 10.888579 
213.122498 3.599002 
213.159592 0.163724 
214.118332 0.160665 
215.51265 0.029538 
216.510223 0.01671 
216.534134 0.022383 
216.985077 0.021669 
217.154297 0.600089 
220.133057 0.534149 
221.533691 0.019646 
223.180099 8.54384 
223.225128 0.014031 
224.164169 95.922112 
225.167801 9.972245 
225.179749 0.068767 
226.106781 0.031279 
226.118164 2.735384 
226.168655 0.016755 
226.180145 1.101603 
227.138824 2.640114 
227.174911 6.496247 
227.211395 0.151984 
228.133667 3.400874 
228.178665 0.106503 
231.427429 0.028881 
235.180969 0.029541 
237.159622 0.388332 
238.937759 0.018978 
239.138245 0.128226 
239.174637 0.170607 
241.190598 20.808294 
242.194138 2.104243 
251.175049 16.247698 
251.211166 0.189711 
251.497742 0.017285 
252.178528 1.509696 
252.206406 3.364088 
253.154144 3.383514 
253.210144 0.035794 
255.169968 0.167487 
255.206223 1.640739 
256.128998 0.020917 
256.164795 0.079787 
258.218018 0.046141 
259.202148 0.023163 
260.010864 0.039693 
261.159698 0.065358 
265.227203 1.137488 
265.592834 0.047162 
266.186554 0.112965 
266.230133 0.03962 
267.170227 0.077062 
267.719574 0.022927 
269.170441 0.206719 
269.185608 16.925604 
269.221375 0.263185 
270.180481 25.300777 
270.216614 0.717301 
271.184265 2.589958 
271.268494 0.017247 
273.216431 0.037452 
279.170135 2.616165 
279.205994 0.134411 
282.180115 0.033398 
282.217804 0.021265 
283.201019 0.202455 
283.237061 0.306314 
284.196442 4.809792 
285.200317 0.056527 
291.169891 0.893049 
293.221619 0.282015 
293.826355 0.016354 
294.180328 0.089178 
294.199036 0.034031 
294.216858 0.110602 
295.237122 0.089701 
298.212189 57.636894 
299.215637 7.110456 
301.223206 0.085539 
304.167664 0.04659 
304.186493 0.087031 
307.201202 0.319743 
309.180695 0.193763 
310.175476 0.393143 
312.227722 1.786277 
322.212219 16.806309 
323.232727 35.912903 
324.235931 5.2573 
326.243561 6.006379 
327.246918 0.426579 
329.254547 0.043158 
333.898834 0.032023 
335.261658 0.024392 
336.264832 0.047366 
338.241974 0.038854 
340.222839 7.474435 
340.258606 0.179743 
341.217896 5.777322 
342.089264 0.024283 
342.220764 0.428929 
350.207275 4.251289 
351.20929 0.227422 
353.217773 1.518129 
354.274811 9.980627 
355.233368 1.704218 
355.277283 1.43876 
356.234314 0.040784 
362.216095 0.033828 
364.259155 1.726977 
366.238281 1.409209 
368.217346 0.480409 
368.290192 0.466499 
369.249023 1.582777 
369.286652 0.021405 
378.274353 0.66145 
382.269897 0.063099 
383.264862 2.088886 
392.137787 0.019716 
393.247162 0.023172 
395.343689 0.024159 
396.320099 0.024464 
397.280518 12.254815 
397.316498 0.017949 
398.282928 1.98942 
398.360016 0.029411 
411.295807 0.859202 
421.31308 0.050932 
422.18222 0.022852 
422.298065 0.051115 
425.31131 35.675953 
426.314514 7.005508 
427.316742 0.149085 
433.295624 0.032527 
435.295807 1.709306 
439.327087 0.389663 
440.285553 0.036063 
443.32135 0.023687 
445.629944 0.042961 
449.31131 4.489241 
450.313324 0.574742 
451.32663 0.058048 
453.305908 0.105434 
454.301056 0.461158 
463.328003 0.045493 
463.362976 0.451017 
464.368713 0.037028 
467.321899 0.714974 
468.317352 2.149222 
468.353394 0.030092 
469.318878 0.064244 
475.495117 0.019984 
477.305878 1.427153 
477.340881 0.022802 
478.30545 0.028428 
481.371368 0.06919 
487.801422 0.02145 
494.203552 0.016854 
496.347382 1.688222 
497.349915 0.13832 
510.363708 0.394314 
513.803711 0.023046 
515.057434 0.024343 
520.348267 0.036369 
524.379517 1.937909 
525.381836 0.086674 
536.189636 0.041504 
537.183228 0.033278 
538.39624 0.021851 
539.391907 0.455481 
540.44574 0.0237 
544.822876 0.022158 
548.379395 1.840438 
549.191467 0.020102 
549.397278 1.15363 
550.404846 0.049226 
552.411682 0.595255 
566.389709 0.840607 
567.385742 2.259812 
568.387817 0.235705 
576.373779 0.8129 
581.398682 0.129393 
588.270325 0.015603 
624.564514 0.033489 
637.466553 0.020184 
638.137146 0.024714 
643.213745 0.022052 
647.48407 0.438017 
659.992065 0.033601 
665.427917 0.01847 
671.658752 0.026422 
675.477356 2.146183 
676.481934 0.41723 
693.482239 0.04032 
694.486877 0.131183 
708.101562 0.041397 
708.335144 0.030241 
708.587891 0.055159 
708.620361 0.044845 
717.157532 0.02362 
721.897949 0.029209 
722.632446 0.031876 
742.292969 0.031144 
752.334961 0.036017 
757.883972 0.020621 
765.039307 0.043619 
779.307312 0.034344 
780.597351 0.032488 
786.215332 0.021742 
808.045593 0.03459 
809.586243 0.021211 
818.611267 0.037519 
846.114502 0.037028 
882.035706 0.024762 
884.703857 0.038058 
893.384949 0.017759 
897.918213 0.036083 
902.906799 0.033011 
916.65271 0.063772 
925.227234 0.022489 
936.873352 0.034092 
942.027893 0.017813 
944.650391 0.079429 
947.637329 0.022751 
979.009399 0.044359 
1005.170776 0.019123 
1005.585571 0.045114 
1007.542175 0.042897 
1035.169067 0.033672 
1043.747437 0.064708 
1046.780029 0.028561 
1061.116821 0.017785 
1091.884888 0.023217 
1130.441528 0.022277 
1145.921997 0.014938 
1156.830933 0.048156 
1231.24707 0.040988 
END IONS

