BEGIN IONS
PEPMASS=1444.74
CHARGE=1+
COMPOUNDNAME=BACITRACIN
LIBRARYQUALITY=3
SMILES=N/A
INCHIKEY=CLKOFPXJLQSYAH-NVOBBBONSA-N
INCHI=InChI=1S/C66H103N17O16S/c1-9-35(6)52(69)66-81-48(32-100-66)63(97)76-43(26-34(4)5)59(93)74-42(22-23-50(85)86)58(92)83-53(36(7)10-2)64(98)75-40-20-15-16-25-71-55(89)46(29-49(68)84)78-62(96)47(30-51(87)88)79-61(95)45(28-39-31-70-33-72-39)77-60(94)44(27-38-18-13-12-14-19-38)80-65(99)54(37(8)11-3)82-57(91)41(21-17-24-67)73-56(40)90/h12-14,18-19,31,33-37,40-48,52-54H,9-11,15-17,20-30,32,67,69H2,1-8H3,(H2,68,84)(H,70,72)(H,71,89)(H,73,90)(H,74,93)(H,75,98)(H,76,97)(H,77,94)(H,78,96)(H,79,95)(H,80,99)(H,82,91)(H,83,92)(H,85,86)(H,87,88)/t35?,36?,37?,40-,41+,42+,43-,44+,45-,46-,47+,48?,52?,53-,54-/m0/s1
MSLEVEL=2
SOURCE_INSTRUMENT=N/A-ESI-QFT
FILENAME=library_mgf.mgf
SEQ=*..*
IONMODE=positive
ORGANISM=MONA
NAME=BACITRACIN [M+Na]+
PI=MoNA
DATACOLLECTOR=MoNA:VF-NPL-QEHF027774
PUBMED=N/A
SUBMITUSER=mwang87
TAGS=
SPECTRUMID=CCMSLIB00004721355
SCANS=27774
100.021545 0.06065 
100.075752 0.066446 
101.016945 0.161841 
101.042274 0.009378 
101.107315 0.083143 
102.000969 0.023655 
102.046646 0.01862 
102.05497 3.454714 
102.091415 0.033381 
103.05426 2.501826 
103.057968 0.112965 
104.016479 0.036837 
104.049484 0.070762 
104.057671 0.159569 
105.044846 0.057504 
105.069855 0.817008 
106.052559 0.02479 
106.065125 0.486588 
106.073181 0.025107 
107.060371 0.767562 
107.072815 0.02353 
107.085472 0.011574 
107.993622 0.03739 
108.044418 0.238002 
108.05558 0.871644 
108.064163 0.007348 
108.068153 0.109916 
108.080788 0.949319 
109.03981 0.298214 
109.059517 0.009238 
109.06356 0.833217 
109.076088 1.825642 
109.084175 0.010218 
109.08873 0.014277 
109.755081 0.007556 
110.024055 0.304298 
110.064255 0.091277 
110.071144 100.0 
110.095818 1.028621 
110.389801 0.008132 
111.026718 0.019128 
111.055206 1.165468 
111.068184 1.004002 
111.074486 5.110674 
111.09153 2.707364 
111.099869 0.022194 
111.985176 0.104303 
112.021454 0.273208 
112.039391 0.021919 
112.050537 0.170519 
112.058563 0.009785 
112.071609 0.029288 
112.075493 1.180369 
112.086906 0.285437 
112.095009 0.112591 
112.112022 0.278288 
113.016594 0.042207 
113.029266 0.010639 
113.034492 0.120535 
113.070801 0.53081 
113.079041 0.012791 
113.107208 0.508262 
114.000755 0.036901 
114.037498 0.010744 
114.055061 0.126584 
114.066261 0.050521 
114.091331 0.287123 
114.102547 0.111215 
115.032486 0.008112 
115.050194 0.127967 
115.054184 1.043468 
115.086571 4.465344 
116.016487 0.361863 
116.052948 0.097894 
116.05751 0.025902 
116.070557 0.042099 
116.089882 0.192956 
117.057243 0.201934 
117.069839 0.26368 
117.959084 0.00843 
118.064857 0.55918 
119.060356 0.478874 
119.068542 0.01584 
119.072975 0.117457 
120.044823 0.037039 
120.055641 2.100663 
120.08075 13.821891 
121.039619 1.94991 
121.044319 0.011119 
121.058838 0.095271 
121.063484 0.135217 
121.076073 0.830976 
121.083977 1.174964 
121.08844 0.056738 
122.023781 0.043091 
122.0429 0.04108 
122.060028 0.360041 
122.071236 1.822918 
122.079124 0.009955 
122.08374 0.295866 
122.096413 0.437793 
123.05526 1.588406 
123.074348 0.068615 
123.079147 0.07141 
123.091629 1.169062 
124.021576 0.059452 
124.039261 0.371347 
124.050529 0.270142 
124.058624 0.04636 
124.075691 0.395622 
124.086838 0.827155 
124.094849 0.019282 
124.099678 0.01998 
124.112068 0.452432 
125.016716 0.007266 
125.024429 0.006479 
125.034538 0.296726 
125.042267 0.024841 
125.070961 0.721525 
125.107338 0.658288 
126.018143 0.008539 
126.037216 0.214397 
126.055199 0.016408 
126.066193 0.089878 
126.074326 0.007692 
126.091248 0.391907 
126.102448 0.023516 
126.127464 0.021205 
127.032394 0.048709 
127.045464 0.007864 
127.050186 0.366491 
127.086517 0.455302 
127.122917 0.33675 
127.979424 0.019944 
128.002014 0.006755 
128.052979 0.102479 
128.062012 0.058359 
128.070694 0.040499 
128.106415 0.006765 
128.118286 0.007083 
129.011673 0.345935 
129.065506 0.513504 
129.070068 0.052566 
129.102142 4.012347 
129.995636 1.161672 
130.049774 0.277677 
130.065018 1.566795 
130.086105 0.086996 
130.105453 0.218415 
130.97789 0.00829 
131.027252 0.697503 
131.049088 0.307976 
131.060364 0.058966 
131.068359 0.092391 
131.073013 0.009405 
131.993484 0.037792 
132.053116 0.2739 
132.068283 0.028348 
132.080612 0.834913 
133.0634 1.402144 
133.075912 0.417008 
133.083084 0.00624 
134.060059 0.081763 
134.066345 0.050307 
134.071289 0.712342 
134.076828 0.006773 
134.083771 0.054543 
134.09639 0.263398 
135.055054 0.271996 
135.079239 0.040568 
135.091553 2.214938 
135.411423 0.006255 
136.039322 0.108174 
136.050507 0.969985 
136.075714 3.03446 
136.086884 5.536161 
136.094894 0.025309 
136.099396 0.181309 
136.112015 0.417003 
137.029114 0.015536 
137.034439 0.030659 
137.047089 0.006381 
137.053864 0.007384 
137.070999 0.834389 
137.078171 0.038639 
137.08252 0.288207 
137.090057 0.345946 
137.095261 0.063784 
137.107239 2.565073 
137.476135 0.006351 
138.03717 0.081097 
138.055023 0.303562 
138.066147 1.854429 
138.072525 0.015565 
138.078888 0.008784 
138.091263 0.716504 
138.102463 0.390537 
138.110321 0.096419 
138.115356 0.037016 
138.127579 1.315229 
139.050125 0.376441 
139.069641 0.020886 
139.086517 6.494418 
139.092529 0.092225 
139.122879 0.49844 
139.13092 0.04652 
139.978195 0.007701 
140.001846 0.019041 
140.016632 0.007542 
140.028076 0.016667 
140.034119 0.152672 
140.052795 0.403278 
140.070663 0.051542 
140.082184 0.090328 
140.089844 0.438841 
140.106888 0.714496 
140.11792 0.196347 
140.143219 0.111781 
140.312119 0.00684 
140.974731 0.047897 
141.011581 0.594118 
141.04805 0.054572 
141.065552 0.134657 
141.09613 0.011505 
141.102142 0.991131 
142.015991 0.006753 
142.04335 0.044406 
142.049545 0.014103 
142.061127 0.142003 
142.068436 0.361994 
142.086014 0.006675 
142.097565 0.03822 
142.105423 0.008132 
143.027267 0.513082 
143.045013 0.83959 
143.072861 0.105232 
143.081223 0.039304 
143.974106 0.082183 
144.011505 0.017959 
144.054291 0.00766 
144.080521 0.379546 
145.006546 0.063147 
145.075882 0.28229 
145.083984 0.015385 
145.98996 0.025042 
146.012207 0.031613 
146.060074 0.180197 
146.071243 0.407214 
146.083939 0.016877 
146.096283 0.284815 
146.128693 0.066314 
147.055313 0.142526 
147.06636 0.007886 
147.078979 0.032367 
147.091599 0.526595 
148.044022 0.009247 
148.050446 0.821435 
148.0755 0.125841 
148.086823 0.654667 
148.093384 0.009906 
148.099533 0.074464 
148.111923 0.11598 
149.0345 0.190996 
149.070908 0.409911 
149.082336 0.15274 
149.089417 0.006329 
149.094955 0.024756 
149.107269 0.564477 
150.018509 0.201531 
150.037094 0.007663 
150.054977 0.055424 
150.066132 0.472632 
150.091278 0.141635 
150.102478 0.594359 
150.108978 0.01524 
150.127731 0.081642 
151.03241 0.070505 
151.050171 0.163804 
151.086533 0.781499 
151.097855 0.026667 
151.110519 0.044302 
151.122833 0.642207 
151.841766 0.006689 
152.01619 0.072672 
152.028046 0.007476 
152.033875 0.034113 
152.046158 0.02957 
152.052597 0.335889 
152.070633 0.033769 
152.081696 0.359744 
152.08876 0.00719 
152.107071 0.460434 
152.118149 0.470889 
152.131073 0.062344 
152.143295 0.59207 
152.974625 0.023485 
152.995117 0.009211 
153.047791 0.074235 
153.06572 0.114976 
153.102203 1.228486 
153.126221 0.00675 
153.138489 0.247347 
153.99469 0.00778 
154.049683 0.005899 
154.061523 0.011278 
154.06839 0.753924 
154.085938 0.151787 
154.097031 0.02687 
154.105042 0.023742 
154.133789 0.213913 
154.158829 0.257053 
154.990005 0.154887 
155.026825 0.027526 
155.044144 0.026489 
155.063797 0.055206 
155.071945 0.014683 
155.081451 0.112315 
155.092575 0.354516 
155.117676 1.525094 
155.974289 0.01939 
156.064941 0.039709 
156.076096 0.120382 
156.08168 0.044285 
156.101898 0.095475 
156.113098 0.837985 
156.120285 0.08449 
156.990189 0.014269 
157.006134 0.041397 
157.04306 0.00804 
157.060806 0.082879 
157.075546 0.022149 
157.096939 0.163574 
157.989746 0.025456 
158.011993 0.07073 
158.026428 0.008367 
158.063431 0.007392 
158.096497 0.030026 
158.985352 0.007077 
159.091415 0.610906 
159.989868 0.007595 
160.005249 0.007179 
160.07547 0.071029 
160.086899 0.371579 
160.09407 0.010635 
160.112152 0.014078 
161.070724 0.136188 
161.081909 0.294489 
161.094803 0.099953 
161.107132 0.350086 
161.984482 0.021917 
162.024429 0.00655 
162.06604 1.005264 
162.090942 0.048339 
162.102448 2.876148 
162.127518 0.017112 
163.049927 0.106691 
163.061432 0.028631 
163.086411 4.463644 
163.098038 0.248235 
163.104996 0.12037 
163.111115 0.033291 
163.122772 0.907414 
164.04541 0.374492 
164.070328 2.174482 
164.081711 1.364469 
164.089325 0.26222 
164.09491 0.112068 
164.106613 0.061922 
164.118286 1.182063 
164.125458 0.082456 
165.047989 0.087097 
165.065567 0.116841 
165.07724 1.472317 
165.084671 0.067578 
165.102188 1.600454 
165.113617 0.05688 
165.126221 0.105633 
165.138458 0.868973 
166.028793 0.04872 
166.043472 0.008837 
166.061035 2.56711 
166.086502 0.141684 
166.097382 0.358944 
166.105118 0.100793 
166.122528 0.293031 
166.13382 1.141378 
166.141418 0.049853 
166.990326 0.037561 
167.012421 0.008179 
167.03772 0.007762 
167.044937 0.482145 
167.064026 0.545462 
167.073151 0.087109 
167.0811 0.706627 
167.117783 0.620299 
167.1418 0.010816 
167.154083 0.245408 
168.029144 0.028516 
168.047928 0.047688 
168.058487 0.014143 
168.080612 0.167625 
168.101791 0.09139 
168.112839 0.124384 
168.149475 0.080718 
168.969254 0.097415 
168.990387 0.023897 
169.005936 0.011873 
169.028015 0.053785 
169.042725 0.028638 
169.060349 0.037943 
169.079086 0.419502 
169.096848 0.244458 
169.133301 0.253039 
169.989456 0.036782 
170.026169 0.012526 
170.049026 0.015814 
170.05571 0.038478 
170.063232 0.143988 
170.074081 0.008655 
170.096054 0.082069 
170.117355 0.333665 
170.985031 0.064173 
171.007248 0.007649 
171.021332 0.059053 
171.044067 0.116547 
171.066132 0.026649 
171.092728 0.168663 
171.992294 0.028326 
172.00528 0.041712 
172.027802 0.012184 
172.042908 0.006488 
172.050156 0.097021 
172.071564 0.087018 
172.078766 0.589947 
172.086746 0.156248 
172.111816 0.224065 
173.07077 0.02803 
173.082275 0.052441 
173.095413 0.00587 
173.1073 0.079041 
173.983871 0.029266 
174.043457 0.008111 
174.065781 0.254934 
174.073807 0.007688 
174.09259 0.013023 
174.102432 0.364689 
174.127518 0.028894 
175.086502 0.614081 
175.09729 0.054239 
175.110474 0.027347 
175.122864 0.234099 
176.056015 0.045569 
176.069183 0.156753 
176.081741 0.380689 
176.089355 0.018986 
176.118073 1.715781 
176.126038 0.01098 
176.47345 0.006209 
177.047974 0.023136 
177.065857 0.081277 
177.075348 0.10192 
177.10173 0.301754 
177.113098 0.05746 
177.122055 0.033123 
177.126236 0.040537 
177.138474 0.495162 
177.94397 0.006584 
178.028961 0.020259 
178.060928 0.127675 
178.084808 0.007509 
178.097046 0.361276 
178.109116 0.008006 
178.133759 1.855993 
178.142227 0.0356 
179.027145 0.015562 
179.063522 0.130036 
179.08107 0.300829 
179.092575 0.484155 
179.117813 0.781661 
179.126694 0.033123 
179.141159 0.041007 
179.154129 0.455439 
180.026688 0.008392 
180.04776 0.007405 
180.076263 0.394802 
180.112961 1.222909 
180.149414 0.693224 
180.157593 0.018264 
181.005539 0.042329 
181.042847 0.011039 
181.060577 0.017213 
181.071548 0.008807 
181.079346 0.172291 
181.097 2.936726 
181.108047 2.564072 
181.116196 0.116526 
181.122787 0.006234 
181.133179 0.742875 
181.153381 0.008483 
181.169678 0.053599 
181.987152 0.007286 
182.000931 0.166714 
182.055634 0.024939 
182.063766 0.015726 
182.081818 0.060548 
182.091995 0.02698 
182.100464 0.151192 
182.11145 0.123231 
182.128647 0.477726 
182.136887 0.011383 
182.164932 0.806885 
182.984558 0.015167 
183.021744 0.032063 
183.043549 0.10076 
183.058487 0.075513 
183.075974 0.01858 
183.091797 0.230263 
183.104294 0.008872 
183.11261 0.443613 
183.130493 0.007039 
183.149094 0.847899 
183.168701 0.016407 
184.003098 0.029414 
184.042496 0.354986 
184.060196 0.00858 
184.071442 0.04207 
184.089172 0.007977 
184.097534 0.028944 
184.108978 0.062745 
184.152496 0.030325 
184.999969 0.130708 
185.022812 0.055639 
185.037628 0.026661 
185.055344 0.976358 
185.07402 0.234075 
185.092529 0.031182 
185.107208 0.217687 
185.972382 0.025467 
186.020645 0.066118 
186.043076 0.008866 
186.058167 0.33729 
186.077072 0.009411 
186.091278 0.075029 
186.102142 0.077963 
186.127594 0.334237 
187.016068 0.133805 
187.038513 0.00742 
187.060638 0.028186 
187.07663 0.019874 
187.087769 0.6374 
187.13121 0.015959 
187.999191 0.0181 
188.043442 0.034237 
188.059174 0.034606 
188.081635 0.048426 
188.090424 0.008275 
188.108688 0.007714 
188.117905 0.41119 
188.143005 0.321665 
188.15242 0.006494 
189.054611 0.077468 
189.066956 0.008707 
189.076889 1.000335 
189.103104 0.370879 
189.113373 0.283152 
189.13829 0.097432 
190.015457 0.017978 
190.060913 1.688612 
190.097275 0.434016 
190.107071 0.06135 
190.133698 1.367073 
191.064346 0.09333 
191.081131 0.768401 
191.092361 1.23616 
191.117706 1.070327 
191.127792 0.052249 
191.139633 0.068644 
191.153992 0.12972 
192.076355 0.198763 
192.086563 0.100267 
192.096222 0.033621 
192.112854 0.563548 
192.121582 0.066173 
192.149261 2.5252 
192.158585 0.031255 
193.071426 0.35807 
193.08017 0.138018 
193.097 0.366156 
193.106964 0.039479 
193.133453 1.595235 
193.156662 0.40395 
193.167572 0.041858 
194.000229 0.008946 
194.055725 0.025289 
194.075073 0.028321 
194.092041 0.464428 
194.100998 0.009536 
194.118698 0.00736 
194.128296 0.280375 
194.137192 0.084236 
194.164932 0.249313 
195.021713 0.008315 
195.039932 0.248506 
195.058472 0.088712 
195.076035 0.064819 
195.091324 0.795075 
195.112595 0.57424 
195.122055 0.008373 
195.148956 0.178672 
195.184418 0.008887 
196.041092 0.041754 
196.088959 0.253416 
196.107651 0.149303 
196.144272 0.38815 
196.180603 0.161001 
197.000549 0.044896 
197.036987 0.05381 
197.058777 0.017018 
197.074158 1.012973 
197.091446 0.137436 
197.107727 0.164734 
197.12822 0.499091 
197.16452 0.064519 
197.210968 0.007178 
198.020706 0.009555 
198.058411 1.358106 
198.078781 0.007381 
198.091522 0.007427 
198.10434 0.034447 
198.123184 0.616253 
198.978668 0.055427 
198.988586 0.249762 
199.01593 0.106752 
199.038269 0.038561 
199.053162 0.073482 
199.061752 0.047051 
199.089798 3.862367 
199.106415 0.062761 
199.125977 0.008926 
199.98642 0.059119 
200.037369 0.66222 
200.054367 0.007582 
200.072968 0.033326 
200.092896 0.317372 
200.117859 0.033159 
200.983643 0.053457 
201.031754 0.059621 
201.041351 0.017246 
201.054733 0.025149 
201.076752 0.032425 
201.085648 0.052951 
201.103851 0.041316 
201.123123 0.02962 
202.085159 0.017287 
202.096832 0.094326 
202.133484 0.092535 
203.069733 0.009239 
203.080399 0.020773 
203.090927 0.0692 
203.118301 0.088425 
203.128677 0.455122 
203.13887 0.006512 
203.153809 0.041298 
204.030228 0.014404 
204.076157 0.007436 
204.087509 0.082418 
204.112671 0.298621 
204.123062 0.034242 
204.149323 0.378871 
205.086105 0.006909 
205.096573 0.222035 
205.107361 0.039632 
205.133301 0.134297 
205.144104 0.051194 
205.169846 0.043417 
206.05336 0.008376 
206.07428 0.008763 
206.092056 0.174832 
206.103241 0.249162 
206.128571 0.662704 
206.164993 2.216578 
206.996414 0.025185 
207.076843 0.052714 
207.086929 1.053332 
207.112198 0.52912 
207.123718 0.371327 
207.149139 0.487981 
207.15947 0.014522 
207.170288 0.160975 
207.980347 0.009559 
208.041977 0.037248 
208.071503 0.290343 
208.090164 0.111179 
208.107712 1.19708 
208.14415 0.748446 
208.180649 0.792394 
209.036987 0.02908 
209.059357 0.205657 
209.074036 0.183267 
209.092285 0.569912 
209.111191 0.104223 
209.128235 0.448005 
209.147888 0.016674 
209.164551 0.160106 
209.183456 0.010332 
209.995667 0.159987 
210.007721 0.007186 
210.019592 0.014469 
210.032745 0.008324 
210.069 0.014955 
210.078186 0.008122 
210.104538 0.058221 
210.123306 0.435324 
210.159897 1.83529 
211.015854 0.055162 
211.037552 0.008902 
211.052994 0.223719 
211.074875 0.055646 
211.089172 0.016446 
211.107452 0.090467 
211.12558 0.056305 
211.143707 0.063321 
211.163177 0.169954 
212.011124 0.147383 
212.036102 0.066104 
212.057693 0.010466 
212.067947 0.02398 
212.085251 0.155873 
212.118088 6.259325 
212.129791 0.060558 
212.994217 0.065114 
213.031616 0.03612 
213.051041 0.331678 
213.068863 0.885675 
213.089111 0.00775 
213.101959 0.010074 
213.121796 0.815229 
213.138763 0.03525 
214.052979 5.524477 
214.099655 0.284009 
214.123001 0.00809 
214.134613 0.008524 
214.155396 0.007212 
215.010895 0.061532 
215.056488 0.497324 
215.067764 0.078705 
215.082382 0.121019 
215.093445 0.026498 
215.117889 0.014976 
215.139008 0.619691 
215.152771 0.06807 
216.048752 0.16557 
216.068161 0.062047 
216.112656 0.110515 
216.149368 0.016989 
217.051392 0.008767 
217.071838 0.943345 
217.082901 0.012556 
217.097076 0.11904 
217.107956 0.256733 
217.133118 0.078098 
217.14444 0.124123 
217.168488 0.007296 
218.009659 0.007943 
218.056015 0.201606 
218.075134 0.0367 
218.091141 0.174515 
218.102646 0.066965 
218.128448 0.299208 
218.164825 0.325943 
219.058823 0.017242 
219.07663 0.009776 
219.112091 0.077832 
219.123016 0.125768 
219.148895 0.063263 
219.159546 0.038014 
219.828186 0.050746 
219.838089 0.019617 
220.106354 0.438578 
220.143997 0.332509 
220.180634 3.674007 
221.035355 0.018346 
221.059219 0.026657 
221.076248 0.261758 
221.08963 0.084961 
221.109741 0.016397 
221.127838 0.089904 
221.16449 0.188905 
221.187408 0.488013 
222.004257 0.144008 
222.102707 0.525911 
222.122589 0.237891 
222.158432 0.217937 
222.196228 5.045449 
223.052689 0.019913 
223.07489 0.15361 
223.087723 0.017995 
223.106995 0.13917 
223.125992 0.140068 
223.143066 0.010762 
223.180252 0.272863 
223.200043 0.445087 
223.999207 0.011219 
224.035507 0.008469 
224.06546 0.016461 
224.084625 0.125618 
224.118088 1.525136 
224.138779 0.225836 
224.175354 0.266473 
225.031631 0.065637 
225.068909 0.989022 
225.097702 0.497746 
225.121872 0.309642 
225.133759 0.016356 
225.170364 0.00811 
226.026779 0.016123 
226.072525 0.019687 
226.099655 0.029726 
226.118408 0.339769 
226.154449 0.0533 
227.047073 0.053205 
227.06958 0.041062 
227.083817 0.161264 
227.153809 0.04756 
228.030136 0.008942 
228.042908 0.026626 
228.065765 0.061212 
228.112488 0.009041 
228.170227 0.057437 
229.011444 0.008243 
229.027557 0.031893 
229.132996 0.058155 
229.144699 0.024763 
230.078445 0.007836 
230.127365 0.017 
230.164352 0.018837 
231.042206 0.028076 
231.062378 0.025751 
231.123688 0.127013 
231.148483 0.052445 
232.107468 0.276374 
232.119156 0.109057 
232.143539 0.093352 
232.180634 0.220384 
233.011597 0.039334 
233.091446 0.248587 
233.127258 0.075118 
233.139572 0.056111 
233.164062 0.149036 
234.033401 0.007185 
234.054703 0.090763 
234.085876 0.019113 
234.098221 0.504158 
234.123138 0.341848 
234.135223 0.014825 
234.159607 0.461133 
234.195969 0.080245 
235.015152 0.015692 
235.082352 2.29676 
235.10434 0.035702 
235.116898 0.429397 
235.143234 0.162792 
235.154907 0.267456 
236.033676 0.072167 
236.0672 0.407606 
236.085236 0.356514 
236.102524 0.760397 
236.119583 0.034052 
236.138992 0.659386 
236.174911 0.19354 
237.030518 0.100134 
237.054062 0.123617 
237.068481 0.062912 
237.088425 0.083035 
237.106049 0.035363 
237.131393 0.668995 
237.142319 0.179661 
238.026367 0.007105 
238.084747 0.023013 
238.10051 0.118946 
238.116531 0.305993 
238.135544 0.142157 
238.154587 0.159308 
239.047333 0.077477 
239.069687 0.067722 
239.084412 0.250459 
239.104156 0.00875 
239.116867 0.01034 
239.128937 0.417768 
239.156113 0.008706 
240.112793 0.254543 
240.133682 0.032109 
240.152435 0.219185 
241.046371 0.035154 
241.062775 0.061629 
241.084824 0.069088 
241.11882 0.009197 
242.093567 0.130638 
242.128204 0.008611 
242.163956 0.008234 
243.062943 0.015012 
243.087631 0.091615 
243.134506 0.041308 
243.148605 0.385654 
243.180756 0.03079 
245.077759 0.01799 
245.091476 0.035941 
245.139389 0.010131 
246.074814 0.099439 
246.098114 0.222808 
246.122284 0.087698 
246.159348 0.132431 
247.101944 0.043234 
247.115891 0.022716 
247.154892 0.026346 
247.19136 0.035459 
248.070068 0.046362 
248.08548 0.029158 
248.101913 0.198455 
248.138062 0.173102 
248.175339 0.770126 
249.053558 0.011188 
249.072342 0.009151 
249.116257 0.106686 
249.131271 0.025824 
249.15863 0.208624 
249.206726 0.019271 
250.026352 0.009765 
250.063263 0.008969 
250.098068 0.211879 
250.118332 0.18953 
250.153458 0.049448 
250.19101 0.171298 
251.12085 0.042892 
251.174194 0.015237 
252.042709 0.02683 
252.064987 0.061467 
252.07872 0.032644 
252.109085 0.534069 
252.133331 0.025295 
252.152466 0.194649 
252.169617 0.190217 
253.062424 0.042763 
253.093109 2.208316 
253.10965 0.020854 
253.115631 0.034506 
253.135788 0.076192 
253.165573 0.313314 
254.080521 0.043836 
254.095627 0.242907 
254.112701 0.05557 
254.168182 0.54945 
254.991577 0.054317 
255.040695 0.091735 
255.063965 0.0525 
255.12352 0.098732 
255.150925 0.00916 
256.108032 0.051289 
257.139526 1.139969 
258.098175 0.152556 
258.142883 0.027163 
258.158203 0.007736 
259.057037 0.011123 
259.118591 0.008775 
260.069855 0.007198 
260.101898 0.263645 
260.114319 0.335576 
260.138306 0.067571 
260.175049 0.094266 
261.08667 0.025801 
261.134186 0.016035 
261.157837 0.011962 
262.092743 0.048569 
262.154419 0.120334 
262.190948 0.10247 
263.010864 0.007347 
263.077484 0.752327 
263.122253 0.017735 
263.149475 0.087989 
264.064911 0.007913 
264.080292 0.048183 
264.098785 0.038853 
264.152893 0.014073 
264.169373 0.118531 
265.063599 0.017554 
265.111786 0.017071 
265.125153 0.110738 
265.137726 0.166136 
265.163025 0.102622 
266.036957 0.018542 
266.080444 0.023047 
266.095367 0.046831 
266.114075 0.057875 
266.131317 0.048628 
266.149902 0.047507 
266.166687 0.02425 
266.185547 0.034858 
267.042206 0.009991 
267.064392 0.008746 
267.124115 1.985255 
267.15036 0.111557 
268.074554 0.009834 
268.107971 2.28797 
268.126038 0.30785 
268.145813 0.085727 
269.057648 0.019127 
269.095398 0.00851 
269.111023 0.327369 
269.139313 0.007685 
270.112671 0.008263 
271.057892 0.013739 
271.144196 0.319675 
272.054138 0.007792 
272.148865 0.006901 
273.134094 0.460651 
273.170349 0.00867 
274.066895 0.029116 
274.114227 0.007709 
274.166687 0.031961 
274.190277 0.029728 
275.074677 0.016986 
275.111145 0.079036 
275.186676 0.056022 
276.115082 0.008029 
276.1698 0.184782 
276.20755 0.007599 
277.111847 0.00791 
277.128723 0.207161 
277.165649 0.024868 
277.202026 0.047728 
278.058533 0.02064 
278.113007 0.551204 
278.13028 0.110903 
278.149078 0.009694 
279.075073 0.008034 
279.098572 0.016536 
279.11969 0.183981 
279.141724 0.008384 
279.180023 0.008674 
280.07431 0.102296 
280.097473 0.0077 
280.147095 0.257217 
280.164062 0.064889 
281.088562 0.187613 
281.13147 1.199555 
281.194305 0.242343 
282.074707 0.062694 
282.091064 0.020769 
282.13443 0.102484 
282.163025 0.266802 
282.197266 0.007504 
283.11853 0.055912 
283.145416 0.016668 
283.1651 0.006987 
284.176208 0.007451 
285.134338 1.820927 
285.16214 0.286025 
286.09314 0.030857 
286.137085 0.237492 
286.153534 0.009005 
286.164764 0.009235 
287.076721 0.008622 
287.186768 0.008194 
288.109009 0.01698 
288.132019 0.021687 
288.169769 0.095779 
289.103485 0.00785 
289.126373 0.008417 
289.200989 0.020633 
290.089539 0.060797 
290.131653 0.0079 
290.160675 0.26486 
290.184601 0.048431 
291.130341 0.20901 
291.178955 0.041656 
291.217285 0.028197 
292.147736 0.23118 
292.199615 0.007173 
293.121918 0.02969 
293.13974 0.419349 
293.157959 0.010492 
294.144623 0.05596 
294.16333 0.401901 
294.195953 0.094574 
295.086731 0.027522 
295.118591 0.196033 
295.139496 0.329747 
296.069427 0.041687 
296.123413 0.235942 
296.14151 0.041877 
298.085175 0.029925 
298.105316 0.039579 
298.157745 0.053218 
300.144135 0.033583 
300.168732 0.007532 
301.128082 0.006691 
302.148193 0.017722 
303.113403 0.724209 
303.179993 0.015841 
304.102509 1.009302 
305.106842 0.171483 
305.159302 0.058897 
305.195129 0.007446 
306.025208 0.008368 
306.090424 0.00835 
306.116852 0.012043 
306.162323 0.146397 
307.043976 0.009061 
307.173492 0.008157 
307.191803 0.024088 
308.106323 0.0084 
308.141754 0.009836 
308.178009 0.215829 
308.195679 0.008629 
309.173828 0.343227 
310.086182 0.008059 
310.157745 0.011028 
311.058014 0.008432 
311.14978 0.010224 
312.207275 0.006499 
313.149567 0.056219 
313.190277 0.108129 
315.111389 0.007515 
315.179474 0.020227 
316.131348 0.028649 
316.164551 0.188345 
317.165222 0.007495 
317.194733 0.041893 
319.058685 0.008328 
319.12085 0.010039 
319.173248 0.011291 
319.211945 0.019986 
320.12442 0.026163 
321.171844 0.00813 
321.190704 0.006173 
323.170746 0.007362 
324.142181 0.0174 
325.082092 0.008047 
325.167694 0.008539 
330.123199 0.008918 
330.147369 0.149677 
331.110626 0.010461 
331.178223 0.00824 
331.212463 0.007832 
332.097687 0.085364 
332.205261 0.008742 
333.153107 0.009018 
333.189636 0.144105 
333.263672 0.008282 
334.192108 0.017909 
335.133575 0.007678 
335.187225 0.406883 
335.207092 0.022241 
336.142395 0.022805 
336.210724 0.008068 
338.08075 0.03096 
343.172852 0.011908 
344.154938 0.031301 
347.148193 0.084232 
347.169128 0.0158 
348.098175 0.009621 
348.209167 0.032748 
349.123901 0.246719 
350.108917 0.094963 
350.178741 0.026804 
350.218231 0.203736 
350.250031 0.037452 
351.219635 0.007375 
355.210297 0.007059 
360.095428 0.006786 
360.200317 0.046373 
361.184509 0.1509 
362.179993 0.049577 
364.138397 0.007579 
365.123383 0.097949 
366.149445 0.009026 
369.225616 0.295353 
370.150055 0.150631 
377.227234 0.058811 
378.210083 0.194085 
378.247162 0.377546 
379.207458 0.103622 
379.24881 0.035012 
380.207245 0.016938 
382.14975 0.04264 
387.175934 0.154538 
388.159149 0.066064 
388.22937 0.009913 
389.192322 0.008533 
392.205048 0.434548 
393.207855 0.063782 
395.207458 0.006358 
395.237091 0.418815 
396.238464 0.040594 
400.15979 0.031474 
402.187073 0.009475 
404.22406 0.031277 
405.18634 0.098612 
405.22113 0.007415 
415.168304 0.017507 
416.231415 0.008891 
418.182678 0.041326 
420.2005 0.007793 
423.235535 0.009256 
432.155334 0.371226 
432.25592 0.023471 
433.15683 0.243778 
433.187683 0.010412 
433.252991 0.019639 
434.155701 0.01155 
440.272644 0.095213 
440.304626 0.099572 
446.212585 0.024685 
447.268311 0.035377 
447.34433 0.300225 
448.348206 0.047491 
457.249756 0.008694 
460.148865 0.018439 
461.243988 0.008484 
463.335571 0.037543 
464.294281 0.042117 
475.261688 0.073752 
478.272156 0.008456 
492.289246 0.05495 
493.290588 0.007015 
497.319183 0.045675 
506.282654 0.386805 
507.286774 0.107001 
530.41748 0.033019 
532.260315 0.009434 
533.269653 0.00783 
541.394592 0.0069 
545.234131 0.006915 
556.408569 0.319587 
557.412292 0.106202 
560.355652 0.006553 
561.294556 0.013266 
566.416138 0.007061 
592.210693 0.007208 
601.498108 0.00769 
610.403076 0.015732 
611.406799 0.007179 
613.441772 0.006131 
634.374268 0.006578 
656.944641 0.006533 
657.583252 0.007844 
685.431152 0.006865 
802.088379 0.006752 
817.93335 0.007259 
825.897217 0.005962 
836.416504 0.006761 
837.553528 0.006985 
855.239929 0.007983 
859.245667 0.008281 
885.599792 0.007183 
895.155212 0.006709 
895.225952 0.006651 
992.122314 0.007243 
1072.942139 0.007626 
1120.384888 0.006907 
1202.560791 0.008074 
1223.321899 0.007156 
1310.336792 0.006808 
1323.857544 0.007192 
1376.289307 0.007205 
1388.351685 0.006431 
1392.194092 0.006835 
END IONS

