BEGIN IONS
PEPMASS=414.155
CHARGE=1+
COMPOUNDNAME=MoNA:619528 (-)-Noscapine
LIBRARYQUALITY=3
SMILES=N/A
INCHIKEY=AKNNEGZIBPJZJG-UHFFFAOYSA-N
INCHI=InChI=1S/C22H23NO7/c1-23-8-7-11-9-14-20(29-10-28-14)21(27-4)15(11)17(23)18-12-5-6-13(25-2)19(26-3)16(12)22(24)30-18/h5-6,9,17-18H,7-8,10H2,1-4H3
MSLEVEL=2
SOURCE_INSTRUMENT=LC-ESI-QFT-LC-ESI-QFT
FILENAME=output_mgf.mgf
SEQ=*..*
IONMODE=
ORGANISM=MONA
NAME=MoNA:619528 (-)-Noscapine [M+H]+
PI=MoNA
DATACOLLECTOR=MoNA
PUBMED=N/A
SUBMITUSER=mwang87
TAGS=
SPECTRUMID=CCMSLIB00000572971
SCANS=10222
65.0385 1.746928 
78.0463 1.867 
79.0541 2.537613 
91.0541 11.277753 
93.0697 0.603248 
94.065 2.507714 
95.049 4.658212 
102.0463 2.192211 
103.0541 2.631481 
104.0493 1.431536 
105.0335 0.834723 
105.0448 0.854828 
105.0698 0.692578 
106.0411 1.390225 
106.065 3.993677 
107.049 1.932162 
107.0728 2.52408 
115.0539 1.68334 
117.0332 1.612491 
118.0411 1.917647 
118.0649 4.213244 
119.049 1.631263 
119.0728 3.926708 
120.0806 4.604292 
121.0282 1.594005 
121.0646 6.959319 
121.0884 4.320356 
122.036 1.501936 
130.0413 2.8509 
131.049 3.515955 
132.057 2.813628 
133.0283 0.608578 
133.052 1.205942 
133.0647 3.412744 
134.036 1.680349 
134.0598 1.729655 
135.0439 1.94252 
135.0677 1.25098 
139.0536 1.179713 
145.0645 0.605556 
146.0363 3.062657 
146.0599 3.292173 
147.044 2.765344 
147.0677 11.56867 
148.0755 13.614207 
149.023 1.395829 
149.0595 1.67205 
149.0834 2.829427 
150.0307 0.547084 
151.039 0.437249 
152.0619 6.910411 
153.0697 7.033722 
158.036 2.304655 
159.0676 2.124283 
160.0515 1.985941 
160.0755 1.450109 
161.06 0.865543 
162.0311 1.652351 
162.0549 2.779264 
162.0914 0.47513 
163.0387 1.54086 
163.0538 4.053959 
164.0465 1.857213 
164.0617 1.754613 
165.0545 2.155584 
165.0697 17.949109 
166.0774 2.669723 
167.0852 1.881023 
168.0569 2.870159 
169.0649 2.194206 
174.0312 3.353024 
174.0549 4.648554 
175.0388 0.556073 
175.0627 5.498998 
176.0465 3.389442 
176.0618 6.474198 
176.0704 6.770153 
177.0543 10.659411 
177.0697 4.471812 
177.0782 2.52293 
178.0775 10.724887 
179.0488 1.619534 
179.07 0.699253 
179.0853 3.920921 
180.0563 2.517636 
181.0646 18.576089 
182.0725 1.326053 
183.0802 1.830355 
188.0467 7.74341 
188.0706 2.775697 
189.0544 1.249391 
189.0698 8.350724 
190.0496 1.789118 
190.0776 1.989007 
191.049 3.372092 
191.0573 23.109044 
191.0852 1.754719 
192.0569 6.603895 
192.0653 1.063476 
193.0647 9.496211 
193.0734 1.459206 
194.0724 7.176585 
195.0803 6.894644 
196.0521 2.145716 
196.0879 0.673973 
197.0599 2.048408 
202.0773 1.705474 
203.0488 1.329502 
203.0574 7.149715 
203.0854 0.624735 
204.0566 5.050677 
204.0654 10.200809 
205.0645 17.316013 
205.0732 100.0 
206.0722 5.413742 
206.0809 13.82237 
207.0441 4.051727 
207.0801 4.769401 
208.0516 4.801807 
208.0878 1.222165 
209.0595 20.235329 
210.0676 2.301807 
211.0753 3.201315 
216.0565 1.291182 
217.0644 2.573317 
218.0723 3.94573 
218.0815 2.057766 
219.0438 6.441789 
219.0806 2.698848 
220.0517 9.252625 
220.0967 19.609141 
221.0595 21.33484 
222.0311 3.275219 
222.0673 5.757773 
223.075 8.934653 
224.0465 1.608556 
224.0828 2.836901 
225.0549 1.70853 
225.0901 0.663386 
226.0624 0.560983 
231.044 1.189323 
231.0804 0.539626 
232.0517 5.293695 
233.0595 14.291007 
234.0674 10.331041 
235.039 3.112312 
235.075 8.489571 
236.0465 12.117192 
236.0832 1.308021 
237.0544 30.10261 
238.0627 2.781419 
239.07 5.046253 
244.0517 0.571839 
245.0596 1.712303 
246.0305 0.598328 
246.067 2.460776 
247.0387 4.934077 
247.0754 2.864911 
248.0464 5.199917 
248.0827 0.441759 
249.0544 21.227639 
250.0622 5.958631 
251.07 12.458789 
252.0415 3.007323 
252.0783 3.23057 
253.0501 1.04353 
253.0853 2.411493 
254.0568 1.191192 
255.0648 1.886133 
259.0392 0.451354 
260.0458 0.41705 
261.0541 7.061846 
262.0623 6.026788 
263.0338 1.918408 
263.0703 7.731558 
264.0416 7.253779 
264.0657 0.687393 
264.078 2.380078 
265.0493 30.307099 
265.0856 1.767229 
266.0573 6.373771 
266.0806 1.162268 
267.0649 3.886559 
269.081 0.451386 
273.0543 0.62993 
275.0699 0.688637 
276.0416 1.141528 
277.0491 7.412145 
278.0571 3.983746 
279.065 10.557423 
280.0363 4.418834 
280.0729 6.443937 
281.0803 3.500926 
282.0527 0.472711 
283.0592 2.175901 
285.0759 0.635053 
289.0496 2.390032 
290.0574 1.507446 
291.0656 2.330349 
292.0361 3.518355 
292.0725 0.486371 
293.0442 3.254918 
293.0803 1.093416 
294.0524 2.695606 
294.076 1.437829 
295.0598 9.751228 
295.0964 0.505364 
304.0367 0.494435 
305.0435 1.501152 
306.0516 1.986416 
307.0599 7.281322 
308.0921 0.401934 
309.0754 3.454536 
310.0839 0.566186 
313.0702 0.452795 
319.0602 0.592305 
322.0473 0.464666 
322.0702 1.263545 
323.0547 0.719992 
337.0701 0.434827 
END IONS

