BEGIN IONS
TITLE=Scan Number: 3413
PEPMASS=427.246
CHARGE=1+
COMPOUNDNAME=Lovastatin M+Na; Mevinolin
LIBRARYQUALITY=3
SMILES=CC[C@H](C)C(=O)O[C@H]1C[C@H](C=C2[C@H]1[C@H]([C@H](C=C2)C)CC[C@@H]3C[C@H](CC(=O)O3)O)C
INCHIKEY=PCZOHLXUXFIOCF-BXMDZJJMSA-N
INCHI=InChI=1S/C24H36O5/c1-5-15(3)24(27)29-21-11-14(2)10-17-7-6-16(4)20(23(17)21)9-8-19-12-18(25)13-22(26)28-19/h6-7,10,14-16,18-21,23,25H,5,8-9,11-13H2,1-4H3/t14-,15-,16-,18+,19+,20-,21-,23-/m0/s1
MSLEVEL=2
SOURCE_INSTRUMENT=LC-ESI-Orbitrap
FILENAME=f.lfnothias/1904_statins_standards/Mevinolin_1uL.mzML;
SEQ=*..*
NOTES=
IONMODE=Positive
ORGANISM=GNPS-LIBRARY
NAME=Lovastatin M+Na; Mevinolin M+Na
SPECTRUMID=CCMSLIB00005435739
ACTIVATION=CID
INSTRUMENT=ion trap
SCANS=3413
77.486275 1196.150146 
82.810356 1190.433472 
94.139404 1291.710327 
111.005333 2388.748535 
118.913132 1540.189575 
120.18763 1633.472656 
151.746872 1381.807251 
158.806564 1436.80835 
159.11705 1535.626587 
174.636047 1366.860962 
182.781143 1752.044678 
270.449402 1563.415771 
295.131836 6063.134277 
325.17807 110368.046875 
339.227234 2250.393799 
342.143524 2535.34082 
427.246368 350588.5625 
END IONS

