BEGIN IONS
PEPMASS=405.264
CHARGE=1+
COMPOUNDNAME=MoNA:686183 (1S,3R,7S,8S,8aR)-8-{2-[(2R,4R)-4-hydroxy-6-oxotetrahydro-2H-pyran-2-yl]ethyl}-3,7-dimethyl-1,2,3,7,8,8a-hexahydronaphthalen-1-yl (2S)-2-methylbutanoate
LIBRARYQUALITY=3
SMILES=N/A
INCHIKEY=PCZOHLXUXFIOCF-BXMDZJJMSA-N
INCHI=InChI=1S/C24H36O5/c1-5-15(3)24(27)29-21-11-14(2)10-17-7-6-16(4)20(23(17)21)9-8-19-12-18(25)13-22(26)28-19/h6-7,10,14-16,18-21,23,25H,5,8-9,11-13H2,1-4H3/t14-,15-,16-,18+,19+,20-,21-,23-/m0/s1
MSLEVEL=2
SOURCE_INSTRUMENT=LC-ESI-QFT-LC-ESI-QFT
FILENAME=output_mgf.mgf
SEQ=*..*
IONMODE=
ORGANISM=MONA
NAME=MoNA:686183 (1S,3R,7S,8S,8aR)-8-{2-[(2R,4R)-4-hydroxy-6-oxotetrahydro-2H-pyran-2-yl]ethyl}-3,7-dimethyl-1,2,3,7,8,8a-hexahydronaphthalen-1-yl (2S)-2-methylbutanoate [M+H]+
PI=MoNA
DATACOLLECTOR=MoNA
PUBMED=N/A
SUBMITUSER=mwang87
TAGS=
SPECTRUMID=CCMSLIB00000566315
SCANS=3567
55.0541 0.235785 
67.0542 0.445008 
69.0698 2.104291 
71.0127 0.231233 
71.0491 0.258478 
79.0542 10.294426 
81.0699 10.645679 
83.0491 4.42177 
83.0856 1.048233 
85.0647 1.940229 
89.0232 1.716344 
91.0541 0.248906 
93.0699 3.281931 
95.0855 2.836177 
97.0648 6.260352 
99.0804 0.485231 
105.0699 6.382423 
107.0492 2.385616 
107.0855 9.513777 
109.0649 0.471497 
109.1012 0.86829 
111.0805 0.377949 
117.0696 0.244437 
119.0854 3.530536 
121.0648 0.281997 
121.1011 3.484864 
123.0803 0.424556 
125.0597 3.010605 
127.0754 0.932001 
128.0618 0.345322 
129.0697 0.299791 
131.0855 6.299824 
133.1011 4.116275 
135.0803 0.829076 
135.1168 0.958097 
141.0696 0.261571 
142.0775 0.21745 
143.0705 3.562374 
143.0856 9.231002 
145.1012 11.148007 
147.1169 1.881816 
149.0964 0.436311 
151.0754 1.593159 
155.0854 2.175664 
157.1012 10.846501 
159.1168 19.730898 
160.125 0.223465 
161.1325 0.973782 
163.1119 1.191186 
165.0911 0.982756 
167.0853 0.279017 
169.1012 12.720746 
171.1168 17.792427 
173.1325 62.31139 
177.0907 0.837391 
177.1273 0.232759 
181.1012 1.693204 
183.1168 7.038593 
185.0958 0.300417 
185.1326 4.59173 
187.1115 0.289645 
187.1483 0.216329 
189.0911 1.047922 
191.1067 6.237675 
193.1012 1.107964 
193.1222 0.259988 
195.1166 1.092403 
197.1325 6.836041 
199.1481 100.0 
201.1637 24.334469 
203.1058 0.331584 
205.1015 0.295797 
205.1222 2.396503 
207.1167 3.204242 
208.1248 0.231222 
209.117 0.834152 
209.1327 0.348138 
211.1117 2.773054 
211.1482 5.652508 
213.1637 0.895013 
215.1795 3.421757 
220.1251 0.32943 
221.1327 1.016319 
223.1482 12.903863 
225.1637 65.286293 
229.1222 2.862751 
234.1403 0.8936 
239.1435 1.507503 
239.1794 16.780783 
243.1744 34.429442 
249.1639 19.734032 
257.1535 0.47663 
267.1744 13.2408 
285.1851 17.010619 
303.1953 2.999629 
END IONS

