BEGIN IONS
PEPMASS=333.0
CHARGE=1+
COMPOUNDNAME=Massbank:KO004027 Specitinomycin|Spectinomycin
LIBRARYQUALITY=3
SMILES=CNC(C(O)3)C(O)C([H])(O1)C([H])(C(NC)3)OC(O)(C(=O)2)C([H])(OC(C)C2)1
INCHIKEY=UNFWWIHTNXNPBV-UHFFFAOYSA-N
INCHI=1S/C14H24N2O7/c1-5-4-6(17)14(20)13(21-5)22-12-10(19)7(15-2)9(18)8(16-3)11(12)23-14/h5,7-13,15-16,18-20H,4H2,1-3H3/t5-,7-,8+,9+,10+,11-,12-,13+,14+/m1/s1
MSLEVEL=2
SOURCE_INSTRUMENT=ESI-LC-ESI-QQ
FILENAME=Massbank_ESI_positive_8_1_2014_peaks.mgf
SEQ=*..*
IONMODE=Positive
ORGANISM=MASSBANK
NAME=Massbank:KO004027 Specitinomycin|Spectinomycin [M+H]+
PI=Putative Massbank Match
DATACOLLECTOR=Massbank
PUBMED=N/A
SUBMITUSER=mwang87
TAGS=
SPECTRUMID=CCMSLIB00000220576
SCANS=9819
101.2 24752.5 
103.0 54455.5 
115.7 24752.5 
131.9 173267.5 
133.0 351485.5 
153.1 39604.0 
176.0 227723.0 
193.3 138614.0 
201.2 19802.0 
233.3 34653.5 
234.1 49505.0 
243.1 69307.0 
256.4 29703.0 
260.1 29703.0 
297.2 24752.5 
299.1 14851.5 
315.6 39604.0 
316.4 757426.5 
333.6 15480213.5 
END IONS

