BEGIN IONS
PEPMASS=271.061
CHARGE=1+
COMPOUNDNAME=naringenin
LIBRARYQUALITY=3
SMILES=N/A
INCHIKEY=FTVWIRXFELQLPI-UHFFFAOYSA-N
INCHI=InChI=1S/C15H12O5/c16-9-3-1-8(2-4-9)13-7-12(19)15-11(18)5-10(17)6-14(15)20-13/h1-6,13,16-18H,7H2
MSLEVEL=2
SOURCE_INSTRUMENT=N/A-ESI-QTOF
FILENAME=library_mgf.mgf
SEQ=*..*
IONMODE=negative
ORGANISM=MONA
NAME=naringenin [M-H]-
PI=MoNA
DATACOLLECTOR=MoNA:VF-NPL-QTOF000575
PUBMED=N/A
SUBMITUSER=mwang87
TAGS=
SPECTRUMID=CCMSLIB00004718121
SCANS=572
63.013802 0.752848 
63.0182 0.212962 
64.994102 1.490372 
64.998802 0.212376 
83.002296 1.28977 
93.023598 4.703446 
93.086197 0.14604 
93.112297 0.176809 
107.002998 3.531656 
107.072502 0.142064 
119.039101 12.531461 
119.100197 0.251594 
119.109901 0.478545 
119.135002 0.440836 
119.182701 0.148092 
119.266403 0.14258 
125.008202 0.209811 
125.013397 0.538311 
143.036606 0.147688 
145.016098 0.405605 
150.991592 38.42112 
151.080093 0.249896 
151.100098 0.817689 
151.1091 0.159214 
151.134293 0.502613 
151.150497 0.301237 
151.175797 0.323881 
151.191605 0.319726 
151.216507 0.202353 
151.261505 0.247501 
151.274994 0.156548 
151.323196 0.165876 
151.362503 0.190199 
151.513107 0.187784 
151.578003 0.166829 
151.991104 0.2524 
161.048996 0.157785 
165.006699 1.614613 
177.007996 5.664179 
177.074203 0.178339 
187.028793 0.158036 
227.054596 0.526178 
227.060898 0.284226 
253.031403 0.169299 
271.048706 100.0 
271.191193 2.400968 
271.233185 2.086537 
271.262695 0.5007 
271.287811 0.797611 
271.311005 0.331982 
271.330109 0.918992 
271.355804 0.608275 
271.381897 0.185785 
271.400085 0.655591 
271.430786 0.585129 
271.450012 0.298371 
271.477295 0.504635 
271.511902 0.49592 
271.547791 0.454845 
271.568695 0.143868 
271.586914 0.223623 
271.599609 0.210771 
271.615295 0.197034 
271.647003 0.337248 
271.663208 0.147512 
271.693512 0.465584 
271.72049 0.213186 
271.765503 0.332767 
271.786194 0.30239 
271.855103 0.370188 
271.870209 0.142318 
271.903015 0.249115 
271.950806 0.193328 
271.971313 0.2502 
272.050507 1.101976 
272.123901 0.180537 
272.14209 0.171587 
272.189606 0.378546 
272.237488 0.230338 
272.274902 0.154785 
272.303802 0.258702 
272.345703 0.239443 
272.396698 0.230216 
272.435303 0.297843 
272.4841 0.149973 
272.511597 0.169645 
272.716187 0.174899 
272.787415 0.246735 
272.879608 0.157633 
272.937714 0.198936 
273.098907 0.154583 
273.180695 0.180844 
273.398804 0.176523 
273.827209 0.143167 
END IONS

