BEGIN IONS
PEPMASS=347.0
CHARGE=1+
COMPOUNDNAME=MoNA:2563707 Gibberellin A1
LIBRARYQUALITY=3
SMILES=N/A
INCHIKEY=JLJLRLWOEMWYQK-OBDJNFEBSA-N
INCHI=InChI=1S/C19H24O6/c1-9-7-17-8-18(9,24)5-3-10(17)19-6-4-11(20)16(2,15(23)25-19)13(19)12(17)14(21)22/h10-13,20,24H,1,3-8H2,2H3,(H,21,22)/t10-,11+,12-,13-,16-,17+,18+,19-/m1/s1
MSLEVEL=2
SOURCE_INSTRUMENT=LC-ESI-QQ-LC-ESI-QQ
FILENAME=output_mgf.mgf
SEQ=*..*
IONMODE=
ORGANISM=MONA
NAME=MoNA:2563707 Gibberellin A1 [M-H]-
PI=MoNA
DATACOLLECTOR=MoNA
PUBMED=N/A
SUBMITUSER=mwang87
TAGS=
SPECTRUMID=CCMSLIB00000574428
SCANS=11679
73.072 1.825486 
144.956 8.721652 
172.929 4.353707 
184.647 0.989322 
185.601 1.522424 
198.752 4.851012 
201.395 1.050544 
202.836 2.507882 
215.165 1.75328 
228.789 10.291874 
229.619 5.094071 
238.86 1.165463 
240.517 1.036306 
241.062 18.00061 
241.697 2.476355 
256.951 2.738737 
258.435 1.967863 
259.097 23.817757 
259.661 1.43293 
267.08 1.228516 
272.447 2.71738 
273.033 30.834944 
284.514 1.503102 
285.131 19.210821 
300.664 3.249263 
301.532 0.992983 
303.036 16.281908 
303.627 1.702431 
328.466 5.216109 
329.125 15.000508 
346.327 6.141564 
347.052 100.0 
347.749 4.924235 
END IONS

