BEGIN IONS
PEPMASS=290.102
CHARGE=1+
COMPOUNDNAME=Naringenin
LIBRARYQUALITY=3
SMILES=N/A
INCHIKEY=FTVWIRXFELQLPI-UHFFFAOYSA-N
INCHI=InChI=1S/C15H12O5/c16-9-3-1-8(2-4-9)13-7-12(19)15-11(18)5-10(17)6-14(15)20-13/h1-6,13,16-18H,7H2
MSLEVEL=2
SOURCE_INSTRUMENT=N/A-ESI-QFT
FILENAME=library_mgf.mgf
SEQ=*..*
IONMODE=positive
ORGANISM=MONA
NAME=Naringenin [M+NH4]+
PI=MoNA
DATACOLLECTOR=MoNA:VF-NPL-QEHF013818
PUBMED=N/A
SUBMITUSER=mwang87
TAGS=
SPECTRUMID=CCMSLIB00004704881
SCANS=13818
52.429516 0.096325 
53.003059 0.087387 
53.039352 0.04063 
53.939838 0.087304 
54.034702 0.053443 
54.055088 0.03923 
54.460415 0.107297 
54.93832 0.249438 
55.018654 0.700248 
55.055016 2.624524 
55.933857 0.05729 
55.935184 8.524442 
56.050209 0.37356 
56.05827 0.035502 
56.713367 0.10174 
56.942993 1.613588 
56.965569 3.980409 
57.034328 0.248258 
57.070679 7.314759 
57.292202 0.038899 
57.935585 11.098253 
57.937187 0.051643 
58.065887 3.085149 
58.073925 0.038848 
58.151329 0.094431 
58.943436 0.093437 
59.049934 2.169377 
59.061176 1.558938 
59.347668 0.070959 
59.440487 0.069823 
59.931015 4.740003 
60.081562 6.986344 
61.011421 100.0 
61.186245 0.044563 
61.496273 0.098472 
61.595127 0.11063 
61.708328 0.101524 
62.010914 0.230134 
62.014786 1.940111 
62.01926 6.267437 
62.706524 0.07572 
62.720448 0.043101 
62.990635 0.191169 
63.007221 4.931795 
63.027092 6.563112 
63.188641 0.041199 
63.339622 0.038222 
63.563587 0.039915 
63.998508 0.123741 
64.088058 0.078312 
65.039383 0.127666 
65.210915 0.102032 
66.892899 0.048634 
67.018562 1.799317 
67.054977 2.300976 
67.481041 0.111548 
68.050179 0.05553 
68.634613 0.069687 
68.949547 0.071364 
68.963249 3.704193 
68.997833 1.901406 
69.034172 0.64992 
69.070587 1.567894 
69.621475 0.032404 
69.961708 2.130073 
70.065819 3.198977 
70.44088 0.035281 
70.94252 0.971703 
70.958588 67.300812 
71.049751 0.101138 
71.061058 0.119606 
71.086243 1.876549 
71.93 2.841335 
71.959007 0.909162 
72.04512 0.302524 
72.081581 0.040618 
72.426926 0.048561 
72.937828 25.697355 
72.958977 1.320355 
73.029205 0.094606 
73.047508 2.26201 
73.930374 0.124611 
73.945778 0.239608 
73.956802 0.225573 
74.06076 0.064797 
74.097351 0.037641 
74.931587 7.707783 
74.953575 0.559721 
75.026863 0.041232 
75.129593 0.03854 
75.651443 0.049792 
75.946053 7.795751 
76.928604 2.418994 
76.933876 0.096304 
77.761177 0.055105 
77.941452 3.041085 
78.014038 0.765637 
78.652756 0.081219 
79.02179 1.335612 
79.054832 0.857488 
80.050117 3.763575 
80.057983 0.05145 
81.033989 0.142935 
81.07045 2.200087 
82.06575 0.131372 
82.970711 0.106274 
83.049583 0.046569 
83.086098 0.372959 
83.57486 0.052188 
84.044907 0.198807 
84.844528 0.10503 
85.040222 1.13802 
85.101707 0.200996 
85.176933 0.108205 
85.255096 0.070829 
85.734962 0.090132 
85.75634 0.122531 
86.060532 0.10727 
86.096954 0.045335 
86.953354 1.407783 
86.973709 0.119258 
87.044685 0.114393 
87.907059 4.495673 
88.076271 1.744821 
88.250664 0.105168 
88.674629 0.093438 
88.914856 1.827438 
88.952881 0.581977 
88.968994 12.97355 
89.940414 3.645745 
89.964073 0.11919 
90.914902 0.066935 
90.948273 16.164507 
90.969429 0.100119 
91.054733 6.665538 
91.057869 2.545387 
91.360634 0.046715 
91.537529 0.079417 
92.058029 0.381234 
93.070374 1.155322 
93.956436 4.097058 
95.049545 0.688488 
95.086006 1.593043 
95.951889 1.142826 
96.081192 0.322188 
96.089317 0.048328 
97.028877 0.2843 
97.065155 0.153855 
98.060684 0.054819 
98.975861 5.587342 
98.984558 0.385818 
99.044518 0.037614 
100.076073 0.047576 
100.162636 0.103508 
100.504768 0.091622 
101.680382 0.092477 
101.950356 1.412843 
102.465523 0.035101 
102.915092 2.52833 
102.930359 1.772548 
102.948212 1.935415 
103.677986 0.095502 
103.956352 0.035418 
104.910538 0.541334 
104.930702 3.329176 
104.96373 2.621897 
105.07029 0.481519 
105.161324 0.099277 
105.917473 6.569243 
106.086739 0.360193 
106.92598 0.921685 
106.979355 0.151643 
107.049507 0.255415 
107.085869 0.393934 
107.909363 0.077212 
107.950928 1.419112 
108.925774 0.111085 
108.958733 1.580465 
109.065048 0.075508 
109.101471 0.283383 
111.044441 0.037856 
113.287743 0.086363 
114.357506 0.099176 
114.948074 0.311197 
115.054474 0.116898 
116.909447 1.061656 
116.929932 0.11337 
116.986313 3.116395 
117.070236 0.135251 
117.917313 2.873128 
117.956299 0.125195 
118.925201 5.288585 
119.049461 5.696565 
119.085785 0.178196 
119.960533 0.221495 
120.052681 0.192741 
120.08123 0.048006 
120.925682 0.256919 
120.940811 10.642909 
121.028709 0.975741 
121.101585 0.131061 
121.90593 0.074749 
122.920624 0.121145 
122.941208 13.726375 
123.044258 0.042613 
123.054749 0.050865 
123.92807 0.361027 
124.936562 6.191812 
125.0233 0.048646 
125.96122 0.265949 
126.933746 0.201956 
128.963898 0.053366 
129.069824 0.123095 
130.96312 2.420005 
131.049255 0.237544 
131.085663 0.113074 
131.961548 6.358116 
132.95842 49.105328 
133.948517 12.564403 
133.958252 0.136006 
134.919846 4.558239 
134.956024 4.966302 
134.978989 0.286999 
134.996582 0.3729 
135.927719 3.295204 
135.948975 0.446542 
135.956833 0.434436 
135.966599 2.657179 
136.780472 0.079996 
136.792297 0.100936 
136.920242 1.768109 
136.935638 2.510649 
136.95462 0.698613 
137.88353 0.115162 
137.928146 10.47927 
137.961929 0.312504 
138.915985 0.158667 
138.935974 1.014344 
138.951218 4.556266 
139.923523 4.673546 
140.931458 0.212898 
140.951492 0.230975 
141.069809 0.087767 
141.920837 0.129542 
142.947433 0.174265 
144.625656 0.053743 
144.95845 0.188569 
145.028473 0.712786 
145.270264 0.101401 
145.966476 1.094135 
146.976532 5.15853 
147.044037 1.137495 
147.974991 1.073508 
148.971924 81.457787 
149.023285 0.134362 
149.961212 6.281673 
149.971542 6.324771 
150.951141 3.783739 
150.968811 47.350384 
150.976044 0.75402 
151.959061 9.083379 
151.970154 1.151459 
152.930405 0.922839 
152.945114 1.162121 
152.951614 9.822854 
152.968964 10.481667 
153.01828 12.4454 
153.457657 0.092693 
153.938675 1.399048 
153.959381 57.306087 
154.021637 0.739988 
154.946915 3.707899 
154.957657 0.295336 
154.964432 4.225059 
154.977814 0.128512 
155.954819 23.939718 
156.945969 0.810342 
156.954956 0.337722 
157.933044 0.049994 
157.952011 3.326546 
160.540771 0.042991 
163.039154 0.217226 
163.977081 1.527974 
164.985428 0.793583 
165.018341 0.707733 
165.938187 4.51168 
165.985016 0.119575 
166.982498 14.278646 
167.97197 2.511234 
167.984451 0.131733 
168.96196 0.490713 
168.979034 0.420337 
169.064835 0.051185 
169.6633 0.112288 
169.918121 0.10861 
170.955353 1.825935 
170.962341 2.229483 
170.979385 0.657073 
171.029129 0.516182 
172.958252 0.486779 
172.975433 0.236885 
172.988388 0.116796 
173.061157 0.041967 
174.985306 0.100202 
175.942566 0.086611 
176.45726 0.099588 
176.94191 0.119532 
177.938171 8.188858 
180.887787 0.11051 
180.997864 0.113947 
181.371811 0.095978 
182.951126 0.088536 
183.028381 0.069585 
183.948914 0.811432 
185.949249 9.260828 
186.927216 0.156947 
186.936356 0.145698 
186.94696 0.138784 
187.944687 3.488869 
188.966461 0.340776 
192.961884 1.779567 
193.571884 0.105626 
194.952011 0.339153 
195.420197 0.043511 
195.948776 8.460724 
197.517242 0.084655 
197.94783 0.22891 
205.085922 0.172758 
206.034653 0.040559 
206.977875 0.929581 
207.777267 0.11227 
210.972122 0.357853 
214.985458 0.045468 
216.966278 0.037367 
220.590759 0.106167 
220.603058 0.163088 
220.615784 0.414009 
220.627121 0.40313 
220.643829 0.116084 
222.898773 0.756181 
223.027328 0.355048 
225.042725 0.600114 
225.054565 0.135876 
227.02179 0.222249 
229.001526 0.654735 
231.592697 0.050123 
232.096817 0.085553 
234.251617 0.064791 
234.975555 0.047321 
238.914429 0.06078 
238.967758 0.072401 
239.069855 0.310036 
240.909378 1.431012 
240.947128 0.244531 
242.057755 0.058749 
242.926727 0.231662 
243.017258 0.100936 
243.064682 0.120041 
243.670456 0.105559 
243.758072 0.116234 
244.970627 0.104858 
247.012085 0.05071 
252.985336 0.050019 
254.962906 0.964228 
256.941406 0.041178 
258.052094 0.126365 
260.936768 0.379769 
262.914673 0.049641 
265.053223 0.111665 
266.999207 5.405521 
267.999268 0.862286 
268.051605 0.1062 
268.978424 3.310619 
268.995789 0.464777 
269.012848 0.051175 
269.340515 0.10006 
269.978363 0.482501 
270.957764 2.210326 
270.975159 0.172768 
270.993896 0.335448 
271.060059 3.604765 
271.957581 0.314983 
272.063995 0.306341 
272.937042 0.128102 
272.954987 0.069449 
283.030396 1.342948 
284.031067 0.130962 
284.330322 0.059722 
285.010101 0.142212 
285.047028 0.058783 
286.04718 0.210012 
288.968689 0.059459 
299.061249 0.14003 
313.09726 0.055236 
313.48114 0.070523 
313.701141 0.055774 
314.148285 0.110135 
316.237701 0.099841 
322.765045 0.034178 
END IONS

