BEGIN IONS
PEPMASS=281.105
CHARGE=1+
COMPOUNDNAME=Huperzine A
LIBRARYQUALITY=3
SMILES=N/A
INCHIKEY=ZRJBHWIHUMBLCN-UHFFFAOYSA-N
INCHI=InChI=1S/C15H18N2O/c1-3-11-10-6-9(2)8-15(11,16)12-4-5-14(18)17-13(12)7-10/h3-6,10H,7-8,16H2,1-2H3,(H,17,18)
MSLEVEL=2
SOURCE_INSTRUMENT=N/A-ESI-QFT
FILENAME=library_mgf.mgf
SEQ=*..*
IONMODE=positive
ORGANISM=MONA
NAME=Huperzine A [M+K]+
PI=MoNA
DATACOLLECTOR=MoNA:VF-NPL-QEHF027225
PUBMED=N/A
SUBMITUSER=mwang87
TAGS=
SPECTRUMID=CCMSLIB00004720806
SCANS=27225
50.355736 0.041399 
50.96666 0.046827 
51.254192 0.028683 
51.467358 0.023041 
51.779629 0.026656 
51.949726 0.027606 
52.183708 0.040509 
52.800983 0.027192 
53.038887 0.120903 
53.132179 0.03381 
53.687874 0.033906 
53.812111 0.049332 
53.960052 0.044849 
54.027416 0.042481 
55.018108 0.194516 
55.054523 0.352402 
55.534386 0.045733 
55.590023 0.051572 
56.049721 0.050278 
56.838165 0.041479 
56.91045 0.032946 
58.824318 0.027465 
59.515308 0.036403 
59.637295 0.042913 
59.963593 0.043996 
60.228867 0.035246 
60.532009 0.043822 
61.010864 0.024505 
62.813099 0.045121 
63.772758 0.043969 
64.03614 0.041441 
64.192474 0.044947 
65.038704 0.240608 
65.509911 0.040447 
66.160683 0.024226 
66.483444 0.039495 
67.054268 0.135572 
67.345329 0.027431 
67.843063 0.017919 
69.516052 0.043357 
69.813873 0.029605 
70.608978 0.039379 
72.424248 0.02889 
73.3563 0.052517 
74.194397 0.048081 
74.321213 0.023766 
77.03006 0.054109 
77.053024 0.02157 
77.062683 0.020842 
77.251251 0.055698 
77.508804 0.053308 
78.415695 0.030101 
79.05423 2.71082 
80.049438 1.997782 
80.745972 0.043578 
81.069855 0.567382 
81.874199 0.023028 
81.956512 0.04563 
81.972832 0.030211 
82.24527 0.032041 
84.080826 0.132599 
84.455917 0.018492 
85.842117 0.052071 
87.267174 0.042641 
91.054245 2.933864 
91.057205 0.047006 
92.049438 0.333984 
93.069885 2.827231 
94.065086 1.319658 
95.048973 0.116974 
95.43811 0.05332 
96.044228 0.103849 
96.371338 0.045805 
97.611458 0.032273 
98.613258 0.045123 
102.983925 0.047337 
103.054123 0.075826 
104.049385 0.594157 
104.356979 0.0405 
105.069901 2.736545 
105.099808 0.049641 
106.065155 4.541554 
107.085495 0.766682 
108.044334 0.194774 
108.080818 0.060829 
108.324593 0.025384 
109.052254 1.582235 
109.075935 0.032325 
109.100571 0.062273 
110.060081 3.074545 
110.117691 0.031623 
110.360771 0.019335 
111.016937 0.051566 
113.190765 0.027355 
114.088394 0.052299 
115.054367 0.02233 
116.049393 0.07917 
117.057419 0.06195 
117.069618 0.241276 
118.065071 1.115534 
119.060333 0.164794 
119.085503 0.27157 
119.636963 0.045497 
120.044342 0.057549 
120.080833 0.482919 
121.075981 2.99081 
121.101143 0.163197 
122.060005 1.579324 
123.787468 0.054498 
124.106941 0.056204 
124.449333 0.029408 
125.313759 0.02721 
126.055016 1.250523 
127.360703 0.02479 
127.964966 0.043917 
128.062195 0.052086 
128.726028 0.022293 
129.069794 1.158052 
129.56311 0.045822 
130.065079 0.739232 
131.060303 0.589705 
131.072968 4.322624 
131.085602 0.175206 
132.044357 1.601663 
132.080826 1.644552 
133.052216 0.758437 
133.088547 4.995946 
134.047424 0.808483 
134.059998 5.997721 
134.096481 0.923778 
135.055283 2.137954 
135.372971 0.056861 
136.075943 0.035074 
136.749298 0.039939 
139.508942 0.043045 
141.069946 0.24872 
142.077713 0.946255 
143.060303 0.128521 
143.085464 1.236596 
144.080811 0.769863 
144.101852 0.622005 
145.075989 0.213002 
145.417374 0.034331 
146.059921 2.98633 
146.096436 7.976193 
147.055222 0.931097 
147.068008 0.251128 
147.099686 0.076105 
148.063278 0.123304 
148.075775 0.058411 
148.927399 0.021041 
149.07103 7.748444 
149.077499 0.092186 
151.31485 0.02432 
152.062424 0.044792 
153.069839 1.18193 
154.065079 1.102866 
154.605591 0.043273 
155.060349 0.071286 
155.072937 0.378247 
155.085388 1.393274 
156.068481 0.043648 
156.080795 2.74097 
156.093033 0.161042 
156.941025 0.053173 
157.076126 0.126721 
157.088699 0.254008 
157.101227 0.642128 
157.739655 0.045732 
158.059967 2.359791 
158.096481 0.276889 
159.055542 0.139706 
159.091431 0.28869 
160.063034 1.420733 
160.075623 1.837909 
161.070953 0.830483 
163.086685 0.090937 
165.069931 1.950478 
166.065048 1.579944 
166.077789 3.334477 
167.072998 0.686363 
167.085724 0.266461 
168.080795 2.99787 
168.09314 0.90304 
168.661926 0.022367 
169.076172 0.590234 
169.08873 2.718491 
169.101089 1.032478 
170.060013 2.160452 
170.096512 5.100824 
171.055176 0.223656 
171.068008 0.089778 
171.09198 0.05432 
171.10437 0.088502 
171.831833 0.023033 
171.99556 0.048635 
172.063156 0.064193 
172.075638 2.429023 
172.111862 0.195947 
173.070908 1.73847 
173.10759 0.077441 
173.624451 0.05342 
174.07872 0.698969 
174.127899 0.063025 
178.065125 0.276773 
178.077393 0.106478 
178.349869 0.030152 
179.019363 0.022011 
179.085602 1.2964 
180.068604 0.034974 
180.072571 0.030008 
180.080811 4.144101 
181.076019 0.709948 
181.088623 1.35112 
181.101074 7.9432 
181.520966 0.020353 
182.060104 2.945049 
182.096375 2.882048 
182.104446 0.132272 
182.393402 0.047764 
183.068008 3.529074 
183.091599 0.260507 
183.104477 2.660856 
183.116882 0.328936 
184.063248 2.876917 
184.075699 14.227446 
184.083984 0.116586 
184.111923 0.759483 
185.070999 4.488125 
185.078568 0.344483 
186.079025 0.295764 
186.091248 3.57227 
187.086594 3.695634 
190.04007 0.053198 
191.072998 0.8132 
191.084946 0.186704 
191.805847 0.037519 
192.080673 1.581483 
193.077194 0.411998 
193.088669 5.543882 
193.098785 0.101247 
194.072632 0.249501 
194.083984 0.141747 
194.096222 1.782838 
195.067902 0.051774 
195.081039 0.056313 
195.091568 1.159676 
195.104187 2.733915 
196.075668 14.369791 
196.100555 0.063485 
196.112091 1.741858 
197.07135 2.02468 
197.083527 30.708902 
197.09407 0.39674 
197.106827 0.084836 
197.119919 0.268358 
198.067612 0.04652 
198.078964 0.921777 
198.091415 18.521437 
198.12764 3.564691 
199.086502 13.846372 
199.095306 0.854464 
199.132446 0.043491 
200.093552 0.709034 
200.105896 0.026882 
201.102188 3.797098 
204.079865 0.047355 
205.087708 0.088459 
206.084778 0.534314 
206.096329 2.548851 
207.091751 0.914873 
207.103806 0.398828 
207.575211 0.031886 
208.075653 0.102604 
208.100372 0.951089 
208.11203 10.454411 
209.07132 0.19897 
209.083496 1.616309 
209.096054 3.08351 
209.107285 1.843102 
210.091354 22.636358 
210.12767 1.967173 
211.086548 2.539957 
211.099075 19.791742 
212.082382 0.393438 
212.094315 2.063321 
212.106949 14.127073 
213.101654 2.987548 
213.112091 0.091209 
214.385651 0.052792 
219.693161 0.423265 
221.107315 0.890461 
221.919342 0.03073 
222.091202 0.472562 
222.115097 0.768599 
222.438416 0.037303 
223.086487 4.388843 
223.098618 1.236178 
223.122864 0.517849 
224.094864 0.818608 
224.106857 9.624745 
224.507599 0.052391 
225.101746 3.509662 
226.102081 0.158228 
226.122589 100.0 
227.116547 17.725952 
228.121414 0.938016 
228.138229 1.187664 
235.086685 2.281389 
235.351898 0.040645 
237.102112 0.523594 
237.138565 0.243583 
238.097382 0.057922 
238.122269 0.046954 
239.105606 0.03204 
239.11795 2.914452 
240.112869 0.222169 
241.133438 13.312696 
242.137314 0.498497 
249.10199 2.431512 
250.10965 0.260386 
252.113037 0.47531 
253.133789 0.051006 
255.149292 3.562602 
265.373962 0.032936 
266.128784 0.819785 
268.781342 0.039936 
278.005035 0.04639 
281.675354 0.036009 
282.159973 0.321125 
289.208466 0.050122 
289.91153 0.034434 
298.128693 0.048331 
END IONS

