BEGIN IONS
PEPMASS=379.076
CHARGE=1+
COMPOUNDNAME=bisdethiobis(methylthio)gliotoxin
LIBRARYQUALITY=3
SMILES=N/A
INCHIKEY=OVBAGMZLGLXSBN-UOVKNHIHSA-N
INCHI=InChI=1S/C15H20N2O4S2/c1-16-12(20)14(22-2)7-9-5-4-6-10(19)11(9)17(14)13(21)15(16,8-18)23-3/h4-6,10-11,18-19H,7-8H2,1-3H3/t10-,11-,14+,15+/m0/s1
MSLEVEL=2
SOURCE_INSTRUMENT=N/A-ESI-QFT
FILENAME=library_mgf.mgf
SEQ=*..*
IONMODE=positive
ORGANISM=MONA
NAME=bisdethiobis(methylthio)gliotoxin [M+Na]+
PI=MoNA
DATACOLLECTOR=MoNA:VF-NPL-QEHF024551
PUBMED=N/A
SUBMITUSER=mwang87
TAGS=
SPECTRUMID=CCMSLIB00004715614
SCANS=24551
51.940365 0.039696 
54.012878 0.177949 
54.034164 0.047775 
55.0182 0.237598 
55.054554 0.776173 
55.062885 0.083792 
55.34573 0.1756 
55.934776 0.561125 
56.049828 0.292026 
56.965221 0.096478 
57.033867 0.325965 
57.07021 1.147056 
57.107307 0.186901 
57.668915 0.051696 
58.065479 0.982152 
59.049446 0.068283 
59.098434 0.258676 
60.044636 0.060015 
61.01096 9.041975 
61.028858 0.050064 
61.446934 0.058693 
61.610661 0.05017 
62.018764 1.674763 
62.356377 0.041978 
63.006809 0.132935 
66.68531 0.177709 
67.054459 0.463486 
67.576767 0.251371 
68.049759 0.283336 
69.033661 0.816646 
69.070122 1.16838 
69.577003 0.187516 
70.065285 10.773316 
71.049339 0.294915 
71.068703 0.120818 
71.08577 0.163327 
71.940552 0.051468 
72.04454 0.254846 
72.080933 0.76087 
72.391449 0.050246 
72.937218 1.059782 
73.02845 0.066364 
73.823486 0.081175 
74.060074 0.126703 
75.116264 0.059602 
75.789825 0.063127 
77.165314 0.094463 
77.658081 0.076503 
77.920464 0.060725 
78.51313 0.256326 
79.021294 1.161001 
79.054291 0.350068 
80.049637 0.266731 
81.033653 2.769532 
81.044922 0.080535 
81.069977 0.510841 
82.065269 0.740121 
83.04924 1.22802 
83.08564 0.127432 
84.044655 0.081895 
84.080917 3.291519 
85.028465 0.864182 
85.064995 0.112666 
85.076126 0.090187 
86.060211 0.44306 
86.096535 0.963838 
87.044212 0.159161 
88.438904 0.256702 
89.059868 0.537756 
89.61203 0.056726 
90.947884 0.707342 
91.054382 0.605267 
91.887779 0.194881 
92.982864 0.932158 
93.070091 0.240422 
93.143684 0.21349 
94.065262 0.191792 
95.012772 0.089616 
95.049263 0.963221 
95.06076 0.542775 
95.085655 0.64779 
95.941414 0.089962 
96.044441 0.038321 
96.080833 0.327767 
97.028526 0.56364 
97.064888 0.23156 
98.060234 0.904143 
98.096535 0.254163 
98.975708 0.140024 
99.044212 0.22956 
99.063217 0.049449 
100.075737 0.637527 
100.717735 0.282174 
101.059944 0.075728 
102.037239 0.058188 
102.09137 0.070432 
104.107109 0.121591 
105.033646 1.067146 
105.070007 1.270787 
106.065193 0.058453 
106.949409 0.055751 
107.049179 1.521042 
107.085762 0.15305 
108.044571 0.071529 
108.080856 0.522342 
109.028374 0.052291 
109.10128 0.12821 
110.06015 0.358545 
110.07122 0.107477 
110.096443 0.162162 
111.044258 2.374062 
111.055359 0.271958 
112.075867 0.404287 
112.087044 0.128663 
113.060371 0.07611 
113.963867 0.705437 
114.09153 0.237944 
116.070869 0.166824 
116.963882 0.24817 
116.986252 0.162495 
117.070343 0.069132 
118.065239 0.418095 
118.08654 1.012958 
118.133438 0.089461 
119.049362 0.138414 
119.08567 0.075637 
120.080933 1.090941 
120.940994 0.062832 
121.028725 0.061885 
121.06498 0.632937 
121.101501 0.06474 
122.060188 0.620947 
122.071541 0.448207 
122.096474 0.0658 
123.044319 0.428092 
123.055588 0.040538 
123.079697 0.247098 
124.075882 0.664109 
125.059937 0.073255 
125.071182 0.39821 
126.055199 0.149323 
126.091652 0.550155 
127.039047 0.055941 
127.086998 0.121239 
127.812698 0.087734 
128.070801 0.18373 
128.107117 0.090835 
128.963867 2.079916 
129.963959 0.056249 
130.065262 2.183415 
130.979553 3.039842 
131.049255 0.162904 
131.085709 0.068515 
131.974411 0.372408 
131.979614 0.098982 
132.044571 0.158372 
132.080887 0.145297 
132.958939 0.049428 
133.052338 0.042669 
133.065033 0.068562 
133.101395 0.069648 
134.060226 0.741062 
134.096558 0.398969 
134.75946 0.201339 
134.956161 3.737703 
134.973907 0.049083 
134.978806 0.272945 
134.996902 0.04167 
135.044067 0.105331 
135.080658 0.085013 
136.061996 0.214984 
136.075775 0.398692 
136.11203 0.222138 
137.05983 0.191068 
138.091492 0.116939 
138.951187 0.108216 
139.050232 0.231031 
139.086807 0.064624 
139.97963 0.230734 
140.106873 0.05882 
140.997894 0.054891 
141.054337 0.060331 
141.065552 0.091598 
141.102615 0.065315 
141.995224 0.181636 
142.086319 0.816442 
142.97963 0.067473 
143.956787 0.078063 
144.044434 0.936131 
144.081253 0.194811 
144.102341 0.111865 
144.958466 0.0398 
144.97998 0.051246 
145.04837 0.05655 
145.065079 0.250176 
146.060379 0.928854 
146.09671 0.057115 
146.974533 9.717971 
147.044464 0.073925 
147.092102 0.142164 
147.974579 0.687451 
148.075958 0.285059 
148.112244 0.068026 
148.955826 0.873677 
148.972092 0.986534 
148.990112 0.430254 
149.060135 0.309556 
149.106567 0.070433 
149.954407 0.514545 
150.055222 0.157214 
150.091736 0.561036 
150.951233 16.955502 
150.969498 0.323793 
150.984329 0.126703 
151.075394 0.155383 
151.086563 0.312376 
151.123123 0.048504 
152.070801 0.5311 
152.106964 0.090985 
152.966858 4.823335 
152.989365 0.338475 
153.065842 0.138527 
154.086533 0.172057 
154.978867 0.046518 
156.08107 0.203045 
156.101898 0.087324 
157.064697 0.068708 
157.99025 0.059425 
158.010834 0.053465 
158.060257 0.502038 
158.081039 0.207861 
158.096497 1.348676 
158.974457 0.731441 
159.091827 0.090487 
160.005753 0.139632 
160.039597 0.062313 
160.076035 0.399534 
160.990234 3.885154 
161.967407 0.069493 
161.990738 0.073987 
162.05513 0.808168 
162.09137 0.858844 
162.951599 0.041442 
163.075516 0.164556 
163.086746 0.070724 
164.070572 0.180624 
164.093536 0.171227 
164.107361 0.693726 
165.102371 0.065423 
166.086731 0.330956 
166.12291 0.123489 
166.966339 0.21139 
166.98288 0.11693 
167.004913 0.169185 
168.101654 0.125062 
168.961761 7.784816 
169.07637 0.098677 
169.098145 0.063426 
170.081268 0.137517 
170.096863 0.14309 
170.11795 0.097372 
171.091766 0.046894 
172.005127 0.063059 
172.039566 0.273428 
172.074951 0.125069 
172.086838 0.098227 
172.990295 0.128842 
173.107971 0.079286 
173.985138 0.100074 
174.006256 0.305656 
174.021667 0.090388 
174.055313 0.750942 
174.091583 0.323769 
174.099747 0.086742 
175.07486 0.048391 
175.0867 0.207185 
175.946747 0.143916 
176.07074 0.412772 
176.092255 0.160793 
176.107285 0.27838 
176.984711 0.272386 
177.066376 0.061778 
177.138611 0.060408 
178.086441 1.221529 
178.12207 0.087666 
178.933762 0.290178 
178.964264 0.05298 
178.979156 4.934434 
178.986526 0.079464 
180.102264 0.362006 
180.982681 0.163402 
180.994431 0.065422 
182.974365 0.283375 
183.436966 0.055462 
184.036713 0.169452 
185.071121 0.318658 
186.091736 0.293125 
187.086899 1.483483 
188.022171 0.082377 
188.070786 0.668774 
188.106812 0.22624 
190.016052 0.448572 
190.049744 0.17267 
190.086731 0.164398 
190.966782 0.053314 
191.000977 0.67447 
191.082321 0.069542 
191.88063 0.136424 
192.102386 0.481122 
192.962051 1.513561 
192.980392 0.050878 
193.060089 0.088237 
193.957504 0.488317 
194.04483 0.053575 
194.118423 0.09042 
194.808685 0.212681 
194.974625 0.504899 
194.994934 0.06761 
195.113174 0.183274 
195.992737 0.049649 
196.989731 4.340588 
197.070847 0.172162 
198.091309 0.323715 
198.11261 2.778128 
198.970001 0.065199 
198.980331 0.084473 
200.057053 0.063009 
200.071411 0.044942 
200.107208 0.117604 
200.985413 0.100166 
201.065918 0.17435 
201.996262 0.066175 
202.073059 0.063197 
202.086182 0.160054 
202.993698 0.125424 
203.081116 0.146121 
203.976151 0.043498 
204.087875 0.086497 
204.10199 0.217607 
204.963211 0.044145 
204.982574 0.273968 
205.015976 0.182327 
205.990036 0.735176 
206.081924 0.135589 
206.926743 0.274267 
206.97789 0.292579 
206.998444 0.044437 
207.875656 0.249551 
207.896881 0.057438 
208.005753 0.148525 
208.883881 0.343044 
208.977478 0.138274 
209.055405 0.072003 
209.071823 0.104589 
209.12883 1.81925 
209.891693 0.399622 
210.091202 0.046614 
210.97229 0.841318 
211.086731 0.311603 
211.382004 0.084947 
212.001038 0.048888 
212.107559 0.078327 
212.984421 0.178573 
213.066406 1.126437 
213.100449 0.828599 
214.031204 0.049005 
214.073456 0.101802 
214.287491 3.210165 
214.298111 1.517244 
215.081726 2.016321 
216.066193 0.219141 
216.076843 0.414372 
216.088181 7.446155 
216.100861 0.477867 
216.123657 0.435801 
216.890488 0.053224 
216.991074 0.114558 
217.092682 0.649895 
217.117996 0.055374 
217.881332 0.041637 
217.991638 0.093367 
218.01326 0.071052 
218.081345 0.061774 
218.117554 0.165571 
220.009033 2.045114 
220.048492 0.043447 
220.903534 0.107414 
221.129456 0.080113 
221.985107 0.273343 
222.092072 0.063574 
222.898926 0.275485 
222.99295 0.395335 
223.434769 0.193847 
224.000931 0.214505 
224.878891 0.064308 
224.937332 0.04967 
225.387375 0.190997 
225.886642 0.503002 
226.156052 0.04374 
226.975403 0.065043 
227.081696 0.333535 
228.102051 0.071985 
228.889328 0.102943 
229.061584 0.057174 
229.896866 0.271377 
230.013275 0.054256 
230.026535 1.997817 
230.103088 0.109332 
230.117706 0.163966 
230.888779 0.065917 
231.034134 0.552754 
231.076248 0.193813 
231.111389 1.525757 
231.897049 0.081732 
232.041855 0.476987 
232.095917 0.068715 
232.884003 0.979463 
232.904724 0.046171 
232.942596 0.049121 
233.093353 0.066219 
233.881119 0.064644 
233.891876 4.952263 
233.985153 0.160029 
234.89975 6.578852 
234.99054 0.051777 
235.89978 0.73427 
236.000717 0.106266 
238.120514 0.06637 
238.220901 0.09121 
238.914246 0.220562 
239.08107 0.069383 
239.996658 0.053554 
240.123642 0.10033 
240.909698 1.092876 
242.104172 0.092553 
242.117615 0.0506 
243.076004 0.261751 
243.088104 2.412557 
244.094757 0.349989 
244.118256 0.08432 
245.000778 0.045317 
245.092346 0.107422 
246.021454 0.369196 
247.906876 0.24725 
248.036942 0.921167 
248.878632 1.454239 
248.899368 0.187478 
248.91597 0.05238 
248.938095 0.066469 
249.041779 0.18316 
249.102097 0.068597 
249.887329 0.055312 
249.921127 0.050625 
250.144775 0.066639 
250.894257 5.120093 
251.894623 0.546027 
251.995407 0.270621 
252.123352 0.120802 
252.91011 0.191003 
253.917999 0.098995 
254.116699 0.090518 
254.21283 0.044517 
255.074448 0.192707 
256.130432 0.120578 
257.892975 0.082899 
258.112579 0.063917 
258.899841 0.588006 
260.020111 0.125811 
261.887543 0.041139 
261.906464 0.087815 
262.003143 0.082641 
262.129059 1.096719 
262.914398 0.058007 
263.01297 0.051269 
263.081238 0.061764 
263.901794 0.757378 
264.123505 0.065371 
264.909637 0.387244 
266.889008 0.59661 
267.073792 5.205008 
267.989716 0.100162 
268.081543 1.858132 
268.90506 0.184395 
272.899536 0.140687 
272.996155 0.050778 
274.894196 3.776318 
274.911163 0.051274 
275.902466 4.194776 
276.017303 0.098746 
276.033478 0.05428 
276.910095 7.339602 
277.915985 0.729838 
278.030121 0.471552 
278.924927 0.178825 
279.916809 3.125776 
280.90451 0.047825 
280.924866 0.063746 
281.912384 7.150244 
282.918365 0.298865 
283.108398 0.053477 
284.075317 0.102375 
285.084808 100.0 
286.038452 0.27905 
286.088409 13.415269 
287.090027 0.289433 
287.177185 0.090736 
288.910095 0.043368 
288.99115 0.087888 
289.967041 0.048038 
290.925659 0.742237 
291.006378 0.147347 
291.897003 0.814577 
292.905243 0.344102 
293.913879 0.0693 
293.933289 0.17236 
295.928406 2.723123 
296.929596 0.139406 
297.81665 0.097241 
300.991394 0.172302 
301.063751 0.060613 
302.925995 0.486239 
303.096008 1.323766 
304.989075 0.191854 
305.005493 0.099897 
306.042328 0.202547 
306.920471 0.638683 
310.915558 0.912346 
311.915436 0.051957 
312.839966 0.065357 
316.904999 2.504275 
317.908173 0.42971 
319.002136 0.260879 
320.936707 0.364893 
321.944427 0.056089 
322.824738 0.05201 
322.915131 0.73329 
334.91571 0.24047 
337.84375 0.050238 
344.828674 0.128956 
346.130127 0.136391 
347.168335 0.067238 
347.196381 0.060356 
360.164673 0.057247 
362.160339 0.292305 
365.783295 0.096427 
377.175903 0.401076 
377.210022 0.441205 
377.691315 0.048295 
378.152893 0.46839 
378.175812 5.691658 
379.128845 0.10082 
379.165833 0.314823 
379.193878 3.1906 
379.22229 0.848198 
380.170288 0.825202 
380.196747 0.440271 
381.179413 0.370497 
392.758636 0.068367 
END IONS

