BEGIN IONS
PEPMASS=383.053
CHARGE=1+
COMPOUNDNAME=USNIC ACID
LIBRARYQUALITY=3
SMILES=N/A
INCHIKEY=CUCUKLJLRRAKFN-UHFFFAOYSA-N
INCHI=InChI=1S/C18H16O7/c1-6-14(22)12(8(3)20)16-13(15(6)23)18(4)10(25-16)5-9(21)11(7(2)19)17(18)24/h5,11,22-23H,1-4H3
MSLEVEL=2
SOURCE_INSTRUMENT=N/A-ESI-QFT
FILENAME=library_mgf.mgf
SEQ=*..*
IONMODE=positive
ORGANISM=MONA
NAME=USNIC ACID [M+K]+
PI=MoNA
DATACOLLECTOR=MoNA:VF-NPL-QEHF003236
PUBMED=N/A
SUBMITUSER=mwang87
TAGS=
SPECTRUMID=CCMSLIB00004694299
SCANS=3236
51.108089 0.080692 
51.249943 0.055531 
53.039467 0.203319 
53.57885 0.092774 
53.690136 0.051714 
54.043129 0.058232 
54.552071 0.05797 
55.0186 2.176953 
55.055 14.709477 
55.164921 0.05903 
55.616898 0.060499 
56.050259 13.967675 
56.058376 0.089007 
56.074612 0.057738 
56.361618 0.058369 
56.954006 0.087876 
56.965599 0.113207 
57.034267 3.220091 
57.053726 0.060393 
57.070652 17.046721 
57.110527 0.058958 
57.216839 0.088731 
57.274651 0.065559 
57.302673 0.05189 
57.928143 0.055553 
58.012955 0.063933 
58.065918 1.461216 
58.301559 0.060456 
58.43763 0.06252 
59.0499 14.637777 
59.061161 2.431276 
59.147038 0.082475 
59.530056 0.068662 
60.045067 0.17438 
60.056389 0.063543 
60.07362 0.0582 
60.081512 1.507686 
61.011417 2.445442 
61.627319 0.054051 
62.019211 1.682448 
62.060692 0.100164 
62.832088 0.089768 
62.982449 4.019312 
63.499153 0.050956 
63.520687 0.050307 
64.468315 0.048858 
65.039307 0.091589 
66.023415 0.053 
66.311958 0.082035 
66.430717 0.079156 
66.746689 0.085017 
66.801849 0.077957 
67.054947 43.966984 
67.746193 0.088449 
68.058281 2.013493 
69.034225 1.923309 
69.070557 25.356972 
69.135818 0.069139 
69.79364 0.063821 
69.829704 0.060283 
70.065834 4.215252 
70.073929 0.690841 
70.488998 0.069091 
71.049828 5.679066 
71.086182 6.046961 
71.457832 0.084429 
72.019943 0.058672 
72.045044 0.443506 
72.08149 0.551011 
72.937592 0.114488 
73.029015 0.258525 
73.065453 0.241221 
73.68074 0.083676 
74.060745 0.082699 
74.097061 0.86451 
76.324005 0.096134 
76.860252 0.055311 
76.892082 0.083371 
77.635864 0.106994 
77.871552 0.091075 
78.14798 0.055823 
79.021851 2.759019 
79.054832 16.038086 
79.603447 0.083049 
80.050209 0.22825 
80.058205 0.430693 
80.196823 0.059159 
80.948441 1.652833 
81.019096 5.841044 
81.03405 1.012234 
81.070465 47.432907 
81.073036 0.445802 
81.1586 0.059733 
82.065727 0.58266 
82.073799 2.721783 
82.945435 0.244168 
83.049774 3.370335 
83.086113 18.637787 
84.044937 0.191241 
84.081352 2.505921 
84.089439 0.66959 
84.555183 0.084667 
85.028992 0.196732 
85.065323 4.809959 
85.101692 2.062271 
85.987686 0.087173 
86.060539 1.636152 
86.096924 0.360648 
87.044563 2.045786 
88.978569 0.056302 
89.002167 0.087847 
89.060272 4.364369 
89.190636 0.069292 
89.281876 0.053931 
89.394516 0.115659 
90.948074 0.081391 
91.054726 13.738227 
91.057854 0.13713 
92.057793 0.103974 
93.070335 29.513453 
93.073486 0.456276 
94.026848 3.932854 
94.065536 0.401851 
94.073738 2.243963 
95.0299 0.118603 
95.034225 0.06421 
95.049545 3.817252 
95.085999 49.939785 
95.089462 0.394727 
96.08123 1.148103 
96.089317 3.615312 
96.922119 0.247279 
97.040199 0.176589 
97.065247 6.256267 
97.101608 11.280567 
98.060684 0.094963 
98.096909 0.993016 
98.105072 0.197513 
98.54129 0.104871 
98.975754 0.205265 
99.044472 0.74369 
99.080856 2.037773 
99.189659 0.091288 
100.047554 0.080915 
100.076096 2.946522 
100.112442 0.554185 
101.003708 0.288799 
101.059944 0.295632 
101.773041 0.102614 
103.145912 0.064177 
103.945869 0.097695 
104.992805 0.384646 
105.070229 12.574483 
106.073517 0.389012 
107.049477 0.765362 
107.070786 0.062293 
107.085892 23.387096 
107.902916 0.093154 
107.967384 0.063445 
108.042244 0.184695 
108.081116 0.133187 
108.089142 1.832022 
108.959167 0.153543 
109.065155 3.222823 
109.097328 0.350096 
109.101479 41.675144 
109.51075 0.059183 
110.096733 4.732319 
110.100418 0.051251 
110.104813 3.548968 
110.564232 0.085626 
111.044281 0.312124 
111.08078 7.340203 
111.100266 0.090288 
111.117157 3.68515 
112.07605 0.696294 
112.112389 0.745624 
113.059967 0.222835 
113.096321 0.187339 
114.091682 0.945425 
115.075554 1.197329 
115.112297 0.098416 
115.686028 0.07354 
116.070793 0.177453 
116.985542 0.491183 
117.065903 0.056525 
117.070068 4.795182 
117.090889 0.103669 
117.929741 0.059058 
118.073402 0.061819 
119.085739 15.910152 
120.080971 1.136551 
120.089043 1.261097 
121.039925 0.24342 
121.065056 3.27127 
121.096695 0.303907 
121.101402 24.055576 
122.104683 1.476109 
123.064293 0.091873 
123.080574 3.457631 
123.116997 6.371822 
123.132339 0.088097 
123.940689 0.087281 
124.112206 0.698336 
124.120491 0.061815 
125.015472 0.350494 
125.059807 0.272188 
125.096214 3.412907 
125.329735 0.09287 
125.675797 0.068942 
125.823166 0.055641 
126.091499 1.149117 
126.1278 0.275061 
127.075722 0.119947 
127.885185 0.057141 
128.106918 0.464714 
128.287598 0.061633 
128.953201 0.068869 
129.069977 1.544811 
129.120895 0.088948 
131.000275 0.067872 
131.085648 10.546234 
131.971634 0.093431 
132.089005 0.518814 
133.064941 0.246385 
133.086029 0.081175 
133.096115 0.077511 
133.101227 11.822007 
134.096634 0.232792 
134.104675 0.765891 
134.19902 0.055489 
134.897888 0.057428 
134.958755 0.565779 
134.979523 0.059452 
134.996429 0.876091 
135.003006 0.05522 
135.080582 3.297799 
135.116898 16.713171 
136.075333 0.06769 
136.083618 0.078218 
136.112167 2.48241 
136.120071 1.170162 
136.201706 0.093982 
136.954102 0.221521 
137.059631 1.507204 
137.096176 7.607327 
137.132568 1.189055 
137.45993 0.114747 
138.054962 2.96845 
138.099426 0.297555 
139.050201 1.289914 
139.075684 0.060242 
139.111938 1.154459 
139.293457 0.058668 
140.06813 6.604575 
140.106949 9.838485 
140.959427 0.410668 
141.070602 0.132763 
141.110138 0.185842 
142.122818 0.208115 
142.159027 0.131352 
142.938477 0.739262 
143.085571 2.988834 
145.101151 10.687969 
146.104446 0.979101 
146.624176 0.053658 
146.974762 0.125435 
147.080292 0.96126 
147.11676 7.970858 
148.039444 0.222246 
148.120209 0.53636 
148.971695 0.14061 
149.011703 0.195551 
149.018433 0.112169 
149.096161 3.010533 
149.132553 7.438334 
149.961029 0.181863 
150.089096 0.247252 
150.136002 0.269055 
150.860352 0.062089 
150.951126 0.808277 
150.969604 0.12804 
151.038803 0.373831 
151.111755 0.974143 
152.061813 0.112691 
152.107285 0.221059 
152.143387 0.16738 
152.32843 0.097419 
152.969025 0.364224 
152.989334 0.760153 
153.006958 0.068717 
153.069855 1.926972 
153.091003 0.243384 
153.12738 0.099856 
154.122559 100.0 
154.159439 0.076659 
154.834366 0.063789 
155.106552 0.142174 
155.125839 11.695438 
156.129044 0.124004 
157.101181 3.03388 
157.133514 2.228074 
157.965683 0.064587 
158.995575 0.185608 
159.116867 8.640402 
160.006287 0.283583 
160.12001 0.444544 
160.684647 0.080525 
160.974655 0.142304 
161.096024 2.249138 
161.132339 4.444255 
162.004547 0.087693 
162.135025 0.122915 
162.988571 0.09035 
163.111649 2.608926 
163.148132 3.278261 
164.001465 0.096434 
164.105072 0.233981 
164.920624 1.662117 
165.127167 0.236301 
166.15892 0.247869 
167.953934 0.415096 
168.138336 4.045573 
168.961594 0.488365 
170.117661 0.219404 
170.973892 0.065689 
171.062714 13.983943 
171.080643 0.160827 
171.116837 3.493319 
171.149155 12.067094 
172.00563 0.098668 
172.066223 0.728985 
172.133377 0.791046 
172.152725 0.760077 
172.974365 3.864906 
173.01123 0.19085 
173.078476 3.388929 
173.09581 0.110217 
173.132477 4.130657 
174.005753 0.561598 
174.022369 0.072846 
174.1362 0.081295 
174.969711 0.39178 
174.990158 0.331474 
175.111664 2.60314 
175.148087 3.27661 
175.380402 0.062785 
176.001556 2.133374 
176.020889 0.593305 
176.114731 0.071127 
176.151184 0.05813 
176.745193 0.063915 
176.967377 0.063159 
177.005493 0.278609 
177.127365 2.192976 
177.163406 0.110112 
177.999039 0.865854 
178.016769 0.638911 
178.159119 0.137705 
178.98468 0.280035 
179.954254 0.088594 
180.014771 0.162997 
180.099579 2.220935 
180.72905 0.070375 
180.894165 0.064169 
181.049713 0.212016 
181.159012 0.272348 
182.154022 5.657885 
182.190659 0.202666 
183.157379 0.24358 
185.096512 0.103082 
185.132462 2.797781 
185.675171 0.061742 
185.955826 0.060713 
185.964417 2.716302 
186.056305 0.063527 
187.026901 0.09575 
187.148209 1.794597 
188.021225 0.078632 
189.12738 0.965903 
189.164291 0.18144 
190.017166 0.536315 
190.086487 0.219534 
190.985016 3.282524 
191.022171 0.161767 
191.058792 0.080082 
191.106812 0.135172 
192.01445 0.332307 
192.099777 0.057773 
192.174713 0.471892 
192.961685 0.516729 
192.980331 0.207104 
193.122391 0.119727 
193.131424 0.603424 
193.15802 0.186352 
194.115265 7.127303 
195.063004 0.594353 
195.099625 0.070415 
195.119064 0.072703 
196.094009 0.132739 
196.169632 8.995347 
197.132156 0.258763 
197.173172 0.433888 
199.112076 0.064223 
199.148087 0.569934 
200.115067 0.064612 
200.243896 0.062653 
201.127533 0.092756 
201.163818 0.434527 
203.14299 0.238171 
205.026031 0.063641 
205.927582 0.075585 
206.359787 0.058281 
206.977875 0.599673 
208.130936 2.882774 
209.033234 1.538747 
209.200684 0.390887 
210.110123 0.98096 
210.185181 64.701546 
210.972519 0.176855 
211.188797 11.738783 
211.267365 0.071263 
212.16449 0.10533 
212.190643 0.07336 
212.556717 0.074593 
212.96843 0.062426 
213.04335 0.093069 
213.073639 0.479123 
213.146027 0.255006 
213.1642 0.273598 
214.174545 3.915368 
215.125931 2.387469 
216.961975 0.095296 
217.104752 0.09952 
217.159088 0.113171 
219.065125 0.084265 
219.174438 0.092607 
221.044098 0.15984 
222.039612 0.075994 
222.146408 0.364707 
223.03598 1.49676 
223.148621 0.108431 
224.125244 0.071111 
224.200821 0.098245 
225.005554 2.451021 
226.075134 3.795678 
227.005859 6.878949 
227.044388 0.083325 
227.059052 2.564447 
227.212265 0.161358 
228.090805 3.884298 
229.093735 0.072226 
231.174377 0.268102 
232.092163 1.014434 
233.035873 2.527357 
233.047928 0.1204 
233.080856 0.172784 
237.024506 0.11463 
240.908585 0.241598 
241.689865 0.10333 
242.106277 0.481124 
244.085556 26.859507 
245.016541 1.228245 
245.047073 0.231771 
245.069595 6.469871 
245.088959 1.680621 
245.189987 0.354923 
246.034882 0.093844 
246.072784 0.154212 
246.101532 2.536039 
246.116425 0.06714 
247.047516 0.08576 
248.042648 1.028549 
248.936279 0.09897 
249.043579 0.101813 
249.194046 0.084006 
250.177689 0.60015 
250.893875 0.74429 
251.0466 1.107762 
255.242691 0.062942 
256.121918 2.05115 
256.795959 0.093306 
258.101532 0.617188 
260.116089 0.258677 
261.076965 0.074356 
262.095978 9.725019 
263.080078 4.025145 
263.09906 0.527447 
263.900757 0.20299 
263.94751 0.064223 
264.083771 0.061637 
264.123383 0.064483 
264.194336 0.071638 
264.910736 0.152736 
265.056488 0.062437 
266.172424 0.074791 
267.112671 0.9951 
268.627991 0.06682 
270.13797 0.468129 
271.027588 0.163197 
271.05954 0.505476 
273.076172 0.233205 
273.256378 0.099172 
274.132507 0.777411 
275.948303 0.114104 
276.111908 0.09634 
279.168091 0.578333 
281.911835 7.642452 
282.915771 0.076887 
283.241272 0.074895 
283.263 0.303754 
284.153107 0.369109 
286.687439 0.095526 
287.092438 0.066934 
287.236145 0.098309 
288.149933 0.070343 
289.038147 4.412944 
290.043121 0.068584 
290.946777 1.054954 
291.070221 0.078857 
291.087097 0.197064 
293.673523 0.078236 
295.143402 0.645802 
296.517059 0.103276 
297.148499 0.460564 
299.023224 0.344817 
301.25238 2.541851 
302.164032 0.202228 
302.25647 0.28577 
303.2323 0.05991 
303.598816 0.07488 
304.982452 0.118471 
305.101562 0.072636 
306.122101 0.059006 
306.979828 0.067259 
307.048157 6.717829 
308.052002 0.291602 
308.958771 0.09403 
310.914551 0.101025 
311.04068 0.177741 
311.236603 1.191931 
312.206879 0.072445 
312.239777 0.060512 
313.001617 0.548966 
313.03653 0.114053 
317.032959 2.420706 
317.228271 0.105234 
318.03656 0.062142 
319.066162 1.403975 
319.198944 3.391743 
319.263092 0.10176 
320.183594 0.091301 
321.063629 0.130771 
321.214539 0.077462 
322.310333 0.150868 
322.589142 0.100522 
322.916107 0.07647 
323.093811 0.123915 
323.175507 2.337312 
323.908478 0.384501 
324.178375 0.104029 
324.325836 1.174684 
324.422302 0.062449 
325.058441 1.138446 
326.062836 0.057972 
327.052826 0.078925 
327.077606 10.654113 
328.081299 1.618763 
328.264618 0.122376 
329.246979 4.273466 
330.041321 0.877694 
330.250153 0.695214 
331.012238 1.846995 
331.048187 1.039247 
333.063263 0.216456 
333.806641 0.078039 
335.04361 13.915334 
335.098328 0.066811 
336.046906 1.116524 
336.327576 0.067891 
337.077637 0.502027 
339.071655 0.19607 
341.034637 0.075812 
343.066132 0.174253 
346.274078 1.453741 
347.071381 0.079834 
347.257568 7.356633 
348.051971 0.36195 
348.261078 2.167619 
349.058899 0.856432 
349.209869 7.251537 
350.212036 1.591952 
350.231781 0.731391 
351.073792 0.165547 
351.183319 0.068112 
351.225586 4.745812 
352.229187 0.260973 
353.054443 4.528219 
354.05661 0.11156 
355.048889 0.93989 
355.201965 0.187284 
364.084351 0.138633 
365.079956 0.70049 
367.067139 0.076044 
369.004852 0.092626 
373.059052 0.548179 
381.128601 0.068842 
381.187256 0.081219 
381.261261 3.404015 
382.219696 0.756171 
382.262054 0.942889 
382.346771 0.762127 
382.404022 3.712972 
382.440674 1.024092 
383.197937 0.358127 
383.277435 0.265598 
383.312439 1.026947 
383.407806 0.790193 
384.235229 0.363971 
384.318329 0.0659 
384.361237 0.506242 
384.387451 0.06006 
384.419434 2.177075 
385.076416 0.102021 
385.144958 0.420726 
385.292084 2.290884 
391.070282 0.079708 
406.660675 0.061622 
END IONS

