BEGIN IONS
PEPMASS=163.0
CHARGE=1+
COMPOUNDNAME=Massbank:KO002712 2-Deoxystreptamine
LIBRARYQUALITY=3
SMILES=N[C@H](C1)[C@H](O)[C@@H](O)[C@H](O)[C@@H](N)1
INCHIKEY=DTFAJAKTSMLKAT-JDCCYXBGSA-N
INCHI=1S/C6H14N2O3/c7-2-1-3(8)5(10)6(11)4(2)9/h2-6,9-11H,1,7-8H2/t2-,3+,4+,5-,6-
MSLEVEL=2
SOURCE_INSTRUMENT=ESI-LC-ESI-QQ
FILENAME=Massbank_ESI_positive_8_1_2014_peaks.mgf
SEQ=*..*
IONMODE=Positive
ORGANISM=MASSBANK
NAME=Massbank:KO002712 2-Deoxystreptamine [M+H]+
PI=Putative Massbank Match
DATACOLLECTOR=Massbank
PUBMED=N/A
SUBMITUSER=mwang87
TAGS=
SPECTRUMID=CCMSLIB00000217925
SCANS=8514
41.1 118812.0 
55.1 79208.0 
60.1 44554.5 
66.9 118812.0 
67.9 242574.5 
71.8 29703.0 
72.3 19802.0 
81.0 212871.5 
82.1 79208.0 
83.2 29703.0 
84.1 564357.0 
84.8 262376.5 
86.0 79208.0 
88.3 29703.0 
89.8 19802.0 
90.4 14851.5 
91.8 59406.0 
98.6 19802.0 
100.2 54455.5 
102.0 1415843.0 
103.7 79208.0 
106.3 34653.5 
109.1 103960.5 
110.0 891090.0 
114.5 430693.5 
121.8 59406.0 
127.0 94059.5 
128.1 5698025.5 
130.3 49505.0 
132.4 59406.0 
144.8 69307.0 
146.1 112955558.5 
163.4 2519804.5 
END IONS

