BEGIN IONS
PEPMASS=323.02
CHARGE=1+
COMPOUNDNAME=MoNA:642881 2,2-bis(chloranyl)-N-[(1R,2R)-1-(4-nitrophenyl)-1,3-bis(oxidanyl)propan-2-yl]ethanamide
LIBRARYQUALITY=3
SMILES=N/A
INCHIKEY=WIIZWVCIJKGZOK-RKDXNWHRSA-N
INCHI=InChI=1S/C11H12Cl2N2O5/c12-10(13)11(18)14-8(5-16)9(17)6-1-3-7(4-2-6)15(19)20/h1-4,8-10,16-17H,5H2,(H,14,18)/t8-,9-/m1/s1
MSLEVEL=2
SOURCE_INSTRUMENT=LC-ESI-QFT-LC-ESI-QFT
FILENAME=output_mgf.mgf
SEQ=*..*
IONMODE=
ORGANISM=MONA
NAME=MoNA:642881 2,2-bis(chloranyl)-N-[(1R,2R)-1-(4-nitrophenyl)-1,3-bis(oxidanyl)propan-2-yl]ethanamide [M+H]+
PI=MoNA
DATACOLLECTOR=MoNA
PUBMED=N/A
SUBMITUSER=mwang87
TAGS=
SPECTRUMID=CCMSLIB00000572706
SCANS=9957
63.9948 2.248815 
65.0385 1.223308 
66.0464 0.19054 
67.0417 0.697834 
77.0384 0.455529 
78.0464 3.003188 
79.0542 0.725759 
80.0495 1.348627 
80.0622 0.157716 
82.945 100.0 
89.0386 1.010975 
90.0464 1.964752 
91.0542 21.002996 
92.0494 0.680335 
92.062 7.926487 
93.0572 0.484108 
94.0651 0.144341 
95.0491 1.353868 
102.0464 3.766177 
103.0542 13.294948 
104.0495 2.427735 
104.062 1.753204 
105.0334 0.424223 
105.0449 0.468237 
106.0651 2.509197 
107.049 1.075788 
107.0731 1.197566 
108.0571 0.189802 
109.0649 0.220023 
109.9557 0.158891 
115.0542 11.777069 
116.0496 0.526927 
117.0573 11.86676 
118.0651 41.881946 
119.0729 58.461373 
120.0446 0.145527 
120.057 0.716068 
121.0521 0.485014 
125.0154 0.787681 
127.9664 0.410098 
128.0495 1.766476 
128.062 3.523524 
129.0448 0.393585 
129.0573 2.563475 
130.0651 14.097542 
131.0366 0.411109 
131.0492 7.532265 
131.073 2.615631 
132.057 3.569293 
133.0522 0.193863 
134.06 3.733667 
135.068 0.510357 
136.0756 0.710969 
137.0153 2.472487 
137.0599 0.211949 
138.0231 1.534057 
138.055 0.229812 
140.0496 0.4015 
142.0652 1.72669 
145.0523 2.834016 
145.0648 1.87512 
146.0601 1.952499 
147.0555 0.17747 
148.0631 1.94512 
149.0153 4.01952 
149.047 0.997766 
150.0232 0.768329 
151.0628 25.077072 
154.018 0.162558 
155.0605 0.885678 
157.0523 0.185607 
158.0598 0.1415 
161.0471 0.673942 
162.0229 0.410218 
163.0311 0.170878 
164.0261 22.735818 
165.0659 16.868994 
170.06 2.416496 
177.0216 0.238106 
177.0344 0.216587 
177.0419 2.154923 
193.029 0.419235 
227.9984 0.147374 
257.9957 0.17593 
END IONS

