BEGIN IONS
PEPMASS=387.061
CHARGE=1+
COMPOUNDNAME=(4R,6S,8S,9Z,11E)-16-chloro-17,19-dihydroxy-4-methyl-3,7-dioxatricyclo[13.4.0.0?,?]nonadeca-1(15),9,11,16,18-pentaene-2,13-dione
LIBRARYQUALITY=3
SMILES=N/A
INCHIKEY=WYZWZEOGROVVHK-RPJJWQTDSA-N
INCHI=InChI=1S/C18H17ClO6/c1-9-6-15-14(25-15)5-3-2-4-10(20)7-11-16(18(23)24-9)12(21)8-13(22)17(11)19/h2-5,8-9,14-15,21-22H,6-7H2,1H3/b4-2+,5-3-/t9-,14+,15+/m1/s1
MSLEVEL=2
SOURCE_INSTRUMENT=N/A-ESI-QFT
FILENAME=library_mgf.mgf
SEQ=*..*
IONMODE=positive
ORGANISM=MONA
NAME=(4R,6S,8S,9Z,11E)-16-chloro-17,19-dihydroxy-4-methyl-3,7-dioxatricyclo[13.4.0.0?,?]nonadeca-1(15),9,11,16,18-pentaene-2,13-dione [M+Na]+
PI=MoNA
DATACOLLECTOR=MoNA:VF-NPL-QEHF022108
PUBMED=N/A
SUBMITUSER=mwang87
TAGS=
SPECTRUMID=CCMSLIB00004713171
SCANS=22108
51.38839 0.017152 
51.939976 0.019842 
52.742901 0.010624 
52.951603 0.020762 
53.008575 0.015187 
53.038956 0.075562 
53.446648 0.015397 
54.594955 0.011651 
54.731617 0.011277 
54.998772 0.015868 
55.05455 0.590065 
55.122452 0.011351 
55.984142 0.017256 
56.058048 0.011117 
56.505863 0.015308 
56.811108 0.016145 
57.033813 0.127257 
57.070171 0.603437 
58.065395 0.318846 
58.943787 0.013943 
59.049389 0.130307 
59.566326 0.010808 
60.04464 0.615488 
61.010864 9.551941 
61.086399 0.015043 
61.752144 0.008751 
62.0187 0.029076 
63.006664 0.024718 
63.427738 0.018263 
64.377975 0.017916 
65.318108 0.013187 
67.054344 0.947391 
69.031647 0.042015 
69.033607 2.315687 
69.070007 0.424313 
70.036957 0.157096 
70.065239 0.156651 
70.957977 0.099011 
71.04921 0.666251 
71.08564 0.248752 
72.87999 0.013413 
72.922127 0.010773 
72.937248 0.242276 
75.04406 0.019325 
76.172165 0.016792 
76.388832 0.015151 
76.413727 0.01892 
76.611626 0.015529 
78.283104 0.016777 
78.29731 0.015505 
78.699661 0.017379 
79.018692 0.015773 
79.021248 0.857273 
79.054245 0.62865 
79.381088 0.017818 
80.057671 0.016795 
80.220711 0.013057 
80.490936 0.015197 
80.638069 0.015195 
81.033508 0.880694 
81.069923 1.059205 
82.036537 0.015284 
82.07328 0.010318 
82.396057 0.015518 
83.049187 0.479736 
83.085526 0.35161 
84.388756 0.014469 
85.028481 0.076951 
85.039711 0.161944 
85.06498 0.082414 
85.101418 0.036541 
86.096504 0.086395 
87.044067 0.272946 
88.075821 0.015635 
88.472481 0.012923 
88.952248 0.012604 
88.968483 0.057188 
89.059731 1.861469 
89.939911 0.127504 
90.947769 0.294966 
91.054291 1.243053 
93.033585 0.184124 
93.069954 1.803708 
94.07328 0.192548 
95.013252 0.015468 
95.049194 2.407616 
95.085541 0.668271 
96.052559 0.1813 
96.080574 0.022156 
96.088837 0.014061 
97.028625 0.013795 
97.064819 0.312749 
97.101212 0.128321 
98.067963 0.026939 
99.044106 0.181398 
99.080406 0.028156 
100.469765 0.019212 
100.824425 0.017202 
101.059746 0.248529 
101.141548 0.012978 
101.852402 0.014108 
102.232132 0.011827 
102.293663 0.019486 
102.578438 0.01238 
103.054207 0.052938 
105.034264 0.017316 
105.069939 0.653058 
106.22821 0.011333 
106.623276 0.011344 
107.049248 0.096499 
107.085541 0.160082 
107.950417 0.031874 
109.064796 0.174864 
109.101257 0.249474 
111.043991 0.394839 
111.080406 0.234688 
113.059845 0.038347 
113.09623 0.01362 
113.250992 0.012337 
113.666199 0.017271 
114.319069 0.010374 
114.391953 0.010907 
116.963348 0.088148 
117.887917 0.014005 
118.925415 0.01375 
118.942802 0.020136 
119.085579 0.114401 
120.09198 0.013668 
121.028717 0.08253 
121.064827 2.415501 
121.101089 0.120154 
122.068108 0.3976 
122.072624 0.028428 
123.116867 0.075749 
125.059776 0.108756 
125.096031 0.03359 
126.984062 0.016544 
128.081375 0.012386 
128.904938 0.023244 
128.963348 0.087116 
129.054489 0.059918 
130.979065 0.160871 
131.000183 0.100021 
131.085541 0.020736 
132.101868 0.347437 
132.960785 0.582712 
133.011292 0.015483 
133.064682 0.037484 
133.085953 0.616895 
133.959229 0.447914 
134.956116 5.069229 
134.961761 0.074087 
135.043884 0.011445 
135.080582 0.112372 
135.116394 0.015558 
135.227829 0.012022 
136.952576 0.011232 
137.059662 0.071493 
137.096069 0.074133 
139.038971 4.004347 
139.075333 0.543556 
139.135406 0.225577 
139.700882 0.009604 
139.726532 0.017771 
139.74794 0.015222 
139.87915 0.017631 
140.144119 0.024305 
140.999786 0.013863 
141.054565 3.904945 
141.803497 0.018505 
142.97905 0.064092 
143.000687 0.015897 
144.776123 0.016822 
144.859146 0.016233 
144.994614 0.053065 
145.016022 0.029997 
145.064697 0.050826 
145.811249 0.01073 
145.957748 0.017557 
146.974258 0.076075 
147.080444 0.327741 
147.11702 0.012476 
148.955688 0.492078 
148.971817 0.060764 
148.989609 0.060429 
149.004898 0.022333 
149.954224 0.143099 
150.054993 2.10305 
150.061249 0.030534 
150.951096 4.745114 
150.971313 0.218463 
150.977631 0.015142 
151.020493 0.461254 
151.058258 0.107869 
151.970078 0.015552 
152.951843 0.155708 
152.966705 2.393631 
153.020813 0.237684 
153.03598 0.042484 
153.054626 1.402687 
153.959167 0.108069 
154.337524 0.012819 
154.947113 0.032337 
155.070175 0.303449 
155.136688 0.016642 
155.954636 0.036032 
156.994522 0.028438 
157.00502 0.163689 
157.01593 0.039959 
158.974213 0.13109 
159.002304 0.146005 
159.010178 0.031239 
159.080688 0.014794 
160.98967 0.033602 
161.096527 0.020198 
162.055023 0.932228 
163.039001 0.129922 
164.987457 0.017732 
165.036346 0.275711 
165.805435 0.011864 
165.938019 0.017034 
166.96666 0.050252 
166.983093 0.013825 
167.036331 0.034436 
168.961655 1.350201 
168.994431 0.018929 
169.031448 0.012386 
169.049759 0.032102 
169.931976 0.016162 
171.01033 0.051072 
171.03157 0.035349 
172.989746 0.05069 
173.060028 0.01773 
173.08078 0.01802 
173.320374 0.017399 
174.990005 0.204959 
175.039459 0.018695 
175.075424 0.023904 
176.638229 0.0128 
176.986938 0.098881 
177.054672 0.02106 
177.112411 0.014556 
178.983414 0.034807 
179.001022 0.025815 
179.051941 0.329709 
179.468658 0.016904 
180.065613 0.022198 
180.101776 0.133218 
181.049515 6.799882 
182.027237 0.059111 
182.081497 0.01653 
182.97699 0.012494 
183.010666 0.013578 
183.031265 0.032876 
183.046921 0.015654 
183.065491 0.134342 
184.990204 0.01569 
185.010452 0.145382 
185.060211 0.06175 
187.005447 0.057115 
189.005676 0.411403 
189.05484 1.711471 
190.057938 0.013175 
190.965363 0.011362 
191.001282 0.083244 
191.033951 0.019527 
191.070923 0.025001 
192.04184 0.015962 
192.719498 0.010749 
192.961777 0.529371 
193.049622 3.378489 
193.067093 0.1761 
195.067383 0.069299 
197.000061 0.208473 
197.01738 0.09645 
197.026382 0.057985 
198.004639 0.028717 
198.067261 0.014983 
198.979172 0.027814 
198.996994 2.515641 
199.026215 0.41402 
199.667542 0.01838 
200.000717 0.493654 
200.976242 0.096404 
200.994675 0.071238 
201.012741 0.037252 
201.021286 0.088178 
201.470123 0.017234 
202.991867 1.572176 
203.021317 0.161367 
203.036163 0.019518 
203.995514 0.241286 
204.041718 0.095719 
204.962021 0.041256 
205.016418 0.029088 
205.050308 0.068144 
205.067734 0.039221 
205.86235 0.016721 
207.065323 32.140942 
208.068573 0.45054 
210.971832 0.107246 
210.997437 0.026595 
211.033112 0.207169 
212.036667 0.01554 
212.97612 1.830104 
213.021454 0.022069 
213.042374 0.042292 
213.054749 0.058536 
213.979797 0.282235 
214.023361 0.143204 
214.03392 0.409804 
214.045578 0.302213 
214.060135 0.044092 
214.991806 0.111706 
215.036514 0.976376 
216.03952 0.014839 
217.03688 0.277824 
217.049683 0.023242 
217.794952 0.016255 
219.065186 100.0 
220.068649 8.006497 
221.047394 0.013783 
221.070557 0.694119 
221.098404 0.120123 
222.149338 0.020144 
222.89856 0.112584 
224.006241 0.017861 
224.994797 0.321353 
225.012466 0.29765 
225.049225 0.074629 
225.998352 0.032598 
226.991776 2.952457 
227.010651 0.362793 
227.036285 0.039868 
227.995056 0.827376 
228.039062 0.047297 
229.007492 1.795871 
229.051727 0.104428 
229.895935 0.089391 
230.011261 0.550772 
230.986801 0.171659 
231.065399 0.036624 
231.09993 0.016107 
233.045303 0.055512 
233.080322 0.082779 
233.098587 0.013499 
233.89209 0.052674 
235.033127 0.139486 
235.06134 0.221407 
235.096588 0.210935 
235.244873 0.01741 
235.892029 0.126492 
235.906219 0.011614 
237.058136 0.054001 
237.111984 1.398003 
237.886734 0.01415 
239.010468 0.044497 
239.027863 0.090407 
239.071579 0.045045 
239.885818 0.014008 
239.901199 0.044355 
240.909332 0.220931 
241.007584 0.677531 
241.047012 11.565557 
241.17244 0.019639 
242.011276 0.101011 
242.050262 2.553262 
242.90979 0.039623 
243.052338 0.201602 
243.066956 0.30156 
245.042053 0.293364 
245.081268 0.105763 
247.096359 0.402873 
247.906982 0.075167 
248.529114 0.017923 
248.898499 0.015497 
248.936157 0.025592 
249.078094 0.156713 
249.112167 2.293264 
249.125275 0.029811 
249.906631 0.12335 
250.893997 0.016834 
251.010208 0.036341 
251.028198 0.309383 
251.072922 0.045559 
252.031357 0.031248 
252.894196 0.059843 
253.007217 0.410883 
253.043701 0.933699 
253.071884 0.012208 
253.08786 0.117124 
253.902054 0.21956 
253.916641 0.044607 
254.011932 0.018523 
254.047501 0.234971 
255.021164 0.017566 
255.067215 0.099809 
255.084137 0.028913 
255.231277 0.087691 
255.898026 0.118523 
256.887329 0.125509 
257.00235 0.658224 
257.082489 0.519303 
257.097961 0.074592 
258.006165 0.156599 
259.061157 0.016421 
259.098511 0.023032 
259.114258 0.094711 
260.98407 0.013963 
261.075836 0.252892 
261.129913 0.158499 
263.028046 0.131204 
263.093719 0.352394 
263.191589 0.019329 
263.901245 0.044327 
264.032501 0.02491 
264.909027 0.089038 
265.007263 0.139401 
265.087982 0.124307 
265.901276 0.023113 
266.011566 0.013282 
266.093323 0.028844 
266.183319 0.024763 
266.909515 0.823563 
266.986938 0.094234 
267.023407 0.103783 
267.040771 0.025923 
267.10321 0.13123 
267.990814 0.073297 
268.263458 0.399478 
268.904999 0.184103 
268.992767 0.04074 
269.039429 0.132444 
269.082703 0.074065 
269.24765 1.083137 
269.263885 0.022634 
270.945648 0.018625 
271.09787 0.431291 
273.075714 0.2666 
274.999603 0.431937 
275.043182 0.027014 
276.006409 1.08003 
277.008759 0.066374 
277.109406 0.233716 
277.902405 0.319362 
278.818329 0.016957 
278.903015 0.032204 
278.950958 0.054304 
278.99527 0.117891 
279.023132 0.837077 
279.103912 0.041411 
279.898071 0.333002 
279.916351 0.040848 
280.026855 0.307091 
280.813477 0.04124 
281.038666 1.111341 
281.080444 0.022821 
281.103851 0.012242 
281.119568 0.064873 
281.895782 0.133184 
281.912323 0.739068 
282.04248 0.452571 
282.919373 0.04509 
283.097992 0.116172 
283.12442 0.014888 
283.263214 0.192113 
283.912415 1.104734 
284.92038 1.042048 
284.990601 0.013254 
285.114166 0.208761 
285.907471 0.212634 
286.897369 0.013382 
286.915527 0.221894 
287.130402 0.015748 
289.015808 0.020149 
289.461853 0.012082 
290.994751 0.679807 
291.086334 0.163368 
291.124786 0.081469 
291.997711 0.033461 
293.010712 0.259255 
294.017303 0.169725 
294.967682 0.011964 
295.018738 0.138875 
295.096436 0.199486 
295.911804 0.042615 
296.019684 0.025375 
296.331085 0.492693 
296.961029 0.376092 
297.005768 0.176066 
297.033905 0.276392 
297.075256 0.020369 
297.112793 0.101477 
297.278748 0.452416 
297.90918 0.036895 
297.927521 0.035689 
297.944672 0.024994 
298.039032 0.018767 
298.940643 0.961295 
299.090729 0.062009 
299.129852 0.119611 
299.924316 0.024849 
299.943024 0.079895 
300.049988 0.099714 
300.937683 0.079384 
300.978882 0.017854 
301.072083 0.017609 
301.921997 0.164984 
302.818665 0.012486 
303.103912 0.053644 
305.007874 0.11472 
305.119659 0.656357 
305.140381 0.476562 
306.140503 0.060801 
306.972473 0.05292 
307.002319 0.123619 
307.018707 0.863922 
307.135925 5.701209 
307.155487 0.825509 
307.9646 0.022014 
307.982178 0.05806 
308.022095 0.380984 
308.094971 0.015718 
308.137787 0.262335 
308.154663 1.338356 
308.919525 0.037537 
308.960815 1.072311 
309.113098 0.414485 
309.151306 7.84977 
309.923737 0.012349 
309.962097 0.080892 
310.110046 0.899546 
310.153107 0.151957 
310.170288 1.340362 
310.958496 0.13964 
311.021332 0.072523 
311.091858 0.027973 
311.129791 0.016245 
311.166412 1.633191 
313.019928 0.016096 
314.021973 0.013018 
315.016052 0.015941 
315.083984 0.020046 
315.955109 0.096243 
316.950439 0.732844 
317.009491 0.011542 
317.952942 0.045755 
318.829315 0.022616 
318.947693 0.088118 
319.830261 0.404311 
320.829315 1.242875 
321.829529 0.199637 
322.10791 0.042634 
322.823822 3.182715 
323.089447 4.653794 
323.111237 0.030305 
323.129578 0.069773 
323.150635 0.083197 
323.171814 0.025201 
324.092682 2.259974 
324.125 0.020217 
324.325897 0.994721 
325.09494 0.329338 
325.145782 1.663254 
325.166534 0.636522 
325.329895 0.221152 
326.100342 0.034207 
326.125397 0.017495 
326.165222 1.116059 
326.891541 0.035187 
326.934784 0.061006 
327.031738 0.081722 
327.091614 0.120263 
327.124786 0.358757 
327.161896 8.065491 
327.182068 0.990432 
327.955627 0.013751 
328.099701 0.02136 
328.121155 0.890933 
328.180908 5.673876 
328.933594 0.016548 
329.010651 0.079877 
329.177429 9.59936 
329.258423 0.108853 
331.05304 0.038085 
331.117218 0.125972 
332.059326 0.013089 
333.096405 0.562816 
334.824219 0.012566 
335.127533 0.123238 
337.840668 0.063557 
338.377747 0.018949 
338.840424 0.013366 
340.117828 0.289092 
340.835602 0.045124 
341.099884 0.170778 
341.194031 0.143062 
342.10202 0.035053 
343.070648 0.731645 
343.120728 0.011681 
343.831238 0.01355 
343.919556 0.044087 
344.073975 0.059609 
344.945587 0.096565 
345.042816 0.015601 
345.067322 0.114022 
345.168976 0.083967 
345.192352 0.634754 
346.191071 3.598656 
346.925934 0.024952 
347.188019 5.55758 
349.064423 0.046578 
350.102203 0.222591 
350.947266 0.066374 
351.085571 0.240776 
353.09967 0.024397 
354.095734 0.039753 
355.026947 0.019904 
355.078766 0.104112 
355.199463 0.014297 
358.943634 0.291872 
360.939331 0.014488 
361.28006 0.302838 
361.840759 0.082034 
362.282776 0.044031 
362.840424 0.165643 
364.201447 0.267819 
364.834473 0.366743 
365.19873 0.32584 
367.078766 0.336136 
368.085693 0.167235 
368.11261 3.598162 
368.138 0.040035 
368.388855 0.286988 
368.970764 0.019472 
369.050018 0.084597 
369.09433 0.148998 
369.116486 0.78132 
369.392212 0.044624 
370.12149 0.022765 
371.111755 0.086346 
373.036926 0.181604 
374.040924 0.019154 
374.855225 0.044497 
374.971802 0.06996 
375.826385 0.0351 
376.832428 0.014265 
379.855225 0.011727 
380.851044 0.014991 
385.088959 0.751234 
385.143951 0.014712 
385.174194 0.078535 
385.21936 0.083562 
385.25 0.109503 
385.292267 3.080816 
385.317688 0.026696 
386.047821 0.09965 
386.092529 0.438413 
386.120728 0.076562 
386.222382 0.025065 
386.269287 0.071229 
386.295807 0.888062 
386.936188 0.042233 
387.017029 0.039381 
387.061554 1.433711 
387.104553 0.493751 
387.162384 0.13187 
387.186432 0.808552 
387.236664 1.500357 
387.270569 0.750889 
387.298523 1.163555 
388.064209 0.196603 
388.110107 0.070933 
388.184052 1.007164 
388.208527 0.043863 
388.238495 0.501782 
388.279114 0.232089 
388.304016 0.13812 
388.393463 0.847907 
388.834076 0.062001 
389.054962 0.054497 
389.078949 0.019578 
389.120911 0.023581 
389.180298 10.814637 
389.250763 4.012545 
403.272186 0.022714 
404.278595 0.026344 
404.849121 0.022457 
404.944702 0.31781 
404.981018 0.01392 
405.194763 0.125011 
405.950592 0.024048 
406.194855 0.055261 
406.844513 0.466751 
407.191071 2.074758 
407.846008 0.014489 
END IONS

