BEGIN IONS
PEPMASS=421.0
CHARGE=1+
COMPOUNDNAME=MoNA:2232185 Blasticidin S
LIBRARYQUALITY=3
SMILES=N/A
INCHIKEY=CXNPLSGKWMLZPZ-UHFFFAOYSA-N
INCHI=InChI=1S/C17H26N8O5/c1-24(16(20)21)6-4-9(18)8-12(26)22-10-2-3-13(30-14(10)15(27)28)25-7-5-11(19)23-17(25)29/h2-3,5,7,9-10,13-14H,4,6,8,18H2,1H3,(H3,20,21)(H,22,26)(H,27,28)(H2,19,23,29)
MSLEVEL=2
SOURCE_INSTRUMENT=LC-ESI-QQ-LC-ESI-QQ
FILENAME=output_mgf.mgf
SEQ=*..*
IONMODE=
ORGANISM=MONA
NAME=MoNA:2232185 Blasticidin S [M-H]-
PI=MoNA
DATACOLLECTOR=MoNA
PUBMED=N/A
SUBMITUSER=mwang87
TAGS=
SPECTRUMID=CCMSLIB00000573909
SCANS=11160
178.6 0.401875 
179.2 1.205626 
216.4 0.401875 
259.7 0.334896 
301.1 0.133958 
310.2 0.401875 
325.8 0.669792 
331.2 0.401875 
334.6 0.200938 
361.1 1.071668 
363.5 0.535834 
377.3 1.473543 
407.5 0.200938 
421.5 100.0 
END IONS

