BEGIN IONS
PEPMASS=245.095
CHARGE=1+
COMPOUNDNAME=Biotin
LIBRARYQUALITY=3
SMILES=N/A
INCHIKEY=YBJHBAHKTGYVGT-ZKWXMUAHSA-N
INCHI=InChI=1S/C10H16N2O3S/c13-8(14)4-2-1-3-7-9-6(5-16-7)11-10(15)12-9/h6-7,9H,1-5H2,(H,13,14)(H2,11,12,15)/t6-,7-,9-/m0/s1
MSLEVEL=2
SOURCE_INSTRUMENT=N/A-ESI-QTOF
FILENAME=library_mgf.mgf
SEQ=*..*
IONMODE=positive
ORGANISM=MONA
NAME=Biotin [M+H]+
PI=MoNA
DATACOLLECTOR=MoNA:VF-NPL-QTOF002087
PUBMED=N/A
SUBMITUSER=mwang87
TAGS=
SPECTRUMID=CCMSLIB00004719877
SCANS=2084
67.055099 0.172201 
88.952202 0.219317 
97.007896 0.123394 
97.014503 0.123875 
97.032402 0.147531 
97.039299 1.000998 
100.023399 0.12224 
105.066902 0.24798 
115.0541 0.135483 
121.061996 0.142795 
123.025101 0.683349 
139.056702 0.633658 
149.046494 0.174352 
151.089905 0.127929 
166.067505 0.900989 
166.921997 2.285103 
166.955795 0.225247 
166.9646 0.548949 
166.987595 0.298164 
167.046402 0.968296 
167.054993 0.183247 
184.072098 0.199573 
184.078598 0.570881 
185.069107 0.127001 
192.043793 0.232904 
193.094894 0.169174 
199.087799 0.85334 
209.073196 1.291984 
210.054794 0.150904 
213.013 0.130857 
227.084595 100.0 
227.2164 2.807835 
227.256699 0.684959 
227.272293 0.610174 
227.297607 0.177721 
227.310898 0.145668 
227.328598 0.643509 
227.350098 0.36067 
227.363693 0.245773 
227.381699 0.361219 
227.398102 0.329867 
227.416901 0.16886 
227.431793 0.373942 
227.446899 0.179649 
227.4655 0.393212 
227.489197 0.190218 
227.525208 0.377293 
227.548706 0.423129 
227.570099 0.158069 
227.590607 0.245266 
227.612396 0.25746 
227.650208 0.333492 
227.688202 0.209303 
227.705505 0.173041 
227.731705 0.212691 
227.750595 0.192942 
227.763306 0.111816 
227.781403 0.273287 
227.799606 0.146387 
227.821503 0.164925 
227.838303 0.178638 
227.875198 0.184057 
227.903503 0.140427 
227.963501 0.183815 
227.996902 0.170743 
228.014801 0.111763 
228.0495 0.151576 
228.081497 0.235381 
228.095001 0.147934 
228.183594 0.20788 
228.226898 0.143648 
228.268402 0.14691 
228.326202 0.193928 
228.393402 0.150125 
228.436096 0.127764 
228.455902 0.133619 
228.514404 0.126633 
228.567703 0.141508 
228.677704 0.156159 
228.770004 0.128731 
244.934006 0.407512 
245.095093 25.561289 
245.190002 0.139051 
245.225006 0.407435 
245.233994 0.449707 
245.271606 0.320772 
245.2892 0.168152 
245.319702 0.132516 
245.354004 0.136642 
245.372406 0.115664 
245.399994 0.170113 
245.442993 0.125254 
245.466095 0.142346 
245.506393 0.115469 
245.554504 0.120591 
245.596497 0.126187 
246.230606 0.11734 
END IONS

