BEGIN IONS
PEPMASS=516.307
CHARGE=1+
COMPOUNDNAME=(3E,5S,7R,8R,11E,13S,15R,16R)-3,5,7,11,13,15-hexamethyl-8,16-bis(1,3-oxazol-5-ylmethyl)-1,9-dioxacyclohexadeca-3,11-diene-2,10-dione
LIBRARYQUALITY=3
SMILES=N/A
INCHIKEY=LAJRJVDLKYGLOO-HLRFMGGZSA-N
INCHI=InChI=1S/C28H38N2O6/c1-17-7-19(3)25(11-23-13-29-15-33-23)35-28(32)22(6)10-18(2)8-20(4)26(12-24-14-30-16-34-24)36-27(31)21(5)9-17/h9-10,13-20,25-26H,7-8,11-12H2,1-6H3/b21-9+,22-10+/t17-,18-,19+,20+,25+,26+/m0/s1
MSLEVEL=2
SOURCE_INSTRUMENT=N/A-ESI-QFT
FILENAME=library_mgf.mgf
SEQ=*..*
IONMODE=positive
ORGANISM=MONA
NAME=(3E,5S,7R,8R,11E,13S,15R,16R)-3,5,7,11,13,15-hexamethyl-8,16-bis(1,3-oxazol-5-ylmethyl)-1,9-dioxacyclohexadeca-3,11-diene-2,10-dione [M+NH4]+
PI=MoNA
DATACOLLECTOR=MoNA:VF-NPL-QEHF019231
PUBMED=N/A
SUBMITUSER=mwang87
TAGS=
SPECTRUMID=CCMSLIB00004710294
SCANS=19231
51.64006 0.076111 
52.785778 0.045666 
53.038895 0.064742 
54.074818 0.026309 
54.189159 0.027491 
55.018185 0.069464 
55.054482 2.351543 
55.829285 0.060276 
55.888996 0.03093 
55.951099 0.026885 
56.049725 1.733021 
56.492405 0.083008 
56.965008 0.09825 
57.033726 3.472797 
57.07008 1.433838 
57.341663 0.079895 
57.390572 0.03129 
57.695473 0.078529 
57.857243 0.028341 
58.065323 1.193703 
58.449173 0.027181 
58.591198 0.032403 
59.04932 14.026552 
60.044567 0.062102 
60.052673 0.375081 
60.080963 3.52507 
60.37151 0.02764 
61.201542 0.02716 
61.625729 0.028371 
62.018627 0.049666 
62.771145 0.058753 
62.939724 0.055333 
63.384609 0.024757 
63.454586 0.08321 
63.496143 0.078065 
64.01358 0.075151 
64.047615 0.028788 
64.229942 0.080914 
64.585854 0.041078 
64.76255 0.073367 
65.009796 0.043172 
65.530128 0.026567 
65.882751 0.06994 
66.923866 0.067889 
67.054283 6.223 
67.611473 0.033699 
68.716743 0.028013 
69.033493 3.413277 
69.069893 7.221423 
69.832306 0.041854 
70.028801 0.055799 
70.065132 0.555698 
70.350098 0.082809 
70.52877 0.063112 
71.049141 1.208157 
71.085556 0.314932 
71.404381 0.084155 
72.044365 3.045429 
72.080574 0.038089 
72.439537 0.029119 
72.890404 0.07594 
73.064758 3.939202 
74.059967 10.604404 
75.044128 0.17822 
75.143707 0.031564 
76.159142 0.034299 
76.166008 0.031344 
77.039085 0.079403 
77.48658 0.032897 
79.021088 0.344732 
79.054184 4.400377 
80.049377 2.273835 
80.552216 0.093543 
80.583847 0.036221 
81.067291 0.075891 
81.069839 13.019688 
82.028679 18.972326 
82.031456 0.070924 
82.06501 0.803446 
82.073257 0.158848 
83.049042 3.445416 
83.085464 3.567904 
84.04435 7.995675 
84.08065 0.228448 
85.028481 0.214435 
85.047714 0.033517 
85.06472 4.533625 
85.080719 0.072097 
85.32016 0.075089 
85.607666 0.030082 
86.023605 1.773341 
86.059937 0.882686 
86.096313 0.171406 
86.908752 0.101884 
87.043999 1.048225 
87.496429 0.074176 
89.059631 2.217257 
89.120529 0.025738 
90.857803 0.027007 
91.054199 3.184304 
92.393013 0.087603 
93.057152 0.222814 
93.069794 14.094446 
93.968315 0.062089 
94.001503 0.031345 
94.065048 5.277871 
94.073135 0.171533 
94.08342 0.025598 
94.177109 0.061913 
94.495308 0.075247 
94.576309 0.08052 
95.049065 11.076429 
95.085449 37.159115 
96.044273 18.351706 
96.080658 1.008631 
96.088821 1.413374 
97.064743 4.808437 
97.101059 0.641882 
97.298447 0.061451 
97.485893 0.070042 
98.059952 1.696885 
98.068169 0.099467 
99.044029 0.541206 
99.080383 0.857377 
100.039261 1.700245 
100.0756 0.19394 
100.814735 0.029446 
100.890884 0.036303 
100.903786 0.060693 
101.059662 1.084023 
102.054909 1.454444 
103.054108 0.575056 
103.075249 0.814476 
103.731468 0.083645 
104.106697 0.099657 
105.033493 0.057511 
105.069817 8.596219 
105.49321 0.0351 
106.07312 0.093511 
106.69371 0.064889 
107.049042 2.799244 
107.085426 31.356527 
108.044189 0.82498 
108.080658 2.212232 
108.088768 1.167913 
109.06469 17.801912 
109.101105 27.807064 
110.059914 16.815107 
110.067894 0.523115 
110.096313 0.36612 
110.104362 0.986675 
111.043991 1.510315 
111.063278 0.143758 
111.080322 6.915129 
111.116707 2.978421 
112.039101 0.171073 
112.075584 1.920926 
112.083115 0.050743 
113.059547 11.607389 
113.095978 0.610532 
113.532478 0.083478 
114.054825 0.996151 
114.062981 0.03786 
115.075203 0.731633 
117.06974 3.934519 
117.090897 0.857657 
117.926453 0.029857 
119.085464 12.539406 
119.280952 0.068342 
120.04435 1.254731 
120.080605 0.862076 
120.088638 0.045876 
121.064697 4.664517 
121.101036 100.0 
121.450394 0.0461 
122.023392 0.626594 
122.059914 36.250286 
122.096382 0.223613 
122.104378 5.21203 
122.10891 3.797784 
122.671059 0.028328 
123.043777 0.057117 
123.063187 0.93462 
123.08033 9.389964 
123.116661 4.138454 
124.039032 0.118181 
124.075554 5.822327 
124.083572 0.522565 
125.059586 0.372051 
125.096031 2.750444 
126.054802 1.777684 
126.090508 0.035007 
126.449699 0.026597 
127.038811 0.342208 
127.075272 1.335988 
127.111198 0.030827 
128.070663 0.151201 
129.069855 0.346324 
129.090622 0.059284 
129.985519 0.048106 
131.048935 6.486458 
131.070068 4.382461 
131.085388 10.004392 
131.27478 0.030737 
131.490143 0.034 
132.074127 0.065218 
132.080521 0.157423 
132.088928 0.081056 
133.085556 0.044252 
133.100952 14.487367 
134.05986 12.776445 
134.096252 3.331159 
134.104401 0.55254 
135.043839 3.56443 
135.063492 0.080071 
135.0802 8.877314 
135.116653 32.131416 
136.039078 0.193918 
136.047394 0.442298 
136.075623 13.74455 
136.088074 0.028085 
136.112244 0.037794 
136.120132 1.661412 
137.059616 0.283679 
137.084152 0.02627 
137.095947 11.013073 
137.132278 5.398766 
138.054794 1.610382 
138.091248 25.091421 
138.100128 0.120359 
139.075089 0.703386 
139.09462 0.588112 
139.111526 1.452514 
140.070572 1.110039 
140.695938 0.03169 
141.054321 0.443017 
141.069107 0.033107 
141.090897 0.591476 
143.085403 1.319854 
143.217484 0.034595 
144.08049 0.120403 
144.093246 0.864799 
145.064636 0.263801 
145.100983 8.478204 
145.237503 0.045811 
146.096283 0.689061 
146.339355 0.093254 
147.080154 1.781082 
147.116623 11.712365 
148.07547 13.010598 
148.112 1.205419 
148.119659 0.493154 
149.059616 3.786687 
149.078827 0.289973 
149.095917 20.699415 
149.119873 0.28356 
149.132278 15.047523 
149.56781 0.02919 
150.091232 5.313303 
150.09819 0.660187 
150.135727 0.572463 
151.075104 1.372106 
151.111633 2.390865 
152.070374 1.609374 
152.106873 0.109525 
153.054306 0.422712 
153.090729 0.444819 
153.127014 0.265441 
154.121857 0.029786 
155.068985 0.032672 
157.101013 4.88584 
158.096558 0.038255 
158.104126 0.172859 
158.925125 0.070733 
159.080307 1.098068 
159.116562 97.678802 
160.075546 0.081476 
160.112289 1.695397 
160.11998 7.278822 
160.530197 0.036355 
161.095886 4.618001 
161.119858 0.195624 
161.132156 5.650108 
162.091049 8.204039 
162.098267 0.113895 
162.127487 1.789342 
162.135071 0.07965 
163.074997 1.302904 
163.095123 0.038894 
163.104218 0.146486 
163.111481 20.038818 
164.04277 0.066962 
164.106873 4.872669 
164.11412 0.828942 
164.143051 0.303172 
165.090851 1.274704 
165.127228 2.210722 
166.086166 0.800102 
166.122421 8.239048 
167.070267 0.198154 
167.10643 3.411266 
167.125763 0.059415 
168.065216 1.034951 
169.101013 3.858408 
170.081268 0.046263 
170.991714 0.039956 
171.116653 2.856661 
172.075378 0.281268 
172.087997 0.406404 
173.095856 1.562294 
173.132294 1.82146 
174.091156 3.421692 
174.12767 0.629721 
174.860962 0.080269 
175.07489 0.036911 
175.111542 10.221398 
175.147842 0.269066 
176.071045 0.130359 
176.106766 8.730024 
176.12056 0.104468 
176.143143 11.699682 
177.090759 1.516516 
177.127167 35.905739 
177.146561 0.223743 
177.457779 0.045538 
178.086105 0.240519 
178.122589 0.603515 
178.130615 2.599368 
179.106461 0.940482 
180.065475 0.317976 
180.100586 0.04531 
180.138336 0.037883 
181.085815 0.825967 
181.12204 0.465744 
181.221024 0.033415 
182.081055 20.818537 
183.052475 0.49582 
183.084183 1.989872 
183.101089 0.036735 
183.116638 0.044924 
184.060501 0.388795 
184.073532 0.168722 
185.095963 0.269118 
185.132339 0.174039 
186.052643 0.072852 
186.07608 0.913855 
186.091949 0.108584 
186.127594 5.236997 
186.180069 0.031359 
187.027496 0.577491 
187.111557 32.921261 
187.147919 0.478436 
188.106583 0.800239 
188.11496 2.374331 
189.043411 0.246517 
189.127228 1.204651 
189.342667 0.035952 
190.086075 0.291149 
190.122391 33.581127 
191.106445 8.067005 
191.125824 1.921627 
192.101761 0.484802 
192.13797 6.171159 
192.962662 0.035891 
193.122131 2.719787 
193.141556 0.145306 
194.08017 0.033833 
194.117325 6.376375 
194.153793 8.398654 
195.100967 0.262997 
195.15683 0.031683 
196.060379 0.844589 
196.09668 0.871072 
197.131897 0.062295 
198.075912 76.283073 
199.079437 18.353073 
199.111496 0.039312 
199.14801 0.401325 
199.58902 0.096915 
200.081055 2.341315 
201.091354 0.084486 
201.163757 0.279043 
202.122421 1.407741 
203.106445 2.534526 
203.127808 0.058867 
204.138092 85.778755 
205.071136 0.088787 
205.122238 15.490082 
205.141037 5.98634 
205.215988 0.067137 
206.081055 0.292214 
206.125732 0.460111 
206.153961 0.671692 
207.089508 0.032828 
207.137695 0.487488 
207.588181 0.090808 
208.096542 0.478908 
208.133041 63.672894 
209.117218 0.432581 
209.136459 3.176093 
210.043121 0.04107 
210.07579 3.471264 
210.112183 0.304289 
211.079239 0.105503 
211.148315 0.087179 
212.059387 0.405443 
212.091415 18.677996 
213.094971 4.062655 
213.152405 2.224359 
213.161453 3.525307 
214.070892 1.091838 
214.096207 0.037947 
214.122269 8.842213 
215.116165 0.043035 
215.127365 0.122642 
216.121765 0.075715 
218.67804 0.034381 
219.101074 0.166903 
220.0578 0.048443 
220.096619 0.09571 
220.133102 5.92463 
221.104553 0.68381 
221.116837 1.251559 
221.135971 0.0949 
222.076538 0.037632 
222.112228 1.296141 
222.14856 16.43873 
223.083115 0.049182 
223.13269 3.504773 
223.152023 0.840465 
224.091324 0.730581 
224.12764 3.747811 
225.130936 0.288227 
226.107056 0.778593 
227.17836 0.054517 
230.11731 0.107321 
231.14949 0.064277 
232.13298 50.988506 
233.116943 1.110732 
233.136353 4.047331 
233.152115 0.14993 
234.073822 0.43828 
234.112228 1.481141 
235.117371 0.049492 
235.133102 0.044983 
236.091797 0.176755 
236.127686 1.681214 
238.106918 2.359063 
238.143555 4.759732 
239.11084 0.068212 
239.145767 0.066153 
241.096573 0.095957 
242.103333 0.045078 
246.0737 0.035747 
246.14743 0.092379 
248.127487 1.65551 
249.095718 0.069786 
249.10965 2.284096 
249.159515 0.037849 
250.107834 0.650714 
250.143433 35.300411 
251.12648 0.041875 
251.146942 2.477629 
252.122696 6.548447 
253.126221 1.549287 
254.102127 1.746236 
255.104797 0.036848 
256.117432 0.659649 
257.105743 0.338345 
257.189545 0.126735 
260.090271 0.097872 
260.126801 0.102621 
262.108063 1.641295 
262.143127 0.109433 
263.111786 0.300843 
264.122498 2.867956 
264.13678 0.040167 
264.159027 0.112913 
265.126038 0.402394 
265.141022 0.138126 
266.138763 0.184606 
268.117401 0.079763 
270.133362 0.607037 
270.932159 0.043697 
272.092316 0.041585 
272.112122 0.041029 
272.199524 0.038665 
273.669464 0.092458 
274.105255 0.037347 
274.142548 0.03261 
275.115631 0.168045 
275.415375 0.084402 
276.121735 1.170585 
277.095856 0.065043 
277.14093 0.034273 
278.102386 0.186983 
278.137665 0.244822 
279.089081 0.089487 
279.156311 1.707721 
279.476807 0.083566 
280.118103 1.086118 
281.121246 0.255294 
282.132996 0.244506 
283.084961 0.748711 
284.088287 0.411975 
288.09021 3.508341 
288.120361 0.390731 
290.135864 22.245255 
291.103088 0.092843 
291.11972 4.449378 
291.139221 3.038044 
292.117615 0.66316 
293.121307 0.088525 
294.133057 0.715533 
295.136475 0.034388 
296.164032 0.039575 
297.100098 0.260957 
298.129028 0.304502 
298.896606 0.556975 
301.09436 0.265799 
302.099152 0.085756 
304.114868 0.042033 
304.154694 0.215304 
306.100891 39.877102 
306.120697 0.495622 
306.166809 0.038375 
307.104492 0.668496 
307.187836 0.034088 
308.133392 0.085623 
310.126343 0.082845 
316.191284 0.050778 
316.907257 0.112034 
319.11911 0.037542 
320.116852 0.151582 
321.152954 0.050669 
323.165436 0.096826 
323.73053 0.087984 
324.111481 39.041557 
324.132843 0.344316 
325.114716 1.126396 
329.412323 0.097369 
330.512024 0.091384 
335.182861 0.037882 
336.155212 0.176576 
337.198456 0.454581 
338.127014 0.088708 
339.895203 0.085937 
342.123199 0.123629 
344.185089 0.273891 
348.587372 0.033337 
353.024811 0.032933 
353.229309 0.082573 
360.039001 0.030209 
360.215485 0.036241 
362.169556 0.043292 
363.173676 0.060795 
369.224579 0.231393 
370.197357 0.035012 
371.239502 0.104194 
372.889343 0.033867 
377.406677 0.029404 
378.852844 0.986984 
384.216125 0.057457 
387.235809 0.078189 
393.361481 0.03175 
394.842682 0.039363 
400.20816 0.038448 
400.847168 0.041158 
407.309387 0.037397 
411.270599 2.468228 
412.274475 0.246063 
414.873779 0.03458 
415.158752 0.605013 
418.251831 0.152149 
426.619385 0.088517 
427.26535 1.866695 
428.217682 0.031596 
428.268921 0.116815 
429.281097 0.259157 
443.262512 0.083122 
445.276611 1.329928 
447.291779 0.583722 
447.346069 0.97432 
448.34552 0.097815 
451.67041 0.097744 
452.895355 0.068657 
453.274597 0.112944 
458.39212 0.108762 
459.24942 0.038713 
462.245911 0.078031 
469.312866 11.778407 
470.150726 0.099668 
470.31604 2.78468 
471.288116 0.240738 
471.323303 0.091282 
472.229645 0.078398 
473.271271 1.389562 
474.209839 0.030456 
474.275238 0.153268 
475.772247 0.084839 
480.255402 0.032968 
484.230682 0.066822 
485.23349 0.034056 
485.307404 7.465092 
486.208466 0.161939 
486.245575 0.210159 
486.311615 0.845685 
488.188965 0.036281 
488.223541 0.087683 
496.122528 0.0382 
497.256958 0.038395 
504.678131 0.069649 
514.264038 1.355314 
514.342224 0.136053 
514.416992 0.078903 
515.270142 6.45652 
515.318115 33.641384 
515.389771 15.150868 
516.09967 0.051075 
516.255493 10.05104 
516.320679 6.330154 
516.351929 5.827772 
516.389771 7.720295 
517.256165 2.107877 
517.29541 2.828239 
517.335571 10.960507 
517.369385 19.06702 
518.233643 1.752481 
518.270447 2.207063 
518.33197 2.757392 
518.376526 2.800306 
535.854919 0.102185 
537.225769 2.988305 
END IONS

