BEGIN IONS
PEPMASS=375.061
CHARGE=1+
COMPOUNDNAME=Griseofulvin
LIBRARYQUALITY=3
SMILES=N/A
INCHIKEY=DDUHZTYCFQRHIY-RBHXEPJQSA-N
INCHI=InChI=1S/C17H17ClO6/c1-8-5-9(19)6-12(23-4)17(8)16(20)13-10(21-2)7-11(22-3)14(18)15(13)24-17/h6-8H,5H2,1-4H3/t8-,17+/m1/s1
MSLEVEL=2
SOURCE_INSTRUMENT=N/A-ESI-QFT
FILENAME=library_mgf.mgf
SEQ=*..*
IONMODE=positive
ORGANISM=MONA
NAME=Griseofulvin [M+Na]+
PI=MoNA
DATACOLLECTOR=MoNA:VF-NPL-QEHF001070
PUBMED=N/A
SUBMITUSER=mwang87
TAGS=
SPECTRUMID=CCMSLIB00004692133
SCANS=1070
50.177147 0.081134 
50.985378 0.079939 
51.503853 0.061971 
53.002861 0.191893 
53.03933 2.057715 
54.153652 0.080934 
54.481335 0.08247 
55.018559 1.951117 
55.054939 12.824026 
56.013599 0.072542 
56.050182 1.022886 
56.05825 0.175894 
56.206982 0.07233 
56.27837 0.060013 
56.407112 0.103062 
56.495892 0.115101 
56.610294 0.126415 
56.956276 0.13174 
56.965477 0.709234 
57.034203 4.711974 
57.070572 11.075596 
57.210751 0.073587 
57.902649 0.072139 
58.065804 4.599239 
58.138054 0.107693 
58.226734 0.117935 
59.049835 12.846945 
59.061069 17.704329 
59.062695 0.064889 
59.775883 0.114251 
59.845219 0.121198 
59.895348 0.067397 
60.04509 1.1553 
60.053188 0.083014 
60.081501 0.207302 
60.558826 0.078849 
61.011307 3.20295 
61.036083 0.124898 
62.019135 2.496209 
62.060749 0.164963 
62.246628 0.069775 
62.819862 0.083531 
62.945477 0.077703 
62.982414 1.942954 
62.990517 0.083356 
63.95715 0.074433 
65.039253 0.275325 
66.04052 0.067391 
66.563072 0.128602 
66.84343 0.072844 
67.054863 8.31 
67.374344 0.067583 
67.5905 0.112553 
67.742096 0.08419 
68.503532 0.080701 
68.997925 0.078589 
69.034126 6.661566 
69.037369 0.06904 
69.070526 8.406007 
70.065773 6.148218 
70.298706 0.082901 
71.049751 7.605912 
71.086128 4.501333 
72.045029 0.200931 
72.08139 14.727951 
72.08947 0.087827 
72.114723 0.070875 
72.67276 0.08311 
72.937553 0.23769 
73.029022 1.066474 
73.047394 12.076863 
73.065392 4.028049 
74.046906 0.463383 
74.050697 0.306044 
74.060669 1.161944 
74.068825 0.093458 
74.097404 0.072835 
74.57032 0.088437 
75.044586 12.374218 
75.20845 0.084045 
76.048103 0.077833 
79.021675 3.101556 
79.054794 14.927387 
79.056992 0.138873 
79.14949 0.088297 
80.049973 3.303657 
80.058151 0.154013 
81.033958 1.805414 
81.070396 16.034735 
82.065628 0.731061 
82.073792 0.243389 
82.522163 0.134546 
83.013374 0.253458 
83.046883 0.080319 
83.04966 2.55788 
83.086014 4.879654 
83.701599 0.122095 
84.044922 0.560856 
84.081261 0.971596 
84.604027 0.05971 
85.028862 0.817714 
85.065262 4.440232 
85.101639 1.305256 
86.060455 1.909808 
86.096916 1.343371 
87.044533 20.930429 
88.047836 0.588396 
88.076141 3.837112 
89.060165 100.0 
89.464455 0.062864 
90.063446 4.172561 
90.072029 0.079841 
90.947906 0.093666 
91.054626 16.058355 
91.05777 36.434616 
92.057426 4.827133 
92.061081 2.315117 
92.367615 0.141628 
93.036987 0.257733 
93.054611 6.277367 
93.07029 29.597698 
93.27491 0.076117 
94.073578 1.30921 
95.013107 0.088156 
95.01638 0.085597 
95.04953 11.052142 
95.085922 12.289628 
95.638268 0.076505 
96.044868 0.096746 
96.081245 0.104734 
96.089088 0.123619 
96.140999 0.077749 
97.028587 0.124071 
97.065125 3.292209 
97.101456 1.797768 
97.818474 0.083223 
98.060509 0.597136 
98.096809 0.103377 
99.044411 2.09567 
99.080765 0.347592 
100.075905 0.201587 
100.43309 0.118928 
101.003571 0.087077 
101.060005 7.722812 
102.063622 0.071172 
102.091621 0.188783 
103.039238 1.232172 
103.054504 4.846444 
103.075661 0.227187 
104.049911 0.087744 
104.87088 0.117559 
105.033798 0.492463 
105.045044 1.103015 
105.070091 9.963218 
105.073219 0.564765 
106.06546 0.12167 
106.073372 0.187548 
106.190948 0.080692 
107.021111 0.088276 
107.049309 1.578036 
107.052963 0.111872 
107.070374 0.115717 
107.085793 9.966716 
108.235237 0.114022 
109.065041 3.064174 
109.101357 6.538775 
109.966011 0.062527 
110.006882 0.163365 
110.060318 0.684354 
111.026169 0.077049 
111.044273 1.233744 
111.080681 8.068119 
111.104828 0.082926 
112.068748 0.093345 
113.027214 0.121033 
113.059921 0.931615 
114.091682 0.167075 
115.054504 0.30532 
116.070732 0.227934 
116.985802 0.090917 
117.054588 0.124895 
117.065819 0.070876 
117.069992 3.162205 
117.632523 0.083038 
118.065239 0.269908 
118.086433 0.418476 
119.049309 1.249184 
119.085663 7.817929 
120.044594 0.261785 
120.08091 1.893335 
120.142052 0.124771 
121.028549 1.098806 
121.060349 0.178387 
121.064934 22.342812 
121.10128 4.668718 
121.651451 0.082129 
122.059975 0.100517 
122.068169 0.66873 
122.096642 0.121222 
123.04406 0.464567 
123.080391 1.089076 
123.116913 1.410069 
123.436913 0.106936 
124.075874 0.878756 
125.023651 0.080803 
125.059853 0.411801 
125.096115 1.376108 
126.091095 0.192653 
127.402809 0.12183 
128.061951 0.585343 
128.070892 0.164044 
128.914078 0.077464 
129.069839 2.228777 
129.162064 0.073628 
130.049957 0.07681 
130.065109 5.303966 
130.979492 0.108789 
131.049118 0.315859 
131.069901 0.721884 
131.085403 1.287213 
132.080765 0.124307 
133.064713 4.42536 
133.085693 2.462601 
133.101089 0.957003 
134.059952 0.193296 
134.096176 0.554646 
134.956223 0.100008 
134.978653 1.184972 
135.044022 2.127233 
135.080368 2.092895 
135.11676 10.027894 
135.279861 0.084018 
135.641861 0.124105 
136.075851 0.089265 
136.112411 0.073501 
137.059586 2.027363 
137.073196 0.08509 
137.096176 0.261985 
138.054932 0.575811 
138.090775 0.138033 
139.039093 0.078177 
139.074768 0.093061 
139.111481 0.187429 
140.739578 0.105918 
141.069717 0.731111 
142.077789 0.165703 
143.073029 0.156439 
143.085373 2.16989 
144.080719 2.027646 
145.06459 1.440058 
145.100998 0.404644 
146.059952 1.310852 
146.974289 0.087145 
147.044022 0.583175 
147.080276 0.794053 
147.116623 0.164424 
148.039398 0.369488 
148.075638 0.199194 
148.971832 0.08211 
149.023514 0.298671 
149.059631 1.532681 
149.096085 0.465645 
149.106979 0.679021 
149.132385 0.789319 
149.578995 0.089374 
150.054581 0.257419 
150.091278 1.368129 
150.950958 0.785493 
151.038956 0.807022 
151.075119 0.657331 
151.096466 0.546641 
151.111115 0.094834 
152.070343 0.223016 
152.106781 1.29308 
152.529602 0.082365 
152.966125 0.071186 
152.989105 0.698737 
153.054459 0.086711 
153.069763 1.336437 
153.127151 0.618836 
154.065079 3.94334 
154.07753 0.079989 
155.085464 1.532994 
155.833176 0.131931 
156.080734 1.121017 
157.064621 0.579737 
157.101212 0.58227 
158.059891 0.486347 
158.096298 0.194672 
159.043808 0.311367 
159.068298 0.175925 
159.080231 0.468075 
159.116669 0.191247 
160.038895 0.09899 
160.075623 1.394727 
161.023361 0.380297 
161.047012 0.79856 
161.059448 0.821884 
161.095993 0.22219 
162.055099 1.372552 
162.091446 0.261261 
163.038712 1.091108 
163.075058 0.330287 
164.034073 0.448446 
164.070633 0.321276 
165.054611 4.795895 
165.070023 0.337534 
165.090836 0.320201 
165.126923 0.068161 
166.077545 0.527562 
166.085861 0.192353 
167.005295 0.184442 
167.055801 0.140064 
167.072449 0.842983 
167.085556 1.793993 
167.117828 0.353702 
168.065384 0.10975 
168.080658 4.945716 
168.101456 0.112462 
168.961716 0.202985 
169.052261 0.218939 
169.064438 0.592715 
169.076126 0.221787 
169.088501 0.795218 
169.101028 0.206407 
170.059799 2.112768 
170.09639 1.44015 
171.044113 0.090577 
171.062485 0.105808 
171.08017 1.656867 
171.09166 0.723724 
171.104126 1.658081 
172.005142 0.095298 
172.039246 3.220362 
172.075546 0.957688 
172.088211 0.091391 
173.059418 0.539341 
173.095947 0.198976 
173.132584 0.123338 
174.054794 1.313984 
174.0914 1.205532 
175.038773 0.695756 
175.062653 2.086067 
175.075424 0.425345 
175.80011 0.08399 
176.033035 0.089078 
176.070404 1.089155 
177.041992 0.097068 
177.054413 1.131119 
177.091095 0.081598 
178.049805 2.67894 
178.077408 0.191334 
178.086075 0.191856 
179.033768 4.335661 
179.085098 0.471151 
180.065323 0.247305 
180.080414 0.081454 
181.06488 0.592432 
181.088333 2.15685 
181.101151 0.366683 
182.059875 0.141614 
182.072556 0.705183 
182.096375 4.88031 
182.15448 0.084143 
183.066422 0.096082 
183.080414 1.827779 
183.104156 0.182218 
183.770523 0.091803 
184.075775 1.408433 
184.08812 0.083649 
184.112228 0.402559 
185.059601 0.610773 
185.07074 0.245404 
185.083603 0.231674 
185.095795 0.883624 
185.119934 1.138845 
186.054764 2.655734 
186.091446 0.735185 
187.026001 0.205817 
187.06218 0.217485 
187.075104 0.545557 
188.03392 2.17021 
188.070526 4.265882 
188.106522 0.102223 
189.018097 0.18286 
189.054245 0.450789 
189.078156 0.314359 
189.090469 0.079978 
190.049667 7.041566 
190.086578 0.243852 
191.033569 0.52766 
191.057571 0.772373 
191.069778 0.495529 
192.028839 0.152019 
192.065552 0.465816 
192.96167 0.260058 
193.049454 1.618158 
193.10112 0.37852 
194.076233 0.08906 
194.096466 0.666339 
194.957153 0.101393 
195.065201 0.115778 
195.080521 1.971603 
195.104187 1.56574 
196.040527 0.115756 
196.075562 1.444053 
196.08786 0.346499 
196.111771 0.807328 
197.0448 0.628923 
197.059296 0.357577 
197.083511 0.307024 
197.095764 0.712856 
198.054901 3.089477 
198.067062 0.149558 
198.091324 1.854905 
198.1008 0.085927 
198.127472 0.616507 
199.039474 0.132167 
199.062668 3.012002 
199.074936 1.896966 
199.111359 0.207772 
200.034515 0.284659 
200.070389 3.684596 
200.10675 1.264909 
201.054794 0.699 
201.065781 0.257182 
201.078262 2.875024 
201.090714 0.508559 
202.049759 9.771515 
202.06015 0.135466 
202.086273 4.486764 
202.533463 0.1404 
202.949081 0.115534 
203.033844 0.195274 
203.057251 1.130387 
203.069946 1.002852 
203.094009 6.783337 
203.104568 0.110865 
204.065384 9.023468 
204.076157 0.472206 
204.09845 0.098914 
205.012375 0.134736 
205.049362 0.508866 
205.073196 0.763051 
205.702942 0.109439 
206.044846 0.426028 
206.081299 0.59331 
206.977493 0.571243 
207.065231 2.212837 
207.081451 0.101834 
207.090576 0.074757 
208.060226 0.354712 
208.076111 0.08414 
208.111572 0.6828 
209.059875 0.479407 
209.082642 0.271823 
209.095871 0.733851 
209.115295 0.105755 
210.055252 0.187955 
210.091003 2.960469 
210.127472 8.924205 
210.972122 0.238625 
211.063812 0.169671 
211.075333 1.778398 
211.099075 0.076148 
211.112 0.085664 
211.132889 0.241853 
212.07045 2.903697 
212.082001 0.112203 
212.106964 1.56261 
213.054825 0.723198 
213.07811 3.310398 
213.090637 1.604461 
213.11174 0.074076 
214.0495 8.833895 
214.060715 0.095325 
214.086182 3.514309 
214.096817 0.090492 
214.122574 0.703654 
214.413986 0.116038 
214.438431 2.231697 
214.448029 1.35725 
215.033829 0.08606 
215.057495 6.332849 
215.069626 1.363852 
215.090027 0.878414 
216.029831 0.091819 
216.065308 5.422561 
216.076141 0.08602 
216.101562 1.189983 
217.04921 0.483511 
217.073303 3.819472 
217.085342 0.691833 
217.106232 0.384435 
218.044373 0.511932 
218.0811 10.990855 
218.94519 0.103478 
219.065125 0.316504 
219.088211 0.120791 
220.06015 6.60721 
220.219193 0.086781 
220.960083 0.290817 
221.044876 0.088604 
221.066299 0.073683 
221.082794 0.082387 
222.076645 0.307919 
222.090546 0.876748 
223.039093 0.116842 
223.060532 0.087653 
223.075226 0.831778 
224.070862 0.617098 
224.082077 0.146782 
224.106949 0.910311 
225.042847 0.09892 
225.054245 0.305759 
225.077866 0.720296 
225.090866 1.541946 
225.138611 0.093902 
226.050049 0.243795 
226.063293 0.065067 
226.085938 4.666188 
226.096451 0.085658 
226.122452 1.384061 
227.057526 5.621646 
227.069809 2.737536 
227.094009 1.035746 
227.106476 4.794896 
228.065216 7.757133 
228.101532 4.469973 
229.049454 0.511761 
229.073349 12.098187 
229.085434 1.353831 
230.080841 15.18246 
230.117462 2.598812 
230.980179 0.090223 
231.030014 0.210909 
231.052414 0.345217 
231.064468 0.414138 
231.084976 1.472748 
232.060425 2.191151 
232.096649 2.029644 
232.904358 0.137506 
233.068222 6.114911 
233.080948 0.226532 
233.103653 0.191429 
234.075745 1.595066 
234.091431 0.101494 
234.112503 0.398779 
234.939407 0.309383 
235.059265 0.095213 
235.075699 0.110872 
235.097092 0.349154 
235.121719 0.071527 
235.940475 0.085607 
236.09259 0.075999 
236.106583 0.940789 
236.954361 1.443187 
237.054398 0.579546 
237.077469 0.325759 
237.090668 0.563665 
237.138474 0.67408 
238.085876 3.148925 
238.122574 0.702876 
239.069931 0.978344 
239.092697 0.790027 
239.105835 0.13285 
239.392593 0.082817 
240.065308 1.080856 
240.101456 4.563428 
240.138107 1.134923 
240.268509 0.080232 
240.963638 0.092237 
241.001282 0.144352 
241.049744 0.331307 
241.073135 5.571425 
241.085785 3.524391 
241.109283 10.334477 
242.080887 28.287464 
242.117294 14.438622 
242.152695 0.068956 
243.065567 0.712963 
243.087769 4.37018 
243.100784 0.701075 
243.123962 1.948993 
244.060257 15.300919 
244.096466 3.538805 
244.132492 1.705721 
245.045242 0.120472 
245.065918 0.526315 
245.081223 0.107173 
245.099503 0.351068 
246.07576 23.75783 
246.113052 0.157513 
247.059586 0.100134 
247.080795 2.749996 
247.120392 0.472517 
248.055191 1.284952 
248.091949 0.159058 
250.071075 1.704771 
250.085419 0.6808 
251.022079 0.097668 
251.07019 0.397787 
252.064758 0.846756 
252.101639 2.534909 
252.468216 0.130311 
252.949448 3.196615 
253.072235 0.086247 
253.086075 0.544781 
253.108368 0.466399 
254.080887 3.879062 
254.117172 5.592315 
255.065018 0.805056 
255.088028 0.568676 
255.101303 1.179832 
255.122437 0.546432 
255.23143 8.460144 
255.245483 0.086358 
256.060333 0.780402 
256.096405 20.219296 
256.132294 0.537056 
256.235443 0.755315 
257.068024 30.168436 
257.080872 1.282335 
257.100586 3.676417 
258.07605 18.731855 
258.112213 11.490544 
259.012573 0.098805 
259.060242 0.317783 
259.08316 6.801436 
259.096893 1.068021 
259.116425 1.235292 
259.155853 0.081833 
260.091583 18.359526 
260.127625 0.615466 
261.096039 1.725489 
261.130859 0.095996 
262.107056 0.252961 
262.89505 0.117727 
263.078766 1.201063 
263.153564 0.491521 
264.086731 0.086521 
264.101349 0.762326 
264.15744 0.37214 
265.08551 0.123065 
265.106964 0.096803 
265.160706 0.773891 
266.08075 0.406865 
266.11734 0.912435 
267.087769 0.576783 
267.101959 0.14926 
267.145874 0.137889 
268.096985 3.117358 
268.132904 2.330291 
268.978088 0.096705 
269.080627 0.689296 
269.10437 8.676935 
269.137299 0.077476 
269.267761 0.092887 
269.977692 0.120017 
270.060181 0.106721 
270.075958 7.449859 
270.112152 26.926537 
270.148468 0.18986 
270.26947 0.096398 
270.975403 1.914254 
271.082886 1.465859 
271.116211 3.456647 
271.131226 0.135649 
272.091736 4.265975 
272.127655 2.738241 
273.055573 0.191288 
273.076996 0.10894 
273.097382 4.360812 
273.115143 0.207625 
273.131622 5.601918 
274.07074 0.508681 
274.106537 4.201799 
274.134033 0.758687 
274.913849 0.413666 
275.110229 1.169731 
276.086792 0.344494 
280.096741 4.201509 
280.13266 0.120646 
280.262238 0.137318 
281.102295 0.298581 
282.075867 0.428354 
282.112244 5.284002 
283.059479 0.111079 
283.08255 0.38346 
283.097351 0.0929 
283.116943 0.221564 
283.263306 0.322235 
284.091217 11.293907 
284.127625 19.12225 
284.265991 2.995842 
285.009796 1.306739 
285.075439 1.002891 
285.096191 0.363341 
285.135406 11.591886 
286.009705 0.757567 
286.106903 56.676151 
286.142517 2.62408 
286.179443 0.62786 
287.006531 5.738689 
287.110474 4.098194 
287.147064 0.109447 
288.006622 1.56594 
288.08493 0.526644 
288.122711 26.634293 
289.126282 4.033589 
289.169495 0.298111 
290.102081 0.802147 
292.131592 0.143286 
294.11203 0.175721 
296.092346 0.853249 
296.127808 4.113162 
297.075623 0.386073 
297.098083 0.691455 
297.132538 0.874908 
298.109314 9.312209 
298.142914 0.841504 
298.273499 0.824788 
299.113953 0.500962 
299.1474 0.095612 
300.078796 2.027803 
300.122772 4.311202 
300.15921 0.328328 
300.195343 1.474002 
301.059113 0.649073 
301.129883 5.56391 
302.058624 0.339555 
302.102081 8.648775 
302.137787 3.094952 
303.10556 0.393316 
303.141998 0.232217 
305.017365 0.099494 
308.090607 0.684523 
308.935455 0.098439 
310.107056 0.394601 
310.143188 0.407002 
312.12265 13.57764 
313.126678 0.751301 
313.203735 0.489657 
314.102722 1.315195 
314.138275 12.670044 
315.142517 2.156242 
316.08139 0.218534 
316.118927 11.769414 
316.153381 2.787615 
317.121155 0.315931 
317.157745 0.126044 
318.132782 0.741731 
319.136444 1.080234 
319.171753 0.100384 
320.110718 0.149636 
323.11322 0.143243 
324.120361 0.150645 
326.006378 0.137422 
326.341339 2.956035 
327.343475 0.11729 
328.109955 0.295605 
328.152924 0.115186 
328.188354 0.098489 
329.160126 0.279275 
330.089661 0.124342 
330.133545 0.289679 
330.169159 0.650003 
331.096161 6.623808 
331.173309 0.092864 
331.214722 0.10013 
332.101074 0.370938 
333.074829 0.108185 
333.09375 1.088316 
333.113556 0.205506 
334.127441 0.090726 
338.138367 0.819252 
342.133423 0.314902 
342.996918 0.208182 
343.223907 0.102882 
343.99704 0.472379 
344.111145 0.142153 
344.148499 7.744285 
344.995148 0.113103 
345.151917 0.361196 
348.144806 0.152546 
357.921356 0.086504 
358.196381 0.096904 
358.310181 0.733689 
373.185333 0.264312 
373.217926 4.190646 
373.247192 2.673127 
374.115631 2.107456 
374.158997 0.39093 
374.187561 0.515787 
374.224365 0.663981 
374.269043 0.501902 
374.30365 0.085598 
374.378174 0.076662 
374.845886 0.082561 
375.159576 0.546822 
375.199158 2.115883 
375.234467 5.63789 
375.261017 0.39436 
375.33667 1.915788 
376.112457 0.42214 
376.140686 0.090475 
376.175781 0.67962 
376.206085 0.371623 
376.239685 2.392081 
376.282623 0.166611 
377.141602 2.817474 
377.17749 5.180447 
377.213715 1.478392 
383.486786 0.10029 
END IONS

