BEGIN IONS
PEPMASS=353.136
CHARGE=1+
COMPOUNDNAME=Gibberellin A4&A7
LIBRARYQUALITY=3
SMILES=N/A
INCHIKEY=SEEGHKWOBVVBTQ-UKJRIFTCSA-N
INCHI=InChI=1S/C19H22O5/c1-9-7-18-8-10(9)3-4-11(18)19-6-5-12(20)17(2,16(23)24-19)14(19)13(18)15(21)22/h5-6,10-14,20H,1,3-4,7-8H2,2H3,(H,21,22)/t10-,11-,12+,13-,14-,17+,18+,19-/m1/s1
MSLEVEL=2
SOURCE_INSTRUMENT=N/A-ESI-QFT
FILENAME=library_mgf.mgf
SEQ=*..*
IONMODE=positive
ORGANISM=MONA
NAME=Gibberellin A4&A7 [M+Na]+
PI=MoNA
DATACOLLECTOR=MoNA:VF-NPL-QEHF006593
PUBMED=N/A
SUBMITUSER=mwang87
TAGS=
SPECTRUMID=CCMSLIB00004697656
SCANS=6593
50.075645 0.151023 
50.23278 0.112406 
50.60844 0.107653 
50.963783 0.117041 
51.067501 0.098818 
52.05217 0.080843 
52.331135 0.080075 
52.886143 0.114175 
53.003033 0.666856 
53.039433 1.098177 
53.53426 0.171395 
53.804867 0.106721 
53.883404 0.126108 
54.172676 0.097989 
55.018642 12.665726 
55.055016 46.552486 
56.050278 2.979972 
56.058369 0.263243 
56.435337 0.123357 
56.909084 0.098509 
56.965553 1.579952 
57.034271 8.760867 
57.07066 63.411461 
58.065907 18.06484 
58.073997 1.161383 
58.108204 0.104971 
58.633209 0.200731 
59.049908 9.638135 
59.051315 0.098533 
59.061169 0.588123 
59.140923 0.088154 
60.045181 2.752639 
60.27993 0.079534 
60.28516 0.203358 
61.011448 2.035975 
62.019207 0.285979 
62.060848 0.352583 
62.982441 1.927566 
64.095695 0.094168 
65.039345 0.590984 
65.459923 0.128573 
67.054947 72.538712 
67.383141 0.106158 
67.904671 0.117788 
68.050232 0.46903 
68.058319 2.34065 
69.034203 10.498686 
69.045425 0.155546 
69.070564 59.890465 
69.821106 0.109188 
70.029388 0.631842 
70.065857 7.108117 
70.073891 0.697742 
70.655235 0.16285 
70.674377 0.142259 
70.708473 0.1498 
71.04982 12.436139 
71.086189 57.078693 
72.045113 0.759707 
72.081459 2.27946 
72.089569 1.837661 
73.029129 0.156226 
73.047493 6.205444 
73.065468 4.099385 
74.032303 0.137735 
74.097107 1.604743 
74.356071 0.173837 
75.002495 0.110006 
75.056015 0.112771 
76.07637 2.778835 
76.490891 0.134466 
79.002464 0.114505 
79.02182 7.757123 
79.054825 36.97451 
79.64843 0.196879 
80.001457 0.116864 
80.050133 1.20416 
80.058243 0.681906 
80.069633 0.116841 
81.019028 0.437224 
81.034149 4.008185 
81.070457 100.0 
82.065727 1.867446 
82.073868 4.36001 
83.022217 0.198374 
83.049728 14.198563 
83.052238 0.154214 
83.086105 49.416054 
84.045013 3.033462 
84.081352 4.159341 
84.089462 1.232864 
84.16687 0.121197 
85.028992 3.53122 
85.065346 11.44328 
85.101761 25.258032 
85.201668 0.232162 
86.060654 1.687612 
86.096977 10.424862 
86.105125 0.516259 
86.490479 0.098069 
86.830002 0.081457 
87.044601 8.117154 
88.022179 0.317211 
88.039825 0.943255 
88.076256 0.497426 
88.577011 0.108189 
89.060219 54.28112 
90.063591 1.620091 
91.054733 28.33633 
91.057915 35.644791 
92.058151 0.519218 
93.033997 0.119203 
93.036964 0.124921 
93.066986 0.403673 
93.070351 49.316921 
94.065605 1.47391 
94.073715 1.241629 
95.049599 15.589688 
95.060898 0.104588 
95.085991 95.338692 
96.044876 0.851391 
96.081268 1.143689 
96.08934 4.327725 
97.02887 2.23668 
97.039963 0.130659 
97.065277 19.060152 
97.076622 0.506075 
97.09803 0.322953 
97.101601 35.275307 
97.104836 0.551928 
97.66436 0.132592 
98.060509 2.637553 
98.06871 0.159194 
98.096886 2.769284 
98.10498 0.255434 
98.461647 0.170771 
98.975853 0.494675 
99.027344 0.108872 
99.04454 5.149358 
99.080879 15.160258 
99.092087 0.719417 
99.597191 0.132785 
99.903633 0.177149 
100.076157 5.618007 
100.084076 0.13525 
100.112579 0.544514 
101.023788 0.128465 
101.060127 5.775289 
101.096542 0.13091 
101.354477 0.125626 
102.055359 1.33693 
102.063545 0.122295 
103.054565 0.473239 
103.059158 0.12965 
103.075775 3.552363 
105.033859 0.95203 
105.045135 0.284365 
105.070229 29.598316 
106.065331 0.195651 
106.073647 1.430658 
106.775009 0.11364 
107.049515 9.795822 
107.070801 1.302704 
107.085907 48.082897 
107.089973 0.225061 
107.579201 0.125418 
108.044846 0.446155 
108.081146 2.09269 
108.089188 2.88736 
109.028786 2.068711 
109.065109 16.97209 
109.101494 49.763908 
110.024086 0.288442 
110.060341 5.174616 
110.071724 0.169426 
110.096695 1.000027 
110.104881 2.390935 
111.04435 6.889637 
111.08078 12.463014 
111.117249 4.205811 
111.550674 0.178638 
112.039658 0.224062 
112.075943 2.47298 
112.112541 0.458783 
113.023697 0.201726 
113.060013 3.012102 
113.096451 1.590691 
114.055267 2.344171 
114.091713 0.736728 
114.427078 0.11052 
115.039284 0.159998 
115.054405 0.361249 
115.087372 0.134148 
116.053154 0.619027 
116.070786 0.760189 
116.98613 1.393185 
117.070091 11.582137 
118.073402 0.178796 
118.899399 0.170932 
118.947792 0.39304 
119.049423 1.160257 
119.085732 29.33205 
119.201263 0.192456 
120.081047 7.267379 
120.089172 1.25579 
121.039833 0.833652 
121.064995 12.274949 
121.084305 0.859357 
121.101364 32.810978 
121.827286 0.134189 
122.060371 2.043467 
122.068222 0.541006 
122.096748 0.542223 
122.104782 1.278461 
123.044266 5.127405 
123.063454 0.132699 
123.068291 0.32941 
123.080643 20.461929 
123.091637 0.376496 
123.116974 16.008795 
124.039436 1.398617 
124.075897 4.161531 
124.08387 0.126989 
124.112335 0.68039 
124.120384 0.325699 
124.964348 0.120293 
125.023743 0.288981 
125.059853 9.232771 
125.096306 14.140605 
126.055344 0.480679 
126.091515 5.72444 
126.099548 0.303422 
126.127899 0.220585 
127.039169 0.28592 
127.075706 0.803029 
127.086021 0.170675 
127.112 0.72295 
127.922798 0.122352 
128.070923 0.317084 
128.143753 0.133032 
129.054794 0.347981 
129.070007 5.64072 
130.065125 0.128455 
130.086182 0.199692 
131.049362 0.687642 
131.085602 20.180996 
131.090958 0.14899 
132.065674 1.609857 
132.080887 0.515453 
132.088699 0.388902 
133.064911 5.83195 
133.086029 5.256596 
133.101212 26.60747 
134.060181 0.566014 
134.068024 0.143837 
134.09642 2.362054 
134.10463 1.752888 
134.979279 0.092161 
134.996445 2.691052 
135.044098 2.641557 
135.08049 17.792904 
135.116821 17.981102 
136.075699 4.977311 
136.084076 0.689516 
136.112183 0.362638 
136.120239 0.337607 
136.630493 0.194718 
136.734894 0.149948 
136.920181 0.15793 
136.958084 2.051348 
137.011887 0.817165 
137.059769 8.216343 
137.071304 0.139645 
137.096115 13.823807 
137.13266 2.314584 
138.054916 2.084262 
138.091415 4.496538 
138.099655 0.25786 
138.127777 0.855672 
138.135803 0.124807 
139.039185 0.370053 
139.075348 18.141525 
139.086151 0.141102 
139.11174 2.851073 
139.565399 0.110797 
140.07074 0.504258 
140.107025 0.20676 
141.054764 0.339414 
141.070007 1.066764 
141.091064 0.605764 
141.127457 0.665411 
142.073364 0.338657 
142.086624 0.602046 
142.159012 7.898042 
142.348175 0.178715 
143.08107 3.367761 
143.08609 7.255394 
143.096298 0.147659 
143.162781 0.176769 
143.746323 0.113442 
144.081711 0.125978 
144.088989 0.132815 
144.185776 0.12887 
145.064789 3.614492 
145.101166 20.061014 
146.060226 0.835084 
146.06694 0.119842 
146.096909 0.558905 
146.104538 0.763941 
147.043732 0.691575 
147.080475 11.396391 
147.116791 15.197788 
147.958908 0.172735 
148.075638 1.078998 
148.112183 0.971236 
148.120239 0.617128 
149.059799 6.705079 
149.096176 13.792461 
149.132553 8.03693 
150.054901 0.407166 
150.067795 1.657677 
150.0914 2.597454 
150.09938 0.201242 
150.127594 0.16151 
151.038895 0.305374 
151.075455 5.106736 
151.096237 0.13051 
151.11174 8.34255 
151.148056 0.262649 
151.943665 3.240626 
152.070908 1.91419 
152.078796 0.144627 
152.107132 3.16632 
152.115112 0.351472 
152.143692 0.189077 
152.989273 0.369764 
153.007156 0.269327 
153.054688 1.038407 
153.091125 7.963859 
153.127441 1.358725 
153.523788 0.138522 
154.086349 0.292328 
154.122696 3.557761 
154.968491 6.085398 
155.022369 0.280839 
155.070282 0.142827 
155.085724 3.591411 
155.106888 0.113171 
155.14328 0.219139 
155.944016 0.116585 
156.093246 0.351874 
156.101715 0.418655 
156.138412 0.132035 
157.064835 0.469805 
157.101334 10.43848 
157.751541 0.082349 
158.104462 0.154625 
158.632904 0.139342 
159.080444 5.719578 
159.116806 14.134778 
160.06044 11.767221 
160.075867 0.503272 
160.111877 0.130244 
161.05983 2.871315 
161.0961 12.458982 
161.132507 7.821128 
162.054977 0.168584 
162.091446 2.78851 
162.136063 0.369473 
162.775467 0.191157 
163.0392 0.115702 
163.075333 5.2564 
163.111771 7.525015 
163.148117 2.04626 
164.070557 1.802386 
164.107239 3.99871 
165.05481 0.163238 
165.091187 4.856363 
165.127518 3.100203 
166.078598 0.146927 
166.086319 3.235447 
166.093887 0.19339 
166.122711 3.159074 
167.070053 0.855479 
167.085449 0.736005 
167.106796 4.212939 
167.118073 0.374087 
167.143402 0.163681 
167.826462 0.199888 
167.976349 0.124749 
168.094025 0.31965 
168.102188 2.313068 
168.13768 0.167607 
168.174881 3.330588 
169.013153 0.100728 
169.101273 4.629034 
169.12262 0.12371 
169.854614 0.144069 
169.954407 3.264785 
170.109222 1.007921 
170.117432 0.173951 
171.044083 0.475185 
171.08075 2.82031 
171.116852 7.624821 
172.076004 0.154326 
172.112701 0.146966 
172.120087 0.295548 
172.133163 0.140131 
172.979385 1.148391 
173.059677 0.589246 
173.096191 9.867264 
173.132629 5.860111 
174.091431 1.046805 
174.135849 0.264012 
175.075516 4.779101 
175.111908 8.320675 
175.148315 2.576638 
176.070724 1.318992 
176.107208 2.840437 
176.143707 0.35329 
177.055115 0.163191 
177.090973 4.77294 
177.127518 4.836046 
177.164261 0.378657 
178.086288 1.617119 
178.122681 2.425789 
179.070221 1.255865 
179.085587 0.597476 
179.106827 4.355303 
179.143127 0.660352 
180.06546 0.292233 
180.102005 2.349623 
180.138367 0.637432 
180.868607 0.128619 
181.085724 0.622969 
181.101089 3.012952 
181.122589 0.882134 
182.081451 0.483754 
182.10849 0.138517 
182.117813 0.118588 
182.15416 1.307308 
183.08049 0.893071 
183.117142 4.563141 
185.096191 3.906605 
185.114944 3.107025 
185.132568 8.721662 
186.091431 0.427474 
186.907867 0.085997 
187.075378 0.905578 
187.094482 0.902838 
187.112045 5.040094 
187.148209 2.367979 
188.07077 0.498723 
188.107162 0.531831 
189.091278 3.309781 
189.127472 4.080079 
189.164154 0.721215 
190.049774 0.146641 
190.086334 1.534847 
190.122482 1.311042 
191.070312 1.051536 
191.106781 5.559977 
191.116989 0.215678 
191.143387 0.795827 
191.154099 0.384826 
191.377945 0.127864 
192.064758 0.142756 
192.101974 2.309617 
192.138321 1.659635 
193.049667 0.160157 
193.086014 2.964999 
193.101166 1.671927 
193.122498 2.197263 
193.132797 0.16807 
193.852249 0.122097 
194.08168 0.723203 
194.117615 1.862718 
194.154251 0.31355 
195.08046 0.65324 
195.101791 0.605248 
195.117157 2.348437 
195.149216 1.280633 
196.060654 0.312873 
196.08699 0.215051 
196.096466 0.235197 
196.132996 0.112204 
196.961533 0.65604 
197.015121 1.238289 
197.09639 2.153388 
197.13269 2.919122 
197.775803 0.125258 
199.075424 0.775249 
199.111816 4.934466 
199.148041 1.642753 
200.069778 0.187856 
200.106583 0.401379 
201.087708 6.076375 
201.127441 2.760803 
201.137939 0.296673 
201.163849 1.636345 
202.086151 0.516422 
202.122543 0.987696 
203.106735 3.134403 
203.143311 1.084148 
203.179291 0.160531 
203.945206 0.144159 
204.092377 0.124899 
204.10199 1.059012 
204.111023 0.133677 
204.138565 1.132922 
204.99556 0.440658 
205.085815 0.791942 
205.09996 0.132471 
205.122498 6.611745 
205.132721 0.294794 
205.159103 0.35914 
206.081314 0.615084 
206.117645 3.49382 
206.153473 0.950758 
206.926575 0.144238 
207.102264 0.738456 
207.116364 0.739497 
207.125885 0.421524 
207.138382 0.61664 
208.097046 0.405822 
208.133347 2.174658 
209.096207 1.231392 
209.117264 0.725418 
209.132278 0.541489 
210.113342 0.365258 
210.149368 0.190635 
210.185394 0.644145 
211.111847 3.968137 
211.148026 0.259205 
212.083313 0.195732 
213.090408 0.203828 
213.12738 6.675123 
213.16391 1.435814 
214.268372 0.232363 
214.623245 0.241138 
214.633011 5.218988 
214.64325 3.69721 
214.971954 3.685451 
214.989487 1.057662 
215.025497 0.20622 
215.106262 2.735058 
215.143051 1.0767 
215.153885 0.334071 
215.947556 0.994908 
216.968643 1.065758 
217.086227 0.418441 
217.122452 3.722907 
217.158691 0.568166 
217.194992 0.286559 
217.756104 0.139879 
218.081024 0.346381 
218.117218 0.857723 
218.153976 3.354511 
219.101517 0.39577 
219.11618 0.340617 
219.137695 1.196776 
219.174347 6.466679 
219.25795 0.110201 
220.096909 0.344701 
220.133102 1.30892 
220.177841 0.15377 
221.081284 0.167656 
221.116745 0.548704 
221.131165 0.305361 
221.153244 0.442835 
222.076187 0.152562 
222.148926 0.408945 
223.111984 0.633318 
223.132721 0.602548 
223.14595 0.435085 
224.203674 0.116536 
225.073166 1.300937 
225.090378 0.112156 
225.126984 0.681 
225.16362 0.411086 
226.995972 0.203806 
227.106171 1.325958 
227.143097 1.476297 
227.179733 0.142553 
229.122375 0.98865 
229.158554 0.676523 
229.659271 0.205575 
230.080933 0.125645 
230.153503 0.141666 
230.631805 0.201952 
231.125702 0.634508 
231.137863 3.189858 
231.174561 0.539383 
232.132935 0.276718 
232.958679 0.200088 
232.982162 0.246566 
232.999222 0.587135 
233.153702 0.395815 
234.148605 0.190885 
234.979202 1.231456 
235.111649 0.431686 
235.145813 0.279231 
235.180801 0.336587 
236.092957 0.146917 
236.127914 0.238048 
236.16507 0.661338 
236.260895 0.101294 
237.112274 0.14668 
237.126831 0.482535 
238.143753 0.632779 
239.104736 0.205847 
239.128403 0.12338 
239.143829 0.141308 
240.909439 0.331673 
241.086639 0.146362 
241.123154 0.219243 
241.159073 0.337471 
243.137512 0.372198 
243.149658 0.680674 
243.21048 0.311005 
245.153748 0.464171 
245.165237 0.182179 
246.148712 29.418863 
246.184341 0.206108 
247.031036 0.142033 
247.092499 2.862964 
247.132843 0.609316 
247.147003 0.266487 
247.169861 0.209484 
248.127914 0.239472 
248.164505 0.202985 
248.82663 0.126889 
249.193787 2.505669 
249.961807 0.113694 
250.143402 0.452056 
250.180115 0.153089 
250.969803 0.457819 
251.000732 0.299159 
252.966492 0.126416 
253.159576 0.237629 
254.153305 0.168018 
255.101852 0.212672 
255.174042 0.205474 
257.153229 0.200186 
257.190338 0.124042 
259.132721 0.152571 
259.168854 1.528171 
260.128937 0.156341 
260.164948 0.163868 
260.200104 0.18088 
261.147705 0.140011 
261.184814 0.139877 
262.17984 0.121217 
262.216431 0.27412 
263.17572 3.660588 
263.924011 0.150092 
264.139404 0.151323 
264.159637 0.498756 
264.196136 0.147074 
264.509338 0.174627 
265.01651 0.662493 
265.907654 0.180134 
266.100372 0.449207 
266.117035 0.155841 
266.153778 0.219034 
268.978424 3.439976 
270.149445 0.129485 
271.169312 0.506707 
272.20108 0.423142 
273.082977 0.188735 
273.149261 0.202425 
273.184845 0.144727 
274.047516 0.146117 
274.144104 0.432062 
274.179932 0.276488 
274.867371 0.131607 
275.175842 1.310536 
275.199951 0.180393 
276.158203 0.144486 
276.197021 0.144303 
277.179504 0.302366 
277.226227 0.249348 
278.138672 1.62025 
280.134033 0.165201 
281.935089 0.183894 
282.057098 0.119777 
285.009674 11.967537 
286.180634 0.129729 
287.163971 0.140185 
287.212463 4.55413 
288.15979 0.125627 
288.196106 1.256665 
288.215088 1.144526 
289.178894 0.132457 
290.211243 2.492358 
291.240723 0.210722 
291.971497 0.112934 
292.1315 0.147724 
292.199585 5.739478 
293.21106 0.151216 
294.990143 1.526317 
295.121124 0.276401 
303.020416 0.94728 
305.222748 7.219016 
306.225922 1.744 
307.164917 0.12865 
308.200684 6.091607 
308.220947 1.409763 
309.004944 0.520317 
312.838684 1.099846 
313.132416 0.123314 
315.206757 1.539241 
316.190308 5.411316 
316.20993 0.526344 
317.187592 0.14235 
317.211456 0.165671 
317.685028 0.213042 
320.152618 0.185843 
321.254944 0.148945 
322.217346 0.205823 
323.683899 0.128561 
325.187897 0.091687 
327.826233 0.483651 
328.832581 0.395446 
333.217773 3.758682 
334.200623 0.616197 
334.220795 0.827804 
335.203094 0.132161 
336.195648 4.061993 
336.326294 1.675741 
337.198761 0.182425 
339.067841 0.190905 
344.129547 0.107539 
344.829224 0.120029 
351.18631 1.926671 
351.215637 6.226471 
352.187561 0.935924 
352.218933 1.070836 
352.263489 0.964554 
352.356873 0.873802 
353.135376 3.285361 
353.157898 0.166066 
353.192444 5.277264 
353.228119 3.548449 
353.352783 5.963669 
354.168793 0.608727 
354.206543 28.429472 
354.262238 0.590594 
354.316162 0.190935 
354.374237 0.392788 
354.409515 3.242201 
355.114838 4.260033 
355.151245 0.393427 
355.208801 7.960146 
355.281464 18.4769 
365.552673 0.119247 
367.686066 0.124769 
375.761017 0.110368 
379.152832 0.150416 
END IONS

