BEGIN IONS
PEPMASS=407.219
CHARGE=1+
COMPOUNDNAME=Roquefortine C
LIBRARYQUALITY=3
SMILES=N/A
INCHIKEY=SPWSUFUPTSJWNG-LIMLNZRCSA-N
INCHI=InChI=1S/C22H23N5O2/c1-4-21(2,3)22-10-17-18(28)25-16(9-13-11-23-12-24-13)19(29)27(17)20(22)26-15-8-6-5-7-14(15)22/h4-9,11-12,17,20,26H,1,10H2,2-3H3,(H,23,24)(H,25,28)/b16-9-/t17-,20-,22+/m0/s1
MSLEVEL=2
SOURCE_INSTRUMENT=N/A-ESI-QFT
FILENAME=library_mgf.mgf
SEQ=*..*
IONMODE=positive
ORGANISM=MONA
NAME=Roquefortine C [M+NH4]+
PI=MoNA
DATACOLLECTOR=MoNA:VF-NPL-QEHF016411
PUBMED=N/A
SUBMITUSER=mwang87
TAGS=
SPECTRUMID=CCMSLIB00004707474
SCANS=16411
50.258972 0.023657 
52.045155 0.016721 
52.259129 0.033463 
54.01532 0.025183 
54.171284 0.032587 
54.423668 0.024291 
55.285683 0.01495 
55.451687 0.024723 
55.560844 0.026794 
55.778027 0.023481 
56.123417 0.01216 
56.750252 0.024135 
56.823303 0.023891 
56.951984 0.020952 
57.070236 0.056457 
57.309769 0.015186 
57.620491 0.024977 
57.847984 0.020014 
58.798557 0.021704 
59.075336 0.013744 
59.368893 0.024905 
59.485355 0.022107 
59.841976 0.021741 
59.852047 0.017935 
60.104164 0.0193 
60.108589 0.015001 
60.212303 0.017752 
60.369907 0.027786 
60.721157 0.017322 
61.587933 0.02428 
61.864384 0.027721 
62.010239 0.022241 
62.176491 0.016231 
62.284325 0.027889 
62.599785 0.022019 
62.858562 0.01849 
64.1996 0.019475 
65.163445 0.013689 
66.408455 0.014581 
66.771606 0.017021 
66.839821 0.031689 
67.054375 0.125755 
67.16803 0.024337 
67.230728 0.015713 
67.484764 0.026646 
67.717857 0.023188 
68.070618 0.02723 
68.788033 0.024577 
68.860397 0.024142 
69.044876 3.041884 
69.07003 17.608566 
70.048119 0.031128 
70.073349 1.194008 
70.438454 0.015299 
70.955826 0.016418 
70.99263 0.024771 
71.085548 0.032646 
71.274017 0.015798 
71.462639 0.014881 
71.76989 0.025937 
72.080811 0.326536 
73.198212 0.021107 
73.612152 0.012912 
73.620461 0.025221 
74.356697 0.015063 
75.598694 0.01858 
76.315186 0.027694 
77.952248 0.023471 
78.088013 0.023569 
78.586098 0.018419 
79.365318 0.013269 
80.319588 0.0236 
80.496048 0.012734 
81.029434 0.025806 
81.044868 1.686619 
81.047211 0.01829 
81.069901 0.023207 
81.334274 0.024716 
81.434883 0.02199 
83.107964 0.014069 
83.145798 0.025134 
84.686485 0.024496 
84.699989 0.03174 
85.039742 2.476399 
85.042191 0.026244 
85.196327 0.0172 
86.508369 0.022195 
89.059731 0.420672 
89.474655 0.014698 
89.617653 0.020355 
93.044548 0.016467 
93.853973 0.022031 
94.240433 0.01663 
95.024094 1.713375 
95.049232 0.514885 
96.055649 0.202988 
96.843956 0.023307 
97.039627 0.050529 
97.409233 0.022347 
97.605591 0.029305 
98.000839 0.021443 
99.05529 0.05906 
100.065002 0.023143 
102.054382 0.025572 
105.657936 0.020297 
106.040192 0.168827 
106.191269 0.015247 
106.522461 0.021348 
106.652771 0.020653 
108.055733 3.814839 
109.039772 2.396759 
109.058914 0.056409 
109.063118 0.021699 
109.627365 0.025422 
110.071259 0.289606 
110.27774 0.027709 
111.055298 0.449537 
113.034622 3.386599 
114.038124 0.026095 
114.127853 0.064204 
116.800201 0.022614 
116.894073 0.02842 
117.565521 0.028786 
118.048538 0.020591 
118.065216 0.204358 
118.144913 0.025318 
119.482079 0.023166 
119.530998 0.01433 
119.859459 0.023549 
120.055786 0.122837 
120.080811 0.163707 
120.106445 0.027726 
120.756149 0.018243 
121.921783 0.025962 
122.071365 0.027664 
124.05069 1.731829 
124.59697 0.015034 
126.066246 1.586048 
127.050285 0.030713 
128.227295 0.019962 
130.065231 50.726585 
130.72673 0.019397 
131.068436 5.210027 
132.080826 3.122871 
133.084503 0.062593 
133.3927 0.025961 
135.838745 0.0312 
136.050583 2.879761 
136.076157 0.015987 
137.082108 0.026003 
137.489227 0.026431 
137.558258 0.016769 
138.065948 0.08757 
138.776718 0.02202 
140.079803 0.032293 
140.287964 0.026513 
140.833954 0.020119 
141.086136 0.029865 
141.673981 0.018313 
142.065292 0.518585 
143.073059 0.747493 
143.680573 0.017134 
143.973145 0.031068 
144.080856 4.032474 
145.076187 0.948758 
145.084106 0.433391 
145.359421 0.029672 
146.060074 5.774591 
146.079391 0.360935 
146.465744 0.024321 
147.063339 0.337729 
147.082458 0.024519 
148.013367 0.026112 
148.050552 1.438377 
148.075027 0.017722 
149.082275 0.178206 
151.061584 0.602727 
152.045547 2.377255 
152.783432 0.029153 
153.077133 1.224425 
154.065552 0.117347 
155.073227 0.057409 
156.080887 2.937118 
157.076248 0.337951 
157.083786 0.117347 
158.060089 1.092171 
158.083893 0.15503 
159.09169 1.88505 
159.737869 0.030173 
160.075729 0.502658 
160.094772 0.018616 
162.029861 9.098654 
162.219452 0.027248 
163.033463 0.429641 
163.061508 6.105058 
164.045471 3.717579 
164.065018 0.178993 
165.049271 0.06572 
165.077255 2.429482 
168.080841 0.268341 
169.07634 0.659644 
169.088699 0.752326 
170.060165 4.662641 
171.063278 0.186996 
171.09169 2.407809 
172.075714 0.380374 
172.095108 0.250998 
173.107529 0.196586 
173.56601 0.023791 
175.061569 0.425461 
175.086655 0.499164 
176.045563 0.455031 
177.077072 1.219335 
177.873001 0.014837 
178.024826 0.150615 
179.056503 4.635255 
179.064377 0.033581 
180.040543 0.176019 
180.064041 0.028538 
180.806992 0.028361 
181.071991 3.731158 
182.060303 1.643626 
182.096634 0.079847 
183.091568 0.038051 
183.104431 1.802399 
184.075317 0.039707 
184.112381 4.758915 
185.071106 2.231859 
185.11557 0.398519 
186.074539 0.066492 
187.086838 0.135362 
191.056519 11.252693 
192.040619 8.96134 
192.064377 24.865784 
193.072205 100.0 
194.076279 9.24766 
194.102951 0.02715 
195.078918 0.031838 
196.112244 2.080512 
197.070938 0.644601 
197.116211 0.029009 
197.12854 0.294148 
198.127853 72.315742 
198.861343 0.013756 
199.086884 1.760631 
199.097626 0.15224 
199.131317 11.957522 
200.106979 0.158 
200.13446 0.497111 
200.14386 0.317551 
201.065414 0.034032 
203.056656 0.581151 
204.100845 0.945738 
205.062088 0.128293 
205.072266 15.704118 
206.078568 2.365743 
206.954926 0.058686 
207.051498 22.345139 
207.088074 6.13557 
208.059219 4.311307 
208.091965 5.076581 
208.111603 0.057937 
209.067139 66.312454 
209.098495 0.025409 
210.07132 6.113756 
210.09314 0.02579 
210.105667 3.641912 
210.127914 0.15255 
211.0504 0.092076 
211.072113 0.0642 
211.108856 0.088944 
211.489197 0.028131 
212.107269 0.018413 
212.143738 0.115939 
212.760239 0.028541 
213.065826 0.262078 
213.81044 0.45891 
213.822189 0.680783 
213.82811 0.72704 
214.122681 16.104898 
215.081909 0.097002 
215.126343 2.389902 
219.051682 0.194135 
220.087204 0.048897 
221.0672 0.547866 
222.102783 0.210878 
224.081909 0.473392 
225.066025 0.86379 
225.137573 0.035503 
225.515472 0.026505 
226.097855 0.182019 
226.122635 0.034141 
226.178391 0.02438 
227.154526 0.094251 
227.298721 0.020259 
229.062119 0.022357 
229.397644 0.030171 
229.837997 0.020492 
231.05191 0.030412 
234.103043 0.166408 
236.082031 2.485404 
236.106934 1.331173 
237.086502 0.180985 
237.111816 0.085793 
237.137726 0.025059 
238.097687 1.050533 
238.12291 0.610674 
238.896942 0.031179 
238.913879 0.023457 
239.126343 0.037022 
242.092667 0.239078 
243.002716 0.023154 
243.07666 0.930716 
243.149323 0.273172 
244.108429 0.165017 
246.785507 0.024271 
247.098114 0.185025 
248.081711 0.32108 
249.075378 0.036824 
249.113678 1.730808 
250.097519 0.724852 
250.690491 0.025381 
253.132889 0.08116 
254.092422 0.320239 
254.274353 0.027176 
256.107819 0.398437 
257.105682 0.026621 
259.098114 0.220236 
259.117981 0.016331 
259.508728 0.03035 
261.077423 0.069116 
261.113678 0.220224 
261.134705 0.47825 
262.081787 0.195899 
263.092499 0.30712 
263.690582 0.032798 
264.076385 0.061376 
264.099213 0.063877 
265.108276 1.29924 
266.092224 0.080979 
266.110687 0.028465 
270.280151 0.017922 
271.033722 0.023782 
275.092926 1.273161 
276.076813 1.036096 
276.100006 0.0856 
276.123566 0.373313 
277.071716 0.041269 
277.108917 4.439889 
277.127136 0.112732 
277.922638 0.030814 
278.112457 0.346738 
278.165344 0.030008 
279.108826 0.036166 
280.083588 0.037726 
282.085724 0.030821 
286.895142 0.105855 
288.0979 0.039742 
289.071869 0.038577 
289.108521 1.001693 
289.126831 0.020677 
290.076416 0.462464 
290.106201 0.014595 
291.079559 1.043823 
291.110504 0.160242 
292.081421 0.103544 
292.097504 0.084549 
292.119263 3.624246 
292.758362 0.013871 
293.103668 4.920842 
293.121948 0.662508 
294.087494 2.867728 
294.105743 0.737453 
294.131927 0.019448 
295.09082 0.071562 
302.045288 0.016517 
302.104095 0.834195 
303.088104 0.437417 
303.106171 0.036625 
304.119568 1.604637 
304.176056 0.209548 
305.104004 1.039134 
306.098724 7.193732 
306.159546 0.033984 
307.104431 2.618287 
307.161835 0.028449 
308.111633 0.275345 
310.130188 0.584804 
310.87851 0.020274 
312.837006 0.030716 
317.176239 0.149721 
318.09848 0.303996 
319.083466 0.034169 
319.10611 1.831473 
320.084229 0.163186 
320.114441 14.922587 
321.035614 0.02749 
321.098175 4.581746 
321.118408 2.998869 
322.101959 0.693587 
322.129791 2.533724 
322.827148 0.032555 
323.133911 0.200469 
332.114594 3.898862 
333.098083 0.861491 
333.118347 0.672186 
333.173065 0.044292 
334.102356 0.019966 
334.125854 0.030154 
334.842926 0.129356 
335.831421 0.922661 
336.109436 1.929257 
336.143311 0.894271 
336.839264 1.706865 
337.113373 1.286801 
337.149902 5.417001 
338.125092 64.556129 
339.128937 14.57374 
339.163971 2.292778 
340.107971 0.019851 
340.131714 1.687127 
340.167816 0.191732 
343.155243 0.074377 
345.170776 0.352603 
350.124786 10.215697 
350.946899 0.264025 
351.128693 2.27848 
351.84671 0.316384 
353.841522 2.773721 
354.846619 0.055715 
356.053772 0.032017 
360.181763 0.342156 
361.166107 0.303885 
362.150787 0.049456 
370.16626 0.0327 
371.853027 0.042643 
374.162079 0.068553 
375.169464 0.544791 
376.174591 0.11492 
377.14856 0.057989 
388.176605 3.774768 
389.180847 0.828989 
392.850891 0.05563 
394.059967 0.028623 
394.844635 0.698223 
400.909027 0.018342 
405.211823 2.611236 
405.261108 0.158424 
406.187286 17.70853 
406.214539 1.565967 
406.266174 0.027981 
407.190552 6.280634 
407.225555 1.499482 
408.166351 0.078866 
408.19455 0.969237 
408.229065 0.134513 
412.168304 0.020436 
412.853821 0.019034 
415.358337 0.026974 
418.908722 0.020437 
425.098267 0.032019 
END IONS

