BEGIN IONS
PEPMASS=485.0
CHARGE=1+
COMPOUNDNAME=Massbank:KO003260 Kanamycin
LIBRARYQUALITY=3
SMILES=NCC(O1)C(O)C(O)C(O)C1OC(C(N)3)C(O)C(C(N)C3)OC(O2)C(O)C(N)C(O)C(CO)2
INCHIKEY=SBUJHOSQTJFQJX-UHFFFAOYSA-N
INCHI=1S/C18H36N4O11/c19-2-6-10(25)12(27)13(28)18(30-6)33-16-5(21)1-4(20)15(14(16)29)32-17-11(26)8(22)9(24)7(3-23)31-17/h4-18,23-29H,1-3,19-22H2/t4-,5+,6-,7-,8+,9-,10-,11-,12+,13-,14-,15+,16-,17-,18-/m1/s1
MSLEVEL=2
SOURCE_INSTRUMENT=ESI-LC-ESI-QQ
FILENAME=Massbank_ESI_positive_8_1_2014_peaks.mgf
SEQ=*..*
IONMODE=Positive
ORGANISM=MASSBANK
NAME=Massbank:KO003260 Kanamycin [M+H]+
PI=Putative Massbank Match
DATACOLLECTOR=Massbank
PUBMED=N/A
SUBMITUSER=mwang87
TAGS=
SPECTRUMID=CCMSLIB00000219040
SCANS=9062
124.5 19802.0 
134.1 183168.5 
143.3 34653.5 
145.1 14851.5 
159.0 99010.0 
162.1 59406.0 
163.3 737624.5 
176.2 658416.5 
205.4 168317.0 
238.9 44554.5 
324.4 9901.0 
END IONS

