BEGIN IONS
PEPMASS=273.073
CHARGE=1+
COMPOUNDNAME=Citrinin
LIBRARYQUALITY=3
SMILES=N/A
INCHIKEY=CQIUKKVOEOPUDV-IYSWYEEDSA-N
INCHI=InChI=1S/C13H14O5/c1-5-7(3)18-4-8-9(5)6(2)11(14)10(12(8)15)13(16)17/h4-5,7,15H,1-3H3,(H,16,17)/t5-,7-/m1/s1
MSLEVEL=2
SOURCE_INSTRUMENT=N/A-ESI-QFT
FILENAME=library_mgf.mgf
SEQ=*..*
IONMODE=positive
ORGANISM=MONA
NAME=Citrinin [M+Na]+
PI=MoNA
DATACOLLECTOR=MoNA:VF-NPL-QEHF027296
PUBMED=N/A
SUBMITUSER=mwang87
TAGS=
SPECTRUMID=CCMSLIB00004720877
SCANS=27296
50.01804 0.034103 
50.77726 0.056571 
51.57172 0.053845 
51.942619 0.059805 
52.116013 0.056385 
52.842831 0.047401 
54.252605 0.057349 
54.55389 0.03155 
54.928722 0.042442 
55.220169 0.031656 
55.50193 0.032189 
55.534992 0.036545 
55.989082 0.041607 
56.756279 0.05048 
56.964985 0.115715 
56.972469 0.049769 
57.400597 0.038189 
57.538841 0.061953 
57.558273 0.056595 
57.575153 0.038387 
57.780045 0.037619 
57.907333 0.051023 
57.935154 0.067121 
59.007355 0.031309 
59.647396 0.056594 
61.01083 100.0 
61.891006 0.037033 
62.010197 0.086747 
62.01413 1.016928 
62.754658 0.035792 
63.006603 0.796033 
63.009315 0.064007 
63.164982 0.033844 
64.030342 0.053542 
64.389801 0.048857 
64.884155 0.038106 
65.140434 0.044291 
65.437653 0.057969 
65.650482 0.036665 
66.379448 0.074867 
66.752983 0.049714 
67.391434 0.04104 
70.280106 0.040016 
70.570923 0.047774 
70.682564 0.036661 
71.125847 0.033407 
71.669174 0.059029 
71.748817 0.04463 
71.923622 0.044986 
72.247803 0.033677 
72.958473 0.03867 
72.980476 0.053806 
73.050751 0.046163 
73.956146 0.957958 
74.383575 0.031969 
74.611046 0.05182 
74.682693 0.03944 
75.226402 0.04791 
75.861603 0.036018 
75.945442 0.139368 
76.337135 0.039666 
77.796906 0.045314 
78.75396 0.048352 
79.021118 0.488364 
79.671455 0.051399 
80.0504 0.037483 
80.080841 0.039617 
81.277596 0.046025 
81.922264 0.050868 
81.995224 0.05037 
82.398499 0.029842 
83.68734 0.038127 
83.838387 0.032395 
83.983223 0.053609 
84.654045 0.061729 
84.846855 0.050146 
84.982285 0.038853 
87.837692 0.049375 
89.178864 0.035623 
89.260765 0.052638 
89.779724 0.062925 
93.524239 0.051789 
94.009422 0.036789 
94.151772 0.044603 
95.15329 0.05889 
95.296898 0.039082 
95.571815 0.033299 
96.239944 0.05799 
96.298698 0.055277 
98.56353 0.065783 
101.696419 0.052858 
102.321266 0.056171 
103.830124 0.028178 
104.930275 2.431587 
104.943726 0.042518 
105.928146 0.251207 
106.925644 0.36737 
108.702728 0.042196 
109.748772 0.058101 
110.282936 0.056282 
111.255157 0.053086 
113.717186 0.047957 
115.074379 0.037382 
115.750648 0.035868 
118.627495 0.050188 
118.641457 0.047944 
121.796135 0.054607 
122.940788 10.705425 
123.938652 3.775619 
124.93631 2.470566 
126.564514 0.05938 
127.095573 0.061368 
132.277374 0.044712 
133.489502 0.070433 
134.704315 0.058117 
134.940948 0.466598 
134.958511 2.24146 
135.670761 0.058749 
135.949005 0.19584 
135.956436 4.146262 
135.966431 1.267553 
136.946747 0.401845 
136.956528 3.312113 
137.928024 0.217609 
137.95433 0.08091 
138.9254 0.126049 
138.952042 0.523333 
139.71167 0.051761 
139.906036 0.055069 
140.951309 0.14858 
141.773483 0.043829 
141.949127 0.351926 
145.063461 0.037297 
146.941071 0.051697 
147.642365 0.053457 
147.967575 0.050781 
148.934937 0.045705 
150.972137 9.809628 
151.96994 61.025093 
152.95134 31.285301 
152.967896 4.042517 
153.948898 0.283836 
153.959335 26.61129 
153.966736 3.350373 
154.946823 8.714099 
154.957016 3.956743 
154.963516 0.349162 
155.779373 0.049338 
155.954544 7.128986 
155.96106 0.051054 
158.630615 0.058917 
161.096344 0.036401 
162.947128 0.236771 
164.300507 0.038705 
164.495041 0.0613 
164.951401 5.828503 
165.409836 0.050099 
165.949188 3.757335 
166.946945 1.317677 
167.161041 0.040022 
167.199493 0.04347 
167.77771 0.055211 
168.258011 0.048387 
168.93631 2.310817 
168.982666 13.892509 
169.980362 9.23209 
170.96196 4.502085 
170.970337 0.067194 
170.978012 3.755669 
171.49144 0.050388 
171.717499 0.066746 
171.923874 0.030866 
172.10936 0.05974 
172.957336 0.776555 
173.785431 0.066279 
177.545563 0.055443 
178.978317 0.809339 
179.11348 0.054104 
179.938293 0.41211 
180.125595 0.037401 
180.93631 1.557981 
180.97438 0.046513 
182.961975 3.921142 
183.959793 4.643547 
184.957275 0.502247 
185.658325 0.041545 
185.949036 3.004723 
186.16098 0.050033 
186.946884 4.092538 
187.944244 0.201395 
188.905334 0.049812 
194.961853 15.363199 
195.95961 21.744982 
196.25943 0.063398 
196.957108 4.136439 
197.949005 0.516975 
198.946823 3.009127 
199.944794 0.065796 
201.155899 0.042758 
201.99324 0.048778 
211.635849 0.060345 
212.0672 0.053601 
212.972473 15.285311 
213.970078 20.949356 
214.679733 0.059823 
214.96759 4.269275 
215.764481 0.887962 
215.771683 1.472048 
216.855804 0.047258 
222.296844 0.048698 
223.909119 0.033815 
224.144379 0.047918 
231.995071 1.105243 
233.904465 0.05805 
236.30658 0.051317 
242.665619 0.054426 
243.477463 0.053639 
250.005341 0.149582 
251.467407 0.034661 
255.062698 3.408528 
256.065918 0.125696 
269.12735 0.048585 
270.209412 0.0589 
271.174957 0.045381 
273.073059 2.674274 
273.088928 0.196638 
273.167084 3.074613 
273.180817 0.05782 
274.075439 0.061021 
274.170929 0.074833 
274.670837 0.056839 
275.108307 1.189254 
277.700958 0.042033 
284.845551 0.04952 
292.948975 0.063355 
299.029785 0.061299 
299.820557 0.051284 
END IONS

