BEGIN IONS
PEPMASS=873.499
CHARGE=1+
COMPOUNDNAME=ABAMECTIN
LIBRARYQUALITY=3
SMILES=N/A
INCHIKEY=RRZXIRBKKLTSOM-XPNPUAGNSA-N
INCHI=InChI=1S/C48H72O14/c1-11-25(2)43-28(5)17-18-47(62-43)23-34-20-33(61-47)16-15-27(4)42(26(3)13-12-14-32-24-55-45-40(49)29(6)19-35(46(51)58-34)48(32,45)52)59-39-22-37(54-10)44(31(8)57-39)60-38-21-36(53-9)41(50)30(7)56-38/h12-15,17-19,25-26,28,30-31,33-45,49-50,52H,11,16,20-24H2,1-10H3/b13-12+,27-15+,32-14+/t25-,26-,28-,30-,31-,33+,34-,35-,36-,37-,38-,39-,40+,41-,42-,43+,44-,45+,47+,48+/m0/s1
MSLEVEL=2
SOURCE_INSTRUMENT=N/A-ESI-QFT
FILENAME=library_mgf.mgf
SEQ=*..*
IONMODE=positive
ORGANISM=MONA
NAME=ABAMECTIN [M+H]+
PI=MoNA
DATACOLLECTOR=MoNA:VF-NPL-QEHF028036
PUBMED=N/A
SUBMITUSER=mwang87
TAGS=
SPECTRUMID=CCMSLIB00004721617
SCANS=28036
61.028389 0.02056 
61.288383 0.02384 
61.791561 0.01754 
61.896477 0.012338 
62.203846 0.023342 
63.740231 0.011977 
64.368927 0.030023 
65.038719 1.440244 
65.100136 0.022532 
65.11599 0.012693 
65.538948 0.024538 
66.064262 0.009774 
66.684219 0.024935 
67.025734 0.021118 
67.054321 17.923704 
67.056313 0.196485 
68.057686 0.594621 
68.223969 0.011706 
68.324883 0.024143 
68.630486 0.028682 
68.648239 0.011512 
68.820068 0.011249 
68.911888 0.030784 
68.997414 0.016038 
69.033531 80.284225 
69.069901 3.232073 
70.036888 3.160344 
70.065086 0.051109 
70.280937 0.022021 
70.776154 0.019845 
71.012825 0.080082 
71.049149 5.611882 
71.08548 0.414572 
71.091652 0.018428 
71.337372 0.022849 
71.39917 0.012042 
72.05233 0.023685 
72.548195 0.027094 
72.851913 0.025375 
73.028336 0.107095 
73.046745 0.060667 
73.064766 7.913936 
74.000244 0.023227 
74.068085 0.10424 
74.139565 0.012449 
74.855225 0.022905 
75.044014 0.219833 
77.059494 0.064576 
77.466698 0.028188 
77.775528 0.011674 
77.812752 0.023952 
78.094536 0.020754 
78.477486 0.029665 
78.802307 0.021255 
79.021339 0.020807 
79.054199 7.113428 
79.320702 0.012345 
79.328156 0.011272 
80.057533 0.064978 
81.033493 0.736344 
81.069855 19.608639 
82.073174 1.008956 
82.325485 0.023211 
82.58075 0.017334 
83.049095 2.664057 
83.076942 0.02145 
83.08548 1.612692 
83.409805 0.021713 
83.426506 0.010957 
83.521805 0.03912 
83.763084 0.030225 
85.028358 9.101047 
85.064774 7.518896 
85.10112 0.399903 
85.124863 0.016363 
85.416626 0.020627 
85.6474 0.021456 
86.031822 0.12643 
86.068077 0.025578 
86.531647 0.020165 
86.86702 0.022172 
87.044029 10.012367 
87.587021 0.019416 
87.698059 0.02265 
88.047462 0.108003 
88.688774 0.018406 
88.728561 0.022452 
89.059669 1.610068 
89.724571 0.016102 
89.836044 0.01352 
90.04261 0.02279 
90.159775 0.022243 
90.872353 0.025052 
91.054214 2.326068 
91.057236 0.724036 
91.065216 0.012444 
91.236679 0.011002 
91.332359 0.013122 
91.544945 0.019138 
92.039337 0.022952 
92.057747 0.016892 
92.701675 0.029082 
93.064796 0.012867 
93.069824 9.014604 
93.135437 0.023904 
93.225502 0.023016 
93.903641 0.021556 
94.073196 0.275936 
95.049057 67.930275 
95.085457 4.985767 
95.098343 0.020694 
95.735435 0.031283 
96.052361 4.220229 
96.088776 0.126212 
96.19017 0.021008 
97.028366 0.290909 
97.064743 19.133236 
97.101128 1.837241 
97.194313 0.012205 
97.197662 0.014051 
97.379318 0.019479 
98.0681 0.907117 
98.289566 0.023907 
98.381554 0.021865 
99.044083 0.196178 
99.080391 1.361861 
100.313316 0.01379 
101.059685 4.44903 
102.063095 0.028932 
102.154945 0.022883 
105.045013 0.022 
105.069839 4.227238 
105.151894 0.021572 
106.073196 0.057554 
106.574799 0.010476 
107.049072 2.53256 
107.085457 6.512287 
108.08876 0.396608 
109.064728 12.204501 
109.101082 16.842461 
109.168327 0.011256 
109.935364 0.017648 
110.068077 0.570453 
110.104462 1.574775 
110.63765 0.01292 
111.043953 4.719888 
111.080353 0.781351 
111.116692 0.0153 
112.047325 0.025797 
112.322929 0.012102 
112.404106 0.017487 
113.059555 100.0 
113.733948 0.023045 
114.062965 5.927991 
114.867935 0.017528 
115.054108 0.043026 
115.075363 0.053643 
115.427788 0.024842 
116.437012 0.017299 
117.069847 1.006291 
117.474495 0.030875 
117.714348 0.031078 
118.102264 0.027263 
119.04908 0.601346 
119.059616 0.027842 
119.085426 5.150827 
120.088776 0.292156 
121.06469 3.204049 
121.09626 0.017287 
121.101044 10.077527 
122.06781 0.016962 
122.104477 0.769113 
123.043999 0.69009 
123.08033 5.447903 
123.116669 24.330658 
123.586685 0.010528 
123.995636 0.022038 
124.083595 0.181777 
124.120079 2.781053 
124.403801 0.022533 
125.059616 1.193466 
125.096107 0.247819 
125.936577 0.02851 
127.075249 16.183285 
127.180229 0.025672 
127.905853 0.018196 
128.062149 0.017755 
128.078522 0.834769 
129.054413 0.024233 
129.069794 0.571741 
129.729401 0.021342 
131.047958 0.022262 
131.07019 0.077917 
131.085403 2.568504 
131.179749 0.012561 
132.088669 0.021407 
133.064667 2.028674 
133.085831 0.210308 
133.101028 3.549334 
133.305756 0.022041 
134.104416 0.057411 
135.043869 1.330287 
135.080215 3.253293 
135.116623 3.862555 
136.083344 0.021344 
136.120422 0.069654 
137.059692 0.807589 
137.095963 2.427011 
138.099548 0.014218 
138.638474 0.031366 
138.802994 0.019676 
139.074783 0.132751 
141.054642 0.058751 
141.069839 0.064059 
142.078079 0.016409 
143.070221 0.485648 
143.08548 3.306975 
143.252197 0.034019 
144.088943 0.067022 
145.064606 2.420686 
145.085815 52.888527 
145.10054 4.463609 
145.207336 0.024893 
146.068054 0.032697 
146.089157 3.549805 
146.104248 0.244595 
147.043427 0.022515 
147.080338 2.560799 
147.11673 1.736803 
147.485794 0.025966 
149.059723 0.69906 
149.096054 1.028705 
149.132431 0.322382 
151.039001 0.157765 
151.075317 2.418003 
151.111618 12.071609 
152.114975 1.214699 
152.627304 0.024436 
153.054428 1.61442 
153.090439 0.024857 
153.127274 1.797097 
154.421677 0.020164 
155.085464 0.402124 
156.093384 0.251691 
156.160324 0.020163 
156.606506 0.025299 
157.025146 0.013197 
157.06424 0.025976 
157.101166 2.253865 
158.072845 0.045921 
159.080338 1.988782 
159.116714 2.964618 
160.119873 0.021801 
161.059647 0.741796 
161.080734 0.033728 
161.096039 1.712131 
161.132401 0.602356 
162.09935 0.035136 
162.458191 0.024261 
163.075241 1.542843 
163.104126 0.022935 
163.111542 0.198236 
165.054733 0.135098 
165.091064 1.555462 
165.127548 0.331484 
165.163498 0.030101 
165.400467 0.011732 
166.077759 0.066752 
166.300491 0.013972 
167.055344 0.121215 
167.068146 0.032089 
167.085571 0.024626 
168.573975 0.033225 
168.759842 0.017366 
169.049362 0.088451 
169.10112 2.09706 
169.122131 2.928156 
170.097534 0.021666 
170.125549 0.180161 
171.080475 1.54244 
171.116776 3.95916 
172.120132 0.125633 
173.059677 0.189151 
173.096024 2.164283 
173.132477 0.996663 
175.075455 0.297549 
175.111771 0.487351 
175.148026 2.280109 
176.115158 0.02909 
176.151489 0.027571 
176.406647 0.014882 
176.770538 0.031141 
177.054611 0.731417 
177.090851 0.011678 
177.127426 0.167096 
177.421387 0.011671 
178.957504 0.012525 
179.0858 0.102379 
179.106567 0.414377 
179.143005 0.415576 
179.251144 0.013743 
181.085602 0.055641 
181.101227 0.934774 
181.63414 0.011583 
182.072098 0.042751 
183.062927 0.347715 
183.080597 0.154145 
183.101715 1.172344 
183.116776 0.830634 
183.580154 0.021754 
185.059586 0.042176 
185.0784 0.07236 
185.0961 0.542631 
185.132492 0.485548 
187.075577 0.522938 
187.111542 2.448323 
187.148102 0.2302 
189.054565 1.037254 
189.091049 1.015787 
189.127365 0.481498 
190.094086 0.034529 
191.104874 0.152306 
191.14296 0.598918 
193.101471 0.047944 
193.120422 0.024847 
193.15863 7.639283 
194.162003 0.793032 
194.261627 0.023038 
195.080887 0.059999 
195.116608 0.227521 
195.935287 0.021859 
196.283188 0.024552 
196.450317 0.031599 
196.600723 0.012033 
197.095993 3.133375 
197.132355 0.472986 
198.099762 0.061548 
198.45163 0.031524 
199.075394 0.320883 
199.111633 4.012988 
199.148163 0.130998 
199.60675 0.011673 
200.115295 0.298882 
201.090988 0.323717 
201.127319 0.658472 
203.069931 0.132657 
203.105423 0.045194 
203.142944 0.164964 
204.945755 0.025413 
205.086304 0.052669 
206.354965 0.015341 
206.587601 0.021545 
207.101456 0.590649 
207.116882 0.054645 
208.124908 0.025303 
209.095963 0.324632 
209.131775 0.151696 
209.363846 0.021505 
210.695801 0.014176 
211.075897 0.056053 
211.111786 0.259225 
211.148361 0.132089 
213.090897 0.400556 
213.126877 0.047012 
213.164062 0.051053 
213.619354 0.020277 
215.070221 0.283216 
215.106445 3.696492 
215.142349 0.016928 
216.110077 0.195462 
217.085327 0.023951 
217.122299 1.683358 
217.316086 0.012498 
219.117661 0.017062 
219.137833 1.13406 
219.17395 0.013324 
219.604675 0.013866 
221.114685 0.026922 
221.132431 0.282827 
221.153442 1.201148 
223.112137 0.042832 
223.148209 0.07767 
223.980957 0.02466 
225.042908 0.023364 
225.090775 1.982602 
225.111542 0.115986 
225.128021 0.010279 
227.106567 1.313776 
227.142136 0.024196 
229.085831 0.012202 
231.1017 0.032825 
231.173737 0.028482 
235.11171 0.069599 
235.574387 0.022658 
237.127411 0.258509 
239.106735 0.025985 
239.127838 0.061544 
239.142975 0.098785 
241.085785 1.449835 
241.121658 0.012741 
242.089111 0.299199 
242.842773 0.026163 
243.101685 1.083129 
243.136246 0.017986 
244.861771 0.02342 
245.116898 9.852352 
246.12056 1.307959 
247.148041 0.221336 
249.127197 0.428708 
250.244492 0.012264 
251.106964 0.012191 
251.142136 0.140921 
252.918549 0.01303 
253.086227 0.021196 
258.347473 0.022861 
259.096924 0.078166 
261.11203 2.029393 
261.126648 0.026992 
261.640137 0.01189 
262.115479 0.050593 
263.107635 0.031907 
263.143677 0.024623 
263.35498 0.013262 
265.123077 0.060409 
265.158508 0.214095 
266.16098 0.023186 
267.138123 0.076223 
267.177612 0.018678 
271.205383 0.26416 
275.142822 0.153887 
277.121277 0.084703 
278.160889 0.014294 
278.923035 0.0137 
280.104706 0.01259 
281.080902 0.095919 
281.099243 1.168697 
281.118378 0.026962 
282.102234 0.016377 
283.168243 0.028143 
283.669678 0.020678 
283.802307 0.033509 
285.009583 0.014049 
287.200256 0.867247 
288.208069 5.985369 
288.787018 0.025122 
289.212341 0.985879 
293.153656 0.342834 
295.134003 0.058731 
298.374664 0.024947 
299.061981 0.017628 
299.163849 0.024459 
303.059052 0.011434 
303.137482 0.063317 
303.195251 0.049099 
304.164398 0.114154 
305.135468 0.014132 
305.171417 0.017099 
305.211151 0.819614 
306.214661 0.105464 
307.457367 0.012891 
309.182587 0.106792 
309.278381 0.072589 
309.330017 0.017938 
311.145935 0.154485 
315.339935 0.023892 
317.518951 0.03026 
322.915283 0.075407 
327.193085 0.255251 
329.15625 0.089459 
330.815613 0.02834 
336.375153 0.013892 
339.418762 0.021116 
352.108063 0.022211 
360.839783 0.08031 
361.975128 0.029514 
363.372498 0.019954 
364.418671 0.023472 
366.952301 0.027802 
377.937592 0.023342 
384.480072 0.02763 
388.375092 0.02572 
390.931274 0.016114 
393.15329 0.020332 
395.14679 0.423621 
397.452576 0.023865 
401.235962 0.026259 
402.693848 0.027464 
402.772675 0.012249 
404.671265 0.017216 
413.900055 0.017255 
413.993805 0.013012 
414.523712 0.031997 
417.342072 0.03662 
419.182892 0.121909 
419.852051 0.122996 
421.476471 0.029169 
423.8461 0.014313 
424.102448 0.024123 
427.849854 0.026901 
432.430298 0.025909 
437.328308 0.013989 
439.813446 0.034508 
447.347015 1.452902 
448.349823 0.12184 
449.079895 0.031331 
449.249786 0.077097 
455.885742 0.012932 
471.857208 0.022458 
486.649506 0.032455 
491.881287 0.026515 
492.88089 0.023847 
493.167053 0.024829 
506.803192 0.025066 
516.079895 0.025616 
527.037292 0.024598 
528.013184 0.025137 
532.390625 0.031132 
533.823181 0.023452 
537.230469 0.043948 
539.674744 0.030789 
549.277649 0.012087 
551.274963 0.31876 
562.254761 0.012684 
563.260254 0.014064 
568.448059 0.016969 
569.287842 0.315727 
585.302795 0.044488 
587.297241 0.156481 
623.180359 0.027354 
635.766296 0.026979 
647.305603 0.028164 
658.393677 0.023056 
697.15979 0.026066 
706.582886 0.019509 
708.212891 0.037016 
708.477112 0.053732 
708.645813 0.016061 
708.74646 0.01513 
708.927734 0.028165 
711.368164 0.013773 
727.453979 0.016319 
729.37854 0.147937 
731.377441 0.092111 
742.901978 0.02825 
758.199158 0.027905 
767.301086 0.024541 
802.401245 0.026371 
817.964905 0.024185 
825.327881 0.023223 
871.686646 0.071056 
872.446106 0.032397 
872.536316 0.017533 
872.683777 0.01854 
873.465088 0.21385 
873.552856 0.638156 
874.553345 0.140534 
875.453186 0.04639 
875.64856 0.01471 
887.795166 0.02502 
896.466614 0.026409 
END IONS

