BEGIN IONS
PEPMASS=143.0
CHARGE=1+
COMPOUNDNAME=Massbank:KO002836 Ectoine
LIBRARYQUALITY=3
SMILES=CC(N1)=NC(CC1)C(O)=O
INCHIKEY=WQXNXVUDBPYKBA-UHFFFAOYSA-N
INCHI=1S/C6H10N2O2/c1-4-7-3-2-5(8-4)6(9)10/h5H,2-3H2,1H3,(H,7,8)(H,9,10)
MSLEVEL=2
SOURCE_INSTRUMENT=ESI-LC-ESI-QQ
FILENAME=Massbank_ESI_positive_8_1_2014_peaks.mgf
SEQ=*..*
IONMODE=Positive
ORGANISM=MASSBANK
NAME=Massbank:KO002836 Ectoine [M+H]+
PI=Putative Massbank Match
DATACOLLECTOR=Massbank
PUBMED=N/A
SUBMITUSER=mwang87
TAGS=
SPECTRUMID=CCMSLIB00000218173
SCANS=8638
41.3 49505.0 
43.0 74257.5 
43.9 826733.5 
56.3 6346541.0 
56.9 44554.5 
58.4 39604.0 
68.1 55678273.5 
71.2 54455.5 
73.3 2123764.5 
74.1 193069.5 
80.1 138614.0 
81.2 74257.5 
83.1 707921.5 
84.0 683169.0 
85.8 163366.5 
97.0 78079286.0 
98.1 1504952.0 
99.8 39604.0 
101.0 2732676.0 
102.2 227723.0 
125.2 64356.5 
143.1 4405945.0 
END IONS

