BEGIN IONS
PEPMASS=1101.57
CHARGE=1+
COMPOUNDNAME=N-[(3S,6S,9S,11R,15S,18S,20R,21R,24S,25S,26S)-3-[(1R)-2-carbamoyl-1-hydroxyethyl]-6-[(1S,2S)-1,2-dihydroxy-2-(4-hydroxyphenyl)ethyl]-11,20,21,25-tetrahydroxy-15-[(1R)-1-hydroxyethyl]-26-methyl-2,5,8,14,17,23-hexaoxo-1,4,7,13,16,22-hexaazatricyclo[22.3.0.0?,��]heptacosan-18-yl]-10,12-dimethyltetradecanamide
LIBRARYQUALITY=3
SMILES=N/A
INCHIKEY=DFQUSLQYURJBIT-MFKXNLKNSA-N
INCHI=InChI=1S/C51H82N8O17/c1-6-25(2)19-26(3)13-11-9-7-8-10-12-14-37(66)53-32-21-35(64)47(72)57-49(74)41-42(67)27(4)23-59(41)51(76)39(34(63)22-36(52)65)55-48(73)40(44(69)43(68)29-15-17-30(61)18-16-29)56-46(71)33-20-31(62)24-58(33)50(75)38(28(5)60)54-45(32)70/h15-18,25-28,31-35,38-44,47,60-64,67-69,72H,6-14,19-24H2,1-5H3,(H2,52,65)(H,53,66)(H,54,70)(H,55,73)(H,56,71)(H,57,74)/t25?,26?,27-,28+,31+,32-,33-,34+,35+,38-,39-,40-,41-,42-,43-,44-,47+/m0/s1
MSLEVEL=2
SOURCE_INSTRUMENT=N/A-ESI-QFT
FILENAME=library_mgf.mgf
SEQ=*..*
IONMODE=positive
ORGANISM=MONA
NAME=N-[(3S,6S,9S,11R,15S,18S,20R,21R,24S,25S,26S)-3-[(1R)-2-carbamoyl-1-hydroxyethyl]-6-[(1S,2S)-1,2-dihydroxy-2-(4-hydroxyphenyl)ethyl]-11,20,21,25-tetrahydroxy-15-[(1R)-1-hydroxyethyl]-26-methyl-2,5,8,14,17,23-hexaoxo-1,4,7,13,16,22-hexaazatricyclo[22.3.0.0?,��]heptacosan-18-yl]-10,12-dimethyltetradecanamide [M+Na]+
PI=MoNA
DATACOLLECTOR=MoNA:VF-NPL-QEHF024866
PUBMED=N/A
SUBMITUSER=mwang87
TAGS=
SPECTRUMID=CCMSLIB00004715929
SCANS=24866
76.655968 0.296008 
76.948677 0.045142 
77.101837 0.154167 
78.990791 0.30644 
79.63427 0.30239 
80.203224 0.046788 
81.069931 0.371481 
82.065071 0.528961 
83.060249 0.066019 
83.085571 0.169388 
84.044472 5.297353 
85.047829 0.043525 
85.101288 0.042908 
86.060135 43.032581 
87.063469 1.418449 
88.318192 0.255015 
89.632278 0.270017 
89.843056 0.171586 
89.908867 0.298604 
91.057457 0.142059 
92.187256 0.248973 
95.085533 0.727839 
96.044609 0.054687 
97.101166 0.068698 
98.084267 0.149193 
99.055145 0.055463 
99.272545 0.35507 
100.039284 1.286032 
100.075775 14.398921 
100.669014 0.336328 
101.071152 0.055316 
101.079056 0.552512 
101.311028 0.062719 
102.05497 1.754218 
103.560669 0.243075 
107.049187 1.467696 
109.039772 0.127144 
109.101051 0.410448 
111.055481 0.058431 
111.149124 0.298148 
111.826279 0.062635 
112.039299 0.225681 
113.070953 0.082941 
114.054756 0.207433 
114.095184 0.210151 
114.252922 0.136558 
114.444435 0.152594 
114.718666 0.052294 
115.365051 0.055034 
117.188042 0.064196 
117.195747 0.047215 
117.710297 0.275579 
119.049416 0.138204 
119.278954 0.131025 
120.78849 0.04203 
121.03743 4.540372 
121.23864 0.180924 
121.677788 0.385956 
123.05529 0.061472 
123.734695 0.200388 
125.070961 0.245521 
126.484161 0.039604 
127.086609 0.053815 
127.665466 0.283561 
128.325531 0.167104 
131.049377 0.05562 
131.081558 1.049964 
134.060257 0.056087 
136.075668 0.365628 
139.086624 0.167821 
139.461929 0.272044 
141.065872 1.209548 
143.081467 0.123984 
145.09729 10.238101 
146.044617 0.064437 
146.060059 0.066846 
146.100571 0.513348 
147.044296 0.880167 
147.107407 0.047135 
148.701096 0.325871 
149.070679 0.095725 
151.049988 0.237175 
151.086746 0.214305 
152.032211 1.114894 
153.015976 0.06701 
153.063629 3.526017 
153.778961 0.043693 
154.047684 0.410351 
155.081573 0.117448 
156.856445 0.135313 
157.09726 0.493516 
157.566376 0.322793 
159.857574 0.066957 
162.094971 0.051571 
163.011505 1.635477 
163.048019 0.77208 
163.843292 0.147823 
164.070892 0.064241 
165.064453 4.610263 
166.860733 0.042767 
167.056931 0.06192 
167.07933 22.967094 
168.083984 0.22211 
168.614548 0.134975 
168.682404 0.05584 
168.83017 0.221505 
169.06105 0.191327 
169.097214 0.229857 
170.14357 0.26686 
171.076492 0.22287 
174.055038 0.279936 
175.016266 0.171368 
175.039047 0.319657 
175.04718 0.04554 
176.070679 0.094025 
176.297073 0.065151 
176.63504 0.29392 
177.064148 0.5888 
177.102173 0.290062 
177.257446 0.152855 
179.079956 0.406797 
181.059891 0.214225 
181.097015 0.351929 
183.076157 0.794255 
185.092102 1.05296 
187.107758 0.109282 
188.070633 0.6072 
188.50032 0.391889 
189.063049 0.280573 
191.081436 0.292093 
192.026489 0.889971 
192.065323 0.158185 
192.07515 0.210709 
193.058624 1.987341 
193.097382 0.061509 
194.079651 0.257634 
195.075638 3.036785 
196.079773 0.066668 
196.108154 0.05324 
197.091995 0.748351 
198.237396 0.34334 
202.048615 0.06599 
203.011368 0.044711 
203.081024 0.054909 
203.098557 0.141808 
204.006638 0.059066 
205.570999 0.19525 
206.090134 2.517971 
207.090988 0.067306 
208.058136 5.297357 
208.107285 0.073636 
209.091599 1.5175 
209.109726 0.063516 
209.388596 0.044194 
210.085068 5.642134 
211.069229 0.610835 
211.108078 0.100394 
212.236908 0.064131 
213.086807 0.147929 
213.327759 0.252261 
213.56868 0.065396 
214.070923 0.050711 
214.576935 0.050099 
215.551834 0.277414 
216.065384 0.051892 
216.207443 0.312216 
218.183304 0.048542 
219.076004 0.316139 
220.852448 0.342338 
221.092484 0.146226 
222.046127 0.050796 
222.073212 0.173829 
222.085175 7.824844 
222.984879 0.051586 
223.065445 0.063682 
224.061996 0.052298 
224.100708 53.770664 
225.104614 1.039008 
225.341797 0.054724 
227.10231 0.22531 
232.068954 1.110493 
234.085022 10.119795 
234.899384 0.057812 
236.053497 1.173714 
236.102798 0.524372 
237.08522 2.04151 
238.079529 0.050694 
243.017029 0.078898 
246.761505 0.133883 
247.238586 0.064142 
248.825821 0.216097 
250.079926 7.335296 
252.095886 12.25023 
252.749237 0.070694 
253.026733 0.060508 
254.112442 1.103936 
255.026428 0.0501 
255.074265 0.072691 
255.097214 1.729041 
256.037201 0.056988 
259.108032 1.363506 
260.032654 0.067911 
260.111206 0.14439 
262.118164 0.052679 
263.112366 0.983413 
265.103271 0.071908 
266.111542 0.770607 
269.766663 0.201316 
271.001343 0.058671 
272.590057 0.196695 
273.087646 0.748301 
274.048615 0.125324 
274.09021 0.054519 
276.05954 1.669135 
276.094391 0.067725 
276.908508 0.141687 
277.063873 0.240888 
277.079712 1.630741 
277.117767 0.625988 
278.075073 7.405993 
278.112274 0.37966 
279.106537 12.167427 
279.133972 0.290794 
280.039612 0.042792 
280.114044 1.540062 
281.122131 9.071614 
282.017426 0.138991 
283.069702 0.06236 
283.105316 0.694304 
284.032593 0.189269 
285.063629 0.105537 
286.314819 0.306265 
287.102356 0.762411 
288.049957 0.190101 
289.383698 0.277274 
291.107056 19.28219 
291.204132 0.437612 
292.09082 4.067983 
292.108734 0.080068 
293.122131 2.359136 
294.106567 1.729899 
294.277344 0.076324 
295.088684 0.072746 
296.033356 0.066262 
296.12204 0.201749 
298.013794 0.068298 
299.043365 0.070976 
301.100372 0.501101 
301.116516 0.057281 
301.601471 0.084598 
302.064972 0.062 
302.349792 0.274833 
303.107422 0.346485 
304.090118 1.136808 
304.129089 0.091465 
304.165833 0.272153 
304.186981 0.420896 
304.26123 2.797189 
304.674225 0.080723 
305.074188 2.959025 
305.120544 0.577955 
306.106628 0.169891 
307.10144 7.861946 
308.031128 0.049912 
308.104309 0.044376 
309.117065 1.889831 
310.032715 0.04629 
310.069977 0.060357 
310.087494 0.07531 
311.043091 0.051765 
311.13266 7.365117 
311.598572 0.05822 
312.047852 0.081278 
313.043976 0.285493 
314.046204 0.047276 
315.039246 0.093775 
317.055756 0.133785 
317.121765 0.187019 
318.106384 4.615 
319.102509 0.167956 
321.672546 0.258469 
322.100739 17.110144 
322.14151 0.139405 
323.043457 0.052911 
323.084656 0.724522 
323.103546 0.066486 
323.130615 0.319726 
324.027466 0.238517 
324.128662 0.425849 
324.931427 0.062784 
325.100677 0.051334 
326.044403 0.063234 
326.065491 0.408558 
327.094147 0.085778 
327.214417 0.299108 
329.054504 0.21781 
329.122192 0.145987 
331.068695 0.149607 
333.117035 0.403087 
334.101196 15.567759 
335.097382 4.915259 
335.132416 2.94762 
336.966339 0.250544 
337.111145 0.56784 
339.038269 0.079084 
340.126587 1.487114 
341.055969 0.0668 
342.039551 0.109395 
346.101837 0.454198 
346.849609 0.169263 
348.117706 0.078493 
349.112305 1.245084 
349.148071 0.107841 
350.111603 0.383069 
351.060333 0.05562 
353.056366 0.070043 
353.591705 0.300883 
354.037231 0.069582 
356.065002 0.191592 
356.121429 0.909429 
357.049774 0.268078 
358.139709 2.152982 
360.080933 0.050102 
360.838135 0.074898 
361.112427 1.489854 
361.282715 2.150571 
362.095764 9.482507 
362.132477 3.231517 
362.266571 3.522658 
363.127106 0.358499 
363.183319 0.376129 
364.111359 21.225489 
365.075562 0.064637 
365.091095 0.072579 
365.116119 0.87608 
366.038666 0.07894 
366.127045 11.756786 
367.110321 0.617231 
367.957855 0.290443 
368.12326 0.943489 
368.555878 0.156338 
373.111481 0.686191 
374.132996 0.390571 
375.127838 2.401967 
376.159149 9.526284 
377.142242 0.08182 
378.127075 10.087034 
379.031464 0.072585 
379.122589 1.587895 
380.124634 0.073148 
381.135162 0.066514 
382.080841 0.447908 
383.090332 0.247037 
384.116669 1.058763 
386.133881 0.199846 
389.103455 0.184446 
389.277588 0.473437 
389.566284 0.190517 
390.261292 8.553797 
391.122437 18.382259 
391.26709 0.113615 
392.127319 0.981043 
392.154114 14.007612 
393.049744 0.079037 
393.15683 0.085629 
394.082184 0.073228 
394.169922 100.0 
395.173096 13.175572 
397.01123 0.220252 
397.148651 1.192623 
398.132294 10.630994 
399.133636 0.553925 
402.133087 0.482106 
403.122894 24.872568 
403.293335 1.746783 
404.12677 1.066906 
404.153931 4.789174 
405.053162 0.059165 
406.122375 10.779412 
407.104553 0.053709 
407.127625 0.17895 
407.28891 1.3654 
408.138092 18.300961 
408.192169 0.282073 
409.08139 0.226775 
409.142883 0.344726 
413.086395 0.659272 
413.143066 0.092037 
414.094086 0.055789 
415.159698 2.550772 
416.154083 0.767213 
417.141449 0.441942 
418.169922 0.084626 
419.02887 0.089021 
419.11734 2.850133 
419.152618 1.205937 
419.288361 1.694183 
420.14975 0.105198 
421.044128 0.052409 
422.164215 2.010991 
422.243744 0.049936 
423.149536 0.649489 
424.319031 0.291881 
425.14386 3.361897 
429.138702 0.167029 
429.27594 0.377629 
430.121368 3.377613 
430.30484 0.157426 
431.154266 0.851959 
433.179962 9.196357 
434.172943 0.445976 
435.148804 6.502135 
436.15036 0.334538 
443.153503 1.236081 
444.139404 0.070453 
445.133698 1.437861 
445.303833 1.077153 
446.303619 0.550756 
447.112366 8.172536 
447.149017 16.069595 
447.283081 4.860007 
447.317505 0.767073 
448.115845 0.188377 
448.152313 1.899836 
449.176086 8.379365 
451.191559 56.884003 
452.142456 4.192551 
452.194611 8.519412 
453.196564 0.284215 
459.150482 0.250347 
461.12796 5.539368 
461.170441 0.303704 
462.158661 0.266125 
463.143188 2.559606 
463.191406 1.335503 
463.314667 26.646978 
464.317413 3.78013 
468.137939 3.085551 
469.136108 0.076307 
470.153107 4.152413 
471.152985 0.247972 
474.329895 0.318782 
477.206329 0.262997 
478.155853 3.472256 
479.120087 0.139828 
479.186157 1.217464 
481.202423 3.944207 
485.167511 0.077606 
486.147919 3.912807 
487.14386 6.672515 
489.120239 0.313171 
491.138062 6.645496 
491.309479 1.891188 
493.166351 0.158716 
493.201996 0.090154 
495.149353 1.895248 
495.217865 0.953878 
496.131561 1.652999 
496.169067 1.319433 
501.160278 0.297492 
502.19223 0.564112 
505.155609 0.857977 
506.233521 0.080677 
506.319489 0.212462 
509.318634 0.083979 
510.196381 6.384471 
511.201447 0.509582 
512.164429 1.469371 
513.161499 0.069617 
514.1427 0.285264 
514.18219 0.100087 
514.326355 1.092873 
515.187622 0.092008 
517.200317 0.729046 
517.342163 0.407361 
520.212891 0.089945 
525.1604 0.736213 
526.156311 0.182347 
527.180969 1.030066 
528.206421 1.161791 
529.337585 0.254557 
530.175232 0.876892 
531.173035 0.802673 
532.334534 4.479289 
533.19635 6.354284 
533.339722 0.071846 
535.210876 3.24599 
537.158936 1.080282 
538.223816 0.079159 
539.175903 0.597524 
540.1604 0.414878 
542.321167 0.902333 
543.171265 1.279765 
544.20636 0.889958 
545.196716 8.82872 
546.218445 25.240614 
546.351746 0.500905 
547.219727 6.126604 
550.342834 0.288391 
555.16864 2.345013 
558.351318 0.248961 
559.260376 0.052284 
559.347656 3.209321 
560.330322 4.517277 
561.191101 3.875147 
563.121948 0.064583 
563.207703 76.273438 
564.210205 15.69829 
565.210754 0.370201 
567.216858 5.462393 
571.202393 0.080207 
571.347046 1.177474 
573.361633 4.462324 
574.211304 0.299597 
574.364868 0.075542 
575.207642 0.200554 
576.36084 2.233 
577.357849 12.246808 
578.356201 1.256654 
579.354675 0.050356 
581.184937 0.10444 
585.228394 1.759823 
587.195862 0.666007 
589.22229 4.251539 
589.27063 0.163753 
589.357361 14.410609 
590.361145 2.497128 
598.358643 0.41471 
599.157227 0.828334 
599.197327 0.83121 
599.339111 0.221364 
600.20105 0.080253 
601.220642 0.320639 
601.355408 3.760687 
603.239075 22.92218 
603.372131 0.905584 
604.241272 3.44029 
604.359314 0.68899 
605.217346 0.057991 
607.233093 22.127016 
608.236572 3.624804 
613.175476 0.680788 
614.241089 0.275559 
615.370056 0.649337 
617.34906 1.962812 
618.351624 0.407939 
619.367065 24.097113 
620.369568 6.262867 
621.382202 11.914433 
622.381653 1.713318 
628.365906 1.355369 
630.206238 0.058463 
630.382874 0.089452 
632.225525 0.45099 
633.247253 4.763967 
633.383545 10.603426 
634.383179 2.118579 
635.384155 0.361695 
640.368286 2.404347 
643.185181 5.192472 
643.369934 0.185307 
645.385193 0.108223 
646.378418 8.808793 
647.267578 0.460413 
647.385254 0.731586 
658.379456 16.172857 
659.380188 4.475791 
661.377502 7.818509 
662.378113 0.931556 
663.393066 19.276794 
664.397339 4.188492 
670.102783 0.333148 
671.409363 4.529726 
672.406128 0.401356 
674.230347 0.078947 
674.368164 0.341922 
679.233704 7.820379 
680.23291 0.100171 
690.268494 0.801846 
690.40155 3.578118 
691.402344 0.167269 
697.241943 2.270365 
698.368652 0.472313 
701.270447 0.145943 
702.406921 9.11649 
703.409119 0.434806 
707.398254 2.805259 
707.874268 0.658978 
708.016663 0.07907 
708.121338 0.297863 
708.397095 0.558447 
708.58551 0.330532 
715.255188 21.676668 
716.257751 5.875189 
716.382202 2.124306 
716.447083 0.341118 
718.39801 0.880427 
723.251465 0.170929 
723.389404 1.15401 
733.410583 0.601866 
734.41687 0.165978 
741.269226 0.887361 
741.400208 0.95788 
746.394531 2.193972 
747.394226 0.196893 
750.406799 0.124852 
751.406982 1.136631 
759.279297 10.681065 
760.285889 0.689216 
767.420715 0.092956 
768.426697 0.085996 
775.410706 0.073892 
792.413574 0.088468 
798.423218 0.424928 
800.452393 9.276177 
801.455139 0.675845 
802.281067 0.105078 
810.425903 0.590084 
818.465027 19.718367 
819.463257 6.821866 
843.461304 0.431975 
844.477173 0.561801 
846.315125 0.095714 
854.440125 0.536473 
862.486572 5.286924 
863.492798 0.457563 
908.971375 0.051625 
921.280029 0.275895 
934.477539 0.372083 
968.774475 0.337409 
970.506348 2.659413 
971.509094 0.896665 
1014.533447 2.162419 
1015.548157 0.194684 
1068.739624 0.167384 
1081.842163 0.214604 
1101.746094 8.066983 
1102.746704 1.445891 
END IONS

