BEGIN IONS
PEPMASS=537.446
CHARGE=1+
COMPOUNDNAME=HMDB:HMDB00561-783 B-Carotene
LIBRARYQUALITY=3
SMILES=C\C(\C=C\C=C(/C)\C=C\C1=C(C)CCCC1(C)C)=C/C=C/C=C(\C)/C=C/C=C(\C)/C=C/C1=C(C)CCCC1(C)C
INCHIKEY=OENHQHLEOONYIE-JLTXGRSLSA-N
INCHI=InChI=1S/C40H56/c1-31(19-13-21-33(3)25-27-37-35(5)23-15-29-39(37,7)8)17-11-12-18-32(2)20-14-22-34(4)26-28-38-36(6)24-16-30-40(38,9)10/h11-14,17-22,25-28H,15-16,23-24,29-30H2,1-10H3/b12-11+,19-13+,20-14+,27-25+,28-26+,31-17+,32-18+,33-21+,34-22+
MSLEVEL=2
SOURCE_INSTRUMENT=Positive-Quattro_QQQ:25eV
FILENAME=hmdb_intermediate.mgf
SEQ=*..*
IONMODE=Positive
ORGANISM=HMDB
NAME=HMDB:HMDB00561-783 B-Carotene M+H
PI=HMDB
DATACOLLECTOR=HMDB
PUBMED=N/A
SUBMITUSER=mwang87
TAGS=
SPECTRUMID=CCMSLIB00000425559
SCANS=531
55.023 14.503 
70.501 11.45 
75.498 12.211 
75.619 12.211 
77.813 10.685 
84.76 10.685 
86.466 11.45 
91.342 12.977 
94.754 10.685 
104.139 10.685 
106.821 13.737 
110.111 18.317 
114.134 11.45 
116.206 10.685 
119.74 11.45 
122.422 11.45 
123.031 11.45 
125.591 16.029 
128.882 11.45 
134.733 13.737 
140.462 11.45 
140.584 12.211 
143.875 10.685 
146.556 18.317 
149.969 11.45 
158.746 13.737 
177.518 10.685 
183.491 11.45 
195.682 13.737 
201.899 19.082 
203.362 12.211 
208.97 10.685 
213.968 13.737 
214.334 13.737 
223.843 11.45 
226.038 10.685 
226.525 12.211 
235.303 10.685 
238.107 12.211 
238.717 12.211 
241.521 11.45 
241.643 11.45 
243.593 10.685 
246.885 12.211 
250.787 10.685 
250.909 10.685 
253.591 17.556 
256.761 11.45 
263.954 10.685 
268.953 11.45 
269.563 10.685 
275.049 10.685 
277.244 11.45 
281.146 12.977 
287.73 10.685 
290.534 10.685 
298.094 11.45 
306.02 11.45 
313.214 13.737 
318.091 11.45 
318.579 12.211 
324.676 10.685 
336.382 12.211 
336.504 12.977 
336.748 12.977 
339.43 10.685 
339.552 12.977 
342.357 12.977 
348.454 10.685 
348.942 10.685 
360.649 19.082 
366.624 11.45 
377.355 11.45 
378.209 11.45 
380.282 10.685 
383.209 12.211 
384.185 12.977 
385.404 10.685 
391.38 13.737 
396.258 10.685 
397.478 14.503 
403.697 11.45 
409.673 12.211 
410.649 12.211 
415.771 12.977 
425.528 11.45 
431.26 10.685 
433.455 12.211 
434.431 11.45 
437.236 10.685 
443.334 12.211 
446.627 12.977 
449.31 11.45 
451.018 10.685 
452.603 12.977 
461.507 11.45 
467.483 10.685 
469.19 14.503 
476.874 10.685 
479.07 10.685 
486.754 10.685 
495.78 12.977 
497.609 100.0 
516.637 10.685 
520.418 10.685 
520.54 10.685 
521.15 10.685 
522.736 11.45 
526.639 14.503 
538.227 12.211 
538.836 11.45 
541.032 13.737 
544.203 12.211 
550.79 12.977 
553.718 10.685 
556.279 13.737 
556.889 11.45 
562.5 12.211 
568.843 10.685 
569.087 10.685 
572.502 11.45 
573.966 12.211 
574.576 13.737 
576.772 12.211 
583.969 11.45 
585.554 12.211 
588.848 13.737 
END IONS

