BEGIN IONS
PEPMASS=540.0
CHARGE=1+
COMPOUNDNAME=Massbank:KO008806 Apramycin
LIBRARYQUALITY=3
SMILES=OC[C@@H](O1)[C@@H](N)[C@H](O)[C@@H](O)[C@H]1O[C@H](O2)[C@@H](NC)[C@@H](O)[C@@H](O3)[C@@H](C[C@@H](N)[C@@H](O[C@H]([C@@H](N)4)[C@H](O)[C@@H](O)[C@H](N)C4)3)2
INCHIKEY=XZNUGFQTQHRASN-UXNWEDNLSA-N
INCHI=1S/C21H41N5O11/c1-26-11-14(30)18-8(33-20(11)37-21-16(32)13(29)10(25)9(4-27)34-21)3-7(24)19(36-18)35-17-6(23)2-5(22)12(28)15(17)31/h5-21,26-32H,2-4,22-25H2,1H3/t5-,6+,7-,8-,9-,10-,11+,12+,13+,14-,15-,16-,17-,18+,19+,20+,21-/m1/s1
MSLEVEL=2
SOURCE_INSTRUMENT=ESI-LC-ESI-IT
FILENAME=Massbank_ESI_positive_8_1_2014_peaks.mgf
SEQ=*..*
IONMODE=Positive
ORGANISM=MASSBANK
NAME=Massbank:KO008806 Apramycin [M+H]+
PI=Putative Massbank Match
DATACOLLECTOR=Massbank
PUBMED=N/A
SUBMITUSER=mwang87
TAGS=
SPECTRUMID=CCMSLIB00000221096
SCANS=10078
230.2 2.0 
291.2 12.93 
326.2 7.07 
344.2 14.62 
361.2 6.19 
378.1 14.48 
390.1 7.07 
523.1 2.71 
531.0 1.64 
540.1 18.55 
565.1 0.79 
570.0 5.88 
END IONS

