BEGIN IONS
PEPMASS=265.131
CHARGE=1+
COMPOUNDNAME=Huperzine A
LIBRARYQUALITY=3
SMILES=N/A
INCHIKEY=ZRJBHWIHUMBLCN-UHFFFAOYSA-N
INCHI=InChI=1S/C15H18N2O/c1-3-11-10-6-9(2)8-15(11,16)12-4-5-14(18)17-13(12)7-10/h3-6,10H,7-8,16H2,1-2H3,(H,17,18)
MSLEVEL=2
SOURCE_INSTRUMENT=N/A-ESI-QFT
FILENAME=library_mgf.mgf
SEQ=*..*
IONMODE=positive
ORGANISM=MONA
NAME=Huperzine A [M+Na]+
PI=MoNA
DATACOLLECTOR=MoNA:VF-NPL-QEHF027220
PUBMED=N/A
SUBMITUSER=mwang87
TAGS=
SPECTRUMID=CCMSLIB00004720801
SCANS=27220
50.829845 0.009616 
51.915848 0.00638 
51.958176 0.013857 
52.487644 0.014497 
52.651737 0.0159 
53.339397 0.006239 
53.566246 0.012371 
55.792538 0.002593 
55.802402 0.016937 
57.070187 0.006186 
57.107616 0.01256 
57.453663 0.013563 
57.480843 0.005825 
57.508816 0.012187 
57.637913 0.013853 
58.934654 0.007165 
59.09161 0.013455 
59.291901 0.007483 
59.349957 0.016533 
59.658089 0.002381 
59.691429 0.015522 
59.976646 0.014747 
60.110294 0.009294 
60.522827 0.001626 
62.03154 0.018175 
64.890427 0.006407 
65.391975 0.015396 
65.48381 0.001866 
65.839485 0.011392 
66.02684 0.013953 
66.999031 0.013942 
67.170074 0.009152 
69.741272 0.013997 
69.932137 0.008279 
70.008186 0.012474 
70.186172 0.002858 
70.299927 0.008297 
70.384834 0.006634 
70.519852 0.009927 
70.729256 0.014203 
70.93045 0.015534 
71.148102 0.002011 
71.950737 0.016024 
73.252258 0.017976 
75.838608 0.018164 
76.45137 0.010847 
77.026199 0.016851 
77.847885 0.018332 
79.604683 0.009726 
83.372963 0.008974 
83.394234 0.013466 
83.445427 0.014737 
83.740379 0.011996 
83.809547 0.01065 
84.123894 0.002433 
84.640465 0.012321 
85.108597 0.002712 
85.333687 0.014001 
85.658585 0.008998 
89.851723 0.015271 
89.968109 0.011398 
91.062943 0.014972 
93.047005 0.018384 
96.055763 0.011936 
96.200401 0.00293 
97.082344 0.006142 
98.247803 0.011844 
99.804787 0.001622 
100.955704 0.002606 
101.114716 0.014233 
101.370926 0.012695 
101.484726 0.013804 
104.16552 0.012984 
105.013756 0.001919 
105.98951 0.013286 
106.884323 0.010534 
107.912178 0.010726 
108.973701 0.002191 
110.772079 0.018599 
112.773766 0.001752 
118.490448 0.01503 
121.891479 0.008262 
123.536537 0.00863 
123.747147 0.019011 
126.10434 0.010067 
129.494125 0.006379 
129.851517 0.008814 
129.997162 0.001762 
130.0 0.00265 
135.130814 0.002551 
135.836945 0.00627 
136.334106 0.006061 
139.791519 0.001619 
140.048294 0.016972 
143.308533 0.001824 
145.90567 0.001834 
146.114273 0.008833 
146.311478 0.015957 
147.080353 0.01477 
149.66861 0.006634 
151.309799 0.017892 
152.727631 0.012262 
153.389893 0.01148 
153.930725 0.015536 
156.943451 0.017686 
158.606354 0.009208 
158.864594 0.00737 
160.786819 0.016774 
165.539764 0.015691 
165.966599 0.020378 
167.71228 0.006321 
168.837585 0.018673 
173.194763 0.006446 
174.459595 0.014411 
176.854538 0.008119 
177.271744 0.013426 
187.845306 0.014936 
192.906723 0.013427 
192.913635 0.005937 
194.299072 0.016613 
194.450821 0.01846 
196.551971 0.018151 
197.044281 0.008285 
197.653152 0.002227 
199.15686 0.0095 
200.136368 0.008911 
201.768829 0.0095 
205.652481 0.006694 
206.438065 0.009233 
206.977478 0.001814 
209.261597 0.014574 
210.452499 0.021808 
210.767273 0.009385 
214.654053 0.019128 
215.580887 0.006284 
215.926407 0.056318 
215.936035 0.222935 
215.946945 0.150565 
217.615662 0.012492 
219.174316 0.797804 
219.884674 0.012619 
220.177399 0.016683 
224.619766 0.019802 
227.118362 0.015583 
227.453171 0.00631 
231.113464 0.005466 
233.448257 0.011279 
235.415726 0.016849 
236.025955 0.006123 
244.653427 0.002434 
246.113174 0.004718 
248.107101 0.004433 
250.110336 0.009675 
263.138184 0.01743 
264.195953 0.025437 
265.130859 100.0 
266.134338 15.375888 
266.170593 0.176833 
266.209869 0.001945 
267.136963 0.508616 
272.69162 0.012248 
278.252502 0.007282 
280.673767 0.010158 
281.897766 0.002179 
283.141541 2.345846 
284.144714 0.291647 
285.143127 0.016869 
286.116547 0.014524 
286.823486 0.009318 
288.926666 0.001921 
END IONS

