BEGIN IONS
PEPMASS=465.349
CHARGE=1+
COMPOUNDNAME=(1R,3aR,5aR,5bR,9S,11aR)-3a,5a,5b,8,8,11a-hexamethyl-1-prop-1-en-2-yl-1,2,3,4,5,6,7,7a,9,10,11,11b,12,13,13a,13b-hexadecahydrocyclopenta[a]chrysen-9-ol
LIBRARYQUALITY=3
SMILES=N/A
INCHIKEY=MQYXUWHLBZFQQO-KIIHVYTKSA-N
INCHI=InChI=1S/C30H50O/c1-19(2)20-11-14-27(5)17-18-29(7)21(25(20)27)9-10-23-28(6)15-13-24(31)26(3,4)22(28)12-16-30(23,29)8/h20-25,31H,1,9-18H2,2-8H3/t20-,21?,22?,23?,24-,25?,27+,28-,29+,30+/m0/s1
MSLEVEL=2
SOURCE_INSTRUMENT=N/A-ESI-QFT
FILENAME=library_mgf.mgf
SEQ=*..*
IONMODE=positive
ORGANISM=MONA
NAME=(1R,3aR,5aR,5bR,9S,11aR)-3a,5a,5b,8,8,11a-hexamethyl-1-prop-1-en-2-yl-1,2,3,4,5,6,7,7a,9,10,11,11b,12,13,13a,13b-hexadecahydrocyclopenta[a]chrysen-9-ol [M+K]+
PI=MoNA
DATACOLLECTOR=MoNA:VF-NPL-QEHF009285
PUBMED=N/A
SUBMITUSER=mwang87
TAGS=
SPECTRUMID=CCMSLIB00004700348
SCANS=9285
51.527973 0.241806 
51.940796 3.394063 
53.00304 1.174875 
53.03944 6.773621 
53.765182 0.273764 
54.598038 0.293392 
55.018707 3.51864 
55.055054 33.604919 
55.264881 0.288554 
55.336815 0.250102 
55.935188 0.386977 
56.050278 12.639625 
56.965637 7.739765 
57.034325 6.822562 
57.070698 50.672058 
57.308891 0.293844 
58.065933 5.339567 
59.049984 21.529459 
59.769135 0.240522 
59.991028 1.68976 
60.375843 0.276951 
60.610626 0.292998 
60.766094 0.283261 
61.011436 32.294823 
62.019264 24.490837 
62.252258 0.275696 
62.671799 0.259517 
62.982533 15.457357 
62.99073 0.272695 
63.007404 0.379708 
63.02702 0.50992 
63.998493 2.665466 
64.014954 0.296884 
65.006432 0.860413 
65.039375 11.428579 
65.692635 0.238801 
67.054993 25.914406 
67.413521 0.253466 
67.935539 0.305682 
68.050201 2.180235 
68.943398 0.24309 
69.034248 3.172485 
69.045609 0.241815 
69.070641 21.02376 
70.065834 12.739059 
70.958656 0.366767 
71.049919 3.919449 
71.086258 9.899097 
71.930054 0.359848 
71.982651 0.230734 
72.045082 0.590996 
72.293861 0.269613 
72.876633 0.237216 
72.937897 1.018246 
73.029114 7.933569 
73.047577 13.953473 
73.06546 1.148359 
74.060745 0.309029 
74.976196 0.361341 
75.026962 0.553296 
75.044601 0.469121 
76.40078 0.279461 
77.006248 0.294648 
77.03933 0.639598 
77.042488 0.292192 
78.25618 0.253011 
78.302666 0.250162 
78.835953 0.276958 
78.956383 0.3689 
78.959496 1.041228 
78.964493 0.242325 
78.967545 0.239599 
79.021889 27.250389 
79.054909 22.354334 
79.968452 0.279118 
80.05027 0.300519 
80.058243 0.377897 
81.034172 0.324607 
81.070549 37.694141 
82.065788 1.809474 
82.073868 1.337693 
82.640961 0.343685 
82.667381 0.303097 
83.049843 3.073625 
83.086174 9.299209 
83.530907 0.301213 
84.081421 1.973447 
85.029221 0.259911 
85.10173 1.705147 
85.249847 0.286299 
86.097069 0.713364 
86.830078 0.267493 
87.044678 20.174614 
89.060318 41.656143 
89.67952 0.265502 
89.776047 0.307931 
90.06366 1.030182 
90.948242 2.029231 
91.054794 42.724106 
91.057968 44.712914 
91.144447 0.252547 
91.282784 0.284053 
92.057762 6.76587 
92.061211 2.306117 
92.708473 0.271589 
92.975044 0.748099 
92.983253 2.686759 
93.037308 5.899516 
93.054871 1.247491 
93.070435 34.600033 
93.909698 0.311984 
94.065666 2.255997 
94.073792 1.604859 
95.016548 0.675527 
95.04966 18.370047 
95.086082 19.036602 
95.626793 0.256678 
96.081337 7.323149 
97.065399 3.370325 
97.101631 1.754367 
98.096977 37.800903 
98.139969 0.275646 
98.97599 0.36729 
98.984665 10.167565 
99.044418 1.603628 
100.05838 0.2829 
101.060295 0.317857 
102.948753 1.039686 
103.054764 13.288841 
103.223534 0.244122 
103.602379 0.257606 
104.058418 0.279862 
104.649261 0.259175 
104.914505 0.641315 
105.033707 0.301336 
105.045197 6.862171 
105.070343 16.288708 
105.073685 0.652719 
107.049568 6.342998 
107.05323 0.637109 
107.086021 14.791371 
108.052322 0.345476 
108.081261 0.744912 
108.970047 0.373549 
109.065262 8.177455 
109.077003 0.32404 
109.101509 4.583565 
109.540222 0.252518 
110.06028 0.330168 
110.096924 0.321979 
110.385818 0.260228 
110.993752 0.774022 
111.044518 2.011926 
112.802162 0.279984 
113.628036 0.337785 
113.894531 0.329997 
113.929741 0.311368 
114.091614 3.939484 
115.355232 0.278227 
116.985748 0.266464 
117.070251 5.706136 
118.52462 0.280654 
118.947495 0.606634 
119.049438 3.988041 
119.060486 0.283367 
119.085869 14.084676 
119.152382 0.264363 
119.857414 0.249229 
119.95092 0.326031 
120.081062 0.936247 
120.089615 0.277771 
121.028709 100.0 
121.039757 3.512775 
121.065117 23.968786 
121.10154 5.360413 
121.106171 0.274939 
121.702896 0.280011 
121.965851 0.289929 
122.032036 5.379949 
122.06855 0.366819 
122.181633 0.274652 
123.034271 0.292913 
123.080711 0.458778 
123.10421 0.266578 
123.117325 0.380918 
124.170158 0.265275 
124.96447 0.349159 
125.000252 1.374545 
125.936111 6.071358 
127.984337 0.26538 
128.062302 1.19118 
129.070206 0.920687 
131.048828 0.336208 
131.085754 2.865336 
131.970673 0.256439 
133.039719 0.29934 
133.06514 2.927923 
133.101334 3.112171 
133.661118 0.247268 
134.956573 0.416419 
134.97879 2.376272 
135.044006 0.305322 
135.080429 1.247678 
135.116837 1.509476 
136.958069 0.3213 
137.011948 1.195364 
137.059875 4.634455 
137.096832 0.264225 
138.127975 0.894821 
139.014847 0.302464 
140.069 0.279694 
140.959396 1.104901 
142.07785 0.737892 
143.085983 1.189628 
144.958832 0.393413 
144.980072 0.24991 
145.065384 0.900162 
145.101227 1.730266 
146.974503 5.997865 
147.044266 12.111707 
147.08046 2.535304 
147.116989 0.266813 
147.975143 0.266989 
148.925766 4.25747 
148.972061 5.276611 
149.034912 1.028918 
149.044952 4.793165 
149.64296 0.271344 
150.044846 0.304787 
150.951218 5.094507 
150.97023 0.410005 
151.075287 0.264909 
152.989502 2.94914 
154.327011 0.286308 
154.968536 1.639927 
155.287094 0.27562 
156.092728 0.330659 
156.138474 16.15164 
157.011185 0.977401 
157.101456 1.049738 
159.081116 0.295119 
159.116959 1.83716 
162.911346 0.291968 
163.006744 0.249694 
163.777847 0.299736 
164.907211 0.313354 
164.92067 12.862793 
164.967712 0.292069 
165.054825 34.312225 
166.058121 1.6656 
166.928909 0.269912 
166.982651 0.349721 
167.055557 19.951122 
168.055389 2.743146 
168.961868 1.029555 
169.03476 1.035715 
169.052292 1.847934 
170.963135 0.720134 
171.11702 0.614745 
175.245377 0.261563 
178.392136 0.270673 
179.954636 0.316292 
180.894897 1.73608 
180.944351 1.445294 
182.94191 0.471486 
184.17482 0.276348 
188.582367 0.262867 
188.974564 0.350169 
191.651001 0.25939 
191.880814 0.517224 
192.006363 0.397981 
198.954453 1.196764 
199.486008 0.281907 
202.966797 0.31701 
203.143295 0.955175 
203.775986 0.326951 
205.986633 0.272127 
207.874634 0.286852 
208.883774 0.630616 
209.891541 1.317408 
210.353424 0.285695 
213.435562 0.258845 
215.183456 0.278545 
217.968323 0.787714 
219.174438 0.576428 
220.263992 0.823927 
220.275101 2.543821 
220.290741 0.322781 
220.903534 0.412848 
222.898819 9.094974 
224.878479 1.090558 
225.043121 23.99497 
225.887314 0.310873 
226.043106 12.916612 
227.022324 11.579197 
227.040054 6.103365 
228.022156 5.061625 
229.001694 1.316182 
229.018982 1.217192 
229.142792 0.261724 
229.896576 0.920401 
231.983459 0.636011 
234.899933 0.361006 
237.349884 0.276746 
238.913589 1.135441 
240.90947 15.674269 
241.912521 0.283479 
244.884781 0.39282 
244.963791 0.275315 
247.907913 0.333864 
248.878952 0.30423 
250.894089 1.068494 
254.033783 0.289959 
254.907455 0.288106 
254.925568 0.490461 
255.13559 0.299989 
260.320404 0.271155 
260.503265 0.266892 
262.89444 0.919714 
263.114899 0.282001 
266.359802 0.317082 
266.998901 7.187161 
267.99942 6.932868 
268.979004 1.330565 
268.996246 2.236839 
269.978973 0.499771 
270.865601 0.538463 
272.90274 0.271867 
274.08783 0.257486 
276.877136 0.276405 
280.813324 0.311298 
281.911499 0.296318 
283.030701 2.597348 
284.031006 3.135127 
285.027374 2.078515 
285.836151 0.377305 
288.006378 0.281664 
289.380585 0.285991 
292.906891 0.311614 
298.863464 0.263394 
300.063049 0.277126 
300.82312 0.883234 
302.857178 0.675679 
308.936646 0.342162 
309.835632 5.294957 
310.844055 14.837936 
323.190765 0.266026 
324.823425 3.011723 
325.831177 0.623389 
326.838867 3.11657 
327.21109 0.282079 
327.845825 0.927881 
330.905334 0.341149 
333.835846 1.15475 
334.84317 0.578588 
340.83667 0.280003 
342.833466 18.584517 
344.976471 2.454225 
345.974915 0.639776 
351.846527 11.374675 
352.848358 0.266554 
354.385498 0.282638 
356.915558 0.32183 
357.698364 0.269099 
358.826263 0.263393 
369.85849 0.357656 
373.339233 0.293227 
393.753387 0.289103 
397.322418 0.278818 
402.965088 0.928836 
409.39566 0.33903 
425.915527 0.280205 
430.915192 0.310887 
434.311462 0.298003 
447.346527 2.486426 
448.353821 0.31538 
463.947601 0.486866 
478.589478 0.290232 
488.83728 0.373642 
END IONS

