BEGIN IONS
PEPMASS=341.1
CHARGE=1+
COMPOUNDNAME=Dechlorogriseofulvin
LIBRARYQUALITY=3
SMILES=N/A
INCHIKEY=QPCYNIYZPDJCMB-UHFFFAOYSA-N
INCHI=InChI=1S/C17H18O6/c1-9-5-10(18)6-14(22-4)17(9)16(19)15-12(21-3)7-11(20-2)8-13(15)23-17/h6-9H,5H2,1-4H3
MSLEVEL=2
SOURCE_INSTRUMENT=N/A-ESI-QFT
FILENAME=library_mgf.mgf
SEQ=*..*
IONMODE=positive
ORGANISM=MONA
NAME=Dechlorogriseofulvin [M+Na]+
PI=MoNA
DATACOLLECTOR=MoNA:VF-NPL-QEHF000823
PUBMED=N/A
SUBMITUSER=mwang87
TAGS=
SPECTRUMID=CCMSLIB00004691886
SCANS=823
50.382694 0.025662 
50.452217 0.007557 
51.596565 0.020929 
51.916241 0.020829 
53.30965 0.011073 
53.439705 0.023519 
53.600906 0.02287 
53.785976 0.011834 
54.072617 0.008636 
54.089867 0.008305 
54.687458 0.012874 
54.703781 0.012564 
55.054939 0.012902 
55.935223 0.030983 
55.975323 0.02615 
56.147461 0.007758 
56.355209 0.025137 
56.702785 0.022463 
56.975166 0.006804 
56.981888 0.018087 
57.070564 0.39556 
57.213684 0.014377 
57.647041 0.02408 
58.043877 0.011203 
58.065727 0.08938 
58.257416 0.010502 
58.712967 0.009002 
59.04982 0.330639 
59.061085 2.0653 
59.380985 0.019571 
59.724941 0.011546 
60.081459 0.108133 
61.011326 2.844441 
62.014439 0.007628 
62.019131 0.595789 
62.852657 0.0274 
62.990494 0.018487 
63.007156 0.021216 
63.009846 0.026367 
64.668999 0.026473 
65.532608 0.02225 
67.054863 0.05961 
67.444412 0.007323 
67.518257 0.022486 
68.14756 0.011365 
68.164528 0.020251 
69.034111 0.875725 
69.070465 0.158748 
70.065712 0.087091 
71.029587 0.023753 
71.049782 0.066007 
71.086105 0.163597 
71.560959 0.008301 
72.493317 0.022754 
72.782661 0.019532 
72.937698 0.060288 
73.019302 0.007328 
73.029358 0.011963 
73.047417 0.655278 
73.072746 0.027321 
74.187454 0.024152 
74.715668 0.00766 
77.102921 0.011932 
77.688911 0.021923 
78.013969 1.350661 
78.871498 0.020775 
79.02179 1.671726 
79.600128 0.013699 
80.215858 0.019911 
80.693108 0.027043 
81.070404 0.253714 
82.732887 0.024456 
82.965271 0.012217 
83.086098 0.116649 
83.742722 0.008075 
84.081085 0.008766 
84.946358 0.024514 
85.060013 0.006394 
85.065247 0.035112 
85.155991 0.034101 
85.623444 0.024968 
86.06105 0.007197 
86.096703 0.020143 
86.217667 0.027887 
86.704674 0.026773 
87.044525 0.978159 
87.381088 0.024846 
87.566193 0.021035 
88.040779 0.02417 
89.060196 1.628534 
89.555412 0.023548 
89.770866 0.020025 
89.834702 0.019618 
89.940147 0.032141 
89.964134 0.00948 
90.948143 0.024144 
91.05481 0.049022 
91.057777 1.214133 
93.017509 0.008709 
93.070251 0.140135 
95.049515 0.028572 
95.085892 0.571104 
96.986206 0.011227 
97.101524 0.081365 
98.638954 0.02535 
98.975777 0.060515 
100.933243 0.021575 
101.00341 0.619015 
101.835556 0.013051 
102.091736 0.038777 
103.039307 0.739649 
103.075729 0.063908 
104.54229 0.028956 
105.33297 0.020522 
107.0495 0.021394 
107.085793 0.631552 
108.579102 0.028557 
109.101395 0.260467 
111.068886 0.007452 
111.080635 0.031818 
111.251312 0.019306 
111.96093 0.03022 
112.331558 0.019256 
113.059875 0.169327 
113.866173 0.027672 
116.796783 0.027087 
116.98584 0.035392 
118.112427 0.022595 
118.250504 0.008204 
118.57486 0.032545 
118.925323 0.008018 
119.085464 0.011156 
121.064896 0.037602 
121.101089 0.046896 
123.08036 0.080151 
123.116882 1.066023 
123.592628 0.030513 
126.056313 0.019879 
126.938454 0.023796 
128.070663 0.021887 
128.143372 0.023758 
128.963303 0.009211 
129.065155 0.026159 
129.337814 0.00907 
130.305588 0.028685 
130.675659 0.027401 
131.070297 0.074986 
133.085831 0.367426 
133.091187 0.012576 
133.101166 0.06599 
134.9561 0.400101 
135.044128 0.009945 
135.116837 0.078221 
136.002518 0.01028 
137.413208 0.022059 
140.106689 0.028639 
143.436249 0.008049 
144.010574 0.013341 
144.770203 0.031473 
145.693695 0.008572 
146.974152 0.010549 
147.116638 0.020192 
147.244095 0.028246 
147.732681 0.007918 
148.348862 0.028077 
148.955597 0.052289 
148.971664 0.807144 
149.059662 4.093953 
149.07132 0.012839 
149.953857 0.009044 
150.062958 1.401802 
150.950928 4.89365 
151.111679 0.023118 
151.465561 0.019153 
151.951065 0.011162 
152.945816 0.016471 
152.951721 0.101501 
152.966553 0.180685 
153.054443 0.014472 
153.127243 0.239521 
153.86795 0.018219 
154.122391 0.149545 
157.731247 0.022847 
157.738495 0.019785 
159.77121 0.014065 
160.005371 0.042234 
160.465454 0.018961 
160.794525 0.008429 
161.740433 0.02737 
163.286591 0.030765 
163.728531 0.036113 
164.101624 0.02925 
164.966431 0.239345 
165.054474 0.253565 
165.938171 0.075703 
166.965958 0.008882 
166.981873 0.077732 
168.961411 1.986519 
170.154388 0.05567 
172.133286 0.230579 
172.220627 0.018704 
173.078293 0.997336 
173.339111 0.030583 
173.430817 0.021663 
175.095703 0.012835 
175.11142 0.01383 
176.000046 0.007717 
178.015854 0.052692 
178.87468 0.019165 
179.022018 0.251123 
179.143539 0.009135 
179.586548 0.028343 
180.94368 2.980177 
180.960999 0.037757 
181.049316 0.670335 
181.902542 0.018752 
181.944824 0.719895 
182.039444 0.020924 
182.939468 0.950343 
182.944138 1.533375 
182.977036 0.390328 
184.580414 0.032739 
184.666718 0.00965 
184.939545 0.742377 
185.964676 0.020574 
186.878708 0.037392 
189.877716 0.022665 
190.966156 0.157045 
191.002274 0.01763 
191.998566 0.051314 
192.013565 0.008576 
192.961533 2.796898 
197.11499 0.070899 
197.582077 0.023063 
197.946518 0.069816 
197.957016 0.010028 
198.95433 2.738004 
199.955688 0.795243 
200.949966 1.714351 
201.292831 0.023793 
201.952896 0.012866 
201.966965 0.082059 
202.086151 10.954958 
202.096954 0.165817 
203.089493 1.264746 
204.888306 0.010147 
204.961533 0.010828 
205.015808 0.07014 
205.657867 0.026633 
205.987167 0.010655 
206.86795 0.01107 
206.977524 0.31091 
208.976364 0.02268 
208.993561 0.03024 
209.976257 0.038316 
210.023422 0.014867 
210.971939 1.760131 
211.147293 0.027363 
212.933426 0.009186 
212.970169 0.074343 
213.714401 0.024708 
214.020096 0.009092 
214.737244 0.530643 
214.746933 0.340353 
214.753418 0.300397 
215.010117 0.079102 
216.929031 0.010417 
217.007431 1.230834 
218.010788 0.225613 
218.97757 0.009616 
219.014435 0.032147 
220.030777 0.008293 
220.90329 0.010932 
221.015549 0.029604 
221.044418 0.144404 
221.901718 0.009749 
222.047653 0.022133 
222.643356 0.029916 
222.898254 0.950422 
222.920822 0.043043 
223.205841 0.030576 
223.632019 0.008389 
224.073044 0.01003 
224.878052 0.01078 
224.898926 0.082833 
226.895096 0.010816 
226.950012 0.022383 
228.128296 0.024609 
228.928589 0.194749 
229.895767 1.143807 
230.925476 0.031459 
233.080658 0.14709 
233.98793 0.609839 
235.23735 0.022024 
236.613525 0.014758 
237.906143 0.012428 
238.893127 0.024088 
238.913803 0.035296 
239.901001 0.872842 
240.232025 7.723668 
240.908981 1.550583 
242.909454 0.296163 
243.026077 1.368652 
243.061905 0.078065 
243.53183 0.024352 
244.904922 0.013794 
244.991837 0.01162 
245.890961 0.023105 
246.846939 0.024631 
246.89859 0.447923 
246.939102 0.664832 
247.906113 0.717776 
247.929001 0.542131 
247.939896 0.009715 
248.918579 0.449828 
248.937485 0.687057 
249.906448 0.010126 
250.915222 0.03313 
250.932922 0.10523 
251.0914 0.060549 
251.124924 0.133331 
252.196121 0.043498 
252.891541 0.19234 
253.036819 0.009122 
254.872314 0.029832 
254.985107 0.010749 
255.041351 0.102481 
258.02417 0.00834 
259.9599 0.011103 
260.953827 0.107413 
261.075836 0.01373 
261.906189 0.013075 
262.913483 0.348941 
263.898529 1.817646 
263.913116 0.065805 
264.908966 5.103831 
265.911987 0.254632 
265.939423 3.397215 
266.211639 0.052182 
266.909363 0.012889 
266.925201 0.010326 
266.943512 0.151289 
268.227234 0.060799 
268.904938 0.00755 
268.942841 0.064804 
269.135681 1.822124 
270.114288 0.013863 
270.140503 0.010941 
270.901947 0.110894 
272.441071 0.023227 
278.924469 0.140113 
279.897003 0.261414 
279.916382 0.732938 
279.954193 0.106661 
279.96875 0.069539 
279.993042 0.245043 
280.903107 0.263277 
280.924255 0.128648 
280.962616 0.031703 
281.019531 0.042665 
281.911346 7.619389 
282.114624 0.434809 
282.24173 0.086803 
282.90152 0.640118 
282.919159 4.085201 
283.169159 0.120613 
283.262177 0.037674 
283.921509 0.095047 
283.949524 0.380033 
284.221466 0.897493 
284.881134 0.027016 
293.067017 0.016005 
295.927094 0.166697 
296.128082 0.384303 
296.294159 2.082457 
296.93515 0.103028 
297.297974 0.181663 
297.906403 0.046293 
298.11026 0.012283 
300.125397 1.212409 
301.126892 0.010658 
301.64032 0.027695 
307.135681 0.012188 
308.044861 0.029885 
308.091522 0.358838 
308.861908 0.01992 
308.88092 0.013644 
308.9198 0.021472 
309.096588 0.012302 
309.149963 0.034451 
309.217957 0.056484 
310.107483 0.10255 
311.9039 0.012186 
317.010773 0.009394 
317.949677 0.050877 
319.116486 0.01912 
323.06778 1.187806 
324.069092 0.014277 
324.12265 3.735869 
324.252747 0.10229 
324.985382 0.024486 
325.066528 0.026727 
325.094635 0.06623 
325.128998 2.111799 
326.076477 0.158728 
326.132568 0.123718 
326.89151 0.061964 
327.161072 0.008988 
330.327362 0.018686 
339.941223 0.011473 
340.116974 0.598176 
340.154053 36.58857 
340.357239 0.09106 
340.393494 10.094356 
341.099213 100.0 
341.156525 10.852853 
341.190948 1.334186 
341.265381 3.228405 
341.354034 0.132683 
341.396759 2.653817 
341.914734 0.420568 
342.10257 19.261662 
342.157959 1.477878 
342.244629 0.013729 
342.267426 0.565346 
342.314392 0.009888 
342.374054 0.160006 
342.399506 0.086167 
342.995605 0.093799 
343.104309 1.590509 
343.208466 0.473873 
343.245392 0.048027 
343.997406 0.010728 
344.342102 0.032067 
344.846313 0.009559 
345.907623 0.021117 
359.024719 0.180918 
359.109589 0.028016 
362.295898 0.022907 
END IONS

