BEGIN IONS
PEPMASS=338.16
CHARGE=1+
COMPOUNDNAME=Mycophenolic acid
LIBRARYQUALITY=3
SMILES=CC1=C(C(=C(C2=C1COC2=O)O)C/C=C(\C)/CCC(=O)O)OC
INCHIKEY=HPNSFSBZBAHARI-RUDMXATFSA-N
INCHI=N/A
MSLEVEL=2
SOURCE_INSTRUMENT=LC-ESI-qTof
FILENAME=Mycophenolic.mgf
SEQ=*..*
IONMODE=Positive
ORGANISM=GNPS-SELLECKCHEM-FDA-PART1
NAME=Mycophenolic acid M+NH4
PI=Sirenas
DATACOLLECTOR=Ed Esquenazi
PUBMED=N/A
SUBMITUSER=mwang87
TAGS=
SPECTRUMID=CCMSLIB00000005127
SCANS=12
103.053131 247.372192 
103.097092 3.688725 
103.489555 10.33409 
104.054214 66.043213 
105.031799 39.82843 
117.032562 11.63516 
135.078125 14.4518 
138.911865 13.22377 
149.058716 71.871468 
158.165192 3.380953 
159.04393 1427.884033 
159.113205 3.342592 
159.132202 16.0819 
159.236053 6.111111 
159.379059 14.87083 
159.50148 2.854167 
159.895554 6.633772 
160.18663 11.33929 
160.23262 2.333333 
160.951263 10.05 
177.371124 7.429762 
177.756241 5.265351 
184.082092 7.667793 
193.049011 36.23259 
195.063614 72.336601 
195.114166 15.31322 
202.103912 5.346264 
206.104813 9.010715 
207.06424 914.586609 
207.119934 3.678571 
207.237839 13.17708 
207.331879 3.640152 
207.370346 5.76923 
207.390381 5.668333 
207.409836 7.177631 
207.50322 12.30972 
213.120956 19.47756 
215.101822 18.61256 
215.419968 4.333333 
215.54509 7.041667 
215.77533 6.306159 
232.442902 13.00278 
239.100037 63.132339 
255.901611 7.633772 
270.081055 23.31296 
1478.820435 5.875 
END IONS

