BEGIN IONS
PEPMASS=597.394
CHARGE=1+
COMPOUNDNAME=Astaxanthin
LIBRARYQUALITY=3
SMILES=N/A
INCHIKEY=MQZIGYBFDRPAKN-QISQUURKSA-N
INCHI=InChI=1S/C40H52O4/c1-27(17-13-19-29(3)21-23-33-31(5)37(43)35(41)25-39(33,7)8)15-11-12-16-28(2)18-14-20-30(4)22-24-34-32(6)38(44)36(42)26-40(34,9)10/h11-24,35-36,41-42H,25-26H2,1-10H3/b12-11+,17-13+,18-14+,23-21+,24-22+,27-15+,28-16+,29-19+,30-20+
MSLEVEL=2
SOURCE_INSTRUMENT=N/A-ESI-QFT
FILENAME=library_mgf.mgf
SEQ=*..*
IONMODE=positive
ORGANISM=MONA
NAME=Astaxanthin [M+H]+
PI=MoNA
DATACOLLECTOR=MoNA:VF-NPL-QEHF003103
PUBMED=N/A
SUBMITUSER=mwang87
TAGS=
SPECTRUMID=CCMSLIB00004694166
SCANS=3103
50.254658 0.088194 
50.807762 0.057872 
51.150139 0.055427 
51.801113 0.008749 
52.21006 0.005268 
52.904816 0.014493 
52.945107 0.008064 
53.039375 0.121143 
53.618282 0.059293 
53.67783 0.066275 
54.297153 0.018634 
54.995525 0.05929 
55.018562 0.298201 
55.054989 4.04076 
55.142567 0.063308 
55.312222 0.024486 
55.595814 0.027939 
56.229942 0.056359 
56.762779 0.086686 
56.915051 0.014177 
57.034225 0.425848 
57.070621 6.491737 
57.178623 0.024955 
57.296021 0.00583 
57.509609 0.065497 
59.049877 0.769802 
59.255741 0.082784 
59.341766 0.036494 
60.026463 0.094758 
60.057476 0.014376 
60.322144 0.063228 
60.451752 0.089091 
60.690666 0.077594 
61.011112 0.006013 
61.855106 0.079659 
62.503994 0.062001 
62.915512 0.094466 
62.982395 0.341635 
63.990108 0.074923 
65.039291 0.190595 
66.399269 0.0595 
66.409904 0.02521 
67.020645 0.005024 
67.054924 7.530463 
67.907204 0.008526 
67.95562 0.038247 
68.058182 0.097717 
68.170593 0.005577 
68.282959 0.028576 
69.034157 1.931099 
69.070572 6.499051 
70.065804 0.016753 
70.073807 0.013893 
71.049805 0.292045 
71.086159 1.47611 
71.64711 0.022383 
72.598831 0.02282 
73.047386 0.224358 
73.065422 0.098132 
73.616425 0.064581 
75.088867 0.083273 
77.162064 0.005218 
78.331367 0.083354 
78.956268 0.02127 
79.021751 0.027009 
79.05484 4.193972 
79.468864 0.008475 
79.719742 0.063685 
79.883224 0.022697 
80.423683 0.086742 
80.948372 0.284272 
81.070473 12.199219 
81.751862 0.04055 
82.04509 0.040897 
82.073776 0.296608 
82.684944 0.024163 
82.945328 0.009833 
83.049728 3.704897 
83.086121 4.637509 
83.657402 0.010765 
83.736832 0.060427 
85.028778 0.026473 
85.065353 3.894109 
85.101761 0.634393 
86.839752 0.021741 
87.044571 0.328118 
87.204964 0.088944 
88.011009 0.015268 
88.318153 0.066108 
88.978668 0.019033 
89.060211 3.969068 
90.063545 0.072038 
90.334297 0.036281 
91.054756 4.612924 
91.057724 1.073899 
93.070335 13.061185 
93.688087 0.024621 
94.073669 0.472599 
94.328804 0.008751 
94.7771 0.021449 
94.929993 0.011195 
95.049591 6.613611 
95.085968 11.092231 
95.464928 0.061487 
96.052757 0.029917 
96.068855 0.069194 
96.089363 0.558862 
96.876541 0.086074 
96.922112 0.101474 
97.028732 0.00693 
97.065239 5.380195 
97.101501 0.818733 
98.068611 0.027547 
98.855118 0.076789 
98.919296 0.007122 
99.11718 0.010125 
99.181252 0.091633 
99.792999 0.066458 
101.003517 0.057735 
103.054443 0.069454 
104.992561 0.113669 
105.06636 0.184342 
105.070229 14.901119 
105.074203 0.171537 
105.076721 0.024073 
106.073639 0.948865 
106.077866 0.235335 
106.94136 0.059979 
107.049469 0.419065 
107.085831 36.03347 
107.967018 0.214072 
108.057396 0.094159 
108.089203 2.46026 
108.093239 0.168626 
108.719513 0.015085 
109.065071 4.322963 
109.101479 31.248243 
109.105652 0.498035 
110.104767 2.454421 
110.573166 0.015261 
111.044243 0.180487 
111.080719 8.705799 
111.117073 0.096855 
112.084122 0.11377 
112.117424 0.117394 
112.693375 0.070487 
112.895737 0.010107 
113.059898 0.546859 
114.749184 0.026618 
115.054611 0.121006 
115.086815 0.164636 
117.070137 2.972618 
118.971649 0.007616 
119.049316 1.011133 
119.085754 45.190472 
120.089035 4.035962 
120.093506 1.216759 
120.172569 0.101297 
121.064987 4.033848 
121.101349 14.322353 
122.104729 0.953102 
123.080589 4.946481 
123.116989 2.055954 
123.94091 0.104297 
125.059731 0.253592 
125.09623 7.312179 
126.099556 0.090224 
127.075317 0.077692 
127.801788 0.043103 
128.062271 0.15569 
128.953262 0.009305 
129.069946 2.309813 
130.077881 0.476361 
130.674881 0.027712 
131.085571 12.804568 
131.090714 0.139095 
132.088593 0.63691 
132.093445 2.213307 
132.98735 0.007929 
133.045685 0.066018 
133.064804 11.486156 
133.076248 0.071229 
133.085953 1.410636 
133.101181 21.583614 
134.067688 0.44723 
134.072769 2.081544 
134.104492 1.593532 
135.002838 0.254289 
135.08046 18.323725 
135.107849 0.039402 
135.116837 15.837962 
136.083679 1.483652 
136.120148 1.084765 
136.558685 0.040797 
137.059601 0.177228 
137.0961 8.934727 
137.132523 0.644186 
138.099304 0.342613 
139.07515 0.116371 
139.111816 0.287222 
139.702576 0.096733 
140.068375 0.006859 
140.95871 0.013073 
141.069916 0.278039 
142.027512 0.086133 
142.077835 1.482815 
142.647232 0.005311 
142.938461 0.06921 
143.085556 11.099192 
144.087921 0.417497 
144.093674 2.932018 
144.928284 0.009738 
145.064957 1.130149 
145.101151 28.33543 
146.104279 2.483052 
146.110092 0.209445 
146.489044 0.07405 
147.044052 0.215448 
147.080414 4.924224 
147.116776 100.0 
148.083588 0.071494 
148.120071 10.444545 
149.096115 4.791556 
149.132538 2.241828 
150.013641 0.053748 
150.976761 0.023714 
151.075363 1.336731 
151.111725 2.459985 
151.148911 0.006324 
153.090988 2.583733 
154.122574 0.009866 
155.068649 0.007883 
155.085495 3.30247 
155.106674 0.850829 
156.093491 3.550175 
156.164139 0.069228 
157.101151 21.88261 
158.07309 0.174832 
158.103561 0.733437 
158.109314 2.629164 
159.08049 5.134539 
159.116806 19.458811 
160.088821 0.172206 
160.11998 1.884939 
161.0961 5.617411 
161.132401 14.25302 
161.13945 0.302638 
162.067551 0.446237 
162.098984 0.017058 
162.135376 0.943342 
163.075333 3.33605 
163.11174 2.738896 
163.148163 0.346897 
164.920563 0.564813 
164.928131 0.006346 
165.070755 0.024905 
165.090897 0.069065 
165.12764 0.01003 
166.524414 0.042205 
167.055313 0.09976 
167.08548 1.416171 
167.10675 0.318316 
168.093552 0.577173 
169.101166 9.062422 
170.109436 2.690203 
170.116226 0.027611 
171.062012 0.00878 
171.08049 2.252198 
171.116821 16.611835 
171.149139 0.016501 
172.088181 0.08195 
172.119385 0.980528 
172.125839 0.386708 
173.096268 5.045887 
173.132462 33.305634 
174.103775 0.130881 
174.135605 4.102016 
175.075287 0.708162 
175.111862 2.998076 
175.140472 0.070233 
175.148056 3.472485 
176.114822 0.089327 
177.091003 1.236345 
177.127625 0.765302 
179.085526 1.220722 
179.106628 0.604129 
179.142899 0.167719 
180.09346 0.241419 
180.89444 0.102308 
181.101089 5.093205 
182.108948 2.195508 
183.08017 0.346086 
183.116882 11.315849 
183.125305 0.061372 
184.087234 0.121583 
184.124802 0.881288 
184.209442 0.042657 
184.980347 0.012499 
185.096115 2.952561 
185.132492 12.88083 
186.103958 2.360627 
186.136047 1.065656 
186.996185 0.011977 
187.111877 4.56372 
187.14801 5.868231 
188.151062 0.008929 
188.96666 0.067959 
189.091064 0.584597 
189.12735 6.126886 
190.13063 0.359715 
190.190201 0.040889 
191.106247 0.07525 
191.143082 0.676319 
191.930054 0.026915 
193.101166 2.839958 
194.064987 0.097304 
194.108841 2.450435 
195.116898 12.338457 
196.08844 0.092273 
196.125092 3.632564 
197.096176 2.233197 
197.132477 16.524693 
198.136139 1.880094 
199.094101 0.01525 
199.111633 3.84243 
199.148117 4.513853 
200.11879 0.124342 
200.151886 0.202118 
201.090027 0.006646 
201.127304 13.342978 
201.163788 0.579014 
202.131104 1.646795 
203.106552 1.027553 
203.143097 4.035115 
205.122299 0.264301 
205.158798 1.985265 
206.108841 0.570486 
206.162949 0.010439 
207.116852 5.322613 
207.137268 0.099659 
208.12442 2.178688 
209.095947 0.604775 
209.132431 12.183931 
210.103302 0.19736 
210.139023 2.504677 
210.185135 0.07233 
211.111786 3.542839 
211.148224 8.133707 
211.569122 0.009117 
212.15213 0.738045 
212.780106 3.19227 
212.79213 2.485763 
213.127426 4.957136 
213.163803 1.901732 
214.131561 0.264517 
215.106339 0.207955 
215.143051 5.033274 
215.152939 0.008893 
215.179153 0.209805 
215.460007 0.00874 
215.530167 0.094066 
216.146744 0.066799 
217.081207 0.200371 
217.104126 0.0072 
217.122299 0.856059 
219.11673 0.924773 
219.137833 0.696662 
220.124344 0.768188 
221.132462 5.704646 
222.139359 2.037058 
223.062424 0.00687 
223.111557 1.900475 
223.148178 6.586367 
224.119492 0.343683 
224.153458 0.782161 
225.04303 0.02499 
225.127274 3.844628 
225.163605 4.416501 
226.133301 0.221109 
226.167892 0.453547 
227.142975 2.518619 
227.179382 2.751265 
228.184113 0.080682 
229.122238 0.963812 
229.158417 0.362979 
231.11647 0.110617 
231.137878 1.733736 
232.092209 0.367729 
232.124344 0.279233 
233.095001 0.008977 
233.132446 2.134956 
233.153839 0.35439 
234.14006 0.582233 
235.060806 0.207511 
235.111801 0.350906 
235.148117 3.991407 
236.118027 0.019808 
236.15448 0.53604 
237.12735 2.091699 
237.163635 3.449866 
238.134583 0.104877 
238.169678 0.346159 
239.032181 0.19448 
239.142838 1.759466 
239.17923 2.888939 
240.149521 0.236517 
240.184616 0.114471 
241.121933 0.254534 
241.158508 0.764134 
243.119003 0.026712 
243.137558 0.603588 
243.174347 0.009977 
244.122162 0.109508 
245.116348 0.007222 
245.132385 1.07951 
245.153458 0.031932 
246.139771 0.956728 
247.14801 2.806651 
248.066193 0.007034 
248.154846 0.754353 
249.12709 0.560878 
249.163361 2.949739 
249.945541 0.010283 
250.1689 0.272249 
251.142853 1.219113 
251.17926 1.897538 
252.147446 0.080066 
252.186142 0.316615 
253.158646 1.451642 
253.195023 1.139305 
254.165115 0.106338 
255.070374 0.044047 
255.137161 0.007186 
255.174255 1.164371 
257.116333 0.010578 
257.131866 0.01016 
257.189423 0.212332 
258.139862 0.07667 
259.11618 0.008475 
259.14798 1.627118 
260.121643 0.007205 
260.155579 1.086939 
261.127197 0.26556 
261.163757 3.547448 
262.169281 0.482064 
263.142822 0.329287 
263.17923 2.331032 
264.149933 0.013893 
264.184784 0.120485 
265.158722 0.912287 
265.194794 0.666716 
266.201294 0.156177 
267.13739 0.109834 
267.174072 1.966714 
268.583801 0.042089 
269.190094 0.235305 
271.147736 0.18329 
271.169006 0.363678 
272.155426 0.191646 
273.163361 0.78975 
274.171204 0.075115 
274.927948 0.096848 
275.143127 0.244619 
275.160278 0.017132 
275.178864 2.533706 
276.146912 0.047997 
276.184692 0.224936 
277.159271 0.765256 
277.194702 0.531143 
279.174408 1.042523 
281.189911 0.850795 
282.189148 0.015238 
283.169098 0.027851 
285.010315 0.012235 
285.163818 0.117991 
285.184631 0.585023 
285.325317 0.072701 
286.169678 0.105739 
287.179321 0.694121 
287.610443 0.096603 
288.154907 0.273689 
288.184937 0.100025 
289.158569 0.466176 
289.194672 0.631623 
291.173706 0.524384 
293.18985 0.600475 
297.164368 0.211037 
297.184723 0.492717 
299.061646 0.307447 
299.180908 0.284173 
299.200592 0.997095 
301.193604 0.326774 
303.174133 0.254361 
303.210419 0.383633 
304.09726 0.009734 
304.178345 0.085846 
305.189392 0.259267 
305.222382 0.01036 
308.021057 0.066441 
311.12674 0.012314 
311.200226 0.503029 
313.1604 0.009588 
313.195465 0.208373 
313.724274 0.10077 
315.211243 0.036388 
316.225128 0.232438 
317.22644 0.147391 
318.235565 0.171644 
319.204407 0.079658 
320.255981 0.01842 
323.200043 0.211017 
325.196106 0.104306 
327.212463 0.078917 
343.132111 0.02134 
344.976593 0.022848 
357.070831 0.00633 
357.147614 0.170121 
359.031982 0.008799 
359.23584 0.092835 
363.231781 0.010212 
371.162811 0.456344 
372.166931 0.034216 
377.212097 0.010293 
379.257019 0.007289 
385.178528 0.54089 
386.184113 0.025978 
394.846527 0.007319 
400.476288 0.085454 
401.16806 0.071255 
401.501099 0.006645 
404.975006 0.008867 
406.8479 0.032191 
412.853729 0.006669 
417.83493 0.00871 
418.993866 0.026007 
419.176727 0.327863 
422.987 0.027397 
424.674927 0.100005 
429.277954 0.073776 
440.999695 0.012376 
442.281952 0.076815 
443.159943 0.120593 
447.34613 0.27393 
460.212006 0.006562 
461.169495 1.082905 
463.8797 0.06883 
465.859833 0.006652 
476.846802 0.011504 
477.143097 0.011087 
477.21994 0.125968 
478.221924 0.025808 
479.181274 0.832684 
492.882416 0.008656 
495.430573 0.110224 
504.440369 0.027054 
509.27417 0.067013 
510.276459 0.048747 
517.086487 0.079337 
519.04303 0.046149 
532.373779 0.021902 
533.378601 0.006977 
535.147278 0.010215 
564.397583 0.043122 
565.407471 0.007291 
567.298462 0.047916 
579.842468 0.01777 
595.381348 4.745149 
596.386658 9.549699 
597.265686 0.018645 
597.34729 0.252423 
597.390747 1.733831 
597.498596 0.010387 
598.22168 0.090548 
598.346619 0.086929 
598.396423 2.851538 
598.483032 0.0659 
598.89856 1.394955 
599.328918 0.374201 
599.399292 0.333971 
599.449158 2.072614 
599.504211 0.028535 
608.904358 0.043506 
620.083435 0.102385 
END IONS

