BEGIN IONS
PEPMASS=490.248
CHARGE=1+
COMPOUNDNAME=TOBRAMYCIN
LIBRARYQUALITY=3
SMILES=N/A
INCHIKEY=NLVFBUXFDBBNBW-PBSUHMDJSA-N
INCHI=InChI=1S/C18H37N5O9/c19-3-9-8(25)2-7(22)17(29-9)31-15-5(20)1-6(21)16(14(15)28)32-18-13(27)11(23)12(26)10(4-24)30-18/h5-18,24-28H,1-4,19-23H2/t5-,6+,7+,8-,9+,10+,11-,12+,13+,14-,15+,16-,17+,18+/m0/s1
MSLEVEL=2
SOURCE_INSTRUMENT=N/A-ESI-QFT
FILENAME=library_mgf.mgf
SEQ=*..*
IONMODE=positive
ORGANISM=MONA
NAME=TOBRAMYCIN [M+Na]+
PI=MoNA
DATACOLLECTOR=MoNA:VF-NPL-QEHF011816
PUBMED=N/A
SUBMITUSER=mwang87
TAGS=
SPECTRUMID=CCMSLIB00004702879
SCANS=11816
50.060879 0.172966 
50.416359 0.165382 
51.135666 0.169975 
53.002918 0.250607 
53.039494 0.188176 
53.743706 0.161913 
53.810936 0.150723 
53.824116 0.144167 
54.613331 0.163814 
54.938358 0.162169 
55.018764 0.194507 
55.054989 8.734764 
55.356789 0.170324 
55.935135 2.774959 
56.050236 6.949131 
56.419338 0.176445 
56.965527 1.8949 
57.034294 1.35199 
57.070618 100.0 
58.037624 0.153004 
58.041843 0.166915 
58.065865 2.53722 
58.073982 2.684304 
58.363098 0.162107 
58.570572 0.178185 
59.04985 4.659702 
59.061108 3.427621 
59.99094 2.848137 
60.588818 0.155251 
60.717499 0.168518 
60.905357 0.150035 
61.011372 36.187355 
61.334286 0.147073 
61.572075 0.173683 
61.601906 0.156131 
62.019176 6.330921 
62.051552 0.160486 
62.099392 0.144238 
62.982437 1.446845 
63.007095 0.378854 
63.998451 0.781068 
64.978073 0.562627 
65.039291 0.18861 
65.053635 0.157735 
65.911461 0.151841 
66.537651 0.14516 
66.688148 0.157766 
67.054893 22.455744 
67.133736 0.145503 
68.058388 0.217722 
68.412766 0.157633 
69.034096 0.423135 
69.070518 16.44521 
69.755325 0.164205 
70.065796 1.355132 
70.12915 0.16566 
70.958412 0.526032 
71.049767 2.983207 
71.086166 11.852477 
71.14933 0.158559 
71.966675 0.191815 
72.045059 0.724363 
72.937744 2.152893 
73.029015 9.65249 
73.047333 0.221338 
73.065338 0.437977 
73.941673 0.18618 
74.097054 0.856038 
74.677193 0.143891 
74.931641 0.168898 
75.236397 0.136296 
76.076302 0.343371 
76.408592 0.150327 
76.652466 0.168442 
76.996597 0.156082 
78.403641 0.168298 
79.021805 16.41811 
79.054779 6.496369 
80.049919 0.374427 
80.054886 0.477972 
80.948395 2.339444 
81.033905 0.283378 
81.070427 18.047972 
82.065765 0.36853 
83.049728 0.443213 
83.086067 8.208481 
84.044998 0.232322 
84.081253 1.239358 
85.028862 0.214739 
85.065247 1.557942 
85.101791 4.803553 
86.096886 1.991805 
87.04451 13.811211 
87.982292 0.181026 
88.065247 0.177957 
88.076118 0.176358 
88.968994 0.205487 
88.978523 1.567271 
89.057129 0.222387 
89.060165 31.533997 
89.397362 0.155547 
89.939987 0.158913 
90.06356 0.224667 
90.948135 5.279848 
91.05468 6.982129 
91.057838 8.190757 
93.057755 0.217398 
93.070267 10.157116 
94.065559 0.548752 
95.049591 1.333107 
95.085983 17.32419 
96.081253 1.661149 
96.089241 0.321761 
97.065125 1.019697 
97.101578 4.539341 
98.096817 0.469426 
98.959236 0.176009 
98.97583 0.453249 
99.044334 0.4934 
99.080841 0.189544 
100.075996 3.359821 
100.112663 0.216229 
100.563507 0.185279 
100.769196 0.142779 
101.003525 6.026565 
101.059868 0.666839 
102.091621 0.16331 
103.039284 2.340809 
103.0756 0.168278 
104.99263 2.596599 
105.033752 1.674708 
105.070152 4.632441 
106.041237 0.194296 
106.065384 0.540791 
107.049431 0.836317 
107.070511 0.209681 
107.0858 6.31006 
108.081062 1.103842 
108.958466 3.635204 
109.064964 0.805685 
109.10141 16.813166 
109.885063 0.168553 
110.096794 0.271314 
110.634171 0.164838 
111.043968 0.218826 
111.080635 1.071418 
111.11689 0.822628 
112.489655 0.186846 
113.042671 0.175379 
113.060074 0.75753 
113.107529 4.000261 
113.708237 0.209919 
114.127998 0.201045 
114.293617 0.177021 
115.236328 0.157112 
116.053055 8.834983 
116.963249 0.200897 
116.986015 2.652557 
117.070068 1.651635 
117.729187 0.193991 
118.086288 0.228182 
118.857704 0.153533 
118.943047 0.188131 
118.971565 0.210139 
119.085663 6.640541 
120.081009 0.581303 
121.064888 5.577968 
121.101265 4.604618 
122.023369 0.153785 
122.096626 0.68933 
122.973984 0.166213 
123.080864 0.176135 
123.116867 2.683845 
123.360077 0.154882 
123.677696 0.169345 
125.096039 0.496369 
125.961052 0.250438 
126.623489 0.153233 
128.143417 0.617653 
128.907104 0.20052 
128.963409 0.713595 
129.05452 0.371924 
130.159042 10.403041 
131.070526 0.19086 
131.085663 1.644845 
131.986557 0.363387 
132.080643 0.462715 
132.978683 0.181924 
132.986816 0.18749 
133.085846 3.281295 
133.101105 3.284183 
134.03215 0.15235 
134.096359 1.408966 
134.955994 1.359939 
134.973862 0.551308 
134.978821 0.254392 
134.996429 7.001977 
135.002258 0.714713 
135.080475 1.699553 
135.116791 1.954846 
135.14798 0.18922 
136.112045 0.495392 
136.348846 0.162342 
136.953384 0.213055 
137.096054 2.229381 
137.132721 0.436001 
138.909241 0.159825 
139.359497 0.17984 
140.068024 0.197847 
140.14328 1.405475 
140.959045 0.361312 
143.085281 0.254967 
143.974319 0.192658 
145.101151 1.166285 
146.096436 0.742925 
146.973953 3.193671 
147.080399 1.192219 
147.116638 2.451775 
148.971786 4.450194 
149.012238 0.224762 
149.071182 0.189664 
149.096115 1.978395 
149.719406 0.184488 
150.603409 0.15954 
150.95105 11.592542 
150.968842 1.016051 
151.396011 0.170425 
151.97673 0.685129 
152.946518 0.579465 
152.966614 3.400325 
152.989243 5.101611 
153.006943 1.025858 
154.122467 35.909027 
154.129852 0.227548 
155.126556 0.288805 
156.065933 0.229398 
156.138504 1.44542 
156.463974 0.175758 
158.096558 0.202438 
158.480865 0.164325 
158.875397 0.196125 
158.973633 0.407604 
159.10379 0.189091 
159.116943 0.765364 
160.111755 0.215962 
160.168579 0.170113 
160.989594 0.194798 
161.75058 0.164534 
163.015213 0.208875 
163.147736 0.219663 
164.107498 0.201599 
164.920547 7.009661 
164.984573 0.89209 
165.036316 0.185535 
165.091125 0.581569 
166.982086 1.496225 
167.055283 1.866585 
167.084534 0.172025 
168.916824 0.173591 
168.961517 10.525744 
170.957001 5.879893 
171.149109 2.999726 
171.275269 0.163395 
172.115189 0.97487 
172.244278 0.165396 
172.989563 0.17278 
173.010605 0.397612 
173.09639 0.213864 
173.984451 0.218616 
173.998108 0.186207 
174.006714 0.168389 
174.98941 0.212555 
175.14798 0.752376 
175.269501 0.147113 
176.001572 0.184133 
177.127594 0.717285 
178.394058 0.177441 
179.000275 0.650976 
180.894958 0.218372 
182.977158 0.439794 
183.138306 0.180408 
184.988831 0.171909 
185.083237 0.170186 
185.153488 0.414471 
186.128387 0.234962 
186.927643 4.164268 
188.02121 0.179411 
188.924286 0.954502 
188.966324 0.780331 
189.005798 0.1951 
191.001038 0.211421 
191.106781 0.79319 
192.961609 9.269498 
194.357666 0.18748 
194.999695 0.377166 
197.012146 2.802839 
197.974091 0.255202 
198.723251 0.20062 
199.338821 0.169277 
200.429565 0.191519 
203.021545 0.232979 
203.469345 0.204932 
205.122131 0.729941 
206.926056 1.89264 
206.977524 2.489701 
209.026398 0.225257 
210.185104 23.852457 
210.972015 10.595929 
210.982285 0.184952 
213.473724 5.425224 
213.480347 5.294905 
213.492584 1.063934 
214.893768 2.863067 
215.022629 1.474593 
219.174255 5.14058 
220.178268 0.166617 
222.898651 5.751616 
224.936615 1.121983 
225.011627 0.19455 
225.02095 0.171689 
225.042725 0.608715 
225.698257 0.192506 
227.200882 0.588977 
227.64624 0.156253 
227.90094 0.173028 
228.090942 0.48263 
228.978683 0.203698 
229.896149 6.545641 
230.825668 0.207372 
232.312714 0.208554 
233.189865 0.257184 
233.891174 2.551325 
234.899124 0.784448 
237.057144 0.194638 
237.885284 0.358171 
238.896057 0.163733 
238.914062 1.777974 
238.967255 0.489784 
239.900787 2.50927 
240.891907 1.331948 
240.909042 18.975439 
242.909088 0.625652 
245.047272 0.16644 
245.910248 0.202176 
246.899139 0.503323 
247.906342 8.094807 
248.937393 1.714714 
249.129913 0.161221 
250.893845 1.754257 
250.956207 0.47362 
252.948807 0.437353 
254.92511 0.221808 
254.946594 0.71045 
254.977112 1.580972 
255.067825 0.255694 
255.896301 1.164028 
257.895477 0.218615 
262.913757 3.605051 
263.902222 4.789654 
264.02887 0.178365 
264.908936 25.177299 
265.035156 0.195456 
265.062073 6.465169 
265.088409 0.786912 
265.938995 1.271516 
266.888977 0.199867 
267.041687 1.465409 
268.886688 0.197803 
268.904053 0.182519 
269.89212 1.402359 
270.900299 1.633211 
272.898865 0.445316 
274.89386 5.508761 
274.913574 2.709145 
275.072266 0.188899 
275.901611 2.817371 
276.909729 3.469703 
276.930664 0.1748 
277.917358 0.216361 
278.741058 0.169953 
278.925323 1.018211 
279.896484 4.287136 
280.906342 0.271644 
280.924316 7.121998 
281.911835 3.690128 
282.902283 4.958354 
282.919525 30.760462 
286.913391 0.484723 
288.909637 6.775636 
290.878235 0.22384 
290.946594 0.743656 
292.90567 0.194938 
293.833466 0.260068 
294.841797 0.372352 
294.903046 0.171681 
295.927856 1.062199 
296.294678 0.417954 
296.935028 0.376141 
297.906494 3.510526 
300.124634 0.238534 
300.911591 0.735007 
300.931763 0.213791 
304.889679 0.377672 
304.924133 13.197564 
306.919312 58.639923 
307.135529 0.214259 
307.921753 0.175109 
308.889709 2.376051 
308.957581 0.196401 
311.128143 0.183969 
312.838379 4.58754 
316.904602 5.327876 
317.820892 0.376117 
319.062256 0.21412 
320.935303 2.076589 
321.125031 0.886534 
322.934631 3.555602 
324.929871 19.806276 
326.968781 0.190529 
327.077881 4.269045 
327.826874 0.725011 
328.833099 3.282802 
329.774719 0.174613 
331.135132 2.244186 
331.154419 1.057603 
331.208313 0.24352 
333.150604 4.700293 
333.171387 4.536825 
334.171204 1.119798 
335.093384 1.562868 
335.16626 6.259457 
335.187195 1.112095 
336.18634 0.973628 
336.838745 13.078266 
337.050262 0.166084 
337.182861 0.959378 
337.843597 0.390926 
338.185425 0.174442 
338.878662 0.189825 
338.945496 0.23535 
344.828796 3.422172 
348.107758 0.207579 
350.917511 0.380178 
351.127502 0.443847 
351.16098 0.491003 
351.182953 0.52978 
351.915558 0.713554 
352.834503 0.297997 
352.962402 1.638443 
353.175598 0.457898 
353.198212 2.293287 
353.841766 5.46547 
354.19635 1.354587 
354.849457 3.354302 
355.192169 1.604169 
355.555084 0.233852 
357.208435 2.096025 
360.839142 1.672409 
368.862732 0.208189 
368.94812 2.55364 
369.834503 0.369764 
370.843018 0.447412 
370.947052 0.803434 
371.239716 1.495675 
373.851105 0.193874 
375.219025 0.658162 
375.608154 0.180539 
375.826691 0.448548 
376.288727 0.208151 
376.673462 0.172796 
378.850342 0.669398 
380.134399 0.995445 
387.234497 0.238281 
394.298553 5.752388 
395.301147 0.431852 
402.846954 0.179333 
402.962952 0.982821 
404.848236 0.199937 
406.844666 3.353769 
415.180695 0.419163 
417.211365 1.562677 
418.994843 1.311082 
420.860718 2.288482 
420.992706 0.222572 
429.249664 0.172872 
429.281677 5.073793 
430.285187 0.401884 
433.274719 0.23226 
435.152985 0.191879 
436.196777 10.845194 
438.081696 0.185037 
438.871582 0.185334 
446.43338 0.220031 
447.290466 0.215766 
447.345856 1.388661 
449.187347 1.15883 
461.866425 0.186875 
462.215149 0.189776 
471.393951 0.187188 
477.142914 1.480946 
488.325531 0.710143 
488.363098 14.981484 
488.401917 0.239227 
489.09198 0.197257 
489.302155 12.667741 
489.33783 7.969354 
489.370667 1.118422 
490.305237 2.399655 
490.340027 1.633046 
490.441528 0.256592 
491.319244 6.702611 
492.259338 26.111446 
492.318451 0.248722 
515.50592 0.173346 
END IONS

