BEGIN IONS
PEPMASS=329.079
CHARGE=1+
COMPOUNDNAME=dehydrocurvularin
LIBRARYQUALITY=3
SMILES=N/A
INCHIKEY=AVIRMQMUBGNCKS-GQCTYLIASA-N
INCHI=InChI=1S/C16H18O5/c1-10-5-3-2-4-6-13(18)16-11(8-15(20)21-10)7-12(17)9-14(16)19/h4,6-7,9-10,17,19H,2-3,5,8H2,1H3/b6-4+
MSLEVEL=2
SOURCE_INSTRUMENT=N/A-ESI-QFT
FILENAME=library_mgf.mgf
SEQ=*..*
IONMODE=positive
ORGANISM=MONA
NAME=dehydrocurvularin [M+K]+
PI=MoNA
DATACOLLECTOR=MoNA:VF-NPL-QEHF016198
PUBMED=N/A
SUBMITUSER=mwang87
TAGS=
SPECTRUMID=CCMSLIB00004707261
SCANS=16198
50.058098 0.010998 
50.078644 0.003281 
50.161942 0.003682 
50.228954 0.010034 
50.264496 0.003139 
50.348774 0.003005 
50.527306 0.005626 
50.859646 0.009773 
51.018532 0.009473 
51.057816 0.005511 
51.175797 0.002861 
51.180882 0.003028 
51.209064 0.002903 
51.351665 0.003698 
51.539593 0.003254 
51.7724 0.008352 
51.824039 0.003004 
51.864128 0.002949 
51.958332 0.002918 
51.96616 0.003569 
52.040668 0.002946 
52.259453 0.003041 
52.38546 0.003357 
52.449177 0.003274 
52.661716 0.003287 
52.8591 0.005897 
52.886349 0.002794 
53.038956 0.058676 
53.050045 0.003505 
53.052765 0.003073 
53.21883 0.003699 
53.519279 0.00657 
53.762276 0.008847 
53.935577 0.003513 
54.232044 0.009906 
54.38327 0.004591 
54.705536 0.010457 
55.018185 0.429687 
55.054569 1.507712 
55.385769 0.007758 
55.622181 0.003991 
55.62973 0.003463 
55.678089 0.010924 
56.049774 0.0167 
56.057953 0.046988 
56.060799 0.127557 
56.096294 0.003285 
56.156097 0.003282 
56.282349 0.00329 
56.298698 0.003335 
56.343868 0.002849 
56.58511 0.003165 
56.737366 0.00324 
56.82589 0.003241 
56.907085 0.008895 
56.965199 0.01877 
57.033794 0.517492 
57.070206 3.143618 
57.201443 0.004503 
57.224239 0.003185 
57.283546 0.003207 
57.4501 0.003 
57.67662 0.003014 
57.935276 0.003413 
58.065418 0.307502 
58.073502 0.017022 
58.409325 0.004005 
58.478142 0.003554 
58.518021 0.003582 
58.696098 0.003424 
58.957664 0.003017 
58.995335 0.034338 
59.035507 0.002967 
59.049435 1.036395 
59.301617 0.002995 
59.336735 0.003048 
59.422421 0.003569 
59.619164 0.003997 
59.732521 0.00333 
59.813957 0.003107 
59.948605 0.003028 
59.982922 0.004133 
59.990139 0.003664 
60.044659 0.117884 
60.103416 0.003086 
60.475376 0.010836 
60.684196 0.009028 
60.739304 0.003035 
60.842808 0.003823 
61.008148 0.003437 
61.010933 6.424647 
61.028698 0.039367 
61.309563 0.002846 
61.504749 0.003724 
61.555897 0.003227 
61.589886 0.003315 
61.662601 0.003279 
61.804256 0.003023 
61.852638 0.002924 
61.887974 0.003079 
62.014252 0.023831 
62.018707 0.722167 
62.060249 0.134642 
62.068214 0.03267 
62.099365 0.003073 
62.458839 0.003327 
62.696411 0.003114 
62.82999 0.003396 
62.990147 0.16708 
63.006668 0.219767 
63.009464 0.003053 
63.449112 0.007118 
63.584476 0.010417 
63.749237 0.008658 
63.997948 0.208123 
64.014481 0.06404 
64.075188 0.003432 
65.005676 0.011736 
65.03875 0.042533 
65.108131 0.003561 
65.402008 0.003536 
65.424873 0.007643 
65.540573 0.003104 
65.61055 0.010722 
65.669281 0.003114 
65.909309 0.003413 
65.960838 0.002984 
66.170189 0.003571 
66.431328 0.00303 
67.012177 0.003231 
67.054405 2.282713 
67.073212 0.003074 
67.334915 0.003367 
67.530334 0.003289 
67.878624 0.003867 
67.931335 0.003246 
67.96447 0.003494 
68.057777 0.019761 
68.060654 0.026254 
68.419174 0.003311 
68.580406 0.003315 
68.624435 0.011373 
68.692116 0.008842 
68.807228 0.005892 
68.885017 0.01319 
69.0336 0.573475 
69.070007 1.912977 
69.335228 0.003374 
69.421768 0.003471 
69.737442 0.00317 
69.937012 0.003124 
69.987396 0.003135 
70.033791 0.011744 
70.065262 1.21688 
70.07325 0.009677 
70.220551 0.010152 
70.337921 0.003042 
70.582802 0.003303 
71.012886 0.005926 
71.049225 0.733586 
71.085632 1.877935 
71.239883 0.003266 
71.287506 0.002921 
72.066437 0.003243 
72.080879 0.335239 
72.163826 0.003309 
72.404724 0.003574 
72.438095 0.003575 
72.740631 0.003152 
72.74675 0.003245 
72.77195 0.009791 
73.010704 0.052615 
73.028458 0.161732 
73.064842 0.607066 
73.090782 0.003616 
73.251953 0.003227 
73.310852 0.0032 
73.397217 0.00437 
73.548096 0.003274 
74.068024 1.364015 
74.286453 0.003651 
74.43306 0.00332 
74.437553 0.003222 
74.454727 0.008446 
74.70932 0.003184 
75.026352 0.04931 
75.044075 0.1377 
75.071472 0.069559 
75.073669 0.003098 
75.379456 0.003498 
75.44165 0.011463 
75.922295 0.008315 
76.039375 0.395628 
76.083519 0.010795 
76.121437 0.003419 
76.530281 0.00784 
76.540489 0.003469 
76.63456 0.003632 
76.649437 0.003582 
76.915977 0.003396 
77.005608 0.152281 
77.054184 0.003295 
78.122665 0.011065 
78.319664 0.003387 
78.726852 0.003427 
78.759766 0.005161 
78.944046 0.003026 
78.96711 0.34948 
79.021294 11.894075 
79.054268 0.847183 
79.114235 0.003332 
79.991936 0.003246 
80.020576 0.013819 
80.024612 0.194832 
80.057602 0.040247 
80.153404 0.003265 
80.274239 0.003137 
80.430458 0.004041 
80.601166 0.00406 
80.840759 0.0103 
81.000534 0.062862 
81.017036 0.538195 
81.033562 0.151847 
81.069954 9.405557 
81.072815 0.040348 
81.579849 0.003405 
81.853706 0.009763 
81.857025 0.003597 
81.960709 0.003816 
82.052544 0.00333 
82.073326 1.568364 
82.076088 0.085657 
82.24411 0.003094 
82.462364 0.003328 
82.505898 0.003243 
82.680786 0.004445 
83.012817 0.080615 
83.049202 0.394667 
83.076767 0.008988 
83.085556 1.437801 
83.185188 0.003274 
83.273956 0.003479 
83.814384 0.008756 
83.880791 0.002882 
83.919487 0.012254 
84.080795 0.276156 
84.198906 0.009666 
85.028496 0.165292 
85.039703 0.03098 
85.06488 0.823816 
85.101257 1.115966 
85.103951 0.003749 
85.445824 0.003404 
85.668541 0.00342 
86.060059 0.084375 
86.096428 0.118188 
86.122398 0.003943 
86.563522 0.003169 
87.026237 0.005789 
87.044167 6.222424 
87.047165 0.017079 
87.568001 0.004073 
88.047478 0.035752 
88.07579 4.148134 
88.078842 0.015033 
88.130959 0.004327 
88.139702 0.003027 
88.155617 0.003833 
88.990891 0.005736 
89.059799 20.67675 
89.380684 0.003408 
90.055061 2.542659 
90.063179 1.3409 
90.316444 0.003284 
90.402039 0.003322 
90.580391 0.003424 
90.64994 0.003057 
90.91555 0.003193 
90.947701 0.006962 
90.967072 0.035328 
91.040916 0.003159 
91.054359 0.33821 
91.057426 0.143425 
91.281586 0.003764 
91.429672 0.004114 
92.127899 0.003481 
92.277153 0.003302 
92.44062 0.003325 
92.660797 0.00393 
92.767426 0.003304 
92.90036 0.003792 
92.982819 1.560506 
93.07 0.910072 
93.424736 0.003555 
93.512123 0.004082 
94.073456 0.017982 
94.170547 0.012326 
94.367279 0.004318 
94.458298 0.003213 
94.817619 0.003909 
94.961906 0.020121 
94.978622 0.14854 
95.04921 3.146956 
95.085594 4.547979 
95.232826 0.003826 
95.24839 0.003434 
96.052391 0.077473 
96.08886 0.814207 
96.091873 3.235682 
96.375801 0.010005 
96.746101 0.009941 
97.028381 0.020266 
97.06488 0.553524 
97.095245 0.418267 
97.10128 1.07488 
97.191284 0.003256 
97.606636 0.003398 
97.624138 0.003716 
98.051514 0.003908 
98.060326 0.012396 
98.096497 0.086123 
98.1045 0.013456 
98.107628 0.140014 
98.409927 0.007075 
98.513847 0.003207 
98.975479 0.174568 
98.984283 5.491059 
98.987938 0.011364 
99.044151 0.453926 
99.077171 0.012231 
99.080559 1.948568 
100.075806 0.012467 
100.083839 0.267399 
100.680031 0.003521 
100.847641 0.003507 
101.003281 1.369566 
101.059761 0.619884 
101.790665 0.004575 
101.828659 0.012828 
101.945145 0.003013 
102.091499 0.927036 
102.321388 0.003189 
102.801613 0.003825 
103.039024 0.39179 
103.075401 0.208697 
103.87838 0.01068 
103.980637 0.003182 
104.070679 0.166641 
104.157822 0.003459 
104.925583 0.007096 
104.982841 0.260189 
104.992378 0.067168 
105.033401 0.011907 
105.069954 0.47998 
106.086349 5.127069 
106.460678 0.003831 
106.900566 0.004412 
106.998436 0.51988 
107.012154 0.003422 
107.04911 0.145072 
107.052429 0.225467 
107.070335 0.342443 
107.085632 0.796211 
107.089325 0.054454 
107.93988 0.003279 
108.05558 0.015173 
108.585289 0.013046 
108.923676 0.01415 
108.959221 0.010948 
108.977692 0.076462 
108.994606 0.008005 
109.02845 0.042033 
109.064835 0.356796 
109.097504 0.011906 
109.101273 1.557655 
109.352264 0.00337 
110.022842 0.005609 
110.060051 0.093768 
110.10466 0.048274 
110.317139 0.004785 
110.56469 0.003614 
110.578819 0.00303 
110.788361 0.00635 
110.798309 0.003365 
110.93924 1.238835 
111.044136 0.50558 
111.080536 0.337429 
111.106377 0.003264 
111.116898 0.20868 
111.34259 0.003284 
111.932144 0.003175 
111.965225 0.00671 
112.935112 0.099676 
112.972656 0.033154 
113.049393 0.004177 
113.059738 0.218083 
113.09613 0.196431 
113.22377 0.010541 
113.93811 0.00338 
114.287575 0.009737 
114.874397 0.003457 
114.948357 0.070534 
115.021156 0.005209 
115.039108 0.030809 
115.075417 0.144125 
116.052856 0.142233 
116.070732 0.044048 
116.115028 0.733892 
116.686333 0.003078 
116.986008 0.35214 
116.994766 0.054745 
117.05471 0.943779 
117.069908 0.059231 
117.091133 0.194927 
117.11834 0.081922 
117.452072 0.009571 
118.170898 0.006437 
118.534058 0.00356 
118.991035 0.00682 
119.085625 0.584328 
120.080772 0.031501 
121.064804 0.256076 
121.10128 0.962962 
121.566002 0.00955 
122.10466 0.006026 
122.399841 0.003763 
122.662056 0.004047 
122.939255 1.25412 
122.993332 0.585154 
123.044151 2.744607 
123.080513 1.361454 
123.116844 0.624552 
123.178955 0.009979 
123.907349 0.002953 
123.947052 1.542668 
124.047401 0.544841 
124.075668 0.009364 
124.087257 1.794587 
124.133698 0.003169 
124.283112 0.003137 
124.405083 0.003429 
124.507957 0.003165 
124.954834 0.107981 
124.964256 0.003832 
124.972641 0.128088 
124.989281 0.020669 
125.059784 0.238106 
125.090317 0.269733 
125.096146 0.310762 
125.108536 0.003233 
125.677628 0.011221 
125.9207 0.003213 
125.935844 0.023079 
126.737343 0.003471 
127.039124 0.0751 
127.075424 0.100651 
127.111794 0.11665 
127.369789 0.003527 
127.956398 0.009715 
128.106277 0.003455 
128.390747 0.010451 
128.803085 0.003358 
128.858749 0.003604 
128.963852 0.012177 
129.018326 1.672225 
129.054657 0.498411 
129.274521 0.010981 
129.514465 0.004387 
129.611343 0.003677 
130.979446 0.003991 
131.070312 0.697898 
131.085556 0.254263 
132.088562 0.003181 
132.143494 0.003524 
132.632034 0.008683 
132.952484 0.004999 
132.958389 0.719667 
133.064728 0.103487 
133.085968 4.935888 
133.101242 0.560518 
133.106018 0.01112 
133.949005 0.007229 
134.089355 0.42398 
134.104431 0.031738 
134.978821 0.21051 
134.99649 0.593364 
135.043976 0.059594 
135.080475 0.271864 
135.116791 0.635996 
135.472458 0.003515 
136.047226 0.003283 
136.120285 0.007516 
136.168777 0.003655 
136.291718 0.005393 
136.954941 0.034784 
137.035873 0.00327 
137.059799 0.714277 
137.096146 0.209719 
137.107117 0.01262 
137.132538 0.118054 
137.725693 0.003544 
138.000229 0.003352 
138.055313 0.010783 
138.091675 0.007522 
138.563095 0.003566 
138.931839 0.003418 
138.951157 0.077025 
138.97049 0.180401 
138.988159 0.113405 
139.002579 0.278534 
139.008911 0.00885 
139.038956 0.024935 
139.075378 0.280857 
139.111771 0.077826 
139.214493 0.004254 
139.316086 0.003338 
140.016571 0.122559 
140.93132 0.02448 
140.949783 0.514817 
140.966904 0.034235 
140.983856 0.016648 
141.054398 0.022393 
141.090958 0.127917 
141.102158 0.010582 
141.446472 0.003507 
141.903488 0.732814 
142.097336 0.049792 
142.159027 0.030987 
143.070358 0.026985 
143.085754 0.090793 
143.995422 0.030342 
144.010162 0.006171 
144.414566 0.003578 
144.958878 0.030354 
145.003372 0.102647 
145.049805 0.011151 
145.064774 0.025334 
145.101257 0.270966 
145.494049 0.005711 
145.966522 0.046936 
146.957397 0.007547 
146.974457 0.783784 
147.043625 0.009693 
147.06517 0.007426 
147.080475 0.209637 
147.091629 0.085852 
147.116943 0.327782 
147.133881 0.003517 
147.468124 0.003114 
147.975235 0.003271 
148.07634 0.008544 
148.956085 0.008125 
148.972458 0.12379 
149.059814 0.184896 
149.096191 0.214296 
149.132507 0.185653 
149.954285 0.130272 
150.655472 0.003406 
150.682281 0.003118 
150.951202 1.648533 
150.968857 1.33732 
151.039047 0.359596 
151.075409 0.47271 
151.097198 0.007644 
151.111771 0.130266 
151.148331 0.003672 
151.969498 0.006205 
152.042633 0.005386 
152.204025 0.003305 
152.951645 2.664271 
152.966949 0.010608 
152.989288 0.431943 
153.007217 0.037688 
153.054733 0.148349 
153.069931 0.18442 
153.090988 0.053154 
153.127274 0.042423 
153.16951 0.003131 
153.223938 0.003773 
153.798141 0.004682 
153.99234 0.035821 
154.073227 0.036656 
154.086609 0.012017 
154.123032 0.014793 
154.910324 0.011319 
154.947021 2.076126 
154.965683 0.02148 
155.033997 0.069816 
155.107315 0.009176 
155.947281 0.048292 
155.955063 0.009849 
156.065735 0.006269 
156.926834 0.265302 
156.944321 0.530589 
156.962677 0.220756 
157.013245 0.385958 
157.049362 0.028148 
157.101212 0.015828 
157.807404 0.009975 
157.908005 0.315424 
157.952026 0.00924 
158.67131 0.003363 
158.872971 0.003621 
158.944305 0.051388 
158.953568 0.202146 
158.95993 0.217768 
158.982498 0.007719 
159.080597 0.140547 
159.116989 0.159132 
159.131683 0.109867 
159.258987 0.003563 
159.458466 0.003325 
159.539551 0.011457 
160.939423 0.021743 
160.951752 0.136296 
160.990067 0.036833 
160.998016 0.004152 
161.059738 0.15934 
161.0961 0.370746 
161.132584 0.164454 
161.337341 0.003243 
161.348816 0.003721 
162.055161 0.009604 
162.400375 0.00925 
162.498215 0.0033 
162.777695 0.003343 
163.038986 0.080773 
163.075394 0.194698 
163.111938 0.101335 
163.147995 0.025097 
163.493591 0.009214 
163.94371 0.003362 
163.977203 0.327739 
164.070663 0.036218 
164.672989 0.009802 
164.921005 0.003937 
164.966965 0.048173 
165.054596 0.186398 
165.091034 0.152377 
165.127716 0.012945 
165.388519 0.003731 
165.784714 0.003399 
166.061111 0.064757 
166.08606 0.012507 
166.946869 0.197055 
166.967194 0.413174 
166.983688 0.008448 
167.026138 0.009101 
167.033951 4.640384 
167.041534 0.038638 
167.070038 0.042186 
167.964691 0.063185 
167.971771 0.020508 
168.037292 1.407189 
168.101761 0.009615 
168.612518 0.01084 
168.618042 0.01142 
168.944504 0.278173 
168.962479 3.128769 
168.982544 0.153413 
169.039078 0.079517 
169.049545 0.527872 
169.602005 0.003847 
169.963303 0.645351 
170.042267 0.008198 
170.052979 0.09763 
170.96022 4.185738 
170.977951 0.090958 
171.044647 0.004434 
171.08049 0.101053 
171.116974 0.017778 
171.806168 0.003604 
171.961594 0.042909 
172.001129 0.003201 
172.168198 0.003464 
172.913757 0.095499 
172.957657 1.044969 
173.060135 0.011589 
173.096207 0.128373 
173.132629 0.041118 
173.276199 0.003199 
173.961197 0.283938 
174.039307 0.003212 
174.137833 0.008418 
174.954788 0.162205 
174.969116 0.008723 
174.992386 0.019937 
175.057983 0.062085 
175.075348 0.271059 
175.096634 0.262114 
175.111725 0.042073 
175.1483 0.13975 
176.000565 0.033395 
176.079788 0.010704 
176.304947 0.003385 
176.930573 0.011717 
176.989563 0.078207 
177.018478 0.00471 
177.054688 0.248601 
177.091263 0.089045 
177.112274 0.307469 
177.127533 0.0095 
177.163788 0.009082 
177.993256 0.017016 
178.061127 0.010086 
178.08638 0.028216 
178.447128 0.003584 
178.96608 0.04017 
179.021896 0.007291 
179.034241 0.037456 
179.070312 0.056831 
179.107117 0.073579 
179.125565 0.048088 
179.800858 0.003888 
179.953979 0.206128 
179.995483 0.004796 
180.365479 0.01076 
180.915497 0.00459 
180.962494 0.021809 
181.049606 0.203726 
181.084122 0.058278 
181.100006 0.003868 
181.102432 0.004207 
181.104523 0.003716 
181.987686 0.018918 
182.118454 0.003707 
182.962082 0.014395 
182.97757 0.094041 
183.081024 0.019833 
183.116852 0.015759 
183.594467 0.003808 
183.949066 0.008916 
184.83403 0.003757 
184.93988 0.213295 
184.957672 0.07147 
184.975571 0.026188 
185.059982 0.034167 
185.081161 0.107027 
185.09639 0.117482 
185.131989 0.027839 
185.823914 0.003466 
185.940811 0.011445 
185.961548 11.049445 
185.975967 0.065378 
186.016434 0.003604 
186.936707 0.339068 
186.953735 0.054198 
186.962051 1.875237 
186.972809 0.058735 
187.038025 0.003834 
187.075394 0.212596 
187.111786 0.317186 
187.148193 0.044846 
187.90715 0.008234 
187.944336 0.010304 
187.958725 2.558126 
187.967255 0.290482 
187.976868 1.504875 
188.927963 0.004129 
188.969574 0.027692 
188.977676 0.069465 
189.004303 0.008135 
189.054611 0.736982 
189.091125 0.301555 
189.925903 0.299737 
189.975891 0.884946 
190.059387 0.074935 
190.924377 0.453038 
190.957062 0.007098 
190.966217 1.176485 
190.985229 0.061149 
191.000656 0.027303 
191.031616 0.695117 
191.070465 0.1666 
191.106857 0.06365 
191.922821 0.019314 
191.95578 0.004214 
191.971603 8.217343 
192.101593 0.013669 
192.887878 0.023336 
192.921005 0.008239 
192.961807 19.256084 
192.978195 0.203487 
193.015671 0.003772 
193.049667 0.391132 
193.068451 0.034513 
193.086456 0.083111 
193.695496 0.004072 
193.913895 0.003745 
193.963959 0.508566 
193.975815 0.0035 
194.055267 0.487287 
194.248108 0.003569 
194.941513 0.020696 
194.962128 0.267115 
194.978241 0.025071 
195.0 0.244041 
195.028976 2.144164 
195.058868 0.012593 
195.965515 0.01283 
196.032349 0.782491 
196.606659 0.003402 
196.842041 0.003525 
196.957611 0.319141 
196.975327 0.018349 
197.034042 0.057064 
197.060501 0.010959 
197.096375 0.07314 
197.327209 0.00432 
197.461868 0.003595 
197.8974 0.00368 
198.177689 0.003106 
198.399338 0.010899 
198.429199 0.003933 
199.075272 0.195967 
199.085388 0.012392 
199.111786 0.067409 
200.083511 0.010709 
200.106842 0.015547 
200.934784 0.257757 
201.055038 0.025991 
201.091278 0.374221 
201.127777 0.010677 
201.164032 0.009958 
201.935684 0.042935 
202.0159 0.004083 
202.096252 0.004841 
202.931778 0.564155 
203.033981 0.007291 
203.070404 0.451622 
203.106964 0.51301 
203.142548 0.029775 
203.921539 0.0297 
203.972336 0.67808 
204.016495 0.004677 
204.088928 0.009497 
204.110489 0.029916 
204.929489 0.013166 
204.972961 0.008865 
205.04985 0.238094 
205.086075 0.137516 
205.159042 0.013202 
205.918716 0.055332 
205.970474 0.221218 
205.9879 10.435392 
206.05452 0.029586 
206.492325 0.003795 
206.74469 0.004407 
206.960587 0.015154 
206.977676 0.518572 
206.988724 1.958727 
207.029831 0.010466 
207.054581 0.009243 
207.06546 0.064079 
207.101776 0.066074 
207.12291 0.003289 
207.968109 0.057833 
207.985291 2.569074 
208.132935 0.011692 
208.15062 0.00378 
208.926743 0.047622 
208.976517 1.139116 
208.991272 0.059415 
209.900375 0.088728 
209.964188 0.005127 
209.982346 2.229065 
210.148651 0.013673 
210.784637 0.003414 
210.898483 0.574259 
210.972336 12.996791 
211.075577 0.060848 
211.111816 0.096198 
211.640198 0.003672 
211.974457 0.364911 
212.707291 0.003803 
212.955826 0.0875 
212.972885 0.662964 
213.054703 0.033385 
213.091492 0.122495 
213.127411 0.036597 
214.098923 0.011845 
214.705124 0.097866 
214.722763 0.232728 
214.727753 0.177804 
214.741333 0.097015 
214.750809 0.057869 
214.935974 0.121755 
214.950348 0.011496 
214.968262 0.211385 
215.070419 0.470321 
215.106689 0.224288 
216.101471 0.032197 
216.161514 0.003254 
216.948227 0.419377 
217.050003 0.109641 
217.069366 0.009745 
217.085907 0.193317 
217.122574 0.022774 
217.195267 0.011207 
217.729065 0.011218 
217.951538 0.067052 
218.01123 0.00765 
218.868607 0.172932 
218.944733 1.087305 
219.065857 0.039014 
219.101898 0.039605 
219.174728 0.394565 
219.946609 0.206105 
220.026596 0.014354 
220.888168 0.08811 
220.942047 0.779786 
221.044525 0.010944 
221.081192 0.055667 
221.153732 0.081647 
221.964737 0.01995 
222.052582 0.008924 
222.880157 0.006267 
222.899033 0.388839 
222.942123 0.011271 
223.028183 0.023164 
223.074783 0.015661 
223.110672 0.010255 
223.169708 0.01335 
223.683716 0.011232 
224.988297 0.066099 
225.042999 0.050324 
225.075653 0.012446 
225.091156 0.243942 
225.125717 0.01406 
225.336914 0.003674 
225.491882 0.003412 
225.911362 0.003784 
226.180405 0.013003 
226.874023 0.014135 
226.937607 0.095701 
226.998703 0.003487 
227.070343 0.259378 
227.106888 0.240668 
227.14328 0.006029 
228.101593 0.09017 
228.112961 0.047039 
228.88916 0.574399 
228.909439 0.21407 
229.049667 0.017841 
229.086243 0.356589 
229.122589 0.013766 
230.891464 0.003342 
230.906647 0.055212 
230.967026 2.980829 
231.018005 0.003565 
231.028915 0.014751 
231.065369 0.181465 
231.101669 0.865829 
231.210464 0.003555 
231.703613 0.00858 
231.96727 0.005813 
232.096481 0.07252 
232.106201 0.010422 
232.905045 0.022862 
232.946304 4.116821 
232.96199 0.629443 
233.042526 5.502254 
233.069351 0.027969 
233.081207 0.043345 
234.040466 0.047108 
234.899338 0.022112 
234.943314 0.0071 
234.959152 0.050049 
235.02507 0.010096 
235.061386 0.017543 
235.096619 0.027041 
235.891922 0.005657 
236.337601 0.00343 
236.878922 0.003464 
236.920349 0.003925 
236.952408 0.021004 
237.092529 0.008384 
237.437469 0.008051 
237.923203 0.003692 
237.976578 0.004958 
238.914444 0.037344 
238.966736 0.08436 
239.009155 0.063959 
239.070557 0.017137 
239.106842 0.434068 
240.113525 0.008709 
240.889862 0.092008 
240.909424 0.853903 
240.963654 0.023497 
241.037994 0.083149 
241.086075 0.214846 
241.122162 0.042784 
242.080368 0.007266 
242.117599 0.08544 
242.905426 0.039887 
243.065582 0.203503 
243.101501 0.370297 
243.136734 0.009917 
244.022507 0.003757 
244.096878 0.053707 
244.884216 3.080526 
244.909042 0.440073 
245.081009 0.122307 
245.117233 0.071336 
245.884338 0.527045 
245.907867 0.004361 
246.076141 0.010623 
246.122665 0.125109 
246.883255 0.030131 
246.905594 0.147203 
246.939285 0.045312 
247.096481 0.037124 
247.924896 0.003723 
247.980713 1.038401 
248.033707 0.011085 
248.901459 0.117556 
248.91655 0.093876 
248.93631 0.023838 
248.977432 1.253131 
249.041809 0.006673 
249.075287 0.005308 
249.111801 0.035159 
249.902649 0.091741 
249.938583 0.008411 
249.977509 1.999328 
250.112564 0.004055 
250.896957 0.621062 
250.918747 0.167158 
250.934952 0.139275 
250.956818 2.456473 
250.972336 0.193434 
251.022583 0.014443 
251.046692 0.098632 
251.07077 0.011772 
251.608368 0.003945 
251.893005 0.487334 
251.908051 0.02779 
251.975143 11.129819 
252.889877 2.406085 
252.912781 0.058316 
252.931351 0.004913 
252.977783 0.563464 
252.997223 0.016336 
253.0858 0.246143 
253.142227 0.005988 
253.902527 0.116398 
254.904617 0.023441 
254.926849 0.004284 
255.065659 0.057161 
255.088745 0.015762 
255.101929 0.232766 
255.899399 0.121307 
255.930984 0.003684 
256.107788 0.015843 
256.902496 0.051063 
257.081085 0.644161 
257.117126 0.045988 
257.438171 0.003981 
258.899963 0.060325 
259.071777 0.380735 
259.097229 0.028145 
259.108917 0.004329 
259.133026 0.384955 
260.075989 0.070663 
260.901276 0.004031 
261.076782 0.011589 
262.894867 7.540337 
263.894287 1.414366 
264.89386 0.164891 
265.914795 0.003869 
265.991302 6.851867 
266.912109 0.142042 
266.926361 0.149054 
266.992523 1.922275 
267.101624 2.192041 
267.912872 0.201813 
267.92981 0.017738 
267.987091 9.709678 
268.096802 0.01253 
268.263519 3.094823 
268.299744 0.083984 
268.884277 0.592056 
268.908905 1.421074 
268.926727 0.13661 
268.946381 0.020816 
268.988312 0.983087 
269.080688 0.217271 
269.117004 0.12933 
269.26712 0.50035 
269.903961 0.888299 
269.986633 0.172181 
270.076019 0.052987 
270.112946 0.161227 
270.24353 0.012497 
270.2789 0.039852 
270.901001 2.278255 
270.922943 0.523202 
270.959747 0.007634 
270.992859 0.010332 
271.032745 0.009608 
271.060059 0.470416 
271.079681 0.019654 
271.096741 0.397349 
271.132751 0.03122 
271.585724 0.003409 
271.909027 0.184692 
272.091949 0.028414 
272.901703 0.061521 
272.917084 0.073721 
273.075623 0.382681 
273.112427 0.111547 
273.425537 0.003524 
274.117798 0.065028 
274.89682 0.003639 
274.915161 0.419437 
275.200836 0.02874 
275.811096 0.057711 
276.910492 0.02381 
277.902435 0.025221 
278.818604 0.062335 
279.806 0.031559 
280.813385 0.746376 
280.924438 0.050256 
281.081268 0.013114 
281.116608 0.013127 
281.821442 0.510028 
282.821045 0.004017 
282.920349 0.012466 
283.030579 0.369143 
283.096008 0.109338 
283.132263 0.066695 
283.820557 0.021755 
283.892395 0.009906 
283.988739 0.584667 
284.917816 0.008236 
284.936554 0.018836 
284.991852 0.012922 
285.046112 0.032108 
285.076843 1.130634 
285.112122 0.560475 
285.166168 0.003721 
285.815765 0.054392 
285.836823 0.003929 
285.888306 0.004175 
285.906982 0.0165 
285.924652 0.049035 
285.990875 0.014691 
286.005463 0.004563 
286.107208 0.010117 
286.310638 0.46872 
286.823853 0.060334 
286.894928 4.479286 
286.918823 0.729404 
286.934021 0.280793 
287.057159 0.009576 
287.091583 0.011645 
287.114594 1.529698 
287.536011 0.003633 
287.734528 0.004019 
287.811951 0.029816 
287.829529 0.007794 
287.894714 1.013571 
287.919403 0.031725 
288.062958 0.192505 
288.122803 1.970081 
288.867615 0.004119 
288.882965 0.309165 
288.916138 0.465895 
288.933197 0.040353 
288.952087 0.004228 
289.105042 0.448928 
289.124664 0.12557 
289.916656 0.130599 
290.911774 0.070361 
290.926636 0.109352 
290.94809 0.003386 
291.927643 0.004124 
292.631195 0.003621 
292.813812 0.056712 
293.839722 0.004916 
294.813202 0.197152 
294.957031 0.032964 
295.096558 0.250362 
295.201447 0.021697 
295.820801 0.314782 
296.808014 1.193356 
297.046051 1.19124 
297.0755 0.037414 
297.130615 0.124359 
297.816254 1.865165 
298.046539 0.190231 
298.1073 0.023202 
298.549774 0.003882 
298.788483 0.003819 
298.823761 0.005525 
299.054657 0.076418 
299.090912 0.141102 
300.8396 0.097694 
300.909332 0.004675 
301.071594 0.039705 
301.093872 0.048243 
303.087219 0.999055 
303.896606 0.03449 
304.095459 0.005045 
304.833954 0.057421 
304.90564 1.434162 
305.821625 0.175941 
305.905792 0.258171 
306.829407 0.756802 
306.893707 0.938633 
308.809387 0.014697 
308.849487 0.019244 
308.936401 4.066405 
309.218109 0.035582 
309.836578 0.004746 
309.937286 0.972436 
310.144653 0.027512 
310.310669 0.778284 
310.824921 0.108956 
310.843567 0.937686 
310.862823 0.004358 
310.936401 0.084222 
311.090515 0.009552 
311.313812 0.107009 
312.12381 0.017431 
312.326172 5.749861 
312.824646 0.003884 
312.915894 0.010481 
313.105072 3.12274 
313.125671 0.031687 
313.329651 0.334001 
313.811096 0.140004 
313.916901 0.009999 
314.077576 0.014058 
314.108002 0.114039 
314.683929 0.004606 
314.818542 0.07835 
314.911224 0.022442 
314.929321 0.032285 
315.110382 0.505129 
315.826935 0.103005 
316.117157 0.377964 
318.920502 0.00426 
319.931335 0.012754 
320.828613 0.023611 
321.100891 0.045165 
321.836761 0.144341 
322.823914 0.562572 
322.843689 0.022394 
322.951599 0.01849 
323.832153 1.979455 
324.840363 0.632226 
324.904816 0.013249 
325.831055 0.70522 
326.838623 0.102735 
326.947083 0.413337 
327.080475 1.327664 
327.135284 0.348469 
327.228119 0.50661 
327.248505 0.028671 
327.381683 4.049621 
327.826324 0.450434 
327.946503 0.020386 
327.966248 0.108168 
327.983765 0.004947 
328.087036 2.120904 
328.117493 0.180135 
328.136749 0.123977 
328.155212 0.507521 
328.191376 0.067277 
328.229706 0.287994 
328.249573 0.004111 
328.265259 0.006598 
328.321289 7.895401 
328.357208 0.112417 
328.384888 0.45763 
328.834015 0.109825 
328.905457 0.267581 
328.963654 0.060714 
329.064484 0.069184 
329.098572 1.541015 
329.118835 0.01674 
329.137878 0.052459 
329.157166 0.85171 
329.193054 0.383732 
329.229218 0.332427 
329.287903 0.642199 
329.32428 1.676918 
329.823761 0.004325 
329.905334 0.012714 
330.099792 0.16935 
330.13269 1.987503 
330.170441 1.040196 
330.196533 4.323074 
330.290039 0.003889 
330.336853 100.0 
330.925049 0.005188 
331.080231 0.073784 
331.115448 21.554861 
331.152618 0.021812 
331.160431 0.023258 
331.173828 0.045234 
331.209229 3.130882 
331.233002 0.016349 
331.240234 0.013337 
331.340149 6.750397 
331.926666 0.00477 
332.938049 0.321072 
333.945862 0.024243 
334.823822 0.004428 
334.844116 0.393194 
336.823639 0.30069 
337.095886 0.00349 
338.819092 1.856537 
339.813599 0.010907 
339.847717 0.013471 
340.836487 0.004986 
340.855713 0.04873 
341.04007 0.004903 
341.842163 0.53801 
341.889374 0.013252 
342.831451 0.302949 
342.852509 0.700716 
344.831116 0.004914 
345.976807 5.944378 
346.974213 3.998989 
347.081512 0.046608 
347.974091 0.775247 
348.972321 0.065593 
349.95343 0.0035 
350.470306 0.003951 
350.68924 0.010819 
350.838165 0.00881 
350.947327 3.130979 
351.94809 0.72452 
352.854767 0.008985 
352.947479 0.062788 
END IONS

