BEGIN IONS
PEPMASS=245.095
CHARGE=1+
COMPOUNDNAME=BIOTIN
LIBRARYQUALITY=3
SMILES=N/A
INCHIKEY=YBJHBAHKTGYVGT-ZKWXMUAHSA-N
INCHI=InChI=1S/C10H16N2O3S/c13-8(14)4-2-1-3-7-9-6(5-16-7)11-10(15)12-9/h6-7,9H,1-5H2,(H,13,14)(H2,11,12,15)/t6-,7-,9-/m0/s1
MSLEVEL=2
SOURCE_INSTRUMENT=N/A-ESI-QFT
FILENAME=library_mgf.mgf
SEQ=*..*
IONMODE=positive
ORGANISM=MONA
NAME=BIOTIN [M+H]+
PI=MoNA
DATACOLLECTOR=MoNA:VF-NPL-QEHF028112
PUBMED=N/A
SUBMITUSER=mwang87
TAGS=
SPECTRUMID=CCMSLIB00004721693
SCANS=28112
50.170712 0.007099 
50.896675 0.009482 
50.910114 0.013268 
51.049446 0.006749 
51.061577 0.010575 
51.414471 0.006156 
52.04948 0.00722 
52.532349 0.009266 
52.536331 0.012139 
53.160202 0.006095 
53.335163 0.007737 
53.414562 0.009107 
54.137287 0.012561 
54.167141 0.006574 
54.960361 0.010198 
55.054447 0.484943 
55.743271 0.007346 
55.998661 0.007279 
56.049686 0.04275 
56.829296 0.009488 
57.070061 0.017711 
57.123795 0.010718 
57.448479 0.009696 
57.570129 0.010994 
58.065216 0.008838 
58.288692 0.009087 
58.550743 0.008712 
58.787357 0.01284 
58.847485 0.010135 
58.995167 0.027809 
59.197529 0.006582 
59.555779 0.006382 
59.602356 0.010186 
59.717724 0.005968 
59.843552 0.009888 
59.848003 0.009476 
60.201126 0.010576 
61.010773 0.183635 
61.039822 1.953087 
61.250366 0.005967 
62.160393 0.008922 
62.633495 0.010295 
63.030354 0.009738 
63.086815 0.008993 
63.343479 0.008797 
63.434231 0.009733 
63.62838 0.006342 
64.225822 0.009178 
64.41153 0.009699 
65.012299 0.005539 
65.781754 0.010777 
65.933205 0.00682 
65.952744 0.014658 
65.993202 0.007086 
66.257843 0.007474 
67.054276 1.020654 
68.328545 0.008696 
68.575836 0.007195 
69.069832 0.193677 
69.613396 0.006868 
70.058792 0.009233 
70.854141 0.009576 
70.96563 0.007682 
70.982506 0.007588 
71.049118 0.091103 
71.214729 0.007842 
71.310753 0.010787 
72.040894 0.007905 
72.498108 0.009067 
72.540634 0.007892 
72.59697 0.010976 
72.734291 0.00653 
73.010521 0.0306 
73.462708 0.01047 
74.005791 0.079781 
74.533867 0.011906 
74.610313 0.010506 
75.353127 0.01084 
75.721336 0.007854 
76.021477 1.379953 
76.349197 0.006779 
77.287155 0.010011 
78.022438 0.007074 
78.035545 0.011887 
78.797386 0.010632 
79.054153 0.791916 
80.422043 0.006321 
80.587212 0.010715 
81.069817 0.887518 
81.072105 0.008256 
82.028641 0.4291 
82.065048 0.008228 
82.919334 0.012786 
83.049019 0.474829 
83.085793 0.007546 
83.130623 0.009874 
83.571899 0.01117 
83.710556 0.012076 
84.044441 0.007425 
84.702324 0.006505 
85.010567 0.550264 
85.039543 0.031827 
85.064713 0.073881 
85.113792 0.011626 
86.005768 0.054349 
86.61409 0.011898 
87.026237 0.075473 
87.527199 0.013869 
87.623131 0.011138 
89.176941 0.013731 
89.482925 0.007715 
91.054115 0.215212 
91.97245 0.012978 
92.963493 0.011059 
93.020935 0.011241 
93.069824 0.077881 
93.647736 0.008738 
93.801697 0.006806 
95.048843 0.044182 
95.085449 0.357366 
96.638962 0.007123 
97.010559 1.993069 
97.039574 11.821598 
97.064667 0.084526 
98.01371 0.022992 
98.036873 0.010061 
98.042854 0.397737 
98.096306 0.756213 
98.203529 0.010408 
99.026154 0.174492 
99.055191 0.133985 
99.366158 0.008259 
100.021431 0.77098 
100.075645 0.050308 
101.005455 0.027158 
101.041817 0.259168 
101.059685 0.026082 
101.084137 0.011131 
101.308411 0.011079 
102.000641 0.432924 
103.338715 0.00718 
103.664528 0.008864 
103.753502 0.006862 
104.116943 0.006475 
105.069832 2.153002 
105.754128 0.010216 
106.064896 0.015722 
106.073044 0.039795 
107.085358 0.55397 
107.158356 0.007513 
107.8088 0.010312 
108.080643 1.099815 
108.756096 0.010168 
109.064674 0.140243 
110.27243 0.007464 
111.026146 0.668516 
111.055176 0.027689 
111.875633 0.00777 
111.924011 0.010189 
112.02137 0.176166 
112.602814 0.011674 
113.041794 1.04839 
113.059395 0.009308 
113.324905 0.00639 
114.479416 0.012941 
114.916779 0.007663 
114.959435 0.013326 
115.057693 1.030742 
115.106102 0.006491 
115.210266 0.006616 
116.060272 0.010545 
118.420303 0.009817 
120.080681 0.297339 
121.03125 0.007491 
121.06469 1.137358 
122.067848 0.008311 
122.096283 0.597841 
122.101265 0.006561 
123.026146 6.94233 
123.655479 0.006947 
124.029572 0.35987 
124.075516 0.080826 
125.021805 0.073725 
125.029282 0.019881 
125.041862 1.709404 
126.000565 0.016426 
126.045227 0.021928 
126.091156 0.177882 
128.016129 0.02167 
129.011017 0.011357 
131.027115 0.597646 
132.080658 0.305838 
132.727921 0.011825 
133.064529 0.754958 
133.088409 0.435397 
134.059479 0.008347 
134.068069 0.019859 
135.145294 0.009077 
135.945084 0.00921 
136.0755 0.104396 
136.583069 0.010475 
136.631943 0.011332 
137.04184 0.061884 
138.000732 0.109686 
138.037018 0.331043 
138.17804 0.009196 
139.057434 5.455152 
140.016556 0.02994 
140.052719 0.019095 
140.060776 0.301724 
140.838257 0.00848 
141.011475 0.295505 
142.361694 0.009342 
143.001923 0.018333 
143.027252 1.534594 
143.052673 0.054877 
144.000916 0.010893 
144.99733 0.518405 
146.026932 0.008985 
147.594269 0.009549 
148.075333 0.138508 
148.140717 0.01015 
149.04184 1.987004 
149.979324 0.010646 
150.045258 0.097819 
150.091263 1.373802 
150.505249 0.00807 
151.075378 0.109001 
151.086517 1.498132 
151.093353 0.050984 
152.08934 0.013898 
153.102036 0.443117 
154.068314 0.077833 
155.0271 0.221084 
155.704529 0.011422 
156.047455 0.209839 
156.084045 0.882746 
157.042877 0.019358 
157.086761 0.010708 
157.35611 0.006822 
157.888641 0.007252 
159.429291 0.006592 
159.62738 0.010614 
160.453857 0.007822 
163.086304 0.360964 
164.016037 0.041584 
164.052582 0.342863 
165.037064 0.010687 
165.10202 0.610391 
165.319473 0.006863 
166.032074 0.033638 
166.068283 9.805055 
166.105026 0.006745 
166.910385 0.010284 
167.052307 9.661362 
167.071411 0.822608 
168.001755 0.008927 
168.055771 0.837198 
168.063385 0.103157 
169.048004 0.118426 
170.036606 0.006839 
175.086349 0.105956 
175.635559 0.007915 
176.093933 0.008573 
176.613037 0.007626 
177.011932 0.011027 
178.747513 0.011022 
179.568176 0.006893 
179.712845 0.015005 
181.096954 0.26443 
182.063171 1.210694 
183.058365 0.025144 
183.095474 0.009099 
184.04245 0.159042 
184.078857 7.762506 
185.064377 0.041982 
185.074005 1.099813 
185.082306 0.656779 
186.07515 0.034787 
187.007645 0.159425 
188.511917 0.007483 
188.728821 0.014054 
190.088943 0.0122 
190.629105 0.009533 
192.047424 2.978299 
193.050919 0.155505 
193.097015 0.764628 
194.435837 0.013956 
195.445633 0.013468 
196.621674 0.013211 
199.089752 9.187689 
200.093109 0.793656 
200.982697 0.008146 
201.085587 0.065019 
204.295471 0.007604 
205.133286 0.00905 
206.776276 0.00776 
208.466949 0.007383 
209.074112 9.067633 
209.153717 0.012826 
210.058228 0.751351 
210.077362 0.894281 
211.508911 0.007447 
211.687668 0.007499 
212.523743 0.0073 
213.983627 0.0084 
214.920883 0.011748 
216.820343 0.400978 
218.003983 0.006663 
219.394516 0.007683 
220.201447 0.014879 
221.453827 0.01052 
223.548172 0.008424 
225.10556 0.064685 
226.952133 0.011886 
227.065659 0.016435 
227.084579 100.0 
228.088181 11.257938 
229.080124 2.013626 
229.089859 0.224912 
232.340958 0.007633 
232.537399 0.00928 
242.429642 0.01173 
243.115799 0.524125 
244.119156 0.072487 
245.095383 0.412498 
245.11145 0.010223 
END IONS

