BEGIN IONS
PEPMASS=312.0
CHARGE=1+
COMPOUNDNAME=MoNA:2451845 Blasticidin S
LIBRARYQUALITY=3
SMILES=N/A
INCHIKEY=CXNPLSGKWMLZPZ-UHFFFAOYSA-N
INCHI=InChI=1S/C17H26N8O5/c1-24(16(20)21)6-4-9(18)8-12(26)22-10-2-3-13(30-14(10)15(27)28)25-7-5-11(19)23-17(25)29/h2-3,5,7,9-10,13-14H,4,6,8,18H2,1H3,(H3,20,21)(H,22,26)(H,27,28)(H2,19,23,29)
MSLEVEL=2
SOURCE_INSTRUMENT=LC-ESI-IT-LC-ESI-IT
FILENAME=output_mgf.mgf
SEQ=*..*
IONMODE=
ORGANISM=MONA
NAME=MoNA:2451845 Blasticidin S [M+H]+
PI=MoNA
DATACOLLECTOR=MoNA
PUBMED=N/A
SUBMITUSER=mwang87
TAGS=
SPECTRUMID=CCMSLIB00000567265
SCANS=4516
94.2 0.19278 
96.1 0.37785 
97.1 1.948471 
98.2 0.318628 
106.0 0.310916 
107.0 0.128623 
111.1 0.202959 
112.1 57.512114 
113.1 0.385561 
116.1 0.426585 
118.9 0.364895 
121.9 0.148981 
124.0 7.261191 
127.0 3.051175 
128.0 1.388019 
129.1 3.171778 
134.1 0.601475 
137.0 0.102713 
139.1 0.987036 
141.0 1.239039 
142.1 0.077112 
149.9 0.19278 
153.0 0.077112 
154.0 57.732964 
160.0 0.480563 
170.1 0.462673 
171.1 43.562829 
172.1 7.127633 
176.1 0.118136 
177.0 0.367671 
178.1 0.413938 
183.1 0.028377 
188.1 2.323544 
189.1 16.463142 
190.1 0.059222 
194.0 0.046267 
204.0 0.385561 
209.0 0.041024 
216.1 0.295494 
221.3 0.182602 
222.0 26.161387 
232.1 0.036089 
233.1 4.112547 
235.2 0.048735 
238.1 0.202959 
239.1 0.051511 
240.1 0.159468 
250.1 2.732239 
251.1 9.317619 
253.1 1.47531 
266.0 0.269893 
268.1 11.764543 
277.0 3.834943 
278.0 0.326339 
284.0 0.053979 
294.1 3.374737 
295.1 100.0 
311.2 0.069401 
312.1 5.11007 
391.3 0.069401 
END IONS

