BEGIN IONS
PEPMASS=273.076
CHARGE=1+
COMPOUNDNAME=naringenin
LIBRARYQUALITY=3
SMILES=N/A
INCHIKEY=FTVWIRXFELQLPI-ZDUSSCGKSA-N
INCHI=InChI=1S/C15H12O5/c16-9-3-1-8(2-4-9)13-7-12(19)15-11(18)5-10(17)6-14(15)20-13/h1-6,13,16-18H,7H2/t13-/m0/s1
MSLEVEL=2
SOURCE_INSTRUMENT=N/A-ESI-QTOF
FILENAME=library_mgf.mgf
SEQ=*..*
IONMODE=positive
ORGANISM=MONA
NAME=naringenin [M+H]+
PI=MoNA
DATACOLLECTOR=MoNA:VF-NPL-QTOF002117
PUBMED=N/A
SUBMITUSER=mwang87
TAGS=
SPECTRUMID=CCMSLIB00004719913
SCANS=2114
91.058502 0.348058 
107.047501 0.443128 
119.044601 0.686766 
119.051201 0.451121 
121.058197 0.214851 
123.043297 0.434301 
123.049202 0.193446 
147.044098 11.8168 
147.1035 0.249802 
147.113205 0.246102 
147.127304 0.301622 
147.144699 0.213971 
147.153397 0.312375 
151.041595 0.385511 
153.0177 21.876522 
153.064194 0.260038 
153.082306 0.391022 
153.095795 0.301028 
153.1091 0.192294 
153.127304 0.704069 
179.031204 0.253127 
179.039505 0.229565 
189.058395 0.451824 
194.951401 0.350664 
194.984299 0.520714 
194.995605 0.640349 
266.658112 0.23197 
272.973907 0.243897 
273.0755 100.0 
273.16391 0.86618 
273.182892 0.498062 
273.208313 1.248577 
273.223389 1.856937 
273.265289 0.972173 
273.285004 1.036436 
273.308685 0.522058 
273.333191 0.695965 
273.356689 0.650725 
273.377686 0.434666 
273.393585 0.403415 
273.417389 0.480907 
273.443695 0.62311 
273.465302 0.275119 
273.506104 0.456143 
273.527191 0.405588 
273.548798 0.466033 
273.568512 0.345221 
273.6026 0.27525 
273.622009 0.461642 
273.657104 0.381372 
273.690491 0.305848 
273.709106 0.21782 
273.728485 0.299809 
273.7771 0.403339 
273.805603 0.326862 
273.854614 0.247748 
273.885193 0.254293 
273.908905 0.198823 
273.928497 0.214558 
273.945007 0.274559 
273.988007 0.230062 
274.012787 0.355387 
274.055695 0.269225 
274.075897 0.253878 
274.093597 0.221188 
274.139191 0.247618 
274.164795 0.20153 
274.179688 0.201844 
274.244598 0.293899 
274.26651 0.220223 
274.287994 0.21521 
274.390594 0.216535 
274.514191 0.220936 
274.555603 0.213356 
274.594604 0.224834 
274.772095 0.193519 
274.823608 0.204527 
274.888092 0.207311 
274.988708 0.215388 
1152.385254 0.196105 
1160.604736 0.265885 
1166.875732 0.196089 
1435.170654 0.216872 
1507.968628 0.221671 
1556.452515 0.204158 
1574.52063 0.212742 
1623.381836 0.193662 
1677.626831 0.207423 
1697.849976 0.211774 
END IONS

