BEGIN IONS
PEPMASS=321.005
CHARGE=1+
COMPOUNDNAME=Chloramphenicol
LIBRARYQUALITY=3
SMILES=N/A
INCHIKEY=WIIZWVCIJKGZOK-RKDXNWHRSA-N
INCHI=InChI=1S/C11H12Cl2N2O5/c12-10(13)11(18)14-8(5-16)9(17)6-1-3-7(4-2-6)15(19)20/h1-4,8-10,16-17H,5H2,(H,14,18)/t8-,9-/m1/s1
MSLEVEL=2
SOURCE_INSTRUMENT=N/A-ESI-QFT
FILENAME=library_mgf.mgf
SEQ=*..*
IONMODE=negative
ORGANISM=MONA
NAME=Chloramphenicol [M-H]-
PI=MoNA
DATACOLLECTOR=MoNA:VF-NPL-QEHF000408
PUBMED=N/A
SUBMITUSER=mwang87
TAGS=
SPECTRUMID=CCMSLIB00004691471
SCANS=408
50.200092 0.113096 
50.717113 0.249842 
50.932415 0.217964 
51.027721 0.114082 
54.018986 0.173625 
55.047234 0.16414 
56.589806 0.201973 
56.746212 0.179854 
57.266132 0.165176 
57.389011 0.120395 
57.473515 0.146961 
57.497894 0.139548 
57.610699 0.197853 
57.64867 0.202366 
58.619255 0.149183 
58.927032 0.200353 
59.447342 0.11999 
59.507549 0.183373 
59.636669 0.150797 
60.368637 0.227436 
60.385574 0.176598 
60.477112 0.204082 
61.533905 0.114505 
61.950268 0.184031 
63.427845 0.179832 
64.03949 0.182485 
64.370316 0.236863 
64.694092 0.193463 
65.439903 0.164237 
65.9972 0.159045 
66.875526 0.193437 
66.964584 0.162181 
67.48175 0.198362 
69.712265 0.144675 
70.161446 0.141001 
70.621231 0.164766 
70.701523 0.108542 
71.954079 0.174152 
72.140915 0.19692 
72.805122 0.191575 
73.218445 0.153773 
74.785049 0.16119 
74.917587 0.179282 
74.989395 3.056713 
75.413078 0.169139 
75.848717 0.199066 
75.91423 0.217383 
78.033577 9.268767 
78.283424 0.271835 
78.714737 0.182722 
79.441864 0.226562 
79.956093 0.388562 
81.847229 0.19307 
82.302467 0.232258 
82.577271 0.237246 
82.944756 5.288426 
83.637154 0.204003 
84.007812 1.259662 
84.941826 3.156886 
85.140198 0.174295 
87.135864 0.16202 
87.78746 0.142321 
87.888718 0.174817 
88.121498 0.158506 
89.777458 0.201093 
90.396416 0.21815 
91.020737 1.48196 
91.418236 0.176809 
92.999977 0.910221 
93.740974 0.111505 
95.755989 0.211678 
95.80394 0.194796 
95.842598 0.175106 
96.958572 0.190177 
98.965111 0.147437 
99.719452 0.153194 
100.901855 0.21402 
102.622047 0.177861 
104.017281 0.112864 
104.222221 0.121369 
105.279861 0.243434 
105.375854 0.108162 
106.02861 0.763857 
106.726898 0.209984 
109.171333 0.122418 
110.686211 0.200963 
111.569252 0.249842 
113.000053 0.178941 
114.773109 0.176197 
116.854164 0.191254 
117.033577 0.863554 
118.359749 0.155555 
119.048981 0.676028 
120.181953 0.197106 
120.767815 0.120866 
121.028297 100.0 
121.768768 0.219589 
122.023567 1.15312 
122.0317 5.789573 
123.678055 0.164291 
124.498093 0.220229 
125.993217 0.220787 
127.969376 0.201402 
130.231232 0.168083 
134.113831 0.153024 
134.712006 0.205638 
134.903687 0.187755 
135.031342 0.840915 
136.023804 0.183223 
136.647522 0.162735 
137.165909 0.220651 
147.932053 0.193419 
148.039597 0.505944 
149.00853 0.279309 
149.274796 0.186817 
150.884048 0.221745 
151.020172 0.131175 
151.026505 31.642218 
152.034409 8.305384 
159.031509 1.203494 
161.035278 0.232617 
162.018768 0.428794 
162.664658 0.204262 
162.793655 0.222455 
163.497406 0.21529 
163.805573 0.114483 
170.003296 0.421376 
173.364197 0.203984 
174.604156 0.213418 
183.011353 48.174011 
183.529099 0.157757 
183.681 0.211843 
184.01442 1.410172 
185.006943 1.009489 
189.700531 0.182074 
190.051926 0.178515 
193.397079 0.192553 
195.440125 0.220636 
197.027237 1.222947 
206.666443 0.223715 
213.13414 0.216445 
213.651199 0.214543 
213.666153 0.170087 
214.200623 0.214644 
214.50029 0.207485 
217.023727 0.169684 
220.381714 0.701298 
220.390045 0.404463 
220.400879 0.937986 
220.410172 0.741847 
220.423996 0.353849 
230.2892 0.201754 
231.03363 0.185552 
233.087967 0.218352 
238.230515 0.228039 
239.028549 0.244365 
244.013382 0.149105 
254.891129 0.167069 
259.66571 0.192 
260.840546 0.187908 
262.391663 0.191343 
266.421387 0.243888 
273.700958 0.234852 
280.558624 0.150335 
282.8367 0.229209 
283.845917 0.185819 
283.985474 0.2304 
292.292603 0.21373 
295.589081 0.212591 
297.642853 0.225002 
308.300262 0.196462 
308.469055 0.209698 
309.64978 0.152015 
328.618866 0.246297 
341.095703 0.184794 
343.588318 0.213755 
356.237366 0.217429 
357.352325 0.173114 
END IONS

