BEGIN IONS
PEPMASS=271.06
CHARGE=1+
COMPOUNDNAME=Emodin
LIBRARYQUALITY=3
SMILES=N/A
INCHIKEY=RHMXXJGYXNZAPX-UHFFFAOYSA-N
INCHI=InChI=1S/C15H10O5/c1-6-2-8-12(10(17)3-6)15(20)13-9(14(8)19)4-7(16)5-11(13)18/h2-5,16-18H,1H3
MSLEVEL=2
SOURCE_INSTRUMENT=N/A-ESI-QFT
FILENAME=library_mgf.mgf
SEQ=*..*
IONMODE=positive
ORGANISM=MONA
NAME=Emodin [M+H]+
PI=MoNA
DATACOLLECTOR=MoNA:VF-NPL-QEHF011226
PUBMED=N/A
SUBMITUSER=mwang87
TAGS=
SPECTRUMID=CCMSLIB00004702289
SCANS=11226
50.227978 0.049328 
50.589668 0.035838 
50.601097 0.046116 
50.761513 0.056817 
51.048492 0.039541 
51.164886 0.047882 
52.25951 0.051124 
52.432312 0.132875 
52.444546 0.040498 
52.625099 0.039898 
52.626522 0.041665 
52.80888 0.047576 
53.293484 0.040854 
53.768063 0.045233 
54.498096 0.056805 
54.89468 0.042795 
54.938404 0.053044 
55.054962 1.578469 
55.935116 0.27821 
56.050049 0.049709 
56.185291 0.069191 
56.965527 0.701961 
57.034065 0.061092 
57.070614 4.958836 
57.124966 0.04729 
57.935539 9.305846 
58.065853 8.924568 
58.161831 0.042233 
58.273773 0.064865 
58.799393 0.045867 
59.115589 0.041698 
60.440475 0.047882 
60.554493 0.049249 
60.981903 0.038818 
61.011368 44.504436 
61.777153 0.048782 
62.019218 0.441004 
62.06086 0.046938 
62.643436 0.052697 
62.982117 0.045112 
63.007202 0.219265 
63.027008 0.350818 
64.103096 0.035564 
65.03907 0.037251 
65.571815 0.036933 
65.850601 0.04294 
66.609322 0.043069 
67.054871 1.266647 
67.05706 0.034261 
68.997765 0.655033 
69.034142 0.108606 
69.070518 0.856211 
69.312767 0.043775 
69.35714 0.039804 
69.50209 0.061637 
69.961601 1.699944 
70.029396 1.975212 
70.065826 0.809636 
70.069809 0.056401 
70.958534 7.142611 
71.049835 0.101619 
71.086166 1.195213 
71.644287 0.041666 
72.044754 0.047837 
72.081299 0.043199 
72.084946 0.044132 
72.937744 2.129582 
72.95887 1.391721 
73.930466 0.068357 
74.09697 0.048925 
74.722343 0.038101 
75.413315 0.062796 
75.945953 7.775229 
77.156548 0.045524 
77.441078 0.037467 
79.021751 0.0962 
79.054726 0.369298 
79.852028 0.056969 
81.070419 1.705018 
81.98172 0.053842 
83.060791 0.109014 
83.086044 0.189899 
84.199318 0.037838 
85.101578 0.110992 
85.700493 0.052741 
86.096931 0.809051 
86.389908 0.054914 
87.04454 0.075509 
88.882141 0.041926 
88.968903 1.81166 
89.060402 0.045239 
89.800827 0.059565 
89.806389 0.060171 
90.948082 1.764178 
90.969337 0.174143 
91.054703 1.618255 
93.070175 0.306606 
93.956337 5.46407 
95.013054 0.113431 
95.049477 0.123683 
95.085922 1.721525 
95.24218 0.060775 
97.065331 0.041701 
98.975746 0.335549 
100.075981 0.254085 
102.915024 3.061683 
103.976974 0.102757 
104.070908 0.785147 
104.930656 3.622479 
104.963913 0.096764 
105.569389 0.051198 
105.917114 0.073133 
105.95623 0.391812 
108.020866 0.059086 
108.958969 0.044255 
109.101448 0.125795 
110.023849 0.053259 
110.071434 0.110381 
111.030716 0.047373 
113.317329 0.049401 
113.662117 0.040143 
113.66671 0.04357 
115.054535 0.711658 
116.985947 0.071713 
117.420395 0.044072 
117.95594 0.314699 
117.979843 0.053464 
118.924889 0.118156 
118.967316 0.206907 
119.049225 0.294842 
119.08596 0.045801 
119.787041 0.052715 
119.917679 0.118723 
119.975311 2.282221 
120.925461 1.030769 
120.940636 0.95182 
121.028511 0.758936 
121.792686 0.045545 
122.941025 24.598871 
123.224945 0.056478 
123.948814 0.175354 
124.027534 0.049582 
124.936043 0.044441 
125.314522 0.054614 
125.505959 0.039999 
126.515541 0.065776 
127.839478 0.062074 
128.062195 0.423455 
128.12059 0.04859 
129.069839 0.836156 
130.06955 0.051781 
131.085739 0.063481 
131.961319 4.199444 
132.766464 0.041796 
132.958237 4.883331 
133.922638 0.053579 
133.948212 1.402335 
134.940903 0.120546 
134.958755 3.821807 
135.044022 2.451993 
135.927551 0.117623 
135.948822 1.815878 
135.966415 4.941083 
136.93576 0.052018 
136.956497 2.14307 
137.023209 0.286224 
137.927917 11.794316 
138.935745 0.869921 
138.951096 0.472641 
140.951294 1.952138 
141.069809 3.395094 
141.45311 0.047131 
142.411835 0.073873 
143.08551 0.377453 
143.971359 0.044339 
145.064651 0.60312 
145.625656 0.063964 
147.412628 0.041403 
147.974777 2.414709 
148.392365 0.047568 
148.467911 0.047225 
148.971725 17.544596 
149.961182 0.450205 
149.971725 5.291288 
150.968231 7.621796 
151.550308 0.056694 
151.958862 1.819582 
152.062012 0.469445 
152.333725 0.044357 
152.951385 21.876656 
152.969116 16.074312 
153.069855 3.3758 
153.144348 0.037539 
153.959137 100.0 
154.351974 0.060716 
154.946701 0.334514 
155.085007 0.11802 
156.946198 1.769925 
156.990356 0.076169 
157.064621 2.158336 
159.080933 0.04149 
159.203094 0.039546 
161.917831 0.051054 
164.951462 0.120999 
165.069931 0.171095 
165.938217 0.437566 
166.966766 0.25899 
166.982315 4.731984 
167.956192 0.134917 
167.974731 2.259386 
167.981903 0.065363 
168.057037 0.240768 
168.982803 5.353164 
168.990356 0.110265 
169.064667 5.478191 
169.917862 0.110902 
170.068207 0.058635 
170.947006 0.041971 
170.961899 10.04155 
170.979675 2.6653 
171.080368 1.88177 
171.973633 0.048429 
172.957321 0.055868 
173.059631 2.354839 
176.940948 0.147944 
177.937958 0.902627 
179.022293 0.050676 
179.938126 0.161989 
181.064606 5.804705 
181.381058 0.042407 
182.072342 0.273871 
182.308548 0.050628 
182.952164 0.110661 
182.961838 0.291279 
183.043655 0.083717 
183.080765 0.053086 
183.948059 0.109106 
184.051926 0.588479 
185.059677 4.847798 
185.949005 14.786543 
187.038666 0.213051 
187.075333 0.061419 
188.638611 0.04957 
190.643814 0.060158 
192.961273 0.221984 
193.117004 0.042788 
194.951752 0.90999 
194.961517 0.082577 
195.948761 2.11482 
197.059662 14.513045 
197.949234 1.513282 
198.063019 1.353033 
199.075302 1.993122 
199.622726 0.051612 
201.054428 2.330472 
202.977386 0.05406 
209.059586 5.865073 
210.067383 0.702679 
210.971741 0.066079 
212.046829 0.577934 
212.932556 0.060644 
212.972534 0.97494 
213.054504 9.094438 
213.06601 0.096844 
213.856857 0.038175 
219.841995 0.177086 
219.859009 0.345539 
225.054413 7.975931 
226.05957 0.86742 
227.070084 10.302073 
229.049454 3.277526 
237.05452 1.03034 
240.041534 1.446581 
241.049332 1.208777 
243.065384 0.29112 
246.065018 0.052832 
253.049301 0.192555 
254.056427 0.060327 
255.064926 20.251896 
256.072754 5.673272 
257.044281 1.212755 
257.066803 0.048663 
258.052124 4.252359 
260.660126 0.038058 
261.937592 0.105934 
262.916382 0.132166 
262.932648 0.070379 
268.342987 0.044639 
271.059784 7.483927 
271.95697 1.887866 
272.063965 1.14882 
272.937561 0.502492 
272.95459 1.238904 
273.074921 0.158028 
273.953583 0.055427 
274.947571 0.044888 
277.477234 0.03802 
287.69812 0.061458 
289.9664 0.055475 
290.947449 0.105179 
292.92746 0.063478 
END IONS

