BEGIN IONS
PEPMASS=448.0
CHARGE=1+
COMPOUNDNAME=Massbank:KO004036 Sisomicin|Antibiotic 6640|Dehydrogentamicin Cla|Rickamicin
LIBRARYQUALITY=3
SMILES=NCC(=C3)O[C@@H]([C@H](N)C3)O[C@H]([C@@H](N)1)[C@H](O)[C@@H](O[C@@H](O2)[C@H](O)[C@@H](NC)[C@](C)(O)C2)[C@H](N)C1
INCHIKEY=URWAJWIAIPFPJE-GYHYWALZSA-N
INCHI=1S/C19H37N5O7/c1-19(27)7-28-18(13(26)16(19)24-2)31-15-11(23)5-10(22)14(12(15)25)30-17-9(21)4-3-8(6-20)29-17/h3,9-18,24-27H,4-7,20-23H2,1-2H3/t9-,10+,11-,12+,13-,14-,15+,16-,17-,18-,19+/m1/s1
MSLEVEL=2
SOURCE_INSTRUMENT=ESI-LC-ESI-QQ
FILENAME=Massbank_ESI_positive_8_1_2014_peaks.mgf
SEQ=*..*
IONMODE=Positive
ORGANISM=MASSBANK
NAME=Massbank:KO004036 Sisomicin|Antibiotic 6640|Dehydrogentamicin Cla|Rickamicin [M+H]+
PI=Putative Massbank Match
DATACOLLECTOR=Massbank
PUBMED=N/A
SUBMITUSER=mwang87
TAGS=
SPECTRUMID=CCMSLIB00000220594
SCANS=9828
58.1 54455.5 
64.9 19802.0 
68.2 133663.5 
71.1 148515.0 
72.1 485149.0 
74.0 84158.5 
80.3 74257.5 
81.4 74257.5 
82.3 405941.0 
82.9 178218.0 
84.2 826733.5 
85.0 34653.5 
86.2 519802.5 
88.2 84158.5 
92.1 69307.0 
94.0 49505.0 
96.1 138614.0 
96.5 59406.0 
98.1 79208.0 
99.0 217822.0 
100.2 905941.5 
102.2 405941.0 
109.3 1693071.0 
110.1 480198.5 
112.3 1772279.0 
113.4 113861.5 
114.0 460396.5 
118.4 831684.0 
120.1 49505.0 
121.0 54455.5 
123.0 64356.5 
124.1 84158.5 
127.2 222772.5 
133.2 89109.0 
134.2 34653.5 
135.0 19802.0 
137.2 29703.0 
142.3 524753.0 
145.2 188119.0 
149.4 34653.5 
151.2 118812.0 
157.0 59406.0 
160.4 400990.5 
163.3 777228.5 
164.1 34653.5 
173.3 688119.5 
175.3 153465.5 
183.4 14851.5 
185.5 19802.0 
187.2 64356.5 
192.9 19802.0 
199.5 94059.5 
201.2 89109.0 
205.5 49505.0 
208.5 9901.0 
215.4 64356.5 
226.2 113861.5 
236.4 39604.0 
254.4 599010.5 
268.4 19802.0 
271.6 44554.5 
278.6 44554.5 
END IONS

