BEGIN IONS
PEPMASS=547.266
CHARGE=1+
COMPOUNDNAME=MoNA:2880362 Antimycin A1
LIBRARYQUALITY=3
SMILES=N/A
INCHIKEY=UIFFUZWRFRDZJC-UHFFFAOYSA-N
INCHI=InChI=1S/C28H40N2O9/c1-6-7-8-9-11-20-25(39-22(32)14-16(2)3)18(5)38-28(36)23(17(4)37-27(20)35)30-26(34)19-12-10-13-21(24(19)33)29-15-31/h10,12-13,15-18,20,23,25,33H,6-9,11,14H2,1-5H3,(H,29,31)(H,30,34)
MSLEVEL=2
SOURCE_INSTRUMENT=LC-ESI-QTOF-LC-ESI-QTOF
FILENAME=output_mgf.mgf
SEQ=*..*
IONMODE=
ORGANISM=MONA
NAME=MoNA:2880362 Antimycin A1 [M-H]-
PI=MoNA
DATACOLLECTOR=MoNA
PUBMED=N/A
SUBMITUSER=mwang87
TAGS=
SPECTRUMID=CCMSLIB00000569369
SCANS=6620
101.0603 12.55006 
101.0878 0.565679 
101.1049 0.165198 
101.1531 0.165198 
108.0454 0.500601 
117.0469 0.215258 
126.6225 0.105126 
133.0408 0.605727 
145.0784 0.140168 
161.0346 2.072487 
161.0647 0.180216 
173.0103 0.140168 
173.0719 0.625751 
175.0249 0.115138 
190.0766 0.110132 
191.0807 4.810773 
191.1214 0.230276 
199.1399 0.115138 
201.0619 0.240288 
217.0637 1.001201 
219.0767 13.371045 
219.1207 0.585703 
219.1502 0.140168 
219.1774 0.130156 
219.2176 0.180216 
244.9999 0.120144 
245.0553 60.898078 
245.0997 2.157589 
245.127 1.196436 
245.1432 0.165198 
245.1625 0.395475 
245.2013 0.755907 
245.2231 0.105126 
245.2391 0.220264 
245.2571 0.160192 
245.2848 0.10012 
245.3019 0.265318 
245.3475 0.135162 
245.3969 0.15018 
245.4335 0.120144 
245.4518 0.15018 
245.4832 0.135162 
245.5001 0.135162 
245.5289 0.27533 
245.5756 0.265318 
245.594 0.105126 
245.69 0.15018 
245.7503 0.155186 
245.7979 0.115138 
245.8482 0.165198 
245.887 0.180216 
245.9159 0.185222 
245.9753 0.115138 
246.0097 0.130156 
246.0607 0.185222 
246.2241 0.105126 
246.2904 0.115138 
262.0655 0.145174 
263.0659 28.328995 
263.1175 1.306568 
263.1762 0.280336 
263.215 0.355427 
263.2971 0.105126 
263.3412 0.160192 
263.4043 0.155186 
263.4648 0.15018 
263.583 0.110132 
263.597 0.135162 
263.6276 0.120144 
263.6682 0.145174 
263.8402 0.10012 
263.9802 0.120144 
264.2361 0.115138 
299.0041 0.165198 
301.2005 1.326592 
301.2261 0.145174 
318.3523 0.20024 
321.3649 0.12515 
329.2242 0.170204 
373.2104 0.215258 
373.2307 0.110132 
383.0116 0.330396 
401.2062 11.929315 
401.2657 0.445535 
401.3103 0.240288 
401.3824 0.140168 
401.4429 0.105126 
401.7669 0.105126 
402.001 0.12515 
402.2178 0.145174 
402.6338 0.105126 
445.1968 4.640569 
445.2535 0.395475 
445.3044 0.15018 
445.5949 0.115138 
465.0163 0.245294 
522.48 0.160192 
543.5243 0.110132 
547.2642 100.0 
END IONS

