BEGIN IONS
PEPMASS=352.162
CHARGE=1+
COMPOUNDNAME=MITOMYCIN C
LIBRARYQUALITY=3
SMILES=N/A
INCHIKEY=NWIBSHFKIJFRCO-WUDYKRTCSA-N
INCHI=InChI=1S/C15H18N4O5/c1-5-9(16)12(21)8-6(4-24-14(17)22)15(23-2)13-7(18-13)3-19(15)10(8)11(5)20/h6-7,13,18H,3-4,16H2,1-2H3,(H2,17,22)/t6-,7+,13+,15-/m1/s1
MSLEVEL=2
SOURCE_INSTRUMENT=N/A-ESI-QFT
FILENAME=library_mgf.mgf
SEQ=*..*
IONMODE=positive
ORGANISM=MONA
NAME=MITOMYCIN C [M+NH4]+
PI=MoNA
DATACOLLECTOR=MoNA:VF-NPL-QEHF027738
PUBMED=N/A
SUBMITUSER=mwang87
TAGS=
SPECTRUMID=CCMSLIB00004721319
SCANS=27738
50.172119 0.035082 
51.347912 0.032538 
51.73156 0.03735 
51.940292 0.990196 
52.43161 0.038525 
52.584995 0.034715 
52.869709 0.055297 
52.874634 0.036996 
53.038914 1.26628 
53.319141 0.04345 
54.034145 1.823275 
54.288578 0.032908 
54.434265 0.034276 
54.442406 0.033885 
54.630371 0.038236 
54.824432 0.047499 
55.018181 0.137557 
55.040546 0.03491 
55.041981 2.754314 
55.054493 0.242901 
55.308926 0.038535 
55.700573 0.036151 
55.767097 0.035599 
55.919968 0.033352 
55.934689 4.069877 
56.049751 1.098349 
56.963654 0.035047 
56.965065 3.684154 
57.070297 0.035166 
57.540348 0.041604 
57.716564 0.043238 
57.93504 0.864461 
58.065376 0.199019 
58.541447 0.03891 
58.60215 0.050807 
59.424824 0.037226 
60.044563 0.038281 
61.010853 1.654425 
61.371716 0.040835 
61.833874 0.042126 
62.018673 0.715833 
62.260082 0.040869 
62.965214 0.039133 
64.56443 0.039659 
65.038712 0.519419 
65.706474 0.036831 
67.041779 1.178444 
67.054367 0.398036 
67.934975 0.117942 
68.049583 4.031686 
68.051193 0.035212 
69.03363 0.304736 
69.040451 0.031008 
69.044823 0.084467 
69.914848 0.059366 
70.090088 0.039532 
70.957901 1.950151 
71.442818 0.041795 
71.929298 0.0522 
71.951828 0.057773 
72.937164 1.380807 
73.380852 0.043907 
73.945045 0.097452 
76.134102 0.044519 
76.538513 0.029081 
76.616058 0.044282 
76.77951 0.03553 
76.908585 0.038153 
77.417374 0.035807 
78.033813 0.482341 
78.49025 0.040935 
78.546349 0.036631 
79.054214 1.112243 
80.049484 3.434496 
80.341286 0.037564 
80.49073 0.043697 
81.033508 0.45871 
81.044754 0.097357 
81.052582 0.04399 
81.833771 0.047024 
81.942726 0.037265 
82.028763 2.521629 
82.065102 0.986896 
82.77961 0.029957 
83.01265 0.148677 
83.060455 0.083685 
83.206612 0.039069 
83.457581 0.040378 
84.044411 3.375052 
84.653427 0.038508 
86.060051 1.371505 
86.191811 0.038167 
86.971542 0.04915 
87.960358 0.039241 
88.968269 0.049158 
89.865593 0.042474 
89.939873 0.389467 
90.18634 0.029502 
90.947754 0.887349 
91.054245 1.198216 
92.049469 2.18078 
92.554024 0.038726 
93.044769 1.019983 
93.057304 0.812606 
93.070244 0.041684 
93.184105 0.037629 
94.028702 0.791665 
94.065094 2.053578 
94.206757 0.046699 
95.036613 0.656984 
95.049133 0.627016 
95.060287 0.267948 
95.081718 0.039128 
95.470642 0.047701 
96.044312 1.777703 
96.739845 0.037637 
97.039726 0.337309 
98.03624 5.221145 
98.060303 0.038094 
98.861259 0.03986 
98.975357 9.954347 
99.97065 0.127808 
100.199081 0.03564 
102.003105 0.04253 
102.524803 0.043349 
102.947998 0.116875 
102.990616 0.040663 
103.054207 0.101992 
104.049438 2.712159 
104.403015 0.039398 
104.60511 0.039258 
105.013985 0.041508 
105.044792 10.074537 
105.057365 0.049177 
105.069809 0.042643 
105.413261 0.037491 
105.46492 0.044199 
105.870972 0.04011 
106.028824 0.091528 
106.048027 0.160814 
106.052422 0.038323 
106.065117 1.385702 
106.354523 0.035952 
107.036179 0.05165 
107.049088 0.080067 
107.060387 2.680147 
107.950768 0.046458 
108.044418 7.759482 
108.068024 0.037501 
108.080833 0.17893 
108.83622 0.035338 
109.039474 0.347911 
109.047874 0.042842 
109.051956 0.154775 
109.076027 0.08876 
109.693314 0.041307 
110.023621 0.040281 
110.06002 2.962625 
110.201805 0.043152 
111.031738 0.026443 
111.055298 0.545002 
111.104897 0.040709 
112.039284 2.727619 
112.631004 0.038158 
112.852898 0.044125 
113.158699 0.036711 
113.385963 0.047896 
113.760414 0.040967 
114.294449 0.042151 
114.978371 0.036754 
115.054169 0.592862 
115.615761 0.040231 
116.049538 0.08946 
116.985916 4.913778 
117.057304 0.7634 
117.776115 0.04175 
117.981117 0.041081 
118.052635 0.108874 
118.065056 2.035962 
119.048927 0.053754 
119.060455 4.994751 
119.950958 0.03773 
120.044296 1.328472 
120.068169 0.662914 
120.080719 0.541578 
120.262032 0.036218 
121.039574 0.374466 
121.052361 0.078379 
121.075943 0.147149 
121.640541 0.037497 
122.060059 2.023763 
123.031563 0.274538 
123.05529 3.481238 
123.358307 0.040504 
124.03933 0.313986 
125.047195 0.040615 
125.885246 0.03616 
125.995636 0.045967 
126.054871 0.726285 
127.241516 0.026192 
128.049072 0.039503 
128.963745 1.840296 
129.332993 0.041675 
130.065094 1.785831 
131.055573 0.044706 
131.060318 5.610501 
131.073151 0.098349 
131.184799 0.039203 
131.411835 0.041205 
132.044312 2.001157 
132.068207 3.562034 
132.080719 0.570872 
132.958267 4.67362 
133.039551 0.234748 
133.052002 0.135282 
133.075928 2.815683 
133.081238 0.076799 
134.022705 0.040226 
134.04776 0.065151 
134.059967 1.398489 
134.996429 1.157805 
135.055145 1.928732 
135.091431 0.03503 
136.039322 1.968274 
136.075623 1.061681 
137.011826 0.047817 
137.034714 0.052042 
138.054993 1.670279 
138.332886 0.040517 
138.486725 0.034081 
139.050217 1.039478 
139.955978 0.041444 
141.065842 0.043794 
141.812195 0.05046 
142.065094 0.593893 
143.060471 0.150328 
144.044281 0.090295 
144.06813 0.040593 
144.080826 0.303225 
144.240997 0.04342 
144.958725 0.116744 
145.039566 0.043552 
145.075928 2.271019 
145.169769 0.037444 
145.650787 0.044685 
146.059952 2.219058 
146.08371 0.092886 
146.974319 4.936336 
147.055313 4.024646 
147.068069 0.079345 
147.091766 0.16532 
147.546417 0.036146 
148.039215 0.211168 
148.06311 2.389738 
148.075653 0.678767 
149.047134 0.322246 
149.059921 0.075579 
149.071014 1.762529 
150.037048 0.040965 
150.054901 2.464487 
150.968826 3.950858 
151.050064 0.587947 
151.953491 0.03723 
152.034149 0.336528 
153.064865 0.046123 
153.959244 0.077024 
154.049759 0.695617 
155.060257 0.404445 
156.06813 0.913917 
157.060928 0.049496 
157.075989 3.774934 
157.996674 0.041233 
158.023621 0.050167 
158.047516 0.058037 
158.059982 0.451815 
158.071381 0.569946 
158.084152 0.168969 
158.699234 0.042631 
159.055283 6.49837 
159.067825 0.052528 
159.091629 1.725777 
159.389847 0.040063 
160.063004 0.212029 
160.075806 0.337545 
160.086807 0.039463 
161.070923 2.971428 
162.054901 1.494696 
162.066574 0.028243 
162.07872 0.426692 
162.877365 0.213618 
163.050201 0.457057 
163.086426 1.667807 
164.033966 0.197601 
164.0578 0.042418 
164.07045 1.144423 
164.139465 0.045817 
165.065887 0.680113 
166.049744 0.086911 
168.06778 0.200883 
169.075943 2.99676 
170.060394 0.091381 
170.071213 0.107534 
170.084015 0.140158 
171.055115 0.215505 
171.07901 0.545967 
171.09166 1.494303 
172.063232 0.302086 
172.086746 0.205824 
172.095993 0.040432 
173.070862 2.824554 
174.054764 0.328863 
174.066528 0.035787 
174.078934 0.426169 
174.102371 0.09802 
175.05014 3.712366 
175.062958 0.060595 
175.086349 0.839481 
176.034317 0.053009 
176.058075 16.124506 
176.070679 0.354472 
177.066055 3.335253 
177.864059 0.044146 
178.050217 0.142077 
178.293945 0.041595 
178.893204 0.057609 
178.908569 0.131828 
180.879822 0.065839 
180.888092 15.310222 
181.888962 0.046031 
182.044785 4.797853 
182.893051 0.042185 
183.055298 0.031489 
184.086975 0.930144 
185.070938 5.314877 
186.055222 0.100455 
186.066208 0.248384 
186.078827 0.467597 
186.87767 0.752389 
187.050262 1.437596 
187.062302 0.06337 
187.074768 0.04116 
187.086502 1.964106 
187.664185 0.050322 
188.070679 2.510712 
188.080688 0.036445 
188.455505 0.029383 
188.915848 0.23669 
189.065918 2.675173 
189.078354 0.895626 
190.049164 0.047446 
190.07373 3.182495 
191.081497 2.750988 
191.880478 0.050885 
192.054977 0.044453 
192.065582 0.293973 
192.085098 0.094705 
193.060684 0.614441 
193.880646 0.059334 
195.875381 0.248901 
196.88295 1.480745 
196.918747 0.047162 
197.070969 2.026236 
197.890976 0.761013 
198.07901 0.167229 
198.898788 1.40506 
199.074081 0.566523 
199.086487 0.05321 
200.058182 0.137364 
200.081772 1.059316 
201.065887 3.783089 
202.060791 0.123813 
202.07373 0.918317 
202.085999 0.087152 
202.097137 0.355892 
203.045319 0.09508 
203.081558 1.255302 
203.398972 0.038797 
204.05307 28.412083 
204.076477 0.825897 
204.888138 7.400587 
205.056717 2.329232 
206.926315 0.424098 
206.977753 0.638524 
208.060471 0.103396 
209.876114 2.648774 
210.888535 0.036968 
211.290176 0.044718 
212.081696 0.862117 
213.065933 3.135189 
213.885849 0.174754 
214.062531 0.033944 
214.073502 1.447573 
214.097382 1.747274 
214.893539 1.805999 
215.069443 0.209822 
215.081375 4.519307 
215.900879 0.042231 
216.076859 0.255902 
217.061951 0.193506 
218.068542 0.301416 
219.076523 29.262362 
219.351776 0.036274 
219.893799 0.711839 
219.907532 0.048394 
220.048813 0.046797 
220.079895 3.670981 
220.903442 0.751597 
222.898712 85.433594 
223.274414 0.044983 
223.899857 4.876507 
224.902328 0.243199 
224.936447 0.037941 
225.065628 0.117197 
225.264679 0.034456 
226.07338 0.045582 
226.892471 0.040239 
228.076736 0.926641 
229.06044 0.413892 
229.084564 0.310933 
229.895889 20.070959 
230.068405 1.682595 
230.092331 0.977531 
230.897888 0.970629 
231.076477 0.383345 
232.081253 0.031909 
233.055634 0.045984 
233.091766 0.103461 
234.723495 0.036172 
235.892365 0.04275 
236.115829 0.04248 
236.879868 0.046916 
236.91423 0.414853 
237.633942 0.044817 
237.885635 1.329387 
237.922134 3.287175 
238.893372 0.093652 
238.913757 0.747373 
239.90123 0.354764 
240.076569 0.563257 
240.909058 100.0 
241.062943 0.04593 
241.084122 0.286105 
241.910294 6.166302 
242.092133 7.437959 
242.913116 0.603477 
244.070923 0.154815 
245.092606 0.079543 
246.899658 0.029781 
247.071503 1.375639 
247.906387 11.471889 
248.908112 0.331222 
251.033676 0.124572 
253.902512 0.033264 
254.924637 0.524399 
255.70755 0.028724 
255.896286 1.126516 
256.877655 0.035962 
256.932861 0.045608 
257.946289 0.046065 
258.087524 0.104167 
259.038818 0.285502 
260.83551 0.03811 
261.861389 0.04925 
261.885284 0.042003 
263.444611 0.03582 
264.909241 4.467788 
265.260284 0.04105 
266.93866 0.039949 
269.512146 0.043884 
276.53299 0.050413 
277.049377 1.616733 
279.89621 2.042299 
281.911926 0.254149 
282.919678 3.189904 
286.049835 1.747044 
294.742737 0.036051 
295.060791 0.075826 
297.90625 0.158163 
298.049103 0.04578 
298.087067 0.047997 
300.029114 0.086874 
302.044434 0.04312 
304.060272 3.243698 
306.123688 0.233026 
306.920319 0.791568 
320.453522 0.048019 
322.070862 0.13222 
323.044067 0.051804 
330.389069 0.043259 
332.769928 0.044103 
340.62674 0.045824 
342.964996 0.03683 
344.789612 0.045116 
351.990753 0.038979 
355.484375 0.044939 
357.052185 0.038114 
358.738708 0.046982 
365.847565 0.048274 
375.65741 0.039311 
379.216827 0.040805 
END IONS

