BEGIN IONS
PEPMASS=173.0
CHARGE=1+
COMPOUNDNAME=MoNA:2221873 trans-Propene-1,2,3-tricarboxylic acid
LIBRARYQUALITY=3
SMILES=N/A
INCHIKEY=GTZCVFVGUGFEME-QECJGSJFNA-N
INCHI=InChI=1/C6H6O6/c7-4(8)1-3(6(11)12)2-5(9)10/h1H,2H2,(H,7,8)(H,9,10)(H,11,12)/b3-1-/f/h7,9,11H
MSLEVEL=2
SOURCE_INSTRUMENT=LC-ESI-QQ-LC-ESI-QQ
FILENAME=output_mgf.mgf
SEQ=*..*
IONMODE=
ORGANISM=MONA
NAME=MoNA:2221873 trans-Propene-1,2,3-tricarboxylic acid [M-H]-
PI=MoNA
DATACOLLECTOR=MoNA
PUBMED=N/A
SUBMITUSER=mwang87
TAGS=
SPECTRUMID=CCMSLIB00000573791
SCANS=11042
39.0 6.077348 
41.2 74.033149 
44.7 1.104972 
56.3 1.104972 
58.6 2.209945 
66.7 19.889503 
79.3 14.364641 
85.0 100.0 
111.1 10.497238 
END IONS

