BEGIN IONS
PEPMASS=289.119
CHARGE=1+
COMPOUNDNAME=Citrinin
LIBRARYQUALITY=3
SMILES=N/A
INCHIKEY=CQIUKKVOEOPUDV-IYSWYEEDSA-N
INCHI=InChI=1S/C13H14O5/c1-5-7(3)18-4-8-9(5)6(2)11(14)10(12(8)15)13(16)17/h4-5,7,15H,1-3H3,(H,16,17)/t5-,7-/m1/s1
MSLEVEL=2
SOURCE_INSTRUMENT=N/A-Linear Ion Trap
FILENAME=library_mgf.mgf
SEQ=*..*
IONMODE=positive
ORGANISM=MONA
NAME=Citrinin M-H
PI=MoNA
DATACOLLECTOR=MoNA:VF-NPL-LTQ007670
PUBMED=N/A
SUBMITUSER=mwang87
TAGS=
SPECTRUMID=CCMSLIB00004690959
SCANS=6580
205.070007 1.247421 
219.080002 2.246588 
229.960007 4.144705 
233.0 6.359325 
234.089996 2.30533 
244.960007 100.0 
252.990005 2.409876 
257.01001 4.23064 
261.01001 40.914833 
271.970001 7.650393 
288.98999 24.158913 
END IONS

