BEGIN IONS
PEPMASS=405.264
CHARGE=1+
COMPOUNDNAME=MoNA:692479 (1S,3R,7S,8S,8aR)-8-{2-[(2R,4R)-4-hydroxy-6-oxotetrahydro-2H-pyran-2-yl]ethyl}-3,7-dimethyl-1,2,3,7,8,8a-hexahydronaphthalen-1-yl (2S)-2-methylbutanoate
LIBRARYQUALITY=3
SMILES=N/A
INCHIKEY=PCZOHLXUXFIOCF-BXMDZJJMSA-N
INCHI=InChI=1S/C24H36O5/c1-5-15(3)24(27)29-21-11-14(2)10-17-7-6-16(4)20(23(17)21)9-8-19-12-18(25)13-22(26)28-19/h6-7,10,14-16,18-21,23,25H,5,8-9,11-13H2,1-4H3/t14-,15-,16-,18+,19+,20-,21-,23-/m0/s1
MSLEVEL=2
SOURCE_INSTRUMENT=LC-ESI-QFT-LC-ESI-QFT
FILENAME=output_mgf.mgf
SEQ=*..*
IONMODE=
ORGANISM=MONA
NAME=MoNA:692479 (1S,3R,7S,8S,8aR)-8-{2-[(2R,4R)-4-hydroxy-6-oxotetrahydro-2H-pyran-2-yl]ethyl}-3,7-dimethyl-1,2,3,7,8,8a-hexahydronaphthalen-1-yl (2S)-2-methylbutanoate [M+H]+
PI=MoNA
DATACOLLECTOR=MoNA
PUBMED=N/A
SUBMITUSER=mwang87
TAGS=
SPECTRUMID=CCMSLIB00000566893
SCANS=4144
79.0542 3.988326 
81.0698 2.561792 
83.0492 2.329957 
85.0648 0.259381 
89.0232 0.311335 
93.0699 0.258087 
95.0854 0.423529 
97.0647 1.465751 
99.0804 0.30346 
105.0698 0.772948 
107.0491 3.001498 
107.0856 3.807995 
111.0804 0.415491 
119.0854 0.725915 
121.1011 0.409149 
125.0596 5.269801 
127.0753 0.765357 
128.0616 0.168067 
131.0856 2.47895 
133.101 0.753005 
135.1166 0.302106 
143.0703 11.965171 
143.0855 1.486165 
145.1012 3.806207 
147.1167 0.340273 
151.0753 0.195999 
157.1012 2.820896 
159.1168 6.076622 
161.1323 0.387551 
165.0909 0.189557 
169.1011 2.346417 
171.1168 3.572204 
173.1324 39.1379 
179.0849 0.264579 
181.1009 0.364578 
183.1169 0.763588 
185.1326 1.084403 
187.1118 0.240735 
189.0909 0.733494 
191.1066 2.871693 
193.1013 0.16874 
193.1223 0.37814 
197.1322 1.1909 
199.1481 100.0 
201.1637 20.486345 
203.1065 0.840868 
205.1223 1.42771 
207.1175 0.194036 
209.1173 2.865372 
211.1116 0.261202 
211.1478 0.316667 
213.164 0.226797 
215.1793 1.844228 
223.1482 7.517356 
225.1637 47.439776 
229.1223 1.860192 
239.1794 11.931491 
243.1744 64.925983 
249.1639 16.436222 
257.1539 0.34354 
267.1744 41.205797 
285.185 98.155997 
303.1955 31.111877 
321.2058 1.39386 
END IONS

