BEGIN IONS
PEPMASS=472.0
CHARGE=1+
COMPOUNDNAME=Massbank:KO003829 Puromycin
LIBRARYQUALITY=3
SMILES=COc(c4)ccc(c4)CC(N)C(=O)NC(C(CO)3)C(O)C(O3)n(c2)c(n1)c(n2)c(N(C)C)nc1
INCHIKEY=RXWNCPJZOCPEPQ-UHFFFAOYSA-N
INCHI=1S/C22H29N7O5/c1-28(2)19-17-20(25-10-24-19)29(11-26-17)22-18(31)16(15(9-30)34-22)27-21(32)14(23)8-12-4-6-13(33-3)7-5-12/h4-7,10-11,14-16,18,22,30-31H,8-9,23H2,1-3H3,(H,27,32)/t14-,15+,16+,18+,22+/m0/s1
MSLEVEL=2
SOURCE_INSTRUMENT=ESI-LC-ESI-QQ
FILENAME=Massbank_ESI_positive_8_1_2014_peaks.mgf
SEQ=*..*
IONMODE=Positive
ORGANISM=MASSBANK
NAME=Massbank:KO003829 Puromycin [M+H]+
PI=Putative Massbank Match
DATACOLLECTOR=Massbank
PUBMED=N/A
SUBMITUSER=mwang87
TAGS=
SPECTRUMID=CCMSLIB00000220184
SCANS=9626
97.3 34653.5 
117.8 19802.0 
122.8 14851.5 
131.9 29703.0 
150.4 3698023.5 
160.1 534654.0 
164.3 20504971.0 
192.4 153465.5 
196.6 24752.5 
202.0 49505.0 
230.0 14851.5 
232.4 69307.0 
232.7 19802.0 
264.2 153465.5 
281.3 430693.5 
291.5 792080.0 
292.4 688119.5 
295.4 49505.0 
305.7 24752.5 
309.5 134807065.5 
437.0 44554.5 
454.6 2024754.5 
471.9 1099011.0 
472.6 235727958.5 
END IONS

