BEGIN IONS
PEPMASS=461.156
CHARGE=1+
COMPOUNDNAME=Massbank: Oxytetracycline
LIBRARYQUALITY=3
SMILES=[H]OC(N([H])[H])=C(C(=O)4)C(=O)C(O[H])(C(=O)3)C([H])(C([H])(N(C([H])([H])[H])C([H])([H])[H])4)C([H])(O[H])C([H])(C=13)C(O[H])(C([H])([H])[H])c(c([H])2)c(c(O[H])c([H])c([H])2)C(O[H])1
INCHIKEY=FYDOORKXBWEKQM-UHFFFAOYSA-N
INCHI=1S/C22H24N2O9/c1-21(32)7-5-4-6-8(25)9(7)15(26)10-12(21)17(28)13-14(24(2)3)16(27)11(20(23)31)19(30)22(13,33)18(10)29/h4-6,12-14,17,25-26,28,31-33H,23H2,1-3H3/b20-11-/t12-,13-,14+,17+,21-,22+/m1/s1
MSLEVEL=2
SOURCE_INSTRUMENT=ESI-LC-ESI-QTOF
FILENAME=Massbank_ESI_positive_8_1_2014_peaks.mgf
SEQ=*..*
IONMODE=Positive
ORGANISM=MASSBANK
NAME=Massbank: Oxytetracycline [M+H]+
PI=Putative Massbank Match
DATACOLLECTOR=Massbank
PUBMED=N/A
SUBMITUSER=mwang87
TAGS=
SPECTRUMID=CCMSLIB00000206306
SCANS=1565
55.018 126.952 
58.0652 534.387 
68.0488 123.327 
70.0653 377.138 
83.0135 418.309 
84.0445 188.476 
86.0602 346.654 
97.0346 106.32 
98.0603 3003.717 
107.0129 134.48 
109.0288 247.026 
117.0716 270.725 
123.0101 306.97 
124.0767 146.468 
125.0199 148.699 
126.0546 459.48 
127.0547 704.182 
128.0668 246.84 
129.0717 612.361 
137.0241 316.078 
145.0651 2948.885 
150.9999 173.234 
152.0666 351.208 
153.0186 508.271 
154.0508 471.654 
155.0491 737.454 
157.0667 439.405 
159.0806 261.431 
165.07 211.245 
169.0647 121.097 
171.0742 166.729 
172.061 249.071 
173.058 373.792 
174.0643 259.201 
175.0776 158.643 
178.0636 118.309 
179.0851 160.688 
180.0651 209.294 
181.0644 155.855 
183.0803 325.929 
184.0533 505.855 
185.0601 734.944 
186.0594 169.796 
187.0751 655.204 
189.0679 122.305 
193.0724 141.264 
195.0791 369.238 
196.0543 158.829 
197.0589 186.245 
198.0718 149.814 
199.0739 372.212 
200.0479 142.565 
201.0545 10000.0 
205.0618 110.967 
207.0814 224.907 
208.0591 192.286 
209.0572 233.364 
210.0662 125.651 
211.0738 1817.844 
212.047 2176.58 
213.0548 2868.03 
219.0679 105.483 
221.0617 247.955 
223.0739 525.743 
224.0495 215.149 
225.0516 205.39 
226.0612 209.851 
227.0707 462.825 
229.0576 179.554 
233.0552 145.725 
235.0768 716.543 
236.0496 204.647 
237.0543 592.472 
238.0602 115.799 
239.0712 1476.766 
240.041 2050.186 
241.043 218.494 
242.0559 1150.558 
247.0735 130.483 
249.0537 171.933 
250.0608 192.844 
251.0687 887.361 
252.042 502.138 
253.054 404.833 
254.0569 1745.353 
255.0621 420.818 
257.0695 482.342 
258.051 1205.39 
259.0587 129.554 
261.0517 215.149 
263.0687 620.446 
264.0431 235.688 
265.0557 357.342 
266.0562 543.773 
267.0628 736.896 
268.0348 8037.175 
269.0657 171.654 
270.0484 657.9 
273.0656 145.26 
278.0663 115.428 
279.0643 915.985 
281.0656 213.29 
283.0588 4626.394 
285.0732 197.026 
289.0481 222.955 
291.066 331.134 
292.0358 271.468 
294.049 920.818 
295.0613 111.71 
297.0974 421.004 
301.0703 415.985 
307.0583 478.903 
309.0777 100.465 
317.0447 121.654 
319.0636 251.301 
320.0277 136.245 
321.0468 141.543 
322.045 1675.651 
335.0573 334.201 
337.062 256.97 
347.0833 136.524 
350.0411 4173.792 
365.0692 245.26 
376.0832 177.602 
END IONS

