BEGIN IONS
PEPMASS=321.005
CHARGE=1+
COMPOUNDNAME=MoNA:642872 2,2-bis(chloranyl)-N-[(1R,2R)-1-(4-nitrophenyl)-1,3-bis(oxidanyl)propan-2-yl]ethanamide
LIBRARYQUALITY=3
SMILES=N/A
INCHIKEY=WIIZWVCIJKGZOK-RKDXNWHRSA-N
INCHI=InChI=1S/C11H12Cl2N2O5/c12-10(13)11(18)14-8(5-16)9(17)6-1-3-7(4-2-6)15(19)20/h1-4,8-10,16-17H,5H2,(H,14,18)/t8-,9-/m1/s1
MSLEVEL=2
SOURCE_INSTRUMENT=LC-ESI-QFT-LC-ESI-QFT
FILENAME=output_mgf.mgf
SEQ=*..*
IONMODE=
ORGANISM=MONA
NAME=MoNA:642872 2,2-bis(chloranyl)-N-[(1R,2R)-1-(4-nitrophenyl)-1,3-bis(oxidanyl)propan-2-yl]ethanamide [M-H]-
PI=MoNA
DATACOLLECTOR=MoNA
PUBMED=N/A
SUBMITUSER=mwang87
TAGS=
SPECTRUMID=CCMSLIB00000572479
SCANS=9730
65.9987 0.218545 
70.9461 0.561323 
71.0139 0.397599 
78.0349 14.778927 
79.019 1.149651 
82.9461 15.399412 
84.0091 3.708704 
86.0248 0.45377 
90.0348 0.227297 
92.0267 0.374217 
93.0347 1.222327 
98.0248 0.343125 
105.0221 1.654458 
105.0347 0.312458 
106.0299 2.614018 
117.0347 1.459727 
118.0426 0.520695 
121.0296 100.0 
122.0249 4.807837 
123.0324 0.54339 
124.0405 1.303355 
126.9359 1.842262 
135.0327 2.942475 
136.0402 1.192803 
146.0373 0.459028 
148.0406 6.898227 
150.0196 0.473756 
151.0275 54.100535 
152.0353 50.562655 
159.0326 3.496964 
161.0358 1.150623 
162.0197 1.544842 
176.0348 1.995339 
179.0461 1.168908 
END IONS

