BEGIN IONS
PEPMASS=353.079
CHARGE=1+
COMPOUNDNAME=GRISEOFULVIN
LIBRARYQUALITY=3
SMILES=N/A
INCHIKEY=DDUHZTYCFQRHIY-RBHXEPJQSA-N
INCHI=InChI=1S/C17H17ClO6/c1-8-5-9(19)6-12(23-4)17(8)16(20)13-10(21-2)7-11(22-3)14(18)15(13)24-17/h6-8H,5H2,1-4H3/t8-,17+/m1/s1
MSLEVEL=2
SOURCE_INSTRUMENT=N/A-ESI-QFT
FILENAME=library_mgf.mgf
SEQ=*..*
IONMODE=positive
ORGANISM=MONA
NAME=GRISEOFULVIN [M+H]+
PI=MoNA
DATACOLLECTOR=MoNA:VF-NPL-QEHF002916
PUBMED=N/A
SUBMITUSER=mwang87
TAGS=
SPECTRUMID=CCMSLIB00004693979
SCANS=2916
50.043678 0.041088 
50.441002 0.02706 
50.442314 0.026721 
50.520496 0.027366 
50.61684 0.029999 
50.618992 0.029789 
50.808804 0.023586 
51.477638 0.03059 
52.60759 0.027761 
52.611973 0.029784 
53.00296 2.456413 
53.039333 0.861653 
53.142757 0.029335 
53.165577 0.033338 
53.197109 0.025936 
53.203011 0.030603 
53.708557 0.033219 
53.945808 0.025691 
53.951977 0.025772 
53.99818 0.038288 
54.141476 0.029719 
54.647167 0.035293 
54.839016 0.02834 
54.921684 0.040178 
55.018581 0.065946 
55.151848 0.028117 
55.816586 0.038344 
55.962315 0.026525 
56.373608 0.026326 
56.49865 0.026434 
56.936459 0.030701 
57.377968 0.031347 
57.757866 0.031475 
58.208385 0.030644 
58.306671 0.026261 
58.401653 0.033532 
58.875145 0.027217 
58.981018 0.03017 
59.276234 0.028508 
59.472912 0.031856 
59.529072 0.027887 
59.808002 0.023534 
59.879841 0.032513 
60.257236 0.031931 
60.631908 0.027664 
61.281189 0.030642 
61.657925 0.028951 
61.881927 0.030738 
62.19278 0.026047 
62.276104 0.032669 
62.621178 0.039766 
63.003769 0.026597 
63.195347 0.031889 
63.597408 0.023262 
63.613056 0.041784 
63.703442 0.042392 
64.034752 0.0368 
64.303291 0.026078 
64.331802 0.023027 
65.039261 0.738189 
65.381599 0.037866 
65.544914 0.023191 
66.047043 0.398359 
66.662682 0.03716 
66.969009 0.029676 
67.030136 0.03145 
67.323997 0.029279 
67.39019 0.032559 
67.610588 0.026987 
67.807663 0.028328 
67.829071 0.029119 
67.923828 0.027384 
67.939598 0.037169 
67.95121 0.027518 
68.086472 0.028085 
68.093063 0.022134 
68.123009 0.02223 
68.137245 0.040695 
68.461472 0.025259 
68.99778 2.420873 
69.034157 100.0 
69.070488 0.033184 
69.567162 0.030402 
69.893578 0.026316 
69.895935 0.040547 
70.037514 3.322821 
70.127312 0.028131 
70.15374 0.022333 
70.425262 0.028292 
70.500832 0.025117 
70.578552 0.037244 
70.960938 0.039557 
71.036186 0.022316 
71.186378 0.065808 
72.134727 0.035604 
72.236053 0.034486 
72.946228 0.031578 
72.969437 0.035663 
73.348793 0.035814 
73.494629 0.023896 
74.171722 0.02944 
74.336342 0.034338 
74.775307 0.033337 
75.185486 0.036199 
75.255585 0.027376 
75.278854 0.027834 
75.431252 0.022795 
75.921799 0.024941 
76.111786 0.032701 
76.316956 0.042301 
76.461853 0.038228 
76.915344 0.036097 
77.039116 0.165729 
77.074684 0.041299 
77.079033 0.034956 
77.448662 0.023657 
77.508675 0.037286 
77.998436 0.035365 
78.972198 0.037908 
79.054802 5.673287 
79.762756 0.026457 
79.76754 0.03056 
79.917976 0.026249 
80.783363 0.034887 
80.842987 0.027084 
81.034035 0.085654 
81.070419 0.866385 
81.810112 0.035911 
81.862587 0.024712 
82.461601 0.036634 
83.477837 0.038216 
85.611839 0.030245 
85.637238 0.038653 
85.734962 0.024318 
86.031509 0.035286 
86.103844 0.033059 
86.29702 0.036245 
86.304199 0.023167 
86.702347 0.032074 
86.772301 0.023466 
87.000107 0.288564 
87.891647 0.045058 
88.070862 0.033659 
88.10952 0.026513 
88.294128 0.035242 
88.310463 0.031897 
88.329674 0.030498 
88.558472 0.027991 
89.145882 0.038345 
89.249664 0.036005 
89.968437 0.034484 
90.668777 0.026939 
91.040268 0.038249 
91.054657 0.372945 
91.908875 0.028005 
92.200645 0.025663 
94.008781 0.034013 
94.041718 1.819962 
94.05835 0.034662 
94.201714 0.036639 
94.424164 0.043038 
94.787773 0.028279 
95.049576 4.627819 
95.828529 0.03049 
95.915695 0.032302 
96.670036 0.027541 
96.870895 0.026904 
97.134483 0.029555 
97.585793 0.03869 
98.621368 0.025825 
98.996391 0.031274 
98.999977 0.697494 
99.044174 0.056613 
100.421333 0.033884 
100.560867 0.033203 
100.689377 0.032893 
100.714394 0.030304 
100.739319 0.027377 
101.55941 0.030687 
101.98098 0.043998 
102.352989 0.032952 
102.994858 0.157383 
103.054733 0.040041 
103.08741 0.03572 
103.701614 0.037137 
105.044991 0.588328 
107.013168 0.031459 
107.045662 0.037374 
107.049438 7.066189 
107.929955 0.031916 
107.971115 0.042563 
107.975128 0.038834 
108.052704 0.075623 
108.892395 0.031332 
108.977264 0.033317 
109.065086 1.753831 
109.648712 0.027998 
109.979378 0.037428 
110.220497 0.031385 
110.79319 0.032358 
111.49585 0.026469 
111.610817 0.030201 
111.649902 0.04209 
112.081512 0.032339 
112.124962 0.027084 
113.813286 0.031712 
114.393639 0.028681 
114.994553 0.192527 
115.0429 0.038031 
115.250328 0.030972 
115.369759 0.032761 
115.897186 0.032956 
115.997147 0.038819 
117.982407 0.028986 
119.022163 0.032453 
119.049301 0.084359 
120.090408 0.032048 
121.292465 0.029104 
121.611801 0.046038 
122.031601 0.113256 
122.036392 18.943573 
122.041245 0.052409 
122.857681 0.03246 
123.03968 0.376241 
123.044212 0.06766 
123.632088 0.027895 
124.022636 0.026253 
124.052299 0.028914 
125.059822 2.107158 
125.064461 0.030714 
126.994484 0.029717 
128.123886 0.024595 
128.97377 0.44234 
129.010193 1.615174 
132.063995 0.030684 
132.313629 0.027896 
132.678787 0.029809 
133.196777 0.034382 
133.648712 0.032204 
133.890518 0.036723 
133.912918 0.034374 
135.043961 0.650692 
135.055145 0.276706 
135.775116 0.028539 
136.20369 0.025786 
136.784927 0.024662 
137.059723 0.359369 
140.336227 0.036669 
140.781006 0.024649 
141.090118 0.038799 
141.303513 0.026256 
141.370285 0.034343 
141.981522 0.503649 
142.989334 0.466022 
143.997345 0.69585 
144.578308 0.035718 
145.65477 0.027774 
150.031021 6.910832 
150.333878 0.041409 
150.952423 0.037624 
151.034012 0.027952 
152.537109 0.028409 
153.65036 0.031913 
155.083008 0.027266 
155.352142 0.039745 
155.586136 0.02944 
156.968704 1.200432 
158.064163 0.033228 
159.020294 0.044024 
159.350159 0.026837 
161.059906 0.030125 
161.772781 0.039152 
161.842529 0.034051 
162.067215 0.29739 
162.921173 0.039333 
165.054565 48.814178 
165.993164 0.037217 
166.051041 0.026174 
166.057816 3.688228 
168.03418 0.074505 
168.041519 4.218522 
168.438995 0.039315 
169.042023 0.04379 
169.976288 0.609776 
170.984161 0.202858 
171.349762 0.034387 
171.992065 13.606382 
172.981049 0.046437 
172.995621 0.277822 
173.787735 0.041835 
173.989212 1.07002 
174.044342 0.036012 
175.014725 0.042308 
176.861481 0.039286 
177.134552 0.039867 
177.932327 0.029525 
182.012497 0.028703 
183.506363 0.029202 
184.416931 0.040178 
184.496567 0.024361 
184.999908 0.137477 
187.015488 0.036635 
187.987015 1.390039 
188.994675 0.756563 
189.053528 0.037335 
189.477783 0.029065 
190.063202 0.041178 
191.71167 0.025301 
192.190567 0.033354 
192.722504 0.042209 
195.149597 0.028387 
195.225327 0.03161 
196.028961 0.026202 
196.07312 0.0304 
197.036301 0.040152 
197.364456 0.06704 
199.619965 0.047449 
199.987 10.061688 
200.21637 0.032838 
200.847229 0.045576 
200.991119 0.168366 
201.984055 0.761016 
203.346909 0.028858 
203.578918 0.026859 
203.696564 0.029083 
205.472977 0.02558 
207.065308 0.340852 
209.834473 0.02859 
210.007538 0.075998 
211.015701 0.203865 
212.543549 0.037773 
214.991852 0.033247 
215.010422 20.259451 
215.021896 0.085331 
216.014099 1.377041 
216.451691 0.042363 
216.986145 0.032472 
217.007492 1.976878 
217.997467 15.294975 
218.008316 0.096882 
219.001022 0.512763 
219.019577 0.046376 
219.994568 1.353579 
220.191315 0.69093 
220.207932 0.067667 
224.023209 9.519278 
224.034927 0.048911 
224.556183 0.026508 
225.027405 0.534217 
226.020462 0.594877 
226.038254 0.037407 
227.010269 0.321225 
228.76976 0.030054 
229.330185 0.027705 
230.644028 0.037352 
231.008057 0.030334 
232.368256 0.046593 
235.015503 0.528157 
236.640152 0.037468 
237.816757 0.03941 
238.347656 0.039274 
238.654663 0.029743 
240.01825 0.137101 
241.025955 1.609937 
242.057114 0.54272 
242.445633 0.03443 
249.121582 0.026295 
250.836685 0.031486 
251.539307 0.029645 
252.01799 0.504627 
254.015106 0.037427 
255.005096 0.503335 
257.14679 0.036611 
260.185211 0.033899 
261.53598 0.04114 
262.003113 0.030632 
263.010406 0.109067 
264.018066 0.735353 
264.067719 0.036131 
264.378693 0.030978 
266.018494 0.034404 
270.028778 3.113022 
270.761139 0.031093 
277.025787 2.752794 
278.032806 0.357368 
279.022217 0.031316 
279.903198 0.031242 
280.379517 0.032418 
281.900208 0.030268 
285.05191 0.348728 
286.034485 0.032988 
299.339996 0.037292 
303.431335 0.037727 
303.454651 0.034945 
313.39859 0.025106 
314.827515 0.032149 
318.701965 0.043974 
320.736786 0.026944 
322.154663 0.034514 
323.465637 0.031336 
326.09906 0.031753 
338.729889 0.038567 
339.415802 0.029106 
340.404297 0.025549 
343.84845 0.040518 
344.720612 0.037574 
346.72168 0.031366 
352.011841 0.028766 
363.347504 0.041722 
365.828339 0.029126 
366.235901 0.034171 
368.320709 0.039768 
372.862885 0.029414 
376.057922 0.028592 
376.575012 0.02628 
376.795013 0.027332 
376.822571 0.029903 
END IONS

