BEGIN IONS
PEPMASS=345.0
CHARGE=1+
COMPOUNDNAME=MoNA:2291102 Gibberellin
LIBRARYQUALITY=3
SMILES=N/A
INCHIKEY=IXORZMNAPKEEDV-UHFFFAOYSA-N
INCHI=InChI=1S/C19H22O6/c1-9-7-17-8-18(9,24)5-3-10(17)19-6-4-11(20)16(2,15(23)25-19)13(19)12(17)14(21)22/h4,6,10-13,20,24H,1,3,5,7-8H2,2H3,(H,21,22)
MSLEVEL=2
SOURCE_INSTRUMENT=LC-ESI-QQ-LC-ESI-QQ
FILENAME=output_mgf.mgf
SEQ=*..*
IONMODE=
ORGANISM=MONA
NAME=MoNA:2291102 Gibberellin [M-H]-
PI=MoNA
DATACOLLECTOR=MoNA
PUBMED=N/A
SUBMITUSER=mwang87
TAGS=
SPECTRUMID=CCMSLIB00000565146
SCANS=2398
41.1 0.142303 
43.2 1.021992 
45.2 0.155239 
46.1 0.181113 
56.9 0.271669 
59.3 0.388098 
61.1 0.258732 
69.0 0.142303 
70.9 10.608021 
73.1 1.733506 
79.3 0.155239 
83.1 9.676585 
84.9 0.051746 
95.4 0.206986 
97.2 0.232859 
105.3 1.384217 
107.3 0.310479 
108.8 0.103493 
117.4 0.116429 
119.2 1.280724 
120.7 0.219922 
123.2 0.090556 
128.2 0.103493 
129.4 0.116429 
131.1 0.439845 
132.4 0.090556 
133.1 0.206986 
134.0 0.194049 
135.1 0.401035 
137.3 0.090556 
143.2 100.0 
145.0 0.582147 
146.0 0.957309 
147.4 0.168176 
149.3 0.504528 
155.1 0.465718 
157.0 0.181113 
159.0 0.569211 
161.3 3.829237 
163.3 0.129366 
166.9 0.168176 
168.9 0.413972 
171.2 0.388098 
172.3 0.116429 
173.2 0.465718 
174.9 0.07762 
177.3 0.776197 
179.5 0.116429 
181.0 0.142303 
181.4 0.064683 
183.3 0.866753 
183.7 0.064683 
185.4 1.047865 
187.2 0.206986 
188.5 0.129366 
193.4 1.513583 
194.3 0.116429 
195.2 0.181113 
197.5 1.655886 
198.1 0.155239 
199.0 0.970246 
201.2 1.720569 
203.7 0.064683 
205.4 0.737387 
206.6 0.595084 
207.5 0.051746 
209.2 0.72445 
211.5 0.284605 
213.1 1.073739 
215.1 0.608021 
219.7 1.811125 
221.3 31.125485 
223.3 0.194049 
224.4 0.258732 
225.1 0.116429 
227.0 9.27555 
229.4 0.090556 
237.4 0.582147 
239.2 3.648124 
239.9 0.142303 
240.7 0.142303 
241.6 0.064683 
243.1 0.129366 
245.3 0.401035 
253.5 0.129366 
255.4 1.630013 
257.3 1.461837 
265.1 0.142303 
271.6 1.060802 
273.5 3.285899 
283.4 0.659767 
301.9 0.543338 
345.6 0.103493 
END IONS

