BEGIN IONS
PEPMASS=466.252
CHARGE=1+
COMPOUNDNAME=TOBRAMYCIN
LIBRARYQUALITY=3
SMILES=N/A
INCHIKEY=NLVFBUXFDBBNBW-PBSUHMDJSA-N
INCHI=InChI=1S/C18H37N5O9/c19-3-9-8(25)2-7(22)17(29-9)31-15-5(20)1-6(21)16(14(15)28)32-18-13(27)11(23)12(26)10(4-24)30-18/h5-18,24-28H,1-4,19-23H2/t5-,6+,7+,8-,9+,10+,11-,12+,13+,14-,15+,16-,17+,18+/m0/s1
MSLEVEL=2
SOURCE_INSTRUMENT=N/A-ESI-QFT
FILENAME=library_mgf.mgf
SEQ=*..*
IONMODE=negative
ORGANISM=MONA
NAME=TOBRAMYCIN [M-H]-
PI=MoNA
DATACOLLECTOR=MoNA:VF-NPL-QEHF011814
PUBMED=N/A
SUBMITUSER=mwang87
TAGS=
SPECTRUMID=CCMSLIB00004702877
SCANS=11814
51.201706 0.026302 
52.653076 0.0244 
52.88427 0.023513 
53.471523 0.0232 
56.150276 0.025904 
56.847454 0.025982 
56.859619 0.049281 
57.03323 0.300989 
57.653191 0.025551 
57.949883 0.025486 
58.766239 0.030101 
59.012432 8.998075 
60.015827 0.030704 
60.835136 0.027214 
61.240547 0.022081 
61.986958 12.547825 
61.995388 0.029019 
62.882553 0.025524 
63.797733 0.025738 
63.951485 0.054824 
63.961044 19.164616 
63.970577 0.029345 
65.956802 0.141583 
69.033218 0.473995 
69.136086 0.023499 
70.463211 0.025594 
71.012466 0.806508 
71.048828 0.056843 
71.247749 0.029894 
71.61972 0.024584 
71.785393 0.028929 
72.007652 0.051405 
72.941879 0.14339 
72.943535 0.30438 
72.99173 1.138627 
73.028046 0.46071 
73.350471 0.022554 
74.023293 0.0942 
74.12693 0.022224 
74.151703 0.028652 
75.007393 0.826335 
75.28199 0.027441 
75.442513 0.023777 
76.506927 0.026534 
76.968788 0.044992 
77.395119 0.025383 
78.95768 1.093453 
78.984543 11.10218 
79.216682 0.027962 
79.81102 0.026944 
79.955971 10.784096 
80.828102 0.025103 
80.929718 0.02521 
80.963814 3.217394 
81.033226 1.909591 
81.951813 0.392975 
83.048882 1.868217 
85.028076 0.429703 
85.125313 0.024208 
87.007408 0.240761 
87.194626 0.02782 
87.88868 0.027065 
89.023056 2.401619 
89.041504 0.171988 
90.932022 0.033783 
91.020782 0.034438 
91.320618 0.026163 
92.015198 0.027778 
92.040077 0.033653 
92.926613 0.069878 
92.999969 0.705433 
93.006767 0.026533 
93.033218 0.133265 
94.923492 0.031289 
94.979523 4.404427 
95.049118 0.207475 
95.951012 0.245232 
95.983032 0.02742 
96.410591 0.022525 
96.941284 0.287601 
96.95874 100.0 
96.97596 0.531272 
97.06459 0.142666 
97.958153 0.743603 
97.962936 0.033473 
98.665733 0.028336 
98.778801 0.030271 
98.954575 3.895089 
98.962997 0.612861 
99.007423 0.25834 
99.043625 0.031463 
99.080521 0.028352 
99.924461 0.839464 
101.023079 0.039629 
103.918953 0.491496 
104.033958 0.038781 
106.979988 0.025283 
107.048988 0.173561 
108.020554 0.085514 
109.028259 0.040482 
109.064751 0.03054 
109.815437 0.021948 
110.974648 0.045244 
111.080124 0.031888 
115.919472 1.319678 
116.919731 0.087992 
116.927246 0.78189 
118.940826 1.679904 
119.015366 0.027589 
119.048988 0.036175 
119.946274 0.028699 
121.028229 0.846938 
121.914383 0.028095 
123.75 0.027711 
125.095703 0.040257 
128.034073 0.028041 
129.672211 0.029245 
131.03363 0.025562 
132.995316 0.072899 
136.047653 0.025283 
136.951614 0.02873 
139.000137 0.324694 
139.00589 0.028846 
141.081726 0.030159 
149.008514 0.405963 
150.914398 0.253554 
150.988037 0.168682 
151.056091 0.189799 
152.893921 0.238221 
152.916428 0.046236 
152.967102 0.062626 
154.268097 0.028285 
154.946426 0.747908 
157.86171 0.039985 
159.877869 0.069457 
160.841125 0.11696 
160.913712 0.027419 
161.659103 0.028376 
162.837875 0.051558 
162.892456 0.082184 
164.930374 0.081776 
164.967041 2.352489 
166.909576 1.090447 
167.90802 0.438681 
170.003616 0.056557 
175.042206 2.113413 
175.93837 0.072196 
176.928589 0.185511 
181.440506 0.02476 
181.896515 0.183935 
182.977814 0.136768 
183.011246 7.299186 
183.91243 0.10168 
184.001221 0.081521 
184.015106 0.19187 
184.153763 0.027959 
184.875824 0.19559 
184.920166 0.062698 
185.007324 0.026775 
185.892807 0.034231 
191.135132 0.02588 
191.631271 0.024818 
193.904236 0.026023 
197.026947 1.713521 
198.034912 0.091167 
200.346085 0.025399 
200.944855 0.030982 
202.8862 0.059037 
205.159897 0.031803 
205.893265 0.085606 
208.975815 0.807863 
209.027084 2.407813 
210.034302 0.319254 
210.916458 0.034528 
210.954834 0.092758 
211.042908 0.429991 
214.913345 0.121054 
216.009109 0.032886 
218.713226 0.024704 
220.319092 0.120395 
220.329025 0.115794 
220.936447 0.075942 
221.841843 0.031233 
223.028763 0.128065 
223.042847 0.836878 
224.049362 0.045115 
225.00708 0.095589 
225.058609 0.414193 
229.047546 0.027132 
230.02562 0.027291 
232.150574 0.027575 
239.07486 0.171749 
242.024673 0.095087 
243.879684 0.033041 
247.226898 0.026258 
250.948654 0.050467 
251.074768 0.075986 
253.090912 0.064732 
254.90683 0.030404 
255.233154 0.100335 
256.041382 0.032641 
260.872894 0.571953 
261.892273 0.026626 
262.868286 0.040198 
266.9646 0.134723 
267.106018 0.038797 
268.943542 0.694583 
269.375153 0.02746 
269.942993 0.04855 
270.922546 1.132119 
270.937897 0.028326 
271.921783 0.067494 
272.901672 0.227741 
273.222565 0.119354 
274.881104 0.227368 
281.12149 0.050575 
281.73233 0.029807 
282.995544 0.031975 
283.264496 0.114009 
284.973816 0.028258 
287.238831 0.027988 
295.137726 0.040824 
298.918365 0.030022 
301.218506 0.031999 
311.170166 0.034062 
321.206055 0.029933 
323.168488 2.409982 
324.171844 0.328323 
325.184387 1.424847 
326.187836 0.090536 
334.474182 0.024932 
337.184265 7.630984 
338.187622 1.818813 
338.393555 0.02637 
339.178253 0.080953 
351.19986 4.040176 
352.203522 0.928584 
353.197205 0.063354 
365.215912 0.655975 
366.219208 0.079046 
379.233002 0.065714 
390.589478 0.028447 
393.24881 0.06991 
405.049225 0.029463 
411.330933 0.026636 
425.615845 0.031858 
425.768677 0.030015 
435.648499 0.028872 
447.540985 0.029879 
455.721893 0.031317 
465.340179 0.119768 
477.075989 0.02847 
END IONS

