BEGIN IONS
PEPMASS=281.175
CHARGE=1+
COMPOUNDNAME=(1R,2E,7R,10E,12S,13S,15R)-12,15-dihydroxy-7-methyl-8-oxabicyclo[11.3.0]hexadeca-2,10-dien-9-one
LIBRARYQUALITY=3
SMILES=N/A
INCHIKEY=KQNZDYYTLMIZCT-SWGFJCPHSA-N
INCHI=InChI=1S/C16H24O4/c1-11-5-3-2-4-6-12-9-13(17)10-14(12)15(18)7-8-16(19)20-11/h4,6-8,11-15,17-18H,2-3,5,9-10H2,1H3/b6-4+,8-7+/t11-,12+,13-,14+,15+/m1/s1
MSLEVEL=2
SOURCE_INSTRUMENT=N/A-ESI-QFT
FILENAME=library_mgf.mgf
SEQ=*..*
IONMODE=positive
ORGANISM=MONA
NAME=(1R,2E,7R,10E,12S,13S,15R)-12,15-dihydroxy-7-methyl-8-oxabicyclo[11.3.0]hexadeca-2,10-dien-9-one [M+H]+
PI=MoNA
DATACOLLECTOR=MoNA:VF-NPL-QEHF022884
PUBMED=N/A
SUBMITUSER=mwang87
TAGS=
SPECTRUMID=CCMSLIB00004713947
SCANS=22884
50.106617 0.126409 
50.357292 0.141197 
50.997395 0.1333 
51.742092 0.157946 
51.940338 0.60365 
52.013264 0.163329 
52.583176 0.162079 
53.002548 20.429058 
53.038925 11.242037 
53.217796 0.54 
53.307449 0.135675 
54.481857 0.131355 
54.937893 0.126449 
55.018177 19.284464 
55.053127 0.940301 
55.054562 55.315456 
55.635281 0.141797 
55.934723 1.422123 
55.945892 0.096765 
56.049812 2.552371 
56.058002 1.127565 
56.320728 0.163174 
56.525463 0.132158 
56.768822 0.09702 
56.965092 9.610855 
57.033855 7.502795 
57.070198 15.079155 
57.682083 0.152599 
57.935093 2.900553 
58.065445 1.531296 
58.476456 0.505141 
58.786896 0.123388 
59.049423 1.48418 
59.175312 0.079543 
59.93047 1.592101 
59.990528 0.08436 
60.957836 0.401963 
61.010864 32.663448 
61.028629 0.312591 
61.050812 0.07799 
61.928036 1.599531 
62.010319 0.12025 
62.014294 1.0533 
62.018684 4.422594 
62.929291 1.479479 
62.990112 6.740513 
63.006641 4.913562 
63.026485 0.109143 
63.508026 0.140187 
63.699566 0.166457 
63.927601 3.186664 
63.998009 0.324608 
64.272736 0.145137 
64.927437 10.908646 
65.038773 13.871833 
65.256447 0.127929 
65.988785 0.078072 
66.064529 0.173869 
67.054382 94.522316 
67.431587 0.174067 
68.049683 0.297202 
68.057701 5.378913 
69.033607 4.207484 
69.07 23.188696 
69.708755 0.089592 
70.065216 1.990784 
70.864182 0.140503 
70.957947 0.384772 
70.980515 0.363893 
71.012878 3.292906 
71.049263 6.188751 
71.08564 2.046166 
71.577606 0.489382 
71.839439 0.515242 
71.929581 0.089476 
72.080849 0.871611 
72.937202 4.095407 
73.026413 0.54971 
73.028473 16.837336 
73.046852 21.465309 
73.064781 0.386544 
73.792168 0.135302 
74.023697 0.131595 
74.046532 0.104184 
74.06012 0.559978 
74.068924 0.160987 
74.937347 0.083047 
74.961388 0.279247 
75.026169 0.10544 
75.04406 0.105848 
76.190353 0.135593 
77.005554 0.185707 
77.038658 0.248175 
77.07235 0.206328 
77.743431 0.206368 
77.941048 0.137152 
78.013474 17.095442 
78.54528 0.083525 
78.93058 0.250226 
78.967186 0.351549 
79.021248 7.007939 
79.054276 74.36187 
79.938423 0.12601 
80.049522 0.41557 
80.05764 3.117634 
80.596954 0.096456 
80.948952 0.255938 
81.000427 0.111144 
81.017227 0.096109 
81.033569 17.865759 
81.069939 83.471306 
81.434746 0.084508 
81.938087 1.268487 
82.065216 1.098202 
82.073265 4.269586 
83.012817 0.641477 
83.04921 12.452654 
83.060272 0.131325 
83.085541 7.926211 
83.736702 0.251312 
84.044403 0.849053 
84.080841 4.677146 
84.250725 0.090963 
84.42749 0.090236 
84.96032 0.078172 
85.028458 3.911737 
85.064812 0.291325 
85.172615 0.260991 
85.308708 0.246459 
85.945488 0.112198 
86.096413 0.108457 
87.044144 3.265208 
88.000031 0.141446 
88.039421 1.11642 
88.224625 0.140892 
88.680313 0.084597 
89.059776 37.31879 
90.947769 3.109541 
90.968849 0.145416 
91.054321 100.0 
91.057426 50.472164 
91.664024 0.119974 
91.725349 0.145524 
92.057533 9.573667 
92.06057 0.568028 
92.326225 0.488529 
92.889954 0.074238 
92.910248 0.403661 
92.972008 0.504578 
93.033508 5.423714 
93.036774 0.14252 
93.069969 49.930584 
94.065186 0.473453 
94.07312 2.758922 
94.90789 0.733065 
94.943611 0.851067 
95.049187 28.508677 
95.085571 50.328812 
95.951294 0.403424 
96.044487 0.468344 
96.05265 0.278661 
96.080872 0.346655 
96.088974 1.907819 
96.90741 0.086782 
96.9412 0.520178 
97.02832 1.178644 
97.039963 0.091456 
97.064903 1.830423 
97.101486 0.422104 
97.948944 0.45445 
98.975349 1.709137 
99.007751 26.763391 
99.080612 0.824344 
99.948479 2.097717 
99.979698 0.151004 
100.011185 0.092341 
100.364479 0.25046 
100.772751 0.496004 
101.02343 6.710371 
103.054276 8.970947 
103.956123 0.148433 
103.964127 0.099718 
104.062317 0.112327 
104.317383 0.246776 
105.006111 0.101068 
105.033707 0.220239 
105.044922 3.947726 
105.069977 69.29023 
105.474533 0.077523 
105.917091 0.115175 
105.979584 0.092194 
106.065117 0.422662 
106.073395 4.182434 
106.710114 0.076132 
106.943802 0.26617 
107.049164 9.122926 
107.085648 20.791431 
107.950981 0.089733 
108.080704 0.306798 
108.08889 0.379557 
108.704979 0.090368 
108.958595 0.225882 
109.028458 0.669089 
109.06488 5.187776 
109.101242 5.978104 
110.060181 0.437162 
110.096115 0.078809 
110.489876 0.190631 
110.920784 0.940081 
111.044128 3.484909 
111.080734 0.233887 
111.100838 0.100567 
111.884895 0.108253 
112.488785 0.082602 
112.918175 1.95948 
113.059753 1.658109 
115.054359 11.564635 
115.943382 0.074448 
116.000519 0.444857 
116.057907 0.083963 
116.062202 0.610992 
116.570412 0.208313 
116.984612 8.398106 
117.069962 41.106136 
117.079918 0.132073 
117.979668 1.55989 
118.073273 0.831044 
118.077904 0.919173 
118.371292 0.181451 
118.925056 0.126441 
118.943069 0.154629 
119.001717 0.185325 
119.049232 2.702525 
119.08564 23.269609 
119.576675 0.123487 
119.950928 0.102365 
119.969742 0.177384 
119.996231 0.13252 
120.080849 3.231942 
120.088898 0.575684 
120.199715 0.15543 
120.940651 0.292419 
121.028542 3.134308 
121.064896 11.582634 
121.084396 0.178215 
121.10125 7.003135 
121.966988 1.689211 
122.062767 0.513879 
122.067993 0.169102 
122.09623 0.101512 
122.9403 0.338617 
123.080406 0.109576 
123.116638 0.088955 
124.076271 0.099632 
124.230896 0.087579 
126.915215 0.145675 
127.956192 0.31173 
128.05719 0.33617 
128.062027 14.144956 
128.933609 2.63826 
128.963821 0.083906 
129.06987 27.202564 
129.979462 0.119315 
130.064926 0.096671 
130.073242 0.646142 
130.077866 1.112234 
130.286255 0.189445 
130.929123 1.279461 
131.000183 0.469326 
131.049133 0.076416 
131.061203 0.14536 
131.085632 26.204201 
131.754257 0.140627 
131.995422 0.234903 
132.081238 0.104524 
132.088852 0.809176 
132.958298 0.622702 
133.064789 9.060146 
133.101181 6.840312 
134.096619 0.319299 
134.956284 0.634336 
134.974533 0.126956 
134.995041 1.729785 
135.080383 0.873365 
135.117325 0.103216 
136.075806 0.917192 
136.11293 0.097714 
136.935608 0.508139 
136.954041 0.511583 
137.011963 0.347194 
138.054291 0.11708 
138.659058 0.154308 
138.915665 2.104542 
138.951248 0.523255 
139.039001 1.590701 
139.075531 0.341679 
139.923462 0.546823 
140.91304 9.503835 
140.95137 0.123606 
140.984482 0.265221 
141.069962 2.662351 
141.920807 0.607384 
141.958984 0.119716 
142.077774 6.788615 
142.912994 1.054448 
143.049805 0.107919 
143.085571 13.327704 
143.920853 1.282901 
143.939545 0.098991 
144.088593 0.760191 
144.958862 0.618888 
145.064896 2.151691 
145.101318 10.759932 
145.916214 0.343247 
145.928253 4.089727 
145.966599 8.259663 
146.974304 1.855002 
147.08046 2.903026 
147.116592 0.264676 
147.404648 0.246421 
149.011673 0.105988 
149.02359 1.26511 
149.059845 0.226781 
149.997482 0.098946 
150.026733 0.11619 
150.951065 3.13368 
150.969101 1.650105 
152.107254 0.098958 
152.951508 1.425276 
152.967453 0.274659 
153.959274 1.429894 
154.077606 0.186416 
154.946747 0.300847 
154.964569 0.224392 
155.060349 1.027894 
155.08551 2.506004 
155.762177 0.281918 
155.935364 0.086676 
155.954788 0.419409 
156.926453 0.92312 
156.944885 0.101777 
157.064941 1.04782 
157.101288 9.305843 
157.952087 0.646119 
158.265152 0.193506 
158.923508 3.488101 
158.944077 1.673514 
158.953629 7.058006 
158.962036 5.23733 
158.974396 0.11736 
159.080185 0.208782 
159.116638 1.747311 
159.952393 11.56055 
159.964462 0.206846 
160.923416 0.110096 
160.939911 0.637461 
160.951569 39.764 
161.012573 0.088353 
161.059677 0.645384 
161.096085 0.882681 
161.947769 5.784807 
161.954407 0.173678 
162.091583 0.199354 
162.947769 0.716805 
163.027771 0.355885 
163.977097 15.8119 
164.977539 0.195574 
165.06987 0.214369 
168.9617 0.883629 
169.101288 0.598222 
170.108795 0.101352 
170.96225 0.38208 
171.080429 0.141801 
171.116913 0.570648 
173.780518 0.110818 
173.947922 0.116489 
173.985153 0.099097 
174.006454 0.112538 
175.07608 0.10883 
176.954468 0.413194 
178.077957 0.105062 
178.107849 0.19801 
178.950806 0.103775 
178.984985 0.100893 
180.888092 3.580182 
180.980438 0.274291 
181.076355 0.103467 
181.987762 2.275123 
185.132492 1.263999 
186.056229 0.281418 
186.927917 1.63267 
187.944595 0.112439 
188.295135 0.075435 
188.988586 0.161353 
189.941528 0.112218 
191.941681 3.000878 
192.94574 0.082468 
193.937485 0.507536 
195.09137 0.226058 
197.89122 0.214835 
198.188019 0.149449 
203.14328 0.184934 
205.9879 1.426615 
207.559036 0.098352 
207.72319 0.157583 
208.664352 0.172595 
209.084824 0.111476 
210.4534 0.54951 
211.087219 0.124693 
217.900604 0.093968 
218.965317 0.202598 
219.174866 0.163877 
219.54454 1.893428 
222.898819 1.068682 
223.027344 9.930208 
224.027527 0.135984 
224.300049 0.095858 
225.043015 14.685684 
225.092194 0.177465 
226.043411 0.720364 
227.022369 6.486505 
227.039856 0.231955 
228.02211 0.253592 
229.001648 5.517688 
230.001816 0.105618 
234.284515 0.157404 
236.949387 0.094994 
238.969009 0.110534 
240.909546 3.264343 
241.037491 0.13064 
242.909256 0.1255 
243.569473 0.112669 
247.012268 0.45486 
248.991806 0.25428 
250.333771 0.140509 
251.154465 0.13599 
252.983673 0.522246 
253.133728 0.269996 
254.962585 7.13139 
257.826202 0.138388 
263.148926 0.561947 
263.29715 0.137679 
265.019836 0.097398 
266.999054 62.59359 
267.999146 14.111202 
268.157867 0.099379 
268.978485 6.816706 
268.996185 5.567417 
269.013245 0.44615 
270.958801 0.124743 
270.994171 2.416376 
272.97522 0.581964 
282.993744 0.091011 
283.030304 10.62189 
284.030823 1.817598 
285.009918 4.180567 
285.026306 0.16957 
286.010162 0.244436 
289.004547 0.253618 
294.915558 0.573597 
302.73645 0.138466 
END IONS

