BEGIN IONS
PEPMASS=259.06
CHARGE=1+
COMPOUNDNAME=norlichexanthone
LIBRARYQUALITY=3
SMILES=N/A
INCHIKEY=AQZHBCDRWFMXIN-UHFFFAOYSA-N
INCHI=InChI=1S/C14H10O5/c1-6-2-7(15)4-10-12(6)14(18)13-9(17)3-8(16)5-11(13)19-10/h2-5,15-17H,1H3
MSLEVEL=2
SOURCE_INSTRUMENT=N/A-ESI-QFT
FILENAME=library_mgf.mgf
SEQ=*..*
IONMODE=positive
ORGANISM=MONA
NAME=norlichexanthone [M+H]+
PI=MoNA
DATACOLLECTOR=MoNA:VF-NPL-QEHF017945
PUBMED=N/A
SUBMITUSER=mwang87
TAGS=
SPECTRUMID=CCMSLIB00004709008
SCANS=17945
50.344933 0.004427 
50.690182 0.008358 
50.997047 0.028727 
51.35585 0.0038 
51.458076 0.003334 
51.934624 0.013759 
53.0158 0.004202 
53.264362 0.00363 
54.482212 0.004468 
55.054489 0.04978 
55.191654 0.00528 
55.22258 0.015496 
55.640411 0.003054 
55.939434 0.003996 
56.099701 0.02887 
56.965122 0.039579 
57.070168 0.302383 
57.934978 0.003463 
58.065414 2.744039 
59.068722 0.018618 
60.044651 0.005842 
60.363045 0.005937 
61.01088 0.091656 
62.018696 0.020294 
62.060257 0.302546 
63.599747 0.01501 
63.627464 0.014193 
64.420753 0.006374 
65.367439 0.003413 
65.700195 0.006884 
65.902466 0.003835 
66.367889 0.004219 
66.494652 0.014915 
66.556458 0.027042 
66.763672 0.01544 
66.952919 0.003795 
67.054314 0.006304 
67.077469 0.003839 
67.113808 0.003651 
68.997169 0.069623 
69.069939 0.055591 
69.160835 0.004942 
69.734512 0.004292 
70.065201 0.10132 
70.58493 0.004202 
71.085548 0.143635 
72.044373 0.004058 
72.080917 0.017002 
72.71386 0.009772 
73.34465 0.005626 
75.65036 0.004044 
76.122482 0.005938 
77.530853 0.005604 
79.021233 0.312526 
79.054298 0.00545 
79.425217 0.006247 
80.853477 0.027388 
81.069946 0.048426 
82.710068 0.005141 
83.085602 0.042002 
84.044479 0.034991 
84.080788 0.042248 
84.107185 0.003826 
85.101204 0.022943 
86.09642 0.330617 
86.550011 0.009834 
86.613647 0.009208 
87.5037 0.004444 
88.075722 0.087453 
88.942856 0.004618 
89.059181 0.004352 
89.252327 0.025389 
89.982544 0.003887 
90.255356 0.026208 
90.405151 0.003676 
90.811661 0.004592 
90.815521 0.004294 
91.450714 0.005218 
91.625191 0.003811 
91.635468 0.005695 
93.069717 0.005278 
93.896156 0.004224 
94.945 0.008574 
95.034332 0.005834 
95.074814 0.004469 
95.085526 0.0239 
97.101189 0.005368 
97.31826 0.004961 
98.975372 1.827497 
99.331924 0.005273 
99.87001 0.006346 
99.978752 0.255762 
100.971481 0.113951 
100.979591 0.076714 
101.003136 0.096348 
101.949928 4.360782 
101.971512 0.14249 
101.974777 0.007555 
102.968292 3.198754 
102.974106 0.016685 
103.733963 0.004231 
103.80761 0.003334 
103.971687 0.00829 
105.729729 0.033346 
105.991432 0.003966 
106.086494 0.009619 
107.079659 0.005203 
107.085548 0.010264 
107.198639 0.006506 
107.970879 0.006085 
108.164177 0.032677 
109.368729 0.005782 
110.051247 0.005903 
112.801064 0.003691 
113.059769 0.018943 
113.298767 0.005889 
113.605423 0.00611 
114.491684 0.005403 
115.87336 0.004696 
116.070671 0.003961 
116.094185 0.027203 
116.985947 0.803981 
117.989265 0.081668 
118.981949 0.039547 
118.990242 0.006885 
119.001289 0.003475 
119.960518 1.139316 
119.965355 0.007238 
119.981934 0.024294 
120.978798 1.45461 
122.940826 0.011912 
126.382889 0.030159 
127.900703 0.005931 
130.049911 0.061985 
130.085922 0.005382 
130.841248 0.003594 
133.486649 0.005391 
134.996429 0.126517 
137.011642 0.037871 
137.070786 0.00372 
137.954514 0.038613 
137.971085 0.308654 
138.98941 0.278233 
140.010361 0.004357 
141.07869 0.005196 
143.879028 0.005508 
144.822342 0.004924 
146.974319 0.016192 
147.076447 0.030548 
151.039169 0.457609 
151.364517 0.010578 
152.951447 0.431539 
152.965607 0.004619 
153.091919 0.005063 
153.737656 0.004087 
153.959427 0.088031 
154.032959 0.003792 
154.946884 0.08073 
154.967102 0.083226 
155.954834 0.007038 
155.96553 0.006473 
160.083069 0.006393 
161.059509 0.005625 
162.668198 0.00552 
164.940323 0.025864 
165.882706 0.049743 
169.951981 0.016067 
170.962112 0.044061 
172.957794 0.003841 
173.01413 0.009014 
173.835449 0.005288 
176.579865 0.010121 
176.989258 0.025566 
177.991913 0.006708 
178.907822 0.023422 
178.98497 0.064767 
179.909286 0.065807 
179.96373 0.717238 
179.988159 0.007291 
180.90654 0.619129 
180.982147 0.388533 
181.984772 0.004645 
182.90419 0.027938 
182.951385 0.039827 
183.006439 0.02151 
183.893356 0.018839 
184.159042 0.003859 
184.758926 0.005975 
185.059586 0.039545 
185.15329 0.01457 
185.363464 0.004863 
185.402664 0.006278 
185.644196 0.004843 
186.200775 0.004652 
190.062653 0.045696 
191.070206 1.35571 
192.073471 0.059035 
195.000061 0.021764 
196.99585 0.063185 
197.919907 0.026061 
197.974365 1.525576 
198.916855 0.38271 
198.992935 0.422401 
199.169525 0.005961 
199.970047 0.012285 
200.914291 0.005976 
201.017075 0.030739 
209.278503 0.005525 
209.892593 0.006236 
213.054565 0.935974 
214.058182 0.011114 
214.331039 0.005724 
215.985291 0.251031 
215.991989 0.188602 
216.003708 0.230089 
217.049698 0.916619 
218.053619 0.004981 
219.984833 0.03143 
222.898941 0.048755 
231.065277 0.589587 
235.060349 0.420132 
240.268311 0.083975 
240.909225 0.029304 
241.049515 0.531459 
241.971359 0.004705 
242.054214 0.03373 
244.036621 1.882047 
244.620148 0.004666 
244.962601 0.005374 
245.039993 0.166809 
246.015076 0.005837 
251.813995 0.016597 
256.93338 0.015942 
257.019806 0.010635 
257.044556 0.128438 
257.099762 0.302523 
257.136169 0.00995 
257.267181 0.087538 
258.051727 0.082036 
258.076294 0.024352 
258.10257 0.034886 
258.18576 0.006755 
258.22171 0.093139 
258.279663 0.400602 
259.060242 100.0 
259.137512 0.006747 
259.151154 0.418247 
259.282959 0.040101 
260.063507 15.507667 
260.165344 0.035403 
260.201996 0.025918 
260.236969 0.172582 
261.065918 1.12465 
261.10556 0.021183 
261.130951 30.122911 
263.650238 0.016194 
264.266937 0.004643 
266.634796 0.015631 
270.601471 0.028347 
276.181274 0.01632 
278.676147 0.028414 
284.570587 0.004862 
END IONS

