BEGIN IONS
PEPMASS=444.42
CHARGE=1+
COMPOUNDNAME=(1R,3aR,5aR,5bR,9S,11aR)-3a,5a,5b,8,8,11a-hexamethyl-1-prop-1-en-2-yl-1,2,3,4,5,6,7,7a,9,10,11,11b,12,13,13a,13b-hexadecahydrocyclopenta[a]chrysen-9-ol
LIBRARYQUALITY=3
SMILES=N/A
INCHIKEY=MQYXUWHLBZFQQO-KIIHVYTKSA-N
INCHI=InChI=1S/C30H50O/c1-19(2)20-11-14-27(5)17-18-29(7)21(25(20)27)9-10-23-28(6)15-13-24(31)26(3,4)22(28)12-16-30(23,29)8/h20-25,31H,1,9-18H2,2-8H3/t20-,21?,22?,23?,24-,25?,27+,28-,29+,30+/m0/s1
MSLEVEL=2
SOURCE_INSTRUMENT=N/A-ESI-QFT
FILENAME=library_mgf.mgf
SEQ=*..*
IONMODE=positive
ORGANISM=MONA
NAME=(1R,3aR,5aR,5bR,9S,11aR)-3a,5a,5b,8,8,11a-hexamethyl-1-prop-1-en-2-yl-1,2,3,4,5,6,7,7a,9,10,11,11b,12,13,13a,13b-hexadecahydrocyclopenta[a]chrysen-9-ol [M+NH4]+
PI=MoNA
DATACOLLECTOR=MoNA:VF-NPL-QEHF009286
PUBMED=N/A
SUBMITUSER=mwang87
TAGS=
SPECTRUMID=CCMSLIB00004700349
SCANS=9286
50.165646 0.008579 
50.197727 0.012302 
50.285351 0.01137 
50.576763 0.012185 
50.611538 0.010919 
50.751854 0.013515 
50.790676 0.008556 
50.947624 0.013987 
50.969967 0.010002 
51.369015 0.010712 
51.521976 0.009802 
51.745094 0.011504 
51.819633 0.018439 
52.265667 0.008681 
52.495472 0.009252 
52.778938 0.015772 
53.035778 0.014976 
53.458916 0.013414 
53.523617 0.010706 
53.607811 0.013497 
53.667187 0.021457 
54.192287 0.013251 
54.654465 0.008612 
54.905499 0.018862 
54.983147 0.009017 
55.055008 0.610798 
56.17432 0.009367 
56.323006 0.010022 
56.358227 0.016353 
56.603268 0.011291 
56.683407 0.009144 
56.707451 0.015851 
56.817448 0.00957 
56.860985 0.018331 
57.034279 1.171706 
57.035824 0.012808 
57.070705 13.580858 
57.367336 0.008603 
57.67514 0.009139 
57.929657 0.017406 
58.024223 0.030362 
58.065933 0.233332 
58.073963 0.292659 
58.779087 0.009973 
58.967079 0.019174 
59.049961 6.023354 
59.061188 3.465685 
59.141209 0.011178 
59.25507 0.010839 
59.839352 0.013745 
60.034496 0.013742 
60.045158 0.241919 
60.053268 0.169093 
60.056408 0.022551 
60.06419 0.010248 
60.081612 0.03506 
60.172581 0.010374 
60.314423 0.010791 
60.95129 0.01125 
60.974468 0.009583 
61.009796 0.016812 
61.011337 1.965477 
61.02174 0.011427 
61.211384 0.008829 
61.214428 0.009141 
61.410118 0.010361 
62.019241 1.308553 
62.060867 0.029507 
62.071106 0.015512 
62.183922 0.012366 
62.200039 0.018469 
62.972866 0.014979 
62.982494 1.413594 
62.990498 0.356251 
63.051456 0.013907 
63.277275 0.015694 
63.693256 0.01113 
63.725391 0.019189 
64.243439 0.009261 
64.642265 0.01507 
64.804527 0.023785 
65.293411 0.014278 
65.378716 0.013489 
65.452797 0.020294 
65.728401 0.013549 
65.844498 0.011563 
66.108803 0.011033 
66.279037 0.010859 
66.385612 0.010362 
67.054977 0.880797 
67.135719 0.011984 
67.778702 0.013392 
68.072189 0.012302 
68.239136 0.010191 
68.599854 0.009044 
68.825317 0.015491 
69.034233 0.991377 
69.057739 0.020445 
69.070618 1.680137 
69.288017 0.009041 
69.885757 0.012022 
69.905594 0.011172 
69.930664 0.009379 
69.974663 0.009823 
70.002602 0.014826 
70.176231 0.015321 
70.241852 0.009876 
70.691307 0.015648 
70.791946 0.009156 
70.874184 0.009819 
71.04985 0.815968 
71.061249 0.012524 
71.086266 1.237645 
71.856834 0.019171 
71.98275 0.040348 
73.02916 2.386428 
73.047562 40.307865 
73.065529 2.031463 
73.078453 0.009782 
73.206413 0.009296 
73.946793 0.009417 
74.047089 0.988054 
74.050873 0.457023 
74.097122 0.124565 
75.001328 0.010594 
75.02684 1.453958 
75.044861 0.033622 
75.652771 0.017903 
75.733002 0.012608 
75.757065 0.008803 
76.076363 0.138259 
76.215179 0.009313 
77.006088 0.20353 
77.125252 0.010093 
77.660759 0.013119 
77.662621 0.009207 
77.719223 0.016618 
77.942696 0.011104 
78.055229 0.017126 
78.228714 0.010551 
78.246788 0.011793 
78.51812 0.014054 
78.61898 0.018936 
78.95636 0.464179 
78.959366 0.013563 
79.021881 5.846735 
79.054932 0.208712 
79.168282 0.01901 
79.375732 0.016067 
80.242241 0.008962 
80.552406 0.009871 
80.66777 0.01739 
81.0009 0.145661 
81.034096 0.037361 
81.043808 0.017924 
81.070526 2.14728 
81.072868 0.016266 
81.147072 0.010631 
81.666512 0.01495 
81.784218 0.013787 
82.073936 0.010315 
82.196121 0.015914 
83.049812 0.321244 
83.086182 1.482592 
83.950592 0.00911 
84.896492 0.009724 
85.029045 0.790517 
85.065483 1.404248 
85.101799 0.386421 
85.930534 0.010985 
86.060661 0.018932 
86.680374 0.017266 
86.907951 0.011322 
86.941414 0.017185 
87.044724 53.330391 
87.20192 0.014602 
87.281487 0.009358 
87.32103 0.012486 
87.621773 0.009064 
87.667198 0.009521 
88.015106 0.009812 
88.047813 0.016573 
88.076439 0.033818 
88.137917 0.014876 
88.348061 0.008816 
88.740738 0.010744 
89.015976 0.011442 
89.024071 0.064085 
89.060356 51.454151 
89.21254 0.009196 
90.06057 0.015583 
90.063675 1.067961 
90.797523 0.015471 
91.057953 100.0 
91.076057 0.050343 
91.484062 0.01443 
91.748207 0.009628 
91.943474 0.008774 
91.964592 0.016247 
92.05751 3.173336 
92.061272 1.851603 
92.983345 0.057836 
93.037292 2.333779 
93.070496 2.001337 
93.866081 0.011894 
94.730743 0.014401 
94.93013 0.080283 
95.016441 1.044518 
95.04969 0.599023 
95.086075 4.030881 
95.655083 0.015071 
96.081352 0.207958 
96.089394 0.090762 
96.220764 0.018733 
96.641289 0.008728 
96.957733 0.023704 
96.996002 0.011074 
97.028786 0.023507 
97.065369 0.509067 
97.101723 1.035258 
97.368141 0.013345 
97.782829 0.015341 
97.787941 0.01531 
97.889618 0.009985 
98.09697 0.218017 
98.865425 0.010711 
99.044632 1.946791 
99.080956 0.267728 
99.253304 0.009037 
99.443657 0.010844 
100.076469 0.028884 
100.099068 0.009679 
100.112556 0.087804 
100.826698 0.009051 
100.97747 0.013089 
101.003654 9.389427 
101.060226 2.0364 
101.32505 0.010949 
101.96035 0.00983 
102.007202 0.029173 
102.280052 0.011075 
102.999496 0.300926 
103.039459 9.780426 
103.075874 1.668314 
103.126671 0.015942 
103.314667 0.010154 
103.446671 0.010178 
103.470619 0.018519 
103.911011 0.00906 
105.070427 0.44667 
105.073563 4.86181 
105.522255 0.010624 
105.682175 0.009764 
106.999008 0.020677 
107.052727 1.152889 
107.070702 1.144927 
107.085953 2.599941 
108.01487 0.009706 
108.957031 0.01045 
108.978149 0.016116 
108.99102 0.230855 
109.064919 0.039069 
109.068504 0.477293 
109.092712 0.014196 
109.097519 0.026277 
109.101608 4.756023 
109.776138 0.01017 
109.988937 0.068917 
110.105011 0.160275 
110.184914 0.009218 
110.436218 0.019206 
110.668846 0.019752 
110.939316 0.019012 
110.986618 0.031964 
111.044418 0.129979 
111.080803 0.606318 
111.117279 0.188247 
112.499176 0.008851 
113.005753 0.018837 
113.060097 1.946637 
113.096497 0.094299 
113.285889 0.011012 
113.507294 0.014663 
113.777473 0.010774 
113.933746 0.016962 
114.060219 0.2026 
114.073593 0.480854 
114.459099 0.016706 
115.039299 0.034999 
115.05648 1.362411 
115.07579 0.30089 
116.053329 0.269611 
116.071083 0.059972 
116.599876 0.012438 
116.629654 0.01803 
116.977478 0.326878 
117.055107 0.680258 
117.069977 0.020612 
117.091431 0.758315 
117.928467 0.011935 
119.0495 0.197587 
119.070816 0.042356 
119.085884 2.135559 
119.514236 0.019614 
121.065125 14.251575 
121.086334 0.300979 
121.101433 2.715353 
121.739174 0.010148 
121.915512 0.009758 
121.957199 0.440099 
121.970383 0.015004 
122.068451 0.97264 
122.105064 0.060837 
122.955345 0.012216 
123.08078 0.197789 
123.117142 2.046192 
123.952629 0.038351 
124.837013 0.015242 
124.871231 0.016372 
124.964836 0.090018 
125.060196 0.053094 
125.096359 0.542864 
125.936089 0.219598 
126.944107 0.327494 
127.039413 0.048796 
127.07589 0.017682 
127.11203 1.090255 
127.35672 0.014041 
127.687141 0.010757 
129.054962 0.497621 
129.075363 0.02117 
129.446838 0.016865 
130.159225 0.034019 
131.07048 9.878176 
131.085754 0.408414 
132.074387 0.020679 
132.253632 0.010288 
132.686447 0.010994 
133.013916 0.013586 
133.065567 0.265948 
133.086105 24.342758 
133.101303 2.484309 
133.141541 0.009068 
133.580719 0.009768 
134.021912 0.021695 
134.089539 0.456023 
134.104797 0.022936 
134.718521 0.008877 
134.972733 0.077612 
134.988358 0.009952 
135.08075 0.545353 
135.11702 4.272174 
135.450974 0.010334 
135.863312 0.009942 
135.943924 0.011417 
136.075302 0.01553 
136.120468 0.128278 
137.047638 0.013156 
137.060059 0.075643 
137.096222 0.124776 
137.13269 0.734145 
137.14772 0.010334 
138.127563 0.035555 
138.371414 0.023231 
138.983704 0.185498 
139.075531 0.376019 
139.111969 0.182337 
139.9673 0.01408 
139.9814 0.060052 
140.959534 0.248627 
140.979218 0.035075 
141.113098 0.016393 
142.463226 0.022415 
142.918015 0.275959 
142.938751 0.113841 
143.070663 0.046254 
144.065689 0.032544 
144.916367 0.015974 
145.049652 1.428609 
145.068085 1.270989 
145.086288 0.211624 
145.101501 1.046121 
146.860641 0.021321 
146.90419 0.019773 
146.974228 0.013316 
147.047516 0.58945 
147.065643 0.574952 
147.080505 2.732104 
147.102005 0.123207 
147.116928 2.543488 
148.084137 0.092293 
148.120377 0.059546 
148.149292 0.018958 
148.424789 0.017569 
148.925827 1.003733 
149.045013 14.621905 
149.096512 0.661738 
149.13269 2.079932 
149.204285 0.00989 
149.432846 0.016007 
150.044525 0.392081 
150.136002 0.018604 
150.459961 0.010789 
150.565353 0.015557 
150.921829 0.164456 
150.950348 0.157869 
150.980438 0.037831 
151.075882 0.03535 
151.096878 0.57721 
151.112045 0.437043 
151.148376 0.042065 
152.277893 0.022311 
152.703323 0.010997 
152.959702 0.211322 
152.989471 0.016286 
153.091156 0.016647 
153.12764 0.230912 
156.132217 0.016195 
156.138458 1.301231 
156.954346 1.368299 
157.086349 0.33819 
157.101608 0.226571 
157.141953 0.021444 
157.655365 0.010516 
158.891769 0.068482 
158.912842 0.046603 
158.950546 0.158181 
159.082352 0.849968 
159.117126 1.482375 
161.08165 0.015006 
161.096405 0.254108 
161.13269 2.352208 
162.135956 0.055337 
162.951752 0.263743 
163.060669 0.471531 
163.075714 0.130818 
163.097076 0.017956 
163.112198 0.51853 
163.148376 1.671586 
164.151321 0.016773 
164.387924 0.012207 
164.813873 0.013606 
164.900391 0.072842 
164.920654 3.234674 
165.091202 8.917639 
165.127823 0.122116 
165.376328 0.009554 
165.944489 0.010948 
166.09491 0.633435 
166.608307 0.013387 
166.917038 0.015929 
167.055573 47.885063 
167.107056 0.055008 
167.133026 0.010846 
167.4534 0.015075 
168.055298 2.41401 
169.035095 0.016449 
169.98674 0.017741 
170.970566 0.018638 
171.117249 0.238316 
172.930069 0.564624 
173.096527 0.295913 
173.132996 0.942297 
174.141556 0.010081 
174.9272 0.149486 
174.971588 0.299803 
175.016449 0.037389 
175.096664 5.64266 
175.111969 0.42572 
175.148346 1.557624 
175.156143 0.012862 
176.967392 2.607129 
177.091415 0.019959 
177.112274 2.827749 
177.127365 2.127038 
177.164291 0.891445 
178.131042 0.038008 
179.072128 0.019711 
179.143509 0.169725 
179.954422 0.162175 
180.137726 0.012498 
180.594559 0.01473 
180.693848 0.011378 
180.894562 3.767461 
181.071228 1.911994 
181.397491 0.014349 
182.892563 0.249413 
183.117371 0.032358 
185.13298 0.799348 
185.364014 0.008855 
187.048737 0.00884 
187.148392 2.534285 
188.139725 0.009827 
188.15155 0.096462 
188.904587 0.073602 
188.948334 0.052613 
188.96759 0.104349 
189.076385 0.046945 
189.093628 0.262984 
189.127808 0.42135 
189.163879 3.886855 
190.167816 0.25397 
190.353195 0.010291 
190.910828 0.03608 
191.092072 0.134379 
191.107178 0.420221 
191.143387 0.237744 
191.179871 1.176368 
191.961945 0.009953 
192.182175 0.02922 
192.888794 0.01418 
192.945633 0.082879 
192.962326 0.431212 
193.107529 0.017818 
193.159424 0.013878 
193.95285 0.027097 
194.924957 0.102865 
194.978348 0.13653 
195.123367 0.719907 
195.594421 0.016785 
196.868805 0.831346 
197.038208 0.018426 
197.133041 0.076945 
198.866928 0.038391 
199.096329 0.010106 
199.148621 0.781673 
200.514069 0.010993 
201.127975 0.046446 
201.1642 1.614814 
201.635132 0.013521 
201.920883 0.009534 
202.167175 0.017428 
202.942673 0.186701 
203.108719 0.037862 
203.129028 0.01011 
203.14325 4.934023 
203.179642 5.085327 
204.146744 0.436476 
204.183304 0.559889 
204.254318 0.011419 
204.962448 0.587829 
205.159042 1.578142 
205.195938 0.109189 
205.924759 0.01551 
206.876877 0.019812 
206.891083 0.023118 
206.961334 0.015655 
206.977966 3.679374 
207.032425 0.047051 
207.164444 0.021645 
207.174515 4.167847 
207.968124 0.031783 
207.978683 0.139566 
208.178299 0.319919 
208.974899 0.012968 
209.117279 2.093184 
210.121414 0.043778 
210.8992 0.045544 
210.972626 0.013595 
211.148743 0.018112 
212.924881 0.018968 
212.935318 0.014327 
212.970444 0.010266 
213.164398 0.465964 
213.617538 1.072639 
213.622986 1.023356 
213.633713 1.503271 
214.902328 0.009793 
214.920792 0.050131 
215.107422 0.017619 
215.143921 0.104601 
215.180069 0.392048 
215.868225 0.011849 
216.182007 0.009974 
216.958649 0.117117 
216.968506 0.026993 
217.159271 0.757974 
217.195557 0.35646 
217.923599 0.021951 
218.161865 0.021656 
218.91951 0.017046 
218.939957 0.11218 
219.123428 0.663907 
219.175232 0.795099 
219.711166 0.019168 
220.01741 0.014473 
220.887146 0.876079 
220.923401 0.036951 
220.994217 0.024276 
221.084442 0.033264 
221.137985 0.029862 
221.190643 0.345622 
221.224472 0.010226 
222.884491 0.020923 
222.910583 0.021945 
223.063934 2.655439 
224.063995 0.016085 
224.826035 0.018484 
224.917206 0.019201 
225.04303 19.808743 
225.164062 0.0305 
226.043442 1.9229 
226.950623 0.021378 
227.022614 1.484332 
227.128815 0.184053 
227.180115 0.328912 
228.841263 0.010546 
228.889542 0.063601 
229.159302 0.058025 
229.195374 0.254004 
230.967392 0.013788 
231.175125 0.400397 
231.211731 0.019558 
231.558044 0.010033 
232.353226 0.010706 
232.928406 0.101628 
232.946518 0.511507 
233.154388 0.064742 
233.190079 4.708177 
233.511612 0.016007 
233.892197 0.375765 
234.194351 0.571823 
234.901016 0.017978 
236.862045 0.199929 
236.971146 0.04891 
237.33989 0.011748 
238.896713 0.016103 
238.967926 0.425062 
239.095367 0.997955 
239.149979 0.28323 
239.180435 0.116283 
240.891266 0.052453 
240.930161 0.021942 
241.03772 0.017188 
241.195358 0.104255 
242.945374 0.05969 
243.002487 0.011645 
243.175049 0.052676 
243.212219 0.02797 
244.330322 0.014349 
244.884399 0.086035 
245.19136 0.038342 
245.213043 0.012569 
245.952316 0.016681 
248.819687 0.012644 
248.900635 0.010723 
248.93132 0.023527 
250.894241 0.044198 
250.956924 0.170303 
252.890442 0.814389 
253.19574 0.603427 
253.860977 0.01558 
254.198975 0.013792 
254.890533 0.591798 
254.928329 0.169701 
254.945587 0.014779 
255.172928 0.010756 
255.211304 0.725115 
255.888382 0.217158 
255.95578 0.010239 
256.215393 0.018884 
256.908997 0.088976 
256.92572 0.047972 
257.190186 0.171675 
258.900208 0.314861 
258.940765 0.31859 
259.205719 0.046868 
259.497009 0.011861 
259.737885 0.017268 
262.878174 0.100052 
262.894775 0.40277 
263.408081 0.018708 
264.910553 0.024781 
265.939484 0.05828 
267.211609 0.3102 
268.978455 0.011884 
269.89267 0.032542 
270.701294 0.013869 
270.900238 3.172658 
270.940369 0.038587 
271.154846 0.14574 
271.205872 2.265869 
271.900818 0.368819 
272.209808 0.210816 
272.901093 1.300499 
272.926697 0.046276 
273.222168 0.944776 
273.899139 0.688782 
274.225616 0.021308 
274.893768 0.03486 
274.91748 0.214508 
275.903259 0.28171 
275.939728 0.026732 
276.910492 0.235549 
277.216248 3.022452 
277.715057 0.01148 
278.220428 0.345029 
278.916168 0.012697 
280.887665 0.124505 
281.049988 0.026305 
281.22641 0.055665 
282.054047 0.017993 
283.176422 0.120801 
283.244995 0.011606 
283.263092 0.015253 
284.884979 0.688224 
284.915863 1.715548 
284.964935 0.011041 
285.010315 1.776531 
285.222015 0.368784 
285.495758 0.015541 
285.867096 0.143396 
285.916321 0.056913 
286.880829 0.019193 
286.895569 0.048069 
286.916321 0.050239 
288.909698 0.032327 
289.917542 0.016955 
290.925751 0.069065 
291.867828 0.035636 
291.93457 0.074078 
293.421722 0.017794 
293.949768 0.04911 
295.244873 0.019662 
296.270721 0.016806 
297.222321 0.191166 
299.062195 2.135076 
299.237823 0.139909 
300.062408 0.091639 
300.909882 0.014455 
302.876068 0.016393 
302.895386 0.705634 
302.926575 0.496347 
303.320282 0.012732 
303.868744 0.018121 
303.934967 0.083913 
303.9552 0.085629 
304.874664 0.229302 
304.888947 0.105007 
304.90683 0.095538 
304.925903 0.013077 
304.986725 0.010657 
305.888611 0.011659 
305.949371 2.003725 
306.920227 0.667073 
306.950806 0.213819 
307.875275 0.027064 
307.923096 0.114577 
308.93689 0.333632 
309.25946 0.025171 
309.279083 1.720537 
309.945312 0.069847 
309.966583 0.011738 
310.282776 0.236792 
310.311432 0.855646 
310.881683 0.023054 
311.23819 0.195548 
311.294983 1.317084 
311.313965 0.047794 
312.299194 0.159197 
313.601837 0.010682 
315.181213 1.154142 
316.905182 0.088971 
318.921661 0.011238 
321.8591 0.014457 
321.879395 0.312294 
321.965485 0.164507 
322.851471 0.101847 
322.886353 0.233706 
322.953003 0.342185 
323.056366 0.106408 
323.238922 0.038574 
323.321808 0.010548 
323.959442 3.392543 
324.328278 0.076564 
324.886719 0.053257 
324.931641 0.017109 
324.96402 0.447342 
324.986847 6.737727 
325.309235 0.02261 
325.33139 0.015744 
325.847534 0.117967 
325.884125 0.010677 
325.988251 1.308656 
326.914825 0.025659 
336.8396 0.363613 
336.904785 0.013941 
337.071594 0.018534 
337.254486 0.072525 
337.848969 0.014602 
338.976044 0.018924 
339.411377 0.010965 
339.835022 0.019188 
340.321045 0.036682 
340.86203 0.403071 
341.017883 3.552379 
341.506378 0.010163 
342.019318 0.657656 
342.861725 0.474927 
342.997345 16.382467 
343.859772 0.352595 
343.948151 0.021241 
343.997314 3.541507 
344.195282 0.010972 
344.855316 0.016784 
349.168945 0.019866 
351.268921 0.116524 
352.395691 0.093369 
352.892975 0.028301 
355.071228 0.02431 
357.013702 1.355301 
357.048279 0.016672 
358.014893 0.068939 
358.895721 0.012355 
358.991119 0.144179 
359.006073 0.257941 
359.028381 47.053776 
360.028931 10.708215 
360.84317 0.014529 
360.87207 0.095057 
364.873901 0.016848 
365.101837 0.011294 
365.282715 0.014905 
366.290436 0.020695 
367.153259 0.763296 
368.159119 0.025902 
368.940796 0.721974 
369.957672 0.015273 
370.919495 0.011907 
371.163757 0.019573 
371.602203 0.013692 
373.045166 0.039884 
373.521484 0.017682 
378.133148 0.011333 
378.259583 0.015911 
378.702515 0.016009 
379.119232 0.040199 
381.567963 0.010538 
382.955902 0.15969 
383.956604 0.010673 
384.855133 0.011701 
386.916351 0.099664 
389.294098 0.015558 
389.32193 0.762546 
389.808502 0.023649 
393.908478 0.01791 
395.244324 0.014268 
396.796417 0.019301 
398.919464 0.013438 
399.328766 0.050673 
404.851501 0.446871 
406.602722 0.011693 
406.888062 0.018151 
407.331055 4.335541 
408.33548 1.242847 
409.342987 0.01947 
410.883728 0.019724 
412.287445 0.418494 
412.86264 0.05323 
413.309509 0.016002 
419.173706 0.011093 
420.944427 0.010969 
424.167419 0.018515 
425.341675 2.880781 
426.346649 0.873066 
426.454254 0.024473 
426.881409 0.018185 
429.351593 0.019916 
436.233856 0.016507 
442.404816 0.479612 
442.87381 0.17641 
443.236267 0.400035 
443.269226 0.020461 
443.299225 0.228484 
443.35434 17.869122 
443.408508 0.804807 
443.875458 0.016412 
444.309753 0.072992 
444.35733 5.967144 
444.424072 0.056149 
444.459076 0.479456 
445.242828 0.035197 
445.282654 0.144566 
445.315674 0.941998 
445.359192 0.485878 
445.421906 0.037686 
445.462006 0.089272 
446.240601 0.022828 
446.320007 0.036745 
446.369049 0.033303 
446.959198 0.011207 
447.349213 1.195188 
448.352814 0.148605 
452.133514 0.010919 
460.884949 0.045227 
464.742889 0.0127 
END IONS

