BEGIN IONS
PEPMASS=321.133
CHARGE=1+
COMPOUNDNAME=Massbank:BML00255 Mycophenolic acid
LIBRARYQUALITY=3
SMILES=CC1=C(C(=C(C2=C1COC2=O)O)CC=C(C)CCC(=O)O)OC
INCHIKEY=HPNSFSBZBAHARI-UHFFFAOYSA-N
INCHI=1S/C17H20O6/c1-9(5-7-13(18)19)4-6-11-15(20)14-12(8-23-17(14)21)10(2)16(11)22-3/h4,20H,5-8H2,1-3H3,(H,18,19)
MSLEVEL=2
SOURCE_INSTRUMENT=ESI-LC-ESI-QTOF
FILENAME=Massbank_ESI_positive_8_1_2014_peaks.mgf
SEQ=*..*
IONMODE=Positive
ORGANISM=MASSBANK
NAME=Massbank:BML00255 Mycophenolic acid [M+H]+
PI=Putative Massbank Match
DATACOLLECTOR=Massbank
PUBMED=N/A
SUBMITUSER=mwang87
TAGS=
SPECTRUMID=CCMSLIB00000204851
SCANS=111
103.0493 49.0 
103.0544 130.0 
121.0621 20.0 
131.0494 21.0 
159.0432 392.0 
207.0619 41.0 
END IONS

