BEGIN IONS
PEPMASS=723.469
CHARGE=1+
COMPOUNDNAME=MoNA:940687 2-{6-[(2-{5`-[6-hydroxy-6-(hydroxymethyl)-3,5-dimethyltetrahydro-2h-pyran-2-yl]-2,3`-dimethyloctahydro-2,2`-bifuran-5-yl}-9-methoxy-2,4,10-trimethyl-1,6-dioxaspiro[4.5]dec-7-yl)methyl]-3-methyltetrahydro-2h-pyran-2-yl}propanoic acid
LIBRARYQUALITY=3
SMILES=N/A
INCHIKEY=DANUORFCFTYTSZ-UHFFFAOYSA-N
INCHI=InChI=1S/C40H68O11/c1-21-11-12-28(46-33(21)26(6)36(42)43)17-29-18-30(45-10)27(7)40(48-29)25(5)19-38(9,51-40)32-13-14-37(8,49-32)35-23(3)16-31(47-35)34-22(2)15-24(4)39(44,20-41)50-34/h21-35,41,44H,11-20H2,1-10H3,(H,42,43)
MSLEVEL=2
SOURCE_INSTRUMENT=LC-ESI-QFT-LC-ESI-QFT
FILENAME=output_mgf.mgf
SEQ=*..*
IONMODE=
ORGANISM=MONA
NAME=MoNA:940687 2-{6-[(2-{5`-[6-hydroxy-6-(hydroxymethyl)-3,5-dimethyltetrahydro-2h-pyran-2-yl]-2,3`-dimethyloctahydro-2,2`-bifuran-5-yl}-9-methoxy-2,4,10-trimethyl-1,6-dioxaspiro[4.5]dec-7-yl)methyl]-3-methyltetrahydro-2h-pyran-2-yl}propanoic acid [M-H]-
PI=MoNA
DATACOLLECTOR=MoNA
PUBMED=N/A
SUBMITUSER=mwang87
TAGS=
SPECTRUMID=CCMSLIB00000568582
SCANS=5833
57.0345 0.535433 
73.0296 0.449422 
85.0294 0.285879 
87.0451 7.293374 
99.0451 0.883819 
101.0607 6.816527 
111.0814 0.49729 
113.0609 0.553448 
123.0816 0.182014 
125.0971 0.180841 
139.0763 0.339288 
141.0922 0.602447 
151.1129 0.359704 
153.0921 1.591176 
165.0918 0.23 
171.1027 0.283805 
177.1284 0.195925 
189.1648 0.358648 
191.1442 0.376739 
195.1391 0.306692 
197.1547 0.247019 
201.1133 0.432318 
213.1499 0.51507 
279.1964 0.208443 
297.2069 0.24853 
377.2688 0.182882 
439.2702 1.713705 
723.4688 100.0 
END IONS

