BEGIN IONS
PEPMASS=155.029
CHARGE=1+
COMPOUNDNAME=terrein
LIBRARYQUALITY=3
SMILES=N/A
INCHIKEY=MHOOPNKRBMHHEC-HZIBQTDNSA-N
INCHI=InChI=1S/C8H10O3/c1-2-3-5-4-6(9)8(11)7(5)10/h2-4,7-8,10-11H,1H3/b3-2+/t7-,8-/m0/s1
MSLEVEL=2
SOURCE_INSTRUMENT=N/A-Linear Ion Trap
FILENAME=library_mgf.mgf
SEQ=*..*
IONMODE=positive
ORGANISM=MONA
NAME=terrein M+H
PI=MoNA
DATACOLLECTOR=MoNA:VF-NPL-LTQ005251
PUBMED=N/A
SUBMITUSER=mwang87
TAGS=
SPECTRUMID=CCMSLIB00004688881
SCANS=4502
113.82 71.439156 
END IONS

