BEGIN IONS
PEPMASS=414.155
CHARGE=1+
COMPOUNDNAME=Massbank:BML00289 (S,R)-Noscapine
LIBRARYQUALITY=3
SMILES=CN1CCC2=CC3=C(C(=C2[C@@H]1[C@@H]4C5=C(C(=C(C=C5)OC)OC)C(=O)O4)OC)OCO3
INCHIKEY=AKNNEGZIBPJZJG-MSOLQXFVSA-N
INCHI=1S/C22H23NO7/c1-23-8-7-11-9-14-20(29-10-28-14)21(27-4)15(11)17(23)18-12-5-6-13(25-2)19(26-3)16(12)22(24)30-18/h5-6,9,17-18H,7-8,10H2,1-4H3/t17-,18+/m1/s1
MSLEVEL=2
SOURCE_INSTRUMENT=ESI-LC-ESI-QTOF
FILENAME=Massbank_ESI_positive_8_1_2014_peaks.mgf
SEQ=*..*
IONMODE=Positive
ORGANISM=MASSBANK
NAME=Massbank:BML00289 (S,R)-Noscapine [M+H]+
PI=Putative Massbank Match
DATACOLLECTOR=Massbank
PUBMED=N/A
SUBMITUSER=mwang87
TAGS=
SPECTRUMID=CCMSLIB00000204860
SCANS=120
179.0694 107.0 
206.0793 33.0 
219.0879 37.0 
220.0965 1600.0 
220.1377 112.0 
220.1645 32.0 
220.2361 21.0 
248.0834 25.0 
295.091 22.0 
307.0926 22.0 
308.0981 24.0 
320.0698 27.0 
322.0846 23.0 
323.0901 101.0 
334.0741 25.0 
335.0854 25.0 
350.0801 100.0 
352.0908 24.0 
353.1013 399.0 
353.1555 22.0 
365.1007 136.0 
378.122 43.0 
381.114 75.0 
383.1075 23.0 
396.1441 54.0 
414.1529 199.0 
END IONS

