BEGIN IONS
PEPMASS=526.172
CHARGE=1+
COMPOUNDNAME=DAUNORUBICIN
LIBRARYQUALITY=3
SMILES=N/A
INCHIKEY=STQGQHZAVUOBTE-VGBVRHCVSA-N
INCHI=InChI=1S/C27H29NO10/c1-10-22(30)14(28)7-17(37-10)38-16-9-27(35,11(2)29)8-13-19(16)26(34)21-20(24(13)32)23(31)12-5-4-6-15(36-3)18(12)25(21)33/h4-6,10,14,16-17,22,30,32,34-35H,7-9,28H2,1-3H3/t10-,14-,16-,17-,22+,27-/m0/s1
MSLEVEL=2
SOURCE_INSTRUMENT=N/A-ESI-QFT
FILENAME=library_mgf.mgf
SEQ=*..*
IONMODE=negative
ORGANISM=MONA
NAME=DAUNORUBICIN [M-H]-
PI=MoNA
DATACOLLECTOR=MoNA:VF-NPL-QEHF003438
PUBMED=N/A
SUBMITUSER=mwang87
TAGS=
SPECTRUMID=CCMSLIB00004694501
SCANS=3438
50.107986 0.052303 
50.417053 0.049041 
50.524681 0.055134 
50.864849 0.06366 
50.921852 0.059404 
51.018242 0.032682 
51.265457 0.061834 
51.485092 0.031438 
52.04158 0.040305 
52.338245 0.053031 
52.388519 0.03402 
52.391342 0.0328 
52.617832 0.037844 
53.334293 0.032819 
54.035496 0.037006 
54.367981 0.040135 
54.869045 0.054882 
55.009808 0.057624 
55.283165 0.05833 
55.823318 0.032314 
56.27425 0.072772 
56.495716 0.047144 
56.704628 0.058644 
56.824188 0.054144 
56.883339 0.05787 
57.253059 0.047036 
57.277664 0.053706 
57.404949 0.038269 
57.639198 0.036089 
57.7892 0.065527 
57.93615 0.054676 
58.155025 0.033377 
58.263603 0.060385 
58.60265 0.039593 
59.012505 2.734729 
59.76453 0.040937 
59.99374 0.034907 
62.363213 0.039255 
62.600655 0.05414 
63.100475 0.036452 
63.207485 0.085284 
63.471783 0.054824 
63.897385 0.037504 
64.550987 0.032453 
64.582214 0.030182 
64.840683 0.029537 
64.973228 0.044043 
66.733887 0.056624 
67.135422 0.053105 
67.235023 0.035751 
67.578796 0.033011 
68.053223 0.064301 
68.458511 0.030775 
69.155312 0.035235 
69.191544 0.036298 
70.122948 0.060448 
70.98954 0.064815 
71.439919 0.055878 
71.479271 0.058432 
72.557076 0.033406 
73.280876 0.067143 
73.793365 0.048366 
74.312706 0.034344 
74.446335 0.04955 
74.849396 0.035376 
75.053734 0.061362 
75.586205 0.050176 
76.559471 0.035809 
76.577034 0.063558 
76.627563 0.063344 
78.535599 0.057363 
79.385155 0.04665 
79.955406 0.056524 
80.050072 0.06655 
80.147461 0.033081 
80.477463 0.036826 
80.646378 0.041724 
80.690353 0.059675 
81.100449 0.047747 
81.913048 0.052357 
82.551598 0.047489 
82.85112 0.040588 
83.012497 0.118382 
83.383705 0.056277 
83.607979 0.059634 
84.017281 0.033756 
84.795769 0.076071 
84.962997 0.031868 
85.028275 0.19066 
85.88221 0.030579 
85.930046 0.073046 
86.174309 0.055236 
86.261681 0.055284 
86.750198 0.064209 
89.636589 0.056167 
89.746918 0.051189 
91.97261 0.051823 
92.195465 0.031814 
93.033226 0.609725 
95.591118 0.049585 
95.696495 0.032721 
95.94088 0.042917 
96.633957 0.049872 
98.011566 0.051295 
98.561234 0.067292 
99.25 0.042783 
99.690376 0.048314 
99.88485 0.042147 
100.226021 0.032679 
101.447441 0.041485 
101.807747 0.059555 
102.773018 0.029599 
102.872398 0.04003 
102.931503 0.056413 
103.279327 0.048963 
103.982094 0.071575 
103.996964 0.045429 
104.354042 0.038513 
104.650246 0.051551 
104.914749 0.054422 
106.846703 0.03836 
106.855667 0.054186 
107.670219 0.053524 
108.779442 0.060417 
109.055618 0.035463 
110.563461 0.046426 
111.254738 0.049524 
111.5774 0.06575 
113.181496 0.039651 
114.606247 0.066714 
114.963165 0.034379 
115.438736 0.040788 
115.936394 0.065719 
116.913445 0.049276 
117.057503 0.033206 
117.75782 0.036457 
121.781647 0.091412 
124.674065 0.03594 
125.707352 0.033616 
126.223709 0.041756 
128.426437 0.036991 
130.68985 0.041606 
131.7892 0.047241 
136.050171 0.042235 
136.650894 0.036021 
137.207642 0.060558 
138.219849 0.052983 
138.259415 0.057451 
139.847855 0.038772 
140.16449 0.060012 
141.465012 0.036912 
142.304138 0.067887 
143.579102 0.043891 
144.108658 0.037264 
146.090591 0.063013 
146.546448 0.052454 
149.985947 0.080582 
150.811935 0.036929 
150.971222 0.056404 
152.402679 0.057101 
152.643951 0.048762 
155.563858 0.039004 
160.302811 0.069857 
163.039291 0.064999 
164.782745 0.04786 
169.136276 0.033319 
173.023499 1.580222 
176.588608 0.06181 
180.672867 0.035027 
182.166901 0.052409 
188.587585 0.032582 
191.035141 0.076902 
191.166718 0.034198 
192.262619 0.04164 
192.32103 0.050435 
193.086441 0.041029 
197.413116 0.035428 
199.609406 0.077911 
199.929581 0.035045 
200.011505 0.051227 
201.018326 0.195104 
206.890656 0.066449 
210.803772 0.057029 
211.09671 0.049851 
213.273468 0.039072 
217.268387 0.066199 
220.346649 0.890317 
221.060394 1.688934 
221.546799 0.033992 
226.661636 0.08153 
228.75383 0.042352 
229.86882 0.036837 
231.391357 0.032011 
231.404755 0.030738 
233.059708 0.191392 
233.641464 0.039796 
237.05545 2.377847 
241.050827 0.074901 
242.37825 0.0627 
244.228851 0.056408 
245.849365 0.041954 
247.039948 2.240315 
248.047729 6.002956 
248.914169 0.0618 
249.055328 4.394887 
251.0345 0.050822 
251.797318 0.042527 
252.042526 0.042315 
255.453491 0.03339 
256.289917 0.077223 
256.665466 0.065327 
258.934998 0.045357 
261.055267 0.656953 
262.063232 0.43965 
263.034912 0.82475 
263.069946 0.077272 
264.042786 4.608088 
265.050568 15.94452 
266.057129 3.945579 
267.065796 0.343235 
268.037506 0.067036 
269.045685 1.931453 
273.055756 0.233773 
274.063751 0.470692 
275.035065 3.694926 
276.042755 13.765909 
277.05014 7.682851 
278.054565 0.500257 
279.029938 1.31953 
280.035858 0.091876 
289.050751 4.335225 
290.041443 0.04517 
290.058502 7.00671 
291.030029 0.548229 
291.065399 3.329928 
292.018951 0.063701 
292.03775 25.656998 
292.067291 0.060403 
292.197662 0.06332 
293.045502 79.288063 
294.051117 20.148348 
295.058289 1.530692 
300.043121 0.047207 
301.050385 0.630602 
302.057281 0.055921 
303.030212 1.120253 
303.067963 0.041061 
304.037689 8.668376 
305.044983 5.659301 
306.05246 1.174372 
306.219452 0.059904 
307.025177 0.861125 
307.061157 1.040666 
308.032288 2.083059 
309.037994 0.039238 
309.081726 0.037353 
315.066193 0.039745 
317.045502 6.027434 
318.053253 12.985047 
318.221497 0.039051 
319.025757 0.049485 
319.059906 6.266875 
320.032684 43.258503 
320.065277 0.405594 
321.040344 100.0 
321.144775 0.042974 
322.044342 19.219706 
322.446075 0.063497 
323.048706 0.662649 
327.216522 0.0558 
327.49173 0.071406 
328.037689 0.252799 
329.045502 0.541809 
331.063263 0.045681 
335.056244 16.627539 
336.060028 2.962668 
341.902954 0.049404 
343.059814 0.045439 
345.040527 3.398165 
346.047363 3.345531 
347.055634 2.650025 
347.085602 0.043278 
349.035461 3.293897 
350.041046 0.121203 
350.242706 0.041753 
351.524078 0.037812 
361.260803 0.043425 
363.051147 2.794374 
364.054901 0.103538 
364.529633 0.055782 
366.7565 0.072313 
377.523102 0.047191 
391.701111 0.066387 
401.409882 0.076337 
407.805969 0.047995 
418.991699 0.056396 
438.805084 0.060319 
444.927216 0.059025 
448.904724 0.045734 
456.176544 0.065172 
467.60199 0.070181 
469.38266 0.054408 
481.934784 0.052324 
484.454956 0.05658 
488.756195 0.077283 
491.292358 0.039737 
494.199493 0.051145 
504.163605 0.054598 
508.554504 0.042382 
526.859619 0.043792 
END IONS

