BEGIN IONS
PEPMASS=427.393
CHARGE=1+
COMPOUNDNAME=(1R,3aR,5aR,5bR,9S,11aR)-3a,5a,5b,8,8,11a-hexamethyl-1-prop-1-en-2-yl-1,2,3,4,5,6,7,7a,9,10,11,11b,12,13,13a,13b-hexadecahydrocyclopenta[a]chrysen-9-ol
LIBRARYQUALITY=3
SMILES=N/A
INCHIKEY=MQYXUWHLBZFQQO-KIIHVYTKSA-N
INCHI=InChI=1S/C30H50O/c1-19(2)20-11-14-27(5)17-18-29(7)21(25(20)27)9-10-23-28(6)15-13-24(31)26(3,4)22(28)12-16-30(23,29)8/h20-25,31H,1,9-18H2,2-8H3/t20-,21?,22?,23?,24-,25?,27+,28-,29+,30+/m0/s1
MSLEVEL=2
SOURCE_INSTRUMENT=N/A-ESI-QFT
FILENAME=library_mgf.mgf
SEQ=*..*
IONMODE=positive
ORGANISM=MONA
NAME=(1R,3aR,5aR,5bR,9S,11aR)-3a,5a,5b,8,8,11a-hexamethyl-1-prop-1-en-2-yl-1,2,3,4,5,6,7,7a,9,10,11,11b,12,13,13a,13b-hexadecahydrocyclopenta[a]chrysen-9-ol [M+H]+
PI=MoNA
DATACOLLECTOR=MoNA:VF-NPL-QEHF009289
PUBMED=N/A
SUBMITUSER=mwang87
TAGS=
SPECTRUMID=CCMSLIB00004700352
SCANS=9289
50.014587 0.034281 
50.030411 0.036658 
50.326195 0.041586 
50.458485 0.033294 
51.735947 0.029635 
51.739994 0.033186 
51.814182 0.031394 
51.818352 0.031439 
52.138714 0.038012 
53.99123 0.037966 
54.845882 0.031695 
55.018627 0.034416 
55.055065 2.451143 
55.121677 0.036076 
55.716949 0.039826 
55.762867 0.034317 
55.975876 0.036978 
56.05022 0.047885 
56.068161 0.032203 
56.247421 0.028433 
56.743465 0.036904 
57.034332 2.022089 
57.070702 9.50144 
57.200951 0.036272 
57.428295 0.033478 
58.028748 0.034954 
58.065945 0.462303 
58.256344 0.035816 
58.756302 0.033491 
59.049957 25.980986 
59.051586 0.189619 
59.061195 1.004633 
59.830017 0.032326 
60.045181 1.063921 
60.053257 0.402078 
60.191208 0.032554 
60.376953 0.036059 
60.893761 0.029633 
61.011421 2.774842 
61.697113 0.030223 
61.774456 0.040783 
62.019276 5.138888 
62.033382 0.031904 
62.05772 0.032862 
62.756096 0.037296 
62.982513 5.322742 
63.027042 0.165892 
63.998535 0.066918 
64.605721 0.034045 
65.444824 0.03581 
65.587486 0.038264 
66.770569 0.037083 
67.054977 3.752919 
67.758102 0.035921 
68.058159 0.038433 
68.610191 0.035554 
69.034134 0.085522 
69.070633 7.322463 
69.585213 0.039188 
70.065819 0.430295 
70.354858 0.037637 
70.559776 0.035254 
70.784386 0.040297 
71.049889 16.622885 
71.086281 5.270982 
71.871262 0.034873 
72.045067 0.121972 
72.081528 0.311643 
72.094902 0.033783 
72.16851 0.042811 
73.029083 0.932649 
73.047531 10.118386 
73.065521 2.244761 
73.266167 0.041409 
73.644173 0.030043 
73.826668 0.032586 
74.097176 0.403338 
74.562111 0.038489 
75.026932 0.130993 
75.044746 0.131132 
75.334023 0.032036 
75.542664 0.036735 
76.076416 0.161553 
76.44854 0.035101 
76.914726 0.039033 
76.92379 0.036277 
77.269051 0.03631 
78.417313 0.031416 
78.572708 0.03578 
78.677773 0.035616 
78.762917 0.03428 
78.956375 1.582894 
78.958824 0.072191 
79.021904 13.374603 
79.024422 0.068657 
79.054909 0.856342 
79.127136 0.035256 
79.724197 0.040945 
80.954353 0.053134 
81.017723 1.292919 
81.070564 8.764408 
82.001579 0.04189 
82.073936 0.048946 
82.307907 0.038148 
83.049812 0.699589 
83.061066 2.363139 
83.071693 0.037535 
83.086205 6.178595 
84.045013 0.507721 
84.081284 0.044481 
84.648712 0.03311 
85.029015 0.811147 
85.065445 2.470471 
85.10183 3.08888 
86.060516 0.094461 
86.096939 0.045075 
86.842361 0.04117 
87.044685 6.067831 
87.081047 0.137682 
88.308762 0.036381 
88.707138 0.034179 
89.060356 16.301748 
89.212471 0.040699 
89.335899 0.032135 
89.507584 0.040091 
89.881821 0.036362 
89.939606 0.033703 
89.964211 0.142529 
90.055923 0.043379 
90.063644 0.436927 
90.105629 0.035181 
90.30014 0.036857 
90.980621 0.323945 
91.057991 31.995682 
91.061226 0.212533 
91.964714 0.602088 
92.807663 0.035754 
92.975639 0.082082 
92.983292 0.600573 
93.037407 1.637375 
93.070473 3.586068 
93.073181 0.035459 
93.960098 0.09152 
94.930199 0.156831 
95.049698 0.429411 
95.086105 12.169691 
95.908524 0.033618 
96.089424 0.49398 
97.065292 1.946322 
97.10173 4.994348 
97.288284 0.038616 
97.564552 0.040991 
98.096924 0.915342 
98.105034 0.092151 
98.912605 0.041075 
98.97625 0.030719 
99.044617 0.74935 
99.080956 1.073442 
100.076218 0.536724 
100.112595 0.044855 
100.729652 0.034882 
100.976952 0.036994 
101.003723 36.919724 
101.060257 11.661122 
101.096657 0.054415 
101.892563 0.039078 
102.007019 0.247498 
102.055443 0.499874 
102.063629 0.185605 
102.999413 1.109198 
103.039482 2.166294 
103.075867 5.07404 
103.121101 0.037161 
105.070251 1.672025 
105.073669 1.104758 
106.870399 0.034974 
106.913834 0.033786 
106.990715 0.047867 
106.998657 0.035315 
107.070732 0.077034 
107.086014 5.482611 
107.578491 0.037463 
107.670937 0.032551 
108.089363 0.045295 
108.977776 0.036364 
108.991043 2.654816 
109.065071 0.56027 
109.098007 0.194462 
109.101608 9.171492 
109.135048 0.031537 
109.988907 0.762651 
110.097 0.079102 
110.104919 0.569461 
110.986374 0.263036 
111.044464 1.13687 
111.080826 1.595403 
111.117188 1.515647 
111.866882 0.040551 
112.07621 0.166088 
113.060059 0.371639 
113.096359 0.038202 
114.054855 0.039275 
114.072838 0.036191 
114.091782 0.311778 
115.056473 0.603088 
115.075783 2.647084 
116.070946 1.203124 
116.107025 0.07817 
116.687927 0.036968 
116.977478 1.289046 
116.986214 0.095985 
117.055031 2.558289 
117.069939 0.042629 
117.091354 2.806657 
117.982384 0.038509 
118.022331 0.040138 
118.150421 0.036727 
118.22718 0.044309 
119.085884 4.124539 
119.322998 0.033086 
121.028519 0.040393 
121.065109 4.339908 
121.101517 7.211798 
121.129791 0.038503 
121.831528 0.034513 
121.9571 0.946078 
122.104843 0.445221 
122.955139 0.080412 
123.080742 0.870484 
123.117119 4.807812 
123.952301 0.06132 
124.120277 0.142631 
124.964584 0.573188 
125.096352 1.571912 
125.132515 0.169999 
125.408798 0.034893 
125.522766 0.037076 
125.936104 0.94231 
126.741356 0.038054 
126.943878 1.921481 
127.075638 0.107678 
127.111923 0.083973 
128.070724 0.037538 
128.939835 0.039058 
129.054886 0.793921 
129.091141 0.05074 
129.279755 0.038663 
129.300461 0.040346 
130.010651 0.035002 
130.050049 0.926794 
130.159195 0.938439 
130.979568 0.039147 
131.070435 1.885555 
131.085724 0.714124 
131.878159 0.040243 
133.065826 0.189095 
133.08609 4.536234 
133.101379 4.437484 
133.381012 0.03253 
133.872086 0.034461 
133.981689 0.041515 
134.089783 0.080341 
134.104416 0.09374 
134.646332 0.03503 
134.972412 6.235133 
134.978592 0.131422 
135.080536 0.711128 
135.116959 7.447995 
135.122437 0.044797 
136.120331 0.514939 
136.968353 0.077721 
137.01207 0.045188 
137.05983 0.040289 
137.096298 1.610614 
137.132614 2.054112 
137.500992 0.035972 
137.983795 0.040657 
138.127594 0.172327 
138.970428 0.041687 
138.98349 0.435698 
139.075562 0.041545 
139.111847 0.610365 
139.981232 0.219338 
140.048035 0.033977 
140.107422 0.039626 
140.959244 1.407554 
141.113464 0.05025 
141.809708 0.038024 
142.917725 1.084109 
142.938568 0.76246 
142.955338 0.081141 
143.070557 0.040309 
144.065521 0.39538 
145.049118 0.047627 
145.101379 2.088696 
145.806519 0.030775 
146.104584 0.033459 
146.168411 0.03747 
146.974426 0.50705 
146.98851 0.034623 
147.080551 0.722487 
147.116974 4.365204 
147.974533 0.168392 
148.120224 0.172995 
148.925735 2.469087 
149.044968 4.187392 
149.059891 0.035552 
149.071014 0.306708 
149.096268 0.36756 
149.132675 3.763201 
150.135788 0.179487 
150.921509 0.351833 
150.949799 2.585794 
150.979889 0.064638 
151.111816 0.548519 
151.1483 0.170364 
151.998917 1.201241 
152.959442 0.461241 
152.983276 0.04366 
152.989502 0.208751 
153.127213 0.142236 
154.05014 0.046539 
154.122864 0.098725 
154.308533 0.04186 
154.968918 0.041591 
155.05127 0.036555 
155.101242 0.035055 
155.151398 0.038566 
155.452072 0.036398 
156.138458 3.660109 
156.936798 0.794396 
156.954391 6.112442 
157.101089 0.278763 
158.891708 0.104826 
158.90416 0.374632 
158.912994 0.043265 
158.95018 0.716396 
158.958038 0.059136 
158.993835 1.478429 
159.08197 0.243655 
159.116974 2.723224 
159.99469 0.419145 
160.077576 0.085019 
160.112518 0.03422 
160.99057 1.92923 
161.096512 0.379501 
161.116837 0.034614 
161.132645 3.871832 
161.943542 0.036666 
161.99025 0.4289 
162.076157 1.134719 
162.093399 0.855016 
162.136002 0.057977 
162.951721 0.092264 
163.039078 0.038018 
163.111893 0.469454 
163.148209 3.003795 
164.152039 0.077308 
164.899567 0.587907 
164.920715 29.485695 
165.054749 0.599342 
165.091232 1.468998 
165.100845 0.032602 
165.127609 0.274218 
165.16394 0.07487 
166.916428 0.807939 
166.923996 0.07436 
167.055634 16.984829 
167.106705 0.039312 
168.139801 0.034652 
169.085709 0.050018 
170.952377 0.312569 
170.969742 0.047634 
171.116974 0.228309 
171.13829 0.052009 
172.910706 0.035812 
172.928879 1.932547 
172.990143 0.098048 
173.022095 0.034717 
173.096298 0.042101 
173.124786 0.042403 
173.132645 2.807393 
174.148926 0.093487 
174.466736 0.033839 
174.926544 0.174646 
174.935135 0.224392 
175.075195 0.074535 
175.112 0.858515 
175.132828 0.042123 
175.148392 2.743431 
176.151901 0.087685 
176.894562 0.080633 
176.914413 1.073725 
176.967331 0.077829 
177.112305 0.102236 
177.127579 1.078669 
177.163971 1.568118 
178.753586 0.033396 
178.99321 1.044576 
179.14325 0.510146 
179.981613 0.038966 
180.894455 12.510823 
180.952087 0.689166 
181.071381 0.088845 
181.73735 0.03901 
182.892105 0.659773 
182.921524 0.356948 
182.947906 0.052465 
184.073761 0.193167 
184.678955 0.03541 
184.931 0.040929 
184.967575 0.042793 
185.132568 0.554475 
185.952225 0.144932 
185.961502 0.146079 
186.947205 0.255036 
186.968414 1.004577 
187.148407 3.264599 
187.952438 0.704292 
187.966034 0.107357 
188.10907 0.559301 
188.152161 0.05416 
188.918152 1.340886 
188.949982 0.883097 
188.966599 0.044038 
189.127762 0.91059 
189.163986 7.004922 
189.947906 0.125722 
190.124435 0.056272 
190.167343 0.592905 
190.91423 0.196657 
190.943024 0.044492 
191.000687 0.917002 
191.106232 0.155371 
191.143143 0.766785 
191.179626 2.961044 
192.001266 0.567532 
192.076569 0.037969 
192.182938 0.054824 
192.945496 1.330917 
192.961899 0.437477 
194.398239 0.036426 
194.924988 4.443133 
195.174606 0.037184 
196.775391 0.040883 
196.868668 1.777325 
198.865875 0.041203 
199.148438 0.521315 
201.127884 0.044509 
201.164062 2.209973 
201.952286 0.042658 
201.984177 0.038828 
202.167236 0.210172 
202.941895 0.365531 
202.964417 0.143262 
203.107361 0.044137 
203.127701 0.071933 
203.143402 2.048291 
203.179718 2.523208 
203.947433 0.732883 
204.146667 0.495734 
204.183167 0.065352 
204.902847 0.08001 
204.9133 7.132379 
204.96228 2.950365 
204.983643 0.043589 
204.998566 0.039349 
205.12236 0.059085 
205.159027 6.758007 
205.195312 0.126602 
205.944351 0.047478 
205.962738 0.837162 
205.987885 0.106299 
206.162415 0.305806 
206.9086 0.175865 
206.959961 0.259683 
206.977982 4.930871 
207.137772 0.038814 
207.174576 5.534688 
207.978348 0.058832 
208.178055 0.360705 
209.893005 0.042957 
210.185318 0.315952 
210.399353 0.043267 
210.972931 0.100539 
212.165115 0.06129 
212.92424 0.156589 
212.935333 2.038754 
213.127686 0.036862 
213.164215 0.392807 
213.773849 2.17696 
213.782318 1.917903 
213.969727 0.093827 
215.128082 1.318442 
215.143158 0.040572 
215.179626 1.504013 
216.957886 0.209997 
217.159073 0.498203 
217.195175 0.456618 
217.223618 0.039073 
217.924362 0.0458 
218.19928 0.042826 
218.940262 0.15334 
219.174484 3.520907 
220.17807 0.278135 
220.887085 8.019509 
220.993149 0.064653 
221.067505 0.040982 
221.154297 0.179126 
221.546387 0.034688 
221.958038 0.227162 
222.069962 0.037216 
222.884262 0.481015 
222.89975 0.044905 
225.043198 3.167495 
225.828613 0.039524 
226.179993 0.413449 
226.216171 0.051698 
227.179749 0.094366 
228.810898 0.036303 
228.900604 0.118591 
228.930313 0.044149 
229.159622 0.123216 
229.195206 1.111678 
230.966476 0.229065 
231.174957 0.111886 
231.963867 0.087461 
232.946503 0.209262 
233.090652 0.036698 
233.153793 0.660786 
233.190262 0.823526 
233.891235 0.099552 
234.979279 0.047845 
236.861511 0.213571 
236.917557 2.632626 
238.934677 0.043608 
238.951385 0.057017 
238.968033 0.528462 
239.178696 0.049267 
239.882156 1.252374 
240.911896 0.283849 
240.939224 0.689105 
240.95047 0.222027 
241.158569 0.037803 
241.834442 0.044361 
242.892288 0.043694 
243.174438 0.246105 
243.211594 0.079212 
245.190216 0.050276 
245.227173 0.04179 
246.911072 0.294967 
246.938934 0.039183 
247.498093 0.041832 
248.92131 0.03997 
250.894653 0.551838 
250.956329 0.051464 
251.882172 0.070851 
251.893784 0.043342 
252.890472 0.563235 
252.948883 0.086995 
252.982422 0.047392 
253.195114 0.050944 
254.875473 0.039483 
254.928116 16.429768 
255.211121 0.224583 
255.927979 0.221073 
256.923401 1.395109 
256.961975 0.045956 
257.190125 0.042866 
257.893311 0.045163 
258.949677 0.342975 
260.903381 0.047565 
262.877686 0.057122 
267.897461 0.326658 
268.907013 0.935936 
268.943268 0.683861 
269.226501 0.044666 
269.89267 9.889115 
270.868011 0.041246 
270.899963 2.842524 
270.923462 0.047621 
270.943298 0.036117 
271.899933 0.112938 
272.90155 0.243775 
272.938293 3.615149 
273.166901 0.039286 
273.906525 0.216545 
273.926544 0.044479 
274.894379 3.828742 
274.912476 0.132865 
274.934143 0.038058 
275.894867 3.742897 
276.892273 0.122636 
276.907166 0.082265 
277.21579 0.039156 
277.625671 0.037254 
279.063538 0.038775 
280.923065 0.04136 
281.041809 0.040451 
281.911591 0.033542 
282.089539 0.039196 
282.920105 0.04873 
283.90863 0.587957 
285.901825 0.072588 
285.956299 0.082566 
286.897339 0.583907 
286.918121 1.186952 
286.954132 0.04467 
287.867157 0.035465 
287.89566 1.070317 
287.924164 0.30017 
288.896149 0.42103 
288.9104 0.093756 
288.953369 0.295966 
289.918365 0.0396 
289.950958 0.403484 
290.925293 0.985247 
290.947937 2.046262 
290.966461 0.035093 
291.926178 1.803107 
292.905945 0.047365 
292.924377 0.103189 
295.262848 0.037524 
297.03949 1.149696 
297.184265 0.035655 
300.167633 0.284876 
303.928925 0.045809 
303.966248 0.13465 
304.888489 0.255161 
304.912354 0.060958 
305.912109 0.271993 
305.935486 0.03614 
306.857391 0.082873 
306.878021 0.360825 
306.910309 0.70864 
307.060394 1.6873 
307.960938 0.048424 
308.062836 0.088363 
308.855011 0.037776 
308.920868 0.312451 
308.937592 0.047112 
308.958679 0.233708 
309.03952 16.395321 
309.278992 8.936443 
309.918579 0.219002 
310.282104 0.979224 
310.31073 0.533486 
311.294373 2.160276 
312.87442 0.04677 
313.253387 0.049023 
314.862152 0.051697 
316.905121 3.511988 
317.906006 5.495717 
318.904358 0.595625 
319.19101 0.036461 
319.298553 0.04516 
319.836609 2.163165 
320.937042 0.052689 
322.883545 0.045719 
323.054138 0.042088 
324.326202 100.0 
324.867188 0.202328 
324.888214 1.755519 
324.986877 2.071009 
325.034515 0.834895 
325.32959 21.837446 
326.332825 0.927744 
326.866882 0.425411 
326.887848 0.041717 
326.930695 0.04357 
327.050079 0.614623 
328.835205 0.077227 
329.905334 0.051706 
330.9245 0.042401 
331.300812 0.036689 
331.921692 0.739945 
332.92215 0.097865 
333.940094 0.071603 
334.843567 0.111027 
334.915649 0.162687 
335.831512 0.670804 
335.916565 0.234339 
336.839539 1.367682 
337.014923 0.044544 
337.03421 4.058487 
337.068909 0.046256 
337.846802 1.122656 
339.325531 0.259088 
339.485474 0.038482 
341.017883 1.141726 
341.066071 0.225731 
342.899353 0.358873 
342.996979 5.42757 
344.876678 0.083613 
345.549316 0.03721 
347.869812 0.226311 
348.811554 0.035151 
348.954285 0.04558 
349.245758 0.034741 
350.947632 0.336171 
351.947174 1.910098 
352.091461 0.03809 
352.95047 0.232302 
353.028961 0.042305 
353.103973 0.081764 
353.841858 3.151502 
353.924469 0.091729 
354.887238 0.116998 
355.0448 9.311377 
355.936127 0.053571 
356.817047 0.032476 
359.028564 20.856592 
360.836823 0.054573 
363.085999 0.079933 
363.123108 0.037383 
364.962524 0.195068 
365.10202 1.729438 
365.963776 1.468391 
366.139496 0.384772 
366.964386 0.094024 
367.117737 0.257177 
367.554016 0.047927 
368.077301 0.040751 
368.815063 0.037876 
368.939575 0.701764 
369.061096 0.044187 
369.237396 0.042246 
369.837067 2.18892 
369.951324 0.834269 
370.237762 0.042454 
370.839264 0.044019 
371.853027 0.04347 
372.808777 0.047414 
372.88739 0.041999 
377.06604 0.039459 
377.32132 0.034357 
379.299255 0.53535 
380.425903 0.107919 
381.095917 0.047123 
381.133392 0.805244 
382.13562 0.039377 
382.903534 0.043325 
383.112427 50.714176 
384.886719 0.095478 
386.913086 0.173587 
387.847198 0.631139 
394.845551 0.041396 
395.112854 0.041742 
395.328278 0.047144 
396.806732 0.409614 
396.920471 0.159156 
397.310547 0.376353 
401.123169 0.864803 
408.334686 0.046019 
409.127747 0.123636 
409.348358 0.097689 
410.435577 0.485886 
411.107117 14.148568 
412.822815 0.152704 
414.816254 1.319059 
414.931274 0.14573 
415.138885 0.281342 
424.541199 0.040268 
425.339417 0.280287 
425.491852 0.096583 
426.182861 0.103395 
426.298615 0.362078 
426.342896 2.6658 
426.374695 0.132008 
426.406006 0.122265 
426.875488 0.065142 
427.304565 0.156702 
427.338898 2.976337 
428.281677 0.053759 
428.31546 0.451393 
428.348785 0.494902 
428.389771 0.24855 
428.424988 0.354504 
428.855316 1.274162 
429.117889 5.514778 
429.216736 0.308598 
429.247101 0.042833 
429.284821 0.206023 
429.3172 6.01623 
440.985962 0.040492 
446.755981 0.035069 
446.865234 0.681673 
447.346954 0.907046 
452.530365 0.036121 
END IONS

