BEGIN IONS
PEPMASS=219.0
CHARGE=1+
COMPOUNDNAME=MoNA:2510184 Ezerin
LIBRARYQUALITY=3
SMILES=N/A
INCHIKEY=PIJVFDBKTWXHHD-HIFRSBDPSA-N
INCHI=InChI=1S/C15H21N3O2/c1-15-7-8-17(3)13(15)18(4)12-6-5-10(9-11(12)15)20-14(19)16-2/h5-6,9,13H,7-8H2,1-4H3,(H,16,19)/t13-,15+/m1/s1
MSLEVEL=2
SOURCE_INSTRUMENT=LC-ESI-IT-LC-ESI-IT
FILENAME=output_mgf.mgf
SEQ=*..*
IONMODE=
ORGANISM=MONA
NAME=MoNA:2510184 Ezerin [M+H]+
PI=MoNA
DATACOLLECTOR=MoNA
PUBMED=N/A
SUBMITUSER=mwang87
TAGS=
SPECTRUMID=CCMSLIB00000574475
SCANS=11726
103.0 0.008763 
105.0 0.026786 
121.0 0.026278 
131.1 0.007871 
134.1 0.18189 
144.0 0.038158 
146.0 0.005763 
147.0 0.514189 
160.0 0.023885 
161.2 0.025123 
162.1 100.0 
163.0 0.142832 
164.0 0.008306 
164.9 0.019892 
167.1 0.054726 
168.1 0.039279 
172.1 0.025329 
187.1 0.007962 
219.1 0.873921 
220.0 0.011695 
264.1 0.00732 
306.1 0.019374 
END IONS

