BEGIN IONS
PEPMASS=536.44
CHARGE=1+
COMPOUNDNAME=Massbank:CA000023 beta-Carotene
LIBRARYQUALITY=3
SMILES=C(=CC(=C(C)2)C(C)(C)CCC2)C(C)=CC=CC(=CC=CC=C(C)C=CC=C(C=CC(=C(C)1)C(C)(C)CCC1)C)C
INCHIKEY=OENHQHLEOONYIE-UHFFFAOYSA-N
INCHI=1S/C40H56/c1-31(19-13-21-33(3)25-27-37-35(5)23-15-29-39(37,7)8)17-11-12-18-32(2)20-14-22-34(4)26-28-38-36(6)24-16-30-40(38,9)10/h11-14,17-22,25-28H,15-16,23-24,29-30H2,1-10H3/b12-11+,19-13+,20-14+,27-25+,28-26+,31-17+,32-18+,33-21+,34-22+
MSLEVEL=2
SOURCE_INSTRUMENT=ESI-FAB-EBEB
FILENAME=Massbank_ESI_positive_8_1_2014_peaks.mgf
SEQ=*..*
IONMODE=Positive
ORGANISM=MASSBANK
NAME=Massbank:CA000023 beta-Carotene [M]+*
PI=Putative Massbank Match
DATACOLLECTOR=Massbank
PUBMED=N/A
SUBMITUSER=mwang87
TAGS=
SPECTRUMID=CCMSLIB00000205470
SCANS=730
0.0114 0.02 
0.1145 0.04 
3.6652 0.01 
4.0879 0.01 
6.2086 0.01 
14.631 0.01 
15.0247 0.02 
15.7278 0.01 
24.9815 0.01 
25.9949 0.03 
27.0148 0.27 
28.0226 0.04 
29.0326 0.3 
29.5899 0.03 
35.8046 0.01 
36.9737 0.03 
38.0151 0.1 
39.0161 0.88 
40.0324 0.09 
40.4716 0.01 
41.0337 1.94 
42.0313 0.03 
43.0477 0.86 
43.9968 0.01 
44.5197 0.02 
45.8136 0.01 
47.8138 0.01 
48.088 0.01 
48.9763 0.03 
50.0135 0.23 
51.0262 0.45 
51.4333 0.01 
52.0423 0.2 
53.0374 1.04 
54.0399 0.04 
55.052 3.03 
56.0592 0.07 
57.0734 0.34 
57.7103 0.01 
58.0288 0.01 
60.9932 0.03 
61.436 0.01 
62.0196 0.09 
63.0225 0.39 
63.2864 0.02 
63.7194 0.01 
64.0773 0.07 
65.0452 0.74 
65.3979 0.02 
66.0483 0.12 
66.6862 0.01 
67.0564 1.32 
68.0671 0.05 
68.7239 0.01 
69.0671 4.87 
70.0575 0.07 
71.1147 0.06 
72.0255 0.01 
72.2873 0.01 
73.0064 0.02 
74.0219 0.09 
75.0151 0.16 
75.2005 0.05 
75.4515 0.02 
76.0112 0.12 
77.0433 2.49 
77.4397 0.02 
78.0345 0.46 
78.536 0.05 
79.0542 2.33 
80.0449 0.23 
81.0715 2.98 
82.1047 0.07 
83.096 0.75 
83.6441 0.01 
84.0949 0.02 
85.1199 0.04 
86.0189 0.07 
87.0325 0.06 
87.9884 0.06 
88.2505 0.02 
89.1035 0.25 
90.0954 0.13 
91.068 5.69 
92.063 0.53 
92.4264 0.02 
93.0863 3.49 
94.0872 0.15 
94.3463 0.01 
95.094 2.72 
96.0633 0.02 
96.5391 0.03 
97.1112 0.11 
98.0549 0.09 
98.489 0.04 
99.0197 0.02 
100.0285 0.01 
100.364 0.01 
100.7048 0.02 
101.078 0.1 
101.5029 0.02 
102.0662 0.24 
102.4532 0.02 
103.0717 0.94 
104.057 0.49 
105.0893 7.06 
106.0865 0.69 
106.4611 0.02 
107.0929 3.16 
107.7384 0.01 
108.0828 0.21 
108.5732 0.01 
109.1095 1.18 
109.4273 0.03 
110.0061 0.04 
110.344 0.02 
111.0633 0.08 
111.5259 0.01 
112.7611 0.02 
113.0637 0.06 
113.3521 0.04 
113.6274 0.04 
114.122 0.13 
115.0583 2.73 
115.4855 0.05 
116.0722 0.97 
117.0692 2.8 
118.0596 0.51 
119.0738 6.37 
119.5035 0.08 
120.0895 0.64 
120.476 0.04 
121.0933 2.17 
121.597 0.01 
122.0559 0.13 
122.3943 0.02 
123.0981 1.11 
124.034 0.06 
125.0402 0.05 
125.5985 0.01 
126.0331 0.13 
126.4732 0.01 
127.0338 0.86 
128.0477 3.1 
129.0481 3.51 
130.0484 1.34 
130.3727 0.06 
131.0713 3.92 
132.0658 0.72 
132.3895 0.08 
133.0817 3.48 
133.5742 0.01 
134.0912 0.24 
134.626 0.02 
135.0869 0.5 
136.0662 0.06 
136.3172 0.03 
137.1194 0.49 
138.0251 0.05 
138.5188 0.06 
139.0358 0.4 
139.5165 0.02 
140.0868 0.13 
140.5124 0.05 
141.0562 2.39 
141.6017 0.06 
142.0686 2.28 
142.4625 0.04 
143.078 4.69 
144.0774 1.47 
145.0942 4.45 
146.0955 0.51 
146.574 0.04 
147.1223 1.44 
147.6736 0.02 
148.1146 0.15 
149.0995 0.19 
149.5014 0.02 
150.043 0.2 
150.5177 0.03 
151.0693 0.33 
152.0801 1.12 
153.0712 1.57 
154.0618 0.89 
154.4928 0.03 
155.0998 3.14 
156.1058 1.77 
157.1139 3.67 
158.1422 0.57 
158.6174 0.04 
159.1313 2.39 
160.1088 0.32 
161.1394 1.09 
162.0355 0.08 
163.1257 0.21 
164.0674 0.18 
164.3884 0.04 
165.1099 2.41 
166.0996 0.6 
167.1122 1.67 
168.1171 0.89 
169.1186 3.06 
170.118 0.8 
170.6803 0.04 
171.1416 2.07 
171.5297 0.06 
172.1466 0.35 
173.1328 1.23 
173.606 0.02 
174.1807 0.14 
174.4209 0.03 
174.6417 0.02 
175.1585 0.99 
176.1077 0.22 
176.3829 0.03 
176.6374 0.03 
177.1618 0.7 
178.0816 1.32 
178.4755 0.06 
179.1035 2.06 
179.6426 0.04 
180.0969 0.92 
181.1075 2.37 
181.5218 0.06 
182.1105 0.85 
183.1237 2.58 
183.5664 0.04 
184.1321 0.56 
185.1298 1.46 
186.0875 0.22 
187.1479 0.68 
187.5621 0.06 
188.1123 0.13 
189.1193 0.66 
190.0763 0.21 
190.5908 0.05 
191.0844 0.72 
191.5654 0.05 
192.114 0.8 
192.549 0.04 
193.1189 1.88 
193.6791 0.05 
194.1131 1.03 
195.1205 2.39 
196.1256 0.45 
197.1312 2.02 
198.1035 0.26 
198.5272 0.03 
199.1467 0.62 
200.1623 0.2 
200.437 0.05 
201.1558 0.74 
202.0849 0.62 
203.1217 0.97 
204.0729 0.26 
204.2959 0.1 
205.1092 0.99 
205.5569 0.06 
206.1093 0.54 
206.4724 0.03 
207.1239 1.3 
208.1348 0.58 
209.1518 1.44 
209.5862 0.05 
210.1453 0.32 
210.4906 0.02 
211.1504 0.75 
211.7424 0.04 
212.166 0.19 
213.1508 0.34 
214.1572 0.11 
215.1287 0.45 
216.1289 0.27 
216.7009 0.02 
217.1423 0.52 
218.1547 0.39 
218.507 0.03 
219.1661 0.58 
219.6862 0.02 
220.1879 0.34 
221.1703 0.83 
222.1943 0.23 
222.7505 0.06 
223.1931 0.57 
223.6713 0.04 
224.2222 0.23 
225.2338 0.57 
226.1662 0.22 
227.1557 0.28 
227.6463 0.02 
228.157 0.22 
228.6464 0.05 
229.1701 0.44 
230.1337 0.22 
230.6305 0.03 
231.1531 0.49 
232.1587 0.25 
232.7044 0.03 
233.1989 0.68 
234.1896 0.18 
234.5802 0.05 
235.1991 0.47 
236.1776 0.21 
237.2121 0.37 
238.2184 0.16 
238.6581 0.04 
239.2264 0.49 
240.1334 0.19 
241.225 0.36 
242.224 0.21 
243.1733 0.48 
243.6395 0.04 
244.1945 0.16 
244.7352 0.04 
245.1845 0.26 
245.7583 0.02 
246.1991 0.17 
246.461 0.04 
247.1797 0.53 
248.1992 0.3 
248.7406 0.03 
249.2277 0.36 
250.1514 0.09 
251.2271 0.5 
252.2057 0.13 
252.7789 0.02 
253.2175 0.41 
253.7279 0.03 
254.2483 0.15 
255.2092 0.3 
256.1918 0.12 
257.1603 0.32 
258.2483 0.09 
259.1758 0.33 
260.2126 0.16 
261.2253 0.4 
262.2226 0.12 
262.8248 0.03 
263.2589 0.49 
263.6183 0.02 
264.2796 0.08 
264.5212 0.04 
265.2172 0.45 
265.7796 0.01 
266.3076 0.17 
266.6299 0.05 
267.2678 0.35 
268.2806 0.35 
269.2348 0.29 
270.2021 0.08 
270.747 0.03 
271.2214 0.21 
271.8642 0.03 
272.2166 0.06 
272.838 0.04 
273.2911 0.22 
274.2062 0.05 
275.2553 0.19 
276.2126 0.08 
276.8259 0.02 
277.2536 0.09 
277.4537 0.05 
278.2876 0.11 
278.8206 0.03 
279.2485 0.2 
280.2686 0.1 
280.8379 0.05 
281.2875 0.38 
281.5989 0.06 
282.2058 0.04 
282.5992 0.01 
283.1822 0.13 
283.7654 0.02 
284.2909 0.04 
285.1968 0.09 
285.9012 0.04 
286.3665 0.08 
287.2138 0.15 
287.6965 0.01 
288.2528 0.04 
289.2749 0.15 
290.1904 0.07 
290.4702 0.02 
290.7831 0.05 
291.2316 0.18 
291.5388 0.02 
291.7278 0.01 
292.1692 0.09 
293.2397 0.16 
294.3248 0.12 
295.2789 0.07 
296.2476 0.05 
297.2756 0.1 
297.8807 0.02 
298.2101 0.03 
299.1317 0.11 
299.3772 0.03 
299.6691 0.02 
300.2759 0.02 
301.1878 0.2 
302.3846 0.04 
303.2477 0.2 
304.2772 0.09 
305.304 0.22 
305.7162 0.01 
306.1994 0.04 
306.5408 0.01 
307.3177 0.07 
308.3105 0.05 
308.7779 0.03 
309.1557 0.05 
309.4698 0.01 
310.2892 0.04 
310.7047 0.03 
311.2187 0.09 
312.4424 0.01 
313.2376 0.06 
313.7127 0.01 
314.2835 0.09 
314.7312 0.02 
315.2688 0.16 
315.8484 0.01 
316.2267 0.03 
317.2616 0.1 
318.2735 0.03 
318.8709 0.01 
319.303 0.14 
320.2746 0.09 
321.3103 0.07 
321.7991 0.01 
322.3301 0.09 
323.3139 0.03 
324.2891 0.03 
325.3108 0.05 
325.5295 0.03 
326.1799 0.03 
326.4697 0.04 
327.2608 0.06 
328.2766 0.1 
328.7824 0.01 
329.2854 0.08 
330.3567 0.08 
331.3527 0.16 
332.1372 0.02 
332.5795 0.01 
333.293 0.21 
334.2751 0.05 
335.2238 0.09 
336.3164 0.02 
336.7619 0.03 
337.338 0.05 
337.9317 0.04 
338.4339 0.02 
338.6705 0.01 
339.106 0.05 
339.4675 0.02 
340.4315 0.04 
341.2796 0.09 
341.8024 0.02 
343.2519 0.1 
343.6325 0.02 
343.8722 0.01 
344.1685 0.04 
344.5841 0.01 
345.344 0.17 
346.4033 0.16 
347.3218 0.17 
348.3452 0.02 
349.0139 0.01 
349.2625 0.02 
350.2541 0.03 
351.3356 0.05 
351.9082 0.04 
353.2819 0.03 
353.7965 0.03 
354.3388 0.03 
355.4031 0.06 
357.2501 0.11 
358.5811 0.04 
359.4118 0.23 
360.228 0.06 
360.8537 0.03 
361.2117 0.01 
361.9248 0.03 
362.2188 0.03 
362.9393 0.03 
363.325 0.02 
364.3455 0.04 
365.2326 0.08 
365.5307 0.02 
366.3042 0.11 
367.3178 0.09 
368.061 0.02 
368.4028 0.02 
369.3483 0.07 
370.3564 0.07 
371.2949 0.1 
372.3367 0.07 
373.14 0.04 
373.5563 0.06 
374.2884 0.01 
375.3321 0.05 
377.382 0.03 
377.5494 0.01 
378.0751 0.02 
378.4232 0.09 
379.0406 0.05 
379.4033 0.08 
380.2393 0.03 
380.5102 0.04 
381.3842 0.14 
382.3297 0.12 
382.8426 0.02 
383.3991 0.2 
384.3667 0.07 
385.3592 0.1 
386.3357 0.09 
387.407 0.07 
387.9493 0.04 
389.4685 0.02 
390.2442 0.02 
390.7123 0.01 
391.3963 0.05 
391.7638 0.03 
392.5601 0.03 
392.8912 0.02 
393.3215 0.02 
393.9298 0.01 
394.541 0.04 
395.2953 0.06 
395.846 0.01 
396.37 0.04 
396.7979 0.01 
397.2332 0.01 
397.5869 0.01 
398.6235 0.02 
399.3792 0.21 
399.899 0.02 
400.3839 0.07 
400.9227 0.02 
401.1469 0.02 
401.5445 0.05 
403.2777 0.01 
404.4984 0.03 
405.3609 0.07 
405.7455 0.04 
406.474 0.03 
407.4139 0.06 
408.3218 0.01 
409.3274 0.05 
410.3462 0.03 
410.6873 0.01 
411.3549 0.06 
411.7194 0.01 
412.411 0.18 
413.4129 0.14 
413.9823 0.01 
414.444 0.08 
415.0572 0.05 
415.3966 0.06 
416.2298 0.03 
417.1752 0.01 
418.1484 0.01 
420.2815 0.03 
420.7216 0.02 
421.0656 0.06 
421.3847 0.05 
422.1994 0.02 
422.5273 0.02 
422.9354 0.02 
423.3217 0.03 
423.9018 0.05 
424.5024 0.08 
425.3377 0.19 
425.972 0.08 
426.7782 0.08 
427.2711 0.17 
427.5335 0.07 
427.8777 0.06 
428.3487 0.11 
428.6039 0.04 
429.2149 0.02 
429.6553 0.07 
430.4648 0.11 
430.8163 0.04 
432.2005 0.04 
433.2611 0.02 
434.1787 0.03 
435.4802 0.06 
435.8508 0.02 
436.058 0.01 
436.3178 0.03 
436.8154 0.02 
437.8618 0.02 
439.4585 0.07 
440.5138 0.07 
441.0247 0.03 
441.5824 0.05 
441.8437 0.02 
442.5007 0.02 
442.9197 0.06 
443.5095 0.16 
443.9169 0.12 
444.4805 3.62 
445.1464 0.03 
445.4399 0.03 
445.7929 0.03 
447.2497 0.04 
447.5968 0.03 
448.2021 0.03 
449.4855 0.02 
449.9246 0.01 
450.2484 0.02 
450.8596 0.03 
451.3906 0.06 
452.136 0.02 
452.7604 0.05 
453.4038 0.05 
454.0049 0.02 
454.3508 0.02 
454.8279 0.03 
455.6421 0.05 
456.4827 0.12 
457.4371 0.11 
458.1639 0.01 
459.5345 0.01 
460.1432 0.01 
462.1651 0.01 
462.8425 0.03 
463.4119 0.01 
464.1668 0.04 
464.4968 0.01 
465.2912 0.04 
465.5861 0.04 
466.1469 0.03 
466.769 0.02 
467.1999 0.03 
467.5299 0.01 
468.323 0.05 
468.5275 0.03 
469.0139 0.03 
469.5412 0.01 
470.2306 0.03 
470.8894 0.04 
471.2298 0.02 
472.5194 0.02 
472.7936 0.03 
473.5915 0.04 
475.5872 0.01 
476.3269 0.05 
476.9164 0.02 
477.4825 0.06 
478.4149 0.02 
478.5944 0.01 
479.3168 0.04 
480.547 0.09 
481.5978 0.02 
482.7378 0.01 
484.4456 0.03 
486.4456 0.02 
487.8415 0.03 
489.5367 0.06 
490.0989 0.04 
490.4538 0.01 
490.7108 0.03 
491.517 0.04 
492.4969 0.03 
492.8314 0.05 
493.5763 0.04 
494.4468 0.07 
498.442 0.01 
501.4558 0.04 
501.657 0.02 
502.0417 0.03 
502.3857 0.04 
503.3681 0.03 
503.6494 0.01 
504.508 0.03 
505.425 0.18 
505.874 0.04 
506.5038 0.11 
507.0417 0.03 
507.4879 0.05 
508.647 0.03 
509.4227 0.02 
511.2178 0.01 
511.8463 0.03 
512.1832 0.02 
512.6718 0.01 
513.0801 0.03 
513.3411 0.04 
513.8093 0.02 
514.4394 0.06 
515.4881 0.07 
516.0118 0.06 
516.3458 0.05 
516.725 0.04 
517.8016 0.08 
518.4683 0.2 
519.2299 0.12 
519.8018 0.1 
520.5429 0.5 
521.5307 1.42 
522.1421 0.06 
522.6251 0.1 
523.2263 0.02 
523.9573 0.07 
524.9614 0.08 
526.3055 0.12 
527.3563 0.11 
528.1926 0.09 
528.9546 0.14 
529.5968 0.14 
530.9646 0.25 
536.5316 99.97 
538.0532 2.33 
538.7966 1.08 
539.9824 0.46 
540.4229 0.22 
541.2176 0.15 
541.7717 0.09 
542.5738 0.07 
543.7521 0.08 
END IONS

