BEGIN IONS
PEPMASS=176.103
CHARGE=1+
COMPOUNDNAME=Citrulline
LIBRARYQUALITY=3
SMILES=N/A
INCHIKEY=RHGKLRLOHDJJDR-BYPYZUCNSA-N
INCHI=InChI=1S/C6H13N3O3/c7-4(5(10)11)2-1-3-9-6(8)12/h4H,1-3,7H2,(H,10,11)(H3,8,9,12)/t4-/m0/s1
MSLEVEL=2
SOURCE_INSTRUMENT=N/A-ESI-QFT
FILENAME=library_mgf.mgf
SEQ=*..*
IONMODE=positive
ORGANISM=MONA
NAME=Citrulline [M+H]+
PI=MoNA
DATACOLLECTOR=MoNA:VF-NPL-QEHF026468
PUBMED=N/A
SUBMITUSER=mwang87
TAGS=
SPECTRUMID=CCMSLIB00004717925
SCANS=26468
50.105209 0.012531 
50.124722 0.015076 
50.341152 0.011478 
50.402302 0.010982 
50.408066 0.010104 
50.583656 0.012876 
50.911678 0.00883 
51.07756 0.00742 
51.281391 0.006354 
51.45285 0.005936 
51.666264 0.012629 
52.037846 0.022247 
52.517891 0.008316 
52.544064 0.01334 
53.382084 0.006745 
53.478649 0.017974 
54.286045 0.013903 
55.199959 0.008546 
56.167057 0.005725 
56.691654 0.020034 
56.740738 0.007831 
56.830093 0.022986 
56.965111 0.590515 
57.036331 0.010495 
57.10603 0.008477 
57.176487 0.016691 
57.537788 0.024103 
57.901306 0.008941 
58.278831 0.023788 
58.478256 0.012452 
58.572292 0.012003 
58.808689 0.013029 
58.86047 0.010817 
58.964542 0.015291 
59.649956 0.010784 
60.185883 0.010942 
60.260963 0.014518 
60.318474 0.005918 
60.696281 0.008977 
60.997726 0.006437 
61.085819 0.020962 
61.3801 0.011912 
61.395363 0.011034 
61.467255 0.014495 
63.048569 0.005892 
63.573299 0.006474 
64.406235 0.016499 
64.477058 0.012768 
64.801231 0.009196 
65.962349 0.024417 
67.993416 0.008138 
68.049591 0.1626 
68.26487 0.010627 
68.791237 0.011194 
69.132477 0.022973 
69.521721 0.020478 
70.061699 0.055666 
70.065231 98.960083 
70.369995 0.019516 
70.521553 0.015238 
70.61924 0.012045 
71.049255 0.243473 
71.062256 0.191902 
71.068581 4.229156 
71.071014 0.031435 
71.108566 0.011493 
71.143478 0.022625 
71.196495 0.014427 
72.013763 0.015646 
72.474991 0.008145 
72.992638 0.012248 
73.408844 0.011084 
73.522453 0.015963 
74.038872 0.008969 
75.349388 0.015626 
76.373619 0.005612 
76.413094 0.005968 
76.998383 0.300118 
77.327835 0.012155 
78.439049 0.013111 
78.553963 0.011231 
79.02124 0.037782 
79.411789 0.00882 
80.007072 0.007121 
80.410957 0.010469 
81.395096 0.02297 
82.622665 0.011491 
82.970657 0.00572 
83.082787 0.00608 
83.775467 0.010294 
83.910286 0.019035 
83.983414 0.006501 
84.027603 0.012663 
84.044434 0.160746 
84.25415 0.012432 
85.60228 0.02132 
85.991364 0.021908 
86.003654 0.332249 
86.060097 2.407405 
86.984734 0.023378 
87.091759 0.487776 
88.05648 0.010864 
88.07576 0.120879 
88.736519 0.014167 
89.583618 0.010265 
89.788399 0.011904 
90.483009 0.138883 
92.731537 0.017737 
93.490089 0.017516 
93.497025 0.01185 
93.980232 0.018546 
95.008904 0.015895 
96.044479 0.833547 
96.400398 0.021029 
96.474121 0.012072 
96.798508 0.012287 
96.817528 0.024044 
97.076111 1.671411 
97.99472 0.494748 
98.060158 0.311386 
98.53392 0.007388 
98.683281 0.02239 
98.975449 19.012724 
99.044258 0.048542 
99.488281 2.243528 
99.61853 0.026268 
99.978806 0.149009 
101.822662 0.016259 
102.373955 0.02043 
102.917625 0.017376 
103.450958 0.012921 
103.857498 0.018167 
106.552452 0.015314 
106.715706 0.021855 
107.000023 5.590535 
107.501549 0.022262 
107.990082 0.022763 
107.997963 0.316701 
108.493584 5.260355 
108.995941 0.026719 
109.447197 0.012264 
109.491524 0.350982 
110.749794 0.017331 
110.914864 0.024236 
111.278358 0.011521 
111.483086 0.01686 
113.033592 0.019371 
113.06382 0.058247 
113.070992 100.0 
113.458618 0.020021 
114.055077 17.203815 
114.059631 0.297946 
114.067825 0.436712 
114.074371 5.401997 
115.058411 0.75261 
115.08667 14.076516 
115.501465 0.02064 
115.825813 0.01243 
116.005348 11.58543 
116.070686 12.562982 
116.090004 0.652149 
116.506966 0.297995 
116.986015 4.797061 
117.003242 1.057747 
117.007454 0.051274 
117.073997 0.589063 
117.392921 0.008678 
117.498917 0.955154 
117.988777 0.007222 
118.001747 0.040565 
118.496826 0.024698 
118.903618 0.015814 
119.875145 0.024305 
120.256027 0.009404 
120.974266 0.007658 
121.015533 0.016035 
121.727791 0.006864 
121.958351 0.010201 
122.778 0.015273 
123.013222 0.100662 
124.748627 0.025476 
125.010666 0.902425 
128.05751 0.006537 
128.76413 0.016099 
130.097641 0.049599 
131.001633 0.00998 
131.081635 0.0779 
133.097168 0.162547 
134.996582 0.446777 
137.517044 0.009805 
137.643646 0.01115 
139.229401 0.013943 
140.475662 0.007337 
141.065964 1.871206 
142.050034 1.60803 
142.069458 0.016774 
146.130432 0.025219 
152.548965 0.021946 
154.209808 0.015383 
158.857117 0.022752 
159.076462 40.944878 
160.073257 0.157268 
160.079788 2.760392 
160.802383 0.01132 
161.080887 0.036211 
161.931808 0.011958 
176.10318 0.035851 
176.989548 0.029002 
178.133072 0.021015 
178.620239 0.012421 
188.414886 0.012006 
190.426376 0.013072 
195.000519 0.008968 
197.801132 0.012271 
198.685211 0.008085 
END IONS

