BEGIN IONS
PEPMASS=613.239
CHARGE=1+
COMPOUNDNAME=MoNA:6081 Novobiocin
LIBRARYQUALITY=3
SMILES=N/A
INCHIKEY=YJQPYGGHQPGBLI-KGSXXDOSSA-N
INCHI=InChI=1S/C31H36N2O11/c1-14(2)7-8-16-13-17(9-11-19(16)34)27(37)33-21-22(35)18-10-12-20(15(3)24(18)42-28(21)38)41-29-23(36)25(43-30(32)39)26(40-6)31(4,5)44-29/h7,9-13,23,25-26,29,34-36H,8H2,1-6H3,(H2,32,39)(H,33,37)/t23-,25+,26-,29-/m1/s1
MSLEVEL=2
SOURCE_INSTRUMENT=LC-ESI-QTOF-LC-ESI-QTOF
FILENAME=output_mgf.mgf
SEQ=*..*
IONMODE=
ORGANISM=MONA
NAME=MoNA:6081 Novobiocin [M+H]+
PI=MoNA
DATACOLLECTOR=MoNA
PUBMED=N/A
SUBMITUSER=mwang87
TAGS=
SPECTRUMID=CCMSLIB00000562773
SCANS=25
59.0485 0.982578 
73.0648 1.066202 
85.0289 1.017422 
125.059 6.041812 
126.0617 0.522648 
133.0292 4.536585 
133.0845 0.891986 
134.0322 0.752613 
143.0691 3.609756 
151.0387 0.912892 
157.0853 5.094077 
186.0761 4.376307 
189.0914 100.0 
190.0942 9.43554 
191.0958 0.940767 
218.0823 0.710801 
218.1034 3.233449 
219.1055 0.794425 
378.1327 0.557491 
396.1435 2.989547 
397.1532 0.543554 
END IONS

