BEGIN IONS
PEPMASS=224.5
CHARGE=1+
COMPOUNDNAME=Massbank:KO004038 Sisomicin|Antibiotic 6640|Dehydrogentamicin Cla|Rickamicin
LIBRARYQUALITY=3
SMILES=NCC(=C3)O[C@@H]([C@H](N)C3)O[C@H]([C@@H](N)1)[C@H](O)[C@@H](O[C@@H](O2)[C@H](O)[C@@H](NC)[C@](C)(O)C2)[C@H](N)C1
INCHIKEY=URWAJWIAIPFPJE-GYHYWALZSA-N
INCHI=1S/C19H37N5O7/c1-19(27)7-28-18(13(26)16(19)24-2)31-15-11(23)5-10(22)14(12(15)25)30-17-9(21)4-3-8(6-20)29-17/h3,9-18,24-27H,4-7,20-23H2,1-2H3/t9-,10+,11-,12+,13-,14-,15+,16-,17-,18-,19+/m1/s1
MSLEVEL=2
SOURCE_INSTRUMENT=ESI-LC-ESI-QQ
FILENAME=Massbank_ESI_positive_8_1_2014_peaks.mgf
SEQ=*..*
IONMODE=Positive
ORGANISM=MASSBANK
NAME=Massbank:KO004038 Sisomicin|Antibiotic 6640|Dehydrogentamicin Cla|Rickamicin [M+2H]++
PI=Putative Massbank Match
DATACOLLECTOR=Massbank
PUBMED=N/A
SUBMITUSER=mwang87
TAGS=
SPECTRUMID=CCMSLIB00000220598
SCANS=9830
56.4 391089.5 
57.2 39604.0 
65.1 64356.5 
67.0 118812.0 
68.0 430693.5 
69.1 69307.0 
70.0 410891.5 
71.1 995050.5 
72.0 1975249.5 
73.3 123762.5 
74.1 202970.5 
78.9 19802.0 
80.2 1618813.5 
80.8 470297.5 
82.3 4767331.5 
83.1 633664.0 
84.1 4158420.0 
85.1 138614.0 
86.2 4698024.5 
86.9 69307.0 
88.3 257426.0 
89.0 178218.0 
91.9 1069308.0 
92.7 143564.5 
93.8 84158.5 
95.1 64356.5 
96.3 851486.0 
97.3 118812.0 
97.8 683169.0 
99.0 2653468.0 
100.1 3995053.5 
101.3 668317.5 
102.2 990100.0 
104.9 84158.5 
109.2 9009910.0 
110.3 11207932.0 
112.1 23787152.5 
113.2 465347.0 
114.2 6514858.0 
116.4 74257.5 
118.1 8856444.5 
121.3 49505.0 
123.1 74257.5 
124.3 524753.0 
126.3 49505.0 
127.2 40826773.5 
128.0 267327.0 
128.8 148515.0 
130.0 128713.0 
131.3 49505.0 
132.7 79208.0 
133.1 94059.5 
135.3 59406.0 
137.7 34653.5 
138.2 29703.0 
140.0 34653.5 
140.2 14851.5 
142.0 9683178.0 
143.3 24752.5 
145.3 876238.5 
146.1 148515.0 
149.4 54455.5 
151.3 138614.0 
152.3 29703.0 
157.4 118812.0 
160.1 18881207.0 
161.0 113861.5 
163.3 13970311.0 
164.4 79208.0 
167.3 19802.0 
173.3 1178219.0 
175.1 579208.5 
175.5 113861.5 
178.3 24752.5 
179.4 14851.5 
187.3 811882.0 
187.7 19802.0 
189.5 54455.5 
199.2 222772.5 
201.2 113861.5 
205.1 1861388.0 
207.1 292079.5 
208.0 59406.0 
213.6 59406.0 
215.7 163366.5 
216.2 74257.5 
218.8 49505.0 
219.6 143564.5 
220.2 34653.5 
225.5 128713.0 
226.4 272277.5 
227.2 54455.5 
229.5 64356.5 
237.1 420792.5 
243.2 99010.0 
254.4 6168323.0 
255.5 292079.5 
256.6 14851.5 
265.0 29703.0 
271.6 7034660.5 
272.8 113861.5 
277.5 59406.0 
278.5 59406.0 
282.7 89109.0 
289.6 371287.5 
295.3 54455.5 
296.5 143564.5 
299.5 34653.5 
313.7 34653.5 
322.5 381188.5 
346.7 24752.5 
END IONS

