BEGIN IONS
PEPMASS=329.139
CHARGE=1+
COMPOUNDNAME=Gibberellin A4&A7
LIBRARYQUALITY=3
SMILES=N/A
INCHIKEY=SEEGHKWOBVVBTQ-UKJRIFTCSA-N
INCHI=InChI=1S/C19H22O5/c1-9-7-18-8-10(9)3-4-11(18)19-6-5-12(20)17(2,16(23)24-19)14(19)13(18)15(21)22/h5-6,10-14,20H,1,3-4,7-8H2,2H3,(H,21,22)/t10-,11-,12+,13-,14-,17+,18+,19-/m1/s1
MSLEVEL=2
SOURCE_INSTRUMENT=N/A-ESI-QFT
FILENAME=library_mgf.mgf
SEQ=*..*
IONMODE=negative
ORGANISM=MONA
NAME=Gibberellin A4&A7 [M-H]-
PI=MoNA
DATACOLLECTOR=MoNA:VF-NPL-QEHF006591
PUBMED=N/A
SUBMITUSER=mwang87
TAGS=
SPECTRUMID=CCMSLIB00004697654
SCANS=6591
50.908894 0.107761 
51.155178 0.089603 
51.157631 0.102569 
51.240505 0.09811 
51.320454 0.078877 
51.780579 0.099638 
52.053001 0.08424 
52.633869 0.104113 
53.051685 0.083502 
53.434036 0.076388 
53.498257 0.085301 
53.541752 0.091039 
53.701809 0.106889 
53.860451 0.091061 
54.318981 0.097886 
54.732693 0.117196 
54.975616 0.083174 
55.017536 0.710455 
55.196899 0.10505 
55.281078 0.077348 
55.387596 0.07643 
57.055614 0.079792 
57.339596 0.111049 
58.013817 0.090461 
58.149307 0.097906 
59.046841 0.089514 
59.932255 0.091375 
60.214172 0.098835 
61.205338 0.085898 
61.63607 0.087213 
62.03476 0.081518 
62.791538 0.0843 
64.518219 0.108339 
64.77346 0.091877 
65.492561 0.08104 
65.656738 0.108466 
66.340965 0.081562 
66.750435 0.089289 
67.655525 0.089272 
69.681107 0.109453 
70.965393 0.090269 
71.048874 9.077866 
71.197083 0.083672 
71.503586 0.098422 
71.581627 0.108576 
71.626366 0.083119 
72.566261 0.088702 
73.028122 9.195329 
73.152313 0.105756 
75.387627 0.132347 
75.798409 0.099242 
75.895515 0.083282 
75.916794 0.09103 
76.085297 0.097131 
76.480331 0.090726 
77.470192 0.081612 
77.599785 0.09759 
77.974083 0.093678 
78.051521 0.101438 
78.752449 0.091561 
78.884262 0.119276 
78.94165 0.085678 
78.997246 0.109102 
80.635788 0.091205 
80.729126 0.087209 
81.851379 0.097762 
82.189529 0.099688 
82.998825 0.10352 
83.049049 0.129806 
83.731934 0.099394 
84.871109 0.117083 
84.951088 0.106132 
85.86718 0.110977 
86.641716 0.0843 
87.503357 0.072252 
87.513901 0.111855 
87.850395 0.09019 
89.234528 0.118979 
89.306801 0.093731 
89.560852 0.103009 
89.740906 0.094625 
90.738121 0.079391 
93.430771 0.092906 
97.293213 0.106958 
97.81015 0.084393 
99.504044 0.086188 
99.54081 0.072459 
99.864265 0.095907 
100.304352 0.107101 
100.705841 0.096682 
100.98484 0.107316 
102.972839 0.089573 
103.640114 0.106066 
104.735939 0.103387 
105.358658 0.110778 
105.678062 0.086051 
105.855751 0.115308 
108.638687 0.091834 
109.113205 0.095619 
111.031593 0.114241 
112.526855 0.097535 
114.387634 0.091868 
115.722733 0.090957 
115.876938 0.086124 
116.996124 0.100235 
117.017502 0.110084 
117.114677 0.091672 
117.224686 0.105442 
118.701653 0.133052 
119.467484 0.112706 
120.073555 0.122125 
121.710396 0.085334 
122.984711 0.092612 
123.330353 0.088874 
123.463768 0.094003 
125.552254 0.103645 
127.460304 0.080639 
128.129517 0.093263 
129.629837 0.092951 
129.645187 0.105089 
130.522675 0.104065 
130.689682 0.081991 
134.934692 0.105256 
136.719269 0.122754 
140.822906 0.089416 
140.98941 0.112173 
143.198669 0.088584 
143.338364 0.10845 
147.831589 0.091273 
150.258362 0.110414 
150.904968 0.099565 
153.532684 0.083849 
153.562759 0.099919 
154.025803 0.08842 
154.045715 0.090994 
154.639313 0.098166 
155.074982 0.087478 
155.085571 32.069489 
156.088943 2.286152 
157.101212 1.290532 
158.749237 0.077141 
163.630157 0.122128 
163.821426 0.082447 
165.107468 0.094988 
167.085541 0.091947 
167.807907 0.101343 
169.064713 0.095345 
169.101303 0.131162 
169.14209 0.120383 
171.080704 0.123767 
173.096283 2.182319 
174.399872 0.094021 
179.085846 5.21367 
179.98851 0.109906 
180.562561 0.088563 
181.101486 3.957215 
183.080872 4.606678 
183.117111 3.480723 
185.096024 0.106441 
185.132935 2.519047 
190.634705 0.085555 
191.954498 0.081725 
192.185562 0.088474 
193.101669 14.998402 
193.452332 0.081658 
194.105164 0.980949 
195.080826 4.558273 
195.117126 0.837017 
196.088577 0.175542 
196.826706 0.099078 
197.096146 0.106745 
197.132645 0.26951 
200.786011 0.099523 
201.12767 1.736896 
203.406845 0.103027 
205.101395 0.124382 
206.109955 0.184132 
206.904434 0.100524 
207.117401 3.680823 
208.122253 0.12372 
209.096603 1.487326 
211.112274 48.942478 
211.123291 0.123727 
211.54599 0.106517 
212.115677 7.465789 
213.127457 0.140984 
215.276245 0.108989 
216.309921 0.083851 
219.116974 0.261266 
220.010773 0.333591 
220.021439 0.781165 
220.025192 0.864991 
220.038071 0.928227 
221.133163 8.346182 
222.136566 0.553942 
223.148727 100.0 
224.152069 17.736116 
235.827621 0.099422 
237.128235 0.329223 
239.143768 2.972339 
241.159348 0.421293 
245.047745 0.089117 
245.722137 0.110581 
245.814987 0.102131 
255.104721 0.090271 
261.843811 0.123825 
263.792145 0.098639 
267.314026 0.11945 
269.319489 0.115257 
276.626648 0.093547 
279.111176 0.088557 
287.884125 0.097679 
302.263611 0.092017 
309.304932 0.093162 
310.882172 0.088962 
314.11203 0.108862 
315.148529 0.093105 
315.503632 0.095778 
329.58194 0.128173 
336.796356 0.102765 
348.814056 0.095544 
END IONS

