BEGIN IONS
PEPMASS=262.122
CHARGE=1+
COMPOUNDNAME=BIOTIN
LIBRARYQUALITY=3
SMILES=N/A
INCHIKEY=YBJHBAHKTGYVGT-ZKWXMUAHSA-N
INCHI=InChI=1S/C10H16N2O3S/c13-8(14)4-2-1-3-7-9-6(5-16-7)11-10(15)12-9/h6-7,9H,1-5H2,(H,13,14)(H2,11,12,15)/t6-,7-,9-/m0/s1
MSLEVEL=2
SOURCE_INSTRUMENT=N/A-ESI-QFT
FILENAME=library_mgf.mgf
SEQ=*..*
IONMODE=positive
ORGANISM=MONA
NAME=BIOTIN [M+NH4]+
PI=MoNA
DATACOLLECTOR=MoNA:VF-NPL-QEHF028124
PUBMED=N/A
SUBMITUSER=mwang87
TAGS=
SPECTRUMID=CCMSLIB00004721705
SCANS=28124
50.347427 0.033221 
50.610535 0.044084 
50.791409 0.006358 
50.958702 0.015328 
51.235577 0.05056 
51.905945 0.039728 
51.930164 0.019234 
52.000782 0.016172 
52.891251 0.014635 
53.306591 0.007864 
53.359062 0.016884 
53.478962 0.045848 
53.611458 0.045383 
53.634075 0.046883 
53.644009 0.010544 
53.892887 0.010329 
54.283279 0.053643 
54.774059 0.043908 
55.250042 0.012996 
55.322956 0.007958 
55.763248 0.009203 
55.913513 0.03588 
56.049774 0.008583 
56.115692 0.008918 
56.639465 0.022353 
56.964985 0.033756 
57.070068 0.821731 
57.198978 0.020068 
57.320564 0.044271 
57.497597 0.04285 
57.678535 0.046106 
57.935005 0.035897 
58.065228 0.005499 
58.073505 0.052169 
58.132771 0.013388 
58.499542 0.047409 
58.644264 0.057474 
58.712563 0.006209 
59.559219 0.038522 
59.906792 0.023051 
59.940407 0.049434 
60.183289 0.013607 
60.498817 0.037521 
60.624992 0.006486 
60.957909 0.007466 
61.010777 0.335851 
61.303001 0.031391 
62.018555 0.022418 
62.494408 0.018064 
63.006504 0.015391 
63.305351 0.012879 
63.318008 0.042793 
64.318214 0.013645 
65.090935 0.006078 
65.345695 0.018432 
65.654762 0.010402 
65.742226 0.050228 
66.299538 0.014605 
66.49881 0.01531 
66.55838 0.063574 
67.054237 0.069129 
67.513649 0.021059 
68.270561 0.014914 
68.749352 0.018211 
68.895447 0.008899 
69.069878 0.020789 
70.065041 0.009954 
70.938156 0.008127 
71.085548 0.010831 
71.121719 0.041319 
71.260086 0.01069 
71.747986 0.043533 
72.135231 0.044388 
72.539703 0.04831 
72.904381 0.015143 
74.005692 0.009582 
74.059967 0.033243 
74.452454 0.02357 
74.930786 0.010492 
74.935219 0.017482 
75.96209 0.048488 
76.330833 0.023688 
76.639366 0.014886 
78.533699 0.018354 
79.021141 0.739882 
79.054008 0.012922 
79.440147 0.01695 
79.784538 0.006029 
80.139236 0.054528 
80.413803 0.051243 
80.688995 0.017004 
80.937035 0.017071 
81.069778 0.017562 
81.074547 0.021004 
82.087402 0.017287 
82.324951 0.034051 
83.449387 0.048239 
84.044044 0.030533 
84.109138 0.054131 
84.188263 0.007181 
84.943871 0.020782 
85.023735 0.047623 
85.039551 0.042526 
85.205063 0.029905 
85.945496 0.045946 
87.043854 0.03115 
87.545174 0.01569 
88.468208 0.046186 
89.418381 0.011423 
91.259621 0.037627 
92.016388 0.051535 
92.748795 0.015723 
93.129379 0.050983 
94.140678 0.020055 
95.085266 0.096496 
95.525597 0.021155 
96.226021 0.017335 
96.319534 0.039035 
97.039558 0.28467 
97.293442 0.016091 
98.42569 0.019033 
98.975189 0.146348 
101.591118 0.04401 
102.333305 0.0482 
102.968155 3.207941 
103.006882 0.007804 
103.452232 0.020111 
103.487289 0.007182 
103.570961 0.015219 
103.971329 0.021876 
104.03595 0.01733 
104.752502 0.019772 
104.972382 0.037549 
104.992142 0.02851 
105.942657 0.134806 
106.965164 2.945901 
107.055473 0.014238 
109.421814 0.048384 
112.672951 0.006721 
112.71595 0.015979 
113.24382 0.048404 
116.107216 0.023123 
116.985703 0.09322 
117.325127 0.014408 
119.192711 0.009791 
120.978683 2.232778 
122.443069 0.016695 
123.025719 0.043665 
123.944069 0.049122 
123.953117 0.028504 
124.279938 0.054407 
124.566116 0.013835 
124.936272 0.09973 
124.975716 2.164171 
125.818459 0.052469 
126.038116 0.056356 
127.567886 0.01909 
127.606628 0.009054 
131.213516 0.016756 
132.957901 0.019791 
134.996048 0.039301 
135.00618 0.043374 
135.080246 0.017922 
137.041809 0.026308 
137.673523 0.054828 
138.057846 0.032341 
138.458344 0.019789 
138.989166 0.967803 
139.29306 0.051811 
140.993225 0.022473 
141.332138 0.031591 
142.008698 0.032976 
142.332581 0.04289 
142.986282 0.913962 
144.623581 0.043908 
145.844437 0.020615 
146.974274 0.007376 
147.080353 0.274631 
148.446793 0.05382 
149.012039 0.014221 
149.048386 0.122947 
149.709732 0.013553 
150.557358 0.021705 
150.968582 0.05982 
151.209946 0.013443 
151.747238 0.055071 
151.958817 0.00862 
152.224243 0.045323 
152.951157 0.099489 
153.101959 0.212558 
153.832062 0.018683 
154.946716 2.618844 
156.028015 0.051393 
156.944183 0.07124 
156.962402 0.558277 
156.99971 0.069766 
157.026932 0.030617 
158.941513 0.008955 
159.055298 0.010394 
159.579819 0.046877 
160.390167 0.006482 
160.996887 0.059985 
162.270126 0.048739 
163.086441 0.044396 
163.762741 0.049812 
164.466782 0.040867 
166.585541 0.013853 
167.051895 0.023523 
169.689728 0.011381 
170.955429 0.076995 
172.95726 0.529919 
174.954453 0.009324 
175.063995 0.073502 
177.619019 0.043053 
178.310242 0.006379 
178.345901 0.042007 
179.857819 0.05144 
180.820618 0.016233 
180.887558 0.016096 
180.961441 0.023692 
180.981552 0.082718 
182.063126 0.070737 
182.977737 0.033253 
183.006409 0.211675 
184.93956 0.032561 
184.97908 0.189683 
185.297485 0.030071 
185.993393 0.039562 
186.115509 0.055074 
188.966354 0.011336 
189.426025 0.034152 
191.8302 0.047329 
193.074615 0.035529 
197.07402 0.173543 
198.992355 0.16194 
200.988525 0.1061 
201.016907 0.781344 
201.967148 0.008147 
202.989426 0.369237 
203.838608 0.051571 
207.763092 0.015131 
209.608124 0.016606 
210.236877 0.009469 
211.433441 0.020939 
212.361954 0.00679 
215.084793 0.27002 
215.100708 0.030723 
215.231583 0.041288 
216.162155 1.604134 
219.09021 0.011336 
219.174164 1.147095 
219.977417 0.0089 
220.874908 0.007049 
221.609482 0.057626 
222.604324 0.020342 
222.898453 1.887887 
225.069077 0.017934 
225.516632 0.01708 
225.589813 0.016253 
226.253693 0.02103 
227.084518 0.049829 
228.086548 0.010288 
229.080566 0.131787 
229.89563 0.332704 
238.264999 0.01449 
239.76265 0.006945 
240.29393 0.017419 
240.908981 2.468278 
241.91008 0.035303 
242.102661 0.007739 
243.079651 1.300046 
244.082642 0.055015 
245.764145 0.047746 
246.184387 0.125251 
247.906036 0.245098 
254.362671 0.0492 
256.175262 0.053593 
261.009705 0.011731 
261.105042 0.015411 
261.130524 100.0 
262.134033 11.926875 
262.149353 0.023391 
262.252838 0.103594 
263.082367 0.016527 
263.13559 1.329558 
266.631592 0.008895 
267.269073 0.036167 
270.842102 0.030601 
275.033051 0.00971 
277.326141 0.013562 
280.422668 0.016606 
282.29483 0.031934 
284.094208 0.021223 
END IONS

