BEGIN IONS
PEPMASS=172.06
CHARGE=1+
COMPOUNDNAME=Patulin
LIBRARYQUALITY=3
SMILES=N/A
INCHIKEY=ZRWPUFFVAOMMNM-UHFFFAOYSA-N
INCHI=InChI=1S/C7H6O4/c8-6-3-4-5(11-6)1-2-10-7(4)9/h1,3,7,9H,2H2
MSLEVEL=2
SOURCE_INSTRUMENT=N/A-ESI-QFT
FILENAME=library_mgf.mgf
SEQ=*..*
IONMODE=positive
ORGANISM=MONA
NAME=Patulin [M+NH4]+
PI=MoNA
DATACOLLECTOR=MoNA:VF-NPL-QEHF025940
PUBMED=N/A
SUBMITUSER=mwang87
TAGS=
SPECTRUMID=CCMSLIB00004717003
SCANS=25940
50.222485 0.044611 
50.473656 0.021409 
50.562164 0.051513 
51.040543 0.053175 
51.656902 0.041865 
53.002506 1.890015 
53.159546 0.051557 
53.520844 0.067692 
53.555595 0.022089 
54.685524 0.047343 
55.018131 1.475992 
55.043201 0.02532 
55.054504 0.880885 
56.049664 0.075877 
56.367409 0.058949 
56.677895 0.042209 
56.936749 0.061724 
56.965019 0.416249 
57.033741 0.127397 
57.070118 0.517957 
57.543167 0.042891 
57.689678 0.06101 
57.854733 0.047842 
57.935047 0.03151 
58.06538 0.227498 
59.144478 0.060127 
59.624725 0.060278 
59.633656 0.058742 
59.930416 0.049254 
61.010803 0.453743 
61.30817 0.037978 
61.637321 0.047653 
61.77084 0.062912 
62.018703 1.132024 
64.799919 0.05934 
64.945747 0.069712 
67.054344 2.748269 
67.936882 0.04688 
68.057648 0.028942 
68.997131 0.08394 
69.033524 0.757155 
69.069885 0.727909 
69.768272 0.038033 
70.06517 2.863803 
71.010582 0.036497 
71.012794 3.528236 
71.049133 0.069929 
71.436287 0.065752 
72.044411 0.880763 
73.75956 0.06856 
74.493202 0.094107 
74.49984 0.07302 
74.844612 0.040471 
76.168045 0.048142 
77.0849 0.057107 
79.021217 0.852477 
79.054237 0.779554 
79.096939 0.076636 
79.327682 0.091232 
79.778618 0.021121 
81.016861 0.029172 
81.06987 0.862221 
82.228073 0.026586 
83.012703 1.325978 
83.085495 0.813275 
83.263634 0.068489 
84.965546 0.068481 
85.028336 0.528931 
86.060043 0.139487 
89.070885 0.96158 
89.172615 0.046131 
89.628891 0.051947 
91.054222 1.092858 
91.227478 0.064094 
92.903549 0.033488 
93.069817 0.857945 
93.28759 0.083306 
94.098213 0.044843 
94.953796 0.020567 
95.067642 0.020726 
95.085518 0.428474 
95.277763 0.08522 
97.028389 1.303794 
97.075989 0.035043 
97.101112 0.07618 
97.39344 0.048774 
97.637894 0.04604 
98.096481 0.363199 
98.193489 0.023407 
99.007645 3.23011 
100.009827 0.110514 
100.075409 0.037589 
100.244217 0.048535 
100.50956 0.047055 
100.655823 0.067561 
100.726799 0.042873 
101.007851 0.069405 
101.50341 0.038452 
101.561958 0.049725 
102.501411 0.083827 
103.424149 0.066292 
104.302261 0.047517 
104.837883 0.08628 
104.956139 0.049733 
105.069893 0.631981 
106.494766 0.045002 
107.085686 0.206178 
108.016273 0.077752 
108.088997 0.058435 
109.014977 2.635336 
109.018723 0.046403 
109.101219 1.988287 
109.267479 0.04779 
109.514709 0.376357 
110.012978 2.250065 
110.016739 0.059729 
110.096306 0.026213 
110.104691 0.029954 
110.514771 0.038346 
111.007576 0.835477 
111.080147 0.027071 
111.116776 0.022888 
113.023293 0.30113 
115.179298 0.052947 
116.005325 0.025726 
116.070496 0.254202 
116.908211 0.081988 
116.966118 0.19143 
117.069847 1.099525 
118.020294 0.047046 
119.085571 0.713648 
119.429405 0.048027 
120.350685 0.046333 
121.336319 0.060499 
121.940079 0.047925 
122.150162 0.085007 
124.111748 0.09308 
124.99543 0.047527 
125.023247 1.054631 
125.096649 0.025192 
125.556152 0.063926 
126.199364 0.08519 
127.039078 0.262515 
127.57505 0.180906 
128.505234 0.051963 
128.99469 0.075589 
129.557663 0.062799 
129.796326 0.041528 
130.981781 0.588805 
131.085556 10.865105 
131.504135 0.113664 
132.088821 0.032393 
132.502716 0.381675 
133.715271 0.039493 
136.552933 0.056287 
136.580276 1.497558 
136.650253 0.046701 
137.927841 0.558881 
139.923294 0.169675 
141.018127 0.13579 
143.544815 0.044614 
143.830948 0.062908 
144.997772 0.172408 
145.101135 2.322803 
145.585556 0.463055 
147.55896 0.043387 
151.585541 0.055287 
152.143402 3.996135 
152.951569 0.145073 
153.146683 0.200928 
153.207352 0.064985 
154.122406 0.335223 
155.894409 0.027371 
155.954849 0.092184 
156.945694 0.106544 
156.954269 0.040409 
156.996719 0.02375 
157.160385 0.048872 
157.89119 0.068333 
157.951767 0.473268 
158.942169 0.038505 
158.953476 0.06099 
159.013153 0.878807 
159.434296 0.060649 
165.504807 0.052336 
167.287643 0.043945 
169.537018 0.032427 
170.096619 0.029456 
170.153824 100.0 
170.961716 0.033791 
171.09169 0.025706 
171.14975 0.733923 
171.157227 18.161003 
172.096237 0.033781 
172.111984 0.959703 
172.160294 0.480082 
172.169205 0.032461 
172.205765 0.03947 
172.913269 0.056583 
173.0784 95.690552 
173.107208 1.171317 
173.132385 9.484613 
173.904419 0.159843 
174.081802 2.479512 
174.127045 0.064024 
174.135727 0.028539 
174.148849 0.480838 
174.902313 0.160851 
175.90062 0.064419 
177.454483 0.026041 
179.131424 0.069644 
183.918884 0.077711 
186.390762 0.049286 
187.560944 0.06508 
187.71167 0.072779 
188.92775 0.065191 
188.942993 0.02626 
189.926132 0.124124 
189.942047 0.084619 
190.924698 0.028422 
193.858383 0.074637 
END IONS

