BEGIN IONS
PEPMASS=423.0
CHARGE=1+
COMPOUNDNAME=Massbank:KO002468 Blasticidin S
LIBRARYQUALITY=3
SMILES=NC(=N)N(C)CC[C@@H](N)CC(=O)N[C@@H](C=2)[C@@H](C(O)=O)O[C@H](C2)N(C=1)C(=O)N=C(N)C1
INCHIKEY=CXNPLSGKWMLZPZ-QOBDMFJFSA-N
INCHI=1S/C17H26N8O5/c1-24(16(20)21)6-4-9(18)8-12(26)22-10-2-3-13(30-14(10)15(27)28)25-7-5-11(19)23-17(25)29/h2-3,5,7,9-10,13-14H,4,6,8,18H2,1H3,(H3,20,21)(H,22,26)(H,27,28)(H2,19,23,29)
MSLEVEL=2
SOURCE_INSTRUMENT=ESI-LC-ESI-QQ
FILENAME=Massbank_ESI_positive_8_1_2014_peaks.mgf
SEQ=*..*
IONMODE=Positive
ORGANISM=MASSBANK
NAME=Massbank:KO002468 Blasticidin S [M+H]+
PI=Putative Massbank Match
DATACOLLECTOR=Massbank
PUBMED=N/A
SUBMITUSER=mwang87
TAGS=
SPECTRUMID=CCMSLIB00000217431
SCANS=8270
163.1 727723.5 
179.9 158416.0 
185.3 257426.0 
203.1 34653.5 
207.0 54455.5 
217.4 153465.5 
229.4 123762.5 
243.4 44554.5 
244.7 49505.0 
253.2 24752.5 
260.7 49505.0 
261.2 787129.5 
265.1 34653.5 
268.3 14851.5 
281.2 19802.0 
283.0 14851.5 
293.4 34653.5 
305.2 118812.0 
306.3 292079.5 
308.9 24752.5 
312.5 321782.5 
323.5 24752.5 
334.3 9901.0 
347.5 277228.0 
363.4 108911.0 
378.2 14851.5 
387.2 34653.5 
423.6 15108926.0 
END IONS

