BEGIN IONS
PEPMASS=343.115
CHARGE=1+
COMPOUNDNAME=MYCOPHENOLIC ACID
LIBRARYQUALITY=3
SMILES=N/A
INCHIKEY=HPNSFSBZBAHARI-RUDMXATFSA-N
INCHI=InChI=1S/C17H20O6/c1-9(5-7-13(18)19)4-6-11-15(20)14-12(8-23-17(14)21)10(2)16(11)22-3/h4,20H,5-8H2,1-3H3,(H,18,19)/b9-4+
MSLEVEL=2
SOURCE_INSTRUMENT=N/A-ESI-QFT
FILENAME=library_mgf.mgf
SEQ=*..*
IONMODE=positive
ORGANISM=MONA
NAME=MYCOPHENOLIC ACID [M+Na]+
PI=MoNA
DATACOLLECTOR=MoNA:VF-NPL-QEHF011298
PUBMED=N/A
SUBMITUSER=mwang87
TAGS=
SPECTRUMID=CCMSLIB00004702361
SCANS=11298
50.12299 2.743855 
50.64856 6.547329 
50.655712 4.508255 
50.755356 13.026913 
50.936436 5.430839 
51.123913 15.587801 
51.293049 5.376815 
51.945644 5.553367 
52.612671 15.710886 
52.704655 7.67544 
52.975906 20.727913 
53.756115 9.017599 
54.059654 3.535031 
54.156464 6.893985 
54.360332 16.434298 
54.869774 4.176438 
55.377224 10.65268 
56.462814 6.507369 
56.473446 3.554378 
56.583096 15.543462 
56.590328 7.940251 
57.352993 16.386541 
57.957485 13.380087 
58.587555 11.088426 
59.405273 12.507615 
59.768265 4.161554 
59.940784 3.244854 
60.1031 3.463905 
60.164234 6.370339 
60.218819 14.103828 
60.529388 3.633305 
60.800346 7.839798 
62.509392 4.855785 
62.537205 3.604275 
63.412804 4.921375 
63.914326 13.456521 
64.254829 10.794895 
64.814331 16.763878 
64.855324 6.403937 
65.634789 17.709976 
66.196793 3.202037 
66.537354 18.842625 
67.417229 14.955159 
67.849678 13.996787 
68.337837 3.788677 
68.462608 3.57518 
68.545982 6.048308 
69.476318 11.155042 
69.767204 7.985864 
70.36396 13.978641 
70.583115 4.564757 
71.350571 3.524761 
72.41404 13.794692 
72.827148 18.212282 
73.52388 7.026122 
73.844269 3.28159 
74.123146 8.010873 
74.198212 4.375937 
74.313927 5.82474 
74.680183 13.785047 
74.952599 12.03351 
75.125015 13.480309 
77.043365 7.859137 
77.600708 5.063539 
78.338379 16.199385 
79.100952 10.054178 
80.143204 3.4295 
81.666527 8.535384 
82.233246 9.819151 
82.309036 10.722516 
82.642822 6.21539 
83.424347 3.840274 
83.478836 15.2453 
84.429138 13.879863 
85.192268 7.939395 
85.650063 6.365314 
86.441559 3.375443 
86.935623 4.404222 
87.576729 14.397632 
90.280441 11.425968 
90.635345 5.792896 
90.676857 4.768624 
90.810287 4.216968 
91.165001 5.033695 
92.066093 5.313617 
92.122932 5.095253 
94.511284 5.97506 
95.166847 13.750501 
96.037048 6.002156 
96.704514 5.475692 
96.797508 13.325875 
97.05764 5.046373 
98.132126 11.187452 
98.332809 6.642058 
98.491478 3.350749 
98.550819 15.169751 
100.071877 11.115564 
100.999207 13.392729 
101.798439 6.450615 
102.263832 9.658378 
102.671982 14.730196 
102.892998 10.032815 
103.078056 5.62746 
104.523933 3.656096 
104.605904 16.81909 
105.002983 15.56347 
105.253395 5.030197 
107.397102 9.180264 
107.681496 3.748958 
107.709785 6.396319 
107.862877 9.39495 
110.12886 4.931451 
110.72644 3.0629 
111.240387 17.636372 
111.903999 10.194804 
112.029922 17.169905 
113.600586 17.60198 
113.643608 3.954216 
113.899696 12.216172 
114.200462 13.485695 
114.405869 3.125918 
114.432129 11.544428 
115.258781 3.820854 
119.383934 10.365356 
121.573509 7.846785 
121.759193 17.945389 
122.762375 4.670685 
122.935539 5.948838 
126.255669 19.177305 
128.605392 12.639267 
129.162048 17.195181 
129.582809 10.507586 
130.929474 7.127052 
131.441498 15.723394 
131.870697 4.261005 
132.889374 6.463859 
134.55275 17.488731 
135.843445 5.301206 
137.930542 14.105058 
137.996643 9.187494 
138.357971 6.441406 
138.406631 13.422343 
138.456543 14.811951 
139.017044 5.007451 
139.232971 14.334478 
139.252457 4.002572 
139.692825 8.478201 
140.391937 7.08301 
140.796768 4.633082 
142.385635 7.188546 
142.485703 4.417808 
144.105789 4.062749 
146.012863 13.725745 
146.99939 11.185952 
147.005783 11.36674 
148.012711 8.310168 
148.45787 15.638162 
151.122223 3.206966 
153.945724 9.060345 
154.104279 11.437889 
155.430359 4.661038 
156.165619 4.56292 
159.594223 15.926909 
161.372009 6.653822 
163.518402 17.864923 
171.523102 5.593321 
172.185364 18.427822 
176.774017 17.791801 
179.044083 5.398629 
183.546844 6.230532 
184.894775 5.444436 
192.610794 4.702444 
192.900513 9.995584 
195.151047 15.148079 
200.202347 6.30994 
200.950104 4.948239 
206.141235 6.933162 
212.07605 14.323847 
213.156158 4.111706 
217.511139 9.915335 
219.050262 8.308276 
219.906036 57.280239 
219.919998 100.0 
219.933151 54.1343 
219.956924 9.696924 
229.024582 21.547447 
251.776245 5.928367 
254.468384 15.763781 
255.588043 9.230238 
262.439728 11.379483 
264.497406 3.269695 
265.58609 17.545656 
273.815521 5.04643 
284.388763 10.454767 
287.493164 12.58214 
293.16391 4.704909 
295.047516 8.689377 
313.092926 9.281689 
314.965454 13.901017 
321.900269 4.714448 
323.440887 5.748013 
328.423798 20.667843 
341.696075 16.283737 
342.691833 10.722629 
348.735474 13.423108 
349.428864 9.89672 
349.980621 6.816851 
352.393494 15.203093 
353.140564 16.473621 
356.850098 15.847656 
357.65567 3.398498 
END IONS

