BEGIN IONS
PEPMASS=348.181
CHARGE=1+
COMPOUNDNAME=Gibberellin A4&A7
LIBRARYQUALITY=3
SMILES=N/A
INCHIKEY=SEEGHKWOBVVBTQ-UKJRIFTCSA-N
INCHI=InChI=1S/C19H22O5/c1-9-7-18-8-10(9)3-4-11(18)19-6-5-12(20)17(2,16(23)24-19)14(19)13(18)15(21)22/h5-6,10-14,20H,1,3-4,7-8H2,2H3,(H,21,22)/t10-,11-,12+,13-,14-,17+,18+,19-/m1/s1
MSLEVEL=2
SOURCE_INSTRUMENT=N/A-ESI-QFT
FILENAME=library_mgf.mgf
SEQ=*..*
IONMODE=positive
ORGANISM=MONA
NAME=Gibberellin A4&A7 [M+NH4]+
PI=MoNA
DATACOLLECTOR=MoNA:VF-NPL-QEHF006598
PUBMED=N/A
SUBMITUSER=mwang87
TAGS=
SPECTRUMID=CCMSLIB00004697661
SCANS=6598
50.044468 0.021179 
50.580128 0.012058 
50.631962 0.02443 
50.880871 0.010382 
50.926292 0.018836 
50.947559 0.016532 
51.11124 0.015724 
51.263191 0.013049 
51.81702 0.015516 
51.851009 0.017355 
51.910309 0.021126 
52.421707 0.011815 
53.188267 0.017191 
53.402596 0.012618 
54.530064 0.020892 
54.751602 0.021712 
54.834183 0.015932 
55.018684 0.243357 
55.055019 0.857294 
56.05032 0.088473 
56.213402 0.018715 
56.527851 0.015536 
56.650642 0.016776 
57.033035 0.013819 
57.034328 0.614379 
57.070656 2.363507 
57.375149 0.020556 
58.065887 4.223912 
58.306389 0.011884 
58.416225 0.019172 
58.768093 0.011717 
59.049931 0.273551 
59.061161 0.048265 
59.696667 0.013157 
59.991249 0.012656 
60.045151 1.617352 
60.128239 0.016524 
60.681919 0.014308 
60.752083 0.010921 
61.011539 0.035824 
61.632221 0.016784 
61.75404 0.022535 
61.82058 0.022768 
61.969322 0.013005 
62.001766 0.018219 
62.019287 0.014485 
62.451694 0.014518 
62.463238 0.019863 
62.982437 0.409212 
63.09441 0.013452 
63.970406 0.014448 
64.751068 0.012875 
65.643646 0.01818 
66.631294 0.014547 
67.040512 0.013618 
67.054955 1.744969 
67.431541 0.011636 
67.515923 0.016103 
67.580452 0.021956 
68.066589 0.017383 
69.034203 0.224398 
69.070557 1.671955 
69.309273 0.019507 
69.90358 0.021513 
70.041161 0.01748 
70.065857 0.202083 
70.185577 0.01944 
70.814087 0.015496 
71.049881 0.517014 
71.086174 2.432872 
71.293472 0.014131 
71.37001 0.016105 
71.411865 0.015759 
72.045296 0.034135 
72.081497 0.492039 
72.659828 0.017821 
73.041039 0.016425 
73.065582 0.032183 
73.410004 0.015516 
74.060692 0.020105 
74.097107 0.565953 
74.441811 0.019709 
75.318916 0.021862 
75.796913 0.01177 
76.076561 0.013183 
76.980141 0.016243 
77.263885 0.012891 
77.29393 0.017697 
77.563766 0.018927 
78.325027 0.026565 
78.693283 0.024007 
78.811226 0.012804 
79.021843 0.651734 
79.054825 1.27552 
80.023811 0.262819 
81.034225 0.036992 
81.07045 4.06068 
81.334953 0.013739 
81.503487 0.016334 
82.027016 0.111353 
82.07386 0.102689 
83.049767 0.840047 
83.086098 1.694377 
83.708664 0.0203 
83.830894 0.01521 
83.90345 0.015761 
84.081322 0.107022 
84.109352 0.018327 
84.6549 0.015854 
84.898705 0.017995 
85.029007 0.185658 
85.040337 0.037358 
85.065315 0.803542 
85.10173 0.855111 
86.060501 0.012987 
86.096977 0.692207 
86.124504 0.019127 
87.044678 0.506318 
88.022026 0.036541 
88.039925 0.019126 
88.076286 0.239191 
88.592354 0.020022 
89.060219 2.670452 
90.063576 0.033418 
90.911148 0.013452 
90.954384 0.019141 
91.05471 4.843774 
91.477013 0.019256 
91.690506 0.013519 
92.058105 0.183884 
93.070335 3.087963 
93.792419 0.012098 
94.073807 0.056893 
95.049545 0.612335 
95.085991 4.17836 
95.350563 0.015183 
95.728188 0.018678 
96.018593 3.716681 
96.05323 0.015956 
96.089439 0.11247 
96.427895 0.012159 
96.718483 0.024265 
96.923569 0.013294 
97.021851 0.01868 
97.028931 0.058401 
97.06517 0.920647 
97.101601 1.230066 
98.06057 0.02101 
98.096825 0.021771 
99.044556 0.230397 
99.080856 1.188941 
100.076126 0.607419 
100.112595 0.024938 
100.654449 0.016674 
101.003616 0.025232 
101.06015 0.297248 
102.273369 0.018501 
102.280418 0.018811 
103.021606 0.014955 
103.054428 0.034648 
103.172577 0.021204 
103.746925 0.012085 
105.033852 0.035907 
105.070229 2.299885 
105.765549 0.020737 
106.023727 0.013751 
106.073601 0.044334 
106.086174 0.021319 
107.049484 0.406072 
107.070557 0.018634 
107.085861 2.878086 
108.089211 0.059979 
109.026222 0.975829 
109.065125 1.082799 
109.101479 2.817533 
109.434982 0.017038 
110.06031 0.064753 
110.096512 0.023871 
110.104836 0.053294 
110.354599 0.011881 
110.509712 0.015397 
110.977203 0.021167 
111.044342 1.87183 
111.08078 0.805683 
111.117188 0.107494 
111.510826 0.01667 
112.076118 0.033739 
112.386482 0.014707 
112.433067 0.019029 
113.059998 0.604722 
113.096519 0.111481 
115.075699 0.018945 
116.05307 1.314992 
116.071022 0.023131 
117.070091 2.335482 
118.073578 0.042758 
118.086418 0.318529 
119.046967 0.81183 
119.052177 0.021228 
119.085716 6.491768 
119.572304 0.025226 
120.081009 2.241851 
120.089096 0.481412 
121.064934 1.418833 
121.101372 2.535867 
121.106209 0.025576 
121.119347 0.017901 
122.05999 0.014444 
122.081665 0.038805 
122.096169 0.016008 
122.104485 0.058278 
123.044167 0.12362 
123.080612 1.108837 
123.091827 0.063201 
123.116989 0.642479 
123.267807 0.022627 
123.413597 0.015945 
124.039581 0.092938 
124.075867 0.076068 
124.112251 0.01608 
125.059837 0.687171 
125.09626 1.297895 
126.055206 0.01747 
126.091515 0.642522 
126.288033 0.014003 
127.075462 0.086332 
127.111801 0.067547 
127.49292 0.016165 
128.063019 0.01511 
128.070618 0.038804 
128.663101 0.013543 
129.054718 0.037356 
129.070114 0.415402 
130.159058 4.932891 
131.04924 0.189171 
131.085541 1.883462 
131.162354 0.131192 
132.830399 0.014305 
133.06488 2.870433 
133.085953 0.237329 
133.101227 2.415873 
134.06955 0.16065 
134.096863 0.013797 
134.104538 0.077054 
134.127701 0.018304 
134.978851 0.088638 
135.041595 3.223975 
135.080505 2.210368 
135.085449 0.025098 
135.116821 1.51965 
136.049515 3.640067 
136.061874 0.065468 
136.075836 0.082778 
136.112061 0.416557 
136.119965 0.018551 
136.882538 0.0116 
137.052887 0.070246 
137.059769 0.469424 
137.0961 0.911943 
137.132339 0.038836 
138.091263 0.043279 
139.075378 2.099317 
139.111649 0.181203 
140.034348 0.022689 
140.070557 0.016199 
141.069839 0.02617 
141.090942 0.072716 
141.127426 0.091199 
142.077881 0.011851 
142.086166 0.293329 
142.149658 0.018739 
142.15918 0.040182 
143.070587 0.017338 
143.08551 1.513705 
143.106949 0.015303 
144.088898 0.071139 
144.101929 0.117463 
145.064957 0.211674 
145.10112 1.840559 
146.059479 0.040736 
146.104736 0.066169 
146.97435 0.022733 
147.080521 0.729705 
147.116806 1.576627 
147.787888 0.012506 
148.074905 0.023978 
148.120667 0.034354 
149.057709 1.148303 
149.09613 1.052646 
149.132477 0.483752 
150.040482 0.305284 
150.091492 0.067781 
150.099915 0.014961 
151.001022 0.021951 
151.037506 0.017966 
151.075439 0.659284 
151.096527 0.286651 
151.111664 0.927778 
151.14769 0.02632 
152.070374 0.014781 
152.107178 0.071968 
152.989365 0.198034 
153.054672 0.066795 
153.090988 1.279918 
153.12735 0.017436 
154.049744 0.04323 
154.060349 0.034759 
154.086502 0.087669 
154.426453 0.018261 
155.031448 1.047828 
155.070236 0.045215 
155.085495 0.883808 
155.106766 0.082645 
155.653687 0.025877 
156.088638 0.015987 
156.13829 0.109405 
156.273453 0.01192 
157.064865 0.11322 
157.08609 0.06309 
157.101212 1.271075 
158.103806 0.018148 
158.338608 0.02254 
158.981049 0.020698 
159.08046 0.511978 
159.116852 1.27721 
160.120438 0.017876 
160.989655 0.017819 
161.018433 0.079033 
161.059479 0.119476 
161.083115 0.015362 
161.096039 0.939361 
161.132477 0.544286 
162.054871 0.020885 
162.062851 0.016306 
162.091476 0.18657 
162.12767 0.02076 
162.166458 0.022961 
162.238419 0.014756 
163.03653 2.415356 
163.073792 1.451696 
163.11171 0.769935 
163.148376 0.035135 
164.080978 0.081744 
164.106674 0.031005 
164.718643 0.016092 
165.054352 0.108042 
165.091034 1.053539 
165.127396 0.098 
165.479095 0.026719 
165.997375 0.017559 
166.086334 0.180903 
167.07019 0.670433 
167.085617 0.128723 
167.106552 0.289905 
167.117966 0.025273 
167.439819 0.015875 
167.758926 0.019985 
167.892075 0.021273 
168.065765 0.062334 
169.086227 0.039052 
169.101028 0.846613 
169.122375 0.093233 
170.099854 0.01752 
171.080429 0.254607 
171.102112 0.030048 
171.116623 0.848517 
172.115021 0.090416 
173.060699 0.024835 
173.096146 0.719141 
173.117554 0.331934 
173.132477 0.843043 
174.135773 0.01643 
174.973083 0.020471 
175.075104 0.558823 
175.085846 0.017907 
175.096527 0.09174 
175.111816 0.706496 
175.148071 0.079598 
175.519684 0.021358 
176.107056 0.032137 
176.115463 0.019768 
177.052338 1.126417 
177.090958 0.739468 
177.101944 0.128013 
177.127365 0.217207 
178.060089 4.33027 
178.086121 0.119443 
178.122604 0.117399 
179.0681 0.734562 
179.08551 0.510621 
179.106766 0.53352 
179.143204 0.051988 
180.088867 0.014351 
180.101837 1.355477 
181.085709 0.171098 
181.101089 2.210317 
181.122284 0.14066 
181.371582 0.014678 
182.042633 0.149283 
182.081223 0.577565 
182.104599 0.100602 
182.117783 0.03928 
183.08049 0.037731 
183.116867 1.431108 
183.174667 0.066306 
184.120148 0.029466 
185.031418 0.01567 
185.080414 0.045983 
185.09613 1.773091 
185.11702 0.014707 
185.132553 0.77936 
185.827255 0.018831 
186.099487 0.067267 
187.07518 0.571946 
187.11174 0.630882 
187.148026 0.417605 
188.070419 0.022594 
188.107101 0.038446 
188.115631 0.017073 
189.053833 0.01603 
189.091049 0.499279 
189.112076 0.187291 
189.127319 0.232341 
189.164261 0.017732 
190.08609 0.07101 
190.122375 0.063037 
191.001038 0.017344 
191.068024 2.01931 
191.10672 0.810773 
191.999359 0.016858 
192.066879 0.015824 
192.075684 3.533849 
192.101715 0.04519 
192.110184 0.01787 
192.138062 0.015703 
192.280731 0.022802 
192.962418 0.018771 
193.084106 0.630343 
193.101135 0.987992 
193.122314 0.377892 
194.10405 0.041039 
195.065445 0.01963 
195.080536 0.070691 
195.101471 0.039474 
195.116806 1.621661 
195.751465 0.022711 
196.120682 0.108386 
196.132599 0.019621 
197.079117 0.025305 
197.096161 0.502595 
197.132492 1.543289 
198.135635 0.02373 
198.246124 0.023066 
199.075317 0.114008 
199.111725 0.518268 
199.132767 0.077964 
199.148178 0.452696 
200.429047 0.014944 
201.061111 0.486861 
201.090836 0.531982 
201.127319 0.760656 
201.16394 0.116362 
202.086594 0.018266 
202.122528 0.591994 
203.069382 0.054756 
203.106308 1.019907 
203.11676 0.025858 
203.12677 0.018146 
203.142929 0.814854 
203.693787 0.022645 
204.08757 1.29584 
204.101547 0.065905 
205.085983 0.084009 
205.122391 0.918072 
205.134079 0.018904 
205.158539 0.018671 
206.082687 0.212428 
206.11734 0.06986 
206.9776 0.085612 
207.101929 0.135466 
207.115997 0.132467 
208.553574 0.016329 
208.978928 0.019264 
209.096085 0.258889 
209.117935 0.035919 
209.132492 0.510307 
210.135986 0.019305 
211.075211 0.018444 
211.111816 0.815256 
211.137115 0.015189 
211.148026 0.890098 
211.205704 0.881016 
212.151962 0.019353 
212.209366 0.029103 
212.237167 1.556207 
212.992462 0.124545 
213.091187 0.225363 
213.127289 0.707955 
213.147247 0.018608 
213.163681 0.471248 
213.240097 0.052289 
214.131851 0.01684 
214.167572 0.032429 
214.252609 0.170789 
214.663239 0.207021 
214.67778 0.84256 
214.690765 0.339694 
215.070251 0.014522 
215.106598 0.409231 
215.125732 0.668446 
215.143051 0.205466 
216.065079 0.016063 
217.085632 0.060876 
217.121094 0.91401 
218.081146 0.05246 
218.117371 0.105891 
218.141724 0.033175 
218.728485 0.022667 
219.100967 0.255444 
219.174271 76.235229 
220.004257 0.018542 
220.03392 0.022345 
220.096664 0.176621 
220.132828 0.155576 
220.177658 11.194561 
221.096481 0.043011 
221.11673 0.056178 
221.132263 0.513644 
221.1539 0.038731 
221.180405 0.134369 
221.582642 0.013933 
222.112442 0.802144 
222.13591 0.023321 
223.092926 0.02218 
223.111816 0.560755 
223.14801 8.129201 
224.151382 1.493906 
225.091064 0.407426 
225.127304 0.555416 
225.163971 0.072299 
225.863327 0.016371 
226.166885 0.016686 
226.216339 0.10938 
227.071274 0.019113 
227.106598 0.590809 
227.142975 0.399069 
227.179398 1.345319 
227.219589 0.052842 
228.183136 0.098877 
228.232208 0.08031 
229.07338 0.022452 
229.085114 0.043301 
229.12233 0.478876 
229.143478 0.481727 
229.157883 0.170629 
229.195114 2.32172 
229.206436 0.01615 
229.605042 0.020523 
230.116913 0.164682 
230.198486 0.342545 
231.101028 0.255148 
231.13765 0.349669 
231.174423 0.332011 
231.686783 0.015624 
232.096649 0.020881 
232.132507 0.021772 
232.178665 0.014305 
233.066696 0.015448 
233.079651 0.019977 
233.11676 0.244716 
233.153442 0.069734 
234.074982 0.038006 
234.086365 0.014348 
234.112503 0.018973 
235.045441 0.139783 
235.095078 0.053013 
235.110443 0.035241 
235.131866 0.19417 
236.02951 0.338853 
236.128403 0.024737 
237.025284 0.015602 
237.09111 0.018758 
237.110016 0.350973 
237.127167 0.296436 
237.163773 1.606037 
237.277969 0.022076 
238.167755 0.09466 
239.106384 0.652224 
239.142944 1.958161 
239.179321 2.185177 
240.146881 0.094054 
240.182892 0.152554 
240.268524 0.16736 
241.085526 0.045025 
241.121979 0.756599 
241.158813 0.426737 
241.195053 1.169946 
242.198761 0.025722 
243.101379 0.081598 
243.13765 0.428341 
243.174057 0.043078 
244.133652 0.047478 
244.9785 0.341665 
245.115875 0.508232 
245.15332 0.080182 
245.190002 1.109646 
245.342529 0.015074 
246.087143 0.037583 
246.135864 0.563347 
246.148758 0.020727 
247.145798 0.059086 
247.168579 0.131952 
248.089203 0.359251 
248.111542 0.065361 
248.127411 0.023778 
249.110352 0.142872 
249.126282 0.406922 
249.163239 0.019882 
249.184723 1.773666 
249.886154 0.02188 
250.071045 0.092838 
250.188278 0.150453 
251.106003 0.137928 
251.1427 2.614914 
252.146194 0.3685 
252.159988 0.019687 
253.085495 0.017116 
253.121796 0.113844 
254.045731 0.066955 
254.24762 0.839927 
255.00531 0.014164 
255.101685 0.093954 
255.138138 0.686583 
255.174118 4.732833 
255.2509 0.030343 
256.177704 0.714905 
256.263428 0.842193 
257.117035 0.115075 
257.153381 0.542998 
257.189911 1.89794 
257.266968 0.026508 
257.986145 0.233838 
258.158661 0.014875 
258.194336 0.085193 
259.132538 0.053401 
259.168976 0.110325 
260.127167 0.018888 
262.143646 1.208575 
265.121796 0.14121 
265.158234 0.826183 
267.101715 0.092612 
267.137848 3.781847 
267.174164 1.05162 
267.194885 0.076724 
268.141479 0.463916 
268.177948 0.02117 
269.11676 0.239301 
269.15329 0.401699 
269.189789 0.018399 
271.09491 0.168389 
271.131927 0.104498 
271.168762 0.116153 
272.127808 0.01896 
272.164215 0.06571 
273.110077 0.179884 
273.148071 0.041343 
273.184753 3.393294 
274.143829 0.018509 
274.188354 0.503567 
274.894531 0.019074 
275.143585 0.018674 
275.163849 0.069797 
276.194061 0.02012 
277.122314 0.01583 
277.179352 0.046367 
279.100983 0.097222 
283.131866 0.225057 
283.169128 8.161245 
284.133972 0.020223 
284.172638 1.738275 
285.027344 0.025096 
285.093353 0.017203 
285.146851 3.603887 
285.167542 0.017928 
285.184814 3.110385 
286.017426 0.480718 
286.149872 0.482796 
286.180115 0.18246 
287.025421 1.303435 
287.125824 0.055979 
287.162201 0.922093 
287.179199 0.024465 
287.199982 0.096116 
288.028503 0.049184 
288.057587 0.019918 
288.121674 0.037418 
288.15921 0.085769 
288.195038 0.054443 
289.121613 0.020147 
289.154846 0.786299 
289.179657 0.077413 
290.138031 0.017774 
291.134827 0.020527 
293.153381 0.064635 
293.357025 0.017805 
295.132721 3.470976 
296.135956 0.482221 
297.111542 0.024931 
298.31076 0.020888 
301.141632 0.26193 
301.162689 0.075231 
301.179413 3.96505 
301.215637 0.14863 
302.182953 0.552584 
302.211151 0.064633 
303.156311 0.663133 
303.176819 0.01576 
303.194855 1.151658 
304.11261 0.019477 
304.19162 0.136033 
304.376862 0.018142 
305.154877 0.217931 
305.172668 0.238827 
305.208466 0.130137 
306.169647 0.015584 
307.106293 0.012478 
307.164978 0.630084 
308.16861 0.017486 
310.843414 0.189097 
311.163635 0.42341 
311.198944 0.033742 
312.158875 0.073561 
312.838837 0.610969 
313.143311 1.006377 
313.179443 0.76239 
313.215759 0.046445 
314.145538 0.038057 
314.175079 0.75901 
315.120605 0.260651 
315.157684 0.083849 
315.177521 0.956331 
316.117798 0.025371 
316.155762 0.052386 
316.175842 3.24324 
316.904358 0.017963 
317.119202 0.031472 
317.136444 0.043413 
317.17865 0.396214 
318.131989 0.018814 
318.170197 0.049287 
320.219452 0.020138 
321.201569 0.020601 
327.824402 0.027963 
328.191467 0.020132 
329.119171 0.446481 
329.137451 1.638432 
329.154846 0.117007 
329.173676 1.443908 
329.210815 0.309067 
330.136749 0.208187 
330.15799 0.042063 
330.172607 0.197359 
330.206238 0.565985 
330.242096 0.046375 
330.27829 0.169359 
331.116699 0.025342 
331.152374 1.419786 
331.187988 1.158909 
331.225983 0.060194 
332.149933 0.084558 
332.185883 0.952539 
332.221649 0.234499 
333.27774 0.045045 
334.843262 0.321241 
336.838684 0.278919 
344.828735 0.083181 
346.021271 0.019353 
346.164642 0.198144 
346.200928 0.21707 
346.237579 0.304044 
346.273163 0.820251 
346.310516 2.817409 
346.347198 1.164158 
346.973694 0.314875 
347.146484 7.687107 
347.182922 8.027205 
347.203369 2.408783 
347.22522 0.260761 
347.254303 0.020653 
347.2742 0.180431 
347.310547 1.40831 
347.350159 0.353758 
348.124115 0.027223 
348.148315 1.364188 
348.181671 2.001514 
348.203064 1.641372 
348.253235 0.926026 
348.289429 2.253069 
348.326202 3.908319 
348.974213 0.016236 
349.132141 0.092441 
349.161713 7.352146 
349.181274 100.0 
349.234802 0.081861 
349.290009 0.132769 
349.328827 0.899594 
350.163116 0.645968 
350.184174 9.179746 
350.233185 0.642794 
350.946228 0.337672 
351.846771 0.045854 
353.841553 0.460637 
367.442902 0.017531 
END IONS

