BEGIN IONS
PEPMASS=282.17
CHARGE=1+
COMPOUNDNAME=Isocycloheximide
LIBRARYQUALITY=3
SMILES=N/A
INCHIKEY=YPHMISFOHDHNIV-UHFFFAOYSA-N
INCHI=InChI=1S/C15H23NO4/c1-8-3-9(2)15(20)11(4-8)12(17)5-10-6-13(18)16-14(19)7-10/h8-12,17H,3-7H2,1-2H3,(H,16,18,19)
MSLEVEL=2
SOURCE_INSTRUMENT=N/A-ESI-QFT
FILENAME=library_mgf.mgf
SEQ=*..*
IONMODE=positive
ORGANISM=MONA
NAME=Isocycloheximide [M+H]+
PI=MoNA
DATACOLLECTOR=MoNA:VF-NPL-QEHF023915
PUBMED=N/A
SUBMITUSER=mwang87
TAGS=
SPECTRUMID=CCMSLIB00004714978
SCANS=23915
50.09676 0.094819 
50.636574 0.083352 
51.097794 0.087915 
51.12022 0.07993 
53.759548 0.059509 
53.825443 0.090144 
54.358959 0.074413 
54.568562 0.096023 
54.721348 0.105961 
55.018166 0.490183 
55.054573 2.874534 
57.033924 0.053929 
57.070145 0.631531 
57.654285 0.066138 
57.944065 0.045243 
57.961941 0.055147 
58.064011 0.082605 
58.924492 0.069289 
59.049633 0.092174 
59.135834 0.04934 
59.491177 0.095879 
59.56559 0.078848 
59.788876 0.079928 
60.044666 1.678594 
60.130665 0.070892 
60.310242 0.071357 
60.638515 0.090916 
61.010902 0.76557 
61.487045 0.02663 
61.717056 0.101656 
62.515347 0.040666 
62.636795 0.068643 
63.686729 0.048491 
63.705399 0.062665 
64.202621 0.063295 
65.038803 0.241939 
65.273956 0.042512 
65.976379 0.061799 
67.054375 2.807855 
68.48703 0.078707 
69.03363 2.537018 
69.070007 5.697458 
69.521523 0.0897 
70.15007 0.113488 
71.049255 0.843203 
73.630966 0.073575 
74.507942 0.082569 
75.052399 0.047358 
75.216408 0.04761 
76.873749 0.09329 
77.671333 0.04922 
77.925102 0.051274 
78.967133 1.206759 
79.052063 0.053636 
79.054276 5.000008 
79.062805 0.066683 
80.207054 0.062999 
81.033577 1.458344 
81.069954 8.066604 
81.613861 0.048139 
81.790222 0.081238 
82.065208 1.375027 
82.073326 0.309592 
82.838882 0.070981 
82.997192 0.047765 
83.049202 6.953837 
83.085602 2.559575 
84.044441 0.4142 
84.052589 0.144241 
84.196793 0.070731 
85.06469 0.109708 
85.103462 0.043389 
87.040306 0.040583 
87.639328 0.100037 
88.368553 0.044765 
89.059761 2.799748 
91.051697 0.067773 
91.054352 3.606716 
92.05761 0.11678 
92.982826 0.103826 
93.033539 0.321163 
93.069992 6.015868 
93.073128 0.081401 
93.146027 0.039659 
94.577202 0.089238 
95.012703 0.425888 
95.049202 6.133557 
95.060143 0.067066 
95.085594 18.680553 
95.887329 0.036454 
96.044464 100.0 
96.088966 1.331836 
97.028496 1.561158 
97.047791 4.885016 
97.050896 0.070026 
97.064857 2.729359 
97.101265 2.731488 
97.412895 0.039004 
98.059891 0.076898 
98.572296 0.084725 
99.044418 0.079573 
100.975121 0.040403 
104.943359 0.04714 
105.069984 8.263753 
105.757561 0.08285 
106.073357 0.292671 
106.998428 1.386027 
107.049225 9.351874 
107.085609 26.192638 
108.052582 0.306094 
108.088844 3.154512 
108.362206 0.095611 
109.064941 1.935217 
109.101257 3.660711 
110.060097 0.716942 
110.104683 0.055939 
110.492622 0.086507 
111.044106 0.456752 
111.080528 1.052655 
112.039375 6.051247 
112.364822 0.085746 
113.023262 0.105321 
113.160522 0.066316 
114.055069 6.173355 
116.052834 0.201101 
116.105965 0.099269 
117.069946 6.581032 
118.073097 0.166573 
119.08564 16.420294 
120.088913 1.797198 
121.028519 11.926557 
121.064865 7.54451 
121.101311 8.747867 
121.302101 0.096967 
122.03183 0.580157 
122.060165 1.089372 
122.06826 0.379292 
122.104538 0.369606 
123.044144 5.598074 
123.080513 40.298691 
123.116875 0.23953 
123.155128 0.03388 
123.379837 0.031029 
124.075806 0.671877 
124.083763 5.143866 
124.23526 0.078496 
125.059807 4.177544 
125.096191 18.602539 
126.055092 2.886391 
126.099495 1.913111 
129.069855 2.0362 
131.049286 0.704549 
131.085648 7.022329 
132.088928 0.55905 
133.064819 2.822195 
133.101227 4.359154 
133.493668 0.090188 
134.060028 0.073155 
134.10437 0.148758 
135.044098 0.894841 
135.080505 5.008936 
135.116882 1.003701 
135.328751 0.090685 
135.563065 0.089067 
136.075745 0.410513 
136.083832 0.171957 
137.059784 0.298888 
137.096161 0.823095 
138.055023 9.244336 
138.091446 0.398739 
139.058243 0.091521 
139.075409 0.431327 
139.11174 0.380019 
140.070679 2.953874 
141.054581 1.384638 
141.069717 0.31048 
142.049866 0.143199 
142.077972 0.622306 
143.070099 0.131269 
143.085602 16.840837 
143.233627 0.044949 
143.725586 0.068598 
144.088928 2.96259 
144.991714 0.093222 
145.058929 0.049524 
145.064911 2.936328 
145.101303 9.848747 
146.067688 0.067006 
146.10463 0.963652 
147.08046 4.068253 
147.116913 1.519556 
147.930542 0.084404 
148.075912 0.528883 
148.083984 0.15272 
149.05986 4.549457 
149.096252 1.321585 
149.132675 1.762601 
150.055054 1.549527 
150.092499 0.080247 
150.098618 0.037263 
150.793442 0.088675 
151.039337 0.156825 
151.075424 0.276055 
152.070724 0.785968 
152.152664 0.089176 
153.054718 2.336227 
153.091461 0.075501 
153.127441 0.069339 
155.080902 0.348774 
155.086151 0.169145 
155.173492 0.032043 
156.065506 20.972235 
157.069046 0.834759 
157.101227 38.851501 
158.10434 6.5094 
159.08049 6.284755 
159.116898 48.31974 
160.075729 0.064732 
160.083893 0.573214 
160.119995 7.673712 
161.096024 6.72595 
161.123398 0.047896 
161.132568 2.884169 
162.091354 0.338097 
162.099518 0.437965 
163.075302 3.330596 
163.11171 6.543704 
163.14801 0.245531 
164.070862 0.268383 
164.107162 0.060365 
164.115402 0.145773 
164.759415 0.053958 
165.054611 0.3101 
165.09108 3.642048 
166.086761 0.386777 
166.653839 0.084646 
167.070236 0.228295 
167.251114 0.049354 
167.287262 0.069266 
167.298843 0.080793 
168.065811 0.741607 
168.093338 1.360277 
169.101273 12.550509 
170.096512 2.816653 
170.10463 2.475217 
170.960419 0.419845 
171.080399 1.771471 
171.116806 1.739188 
172.088211 0.081192 
173.059723 0.074325 
173.096268 3.872824 
173.132599 23.355904 
174.099564 0.076804 
174.135864 3.996335 
175.075577 1.118455 
175.111771 6.970471 
175.148178 0.734351 
176.078659 0.081521 
176.115143 0.910376 
176.2995 0.069434 
177.091171 1.532752 
177.127426 18.772085 
178.095673 0.089444 
178.122971 0.234924 
178.131073 2.962713 
178.297699 0.090128 
179.106903 0.435583 
180.1017 0.129652 
181.101837 0.089654 
182.601166 0.076096 
183.116974 19.042959 
184.112167 0.604804 
184.120453 4.358425 
185.096176 36.355846 
185.132736 0.463539 
185.951874 0.271536 
186.099396 7.64125 
186.127625 0.957961 
187.075806 0.127341 
187.111801 46.333118 
188.106491 0.271019 
188.115158 8.218074 
189.082672 0.082327 
189.091095 3.751898 
189.127655 0.272859 
190.086166 1.191124 
191.106888 0.41051 
191.143127 4.316258 
192.147614 0.095067 
193.10141 0.276831 
194.152328 0.082317 
194.994812 0.068104 
196.08844 0.132912 
199.111801 2.505725 
200.115448 0.768724 
200.143616 2.381305 
201.091278 0.383179 
201.127548 30.211939 
201.138199 0.280732 
202.131226 6.307074 
203.10675 7.649132 
203.143295 1.713348 
204.110611 2.83478 
204.138428 4.808812 
204.147507 0.094848 
204.320679 0.06732 
205.086395 0.196916 
205.122482 34.953735 
206.024734 0.051324 
206.126083 5.935149 
207.102219 0.072805 
210.127838 0.13452 
211.111938 6.608411 
212.115463 0.701345 
213.394836 0.065793 
215.525192 0.794713 
215.536438 2.168345 
216.441711 0.03011 
217.122559 1.112579 
218.154236 3.846017 
219.138199 16.268814 
219.158295 0.047686 
220.132935 2.071045 
220.142654 2.006429 
221.117157 0.838538 
221.136749 0.245795 
227.106964 0.103448 
228.056274 0.055823 
228.138397 5.608886 
229.122452 39.427078 
229.142349 0.431135 
230.126114 8.082306 
231.129639 0.117045 
236.165314 0.150062 
237.148911 0.401106 
241.966446 0.087102 
245.117386 0.87702 
246.120392 0.277442 
246.149094 17.734312 
247.133102 31.351255 
247.152466 2.603201 
248.136902 6.605467 
250.472183 0.056063 
262.152405 0.135726 
264.159454 2.374747 
265.143799 0.532662 
265.16275 0.270525 
269.711426 0.029883 
270.794006 0.064793 
274.929626 0.095822 
283.030609 0.061033 
299.061035 0.037193 
END IONS

