BEGIN IONS
PEPMASS=209.092
CHARGE=1+
COMPOUNDNAME=2,4-diacetylphloroglucinol
LIBRARYQUALITY=3
SMILES=N/A
INCHIKEY=PIFFQYJYNWXNGE-UHFFFAOYSA-N
INCHI=InChI=1S/C10H10O5/c1-4(11)8-6(13)3-7(14)9(5(2)12)10(8)15/h3,13-15H,1-2H3
MSLEVEL=2
SOURCE_INSTRUMENT=N/A-Linear Ion Trap
FILENAME=library_mgf.mgf
SEQ=*..*
IONMODE=negative
ORGANISM=MONA
NAME=2,4-diacetylphloroglucinol M-H
PI=MoNA
DATACOLLECTOR=MoNA:VF-NPL-LTQ001703
PUBMED=N/A
SUBMITUSER=mwang87
TAGS=
SPECTRUMID=CCMSLIB00004685866
SCANS=1487
149.029999 11.198028 
191.039993 100.0 
END IONS

