BEGIN IONS
PEPMASS=353.179
CHARGE=1+
COMPOUNDNAME=GRISEOFULVIN
LIBRARYQUALITY=3
SMILES=N/A
INCHIKEY=DDUHZTYCFQRHIY-RBHXEPJQSA-N
INCHI=InChI=1S/C17H17ClO6/c1-8-5-9(19)6-12(23-4)17(8)16(20)13-10(21-2)7-11(22-3)14(18)15(13)24-17/h6-8H,5H2,1-4H3/t8-,17+/m1/s1
MSLEVEL=2
SOURCE_INSTRUMENT=N/A-Linear Ion Trap
FILENAME=library_mgf.mgf
SEQ=*..*
IONMODE=positive
ORGANISM=MONA
NAME=GRISEOFULVIN M+H
PI=MoNA
DATACOLLECTOR=MoNA:VF-NPL-LTQ006142
PUBMED=N/A
SUBMITUSER=mwang87
TAGS=
SPECTRUMID=CCMSLIB00004689647
SCANS=5268
195.919998 0.644127 
199.869995 3.246832 
214.949997 100.0 
251.929993 20.838602 
264.98999 3.922747 
278.98999 0.80204 
END IONS

