BEGIN IONS
PEPMASS=375.061
CHARGE=1+
COMPOUNDNAME=Griseofulvin
LIBRARYQUALITY=3
SMILES=N/A
INCHIKEY=DDUHZTYCFQRHIY-RBHXEPJQSA-N
INCHI=InChI=1S/C17H17ClO6/c1-8-5-9(19)6-12(23-4)17(8)16(20)13-10(21-2)7-11(22-3)14(18)15(13)24-17/h6-8H,5H2,1-4H3/t8-,17+/m1/s1
MSLEVEL=2
SOURCE_INSTRUMENT=N/A-ESI-QFT
FILENAME=library_mgf.mgf
SEQ=*..*
IONMODE=positive
ORGANISM=MONA
NAME=Griseofulvin [M+Na]+
PI=MoNA
DATACOLLECTOR=MoNA:VF-NPL-QEHF001069
PUBMED=N/A
SUBMITUSER=mwang87
TAGS=
SPECTRUMID=CCMSLIB00004692132
SCANS=1069
51.106045 0.042605 
51.155907 0.048535 
51.781044 0.047451 
51.939777 0.035108 
52.429218 0.050569 
52.775841 0.050261 
52.800121 0.046128 
53.039307 0.580195 
55.01857 0.711085 
55.054939 4.543873 
55.625629 0.060302 
56.050186 0.511302 
56.566563 0.055167 
56.965294 0.064472 
57.034195 2.8736 
57.07058 6.361927 
58.065834 2.81741 
59.049835 7.877685 
59.061069 16.979259 
59.89032 0.042144 
60.04509 1.339682 
60.053162 0.106036 
60.064518 0.133553 
60.081409 0.13912 
60.896088 0.042396 
61.011318 1.771196 
61.849297 0.038993 
62.019169 1.95198 
62.060707 0.375153 
62.184715 0.048886 
62.624443 0.058674 
62.648048 0.045769 
62.982414 1.589632 
63.157871 0.047047 
63.410534 0.047189 
63.797321 0.041292 
63.818878 0.04927 
64.36544 0.038301 
65.448746 0.047179 
65.762199 0.037104 
66.876854 0.039319 
66.956055 0.047077 
67.054863 3.385636 
67.666084 0.048016 
68.479065 0.055805 
69.034126 4.72982 
69.070503 5.414329 
70.065765 2.875142 
70.41626 0.041289 
71.049736 4.291418 
71.086143 2.79914 
71.215462 0.040349 
71.396835 0.044413 
71.910446 0.047669 
72.08139 13.989398 
72.937782 0.048242 
73.02903 0.856387 
73.047379 10.797985 
73.065369 3.442789 
73.082535 0.05849 
73.084747 0.223724 
73.95314 0.045707 
74.046982 0.994311 
74.050758 0.465661 
74.060616 0.793639 
75.026726 0.053338 
75.044586 13.360955 
75.331749 0.045353 
76.092674 0.035887 
77.023537 0.055331 
78.362427 0.055193 
79.019516 0.04059 
79.021683 3.319382 
79.054771 8.138736 
79.507271 0.041803 
79.729691 0.053372 
80.050003 1.295281 
80.058067 0.061019 
81.034065 1.073377 
81.070404 10.543929 
81.927109 0.042059 
82.065636 0.206231 
82.073723 0.375074 
82.24173 0.037471 
83.013336 0.063261 
83.04966 2.328555 
83.086052 4.523079 
83.54982 0.049532 
84.04493 0.112212 
84.08123 0.772222 
84.928261 0.044289 
85.028908 1.154455 
85.065269 4.459539 
85.101639 1.095257 
85.526115 0.041309 
85.804527 0.041724 
86.060516 1.401907 
86.09687 1.6651 
86.610275 0.047769 
86.839424 0.051866 
87.044533 18.654078 
88.047852 0.865673 
88.076172 1.385809 
88.997757 0.094272 
89.060158 100.0 
90.063484 4.646845 
90.091927 0.206623 
91.054672 6.427081 
91.05777 30.307079 
91.062767 0.051673 
91.06414 0.040667 
92.057388 4.300866 
92.061111 2.261351 
92.776161 0.043163 
93.037125 0.222276 
93.054634 6.118285 
93.070274 20.810005 
93.115875 0.044717 
93.562241 0.047177 
94.073586 1.369007 
94.404121 0.050258 
95.049522 6.931921 
95.085907 9.886731 
96.044556 0.049667 
96.081047 0.325999 
96.089203 0.146608 
97.028824 0.306095 
97.065201 2.964866 
97.101624 1.915988 
97.15477 0.050057 
97.761208 0.039069 
98.060501 0.243161 
99.044411 1.79459 
99.080788 1.12647 
99.947853 0.054728 
100.076012 0.613544 
100.187805 0.041254 
100.336487 0.04037 
100.538467 0.040536 
101.003601 0.160773 
101.060051 10.737953 
101.214767 0.052081 
102.055305 0.140232 
102.063477 0.243218 
102.091774 0.294098 
102.646301 0.048462 
103.039268 1.444489 
103.05455 1.859222 
103.075676 0.373838 
103.31739 0.042867 
104.042564 0.102176 
104.992516 0.178987 
105.033752 0.134396 
105.044853 0.157072 
105.054977 0.06052 
105.070107 5.17709 
105.073502 0.820151 
106.073395 0.170995 
106.600502 0.049404 
107.049225 0.709566 
107.052872 0.264894 
107.070412 1.075478 
107.085815 6.234358 
107.760788 0.043143 
108.089264 0.057847 
109.028748 0.109948 
109.06501 2.077565 
109.101364 5.971137 
110.06015 0.316414 
110.104408 0.045094 
111.044334 1.216144 
111.080673 13.760261 
111.116905 0.252118 
112.076019 0.073477 
112.083954 0.494801 
112.973404 0.048811 
113.059944 1.912873 
113.096321 0.050623 
114.091499 0.136971 
114.128403 0.052922 
115.03923 0.115689 
115.075432 0.291644 
115.086342 0.042693 
116.070717 0.383491 
116.349556 0.048687 
116.833527 0.053628 
117.054726 1.650933 
117.070038 1.777919 
118.086449 0.492465 
119.049332 0.844865 
119.070618 0.050286 
119.085663 4.91631 
120.044533 0.048629 
120.080894 0.690566 
121.028595 0.354117 
121.064926 29.759403 
121.08609 0.172793 
121.10128 5.19457 
122.068253 2.189691 
122.08136 0.86811 
122.096611 0.119463 
122.104591 0.051267 
123.044197 0.321326 
123.08046 1.566113 
123.116913 2.441869 
124.075912 0.49738 
124.080719 0.052389 
125.059814 0.442428 
125.096123 3.40839 
125.696617 0.04534 
126.091507 0.147933 
126.099312 0.052957 
127.039078 0.054667 
127.075378 0.313237 
127.112198 0.182025 
128.070831 0.076972 
128.612 0.056882 
129.069901 0.770912 
129.946869 0.054869 
130.049576 0.064839 
130.065125 3.222004 
130.086609 0.070447 
131.049286 0.25096 
131.070175 3.41613 
131.085541 0.906415 
132.074097 0.084665 
132.080414 0.095518 
133.064713 3.147056 
133.085876 8.94256 
133.10112 1.553298 
134.089172 0.361073 
134.096191 0.349913 
134.10495 0.067909 
134.9561 0.044632 
134.978683 0.90221 
135.043991 1.839788 
135.080383 2.053833 
135.116714 14.713968 
135.978043 0.040264 
136.075714 0.109759 
136.120117 0.108842 
137.05957 1.861524 
137.096024 1.003013 
137.132462 0.372218 
138.054855 0.606687 
138.09137 0.050013 
138.416153 0.048167 
139.038849 0.196436 
139.07515 0.568829 
139.111572 0.276923 
140.107239 0.048546 
140.118256 0.051998 
141.054245 0.127994 
141.069946 0.257491 
141.090836 0.080946 
141.127274 0.048505 
142.149139 0.040389 
142.289993 0.049264 
143.070053 0.050106 
143.085388 0.530306 
144.065643 0.054314 
144.080627 1.221449 
144.859879 0.047179 
145.064484 0.455459 
145.085648 0.826663 
145.100967 0.542549 
146.060089 0.302344 
146.117722 0.046903 
147.043777 0.369871 
147.080322 1.223953 
147.116592 0.75553 
147.888153 0.045784 
148.07547 0.328435 
148.971664 0.101993 
149.059753 1.271305 
149.096008 0.363309 
149.107117 0.310477 
149.132477 2.050727 
149.854141 0.039907 
150.054398 0.047269 
150.091248 2.932889 
150.950897 0.740668 
151.038971 0.609843 
151.075211 1.109851 
151.096329 4.056049 
151.111588 0.225822 
151.147827 0.135236 
152.070343 0.138433 
152.106873 2.474075 
152.989166 1.287622 
153.054581 0.200986 
153.069916 0.532527 
153.090759 0.282918 
153.127243 2.740987 
154.050339 0.045758 
154.065109 0.846612 
154.078094 0.167086 
155.085327 0.693665 
156.080811 0.421268 
156.138214 0.306214 
156.265823 0.051241 
157.064438 0.123697 
157.101151 0.3757 
158.060059 0.109642 
159.043503 0.040706 
159.080276 0.558974 
159.091522 0.066768 
159.116608 0.182242 
160.075424 0.484258 
161.023224 0.62679 
161.059479 1.267786 
161.096161 0.440039 
161.132248 0.518242 
161.175308 0.057356 
162.054688 0.249173 
162.090958 0.055278 
162.951096 0.09458 
163.038879 1.271663 
163.07518 1.03005 
163.096176 0.447224 
163.148163 0.109588 
164.034271 0.262787 
164.070786 0.056237 
165.054535 4.699309 
165.070084 0.042088 
165.090988 0.930673 
165.127869 0.115172 
165.93808 0.048302 
166.049866 0.131636 
166.077835 0.140941 
166.086151 0.048913 
167.004959 0.552807 
167.033539 0.120362 
167.055389 0.248922 
167.070663 0.405809 
167.085342 0.625278 
167.105286 0.050683 
167.117813 0.390207 
167.143097 0.066718 
167.481766 0.042384 
168.080643 1.51568 
168.962006 0.119785 
169.064774 0.266354 
169.076447 0.282636 
169.101181 0.59593 
169.392563 0.037194 
170.059982 0.302619 
170.096481 0.390042 
170.567947 0.057179 
171.062393 0.254569 
171.080231 0.76648 
171.091629 1.445823 
171.104065 1.01865 
171.117065 0.115924 
172.075241 0.212663 
172.087814 0.134668 
173.011017 0.043256 
173.059662 0.238768 
173.078476 0.056911 
173.095947 0.256139 
173.132401 0.067725 
174.054794 0.506778 
174.091583 0.184728 
174.98941 0.049963 
175.038849 0.531634 
175.063004 0.064312 
175.07518 0.617396 
175.096344 0.619696 
175.11116 0.066812 
175.147903 0.082266 
175.959183 0.075631 
176.033997 0.067345 
176.070618 0.677938 
177.054489 1.230602 
177.090881 0.292153 
177.111908 0.529021 
177.126923 0.164654 
178.049759 1.366376 
178.086304 0.110135 
179.022507 0.062694 
179.033737 3.411897 
179.070129 0.467996 
179.085342 0.343412 
180.065323 0.159509 
181.049591 0.10589 
181.064941 0.703828 
181.088135 0.346451 
181.100967 0.705357 
182.045074 0.042367 
182.07254 0.636198 
182.09642 1.766389 
183.080368 1.38346 
183.090897 0.048867 
183.117004 0.04811 
184.075729 0.215837 
185.059647 0.331769 
185.082474 0.053119 
185.096115 0.778604 
185.106506 0.131341 
185.119598 0.160764 
186.054916 0.548146 
186.091019 0.242154 
187.026337 0.183738 
187.039566 0.054469 
187.075333 0.328614 
188.034195 1.651586 
188.070557 1.875662 
189.018417 0.908155 
189.054413 0.686369 
189.091064 0.112749 
189.163116 0.054918 
190.049652 5.033234 
190.086288 0.253947 
191.033905 0.744246 
191.053406 0.125762 
191.070038 1.006193 
191.105362 0.068836 
191.179291 0.920806 
192.020081 0.049139 
192.028793 0.251993 
192.065384 0.289989 
192.96167 0.638604 
193.049515 2.414823 
193.085953 0.070974 
193.101151 0.254454 
193.121521 0.045519 
194.044403 0.05854 
195.06517 0.357271 
195.080414 1.081763 
195.102325 0.036886 
195.122665 0.318911 
196.018463 0.040226 
196.060104 0.050192 
196.075684 0.281411 
196.087875 0.053972 
196.112015 0.604584 
197.044342 0.617446 
197.059662 0.377323 
197.085312 0.049937 
197.095963 1.78442 
198.054916 2.009956 
198.06752 0.142077 
198.091278 0.813515 
198.127518 0.297779 
199.040451 0.045342 
199.062012 0.191014 
199.075302 1.458284 
199.098907 0.445929 
199.111328 0.39752 
200.070511 1.137795 
200.106522 0.358892 
201.054596 0.550417 
201.065903 0.412652 
201.078415 0.535584 
201.090729 0.40416 
202.049759 3.106277 
202.08606 2.194957 
202.950851 0.050681 
203.033798 0.346 
203.057495 0.425008 
203.070114 1.022102 
203.09407 3.369085 
203.104065 0.098522 
203.126968 0.064803 
204.065414 5.646837 
204.076508 0.454224 
204.098648 0.047241 
204.962097 0.575101 
205.04953 1.563689 
205.070236 0.198181 
205.085892 0.171672 
205.122711 0.06625 
206.02948 0.262548 
206.044754 0.458462 
206.081223 0.77347 
207.028992 0.150519 
207.065201 2.563633 
207.080185 0.131181 
207.100433 0.121599 
207.98555 0.67348 
208.060287 0.208467 
208.09668 0.061254 
208.112091 0.109272 
209.044296 0.524313 
209.059723 0.673621 
209.080963 0.674638 
209.095932 1.09708 
209.115479 0.541508 
209.12851 0.088259 
209.189835 0.492032 
210.091141 1.339257 
210.127502 8.504003 
210.97229 0.157487 
211.060074 0.156335 
211.075424 2.088905 
211.111725 0.365038 
211.132416 0.059895 
212.070496 1.158076 
212.082001 0.120413 
212.106796 0.659329 
212.143295 0.594679 
212.20047 0.078745 
212.992554 0.468652 
213.054367 0.341053 
213.07872 0.453613 
213.090729 2.31089 
213.876114 0.051384 
214.049683 2.211181 
214.086151 1.480272 
214.122803 0.387947 
214.431412 0.908294 
214.44075 1.522796 
214.456985 0.391914 
215.010452 0.055159 
215.033661 0.120339 
215.057297 1.907265 
215.069702 0.832856 
215.089447 0.75714 
215.106415 0.396299 
216.028549 0.185728 
216.065369 1.943966 
216.090637 0.050767 
216.101486 0.989151 
217.049454 0.403764 
217.07309 1.498883 
217.085464 0.418295 
217.105057 0.515582 
218.044357 0.595007 
218.080902 4.679923 
218.944183 0.149826 
219.02858 0.184952 
219.065308 0.974237 
219.087845 0.096289 
219.101791 0.047869 
219.614777 0.062841 
220.06015 6.867624 
220.096313 0.04716 
220.959702 0.318645 
221.044312 1.009236 
221.063568 0.209871 
221.095795 0.327096 
222.075989 1.252218 
222.090408 0.222694 
222.112091 0.044317 
223.023087 0.128388 
223.06015 0.589668 
223.075424 1.404485 
223.111237 0.172844 
223.979462 0.085926 
224.040512 0.085184 
224.069672 0.068499 
224.081802 0.095405 
224.106857 0.994934 
224.143158 0.047079 
225.054337 0.369752 
225.077972 0.230611 
225.090805 2.249906 
225.113388 0.060123 
225.138336 0.144653 
226.04985 0.141315 
226.085876 1.51595 
226.122375 0.772571 
227.05748 1.31534 
227.070175 2.082103 
227.094254 0.447163 
227.10611 7.208788 
228.06546 2.52766 
228.077179 0.051277 
228.101501 1.915431 
229.049194 0.282707 
229.07251 4.030079 
229.085861 2.109224 
229.895172 0.058 
230.044617 0.049306 
230.080872 8.008442 
230.117233 2.120323 
230.980438 0.224677 
231.029404 0.15336 
231.065155 1.367279 
231.08493 0.903792 
231.10141 0.236906 
231.123276 0.10739 
232.060226 1.862548 
232.096527 1.033118 
233.044693 0.217689 
233.068024 0.872722 
233.080811 0.34319 
234.076096 0.884547 
234.112183 0.075346 
234.939377 0.43118 
235.060211 0.637301 
235.07431 0.183106 
235.096786 0.694067 
236.092178 0.296282 
236.10614 0.357668 
236.938339 0.059671 
236.954849 0.827714 
237.054031 0.205526 
237.076187 1.080836 
237.090759 1.205028 
237.138596 0.541857 
237.995499 0.143119 
238.085785 1.576299 
238.122269 0.985948 
239.056381 0.121644 
239.069992 1.121453 
239.092773 0.274569 
239.106125 1.145113 
239.126984 0.065273 
239.149048 0.065603 
240.064804 0.606443 
240.10144 3.240636 
240.137802 0.221635 
240.268478 0.884497 
241.001663 0.063638 
241.049484 0.415278 
241.072739 1.594651 
241.085739 4.147732 
241.109009 2.138893 
241.12178 0.06322 
242.08075 18.049061 
242.117188 8.501475 
243.051758 0.049683 
243.064987 1.470641 
243.087082 3.000444 
243.101257 1.707739 
243.124771 2.21937 
244.060364 3.839611 
244.096451 2.087909 
244.132523 0.434644 
245.043671 0.178198 
245.065948 0.474875 
245.080582 0.633534 
245.100327 0.734871 
245.116653 0.061549 
246.052811 0.132631 
246.07576 13.324784 
246.112839 0.206643 
246.975021 0.13414 
247.059769 0.586777 
247.080963 1.581259 
247.120407 0.319633 
248.055054 3.601786 
248.091278 0.187241 
249.038925 0.115262 
249.058594 0.162118 
249.076645 0.148651 
249.090958 0.111611 
249.138977 0.053228 
249.83107 0.038898 
250.071045 0.51967 
250.085068 0.96739 
250.107101 0.076189 
251.021988 0.135575 
251.056152 0.05324 
251.069565 0.667299 
251.10643 0.0549 
252.041245 0.116012 
252.064545 0.331866 
252.078018 0.140393 
252.101639 1.604121 
252.949478 2.501647 
253.049118 0.120603 
253.071945 0.207591 
253.085617 1.55766 
253.107056 1.089773 
253.121475 0.202142 
254.080658 1.62767 
254.093658 0.057664 
254.11731 3.317823 
255.064651 1.095903 
255.087875 0.235298 
255.101181 3.79374 
255.124222 0.134612 
255.231308 11.308285 
256.060364 0.363074 
256.073395 0.148723 
256.096161 16.347069 
256.133057 0.990587 
256.169495 0.058391 
256.235382 1.384539 
257.000641 0.288971 
257.04422 0.073512 
257.067841 14.350916 
257.080872 1.157434 
257.101868 2.716189 
257.117004 0.518582 
257.140289 0.28915 
257.174866 0.057308 
258.075623 6.802267 
258.08902 0.398013 
258.112091 6.960083 
259.011414 0.177516 
259.059998 0.694774 
259.083374 5.738784 
259.096832 1.352094 
259.116974 1.514612 
260.054718 0.058636 
260.091522 7.919029 
260.12793 1.016719 
260.97348 0.052306 
261.038788 0.048708 
261.096527 0.839936 
261.133392 0.300201 
262.070801 0.080386 
262.107208 1.638584 
263.078613 0.843906 
263.092651 0.077577 
263.153656 0.706632 
264.086273 0.111428 
264.101715 0.925676 
264.15686 0.124609 
265.085205 0.583777 
265.160217 0.384619 
266.080231 0.452289 
266.117462 2.146444 
267.016327 0.135817 
267.064789 0.236633 
267.086945 1.402659 
267.101532 2.089659 
268.096436 2.608474 
268.132843 1.551249 
268.977448 0.062694 
268.995361 0.177041 
269.031982 0.063242 
269.065643 0.107258 
269.080505 1.349694 
269.104156 5.488532 
269.248108 0.062389 
269.266205 0.585226 
270.075592 6.305884 
270.112061 13.656051 
270.147644 0.258744 
270.269745 1.292729 
270.8992 0.303038 
270.975281 0.784518 
271.059265 0.105949 
271.08197 0.412004 
271.096497 1.19022 
271.115723 1.886998 
271.133118 0.053233 
272.05423 0.101059 
272.091827 3.222099 
272.128418 6.036757 
272.142181 0.058854 
273.075775 0.515917 
273.097321 4.727184 
273.11377 2.078531 
273.131226 6.53198 
274.07019 1.08945 
274.106201 3.726161 
274.13446 0.886317 
274.914276 0.747154 
275.006439 0.442281 
275.091949 0.062645 
275.109741 1.769814 
275.126984 0.049242 
276.085938 0.335781 
276.123596 0.066306 
278.079407 0.079942 
279.064117 0.064308 
279.101715 0.11312 
280.096497 1.834316 
280.13324 0.130703 
280.733459 0.065734 
281.080292 0.423603 
281.103149 0.064473 
282.07486 0.123731 
282.111938 7.169927 
282.278931 0.507307 
283.059418 0.555944 
283.0961 1.576657 
283.116272 0.897869 
283.263031 1.354707 
283.892517 0.158853 
284.091034 8.443326 
284.127625 38.188496 
284.266083 5.174775 
284.293549 0.086838 
285.009491 2.950026 
285.026184 0.179683 
285.075378 1.432167 
285.094971 0.812216 
285.112457 0.80105 
285.135254 20.061119 
285.268768 0.179107 
286.009735 2.688168 
286.106842 28.838852 
286.141937 3.288233 
286.179901 1.21709 
286.893799 0.211567 
287.005951 9.294785 
287.092743 0.190045 
287.110199 3.020464 
287.150452 0.06601 
288.006439 3.070583 
288.085846 1.450989 
288.12265 53.304962 
289.003662 0.381916 
289.089966 0.195028 
289.126282 9.580221 
289.169556 1.562871 
290.101685 1.587321 
290.128815 0.184104 
291.141541 0.761254 
292.096283 0.480083 
292.132507 0.144265 
294.076416 0.062973 
294.111542 0.299495 
295.046906 0.0945 
295.096832 0.234019 
296.068542 0.051742 
296.092834 0.814499 
296.128204 5.504907 
297.045258 0.097397 
297.075745 0.413734 
297.097107 0.062947 
297.113037 1.028227 
297.132172 2.32195 
298.109375 14.024274 
298.142639 2.066961 
298.273621 2.145965 
299.054718 0.271968 
299.091339 0.766791 
299.112976 2.147718 
299.146881 0.111017 
300.060211 0.070085 
300.080475 1.854095 
300.122498 8.728299 
300.158844 1.622583 
300.195557 1.803405 
300.967285 1.169146 
301.058228 1.014717 
301.089569 0.063193 
301.108063 0.725125 
301.130066 14.236843 
301.16153 0.06117 
302.059479 0.198986 
302.081268 0.040199 
302.10199 25.953974 
302.137207 7.311976 
303.105591 2.21305 
303.141632 0.963274 
305.017303 0.344251 
306.111969 0.06855 
308.091675 0.11737 
308.935791 0.058184 
310.107117 2.612024 
310.143036 0.946983 
311.110687 0.190074 
312.087769 1.139621 
312.122406 35.898212 
312.157593 0.1903 
312.325989 0.071206 
313.106964 0.536925 
313.126282 3.529968 
313.204224 1.310117 
314.103027 2.110505 
314.13855 10.173194 
314.174286 0.301594 
314.208374 0.090484 
314.912933 0.060163 
315.085358 1.842178 
315.104401 0.372312 
315.122681 0.906216 
315.14267 2.224329 
316.085754 0.056238 
316.118469 28.950748 
316.15155 5.891764 
316.284119 1.879344 
316.924927 0.145085 
317.101532 0.472693 
317.121124 2.753992 
317.157288 0.354986 
318.096313 0.4102 
318.132935 2.490711 
318.169128 0.077439 
319.135742 1.776316 
320.129028 0.139579 
323.114563 0.484344 
324.122253 1.408341 
326.102112 0.838522 
326.138092 0.982361 
326.172974 0.045067 
326.341461 3.193488 
327.103516 0.064498 
327.122528 0.193783 
327.344727 0.15491 
328.111847 0.492341 
328.153839 0.551934 
328.190918 0.126632 
329.080841 0.183073 
329.124725 0.394512 
329.161438 3.938771 
330.093903 0.054475 
330.11145 0.053446 
330.134186 2.743536 
330.168518 4.825433 
331.096527 10.58165 
331.11615 0.392486 
331.138123 0.485852 
331.172699 0.944295 
331.197327 0.070213 
331.215179 0.432551 
332.100281 1.509806 
332.148193 0.782564 
333.074493 0.138125 
333.093872 2.712311 
333.113159 0.959449 
334.104401 0.181637 
334.127716 6.399166 
334.275421 0.060652 
335.130646 0.324586 
338.138306 6.201551 
339.143433 1.436019 
340.153107 0.525668 
341.119415 0.160574 
341.156769 0.27788 
341.188385 0.112576 
342.061707 0.058604 
342.093353 1.276102 
342.133392 5.432267 
342.169128 1.274683 
342.204834 0.061353 
342.995972 0.34973 
343.043854 0.643589 
343.135345 1.383181 
343.171173 0.165023 
343.202606 0.050185 
343.223877 2.93756 
343.997253 0.484274 
344.111298 2.26837 
344.148529 68.619392 
344.227234 0.217016 
344.975861 0.065491 
344.994781 0.221408 
345.151733 7.437828 
345.189331 0.050944 
346.105896 0.080544 
346.127533 0.282622 
346.164642 0.26232 
348.121887 0.076987 
348.14328 3.528742 
349.146759 0.167934 
350.946198 0.232703 
355.192017 1.56558 
356.104736 1.98613 
356.148315 0.756611 
356.185303 0.090277 
356.351959 0.239806 
357.06781 0.058201 
357.107391 0.076287 
357.146545 0.322544 
357.20578 0.131148 
358.011871 0.095238 
358.10318 0.067545 
358.126434 0.561385 
358.164093 1.438741 
358.197296 0.140295 
358.227448 1.180219 
359.02829 1.879969 
359.090637 0.437575 
360.028168 3.763881 
360.146515 0.056177 
360.180023 0.187426 
360.970673 0.240827 
361.02536 2.327169 
361.969788 0.048598 
362.02533 0.187261 
362.159485 0.417692 
368.035248 0.058599 
373.10611 0.06377 
373.12561 0.169013 
373.146759 0.93263 
373.18161 6.487713 
373.217865 12.929127 
373.248535 7.728713 
373.283295 0.460415 
373.321991 0.068364 
374.115662 11.927259 
374.159149 7.804261 
374.193756 7.857699 
374.226501 4.07332 
374.268372 1.895942 
374.302979 5.429984 
374.340149 1.361269 
374.361511 4.898767 
375.061249 4.685604 
375.086151 0.533712 
375.120087 3.807113 
375.160858 6.223104 
375.198486 7.802406 
375.234894 8.404307 
375.257751 1.069315 
375.306061 1.318652 
375.336975 4.587413 
375.365326 0.907141 
376.062012 0.256805 
376.084747 0.133357 
376.113953 3.28569 
376.13739 4.354441 
376.17514 25.578962 
376.207001 2.069333 
376.236023 14.800921 
376.2854 1.11655 
376.318665 4.301218 
376.358856 0.790115 
377.058563 0.743769 
377.119141 0.466103 
377.141541 19.892881 
377.177948 18.864363 
377.213837 4.136611 
377.23587 0.679319 
END IONS

