BEGIN IONS
PEPMASS=485.0
CHARGE=1+
COMPOUNDNAME=MoNA:2463531 Kanamycin A
LIBRARYQUALITY=3
SMILES=N/A
INCHIKEY=SBUJHOSQTJFQJX-NOAMYHISSA-N
INCHI=InChI=1S/C18H36N4O11/c19-2-6-10(25)12(27)13(28)18(30-6)33-16-5(21)1-4(20)15(14(16)29)32-17-11(26)8(22)9(24)7(3-23)31-17/h4-18,23-29H,1-3,19-22H2/t4-,5+,6-,7-,8+,9-,10-,11-,12+,13-,14-,15+,16-,17-,18-/m1/s1
MSLEVEL=2
SOURCE_INSTRUMENT=LC-ESI-IT-LC-ESI-IT
FILENAME=output_mgf.mgf
SEQ=*..*
IONMODE=
ORGANISM=MONA
NAME=MoNA:2463531 Kanamycin A [M+H]+
PI=MoNA
DATACOLLECTOR=MoNA
PUBMED=N/A
SUBMITUSER=mwang87
TAGS=
SPECTRUMID=CCMSLIB00000567313
SCANS=4564
92.3 0.074226 
99.2 0.445353 
102.0 1.351647 
109.0 0.191502 
110.1 0.46391 
128.0 0.371128 
134.1 0.633886 
144.0 1.375771 
145.1 5.6931 
146.1 0.609021 
148.0 0.191873 
162.1 5.192819 
163.1 100.0 
170.1 0.030804 
187.1 2.344043 
204.1 0.061978 
205.1 11.881655 
305.1 0.930417 
306.0 0.136204 
307.0 0.058638 
324.2 5.18651 
348.4 0.046391 
516.7 0.077195 
END IONS

