BEGIN IONS
PEPMASS=582.274
CHARGE=1+
COMPOUNDNAME=Massbank: Streptomycin
LIBRARYQUALITY=3
SMILES=[H]N([H])C(N([H])[H])=NC([H])(C([H])(O[H])1)C([H])(O[H])C([H])(N=C(N([H])[H])N([H])[H])C([H])(OC([H])(O2)C([H])(OC([H])(O3)C([H])(N([H])C([H])([H])[H])C([H])(O[H])C([H])(O[H])C([H])(C([H])([H])O[H])3)C(O[H])(C([H])=O)C([H])(C([H])([H])[H])2)C([H])(O[H])1
INCHIKEY=UCSJYZPVAKXKNQ-UHFFFAOYSA-N
INCHI=1S/C21H39N7O12/c1-5-21(36,4-30)16(40-17-9(26-2)13(34)10(31)6(3-29)38-17)18(37-5)39-15-8(28-20(24)25)11(32)7(27-19(22)23)12(33)14(15)35/h4-18,26,29,31-36H,3H2,1-2H3,(H4,22,23,27)(H4,24,25,28)/t5-,6-,7+,8-,9-,10-,11+,12-,13-,14+,15+,16-,17-,18-,21+/m0/s1
MSLEVEL=2
SOURCE_INSTRUMENT=ESI-LC-ESI-QTOF
FILENAME=Massbank_ESI_positive_8_1_2014_peaks.mgf
SEQ=*..*
IONMODE=Positive
ORGANISM=MASSBANK
NAME=Massbank: Streptomycin [M+H]+
PI=Putative Massbank Match
DATACOLLECTOR=Massbank
PUBMED=N/A
SUBMITUSER=mwang87
TAGS=
SPECTRUMID=CCMSLIB00000206379
SCANS=1638
60.0562 179.705 
86.06 146.937 
158.0803 165.24 
168.0742 113.948 
176.0927 1287.085 
186.0866 543.838 
200.0905 131.365 
203.1131 264.945 
204.0956 198.524 
217.0927 558.007 
218.0979 152.841 
221.1241 1285.609 
228.1066 113.284 
246.1193 1979.336 
263.1458 7273.063 
276.1088 111.292 
284.114 156.531 
287.1498 151.661 
288.126 289.446 
291.1399 156.679 
302.1188 386.421 
320.1351 524.133 
330.1295 293.653 
348.1291 122.14 
363.1638 145.904 
365.1711 519.705 
390.1636 1304.059 
407.189 2225.83 
505.2155 274.539 
522.2502 155.129 
540.2534 2034.686 
564.2584 286.494 
565.2499 873.801 
582.272 10000.0 
END IONS

