BEGIN IONS
PEPMASS=288.087
CHARGE=1+
COMPOUNDNAME=Emodin
LIBRARYQUALITY=3
SMILES=N/A
INCHIKEY=RHMXXJGYXNZAPX-UHFFFAOYSA-N
INCHI=InChI=1S/C15H10O5/c1-6-2-8-12(10(17)3-6)15(20)13-9(14(8)19)4-7(16)5-11(13)18/h2-5,16-18H,1H3
MSLEVEL=2
SOURCE_INSTRUMENT=N/A-ESI-QFT
FILENAME=library_mgf.mgf
SEQ=*..*
IONMODE=positive
ORGANISM=MONA
NAME=Emodin [M+NH4]+
PI=MoNA
DATACOLLECTOR=MoNA:VF-NPL-QEHF011221
PUBMED=N/A
SUBMITUSER=mwang87
TAGS=
SPECTRUMID=CCMSLIB00004702284
SCANS=11221
50.239124 0.010126 
50.515743 0.008736 
50.732441 0.008161 
51.199833 0.006765 
51.394402 0.011351 
51.604984 0.012209 
52.016266 0.012845 
52.222446 0.010278 
52.287949 0.011612 
53.558281 0.007958 
53.568295 0.008454 
53.623806 0.011013 
54.085732 0.008454 
54.78677 0.008755 
55.0186 0.374515 
55.054989 0.068088 
55.583748 0.012433 
55.713699 0.007656 
55.714989 0.010827 
56.667114 0.009832 
57.034149 0.011063 
57.070637 5.478234 
57.358429 0.00889 
57.8367 0.009347 
58.065876 2.916556 
58.074001 0.11898 
58.517445 0.010741 
58.60062 0.012527 
58.783607 0.009247 
59.049896 0.037494 
59.061108 0.021538 
59.06921 0.021279 
59.727367 0.012186 
59.753731 0.011272 
60.045246 0.04603 
61.011421 0.033384 
61.029167 0.024613 
61.286118 0.008554 
61.53009 0.006449 
61.735371 0.006627 
62.060787 0.223739 
62.768124 0.008591 
62.982452 0.066695 
63.166813 0.011599 
63.244267 0.0086 
64.033966 0.008536 
65.732025 0.006625 
65.799103 0.010567 
66.160446 0.010626 
67.054939 0.126857 
67.590973 0.010568 
68.139076 0.011642 
68.839218 0.008702 
69.034203 0.050564 
69.070564 0.213938 
69.64296 0.011527 
69.80735 0.010381 
70.065804 2.700187 
70.61219 0.007949 
71.049911 0.05085 
71.069054 0.011473 
71.086189 4.39423 
72.045059 0.321528 
72.081429 0.112776 
72.089554 0.111472 
72.197525 0.013755 
72.563858 0.010731 
75.08049 0.011913 
75.869171 0.009498 
76.076515 0.010465 
76.445366 0.009007 
77.570091 0.009983 
77.607826 0.006422 
78.249077 0.01074 
79.021835 0.407444 
80.678192 0.009129 
80.948441 0.044519 
81.070427 0.26947 
81.385445 0.011714 
82.065422 0.007361 
83.049652 0.010124 
83.08609 0.132022 
83.263474 0.009485 
84.045189 0.010029 
85.029022 0.013578 
85.040085 0.029433 
85.065323 0.224038 
85.101707 2.635886 
85.405899 0.010557 
86.060593 0.23037 
86.09697 0.77734 
86.105026 0.084911 
87.044586 0.100484 
87.100067 0.010261 
88.021988 0.079346 
88.07618 9.795384 
89.060219 0.055029 
89.079536 0.327175 
89.816536 0.013149 
92.184288 0.009556 
93.070328 0.099411 
94.90538 0.011867 
95.049942 0.012288 
95.08593 0.376273 
97.06517 0.009443 
97.10157 0.085748 
97.14727 0.010293 
98.410789 0.00724 
98.482201 0.008346 
98.965294 0.02165 
98.975716 1.033649 
99.027931 0.012645 
99.044571 0.021373 
99.080452 0.00902 
99.680969 0.008758 
100.07608 1.521721 
101.00354 0.929104 
101.079506 0.009481 
101.710373 0.008734 
101.950325 0.093663 
102.091675 0.74388 
102.269562 0.010002 
102.964462 0.009015 
103.605164 0.011603 
104.070976 0.080396 
105.070084 0.025954 
106.086555 26.65659 
106.554749 0.013305 
107.086029 0.198723 
107.089813 0.909112 
107.498421 0.010546 
107.666679 0.007404 
107.67807 0.008636 
107.945511 0.011362 
109.101379 0.269641 
109.214714 0.008269 
113.059967 0.85115 
113.745323 0.008154 
115.038902 0.009305 
115.043373 0.009799 
115.086945 0.025557 
116.053047 0.62013 
116.070854 0.139424 
116.130913 0.010356 
116.144508 0.011561 
116.87619 0.013376 
116.986153 1.035046 
117.000435 0.011275 
117.222404 0.011902 
118.086479 0.973444 
119.085587 0.011408 
119.960518 0.027196 
120.234177 0.011701 
121.064682 0.010339 
121.101349 0.115132 
123.116859 0.064671 
125.798775 0.010647 
126.163139 0.011034 
127.039047 0.02526 
131.085709 0.054383 
132.890717 0.012526 
133.101181 0.047865 
133.752518 0.009053 
134.978531 0.02291 
134.99646 0.506881 
135.043869 0.012068 
135.116867 0.112604 
136.342789 0.013482 
136.553101 0.011179 
137.096085 0.007821 
141.977859 0.011211 
142.158844 0.025776 
143.085388 0.044218 
144.710617 0.011978 
145.550964 0.011884 
145.557281 0.012976 
145.726715 0.012036 
146.528641 0.007577 
146.825226 0.007793 
147.218887 0.007655 
147.975037 0.021911 
148.024734 0.051209 
148.179672 0.008784 
148.449829 0.012331 
149.095261 0.007743 
149.132278 0.009658 
150.013977 0.025507 
150.870377 0.012291 
150.950958 0.019245 
152.597427 0.011072 
152.946304 0.014691 
152.989304 0.030079 
153.006943 0.023136 
153.060471 0.012644 
153.90329 0.010368 
153.992264 0.009534 
155.085373 0.036487 
155.956421 0.025137 
157.758575 0.008566 
159.116776 0.025196 
160.075607 0.182702 
161.195221 0.008105 
162.645203 0.010246 
163.707596 0.007937 
163.984879 0.03962 
164.063477 0.013349 
166.97934 0.011516 
168.006424 0.012004 
168.961685 0.015991 
170.956818 0.181307 
171.062912 0.00921 
171.080261 0.22592 
171.814148 0.007947 
172.986069 0.011215 
173.059021 0.009856 
173.132446 0.011647 
175.038925 2.329133 
175.119034 0.030417 
176.042145 0.124835 
176.989136 1.570785 
177.028351 0.043994 
177.067291 0.041952 
178.984909 0.011019 
179.479813 0.009551 
179.953934 0.064587 
179.963715 0.126062 
181.064835 0.074275 
181.985901 0.234916 
184.169647 0.244707 
185.059784 0.057304 
186.017273 0.010032 
187.009659 0.215339 
187.075211 0.085323 
188.525085 0.008461 
189.054321 0.049773 
190.107483 0.0317 
190.159012 0.029666 
191.735397 0.008182 
194.999725 3.561353 
195.310104 0.010575 
196.002884 0.076229 
196.995621 0.106875 
197.964493 0.091098 
197.974213 1.523545 
199.039017 0.183898 
199.075241 0.475306 
200.078995 0.013377 
201.055008 0.040522 
201.07341 0.109983 
203.033905 0.351396 
203.070267 0.038211 
206.220871 0.00914 
206.470703 0.009791 
206.862823 0.009732 
209.01561 0.045365 
209.964111 0.155339 
210.255447 0.008935 
211.960022 0.084343 
213.010254 0.345825 
213.055313 0.013794 
213.090454 0.030982 
215.070267 0.628107 
215.124954 0.008192 
215.547256 0.128502 
215.55864 0.434211 
215.984909 0.525367 
216.073013 0.022601 
217.049271 0.131208 
217.085815 1.092398 
218.089142 0.060425 
220.412964 0.008696 
222.898987 0.030689 
223.523682 0.008338 
225.522919 0.00766 
225.889542 0.011224 
226.216431 0.520296 
226.252884 0.07702 
227.070068 6.427092 
227.200592 0.080155 
227.220184 0.013698 
227.89975 0.028453 
227.974716 0.02692 
228.07338 0.99954 
228.945999 0.00954 
228.964737 1.122279 
229.04982 0.229329 
229.074677 0.81645 
229.085571 0.052636 
229.103928 0.00939 
229.895798 0.048487 
229.97023 0.101644 
233.09137 0.096533 
233.890854 0.022164 
235.01828 0.013324 
239.070145 0.558772 
240.074326 0.043626 
240.23259 0.027394 
240.908829 0.21907 
241.049377 0.645812 
241.085617 0.564074 
241.235779 0.087573 
242.056778 0.196169 
242.08902 0.057102 
242.3116 0.00887 
242.366699 0.010057 
243.064865 0.242305 
243.100983 0.023314 
243.121307 0.011522 
244.06868 0.008661 
244.14476 0.015974 
244.263229 0.224077 
244.7173 0.009213 
245.043747 0.050997 
245.080673 5.562009 
246.083801 0.858516 
246.937943 0.010993 
247.085602 0.645198 
247.103149 0.022216 
247.906464 0.026625 
251.025528 0.009105 
251.069351 0.010477 
253.049881 0.011066 
254.056641 0.041019 
255.064972 0.475538 
255.119431 0.01167 
256.072571 0.933049 
257.044678 0.226811 
257.080566 2.72381 
257.13559 0.064574 
258.051727 0.178953 
258.084137 0.358379 
259.059357 0.066913 
259.084778 0.009651 
262.018921 0.010693 
264.909058 0.152533 
268.263153 0.778299 
268.300354 0.028773 
268.979034 0.01428 
269.044373 0.27077 
269.080505 2.477034 
269.266571 0.102166 
270.051636 0.425147 
270.08493 0.49736 
270.243622 0.026972 
270.278931 3.87493 
270.95755 0.023262 
270.974731 0.048898 
271.059357 5.413944 
271.085846 0.036025 
271.151367 0.280718 
271.282135 0.652915 
272.066528 3.214683 
272.091888 0.011479 
273.03894 0.140353 
273.069916 0.369666 
274.952759 0.036031 
280.736938 0.011474 
282.919556 0.18304 
283.923065 0.01182 
286.079834 9.036084 
286.111786 0.206823 
286.12851 0.458052 
286.148285 0.014474 
286.180023 0.016852 
286.21701 0.179008 
286.236328 0.046649 
286.252808 0.498286 
286.273651 0.792771 
286.292786 0.219358 
286.310089 1.443342 
286.338257 0.031 
286.952606 0.195319 
286.969513 0.016293 
287.006256 0.032613 
287.054779 11.751877 
287.088715 5.028759 
287.108521 1.165567 
287.127197 4.058969 
287.146271 2.362032 
287.163361 0.125716 
287.182495 0.930211 
287.198578 0.015666 
287.216431 0.009065 
287.257263 0.011784 
287.275909 0.10915 
287.313782 0.333887 
288.059418 2.398369 
288.094299 0.781109 
288.111603 0.084187 
288.13089 0.317981 
288.152527 0.319214 
288.180511 1.097577 
288.199921 0.01892 
288.231598 0.188287 
288.289276 100.0 
288.931702 0.026699 
288.969604 0.01188 
289.070343 0.945714 
289.089508 0.599641 
289.125366 4.681846 
289.161896 5.519725 
289.178314 0.475051 
289.213959 0.012705 
289.292786 18.240086 
290.07312 0.023337 
290.126801 0.278204 
290.163818 0.202438 
290.211212 0.378345 
290.247223 0.184633 
290.282806 0.03464 
290.29715 0.209768 
306.919098 0.019293 
310.841553 0.013324 
END IONS

