BEGIN IONS
PEPMASS=288.121
CHARGE=1+
COMPOUNDNAME=ANISOMYCIN
LIBRARYQUALITY=3
SMILES=N/A
INCHIKEY=YKJYKKNCCRKFSL-BFHYXJOUSA-N
INCHI=InChI=1S/C14H19NO4/c1-9(16)19-14-12(15-8-13(14)17)7-10-3-5-11(18-2)6-4-10/h3-6,12-15,17H,7-8H2,1-2H3/t12-,13+,14+/m0/s1
MSLEVEL=2
SOURCE_INSTRUMENT=N/A-ESI-QFT
FILENAME=library_mgf.mgf
SEQ=*..*
IONMODE=positive
ORGANISM=MONA
NAME=ANISOMYCIN [M+Na]+
PI=MoNA
DATACOLLECTOR=MoNA:VF-NPL-QEHF027596
PUBMED=N/A
SUBMITUSER=mwang87
TAGS=
SPECTRUMID=CCMSLIB00004721177
SCANS=27596
51.012939 0.174178 
51.928699 0.131017 
52.076042 0.030196 
53.002594 0.224032 
53.286469 0.107014 
53.922089 0.029212 
55.018326 0.026339 
55.054607 0.303816 
55.112984 0.099706 
55.589821 0.224205 
56.048004 0.22097 
56.347424 0.027232 
56.917576 0.031256 
56.964897 0.094307 
57.055279 0.101892 
57.070183 40.127419 
57.238216 0.031648 
57.383617 0.029096 
57.700188 0.029405 
58.065411 11.1057 
58.073502 1.139648 
58.447056 0.131208 
59.068764 0.254895 
59.476936 0.100617 
60.044678 0.186906 
60.081074 0.037372 
61.01104 0.04538 
61.689884 0.091607 
61.983597 0.02935 
62.018826 0.065438 
62.060246 2.39662 
62.374485 0.102487 
62.981941 0.129995 
63.496738 0.029661 
63.509552 0.124874 
66.74128 0.151108 
67.054474 0.128522 
67.687698 0.029616 
67.689224 0.096106 
68.049713 0.090539 
68.488556 0.201257 
69.070007 0.563272 
69.43119 0.03143 
69.807426 0.034305 
70.065231 31.165493 
70.861687 0.151521 
71.006981 0.193612 
71.068619 0.58554 
71.085632 25.64093 
72.080872 0.04475 
72.088959 0.740758 
72.724068 0.218726 
72.757629 0.034271 
72.932381 0.199251 
73.509628 0.20043 
73.678871 0.22045 
74.581429 0.030252 
75.163429 0.029629 
75.94529 0.226103 
76.330154 0.030932 
76.694649 0.036813 
76.897018 0.03136 
77.570068 0.154648 
77.574959 0.027026 
80.447685 0.029968 
80.958176 0.104488 
82.769104 0.223035 
83.085609 0.193403 
83.308952 0.132658 
84.731483 0.034833 
85.039749 0.13199 
85.10125 12.889401 
85.546448 0.039612 
86.06012 0.641154 
86.096413 0.036216 
86.104607 0.494797 
88.07576 72.474503 
89.072884 0.038624 
89.079086 1.799486 
90.06768 0.031621 
90.501831 0.03056 
93.070007 0.037382 
94.127106 0.194047 
94.227242 0.093986 
96.080864 0.071549 
96.231812 0.033158 
96.444107 0.2278 
98.975441 2.029302 
99.823601 0.031658 
100.075836 0.122964 
101.993027 0.033178 
102.091461 10.286038 
103.094673 0.177467 
104.070663 0.130896 
106.086365 80.132858 
107.089645 2.401959 
108.506073 0.034903 
109.074409 0.171805 
111.257721 0.097999 
113.656929 0.035543 
113.997131 0.027926 
114.377029 0.205122 
114.971832 0.243053 
115.177284 0.029659 
116.986 1.008482 
120.101913 0.067498 
120.549614 0.179026 
121.064819 3.355273 
122.81443 0.034822 
124.112053 0.167289 
132.948868 0.139798 
133.863754 0.03376 
134.996582 0.103883 
140.600922 0.027667 
142.599365 0.03505 
143.574493 0.03274 
146.974472 0.092625 
150.950409 0.123553 
150.968826 0.056066 
152.946808 0.310323 
152.990021 0.044199 
153.763351 0.252452 
157.116272 0.087009 
160.075729 0.145826 
162.424545 0.23417 
166.350739 0.031527 
167.058716 0.028774 
170.800247 0.031446 
170.957397 0.884656 
171.960281 0.096719 
174.680038 0.113722 
175.929535 0.039423 
176.989929 0.160191 
180.187851 0.032638 
182.194855 0.124012 
182.512909 0.2148 
183.886581 0.033733 
184.169647 0.694306 
185.096329 0.037947 
190.235626 0.035582 
190.727264 0.120296 
191.085281 0.170304 
191.968048 0.031367 
194.999908 0.06063 
196.9086 0.218441 
197.116043 0.100806 
197.388092 0.18768 
198.067657 0.273034 
199.132919 0.076374 
200.200806 0.042121 
202.051559 0.193732 
206.117722 0.072488 
206.443436 0.19994 
210.21907 0.197349 
210.970795 0.035253 
213.091125 3.495396 
213.102081 0.344216 
214.094528 0.050013 
215.472488 2.313899 
217.10524 0.085215 
218.296661 0.19818 
220.421906 0.215989 
220.903351 0.271728 
221.489914 0.030912 
222.898834 3.688773 
225.021683 0.027655 
225.091187 0.041781 
225.102661 0.165811 
226.216827 0.160391 
226.253204 0.522701 
227.257355 0.036649 
227.807693 0.099106 
227.900055 0.175641 
229.895874 1.459137 
231.101532 0.339307 
232.307022 0.186388 
233.285034 0.032686 
236.29892 0.192338 
238.913925 0.545769 
239.468903 0.290803 
240.891373 0.029375 
240.894333 0.040352 
240.909088 5.30245 
241.235367 0.186912 
242.39444 0.034792 
244.263519 1.952586 
245.266647 0.086533 
247.906448 0.878535 
254.424515 0.216547 
255.120361 0.072358 
257.136597 4.936424 
257.896088 0.223428 
258.139526 0.113651 
264.909515 0.396093 
267.276093 0.147171 
268.299805 0.266652 
270.279053 17.174753 
271.28244 2.607198 
272.201141 0.111634 
275.24765 0.031296 
279.896118 0.162839 
282.920288 0.237643 
284.477661 0.101269 
286.142334 0.04033 
286.216614 0.033429 
286.252655 0.108951 
286.310608 0.720015 
286.338104 0.38878 
287.146454 0.599863 
287.183044 0.205564 
287.314301 0.13322 
288.120819 4.068177 
288.155273 0.45726 
288.231415 0.201054 
288.289612 100.0 
289.125427 0.634971 
289.162048 0.866513 
289.199341 0.035234 
289.226685 0.038592 
289.293121 16.707813 
290.175262 0.16745 
290.211029 0.097706 
290.247955 0.173064 
290.297058 0.102686 
293.926025 0.140949 
297.907745 0.119228 
300.881348 0.033896 
303.204346 0.243917 
310.067871 0.152899 
310.091431 0.154188 
END IONS

