BEGIN IONS
PEPMASS=348.168
CHARGE=1+
COMPOUNDNAME=ERGONOVINE MALEATE
LIBRARYQUALITY=3
SMILES=N/A
INCHIKEY=WVVSZNPYNCNODU-XTQGRXLLSA-N
INCHI=InChI=1S/C19H23N3O2/c1-11(10-23)21-19(24)13-6-15-14-4-3-5-16-18(14)12(8-20-16)7-17(15)22(2)9-13/h3-6,8,11,13,17,20,23H,7,9-10H2,1-2H3,(H,21,24)/t11-,13+,17+/m0/s1
MSLEVEL=2
SOURCE_INSTRUMENT=N/A-ESI-QFT
FILENAME=library_mgf.mgf
SEQ=*..*
IONMODE=positive
ORGANISM=MONA
NAME=ERGONOVINE MALEATE [M+Na]+
PI=MoNA
DATACOLLECTOR=MoNA:VF-NPL-QEHF027716
PUBMED=N/A
SUBMITUSER=mwang87
TAGS=
SPECTRUMID=CCMSLIB00004721297
SCANS=27716
50.235229 0.052876 
50.54554 0.032637 
50.551804 0.026321 
50.760723 0.016759 
51.12875 0.029525 
52.577854 0.023784 
53.401428 0.015353 
53.520615 0.031824 
54.580742 0.025371 
56.523117 0.024619 
57.363319 0.021818 
57.614693 0.018967 
58.065437 0.302694 
58.832687 0.029821 
59.095001 0.037109 
59.875744 0.017401 
60.749546 0.017865 
61.010944 0.37063 
62.018787 0.215293 
62.302036 0.023078 
62.42234 0.034683 
63.823753 0.033781 
64.525993 0.025106 
64.608475 0.0308 
64.778297 0.022793 
65.840866 0.018104 
66.952919 0.030508 
69.463943 0.024114 
69.820213 0.029426 
69.85128 0.022782 
70.465881 0.022264 
70.994034 0.031628 
72.101494 0.018111 
73.244087 0.025534 
73.82943 0.034336 
74.025848 0.019438 
74.3899 0.018801 
75.565132 0.016498 
77.317657 0.016192 
77.741714 0.027055 
78.445038 0.030061 
79.021523 0.034821 
80.193481 0.042699 
80.985016 0.030723 
81.214401 0.019652 
81.506218 0.019743 
81.666252 0.018837 
83.467438 0.028921 
84.353615 0.022102 
88.980606 0.019642 
89.755386 0.024975 
91.054321 0.17627 
91.314217 0.033389 
91.491882 0.019967 
91.882233 0.016633 
95.326935 0.030254 
95.700264 0.048381 
95.868851 0.015991 
96.218201 0.02532 
96.359184 0.023559 
96.972153 0.019802 
98.583656 0.049217 
98.975403 0.170216 
99.993217 0.017242 
99.997192 0.018473 
100.134605 0.026288 
100.240837 0.028793 
103.495155 0.018102 
103.629517 0.02475 
103.898415 0.025359 
105.551659 0.018341 
107.613335 0.029598 
108.379288 0.034935 
108.898758 0.031518 
110.186325 0.032708 
111.289795 0.028946 
112.442871 0.029327 
114.518433 0.02789 
115.166061 0.03207 
115.198654 0.015052 
115.325485 0.037533 
117.069969 0.037733 
117.114174 0.019271 
117.759903 0.024106 
117.781654 0.022255 
118.022949 0.04909 
119.085625 0.188959 
119.228607 0.015616 
119.704041 0.019696 
128.963776 0.252627 
130.158676 0.023533 
130.656097 0.043983 
130.97937 0.075293 
131.706696 0.022863 
133.064896 0.118993 
133.479034 0.017305 
133.688751 0.035286 
133.906143 0.030016 
134.416351 0.0211 
135.079788 0.017996 
137.954468 0.10222 
139.003494 0.019135 
144.95903 0.025099 
146.974564 0.468692 
147.351822 0.027178 
147.850922 0.015961 
151.056198 0.026645 
152.951675 0.101895 
153.958786 0.024797 
153.992569 0.040058 
155.525146 0.024124 
155.678238 0.028003 
159.649643 0.020261 
163.961197 0.018265 
167.063629 0.051433 
170.090836 0.023935 
174.759293 0.024291 
174.77803 0.044533 
176.798843 0.024497 
176.807587 0.023893 
179.33252 0.015336 
183.523056 0.024773 
183.92923 0.01722 
188.353958 0.027524 
188.871155 0.033537 
192.581604 0.042973 
193.46312 0.024808 
195.523895 0.025184 
197.378738 0.017458 
197.523254 0.041231 
199.437958 0.0279 
203.142761 0.06807 
204.230072 0.027484 
205.98851 0.022269 
206.977798 0.032064 
209.298874 0.030254 
209.875534 0.018353 
212.237473 0.026413 
214.066269 0.015701 
214.609009 1.046922 
217.418121 0.03486 
218.870651 0.054166 
219.174316 3.900973 
219.185013 0.027603 
219.981232 0.028991 
220.177521 0.247163 
220.903534 0.7727 
221.107162 0.149179 
224.274811 0.018987 
227.671082 0.02316 
227.90007 0.52278 
233.904892 0.09345 
235.111588 0.021268 
235.891739 1.103209 
236.899597 0.045504 
238.91394 0.30501 
238.957855 0.042282 
242.057953 0.03793 
243.916672 0.026187 
244.400146 0.027166 
244.883804 0.131379 
245.910995 0.243788 
247.458191 0.019528 
249.102951 0.024263 
251.915512 0.031968 
252.893005 0.031601 
253.902267 0.754369 
259.782837 0.031516 
259.891632 0.104205 
260.640869 0.033507 
262.895721 0.035204 
262.913483 0.235753 
271.064728 0.02105 
275.093964 0.248098 
277.096588 0.016991 
277.902191 0.744499 
280.924744 0.033051 
281.043915 0.015907 
286.896301 0.017884 
286.913635 0.02423 
287.094116 3.341818 
288.09906 0.556573 
289.074341 0.026621 
290.081024 10.027677 
290.346558 0.034526 
291.084625 1.902114 
291.698792 0.017749 
292.10791 0.041651 
296.882416 0.019033 
300.397949 0.021643 
302.081543 0.060717 
303.088989 3.885869 
304.096893 57.258259 
304.347443 0.04558 
304.925171 0.04159 
305.070007 0.036106 
305.100403 10.994111 
305.126007 14.901897 
305.91861 0.034912 
306.103821 0.482857 
306.129364 2.506022 
308.036285 0.02526 
308.937103 0.01853 
309.937744 0.017025 
314.080994 0.06193 
315.088989 9.139376 
315.178619 0.023583 
316.061768 0.226193 
316.096344 9.810625 
317.068481 0.131737 
317.101929 2.989428 
317.608368 0.050859 
318.075989 45.221203 
318.888336 0.034083 
319.079559 9.638044 
320.084076 0.432144 
329.01059 0.032638 
330.075806 0.531168 
331.080841 0.102834 
332.091614 100.0 
333.071899 0.033675 
333.098114 57.780487 
334.075836 0.016511 
334.102661 10.237108 
335.079193 0.067897 
335.10495 0.397577 
347.102722 0.142184 
347.305023 0.037472 
348.085785 0.139253 
348.122803 33.487038 
348.167999 2.028466 
349.12677 7.759256 
349.18335 22.371723 
350.128204 0.405007 
350.150238 0.841433 
350.186462 2.221225 
END IONS

