BEGIN IONS
PEPMASS=734.469
CHARGE=1+
COMPOUNDNAME=Massbank:PB005802 Erythromycin|(2R,3R,4S,5R,8R,9S,10S,11R,12R,14R)-11-[(2S,3R,4S,6R)-4-(dimethylamino)-3-hydroxy-6-methyloxan-2-yl]oxy-5-ethyl-3,4,12-trihydroxy-9-[(2R,4R,5S,6S)-5-hydroxy-4-methoxy-4,6-dimethyloxan-2-y
LIBRARYQUALITY=3
SMILES=CCC1C(C(C(C(=O)C(CC(C(C(C(C(C(=O)O1)C)OC2CC(C(C(O2)C)O)(C)OC)C)OC3C(C(CC(O3)C)N(C)C)O)(C)O)C)C)O)(C)O
INCHIKEY=ULGZDMOVFRHVEP-UHFFFAOYSA-N
INCHI=1S/C37H67NO13/c1-14-25-37(10,45)30(41)20(4)27(39)18(2)16-35(8,44)32(51-34-28(40)24(38(11)12)15-19(3)47-34)21(5)29(22(6)33(43)49-25)50-26-17-36(9,46-13)31(42)23(7)48-26/h18-26,28-32,34,40-42,44-45H,14-17H2,1-13H3/t18-,19-,20+,21+,22-,23+,24+,25-,26+,28-,29+,30-,31+,32-,34+,35-,36-,37-/m1/s1
MSLEVEL=2
SOURCE_INSTRUMENT=ESI-LC-ESI-QTOF
FILENAME=Massbank_ESI_positive_8_1_2014_peaks.mgf
SEQ=*..*
IONMODE=Positive
ORGANISM=MASSBANK
NAME=Massbank:PB005802 Erythromycin|(2R,3R,4S,5R,8R,9S,10S,11R,12R,14R)-11-[(2S,3R,4S,6R)-4-(dimethylamino)-3-hydroxy-6-methyloxan-2-yl]oxy-5-ethyl-3,4,12-trihydroxy-9-[(2R,4R,5S,6S)-5-hydroxy-4-methoxy-4,6-dimethyloxan-2-y [M+H]+
PI=Putative Massbank Match
DATACOLLECTOR=Massbank
PUBMED=N/A
SUBMITUSER=mwang87
TAGS=
SPECTRUMID=CCMSLIB00000222299
SCANS=10667
116.105 10.02 
127.074 10.02 
158.117 1352.705 
159.119 90.18 
176.126 10.02 
284.183 10.02 
316.209 581.162 
317.211 90.18 
325.198 20.04 
342.224 10.02 
347.218 10.02 
365.229 50.1 
383.239 80.16 
384.242 10.02 
401.25 10.02 
408.27 20.04 
464.298 10.02 
482.307 30.06 
500.317 40.08 
501.318 10.02 
522.337 1012.024 
523.341 280.561 
524.344 40.08 
540.348 781.563 
541.351 210.421 
542.356 30.06 
558.359 2234.469 
559.362 621.242 
560.365 90.18 
574.353 10.02 
575.921 10.02 
576.37 10000.0 
576.92 10.02 
577.373 2725.451 
578.375 370.741 
579.379 10.02 
698.441 210.421 
699.445 80.16 
700.448 10.02 
702.436 20.04 
716.451 581.162 
717.455 220.441 
718.456 40.08 
734.462 5731.463 
735.465 2104.209 
736.468 380.762 
737.471 20.04 
END IONS

