BEGIN IONS
TITLE=Scan Number: 1
PEPMASS=339.23001
CHARGE=1+
COMPOUNDNAME=Aphidicolin
LIBRARYQUALITY=3
SMILES=OC[C@@]1(O)CC[C@]23[C@](CC[C@]4([H])[C@]2(C)CC[C@@H](O)[C@@]4(C)CO)([H])C[C@@]1(C3)[H]
INCHIKEY=NOFOAYPPHIUXJR-APNQCZIXSA-N
INCHI=InChI=1S/C20H34O4/c1-17(11-21)15-4-3-13-9-14-10-19(13,7-8-20(14,24)12-22)18(15,2)6-5-16(17)23/h13-16,21-24H,3-12H2,1-2H3/t13-,14+,15-,16+,17-,18-,19-,20-/m0/s1
MSLEVEL=2
SOURCE_INSTRUMENT=DI-ESI-qTof
FILENAME=gnps_Aphidicolin_pos_MplusH.mgf
SEQ=*..*
NOTES=
IONMODE=Positive
ORGANISM=GNPS-LIBRARY
NAME=Aphidicolin M+H
SPECTRUMID=CCMSLIB00000081679
ACTIVATION=CID
INSTRUMENT=ion trap
SCANS=1
119.075523 115.0 
131.074814 213.0 
133.087387 208.0 
135.10405 238.0 
143.070358 144.0 
145.087067 285.0 
147.102036 193.0 
149.120346 205.0 
157.087296 249.0 
159.102005 347.0 
161.116913 461.0 
171.099594 257.0 
173.115616 259.0 
175.130173 254.0 
185.113754 251.0 
187.130707 291.0 
189.110565 223.0 
191.128113 129.0 
197.114258 147.0 
199.129776 179.0 
201.146088 134.0 
203.125443 194.0 
211.126312 289.0 
213.143463 130.0 
215.159317 230.0 
225.142715 206.0 
227.158676 520.0 
229.167465 158.0 
239.158844 202.0 
241.172485 109.0 
245.166 218.0 
255.187149 298.0 
257.202789 574.0 
267.184875 2239.0 
273.199585 180.0 
285.19635 4028.0 
303.202545 1108.0 
321.211517 102.0 
END IONS

