BEGIN IONS
PEPMASS=427.245
CHARGE=1+
COMPOUNDNAME=Lovastatin
LIBRARYQUALITY=3
SMILES=N/A
INCHIKEY=PCZOHLXUXFIOCF-BXMDZJJMSA-N
INCHI=InChI=1S/C24H36O5/c1-5-15(3)24(27)29-21-11-14(2)10-17-7-6-16(4)20(23(17)21)9-8-19-12-18(25)13-22(26)28-19/h6-7,10,14-16,18-21,23,25H,5,8-9,11-13H2,1-4H3/t14-,15-,16-,18+,19+,20-,21-,23-/m0/s1
MSLEVEL=2
SOURCE_INSTRUMENT=N/A-ESI-QFT
FILENAME=library_mgf.mgf
SEQ=*..*
IONMODE=positive
ORGANISM=MONA
NAME=Lovastatin [M+Na]+
PI=MoNA
DATACOLLECTOR=MoNA:VF-NPL-QEHF002552
PUBMED=N/A
SUBMITUSER=mwang87
TAGS=
SPECTRUMID=CCMSLIB00004693615
SCANS=2552
50.183025 0.202621 
50.573315 0.028229 
50.921169 0.223934 
50.946121 0.053379 
51.360371 0.350434 
51.413593 0.129869 
51.508121 0.039047 
51.936356 0.209719 
52.057137 0.127747 
52.180984 0.130865 
52.290401 0.211795 
52.51112 0.20236 
53.087147 0.060807 
53.577354 0.026852 
53.9324 0.267272 
54.180573 0.076607 
54.334236 0.053376 
54.618343 0.284557 
54.694759 0.082768 
55.059902 0.078447 
56.05505 0.189641 
56.634987 0.059294 
56.662422 0.082963 
57.071686 0.189252 
57.11211 0.084081 
57.113499 0.263983 
57.335087 0.08935 
58.054737 0.087129 
58.639912 0.060492 
58.762062 0.268903 
59.901039 0.19297 
60.021214 0.190946 
60.268635 0.107973 
60.725918 0.022413 
61.062469 0.229565 
61.083008 0.35575 
61.150146 0.286928 
61.577164 0.066793 
61.598408 0.293073 
61.647816 0.272516 
61.79282 0.2166 
61.821377 0.021892 
62.05616 0.297564 
62.240501 0.024504 
62.266972 0.086404 
63.169209 0.098341 
64.016151 0.056044 
64.499039 0.308531 
65.136711 0.029683 
67.005226 0.118205 
67.716309 0.060192 
67.787262 0.178006 
68.225922 0.072969 
68.35984 0.022832 
68.489418 0.024671 
68.640213 0.191197 
70.355255 0.053406 
70.709648 0.260369 
71.063698 0.200137 
71.380409 0.078244 
71.830276 0.071531 
71.838806 0.252832 
72.010353 0.115971 
72.089462 0.022986 
72.47805 0.093996 
73.273178 0.086842 
73.548813 0.030963 
75.387215 0.279273 
76.038071 0.066035 
76.229042 0.070597 
77.336746 0.052647 
77.841698 0.03992 
77.986893 0.030353 
78.013367 0.104933 
79.18885 0.058438 
79.229111 0.05809 
79.341034 0.122975 
79.646072 0.117515 
80.186798 0.068665 
81.070335 0.135315 
81.11882 0.091094 
81.341301 0.027969 
81.752121 0.026814 
81.926743 0.112133 
83.485779 0.328065 
83.564896 0.077507 
83.616081 0.223041 
83.718918 0.034816 
84.332214 0.279865 
84.908127 0.087258 
85.780106 0.074126 
87.096977 0.110093 
87.960182 0.136902 
89.134094 0.265669 
89.358047 0.072965 
90.318596 0.02696 
90.33519 0.0302 
90.578529 0.146001 
90.683853 0.097829 
91.240944 0.027413 
91.789833 0.107869 
91.987564 0.108961 
92.815926 0.196668 
94.311104 0.053602 
94.397293 0.081817 
94.551109 0.090113 
96.259163 0.090563 
97.676147 0.080379 
98.641273 0.246142 
98.834435 0.032928 
98.975693 1.81864 
99.10083 0.107786 
99.846603 0.125087 
102.293808 0.306926 
102.726212 0.054534 
103.654289 0.024 
105.070328 0.502224 
107.085884 0.308611 
107.229469 0.049983 
107.836411 0.083046 
110.126076 0.353743 
110.554581 0.252819 
110.631592 0.074427 
111.005501 2.690791 
113.041603 0.101832 
113.118111 0.176528 
113.418251 0.185223 
113.703682 0.15645 
114.510574 0.042673 
114.754181 0.29619 
115.191483 0.088054 
115.778786 0.132249 
116.297852 0.076637 
116.692047 0.284257 
116.98613 0.56824 
119.08606 0.229577 
121.48204 0.250952 
123.409195 0.312787 
123.528664 0.10513 
125.155411 0.14691 
125.516853 0.187627 
126.249908 0.322516 
127.029755 0.026058 
129.082321 0.275061 
129.971893 0.103573 
130.046783 0.157537 
130.661057 0.083662 
130.848419 0.113445 
131.085495 1.041736 
132.258057 0.286452 
133.27478 0.055035 
134.94751 0.11081 
135.599518 0.206789 
136.941437 0.110578 
138.274246 0.365413 
138.86705 0.117787 
139.319122 0.115892 
139.562393 0.025342 
141.097321 0.275716 
141.577438 0.156371 
144.515915 0.23303 
145.100784 0.305851 
145.285202 0.027585 
145.585052 0.206595 
150.066162 0.040357 
151.642914 0.257949 
152.856766 0.060839 
153.376297 0.048945 
153.525421 0.120005 
153.982025 0.307342 
155.029083 0.100306 
155.100861 0.053486 
157.101379 0.125562 
158.158417 0.193471 
158.178467 0.123117 
159.116806 3.860332 
160.022293 0.212563 
160.346664 0.135059 
162.589844 0.159949 
163.281616 0.355727 
163.674133 0.033613 
164.707123 0.339767 
165.507721 0.351183 
167.211914 0.226381 
169.75177 0.117426 
170.37001 0.037562 
170.593704 0.16753 
171.11673 0.040421 
172.798737 0.066328 
173.132462 2.628538 
177.513123 0.121857 
177.889099 0.348947 
178.415298 0.052507 
179.324799 0.22895 
179.825836 0.218202 
181.694809 0.083383 
183.116196 0.065163 
183.704758 0.283251 
185.032806 0.307353 
186.802948 0.131105 
189.301392 0.314313 
192.98201 0.058697 
193.353897 0.341375 
197.567749 0.059939 
199.147995 0.243918 
200.004959 0.114363 
200.152695 0.032374 
200.630859 0.030166 
202.709595 0.27052 
204.523941 0.213929 
205.422226 0.026685 
209.687317 0.33955 
210.056778 0.037099 
213.666122 0.065712 
213.71312 0.33338 
213.72319 3.950595 
213.731918 6.883634 
216.217773 0.034433 
216.381363 0.304611 
218.535355 0.197096 
219.389145 0.299471 
220.494064 0.027401 
222.389267 0.045936 
223.241867 0.243864 
224.887344 0.08922 
229.811935 0.184573 
229.895905 0.035011 
230.967392 0.283616 
235.137573 0.132851 
237.119507 0.089461 
240.953415 0.316293 
242.903107 0.14442 
250.170258 0.111844 
256.336792 0.031219 
259.755096 0.089579 
263.901672 0.03513 
264.487488 0.026898 
264.908783 0.428615 
265.253967 0.335736 
265.399872 0.117428 
266.046509 0.160009 
269.84729 0.191782 
271.235352 0.273171 
271.865082 0.113029 
272.936981 0.050671 
279.525543 0.150304 
279.543152 0.124014 
281.911346 0.386788 
282.919586 0.057283 
284.362335 0.070174 
288.909058 0.492797 
289.907501 0.122806 
290.947388 0.531119 
293.385925 0.380434 
294.633331 0.136198 
295.129883 22.179832 
296.051727 0.064647 
296.133728 0.936901 
296.792297 0.046797 
305.420258 0.029094 
306.919098 1.249134 
310.153259 3.419949 
311.158966 0.077837 
313.798218 0.092233 
319.19635 0.237879 
321.882538 0.121734 
323.161743 0.283761 
325.17688 100.0 
325.654144 0.297503 
326.179932 19.470381 
327.183319 0.364663 
341.544281 0.089101 
342.143219 0.275978 
353.245819 0.095136 
358.134338 0.116127 
361.529785 0.023618 
364.481476 0.390536 
364.909332 0.047695 
365.818237 0.23622 
372.145416 0.373029 
376.16214 0.080691 
379.465424 0.306125 
384.987335 0.027082 
388.149048 0.328486 
398.981812 0.149487 
404.785309 0.109362 
408.525055 0.168715 
421.766266 0.1037 
427.244263 17.789282 
428.248077 2.227269 
434.904938 0.087611 
441.180573 0.116048 
446.685913 0.095112 
447.598145 0.089626 
453.979218 0.026918 
END IONS

