BEGIN IONS
PEPMASS=1200.83
CHARGE=1+
COMPOUNDNAME=CYCLOSPORINE
LIBRARYQUALITY=3
SMILES=N/A
INCHIKEY=PMATZTZNYRCHOR-KMSBSJHKSA-N
INCHI=InChI=1S/C62H111N11O12/c1-25-27-28-40(15)52(75)51-56(79)65-43(26-2)58(81)67(18)33-48(74)68(19)44(29-34(3)4)55(78)66-49(38(11)12)61(84)69(20)45(30-35(5)6)54(77)63-41(16)53(76)64-42(17)57(80)70(21)46(31-36(7)8)59(82)71(22)47(32-37(9)10)60(83)72(23)50(39(13)14)62(85)73(51)24/h25,27,34-47,49-52,75H,26,28-33H2,1-24H3,(H,63,77)(H,64,76)(H,65,79)(H,66,78)/b27-25+/t40-,41?,42?,43?,44?,45?,46?,47?,49?,50?,51?,52-/m1/s1
MSLEVEL=2
SOURCE_INSTRUMENT=N/A-ESI-QFT
FILENAME=library_mgf.mgf
SEQ=*..*
IONMODE=negative
ORGANISM=MONA
NAME=CYCLOSPORINE [M-H]-
PI=MoNA
DATACOLLECTOR=MoNA:VF-NPL-QEHF028189
PUBMED=N/A
SUBMITUSER=mwang87
TAGS=
SPECTRUMID=CCMSLIB00004721770
SCANS=28189
83.049583 0.032308 
83.298424 0.021997 
83.847733 0.026286 
84.007599 0.431884 
84.044083 0.13487 
84.387337 0.021808 
84.431107 0.052051 
85.251198 0.020244 
85.338402 0.033588 
85.573303 0.032935 
86.195526 0.027226 
86.236794 0.031423 
86.469116 0.024926 
86.554733 0.035361 
87.054924 2.599575 
87.457756 0.031265 
88.038948 2.94096 
89.041519 0.026725 
89.467438 0.034436 
90.10659 0.038524 
90.676094 0.017504 
91.804176 0.020021 
92.163582 0.040642 
92.599495 0.051947 
93.430832 0.027539 
95.291885 0.035214 
95.857208 0.033468 
97.039291 3.886844 
97.115059 0.054652 
97.239807 0.01944 
98.023293 1.454892 
98.096069 0.789792 
99.054886 0.152922 
100.038994 0.020683 
100.675163 0.030632 
100.903694 0.027568 
101.070648 16.372419 
102.073776 0.164346 
102.813148 0.019427 
103.755592 0.035848 
104.005478 0.030272 
105.128761 0.029128 
107.25238 0.058486 
107.856384 0.027934 
108.028442 0.034041 
109.228027 0.031111 
110.0233 0.722147 
110.096077 1.746921 
110.213524 0.051618 
111.018654 0.110464 
111.054947 0.131803 
111.73114 0.020702 
112.026428 1.100869 
112.039009 0.664246 
112.075348 2.155521 
113.034248 1.929197 
113.070618 1.105777 
113.22847 0.031544 
113.238914 0.032291 
114.091171 0.082813 
115.038971 0.120018 
115.086319 3.940115 
115.826805 0.027135 
116.070396 0.134991 
117.165398 0.031779 
117.430244 0.032163 
117.683258 0.028008 
117.715439 0.021922 
119.462494 0.032017 
120.920662 0.01873 
124.039047 6.210499 
125.034279 1.789074 
125.042587 0.038929 
125.070541 0.613014 
126.042122 1.881662 
126.054604 0.327634 
126.091049 2.839495 
126.46093 0.029452 
126.66497 0.034592 
127.04998 6.402659 
127.08638 1.008364 
128.070465 0.056696 
128.106781 0.236855 
129.102051 3.656399 
130.086029 3.885122 
130.469116 0.029929 
131.191315 0.0311 
131.529938 0.029434 
131.619888 0.033448 
133.178635 0.02018 
133.194458 0.0283 
135.195129 0.020105 
135.473068 0.031346 
137.070251 0.05933 
139.050003 1.060503 
139.086288 0.383872 
140.057709 0.284593 
140.070053 0.074742 
140.106781 1.984339 
141.065628 6.441544 
141.974625 0.035762 
143.117706 39.155499 
143.789032 0.031325 
144.101715 16.547373 
144.115005 0.062859 
144.121048 2.07298 
144.126511 0.032655 
145.105194 0.421927 
146.655273 0.02372 
149.266342 0.040344 
150.274597 0.020986 
150.466599 0.021314 
151.086349 0.032667 
152.070541 0.596419 
152.094162 0.028848 
152.976807 0.031614 
153.065643 0.878191 
153.102112 3.726454 
154.073654 4.37333 
154.085999 1.514357 
154.122406 0.028304 
155.081406 49.848637 
155.117065 0.041929 
156.084686 2.651858 
157.133392 11.614401 
157.6828 0.03349 
158.13681 0.159254 
165.10202 0.590401 
165.59671 0.022746 
166.086197 1.926717 
167.081406 0.834239 
167.117859 1.977599 
168.089233 1.651987 
168.101639 0.211002 
169.097107 17.719126 
169.105133 0.055597 
169.133484 0.779724 
169.462906 0.028282 
170.10054 0.540243 
171.022278 0.033729 
171.112213 0.031587 
171.149139 0.522059 
171.306198 0.025797 
172.036667 0.02397 
172.108032 5.424807 
172.173691 0.020534 
175.263657 0.024576 
176.874405 0.034387 
177.229828 0.022818 
179.117783 0.070406 
180.042206 0.036471 
180.101913 2.56459 
180.989471 0.038035 
181.097122 1.62979 
182.105072 3.060881 
182.11763 1.394925 
182.153931 2.470462 
183.077179 0.033908 
183.112869 13.287744 
183.157883 0.022658 
184.11618 0.620943 
186.123779 32.878098 
186.133224 0.597541 
187.002594 0.030927 
187.127258 2.056628 
187.795731 0.055455 
188.818237 0.031709 
190.267624 0.034746 
193.133621 0.134251 
194.117722 0.72706 
195.112854 0.869294 
195.148376 0.037876 
196.144241 0.061687 
196.169907 0.030808 
196.852478 0.021648 
197.12854 100.0 
197.16478 1.427919 
198.087341 0.554504 
198.132187 7.308745 
198.185562 0.205047 
199.144409 0.020647 
199.180466 0.46341 
200.139481 6.613083 
200.342773 0.021398 
201.123459 0.469102 
201.142899 0.061228 
204.239502 0.021767 
207.149384 2.792196 
208.108322 0.399459 
208.133453 3.264488 
208.142899 0.045709 
209.092422 0.742277 
209.103119 0.036668 
209.128387 0.144668 
210.137482 0.063889 
210.148987 6.959136 
211.144089 2.563426 
212.102234 0.019493 
212.784088 0.051159 
213.196762 0.066274 
214.155212 4.506363 
215.139282 2.021898 
215.158264 0.096688 
219.25148 0.028878 
219.823547 0.035286 
221.165253 0.120293 
221.452789 0.062321 
222.14917 3.485574 
222.823898 0.033384 
223.145599 0.025245 
224.152328 1.975774 
224.164917 3.402002 
224.176285 1.84763 
225.160019 13.871115 
226.119019 8.084972 
226.163727 0.640714 
227.122482 0.242587 
227.176025 0.2655 
228.120514 0.020623 
228.171112 5.951295 
228.190857 0.020119 
228.507248 0.021625 
229.175049 0.091873 
231.00795 0.038492 
231.507965 0.034352 
234.124588 0.268508 
235.180557 0.066251 
238.168198 0.236027 
239.175812 9.787574 
240.134781 0.252613 
240.17009 3.617784 
242.186676 4.077897 
243.170868 4.698393 
243.191284 0.031589 
244.17395 0.076087 
247.034637 0.020173 
247.05481 0.02148 
247.468872 0.031074 
250.155579 0.188637 
250.193039 0.032776 
252.207962 0.112684 
253.191605 6.07246 
254.150497 0.196888 
254.195297 0.163284 
255.207642 0.438447 
256.202606 34.487358 
257.16153 18.826742 
257.185638 5.139712 
257.205017 3.700808 
258.164825 1.495331 
258.189545 0.092241 
260.842499 0.036593 
262.15564 0.02089 
264.171204 0.074723 
266.149811 0.040383 
266.187042 0.514994 
266.223328 0.083638 
267.158783 0.040282 
267.208405 0.03375 
268.166504 8.579094 
268.201782 0.036718 
269.169647 0.433932 
270.218292 6.734993 
271.22171 0.297429 
275.562042 0.05688 
281.197784 0.357421 
282.181763 16.215038 
282.219269 0.184757 
283.185211 1.904043 
283.22403 0.025462 
284.233826 14.062501 
285.19278 4.478765 
285.237549 1.50981 
286.177094 0.148742 
286.196198 0.173738 
290.158295 0.021019 
292.202667 5.593885 
293.205933 0.326166 
294.145691 0.565196 
298.249512 0.538595 
299.208374 18.647434 
300.2117 2.172048 
303.052856 0.034452 
304.198425 0.03539 
304.224213 0.068094 
306.218201 0.349866 
307.738373 0.033652 
310.213196 11.361431 
311.216705 1.235702 
313.224426 0.600508 
315.903839 0.021682 
324.228729 3.622018 
325.187683 0.950084 
325.231232 0.124421 
325.546997 0.032026 
326.280945 7.268831 
327.239716 2.423983 
327.284058 0.812806 
328.223602 1.17604 
328.243683 0.043221 
330.523956 0.036009 
334.290405 0.024002 
335.244537 0.361564 
337.260712 0.045257 
338.244324 0.510144 
339.203308 0.555824 
339.812225 0.023341 
340.297455 0.048802 
350.856384 0.031662 
351.238678 0.027477 
351.276154 2.856844 
352.237213 0.194243 
352.259369 3.263837 
353.219238 0.482955 
353.262939 0.142822 
354.43103 0.02548 
355.269989 0.103615 
365.218048 0.021605 
366.275482 1.3034 
369.286499 9.499211 
370.245331 1.344469 
370.290375 1.148714 
379.305786 0.037053 
382.306946 0.038597 
383.75412 0.030358 
384.286713 0.385508 
394.126923 0.019805 
395.265656 8.158862 
396.268646 1.059135 
397.317688 3.745672 
398.277039 0.034946 
398.320587 0.310066 
411.333496 6.593983 
412.336884 0.868203 
417.022003 0.056319 
422.312622 0.033003 
423.577972 0.022556 
425.350006 0.273653 
426.308411 8.80662 
427.311218 1.312511 
437.313019 2.544728 
438.315491 0.133663 
439.080505 0.031461 
440.323914 0.483299 
441.30777 1.659562 
442.389557 0.034274 
443.635376 0.02084 
446.87912 0.031114 
449.390656 0.019607 
451.536072 0.032001 
452.287445 1.638455 
454.339264 0.112547 
459.892059 0.037152 
460.203033 0.03465 
464.360748 0.042091 
464.844513 0.023485 
465.358307 0.039238 
466.303741 0.151913 
468.355835 0.099983 
482.370789 0.547475 
483.330322 0.088501 
489.060486 0.022601 
493.327118 0.265586 
494.334198 0.57199 
496.386047 6.127427 
497.347504 0.151365 
497.390015 1.297137 
508.349854 20.607634 
509.352783 5.07363 
510.355377 0.043241 
515.575684 0.035812 
522.365967 0.676098 
523.37439 0.03609 
525.376892 0.499896 
526.361816 0.349577 
534.32959 0.212052 
534.536499 0.035485 
535.399475 0.058112 
539.392578 0.470392 
541.455322 0.042024 
553.40802 14.558243 
554.411255 3.70773 
555.413025 0.039939 
561.376343 0.644501 
564.414124 0.056482 
565.371643 4.307781 
566.374451 0.915299 
576.551453 0.031974 
579.38739 3.502433 
580.390747 0.744007 
593.403198 0.683354 
595.455566 0.125069 
596.887878 0.033875 
605.366882 0.92974 
609.471436 3.183782 
610.426575 0.375153 
610.475403 0.544546 
621.436584 0.179903 
626.71875 0.059958 
635.450806 1.894795 
636.454041 0.2815 
650.989746 0.035164 
651.547913 0.070264 
652.4776 0.424673 
653.462158 0.832731 
654.462769 0.036845 
658.952637 0.022061 
662.498291 2.553022 
663.500122 0.514059 
664.440979 1.766675 
665.441772 0.210284 
666.492676 10.827835 
667.494934 3.513671 
668.496155 0.038408 
680.50824 10.400271 
681.511475 3.359039 
701.153381 0.026551 
706.266296 0.029745 
706.487671 7.41758 
707.490356 2.524479 
708.487427 0.033652 
708.584839 0.046435 
708.647278 0.034422 
708.782166 0.046916 
708.853943 0.063702 
708.953979 0.029349 
709.080933 0.040521 
709.172607 0.147966 
709.231323 0.17309 
709.276184 0.094529 
720.503479 0.029745 
721.461304 0.869932 
722.464783 0.06792 
723.513855 0.895368 
724.509705 0.14033 
734.521301 0.277834 
737.417969 0.023907 
737.529724 15.833523 
738.532104 5.701466 
739.534912 0.275918 
748.547485 0.06605 
750.491211 0.03786 
765.56189 0.520849 
779.576172 0.0353 
791.541321 1.307079 
792.545654 0.208092 
805.558167 0.065416 
809.439453 0.03899 
811.831787 0.039371 
815.072754 0.024764 
822.581604 6.408033 
823.5849 2.649677 
824.583008 0.02417 
833.585938 0.061714 
835.644714 0.028292 
836.598755 2.059564 
837.601501 0.535658 
840.404358 0.031142 
844.140076 0.025813 
862.577637 2.34468 
863.581543 0.838584 
879.628662 0.619646 
880.630249 0.079673 
893.618164 4.130426 
894.623413 1.660519 
901.865234 0.035612 
906.684143 0.029283 
907.405762 0.040305 
929.350281 0.03612 
931.006531 0.035647 
932.656128 3.343882 
933.65863 1.312818 
934.65448 0.025558 
938.334839 0.040385 
939.920715 0.021192 
950.662292 0.034377 
954.503784 0.034463 
974.306946 0.02612 
992.019836 0.022682 
993.112732 0.037278 
1037.100952 0.039764 
1067.80127 0.023037 
1088.745117 4.510616 
1089.748047 2.305721 
1090.750122 0.071968 
1092.341919 0.03564 
1100.639771 0.021582 
1111.667847 0.035452 
1135.193359 0.021374 
1136.714233 0.036012 
1140.888916 0.027611 
1142.148071 0.038346 
1144.065186 0.040518 
1171.827393 0.065206 
END IONS

