BEGIN IONS
PEPMASS=397.193
CHARGE=1+
COMPOUNDNAME=Kasugamycin
LIBRARYQUALITY=3
SMILES=N/A
INCHIKEY=PVTHJAPFENJVNC-UQTMRZPGSA-N
INCHI=InChI=1S/C14H25N3O9/c1-3-5(17-12(16)13(23)24)2-4(15)14(25-3)26-11-9(21)7(19)6(18)8(20)10(11)22/h3-11,14,18-22H,2,15H2,1H3,(H2,16,17)(H,23,24)/t3-,4+,5+,6?,7+,8+,9-,10+,11?,14-/m1/s1
MSLEVEL=2
SOURCE_INSTRUMENT=N/A-ESI-QFT
FILENAME=library_mgf.mgf
SEQ=*..*
IONMODE=positive
ORGANISM=MONA
NAME=Kasugamycin [M+NH4]+
PI=MoNA
DATACOLLECTOR=MoNA:VF-NPL-QEHF013462
PUBMED=N/A
SUBMITUSER=mwang87
TAGS=
SPECTRUMID=CCMSLIB00004704525
SCANS=13462
50.90556 0.008156 
50.929821 0.008235 
51.475559 0.007458 
51.562126 0.007558 
51.879505 0.007156 
52.07122 0.008072 
52.362747 0.008832 
52.529613 0.007447 
53.03931 0.685834 
54.034809 0.007917 
54.066673 0.008674 
54.272156 0.007293 
54.542858 0.008637 
55.305515 0.008331 
55.373589 0.007546 
55.684528 0.008914 
55.768929 0.007592 
55.919926 0.007688 
56.050243 0.078375 
57.04549 0.047261 
57.07061 0.112419 
57.417248 0.008273 
57.670158 0.009631 
58.06583 0.034565 
58.137245 0.009691 
58.753513 0.009782 
58.912842 0.00862 
58.969269 0.006741 
59.050007 0.008299 
59.061077 3.815346 
59.492027 0.008018 
60.064159 0.012425 
60.213539 0.00741 
60.927338 0.008021 
61.734715 0.008443 
62.208519 0.008074 
62.254955 0.006856 
63.775024 0.007876 
65.26368 0.016618 
65.602348 0.007767 
65.912415 0.007338 
65.920715 0.007841 
65.988487 0.010042 
66.036461 0.007615 
66.135925 0.007342 
66.308929 0.007133 
67.034508 0.007956 
67.054924 0.022851 
67.571281 0.007275 
67.854454 0.008974 
68.050171 0.01821 
68.578491 0.007596 
68.701271 0.009904 
69.070526 0.015459 
69.362686 0.009084 
70.065765 49.004238 
70.543571 0.008628 
70.711357 0.00864 
70.837219 0.008277 
71.06279 0.094033 
71.069107 2.110167 
71.086075 0.038457 
72.045303 0.010394 
72.081367 0.041345 
72.128281 0.008165 
72.802025 0.009123 
73.004211 0.008843 
73.047432 0.313163 
73.827988 0.008048 
74.060684 0.344231 
75.033623 0.010284 
76.919449 0.007978 
77.433472 0.008066 
79.021797 0.080438 
81.019028 0.153305 
81.034065 0.027702 
81.045303 0.2097 
81.070518 0.01059 
82.065643 0.555365 
83.049721 0.047569 
83.060883 0.804291 
83.086456 0.009096 
83.098694 0.007381 
83.188148 0.01026 
83.36219 0.008049 
84.044792 0.030404 
84.081322 0.141328 
84.427444 0.008352 
84.679123 0.007333 
85.065186 0.010149 
85.678574 0.008035 
86.096664 0.011403 
89.035019 2.543455 
89.060181 0.138276 
89.627419 0.007546 
90.662399 0.008566 
91.055016 0.00872 
91.057823 0.433865 
91.864075 0.008204 
92.118034 0.007328 
92.833321 0.009512 
93.132217 0.00804 
93.180862 0.009343 
94.026955 0.010128 
94.065559 1.251303 
95.04953 1.764984 
95.060799 0.255907 
95.069031 0.009384 
95.836655 0.008643 
96.052811 0.009898 
96.081154 0.096052 
97.076485 0.080102 
98.060417 0.432252 
98.975693 0.018794 
99.044388 0.011914 
99.055702 0.425466 
99.356766 0.009879 
100.646317 0.006796 
101.093185 0.008315 
101.443771 0.008932 
102.148529 0.008724 
102.445732 0.009149 
102.677696 0.00863 
104.678566 0.008389 
107.049889 0.009495 
108.07888 0.009394 
109.016083 0.009172 
109.028633 0.450887 
109.813568 0.009463 
110.34568 0.009308 
111.091873 0.751621 
111.560394 0.007586 
112.075882 100.0 
113.059883 0.237671 
113.07193 0.442976 
113.079224 6.59503 
114.079903 0.028595 
115.572838 0.008223 
115.993591 0.011368 
116.052673 0.022025 
116.125977 0.008523 
118.086098 0.008467 
121.076157 0.279759 
122.060234 0.137962 
123.395065 0.009425 
123.922989 0.009877 
125.02359 0.010031 
127.050446 0.01893 
127.086449 0.008357 
127.623665 0.008069 
127.923309 0.007349 
128.070618 0.024005 
129.102325 0.26146 
130.086609 0.009521 
131.070328 0.018926 
132.258438 0.012347 
134.264404 0.01015 
135.515015 0.008292 
135.65921 0.008868 
135.730362 0.008003 
138.102661 0.281487 
139.086487 1.212359 
140.090286 0.011025 
140.749695 0.010047 
142.049988 0.057737 
143.139862 0.00902 
145.118637 0.008206 
147.945267 0.008637 
148.72702 0.008696 
149.023254 0.54642 
152.764236 0.008857 
154.122849 0.008352 
154.229279 0.007638 
154.470642 0.008973 
155.057709 0.009657 
155.062775 0.008333 
156.113083 7.814099 
156.120316 0.131054 
157.109909 0.013287 
157.116272 0.60091 
157.914886 0.01083 
160.552338 0.008806 
161.554108 0.009564 
161.58287 0.011 
161.917435 0.008586 
164.005203 0.008506 
164.587418 0.00856 
165.979568 0.009074 
171.777206 0.009057 
177.067184 0.009166 
178.095169 0.545435 
180.450165 0.008693 
183.076416 0.55388 
185.082504 0.008352 
186.030975 0.009086 
187.310333 0.010342 
190.032944 0.009572 
192.961288 0.008572 
195.044357 0.03079 
199.071487 0.086257 
200.033035 0.01071 
200.102844 4.173206 
201.106201 0.290576 
201.501419 0.010631 
201.549118 0.007594 
201.68869 0.008793 
202.106293 0.008046 
203.052567 0.465624 
203.103531 0.00781 
205.521271 0.009349 
207.317932 0.086492 
210.18576 0.011606 
211.132858 0.008795 
212.070404 0.137459 
213.054581 0.137164 
214.897003 0.009188 
215.045898 0.03894 
215.05896 0.300582 
215.070374 0.23757 
215.083527 0.172419 
215.138641 0.010469 
217.071121 0.051935 
225.042816 0.070236 
228.648163 0.009169 
230.080597 0.075565 
231.626556 0.010384 
231.680969 0.008672 
238.049774 0.009862 
240.628571 0.008905 
240.879456 0.009081 
244.540726 0.00937 
247.885422 0.008857 
250.177551 0.008935 
255.038773 0.253957 
256.060272 0.675524 
256.9646 0.0129 
258.998047 0.060752 
261.030457 0.014678 
261.320801 0.00802 
263.056 0.009115 
265.087982 0.046622 
266.961639 0.009281 
269.496582 0.008955 
271.054657 0.008587 
274.070587 0.507602 
274.128265 0.577246 
274.974152 0.18896 
275.131561 0.009237 
276.970215 0.034946 
277.008148 0.068343 
277.477905 0.008235 
277.969574 0.010675 
278.96756 0.012486 
281.065674 0.032017 
281.913055 0.009512 
283.263031 0.009431 
283.375 0.0091 
285.009552 0.02609 
286.290161 0.011343 
287.006439 0.05402 
287.204498 0.008641 
290.357758 0.010156 
291.06665 0.029174 
292.138916 0.172515 
292.985229 0.05304 
295.714813 0.007993 
295.978546 0.012688 
297.098541 0.008494 
309.077393 0.014191 
314.710846 0.009676 
315.518494 0.008598 
320.727997 0.009077 
330.080048 0.009344 
334.071045 0.008634 
338.775574 0.009555 
339.439392 0.011027 
344.974915 0.010167 
347.383698 0.008675 
353.843018 0.009525 
358.15799 3.7934 
358.84314 0.00867 
359.16153 0.58465 
360.165039 0.013187 
360.83902 0.540882 
361.840118 0.008329 
370.722107 0.00805 
373.157501 0.240779 
378.849487 0.100864 
379.19223 0.009961 
380.931 0.009494 
381.278015 0.008737 
385.188812 0.009594 
385.290344 0.009777 
390.559021 0.007883 
393.209198 0.811317 
394.214325 0.030356 
399.307373 0.010107 
405.260284 0.119169 
407.188843 0.183828 
408.192322 0.011531 
410.981903 0.008839 
418.11264 0.063971 
422.007629 0.008429 
422.762329 0.007516 
436.123535 0.068767 
439.722687 0.009368 
442.263763 0.009081 
447.346985 0.099338 
END IONS

