BEGIN IONS
PEPMASS=1293.55
CHARGE=1+
COMPOUNDNAME=DACTINOMYCIN
LIBRARYQUALITY=3
SMILES=N/A
INCHIKEY=RJURFGZVJUQBHK-IIXSONLDSA-N
INCHI=InChI=1S/C62H86N12O16/c1-27(2)42-59(84)73-23-17-19-36(73)57(82)69(13)25-38(75)71(15)48(29(5)6)61(86)88-33(11)44(55(80)65-42)67-53(78)35-22-21-31(9)51-46(35)64-47-40(41(63)50(77)32(10)52(47)90-51)54(79)68-45-34(12)89-62(87)49(30(7)8)72(16)39(76)26-70(14)58(83)37-20-18-24-74(37)60(85)43(28(3)4)66-56(45)81/h21-22,27-30,33-34,36-37,42-45,48-49H,17-20,23-26,63H2,1-16H3,(H,65,80)(H,66,81)(H,67,78)(H,68,79)/t33-,34-,36+,37+,42-,43-,44+,45+,48+,49+/m1/s1
MSLEVEL=2
SOURCE_INSTRUMENT=N/A-Linear Ion Trap
FILENAME=library_mgf.mgf
SEQ=*..*
IONMODE=positive
ORGANISM=MONA
NAME=DACTINOMYCIN M+H
PI=MoNA
DATACOLLECTOR=MoNA:VF-NPL-LTQ006137
PUBMED=N/A
SUBMITUSER=mwang87
TAGS=
SPECTRUMID=CCMSLIB00004689643
SCANS=5264
966.309998 10.288544 
1067.329956 100.0 
1162.380005 37.63208 
1259.439941 5.704773 
1265.439941 16.949503 
END IONS

