BEGIN IONS
PEPMASS=284.11
CHARGE=1+
COMPOUNDNAME=Lotaustralin
LIBRARYQUALITY=3
SMILES=N/A
INCHIKEY=WEWBWVMTOYUPHH-GXUZYPEDSA-N
INCHI=InChI=1S/C11H19NO6/c1-3-11(2,5-12)18-10-9(16)8(15)7(14)6(4-13)17-10/h6-10,13-16H,3-4H2,1-2H3/t6-,7-,8+,9-,10+,11?/m1/s1
MSLEVEL=2
SOURCE_INSTRUMENT=N/A-ESI-QFT
FILENAME=library_mgf.mgf
SEQ=*..*
IONMODE=positive
ORGANISM=MONA
NAME=Lotaustralin [M+Na]+
PI=MoNA
DATACOLLECTOR=MoNA:VF-NPL-QEHF007866
PUBMED=N/A
SUBMITUSER=mwang87
TAGS=
SPECTRUMID=CCMSLIB00004698929
SCANS=7866
50.67178 2.056591 
51.166122 4.799125 
51.743752 2.163097 
52.183014 6.118928 
52.465672 0.718892 
52.798344 0.940649 
52.812233 6.396544 
53.049568 1.853743 
53.342274 6.498435 
54.03923 7.326681 
54.169182 0.87745 
54.271648 5.750565 
54.516552 5.756427 
55.018574 0.951745 
55.054989 6.40473 
55.426907 3.817578 
56.083313 3.832554 
56.965576 100.0 
57.070633 44.615646 
57.744099 3.471667 
58.065872 32.192234 
58.565994 6.339435 
60.081516 90.632919 
60.483273 1.808781 
60.821571 1.014267 
61.011333 1.253587 
61.0849 0.957159 
61.250969 1.86166 
61.483017 0.815533 
61.951138 1.07994 
63.863232 2.085294 
64.648033 6.389973 
64.768204 0.728774 
65.266991 6.270508 
65.454559 6.639967 
66.661057 5.849179 
66.796661 5.409033 
67.054924 1.775454 
67.706223 3.22447 
68.923065 0.935471 
69.034309 1.140032 
69.070572 2.900544 
70.065788 1.039033 
70.299927 6.829476 
71.049728 0.979835 
71.086143 4.860694 
71.704254 3.763609 
72.244919 0.953096 
75.452652 5.957946 
77.088867 0.739717 
77.245041 1.023722 
79.054817 0.901601 
80.838631 1.734949 
81.070358 1.679803 
81.702461 0.778684 
82.886398 1.772214 
85.02903 9.24711 
85.074104 0.980279 
85.101562 1.011465 
85.523285 3.337794 
85.975739 1.963065 
86.216667 6.627354 
86.345345 6.371917 
87.305779 5.000337 
88.317444 1.035653 
88.373299 6.702174 
89.060265 7.966543 
89.60582 3.472966 
89.782463 1.023716 
89.834053 6.862264 
91.054588 2.834421 
91.057777 1.31245 
92.605698 1.968335 
93.070312 2.392711 
93.439949 2.114177 
94.136353 5.446394 
94.972702 5.316799 
95.085793 1.726874 
96.859795 0.846452 
99.055603 2.435242 
100.404831 1.07954 
100.991325 17.618786 
101.932495 5.8934 
101.98098 1.08422 
103.538139 6.750787 
106.433022 0.90533 
106.485497 5.543034 
106.723213 5.472176 
107.317635 3.419017 
109.133087 7.811362 
113.194466 7.208267 
113.347488 5.991478 
113.855545 5.914555 
114.212067 6.684182 
114.942352 1.046348 
117.025902 7.438903 
118.787437 8.196069 
119.668289 0.803486 
121.028732 0.949287 
122.134872 5.667284 
124.553818 1.224327 
126.199722 6.13825 
129.085892 2.137378 
134.978714 69.484444 
137.011765 2.620038 
138.376678 4.238351 
143.086075 2.002326 
152.989319 17.141602 
153.306168 6.410766 
154.705963 6.006223 
162.135376 7.887866 
163.416428 6.054372 
164.782181 7.241378 
165.898392 5.627443 
168.614212 7.162643 
169.462173 7.050111 
172.691269 3.970412 
181.322891 1.129704 
183.185928 7.198534 
191.003998 6.317239 
197.283539 7.144412 
207.789124 6.264747 
212.93573 6.670755 
213.453674 1.883486 
219.419128 10.234319 
219.431564 30.668987 
225.735306 0.978794 
227.361282 5.411801 
240.20282 1.173029 
253.338348 6.112337 
254.962662 1.890135 
265.685333 6.378059 
268.978363 18.709755 
268.995331 9.076887 
279.509766 7.700505 
284.331207 3.1985 
284.941772 5.653422 
304.169586 8.282262 
309.795837 2.202085 
309.917816 7.139547 
END IONS

