BEGIN IONS
PEPMASS=1460.71
CHARGE=1+
COMPOUNDNAME=BACITRACIN
LIBRARYQUALITY=3
SMILES=N/A
INCHIKEY=CLKOFPXJLQSYAH-NVOBBBONSA-N
INCHI=InChI=1S/C66H103N17O16S/c1-9-35(6)52(69)66-81-48(32-100-66)63(97)76-43(26-34(4)5)59(93)74-42(22-23-50(85)86)58(92)83-53(36(7)10-2)64(98)75-40-20-15-16-25-71-55(89)46(29-49(68)84)78-62(96)47(30-51(87)88)79-61(95)45(28-39-31-70-33-72-39)77-60(94)44(27-38-18-13-12-14-19-38)80-65(99)54(37(8)11-3)82-57(91)41(21-17-24-67)73-56(40)90/h12-14,18-19,31,33-37,40-48,52-54H,9-11,15-17,20-30,32,67,69H2,1-8H3,(H2,68,84)(H,70,72)(H,71,89)(H,73,90)(H,74,93)(H,75,98)(H,76,97)(H,77,94)(H,78,96)(H,79,95)(H,80,99)(H,82,91)(H,83,92)(H,85,86)(H,87,88)/t35?,36?,37?,40-,41+,42+,43-,44+,45-,46-,47+,48?,52?,53-,54-/m0/s1
MSLEVEL=2
SOURCE_INSTRUMENT=N/A-ESI-QFT
FILENAME=library_mgf.mgf
SEQ=*..*
IONMODE=positive
ORGANISM=MONA
NAME=BACITRACIN [M+K]+
PI=MoNA
DATACOLLECTOR=MoNA:VF-NPL-QEHF027775
PUBMED=N/A
SUBMITUSER=mwang87
TAGS=
SPECTRUMID=CCMSLIB00004721356
SCANS=27775
101.107399 0.240791 
102.055023 5.439238 
102.091492 0.018855 
103.054329 0.46492 
103.058144 0.148088 
103.911949 0.016782 
105.070091 0.028714 
106.426788 0.011603 
107.060654 0.015925 
108.055664 0.040903 
108.080902 0.043225 
109.076141 0.29383 
110.071266 100.0 
110.096169 0.17319 
110.810974 0.010215 
111.055405 0.123558 
111.06823 0.910374 
111.074593 5.168953 
111.091629 1.926879 
111.143631 0.017203 
112.075584 1.067107 
112.086975 0.277593 
112.112038 0.135547 
113.070961 0.064485 
113.107353 0.628051 
113.279442 0.018071 
114.091431 0.080979 
114.10257 0.193897 
114.507736 0.018771 
115.086632 7.348106 
116.070595 0.044155 
116.089859 0.227485 
117.090302 0.016458 
118.06485 0.037179 
120.055824 0.248985 
120.080833 8.359735 
120.163666 0.015425 
121.039742 0.291798 
121.076225 0.055036 
121.084152 0.574279 
122.071297 0.977884 
123.055275 0.667749 
123.091766 0.207067 
124.075829 0.038657 
124.086952 0.427505 
124.112091 0.240816 
125.07103 0.267631 
125.107422 0.27356 
125.193291 0.014244 
125.424019 0.017572 
126.090904 0.020928 
127.050407 0.012444 
127.086601 0.231406 
128.026535 0.01596 
128.070786 0.017885 
128.118515 0.021692 
129.065796 0.190208 
129.102188 19.618698 
129.107681 0.274396 
129.995697 0.017149 
130.04982 0.244596 
130.065155 0.255544 
130.086334 0.164041 
130.100708 0.013799 
130.10553 1.214041 
130.277054 0.014696 
131.027191 0.022455 
131.117828 0.353356 
132.080719 0.198182 
133.063721 0.069734 
133.205185 0.014483 
134.071259 0.015303 
134.096313 0.061017 
134.469498 0.015679 
135.091599 0.525346 
136.050766 0.063901 
136.075714 0.873241 
136.086975 2.290527 
136.112106 0.05305 
136.480316 0.014495 
137.071075 0.158272 
137.082672 0.032314 
137.107315 1.084371 
137.789169 0.016786 
138.060532 0.019125 
138.066223 4.176864 
138.091171 0.076682 
138.102402 0.082659 
138.127686 1.440783 
139.06958 0.110622 
139.086594 6.417458 
139.122955 0.274885 
139.130219 0.017586 
140.070877 0.020373 
140.08252 0.021963 
140.089951 0.405296 
140.107025 0.216222 
140.118134 0.2989 
140.143387 0.334106 
141.011734 0.021727 
141.102249 0.957827 
142.259155 0.015393 
142.396393 0.017591 
143.027298 0.01175 
143.045197 0.343392 
143.081512 0.157204 
143.117767 0.0372 
146.128754 1.483874 
146.429718 0.013495 
147.113068 0.032165 
147.927963 0.01239 
148.050278 0.044308 
148.086945 0.306767 
149.107361 0.131333 
150.066299 0.020969 
151.086502 0.171158 
151.122894 0.111697 
152.107117 0.173614 
152.118347 0.086176 
152.131012 0.017277 
152.143417 0.856731 
153.102295 0.828843 
153.138519 0.03203 
154.06105 0.123658 
154.068222 0.059828 
154.086411 0.046243 
154.122894 0.017831 
154.133896 0.727022 
154.158997 0.69667 
155.092682 4.175195 
155.117767 1.819211 
155.154648 0.024822 
156.076645 2.3284 
156.095642 0.019113 
156.113144 2.558811 
157.097137 0.23082 
159.091797 0.135781 
162.066162 0.249713 
162.102478 2.366326 
163.086487 2.361065 
163.098053 0.222491 
163.106216 0.015534 
163.122986 0.337609 
164.070526 2.445293 
164.082016 1.245634 
164.088959 0.127851 
164.118271 0.362957 
164.693329 0.019392 
165.07724 1.737418 
165.084106 0.018968 
165.102158 1.200981 
165.113785 0.150455 
165.13858 0.309746 
166.061096 7.862114 
166.0867 0.077246 
166.09761 0.131987 
166.10524 0.017506 
166.122635 0.112968 
166.133972 0.627704 
167.056183 0.046071 
167.064423 0.519172 
167.081451 1.066499 
167.117935 0.55207 
167.154114 0.303904 
168.101868 0.374325 
168.113464 0.023188 
168.149506 0.103446 
169.079422 0.09238 
169.097015 0.1632 
169.133377 0.491295 
170.117661 0.058312 
171.094498 0.039694 
172.079147 0.07447 
172.112061 0.303259 
175.086395 0.241341 
176.118256 0.878686 
177.138596 1.047926 
178.097519 0.017303 
178.125885 0.020186 
178.133896 1.720126 
179.092651 0.156401 
179.117996 0.812646 
179.137695 0.040592 
179.154465 0.103574 
180.07666 0.529741 
180.103775 0.016233 
180.112991 1.221166 
180.149353 0.440176 
181.072296 0.023136 
181.097229 8.74183 
181.108261 5.886098 
181.116882 0.190173 
181.133331 1.877246 
181.1698 0.085522 
182.081329 0.115605 
182.100601 0.750771 
182.111679 0.287844 
182.128693 0.199101 
182.137085 0.081303 
182.165054 1.601926 
183.087479 0.021547 
183.10495 0.015691 
183.112839 1.707608 
183.149231 3.009156 
183.462662 0.015442 
184.061554 0.019647 
184.071655 0.042866 
184.108032 0.397561 
184.116684 0.023162 
184.152771 0.179898 
184.181061 0.187964 
185.055695 1.033021 
185.074097 0.048386 
185.092178 0.266677 
186.127747 0.12663 
187.089645 0.264997 
188.143402 0.623091 
189.077591 0.012372 
189.104645 0.196554 
189.11351 0.382 
190.061203 0.370417 
190.097565 0.498849 
190.133774 0.375792 
190.596329 0.018163 
190.832642 0.016529 
191.082199 0.453234 
191.092636 2.187091 
191.117813 0.98345 
191.127441 0.015303 
191.154617 0.020213 
192.076813 0.109464 
192.096436 0.015772 
192.113052 0.159651 
192.122849 0.023772 
192.149368 1.264294 
192.825867 0.016315 
193.072052 0.09817 
193.09726 0.179707 
193.106628 0.016632 
193.133606 3.531835 
193.143616 0.029291 
194.092361 0.131055 
194.119049 0.019404 
194.128815 0.382354 
194.137543 0.17199 
194.165268 0.407191 
195.040085 0.050648 
195.076538 0.025066 
195.112869 0.441319 
195.149261 0.430333 
195.172943 0.01799 
196.043823 0.033798 
196.107803 0.145489 
196.14444 1.806467 
196.180756 1.855417 
197.065704 0.016639 
197.074265 1.218539 
197.110794 0.132465 
197.128403 2.052245 
197.148193 0.075619 
197.164764 1.022184 
197.184479 0.065951 
197.55365 0.01755 
198.05838 0.24286 
198.123688 11.944636 
198.134033 0.298771 
198.159683 0.057177 
198.978271 0.018778 
199.073334 0.030174 
199.089996 5.267508 
199.107391 0.980988 
199.127106 1.179136 
199.143631 0.040544 
200.074249 0.070906 
200.093185 0.355487 
200.110764 0.022281 
200.139633 0.01492 
200.175735 0.600948 
201.085876 0.131644 
201.12326 0.194141 
202.08226 0.486015 
203.153839 0.018912 
204.113174 0.039128 
204.149338 0.061721 
205.017517 0.015503 
205.095932 0.015601 
205.13382 0.122353 
205.144012 0.021874 
206.102554 0.016074 
206.128876 0.705661 
206.165192 2.16121 
207.086975 1.145078 
207.113113 0.51066 
207.123779 3.87449 
207.149094 0.779979 
207.159836 0.016972 
207.172302 0.297432 
208.071732 0.428917 
208.107941 2.095101 
208.127136 0.207237 
208.144318 2.027397 
208.180893 1.149139 
208.194305 0.015703 
209.075027 0.018885 
209.092407 1.188775 
209.111084 0.849527 
209.128586 1.460325 
209.138 0.03565 
209.148071 0.062304 
209.164841 0.187474 
210.086838 0.020389 
210.114288 0.027606 
210.12381 0.792387 
210.149551 0.063621 
210.16011 8.825294 
211.107666 0.289458 
211.126389 0.253302 
211.144211 1.586283 
211.163452 1.044872 
212.066559 0.317736 
212.085358 0.0446 
212.105057 0.066057 
212.11821 5.50594 
212.148193 0.039194 
212.176178 0.018176 
213.050522 0.503452 
213.069229 0.981681 
213.121994 0.897098 
213.141739 0.098507 
214.053207 1.461356 
214.100922 0.079351 
214.15506 0.595477 
215.084946 0.166001 
215.128189 0.033739 
215.139084 3.255978 
215.1521 0.026247 
216.142563 0.124711 
217.071976 0.385203 
217.09848 0.292295 
217.108887 0.372072 
217.133728 0.634492 
217.144226 0.018337 
217.169617 0.174664 
218.055984 0.085599 
218.127975 0.059704 
218.165009 0.199945 
219.112854 0.013914 
219.149231 0.511043 
220.144379 0.367972 
220.180862 4.071379 
221.077774 0.277336 
221.128433 0.153219 
221.139679 0.318313 
221.165497 0.023025 
221.188293 1.023655 
222.102982 0.133271 
222.123718 0.163973 
222.160446 0.268404 
222.196487 2.449694 
223.089188 0.026078 
223.107132 0.023162 
223.127625 0.037046 
223.143951 0.088442 
223.155518 0.043981 
223.180664 0.290277 
223.200333 0.128929 
224.085739 0.015871 
224.105179 0.033003 
224.118454 1.548928 
224.139069 1.356919 
224.175537 0.941783 
225.069321 1.877189 
225.098068 1.573316 
225.122864 0.953589 
225.13472 0.976357 
225.159546 0.190081 
225.170914 0.591087 
226.072311 0.041823 
226.107513 0.077665 
226.118362 2.569391 
226.137619 0.022282 
226.154724 1.105595 
227.084824 4.152149 
227.103104 0.087374 
227.121277 0.056417 
227.138992 0.022352 
227.150742 0.036633 
228.088287 0.236169 
228.134415 0.082337 
228.170532 3.349228 
229.0811 0.05344 
229.118423 0.082871 
229.132858 0.028968 
229.15451 0.022744 
229.174057 0.247074 
230.077026 2.334206 
231.06102 0.029939 
231.08046 0.043058 
231.124588 0.066177 
231.149292 0.626561 
232.143631 0.03592 
232.180923 0.13378 
233.010284 0.011722 
233.092514 0.023973 
233.128387 0.020174 
233.164886 2.661822 
234.09874 1.371936 
234.123718 0.448984 
234.135498 0.015966 
234.159103 1.623258 
234.195801 0.056474 
235.081879 9.519852 
235.104828 0.133831 
235.118896 0.020049 
235.129089 0.026648 
235.143799 0.737462 
235.155151 0.258051 
236.066696 0.712403 
236.085648 1.10492 
236.102875 0.403245 
236.139038 1.048115 
236.175858 0.766692 
237.069519 0.06692 
237.086533 0.143084 
237.098541 0.404061 
237.142746 0.120346 
237.159775 0.071015 
237.208023 0.018244 
238.101227 0.013978 
238.119171 0.04097 
238.137451 0.464228 
238.155014 2.031045 
239.08461 0.043172 
239.128906 0.662512 
239.158905 0.074653 
240.061172 0.050364 
240.080307 0.112227 
240.100739 0.019097 
240.113205 1.075406 
240.133163 0.11971 
240.152969 0.955749 
240.17067 0.049528 
241.065247 0.019557 
241.117615 0.320179 
241.132843 0.017563 
241.144791 0.793527 
241.156464 0.040835 
242.094955 0.081791 
242.149155 0.381552 
242.186157 2.177324 
243.133865 6.426016 
243.146469 1.341865 
243.18132 8.439649 
244.093277 0.0318 
244.137772 0.369362 
244.184937 0.912943 
245.07457 0.01694 
245.164429 0.026706 
246.159805 0.130853 
247.055862 0.020595 
247.143402 0.20532 
248.087204 0.022398 
248.138214 0.040628 
248.175613 3.436971 
249.072403 0.847923 
249.146759 0.017812 
249.159531 0.933664 
249.18042 0.26689 
249.207626 0.046994 
250.096817 0.051811 
250.11879 0.152273 
250.154709 0.157848 
250.191589 0.849187 
251.080841 0.015987 
251.100967 0.016205 
251.122055 0.13213 
251.150391 0.140666 
251.174774 0.174946 
252.109116 8.25719 
252.13382 0.440203 
252.152863 1.368299 
252.170715 1.234407 
252.20639 0.019697 
253.093124 37.897308 
253.117249 0.284496 
253.165802 8.858086 
254.096207 4.121063 
254.113159 1.049695 
254.151794 0.168098 
254.168945 3.611979 
254.18454 0.078561 
255.098206 0.360956 
255.170761 0.236253 
256.165344 0.284971 
257.139587 11.283987 
258.143555 1.678288 
258.157318 0.038169 
259.142792 0.017232 
259.180054 0.067657 
259.213013 0.058561 
260.102722 0.048546 
260.139496 0.015214 
260.172211 1.930681 
261.158905 1.465385 
261.17334 0.178026 
262.093201 0.328411 
262.154968 0.443539 
263.077393 2.249071 
263.122803 0.015229 
263.137177 0.076971 
263.151062 0.068248 
263.173584 0.039533 
263.187134 0.016363 
264.080658 0.188677 
264.116669 0.199627 
264.133301 0.018577 
264.170441 0.51505 
265.136902 1.503893 
265.202576 0.080138 
266.131989 0.063551 
266.149658 0.069253 
266.168823 0.032373 
266.186401 0.747227 
267.124969 2.883569 
267.150909 0.182206 
268.107971 11.182655 
268.126343 0.660235 
268.147522 0.627509 
268.201263 0.02146 
269.111938 2.014896 
269.139252 0.359687 
269.197357 0.332796 
270.052246 0.019682 
270.119659 5.204569 
270.142578 0.019098 
270.156403 0.123194 
270.180756 0.131933 
271.103821 0.744803 
271.124634 0.392932 
271.14093 3.245355 
271.17627 0.205282 
272.124603 0.287481 
272.145142 0.161481 
273.134735 0.040022 
274.068542 0.019826 
274.153992 0.01953 
274.190674 0.022639 
275.187103 0.221357 
276.170868 0.86436 
276.207611 0.042454 
277.092194 0.018184 
277.130005 0.118276 
277.154083 0.389541 
278.113403 2.154149 
278.130157 0.625068 
278.148834 0.100142 
278.186157 0.624113 
279.097412 1.266076 
279.115509 0.474713 
279.133026 0.023263 
279.14621 0.027303 
279.182129 0.304036 
280.103638 1.118813 
280.147125 0.763331 
280.165588 0.976093 
280.181244 0.05746 
280.201965 0.02599 
281.088135 3.597379 
281.131714 12.229682 
281.159943 0.154993 
282.091248 0.349422 
282.107971 0.164978 
282.135468 1.794708 
282.163483 2.411281 
282.18042 0.384916 
283.127808 0.208668 
283.14682 0.449344 
283.165833 0.233767 
284.15036 0.770251 
284.178772 0.319991 
285.134399 36.245956 
285.162811 1.228237 
286.138336 6.425622 
287.140747 0.409305 
288.109406 0.279219 
288.134766 0.016975 
289.092804 0.060704 
289.153168 0.017288 
290.149139 0.044899 
291.099915 0.020831 
291.181763 0.094838 
291.216003 0.027513 
292.131317 0.027446 
292.147705 1.572947 
292.16452 0.186094 
292.200928 0.052941 
293.132324 0.491625 
294.144287 0.550829 
294.1633 0.217311 
294.180145 1.131953 
294.197632 0.080219 
294.217255 0.244844 
295.118591 1.524437 
295.140381 2.898541 
295.177216 0.470178 
296.123535 4.539867 
296.141571 0.628945 
296.196594 0.354839 
297.064514 0.236885 
297.10083 0.777853 
297.126923 0.785183 
297.144043 0.506821 
297.194153 0.074526 
298.048218 0.046274 
298.140045 0.278385 
298.15802 0.673202 
299.136597 0.263968 
299.176117 0.02077 
299.211792 0.019929 
300.119873 0.23383 
300.170654 0.096241 
302.161163 1.552497 
302.184387 0.236834 
303.120636 0.017598 
303.144897 0.752187 
303.163086 0.071695 
303.1828 0.045815 
304.104004 1.666615 
304.143311 0.04474 
304.165924 0.143112 
305.106659 0.016638 
305.160645 1.521933 
305.198273 0.035358 
306.120575 0.561331 
306.144623 0.04498 
306.163483 0.198419 
307.085999 0.025582 
307.140991 0.01924 
307.177002 0.139183 
307.213989 0.02434 
308.142181 0.397444 
308.16037 0.113428 
308.196808 0.031851 
309.126587 6.14104 
309.173828 0.285936 
310.129395 0.569423 
310.157196 1.3617 
310.212219 0.40745 
311.058624 0.29979 
311.141479 0.144492 
311.207916 0.021454 
311.243347 0.048209 
312.155212 1.524638 
312.173553 0.502199 
312.204102 0.089119 
313.074799 0.143375 
313.129333 2.534854 
313.150635 9.41976 
313.190338 0.95653 
314.058533 0.020325 
314.135498 1.112071 
314.153931 1.306419 
314.19342 0.05172 
315.074707 0.056058 
315.136566 0.038553 
316.131775 0.061923 
316.165649 0.024123 
317.196075 0.022992 
318.156067 0.019845 
319.138702 0.020047 
319.176514 0.023668 
319.212677 0.270433 
319.249695 0.053933 
320.178467 0.775851 
320.245148 0.033156 
321.131012 0.284554 
321.154114 0.161323 
321.192108 0.139866 
321.227875 0.275841 
322.114655 2.148527 
322.137695 0.398942 
322.157593 0.079726 
322.189026 1.203027 
322.20932 0.064652 
323.079163 0.054279 
323.099823 0.020915 
323.117737 0.052533 
323.135315 1.383655 
323.170715 2.863556 
324.11792 1.041559 
324.138062 0.188032 
324.173767 0.378482 
324.203979 0.119164 
324.238953 0.218792 
325.120941 0.244443 
325.15033 0.091861 
325.185455 0.208634 
325.203979 0.315245 
326.080933 0.020694 
326.13382 0.044958 
326.152893 0.472717 
326.186676 0.615522 
327.131439 0.121075 
327.167816 0.263411 
327.188171 0.066693 
328.132507 0.242706 
328.176544 0.984091 
329.116638 0.08 
329.180969 0.020359 
330.150146 0.203852 
330.182831 0.037986 
330.217072 0.081999 
331.114777 0.388042 
331.215668 0.035568 
331.248566 0.024396 
332.099274 1.269371 
332.120941 0.046177 
333.155182 0.263351 
333.228119 0.041869 
333.264709 0.155399 
334.194 0.065987 
334.223785 0.058061 
335.038849 0.068176 
335.186493 0.699859 
335.207092 0.019058 
336.140381 0.01718 
336.190765 0.559151 
336.210938 0.12145 
337.129669 0.336983 
337.149902 0.047682 
337.195312 0.34706 
337.222626 0.034798 
338.134338 0.066874 
338.157532 0.578189 
338.183655 0.025714 
338.220123 0.219507 
338.254517 1.402534 
339.141266 2.462817 
339.16449 0.407781 
339.213257 0.92201 
339.236328 0.070912 
339.259491 0.025827 
340.098663 0.318968 
340.124054 0.01938 
340.143127 0.091293 
340.162994 0.579799 
340.199341 5.607086 
341.145477 2.591843 
341.183258 0.993522 
341.203674 0.783645 
342.093567 0.045388 
342.127991 0.051869 
342.149292 0.236049 
342.249634 0.223921 
343.160706 0.257782 
343.213715 0.061339 
344.126953 0.111298 
344.197357 0.093351 
345.204407 0.057516 
345.227905 0.072773 
346.145813 0.23607 
347.20755 0.066233 
347.24411 0.799728 
348.173676 0.074688 
348.208221 0.154203 
348.240021 0.719308 
349.125244 15.161283 
349.18692 0.036984 
350.109009 6.753958 
350.128937 1.753592 
350.18277 0.518729 
350.225555 0.352771 
351.110199 1.100045 
351.131226 0.425447 
351.169312 0.231227 
352.11084 0.212781 
352.164581 0.019339 
352.21228 0.097088 
352.235016 0.064759 
353.197235 0.095184 
353.218231 0.219501 
354.111115 0.485662 
354.155548 0.235921 
354.202179 0.332948 
354.226837 1.154331 
355.140228 0.419899 
355.183685 0.020404 
355.210327 0.059238 
355.232605 0.189762 
356.081055 0.115771 
356.127258 4.366403 
356.170105 0.027672 
356.194031 0.02776 
356.217865 0.559038 
356.265198 1.21401 
357.130219 0.719092 
357.188385 0.137174 
357.224548 6.381999 
357.265381 0.098439 
358.12439 0.072848 
358.172058 2.550251 
358.209808 0.843903 
358.229309 0.583321 
359.110077 0.015697 
359.154633 0.149822 
359.176422 0.235813 
360.093994 0.554672 
360.506226 0.02045 
361.097687 0.019166 
361.124542 0.154548 
361.223694 0.082376 
361.259308 0.797298 
362.155334 0.117201 
362.224792 0.022798 
362.261139 0.041773 
363.140381 0.125316 
363.17981 0.369413 
363.203003 0.584699 
364.140045 0.457241 
364.185394 0.342977 
365.12384 1.746044 
365.188049 0.27916 
365.23114 0.020442 
366.063293 0.01974 
366.126892 0.234572 
366.151276 0.03843 
366.192383 0.70111 
366.215454 0.071556 
366.249573 1.194101 
367.135895 20.544609 
367.197266 0.567837 
367.252472 0.11463 
368.095917 0.020128 
368.119141 0.506652 
368.139862 2.691829 
368.192841 1.17571 
368.236053 0.420311 
369.14093 1.616995 
369.195404 0.071176 
370.105164 0.022684 
370.144989 0.139665 
370.223297 0.438183 
370.246002 0.079913 
371.138153 0.079072 
371.182129 0.335413 
371.227692 0.220326 
372.165527 0.192788 
372.232666 0.019399 
373.253235 0.020912 
374.182922 0.018741 
374.254395 0.018812 
375.1987 1.246905 
375.238831 1.032435 
376.106232 0.940292 
376.181183 0.027284 
376.202271 0.090789 
376.238159 0.249241 
377.090393 0.997744 
377.119781 2.300871 
377.182587 0.038999 
378.10318 3.062827 
378.144897 0.322565 
378.201355 0.329583 
378.24704 0.026054 
379.107147 0.502794 
379.134613 0.12599 
380.134491 0.032294 
380.207672 3.888695 
380.266113 0.019876 
381.114563 0.01784 
381.149902 0.028877 
381.212311 1.72233 
382.094696 0.047291 
382.123749 0.045893 
382.150696 5.044329 
382.192566 0.070922 
382.216461 0.082975 
383.131195 0.203099 
383.155212 0.883785 
384.097717 0.017723 
384.161438 0.291592 
384.202332 2.307101 
385.146515 0.807603 
385.181549 0.01574 
385.204712 0.057164 
386.167389 1.60752 
387.174835 0.372569 
388.160645 0.122534 
389.191528 0.141485 
389.218933 0.097979 
389.252319 0.019015 
390.201385 0.026703 
390.249786 0.205872 
391.172028 0.195061 
391.197815 0.24471 
392.266022 0.203872 
393.119598 0.020817 
393.216278 0.057998 
393.227478 0.057177 
394.118073 0.716702 
394.209686 0.394351 
394.242523 0.02967 
395.060852 0.069018 
395.130859 5.208062 
395.247864 0.187903 
396.134125 0.524771 
397.137543 0.023775 
397.158875 0.019718 
398.14679 0.019339 
398.218506 8.857926 
399.177643 1.903378 
399.221069 2.062589 
400.161102 26.045397 
401.164246 5.437188 
401.225708 0.080813 
402.167938 0.751376 
402.251556 0.019216 
403.234711 0.072065 
404.194672 0.021207 
404.230896 0.068363 
405.187531 1.439395 
405.213409 0.389331 
406.194672 0.55118 
407.137512 0.025683 
407.198425 0.041406 
407.227966 0.310694 
408.164337 0.048906 
408.201843 0.579653 
408.259186 0.193852 
409.162354 0.209418 
409.207764 0.542372 
410.147095 2.409903 
410.1745 0.058192 
410.204681 0.050678 
411.14917 0.418721 
411.224548 0.250683 
411.26889 0.021691 
412.126404 0.078347 
412.156372 0.106993 
412.192535 0.199469 
412.220612 0.238239 
413.222504 0.048387 
414.184448 0.154031 
415.141724 0.036357 
415.171692 2.731077 
415.198273 0.183659 
415.244629 0.58804 
416.175873 0.357713 
416.203461 0.029109 
416.228699 0.088948 
417.187561 1.984489 
417.260071 0.023122 
418.17038 0.098752 
418.24472 0.650736 
419.166962 0.576791 
419.198761 0.212201 
420.188171 0.519253 
421.186371 0.048396 
421.255371 0.103989 
422.172821 0.170181 
422.20517 0.144213 
422.240173 0.091189 
423.208954 0.064461 
423.223022 0.083465 
424.144135 0.677027 
424.190216 0.02591 
424.254425 0.020783 
425.151611 0.131432 
425.188751 0.157627 
425.237671 0.597458 
425.287903 0.036231 
426.14209 1.69017 
426.211853 1.179439 
426.238861 0.045688 
426.318756 0.020847 
427.142761 0.777726 
427.172607 0.965691 
427.208862 0.163811 
428.157196 2.882518 
429.158295 0.820307 
431.166779 0.022656 
432.198639 2.2905 
432.228271 0.208955 
432.266937 0.020742 
433.182007 10.098624 
434.184784 2.019556 
434.286957 0.02265 
435.196381 0.396138 
435.225647 0.025267 
435.27066 0.921995 
436.19162 0.091772 
436.222687 0.400398 
436.255768 0.73004 
437.214447 1.792214 
437.32373 0.022808 
438.120819 0.061702 
438.169006 2.93473 
438.199463 0.728759 
438.282043 0.681607 
439.171295 0.565146 
439.200897 0.980309 
439.231079 0.062199 
439.264893 0.187696 
440.181213 0.046404 
440.212189 0.507787 
440.275116 0.023927 
441.185486 0.178291 
441.216522 0.655497 
441.256378 0.08283 
442.201996 0.211992 
442.246857 0.019834 
443.166809 0.338376 
443.200653 0.206244 
444.199615 0.133149 
444.260681 0.072493 
445.180878 0.049376 
446.179474 0.109572 
446.239868 0.026747 
447.197723 0.353371 
447.345459 0.019976 
449.18219 0.070089 
449.254364 0.051745 
450.208862 9.061543 
450.265503 0.031641 
451.171021 0.451834 
451.21225 1.962379 
451.338806 0.351923 
452.137146 0.250602 
452.218048 0.193816 
452.297607 2.873537 
453.09729 0.050865 
453.188782 0.389109 
453.249237 0.048752 
453.28067 1.180037 
454.136566 0.127133 
454.235504 1.452046 
454.279968 0.080617 
455.141205 0.176275 
455.195343 0.367693 
455.224792 5.196609 
456.133606 0.04476 
456.227783 1.162138 
456.292297 0.2638 
457.238312 0.043307 
458.237885 0.021455 
460.192871 1.422977 
461.177643 0.633295 
461.3237 0.160622 
462.141479 0.164318 
462.176605 0.025971 
462.208344 0.336459 
462.238922 0.025086 
462.272614 0.060408 
463.148071 0.021847 
463.196442 0.236325 
463.265015 0.131678 
464.188873 0.337351 
464.221558 0.13531 
465.210052 0.827663 
465.257751 0.270865 
466.209167 0.16792 
467.196442 0.296837 
467.236786 0.369001 
467.270844 0.282055 
468.24527 0.228858 
468.299164 0.043678 
469.145752 0.116277 
469.182678 3.6807 
469.214294 0.478504 
469.244415 0.069772 
469.349823 0.056561 
470.184509 0.938179 
470.311035 1.181147 
471.186707 0.051766 
471.255951 0.549046 
471.31189 0.026823 
472.252014 3.459104 
472.29126 0.027011 
473.124207 0.029051 
473.202545 0.022775 
473.254028 0.677178 
474.106537 0.02317 
474.171478 0.049344 
476.155029 0.028623 
476.286041 0.70203 
477.183838 0.025541 
477.219208 1.187869 
477.284668 0.12911 
478.20459 2.530945 
479.167023 1.767115 
479.205322 0.530118 
479.240051 0.050915 
480.151093 0.119996 
480.218567 0.322547 
480.293671 0.148699 
481.160645 0.051881 
481.216217 0.372918 
481.278656 0.160247 
482.23114 0.413324 
483.221069 0.695735 
484.22348 0.264643 
484.304047 1.056666 
485.27121 0.319426 
485.309204 0.310441 
486.209534 3.247258 
486.272736 0.045565 
486.308685 0.043339 
487.209778 0.837006 
488.187408 0.652941 
489.188599 0.119487 
489.280487 0.049082 
489.316772 0.020036 
490.135773 0.023523 
490.170837 0.058106 
490.265747 0.024377 
490.30188 0.947527 
491.134247 0.028633 
491.195587 0.259066 
491.230957 0.243005 
491.30368 0.014432 
492.182831 0.254049 
492.238403 0.022906 
492.285095 0.080726 
493.186066 0.029484 
493.251862 0.443467 
494.092743 0.020538 
494.247864 0.362204 
494.28952 1.05275 
495.183716 0.228422 
495.231659 2.962069 
495.267059 0.383874 
495.299225 0.121714 
496.193176 2.138899 
496.233154 0.740955 
496.297485 0.070885 
497.137756 0.13364 
497.176392 5.403134 
497.238556 0.050087 
498.179993 1.449464 
498.241669 0.022652 
498.281738 0.598872 
499.188171 0.124207 
499.228699 2.329577 
500.2323 0.526053 
503.169525 0.039995 
503.334351 0.302631 
504.15332 0.137371 
504.284393 0.02571 
505.211823 1.162621 
505.246948 0.287938 
506.200012 1.702694 
506.245117 0.029737 
507.161835 0.38273 
507.201843 0.641761 
507.261536 0.090069 
508.165771 0.024975 
508.25946 0.234622 
509.213257 0.292523 
510.276733 0.343565 
511.324066 0.046571 
512.258545 1.973262 
512.297729 2.392549 
513.244995 9.241714 
513.299744 0.510286 
514.2052 14.053527 
514.247742 2.665684 
515.207275 3.118851 
515.251709 0.427667 
516.208618 0.389846 
516.252625 0.15897 
518.297974 0.049112 
520.274414 0.044807 
521.179077 0.299595 
521.218018 0.098203 
522.240356 0.260907 
522.28064 0.576853 
523.226685 3.95235 
523.271912 0.100195 
524.188538 1.606059 
524.229004 0.87986 
524.291199 0.750544 
525.169983 1.338056 
525.237671 0.054925 
525.287842 0.020681 
526.173157 0.101707 
527.550964 0.014379 
528.261475 0.027765 
529.252625 0.031089 
529.322998 0.026105 
530.272705 0.645046 
531.266113 0.114462 
531.329163 0.046201 
532.212708 0.025684 
532.288391 0.032976 
533.204407 0.023214 
533.273438 0.090614 
534.195618 0.133066 
534.27655 0.026106 
534.342285 0.020547 
535.324768 0.025601 
536.29541 0.107184 
538.233276 0.051464 
538.275818 0.726455 
538.317383 0.023423 
539.2771 0.045695 
539.402466 0.047516 
540.253784 0.167191 
540.292114 0.047246 
541.240295 0.290661 
542.199524 2.027376 
542.24231 0.403261 
543.200012 0.381015 
544.280029 0.016405 
545.312195 0.014471 
546.276794 0.159322 
547.259338 0.400484 
548.303528 0.022448 
548.354126 0.121213 
549.272827 0.027671 
550.114502 0.019109 
550.299561 0.538972 
551.251404 0.266876 
551.298401 0.170185 
551.365112 0.187381 
552.255249 0.66192 
552.350769 0.018077 
553.308411 0.219 
554.298889 0.11236 
556.260437 1.052118 
556.409546 0.105767 
557.245178 0.243488 
558.255432 0.022561 
559.260132 0.103546 
561.2547 0.029697 
562.239746 1.779471 
563.244751 0.355009 
563.315125 0.117713 
564.290771 0.922211 
565.257935 0.348019 
565.381958 0.66916 
566.181458 0.113298 
566.231018 0.175638 
566.368469 0.383685 
567.271484 0.098457 
567.324585 1.541386 
568.252686 0.671309 
568.3125 0.792759 
569.259399 0.1866 
569.313354 0.125476 
569.374817 0.027747 
571.319397 0.023721 
572.27301 0.027264 
573.282837 0.466296 
574.272034 1.826674 
575.261353 0.847059 
576.218567 0.026062 
576.285583 0.072734 
576.349487 0.028439 
577.271973 0.288819 
578.233826 0.163932 
578.288818 0.234674 
579.265747 1.107744 
580.250916 4.763056 
580.336304 0.120965 
580.384827 0.177642 
581.251526 1.364903 
581.327026 0.23695 
582.265198 3.147159 
582.323914 0.022916 
583.270752 1.588247 
583.392029 0.163171 
584.259888 0.340047 
585.23407 0.063591 
585.277954 0.026632 
585.3349 0.564888 
586.20105 0.023295 
586.284058 0.170813 
586.338318 0.074937 
587.282837 0.040286 
589.248535 0.077842 
589.374939 0.074484 
590.236572 0.057619 
590.304199 0.015258 
590.368774 0.159084 
591.298645 2.294066 
592.288025 3.262592 
593.283875 0.985409 
594.262878 0.161313 
594.299194 0.020892 
594.357056 0.055479 
595.257446 0.153747 
595.304993 0.093738 
596.242798 1.246971 
597.278198 0.723303 
598.277954 0.073416 
598.345764 0.040939 
598.393494 0.351264 
599.291992 0.877113 
600.221741 0.479619 
600.296204 0.686852 
600.347839 0.177008 
601.209656 0.267883 
601.282043 0.176937 
602.262085 1.509985 
603.263245 0.283876 
603.38562 0.03847 
604.216553 0.107143 
605.266052 0.051419 
607.259521 1.072284 
608.278076 0.378785 
608.324036 0.106385 
608.375122 0.46954 
609.316284 4.453268 
609.372009 0.025334 
610.260376 4.367066 
610.308594 1.518272 
611.259949 1.88784 
612.263794 0.382285 
612.31897 0.023966 
613.266907 2.127806 
614.270447 0.347884 
617.241089 0.023969 
617.377502 0.084933 
618.232056 0.613521 
618.300232 0.022655 
619.234314 0.023065 
619.290833 0.828484 
620.282166 1.13758 
621.281372 0.048639 
623.253601 0.05375 
624.286926 0.587732 
625.27179 1.586477 
625.330444 0.020973 
626.27417 0.397686 
626.336914 0.024156 
627.282104 5.984904 
628.285583 2.236157 
629.288147 0.491591 
630.304138 0.024383 
632.284607 0.019241 
632.372925 0.022886 
635.255615 0.541501 
636.255188 0.041879 
636.310181 0.054364 
637.265015 0.770579 
637.313599 0.558378 
637.366089 0.142703 
638.260986 0.274195 
639.251831 0.178057 
640.393005 0.216041 
642.298706 1.85014 
643.297668 0.580266 
646.352661 0.048299 
647.279724 0.019039 
649.305725 0.057096 
650.38031 0.227444 
651.325806 0.067985 
652.281311 0.429983 
652.338867 0.029849 
653.266907 1.419742 
654.270752 0.36857 
654.335022 0.056611 
655.327271 0.148573 
659.323914 0.471205 
659.383545 0.019372 
660.319885 0.13837 
660.37738 0.026771 
661.311523 0.215483 
661.368042 0.022208 
662.312195 0.013984 
663.383606 0.071983 
665.342346 0.018167 
666.392517 0.045787 
668.355652 0.024198 
669.348755 0.265948 
670.293091 0.930391 
670.351929 0.087425 
671.294556 0.197465 
673.344299 0.073841 
674.33252 0.062131 
675.324219 0.551782 
676.323059 0.28226 
676.405762 0.025493 
677.303711 0.170135 
677.379761 0.238672 
678.335266 0.39394 
679.322388 1.081533 
679.449951 0.222773 
680.330078 0.258065 
680.407166 0.595994 
681.265198 0.07778 
681.335999 0.028965 
681.403503 0.070398 
682.333801 0.244222 
683.341431 0.019633 
684.311218 0.022438 
686.373291 0.247222 
687.359558 0.848473 
688.361145 0.067572 
689.312195 0.110213 
690.306091 0.025089 
690.367615 0.38806 
691.360962 0.205342 
692.349243 0.237244 
693.338867 1.686322 
693.464966 0.286864 
694.333374 1.025265 
694.422119 0.381588 
695.347961 0.105645 
695.417419 0.110849 
696.348267 1.586745 
697.349365 0.848808 
697.456421 0.027071 
698.351379 0.11967 
698.419373 0.119333 
699.360352 0.098277 
699.424011 0.026812 
700.358154 0.071793 
702.321045 0.316941 
703.323364 0.378041 
703.44812 0.040489 
704.319092 0.504909 
704.382629 1.705986 
705.302979 0.026188 
705.378235 1.102455 
706.326111 1.823248 
707.31665 1.433962 
708.3172 0.439297 
708.391235 0.021668 
709.336426 0.194384 
710.321899 1.096009 
710.739502 0.028186 
710.795837 0.054631 
711.077332 0.031586 
711.353333 0.280314 
711.472351 0.021336 
712.358276 0.021251 
712.432129 0.212567 
713.374695 0.617339 
713.439331 0.09884 
714.374329 0.419857 
715.358826 0.344001 
716.311218 0.018905 
717.302734 0.025186 
719.34436 0.256341 
720.342651 1.009616 
721.339172 1.661773 
722.327698 1.366169 
722.397339 0.374669 
723.347534 1.030706 
724.341736 4.553792 
725.342957 1.825219 
726.345215 0.236044 
727.351135 0.685522 
728.356995 0.107061 
730.328491 0.070444 
731.323425 0.219206 
732.307739 0.027027 
732.377563 0.265351 
733.364197 0.090651 
734.323914 0.40617 
735.331848 0.045466 
736.343445 0.031548 
737.356323 0.324816 
737.414795 0.047743 
738.361877 2.196981 
739.354919 3.205308 
740.357239 1.273388 
741.366089 2.787744 
742.369324 1.200541 
743.368469 0.166167 
744.372009 0.025187 
745.457092 0.020507 
748.338989 0.680545 
749.336731 0.843669 
750.334045 0.15147 
751.347534 0.462556 
752.335022 0.941579 
753.348206 0.144168 
754.435486 0.049781 
755.380127 0.804973 
756.377625 1.917731 
757.377686 0.840578 
758.374084 0.024165 
760.387024 0.029645 
762.387268 0.024887 
763.462524 0.042871 
764.421448 0.023142 
765.40625 0.251689 
766.351562 1.107824 
767.349426 0.910882 
768.352661 0.095492 
769.359985 0.260327 
770.372009 0.021252 
771.391235 0.014361 
772.397583 0.055642 
774.369263 0.050855 
775.371826 0.407294 
776.370728 0.156998 
776.464233 0.078277 
778.411255 0.035387 
779.411682 0.065721 
783.374878 0.505029 
784.378235 0.177537 
787.430054 0.021192 
789.403442 0.701408 
790.392151 0.386483 
790.476501 0.024006 
791.423035 0.027173 
792.416565 0.187566 
793.403137 0.51887 
793.491638 0.338897 
794.396057 0.016444 
794.490723 0.045924 
795.42334 0.023538 
796.434326 0.031716 
797.456055 0.024679 
799.388062 0.027749 
800.388 0.028565 
800.443909 0.030876 
801.392212 0.022496 
802.395874 0.099639 
803.381104 0.109778 
803.452576 0.024208 
804.447205 0.08162 
805.41095 0.121811 
806.430359 0.675802 
807.414917 1.421877 
807.504333 0.525855 
808.41687 0.395837 
808.504517 0.145353 
809.439941 0.324916 
810.430237 1.00315 
811.431274 0.157824 
814.426392 0.023403 
815.409302 0.127021 
816.40863 0.820146 
817.397095 0.898242 
817.474121 0.158583 
818.399658 0.329291 
818.476196 0.021102 
819.407593 0.336443 
820.407593 1.118082 
821.400208 0.567128 
822.412842 0.048069 
823.457764 0.027957 
824.443665 1.871536 
825.440063 0.809755 
826.449829 0.029237 
827.453857 0.49001 
828.451782 0.155101 
830.394531 0.038619 
831.401672 0.024621 
832.422546 0.095785 
833.425354 0.871752 
834.423157 2.906228 
835.418945 2.043054 
836.420471 0.965867 
837.434448 1.393657 
838.42395 2.02164 
839.422913 0.827753 
840.429199 0.04728 
841.465332 0.671988 
842.468506 0.151254 
844.404602 0.324658 
845.401245 0.17054 
845.485229 0.02814 
846.415344 0.218867 
847.419495 0.119535 
848.406616 0.241367 
849.390015 0.152766 
850.43634 0.673199 
851.4505 3.349655 
852.439148 5.649374 
853.441956 2.432033 
854.442749 0.720425 
855.448303 2.122428 
856.446899 0.91236 
859.399109 0.027897 
859.504578 0.045366 
860.413635 0.026544 
861.428711 0.40033 
861.517517 0.024913 
862.424683 1.093372 
862.509583 0.060096 
863.422485 0.260741 
864.431702 0.112738 
865.429138 0.30506 
866.418884 0.4451 
867.404846 0.289336 
868.471436 0.025305 
869.462585 5.289063 
870.466736 2.476401 
871.464905 0.502998 
874.426514 0.053172 
875.436096 0.022869 
876.416687 0.107428 
877.424133 0.026106 
879.443176 1.130893 
880.436279 0.981303 
881.444519 0.193274 
883.452209 0.169518 
884.425476 0.255162 
885.416138 0.025912 
887.356323 0.060745 
888.496765 0.027268 
890.417114 0.095025 
891.440247 0.681382 
892.442627 0.245393 
893.44342 0.084899 
894.422485 0.018987 
895.40741 0.021497 
897.455139 0.322172 
898.463562 0.129065 
901.451721 0.022247 
902.436157 0.124101 
903.438599 0.058592 
905.35907 0.026674 
905.500732 0.029358 
906.503601 0.131787 
907.412659 0.021809 
908.517395 0.185586 
913.437622 0.043708 
915.468262 0.04251 
917.460388 0.020377 
918.471313 0.028055 
919.478394 0.238077 
920.491211 0.446985 
921.493042 0.226866 
922.528992 0.133989 
923.517273 0.229255 
924.520081 0.025522 
928.505859 0.081411 
929.487366 0.187233 
930.480591 0.071232 
932.496094 0.091666 
933.492554 0.192705 
934.488953 0.065328 
935.474854 0.044123 
936.501099 0.100913 
937.505005 0.194653 
938.503601 0.119509 
942.485474 0.027528 
945.458008 0.054756 
946.507446 0.283498 
947.502869 0.861416 
948.505066 0.469813 
949.50415 0.06379 
950.510803 0.728376 
951.503967 0.817915 
952.501709 0.3224 
957.483276 0.036044 
958.477173 0.026754 
959.49469 0.070648 
960.499634 0.082508 
961.502197 0.148857 
962.485596 0.056275 
963.463989 0.122574 
964.533447 1.054449 
965.529724 1.185752 
966.523438 0.292488 
967.460388 0.021183 
968.528076 0.496453 
969.52533 0.172227 
970.504028 0.063466 
971.484009 0.021905 
972.489807 0.060628 
973.48822 0.061091 
974.51178 0.196738 
975.505981 0.216382 
976.521301 0.171897 
977.5354 0.046206 
978.52832 0.046305 
979.503601 0.12807 
980.487183 0.439506 
981.480957 0.300552 
982.542297 0.878649 
983.541321 0.206479 
984.483826 0.02632 
985.48291 0.095631 
986.514282 0.303271 
987.514954 0.200642 
988.511292 0.197441 
989.514343 0.114384 
990.510742 0.445977 
991.50946 0.138584 
992.526001 0.439431 
993.523132 0.170931 
994.527466 0.024675 
997.509583 0.240921 
998.497864 0.550574 
999.48053 0.755688 
1000.485535 0.225909 
1001.50647 0.109645 
1002.509399 0.155991 
1003.514893 0.170893 
1004.531494 2.250478 
1005.531921 1.64661 
1006.530029 0.423167 
1009.567505 0.020388 
1014.514343 0.035836 
1016.500488 0.749652 
1017.506592 0.386596 
1018.534973 0.459722 
1019.538025 0.177489 
1020.504883 0.636651 
1021.505371 0.651028 
1022.507446 0.250073 
1023.509277 0.048995 
1025.53125 0.026766 
1026.507812 0.047444 
1028.444702 0.026445 
1030.513306 0.019465 
1033.504883 0.025378 
1034.505737 0.090695 
1035.510742 0.125751 
1036.526245 0.088924 
1037.542969 0.04732 
1038.513672 0.020207 
1044.536743 0.052938 
1045.474121 0.070913 
1045.579468 0.131698 
1046.574951 0.030671 
1047.555298 0.027033 
1048.529663 0.080567 
1049.507812 0.088719 
1050.496826 0.061988 
1051.525024 0.133439 
1052.540161 0.081363 
1053.551514 0.053964 
1058.545288 0.08254 
1059.579956 0.057733 
1060.585815 0.101523 
1061.560913 0.074472 
1062.528809 0.226586 
1063.528564 0.106305 
1064.547852 0.024402 
1065.555908 0.07589 
1066.553101 0.189131 
1069.56604 0.045292 
1072.540161 0.047273 
1075.559082 0.174883 
1076.555542 0.491426 
1077.545044 0.2278 
1078.553589 0.055702 
1079.555908 0.693702 
1080.551514 0.544595 
1081.556519 0.020996 
1085.577148 0.053025 
1086.583374 0.033568 
1090.546021 0.027287 
1092.567749 0.023658 
1093.572632 0.814297 
1094.56604 0.890647 
1095.568604 0.234858 
1097.570068 0.507744 
1098.567627 0.181029 
1101.543213 0.024475 
1102.56665 0.034592 
1103.55603 0.071138 
1104.547363 0.048994 
1106.566528 0.057934 
1107.561157 0.042281 
1108.565674 0.026773 
1111.582886 0.872801 
1112.588257 0.477949 
1113.496704 0.026686 
1113.600586 0.04815 
1114.496704 0.051152 
1115.566162 0.024472 
1117.558716 0.126638 
1118.567993 0.075017 
1119.565186 0.059845 
1120.577881 0.045205 
1121.572998 0.233 
1122.568359 0.202497 
1123.578369 0.022461 
1125.577271 0.022083 
1128.557251 0.028144 
1130.586182 0.073751 
1131.53064 0.133688 
1132.54187 0.037528 
1133.572388 0.330741 
1134.565674 0.263471 
1135.574219 0.163954 
1136.579468 0.056045 
1137.592041 0.053306 
1138.594116 0.047559 
1139.588379 0.107229 
1140.602417 0.052762 
1142.530884 0.022631 
1143.563354 0.021203 
1145.568481 0.134207 
1146.567749 0.068898 
1147.586548 0.229465 
1148.585815 0.300234 
1149.567017 0.148817 
1151.589233 0.049963 
1157.57605 0.031196 
1158.58606 0.061167 
1159.553223 0.028008 
1161.579712 0.045343 
1162.599731 0.151936 
1163.58374 0.092073 
1164.593506 0.042434 
1165.603027 0.470258 
1166.6073 0.231987 
1170.553589 0.032092 
1171.5896 0.023995 
1172.595459 0.146926 
1173.578125 0.142276 
1174.625732 0.034862 
1175.626831 0.117595 
1176.623779 0.029234 
1178.625 0.028984 
1179.630615 0.337928 
1180.645142 0.028628 
1183.591431 0.018726 
1184.614624 0.032727 
1185.622925 0.023842 
1187.585449 0.236455 
1188.590942 0.134261 
1189.621826 0.150096 
1190.619751 0.17916 
1192.643066 0.578074 
1193.630127 0.67459 
1194.636108 0.18245 
1200.613892 0.056971 
1201.63147 0.227467 
1202.633057 0.107933 
1206.652222 0.635181 
1207.651367 0.813502 
1208.645996 0.381524 
1209.660278 0.022668 
1210.651123 0.578107 
1211.646851 0.157809 
1212.641724 0.027489 
1213.619141 0.019683 
1214.609131 0.028986 
1215.629272 0.018984 
1216.638916 0.028098 
1217.628784 0.05676 
1218.646484 0.158236 
1219.640869 0.111086 
1224.664917 0.723998 
1225.670654 0.30522 
1226.663696 0.026718 
1227.603638 0.055965 
1228.635132 0.32088 
1229.634399 0.47965 
1230.629883 0.288664 
1231.629517 0.143484 
1232.63501 0.2497 
1233.638306 0.299575 
1234.644409 0.279915 
1235.649536 0.053465 
1236.664429 0.027956 
1238.646851 0.024613 
1241.628418 0.045369 
1244.63269 0.254688 
1245.630615 0.54489 
1246.655273 2.7401 
1247.659546 2.392302 
1248.658325 1.06768 
1249.656006 0.209358 
1250.654175 0.058141 
1254.616699 0.144671 
1255.625854 0.173801 
1256.621704 0.105967 
1257.631348 0.02372 
1258.645386 0.272112 
1259.645752 0.348187 
1260.643921 0.321949 
1261.65271 0.242048 
1262.636841 0.486334 
1263.639771 0.109971 
1272.629883 0.695759 
1273.631592 0.773985 
1274.634644 0.535982 
1275.652222 0.144126 
1276.658569 0.385453 
1277.658325 0.237466 
1278.659302 0.071072 
1281.61731 0.022452 
1285.648315 0.035879 
1286.64563 0.089949 
1287.633057 0.048403 
1289.634033 0.045394 
1290.648682 0.017941 
1292.64209 0.023227 
1294.674561 0.023266 
1295.665649 0.031889 
1296.633667 0.025021 
1297.630005 0.026838 
1298.637695 0.086971 
1299.644043 0.055374 
1300.65271 0.035557 
1301.656128 0.091334 
1302.639771 0.089673 
1303.650635 0.07138 
1304.651489 0.082969 
1305.633789 0.02282 
1307.639404 0.022774 
1309.627441 0.019559 
1312.654907 0.022193 
1314.648926 0.051329 
1315.674805 0.291426 
1316.659912 0.447162 
1317.651489 0.082877 
1318.672363 0.054517 
1319.659302 0.056732 
1320.63855 0.172166 
1322.642212 0.019872 
1324.631226 0.026329 
1325.654297 0.06843 
1326.633911 0.027471 
1327.644531 0.06138 
1329.633667 0.026786 
1330.645386 0.023865 
1337.659912 0.042755 
1338.657104 0.055148 
1342.668579 0.052841 
1343.659668 0.063534 
1344.637329 0.079176 
1345.627197 0.020034 
1346.637695 0.031034 
1353.654053 0.024223 
1357.599487 0.026567 
1360.665527 0.054145 
1361.695312 0.023743 
1370.691895 0.114787 
1371.687012 0.149571 
1373.70105 0.025973 
1375.650513 0.064255 
1385.703125 0.133172 
1386.715698 0.329228 
1387.707886 0.360802 
1388.703613 0.18912 
1389.722168 0.037725 
1398.713013 0.024187 
1401.695435 0.051941 
1402.7052 0.027812 
1403.700562 0.025285 
1413.691772 0.236795 
1414.697388 0.280427 
1415.7052 0.056087 
1416.700073 0.054323 
1417.694092 0.027565 
1419.707642 0.062277 
1420.719482 0.031954 
1427.692383 0.091562 
1428.697632 0.033706 
1429.716064 0.029801 
1430.703735 0.171722 
1431.702271 0.151165 
1432.720459 0.069095 
1433.705444 0.018721 
1440.685425 0.027405 
1441.681885 0.803872 
1442.685059 0.670774 
1443.689453 0.266004 
1444.697998 0.063973 
1458.698364 1.301095 
1459.695923 1.71444 
1460.702271 1.197112 
1461.697632 0.417699 
END IONS

