BEGIN IONS
PEPMASS=1277.62
CHARGE=1+
COMPOUNDNAME=DACTINOMYCIN
LIBRARYQUALITY=3
SMILES=N/A
INCHIKEY=RJURFGZVJUQBHK-IIXSONLDSA-N
INCHI=InChI=1S/C62H86N12O16/c1-27(2)42-59(84)73-23-17-19-36(73)57(82)69(13)25-38(75)71(15)48(29(5)6)61(86)88-33(11)44(55(80)65-42)67-53(78)35-22-21-31(9)51-46(35)64-47-40(41(63)50(77)32(10)52(47)90-51)54(79)68-45-34(12)89-62(87)49(30(7)8)72(16)39(76)26-70(14)58(83)37-20-18-24-74(37)60(85)43(28(3)4)66-56(45)81/h21-22,27-30,33-34,36-37,42-45,48-49H,17-20,23-26,63H2,1-16H3,(H,65,80)(H,66,81)(H,67,78)(H,68,79)/t33-,34-,36+,37+,42-,43-,44+,45+,48+,49+/m1/s1
MSLEVEL=2
SOURCE_INSTRUMENT=N/A-ESI-QFT
FILENAME=library_mgf.mgf
SEQ=*..*
IONMODE=positive
ORGANISM=MONA
NAME=DACTINOMYCIN [M+Na]+
PI=MoNA
DATACOLLECTOR=MoNA:VF-NPL-QEHF002895
PUBMED=N/A
SUBMITUSER=mwang87
TAGS=
SPECTRUMID=CCMSLIB00004693958
SCANS=2895
88.838631 0.277218 
89.452339 0.187884 
90.074898 0.34804 
90.194626 0.049046 
90.764641 0.356005 
91.869278 0.360297 
92.047676 0.057959 
92.862976 0.324641 
93.388824 0.374631 
94.360085 0.041739 
95.858437 0.385993 
96.034309 0.354888 
96.081192 0.045387 
96.336128 0.302064 
96.444878 0.04951 
96.526718 0.171311 
97.246056 0.202386 
97.521133 0.362823 
97.815285 0.184865 
98.060455 0.242092 
98.09687 8.669291 
98.292953 0.38299 
98.534592 0.047609 
98.666595 0.234557 
99.296387 0.281851 
99.366669 0.048984 
100.039703 1.12651 
100.112358 0.225596 
100.78421 0.339121 
102.330528 0.412108 
102.753998 0.046586 
102.998207 0.159686 
103.247238 0.192328 
103.739052 0.380968 
103.871223 0.046888 
105.125626 0.147952 
105.940117 0.378168 
106.699913 0.245862 
107.84893 0.194503 
110.096413 0.082081 
111.066521 0.048014 
111.231339 0.081329 
111.400528 0.269883 
112.037102 12.530172 
112.64106 0.149601 
113.661888 0.333795 
114.091545 1.666126 
115.166092 0.363019 
115.602783 0.037704 
115.841377 0.037909 
115.979782 0.03348 
117.543571 0.040994 
117.829224 0.382863 
117.895294 0.380086 
119.095337 0.198655 
121.052734 0.276192 
123.09211 0.077215 
123.277847 0.169523 
123.340912 0.232399 
123.803421 0.431158 
124.036995 14.66847 
124.112305 1.716105 
125.107208 0.053733 
125.790588 0.148662 
126.058502 0.227905 
126.084351 0.173325 
126.091675 0.057417 
126.925446 0.052765 
128.101761 0.046029 
130.035507 0.162429 
130.564987 0.045222 
132.101852 5.08484 
132.65097 0.191432 
133.02803 0.056715 
133.105042 0.05438 
135.719254 0.037121 
136.03685 1.250942 
136.949921 0.338623 
137.069626 0.055675 
138.052399 62.76804 
138.091385 0.165413 
138.652237 0.157652 
138.89888 0.191719 
138.987732 0.047374 
139.086517 0.146936 
140.068115 7.482484 
140.844543 0.044036 
140.953369 0.234646 
141.293518 0.184493 
143.368591 0.047679 
146.040619 0.068775 
148.611435 0.046617 
150.018555 0.176416 
152.106995 0.08862 
153.891388 0.395759 
153.999924 0.228225 
154.086426 0.089269 
154.387558 0.04204 
155.118057 1.040236 
158.7061 0.182663 
159.466553 0.317887 
160.1241 0.051431 
160.962997 0.438478 
161.000961 0.058153 
161.423172 0.18332 
162.076126 0.453939 
163.084106 5.016617 
163.347366 0.239194 
164.055664 0.048071 
164.086105 0.079234 
165.099548 0.343571 
166.047592 2.246894 
166.083725 41.959465 
166.722229 0.30544 
172.844559 0.054409 
174.002182 0.294123 
176.572479 0.044849 
177.099686 22.510233 
179.079453 0.393813 
179.116089 0.114067 
179.382248 0.264208 
181.010544 0.086003 
183.439667 0.379717 
187.731445 0.162781 
188.068024 2.499429 
191.114532 0.18802 
191.201096 0.050318 
193.058044 0.541424 
193.133423 0.383676 
195.149521 0.583963 
196.198608 0.380053 
197.597305 0.174729 
201.098724 0.310632 
202.083878 0.08572 
202.431671 0.058125 
203.138672 0.090784 
204.283676 0.039348 
206.07872 21.140417 
206.509827 0.054796 
207.073502 0.066651 
209.08963 10.49413 
209.769272 0.188234 
210.53624 0.472622 
212.906342 0.045871 
214.717728 0.172132 
215.867294 0.045019 
217.130707 0.588129 
218.295486 0.331755 
218.766205 0.041994 
219.110367 5.567386 
219.915451 0.291004 
220.093979 1.152944 
220.215271 3.737883 
220.245102 0.412683 
220.78624 0.34127 
222.023621 0.068921 
222.12117 4.624742 
223.105133 100.0 
223.124664 0.063046 
223.420456 0.302043 
224.108673 2.442622 
227.645798 0.083146 
229.171646 0.044289 
232.879578 0.087142 
233.126358 0.202434 
235.141235 0.436615 
236.050797 0.275781 
237.120636 40.114445 
238.124283 0.141292 
239.082001 0.058483 
241.097244 0.072628 
244.806 0.214899 
245.124557 0.065263 
247.103668 0.532707 
249.792633 0.042547 
250.153519 0.061009 
251.156799 0.051421 
258.934357 0.288207 
262.070526 1.150999 
263.100067 19.356281 
263.136078 38.856812 
264.139923 0.044762 
264.732086 0.043565 
267.076263 24.40596 
267.421234 0.05017 
268.039368 0.049741 
268.080078 0.607248 
274.152618 1.700086 
276.010254 0.04529 
276.16806 6.619538 
276.85199 0.043131 
277.11554 11.629556 
278.183929 0.760647 
279.098175 0.097499 
279.390106 0.413952 
279.634491 0.056016 
280.121063 0.292764 
285.086243 1.332081 
287.079132 0.042006 
287.261414 0.243505 
289.058197 15.492239 
290.064758 0.672466 
290.147034 8.839634 
291.071991 0.095526 
292.041473 0.340377 
293.05545 7.876725 
293.596313 0.403721 
294.058868 0.41493 
295.071564 0.194439 
299.064972 0.039216 
302.089172 0.20903 
306.061646 0.199365 
306.085815 1.63504 
306.366821 0.183905 
308.157867 9.310387 
308.347992 0.24072 
310.080963 0.683914 
311.317566 0.250968 
314.052734 0.047133 
316.068237 0.093807 
316.163208 0.127824 
317.074738 0.593208 
318.084381 2.811552 
320.102325 2.402306 
320.15744 64.6362 
321.047729 0.608401 
321.106079 0.242013 
321.160645 2.426723 
321.187378 0.417052 
322.118896 0.108503 
324.097595 0.099385 
328.068909 0.151529 
329.075867 2.830801 
330.081482 0.170972 
332.063568 1.697327 
332.303406 0.043764 
333.048492 0.731905 
334.07962 8.091359 
334.137421 0.318352 
334.173157 5.095986 
335.083405 0.046686 
338.109741 0.056015 
343.077698 0.892718 
343.094543 0.437576 
344.06369 1.036741 
344.10022 11.430489 
344.194092 0.946803 
345.071564 0.327967 
345.107666 5.442733 
346.079315 2.080839 
346.115479 1.388467 
346.137726 0.19567 
346.209839 5.564841 
347.064056 0.105443 
347.087708 0.132109 
347.121979 0.097505 
347.168701 1.997594 
347.206451 3.028763 
347.6008 0.210418 
348.059692 1.128992 
348.097046 18.05554 
349.101135 2.134143 
350.11084 0.363585 
351.05835 2.455734 
354.083405 0.296399 
356.063843 2.539321 
356.559235 0.37914 
357.108429 0.123417 
358.116058 0.452368 
359.113983 0.447766 
360.094971 0.938959 
362.074341 1.282498 
362.110443 23.943357 
363.113098 0.919494 
366.108124 7.303722 
367.079071 1.310977 
367.112854 0.056435 
368.707916 0.243778 
369.095093 4.486305 
370.010498 0.372691 
370.078979 4.160532 
370.102783 0.532516 
371.084839 0.813628 
371.111053 8.306641 
372.094971 11.680213 
372.119751 0.118951 
373.100433 0.875871 
374.819458 0.226432 
375.082001 5.181038 
376.088776 0.923454 
381.095978 1.333884 
383.076263 0.376735 
383.110474 0.258339 
385.101105 0.096441 
385.128815 0.126105 
386.109375 0.081427 
387.362762 0.178925 
388.089874 6.260771 
388.117432 0.444642 
389.095947 0.194834 
389.121368 0.043831 
390.105438 6.180539 
390.141785 0.258245 
391.194214 0.376821 
394.103241 3.03194 
395.028534 0.08968 
395.109924 0.605047 
397.09024 5.565667 
399.105774 11.878962 
399.135498 0.101812 
400.112457 7.534833 
401.088043 0.197247 
401.120697 6.809312 
401.397217 0.322477 
403.233063 0.544903 
408.582886 0.345348 
411.108368 0.675436 
413.122162 1.456504 
415.101196 5.257043 
415.135864 0.300587 
415.479065 0.05543 
416.083679 6.586135 
425.121826 1.686347 
425.159149 0.090597 
427.105072 1.367097 
427.136658 26.896175 
428.143097 10.654162 
428.275238 0.056577 
429.119934 0.390095 
429.152374 10.683899 
431.246552 0.041314 
432.822876 0.060631 
438.152679 0.042983 
441.255554 0.445409 
443.167969 43.788845 
444.017853 0.066789 
444.172729 4.362195 
447.829498 0.091647 
452.131317 0.944761 
453.115662 0.07667 
454.146729 0.305975 
455.132263 0.49541 
456.762543 0.04529 
468.164429 2.803575 
469.147095 3.99712 
470.146118 0.150389 
471.127838 1.806989 
474.14505 0.10432 
479.627136 0.089197 
480.164948 0.280694 
482.180634 1.604843 
483.160065 0.915348 
484.15802 0.116006 
487.157898 5.993948 
496.157898 0.05703 
497.16449 0.681398 
498.174072 9.984743 
500.83905 0.341901 
501.990112 0.259699 
509.179749 0.608293 
510.174896 0.403449 
512.189209 1.378768 
524.189087 5.733808 
525.192932 0.050712 
526.204407 8.519254 
527.210754 0.254372 
528.190674 0.173455 
539.899414 0.037596 
540.221191 2.62972 
544.120972 0.186248 
581.913025 0.100697 
590.187378 0.325088 
590.568787 0.072432 
595.08136 0.063696 
598.668701 0.045967 
616.696716 0.049713 
618.174255 0.051521 
626.759766 0.05089 
627.825195 0.060801 
632.188049 0.040877 
634.757812 0.459218 
673.952454 0.366737 
679.807007 0.036803 
682.163269 0.484022 
683.87323 0.453901 
686.033936 0.340263 
712.37561 0.40112 
724.010986 0.452002 
727.750366 0.413977 
742.124878 0.055435 
779.043457 0.057224 
786.957031 0.040759 
871.00708 0.064133 
881.056519 0.350516 
891.496399 0.250931 
895.062683 0.219845 
897.861328 0.045746 
918.909851 0.454596 
926.373169 0.454801 
926.709412 0.431753 
958.651367 0.186282 
994.37854 0.433491 
1013.714661 0.353181 
1035.333008 0.090735 
1045.509521 0.303474 
1081.40271 0.051944 
1092.197632 0.418764 
1107.848022 0.326692 
1145.902588 0.04387 
1180.595947 0.527729 
1186.457886 0.211431 
1189.46582 0.092085 
1196.547729 0.052725 
1202.884521 0.245809 
1204.53125 0.06814 
1213.618164 0.427625 
1222.769409 0.208991 
1256.464478 0.102321 
1277.478149 0.418518 
1312.611328 0.284578 
1323.501709 0.052496 
END IONS

