BEGIN IONS
PEPMASS=403.291
CHARGE=1+
COMPOUNDNAME=ACTINONIN
LIBRARYQUALITY=3
SMILES=N/A
INCHIKEY=XJLATMLVMSFZBN-VYDXJSESSA-N
INCHI=InChI=1S/C19H35N3O5/c1-4-5-6-8-14(11-16(24)21-27)18(25)20-17(13(2)3)19(26)22-10-7-9-15(22)12-23/h13-15,17,23,27H,4-12H2,1-3H3,(H,20,25)(H,21,24)/t14-,15+,17+/m1/s1
MSLEVEL=2
SOURCE_INSTRUMENT=N/A-ESI-QFT
FILENAME=library_mgf.mgf
SEQ=*..*
IONMODE=positive
ORGANISM=MONA
NAME=ACTINONIN [M+NH4]+
PI=MoNA
DATACOLLECTOR=MoNA:VF-NPL-QEHF027316
PUBMED=N/A
SUBMITUSER=mwang87
TAGS=
SPECTRUMID=CCMSLIB00004720897
SCANS=27316
50.810802 0.019064 
50.991348 0.017084 
51.006435 0.016557 
51.036003 0.016356 
51.305805 0.006192 
51.60228 0.010594 
51.677036 0.022636 
52.158802 0.009421 
52.351288 0.010131 
52.448025 0.016948 
52.836437 0.009398 
53.333973 0.007413 
53.550022 0.010772 
53.592739 0.021174 
53.872349 0.008353 
54.229321 0.019779 
54.609772 0.009173 
54.76973 0.006468 
55.054478 2.54477 
55.6343 0.020051 
55.723442 0.022035 
56.049717 2.736514 
56.965042 1.199435 
56.994644 0.010244 
57.057663 0.026442 
57.070095 1.26714 
57.216843 0.011284 
57.49881 0.019724 
58.065475 0.009903 
58.119923 0.006616 
58.149033 0.013832 
58.764446 0.005732 
59.04924 0.00966 
59.349583 0.02536 
59.46286 0.009918 
59.618679 0.009819 
59.79213 0.015029 
59.848999 0.024359 
60.086449 0.013939 
60.105022 0.021429 
60.316357 0.020914 
60.383598 0.019599 
60.873531 0.006351 
61.010769 0.041642 
61.606098 0.02166 
61.820988 0.010446 
61.988472 0.006384 
62.018578 0.064702 
62.054295 0.010705 
62.156979 0.019095 
62.164467 0.010884 
62.421806 0.009835 
62.487221 0.010052 
62.61116 0.023619 
63.174965 0.008942 
63.293247 0.008233 
63.329506 0.021454 
63.430973 0.010658 
64.24485 0.011639 
64.271172 0.020061 
64.870651 0.007777 
65.217102 0.014886 
65.222694 0.02102 
65.321571 0.009389 
65.777534 0.022711 
65.944183 0.015157 
66.219666 0.007142 
67.054291 1.547449 
67.158981 0.02419 
67.163567 0.008639 
67.651825 0.010919 
67.876068 0.010178 
69.069893 0.055052 
69.182747 0.00665 
69.558441 0.007677 
70.06514 0.155162 
71.085533 0.237232 
71.295441 0.014683 
72.02565 0.023457 
72.08075 35.144512 
72.896515 0.02112 
73.064873 0.006799 
73.520744 0.008202 
73.922127 0.01413 
74.238419 0.010824 
75.890244 0.019405 
76.020355 0.012657 
76.044197 0.02328 
77.453682 0.015044 
77.543999 0.010013 
77.798653 0.023294 
78.108765 0.006462 
78.15657 0.005935 
79.021248 0.007584 
79.341408 0.008591 
79.845383 0.009212 
80.988838 0.011325 
81.069878 0.065744 
81.140091 0.024693 
81.63488 0.011128 
82.065063 0.494348 
83.04908 0.168927 
83.085533 0.064851 
84.08075 23.294771 
84.493439 0.017708 
84.922073 0.021201 
85.039581 0.152141 
85.064735 4.361746 
85.101128 0.099597 
85.843842 0.008282 
86.757614 0.019738 
87.044006 1.865519 
87.170563 0.014785 
88.047356 0.014979 
88.251373 0.021259 
88.408478 0.025486 
89.059631 1.551865 
89.066277 0.025023 
91.054047 0.015338 
91.19986 0.015045 
92.221146 0.008993 
93.070068 0.012891 
93.253876 0.015012 
94.204506 0.009579 
94.20845 0.02122 
94.714592 0.020844 
95.085434 0.091521 
95.107491 0.009916 
95.660057 0.008693 
96.286568 0.008671 
96.591759 0.017917 
97.100998 0.07957 
100.075661 1.602946 
100.078964 0.02648 
102.091309 100.0 
103.038918 0.170076 
103.075539 0.012805 
103.09449 0.039143 
103.353401 0.012441 
103.456665 0.006486 
103.915428 0.013924 
104.792763 0.010504 
104.834229 0.009129 
105.070953 0.009878 
106.399033 0.005805 
111.04406 0.110785 
111.272072 0.027593 
111.548859 0.009884 
111.641052 0.019956 
111.858566 0.020626 
112.075607 18.16184 
112.594803 0.009969 
116.105408 0.027444 
118.086212 0.031941 
119.118179 0.009825 
120.198341 0.009099 
121.064774 0.023582 
121.43766 0.006149 
122.25145 0.021542 
123.040909 0.017181 
123.203262 0.008649 
123.47319 0.010175 
124.754402 0.011062 
124.845146 0.0209 
126.022842 0.041741 
128.07048 9.528729 
129.018036 0.086816 
129.300491 0.009883 
129.830414 0.018039 
129.902542 0.014547 
130.833633 0.009869 
131.070251 0.199476 
131.37265 0.02335 
131.648972 0.013375 
132.68692 0.01693 
133.085846 0.417616 
133.545883 0.010136 
133.635986 0.019954 
135.116486 0.009253 
136.56691 0.008654 
137.291077 0.007298 
138.02272 0.903504 
138.127686 0.047304 
138.951279 0.025581 
139.388229 0.013511 
140.106842 0.586092 
141.693848 0.021488 
142.017944 0.011362 
142.122147 0.012712 
142.89566 0.009377 
146.974152 0.052024 
150.968796 0.008208 
152.10643 0.008583 
152.951477 0.050735 
154.017502 0.305921 
154.485123 0.007175 
154.946701 0.080681 
155.031677 0.024015 
155.252884 0.009675 
156.03302 3.698444 
156.138153 0.037305 
156.442841 0.009426 
157.439301 0.020484 
158.04863 3.3529 
159.090408 0.018861 
160.989899 0.220329 
161.060303 0.021214 
163.959778 0.011473 
163.976486 0.03065 
165.258957 0.014205 
165.330978 0.008287 
166.017197 0.126232 
166.122589 0.717667 
166.967209 0.008237 
168.033066 0.509705 
170.117569 0.236502 
171.351501 0.018462 
171.671829 0.024881 
172.027908 0.275804 
172.173187 0.011824 
172.858078 0.009474 
172.989929 0.037524 
174.04364 2.390537 
175.027588 0.049589 
175.096436 0.067837 
175.958572 0.006293 
176.05925 2.264937 
177.974731 0.008383 
178.808701 0.010466 
179.953827 0.019072 
181.028519 0.164298 
181.329712 0.023358 
182.117691 0.022067 
182.771667 0.007956 
183.044113 0.268202 
183.149078 1.674329 
184.028046 1.400188 
184.132996 2.075559 
185.081009 0.012923 
185.128296 0.070543 
186.043777 0.823224 
186.07988 0.075536 
186.112442 0.631343 
187.015442 0.01254 
188.151291 0.023294 
188.984772 0.008384 
191.000519 0.331019 
191.106598 0.071628 
192.000717 0.048696 
192.054489 0.040544 
192.070587 0.023794 
192.380585 0.019611 
192.896179 0.007183 
192.961411 0.088641 
194.070953 0.01166 
194.716125 0.019187 
197.096466 0.079103 
198.0802 0.528377 
199.038971 0.396127 
200.111801 0.045319 
201.054443 0.471513 
201.159637 2.275036 
202.038528 1.20846 
202.075317 0.010719 
203.066589 0.162927 
203.587082 0.017869 
203.604324 0.201381 
204.054352 0.325044 
204.090576 0.015668 
208.065674 0.026553 
209.299179 0.007528 
210.080048 0.352421 
210.184845 0.018673 
210.52832 0.018455 
210.972244 0.007078 
212.095978 0.010748 
212.315018 0.025265 
212.442825 0.008639 
212.609314 3.039968 
213.82756 0.435012 
213.839615 0.653834 
213.841919 0.664213 
214.666107 0.008305 
215.106613 0.337363 
215.907623 0.013461 
216.090714 1.308334 
219.174332 0.471019 
220.048798 0.012013 
221.164795 0.596723 
221.614594 3.667589 
222.080109 1.115487 
222.898666 0.04221 
223.075714 0.18781 
223.180573 0.063661 
223.980408 0.021763 
224.095856 1.070469 
224.164124 1.834558 
225.041565 0.007406 
225.091019 0.526474 
225.556168 0.010851 
226.074875 0.662935 
226.622437 0.012551 
228.090591 1.094066 
230.106567 0.419889 
230.619186 0.02342 
230.872864 0.011788 
231.895615 0.007014 
233.043259 0.008801 
233.891693 0.375708 
234.101273 0.283731 
235.889862 0.007931 
239.022873 0.007137 
239.047363 0.022897 
239.106567 0.183167 
239.162643 0.030753 
239.175095 4.025769 
239.900833 0.008296 
240.090515 9.215864 
240.145477 0.013378 
240.864624 0.112687 
240.909409 0.071998 
241.085571 2.398591 
242.069672 0.026061 
242.106064 7.897258 
243.101349 1.953105 
244.085526 0.57222 
245.099182 0.006336 
246.10228 0.012261 
247.907303 0.007587 
249.024841 0.008371 
249.127975 0.011012 
249.159927 0.01119 
249.907333 0.020389 
251.278397 0.024679 
251.901886 1.355736 
252.126938 0.58478 
253.084976 0.011537 
253.901382 0.012445 
255.101517 0.271134 
255.898254 0.033193 
256.880432 0.041728 
257.117157 0.865794 
257.244781 0.019451 
258.100891 7.057699 
258.124023 0.011586 
258.137054 0.049768 
258.875214 0.518782 
259.096344 9.128417 
260.082733 0.023605 
260.116577 6.725604 
261.011444 0.007952 
261.112274 0.61446 
261.128113 0.033626 
262.912781 0.009293 
262.984192 0.00818 
264.864868 0.046547 
264.909088 0.234301 
265.086517 0.030764 
266.097382 0.008933 
266.409912 0.019126 
267.101593 0.985484 
267.137848 1.037144 
267.169922 1.316255 
268.879944 0.055249 
269.153778 0.085772 
270.137207 1.904609 
270.277985 0.007537 
270.874847 0.677982 
270.890656 0.008392 
270.960754 0.071284 
271.796906 0.009751 
271.860657 0.012132 
271.883301 0.008413 
272.15329 0.013418 
272.8909 0.023587 
273.112671 0.069274 
274.71698 0.011122 
276.111725 0.02515 
276.128296 0.024194 
277.106781 6.49328 
277.122162 0.320644 
278.12851 0.025621 
278.925079 0.110645 
279.088318 0.020802 
279.137482 2.101404 
279.171631 0.024051 
279.898773 0.011503 
280.879883 0.116742 
281.153381 0.269477 
281.896301 0.03858 
281.913025 0.012064 
281.963867 0.020589 
282.111847 0.02693 
282.137268 0.162082 
282.875061 1.253804 
282.893677 0.030762 
282.919617 0.094148 
283.09613 1.691534 
283.262665 15.90679 
283.891968 1.552332 
284.153046 0.197876 
284.266083 3.051412 
284.890839 0.564669 
285.111938 0.500475 
285.148346 0.292233 
285.180511 1.676017 
285.269135 0.201902 
285.889252 0.031765 
286.402313 0.012588 
288.146912 0.09396 
288.160675 0.044954 
288.883728 0.007192 
291.138947 0.019083 
292.132812 0.016915 
292.905151 0.011652 
293.116852 0.115824 
294.13736 0.076656 
295.133148 0.572772 
295.289978 0.010184 
295.664886 0.42252 
296.935364 0.09202 
297.006866 0.052023 
297.148193 3.473385 
297.977478 0.007464 
298.132629 0.195799 
298.890198 0.234108 
299.022339 0.008789 
299.164337 0.184791 
300.14801 0.014331 
300.88562 1.648751 
301.106567 1.931217 
301.902649 0.116381 
303.68042 0.114409 
304.132874 0.042576 
304.189697 0.020405 
306.148651 0.289213 
307.132812 0.190394 
307.238708 0.07146 
308.092834 0.014312 
308.19751 0.073672 
308.919525 0.033971 
309.148407 0.18718 
310.143677 1.17327 
310.915649 1.029211 
311.127716 0.606738 
311.163757 0.075654 
311.294495 0.081037 
312.007904 0.007474 
312.297546 0.427666 
312.814728 0.02464 
313.000977 0.017452 
313.142975 1.966792 
313.300049 0.00999 
313.893524 0.219402 
313.972534 0.125864 
314.27179 0.011604 
315.158936 1.025273 
316.143555 0.028411 
318.831848 0.008355 
321.184662 1.49134 
322.142853 0.016978 
322.68927 0.078303 
323.127686 0.209347 
324.135742 0.040516 
324.160156 0.138224 
325.143402 0.671367 
326.90155 0.108345 
328.154022 0.176803 
328.926422 0.090357 
330.685516 0.128429 
331.153839 1.466893 
333.18457 4.711907 
334.1073 0.142682 
335.157501 0.021346 
335.200256 0.027365 
335.233124 0.165379 
336.448395 0.024396 
339.19577 0.896927 
340.155121 0.102676 
341.137939 2.878091 
342.241486 0.02243 
343.1539 0.044903 
345.185394 0.328492 
347.186218 0.007573 
348.195618 0.035811 
349.180389 0.105859 
350.243439 18.133553 
351.19516 14.096405 
353.210785 0.21853 
353.243378 0.673009 
358.181488 0.027813 
359.148651 0.821653 
360.195862 0.3546 
361.179352 0.030905 
362.211121 3.623108 
363.194946 6.882591 
366.206268 0.070938 
368.253937 3.351554 
369.205841 3.057702 
373.219635 0.008885 
376.162994 0.007992 
376.190369 2.646192 
378.204834 0.064575 
379.190704 0.008002 
380.221649 3.872158 
381.205536 11.895498 
387.227661 2.056171 
388.190735 0.496206 
391.189484 0.093445 
394.201019 2.815001 
395.22403 0.010907 
398.231262 0.067565 
399.216705 0.587353 
401.286957 0.641245 
401.650879 0.013311 
401.985077 0.020028 
402.256897 0.039452 
402.291443 0.380765 
402.357758 0.048495 
402.983032 0.036896 
403.24527 0.19685 
403.294159 0.059992 
403.333771 0.010979 
403.365265 0.037211 
403.963837 0.032546 
404.216309 0.120955 
404.249329 0.077656 
404.279205 0.011219 
404.31601 0.023702 
404.349701 0.024774 
404.961212 0.025972 
405.173401 0.036399 
405.228699 0.040559 
405.260681 3.51059 
406.20047 4.908131 
409.200775 0.460421 
410.533722 0.021985 
412.211731 0.241953 
412.989288 0.023588 
414.176117 0.024458 
418.964874 0.010932 
419.995239 0.397812 
420.992523 0.299621 
421.992645 0.009818 
424.211029 12.000916 
427.789764 0.011304 
END IONS

