BEGIN IONS
PEPMASS=224.5
CHARGE=1+
COMPOUNDNAME=Massbank:KO004039 Sisomicin|Antibiotic 6640|Dehydrogentamicin Cla|Rickamicin
LIBRARYQUALITY=3
SMILES=NCC(=C3)O[C@@H]([C@H](N)C3)O[C@H]([C@@H](N)1)[C@H](O)[C@@H](O[C@@H](O2)[C@H](O)[C@@H](NC)[C@](C)(O)C2)[C@H](N)C1
INCHIKEY=URWAJWIAIPFPJE-GYHYWALZSA-N
INCHI=1S/C19H37N5O7/c1-19(27)7-28-18(13(26)16(19)24-2)31-15-11(23)5-10(22)14(12(15)25)30-17-9(21)4-3-8(6-20)29-17/h3,9-18,24-27H,4-7,20-23H2,1-2H3/t9-,10+,11-,12+,13-,14-,15+,16-,17-,18-,19+/m1/s1
MSLEVEL=2
SOURCE_INSTRUMENT=ESI-LC-ESI-QQ
FILENAME=Massbank_ESI_positive_8_1_2014_peaks.mgf
SEQ=*..*
IONMODE=Positive
ORGANISM=MASSBANK
NAME=Massbank:KO004039 Sisomicin|Antibiotic 6640|Dehydrogentamicin Cla|Rickamicin [M+2H]++
PI=Putative Massbank Match
DATACOLLECTOR=Massbank
PUBMED=N/A
SUBMITUSER=mwang87
TAGS=
SPECTRUMID=CCMSLIB00000220599
SCANS=9831
42.0 183168.5 
43.2 54455.5 
43.9 257426.0 
45.1 49505.0 
45.3 14851.5 
46.2 9901.0 
52.6 19802.0 
54.9 64356.5 
55.3 202970.5 
56.3 698020.5 
57.4 361386.5 
58.3 1074258.5 
60.2 158416.0 
65.1 534654.0 
66.9 707921.5 
68.0 1811883.0 
69.3 277228.0 
70.1 1470298.5 
71.1 2396042.0 
72.0 5495055.0 
73.3 297030.0 
74.0 504951.0 
78.9 113861.5 
80.2 3500003.5 
81.2 1361387.5 
82.2 7836641.5 
83.3 1440595.5 
84.2 8168325.0 
85.3 495050.0 
86.2 5410896.5 
87.2 202970.5 
88.1 648515.5 
88.9 113861.5 
90.0 79208.0 
92.1 4509905.5 
93.0 396040.0 
94.2 425743.0 
95.0 237624.0 
96.3 1351486.5 
97.2 287129.0 
98.0 1381189.5 
99.0 4450499.5 
100.3 6985155.5 
101.3 1252476.5 
102.0 2643567.0 
103.2 19802.0 
105.7 39604.0 
106.9 89109.0 
108.1 311881.5 
109.2 11163377.5 
110.0 11841596.0 
111.1 554456.0 
112.2 13000013.0 
113.3 891090.0 
114.2 3549508.5 
116.2 54455.5 
118.1 3712875.0 
118.9 39604.0 
120.3 108911.0 
121.0 128713.0 
122.5 108911.0 
123.3 207921.0 
124.1 460396.5 
126.3 178218.0 
127.2 10940605.0 
128.1 391089.5 
129.0 173267.5 
130.1 79208.0 
132.1 39604.0 
133.0 94059.5 
134.0 59406.0 
134.9 84158.5 
135.8 113861.5 
137.2 59406.0 
138.3 74257.5 
140.0 94059.5 
142.1 3173270.5 
143.4 69307.0 
145.1 1227724.0 
145.9 381188.5 
147.2 24752.5 
147.9 34653.5 
149.0 44554.5 
150.2 34653.5 
151.5 84158.5 
152.2 89109.0 
155.9 19802.0 
157.3 242574.5 
158.1 148515.0 
160.1 1707922.5 
160.9 39604.0 
163.3 3831687.0 
165.5 44554.5 
169.3 44554.5 
170.0 49505.0 
173.2 2158418.0 
175.1 603961.0 
179.1 19802.0 
181.3 29703.0 
183.9 29703.0 
187.2 306931.0 
199.4 148515.0 
201.4 257426.0 
205.1 113861.5 
208.3 39604.0 
211.2 64356.5 
213.0 94059.5 
215.2 59406.0 
219.1 113861.5 
220.2 49505.0 
225.3 34653.5 
226.3 321782.5 
236.1 29703.0 
237.2 163366.5 
254.4 1128714.0 
271.6 79208.0 
END IONS

