BEGIN IONS
PEPMASS=260.176
CHARGE=1+
COMPOUNDNAME=Huperzine A
LIBRARYQUALITY=3
SMILES=N/A
INCHIKEY=ZRJBHWIHUMBLCN-UHFFFAOYSA-N
INCHI=InChI=1S/C15H18N2O/c1-3-11-10-6-9(2)8-15(11,16)12-4-5-14(18)17-13(12)7-10/h3-6,10H,7-8,16H2,1-2H3,(H,17,18)
MSLEVEL=2
SOURCE_INSTRUMENT=N/A-ESI-QFT
FILENAME=library_mgf.mgf
SEQ=*..*
IONMODE=positive
ORGANISM=MONA
NAME=Huperzine A [M+NH4]+
PI=MoNA
DATACOLLECTOR=MoNA:VF-NPL-QEHF027228
PUBMED=N/A
SUBMITUSER=mwang87
TAGS=
SPECTRUMID=CCMSLIB00004720809
SCANS=27228
50.981777 0.080391 
51.219151 0.071548 
51.849522 0.091069 
53.038906 0.872496 
53.374317 0.062244 
54.396942 0.102906 
54.525974 0.080464 
54.591728 0.065671 
55.018112 0.403608 
55.054527 3.532842 
55.863132 0.105845 
56.049786 0.464717 
56.077332 0.092795 
56.090912 0.121826 
56.106693 0.106009 
56.775089 0.069172 
56.96505 0.098489 
57.070129 6.048638 
58.065388 67.309029 
58.067104 0.648528 
58.231709 0.063166 
58.403439 0.076393 
58.556976 0.065651 
59.03875 0.107042 
59.068733 3.366037 
59.297806 0.114312 
59.467754 0.044333 
60.044662 0.174329 
60.215183 0.079362 
60.364056 0.074235 
60.957863 0.800904 
60.95948 0.041783 
61.293446 0.091656 
62.060234 3.681808 
62.48148 0.07361 
63.191387 0.06255 
64.308022 0.065262 
64.626183 0.115451 
65.038719 0.415486 
65.251724 0.06441 
65.752182 0.081045 
66.152779 0.11209 
67.054359 0.589187 
67.162918 0.093347 
67.174225 0.080863 
67.237144 0.11939 
69.033691 0.185231 
69.044533 0.079642 
69.069908 0.685955 
70.065117 0.066552 
70.65097 0.068715 
71.057663 0.066251 
71.085602 0.77595 
71.398376 0.117612 
72.704086 0.139118 
74.619743 0.099327 
75.02388 0.10085 
75.495979 0.042967 
76.273735 0.092922 
77.631569 0.092727 
78.551987 0.069576 
79.021187 1.104643 
79.054214 6.791182 
79.153511 0.137402 
80.049469 3.945798 
80.057671 0.137215 
80.468147 0.086862 
80.590393 0.08583 
80.598518 0.075886 
80.892311 0.071488 
81.069878 5.104361 
82.065186 0.699062 
82.073196 0.094709 
83.049355 0.053515 
83.891724 0.131697 
84.044472 0.129561 
84.275009 0.045956 
85.910271 0.070526 
86.624664 0.089064 
86.9767 0.091282 
86.990822 0.111852 
89.579475 0.092232 
91.054222 4.367828 
91.941635 0.068473 
92.049362 0.314267 
92.057457 0.091921 
93.069939 0.682978 
93.271843 0.049619 
94.065147 1.74905 
94.072952 0.120544 
94.351646 0.109518 
95.049065 0.352847 
95.084946 0.110626 
96.043999 0.117809 
97.00145 0.124883 
98.975349 0.465014 
99.055328 0.103404 
102.341019 0.074273 
102.37561 0.076959 
102.434669 0.091393 
102.914551 0.051676 
102.968269 10.267293 
103.054482 0.082756 
103.524033 0.116581 
103.648026 0.108845 
104.049393 0.612247 
105.044579 0.182554 
105.069916 4.977839 
106.065125 2.892164 
107.072937 2.555625 
107.085594 0.784521 
108.044243 0.351873 
108.076797 0.090699 
108.080688 3.603928 
109.0522 1.205258 
109.064438 0.084973 
110.059998 3.733549 
110.400581 0.108293 
110.597527 0.069948 
113.385887 0.070046 
113.761513 0.120025 
115.054214 2.919547 
116.049385 0.503285 
116.430573 0.136122 
117.057281 2.74989 
117.069771 0.299739 
118.065056 3.240776 
119.059914 0.056459 
119.068359 0.083211 
119.085487 1.253317 
119.141129 0.122951 
119.395317 0.117707 
119.664383 0.087773 
120.080765 0.492259 
120.742172 0.07582 
120.97435 0.053572 
120.978813 3.688348 
121.039642 0.904391 
122.060219 0.138569 
122.096405 3.309954 
122.940994 0.078279 
122.950272 0.069287 
123.27375 0.068666 
124.028374 0.110801 
125.38163 0.107843 
125.853386 0.093927 
126.054939 0.672015 
126.347298 0.12285 
128.049225 0.057215 
128.061966 3.955116 
128.234253 0.070216 
129.069824 3.974089 
130.016464 0.141231 
130.065109 3.680756 
130.072983 0.071707 
131.072876 1.045894 
131.085678 0.067215 
132.044388 2.429065 
132.067673 0.084468 
132.080719 6.354488 
133.052231 0.955031 
133.064758 0.631551 
133.088562 1.467775 
134.059937 3.787201 
134.096436 1.420125 
134.764725 0.07178 
135.055161 2.204045 
135.062943 0.196482 
135.067902 0.894312 
136.075729 1.979867 
137.620941 0.066717 
138.262772 0.101201 
138.989105 0.302042 
140.049438 0.862191 
141.069839 2.576556 
141.725616 0.076451 
142.065125 3.752041 
142.077805 0.540393 
142.492096 0.047586 
143.060318 3.022818 
143.072968 0.096135 
143.085617 5.226021 
144.080795 5.901833 
144.087372 0.122652 
145.052155 1.06113 
145.064835 0.08896 
145.076141 2.063011 
145.083649 0.074565 
145.538681 0.099435 
146.060028 9.078018 
146.078766 0.150885 
146.096466 0.843496 
147.055252 4.74015 
147.062729 0.871832 
147.408737 0.071158 
147.947281 0.10837 
148.063171 0.448104 
148.075424 0.384574 
149.078568 0.151438 
149.0961 0.903857 
150.091339 9.546619 
150.533051 0.081592 
152.06192 1.765483 
152.951385 0.488074 
153.057587 0.124921 
153.069916 8.085199 
154.065262 9.96517 
154.071823 0.144903 
154.078094 0.403028 
155.060516 2.332701 
155.073135 6.163192 
155.085373 2.746515 
156.068298 1.059543 
156.080719 3.358614 
156.087982 0.211033 
157.076324 1.006796 
157.08873 1.489359 
157.10083 0.223412 
158.059998 9.107094 
158.096542 0.364122 
159.055679 0.348256 
159.067917 2.820597 
159.092758 0.08108 
159.408844 0.111164 
160.063828 7.999455 
160.075623 27.255314 
161.071167 12.8784 
161.078629 2.796238 
162.054977 0.625051 
162.07431 0.187522 
164.061722 0.246383 
164.254211 0.071259 
165.057251 0.071838 
165.069901 4.240011 
166.065109 3.656629 
166.077682 4.313769 
167.060547 2.109818 
167.073288 6.491784 
167.08049 0.095517 
167.085876 0.602583 
168.081116 7.000974 
169.064575 0.256612 
169.07605 4.716143 
169.088882 0.390102 
169.101273 1.580722 
170.059952 4.941602 
170.084106 1.001482 
170.096436 11.699366 
170.104446 0.120948 
171.055389 0.126382 
171.067993 1.278415 
171.091705 0.998676 
171.099289 0.788921 
172.063049 2.429198 
172.075699 13.659308 
172.099365 0.322874 
172.112244 0.457419 
173.071045 21.96167 
173.078766 1.060297 
173.084015 0.812874 
173.107346 0.17453 
174.054855 0.873562 
174.074097 0.685785 
174.091232 1.662791 
175.049957 0.430703 
175.086517 1.079674 
175.094788 0.102544 
176.05455 0.108616 
176.070526 1.056822 
177.065704 0.114433 
177.38327 0.109522 
177.652313 0.10297 
178.065125 7.935385 
178.077744 3.716427 
179.060364 0.628235 
179.068451 0.197542 
179.085571 18.772758 
180.067749 0.192231 
180.080795 29.745232 
180.088882 2.554143 
180.888199 0.252308 
181.065247 0.260338 
181.076553 6.678477 
181.088776 35.437141 
181.101257 4.898896 
181.995987 0.078267 
182.059998 7.126029 
182.084 0.490953 
182.092133 2.509837 
182.104584 1.986001 
183.068054 22.030506 
183.081085 0.666772 
183.091614 2.580604 
184.063156 5.399056 
184.076462 11.22403 
184.084641 0.133809 
184.09935 0.453814 
185.071152 12.120119 
185.079636 1.861931 
185.083557 1.585678 
186.054077 0.108633 
186.078644 3.087721 
186.091446 6.937376 
186.127777 0.304055 
187.072098 0.125249 
187.086639 32.646538 
187.095016 1.032737 
188.070648 0.589395 
188.094391 8.730514 
188.106171 0.840581 
189.101944 0.391097 
190.065125 14.37317 
191.072968 39.947079 
192.076248 6.020152 
193.076126 3.276558 
193.08847 2.899143 
193.098419 0.043522 
194.060196 1.324791 
194.082977 0.297169 
194.096298 2.444829 
195.067886 5.134738 
195.078476 0.243329 
195.091309 0.769793 
195.104095 0.852695 
196.075714 17.369143 
196.112198 9.591394 
197.070953 91.472275 
197.082199 6.275706 
197.106674 1.289003 
197.115799 0.750006 
198.05513 3.174952 
198.078323 14.698601 
198.091202 52.707233 
199.06398 0.084692 
199.086395 22.16287 
199.095459 6.09917 
200.070786 1.781145 
200.09024 1.887333 
200.106781 6.089946 
201.101807 1.132138 
201.111404 0.094085 
202.424118 0.103428 
203.081299 1.164143 
204.080841 4.572729 
205.08844 4.928 
206.096481 28.00046 
207.09079 0.349581 
207.10022 3.845288 
208.07576 10.375956 
208.100296 0.559361 
208.111984 4.64403 
209.083572 76.902603 
209.094116 1.195438 
209.115341 2.767197 
210.090424 13.658048 
210.101501 0.160497 
211.086441 100.0 
212.070663 4.234809 
212.093475 26.317907 
212.106812 10.967419 
213.07811 1.759607 
213.101379 7.001963 
213.111374 3.234879 
214.085709 0.138532 
214.104431 0.141093 
214.12265 2.918082 
215.117844 4.472697 
216.916046 0.079694 
218.411041 0.082966 
219.667725 0.079585 
219.704132 1.083376 
222.091095 0.675283 
222.898163 0.682998 
223.098373 0.549164 
223.123352 0.127641 
224.095032 2.077712 
224.106918 31.706833 
225.101608 34.818413 
225.290192 0.116767 
226.086227 4.172648 
226.109161 11.692763 
226.122559 35.257919 
227.092682 0.369905 
227.126938 20.834421 
228.101776 4.787435 
228.128098 0.648772 
228.139175 0.385541 
229.105667 1.521506 
229.142151 0.178416 
230.107864 0.052865 
232.411606 0.074651 
239.11705 0.367686 
240.101593 0.293302 
240.909149 0.433958 
241.133362 5.079256 
242.117416 5.784602 
242.136795 0.086483 
243.111877 0.204944 
243.121933 0.270176 
244.905167 0.048105 
248.56897 0.126253 
250.236755 0.094694 
251.263733 0.103527 
258.148712 0.622839 
259.143829 22.631004 
260.147339 3.729375 
266.631836 0.043569 
279.330994 0.045845 
END IONS

