BEGIN IONS
PEPMASS=264.124
CHARGE=1+
COMPOUNDNAME=ANISOMYCIN
LIBRARYQUALITY=3
SMILES=N/A
INCHIKEY=YKJYKKNCCRKFSL-BFHYXJOUSA-N
INCHI=InChI=1S/C14H19NO4/c1-9(16)19-14-12(15-8-13(14)17)7-10-3-5-11(18-2)6-4-10/h3-6,12-15,17H,7-8H2,1-2H3/t12-,13+,14+/m0/s1
MSLEVEL=2
SOURCE_INSTRUMENT=N/A-ESI-QFT
FILENAME=library_mgf.mgf
SEQ=*..*
IONMODE=negative
ORGANISM=MONA
NAME=ANISOMYCIN [M-H]-
PI=MoNA
DATACOLLECTOR=MoNA:VF-NPL-QEHF027593
PUBMED=N/A
SUBMITUSER=mwang87
TAGS=
SPECTRUMID=CCMSLIB00004721174
SCANS=27593
50.712032 0.018875 
51.836067 0.031296 
51.947315 0.030692 
52.032825 0.021195 
52.275501 0.028633 
52.698524 0.02928 
52.799229 0.026467 
53.465076 0.030421 
53.492275 0.023196 
53.9408 0.015658 
55.228733 0.027899 
57.105103 0.032979 
57.807877 0.01989 
59.012501 0.723179 
59.073254 0.027048 
59.457069 0.028678 
59.460793 0.01633 
59.855633 0.033492 
60.007786 0.023802 
60.697678 0.022398 
61.986992 1.94088 
62.697197 0.021517 
63.141537 0.024533 
64.627228 0.030013 
65.519356 0.020059 
65.883484 0.024843 
66.679848 0.036046 
66.782867 0.0318 
67.979813 0.031836 
68.131248 0.023058 
69.955246 0.023781 
70.226875 0.022303 
70.890396 0.021245 
71.012779 0.020335 
71.756638 0.027873 
72.161293 0.033853 
73.387016 0.026225 
74.44001 0.017795 
75.243217 0.019352 
75.909363 0.026395 
76.086876 0.023377 
76.366211 0.016459 
76.416306 0.036475 
78.107658 0.020348 
78.43644 0.023981 
78.957741 0.455581 
79.956047 1.265148 
80.963921 0.425016 
81.175858 0.038017 
83.425758 0.017965 
85.883667 0.01764 
88.450768 0.019218 
89.023041 0.046696 
90.575249 0.028191 
95.685394 0.019029 
95.951157 0.030658 
96.941231 0.60187 
96.958817 100.0 
96.975571 0.229066 
96.977448 0.200586 
97.958267 0.141989 
101.911911 0.018164 
104.170029 0.019685 
106.576569 0.032863 
107.048943 0.027626 
107.277321 0.019519 
107.39257 0.031673 
109.028336 0.017513 
110.456932 0.034592 
110.978821 0.025304 
113.647171 0.031838 
114.789375 0.019495 
115.658348 0.024092 
116.764961 0.016212 
116.892319 0.016617 
118.057281 0.03098 
118.940964 0.162154 
119.471939 0.016371 
119.945808 0.035663 
120.18853 0.037723 
120.527412 0.034481 
120.936638 0.036902 
121.028259 2.203557 
121.942986 0.158256 
122.031662 0.058866 
122.988708 0.019017 
133.082642 0.025712 
133.410339 0.01828 
135.009918 0.03637 
135.271194 0.022647 
136.134949 0.03212 
136.515457 0.016404 
146.213303 0.018294 
151.039261 0.151098 
156.261719 0.034457 
158.741379 0.034238 
161.059677 0.01736 
162.89296 0.027803 
164.034561 0.436139 
165.042297 0.378075 
168.978149 0.016215 
171.903625 0.028951 
172.996811 0.030359 
174.424911 0.018912 
174.958466 0.019999 
176.929016 0.02374 
178.050262 0.848546 
179.058273 0.064364 
181.122345 0.092917 
181.957153 0.030238 
184.001144 0.77857 
184.503098 0.21124 
184.999664 0.022989 
192.544647 0.032323 
193.912201 0.024896 
195.271393 0.016819 
195.567444 0.020454 
197.033112 0.039446 
203.501053 0.032079 
207.011536 0.081469 
209.374985 0.030319 
210.882477 0.027202 
211.048859 0.067624 
216.035675 0.635357 
216.25235 0.021097 
219.175018 0.111318 
220.781677 0.017183 
223.298035 0.021663 
223.517456 0.017301 
229.428787 0.034145 
229.926056 0.0197 
230.913635 0.019388 
233.61174 0.031179 
236.608002 0.021253 
237.887146 0.032752 
239.055573 0.030072 
244.132126 0.157018 
244.842896 0.04495 
246.147263 0.143392 
248.684998 0.036871 
250.356064 0.025726 
262.869904 0.03378 
263.131104 0.129598 
263.165131 0.160515 
264.160553 9.523315 
264.176178 0.046722 
264.784332 0.01902 
264.985199 0.205288 
265.074036 0.116796 
265.129822 0.155854 
265.148102 38.727276 
265.161591 1.335034 
265.965668 0.03034 
266.151489 2.335918 
273.803223 0.019268 
281.218292 0.025637 
END IONS

