BEGIN IONS
PEPMASS=823.436
CHARGE=1+
COMPOUNDNAME=MoNA:747748 Nodularin
LIBRARYQUALITY=3
SMILES=N/A
INCHIKEY=IXBQSRWSVIBXNC-HSKGSTCASA-N
INCHI=InChI=1S/C41H60N8O10/c1-8-31-38(54)48-34(40(57)58)26(5)36(52)46-29(15-12-20-44-41(42)43)37(53)45-28(25(4)35(51)47-30(39(55)56)18-19-33(50)49(31)6)17-16-23(2)21-24(3)32(59-7)22-27-13-10-9-11-14-27/h8-11,13-14,16-17,21,24-26,28-30,32,34H,12,15,18-20,22H2,1-7H3,(H,45,53)(H,46,52)(H,47,51)(H,48,54)(H,55,56)(H,57,58)(H4,42,43,44)/b17-16+,23-21+,31-8-/t24-,25-,26-,28-,29-,30+,32-,34+/m0/s1
MSLEVEL=2
SOURCE_INSTRUMENT=LC-ESI-QFT-LC-ESI-QFT
FILENAME=output_mgf.mgf
SEQ=*..*
IONMODE=
ORGANISM=MONA
NAME=MoNA:747748 Nodularin [M-H]-
PI=MoNA
DATACOLLECTOR=MoNA
PUBMED=N/A
SUBMITUSER=mwang87
TAGS=
SPECTRUMID=CCMSLIB00000566830
SCANS=4081
58.0298 11.703364 
58.0411 4.320789 
59.0139 0.864372 
66.0349 19.903524 
67.019 5.004868 
67.0302 6.741536 
68.0143 0.826621 
68.0506 5.164392 
70.0299 1.653943 
71.025 0.752396 
71.0502 1.124879 
72.0091 4.067918 
72.0455 43.611927 
73.0296 6.758621 
74.0248 34.249199 
80.0507 3.118762 
81.022 1.473053 
81.0459 1.833906 
82.0298 38.542879 
83.0615 10.682453 
84.0455 58.102655 
85.0296 1.044047 
85.0659 4.666636 
86.0612 3.190928 
91.0554 0.889937 
94.0297 3.633108 
94.0662 1.054607 
95.025 8.659836 
95.0376 3.667956 
96.0089 1.038098 
96.0455 7.535903 
97.0658 1.242289 
98.0248 1.19756 
98.0612 3.36342 
99.0561 1.092604 
101.072 1.857186 
102.056 3.42867 
106.0661 1.36575 
107.0377 1.52019 
108.033 0.97715 
108.0455 4.527799 
108.0819 1.194123 
109.0169 3.689013 
109.0407 4.246091 
110.0248 100.0 
110.0485 8.190774 
111.0325 0.901258 
111.0564 4.523333 
112.0404 26.832949 
112.0768 7.058464 
112.088 1.385346 
113.072 31.191982 
118.0663 1.00395 
121.0408 6.462401 
121.0533 3.479821 
122.0247 1.171007 
122.0486 15.324718 
122.0611 4.650314 
122.0975 4.414507 
123.0326 15.995212 
123.0563 3.160609 
124.0277 0.980649 
124.0403 1.766968 
124.0768 1.869433 
127.0514 7.418597 
128.0354 53.273737 
130.0986 6.67643 
134.0612 1.116811 
135.0563 5.469298 
136.0402 1.746734 
136.0767 3.125431 
137.0482 3.655606 
137.0719 12.127656 
138.056 13.65542 
138.0672 1.089908 
139.0514 3.386103 
139.0751 1.018935 
139.0879 1.102649 
140.0828 1.217197 
141.1036 1.2046 
147.0566 0.934789 
149.048 0.90978 
149.0717 1.197705 
151.088 1.030915 
152.0717 0.801694 
153.1031 1.88448 
163.0874 1.070415 
164.0714 3.060839 
168.114 5.038646 
180.1142 1.599107 
181.098 4.182034 
END IONS

