BEGIN IONS
PEPMASS=540.0
CHARGE=1+
COMPOUNDNAME=Massbank:KO002241 Apramycin sulfate|Apramycin
LIBRARYQUALITY=3
SMILES=OC[C@@H](O1)[C@@H](N)[C@H](O)[C@@H](O)[C@H]1O[C@H](O2)[C@@H](NC)[C@@H](O)[C@@H](O3)[C@@H](C[C@@H](N)[C@@H](O[C@H]([C@@H](N)4)[C@H](O)[C@@H](O)[C@H](N)C4)3)2
INCHIKEY=XZNUGFQTQHRASN-UXNWEDNLSA-N
INCHI=1S/C21H41N5O11/c1-26-11-14(30)18-8(33-20(11)37-21-16(32)13(29)10(25)9(4-27)34-21)3-7(24)19(36-18)35-17-6(23)2-5(22)12(28)15(17)31/h5-21,26-32H,2-4,22-25H2,1H3/t5-,6+,7-,8-,9-,10-,11+,12+,13+,14-,15-,16-,17-,18+,19+,20+,21-/m1/s1
MSLEVEL=2
SOURCE_INSTRUMENT=ESI-LC-ESI-QQ
FILENAME=Massbank_ESI_positive_8_1_2014_peaks.mgf
SEQ=*..*
IONMODE=Positive
ORGANISM=MASSBANK
NAME=Massbank:KO002241 Apramycin sulfate|Apramycin [M+H]+
PI=Putative Massbank Match
DATACOLLECTOR=Massbank
PUBMED=N/A
SUBMITUSER=mwang87
TAGS=
SPECTRUMID=CCMSLIB00000216973
SCANS=8043
72.2 49505.0 
83.8 54455.5 
89.1 74257.5 
93.8 9901.0 
96.0 168317.0 
102.3 49505.0 
108.4 29703.0 
110.2 148515.0 
111.1 123762.5 
126.1 84158.5 
127.0 39604.0 
128.2 138614.0 
135.3 44554.5 
136.0 49505.0 
142.4 14851.5 
144.2 163366.5 
145.2 44554.5 
151.9 39604.0 
157.1 14851.5 
162.0 500000.5 
163.3 648515.5 
164.3 54455.5 
170.2 103960.5 
171.1 24752.5 
173.1 19802.0 
180.3 183168.5 
181.1 178218.0 
182.0 118812.0 
187.3 59406.0 
199.3 846535.5 
201.5 143564.5 
202.0 59406.0 
217.3 3519805.5 
218.5 39604.0 
225.4 44554.5 
227.6 44554.5 
230.6 39604.0 
231.6 19802.0 
243.2 44554.5 
251.8 19802.0 
252.9 19802.0 
255.3 39604.0 
271.4 341584.5 
289.2 64356.5 
294.6 19802.0 
308.5 54455.5 
312.6 39604.0 
313.3 128713.0 
325.3 39604.0 
326.5 113861.5 
330.5 69307.0 
343.4 34653.5 
344.4 262376.5 
362.6 133663.5 
378.5 183168.5 
END IONS

