BEGIN IONS
PEPMASS=723.469
CHARGE=1+
COMPOUNDNAME=MoNA:947057 2-{6-[(2-{5`-[6-hydroxy-6-(hydroxymethyl)-3,5-dimethyltetrahydro-2h-pyran-2-yl]-2,3`-dimethyloctahydro-2,2`-bifuran-5-yl}-9-methoxy-2,4,10-trimethyl-1,6-dioxaspiro[4.5]dec-7-yl)methyl]-3-methyltetrahydro-2h-pyran-2-yl}propanoic acid
LIBRARYQUALITY=3
SMILES=N/A
INCHIKEY=DANUORFCFTYTSZ-UHFFFAOYSA-N
INCHI=InChI=1S/C40H68O11/c1-21-11-12-28(46-33(21)26(6)36(42)43)17-29-18-30(45-10)27(7)40(48-29)25(5)19-38(9,51-40)32-13-14-37(8,49-32)35-23(3)16-31(47-35)34-22(2)15-24(4)39(44,20-41)50-34/h21-35,41,44H,11-20H2,1-10H3,(H,42,43)
MSLEVEL=2
SOURCE_INSTRUMENT=LC-ESI-QFT-LC-ESI-QFT
FILENAME=output_mgf.mgf
SEQ=*..*
IONMODE=
ORGANISM=MONA
NAME=MoNA:947057 2-{6-[(2-{5`-[6-hydroxy-6-(hydroxymethyl)-3,5-dimethyltetrahydro-2h-pyran-2-yl]-2,3`-dimethyloctahydro-2,2`-bifuran-5-yl}-9-methoxy-2,4,10-trimethyl-1,6-dioxaspiro[4.5]dec-7-yl)methyl]-3-methyltetrahydro-2h-pyran-2-yl}propanoic acid [M-H]-
PI=MoNA
DATACOLLECTOR=MoNA
PUBMED=N/A
SUBMITUSER=mwang87
TAGS=
SPECTRUMID=CCMSLIB00000568813
SCANS=6064
55.0189 0.702003 
57.0346 18.039743 
58.006 3.378479 
59.0138 1.754527 
59.0502 0.189238 
69.0347 1.363735 
71.0139 2.593995 
71.0503 4.109082 
72.0217 0.241238 
73.0296 8.766814 
81.0346 1.762471 
83.0502 1.919454 
84.0217 0.22656 
85.0295 6.89936 
85.0659 2.109051 
86.0374 0.421801 
87.0451 100.0 
93.0344 0.102706 
93.071 0.193527 
95.0502 1.2721 
97.0294 0.126418 
97.0658 2.474562 
98.0374 0.410706 
99.0451 13.594961 
99.0816 1.202762 
101.0608 86.910556 
107.0502 0.889575 
107.0866 0.180695 
109.0658 2.668437 
111.0452 1.318457 
111.0815 11.249596 
113.0609 3.970395 
113.0972 1.198485 
115.0765 0.796729 
121.0658 1.391652 
123.0453 0.377708 
123.0816 3.646987 
125.0609 0.875089 
125.0972 2.784395 
127.0764 4.063276 
129.0558 0.330273 
129.0922 1.277623 
133.066 0.131834 
133.1025 0.234708 
135.0816 2.711679 
136.0528 0.11621 
137.0608 0.497429 
137.0972 1.94948 
139.0765 3.917244 
139.1128 0.830961 
141.0922 8.200635 
143.1077 0.881751 
147.0816 0.573188 
149.0972 1.517627 
151.0765 1.727796 
151.1129 8.978565 
153.0922 13.331126 
155.1079 0.649727 
157.0868 0.783274 
159.1028 0.610307 
159.1177 0.326199 
161.0973 0.42597 
161.1336 0.463425 
163.1129 1.009223 
164.0842 0.144846 
165.0921 2.563454 
165.1284 1.329719 
167.1075 0.768716 
171.1023 0.763972 
173.1186 0.75834 
175.1126 0.946667 
177.1285 3.950685 
179.1079 0.393057 
179.144 1.068856 
183.1029 0.145828 
183.1392 0.487987 
188.1054 1.380318 
189.1285 0.4013 
189.1649 1.164014 
191.1441 3.017401 
193.1238 0.664608 
195.1389 1.382942 
197.1546 1.507646 
201.1131 0.448795 
213.15 1.497019 
217.1596 0.845782 
219.1755 0.882338 
267.1604 0.440408 
267.1964 0.101532 
279.1971 0.416026 
297.2072 0.238818 
339.2181 0.625344 
359.2596 0.125447 
377.2705 0.131199 
395.28 0.107751 
439.2701 3.012788 
723.4686 3.468821 
END IONS

