BEGIN IONS
PEPMASS=153.056
CHARGE=1+
COMPOUNDNAME=terrein
LIBRARYQUALITY=3
SMILES=N/A
INCHIKEY=MHOOPNKRBMHHEC-HZIBQTDNSA-N
INCHI=InChI=1S/C8H10O3/c1-2-3-5-4-6(9)8(11)7(5)10/h2-4,7-8,10-11H,1H3/b3-2+/t7-,8-/m0/s1
MSLEVEL=2
SOURCE_INSTRUMENT=N/A-ESI-QFT
FILENAME=library_mgf.mgf
SEQ=*..*
IONMODE=negative
ORGANISM=MONA
NAME=terrein [M-H]-
PI=MoNA
DATACOLLECTOR=MoNA:VF-NPL-QEHF021225
PUBMED=N/A
SUBMITUSER=mwang87
TAGS=
SPECTRUMID=CCMSLIB00004712288
SCANS=21225
50.186256 0.079848 
50.796474 0.06936 
51.23011 0.050377 
51.840233 0.057771 
52.120152 0.059372 
52.170147 0.052046 
52.225872 0.05815 
53.001865 0.361579 
53.038361 0.065706 
54.122952 0.064731 
54.323868 0.061708 
54.910351 0.06977 
55.017513 7.060543 
55.025017 0.061633 
55.153381 0.056642 
55.441761 0.060774 
55.782387 0.059078 
56.246689 0.054328 
56.865326 0.058544 
57.033188 3.536555 
57.359798 0.062058 
57.440338 0.067039 
58.004601 0.511769 
58.753067 0.048993 
58.858608 0.068736 
59.012447 1.154721 
59.252121 0.057001 
59.859093 0.050206 
60.541008 0.070621 
60.85445 0.050588 
61.783188 0.076205 
62.540279 0.062103 
63.348804 0.058195 
63.662327 0.05603 
63.980179 0.05165 
64.706764 0.084128 
65.038307 1.168358 
65.432541 0.06204 
65.663071 0.074273 
65.968735 0.077852 
66.200531 0.060629 
67.017548 6.529054 
67.027817 0.049869 
67.05397 0.207129 
67.717072 0.066811 
68.519707 0.061944 
68.718079 0.070422 
68.924194 0.058943 
68.996849 3.821588 
69.033195 27.550232 
69.306488 0.050299 
69.967667 0.054476 
70.036545 0.338635 
71.010437 0.096539 
71.012428 6.267741 
71.048859 2.671041 
72.991776 0.678486 
73.014008 0.058022 
73.13308 0.059173 
73.192856 0.069599 
73.665985 0.067814 
74.119629 0.085269 
75.408325 0.050201 
75.518494 0.074479 
75.905403 0.047585 
76.039406 0.051457 
77.660103 0.051556 
78.957573 0.093444 
79.053963 2.346554 
79.058487 0.054567 
79.350922 0.064623 
79.955994 2.629291 
80.025383 2.165112 
80.78051 0.065572 
80.963806 2.544124 
81.033218 8.025441 
83.012466 1.210687 
83.048889 4.78125 
83.091248 0.059369 
84.020317 15.96427 
84.430855 0.055249 
85.02372 0.06537 
85.028145 4.178696 
85.11834 0.056983 
87.173172 0.066445 
87.54052 0.073378 
88.993065 0.058339 
91.05397 3.475029 
92.104317 0.057674 
93.033257 7.155413 
93.500694 0.047632 
94.064522 0.072386 
94.979576 0.473123 
95.01252 5.878578 
95.029701 0.05165 
95.048897 35.823082 
96.020332 0.962722 
96.052238 1.190868 
96.717484 0.059549 
96.958748 3.509456 
97.028152 6.678629 
97.064522 44.269806 
97.221542 0.058033 
97.508804 0.049112 
98.067924 2.585501 
98.362564 0.069135 
99.346001 0.063071 
104.382927 0.08905 
105.283386 0.067365 
106.041077 1.149957 
106.395844 0.080584 
106.734215 0.066913 
107.048904 39.409653 
107.747154 0.054796 
108.020409 8.309181 
108.052269 2.556894 
108.144005 0.085318 
108.834106 0.050999 
109.024147 0.337902 
109.02816 7.606389 
109.064598 1.510971 
110.032135 0.381149 
110.036057 10.334856 
110.479675 0.074387 
111.007431 1.204032 
111.019608 0.137006 
111.039558 0.375662 
111.043793 2.177223 
112.015289 26.875366 
113.018654 0.437444 
116.150848 0.052124 
116.3797 0.05271 
116.943993 0.071357 
118.63504 0.048528 
121.028221 1.775995 
121.090164 0.057718 
121.50042 0.062344 
121.72805 0.072123 
122.036079 0.38234 
122.905632 0.222474 
123.007477 0.431926 
123.043884 5.497535 
124.01535 14.698503 
124.051834 0.577356 
125.018585 0.351688 
125.059578 20.906519 
125.096466 0.050808 
125.998329 0.06502 
126.018829 0.063966 
126.06295 0.68999 
126.432983 0.063909 
126.540604 0.058957 
127.17672 0.053822 
128.541046 0.079138 
134.036087 0.945805 
135.043976 100.0 
135.074585 0.154704 
136.015472 4.034378 
136.047256 7.881217 
137.018173 0.164526 
137.023438 2.518118 
138.021133 0.061947 
138.031158 2.950261 
139.111328 0.052464 
139.812424 0.074567 
140.196655 0.0814 
140.22197 0.064973 
140.282516 0.076316 
141.182831 0.064518 
143.664154 0.074198 
145.42041 0.087249 
147.481842 0.080477 
147.908905 0.059531 
150.063599 0.091634 
150.911652 0.08856 
151.03891 0.066669 
151.476562 0.064519 
152.794296 0.070251 
152.967087 0.242183 
153.054596 6.792469 
154.058655 0.060396 
154.946289 0.87808 
157.427765 0.06347 
159.250504 0.053705 
160.752274 0.070411 
162.636047 0.061266 
165.296478 0.059352 
165.628708 0.091432 
165.738983 0.058764 
166.026749 0.078146 
166.195892 0.061312 
168.233032 0.063497 
171.584671 0.063636 
174.196152 0.079943 
END IONS

