BEGIN IONS
TITLE=Scan Number: 356
PEPMASS=924.51599
CHARGE=1+
COMPOUNDNAME=Amphotericin B
LIBRARYQUALITY=3
SMILES=C[C@H]1/C=C/C=C/C=C/C=C/C=C/C=C/C=C/[C@@H](C[C@H]2[C@@H]([C@H](C[C@](O2)(C[C@H](C[C@H]([C@@H](CC[C@H](C[C@H](CC(=O)O[C@H]([C@@H]([C@@H]1O)C)C)O)O)O)O)O)O)O)C(=O)O)O[C@H]3[C@H]([C@H]([C@@H]([C@H](O3)C)O)N)O
INCHIKEY=APKFDSVGJQXUKY-INPOYWNPSA-N
INCHI=InChI=1S/C47H73NO17/c1-27-17-15-13-11-9-7-5-6-8-10-12-14-16-18-34(64-46-44(58)41(48)43(57)30(4)63-46)24-38-40(45(59)60)37(54)26-47(61,65-38)25-33(51)22-36(53)35(52)20-19-31(49)21-32(50)23-39(55)62-29(3)28(2)42(27)56/h5-18,27-38,40-44,46,49-54,56-58,61H,19-26,48H2,1-4H3,(H,59,60)/b6-5+,9-7+,10-8+,13-11+,14-12+,17-15+,18-16+/t27-,28-,29-,30+,31+,32+,33-,34-,35+,36+,37-,38-,40+,41-,42+,43+,44-,46-,47+/m0/s1
MSLEVEL=2
SOURCE_INSTRUMENT=LC-ESI-qTof
FILENAME=f.amcaraballor/20150108/20150108_COCULTURE_mzXML/AmpB_Green_P1-A-4_01_17970.mzXML;
SEQ=*..*
NOTES=
IONMODE=Positive
ORGANISM=GNPS-LIBRARY
NAME=Amphotericin B M+H
SPECTRUMID=CCMSLIB00000424807
ACTIVATION=CID
INSTRUMENT=ion trap
SCANS=356
141.083801 400.0 
143.097061 736.0 
145.110733 896.0 
147.092041 456.0 
149.099182 604.0 
151.084305 432.0 
153.07756 392.0 
155.09433 604.0 
156.09874 320.0 
157.106216 472.0 
159.127731 948.0 
161.107666 400.0 
165.095673 648.0 
167.084534 1304.0 
169.106583 796.0 
170.11348 444.0 
171.08844 316.0 
173.102692 588.0 
175.084427 648.0 
176.086777 436.0 
179.096054 360.0 
181.10257 1060.0 
183.11795 516.0 
185.095978 968.0 
189.097748 344.0 
191.10878 592.0 
193.094833 3660.0 
194.10321 372.0 
195.118896 936.0 
197.130341 372.0 
199.099136 628.0 
201.102676 428.0 
205.104187 484.0 
207.117188 1036.0 
209.113297 652.0 
210.134628 376.0 
211.102783 2912.0 
215.113434 540.0 
217.099106 1100.0 
219.114471 724.0 
220.130157 496.0 
221.131561 916.0 
223.151489 1112.0 
225.117569 484.0 
227.12413 528.0 
229.111435 2108.0 
233.124405 1260.0 
234.139679 412.0 
235.116272 772.0 
237.131973 692.0 
239.132675 500.0 
243.107986 1024.0 
245.120926 588.0 
247.142181 612.0 
249.130829 512.0 
251.13179 1048.0 
253.116318 880.0 
255.124054 636.0 
257.126587 760.0 
259.14859 644.0 
261.119141 1160.0 
263.136383 388.0 
265.147766 540.0 
266.131195 328.0 
267.179413 5216.0 
268.180298 1064.0 
269.14093 1796.0 
270.13739 376.0 
271.133636 432.0 
275.138123 416.0 
277.149628 1536.0 
279.123016 752.0 
281.13974 436.0 
283.146759 1084.0 
285.120575 832.0 
286.120667 344.0 
287.150452 1352.0 
291.140991 492.0 
293.158325 352.0 
295.154327 1296.0 
296.161469 356.0 
297.135468 2532.0 
298.148834 336.0 
299.150482 500.0 
300.149475 412.0 
303.128845 1708.0 
304.127289 496.0 
305.146393 356.0 
307.148712 420.0 
309.155121 376.0 
313.166992 10844.0 
314.167114 1312.0 
315.158661 1072.0 
317.176086 484.0 
321.139282 2940.0 
322.140137 752.0 
323.160828 376.0 
325.163391 400.0 
327.168396 320.0 
331.182556 564.0 
333.186584 552.0 
334.218323 324.0 
335.182983 852.0 
337.181305 3992.0 
338.177185 968.0 
339.169403 816.0 
341.182526 420.0 
343.1745 516.0 
346.199219 348.0 
347.168701 480.0 
349.140259 748.0 
351.227081 1020.0 
353.190186 1636.0 
354.19989 536.0 
355.18158 736.0 
358.161652 316.0 
361.177856 584.0 
363.17569 348.0 
365.163849 560.0 
367.178101 336.0 
369.171692 460.0 
371.198517 1584.0 
373.189209 444.0 
375.220764 716.0 
376.227051 316.0 
377.213287 1520.0 
378.212708 400.0 
379.171692 444.0 
381.198303 1164.0 
382.194305 340.0 
383.202515 380.0 
385.193329 624.0 
387.182587 848.0 
389.206207 1524.0 
395.224182 1320.0 
397.179413 756.0 
399.205261 768.0 
401.212372 928.0 
403.221222 1376.0 
404.220062 624.0 
405.196289 1628.0 
407.21936 1360.0 
408.211548 404.0 
409.204193 372.0 
413.19754 448.0 
417.226166 520.0 
421.231812 976.0 
423.203491 1704.0 
424.211548 568.0 
425.216827 580.0 
427.222473 444.0 
429.178711 316.0 
433.206146 448.0 
435.245819 336.0 
437.210114 380.0 
439.198975 356.0 
441.208923 876.0 
442.215179 432.0 
443.244965 564.0 
445.230042 368.0 
449.245544 384.0 
455.220581 356.0 
457.225128 532.0 
459.238251 368.0 
461.250763 432.0 
463.249725 488.0 
465.247986 368.0 
466.241211 332.0 
469.239288 352.0 
471.23291 340.0 
473.249847 536.0 
474.232269 316.0 
483.243286 428.0 
487.259613 380.0 
489.253235 432.0 
491.238007 564.0 
499.238098 1040.0 
503.22464 340.0 
505.269714 660.0 
506.255737 360.0 
509.262299 468.0 
515.255798 512.0 
516.258118 316.0 
517.257385 744.0 
518.261047 412.0 
523.276184 636.0 
525.290283 432.0 
527.274048 620.0 
533.261292 1188.0 
535.255493 1276.0 
536.249695 340.0 
541.288269 500.0 
543.277771 504.0 
551.27478 2160.0 
552.282898 648.0 
553.279907 436.0 
559.300781 488.0 
561.264343 532.0 
569.2854 2644.0 
570.291138 892.0 
571.296082 352.0 
585.291077 324.0 
587.296204 2692.0 
588.298401 1160.0 
589.307251 448.0 
593.305969 400.0 
605.311279 1196.0 
606.30957 384.0 
609.354736 472.0 
615.297363 428.0 
617.319763 324.0 
623.329224 364.0 
627.362183 416.0 
628.349609 416.0 
635.337402 684.0 
641.32019 476.0 
653.347229 2956.0 
654.350891 1336.0 
655.345947 440.0 
671.355591 6272.0 
672.361267 3304.0 
673.358765 692.0 
689.372009 6476.0 
690.368286 3360.0 
691.370728 556.0 
692.376709 348.0 
707.380188 5868.0 
708.38446 2016.0 
709.383362 744.0 
725.389954 7800.0 
726.392212 3848.0 
727.395203 948.0 
743.401306 15800.0 
744.40155 5868.0 
745.408813 1748.0 
746.419678 440.0 
761.404785 1112.0 
762.427368 344.0 
906.489929 420.0 
922.006653 712.0 
END IONS

