BEGIN IONS
PEPMASS=380.166
CHARGE=1+
COMPOUNDNAME=Kasugamycin
LIBRARYQUALITY=3
SMILES=N/A
INCHIKEY=PVTHJAPFENJVNC-UQTMRZPGSA-N
INCHI=InChI=1S/C14H25N3O9/c1-3-5(17-12(16)13(23)24)2-4(15)14(25-3)26-11-9(21)7(19)6(18)8(20)10(11)22/h3-11,14,18-22H,2,15H2,1H3,(H2,16,17)(H,23,24)/t3-,4+,5+,6?,7+,8+,9-,10+,11?,14-/m1/s1
MSLEVEL=2
SOURCE_INSTRUMENT=N/A-ESI-QFT
FILENAME=library_mgf.mgf
SEQ=*..*
IONMODE=positive
ORGANISM=MONA
NAME=Kasugamycin [M+H]+
PI=MoNA
DATACOLLECTOR=MoNA:VF-NPL-QEHF013459
PUBMED=N/A
SUBMITUSER=mwang87
TAGS=
SPECTRUMID=CCMSLIB00004704522
SCANS=13459
50.074905 0.006758 
50.259212 0.006509 
51.424889 0.004239 
51.523418 0.007072 
51.725109 0.007258 
52.201794 0.007005 
52.352798 0.004048 
52.913113 0.003841 
53.039322 0.553112 
53.144035 0.004269 
55.975746 0.00674 
56.050236 0.031496 
56.216282 0.007476 
56.415764 0.006772 
56.631565 0.006927 
56.964886 0.004482 
57.045471 0.05345 
57.06152 0.00725 
57.070599 0.054225 
57.229626 0.006689 
57.58931 0.008438 
57.973522 0.006321 
58.065838 0.058195 
59.061085 3.441042 
59.498554 0.006219 
59.734364 0.00594 
60.06451 0.006954 
60.078537 0.007854 
61.863106 0.004764 
61.869781 0.007326 
62.064083 0.007217 
62.710007 0.005463 
64.98143 0.005924 
65.087837 0.006881 
65.264542 0.026209 
65.631287 0.005884 
65.80365 0.007108 
66.049873 0.00612 
66.166565 0.008969 
67.05484 0.007832 
68.050163 0.02561 
69.058052 0.00566 
69.070587 0.020965 
70.06575 44.062103 
70.575432 0.007731 
71.060905 0.008545 
71.062798 0.05927 
71.069115 1.920551 
71.086143 0.06633 
72.0812 0.006579 
72.750404 0.004346 
73.047424 0.622427 
74.060669 0.383331 
74.802429 0.004485 
75.055511 0.005067 
75.776848 0.005322 
76.025002 0.004657 
76.520027 0.004312 
77.794327 0.006475 
78.560608 0.007396 
78.787125 0.006555 
79.021828 0.032405 
81.033752 0.00858 
81.045288 0.14947 
81.83284 0.007845 
81.843742 0.005937 
82.065674 0.496394 
83.007072 0.008164 
83.049706 0.027076 
83.060921 0.675135 
83.230782 0.006649 
84.045067 0.008375 
84.081406 0.093832 
84.240295 0.007383 
84.424141 0.004626 
84.505836 0.004647 
85.920792 0.004857 
86.096954 0.060766 
86.264107 0.006181 
87.997604 0.007047 
88.221031 0.00492 
88.798668 0.00773 
89.035065 2.458824 
89.060204 0.042353 
89.39563 0.004025 
89.417244 0.008687 
89.439674 0.007335 
89.645828 0.005902 
89.886452 0.004848 
90.494659 0.004943 
91.054962 0.031585 
91.057816 0.700256 
91.495796 0.005398 
93.037575 0.007004 
93.242386 0.00562 
94.065521 1.169666 
94.093575 0.004346 
95.049553 1.64307 
95.060753 0.200519 
95.068741 0.004821 
96.053047 0.021217 
96.081123 0.068028 
97.065338 0.00623 
97.076401 0.124811 
97.429092 0.00723 
97.785164 0.004841 
98.060463 0.382917 
98.975716 0.007951 
99.044518 0.007203 
99.055664 0.389973 
99.112206 0.005807 
99.835793 0.007473 
101.421867 0.007614 
101.428413 0.004652 
101.430984 0.006649 
102.495781 0.006715 
103.071556 0.005606 
103.122169 0.008604 
103.601532 0.008059 
103.756546 0.006749 
103.984192 0.009971 
105.87207 0.007237 
106.268578 0.006574 
109.028648 0.386519 
110.060387 0.006791 
111.025024 0.004823 
111.091896 0.70112 
112.075897 100.0 
113.059891 0.20122 
113.072029 0.374356 
113.079239 6.785446 
114.079895 0.031931 
114.08287 0.023063 
114.09156 0.008965 
116.986015 0.004182 
118.086731 0.021499 
120.544098 0.006579 
121.076111 0.181077 
121.149384 0.00779 
122.060112 0.083881 
125.368195 0.007413 
125.827545 0.00582 
128.070801 0.007332 
129.102234 0.269221 
129.249191 0.009458 
129.889725 0.00732 
130.921967 0.006696 
131.070175 0.053431 
131.108215 0.005881 
133.823181 0.005096 
134.352798 0.008309 
135.132217 0.006253 
135.294312 0.009619 
138.102509 0.24947 
139.050339 0.006091 
139.086441 1.363993 
140.060303 0.007729 
140.089783 0.009122 
140.676376 0.007558 
142.049789 0.050983 
143.080826 0.007674 
143.198593 0.007411 
148.275879 0.006005 
149.023239 0.503365 
153.838867 0.007995 
154.966522 0.006596 
156.113007 8.44783 
157.10994 0.012815 
157.116394 0.652688 
158.155624 0.006912 
167.483353 0.005478 
176.989151 0.0056 
178.094925 1.182396 
178.175797 0.007077 
179.021561 0.006603 
179.551025 0.005129 
180.060226 0.004628 
181.253571 0.008354 
181.950684 0.007323 
181.995514 0.004775 
182.055344 0.004744 
182.093399 0.007826 
183.076263 0.464545 
185.227325 0.009425 
187.518051 0.006415 
194.999603 0.00697 
196.481552 0.007587 
199.071289 0.064593 
200.102829 5.344329 
201.106277 0.430928 
202.765274 0.007612 
203.052399 0.996573 
204.056564 0.008302 
206.031906 0.006185 
206.965469 0.007168 
207.218735 0.008673 
207.317596 0.075572 
209.679169 0.008427 
210.010986 0.004566 
210.97113 0.007567 
212.070572 0.062398 
213.054581 0.014427 
213.675873 0.00651 
215.252701 0.149505 
215.265015 0.180026 
215.274353 0.174549 
215.295486 0.027928 
217.070541 0.023334 
224.631882 0.008047 
224.843597 0.007848 
225.042618 0.014229 
228.337433 0.00465 
234.290939 0.004681 
238.048401 0.005675 
239.444199 0.008076 
249.719116 0.008074 
251.178177 0.008325 
255.038605 0.054529 
256.060272 0.253485 
257.101929 0.008502 
257.168304 0.007884 
258.463654 0.004941 
258.997223 0.057333 
259.558167 0.006102 
261.030243 0.022994 
263.085388 0.006114 
268.297852 0.007754 
271.781952 0.008162 
274.070831 0.230695 
274.128113 0.63704 
275.132172 0.008743 
275.925964 0.005517 
276.910522 0.006062 
277.008392 0.045378 
281.06601 0.005953 
283.262421 0.011356 
285.009155 0.370302 
286.009003 0.043653 
286.967987 0.007623 
287.004791 0.006959 
288.67041 0.007185 
291.066925 0.071152 
292.138885 0.237261 
292.989288 0.005591 
297.972656 0.009108 
305.158813 0.005263 
305.424652 0.00783 
309.077393 0.051144 
319.836334 0.04059 
324.325653 0.064432 
336.838898 0.028353 
337.846741 0.009075 
343.122223 0.004594 
353.18515 0.008661 
355.876007 0.00636 
358.157898 8.79715 
359.161255 1.421231 
360.163086 0.123607 
360.838745 0.076973 
363.162018 0.015701 
368.424866 0.40963 
369.427948 0.040672 
369.836792 0.056072 
373.157318 0.418357 
375.239563 0.004273 
378.84903 0.009012 
384.261841 0.006458 
384.540924 0.007649 
392.413727 0.004028 
393.20874 0.433053 
394.212463 0.013414 
396.824829 0.005629 
402.232788 0.006288 
412.903412 0.00809 
413.070892 0.005274 
418.113434 0.041353 
419.740631 0.007439 
428.076691 0.006816 
429.115265 0.006485 
END IONS

