BEGIN IONS
PEPMASS=308.149
CHARGE=1+
COMPOUNDNAME=dehydrocurvularin
LIBRARYQUALITY=3
SMILES=N/A
INCHIKEY=AVIRMQMUBGNCKS-GQCTYLIASA-N
INCHI=InChI=1S/C16H18O5/c1-10-5-3-2-4-6-13(18)16-11(8-15(20)21-10)7-12(17)9-14(16)19/h4,6-7,9-10,17,19H,2-3,5,8H2,1H3/b6-4+
MSLEVEL=2
SOURCE_INSTRUMENT=N/A-ESI-QFT
FILENAME=library_mgf.mgf
SEQ=*..*
IONMODE=positive
ORGANISM=MONA
NAME=dehydrocurvularin [M+NH4]+
PI=MoNA
DATACOLLECTOR=MoNA:VF-NPL-QEHF016201
PUBMED=N/A
SUBMITUSER=mwang87
TAGS=
SPECTRUMID=CCMSLIB00004707264
SCANS=16201
50.160965 0.003622 
50.266041 0.001283 
50.336124 0.001659 
50.624943 0.006641 
50.697773 0.001318 
50.786236 0.000799 
50.833118 0.013106 
50.896667 0.001105 
51.099819 0.00617 
51.155834 0.009915 
51.307335 0.000673 
51.373474 0.001004 
51.380928 0.012592 
51.439747 0.000613 
51.68087 0.000667 
51.851746 0.000592 
51.865574 0.003802 
52.694405 0.017446 
52.869591 0.013654 
53.039017 0.017058 
53.267746 0.000673 
53.331001 0.0176 
53.492188 0.001131 
53.813564 0.011855 
53.959328 0.000652 
54.049385 0.012364 
54.18523 0.016165 
54.565708 0.000658 
54.616817 0.015233 
54.944847 0.002954 
54.986095 0.019141 
55.018242 0.056809 
55.054558 4.213108 
55.078579 0.019719 
55.138309 0.002028 
55.381744 0.01753 
55.574989 0.001209 
55.855057 0.001475 
55.902122 0.013599 
56.049797 12.748972 
56.057934 0.098867 
56.081814 0.000559 
56.186607 0.010267 
56.532879 0.003496 
56.534134 0.001188 
56.876244 0.016285 
56.894169 0.00145 
56.926216 0.003695 
56.965076 0.001705 
57.033813 0.388382 
57.050087 0.004467 
57.053158 0.1567 
57.070221 0.224472 
57.559254 0.001258 
57.643024 0.019131 
57.771954 0.000689 
58.054226 0.014505 
58.246178 0.001114 
58.984417 0.020417 
59.049438 1.114821 
59.200508 0.00278 
59.928589 0.01 
60.044666 0.001113 
60.324879 0.01716 
60.361153 0.003154 
60.968712 0.002866 
61.010921 35.17659 
61.375301 0.006987 
61.446629 0.018696 
61.819199 0.014849 
61.964893 0.002376 
62.010391 0.06077 
62.014263 0.591988 
62.018913 0.000853 
62.358463 0.000765 
62.364239 0.004335 
62.382786 0.012256 
62.595047 0.004843 
62.762371 0.000758 
63.006718 0.745398 
63.023922 0.019246 
63.198395 0.002054 
63.517113 0.013278 
63.602665 0.019895 
64.230774 0.012592 
64.244377 0.015613 
64.469147 0.001174 
64.694443 0.021299 
64.935272 0.000724 
65.038895 0.000659 
65.215927 0.001013 
65.233765 0.001035 
65.948174 0.00231 
66.144524 0.021749 
66.647598 0.019594 
66.730309 0.002368 
67.054436 0.608515 
67.089912 0.019769 
67.590889 0.001685 
67.785095 0.002498 
67.797684 0.018847 
68.538231 0.017563 
68.622955 0.017315 
68.898491 0.00295 
69.033493 0.001071 
69.070038 0.296813 
69.189087 0.019786 
69.509476 0.019762 
69.536545 0.000747 
69.827927 0.001635 
69.86805 0.020242 
70.065292 0.262225 
70.354706 0.000814 
70.512047 0.001222 
70.582771 0.017091 
71.013275 0.000711 
71.015312 0.019265 
71.049255 1.170208 
71.085632 0.333753 
71.147408 0.012474 
71.584068 0.017908 
71.940826 0.001335 
71.987045 0.003573 
72.413719 0.020758 
72.471916 0.005988 
72.807503 0.008275 
72.937538 0.082204 
73.064903 0.028684 
73.273415 0.000775 
73.277931 0.004726 
74.06823 0.000998 
74.157417 0.017857 
75.223793 0.000736 
75.391098 0.00113 
75.501312 0.002661 
75.872246 0.003091 
76.35186 0.000795 
76.51757 0.008247 
76.695038 0.015788 
76.861404 0.001239 
77.59124 0.011676 
77.669907 0.004514 
77.784515 0.010316 
78.351562 0.010671 
78.434822 0.01617 
78.508888 0.00084 
78.54686 0.002276 
78.982025 0.018195 
79.021278 1.208694 
79.054321 1.243069 
79.146301 0.024476 
79.404343 0.002142 
81.033585 0.008376 
81.069969 24.234934 
82.073296 1.53258 
82.424995 0.006023 
83.049217 0.805019 
83.085686 0.046139 
83.109489 0.020613 
83.296089 0.000857 
83.371544 0.017458 
83.506653 0.002281 
83.606354 0.00074 
84.440666 0.015924 
84.451965 0.017915 
85.028503 0.023333 
85.064896 0.057414 
85.101212 0.028406 
85.177628 0.017333 
85.319595 0.007796 
85.648354 0.01584 
86.187866 0.022386 
86.829544 0.001212 
87.030594 0.001432 
87.044212 0.011301 
88.451935 0.010752 
88.802719 0.003956 
89.059814 0.379283 
89.533134 0.001253 
89.590637 0.009977 
89.733307 0.000775 
90.446266 0.010674 
90.547615 0.002115 
90.948128 0.001754 
91.054268 0.002893 
91.467766 0.000603 
91.992424 0.016041 
92.389153 0.003992 
92.982979 0.003641 
93.07 0.258892 
93.076721 0.016433 
93.087296 0.007984 
93.152954 0.018522 
93.183998 0.021324 
93.488808 0.000756 
93.66526 0.00573 
93.870918 0.015431 
94.195992 0.003535 
94.408379 0.013223 
94.413506 0.001396 
95.049232 0.703826 
95.085579 4.120332 
96.044403 0.004134 
96.088829 0.035179 
96.287788 0.016178 
96.441788 0.019295 
96.781937 0.017651 
97.064987 0.159126 
97.101288 0.328385 
97.816177 0.005651 
98.060074 0.063191 
98.096527 100.0 
98.338638 0.000886 
98.975357 0.128888 
99.044197 0.003505 
99.080521 26.164314 
99.085892 0.074978 
99.093758 0.159357 
99.0998 5.969779 
99.103195 0.163201 
99.553612 0.005876 
100.060669 0.004003 
100.083817 1.006445 
100.583412 0.008174 
100.681709 0.00075 
100.878014 0.003301 
101.003204 0.064612 
101.059776 0.00477 
102.06073 0.002935 
102.331963 0.013975 
102.465569 0.019197 
103.483749 0.001474 
103.974548 0.001088 
104.173904 0.006834 
104.521957 0.01797 
104.605774 0.017131 
104.992447 0.037367 
105.069954 0.275346 
106.073296 0.000988 
106.998436 0.103607 
107.049294 0.009856 
107.085579 0.007294 
107.907227 0.007417 
108.537842 0.004305 
109.064926 0.019734 
109.101059 0.044537 
109.56601 0.004915 
109.801903 0.018367 
110.121384 0.000975 
110.163582 0.018029 
110.231842 0.007764 
110.998428 0.001506 
111.044449 0.000685 
111.080521 0.009773 
111.116905 0.003525 
111.138359 0.001068 
111.312973 0.001374 
112.027657 0.014264 
112.312721 0.006839 
112.805046 0.000722 
113.096085 0.187139 
113.581223 0.020871 
113.8265 0.00089 
114.091652 0.000617 
114.099396 0.002206 
114.262085 0.003734 
114.520111 0.015315 
114.848633 0.007906 
114.887665 0.01869 
115.039116 0.021345 
115.407677 0.020703 
115.583992 0.007064 
116.058128 0.019007 
116.107124 0.417824 
116.11541 0.000701 
116.159523 0.002767 
116.836624 0.000997 
116.986038 0.13848 
117.091423 0.001679 
117.175926 0.000959 
117.252861 0.000641 
117.44117 0.004329 
117.876488 0.000833 
117.946251 0.022862 
118.227554 0.00145 
118.819908 0.014799 
118.962486 0.00095 
119.085823 0.028993 
119.943825 0.020074 
120.264786 0.000644 
120.328667 0.001516 
120.635208 0.017897 
121.028687 0.004802 
121.064987 0.003693 
121.101295 0.006373 
121.375916 0.007103 
121.869698 0.001804 
122.036797 0.002324 
122.187935 0.007818 
122.941002 0.296572 
123.044121 15.52005 
123.080536 2.681645 
123.117249 0.01496 
123.586288 0.005169 
124.047523 0.482014 
124.08371 0.003446 
124.41468 0.000971 
124.9048 0.001335 
125.096191 0.003333 
126.005554 0.0174 
126.252007 0.019662 
126.750763 0.001104 
127.161133 0.000767 
128.043655 0.000676 
128.867264 0.00063 
129.701324 0.017435 
130.847076 0.010992 
131.085587 0.003329 
132.139954 0.018456 
133.085464 0.000658 
133.101181 0.005623 
133.18306 0.016251 
133.949402 0.019932 
134.978836 0.603663 
134.996674 0.105615 
135.044708 0.00281 
135.080917 0.016795 
135.117096 0.007657 
135.256577 0.003993 
135.39859 0.002773 
135.462845 0.000699 
135.927917 0.106403 
135.949188 0.018022 
135.957947 0.004831 
136.742661 0.020976 
137.023407 0.002037 
137.059845 0.007934 
137.096085 0.000694 
137.219696 0.001576 
137.326263 0.006351 
138.322937 0.012896 
139.008926 0.003395 
139.039017 0.030043 
139.0755 0.006586 
139.756821 0.017108 
140.107056 0.171714 
140.951355 0.003852 
141.091034 1.012438 
143.571228 0.004237 
143.914612 0.015984 
144.452957 0.001717 
145.100967 0.001726 
146.02684 0.01402 
146.151077 0.001871 
146.42186 0.018061 
146.974518 0.00086 
147.044189 0.002324 
147.080551 0.000591 
147.502762 0.012504 
148.806168 0.000611 
148.955826 4.291052 
148.971924 0.498401 
149.023712 0.003202 
149.05983 0.010313 
149.096024 0.012429 
149.132553 0.001144 
149.944138 0.047498 
149.954315 16.064692 
150.915375 0.058777 
150.951172 61.887054 
150.972626 0.00102 
151.039017 1.289385 
151.096329 0.002262 
151.111893 0.001443 
151.125015 0.016053 
151.950867 1.114416 
151.970154 0.003143 
152.065933 0.011 
152.315308 0.003655 
152.945282 0.001726 
152.951736 0.410942 
152.989395 0.221612 
153.007034 0.007007 
153.054779 0.001725 
153.09024 0.000752 
153.959595 0.025915 
154.913147 0.142164 
155.954529 0.002 
156.908478 0.017977 
156.944656 0.006599 
157.023056 0.015135 
157.108154 0.021437 
158.048706 0.000668 
158.953568 0.004406 
159.081696 0.022074 
159.101654 0.037385 
159.116623 0.001767 
159.83815 0.020038 
161.059875 0.015894 
161.096085 0.005087 
161.630386 0.007445 
161.93042 0.004829 
163.039078 0.048435 
163.075378 0.012446 
163.111511 0.000966 
164.635452 0.018556 
164.966431 0.026737 
165.017914 0.023143 
165.054703 2.551606 
165.328506 0.000725 
166.058945 0.026623 
166.190918 0.018329 
166.966415 1.445185 
167.005112 0.218804 
167.033997 5.931429 
167.663239 0.006884 
167.956421 0.027275 
167.964752 3.976581 
168.037399 0.116938 
168.065659 0.000774 
168.590698 0.020797 
168.692184 0.000837 
168.92598 0.202986 
168.948944 0.000946 
168.96167 21.051371 
168.983063 0.218089 
169.049698 2.936428 
169.197906 0.002706 
169.962143 0.234412 
170.053146 0.008108 
170.375183 0.019613 
170.711929 0.015056 
170.9263 0.012779 
170.955322 0.063832 
170.963242 0.200652 
170.999619 0.005619 
171.202179 0.001657 
171.231064 0.019772 
172.923782 0.191695 
173.059677 0.000881 
173.132278 0.0012 
173.440613 0.0023 
174.063965 0.008277 
174.532471 0.003916 
174.919205 0.027599 
175.039307 0.139094 
175.075607 0.007818 
175.111816 0.006351 
175.411926 0.001991 
176.044891 0.638165 
176.969681 0.053836 
177.052414 0.781548 
177.062515 0.001392 
177.091385 0.000688 
178.060837 0.223665 
178.176086 0.022881 
178.444397 0.013509 
179.034027 0.197972 
179.067245 0.344383 
179.106659 0.001116 
180.021759 0.016032 
180.943848 1.613267 
181.049789 0.197522 
181.085892 0.004256 
181.467896 0.020957 
181.844009 0.003999 
181.915192 0.001173 
182.543976 0.01807 
182.944275 0.098777 
182.977448 0.004433 
183.028885 0.476762 
183.308838 0.021379 
184.13327 0.000765 
184.939453 0.047719 
185.556412 0.000618 
185.9496 0.004114 
185.963409 0.007214 
185.97522 0.00306 
186.939438 0.08933 
186.958389 0.504212 
187.075226 0.003428 
187.945328 0.001146 
188.925278 0.00066 
188.936401 0.006765 
188.966034 0.036033 
188.974289 0.004786 
189.054642 0.749849 
189.091019 0.005343 
190.058472 0.150978 
190.09613 0.018539 
191.033859 0.001802 
191.070541 0.033946 
191.104294 0.00662 
192.032974 0.000745 
192.07373 0.001249 
192.732178 0.014762 
193.049637 9.513607 
193.122482 0.004502 
194.053848 1.285875 
194.825241 0.014877 
195.028946 3.141878 
195.062363 0.371795 
196.032181 0.028416 
196.737015 0.006492 
196.821579 0.019852 
197.044235 0.027716 
197.946915 0.009111 
198.954681 1.200772 
199.075378 0.011475 
199.892914 0.521643 
200.08075 0.000867 
200.115311 0.002015 
200.918106 0.006074 
201.09201 0.003069 
201.888107 0.162804 
202.437912 0.002985 
202.94928 0.000768 
203.034149 0.115303 
203.069931 0.091481 
203.10672 0.134126 
203.921982 0.00068 
204.039719 0.822047 
204.074097 0.005002 
204.110229 0.001749 
204.951385 0.043995 
204.969238 0.186016 
205.047684 1.070736 
205.086166 0.00109 
205.597076 0.017931 
205.987885 0.007513 
206.054611 0.002277 
206.977859 0.007724 
207.065262 0.368139 
208.06871 0.129886 
208.959229 0.53674 
209.044113 0.055001 
209.957657 0.948185 
210.954544 10.799651 
210.971954 0.000822 
211.060165 0.433884 
211.807739 0.015631 
211.956177 0.324769 
212.083069 0.000896 
212.916153 0.024608 
212.955917 0.010266 
213.055222 0.000838 
213.089828 0.001925 
213.905319 1.610923 
213.915329 0.018796 
214.085434 0.001276 
214.096893 0.002447 
214.916229 0.281174 
214.932663 0.001632 
214.968414 0.007422 
215.01445 0.094406 
215.027039 0.411584 
215.040619 0.228413 
215.070236 0.004423 
215.105606 0.008272 
215.904861 0.003461 
215.915588 0.001912 
216.50116 0.000862 
216.911728 0.035975 
216.92926 0.043408 
216.95137 0.282051 
217.02037 0.005199 
217.049118 0.049827 
217.085724 0.003099 
217.903519 0.299875 
218.053879 0.004927 
218.91835 0.001929 
218.929077 0.812778 
218.946915 0.002566 
219.065399 0.018077 
219.101318 0.000993 
219.89888 0.143956 
219.927094 0.00514 
221.044434 0.024613 
221.11702 0.010923 
221.688049 0.000913 
222.348495 0.014116 
222.899048 0.079245 
225.631805 0.001232 
226.969727 0.219936 
227.106796 0.138386 
227.932022 0.179504 
227.956848 0.001558 
227.968201 1.775123 
228.110336 0.014793 
228.892563 0.000811 
228.928741 40.33379 
228.952759 0.134152 
228.964859 6.617022 
229.89621 0.038988 
229.91153 0.056376 
229.929749 2.498594 
229.965973 0.137805 
230.9095 0.211773 
230.929001 7.932303 
230.966919 0.789314 
231.065536 0.008265 
231.101685 0.704872 
231.915848 4.369797 
231.927475 0.819498 
232.105621 0.029246 
232.915833 0.084247 
232.927521 0.104579 
233.081619 0.001082 
233.114304 0.000983 
233.915039 0.388288 
234.913376 0.007516 
234.923203 0.001159 
234.962006 0.025575 
235.892349 0.00212 
236.048981 0.01371 
236.939941 0.125704 
238.913986 0.002368 
240.909409 0.182741 
242.091843 0.005248 
242.911819 0.00102 
243.099976 0.042632 
244.944901 0.04291 
244.959946 0.224463 
245.117493 0.504291 
245.430145 0.023583 
245.942673 1.618925 
246.120773 0.062445 
246.939301 84.323662 
246.961761 1.429853 
246.968918 0.250131 
247.058853 0.024967 
247.096329 0.003873 
247.907486 0.04315 
247.921936 1.77763 
247.940094 6.590667 
247.960876 0.014332 
248.918594 0.589212 
248.939621 38.404804 
249.111954 0.03349 
249.9375 6.650895 
249.957504 0.000836 
250.178131 0.001607 
250.893784 0.000806 
251.92659 0.029772 
252.89418 0.005055 
253.902878 0.023614 
254.902771 0.000989 
255.102051 0.00346 
255.897751 0.004306 
256.105103 0.004804 
256.898834 0.000773 
259.097046 0.028528 
259.599884 0.001368 
260.102234 2.280276 
260.955078 0.179959 
261.109253 4.220998 
261.59671 0.002298 
262.113068 0.44669 
262.836395 0.009227 
262.955444 0.029588 
263.902069 0.005077 
263.953308 0.009174 
264.909515 0.103554 
264.949951 1.937819 
264.972412 0.918994 
265.208679 0.005295 
265.912354 0.000918 
265.932495 0.19912 
265.949127 0.011133 
265.991119 0.0082 
266.138428 0.056415 
266.931854 0.042615 
266.95047 5.194949 
267.70401 0.022039 
267.948456 0.194819 
268.813049 0.000843 
268.948944 0.000955 
269.82077 0.007695 
273.112183 0.35045 
274.115845 0.149076 
275.50412 0.020263 
277.90271 0.010771 
279.336212 0.002333 
279.897217 0.019308 
279.916595 0.005378 
280.812531 0.000789 
280.917999 0.000901 
281.821136 0.000695 
281.912323 0.174979 
282.64917 0.011511 
282.919922 0.080264 
283.820312 0.008726 
283.914886 0.031478 
284.807892 0.000959 
284.921234 0.002478 
285.815765 0.220676 
285.833832 0.001322 
285.922089 0.016547 
286.82373 0.055791 
287.831696 0.05771 
288.097107 0.698945 
289.103546 0.909589 
290.109375 0.003009 
291.124237 0.012574 
292.90976 0.023069 
292.947662 0.008907 
292.963531 0.011583 
293.945404 0.002572 
294.828918 0.004345 
294.94281 0.003596 
295.182434 0.014658 
295.913452 0.000798 
296.808319 0.003789 
297.816223 0.012801 
297.907471 0.005866 
300.822662 0.000845 
301.810577 0.024228 
302.818665 0.034606 
303.826294 0.009012 
304.506042 0.000836 
304.833954 0.00183 
306.160553 0.340794 
306.307465 0.011351 
306.90564 0.024284 
306.92041 0.048093 
307.162262 0.037751 
307.922546 0.001822 
308.147827 0.024655 
308.22287 0.024413 
308.257965 0.023672 
308.711212 0.006493 
308.828796 0.000869 
310.825134 0.007129 
310.844269 0.00951 
310.958588 0.002312 
311.274384 0.018452 
311.83136 0.022378 
312.839264 0.164449 
313.814758 0.000868 
313.839355 0.002783 
314.245514 0.014728 
319.318909 0.000809 
323.986115 0.000679 
324.931305 0.001608 
326.818634 0.042457 
326.838348 0.031987 
327.160126 0.00414 
327.82608 0.187813 
328.833923 0.092723 
329.394623 0.002284 
329.841705 0.010688 
330.847748 0.000853 
END IONS

