BEGIN IONS
PEPMASS=303.157
CHARGE=1+
COMPOUNDNAME=(1R,2E,7R,10E,12S,13S,15R)-12,15-dihydroxy-7-methyl-8-oxabicyclo[11.3.0]hexadeca-2,10-dien-9-one
LIBRARYQUALITY=3
SMILES=N/A
INCHIKEY=KQNZDYYTLMIZCT-SWGFJCPHSA-N
INCHI=InChI=1S/C16H24O4/c1-11-5-3-2-4-6-12-9-13(17)10-14(12)15(18)7-8-16(19)20-11/h4,6-8,11-15,17-18H,2-3,5,9-10H2,1H3/b6-4+,8-7+/t11-,12+,13-,14+,15+/m1/s1
MSLEVEL=2
SOURCE_INSTRUMENT=N/A-ESI-QFT
FILENAME=library_mgf.mgf
SEQ=*..*
IONMODE=positive
ORGANISM=MONA
NAME=(1R,2E,7R,10E,12S,13S,15R)-12,15-dihydroxy-7-methyl-8-oxabicyclo[11.3.0]hexadeca-2,10-dien-9-one [M+Na]+
PI=MoNA
DATACOLLECTOR=MoNA:VF-NPL-QEHF022873
PUBMED=N/A
SUBMITUSER=mwang87
TAGS=
SPECTRUMID=CCMSLIB00004713936
SCANS=22873
51.883961 0.020426 
52.846054 0.018844 
52.96262 0.020797 
53.613213 0.029358 
53.72728 0.023058 
54.503666 0.02113 
54.775166 0.031354 
54.96368 0.029674 
54.999802 0.036746 
55.054722 0.032737 
55.934879 0.203787 
56.050011 0.040813 
56.299171 0.034061 
56.965229 0.060338 
57.070183 2.093648 
58.065605 0.408916 
60.044865 0.041064 
61.010895 4.948671 
62.014503 0.036014 
62.018696 4.250507 
62.263973 0.038279 
63.006863 0.217805 
63.022198 0.026417 
63.401459 0.028681 
63.574371 0.03602 
64.01458 0.116616 
66.555595 0.029536 
67.05452 0.209031 
67.320404 0.035118 
67.919891 0.040401 
67.971901 0.032463 
69.070236 0.025188 
70.065262 0.044066 
70.70192 0.021597 
71.085602 1.341066 
71.75251 0.030491 
71.929535 0.232045 
72.241203 0.034437 
72.937553 0.689753 
73.250542 0.037767 
73.97998 0.039806 
74.938133 0.047593 
75.51606 0.041954 
75.882393 0.024501 
76.181519 0.106675 
77.441734 0.033091 
79.021255 1.507495 
79.05455 0.02314 
80.0495 14.524118 
80.222809 0.034616 
81.05304 0.161031 
81.070213 0.490599 
82.778091 0.036443 
83.085831 0.081389 
83.491562 0.027647 
83.67086 0.040072 
85.039818 0.055745 
85.101425 0.775571 
86.125786 0.024277 
88.772255 0.031645 
89.059868 0.677893 
89.940056 0.244066 
90.063362 0.137781 
90.947884 0.804122 
91.054329 1.950049 
91.335953 0.021511 
92.361984 0.021337 
92.367271 0.030629 
93.070129 0.1138 
95.085785 0.365141 
97.80529 0.040908 
98.975548 0.792617 
100.676422 0.025407 
101.003403 0.101926 
102.885185 0.046579 
102.947922 0.137145 
105.070213 0.023147 
105.546074 0.032248 
105.91729 0.811744 
107.085701 0.074767 
107.950798 0.033727 
108.958656 0.025607 
109.101418 0.164053 
114.948456 0.079419 
116.986031 0.510842 
117.917313 0.481103 
118.925064 0.107393 
119.085846 0.04639 
120.23632 0.034201 
121.06498 0.063915 
121.10173 0.067256 
122.9412 0.597084 
123.117355 0.032734 
124.936951 0.036857 
126.358223 0.039691 
128.963821 0.062155 
129.05278 0.022737 
130.979019 0.034886 
132.958328 0.815488 
133.08609 0.200242 
133.948669 0.773613 
134.956451 0.553348 
134.996658 0.145821 
135.116928 0.050361 
135.927628 0.796979 
135.949249 0.138463 
137.944397 0.085049 
140.984756 0.027188 
141.772629 0.030819 
146.918533 0.074805 
146.974197 0.855564 
147.927704 0.248126 
148.956284 0.075219 
148.971954 0.460124 
148.990372 0.039688 
149.954437 0.97644 
149.960815 0.153067 
150.951141 21.067064 
150.96965 0.636539 
151.951859 3.800515 
151.959167 0.553095 
152.951736 39.146984 
152.967194 0.123251 
153.938614 0.287854 
153.948914 1.415573 
153.959427 8.320614 
154.764587 0.035061 
154.946915 12.292035 
154.967438 0.238373 
155.954773 2.719637 
156.962555 0.091513 
157.787308 0.040323 
160.935699 0.750853 
160.971954 0.41013 
161.064926 0.24492 
161.943527 0.032656 
161.97522 0.095911 
162.951096 3.012891 
162.972839 0.230163 
163.958954 6.327848 
163.976562 0.756471 
164.960358 0.067245 
164.967972 0.107029 
164.984695 0.358086 
165.938232 6.456704 
165.955353 0.223849 
166.967484 0.205215 
167.934143 0.159766 
167.964981 0.234991 
168.925537 0.044176 
168.961716 7.873816 
168.982834 1.827821 
169.962433 1.843946 
169.977509 1.183221 
170.962967 7.349816 
170.978607 0.685152 
171.959747 1.166578 
171.973755 0.546245 
172.957596 2.62112 
173.011169 0.033489 
174.963013 0.026399 
175.952133 0.029583 
175.958954 12.820296 
176.001801 0.066281 
176.93074 0.118913 
176.96167 0.422418 
177.938477 0.487223 
177.955215 0.554512 
177.983398 0.022966 
178.946121 0.962657 
178.967316 0.108802 
178.98262 0.027038 
179.953903 2.094794 
180.952621 0.091167 
180.961685 5.602534 
181.951294 0.026641 
181.961685 0.035671 
181.969681 1.785037 
181.986816 0.03078 
182.956879 0.04372 
183.948868 2.269609 
185.949341 1.381274 
186.168976 0.036388 
187.944977 0.311366 
189.77684 0.056958 
191.600647 0.038265 
191.881454 0.02936 
191.964737 0.133048 
192.961777 7.983194 
193.969711 6.064204 
194.962479 0.893205 
194.977615 0.851383 
195.949265 0.257525 
195.965759 0.146466 
195.979919 0.333742 
196.97464 0.212795 
197.10788 0.40286 
197.964783 0.156616 
197.975281 0.042373 
198.972931 0.136628 
199.026871 0.038821 
204.961914 1.338101 
205.964706 1.000165 
205.988358 0.156556 
206.926254 0.041886 
206.958069 0.61356 
206.977676 0.202745 
207.031662 0.067615 
208.883453 0.077676 
208.975677 0.037941 
209.892044 0.039863 
209.964645 0.072581 
209.975327 0.108094 
210.97229 4.179676 
212.237579 0.664198 
212.972809 1.563335 
215.207993 0.133315 
215.222351 0.392422 
215.230652 0.120569 
220.903717 0.281116 
221.974884 0.039191 
222.898666 1.556011 
222.972153 1.846433 
223.98053 7.762424 
224.972641 3.909409 
224.983765 0.258445 
225.021164 0.15314 
225.97551 0.384878 
226.933411 1.829856 
226.967789 1.139773 
227.03656 0.096403 
227.901535 0.026069 
229.44043 0.039589 
229.896622 0.0246 
229.920441 0.080697 
232.883591 0.225595 
233.891739 0.530283 
234.89975 0.168945 
235.899551 0.13727 
236.89772 0.027318 
238.913956 0.383581 
239.901459 0.103245 
240.232559 0.691485 
240.894547 0.05272 
240.909164 2.534639 
241.037704 0.051323 
241.990662 0.857104 
242.039627 0.029478 
242.983246 1.690951 
243.032669 0.330331 
243.052292 0.135694 
243.962891 0.029997 
244.050186 0.523931 
244.062836 0.026517 
244.943726 4.425805 
244.957397 0.102932 
244.979813 0.394426 
245.010071 0.021706 
245.047043 2.879862 
245.891846 0.027005 
248.879425 0.024268 
248.913773 0.026391 
248.936646 0.107656 
250.894318 0.991291 
252.895264 0.079048 
253.917496 0.075467 
261.906006 0.21251 
262.895905 0.032468 
262.913696 0.183463 
263.057312 0.02823 
263.901337 2.314144 
264.909241 0.732064 
265.991486 0.133624 
272.936737 0.15766 
274.894257 0.45295 
275.901764 0.18067 
276.908691 0.089013 
277.098846 0.033448 
277.912842 0.084131 
278.817474 0.033064 
278.909271 0.0302 
278.925629 0.082737 
279.80603 0.085047 
279.827179 0.027687 
279.916718 2.189523 
280.813538 1.028867 
280.904144 0.265841 
280.923035 0.095224 
281.821991 0.026342 
281.911987 14.065062 
282.90329 0.048145 
282.920013 0.591607 
285.815613 0.295198 
286.825043 0.025855 
287.83194 0.086226 
289.026154 0.238756 
290.94751 0.852543 
291.805878 0.032997 
294.902863 0.027172 
295.837219 0.079713 
295.927826 0.686206 
296.808197 0.266791 
297.816223 1.345093 
297.928253 0.085258 
298.819458 0.035913 
301.191437 0.087761 
301.227814 0.043774 
302.074341 0.092423 
302.193909 0.049762 
302.211731 0.110222 
302.247681 0.059409 
302.285126 0.137742 
302.305542 0.072027 
302.818329 0.116215 
302.985352 0.042965 
303.049805 0.13641 
303.11322 0.039048 
303.141266 0.687944 
303.158386 0.139785 
303.175842 0.278178 
303.20755 0.140471 
304.049866 0.29988 
304.176453 0.040039 
304.299988 100.0 
304.925446 0.170977 
305.157166 69.437798 
305.303406 11.62293 
306.919342 0.027092 
307.309967 0.041154 
307.946777 0.032526 
308.958527 0.082333 
309.816437 0.071308 
312.838928 1.025774 
315.826935 0.045556 
315.932495 0.045208 
316.904388 0.080704 
318.922058 0.027919 
322.823822 0.430555 
322.914307 0.19687 
322.934174 0.027524 
322.97113 0.173805 
323.097046 0.228781 
326.819489 0.30469 
327.826172 1.90237 
328.83194 0.02994 
END IONS

