BEGIN IONS
PEPMASS=370.105
CHARGE=1+
COMPOUNDNAME=Griseofulvin
LIBRARYQUALITY=3
SMILES=N/A
INCHIKEY=DDUHZTYCFQRHIY-RBHXEPJQSA-N
INCHI=InChI=1S/C17H17ClO6/c1-8-5-9(19)6-12(23-4)17(8)16(20)13-10(21-2)7-11(22-3)14(18)15(13)24-17/h6-8H,5H2,1-4H3/t8-,17+/m1/s1
MSLEVEL=2
SOURCE_INSTRUMENT=N/A-ESI-QFT
FILENAME=library_mgf.mgf
SEQ=*..*
IONMODE=positive
ORGANISM=MONA
NAME=Griseofulvin [M+NH4]+
PI=MoNA
DATACOLLECTOR=MoNA:VF-NPL-QEHF001072
PUBMED=N/A
SUBMITUSER=mwang87
TAGS=
SPECTRUMID=CCMSLIB00004692135
SCANS=1072
50.659035 0.009494 
50.936363 0.017365 
51.907925 0.00804 
53.611488 0.030931 
53.830055 0.021516 
54.202911 0.012357 
55.054909 0.830677 
56.615421 0.032545 
56.808685 0.030084 
56.974865 0.016327 
57.034164 0.349788 
57.070564 0.65412 
57.29274 0.018567 
57.718548 0.025485 
58.065777 0.108572 
58.316998 0.012031 
59.049828 2.220652 
59.061062 1.70765 
60.081444 0.64444 
60.205952 0.01529 
60.695724 0.023964 
61.01123 0.141932 
61.017139 0.015889 
61.309414 0.025874 
61.659161 0.030671 
61.770119 0.022887 
62.628136 0.015855 
62.982349 0.049794 
63.431366 0.012316 
64.105667 0.024824 
64.329712 0.025214 
66.309723 0.012729 
66.564339 0.016303 
67.054855 0.435689 
67.760719 0.023794 
68.062225 0.011454 
68.251396 0.020891 
68.307037 0.01156 
68.865967 0.016722 
69.034111 0.15907 
69.070496 0.381741 
69.843956 0.026288 
70.065788 0.132077 
70.125549 0.030282 
71.049629 0.041944 
71.086121 0.495609 
71.705276 0.030921 
72.35511 0.01685 
72.642166 0.029392 
72.698112 0.010485 
73.047401 13.99655 
73.065392 0.347005 
74.046951 0.147719 
74.050644 0.075813 
74.474876 0.02599 
74.944046 0.021486 
75.026611 0.11079 
75.044563 0.030485 
76.665771 0.010128 
77.982445 0.01112 
78.465813 0.010686 
78.562836 0.054117 
78.945595 0.008625 
79.021729 0.173479 
79.054756 0.602674 
81.070381 1.818976 
82.577164 0.009135 
83.049629 0.316793 
83.085991 0.333828 
85.02887 0.034214 
85.065292 0.326345 
85.101746 0.095084 
85.313858 0.016878 
86.060555 0.030354 
86.09687 0.195581 
87.044548 1.682441 
88.075943 0.022154 
88.278351 0.030244 
88.997208 0.011263 
89.060165 6.829568 
90.063385 0.057362 
90.337555 0.029219 
90.55957 0.03773 
90.977058 0.082165 
91.055008 0.513502 
91.05777 13.747188 
92.057396 0.24367 
92.060883 0.054056 
92.3106 0.023444 
93.037033 0.027228 
93.070282 1.79733 
93.123695 0.02245 
94.996872 0.025688 
95.049545 0.375261 
95.085869 0.871785 
95.371529 0.019554 
97.065056 0.040228 
97.101601 0.092897 
98.636963 0.008412 
98.975578 0.009662 
99.044319 0.033273 
100.842957 0.025693 
101.059959 0.695393 
101.757919 0.03791 
102.091347 0.031983 
103.039185 0.217915 
103.086205 0.024326 
103.478378 0.012411 
105.070007 0.320037 
105.073479 0.150223 
107.052734 0.023124 
107.085815 0.276478 
107.445557 0.013076 
108.826996 0.033079 
109.064842 0.012193 
109.101318 0.467812 
109.586327 0.030846 
110.911301 0.009858 
111.04422 0.017657 
111.080673 0.074004 
113.150124 0.009468 
113.410011 0.023796 
114.453484 0.013287 
115.039162 0.039691 
116.079361 0.01931 
117.054474 0.025815 
117.069901 0.026273 
117.511215 0.008735 
118.834137 0.017656 
119.085724 0.046302 
121.06488 1.876615 
121.101158 0.228946 
122.059578 0.030945 
123.010857 0.01818 
123.080742 0.00995 
123.116936 0.242708 
123.162369 0.023263 
123.182396 0.023043 
123.469131 0.027074 
123.655739 0.023449 
123.717216 0.024158 
125.059334 0.019176 
125.096039 0.044313 
125.420425 0.029598 
127.111809 0.015619 
128.767944 0.011982 
129.05452 0.081726 
130.574814 0.024252 
131.07016 0.139581 
132.753296 0.020033 
133.064468 0.024256 
133.085922 2.005941 
133.101044 0.121023 
134.059799 0.020479 
134.978806 0.283578 
135.080353 0.018314 
135.11673 0.102007 
136.00412 0.01198 
136.096008 0.010191 
137.059677 0.039392 
137.09584 0.009693 
137.256104 0.028954 
137.421997 0.011956 
140.110306 0.03276 
141.113739 0.030449 
142.742676 0.00963 
142.858032 0.013092 
143.296066 0.026865 
144.080505 0.013164 
145.100998 0.020096 
146.023438 0.171223 
146.901459 0.008248 
147.080002 0.010168 
147.116776 0.081999 
149.044785 0.174578 
149.058838 0.025115 
149.09584 0.034343 
149.132462 0.048443 
150.950729 0.011469 
152.367065 0.033334 
152.989227 0.130224 
154.065216 0.018378 
155.106689 0.029072 
158.184311 0.021613 
159.112274 0.034641 
160.074387 0.008734 
161.059174 0.012457 
161.132401 0.041549 
161.778763 0.012149 
163.039139 0.028365 
165.054688 0.149735 
165.128006 0.010257 
167.055328 0.583089 
167.08548 0.020206 
167.778687 0.013196 
168.080444 0.086259 
171.080109 0.020641 
175.148392 0.015797 
177.053101 0.011413 
177.111862 0.039414 
178.041763 0.036021 
178.049667 3.59102 
179.052658 0.083095 
179.060471 0.686786 
179.070068 1.026933 
179.26886 0.020064 
181.101837 0.019716 
181.438614 0.023176 
182.096527 0.1861 
183.081329 0.032365 
184.870819 0.018667 
185.059296 0.036612 
186.079437 0.011804 
187.075119 0.017999 
189.054581 0.044648 
190.049591 0.764563 
191.057587 2.696451 
192.065628 1.688757 
192.427795 0.017823 
192.960419 0.008996 
193.55275 0.02625 
196.075409 0.072589 
196.539566 0.012386 
197.09549 0.015994 
198.127701 0.021727 
198.365479 0.034132 
199.074921 0.0148 
201.054138 0.045346 
201.091034 0.011421 
201.109787 0.031877 
202.086258 0.094488 
202.105179 0.020371 
203.070358 0.024688 
204.065201 0.199135 
205.073059 0.103686 
205.084778 0.012034 
209.842941 0.011175 
210.091141 1.627727 
210.127563 0.927478 
211.015854 0.036498 
211.074966 0.089485 
211.098557 0.293426 
211.132828 0.008606 
211.205231 0.010735 
211.338837 0.023327 
212.070282 0.057694 
212.102463 0.015721 
213.090179 0.063707 
213.139236 0.013429 
214.472321 0.223084 
214.485687 0.322169 
214.492981 0.360627 
214.935059 0.034598 
215.010147 0.171623 
215.070099 0.06731 
216.065369 0.01329 
217.007355 0.452904 
217.049301 0.643808 
217.073273 0.071385 
217.085205 0.030484 
218.150543 0.013867 
219.065384 0.013484 
220.076004 0.031626 
222.077896 0.024698 
223.063065 0.037079 
224.106979 0.0237 
225.090378 0.041483 
226.085205 0.084443 
226.12233 0.048557 
227.069916 0.027879 
228.065231 0.264032 
230.07959 0.019295 
230.196014 0.012512 
230.966614 0.217456 
232.05896 0.048283 
232.096283 0.017491 
232.94577 0.582853 
232.956955 0.026604 
233.042328 0.051291 
235.060562 0.019807 
237.138367 1.097217 
238.085953 6.427582 
238.122406 0.414722 
239.089462 0.932102 
239.104034 0.042461 
239.541794 0.009751 
240.064758 0.018724 
240.102341 0.013945 
241.072647 0.267396 
241.085709 0.031997 
242.080765 0.449601 
244.060135 0.416976 
245.081146 0.034745 
246.545441 0.030353 
248.091202 0.010968 
248.977005 0.030046 
250.933151 0.011312 
250.9561 0.232892 
251.069366 0.022882 
252.101364 0.033842 
252.136261 0.031753 
253.085571 0.050928 
253.133194 5.906015 
254.080765 2.552073 
254.116898 0.323253 
254.136581 0.864772 
255.005051 0.186323 
255.088562 1.903351 
256.095001 0.362726 
257.081238 0.013587 
258.075989 0.016146 
259.060944 0.013046 
263.153992 5.83104 
264.157318 0.617603 
265.135559 0.025293 
265.940033 0.012516 
266.117004 0.458836 
266.998718 0.44919 
267.062653 0.014006 
268.096191 2.899617 
268.132538 0.133234 
268.263153 10.643223 
268.977966 1.076583 
269.103485 1.266912 
269.266418 0.424027 
270.112152 72.648224 
271.115631 12.98138 
272.118378 0.76854 
274.145905 0.102428 
275.153534 0.678029 
276.161072 0.372526 
276.969482 0.061069 
277.067993 0.013378 
277.216125 0.015038 
278.101807 0.761552 
279.148682 25.866192 
280.096466 0.01036 
280.152252 5.218333 
281.051422 0.051788 
281.128357 1.811766 
281.155029 0.242324 
282.112823 0.100483 
282.131165 0.356749 
282.14856 0.022006 
282.278198 0.205799 
283.036133 0.147146 
283.262848 0.568191 
283.444733 0.010329 
284.12735 0.073221 
285.009155 12.706259 
285.07547 0.498908 
286.009338 1.763169 
286.107117 0.153024 
287.031403 0.01561 
287.048431 0.028872 
290.140717 1.802325 
291.109863 1.944062 
291.14798 1.423212 
292.115143 0.391316 
292.133087 0.03213 
292.152924 0.218369 
293.116486 0.092553 
293.163879 0.204248 
294.110413 0.071795 
296.127716 0.782811 
297.110077 0.010611 
297.636993 0.027622 
299.061249 1.840499 
300.061493 0.107141 
303.019897 0.238049 
303.148743 6.594157 
304.095947 0.129407 
305.163818 1.031923 
307.143555 12.353974 
308.12854 0.066673 
308.147003 2.604413 
308.166107 0.025741 
308.92038 0.01396 
309.110474 0.022452 
309.150543 0.049309 
310.10733 0.0315 
310.143372 0.576025 
311.150848 0.210225 
311.293884 0.065129 
312.122711 0.084471 
315.14856 5.886593 
316.151855 1.316226 
321.15921 1.311778 
321.789581 0.022717 
322.163422 0.08156 
323.122284 0.223707 
323.218567 0.0546 
324.122864 0.016156 
324.159363 0.016333 
324.325592 5.116759 
325.142853 0.012471 
325.328857 1.121459 
327.109344 0.0884 
328.097748 0.047604 
328.11731 0.702568 
329.192993 2.307726 
330.197357 0.080005 
333.159149 8.276969 
334.162537 2.029688 
335.173767 0.259983 
336.178589 0.327031 
337.154114 0.578314 
338.138367 0.354962 
338.174683 0.174392 
339.17276 0.030888 
340.116608 0.110806 
341.342255 0.018451 
342.113007 0.048007 
342.133209 0.073575 
347.831482 0.019823 
351.1698 55.55949 
352.173126 13.79169 
353.136932 0.014808 
353.186035 9.774841 
354.110138 0.030847 
354.133118 1.569181 
354.188507 1.064352 
355.069519 0.318615 
355.104553 0.184201 
355.140015 1.076888 
356.144196 0.019444 
356.551849 0.025296 
365.875702 0.017482 
368.147583 1.023088 
368.184998 0.137028 
368.424316 21.723246 
369.128693 0.017909 
369.151123 0.481253 
369.180328 2.60239 
369.222992 0.369067 
369.258606 0.031075 
369.296875 0.640419 
369.356079 0.030399 
369.383514 0.814757 
369.427887 7.720075 
370.164307 100.0 
370.384308 0.014881 
370.430908 0.741063 
371.167389 24.883419 
371.1922 1.132694 
371.239441 22.922874 
371.274963 1.737266 
372.142914 0.577282 
372.170502 2.161888 
372.215912 0.02261 
372.242584 2.486021 
372.278198 0.045317 
392.513245 0.01266 
END IONS

