BEGIN IONS
PEPMASS=321.133
CHARGE=1+
COMPOUNDNAME=MassbankEU:SM857701 Mycophenolic acid|(E)-6-(4-hydroxy-6-methoxy-7-methyl-3-oxo-1H-2-benzofuran-5-yl)-4-methylhex-4-enoic acid
LIBRARYQUALITY=3
SMILES=COc1c(C)c2COC(=O)c2c(O)c1C\C=C(/C)CCC(O)=O
INCHIKEY=HPNSFSBZBAHARI-RUDMXATFSA-N
INCHI=1S/C17H20O6/c1-9(5-7-13(18)19)4-6-11-15(20)14-12(8-23-17(14)21)10(2)16(11)22-3/h4,20H,5-8H2,1-3H3,(H,18,19)/b9-4+
MSLEVEL=2
SOURCE_INSTRUMENT=ESI-LC-ESI-QFT
FILENAME=/home/mingxun/Data/Spectral_Libraries/MB_EU_Dec2016_newRecords/merged/massbankue.12.2016.mgf
SEQ=*..*
IONMODE=Positive
ORGANISM=MASSBANKEU
NAME=MassbankEU:SM857701 Mycophenolic acid|(E)-6-(4-hydroxy-6-methoxy-7-methyl-3-oxo-1H-2-benzofuran-5-yl)-4-methylhex-4-enoic acid [M+H]+
PI=Massbank EU
DATACOLLECTOR=Massbank
PUBMED=N/A
SUBMITUSER=mwang87
TAGS=
SPECTRUMID=CCMSLIB00000841899
SCANS=538
55.018101 88801.796875 
79.054298 78965.601562 
81.069901 605455.875 
91.054199 394880.09375 
95.049103 56789.199219 
103.054199 355416.3125 
109.064796 189974.703125 
127.075302 66512.796875 
131.049194 128883.5 
135.080399 318123.5 
149.059601 83728.703125 
159.044006 5136482.0 
161.059799 62935.398438 
175.075195 130543.101562 
177.054596 5049710.0 
179.070206 230792.5 
191.070206 203221.0 
193.0495 116469.296875 
195.065201 1887041.625 
207.065201 36935408.0 
215.106796 252590.296875 
219.065399 170266.09375 
221.080994 116741.0 
223.060196 362807.40625 
239.091293 237103.203125 
239.106293 110737.703125 
241.122299 99881.203125 
259.0961 193071.09375 
261.112091 191876.5 
270.087891 111018.203125 
275.127686 3795040.5 
285.112091 1255617.875 
303.122711 5550576.5 
321.133301 17386288.0 
END IONS

