BEGIN IONS
PEPMASS=243.149
CHARGE=1+
COMPOUNDNAME=Huperzine A
LIBRARYQUALITY=3
SMILES=N/A
INCHIKEY=ZRJBHWIHUMBLCN-UHFFFAOYSA-N
INCHI=InChI=1S/C15H18N2O/c1-3-11-10-6-9(2)8-15(11,16)12-4-5-14(18)17-13(12)7-10/h3-6,10H,7-8,16H2,1-2H3,(H,17,18)
MSLEVEL=2
SOURCE_INSTRUMENT=N/A-ESI-QFT
FILENAME=library_mgf.mgf
SEQ=*..*
IONMODE=positive
ORGANISM=MONA
NAME=Huperzine A [M+H]+
PI=MoNA
DATACOLLECTOR=MoNA:VF-NPL-QEHF027214
PUBMED=N/A
SUBMITUSER=mwang87
TAGS=
SPECTRUMID=CCMSLIB00004720795
SCANS=27214
50.650795 0.004628 
53.130928 0.005491 
53.697216 0.004119 
54.037292 0.004889 
54.256027 0.004966 
55.018127 0.005041 
57.084034 0.006408 
57.085667 0.004649 
57.886993 0.005239 
58.599979 0.030264 
58.737137 0.004958 
58.95507 0.004786 
60.103649 0.003807 
60.911331 0.005129 
61.139866 0.00466 
61.34985 0.004639 
61.489166 0.004076 
62.128044 0.005113 
62.558407 0.004693 
62.589443 0.003625 
63.096832 0.022482 
64.976036 0.004299 
65.215118 0.005275 
65.700165 0.004088 
65.801598 0.004053 
65.991966 0.004109 
66.644714 0.004857 
67.363503 0.004319 
68.055061 0.004263 
68.388313 0.003925 
69.084068 0.003889 
69.840485 0.004433 
70.312286 0.003836 
71.208054 0.00441 
73.037056 0.005325 
74.501503 0.00491 
75.17086 0.004515 
76.128723 0.005194 
76.263138 0.005132 
77.2052 0.00496 
78.281616 0.005835 
78.780952 0.004776 
78.826324 0.004906 
79.054298 0.005486 
80.59346 0.004094 
80.601212 0.004421 
81.070045 0.011421 
82.602226 0.004742 
86.254822 0.005335 
88.013748 0.004439 
89.619865 0.005224 
91.092339 0.005082 
92.015839 0.005179 
93.069946 0.017982 
93.968689 0.005051 
95.778221 0.005346 
95.982788 0.004416 
97.328865 0.005265 
98.579514 0.003708 
101.943626 0.004047 
102.477837 0.004635 
103.355141 0.004423 
104.627495 0.004815 
105.069862 0.047917 
105.566704 0.004619 
106.065109 0.204654 
106.71553 0.003777 
107.743469 0.005017 
108.001572 0.005644 
109.771217 0.00391 
110.060074 0.530571 
110.704315 0.006195 
112.643913 0.005943 
119.072784 0.005278 
123.247963 0.004922 
123.640282 0.004878 
124.491684 0.004426 
126.054863 0.066004 
126.422455 0.005546 
129.688309 0.0048 
132.044189 0.005638 
133.052078 0.004294 
134.060028 0.637986 
134.09639 0.830356 
135.063675 0.009409 
135.099594 0.005323 
135.367447 0.004618 
136.075562 0.011714 
137.070892 0.094743 
139.975067 0.005133 
140.951614 0.00475 
144.848053 0.004805 
146.060074 0.09539 
147.06839 0.005334 
147.694397 0.004253 
148.977203 0.003958 
151.895248 0.004971 
152.277054 0.003603 
152.596573 0.005713 
152.696808 0.005277 
154.207672 0.00533 
155.085312 0.023805 
156.016006 0.004603 
156.080734 0.037253 
156.659256 0.004258 
156.957474 0.004852 
158.059937 0.193833 
159.23938 0.004328 
160.075668 0.050728 
161.070786 0.037843 
164.585693 0.004933 
165.069916 0.029435 
166.066116 0.0045 
166.077698 0.049989 
166.847061 0.004341 
167.085358 0.00556 
168.080688 0.012368 
168.093292 0.010764 
169.088654 0.021597 
170.060013 0.249544 
170.09639 0.231507 
170.981094 0.004446 
172.075485 0.073049 
172.112061 0.060141 
173.070831 0.006454 
173.09549 0.005809 
174.23671 0.004818 
179.085388 0.077843 
180.080872 0.034662 
180.830383 0.00473 
181.101151 0.678725 
182.060257 0.01877 
182.104782 0.030604 
182.141113 0.00502 
183.067902 0.044175 
183.104172 0.047525 
183.117065 0.050963 
184.075668 1.950546 
184.112091 0.102219 
184.12088 0.004345 
185.079071 0.202754 
186.091431 0.046181 
187.086655 0.39723 
188.094223 0.051053 
191.085846 0.005501 
192.079742 0.006059 
192.72525 0.004998 
193.088669 0.321121 
194.071869 0.011984 
196.075592 0.844502 
196.112534 0.006737 
197.083618 2.33678 
197.094254 0.021413 
198.09166 1.718247 
198.127747 0.847973 
198.136749 0.006211 
198.38179 0.004447 
199.094681 0.204877 
199.130981 0.056641 
200.143799 0.026597 
201.102127 0.013719 
206.096283 0.012017 
208.112091 1.927563 
208.616455 0.005204 
209.096176 0.474401 
209.115448 0.248517 
210.091309 1.861549 
210.114517 0.017943 
211.099152 2.543369 
211.116379 0.008529 
212.102905 0.308315 
212.500641 0.005509 
213.102112 0.1302 
216.531311 0.032202 
216.540985 0.095309 
216.548721 0.064449 
222.901062 0.004562 
224.107071 1.699987 
225.110764 0.251608 
225.138626 0.114954 
226.122574 24.866577 
227.126434 3.499512 
228.125671 0.900744 
229.128998 0.057528 
232.907272 0.00499 
241.133972 0.012711 
242.116837 0.006105 
242.156525 0.005498 
243.127136 0.021334 
243.149261 100.0 
244.152618 15.12446 
244.182098 0.007663 
245.155121 0.092357 
259.035461 0.005405 
262.177734 0.024125 
END IONS

