BEGIN IONS
PEPMASS=383.011
CHARGE=1+
COMPOUNDNAME=USNIC ACID
LIBRARYQUALITY=3
SMILES=N/A
INCHIKEY=CUCUKLJLRRAKFN-UHFFFAOYSA-N
INCHI=InChI=1S/C18H16O7/c1-6-14(22)12(8(3)20)16-13(15(6)23)18(4)10(25-16)5-9(21)11(7(2)19)17(18)24/h5,11,22-23H,1-4H3
MSLEVEL=2
SOURCE_INSTRUMENT=N/A-Linear Ion Trap
FILENAME=library_mgf.mgf
SEQ=*..*
IONMODE=positive
ORGANISM=MONA
NAME=USNIC ACID M-H
PI=MoNA
DATACOLLECTOR=MoNA:VF-NPL-LTQ006374
PUBMED=N/A
SUBMITUSER=mwang87
TAGS=
SPECTRUMID=CCMSLIB00004689861
SCANS=5482
252.869995 15.816802 
265.880005 5.539179 
276.970001 2.841599 
281.880005 3.790506 
298.48999 4.86634 
316.809998 3.288219 
336.920013 100.0 
354.709991 8.722697 
END IONS

