BEGIN IONS
PEPMASS=173.009
CHARGE=1+
COMPOUNDNAME=Aconitic Acid
LIBRARYQUALITY=3
SMILES=N/A
INCHIKEY=GTZCVFVGUGFEME-IWQZZHSRSA-N
INCHI=InChI=1S/C6H6O6/c7-4(8)1-3(6(11)12)2-5(9)10/h1H,2H2,(H,7,8)(H,9,10)(H,11,12)/b3-1-
MSLEVEL=2
SOURCE_INSTRUMENT=N/A-ESI-QFT
FILENAME=library_mgf.mgf
SEQ=*..*
IONMODE=negative
ORGANISM=MONA
NAME=Aconitic Acid [M-H]-
PI=MoNA
DATACOLLECTOR=MoNA:VF-NPL-QEHF026287
PUBMED=N/A
SUBMITUSER=mwang87
TAGS=
SPECTRUMID=CCMSLIB00004717350
SCANS=26287
50.116364 0.007569 
50.404522 0.009012 
52.078426 0.00784 
52.518433 0.007615 
53.325302 0.007759 
53.326839 0.006708 
54.424263 0.004454 
54.425907 0.009379 
54.686802 0.004258 
55.138134 0.005811 
55.553207 0.007809 
55.637329 0.005177 
56.047558 0.004875 
57.011009 0.008608 
57.03323 0.007532 
57.081646 0.004913 
57.482838 0.006243 
58.385891 0.006279 
58.468445 0.007844 
58.743168 0.005924 
58.969902 0.004599 
59.518017 0.007404 
59.922359 0.006157 
60.168888 0.00609 
61.093975 0.005867 
61.866352 0.006407 
62.231411 0.006404 
62.454575 0.004986 
62.851555 0.005445 
62.953651 0.004698 
63.473862 0.007478 
63.837936 0.007127 
64.890938 0.009576 
65.551292 0.005328 
66.259735 0.004822 
66.670135 0.0065 
66.69474 0.006099 
67.017563 0.118202 
67.039917 0.007154 
67.206474 0.006093 
68.493294 0.00504 
68.800453 0.006572 
68.89286 0.007894 
68.967125 0.00608 
69.749573 0.004385 
69.895836 0.008752 
70.204315 0.005154 
71.433495 0.00783 
72.403702 0.007312 
72.991692 0.099545 
74.705742 0.008222 
74.873497 0.005541 
74.990372 0.006799 
75.266655 0.005859 
77.282593 0.004868 
77.618996 0.005496 
78.865204 0.005426 
79.15741 0.005278 
79.691299 0.006623 
80.244995 0.007292 
81.836197 0.00882 
82.780945 0.007261 
82.850845 0.005949 
82.857628 0.008371 
83.012482 0.005832 
83.927505 0.005851 
84.480125 0.007453 
85.016968 0.006632 
85.02343 0.038307 
85.028122 100.0 
85.241394 0.007057 
86.031471 4.364175 
86.034225 0.083106 
87.032349 0.153709 
87.059372 0.004959 
87.286636 0.008535 
88.545692 0.007488 
91.543007 0.00731 
92.448303 0.004666 
95.080727 0.004384 
95.950142 0.007449 
97.574562 0.007718 
99.007584 0.005818 
101.660957 0.007962 
103.088905 0.00832 
104.584663 0.006644 
107.090141 0.008052 
108.841843 0.009581 
111.007477 12.165618 
112.010841 0.611505 
112.399872 0.008107 
114.149261 0.004724 
115.133659 0.005267 
115.448044 0.007525 
120.776917 0.007899 
125.577545 0.007376 
125.914886 0.005191 
126.24469 0.007887 
128.689865 0.007845 
129.018097 15.604138 
130.0215 0.810106 
131.022552 0.005244 
131.121689 0.007227 
132.596497 0.007738 
136.215469 0.007403 
136.301743 0.004534 
136.418289 0.008313 
137.636429 0.008109 
139.096527 0.00691 
139.467377 0.009041 
139.654007 0.006209 
140.250595 0.007188 
140.849838 0.007968 
143.744965 0.008384 
143.897614 0.014267 
151.319794 0.004861 
154.997467 0.751602 
157.013214 0.010341 
160.757645 0.007228 
164.817352 0.008007 
166.529114 0.008013 
172.033417 0.007375 
172.829758 0.419557 
173.008286 1.149091 
173.908493 0.007551 
174.827301 0.081579 
174.907211 0.004588 
175.466446 0.005422 
179.015778 0.006892 
182.163651 0.005207 
182.618408 0.006629 
185.144592 0.008407 
187.865555 0.006282 
188.766037 0.007928 
190.195679 0.007434 
END IONS

