BEGIN IONS
PEPMASS=243.081
CHARGE=1+
COMPOUNDNAME=MoNA:2846960 Biotin
LIBRARYQUALITY=3
SMILES=N/A
INCHIKEY=YBJHBAHKTGYVGT-UHFFFAOYSA-N
INCHI=InChI=1S/C10H16N2O3S/c13-8(14)4-2-1-3-7-9-6(5-16-7)11-10(15)12-9/h6-7,9H,1-5H2,(H,13,14)(H2,11,12,15)
MSLEVEL=2
SOURCE_INSTRUMENT=LC-ESI-QTOF-LC-ESI-QTOF
FILENAME=output_mgf.mgf
SEQ=*..*
IONMODE=
ORGANISM=MONA
NAME=MoNA:2846960 Biotin [M-H]-
PI=MoNA
DATACOLLECTOR=MoNA
PUBMED=N/A
SUBMITUSER=mwang87
TAGS=
SPECTRUMID=CCMSLIB00000569310
SCANS=6561
100.9589 1.707942 
103.0554 1.964133 
108.0475 3.330487 
110.0963 1.878736 
111.053 6.319385 
113.0588 2.476516 
122.0968 44.235696 
122.1196 2.818104 
122.1321 1.707942 
139.0549 17.93339 
148.0737 3.842869 
153.104 9.820666 
154.0868 8.710504 
156.0863 26.302306 
156.1087 2.04953 
157.1391 3.586678 
158.6343 2.220325 
162.0109 1.707942 
165.1001 8.454313 
165.1097 6.831768 
166.0862 100.0 
166.1058 2.732707 
166.1247 3.928266 
166.1427 2.561913 
166.2047 1.707942 
167.4006 1.878736 
170.0845 1.707942 
179.0789 2.476516 
189.7157 1.878736 
192.063 1.878736 
197.0926 12.467976 
199.0895 8.112724 
200.0738 72.160547 
200.1164 3.330487 
200.1948 1.964133 
209.092 7.685739 
243.0783 46.541418 
END IONS

