BEGIN IONS
PEPMASS=317.203
CHARGE=1+
COMPOUNDNAME=1H-2-Benzoxacyclotetradecin-1-one, 3,4,5,6,7,8,9,10-octahydro-14,16-dihydroxy-3-methyl-7-oxo-, (E)-
LIBRARYQUALITY=3
SMILES=N/A
INCHIKEY=MBMQEIFVQACCCH-XVNBXDOJSA-N
INCHI=InChI=1S/C18H22O5/c1-12-6-5-9-14(19)8-4-2-3-7-13-10-15(20)11-16(21)17(13)18(22)23-12/h3,7,10-12,20-21H,2,4-6,8-9H2,1H3/b7-3+
MSLEVEL=2
SOURCE_INSTRUMENT=N/A-Linear Ion Trap
FILENAME=library_mgf.mgf
SEQ=*..*
IONMODE=negative
ORGANISM=MONA
NAME=1H-2-Benzoxacyclotetradecin-1-one, 3,4,5,6,7,8,9,10-octahydro-14,16-dihydroxy-3-methyl-7-oxo-, (E)- M-H
PI=MoNA
DATACOLLECTOR=MoNA:VF-NPL-LTQ000780
PUBMED=N/A
SUBMITUSER=mwang87
TAGS=
SPECTRUMID=CCMSLIB00004685017
SCANS=638
142.979996 6.965561 
160.949997 100.0 
174.910004 65.059624 
186.929993 19.637293 
202.960007 16.900942 
229.009995 12.169199 
247.059998 32.891018 
259.059998 10.817773 
261.049988 79.116486 
289.100006 34.569523 
END IONS

