BEGIN IONS
PEPMASS=414.155
CHARGE=1+
COMPOUNDNAME=Massbank:BML00280 (S,R)-Noscapine
LIBRARYQUALITY=3
SMILES=CN1CCC2=CC3=C(C(=C2[C@@H]1[C@@H]4C5=C(C(=C(C=C5)OC)OC)C(=O)O4)OC)OCO3
INCHIKEY=AKNNEGZIBPJZJG-MSOLQXFVSA-N
INCHI=1S/C22H23NO7/c1-23-8-7-11-9-14-20(29-10-28-14)21(27-4)15(11)17(23)18-12-5-6-13(25-2)19(26-3)16(12)22(24)30-18/h5-6,9,17-18H,7-8,10H2,1-4H3/t17-,18+/m1/s1
MSLEVEL=2
SOURCE_INSTRUMENT=ESI-LC-ESI-QTOF
FILENAME=Massbank_ESI_positive_8_1_2014_peaks.mgf
SEQ=*..*
IONMODE=Positive
ORGANISM=MASSBANK
NAME=Massbank:BML00280 (S,R)-Noscapine [M+H]+
PI=Putative Massbank Match
DATACOLLECTOR=Massbank
PUBMED=N/A
SUBMITUSER=mwang87
TAGS=
SPECTRUMID=CCMSLIB00000204853
SCANS=113
179.0662 28.0 
220.0961 997.0 
220.1386 55.0 
353.0993 117.0 
365.0958 36.0 
383.1171 22.0 
414.1529 2182.0 
END IONS

