BEGIN IONS
PEPMASS=357.117
CHARGE=1+
COMPOUNDNAME=MITOMYCIN C
LIBRARYQUALITY=3
SMILES=N/A
INCHIKEY=NWIBSHFKIJFRCO-WUDYKRTCSA-N
INCHI=InChI=1S/C15H18N4O5/c1-5-9(16)12(21)8-6(4-24-14(17)22)15(23-2)13-7(18-13)3-19(15)10(8)11(5)20/h6-7,13,18H,3-4,16H2,1-2H3,(H2,17,22)/t6-,7+,13+,15-/m1/s1
MSLEVEL=2
SOURCE_INSTRUMENT=N/A-ESI-QFT
FILENAME=library_mgf.mgf
SEQ=*..*
IONMODE=positive
ORGANISM=MONA
NAME=MITOMYCIN C [M+Na]+
PI=MoNA
DATACOLLECTOR=MoNA:VF-NPL-QEHF027730
PUBMED=N/A
SUBMITUSER=mwang87
TAGS=
SPECTRUMID=CCMSLIB00004721311
SCANS=27730
50.15741 0.007808 
50.803234 0.005704 
50.844307 0.009106 
51.737972 0.014794 
51.794445 0.016352 
52.49609 0.010526 
52.944241 0.005553 
52.95739 0.004446 
53.285564 0.010279 
53.427059 0.004233 
53.710491 0.007058 
54.656628 0.021927 
54.998848 0.004043 
55.345123 0.012383 
55.396439 0.005426 
56.008984 0.019091 
56.049774 0.428582 
56.084106 0.024889 
56.109009 0.011591 
56.140881 0.021914 
56.547962 0.010341 
57.616055 0.006309 
57.96188 0.020087 
58.065392 0.035403 
58.575134 0.009146 
59.397026 0.014358 
59.628056 0.025907 
60.044643 0.976102 
60.136726 0.025734 
61.01086 0.007979 
61.761127 0.022368 
62.49921 0.009958 
62.552818 0.016179 
62.637131 0.017478 
62.910324 0.0041 
62.96603 0.005464 
63.425156 0.020132 
63.642773 0.007343 
63.766068 0.004654 
63.879349 0.010191 
64.082146 0.021631 
64.339684 0.007998 
64.777733 0.023064 
65.337303 0.009097 
65.616592 0.021962 
66.525688 0.005486 
66.959694 0.011283 
67.813744 0.021401 
68.36586 0.011979 
68.405624 0.01233 
68.765114 0.020999 
68.804375 0.018763 
69.248734 0.014975 
69.598709 0.020441 
69.858681 0.020249 
71.123451 0.02484 
71.595741 0.011669 
72.174461 0.012646 
72.67318 0.006411 
73.046875 0.07697 
74.059776 0.006336 
74.147102 0.011221 
74.261124 0.015092 
75.353729 0.010784 
77.031227 0.011098 
77.293488 0.009433 
77.535622 0.010106 
78.544708 0.009902 
78.557404 0.020482 
79.311592 0.011551 
79.338646 0.012272 
79.347145 0.012824 
79.500015 0.018251 
79.642899 0.006768 
79.801132 0.011245 
81.742828 0.012303 
81.758224 0.022679 
82.364899 0.010988 
82.568321 0.014984 
83.17028 0.004737 
83.18132 0.004859 
83.89135 0.015511 
84.005661 3.772549 
84.044426 0.295945 
86.060219 0.016166 
86.664673 0.013272 
87.044083 0.18913 
87.077621 0.011101 
87.48349 0.019964 
89.059662 0.090105 
89.827629 0.021229 
90.447906 0.004828 
91.057281 0.036035 
91.06665 0.006079 
92.666016 0.017814 
96.225594 0.011441 
96.608528 0.005403 
97.886536 0.007117 
97.925491 0.010667 
98.039078 0.025128 
98.060143 0.123616 
98.219124 0.011372 
98.975349 0.091765 
99.608719 0.016305 
100.783203 0.024093 
100.897591 0.011642 
101.213104 0.027112 
102.419571 0.005527 
103.026215 0.006362 
103.039001 0.006305 
103.740944 0.026805 
104.335892 0.018591 
104.635971 0.007437 
104.771645 0.008215 
105.607414 0.006913 
110.060112 7.180766 
110.064384 0.047924 
111.06337 0.221808 
111.260841 0.020372 
112.022087 0.020396 
114.044159 0.022907 
114.263489 0.024045 
115.57222 0.013561 
116.247749 0.024851 
116.986053 0.023858 
118.068176 0.022225 
119.2658 0.019362 
119.536758 0.010894 
119.90332 0.023839 
121.531128 0.022003 
122.060104 0.428241 
122.24852 0.022773 
122.385963 0.02399 
127.680313 0.007104 
128.579498 0.025413 
129.280899 0.015085 
129.752426 0.02268 
130.931702 0.022232 
131.070374 0.009991 
131.127579 0.020247 
131.561432 0.006486 
131.809143 0.009988 
133.085953 0.008368 
134.392685 0.020408 
137.070984 3.208361 
137.29274 0.022103 
138.074341 0.046495 
140.27774 0.005672 
141.573486 0.012413 
142.723831 0.02493 
143.83432 0.006961 
145.096603 0.019228 
147.298676 0.018021 
148.34436 0.024396 
148.602173 0.012003 
150.023392 0.025986 
151.497025 0.007607 
151.730286 0.029075 
153.040512 0.015128 
154.681931 0.004699 
154.837341 0.012461 
157.75383 0.020772 
159.055344 0.24891 
160.076843 0.020268 
162.351868 0.011226 
165.06604 2.840835 
165.072571 0.021273 
165.547424 0.023356 
166.069473 0.039838 
171.09169 0.10246 
171.192474 0.026928 
171.688507 0.013103 
174.541077 0.01564 
175.086227 0.022852 
175.096802 0.006845 
175.502045 0.026111 
176.339355 0.004871 
177.065979 0.388524 
179.58165 0.012804 
181.57489 0.014198 
182.016098 0.015596 
184.075592 0.042997 
184.153397 0.009609 
185.071182 0.110523 
185.799423 0.016814 
186.103073 0.0284 
187.009933 0.029421 
187.086563 0.042458 
188.776306 0.020513 
189.065903 1.251983 
191.081299 0.196901 
192.408691 0.029111 
195.130646 0.022645 
197.07106 0.024063 
197.10701 0.022608 
197.682755 0.023545 
198.102341 0.133899 
199.047928 0.222225 
201.065796 0.089327 
201.102295 0.090597 
202.07373 2.644312 
202.09726 0.017249 
203.081253 0.634091 
204.065521 0.013148 
204.087708 0.023243 
205.097153 0.007356 
206.068939 0.038955 
212.070694 0.495478 
213.065887 1.020146 
213.102005 0.006804 
214.073608 0.062048 
214.097504 1.288392 
214.438751 0.78185 
214.453201 0.589532 
214.814667 0.025906 
214.994171 0.005895 
215.081619 9.157822 
215.099472 0.018418 
216.075729 0.276936 
216.085526 0.878123 
217.061035 0.019053 
217.082321 0.016498 
217.097336 0.177759 
218.068787 0.582541 
218.080765 0.017505 
219.076492 3.935076 
219.810715 0.024136 
220.080383 0.243971 
221.092133 1.327279 
223.259583 0.007599 
224.081619 0.063806 
225.036148 0.023846 
225.065964 0.275535 
226.073669 0.110646 
227.081345 0.21697 
227.117996 1.031959 
229.084763 0.204086 
229.097168 0.274607 
230.068848 0.268974 
230.080734 0.006203 
230.092468 0.700013 
231.076614 7.308058 
231.099609 0.671508 
232.080933 0.834939 
238.09549 0.006287 
240.06488 0.023876 
240.558762 0.013259 
240.909805 0.007631 
241.084991 0.116797 
241.238678 0.013239 
242.092484 100.0 
243.072968 0.027184 
243.096024 13.535659 
244.072464 0.070303 
244.096771 0.225772 
244.108612 0.445225 
245.092026 10.495871 
246.095856 1.401546 
246.123718 0.994698 
246.261673 0.012928 
247.106171 0.036327 
251.066803 0.054558 
252.07457 1.666249 
253.079849 0.113208 
253.675919 0.024768 
255.113037 0.052891 
256.107971 0.099704 
257.092133 5.4464 
257.116028 0.005776 
258.096191 0.564907 
259.095062 4.020821 
260.098724 0.347908 
261.840302 0.02355 
263.230103 0.00816 
264.074432 3.904646 
265.079987 0.433796 
266.088562 0.00811 
266.335846 0.019157 
268.105499 0.783361 
269.353271 0.023208 
271.874115 0.015869 
273.110931 0.163465 
274.118469 62.454407 
275.122223 9.278307 
276.124695 0.432096 
279.061462 2.907164 
280.064911 1.867705 
280.080139 0.009769 
281.082031 0.164059 
281.100891 21.815889 
282.084778 2.136397 
282.103973 2.971237 
283.088501 0.081911 
284.100342 0.082917 
294.084869 0.116112 
295.087952 0.074293 
296.007324 0.015288 
296.062012 0.014924 
296.100464 10.674724 
297.104218 1.561805 
297.122314 0.210967 
298.049164 0.013654 
298.941101 0.038365 
298.957916 0.005884 
300.682892 0.012229 
304.060333 0.061068 
306.32663 0.004848 
312.026398 0.028688 
314.110962 10.629959 
314.130798 0.082434 
315.114655 1.659316 
315.13324 0.032863 
315.316284 0.005635 
316.06073 0.016197 
325.090607 2.45634 
326.094055 0.104909 
330.180817 0.315011 
334.070831 0.030449 
344.157013 0.006848 
353.907288 0.028622 
355.279541 0.033939 
356.110382 0.005924 
357.116943 32.189137 
357.326141 0.025426 
357.653046 0.023176 
358.119995 5.699896 
358.175079 0.039462 
358.367767 1.23908 
359.122742 0.271874 
362.132843 0.01251 
378.87558 0.010552 
END IONS

