BEGIN IONS
PEPMASS=364.142
CHARGE=1+
COMPOUNDNAME=ERGONOVINE MALEATE
LIBRARYQUALITY=3
SMILES=N/A
INCHIKEY=WVVSZNPYNCNODU-XTQGRXLLSA-N
INCHI=InChI=1S/C19H23N3O2/c1-11(10-23)21-19(24)13-6-15-14-4-3-5-16-18(14)12(8-20-16)7-17(15)22(2)9-13/h3-6,8,11,13,17,20,23H,7,9-10H2,1-2H3,(H,21,24)/t11-,13+,17+/m0/s1
MSLEVEL=2
SOURCE_INSTRUMENT=N/A-ESI-QFT
FILENAME=library_mgf.mgf
SEQ=*..*
IONMODE=positive
ORGANISM=MONA
NAME=ERGONOVINE MALEATE [M+K]+
PI=MoNA
DATACOLLECTOR=MoNA:VF-NPL-QEHF027718
PUBMED=N/A
SUBMITUSER=mwang87
TAGS=
SPECTRUMID=CCMSLIB00004721299
SCANS=27718
51.28397 0.009858 
51.293022 0.010814 
51.911785 0.009895 
51.940128 0.010909 
53.655937 0.009471 
53.880703 0.009058 
54.281246 0.00928 
54.348373 0.009865 
55.003803 0.010011 
55.601143 0.009208 
56.965065 0.872746 
57.07016 0.184809 
57.935066 0.064874 
58.065395 0.367967 
58.211876 0.009891 
58.793671 0.010184 
59.271374 0.008587 
60.19841 0.008835 
60.357948 0.008887 
60.655155 0.010282 
61.01088 1.387144 
61.234955 0.009082 
62.018684 2.204927 
62.061375 0.010647 
62.257481 0.007907 
62.538776 0.008663 
62.891529 0.008145 
63.026463 0.035399 
63.496738 0.01039 
63.997707 0.009286 
64.014404 0.100246 
64.787849 0.010237 
65.249725 0.008823 
65.824829 0.010735 
66.906929 0.009865 
67.822151 0.009041 
67.83802 0.008424 
68.688271 0.010327 
69.069923 0.010533 
71.085609 0.055266 
71.86142 0.009005 
72.587456 0.009926 
73.376656 0.010608 
73.446609 0.009337 
73.987434 0.010615 
76.016609 0.010666 
76.075844 0.010851 
76.662178 0.00956 
77.078003 0.012746 
78.842346 0.010522 
79.021248 1.253664 
81.017059 0.012367 
81.069984 0.023535 
82.487686 0.009435 
84.937286 0.010238 
85.101402 0.009158 
86.09642 0.062376 
86.275909 0.011471 
88.324509 0.010408 
89.059715 0.17219 
90.357819 0.011418 
90.908897 0.028119 
91.054222 0.258951 
91.15593 0.010727 
91.828819 0.009137 
92.057701 0.042945 
93.927391 0.008067 
94.305794 0.011497 
95.085419 0.012264 
95.268509 0.010948 
96.842949 0.008568 
98.096336 0.023254 
98.975349 1.062143 
101.003136 0.009339 
102.948555 0.011636 
102.9683 0.013764 
104.992317 0.376366 
105.749199 0.011715 
107.013405 0.010648 
107.226341 0.013205 
109.419556 0.010146 
112.075668 0.164949 
114.269356 0.010451 
115.006691 0.168394 
116.985901 1.149205 
117.069908 0.071 
117.989433 0.026247 
119.085548 0.443681 
119.784149 0.009655 
120.08886 0.222834 
120.978844 0.05549 
121.069229 0.010819 
123.104141 0.011276 
123.334198 0.010936 
124.338028 0.010786 
126.052635 0.014394 
127.036629 0.053136 
133.017197 0.360952 
133.064636 0.068985 
134.978653 0.914308 
134.990662 0.016725 
134.996414 1.022386 
136.136856 0.012649 
136.974777 0.012981 
138.989349 0.06369 
139.359436 0.010923 
140.143219 0.012649 
142.274521 0.010014 
143.995651 0.012128 
144.655502 0.010732 
144.843231 0.011832 
145.987915 0.017843 
146.947723 0.009907 
146.956512 0.036359 
146.974243 0.052647 
147.081039 0.010542 
148.971863 0.0125 
148.988007 0.02022 
149.011932 0.012142 
149.081833 0.011171 
150.951294 0.066485 
151.028152 0.014352 
151.970032 0.025511 
152.462814 0.011837 
152.951492 0.232923 
152.983078 0.027293 
152.989258 1.132757 
153.007172 0.109315 
153.248245 0.014355 
153.271866 0.01058 
153.330627 0.00913 
153.95929 0.67427 
153.965637 0.012764 
154.946884 0.435376 
154.966934 0.014703 
155.954636 0.028192 
156.94458 0.0107 
158.012268 0.759161 
158.995117 0.011163 
159.982391 0.008712 
160.00647 0.069399 
160.974442 0.038479 
162.951538 0.083526 
162.989822 0.074843 
163.005753 0.013616 
164.967499 0.025924 
164.985764 0.022058 
165.006943 0.054573 
168.080261 0.00982 
168.437546 0.011165 
168.55275 0.009172 
168.962021 0.026679 
168.982651 0.013582 
170.011093 0.03357 
170.962082 0.062949 
171.000015 0.058776 
171.008392 0.04113 
171.062683 2.0808 
171.959778 0.032521 
172.006683 0.042162 
172.027145 0.065397 
172.066559 0.048962 
172.95784 0.064634 
173.01088 0.029592 
173.078491 0.164932 
173.351089 0.012519 
173.984863 0.15263 
174.005936 0.196694 
174.022095 0.064538 
174.779007 0.011282 
174.972351 0.021023 
174.989914 0.02921 
175.003708 0.351439 
176.000916 0.132633 
176.022995 1.784357 
176.967239 1.035655 
176.988037 0.037456 
177.026855 0.012608 
177.959702 0.018269 
177.99263 0.021918 
178.017181 0.053506 
178.98468 0.21657 
179.005142 0.055008 
179.022217 0.011032 
180.080811 0.438025 
180.962128 0.020373 
180.980392 0.012129 
181.000412 0.214771 
182.996384 0.025187 
183.091202 0.010193 
184.027359 0.010975 
185.02475 0.087441 
185.042313 0.175834 
185.949158 0.219344 
185.961624 0.067287 
186.022247 0.013448 
186.946365 0.012214 
187.025558 0.010549 
187.057541 0.01589 
188.021713 0.22731 
188.680023 0.010547 
188.967392 0.168798 
189.006027 0.046547 
189.01944 0.406092 
189.996094 0.02632 
190.016785 0.22018 
190.037811 0.021491 
191.140854 0.01126 
191.902573 0.013431 
192.068161 0.032184 
192.080292 0.025408 
192.961716 0.60197 
193.076035 0.723731 
193.881546 0.015356 
194.033615 0.363676 
194.079788 0.04312 
194.962051 0.189459 
194.978073 0.181878 
195.000412 0.013946 
195.09166 0.088879 
195.959824 0.258198 
196.956741 0.081255 
197.070984 0.095712 
197.107437 0.214321 
197.711472 0.008949 
197.928482 0.019561 
199.039795 0.038129 
199.086304 0.136076 
200.057556 0.010732 
200.089813 0.01342 
201.979782 0.242928 
202.998215 0.013536 
203.034927 0.025325 
203.052597 0.674065 
203.896408 0.012925 
204.962189 0.156219 
204.983444 0.142459 
205.075989 0.75623 
205.926422 0.014519 
205.990524 0.0949 
206.079803 0.054832 
206.977676 2.35074 
206.999832 0.361077 
207.091476 0.344535 
207.296082 0.011796 
207.879471 0.010678 
207.977707 0.094647 
208.075592 2.171982 
208.099304 0.042758 
208.650574 0.011461 
208.888397 0.011777 
208.957321 0.239871 
209.875916 0.205292 
209.896088 0.022338 
209.989746 0.02805 
210.409302 0.011438 
210.883926 0.55589 
210.972305 0.325444 
211.871643 0.013249 
211.881973 0.018215 
211.89183 0.134304 
211.986465 0.087927 
212.879288 0.080277 
212.889603 0.021173 
212.972366 0.446347 
213.148605 0.025405 
213.970383 0.423135 
214.002182 0.033842 
214.377716 0.407407 
214.393372 0.19715 
215.021103 0.012448 
215.088928 8.746878 
215.887085 0.139282 
216.092422 0.761527 
217.093994 0.038953 
217.104721 0.890651 
218.868469 0.118344 
219.091751 0.552665 
219.174194 0.441902 
219.897293 0.012772 
220.074966 0.024187 
220.099548 0.96926 
220.88385 0.227616 
221.107391 1.533103 
222.110779 0.238382 
222.898148 0.059683 
223.086914 0.072109 
223.123077 2.416083 
223.980026 0.064474 
224.127304 0.012575 
225.010406 2.163598 
225.042969 0.037389 
225.102234 0.081128 
225.975861 0.011276 
226.013855 0.045673 
226.967804 0.066802 
227.006027 0.015117 
227.071869 0.01633 
228.891739 0.543558 
229.889984 0.030204 
230.889587 0.130256 
231.084076 0.167505 
231.896698 0.052665 
232.962753 0.07807 
233.070465 0.015684 
233.877655 0.044642 
233.897476 4.071427 
234.904205 0.198001 
234.920822 0.026907 
235.8918 0.464516 
236.888962 0.027548 
236.900131 0.249999 
237.886688 0.040955 
237.907852 0.135607 
238.878845 0.093288 
238.894638 0.023733 
238.967697 0.493045 
239.876221 0.012877 
239.901733 0.01797 
240.890854 0.051361 
240.909332 0.268686 
241.902679 0.017906 
242.90506 0.459777 
243.020859 0.362436 
243.905106 0.029499 
243.917984 0.127041 
243.98671 0.041821 
244.002045 0.011965 
244.883743 0.398717 
244.931549 0.117953 
245.099136 0.038708 
245.884125 0.019056 
245.908203 0.014715 
245.924652 0.013237 
246.064392 0.014025 
246.882843 0.101343 
246.905365 0.013689 
247.115738 0.015309 
247.907822 0.012792 
248.878159 0.013906 
249.891541 0.016384 
250.899841 0.465353 
250.974045 0.01608 
251.081924 0.02632 
251.118195 0.129515 
251.886719 0.568513 
251.90773 11.116701 
252.894226 0.433841 
252.915115 0.030905 
253.087082 0.13966 
253.903381 0.749474 
253.923904 0.046332 
254.901367 0.106233 
254.925232 0.012285 
255.897964 0.194904 
255.917908 0.966937 
256.06427 0.218274 
256.9198 0.527366 
257.8974 0.711979 
257.912262 0.167726 
258.899139 0.178359 
258.946777 0.100796 
259.115173 9.99884 
259.891479 0.083614 
260.118561 1.191265 
260.896606 0.052466 
261.131256 1.394067 
262.134094 0.054935 
262.878601 0.032453 
262.894196 1.0318 
262.941376 0.026924 
263.049164 0.024932 
263.081879 0.056567 
263.884918 0.016574 
263.895996 0.042137 
263.93454 0.048504 
264.85614 0.014024 
264.893646 0.522772 
264.908813 0.011874 
265.133392 0.333016 
265.92334 0.161632 
266.925629 0.041089 
268.174805 0.009613 
268.910095 0.104576 
269.022522 0.042233 
269.892334 0.032373 
269.918457 0.817321 
270.043945 0.063102 
270.306549 0.028997 
270.810211 0.013304 
270.900635 0.394232 
271.074951 0.030541 
272.899292 0.012011 
273.908813 0.024721 
273.927979 0.120146 
274.074829 0.010645 
274.969879 0.151863 
275.110077 0.127188 
275.907928 9.227951 
276.909546 0.287369 
276.957886 0.009509 
277.133545 0.20447 
277.901947 2.254416 
278.872925 0.016095 
278.901733 0.447522 
279.897736 0.600469 
280.096191 0.014472 
280.813629 0.012284 
281.059814 1.06243 
281.079102 0.015903 
281.095947 0.963366 
282.020355 0.024317 
282.063232 0.112695 
282.098938 0.089811 
282.901489 0.013992 
283.912933 0.123114 
283.998444 0.258205 
284.152283 0.027098 
284.911896 0.047816 
284.926025 0.195257 
286.014618 0.087114 
286.18634 0.152475 
286.894531 0.169913 
287.147736 0.018781 
287.894745 0.071234 
287.942902 0.011359 
288.055267 0.027975 
288.55307 0.010957 
288.893555 1.113952 
289.125305 0.038035 
289.897797 0.045728 
289.921967 0.111519 
290.080383 0.013657 
290.887268 0.010944 
291.1409 0.05677 
292.922943 0.011757 
292.941956 0.014625 
293.918121 3.177385 
294.476746 0.012534 
295.038239 0.019336 
295.07428 0.022724 
295.14386 0.024872 
295.895447 0.01404 
295.913147 0.403937 
295.933075 0.198725 
295.998657 0.025383 
297.090668 0.069401 
297.909302 0.058146 
297.92868 0.06462 
298.013977 0.012447 
298.899506 0.014259 
298.925781 0.208639 
299.070312 1.223944 
299.106445 0.794838 
300.072754 0.096923 
300.110107 0.044087 
300.147491 0.015767 
300.938354 0.081954 
301.10791 0.116846 
301.939148 0.017858 
302.009674 0.17517 
302.127045 0.070618 
302.937012 1.559007 
303.090027 0.012228 
303.12381 1.088815 
303.141479 0.961491 
303.940369 0.090065 
304.095978 0.118425 
304.124115 0.195148 
304.175629 0.032962 
304.301453 0.01139 
304.88681 0.016231 
304.905151 0.125502 
304.935089 0.041704 
305.060059 0.059113 
305.102783 0.097503 
305.125641 0.264339 
305.156952 5.980364 
305.955475 0.10879 
306.075378 0.773418 
306.091522 0.132975 
306.160248 0.821213 
306.904541 0.150965 
307.079041 0.013124 
307.092682 0.076938 
307.205963 0.012152 
308.102417 0.08548 
308.139893 0.0469 
308.936096 0.26786 
309.14386 0.012965 
309.935486 0.014205 
310.825745 0.010765 
310.936066 0.469063 
311.07019 0.046457 
312.029114 0.010608 
312.819519 0.173867 
312.838562 0.011662 
313.085358 0.023472 
314.009583 0.012202 
317.068085 0.131165 
317.933624 0.013856 
318.075439 0.634572 
319.082581 0.61596 
319.138763 0.446297 
319.836151 0.044925 
320.091492 2.678061 
320.126312 1.17235 
320.94754 0.315672 
321.095764 0.789085 
321.119965 0.156986 
321.134735 0.440059 
321.817108 0.019115 
321.928375 0.1772 
322.004181 0.012709 
322.087128 0.043704 
322.104706 0.054144 
322.823456 0.076219 
322.951141 0.056252 
322.986816 0.017799 
323.047302 0.029523 
323.122253 0.016074 
323.139221 0.317599 
323.964386 0.414156 
324.064514 0.024593 
324.101746 0.71067 
325.063232 0.011769 
325.10379 0.153344 
326.149689 0.01537 
326.176941 0.015864 
327.824982 0.012643 
330.905487 0.100192 
331.083649 0.337418 
331.1185 0.034142 
331.138733 0.019248 
331.837677 0.207352 
332.056061 0.07292 
332.091248 1.880511 
332.127106 0.140675 
332.29538 0.020772 
333.057861 0.014587 
333.098816 0.978509 
333.151947 1.324144 
334.070801 7.695574 
334.10556 1.266099 
334.154724 0.032127 
334.936615 0.14302 
335.074066 1.615675 
335.110748 0.588422 
335.138306 0.086944 
335.163147 0.179734 
335.943634 0.336887 
336.087189 1.904894 
336.136383 3.394627 
337.126038 0.164574 
337.939789 0.029882 
339.101196 0.336124 
339.938934 0.049064 
340.097015 0.080498 
342.112305 0.157974 
343.115143 0.013134 
345.2901 0.047203 
346.071259 0.172407 
347.078583 2.492663 
347.16803 0.062263 
348.055359 0.015034 
348.085327 7.235875 
348.122467 2.653512 
349.094208 26.293362 
349.129333 3.496064 
350.09787 5.650032 
350.132599 0.672002 
350.946899 0.030771 
351.108398 1.178522 
351.157318 0.012363 
351.947754 0.019057 
352.947144 1.486742 
353.951202 0.229036 
354.829803 0.100475 
354.949524 0.014555 
358.047516 0.06324 
360.063385 0.221243 
361.062988 0.21501 
362.102203 4.690933 
362.145111 0.07834 
362.184387 0.298241 
362.240936 0.34097 
362.267181 0.015134 
362.304047 0.443489 
362.368652 0.209463 
363.106934 6.021998 
363.162445 100.0 
363.197449 3.88031 
363.245758 0.01251 
364.086914 0.101751 
364.117676 37.008091 
364.16745 14.983745 
364.205353 0.727322 
364.246765 0.097396 
364.321594 0.075139 
365.056702 0.240156 
365.121368 7.798027 
365.157928 1.645065 
365.179504 8.366976 
365.353271 0.053164 
366.098572 1.513396 
366.143463 2.45873 
366.181427 2.357163 
368.055725 0.016109 
369.837769 0.035387 
373.847809 0.020274 
379.072693 0.052027 
382.143646 0.25398 
383.144348 0.044212 
END IONS

