BEGIN IONS
PEPMASS=267.077
CHARGE=1+
COMPOUNDNAME=BIOTIN
LIBRARYQUALITY=3
SMILES=N/A
INCHIKEY=YBJHBAHKTGYVGT-ZKWXMUAHSA-N
INCHI=InChI=1S/C10H16N2O3S/c13-8(14)4-2-1-3-7-9-6(5-16-7)11-10(15)12-9/h6-7,9H,1-5H2,(H,13,14)(H2,11,12,15)/t6-,7-,9-/m0/s1
MSLEVEL=2
SOURCE_INSTRUMENT=N/A-ESI-QFT
FILENAME=library_mgf.mgf
SEQ=*..*
IONMODE=positive
ORGANISM=MONA
NAME=BIOTIN [M+Na]+
PI=MoNA
DATACOLLECTOR=MoNA:VF-NPL-QEHF028118
PUBMED=N/A
SUBMITUSER=mwang87
TAGS=
SPECTRUMID=CCMSLIB00004721699
SCANS=28118
50.396984 0.254449 
50.563122 0.083307 
50.779507 0.110895 
50.852432 0.08195 
51.630184 0.044687 
51.643852 0.098681 
51.831459 0.052393 
51.939835 0.053737 
52.040512 0.136769 
52.738403 0.126667 
52.774338 0.044074 
52.955593 0.046117 
53.174026 0.204228 
53.531963 0.059624 
54.199253 0.024758 
55.126396 0.045409 
55.763958 0.137771 
55.972839 0.055621 
55.987522 0.211764 
56.72374 0.105976 
56.773151 0.151876 
56.797844 0.070733 
57.125401 0.067047 
57.303879 0.144545 
57.326847 0.224116 
57.369949 0.043222 
57.465145 0.076548 
57.67522 0.071989 
57.735481 0.039873 
57.877537 0.123154 
58.175117 0.232935 
60.230312 0.291363 
60.249435 0.131363 
60.321819 0.082478 
60.653446 0.056818 
60.768814 0.113979 
61.010715 0.166568 
61.222019 0.231844 
61.748287 0.254946 
62.030563 0.045536 
62.140404 0.242835 
62.261845 0.2227 
62.416229 0.260432 
64.098053 0.241523 
64.347855 0.142515 
65.042526 0.055006 
65.542152 0.264339 
65.913521 0.075293 
66.715424 0.096256 
66.822937 0.04398 
66.869308 0.076121 
67.727104 0.072842 
67.897133 0.243104 
68.301491 0.255075 
68.427132 0.072001 
68.818932 0.184298 
70.678757 0.022945 
70.80014 0.170494 
71.479263 0.05922 
72.259056 0.021581 
72.389793 0.125449 
73.209496 0.227413 
73.585144 0.065572 
73.832687 0.21289 
73.891266 0.056805 
73.893967 0.053711 
73.979111 0.085464 
74.227058 0.072862 
74.34832 0.294867 
75.183105 0.134304 
76.413452 0.145262 
77.158188 0.194294 
78.635063 0.249616 
79.249504 0.055047 
79.653923 0.106917 
80.448296 0.042626 
81.202942 0.254525 
82.514221 0.263046 
82.926285 0.180871 
83.007721 0.248295 
83.048019 0.259612 
85.885605 0.129249 
86.814529 0.021873 
87.437141 0.135014 
87.593254 0.229678 
88.207817 0.13592 
88.239403 0.074326 
88.473015 0.045651 
89.271255 0.050594 
89.471497 0.130859 
90.519882 0.052388 
91.964455 0.22805 
92.394463 0.122018 
93.79493 0.100722 
94.534714 0.246392 
95.987808 0.083395 
96.228203 0.251078 
96.634514 0.237451 
96.698402 0.054125 
97.142395 0.045667 
97.269638 0.130046 
98.056671 0.022638 
98.079918 0.085029 
98.98439 0.070734 
100.006966 0.191218 
100.666313 0.05418 
100.671181 0.141393 
100.682625 0.274486 
103.023102 0.255844 
105.379372 0.192809 
107.201347 0.240554 
108.080482 0.220603 
108.47097 0.059788 
113.087929 0.082338 
117.384064 0.083901 
117.541016 0.237119 
117.708855 0.227178 
118.135735 0.055106 
118.341415 0.191066 
118.539513 0.059378 
118.598488 0.252755 
119.035095 0.023761 
120.250816 0.189892 
120.703613 0.239782 
121.601242 0.269085 
123.644188 0.112984 
125.040833 0.26349 
125.044518 0.219143 
127.234535 0.024666 
128.970261 0.2139 
130.457108 0.02745 
130.666031 0.269919 
135.450989 0.116102 
139.522995 0.237427 
140.164856 0.024501 
140.228287 0.122269 
141.021408 0.050765 
144.958618 0.188155 
145.499832 0.128554 
146.705978 0.144127 
146.974823 0.029851 
149.869232 0.156114 
151.90329 0.049752 
152.360596 0.087967 
155.645111 0.024688 
157.476303 0.332448 
159.998581 0.136811 
160.412277 0.079228 
160.859222 0.220556 
163.908997 0.053291 
168.839844 0.257779 
169.513031 0.231899 
172.140884 0.278641 
173.342728 0.086715 
177.625259 0.146981 
180.048553 0.077567 
182.101898 0.084564 
184.80455 0.140719 
188.648056 0.20351 
190.301895 0.231531 
191.493439 0.101186 
192.984421 0.112011 
193.092209 0.270626 
197.653442 0.822763 
198.154312 0.07433 
199.295242 0.078457 
204.693024 0.251399 
205.92305 0.051078 
206.658783 0.313227 
206.977661 0.322595 
207.056458 0.088507 
208.245224 0.181961 
210.257309 0.322734 
211.185074 0.058576 
216.131104 10.782703 
222.262589 0.288656 
229.547562 0.169337 
229.875977 0.277324 
231.052002 0.047855 
233.434921 0.058061 
239.020844 0.284602 
241.270599 0.235904 
242.11235 0.283369 
243.401917 0.051193 
246.519989 0.158763 
252.531845 0.052731 
252.585861 0.080948 
260.125885 0.119218 
267.077087 100.0 
267.646545 0.048569 
268.080383 9.570762 
268.950012 0.061678 
268.977356 0.05 
274.504608 0.049873 
278.2099 0.256648 
282.560486 0.057249 
283.621307 0.266862 
284.275909 0.199322 
285.009552 0.028388 
END IONS

