BEGIN IONS
PEPMASS=266.139
CHARGE=1+
COMPOUNDNAME=Massbank:BML00916 Anisomycin
LIBRARYQUALITY=3
SMILES=CC(=O)OC1C(CNC1CC2=CC=C(C=C2)OC)O
INCHIKEY=YKJYKKNCCRKFSL-UHFFFAOYSA-N
INCHI=1S/C14H19NO4/c1-9(16)19-14-12(15-8-13(14)17)7-10-3-5-11(18-2)6-4-10/h3-6,12-15,17H,7-8H2,1-2H3
MSLEVEL=2
SOURCE_INSTRUMENT=ESI-LC-ESI-QTOF
FILENAME=Massbank_ESI_positive_8_1_2014_peaks.mgf
SEQ=*..*
IONMODE=Positive
ORGANISM=MASSBANK
NAME=Massbank:BML00916 Anisomycin [M+H]+
PI=Putative Massbank Match
DATACOLLECTOR=Massbank
PUBMED=N/A
SUBMITUSER=mwang87
TAGS=
SPECTRUMID=CCMSLIB00000205109
SCANS=369
114.9453 47.0 
115.0532 25.0 
117.0725 25.0 
118.0668 28.0 
119.0542 20.0 
121.0644 3302.0 
121.0959 81.0 
121.101 41.0 
121.1168 44.0 
121.1364 25.0 
121.166 48.0 
132.0414 25.0 
132.0594 24.0 
136.0714 22.0 
144.0559 168.0 
145.0633 100.0 
147.0766 136.0 
149.091 60.0 
150.0911 79.0 
158.0576 23.0 
159.0711 26.0 
159.0794 206.0 
159.101 23.0 
161.0939 78.0 
162.0875 22.0 
163.0736 24.0 
163.0963 21.0 
171.0774 74.0 
173.0775 59.0 
176.1012 43.0 
177.0825 23.0 
188.105 213.0 
189.0875 56.0 
206.1158 624.0 
206.1546 24.0 
206.1814 20.0 
224.123 119.0 
266.1274 23.0 
266.14 75.0 
END IONS

