BEGIN IONS
PEPMASS=412.174
CHARGE=1+
COMPOUNDNAME=Roquefortine C
LIBRARYQUALITY=3
SMILES=N/A
INCHIKEY=SPWSUFUPTSJWNG-LIMLNZRCSA-N
INCHI=InChI=1S/C22H23N5O2/c1-4-21(2,3)22-10-17-18(28)25-16(9-13-11-23-12-24-13)19(29)27(17)20(22)26-15-8-6-5-7-14(15)22/h4-9,11-12,17,20,26H,1,10H2,2-3H3,(H,23,24)(H,25,28)/b16-9-/t17-,20-,22+/m0/s1
MSLEVEL=2
SOURCE_INSTRUMENT=N/A-ESI-QFT
FILENAME=library_mgf.mgf
SEQ=*..*
IONMODE=positive
ORGANISM=MONA
NAME=Roquefortine C [M+Na]+
PI=MoNA
DATACOLLECTOR=MoNA:VF-NPL-QEHF016406
PUBMED=N/A
SUBMITUSER=mwang87
TAGS=
SPECTRUMID=CCMSLIB00004707469
SCANS=16406
50.216171 0.043815 
50.315792 0.141493 
50.941776 0.139127 
51.082397 0.150134 
51.347301 0.089043 
51.738895 0.044012 
51.950283 0.041738 
52.235943 0.045886 
53.00256 0.171943 
53.856094 0.166618 
55.018238 0.318773 
55.0546 2.489669 
55.414307 0.143481 
55.426121 0.09604 
55.544796 0.179053 
55.632027 0.149851 
55.68475 0.0452 
55.850983 0.083353 
55.934704 0.139642 
56.049812 0.322969 
56.243694 0.067391 
57.033817 0.305418 
57.070221 4.861163 
57.770863 0.144058 
58.065491 0.708653 
58.073727 0.042042 
59.049442 3.732965 
59.331158 0.090435 
59.626381 0.083025 
59.694653 0.042229 
59.966717 0.318902 
60.044659 1.023621 
60.79961 0.067603 
61.010887 20.952705 
62.018703 1.659009 
62.485081 0.082901 
63.006676 0.196137 
64.067833 0.159195 
64.92749 0.189441 
66.233643 0.098969 
66.35878 0.050115 
66.512215 0.080125 
66.659775 0.045703 
66.773041 0.042887 
67.021225 0.090658 
67.054398 4.468202 
68.01329 0.095382 
68.140221 0.091726 
69.033592 0.501938 
69.044899 1.563799 
69.070023 29.732414 
69.072144 0.478783 
69.352013 0.043504 
70.065292 1.493692 
70.073372 0.866932 
71.04924 0.817715 
71.085663 2.902266 
71.554916 0.163794 
71.797913 0.095071 
72.080894 11.181472 
72.733643 0.092941 
72.84082 0.054515 
72.854095 0.075864 
72.937256 0.802961 
73.028389 0.051066 
73.061783 0.104652 
73.064919 0.404548 
73.084274 0.096064 
74.471275 0.095472 
75.044159 0.815837 
75.32444 0.044634 
76.491203 0.07025 
77.757324 0.049157 
77.848091 0.052723 
78.204895 0.040815 
78.967216 0.146603 
79.021309 2.57964 
79.054405 0.664419 
81.033745 0.046741 
81.042152 0.099325 
81.044807 19.16703 
81.047424 0.17233 
81.069954 2.015827 
81.665398 0.195353 
81.705742 0.042664 
82.048248 0.718818 
82.052864 0.336149 
82.284637 0.161157 
82.938255 0.137282 
83.01284 0.1409 
83.049225 0.676817 
83.060455 0.507895 
83.085609 0.567486 
84.080795 0.392602 
85.028595 0.209314 
85.039764 3.075156 
85.06488 1.071713 
85.101295 1.456472 
86.060127 0.502045 
86.096519 0.303201 
87.044151 1.085717 
87.047318 0.043271 
87.055428 0.257324 
87.579208 0.095223 
87.980522 0.108394 
88.968513 0.122918 
89.059792 7.344794 
89.939995 0.286388 
89.950745 0.045378 
90.033592 0.047452 
90.062881 0.058715 
90.44088 0.040468 
90.58329 0.041354 
90.707016 0.048242 
90.94783 1.211678 
90.967194 0.062064 
91.054321 1.185783 
91.057533 0.084647 
91.110535 0.146916 
91.938286 0.57933 
92.379333 0.187111 
92.982834 70.202538 
93.044868 0.167598 
93.070015 1.004226 
94.052643 24.6605 
94.978516 0.190142 
95.024216 0.074582 
95.049187 6.202635 
95.060471 1.850797 
95.085632 1.503639 
95.246002 0.08786 
96.044525 0.055255 
96.052483 0.111476 
96.055717 0.228527 
96.068306 0.215282 
97.028481 0.495613 
97.039742 2.178077 
97.064926 0.651378 
97.101494 0.066329 
97.129295 0.083413 
98.060074 0.498818 
98.83963 0.088068 
99.044159 0.3737 
99.055328 0.529153 
100.039276 0.086094 
100.07576 0.06779 
100.725471 0.043951 
101.003242 0.47322 
101.059837 1.444844 
102.054878 0.05838 
103.054138 0.10395 
103.289383 0.050052 
104.136887 0.096608 
105.050179 0.049409 
105.069984 0.94749 
106.040123 1.010119 
106.065063 0.123587 
106.396698 0.085518 
106.998581 0.094541 
107.04821 1.465508 
107.060303 0.115185 
107.07032 0.057593 
107.085526 0.50532 
107.946526 0.068186 
107.950577 0.87221 
108.031998 0.117924 
108.055733 8.774461 
108.080727 0.231502 
108.958321 0.300763 
109.039803 1.823516 
109.059013 0.10463 
109.063881 1.280347 
109.101334 0.399065 
109.936203 0.045045 
109.948769 2.050368 
110.071365 0.135248 
110.711952 0.043902 
111.044098 0.569682 
111.055351 8.183508 
111.080467 0.062915 
111.88797 0.107521 
112.058441 0.111599 
112.075668 0.052256 
112.339172 0.048145 
112.473419 0.095388 
113.034706 3.670653 
113.059647 0.224559 
114.036797 0.043696 
116.034409 0.189399 
116.547256 0.08813 
116.693237 0.049877 
116.963554 0.100058 
117.057579 0.59962 
117.069695 0.058043 
118.065163 0.405638 
119.048813 0.209102 
119.060387 0.066092 
119.085564 0.286009 
120.04454 0.103077 
120.055756 3.333479 
120.080971 3.908232 
121.039696 0.262817 
121.063812 3.029286 
121.084244 0.306966 
121.101135 0.237708 
121.98037 0.044406 
122.071342 3.927831 
122.940681 0.047329 
123.043922 0.104728 
123.079178 8.345789 
124.05072 0.422857 
124.075714 0.052863 
125.034523 0.274602 
125.059814 0.212809 
125.096558 0.048418 
125.961349 0.051621 
126.042374 0.613844 
126.717598 0.160437 
127.032539 0.649 
127.050255 0.206389 
128.96373 0.180551 
129.05452 0.073173 
129.102295 0.672116 
130.065201 99.134514 
130.159012 0.261045 
130.979477 0.683195 
131.000641 0.044626 
131.06842 1.670845 
131.07312 6.345763 
131.085297 0.284891 
132.055756 0.19674 
132.06813 0.072128 
132.080688 2.137302 
133.039795 1.911736 
133.064514 0.270123 
133.085983 0.333525 
133.101181 0.214877 
133.958878 0.05334 
134.034897 0.059989 
134.047668 0.338953 
134.071609 0.143584 
134.261124 0.050312 
134.956177 3.584118 
135.055588 0.049166 
135.066833 0.048694 
135.080215 0.32971 
135.091705 0.140032 
136.050629 2.307864 
136.07579 7.774463 
136.617249 0.085767 
136.952942 0.047179 
137.023376 1.327586 
137.034653 0.057538 
137.059464 0.480213 
137.071121 0.109248 
137.079071 0.871358 
138.06662 0.111485 
139.014496 0.050042 
141.029633 0.092826 
142.065323 0.882176 
142.437012 0.172962 
142.810562 0.041793 
142.979156 0.112577 
143.06041 0.075314 
143.073212 4.02049 
143.085587 0.132699 
143.215286 0.174211 
144.044327 0.052803 
144.080856 8.955618 
144.958725 0.048116 
145.015854 0.068796 
145.064682 0.052046 
145.076035 1.362373 
145.08403 0.124945 
145.101379 0.214179 
146.034882 0.877458 
146.060043 1.74154 
146.974365 3.304304 
147.043961 0.068554 
147.055298 0.459576 
147.067108 0.059894 
147.080307 0.192075 
147.091354 0.052699 
147.11702 0.107072 
147.974625 0.060136 
148.050537 2.345306 
148.075043 0.055358 
148.112656 0.052372 
148.972 1.153912 
148.990005 0.201821 
149.058853 1.429269 
149.07074 0.056764 
149.082397 0.843667 
149.096268 0.35654 
150.055527 0.062429 
150.06633 2.132053 
150.090637 0.202383 
150.951187 6.976638 
150.968781 0.045881 
151.039078 0.113027 
151.074661 0.873956 
151.086899 0.058398 
152.045456 0.525351 
152.070633 0.130127 
152.951859 0.570898 
152.966827 3.283106 
153.029602 0.122655 
153.054321 0.191946 
153.077972 0.043094 
153.744293 0.086603 
153.959274 2.157143 
154.04306 0.074537 
154.065277 1.884284 
154.071548 0.048747 
155.044952 0.176167 
155.060455 0.669311 
155.067902 0.054635 
156.068497 0.099454 
156.080856 1.870806 
157.076019 1.314504 
157.101639 0.058347 
158.060089 0.634098 
158.084076 0.387105 
158.096451 0.124021 
158.974213 0.27193 
159.009766 0.066694 
159.067886 0.050044 
159.080338 0.091188 
159.091736 1.865159 
160.050537 0.916809 
160.075592 2.206933 
160.086884 0.38739 
160.112106 0.235148 
160.977219 3.432974 
160.98996 1.213221 
161.058792 0.753167 
161.070984 0.374079 
161.082077 0.223105 
161.096176 0.208929 
161.106888 0.04873 
161.984848 0.44052 
162.029861 5.32066 
162.042252 0.076489 
162.054535 0.063446 
162.066406 0.145644 
162.078415 0.048198 
162.09079 0.079953 
162.975281 10.509974 
162.992004 0.055002 
163.037506 0.054635 
163.049927 0.056807 
163.061478 10.208048 
163.074982 0.152446 
164.045547 4.369661 
164.064941 0.158715 
164.491486 0.043121 
164.67778 0.043273 
164.967499 0.079505 
164.987823 0.052026 
165.036636 0.092051 
165.054123 0.822518 
165.066391 0.058729 
165.077194 1.991188 
165.090576 0.223148 
165.675186 0.093037 
166.910324 0.12816 
166.966751 0.057778 
166.982346 0.132316 
167.060669 0.114478 
167.07103 0.155897 
167.106445 0.046077 
168.06871 0.299302 
168.081024 0.574734 
168.961716 2.90638 
168.969681 0.986937 
168.982559 0.051877 
169.076065 10.413099 
169.977417 2.000036 
170.047394 0.261784 
170.060226 2.290236 
170.079147 0.201349 
170.096466 0.101997 
170.961426 0.068019 
170.968506 0.305756 
170.982025 0.114055 
171.055328 7.327372 
171.063156 0.140823 
171.091614 7.647962 
171.975677 6.473313 
171.992981 0.15925 
172.058762 0.132413 
172.075699 0.697643 
172.311798 0.159334 
172.977295 0.594984 
173.070908 0.066003 
173.095993 0.150041 
173.107422 0.172884 
174.029968 1.127221 
174.055145 0.367713 
174.091629 0.254454 
174.975418 0.765806 
174.990219 0.365316 
175.037994 0.182792 
175.061584 0.977136 
175.0746 0.591498 
175.086685 0.069773 
175.122925 0.542519 
176.045486 2.703793 
176.069992 1.078686 
176.107056 1.263284 
176.987656 0.88909 
177.005249 0.081093 
177.053604 5.398358 
177.064438 0.057083 
177.067291 0.06385 
177.077209 14.207413 
177.090881 0.542725 
177.992661 0.067788 
178.061218 4.869158 
178.070221 0.082347 
178.085251 2.6196 
178.978256 0.051275 
179.056747 0.209531 
179.069763 0.398427 
179.081863 0.552782 
180.994095 0.064807 
181.076508 0.527841 
181.088638 0.853126 
182.038742 0.062168 
182.060059 0.215197 
182.096725 0.076247 
182.962006 0.175659 
182.976517 0.120305 
183.055603 0.620047 
183.079224 0.436662 
183.091812 0.423281 
183.104401 0.244548 
184.0634 0.245072 
184.075562 0.176503 
184.087311 0.051039 
184.11203 0.293938 
184.989594 0.132907 
185.061981 0.089885 
185.071136 6.868855 
185.080048 0.065202 
185.107407 0.299517 
185.94928 1.322845 
186.054901 0.132323 
186.074799 0.215334 
186.091675 0.150149 
186.127762 0.080376 
186.980194 7.854607 
186.989197 0.066914 
187.049622 0.054451 
187.061981 0.202867 
187.086319 0.667786 
187.12294 0.21417 
187.988113 25.141384 
188.045258 0.116888 
188.070816 0.590243 
188.107025 1.376856 
188.97818 9.33298 
188.992386 7.631341 
189.004883 0.258932 
189.053497 7.828985 
189.077286 0.204696 
189.090912 0.142482 
189.110641 0.051301 
189.986282 60.891621 
190.061005 0.158725 
190.086639 0.107682 
190.123001 0.159137 
190.991013 2.736892 
191.001022 0.411475 
191.032684 0.188482 
191.056503 17.389353 
191.071075 0.400785 
191.081375 0.061141 
191.1064 0.381687 
191.880463 0.335293 
192.064331 32.808681 
192.10202 0.057078 
192.173492 0.056059 
192.961914 1.445381 
193.072098 61.262844 
194.076324 0.091795 
194.09671 0.168062 
194.873398 0.083269 
195.055557 4.521449 
195.064865 0.07543 
195.078979 0.052589 
196.062012 0.383863 
196.086655 0.355159 
196.112137 1.719572 
196.458679 0.048869 
196.988373 0.308271 
197.071259 3.5432 
198.066299 0.170463 
198.127792 7.258455 
198.968857 0.078791 
199.050644 0.49123 
199.076248 0.052968 
199.086761 2.243736 
199.131256 1.573284 
199.98143 0.301368 
200.058456 0.199654 
200.081818 0.069113 
200.971695 0.209527 
201.036591 0.053309 
201.065582 0.171451 
201.090805 0.120189 
201.101532 0.066002 
201.111572 0.057554 
201.138336 0.057467 
202.086334 0.487764 
203.056442 2.022826 
203.107071 0.112839 
204.001709 0.106645 
204.064514 6.499174 
204.074371 0.106633 
204.102066 0.855123 
204.962463 0.229294 
205.07222 99.476784 
205.98819 0.072578 
206.080063 100.0 
206.506317 0.19021 
206.977798 0.1712 
207.051483 3.537921 
207.087997 0.06316 
207.875992 0.133339 
208.017517 0.706526 
208.057983 0.712316 
208.086853 0.860773 
208.097168 0.398282 
208.111008 0.050671 
208.883698 1.261699 
209.049271 0.544269 
209.071198 0.371432 
209.095001 0.215247 
209.891922 1.154282 
210.066483 1.832335 
210.102737 3.399212 
210.127884 0.880698 
210.972244 0.826621 
211.074341 7.485331 
211.086044 0.129295 
211.975906 0.056761 
212.080399 0.456892 
212.107132 0.531556 
212.14357 0.233847 
213.038391 18.412363 
213.065857 4.306169 
213.7547 2.319656 
213.759338 2.454404 
214.04628 30.892239 
214.070251 0.212109 
214.085876 0.116832 
214.122894 3.331161 
215.05191 2.473062 
215.081467 0.26382 
215.126541 0.174405 
216.890106 0.058434 
217.073395 0.051626 
217.085861 0.115872 
218.081375 0.64663 
218.86882 0.106431 
219.17453 1.889939 
220.086853 0.582718 
221.047745 0.056344 
221.069458 0.112254 
222.042313 0.827653 
222.090637 0.068183 
222.102264 0.245814 
222.898499 0.276108 
223.05043 2.055284 
223.087097 0.08693 
223.123001 0.057928 
223.975433 0.078257 
224.058121 1.293036 
224.069656 0.123559 
224.08194 0.583922 
224.879211 0.12264 
224.983841 0.548432 
225.065475 0.247836 
225.886459 0.377335 
226.060959 0.293721 
226.097855 0.457332 
226.894562 0.179502 
227.070526 0.079323 
227.081726 0.694031 
228.053589 0.067632 
228.07666 2.179745 
229.081116 0.161452 
229.09787 0.087833 
230.081299 0.417878 
230.092789 0.491896 
230.117447 0.642251 
231.051666 0.077241 
231.085785 0.067556 
232.883362 0.559304 
232.959824 0.744963 
233.165054 0.060092 
233.891479 2.764663 
234.090042 0.680855 
234.102585 0.285471 
234.899567 5.592054 
234.992722 1.903095 
235.02832 0.052257 
235.09726 0.362582 
235.109222 0.06195 
235.900497 0.18326 
236.080978 0.162767 
236.990982 0.721284 
237.04425 5.340711 
237.076889 0.133977 
237.099472 0.147232 
237.113937 0.218733 
237.13916 0.1368 
237.991043 0.066699 
238.050385 0.643125 
238.060577 4.999021 
238.071671 0.849097 
238.09729 0.14254 
238.914032 0.049531 
239.059189 8.617728 
239.092529 0.052901 
240.076752 1.306798 
240.137878 0.086045 
240.909668 0.807119 
241.085083 0.175341 
242.092453 1.996519 
242.992798 0.053566 
243.096359 0.461626 
244.141495 0.097175 
245.305176 0.107494 
247.098068 0.561596 
248.081757 0.095606 
248.10379 0.224334 
248.878326 0.911312 
248.899231 0.081591 
248.983521 0.066175 
249.098953 0.142665 
249.112839 0.344135 
249.886185 0.057754 
250.061142 0.055306 
250.098572 0.074643 
250.894196 4.019174 
250.970505 0.479903 
251.071167 0.058483 
251.092789 0.121575 
251.896332 0.072319 
252.076797 0.857408 
252.894302 0.12208 
252.909256 0.081082 
253.0867 0.333159 
253.902374 2.36875 
253.917206 0.386914 
253.974243 0.877517 
254.056107 0.612563 
254.091904 0.85393 
255.065765 0.05745 
255.08783 0.352152 
256.95929 0.096805 
257.08075 0.06353 
257.889618 0.053221 
258.899445 1.841048 
259.12262 0.049722 
260.093445 1.162422 
261.077118 0.701533 
261.113068 0.624164 
262.083832 0.255422 
262.893982 0.067749 
262.913452 0.133291 
263.092682 0.661363 
264.076874 0.116968 
264.09967 0.050733 
264.910004 0.21211 
265.002014 1.922756 
265.07193 0.055784 
266.056244 9.859932 
266.09201 0.159377 
266.888794 0.827372 
267.063629 4.835962 
268.070251 0.22631 
268.108215 0.053764 
268.904358 0.132406 
268.994293 0.303434 
269.080627 0.166652 
270.087219 0.479048 
271.098633 1.25774 
272.165375 0.13513 
273.11438 1.202971 
273.97403 0.190682 
274.894135 0.534131 
274.970062 6.212614 
275.092743 0.791711 
275.902008 1.688751 
275.971985 0.289901 
276.099396 0.231911 
276.125977 0.061805 
276.876038 0.04976 
276.909851 16.206516 
276.98587 0.400991 
277.093933 0.063589 
277.109222 0.239023 
277.911621 1.217762 
278.056366 0.348098 
278.164337 0.064963 
278.907288 0.056409 
279.087494 0.851607 
280.073151 0.225515 
280.108643 0.065752 
281.101135 0.070549 
281.12442 0.057789 
282.08667 0.532467 
282.279114 1.65811 
282.920074 0.114523 
282.968323 0.137043 
283.031586 0.116221 
284.039429 0.399668 
285.047394 1.232877 
285.074524 0.174672 
286.078217 0.079287 
288.087891 1.804315 
289.092072 0.066644 
289.108398 0.14355 
291.086761 0.071179 
291.109222 0.058667 
291.12558 3.047644 
291.897339 0.357006 
291.983521 0.437191 
292.123932 0.064895 
292.128815 0.069368 
292.981049 2.287153 
292.998016 5.15879 
293.089844 0.061673 
293.123688 0.049804 
293.933594 0.057863 
294.001892 6.227657 
294.0513 0.464199 
294.124207 0.06407 
294.996124 20.53981 
295.058685 4.290063 
295.91156 0.246959 
295.928131 1.099555 
296.001953 4.194791 
296.063019 0.367922 
296.11557 0.083113 
297.006042 0.066484 
297.815094 0.060558 
297.928589 0.069813 
298.009979 0.207186 
298.984985 0.296945 
299.988495 0.163137 
300.909912 0.296425 
300.983093 2.078416 
302.103455 0.10639 
303.087402 0.136415 
304.92511 0.119337 
305.103485 0.472289 
306.098633 0.613256 
308.937775 0.065219 
309.018829 0.28733 
310.309387 0.140138 
310.915253 0.074438 
312.876709 0.172122 
314.021362 0.800957 
315.012024 0.06136 
316.02063 0.131031 
318.92099 1.552711 
319.104431 0.14135 
320.114227 2.798556 
321.11734 0.404313 
321.836639 0.119829 
322.014343 0.353463 
322.129974 48.50515 
322.152252 0.641408 
323.022247 2.322708 
324.010895 0.287356 
325.01944 0.684171 
326.087708 0.250673 
327.076416 0.06103 
329.11911 0.182685 
331.135406 0.789867 
331.155884 0.064377 
332.114685 1.349239 
332.156555 0.051173 
333.118347 2.44754 
333.151764 1.721705 
333.171753 0.087132 
334.130066 13.269145 
334.169922 0.433178 
335.137817 10.561823 
335.166565 0.749863 
336.185455 0.199357 
336.838959 0.070704 
336.930969 0.071189 
342.0961 0.114112 
342.118073 0.25609 
342.851624 0.105555 
344.112823 2.794798 
344.829346 0.060447 
346.32019 0.194778 
348.109283 0.399788 
348.146637 0.141671 
350.010101 29.534847 
350.161224 0.079715 
351.016266 44.369633 
351.128723 2.60904 
351.1633 0.091742 
352.006317 40.751812 
353.014191 18.442553 
353.839478 0.059898 
354.02121 2.735711 
354.135742 0.196097 
355.845001 0.062328 
356.114441 0.093719 
360.838959 0.065462 
362.840393 0.523594 
366.102173 0.477706 
366.156525 2.893563 
367.128052 6.381937 
367.157501 0.299016 
368.11792 4.803993 
369.02533 0.130583 
370.016998 0.164541 
375.826508 0.122407 
378.743408 0.059439 
378.851715 0.053984 
379.730988 0.168506 
379.85965 0.050419 
381.02356 0.050518 
381.857025 0.351567 
382.019379 0.212702 
383.026459 0.510155 
384.84082 0.103876 
386.840424 0.092199 
389.955109 0.205361 
397.022003 0.056787 
399.132782 0.167204 
402.851746 0.502547 
404.478973 0.075603 
404.849792 3.534881 
410.031586 3.878538 
410.471191 0.07549 
411.034576 6.309159 
412.02887 13.679221 
412.174805 9.666907 
412.207672 0.099282 
413.032532 1.987837 
413.177979 2.205593 
413.324097 0.219259 
414.155701 0.132144 
414.375092 0.079146 
420.86087 1.166991 
421.862183 0.20696 
422.86203 0.112023 
428.040741 0.11816 
429.045166 0.333465 
430.039581 1.516755 
431.041504 0.067005 
438.87085 0.069146 
439.868866 0.051694 
END IONS

