BEGIN IONS
PEPMASS=321.005
CHARGE=1+
COMPOUNDNAME=Chloramphenicol
LIBRARYQUALITY=3
SMILES=N/A
INCHIKEY=WIIZWVCIJKGZOK-RKDXNWHRSA-N
INCHI=InChI=1S/C11H12Cl2N2O5/c12-10(13)11(18)14-8(5-16)9(17)6-1-3-7(4-2-6)15(19)20/h1-4,8-10,16-17H,5H2,(H,14,18)/t8-,9-/m1/s1
MSLEVEL=2
SOURCE_INSTRUMENT=N/A-ESI-QFT
FILENAME=library_mgf.mgf
SEQ=*..*
IONMODE=negative
ORGANISM=MONA
NAME=Chloramphenicol [M-H]-
PI=MoNA
DATACOLLECTOR=MoNA:VF-NPL-QEHF000407
PUBMED=N/A
SUBMITUSER=mwang87
TAGS=
SPECTRUMID=CCMSLIB00004691470
SCANS=407
50.267426 0.108781 
50.323517 0.150352 
50.324886 0.1176 
50.873871 0.12971 
51.613602 0.131223 
53.697491 0.156445 
53.836124 0.113995 
54.275528 0.094649 
54.752377 0.150824 
55.804291 0.126532 
56.012985 0.127688 
56.453979 0.073497 
56.865719 0.109459 
58.095711 0.104411 
58.276997 0.121169 
58.550217 0.073841 
59.443466 0.085089 
60.171379 0.176821 
60.734718 0.101537 
61.683834 0.13154 
61.912315 0.172119 
61.987026 0.298935 
63.377319 0.156239 
63.493504 0.074796 
63.494877 0.118853 
63.813793 0.153411 
64.207642 0.129067 
64.512032 0.121058 
66.699585 0.151241 
66.728874 0.158523 
70.834229 0.133802 
71.038544 0.150986 
71.231041 0.095346 
72.713692 0.161308 
74.264877 0.10731 
74.352791 0.109119 
74.372871 0.142498 
74.800751 0.078174 
74.989388 0.925652 
78.03363 10.412362 
78.050476 0.113696 
78.704514 0.151972 
79.793892 0.116017 
81.689819 0.172603 
81.77652 0.139532 
82.765373 0.143215 
82.944733 5.701977 
83.308739 0.139552 
84.007812 2.173541 
84.207733 0.142792 
84.941841 2.896375 
88.674606 0.144648 
88.829155 0.108993 
89.441322 0.115867 
90.399498 0.138419 
91.020706 4.356282 
92.45649 0.137852 
92.999748 0.153019 
93.138344 0.154487 
93.193947 0.084684 
93.511757 0.189061 
94.009506 0.108562 
96.95919 0.165089 
97.125313 0.129702 
99.058258 0.09097 
99.323959 0.102892 
100.112366 0.158702 
100.518127 0.079604 
100.830048 0.147119 
101.194206 0.138797 
103.658646 0.182305 
104.5215 0.125301 
105.021072 0.10894 
106.028564 0.680834 
106.326424 0.125354 
106.713791 0.087558 
106.838737 0.115512 
107.313438 0.143216 
108.24646 0.104308 
110.667519 0.100095 
110.750061 0.143956 
111.311066 0.160468 
111.98484 0.141294 
112.554466 0.079558 
115.133011 0.152033 
119.523476 0.144336 
119.84214 0.160719 
119.884216 0.130334 
120.019836 0.149175 
121.023712 0.670861 
121.028336 66.185585 
121.11628 0.132579 
121.564056 0.11737 
122.023544 3.336435 
122.031601 4.060568 
123.712906 0.121919 
124.893684 0.133328 
125.910042 0.078891 
126.934761 1.008746 
127.758224 0.145554 
127.845634 0.138369 
128.931808 0.621205 
135.031174 0.192142 
135.291672 0.15737 
135.61673 0.169782 
136.367813 0.124247 
136.69223 0.154844 
145.944702 0.149876 
146.036469 0.163336 
146.100021 0.116395 
148.039368 9.590824 
148.44574 0.114535 
150.018082 0.085107 
150.437439 0.141837 
151.026459 63.295315 
151.693939 0.078112 
152.034332 100.0 
152.876877 0.148323 
153.037598 7.934917 
153.389328 0.141614 
154.492752 0.124115 
154.878067 0.157772 
155.456024 0.13611 
158.071671 0.130123 
159.031494 2.434936 
160.250076 0.156587 
161.03479 0.513212 
161.776962 0.162852 
163.332581 0.175203 
164.057663 0.078829 
166.013779 0.215598 
166.572983 0.107385 
169.071655 0.157995 
170.003098 0.153165 
176.034622 6.998416 
176.52742 0.133359 
177.038269 0.187604 
178.74646 0.157389 
179.045349 1.465736 
183.011368 11.667015 
184.01889 0.20255 
187.42778 0.13588 
195.666489 0.177555 
197.026794 0.133854 
198.077545 0.150272 
198.818939 0.138209 
200.244827 0.175737 
201.145538 0.091816 
202.668808 0.156892 
209.580658 0.173703 
213.167618 0.148681 
213.401474 0.176773 
215.907974 4.799851 
215.922043 0.625508 
221.239822 0.148406 
228.669266 0.148448 
232.08873 0.22803 
232.12529 0.171078 
233.451035 0.130182 
237.701721 0.088206 
240.165222 0.141392 
247.590576 0.086609 
248.959991 0.111656 
251.807114 0.147566 
254.860794 0.118645 
256.934937 0.117988 
259.127258 0.123873 
260.857452 0.169633 
272.147675 0.14163 
286.446777 0.157945 
286.7854 0.11559 
290.203644 0.147674 
292.174774 0.103292 
297.152802 0.905325 
309.594513 0.17655 
311.16922 8.077715 
312.171448 1.030246 
321.488647 0.138351 
325.184113 10.793303 
326.187531 0.60178 
327.707581 0.126493 
339.199768 4.208091 
344.077911 0.118266 
346.655914 0.129929 
358.176453 0.113082 
358.405701 0.132038 
END IONS

