BEGIN IONS
PEPMASS=540.0
CHARGE=1+
COMPOUNDNAME=Massbank:KO002240 Apramycin sulfate|Apramycin
LIBRARYQUALITY=3
SMILES=OC[C@@H](O1)[C@@H](N)[C@H](O)[C@@H](O)[C@H]1O[C@H](O2)[C@@H](NC)[C@@H](O)[C@@H](O3)[C@@H](C[C@@H](N)[C@@H](O[C@H]([C@@H](N)4)[C@H](O)[C@@H](O)[C@H](N)C4)3)2
INCHIKEY=XZNUGFQTQHRASN-UXNWEDNLSA-N
INCHI=1S/C21H41N5O11/c1-26-11-14(30)18-8(33-20(11)37-21-16(32)13(29)10(25)9(4-27)34-21)3-7(24)19(36-18)35-17-6(23)2-5(22)12(28)15(17)31/h5-21,26-32H,2-4,22-25H2,1H3/t5-,6+,7-,8-,9-,10-,11+,12+,13+,14-,15-,16-,17-,18+,19+,20+,21-/m1/s1
MSLEVEL=2
SOURCE_INSTRUMENT=ESI-LC-ESI-QQ
FILENAME=Massbank_ESI_positive_8_1_2014_peaks.mgf
SEQ=*..*
IONMODE=Positive
ORGANISM=MASSBANK
NAME=Massbank:KO002240 Apramycin sulfate|Apramycin [M+H]+
PI=Putative Massbank Match
DATACOLLECTOR=Massbank
PUBMED=N/A
SUBMITUSER=mwang87
TAGS=
SPECTRUMID=CCMSLIB00000216971
SCANS=8042
96.2 59406.0 
110.2 34653.5 
111.0 44554.5 
128.0 74257.5 
135.3 19802.0 
161.9 99010.0 
163.4 559406.5 
169.4 79208.0 
170.2 84158.5 
170.6 34653.5 
175.4 29703.0 
180.1 227723.0 
181.4 118812.0 
182.2 108911.0 
187.1 39604.0 
193.1 24752.5 
199.4 891090.0 
199.8 84158.5 
201.3 84158.5 
205.1 19802.0 
217.4 3732677.0 
230.1 69307.0 
243.2 54455.5 
244.9 24752.5 
254.5 29703.0 
257.0 29703.0 
271.4 707921.5 
282.7 14851.5 
308.4 84158.5 
312.6 84158.5 
312.9 89109.0 
323.7 49505.0 
325.8 49505.0 
326.5 183168.5 
330.6 69307.0 
343.3 212871.5 
344.5 970298.0 
360.4 34653.5 
361.5 495050.0 
362.4 316832.0 
378.6 2821785.0 
523.5 267327.0 
540.6 386139.0 
END IONS

