BEGIN IONS
PEPMASS=268.1
CHARGE=0+
COMPOUNDNAME=ADENOSINE
LIBRARYQUALITY=1
SMILES=C1=NC2=C(C(=N1)N)N=CN2C3C(C(C(O3)CO)O)O
INCHIKEY=OIRDTQYFTABQOQ-UHFFFAOYSA-N
INCHI=N/A
MSLEVEL=2
SOURCE_INSTRUMENT=LC-ESI-Q-Exactive Plus
FILENAME=IROA_PLATE_pos_4_B.mzXML
SEQ=*..*
IONMODE=Positive
ORGANISM=GNPS-EMBL-MCF
NAME=ADENOSINE M+H
PI=Alexandrov Theodore
DATACOLLECTOR=Prasad
PUBMED=60961
SUBMITUSER=pphapale
TAGS=
SPECTRUMID=CCMSLIB00000578029
SCANS=452
55.018627 67607.179688 
55.029922 7978.321777 
56.856396 7013.170898 
57.034248 151167.484375 
61.029129 13498.130859 
65.096024 7018.822754 
66.021721 8487.048828 
66.896126 7779.149414 
68.312569 8169.258301 
69.034042 47884.769531 
71.013298 19070.662109 
72.977547 16683.882812 
73.028999 100417.054688 
85.028778 106413.632812 
87.044373 16835.800781 
93.313087 6886.558594 
94.040489 7305.807129 
97.028679 54144.191406 
103.039078 32577.25 
115.039062 161535.71875 
119.035065 33540.832031 
119.629318 8374.986328 
133.049301 119194.882812 
136.01033 50148.007812 
136.061569 37169252.0 
136.115997 46650.804688 
137.058533 79127.742188 
137.064789 172569.59375 
268.103424 961156.1875 
268.213226 12211.568359 
268.249207 8930.717773 
277.045593 8343.442383 
END IONS

