BEGIN IONS
PEPMASS=321.133
CHARGE=1+
COMPOUNDNAME=Massbank:EA280813 Mycophenolic acid| (E)-6-(4-hydroxy-3-keto-6-methoxy-7-methyl-phthalan-5-yl)-4-methyl-hex-4-enoic acid
LIBRARYQUALITY=3
SMILES=c12c(c(c(C\C=C(\CCC(O)=O)C)c(c1C)OC)O)C(=O)OC2
INCHIKEY=HPNSFSBZBAHARI-RUDMXATFSA-N
INCHI=1S/C17H20O6/c1-9(5-7-13(18)19)4-6-11-15(20)14-12(8-23-17(14)21)10(2)16(11)22-3/h4,20H,5-8H2,1-3H3,(H,18,19)/b9-4+
MSLEVEL=2
SOURCE_INSTRUMENT=ESI-LC-ESI-ITFT
FILENAME=Massbank_ESI_positive_8_1_2014_peaks.mgf
SEQ=*..*
IONMODE=Positive
ORGANISM=MASSBANK
NAME=Massbank:EA280813 Mycophenolic acid| (E)-6-(4-hydroxy-3-keto-6-methoxy-7-methyl-phthalan-5-yl)-4-methyl-hex-4-enoic acid [M+H]+
PI=Putative Massbank Match
DATACOLLECTOR=Massbank
PUBMED=N/A
SUBMITUSER=mwang87
TAGS=
SPECTRUMID=CCMSLIB00000211266
SCANS=5229
53.0386 4202.7 
65.0386 5478.8 
67.0542 3353.9 
77.0386 185181.8 
79.0543 13509.7 
81.0699 10974.1 
89.0386 1998.4 
91.0542 476521.1 
93.0699 7169.0 
95.0491 15453.6 
102.0465 12582.6 
103.0543 536693.7 
105.0334 4656.1 
105.0447 59705.5 
105.0698 8716.8 
107.0492 3594.9 
108.0571 2655.5 
115.0544 4187.8 
117.0335 29974.2 
117.07 2384.6 
119.0857 2877.0 
121.0647 10125.8 
128.062 2590.7 
131.0491 122270.5 
133.0647 4014.7 
135.0805 12297.7 
136.052 8350.5 
139.0752 2470.7 
142.0777 2797.3 
145.0648 12336.2 
147.0439 2762.5 
149.0597 19058.5 
159.044 889445.0 
161.0597 4956.3 
163.0392 5320.8 
171.0809 1698.5 
173.0605 2510.3 
175.0753 4293.7 
177.0546 91474.4 
179.0702 30517.0 
195.0646 3738.7 
207.0651 30513.0 
215.1059 1743.3 
241.0857 4285.7 
END IONS

