BEGIN IONS
PEPMASS=281.042
CHARGE=1+
COMPOUNDNAME=norlichexanthone
LIBRARYQUALITY=3
SMILES=N/A
INCHIKEY=AQZHBCDRWFMXIN-UHFFFAOYSA-N
INCHI=InChI=1S/C14H10O5/c1-6-2-7(15)4-10-12(6)14(18)13-9(17)3-8(16)5-11(13)19-10/h2-5,15-17H,1H3
MSLEVEL=2
SOURCE_INSTRUMENT=N/A-ESI-QFT
FILENAME=library_mgf.mgf
SEQ=*..*
IONMODE=positive
ORGANISM=MONA
NAME=norlichexanthone [M+Na]+
PI=MoNA
DATACOLLECTOR=MoNA:VF-NPL-QEHF017951
PUBMED=N/A
SUBMITUSER=mwang87
TAGS=
SPECTRUMID=CCMSLIB00004709014
SCANS=17951
50.100079 0.034975 
50.135082 0.033191 
50.529388 0.028544 
51.216457 0.038371 
51.362946 0.026959 
51.381802 0.027411 
51.699337 0.032415 
51.873363 0.035816 
51.940395 0.063752 
53.038937 0.028716 
53.684689 0.030536 
53.760403 0.02968 
53.926846 0.042523 
54.745281 0.039576 
54.907684 0.033189 
55.009193 0.031257 
55.018185 0.09617 
55.054562 1.806394 
55.934681 0.112182 
56.049812 0.227369 
56.835934 0.045483 
56.965069 2.218956 
57.033817 0.206867 
57.07019 3.646986 
57.206078 0.029305 
58.06543 14.360714 
59.049416 0.328638 
59.068745 0.166629 
59.634998 0.033906 
59.854912 0.030409 
60.044811 0.031235 
61.010899 100.0 
61.639626 0.029341 
61.803017 0.027936 
61.974117 0.03833 
62.010277 1.208964 
62.01421 3.608215 
62.018681 2.189275 
62.587292 0.033614 
62.912292 0.035071 
62.990204 0.053852 
63.006638 7.103833 
63.709366 0.033279 
63.730682 0.036096 
63.997887 0.186303 
64.592415 0.027407 
64.939453 0.030287 
65.932915 0.027659 
66.524384 0.03361 
66.630577 0.041807 
66.77626 0.027128 
67.054367 3.730984 
67.437386 0.026752 
67.717522 0.029886 
68.05732 0.031479 
68.377609 0.037746 
68.997246 0.181407 
69.033607 0.657416 
69.069977 3.461009 
69.616257 0.024857 
69.878014 0.031181 
70.065239 1.274892 
70.81115 0.030024 
70.980507 0.354438 
71.049248 0.508084 
71.085617 0.761634 
71.641975 0.033499 
71.92926 0.049252 
72.044495 0.203963 
72.078758 0.053842 
72.080841 2.548265 
72.608521 0.031193 
72.712646 0.05192 
73.028191 0.03963 
73.046875 3.514243 
73.06485 1.404454 
73.274406 0.033106 
73.714897 0.029642 
74.023705 0.106516 
74.046532 0.030131 
74.060036 0.092102 
74.535751 0.040683 
74.584282 0.027046 
75.026077 0.032818 
75.044159 0.736634 
76.319054 0.034374 
77.005692 0.041541 
77.29586 0.032925 
77.968971 0.059637 
78.013466 0.074112 
78.952126 0.315701 
79.021263 6.71634 
79.046516 0.037918 
79.054291 1.076262 
80.057709 0.041466 
80.250755 0.027953 
80.949059 1.911421 
81.016953 0.040974 
81.033661 0.041633 
81.069954 3.035743 
81.187492 0.041162 
81.814034 0.0278 
82.065331 0.039314 
82.586182 0.027678 
82.947876 0.524253 
83.049171 0.630123 
83.085526 0.951648 
84.016205 0.040146 
84.044456 0.175691 
84.080811 0.616869 
85.028549 0.118427 
85.064804 0.570602 
85.101357 0.091199 
85.336411 0.045633 
85.508636 0.036652 
86.060066 0.40958 
86.096497 5.011158 
87.044136 2.306662 
87.068207 0.03771 
87.099838 0.059902 
87.842674 0.029337 
88.07576 1.924189 
88.695282 0.035597 
88.991158 0.108279 
89.059769 25.007113 
90.947693 0.37786 
91.054375 0.854947 
91.057396 8.39552 
92.056915 0.111439 
92.060936 0.026967 
92.079468 0.032271 
92.581543 0.037656 
92.834457 0.040292 
93.036674 0.07571 
93.069931 7.440692 
93.116577 0.030646 
93.577507 0.033238 
93.786087 0.029706 
94.065117 0.0324 
94.79818 0.032875 
95.049286 0.075202 
95.085564 21.800161 
95.915726 0.03059 
96.08078 0.035609 
96.088905 1.217564 
97.064812 0.704627 
97.101212 0.212709 
97.518158 0.029492 
98.518326 0.026654 
98.959671 0.094608 
98.975365 2.584815 
99.044563 0.0364 
99.0802 0.071815 
99.440498 0.024478 
99.905258 0.028876 
100.050644 0.041071 
100.075653 0.035107 
100.647057 0.031667 
100.650406 0.02996 
101.00322 0.123049 
101.059837 0.029721 
103.038971 0.271543 
104.00354 0.037898 
104.992355 0.71472 
105.033577 0.719873 
105.069916 0.880142 
105.917068 0.723178 
107.070236 0.089196 
107.085594 10.377288 
107.398651 0.043652 
108.088699 0.084762 
108.95845 0.033046 
109.064873 0.306535 
109.101181 1.179073 
109.958138 0.032667 
110.060089 2.370452 
110.067192 0.024317 
110.73175 0.029041 
111.044006 0.0283 
111.063538 0.032985 
111.080544 0.027511 
112.075897 0.02603 
114.091225 0.038139 
114.127876 0.323307 
115.006424 0.028363 
116.950668 0.043929 
116.985954 2.217191 
117.91687 0.103083 
118.800911 0.025588 
118.925087 0.098753 
119.001488 0.035883 
119.08564 1.252458 
119.578613 0.042617 
120.080849 2.812606 
120.644699 0.037274 
121.064842 0.54461 
121.083771 0.046907 
121.101257 2.712304 
122.060043 0.739984 
122.327393 0.030992 
122.941673 0.03779 
123.080467 0.414497 
123.116951 0.163005 
123.927933 0.030269 
124.93924 0.106256 
125.059776 1.165054 
125.095917 0.036835 
125.107468 3.599524 
125.946609 0.043357 
126.111038 0.034879 
127.086632 1.070044 
127.908211 0.19699 
128.089188 0.036085 
128.934036 0.184806 
129.018036 0.043374 
130.931259 0.025204 
131.001022 0.041629 
131.08548 0.240568 
132.10199 0.121778 
133.017212 1.106458 
133.085907 1.812051 
133.101212 0.292266 
133.948242 0.034008 
133.985733 0.031912 
134.060349 0.033975 
134.09671 0.068694 
134.978729 0.365705 
134.996506 1.412769 
135.080399 2.782607 
135.116791 0.575677 
135.927704 0.636892 
136.075882 0.857678 
136.111969 0.152405 
137.012085 0.071911 
137.635941 0.038869 
137.995605 0.041353 
138.012726 0.028743 
138.915604 0.08252 
139.008774 0.027082 
139.038986 0.550507 
139.075012 0.031831 
140.912949 0.34787 
140.951874 0.041592 
141.054688 0.21413 
141.942368 0.177347 
142.654526 0.02483 
142.9133 0.066356 
142.949585 0.590563 
143.939514 1.854472 
144.378082 0.032988 
144.940826 0.097986 
144.947495 0.093325 
145.100967 0.07027 
145.938309 0.357045 
145.966568 0.776351 
146.060486 0.032205 
146.924896 0.031426 
146.955841 0.035372 
146.97435 0.093117 
147.080154 0.041225 
147.11676 0.92971 
148.075668 0.032483 
149.012558 0.080914 
149.0233 0.422906 
149.096085 0.300092 
149.132538 6.647839 
150.027023 0.044788 
150.091629 0.102617 
150.136444 0.036124 
150.969131 0.038252 
151.027954 0.416349 
151.677048 0.047716 
151.958878 1.026543 
152.070618 0.030144 
152.951721 0.032114 
152.989304 0.456255 
153.005508 0.404039 
153.054688 0.319919 
153.091141 0.580363 
153.938568 0.510823 
153.955017 0.041721 
154.93158 0.218149 
155.936417 0.397327 
156.138382 3.702443 
156.966003 4.185331 
157.969452 0.581288 
158.923355 0.078539 
158.944366 0.363697 
158.954468 0.537771 
158.962784 20.709969 
158.976379 0.654548 
159.117004 0.027312 
159.281769 0.041392 
159.951996 0.371377 
159.963928 2.721226 
159.976578 0.188328 
160.941833 0.07478 
160.951736 6.957586 
160.961441 7.778448 
160.973572 0.150038 
161.132736 0.064102 
162.043991 0.429514 
162.091568 0.033202 
162.950958 1.011144 
162.958313 0.159449 
162.991531 0.066966 
163.027847 0.220475 
163.148026 2.554724 
163.959015 0.444822 
163.97699 1.85401 
164.110077 0.035268 
164.920258 0.040389 
165.938171 1.624037 
165.95462 0.069889 
166.053589 0.049732 
166.086365 0.132424 
167.106567 1.601295 
167.11792 3.105768 
170.914093 0.180906 
170.945053 0.139156 
171.949478 0.124103 
172.942108 2.291248 
173.132584 0.306603 
173.946945 0.251456 
174.940994 0.548129 
174.97525 0.24133 
175.946945 0.043387 
176.954666 0.21987 
176.970825 0.066549 
177.043243 0.151339 
177.127579 0.546093 
180.961639 2.819214 
181.969498 0.052805 
181.987823 0.247955 
181.99736 0.033557 
182.957687 0.16453 
183.948715 0.829023 
184.064529 0.044917 
185.932709 0.164553 
185.961548 0.967207 
186.091415 0.042521 
187.929092 1.545915 
187.977142 0.650846 
188.362427 0.030429 
188.924759 1.339296 
188.955353 0.085684 
189.102264 0.224134 
189.927368 0.728805 
190.225662 0.034618 
190.320679 0.034093 
190.734192 0.034488 
190.952621 1.319915 
190.967621 1.346307 
191.085892 0.158754 
191.142899 0.94251 
191.941284 0.116377 
191.975327 0.090122 
192.951492 0.322886 
195.091751 1.534909 
196.095993 0.079229 
200.955826 3.343008 
201.959167 1.245015 
202.075073 0.352011 
202.663254 0.043048 
202.952713 17.859688 
203.143433 0.044058 
203.943588 0.472856 
203.954422 2.532326 
204.102463 0.037117 
204.951614 6.452779 
205.939804 2.873026 
205.987778 5.18915 
206.118164 0.07463 
206.941833 0.166549 
206.977264 0.144484 
206.988281 0.279495 
207.938599 0.935772 
208.133194 1.234057 
208.206818 0.042644 
212.42984 0.028361 
215.497391 0.807034 
215.503952 1.015918 
218.966278 2.322465 
218.97998 0.388536 
219.056915 1.040108 
219.08046 0.453654 
219.174515 2.234255 
219.969238 0.765553 
219.98082 0.140574 
220.060852 0.09759 
220.168945 0.31999 
220.674438 0.051319 
220.963272 11.362129 
221.033951 0.054091 
221.088943 0.028575 
221.115082 0.032345 
221.153534 0.053502 
221.964783 1.582965 
222.076706 0.088888 
222.962021 4.247298 
225.042892 1.194177 
226.915314 0.035928 
227.963181 0.034264 
229.001419 0.173919 
234.149078 0.550509 
234.978958 0.182382 
238.952789 0.033574 
238.969696 0.036539 
239.081604 0.318612 
240.23082 0.029509 
246.602829 0.029823 
247.268814 0.03971 
249.090988 2.83474 
249.146332 0.344083 
249.346222 0.03472 
250.095612 0.25716 
250.177856 14.828859 
251.005814 0.02799 
251.181 0.720242 
252.420959 0.037429 
252.9841 0.221519 
254.962723 0.655728 
255.89093 0.040514 
264.100433 0.033189 
265.019897 1.515154 
265.122589 0.030877 
266.019592 0.029522 
266.106628 0.045918 
266.999084 12.706447 
267.76535 0.025835 
267.999359 2.711094 
268.979004 3.998494 
268.995239 1.356839 
269.014008 2.875066 
270.014648 0.354213 
270.242615 0.034235 
270.993927 3.77625 
273.754089 0.028996 
275.039551 0.070257 
279.093231 0.498189 
280.097687 0.195434 
280.117737 1.062922 
280.152435 0.055283 
280.226379 0.076057 
280.263245 0.259058 
281.014648 1.116447 
281.050934 1.012937 
281.117157 0.409297 
281.149109 0.054647 
281.17215 1.433153 
281.29538 0.154852 
282.013184 0.032061 
282.052185 0.035946 
282.137085 0.557653 
282.206238 0.114479 
282.222107 0.319135 
282.242188 0.672322 
282.278809 0.128338 
282.976807 0.041448 
282.994049 4.078797 
283.030243 23.108789 
283.059418 0.062554 
284.030334 5.292438 
284.116974 0.227897 
285.010132 0.43101 
285.02771 1.644138 
288.113159 0.040686 
289.004608 0.908326 
296.18277 0.045389 
297.046082 0.033618 
298.537659 0.035489 
299.061584 15.458176 
300.06189 4.1894 
300.148163 1.370665 
300.96048 0.040619 
300.982391 0.196729 
301.05899 1.508301 
END IONS

