BEGIN IONS
PEPMASS=324.172
CHARGE=1+
COMPOUNDNAME=ERGONOVINE MALEATE
LIBRARYQUALITY=3
SMILES=N/A
INCHIKEY=WVVSZNPYNCNODU-XTQGRXLLSA-N
INCHI=InChI=1S/C19H23N3O2/c1-11(10-23)21-19(24)13-6-15-14-4-3-5-16-18(14)12(8-20-16)7-17(15)22(2)9-13/h3-6,8,11,13,17,20,23H,7,9-10H2,1-2H3,(H,21,24)/t11-,13+,17+/m0/s1
MSLEVEL=2
SOURCE_INSTRUMENT=N/A-ESI-QFT
FILENAME=library_mgf.mgf
SEQ=*..*
IONMODE=negative
ORGANISM=MONA
NAME=ERGONOVINE MALEATE [M-H]-
PI=MoNA
DATACOLLECTOR=MoNA:VF-NPL-QEHF027712
PUBMED=N/A
SUBMITUSER=mwang87
TAGS=
SPECTRUMID=CCMSLIB00004721293
SCANS=27712
50.118191 0.0093 
50.298771 0.011323 
50.97496 0.008935 
51.396988 0.026111 
51.471382 0.010491 
51.500324 0.011312 
52.593864 0.008906 
53.486214 0.009759 
54.312153 0.011875 
54.440899 0.012565 
55.592991 0.009267 
56.293514 0.014169 
56.394672 0.009437 
56.503296 0.012321 
56.540035 0.009715 
56.651264 0.01407 
57.100628 0.013257 
57.664707 0.009182 
58.734913 0.010659 
58.934425 0.013992 
60.11834 0.014676 
60.441872 0.011807 
61.565636 0.011066 
61.708408 0.009798 
61.889549 0.01182 
61.96487 0.010883 
62.478626 0.011078 
62.504948 0.013069 
63.50536 0.009705 
63.638741 0.013938 
64.612724 0.011163 
65.022263 0.013654 
65.168587 0.011349 
66.175377 0.009758 
66.814957 0.014148 
67.098198 0.011186 
67.194855 0.010241 
68.046455 0.011701 
69.10408 0.009249 
69.86647 0.014007 
70.028442 0.534641 
70.842987 0.013209 
70.958603 0.010415 
71.68557 0.012263 
72.044106 0.970855 
72.432693 0.011231 
73.784912 0.010371 
74.059776 1.272063 
74.061829 0.010238 
74.926872 0.012546 
75.85083 0.012126 
76.060577 0.012384 
77.055206 0.013838 
77.160599 0.015817 
77.706917 0.019797 
78.484451 0.012367 
78.781387 0.009584 
79.696236 0.009786 
79.952438 0.010477 
80.729538 0.010738 
81.670715 0.010538 
82.080299 0.012654 
82.360199 0.01172 
84.044075 0.126553 
84.229202 0.008872 
84.440453 0.011802 
84.597275 0.009611 
86.060707 0.012837 
87.015686 0.011729 
87.601761 0.01088 
88.087486 0.012044 
93.034569 0.012448 
93.175751 0.013839 
93.335335 0.00934 
94.140717 0.009591 
94.735023 0.009727 
96.184082 0.010118 
96.958778 0.08139 
98.023392 0.013989 
98.167931 0.011917 
98.307198 0.01214 
98.383728 0.009946 
99.9244 0.010109 
100.020912 0.012727 
100.039047 0.825398 
100.154778 0.011062 
100.81308 0.012105 
101.251396 0.010242 
101.56813 0.012398 
101.655342 0.013085 
101.785767 0.01238 
102.054688 0.040846 
102.292122 0.011908 
103.747086 0.011101 
104.051712 0.011585 
105.150513 0.010862 
107.678436 0.013204 
108.20192 0.011036 
109.565247 0.012877 
109.748772 0.010186 
111.692154 0.013019 
111.974724 0.011472 
113.580994 0.010234 
114.40876 0.00984 
115.166016 0.009264 
115.52182 0.015457 
115.922852 0.012798 
116.422188 0.010187 
116.578674 0.010731 
119.500618 0.011638 
120.498634 0.010874 
124.940308 0.012116 
126.054802 0.170308 
127.810928 0.010292 
128.070526 1.122728 
129.418488 0.013763 
129.608063 0.010159 
130.058151 0.010307 
130.086121 0.043764 
130.555038 0.010144 
133.050354 0.011317 
134.654434 0.013012 
135.752914 0.012967 
137.528946 0.010413 
137.928116 0.011123 
140.07048 0.50603 
140.952789 0.010709 
141.70813 0.01137 
142.086197 2.552737 
143.089645 0.040694 
145.914352 0.014123 
147.031738 0.012456 
147.817062 0.011032 
147.85257 0.013392 
150.447403 0.012552 
150.465332 0.011469 
152.249405 0.012052 
152.666031 0.014421 
154.065659 0.013072 
161.455948 0.012297 
161.858078 0.01315 
162.031204 0.010212 
163.906952 0.120255 
164.002365 0.010239 
164.289948 0.01314 
165.414047 0.010073 
165.519104 0.010683 
165.904251 0.013924 
166.065475 0.064169 
176.190643 0.012272 
178.052704 0.012971 
178.065231 0.224068 
179.060211 0.013688 
179.073074 0.355771 
179.648712 0.012046 
180.044937 0.013988 
180.054932 0.014641 
180.068344 2.695198 
180.080933 2.244943 
180.307007 0.008974 
181.076736 2.107982 
181.084442 0.203105 
182.060349 0.031316 
182.084351 0.111883 
183.011215 0.889818 
183.091782 0.015931 
184.019348 0.132414 
184.07576 0.028665 
186.839508 0.01059 
187.531281 0.01026 
190.078033 0.013072 
191.060394 0.05425 
192.081055 0.183301 
192.570724 0.009987 
193.076279 0.691882 
194.06041 1.524787 
194.096817 0.208129 
194.437958 0.011203 
195.064209 0.038251 
195.092041 8.46506 
196.09552 1.100198 
197.027084 1.018743 
198.034851 0.548178 
201.13588 0.012152 
201.341019 0.01043 
204.068558 0.148818 
206.084 0.018318 
207.06813 0.025689 
207.091934 0.207413 
208.076126 0.012175 
208.099915 0.640004 
209.023499 0.012962 
209.071289 0.359115 
209.103516 0.013408 
209.393768 0.015472 
212.070877 0.053613 
215.001053 0.408986 
215.012665 0.071335 
219.0923 1.045926 
219.882584 0.00988 
221.107956 2.220461 
221.691605 0.013265 
222.079498 0.030794 
222.09166 0.221982 
222.112076 0.232942 
223.123657 28.032166 
224.127197 4.214367 
225.129471 0.032091 
225.14006 0.059085 
227.081818 0.031548 
228.754807 0.011369 
230.024872 0.017482 
232.326706 0.011206 
233.071579 0.083344 
234.079391 0.390198 
235.08725 0.21135 
237.089371 0.013549 
237.102997 1.236301 
238.107071 0.053722 
240.462799 0.009976 
247.087387 0.139714 
248.095306 0.488881 
248.116226 0.013642 
249.103195 10.428578 
250.106735 1.750401 
251.118973 0.664952 
255.113907 0.706101 
256.116577 0.015529 
257.076202 0.010462 
257.812347 0.013953 
260.872772 0.069161 
260.888733 0.010778 
263.082611 1.265344 
263.118744 0.268368 
264.085815 0.103682 
266.129639 0.288546 
268.095825 0.012447 
268.11554 0.013027 
280.121338 0.031899 
281.092865 0.335726 
281.129578 3.469239 
282.132904 0.610554 
295.021332 0.013857 
306.160706 0.04413 
309.148163 0.096689 
315.527039 0.012303 
322.156128 1.101524 
323.169098 1.431791 
323.189514 0.145697 
324.171753 25.912069 
325.184296 100.0 
325.667938 0.019565 
326.187592 12.311511 
341.138092 0.041676 
344.056732 0.013667 
345.558044 0.010781 
347.466675 0.013231 
END IONS

