BEGIN IONS
PEPMASS=162.0
CHARGE=1+
COMPOUNDNAME=MoNA:2492565 Calabarine
LIBRARYQUALITY=3
SMILES=N/A
INCHIKEY=PIJVFDBKTWXHHD-HIFRSBDPSA-N
INCHI=InChI=1S/C15H21N3O2/c1-15-7-8-17(3)13(15)18(4)12-6-5-10(9-11(12)15)20-14(19)16-2/h5-6,9,13H,7-8H2,1-4H3,(H,16,19)/t13-,15+/m1/s1
MSLEVEL=2
SOURCE_INSTRUMENT=LC-ESI-IT-LC-ESI-IT
FILENAME=output_mgf.mgf
SEQ=*..*
IONMODE=
ORGANISM=MONA
NAME=MoNA:2492565 Calabarine [M+H]+
PI=MoNA
DATACOLLECTOR=MoNA
PUBMED=N/A
SUBMITUSER=mwang87
TAGS=
SPECTRUMID=CCMSLIB00000567418
SCANS=4669
56.3 3.574516 
79.0 1.133879 
103.1 3.244013 
117.0 1.444043 
121.0 5.582956 
133.1 9.40662 
134.1 62.780292 
135.2 9.065948 
144.1 2.267758 
144.9 0.74236 
147.1 58.443077 
148.1 14.979407 
163.1 100.0 
187.1 9.248996 
END IONS

