BEGIN IONS
PEPMASS=319.119
CHARGE=1+
COMPOUNDNAME=MoNA:508675 Mycophenolic (Mycophenolate) [M+H]
LIBRARYQUALITY=3
SMILES=N/A
INCHIKEY=HPNSFSBZBAHARI-RUDMXATFSA-N
INCHI=InChI=1S/C17H20O6/c1-9(5-7-13(18)19)4-6-11-15(20)14-12(8-23-17(14)21)10(2)16(11)22-3/h4,20H,5-8H2,1-3H3,(H,18,19)/b9-4+
MSLEVEL=2
SOURCE_INSTRUMENT=LC-ESI-ITFT-LC-ESI-ITFT
FILENAME=output_mgf.mgf
SEQ=*..*
IONMODE=
ORGANISM=MONA
NAME=MoNA:508675 Mycophenolic (Mycophenolate) [M+H] [M-H]-
PI=MoNA
DATACOLLECTOR=MoNA
PUBMED=N/A
SUBMITUSER=mwang87
TAGS=
SPECTRUMID=CCMSLIB00000564665
SCANS=1917
135.0454 0.760625 
179.0349 47.245091 
191.0349 38.826277 
192.0425 2.02814 
199.113 1.197961 
207.0659 0.686626 
215.107 0.475418 
225.0911 0.491282 
228.0791 0.215632 
229.0502 0.205452 
233.0815 1.160813 
243.0673 1.178236 
243.1026 9.506296 
245.0818 1.232522 
259.0985 0.540937 
269.0819 6.193515 
275.1287 39.526609 
285.0775 1.775973 
287.0923 100.0 
301.109 1.221605 
END IONS

