BEGIN IONS
PEPMASS=243.081
CHARGE=1+
COMPOUNDNAME=Biotin
LIBRARYQUALITY=3
SMILES=N/A
INCHIKEY=YBJHBAHKTGYVGT-ZKWXMUAHSA-N
INCHI=InChI=1S/C10H16N2O3S/c13-8(14)4-2-1-3-7-9-6(5-16-7)11-10(15)12-9/h6-7,9H,1-5H2,(H,13,14)(H2,11,12,15)/t6-,7-,9-/m0/s1
MSLEVEL=2
SOURCE_INSTRUMENT=N/A-ESI-QTOF
FILENAME=library_mgf.mgf
SEQ=*..*
IONMODE=negative
ORGANISM=MONA
NAME=Biotin [M-H]-
PI=MoNA
DATACOLLECTOR=MoNA:VF-NPL-QTOF002085
PUBMED=N/A
SUBMITUSER=mwang87
TAGS=
SPECTRUMID=CCMSLIB00004719875
SCANS=2082
32.976299 1.777691 
32.979 0.91507 
41.996101 100.0 
42.045101 0.642093 
42.051498 1.89961 
42.055199 0.985736 
42.068501 1.025721 
42.071098 0.384177 
42.077599 0.647209 
42.086601 0.396751 
42.097698 0.539953 
42.134499 0.485345 
45.9832 0.568288 
45.986099 0.369113 
46.992901 1.359283 
52.014599 0.980648 
52.018002 0.790498 
59.017799 0.836614 
59.0215 1.697692 
68.010597 0.509742 
68.047096 11.78881 
68.1194 0.376561 
71.986298 1.141392 
71.990501 0.518536 
74.001701 1.227542 
74.004799 8.377569 
95.020599 5.027924 
95.025597 0.953915 
96.075798 0.705012 
97.035896 1.425046 
97.0467 0.541109 
97.057602 0.39364 
103.053902 2.673008 
109.041298 0.50582 
110.039902 0.40757 
111.048897 3.079343 
122.093399 33.710354 
122.1521 0.690996 
122.1679 0.461329 
122.186096 0.50875 
122.193703 0.459129 
122.2183 0.448631 
122.251099 0.458085 
123.0476 0.548912 
130.0634 2.435148 
136.070694 0.810624 
139.054092 10.740772 
139.106293 0.416136 
148.075394 0.666899 
152.9888 0.343368 
153.097702 4.033899 
154.082199 3.124798 
156.040405 0.632067 
156.080902 23.502134 
156.178894 0.38621 
156.192093 0.800017 
156.236298 0.395578 
165.098694 9.77975 
166.082901 61.348984 
166.146103 0.478085 
166.174301 1.017773 
166.184906 0.37908 
166.195694 0.874956 
166.224106 0.744085 
166.238403 0.835521 
166.262207 0.386405 
166.279999 0.481558 
166.295502 0.475626 
166.327896 0.4755 
166.434799 0.421253 
167.082794 0.943218 
170.080994 0.382217 
179.077194 2.357936 
191.072998 0.90724 
191.082306 0.740529 
197.088593 5.573958 
197.1353 0.447308 
199.085495 3.519196 
200.069794 47.050343 
200.158997 1.352974 
200.183701 0.825674 
200.203506 0.965883 
200.230194 0.45011 
200.260498 0.404674 
200.276794 0.599439 
200.312698 0.360882 
200.414597 0.390142 
201.069107 0.43558 
209.086807 2.625458 
225.060898 0.446259 
243.076004 26.594858 
243.1483 0.56248 
243.188293 0.675646 
243.207993 0.346995 
243.237503 0.481427 
243.288605 0.359138 
END IONS

