BEGIN IONS
PEPMASS=174.088
CHARGE=1+
COMPOUNDNAME=L-citrulline
LIBRARYQUALITY=3
SMILES=N/A
INCHIKEY=RHGKLRLOHDJJDR-BYPYZUCNSA-N
INCHI=InChI=1S/C6H13N3O3/c7-4(5(10)11)2-1-3-9-6(8)12/h4H,1-3,7H2,(H,10,11)(H3,8,9,12)/t4-/m0/s1
MSLEVEL=2
SOURCE_INSTRUMENT=N/A-ESI-QFT
FILENAME=library_mgf.mgf
SEQ=*..*
IONMODE=negative
ORGANISM=MONA
NAME=L-citrulline [M-H]-
PI=MoNA
DATACOLLECTOR=MoNA:VF-NPL-QEHF000503
PUBMED=N/A
SUBMITUSER=mwang87
TAGS=
SPECTRUMID=CCMSLIB00004691566
SCANS=503
50.94381 0.016546 
51.132473 0.011257 
53.415195 0.011136 
53.67897 0.008607 
55.063984 0.009542 
57.130787 0.010286 
57.371304 0.015671 
57.559734 0.014331 
57.99332 0.014058 
58.48402 0.014783 
59.001125 0.013861 
59.012497 0.020306 
60.056915 0.013716 
61.046688 0.007874 
62.444885 0.013762 
62.484657 0.014953 
63.666828 0.013999 
63.961094 0.461205 
64.174469 0.005795 
66.051636 0.015211 
67.5606 0.008883 
67.654556 0.017977 
70.358818 0.008602 
71.157616 0.010827 
71.380844 0.015259 
72.991653 0.005551 
73.028084 0.011698 
75.355896 0.012887 
78.981995 0.054831 
78.984612 4.021921 
79.271667 0.011838 
79.956047 5.334552 
80.963882 0.937681 
80.980446 0.09538 
81.951859 0.175871 
82.712944 0.015209 
85.226341 0.016246 
87.37014 0.015269 
87.758553 0.014701 
87.800064 0.012723 
89.92453 0.00714 
93.000282 0.025247 
93.971725 2.883988 
94.10907 0.013811 
94.979683 0.010737 
95.014381 0.019514 
95.967461 0.053873 
96.958878 0.040711 
97.255714 0.013284 
99.227364 0.011472 
99.240822 0.01542 
99.924522 0.020014 
100.932266 0.08729 
101.160378 0.01478 
102.75692 0.033961 
104.540596 0.014406 
106.673172 0.01202 
107.45752 0.014307 
107.734482 0.012428 
109.966644 0.037272 
110.490303 0.004467 
111.080521 0.021782 
112.114403 0.012428 
113.071037 0.045681 
113.075096 0.004454 
114.054733 0.090367 
115.88887 0.017946 
115.919472 0.256759 
116.927338 0.242697 
117.926918 0.008752 
118.884193 0.016205 
123.748558 0.013073 
124.936249 0.059269 
125.560097 0.005406 
125.961807 0.00915 
126.951836 0.408903 
127.111717 3.262117 
127.117081 0.024805 
128.071472 0.015875 
128.115112 0.283265 
128.777847 0.011804 
130.943359 0.018384 
131.053787 0.233387 
131.072357 0.423589 
131.081421 100.0 
131.109177 0.046504 
131.310394 0.016297 
132.07872 0.695988 
132.08461 4.970498 
133.085861 0.137991 
133.75795 0.004848 
138.602371 0.004664 
139.418991 0.017341 
140.02066 0.016402 
141.956711 0.064653 
142.897049 0.05695 
142.923935 0.008247 
142.9431 0.511815 
143.081345 0.015426 
143.897781 0.171414 
144.896683 0.166842 
145.12207 0.009001 
145.898041 0.006969 
152.301544 0.008952 
154.946259 0.450763 
155.107132 0.005645 
156.71756 0.012702 
157.060745 0.145727 
157.91626 0.634271 
157.933853 0.189409 
158.425034 0.014746 
159.912186 0.023815 
168.117752 0.009671 
168.575928 0.014686 
172.105103 0.008947 
172.311829 0.015071 
172.94339 0.008185 
172.957474 41.617771 
173.060287 0.011009 
173.117386 7.605515 
173.63942 0.015719 
173.908585 0.071148 
173.960983 0.61271 
174.087463 0.40439 
174.120758 0.818422 
174.907547 0.091935 
174.933807 0.243039 
174.953308 3.798882 
174.961502 0.416042 
174.987198 0.006355 
175.122467 0.013567 
175.908539 0.0208 
175.933823 0.007642 
177.216507 0.016127 
179.406799 0.016815 
179.605469 0.014105 
183.398422 0.016508 
183.919785 0.012971 
184.002487 0.010665 
187.795258 0.016441 
191.52713 0.0111 
193.226273 0.015752 
193.632339 0.014049 
END IONS

