BEGIN IONS
PEPMASS=461.156
CHARGE=1+
COMPOUNDNAME=Massbank: Oxytetracycline
LIBRARYQUALITY=3
SMILES=[H]OC(N([H])[H])=C(C(=O)4)C(=O)C(O[H])(C(=O)3)C([H])(C([H])(N(C([H])([H])[H])C([H])([H])[H])4)C([H])(O[H])C([H])(C=13)C(O[H])(C([H])([H])[H])c(c([H])2)c(c(O[H])c([H])c([H])2)C(O[H])1
INCHIKEY=FYDOORKXBWEKQM-UHFFFAOYSA-N
INCHI=1S/C22H24N2O9/c1-21(32)7-5-4-6-8(25)9(7)15(26)10-12(21)17(28)13-14(24(2)3)16(27)11(20(23)31)19(30)22(13,33)18(10)29/h4-6,12-14,17,25-26,28,31-33H,23H2,1-3H3/b20-11-/t12-,13-,14+,17+,21-,22+/m1/s1
MSLEVEL=2
SOURCE_INSTRUMENT=ESI-LC-ESI-QTOF
FILENAME=Massbank_ESI_positive_8_1_2014_peaks.mgf
SEQ=*..*
IONMODE=Positive
ORGANISM=MASSBANK
NAME=Massbank: Oxytetracycline [M+H]+
PI=Putative Massbank Match
DATACOLLECTOR=Massbank
PUBMED=N/A
SUBMITUSER=mwang87
TAGS=
SPECTRUMID=CCMSLIB00000206305
SCANS=1564
58.0656 390.288 
70.0656 179.259 
83.0121 260.494 
86.0609 418.107 
98.0609 2720.165 
109.0297 199.259 
123.0069 170.864 
125.0267 149.712 
126.0562 743.786 
128.0714 105.597 
129.0714 118.354 
135.0046 144.28 
137.0223 263.128 
145.0657 528.395 
151.0011 161.481 
152.0705 341.975 
153.0195 337.037 
154.0503 1749.794 
155.0463 170.206 
172.061 333.58 
173.0582 240.165 
174.0698 307.325 
175.078 205.021 
178.9974 180.658 
180.0673 529.465 
181.0156 126.337 
183.0811 102.469 
185.0596 290.617 
187.0747 439.506 
195.0829 124.444 
196.0629 138.93 
198.0742 432.099 
199.0753 151.687 
201.0543 10000.0 
207.0754 113.251 
208.0606 785.185 
211.073 734.239 
212.0459 238.765 
213.0544 2375.309 
214.0633 156.132 
221.0594 106.008 
223.0755 274.486 
225.0553 158.436 
226.0698 610.37 
227.0677 271.029 
229.0565 222.387 
235.0746 315.802 
237.0538 279.753 
239.0683 1664.198 
240.0413 254.733 
241.054 335.638 
242.0561 368.313 
249.0538 152.263 
251.0675 390.453 
252.0398 204.198 
253.0499 300.247 
254.0603 324.938 
255.0609 351.111 
257.0663 906.996 
258.0521 658.848 
259.061 205.103 
261.0523 108.148 
263.0714 831.276 
265.0523 193.251 
265.071 137.531 
266.059 262.881 
267.0659 1418.93 
268.0352 2711.934 
269.0788 310.617 
270.0518 298.848 
271.0586 117.942 
273.0743 513.58 
279.0641 1270.782 
281.0563 495.062 
283.0585 8748.971 
285.0739 794.403 
289.0511 307.243 
291.0634 767.407 
292.0392 127.737 
293.0784 111.77 
294.0529 344.28 
295.0606 260.741 
297.0975 670.206 
301.0717 641.152 
306.0548 102.716 
307.0585 1434.568 
308.0805 117.366 
309.0719 439.424 
312.1212 587.407 
317.0412 270.123 
319.061 582.058 
320.0275 238.519 
321.0721 127.901 
322.0462 1425.514 
325.0751 194.65 
335.0538 1263.374 
337.0705 2806.584 
346.062 121.646 
347.079 218.189 
350.0423 6420.576 
353.0696 129.053 
362.102 139.918 
363.049 559.753 
365.065 2879.835 
375.0696 190.7 
376.083 260.988 
380.1227 102.963 
381.0598 383.951 
426.1144 223.21 
END IONS

