BEGIN IONS
PEPMASS=1874.53
CHARGE=1+
COMPOUNDNAME=Teichomycin
LIBRARYQUALITY=3
SMILES=N/A
INCHIKEY=BJNLLBUOHPVGFT-QRZIFLFXSA-N
INCHI=InChI=1S/C88H97Cl2N9O33/c1-3-4-5-6-7-8-9-10-60(108)94-68-74(113)71(110)58(32-101)129-87(68)132-78-55-26-40-27-56(78)126-52-18-14-38(24-47(52)90)77(131-86-67(92-34(2)103)73(112)70(109)57(31-100)128-86)69-84(121)98-66(85(122)123)45-29-42(105)30-54(127-88-76(115)75(114)72(111)59(33-102)130-88)61(45)44-23-37(13-15-49(44)106)63(81(118)99-69)96-83(120)65(40)97-82(119)64-39-21-41(104)28-43(22-39)124-53-25-36(12-16-50(53)107)62(91)80(117)93-48(79(116)95-64)20-35-11-17-51(125-55)46(89)19-35/h11-19,21-30,48,57-59,62-77,86-88,100-102,104-107,109-115H,3-10,20,31-33,91H2,1-2H3,(H,92,103)(H,93,117)(H,94,108)(H,95,116)(H,96,120)(H,97,119)(H,98,121)(H,99,118)(H,122,123)/t48-,57-,58-,59-,62-,63-,64+,65-,66-,67-,68-,69+,70-,71-,72-,73-,74-,75+,76+,77-,86+,87+,88+/m1/s1
MSLEVEL=2
SOURCE_INSTRUMENT=N/A-ESI-QFT
FILENAME=library_mgf.mgf
SEQ=*..*
IONMODE=negative
ORGANISM=MONA
NAME=Teichomycin [M-H]-
PI=MoNA
DATACOLLECTOR=MoNA:VF-NPL-QEHF027949
PUBMED=N/A
SUBMITUSER=mwang87
TAGS=
SPECTRUMID=CCMSLIB00004721530
SCANS=27949
130.901642 1.263157 
131.537704 1.322412 
142.88327 1.029766 
143.045624 1.103452 
147.06398 1.126736 
147.16687 1.060719 
148.488815 0.981691 
149.00856 1.667459 
150.380341 1.251548 
158.040131 1.040793 
164.970367 1.051874 
174.163773 1.130899 
183.011276 11.249508 
185.292007 1.26005 
186.984756 1.115665 
191.016022 0.950727 
192.138092 0.969033 
193.889923 1.126974 
194.74202 1.201446 
201.248871 1.184287 
204.764389 1.080147 
205.19928 1.070528 
205.589584 1.261913 
209.471024 1.288634 
211.007706 1.263714 
213.054749 31.663273 
219.449921 1.214892 
221.153473 1.158707 
223.027466 2.547919 
228.583801 1.013552 
229.186081 1.099745 
232.881073 1.097147 
236.071381 1.067548 
236.147446 1.112737 
240.065903 5.359425 
240.248718 1.179775 
246.635025 1.233438 
256.060913 12.829561 
263.668701 1.213204 
265.148102 8.995023 
266.046722 1.197656 
266.996277 1.446357 
268.061096 7.514573 
271.077728 1.057942 
278.937897 1.295355 
280.060425 2.892104 
280.145264 1.117297 
281.550171 1.103709 
282.957764 1.077267 
293.179169 3.262435 
293.304657 1.361026 
297.152527 14.421074 
298.335083 1.11967 
304.224884 5.145849 
307.194489 1.301422 
311.168152 48.13361 
311.518402 1.023956 
311.69278 1.040499 
316.561432 1.098734 
318.335297 1.256327 
322.058533 2.887536 
325.082214 1.30519 
325.183746 100.0 
325.202515 1.451624 
326.187286 8.968153 
339.07547 1.491428 
339.199036 28.236605 
344.322479 1.204977 
363.966461 1.238402 
373.976135 1.205667 
386.250214 1.1063 
390.009674 1.059449 
398.824249 1.126599 
401.310913 1.070484 
409.125061 1.290396 
416.979248 1.530715 
426.841187 1.204839 
434.367188 1.220705 
452.491119 1.46619 
452.596436 1.238364 
487.501678 1.389696 
487.645782 1.257858 
490.998108 1.367343 
491.911713 1.223391 
494.133087 1.13563 
519.142334 1.297795 
521.03833 1.233495 
543.221985 1.217011 
549.022278 1.260969 
560.520203 1.136828 
612.485901 1.282494 
613.252747 1.255335 
619.130981 1.212889 
624.62616 1.181104 
624.997681 1.112664 
626.982483 1.313815 
674.975037 1.70202 
695.998779 1.130671 
705.357422 1.206168 
713.054932 13.081207 
713.513 2.055969 
713.57782 1.757005 
713.675537 2.561868 
713.718933 1.918479 
713.795593 1.927408 
713.881042 2.087979 
713.899963 2.114396 
713.93219 3.254232 
713.958923 3.770321 
713.981689 3.262948 
714.053467 12.781181 
715.05426 2.012327 
738.129822 6.789042 
755.154663 20.3629 
756.161865 2.529971 
757.148743 4.716679 
758.164612 1.447223 
770.430298 1.482902 
773.022461 28.3347 
774.020508 19.733446 
775.023315 9.489084 
781.135864 17.256853 
782.137573 3.185889 
798.160583 50.028366 
799.165527 15.480952 
800.158936 12.561957 
812.138855 1.199489 
824.150452 1.381589 
834.135376 2.545767 
836.138611 1.349444 
841.1651 1.176538 
844.036621 1.285958 
847.912781 1.272763 
860.115784 1.450867 
867.509094 1.498247 
877.139954 4.54454 
879.141113 1.241276 
909.195923 1.267913 
923.55719 1.329989 
937.416138 1.186015 
940.547424 1.245559 
944.206116 1.182387 
952.197144 5.371045 
953.176392 1.125552 
966.183228 1.155943 
967.20166 2.967043 
968.21228 2.30294 
969.207825 1.200001 
977.184509 5.783636 
993.19989 1.578581 
994.209534 9.509238 
995.2005 26.769522 
996.080933 1.36597 
996.205627 8.806339 
997.0755 1.57907 
997.19458 9.082231 
1006.182312 1.473581 
1010.213928 1.372463 
1011.211304 1.523213 
1012.220886 13.996322 
1013.224976 1.446217 
1017.18457 1.341068 
1018.184448 1.740097 
1020.192993 9.262408 
1021.193054 3.235446 
1023.189514 1.38998 
1031.178101 1.562632 
1032.185669 3.733401 
1034.190918 3.223839 
1037.213867 7.502867 
1038.204712 53.114143 
1039.207397 23.145199 
1040.206421 15.088752 
1041.205322 2.774462 
1043.166382 1.541041 
1045.194458 1.33411 
1046.187378 2.432538 
1048.196777 9.999466 
1049.203247 1.489454 
1050.181396 1.324557 
1051.203003 1.517041 
1054.187744 1.40852 
1055.230469 27.543745 
1056.223633 6.313612 
1057.222168 1.469789 
1058.231201 2.653142 
1060.18396 20.763874 
1061.184448 8.930406 
1062.191162 5.666787 
1063.193481 9.0072 
1064.197144 1.25162 
1069.178223 1.371072 
1070.157227 1.364132 
1071.174927 1.54129 
1072.173584 2.776323 
1073.190063 5.929605 
1074.182007 30.256374 
1075.186768 14.408995 
1076.181519 12.403713 
1077.204712 18.784391 
1078.207153 3.231827 
1079.201782 1.240651 
1081.210571 6.026787 
1082.214478 2.013248 
1083.171875 1.301961 
1083.599121 1.225191 
1087.186401 1.178467 
1089.193726 4.724001 
1090.208618 1.385069 
1091.203735 21.062513 
1092.206909 10.158949 
1093.200317 7.597519 
1094.207397 3.298331 
1096.1604 13.399923 
1097.165161 14.62612 
1098.156372 4.530169 
1099.166504 7.745968 
1100.171143 1.285055 
1103.189941 3.325062 
1106.34375 1.436419 
1113.185425 17.81741 
1114.186646 6.549669 
1115.181152 6.687217 
1116.187378 2.071868 
1117.185791 39.032516 
1118.184204 15.099053 
1119.180298 18.688311 
1120.203491 3.910269 
1121.183838 1.580903 
1134.209961 39.644672 
1135.206055 15.643777 
1136.203247 18.979631 
1137.204224 11.203574 
1138.195312 2.794818 
1139.168579 44.773785 
1140.168701 18.348969 
1141.164307 39.236069 
1142.169189 9.322132 
1143.161377 4.659791 
1146.037231 1.355242 
1156.190186 45.634113 
1157.191406 20.281799 
1158.189819 35.203609 
1159.191406 10.486538 
1160.183105 4.886002 
1161.153809 3.353691 
1178.183838 4.677171 
1179.175903 1.708299 
1180.169189 5.327967 
1181.174316 3.175642 
1200.151611 1.746436 
1256.893311 1.499891 
1278.067627 1.528448 
1333.946655 1.328948 
1435.159302 1.486537 
1560.198364 1.326433 
1643.99231 1.476798 
1722.03833 1.308524 
1784.097412 1.361834 
1922.719604 1.211669 
END IONS

