BEGIN IONS
PEPMASS=333.0
CHARGE=1+
COMPOUNDNAME=Massbank:KO004029 Specitinomycin|Spectinomycin
LIBRARYQUALITY=3
SMILES=CNC(C(O)3)C(O)C([H])(O1)C([H])(C(NC)3)OC(O)(C(=O)2)C([H])(OC(C)C2)1
INCHIKEY=UNFWWIHTNXNPBV-UHFFFAOYSA-N
INCHI=1S/C14H24N2O7/c1-5-4-6(17)14(20)13(21-5)22-12-10(19)7(15-2)9(18)8(16-3)11(12)23-14/h5,7-13,15-16,18-20H,4H2,1-3H3/t5-,7-,8+,9+,10+,11-,12-,13+,14+/m1/s1
MSLEVEL=2
SOURCE_INSTRUMENT=ESI-LC-ESI-QQ
FILENAME=Massbank_ESI_positive_8_1_2014_peaks.mgf
SEQ=*..*
IONMODE=Positive
ORGANISM=MASSBANK
NAME=Massbank:KO004029 Specitinomycin|Spectinomycin [M+H]+
PI=Putative Massbank Match
DATACOLLECTOR=Massbank
PUBMED=N/A
SUBMITUSER=mwang87
TAGS=
SPECTRUMID=CCMSLIB00000220580
SCANS=9821
70.3 24752.5 
72.1 34653.5 
83.8 14851.5 
86.0 59406.0 
88.0 54455.5 
93.9 64356.5 
95.9 49505.0 
97.8 198020.0 
98.3 118812.0 
100.3 311881.5 
102.9 34653.5 
108.1 29703.0 
109.1 99010.0 
110.1 44554.5 
112.4 168317.0 
114.3 89109.0 
116.4 336634.0 
122.4 207921.0 
124.2 54455.5 
125.1 19802.0 
126.9 29703.0 
129.3 44554.5 
131.8 84158.5 
133.9 49505.0 
134.3 59406.0 
135.2 34653.5 
138.9 59406.0 
140.2 405941.0 
142.0 84158.5 
148.8 19802.0 
152.7 54455.5 
155.3 29703.0 
156.4 44554.5 
158.1 237624.0 
162.8 24752.5 
170.9 39604.0 
181.8 39604.0 
185.4 64356.5 
186.2 79208.0 
187.2 44554.5 
189.3 267327.0 
199.3 64356.5 
213.6 14851.5 
217.0 9901.0 
223.2 14851.5 
227.2 19802.0 
227.9 59406.0 
242.1 44554.5 
258.4 39604.0 
284.4 24752.5 
286.2 19802.0 
289.6 39604.0 
302.8 133663.5 
333.7 1693071.0 
END IONS

