BEGIN IONS
PEPMASS=276.087
CHARGE=1+
COMPOUNDNAME=norlichexanthone
LIBRARYQUALITY=3
SMILES=N/A
INCHIKEY=AQZHBCDRWFMXIN-UHFFFAOYSA-N
INCHI=InChI=1S/C14H10O5/c1-6-2-7(15)4-10-12(6)14(18)13-9(17)3-8(16)5-11(13)19-10/h2-5,15-17H,1H3
MSLEVEL=2
SOURCE_INSTRUMENT=N/A-ESI-QFT
FILENAME=library_mgf.mgf
SEQ=*..*
IONMODE=positive
ORGANISM=MONA
NAME=norlichexanthone [M+NH4]+
PI=MoNA
DATACOLLECTOR=MoNA:VF-NPL-QEHF017957
PUBMED=N/A
SUBMITUSER=mwang87
TAGS=
SPECTRUMID=CCMSLIB00004709020
SCANS=17957
50.223072 0.020878 
50.416542 0.027654 
50.578026 0.025048 
50.863319 0.025959 
51.579117 0.028349 
51.815243 0.032749 
52.960152 0.033434 
53.956413 0.022938 
54.14299 0.030555 
55.054562 0.080591 
55.697975 0.013462 
56.062469 0.029177 
56.965088 0.541446 
57.042198 0.025004 
57.070175 1.606337 
58.903252 0.025376 
59.243305 0.020856 
59.900002 0.020315 
59.930569 0.21163 
60.832146 0.030312 
61.010899 100.0 
61.331982 0.029226 
61.475571 0.017651 
62.010258 1.402157 
62.01424 4.13727 
62.018784 0.046484 
62.72385 0.028011 
63.006664 14.59414 
63.039982 0.029794 
63.109367 0.029629 
63.764202 0.012585 
63.879505 0.017185 
64.010002 0.027336 
64.047028 0.024602 
65.015831 0.025754 
65.06263 0.01949 
65.20787 0.036871 
65.823204 0.02645 
67.054398 0.08464 
67.969765 0.014595 
68.855331 0.028202 
69.033569 0.056516 
69.069969 0.102851 
69.540466 0.031624 
70.065346 0.032399 
71.019356 0.026315 
71.085617 0.591944 
72.961617 0.035778 
73.95623 0.349644 
74.95369 0.037475 
75.478409 0.033451 
76.416496 0.03136 
76.729362 0.029142 
77.037163 0.03921 
77.72419 0.034178 
77.940926 0.722072 
78.061592 0.016311 
78.815399 0.029132 
79.021233 3.720323 
79.410446 0.028634 
81.069954 0.120622 
81.130524 0.02798 
81.547501 0.035152 
82.135597 0.032692 
82.79731 0.031467 
83.824615 0.015344 
84.195084 0.033865 
84.276352 0.033251 
85.101219 0.115078 
85.451622 0.026118 
87.044174 0.281899 
87.877991 0.031001 
88.375221 0.014986 
89.343498 0.014909 
89.941269 0.015773 
92.069916 0.019174 
93.503723 0.032145 
94.801109 0.013583 
94.83699 0.023005 
95.085503 0.221485 
95.432091 0.030121 
95.716209 0.0276 
95.951317 0.250425 
95.95797 0.019735 
96.080757 0.154638 
96.717957 0.014383 
97.292183 0.039451 
98.427696 0.02076 
98.975418 0.794675 
100.456184 0.022965 
100.781281 0.03415 
100.991081 0.035961 
101.080643 0.028447 
101.890701 0.037738 
103.803223 0.017227 
104.910217 0.311938 
104.930473 0.246846 
105.972198 0.067735 
106.191605 0.03244 
106.925835 4.022466 
107.445267 0.016755 
107.9515 0.018807 
108.591133 0.014858 
108.923592 0.102337 
109.101341 0.040029 
109.187767 0.03402 
109.686966 0.029651 
109.853157 0.043444 
109.897629 0.01572 
110.093224 0.033358 
112.69957 0.034226 
112.990982 0.092617 
114.016762 0.107364 
114.048241 0.036104 
115.984039 0.037857 
116.986244 0.041682 
117.786041 0.017532 
117.917046 0.053274 
118.947571 1.368604 
119.001305 0.02679 
119.034157 0.021263 
121.627769 0.019264 
121.933022 0.048298 
122.921028 0.102161 
122.931046 0.041304 
122.940941 2.146245 
123.222771 0.038889 
123.938866 1.005137 
124.485298 0.032148 
124.93644 18.090757 
124.961723 0.026249 
125.936119 0.326424 
126.93383 2.134391 
127.036621 0.061982 
128.14975 0.02744 
129.65921 0.013356 
129.683258 0.034894 
130.10289 0.028669 
130.109985 0.020344 
130.920074 0.030558 
131.001541 3.104303 
133.960022 0.013465 
134.931946 0.265536 
134.958755 0.512495 
134.97879 0.078488 
135.92778 0.0653 
135.95134 0.059231 
135.95665 1.667049 
135.966354 0.269247 
136.920212 2.72636 
136.936508 1.557871 
136.947617 0.050551 
136.953766 3.418101 
137.011902 0.147288 
137.135498 0.01804 
137.918274 0.104884 
137.928024 0.411431 
137.944534 1.381105 
137.95578 0.073345 
137.96199 2.446646 
138.915787 0.339841 
138.92569 0.05966 
138.952087 6.288823 
139.135742 0.155117 
139.923508 1.484212 
139.959579 0.063017 
140.143478 0.031865 
140.368073 0.03261 
140.949417 0.403773 
142.947083 0.617783 
142.977173 0.016056 
144.710983 0.029989 
144.85881 0.027564 
148.193481 0.030404 
148.936554 0.191862 
149.012177 2.596856 
149.202255 0.029648 
149.962494 0.032525 
150.015793 0.020858 
150.972336 1.804658 
151.943649 4.062391 
151.959335 0.114771 
151.970154 13.374091 
152.941544 0.747134 
152.951752 6.364346 
152.967773 15.440231 
152.973633 2.422878 
152.989288 0.019076 
153.842026 0.018483 
153.939163 0.96139 
153.949173 0.104962 
153.95929 4.830813 
153.966248 6.554632 
154.169281 0.019506 
154.946899 51.809006 
154.964127 6.13895 
155.948105 1.686259 
155.954803 42.139061 
155.991272 0.030592 
156.944305 6.958297 
156.955017 1.433653 
156.962708 0.276555 
157.108109 0.030689 
157.952133 5.937859 
158.953674 0.685611 
162.255127 0.032611 
162.359695 0.022311 
162.95137 0.071695 
163.958847 0.071955 
164.942673 0.723358 
164.951492 0.804787 
165.9384 0.038215 
165.949631 0.748922 
166.946991 9.768813 
167.022797 0.055167 
167.946014 0.112638 
168.936432 0.611343 
168.944214 1.271286 
168.962677 0.258372 
168.982727 2.517917 
169.933899 0.136696 
169.953415 0.342147 
169.971451 0.147517 
169.980545 1.944328 
170.931808 0.050712 
170.952194 0.624256 
170.961792 0.559032 
170.978165 22.242935 
171.06279 2.186933 
171.97757 1.247934 
172.065598 0.02186 
172.957565 8.008659 
172.975479 3.536963 
173.078735 0.142444 
173.959503 0.052466 
174.409164 0.036348 
174.954651 0.839404 
177.731979 0.029188 
178.334991 0.030897 
178.978745 0.068613 
180.936432 0.248665 
180.961594 0.340384 
180.973785 2.445039 
181.934067 1.496422 
182.932907 0.039601 
182.962219 0.515751 
182.971085 0.196107 
183.960007 0.676928 
184.823715 0.035931 
184.957428 6.871671 
185.948715 0.405374 
185.956924 0.161677 
186.946716 1.063442 
186.955017 0.579013 
187.038681 0.028059 
187.057541 0.094482 
187.297714 0.018872 
187.944595 7.068744 
188.943314 0.23259 
189.941757 0.737561 
194.962036 2.958511 
195.959824 4.590439 
196.95726 27.350063 
197.015305 0.216106 
197.559433 0.041101 
197.93573 0.016093 
197.956009 2.438039 
198.954742 3.717658 
199.944794 1.630452 
200.943359 0.096309 
201.054749 1.596606 
201.941788 0.036487 
201.984604 0.030277 
202.058151 0.045558 
205.850693 0.025272 
205.892014 0.037178 
209.015503 0.359697 
209.925079 0.017383 
211.36058 0.038028 
212.972641 2.682781 
213.970398 3.77551 
214.967834 25.083687 
214.9888 0.590805 
215.033951 0.241112 
215.088531 0.067649 
215.591812 0.050205 
215.601715 1.069898 
215.60733 1.046117 
215.947998 0.035579 
215.966629 2.619066 
216.965042 3.99474 
216.986557 0.033572 
217.086258 0.016957 
217.104675 2.279098 
217.954559 0.036957 
218.108337 0.08032 
220.26181 0.032932 
222.898727 0.204048 
228.984467 0.117931 
229.049683 9.569966 
229.857941 0.035897 
230.053024 1.177788 
230.936005 0.018184 
231.055573 0.0241 
231.084198 0.891575 
232.978973 0.074798 
232.999222 0.099474 
233.044556 0.061592 
233.12999 0.025891 
233.179169 0.036241 
233.523071 0.015978 
237.61351 0.023905 
239.263504 0.037023 
240.909485 0.142969 
241.581604 0.0196 
241.941681 0.032919 
245.27916 0.020084 
247.060242 0.022143 
253.375351 0.032558 
255.300552 0.019955 
256.919373 0.022441 
257.044495 17.291847 
258.047943 2.563906 
259.050171 0.102145 
259.098053 0.020891 
260.031433 0.177381 
261.035156 0.016993 
267.351807 0.017826 
270.315247 0.034804 
273.041351 0.018535 
274.134186 0.014116 
274.171417 0.015351 
274.217621 0.019489 
275.054901 31.092607 
275.110168 13.387639 
275.146057 2.148204 
276.061646 4.318973 
276.11322 1.300814 
276.14978 0.046811 
276.232361 0.069449 
276.268341 0.239416 
277.059662 0.292581 
277.125946 0.920082 
283.853699 0.0351 
284.646637 0.039186 
288.064056 0.032 
290.086334 0.018095 
290.595154 0.01843 
297.489899 0.035703 
297.917358 0.024546 
END IONS

