BEGIN IONS
PEPMASS=312.16
CHARGE=1+
COMPOUNDNAME=Massbank:PB003621 Thebaine|Morphinan, 6,7,8,14-tetradehydro-4,5-epoxy-3,6-dimethoxy-17-methyl-, (5.alpha.)-
LIBRARYQUALITY=3
SMILES=CN1CCC23C4C(=CC=C2C1CC5=C3C(=C(C=C5)OC)O4)OC
INCHIKEY=FQXXSQDCDRQNQE-UHFFFAOYSA-N
INCHI=1S/C19H21NO3/c1-20-9-8-19-12-5-7-15(22-3)18(19)23-17-14(21-2)6-4-11(16(17)19)10-13(12)20/h4-7,13,18H,8-10H2,1-3H3
MSLEVEL=2
SOURCE_INSTRUMENT=ESI-LC-ESI-QQ
FILENAME=Massbank_ESI_positive_8_1_2014_peaks.mgf
SEQ=*..*
IONMODE=Positive
ORGANISM=MASSBANK
NAME=Massbank:PB003621 Thebaine|Morphinan, 6,7,8,14-tetradehydro-4,5-epoxy-3,6-dimethoxy-17-methyl-, (5.alpha.)- [M+H]+
PI=Putative Massbank Match
DATACOLLECTOR=Massbank
PUBMED=N/A
SUBMITUSER=mwang87
TAGS=
SPECTRUMID=CCMSLIB00000222165
SCANS=10601
30.0 15.396 
32.0 13.171 
43.0 12.253 
44.0 82.522 
56.0 18.268 
57.0 13.499 
58.0 10000.0 
177.0 16.466 
178.0 13.137 
193.0 16.578 
195.0 34.596 
203.0 15.935 
205.0 12.809 
206.0 14.367 
207.0 17.452 
209.0 19.863 
213.0 23.718 
217.0 22.594 
218.0 185.443 
219.0 30.021 
220.0 17.193 
221.0 665.213 
222.0 37.584 
223.0 477.561 
224.0 40.135 
225.0 15.89 
227.0 20.344 
231.0 15.495 
232.0 27.083 
234.0 97.246 
235.0 18.457 
236.0 14.367 
237.0 373.068 
238.0 27.26 
239.0 22.1 
240.0 26.032 
241.0 13.79 
248.0 21.709 
249.0 2182.481 
250.0 223.117 
251.0 483.704 
252.0 71.853 
253.0 78.413 
254.0 78.277 
255.0 709.544 
256.0 41.734 
263.0 20.096 
265.0 38.962 
266.0 2497.373 
267.0 62.128 
269.0 180.22 
280.0 226.329 
281.0 1861.207 
282.0 133.331 
283.0 43.985 
297.0 43.889 
312.0 6336.827 
313.0 177.901 
END IONS

