BEGIN IONS
PEPMASS=268.105
CHARGE=1+
COMPOUNDNAME=Massbank:PR101050 Adenosine|9-beta-D-Ribofuranosyladenine|Adenine riboside|Sandesin|Boniton|Myocol|Nucleocardyl
LIBRARYQUALITY=3
SMILES=OC[C@@H](O1)[C@@H](O)[C@@H](O)[C@@H]1n(c3)c(n2)c(n3)c(N)nc2
INCHIKEY=OIRDTQYFTABQOQ-KQYNXXCUSA-N
INCHI=1S/C10H13N5O4/c11-8-5-9(13-2-12-8)15(3-14-5)10-7(18)6(17)4(1-16)19-10/h2-4,6-7,10,16-18H,1H2,(H2,11,12,13)/t4-,6-,7-,10-/m1/s1
MSLEVEL=2
SOURCE_INSTRUMENT=ESI-LC-ESI-QTOF
FILENAME=Massbank_ESI_positive_8_1_2014_peaks.mgf
SEQ=*..*
IONMODE=Positive
ORGANISM=MASSBANK
NAME=Massbank:PR101050 Adenosine|9-beta-D-Ribofuranosyladenine|Adenine riboside|Sandesin|Boniton|Myocol|Nucleocardyl [M+H]+
PI=Putative Massbank Match
DATACOLLECTOR=Massbank
PUBMED=N/A
SUBMITUSER=mwang87
TAGS=
SPECTRUMID=CCMSLIB00000223341
SCANS=11473
119.035 76.45 
136.0616 983.9 
268.1046 104.8 
END IONS

