BEGIN IONS
PEPMASS=345.134
CHARGE=1+
COMPOUNDNAME=gibberellic acid
LIBRARYQUALITY=3
SMILES=N/A
INCHIKEY=IXORZMNAPKEEDV-OBDJNFEBSA-N
INCHI=InChI=1S/C19H22O6/c1-9-7-17-8-18(9,24)5-3-10(17)19-6-4-11(20)16(2,15(23)25-19)13(19)12(17)14(21)22/h4,6,10-13,20,24H,1,3,5,7-8H2,2H3,(H,21,22)/t10-,11+,12-,13-,16-,17+,18+,19-/m1/s1
MSLEVEL=2
SOURCE_INSTRUMENT=N/A-ESI-QTOF
FILENAME=library_mgf.mgf
SEQ=*..*
IONMODE=negative
ORGANISM=MONA
NAME=gibberellic acid [M-H]-
PI=MoNA
DATACOLLECTOR=MoNA:VF-NPL-QTOF001990
PUBMED=N/A
SUBMITUSER=mwang87
TAGS=
SPECTRUMID=CCMSLIB00004719764
SCANS=1987
41.003601 1.343008 
43.019199 3.409219 
55.019001 0.909949 
57.033298 0.561007 
69.032501 0.355123 
69.036201 0.280961 
71.050201 11.100607 
71.1241 0.196917 
73.028603 0.698302 
73.030197 1.878377 
83.050003 7.82585 
95.050797 0.258265 
105.070396 1.752462 
107.0494 0.344226 
119.084297 0.644128 
121.064903 0.542773 
128.060593 0.553632 
129.069397 0.295546 
133.064896 0.67371 
142.077698 0.876902 
143.085907 100.0 
143.190002 2.751073 
143.223297 0.583828 
143.232498 1.29517 
143.260101 0.247539 
143.268906 0.324334 
143.281097 0.610641 
143.298294 0.261352 
143.318497 0.660355 
143.330704 0.226357 
143.362503 0.201191 
143.370499 0.209389 
143.380997 0.320454 
143.424301 0.277631 
143.442993 0.256254 
143.466003 0.227703 
143.505203 0.199656 
143.608505 0.206391 
143.634796 0.268345 
144.052902 0.220347 
144.087402 1.616381 
145.064407 0.51252 
145.095398 0.35713 
146.071304 0.674635 
146.075607 0.374824 
149.095795 0.500521 
155.083099 0.511902 
157.060394 0.221491 
157.068298 0.259639 
158.068497 0.211755 
159.0802 0.514808 
161.095901 1.984993 
169.101105 0.658731 
170.070694 0.360117 
171.079193 0.759231 
171.084595 0.346925 
172.083694 0.31421 
173.094101 0.521394 
179.0849 0.964286 
181.100204 0.734621 
183.080994 1.728409 
183.113602 0.415329 
184.053406 0.220157 
184.072693 0.233304 
184.084106 0.23304 
185.095703 1.248658 
193.101105 3.240818 
195.113007 0.271295 
197.091797 0.23192 
197.131195 0.996586 
198.066696 0.191229 
198.098206 0.217222 
199.074905 0.452712 
199.089294 0.529759 
199.1073 0.374861 
201.126297 0.940854 
205.101105 4.361435 
206.106293 1.06162 
206.113998 0.388327 
209.095398 3.732968 
211.072205 0.460925 
211.081207 0.286589 
212.078796 0.201809 
212.087708 0.214978 
213.124298 0.477649 
219.116699 4.647756 
221.132706 18.553722 
221.264603 0.521396 
222.134903 0.470452 
227.106598 11.367173 
227.233597 0.273436 
228.112793 0.276361 
237.125305 0.541758 
239.140594 0.483105 
255.138199 0.588254 
257.149811 0.235569 
283.133698 0.280057 
END IONS

