BEGIN IONS
PEPMASS=528.127
CHARGE=1+
COMPOUNDNAME=DAUNORUBICIN
LIBRARYQUALITY=3
SMILES=N/A
INCHIKEY=STQGQHZAVUOBTE-VGBVRHCVSA-N
INCHI=InChI=1S/C27H29NO10/c1-10-22(30)14(28)7-17(37-10)38-16-9-27(35,11(2)29)8-13-19(16)26(34)21-20(24(13)32)23(31)12-5-4-6-15(36-3)18(12)25(21)33/h4-6,10,14,16-17,22,30,32,34-35H,7-9,28H2,1-3H3/t10-,14-,16-,17-,22+,27-/m0/s1
MSLEVEL=2
SOURCE_INSTRUMENT=N/A-Linear Ion Trap
FILENAME=library_mgf.mgf
SEQ=*..*
IONMODE=positive
ORGANISM=MONA
NAME=DAUNORUBICIN M-H
PI=MoNA
DATACOLLECTOR=MoNA:VF-NPL-LTQ006472
PUBMED=N/A
SUBMITUSER=mwang87
TAGS=
SPECTRUMID=CCMSLIB00004689940
SCANS=5561
288.980011 2.428226 
293.029999 5.451231 
303.040009 3.757644 
321.040009 100.0 
363.070007 99.194748 
484.089996 3.921776 
END IONS

