BEGIN IONS
PEPMASS=281.105
CHARGE=1+
COMPOUNDNAME=Huperzine A
LIBRARYQUALITY=3
SMILES=N/A
INCHIKEY=ZRJBHWIHUMBLCN-UHFFFAOYSA-N
INCHI=InChI=1S/C15H18N2O/c1-3-11-10-6-9(2)8-15(11,16)12-4-5-14(18)17-13(12)7-10/h3-6,10H,7-8,16H2,1-2H3,(H,17,18)
MSLEVEL=2
SOURCE_INSTRUMENT=N/A-ESI-QFT
FILENAME=library_mgf.mgf
SEQ=*..*
IONMODE=positive
ORGANISM=MONA
NAME=Huperzine A [M+K]+
PI=MoNA
DATACOLLECTOR=MoNA:VF-NPL-QEHF027224
PUBMED=N/A
SUBMITUSER=mwang87
TAGS=
SPECTRUMID=CCMSLIB00004720805
SCANS=27224
50.074322 0.013076 
53.112999 0.01508 
53.41354 0.016836 
54.184795 0.018766 
54.315647 0.010631 
54.617905 0.019566 
54.955009 0.02137 
55.018295 0.021503 
55.06163 0.008111 
57.224998 0.018915 
57.419716 0.019455 
58.782162 0.018296 
59.724117 0.007377 
60.470367 0.010132 
61.010872 0.023687 
61.467388 0.007629 
62.925121 0.018607 
64.696068 0.011318 
64.98539 0.018787 
65.570358 0.016502 
65.581718 0.010944 
65.99115 0.019435 
66.822334 0.01779 
67.138939 0.0133 
67.624519 0.008443 
67.631569 0.012916 
67.738678 0.018456 
68.219955 0.018455 
68.812523 0.013379 
69.352058 0.017934 
70.065224 0.04296 
70.810722 0.010754 
73.128487 0.013217 
73.81501 0.018831 
75.716728 0.013383 
77.317047 0.010309 
78.53154 0.022226 
79.054314 0.079636 
79.838211 0.021103 
79.897614 0.017327 
80.57917 0.020915 
80.589996 0.019683 
81.069901 0.09738 
81.277206 0.015486 
81.716797 0.008719 
82.270515 0.021103 
82.39415 0.019966 
85.155807 0.020453 
85.446732 0.011528 
86.134483 0.008325 
86.203171 0.0177 
87.679153 0.007875 
87.861526 0.010917 
88.91153 0.017307 
90.929001 0.022731 
90.950073 0.016401 
91.054482 0.020754 
91.266808 0.020902 
93.069885 0.407823 
94.410995 0.016894 
96.344856 0.016317 
97.076103 0.024875 
97.806 0.022187 
98.101036 0.016345 
102.28933 0.01168 
103.555069 0.011884 
103.767075 0.017076 
105.069908 0.279291 
106.065132 0.486313 
107.08548 0.431677 
108.080566 0.025 
109.052063 0.011178 
109.076035 0.102545 
110.060051 0.576469 
110.140137 0.013022 
112.387718 0.010853 
120.080765 0.192242 
121.076134 1.259291 
121.101173 0.13465 
122.060005 0.293554 
123.969238 0.008801 
126.054977 0.070824 
131.072968 0.142831 
131.08551 0.010576 
132.044373 0.179198 
132.080856 0.135587 
133.088638 0.407127 
133.505768 0.015617 
134.04718 0.024039 
134.059998 2.130667 
134.09642 1.001819 
135.055313 0.034258 
136.075165 0.013514 
136.637985 0.019563 
137.070938 0.165672 
137.572464 0.019013 
137.602707 0.012347 
137.959518 0.012014 
138.520477 0.018569 
143.085281 0.020382 
144.080978 0.023041 
144.101791 0.5552 
145.076279 0.02113 
146.059998 0.55356 
146.096466 2.052656 
147.055191 0.172581 
148.062759 0.024133 
148.112076 0.032479 
149.071045 2.911478 
149.298706 0.019027 
149.666519 0.019005 
150.073914 0.026631 
152.093262 0.013773 
155.085464 0.02114 
156.080826 0.269191 
157.089203 0.023495 
158.060028 0.296065 
159.055145 0.024275 
159.091415 0.016142 
159.467529 0.012499 
159.719513 0.012297 
160.063171 0.05737 
160.075638 0.09857 
160.808609 0.020341 
161.070938 0.069571 
162.851608 0.017483 
163.086441 0.026436 
166.077942 0.014879 
168.093704 0.010743 
168.981979 0.02085 
169.101166 0.096149 
170.059875 0.481033 
170.09639 1.013996 
171.731522 0.008672 
171.883453 0.027232 
172.07576 0.294337 
172.083511 0.020741 
172.11264 0.011927 
172.27272 0.012537 
173.084381 0.027502 
173.107452 0.228518 
174.078903 0.051107 
174.127197 0.014074 
176.955261 0.013719 
177.127289 0.023582 
177.203293 0.018011 
180.080475 0.030845 
180.964066 0.009103 
181.101181 1.062639 
182.096313 0.027283 
182.10556 0.015555 
183.067749 0.064251 
183.104187 0.208139 
183.116638 0.153665 
184.063217 1.300329 
184.075729 5.30146 
184.112091 0.132017 
185.070786 0.480681 
185.07933 0.115342 
186.078842 0.008646 
186.091339 1.477596 
187.086548 0.337783 
187.095612 0.022763 
188.463043 0.026339 
193.088974 0.142289 
194.096878 0.037812 
195.091125 0.025637 
195.104034 0.123378 
196.075699 1.046405 
196.11203 0.16411 
197.071915 0.650276 
197.083511 7.558148 
197.09375 0.069243 
198.091431 8.966013 
198.127701 2.051202 
199.086304 2.179004 
199.095078 0.461299 
199.131058 0.026927 
200.094513 1.06941 
200.497314 0.021681 
201.102264 0.383141 
205.087692 0.025547 
206.08429 0.036187 
206.096222 0.019957 
208.101044 0.031082 
208.111969 2.121733 
208.743958 0.014474 
209.070953 0.027446 
209.084152 0.134721 
209.095963 0.794116 
209.105972 0.02984 
209.116394 0.017716 
209.154861 0.022332 
209.479782 0.008874 
210.091248 2.906215 
210.127777 0.429693 
211.087494 0.242844 
211.099075 5.299564 
211.123001 0.098309 
212.081787 0.071128 
212.107025 3.035233 
212.143097 0.02727 
213.10202 1.104518 
213.112244 0.073395 
214.109528 0.021774 
214.700012 0.017309 
215.568192 0.451302 
220.111755 0.082329 
221.107513 0.168546 
222.091309 0.547478 
222.11496 0.084661 
223.086517 1.109743 
223.098358 0.23647 
223.12265 0.116035 
224.094772 0.493791 
224.106903 3.802386 
225.101593 0.075622 
225.1138 0.203672 
226.101944 0.24661 
226.122574 100.0 
227.116791 2.522317 
227.127777 6.151767 
228.12149 0.158243 
228.138245 1.451418 
235.086777 0.592725 
236.094345 0.142335 
236.106812 0.060373 
237.102158 0.513338 
237.138626 0.319614 
238.109543 0.018416 
238.122696 0.392056 
238.789322 0.021001 
239.117874 8.776633 
240.112305 0.362658 
240.123032 0.276282 
241.133331 2.638378 
242.140778 0.946542 
244.235703 0.008993 
247.12265 0.012295 
248.107193 0.318652 
249.102158 0.652365 
250.109756 1.070901 
252.004471 0.013416 
252.112762 0.035114 
253.133362 0.617691 
253.59584 0.011792 
255.1492 6.554128 
256.152466 0.384094 
263.118622 0.021187 
265.133636 1.924298 
265.92038 0.02599 
266.13028 0.022548 
267.136261 0.224584 
279.207214 0.056979 
282.159943 19.098154 
283.163605 1.780372 
284.407623 0.013113 
286.153717 0.013423 
297.55545 0.01315 
298.353119 0.021673 
298.638611 0.02208 
END IONS

