BEGIN IONS
PEPMASS=141.0
CHARGE=1+
COMPOUNDNAME=Massbank:KO003846 Phosphonoacetate|Phosphonoacetic acid
LIBRARYQUALITY=3
SMILES=OC(=O)CP(O)(O)=O
INCHIKEY=XUYJLQHKOGNDPB-UHFFFAOYSA-N
INCHI=1S/C2H5O5P/c3-2(4)1-8(5,6)7/h1H2,(H,3,4)(H2,5,6,7)
MSLEVEL=2
SOURCE_INSTRUMENT=ESI-LC-ESI-QQ
FILENAME=Massbank_ESI_positive_8_1_2014_peaks.mgf
SEQ=*..*
IONMODE=Positive
ORGANISM=MASSBANK
NAME=Massbank:KO003846 Phosphonoacetate|Phosphonoacetic acid [M+H]+
PI=Putative Massbank Match
DATACOLLECTOR=Massbank
PUBMED=N/A
SUBMITUSER=mwang87
TAGS=
SPECTRUMID=CCMSLIB00000220215
SCANS=9643
44.1 34653.5 
53.0 207921.0 
59.2 19802.0 
78.1 1113862.5 
79.0 311881.5 
80.1 2920795.0 
80.8 544555.0 
96.4 168317.0 
123.2 222772.5 
124.1 69307.0 
END IONS

