BEGIN IONS
PEPMASS=390.278
CHARGE=1+
COMPOUNDNAME=Roquefortine C
LIBRARYQUALITY=3
SMILES=N/A
INCHIKEY=SPWSUFUPTSJWNG-LIMLNZRCSA-N
INCHI=InChI=1S/C22H23N5O2/c1-4-21(2,3)22-10-17-18(28)25-16(9-13-11-23-12-24-13)19(29)27(17)20(22)26-15-8-6-5-7-14(15)22/h4-9,11-12,17,20,26H,1,10H2,2-3H3,(H,23,24)(H,25,28)/b16-9-/t17-,20-,22+/m0/s1
MSLEVEL=2
SOURCE_INSTRUMENT=N/A-Linear Ion Trap
FILENAME=library_mgf.mgf
SEQ=*..*
IONMODE=positive
ORGANISM=MONA
NAME=Roquefortine C M-H
PI=MoNA
DATACOLLECTOR=MoNA:VF-NPL-LTQ004369
PUBMED=N/A
SUBMITUSER=mwang87
TAGS=
SPECTRUMID=CCMSLIB00004688108
SCANS=3729
165.009995 75.864502 
320.070007 100.0 
END IONS

