BEGIN IONS
PEPMASS=259.06
CHARGE=1+
COMPOUNDNAME=norlichexanthone
LIBRARYQUALITY=3
SMILES=N/A
INCHIKEY=AQZHBCDRWFMXIN-UHFFFAOYSA-N
INCHI=InChI=1S/C14H10O5/c1-6-2-7(15)4-10-12(6)14(18)13-9(17)3-8(16)5-11(13)19-10/h2-5,15-17H,1H3
MSLEVEL=2
SOURCE_INSTRUMENT=N/A-ESI-QFT
FILENAME=library_mgf.mgf
SEQ=*..*
IONMODE=positive
ORGANISM=MONA
NAME=norlichexanthone [M+H]+
PI=MoNA
DATACOLLECTOR=MoNA:VF-NPL-QEHF017944
PUBMED=N/A
SUBMITUSER=mwang87
TAGS=
SPECTRUMID=CCMSLIB00004709007
SCANS=17944
50.99329 0.006226 
52.683563 0.003591 
53.620716 0.015343 
53.970936 0.009645 
54.06216 0.002881 
54.356312 0.0032 
54.700745 0.003216 
54.908791 0.003406 
54.921921 0.015702 
55.054523 0.004246 
55.26067 0.003433 
55.408474 0.004303 
56.964977 0.003279 
57.07016 0.144587 
57.284199 0.004 
57.580765 0.00338 
58.065414 1.68925 
58.139385 0.002803 
59.008476 0.008946 
59.068634 0.009297 
59.288353 0.014922 
59.545528 0.002984 
60.044613 0.003935 
60.585796 0.004259 
60.598953 0.003903 
61.010902 0.032613 
61.841534 0.003023 
61.870754 0.003057 
61.964195 0.015846 
62.018696 0.00659 
62.060249 0.219349 
62.319016 0.002877 
63.594227 0.003201 
64.507027 0.016591 
64.647598 0.003934 
64.845863 0.009223 
65.021614 0.014283 
65.407784 0.009415 
65.806366 0.003018 
66.357468 0.014709 
66.747246 0.009075 
67.054298 0.003728 
67.280342 0.002843 
69.069916 0.043854 
69.375183 0.002812 
69.676155 0.003148 
70.065239 0.027726 
70.108147 0.004536 
70.315033 0.004174 
71.048798 0.002906 
71.085579 0.130221 
75.706161 0.003387 
75.801582 0.010219 
75.885017 0.004457 
75.933868 0.004031 
77.651611 0.003667 
78.287788 0.004079 
78.588531 0.003173 
78.714752 0.003146 
79.021233 0.265265 
79.277153 0.003293 
79.898102 0.003056 
80.379028 0.004564 
81.069893 0.024316 
81.954407 0.009184 
83.065361 0.003695 
83.085587 0.02421 
84.080872 0.022957 
85.039665 0.014208 
85.101181 0.019079 
86.09642 0.36119 
87.055244 0.003897 
88.075714 0.08939 
88.935318 0.003415 
89.05983 0.015049 
90.826561 0.005537 
91.100571 0.016545 
92.32505 0.010699 
94.160591 0.003019 
95.034187 0.011793 
95.085556 0.015975 
95.149986 0.004129 
96.32534 0.003432 
97.10083 0.004135 
97.196777 0.003604 
98.096085 0.003629 
98.671471 0.015278 
98.975365 1.15803 
99.827225 0.005591 
99.978722 0.160444 
100.055023 0.005678 
100.07534 0.003837 
100.971481 0.076925 
100.979568 0.045956 
101.003204 0.290907 
101.949928 1.920118 
101.971558 0.082922 
102.142319 0.004502 
102.502136 0.003512 
102.9683 2.005122 
102.971672 0.018227 
103.880577 0.003575 
104.10688 0.020895 
105.28215 0.00277 
106.086395 0.017228 
107.085625 0.006966 
108.065872 0.004144 
109.101311 0.004577 
110.789894 0.0035 
112.075272 0.016241 
113.059547 0.011736 
116.070343 0.011893 
116.985954 0.429897 
117.021133 0.003157 
117.989342 0.023741 
118.981934 0.011145 
119.960533 0.493189 
119.981941 0.018621 
120.827225 0.003592 
120.978844 0.734115 
121.668808 0.00343 
121.982239 0.003972 
124.230698 0.009871 
125.220055 0.010096 
125.768234 0.004545 
129.01825 0.019708 
129.102142 0.004025 
130.049927 0.09263 
130.086044 0.007377 
130.736969 0.005683 
134.701187 0.003662 
134.99649 0.051555 
136.976807 0.003392 
137.011551 0.009746 
137.080765 0.003778 
137.954544 0.044142 
137.971085 0.092919 
138.93573 0.00805 
138.98941 0.131859 
139.246078 0.00309 
140.023407 0.003768 
140.959152 0.018155 
142.159393 0.003687 
144.891602 0.004252 
146.117691 0.006394 
146.245544 0.004079 
147.076401 0.140607 
147.519897 0.003544 
147.703842 0.003511 
148.047379 0.003519 
151.665588 0.003437 
152.248016 0.005476 
152.95166 0.319196 
153.959412 0.057255 
154.615112 0.004783 
154.946915 0.060254 
154.967133 0.208184 
155.389175 0.002797 
155.954834 0.003844 
155.965103 0.01606 
155.987732 0.003708 
156.06546 0.003333 
156.098022 0.003348 
156.945862 0.009026 
156.962692 0.024631 
157.481735 0.004328 
162.427582 0.003186 
164.94043 0.003864 
165.502472 0.003443 
165.746063 0.010933 
166.001144 0.005873 
170.962082 0.022685 
172.376373 0.003333 
176.989334 0.245385 
177.992554 0.086532 
178.908157 0.049485 
178.985138 0.345628 
178.993439 0.028979 
179.909393 0.088348 
179.96373 1.76116 
179.987671 0.100806 
179.996292 0.003722 
180.90657 0.849963 
180.945847 0.009277 
180.982178 1.455398 
181.959229 0.035271 
181.985199 0.015057 
182.153564 0.007326 
182.904068 0.070045 
182.943726 0.084648 
182.95192 0.008794 
183.006546 0.04582 
184.169708 0.004336 
184.511063 0.003378 
184.939835 0.008641 
187.926208 0.004011 
191.070129 0.023502 
191.574783 0.003761 
192.219711 0.005207 
193.867355 0.004012 
194.999771 0.159288 
195.726257 0.004221 
195.990204 0.003374 
196.003128 0.052992 
196.918884 0.014564 
196.995651 0.253093 
197.004166 0.017211 
197.91983 0.035651 
197.97438 3.426027 
197.996994 0.074735 
198.254852 0.010298 
198.916885 0.399479 
198.957001 0.013344 
198.977417 0.03478 
198.99295 1.258237 
199.096283 0.003786 
199.169159 0.021242 
199.969986 0.109764 
199.979462 0.005582 
199.995331 0.023276 
200.914673 0.03145 
200.988419 0.00995 
201.017151 0.118571 
204.352661 0.003812 
208.325912 0.00599 
211.989746 0.020677 
212.955124 0.004399 
215.98494 0.558336 
215.996506 0.067645 
216.009079 0.166862 
217.003433 0.045856 
217.049316 0.029058 
218.077194 0.003656 
222.073578 0.004094 
222.899063 0.032586 
235.890366 0.004337 
239.139618 0.004667 
240.195404 0.008698 
240.268478 0.132007 
240.90892 0.050382 
242.057953 0.004075 
244.036743 0.114439 
244.179184 0.007309 
257.045776 0.027769 
257.099884 1.026365 
257.135895 0.266727 
257.150208 0.021019 
257.172119 0.085165 
257.205444 0.051309 
257.26767 0.256507 
258.051727 0.086071 
258.076538 0.029493 
258.103027 0.214921 
258.13913 0.010297 
258.171112 0.019884 
258.185211 0.016703 
258.20816 0.026771 
258.221619 0.129813 
258.279602 2.051359 
259.036072 0.011261 
259.060242 100.0 
259.113953 0.298724 
259.151337 1.335966 
259.166229 0.091958 
259.202515 0.015304 
259.222137 0.003781 
259.282867 0.329335 
259.407959 0.003966 
260.063538 15.592703 
260.153961 0.033438 
260.16571 0.05588 
260.185272 0.007649 
260.201172 0.095457 
260.23703 0.185276 
261.06665 0.734722 
261.105469 0.210906 
261.130951 84.575233 
263.231537 0.003757 
274.377838 0.003446 
278.561737 0.003423 
278.588593 0.005602 
END IONS

