BEGIN IONS
PEPMASS=319.131
CHARGE=1+
COMPOUNDNAME=(1R,2E,7R,10E,12S,13S,15R)-12,15-dihydroxy-7-methyl-8-oxabicyclo[11.3.0]hexadeca-2,10-dien-9-one
LIBRARYQUALITY=3
SMILES=N/A
INCHIKEY=KQNZDYYTLMIZCT-SWGFJCPHSA-N
INCHI=InChI=1S/C16H24O4/c1-11-5-3-2-4-6-12-9-13(17)10-14(12)15(18)7-8-16(19)20-11/h4,6-8,11-15,17-18H,2-3,5,9-10H2,1H3/b6-4+,8-7+/t11-,12+,13-,14+,15+/m1/s1
MSLEVEL=2
SOURCE_INSTRUMENT=N/A-ESI-QFT
FILENAME=library_mgf.mgf
SEQ=*..*
IONMODE=positive
ORGANISM=MONA
NAME=(1R,2E,7R,10E,12S,13S,15R)-12,15-dihydroxy-7-methyl-8-oxabicyclo[11.3.0]hexadeca-2,10-dien-9-one [M+K]+
PI=MoNA
DATACOLLECTOR=MoNA:VF-NPL-QEHF022877
PUBMED=N/A
SUBMITUSER=mwang87
TAGS=
SPECTRUMID=CCMSLIB00004713940
SCANS=22877
51.940334 0.254185 
52.051689 0.020256 
52.312832 0.018337 
52.335564 0.031518 
53.423119 0.037931 
53.621597 0.016375 
55.018166 0.107286 
55.030926 0.029096 
55.054573 1.178966 
55.823589 0.022615 
55.934757 0.474632 
56.049717 0.027914 
56.169598 0.022954 
56.568161 0.018167 
56.656357 0.030997 
56.965076 1.215636 
57.033798 0.048836 
57.070183 1.513514 
57.071571 0.025075 
57.935097 0.259347 
58.065434 0.775121 
58.192715 0.016841 
58.37307 0.02843 
59.049435 0.074516 
59.93047 0.104977 
60.044613 0.107425 
61.01086 4.043742 
61.292816 0.017542 
62.0187 0.273825 
62.146114 0.017174 
62.629257 0.039502 
63.006664 0.089835 
63.942329 0.024218 
63.997971 0.255877 
64.939331 0.018898 
65.038742 1.314088 
66.140114 0.03418 
67.054367 2.487672 
67.934975 0.023656 
68.340538 0.03783 
68.942772 0.299625 
69.033676 0.043295 
69.07 1.421389 
69.19297 0.019228 
70.065285 0.518974 
70.895409 0.041738 
70.957947 0.121949 
71.049271 0.185744 
71.085632 0.704926 
71.929367 0.03817 
72.080849 0.344907 
72.867722 0.028622 
72.937202 2.254899 
73.028458 0.031496 
73.065109 0.034013 
73.193787 0.021182 
74.060188 0.029473 
76.514381 0.036751 
77.036797 0.023732 
77.630348 0.026444 
77.805878 0.025396 
78.302849 0.019049 
78.39901 0.02875 
79.018867 0.034634 
79.021286 3.992328 
79.054276 1.163244 
80.049553 0.413029 
80.057693 0.02989 
81.033585 0.056308 
81.069931 3.17184 
81.072495 0.02797 
82.065285 0.065952 
82.073288 0.100343 
83.04908 0.176626 
83.085594 0.947407 
84.044479 0.043001 
84.080849 0.111484 
84.937744 0.914666 
84.959679 0.032108 
84.971962 0.144083 
85.028458 0.019346 
85.039711 0.522801 
85.053947 0.039909 
85.064873 0.139222 
85.101265 0.106714 
85.475983 0.023947 
85.945473 0.096243 
85.979774 0.211583 
86.096519 0.233213 
86.526001 0.034429 
86.651436 0.035382 
87.044098 0.124657 
88.07576 0.497237 
88.96846 0.08629 
89.059708 0.445549 
89.963638 0.160041 
90.046494 0.026267 
90.947807 2.101533 
91.05426 100.0 
91.772942 0.036129 
92.057571 4.217072 
93.069954 1.386213 
94.064873 0.025558 
95.049187 0.289965 
95.085579 3.045269 
96.044823 0.034338 
96.089111 0.029234 
96.149078 0.017557 
97.064903 0.219828 
97.101196 0.432974 
97.285446 0.029178 
98.060234 0.02546 
98.096588 0.046273 
99.044449 0.030986 
99.080345 0.081236 
99.347977 0.04068 
100.112114 0.030716 
100.803085 0.022519 
101.605461 0.023372 
102.091248 0.025239 
102.948196 4.751564 
103.676376 0.022648 
103.948235 0.541368 
105.033478 0.035651 
105.069977 0.890634 
106.073395 0.023847 
106.086372 0.319182 
106.979965 0.017863 
107.049187 1.071619 
107.085594 0.954956 
107.089371 0.026943 
108.080734 0.026801 
108.958328 0.635079 
109.064827 0.170651 
109.075974 0.021491 
109.10125 1.482423 
111.080544 0.08555 
111.747246 0.038213 
112.075905 0.025884 
113.09639 0.019255 
113.343048 0.026802 
114.948242 0.400241 
115.054337 0.054272 
116.963638 0.899928 
116.985107 0.192806 
117.069847 0.302794 
118.943062 0.756464 
118.979919 0.030837 
118.990547 0.026873 
119.085617 0.710754 
119.943352 0.029213 
119.950935 0.633059 
120.08078 5.740248 
120.951202 0.03891 
120.958763 1.570284 
121.064796 0.911703 
121.08416 0.182018 
121.101128 0.706952 
121.851143 0.038913 
121.958878 0.128323 
122.161972 0.019438 
122.940659 0.025393 
123.080612 0.163335 
123.116875 0.338781 
124.699013 0.038004 
125.960648 0.029489 
126.055153 0.029655 
127.036682 0.208129 
128.963654 1.06083 
129.069901 0.235198 
130.963455 0.019654 
130.979385 0.992904 
131.000336 0.12027 
131.073273 0.020064 
131.085587 0.477468 
131.140808 0.018913 
131.950867 1.241191 
131.961273 0.02225 
132.080795 0.035305 
132.950775 0.032419 
132.958649 0.560133 
133.064896 0.054788 
133.092834 0.036089 
133.101028 0.509828 
133.959305 0.064207 
133.966309 0.071319 
134.060608 0.021304 
134.09642 0.074655 
134.956207 0.333539 
134.973984 0.425362 
134.979126 0.108004 
134.996155 0.153706 
135.080536 0.197432 
135.116714 0.24634 
135.957657 0.022143 
135.982346 0.020257 
136.07518 0.025148 
136.112244 0.051249 
136.409073 0.04382 
136.580338 0.028676 
136.95314 0.073125 
136.989685 0.024363 
137.011765 0.085648 
137.09613 0.128558 
137.132492 0.028873 
137.954849 0.034014 
137.961823 0.024069 
138.091644 0.02211 
138.128052 0.025844 
138.95105 0.046231 
138.984116 0.099375 
139.013077 0.025249 
140.984467 0.174071 
141.069809 0.024561 
142.979446 0.076575 
143.000259 0.107353 
143.085556 0.216839 
143.950821 0.094403 
143.974304 0.029388 
144.920517 0.267474 
144.95845 0.142764 
144.979782 0.021635 
144.994858 0.072721 
145.016235 0.035712 
145.064651 0.075057 
145.101074 0.271026 
145.990128 0.085989 
146.956833 0.033651 
146.97435 5.378763 
146.995773 0.025919 
147.043732 0.022292 
147.080231 0.236226 
147.091095 0.033349 
147.116882 0.12755 
147.974396 0.401657 
148.075455 0.03528 
148.112473 0.054602 
148.955795 0.712201 
148.972 0.526972 
148.98967 0.312034 
149.01181 0.021254 
149.095932 0.096047 
149.132629 0.057206 
149.9543 0.11812 
149.960831 0.0258 
149.971909 0.119882 
149.984558 0.020881 
150.951065 1.887388 
150.968933 0.425956 
150.984283 0.021325 
152.070663 0.071668 
152.106689 0.037589 
152.951736 0.784747 
152.966675 0.257222 
152.989288 0.215898 
153.959366 0.093066 
153.992752 0.027785 
154.947021 0.845796 
154.967239 0.114288 
154.978729 0.022455 
155.000153 0.174942 
155.022644 0.039 
155.954483 0.102838 
155.974152 0.025786 
156.944992 0.055296 
156.962692 0.285198 
157.016052 0.027214 
157.101135 0.208248 
158.943802 0.12398 
158.974365 0.156782 
158.995529 0.111093 
159.080521 0.026039 
159.116867 0.206427 
159.943695 0.217219 
159.96904 0.077182 
160.941269 0.03568 
160.951797 0.226953 
160.990097 0.472075 
161.011398 0.070949 
161.095917 0.038279 
161.132431 0.032686 
161.952026 0.227155 
161.961227 0.111461 
162.971283 0.307543 
163.005386 0.108711 
163.028183 0.050898 
163.947281 0.024959 
163.967484 0.67504 
163.9767 0.031938 
164.107147 0.068649 
164.966995 0.02848 
164.98468 0.073706 
165.000031 0.038662 
165.091125 0.071572 
165.128281 0.029798 
165.96312 0.149462 
166.966232 0.239333 
166.97937 0.061387 
166.999939 0.022783 
168.138275 0.077872 
168.961731 1.005028 
168.994751 0.278335 
169.016403 0.266369 
169.989777 0.03946 
170.961838 0.318373 
170.974075 0.030046 
171.011108 0.030902 
171.031754 0.021104 
171.062805 4.807959 
171.0802 0.039996 
171.11673 0.06022 
172.005692 0.187505 
172.066208 0.166243 
172.112564 0.021188 
172.957489 0.342621 
173.011169 0.0674 
173.078476 0.581377 
173.870834 0.043328 
173.984863 0.069498 
174.006149 0.168264 
174.98999 0.126974 
175.005096 0.023863 
176.001053 0.088669 
176.955109 0.032788 
177.954819 0.049011 
177.992447 0.065346 
178.96431 0.088687 
179.001129 0.429252 
179.015182 0.042857 
179.022049 0.027247 
179.954071 0.022315 
179.962219 0.16361 
180.004761 0.02266 
180.023865 0.023195 
180.888229 0.190669 
180.982422 0.49864 
181.01651 0.09885 
181.120865 0.026847 
181.97821 0.035298 
181.996948 1.575449 
182.117615 0.143631 
182.976669 0.022488 
182.996704 0.11526 
183.032455 0.02397 
184.026901 0.047614 
184.112671 0.02106 
185.010818 0.038926 
185.132385 0.040508 
186.021576 0.036061 
186.927475 0.023984 
186.989929 0.044802 
187.005417 0.256274 
187.027328 0.17736 
187.999847 0.022422 
188.021698 0.02728 
188.984634 0.02476 
189.005951 0.043831 
189.054886 0.035535 
190.01622 0.038065 
190.873047 0.32746 
191.000259 0.118885 
191.880753 2.653447 
192.880432 0.183904 
192.889114 0.216476 
192.961639 0.517437 
192.994568 0.065287 
194.405136 0.019843 
194.943497 0.194071 
196.003006 0.025684 
196.041885 0.104094 
197.012131 2.783992 
197.891907 0.038007 
198.015381 1.343541 
198.898849 0.082886 
199.007416 0.078283 
199.028473 0.061061 
199.132706 0.355666 
200.007584 0.81876 
201.005966 0.21778 
201.04274 0.026904 
202.017075 0.025354 
202.085968 0.033692 
203.10733 0.027964 
205.016556 0.138378 
206.117264 0.037094 
206.867874 0.330445 
206.978058 0.459018 
207.030777 0.027351 
207.069107 0.078238 
207.875809 0.189849 
208.883621 5.210104 
209.011139 0.025395 
209.891739 5.484672 
209.927597 0.036887 
209.973114 0.115968 
210.890396 0.494837 
210.900085 0.312175 
210.972137 0.256027 
211.89064 0.15854 
211.909088 0.036908 
211.968201 0.024878 
213.055054 0.021 
213.138824 0.412323 
214.873657 0.022648 
214.893188 0.078914 
214.919205 0.262014 
214.925476 0.491899 
215.022949 1.216284 
215.034042 0.034625 
215.089142 11.870339 
215.154205 0.82123 
216.025955 0.606 
216.092468 1.02437 
216.889648 0.093805 
217.015854 0.037762 
217.104736 1.610444 
218.190689 0.023877 
218.904953 0.240694 
219.017181 0.050493 
219.174179 0.036531 
219.904633 0.051158 
220.169235 0.025017 
220.903229 1.499593 
221.90181 0.124455 
222.898651 3.477366 
223.900269 0.044364 
224.878235 0.984996 
224.897964 0.060982 
225.020935 0.056028 
225.886795 0.393445 
226.894119 1.487267 
227.900955 0.802891 
229.895752 1.771381 
229.920349 0.334443 
230.154144 0.036263 
231.031723 0.02695 
231.053329 0.03333 
231.08403 0.149714 
232.883438 1.967513 
232.904663 0.021791 
233.892334 0.927924 
234.899658 3.396902 
235.87027 0.06875 
235.889893 0.18831 
235.900894 0.240464 
236.899445 0.454204 
236.915848 0.064853 
237.88707 0.034441 
237.921997 0.058064 
238.894119 0.218389 
238.913773 2.951281 
238.967896 0.026213 
239.912445 0.176969 
240.030655 0.029249 
240.909073 6.085135 
241.016052 0.025486 
241.051025 0.030379 
241.910049 0.074285 
242.047287 0.604801 
242.909836 0.301423 
242.943985 0.128988 
243.030945 0.023932 
244.905396 0.036053 
244.921234 0.080603 
245.91124 0.749403 
245.930954 0.134717 
246.184525 0.030544 
246.899002 0.097918 
247.114899 0.02924 
247.906418 1.76619 
248.87854 0.917609 
248.914963 0.035493 
250.893997 7.431354 
251.894257 1.073953 
252.89592 0.194392 
252.910538 0.122286 
253.902481 1.32032 
253.915955 0.09182 
255.797104 0.040218 
255.898041 0.416562 
255.917786 0.06587 
256.904785 0.029072 
256.921661 0.022695 
258.149231 0.045109 
258.899414 0.353728 
258.938782 0.035055 
259.047058 0.036144 
259.061584 0.458184 
259.084045 0.028102 
259.115356 0.679048 
259.958252 0.113622 
260.044861 0.079031 
260.058014 1.594226 
260.201233 0.036279 
260.920624 0.069675 
260.954651 0.578348 
261.041992 0.429511 
261.059631 0.04521 
261.13089 1.738191 
261.326294 0.037432 
262.180237 0.531458 
262.914154 0.975521 
262.929291 0.122315 
263.900482 0.030068 
263.913208 0.041416 
264.196442 0.033921 
264.909515 2.600866 
264.927032 0.05027 
266.889343 0.838556 
268.061035 0.040315 
268.89032 0.027284 
268.904724 1.320381 
269.820892 0.298879 
269.905853 0.096479 
270.115662 0.02794 
270.828461 0.287347 
271.91275 0.040636 
273.116241 0.040036 
274.21637 0.043046 
274.893921 0.280023 
275.109985 0.124697 
275.810516 0.036842 
275.90213 0.659185 
276.818878 0.062799 
276.910126 1.649924 
277.096771 0.025432 
277.824951 0.048206 
277.900787 1.158928 
278.900696 0.082305 
279.897095 1.044684 
279.916473 0.505693 
280.813477 0.464855 
280.924622 0.762844 
281.820831 0.111442 
281.911774 0.363628 
282.115143 0.226372 
282.920013 1.846924 
283.819855 0.062446 
284.807526 0.810552 
285.81601 0.804713 
286.822998 0.158266 
287.831543 1.258134 
288.838989 0.855589 
288.909515 0.207087 
289.100159 0.044623 
289.126892 0.083653 
291.143646 0.072145 
294.828644 0.761092 
294.921082 0.073127 
295.820953 0.032433 
295.912292 0.364447 
295.928253 0.152781 
296.808044 0.174894 
296.912018 0.099557 
297.815979 0.931635 
297.907562 0.46069 
298.823456 0.028181 
300.125732 0.288199 
300.822479 0.034884 
301.110931 0.024807 
301.810242 0.188412 
302.211151 0.359731 
302.248077 0.403108 
302.818604 3.332508 
303.186615 0.0212 
303.821381 0.042916 
304.226135 0.024388 
305.92218 0.031627 
306.920197 1.223091 
309.815857 0.023909 
310.822906 0.022946 
310.843597 0.263485 
310.914886 0.069454 
311.830566 0.449957 
312.839233 9.496956 
313.812469 0.043191 
313.840271 0.748923 
314.841156 0.160662 
317.164459 0.029609 
317.193451 0.107435 
317.223511 0.036812 
317.324127 0.186893 
318.151947 0.044404 
318.243103 2.023426 
318.27887 0.311929 
318.315063 0.086075 
319.136505 20.898272 
319.173004 1.794447 
319.243256 0.347106 
319.274933 0.196802 
319.83606 0.040655 
320.140198 2.90118 
320.176086 0.143265 
320.222046 0.165588 
320.258179 1.109042 
320.294403 0.178333 
321.152191 1.42701 
321.196198 0.821163 
322.10022 0.031233 
324.930054 0.307612 
325.83078 0.334275 
326.818268 1.706628 
327.826233 3.149543 
328.830933 0.244846 
329.84198 0.167978 
330.849182 0.272186 
336.839447 0.029962 
337.845917 0.030016 
342.833862 0.261247 
343.832581 0.031216 
344.828827 7.715727 
END IONS

