BEGIN IONS
TITLE=Scan Number: 1
PEPMASS=585.32001
CHARGE=1+
COMPOUNDNAME=Desferrioxamine B + Al (M-2H+Al)
LIBRARYQUALITY=3
SMILES=CC(=O)N(CCCCCNC(=O)CCC(=O)N(CCCCCNC(=O)CCC(=O)N(CCCCCN)O)O)O
INCHIKEY=UBQYURCVBFRUQT-UHFFFAOYSA-N
INCHI=
MSLEVEL=2
SOURCE_INSTRUMENT=LC-ESI-Hybrid FT
FILENAME=f.celio/Library/585.mzXML;
SEQ=*..*
NOTES=
IONMODE=Positive
ORGANISM=GNPS-LIBRARY
NAME=Desferrioxamine B + Al (M-2H+Al) M+H
SPECTRUMID=CCMSLIB00000531493
ACTIVATION=CID
INSTRUMENT=ion trap
SCANS=1
50.067413 4779.044434 
50.43132 7115.372559 
51.687878 4797.908203 
52.536259 5876.21875 
52.605503 7276.772461 
52.752754 6467.90625 
53.641571 6436.956543 
54.018459 3860.682617 
54.065002 3991.623047 
55.104908 4747.432617 
58.51107 4372.86084 
58.557373 6924.747559 
59.80146 7362.628418 
60.930347 6679.178711 
60.968037 7396.152832 
61.514481 7906.376465 
61.59465 8042.990723 
67.489586 4985.128906 
68.921219 7244.876465 
70.065582 211994.3125 
74.884064 8762.649414 
79.885353 4245.040039 
80.842422 7278.550293 
81.885994 8209.269531 
84.0811 228231.453125 
85.094322 7253.494629 
85.792946 5569.236816 
86.060417 5584.308594 
86.096779 58767.109375 
86.8554 8741.996094 
88.659058 5239.427734 
89.396118 8089.84082 
91.269569 7680.92627 
91.928612 35007.484375 
93.425713 8961.982422 
94.136444 8150.514648 
94.935989 9118.21582 
98.096611 6074.573242 
98.885193 5036.001953 
99.915497 5271.40332 
100.251724 8784.451172 
110.430267 4972.174316 
112.922638 4905.564941 
113.623657 9526.331055 
116.417145 4861.854492 
120.044586 7276.051758 
127.086716 61238.175781 
132.686417 6963.747559 
155.081543 41631.511719 
167.292557 6632.739258 
169.096848 6296.918945 
169.48967 8312.853516 
182.747375 5145.75 
183.148773 10864.351562 
186.016357 19243.105469 
200.03183 8510.59375 
200.461899 8879.324219 
203.096466 68008.28125 
207.828598 5179.877441 
241.112122 118350.703125 
255.61824 8048.540527 
257.107574 55962.121094 
259.020752 9766.798828 
264.055786 9374.092773 
266.690491 8514.495117 
269.109222 10166.139648 
270.876709 10073.380859 
284.11911 51053.824219 
285.102936 182118.578125 
294.875183 8783.201172 
299.1185 7878.897461 
300.112274 45353.992188 
303.113403 369956.59375 
340.177643 10641.736328 
343.191223 29219.748047 
354.36377 5261.439453 
361.203552 17390.796875 
366.124176 33244.496094 
367.189758 160341.203125 
368.176239 1457384.25 
370.191528 6033.88623 
377.716217 8788.420898 
381.208069 10397.78125 
381.374054 5169.645996 
385.200012 2157761.0 
386.184387 126206.570312 
403.56308 9787.383789 
407.186401 88657.640625 
408.311096 9450.244141 
411.178864 37823.492188 
412.30426 9108.277344 
424.210388 20164.265625 
425.198395 863637.5 
426.181488 6825.254395 
439.212952 1075714.25 
439.2435 8801.541992 
443.208527 42767.800781 
448.211487 8456.996094 
449.198761 74085.875 
451.246765 50734.566406 
466.226532 53626.914062 
467.206879 1509403.875 
468.276855 167954.9375 
468.849304 8840.976562 
469.220306 10854.326172 
471.605988 7279.9375 
476.560577 9211.999023 
482.220825 39101.757812 
485.304291 47003.015625 
490.260559 18039.488281 
508.273315 75848.789062 
513.823975 9031.03125 
522.285278 19075.242188 
523.317139 6139.731445 
525.298706 35216.203125 
531.288208 11506.361328 
532.271118 171037.734375 
539.193237 6254.541504 
539.312012 60379.855469 
541.3255 12301.612305 
549.297668 169538.59375 
550.282104 163914.0 
567.308289 312672.53125 
568.2901 312748.0 
569.390442 5536.75293 
582.480957 11511.601562 
585.318359 1519194.25 
607.531372 8243.494141 
END IONS

