BEGIN IONS
PEPMASS=299.197
CHARGE=1+
COMPOUNDNAME=Isocycloheximide
LIBRARYQUALITY=3
SMILES=N/A
INCHIKEY=YPHMISFOHDHNIV-UHFFFAOYSA-N
INCHI=InChI=1S/C15H23NO4/c1-8-3-9(2)15(20)11(4-8)12(17)5-10-6-13(18)16-14(19)7-10/h8-12,17H,3-7H2,1-2H3,(H,16,18,19)
MSLEVEL=2
SOURCE_INSTRUMENT=N/A-ESI-QFT
FILENAME=library_mgf.mgf
SEQ=*..*
IONMODE=positive
ORGANISM=MONA
NAME=Isocycloheximide [M+NH4]+
PI=MoNA
DATACOLLECTOR=MoNA:VF-NPL-QEHF023913
PUBMED=N/A
SUBMITUSER=mwang87
TAGS=
SPECTRUMID=CCMSLIB00004714976
SCANS=23913
50.202778 0.205127 
50.407566 0.15195 
50.457924 0.190369 
51.073578 0.178406 
52.608444 0.183254 
52.648319 0.219059 
53.002632 0.236264 
53.038933 5.344208 
53.09864 0.135555 
53.402378 0.212447 
54.597641 0.224104 
55.018204 11.210803 
55.054581 25.713432 
55.091488 0.23171 
55.305874 0.168418 
55.619095 0.205851 
56.057861 0.887314 
56.211388 0.205492 
56.282631 0.19649 
56.541943 0.238807 
56.965073 0.869161 
57.033791 8.444826 
57.070171 2.587331 
57.757854 0.184449 
58.813278 0.183333 
59.049362 1.552773 
59.271973 0.249682 
60.044643 1.954268 
60.637211 0.205551 
61.010891 15.58745 
61.044914 0.18213 
62.443958 0.227396 
62.481293 0.20319 
62.787056 0.21036 
62.99015 0.87069 
63.230133 0.215468 
64.800575 0.22429 
65.038788 10.983758 
65.65448 0.190308 
65.680161 0.215397 
65.811516 0.234809 
66.38681 0.221523 
66.966507 0.205925 
67.054375 41.175343 
67.258209 0.110776 
67.355286 0.13961 
67.909096 0.136049 
68.049637 0.498292 
68.057732 5.200259 
68.060822 0.367671 
68.335388 0.20027 
68.382935 0.218188 
68.45089 0.141141 
69.03363 16.4904 
69.07003 24.927198 
69.071899 0.169423 
70.065163 0.225548 
70.073395 2.165509 
70.934647 0.198863 
70.957932 0.288841 
71.049202 4.054138 
71.42894 0.144351 
72.38192 0.193211 
72.937202 1.132124 
73.077248 0.116622 
73.807877 0.215387 
74.108025 0.211619 
77.038712 0.687757 
78.967209 2.032418 
79.054298 55.609219 
79.881088 0.236973 
80.049545 0.181827 
80.05764 10.634961 
80.060188 0.932311 
80.978188 0.179935 
81.033577 10.691781 
81.069954 42.737637 
81.768463 0.19432 
82.065125 0.465356 
82.073296 6.993893 
82.075943 0.794633 
82.435699 0.224418 
83.04921 13.905791 
83.085571 5.350488 
83.152695 0.188627 
84.044472 5.037747 
84.052605 0.972002 
84.088921 0.268976 
84.553375 0.133348 
85.028442 0.227062 
85.064842 1.022753 
85.101334 0.222114 
86.349022 0.213812 
87.565697 0.25691 
87.705154 0.228494 
89.0495 0.243891 
89.059769 2.894591 
89.884407 0.228456 
91.054298 50.99575 
91.057297 1.029757 
91.636162 0.176336 
92.057678 10.644939 
92.060638 0.247401 
92.982712 0.208013 
93.033531 11.162798 
93.070007 46.059753 
94.0653 0.910665 
94.073273 8.395087 
94.076317 0.322885 
94.880798 0.212347 
95.012794 4.127555 
95.049217 38.207664 
95.085617 61.93317 
96.044479 100.0 
96.052399 5.024626 
96.055611 0.379941 
96.080872 0.186182 
96.088943 14.087889 
96.091949 1.849258 
97.028503 7.246014 
97.047859 29.346437 
97.050873 3.973019 
97.064896 7.857417 
97.101295 0.733901 
98.048576 0.593281 
98.068214 0.471253 
98.987076 0.214797 
99.04422 2.075233 
103.054337 2.371462 
103.215569 0.147413 
103.307732 0.118849 
103.332092 0.201198 
104.057564 0.227182 
105.033363 0.235057 
105.044807 0.95283 
105.070007 56.262531 
105.073807 0.270911 
106.064842 0.248231 
106.073189 14.40999 
107.049225 51.98418 
107.085579 79.687721 
108.052483 12.744826 
108.056526 4.648331 
108.088699 17.5644 
109.02845 1.775258 
109.060745 2.448938 
109.064796 11.950225 
109.101318 11.568509 
109.900269 0.210962 
110.060112 3.260106 
110.068092 0.718755 
111.044052 2.198172 
111.080383 1.119559 
112.039337 10.529915 
113.042694 0.286948 
113.059685 1.137172 
113.075958 0.203717 
114.05526 0.236685 
114.543304 0.102306 
114.763405 0.203995 
115.054405 1.669926 
115.493706 0.218439 
117.069969 50.284203 
117.98333 0.188213 
118.072945 18.063169 
119.049286 1.409997 
119.060547 0.623612 
119.077156 0.145833 
119.085655 61.922497 
120.088623 19.684168 
120.940392 0.565893 
121.028534 27.191639 
121.064934 38.280968 
121.09201 0.261679 
121.10128 14.879895 
122.031891 1.759431 
122.060196 3.658435 
122.068153 7.786322 
122.10453 1.36975 
123.04406 9.919635 
123.08046 61.021111 
124.047501 0.436208 
124.083702 27.066664 
124.511665 0.184312 
125.059784 3.874253 
125.087387 0.270234 
125.096115 25.290028 
126.055 1.544835 
126.09935 2.457745 
126.56488 0.162534 
128.06221 4.166864 
128.070648 2.269457 
128.168365 0.278791 
128.704193 0.097964 
129.069839 15.767863 
130.07309 3.17009 
130.077835 0.948522 
131.049225 4.097175 
131.085632 53.22213 
132.088623 21.49482 
133.064789 11.221188 
133.101181 19.558369 
134.059982 0.231808 
134.0681 1.894454 
134.104385 3.105079 
135.043976 4.883817 
135.08049 13.583475 
135.116852 1.841118 
136.075653 0.273279 
136.083755 1.172145 
137.059723 0.847766 
137.096054 1.443919 
138.055008 11.354153 
138.062912 0.108424 
138.595673 0.270366 
139.075592 0.230904 
141.069901 8.584675 
141.903214 0.243088 
141.986465 0.249591 
142.078079 19.41037 
143.085999 37.952431 
144.045563 0.110683 
144.088608 10.860948 
144.093826 6.580596 
145.064957 11.846615 
145.101456 34.672165 
146.0681 1.744055 
146.104416 14.233692 
146.973953 0.227734 
147.080399 11.466121 
147.108063 0.994253 
147.116867 3.658227 
148.001404 0.248037 
148.075623 0.21016 
148.084061 1.133335 
149.059784 7.831964 
149.096207 5.034147 
149.132385 1.61207 
150.055725 0.256456 
150.063095 0.55323 
150.099533 0.526619 
150.135971 0.134213 
150.951233 8.29063 
151.075272 0.771049 
151.171066 0.094894 
152.001663 0.319185 
153.054535 0.946363 
153.069962 1.03962 
153.493927 0.171176 
154.07782 1.42906 
154.79689 0.263466 
155.085693 9.877005 
156.088699 2.197386 
157.101227 49.242432 
158.072876 1.009342 
158.103973 27.404812 
159.080643 15.113357 
159.110092 3.870429 
159.116974 70.81012 
160.083664 5.367473 
160.120056 33.653088 
160.990356 0.300431 
161.088745 0.263342 
161.096069 12.293864 
161.123978 2.009939 
162.091339 0.551221 
162.099365 1.817841 
162.707169 0.182424 
162.864014 0.166572 
163.075378 2.448638 
163.111771 13.155275 
164.070694 0.216755 
164.115448 3.315805 
164.181702 0.191599 
165.091385 0.217445 
165.108215 0.277606 
165.467834 0.248365 
166.086716 0.202039 
167.070602 0.337888 
167.085327 0.370127 
168.093597 11.373573 
168.961792 1.405644 
169.102264 18.843653 
169.13446 0.184639 
170.011902 0.226786 
170.10466 9.993557 
171.080688 0.383497 
171.108521 0.250489 
171.117096 0.693983 
172.059525 0.207594 
172.088333 3.250282 
173.096375 2.227548 
173.132599 31.472042 
173.384323 0.272348 
174.099991 0.242249 
174.128677 0.247063 
174.135834 15.838381 
175.111801 7.312932 
175.139725 0.648446 
176.115097 1.44954 
177.091278 0.369818 
177.127487 24.93445 
178.13121 7.817731 
180.928711 0.207777 
183.116882 18.739967 
183.329269 0.22065 
184.120575 10.94891 
185.070663 0.494808 
185.096207 10.084906 
185.123886 0.713892 
186.099991 5.594287 
187.111954 33.55442 
188.107162 0.113952 
188.115341 16.092634 
189.091171 0.677912 
189.11853 0.756318 
193.031189 0.264643 
193.076187 1.613638 
193.10231 0.260224 
193.703201 0.186287 
194.044617 0.197772 
196.087723 0.503219 
199.314987 0.22255 
201.127548 19.195583 
202.131287 8.518275 
203.106705 1.274712 
203.133987 0.297585 
204.851288 0.251814 
205.122543 7.711994 
206.083954 0.230613 
206.126144 1.320933 
206.867996 0.371949 
206.977982 3.204329 
211.086502 0.195713 
211.112045 1.120515 
212.022964 0.734327 
212.374329 0.199802 
218.675751 0.252854 
218.959595 0.209033 
219.13855 1.005112 
219.571823 1.750187 
219.588333 0.103946 
219.597229 0.269833 
221.985962 0.267329 
229.122559 6.44743 
230.019867 0.211431 
230.033752 2.019683 
230.125916 1.743381 
230.820267 0.246922 
231.129089 0.253297 
234.899246 0.71743 
243.451126 0.237906 
246.149109 0.271043 
247.133591 2.258775 
247.704834 0.213689 
250.756592 0.263724 
253.014938 0.268394 
253.149551 0.180063 
260.097076 0.149842 
267.43338 0.202134 
268.978302 0.305109 
272.749725 0.245793 
280.933441 0.364993 
285.896515 0.221588 
287.164764 0.218475 
290.824921 0.269615 
295.330017 0.190742 
295.640991 0.228268 
304.739777 0.148622 
305.762268 0.154141 
323.868683 0.241289 
END IONS

