BEGIN IONS
PEPMASS=540.0
CHARGE=1+
COMPOUNDNAME=Massbank:KO002239 Apramycin sulfate|Apramycin
LIBRARYQUALITY=3
SMILES=OC[C@@H](O1)[C@@H](N)[C@H](O)[C@@H](O)[C@H]1O[C@H](O2)[C@@H](NC)[C@@H](O)[C@@H](O3)[C@@H](C[C@@H](N)[C@@H](O[C@H]([C@@H](N)4)[C@H](O)[C@@H](O)[C@H](N)C4)3)2
INCHIKEY=XZNUGFQTQHRASN-UXNWEDNLSA-N
INCHI=1S/C21H41N5O11/c1-26-11-14(30)18-8(33-20(11)37-21-16(32)13(29)10(25)9(4-27)34-21)3-7(24)19(36-18)35-17-6(23)2-5(22)12(28)15(17)31/h5-21,26-32H,2-4,22-25H2,1H3/t5-,6+,7-,8-,9-,10-,11+,12+,13+,14-,15-,16-,17-,18+,19+,20+,21-/m1/s1
MSLEVEL=2
SOURCE_INSTRUMENT=ESI-LC-ESI-QQ
FILENAME=Massbank_ESI_positive_8_1_2014_peaks.mgf
SEQ=*..*
IONMODE=Positive
ORGANISM=MASSBANK
NAME=Massbank:KO002239 Apramycin sulfate|Apramycin [M+H]+
PI=Putative Massbank Match
DATACOLLECTOR=Massbank
PUBMED=N/A
SUBMITUSER=mwang87
TAGS=
SPECTRUMID=CCMSLIB00000216969
SCANS=8041
162.9 29703.0 
170.2 153465.5 
181.4 24752.5 
198.9 94059.5 
201.6 19802.0 
202.6 19802.0 
209.4 24752.5 
217.5 237624.0 
235.6 19802.0 
271.4 118812.0 
323.1 39604.0 
330.4 44554.5 
343.2 94059.5 
344.3 292079.5 
361.3 386139.0 
362.5 84158.5 
378.5 2346537.0 
379.5 128713.0 
523.6 435644.0 
540.6 6074263.5 
541.2 49505.0 
END IONS

