BEGIN IONS
PEPMASS=276.087
CHARGE=1+
COMPOUNDNAME=norlichexanthone
LIBRARYQUALITY=3
SMILES=N/A
INCHIKEY=AQZHBCDRWFMXIN-UHFFFAOYSA-N
INCHI=InChI=1S/C14H10O5/c1-6-2-7(15)4-10-12(6)14(18)13-9(17)3-8(16)5-11(13)19-10/h2-5,15-17H,1H3
MSLEVEL=2
SOURCE_INSTRUMENT=N/A-ESI-QFT
FILENAME=library_mgf.mgf
SEQ=*..*
IONMODE=positive
ORGANISM=MONA
NAME=norlichexanthone [M+NH4]+
PI=MoNA
DATACOLLECTOR=MoNA:VF-NPL-QEHF017958
PUBMED=N/A
SUBMITUSER=mwang87
TAGS=
SPECTRUMID=CCMSLIB00004709021
SCANS=17958
50.726868 0.018975 
50.971409 0.015239 
51.002491 0.011311 
52.033848 0.031903 
52.035408 0.027841 
52.128796 0.013911 
52.382568 0.033563 
52.401363 0.023629 
52.504025 0.028355 
52.839092 0.015286 
52.840137 0.027869 
53.158661 0.013988 
53.412266 0.018795 
53.510471 0.0257 
53.854694 0.016993 
54.419052 0.015108 
55.05452 0.275618 
55.772793 0.026089 
56.512501 0.025087 
56.965073 3.488332 
57.070164 0.962427 
57.285358 0.032026 
57.670055 0.016 
57.935078 3.304738 
58.371204 0.015777 
58.932907 0.967814 
58.982197 0.031401 
59.765015 0.023858 
59.766262 0.027924 
59.930489 11.754926 
59.988228 0.018337 
60.024147 0.029487 
60.42458 0.009823 
60.930725 0.218596 
61.010902 40.272511 
61.131626 0.024817 
61.770153 0.024146 
61.92799 1.353776 
62.010227 0.341807 
62.014217 1.619802 
62.018707 0.144695 
62.163654 0.013723 
62.692635 0.030101 
62.817795 0.025485 
63.006641 6.327809 
63.078743 0.014817 
63.188671 0.016442 
63.997963 0.049107 
64.53553 0.026029 
64.912155 0.018041 
65.292542 0.016401 
65.623367 0.028001 
66.951004 0.028749 
67.017967 0.056066 
67.054337 0.259439 
67.201065 0.013219 
68.553345 0.02569 
68.813057 0.025383 
68.997246 0.667633 
69.00782 0.018416 
69.033554 0.014461 
69.070038 0.066465 
70.06517 0.194594 
70.51075 0.026021 
70.679283 0.026473 
70.717598 0.02714 
70.719429 0.011341 
70.818893 0.017318 
71.085693 0.104714 
72.937233 0.050433 
72.958298 0.300948 
73.243042 0.029856 
73.256638 0.02244 
73.421478 0.017999 
73.898117 0.018143 
73.919174 0.017502 
73.929817 0.033841 
73.956154 5.791273 
74.83252 0.016055 
74.937546 0.036212 
74.953773 2.532663 
74.959518 0.102779 
74.975548 0.016721 
75.099068 0.025947 
75.245728 0.012382 
75.845314 0.031036 
75.925224 0.649328 
75.935425 0.775586 
75.941025 0.030763 
75.945419 2.313139 
76.933006 0.151966 
76.951279 0.063765 
77.226723 0.030021 
77.297684 0.026428 
77.938431 0.152194 
77.940865 9.507449 
78.610992 0.02255 
78.934052 0.031055 
78.941071 0.124628 
79.00544 0.024696 
79.019035 0.021887 
79.021255 2.58903 
79.02346 0.050389 
79.054375 0.012988 
79.225983 0.028343 
79.26149 0.016914 
79.512611 0.035062 
79.938431 0.873837 
80.378975 0.018861 
80.845284 0.030349 
81.069901 0.107391 
82.029373 0.029189 
82.370201 0.022049 
82.659973 0.029227 
82.861168 0.026205 
84.080826 0.014009 
84.921494 0.021982 
85.039627 0.011759 
85.847549 0.016542 
86.442978 0.011737 
86.886543 0.027429 
87.044022 0.065716 
87.936249 0.032777 
87.945335 0.034713 
88.094688 0.016987 
88.625526 0.025618 
89.866158 0.026043 
89.940857 0.3883 
90.596359 0.030288 
90.914703 0.453769 
90.947701 0.093835 
90.968895 0.033693 
91.054306 0.063901 
91.336609 0.029079 
91.966682 0.64014 
92.437187 0.023855 
92.910446 0.035924 
92.947968 0.030349 
92.964378 0.225899 
93.935913 0.033446 
93.945854 0.104098 
93.955925 0.964665 
94.943764 0.02599 
95.085587 0.043517 
95.421089 0.026517 
95.951401 4.815835 
96.08075 0.387446 
96.241165 0.021997 
96.314842 0.030722 
96.470184 0.033308 
96.724701 0.031645 
97.092926 0.027541 
97.948975 0.280077 
98.266212 0.025688 
98.813614 0.02873 
98.975403 0.954311 
99.015823 0.031632 
99.460175 0.02147 
100.990822 0.058278 
101.756531 0.029207 
102.653351 0.026691 
102.91468 0.184819 
103.054398 0.02838 
103.923759 0.148613 
104.325798 0.030307 
104.797241 0.027073 
104.910233 3.627294 
104.920647 0.085864 
104.930389 0.531857 
105.070015 0.159024 
105.917198 0.068194 
105.928299 0.355961 
105.94677 0.090043 
105.955856 0.093378 
105.972153 0.165316 
106.065125 0.025081 
106.13298 0.028973 
106.488358 0.027436 
106.907684 0.086834 
106.925835 6.034931 
107.279228 0.023626 
107.951347 1.671054 
108.610466 0.029556 
108.915184 0.032512 
108.9244 0.219511 
109.973045 0.028617 
110.55735 0.017007 
110.974892 0.026754 
111.044182 0.01524 
111.428398 0.034316 
111.621918 0.028756 
111.847557 0.029533 
112.191971 0.026675 
112.666168 0.02335 
112.991005 0.241143 
113.003304 0.019527 
114.910286 0.033181 
115.054176 0.046744 
116.34977 0.013633 
116.947929 0.028758 
116.986038 0.121901 
117.070023 0.263405 
117.955841 0.016879 
118.542671 0.014054 
118.706192 0.028012 
118.924911 0.467357 
118.947418 0.810286 
119.001343 0.057462 
119.633385 0.029307 
119.907516 0.11427 
119.951439 0.602583 
120.892311 0.023692 
121.028496 0.42477 
121.913055 0.218537 
121.923439 0.028029 
122.652679 0.016641 
122.920822 1.416008 
122.930916 0.411125 
122.940941 2.815451 
123.928696 0.028801 
123.93898 1.321432 
124.936478 22.578838 
124.94648 0.058717 
124.975113 0.02028 
125.577545 0.021844 
125.908005 0.161091 
125.935829 0.708818 
125.944275 0.356615 
126.933769 2.45565 
127.256287 0.016309 
128.062241 0.017689 
128.825272 0.031993 
129.271851 0.014581 
130.903229 0.027049 
130.981766 0.053023 
131.001572 1.458405 
131.04921 0.221942 
131.765381 0.021299 
132.466568 0.025936 
132.475372 0.022503 
134.931915 0.9704 
134.958755 2.259789 
134.978668 0.039092 
135.93869 0.029868 
135.95018 0.034251 
135.956665 5.47754 
135.966461 0.875103 
136.920258 3.664751 
136.929977 0.033297 
136.936356 0.665954 
136.9478 0.136545 
136.953995 9.989396 
137.011719 0.281607 
137.91806 0.482106 
137.928101 2.092969 
137.938309 0.025707 
137.944168 1.744517 
137.956161 0.071667 
137.962006 4.468697 
138.725143 0.024515 
138.915634 0.659227 
138.925812 0.46588 
138.93605 0.066613 
138.952042 3.25661 
139.216797 0.026587 
139.262894 0.02492 
139.923538 13.692911 
139.959518 0.25307 
140.923294 0.351931 
140.931305 2.357357 
141.166718 0.016264 
141.920929 1.797333 
142.928726 0.099379 
142.947037 0.623255 
144.296234 0.027513 
145.064743 0.475936 
145.224487 0.020194 
146.97403 0.031502 
149.012192 1.09698 
149.023407 0.0139 
149.773087 0.025868 
150.972839 0.039761 
151.0392 0.014987 
151.943695 0.214675 
151.959198 0.058534 
151.970078 5.524241 
152.942215 0.061585 
152.951492 3.264197 
152.968018 3.761597 
152.97345 0.564781 
153.018341 0.057489 
153.939301 0.082133 
153.949341 0.177022 
153.950897 0.165146 
153.959351 11.888318 
153.96669 6.589819 
153.974182 0.041926 
154.930786 0.109191 
154.946915 26.513624 
154.95723 3.020158 
154.964508 11.582211 
154.985458 0.030698 
155.022186 0.041296 
155.049179 0.845036 
155.060089 0.07095 
155.954697 100.0 
156.051743 0.033401 
156.944443 3.418093 
156.954346 4.115133 
156.962479 0.508205 
156.968582 0.01558 
156.981339 0.021456 
157.952072 13.903395 
158.941895 1.251559 
158.953445 0.605575 
159.044006 0.038941 
160.051529 0.016731 
161.059631 0.183348 
164.942642 0.122417 
165.950424 0.21816 
166.947067 0.393 
167.033875 0.26527 
167.938995 0.032914 
167.956635 0.033347 
168.936478 2.971679 
168.962906 0.017862 
168.982132 0.066546 
169.934052 1.259331 
169.940704 0.044487 
169.952042 0.515347 
169.970352 1.035319 
169.980637 0.607321 
170.932327 1.00734 
170.951492 0.028558 
170.962006 0.158497 
170.978088 3.460576 
171.062683 0.032268 
171.913284 0.585926 
171.976501 0.209689 
172.95755 4.424729 
172.975342 1.064898 
173.059769 0.65322 
174.95488 0.452146 
176.820633 0.016922 
177.193604 0.01413 
180.888107 0.083255 
180.93634 0.242207 
180.97377 0.072738 
181.934067 0.591182 
182.932358 0.029393 
183.044067 0.406554 
184.958023 0.078184 
185.949249 2.124693 
186.927673 0.020846 
186.946976 4.61363 
187.039062 0.842949 
187.944519 17.717382 
188.943039 2.163241 
189.054077 0.018237 
189.941666 2.572767 
190.064545 0.013356 
194.094894 0.037345 
196.957596 0.529299 
197.013962 0.030845 
198.947098 0.341182 
199.94487 0.912925 
199.965744 0.212276 
200.046982 0.036531 
200.943344 0.084765 
201.054688 12.565488 
202.058075 1.518262 
203.059418 0.0458 
203.843506 0.02104 
205.049576 0.095754 
206.05719 0.01258 
207.065567 0.030205 
210.547867 0.032057 
211.038818 0.047705 
213.516724 0.030158 
214.968323 0.522617 
214.988113 0.030075 
215.033783 0.131954 
217.086472 0.023174 
217.976044 0.11536 
218.060272 0.099564 
219.028198 0.016633 
219.065765 0.121149 
219.549423 0.353653 
219.568298 0.0366 
220.076035 0.070991 
221.278854 0.019306 
222.898727 0.148077 
226.178955 0.029546 
228.466492 0.018266 
229.049698 17.936605 
230.053024 2.762291 
231.055496 0.085047 
232.036591 0.194301 
233.043594 0.070431 
233.418594 0.029278 
235.616241 0.011597 
237.124435 0.026878 
238.439499 0.030955 
238.49086 0.02502 
239.122925 0.031612 
240.908966 0.137221 
245.044342 0.047455 
246.051956 0.043225 
247.059875 0.020779 
248.070572 0.185154 
249.20752 0.030347 
251.507935 0.018035 
253.843292 0.028836 
257.044434 5.6575 
258.048065 0.706729 
259.050415 0.059386 
260.016388 0.018187 
260.031586 1.112269 
261.034485 0.040338 
261.445557 0.015352 
271.518707 0.011676 
273.039124 0.016262 
274.04892 0.011373 
275.054871 1.858478 
275.681061 0.021366 
276.065948 1.728461 
276.268066 0.036031 
276.424286 0.023023 
277.068817 0.099364 
284.099365 0.026097 
284.99408 0.023182 
END IONS

