BEGIN IONS
PEPMASS=172.097
CHARGE=1+
COMPOUNDNAME=terrein
LIBRARYQUALITY=3
SMILES=N/A
INCHIKEY=MHOOPNKRBMHHEC-HZIBQTDNSA-N
INCHI=InChI=1S/C8H10O3/c1-2-3-5-4-6(9)8(11)7(5)10/h2-4,7-8,10-11H,1H3/b3-2+/t7-,8-/m0/s1
MSLEVEL=2
SOURCE_INSTRUMENT=N/A-ESI-QFT
FILENAME=library_mgf.mgf
SEQ=*..*
IONMODE=positive
ORGANISM=MONA
NAME=terrein [M+NH4]+
PI=MoNA
DATACOLLECTOR=MoNA:VF-NPL-QEHF021233
PUBMED=N/A
SUBMITUSER=mwang87
TAGS=
SPECTRUMID=CCMSLIB00004712296
SCANS=21233
51.389843 0.035833 
51.740784 0.03965 
51.743118 0.033135 
51.846962 0.057867 
52.053913 0.088744 
52.48806 0.033987 
52.994595 0.032868 
53.038956 0.242554 
53.422562 0.058611 
54.462936 0.034133 
55.018101 0.045152 
55.054523 5.933731 
55.055801 0.057765 
55.08569 0.033958 
55.701866 0.061852 
55.721104 0.05909 
56.012295 0.090593 
56.049717 0.370273 
56.828083 0.072018 
56.920925 0.072175 
56.965031 1.582273 
56.994682 0.036782 
57.033772 0.13363 
57.068703 0.03691 
57.070129 4.543353 
57.222694 0.032643 
57.712425 0.078919 
57.850281 0.03534 
57.851608 0.034088 
57.935009 0.887789 
58.055424 0.063876 
58.065369 2.291108 
58.636074 0.038567 
58.932922 0.039664 
58.960739 0.040183 
59.046406 0.038731 
59.049355 0.24641 
59.243671 0.106203 
59.930435 1.069224 
59.990479 0.164125 
60.044609 1.054717 
60.865551 0.082805 
60.930729 0.106437 
60.980095 0.039034 
61.010853 5.559365 
61.673634 0.03178 
61.927959 1.785523 
62.018677 7.321053 
62.770241 0.033591 
62.929192 1.638835 
62.990093 0.423197 
63.006618 0.035895 
63.220032 0.033869 
63.363144 0.035361 
63.39045 0.032866 
63.927662 0.039643 
63.997879 0.046415 
64.587784 0.060743 
64.927414 0.138964 
64.984596 0.073009 
65.038689 0.044809 
65.31488 0.071693 
65.368202 0.073202 
65.92527 0.037788 
65.973846 0.034202 
66.419418 0.067235 
67.017845 0.078302 
67.054352 8.689773 
67.578163 0.054086 
67.835091 0.031856 
67.85614 0.038179 
68.057579 0.044975 
68.224007 0.091886 
68.25737 0.034269 
68.905052 0.097465 
69.033569 0.664073 
69.038116 0.029444 
69.069923 1.856236 
69.988731 0.03614 
70.065186 12.925482 
71.04911 0.860528 
71.085312 0.095668 
71.251434 0.035962 
71.550751 0.03199 
71.564812 0.034366 
72.013779 0.036962 
72.044403 9.798646 
72.080765 0.99323 
73.047737 0.150016 
73.704811 0.035158 
74.060074 0.072296 
74.881088 0.030557 
75.471115 0.034067 
75.617752 0.088271 
75.68132 0.078424 
75.701561 0.033575 
77.319756 0.031884 
78.013359 0.388146 
78.197113 0.032786 
78.56205 0.044279 
78.577538 0.074379 
78.941216 0.043454 
79.021202 9.015417 
79.054222 6.368724 
79.477539 0.038841 
79.551369 0.05885 
80.057495 0.087692 
80.945023 0.86023 
81.017006 0.232647 
81.033478 0.899619 
81.069893 24.924253 
81.072655 0.05779 
82.065079 0.861941 
82.073204 1.107512 
82.075928 0.070687 
82.661102 0.0761 
83.049103 4.707683 
83.085526 3.689853 
84.044556 0.056434 
84.080795 6.96759 
85.028419 9.88488 
85.064728 1.301247 
85.076096 0.211523 
85.35569 0.037693 
86.060005 0.53229 
86.157349 0.036362 
86.240372 0.033758 
87.04406 0.434356 
88.054573 0.035605 
88.07547 0.040887 
88.392319 0.038252 
89.070923 8.519005 
90.074059 0.042428 
90.528336 0.090752 
91.054222 7.50623 
91.071373 0.060501 
92.002579 0.072715 
92.903587 0.373744 
93.069855 2.664653 
93.073112 0.032463 
93.514366 0.06233 
93.901443 0.210576 
93.955742 0.110351 
94.018883 0.035237 
94.065056 0.145049 
94.756737 0.10865 
95.049141 12.094684 
95.052505 0.037976 
95.085457 1.560641 
95.951324 0.255472 
96.052437 0.048626 
96.080826 0.046181 
97.064812 0.103613 
97.075798 0.05387 
97.101135 0.141342 
97.758713 0.08682 
97.841835 0.079518 
97.948898 0.345504 
98.059875 0.098791 
98.096451 0.66328 
98.282295 0.065805 
99.296768 0.037871 
100.009666 0.425583 
100.013397 0.035578 
100.075684 0.12841 
100.509621 0.263637 
100.638855 0.08865 
100.797798 0.035218 
101.007858 1.105901 
101.011124 0.040819 
101.503342 0.229917 
101.509453 0.144292 
102.299744 0.094225 
102.50148 0.311007 
103.023872 0.147275 
104.359406 0.07734 
104.632904 0.040448 
105.069939 0.187881 
106.479858 0.060962 
106.579659 0.078126 
106.847733 0.054935 
106.940422 0.059019 
107.085457 0.556836 
107.102165 0.033207 
107.360191 0.036535 
107.592384 0.031476 
108.016365 0.552399 
108.080704 0.393031 
108.310394 0.098647 
108.493591 0.234324 
108.51693 1.160787 
109.014885 6.63689 
109.028351 0.085041 
109.064789 15.030918 
109.076042 26.613272 
109.101196 5.8013 
109.514862 4.436347 
109.538658 0.106009 
110.013092 8.899794 
110.01693 0.652008 
110.060165 0.106582 
110.068016 0.253153 
110.079277 0.650013 
110.083321 0.166212 
110.104485 0.17879 
110.514702 1.29312 
111.011002 0.951868 
111.044037 18.317558 
111.080368 0.208547 
111.09156 0.194307 
112.047234 0.449853 
112.075661 0.851751 
112.086906 2.334392 
112.096642 0.052839 
112.112022 1.284542 
112.971695 0.040831 
113.023842 0.114925 
113.059639 0.852882 
113.070747 0.039508 
113.107208 0.650582 
113.19294 0.033892 
113.452057 0.034465 
113.897903 0.033617 
113.988472 1.300885 
114.055122 0.325158 
114.091362 5.397887 
114.211052 0.061123 
114.970802 0.218907 
115.086433 0.079238 
115.970047 0.158287 
115.996803 0.058147 
116.005188 0.473724 
116.022781 0.034738 
116.070488 0.288655 
116.106949 1.998393 
116.52298 0.061696 
116.546516 0.045845 
116.966164 8.913188 
116.985474 0.068994 
117.003136 0.034607 
117.020699 0.044137 
117.069878 0.531193 
117.521378 0.034077 
117.605034 0.077496 
117.723465 0.030623 
117.956192 0.08546 
117.966171 0.036481 
118.569687 0.164469 
118.578629 0.04098 
119.049126 1.188279 
119.085464 0.38569 
119.950333 0.047293 
121.034439 0.049542 
122.252235 0.03502 
122.325401 0.035345 
122.940887 1.179968 
122.993767 0.527876 
122.999146 0.046382 
123.026001 0.038488 
123.091652 18.653278 
123.49778 0.157182 
124.094917 0.733999 
124.495766 0.046458 
124.936432 0.562215 
126.091263 0.094572 
126.12738 0.102055 
126.933716 0.656154 
127.075279 0.03463 
127.086891 0.042616 
127.575012 2.584189 
127.583679 0.119445 
128.070587 0.093941 
128.076401 0.052243 
128.106888 0.231867 
128.93367 0.227598 
128.986404 0.21259 
129.102188 10.22264 
129.531647 0.032033 
129.572296 0.410037 
129.98558 0.266409 
130.000763 0.036318 
130.10556 0.053116 
130.158981 0.416174 
130.898224 0.079236 
130.963181 0.034975 
130.981873 8.844146 
131.009705 0.048097 
131.085526 7.368691 
131.504501 0.046728 
131.953217 0.633031 
132.004883 0.738238 
132.088318 0.044798 
132.146088 0.077771 
132.502762 2.016592 
132.958145 0.236867 
132.978607 0.544609 
133.003448 1.151431 
133.500885 0.546638 
133.58342 0.050193 
134.996216 0.074507 
135.091568 0.047475 
135.22464 0.086292 
136.03978 0.034131 
136.075729 2.2305 
136.580276 11.156419 
136.589157 0.061501 
137.011749 0.499774 
137.059723 19.450226 
137.082001 1.121832 
137.927979 7.042085 
138.062881 0.73967 
138.102524 0.056648 
138.935806 0.686977 
139.086441 0.084083 
139.516602 0.078437 
139.923386 2.083754 
140.514389 0.08215 
140.923569 0.287677 
140.930847 0.036696 
141.102295 0.102156 
141.920685 1.129904 
142.122833 0.325272 
142.580292 0.139234 
142.588898 0.156067 
142.928482 0.080695 
142.950363 0.090748 
143.002258 0.086358 
143.551666 0.099252 
143.587906 0.161933 
143.930191 0.442798 
144.080795 0.073631 
144.960724 0.080178 
144.997528 4.794241 
145.101105 1.405821 
145.585434 4.923427 
146.087143 0.239936 
146.245575 0.038858 
146.590637 0.043758 
146.598419 0.037535 
146.976166 0.217442 
146.994324 1.458507 
148.955765 0.281935 
148.973434 0.508455 
150.96199 0.035694 
150.968765 0.761447 
151.585464 0.316026 
152.951385 3.376929 
152.989212 0.044881 
153.102203 11.185456 
154.086151 1.692831 
154.10553 0.680912 
154.122498 0.421374 
154.590271 0.04527 
154.946747 0.448545 
154.981796 0.203908 
155.022141 0.107827 
155.070084 6.008777 
155.894104 0.805952 
155.955215 0.063516 
156.001678 0.039175 
156.03273 0.038337 
156.072952 0.039808 
156.113129 0.309636 
156.138657 0.065275 
156.546783 0.096728 
156.891129 0.03858 
156.945541 3.393907 
156.954468 0.761182 
156.99733 1.49224 
157.017746 0.581536 
157.890244 0.392978 
157.951965 5.28539 
157.977432 0.035801 
158.016846 0.459526 
158.942093 0.757038 
158.953461 6.450512 
159.013031 13.05119 
159.951874 0.267042 
159.984497 0.041975 
160.013336 0.146136 
160.617279 0.039127 
160.699173 0.045152 
160.939301 0.415853 
160.951508 0.092382 
165.214691 0.036022 
166.758774 0.041488 
166.966263 0.356674 
169.407959 0.037512 
169.917725 0.808624 
170.081299 0.296692 
170.117111 0.086844 
170.153839 0.290528 
170.917191 0.657918 
170.961975 1.716395 
171.084824 0.042968 
171.099594 0.085451 
171.112732 22.169853 
171.149048 4.94387 
171.914185 0.148814 
172.09668 8.954629 
172.117126 0.991565 
172.133087 0.92024 
172.15274 0.0817 
172.169556 5.492741 
172.205963 0.184926 
172.447891 0.03677 
172.913742 0.327791 
172.95752 0.287769 
173.078384 100.0 
173.106995 0.043139 
173.117325 0.045669 
173.132462 6.184164 
173.140045 0.109274 
173.904587 3.266584 
174.081787 3.349146 
174.091019 0.075332 
174.127853 2.037452 
174.148819 1.64956 
174.902359 1.44843 
174.95459 0.496689 
175.008026 0.509064 
175.900742 2.340723 
176.899139 0.088787 
182.112762 0.041284 
182.807449 0.038625 
186.928101 0.038137 
187.944733 0.052147 
188.059525 0.043592 
188.928024 2.024687 
188.943954 0.917893 
189.181686 0.046515 
189.926086 1.358248 
189.94162 3.927722 
190.92424 1.566312 
191.914871 0.327429 
191.923569 0.052457 
191.941391 0.130853 
192.913071 0.459637 
193.91127 0.343834 
END IONS

