BEGIN IONS
PEPMASS=365.079
CHARGE=1+
COMPOUNDNAME=(4R,6S,8S,9Z,11E)-16-chloro-17,19-dihydroxy-4-methyl-3,7-dioxatricyclo[13.4.0.0?,?]nonadeca-1(15),9,11,16,18-pentaene-2,13-dione
LIBRARYQUALITY=3
SMILES=N/A
INCHIKEY=WYZWZEOGROVVHK-RPJJWQTDSA-N
INCHI=InChI=1S/C18H17ClO6/c1-9-6-15-14(25-15)5-3-2-4-10(20)7-11-16(18(23)24-9)12(21)8-13(22)17(11)19/h2-5,8-9,14-15,21-22H,6-7H2,1H3/b4-2+,5-3-/t9-,14+,15+/m1/s1
MSLEVEL=2
SOURCE_INSTRUMENT=N/A-ESI-QFT
FILENAME=library_mgf.mgf
SEQ=*..*
IONMODE=positive
ORGANISM=MONA
NAME=(4R,6S,8S,9Z,11E)-16-chloro-17,19-dihydroxy-4-methyl-3,7-dioxatricyclo[13.4.0.0?,?]nonadeca-1(15),9,11,16,18-pentaene-2,13-dione [M+H]+
PI=MoNA
DATACOLLECTOR=MoNA:VF-NPL-QEHF022119
PUBMED=N/A
SUBMITUSER=mwang87
TAGS=
SPECTRUMID=CCMSLIB00004713182
SCANS=22119
50.299702 0.055534 
51.023392 0.229697 
51.100773 0.085631 
51.735157 0.146648 
51.767418 0.124297 
51.940296 2.626663 
52.765915 0.051973 
52.823147 0.191177 
53.002552 0.212286 
53.038887 10.466979 
53.351303 0.057494 
54.125156 0.09514 
54.990448 0.16979 
55.018169 5.673724 
55.054489 11.278471 
55.902596 0.199724 
56.409786 0.072426 
57.033653 0.070773 
58.517567 0.131599 
58.728577 0.117258 
59.512939 0.172951 
59.517693 0.157255 
62.451794 0.126436 
62.58617 0.059418 
63.089775 0.092171 
65.038742 5.488412 
67.017975 0.653925 
67.054344 8.608904 
67.118874 0.125878 
67.313072 0.193486 
68.010086 0.194129 
68.9972 4.470495 
69.033569 26.465584 
69.894318 0.205007 
70.036865 0.303027 
71.049202 0.786146 
73.012878 0.128094 
73.626678 0.12207 
73.766296 0.135723 
74.646194 0.099621 
75.241745 0.178005 
75.945236 0.184673 
76.557083 0.142713 
77.038612 2.144844 
77.345886 0.174639 
77.75296 0.167158 
78.884644 0.099856 
79.054222 13.829586 
79.622894 0.114916 
79.740471 0.20157 
79.804794 0.056398 
80.057526 0.253171 
81.014656 0.124219 
81.033508 11.26214 
81.069908 6.383662 
82.745392 0.147876 
83.049118 10.400985 
83.193741 0.087189 
83.769966 0.088488 
84.699699 0.077866 
86.670883 0.138756 
87.861435 0.084897 
89.038582 0.74131 
90.48661 0.158961 
91.054207 20.359873 
92.057426 0.278848 
93.033508 0.349492 
93.069893 11.701727 
94.709625 0.133355 
95.049156 24.072287 
95.085854 0.170202 
96.052483 0.643569 
97.064758 0.309769 
100.402168 0.067534 
103.054176 6.699087 
103.615562 0.094262 
105.033501 1.472566 
105.044708 5.006065 
105.066315 0.191962 
105.069908 5.55753 
106.100174 0.158665 
106.904007 0.069565 
106.986443 0.130117 
107.04911 4.158335 
109.028206 0.322143 
109.064713 0.116817 
110.036171 0.516357 
111.043983 5.444393 
114.269318 0.119937 
115.054169 2.71473 
117.033356 1.946207 
117.069771 1.751611 
117.3843 0.092938 
119.049141 2.626748 
120.080788 1.620293 
120.564163 0.142503 
121.028397 41.541344 
121.064766 14.596553 
121.173676 0.213173 
122.031685 7.609883 
122.06842 0.16933 
123.150238 0.070425 
123.551071 0.148241 
125.015358 0.576961 
125.118103 0.15888 
127.012444 0.318894 
127.641472 0.12776 
128.061951 0.771967 
129.033615 0.226109 
129.069717 0.464677 
131.049057 15.965175 
132.052353 0.60271 
133.028366 2.568644 
133.064728 5.821497 
135.044037 0.852673 
135.080307 0.477389 
138.994492 0.203398 
139.03891 6.113131 
139.054092 1.03569 
139.074463 0.079709 
139.86795 0.088756 
140.042313 0.647527 
141.010086 1.318455 
141.069733 0.963913 
143.049149 0.288708 
144.151123 0.135863 
145.004913 1.367072 
145.028381 3.549482 
145.064819 4.050954 
146.277084 0.201366 
147.043976 4.228689 
147.88089 0.082631 
148.051773 5.495141 
148.084122 0.098658 
148.995209 0.18213 
149.023315 3.8132 
150.02594 0.132651 
151.539703 0.065047 
152.062164 0.467337 
153.010391 0.402237 
154.834793 0.13793 
154.913467 0.187264 
154.989273 48.124332 
155.006912 0.351721 
155.049088 0.435841 
155.992722 3.822847 
156.98642 12.010251 
157.005081 3.845093 
157.064774 3.675146 
157.845367 0.083944 
159.002121 0.321846 
159.043961 5.690645 
159.079819 0.093896 
159.215515 0.130733 
160.051849 12.139743 
161.059753 18.241665 
161.970016 0.074856 
162.062973 5.553221 
163.038834 1.072173 
164.046722 2.717853 
165.010071 0.656681 
165.069641 0.629983 
167.034393 0.095954 
167.049149 0.929646 
167.085724 0.177148 
167.192398 0.133627 
167.76442 0.07888 
168.056976 2.054587 
169.00499 38.884262 
169.064682 2.057693 
170.008163 3.089526 
171.002106 7.849391 
171.044128 2.162058 
172.051682 0.13482 
173.05954 2.959752 
174.067551 4.908075 
175.038498 0.48745 
176.046875 2.794173 
176.380554 0.187859 
177.054596 0.361281 
179.085129 0.198612 
179.617615 0.150347 
181.004974 36.714191 
181.064453 0.578493 
182.008301 9.027249 
182.964783 0.155613 
182.984482 4.516753 
183.002106 32.897732 
183.010941 0.673946 
183.020767 1.621621 
183.044083 0.681473 
184.005798 1.885076 
184.052048 3.470372 
184.464584 0.187072 
184.981384 0.353507 
184.999924 1.46762 
185.018173 0.208582 
185.030624 0.078682 
185.059708 8.218478 
186.067368 2.041122 
187.039139 1.709004 
188.046814 1.070261 
188.082642 0.102884 
188.937775 0.230087 
189.054611 100.0 
190.057892 36.182056 
191.060226 1.769162 
191.070206 0.520243 
191.085312 0.171281 
192.041656 10.364514 
192.073547 0.191833 
193.044937 0.419389 
194.013474 0.275788 
194.857239 0.134725 
195.020737 8.227256 
195.079315 0.272267 
196.052094 0.531711 
196.999969 47.742722 
197.017029 0.404464 
197.05957 4.059416 
198.003815 4.81931 
198.067154 2.167925 
198.607681 0.111964 
198.979553 1.848659 
198.996948 9.845795 
199.073517 0.19236 
200.04686 3.119253 
200.994995 15.117769 
201.054794 0.436709 
201.298203 0.09337 
201.998352 0.085949 
202.062668 1.33906 
202.991928 2.298511 
203.219559 0.185634 
204.041748 4.110167 
205.06427 0.154783 
207.020828 2.68561 
207.06514 12.022861 
207.080032 0.189367 
208.06868 4.174293 
209.000046 8.732203 
209.035965 0.56915 
209.368668 0.192582 
210.004211 1.197261 
210.979309 10.271218 
210.996841 7.319606 
211.015488 1.176877 
211.075272 0.597698 
211.982666 0.265263 
212.046494 0.486191 
212.976089 0.95887 
212.994461 0.118555 
213.054581 6.794008 
214.062363 7.382862 
215.069382 0.360286 
215.450272 0.114556 
216.041565 0.389178 
219.020309 0.079317 
219.065094 42.044708 
219.077545 0.369158 
219.730759 0.948018 
220.068573 17.600861 
220.999741 0.934905 
221.070923 1.049822 
223.015228 2.916775 
223.075134 0.362988 
223.198273 0.173879 
224.994659 0.117811 
225.15744 0.160233 
226.002625 0.415689 
226.062317 1.128525 
226.793442 0.194264 
227.010284 0.946268 
228.041565 2.327484 
229.04892 0.677123 
229.701797 0.133875 
231.020706 4.255227 
233.107193 0.065847 
235.015396 0.714812 
235.075195 0.079898 
236.081055 0.158326 
237.054657 0.077915 
238.800659 0.154923 
238.997406 0.079642 
239.010223 2.506354 
239.070023 0.431138 
240.042648 0.064159 
240.077423 0.832436 
240.909576 0.084549 
241.048538 0.440881 
242.057007 3.262041 
243.060867 0.270289 
247.015808 0.783776 
249.087418 0.074523 
250.062317 0.215169 
251.069077 0.218732 
252.318771 0.20548 
256.072754 0.471253 
257.079681 0.679559 
258.085602 0.521773 
259.015259 0.644039 
260.613617 0.099315 
263.010315 2.436689 
264.078247 0.144902 
264.990051 0.732621 
265.007019 0.238695 
265.993622 0.085086 
266.057617 0.191196 
266.986359 1.070035 
267.990479 0.178866 
277.098541 0.198745 
278.339233 0.151883 
282.569794 0.095827 
293.479889 0.074916 
293.623322 0.141073 
314.015564 0.094103 
336.905701 0.134401 
344.077728 0.058932 
END IONS

