BEGIN IONS
PEPMASS=452.111
CHARGE=1+
COMPOUNDNAME=NOSCAPINE
LIBRARYQUALITY=3
SMILES=N/A
INCHIKEY=AKNNEGZIBPJZJG-MSOLQXFVSA-N
INCHI=InChI=1S/C22H23NO7/c1-23-8-7-11-9-14-20(29-10-28-14)21(27-4)15(11)17(23)18-12-5-6-13(25-2)19(26-3)16(12)22(24)30-18/h5-6,9,17-18H,7-8,10H2,1-4H3/t17-,18+/m1/s1
MSLEVEL=2
SOURCE_INSTRUMENT=N/A-ESI-QFT
FILENAME=library_mgf.mgf
SEQ=*..*
IONMODE=positive
ORGANISM=MONA
NAME=NOSCAPINE [M+K]+
PI=MoNA
DATACOLLECTOR=MoNA:VF-NPL-QEHF002755
PUBMED=N/A
SUBMITUSER=mwang87
TAGS=
SPECTRUMID=CCMSLIB00004693818
SCANS=2755
50.576843 0.000925 
51.183041 0.007426 
51.458649 0.009355 
51.648594 0.000804 
52.228054 0.003777 
52.31625 0.013478 
52.460556 0.000744 
52.648594 0.013789 
53.016014 0.008264 
53.372837 0.000755 
53.642605 0.013854 
54.817661 0.014435 
55.054993 0.007521 
55.226711 0.012043 
55.530087 0.000836 
56.672535 0.01488 
56.691803 0.000834 
56.828156 0.007481 
57.070633 0.091273 
57.494751 0.007926 
58.065941 0.001041 
58.600529 0.014149 
58.647049 0.015173 
59.049896 0.003813 
59.475594 0.014457 
60.626045 0.014229 
61.01133 0.000987 
61.131622 0.008053 
61.608894 0.003557 
61.768635 0.000785 
63.619637 0.000836 
64.791618 0.008474 
65.209518 0.007843 
65.474586 0.000902 
65.993652 0.000794 
66.835426 0.01496 
67.054962 0.021341 
67.081192 0.00093 
68.200394 0.003786 
68.545746 0.016179 
69.062675 0.00077 
69.070503 0.015241 
69.16391 0.01193 
69.211113 0.000865 
69.712555 0.012795 
70.065826 0.001371 
70.639137 0.006873 
71.049789 0.001157 
71.086182 0.090345 
71.698448 0.012145 
73.065392 0.004138 
73.513191 0.006923 
74.097 0.008683 
76.967606 0.000837 
77.930382 0.014817 
78.356071 0.003374 
78.432938 0.008126 
78.975372 0.01351 
79.05481 0.00172 
79.484612 0.007291 
80.393608 0.007276 
80.550583 0.007779 
81.070381 0.039628 
82.461235 0.015561 
82.496582 0.013764 
83.086082 0.023422 
84.072922 0.000964 
84.081383 0.004054 
85.065331 0.002296 
85.101768 0.035252 
86.706207 0.0075 
87.044563 0.005978 
87.318573 0.008413 
88.682442 0.007187 
89.060219 0.501 
90.063538 0.001118 
91.054871 0.001057 
92.067902 0.000878 
92.339912 0.00088 
93.070236 0.004645 
93.130585 0.013681 
95.085999 0.108998 
96.089226 0.000951 
97.065079 0.001193 
97.101578 0.013323 
99.080872 0.00226 
99.87735 0.01308 
100.112473 0.005319 
100.174011 0.01365 
101.166237 0.013999 
102.091766 0.036717 
102.920403 0.000889 
103.007004 0.000998 
103.637146 0.008246 
105.070206 0.003743 
106.676224 0.000832 
107.056351 0.016618 
107.070541 0.00344 
107.085869 0.017414 
107.572235 0.000782 
108.375771 0.012565 
109.065063 0.002499 
109.101479 0.045994 
109.840591 0.017135 
110.366547 0.012059 
111.044052 0.001023 
111.07579 0.01172 
111.080627 0.002225 
111.117256 0.004248 
111.300873 0.00096 
113.640068 0.000971 
115.656822 0.015344 
117.070427 0.000887 
117.408707 0.013969 
119.08567 0.004186 
121.065041 0.001221 
121.086441 0.000878 
121.101418 0.025303 
121.815994 0.014693 
122.239799 0.008031 
123.080719 0.001165 
123.116997 0.008101 
125.096275 0.00362 
125.472862 0.007551 
126.052528 0.001276 
127.658035 0.003583 
128.011917 0.006979 
129.333252 0.015339 
130.293762 0.000772 
130.817688 0.013542 
131.237305 0.00394 
133.085922 0.07525 
133.101456 0.002527 
133.274689 0.01363 
134.089157 0.001053 
135.080261 0.001 
135.116867 0.004219 
136.075653 0.000756 
139.075607 0.001054 
145.079849 0.003794 
146.898163 0.014525 
147.116806 0.004217 
147.190048 0.0125 
148.535187 0.008172 
149.059586 0.001111 
149.132462 0.00353 
149.309769 0.015175 
149.436142 0.003344 
151.096619 0.001339 
151.112427 0.001017 
154.122757 0.007126 
154.359451 0.00995 
159.675583 0.000882 
161.132553 0.001933 
162.071747 0.000904 
162.091217 0.001128 
163.148056 0.004964 
165.054672 0.001597 
167.070175 0.001295 
167.321198 0.015128 
168.118027 0.008682 
168.137985 0.001058 
168.531754 0.000923 
169.091049 0.013561 
173.132065 0.001004 
174.516556 0.004459 
175.148117 0.002058 
175.763885 0.000926 
177.111801 0.009349 
177.324554 0.000963 
178.086395 0.003192 
178.122253 0.001242 
178.392838 0.004145 
179.070328 0.023838 
182.153915 0.004803 
182.790466 0.000868 
185.153381 0.001081 
186.927811 0.003931 
187.640106 0.014313 
188.697006 0.004166 
189.700912 0.01366 
190.085968 0.05422 
191.070007 0.001183 
191.178558 0.001346 
192.1017 0.309744 
192.111084 0.001479 
193.105347 0.028104 
193.131302 0.007993 
194.080719 0.001096 
194.115784 0.007786 
195.216202 0.016406 
196.169708 0.00138 
197.551208 0.008647 
199.169189 0.00126 
201.090988 1.196204 
202.094482 0.081587 
202.669327 0.003972 
203.069519 0.001018 
203.179932 0.000909 
204.535004 0.013612 
204.981934 0.008573 
205.073502 0.629825 
206.08139 0.052878 
207.08461 0.002888 
208.086029 0.001145 
208.09668 0.004223 
208.131073 0.012128 
209.164948 0.009794 
209.200943 0.009897 
210.148911 0.010167 
210.185242 1.286244 
211.188477 0.014206 
213.668442 0.582135 
213.679947 0.284927 
215.028214 0.002371 
215.106461 0.093488 
216.039352 0.072704 
217.043045 0.00822 
218.081268 0.516109 
219.08609 0.003151 
219.174622 0.005152 
220.076813 0.27552 
220.096695 100.0 
221.100204 11.511615 
221.118118 0.022386 
222.102524 0.744911 
222.11319 0.036633 
222.629761 0.003714 
222.89769 0.000857 
223.116119 0.001021 
224.127686 0.016057 
225.714966 0.007347 
225.912262 0.009809 
226.179886 0.005298 
226.190811 0.000989 
227.105499 0.001028 
227.200226 0.028663 
227.211884 0.071326 
228.194885 0.000959 
230.078491 0.001118 
233.104065 0.091616 
234.110352 0.011898 
234.477692 0.012477 
235.398254 0.00904 
236.091553 1.059548 
236.1362 0.003372 
237.094879 0.055937 
237.323959 0.01415 
238.065216 0.015339 
240.06337 0.053027 
241.122391 0.0024 
242.041779 0.00152 
247.520706 0.007405 
249.822006 0.012421 
250.107773 0.013188 
250.177521 0.001384 
254.057449 0.001016 
254.138489 0.018367 
256.055237 0.565195 
257.058441 0.172724 
258.060303 0.001609 
258.073181 0.012765 
260.090149 0.00108 
260.127747 0.025506 
264.908112 0.001031 
265.547668 0.0137 
268.263489 0.00404 
269.40976 0.007643 
270.314728 0.001288 
270.774841 0.012675 
281.911713 0.00477 
283.263184 0.006572 
295.193848 0.000947 
296.299896 0.011335 
297.546936 0.0009 
298.168152 0.001602 
309.574524 0.009674 
311.293976 0.061255 
312.297241 0.007361 
313.204773 0.025518 
314.210388 0.001126 
320.922424 0.007579 
326.279968 0.002561 
331.21582 0.032519 
332.219757 0.001171 
336.228333 0.002258 
336.838104 0.011457 
340.154236 0.001221 
347.166229 0.000972 
349.641937 0.003509 
353.841766 0.015615 
354.388702 0.009647 
358.844849 0.002298 
360.838776 1.102874 
361.530853 0.003546 
361.840637 0.06376 
368.352173 0.108201 
369.126312 0.001175 
369.354767 0.027015 
370.164551 0.001485 
370.359314 0.001016 
373.62146 0.000888 
374.356781 0.01326 
377.062286 0.043874 
377.841644 0.000886 
378.067719 0.001705 
378.849182 0.386384 
379.851654 0.003516 
382.159698 0.000905 
382.28772 0.013836 
385.309753 0.000974 
386.158081 0.001058 
389.058838 0.002721 
390.064667 0.015249 
390.093018 0.001264 
392.085419 0.001041 
392.369263 0.000974 
393.208923 0.082139 
394.212372 0.001161 
394.84436 0.005666 
398.960724 0.015415 
400.175415 0.001072 
401.17749 0.000856 
402.336426 0.007518 
405.093384 0.077307 
406.097809 0.001471 
407.076385 0.968198 
408.079865 0.101846 
418.294342 0.000877 
418.330444 0.002548 
419.287598 0.478842 
419.363495 0.008095 
419.85202 0.007702 
420.267181 0.006159 
420.292694 0.019256 
420.366119 0.00259 
421.27066 0.001736 
421.30304 0.028821 
422.099457 0.31803 
423.102722 0.015627 
429.886719 0.001089 
434.565521 0.01482 
435.332886 0.00486 
447.347046 0.001252 
450.115753 0.003081 
450.290436 0.160389 
451.118683 0.022531 
451.214691 0.709713 
451.250824 2.168847 
451.309479 0.002832 
452.131348 0.085543 
452.219238 0.071267 
452.254333 0.37127 
452.484497 0.004522 
452.51825 0.167973 
453.136475 0.001258 
453.209991 0.094205 
453.257935 0.007167 
453.338348 0.019581 
453.414001 0.002256 
453.521759 0.033145 
458.934296 0.003441 
471.141785 0.013899 
476.160156 0.015835 
END IONS

