BEGIN IONS
PEPMASS=591.39
CHARGE=1+
COMPOUNDNAME=MLS001173429-01!
LIBRARYQUALITY=1
SMILES=CC[C@H]([C@H]1O[C@@](CC)(C[C@@H]1C)[C@H]2CC[C@](O)(CC)[C@H](C)O2)C(=O)[C@@H](C)[C@@H](O)[C@H](C)CCc3ccc(C)c(O)c3C(=O)[O-].[Na+]
INCHIKEY=RDHDUYAKDYQPEW-HWLWSTNVSA-M
INCHI=N/A
MSLEVEL=2
SOURCE_INSTRUMENT=LC-ESI-qTof
FILENAME=p3-C05_GC5_01_18250.mzXML
SEQ=*..*
IONMODE=Positive
ORGANISM=GNPS-NIH-SMALLMOLECULEPHARMACOLOGICALLYACTIVE
NAME=MLS001173429-01! M+H
PI=Dorrestein
DATACOLLECTOR=VP/LMS
PUBMED=N/A
SUBMITUSER=vphelan
TAGS=
SPECTRUMID=CCMSLIB00000084900
SCANS=3160
44.903618 144.0 
44.976299 128.0 
44.993656 32.0 
45.025703 216.0 
45.048412 160.0 
45.07246 96.0 
45.084488 176.0 
45.136623 156.0 
45.156685 192.0 
45.258392 212.0 
45.291874 288.0 
45.362896 248.0 
45.385689 80.0 
45.396416 92.0 
45.558826 172.0 
45.579971 228.0 
45.660988 84.0 
45.70269 188.0 
45.724224 124.0 
45.734989 168.0 
45.769398 208.0 
45.869694 180.0 
45.888569 124.0 
45.962753 200.0 
46.015903 220.0 
46.153217 196.0 
46.16674 172.0 
46.196495 52.0 
46.227615 148.0 
46.312912 108.0 
46.333233 148.0 
46.388798 64.0 
46.520386 36.0 
46.725601 184.0 
46.759621 32.0 
46.850857 40.0 
46.895271 148.0 
46.905365 76.0 
46.923088 176.0 
47.04451 88.0 
47.066357 188.0 
47.080013 128.0 
47.096401 60.0 
47.246773 188.0 
47.363136 172.0 
47.437134 180.0 
47.526279 224.0 
47.54211 112.0 
47.572945 220.0 
47.670467 216.0 
47.747456 180.0 
47.841133 148.0 
47.938816 124.0 
48.010506 116.0 
48.060165 156.0 
48.071205 208.0 
48.080864 132.0 
48.09605 160.0 
48.110535 180.0 
48.254921 204.0 
48.274277 164.0 
48.322693 212.0 
48.344833 84.0 
48.415436 124.0 
48.558189 208.0 
48.622013 220.0 
48.649773 64.0 
48.725136 272.0 
48.744221 72.0 
48.803993 128.0 
48.841541 76.0 
48.964027 112.0 
49.074116 212.0 
49.085274 120.0 
49.141068 152.0 
49.178745 220.0 
49.300255 92.0 
49.398132 136.0 
49.409321 160.0 
49.588566 84.0 
49.612396 156.0 
49.66428 272.0 
49.700756 144.0 
49.791233 172.0 
49.844265 220.0 
49.911457 200.0 
49.964905 136.0 
50.142334 164.0 
50.169117 168.0 
50.348316 188.0 
50.37233 220.0 
50.389282 220.0 
50.468433 196.0 
50.502377 92.0 
50.549065 180.0 
50.564632 204.0 
50.774315 140.0 
50.835777 248.0 
50.866547 156.0 
50.926155 200.0 
50.987278 168.0 
51.088234 132.0 
51.261703 196.0 
51.311832 148.0 
51.434521 188.0 
51.501633 116.0 
51.59166 112.0 
51.611675 172.0 
51.739017 124.0 
51.882282 172.0 
51.991295 112.0 
52.307762 160.0 
52.502022 128.0 
52.564056 188.0 
52.62468 164.0 
52.689674 92.0 
52.733025 156.0 
52.763382 132.0 
52.796642 164.0 
52.87315 172.0 
53.010899 204.0 
53.128345 152.0 
53.229946 160.0 
53.434898 76.0 
53.445084 124.0 
53.462543 132.0 
53.512035 204.0 
53.596516 160.0 
53.663345 184.0 
53.794872 76.0 
53.8489 188.0 
53.88834 168.0 
53.951187 172.0 
53.990665 220.0 
54.072598 168.0 
54.09309 136.0 
54.195606 176.0 
54.290894 220.0 
54.326096 120.0 
54.417088 144.0 
54.472282 200.0 
54.705627 200.0 
54.80687 108.0 
54.821934 144.0 
54.943989 156.0 
55.016304 184.0 
55.104919 172.0 
55.220226 192.0 
55.249809 172.0 
55.261646 100.0 
55.280884 200.0 
55.35342 160.0 
55.482327 168.0 
55.600994 160.0 
55.672253 140.0 
55.832893 176.0 
55.847633 272.0 
56.053085 188.0 
56.081402 196.0 
56.114197 132.0 
56.142529 168.0 
56.161919 224.0 
56.217121 144.0 
56.309685 92.0 
56.512196 248.0 
56.530949 164.0 
56.567226 84.0 
56.643242 184.0 
56.68819 136.0 
56.719196 372.0 
56.736153 140.0 
56.808136 164.0 
56.901184 60.0 
56.919205 204.0 
56.956749 148.0 
56.994308 116.0 
57.018353 192.0 
57.044781 248.0 
57.053391 208.0 
57.066456 132.0 
57.245522 136.0 
57.387165 236.0 
57.510872 156.0 
57.521439 168.0 
57.6604 168.0 
57.817688 192.0 
57.881268 160.0 
57.947914 128.0 
58.030346 176.0 
58.198181 152.0 
58.210331 152.0 
58.265011 164.0 
58.337959 128.0 
58.424644 164.0 
58.532707 200.0 
58.547935 156.0 
58.670174 180.0 
58.7705 80.0 
58.804039 184.0 
58.888046 72.0 
58.969025 80.0 
58.993484 136.0 
59.066887 188.0 
59.102074 176.0 
59.172482 120.0 
59.210766 108.0 
59.227612 148.0 
59.273575 136.0 
59.296562 148.0 
59.611172 104.0 
59.726143 272.0 
59.932781 204.0 
59.979015 112.0 
60.136345 224.0 
60.171852 196.0 
60.256798 180.0 
60.668472 188.0 
60.682426 104.0 
60.766178 168.0 
60.822048 176.0 
60.884007 128.0 
60.944736 140.0 
61.076881 124.0 
61.132893 120.0 
61.1936 176.0 
61.308868 120.0 
61.340042 168.0 
61.461693 172.0 
61.478859 216.0 
61.569405 176.0 
61.58971 152.0 
61.73819 212.0 
61.802326 188.0 
61.868061 136.0 
62.137627 204.0 
62.148609 180.0 
62.186275 120.0 
62.20982 136.0 
62.289909 184.0 
62.511597 164.0 
62.569031 164.0 
62.58873 168.0 
62.613926 116.0 
62.672215 360.0 
62.721069 140.0 
62.8283 76.0 
62.880375 116.0 
62.945103 112.0 
63.02092 72.0 
63.092045 72.0 
63.160095 120.0 
63.310402 80.0 
63.391197 92.0 
63.61166 128.0 
63.622772 172.0 
63.738716 192.0 
63.756199 40.0 
63.899311 212.0 
63.92318 204.0 
63.975704 132.0 
64.004364 132.0 
64.079224 112.0 
64.130219 144.0 
64.214722 148.0 
64.237053 180.0 
64.321892 232.0 
64.390289 72.0 
64.489349 112.0 
64.598076 188.0 
65.105621 208.0 
65.352127 204.0 
65.461586 128.0 
65.58725 172.0 
65.617882 144.0 
65.63723 184.0 
65.709816 212.0 
65.942352 244.0 
65.987617 156.0 
66.037743 160.0 
66.058769 128.0 
66.228737 252.0 
66.269196 156.0 
66.364868 116.0 
66.476791 184.0 
66.494644 44.0 
66.544968 112.0 
66.57254 196.0 
66.667206 240.0 
66.754585 140.0 
66.824524 156.0 
66.876602 180.0 
66.959641 96.0 
66.977554 140.0 
67.013252 136.0 
67.17643 148.0 
67.248222 144.0 
67.282898 200.0 
67.347824 180.0 
67.364159 168.0 
67.527618 160.0 
67.573425 136.0 
67.611061 52.0 
67.672424 164.0 
67.727303 204.0 
67.84037 152.0 
67.876442 180.0 
67.928925 136.0 
67.971588 212.0 
67.989639 160.0 
68.109489 108.0 
68.216301 164.0 
68.546654 168.0 
68.749962 164.0 
68.763168 144.0 
68.835808 124.0 
69.032455 216.0 
69.082077 148.0 
69.186333 52.0 
69.300613 180.0 
69.418304 152.0 
69.482994 188.0 
69.519501 352.0 
69.964958 176.0 
70.0299 156.0 
70.174881 176.0 
70.254936 148.0 
70.271622 148.0 
70.303329 128.0 
70.360077 164.0 
70.458611 132.0 
70.487015 56.0 
70.581352 176.0 
70.645859 120.0 
70.826645 184.0 
70.865173 148.0 
71.055382 188.0 
71.197311 184.0 
71.262825 136.0 
71.296432 48.0 
71.368713 152.0 
71.385529 60.0 
71.451134 180.0 
71.491516 200.0 
71.508347 60.0 
71.536957 104.0 
71.680122 144.0 
71.712143 136.0 
71.995583 36.0 
72.247437 140.0 
72.388458 164.0 
72.421272 208.0 
72.436256 192.0 
72.467529 204.0 
72.491257 60.0 
72.521759 120.0 
72.640457 124.0 
72.738876 160.0 
72.766045 240.0 
72.800003 180.0 
72.96312 168.0 
73.000526 188.0 
73.046448 128.0 
73.071968 152.0 
73.160179 140.0 
73.220062 212.0 
73.270714 212.0 
73.416145 152.0 
73.479164 108.0 
73.583275 188.0 
73.634506 216.0 
73.696007 224.0 
73.856018 228.0 
73.890915 148.0 
74.002167 180.0 
74.09465 200.0 
74.233688 140.0 
74.312393 88.0 
74.595764 132.0 
74.647346 136.0 
74.716148 80.0 
74.759163 136.0 
74.798752 212.0 
74.822853 132.0 
74.871063 172.0 
74.886566 184.0 
74.908958 164.0 
74.933517 220.0 
74.991669 160.0 
75.005455 132.0 
75.067528 156.0 
75.158951 132.0 
75.284966 152.0 
75.369606 184.0 
75.500984 32.0 
75.648064 160.0 
75.757164 156.0 
76.126602 152.0 
76.157867 184.0 
76.209984 120.0 
76.295143 220.0 
76.385574 156.0 
76.462135 48.0 
76.542213 196.0 
76.79142 108.0 
76.861206 148.0 
76.87516 152.0 
77.011345 260.0 
77.08297 84.0 
77.131905 220.0 
77.159882 140.0 
77.186104 128.0 
77.340057 184.0 
77.457382 120.0 
77.550247 124.0 
77.694038 68.0 
77.744926 112.0 
77.758965 80.0 
77.827431 156.0 
77.91349 132.0 
77.969719 148.0 
78.029488 44.0 
78.071686 212.0 
78.142044 260.0 
78.166679 200.0 
78.294342 212.0 
78.457298 148.0 
78.541946 120.0 
78.5737 116.0 
78.616318 180.0 
78.647812 228.0 
78.787323 240.0 
78.840332 64.0 
78.960548 128.0 
79.011848 168.0 
79.073776 168.0 
79.125114 204.0 
79.16584 212.0 
79.345642 144.0 
79.38913 152.0 
79.419281 108.0 
79.610962 164.0 
79.845551 168.0 
79.929161 144.0 
79.952293 72.0 
79.977211 248.0 
79.991455 208.0 
80.018158 144.0 
80.103638 176.0 
80.132141 152.0 
80.190948 152.0 
80.259499 212.0 
80.356789 176.0 
80.376419 104.0 
80.447807 136.0 
80.526375 176.0 
80.638939 192.0 
80.676476 192.0 
80.742638 188.0 
80.767677 64.0 
80.943695 216.0 
80.99321 120.0 
81.013794 188.0 
81.147331 144.0 
81.193954 56.0 
81.213684 44.0 
81.445229 164.0 
81.567268 192.0 
81.621353 144.0 
81.740074 180.0 
81.756271 164.0 
81.786873 132.0 
81.840881 196.0 
81.86969 72.0 
81.900307 140.0 
82.039528 124.0 
82.084671 176.0 
82.224846 88.0 
82.302475 136.0 
82.363876 56.0 
82.497597 124.0 
82.512062 224.0 
82.785286 72.0 
82.884918 220.0 
82.948349 228.0 
82.988235 116.0 
83.040825 92.0 
83.184174 180.0 
83.254982 96.0 
83.32946 336.0 
83.41851 264.0 
83.503967 216.0 
83.700516 168.0 
83.970222 204.0 
84.243202 160.0 
84.275085 160.0 
84.31163 220.0 
84.449654 152.0 
84.622597 148.0 
84.83329 160.0 
84.899292 144.0 
85.073608 172.0 
85.086456 212.0 
85.126854 212.0 
85.152565 132.0 
85.16909 176.0 
85.194809 92.0 
85.218697 72.0 
85.248093 132.0 
85.297722 172.0 
85.463234 176.0 
85.503723 96.0 
85.54422 120.0 
85.776321 120.0 
85.877739 124.0 
85.953377 164.0 
85.97921 128.0 
85.993973 108.0 
86.191582 128.0 
86.20636 172.0 
86.235931 72.0 
86.378311 120.0 
86.407906 200.0 
86.439362 136.0 
86.605988 152.0 
86.646736 376.0 
86.693062 188.0 
86.841377 208.0 
86.85807 124.0 
86.934143 172.0 
86.974976 132.0 
87.041809 172.0 
87.184853 164.0 
87.584869 48.0 
87.642624 56.0 
87.672684 212.0 
87.849571 232.0 
87.921127 304.0 
88.025986 172.0 
88.077309 152.0 
88.196899 156.0 
88.361465 228.0 
88.426956 144.0 
88.477501 184.0 
88.56926 260.0 
88.624008 164.0 
88.674179 124.0 
88.692924 156.0 
88.745415 196.0 
88.895477 132.0 
88.910492 152.0 
89.025009 144.0 
89.064453 108.0 
89.231705 156.0 
89.259911 104.0 
89.297516 108.0 
89.374649 176.0 
89.425461 208.0 
89.495117 136.0 
89.626961 196.0 
89.645805 92.0 
89.687271 184.0 
89.974007 120.0 
90.125107 124.0 
90.165382 152.0 
90.285782 108.0 
90.376579 64.0 
90.605675 176.0 
90.713699 144.0 
90.867249 128.0 
91.054405 556.0 
91.073799 176.0 
91.11982 36.0 
91.256668 200.0 
91.323227 172.0 
91.422157 120.0 
91.593513 152.0 
91.616371 48.0 
91.70784 168.0 
91.896629 184.0 
92.014961 36.0 
92.102806 204.0 
92.181137 64.0 
92.257591 164.0 
92.276711 80.0 
92.343643 128.0 
92.370422 164.0 
92.548401 156.0 
92.64608 120.0 
92.71698 128.0 
93.01619 128.0 
93.069366 832.0 
93.10643 64.0 
93.146767 360.0 
93.198639 192.0 
93.264191 184.0 
93.327423 152.0 
93.483231 180.0 
93.602577 200.0 
93.67215 132.0 
93.82608 232.0 
93.914787 196.0 
94.074951 428.0 
94.183083 140.0 
94.382141 140.0 
94.422752 176.0 
94.502068 168.0 
94.588478 184.0 
94.635612 168.0 
94.70533 132.0 
94.73439 240.0 
94.758324 80.0 
94.771202 72.0 
94.788635 140.0 
94.935966 180.0 
94.95536 156.0 
95.009674 168.0 
95.046555 272.0 
95.084915 2144.0 
95.102219 248.0 
95.16494 184.0 
95.522743 216.0 
95.545876 192.0 
95.563858 164.0 
95.637337 144.0 
95.652908 208.0 
95.713264 176.0 
95.855461 156.0 
95.980209 116.0 
96.088196 176.0 
96.108948 112.0 
96.241676 148.0 
96.308075 108.0 
96.476128 108.0 
96.517189 64.0 
96.605202 236.0 
96.63063 44.0 
96.757851 164.0 
97.047821 176.0 
97.065048 188.0 
97.101471 612.0 
97.132149 108.0 
97.167458 232.0 
97.32251 68.0 
97.47966 188.0 
97.554344 168.0 
97.629059 144.0 
97.658562 244.0 
97.841568 164.0 
98.059021 204.0 
98.074013 152.0 
98.105827 204.0 
98.12133 220.0 
98.160759 160.0 
98.22979 64.0 
98.253464 148.0 
98.369896 176.0 
98.399513 216.0 
98.442947 192.0 
98.610878 148.0 
98.725548 148.0 
98.803947 308.0 
98.828407 164.0 
98.848198 176.0 
98.891731 192.0 
98.937263 96.0 
98.978844 196.0 
99.046333 308.0 
99.080284 832.0 
99.111557 188.0 
99.159119 140.0 
99.180916 124.0 
99.276085 152.0 
99.387169 176.0 
99.438538 140.0 
99.494347 160.0 
99.543983 152.0 
99.594231 240.0 
99.634392 184.0 
99.712845 32.0 
99.901749 204.0 
100.056976 188.0 
100.079071 204.0 
100.467522 160.0 
100.545334 136.0 
100.565292 64.0 
100.68309 104.0 
100.766991 188.0 
100.914886 52.0 
101.059067 508.0 
101.084908 140.0 
101.142952 184.0 
101.223701 168.0 
101.285118 236.0 
101.327187 108.0 
101.387299 168.0 
101.42939 156.0 
101.635956 164.0 
101.710213 68.0 
101.726273 148.0 
101.832695 112.0 
101.917068 128.0 
102.043694 92.0 
102.059776 140.0 
102.095978 148.0 
102.15229 168.0 
102.206612 92.0 
102.329391 124.0 
102.426056 132.0 
102.492538 160.0 
102.544937 220.0 
102.690102 228.0 
102.853539 180.0 
102.871704 148.0 
103.009026 192.0 
103.055489 188.0 
103.140366 176.0 
103.312256 160.0 
103.385094 100.0 
103.41748 172.0 
103.457962 136.0 
103.630112 144.0 
103.684822 212.0 
103.798347 152.0 
103.812546 108.0 
103.903816 124.0 
103.946426 72.0 
104.054008 80.0 
104.090553 196.0 
104.114922 128.0 
104.190079 116.0 
104.318108 156.0 
104.42791 200.0 
104.615112 172.0 
104.745438 112.0 
104.835091 140.0 
105.043053 156.0 
105.070145 1600.0 
105.132828 112.0 
105.249184 36.0 
105.29615 188.0 
105.449387 144.0 
105.559776 128.0 
105.930229 80.0 
106.001938 88.0 
106.020386 48.0 
106.07193 244.0 
106.100327 180.0 
106.151581 196.0 
106.178246 216.0 
106.23568 144.0 
106.256187 124.0 
106.430649 152.0 
106.469666 148.0 
106.494316 44.0 
106.523071 156.0 
106.537453 172.0 
106.693642 92.0 
106.747101 168.0 
106.777946 96.0 
106.810905 164.0 
106.829369 144.0 
106.874634 248.0 
106.942543 152.0 
107.045479 216.0 
107.085274 3976.0 
107.148468 156.0 
107.195854 132.0 
107.218529 116.0 
107.331909 192.0 
107.358711 176.0 
107.375214 148.0 
107.402023 176.0 
107.422653 128.0 
107.587746 92.0 
107.624908 36.0 
107.771561 120.0 
107.819092 176.0 
107.93692 56.0 
107.986717 248.0 
108.00724 408.0 
108.026352 184.0 
108.054817 176.0 
108.089592 164.0 
108.179642 204.0 
108.230751 212.0 
108.346733 92.0 
108.408897 144.0 
108.522903 152.0 
108.59536 136.0 
108.695061 76.0 
108.843811 188.0 
108.881897 68.0 
109.010696 220.0 
109.035637 156.0 
109.065903 764.0 
109.100845 3176.0 
109.168686 140.0 
109.195724 132.0 
109.243561 232.0 
109.283096 108.0 
109.366333 180.0 
109.543327 140.0 
109.574577 56.0 
109.603752 148.0 
109.630836 180.0 
109.674606 192.0 
109.75174 60.0 
109.889404 160.0 
109.993744 152.0 
110.038666 200.0 
110.068497 164.0 
110.102272 324.0 
110.162895 188.0 
110.185875 160.0 
110.231842 152.0 
110.320808 176.0 
110.474373 168.0 
110.627144 212.0 
110.66539 252.0 
110.702515 48.0 
110.733932 204.0 
110.769539 124.0 
111.015739 124.0 
111.039757 244.0 
111.080482 2776.0 
111.114632 656.0 
111.130127 64.0 
111.319046 72.0 
111.33374 32.0 
111.390457 52.0 
111.569077 52.0 
111.731995 152.0 
111.859383 124.0 
111.937286 100.0 
112.061943 196.0 
112.082832 452.0 
112.208237 168.0 
112.504448 184.0 
112.521339 124.0 
112.538231 208.0 
112.643829 152.0 
112.724113 192.0 
112.901688 200.0 
112.996872 204.0 
113.013802 128.0 
113.062752 220.0 
113.096069 6248.0 
113.164078 68.0 
113.181015 52.0 
113.233955 116.0 
113.397095 192.0 
113.494614 164.0 
113.553993 44.0 
113.601311 208.0 
113.647331 216.0 
113.726334 176.0 
113.741859 152.0 
113.761932 120.0 
113.798027 228.0 
113.855362 132.0 
113.95945 112.0 
114.027451 144.0 
114.059334 172.0 
114.100044 568.0 
114.127357 92.0 
114.223061 276.0 
114.267738 160.0 
114.306465 180.0 
114.348602 156.0 
114.440132 40.0 
114.567924 112.0 
114.610535 92.0 
114.807007 188.0 
114.909035 60.0 
114.987778 160.0 
115.052689 220.0 
115.104485 196.0 
115.133163 180.0 
115.158791 176.0 
115.24424 200.0 
115.464424 244.0 
115.490089 148.0 
115.592781 300.0 
115.697655 160.0 
115.928986 168.0 
116.074753 148.0 
116.140869 116.0 
116.179848 132.0 
116.237778 76.0 
116.306458 164.0 
116.44706 296.0 
116.493271 128.0 
116.556503 132.0 
116.570618 160.0 
116.710342 116.0 
116.832932 84.0 
116.914696 144.0 
116.93837 144.0 
116.979271 140.0 
117.015869 136.0 
117.070778 428.0 
117.149391 252.0 
117.173088 144.0 
117.371384 120.0 
117.608696 168.0 
117.656181 260.0 
117.756882 120.0 
117.804138 204.0 
117.926201 140.0 
117.947815 180.0 
118.042198 140.0 
118.08181 152.0 
118.190033 156.0 
118.542992 68.0 
118.623184 180.0 
118.692566 104.0 
118.709908 168.0 
118.729431 180.0 
118.798836 140.0 
118.830925 248.0 
118.935547 164.0 
118.957451 176.0 
119.026726 192.0 
119.050003 480.0 
119.08416 1048.0 
119.120117 172.0 
119.137497 248.0 
119.27005 160.0 
119.433685 128.0 
119.45488 268.0 
119.648567 148.0 
119.740707 220.0 
119.774872 144.0 
119.82473 176.0 
119.875092 144.0 
120.016777 188.0 
120.047142 164.0 
120.091393 208.0 
120.234917 100.0 
120.26329 76.0 
120.324417 108.0 
120.352798 52.0 
120.64119 136.0 
120.811287 200.0 
120.818443 156.0 
120.825439 208.0 
120.879593 168.0 
120.938683 128.0 
121.006546 136.0 
121.064812 1744.0 
121.101105 3564.0 
121.21682 60.0 
121.269417 204.0 
121.479919 192.0 
121.553558 200.0 
121.630913 188.0 
121.791626 100.0 
121.828964 120.0 
121.954216 156.0 
122.04435 180.0 
122.069023 108.0 
122.106377 340.0 
122.178513 60.0 
122.229118 164.0 
122.255524 204.0 
122.304436 168.0 
122.321556 188.0 
122.427238 132.0 
122.583649 204.0 
122.685036 32.0 
122.707077 136.0 
122.737946 116.0 
122.762207 180.0 
122.955185 124.0 
123.04464 188.0 
123.079506 948.0 
123.116447 2636.0 
123.157257 60.0 
123.245628 148.0 
123.421097 124.0 
123.56617 160.0 
123.586136 208.0 
123.739235 140.0 
123.935974 72.0 
123.989159 260.0 
124.004944 260.0 
124.087151 212.0 
124.119667 248.0 
124.317513 136.0 
124.363983 64.0 
124.443901 192.0 
124.672699 52.0 
124.688255 200.0 
124.768272 100.0 
124.854996 120.0 
124.975113 156.0 
125.068588 120.0 
125.095665 1276.0 
125.134926 492.0 
125.164314 176.0 
125.222214 64.0 
125.302406 204.0 
125.44281 148.0 
125.552063 208.0 
125.587746 148.0 
125.643517 64.0 
125.752853 156.0 
125.790802 180.0 
126.092339 176.0 
126.134804 112.0 
126.23114 180.0 
126.268959 156.0 
126.289085 212.0 
126.409897 152.0 
126.550919 140.0 
126.597939 196.0 
126.667374 192.0 
126.779396 92.0 
126.85112 160.0 
126.873535 128.0 
126.889229 252.0 
126.943047 108.0 
126.994629 224.0 
127.026268 76.0 
127.076195 184.0 
127.11335 396.0 
127.236977 48.0 
127.293114 232.0 
127.400925 48.0 
127.537994 120.0 
127.756119 172.0 
127.816864 36.0 
127.859619 96.0 
128.035217 148.0 
128.060257 308.0 
128.152359 164.0 
128.168137 120.0 
128.235733 168.0 
128.685867 208.0 
128.73381 244.0 
128.998672 116.0 
129.055725 332.0 
129.088272 712.0 
129.476089 160.0 
129.65506 204.0 
129.827362 124.0 
129.963547 208.0 
130.033813 164.0 
130.056519 128.0 
130.091797 212.0 
130.147324 132.0 
130.251785 132.0 
130.276779 224.0 
130.317673 200.0 
130.385849 192.0 
130.490402 184.0 
130.705521 152.0 
130.71434 88.0 
130.721375 192.0 
130.808899 76.0 
130.886307 176.0 
130.920471 168.0 
130.9478 104.0 
131.009293 52.0 
131.054871 364.0 
131.08548 1064.0 
131.120941 196.0 
131.431091 52.0 
131.542908 124.0 
131.627319 144.0 
131.686768 204.0 
131.821564 80.0 
131.860413 180.0 
131.917557 208.0 
132.057159 196.0 
132.091339 164.0 
132.10965 172.0 
132.308746 152.0 
132.361404 128.0 
132.395752 376.0 
132.473633 32.0 
132.565796 192.0 
132.595062 192.0 
132.654663 188.0 
132.707397 144.0 
132.737198 64.0 
132.845001 60.0 
132.867935 52.0 
132.980896 160.0 
132.999786 180.0 
133.02948 176.0 
133.062653 180.0 
133.101273 12296.0 
133.14563 192.0 
133.174301 96.0 
133.202774 56.0 
133.249725 136.0 
133.26973 156.0 
133.324982 164.0 
133.360443 156.0 
133.416458 260.0 
133.444412 56.0 
133.467407 68.0 
133.515961 212.0 
133.547897 52.0 
133.574661 232.0 
133.639908 40.0 
133.679031 184.0 
133.699738 48.0 
133.748505 148.0 
133.784897 164.0 
133.800156 64.0 
133.866074 172.0 
134.000198 168.0 
134.10347 1560.0 
134.178986 68.0 
134.261856 220.0 
134.381805 32.0 
134.50032 216.0 
134.571075 172.0 
134.813614 164.0 
134.850586 288.0 
134.89682 180.0 
135.02861 164.0 
135.047119 292.0 
135.08223 560.0 
135.116913 3180.0 
135.149673 180.0 
135.174362 44.0 
135.202133 56.0 
135.302155 240.0 
135.349228 184.0 
135.378067 176.0 
135.554123 192.0 
135.624741 232.0 
135.656097 48.0 
135.68161 44.0 
135.707108 164.0 
135.761719 152.0 
135.800735 100.0 
135.912704 200.0 
136.088867 208.0 
136.120728 1188.0 
136.173538 164.0 
136.196777 184.0 
136.246262 252.0 
136.341461 220.0 
136.398926 148.0 
136.517502 128.0 
136.543076 84.0 
136.682663 128.0 
136.745499 160.0 
136.766449 148.0 
136.840942 184.0 
136.885178 152.0 
136.948059 160.0 
137.014175 168.0 
137.052322 180.0 
137.09584 3512.0 
137.132431 8720.0 
137.174072 152.0 
137.278473 108.0 
137.304657 64.0 
137.379608 148.0 
137.411957 216.0 
137.559769 176.0 
137.609375 184.0 
137.762146 60.0 
137.853256 164.0 
137.92572 56.0 
137.96312 124.0 
138.012207 168.0 
138.065994 184.0 
138.098419 444.0 
138.135193 840.0 
138.178268 60.0 
138.309326 96.0 
138.325714 76.0 
138.477905 72.0 
138.667679 144.0 
138.688782 136.0 
138.723938 80.0 
138.892776 144.0 
138.96785 304.0 
139.005386 184.0 
139.07814 184.0 
139.111465 3168.0 
139.14592 340.0 
139.186127 176.0 
139.204926 220.0 
139.367538 192.0 
139.491562 64.0 
139.894867 232.0 
140.108002 320.0 
140.126968 192.0 
140.185867 136.0 
140.280151 136.0 
140.303726 196.0 
140.468796 196.0 
140.504181 124.0 
140.711868 48.0 
140.870102 148.0 
140.922073 164.0 
141.028931 160.0 
141.09053 5540.0 
141.126816 524.0 
141.175003 188.0 
141.250687 116.0 
141.287033 132.0 
141.342957 168.0 
141.449448 28.0 
141.544159 68.0 
141.783417 64.0 
141.814224 44.0 
141.845032 52.0 
141.975449 64.0 
142.041855 156.0 
142.067947 100.0 
142.095581 532.0 
142.155731 120.0 
142.198456 108.0 
142.231674 200.0 
142.324265 180.0 
142.542801 128.0 
142.668076 96.0 
142.809067 140.0 
142.839996 156.0 
142.897079 156.0 
142.920883 92.0 
142.983185 196.0 
143.08812 288.0 
143.289917 168.0 
143.373322 40.0 
143.430527 188.0 
143.459137 236.0 
143.478195 244.0 
143.542572 32.0 
143.699997 152.0 
143.738174 168.0 
143.779434 180.0 
143.819321 180.0 
143.871841 192.0 
143.941086 156.0 
143.96257 192.0 
144.027054 124.0 
144.058319 180.0 
144.086777 140.0 
144.141724 160.0 
144.179962 68.0 
144.249283 216.0 
144.266022 128.0 
144.328171 120.0 
144.476456 188.0 
144.498001 140.0 
144.543457 124.0 
144.617645 184.0 
144.907394 184.0 
145.066635 432.0 
145.099152 568.0 
145.221436 132.0 
145.302002 212.0 
145.338974 120.0 
145.355774 80.0 
145.382935 188.0 
145.886566 176.0 
145.968323 180.0 
146.072174 292.0 
146.105408 456.0 
146.148727 204.0 
146.254608 128.0 
146.48819 232.0 
146.519501 76.0 
146.664093 36.0 
146.69783 136.0 
146.787048 144.0 
146.844925 76.0 
147.04567 1140.0 
147.080002 2756.0 
147.115753 1984.0 
147.15863 116.0 
147.194839 172.0 
147.218994 172.0 
147.289032 116.0 
147.421921 140.0 
147.443665 48.0 
147.770111 120.0 
147.869324 164.0 
148.051102 176.0 
148.079605 336.0 
148.119644 704.0 
148.331955 52.0 
148.540497 188.0 
148.66423 172.0 
148.688507 176.0 
148.870575 204.0 
148.945862 104.0 
149.061172 616.0 
149.095322 2832.0 
149.131607 2540.0 
149.180298 160.0 
149.213181 172.0 
149.30072 40.0 
149.374405 136.0 
149.466141 192.0 
149.495331 44.0 
149.546448 84.0 
149.585388 132.0 
149.658432 136.0 
149.955627 148.0 
150.058014 164.0 
150.097168 680.0 
150.13649 324.0 
150.338516 96.0 
150.593201 204.0 
150.641281 208.0 
150.768341 116.0 
150.807434 148.0 
150.858765 156.0 
150.891571 280.0 
150.965424 136.0 
151.111313 12980.0 
151.148254 1396.0 
151.179443 164.0 
151.215897 192.0 
151.233017 96.0 
151.262924 96.0 
151.277084 96.0 
151.35405 164.0 
151.4142 92.0 
151.548935 56.0 
151.639603 48.0 
151.75827 128.0 
151.801407 88.0 
151.845551 212.0 
151.862717 152.0 
151.884796 184.0 
151.948578 72.0 
151.978012 72.0 
152.024643 52.0 
152.080139 336.0 
152.112701 2168.0 
152.149719 156.0 
152.201385 36.0 
152.238495 176.0 
152.257858 160.0 
152.362976 196.0 
152.427536 56.0 
152.48143 228.0 
152.518295 168.0 
152.572372 164.0 
152.621552 136.0 
152.675644 196.0 
152.700241 48.0 
152.733063 176.0 
152.793716 36.0 
152.847839 136.0 
153.080338 160.0 
153.125931 1304.0 
153.156509 276.0 
153.217163 68.0 
153.251663 76.0 
153.271378 88.0 
153.310806 104.0 
153.37735 56.0 
153.479156 120.0 
153.564743 112.0 
153.658478 108.0 
153.830551 324.0 
153.97197 132.0 
154.083115 176.0 
154.123901 356.0 
154.144379 196.0 
154.253632 52.0 
154.34758 92.0 
154.49498 108.0 
154.60733 108.0 
154.648621 164.0 
154.792984 88.0 
154.879669 72.0 
154.906921 180.0 
154.951508 36.0 
154.973816 36.0 
155.010742 168.0 
155.048157 176.0 
155.108383 792.0 
155.143112 3340.0 
155.18396 56.0 
155.216721 44.0 
155.278809 104.0 
155.333496 240.0 
155.400269 176.0 
155.463074 44.0 
155.631104 124.0 
155.714218 76.0 
155.847198 84.0 
156.092209 208.0 
156.144867 424.0 
156.233749 192.0 
156.319641 136.0 
156.381851 40.0 
156.504517 116.0 
156.810242 128.0 
156.845139 160.0 
157.075272 144.0 
157.101929 492.0 
157.126816 180.0 
157.156876 232.0 
157.191803 132.0 
157.299118 96.0 
157.316605 136.0 
157.398987 248.0 
157.628128 148.0 
157.693771 52.0 
157.831268 144.0 
157.991333 140.0 
158.069748 312.0 
158.095184 184.0 
158.10524 176.0 
158.109848 276.0 
158.239105 72.0 
158.341766 140.0 
158.574783 204.0 
158.597336 180.0 
158.644958 192.0 
158.885712 76.0 
158.968521 100.0 
159.046707 168.0 
159.081146 1120.0 
159.115555 2824.0 
159.142197 188.0 
159.229599 136.0 
159.343643 80.0 
159.454224 128.0 
159.495926 48.0 
159.543701 192.0 
159.692047 156.0 
159.7323 220.0 
159.754944 176.0 
159.827896 68.0 
160.085388 296.0 
160.119141 156.0 
160.203033 88.0 
160.278625 188.0 
160.376907 92.0 
160.422272 40.0 
160.470184 40.0 
160.49791 132.0 
160.533218 148.0 
160.639145 104.0 
160.687073 152.0 
160.916748 136.0 
160.936951 176.0 
161.06189 444.0 
161.09494 1660.0 
161.131195 3140.0 
161.184494 68.0 
161.227448 64.0 
161.406921 84.0 
161.518204 200.0 
161.538437 152.0 
161.687729 124.0 
161.735809 48.0 
161.809235 64.0 
161.872528 212.0 
162.014359 176.0 
162.034637 168.0 
162.066254 340.0 
162.096939 508.0 
162.136551 460.0 
162.212021 164.0 
162.298218 156.0 
162.374298 80.0 
162.502884 256.0 
162.77272 56.0 
163.038239 620.0 
163.074371 1044.0 
163.111618 1636.0 
163.149216 2972.0 
163.191971 192.0 
163.222488 80.0 
163.303864 132.0 
163.420883 72.0 
163.446335 156.0 
163.479416 44.0 
163.59787 112.0 
163.621948 152.0 
163.672867 116.0 
163.81279 128.0 
163.889374 156.0 
164.042297 372.0 
164.077194 208.0 
164.115387 424.0 
164.152847 768.0 
164.432556 152.0 
164.455521 136.0 
164.601044 112.0 
164.979172 152.0 
164.999619 180.0 
165.05481 3196.0 
165.093872 200.0 
165.127777 2556.0 
165.163681 328.0 
165.283524 104.0 
165.304001 76.0 
165.419174 88.0 
165.462692 128.0 
165.524139 52.0 
165.5728 48.0 
165.644516 132.0 
165.944351 96.0 
166.028976 148.0 
166.059265 384.0 
166.129486 152.0 
166.169037 176.0 
166.200851 156.0 
166.408752 136.0 
166.532013 84.0 
166.549988 208.0 
166.60907 196.0 
166.729843 200.0 
166.773529 156.0 
167.070557 236.0 
167.080399 120.0 
167.101456 332.0 
167.143066 1296.0 
167.215912 116.0 
167.259674 80.0 
167.336899 160.0 
167.397705 176.0 
167.524048 240.0 
167.597046 136.0 
167.896072 224.0 
168.02504 120.0 
168.089539 120.0 
168.146225 112.0 
168.25473 176.0 
168.368347 40.0 
168.525909 184.0 
168.687439 40.0 
168.88266 140.0 
169.0793 168.0 
169.125397 396.0 
169.158478 192.0 
169.34079 184.0 
169.67247 92.0 
169.983719 48.0 
170.053787 132.0 
170.126465 52.0 
170.391357 160.0 
170.451126 128.0 
170.919174 120.0 
171.081161 444.0 
171.116119 480.0 
171.291473 112.0 
171.380051 128.0 
171.666779 172.0 
171.690247 188.0 
171.872849 272.0 
172.016388 120.0 
172.040405 240.0 
172.091873 496.0 
172.124954 200.0 
172.405563 132.0 
172.549316 68.0 
172.572845 252.0 
172.598999 192.0 
172.653915 88.0 
172.740234 152.0 
172.931244 144.0 
173.059341 228.0 
173.095108 2276.0 
173.131271 1748.0 
173.203552 40.0 
173.418396 76.0 
173.478699 40.0 
173.49704 160.0 
173.746185 88.0 
174.006012 88.0 
174.065643 272.0 
174.100372 396.0 
174.137451 296.0 
174.223984 48.0 
174.326462 84.0 
174.349884 236.0 
174.426331 72.0 
174.449982 132.0 
174.511749 204.0 
174.634048 184.0 
174.665619 108.0 
174.759537 188.0 
174.855057 68.0 
174.889267 148.0 
175.025345 140.0 
175.072708 136.0 
175.077515 168.0 
175.110672 1032.0 
175.148529 2832.0 
175.205261 56.0 
175.279037 140.0 
175.305389 172.0 
175.360733 112.0 
175.38446 88.0 
175.406693 228.0 
175.489899 180.0 
175.513641 212.0 
175.864502 128.0 
176.014984 184.0 
176.075714 276.0 
176.113953 460.0 
176.156738 396.0 
176.289703 132.0 
176.411285 184.0 
176.654572 44.0 
176.69426 200.0 
176.834503 152.0 
177.027771 204.0 
177.053055 484.0 
177.096619 144.0 
177.12529 1112.0 
177.164368 6496.0 
177.282074 40.0 
177.374847 104.0 
177.398697 92.0 
177.6241 184.0 
177.86026 36.0 
177.900085 52.0 
178.056732 244.0 
178.082474 208.0 
178.126434 116.0 
178.166275 924.0 
178.271347 184.0 
178.399506 128.0 
178.423431 96.0 
178.567017 96.0 
178.609573 176.0 
178.641495 88.0 
178.766556 132.0 
178.830414 276.0 
178.85704 164.0 
178.888977 104.0 
179.071335 604.0 
179.143188 8964.0 
179.3125 160.0 
179.360474 156.0 
179.404266 100.0 
179.429779 104.0 
179.493774 60.0 
179.56044 104.0 
179.595108 224.0 
179.67247 68.0 
179.715164 248.0 
179.901978 84.0 
179.995422 68.0 
180.035477 52.0 
180.080795 228.0 
180.147369 1000.0 
180.190399 176.0 
180.251862 44.0 
180.422913 44.0 
180.521851 60.0 
180.545914 92.0 
180.586029 140.0 
180.703735 140.0 
180.901779 156.0 
181.011551 64.0 
181.030289 120.0 
181.066498 224.0 
181.101456 300.0 
181.119934 284.0 
181.15744 1652.0 
181.25531 40.0 
181.295502 88.0 
181.365189 128.0 
181.383957 128.0 
181.480469 56.0 
181.507278 40.0 
181.880188 144.0 
182.078873 156.0 
182.154648 112.0 
182.191681 72.0 
182.317978 152.0 
182.428177 96.0 
182.460434 140.0 
182.570679 80.0 
182.901611 180.0 
183.047638 180.0 
183.0793 124.0 
183.136551 1288.0 
183.243607 84.0 
183.356796 64.0 
183.397217 80.0 
183.478088 116.0 
183.769363 124.0 
183.909698 224.0 
184.085831 152.0 
184.132156 160.0 
184.498566 148.0 
184.54454 124.0 
185.094818 304.0 
185.131546 276.0 
185.152771 316.0 
185.341843 128.0 
185.820206 168.0 
186.067459 160.0 
186.092789 176.0 
186.141754 148.0 
186.200241 140.0 
186.23555 164.0 
186.357788 264.0 
186.426636 48.0 
186.490952 148.0 
186.556183 52.0 
186.651352 72.0 
186.762848 68.0 
186.887985 120.0 
187.074127 1984.0 
187.110504 3100.0 
187.149933 284.0 
187.217361 256.0 
187.269104 52.0 
187.307236 100.0 
187.467987 80.0 
187.588715 176.0 
187.647888 192.0 
187.691513 192.0 
187.710602 240.0 
187.746048 220.0 
187.808777 52.0 
187.876968 68.0 
188.083023 352.0 
188.114731 564.0 
188.226334 144.0 
188.283676 36.0 
188.310989 144.0 
188.611542 60.0 
188.655289 176.0 
188.712692 132.0 
188.923279 188.0 
188.947906 184.0 
189.057358 344.0 
189.092072 568.0 
189.125259 308.0 
189.162155 540.0 
189.464325 228.0 
189.613297 88.0 
189.654404 52.0 
189.791489 148.0 
189.816162 92.0 
189.969757 108.0 
190.083481 212.0 
190.135056 164.0 
190.171356 272.0 
190.213974 92.0 
190.241425 132.0 
190.266129 148.0 
190.332031 80.0 
190.391357 152.0 
190.529785 100.0 
190.634186 116.0 
190.719391 136.0 
190.782608 112.0 
190.815598 140.0 
191.070694 480.0 
191.104599 2316.0 
191.143387 784.0 
191.177628 2784.0 
191.236481 48.0 
191.319061 48.0 
191.459488 68.0 
191.560379 76.0 
191.842484 140.0 
191.966553 36.0 
192.049286 60.0 
192.074692 144.0 
192.110901 524.0 
192.143082 108.0 
192.179016 464.0 
192.203171 240.0 
192.466003 144.0 
192.664871 44.0 
192.8526 196.0 
193.103851 568.0 
193.158356 1328.0 
193.191376 168.0 
193.298019 148.0 
193.472397 212.0 
193.649612 64.0 
193.716095 128.0 
193.756058 112.0 
194.070831 128.0 
194.101334 200.0 
194.160904 160.0 
194.273285 144.0 
194.309357 164.0 
194.350967 84.0 
194.4814 256.0 
194.539703 172.0 
194.670197 252.0 
194.80629 200.0 
195.048035 116.0 
195.103638 140.0 
195.135315 340.0 
195.174301 7640.0 
195.212082 208.0 
195.264908 64.0 
195.288025 72.0 
195.537567 204.0 
195.576538 48.0 
195.621063 56.0 
195.70459 76.0 
195.763062 136.0 
195.932968 204.0 
195.999847 76.0 
196.088318 268.0 
196.128036 160.0 
196.179352 1268.0 
196.398499 96.0 
196.702652 120.0 
196.761276 104.0 
196.878555 116.0 
196.962341 148.0 
197.093643 104.0 
197.153503 1404.0 
197.24176 112.0 
197.317245 40.0 
197.434677 168.0 
198.103989 316.0 
198.154938 376.0 
198.210098 40.0 
198.285767 116.0 
198.308182 36.0 
198.551147 140.0 
198.768112 92.0 
199.026352 120.0 
199.0755 836.0 
199.098328 228.0 
199.149353 192.0 
199.164383 208.0 
199.484299 116.0 
199.672684 76.0 
200.084015 132.0 
200.122925 72.0 
200.1539 156.0 
200.401764 44.0 
200.603455 176.0 
200.858459 108.0 
200.878204 172.0 
200.912064 188.0 
201.010818 152.0 
201.090698 3640.0 
201.126129 1868.0 
201.162109 4692.0 
201.209656 124.0 
201.372162 120.0 
201.451843 76.0 
201.487976 140.0 
201.544495 84.0 
201.670135 96.0 
201.903488 48.0 
202.09584 488.0 
202.130692 300.0 
202.166229 1144.0 
202.446854 104.0 
202.543152 96.0 
202.869019 132.0 
202.945572 36.0 
203.072144 464.0 
203.100998 360.0 
203.142029 812.0 
203.173798 536.0 
203.743088 104.0 
203.787018 108.0 
204.069931 100.0 
204.145996 112.0 
204.187927 164.0 
204.397034 156.0 
204.485245 60.0 
204.513718 144.0 
204.673141 144.0 
204.989319 128.0 
205.086624 884.0 
205.154816 380.0 
205.192184 720.0 
205.348526 56.0 
205.913635 160.0 
206.087585 116.0 
206.159729 256.0 
206.200729 148.0 
206.768463 128.0 
206.817123 132.0 
206.968857 64.0 
207.074997 180.0 
207.138992 252.0 
207.162262 316.0 
207.212219 408.0 
207.550522 44.0 
207.665222 56.0 
207.69104 104.0 
208.173584 180.0 
208.290955 48.0 
208.722046 128.0 
208.793945 124.0 
209.09697 168.0 
209.147827 168.0 
209.189041 532.0 
209.732544 236.0 
209.827682 204.0 
209.908417 124.0 
210.018005 176.0 
210.09877 144.0 
210.193985 80.0 
210.388687 152.0 
210.947784 176.0 
211.111237 2112.0 
211.172318 240.0 
211.270569 104.0 
211.306396 236.0 
211.6595 44.0 
211.847763 184.0 
212.111938 476.0 
212.156937 140.0 
212.572601 188.0 
212.886124 44.0 
213.092346 156.0 
213.127274 728.0 
213.163895 264.0 
213.351013 72.0 
213.420792 172.0 
213.608994 120.0 
213.656372 148.0 
213.851334 116.0 
214.086258 208.0 
214.124847 296.0 
214.162872 148.0 
214.611664 52.0 
214.772049 64.0 
215.103851 252.0 
215.127014 208.0 
215.179047 1496.0 
215.531097 172.0 
215.598297 56.0 
216.107101 96.0 
216.143799 148.0 
216.180908 320.0 
216.508133 148.0 
216.537415 164.0 
217.082031 244.0 
217.155502 464.0 
217.159836 220.0 
217.458038 72.0 
217.619492 48.0 
217.71933 116.0 
217.94339 160.0 
218.115967 180.0 
218.158356 192.0 
218.218857 172.0 
218.474731 144.0 
218.795059 160.0 
218.901505 56.0 
219.100739 2316.0 
219.173508 13324.0 
219.214478 180.0 
219.271591 188.0 
219.292099 56.0 
219.388031 100.0 
219.47905 68.0 
219.51149 76.0 
219.684402 216.0 
219.716125 84.0 
219.750397 148.0 
219.79686 172.0 
219.956985 180.0 
220.036682 56.0 
220.10437 364.0 
220.176147 2832.0 
220.241791 132.0 
220.443481 116.0 
220.488632 40.0 
220.509308 52.0 
220.566025 156.0 
220.629745 108.0 
220.796097 32.0 
221.041626 160.0 
221.108231 308.0 
221.15184 788.0 
221.181671 488.0 
221.223053 264.0 
221.497559 52.0 
221.551666 132.0 
221.675323 64.0 
221.75238 164.0 
221.779053 56.0 
221.832413 72.0 
221.873001 104.0 
222.001404 132.0 
222.095764 196.0 
222.152802 180.0 
222.187393 132.0 
222.223877 180.0 
222.289154 44.0 
222.312897 164.0 
222.3396 136.0 
222.663208 132.0 
222.725586 112.0 
222.817673 144.0 
222.841431 220.0 
222.91275 72.0 
223.015076 140.0 
223.100006 40.0 
223.165131 344.0 
223.254608 180.0 
223.317062 60.0 
223.340866 144.0 
223.483658 128.0 
223.992737 88.0 
224.085526 180.0 
224.108917 120.0 
224.138718 128.0 
224.165543 188.0 
225.082886 256.0 
225.124405 216.0 
225.187057 576.0 
225.216309 116.0 
225.397934 44.0 
225.42482 168.0 
225.457703 40.0 
225.592194 108.0 
226.004929 80.0 
226.085724 160.0 
226.185776 148.0 
226.295258 44.0 
226.343155 40.0 
227.035385 56.0 
227.100189 132.0 
227.136627 148.0 
227.189529 168.0 
227.317368 156.0 
228.080215 172.0 
228.119293 156.0 
228.766052 140.0 
228.901535 80.0 
228.964783 280.0 
228.985855 72.0 
229.037064 136.0 
229.121735 6260.0 
229.169769 324.0 
229.183182 144.0 
229.196487 312.0 
229.446899 28.0 
229.513229 172.0 
229.627823 100.0 
229.653839 128.0 
230.020065 156.0 
230.071381 48.0 
230.124664 1800.0 
230.201218 160.0 
230.222351 100.0 
230.264633 128.0 
230.355255 144.0 
230.485168 60.0 
230.524445 180.0 
230.636261 92.0 
230.748123 52.0 
230.8479 76.0 
230.94165 128.0 
231.01123 92.0 
231.105347 148.0 
231.135498 576.0 
231.181503 288.0 
231.205734 232.0 
231.392548 36.0 
231.440979 192.0 
231.61058 112.0 
231.646927 104.0 
231.692368 176.0 
231.848495 116.0 
232.037857 104.0 
232.134918 436.0 
232.156113 172.0 
232.201614 112.0 
232.226501 172.0 
232.857162 156.0 
233.006012 144.0 
233.084824 132.0 
233.11235 160.0 
233.18895 1128.0 
233.270401 40.0 
233.422424 40.0 
233.973129 72.0 
234.187531 260.0 
235.009369 224.0 
235.039886 84.0 
235.107025 140.0 
235.166611 344.0 
235.202957 120.0 
235.250473 204.0 
235.485596 196.0 
235.506973 112.0 
235.568069 192.0 
235.601974 40.0 
235.8125 76.0 
235.876694 176.0 
236.10907 176.0 
236.177567 176.0 
236.20694 244.0 
236.332367 64.0 
236.666 104.0 
236.708862 184.0 
236.85965 120.0 
236.937012 132.0 
236.97229 156.0 
237.029556 104.0 
237.070343 224.0 
237.123657 80.0 
237.185013 28364.0 
237.297165 28.0 
237.325638 44.0 
237.379486 80.0 
237.466995 116.0 
237.494034 140.0 
237.543381 56.0 
237.576385 88.0 
237.590179 52.0 
237.621552 68.0 
237.692841 92.0 
237.72966 116.0 
237.79718 92.0 
237.817963 52.0 
237.916885 80.0 
237.938385 68.0 
238.01207 68.0 
238.116486 120.0 
238.187454 4736.0 
238.2332 80.0 
238.334595 32.0 
238.37146 192.0 
238.472885 64.0 
238.503784 148.0 
238.524216 80.0 
238.556305 56.0 
238.638885 124.0 
238.671158 76.0 
239.105087 404.0 
239.144913 116.0 
239.197235 476.0 
239.291138 116.0 
239.398911 84.0 
239.446548 128.0 
239.506699 80.0 
239.70079 88.0 
239.765518 136.0 
239.814819 104.0 
239.931961 128.0 
240.070709 112.0 
240.106522 240.0 
240.199249 136.0 
240.66626 104.0 
240.768158 64.0 
240.792862 104.0 
241.117859 124.0 
241.137115 236.0 
241.175995 132.0 
241.37384 88.0 
241.493393 104.0 
242.123505 672.0 
242.182007 172.0 
242.51413 244.0 
243.207535 504.0 
244.090195 112.0 
244.211487 128.0 
245.161041 156.0 
245.192215 124.0 
245.226517 1412.0 
245.379242 80.0 
245.441589 28.0 
245.634949 52.0 
246.074982 156.0 
246.09996 192.0 
246.22995 388.0 
246.300537 88.0 
246.718567 108.0 
246.846756 60.0 
247.133072 1328.0 
247.165054 180.0 
247.201447 184.0 
247.230957 196.0 
247.481949 64.0 
247.60408 60.0 
247.86409 32.0 
248.055267 68.0 
248.130585 320.0 
248.208893 256.0 
248.456665 76.0 
249.151489 112.0 
249.181747 176.0 
249.342148 96.0 
249.518173 148.0 
250.087555 108.0 
250.19458 148.0 
250.455948 96.0 
251.105225 80.0 
251.143082 184.0 
251.200516 1884.0 
251.354446 44.0 
251.474365 64.0 
251.647995 52.0 
251.689041 140.0 
251.783768 104.0 
251.888 68.0 
252.11232 148.0 
252.202286 1336.0 
252.314621 188.0 
252.491699 44.0 
252.58342 64.0 
253.080276 120.0 
253.14624 192.0 
253.168442 152.0 
253.195862 128.0 
253.21962 104.0 
253.552277 100.0 
253.862946 52.0 
254.171112 192.0 
254.215073 120.0 
255.037643 72.0 
255.136536 180.0 
255.194229 2168.0 
255.311066 36.0 
255.390579 28.0 
256.065338 152.0 
256.198059 420.0 
256.340271 168.0 
257.11618 2408.0 
257.192932 296.0 
257.225952 128.0 
257.308929 60.0 
257.871155 32.0 
258.066132 56.0 
258.115204 816.0 
258.171661 56.0 
258.194061 152.0 
258.894897 140.0 
259.110809 140.0 
259.132233 336.0 
259.17218 264.0 
259.212036 148.0 
259.237366 160.0 
259.683319 72.0 
260.135742 116.0 
260.167847 100.0 
260.241669 128.0 
260.495392 76.0 
260.639984 44.0 
261.121338 124.0 
261.173645 308.0 
261.223206 632.0 
261.485718 88.0 
261.740051 92.0 
262.091156 40.0 
262.133026 192.0 
262.197601 108.0 
262.223267 144.0 
263.071594 220.0 
263.149353 132.0 
263.236908 1572.0 
263.349274 116.0 
263.40744 160.0 
263.659454 32.0 
263.779022 68.0 
263.808136 64.0 
264.128265 116.0 
264.170319 56.0 
264.23938 436.0 
264.435638 88.0 
264.717285 100.0 
264.814453 36.0 
265.148163 212.0 
265.241241 288.0 
266.046631 120.0 
266.136353 216.0 
267.14505 292.0 
267.176331 188.0 
267.23288 116.0 
268.092529 100.0 
268.157715 100.0 
268.314178 100.0 
268.930695 148.0 
269.120026 140.0 
269.737488 60.0 
270.391663 104.0 
271.135071 52.0 
271.174591 144.0 
271.212006 412.0 
271.253082 124.0 
272.174957 100.0 
272.21109 216.0 
273.154327 96.0 
273.220306 164.0 
274.184906 56.0 
274.669586 64.0 
274.765259 60.0 
274.834534 100.0 
275.082062 132.0 
275.128448 3964.0 
275.194305 60.0 
275.237244 184.0 
275.3396 72.0 
275.825287 60.0 
275.855042 60.0 
275.921173 28.0 
276.129395 744.0 
277.122559 292.0 
277.165283 152.0 
277.218658 160.0 
277.253937 180.0 
277.76239 68.0 
278.032684 128.0 
278.084259 100.0 
278.16391 196.0 
278.266815 104.0 
278.695282 48.0 
279.13736 144.0 
279.193909 192.0 
279.228363 924.0 
279.255188 168.0 
280.14917 100.0 
280.235626 260.0 
280.892548 152.0 
280.962585 88.0 
281.148132 552.0 
281.202637 136.0 
281.246033 4172.0 
281.717072 136.0 
281.757141 56.0 
282.152832 240.0 
282.250092 800.0 
282.710083 104.0 
283.17514 212.0 
283.232361 264.0 
283.257843 184.0 
283.316132 176.0 
283.409943 52.0 
284.090515 112.0 
284.161774 268.0 
284.18222 96.0 
284.243622 244.0 
285.077667 120.0 
285.144867 108.0 
285.168396 60.0 
285.245697 136.0 
285.689575 124.0 
285.743408 48.0 
285.98233 132.0 
286.130463 180.0 
287.772369 188.0 
287.823029 60.0 
288.137115 144.0 
289.120239 144.0 
289.14563 144.0 
289.215729 660.0 
289.778015 44.0 
289.889832 84.0 
290.228638 356.0 
290.333923 80.0 
290.798706 132.0 
291.124634 140.0 
291.229919 144.0 
292.379089 36.0 
292.899994 136.0 
293.136658 332.0 
293.203247 140.0 
293.229523 164.0 
294.136841 144.0 
294.240204 140.0 
295.163574 572.0 
295.330292 140.0 
296.114075 40.0 
296.799438 164.0 
297.001801 36.0 
297.147308 228.0 
297.187042 148.0 
297.780914 92.0 
297.846161 116.0 
298.176025 124.0 
299.163483 328.0 
299.218292 152.0 
299.240662 128.0 
299.628113 56.0 
299.74527 36.0 
299.934814 52.0 
300.16925 124.0 
300.241669 136.0 
301.175323 448.0 
301.250092 860.0 
301.512115 40.0 
301.756348 80.0 
302.124146 192.0 
302.179077 136.0 
302.188538 228.0 
302.258881 148.0 
302.373291 44.0 
302.584442 96.0 
303.176758 156.0 
305.61441 104.0 
306.15744 88.0 
307.007751 132.0 
307.169495 108.0 
307.215454 268.0 
307.531097 68.0 
307.995483 156.0 
308.229553 172.0 
309.292725 96.0 
310.652313 76.0 
311.163727 200.0 
311.231384 216.0 
312.862732 52.0 
313.133881 92.0 
313.181458 160.0 
314.011475 92.0 
315.150146 148.0 
315.179932 132.0 
315.215271 108.0 
317.178894 116.0 
317.246429 372.0 
317.704315 36.0 
317.746887 124.0 
318.119537 128.0 
318.179962 196.0 
318.984253 204.0 
319.192963 248.0 
319.262146 2520.0 
319.327637 172.0 
319.914734 128.0 
319.951965 52.0 
320.262268 708.0 
321.183319 112.0 
321.215424 140.0 
321.25824 148.0 
321.991821 92.0 
322.201874 104.0 
322.23642 92.0 
322.597382 100.0 
324.756561 128.0 
325.203064 172.0 
325.233765 184.0 
326.227814 160.0 
326.271942 108.0 
328.136841 100.0 
329.168304 340.0 
329.255585 136.0 
329.548035 44.0 
329.945587 84.0 
330.133606 60.0 
330.167053 248.0 
330.271057 40.0 
330.379578 96.0 
332.190765 124.0 
332.278595 132.0 
333.22113 96.0 
335.201996 580.0 
335.901276 28.0 
336.178558 216.0 
336.202301 124.0 
336.357391 52.0 
337.022064 88.0 
337.20874 140.0 
337.27478 1540.0 
337.570343 96.0 
337.716644 60.0 
338.159363 40.0 
338.274078 320.0 
339.196106 188.0 
339.260345 168.0 
340.615997 152.0 
342.69455 108.0 
347.240356 156.0 
348.250916 56.0 
348.793427 60.0 
351.198029 196.0 
353.211426 464.0 
353.919373 100.0 
354.225037 196.0 
354.833588 56.0 
355.178589 108.0 
355.219849 160.0 
357.198944 140.0 
358.144257 136.0 
358.181915 88.0 
359.520386 96.0 
361.27356 156.0 
361.99649 124.0 
363.197876 124.0 
363.247192 112.0 
365.210999 152.0 
367.238586 188.0 
370.126404 132.0 
370.681854 104.0 
370.942444 112.0 
371.222809 328.0 
371.897552 100.0 
372.095215 140.0 
372.227722 164.0 
375.28772 272.0 
376.231964 180.0 
376.27829 128.0 
377.264465 132.0 
377.294342 228.0 
378.184052 152.0 
378.369873 68.0 
379.698944 108.0 
380.207153 136.0 
380.261505 124.0 
380.917694 48.0 
382.216217 144.0 
382.648254 28.0 
385.863068 56.0 
386.203278 148.0 
386.950714 72.0 
387.961456 76.0 
388.000671 128.0 
388.675293 44.0 
389.256226 160.0 
391.277222 180.0 
393.228424 164.0 
393.25824 144.0 
394.23822 140.0 
395.263641 156.0 
396.263672 116.0 
396.538818 48.0 
396.665649 124.0 
397.240631 156.0 
397.274414 132.0 
398.276672 204.0 
399.76358 64.0 
400.360718 96.0 
402.438232 56.0 
406.3927 108.0 
407.25177 104.0 
409.177979 48.0 
411.249969 216.0 
414.720306 132.0 
419.255981 172.0 
419.998016 40.0 
420.8591 76.0 
421.132721 44.0 
421.275696 96.0 
421.398254 92.0 
423.255188 132.0 
424.251495 320.0 
425.937347 40.0 
428.306641 124.0 
429.258667 112.0 
429.291656 112.0 
430.257141 104.0 
431.273346 176.0 
434.130005 60.0 
434.273193 152.0 
434.623657 100.0 
438.370209 84.0 
438.482727 84.0 
438.920441 152.0 
439.266602 44.0 
440.890778 40.0 
441.271149 92.0 
444.257202 88.0 
445.247772 88.0 
446.025055 88.0 
448.500061 92.0 
448.896362 52.0 
449.313934 184.0 
450.213013 96.0 
451.227112 140.0 
451.269379 92.0 
451.301636 216.0 
452.28891 100.0 
452.411682 52.0 
452.517517 92.0 
453.271454 104.0 
454.28476 108.0 
459.270111 120.0 
461.858551 96.0 
463.108368 28.0 
463.332672 132.0 
463.991119 96.0 
465.286743 116.0 
465.462799 64.0 
469.270721 124.0 
470.284485 48.0 
471.424652 76.0 
479.087128 148.0 
481.04953 32.0 
483.313385 180.0 
491.33609 188.0 
491.486206 96.0 
491.600922 48.0 
495.292603 96.0 
495.336914 172.0 
500.484161 96.0 
501.334991 136.0 
502.333038 176.0 
509.370605 184.0 
510.350311 80.0 
510.43573 88.0 
511.33548 160.0 
518.104126 112.0 
519.337891 604.0 
520.355286 204.0 
521.352905 108.0 
523.399963 100.0 
526.710938 188.0 
537.368042 160.0 
537.689087 76.0 
538.360718 108.0 
539.343018 124.0 
539.384216 100.0 
545.358948 168.0 
547.373352 108.0 
548.901733 60.0 
552.661865 52.0 
553.729187 92.0 
554.066467 52.0 
554.774109 100.0 
555.367188 360.0 
555.67926 92.0 
564.397522 28.0 
570.936768 124.0 
589.419373 476.0 
590.434021 264.0 
590.471863 152.0 
590.886963 124.0 
591.317627 64.0 
591.362549 116.0 
591.409607 60.0 
591.51123 76.0 
592.382874 160.0 
593.395752 212.0 
595.387878 136.0 
597.703979 72.0 
598.171204 80.0 
625.890808 40.0 
632.255493 68.0 
645.597229 112.0 
654.075256 108.0 
654.171997 52.0 
659.712036 72.0 
680.697754 96.0 
693.458435 68.0 
696.31781 60.0 
709.048523 64.0 
710.554443 48.0 
710.761414 148.0 
722.943054 100.0 
733.297485 136.0 
738.540161 132.0 
744.529053 88.0 
747.801941 216.0 
749.048828 132.0 
760.487732 144.0 
774.454041 192.0 
774.503906 144.0 
775.12439 160.0 
781.732483 88.0 
791.193237 124.0 
791.322021 68.0 
799.348572 120.0 
807.404358 60.0 
809.515198 152.0 
822.620605 172.0 
825.889099 60.0 
830.218872 212.0 
835.532043 176.0 
838.336121 132.0 
844.901184 128.0 
845.074768 60.0 
846.898254 144.0 
850.121765 164.0 
854.101501 60.0 
863.737671 228.0 
864.322754 144.0 
865.628052 76.0 
867.356384 180.0 
868.763733 148.0 
872.057922 128.0 
872.193115 244.0 
875.529114 92.0 
876.112244 136.0 
878.786743 112.0 
882.379761 232.0 
883.042053 188.0 
889.031677 132.0 
889.488647 196.0 
889.708313 56.0 
896.268494 68.0 
896.924072 168.0 
898.504395 180.0 
905.534058 168.0 
909.125122 156.0 
914.588318 196.0 
914.829102 168.0 
921.305908 152.0 
922.556885 196.0 
924.056702 32.0 
926.708618 128.0 
931.865784 128.0 
934.77832 208.0 
936.23938 128.0 
938.683044 200.0 
940.617065 144.0 
941.013855 76.0 
942.314758 52.0 
949.53186 164.0 
954.106445 152.0 
954.346252 204.0 
956.684082 56.0 
959.616638 112.0 
961.979492 184.0 
962.393127 148.0 
966.447815 188.0 
967.642334 120.0 
968.639404 112.0 
969.153625 136.0 
973.501953 212.0 
977.374573 52.0 
978.277039 200.0 
981.117737 132.0 
983.007629 196.0 
983.769104 92.0 
983.95636 196.0 
984.237366 180.0 
985.436584 136.0 
999.286499 212.0 
1005.651184 168.0 
1008.53772 172.0 
1009.625183 128.0 
1010.643616 200.0 
1011.187805 48.0 
1011.643555 172.0 
1013.56897 156.0 
1015.140991 144.0 
1016.155884 44.0 
1021.664062 140.0 
1021.918518 96.0 
1022.153931 60.0 
1023.764465 140.0 
1023.949158 224.0 
1025.076782 140.0 
1025.790649 220.0 
1028.322876 152.0 
1035.694946 204.0 
1036.098511 144.0 
1041.615479 40.0 
1041.6604 56.0 
1044.810425 144.0 
1046.026611 252.0 
1047.385376 140.0 
1048.293701 128.0 
1049.105835 168.0 
1049.221924 52.0 
1054.366455 216.0 
1054.728394 64.0 
1060.897339 96.0 
1062.071045 196.0 
1063.531006 164.0 
1063.582886 172.0 
1068.183472 148.0 
1072.259399 204.0 
1073.289429 112.0 
1073.908936 256.0 
1080.27771 72.0 
1084.809204 204.0 
1085.930542 188.0 
1086.80957 100.0 
1089.291138 96.0 
1090.105835 148.0 
1090.730225 84.0 
1092.4729 164.0 
1092.768921 156.0 
1093.236084 128.0 
1094.309082 112.0 
1095.540527 208.0 
1099.58252 184.0 
1104.862183 188.0 
1106.304932 244.0 
1106.596191 44.0 
1106.642578 136.0 
1107.576294 232.0 
1107.828003 108.0 
1108.828491 92.0 
1109.199707 104.0 
1109.604126 64.0 
1110.353394 196.0 
1111.653687 68.0 
1113.300049 152.0 
1114.575439 128.0 
1115.977905 172.0 
1116.197266 180.0 
1116.336914 192.0 
1118.419312 156.0 
1119.258179 196.0 
1123.463745 176.0 
1124.705078 176.0 
1125.352417 204.0 
1126.213989 44.0 
1127.236084 144.0 
1128.305542 76.0 
1128.666626 92.0 
1130.412476 84.0 
1134.089233 76.0 
1135.570923 68.0 
1135.738647 116.0 
1137.845825 220.0 
1140.768066 148.0 
1141.09082 228.0 
1141.272339 200.0 
1142.456055 140.0 
1143.424927 144.0 
1144.643433 136.0 
1144.79834 204.0 
1151.609985 188.0 
1152.231445 164.0 
1155.178955 88.0 
1156.952026 32.0 
1157.175415 64.0 
1157.750977 40.0 
1158.231812 88.0 
1160.971924 176.0 
1166.347168 104.0 
1167.326172 156.0 
1168.291992 200.0 
1168.747925 164.0 
1171.164673 144.0 
1171.723267 212.0 
1172.793091 140.0 
1173.549805 64.0 
1174.463623 188.0 
1175.145874 184.0 
1175.978394 176.0 
1177.371094 180.0 
1179.243164 108.0 
1182.519165 172.0 
1182.86145 184.0 
1183.012085 160.0 
1184.087036 204.0 
1184.874756 216.0 
1184.950195 156.0 
1186.403076 180.0 
1187.075073 140.0 
1187.136719 116.0 
1188.323364 160.0 
1188.488037 164.0 
1188.687012 196.0 
1188.906616 204.0 
1189.668579 156.0 
1189.737183 192.0 
1193.254761 152.0 
1193.406006 152.0 
1193.907959 156.0 
1194.657715 80.0 
1194.758179 236.0 
1195.799927 120.0 
1197.080444 156.0 
1197.900024 140.0 
1198.065308 248.0 
1199.533203 96.0 
1199.657227 68.0 
1201.022583 188.0 
1201.13501 188.0 
1201.312256 124.0 
1202.664795 156.0 
1205.143921 156.0 
1205.648438 88.0 
1207.611938 116.0 
1210.234619 108.0 
1214.600708 84.0 
1215.391602 132.0 
1216.800537 68.0 
1217.501831 116.0 
1218.432617 300.0 
1219.162231 156.0 
1219.433228 172.0 
1219.905884 204.0 
1221.213135 84.0 
1221.894897 216.0 
1222.221924 132.0 
1222.729858 168.0 
1225.745239 136.0 
1226.037964 100.0 
1228.122559 136.0 
1228.65979 56.0 
1229.378418 172.0 
1230.348633 88.0 
1231.870972 96.0 
1232.325073 124.0 
1232.849243 132.0 
1233.149658 44.0 
1234.484985 208.0 
1235.681152 60.0 
1241.193359 156.0 
1242.687378 232.0 
1243.255737 160.0 
1243.859375 56.0 
1245.53064 164.0 
1247.364624 188.0 
1248.327759 208.0 
1251.437988 112.0 
1252.057617 184.0 
1254.883301 172.0 
1255.482666 204.0 
1255.75061 152.0 
1256.34314 184.0 
1257.789795 112.0 
1258.841797 140.0 
1259.823486 128.0 
1260.954102 200.0 
1261.639771 136.0 
1262.5802 156.0 
1262.672119 172.0 
1264.872559 172.0 
1265.00708 208.0 
1265.219482 204.0 
1267.152832 52.0 
1267.776489 52.0 
1267.925293 52.0 
1268.400146 220.0 
1268.598633 196.0 
1269.031128 124.0 
1269.222534 144.0 
1269.39978 180.0 
1272.216553 132.0 
1272.521851 184.0 
1274.77356 160.0 
1275.278076 108.0 
1276.102783 156.0 
1276.90625 208.0 
1277.710083 168.0 
1278.435791 108.0 
1279.282837 148.0 
1279.895142 248.0 
1280.464844 192.0 
1280.87085 224.0 
1281.205688 160.0 
1281.269775 136.0 
1281.533325 284.0 
1281.682983 28.0 
1281.868286 144.0 
1282.652222 52.0 
1283.735962 148.0 
1284.53479 192.0 
1285.456665 216.0 
1286.133179 128.0 
1286.325806 184.0 
1290.047607 128.0 
1293.109009 144.0 
1295.070801 140.0 
1296.123901 176.0 
1296.274414 148.0 
1297.894409 100.0 
1298.045044 204.0 
1300.139771 36.0 
1303.170044 172.0 
1304.11853 144.0 
1304.628906 120.0 
1307.398193 160.0 
1308.621826 180.0 
1309.190674 160.0 
1311.633179 128.0 
1312.815552 168.0 
1313.21228 168.0 
1313.30603 192.0 
1313.825317 152.0 
1314.445923 148.0 
1315.564575 140.0 
1316.171021 80.0 
1316.380493 140.0 
1319.595825 248.0 
1319.754883 84.0 
1320.196045 204.0 
1321.346069 52.0 
1322.091431 204.0 
1323.068604 164.0 
1324.37207 184.0 
1325.045776 140.0 
1325.38623 172.0 
1325.480469 220.0 
1326.10376 36.0 
1326.368164 160.0 
1326.582153 140.0 
1326.792358 212.0 
1331.559692 108.0 
1331.661377 112.0 
1331.719482 228.0 
1332.03186 124.0 
1332.35144 180.0 
1333.615845 260.0 
1334.161011 164.0 
1334.771729 48.0 
1335.38269 128.0 
1335.520874 140.0 
1336.059082 64.0 
1336.401367 112.0 
1336.961426 168.0 
1337.398071 188.0 
1338.067749 124.0 
1338.380859 180.0 
1338.584717 196.0 
1340.325684 136.0 
1340.42041 144.0 
1341.557373 136.0 
1343.547119 188.0 
1346.285522 208.0 
1347.351929 224.0 
1347.54187 180.0 
1348.162964 256.0 
1349.025391 68.0 
1350.275757 232.0 
1350.692749 80.0 
1350.751221 160.0 
1350.970703 120.0 
1352.16333 192.0 
1353.11499 140.0 
1354.38916 56.0 
1355.554077 180.0 
1355.671265 44.0 
1356.059692 144.0 
1357.467285 124.0 
1357.657959 40.0 
1358.714233 176.0 
1359.264526 188.0 
1360.255371 148.0 
1361.099609 172.0 
1362.061646 160.0 
1362.943359 168.0 
1363.935425 156.0 
1365.347168 172.0 
1365.700195 188.0 
1366.855225 132.0 
1367.892944 188.0 
1367.944458 140.0 
1368.032715 196.0 
1369.225586 156.0 
1369.586548 140.0 
1370.116821 148.0 
1371.993652 220.0 
1372.526978 92.0 
1373.515259 76.0 
1374.422729 124.0 
1375.175415 196.0 
1375.396851 136.0 
1377.294556 144.0 
1377.907593 72.0 
1378.16626 40.0 
1378.254883 184.0 
1379.38562 216.0 
1379.903198 132.0 
1380.520142 148.0 
1380.960571 180.0 
1381.833496 180.0 
1381.937134 52.0 
1383.365479 44.0 
1383.891113 188.0 
1384.838989 104.0 
1386.624512 248.0 
1387.358398 140.0 
1389.071411 44.0 
1389.575073 188.0 
1390.481201 156.0 
1390.796021 224.0 
1391.015625 204.0 
1391.223389 96.0 
1391.509033 176.0 
1392.612061 176.0 
1393.860107 156.0 
1394.02356 156.0 
1394.142456 72.0 
1394.469482 152.0 
1395.354126 132.0 
1395.859741 168.0 
1396.023315 128.0 
1397.012451 196.0 
1398.069092 120.0 
1398.694214 164.0 
1399.207886 196.0 
1399.937622 172.0 
1400.04187 72.0 
1401.919189 120.0 
1402.075684 172.0 
1402.724121 152.0 
1404.439209 164.0 
1405.722412 208.0 
1406.177612 228.0 
1406.438843 168.0 
1406.565796 92.0 
1406.767334 188.0 
1406.886719 236.0 
1407.148071 172.0 
1407.394409 268.0 
1407.558716 64.0 
1408.827515 132.0 
1410.263062 40.0 
1411.15271 208.0 
1411.3396 156.0 
1412.07251 120.0 
1412.207153 84.0 
1412.394043 116.0 
1412.566162 160.0 
1412.962646 196.0 
1414.53418 160.0 
1414.953369 204.0 
1416.046631 148.0 
1417.290283 132.0 
1417.35022 64.0 
1417.717407 32.0 
1418.182007 188.0 
1419.404053 136.0 
1419.651489 44.0 
1420.42395 104.0 
1421.084229 168.0 
1421.774536 140.0 
1423.373535 140.0 
1423.824097 60.0 
1424.011841 200.0 
1424.439941 116.0 
1424.530151 200.0 
1424.582764 92.0 
1424.875732 164.0 
1425.49939 96.0 
1426.393677 148.0 
1426.844238 228.0 
1428.168213 168.0 
1429.868652 160.0 
1430.538574 228.0 
1431.110718 172.0 
1431.901489 196.0 
1432.506226 172.0 
1433.415649 132.0 
1433.784912 168.0 
1434.010986 220.0 
1436.242798 196.0 
1437.200928 48.0 
1437.510742 148.0 
1439.465454 172.0 
1439.692017 156.0 
1440.062012 164.0 
1440.643677 112.0 
1441.089478 228.0 
1442.343872 188.0 
1442.64624 224.0 
1443.28894 172.0 
1444.725952 176.0 
1445.300903 200.0 
1446.178833 68.0 
1447.390137 228.0 
1447.443115 96.0 
1449.458008 108.0 
1449.980835 100.0 
1451.034546 164.0 
1451.383301 96.0 
1451.921753 156.0 
1452.209961 204.0 
1452.369263 172.0 
1453.142944 164.0 
1453.787964 212.0 
1454.653198 152.0 
1457.24292 108.0 
1459.325439 144.0 
1459.736084 196.0 
1461.356201 168.0 
1464.865845 128.0 
1467.457031 164.0 
1467.525635 172.0 
1467.969971 200.0 
1468.570435 204.0 
1469.157715 132.0 
1470.989258 180.0 
1471.752686 100.0 
1471.859619 168.0 
1474.311646 204.0 
1475.544067 160.0 
1476.146362 176.0 
1477.125366 124.0 
1477.446655 124.0 
1477.699097 192.0 
1477.997559 188.0 
1478.900513 196.0 
1479.9646 236.0 
1480.156128 156.0 
1480.67688 52.0 
1480.799316 32.0 
1480.975586 156.0 
1482.086304 152.0 
1482.392822 168.0 
1482.469482 152.0 
1483.596191 188.0 
1484.255615 148.0 
1485.367676 132.0 
1486.311279 220.0 
1487.040283 164.0 
1487.178467 128.0 
1487.323608 180.0 
1487.662109 144.0 
1488.39917 124.0 
1488.72168 144.0 
1489.067261 192.0 
1489.428223 172.0 
1489.62793 48.0 
1491.095581 100.0 
1492.533081 160.0 
1492.771484 196.0 
1493.186768 156.0 
1493.455933 132.0 
1498.428833 288.0 
1499.50769 100.0 
1499.831421 184.0 
1500.432739 188.0 
1500.502075 80.0 
1500.879883 184.0 
1502.630737 212.0 
1503.294312 68.0 
END IONS

