BEGIN IONS
TITLE=Scan Number: 964
PEPMASS=403.24301
CHARGE=1+
COMPOUNDNAME=Ambiguine D isonitrile
LIBRARYQUALITY=3
SMILES=C[C@]1([C@@H]2[C@@]3([C@@]([C@]([C@@H](C2)Cl)(C=C)C)([C@H]4O[C@H]4[C@@](C5=Nc6c(c1ccc6)[C@]35O)(C)C)[N+]#[C-])O)C
INCHIKEY=BEUWKFSFCQGVEY-QJQSJIDVSA-N
INCHI=
MSLEVEL=2
SOURCE_INSTRUMENT=LC-ESI-qTof
FILENAME=f.philipwi/0_WilliamsFreshwaterCyanosStandardsConvertedTo_mzXML_v2/PW-45_P1-E-9_Ambiguine_D_isonitrile_452amu_Scan933-988_01_15560.mzXML;
SEQ=*..*
NOTES=
IONMODE=Positive
ORGANISM=GNPS-LIBRARY
NAME=Ambiguine D isonitrile M+H
SPECTRUMID=CCMSLIB00000424904
ACTIVATION=CID
INSTRUMENT=ion trap
SCANS=964
48.926304 24.0 
61.843216 44.0 
69.579292 80.0 
79.330406 64.0 
79.762436 116.0 
80.63002 52.0 
83.633568 124.0 
83.971985 76.0 
84.973717 24.0 
87.435471 124.0 
91.169685 52.0 
93.330673 52.0 
96.572647 28.0 
96.67289 148.0 
103.391121 80.0 
106.742668 100.0 
107.085381 112.0 
111.705139 108.0 
113.483917 104.0 
114.327461 32.0 
116.80793 36.0 
117.290649 32.0 
118.231354 60.0 
118.800362 36.0 
120.655563 32.0 
121.040955 172.0 
122.059921 84.0 
125.121071 28.0 
129.022552 24.0 
130.569321 140.0 
132.015427 28.0 
132.140884 32.0 
132.917786 68.0 
133.113327 100.0 
133.33699 40.0 
133.911713 52.0 
134.221695 64.0 
134.990799 36.0 
135.702682 180.0 
137.102234 84.0 
137.792084 128.0 
138.651535 128.0 
141.063721 68.0 
141.127045 132.0 
142.011627 20.0 
143.084686 96.0 
144.105148 80.0 
144.268936 44.0 
144.613678 68.0 
145.11235 76.0 
146.111588 92.0 
147.121552 308.0 
147.231613 28.0 
149.097733 116.0 
150.595825 140.0 
151.061493 64.0 
151.516235 72.0 
151.618256 40.0 
152.262527 44.0 
153.105286 80.0 
153.223618 36.0 
154.07695 128.0 
154.171906 20.0 
154.28273 52.0 
154.46489 44.0 
154.924713 64.0 
155.007584 36.0 
155.070557 384.0 
155.250168 48.0 
155.413528 64.0 
156.066162 136.0 
156.531494 20.0 
156.970428 36.0 
157.095734 212.0 
157.162155 72.0 
157.585953 40.0 
158.09848 112.0 
158.387146 24.0 
158.661514 64.0 
159.128098 312.0 
159.504166 100.0 
159.568588 36.0 
160.415161 44.0 
160.843323 104.0 
160.948425 104.0 
161.137421 1968.0 
161.206161 28.0 
161.409698 52.0 
161.76622 128.0 
162.009521 44.0 
162.138077 228.0 
162.212418 32.0 
162.533264 32.0 
163.121414 232.0 
164.060532 112.0 
164.117691 68.0 
164.689789 68.0 
165.077484 324.0 
165.37764 128.0 
166.070099 124.0 
167.07106 268.0 
167.416794 48.0 
167.788147 28.0 
167.969849 24.0 
168.085526 840.0 
168.316986 40.0 
168.772141 48.0 
169.085464 332.0 
169.169861 44.0 
169.319122 128.0 
170.108002 100.0 
170.928864 84.0 
171.090424 72.0 
172.08403 104.0 
172.201111 76.0 
173.093094 120.0 
173.365768 64.0 
173.80246 32.0 
174.135132 232.0 
174.290207 32.0 
175.158051 112.0 
176.028046 20.0 
176.832382 32.0 
177.133804 132.0 
177.587585 72.0 
177.800018 40.0 
178.078674 208.0 
178.174194 28.0 
178.250778 32.0 
178.497665 48.0 
178.983414 40.0 
179.065033 2328.0 
179.230804 76.0 
179.316147 104.0 
179.383301 128.0 
179.70047 20.0 
179.803024 28.0 
179.930405 40.0 
180.072449 784.0 
180.187851 24.0 
180.247757 36.0 
180.633057 108.0 
181.082138 1672.0 
181.190338 72.0 
182.098557 608.0 
182.187012 68.0 
182.359131 52.0 
182.703613 160.0 
182.824249 40.0 
183.097992 936.0 
183.36763 28.0 
183.471237 32.0 
183.57486 24.0 
183.661224 52.0 
183.750977 72.0 
183.958908 36.0 
184.100632 224.0 
184.39624 88.0 
184.889954 76.0 
185.106689 80.0 
185.236801 24.0 
185.479797 32.0 
185.957565 64.0 
186.117065 104.0 
186.679733 40.0 
186.932388 68.0 
187.673904 32.0 
187.743774 72.0 
188.00589 156.0 
188.067062 84.0 
188.145752 120.0 
188.2332 28.0 
188.513153 80.0 
188.609436 76.0 
189.029861 36.0 
189.477081 32.0 
190.069611 208.0 
190.144516 24.0 
190.206055 36.0 
190.408295 24.0 
190.7603 84.0 
190.954025 40.0 
191.079193 328.0 
191.168915 44.0 
191.324158 36.0 
191.853546 40.0 
191.93132 48.0 
192.071533 4784.0 
192.174988 72.0 
192.312927 40.0 
192.542831 20.0 
192.732483 36.0 
192.820908 28.0 
192.910065 32.0 
192.978439 36.0 
193.080444 14196.0 
193.277328 108.0 
193.309357 72.0 
193.341766 48.0 
193.56134 60.0 
193.681961 36.0 
193.786667 40.0 
193.961609 36.0 
194.087921 2532.0 
194.203613 88.0 
194.270187 56.0 
194.285187 44.0 
194.516739 40.0 
194.623627 116.0 
194.911667 40.0 
195.09642 2000.0 
195.221283 36.0 
195.347122 52.0 
195.620438 56.0 
195.847198 44.0 
195.928986 48.0 
196.102921 428.0 
196.230972 44.0 
196.502106 44.0 
196.731339 44.0 
197.07048 424.0 
197.635376 28.0 
198.12114 208.0 
198.263153 32.0 
198.582733 64.0 
198.658264 36.0 
199.11853 76.0 
199.314667 28.0 
199.49469 36.0 
199.809921 144.0 
200.082932 356.0 
200.319702 96.0 
200.874557 36.0 
201.896729 36.0 
202.141357 124.0 
202.26825 76.0 
202.34079 20.0 
202.621964 52.0 
202.86702 56.0 
202.985077 108.0 
203.075409 336.0 
203.493958 28.0 
203.657669 104.0 
203.757751 40.0 
203.894257 36.0 
203.988754 48.0 
204.088699 580.0 
204.331375 40.0 
204.438171 128.0 
204.568359 44.0 
204.67778 36.0 
205.080307 3552.0 
205.188278 52.0 
205.331955 76.0 
205.424942 48.0 
205.535904 40.0 
205.646301 56.0 
205.799561 132.0 
205.876617 60.0 
205.968353 172.0 
206.089828 15476.0 
206.227097 84.0 
206.348892 32.0 
206.446884 56.0 
206.550613 40.0 
206.588791 60.0 
206.700424 32.0 
206.811188 24.0 
206.935333 64.0 
207.095627 16668.0 
207.29097 56.0 
207.391281 60.0 
207.460617 64.0 
207.577118 64.0 
207.699173 80.0 
207.853683 96.0 
207.972275 44.0 
208.100845 3348.0 
208.222214 36.0 
208.302383 28.0 
208.35791 32.0 
208.443024 104.0 
208.578018 24.0 
208.747681 44.0 
208.934143 56.0 
208.996033 100.0 
209.107986 4788.0 
209.199615 120.0 
209.284485 136.0 
209.387863 76.0 
209.474258 48.0 
209.510788 32.0 
209.539124 108.0 
209.65036 40.0 
209.732727 96.0 
209.764969 48.0 
209.932465 72.0 
210.108566 1364.0 
210.456161 36.0 
210.546585 64.0 
210.629837 92.0 
210.768616 40.0 
210.888947 32.0 
211.108185 112.0 
211.314972 48.0 
211.453979 28.0 
211.657959 108.0 
211.843475 96.0 
211.964096 32.0 
212.099243 124.0 
212.607468 44.0 
212.837357 24.0 
212.948959 28.0 
213.023376 32.0 
213.111771 96.0 
213.265335 52.0 
213.420242 44.0 
213.65062 76.0 
214.089279 204.0 
214.309204 24.0 
214.60791 36.0 
214.682632 28.0 
214.748016 40.0 
214.832092 44.0 
215.091766 232.0 
215.169846 48.0 
215.449173 96.0 
215.529984 44.0 
215.608246 80.0 
215.875092 36.0 
216.083328 472.0 
216.198318 104.0 
216.263931 24.0 
216.329559 32.0 
216.423325 28.0 
216.675964 60.0 
217.083939 2916.0 
217.268127 64.0 
217.333893 24.0 
217.437286 24.0 
217.571716 40.0 
217.681732 32.0 
217.761673 56.0 
217.851044 64.0 
217.91304 40.0 
217.987289 56.0 
218.09581 2824.0 
218.20871 36.0 
218.361969 44.0 
218.506989 84.0 
218.612747 36.0 
218.662796 40.0 
218.764618 32.0 
218.830627 88.0 
218.925476 136.0 
218.996094 76.0 
219.098526 9804.0 
219.261047 32.0 
219.369995 48.0 
219.466492 32.0 
219.676666 44.0 
219.925446 168.0 
220.101425 8636.0 
220.201599 60.0 
220.336807 80.0 
220.447464 80.0 
220.570663 72.0 
220.684586 40.0 
220.758469 44.0 
220.869766 68.0 
220.949051 216.0 
221.111786 31052.0 
221.196915 148.0 
221.308121 140.0 
221.471542 140.0 
221.749008 44.0 
221.777908 84.0 
221.88031 200.0 
221.97995 104.0 
222.111908 6288.0 
222.21846 116.0 
222.364105 112.0 
222.528763 88.0 
222.682083 72.0 
222.713791 48.0 
222.752365 48.0 
222.851746 32.0 
223.114349 1328.0 
223.232544 36.0 
223.436401 40.0 
223.618423 40.0 
223.68515 28.0 
223.774002 60.0 
223.885406 32.0 
223.991867 68.0 
224.098328 176.0 
224.219345 20.0 
224.293335 32.0 
224.327545 24.0 
224.395966 80.0 
224.461624 96.0 
224.897552 60.0 
224.983597 20.0 
225.117401 572.0 
225.289658 48.0 
225.369751 108.0 
225.481049 80.0 
225.589828 88.0 
225.651184 140.0 
225.809006 32.0 
225.94072 24.0 
226.089981 160.0 
226.235626 92.0 
226.646317 48.0 
226.806992 124.0 
226.9095 24.0 
227.020416 116.0 
227.140762 100.0 
227.341782 32.0 
227.482529 64.0 
227.719879 112.0 
227.918823 36.0 
227.986191 24.0 
228.080978 704.0 
228.294281 40.0 
228.655167 44.0 
228.842789 48.0 
228.967773 32.0 
229.082932 3060.0 
229.186478 48.0 
229.284164 48.0 
229.414093 44.0 
229.541763 60.0 
229.774124 88.0 
229.962463 36.0 
229.990128 32.0 
230.089203 2196.0 
230.249634 40.0 
230.349716 60.0 
230.426468 120.0 
230.524536 64.0 
230.656174 40.0 
230.769577 64.0 
230.896759 52.0 
230.980835 32.0 
231.095444 11556.0 
231.323669 40.0 
231.401352 120.0 
231.532166 36.0 
231.608688 36.0 
231.689438 104.0 
231.77829 76.0 
231.908707 100.0 
231.947372 68.0 
231.975845 40.0 
232.105728 6936.0 
232.251282 100.0 
232.393326 68.0 
232.50473 44.0 
232.600311 32.0 
232.668365 48.0 
232.74617 48.0 
232.839767 32.0 
233.004074 152.0 
233.111893 13092.0 
233.259613 52.0 
233.28717 60.0 
233.507797 152.0 
233.586121 68.0 
233.785538 68.0 
233.895096 28.0 
233.928131 92.0 
234.11821 4532.0 
234.270157 104.0 
234.36441 96.0 
234.449799 60.0 
234.536163 80.0 
234.66304 96.0 
234.681381 68.0 
234.819351 44.0 
234.893646 76.0 
235.016449 160.0 
235.124603 21388.0 
235.434128 36.0 
235.630569 104.0 
235.724594 80.0 
235.858688 48.0 
235.937012 40.0 
236.127533 3100.0 
236.32637 32.0 
236.416122 44.0 
236.492752 44.0 
236.569092 72.0 
236.741791 32.0 
236.85022 148.0 
236.95639 40.0 
237.110382 1396.0 
237.375763 100.0 
237.461456 36.0 
237.604446 108.0 
237.678909 76.0 
237.807144 64.0 
237.869812 108.0 
238.107742 336.0 
238.31636 100.0 
238.421326 60.0 
238.515823 48.0 
238.755447 16.0 
238.874313 60.0 
239.041168 32.0 
239.127502 168.0 
239.346771 28.0 
239.503876 100.0 
239.745163 84.0 
239.995224 60.0 
240.089371 656.0 
240.353729 64.0 
240.432785 24.0 
240.590958 36.0 
240.665512 56.0 
240.739288 36.0 
240.864075 52.0 
240.971771 48.0 
241.095566 432.0 
241.264999 32.0 
241.405121 160.0 
241.580704 64.0 
241.679794 32.0 
241.768982 32.0 
241.876617 36.0 
241.988327 32.0 
242.094818 1484.0 
242.433502 40.0 
242.502991 40.0 
242.661835 116.0 
242.724075 88.0 
242.861893 48.0 
242.987656 100.0 
243.097397 10232.0 
243.329391 80.0 
243.48671 40.0 
243.581757 36.0 
243.685501 236.0 
243.820328 104.0 
243.877151 108.0 
243.973724 104.0 
244.10614 22288.0 
244.237259 40.0 
244.283081 24.0 
244.356995 184.0 
244.477066 60.0 
244.641876 76.0 
244.729324 88.0 
244.847809 80.0 
244.885483 84.0 
244.917419 80.0 
245.112167 16812.0 
245.224014 180.0 
245.397934 92.0 
245.529587 120.0 
245.872772 72.0 
246.117676 12876.0 
246.316727 132.0 
246.484299 152.0 
246.592422 48.0 
246.804031 144.0 
246.93985 36.0 
247.125824 8556.0 
247.382324 68.0 
247.504715 92.0 
247.57019 24.0 
247.639053 60.0 
247.760376 116.0 
247.905869 104.0 
248.122742 1220.0 
248.275284 96.0 
248.405533 120.0 
248.476791 96.0 
248.687363 56.0 
248.847275 32.0 
248.92157 40.0 
248.949509 24.0 
248.984711 104.0 
249.129395 952.0 
249.346115 72.0 
249.467072 60.0 
249.698685 40.0 
249.715942 64.0 
249.997787 28.0 
250.136261 872.0 
250.240128 108.0 
250.367966 40.0 
250.501541 132.0 
250.636581 44.0 
250.79953 52.0 
251.132217 536.0 
251.306854 36.0 
251.419968 132.0 
251.727554 104.0 
251.930023 76.0 
252.031006 92.0 
252.137604 264.0 
252.276169 124.0 
252.469559 56.0 
252.559433 40.0 
252.625 44.0 
252.703293 112.0 
252.774231 20.0 
252.867706 36.0 
252.988495 88.0 
253.100647 324.0 
253.487198 40.0 
253.626251 32.0 
253.732849 40.0 
254.100601 1088.0 
254.418701 44.0 
254.500046 24.0 
254.615768 116.0 
254.738052 40.0 
255.103729 1996.0 
255.283661 36.0 
255.425415 48.0 
255.550888 88.0 
255.808441 48.0 
255.834793 48.0 
255.970963 36.0 
256.108582 4356.0 
256.3479 84.0 
256.446686 64.0 
256.518433 44.0 
256.781158 48.0 
256.883606 148.0 
256.963043 136.0 
256.983093 84.0 
257.112793 21924.0 
257.31955 48.0 
257.493774 148.0 
257.644867 92.0 
257.731598 132.0 
257.906616 116.0 
257.978058 128.0 
258.119415 16592.0 
258.301544 72.0 
258.406189 88.0 
258.528625 92.0 
258.675354 140.0 
258.715332 60.0 
258.746246 52.0 
258.814606 128.0 
259.127899 44428.0 
259.232147 196.0 
259.335846 124.0 
259.644897 136.0 
259.741821 124.0 
259.822906 84.0 
259.848114 88.0 
259.895721 108.0 
260.014893 164.0 
260.133606 19240.0 
260.261292 36.0 
260.467346 76.0 
260.653687 116.0 
260.748077 120.0 
260.90271 52.0 
260.938507 64.0 
261.141846 19652.0 
261.308502 64.0 
261.345032 44.0 
261.446014 104.0 
261.533417 48.0 
261.614563 60.0 
261.687439 64.0 
261.855103 68.0 
261.952606 104.0 
262.136658 4056.0 
262.336273 32.0 
262.408905 56.0 
262.634033 48.0 
262.720978 28.0 
262.822968 52.0 
263.131897 1604.0 
263.254028 92.0 
263.395599 32.0 
263.573517 36.0 
263.716919 40.0 
263.791992 36.0 
263.913635 40.0 
264.127228 484.0 
264.266174 48.0 
264.392609 60.0 
264.521851 48.0 
264.656616 48.0 
264.746094 32.0 
264.989807 100.0 
265.074188 92.0 
265.155426 72.0 
265.263611 40.0 
265.340668 100.0 
265.466095 40.0 
265.756989 28.0 
265.881165 104.0 
265.948395 48.0 
266.092834 848.0 
266.184998 116.0 
266.412079 28.0 
266.531738 64.0 
266.691528 164.0 
266.821777 44.0 
266.898438 44.0 
267.09845 1320.0 
267.313263 140.0 
267.508362 108.0 
267.747101 44.0 
267.903015 40.0 
267.941803 44.0 
268.113556 1556.0 
268.225494 36.0 
268.3508 92.0 
268.437836 84.0 
268.77478 148.0 
268.876099 88.0 
268.970734 32.0 
269.113251 6984.0 
269.3526 80.0 
269.487488 156.0 
269.585419 40.0 
269.709991 20.0 
269.795471 24.0 
269.912231 56.0 
270.120331 7428.0 
270.263794 32.0 
270.33847 48.0 
270.469482 64.0 
270.585968 68.0 
270.767395 204.0 
270.903839 120.0 
271.126007 8988.0 
271.321442 176.0 
271.423279 20.0 
271.565765 108.0 
271.696686 28.0 
271.825165 64.0 
271.937622 188.0 
272.125732 10164.0 
272.30191 32.0 
272.446472 128.0 
272.539215 40.0 
272.6409 52.0 
272.718781 120.0 
272.877045 140.0 
272.971954 172.0 
273.135406 17208.0 
273.287537 104.0 
273.314056 120.0 
273.43161 36.0 
273.455292 56.0 
273.544067 180.0 
273.690521 84.0 
273.796143 84.0 
273.872803 140.0 
273.984467 164.0 
274.146362 10448.0 
274.345917 88.0 
274.49649 152.0 
274.57782 80.0 
274.804535 100.0 
274.875031 132.0 
274.983765 128.0 
275.157257 25740.0 
275.391541 156.0 
275.524475 72.0 
275.564636 76.0 
275.682678 68.0 
275.768311 44.0 
275.858582 120.0 
276.044647 100.0 
276.155304 5132.0 
276.290283 156.0 
276.383911 32.0 
276.505188 68.0 
276.540344 32.0 
276.577179 52.0 
276.704865 40.0 
276.790039 60.0 
276.8703 32.0 
276.892822 52.0 
276.955719 36.0 
277.147858 1960.0 
277.303406 52.0 
277.440887 60.0 
277.602142 24.0 
277.747955 44.0 
277.92218 152.0 
278.149048 464.0 
278.349243 32.0 
278.540894 60.0 
278.627136 32.0 
278.909058 44.0 
279.028839 76.0 
279.137482 212.0 
279.242249 92.0 
279.331177 32.0 
279.454041 68.0 
279.612976 80.0 
280.015533 40.0 
280.108521 808.0 
280.304352 60.0 
280.437592 64.0 
280.515564 36.0 
280.714539 96.0 
280.85672 68.0 
280.938751 56.0 
281.115479 2592.0 
281.352081 172.0 
281.498047 48.0 
281.749451 72.0 
281.783569 52.0 
281.821655 40.0 
281.94928 56.0 
282.121674 2992.0 
282.386414 64.0 
282.516632 52.0 
282.584991 120.0 
282.718597 100.0 
282.79361 36.0 
282.901276 96.0 
283.126495 11384.0 
283.378387 84.0 
283.621277 80.0 
283.649872 44.0 
283.70047 172.0 
283.771118 76.0 
283.839264 56.0 
284.011871 128.0 
284.134796 20448.0 
284.371155 92.0 
284.453278 56.0 
284.548981 72.0 
284.583008 96.0 
284.618195 68.0 
284.691681 60.0 
284.810059 124.0 
284.957733 260.0 
285.133392 23848.0 
285.288696 72.0 
285.39856 96.0 
285.633331 204.0 
285.737793 188.0 
285.751404 224.0 
285.815918 192.0 
286.1297 14952.0 
286.456726 124.0 
286.628235 152.0 
286.856506 300.0 
286.884583 200.0 
286.929749 260.0 
286.974731 196.0 
287.124756 103172.0 
287.360321 264.0 
287.415619 208.0 
287.546753 176.0 
287.684875 296.0 
287.800995 248.0 
287.915588 256.0 
288.128601 43756.0 
288.278351 176.0 
288.31665 188.0 
288.401306 168.0 
288.529053 328.0 
288.782349 140.0 
288.855743 100.0 
288.945282 180.0 
289.021515 84.0 
289.154236 8212.0 
289.388184 68.0 
289.532318 124.0 
289.627533 112.0 
289.759338 88.0 
289.907318 24.0 
289.94043 132.0 
290.025757 36.0 
290.157013 2096.0 
290.299072 96.0 
290.49765 88.0 
290.577087 120.0 
290.736938 40.0 
290.865723 32.0 
290.955627 100.0 
291.157562 796.0 
291.279175 92.0 
291.406128 72.0 
291.54306 24.0 
291.638702 56.0 
291.717987 176.0 
291.861511 76.0 
291.956818 36.0 
292.115112 388.0 
292.307892 36.0 
292.403534 56.0 
292.509674 56.0 
292.698761 84.0 
292.80304 88.0 
292.910126 44.0 
292.951538 32.0 
293.118439 668.0 
293.281891 220.0 
293.516418 64.0 
293.609497 64.0 
293.815247 72.0 
294.017059 68.0 
294.123138 824.0 
294.332916 28.0 
294.447479 72.0 
294.613861 40.0 
294.686096 36.0 
294.725525 40.0 
294.856842 80.0 
294.983002 32.0 
295.127625 4328.0 
295.259491 64.0 
295.406586 40.0 
295.481262 48.0 
295.589355 72.0 
295.672546 336.0 
295.778656 144.0 
295.88147 48.0 
295.959076 156.0 
296.138428 3220.0 
296.348999 48.0 
296.504791 72.0 
296.678833 48.0 
296.785645 76.0 
296.941376 208.0 
297.142944 9368.0 
297.347595 96.0 
297.481384 68.0 
297.525208 24.0 
297.56369 36.0 
297.757996 56.0 
297.915649 36.0 
297.936951 36.0 
298.043152 196.0 
298.149933 7664.0 
298.273895 112.0 
298.403107 104.0 
298.482697 80.0 
298.635864 64.0 
298.715088 76.0 
298.955139 124.0 
299.150238 7344.0 
299.350952 108.0 
299.517212 116.0 
299.633484 136.0 
299.742065 60.0 
299.903137 164.0 
299.933746 124.0 
299.982391 144.0 
300.13208 50652.0 
300.295319 104.0 
300.423523 164.0 
300.518707 204.0 
300.64151 244.0 
300.766235 236.0 
300.831879 232.0 
300.919617 240.0 
301.138611 52576.0 
301.451233 232.0 
301.581329 272.0 
301.706787 252.0 
301.904144 368.0 
302.008972 344.0 
302.14679 135552.0 
302.254761 336.0 
302.409607 356.0 
302.492706 160.0 
302.569366 296.0 
302.674561 260.0 
302.760956 216.0 
302.874237 236.0 
302.94104 228.0 
303.15097 52856.0 
303.378662 204.0 
303.491547 80.0 
303.655426 88.0 
303.730682 72.0 
303.951569 116.0 
304.154205 6380.0 
304.403412 88.0 
304.534149 132.0 
304.697388 80.0 
304.868713 48.0 
305.004364 44.0 
305.159149 1632.0 
305.337128 76.0 
305.38913 80.0 
305.439178 44.0 
305.482605 44.0 
305.610474 108.0 
305.683655 44.0 
305.860443 292.0 
305.982819 56.0 
306.159332 100.0 
306.358215 72.0 
306.465271 164.0 
306.543335 20.0 
306.674561 100.0 
306.739807 76.0 
306.895782 68.0 
307.015625 40.0 
307.132294 428.0 
307.255249 68.0 
307.386932 140.0 
307.538574 36.0 
307.702209 44.0 
307.819977 24.0 
307.856628 36.0 
307.953491 112.0 
308.145172 680.0 
308.343964 32.0 
308.433502 32.0 
308.540802 48.0 
308.672943 52.0 
308.84787 184.0 
308.98175 76.0 
309.142212 3384.0 
309.340973 80.0 
309.463837 136.0 
309.557739 76.0 
309.671173 44.0 
309.812958 48.0 
309.850525 84.0 
309.939575 52.0 
310.151703 2692.0 
310.415344 168.0 
310.535858 44.0 
310.662506 32.0 
310.687805 28.0 
310.870422 60.0 
310.953308 64.0 
311.157959 5032.0 
311.298798 144.0 
311.585693 28.0 
311.691223 92.0 
312.036987 80.0 
312.16098 3576.0 
312.346924 68.0 
312.462769 32.0 
312.538849 64.0 
312.656342 64.0 
312.786194 52.0 
312.895325 88.0 
313.038788 124.0 
313.168365 6380.0 
313.396423 60.0 
313.481659 128.0 
313.609192 52.0 
313.710205 184.0 
313.825653 176.0 
313.999298 72.0 
314.156647 3932.0 
314.360229 36.0 
314.464722 112.0 
314.595947 156.0 
314.797363 144.0 
314.830048 84.0 
314.997131 112.0 
315.035614 68.0 
315.154999 35644.0 
315.436462 88.0 
315.580841 120.0 
315.778046 80.0 
315.896515 108.0 
316.158936 12964.0 
316.287994 64.0 
316.329193 44.0 
316.420105 76.0 
316.519501 88.0 
316.82254 104.0 
316.984344 68.0 
317.165588 3288.0 
317.347748 84.0 
317.465851 36.0 
317.59079 40.0 
317.742981 112.0 
318.165344 512.0 
318.32077 36.0 
318.431976 36.0 
318.567261 36.0 
318.622131 28.0 
318.644897 56.0 
318.716431 68.0 
318.897095 96.0 
318.961548 60.0 
319.154694 84.0 
319.319855 20.0 
319.473358 168.0 
319.695862 136.0 
319.800079 28.0 
319.967804 28.0 
320.148468 580.0 
320.260712 52.0 
320.46814 156.0 
320.653961 88.0 
320.752563 44.0 
320.890869 96.0 
321.033997 28.0 
321.142242 136.0 
321.253235 48.0 
321.370697 88.0 
321.544922 32.0 
321.677185 56.0 
321.795258 40.0 
321.985138 40.0 
322.149261 564.0 
322.283325 60.0 
322.585938 32.0 
322.666077 32.0 
322.915924 108.0 
322.95813 40.0 
323.006104 128.0 
323.160828 2172.0 
323.547729 40.0 
323.6745 36.0 
323.813141 68.0 
323.965057 36.0 
324.165649 1340.0 
324.317017 44.0 
324.443298 48.0 
324.539764 80.0 
324.617676 44.0 
324.907593 80.0 
325.051239 52.0 
325.17276 3732.0 
325.475555 24.0 
325.80246 64.0 
325.910187 96.0 
326.014404 24.0 
326.05603 56.0 
326.174896 1936.0 
326.516479 44.0 
326.663086 100.0 
326.744904 80.0 
326.891846 72.0 
327.033813 36.0 
327.171661 3816.0 
327.486908 96.0 
327.570312 52.0 
327.69809 104.0 
327.788086 44.0 
327.976135 28.0 
328.181091 1500.0 
328.330811 32.0 
328.502014 68.0 
328.798401 68.0 
328.905304 28.0 
329.038422 40.0 
329.169739 5892.0 
329.302124 100.0 
329.484894 88.0 
329.66861 44.0 
329.857605 36.0 
329.943268 40.0 
330.047485 48.0 
330.175201 2428.0 
330.318726 48.0 
330.356384 36.0 
330.39267 116.0 
330.601044 72.0 
330.680359 64.0 
330.758118 48.0 
330.904999 20.0 
331.186035 808.0 
331.297699 48.0 
331.926208 40.0 
332.053955 156.0 
332.201447 256.0 
332.356049 40.0 
332.47226 100.0 
332.683105 152.0 
332.774536 36.0 
332.960602 40.0 
333.123474 44.0 
333.204926 68.0 
333.350006 68.0 
333.554077 32.0 
333.682159 168.0 
334.043213 28.0 
334.179169 96.0 
334.346191 36.0 
334.462769 72.0 
334.649323 44.0 
334.864136 96.0 
335.057587 48.0 
335.169342 248.0 
335.406433 36.0 
335.63855 52.0 
335.661072 40.0 
335.711304 40.0 
335.816437 48.0 
335.991669 28.0 
336.169128 764.0 
336.389069 164.0 
336.522064 96.0 
336.669708 36.0 
336.873596 28.0 
337.172607 4856.0 
337.36795 36.0 
337.476746 56.0 
337.642487 36.0 
337.849548 112.0 
337.941467 172.0 
338.17688 2076.0 
338.481873 44.0 
338.502655 32.0 
338.756775 148.0 
338.994965 104.0 
339.178497 540.0 
339.548431 20.0 
339.658844 52.0 
340.046631 64.0 
340.194458 948.0 
340.399384 24.0 
340.681702 28.0 
340.799347 132.0 
341.063538 36.0 
341.175751 2088.0 
341.378204 40.0 
341.502563 44.0 
341.725739 108.0 
341.816498 84.0 
341.965363 36.0 
342.075104 52.0 
342.185394 3220.0 
342.354462 32.0 
342.514557 28.0 
342.662476 60.0 
342.796082 108.0 
342.918243 68.0 
342.952332 60.0 
342.993378 140.0 
343.207306 5064.0 
343.395386 108.0 
343.429901 36.0 
343.467407 68.0 
343.660065 36.0 
343.763763 44.0 
343.8927 44.0 
344.027771 84.0 
344.215363 1220.0 
344.445282 32.0 
344.58255 100.0 
344.957153 48.0 
345.096252 92.0 
345.218994 152.0 
345.363953 100.0 
345.475311 28.0 
345.564178 44.0 
345.664886 36.0 
345.807129 40.0 
346.161133 56.0 
346.483124 40.0 
346.779816 96.0 
347.492432 28.0 
347.611267 28.0 
347.837097 108.0 
348.003571 24.0 
348.134399 68.0 
349.068848 116.0 
349.186096 140.0 
349.432007 24.0 
349.658447 32.0 
350.189056 228.0 
350.40979 176.0 
350.534027 40.0 
350.636536 28.0 
350.767853 116.0 
350.94696 52.0 
351.190247 824.0 
351.436737 60.0 
351.584686 176.0 
351.795319 72.0 
352.195129 3956.0 
352.316803 40.0 
352.465179 44.0 
352.596832 32.0 
352.908112 36.0 
353.200165 1308.0 
353.402313 128.0 
353.591003 68.0 
353.698914 148.0 
353.913513 40.0 
354.027008 124.0 
354.20047 468.0 
354.412109 52.0 
354.699219 92.0 
354.879608 140.0 
355.025452 136.0 
355.182922 7448.0 
355.426727 40.0 
355.583588 32.0 
355.739868 72.0 
355.872131 44.0 
355.950562 84.0 
356.084625 72.0 
356.187958 2440.0 
356.485657 56.0 
356.664215 124.0 
356.798645 24.0 
356.935822 96.0 
357.053314 56.0 
357.222717 3956.0 
357.400024 100.0 
357.432404 92.0 
357.646545 32.0 
357.772095 48.0 
357.943451 28.0 
358.061035 32.0 
358.221344 6424.0 
358.474304 32.0 
358.67392 28.0 
358.768707 44.0 
358.887787 92.0 
359.053833 28.0 
359.221222 1376.0 
359.409393 84.0 
359.665863 68.0 
359.91861 116.0 
360.027252 32.0 
360.218781 228.0 
360.323242 64.0 
360.444244 40.0 
360.680847 88.0 
360.855835 100.0 
361.461548 64.0 
361.643341 24.0 
362.140533 160.0 
362.280426 68.0 
362.517914 40.0 
362.710907 28.0 
362.82016 36.0 
363.014465 24.0 
363.342468 128.0 
363.500427 24.0 
363.694916 48.0 
363.818237 164.0 
364.120514 56.0 
364.376007 64.0 
364.463989 104.0 
364.496735 52.0 
364.542847 180.0 
364.668091 48.0 
364.765472 52.0 
364.875061 28.0 
365.082092 36.0 
365.200287 176.0 
365.423187 36.0 
365.557251 84.0 
365.725189 84.0 
366.202332 76.0 
366.307159 80.0 
366.4841 120.0 
366.850281 32.0 
367.093689 124.0 
367.217224 4500.0 
367.388672 96.0 
367.513947 48.0 
367.723389 36.0 
367.82193 36.0 
368.011078 44.0 
368.214264 1860.0 
368.337006 68.0 
368.459595 24.0 
368.573792 24.0 
368.809174 52.0 
369.063477 32.0 
369.199829 1472.0 
369.481293 36.0 
369.700531 52.0 
369.865173 56.0 
370.059052 100.0 
370.206482 8284.0 
370.399506 48.0 
370.592743 32.0 
370.755371 64.0 
370.951782 84.0 
371.2117 2468.0 
371.551819 28.0 
371.776337 80.0 
372.082123 84.0 
372.21463 332.0 
372.49704 136.0 
372.611053 32.0 
372.721802 52.0 
372.955658 112.0 
373.216187 168.0 
373.36203 40.0 
373.731628 24.0 
373.854858 32.0 
374.163055 128.0 
374.348022 92.0 
374.499146 32.0 
374.668762 44.0 
374.804504 136.0 
375.236572 192.0 
375.668854 96.0 
375.977814 124.0 
376.138519 152.0 
376.225067 28.0 
376.314026 116.0 
376.645569 24.0 
376.732147 112.0 
377.140564 36.0 
377.262085 44.0 
377.623505 148.0 
378.292725 32.0 
378.739166 148.0 
379.247986 164.0 
379.608063 32.0 
380.067719 28.0 
380.776398 32.0 
382.855255 40.0 
382.96225 92.0 
383.072968 52.0 
383.212067 168.0 
383.298157 60.0 
383.341034 48.0 
383.505371 32.0 
383.684326 72.0 
383.892456 28.0 
384.068848 72.0 
384.235992 72.0 
384.373657 124.0 
384.470184 64.0 
384.623901 60.0 
384.659393 36.0 
384.703339 72.0 
384.840881 36.0 
384.964569 92.0 
385.0513 112.0 
385.23056 44468.0 
385.460541 152.0 
385.61795 104.0 
385.702789 144.0 
385.833679 104.0 
385.892029 100.0 
385.911591 44.0 
386.025787 56.0 
386.233124 12256.0 
386.479034 60.0 
386.739746 48.0 
386.877686 40.0 
387.057709 44.0 
387.233307 2000.0 
387.428009 56.0 
387.681976 36.0 
387.87442 40.0 
388.111176 28.0 
388.227631 120.0 
388.464691 36.0 
388.609192 32.0 
388.702698 84.0 
388.874603 64.0 
389.231476 84.0 
389.646576 24.0 
390.049347 72.0 
390.275696 132.0 
390.401917 36.0 
390.490112 32.0 
390.618683 96.0 
390.865265 36.0 
391.284088 32.0 
391.397583 72.0 
391.527679 76.0 
391.683624 68.0 
391.776001 28.0 
392.062988 160.0 
392.318726 48.0 
392.596558 44.0 
392.872345 24.0 
393.051361 44.0 
393.557037 32.0 
393.860596 40.0 
394.012421 132.0 
394.214905 40.0 
394.721313 36.0 
394.847961 96.0 
394.961975 96.0 
395.316772 64.0 
395.566376 156.0 
396.369415 140.0 
396.57251 40.0 
396.727173 108.0 
396.915314 32.0 
397.316467 76.0 
397.619263 140.0 
397.728516 96.0 
397.995544 24.0 
398.555267 48.0 
398.733459 36.0 
398.980408 40.0 
399.128143 112.0 
399.222931 152.0 
399.561249 44.0 
399.68869 164.0 
399.905365 56.0 
400.099792 96.0 
400.383789 100.0 
400.479187 32.0 
400.887512 164.0 
401.232178 160.0 
401.628113 96.0 
401.810516 116.0 
402.11795 132.0 
402.394958 40.0 
402.881012 32.0 
403.240875 580.0 
403.674683 36.0 
404.046204 112.0 
404.241577 152.0 
404.747437 108.0 
405.084747 20.0 
405.277191 88.0 
406.253082 72.0 
406.895752 80.0 
407.191528 76.0 
407.397369 44.0 
407.5737 148.0 
407.719086 84.0 
408.723694 36.0 
409.088013 136.0 
409.858551 48.0 
411.421539 40.0 
413.590881 172.0 
413.700317 24.0 
413.933716 56.0 
414.102356 28.0 
415.101776 72.0 
415.730225 140.0 
416.066132 120.0 
416.557648 68.0 
416.648712 124.0 
417.039154 72.0 
417.273499 140.0 
417.804077 136.0 
419.163727 32.0 
419.411713 116.0 
419.725098 48.0 
420.130035 56.0 
420.417542 140.0 
420.535187 80.0 
420.692047 172.0 
421.084381 132.0 
421.189026 32.0 
421.503082 92.0 
422.629303 152.0 
423.00943 40.0 
423.245453 72.0 
423.499573 96.0 
423.953918 72.0 
424.229584 52.0 
424.473755 148.0 
424.715515 72.0 
425.438354 84.0 
426.003906 136.0 
426.253937 124.0 
426.635681 184.0 
427.687195 148.0 
428.784515 44.0 
429.061768 92.0 
429.391937 32.0 
429.576874 48.0 
429.695801 40.0 
430.475769 116.0 
430.846161 48.0 
431.11084 44.0 
431.415283 116.0 
431.560944 28.0 
431.812592 36.0 
432.83316 168.0 
433.044037 120.0 
434.625366 160.0 
435.236877 140.0 
435.596008 92.0 
435.968628 36.0 
436.088409 148.0 
436.421265 68.0 
437.407257 116.0 
437.807312 104.0 
437.914001 84.0 
438.140808 120.0 
438.50116 52.0 
439.088684 24.0 
439.476135 168.0 
439.703339 116.0 
440.532471 88.0 
441.054413 120.0 
441.188293 40.0 
441.348969 152.0 
441.777618 32.0 
442.340515 132.0 
443.145294 112.0 
444.304535 56.0 
444.649475 72.0 
446.142761 136.0 
446.829712 96.0 
447.166626 44.0 
447.3284 124.0 
447.74646 96.0 
448.20517 28.0 
448.388123 36.0 
448.980377 124.0 
449.136841 32.0 
449.690887 32.0 
449.947754 120.0 
450.542908 76.0 
451.003052 20.0 
451.395721 108.0 
452.574768 152.0 
453.361633 88.0 
455.141418 152.0 
456.284485 40.0 
456.652191 192.0 
458.788116 136.0 
460.228119 36.0 
460.802643 184.0 
461.04306 120.0 
461.624023 144.0 
462.978943 28.0 
465.081848 88.0 
466.209778 164.0 
466.705414 152.0 
467.656097 124.0 
467.862885 120.0 
468.16629 104.0 
468.994202 116.0 
469.726135 128.0 
470.292755 140.0 
471.039551 148.0 
471.150208 156.0 
471.897675 76.0 
472.493317 68.0 
472.756622 36.0 
472.978394 116.0 
473.505371 96.0 
473.602448 32.0 
474.032593 104.0 
474.143646 24.0 
474.310211 100.0 
475.213043 144.0 
475.657806 100.0 
475.88028 100.0 
476.756744 56.0 
477.062988 160.0 
478.512085 200.0 
478.791016 44.0 
479.824158 132.0 
480.130981 128.0 
480.480225 112.0 
481.221069 140.0 
482.927094 112.0 
483.082703 48.0 
483.489075 92.0 
484.232239 108.0 
484.344452 24.0 
484.990021 52.0 
486.254272 132.0 
486.45108 60.0 
486.83075 160.0 
489.637756 128.0 
489.964233 112.0 
490.268616 76.0 
490.611084 140.0 
490.748627 64.0 
491.412567 168.0 
491.511475 132.0 
492.190063 128.0 
492.345642 124.0 
493.407043 136.0 
494.852356 208.0 
495.164368 84.0 
496.200409 132.0 
497.081177 76.0 
497.351227 56.0 
498.062286 124.0 
498.574554 96.0 
500.198486 136.0 
500.412384 96.0 
501.411041 144.0 
503.010986 108.0 
503.225464 128.0 
503.339874 32.0 
503.5401 116.0 
503.654541 124.0 
503.783325 72.0 
504.069519 72.0 
505.157776 104.0 
505.2724 60.0 
505.989105 80.0 
506.103821 164.0 
506.978973 64.0 
507.194275 144.0 
507.438354 128.0 
508.343414 156.0 
508.573395 156.0 
509.724091 52.0 
510.271118 76.0 
511.380493 176.0 
511.666077 84.0 
513.487244 96.0 
513.891785 120.0 
514.44104 136.0 
514.614563 120.0 
515.120789 28.0 
515.251038 64.0 
515.743103 140.0 
516.052917 60.0 
517.945862 80.0 
519.978882 64.0 
520.211487 56.0 
520.32782 116.0 
521.404419 24.0 
522.438354 128.0 
522.569519 124.0 
522.860962 28.0 
523.137939 132.0 
524.421753 28.0 
525.239563 88.0 
526.697205 136.0 
527.228271 80.0 
527.447876 120.0 
528.165466 112.0 
528.546448 148.0 
530.776367 80.0 
530.87915 36.0 
531.099487 116.0 
532.348938 52.0 
532.598938 96.0 
533.113953 104.0 
533.23175 76.0 
533.437805 40.0 
533.555603 136.0 
533.688171 112.0 
534.247864 112.0 
535.338745 24.0 
536.297852 76.0 
536.534058 140.0 
537.257812 88.0 
540.691162 108.0 
540.794922 92.0 
541.18042 132.0 
543.659729 116.0 
543.852966 40.0 
544.135498 52.0 
544.522156 156.0 
544.849426 128.0 
546.472534 40.0 
547.688965 68.0 
547.933838 72.0 
551.940063 52.0 
552.717346 68.0 
553.303711 112.0 
553.558655 124.0 
553.708618 100.0 
553.903625 184.0 
554.233765 132.0 
554.38385 72.0 
554.894287 136.0 
558.338257 144.0 
559.438354 156.0 
560.53949 64.0 
561.022583 64.0 
562.548584 44.0 
563.758728 68.0 
563.864685 160.0 
565.515808 52.0 
567.047913 88.0 
568.323669 104.0 
568.886108 100.0 
569.281494 84.0 
569.387939 44.0 
571.712158 112.0 
572.12915 84.0 
572.815491 124.0 
574.403259 44.0 
575.259155 152.0 
575.717896 88.0 
576.727844 84.0 
578.121765 152.0 
578.995728 148.0 
580.238831 88.0 
580.545959 88.0 
581.575439 24.0 
583.66803 116.0 
585.378723 28.0 
586.242737 32.0 
587.354492 36.0 
587.632629 116.0 
587.740784 92.0 
587.895325 116.0 
590.092163 96.0 
591.114563 132.0 
591.393555 116.0 
592.013794 64.0 
593.131042 128.0 
594.420288 196.0 
595.026611 116.0 
596.286133 100.0 
596.84729 92.0 
598.701904 104.0 
600.575073 220.0 
602.044434 104.0 
603.891479 104.0 
605.584473 68.0 
607.892578 36.0 
608.600037 52.0 
610.36261 112.0 
611.686218 36.0 
613.137512 64.0 
614.71698 148.0 
615.713074 104.0 
618.420837 144.0 
618.6745 92.0 
620.705627 68.0 
622.151672 120.0 
622.572937 96.0 
625.59082 32.0 
625.702393 140.0 
627.681213 124.0 
628.751648 136.0 
629.983032 44.0 
630.767273 36.0 
630.945129 36.0 
631.519958 76.0 
633.058716 100.0 
634.503052 132.0 
635.209717 68.0 
636.704773 136.0 
637.348328 92.0 
637.734619 92.0 
639.433472 96.0 
640.087036 136.0 
641.151917 36.0 
644.003906 88.0 
646.680908 128.0 
646.927124 80.0 
647.9328 52.0 
649.263977 68.0 
649.962585 32.0 
651.068176 32.0 
651.816589 44.0 
652.652771 132.0 
654.913452 128.0 
655.352966 132.0 
656.348755 84.0 
659.438965 140.0 
660.159424 32.0 
667.467957 144.0 
668.143311 156.0 
671.129028 76.0 
674.882935 104.0 
677.186768 28.0 
679.361572 116.0 
679.577576 72.0 
680.47522 84.0 
696.498535 84.0 
697.558838 60.0 
706.832397 116.0 
707.001892 120.0 
707.323975 88.0 
722.681396 100.0 
723.349915 136.0 
726.868774 72.0 
729.276794 36.0 
729.431763 24.0 
729.672791 156.0 
732.311157 140.0 
733.310547 92.0 
733.828491 84.0 
734.657593 64.0 
736.386414 36.0 
738.03064 76.0 
739.12207 140.0 
746.157471 64.0 
746.34906 112.0 
747.690552 104.0 
750.69165 84.0 
750.901245 36.0 
756.325989 84.0 
756.659119 108.0 
756.78186 56.0 
757.34314 76.0 
760.961243 64.0 
764.358826 84.0 
773.922974 88.0 
777.331543 104.0 
777.740356 84.0 
782.476318 72.0 
782.77948 120.0 
789.463867 116.0 
790.108826 128.0 
790.305908 100.0 
793.40918 108.0 
794.145508 108.0 
797.706299 76.0 
797.976379 80.0 
800.427246 100.0 
801.4375 28.0 
803.279236 92.0 
807.222656 136.0 
809.850891 20.0 
811.411743 100.0 
811.756775 140.0 
812.501587 40.0 
814.501526 116.0 
818.271729 56.0 
823.586609 72.0 
823.989136 44.0 
824.2453 100.0 
828.478271 56.0 
829.873352 132.0 
830.69989 68.0 
838.378906 80.0 
840.040894 196.0 
840.669189 80.0 
844.49939 92.0 
844.869934 28.0 
847.558716 72.0 
847.929932 52.0 
850.976868 96.0 
854.38324 40.0 
864.605652 132.0 
864.755615 76.0 
866.012024 116.0 
871.837036 96.0 
872.53363 52.0 
882.920593 124.0 
887.947144 112.0 
891.402588 104.0 
891.940613 48.0 
899.361633 140.0 
901.408325 72.0 
904.856567 16.0 
912.234741 108.0 
917.421204 100.0 
923.261414 96.0 
924.830994 104.0 
937.162292 140.0 
949.673462 96.0 
970.908386 20.0 
972.582214 80.0 
986.803467 104.0 
993.442688 56.0 
1006.606018 120.0 
1012.763611 60.0 
1020.364868 116.0 
1023.31958 124.0 
1027.831055 68.0 
1035.344971 80.0 
1039.718506 40.0 
1040.787598 24.0 
1044.616211 52.0 
1053.907959 36.0 
1081.841675 92.0 
1086.39624 16.0 
1090.960327 68.0 
1108.909058 60.0 
1110.204346 124.0 
1146.346436 56.0 
1158.811768 24.0 
1185.458618 40.0 
1198.9729 84.0 
1506.520752 44.0 
1540.632935 148.0 
1592.072144 108.0 
1700.401001 104.0 
1700.742676 36.0 
1866.506836 32.0 
1884.173828 16.0 
END IONS

