BEGIN IONS
PEPMASS=268.104
CHARGE=1+
COMPOUNDNAME=Massbank:CE000141 Adenosine
LIBRARYQUALITY=3
SMILES=C1=NC2=C(C(=N1)N)N=CN2[C@H]3[C@@H]([C@@H]([C@H](O3)CO)O)O
INCHIKEY=OIRDTQYFTABQOQ-KQYNXXCUSA-N
INCHI=1S/C10H13N5O4/c11-8-5-9(13-2-12-8)15(3-14-5)10-7(18)6(17)4(1-16)19-10/h2-4,6-7,10,16-18H,1H2,(H2,11,12,13)/t4-,6-,7-,10-/m1/s1
MSLEVEL=2
SOURCE_INSTRUMENT=ESI-LC-ESI-ITFT
FILENAME=Massbank_ESI_positive_8_1_2014_peaks.mgf
SEQ=*..*
IONMODE=Positive
ORGANISM=MASSBANK
NAME=Massbank:CE000141 Adenosine [M+H]+
PI=Putative Massbank Match
DATACOLLECTOR=Massbank
PUBMED=N/A
SUBMITUSER=mwang87
TAGS=
SPECTRUMID=CCMSLIB00000205725
SCANS=985
76.889679 1272.058838 
84.847641 1185.714111 
85.061523 1164.834106 
88.243225 1236.053223 
89.129616 1216.543701 
107.67614 1196.962036 
117.362427 1141.381104 
135.837326 1970.979492 
135.876007 1705.220825 
135.888596 5803.058594 
135.901169 2412.754395 
135.944748 2102.443115 
135.953949 1284.867188 
135.992172 7659.350098 
136.004837 3296.445312 
136.029495 1421.702148 
136.038086 7320.69043 
136.046188 3953.541504 
136.061569 1122434.625 
136.081741 7027.99707 
136.092056 2526.531982 
136.096832 1487.221802 
136.130493 4095.885986 
136.235352 3134.866455 
143.49205 1004.169006 
154.127411 1334.08252 
157.130829 1202.632812 
180.83725 1149.796143 
182.431793 1148.528564 
201.225113 1304.0354 
213.835785 1172.329834 
219.080322 21386.669922 
226.534546 1213.631714 
237.090912 167800.875 
END IONS

