BEGIN IONS
PEPMASS=1224.83
CHARGE=1+
COMPOUNDNAME=CYCLOSPORINE
LIBRARYQUALITY=3
SMILES=N/A
INCHIKEY=PMATZTZNYRCHOR-KMSBSJHKSA-N
INCHI=InChI=1S/C62H111N11O12/c1-25-27-28-40(15)52(75)51-56(79)65-43(26-2)58(81)67(18)33-48(74)68(19)44(29-34(3)4)55(78)66-49(38(11)12)61(84)69(20)45(30-35(5)6)54(77)63-41(16)53(76)64-42(17)57(80)70(21)46(31-36(7)8)59(82)71(22)47(32-37(9)10)60(83)72(23)50(39(13)14)62(85)73(51)24/h25,27,34-47,49-52,75H,26,28-33H2,1-24H3,(H,63,77)(H,64,76)(H,65,79)(H,66,78)/b27-25+/t40-,41?,42?,43?,44?,45?,46?,47?,49?,50?,51?,52-/m1/s1
MSLEVEL=2
SOURCE_INSTRUMENT=N/A-ESI-QFT
FILENAME=library_mgf.mgf
SEQ=*..*
IONMODE=positive
ORGANISM=MONA
NAME=CYCLOSPORINE [M+Na]+
PI=MoNA
DATACOLLECTOR=MoNA:VF-NPL-QEHF028193
PUBMED=N/A
SUBMITUSER=mwang87
TAGS=
SPECTRUMID=CCMSLIB00004721774
SCANS=28193
85.023354 0.052989 
86.096237 0.104944 
89.914276 0.220399 
92.297119 0.054594 
93.323257 0.192402 
93.706268 0.104752 
93.711739 0.158566 
93.824715 0.051516 
94.318916 0.127812 
94.824158 0.110271 
96.006729 0.142887 
96.1334 0.212489 
96.145454 0.181491 
96.308731 0.065408 
97.478043 0.215479 
98.599083 0.188884 
100.039177 0.174854 
100.111992 10.813793 
100.715744 0.152572 
101.674477 0.231198 
103.405678 0.101838 
103.615639 0.054826 
104.396446 0.135377 
106.393631 0.134632 
110.887344 0.204721 
112.404228 0.224475 
113.457756 0.121499 
113.633621 0.113263 
113.82328 0.136842 
114.09111 0.075236 
114.505722 0.094421 
115.828255 0.128998 
117.894875 0.18803 
118.787956 0.197428 
118.937607 0.121294 
119.502419 0.143707 
119.762466 0.148936 
120.095787 0.074128 
123.030098 0.185487 
123.09137 0.523865 
127.567528 0.159607 
128.106766 1.666675 
128.366135 0.148328 
133.689331 0.090533 
134.466782 0.140645 
136.073761 0.066564 
137.604996 0.123623 
140.133484 0.222123 
142.041168 0.065875 
142.285645 0.257526 
145.268341 0.066401 
145.278641 0.171874 
145.707169 0.176941 
147.130432 0.140027 
150.139587 0.173884 
150.769028 0.16188 
156.101593 0.188372 
156.138077 0.124979 
160.35762 0.215639 
161.395599 0.15755 
161.662994 0.070631 
163.360596 0.150928 
164.121719 0.14887 
165.73671 0.193763 
165.86142 0.159907 
166.122025 0.161615 
168.100922 0.095241 
168.744324 0.200353 
171.148499 0.324676 
173.555222 0.061423 
177.744446 0.237014 
179.114243 0.138541 
181.130447 0.25564 
182.117432 1.169569 
183.010239 0.209002 
184.385345 0.152333 
184.558136 0.166158 
187.167389 0.081635 
193.131439 0.170886 
193.578247 0.217627 
194.655762 0.14504 
196.107483 0.139663 
196.28447 0.13472 
199.144028 1.597474 
202.6548 0.076556 
207.417923 0.055843 
207.776367 0.081756 
209.199997 0.214126 
210.148651 3.665964 
211.151718 0.094185 
212.199432 0.213014 
220.373428 0.098611 
221.12558 1.908373 
224.164108 2.484759 
225.166748 0.097946 
225.253464 0.075526 
227.30423 0.22262 
230.948212 0.149578 
233.578705 0.192609 
235.142029 0.291132 
236.017822 0.253076 
236.579681 0.136344 
238.152847 0.600486 
238.340088 0.069452 
250.321732 0.164565 
251.643997 0.222532 
253.81488 0.167528 
255.409119 0.15328 
257.124603 0.136422 
263.172729 0.156198 
264.167908 5.098171 
265.137939 0.233704 
265.174225 0.091026 
267.497498 0.155021 
270.578949 0.102564 
277.187469 0.102601 
278.183258 0.425561 
279.190552 0.169076 
287.743408 0.06739 
292.199097 11.709054 
293.202393 0.219698 
298.212341 0.227174 
298.871826 0.058197 
302.183136 0.650162 
304.163116 0.505341 
304.187012 1.601008 
305.194 0.466167 
306.178619 2.077102 
306.948975 0.074255 
307.877258 0.078116 
308.06601 0.115961 
308.230072 0.225064 
308.650757 0.13439 
310.173157 2.598025 
318.178711 0.469372 
320.194366 0.500706 
321.189575 0.265314 
321.523346 0.10096 
322.196899 0.114083 
323.204742 13.007465 
323.222656 0.054722 
324.187622 0.21216 
324.20871 0.191986 
330.672607 0.121318 
333.189453 1.044244 
335.204681 0.180826 
336.210724 0.152845 
338.204498 0.85367 
347.204865 0.212341 
349.220398 1.30585 
351.236298 1.946376 
351.405701 0.087389 
360.22583 0.389469 
361.343079 0.224242 
363.236542 2.360494 
368.167938 0.122172 
373.220123 1.654834 
377.251648 48.671543 
378.255371 5.925407 
379.266022 0.330087 
384.032745 0.079599 
384.269745 0.224345 
387.236206 1.517121 
390.728455 0.139599 
391.234406 0.167412 
391.267456 10.2659 
392.271545 0.323091 
394.240662 0.184862 
395.558685 0.16472 
400.068817 0.239583 
402.247589 0.144605 
403.230865 6.561438 
403.352112 0.234057 
405.246124 0.226541 
409.240845 0.323379 
413.128052 0.074719 
414.487701 0.142406 
417.245972 0.186723 
419.226898 0.319621 
419.262268 6.990567 
419.298065 7.833858 
420.261566 0.983412 
421.313873 0.180354 
422.274261 0.541264 
423.256744 2.63847 
427.079468 0.058608 
427.30545 0.143619 
432.257812 2.454635 
433.314148 1.908053 
436.288727 4.640983 
437.272125 0.639113 
446.274841 0.806625 
446.309143 2.587427 
447.293213 0.573782 
448.257416 0.085167 
448.288025 16.845991 
449.291412 1.330111 
450.304413 18.858105 
451.306732 1.142601 
458.274689 0.256989 
460.289093 1.496646 
461.309235 1.044468 
462.304138 2.991366 
464.31839 0.768947 
469.604401 0.065064 
474.343323 0.217207 
476.029449 0.213321 
476.283936 0.474802 
476.319763 7.111898 
477.284332 0.177742 
478.288666 0.152792 
483.27832 0.17 
486.30426 3.056164 
488.281311 0.164353 
488.320557 0.374663 
490.29953 2.764234 
490.335449 46.645702 
491.338348 9.672011 
492.34903 0.290436 
500.324951 0.059908 
502.373352 0.184665 
504.312286 0.526333 
504.350525 17.127769 
505.353851 2.211552 
507.324493 0.871709 
514.335327 0.518179 
515.59137 0.109413 
516.313416 2.380518 
517.347351 0.511207 
518.329285 3.819297 
518.366821 35.541145 
519.328308 1.523803 
519.369568 6.272732 
530.329651 5.308403 
531.362 4.723183 
532.345154 5.392985 
533.342468 3.455198 
535.357178 2.636291 
536.341553 0.945429 
542.32782 0.441793 
542.368713 0.914584 
545.340698 0.372622 
546.361877 1.092536 
547.359558 0.129701 
549.372192 9.787984 
550.376038 0.427802 
557.338501 0.117056 
559.356567 8.933927 
560.360596 0.790116 
561.326843 0.616096 
561.372437 51.644642 
561.420288 0.22323 
562.375427 12.648422 
563.383667 0.83957 
564.372498 0.178153 
570.360962 9.691957 
571.364319 0.490346 
575.388184 68.493248 
576.391907 16.355333 
577.356934 0.294095 
577.402161 10.866822 
577.934875 0.25395 
578.407227 0.85903 
585.371887 8.493241 
589.405273 31.256321 
590.360107 0.067662 
590.406372 7.828113 
599.388611 2.177073 
601.366699 12.882433 
602.36322 1.300467 
603.382751 6.945598 
604.380859 4.276959 
605.382507 0.252611 
607.377197 5.724515 
608.381287 0.912162 
612.448181 0.142797 
615.380066 1.585867 
617.39325 0.587203 
618.395569 0.334651 
620.409363 18.544947 
621.404846 3.64522 
629.400452 0.238685 
630.394226 0.449811 
631.37738 3.29897 
631.450012 2.870275 
633.358826 0.232488 
644.40863 1.49147 
645.416382 0.129373 
646.425293 72.349449 
647.375305 1.86138 
647.428467 21.279453 
648.43811 2.379249 
656.409729 0.788648 
657.425842 2.502159 
658.43335 0.110858 
660.440247 11.757871 
661.445007 1.358381 
669.468262 0.431758 
670.42395 11.699113 
671.426819 4.003385 
672.403076 8.624595 
673.404785 1.459763 
674.417847 1.43868 
675.418091 0.199715 
676.470947 5.306963 
677.475403 0.115289 
683.478943 0.167183 
684.439148 0.578419 
685.43988 0.097851 
686.455566 0.41847 
687.454895 0.314701 
688.473755 15.268977 
689.474609 2.345816 
690.48584 1.526183 
691.441162 0.214911 
692.430664 14.509919 
693.432251 2.888033 
697.458496 1.173632 
698.459045 0.269055 
702.414978 10.679433 
702.487061 8.002338 
703.421631 0.823038 
703.491882 0.575166 
705.462463 32.194897 
706.463989 10.730909 
708.337219 0.427663 
708.546448 0.309526 
708.67981 0.18666 
708.858582 0.108704 
708.948364 0.741552 
714.448853 0.835623 
715.447388 6.456963 
716.459045 2.585062 
717.460754 8.464506 
718.407288 3.161285 
718.471313 0.533113 
719.479614 0.305813 
728.465271 0.756002 
729.482849 0.399927 
730.482056 4.201719 
731.480713 17.902803 
732.48114 3.542408 
740.502625 1.886615 
741.464783 0.065719 
742.481018 0.41814 
742.738098 0.125219 
744.496643 0.259769 
745.493591 0.407061 
747.509277 12.060747 
748.508606 1.94288 
755.478516 0.862204 
755.85791 0.254416 
756.486877 0.536605 
757.502258 0.264012 
759.50824 5.025633 
760.509827 0.403505 
763.460938 0.128844 
768.496094 3.289 
769.498779 0.377533 
773.526062 22.737106 
774.526917 6.434056 
776.497498 0.197234 
783.508484 0.126801 
784.526794 0.468532 
785.481934 0.18237 
786.50293 1.166233 
787.541687 51.583908 
788.543701 17.635021 
789.544312 1.045279 
794.478455 0.075164 
796.967163 0.117643 
797.522949 0.240461 
799.503845 1.452568 
800.501221 1.021109 
801.525024 1.064397 
802.514832 1.247729 
811.53717 1.267974 
813.52124 0.237052 
815.573303 32.123524 
816.572998 9.571095 
817.574341 0.083407 
817.728271 0.246771 
827.535034 0.684989 
828.534485 0.205653 
830.545044 2.381989 
831.544434 0.066137 
832.56189 37.776039 
833.564453 15.696902 
834.563354 0.548123 
839.533691 1.789343 
840.534363 1.187382 
841.553833 0.610518 
842.559265 0.187862 
843.559875 0.464335 
844.564697 0.306267 
854.533936 0.280889 
855.56488 0.546911 
857.541321 1.751775 
858.578735 24.354059 
859.57843 7.858016 
860.583801 0.180412 
868.558838 0.232942 
872.588257 0.194005 
873.54657 0.177937 
874.607727 4.092225 
875.60907 0.664817 
881.617493 1.353922 
884.555176 1.202574 
886.609436 28.169552 
886.695618 0.135327 
887.612183 10.980939 
888.611938 0.275343 
889.575684 0.451813 
890.579895 0.153325 
895.590515 0.283134 
896.59021 8.608797 
897.593567 2.098671 
898.57666 0.172806 
899.63269 0.259143 
900.623779 2.811839 
901.63208 0.119513 
903.596558 2.113498 
904.593933 0.302002 
909.645203 0.951094 
910.64856 0.253778 
912.589905 0.88966 
913.585144 0.942272 
914.601379 1.245739 
915.598755 0.389539 
917.610474 0.40852 
924.600037 0.320885 
925.588806 0.272672 
926.602173 1.248471 
927.598694 0.376182 
928.651428 3.626887 
929.65686 0.109934 
930.636658 0.121203 
931.634521 0.303633 
941.613953 0.30804 
942.590332 0.391122 
945.464355 0.152375 
945.64093 0.887825 
954.629761 0.629873 
955.626221 0.915719 
956.634644 0.258757 
957.641479 7.163087 
958.647461 0.801997 
959.658569 3.881799 
960.665466 0.467625 
966.63385 0.434722 
967.629211 2.04355 
968.624939 0.375114 
969.646301 0.214056 
971.653625 1.529765 
983.614258 0.250112 
985.638184 6.904975 
986.641541 2.093936 
987.690002 0.066094 
997.641479 0.225917 
998.629944 4.098772 
999.685303 0.811659 
1000.684998 0.272177 
1010.664001 0.221621 
1011.663086 0.739272 
1012.651672 1.482706 
1013.711792 19.909019 
1014.710266 9.295352 
1024.207886 0.267332 
1024.652222 0.163795 
1025.706177 0.244622 
1026.630371 4.674627 
1027.654785 0.582027 
1036.66272 0.223873 
1040.696045 0.338818 
1041.684692 0.587724 
1051.684692 4.95667 
1052.688599 2.080768 
1053.704956 0.175078 
1054.668945 0.232573 
1065.696655 0.20657 
1067.716064 0.196846 
1079.7229 0.184751 
1080.707764 1.764601 
1081.706421 0.414233 
1084.745361 100.0 
1085.747437 53.317848 
1086.746582 9.619843 
1092.713501 0.16252 
1094.724365 0.102982 
1107.779419 0.248911 
1108.731201 3.000065 
1109.737061 0.396443 
1112.73938 36.392548 
1113.741455 19.764769 
1114.741943 1.521258 
1125.781738 0.072681 
1136.734497 3.301089 
1137.738159 0.362104 
1178.817017 6.230681 
1179.820679 3.584479 
1196.829102 1.451781 
1197.832886 0.240731 
1206.813477 1.426396 
1207.816528 0.580136 
1224.816895 0.207431 
END IONS

