BEGIN IONS
PEPMASS=281.175
CHARGE=1+
COMPOUNDNAME=(1R,2E,7R,10E,12S,13S,15R)-12,15-dihydroxy-7-methyl-8-oxabicyclo[11.3.0]hexadeca-2,10-dien-9-one
LIBRARYQUALITY=3
SMILES=N/A
INCHIKEY=KQNZDYYTLMIZCT-SWGFJCPHSA-N
INCHI=InChI=1S/C16H24O4/c1-11-5-3-2-4-6-12-9-13(17)10-14(12)15(18)7-8-16(19)20-11/h4,6-8,11-15,17-18H,2-3,5,9-10H2,1H3/b6-4+,8-7+/t11-,12+,13-,14+,15+/m1/s1
MSLEVEL=2
SOURCE_INSTRUMENT=N/A-ESI-QFT
FILENAME=library_mgf.mgf
SEQ=*..*
IONMODE=positive
ORGANISM=MONA
NAME=(1R,2E,7R,10E,12S,13S,15R)-12,15-dihydroxy-7-methyl-8-oxabicyclo[11.3.0]hexadeca-2,10-dien-9-one [M+H]+
PI=MoNA
DATACOLLECTOR=MoNA:VF-NPL-QEHF022882
PUBMED=N/A
SUBMITUSER=mwang87
TAGS=
SPECTRUMID=CCMSLIB00004713945
SCANS=22882
53.002548 0.512075 
53.03894 0.253418 
53.275627 0.022509 
54.212479 0.049386 
54.30809 0.035958 
55.016888 0.024974 
55.018185 2.97355 
55.054562 7.901955 
55.495342 0.027937 
56.049847 0.150927 
56.055313 0.033631 
56.415951 0.045125 
56.965092 0.191024 
57.033798 2.635163 
57.070187 5.851651 
57.334614 0.025638 
57.506935 0.033482 
58.065414 0.473413 
58.111305 0.021281 
59.049419 1.046068 
59.094849 0.118731 
60.780949 0.027341 
60.823524 0.026961 
61.010914 9.785562 
61.028652 0.282154 
61.953617 0.029848 
62.010273 0.16436 
62.014244 0.954811 
62.018681 1.74112 
62.094662 0.046142 
62.200699 0.036313 
62.990166 0.122217 
63.006653 2.818963 
63.026581 0.050905 
64.320457 0.028985 
64.376045 0.029684 
64.530853 0.045148 
65.038811 0.32957 
65.230171 0.042654 
65.278999 0.031626 
65.355347 0.028424 
67.054398 21.160694 
67.661949 0.024092 
68.057693 0.75047 
69.0336 1.743386 
69.070007 9.06806 
70.065254 0.428845 
70.073387 0.027288 
71.012871 0.188768 
71.049217 2.535332 
71.085594 2.819523 
71.271942 0.023934 
71.304268 0.030364 
71.785217 0.030291 
72.041496 0.022959 
72.080841 0.4376 
72.101234 0.021201 
72.653442 0.022865 
72.705872 0.024776 
72.732559 0.022302 
72.937119 0.071751 
73.028473 4.760088 
73.046898 0.598582 
73.06485 0.856046 
73.113487 0.03192 
74.023743 0.050253 
74.060066 0.452799 
74.261398 0.031804 
74.897163 0.023047 
76.116493 0.035357 
77.051659 0.037512 
77.162163 0.027398 
77.663895 0.036851 
78.013435 4.699057 
78.650963 0.031148 
79.021248 2.818863 
79.054276 11.698412 
79.118652 0.052121 
80.057602 0.300209 
80.264511 0.028074 
80.676247 0.037742 
80.841393 0.021903 
81.016991 0.114054 
81.033562 3.225996 
81.069946 37.264526 
82.065147 0.504393 
82.073288 2.343598 
82.93837 0.027472 
83.012871 0.391138 
83.021606 0.136337 
83.04921 2.659381 
83.085564 8.581247 
84.04454 0.044579 
84.080803 1.485122 
84.088936 0.128519 
85.028419 1.743523 
85.064842 1.360274 
85.098679 0.054264 
85.101212 2.570864 
85.816864 0.038049 
86.060326 0.298977 
86.096428 0.568805 
87.044128 4.768107 
87.441498 0.030044 
87.487625 0.025771 
88.036705 0.030741 
88.03933 1.047997 
88.047493 0.023913 
88.883255 0.107696 
89.054855 0.080604 
89.059746 100.0 
90.947617 0.056913 
91.038971 0.032605 
91.051239 0.234867 
91.054291 13.313432 
91.057388 2.327245 
91.060486 0.031827 
92.057587 1.24026 
92.779358 0.031994 
92.98262 0.027687 
93.033569 0.388828 
93.069939 17.923588 
93.922226 0.033233 
94.073311 0.986148 
95.046074 0.150158 
95.049179 4.819961 
95.085587 35.841133 
96.0439 0.022243 
96.051956 0.115525 
96.088921 2.748191 
97.028496 0.238481 
97.064827 1.765007 
97.101219 4.372157 
97.135521 0.026244 
97.34214 0.029179 
97.874771 0.02882 
98.060165 0.111106 
98.104622 0.028642 
98.126961 0.023471 
98.370735 0.042683 
98.975357 0.247033 
99.007736 14.334663 
99.044113 0.532011 
99.080505 9.227007 
99.948021 0.033951 
100.011002 0.305763 
100.075752 0.183284 
100.083878 0.205611 
101.003174 0.202308 
101.023399 9.807752 
101.059769 0.36143 
102.026741 0.336712 
102.055 0.034082 
102.460609 0.02267 
103.03904 0.477439 
103.054283 0.680641 
103.075287 0.022307 
104.992416 1.441002 
105.033249 0.025556 
105.044716 0.153883 
105.069977 17.386187 
105.917336 0.020575 
106.073242 1.415383 
107.04921 3.336854 
107.070267 1.861497 
107.081703 0.240372 
107.085571 13.455618 
107.444305 0.050897 
108.052635 0.074858 
108.088882 0.896112 
108.958557 0.020794 
109.02845 2.177067 
109.064812 2.084324 
109.101257 8.998979 
109.922829 0.038768 
110.096519 0.221295 
110.10463 0.379061 
110.939163 0.024253 
111.044106 3.176315 
111.080467 1.952436 
111.11692 0.440078 
111.240974 0.044268 
112.047577 0.025516 
112.31752 0.027954 
112.761566 0.065852 
113.059685 2.296309 
113.096138 3.154386 
114.091652 0.185258 
115.054359 0.502239 
115.075638 0.049689 
116.000496 1.07124 
116.052872 0.357211 
116.07077 0.057307 
116.984703 1.068709 
117.069939 14.448254 
117.317757 0.108284 
117.979988 0.021038 
118.001625 0.363203 
118.073341 0.966169 
119.049171 1.776939 
119.085625 12.764007 
120.00042 0.032022 
120.080795 1.663808 
120.08876 0.69473 
121.028465 0.630925 
121.064835 5.303423 
121.084274 0.121832 
121.101196 12.444742 
122.031334 0.032963 
122.068085 0.187245 
122.096321 0.033338 
122.104546 0.927801 
122.939194 0.354252 
123.044014 2.021471 
123.08046 1.991918 
123.112114 0.175058 
123.116852 4.891683 
123.928581 0.029006 
123.947006 0.139519 
124.1203 0.086914 
125.023407 0.273304 
125.059647 0.205041 
125.096115 1.418681 
126.091515 0.023788 
127.038963 1.977527 
127.112251 0.065981 
128.06282 0.057326 
128.107056 0.201499 
128.933624 0.291822 
128.963959 0.023269 
129.054672 0.209786 
129.069916 8.621205 
129.533646 0.031959 
130.073303 0.435645 
130.086487 0.034569 
130.929092 0.033813 
131.049042 0.698294 
131.054611 0.028016 
131.060593 0.063696 
131.070312 0.173066 
131.085541 14.282029 
131.467468 0.032052 
132.088898 1.344718 
132.958572 0.023403 
133.017212 0.209438 
133.064819 13.076554 
133.085953 22.490995 
133.101181 10.845607 
133.948334 0.02218 
134.068161 0.929709 
134.096466 0.176139 
134.104385 0.811438 
134.109283 0.907695 
134.956192 0.028232 
134.978775 0.148413 
134.995331 0.11598 
135.044083 0.777938 
135.080414 6.162331 
135.116837 4.02474 
136.075851 0.557662 
136.083939 0.070423 
136.112762 0.02449 
136.120483 0.118697 
136.706451 0.021536 
136.953873 0.025213 
137.059784 2.540579 
137.096085 1.008547 
137.132462 0.954168 
138.915726 0.178339 
138.969681 0.021555 
139.024551 0.032765 
139.033188 0.09644 
139.039047 9.137428 
139.045959 0.022791 
139.051544 1.572637 
139.075363 1.435646 
139.111206 0.197909 
139.49205 0.024311 
139.553299 0.408531 
140.042511 0.271843 
140.912949 0.806258 
141.054642 1.619977 
141.069733 0.053864 
141.920868 0.11125 
141.979858 0.106718 
142.913208 0.030162 
142.941483 0.111538 
143.079681 0.030586 
143.085632 9.877777 
144.081848 0.028636 
144.088867 0.767257 
144.650558 0.023215 
145.064911 2.120004 
145.101212 7.647874 
145.966492 0.103361 
146.104172 0.40171 
146.974411 0.241424 
147.044159 1.27932 
147.080521 6.2197 
147.116913 4.297084 
148.056976 0.077638 
148.075943 0.024511 
148.083817 0.192481 
148.120331 0.063363 
148.972824 0.039135 
149.02359 2.138858 
149.059814 6.309808 
149.096191 1.453709 
149.132523 2.924016 
149.953979 0.032947 
150.026642 0.443844 
150.063202 0.399947 
150.136063 0.02815 
150.95108 2.736833 
150.96907 0.155801 
151.027725 0.086859 
151.039261 0.300157 
151.075439 5.703957 
151.096603 0.39386 
151.111786 0.618142 
151.951431 0.027735 
151.958939 0.145801 
152.078873 0.262302 
152.107239 0.030944 
152.951508 0.570043 
152.966965 0.16065 
152.989395 0.118853 
153.054581 0.031494 
153.091171 0.033937 
153.126801 0.022884 
153.939133 1.70377 
153.959442 0.289418 
154.946945 0.187237 
154.966232 0.023711 
155.085693 0.852168 
155.936401 5.181365 
155.95488 0.475633 
156.965088 0.203972 
157.049744 0.912054 
157.06488 2.011854 
157.101273 12.394039 
157.139038 0.033436 
157.311661 0.050195 
157.581207 0.032049 
157.724625 0.022436 
157.936325 0.793736 
157.952103 0.134403 
158.104523 1.366337 
158.923477 0.346576 
158.932602 0.054729 
158.944427 0.59868 
158.953629 2.972369 
158.96109 0.481558 
158.976578 0.083682 
159.006348 0.13997 
159.030121 0.026481 
159.080627 1.680157 
159.116882 10.429355 
159.952499 0.057909 
159.990372 2.724705 
160.075714 0.028152 
160.125473 2.562387 
160.943604 0.046646 
160.951721 23.000477 
161.059784 3.186174 
161.096054 2.868242 
161.132721 3.358828 
161.732269 0.04134 
161.955261 0.061089 
162.44606 0.123739 
162.94751 0.510874 
162.969788 0.211336 
162.990326 0.06847 
163.027603 0.090652 
163.075516 3.047483 
163.111801 0.401023 
163.148178 6.861832 
163.959045 0.297445 
163.967224 0.060087 
163.977264 0.247855 
164.107422 0.034653 
164.151627 0.741767 
164.920486 0.247516 
164.967987 0.025919 
164.985596 0.984178 
165.054657 1.691499 
165.091248 1.392699 
165.163467 0.164231 
165.9384 0.557888 
166.08609 0.060383 
166.123108 0.025368 
167.070419 2.334356 
167.085678 0.558968 
167.117752 0.06172 
168.065491 0.154413 
168.961777 1.200544 
169.101135 0.446661 
170.917404 0.033702 
170.944336 0.207261 
170.961166 0.399488 
171.080566 2.098819 
171.091583 0.03829 
171.116989 4.311259 
171.536896 0.10785 
171.949524 0.95844 
172.115372 0.521504 
172.940674 0.067112 
172.957596 0.029164 
172.975449 0.029195 
173.096252 0.454613 
173.132599 3.11878 
173.947052 3.288374 
174.006088 0.056775 
174.135864 0.109628 
174.975479 1.136275 
175.027115 0.029776 
175.075546 4.367113 
175.112045 1.070021 
175.148346 2.117572 
175.490631 0.022956 
175.947037 0.416027 
175.959015 0.468229 
175.978592 0.155351 
176.079071 0.091291 
176.151489 0.034095 
176.954742 0.256865 
176.971344 0.437848 
176.987656 0.088909 
177.04364 0.261524 
177.091217 1.321308 
177.112183 1.439783 
177.127335 0.776685 
178.000839 2.196375 
178.950256 0.077588 
178.984467 0.295922 
179.001434 0.029656 
179.07045 1.091395 
179.106644 0.310682 
179.953964 0.110752 
180.961792 0.645665 
180.980301 0.987537 
181.000458 0.23002 
181.086731 0.150559 
181.101257 0.763852 
181.123383 0.034478 
181.158417 0.033752 
181.969498 0.024259 
182.004105 0.028811 
182.614761 0.033876 
182.977844 0.04055 
182.995941 1.782295 
183.080124 0.064649 
183.11705 1.631304 
183.32608 0.033131 
183.948944 0.171782 
184.993256 0.023949 
185.096237 2.129853 
185.132629 10.342788 
185.929459 0.082781 
185.961624 5.478919 
186.136017 1.265138 
186.928024 0.285809 
186.962677 0.061837 
187.111893 0.109284 
187.148209 0.691214 
187.928101 0.107764 
187.958817 0.037318 
187.97731 1.584521 
188.021713 0.031624 
188.927429 0.265718 
188.954834 0.778464 
189.091324 3.229259 
189.12738 0.273087 
189.163956 3.273811 
189.373383 0.140659 
189.725098 0.029225 
189.942093 0.028811 
189.958023 0.101945 
189.998428 0.555553 
190.085068 0.032146 
190.167374 0.031031 
190.925125 0.025943 
190.950836 0.193947 
191.002563 0.066097 
191.106644 0.027157 
191.142914 0.025623 
191.94046 0.025934 
191.998627 0.061476 
192.496658 0.030458 
192.961899 0.095868 
192.999908 0.028747 
193.086121 0.286991 
193.969299 0.113848 
195.101501 0.194605 
195.122818 0.148948 
197.131805 0.030919 
199.111923 0.771182 
199.148178 16.126606 
199.957291 0.068947 
200.151657 2.416849 
200.954987 2.130076 
201.12764 0.51318 
201.16391 0.32569 
201.929779 0.076505 
201.957932 1.275758 
202.951843 2.887843 
203.106949 1.734153 
203.143234 1.192431 
203.886505 0.241183 
203.954697 0.16542 
204.174728 0.081134 
204.951553 0.755578 
205.038986 0.105487 
205.122742 0.074848 
205.970779 0.032561 
205.987732 7.816918 
206.977798 0.361627 
206.988586 0.50533 
207.147018 0.03099 
208.132736 0.432056 
208.246048 0.037863 
209.031998 0.228559 
209.13266 1.515054 
209.964279 0.344418 
215.566254 0.169572 
215.575851 0.702256 
215.587509 0.598415 
216.136703 0.041662 
216.173889 0.029685 
216.965347 0.114048 
217.122192 0.329034 
217.158752 5.244416 
217.170074 0.933522 
217.942841 0.614649 
217.967987 0.406386 
217.994293 0.02934 
218.162231 0.596376 
218.946289 0.064755 
218.965408 4.439976 
218.979263 0.149725 
219.137634 0.24779 
219.174576 1.069114 
219.901215 0.106114 
219.939713 2.406023 
219.967529 2.933562 
219.98056 0.235879 
220.018814 0.156233 
220.169312 0.781634 
220.673401 0.029364 
220.942657 0.071958 
220.96167 3.625897 
220.979477 0.472384 
221.01474 0.206592 
221.033066 0.335496 
221.153961 0.12026 
221.173798 0.079212 
221.896652 6.675887 
221.939713 0.652966 
221.965103 0.066266 
222.018585 0.18609 
222.121567 0.267267 
222.156937 0.049407 
222.185593 0.577467 
222.898758 0.636804 
222.962036 0.328047 
227.143143 3.666324 
227.902527 0.05696 
228.146179 0.230091 
233.988297 1.059811 
235.169403 0.290517 
235.180603 0.338272 
236.05925 0.175045 
236.919525 0.024516 
237.028046 0.029856 
237.950516 0.172991 
238.987396 0.246207 
239.044662 0.024771 
239.058487 0.06546 
239.148849 0.097375 
239.90155 0.451554 
240.231766 0.02821 
240.268692 0.063739 
240.909119 0.84574 
241.122375 0.517613 
242.910019 0.235952 
245.055786 0.179072 
245.153564 7.110348 
245.226273 0.084725 
246.157181 0.88882 
247.241882 0.063344 
247.980408 0.186712 
249.121307 0.043515 
250.17775 87.649261 
251.181274 6.663061 
252.089508 0.132926 
253.097183 0.028695 
253.121613 0.181859 
253.554276 0.024722 
262.144318 0.027657 
262.180542 0.140066 
263.164001 1.867246 
263.212921 0.026329 
264.159363 0.600182 
264.195221 1.284407 
265.020111 1.160943 
265.99118 4.137702 
266.999695 2.661402 
267.999512 0.208366 
268.081757 0.043263 
268.979034 1.143709 
268.995026 0.081408 
269.014954 0.728861 
270.015137 0.028704 
270.958618 0.032829 
270.994049 0.805197 
271.297302 0.034887 
279.149414 0.506 
279.168274 0.032739 
279.204681 1.216279 
279.915375 0.029585 
279.994293 0.074275 
280.096771 1.270009 
280.133698 0.067122 
280.152679 1.316156 
280.170563 0.138414 
280.190063 1.246079 
280.207855 0.645245 
280.226471 0.368681 
280.263519 0.447913 
281.014954 1.411345 
281.051208 4.705064 
281.095001 0.16814 
281.116302 0.111244 
281.129852 0.323061 
281.147949 1.304808 
281.165131 1.360017 
281.194702 0.110055 
281.222687 0.164422 
281.24707 0.07038 
281.295105 0.388332 
281.912231 0.918666 
282.014771 0.121117 
282.050232 1.196803 
282.113068 0.79869 
282.134216 0.15288 
282.152161 0.26305 
282.168732 0.724137 
282.189056 0.15408 
282.20462 7.125799 
282.222229 0.363988 
282.242493 0.235156 
282.279205 1.077369 
282.99408 6.284765 
283.030426 19.249748 
283.10849 0.191633 
283.146942 0.112528 
283.18222 2.102261 
283.20755 0.363684 
283.263123 7.076492 
283.279022 0.080442 
284.030609 4.362864 
285.010223 0.769008 
285.028229 1.642238 
289.00473 0.080349 
298.109039 0.139224 
298.452362 0.055421 
299.061951 58.382076 
299.69986 0.038088 
300.062347 15.239132 
300.126709 0.024189 
300.148407 1.138113 
301.058594 6.049147 
301.111023 0.029595 
302.818848 0.128338 
END IONS

