BEGIN IONS
PEPMASS=270.5
CHARGE=1+
COMPOUNDNAME=Massbank:KO002246 Apramycin sulfate|Apramycin
LIBRARYQUALITY=3
SMILES=OC[C@@H](O1)[C@@H](N)[C@H](O)[C@@H](O)[C@H]1O[C@H](O2)[C@@H](NC)[C@@H](O)[C@@H](O3)[C@@H](C[C@@H](N)[C@@H](O[C@H]([C@@H](N)4)[C@H](O)[C@@H](O)[C@H](N)C4)3)2
INCHIKEY=XZNUGFQTQHRASN-UXNWEDNLSA-N
INCHI=1S/C21H41N5O11/c1-26-11-14(30)18-8(33-20(11)37-21-16(32)13(29)10(25)9(4-27)34-21)3-7(24)19(36-18)35-17-6(23)2-5(22)12(28)15(17)31/h5-21,26-32H,2-4,22-25H2,1H3/t5-,6+,7-,8-,9-,10-,11+,12+,13+,14-,15-,16-,17-,18+,19+,20+,21-/m1/s1
MSLEVEL=2
SOURCE_INSTRUMENT=ESI-LC-ESI-QQ
FILENAME=Massbank_ESI_positive_8_1_2014_peaks.mgf
SEQ=*..*
IONMODE=Positive
ORGANISM=MASSBANK
NAME=Massbank:KO002246 Apramycin sulfate|Apramycin [M+2H]++
PI=Putative Massbank Match
DATACOLLECTOR=Massbank
PUBMED=N/A
SUBMITUSER=mwang87
TAGS=
SPECTRUMID=CCMSLIB00000216983
SCANS=8048
43.9 94059.5 
44.1 84158.5 
46.2 9901.0 
53.3 39604.0 
55.3 168317.0 
56.1 618812.5 
57.3 301980.5 
60.2 2267329.0 
61.2 89109.0 
64.8 39604.0 
67.3 163366.5 
68.0 2024754.5 
69.3 900991.0 
70.1 638614.5 
71.1 311881.5 
72.1 1970299.0 
73.0 391089.5 
74.0 826733.5 
78.4 14851.5 
80.2 554456.0 
80.9 866337.5 
82.2 1425744.0 
83.4 534654.0 
84.1 3534657.0 
85.1 1004951.5 
86.0 1415843.0 
87.3 128713.0 
88.2 128713.0 
90.3 633664.0 
90.9 49505.0 
92.2 346535.0 
93.0 84158.5 
94.4 376238.0 
95.1 148515.0 
96.2 1856437.5 
96.9 569307.5 
97.9 1168318.0 
99.0 143564.5 
100.1 301980.5 
100.7 128713.0 
101.9 1717823.5 
102.7 54455.5 
103.3 34653.5 
104.1 29703.0 
105.9 113861.5 
107.3 69307.0 
107.9 544555.0 
109.1 643565.0 
110.3 1732675.0 
111.2 1287130.0 
112.4 287129.0 
114.0 396040.0 
116.0 445545.0 
118.0 153465.5 
118.5 29703.0 
120.2 84158.5 
121.2 128713.0 
122.3 301980.5 
123.0 158416.0 
124.3 410891.5 
126.2 831684.0 
127.9 396040.0 
128.7 59406.0 
131.8 29703.0 
132.9 59406.0 
135.1 247525.0 
136.2 272277.5 
137.8 79208.0 
138.3 133663.5 
140.4 168317.0 
142.4 198020.0 
144.3 465347.0 
145.0 658416.5 
146.1 242574.5 
146.9 49505.0 
148.1 34653.5 
149.3 39604.0 
150.0 153465.5 
152.1 163366.5 
153.4 89109.0 
154.3 113861.5 
157.1 39604.0 
157.8 59406.0 
160.1 24752.5 
162.3 232673.5 
163.3 1143565.5 
164.3 148515.0 
166.9 39604.0 
168.2 173267.5 
173.3 69307.0 
174.5 24752.5 
176.2 44554.5 
181.3 69307.0 
185.3 34653.5 
186.9 29703.0 
199.3 193069.5 
200.4 59406.0 
201.5 64356.5 
206.1 14851.5 
212.3 19802.0 
215.9 9901.0 
217.3 391089.5 
217.8 39604.0 
225.5 49505.0 
229.0 14851.5 
253.1 49505.0 
271.3 34653.5 
END IONS

