BEGIN IONS
PEPMASS=268.104
CHARGE=1+
COMPOUNDNAME=Adenosine
LIBRARYQUALITY=3
SMILES=N/A
INCHIKEY=OIRDTQYFTABQOQ-KQYNXXCUSA-N
INCHI=InChI=1S/C10H13N5O4/c11-8-5-9(13-2-12-8)15(3-14-5)10-7(18)6(17)4(1-16)19-10/h2-4,6-7,10,16-18H,1H2,(H2,11,12,13)/t4-,6-,7-,10-/m1/s1
MSLEVEL=2
SOURCE_INSTRUMENT=N/A-ESI-QFT
FILENAME=library_mgf.mgf
SEQ=*..*
IONMODE=positive
ORGANISM=MONA
NAME=Adenosine [M+H]+
PI=MoNA
DATACOLLECTOR=MoNA:VF-NPL-QEHF000393
PUBMED=N/A
SUBMITUSER=mwang87
TAGS=
SPECTRUMID=CCMSLIB00004691456
SCANS=393
50.386772 0.025184 
52.334366 0.023513 
52.73428 0.018286 
52.838997 0.014796 
52.965069 0.014176 
53.32663 0.020851 
54.012028 0.020805 
54.261196 0.01978 
54.312756 0.021145 
55.018608 1.112708 
55.034775 0.015601 
55.629379 0.016631 
55.935146 0.376424 
56.165005 0.014334 
56.627491 0.148705 
56.628483 0.151071 
56.630287 0.118009 
56.631622 0.031011 
56.943241 0.014728 
56.944588 0.009657 
56.965519 0.153674 
57.034233 1.765781 
57.982494 0.019167 
58.413754 0.017821 
59.049835 0.014803 
59.18354 0.016524 
59.996784 0.019378 
60.081715 0.013667 
60.767281 0.023514 
61.011387 7.388965 
61.013153 0.020191 
61.029118 0.317464 
61.451534 0.019522 
62.014633 0.038945 
62.01918 0.243824 
63.007137 0.235857 
63.027004 0.244979 
64.209206 0.015437 
64.720467 0.021095 
64.833893 0.011691 
66.545265 0.019748 
68.464607 0.020184 
68.963242 0.083705 
69.034149 0.778038 
69.45594 0.018549 
69.96154 0.048204 
70.133675 0.010354 
70.228371 0.013018 
70.958496 3.071508 
71.01339 0.625177 
71.524536 0.012257 
71.929947 0.090102 
72.752876 0.025397 
72.937759 1.161998 
73.029053 0.624206 
73.444527 0.0109 
74.137703 0.012223 
75.946007 0.027278 
78.774895 0.016096 
79.118004 0.020999 
80.63076 0.018296 
80.660767 0.024705 
83.29744 0.013599 
85.028908 0.73046 
86.032486 0.013238 
86.064598 0.013454 
86.586067 0.016476 
87.907013 0.179393 
88.968918 0.623668 
89.940331 0.146269 
90.948151 0.761936 
91.054718 0.064135 
93.07029 0.469445 
94.040413 0.948528 
97.028908 0.030322 
98.008934 0.018007 
98.39563 0.019964 
98.975746 1.564207 
101.230843 0.02578 
102.782166 0.012739 
102.930428 0.014314 
102.948204 0.053108 
104.963814 0.051848 
105.246216 0.019817 
105.917336 0.318902 
108.372078 0.016714 
108.958672 0.02874 
109.051216 0.05714 
110.292732 0.011704 
112.234261 0.010866 
114.590492 0.011573 
114.766022 0.014604 
115.039078 0.025774 
116.669945 0.012592 
116.680962 0.023663 
116.909355 0.017985 
116.986145 1.054163 
117.917152 0.060156 
118.925125 0.063987 
119.035439 1.879695 
120.940704 0.557641 
122.941017 0.294541 
124.112259 0.524786 
125.201004 0.011553 
126.518089 0.022051 
131.961395 0.240585 
132.556473 0.020985 
132.958282 2.722463 
133.94841 0.493439 
134.92009 0.080053 
134.956268 0.200797 
134.996613 0.217263 
135.927643 0.136385 
135.96666 0.027073 
136.053116 0.023128 
136.061768 100.0 
137.045792 1.682429 
137.058823 1.844615 
137.065109 5.39311 
137.927841 0.100386 
138.077454 0.012145 
138.951004 0.15611 
140.185715 0.011289 
146.976303 0.355217 
147.975128 0.08037 
148.971832 7.313302 
149.737381 0.021545 
149.960968 0.282673 
149.972046 0.470587 
150.07753 0.08106 
150.95105 0.325909 
150.968689 3.087393 
151.022659 0.010825 
151.958878 0.285296 
152.930161 0.014517 
152.95134 0.213247 
152.967529 0.266177 
153.893356 0.024452 
153.959366 1.423793 
153.965866 0.019254 
154.947296 0.060959 
155.954712 0.523782 
157.951981 0.027042 
162.872711 0.011197 
163.36116 0.024244 
163.996902 0.012382 
164.065125 0.011929 
165.93808 0.133741 
166.333618 0.02526 
166.545349 0.011635 
166.982376 1.535938 
166.989609 0.035453 
167.971481 0.063898 
168.555161 0.022282 
171.90416 0.071856 
173.824493 0.012055 
177.754837 0.022567 
177.938263 0.592079 
180.314514 0.010809 
185.949127 0.305436 
187.944519 0.021602 
191.921585 0.016687 
192.961731 0.125283 
194.952225 0.022169 
195.948669 0.867154 
204.998016 0.025561 
206.457535 0.012965 
207.991531 0.084846 
210.971832 0.148699 
220.225952 0.022946 
220.239731 0.114847 
220.249863 0.044921 
220.25708 0.053117 
232.437241 0.020097 
240.167572 0.020177 
240.692169 0.011156 
258.547668 0.023635 
272.346619 0.012096 
275.872559 0.023698 
END IONS

