BEGIN IONS
PEPMASS=369.11
CHARGE=1+
COMPOUNDNAME=Gibberellin A4&A7
LIBRARYQUALITY=3
SMILES=N/A
INCHIKEY=SEEGHKWOBVVBTQ-UKJRIFTCSA-N
INCHI=InChI=1S/C19H22O5/c1-9-7-18-8-10(9)3-4-11(18)19-6-5-12(20)17(2,16(23)24-19)14(19)13(18)15(21)22/h5-6,10-14,20H,1,3-4,7-8H2,2H3,(H,21,22)/t10-,11-,12+,13-,14-,17+,18+,19-/m1/s1
MSLEVEL=2
SOURCE_INSTRUMENT=N/A-ESI-QFT
FILENAME=library_mgf.mgf
SEQ=*..*
IONMODE=positive
ORGANISM=MONA
NAME=Gibberellin A4&A7 [M+K]+
PI=MoNA
DATACOLLECTOR=MoNA:VF-NPL-QEHF006597
PUBMED=N/A
SUBMITUSER=mwang87
TAGS=
SPECTRUMID=CCMSLIB00004697660
SCANS=6597
50.406982 0.074241 
50.617119 0.116559 
52.322803 0.176133 
52.4678 0.133472 
52.70385 0.171386 
53.002979 1.531691 
53.039383 2.885831 
54.105724 0.158287 
54.697117 0.140486 
54.821335 0.164766 
54.875446 0.132848 
55.018642 10.246634 
55.055004 42.756348 
56.021984 0.147149 
56.050255 2.574663 
56.058296 0.977547 
56.440952 0.088297 
56.491329 0.165669 
56.965546 7.817631 
57.034286 2.881575 
57.070644 44.82877 
57.072254 0.302176 
57.960331 0.084477 
58.065895 24.078138 
58.07399 1.101337 
58.166222 0.169911 
58.221169 0.174796 
58.407665 0.137644 
58.72076 0.173683 
59.049915 1.963032 
59.061165 0.469002 
59.069302 0.179968 
60.045193 0.221141 
60.081516 100.0 
60.499645 0.073083 
60.859245 0.105058 
61.011368 1.014448 
61.084915 2.809384 
61.348015 0.180592 
61.516289 0.145566 
62.010384 0.08669 
62.019264 0.059712 
62.982449 0.957764 
62.990383 0.170068 
64.721497 0.083185 
65.039352 1.882672 
65.193298 0.05428 
66.652321 0.10553 
66.98484 0.181442 
67.054916 42.426014 
67.325539 0.15424 
67.522057 0.112543 
68.050186 0.44765 
68.05822 0.62339 
68.525948 0.15847 
68.997711 0.074558 
69.03421 4.784461 
69.070549 21.676563 
70.029381 0.339901 
70.03743 0.07855 
70.065826 4.175368 
70.073814 0.203764 
70.124092 0.129182 
71.04982 4.641751 
71.086197 17.599041 
71.935928 0.175567 
72.045074 0.168581 
72.081467 0.156142 
72.0895 0.231024 
73.02903 0.174462 
73.047478 4.7612 
73.065491 0.413188 
73.839577 0.100697 
76.300446 0.116947 
76.731743 0.059117 
77.80896 0.058197 
78.783966 0.071713 
79.021729 1.465926 
79.05481 35.673534 
79.666168 0.066479 
79.89785 0.064718 
80.050117 0.847183 
80.058159 1.242968 
81.007423 0.124653 
81.034065 3.274156 
81.070442 37.855537 
81.38549 0.196484 
81.889572 0.14737 
82.012138 0.06575 
82.065727 3.162454 
82.073807 1.201404 
82.370712 0.200797 
83.013283 0.137576 
83.049736 7.118385 
83.086082 10.918415 
83.827309 0.188939 
84.044914 1.854221 
84.081352 2.280381 
84.540749 0.156742 
85.029037 1.008105 
85.040138 0.056804 
85.065399 1.886195 
85.101784 3.61068 
85.938469 0.08794 
86.060616 0.557725 
86.096901 2.090162 
86.276108 0.154992 
86.869591 0.166834 
87.04464 0.855476 
87.362732 0.242025 
87.886459 0.165093 
88.076164 0.18715 
88.203049 0.153458 
89.060326 0.062254 
91.05471 33.917152 
91.057877 20.458889 
91.737885 0.055222 
92.058067 1.848203 
93.033989 0.087784 
93.070328 28.213242 
93.073372 0.115825 
93.542458 0.170967 
93.875259 0.177628 
94.065598 1.708422 
94.073708 0.776483 
94.521133 0.120684 
95.049583 13.105807 
95.052742 0.123769 
95.060722 0.070892 
95.085991 28.942753 
96.044846 0.702682 
96.052933 0.107771 
96.081047 0.754518 
96.089233 0.950676 
96.160622 0.082431 
96.33802 0.119154 
96.940369 0.201496 
97.028915 0.333516 
97.065216 5.542413 
97.101585 2.960276 
97.132904 0.085883 
98.060425 0.572017 
98.096779 0.235875 
98.97583 0.178813 
99.044395 0.576287 
99.058022 0.060455 
99.080879 0.679051 
100.076035 1.272136 
100.112473 0.299162 
100.694092 0.071034 
100.742546 0.201672 
100.819176 0.076548 
101.060089 0.615089 
102.091866 0.135938 
102.921844 0.236778 
103.054665 2.189591 
105.033989 0.543966 
105.044991 0.518734 
105.070198 23.164465 
105.073822 0.549329 
106.06543 0.683407 
106.07354 1.135187 
106.203224 0.140599 
107.049507 5.191192 
107.073196 0.17881 
107.085899 15.948373 
107.82888 0.052604 
108.044647 0.353757 
108.081085 1.871462 
108.089195 0.257777 
108.706062 0.141532 
108.864944 0.091997 
109.028671 0.70953 
109.065109 6.707233 
109.101433 7.993208 
110.060303 2.122384 
110.071701 0.323643 
110.096825 0.444917 
110.104721 0.182611 
111.044395 1.488771 
111.080795 1.919677 
112.039574 0.094994 
112.075966 0.508244 
112.112328 0.338415 
113.05986 0.136226 
114.063309 0.259626 
114.716057 0.13996 
115.054497 2.017612 
115.605751 0.127881 
117.070061 9.096508 
117.523354 0.171412 
117.949478 0.161689 
118.0653 0.436835 
118.073326 0.295602 
119.0494 0.561936 
119.067993 0.138171 
119.085732 13.260743 
120.020294 0.062408 
120.080894 2.534256 
120.08905 0.413323 
120.959206 0.182901 
121.0289 0.131622 
121.065018 5.299508 
121.101372 7.01062 
121.706581 0.228566 
122.060158 0.783171 
122.096596 0.621751 
122.104515 0.27879 
122.119331 0.152042 
123.044197 1.180052 
123.080566 2.982787 
123.116913 0.54322 
123.273476 0.223829 
124.039551 0.318095 
124.075821 1.048431 
124.363319 0.103943 
125.023567 0.154048 
125.059853 0.854992 
125.083611 0.071929 
125.096252 0.574641 
126.054886 0.243843 
126.091484 0.564481 
128.06218 1.883611 
129.069962 5.909884 
130.06517 0.542457 
130.07785 0.258152 
130.360092 0.098773 
131.049225 0.210655 
131.085632 9.40175 
132.080887 0.912464 
132.088776 0.202945 
133.064728 2.114113 
133.101181 5.703757 
134.060013 0.355782 
134.096298 0.205457 
134.104538 0.198551 
134.978699 3.113048 
134.996613 0.233469 
135.044037 1.254844 
135.080444 3.906963 
135.11673 0.664095 
136.07576 1.134176 
136.098343 0.124149 
136.112198 0.329666 
136.528885 0.054634 
137.059784 1.105038 
137.096161 0.811456 
138.091354 1.805081 
139.038834 0.102241 
139.075348 4.361049 
140.034363 0.120064 
141.069824 1.46991 
141.09079 0.052631 
142.077728 1.507205 
142.805511 0.137779 
143.085602 4.75311 
144.080994 0.22691 
145.064758 2.287926 
145.101212 5.628514 
145.713135 0.062232 
146.059906 0.301386 
146.096542 0.812308 
147.044174 0.164985 
147.080414 2.326932 
147.116898 2.022371 
147.702255 0.136729 
148.075821 0.753505 
148.111969 2.920045 
148.120453 0.065755 
148.908707 0.148896 
149.023026 0.071917 
149.059601 0.731653 
149.096161 1.977824 
149.115356 0.693066 
149.213455 0.082096 
150.05513 0.213666 
150.06752 0.141973 
150.091171 0.50367 
150.596146 0.108946 
151.039139 0.205767 
151.075531 0.217431 
151.111496 0.073846 
152.062103 0.110992 
152.070526 0.338739 
152.107376 0.083739 
152.952621 0.069291 
152.989243 4.956623 
153.070053 0.274358 
153.091003 0.620607 
154.049866 0.067902 
154.077637 0.350645 
154.122787 0.216547 
155.08551 3.889508 
156.081161 0.235343 
157.064713 0.528206 
157.101257 3.010895 
158.072281 0.067721 
158.096634 0.67243 
158.104279 0.1889 
159.080429 1.19912 
159.11676 1.685066 
159.325119 0.122305 
160.075928 0.238861 
160.083984 0.071995 
160.112289 0.391375 
161.059814 0.114104 
161.096146 1.1304 
161.132568 0.256213 
162.091248 0.700911 
162.099197 0.098796 
163.038834 0.468212 
163.111755 0.717084 
164.070862 0.157273 
164.106705 0.072507 
165.013046 0.124242 
165.069962 0.76537 
165.090836 0.062388 
165.127487 0.077146 
166.077927 0.461014 
166.12262 0.205514 
167.055237 0.079689 
167.085617 0.962579 
168.093323 0.074438 
169.034668 0.443787 
169.065079 0.063439 
169.101334 1.826965 
169.12767 0.083877 
170.096573 0.199878 
170.955643 0.095949 
170.963486 5.357539 
170.999817 0.30425 
171.080399 0.668681 
171.116806 1.003918 
172.112076 0.066217 
172.120209 0.072984 
172.943283 0.100932 
173.096146 1.473213 
173.132767 0.259533 
174.091537 0.198826 
174.128143 0.059808 
175.036514 8.81798 
175.0755 0.206397 
175.111923 0.37581 
175.146942 0.072257 
176.039032 0.096085 
176.070404 0.094919 
176.10704 0.193838 
176.500351 0.13099 
177.09169 0.15583 
177.127029 0.082438 
178.07756 0.229633 
178.086365 0.12019 
178.12294 0.090523 
179.085526 1.186232 
180.026016 0.065122 
180.09343 0.10975 
181.065002 0.088376 
181.101242 1.733945 
181.879913 0.170172 
183.08046 0.570003 
183.116882 1.140532 
183.930786 0.173729 
184.088715 0.06016 
184.168228 0.071325 
185.096344 0.266952 
185.13269 0.16313 
185.215515 0.057928 
185.822998 0.182666 
187.111725 0.18307 
188.107529 0.071043 
188.587662 0.18676 
188.974167 7.146573 
189.05481 0.077813 
189.090805 0.125114 
189.725525 0.059811 
191.106857 0.054048 
192.093246 0.305382 
192.102219 0.113067 
192.817673 0.146025 
193.101089 0.483421 
194.730103 0.229098 
195.080444 0.292486 
195.116913 0.182363 
197.047729 0.054972 
197.096558 0.326962 
197.132339 0.55485 
198.090942 0.10551 
199.112061 0.428352 
199.148209 0.149959 
200.491348 0.166052 
201.091644 0.072319 
201.127625 0.081215 
202.091003 0.208753 
202.715668 0.166871 
203.143219 1.504587 
204.146713 1.531204 
204.192429 0.177594 
204.958694 0.197874 
205.101273 0.086449 
206.080948 0.100122 
206.926544 0.076304 
206.983139 0.098193 
208.13414 0.070871 
208.793839 0.080005 
209.095703 0.375962 
209.10614 0.077547 
210.09079 0.098317 
212.782257 0.103922 
213.079956 0.126081 
216.603348 0.217431 
219.174408 2.258701 
219.275787 0.140242 
220.031204 0.428394 
220.048889 1.717233 
220.072617 0.199733 
220.177994 1.624495 
221.096619 0.100069 
221.801758 0.225201 
221.948471 0.21635 
222.102234 0.071951 
222.113205 0.163032 
223.086517 0.400804 
225.127686 0.144149 
226.087402 0.069484 
227.073975 0.205941 
228.136978 0.091747 
229.016159 0.091748 
232.292938 0.211842 
235.273209 0.100511 
235.761993 0.175817 
236.33255 0.173474 
238.122543 0.087706 
240.909607 0.093801 
245.885284 0.128335 
247.353119 0.091594 
250.536713 0.204734 
254.107529 0.164644 
254.204956 0.089919 
258.606598 0.097553 
265.04953 0.068952 
265.132141 0.104916 
265.414917 0.08401 
266.998993 1.62306 
268.962921 0.116297 
268.978119 8.258944 
281.53476 0.102849 
283.030365 0.586783 
283.059387 0.228153 
285.009735 0.4571 
298.776703 0.186515 
300.434875 0.065971 
301.025818 0.141085 
302.684479 0.12413 
302.818481 0.159589 
308.143768 0.075361 
308.775238 0.157114 
311.841736 0.189157 
312.83847 0.088034 
315.130859 0.153376 
315.164856 0.183881 
316.104889 0.118798 
327.317444 0.067664 
331.362396 0.159025 
331.925385 0.057874 
343.054718 0.188967 
349.749542 0.118944 
356.822235 0.087225 
357.781708 0.125735 
358.354034 0.083361 
368.424805 3.551715 
369.428436 0.09904 
370.458435 0.201605 
383.363983 0.202641 
391.474915 0.139499 
392.905426 0.058876 
393.666809 0.089736 
END IONS

