BEGIN IONS
PEPMASS=289.141
CHARGE=1+
COMPOUNDNAME=(1S,8R,9R)-8-hydroxy-4-(propan-2-ylidene)-10-oxatricyclo[7.2.1.01,5]dodecane-8-carboxylic acid
LIBRARYQUALITY=3
SMILES=N/A
INCHIKEY=IOYVXXQKVQKQIG-ZJPTYJIISA-N
INCHI=InChI=1S/C15H22O4/c1-9(2)10-3-5-14-7-12(19-8-14)15(18,13(16)17)6-4-11(10)14/h11-12,18H,3-8H2,1-2H3,(H,16,17)/t11?,12-,14-,15-/m1/s1
MSLEVEL=2
SOURCE_INSTRUMENT=N/A-ESI-QFT
FILENAME=library_mgf.mgf
SEQ=*..*
IONMODE=positive
ORGANISM=MONA
NAME=(1S,8R,9R)-8-hydroxy-4-(propan-2-ylidene)-10-oxatricyclo[7.2.1.01,5]dodecane-8-carboxylic acid [M+Na]+
PI=MoNA
DATACOLLECTOR=MoNA:VF-NPL-QEHF021463
PUBMED=N/A
SUBMITUSER=mwang87
TAGS=
SPECTRUMID=CCMSLIB00004712526
SCANS=21463
50.393143 0.049905 
50.749981 0.053724 
51.232285 0.044205 
51.86562 0.038691 
51.940365 0.752259 
53.002609 0.311643 
53.038998 0.683526 
53.472031 0.051085 
54.244888 0.056532 
55.018166 3.01404 
55.054558 8.657996 
55.398952 0.062286 
55.934727 0.488186 
56.789494 0.052475 
56.96516 0.053085 
57.033783 4.039442 
57.070183 16.344652 
57.935104 1.131547 
58.03722 0.034493 
58.065434 0.759694 
58.073559 0.051121 
59.049442 2.753611 
59.930614 0.058349 
60.04467 0.674293 
60.081036 1.254235 
61.010895 8.241292 
61.483921 0.027151 
62.018688 0.300778 
62.060329 0.061797 
63.690853 0.062756 
65.038841 0.53089 
67.054382 19.194151 
67.473381 0.041614 
68.057755 0.198745 
69.03363 8.406855 
69.070007 19.337589 
69.475876 0.058205 
69.790619 0.052976 
69.864304 0.052537 
70.065254 6.003073 
70.073357 0.17734 
70.40638 0.030004 
70.958199 0.408381 
71.049248 5.915861 
71.08564 13.074414 
72.080772 0.762606 
72.492119 0.054721 
72.937225 1.321835 
73.064873 1.400395 
74.060196 0.133284 
75.281265 0.027463 
77.03894 0.229032 
78.013588 0.083043 
79.021286 4.25831 
79.054283 13.845509 
80.049767 0.057175 
80.594894 0.029079 
81.016914 0.053518 
81.033554 2.637649 
81.044815 0.473081 
81.069954 31.745626 
81.118599 0.04943 
82.065277 0.04994 
82.073357 0.59511 
82.756828 0.047296 
82.835274 0.031715 
83.012794 3.242859 
83.046684 0.100602 
83.049202 12.047396 
83.085571 12.195663 
83.639755 0.062099 
84.044426 0.190492 
84.080841 0.824856 
85.028481 2.40548 
85.039726 2.473631 
85.064857 8.560327 
85.10125 5.801894 
86.060158 1.094876 
86.096481 5.1507 
87.04422 1.341738 
88.075775 10.518605 
88.968628 0.193883 
89.059769 3.65995 
89.079018 0.208766 
89.324158 0.042461 
90.811447 0.036562 
90.947762 1.189988 
91.051437 0.139398 
91.054291 12.073398 
92.057877 0.081917 
93.011696 0.037097 
93.03363 0.667679 
93.069984 28.168047 
93.320793 0.039178 
94.065208 0.145946 
94.073326 0.687229 
95.049217 9.212264 
95.06044 0.068217 
95.085587 36.467888 
95.383865 0.027506 
95.511086 0.030447 
96.044739 0.061511 
96.052361 0.093269 
96.080658 0.043969 
96.089005 0.784714 
96.670685 0.028885 
97.028542 0.544193 
97.064903 31.899881 
97.101303 7.646564 
98.060066 0.176713 
98.068275 0.219143 
98.096497 0.270719 
99.044151 3.623986 
99.080521 7.309331 
99.961281 0.026222 
100.075752 2.111143 
100.112183 0.219604 
101.059799 2.198045 
102.050888 0.04693 
102.054878 0.101842 
102.091354 0.405042 
102.948166 0.149763 
103.054344 0.202194 
104.070747 0.086434 
104.897179 0.034676 
105.033585 0.537499 
105.044914 0.034441 
105.07 23.400108 
105.979912 0.160195 
106.073357 0.908233 
106.086357 25.027311 
107.04924 7.004784 
107.085594 38.569695 
107.950623 0.048069 
108.044533 0.051968 
108.08078 0.178698 
108.088997 0.857146 
108.701424 0.043458 
108.958336 0.199746 
109.028618 0.395195 
109.064903 20.643213 
109.101273 53.894482 
110.060127 0.416682 
110.068268 0.181503 
110.072372 0.046565 
110.104668 1.040909 
110.231117 0.041521 
111.044151 4.055597 
111.080521 6.510834 
111.116814 1.848027 
112.075668 0.278885 
113.033897 0.03685 
113.059776 3.287153 
113.096214 1.284545 
114.054909 0.106256 
114.091377 0.402347 
115.038872 0.068712 
115.054596 0.521337 
115.075455 1.103423 
115.0868 0.056223 
116.070709 0.307195 
117.069931 6.539927 
118.050186 0.058915 
118.073326 0.062197 
118.086433 0.291186 
119.049309 0.895131 
119.08564 23.801897 
119.951332 0.082692 
120.080849 0.837001 
120.088913 0.693633 
120.940392 0.075265 
121.003235 0.370473 
121.028526 0.127277 
121.064911 10.268734 
121.10128 29.276443 
121.400833 0.038317 
122.060104 0.345794 
122.068169 0.081878 
122.072639 0.780655 
122.096489 0.211697 
122.104523 0.804826 
123.044159 5.862131 
123.080482 15.49697 
123.085152 0.092201 
123.116882 27.64094 
123.184158 0.028455 
124.039589 0.072652 
124.050484 0.057494 
124.07576 0.295088 
124.120094 0.157631 
124.936455 0.058171 
125.02346 2.532642 
125.059822 10.375063 
125.096184 8.945438 
125.13266 0.202172 
125.729729 0.037266 
126.055061 0.244996 
126.0914 0.309919 
126.099266 0.062078 
126.127808 0.600833 
127.039055 9.75618 
127.075371 2.809535 
127.111748 0.480053 
128.062408 0.542551 
128.070801 0.061409 
128.107086 0.210814 
128.963593 0.422252 
129.054642 0.384222 
129.069824 4.953128 
129.09108 0.166838 
130.065231 0.493251 
130.078201 0.131192 
130.086212 0.16966 
131.04921 0.465667 
131.085648 13.940815 
131.961594 0.232615 
132.044464 0.818052 
132.080948 0.559158 
132.088913 0.319863 
132.101807 0.155343 
132.940567 0.057369 
132.952988 0.070307 
132.958221 0.897064 
133.028015 0.047869 
133.064865 8.380495 
133.101242 26.487518 
133.948853 0.348062 
134.096405 0.662897 
134.104568 0.894309 
134.956329 0.436528 
134.978668 0.057426 
135.044205 3.528899 
135.080521 17.949133 
135.104645 0.064281 
135.116867 20.776917 
135.927643 0.071368 
136.075897 0.492833 
136.083435 0.308349 
136.088608 0.280178 
136.120285 0.282472 
137.059738 6.642536 
137.096207 19.989618 
137.132599 5.284262 
138.054977 0.978141 
138.067932 0.133325 
138.091736 0.280586 
138.104126 0.054311 
138.12822 0.042091 
138.951248 0.120138 
139.039017 30.651808 
139.075394 8.4449 
139.111832 1.8405 
140.047119 0.492295 
140.070755 0.239214 
141.054581 9.31664 
141.069824 1.98877 
141.090988 1.84497 
141.127335 0.047481 
142.06102 0.056638 
142.077805 1.586904 
142.086761 0.053124 
143.001083 0.051288 
143.070618 0.431072 
143.085602 9.718157 
144.080933 1.36002 
144.088501 0.077742 
144.093765 0.292531 
144.102066 0.215722 
144.958282 0.256793 
145.064957 2.609144 
145.076218 0.107903 
145.101257 20.062717 
146.060181 0.561802 
146.072861 0.126856 
146.10437 0.641442 
146.118027 0.06718 
146.424789 0.043498 
146.976242 4.528036 
147.043869 0.138062 
147.08046 12.420276 
147.09079 0.074168 
147.116837 24.74494 
147.97493 12.514794 
147.981506 0.229581 
148.07576 0.236175 
148.112717 0.060071 
148.120041 0.534187 
148.971863 48.399628 
149.059738 2.550596 
149.07045 0.043409 
149.096191 18.338413 
149.132568 12.103104 
149.953796 0.136832 
149.972092 0.577913 
150.054871 0.205965 
150.067673 0.070641 
150.091507 0.434031 
150.099243 0.168656 
150.127777 0.053467 
150.135773 0.230826 
150.951187 4.527606 
150.968903 1.846936 
151.039108 1.405822 
151.075439 11.287856 
151.081772 0.108642 
151.10524 0.144417 
151.111832 10.498281 
151.148193 0.960822 
151.969604 0.056875 
152.070694 0.261573 
152.083206 0.685346 
152.107086 0.586794 
152.946609 2.016122 
152.952789 0.385364 
152.967819 0.23108 
153.054626 7.825513 
153.069962 0.073 
153.091019 12.213137 
153.127411 0.46151 
153.959488 0.151874 
154.049423 0.057899 
154.077866 0.362207 
154.086624 0.047833 
154.122574 0.132862 
154.947189 0.142638 
155.070297 41.402584 
155.077637 0.569277 
155.085266 3.865973 
155.106674 0.454537 
155.955078 0.404098 
156.080856 1.142899 
156.093658 2.00342 
156.100388 0.050929 
156.138367 0.112027 
156.96257 0.081885 
157.064789 0.774013 
157.085999 0.083693 
157.101242 17.338873 
158.060181 0.922874 
158.072662 0.302495 
158.097443 0.139908 
158.109161 1.100695 
159.006638 0.041929 
159.080536 6.926817 
159.116928 16.407888 
159.982391 0.143532 
160.075729 1.30851 
160.088593 0.159691 
160.112778 0.164401 
160.120392 1.189535 
160.989731 0.052205 
161.059723 7.966962 
161.088379 0.075721 
161.096085 19.83543 
161.132462 13.307895 
162.055161 0.412566 
162.067612 0.28138 
162.091446 0.967356 
162.098785 0.21722 
162.136063 0.248852 
162.969574 0.05314 
163.038849 0.131168 
163.075424 23.348595 
163.111725 9.921877 
163.119095 0.08239 
163.148132 5.758602 
163.967651 0.427624 
164.070969 0.571056 
164.078873 1.589515 
164.107117 1.205777 
164.114517 0.112449 
164.987259 0.941975 
165.054779 3.241726 
165.070038 0.518933 
165.09111 24.498808 
165.127472 3.094835 
165.163666 0.154851 
165.963287 0.098161 
165.983917 2.100873 
166.086807 0.345962 
166.093719 0.09503 
166.099197 1.366982 
166.122452 0.130778 
166.982468 11.006123 
167.033981 2.220274 
167.070282 4.149458 
167.085648 2.241263 
167.10675 7.675356 
167.978729 0.43766 
168.065811 0.074817 
168.079071 0.876977 
168.093719 0.565652 
168.102036 0.151254 
168.961823 1.831561 
169.04985 0.207836 
169.085968 1.596843 
169.101257 7.69095 
169.122528 0.231929 
170.072678 0.16469 
170.109344 5.395996 
170.956802 3.790295 
170.964508 1.688427 
171.055252 0.060378 
171.064346 0.045504 
171.08049 4.182421 
171.116913 14.339623 
171.137955 0.269974 
172.075974 0.154597 
172.088562 1.549298 
172.096405 0.460787 
172.112488 0.048159 
172.125015 1.047179 
172.13298 0.585714 
172.957535 0.068654 
172.989578 0.065996 
173.059891 0.701426 
173.071152 0.417725 
173.096252 12.858726 
173.118256 0.042874 
173.132645 10.321461 
174.055038 0.545179 
174.091522 0.597675 
174.104431 2.967781 
174.127869 0.069524 
174.135834 0.690488 
175.038437 0.052543 
175.063095 0.062182 
175.07547 4.991558 
175.111816 15.307567 
175.148193 8.328678 
176.07077 2.537165 
176.083313 0.134378 
176.107391 0.315518 
176.115356 0.094652 
176.930573 0.085196 
177.05481 2.992122 
177.091141 5.006385 
177.127441 7.415533 
177.163803 2.4766 
177.993118 0.114835 
178.062637 2.861237 
178.086411 0.595862 
178.122559 0.063067 
178.979462 0.063393 
179.034088 0.09361 
179.061661 0.123319 
179.070465 6.301476 
179.085999 0.145982 
179.10675 29.45989 
179.142944 1.023353 
179.954025 2.027752 
180.065414 0.090458 
180.077957 0.051708 
180.093475 0.630893 
180.101669 0.075271 
180.384995 0.070163 
180.888275 0.13464 
181.049591 0.226195 
181.066345 0.080521 
181.085968 16.958523 
181.100861 1.97002 
181.122314 3.571653 
181.977921 0.072817 
181.987869 0.047213 
182.07312 0.194658 
182.093994 6.916179 
182.109116 0.966243 
182.118118 0.065652 
182.97702 0.105321 
183.065399 3.093837 
183.080643 1.711539 
183.091995 1.154825 
183.101547 0.613377 
183.116959 5.5301 
184.088226 0.447872 
184.120346 0.138806 
184.133636 0.15059 
184.169983 0.07834 
185.096237 13.07891 
185.132584 22.462133 
186.05545 0.050169 
186.090698 0.114255 
186.104248 4.452019 
186.112762 0.149822 
186.136002 1.266008 
186.878464 0.160167 
187.075653 2.042034 
187.111893 13.508662 
187.148239 6.38464 
187.944366 0.152101 
188.07077 1.139241 
188.082932 0.760704 
188.10704 0.389165 
188.119049 1.482277 
188.143021 0.052223 
188.152618 0.033635 
188.974274 2.062358 
189.054718 1.308649 
189.064774 0.103468 
189.077209 0.158768 
189.091156 12.431856 
189.127518 18.697092 
189.163895 3.013931 
190.073761 0.169486 
190.086304 1.118742 
190.098694 0.533814 
190.122696 0.35294 
190.135193 0.178554 
190.159088 0.457589 
191.070541 1.891482 
191.106766 5.236415 
191.143082 2.837195 
191.179565 0.880522 
191.881393 0.516454 
192.065369 0.605157 
192.101913 0.191938 
192.110931 0.061789 
192.138428 0.247249 
192.962021 0.411167 
192.995117 0.06395 
193.04982 0.664065 
193.076584 0.075155 
193.086197 2.286582 
193.101868 0.091257 
193.122452 9.75499 
193.158722 0.192168 
193.881088 0.159574 
194.125961 0.050767 
195.06572 0.242951 
195.080811 2.052056 
195.091324 0.106113 
195.101746 11.550895 
195.116806 4.419704 
195.137909 3.021594 
196.08844 1.217639 
196.124435 0.138108 
196.133667 0.179721 
196.297623 0.060233 
197.071823 0.440969 
197.080933 2.301951 
197.096268 4.530631 
197.132568 3.207253 
197.964966 0.297604 
197.974121 0.06468 
198.056732 0.09902 
198.067841 0.420018 
198.090347 0.236561 
198.104065 2.659597 
199.075623 2.392212 
199.111862 6.362021 
199.148285 3.517022 
200.070969 0.433253 
200.082718 0.141605 
200.119431 1.34838 
201.054993 0.567797 
201.065781 0.232806 
201.079681 0.165632 
201.091171 6.419927 
201.127579 12.940257 
201.163834 2.642522 
202.007034 0.061521 
202.050171 2.076133 
202.086487 4.818742 
202.098907 6.237692 
202.12265 0.135256 
202.135117 2.421463 
202.158493 0.135244 
202.167831 0.158954 
203.070587 2.41812 
203.0952 0.581635 
203.106796 16.458391 
203.143356 8.712958 
203.179459 1.071457 
204.065735 0.73646 
204.076736 0.069649 
204.101898 1.344759 
204.112717 0.511295 
204.138199 0.245882 
204.148712 0.17693 
204.889069 0.205324 
205.016678 0.093175 
205.050079 0.603141 
205.068634 0.033675 
205.086288 3.632389 
205.108673 0.100834 
205.122498 4.542671 
205.158936 0.500912 
205.19516 0.342767 
206.071396 3.852093 
206.081314 0.174031 
206.091568 0.067574 
206.127823 0.063294 
206.153473 0.070561 
206.868484 0.094767 
206.977295 0.068521 
207.010834 0.068276 
207.055664 0.206187 
207.065262 0.529348 
207.075912 0.11062 
207.101852 8.97519 
207.138031 6.129975 
207.875977 0.54664 
208.096786 0.071947 
208.883911 0.653398 
209.027451 0.065307 
209.096313 0.172854 
209.117462 1.025332 
209.132553 1.566333 
209.153671 1.122643 
209.876144 1.42702 
209.891418 0.918271 
209.964432 2.495799 
210.066498 0.158596 
210.103043 0.092718 
210.150192 0.043763 
210.899841 0.064915 
210.93837 0.988044 
210.973022 0.886275 
211.005783 0.170706 
211.075623 0.465931 
211.111923 4.611363 
211.132278 0.077246 
211.148422 2.549767 
211.891907 0.614786 
211.936951 4.53336 
211.960129 3.134735 
212.08316 2.170686 
212.118851 0.873489 
212.497238 0.043226 
212.933868 16.552208 
212.956924 0.148538 
213.020309 0.078506 
213.035645 0.076093 
213.091141 14.537281 
213.116821 0.10011 
213.127594 15.520558 
213.164001 4.080169 
214.062622 0.069288 
214.087128 0.640567 
214.098724 3.033412 
214.134232 1.953039 
214.158401 0.081013 
215.070526 1.193685 
215.081924 0.0696 
215.095001 0.579083 
215.106735 5.518513 
215.143387 2.957294 
215.179611 4.255526 
215.314957 0.535562 
215.329483 0.76227 
216.065826 0.099316 
216.077652 0.090427 
216.102005 3.179119 
216.114075 1.455828 
216.137665 0.080242 
216.148758 0.112967 
216.183624 0.119081 
217.015579 0.122388 
217.07486 0.091459 
217.086121 19.787962 
217.105011 0.223819 
217.110138 0.222687 
217.122467 16.886583 
217.158844 5.764844 
217.195389 1.285684 
217.881897 0.096245 
218.081512 3.537724 
218.092438 0.435105 
218.11763 0.354602 
218.129913 0.330389 
218.153641 0.573645 
219.011612 0.148571 
219.031677 0.274126 
219.065445 0.129968 
219.087952 0.879764 
219.101944 2.086437 
219.137833 2.872752 
219.174332 1.466067 
220.060669 1.510029 
220.097046 2.243261 
220.107925 0.19955 
220.132553 0.07249 
220.169434 0.135259 
220.989975 0.105804 
221.010468 0.067592 
221.027039 0.06069 
221.080902 0.772531 
221.117371 5.396546 
221.153809 4.684129 
221.902161 0.28881 
222.066437 0.157899 
222.898727 13.399493 
223.075378 1.420512 
223.111862 0.860465 
223.131836 0.066645 
223.16893 0.067096 
223.90123 0.698991 
224.118835 0.070155 
224.143463 0.064752 
224.879044 0.390442 
224.899231 3.407655 
225.091034 0.354883 
225.127518 0.650247 
225.163635 1.80864 
225.886337 0.784796 
226.08696 0.533164 
226.098969 0.999413 
226.121857 0.12097 
226.988785 0.088485 
227.052444 0.114484 
227.10675 11.182448 
227.127884 0.11995 
227.142609 3.322238 
227.179367 4.149324 
227.200653 0.08521 
227.90062 0.33301 
227.97496 0.193534 
228.101807 1.02487 
228.11412 0.371479 
228.137695 0.282459 
228.147125 0.083105 
228.895203 0.151315 
228.949417 0.677046 
228.983749 1.694195 
229.015762 0.068052 
229.049774 0.062154 
229.085999 3.862733 
229.097519 2.614616 
229.122467 17.207573 
229.158585 3.330665 
229.195038 3.127556 
229.895676 7.817547 
229.947388 3.057156 
229.958496 0.071793 
229.970367 2.576379 
230.081573 0.303686 
230.093231 2.157793 
230.116959 0.689901 
230.129257 3.46651 
230.153717 1.217714 
230.877869 0.062695 
230.898376 0.221431 
230.944687 9.595874 
230.966553 7.742077 
231.01001 0.0653 
231.031677 0.579757 
231.045853 0.071766 
231.065506 0.482664 
231.089066 0.167723 
231.10173 9.734464 
231.123642 0.201953 
231.138046 11.111798 
231.174545 2.039934 
231.210892 13.885704 
231.896957 0.722401 
232.060532 0.542478 
232.097076 1.787084 
232.109131 0.561609 
232.132217 0.080241 
232.142838 0.308228 
232.884079 0.190719 
233.026352 0.124606 
233.046677 0.063139 
233.058716 0.196667 
233.08197 5.723351 
233.10437 0.246928 
233.117371 10.411044 
233.139999 0.044871 
233.15387 1.320801 
233.187515 0.065263 
233.891449 8.907259 
234.06636 7.278501 
234.089294 2.41924 
234.112228 0.456029 
234.125031 0.071487 
234.900513 2.229528 
235.005539 0.187469 
235.071396 0.801835 
235.096573 1.198536 
235.133301 0.99966 
235.147949 0.426543 
235.169281 4.253069 
235.891602 7.55347 
236.900406 3.079659 
237.163879 4.400513 
238.167343 0.052839 
238.893738 0.350636 
238.914948 0.077465 
239.106644 0.357465 
239.179749 0.910616 
239.913101 0.229364 
240.078293 1.606309 
240.113922 0.418275 
240.909286 20.086 
241.066849 0.072122 
241.069885 0.068721 
241.085907 5.93172 
241.122406 3.217995 
241.158432 0.212744 
241.195297 0.464568 
241.912018 1.410416 
242.091827 1.928644 
242.116653 0.090919 
242.153687 0.768293 
242.909897 8.959173 
243.032455 0.061079 
243.065964 1.222115 
243.101562 1.800575 
243.125046 0.898187 
243.137863 1.616913 
243.149582 0.918461 
243.174301 2.30048 
244.097 0.980369 
244.132645 0.750742 
244.168991 2.144521 
245.026398 0.075269 
245.06308 0.061937 
245.08223 0.201414 
245.11731 31.166349 
245.153549 7.357016 
245.176193 0.230129 
245.189957 5.343223 
245.226852 0.749111 
245.910431 0.066726 
246.112534 1.39059 
246.12529 0.650529 
246.148315 1.873013 
246.184814 0.374304 
246.898468 0.768993 
246.970734 0.093858 
247.096786 0.67297 
247.132965 4.036975 
247.16925 0.790083 
247.906662 6.627477 
247.922974 0.062513 
247.967621 0.492106 
248.090927 0.052514 
248.104919 0.067576 
248.127808 0.78574 
248.141144 0.278295 
248.164154 0.052251 
248.878433 1.639818 
248.899017 0.214646 
248.910767 0.190444 
248.977203 2.312893 
249.076965 0.110202 
249.112457 1.142712 
249.148438 2.986669 
249.18541 0.66991 
249.906876 1.592444 
250.880142 0.087081 
250.894058 1.292903 
251.90506 0.454187 
252.894211 0.083395 
253.01532 0.066572 
253.122055 0.217982 
253.158859 1.404155 
253.194366 0.06633 
253.902451 17.991465 
254.903015 1.294108 
255.101593 9.168743 
255.137863 1.233403 
255.174271 6.343664 
255.210693 1.967543 
255.897522 0.091119 
255.918091 0.463343 
256.096283 0.201586 
256.109497 0.137443 
257.046844 0.06348 
257.063446 0.05971 
257.080658 0.117954 
257.117035 1.982922 
257.152863 0.276373 
257.189819 1.931388 
257.896149 0.088359 
258.088928 16.934093 
258.11203 0.298653 
258.123291 0.075917 
258.148743 1.088078 
258.18515 0.479022 
259.042419 0.173016 
259.079834 0.145541 
259.096771 2.71529 
259.115967 1.356107 
259.132904 2.103704 
259.169373 0.04981 
259.205536 0.765064 
259.891724 0.532818 
260.092377 0.625291 
260.128082 0.183453 
261.077118 97.536369 
261.148285 3.506392 
261.184845 0.457736 
261.886108 0.165046 
262.081818 19.842306 
262.107147 0.138171 
262.152618 0.088042 
263.084595 0.534133 
263.127838 0.667541 
263.164032 1.276324 
263.177948 0.117829 
263.200623 0.554363 
263.810089 0.065963 
263.886719 0.188012 
263.912445 0.848367 
264.171265 0.043195 
264.909363 18.849346 
265.072327 0.32827 
265.912109 2.398863 
266.079834 0.703959 
266.890289 0.921506 
266.909637 10.450105 
267.917267 0.092936 
268.889069 0.074562 
269.173981 0.149081 
269.820435 0.195666 
270.084381 1.292556 
270.111542 0.144881 
270.148468 3.876707 
270.184906 1.695366 
270.279388 2.39057 
271.096069 0.665567 
271.131042 6.408651 
271.15332 0.69483 
271.167389 3.101993 
271.205536 0.24124 
271.282745 0.230693 
271.913361 0.935193 
272.091797 0.807871 
272.12912 1.277029 
272.16452 36.218948 
272.200256 4.376659 
273.057343 0.194368 
273.112213 33.189075 
273.148712 4.896581 
273.168854 6.596723 
273.18512 9.607591 
273.202606 0.298985 
273.220886 2.098165 
274.176208 0.389936 
274.216553 0.070991 
274.894348 0.062699 
274.937073 0.13557 
275.037354 0.09192 
275.05719 0.425887 
275.073334 0.841278 
275.116302 0.081484 
275.810608 0.168024 
275.902252 2.861552 
276.159424 0.349074 
276.903534 0.198662 
277.054779 0.097876 
277.072266 1.934153 
277.08844 0.300976 
277.902435 11.998744 
278.902161 1.768057 
278.92514 0.069316 
279.805939 0.076255 
279.896667 4.31889 
280.813263 0.274163 
280.899689 1.075295 
281.822205 4.792864 
281.897003 8.721721 
281.924042 0.229293 
282.811584 0.075435 
282.824097 0.100655 
282.919861 12.950784 
283.738556 0.069811 
283.82077 2.55411 
283.922607 1.515112 
284.808899 0.483243 
284.827881 1.570062 
284.92038 10.175403 
285.815826 6.258385 
285.834106 0.66535 
286.82309 0.228021 
287.125488 3.89792 
287.146027 0.821608 
287.164215 0.6195 
287.185394 3.49187 
287.212646 2.930562 
287.237762 0.26808 
287.831573 1.646807 
288.007782 0.087191 
288.088196 2.153602 
288.128052 6.635418 
288.159302 15.736449 
288.195984 39.436001 
288.215088 2.145264 
288.231415 2.869527 
288.289734 74.296806 
288.909515 0.944024 
289.052979 0.732362 
289.071381 2.331963 
289.090118 1.647449 
289.105042 2.85193 
289.12561 6.889991 
289.141846 29.250576 
289.162231 23.020182 
289.179291 3.57866 
289.199585 8.27775 
289.216064 1.16903 
289.230499 3.227198 
289.29306 14.584863 
289.960358 0.742399 
290.080017 1.781609 
290.103455 11.153743 
290.139374 10.413366 
290.175201 36.098259 
290.211487 100.0 
290.247162 2.589451 
290.282501 3.997657 
290.91037 0.093682 
291.068237 0.918877 
291.08667 1.444624 
291.105377 1.023465 
291.123108 8.917845 
291.141205 12.305144 
291.158691 24.794653 
291.178925 4.416529 
291.195221 8.485255 
291.215271 14.480703 
291.232574 6.194289 
291.28714 0.10891 
291.805756 0.072164 
291.950378 0.073767 
292.948242 0.393402 
294.074738 5.211935 
295.079315 0.37515 
295.801117 0.448905 
295.912994 3.485084 
296.808563 3.059877 
296.911896 0.591231 
297.816162 2.480392 
297.907349 2.465191 
298.816284 0.103842 
298.910309 0.610569 
299.814636 0.101116 
299.832733 0.150096 
299.907837 1.686126 
300.822815 0.489523 
300.839752 0.107366 
301.811188 0.296467 
302.818695 2.377469 
303.826294 0.035827 
305.923462 0.175787 
306.830231 0.276924 
306.919952 6.223718 
307.801727 0.436018 
307.921753 0.575874 
307.9711 0.43422 
308.810028 0.30422 
308.920654 1.771816 
309.080963 0.096473 
309.816956 0.185919 
310.823639 0.263996 
310.843384 0.333278 
312.839111 3.352123 
313.810852 3.11225 
314.814362 0.294759 
END IONS

