BEGIN IONS
PEPMASS=414.155
CHARGE=1+
COMPOUNDNAME=Massbank:PB002021 Noscapine|(3S)-6,7-dimethoxy-3-[(5R)-4-methoxy-6-methyl-7,8-dihydro-5H-[1,3]dioxolo[4,5-g]isoquinolin-5-yl]-3H-2-benzofuran-1-one
LIBRARYQUALITY=3
SMILES=CN1CCC2=CC3=C(C(=C2C1C4C5=C(C(=C(C=C5)OC)OC)C(=O)O4)OC)OCO3
INCHIKEY=AKNNEGZIBPJZJG-UHFFFAOYSA-N
INCHI=1S/C22H23NO7/c1-23-8-7-11-9-14-20(29-10-28-14)21(27-4)15(11)17(23)18-12-5-6-13(25-2)19(26-3)16(12)22(24)30-18/h5-6,9,17-18H,7-8,10H2,1-4H3/t17-,18+/m1/s1
MSLEVEL=2
SOURCE_INSTRUMENT=ESI-LC-ESI-QQ
FILENAME=Massbank_ESI_positive_8_1_2014_peaks.mgf
SEQ=*..*
IONMODE=Positive
ORGANISM=MASSBANK
NAME=Massbank:PB002021 Noscapine|(3S)-6,7-dimethoxy-3-[(5R)-4-methoxy-6-methyl-7,8-dihydro-5H-[1,3]dioxolo[4,5-g]isoquinolin-5-yl]-3H-2-benzofuran-1-one [M+H]+
PI=Putative Massbank Match
DATACOLLECTOR=Massbank
PUBMED=N/A
SUBMITUSER=mwang87
TAGS=
SPECTRUMID=CCMSLIB00000222140
SCANS=10589
44.0 16.145 
165.0 14.977 
179.0 436.168 
180.0 18.918 
191.0 16.904 
193.0 13.443 
205.0 46.8 
206.0 252.327 
209.0 10.267 
218.0 42.843 
219.0 87.007 
220.0 10000.0 
221.0 55.552 
236.0 11.713 
248.0 126.597 
249.0 12.785 
280.0 13.115 
292.0 16.925 
295.0 33.959 
304.0 13.02 
305.0 11.71 
306.0 22.36 
307.0 53.815 
308.0 33.313 
309.0 21.459 
310.0 16.449 
312.0 22.095 
320.0 18.949 
321.0 19.465 
322.0 53.812 
323.0 186.076 
324.0 213.423 
325.0 70.351 
326.0 10.333 
327.0 28.918 
334.0 122.788 
335.0 74.751 
336.0 11.878 
337.0 43.04 
338.0 62.788 
339.0 19.396 
341.0 13.635 
349.0 12.279 
350.0 309.981 
351.0 27.431 
352.0 169.111 
353.0 2429.613 
354.0 44.005 
355.0 51.728 
363.0 14.262 
365.0 624.552 
366.0 87.699 
367.0 19.348 
368.0 24.656 
371.0 23.727 
378.0 59.639 
381.0 139.572 
383.0 62.508 
396.0 149.525 
397.0 12.869 
399.0 14.777 
414.0 2414.46 
415.0 59.034 
END IONS

