BEGIN IONS
PEPMASS=528.0
CHARGE=1+
COMPOUNDNAME=MoNA:2455858 Daunorubicin
LIBRARYQUALITY=3
SMILES=N/A
INCHIKEY=STQGQHZAVUOBTE-UHFFFAOYSA-N
INCHI=InChI=1S/C27H29NO10/c1-10-22(30)14(28)7-17(37-10)38-16-9-27(35,11(2)29)8-13-19(16)26(34)21-20(24(13)32)23(31)12-5-4-6-15(36-3)18(12)25(21)33/h4-6,10,14,16-17,22,30,32,34-35H,7-9,28H2,1-3H3
MSLEVEL=2
SOURCE_INSTRUMENT=LC-ESI-IT-LC-ESI-IT
FILENAME=output_mgf.mgf
SEQ=*..*
IONMODE=
ORGANISM=MONA
NAME=MoNA:2455858 Daunorubicin [M+H]+
PI=MoNA
DATACOLLECTOR=MoNA
PUBMED=N/A
SUBMITUSER=mwang87
TAGS=
SPECTRUMID=CCMSLIB00000567274
SCANS=4525
230.3 65.39986 
298.1 6.784798 
301.1 5.898811 
321.1 81.604104 
328.2 22.079739 
344.2 4.966193 
363.2 100.0 
363.2 2.331546 
379.4 8.393565 
380.9 35.439496 
384.5 10.42201 
511.3 18.232688 
511.3 2.331546 
516.8 23.618559 
519.1 29.400793 
521.6 16.78713 
527.0 34.786664 
527.6 5.269294 
564.2 27.045931 
577.0 4.196782 
END IONS

