BEGIN IONS
PEPMASS=1224.83
CHARGE=1+
COMPOUNDNAME=CYCLOSPORINE
LIBRARYQUALITY=3
SMILES=N/A
INCHIKEY=PMATZTZNYRCHOR-KMSBSJHKSA-N
INCHI=InChI=1S/C62H111N11O12/c1-25-27-28-40(15)52(75)51-56(79)65-43(26-2)58(81)67(18)33-48(74)68(19)44(29-34(3)4)55(78)66-49(38(11)12)61(84)69(20)45(30-35(5)6)54(77)63-41(16)53(76)64-42(17)57(80)70(21)46(31-36(7)8)59(82)71(22)47(32-37(9)10)60(83)72(23)50(39(13)14)62(85)73(51)24/h25,27,34-47,49-52,75H,26,28-33H2,1-24H3,(H,63,77)(H,64,76)(H,65,79)(H,66,78)/b27-25+/t40-,41?,42?,43?,44?,45?,46?,47?,49?,50?,51?,52-/m1/s1
MSLEVEL=2
SOURCE_INSTRUMENT=N/A-ESI-QFT
FILENAME=library_mgf.mgf
SEQ=*..*
IONMODE=positive
ORGANISM=MONA
NAME=CYCLOSPORINE [M+Na]+
PI=MoNA
DATACOLLECTOR=MoNA:VF-NPL-QEHF028192
PUBMED=N/A
SUBMITUSER=mwang87
TAGS=
SPECTRUMID=CCMSLIB00004721773
SCANS=28192
85.061737 0.011848 
89.425682 0.007422 
90.634148 0.020941 
91.687096 0.008257 
93.060829 0.017066 
93.993935 0.011775 
95.089394 0.005964 
96.507034 0.00762 
97.144157 0.020002 
97.32618 0.018528 
97.775398 0.013244 
97.898102 0.022332 
97.936821 0.018775 
98.090042 0.016876 
99.940201 0.021166 
100.111664 0.515029 
100.849335 0.022257 
100.898445 0.026227 
102.050262 0.025815 
105.552574 0.007043 
106.076118 0.006486 
107.674232 0.023239 
108.190292 0.01917 
108.476608 0.021548 
109.481041 0.022084 
109.931793 0.023167 
110.268654 0.008515 
112.127052 0.012062 
113.383141 0.016706 
113.628082 0.008526 
113.644226 0.018758 
114.066429 0.012409 
114.605667 0.008189 
118.230621 0.0128 
118.306984 0.016466 
118.952919 0.022963 
119.265259 0.023452 
119.787079 0.016214 
120.858849 0.016338 
122.187134 0.019165 
123.434181 0.008685 
124.46727 0.01462 
124.52211 0.005472 
124.546356 0.025667 
125.640724 0.024187 
128.564133 0.024203 
129.575821 0.006299 
131.132355 0.009597 
131.545929 0.014645 
131.893173 0.013588 
132.754623 0.02242 
133.579132 0.0114 
134.247726 0.01927 
135.988403 0.027205 
140.855255 0.024658 
141.101517 0.006114 
144.721786 0.024348 
146.318527 0.025182 
148.449097 0.019175 
150.571655 0.017365 
151.45369 0.018506 
153.757645 0.008088 
156.101242 0.009081 
158.121948 0.014116 
159.276962 0.009695 
164.811401 0.017243 
165.162033 0.022623 
166.786987 0.019095 
167.218063 0.021437 
169.120483 0.010875 
169.493973 0.012238 
171.149231 0.007996 
171.29834 0.016825 
171.32135 0.011649 
172.077652 0.011572 
172.984329 0.018279 
182.11702 0.019041 
183.922287 0.022467 
187.905884 0.022636 
189.881012 0.011395 
199.143616 0.087336 
202.366409 0.011477 
207.127808 0.025524 
209.200867 0.035416 
210.10788 0.010054 
210.148239 0.510975 
211.369202 0.015428 
214.114502 0.011272 
214.388855 0.01212 
219.40535 0.010748 
221.581665 0.010832 
222.699493 0.011975 
224.163788 0.412731 
225.167313 0.04449 
231.459549 0.021136 
232.21608 0.011963 
238.492203 0.020357 
239.142029 0.02449 
242.901321 0.008316 
248.233078 0.023995 
249.414825 0.012394 
253.441605 0.015346 
259.488312 0.021023 
264.688049 0.023685 
269.123535 0.022651 
274.67334 0.011321 
275.284637 0.019762 
288.221039 0.021926 
291.819214 0.006763 
291.875153 0.020822 
302.055908 0.015555 
304.165375 0.047578 
312.912964 0.005861 
320.524536 0.024553 
324.974731 0.016564 
327.041382 0.022641 
327.17514 0.008185 
329.256622 0.005701 
338.800812 0.01624 
345.795471 0.009263 
353.735199 0.006084 
360.580597 0.016531 
361.612122 0.019055 
362.359406 0.013018 
374.106476 0.024655 
377.251465 1.948975 
378.25473 0.117653 
391.532104 0.009972 
396.065582 0.008968 
402.365143 0.025072 
411.676697 0.018073 
417.411835 0.008046 
423.255463 0.05773 
425.311279 0.018291 
426.311829 0.008199 
430.150238 0.011776 
448.285492 0.026481 
450.30368 0.047235 
460.286682 0.027568 
476.070435 0.024663 
488.314545 0.010594 
488.817078 0.058636 
490.335663 0.321057 
498.402557 0.008761 
504.350555 0.776614 
507.669464 0.03097 
518.366638 0.08128 
530.324402 0.011673 
532.343445 0.023042 
533.342712 0.02879 
537.606567 0.028078 
542.364807 0.014922 
547.615784 0.027104 
550.858582 0.131022 
551.360596 0.305589 
551.861755 0.112014 
552.365051 0.013044 
561.373169 1.356488 
561.876526 0.012544 
562.37616 0.175402 
563.384705 0.019761 
564.855835 0.944958 
565.3573 1.772271 
565.54071 0.025852 
565.858215 1.164489 
566.360168 0.153818 
566.856689 0.059637 
566.908936 0.012556 
570.362305 0.023325 
575.388245 2.168423 
576.392944 0.296828 
584.800781 0.021315 
589.405579 0.046777 
593.794189 0.02227 
603.383667 0.222114 
604.378967 0.175999 
611.894836 0.034243 
612.397461 0.263806 
612.733337 0.023677 
612.780823 0.012309 
612.897278 0.266411 
613.407593 0.00745 
620.409668 0.429175 
620.898438 0.014905 
621.404663 0.266759 
621.904602 0.085498 
622.405273 0.017656 
624.665405 0.022031 
639.220703 0.017816 
644.382507 0.012953 
646.122803 0.008155 
646.42572 3.099561 
647.42926 1.089058 
672.402283 0.087702 
673.412415 0.037053 
674.420837 0.36915 
675.418823 0.040277 
687.446106 0.017783 
688.232483 0.019193 
688.473267 0.172422 
692.43158 0.442527 
702.41626 1.492232 
702.483765 0.339241 
703.424194 0.21086 
705.462158 4.17598 
706.465149 1.405183 
708.28595 0.036015 
708.388611 0.034179 
708.619629 0.014778 
708.670166 0.01026 
708.732117 0.012227 
708.848694 0.016466 
708.906921 0.11428 
708.967407 0.033707 
715.446777 0.572632 
716.460754 0.069726 
717.461487 0.223115 
718.40918 0.07335 
718.469666 0.070617 
730.481812 0.521659 
731.481506 1.340778 
732.4823 0.215542 
740.501587 0.006589 
747.509888 0.565143 
748.508728 0.015135 
757.52948 0.021678 
759.503174 0.012837 
768.493591 0.01784 
773.525818 2.087946 
774.528015 0.586508 
783.520081 0.010596 
784.523926 0.007167 
786.506409 0.026144 
787.540222 0.820386 
788.544495 0.054717 
793.435669 0.009287 
797.2276 0.026884 
800.560181 0.020502 
801.518921 0.66433 
802.517151 0.899525 
803.5177 0.051938 
811.52948 0.058827 
815.570435 0.58133 
816.572632 0.009587 
819.53186 0.053629 
820.534729 0.031386 
823.989624 0.018334 
829.515625 0.862543 
830.538818 0.370198 
832.560791 7.209222 
833.564819 2.915787 
834.56604 0.114179 
839.538635 0.076362 
840.538391 0.042443 
845.506714 0.014592 
857.545471 3.642088 
858.563049 4.432416 
859.572571 1.427053 
860.584656 0.027532 
870.576782 0.756433 
871.582031 0.239355 
874.607239 0.111742 
881.624023 0.030173 
886.606812 0.922704 
887.607483 0.106382 
889.583679 0.226798 
896.589294 0.096168 
897.596008 0.017838 
899.630676 0.413588 
900.627014 0.368469 
901.626038 0.024454 
903.598206 1.003969 
904.600647 0.211017 
910.604614 0.039575 
911.623901 0.021719 
914.588745 0.028094 
917.611389 0.034415 
926.624573 0.102256 
927.653931 0.200672 
928.626038 1.282618 
929.62793 0.276665 
930.632812 0.243526 
931.63269 0.215403 
936.738647 0.009942 
938.606262 0.085149 
941.651367 0.017763 
945.644043 0.119697 
946.637512 0.028894 
956.637146 0.318262 
957.645447 0.50115 
959.660767 1.219759 
960.66571 0.250951 
966.634949 0.344922 
967.633423 0.339466 
968.638733 0.032379 
971.649048 0.024754 
971.918518 0.018756 
978.565369 0.033521 
980.679443 0.022524 
983.651062 0.030957 
984.645752 0.585102 
985.640686 2.031161 
986.642334 0.779185 
987.691345 0.621026 
988.693237 0.181471 
997.672791 0.035139 
998.691956 0.496787 
999.691956 0.535423 
1000.693909 0.049666 
1001.668762 0.029931 
1008.842285 0.01337 
1009.67157 0.065862 
1011.662354 0.032101 
1012.685669 0.042695 
1013.611572 0.020215 
1013.711121 1.109726 
1014.717285 0.345718 
1023.678528 0.134082 
1024.691895 0.030035 
1025.857422 0.01474 
1026.646362 0.025747 
1027.688599 1.51787 
1028.688477 0.693798 
1029.696899 0.096157 
1036.656616 0.033183 
1040.709961 0.129515 
1041.70166 1.990741 
1042.704224 1.084909 
1043.713257 0.053294 
1051.687866 0.667791 
1052.68335 0.107978 
1054.683716 0.054584 
1055.700439 0.072352 
1056.708862 0.017027 
1057.733643 0.12845 
1065.705566 0.233033 
1066.719727 0.20974 
1068.748657 1.309261 
1069.742554 0.819599 
1079.714966 0.041357 
1080.711914 0.281834 
1084.744385 38.311932 
1085.74707 21.101793 
1086.749023 3.619634 
1094.728882 1.467608 
1095.732544 0.714687 
1096.716797 0.026021 
1097.724243 0.052577 
1107.782959 0.077327 
1108.713745 0.338888 
1109.717651 0.050326 
1111.779175 0.012924 
1112.739258 100.0 
1113.742188 58.302448 
1114.744385 10.453319 
1114.874512 0.051607 
1120.766235 0.021749 
1121.769653 0.095794 
1122.764648 0.045932 
1124.767822 0.025543 
1125.724365 0.200859 
1125.798462 0.380644 
1126.798828 0.096479 
1136.742065 0.697365 
1137.747559 0.168511 
1138.784912 0.336353 
1139.793701 0.247545 
1153.792358 0.133279 
1162.828125 0.170812 
1163.81543 0.027921 
1178.822632 7.360161 
1179.825439 4.988807 
1180.833374 1.545353 
1181.838989 0.143054 
1196.832764 22.336973 
1197.430054 0.026876 
1197.835205 14.709775 
1198.838379 2.835001 
1206.81665 27.064257 
1207.82019 17.899317 
1208.82251 3.61476 
1224.828247 90.589989 
1225.829956 60.8936 
1226.834106 13.036398 
END IONS

