BEGIN IONS
PEPMASS=212.98
CHARGE=1+
COMPOUNDNAME=Aconitic Acid
LIBRARYQUALITY=3
SMILES=N/A
INCHIKEY=GTZCVFVGUGFEME-IWQZZHSRSA-N
INCHI=InChI=1S/C6H6O6/c7-4(8)1-3(6(11)12)2-5(9)10/h1H,2H2,(H,7,8)(H,9,10)(H,11,12)/b3-1-
MSLEVEL=2
SOURCE_INSTRUMENT=N/A-ESI-QFT
FILENAME=library_mgf.mgf
SEQ=*..*
IONMODE=positive
ORGANISM=MONA
NAME=Aconitic Acid [M+K]+
PI=MoNA
DATACOLLECTOR=MoNA:VF-NPL-QEHF026295
PUBMED=N/A
SUBMITUSER=mwang87
TAGS=
SPECTRUMID=CCMSLIB00004717358
SCANS=26295
50.297432 0.017405 
50.516277 0.020806 
50.881233 0.018511 
51.215912 0.019336 
51.843487 0.018756 
51.940334 1.222361 
52.422466 0.062555 
53.002563 0.864352 
53.038952 0.986493 
53.07119 0.029659 
53.66658 0.024445 
53.87925 0.019144 
54.413433 0.020478 
55.018169 1.523024 
55.051311 0.02532 
55.054569 16.336414 
55.228287 0.021222 
55.934704 0.736265 
56.049809 1.921118 
56.057907 0.487968 
56.332069 0.014702 
56.942619 0.059003 
56.965092 8.141142 
57.033829 0.694735 
57.057457 0.014434 
57.070194 23.169926 
57.081955 0.029768 
57.550774 0.01942 
57.935085 78.791634 
57.943352 0.029823 
58.065426 3.963788 
58.320671 0.016713 
58.520172 0.025614 
58.603951 0.027607 
58.727619 0.028128 
58.932934 1.427466 
58.942841 0.050698 
58.998066 0.529581 
59.049423 0.125233 
59.930489 0.292239 
59.940704 0.079693 
59.958031 0.021877 
60.044727 0.025093 
60.957916 0.095294 
61.010895 9.732695 
61.013645 0.022847 
61.039864 0.085521 
61.530285 0.02228 
62.018696 3.324711 
63.006626 0.083515 
63.026527 0.021629 
63.457573 0.023033 
63.997963 0.30223 
64.288795 0.021219 
65.038795 0.309926 
65.711258 0.019405 
65.769043 0.025701 
66.605827 0.025967 
66.895294 0.023669 
67.054382 18.998989 
67.075684 0.023681 
67.586388 0.022061 
67.593102 0.021277 
67.780296 0.020969 
67.898811 0.025092 
67.935028 0.098443 
68.049622 0.142105 
68.057701 0.700259 
68.110497 0.02446 
69.0336 0.257212 
69.067917 0.039535 
69.07 10.834898 
69.315704 0.029677 
70.065247 2.271082 
70.073288 0.108246 
70.3965 0.018525 
70.538742 0.024041 
70.941666 0.023119 
70.957954 0.638056 
70.980583 0.095717 
70.997864 0.258706 
71.049232 1.974206 
71.060478 3.700393 
71.085617 6.649382 
71.087791 0.030736 
71.141487 0.031946 
71.310608 0.029064 
71.364677 0.030775 
71.929398 0.224487 
71.951973 0.183765 
72.044441 0.132659 
72.080879 0.630657 
72.347137 0.025018 
72.848915 0.028558 
72.896828 0.016055 
72.93721 1.646338 
72.958336 6.88055 
72.960541 0.038985 
73.064781 0.077514 
73.155754 0.02502 
73.929764 4.02454 
73.956184 0.590982 
74.059967 0.050527 
74.067818 0.028648 
74.096474 0.026937 
74.373947 0.017153 
74.682274 0.025571 
74.741241 0.020908 
74.937653 0.119699 
74.975372 0.033555 
75.723396 0.02142 
75.935478 0.16363 
75.945419 11.189376 
76.943398 0.021229 
76.961983 0.026964 
77.008408 1.04095 
77.762138 0.027583 
77.950974 0.037357 
78.009232 0.045907 
78.891556 0.017068 
78.919022 0.018984 
79.021286 10.675918 
79.054283 5.220939 
79.788643 0.023087 
80.049461 0.203093 
80.057579 0.027708 
80.595139 0.022678 
81.016937 0.031522 
81.033508 0.079203 
81.069939 15.010239 
81.244377 0.021909 
81.60141 0.026003 
82.065186 0.49994 
82.073303 0.584563 
83.04921 0.454147 
83.085571 4.462923 
84.044418 0.150348 
84.080856 0.661313 
85.039742 0.050594 
85.064873 1.383109 
85.101234 1.319031 
85.615204 0.025647 
86.003639 0.040335 
86.060074 0.389018 
86.096466 0.311362 
87.394058 0.028228 
87.906502 0.284422 
87.94529 0.024933 
88.075714 0.267067 
88.914421 0.025234 
88.968468 0.054604 
89.008385 0.081454 
89.906944 0.048211 
90.425529 0.021941 
90.736115 0.019236 
90.904793 0.026484 
90.91468 0.126311 
90.947746 1.326454 
90.96891 2.56648 
91.054314 4.884803 
91.546585 0.017275 
91.60405 0.024139 
91.912437 0.109921 
91.940315 1.487717 
91.966881 0.095228 
92.049431 0.027851 
92.057495 0.078543 
92.783173 0.020997 
92.938324 0.022274 
92.948204 0.271122 
93.069962 5.305254 
93.311264 0.025337 
93.430412 0.019626 
93.792809 0.022571 
93.946106 0.119541 
93.956001 16.069513 
94.06514 0.968855 
94.073227 0.128733 
94.675301 0.019893 
95.019203 0.02542 
95.049171 1.477044 
95.068558 0.024879 
95.085564 18.326544 
95.090782 0.016466 
96.044601 0.029179 
96.080856 0.532139 
96.088898 0.762383 
97.064835 1.612205 
97.075966 0.078395 
97.10128 0.489297 
98.060127 2.893076 
98.096596 0.10779 
98.40255 0.034151 
98.975388 0.935267 
98.984238 3.174415 
99.04422 0.022533 
99.080421 0.051088 
100.0756 0.131196 
100.112007 0.019133 
100.653458 0.027404 
101.459129 0.023972 
101.949974 2.034661 
101.961098 0.412673 
102.091606 0.02931 
102.914772 3.102618 
102.94809 0.052876 
102.968307 0.802004 
103.912582 0.470282 
103.922546 0.036732 
103.95153 0.178246 
103.976822 0.557368 
104.910172 0.06937 
104.930405 0.802026 
105.044815 0.457029 
105.069931 2.329057 
105.586731 0.014537 
105.917206 0.017241 
105.928246 0.336491 
105.955956 0.441828 
106.064835 0.022552 
106.073288 0.033158 
107.085587 2.574786 
107.820602 0.026862 
107.950577 0.021789 
107.971519 0.424296 
108.044304 0.073854 
108.080704 0.109525 
108.925308 0.231375 
108.958313 0.046876 
108.979462 2.475786 
109.010689 0.14243 
109.064766 0.330562 
109.101219 4.118241 
109.923019 0.11206 
109.933014 0.101491 
109.950684 0.027039 
110.060066 0.151458 
110.091812 0.024671 
110.096458 0.32852 
110.948669 0.044637 
111.080521 0.619235 
111.689423 0.017247 
112.075882 0.029796 
113.046021 0.02794 
113.751587 0.025805 
114.091324 0.023501 
114.102654 0.85535 
114.336594 0.028152 
115.55735 0.020739 
116.537888 0.022688 
116.90905 0.030396 
116.985924 0.684134 
117.069878 0.083072 
118.318893 0.016426 
118.742477 0.019856 
118.924881 0.301667 
119.001266 0.620852 
119.06044 1.034971 
119.085548 1.500936 
119.917564 1.004727 
119.93383 0.028707 
119.960434 0.753262 
120.925301 3.038374 
120.940498 1.560634 
120.978806 0.448882 
121.101173 0.22938 
121.923088 0.75773 
121.933151 2.07866 
121.988174 0.215916 
122.060074 0.023887 
122.732132 0.027523 
122.920593 0.055383 
122.930923 0.376755 
122.94091 9.560207 
123.080574 0.096958 
123.11689 0.056379 
123.416 0.020039 
123.912453 1.152914 
123.938873 4.650306 
123.943886 0.089058 
123.948814 3.006245 
124.075806 0.457037 
124.936394 0.839611 
124.946869 0.026019 
125.095306 0.104914 
125.389519 0.016251 
125.672638 0.033405 
125.945831 0.023344 
126.149834 0.018218 
127.575066 0.315247 
129.572067 0.019843 
129.769562 0.032818 
130.932785 0.025009 
131.085587 0.025392 
132.958954 0.014964 
133.101181 0.667859 
133.988449 0.099703 
134.956161 0.978272 
134.978745 0.273571 
134.996384 0.289986 
135.116837 0.174245 
135.927475 0.081143 
135.948761 2.51261 
135.956268 0.163109 
136.075607 0.046738 
136.580475 1.361531 
136.920303 0.393086 
136.935562 0.08293 
136.956757 0.168236 
137.01178 7.732746 
137.082489 0.030888 
137.096375 0.019992 
137.928085 38.256447 
137.954422 0.953676 
137.964432 1.395732 
137.970764 0.38251 
138.012589 0.986068 
138.102783 0.0203 
138.926468 0.113037 
138.935822 16.059309 
138.951035 0.936274 
138.989517 0.137978 
139.009003 0.887852 
139.528793 0.020379 
139.933289 0.073636 
139.954346 0.320342 
139.998962 0.051528 
140.070694 0.027476 
140.685638 0.027487 
140.951462 1.246742 
140.985977 0.111662 
141.922913 0.856291 
141.937332 0.016844 
141.949493 1.241065 
142.086349 1.761352 
143.019028 0.13791 
144.262726 0.02132 
145.585724 0.405352 
147.923508 0.047915 
148.971909 0.176604 
149.508987 0.027445 
150.951111 1.202175 
151.906921 0.035254 
151.943756 0.534233 
151.99884 3.969318 
152.107849 0.02173 
152.951553 6.003622 
152.966888 0.451044 
152.989441 0.069933 
152.999557 0.238515 
153.126175 0.021167 
153.95932 100.0 
153.995789 0.033677 
154.122543 0.15334 
154.930862 0.060304 
154.962921 0.533404 
154.97789 0.540184 
155.022308 3.642518 
155.676743 0.02212 
155.889572 0.028947 
155.954468 0.110196 
155.964706 0.543373 
156.023209 0.312517 
156.946381 27.225456 
157.01947 0.243856 
157.088608 0.107656 
157.964752 0.373586 
158.09671 0.054416 
158.92543 0.023123 
158.99646 0.281607 
161.030014 0.029465 
163.544373 0.026616 
163.954697 0.086857 
166.014603 0.022624 
166.145844 0.018736 
166.942032 2.34472 
166.948425 0.029507 
167.483124 0.029394 
167.938553 0.575981 
167.975037 1.880738 
168.08046 0.027417 
168.13916 0.057208 
168.55423 0.014428 
168.961761 0.261552 
168.982666 0.430263 
169.097244 0.088909 
169.917892 4.685133 
169.94426 0.183431 
170.009552 1.463382 
170.09639 0.236323 
170.96225 3.286144 
171.10408 0.023917 
171.959839 0.063367 
172.952103 0.106281 
172.988495 0.744099 
173.131119 0.022527 
174.843933 0.020588 
175.689041 0.021748 
176.975876 0.023862 
182.096588 0.050382 
183.220642 0.024756 
184.268661 0.026007 
185.120056 0.06013 
185.949203 36.115154 
186.091492 0.731228 
186.946823 0.111409 
187.954224 0.258135 
188.93605 0.255973 
188.973923 0.032993 
191.984146 0.026747 
193.116196 0.057563 
194.154327 0.040918 
195.038925 0.028259 
195.091827 0.049855 
196.958481 0.022819 
197.120178 0.028555 
198.079437 0.059833 
198.939392 0.057304 
199.011322 0.023387 
199.135712 0.080923 
199.781525 0.026394 
199.964859 0.678627 
200.094528 0.028437 
206.575745 0.024386 
206.946884 0.113734 
212.052948 0.155572 
212.142456 0.332238 
212.16449 0.034645 
212.175873 0.102922 
212.237671 0.160939 
212.777451 0.030786 
214.086349 1.23851 
214.159119 0.309457 
214.214844 0.023522 
214.252945 7.667417 
216.949844 0.106986 
219.508423 0.31833 
221.09581 0.036459 
221.191284 0.020487 
229.515778 0.022367 
229.643173 0.019055 
232.096786 0.03379 
END IONS

