BEGIN IONS
PEPMASS=405.264
CHARGE=1+
COMPOUNDNAME=Lovastatin
LIBRARYQUALITY=3
SMILES=N/A
INCHIKEY=PCZOHLXUXFIOCF-BXMDZJJMSA-N
INCHI=InChI=1S/C24H36O5/c1-5-15(3)24(27)29-21-11-14(2)10-17-7-6-16(4)20(23(17)21)9-8-19-12-18(25)13-22(26)28-19/h6-7,10,14-16,18-21,23,25H,5,8-9,11-13H2,1-4H3/t14-,15-,16-,18+,19+,20-,21-,23-/m0/s1
MSLEVEL=2
SOURCE_INSTRUMENT=N/A-ESI-QFT
FILENAME=library_mgf.mgf
SEQ=*..*
IONMODE=positive
ORGANISM=MONA
NAME=Lovastatin [M+H]+
PI=MoNA
DATACOLLECTOR=MoNA:VF-NPL-QEHF002559
PUBMED=N/A
SUBMITUSER=mwang87
TAGS=
SPECTRUMID=CCMSLIB00004693622
SCANS=2559
50.056324 0.055793 
50.057934 0.052068 
50.249287 0.048535 
50.620468 0.064218 
50.668987 0.069637 
50.670517 0.055247 
51.645199 0.048213 
51.700768 0.065284 
51.88372 0.083983 
52.187531 0.070801 
52.287182 0.043522 
52.498322 0.051009 
52.669239 0.063191 
53.039307 1.888331 
53.048275 0.075033 
53.117275 0.045329 
53.93679 0.065363 
54.035954 0.06036 
54.407455 0.061332 
54.466038 0.062942 
54.509026 0.056201 
54.555779 0.068272 
54.72205 0.060034 
54.770592 0.069725 
54.842674 0.058875 
55.018559 1.563246 
55.054962 8.90389 
55.90971 0.053453 
55.969032 0.052847 
56.016911 0.061486 
56.46067 0.077557 
56.697075 0.051775 
56.983372 0.059703 
57.07058 1.140124 
57.160614 0.067271 
57.201805 0.085529 
57.61924 0.060096 
57.6898 0.067124 
57.697552 0.049777 
58.192066 0.064789 
58.48534 0.068278 
58.53487 0.076169 
58.588551 0.067408 
59.226234 0.062911 
59.246075 0.049995 
59.478477 0.052222 
59.924992 0.063665 
59.997463 0.084113 
60.136238 0.0994 
60.201557 0.06356 
60.433491 0.068594 
60.8125 0.060236 
60.927917 0.06931 
61.371605 0.092936 
61.490273 0.08907 
61.777885 0.071933 
61.868668 0.079398 
62.156738 0.066122 
63.492992 0.059545 
63.617714 0.050515 
64.348778 0.059449 
64.365837 0.085157 
64.778564 0.064434 
64.834846 0.070564 
64.889465 0.053958 
65.039291 0.436639 
65.065605 0.045264 
65.144859 0.056576 
65.42247 0.066248 
65.710419 0.080299 
66.000771 0.066739 
66.250496 0.059527 
66.516525 0.045515 
66.802872 0.042468 
67.054893 10.368248 
67.152519 0.042298 
67.301567 0.049938 
67.399513 0.074593 
68.058037 0.069257 
68.252861 0.082359 
68.553146 0.066344 
68.562653 0.045636 
68.858261 0.077141 
68.997749 0.659991 
69.034142 0.078033 
69.070518 5.934511 
69.697456 0.051929 
69.874001 0.058317 
70.625732 0.046431 
70.670921 0.068071 
70.910202 0.048017 
71.013374 2.131088 
71.049797 0.467865 
72.361366 0.056785 
73.22908 0.056001 
73.713219 0.048605 
73.746468 0.076009 
74.321167 0.042042 
74.476585 0.049069 
75.431213 0.057784 
75.815018 0.051741 
76.065926 0.061457 
76.352623 0.068376 
77.039185 0.081205 
77.279671 0.070956 
77.516594 0.082316 
79.054771 30.688034 
79.684692 0.04913 
79.716331 0.062898 
79.864166 0.067569 
80.05809 0.767684 
80.85318 0.063265 
80.926079 0.063935 
81.070412 27.805304 
81.75766 0.05934 
82.073715 0.502378 
82.164673 0.090752 
82.341553 0.064775 
82.57782 0.065954 
82.645615 0.050833 
83.049629 8.684693 
83.364609 0.07149 
83.929932 0.059609 
83.99324 0.064888 
84.074951 0.05429 
84.564331 0.061765 
85.041893 0.06465 
85.065353 1.326925 
86.848785 0.043983 
87.105278 0.058595 
88.451866 0.059789 
88.481064 0.062018 
88.783417 0.059901 
89.023926 0.053185 
89.156494 0.046809 
89.301247 0.069782 
89.699722 0.059509 
90.722321 0.047099 
90.800407 0.065566 
90.940643 0.073175 
91.054672 17.628645 
91.433426 0.066955 
92.0578 0.118626 
92.91584 0.071975 
93.070297 14.940621 
94.073875 0.159289 
94.907501 0.044852 
95.049507 1.789606 
95.08593 5.472485 
95.199966 0.06902 
95.436844 0.049617 
95.470406 0.046763 
96.192642 0.067047 
96.983177 0.076716 
97.06517 2.759043 
97.744606 0.049268 
99.175049 0.069182 
99.647057 0.048828 
102.600578 0.047472 
102.761246 0.047541 
103.054596 0.256299 
103.643532 0.058492 
103.919823 0.057868 
104.827896 0.052458 
105.044952 0.144108 
105.07019 40.923649 
105.150833 0.049227 
105.251091 0.050399 
105.655685 0.055484 
106.073555 2.299451 
106.953934 0.063599 
107.085808 11.614297 
108.089195 0.212941 
109.065056 1.193947 
109.101311 0.512445 
112.218452 0.063299 
112.90007 0.053952 
114.73996 0.076279 
115.054451 2.403718 
116.062302 0.411773 
116.524963 0.049375 
117.070045 13.03368 
117.193794 0.06065 
118.073326 0.227759 
118.652702 0.050583 
118.895943 0.064693 
119.085663 21.609201 
119.14782 0.052971 
120.08902 1.038806 
120.290558 0.069545 
121.064728 0.080309 
121.101364 3.018762 
123.063904 0.089635 
124.920525 0.074167 
125.092804 0.068383 
126.192429 0.049402 
127.330154 0.071427 
127.549461 0.044509 
127.88797 0.069441 
128.062042 16.706324 
129.069916 14.447342 
130.072983 0.440042 
130.077774 5.157408 
130.47258 0.072564 
131.080505 0.781408 
131.085526 44.520531 
132.088882 3.367179 
132.257812 0.060666 
133.101181 4.817002 
133.8759 0.053832 
133.913956 0.069573 
134.232254 0.067023 
138.052902 0.057366 
138.419632 0.07309 
141.069733 8.155423 
141.309235 0.042411 
141.771255 0.076854 
141.970734 0.066835 
142.077652 20.550161 
143.085495 100.0 
143.351517 0.08033 
144.088226 7.247592 
144.094299 9.666888 
145.064728 0.090113 
145.095703 0.930211 
145.101105 36.466122 
146.104401 2.829235 
147.116638 0.341954 
147.587158 0.073406 
147.805954 0.062484 
149.09584 0.123298 
150.303406 0.065184 
151.163879 0.065486 
151.370529 0.065492 
152.104309 0.057994 
152.646103 0.070805 
153.069855 0.824769 
154.077591 3.874576 
155.060623 0.128132 
155.085449 22.522654 
155.484497 0.071351 
156.063782 0.066173 
156.093597 14.200915 
157.101212 27.908922 
158.109283 17.720598 
158.805237 0.046831 
159.116882 23.100622 
160.119919 1.507252 
161.66391 0.045268 
165.031937 0.054242 
165.06987 0.419011 
165.245377 0.066212 
166.077423 0.096803 
167.085464 2.403237 
168.093277 7.042892 
169.101105 32.523312 
170.103882 1.619346 
170.109604 0.332906 
171.116745 17.538506 
172.120026 1.34857 
173.096359 0.086057 
173.132385 27.416351 
173.140366 0.094897 
174.135788 3.193972 
175.958755 0.054201 
177.521835 0.063811 
178.077347 0.468295 
178.344971 0.089257 
179.085403 1.079911 
180.093491 0.101369 
181.101044 7.430184 
181.940521 0.06319 
182.109085 2.774245 
183.116806 18.660412 
183.552078 0.076242 
184.120377 0.825389 
185.104416 0.076074 
185.132431 0.552025 
185.365723 0.052156 
187.746246 0.066827 
187.854263 0.070913 
188.117905 0.063669 
192.093216 1.284294 
192.320679 0.079707 
193.101227 3.444352 
193.262115 0.077899 
194.108414 0.076529 
194.881317 0.062959 
195.116714 4.625764 
195.570175 0.088277 
196.124634 1.670734 
196.145279 0.049519 
196.760254 0.067321 
196.868317 0.067831 
196.905441 0.057358 
197.132446 8.219693 
198.135849 0.466143 
199.148071 18.711098 
200.129868 0.065988 
200.151398 1.655079 
201.164032 0.267506 
203.429047 0.061819 
204.980118 0.052354 
205.101151 0.650649 
206.108627 0.077203 
207.116501 2.770379 
208.124512 0.330615 
208.842606 0.06344 
209.438293 0.05956 
210.140182 2.501943 
211.111343 0.149659 
211.14769 0.737786 
212.493958 0.066316 
213.01297 0.061834 
213.969803 0.069482 
215.587952 0.061798 
217.646591 0.053663 
218.507217 0.083406 
219.116684 1.806662 
220.087265 0.13912 
220.095093 0.207616 
220.106781 0.445602 
220.120926 0.215115 
220.221741 0.077958 
221.132629 0.072826 
223.148071 3.419194 
224.153366 0.069746 
224.619553 0.068386 
225.163513 9.25967 
226.166748 0.620804 
228.704941 0.05941 
229.006393 0.079633 
230.884003 0.061581 
245.912491 0.056658 
249.165237 0.090431 
250.776291 0.058887 
252.703842 0.069687 
255.606888 0.051158 
257.074799 0.076434 
261.876129 0.085488 
271.535797 0.066003 
273.171387 0.071773 
273.661957 0.06434 
276.067139 0.05656 
279.668182 0.069771 
281.320038 0.063964 
281.439056 0.054926 
283.122711 0.066792 
285.246796 0.054159 
286.570923 0.074597 
304.452789 0.065161 
307.322235 0.07201 
310.00531 0.059776 
311.856079 0.085457 
312.103455 0.072887 
315.869476 0.067858 
318.485779 0.071641 
323.203766 0.065257 
331.327332 0.067325 
335.898621 0.059083 
336.947632 0.067705 
338.612122 0.081674 
338.676025 0.058114 
342.4841 0.06619 
343.798676 0.069275 
345.451996 0.053633 
355.471832 0.074762 
358.216003 0.070937 
362.080963 0.054652 
370.637604 0.048696 
376.012238 0.069272 
384.079712 0.045011 
387.21991 0.080507 
393.047913 0.078356 
394.925476 0.055155 
395.169983 0.052688 
396.977386 0.065886 
401.365906 0.08517 
408.819977 0.04832 
409.691925 0.060614 
411.574524 0.066974 
414.177429 0.070095 
422.12207 0.064633 
END IONS

