BEGIN IONS
PEPMASS=352.162
CHARGE=1+
COMPOUNDNAME=MITOMYCIN C
LIBRARYQUALITY=3
SMILES=N/A
INCHIKEY=NWIBSHFKIJFRCO-WUDYKRTCSA-N
INCHI=InChI=1S/C15H18N4O5/c1-5-9(16)12(21)8-6(4-24-14(17)22)15(23-2)13-7(18-13)3-19(15)10(8)11(5)20/h6-7,13,18H,3-4,16H2,1-2H3,(H2,17,22)/t6-,7+,13+,15-/m1/s1
MSLEVEL=2
SOURCE_INSTRUMENT=N/A-ESI-QFT
FILENAME=library_mgf.mgf
SEQ=*..*
IONMODE=positive
ORGANISM=MONA
NAME=MITOMYCIN C [M+NH4]+
PI=MoNA
DATACOLLECTOR=MoNA:VF-NPL-QEHF027736
PUBMED=N/A
SUBMITUSER=mwang87
TAGS=
SPECTRUMID=CCMSLIB00004721317
SCANS=27736
50.020767 0.019128 
50.164894 0.019546 
50.737099 0.019982 
51.114849 0.019898 
52.431644 0.023002 
52.557526 0.019313 
53.029858 0.020151 
53.671303 0.020126 
53.865841 0.019122 
54.516518 0.016724 
54.58963 0.017196 
54.980427 0.018968 
55.112392 0.018593 
55.556667 0.018335 
55.672684 0.019707 
56.049744 0.051912 
56.128231 0.024004 
56.182648 0.019769 
56.415176 0.027334 
56.571243 0.021818 
56.625481 0.014733 
56.96513 0.01875 
57.148937 0.023241 
57.496777 0.015426 
57.969227 0.019269 
58.065411 0.067024 
58.112186 0.019306 
58.746899 0.016121 
58.956863 0.022717 
59.324509 0.017848 
59.916794 0.018466 
60.04464 0.172176 
60.769424 0.020347 
61.010834 0.39168 
61.082397 0.017869 
61.163761 0.018863 
61.394577 0.015696 
62.653545 0.018143 
62.942814 0.022599 
64.324371 0.016354 
64.732628 0.017403 
65.503464 0.017899 
65.680138 0.023628 
65.8032 0.022385 
65.973732 0.038606 
66.521919 0.017218 
67.555756 0.016505 
68.049789 0.017119 
68.465202 0.015946 
68.609718 0.024932 
69.044495 0.025728 
69.054413 0.018324 
69.97155 0.017802 
70.55043 0.015375 
70.902046 0.019042 
71.049179 0.018333 
71.125702 0.0183 
71.286621 0.019642 
71.317696 0.019279 
71.517632 0.016921 
72.415138 0.020673 
73.818848 0.017446 
73.993179 0.021191 
74.711151 0.01715 
74.764893 0.020812 
75.08622 0.026953 
76.180061 0.021965 
76.566833 0.015776 
76.617149 0.021026 
77.436409 0.014281 
77.672592 0.020266 
78.062798 0.024078 
78.382301 0.01993 
79.044525 0.022319 
79.107964 0.020315 
79.126411 0.021631 
79.200508 0.020059 
79.786514 0.022315 
80.044395 0.018981 
80.161842 0.021926 
80.185722 0.020784 
81.069954 0.100979 
81.461037 0.02279 
82.064865 0.021002 
82.619476 0.018227 
82.818268 0.020728 
82.885056 0.019372 
83.048874 0.021624 
83.085594 0.047187 
86.060028 5.847286 
86.320221 0.021269 
86.834511 0.020775 
87.863518 0.021776 
88.606392 0.02258 
88.841164 0.018365 
89.780083 0.01878 
89.94014 0.020792 
90.108887 0.024876 
90.433517 0.020234 
92.049477 0.056241 
93.044853 0.133659 
93.403015 0.020011 
94.842079 0.024121 
95.048927 0.021737 
95.085564 0.090926 
95.287025 0.017228 
95.579697 0.019344 
96.478645 0.018381 
96.751366 0.019118 
97.895775 0.019659 
97.947937 0.022326 
98.549194 0.022251 
98.97538 5.150641 
98.979103 0.029724 
99.117897 0.017194 
99.970558 0.062663 
100.673569 0.024544 
100.992126 0.018 
102.783005 0.022298 
102.948227 0.02014 
103.132805 0.021323 
104.117134 0.020103 
105.044792 1.208962 
107.060387 1.277988 
107.59465 0.020358 
107.818077 0.01835 
108.044617 0.030299 
109.039581 0.021693 
109.076103 0.111227 
109.101181 0.019606 
110.060074 0.598638 
111.110451 0.017222 
111.83503 0.022884 
112.817123 0.021475 
113.347237 0.021164 
113.661743 0.022801 
115.605156 0.017099 
115.960701 0.022167 
115.966637 0.021465 
116.750237 0.017762 
116.985893 2.431889 
117.249657 0.019865 
117.410461 0.01828 
118.050034 0.080568 
119.060478 0.176278 
120.044533 0.02095 
120.64196 0.023055 
121.96106 0.01971 
122.060257 0.019533 
123.055313 2.852119 
123.675331 0.017704 
124.075874 0.134164 
124.561211 0.020272 
125.338837 0.019207 
127.281502 0.024055 
127.549675 0.022822 
129.199554 0.027713 
130.296234 0.019546 
130.652359 0.01708 
131.689362 0.020809 
132.044388 0.201059 
132.147751 0.021052 
132.958252 0.205548 
133.039612 2.409052 
133.066696 0.01998 
133.076294 0.044936 
134.996414 0.594201 
135.055313 1.158678 
136.809784 0.020798 
138.055023 0.479191 
138.65979 0.022803 
139.050476 0.148668 
139.086685 0.452849 
139.106537 0.018256 
139.594925 0.022719 
141.869064 0.019718 
143.338715 0.023995 
144.988678 0.022444 
146.21228 0.021501 
147.055313 0.351229 
147.117142 0.018268 
147.45459 0.024057 
147.981964 0.022611 
148.9841 0.022616 
149.053986 0.021835 
149.05983 0.68171 
149.07103 0.179404 
149.455734 0.020508 
150.054535 0.075254 
150.968872 0.063193 
151.050217 5.892973 
152.034286 0.605443 
152.053711 0.115402 
153.06604 0.135215 
153.959229 0.152529 
154.049911 0.023424 
154.353973 0.026315 
156.624405 0.020947 
157.226486 0.018875 
158.444626 0.021314 
159.055298 1.202706 
159.091858 0.111862 
159.466461 0.019355 
161.070801 0.171795 
161.415207 0.018273 
162.054977 0.094649 
162.078995 0.01694 
162.585678 0.028072 
163.050644 0.04178 
163.086487 0.245784 
163.976852 0.048355 
164.070679 0.328818 
164.491882 0.023781 
165.05452 0.046281 
165.065887 0.593406 
165.254715 0.01558 
166.002426 0.021963 
166.170883 0.018455 
168.217316 0.018285 
168.260757 0.025762 
169.076096 0.294033 
170.251984 0.021066 
170.341217 0.021952 
171.091736 0.294291 
171.453934 0.017532 
171.508698 0.020491 
173.788574 0.017543 
174.065918 0.112223 
175.050171 0.76352 
175.086777 0.081876 
176.081818 0.022484 
176.096512 0.021063 
177.065948 1.993087 
178.097519 0.038612 
179.081635 0.025047 
182.910812 0.020158 
184.087112 0.070662 
185.055649 0.077096 
185.070999 1.245114 
185.114731 0.248204 
185.811935 0.022032 
186.102707 0.410507 
186.178436 0.021409 
186.326935 0.021109 
186.878555 1.014804 
186.894272 0.019685 
187.086761 1.207924 
187.886292 0.406068 
188.059357 0.020853 
188.070526 1.313484 
188.080704 0.075277 
188.967819 0.068588 
189.065903 0.499879 
189.078354 1.23869 
189.102829 0.023606 
190.049042 0.024773 
190.562134 0.023022 
190.966339 0.108927 
191.081299 1.880501 
191.865265 0.02529 
191.901672 0.501584 
192.101166 0.023144 
192.961746 0.553346 
193.06073 0.489041 
193.32457 0.020218 
193.880951 0.092851 
195.896805 0.161332 
196.025314 0.021688 
196.089066 0.019752 
196.918076 0.182608 
197.070953 0.531961 
197.341553 0.019338 
198.079056 0.047388 
198.102661 0.046151 
199.073959 0.074093 
199.085495 0.023887 
199.716263 0.025814 
200.081787 0.614678 
201.065872 0.871943 
201.102554 0.021509 
202.061005 0.287767 
202.073486 0.093256 
202.086868 0.132201 
202.097336 0.835693 
202.873154 0.020569 
203.081375 1.453503 
203.488998 0.025444 
204.052933 0.81994 
204.067596 0.021204 
204.076645 2.684254 
204.888153 2.05738 
204.911301 0.026488 
205.061035 0.216875 
205.079941 0.023395 
205.661789 0.023695 
206.081863 0.156914 
206.977646 2.753267 
207.076675 0.184044 
207.488602 0.021028 
208.055893 0.022137 
208.177887 0.025799 
209.876022 2.554629 
210.366882 0.024341 
210.883987 0.171471 
210.972336 0.215211 
211.892029 0.081782 
212.081894 1.002455 
212.972229 0.022147 
213.065918 2.3815 
213.906937 0.022503 
214.073364 0.847179 
214.097519 2.710829 
214.534805 0.888908 
214.545364 0.584674 
215.070175 0.324826 
215.08136 5.512944 
216.076614 0.820575 
216.087753 0.022294 
216.113434 0.122521 
217.060669 0.576236 
217.084549 0.173504 
217.096771 0.304539 
218.068588 0.084712 
218.092148 0.108955 
219.076401 52.330334 
220.080124 5.913567 
220.884033 0.365471 
220.903336 0.224194 
221.082092 0.181282 
221.876022 0.264053 
222.898605 23.429976 
222.920044 0.19402 
223.900116 1.099386 
224.86795 0.018215 
225.06546 0.052504 
227.082138 0.026956 
227.092697 0.247621 
228.065247 0.043225 
228.076752 8.487658 
228.894958 0.020621 
229.060806 2.962167 
229.083237 0.756411 
229.097305 2.189653 
229.89592 30.516317 
230.068329 1.081496 
230.092194 9.971461 
230.897797 2.295948 
231.076523 7.833386 
231.097458 1.192172 
231.897858 0.206763 
232.026794 0.024552 
232.080643 0.661501 
232.108063 2.485596 
232.926025 0.025638 
233.09227 2.408883 
233.104172 0.123087 
233.655411 0.021562 
234.075958 0.019601 
234.095123 0.019826 
235.071472 0.764568 
235.530487 0.021411 
235.89151 0.302372 
236.915939 0.0208 
237.907486 0.107625 
238.893799 0.113493 
238.913605 0.38286 
239.886642 0.381011 
240.076706 4.651089 
240.909271 28.443455 
241.060822 1.693148 
241.082397 0.5139 
241.910568 1.736287 
242.069489 0.422878 
242.092407 37.424313 
242.912979 0.025586 
243.064789 0.041604 
243.076355 2.343608 
243.099213 0.059434 
244.070999 0.061461 
244.082367 0.032974 
244.108017 1.962713 
245.079437 0.591699 
245.091934 6.086872 
245.105957 0.0575 
245.87587 0.113145 
245.913086 0.028568 
246.086929 0.6969 
246.123703 1.845904 
246.898499 6.988928 
247.071243 100.0 
247.906631 18.039209 
248.07489 13.975859 
248.102661 0.019141 
248.90863 1.195579 
248.937744 0.018747 
249.076736 1.181279 
249.194 0.643426 
249.90741 0.153983 
250.894012 0.090244 
250.937286 0.306195 
251.116699 0.021049 
251.887314 0.103872 
251.935303 0.119509 
252.097687 0.231938 
252.894394 0.02517 
252.965164 0.080184 
253.902145 0.25245 
254.735916 0.020511 
254.925385 0.089441 
255.91774 0.224225 
257.078918 0.411585 
258.064209 0.069621 
258.087372 20.150927 
259.075562 0.018411 
259.091003 2.771436 
259.116516 0.020371 
260.103119 8.486989 
261.087067 3.440683 
261.105743 0.839252 
261.220001 0.021399 
261.8862 0.722488 
261.922699 0.067498 
261.944214 0.020506 
262.089722 0.123728 
262.11853 0.188668 
262.913757 0.664034 
262.953186 0.024039 
263.102844 0.125627 
263.886658 2.961149 
263.900726 0.182171 
263.923767 0.170851 
264.909271 59.963539 
265.911133 5.056601 
266.911957 0.501727 
266.92691 0.024533 
268.040497 0.04388 
268.800751 0.01852 
268.947632 0.069074 
269.945435 0.030129 
271.166534 0.02517 
272.103058 0.985964 
273.086945 11.294749 
274.090668 1.709328 
274.117798 0.150577 
274.893951 0.022785 
274.937347 0.396773 
275.069946 0.060104 
275.091034 0.028091 
275.935364 0.620102 
276.638916 0.020471 
277.224854 0.476141 
277.917542 0.066628 
278.113708 1.842694 
278.924774 1.704662 
279.896515 3.27741 
279.914825 0.076847 
280.924286 0.359714 
281.896881 0.565256 
281.912048 1.620885 
281.934601 0.022001 
282.919586 39.161102 
283.921997 3.444255 
284.922791 0.39819 
286.049744 1.526367 
288.909149 10.792425 
289.91153 0.865122 
290.113281 40.719864 
290.243988 0.020307 
290.947693 0.102743 
291.097473 1.349765 
291.116455 6.816702 
291.145569 0.356627 
291.932556 0.385535 
292.100922 0.020835 
292.116852 0.06205 
292.130096 0.11524 
292.199249 1.626721 
292.947906 1.611293 
293.109436 0.022018 
293.202454 0.110857 
293.945526 2.711061 
293.966705 0.092079 
294.919769 6.098187 
295.924164 0.471839 
296.935364 1.046454 
297.906647 0.704109 
298.049866 0.502688 
299.033234 0.079594 
299.36792 0.023471 
300.028412 0.024811 
304.060181 2.86481 
306.117859 0.140315 
306.919556 36.47757 
307.406982 0.024113 
307.921906 3.98621 
308.921631 0.264988 
309.943207 5.763678 
310.13855 0.021708 
310.945251 0.215814 
310.959686 0.459948 
311.955994 0.868934 
311.981873 0.02201 
315.076141 0.093872 
316.060089 3.29076 
317.044312 0.156257 
318.039581 0.185264 
318.075928 1.204815 
319.135925 0.022971 
319.927216 1.868126 
320.933441 0.162019 
321.146851 0.865099 
322.070526 0.445045 
324.930145 6.216839 
325.932617 0.423753 
326.149384 0.160492 
329.054871 0.047842 
330.04071 0.043407 
330.076538 0.022574 
333.087219 0.24509 
334.050323 0.031761 
334.070679 5.612931 
336.050873 0.066055 
336.086151 1.483467 
336.122803 0.044991 
337.938049 4.793133 
338.941376 0.241233 
340.215332 0.02497 
340.93692 0.022573 
346.289703 0.027565 
347.065948 0.455953 
348.05014 0.134862 
348.086365 1.013463 
350.065918 0.221381 
350.186493 9.483549 
351.107056 0.024374 
351.130371 1.278826 
351.162262 1.815209 
351.188202 8.013839 
352.080933 0.277166 
352.165405 0.600007 
352.19104 0.681921 
352.232147 0.193084 
353.156952 2.106168 
353.189209 0.025391 
353.229095 0.352393 
354.133026 5.731318 
354.156799 0.069187 
354.196381 0.023891 
359.065765 0.271275 
366.097107 1.130619 
368.07666 0.175364 
377.076721 0.076976 
END IONS

