BEGIN IONS
PEPMASS=448.0
CHARGE=1+
COMPOUNDNAME=MoNA:2484245 Rickamicin
LIBRARYQUALITY=3
SMILES=N/A
INCHIKEY=URWAJWIAIPFPJE-YFMIWBNJSA-N
INCHI=InChI=1S/C19H37N5O7/c1-19(27)7-28-18(13(26)16(19)24-2)31-15-11(23)5-10(22)14(12(15)25)30-17-9(21)4-3-8(6-20)29-17/h3,9-18,24-27H,4-7,20-23H2,1-2H3/t9-,10+,11-,12+,13-,14-,15+,16-,17-,18-,19+/m1/s1
MSLEVEL=2
SOURCE_INSTRUMENT=LC-ESI-IT-LC-ESI-IT
FILENAME=output_mgf.mgf
SEQ=*..*
IONMODE=
ORGANISM=MONA
NAME=MoNA:2484245 Rickamicin [M+H]+
PI=MoNA
DATACOLLECTOR=MoNA
PUBMED=N/A
SUBMITUSER=mwang87
TAGS=
SPECTRUMID=CCMSLIB00000567397
SCANS=4648
92.0 0.010218 
94.1 0.36571 
96.1 0.099674 
97.1 0.219205 
98.2 0.060497 
99.1 0.473396 
100.1 0.988479 
101.1 0.132949 
102.1 1.291624 
106.2 0.011653 
108.1 0.08638 
109.1 0.142795 
110.1 0.612565 
111.0 0.371281 
112.1 28.21978 
113.2 0.153138 
114.1 1.434171 
116.0 0.045259 
118.1 5.747952 
118.8 0.016617 
123.2 0.016424 
124.0 0.334421 
126.1 0.044376 
128.0 0.352293 
129.2 0.115657 
130.9 0.019554 
133.0 0.065571 
134.0 0.176084 
141.1 0.026008 
142.1 13.71358 
145.1 4.13087 
146.1 0.275813 
151.1 0.455276 
152.0 0.033979 
159.3 0.047824 
160.1 100.0 
160.8 0.0294 
162.4 0.072646 
163.1 69.102537 
163.7 0.018492 
169.1 0.197266 
187.1 3.756472 
187.8 0.023319 
188.8 0.016493 
205.1 17.528508 
207.2 0.041563 
208.0 0.015045 
227.1 0.011404 
229.2 0.006012 
269.2 0.014107 
273.1 0.881662 
274.9 0.052154 
287.2 0.049079 
291.2 0.017486 
303.5 0.043383 
304.2 0.247723 
322.2 1.27469 
390.8 0.027139 
489.8 0.045879 
499.9 0.042252 
END IONS

