BEGIN IONS
PEPMASS=308.149
CHARGE=1+
COMPOUNDNAME=dehydrocurvularin
LIBRARYQUALITY=3
SMILES=N/A
INCHIKEY=AVIRMQMUBGNCKS-GQCTYLIASA-N
INCHI=InChI=1S/C16H18O5/c1-10-5-3-2-4-6-13(18)16-11(8-15(20)21-10)7-12(17)9-14(16)19/h4,6-7,9-10,17,19H,2-3,5,8H2,1H3/b6-4+
MSLEVEL=2
SOURCE_INSTRUMENT=N/A-ESI-QFT
FILENAME=library_mgf.mgf
SEQ=*..*
IONMODE=positive
ORGANISM=MONA
NAME=dehydrocurvularin [M+NH4]+
PI=MoNA
DATACOLLECTOR=MoNA:VF-NPL-QEHF016202
PUBMED=N/A
SUBMITUSER=mwang87
TAGS=
SPECTRUMID=CCMSLIB00004707265
SCANS=16202
50.043072 0.001456 
50.236717 0.001154 
50.455513 0.005505 
50.871574 0.005313 
51.312626 0.007864 
51.551739 0.001373 
51.593704 0.036366 
51.72263 0.053808 
51.858524 0.00125 
52.059181 0.028147 
52.219326 0.034114 
52.256996 0.037927 
52.343788 0.046294 
52.785042 0.037678 
52.807285 0.015148 
53.038944 0.169227 
53.838833 0.008875 
54.028309 0.041214 
54.112766 0.03799 
55.018181 0.207373 
55.035091 0.044957 
55.054569 12.035024 
55.311012 0.038381 
55.639709 0.010794 
55.783436 0.017263 
55.916019 0.02468 
56.049812 23.259932 
56.051353 0.100886 
56.057934 0.474323 
56.060818 0.008284 
56.068199 0.041838 
56.261353 0.003225 
56.459633 0.002528 
56.725006 0.015888 
56.965099 0.045031 
56.985069 0.001174 
57.033798 0.643323 
57.053139 0.244393 
57.07021 0.197473 
57.091724 0.034832 
57.292343 0.038076 
57.514599 0.004853 
57.935127 0.002827 
58.065453 0.001568 
58.125099 0.002592 
58.1315 0.001636 
58.377666 0.025262 
58.76152 0.001435 
59.049427 0.967912 
59.05888 0.02833 
59.183594 0.03563 
59.31826 0.008391 
59.343697 0.053014 
59.671394 0.002973 
59.715946 0.001625 
59.930431 0.001416 
59.939857 0.03904 
60.58588 0.00128 
61.010925 100.0 
61.629635 0.021661 
61.659531 0.00308 
61.887707 0.03325 
62.010254 0.308593 
62.014225 1.883603 
62.0187 0.567298 
62.774616 0.002578 
63.006676 2.440331 
63.412853 0.039188 
63.443233 0.029097 
64.319344 0.015033 
64.732849 0.001482 
64.735413 0.005994 
64.739281 0.006026 
64.856117 0.01571 
64.897568 0.02644 
65.038994 0.001674 
65.704781 0.001232 
66.950943 0.040837 
67.054398 1.303672 
67.701317 0.024534 
67.843674 0.004688 
68.40538 0.029414 
68.99115 0.039841 
69.009331 0.00115 
69.033623 0.003465 
69.07003 0.370766 
69.32283 0.001173 
69.548683 0.001458 
69.578239 0.003671 
69.794373 0.001277 
70.065247 0.726789 
70.51973 0.017067 
70.717751 0.041336 
70.980751 0.001604 
71.020004 0.002678 
71.04924 1.544012 
71.085579 0.209016 
71.330727 0.002708 
71.422707 0.009888 
71.552971 0.00926 
71.660255 0.002589 
71.940514 0.004009 
72.04023 0.002619 
72.071678 0.001548 
72.428261 0.022475 
72.676628 0.009092 
72.937408 0.215236 
72.955437 0.018553 
73.012459 0.003629 
73.064896 0.025835 
73.322418 0.007868 
73.999519 0.004575 
74.171417 0.048605 
74.19503 0.041243 
74.54628 0.024454 
74.865227 0.015601 
74.930977 0.003795 
75.14946 0.008342 
75.186874 0.03497 
75.945946 0.004871 
76.832092 0.003051 
77.015381 0.036879 
77.447144 0.002963 
77.571487 0.002807 
78.17012 0.001345 
78.303307 0.034475 
78.967285 0.004195 
79.021317 1.338297 
79.051933 0.008888 
79.054314 2.91402 
79.901718 0.004758 
80.306412 0.001279 
80.413582 0.026354 
80.442131 0.032282 
81.033577 0.02895 
81.069954 41.995598 
81.105141 0.022148 
81.251579 0.001422 
81.913834 0.036833 
82.073318 2.315054 
82.254448 0.009905 
82.331947 0.018673 
82.461159 0.029179 
82.950661 0.002865 
83.049194 1.461104 
83.085587 0.068347 
83.227554 0.039983 
83.528389 0.006725 
83.713966 0.001416 
83.726616 0.042405 
83.729195 0.041749 
84.052673 0.032504 
84.124763 0.003082 
84.497063 0.028059 
85.028481 0.012412 
85.065025 0.061974 
85.101219 0.008444 
85.238731 0.035769 
85.63781 0.001614 
86.158607 0.001794 
86.893578 0.009435 
87.044167 0.015211 
87.225883 0.009534 
87.256081 0.001612 
88.735786 0.043705 
88.759972 0.029273 
89.059929 0.150666 
89.311798 0.001409 
89.877342 0.034645 
90.947624 0.001262 
91.007042 0.046957 
91.054214 0.061986 
91.291809 0.008309 
92.341537 0.001264 
92.732834 0.001202 
92.982872 0.004064 
93.07003 0.330021 
94.021217 0.002748 
94.305252 0.016661 
94.53035 0.004634 
94.583405 0.002156 
94.627998 0.031251 
94.984299 0.001539 
95.049194 0.898357 
95.085587 4.963973 
95.250275 0.001259 
96.052383 0.001963 
96.081139 0.044164 
96.088875 0.022035 
96.318428 0.002483 
96.879196 0.003454 
97.064865 0.100274 
97.101318 0.034475 
97.262604 0.044059 
98.096519 95.741127 
98.975433 0.178561 
99.044212 0.005686 
99.080544 18.287609 
99.093903 0.046255 
99.099831 5.638286 
99.103233 0.051649 
99.181282 0.001498 
99.262955 0.031258 
99.317368 0.016125 
99.377892 0.041206 
99.943596 0.001422 
100.083809 0.238032 
100.983658 0.050707 
100.99012 0.00693 
101.059868 0.001351 
101.933197 0.009684 
101.998436 0.003364 
102.914383 0.001356 
102.930374 0.030331 
102.967438 0.003111 
103.265419 0.007774 
103.327423 0.014334 
103.736382 0.042869 
103.974915 0.001751 
104.146584 0.007504 
104.343597 0.008694 
104.845673 0.015163 
104.930481 0.19538 
104.992485 0.003158 
105.06987 0.125691 
106.017082 0.006393 
106.117126 0.03697 
106.59845 0.028346 
106.998421 0.063155 
107.049217 0.022615 
107.08548 0.020151 
107.50811 0.001514 
107.630508 0.001697 
107.875458 0.039695 
107.906258 0.04283 
107.961281 0.002867 
107.980354 0.001419 
108.46801 0.035127 
109.064941 0.021464 
109.101112 0.011187 
109.48999 0.005893 
109.531754 0.04309 
110.203217 0.003216 
110.573891 0.037601 
110.912384 0.041417 
111.044312 0.00146 
111.080406 0.011725 
111.116859 0.002457 
111.517723 0.001273 
111.754585 0.016008 
111.842049 0.013815 
112.755836 0.041343 
113.028076 0.00792 
113.096329 0.001696 
113.657249 0.014905 
114.65799 0.014965 
115.039078 0.007509 
115.574478 0.001199 
115.630569 0.043623 
116.28199 0.04265 
116.373947 0.045389 
116.986031 0.173286 
117.069809 0.00142 
118.511787 0.003733 
118.517426 0.003105 
119.04892 0.001374 
119.085739 0.007103 
119.242546 0.009922 
119.727936 0.043654 
119.943855 0.638886 
120.0811 0.001507 
120.862396 0.016493 
120.940636 0.962683 
121.028542 0.012252 
121.064774 0.006038 
121.101257 0.007334 
122.618378 0.00302 
122.940994 2.373685 
123.0 0.019727 
123.044167 21.493608 
123.080574 1.214409 
123.379616 0.00122 
123.948944 0.001622 
124.012589 0.001379 
124.047577 0.769445 
124.543015 0.00897 
125.180038 0.003736 
125.768166 0.039994 
127.819122 0.017128 
129.744415 0.035485 
131.085495 0.001894 
131.679581 0.042405 
131.943588 0.029473 
133.064911 0.001324 
133.10112 0.004627 
133.217453 0.05733 
133.629333 0.001171 
133.743958 0.00461 
133.948273 0.011406 
134.91983 0.11795 
134.942062 0.043665 
134.95636 0.039493 
134.978745 1.029741 
134.996521 0.184047 
135.044098 0.004924 
135.080643 0.001358 
135.094482 0.006495 
135.117249 0.002645 
135.492737 0.040376 
135.927505 0.099374 
136.97438 0.001297 
137.011917 0.009206 
137.023392 0.003771 
137.059952 0.009666 
137.694946 0.020982 
137.821304 0.04774 
137.928146 0.69423 
137.954346 0.069036 
138.936996 0.003481 
138.95134 0.199178 
139.039001 0.013999 
139.137955 0.001225 
140.424683 0.031113 
140.740723 0.001348 
140.951523 0.032042 
141.090881 0.040353 
143.351562 0.037044 
144.740479 0.0011 
145.101395 0.003915 
145.496918 0.00116 
145.500931 0.020123 
146.17421 0.001309 
146.974976 0.043091 
147.044327 0.034364 
147.303925 0.040928 
148.282898 0.006685 
148.347839 0.001763 
148.955841 4.540338 
148.971832 2.729774 
148.994598 0.025209 
149.022873 0.044045 
149.059875 0.018986 
149.714508 0.002695 
149.9543 19.341 
150.866028 0.028403 
150.91568 0.114308 
150.951172 72.634613 
150.972336 0.05787 
151.032684 0.00159 
151.039047 0.875962 
151.111694 0.004018 
151.439026 0.044576 
151.612076 0.048519 
151.651184 0.038402 
151.672119 0.001144 
151.950684 0.627326 
151.970184 0.09994 
152.196182 0.015721 
152.934799 0.003245 
152.945831 0.011178 
152.951691 2.815031 
152.989304 0.419432 
153.007141 0.025654 
153.053925 0.001399 
153.278366 0.047655 
153.495697 0.001096 
153.534622 0.008638 
153.951813 0.001339 
153.959351 0.61212 
154.05806 0.001539 
154.913239 0.279133 
154.942322 0.029638 
155.337082 0.041866 
155.410034 0.010745 
155.955032 0.001198 
156.908798 0.052915 
156.94754 0.01194 
158.953781 0.003154 
159.080322 0.001465 
159.117203 0.001229 
160.184143 0.040537 
161.060013 0.212634 
161.096481 0.00775 
161.132629 0.001312 
162.065109 0.036808 
163.039307 0.074091 
163.075806 0.051357 
163.26384 0.015011 
163.995331 0.039974 
164.705795 0.004582 
165.018539 0.020165 
165.054688 9.364798 
165.614014 0.003501 
166.022446 0.017151 
166.058365 0.445958 
166.966492 1.291096 
166.9832 0.024202 
167.005066 0.374627 
167.033966 12.864627 
167.488419 0.026088 
167.964798 5.446439 
168.037506 0.233932 
168.546143 0.042038 
168.925385 0.74337 
168.948517 0.076014 
168.961685 27.051146 
168.969498 0.509401 
168.976074 0.000998 
168.983002 1.322904 
169.031525 0.043922 
169.049561 0.432651 
169.917908 0.010743 
169.961792 0.032994 
169.980774 0.001494 
170.060471 0.002115 
170.926102 0.003197 
170.955521 0.023559 
170.96286 1.493414 
171.000183 0.010964 
171.080902 0.001837 
171.933655 0.23797 
172.923706 0.325256 
173.05957 0.004467 
173.095932 0.002237 
173.250549 0.001251 
173.991959 0.049885 
174.919098 0.009636 
174.958496 0.005387 
175.038864 0.210069 
175.075623 0.003821 
175.112274 0.004027 
176.045197 1.442225 
176.079208 0.00903 
176.908051 0.041677 
176.969635 0.040622 
177.019669 0.002843 
177.052246 1.972074 
178.06076 0.144545 
178.987061 0.013652 
179.024857 0.001474 
179.034256 0.027393 
179.067673 0.331425 
179.841232 0.037297 
179.947159 0.014303 
180.943954 3.49983 
181.049789 0.01356 
182.944443 0.002457 
183.029144 0.053552 
183.886078 0.029278 
184.181152 0.0086 
185.015579 0.004865 
185.059601 0.003035 
185.928375 0.167813 
185.939819 0.032364 
185.949005 0.089113 
185.964188 0.002009 
186.935791 3.248643 
186.958282 1.133977 
187.063416 0.001515 
187.13678 0.034364 
187.945053 0.005469 
188.082428 0.001516 
188.925003 0.001243 
188.936295 0.315373 
188.965973 0.022679 
188.974228 0.114904 
189.05484 0.968634 
189.93428 0.04236 
190.058411 0.232749 
190.096359 0.007028 
191.034042 0.004981 
191.070618 0.001908 
191.10463 0.001351 
191.27037 0.016917 
192.072647 0.001344 
192.904846 0.015738 
193.049713 7.817036 
194.054428 0.776864 
194.572693 0.04101 
195.029037 0.985646 
195.062515 0.33323 
196.959335 0.028645 
197.045059 0.002078 
197.957016 0.001566 
198.068222 0.001414 
198.954559 3.013329 
199.075394 0.005267 
199.544815 0.027957 
199.59639 0.009536 
199.818924 0.001385 
199.892975 0.687213 
200.918961 0.05099 
201.091431 0.001381 
201.400742 0.019028 
201.90506 0.227299 
202.268341 0.004105 
202.908554 0.040273 
203.034439 0.0578 
203.070572 0.016599 
203.107193 0.034772 
203.923615 0.12574 
203.938858 0.081622 
204.039932 0.551972 
204.108841 0.001858 
204.950745 0.146338 
204.969345 0.362704 
204.978668 0.001824 
205.048203 0.735244 
205.988373 0.007978 
206.053635 0.003804 
206.49176 0.040229 
206.947174 0.110585 
206.977692 0.005883 
207.065231 0.284042 
207.523453 0.04591 
208.714752 0.042015 
209.044037 0.060616 
209.563416 0.004612 
209.876465 0.001772 
209.958008 0.308312 
210.954636 3.720584 
211.060272 0.111432 
211.651016 0.036096 
211.871078 0.001575 
213.905212 6.510995 
214.09639 0.013566 
215.026855 1.297748 
215.044327 0.113617 
215.904251 0.356153 
216.016693 0.043921 
216.951614 0.151299 
217.050293 0.003765 
217.903687 0.397515 
218.929291 0.71068 
219.064178 0.002019 
219.899796 0.05468 
219.915421 0.036455 
219.926697 0.006324 
220.903595 0.004968 
221.044281 0.003168 
222.898849 0.232007 
222.979309 0.004652 
224.334442 0.030829 
227.10701 0.003183 
227.968552 0.359708 
228.111267 0.003796 
228.577255 0.003025 
228.928772 23.98035 
228.965027 0.229136 
229.696365 0.008311 
229.896362 0.043982 
229.929825 1.104915 
230.929245 3.624105 
230.967728 0.070413 
231.100754 0.078717 
231.915939 25.151154 
232.916183 1.343519 
233.914734 2.80621 
234.914322 0.672035 
234.962585 0.010216 
236.940018 0.023151 
238.913971 0.01016 
239.130081 0.029678 
239.846176 0.042879 
240.909744 0.541738 
241.911835 0.006214 
242.091782 0.002836 
242.909546 0.00915 
243.570969 0.041361 
243.755035 0.00297 
243.936768 0.005057 
244.959396 0.047309 
245.118042 0.058097 
245.942825 0.730961 
246.122513 0.001644 
246.416046 0.008166 
246.939285 54.865452 
246.961823 0.08607 
247.862198 0.002782 
247.894958 0.010637 
247.90741 0.020072 
247.93985 4.138419 
248.921646 0.039851 
248.93956 19.934511 
249.925964 1.180237 
249.937988 3.489279 
251.049927 0.046202 
251.391403 0.044763 
251.926819 0.723409 
252.925461 0.012056 
253.902832 0.01378 
255.101913 0.001337 
255.898407 0.0015 
260.102631 0.214315 
261.108948 0.947713 
262.955292 0.005737 
263.115997 0.006334 
263.905823 0.087923 
264.910339 0.016494 
264.950134 0.90051 
264.972137 0.095465 
265.009705 0.025879 
266.950439 2.735824 
267.9487 0.036473 
268.784454 0.007384 
268.870941 0.001479 
269.821167 0.018453 
274.858398 0.001266 
275.552124 0.001362 
277.90274 0.00233 
279.896881 0.014667 
280.814026 0.00172 
280.901794 0.005875 
281.559967 0.045221 
281.912811 0.054022 
282.919617 0.006501 
283.820831 0.014027 
283.914856 0.005495 
284.808319 0.025232 
284.827026 0.00344 
285.815674 0.282733 
285.834229 0.006736 
286.823578 0.074898 
287.831543 0.145984 
288.096497 0.009984 
289.065918 0.037698 
290.532471 0.015446 
290.972015 0.018395 
291.848358 0.038753 
292.262665 0.017253 
294.629089 0.052881 
296.80835 0.003818 
297.815918 0.005822 
297.907623 0.011197 
299.06308 0.010354 
299.814423 0.001664 
300.693848 0.003058 
300.823029 0.004972 
301.810699 0.056526 
302.818481 0.182827 
303.640625 0.00676 
303.825562 0.015292 
306.16098 0.01788 
310.843109 0.001572 
311.647858 0.003209 
312.355072 0.005384 
312.490845 0.043782 
312.713867 0.003016 
312.839233 0.122042 
316.455658 0.046994 
316.821564 0.042569 
316.991272 0.001454 
318.656128 0.050645 
326.366211 0.001953 
326.818665 0.030141 
326.838806 0.010119 
327.187836 0.045618 
327.826202 0.084896 
328.731689 0.018066 
328.834045 0.025124 
330.349121 0.006062 
END IONS

