BEGIN IONS
PEPMASS=304.095
CHARGE=1+
COMPOUNDNAME=ANISOMYCIN
LIBRARYQUALITY=3
SMILES=N/A
INCHIKEY=YKJYKKNCCRKFSL-BFHYXJOUSA-N
INCHI=InChI=1S/C14H19NO4/c1-9(16)19-14-12(15-8-13(14)17)7-10-3-5-11(18-2)6-4-10/h3-6,12-15,17H,7-8H2,1-2H3/t12-,13+,14+/m0/s1
MSLEVEL=2
SOURCE_INSTRUMENT=N/A-ESI-QFT
FILENAME=library_mgf.mgf
SEQ=*..*
IONMODE=positive
ORGANISM=MONA
NAME=ANISOMYCIN [M+K]+
PI=MoNA
DATACOLLECTOR=MoNA:VF-NPL-QEHF027600
PUBMED=N/A
SUBMITUSER=mwang87
TAGS=
SPECTRUMID=CCMSLIB00004721181
SCANS=27600
51.940311 0.213963 
52.359249 0.019007 
52.459671 0.016142 
53.002552 0.615517 
53.038952 1.429429 
53.545338 0.081635 
53.997795 0.070774 
55.018204 0.068379 
55.054565 3.181939 
55.073376 0.017619 
55.348629 0.05396 
55.547546 0.020719 
55.934727 0.753437 
56.049793 1.234218 
56.057903 0.032322 
56.965195 0.024414 
57.033737 0.065776 
57.050152 0.062099 
57.057739 0.02464 
57.07019 18.241301 
57.339966 0.058248 
57.425362 0.065608 
57.495392 0.015851 
57.500763 0.018526 
57.935066 0.140279 
58.065426 17.372955 
58.073536 1.191864 
59.068771 0.35772 
60.044666 0.566479 
60.159828 0.016149 
60.725452 0.059349 
60.973419 0.019708 
61.010902 2.203013 
61.038609 0.020054 
61.05241 0.02004 
61.57235 0.068389 
61.800732 0.064488 
61.902901 0.055622 
62.010368 0.023801 
62.014168 0.085262 
62.018715 1.178482 
62.03986 0.017538 
63.006638 0.446125 
63.022133 0.034564 
63.978474 0.018602 
64.014473 0.213258 
64.461472 0.019304 
65.038765 1.42221 
66.408485 0.021356 
66.832733 0.022377 
67.05442 0.436032 
67.750313 0.019543 
67.793709 0.019526 
67.883934 0.058068 
68.049622 0.24636 
69.044876 5.33758 
69.04702 0.038948 
69.07 0.636818 
70.028961 0.086802 
70.065285 0.646471 
70.945099 0.058747 
70.958054 0.234187 
71.060623 0.036034 
71.085625 4.517192 
71.49324 0.066898 
71.929413 0.130528 
72.044495 0.199024 
72.080833 0.330043 
72.088943 0.304757 
72.539017 0.023065 
72.648766 0.073881 
72.937233 0.761194 
73.58477 0.020464 
74.060104 0.285121 
75.782318 0.060081 
77.095001 0.020861 
77.434563 0.016555 
79.021385 0.024247 
79.054291 0.207568 
79.384377 0.019718 
79.647652 0.061773 
80.049522 100.0 
81.033615 0.057541 
81.04686 0.071657 
81.050171 0.026168 
81.052902 4.601153 
81.055542 0.03052 
81.069977 0.488821 
81.68486 0.019726 
82.065186 0.178066 
83.049202 3.787246 
83.051819 0.031493 
83.060448 1.900604 
83.085617 0.290983 
84.044456 0.421065 
84.08078 0.079977 
84.193993 0.023662 
85.039665 0.543971 
85.076088 0.428972 
85.101242 0.927997 
85.451591 0.059286 
86.096542 0.026972 
86.104515 0.08881 
87.47805 0.077107 
88.07576 2.251876 
88.323746 0.049253 
88.968437 0.051009 
89.940109 0.060707 
90.360626 0.071751 
90.947762 1.359151 
91.054314 52.250538 
91.868454 0.067998 
91.948097 0.028523 
92.057625 3.071644 
92.756844 0.02271 
93.057434 0.046925 
93.069901 0.053672 
94.065193 0.61398 
95.049301 0.284526 
95.060539 0.024566 
95.085625 0.455657 
95.180794 0.021029 
96.035912 0.023274 
96.044395 0.259682 
96.088852 0.086969 
96.480804 0.056291 
97.101318 0.055487 
98.059883 0.027147 
98.064751 0.054718 
98.975563 0.067116 
99.236053 0.019639 
100.075874 0.025297 
102.055084 0.095445 
104.908043 0.076264 
104.990211 0.028301 
105.044876 0.051227 
105.069977 0.344037 
105.08654 0.027036 
105.917152 0.137694 
106.065178 0.49756 
107.049393 0.047588 
107.073029 0.025312 
107.119972 0.017733 
107.950691 0.030446 
108.081055 0.020533 
108.958366 0.106149 
109.0644 0.028866 
109.101219 0.035168 
109.493317 0.021184 
110.071526 0.056775 
110.104538 0.117014 
110.108513 0.022797 
110.333908 0.023894 
112.032486 0.027535 
112.075645 0.044043 
115.054214 0.075934 
115.086609 0.02346 
115.647934 0.068057 
115.819351 0.02465 
116.720161 0.019166 
117.069992 0.020158 
117.51532 0.017673 
117.719231 0.022225 
117.989296 0.02434 
118.065353 0.027652 
118.086372 0.094414 
118.92498 0.305722 
118.943169 0.018085 
119.049271 0.024365 
119.085648 0.11486 
119.925102 0.022001 
119.951035 0.022113 
120.081032 0.230358 
120.920914 0.027232 
121.064819 22.386518 
121.088409 0.021232 
122.0681 0.591091 
122.940895 0.276196 
124.119797 0.024117 
124.936073 0.127302 
125.961128 0.082203 
127.036766 0.062974 
128.062332 0.106836 
128.983871 0.023574 
129.069824 0.062129 
130.041046 0.022458 
132.056961 0.052841 
132.081314 0.020727 
132.608093 0.05089 
132.958313 1.506114 
133.064346 0.077572 
133.101456 0.034203 
134.096451 0.128564 
134.956421 0.056876 
135.080475 0.623044 
135.862854 0.021728 
136.935577 0.263318 
137.928146 0.095685 
140.33989 0.055182 
140.759308 0.025589 
140.951645 0.021248 
141.796295 0.02591 
143.977997 0.017499 
144.057022 1.382957 
144.943466 0.025392 
145.065002 0.590881 
145.088806 0.067122 
146.072754 0.110502 
146.096207 0.030648 
146.117218 0.061004 
146.918488 0.879201 
146.974594 0.052167 
147.080566 1.00255 
148.971878 1.271967 
149.974518 0.076144 
150.091171 0.060616 
150.951324 0.026448 
150.968704 2.41167 
151.958694 0.02442 
151.970917 0.05127 
152.951523 0.77064 
152.966827 0.102644 
153.959549 0.322584 
154.946991 0.140686 
155.954453 0.021005 
156.081009 0.021466 
157.063156 0.020701 
157.08905 0.033566 
158.060181 0.027249 
158.07254 0.11913 
158.509521 0.023051 
159.080383 0.584856 
160.075851 0.721161 
160.112213 0.032969 
161.084473 0.031515 
161.096222 0.472264 
161.207016 0.076514 
162.091507 0.07425 
164.609741 0.028938 
164.929001 0.150794 
165.938766 0.03187 
166.200851 0.020105 
166.241364 0.069549 
166.982635 0.105029 
167.380325 0.025274 
168.081055 0.171164 
168.917496 0.058778 
169.08876 0.098197 
169.934799 0.075468 
170.962204 0.209403 
171.080765 0.188506 
171.904526 0.028871 
172.603821 0.023223 
173.083878 0.105422 
174.068085 0.019229 
174.091705 0.186288 
174.591629 0.059322 
175.075302 0.030237 
180.888214 0.602052 
180.962448 0.045796 
182.830658 0.070858 
182.939865 0.018496 
183.080566 0.023899 
184.664459 0.049976 
185.083969 0.128993 
185.949753 0.038012 
186.091385 0.628859 
186.928146 0.391542 
188.107254 0.104957 
190.086441 0.137853 
192.352875 0.071798 
192.96199 0.08759 
193.057663 0.066157 
193.963837 0.021448 
198.067841 0.248967 
198.091553 0.380566 
198.703369 0.064062 
198.899048 0.032737 
200.10704 1.001125 
203.019653 0.018375 
203.134537 0.024233 
203.143311 0.906283 
204.138641 0.03301 
204.174744 0.078037 
204.888748 0.028118 
209.146606 0.066878 
210.000214 0.019648 
210.972 0.10927 
212.237396 1.946975 
213.091141 0.066622 
213.240784 0.13532 
215.185669 0.05641 
216.102768 0.087819 
217.245743 0.021235 
218.117584 0.05557 
219.174622 0.795455 
219.738937 0.084455 
219.751236 0.417045 
220.903305 0.078892 
222.898727 2.507449 
227.820297 0.064008 
230.190994 0.018473 
236.127975 0.025361 
237.069183 0.068013 
237.24585 0.016828 
238.914413 0.095003 
239.902069 0.049787 
240.233551 0.029441 
240.909286 3.192091 
241.235916 0.375619 
241.91095 0.029036 
244.187149 0.068138 
251.302048 0.06997 
256.262848 0.019591 
257.242554 0.028538 
258.820343 0.017865 
273.669128 0.021035 
274.526031 0.019761 
277.156128 0.025829 
285.132965 0.018607 
285.816528 0.022268 
286.097778 1.903026 
287.101227 1.177285 
288.104797 0.03305 
288.232208 0.04888 
302.817078 0.022907 
304.263245 0.037623 
304.300079 0.488228 
305.157318 0.230495 
315.421539 0.068017 
321.713257 0.065324 
324.288452 0.073138 
327.497375 0.057309 
END IONS

