BEGIN IONS
PEPMASS=282.17
CHARGE=1+
COMPOUNDNAME=Isocycloheximide
LIBRARYQUALITY=3
SMILES=N/A
INCHIKEY=YPHMISFOHDHNIV-UHFFFAOYSA-N
INCHI=InChI=1S/C15H23NO4/c1-8-3-9(2)15(20)11(4-8)12(17)5-10-6-13(18)16-14(19)7-10/h8-12,17H,3-7H2,1-2H3,(H,16,18,19)
MSLEVEL=2
SOURCE_INSTRUMENT=N/A-ESI-QFT
FILENAME=library_mgf.mgf
SEQ=*..*
IONMODE=positive
ORGANISM=MONA
NAME=Isocycloheximide [M+H]+
PI=MoNA
DATACOLLECTOR=MoNA:VF-NPL-QEHF023914
PUBMED=N/A
SUBMITUSER=mwang87
TAGS=
SPECTRUMID=CCMSLIB00004714977
SCANS=23914
50.098499 0.028352 
50.255119 0.04061 
50.568279 0.018272 
50.611027 0.055954 
51.020237 0.029046 
51.677338 0.054575 
52.346985 0.039238 
52.488419 0.03534 
52.600155 0.065026 
53.609997 0.049987 
53.951126 0.060051 
55.054527 0.499833 
55.683903 0.032317 
55.900784 0.047886 
56.969872 0.021351 
57.0214 0.04741 
57.033794 0.039922 
57.070206 0.132713 
57.993549 0.015386 
58.830616 0.056129 
59.871864 0.021745 
60.044586 1.48121 
60.767578 0.052814 
61.010826 0.81399 
61.189377 0.048559 
61.718285 0.050856 
62.895489 0.044235 
63.401443 0.047842 
63.662472 0.032312 
65.094513 0.036146 
66.851006 0.032507 
67.054359 0.515185 
67.546364 0.065358 
68.778473 0.040787 
69.033562 0.350968 
69.07 2.769872 
69.251465 0.041517 
69.286957 0.02801 
69.941925 0.058396 
70.429878 0.046717 
71.049103 0.185437 
71.085609 0.046557 
71.293648 0.047688 
72.720024 0.025314 
72.726288 0.043407 
72.749008 0.039227 
72.920403 0.039685 
73.500099 0.052696 
74.844452 0.044874 
75.109726 0.050397 
77.038918 0.052516 
77.82222 0.019005 
77.954002 0.031426 
78.723907 0.042028 
78.967049 0.339213 
79.054199 1.237538 
80.491302 0.043576 
81.033485 0.211835 
81.069946 2.960575 
81.938141 0.018425 
82.065079 2.009235 
82.073219 0.063698 
83.049217 5.467234 
83.085464 1.408483 
84.499916 0.059683 
84.843536 0.048851 
85.142639 0.037365 
86.225563 0.050742 
89.059814 4.679229 
90.921211 0.038828 
91.054276 0.72709 
92.206795 0.040308 
92.793327 0.050514 
92.982697 0.370217 
93.069893 1.870388 
94.073021 0.046744 
95.049126 2.288899 
95.06855 0.040103 
95.085579 9.950951 
96.044456 64.214462 
96.08886 0.682125 
97.028374 0.815929 
97.047806 3.115639 
97.050758 0.214938 
97.064804 1.736787 
97.101295 3.389539 
98.104881 0.043021 
98.145973 0.026898 
98.617775 0.040209 
101.507294 0.022418 
102.759621 0.041708 
104.038826 0.035322 
105.069969 3.696938 
106.073296 0.032376 
106.998306 0.985329 
107.049194 3.183383 
107.085602 14.573741 
108.052574 0.063679 
108.088806 2.294991 
109.064766 0.552424 
109.101326 2.866905 
109.40937 0.036537 
109.480949 0.049736 
110.060005 0.123713 
110.104477 0.020209 
110.975899 0.052266 
111.044228 0.108036 
111.08046 0.597929 
112.039352 4.456361 
112.075623 0.100829 
113.059547 0.168905 
114.054893 1.837406 
114.208611 0.042899 
116.052917 0.080724 
117.069946 0.930749 
118.141296 0.019271 
118.85141 0.057041 
119.085625 6.924275 
119.161346 0.053148 
120.088844 0.631224 
120.168404 0.031364 
121.006866 0.022792 
121.028488 5.797576 
121.064865 2.715572 
121.069 0.035786 
121.101303 7.65939 
121.811272 0.05075 
122.031738 0.212069 
122.059982 0.522173 
122.068123 0.055624 
122.104523 0.408463 
123.044144 3.628845 
123.08049 26.416254 
123.11676 0.281624 
123.882294 0.037965 
124.075706 0.913542 
124.083763 3.41029 
125.059799 3.666927 
125.096161 17.416183 
126.054962 2.293417 
126.062538 0.059993 
126.099129 2.399478 
127.111099 0.056885 
128.73288 0.052113 
129.06987 0.553483 
131.049561 0.082876 
131.085526 1.629702 
132.088898 0.040368 
133.064804 0.61443 
133.085907 0.478422 
133.101166 1.85771 
133.702347 0.060266 
134.070374 0.04886 
134.7686 0.041429 
135.043976 0.149573 
135.08049 2.367112 
135.116776 0.7622 
135.427185 0.058002 
136.075729 0.10315 
137.059814 0.272597 
137.0961 0.408692 
138.055054 5.997406 
138.091339 0.235024 
139.038696 0.08521 
139.075562 0.186834 
139.111618 0.905927 
140.070694 5.181081 
140.270966 0.037343 
141.054626 2.492517 
141.0746 0.039252 
141.768967 0.032604 
142.049881 0.561763 
142.086273 0.737716 
142.303421 0.04736 
143.070343 1.678619 
143.085587 9.869346 
143.353638 0.021892 
144.088608 2.686998 
145.064865 0.798379 
145.101181 3.695053 
146.104523 0.460514 
146.986877 0.029041 
147.056824 0.050019 
147.080322 2.023458 
147.116776 0.617361 
148.075867 0.052349 
149.059692 2.48098 
149.096115 0.725947 
149.132568 0.523896 
150.048523 0.053382 
150.054871 1.64822 
150.09166 0.16227 
150.099335 0.038917 
151.038986 0.149232 
151.075363 0.337357 
152.070633 1.008561 
153.054581 0.730595 
153.090729 0.04191 
153.127502 0.259827 
155.070343 0.214816 
155.081314 6.284889 
156.065521 52.850163 
156.480042 0.036803 
156.964981 0.05439 
157.061981 0.069658 
157.068832 3.793386 
157.101227 27.119862 
158.104401 4.540481 
159.080536 2.829108 
159.116898 29.938715 
160.084 0.300455 
160.119995 5.051316 
160.640472 0.049249 
161.096268 3.837598 
161.108093 0.023264 
161.125107 0.135148 
161.132309 2.905102 
162.091476 0.063416 
162.099197 0.317201 
162.136017 0.093457 
163.075302 1.618541 
163.111771 3.297388 
164.070557 0.501078 
165.054703 0.481062 
165.09108 5.498245 
165.669952 0.025152 
166.086334 0.884939 
166.094254 0.541781 
167.070297 0.359172 
167.941467 0.106933 
168.065506 2.482871 
168.073212 0.169011 
169.069397 0.020326 
169.101227 8.684814 
170.096283 3.389214 
170.104706 1.783993 
170.960327 2.813999 
171.080368 1.292872 
171.11673 1.145983 
172.115082 0.396128 
173.096085 1.912482 
173.132614 17.383175 
174.100281 0.036999 
174.12822 0.061168 
174.135834 3.68519 
175.075348 1.067023 
175.104004 0.020332 
175.111801 4.667278 
175.148026 1.53613 
176.070709 0.230622 
176.078217 0.040605 
176.115204 0.614582 
176.926147 0.044804 
177.090912 1.16788 
177.127426 14.142093 
177.135361 0.099985 
177.286789 0.03959 
178.12265 0.122864 
178.131134 2.106412 
179.106384 0.178287 
179.882401 0.062277 
180.101913 1.400082 
180.256363 0.023411 
181.100723 0.052233 
183.116974 13.249752 
184.112015 0.37504 
184.120346 3.750949 
185.096146 31.030561 
185.123428 0.071292 
185.132523 1.121881 
185.951828 0.378762 
186.099518 7.5711 
186.127731 1.038118 
186.136658 0.075726 
187.075165 0.134482 
187.111816 35.297165 
187.236908 0.017596 
188.106705 0.958828 
188.115219 7.35617 
189.091064 8.746186 
189.118622 0.422405 
189.127609 0.320838 
190.086212 1.718262 
190.094635 0.869724 
191.069992 0.022215 
191.107101 0.265529 
191.143112 3.337408 
192.101959 0.187442 
192.146637 0.231756 
193.101227 0.185659 
194.117645 0.679697 
199.111755 2.876595 
200.115311 1.174285 
200.143478 2.74093 
201.091309 1.144468 
201.127518 30.677954 
202.009995 0.032356 
202.094406 0.282767 
202.121811 0.403447 
202.131042 7.212983 
202.527252 0.055012 
202.950623 0.040178 
203.096985 0.067141 
203.10675 7.632922 
203.134705 0.158629 
203.143402 3.749542 
204.101212 0.171005 
204.110611 2.91561 
204.138321 6.33413 
205.085953 0.197794 
205.122498 44.106689 
205.140625 0.179089 
206.126114 8.216519 
207.101654 0.240049 
207.12886 0.178092 
210.127975 0.192862 
211.111954 6.878008 
212.103287 0.048667 
212.11554 1.363313 
215.525864 0.666885 
215.5345 0.618041 
215.545746 0.970154 
217.122421 2.057107 
218.127136 0.146498 
218.15419 10.053102 
219.138153 37.694302 
219.157837 1.708263 
220.132568 3.805086 
220.143631 5.80374 
221.117477 1.977953 
221.136505 0.805001 
222.120941 0.061044 
222.14888 0.693678 
223.132568 0.034096 
223.840027 0.045834 
227.107132 1.159371 
228.110382 0.417903 
228.138519 9.759349 
229.122482 69.793602 
229.142776 1.310652 
230.126022 15.964972 
231.129211 1.141776 
235.132339 0.108671 
236.059814 0.108516 
236.137115 0.056733 
236.164658 2.592239 
237.148529 4.253796 
237.169296 0.085181 
238.152359 0.3115 
238.515808 0.032536 
241.954803 0.064936 
244.132584 0.401867 
245.117432 4.976637 
245.136322 0.127947 
246.12149 3.034712 
246.149094 73.476212 
247.133087 100.0 
247.152573 12.169491 
248.136734 21.406885 
248.154327 0.069122 
248.165649 0.048289 
249.139786 1.98938 
251.466263 0.050812 
252.466019 0.055559 
262.152527 2.105555 
263.12796 1.317187 
263.15506 0.237196 
264.13324 0.41829 
264.159485 25.263292 
265.143585 13.601323 
265.163208 4.601306 
265.190216 0.050474 
266.147522 2.661702 
266.163422 0.080926 
266.999756 0.025684 
280.163086 0.333079 
281.186371 1.327006 
282.047852 0.145598 
282.169983 4.397367 
282.187531 0.137058 
283.03006 0.054443 
283.174072 0.421613 
283.20224 0.023972 
283.26355 0.05838 
284.330566 0.133675 
290.494385 0.027771 
295.921844 0.056495 
299.061676 1.21253 
END IONS

