BEGIN IONS
TITLE=Scan Number: 3147
PEPMASS=561.36603
CHARGE=0+
COMPOUNDNAME=Desferrioxamine B
LIBRARYQUALITY=3
SMILES=CC(=O)N(CCCCCNC(=O)CCC(=O)N(CCCCCNC(=O)CCC(=O)N(CCCCCN)O)O)O
INCHIKEY=UBQYURCVBFRUQT-UHFFFAOYSA-N
INCHI=1S/C25H48N6O8/c1-21(32)29(37)18-9-3-6-16-27-22(33)12-14-25(36)31(39)20-10-4-7-17-28-23(34)11-13-24(35)30(38)19-8-2-5-15-26/h37-39H,2-20,26H2,1H3,(H,27,33)(H,28,34)
MSLEVEL=2
SOURCE_INSTRUMENT=LC-ESI-qTof
FILENAME=f.mice/SC_-Fe_+Fe_YEME_Langzeit_Anfang_2015/160113_CYB_3_w_V.mzXML;
SEQ=*..*
NOTES=
IONMODE=Positive
ORGANISM=GNPS-LIBRARY
NAME=Desferrioxamine B M+H
SPECTRUMID=CCMSLIB00003739979
ACTIVATION=CID
INSTRUMENT=ion trap
SCANS=3147
58.132084 13.0 
70.113319 223.0 
71.217941 10.0 
72.130852 38.0 
84.094719 59.0 
84.126747 95.0 
84.278976 7.0 
85.134796 22.0 
86.112389 31.0 
86.148849 80.0 
87.148537 17.0 
99.094086 16.0 
100.091766 41.0 
100.117981 44.0 
100.152931 8.0 
100.166031 8.0 
101.2174 8.0 
102.155075 101.0 
102.212448 19.0 
110.128036 24.0 
116.126663 40.0 
116.866432 12.0 
117.135597 27.0 
119.176094 85.0 
120.135948 118.0 
120.145515 27.0 
120.313057 13.0 
121.142899 24.0 
124.174355 22.0 
127.105415 35.0 
127.144798 79.0 
129.121445 25.0 
129.161133 146.0 
129.429199 11.0 
130.110519 30.0 
131.138351 8.0 
131.143341 8.0 
132.125046 36.0 
133.120483 10.0 
133.493484 8.0 
134.104492 22.0 
137.794769 19.0 
138.158859 27.0 
139.135544 10.0 
140.131149 25.0 
141.125137 13.0 
141.130325 13.0 
141.161438 150.0 
141.213318 19.0 
142.112228 37.0 
142.310043 7.0 
142.315262 7.0 
142.773941 48.0 
143.144531 68.0 
143.175873 11.0 
143.186325 23.0 
143.332626 19.0 
144.164856 124.0 
144.180573 23.0 
145.146713 17.0 
145.162491 52.0 
145.183533 35.0 
147.141617 66.0 
148.101654 48.0 
152.145355 32.0 
152.199203 18.0 
153.889618 7.0 
154.155106 59.0 
155.137726 115.0 
155.14859 200.0 
155.181229 18.0 
155.295441 72.0 
156.139832 135.0 
157.134232 45.0 
157.161591 71.0 
158.170212 8.0 
159.138 50.0 
159.149017 33.0 
159.171036 58.0 
160.163986 92.0 
165.163742 114.0 
166.118896 9.0 
166.152649 143.0 
167.150162 26.0 
169.159821 34.0 
169.171188 32.0 
169.193893 69.0 
170.160614 15.0 
170.217575 40.0 
171.14151 204.0 
171.181488 27.0 
171.215759 61.0 
172.148132 34.0 
172.171051 19.0 
173.163467 60.0 
173.174957 155.0 
173.197922 29.0 
173.226654 15.0 
173.289856 10.0 
173.376083 13.0 
175.145279 10.0 
176.180969 84.0 
177.155807 21.0 
177.173233 52.0 
177.213913 13.0 
177.272018 8.0 
178.179932 44.0 
179.107681 64.0 
180.166733 41.0 
180.19017 23.0 
181.117264 22.0 
183.138046 12.0 
183.179398 85.0 
183.214844 36.0 
184.120056 9.0 
184.179291 23.0 
184.226685 49.0 
185.152206 8.0 
186.103882 26.0 
186.187256 30.0 
187.147537 33.0 
187.177399 142.0 
188.122253 49.0 
189.147552 229.0 
189.195602 27.0 
191.140106 13.0 
191.454071 8.0 
193.167343 33.0 
195.186981 14.0 
196.188507 32.0 
197.192612 9.0 
198.15625 32.0 
198.186981 13.0 
199.171524 39.0 
199.214645 21.0 
200.164673 59.0 
200.183197 7.0 
200.621994 8.0 
200.671448 35.0 
201.141724 26.0 
201.191269 1594.0 
201.228424 13.0 
201.259384 19.0 
201.315125 9.0 
201.401855 43.0 
202.170822 13.0 
202.195663 149.0 
202.723648 24.0 
203.171432 19.0 
203.289673 8.0 
203.675766 50.0 
203.681992 50.0 
204.162018 26.0 
205.155029 79.0 
205.173782 41.0 
206.457687 12.0 
209.188995 12.0 
210.232117 7.0 
211.062134 10.0 
211.169968 39.0 
211.182648 47.0 
212.179855 36.0 
213.173019 92.0 
213.230392 41.0 
214.168503 34.0 
214.187668 7.0 
215.172714 12.0 
215.204742 16.0 
216.166428 21.0 
217.188171 31.0 
219.135483 29.0 
219.148407 44.0 
219.200104 67.0 
220.196594 27.0 
221.214828 33.0 
223.14093 39.0 
223.206146 46.0 
223.225708 28.0 
224.179001 10.0 
224.185532 10.0 
225.94072 8.0 
226.144196 24.0 
226.163895 11.0 
226.177017 21.0 
226.196716 22.0 
226.222977 30.0 
227.176056 35.0 
227.189224 54.0 
227.208969 20.0 
227.630295 8.0 
228.164124 34.0 
228.197098 42.0 
228.216873 14.0 
229.187363 19.0 
229.22702 56.0 
230.186401 41.0 
230.212906 48.0 
231.167709 57.0 
231.207535 13.0 
235.174026 32.0 
235.194122 31.0 
235.214203 15.0 
236.179306 72.0 
236.320221 18.0 
237.193451 34.0 
238.196289 21.0 
239.214767 54.0 
240.194794 52.0 
240.208328 24.0 
241.149734 41.0 
241.190414 17.0 
241.210754 13.0 
241.237869 30.0 
241.346359 6.0 
242.120132 15.0 
242.181274 51.0 
242.222031 14.0 
242.57547 10.0 
242.7659 24.0 
243.119705 10.0 
243.140137 7.0 
243.208221 2506.0 
243.242264 20.0 
243.419312 16.0 
243.453369 54.0 
243.507858 8.0 
243.58963 39.0 
244.203217 716.0 
244.756104 8.0 
245.15239 14.0 
245.200241 86.0 
245.316483 11.0 
245.514801 6.0 
245.521637 6.0 
245.562683 10.0 
245.945923 10.0 
246.206161 32.0 
246.233566 14.0 
247.186676 17.0 
247.846008 5.0 
247.85289 5.0 
248.176025 24.0 
248.196655 7.0 
250.167526 31.0 
250.188248 48.0 
251.148972 7.0 
251.176651 49.0 
252.194733 7.0 
252.222473 45.0 
254.104843 7.0 
254.188354 50.0 
254.202286 13.0 
254.22316 49.0 
255.219498 28.0 
255.226471 28.0 
256.133942 26.0 
256.196808 18.0 
256.238739 15.0 
256.420471 7.0 
258.227203 127.0 
259.210266 21.0 
259.378998 9.0 
260.152954 22.0 
260.188171 164.0 
260.223389 32.0 
260.547424 6.0 
260.554443 6.0 
260.779999 8.0 
261.189056 63.0 
261.224335 56.0 
262.177704 56.0 
262.234283 39.0 
262.991241 22.0 
263.161163 19.0 
263.210754 59.0 
263.954956 17.0 
264.181946 16.0 
264.217438 41.0 
265.17627 53.0 
265.204712 25.0 
265.233154 17.0 
266.186707 28.0 
267.077759 19.0 
267.177673 29.0 
268.148987 11.0 
268.199036 459.0 
268.585236 9.0 
269.172211 27.0 
269.208038 67.0 
270.226105 47.0 
270.24765 25.0 
270.987335 6.0 
271.167023 20.0 
271.238922 24.0 
271.253326 34.0 
272.188782 16.0 
272.210388 56.0 
272.224792 30.0 
273.212494 9.0 
273.226929 22.0 
273.248566 19.0 
274.093506 41.0 
274.216431 21.0 
275.171478 29.0 
275.214935 37.0 
276.186249 34.0 
276.215271 17.0 
276.222534 17.0 
277.195587 94.0 
277.24649 23.0 
277.261017 23.0 
278.14856 32.0 
279.197998 26.0 
279.212585 72.0 
280.198212 29.0 
280.205536 29.0 
280.234741 18.0 
280.446716 11.0 
281.214905 35.0 
281.720245 14.0 
282.211395 49.0 
283.165588 73.0 
283.202332 187.0 
283.21701 36.0 
283.393372 53.0 
284.143433 24.0 
284.194946 94.0 
284.23175 46.0 
284.2612 67.0 
284.710388 36.0 
285.189362 20.0 
285.211487 30.0 
285.226227 110.0 
286.207642 119.0 
286.251953 24.0 
286.325806 34.0 
287.856964 8.0 
288.190369 7.0 
288.227417 22.0 
290.187378 25.0 
290.217133 21.0 
291.229462 23.0 
293.251862 16.0 
294.224548 38.0 
295.1763 30.0 
295.206299 24.0 
295.363831 7.0 
295.709045 77.0 
296.06955 22.0 
296.21228 28.0 
297.174774 52.0 
297.227448 138.0 
297.280121 61.0 
298.131287 23.0 
298.214203 45.0 
299.14975 8.0 
299.1875 19.0 
299.202606 22.0 
299.247925 12.0 
300.139679 42.0 
300.192627 37.0 
300.238007 21.0 
301.176727 72.0 
301.191864 26.0 
301.222168 172.0 
301.260071 50.0 
302.170013 19.0 
302.19278 32.0 
302.223114 58.0 
303.028137 31.0 
303.180145 7.0 
303.233368 62.0 
303.271362 11.0 
304.199585 28.0 
304.207184 28.0 
304.230042 22.0 
305.159698 60.0 
308.723785 85.0 
309.191864 36.0 
309.245605 20.0 
309.775543 7.0 
310.175201 27.0 
310.252106 22.0 
310.33667 30.0 
311.183197 23.0 
311.229401 62.0 
311.267914 15.0 
312.223724 16.0 
312.254578 13.0 
312.686737 32.0 
313.026489 18.0 
313.196411 42.0 
313.219604 33.0 
313.250519 51.0 
314.20932 24.0 
314.248016 25.0 
314.263489 27.0 
315.208344 27.0 
315.239349 34.0 
316.170166 12.0 
316.240021 21.0 
316.597229 21.0 
316.729309 229.0 
316.82254 24.0 
317.187836 22.0 
317.234497 249.0 
317.981384 23.0 
318.246124 7.0 
318.74472 8.0 
319.220337 17.0 
319.306152 1858.0 
319.345154 12.0 
319.524597 21.0 
319.891479 12.0 
320.196045 47.0 
320.227295 90.0 
320.30542 549.0 
320.33667 48.0 
320.422638 8.0 
320.758728 7.0 
321.267151 5.0 
321.274963 5.0 
321.306274 64.0 
321.486267 5.0 
321.49411 5.0 
322.136292 13.0 
322.222473 15.0 
322.308685 15.0 
322.818298 7.0 
323.210602 11.0 
323.242004 44.0 
323.548187 8.0 
324.247437 17.0 
324.294586 7.0 
324.404663 23.0 
324.632721 40.0 
324.742859 28.0 
325.222931 150.0 
325.254395 112.0 
325.616669 15.0 
326.191986 29.0 
326.215637 59.0 
326.255066 48.0 
327.209869 9.0 
327.257263 34.0 
327.857727 6.0 
328.158173 14.0 
328.22937 10.0 
328.260986 35.0 
328.751556 6.0 
329.226654 24.0 
329.242493 25.0 
329.266266 28.0 
330.733398 25.0 
331.201965 14.0 
331.241699 31.0 
332.251495 17.0 
332.649506 28.0 
333.135376 11.0 
334.203918 45.0 
334.23587 52.0 
335.234253 67.0 
335.2742 31.0 
336.170074 15.0 
336.202087 32.0 
336.242126 34.0 
336.274139 65.0 
336.498322 24.0 
337.211426 9.0 
337.267548 26.0 
338.238312 22.0 
338.26239 57.0 
338.414978 10.0 
338.527405 7.0 
338.720215 36.0 
339.226562 62.0 
339.250702 18.0 
339.282867 12.0 
340.216278 79.0 
340.248474 15.0 
341.223541 42.0 
341.239685 22.0 
341.255798 19.0 
341.271942 26.0 
341.296112 14.0 
341.320312 16.0 
342.733215 67.0 
343.210205 23.0 
343.258698 52.0 
344.189484 34.0 
344.22998 73.0 
345.178284 57.0 
345.218842 49.0 
345.243164 49.0 
345.275604 21.0 
345.705688 65.0 
345.746277 30.0 
346.168488 35.0 
346.200989 17.0 
346.721039 11.0 
347.241486 19.0 
348.193909 14.0 
348.210175 21.0 
348.226471 50.0 
348.707275 39.0 
349.245544 11.0 
349.498505 10.0 
350.740112 65.0 
351.239014 22.0 
352.213287 17.0 
352.246063 157.0 
352.278839 6.0 
352.729645 48.0 
352.754242 10.0 
352.918243 12.0 
353.197144 11.0 
353.738831 44.0 
354.248077 19.0 
354.289185 33.0 
354.749451 56.0 
355.193604 31.0 
355.234741 47.0 
355.267639 35.0 
357.220459 52.0 
357.245239 66.0 
357.294739 18.0 
358.203003 12.0 
358.244293 73.0 
359.253082 66.0 
359.766296 84.0 
359.873932 17.0 
360.213562 34.0 
360.279846 12.0 
361.249969 47.0 
361.316345 361.0 
361.382751 71.0 
361.449127 10.0 
361.781219 95.0 
362.304535 51.0 
362.329437 35.0 
362.736755 54.0 
363.002838 12.0 
363.227448 41.0 
363.260712 65.0 
363.31897 30.0 
363.760132 23.0 
364.27655 30.0 
365.243713 29.0 
366.212128 32.0 
366.747009 34.0 
367.20697 25.0 
367.232056 53.0 
367.257172 137.0 
367.282257 121.0 
367.734161 75.0 
368.203125 19.0 
368.278503 51.0 
369.125153 30.0 
369.167084 22.0 
369.217438 39.0 
369.250977 17.0 
369.267761 35.0 
369.284546 52.0 
370.207886 59.0 
371.267029 19.0 
371.292267 53.0 
371.578308 33.0 
371.746643 85.0 
371.780304 43.0 
372.21814 21.0 
372.251831 91.0 
372.689941 8.0 
372.732086 60.0 
373.246368 16.0 
373.280121 29.0 
374.242249 42.0 
374.284485 23.0 
375.239471 48.0 
376.212585 48.0 
376.237976 27.0 
376.271851 89.0 
376.737762 36.0 
377.212402 84.0 
377.237854 62.0 
377.458344 8.0 
378.247498 25.0 
379.233032 90.0 
379.267059 78.0 
379.326569 39.0 
379.709259 13.0 
379.785828 81.0 
380.270905 23.0 
380.287933 11.0 
380.747803 79.0 
381.250549 203.0 
381.284637 28.0 
381.745087 80.0 
382.23996 74.0 
382.274109 39.0 
382.308258 24.0 
382.692444 36.0 
382.709534 11.0 
382.743713 67.0 
383.205017 32.0 
383.239197 16.0 
383.290466 35.0 
384.316803 46.0 
385.250183 88.0 
385.815918 59.0 
386.236206 20.0 
386.279114 56.0 
386.313446 25.0 
388.255005 24.0 
388.280823 56.0 
388.745483 51.0 
389.201813 48.0 
389.270721 60.0 
390.235992 60.0 
390.261841 35.0 
390.279114 34.0 
390.744965 34.0 
390.908936 64.0 
391.280151 48.0 
392.213348 26.0 
392.273865 25.0 
392.749573 17.0 
393.260162 36.0 
394.239044 20.0 
394.273682 48.0 
394.724579 16.0 
394.767944 31.0 
396.252563 45.0 
396.287323 55.0 
396.304688 93.0 
396.382904 9.0 
396.626312 9.0 
396.63501 9.0 
397.26123 44.0 
397.287323 28.0 
397.304749 68.0 
397.313446 68.0 
397.757355 40.0 
398.175385 8.0 
398.218933 47.0 
398.236359 20.0 
398.253784 12.0 
398.323486 63.0 
398.977203 8.0 
399.256287 59.0 
399.282471 38.0 
399.334808 7.0 
399.71875 11.0 
400.198914 13.0 
400.225128 13.0 
400.251312 39.0 
400.321198 12.0 
400.74057 9.0 
401.203888 30.0 
401.212646 30.0 
401.308838 636.0 
401.518707 16.0 
402.262634 20.0 
402.280121 59.0 
402.315155 182.0 
403.305206 134.0 
404.217499 43.0 
404.270172 29.0 
404.305267 16.0 
404.761871 17.0 
405.227509 15.0 
405.253876 26.0 
405.280243 19.0 
405.798889 84.0 
405.860474 8.0 
406.247528 8.0 
406.273926 18.0 
406.300323 9.0 
407.26004 47.0 
408.247345 84.0 
408.291443 32.0 
408.309082 18.0 
408.767944 18.0 
409.23584 38.0 
409.262329 38.0 
409.288818 89.0 
410.260925 14.0 
410.278625 25.0 
410.596985 109.0 
411.15448 51.0 
411.278412 74.0 
411.313843 29.0 
411.783203 64.0 
411.809784 12.0 
412.279449 165.0 
412.784882 12.0 
413.210693 9.0 
413.246185 27.0 
413.272827 11.0 
413.583496 32.0 
413.761078 49.0 
413.78772 28.0 
414.240723 105.0 
414.276276 271.0 
415.245331 28.0 
415.272034 42.0 
415.289825 32.0 
415.352112 6.0 
416.24231 11.0 
416.277924 20.0 
416.607513 32.0 
417.240417 15.0 
418.248688 33.0 
418.293335 20.0 
418.311188 29.0 
418.623749 31.0 
418.793457 22.0 
418.820251 15.0 
418.92746 16.0 
419.21344 19.0 
419.249207 11.0 
419.276031 25.0 
420.250916 29.0 
420.286743 8.0 
420.438904 10.0 
420.940338 25.0 
421.038818 7.0 
421.047791 7.0 
421.235931 10.0 
421.271759 16.0 
422.275909 66.0 
422.302826 12.0 
422.796387 57.0 
422.823334 39.0 
423.263275 86.0 
423.308197 127.0 
423.380035 7.0 
423.820312 46.0 
424.233856 18.0 
424.287811 343.0 
424.584564 7.0 
425.277527 118.0 
425.295532 68.0 
425.358551 6.0 
425.367554 6.0 
425.466553 31.0 
425.484589 12.0 
425.898926 7.0 
426.277405 107.0 
426.322479 15.0 
426.764221 120.0 
426.962677 40.0 
427.233337 14.0 
427.251373 50.0 
427.314545 29.0 
428.253571 30.0 
428.280701 58.0 
428.325867 11.0 
428.822906 65.0 
429.256958 58.0 
429.265991 58.0 
429.311218 102.0 
429.347412 45.0 
429.564545 16.0 
430.234344 45.0 
430.261505 36.0 
430.288666 28.0 
430.777802 33.0 
431.294434 25.0 
431.312561 93.0 
431.81134 24.0 
432.201508 11.0 
432.246887 20.0 
432.274139 19.0 
432.764404 37.0 
433.073212 9.0 
433.236755 22.0 
433.282196 81.0 
433.309448 23.0 
433.363983 7.0 
433.800323 58.0 
433.927612 50.0 
435.183472 7.0 
435.247223 137.0 
435.347412 9.0 
435.994354 6.0 
436.003479 6.0 
436.176697 26.0 
436.286102 46.0 
436.34082 14.0 
437.280579 68.0 
438.166534 15.0 
438.267059 245.0 
438.769867 40.0 
439.245483 117.0 
439.272949 138.0 
439.300385 70.0 
439.34613 36.0 
439.71225 25.0 
439.776337 64.0 
440.270813 24.0 
440.33493 11.0 
440.765625 37.0 
440.793121 45.0 
441.260651 25.0 
441.288177 27.0 
441.315674 18.0 
441.765167 26.0 
442.205688 14.0 
442.315887 48.0 
442.775055 15.0 
443.326385 1231.0 
443.620575 7.0 
444.016022 19.0 
444.227631 22.0 
444.292053 107.0 
444.319672 252.0 
444.402496 23.0 
444.60498 26.0 
444.77066 46.0 
445.212708 41.0 
445.258759 58.0 
445.277191 81.0 
445.323242 94.0 
445.332458 94.0 
445.737885 21.0 
445.77475 35.0 
445.940674 83.0 
446.208069 11.0 
446.272644 58.0 
446.291077 77.0 
446.318756 27.0 
446.770752 7.0 
446.807678 79.0 
446.946106 76.0 
447.056854 22.0 
447.223022 17.0 
447.287659 27.0 
447.315369 28.0 
447.7771 14.0 
447.823303 28.0 
448.248383 21.0 
448.266876 32.0 
448.285339 23.0 
448.812347 76.0 
448.932587 30.0 
449.256378 75.0 
449.293396 54.0 
449.61731 66.0 
449.783966 45.0 
450.247009 12.0 
450.265503 40.0 
450.293304 28.0 
450.775146 72.0 
450.914215 14.0 
451.220154 17.0 
451.294342 142.0 
451.340698 25.0 
451.739624 25.0 
451.980896 36.0 
452.268646 81.0 
452.296478 51.0 
452.315063 16.0 
453.243988 17.0 
453.271851 27.0 
453.318329 16.0 
453.783203 37.0 
454.248291 50.0 
454.304108 55.0 
454.434418 30.0 
454.760193 73.0 
454.778778 45.0 
455.263031 143.0 
455.281647 116.0 
455.328247 44.0 
455.747498 55.0 
456.269562 90.0 
456.325531 36.0 
456.810577 45.0 
457.277222 8.0 
457.529297 11.0 
457.790802 55.0 
458.276642 12.0 
458.286011 12.0 
458.313995 18.0 
458.342041 19.0 
459.249054 29.0 
459.27713 87.0 
460.672211 15.0 
460.812775 24.0 
462.25705 82.0 
462.303986 38.0 
462.595032 81.0 
462.942474 52.0 
463.233704 21.0 
463.2901 115.0 
463.619019 63.0 
463.93866 53.0 
464.258453 30.0 
464.286652 23.0 
465.265442 35.0 
465.293671 29.0 
465.3125 34.0 
465.783508 65.0 
466.2547 32.0 
466.311249 84.0 
467.254425 32.0 
467.273315 74.0 
467.292175 129.0 
467.320496 67.0 
467.81134 20.0 
467.839661 46.0 
468.236359 19.0 
468.30249 24.0 
468.340271 9.0 
468.831665 31.0 
468.945099 42.0 
469.294952 80.0 
469.313873 78.0 
469.758453 27.0 
469.786835 56.0 
470.307404 45.0 
470.326324 65.0 
470.449432 8.0 
471.330444 19.0 
471.567413 23.0 
472.297638 64.0 
472.335602 10.0 
472.772125 30.0 
472.829071 17.0 
473.303833 34.0 
473.778839 19.0 
474.292084 97.0 
474.862701 30.0 
475.233765 52.0 
475.262329 45.0 
475.309906 64.0 
475.776398 60.0 
475.823975 70.0 
475.947784 94.0 
476.271667 97.0 
476.309784 16.0 
476.3479 99.0 
476.795807 50.0 
476.833923 31.0 
477.301178 54.0 
477.329803 29.0 
477.339325 29.0 
477.768616 7.0 
477.797241 57.0 
478.284027 35.0 
478.341309 34.0 
478.742401 13.0 
478.771057 26.0 
479.29657 18.0 
479.392151 30.0 
480.252777 30.0 
480.635529 102.0 
480.731232 27.0 
481.24826 20.0 
481.315308 16.0 
481.344025 75.0 
481.621826 143.0 
481.746399 81.0 
481.784698 27.0 
481.842224 7.0 
481.947632 48.0 
481.966797 124.0 
482.302277 65.0 
482.321442 83.0 
482.35022 25.0 
482.71463 18.0 
482.772186 30.0 
482.829742 37.0 
483.24231 34.0 
483.299866 70.0 
483.328674 25.0 
483.779846 31.0 
483.799042 58.0 
483.818268 42.0 
484.250488 14.0 
484.298523 50.0 
484.336945 63.0 
484.384979 16.0 
484.798187 27.0 
485.259674 64.0 
485.298157 63.0 
485.61557 38.0 
485.779144 26.0 
485.82724 80.0 
486.029327 63.0 
486.192963 20.0 
486.298859 102.0 
486.318085 60.0 
486.789917 38.0 
487.19458 34.0 
487.242737 7.0 
487.281281 21.0 
487.300568 23.0 
487.339111 27.0 
487.396942 62.0 
487.676453 6.0 
488.255066 20.0 
488.312958 65.0 
488.554169 83.0 
488.669952 38.0 
489.075348 10.0 
489.268463 23.0 
489.316742 44.0 
489.345703 40.0 
489.394012 10.0 
489.809357 48.0 
489.973602 31.0 
490.26358 76.0 
490.31189 208.0 
490.331238 63.0 
491.240326 31.0 
491.279022 49.0 
491.317719 39.0 
491.791992 9.0 
492.227753 8.0 
492.247101 21.0 
492.295532 76.0 
492.60556 122.0 
492.789642 8.0 
492.973816 60.0 
493.245239 15.0 
493.293732 67.0 
493.477936 18.0 
493.78833 59.0 
494.273468 36.0 
494.312317 23.0 
494.331726 32.0 
495.225098 26.0 
495.293091 18.0 
495.302826 18.0 
495.341675 38.0 
495.672058 37.0 
495.924805 37.0 
496.255432 48.0 
496.274872 13.0 
496.362396 8.0 
496.66394 44.0 
496.800171 51.0 
496.839081 21.0 
497.238098 20.0 
497.306244 41.0 
497.666534 18.0 
498.270538 23.0 
498.299774 107.0 
498.338745 34.0 
498.397217 11.0 
498.49469 36.0 
498.728607 40.0 
499.225983 16.0 
499.304016 75.0 
499.333252 67.0 
499.362518 13.0 
499.821136 35.0 
500.299469 187.0 
500.328766 16.0 
500.914825 5.0 
500.924591 5.0 
501.080963 12.0 
501.198242 29.0 
501.217773 7.0 
501.295959 64.0 
501.354614 10.0 
501.66745 10.0 
501.765228 16.0 
501.794586 29.0 
502.293427 40.0 
502.312988 62.0 
502.342346 13.0 
502.361908 10.0 
503.301697 203.0 
503.41922 15.0 
503.8013 42.0 
503.820892 52.0 
503.918884 5.0 
503.92868 5.0 
504.24234 14.0 
504.310944 92.0 
504.80127 13.0 
505.281982 18.0 
505.331024 27.0 
505.635315 74.0 
505.753082 25.0 
506.420898 6.0 
506.981079 23.0 
507.285797 47.0 
507.315308 29.0 
507.325134 29.0 
507.639862 77.0 
507.846405 40.0 
508.308929 32.0 
508.348297 6.0 
508.643585 60.0 
508.702667 6.0 
508.811005 50.0 
509.273895 80.0 
509.313324 106.0 
509.352722 47.0 
509.66806 36.0 
510.289154 115.0 
510.33847 25.0 
510.802063 23.0 
511.127747 6.0 
511.216583 7.0 
511.315247 452.0 
511.404114 16.0 
511.542328 35.0 
511.65094 22.0 
511.799103 17.0 
511.84848 49.0 
512.322632 177.0 
512.480713 22.0 
512.797058 72.0 
513.311279 37.0 
513.340942 58.0 
513.449768 8.0 
513.667419 46.0 
513.845459 15.0 
513.993896 54.0 
514.271057 20.0 
514.290894 13.0 
514.300781 13.0 
514.340393 40.0 
514.518616 24.0 
514.627563 8.0 
514.855347 20.0 
514.964355 14.0 
514.99408 48.0 
515.311096 26.0 
515.360657 29.0 
515.410217 15.0 
515.826538 57.0 
516.005066 47.0 
517.324829 73.0 
517.374451 14.0 
517.672424 29.0 
518.258545 9.0 
518.278442 9.0 
518.338074 18.0 
518.387756 7.0 
518.755615 9.0 
518.79541 24.0 
518.825195 37.0 
518.984314 29.0 
519.312561 68.0 
519.342407 41.0 
519.770264 13.0 
519.830017 45.0 
519.96936 16.0 
519.999207 41.0 
520.029114 38.0 
520.317871 36.0 
520.536865 75.0 
520.706238 17.0 
520.835754 16.0 
520.855652 35.0 
521.28418 78.0 
521.343994 48.0 
521.373901 33.0 
521.49353 52.0 
521.663025 21.0 
521.702942 70.0 
521.802612 51.0 
521.982117 57.0 
522.301331 17.0 
522.401123 22.0 
522.750427 22.0 
522.780334 6.0 
522.810303 107.0 
522.840271 46.0 
523.249573 7.0 
523.28949 35.0 
523.339417 40.0 
523.519226 6.0 
523.79895 53.0 
524.288696 36.0 
524.328674 15.0 
524.348633 41.0 
524.438538 27.0 
524.698547 8.0 
524.818542 15.0 
524.978577 44.0 
525.298706 46.0 
525.328735 64.0 
525.648987 6.0 
525.658997 6.0 
526.279724 48.0 
526.329773 143.0 
526.379883 10.0 
526.820679 112.0 
527.001038 59.0 
527.271606 55.0 
527.301697 24.0 
527.351807 51.0 
527.692749 23.0 
528.264526 11.0 
528.304688 39.0 
528.324768 37.0 
528.384888 9.0 
528.404968 21.0 
528.826538 33.0 
529.288452 17.0 
529.308533 20.0 
529.358765 34.0 
529.79071 60.0 
529.820862 68.0 
530.313416 39.0 
530.806152 25.0 
531.258789 12.0 
531.309082 59.0 
531.621094 87.0 
532.134583 10.0 
532.35614 33.0 
532.658325 8.0 
532.839722 16.0 
532.849792 16.0 
533.353821 34.0 
533.494995 50.0 
533.777283 47.0 
533.817627 15.0 
534.312012 40.0 
534.645081 12.0 
535.321594 756.0 
535.37207 44.0 
535.402405 9.0 
535.513489 19.0 
535.614563 11.0 
536.129883 9.0 
536.230957 29.0 
536.332092 236.0 
536.372559 29.0 
536.645569 42.0 
536.817505 17.0 
537.303162 124.0 
537.323303 93.0 
537.667419 71.0 
537.819336 49.0 
537.971191 55.0 
537.991455 59.0 
538.295288 176.0 
538.356018 25.0 
538.670044 44.0 
538.76123 85.0 
538.801758 72.0 
538.994324 62.0 
539.298462 37.0 
539.338989 71.0 
539.521484 12.0 
540.312683 10.0 
540.322876 10.0 
540.363464 6.0 
540.404053 34.0 
540.678101 49.0 
540.820251 10.0 
541.216187 12.0 
541.297424 31.0 
541.815613 50.0 
541.846069 8.0 
542.19165 6.0 
542.201843 6.0 
542.27301 26.0 
542.293335 26.0 
542.323792 24.0 
542.374573 28.0 
542.822021 104.0 
542.994995 41.0 
543.218811 17.0 
543.279846 81.0 
543.310364 136.0 
543.361267 18.0 
543.401978 27.0 
544.267334 32.0 
544.308044 160.0 
544.369141 90.0 
544.51178 7.0 
544.664612 65.0 
545.296448 53.0 
545.316833 43.0 
545.347412 77.0 
545.745056 12.0 
545.806274 29.0 
546.265259 11.0 
546.306091 74.0 
546.36731 35.0 
546.377563 35.0 
546.428589 29.0 
546.683716 14.0 
547.194214 17.0 
547.316711 140.0 
547.807068 72.0 
547.847961 42.0 
547.899048 36.0 
548.318115 79.0 
548.348755 26.0 
548.389648 9.0 
548.573669 14.0 
548.665649 76.0 
548.819092 67.0 
549.269165 13.0 
549.320374 84.0 
549.371521 16.0 
549.617126 45.0 
549.842285 106.0 
549.975342 40.0 
549.985596 40.0 
550.251831 72.0 
550.282532 13.0 
550.313293 7.0 
550.343994 23.0 
550.405457 27.0 
550.507874 40.0 
550.651306 11.0 
550.743469 20.0 
550.825439 19.0 
551.07135 153.0 
551.102051 18.0 
551.184082 8.0 
551.296814 26.0 
551.327576 99.0 
551.399353 28.0 
551.542847 12.0 
551.676147 63.0 
551.778687 40.0 
551.809448 76.0 
551.850525 11.0 
552.147949 14.0 
552.301758 46.0 
552.342834 63.0 
552.845703 122.0 
552.88678 58.0 
552.989441 7.0 
553.276917 28.0 
553.317993 50.0 
553.348816 75.0 
553.379578 33.0 
553.790405 12.0 
553.831543 89.0 
553.862366 78.0 
553.975342 14.0 
554.078125 71.0 
554.283691 25.0 
554.314514 103.0 
554.355652 82.0 
554.386475 35.0 
554.664001 27.0 
554.68457 23.0 
554.756531 42.0 
554.797668 35.0 
554.838806 32.0 
554.869629 15.0 
555.003357 9.0 
555.03418 35.0 
555.116455 19.0 
555.33252 128.0 
555.353088 26.0 
555.373657 31.0 
555.816101 54.0 
555.83667 54.0 
556.361755 43.0 
556.402893 42.0 
556.475037 8.0 
556.608887 15.0 
556.639832 13.0 
556.866455 16.0 
557.020935 32.0 
557.402222 19.0 
557.701172 11.0 
557.793945 24.0 
557.835205 117.0 
557.917725 8.0 
557.958923 8.0 
558.010498 7.0 
558.082703 8.0 
558.165161 19.0 
558.3302 33.0 
558.361145 63.0 
558.546875 97.0 
558.588135 51.0 
558.701599 12.0 
558.753235 24.0 
558.80481 51.0 
558.825439 16.0 
558.88739 10.0 
558.980286 51.0 
559.000916 30.0 
559.042236 13.0 
559.186768 61.0 
559.269348 17.0 
559.310608 58.0 
559.341614 27.0 
559.372498 13.0 
559.671997 75.0 
559.785645 36.0 
559.826904 119.0 
559.847595 102.0 
559.878601 42.0 
559.909546 24.0 
560.240173 8.0 
560.29187 43.0 
560.312561 135.0 
560.343506 204.0 
560.374512 116.0 
560.405518 90.0 
560.446899 42.0 
560.519226 39.0 
560.581177 63.0 
560.643188 78.0 
560.663879 28.0 
560.798279 117.0 
560.829285 131.0 
560.849976 110.0 
560.880981 139.0 
560.932678 38.0 
560.953369 8.0 
560.97406 17.0 
561.005066 84.0 
561.098145 22.0 
561.12915 77.0 
561.149841 27.0 
561.222229 60.0 
561.263611 80.0 
561.294617 229.0 
561.335999 1026.0 
561.429138 22534.0 
561.511902 99.0 
561.58429 180.0 
561.615356 147.0 
561.636047 47.0 
561.677429 224.0 
561.708435 109.0 
561.739441 102.0 
561.760132 97.0 
561.81189 248.0 
561.853271 253.0 
561.884277 231.0 
561.936035 24.0 
561.946411 24.0 
561.987793 212.0 
562.008484 117.0 
562.029175 147.0 
562.070618 22.0 
562.13269 15.0 
562.184448 16.0 
562.215515 78.0 
562.236206 27.0 
562.267273 82.0 
562.29834 405.0 
562.329407 603.0 
562.350098 803.0 
562.422546 6658.0 
562.515747 16.0 
562.536438 27.0 
562.619263 71.0 
562.660706 192.0 
562.681396 183.0 
562.702148 155.0 
562.743591 142.0 
562.795349 59.0 
562.826416 207.0 
562.857483 419.0 
562.88855 190.0 
562.950623 50.0 
562.98175 52.0 
563.002441 172.0 
563.023193 113.0 
563.116394 8.0 
563.168213 55.0 
563.292542 166.0 
563.333984 631.0 
563.375427 640.0 
563.437622 1597.0 
563.510132 11.0 
563.530884 33.0 
563.561951 28.0 
563.624146 31.0 
563.655273 108.0 
563.675964 75.0 
563.696716 150.0 
563.738159 26.0 
563.789978 233.0 
563.81073 247.0 
563.831482 311.0 
563.883301 242.0 
563.93512 29.0 
563.966248 23.0 
564.018066 26.0 
564.069946 56.0 
564.13208 17.0 
564.163208 8.0 
564.204651 18.0 
564.225403 29.0 
564.339478 644.0 
564.443176 274.0 
564.48468 10.0 
564.515808 43.0 
564.557312 24.0 
564.598816 110.0 
564.671387 20.0 
564.702515 86.0 
564.733643 26.0 
564.806274 83.0 
564.837402 434.0 
564.982666 23.0 
565.034546 102.0 
565.07605 8.0 
565.107239 29.0 
565.23175 43.0 
565.262817 75.0 
565.283569 202.0 
565.314758 129.0 
565.345886 187.0 
565.377014 456.0 
565.397766 177.0 
565.657349 28.0 
565.688477 237.0 
565.719604 17.0 
565.802734 56.0 
565.833862 49.0 
565.854614 116.0 
565.875427 40.0 
565.916931 14.0 
566.062378 11.0 
566.135071 12.0 
566.322083 63.0 
566.363586 52.0 
566.415527 8.0 
566.540222 8.0 
566.685669 18.0 
566.727234 14.0 
566.820801 40.0 
567.080688 7.0 
567.143066 36.0 
567.340637 18.0 
567.777405 8.0 
567.964661 7.0 
567.99585 12.0 
568.079102 13.0 
568.287231 60.0 
568.328857 181.0 
568.412109 16.0 
569.14093 8.0 
569.276306 25.0 
569.307556 28.0 
569.328369 46.0 
569.349243 160.0 
569.411743 23.0 
569.870178 11.0 
569.984802 8.0 
570.297546 57.0 
570.328796 59.0 
570.370483 34.0 
570.391357 27.0 
570.777222 10.0 
571.225708 19.0 
571.350952 8.0 
571.455322 12.0 
571.883301 50.0 
572.321777 102.0 
572.363586 13.0 
572.436707 31.0 
572.666504 8.0 
572.697876 42.0 
572.802368 43.0 
572.90686 14.0 
573.86853 24.0 
574.339294 138.0 
574.370667 16.0 
574.485779 17.0 
574.85199 57.0 
575.344055 13.0 
575.637268 15.0 
575.920105 8.0 
576.255432 8.0 
576.318298 8.0 
576.349731 11.0 
576.559387 8.0 
576.695679 8.0 
576.821411 44.0 
577.293335 16.0 
578.332214 9.0 
578.363708 42.0 
578.384705 16.0 
579.330017 188.0 
579.361511 57.0 
579.834534 16.0 
580.339172 113.0 
580.360229 9.0 
580.423279 18.0 
581.286072 32.0 
581.359741 33.0 
581.422913 79.0 
581.980957 18.0 
582.202148 11.0 
582.286438 22.0 
582.307495 31.0 
582.318054 31.0 
582.381226 29.0 
583.118896 9.0 
583.308716 50.0 
583.329773 29.0 
583.393066 116.0 
584.31073 77.0 
584.331848 48.0 
584.405762 90.0 
585.31366 19.0 
585.820679 21.0 
586.127197 12.0 
586.306885 37.0 
586.328003 92.0 
586.814392 8.0 
587.322083 62.0 
587.819458 29.0 
587.830078 29.0 
587.861816 15.0 
587.882996 27.0 
588.147583 23.0 
588.295837 111.0 
588.317017 157.0 
588.327576 157.0 
588.359375 98.0 
588.391113 19.0 
588.592346 7.0 
588.730042 7.0 
588.846558 180.0 
589.312744 18.0 
589.333923 20.0 
589.365723 26.0 
589.535339 7.0 
589.853394 42.0 
589.980652 12.0 
590.245728 34.0 
590.351746 48.0 
590.426025 19.0 
591.296143 14.0 
591.349243 44.0 
592.305115 107.0 
592.336975 312.0 
592.56012 38.0 
593.3255 54.0 
593.368042 13.0 
593.804077 10.0 
593.835999 13.0 
594.357422 34.0 
595.315674 17.0 
595.41156 41.0 
595.986877 15.0 
596.370605 15.0 
596.42395 11.0 
596.850403 86.0 
596.978455 11.0 
597.319824 12.0 
597.341187 23.0 
597.394531 35.0 
597.853394 16.0 
597.938782 9.0 
598.173645 11.0 
598.3125 16.0 
598.344543 9.0 
598.397888 36.0 
598.440613 33.0 
598.846558 42.0 
598.878601 47.0 
599.305969 39.0 
599.370117 172.0 
599.615967 7.0 
600.364441 37.0 
600.856628 24.0 
601.402466 15.0 
601.766541 39.0 
602.302063 19.0 
602.344971 32.0 
602.398499 20.0 
603.438293 69.0 
604.328674 26.0 
604.371643 43.0 
604.82251 15.0 
604.908386 45.0 
605.370117 9.0 
605.896606 23.0 
606.251282 22.0 
606.304993 44.0 
606.33728 119.0 
606.390991 62.0 
606.423218 25.0 
607.165222 12.0 
607.186768 8.0 
607.315857 23.0 
607.358887 57.0 
608.327576 32.0 
608.370667 253.0 
608.467529 33.0 
608.866028 120.0 
609.3078 22.0 
609.361633 59.0 
609.404785 31.0 
609.868225 10.0 
610.353516 95.0 
611.0979 98.0 
611.356934 60.0 
611.389282 8.0 
612.285583 9.0 
612.372009 28.0 
612.404419 19.0 
613.322998 11.0 
613.366272 33.0 
613.431152 25.0 
614.318054 23.0 
614.826721 29.0 
615.324768 92.0 
615.368042 81.0 
615.844666 18.0 
616.343079 11.0 
616.37561 28.0 
616.418945 19.0 
617.373108 73.0 
617.666077 9.0 
618.360596 15.0 
618.393188 23.0 
618.642883 9.0 
618.860107 10.0 
618.870972 10.0 
619.338013 55.0 
619.892212 53.0 
620.392273 16.0 
621.316833 9.0 
621.327759 9.0 
621.338623 9.0 
622.329285 36.0 
622.819458 33.0 
623.331604 45.0 
623.375183 23.0 
623.833069 22.0 
624.302002 118.0 
624.345642 63.0 
625.153137 6.0 
625.305908 53.0 
625.349609 14.0 
625.39325 6.0 
625.840942 31.0 
626.343384 52.0 
626.365234 37.0 
626.398071 6.0 
627.359924 25.0 
627.775513 49.0 
627.873962 38.0 
628.038025 28.0 
628.32251 66.0 
628.355347 25.0 
628.869812 68.0 
629.756836 44.0 
629.844482 86.0 
630.282776 15.0 
630.304688 20.0 
630.348511 43.0 
630.40332 20.0 
630.852844 42.0 
631.41217 22.0 
632.34491 84.0 
632.388855 17.0 
633.003784 118.0 
633.036743 47.0 
633.377258 24.0 
633.443176 7.0 
633.454163 7.0 
634.377441 16.0 
634.828369 9.0 
634.850342 21.0 
634.883362 44.0 
635.356384 27.0 
635.378418 12.0 
635.433411 16.0 
635.565491 12.0 
635.796631 17.0 
635.862732 41.0 
636.226074 27.0 
636.292114 10.0 
636.325134 81.0 
636.369141 79.0 
636.820801 33.0 
636.875854 123.0 
637.272583 33.0 
637.34967 79.0 
637.371704 88.0 
637.801636 9.0 
637.834717 13.0 
637.845703 13.0 
637.878784 30.0 
637.93396 29.0 
638.286865 11.0 
638.330994 35.0 
638.386047 23.0 
638.430176 10.0 
638.441223 10.0 
638.893555 39.0 
639.37915 32.0 
639.401245 52.0 
640.339905 8.0 
640.373047 7.0 
641.334473 37.0 
641.400818 34.0 
641.732605 22.0 
641.79895 7.0 
642.35199 49.0 
642.562256 20.0 
643.315002 26.0 
643.359253 56.0 
643.547485 51.0 
643.68042 14.0 
643.769043 12.0 
643.824402 183.0 
643.857666 62.0 
643.946289 25.0 
644.345093 22.0 
644.389465 32.0 
644.422668 14.0 
644.85498 124.0 
644.932617 14.0 
644.999146 12.0 
645.054565 9.0 
645.298462 13.0 
645.320679 21.0 
645.36499 32.0 
645.60907 16.0 
646.3302 12.0 
646.385742 48.0 
647.307251 21.0 
647.351685 60.0 
648.340637 83.0 
648.396179 6.0 
648.407288 6.0 
648.429565 10.0 
648.607422 85.0 
648.852051 18.0 
649.352539 211.0 
649.408203 46.0 
650.30957 16.0 
650.343018 94.0 
650.40979 70.0 
650.688171 8.0 
650.699341 8.0 
650.766113 11.0 
650.855225 29.0 
651.334229 20.0 
651.401062 12.0 
652.337341 85.0 
652.381897 50.0 
652.683044 46.0 
652.828064 28.0 
652.850342 32.0 
653.307739 25.0 
653.374695 22.0 
653.876953 10.0 
653.910461 11.0 
654.323547 7.0 
654.412842 39.0 
654.837341 20.0 
655.30658 23.0 
655.340088 43.0 
655.418335 21.0 
655.440674 22.0 
656.08905 14.0 
656.323914 15.0 
656.391052 36.0 
656.816162 31.0 
656.87207 30.0 
656.89447 15.0 
657.330872 29.0 
657.42041 33.0 
657.44281 19.0 
658.192993 9.0 
658.327393 15.0 
658.697083 7.0 
658.887573 66.0 
659.347107 32.0 
659.661011 25.0 
660.322693 32.0 
660.345154 147.0 
660.390015 54.0 
661.343933 23.0 
661.388855 22.0 
662.388428 111.0 
662.44458 29.0 
663.242615 28.0 
663.343811 123.0 
663.377502 42.0 
663.400024 25.0 
664.018555 41.0 
664.322327 28.0 
664.356079 16.0 
664.378601 49.0 
664.446106 19.0 
664.716248 11.0 
665.200256 28.0 
665.369202 168.0 
665.391724 169.0 
665.436768 43.0 
665.853455 58.0 
666.349243 33.0 
666.405579 48.0 
667.341309 38.0 
667.363831 60.0 
667.420227 28.0 
667.905273 48.0 
668.36792 88.0 
668.401794 44.0 
668.627502 14.0 
669.316284 23.0 
669.384094 19.0 
670.355774 49.0 
670.423584 22.0 
670.864502 45.0 
670.898376 67.0 
671.384766 125.0 
671.429932 40.0 
672.029663 40.0 
672.323914 16.0 
672.346497 35.0 
672.437073 21.0 
672.81073 40.0 
672.867371 34.0 
673.354309 36.0 
673.411011 25.0 
673.739563 54.0 
673.864258 35.0 
674.340271 40.0 
674.362915 28.0 
674.725769 53.0 
674.82782 33.0 
675.145447 8.0 
675.304199 40.0 
675.360901 62.0 
675.406311 20.0 
675.531128 20.0 
675.712708 38.0 
675.860229 27.0 
675.882935 25.0 
676.393738 49.0 
677.31366 21.0 
677.347778 44.0 
677.370483 40.0 
677.631836 8.0 
677.984192 7.0 
678.336609 100.0 
678.416199 81.0 
678.859741 38.0 
679.326172 47.0 
679.348877 44.0 
679.371643 77.0 
680.031799 14.0 
680.863037 73.0 
681.068115 60.0 
681.318787 43.0 
681.375793 365.0 
681.512573 52.0 
681.615112 34.0 
681.900085 31.0 
681.922852 107.0 
682.367554 220.0 
682.401794 121.0 
682.435974 35.0 
682.82373 22.0 
683.302979 9.0 
683.337219 40.0 
683.360046 29.0 
683.417114 56.0 
683.451355 12.0 
683.896484 70.0 
684.353271 34.0 
684.398926 170.0 
684.444641 27.0 
684.890076 53.0 
685.347168 90.0 
685.392883 87.0 
685.450012 10.0 
686.398987 19.0 
687.302795 37.0 
687.394409 20.0 
687.875244 39.0 
688.401978 19.0 
688.837341 15.0 
689.352966 13.0 
689.375916 27.0 
689.421753 54.0 
689.765686 10.0 
689.90332 54.0 
690.063843 20.0 
690.362 37.0 
690.384949 8.0 
690.476746 7.0 
690.924194 11.0 
691.899963 59.0 
692.336304 16.0 
692.405273 29.0 
693.347534 53.0 
693.370544 94.0 
693.439514 69.0 
693.876404 47.0 
693.899414 40.0 
693.933899 27.0 
694.324951 28.0 
694.370972 59.0 
694.393982 27.0 
694.601074 35.0 
694.865723 108.0 
695.130432 46.0 
695.303101 12.0 
695.360657 166.0 
695.475769 22.0 
696.316467 29.0 
696.374084 78.0 
696.443176 75.0 
697.330566 31.0 
697.376709 7.0 
697.422729 8.0 
697.883972 15.0 
698.449219 24.0 
698.87616 141.0 
699.822815 8.0 
699.915222 17.0 
700.365723 18.0 
700.816406 86.0 
700.908813 71.0 
701.290283 7.0 
701.301819 7.0 
701.394287 96.0 
701.429016 53.0 
701.602478 14.0 
701.614014 14.0 
701.718079 7.0 
701.868469 28.0 
701.92627 23.0 
702.354248 68.0 
702.400574 55.0 
702.446838 58.0 
702.539429 7.0 
702.898132 30.0 
703.349609 46.0 
703.395935 150.0 
703.847473 55.0 
703.870667 35.0 
703.951721 12.0 
704.334045 29.0 
704.368835 39.0 
704.403564 37.0 
705.377197 32.0 
705.423584 91.0 
705.875793 85.0 
706.363037 183.0 
706.38623 21.0 
707.372742 20.0 
707.872131 32.0 
707.906982 26.0 
708.406494 58.0 
708.894653 45.0 
709.359619 7.0 
709.417786 20.0 
709.44104 9.0 
709.464294 13.0 
709.778259 9.0 
710.371521 43.0 
710.418091 48.0 
710.453003 27.0 
711.349243 6.0 
711.395813 92.0 
711.430786 39.0 
711.605469 7.0 
712.315979 29.0 
712.339294 20.0 
712.385925 20.0 
712.432495 49.0 
712.887024 232.0 
712.921997 15.0 
713.085205 12.0 
713.330017 51.0 
713.388306 298.0 
713.458313 15.0 
713.889771 128.0 
713.94812 8.0 
714.076416 38.0 
714.391418 43.0 
715.932495 27.0 
716.341309 20.0 
716.434814 22.0 
717.486877 14.0 
717.907898 63.0 
718.329041 13.0 
718.41095 7.0 
718.621582 29.0 
719.253662 18.0 
719.265381 18.0 
719.382446 8.0 
719.417603 5.0 
719.429321 5.0 
719.921143 16.0 
720.331177 35.0 
720.378052 24.0 
720.905396 29.0 
720.940552 14.0 
721.350891 11.0 
721.409546 94.0 
721.432983 60.0 
721.808228 47.0 
721.89032 306.0 
722.254028 19.0 
722.324402 80.0 
722.383057 257.0 
722.46521 26.0 
722.559021 7.0 
722.711609 15.0 
722.817261 56.0 
722.875916 116.0 
723.110718 40.0 
723.239868 6.0 
723.251587 6.0 
723.333801 37.0 
723.404175 18.0 
723.451172 9.0 
723.662537 7.0 
723.756531 69.0 
723.791748 7.0 
723.873962 19.0 
724.36731 38.0 
724.872681 28.0 
725.389893 35.0 
725.448669 29.0 
725.89563 26.0 
726.060242 6.0 
726.377869 103.0 
726.448486 66.0 
726.90741 23.0 
727.719849 8.0 
727.837585 26.0 
728.355896 25.0 
728.403015 20.0 
728.438354 60.0 
728.81543 37.0 
728.827209 37.0 
729.322327 13.0 
729.381287 14.0 
729.440247 20.0 
730.454529 8.0 
731.056396 55.0 
731.410522 24.0 
731.835632 9.0 
732.378967 9.0 
732.46167 26.0 
733.052551 24.0 
734.353333 152.0 
734.412476 46.0 
735.32373 33.0 
735.442078 9.0 
735.927551 58.0 
736.425049 23.0 
737.337524 12.0 
737.373047 48.0 
737.420471 16.0 
738.381042 49.0 
738.416626 28.0 
738.464111 33.0 
738.879395 37.0 
739.365967 11.0 
739.389709 10.0 
739.401611 10.0 
739.947693 36.0 
740.446594 29.0 
740.791077 40.0 
741.385315 36.0 
741.421021 29.0 
741.432922 29.0 
741.504211 22.0 
741.63501 8.0 
741.872742 80.0 
742.407959 13.0 
742.467468 38.0 
742.848083 23.0 
743.371704 17.0 
743.419312 34.0 
743.431213 34.0 
744.383789 45.0 
744.443359 10.0 
745.718384 6.0 
745.921082 20.0 
746.398071 7.0 
747.257019 19.0 
747.340576 10.0 
747.400269 58.0 
747.447998 81.0 
747.483826 14.0 
748.379211 32.0 
748.438965 29.0 
748.46283 30.0 
748.65387 17.0 
749.884766 17.0 
749.932556 14.0 
750.422791 39.0 
750.865356 21.0 
751.391785 15.0 
751.427673 68.0 
751.511414 14.0 
751.954285 84.0 
752.325439 107.0 
752.385315 297.0 
752.433228 49.0 
752.936218 21.0 
753.235779 13.0 
753.247742 13.0 
753.379578 87.0 
753.42749 18.0 
754.014709 18.0 
754.350464 24.0 
754.362427 24.0 
754.398438 10.0 
755.058044 27.0 
755.070007 27.0 
755.333923 5.0 
755.345886 5.0 
755.477905 7.0 
755.669922 7.0 
755.885925 14.0 
756.390137 39.0 
757.206787 24.0 
757.447083 52.0 
758.408569 9.0 
758.937622 30.0 
759.430786 39.0 
759.466919 17.0 
760.321289 41.0 
760.381531 128.0 
760.429626 51.0 
760.465698 20.0 
760.923279 38.0 
761.284546 7.0 
761.393005 86.0 
761.417053 111.0 
762.34491 77.0 
762.381104 54.0 
762.405212 50.0 
762.441345 26.0 
762.465454 39.0 
762.791016 7.0 
762.935669 13.0 
762.971802 25.0 
763.381897 58.0 
763.430176 12.0 
764.359192 29.0 
764.395447 49.0 
764.419556 75.0 
764.926575 34.0 
765.119751 74.0 
766.339844 10.0 
767.766602 7.0 
768.34729 14.0 
769.32782 24.0 
769.388367 48.0 
769.436768 68.0 
769.715271 6.0 
770.417969 33.0 
770.4422 78.0 
770.975464 42.0 
771.411865 24.0 
771.436096 21.0 
771.460327 20.0 
771.896973 69.0 
772.44281 14.0 
773.425903 8.0 
774.154541 7.0 
774.397522 34.0 
774.421814 21.0 
774.470398 20.0 
775.454712 18.0 
776.342407 29.0 
776.415405 21.0 
776.938599 29.0 
777.388855 41.0 
778.362915 134.0 
778.399475 99.0 
778.423828 229.0 
779.39856 58.0 
779.447327 129.0 
780.373901 101.0 
780.398193 120.0 
780.434814 94.0 
781.422974 146.0 
782.338501 12.0 
782.399536 29.0 
782.436218 28.0 
783.352295 8.0 
783.425659 11.0 
783.486755 35.0 
783.511169 15.0 
784.330139 54.0 
784.403503 28.0 
784.489075 13.0 
784.550171 10.0 
784.782532 14.0 
784.917053 111.0 
785.479736 35.0 
785.920288 40.0 
786.373169 8.0 
786.495605 20.0 
787.414124 15.0 
787.426331 15.0 
789.019653 66.0 
790.393677 7.0 
790.909241 13.0 
791.363525 12.0 
791.388123 8.0 
791.412659 16.0 
791.940857 64.0 
792.051392 17.0 
792.383179 28.0 
792.432373 40.0 
792.862488 8.0 
793.514099 31.0 
794.39978 11.0 
794.461304 27.0 
794.941345 8.0 
795.38446 17.0 
795.446045 29.0 
795.507568 20.0 
795.901672 23.0 
796.406677 10.0 
796.443665 83.0 
796.468323 41.0 
797.380249 46.0 
797.429565 12.0 
798.317444 37.0 
798.391418 43.0 
798.453064 91.0 
799.427917 20.0 
799.637756 18.0 
800.316833 31.0 
800.378601 95.0 
800.440369 22.0 
800.477417 57.0 
800.502136 20.0 
801.416443 21.0 
801.441162 50.0 
801.490601 17.0 
801.638855 17.0 
801.947876 13.0 
802.393066 24.0 
802.491943 17.0 
803.407349 48.0 
804.409973 78.0 
804.434692 33.0 
805.376038 18.0 
805.413208 26.0 
805.450378 35.0 
805.760071 19.0 
806.392273 55.0 
806.417053 44.0 
806.900574 15.0 
807.409058 19.0 
808.414185 8.0 
808.960388 13.0 
809.357788 141.0 
809.432312 30.0 
809.457153 23.0 
810.388977 23.0 
810.42627 59.0 
810.451111 34.0 
810.550476 13.0 
811.358582 10.0 
811.395874 15.0 
811.420715 20.0 
811.445618 19.0 
811.48291 19.0 
812.25415 35.0 
812.49054 11.0 
813.38678 26.0 
813.92218 47.0 
815.193115 12.0 
815.317688 18.0 
815.380005 13.0 
815.467285 43.0 
816.028442 14.0 
817.400757 26.0 
817.42572 36.0 
817.463196 50.0 
818.424561 55.0 
818.449463 11.0 
818.486938 11.0 
819.42395 66.0 
819.48645 23.0 
819.561401 18.0 
820.348938 20.0 
820.386475 46.0 
820.424011 47.0 
820.461487 28.0 
821.387085 20.0 
821.424622 13.0 
821.462158 22.0 
821.524719 24.0 
822.450867 35.0 
822.500977 23.0 
822.914246 33.0 
823.402649 15.0 
823.440247 22.0 
823.465332 25.0 
823.490356 20.0 
824.367554 27.0 
824.405151 25.0 
824.931641 23.0 
825.433289 11.0 
826.399292 19.0 
826.449524 27.0 
826.487183 82.0 
829.476929 17.0 
829.929565 32.0 
831.452026 58.0 
832.358582 10.0 
832.408997 13.0 
832.471985 7.0 
833.429443 125.0 
833.807617 23.0 
834.425415 70.0 
834.475891 9.0 
834.904724 10.0 
835.396729 64.0 
835.421936 95.0 
836.330688 8.0 
836.368591 12.0 
836.406494 120.0 
836.45697 66.0 
836.482239 51.0 
836.545349 7.0 
837.429382 23.0 
837.479919 24.0 
838.465637 10.0 
839.376099 21.0 
839.414001 27.0 
839.489929 12.0 
840.324951 7.0 
840.413513 14.0 
840.451477 6.0 
840.489441 26.0 
841.350281 13.0 
841.388245 26.0 
842.401611 45.0 
843.390259 11.0 
843.428284 19.0 
844.468201 17.0 
845.216797 13.0 
845.458008 29.0 
845.673828 9.0 
845.953125 21.0 
846.397583 10.0 
846.43573 24.0 
846.537292 15.0 
846.892944 8.0 
846.956482 12.0 
847.401245 14.0 
847.439392 64.0 
848.418152 18.0 
848.469055 15.0 
849.435791 19.0 
850.453979 59.0 
851.434509 347.0 
851.510925 8.0 
851.549133 10.0 
852.339172 7.0 
852.402893 37.0 
852.441162 68.0 
852.466614 40.0 
852.543091 21.0 
852.657837 7.0 
853.104065 7.0 
853.435608 50.0 
853.537659 22.0 
854.239258 16.0 
854.430603 31.0 
854.494446 22.0 
855.413513 37.0 
855.451782 8.0 
855.4646 8.0 
855.515686 6.0 
856.422485 12.0 
856.448059 16.0 
857.444885 30.0 
857.470398 26.0 
858.263123 6.0 
858.685303 6.0 
859.427368 11.0 
859.478577 9.0 
860.566772 6.0 
861.745422 14.0 
862.463196 28.0 
863.399353 12.0 
863.437866 19.0 
863.502014 16.0 
863.578979 25.0 
864.413025 24.0 
864.451538 10.0 
865.453003 42.0 
866.480713 9.0 
867.393372 10.0 
868.447937 17.0 
868.538025 15.0 
869.413086 17.0 
869.490356 9.0 
870.455994 8.0 
871.473816 11.0 
871.937866 24.0 
872.440674 76.0 
872.505188 9.0 
872.518066 9.0 
872.647034 16.0 
873.420959 24.0 
873.459656 19.0 
873.537048 8.0 
874.982788 7.0 
874.995667 7.0 
876.494263 31.0 
879.417664 13.0 
879.443542 16.0 
879.4953 13.0 
879.534119 16.0 
879.780151 22.0 
880.401794 10.0 
880.427673 44.0 
880.466553 71.0 
881.269836 5.0 
881.282837 5.0 
881.425415 42.0 
881.438354 42.0 
881.516113 9.0 
882.475525 54.0 
883.409485 37.0 
883.487366 23.0 
884.408875 10.0 
884.486816 30.0 
886.123474 15.0 
886.396362 5.0 
886.409363 5.0 
887.488464 17.0 
889.531433 8.0 
890.456177 236.0 
891.394348 20.0 
891.42041 11.0 
891.459534 49.0 
891.485596 22.0 
891.524719 14.0 
892.333008 7.0 
892.35907 18.0 
892.424316 28.0 
892.46344 39.0 
892.489502 32.0 
893.454895 24.0 
894.420776 16.0 
894.473022 30.0 
895.008362 17.0 
895.387146 23.0 
895.439392 14.0 
896.471741 15.0 
896.484802 15.0 
897.386963 42.0 
897.478516 28.0 
898.040955 11.0 
898.407227 39.0 
898.446472 24.0 
898.49884 37.0 
898.538086 17.0 
899.271057 28.0 
899.428162 26.0 
899.467468 22.0 
900.384216 11.0 
900.423523 12.0 
901.406189 17.0 
901.497986 16.0 
902.940369 41.0 
903.425842 35.0 
903.543884 10.0 
903.62262 22.0 
904.410156 44.0 
904.462708 12.0 
904.502075 14.0 
905.408264 19.0 
905.460815 17.0 
905.500244 22.0 
905.631592 25.0 
906.433105 40.0 
907.471741 8.0 
907.787415 14.0 
908.392578 134.0 
908.44519 447.0 
908.497864 79.0 
909.379639 34.0 
909.432251 125.0 
909.471802 206.0 
909.814148 12.0 
910.380432 13.0 
910.433105 78.0 
910.48584 45.0 
911.408142 48.0 
911.434509 24.0 
911.47406 116.0 
911.526794 28.0 
911.566284 13.0 
912.436401 41.0 
912.489136 16.0 
913.452087 39.0 
913.478455 30.0 
914.455139 22.0 
915.168152 15.0 
915.405823 7.0 
915.498291 13.0 
918.406555 7.0 
918.472717 16.0 
918.552124 28.0 
919.34613 13.0 
919.51825 11.0 
919.571228 15.0 
920.100769 8.0 
920.39209 56.0 
920.431824 37.0 
920.471558 14.0 
920.61731 8.0 
921.028015 8.0 
921.531494 16.0 
921.571228 13.0 
923.321411 31.0 
923.387756 8.0 
923.467346 44.0 
926.454651 9.0 
928.448853 18.0 
929.553284 12.0 
930.445312 31.0 
931.510864 17.0 
931.577515 20.0 
932.137207 17.0 
932.483765 12.0 
933.790649 95.0 
934.457764 20.0 
934.511169 40.0 
934.564575 21.0 
934.924927 72.0 
936.500671 12.0 
938.171387 7.0 
939.442078 8.0 
939.468872 11.0 
939.509033 15.0 
939.5224 15.0 
939.629456 96.0 
940.419128 22.0 
940.512878 27.0 
940.539673 19.0 
941.423523 24.0 
941.490417 37.0 
941.892334 8.0 
942.280884 8.0 
942.455139 17.0 
942.508728 11.0 
943.567871 13.0 
944.922729 11.0 
946.251709 52.0 
946.466553 30.0 
946.654602 13.0 
947.433838 16.0 
947.487549 36.0 
948.441895 9.0 
948.482239 8.0 
948.710754 19.0 
950.540405 28.0 
950.957642 26.0 
951.496216 23.0 
951.536621 18.0 
951.563538 42.0 
952.466064 27.0 
952.519958 99.0 
952.560364 44.0 
953.449829 19.0 
953.476807 31.0 
953.503784 18.0 
953.557678 42.0 
954.137451 85.0 
954.191406 25.0 
954.515015 31.0 
954.541992 28.0 
955.513367 52.0 
955.553894 11.0 
956.444763 8.0 
956.485168 28.0 
956.512207 12.0 
956.552734 35.0 
957.376526 18.0 
957.498108 29.0 
957.538635 16.0 
957.565613 8.0 
959.444275 15.0 
959.471313 25.0 
959.511902 10.0 
959.647156 9.0 
961.040588 10.0 
961.473694 14.0 
962.475647 13.0 
963.4104 13.0 
963.47821 45.0 
964.454041 10.0 
966.447998 6.0 
966.488708 13.0 
967.588379 35.0 
968.620667 9.0 
970.510193 13.0 
972.442322 37.0 
972.483154 8.0 
973.531677 8.0 
975.15332 10.0 
975.507812 6.0 
975.521423 6.0 
976.462463 11.0 
976.53064 25.0 
977.431274 24.0 
977.513184 6.0 
977.526794 6.0 
977.554138 14.0 
978.345947 38.0 
978.933167 18.0 
979.438599 12.0 
981.010437 42.0 
981.420654 10.0 
981.502686 13.0 
983.459473 15.0 
983.56897 17.0 
984.500244 22.0 
985.514099 18.0 
986.459961 17.0 
987.433716 31.0 
987.474854 36.0 
987.502319 15.0 
988.531433 30.0 
990.495178 7.0 
991.498413 23.0 
991.580933 6.0 
994.222046 7.0 
994.31842 8.0 
996.508362 10.0 
997.487061 10.0 
998.43866 22.0 
1001.461914 11.0 
1001.544739 17.0 
1001.986938 8.0 
1002.387695 7.0 
1002.456787 24.0 
1002.498291 11.0 
1003.424561 28.0 
1003.452271 23.0 
1003.811829 10.0 
1003.825623 10.0 
1004.503479 23.0 
1005.41687 22.0 
1005.47229 30.0 
1005.541504 11.0 
1006.427612 6.0 
1006.469177 55.0 
1006.524597 17.0 
1007.480469 28.0 
1007.522034 27.0 
1008.547668 29.0 
1010.517334 12.0 
1010.600586 13.0 
1011.53064 38.0 
1013.489319 30.0 
1013.531006 42.0 
1015.519409 18.0 
1016.535217 24.0 
1017.467957 25.0 
1018.359375 6.0 
1019.460205 108.0 
1019.543884 62.0 
1020.324646 45.0 
1020.380432 19.0 
1020.450134 63.0 
1020.464111 63.0 
1021.384766 19.0 
1021.482422 12.0 
1021.775391 7.0 
1023.520508 18.0 
1024.135132 8.0 
1025.504639 7.0 
1026.665283 8.0 
1027.504761 16.0 
1029.60498 10.0 
1032.604858 17.0 
1034.513428 10.0 
1039.476074 18.0 
1039.518311 23.0 
1041.546021 8.0 
1042.518433 30.0 
1047.033813 14.0 
1049.507324 17.0 
1049.521484 17.0 
1050.596558 32.0 
1052.592773 13.0 
1057.527344 57.0 
1057.584106 16.0 
1057.825562 55.0 
1058.123779 12.0 
1058.436279 15.0 
1059.501709 36.0 
1059.856812 15.0 
1060.453857 44.0 
1060.4823 30.0 
1061.463501 43.0 
1066.005493 13.0 
1068.472778 15.0 
1069.686035 77.0 
1070.557129 85.0 
1071.457275 16.0 
1075.963257 31.0 
1076.450195 10.0 
1076.507446 55.0 
1076.536133 17.0 
1077.037598 13.0 
1077.467285 60.0 
1077.582031 33.0 
1077.696655 23.0 
1078.470703 35.0 
1078.513672 23.0 
1080.536133 35.0 
1080.564819 12.0 
1083.551758 8.0 
1085.578857 15.0 
1086.657959 13.0 
1088.500732 35.0 
1088.587158 34.0 
1089.566772 8.0 
1090.503662 8.0 
1090.532471 12.0 
1091.570801 47.0 
1095.555298 26.0 
1096.538086 7.0 
1097.52124 13.0 
1099.532471 14.0 
1105.64978 38.0 
1107.56665 16.0 
1112.613892 44.0 
1114.50769 18.0 
1117.511963 13.0 
1118.533691 53.0 
1119.555908 7.0 
1120.578613 37.0 
1120.637085 17.0 
1122.523193 13.0 
1124.513184 11.0 
1124.586426 14.0 
1125.172119 23.0 
1129.540161 28.0 
1130.831665 25.0 
1131.63916 50.0 
1132.47644 11.0 
1132.520508 7.0 
1132.535156 7.0 
1132.65271 18.0 
1136.593628 8.0 
1137.520996 13.0 
1139.377075 19.0 
1146.076904 27.0 
1148.546387 27.0 
1156.519775 24.0 
1156.534668 24.0 
1157.514771 23.0 
1157.559326 21.0 
1157.588989 11.0 
1158.465454 6.0 
1158.539795 33.0 
1159.698975 26.0 
1161.186157 22.0 
1161.706909 7.0 
1165.578735 15.0 
1172.489624 55.0 
1175.51123 110.0 
1175.556152 162.0 
1176.484253 11.0 
1176.544189 131.0 
1176.589111 42.0 
1177.502686 42.0 
1177.5177 42.0 
1177.577637 24.0 
1180.455688 11.0 
1180.620728 16.0 
1181.685913 7.0 
1189.562622 25.0 
1190.466187 12.0 
1190.541504 42.0 
1191.535889 11.0 
1192.590942 20.0 
1198.61377 14.0 
1206.349487 10.0 
1211.571045 18.0 
1217.611206 12.0 
1223.696777 13.0 
1233.106812 18.0 
1236.650513 50.0 
1248.561401 40.0 
1248.653931 13.0 
1249.224854 36.0 
1251.046143 15.0 
1274.626587 19.0 
1276.793945 10.0 
1286.577637 12.0 
1286.593262 12.0 
1288.629639 14.0 
1291.609009 11.0 
1292.895874 36.0 
1295.707031 16.0 
1299.308105 11.0 
1310.741821 9.0 
1314.3479 28.0 
1317.626099 19.0 
1324.718994 7.0 
1326.578735 11.0 
1329.64917 14.0 
1333.584106 23.0 
1345.567627 13.0 
1357.636719 11.0 
1362.88562 9.0 
1371.683228 12.0 
1374.756958 41.0 
1394.526489 56.0 
1417.098022 20.0 
1419.909668 22.0 
1427.635254 15.0 
1434.885742 13.0 
1442.618652 14.0 
1442.668457 17.0 
1444.62561 20.0 
1452.617798 17.0 
1520.649048 9.0 
1524.703369 7.0 
1532.076416 9.0 
1575.578003 31.0 
1592.030762 28.0 
1592.34436 24.0 
1592.361816 24.0 
1736.320557 28.0 
1796.166016 78.0 
1962.80603 18.0 
2483.062256 16.0 
2490.268066 22.0 
2520.203125 10.0 
2522.702393 6.0 
2522.724121 6.0 
2616.170166 41.0 
2988.520264 7.0 
END IONS

