BEGIN IONS
PEPMASS=1420.74
CHARGE=1+
COMPOUNDNAME=BACITRACIN
LIBRARYQUALITY=3
SMILES=N/A
INCHIKEY=CLKOFPXJLQSYAH-NVOBBBONSA-N
INCHI=InChI=1S/C66H103N17O16S/c1-9-35(6)52(69)66-81-48(32-100-66)63(97)76-43(26-34(4)5)59(93)74-42(22-23-50(85)86)58(92)83-53(36(7)10-2)64(98)75-40-20-15-16-25-71-55(89)46(29-49(68)84)78-62(96)47(30-51(87)88)79-61(95)45(28-39-31-70-33-72-39)77-60(94)44(27-38-18-13-12-14-19-38)80-65(99)54(37(8)11-3)82-57(91)41(21-17-24-67)73-56(40)90/h12-14,18-19,31,33-37,40-48,52-54H,9-11,15-17,20-30,32,67,69H2,1-8H3,(H2,68,84)(H,70,72)(H,71,89)(H,73,90)(H,74,93)(H,75,98)(H,76,97)(H,77,94)(H,78,96)(H,79,95)(H,80,99)(H,82,91)(H,83,92)(H,85,86)(H,87,88)/t35?,36?,37?,40-,41+,42+,43-,44+,45-,46-,47+,48?,52?,53-,54-/m0/s1
MSLEVEL=2
SOURCE_INSTRUMENT=N/A-ESI-QFT
FILENAME=library_mgf.mgf
SEQ=*..*
IONMODE=negative
ORGANISM=MONA
NAME=BACITRACIN [M-H]-
PI=MoNA
DATACOLLECTOR=MoNA:VF-NPL-QEHF027769
PUBMED=N/A
SUBMITUSER=mwang87
TAGS=
SPECTRUMID=CCMSLIB00004721350
SCANS=27769
98.023399 4.31387 
98.138664 0.047871 
98.417603 0.030414 
99.026848 0.049587 
100.075508 0.036873 
101.07045 0.054244 
101.508408 0.041474 
101.984962 0.044118 
102.29348 0.041404 
105.567085 0.054663 
107.752983 0.02718 
108.055428 3.609276 
108.789513 0.035193 
108.838387 0.042863 
108.842697 0.038453 
109.039368 2.195296 
109.167229 0.045806 
110.023369 2.096411 
111.0186 0.254326 
112.038971 0.109809 
112.336708 0.029819 
113.034294 3.031705 
113.272369 0.051856 
114.018288 1.628542 
115.086411 0.039949 
116.049324 0.0453 
118.039696 1.643491 
120.055466 0.437486 
122.023392 0.260364 
122.148651 0.045046 
123.031425 0.438123 
123.055099 0.781625 
124.039124 3.220952 
124.13578 0.032554 
124.251625 0.039583 
124.943115 0.05049 
125.034386 0.087048 
127.050018 10.897275 
127.086227 0.044409 
127.345741 0.048497 
128.034103 14.862233 
128.053406 0.506541 
129.037369 0.900642 
129.102097 3.005603 
130.085953 0.265856 
130.097275 0.730438 
130.309326 0.036805 
131.081604 0.10027 
131.862854 0.036348 
132.389374 0.033016 
134.034729 0.954167 
134.100372 0.048364 
135.066315 0.573379 
135.077209 0.050749 
136.038788 0.030883 
136.05043 12.033029 
136.111969 1.146226 
136.124084 0.034132 
136.898849 0.03087 
137.053635 0.819719 
138.05484 0.844127 
139.086411 0.955237 
140.051941 0.03431 
140.070511 2.46657 
140.081711 0.124823 
141.025024 0.037931 
141.06575 2.377773 
144.047745 11.972269 
144.112732 0.043999 
144.704254 0.04911 
145.051086 0.82235 
145.060593 1.613924 
146.043518 0.749367 
146.059921 8.751915 
146.070663 0.100433 
147.063324 0.501394 
147.217773 0.04409 
147.660034 0.036969 
151.037582 0.424771 
151.086533 1.929555 
151.795227 0.032685 
152.052689 0.042071 
152.106796 0.389053 
152.946686 0.038357 
153.065887 0.446506 
153.077057 7.942018 
153.10202 0.104587 
153.159042 0.031713 
154.061096 0.260735 
154.080185 0.183622 
155.074951 0.079008 
155.081528 10.428988 
155.088516 0.096144 
156.065369 0.13153 
156.077118 0.556837 
156.084579 1.049393 
158.060257 0.460294 
163.061478 2.816911 
163.086609 3.22478 
163.196671 0.04335 
164.034302 0.484293 
164.045471 1.487739 
164.089325 0.060366 
165.102539 0.0444 
166.086273 2.185446 
167.045258 3.218892 
167.081543 2.143156 
167.569168 0.046272 
168.047928 3.482648 
169.050949 0.05357 
169.096146 0.06247 
170.751526 0.039427 
173.070724 0.107631 
174.046936 0.042824 
174.054962 2.543 
175.67067 0.047997 
177.101929 0.052575 
177.485962 0.042166 
178.087036 0.051153 
179.056732 0.035268 
179.081741 1.473244 
179.118042 2.659221 
179.265427 0.042018 
179.479248 0.046285 
179.496292 0.035864 
180.10202 29.002373 
180.121353 0.053995 
181.041519 0.043964 
181.060715 0.196114 
181.09758 1.162971 
181.105377 4.520478 
181.113556 0.034483 
183.041122 0.049749 
185.071075 16.772385 
186.055252 1.65677 
186.074646 3.156852 
186.124054 0.045345 
187.059296 0.048604 
189.06842 0.135993 
189.077286 3.816101 
190.061249 2.546944 
191.081802 0.057456 
191.118546 0.059817 
191.536911 0.053328 
193.097046 0.086851 
194.092758 0.237121 
194.392365 0.048554 
194.613678 0.040817 
195.1129 0.948616 
196.108337 1.645504 
197.041306 0.033358 
197.071136 3.271684 
197.128586 1.131921 
198.074371 0.149624 
200.070877 0.468789 
200.49649 0.051148 
202.828995 0.039968 
203.081894 0.745807 
205.061157 0.93535 
206.092773 1.99753 
206.103027 0.110488 
206.12886 0.085121 
206.700073 0.040759 
207.076828 0.080801 
207.087936 0.62478 
207.100266 0.144556 
208.108444 9.386501 
208.144836 18.382172 
209.092422 0.556682 
209.111938 0.193758 
209.148239 3.35833 
210.917923 0.04872 
211.035416 2.119305 
211.054016 0.154023 
212.038147 0.798793 
214.155518 0.060954 
218.081894 0.038748 
219.113647 0.050781 
220.067062 0.158105 
221.091476 0.048919 
222.046417 0.361314 
222.088013 2.135208 
222.103348 1.515538 
222.12413 12.090361 
222.160294 0.207094 
223.053848 0.343674 
223.108459 10.162482 
223.119614 3.55263 
223.12944 0.743623 
223.144562 0.667075 
224.067581 0.272739 
224.092484 0.102307 
224.102509 0.783534 
224.113174 1.583646 
224.139923 1.16607 
225.123932 0.066432 
225.171524 0.415553 
226.11911 0.739618 
226.155533 1.320561 
231.149857 0.341808 
231.176727 0.040428 
233.128067 0.04899 
233.165451 0.698402 
233.232849 0.032919 
234.12471 0.143732 
234.149506 0.050185 
234.161224 0.154934 
236.141312 0.048353 
238.09816 6.338244 
239.082047 0.463505 
239.10199 1.147598 
239.129074 0.081307 
240.080948 0.088333 
240.1138 0.940265 
240.135086 32.19429 
240.171524 0.061057 
241.118057 2.205768 
241.130844 9.985232 
241.165329 0.047433 
241.208588 0.039678 
242.099274 0.041644 
242.116516 2.783837 
242.133759 1.622275 
243.120239 0.201767 
243.182343 8.916846 
244.185745 1.255488 
246.576309 0.052477 
247.598785 0.039967 
248.140091 0.109547 
248.468674 0.033967 
249.160431 0.432269 
250.041306 0.997959 
250.155777 0.040029 
251.123489 0.096236 
251.152313 0.043609 
252.098816 0.861603 
253.165909 0.050203 
255.124924 3.509914 
255.145859 0.034486 
256.128174 0.360551 
257.198151 0.170019 
258.14563 1.212124 
258.159546 0.231333 
259.144836 1.363327 
259.568207 0.050344 
261.135742 0.579953 
262.156097 0.270244 
263.122162 0.612145 
264.124603 0.0573 
265.109436 100.0 
266.093719 2.328421 
266.112976 25.580149 
266.171051 0.047553 
267.096558 0.033862 
267.114685 1.817523 
269.161743 4.34646 
270.16507 0.474041 
275.18808 0.05847 
275.91684 0.044271 
276.135498 0.098135 
276.171448 11.730743 
277.154999 0.360047 
277.17453 1.915701 
278.114014 0.323351 
279.080811 0.202694 
279.117706 0.245723 
279.143707 0.059642 
280.120178 0.065345 
280.166595 0.10559 
281.132782 3.336026 
282.135986 3.387177 
283.119934 29.84124 
283.177155 0.085755 
284.123352 7.960443 
285.126404 0.050547 
291.146637 0.121592 
291.17981 0.0353 
292.130432 0.197077 
293.164581 0.046423 
293.197327 0.045594 
294.182343 0.042442 
295.177246 0.282695 
296.181915 0.06397 
300.146332 12.289887 
301.149933 3.278279 
301.166962 0.859422 
302.150757 1.35293 
302.81192 0.047474 
303.146637 0.156236 
304.166718 0.056275 
304.223877 0.196558 
305.161652 0.048472 
307.112213 32.830864 
307.178406 0.051812 
308.115356 12.663714 
308.143799 0.566905 
308.176086 0.042056 
309.10672 3.441388 
309.193207 0.738114 
310.11203 0.121818 
310.158936 0.045679 
310.19397 0.044223 
319.120239 3.840043 
319.139099 0.174273 
319.177155 10.544513 
320.123871 0.940979 
320.160095 2.625247 
320.179382 3.932622 
321.158051 0.811601 
321.177399 0.281114 
324.13858 2.544502 
325.12149 0.562193 
325.141449 0.618875 
326.125916 0.856613 
327.127991 0.046481 
329.235046 0.10868 
334.152649 0.320806 
334.574371 0.042743 
336.166229 0.057633 
336.204224 4.457313 
336.484406 0.047789 
337.130646 1.798016 
337.151855 0.383916 
337.187714 1.987411 
337.202332 1.920315 
338.133911 0.096572 
338.153748 0.055327 
338.182922 3.312296 
339.185455 0.332291 
339.204651 0.119974 
340.199799 0.090102 
345.229248 0.153656 
350.219635 0.167935 
351.203064 0.423452 
352.16272 1.751472 
352.235321 0.048594 
353.16806 0.170033 
353.219177 0.55931 
353.266571 0.323419 
354.157654 0.982121 
354.214722 12.210162 
354.270691 0.061545 
355.212006 6.918566 
356.214813 1.06816 
358.421509 0.040629 
361.226013 0.046886 
361.966492 0.04938 
362.184723 0.03758 
363.165558 0.057781 
364.199188 0.576295 
365.182617 1.888798 
366.183411 0.272305 
368.208099 2.464704 
368.230316 6.058641 
369.210846 0.771517 
369.233795 1.506779 
371.183716 0.768694 
371.208649 0.407096 
371.277039 1.715256 
372.240356 1.500794 
372.280365 0.184778 
373.187775 0.601655 
373.223206 0.180674 
373.408173 0.043218 
374.189209 0.056563 
374.224915 0.046423 
376.197144 0.045772 
380.193665 4.047056 
381.195923 0.728414 
387.202576 0.440072 
388.206604 0.042828 
390.222473 0.102534 
390.251038 7.925794 
391.254303 2.858539 
394.209198 0.735151 
395.191711 0.090526 
395.21936 4.109914 
396.223694 1.197459 
397.257111 0.522023 
399.215057 0.256509 
402.214569 0.043939 
403.273499 0.033891 
404.230011 2.557507 
405.16272 0.045965 
405.211945 3.768045 
406.216644 1.496785 
406.245178 0.205242 
408.259888 0.054563 
408.958435 0.055539 
409.193604 0.038726 
409.221588 0.042406 
411.23761 0.116285 
413.23053 20.251741 
414.233643 8.156161 
415.236053 1.169831 
416.230774 1.613615 
417.233856 0.183001 
420.225464 2.869553 
421.229034 0.640471 
422.240509 2.584216 
423.21286 0.062465 
423.243256 0.855788 
423.272736 0.761344 
424.276337 0.045677 
424.352478 0.038909 
430.209839 0.203791 
432.222015 0.060024 
433.222046 0.057975 
433.256531 1.537219 
434.260651 0.040103 
435.169586 0.160209 
437.252502 0.133913 
438.235931 0.29764 
439.210114 4.194118 
439.267761 0.369104 
440.212982 1.260128 
447.236176 9.455037 
448.220917 5.149287 
448.245422 0.876882 
449.222382 2.572845 
449.254059 0.221119 
450.234131 0.344376 
450.283417 8.771857 
451.232483 1.460852 
451.268158 3.83053 
451.291443 0.778946 
452.213043 0.059867 
452.269928 1.76865 
453.180878 4.658006 
453.27887 0.285283 
454.184357 2.596233 
454.217468 0.044649 
454.280304 0.281667 
455.180847 0.343766 
465.246399 56.903042 
466.250946 23.842472 
466.286591 0.461702 
467.253235 4.190309 
467.294769 0.677801 
468.261322 0.568085 
468.293793 20.463417 
469.296722 8.294379 
470.299438 0.978209 
471.304626 0.053433 
475.267334 0.276746 
476.254242 0.441181 
477.248657 1.525583 
478.250916 0.196002 
478.281494 0.126148 
479.260773 1.732962 
480.263275 0.50032 
480.300262 0.047227 
482.276917 1.791035 
482.311096 2.181871 
483.254974 0.449643 
483.28775 0.043905 
483.316376 0.31803 
484.265472 0.955403 
484.361572 0.59486 
485.267395 0.037392 
485.320099 0.2484 
485.395782 0.056991 
491.263336 0.450203 
492.268555 0.466847 
493.276581 0.578626 
494.274475 5.039591 
494.309479 0.05606 
495.276917 2.174476 
496.285858 0.066633 
501.283691 1.062706 
502.285248 0.169894 
504.296173 0.052714 
505.276611 0.121298 
508.267731 2.550605 
509.301758 4.195611 
510.301941 1.988151 
510.340698 0.776275 
511.303986 0.162794 
511.345551 0.100768 
513.29541 0.123334 
517.31604 0.122072 
518.309998 1.453219 
519.254944 0.205074 
519.294373 2.951871 
520.295593 1.676143 
521.295288 0.041549 
523.281006 0.098906 
527.309753 25.61315 
528.312622 12.647436 
528.35376 0.102538 
529.315857 2.948386 
534.30481 0.199792 
534.378174 0.057344 
536.281555 0.448574 
536.321045 1.589683 
537.283142 0.100111 
537.324402 0.192755 
544.288391 0.321787 
545.276855 0.127815 
546.279663 0.063681 
546.342285 0.44493 
547.340149 0.057106 
550.374146 0.048928 
553.287659 4.343753 
554.293152 2.382675 
554.346924 0.186267 
555.333679 0.387627 
556.330383 0.199508 
561.315002 4.519303 
562.29895 7.680941 
563.254456 0.059744 
563.303772 4.079262 
563.368164 2.833868 
564.300415 2.134405 
564.357605 2.491257 
565.305847 0.857664 
565.355591 0.967192 
566.361328 0.095903 
567.364014 0.422898 
570.340515 0.530124 
571.343445 0.337902 
578.330688 0.735662 
579.326355 22.294107 
580.329102 12.369688 
581.327576 2.651687 
581.378174 11.880394 
582.335083 0.133851 
582.381653 6.22702 
583.324951 0.17002 
583.385193 0.851455 
589.346375 0.398994 
589.751465 0.0565 
590.331055 1.377482 
591.365906 0.746436 
592.298096 0.054323 
592.346802 2.265882 
593.344849 1.6251 
595.393921 11.91216 
596.35321 0.835949 
596.397827 7.066642 
597.351562 1.511205 
597.400391 1.260957 
598.34375 3.125009 
598.40332 0.058087 
599.344116 1.083963 
600.347778 0.206135 
601.343811 0.06819 
604.348999 0.057457 
605.345581 0.48479 
606.348877 0.16693 
606.39917 0.097813 
607.3573 10.307726 
608.360046 6.079971 
609.364929 1.334551 
610.376709 0.113054 
614.366821 0.279443 
615.363892 6.531815 
616.365845 3.63854 
617.371216 0.622621 
618.36377 0.701269 
619.36438 0.212607 
621.373413 1.692455 
622.317505 0.064296 
622.375977 0.532625 
624.322937 0.07317 
624.385742 0.04794 
625.324585 0.111268 
629.37793 0.376258 
630.373169 0.42588 
631.39325 1.82954 
632.379272 6.430831 
633.380981 4.762226 
634.383545 0.900605 
635.390137 0.16716 
637.358215 0.038177 
638.34137 3.617295 
638.397095 0.04722 
639.344604 1.866605 
639.402649 0.040226 
641.341675 0.058624 
642.339355 0.098534 
647.389709 4.453781 
648.391968 3.188413 
649.402588 2.249706 
650.356567 0.061988 
650.408813 1.243243 
651.362 0.075082 
652.409119 0.044372 
655.40625 2.050569 
656.406677 1.109079 
657.405396 0.128819 
658.361938 0.038715 
660.382935 0.210978 
661.372559 0.27971 
665.399658 1.175937 
672.378479 0.155303 
674.40033 16.212767 
675.391113 19.38504 
676.389282 10.410489 
677.393677 3.124856 
678.39502 4.130305 
679.390747 2.375273 
680.396301 0.057701 
681.382935 0.448623 
682.38678 0.079768 
683.42627 0.063764 
687.391846 0.049989 
689.393738 0.356125 
690.386597 1.542811 
691.392944 0.633091 
692.410645 82.863571 
693.334778 0.172372 
693.412842 60.733299 
694.414978 17.277317 
695.416565 2.887034 
696.409668 0.350245 
697.439148 0.066608 
698.438354 0.043444 
701.395447 0.072129 
702.428284 0.310716 
703.419312 1.892718 
704.417847 1.613181 
705.416382 0.127294 
707.401123 3.299925 
708.403931 2.779146 
709.43689 3.058713 
710.4328 4.215429 
710.509949 0.077458 
710.586609 0.070905 
710.784668 0.086121 
710.848938 0.038384 
710.968628 0.067927 
711.086609 0.115961 
711.427551 2.414786 
711.666626 0.055127 
712.425171 0.426197 
717.386597 0.52523 
718.371155 0.879921 
719.370972 0.338313 
720.442566 0.068147 
728.450989 1.966914 
729.451355 1.029466 
734.41095 3.417445 
735.400452 6.062917 
736.399353 3.666046 
737.404053 1.538174 
738.407104 0.787804 
739.41394 0.423563 
740.416809 0.105149 
742.46283 2.190821 
743.463501 1.301142 
744.409119 0.051788 
744.47467 0.219159 
745.474182 0.060293 
746.421936 0.302551 
747.417603 0.120045 
748.411011 0.055459 
750.416443 0.052944 
751.424988 0.49227 
752.422119 18.161432 
753.42395 13.192618 
753.495972 0.041541 
754.425476 6.049129 
755.428894 2.071115 
761.441406 0.279226 
762.389465 0.147661 
762.430176 0.154773 
763.381104 0.095717 
763.448181 2.01995 
764.449402 1.122722 
765.435303 0.15614 
766.436951 0.379646 
767.437866 0.048274 
768.489685 0.068198 
769.446899 0.128183 
770.450317 0.121751 
771.410278 0.060855 
773.406189 0.056388 
776.447205 0.041219 
777.434448 0.780732 
778.397888 1.083342 
778.463135 1.587841 
779.458557 3.744296 
780.45282 3.244545 
781.453857 0.745942 
785.456543 0.040448 
787.470154 0.057193 
789.427124 2.414105 
790.427734 1.712574 
791.428101 0.047822 
794.460449 5.596434 
795.462708 5.169235 
796.466858 2.62846 
797.473145 0.795552 
802.486816 0.043402 
803.466187 0.105023 
804.466797 0.042162 
805.490417 0.809908 
806.479919 0.349784 
807.439636 1.717021 
808.438049 1.378769 
809.441956 0.158947 
812.471802 0.112662 
813.444824 0.130656 
818.433105 0.128974 
818.509277 0.056126 
819.513062 0.05356 
820.48584 0.991863 
821.475159 2.898094 
822.459045 4.42466 
823.454346 4.033761 
824.463257 2.211466 
825.462463 0.966881 
826.457581 0.239373 
827.462158 0.065249 
830.468628 1.208351 
831.4646 1.736946 
832.463318 0.380314 
833.464722 0.038387 
834.411194 0.047782 
834.500916 0.942267 
835.503723 1.016624 
836.50592 0.11611 
839.478271 12.094436 
840.480042 11.956689 
841.483948 4.3283 
842.484741 0.732809 
845.443909 0.196226 
846.450928 1.160641 
847.492798 1.079565 
848.484192 3.595861 
849.487427 2.194799 
850.492432 0.348099 
851.493591 0.471607 
856.504272 0.201794 
857.495422 0.990757 
858.490417 0.355971 
860.466003 0.05289 
861.469055 0.171842 
862.496582 0.234079 
863.452942 3.329563 
864.457397 2.107158 
865.507324 7.706594 
866.509033 6.539556 
867.443359 1.762047 
867.518188 1.204581 
868.4505 1.91112 
869.455566 0.126145 
871.487122 0.125004 
872.48877 0.256214 
873.474976 0.835157 
874.464233 2.529873 
875.474854 3.612184 
876.480225 3.467233 
877.47699 2.624025 
878.482422 0.778281 
879.367493 0.052709 
879.5224 8.103793 
880.52417 8.854738 
881.526672 3.428486 
882.53302 0.105732 
886.479126 0.053378 
887.493958 0.105847 
888.497009 0.123759 
889.493042 0.404685 
890.49231 0.569129 
891.484192 10.402065 
892.486206 7.815386 
893.490417 3.14645 
894.496277 0.255441 
895.504822 0.075439 
896.496277 0.651876 
897.520935 2.165989 
898.511597 1.485745 
899.501099 0.769553 
900.494446 0.12151 
900.979858 0.049745 
901.50177 0.354206 
902.496826 1.19441 
903.49469 0.543637 
904.505371 0.133913 
905.50238 0.673909 
906.506836 0.535556 
908.520386 0.057978 
910.50824 0.078033 
911.510376 0.041323 
913.506531 2.898567 
914.500549 5.121182 
915.513733 5.875732 
916.511047 8.140384 
917.509705 6.570634 
918.509766 2.85 
919.515564 0.758163 
920.504089 0.111028 
921.52771 0.050329 
922.526611 0.058389 
923.528809 0.073708 
929.509155 0.169325 
931.516113 11.63182 
932.518555 13.904273 
933.524109 7.003127 
934.526428 2.655177 
935.524048 0.589538 
936.526794 0.18034 
937.549072 0.050509 
939.145813 0.053166 
940.50647 0.177971 
941.505981 2.023613 
942.502686 2.440776 
943.507324 0.629213 
944.516479 0.600552 
945.502625 1.291258 
946.507019 0.763807 
947.517883 0.240742 
948.52832 0.435119 
949.532349 1.483849 
950.54425 0.386784 
951.562012 0.043984 
954.509338 0.05317 
955.507385 0.063047 
956.510925 0.072212 
957.533447 0.065141 
958.527161 9.665536 
959.519043 21.386808 
960.515625 16.995848 
961.516785 6.431859 
962.519531 4.774109 
963.517883 3.582323 
964.519043 0.635351 
969.544128 0.048559 
970.523621 0.171218 
974.52533 1.575941 
975.539124 1.304625 
976.536804 49.942894 
977.537842 59.046818 
978.539978 24.695923 
979.542664 5.097456 
980.534241 3.177927 
981.535339 2.28773 
982.539856 0.307414 
985.528503 0.602059 
986.539551 1.005571 
987.546082 2.207672 
988.543945 1.559551 
989.546082 0.378911 
990.540894 0.164243 
993.564331 2.043283 
994.551331 10.423751 
995.553406 7.01156 
996.554077 2.14498 
1002.549377 0.450813 
1003.551025 0.45251 
1004.553894 0.205063 
1005.561218 0.058603 
1010.616699 0.295389 
1011.592957 0.196723 
1012.548462 0.756501 
1013.539429 0.896009 
1014.530823 0.247153 
1016.550049 0.062695 
1018.546936 0.05383 
1019.547363 1.148636 
1020.546814 0.760792 
1021.550415 0.042662 
1028.532104 0.068865 
1029.548462 0.825631 
1030.550903 2.58213 
1031.551636 1.840059 
1032.549194 0.070912 
1034.572388 0.055999 
1047.57373 3.412496 
1048.575562 4.052906 
1049.575684 1.480288 
1050.574707 0.061408 
1054.556641 0.056857 
1055.552002 0.764 
1056.537476 2.467046 
1057.53479 1.860208 
1058.542114 0.353017 
1059.541138 0.101903 
1061.549316 0.062283 
1065.584717 0.835455 
1066.588135 0.115002 
1072.594238 1.239007 
1073.555298 3.572803 
1074.552612 4.173214 
1075.555786 2.481779 
1076.562012 0.266597 
1077.560547 0.07091 
1089.616577 1.012132 
1090.609985 1.970816 
1091.561768 7.783186 
1092.563721 8.049881 
1093.567017 3.402921 
1094.579712 0.257379 
1106.606812 0.068076 
1107.631104 4.966351 
1108.630859 2.101163 
1109.575073 0.676407 
1110.578491 0.632447 
1115.596558 0.065992 
1116.598022 0.070009 
1119.598389 0.125449 
1123.620239 0.044956 
1125.622925 0.264423 
1126.619873 0.482291 
1127.61499 0.06136 
1133.609009 0.425308 
1134.605957 0.048128 
1143.632202 0.196426 
1144.626831 0.31843 
1145.654907 0.059148 
1146.820312 0.062606 
1159.630127 0.324437 
1160.644897 0.185592 
1161.641846 0.727224 
1169.617798 0.393232 
1170.616211 0.507903 
1171.621948 0.054542 
1178.66748 0.12722 
1186.635376 0.789002 
1187.627808 0.409682 
1188.629028 0.211949 
1189.626587 0.044286 
1190.629883 0.090848 
1197.64917 0.04427 
1204.647583 3.366596 
1205.650391 1.903981 
1206.653442 2.262354 
1207.65564 1.318443 
1208.655762 0.208114 
1213.637817 0.140523 
1214.636597 0.206297 
1215.646484 0.20304 
1220.621948 0.263607 
1221.613281 0.054898 
1222.655273 2.016859 
1223.660889 0.550966 
1227.677979 0.051247 
1235.69873 0.065315 
1240.638672 0.051874 
1241.636108 0.174707 
1242.653564 0.376809 
1243.653809 0.048738 
1244.713135 0.874284 
1245.718994 0.380723 
1254.645508 0.050068 
1256.644653 0.358865 
1257.662109 0.06632 
1258.655884 2.525229 
1259.661987 1.274968 
1260.664307 0.119801 
1273.663452 0.04467 
1285.647827 0.219398 
1286.648682 2.445895 
1287.650391 1.969625 
1288.65625 0.384493 
1289.659302 0.049287 
1291.667114 0.040071 
1302.662598 0.106937 
1303.673218 6.770733 
1304.671509 6.622298 
1305.67981 2.95557 
1306.697754 0.38461 
1317.64624 0.055173 
1339.687744 0.126683 
1341.724121 0.360972 
1356.681152 0.074835 
1369.727539 0.241028 
1386.735107 0.042962 
1400.685425 2.64821 
1401.68811 3.111756 
1402.698486 1.121438 
1403.705566 0.333096 
1418.699463 1.198343 
1419.703125 1.743944 
1420.713379 0.515038 
END IONS

