BEGIN IONS
PEPMASS=289.141
CHARGE=1+
COMPOUNDNAME=(1S,8R,9R)-8-hydroxy-4-(propan-2-ylidene)-10-oxatricyclo[7.2.1.01,5]dodecane-8-carboxylic acid
LIBRARYQUALITY=3
SMILES=N/A
INCHIKEY=IOYVXXQKVQKQIG-ZJPTYJIISA-N
INCHI=InChI=1S/C15H22O4/c1-9(2)10-3-5-14-7-12(19-8-14)15(18,13(16)17)6-4-11(10)14/h11-12,18H,3-8H2,1-2H3,(H,16,17)/t11?,12-,14-,15-/m1/s1
MSLEVEL=2
SOURCE_INSTRUMENT=N/A-ESI-QFT
FILENAME=library_mgf.mgf
SEQ=*..*
IONMODE=positive
ORGANISM=MONA
NAME=(1S,8R,9R)-8-hydroxy-4-(propan-2-ylidene)-10-oxatricyclo[7.2.1.01,5]dodecane-8-carboxylic acid [M+Na]+
PI=MoNA
DATACOLLECTOR=MoNA:VF-NPL-QEHF021465
PUBMED=N/A
SUBMITUSER=mwang87
TAGS=
SPECTRUMID=CCMSLIB00004712528
SCANS=21465
50.015514 0.079709 
50.197338 0.049354 
50.230259 0.094476 
50.96006 0.070069 
51.02335 0.150398 
51.302036 0.129106 
51.674671 0.060555 
51.939049 0.138354 
51.940323 9.206514 
51.996925 0.050363 
52.575871 0.097676 
52.940456 0.895256 
53.002548 4.2114 
53.038921 11.96042 
53.710278 0.06076 
53.939384 0.160219 
53.997749 0.225108 
54.034168 0.189347 
54.93784 2.41215 
55.018177 12.252452 
55.054562 39.052395 
55.40107 0.053656 
55.934708 7.583595 
55.974201 0.054718 
56.021465 0.057455 
56.049809 1.237867 
56.057911 0.263134 
56.547813 0.050584 
56.613461 0.047077 
56.784489 0.055069 
56.942501 0.52964 
56.965084 2.427579 
57.033791 5.729074 
57.07019 26.217773 
57.224915 0.054786 
57.935081 13.322376 
58.065434 2.5518 
58.073502 0.698123 
59.049423 5.060576 
59.401981 0.050805 
59.930458 0.968767 
60.044651 0.708244 
60.081005 0.585781 
60.416813 0.05203 
60.957939 0.055323 
61.01088 10.409215 
61.522209 0.046882 
62.018707 0.785573 
62.060204 0.057301 
62.990135 0.106431 
63.006752 0.058367 
63.026501 1.08669 
63.322788 0.056367 
63.508396 0.049454 
63.692993 0.077438 
63.997932 0.319053 
64.385277 0.095493 
65.038727 8.426444 
65.779137 0.046711 
66.046562 0.365407 
66.198502 0.046291 
67.018059 0.412023 
67.054367 73.740341 
67.283318 0.04903 
67.93499 0.291059 
68.025887 0.188587 
68.049614 1.351142 
68.057701 1.419452 
68.94278 0.656616 
68.962669 0.676229 
68.969727 0.054361 
68.997231 2.55185 
69.033615 11.575293 
69.07 29.160557 
69.961052 3.407781 
70.029121 0.063337 
70.065224 18.46582 
70.073349 0.241418 
70.941849 0.288696 
70.957962 11.617832 
71.012848 0.252401 
71.017792 0.056779 
71.049232 9.150333 
71.068581 0.589731 
71.071404 0.050953 
71.085609 7.154245 
71.929375 0.607598 
71.940262 0.424003 
72.044426 0.373549 
72.080879 1.927884 
72.93499 0.067776 
72.937202 6.737125 
73.028511 0.294237 
73.06485 2.805582 
73.155785 0.049955 
73.53994 0.068374 
74.060173 0.306885 
74.096222 0.121337 
75.945457 0.057967 
76.728798 0.112697 
77.038666 1.520164 
77.770615 0.052377 
78.013535 0.085219 
78.04641 0.148689 
79.018532 0.115217 
79.021255 4.072235 
79.054276 74.932381 
80.024757 0.059486 
80.04953 1.387133 
80.057648 1.471008 
80.062073 0.296719 
81.033554 6.706293 
81.044785 4.636502 
81.069931 64.74218 
81.734367 0.101409 
81.737373 0.065709 
82.041405 0.269687 
82.065163 1.17639 
82.073326 1.534748 
82.075935 0.067264 
83.012794 8.929031 
83.015511 0.092233 
83.049202 34.402222 
83.060303 0.263769 
83.085556 7.692455 
83.43911 0.052861 
83.929893 0.248801 
84.044449 0.753984 
84.080818 2.113601 
85.028481 4.03832 
85.039703 1.813895 
85.06485 5.468551 
85.101196 0.909771 
86.060104 1.407889 
86.096436 2.969952 
86.97316 0.288065 
87.044167 1.320691 
87.080421 0.054201 
87.675545 0.053889 
87.906593 0.106813 
87.971565 0.148414 
88.075775 13.132947 
88.822968 0.071822 
88.952408 0.224959 
88.968475 7.156692 
88.99131 0.05712 
89.059624 0.150387 
89.079063 0.181537 
89.347366 0.079139 
89.939926 0.241771 
89.950951 0.267503 
90.229691 0.057671 
90.930023 0.05355 
90.947769 7.818679 
91.054291 82.549393 
91.207726 0.104957 
92.049461 0.258887 
92.057617 2.659171 
92.062233 0.477587 
92.463615 0.05524 
92.676918 0.05891 
92.948311 0.063425 
92.960182 0.110253 
93.033577 1.424177 
93.044426 0.052576 
93.057327 0.086036 
93.069962 65.401566 
93.955971 0.540368 
94.041328 1.279617 
94.065224 1.949197 
94.073296 1.40741 
94.077599 0.279655 
95.012779 0.136731 
95.049202 24.423738 
95.060425 0.80805 
95.073181 0.065616 
95.085571 43.327866 
95.252815 0.075988 
96.044395 0.561088 
96.052605 0.265755 
96.056686 0.129709 
96.080811 0.626555 
96.088928 0.795352 
96.887268 0.051618 
97.028511 1.813569 
97.06488 37.30431 
97.101234 1.496209 
98.060013 0.480288 
98.068176 0.344822 
98.096542 0.380123 
99.044113 4.093921 
99.080467 1.430651 
100.075745 1.60319 
100.32386 0.065744 
101.059746 1.174928 
101.940262 0.059159 
102.091377 0.629779 
102.948029 0.42364 
102.968704 0.06074 
103.054283 9.151648 
103.151855 0.102399 
103.681351 0.054247 
104.049332 0.069043 
104.057487 0.079992 
104.062019 0.815285 
104.959641 0.051833 
104.963455 0.942656 
105.0336 2.589585 
105.044891 4.743845 
105.069969 100.0 
105.681419 0.096539 
105.78421 0.055062 
105.917007 0.604187 
105.934425 0.055114 
105.979805 1.202796 
106.040596 0.085975 
106.065201 3.475711 
106.069077 0.062104 
106.073326 3.432294 
106.077225 0.543994 
106.086334 4.793777 
106.545433 0.057706 
106.924911 0.144254 
106.978996 0.800061 
107.044769 0.038096 
107.049187 17.857559 
107.06031 0.054487 
107.073006 1.927793 
107.085564 50.587395 
107.226341 0.053373 
107.950409 0.34724 
107.961021 0.057806 
107.975021 0.197163 
108.044441 0.667962 
108.056953 1.269169 
108.080772 0.862931 
108.088997 1.254856 
108.093117 0.498106 
108.958336 1.919892 
109.028481 1.476141 
109.064888 24.349766 
109.076057 0.172925 
109.101257 28.521975 
110.036308 0.052782 
110.06012 1.923398 
110.068039 0.139765 
110.072441 0.602711 
110.096558 0.16163 
110.104446 0.181882 
110.953423 0.128809 
111.044167 3.977855 
111.055565 0.068544 
111.07428 0.057936 
111.080505 3.716541 
112.051483 0.118022 
112.075783 0.286704 
113.059776 1.420915 
114.091118 0.125078 
115.054337 11.036253 
115.936653 0.056313 
116.057808 0.335097 
116.06205 3.263486 
116.070885 0.109996 
116.985031 0.063245 
117.057381 1.781967 
117.069931 25.371689 
117.917061 0.143683 
117.945831 0.077098 
118.065155 6.868561 
118.073189 1.070505 
118.07766 0.685189 
118.924805 0.283205 
118.943192 0.444289 
119.049301 3.176716 
119.060547 2.327187 
119.072914 0.613126 
119.085617 49.479073 
119.222824 0.101097 
119.950989 1.109519 
120.044449 0.393541 
120.056931 0.845647 
120.080849 4.112326 
120.088905 1.629085 
120.093307 0.071379 
120.940628 1.232849 
120.958649 0.061568 
121.028465 1.236613 
121.039642 0.052913 
121.064873 13.413793 
121.075699 0.15332 
121.08847 0.440807 
121.101265 18.246016 
122.036255 1.063119 
122.06012 3.245701 
122.068161 0.078787 
122.072556 3.049158 
122.096535 0.733417 
122.104309 0.067983 
122.941032 0.070189 
122.973885 0.206866 
123.044136 5.795803 
123.067894 0.309491 
123.080467 13.784263 
123.091614 0.18758 
123.116837 6.224266 
123.927704 0.291612 
123.945023 0.169012 
124.039497 0.350317 
124.051613 0.700156 
124.075836 0.649956 
124.935898 0.459392 
125.023384 0.822854 
125.059776 3.59294 
125.096146 4.79028 
125.961105 0.686249 
126.049583 0.108229 
126.055023 0.347987 
126.355682 0.060715 
126.959763 0.060361 
127.039032 2.090209 
127.054192 0.087309 
127.075294 0.166262 
128.049713 6.948796 
128.062103 16.513258 
128.845001 0.059966 
128.963715 5.041922 
129.052994 0.065502 
129.06987 25.068619 
129.964035 0.159644 
130.065231 5.228303 
130.073196 0.8066 
130.07782 6.544465 
130.943375 0.174107 
130.979156 0.078869 
131.049179 2.929921 
131.073318 3.593818 
131.085617 28.663143 
131.961441 0.501584 
132.044388 1.408552 
132.056854 0.933826 
132.068512 0.193455 
132.080841 16.448952 
132.088867 1.436817 
132.093536 0.271275 
132.958298 2.424605 
133.028671 0.06934 
133.052399 0.301745 
133.064865 16.258139 
133.076141 0.838964 
133.088135 1.480493 
133.101227 25.216906 
133.948318 1.379931 
134.059967 1.410558 
134.072754 0.835758 
134.096359 2.894401 
134.10437 0.275419 
134.919876 0.108571 
134.930634 0.202063 
134.956131 0.966769 
134.995865 0.054129 
135.044113 3.569934 
135.067932 0.299041 
135.080475 16.047031 
135.091278 0.168376 
135.104294 0.388371 
135.116791 6.592829 
135.927475 0.392713 
136.075699 2.420919 
136.083328 0.082214 
136.088486 1.92404 
136.112091 0.066723 
136.93544 0.19535 
136.953644 0.068342 
137.012604 0.054997 
137.047211 0.397998 
137.05983 5.251294 
137.083603 0.736691 
137.096191 7.433893 
137.13266 0.33186 
137.928085 0.073241 
138.055069 0.570065 
138.067627 2.049851 
138.091431 0.244242 
138.951065 1.50094 
138.984116 0.324361 
139.038956 5.083525 
139.075348 4.616024 
139.112244 0.069169 
139.923492 0.13488 
140.046661 9.077665 
140.062363 0.058292 
140.070526 0.136724 
140.984543 0.458519 
141.054626 2.545075 
141.069824 14.073544 
142.065216 1.742912 
142.077881 24.487459 
142.978912 0.086372 
143.04924 0.120119 
143.060486 0.147693 
143.07309 1.228592 
143.085602 24.932863 
144.044479 0.248624 
144.056992 1.491325 
144.080994 4.170631 
144.088058 0.341177 
144.093826 4.65031 
144.980026 1.484515 
145.06488 8.959359 
145.076065 1.634081 
145.083023 0.075874 
145.08847 1.254175 
145.101288 19.62303 
146.06012 3.71259 
146.072952 3.003993 
146.096634 7.56446 
146.103592 0.768641 
146.974426 29.755053 
147.044037 1.242284 
147.0681 0.140456 
147.080414 10.850524 
147.091431 0.211466 
147.104156 0.708724 
147.116806 12.790448 
147.9366 0.064822 
147.974716 7.822938 
148.038925 0.05763 
148.075699 2.18626 
148.081558 0.052704 
148.088501 0.296498 
148.105316 0.061793 
148.112076 0.405079 
148.971848 21.702063 
149.059738 3.538464 
149.083054 0.079703 
149.096191 5.971679 
149.107361 0.071418 
149.120041 0.496187 
149.13266 1.137585 
149.971909 0.998826 
150.055054 1.112347 
150.067383 0.08119 
150.091553 0.46951 
150.104614 0.063794 
150.127594 0.111556 
150.951157 2.544973 
150.968872 4.186934 
151.039078 0.755041 
151.06311 0.187561 
151.075409 6.118424 
151.111801 7.675687 
151.933182 0.227494 
151.958954 1.36744 
151.979355 0.0931 
152.048904 0.062045 
152.062134 3.43962 
152.069321 0.265775 
152.083038 0.96614 
152.106567 0.062542 
152.930389 0.350588 
152.940887 0.169258 
152.946686 1.751719 
152.952713 0.916538 
152.966705 1.408601 
153.054581 0.911003 
153.069962 6.162965 
153.091064 2.093231 
153.938232 0.40585 
153.959412 0.6017 
153.992096 0.093181 
154.065125 1.454575 
154.077835 5.294874 
154.946869 0.185754 
154.963699 0.065124 
154.978806 0.056013 
154.999786 0.138071 
155.049271 0.081048 
155.060471 3.426376 
155.070251 6.379492 
155.085556 14.074386 
155.092285 0.106252 
155.933762 0.635406 
155.954727 1.813923 
156.081436 3.885096 
156.093765 8.750586 
156.945938 0.069237 
157.064911 3.960791 
157.076202 0.264551 
157.088943 1.157223 
157.101212 19.88681 
157.952194 0.092321 
158.060486 1.87577 
158.072693 4.431755 
158.096985 3.889399 
158.109375 3.19913 
158.941818 0.091829 
158.968826 0.076744 
158.974136 0.086951 
159.044891 0.068333 
159.068146 0.943199 
159.080521 16.168835 
159.091888 0.229769 
159.104294 1.022539 
159.116943 9.924087 
160.051895 0.307652 
160.076065 3.380825 
160.088425 4.039271 
160.112137 2.924195 
160.119629 0.452506 
161.047272 1.465511 
161.059601 3.70447 
161.083771 0.52057 
161.09613 10.314359 
161.107529 0.337343 
161.120117 0.37221 
161.132538 4.451477 
162.055069 1.051782 
162.067535 0.161801 
162.0914 1.39144 
162.127579 0.907007 
163.038971 0.284448 
163.063171 2.328399 
163.075363 4.139769 
163.111801 2.045281 
163.135712 0.076222 
163.148911 0.07826 
164.048737 0.153312 
164.07048 0.786218 
164.10704 1.591659 
164.987213 0.428097 
164.999115 0.070984 
165.054703 0.905847 
165.069931 5.176392 
165.07753 0.20542 
165.091019 6.349064 
165.114761 0.084073 
165.550369 0.057189 
165.885635 0.098139 
165.985748 0.256479 
165.995026 0.159525 
166.078064 1.72201 
166.098633 0.318161 
166.98259 4.750372 
167.034027 0.939987 
167.06073 0.316661 
167.07077 1.985954 
167.085678 6.960836 
167.106186 0.076102 
168.057281 0.071985 
168.06813 0.062868 
168.080765 1.542841 
168.093643 2.914209 
168.961929 1.218362 
169.064896 3.505856 
169.07605 1.071855 
169.088257 0.1282 
169.101349 7.005056 
169.943756 0.457998 
170.060074 1.49973 
170.072617 3.74526 
170.096619 1.687604 
170.109207 7.467891 
170.941193 0.480192 
170.956665 3.713246 
170.963882 5.48552 
171.055435 1.626629 
171.067688 0.138477 
171.080475 9.515982 
171.103989 0.38932 
171.116898 6.776517 
172.07579 1.472613 
172.088303 5.120281 
172.112259 2.328232 
172.124939 0.412345 
172.957825 0.070205 
173.059692 1.967014 
173.08371 0.508793 
173.096237 11.331064 
173.120117 0.104318 
173.132614 3.284291 
174.055069 3.305635 
174.067734 1.670294 
174.091614 3.288152 
174.104187 7.03285 
174.127808 5.792087 
175.039291 0.230054 
175.062729 1.50147 
175.075455 4.289729 
175.099075 0.307875 
175.111816 4.964609 
175.123962 0.065829 
175.131683 0.133142 
175.148239 1.639524 
175.938293 0.05233 
176.070831 4.801803 
176.083435 0.192603 
176.107056 0.794381 
176.143433 0.180098 
177.054718 2.021612 
177.077972 0.480609 
177.091049 1.119753 
177.127625 0.805744 
177.151245 0.238592 
178.062515 0.346073 
178.077805 0.573654 
178.086395 0.494994 
178.122772 0.156661 
178.892731 0.067923 
178.908554 0.091834 
178.964325 1.115861 
178.97905 0.082636 
179.06041 30.201157 
179.069199 0.906232 
179.085495 1.628028 
179.106583 4.905567 
179.130478 0.237862 
180.055893 0.713684 
180.064102 3.035638 
180.079651 0.057216 
180.093643 1.178946 
180.888123 11.877355 
180.908768 0.121191 
181.050354 0.061867 
181.064758 1.481727 
181.076187 0.323488 
181.086334 0.377212 
181.101242 2.269577 
181.692154 0.08737 
181.888229 0.237586 
182.072678 1.343608 
182.095901 0.362065 
182.108704 0.261078 
182.888763 1.552652 
182.952087 1.080051 
183.080521 4.551928 
183.091461 1.354035 
183.116928 2.294206 
184.075943 0.416604 
184.088287 2.521921 
184.096268 0.065896 
184.112 0.404904 
184.125107 0.212504 
184.98877 0.076412 
185.060043 1.136213 
185.070892 0.397592 
185.096176 9.556951 
185.132599 4.734354 
185.949295 0.455469 
186.055161 3.13663 
186.067307 0.68666 
186.091354 1.62808 
186.10408 5.450919 
186.127792 6.659211 
186.136551 0.095299 
187.062653 1.407121 
187.075485 5.97446 
187.099106 0.418364 
187.111847 6.507477 
187.1353 2.898489 
187.148361 0.313097 
187.944809 0.762372 
188.070618 5.374792 
188.083084 3.626534 
188.106903 3.022959 
188.118286 0.480636 
188.143555 8.392493 
188.974136 6.776517 
189.054947 0.782459 
189.078384 1.363082 
189.091095 4.786721 
189.113297 0.283699 
189.127548 1.9584 
189.150925 3.29987 
189.163925 0.208254 
189.88649 0.063794 
190.049393 0.063606 
190.086197 1.647131 
190.098785 0.222582 
190.122726 0.433756 
190.158936 1.669785 
191.000366 0.149593 
191.060638 0.597149 
191.069931 0.476222 
191.095047 0.160675 
191.106598 0.572077 
191.880844 1.064784 
192.05629 0.079436 
192.065857 1.234926 
192.101608 0.120695 
192.137405 0.076629 
192.995148 0.161003 
193.06337 0.066555 
193.086166 0.437184 
193.101273 0.163091 
193.122131 0.237962 
194.071564 1.762818 
194.080978 0.078314 
194.109268 0.084897 
195.08075 2.625253 
195.09111 0.066182 
195.102005 0.829185 
195.116882 0.963702 
195.875 0.082654 
195.895935 0.183109 
196.076263 0.152073 
196.088348 1.229195 
196.882462 0.11786 
197.060028 1.912689 
197.070236 0.172147 
197.096329 2.761567 
197.132263 0.326662 
197.875778 2.339462 
197.891052 3.717765 
198.055786 0.564565 
198.067566 2.063781 
198.091766 0.453166 
198.103821 1.052707 
198.12793 0.409151 
198.898788 3.195811 
199.004929 0.076477 
199.075623 4.633205 
199.111832 3.144131 
199.147995 0.168112 
199.891357 0.166949 
200.070847 3.609935 
200.081223 0.441086 
200.107208 1.650764 
200.11937 0.769302 
200.14357 1.628032 
200.89946 0.681805 
200.985245 0.09426 
201.054596 0.951135 
201.078293 1.497166 
201.091171 3.22855 
201.11351 0.14695 
201.127319 1.73333 
201.137405 0.149909 
201.150177 0.163309 
201.334671 0.06576 
202.050262 0.422286 
202.062561 0.170789 
202.08667 6.896681 
202.098923 5.645528 
202.122665 1.775943 
202.159195 3.650154 
202.978928 0.066467 
203.070496 1.549272 
203.093536 0.832815 
203.106812 5.179002 
203.142914 0.421943 
203.166595 0.523928 
204.008438 0.067023 
204.055908 0.214881 
204.065521 0.654247 
204.077621 0.079475 
204.102295 1.84238 
204.138 0.084328 
204.174438 0.163243 
204.888565 0.469578 
205.063339 0.150035 
205.07515 0.058155 
205.086044 1.497093 
206.071381 38.016556 
206.867554 0.247573 
207.010727 0.133011 
207.055771 7.088992 
207.07486 5.287957 
207.102081 0.062484 
207.876587 0.071339 
208.059433 0.525522 
208.086853 0.075031 
208.883789 0.63755 
209.011185 0.059889 
209.070984 0.203703 
209.095932 0.077421 
209.131973 0.070797 
209.876038 1.874237 
209.891861 1.957962 
210.065857 0.482806 
210.126724 0.078342 
210.883423 0.074166 
210.899307 0.264953 
211.075577 1.631774 
211.111832 0.379706 
211.891296 0.526121 
212.07193 0.376548 
212.083389 3.658213 
212.117676 0.077505 
212.143433 0.158587 
213.079468 0.185846 
213.091034 4.16214 
213.127472 1.12148 
213.163864 0.056739 
213.885986 1.378515 
213.906601 0.093848 
214.086334 4.32465 
214.098297 1.317824 
214.122726 0.41656 
214.159012 0.311476 
214.878815 0.175999 
214.893936 0.704034 
215.070419 4.247499 
215.09314 1.031059 
215.106857 2.323972 
215.117493 0.078656 
215.129425 0.134962 
215.720078 0.062768 
215.886963 0.823386 
215.901688 3.612939 
216.055862 0.082152 
216.066315 0.388713 
216.07814 0.622089 
216.102142 3.595482 
216.113419 0.170342 
216.13829 0.774479 
216.174744 0.514803 
217.015381 0.085845 
217.063263 0.096511 
217.086044 3.296749 
217.107376 0.229637 
217.122421 2.641897 
217.902023 0.4321 
218.071091 2.194938 
218.081726 1.406441 
218.09288 0.21876 
218.117767 0.92125 
218.152985 0.06112 
218.190201 0.278354 
219.078049 0.083815 
219.101685 0.783437 
219.433975 0.520705 
219.443466 0.164038 
220.050568 0.185785 
220.903259 0.550977 
220.989975 0.090907 
221.902283 0.434333 
222.066559 0.165757 
222.898651 21.548937 
223.075302 0.258763 
223.900986 1.016731 
224.081879 0.210453 
224.879257 1.480645 
224.89888 4.485226 
225.054581 0.124527 
225.091125 0.19779 
225.886322 0.373114 
226.062302 0.124928 
226.086426 0.643265 
226.098404 0.151982 
226.894012 0.066636 
227.069794 0.217089 
227.093964 0.130782 
227.106644 1.027291 
228.101974 10.041629 
228.138367 0.440913 
228.174423 0.067706 
229.086578 0.821317 
229.107132 1.50299 
229.121964 0.534151 
229.895493 0.807587 
229.955383 0.071537 
230.081726 0.581679 
230.093948 1.098998 
230.117355 0.822373 
230.154144 0.526111 
230.190643 0.19889 
231.101715 0.872737 
231.137863 0.092869 
231.149368 0.072929 
231.210312 0.150768 
231.896393 0.08267 
232.061874 0.274447 
232.074188 3.881485 
232.096848 0.494519 
232.133209 0.177902 
233.058899 2.215831 
233.082245 7.413514 
233.117432 0.141441 
233.142166 0.065253 
233.891296 0.093316 
234.066483 4.009772 
234.088074 1.221906 
234.150299 0.123513 
234.899124 0.137133 
235.071457 0.243895 
236.899902 0.826417 
237.886398 0.107964 
237.921768 0.30464 
238.890503 0.077306 
238.913971 0.786349 
239.886948 0.984514 
239.912598 0.697562 
240.012192 0.067618 
240.078476 0.226732 
240.909363 32.913857 
241.08577 0.26413 
241.911545 2.291418 
242.117416 3.394705 
242.154327 0.233558 
242.190491 0.097929 
242.909805 12.425972 
243.065659 3.478718 
243.101944 0.166984 
243.122955 1.117827 
244.096878 2.752287 
244.109558 0.066718 
244.133118 1.563866 
244.169647 0.279392 
244.206085 1.522644 
245.081726 0.22773 
245.102341 0.269042 
245.117035 0.396299 
245.137634 0.146548 
246.076706 0.322668 
246.112396 1.082178 
246.148911 0.807633 
246.969513 0.064657 
247.098221 0.1587 
247.156631 0.453374 
247.906708 0.904907 
247.967926 0.468149 
249.906036 0.067366 
249.991638 0.058521 
250.893982 0.724638 
252.174332 0.138777 
252.894028 0.062926 
253.902634 0.186802 
254.049179 0.070154 
254.190628 0.157156 
255.8965 0.346746 
256.006287 0.11371 
257.080658 0.147895 
257.137909 0.142119 
257.896729 2.034979 
258.089111 0.27742 
258.112732 0.084738 
258.149139 3.585487 
259.154999 1.057782 
260.069244 0.201646 
260.093109 0.21165 
260.128662 0.148971 
260.163757 0.212065 
260.245911 0.062721 
261.077026 8.531568 
262.081451 1.316422 
264.277283 0.121257 
267.8255 0.397843 
268.21463 0.057102 
269.820984 0.322137 
270.184937 0.523314 
272.092041 0.075877 
272.165436 0.057292 
272.200836 1.688488 
272.967957 0.058577 
274.217224 0.077265 
274.262787 0.112419 
275.905029 0.065241 
279.896851 0.578463 
281.821381 3.068903 
281.897339 0.681451 
282.822418 0.256801 
283.820831 0.76852 
284.808044 1.524149 
285.815765 2.178642 
285.835999 2.393995 
287.83139 3.03322 
288.195831 5.47713 
288.212646 0.230735 
288.839996 0.092881 
289.200073 0.847952 
290.102783 0.080385 
290.174377 0.39303 
290.211487 12.969957 
290.229004 0.088199 
290.284576 1.063631 
291.129669 0.182299 
291.215576 1.786294 
295.800873 0.22022 
296.808533 2.313436 
297.816406 1.516075 
297.906738 0.213517 
299.814972 0.323799 
299.907288 0.125074 
300.823029 1.002662 
300.840393 0.1644 
301.81015 0.571028 
302.818451 5.748686 
303.017456 0.121962 
313.811157 2.235106 
314.81189 0.11594 
END IONS

