BEGIN IONS
PEPMASS=271.061
CHARGE=1+
COMPOUNDNAME=HMDB:HMDB02670-2122 Naringenin
LIBRARYQUALITY=3
SMILES=OC1=CC=C(C=C1)[C@@H]1CC(=O)C2=C(O)C=C(O)C=C2O1
INCHIKEY=FTVWIRXFELQLPI-ZDUSSCGKSA-N
INCHI=InChI=1S/C15H12O5/c16-9-3-1-8(2-4-9)13-7-12(19)15-11(18)5-10(17)6-14(15)20-13/h1-6,13,16-18H,7H2/t13-/m0/s1
MSLEVEL=2
SOURCE_INSTRUMENT=Negative-Quattro_QQQ:10eV
FILENAME=hmdb_intermediate.mgf
SEQ=*..*
IONMODE=Negative
ORGANISM=HMDB
NAME=HMDB:HMDB02670-2122 Naringenin M-H
PI=HMDB
DATACOLLECTOR=HMDB
PUBMED=N/A
SUBMITUSER=mwang87
TAGS=
SPECTRUMID=CCMSLIB00000425353
SCANS=325
92.0 3.145 
118.0 2.419 
119.0 1.113 
150.0 8.985 
151.0 5.31 
176.0 3.133 
270.0 8.36 
271.0 100.0 
272.0 3.552 
END IONS

