BEGIN IONS
PEPMASS=386.265
CHARGE=1+
COMPOUNDNAME=ACTINONIN
LIBRARYQUALITY=3
SMILES=N/A
INCHIKEY=XJLATMLVMSFZBN-VYDXJSESSA-N
INCHI=InChI=1S/C19H35N3O5/c1-4-5-6-8-14(11-16(24)21-27)18(25)20-17(13(2)3)19(26)22-10-7-9-15(22)12-23/h13-15,17,23,27H,4-12H2,1-3H3,(H,20,25)(H,21,24)/t14-,15+,17+/m1/s1
MSLEVEL=2
SOURCE_INSTRUMENT=N/A-ESI-QFT
FILENAME=library_mgf.mgf
SEQ=*..*
IONMODE=positive
ORGANISM=MONA
NAME=ACTINONIN [M+H]+
PI=MoNA
DATACOLLECTOR=MoNA:VF-NPL-QEHF027304
PUBMED=N/A
SUBMITUSER=mwang87
TAGS=
SPECTRUMID=CCMSLIB00004720885
SCANS=27304
50.376358 0.007931 
50.884266 0.004693 
51.029083 0.004702 
51.068062 0.007134 
51.188614 0.00688 
51.316864 0.009835 
51.85759 0.012342 
51.929981 0.006346 
52.017097 0.007474 
52.719326 0.007629 
52.929676 0.009287 
53.03891 0.025933 
53.109467 0.007716 
53.15057 0.008785 
53.583549 0.007906 
54.398014 0.008481 
55.054478 3.392652 
55.286777 0.004247 
56.049717 0.780405 
56.057827 0.048317 
56.402588 0.004562 
56.500732 0.008239 
56.541267 0.004412 
56.660404 0.007725 
57.057541 0.232908 
57.070099 0.180317 
57.428398 0.004557 
57.928143 0.008674 
57.985027 0.007908 
58.978996 0.004793 
60.042671 0.003954 
60.298328 0.007604 
61.13504 0.005889 
61.620323 0.008709 
62.143501 0.008231 
63.290989 0.009924 
63.359226 0.004278 
63.426147 0.005719 
63.43565 0.007798 
63.619621 0.007122 
63.869194 0.006558 
64.268135 0.007354 
64.632851 0.008355 
64.931854 0.008535 
65.064445 0.008623 
65.132324 0.011498 
65.734268 0.008608 
66.071144 0.01095 
66.206871 0.012355 
66.408348 0.004604 
66.832611 0.006917 
66.963951 0.003982 
67.054298 0.609721 
69.133865 0.008887 
69.369293 0.009692 
69.580223 0.00775 
69.919571 0.006345 
70.209198 0.004464 
70.224815 0.010056 
71.282043 0.010552 
72.08075 68.073044 
72.727074 0.01266 
73.077805 0.124223 
73.084091 2.625464 
73.086578 0.011482 
73.256729 0.004419 
74.071716 0.008118 
75.037193 0.006356 
75.904091 0.006924 
76.65593 0.010192 
77.091766 0.005832 
77.513237 0.010324 
77.825203 0.006861 
77.95034 0.008255 
78.950584 0.008199 
79.906326 0.007015 
80.068512 0.005864 
80.581314 0.006088 
81.028107 0.008596 
81.603134 0.007237 
82.065071 0.086153 
82.11441 0.007999 
83.049164 0.01492 
84.080757 7.340948 
84.083664 0.114397 
85.064735 2.19894 
85.084099 0.279832 
85.167786 0.008191 
86.068024 0.012053 
87.046066 0.010066 
87.323608 0.007624 
87.468765 0.004794 
87.938873 0.007328 
88.075378 0.007401 
89.459846 0.00763 
89.701546 0.004684 
89.751167 0.011718 
91.35231 0.008673 
92.852936 0.006776 
93.885239 0.00771 
96.172997 0.004234 
98.197968 0.011681 
100.075668 0.654704 
101.37957 0.010511 
101.440422 0.00859 
101.882858 0.00549 
102.085266 0.070062 
102.091309 100.0 
103.088448 0.278821 
103.094604 4.93671 
103.288185 0.007144 
103.638992 0.006619 
103.788086 0.007052 
103.86438 0.007804 
104.302551 0.009649 
104.649605 0.005666 
107.537781 0.005463 
107.646309 0.010089 
108.322243 0.004886 
109.92511 0.00474 
110.389503 0.012078 
111.043877 0.019307 
111.34819 0.008452 
112.075569 0.165364 
113.302872 0.010269 
113.669449 0.010125 
113.682571 0.007449 
113.748367 0.007677 
116.897293 0.008772 
117.696655 0.009093 
117.714409 0.008006 
118.878372 0.008037 
118.970413 0.007899 
119.249565 0.01114 
119.62825 0.010627 
120.575813 0.004793 
123.699753 0.011171 
125.159393 0.004954 
125.973984 0.009812 
126.718323 0.009817 
126.794891 0.011728 
127.222115 0.004261 
127.938667 0.006108 
128.07048 9.017566 
128.406158 0.007288 
129.073837 0.503684 
129.63147 0.012658 
130.744385 0.005707 
132.717865 0.01241 
135.736176 0.004827 
136.070297 0.008357 
139.686066 0.007261 
142.88237 0.008977 
144.196381 0.011126 
146.253021 0.004361 
150.24733 0.007841 
152.462646 0.004666 
156.138092 0.032392 
156.428894 0.004413 
161.272903 0.01053 
161.943832 0.00942 
164.697922 0.012013 
166.883881 0.007897 
168.769913 0.00543 
169.456009 0.006451 
170.117401 0.255972 
175.927002 0.008358 
177.180542 0.007668 
177.406067 0.004103 
179.79509 0.008385 
181.195679 0.005721 
183.148987 0.026128 
184.133026 2.748882 
184.230927 0.007404 
185.136581 0.160952 
185.841812 0.004244 
186.112335 2.41911 
187.115829 0.099022 
187.796906 0.006381 
188.952805 0.008289 
196.170044 0.010118 
196.790588 0.01188 
198.306686 0.004436 
201.159744 0.667412 
202.825455 0.008237 
208.169312 0.015167 
212.523773 0.004698 
213.659729 0.012316 
213.932083 0.33679 
213.942429 0.36073 
214.654114 0.005905 
218.576965 0.012199 
224.164352 4.53919 
225.167984 0.606574 
226.590836 0.010412 
238.714203 0.007568 
243.781586 0.005989 
245.486893 0.012895 
246.959427 0.010449 
249.124802 0.014105 
252.16069 0.00924 
253.191345 0.025361 
254.174881 0.074514 
254.192551 0.006074 
254.734879 0.013422 
257.186432 0.00765 
257.605988 0.006606 
259.41214 0.009917 
278.268951 0.006659 
285.180634 0.335806 
285.409332 0.010992 
286.184357 0.012682 
297.64975 0.006289 
301.03064 0.007899 
304.185272 0.017279 
306.957062 0.004908 
312.64328 0.006049 
321.276794 0.005369 
322.684875 0.011599 
341.946045 0.008011 
348.607727 0.009302 
350.243439 0.011213 
352.729279 0.007832 
353.242981 0.981641 
354.246979 0.062977 
354.747711 0.005959 
357.116516 0.005504 
359.374115 0.008209 
359.9151 0.010284 
368.253845 0.092936 
370.23996 0.00853 
371.898987 0.010599 
377.737915 0.010083 
381.791199 0.009985 
385.522339 0.006285 
395.951355 0.005779 
403.471619 0.01088 
407.352173 0.009565 
END IONS

