BEGIN IONS
PEPMASS=1253.62
CHARGE=1+
COMPOUNDNAME=Dactinomycin
LIBRARYQUALITY=3
SMILES=N/A
INCHIKEY=RJURFGZVJUQBHK-UHFFFAOYSA-N
INCHI=InChI=1S/C62H86N12O16/c1-27(2)42-59(84)73-23-17-19-36(73)57(82)69(13)25-38(75)71(15)48(29(5)6)61(86)88-33(11)44(55(80)65-42)67-53(78)35-22-21-31(9)51-46(35)64-47-40(41(63)50(77)32(10)52(47)90-51)54(79)68-45-34(12)89-62(87)49(30(7)8)72(16)39(76)26-70(14)58(83)37-20-18-24-74(37)60(85)43(28(3)4)66-56(45)81/h21-22,27-30,33-34,36-37,42-45,48-49H,17-20,23-26,63H2,1-16H3,(H,65,80)(H,66,81)(H,67,78)(H,68,79)
MSLEVEL=2
SOURCE_INSTRUMENT=N/A-ESI-QFT
FILENAME=library_mgf.mgf
SEQ=*..*
IONMODE=negative
ORGANISM=MONA
NAME=Dactinomycin [M-H]-
PI=MoNA
DATACOLLECTOR=MoNA:VF-NPL-QEHF000886
PUBMED=N/A
SUBMITUSER=mwang87
TAGS=
SPECTRUMID=CCMSLIB00004691949
SCANS=886
86.675064 0.063342 
87.038872 0.044712 
87.217896 0.04443 
88.039108 1.13057 
88.274788 0.053797 
89.573616 0.040926 
89.599976 0.048972 
92.393929 0.043377 
92.822578 0.063276 
93.415054 0.04543 
94.571198 0.047169 
96.044197 0.480529 
96.150475 0.042283 
97.266037 0.046616 
98.07766 0.049211 
98.366539 0.041559 
100.039131 2.709899 
101.070564 0.085547 
102.160477 0.035949 
105.203323 0.037526 
106.360451 0.045572 
107.258873 0.046761 
107.492035 0.050546 
107.518036 0.045216 
108.04422 4.748021 
108.207664 0.051039 
109.101036 0.052438 
109.407845 0.045475 
110.060066 0.064779 
112.0392 1.257485 
112.083328 0.047249 
112.972061 0.057782 
113.071404 0.054661 
114.054787 0.933078 
114.921394 0.053888 
115.086464 0.056343 
115.401596 0.056657 
115.684258 0.059778 
115.966148 0.042943 
116.450348 0.045246 
117.696838 0.0431 
118.32885 0.054153 
119.792053 0.057766 
120.230316 0.058306 
122.36187 0.049463 
123.673065 0.051063 
124.026794 0.439354 
124.039276 1.106511 
125.034477 0.943138 
125.070892 1.297699 
126.01857 0.040317 
126.054863 2.625799 
126.091637 0.0413 
127.086594 1.754769 
130.086258 54.158497 
131.089584 1.88503 
133.434418 0.039063 
136.039322 0.631888 
137.107498 0.241472 
138.054962 0.561162 
138.091797 0.071941 
139.050278 6.580443 
139.086731 0.104135 
141.065872 3.609247 
141.102325 0.062249 
147.054626 0.064366 
149.07106 0.096194 
150.04245 0.862842 
151.050385 1.148094 
151.086609 0.148649 
152.058243 0.696979 
152.10672 0.08913 
153.06604 1.614483 
153.102371 0.048857 
154.050018 0.22012 
154.433655 0.041487 
154.683167 0.04778 
154.827042 0.041311 
155.081787 0.050199 
155.501297 0.058215 
159.722473 0.04005 
162.52298 0.045902 
163.086746 0.049728 
163.186722 0.0537 
164.070862 12.381299 
165.066238 0.809252 
165.102615 0.182306 
165.360123 0.041679 
166.086716 0.062174 
167.045441 1.544926 
167.081741 23.446888 
167.089355 0.101529 
168.084869 0.469025 
169.097397 0.411149 
169.466766 0.057015 
169.671982 0.061959 
173.313843 0.053267 
175.050507 0.093899 
177.102524 0.398543 
178.086136 0.039782 
179.04538 1.356015 
179.08197 0.764206 
180.102341 2.213294 
181.09758 8.269186 
182.081726 0.122931 
183.11322 3.428264 
183.121872 0.042519 
185.092361 2.981757 
189.066177 0.46492 
189.102524 0.238861 
193.097565 9.920348 
194.101105 0.088704 
195.077164 0.877383 
195.113266 72.191933 
195.123688 1.157956 
196.116791 5.021542 
196.401779 0.06012 
196.686905 0.055701 
199.247818 0.053245 
201.124115 0.561671 
203.08194 0.708222 
204.077194 2.117422 
207.076981 15.239767 
207.450928 0.055231 
207.646393 0.057291 
208.080582 0.576384 
208.913025 0.048641 
209.092651 0.975294 
210.833847 0.056106 
211.144745 2.321941 
217.097687 5.906691 
221.092453 0.050201 
223.109085 0.106167 
224.823364 0.044466 
224.955475 0.046056 
225.140488 0.057327 
226.11792 0.044342 
226.155914 0.167764 
230.070374 0.045579 
231.077805 0.049626 
231.15007 0.533075 
232.072632 0.248094 
232.109116 0.047264 
236.469559 0.038492 
239.082199 2.421818 
241.08609 0.054036 
245.479111 0.050793 
248.14032 5.638718 
250.155487 0.229281 
252.147324 0.047161 
253.098221 0.403208 
254.187408 0.851241 
255.193146 0.053148 
255.747314 0.044996 
256.777863 0.041276 
259.928375 0.042095 
262.089539 0.047149 
262.156555 0.046107 
263.163208 0.061824 
264.077881 2.18084 
264.135437 1.663093 
264.171448 0.052902 
264.633392 0.044737 
265.016602 0.040805 
265.083466 0.079627 
266.151001 12.745975 
267.114746 0.064112 
267.154358 0.567124 
273.17218 0.060316 
275.989471 0.043852 
276.043365 0.048576 
276.899139 0.048567 
277.098206 0.220701 
278.093262 0.284192 
278.151154 1.398563 
279.078339 0.104724 
279.0979 0.061835 
279.113861 11.174124 
279.86908 0.051172 
280.118042 0.455335 
280.166565 59.019852 
281.17038 5.888926 
281.645203 0.049803 
282.088501 0.484909 
283.072937 0.115841 
284.104767 0.088538 
284.16153 2.221376 
284.800812 0.037573 
285.137329 0.106785 
285.163635 0.045623 
288.171692 1.02282 
289.085785 0.466034 
289.10675 0.348776 
290.282013 0.05165 
292.109253 2.505274 
292.12973 1.056863 
293.080048 0.585354 
294.087952 0.493017 
294.145966 1.882834 
297.638641 0.048866 
298.177032 0.882379 
304.127899 0.988451 
304.202972 3.478747 
305.093414 0.667001 
305.200165 0.058126 
306.086792 0.051148 
306.125244 0.290121 
308.06781 0.746177 
308.10379 0.140922 
309.075348 0.061873 
309.193909 0.096854 
310.120361 0.585697 
311.104034 0.108252 
314.096405 0.061549 
314.853821 0.052957 
318.169556 2.53591 
319.109467 0.307103 
320.068024 0.072868 
320.103912 4.229235 
321.111206 5.518829 
322.084778 0.462364 
322.119537 18.174227 
323.123627 2.336482 
323.207855 0.051404 
324.098602 0.199781 
324.136414 0.046712 
328.130188 0.238869 
330.088318 0.520147 
331.177795 4.699544 
332.064117 0.052997 
332.104126 0.295789 
332.140259 4.988746 
332.161621 13.597532 
332.180359 0.337979 
333.124207 0.049882 
333.144958 0.139202 
333.165039 1.025929 
334.119843 1.068984 
335.124573 0.104472 
335.172882 0.604794 
336.100586 5.678121 
336.180115 0.163144 
337.097839 0.165611 
338.114624 0.905529 
344.102692 0.060802 
344.140381 0.115469 
345.099274 0.790136 
345.19342 0.141296 
346.106598 9.121988 
347.114807 28.926933 
347.136993 0.193275 
348.09845 3.616929 
348.1185 3.144448 
348.137939 1.162947 
349.105774 0.926386 
349.142639 0.862859 
349.188202 9.016213 
350.114227 2.393377 
350.151459 0.342941 
350.190948 0.398176 
352.093933 1.21144 
353.256012 0.367915 
357.734589 0.049739 
358.120117 1.203635 
359.115997 0.07956 
360.098236 0.49416 
360.171753 1.376976 
361.106689 0.073105 
361.130859 1.433372 
361.22467 10.615481 
362.114105 0.948724 
362.151672 1.109935 
362.22818 1.160871 
363.110291 3.631761 
363.205627 0.051214 
364.094238 0.121151 
364.11734 9.223478 
365.125366 38.752903 
366.107605 9.421849 
366.129761 3.766753 
367.115204 1.122685 
369.136475 0.057474 
372.134277 0.052488 
374.151245 2.873425 
375.110107 0.948701 
375.14447 0.799606 
375.166565 1.676993 
376.131348 16.853918 
376.168335 0.085977 
377.131531 3.872847 
377.160706 0.096484 
377.21698 0.061762 
378.133057 0.245805 
378.190155 0.400037 
379.235107 23.275238 
380.237579 3.362948 
381.132996 0.76866 
385.130798 5.064985 
386.135956 0.994528 
387.14621 31.033796 
388.126434 0.495227 
388.152222 4.741109 
389.128296 0.293255 
389.161621 1.752315 
390.144775 0.049668 
391.141663 2.590837 
392.14624 0.041564 
395.589905 0.056027 
397.245422 1.214418 
399.107086 0.0587 
399.146362 0.168933 
401.125397 0.424015 
401.160553 0.149184 
402.0979 0.178911 
402.182556 5.354685 
403.105988 1.557979 
403.140686 9.840353 
403.17865 3.433069 
404.114594 0.340043 
404.14859 9.061381 
404.181824 0.251174 
405.123047 1.070944 
405.156128 13.424811 
405.214508 3.190623 
406.128235 0.047526 
406.161377 2.928309 
411.13385 0.309754 
413.12561 0.270711 
414.109741 0.355102 
416.150391 0.064121 
417.122467 0.122522 
417.156921 1.175838 
418.162079 0.045334 
419.134888 0.111104 
419.171387 0.131146 
420.134735 0.071556 
420.179474 0.504658 
421.152618 0.383091 
421.187408 0.496912 
423.22522 0.841119 
428.132233 0.059842 
429.116333 0.799271 
429.146362 5.972289 
430.126129 2.295412 
430.1539 0.749441 
430.186157 0.108112 
431.135925 73.657616 
431.207397 0.518252 
432.139771 14.280979 
432.170685 0.180055 
433.144653 0.679751 
435.248505 0.222172 
436.257751 0.537273 
436.292328 2.082698 
442.155182 0.569406 
442.187744 7.706626 
443.209076 1.072522 
444.167206 0.071252 
446.172516 0.492627 
447.167999 0.834573 
447.202942 0.586846 
448.162842 5.076485 
449.148407 0.046795 
456.169983 0.052628 
457.181671 0.122858 
458.147827 0.049312 
458.183594 3.01391 
459.200897 0.389204 
460.162781 2.979868 
460.200012 1.662166 
461.166931 0.070566 
462.271729 4.05046 
463.273865 0.127463 
468.203888 3.70323 
468.86734 0.04809 
469.188141 2.91111 
470.188049 0.660438 
471.199615 0.148231 
474.178528 8.297894 
475.185211 6.93319 
476.191711 1.538444 
480.282288 0.649701 
480.77066 0.046949 
481.83551 0.040392 
484.163635 0.219474 
484.199127 5.115633 
485.205475 3.137861 
485.569611 0.065052 
486.21463 77.671471 
487.218781 16.083488 
488.19339 16.292433 
489.19754 3.543884 
495.227112 0.053302 
497.220032 0.074599 
501.163757 0.048701 
501.201111 0.071499 
502.172729 2.203721 
502.209534 21.356405 
503.216583 13.973134 
504.221924 3.196858 
506.259949 0.05547 
510.250824 0.854372 
512.193848 5.740767 
513.18573 0.298801 
514.174683 0.062679 
514.2099 0.113063 
515.229675 2.780074 
516.230225 0.245216 
518.241882 0.058978 
526.208801 0.105931 
527.242126 0.817736 
528.189087 1.010495 
528.260315 0.982767 
529.195374 1.246268 
529.242859 0.87765 
529.921997 0.057244 
530.160583 0.065786 
530.204346 18.440863 
531.207642 4.198035 
532.216125 0.259828 
544.214111 1.023938 
544.256653 18.713959 
545.217468 0.050873 
545.259705 4.461263 
546.272156 0.119209 
548.216797 0.063478 
554.240784 6.088925 
555.242004 1.546774 
557.227112 3.006448 
558.231018 0.371254 
559.229614 0.104729 
561.242371 0.046711 
564.773193 0.050105 
571.230713 2.168494 
572.251404 100.0 
573.254517 27.65427 
574.256836 3.199338 
574.884399 0.064814 
575.262207 0.645089 
579.224854 0.048192 
581.258667 0.060869 
583.274109 0.068028 
587.264954 0.047974 
589.279358 4.512744 
590.282227 0.897727 
597.247437 0.807326 
598.257263 0.056138 
599.265991 9.17399 
600.269531 3.930924 
601.278687 0.466015 
609.246277 0.661678 
610.242126 0.258433 
611.261658 0.054901 
613.283081 0.255927 
615.256775 10.414894 
616.26355 6.272793 
617.268738 0.599147 
627.256958 2.467694 
628.255798 1.059199 
629.265808 0.584014 
632.291748 0.046204 
633.269653 0.156684 
634.275208 0.52938 
636.290527 0.113408 
637.280762 0.262529 
638.272217 0.556859 
639.268555 0.050015 
640.2547 0.064942 
641.260193 0.21837 
642.267029 0.612355 
643.277283 4.544749 
644.281128 1.042949 
645.269226 0.235479 
646.26593 0.04804 
647.837585 0.052714 
652.289856 2.101958 
653.283569 0.919329 
654.307434 16.134678 
655.305115 5.789938 
656.28772 3.271298 
657.28772 0.360757 
658.299866 3.069556 
659.306885 0.197933 
668.285583 1.287554 
669.252869 1.426043 
670.303955 20.798964 
671.308289 14.503844 
672.316101 12.045472 
673.260315 0.073003 
673.318542 2.989199 
680.284668 4.941496 
681.269348 6.732703 
682.269836 2.669692 
683.278381 0.275669 
684.281006 0.103153 
684.354553 0.192924 
686.345886 0.049909 
687.269836 0.472472 
687.340881 0.996921 
695.274109 0.048192 
696.281067 4.716813 
697.287109 5.058226 
698.294617 54.15591 
699.297485 17.493446 
700.298401 3.627606 
701.299011 0.191253 
702.364136 27.721622 
703.368652 10.377884 
704.370972 0.442873 
709.301086 0.064656 
709.467957 0.055627 
709.577942 0.047033 
709.648926 0.133809 
709.705811 0.055604 
714.295837 0.556666 
715.298096 1.071837 
716.305603 7.024074 
717.30896 1.584554 
723.32843 0.148884 
724.272705 0.06284 
725.363464 0.264415 
726.364441 0.089871 
727.321655 0.244994 
728.335205 5.011509 
729.340759 3.286301 
730.341797 0.230975 
736.351685 0.127993 
741.339661 2.791372 
742.345398 3.559823 
743.351624 0.394947 
746.353088 2.938913 
747.358276 1.524045 
753.299438 0.535756 
755.35437 0.404875 
756.362183 8.108077 
757.367249 4.310238 
758.371338 0.483014 
765.14856 0.046164 
767.240417 0.051834 
767.317444 2.35938 
767.389221 0.557799 
768.377808 3.513433 
769.37384 12.200648 
770.374573 4.42864 
771.376892 0.069456 
777.837708 0.054589 
779.36377 0.049622 
780.353821 0.069859 
780.699402 0.044122 
782.352234 0.048012 
783.38916 5.869754 
784.393921 23.368902 
785.400879 52.084949 
786.405212 17.083807 
787.405823 0.990486 
793.37207 0.060213 
794.350525 0.067139 
797.362793 0.057266 
798.361328 0.05632 
799.355774 0.04879 
800.216431 0.046297 
800.353943 0.901186 
801.356628 0.18402 
805.222839 0.053385 
810.369019 0.054677 
811.379333 3.181627 
812.371582 2.098361 
813.365845 0.790869 
814.37677 0.125659 
822.395752 0.064113 
827.373718 0.154325 
828.38208 2.473144 
829.388733 4.977027 
830.393738 1.176249 
840.406189 0.975886 
854.418884 1.042265 
855.425598 0.730411 
864.371826 0.185539 
866.385925 0.441722 
880.402344 0.129239 
884.396118 1.67921 
885.406128 0.133711 
898.411865 1.106251 
899.414307 0.613472 
907.582214 0.044481 
914.872437 0.053335 
920.42041 0.059799 
921.390076 0.044883 
922.737183 0.047585 
948.429993 0.082762 
951.472107 0.077776 
963.45282 0.04973 
965.449097 0.128726 
966.441711 0.282913 
984.418518 0.060605 
986.265259 0.049084 
991.437012 0.279967 
999.412842 0.071532 
1031.801025 0.049667 
1034.47522 0.26803 
1035.492676 0.045687 
1050.505005 0.053556 
1052.480835 0.065957 
1064.64624 0.051871 
1078.539185 0.135763 
1079.53418 0.15691 
1121.58606 0.064974 
1140.947754 0.059897 
1149.256836 0.061843 
1196.078003 0.050771 
1253.537109 0.055682 
1285.996216 0.053717 
1289.535889 0.056265 
1299.807861 0.063443 
END IONS

