BEGIN IONS
PEPMASS=269.046
CHARGE=1+
COMPOUNDNAME=Emodin
LIBRARYQUALITY=3
SMILES=N/A
INCHIKEY=RHMXXJGYXNZAPX-UHFFFAOYSA-N
INCHI=InChI=1S/C15H10O5/c1-6-2-8-12(10(17)3-6)15(20)13-9(14(8)19)4-7(16)5-11(13)18/h2-5,16-18H,1H3
MSLEVEL=2
SOURCE_INSTRUMENT=N/A-ESI-QFT
FILENAME=library_mgf.mgf
SEQ=*..*
IONMODE=negative
ORGANISM=MONA
NAME=Emodin [M-H]-
PI=MoNA
DATACOLLECTOR=MoNA:VF-NPL-QEHF011214
PUBMED=N/A
SUBMITUSER=mwang87
TAGS=
SPECTRUMID=CCMSLIB00004702277
SCANS=11214
50.350166 0.064678 
50.738899 0.057977 
53.326817 0.061018 
53.634708 0.064119 
54.263977 0.061005 
54.431702 0.058852 
57.883347 0.054878 
58.062927 0.060902 
58.488094 0.056518 
61.061844 0.053844 
61.709698 0.05716 
62.892933 0.053854 
63.468113 0.062065 
63.784386 0.063248 
66.071182 0.056348 
68.121704 0.068855 
69.029488 0.055979 
69.349609 0.056872 
71.525948 0.05475 
72.330925 0.062168 
72.729622 0.067815 
76.350983 0.06399 
77.23204 0.0628 
77.409477 0.05981 
78.333199 0.070059 
81.66404 0.063721 
82.379807 0.066799 
84.873604 0.074646 
85.027557 0.069111 
85.19162 0.059525 
89.021477 0.055489 
89.25219 0.074721 
89.614212 0.062823 
92.147934 0.061462 
93.560272 0.062487 
97.834961 0.058015 
97.956696 0.057293 
98.817734 0.062118 
100.69352 0.063206 
101.19503 0.061198 
105.033279 2.053576 
106.993156 0.056955 
110.383614 0.063586 
113.549324 0.065557 
115.053932 0.062069 
119.696701 0.060471 
121.779221 0.060162 
123.175034 0.075141 
131.045639 0.05644 
133.028305 0.352554 
134.333603 0.071999 
136.774612 0.069039 
139.054138 0.454119 
139.360474 0.060497 
139.904999 0.066062 
141.069794 0.07269 
141.218536 0.058842 
141.764832 0.069408 
148.733246 0.062596 
151.085556 0.067957 
151.94278 0.077262 
152.062012 0.858513 
153.06987 3.088212 
153.749252 0.071376 
154.041412 0.211595 
154.450104 0.068042 
157.064713 1.502938 
158.196579 0.062009 
159.735611 0.062657 
162.810501 0.061134 
163.117645 0.064959 
165.019958 0.066207 
165.104156 0.063188 
167.323517 0.058944 
168.057053 0.144278 
169.064728 3.194694 
171.044159 3.824416 
172.047424 0.153962 
173.060013 0.175231 
174.993317 0.071067 
179.04924 2.303017 
179.852219 0.062034 
180.057144 9.337385 
181.065063 16.361553 
181.073547 0.102695 
181.418991 0.061477 
182.036331 11.656854 
182.068329 2.090611 
182.204697 0.062441 
183.039413 0.634482 
185.059799 6.930499 
186.063141 0.746393 
187.12439 0.064532 
194.98703 0.072296 
195.044189 2.530394 
196.05217 4.830872 
197.059952 22.870485 
198.06337 2.786158 
199.039322 1.248679 
201.054962 0.411616 
201.394211 0.054662 
203.070602 0.137645 
207.044281 3.212157 
208.048492 0.18433 
209.942947 0.067698 
210.03154 14.260363 
211.034973 1.761416 
212.047333 0.082594 
212.845642 0.059057 
213.055054 8.982211 
213.995193 0.060684 
214.058441 0.869711 
216.812912 0.06287 
219.897766 0.481316 
219.909958 0.231994 
220.857391 0.072556 
223.039398 0.610339 
224.047379 12.608195 
225.055161 100.0 
226.026382 0.064454 
226.058411 14.292754 
227.034348 9.337058 
227.060623 0.070812 
228.038071 0.930444 
229.196182 0.078181 
240.042389 7.300957 
240.606766 0.056966 
241.029922 0.087057 
241.050354 38.794022 
242.053741 5.461073 
245.800812 0.072529 
255.329483 0.068794 
261.613983 0.068762 
261.973999 0.069024 
269.045502 49.779251 
270.048828 7.726764 
271.389343 0.070264 
273.166809 0.069047 
END IONS

