BEGIN IONS
PEPMASS=423.0
CHARGE=1+
COMPOUNDNAME=Massbank:KO008876 Blasticidin S
LIBRARYQUALITY=3
SMILES=NC(=N)N(C)CC[C@@H](N)CC(=O)N[C@@H](C=2)[C@@H](C(O)=O)O[C@H](C2)N(C=1)C(=O)N=C(N)C1
INCHIKEY=CXNPLSGKWMLZPZ-QOBDMFJFSA-N
INCHI=1S/C17H26N8O5/c1-24(16(20)21)6-4-9(18)8-12(26)22-10-2-3-13(30-14(10)15(27)28)25-7-5-11(19)23-17(25)29/h2-3,5,7,9-10,13-14H,4,6,8,18H2,1H3,(H3,20,21)(H,22,26)(H,27,28)(H2,19,23,29)
MSLEVEL=2
SOURCE_INSTRUMENT=ESI-LC-ESI-IT
FILENAME=Massbank_ESI_positive_8_1_2014_peaks.mgf
SEQ=*..*
IONMODE=Positive
ORGANISM=MASSBANK
NAME=Massbank:KO008876 Blasticidin S [M+H]+
PI=Putative Massbank Match
DATACOLLECTOR=Massbank
PUBMED=N/A
SUBMITUSER=mwang87
TAGS=
SPECTRUMID=CCMSLIB00000221134
SCANS=10097
112.1 51.25 
122.1 49.08 
124.0 3206.97 
127.1 754.22 
128.0 267.53 
129.1 1758.2 
129.9 28.89 
134.1 52.55 
137.0 132.42 
139.0 778.81 
141.1 153.47 
141.8 123.74 
146.0 46.6 
148.1 57.22 
150.1 170.66 
153.2 156.25 
154.1 25413.53 
159.0 27.49 
160.0 473.26 
161.1 55.38 
167.0 91.04 
170.2 62.09 
171.1 19110.48 
172.1 4510.76 
176.0 10.92 
177.1 297.0 
178.0 247.1 
183.0 19.79 
188.1 724.61 
189.1 5617.07 
191.1 329.62 
192.1 79.19 
195.0 158.76 
197.0 70.17 
198.1 160.92 
204.0 188.67 
207.0 19.03 
208.0 42.87 
210.0 757.49 
220.0 89.47 
221.1 729.12 
222.0 20625.06 
226.8 11.43 
228.1 8.87 
231.9 64.33 
233.1 1872.81 
235.0 256.59 
238.1 1122.28 
240.0 47.57 
250.1 885.27 
251.1 4103.76 
253.0 1142.21 
264.0 66.71 
266.2 33.19 
268.1 5473.98 
277.0 2028.09 
277.9 29.06 
281.1 95.19 
294.2 2412.42 
295.1 77682.95 
295.8 9.65 
311.3 1371.31 
312.1 328563.62 
312.8 358.94 
313.9 23.11 
315.4 14.25 
317.1 17.7 
320.1 85.27 
332.0 888.67 
346.1 68.92 
349.2 1568.62 
350.1 27.54 
361.0 44.71 
363.1 123.95 
364.0 812.58 
379.2 186.35 
380.2 35.6 
405.1 307.59 
406.0 12779.9 
423.0 282.15 
429.8 17.49 
445.0 12.73 
469.8 8.11 
END IONS

