BEGIN IONS
PEPMASS=424.221
CHARGE=1+
COMPOUNDNAME=ACTINONIN
LIBRARYQUALITY=3
SMILES=N/A
INCHIKEY=XJLATMLVMSFZBN-VYDXJSESSA-N
INCHI=InChI=1S/C19H35N3O5/c1-4-5-6-8-14(11-16(24)21-27)18(25)20-17(13(2)3)19(26)22-10-7-9-15(22)12-23/h13-15,17,23,27H,4-12H2,1-3H3,(H,20,25)(H,21,24)/t14-,15+,17+/m1/s1
MSLEVEL=2
SOURCE_INSTRUMENT=N/A-ESI-QFT
FILENAME=library_mgf.mgf
SEQ=*..*
IONMODE=positive
ORGANISM=MONA
NAME=ACTINONIN [M+K]+
PI=MoNA
DATACOLLECTOR=MoNA:VF-NPL-QEHF027313
PUBMED=N/A
SUBMITUSER=mwang87
TAGS=
SPECTRUMID=CCMSLIB00004720894
SCANS=27313
50.146336 0.113294 
50.575024 0.148854 
50.946487 0.147988 
51.342899 0.154638 
52.187012 0.106222 
52.502281 0.155587 
52.541969 0.146567 
52.736813 0.155983 
52.987637 0.233621 
53.869755 0.210939 
54.69986 0.170361 
54.806583 0.161931 
55.118961 0.160019 
55.448269 0.185423 
56.965054 7.921905 
57.070137 9.123479 
57.319263 0.145409 
57.821293 0.153218 
58.065338 1.771179 
58.753624 0.207883 
59.824043 0.129122 
59.963573 0.160005 
60.048973 0.11532 
60.088737 0.160114 
61.660587 0.195249 
61.830242 0.19 
62.018639 0.455201 
62.16312 0.167879 
62.342926 0.164069 
62.395294 0.123609 
63.278572 0.183791 
63.304001 0.217475 
63.365543 0.185447 
65.27713 0.149436 
65.957733 0.119551 
65.962296 0.103356 
66.880516 0.186243 
66.92244 0.120901 
67.054337 1.958251 
67.231827 0.154434 
67.273026 0.162724 
68.049713 0.203566 
68.978996 0.108214 
69.069931 0.415466 
69.912666 0.128798 
70.316612 0.202578 
70.36087 0.172247 
70.607353 0.161771 
71.085556 6.199581 
71.325668 0.180354 
71.538986 0.23879 
72.080826 0.62213 
72.808968 0.155409 
73.023277 0.111284 
73.118515 0.139419 
74.763107 0.21831 
74.975861 0.223055 
78.90683 0.137169 
78.979034 0.227134 
79.436401 0.20153 
79.48317 0.170468 
79.997398 0.159549 
80.06424 0.22124 
81.069878 0.172924 
81.814972 0.16298 
82.062637 0.166271 
83.085518 0.165117 
84.080734 6.57199 
84.840065 0.144223 
85.064713 0.169251 
85.10112 3.280066 
85.991379 0.17207 
87.044006 1.939541 
89.059647 21.512056 
89.06366 0.210136 
89.225655 0.16811 
89.254356 0.169411 
91.256401 0.118799 
91.700241 0.125368 
91.821098 0.128853 
92.18203 0.222135 
94.232895 0.140071 
94.491852 0.15851 
94.671204 0.222258 
94.842674 0.181513 
95.085602 0.922276 
95.273544 0.173691 
96.030128 0.201633 
96.802048 0.138917 
97.347328 0.150627 
97.451347 0.132556 
97.721725 0.137428 
98.654449 0.161501 
98.671097 0.157374 
99.209976 0.24406 
99.799377 0.175376 
100.629951 0.183599 
100.820724 0.180602 
101.413383 0.228974 
102.091293 1.21555 
102.25869 0.165197 
103.968384 0.163301 
104.962425 0.129034 
106.182381 0.259688 
109.101051 0.837051 
111.357742 0.168151 
111.790756 0.133587 
111.806007 0.230227 
112.075584 9.132592 
113.260971 0.183773 
113.629288 0.131019 
114.091286 2.930462 
115.078407 0.255304 
115.517723 0.203946 
116.963745 0.17344 
117.108612 0.216232 
118.756065 0.128076 
119.416656 0.17262 
119.878487 0.199133 
119.941933 0.201203 
122.872185 0.116634 
123.041504 0.513589 
125.296761 0.149996 
126.02272 0.163361 
126.199844 0.158271 
129.215179 0.137866 
130.084122 0.171532 
130.445709 0.161963 
130.824051 0.143666 
130.978683 0.183618 
131.655396 0.210834 
131.746414 0.110369 
131.898331 0.161986 
131.953583 0.137553 
133.085892 5.488994 
134.032486 0.217558 
134.863708 0.187225 
135.696075 0.216051 
137.13765 0.145955 
138.022568 6.389535 
138.127487 0.164794 
138.781601 0.181049 
140.038361 0.655757 
141.363968 0.127952 
144.033218 0.15389 
145.634583 0.109264 
145.90799 0.157966 
146.549911 0.154301 
146.974365 2.833103 
147.335083 0.221757 
149.279129 0.156326 
149.518326 0.249203 
153.460495 0.166613 
154.017471 2.302049 
154.681091 0.202238 
156.033035 36.810505 
156.342651 0.226052 
156.564545 0.156584 
157.036621 0.483162 
158.011353 0.152339 
158.048752 36.910309 
158.678528 0.180083 
159.052078 0.377297 
159.904938 0.156752 
160.672531 0.23279 
160.989914 8.959559 
161.726944 0.134271 
165.589096 0.168345 
166.017639 1.033216 
168.033035 5.718804 
169.096909 1.373558 
170.689896 0.198067 
172.027802 5.140426 
172.990021 1.094202 
174.043655 33.932289 
175.027863 0.647061 
175.04686 0.3531 
176.022675 0.232419 
176.059341 33.921978 
176.96701 1.739528 
177.063293 0.286556 
177.11348 0.132552 
178.064423 0.135322 
180.021881 0.134239 
181.028137 1.074429 
182.443909 0.12357 
183.044083 2.188184 
183.140366 0.158125 
183.149231 4.508509 
184.02803 12.529379 
186.043594 11.250141 
186.080002 1.350822 
191.000305 9.43758 
191.487396 0.182247 
191.990173 0.282762 
192.054153 1.952374 
192.96196 0.193999 
193.038147 0.164729 
193.082245 0.171464 
194.069717 0.596366 
194.107742 0.170562 
195.896759 0.161704 
196.738068 0.268111 
197.096268 0.956649 
198.080032 3.508464 
199.029999 0.134959 
199.038773 7.218723 
199.157654 0.192819 
200.058517 0.233049 
201.054337 4.980294 
202.038391 14.312367 
202.729004 0.192711 
204.054214 5.947968 
204.090866 0.389052 
204.961441 0.14537 
206.342773 0.163677 
207.07991 0.233563 
208.064255 0.396271 
208.229111 0.18981 
208.893097 0.133901 
210.079956 3.559442 
212.095779 0.914446 
213.05397 0.177427 
213.077255 0.227709 
213.596924 7.445591 
213.607513 5.024261 
213.615677 5.608276 
213.923141 0.263855 
215.106583 4.243537 
216.090576 15.726826 
216.775208 0.161732 
217.049377 0.759323 
217.093552 0.200134 
218.031708 0.106513 
219.065262 0.347562 
219.173965 0.599393 
219.296295 0.217439 
219.678024 0.128146 
220.049286 0.39154 
221.285065 0.154921 
222.080002 6.026682 
223.07486 1.400869 
223.114212 0.137193 
223.142365 0.498731 
223.817825 0.284479 
224.095871 4.686131 
225.066833 0.160286 
225.09079 3.79513 
225.475327 0.158428 
226.074875 8.11063 
226.663315 0.22712 
227.033844 0.160029 
227.105957 0.25943 
228.090454 12.627597 
230.106277 6.63702 
232.145386 0.158763 
234.101105 3.30624 
234.985886 0.154363 
235.059891 0.915977 
235.942276 0.173382 
236.212952 0.193147 
239.105835 1.840671 
239.116425 0.306584 
239.778824 0.184211 
240.090546 75.03759 
241.084473 17.134462 
242.069733 1.437505 
242.09108 0.198993 
242.106201 53.25259 
242.582642 0.216681 
243.100632 16.838188 
244.085403 7.802878 
244.104401 0.334849 
246.101593 0.643533 
246.948608 0.235873 
248.116486 0.348881 
250.894394 0.276151 
251.142868 0.236185 
252.126785 4.931127 
253.086273 0.206663 
253.478638 0.1229 
253.520233 0.186187 
255.077805 0.247456 
255.101212 3.80363 
255.231232 0.905503 
255.848953 0.205874 
256.121155 0.164513 
257.117126 13.516323 
258.101105 58.363617 
259.09613 100.0 
260.081635 1.480943 
260.100342 8.290908 
260.116516 45.700413 
261.111633 3.335531 
265.085999 0.809018 
267.101532 9.942564 
267.137848 9.660543 
268.077637 0.197424 
268.103943 0.178744 
268.121094 0.184503 
268.994476 0.131069 
269.153412 1.511687 
270.13736 19.919071 
271.095947 0.407294 
271.140259 0.627633 
272.153076 0.800558 
272.898682 1.701042 
273.111969 1.682178 
274.893707 29.649342 
275.126984 0.796524 
275.900238 1.728279 
276.111328 0.95081 
276.127472 0.222391 
277.106934 84.655487 
278.110199 5.99295 
278.127045 1.262103 
279.137726 22.74325 
280.122589 0.616491 
280.140869 1.004732 
281.153412 3.091705 
281.911255 0.360684 
282.112793 0.202727 
282.137512 2.29921 
283.096344 13.989222 
284.099548 0.226814 
284.15271 0.194812 
284.960632 4.670425 
285.111816 5.896032 
285.148529 3.803657 
285.173248 0.412836 
285.962219 0.226927 
286.959625 1.979135 
287.024689 0.218331 
288.147766 3.856838 
288.909241 0.963344 
288.929657 0.240679 
290.117096 1.375952 
290.92514 14.139972 
291.121674 0.417193 
291.138428 0.17758 
292.131378 0.22545 
293.116608 1.973264 
293.153625 0.347108 
293.932037 0.136741 
294.136505 1.387819 
295.096863 0.236202 
295.114502 0.182496 
295.132599 3.256335 
296.136292 0.174336 
297.12735 0.50347 
297.148132 36.588326 
298.13266 1.466411 
298.151337 2.815927 
299.067749 0.181966 
299.163818 1.953587 
300.148376 0.710879 
301.106812 18.137377 
301.939117 0.426545 
302.109558 0.365462 
302.924957 1.740505 
302.97113 3.432079 
304.924133 0.436178 
304.970062 1.569335 
306.096222 0.149445 
306.147949 0.597066 
306.919312 11.241063 
307.132141 2.272011 
307.171326 0.181442 
309.148102 2.098132 
310.123901 0.138276 
310.143066 7.056266 
311.12738 6.730611 
311.145477 0.228765 
311.164459 0.357059 
313.142853 20.364788 
314.146362 0.488394 
314.909302 1.610362 
315.15863 8.876787 
316.162933 0.152719 
316.904236 35.452328 
317.905792 1.950635 
319.11731 0.308606 
319.168854 0.269921 
319.834839 0.400766 
320.935242 0.32282 
321.184357 13.309686 
322.188202 0.16766 
322.309418 1.674027 
323.126831 0.196311 
323.920349 0.165755 
324.134705 0.832472 
324.158875 0.753607 
324.185211 0.170806 
324.93045 0.407418 
325.142334 5.135804 
327.157745 0.217881 
328.153229 1.454203 
331.153137 17.950333 
332.155731 0.303049 
333.184631 34.280907 
333.732513 0.212151 
334.106659 2.456818 
334.187927 3.805748 
334.9151 2.204553 
335.917297 0.151897 
336.836853 0.406076 
337.848572 0.140598 
339.19516 8.446789 
340.153687 1.065073 
341.137878 7.95737 
342.142395 0.295852 
343.152283 0.562433 
345.184326 2.414484 
346.184814 0.189772 
346.95224 0.18651 
347.186584 0.170299 
347.972473 0.197714 
348.193817 0.198538 
349.179901 1.082202 
350.210297 0.625211 
350.574127 0.193227 
351.194977 92.36158 
351.950928 0.174102 
352.1539 0.653155 
352.198669 15.282868 
353.209686 0.424562 
358.115479 0.196648 
358.180908 1.608012 
360.195129 1.783293 
360.838379 0.311328 
362.210846 9.925085 
363.194824 38.374107 
363.218475 1.403392 
363.839569 0.171629 
364.098541 0.271416 
364.198242 6.08454 
364.961578 11.809866 
365.192505 0.381556 
366.205566 1.487548 
368.110565 0.218667 
369.205688 16.405251 
369.835083 0.222107 
370.208862 1.522479 
376.19043 29.32564 
377.193604 4.161535 
378.183777 0.264394 
378.203918 0.180934 
379.188507 0.253369 
379.543365 0.199483 
380.221436 12.474772 
381.16861 0.160921 
381.205475 65.071854 
382.209015 12.369127 
388.190826 1.068324 
391.192993 4.29539 
394.201202 23.322264 
395.001495 0.189469 
395.204315 2.12891 
397.17688 0.147783 
397.837036 0.182167 
399.216675 1.474373 
401.216278 0.184894 
405.13324 0.482357 
406.201538 14.698042 
406.231018 4.704332 
407.149017 1.811956 
407.201691 0.247642 
408.23465 0.671032 
409.201263 2.303917 
409.236359 0.348458 
412.211151 2.115172 
422.260681 6.72385 
423.220215 34.47673 
423.264252 1.893806 
424.187347 0.216557 
424.218231 72.433716 
424.268738 0.127025 
424.487091 10.282798 
425.173248 0.644508 
425.195221 2.521189 
425.221069 14.331132 
425.287628 6.830651 
425.325348 5.212412 
425.359344 49.804764 
425.48996 0.894988 
426.220917 0.677362 
426.362793 5.458307 
435.787384 0.140721 
438.631989 0.197702 
442.221985 3.60711 
END IONS

