BEGIN IONS
TITLE=Scan Number: 2289
PEPMASS=425.19199
CHARGE=1+
COMPOUNDNAME=Citreoviridin putative annotated in Paecelomyces
LIBRARYQUALITY=3
SMILES=O=C1C=C(OC)C(C)=C(/C=C/C=C/C=C/C(C)=C/[C@]2(C)[C@H](O)[C@](O)(C)[C@@H](C)O2)O1
INCHIKEY=JLSVDPQAIKFBTO-CFEYTUSBSA-N
INCHI=
MSLEVEL=2
SOURCE_INSTRUMENT=LC-ESI-Orbitrap
FILENAME=f.MSV000081463/ccms_peak/mzML Positive/J_Fungal_mycelia_1_week_F2.mzML;
SEQ=*..*
NOTES=
IONMODE=Positive
ORGANISM=GNPS-LIBRARY
NAME=Citreoviridin putative annotated in Paecelomyces M+Na
SPECTRUMID=CCMSLIB00005435761
ACTIVATION=CID
INSTRUMENT=ion trap
SCANS=2289
70.065483 70227.5 
71.049408 1084.247192 
71.068939 1228.852783 
71.073639 820.896118 
72.04496 806.057434 
72.081139 14015.411133 
73.028648 1302.585571 
74.060265 1195.189941 
81.033737 8602.376953 
81.069977 1243.150269 
83.049149 805.401794 
83.060394 2076.544189 
84.040237 860.783264 
84.044601 9352.327148 
84.076851 1022.187317 
84.081001 21633.970703 
85.028473 7219.318848 
85.084099 1289.164917 
86.060196 942.770264 
86.096581 38209.53125 
87.031609 1014.812988 
87.055389 1273.376343 
87.099724 1736.532227 
88.03933 1098.596436 
90.984848 964.871399 
91.054276 31091.822266 
95.049225 1117.660278 
96.044518 6164.978027 
97.028572 6702.350586 
97.490364 876.04248 
98.06012 1602.803589 
99.043915 3812.604004 
102.054955 3887.532715 
102.091125 1558.644775 
103.05407 4345.186035 
104.052765 1442.400513 
105.069939 12432.664062 
110.07135 15952.733398 
111.074471 974.61676 
112.039192 5070.164062 
112.075874 1477.457642 
112.08667 1459.619141 
114.055115 20906.496094 
115.054306 1281.680298 
115.086113 1907.139526 
116.070656 88727.710938 
117.070183 2038.53833 
118.065018 1662.929688 
119.072914 1872.386963 
120.080872 86378.257812 
121.064903 1081.471924 
121.083801 1985.709229 
123.116676 1233.479858 
124.469284 761.811829 
125.418007 811.022339 
126.054993 2099.733887 
127.039116 2023.362305 
127.086052 929.196777 
128.061707 3206.953125 
128.070496 8154.118164 
128.106537 1525.948853 
129.069809 7821.277832 
129.102386 11940.887695 
130.065308 18421.023438 
130.086075 1270.151367 
131.049042 4534.916504 
132.071976 1110.698242 
132.080933 21714.396484 
133.064087 1432.729004 
134.096146 5618.450684 
135.092163 755.899719 
136.07579 9020.402344 
137.080399 886.071838 
138.054703 4997.260742 
142.049683 936.371094 
143.085693 19829.052734 
144.080872 13334.020508 
145.049149 975.5177 
146.096268 1244.26001 
150.056244 1069.323364 
153.069839 7523.651855 
155.08493 1505.129639 
156.080856 8653.723633 
158.096451 1591.722046 
160.075302 1384.681763 
162.091553 11185.483398 
163.039474 7468.456055 
165.101807 1134.802368 
166.085831 1733.406006 
168.080811 4674.313477 
169.133377 1122.4021 
170.095016 1003.704956 
171.080536 36664.058594 
173.128662 934.853271 
174.09108 3241.159668 
179.483368 934.940979 
182.096298 1941.479126 
183.149292 12299.948242 
183.651047 3832.899658 
184.075821 1387.895752 
186.09137 5152.842773 
192.756134 974.345703 
194.081146 10752.405273 
196.097092 894.267883 
197.128326 3700.418701 
198.091583 68130.078125 
200.10675 5500.025879 
201.123245 1300.083862 
202.086685 10652.998047 
202.123978 1022.253967 
204.101501 3553.057373 
205.966125 1181.219238 
210.091812 9680.771484 
211.143951 6500.741211 
212.106766 1148.798462 
213.123428 10012.075195 
214.822891 993.493469 
215.138672 3552.765625 
216.101608 3216.038086 
218.118378 1269.929321 
223.105042 1092.047729 
223.155609 1027.222412 
224.092758 1057.13501 
224.66008 910.345581 
226.086044 1421.045532 
228.102173 19105.957031 
229.109726 5264.813965 
230.117645 4849.105957 
234.403778 808.057861 
234.968689 4300.362305 
235.97583 1497.785034 
242.102341 13105.216797 
244.096863 27860.955078 
246.112564 25794.470703 
247.121017 6356.949707 
248.12648 1069.343506 
251.971481 1122.43689 
252.979248 5312.978027 
253.165146 989.282593 
260.110962 1069.561646 
263.138916 45665.453125 
264.122894 87881.140625 
274.106567 1025.49707 
275.140106 1439.422485 
275.972229 7667.861328 
276.133301 3777.552002 
276.978729 1008.62207 
278.114929 1005.354248 
282.134949 1516.372681 
292.117371 4359.030273 
292.203491 2651.314209 
292.703583 1887.120483 
293.114685 1293.459229 
295.143097 1853.953613 
310.210205 3633.057373 
328.194427 6543.577637 
328.697815 2580.430176 
329.19397 1074.927612 
341.149994 197893.15625 
353.151642 4098.68457 
371.161041 12886.588867 
389.171051 209833.5625 
407.182037 38694.359375 
407.221283 939.564453 
425.187592 9306.263672 
425.238617 4577.86377 
425.779816 881.328064 
447.346313 3782.97998 
END IONS

