BEGIN IONS
PEPMASS=319.131
CHARGE=1+
COMPOUNDNAME=(1R,2E,7R,10E,12S,13S,15R)-12,15-dihydroxy-7-methyl-8-oxabicyclo[11.3.0]hexadeca-2,10-dien-9-one
LIBRARYQUALITY=3
SMILES=N/A
INCHIKEY=KQNZDYYTLMIZCT-SWGFJCPHSA-N
INCHI=InChI=1S/C16H24O4/c1-11-5-3-2-4-6-12-9-13(17)10-14(12)15(18)7-8-16(19)20-11/h4,6-8,11-15,17-18H,2-3,5,9-10H2,1H3/b6-4+,8-7+/t11-,12+,13-,14+,15+/m1/s1
MSLEVEL=2
SOURCE_INSTRUMENT=N/A-ESI-QFT
FILENAME=library_mgf.mgf
SEQ=*..*
IONMODE=positive
ORGANISM=MONA
NAME=(1R,2E,7R,10E,12S,13S,15R)-12,15-dihydroxy-7-methyl-8-oxabicyclo[11.3.0]hexadeca-2,10-dien-9-one [M+K]+
PI=MoNA
DATACOLLECTOR=MoNA:VF-NPL-QEHF022878
PUBMED=N/A
SUBMITUSER=mwang87
TAGS=
SPECTRUMID=CCMSLIB00004713941
SCANS=22878
50.010326 0.023685 
50.422134 0.015712 
50.99754 0.01761 
51.023243 0.045456 
51.414257 0.018803 
51.737556 0.016532 
51.940308 1.993411 
52.940437 0.215631 
53.002506 0.052876 
53.038914 0.288593 
53.078423 0.025192 
54.485535 0.033993 
54.932167 0.016296 
54.937801 0.406392 
55.018139 0.268499 
55.054558 2.388633 
55.934696 2.126199 
56.049812 0.168449 
56.942482 0.180138 
56.96508 5.299802 
57.033684 0.054578 
57.070168 1.321254 
57.83147 0.017694 
57.854797 0.024443 
57.935081 1.439837 
58.065426 0.886047 
58.073509 0.027627 
58.961075 0.02051 
59.049358 0.102868 
59.149242 0.02711 
59.710709 0.017241 
59.9305 0.583435 
60.044689 0.084416 
60.957779 0.047216 
61.010887 3.98871 
61.533394 0.015937 
62.018661 0.530319 
62.904289 0.016765 
62.929195 0.046712 
62.990013 0.024706 
63.006622 0.058249 
63.023178 0.03948 
63.99794 0.680094 
64.839157 0.025349 
64.927406 0.03549 
65.038734 3.475153 
65.124123 0.015604 
66.042 0.02351 
67.054359 3.423538 
67.934952 0.660994 
68.049568 0.019839 
68.057678 0.038815 
68.94281 1.492655 
69.033592 0.278318 
69.069969 1.181326 
69.660316 0.020422 
69.933907 0.016443 
69.942993 0.065116 
69.961166 0.021467 
70.065247 0.801088 
70.760788 0.025598 
70.941795 0.092417 
70.957947 0.703048 
71.049202 0.305407 
71.085571 0.303682 
71.929382 0.176508 
71.940308 0.133695 
72.044456 0.022764 
72.080864 0.293762 
72.934906 0.030606 
72.937187 3.680168 
73.028366 0.027295 
73.937599 0.065583 
74.122314 0.034023 
74.225945 0.03097 
74.278847 0.017124 
74.975471 0.028819 
75.884903 0.030841 
75.945572 0.055269 
77.038681 0.022057 
77.06073 0.025094 
77.110214 0.084166 
77.113678 0.043679 
77.329071 0.025636 
78.01326 0.021688 
78.141907 0.029078 
78.180199 0.01676 
79.021271 3.560738 
79.054291 2.309466 
79.394524 0.017824 
79.895668 0.024178 
80.024582 0.023527 
80.049522 0.560578 
80.057587 0.090717 
81.017006 0.059825 
81.033516 0.09558 
81.069923 3.181081 
81.072502 0.03019 
82.065132 0.034161 
82.073357 0.125342 
82.489281 0.016115 
83.049202 0.212946 
83.085571 0.442329 
83.929848 0.206085 
84.044449 0.179757 
84.080803 0.11524 
84.66201 0.016573 
84.937675 1.022257 
84.959763 0.226922 
84.971863 0.046302 
85.028496 0.037548 
85.039658 0.348834 
85.064812 0.117785 
85.937759 0.033894 
85.945526 0.232761 
85.979858 0.048988 
86.003677 0.02136 
86.096405 0.203315 
87.044296 0.018749 
87.531601 0.023967 
87.944901 0.032894 
88.075729 0.250785 
88.952438 0.195234 
88.968544 0.475965 
89.03862 0.02548 
89.059799 0.022148 
89.939896 0.077332 
89.950783 0.06025 
89.963783 0.586187 
90.944679 0.036805 
90.947762 3.683474 
91.054268 100.0 
92.054588 0.045882 
92.057602 4.198087 
92.948074 0.024931 
93.069939 1.610573 
93.956001 0.103025 
94.06514 0.228304 
94.073097 0.033842 
94.225044 0.018933 
95.049194 0.805255 
95.085564 2.203104 
95.147583 0.020328 
95.951477 0.022576 
96.044495 0.023024 
96.080803 0.080071 
96.088867 0.0317 
97.039665 0.027419 
97.064789 0.036956 
97.10112 0.112099 
97.304543 0.022558 
97.496918 0.022616 
98.975372 0.081652 
99.044266 0.028164 
99.948204 0.033324 
101.940392 0.108335 
102.830116 0.016388 
102.948235 5.771725 
102.969215 0.050433 
103.054314 0.275807 
103.687065 0.019751 
103.948364 0.679418 
103.956032 0.27857 
104.946678 0.057314 
104.963593 0.091173 
105.033447 0.024297 
105.044868 0.041879 
105.069939 1.583671 
105.917442 0.02573 
105.934853 0.053384 
105.971703 0.020073 
106.065125 0.387281 
106.07328 0.116761 
106.962921 0.037181 
106.979179 0.020883 
107.049179 1.569075 
107.072845 0.13758 
107.085663 0.6845 
107.950363 0.028391 
107.974594 0.065102 
108.002533 0.025224 
108.080627 0.154611 
108.958275 1.192911 
108.978889 0.022082 
109.064606 0.137213 
109.07608 0.072259 
109.10125 0.66363 
110.060173 0.058121 
110.953354 0.027731 
113.963806 0.058503 
114.948364 0.180275 
115.054199 0.296253 
116.963692 0.889968 
116.984833 0.515832 
117.069939 0.700772 
117.192268 0.024236 
118.064957 0.060789 
118.072929 0.018545 
118.943108 2.39306 
118.979858 0.021612 
119.085564 0.674548 
119.847939 0.015857 
119.943253 0.218435 
119.950996 1.995577 
120.080849 1.042675 
120.925011 0.020899 
120.940605 0.234505 
120.951118 0.144537 
120.958794 1.600225 
121.064827 0.874885 
121.088692 0.225054 
121.101257 0.226706 
121.958954 0.149533 
121.966705 0.060437 
122.060097 0.022646 
122.096748 0.022398 
122.920486 0.021424 
122.940842 0.207347 
122.957504 0.02361 
122.973938 0.058995 
123.080498 0.035042 
123.116913 0.021949 
123.945358 0.028883 
124.075706 0.023637 
124.936325 0.21942 
125.015259 0.086331 
125.842438 0.026546 
125.961098 0.14151 
126.984138 0.034751 
128.062119 0.195891 
128.963669 2.435752 
128.984528 0.071532 
129.069885 0.682692 
129.963928 0.103865 
130.065201 0.048503 
130.073441 0.054865 
130.943039 0.049575 
130.962585 0.067271 
130.979385 0.520358 
131.000107 0.2665 
131.049393 0.035516 
131.07283 0.027877 
131.085648 0.530129 
131.950943 2.208893 
131.961319 0.024942 
131.974289 0.30483 
132.08078 0.207086 
132.951492 0.13004 
132.95871 0.834769 
132.978867 0.032223 
132.995316 0.029279 
133.064789 0.034045 
133.088852 0.073867 
133.101257 0.253678 
133.959213 0.036709 
134.060089 0.142293 
134.096344 0.302572 
134.9561 0.406621 
134.973862 0.508602 
134.996048 0.211791 
135.080231 0.032775 
135.090851 0.023484 
136.075577 0.033103 
136.112228 0.059688 
136.936096 0.027399 
136.953842 0.229256 
137.011841 0.134212 
137.095963 0.031995 
137.954315 0.02184 
138.091309 0.030264 
138.935501 0.020758 
138.951263 0.304441 
138.984131 0.511894 
139.923691 0.023821 
140.95192 0.018187 
140.984436 0.789949 
141.022064 0.095773 
141.069901 0.328566 
142.078049 0.048088 
142.921814 0.031483 
142.979691 0.327798 
143.000366 0.154338 
143.085587 0.419733 
143.974487 0.07155 
144.080917 0.049576 
144.920364 0.383795 
144.958588 0.189156 
144.979919 0.11296 
144.994553 0.18753 
145.064911 0.091844 
145.101089 0.164366 
145.976898 0.018082 
145.989883 0.065702 
146.06012 0.018635 
146.09642 0.378291 
146.103882 0.02795 
146.974365 13.488796 
146.995773 0.040663 
147.080505 0.063242 
147.10437 0.386 
147.974243 1.508662 
148.075638 0.02976 
148.111984 0.354965 
148.95578 0.913958 
148.972504 0.855694 
148.989655 0.283442 
149.011154 0.048313 
149.953873 0.021366 
149.961227 0.024846 
149.971863 0.133173 
149.985031 0.059357 
150.091293 0.021389 
150.598938 0.027007 
150.951111 1.245671 
150.968719 1.065327 
151.976517 0.023881 
151.998932 0.04847 
152.951584 0.859881 
152.958115 0.018488 
152.96698 0.275478 
152.989288 0.120983 
152.999756 0.020297 
153.070129 0.045025 
153.959335 0.301006 
153.992142 0.166192 
154.946854 0.733768 
154.967224 0.251451 
154.978943 0.043216 
155.000168 0.401974 
155.022583 0.058415 
155.085388 0.170949 
155.101852 0.017331 
155.946838 0.01818 
155.954636 0.157818 
155.98793 0.049874 
155.995255 0.022997 
156.011292 0.021486 
156.945206 0.061919 
156.962463 0.046924 
156.979675 0.017711 
156.995285 0.056671 
157.016159 0.042766 
157.101578 0.148644 
157.990326 0.048461 
158.096573 0.03725 
158.944077 0.041375 
158.953613 0.175693 
158.974213 0.114901 
158.995285 0.050865 
159.116928 0.025641 
159.969238 0.077341 
160.004639 0.034845 
160.11203 0.229468 
160.951721 0.867911 
160.98999 0.240815 
161.011169 0.062143 
161.09581 0.027491 
161.95192 0.068236 
162.091431 0.06236 
162.127716 0.046582 
162.968933 0.067285 
163.005386 0.016893 
163.062729 0.026419 
163.113556 0.020671 
163.122849 0.019609 
163.135071 0.028292 
163.947723 0.048481 
163.977524 0.056527 
163.986511 0.0219 
164.000717 0.091511 
164.106461 0.031628 
164.986588 0.05077 
164.999649 0.093905 
165.070145 0.022495 
166.966324 0.321149 
166.973282 0.34683 
166.979889 0.056708 
167.000153 0.242666 
168.961807 0.362317 
168.994461 0.111947 
169.016632 0.108502 
169.375198 0.019708 
169.989563 0.035686 
170.02681 0.026399 
170.962372 0.603822 
170.973831 0.054327 
170.996185 0.039874 
171.062897 0.355142 
171.116623 0.050376 
172.005859 0.194989 
172.112396 0.0924 
172.479248 0.017841 
172.604675 0.026271 
172.957611 0.352767 
172.989136 0.040419 
173.984924 0.066273 
174.006195 0.103211 
174.128006 0.151768 
174.954849 0.048305 
175.135696 0.039142 
176.000931 0.022919 
176.107651 0.043534 
176.143341 0.063903 
176.606613 0.019986 
177.864487 0.027448 
177.954071 0.022946 
178.892914 0.4334 
178.964493 0.402768 
178.979187 0.056704 
179.000916 0.214047 
180.888062 3.136863 
180.982254 0.025719 
180.994614 0.026552 
181.016571 0.027252 
181.888855 0.030617 
181.988892 0.026802 
181.996887 0.741407 
182.888794 0.018699 
184.003815 0.049916 
184.983459 0.159917 
184.990356 0.074343 
185.949402 0.105205 
186.007721 0.021771 
186.021057 0.025354 
186.128235 0.118736 
186.878494 0.044177 
186.935822 0.024748 
186.990204 0.024167 
187.005737 0.069983 
187.02771 0.231487 
187.944977 0.023456 
188.143082 0.024514 
188.924637 0.02103 
189.152344 0.019994 
190.873001 0.289243 
191.000412 0.190375 
191.880692 2.680667 
192.011246 0.019737 
192.881073 0.222326 
192.889343 0.122409 
192.979324 0.027699 
192.995071 0.160745 
195.875412 0.108044 
196.903152 0.056363 
197.012253 1.688564 
197.875626 0.028338 
197.89061 0.264492 
197.900452 0.024901 
198.015656 0.698791 
198.102814 0.025298 
198.898819 0.928789 
199.006638 0.044279 
199.955292 0.057682 
200.007385 0.259384 
200.107101 0.027913 
200.620819 0.042692 
200.951569 0.147648 
201.005478 0.080399 
201.138763 0.021391 
204.008392 0.027198 
204.174759 0.027843 
204.888992 0.137511 
205.016052 0.051872 
206.867935 0.257544 
206.888657 0.049732 
206.977997 0.039638 
207.875931 0.351664 
208.883606 4.326809 
209.874588 0.034898 
209.891785 5.204319 
210.021149 0.02677 
210.890778 0.403016 
210.899902 0.374493 
211.890182 0.158101 
212.107605 0.032823 
212.878738 0.028335 
212.898895 0.053597 
213.138855 0.017399 
213.885971 0.620501 
214.894058 0.2039 
215.02269 0.678158 
215.034378 0.033201 
215.089111 0.744205 
215.154465 0.093935 
215.901794 0.283783 
216.026627 0.328244 
216.979568 0.020379 
217.901993 0.021539 
218.867905 0.022698 
218.904678 0.050566 
218.962631 0.020959 
219.58223 0.102992 
219.591766 0.085242 
220.903336 2.160401 
220.921631 0.025491 
221.901459 0.161974 
222.89859 5.093159 
223.90152 0.036649 
224.878433 0.781256 
224.899429 0.044159 
225.886856 0.45379 
226.894287 1.274118 
227.127258 0.01895 
227.901093 0.442042 
229.89592 0.591546 
230.500534 0.027275 
230.90834 0.027466 
231.897034 0.029324 
232.883316 1.176101 
233.89183 0.374842 
234.89946 0.173542 
235.870941 0.026624 
235.890442 0.026219 
235.927261 0.024361 
236.899689 0.105125 
236.916412 0.056258 
237.886917 0.053775 
237.922043 0.06485 
238.893753 0.034755 
238.91394 3.419202 
239.913132 0.411249 
240.909241 7.879863 
241.911041 0.159636 
242.909607 0.111795 
243.14946 0.045717 
245.911224 0.376247 
245.932404 0.02857 
247.906601 0.508388 
248.878616 0.022191 
248.918182 0.033389 
250.894058 4.488578 
251.894424 0.699307 
252.894272 0.049285 
253.901978 0.193075 
253.917282 0.15121 
254.91124 0.023223 
255.897583 0.228541 
260.059326 0.029709 
264.909485 0.039034 
266.797394 0.039119 
266.889557 0.023727 
267.807281 0.024517 
268.34375 0.039731 
268.904724 1.029481 
269.820801 0.462074 
269.904785 0.029272 
270.828705 1.152163 
272.833893 0.02116 
274.216766 0.087834 
275.117645 0.027338 
275.142487 0.02455 
275.901642 0.157356 
277.901825 0.129967 
279.896851 0.196052 
280.813324 0.100284 
281.821167 0.140039 
282.812897 0.056355 
283.82077 0.13619 
284.807739 3.179634 
285.816071 1.916183 
285.834076 0.166944 
286.823242 0.074387 
287.119171 0.021823 
287.831238 2.113442 
288.839264 2.913224 
289.097992 0.024444 
289.74408 0.021622 
289.840149 0.095836 
290.165863 0.030622 
290.84024 0.028144 
294.828979 0.077953 
295.82019 0.100845 
295.911346 0.052169 
296.808472 0.176018 
297.816284 0.82903 
297.90744 0.066932 
298.817871 0.027046 
300.823395 0.549589 
301.810455 0.301962 
302.247345 0.036916 
302.818298 11.27624 
303.113159 0.09043 
303.819305 0.671093 
304.820435 0.262389 
307.801605 0.02528 
308.720581 0.022506 
310.843781 0.067411 
312.839142 2.256918 
313.811035 0.027862 
313.84024 0.065253 
315.825562 0.023083 
318.243256 0.431078 
325.831543 0.045002 
326.818573 0.471106 
327.826599 0.473471 
344.829132 1.522855 
END IONS

