BEGIN IONS
PEPMASS=414.155
CHARGE=1+
COMPOUNDNAME=Massbank:BML00298 (S,R)-Noscapine
LIBRARYQUALITY=3
SMILES=CN1CCC2=CC3=C(C(=C2[C@@H]1[C@@H]4C5=C(C(=C(C=C5)OC)OC)C(=O)O4)OC)OCO3
INCHIKEY=AKNNEGZIBPJZJG-MSOLQXFVSA-N
INCHI=1S/C22H23NO7/c1-23-8-7-11-9-14-20(29-10-28-14)21(27-4)15(11)17(23)18-12-5-6-13(25-2)19(26-3)16(12)22(24)30-18/h5-6,9,17-18H,7-8,10H2,1-4H3/t17-,18+/m1/s1
MSLEVEL=2
SOURCE_INSTRUMENT=ESI-LC-ESI-QTOF
FILENAME=Massbank_ESI_positive_8_1_2014_peaks.mgf
SEQ=*..*
IONMODE=Positive
ORGANISM=MASSBANK
NAME=Massbank:BML00298 (S,R)-Noscapine [M+H]+
PI=Putative Massbank Match
DATACOLLECTOR=Massbank
PUBMED=N/A
SUBMITUSER=mwang87
TAGS=
SPECTRUMID=CCMSLIB00000204865
SCANS=125
265.0491 65.0 
265.0862 41.0 
276.0374 27.0 
276.0751 32.0 
277.0464 39.0 
277.0784 49.0 
279.0701 47.0 
280.0719 69.0 
281.0852 29.0 
289.0468 28.0 
292.0761 30.0 
293.0771 26.0 
294.0808 21.0 
295.0573 25.0 
295.0823 31.0 
306.0595 28.0 
307.065 64.0 
309.0688 47.0 
310.0824 34.0 
319.0517 39.0 
322.0856 38.0 
323.0918 84.0 
325.1019 59.0 
334.0938 26.0 
335.0526 36.0 
337.0711 56.0 
338.0677 23.0 
350.0731 27.0 
351.0669 28.0 
352.1174 26.0 
366.0951 23.0 
END IONS

