BEGIN IONS
PEPMASS=385.105
CHARGE=1+
COMPOUNDNAME=GIBBERELLIC ACID
LIBRARYQUALITY=3
SMILES=N/A
INCHIKEY=IXORZMNAPKEEDV-SNTJWBGVSA-N
INCHI=InChI=1S/C19H22O6/c1-9-7-17-8-18(9,24)5-3-10(17)19-6-4-11(20)16(2,15(23)25-19)13(19)12(17)14(21)22/h4,6,10-13,20,24H,1,3,5,7-8H2,2H3,(H,21,22)/t10-,11+,12-,13-,16+,17+,18+,19-/m1/s1
MSLEVEL=2
SOURCE_INSTRUMENT=N/A-ESI-QFT
FILENAME=library_mgf.mgf
SEQ=*..*
IONMODE=positive
ORGANISM=MONA
NAME=GIBBERELLIC ACID [M+K]+
PI=MoNA
DATACOLLECTOR=MoNA:VF-NPL-QEHF006372
PUBMED=N/A
SUBMITUSER=mwang87
TAGS=
SPECTRUMID=CCMSLIB00004697435
SCANS=6372
50.582554 0.138268 
50.682114 0.030807 
50.761951 0.031997 
50.812283 0.033746 
50.888477 0.028429 
51.017345 0.029441 
51.023773 0.181936 
51.195866 0.032781 
51.272457 0.03236 
51.297855 0.131336 
51.40934 0.132278 
51.497074 0.031048 
51.568005 0.031082 
51.803959 0.063554 
51.893459 0.059076 
51.940762 0.372648 
51.971615 0.030579 
52.024288 0.040227 
52.02919 0.14624 
52.318508 0.123787 
52.426025 0.031627 
52.452076 0.02702 
52.465511 0.028653 
52.55357 0.029944 
52.715717 0.033935 
52.727486 0.037895 
52.739395 0.0329 
52.995544 0.034228 
53.002983 6.014666 
53.021057 0.031625 
53.039349 13.223067 
53.042137 0.036549 
53.750221 0.029947 
53.998184 0.20005 
54.027004 0.03547 
54.03463 1.10807 
54.042625 0.264901 
54.060467 0.084142 
54.222569 0.057889 
54.263763 0.028255 
54.405056 0.028691 
54.548161 0.088469 
54.780636 0.033368 
54.785389 0.038955 
54.861176 0.029023 
55.0186 23.939363 
55.054989 75.528549 
55.450165 0.036949 
55.481709 0.037643 
55.564552 0.154224 
55.935101 0.427526 
56.050236 20.335073 
56.058346 1.861999 
56.171268 0.12329 
56.329098 0.063216 
56.739471 0.030539 
56.85257 0.068644 
56.853573 0.095181 
56.965523 63.194275 
57.034241 10.60647 
57.053593 0.04368 
57.057987 0.04419 
57.070629 31.307108 
57.342697 0.090751 
57.493851 0.032246 
57.973801 0.035082 
58.06588 89.878464 
58.074032 0.252712 
58.469269 0.149876 
58.565891 0.126421 
58.586823 0.03375 
58.899612 0.029469 
58.956535 0.034205 
58.961231 2.595339 
58.995728 0.28 
58.998508 0.040025 
59.049892 16.220306 
59.061111 3.932527 
59.069218 1.796493 
59.148422 0.030764 
59.196087 0.063211 
59.865433 0.031623 
59.964294 0.03293 
59.974972 0.080881 
60.045132 11.132772 
60.056332 0.383553 
60.081581 0.139671 
60.089024 0.04275 
60.119427 0.030305 
60.208042 0.06171 
60.407001 0.09336 
60.958378 1.540204 
61.011375 14.13244 
62.014843 0.036288 
62.019199 1.958785 
62.024395 3.974702 
62.511574 0.116913 
62.740711 0.126186 
62.91663 0.126424 
62.982483 0.611403 
63.083344 0.03156 
63.385849 0.032615 
63.998474 0.533236 
64.510605 0.036039 
64.533974 0.054634 
65.012566 0.138666 
65.039276 8.623653 
65.68679 0.063635 
65.913986 0.125884 
66.566467 0.032262 
66.623337 0.108407 
67.018547 0.068444 
67.04245 0.118123 
67.054916 78.048782 
67.489799 0.126266 
68.050117 12.4225 
68.058273 2.541724 
68.262375 0.030615 
68.282722 0.129222 
68.997765 0.353574 
69.009125 0.032103 
69.034149 18.468479 
69.04541 0.819429 
69.070534 97.604797 
69.536537 0.031244 
70.029373 14.841355 
70.037529 0.301723 
70.065788 82.034843 
70.073952 4.515252 
70.230293 0.036531 
70.741966 0.033939 
70.949791 0.033726 
70.981071 1.394018 
71.013397 0.625522 
71.049782 20.608112 
71.069153 2.492173 
71.086166 8.098413 
71.756813 0.028212 
71.781708 0.032536 
71.952515 3.76111 
72.045029 3.500132 
72.05587 0.114054 
72.06707 0.123617 
72.081429 14.409539 
72.560509 0.142629 
72.937943 0.049556 
72.960396 0.227788 
72.975006 0.095256 
73.011246 0.06424 
73.029068 2.052175 
73.065414 8.95225 
73.35778 0.121962 
74.024292 65.057594 
74.060638 2.573611 
74.097076 1.03765 
74.133575 0.036998 
74.140396 0.137871 
74.171745 0.030787 
74.807281 0.032481 
74.931496 0.980686 
74.944321 0.036605 
74.975975 2.426357 
75.027565 0.066851 
75.044701 0.45225 
75.789101 0.058676 
75.820084 0.040196 
76.540771 0.033656 
76.698959 0.135308 
76.831863 0.032471 
77.00901 2.500042 
77.039352 1.011061 
77.516487 0.139432 
77.637543 0.034153 
77.911514 0.02866 
78.216751 0.164374 
79.006454 0.071194 
79.021843 4.355853 
79.054787 68.742744 
79.311287 0.131476 
79.445473 0.064602 
80.047935 0.141906 
80.050056 11.93948 
80.058174 3.320196 
80.161957 0.034369 
80.229248 0.033109 
80.578926 0.085427 
81.034035 8.675625 
81.045311 3.79139 
81.057983 0.09779 
81.070419 78.520996 
81.227547 0.030267 
81.770775 0.040455 
82.029282 2.493534 
82.065651 20.826193 
82.073792 3.676296 
82.090889 0.14842 
82.518105 0.034069 
82.816315 0.064812 
83.013344 0.643912 
83.049683 27.709093 
83.060921 5.743703 
83.073593 0.033189 
83.08606 22.084946 
84.044922 30.211267 
84.05291 0.125627 
84.081322 40.94812 
84.089386 0.316295 
84.18132 0.032426 
84.960205 2.88293 
85.028938 10.322149 
85.04023 1.144844 
85.048225 0.255039 
85.065292 14.091532 
85.084724 0.664839 
85.101631 0.794824 
86.024139 0.051082 
86.060532 9.1953 
86.068695 0.071768 
86.096916 50.186962 
87.026833 0.08475 
87.044571 11.991398 
87.055794 1.322755 
87.100304 1.17083 
87.424965 0.0315 
87.493538 0.032142 
87.729134 0.032995 
88.03978 8.863974 
88.076195 2.036029 
88.21209 0.032278 
88.937332 0.173399 
88.991463 0.535192 
89.060204 1.916152 
89.577126 0.031141 
89.747398 0.030182 
89.890587 0.034872 
89.94677 0.029937 
89.962837 0.071272 
90.042923 0.02981 
90.948158 0.315576 
91.054672 100.0 
91.925835 0.133067 
92.049965 1.335965 
92.058014 2.664045 
92.961052 0.060369 
92.986397 0.517339 
93.034012 0.688921 
93.045319 0.547335 
93.05777 0.764364 
93.07029 51.189102 
93.073318 0.484199 
93.075577 0.048895 
94.029251 0.937242 
94.065536 15.816525 
94.073685 2.271077 
94.343292 0.02899 
95.01326 0.35713 
95.019356 1.346697 
95.049576 30.75696 
95.06073 10.795199 
95.068756 0.192264 
95.073288 0.696426 
95.085953 54.493317 
96.0448 15.749814 
96.052872 0.7211 
96.068832 0.045398 
96.081177 15.321194 
96.089249 2.481442 
96.146744 0.029727 
96.411133 0.030969 
96.945923 0.116586 
97.011108 0.057782 
97.028862 4.5094 
97.040031 1.04111 
97.065193 16.761742 
97.076477 4.095615 
97.084282 0.216482 
97.101578 8.063231 
97.842392 0.029715 
98.024208 0.246534 
98.035248 0.226461 
98.060425 11.515224 
98.068588 0.132121 
98.071579 0.157858 
98.096832 27.49008 
98.975693 20.988358 
99.008163 0.1247 
99.014908 0.160932 
99.044411 6.458313 
99.055626 0.774818 
99.080833 6.078567 
99.100121 0.445782 
99.406677 0.0374 
99.979103 0.221181 
100.02494 0.551111 
100.039658 1.449597 
100.050758 0.156854 
100.07608 9.969994 
100.112465 7.558083 
100.971657 0.112055 
101.00901 0.03513 
101.023651 0.036186 
101.047783 0.122853 
101.06012 6.294656 
101.11599 0.064873 
101.263969 0.03692 
101.296951 0.035015 
102.055321 3.191859 
102.063705 0.038735 
102.091103 0.042451 
102.968262 0.178625 
102.970802 0.208796 
103.039345 1.554561 
103.048607 0.035603 
103.054588 68.104988 
103.485138 0.036993 
103.870872 0.040869 
104.049637 0.287978 
104.057976 3.721742 
104.317078 0.034452 
104.908134 0.906788 
105.026543 0.085854 
105.033821 1.934653 
105.045021 2.742933 
105.070206 86.63884 
106.028946 0.065661 
106.065414 12.917712 
106.07354 5.796101 
106.364403 0.055566 
107.001831 0.502603 
107.045715 0.055437 
107.049461 15.954553 
107.060707 1.328394 
107.069145 0.18212 
107.073273 1.958359 
107.085831 30.649967 
107.439819 0.030984 
107.864929 0.037081 
108.044693 6.844985 
108.052818 0.043974 
108.068619 0.132226 
108.081062 27.261501 
108.089195 0.90029 
108.314835 0.035101 
109.028687 2.232237 
109.040085 0.142519 
109.052414 0.071839 
109.065063 16.344721 
109.076294 7.142916 
109.084435 0.827498 
109.088928 0.214668 
109.101433 21.239613 
110.023972 1.212283 
110.060295 17.206026 
110.067711 0.045747 
110.071625 6.053021 
110.084198 0.12367 
110.09671 8.457675 
110.105064 0.134731 
110.903549 0.059112 
111.026833 0.093895 
111.044312 9.655431 
111.055542 13.898333 
111.063515 0.109078 
111.080711 7.387643 
111.091919 0.6747 
111.100006 0.203936 
111.535667 0.039273 
111.646156 0.095769 
112.039558 3.919438 
112.050865 0.1795 
112.075951 13.639357 
112.112274 1.591126 
112.606361 0.040512 
113.02375 0.228374 
113.034782 0.836202 
113.059929 2.992752 
113.071182 1.713286 
113.079247 0.064428 
113.096313 8.974621 
113.620117 0.083517 
114.055244 5.505997 
114.091644 0.847954 
115.006889 0.464601 
115.033173 0.063091 
115.039154 0.243742 
115.054497 4.891065 
115.087067 0.049969 
115.26313 0.03744 
116.001968 0.217638 
116.058052 0.069947 
116.062256 0.135923 
116.070923 5.970958 
116.516121 0.064468 
116.986099 43.2351 
117.057541 1.89711 
117.070061 14.345067 
117.074554 0.095145 
117.989563 0.77502 
118.035149 16.617495 
118.039886 0.067425 
118.065392 7.585027 
118.073402 0.673575 
118.526985 0.100126 
118.947701 0.034445 
118.981514 0.375625 
118.990356 0.122035 
119.001541 0.193284 
119.019127 4.732074 
119.023552 0.184513 
119.035858 0.773803 
119.049301 6.867294 
119.060524 1.350673 
119.073135 1.684326 
119.085693 25.777077 
119.837509 0.134568 
120.019852 1.493791 
120.044548 2.484987 
120.080963 25.030216 
120.088806 1.116795 
120.979126 1.632867 
121.016624 3.609456 
121.028587 1.683749 
121.039803 1.087033 
121.064941 13.906108 
121.076195 3.934299 
121.084244 0.719757 
121.088661 0.625385 
121.101334 14.013623 
121.987747 0.048486 
122.060196 18.741251 
122.068153 0.112381 
122.083817 0.131338 
122.096565 8.606507 
122.104454 0.155892 
123.044228 7.853955 
123.055405 3.739736 
123.063469 0.554585 
123.068184 0.494864 
123.080574 9.585314 
123.09182 5.253527 
123.116997 2.252454 
123.974899 0.033147 
124.039429 30.825626 
124.050766 0.085663 
124.075806 20.034081 
124.112213 3.233868 
124.800369 0.032088 
125.012306 0.03141 
125.023346 0.143793 
125.035355 0.138988 
125.042633 0.769583 
125.059769 5.394304 
125.071053 6.280899 
125.079102 0.284385 
125.096237 2.427936 
125.107368 0.400209 
126.037277 0.075056 
126.055084 4.427621 
126.078773 0.426578 
126.091522 3.843855 
126.127899 0.96598 
127.039185 0.119478 
127.050278 0.803115 
127.07531 0.481134 
127.086708 2.462326 
127.286652 0.035688 
127.543793 0.036306 
128.034149 0.165936 
128.049728 0.080964 
128.06221 3.246508 
128.070724 3.165588 
128.106735 0.292164 
128.529312 0.162294 
128.986099 0.080924 
129.039581 0.048991 
129.054657 0.316153 
129.070038 9.539935 
129.102524 0.12559 
129.356262 0.03809 
129.639786 0.032624 
130.049988 1.709822 
130.065079 9.463964 
130.072769 0.073941 
130.07782 0.739324 
130.086349 1.941106 
130.894409 0.038063 
130.932877 0.898385 
131.001404 1.340124 
131.01947 0.03985 
131.049225 11.722333 
131.053848 0.037447 
131.060165 0.039521 
131.073044 1.395887 
131.085541 15.919146 
131.433151 0.035973 
132.032761 0.042044 
132.04454 1.289769 
132.050781 0.532103 
132.05687 0.03933 
132.08078 9.881213 
132.088852 0.492573 
132.995529 0.209285 
133.017151 2.638938 
133.034622 0.235283 
133.052063 0.157871 
133.064804 5.53068 
133.07608 2.348791 
133.088669 0.420188 
133.101181 12.362159 
133.840622 0.128346 
133.989288 0.034895 
134.012558 0.465412 
134.035355 0.043032 
134.060013 11.776834 
134.09642 8.245614 
134.104813 0.134184 
134.978775 4.844003 
134.996399 84.328133 
135.032104 0.18087 
135.044174 3.023114 
135.049713 0.045801 
135.055222 2.646927 
135.062561 0.07089 
135.067932 0.196757 
135.080475 9.886868 
135.091736 3.012936 
135.104324 0.072403 
135.116806 3.991804 
135.277756 0.137004 
135.896622 0.032735 
135.999725 2.490682 
136.039536 2.209901 
136.045395 15.126259 
136.062042 0.878729 
136.075638 12.087928 
136.083939 0.153155 
136.112091 3.787338 
136.957947 0.151752 
136.974548 0.210889 
136.99234 0.981825 
137.000717 0.911662 
137.011688 8.030914 
137.029312 1.898458 
137.046341 0.791186 
137.059723 4.0525 
137.070953 3.128942 
137.083542 0.116003 
137.096069 4.569283 
137.107178 0.158078 
137.115845 0.035831 
137.207794 0.037671 
137.289505 0.178345 
137.992844 0.082535 
138.012497 0.504178 
138.018494 0.149453 
138.030289 0.490577 
138.054947 6.549625 
138.066193 0.138751 
138.091232 7.139989 
138.12767 1.065981 
138.989319 3.761497 
139.009003 0.825907 
139.027023 1.423764 
139.038956 0.655144 
139.050186 2.20436 
139.075333 2.464606 
139.086517 3.206431 
139.122925 0.16097 
140.034271 1.095127 
140.070602 4.211723 
140.106964 1.369018 
140.452911 0.033512 
140.868896 0.034249 
141.022339 0.286736 
141.070038 1.71576 
141.102142 0.439468 
141.668533 0.035327 
141.875687 0.167312 
141.888641 0.068092 
142.017471 0.093792 
142.049759 0.308786 
142.065186 0.313181 
142.077774 2.339711 
142.086166 0.688716 
143.00145 0.049102 
143.038208 0.037687 
143.073059 0.0617 
143.085571 8.762501 
143.502655 0.088091 
144.044464 0.319647 
144.050568 1.152918 
144.065369 0.086628 
144.080811 6.487747 
144.088013 0.165753 
144.093719 0.135911 
144.692795 0.032092 
144.868652 0.036649 
144.937897 0.115189 
145.003601 0.043935 
145.016907 0.498133 
145.052216 1.729313 
145.064774 5.105289 
145.075958 1.254697 
145.088684 1.110595 
145.101181 12.073409 
145.231506 0.074162 
146.012039 0.2402 
146.060028 12.568456 
146.096512 6.191778 
146.103775 0.392925 
146.918274 1.524494 
146.9599 0.085505 
146.974091 0.117212 
146.996262 0.709874 
147.032791 0.451587 
147.04393 1.491817 
147.049988 0.079878 
147.055389 1.217094 
147.068039 0.801574 
147.080399 5.918983 
147.091568 2.264631 
147.116837 4.124793 
148.039398 0.457721 
148.062134 0.258853 
148.075623 10.929949 
148.087006 0.250053 
148.112045 5.403667 
148.119629 0.106362 
148.745789 0.030992 
148.943359 1.6356 
148.971756 0.045361 
149.01207 5.541865 
149.059738 4.660037 
149.070923 2.655988 
149.07869 0.209504 
149.0961 4.303893 
149.107391 1.998718 
149.132477 0.248459 
149.892822 0.361208 
150.054947 7.949393 
150.060806 0.270548 
150.066727 0.150282 
150.09137 9.132431 
150.12764 0.531122 
150.950958 0.255396 
150.967941 0.054928 
151.027557 0.593588 
151.038757 0.067598 
151.05043 0.101856 
151.063141 0.65306 
151.075256 1.025871 
151.086655 2.161115 
151.094345 0.111918 
151.111572 0.448423 
151.122833 0.1443 
151.998795 0.134194 
152.033966 0.065355 
152.063004 0.479267 
152.070557 6.811459 
152.106888 3.751949 
152.989182 15.044119 
153.006943 17.946484 
153.022156 0.046061 
153.041245 0.045731 
153.054626 0.255649 
153.065277 0.783315 
153.070496 0.270092 
153.078644 0.134472 
153.090912 0.220413 
153.102356 0.430225 
153.33432 0.034169 
153.992355 0.036394 
154.010452 0.179163 
154.04982 1.079616 
154.06485 0.160496 
154.078247 0.368206 
154.086166 1.835551 
154.122681 1.947054 
154.968521 1.781992 
154.984909 3.435866 
155.000916 0.045293 
155.011551 0.04715 
155.022247 5.253609 
155.037964 0.294758 
155.045074 0.147733 
155.085617 3.155243 
156.022888 0.22321 
156.065704 0.260013 
156.08075 1.36614 
156.093597 0.294732 
156.101044 0.15722 
156.971359 0.144473 
156.999786 0.41369 
157.018799 0.832502 
157.064728 0.733724 
157.076248 0.471552 
157.101227 5.180751 
157.56427 0.031347 
158.012482 0.285774 
158.060089 2.589348 
158.081253 0.090031 
158.096558 3.572813 
158.886139 0.033638 
158.986084 0.095657 
158.994629 0.049585 
159.032745 2.885254 
159.049942 0.049052 
159.055206 0.121377 
159.067886 0.44021 
159.080383 3.590497 
159.091797 2.735065 
159.116821 4.307528 
160.027969 2.057999 
160.034561 0.318727 
160.075714 6.660127 
160.099487 0.294734 
160.112015 2.00166 
160.119919 0.182554 
160.996658 0.104257 
161.011902 1.387757 
161.048279 2.232432 
161.059677 0.477028 
161.071121 2.149162 
161.095993 3.840285 
161.107346 1.704868 
161.115158 0.074344 
161.132462 0.537419 
161.353088 0.031772 
161.998001 0.14394 
162.055038 2.987292 
162.061172 0.75868 
162.078003 2.297037 
162.091293 6.234986 
162.127579 0.580081 
163.014709 6.366073 
163.027557 0.534449 
163.050476 0.080269 
163.062668 0.066926 
163.075272 2.02889 
163.086578 2.398419 
163.09848 0.033534 
163.111206 0.25871 
163.122864 0.546683 
163.516556 0.165743 
163.998657 1.022465 
164.01564 0.13582 
164.033524 0.056133 
164.070572 5.520681 
164.081772 1.200677 
164.107101 5.511627 
164.143661 0.144796 
164.928879 1.597403 
164.935501 0.13803 
165.054794 0.260328 
165.06601 0.19243 
165.070129 0.131487 
165.077927 0.043675 
165.09111 0.462227 
165.102234 0.795225 
166.050125 0.334888 
166.061432 0.125661 
166.078629 0.554715 
166.08609 3.003024 
166.095169 0.038195 
166.122742 1.495695 
166.607468 0.039112 
166.954193 0.191571 
167.00499 0.363799 
167.022644 0.960872 
167.055771 0.146491 
167.072433 0.530132 
167.081177 0.647667 
167.117905 1.42076 
167.903717 0.077165 
167.927414 0.038978 
168.057999 0.101724 
168.065399 2.704509 
168.080627 0.907562 
168.093964 0.073455 
168.101944 3.172357 
168.138184 0.216619 
168.992126 0.076775 
169.01741 0.251265 
169.037628 0.045872 
169.053543 0.056593 
169.075638 0.660705 
169.089233 0.064478 
169.101318 2.740172 
170.011505 0.05391 
170.060211 0.164097 
170.081772 0.422944 
170.096497 1.878128 
170.128662 0.213045 
170.999725 2.17241 
171.015961 0.039916 
171.032791 1.01647 
171.080276 2.308117 
171.091507 0.408482 
171.116776 1.653245 
171.778732 0.029383 
172.028427 0.053243 
172.075592 2.194254 
172.112076 1.320753 
172.943481 1.335969 
172.979294 0.186794 
172.995514 0.63479 
173.011597 0.239588 
173.048523 0.769665 
173.059219 0.315462 
173.071213 0.681804 
173.096115 2.131173 
173.107452 1.331437 
173.132797 0.050287 
174.007843 0.13866 
174.043625 0.073188 
174.055206 0.300226 
174.0914 5.150745 
174.127747 2.405721 
174.959259 0.03704 
174.976318 0.804824 
175.027679 0.852908 
175.064026 0.04604 
175.075073 0.435974 
175.086761 2.888415 
175.099609 0.102275 
175.111588 0.919975 
175.12291 0.8545 
176.022888 0.066954 
176.070572 3.58237 
176.106979 5.009158 
176.180695 0.040461 
176.572052 0.034575 
176.666611 0.0384 
176.938004 0.176464 
176.973053 0.499948 
176.984772 0.07641 
177.009354 2.513864 
177.030807 0.085488 
177.043243 0.498452 
177.05513 0.138415 
177.065735 1.026244 
177.091019 0.618844 
177.102234 1.752382 
177.110138 0.091363 
177.138779 0.185251 
178.010132 2.743639 
178.038254 29.881947 
178.077805 0.735666 
178.086227 4.44319 
178.096695 0.268254 
178.122726 1.165218 
178.765137 0.038081 
178.811539 0.129035 
179.006805 8.986214 
179.021637 3.158111 
179.03923 1.458739 
179.058716 0.264889 
179.085266 1.285178 
179.104599 0.161231 
179.117828 0.474406 
179.492386 0.039929 
179.502609 0.049183 
180.00769 4.144042 
180.023468 0.093507 
180.065567 0.501216 
180.090103 0.039802 
180.101746 0.932994 
180.138306 0.216602 
180.531311 0.047983 
181.004425 1.476446 
181.025482 5.353267 
181.088242 0.2692 
181.10022 0.720618 
181.94194 0.032334 
182.009323 0.356306 
182.082062 0.12533 
182.096527 0.830849 
182.117874 0.367571 
182.939423 1.44466 
183.016983 0.038168 
183.033005 0.62497 
183.068542 0.602038 
183.080307 0.200004 
183.091797 0.748171 
183.116531 0.201597 
183.942596 0.040441 
184.006042 0.040356 
184.019012 0.038603 
184.02803 0.155596 
184.075653 1.333021 
184.097321 0.980333 
184.112213 0.565897 
184.919739 0.086131 
185.048401 1.03834 
185.056824 0.03955 
185.070923 1.1448 
185.082382 0.098776 
185.09613 0.709299 
185.106705 0.292653 
185.132492 0.378359 
185.913742 0.15882 
186.043732 0.051789 
186.091217 2.45208 
186.101196 0.181853 
186.127808 0.099405 
186.618469 0.037056 
187.02771 1.111793 
187.064102 0.543713 
187.075302 0.257277 
187.086578 1.134556 
187.098999 0.137331 
187.111755 0.381408 
187.122696 0.121969 
187.865265 0.037541 
188.057709 0.103878 
188.070251 0.93304 
188.10704 1.922456 
188.132874 0.048646 
188.143448 0.899181 
189.043228 1.767937 
189.066528 0.041438 
189.077728 0.088356 
189.091339 0.254135 
189.102142 1.510137 
189.138748 0.228638 
190.049698 0.197955 
190.086197 1.510373 
190.095322 0.071734 
190.122635 3.794139 
190.953903 7.838251 
190.963348 0.094976 
191.023132 0.229916 
191.058136 0.108008 
191.071365 0.17032 
191.081909 0.544345 
191.117752 1.879594 
191.154587 0.075143 
192.033417 0.050625 
192.053696 1.332425 
192.065536 0.222717 
192.093521 0.077478 
192.101898 1.376439 
192.120773 0.058078 
192.138351 0.149093 
192.986984 2.18305 
193.022247 0.107727 
193.038147 0.320243 
193.053589 0.046874 
193.071823 0.138944 
193.100494 1.802917 
193.133911 0.494132 
193.675919 0.049668 
193.988403 0.410427 
194.081451 0.521052 
194.091949 0.125567 
194.106369 0.087871 
194.117599 0.812408 
194.947311 0.201353 
194.983292 1.736574 
195.0 0.169399 
195.032379 0.045735 
195.055496 0.151222 
195.080185 0.632343 
195.091629 0.410397 
195.101669 0.166705 
195.113586 0.349025 
196.038971 0.073189 
196.048904 14.656209 
196.060196 1.416311 
196.075653 0.472065 
196.087097 0.141755 
196.097687 0.284742 
196.111542 0.37958 
196.291092 0.034786 
197.032837 0.240303 
197.049545 1.103323 
197.083237 0.080714 
197.094894 0.381984 
197.10701 0.671808 
197.131989 0.110117 
198.021042 0.042285 
198.043686 0.110479 
198.053864 0.048408 
198.079483 0.08812 
198.090942 0.874166 
198.983444 0.047901 
198.992935 0.045629 
199.02771 0.19157 
199.063705 0.809276 
199.086227 0.367808 
199.098068 0.070721 
199.111954 0.469985 
199.122452 0.381653 
200.022858 0.04279 
200.058685 0.105989 
200.069412 0.165082 
200.107101 1.091006 
200.118103 0.051207 
200.949615 0.037622 
201.008957 0.043167 
201.043259 1.191699 
201.079605 2.22545 
201.101974 1.709287 
201.127441 0.058395 
202.038879 0.049197 
202.07164 0.042465 
202.086426 1.147081 
202.09729 0.66543 
202.109085 0.162985 
202.12265 0.603062 
202.134048 0.159966 
203.007217 0.44065 
203.022736 0.040804 
203.058731 0.819637 
203.081848 0.165151 
203.117615 0.854158 
203.128281 0.051279 
203.143387 0.205358 
203.483078 0.03641 
204.053436 0.043751 
204.065735 0.233322 
204.087173 0.173697 
204.102112 0.393692 
204.138428 2.424613 
204.969025 0.708762 
205.003525 0.126471 
205.03775 0.174285 
205.073746 0.092656 
205.098175 0.381861 
205.133514 0.621762 
205.869751 0.072484 
206.082062 0.258763 
206.107697 0.043112 
206.117477 0.080854 
206.926346 2.665803 
207.053162 0.220995 
207.065445 0.214997 
207.113632 0.188059 
208.027527 0.046338 
208.075348 0.176375 
208.097107 0.164818 
208.111526 0.168223 
208.924377 0.176061 
208.96463 4.180726 
209.048569 0.065004 
209.082962 0.141602 
209.095322 0.938551 
209.107803 0.197553 
209.129013 0.205268 
210.043488 0.128547 
210.064728 0.224388 
210.091187 0.36219 
210.112015 0.094519 
210.920731 0.290532 
210.959732 0.148575 
211.063919 0.196723 
211.086838 0.428533 
211.099396 0.081609 
211.110931 0.401941 
211.122482 0.168776 
212.069275 0.222612 
212.093933 0.124772 
212.106781 0.316251 
212.119156 0.08714 
212.129562 0.141387 
212.143097 0.137374 
212.957108 0.081506 
213.043365 0.550922 
213.065109 0.160784 
213.101776 0.855389 
214.085754 0.167155 
214.121994 0.095663 
215.058609 0.398724 
215.081924 0.181543 
215.117798 0.418518 
216.090179 0.131189 
216.138702 0.165884 
216.96936 0.237504 
217.040604 0.19247 
217.07431 0.638624 
217.098297 0.142889 
217.8181 0.198401 
218.042267 0.218977 
218.066437 0.783002 
218.080612 0.163538 
218.117645 0.774387 
218.821182 0.034562 
219.002411 0.042881 
219.019943 3.598133 
219.038254 1.164325 
219.053879 0.039268 
219.090225 0.359567 
219.112823 0.330405 
219.149277 0.553009 
219.666077 0.034148 
219.953003 0.035206 
220.020874 5.074945 
220.039581 1.233595 
220.062195 0.292781 
220.081848 3.804322 
220.094315 0.117901 
220.132645 0.05669 
220.144257 0.168784 
221.01709 13.319335 
221.034378 0.051658 
221.06813 0.264548 
221.084152 0.085155 
221.09111 0.13599 
221.107346 0.083955 
221.119507 0.082107 
221.129532 0.067927 
221.968689 0.038527 
222.018433 7.389143 
222.043152 0.05963 
222.061142 0.104451 
222.097549 1.768815 
222.12793 0.251091 
222.898621 2.023141 
223.014435 3.004179 
223.082336 0.056798 
223.122757 0.083745 
223.513229 0.03642 
223.900269 0.37372 
223.92894 0.667718 
224.058929 0.063328 
224.106537 0.513019 
224.899078 0.197265 
224.936829 2.008687 
225.043076 0.04746 
225.102554 0.317838 
225.125778 0.21963 
225.138229 0.179564 
225.330399 0.085033 
225.77565 0.085261 
225.9254 1.633182 
226.074677 0.066057 
226.086258 0.347836 
226.122284 0.275809 
226.935516 0.653466 
227.021606 0.084034 
227.059021 1.302379 
227.082611 0.089259 
227.11705 0.438608 
227.93512 0.132314 
228.054184 0.072765 
228.088867 0.045179 
228.297699 0.151705 
228.930923 0.17654 
229.074387 0.73067 
229.842926 0.038251 
231.053284 0.150755 
231.090378 0.033823 
232.084137 0.062474 
232.96431 0.735865 
233.013245 0.038361 
233.03511 0.045962 
233.095001 0.072352 
233.128571 0.504413 
234.959824 0.081709 
234.980499 0.079055 
235.033112 0.291603 
236.03511 0.090216 
236.081161 0.075828 
236.094742 0.048524 
236.106766 0.088485 
237.100845 0.228226 
237.124237 0.075248 
237.913116 0.497156 
238.092438 0.616812 
238.107788 0.045172 
238.144241 0.1347 
239.058487 0.076367 
239.082153 0.135566 
239.093475 0.08287 
239.117447 0.564364 
240.102524 0.193556 
240.126221 0.174933 
240.909103 5.2902 
240.951401 0.037471 
241.073395 0.09907 
241.09671 0.321216 
241.133392 0.312489 
241.283844 0.032168 
241.910522 1.639341 
241.940186 0.048504 
242.10495 0.052219 
242.909836 2.098301 
242.945755 0.04205 
243.020218 0.138758 
243.088623 0.047308 
243.113327 0.217666 
243.147873 0.0439 
243.935898 0.090834 
244.021271 0.128498 
244.060394 0.043634 
244.085617 0.065874 
245.017532 0.663251 
245.068954 0.575741 
245.105789 0.100334 
245.90274 0.037424 
246.018997 0.299916 
246.910416 0.032122 
247.084076 0.115818 
247.123184 0.081626 
247.148071 0.073916 
249.845123 0.05302 
250.933334 0.096018 
250.974304 0.220556 
251.057541 0.462667 
251.105072 0.109403 
251.117798 0.189335 
251.621796 0.034707 
252.439819 0.052942 
252.970139 0.108413 
253.097214 0.427198 
253.133118 0.375037 
255.112228 0.252182 
255.149231 0.136819 
255.923798 0.797262 
257.131134 0.918017 
257.250397 0.084091 
259.083893 0.059294 
261.030457 2.690337 
261.043701 0.042059 
262.031433 5.266674 
263.027557 11.619881 
263.081329 0.087973 
263.978149 0.041209 
264.029266 8.620957 
264.921387 0.050882 
264.990234 0.086085 
265.025024 2.899026 
265.131287 0.150094 
265.924011 0.038998 
265.939636 0.837738 
267.075378 0.046588 
267.112152 0.09225 
267.856323 0.247629 
267.935852 0.776071 
268.944305 0.085737 
269.128967 0.196083 
270.943665 0.032793 
271.865692 0.037713 
273.002411 0.033416 
274.129974 0.049224 
274.975372 0.096479 
275.14093 0.099579 
275.843811 0.125865 
276.047882 0.043779 
277.043884 0.155055 
277.100677 0.03541 
278.044739 0.144266 
279.640839 0.182916 
279.923523 1.406036 
281.104584 0.054561 
281.227142 0.032387 
281.911469 0.184624 
282.914001 0.094821 
283.143433 0.049411 
283.188904 0.067657 
285.027527 0.252405 
285.815277 0.038785 
290.154846 0.039869 
290.947235 0.036356 
293.087494 0.392053 
294.036804 0.040339 
295.366943 0.034279 
297.934235 1.248317 
298.374878 0.124789 
300.317688 0.031904 
301.074219 0.036987 
302.818237 0.4732 
315.661041 0.03202 
317.581299 0.120722 
320.691376 0.032337 
323.77179 0.040831 
325.751434 0.036096 
333.164764 0.040272 
334.940826 0.040979 
337.201904 0.063711 
338.076874 0.04038 
339.040985 0.147603 
345.524506 0.130513 
347.617279 0.036392 
353.572357 0.060808 
359.260345 0.039633 
359.572937 0.03678 
360.82901 0.137285 
366.306152 0.053521 
367.821747 0.085648 
370.486237 0.071659 
377.724304 0.035754 
379.422577 0.08119 
390.639221 0.036272 
390.669922 0.043019 
402.533325 0.034399 
402.996521 0.034827 
404.65271 0.033006 
406.502747 0.033512 
408.840668 0.039043 
END IONS

