BEGIN IONS
PEPMASS=177.016
CHARGE=1+
COMPOUNDNAME=Patulin
LIBRARYQUALITY=3
SMILES=N/A
INCHIKEY=ZRWPUFFVAOMMNM-UHFFFAOYSA-N
INCHI=InChI=1S/C7H6O4/c8-6-3-4-5(11-6)1-2-10-7(4)9/h1,3,7,9H,2H2
MSLEVEL=2
SOURCE_INSTRUMENT=N/A-ESI-QFT
FILENAME=library_mgf.mgf
SEQ=*..*
IONMODE=positive
ORGANISM=MONA
NAME=Patulin [M+Na]+
PI=MoNA
DATACOLLECTOR=MoNA:VF-NPL-QEHF025934
PUBMED=N/A
SUBMITUSER=mwang87
TAGS=
SPECTRUMID=CCMSLIB00004716997
SCANS=25934
50.334118 0.014098 
50.811634 0.007752 
51.224686 0.009048 
53.237328 0.027768 
53.450886 0.03643 
54.937115 0.033483 
55.054691 0.011088 
56.04974 0.007769 
56.111023 0.020073 
56.965027 2.656909 
57.482548 0.030211 
57.69836 0.010707 
57.976757 0.01271 
58.015461 0.026961 
58.065208 0.046006 
58.180473 0.013685 
58.988125 0.234835 
59.405376 0.029988 
59.551899 0.020369 
59.833328 0.008235 
59.922993 0.007389 
60.044559 0.010298 
60.055866 1.845013 
60.106709 0.007806 
60.92078 0.02922 
61.010902 0.655558 
61.332596 0.030205 
62.018677 0.294902 
62.166283 0.032354 
62.211723 0.017932 
62.727978 0.027267 
62.864487 0.008153 
62.989952 0.008575 
63.006535 0.01047 
63.764423 0.026355 
66.910439 0.010461 
67.053871 0.017192 
67.08255 0.021077 
67.429749 0.033526 
67.881012 0.034343 
67.993172 0.600893 
69.486694 0.116092 
70.065163 3.77394 
70.067177 0.029332 
70.680176 0.021893 
70.958054 0.024102 
71.643761 0.02445 
71.951874 0.093733 
72.065956 0.020334 
72.080719 0.009753 
72.801666 0.0169 
73.467667 0.011375 
74.375328 0.02379 
75.749306 0.010356 
76.050575 0.031459 
76.990791 0.016205 
76.998222 3.105438 
77.004883 0.023879 
77.996284 0.028817 
78.304916 0.016317 
78.490829 0.018089 
79.021141 0.433418 
79.05407 0.08753 
79.589378 0.00806 
80.049515 0.019635 
81.069794 0.180165 
83.644226 0.016211 
84.11985 0.016509 
84.299873 0.011396 
85.03978 0.010872 
85.868195 0.014531 
86.003555 6.296951 
86.059959 0.009909 
87.001511 0.262907 
87.044067 0.011527 
87.157578 0.018112 
89.059517 0.037606 
89.979103 0.150015 
90.482872 1.996189 
90.490974 0.013414 
91.054222 0.233811 
91.48069 0.015034 
91.976448 0.046476 
93.011292 0.035742 
93.069977 0.280289 
93.885338 0.013604 
94.043121 0.010087 
94.142738 0.027145 
94.482033 0.018816 
95.008827 1.768105 
95.085434 0.158973 
96.949081 0.012087 
97.548431 0.014096 
97.986176 0.022698 
97.994553 4.671114 
98.003891 0.022638 
98.496437 0.031513 
98.881905 0.014641 
98.923584 0.022516 
98.93338 0.030219 
98.940491 0.03564 
98.948227 0.071736 
98.957756 0.107748 
98.966492 0.204153 
98.975311 44.549355 
98.984772 0.257864 
98.992455 0.407084 
98.995934 0.120648 
99.003761 0.077247 
99.012268 0.025517 
99.019371 0.031612 
99.027138 0.022895 
99.044022 0.014973 
99.078606 0.018025 
99.127991 0.01603 
99.453606 0.022919 
99.461121 0.017349 
99.470856 0.033405 
99.477722 0.093939 
99.479584 0.109035 
99.488113 15.903591 
99.49791 0.091199 
99.500114 0.075131 
99.507401 0.029488 
99.525055 0.017225 
99.532654 0.017832 
99.789337 0.013471 
99.978615 0.830247 
99.986717 0.021247 
99.989876 0.207918 
100.345116 0.034338 
100.486092 1.724272 
100.738663 0.017057 
100.981773 0.052764 
100.985611 0.035937 
100.994377 0.091556 
101.003098 10.467363 
101.014694 0.030851 
101.484482 0.232074 
103.150269 0.010956 
103.526779 0.014867 
103.753624 0.034287 
105.069832 0.236969 
106.496071 0.227044 
106.967819 0.015626 
106.97702 0.023263 
106.987061 0.07369 
106.999893 46.197796 
107.007919 0.137948 
107.028618 0.017955 
107.085564 0.014798 
107.260361 0.009078 
107.501991 1.590131 
107.578583 0.010285 
107.989548 0.676852 
107.997864 4.848445 
108.001808 0.275377 
108.382912 0.015034 
108.392685 0.016518 
108.403358 0.014652 
108.440239 0.022023 
108.450363 0.023574 
108.46019 0.029669 
108.47068 0.088008 
108.4804 0.14134 
108.493454 50.309902 
108.501961 0.229988 
108.511536 0.084122 
108.514091 0.084689 
108.521301 0.072642 
108.532631 0.029054 
108.540733 0.027982 
108.549789 0.015629 
108.562561 0.01793 
108.578873 0.016833 
108.996025 1.933914 
109.491402 4.771333 
109.495232 0.254844 
109.758934 0.034079 
109.993294 0.021997 
110.489815 1.22645 
110.648918 0.014009 
110.998238 0.024155 
112.135551 0.016188 
113.070908 2.14147 
114.007782 0.891738 
114.055092 0.189375 
114.074074 0.010574 
114.586716 0.023058 
114.986244 0.009012 
115.086792 0.128303 
115.339432 0.016464 
115.380249 0.018848 
115.392021 0.017407 
115.434326 0.019712 
115.443115 0.015591 
115.485672 0.018483 
115.501389 1.337083 
115.548355 0.019546 
115.568573 0.019457 
115.579979 0.01888 
115.601402 0.015517 
115.633362 0.019154 
115.664864 0.02961 
115.67411 0.027007 
115.683685 0.023191 
115.696495 0.021223 
115.704849 0.032026 
115.705727 0.031542 
115.707832 0.024489 
115.716667 0.028589 
115.727409 0.020472 
115.738419 0.029475 
115.747368 0.021279 
115.75737 0.020206 
115.76812 0.026526 
115.770584 0.02565 
115.779434 0.024329 
115.789085 0.018831 
115.792168 0.027959 
115.80114 0.029418 
115.811691 0.068788 
115.822517 0.033705 
115.833107 0.034279 
115.844688 0.066664 
115.855835 0.063591 
115.865631 0.088438 
115.875771 0.08763 
115.886513 0.098007 
115.894966 0.082655 
115.897202 0.091673 
115.905609 0.105426 
115.907745 0.098684 
115.918228 0.116475 
115.926582 0.130655 
115.929214 0.136929 
115.938278 0.184778 
115.949501 0.191808 
115.958618 0.223948 
115.960732 0.235511 
115.969566 0.295398 
115.971443 0.316449 
115.981636 0.494825 
115.9925 0.850162 
116.005234 100.0 
116.016182 1.084171 
116.026955 0.459505 
116.029114 0.433833 
116.037727 0.326823 
116.048187 0.225799 
116.050591 0.222608 
116.058708 0.196624 
116.070641 0.750447 
116.08049 0.148605 
116.091171 0.131524 
116.101402 0.107052 
116.113686 0.112229 
116.122292 0.075445 
116.124496 0.075324 
116.133011 0.083904 
116.145737 0.074401 
116.153122 0.047112 
116.154663 0.035008 
116.165413 0.034641 
116.176247 0.038444 
116.187347 0.069039 
116.197273 0.028463 
116.208359 0.036088 
116.218727 0.029256 
116.230347 0.062447 
116.239388 0.029229 
116.250374 0.034136 
116.260719 0.029011 
116.272865 0.022439 
116.281479 0.028944 
116.293709 0.018786 
116.304482 0.017214 
116.314774 0.026867 
116.323265 0.014811 
116.325729 0.014592 
116.334969 0.018267 
116.346001 0.021868 
116.356148 0.018661 
116.367058 0.021495 
116.377342 0.017924 
116.388206 0.01768 
116.396965 0.018074 
116.410217 0.01591 
116.419632 0.017342 
116.429558 0.022524 
116.483139 0.030782 
116.492538 0.065983 
116.507126 4.192516 
116.517792 0.078492 
116.961227 0.026553 
116.972893 0.101007 
116.985893 19.636568 
117.003082 10.78053 
117.014931 0.037681 
117.017799 0.033344 
117.028778 0.032505 
117.038574 0.017832 
117.054497 0.031606 
117.071915 0.022242 
117.473907 0.023458 
117.486267 0.093846 
117.498726 10.347818 
117.510513 0.11867 
117.520294 0.037135 
117.524422 0.023552 
117.53302 0.024703 
117.554543 0.016388 
117.564026 0.01956 
117.587509 0.015747 
117.641693 0.021572 
117.989235 0.308637 
118.001587 2.605606 
118.048958 0.009921 
118.085983 0.026061 
118.296158 0.031817 
118.496689 0.866157 
118.508965 0.039387 
118.999077 0.037465 
119.018837 0.044477 
119.085472 0.394232 
119.495049 0.012486 
120.001373 0.008649 
120.080872 0.014153 
121.028267 0.033626 
121.442917 0.034786 
123.012932 2.698675 
123.09153 0.059162 
123.99176 0.015633 
124.010925 0.089381 
124.506485 0.113998 
124.985695 0.026582 
124.998199 0.075588 
125.010391 9.838468 
125.025757 0.03205 
125.037987 0.016966 
125.438965 0.011666 
125.51194 0.257305 
125.561516 0.00836 
126.008301 0.95574 
126.174583 0.022978 
126.503021 0.035071 
126.50882 0.042502 
127.00647 0.08052 
127.51313 0.18957 
129.489944 0.123205 
131.001526 0.250588 
132.018204 0.073369 
132.080612 0.178863 
132.95813 0.64104 
133.101105 0.516233 
134.978867 0.095069 
134.996384 5.700134 
135.043701 0.035777 
135.999817 0.012826 
136.086777 0.033748 
137.001541 0.224306 
137.01178 0.010653 
138.495163 0.285532 
142.596878 0.042744 
144.101669 0.02166 
144.935394 0.01096 
146.007172 0.153332 
146.888611 0.032214 
147.117386 0.049111 
149.012115 0.040127 
150.950333 0.021136 
150.968872 0.462352 
153.007019 0.164666 
153.337891 0.015166 
153.361603 0.008151 
153.941269 0.033693 
155.739105 0.035129 
158.986694 0.008462 
159.076141 0.771677 
159.17627 0.01088 
160.111465 0.010261 
164.046768 0.026775 
164.441055 0.009599 
170.358688 0.028372 
170.957428 0.0278 
175.147964 0.550372 
175.641205 0.014497 
176.071152 0.022289 
176.106812 0.009051 
176.127716 0.098236 
176.143326 0.352494 
176.151169 0.014732 
176.989334 0.128141 
177.065796 0.048263 
177.102295 0.470232 
177.11322 0.069259 
178.086136 0.03222 
178.108826 0.06139 
178.123413 0.334346 
178.13382 4.891532 
178.142044 0.094995 
178.158615 0.103329 
179.06282 0.015194 
179.070374 0.017441 
179.137177 0.013455 
179.490433 0.015233 
182.923599 0.01588 
184.052521 0.008183 
188.656464 0.037181 
194.999496 0.104175 
196.746109 0.013214 
199.621948 0.008862 
END IONS

