BEGIN IONS
PEPMASS=343.139
CHARGE=1+
COMPOUNDNAME=USNIC ACID
LIBRARYQUALITY=3
SMILES=N/A
INCHIKEY=CUCUKLJLRRAKFN-UHFFFAOYSA-N
INCHI=InChI=1S/C18H16O7/c1-6-14(22)12(8(3)20)16-13(15(6)23)18(4)10(25-16)5-9(21)11(7(2)19)17(18)24/h5,11,22-23H,1-4H3
MSLEVEL=2
SOURCE_INSTRUMENT=N/A-Linear Ion Trap
FILENAME=library_mgf.mgf
SEQ=*..*
IONMODE=negative
ORGANISM=MONA
NAME=USNIC ACID M-H
PI=MoNA
DATACOLLECTOR=MoNA:VF-NPL-LTQ006376
PUBMED=N/A
SUBMITUSER=mwang87
TAGS=
SPECTRUMID=CCMSLIB00004689863
SCANS=5484
228.949997 16.078531 
256.890015 8.42448 
256.980011 47.71217 
268.950012 100.0 
284.950012 36.050217 
286.160004 3.665945 
301.140015 78.116249 
END IONS

