BEGIN IONS
PEPMASS=357.094
CHARGE=1+
COMPOUNDNAME=bisdethiobis(methylthio)gliotoxin
LIBRARYQUALITY=3
SMILES=N/A
INCHIKEY=OVBAGMZLGLXSBN-UOVKNHIHSA-N
INCHI=InChI=1S/C15H20N2O4S2/c1-16-12(20)14(22-2)7-9-5-4-6-10(19)11(9)17(14)13(21)15(16,8-18)23-3/h4-6,10-11,18-19H,7-8H2,1-3H3/t10-,11-,14+,15+/m0/s1
MSLEVEL=2
SOURCE_INSTRUMENT=N/A-ESI-QFT
FILENAME=library_mgf.mgf
SEQ=*..*
IONMODE=positive
ORGANISM=MONA
NAME=bisdethiobis(methylthio)gliotoxin [M+H]+
PI=MoNA
DATACOLLECTOR=MoNA:VF-NPL-QEHF024561
PUBMED=N/A
SUBMITUSER=mwang87
TAGS=
SPECTRUMID=CCMSLIB00004715624
SCANS=24561
50.168648 0.460706 
51.523502 0.189604 
51.831215 0.22657 
51.940353 7.482941 
52.212234 0.24795 
52.371136 0.117169 
52.99826 0.273626 
53.002613 1.647515 
53.038933 8.963849 
54.034237 1.810048 
54.051235 0.210739 
54.937859 0.281183 
55.018188 7.928245 
55.041992 10.50606 
55.054558 22.626947 
55.46616 0.124058 
55.934757 3.606848 
56.049805 39.2113 
56.057907 0.406331 
56.965115 4.343568 
56.972324 0.138755 
57.032318 0.130413 
57.03384 6.087007 
57.053192 0.521299 
57.070183 15.335671 
57.935097 2.605865 
58.029064 1.857016 
58.065422 13.216767 
58.442856 0.398234 
58.877968 0.146336 
58.932888 0.204976 
59.02795 0.229242 
59.049431 9.58543 
59.855438 0.113388 
59.930569 0.246536 
60.044708 1.21356 
60.055962 0.193879 
61.010891 34.472088 
61.012547 0.789159 
61.028736 4.684211 
62.018734 8.168729 
62.990044 0.413551 
63.006687 0.471142 
63.023594 0.145229 
63.02655 6.314155 
63.581768 0.131761 
64.303284 0.442167 
65.038803 9.378464 
67.013374 0.227627 
67.018013 0.343408 
67.041939 0.140302 
67.05442 17.299278 
68.013405 0.234335 
68.049667 9.729213 
68.057724 0.295842 
68.256874 0.194199 
68.466209 0.22274 
68.756752 0.23567 
68.942955 0.200915 
68.997368 0.213725 
69.03363 14.884191 
69.045097 0.175887 
69.070007 13.823966 
69.179596 0.292532 
69.733765 0.190059 
70.0289 5.538351 
70.065247 100.0 
70.405586 0.325444 
70.958008 1.911356 
71.012856 0.606243 
71.036682 17.362316 
71.049294 7.172893 
71.060562 0.139815 
71.068672 2.147643 
71.085701 4.104242 
71.127472 0.122124 
71.862007 0.213369 
72.044502 27.960459 
72.080856 8.814647 
72.554733 0.211448 
72.937187 7.115613 
73.010773 0.459435 
73.028534 2.485876 
73.046867 16.209757 
73.064873 0.540977 
74.005981 0.696984 
74.046501 0.601596 
74.060127 1.708492 
74.83989 0.437442 
74.990074 2.108636 
75.026146 0.304354 
75.044128 1.156749 
77.03875 0.703838 
77.249893 0.253031 
77.360504 0.11598 
78.038902 0.229036 
79.021202 9.460818 
79.054321 27.073191 
80.049515 13.105182 
80.057899 0.179198 
81.033577 23.596233 
81.044861 5.549298 
81.057411 0.51668 
81.069969 12.936584 
82.028793 1.82275 
82.037033 0.263017 
82.041534 0.555663 
82.052711 0.617229 
82.065178 15.934165 
83.01297 0.929465 
83.049187 20.030901 
83.060463 6.253213 
83.085648 1.693664 
83.776611 0.253315 
84.044487 9.014013 
84.052498 0.27035 
84.078148 0.166416 
84.080879 28.521748 
84.698029 0.142487 
85.028564 4.803521 
85.039818 2.608469 
85.064888 1.847467 
85.07621 0.580821 
85.084282 0.637699 
86.060127 6.473456 
86.096481 7.31811 
87.013931 0.499895 
87.044144 32.316807 
87.426109 0.217413 
87.990562 0.246495 
88.021584 12.29751 
88.075745 6.057273 
89.005646 2.481184 
89.038605 2.489451 
89.059799 7.571427 
90.034332 0.138183 
90.037422 1.208162 
90.947899 3.568378 
91.054329 32.485268 
91.057503 33.651814 
91.229698 0.15469 
91.583488 0.165162 
92.049576 4.877999 
92.057388 4.162914 
92.060684 0.730501 
92.982956 0.318389 
93.033615 1.772407 
93.036743 0.132423 
93.054398 0.7947 
93.057503 2.660141 
93.069977 10.934541 
94.028839 3.094504 
94.041367 1.272588 
94.06517 14.540724 
95.012894 2.694222 
95.049232 25.398699 
95.057526 0.169333 
95.060471 6.062148 
95.073013 0.152813 
95.085655 6.901762 
96.044418 9.46532 
96.052704 0.164658 
96.06826 0.489921 
96.080803 9.356573 
97.028534 11.39614 
97.039688 1.412978 
97.064919 2.116137 
97.076248 2.301974 
97.991425 0.355838 
98.023651 1.348738 
98.060081 8.548739 
98.096542 2.151507 
98.222031 0.224656 
98.97538 3.83563 
99.008194 0.146281 
99.044151 2.996032 
99.055397 1.613971 
100.021759 0.130274 
100.039459 3.020229 
100.075806 3.526381 
101.047447 0.292113 
101.059929 0.65563 
101.551117 0.451712 
101.69828 0.326457 
102.037369 1.113878 
102.055145 0.307624 
102.091423 0.517331 
102.394264 0.30571 
103.039093 2.045715 
103.054298 12.312391 
104.049538 31.115097 
104.057549 0.143462 
104.107368 0.366886 
104.563889 0.426027 
105.03363 9.497963 
105.044876 3.368186 
105.0532 0.900135 
105.057449 6.724761 
105.070015 19.673374 
105.934311 0.205547 
106.029007 0.164975 
106.065262 45.701984 
106.073425 0.475869 
106.086128 0.231868 
107.049248 34.505013 
107.060593 0.605107 
107.068741 1.210782 
107.072998 0.827129 
107.085709 2.153439 
108.044464 10.318669 
108.052658 0.773408 
108.080833 8.181588 
108.958504 0.230029 
109.028503 8.588209 
109.039856 0.139909 
109.05249 0.957221 
109.064911 3.147618 
109.076279 2.252505 
109.08902 0.17863 
109.101479 0.721892 
110.023994 0.161631 
110.036255 2.728143 
110.060196 11.691768 
110.071609 0.907403 
110.096535 2.914997 
111.026497 0.135354 
111.044121 12.927726 
111.051178 0.356459 
111.055374 45.190197 
112.039482 2.65294 
112.050949 0.233112 
112.05867 0.91412 
112.063133 1.14759 
112.075829 3.94653 
112.087036 1.529751 
112.112267 0.165241 
113.034927 0.272117 
113.059715 0.196567 
113.071007 0.996893 
114.055161 0.977768 
114.091545 1.476723 
114.103218 0.23458 
115.039124 0.479472 
115.054382 8.847705 
116.002228 0.332562 
116.049568 12.014979 
116.07074 0.731824 
116.963882 0.15693 
116.985741 2.34637 
117.057358 16.044395 
117.070084 4.519173 
118.060822 1.099526 
118.065201 41.751095 
118.086258 5.766929 
119.036491 0.218306 
119.049263 8.61603 
119.060684 0.830905 
119.068657 1.242981 
119.073189 2.403267 
119.085815 2.331053 
120.044228 10.017497 
120.068253 0.226265 
120.080833 13.98385 
120.941071 0.289641 
121.028511 5.029044 
121.040237 0.450593 
121.052467 0.913171 
121.064896 8.853998 
121.076309 2.33114 
121.08857 0.757844 
121.101311 0.169871 
121.211296 0.26396 
122.023766 0.209349 
122.060127 23.917908 
122.071449 1.633679 
122.084015 0.382537 
122.096481 8.16147 
123.007851 3.590915 
123.044136 9.152109 
123.055382 2.002001 
123.068199 0.59999 
123.079384 1.505081 
123.091827 2.774421 
124.039375 9.611936 
124.051956 3.584411 
124.06321 5.353536 
124.075752 9.518979 
125.023499 0.901965 
125.059952 0.691115 
125.071114 4.189841 
125.078995 0.283289 
126.018661 2.953377 
126.055092 6.545258 
126.091576 2.995287 
126.296844 0.145089 
127.05024 9.358266 
128.049576 3.548853 
128.062195 0.885034 
128.070663 0.630375 
128.963745 0.579661 
129.0121 0.660955 
129.070099 3.957419 
130.065262 32.820858 
131.000504 0.435559 
131.036865 0.409569 
131.049194 6.057926 
131.060562 0.441822 
131.068542 1.361463 
131.073349 0.932813 
131.085754 0.530153 
132.039047 0.989503 
132.044495 65.066429 
132.056778 0.146063 
132.06839 1.945565 
132.080841 6.266349 
132.958374 0.579805 
133.039871 0.194458 
133.047516 2.901857 
133.052414 15.909858 
133.06485 5.370402 
133.076172 4.502975 
133.253693 0.124535 
134.012573 0.245999 
134.036789 0.158309 
134.054596 0.629302 
134.06012 75.413292 
134.096512 13.852722 
134.956177 1.203764 
134.996429 0.674304 
135.044205 2.310955 
135.055573 0.706342 
135.06337 3.52145 
135.068436 0.249608 
135.080231 0.779774 
135.091904 3.569035 
136.039352 8.855632 
136.062332 0.844359 
136.075851 13.958871 
136.112198 3.192553 
137.005402 0.142019 
137.042511 0.140328 
137.05983 8.017781 
137.071152 1.627573 
137.083893 0.149277 
137.107712 0.427106 
138.055161 6.266111 
138.067291 0.159282 
138.091446 1.734546 
138.127609 0.286816 
138.83699 0.126076 
139.039291 0.222095 
139.050278 20.175753 
139.086838 0.999317 
139.979752 0.175379 
140.034271 0.53326 
140.058441 1.148942 
140.07074 2.221186 
140.984253 0.186654 
141.065613 4.748067 
141.070847 0.278141 
141.102386 0.405572 
141.150085 0.121667 
142.020111 0.26421 
142.06543 3.106932 
142.086563 0.567647 
143.000351 0.140275 
143.027603 4.655758 
143.060532 0.277461 
143.073227 0.960221 
143.085831 0.558903 
144.038208 0.236938 
144.04451 59.730824 
144.068146 0.292744 
144.080872 7.430288 
144.958664 0.156275 
145.028763 0.714041 
145.047714 2.651515 
145.052933 0.545444 
145.065002 2.340607 
145.076309 3.302543 
146.06015 38.840691 
146.084412 0.392512 
146.096725 2.536646 
146.974533 5.600979 
147.031693 1.390169 
147.04425 3.033575 
147.05571 1.774516 
147.062927 0.720965 
147.068405 0.762422 
147.080811 0.46171 
147.091797 11.899717 
147.104584 0.273875 
148.039398 8.972338 
148.062469 0.879742 
148.075836 11.129803 
148.099945 0.748573 
148.112366 1.370584 
148.145477 0.163646 
148.972137 1.80799 
149.047287 4.416741 
149.059952 0.946502 
149.071152 6.676517 
149.08432 0.214244 
149.107849 1.410995 
150.055084 80.772049 
150.079178 0.381126 
150.091492 7.209948 
150.951233 3.967747 
150.96904 0.67529 
151.05162 0.311578 
151.058395 6.190209 
151.086716 4.91808 
151.123245 3.308482 
152.053482 0.196938 
152.070923 4.291707 
152.082397 0.218071 
152.107239 1.011205 
152.95192 0.413012 
152.99971 0.171839 
153.037445 0.315812 
153.065674 0.354986 
153.959351 3.688956 
154.050201 0.158919 
154.065353 2.182895 
154.086594 0.158206 
154.12236 0.28647 
154.94722 0.79378 
155.033951 1.914042 
155.060532 0.917059 
155.953949 0.155916 
156.044418 1.493182 
156.06842 0.401003 
156.080978 3.78598 
157.043152 19.110392 
157.065201 1.297236 
157.076309 3.293352 
157.089172 0.15777 
158.060303 9.573818 
158.08429 0.319147 
158.09671 2.986748 
159.03157 0.150777 
159.04422 0.162219 
159.055618 0.998531 
159.068756 0.188795 
159.091858 8.990253 
160.039474 38.945648 
160.05191 0.596816 
160.063431 1.478692 
160.075806 8.900089 
160.112488 1.681898 
161.041534 0.233701 
161.047897 2.616433 
161.059906 2.047886 
161.071014 9.195843 
161.096558 0.193234 
161.107742 0.488515 
162.055038 28.766632 
162.078369 3.430503 
162.091324 15.435846 
163.050919 1.231404 
163.058228 0.227671 
163.087006 3.965498 
163.099167 0.261032 
163.123154 1.218688 
164.034378 1.351488 
164.057663 0.448187 
164.07074 4.819593 
164.082413 1.582816 
164.093887 0.251702 
164.10733 3.881351 
165.066086 0.309482 
165.102798 0.884635 
166.0327 0.248577 
166.050278 2.804443 
166.086197 0.755121 
166.098221 0.881536 
166.123154 0.259112 
167.060516 0.231785 
167.073059 0.642677 
168.066025 4.195817 
168.080841 1.567295 
168.102081 0.332457 
168.9617 0.701235 
169.060303 0.308099 
169.076218 12.614215 
169.08371 0.294335 
170.060379 2.925913 
170.079437 0.677649 
170.096832 2.515966 
170.117813 0.288954 
171.055511 1.942116 
171.080704 0.261608 
171.091888 2.631193 
172.039276 15.322491 
172.063019 1.046946 
172.076065 4.379027 
172.112198 0.465867 
172.260193 0.517575 
173.071182 5.308632 
173.083725 0.177971 
173.107544 1.603747 
174.055176 14.105751 
174.079086 3.574975 
174.09169 2.826741 
175.058456 0.217292 
175.086777 28.613068 
176.016312 0.36704 
176.034454 1.521699 
176.058182 0.409883 
176.07106 3.089188 
176.089996 1.142083 
176.107285 2.849357 
177.04306 0.569474 
177.065948 13.090042 
177.102509 2.406973 
178.050064 19.514992 
178.073517 0.795754 
178.086517 5.107391 
178.097168 0.608469 
178.892929 5.885959 
179.053329 0.469786 
179.11821 0.239183 
179.953842 0.231148 
179.969696 0.195501 
180.048553 0.272791 
180.06601 0.567241 
180.081253 0.701901 
180.102234 1.43478 
180.888321 6.533109 
181.075897 0.577789 
181.098145 0.260188 
182.061142 0.754211 
182.083023 0.799236 
182.096695 0.630898 
183.055756 0.355082 
183.092087 1.028898 
184.063354 2.850897 
184.076096 3.15801 
184.112228 0.455845 
185.04718 0.426418 
185.060913 0.201718 
185.07103 11.127146 
185.107681 1.823666 
186.055176 2.141929 
186.079071 5.934962 
186.091537 3.354003 
187.0504 2.242024 
187.077667 0.171004 
187.086761 13.864495 
187.123276 0.646745 
188.034561 0.983305 
188.058441 2.554675 
188.070786 2.386755 
188.090073 0.194446 
188.107391 1.949796 
189.054901 4.506701 
189.06604 5.879292 
189.102402 0.818531 
190.032806 0.16321 
190.049927 3.790759 
190.074005 1.085259 
190.086227 0.498636 
190.122589 0.165045 
191.046417 0.216784 
191.072098 0.469209 
191.081863 4.519222 
191.117584 0.319748 
191.552719 0.140646 
191.881195 0.581796 
192.066055 1.683984 
192.102127 1.239691 
193.061081 0.867753 
193.076263 0.469387 
193.097717 0.65794 
194.096878 0.990981 
194.118286 0.671332 
195.091827 5.887908 
196.075989 1.056767 
196.112518 0.604166 
196.904007 0.384973 
197.071426 2.898757 
197.107346 0.508064 
197.906998 0.303865 
198.079926 0.691465 
198.091614 3.053955 
198.11351 1.883166 
198.898163 0.163182 
199.051514 0.194213 
199.063248 0.153184 
199.086777 1.890922 
199.123367 1.524988 
199.548615 0.160453 
200.058289 5.742876 
200.070145 1.064448 
200.107239 1.235923 
201.065887 5.345268 
201.103012 0.236255 
202.050186 0.366804 
202.073944 6.413297 
202.086121 0.243373 
202.098083 0.183167 
203.081726 27.229004 
203.118118 0.236213 
203.143463 0.235665 
204.065201 0.290138 
204.10144 0.685886 
205.061218 1.572116 
205.097549 4.937406 
206.051834 0.204158 
206.083984 0.719324 
206.1185 0.280424 
207.091904 1.247927 
207.113754 0.374399 
208.097809 0.135041 
209.082764 0.259258 
209.107437 0.450381 
209.891647 0.242076 
210.091141 1.296295 
210.74292 0.185055 
211.0867 2.110774 
211.123444 0.397921 
211.871902 1.262041 
212.070404 0.552239 
212.1073 0.690537 
212.128204 0.302794 
213.06601 6.052535 
213.102295 1.147916 
213.113342 0.148265 
214.073944 10.77755 
214.08551 2.118613 
214.122894 0.185141 
215.045258 0.25736 
215.08165 19.630018 
216.053253 2.076708 
216.085632 1.456257 
216.101883 1.143009 
217.061127 2.607971 
217.09726 16.753132 
217.990738 0.166515 
218.100937 0.384115 
218.117432 0.566642 
219.076767 2.011203 
219.091995 0.265323 
219.174271 0.234136 
219.741623 1.470859 
220.005142 0.13825 
220.0979 0.240248 
220.90387 2.176748 
221.081894 0.466364 
221.107559 1.040458 
222.021652 0.604728 
222.078857 0.320745 
222.090744 0.492832 
222.11496 0.552238 
222.898773 9.691065 
223.086487 0.675058 
223.098923 0.244763 
223.123352 0.378415 
224.106842 0.433409 
224.899536 1.464576 
225.065369 0.321044 
225.102676 0.363247 
226.086273 0.95066 
227.081985 2.568359 
227.117889 1.208601 
228.102051 0.377982 
229.061096 0.425336 
229.097565 0.209232 
230.06813 0.465544 
231.076462 14.598679 
231.088776 0.454424 
232.083817 0.264727 
233.092255 9.338992 
234.046158 0.165187 
235.053482 0.185525 
235.086868 0.703144 
235.123535 0.154347 
236.061478 3.912564 
236.093903 0.152018 
236.107025 0.198427 
236.131195 0.164983 
237.101562 0.755977 
237.138748 3.803661 
238.086243 0.323174 
238.914062 3.755364 
239.082626 0.184986 
239.11792 0.503043 
240.101959 0.915255 
240.909317 19.128201 
241.005234 0.156585 
241.097763 0.341812 
241.910858 0.797892 
242.117935 0.258148 
242.909698 8.009258 
243.076462 4.329656 
243.090073 0.173803 
243.11235 0.217053 
245.055283 0.169097 
247.108871 0.381251 
249.102936 0.1843 
251.084122 0.759842 
251.118378 0.493931 
251.155258 0.84273 
252.102005 0.265231 
253.097824 0.309021 
253.13385 0.988278 
255.113464 0.250746 
257.093384 0.221948 
257.867889 0.148883 
257.896484 0.143684 
263.117981 0.18429 
264.10199 0.246679 
265.118774 4.775154 
265.133362 0.273442 
267.149963 0.209285 
268.978729 5.960362 
269.128906 0.31799 
269.978638 4.52669 
270.976166 1.024834 
280.813446 2.140513 
281.12854 0.18393 
282.814453 0.162739 
283.183411 0.267575 
283.821075 0.553127 
285.122406 0.199553 
286.84259 0.386027 
292.814087 1.216435 
294.059204 0.24535 
294.123932 0.316975 
295.553162 0.232382 
300.823242 1.005099 
302.660248 0.223081 
303.589172 0.489433 
310.844086 4.400018 
314.176025 0.339492 
315.185822 0.348308 
316.192474 0.162715 
318.510895 0.273068 
322.82489 1.370528 
323.830688 0.265665 
324.822235 0.441122 
325.831055 5.775071 
328.180634 0.211668 
340.139069 0.26151 
342.196472 60.748417 
342.834167 3.29772 
343.201721 11.850874 
343.407135 0.239636 
344.976624 5.915698 
346.168549 0.378168 
347.952026 0.222839 
358.227722 10.656358 
359.23172 0.377766 
383.653381 0.329146 
END IONS

