BEGIN IONS
PEPMASS=924.496
CHARGE=1+
COMPOUNDNAME=MoNA:693456 Nystatin
LIBRARYQUALITY=3
SMILES=N/A
INCHIKEY=VQOXZBDYSJBXMA-NQTDYLQESA-N
INCHI=InChI=1S/C47H75NO17/c1-27-17-15-13-11-9-7-5-6-8-10-12-14-16-18-34(64-46-44(58)41(48)43(57)30(4)63-46)24-38-40(45(59)60)37(54)26-47(61,65-38)25-36(53)35(52)20-19-31(49)21-32(50)22-33(51)23-39(55)62-29(3)28(2)42(27)56/h5-6,8,10-18,27-38,40-44,46,49-54,56-58,61H,7,9,19-26,48H2,1-4H3,(H,59,60)/b6-5+,10-8+,13-11+,14-12+,17-15+,18-16+/t27-,28-,29-,30+,31+,32+,33+,34-,35+,36+,37-,38-,40+,41-,42+,43+,44-,46-,47+/m0/s1
MSLEVEL=2
SOURCE_INSTRUMENT=LC-ESI-QFT-LC-ESI-QFT
FILENAME=output_mgf.mgf
SEQ=*..*
IONMODE=
ORGANISM=MONA
NAME=MoNA:693456 Nystatin [M-H]-
PI=MoNA
DATACOLLECTOR=MoNA
PUBMED=N/A
SUBMITUSER=mwang87
TAGS=
SPECTRUMID=CCMSLIB00000566972
SCANS=4223
129.0712 50.102782 
130.0426 74.192176 
131.0501 100.0 
133.0661 48.93826 
134.0374 9.320476 
135.0454 11.061436 
135.0818 9.280224 
137.0611 61.614837 
139.0405 9.264276 
141.071 12.655565 
143.0502 49.77545 
143.0867 12.023685 
145.0659 65.07701 
147.0451 89.231973 
147.0815 18.870819 
148.0532 9.685275 
149.0612 14.460067 
156.0583 9.501483 
157.0658 19.003473 
161.0609 10.611576 
169.0659 48.324355 
169.1024 8.700748 
173.0609 10.206779 
181.0661 11.713821 
183.0816 24.841271 
195.0818 15.29751 
197.097 50.638462 
209.098 12.303171 
END IONS

