BEGIN IONS
PEPMASS=453.0
CHARGE=1+
COMPOUNDNAME=MoNA:2310629 Ribostamycin
LIBRARYQUALITY=3
SMILES=N/A
INCHIKEY=NSKGQURZWSPSBC-DLBSIDPUSA-N
INCHI=InChI=1S/C17H34N4O10/c18-2-6-10(24)12(26)8(21)16(28-6)30-14-5(20)1-4(19)9(23)15(14)31-17-13(27)11(25)7(3-22)29-17/h4-17,22-27H,1-3,18-21H2/t4-,5+,6-,7-,8-,9+,10-,11-,12-,13-,14-,15-,16-,17-/m1/s1
MSLEVEL=2
SOURCE_INSTRUMENT=LC-ESI-QQ-LC-ESI-QQ
FILENAME=output_mgf.mgf
SEQ=*..*
IONMODE=
ORGANISM=MONA
NAME=MoNA:2310629 Ribostamycin [M-H]-
PI=MoNA
DATACOLLECTOR=MoNA
PUBMED=N/A
SUBMITUSER=mwang87
TAGS=
SPECTRUMID=CCMSLIB00000571938
SCANS=9189
57.7 3.418803 
59.2 23.076923 
70.4 3.418803 
78.7 8.547009 
89.2 11.111111 
95.1 11.111111 
96.8 100.0 
100.0 29.059829 
101.2 3.418803 
118.1 67.521368 
118.6 11.965812 
135.8 3.418803 
152.8 7.692308 
158.8 4.273504 
161.4 46.153846 
164.3 5.128205 
167.1 17.094017 
189.3 5.128205 
191.0 1.709402 
198.9 7.692308 
243.9 5.128205 
296.4 10.25641 
END IONS

