BEGIN IONS
PEPMASS=595.381
CHARGE=1+
COMPOUNDNAME=destruxin A
LIBRARYQUALITY=3
SMILES=N/A
INCHIKEY=XIYSEKITPHTMJT-UHFFFAOYSA-N
INCHI=InChI=1S/C29H47N5O7/c1-9-12-21-27(38)34-16-11-13-20(34)26(37)31-23(18(5)10-2)28(39)33(8)24(17(3)4)29(40)32(7)19(6)25(36)30-15-14-22(35)41-21/h9,17-21,23-24H,1,10-16H2,2-8H3,(H,30,36)(H,31,37)
MSLEVEL=2
SOURCE_INSTRUMENT=N/A-ESI-QFT
FILENAME=library_mgf.mgf
SEQ=*..*
IONMODE=positive
ORGANISM=MONA
NAME=destruxin A [M+NH4]+
PI=MoNA
DATACOLLECTOR=MoNA:VF-NPL-QEHF017781
PUBMED=N/A
SUBMITUSER=mwang87
TAGS=
SPECTRUMID=CCMSLIB00004708844
SCANS=17781
50.240135 0.069889 
50.368896 0.084568 
50.575363 0.075342 
50.632679 0.046753 
50.765438 0.089835 
51.680908 0.088396 
51.876141 0.091602 
53.038914 19.4039 
53.292755 0.049357 
53.933109 0.075763 
54.034725 0.093488 
54.243587 0.075352 
54.329491 0.078899 
54.561615 0.074395 
54.971176 0.078244 
55.018147 12.443504 
55.054546 6.048729 
55.10067 0.080159 
55.362698 0.094236 
55.605431 0.088475 
55.716145 0.058024 
55.994381 0.08702 
56.049774 4.82625 
56.194695 0.086799 
56.34824 0.093185 
56.746506 0.082884 
56.965065 12.717291 
57.033855 0.059499 
57.070168 1.421269 
57.525936 0.076041 
57.845379 0.043051 
58.065403 100.0 
58.292484 0.079377 
59.068756 1.313204 
59.318562 0.095488 
60.023567 0.064705 
60.044613 0.232238 
60.467693 0.090464 
61.040745 0.098813 
61.07209 0.099069 
62.13855 0.046355 
62.165577 0.087076 
63.176998 0.092205 
63.509243 0.089398 
63.572483 0.078147 
63.737198 0.095111 
64.313461 0.047803 
64.410744 0.078195 
64.45739 0.085781 
67.054375 0.968915 
68.049606 5.046834 
68.156677 0.076213 
68.36293 0.08541 
69.0336 2.530456 
69.069984 5.697473 
69.928528 0.091876 
70.065208 60.965557 
70.103439 0.038211 
70.394234 0.081625 
70.633728 0.08566 
71.049179 1.997457 
71.068481 0.142953 
71.073006 0.560225 
71.195396 0.093114 
71.219894 0.08303 
72.044441 4.300913 
72.271454 0.093762 
73.028481 0.041135 
73.046608 0.060543 
73.423462 0.082202 
73.922157 0.090815 
74.059952 0.110493 
74.828407 0.087004 
75.942711 0.047271 
76.996391 0.069512 
77.189545 0.073504 
77.461372 0.078191 
77.782257 0.103692 
78.779526 0.088733 
79.054176 0.574886 
79.897095 0.086735 
80.049461 0.803214 
80.570412 0.073408 
81.033531 29.488968 
81.069984 0.590237 
81.932938 0.068517 
82.065186 0.632022 
82.625786 0.081615 
82.846497 0.094498 
82.963837 0.084876 
83.049133 4.555247 
83.523804 0.077089 
83.975677 0.133948 
84.044334 0.196902 
84.080772 2.992111 
85.076088 0.055028 
85.085587 0.076948 
85.595177 0.075733 
86.060028 5.353197 
86.096436 42.577976 
86.88472 0.089532 
87.044273 0.059488 
87.099815 0.253903 
87.429581 0.075813 
87.731476 0.040341 
89.05983 0.055355 
89.612061 0.084766 
91.05426 0.531698 
91.057243 0.144398 
91.564072 0.076248 
91.985039 0.080388 
93.069832 0.171597 
93.582855 0.088818 
93.652534 0.08149 
94.065002 0.07527 
94.521629 0.089096 
94.554321 0.093001 
95.049187 0.078842 
95.060425 0.055065 
95.364243 0.099269 
95.592804 0.101491 
96.044334 2.425132 
96.080864 0.408668 
96.142776 0.056329 
96.5979 0.088198 
96.978989 0.073188 
97.028496 0.686984 
97.064781 0.991085 
97.076118 0.062102 
97.187492 0.097892 
98.060043 1.169427 
98.096375 0.240386 
98.442894 0.082588 
98.984093 0.308174 
99.044197 0.318662 
100.039299 6.257162 
101.099884 0.052747 
101.429199 0.088566 
102.947739 0.084734 
104.476532 0.09385 
105.069817 0.313688 
105.363983 0.077747 
105.919037 0.079564 
105.961037 0.075534 
106.065323 0.091273 
106.293282 0.08057 
108.080704 0.271834 
108.447029 0.100362 
109.088753 0.054071 
110.059814 0.084787 
112.001762 0.08219 
112.094284 0.081262 
112.39566 0.043473 
113.070892 1.13557 
113.256531 0.054689 
113.598007 0.098757 
113.617081 0.08041 
114.02272 0.171273 
114.054939 4.424638 
114.0914 1.146007 
115.085274 0.075785 
116.001892 0.418102 
118.877281 0.057794 
119.085403 0.07509 
119.5373 0.083744 
120.080719 0.365105 
120.430847 0.054633 
121.064995 0.095857 
121.845596 0.104009 
122.096436 1.399708 
123.605652 0.087622 
124.0065 0.098045 
124.07563 0.06371 
124.272293 0.087443 
125.070923 0.813747 
125.108208 0.046045 
125.922668 0.101434 
126.054558 0.150449 
126.127907 0.261767 
126.679474 0.118612 
127.007401 0.052545 
127.086426 0.061087 
128.001907 0.503067 
128.07048 0.334446 
128.535233 0.049401 
128.539276 0.090806 
132.033844 0.104167 
132.816666 0.088699 
134.121674 0.086256 
135.081726 0.07733 
135.396927 0.089855 
135.775604 0.091801 
136.075745 4.602412 
136.699127 0.068387 
136.904541 0.093522 
137.986298 3.960103 
138.02272 0.495435 
138.128052 0.164881 
139.006363 0.098159 
140.107498 0.159403 
140.943527 0.085666 
141.00148 0.093563 
141.055084 0.116244 
141.065918 0.515319 
142.017685 0.310052 
142.049789 0.19407 
143.046982 0.075465 
144.033157 0.439372 
146.012436 0.994876 
147.092484 0.155884 
147.561188 0.072944 
148.397293 0.089193 
149.083786 0.098082 
149.894211 0.045129 
150.091415 12.57101 
151.402176 0.063907 
151.818359 0.093273 
152.003784 0.09383 
152.070709 0.075194 
153.101715 0.088744 
153.138367 0.081399 
154.017441 0.202882 
155.996796 11.345304 
156.033249 1.35864 
157.028061 0.098637 
157.097153 0.888269 
157.337875 0.0841 
157.573273 0.070884 
157.585342 0.058325 
159.044174 0.97168 
160.064606 0.379978 
161.645737 0.088056 
163.798523 0.094428 
163.903625 0.089026 
164.02298 0.436326 
165.75676 0.058321 
166.05072 0.08234 
166.07901 0.080477 
166.086395 5.623569 
167.119568 0.075681 
168.101898 10.132775 
169.028381 1.298068 
169.07489 0.105994 
169.441422 0.074016 
170.048721 0.191609 
170.080841 0.066939 
171.043777 0.055938 
172.064102 0.093087 
173.612854 0.094906 
174.007446 5.818458 
174.043488 0.069561 
175.590469 0.180782 
176.166306 0.096826 
178.086472 5.541218 
179.545746 0.074806 
179.586273 0.741268 
181.109604 0.714387 
181.133163 0.235979 
181.994949 0.082316 
184.064102 0.082071 
184.096863 0.927617 
184.596909 0.438828 
185.586456 0.087388 
186.90358 0.085878 
187.03894 1.842637 
187.216797 0.084961 
188.058945 0.096586 
189.269272 0.109192 
189.570236 0.092827 
189.589432 0.086663 
190.205093 0.070883 
192.668671 0.117621 
194.081192 0.224963 
194.117783 0.26592 
195.044174 1.761063 
195.588867 0.120596 
196.065186 0.111813 
196.096024 0.074074 
197.586716 0.050483 
198.470261 0.089383 
198.593781 0.151448 
200.059769 0.592421 
200.420334 0.092053 
202.0392 0.273418 
202.075241 0.095166 
205.632156 0.042466 
205.681412 0.078725 
206.04892 3.771386 
207.043671 0.075115 
207.785797 0.064951 
208.064423 1.831495 
210.044601 0.112905 
210.148926 5.756537 
210.66713 0.072962 
213.05455 5.136438 
214.075348 0.120449 
216.612762 0.273573 
218.115189 0.053544 
219.322357 0.044728 
219.620438 1.037312 
219.628632 0.836603 
220.05043 0.109168 
220.063873 0.097534 
223.038132 0.086571 
224.059341 6.466479 
224.099884 0.103587 
224.248596 0.098938 
225.09053 0.084994 
225.617599 0.468076 
226.075104 2.374643 
227.070145 0.320954 
229.049866 0.699423 
229.08548 0.104637 
231.065308 8.226522 
231.388046 0.050896 
231.772552 0.049729 
233.059875 0.560668 
237.090973 0.897921 
239.069778 0.078709 
241.049484 1.608969 
241.085953 0.260606 
242.07019 0.266551 
242.105621 0.112363 
244.085342 0.125208 
245.079056 0.087471 
248.657196 0.099506 
249.07515 0.384443 
250.239532 0.100147 
251.070328 10.39087 
251.082886 0.057023 
251.450027 0.082312 
253.107544 0.079783 
253.854782 0.099913 
255.101105 0.093207 
255.394897 0.057843 
255.548981 0.046197 
257.045135 0.193107 
259.060242 1.682651 
260.80896 0.064355 
264.883179 0.088716 
267.918427 0.053138 
269.080933 5.198158 
269.116486 0.089625 
272.128082 2.029299 
274.497864 0.088826 
275.307556 0.095285 
277.086426 0.100368 
279.324585 0.070789 
280.101227 0.046489 
281.343842 0.100773 
283.096771 0.084017 
295.096375 0.240633 
296.128265 0.376534 
296.619568 0.091189 
298.144257 0.082523 
300.123871 0.101834 
303.139069 0.107931 
311.126129 0.087273 
313.10614 0.452075 
313.58078 0.04535 
315.159851 0.110162 
319.132599 9.070676 
319.729706 0.098154 
322.085876 0.076034 
326.138397 2.972518 
330.864532 0.089284 
334.504486 0.101269 
336.441925 0.111451 
337.143127 4.776079 
344.149078 0.533604 
345.241241 0.079448 
345.535034 0.107594 
350.178619 0.058053 
352.54541 0.078419 
354.346771 0.056448 
360.159119 0.218437 
362.159668 0.085665 
368.18576 0.104056 
378.169556 0.580413 
392.534637 0.076388 
399.641388 0.078429 
399.915771 0.087991 
401.293427 0.045235 
409.999329 0.093869 
412.703522 0.094386 
419.615509 0.084716 
423.114044 0.105508 
428.976898 0.082398 
448.483948 0.089769 
463.899963 0.097343 
463.983337 0.096987 
482.161652 0.094517 
485.145721 0.102509 
490.20047 0.086373 
499.109283 0.100983 
514.074951 0.066259 
516.284363 0.079247 
520.421021 0.050153 
523.358459 0.062327 
529.01178 0.045275 
542.463257 0.100958 
543.625793 0.098228 
548.358765 0.054413 
568.152283 0.104096 
574.663452 0.095251 
588.073792 0.101722 
600.3125 0.079772 
610.638367 0.044571 
END IONS

