BEGIN IONS
PEPMASS=516.307
CHARGE=1+
COMPOUNDNAME=(3E,5S,7R,8R,11E,13S,15R,16R)-3,5,7,11,13,15-hexamethyl-8,16-bis(1,3-oxazol-5-ylmethyl)-1,9-dioxacyclohexadeca-3,11-diene-2,10-dione
LIBRARYQUALITY=3
SMILES=N/A
INCHIKEY=LAJRJVDLKYGLOO-HLRFMGGZSA-N
INCHI=InChI=1S/C28H38N2O6/c1-17-7-19(3)25(11-23-13-29-15-33-23)35-28(32)22(6)10-18(2)8-20(4)26(12-24-14-30-16-34-24)36-27(31)21(5)9-17/h9-10,13-20,25-26H,7-8,11-12H2,1-6H3/b21-9+,22-10+/t17-,18-,19+,20+,25+,26+/m0/s1
MSLEVEL=2
SOURCE_INSTRUMENT=N/A-ESI-QFT
FILENAME=library_mgf.mgf
SEQ=*..*
IONMODE=positive
ORGANISM=MONA
NAME=(3E,5S,7R,8R,11E,13S,15R,16R)-3,5,7,11,13,15-hexamethyl-8,16-bis(1,3-oxazol-5-ylmethyl)-1,9-dioxacyclohexadeca-3,11-diene-2,10-dione [M+NH4]+
PI=MoNA
DATACOLLECTOR=MoNA:VF-NPL-QEHF019233
PUBMED=N/A
SUBMITUSER=mwang87
TAGS=
SPECTRUMID=CCMSLIB00004710296
SCANS=19233
50.326225 0.182761 
50.434303 0.121076 
51.225803 0.072333 
51.370197 0.073311 
51.66769 0.209096 
51.825703 0.068763 
53.002388 0.273947 
53.038834 13.815977 
53.668327 0.072993 
54.034084 5.07511 
54.850784 0.103502 
55.018085 6.930581 
55.054466 27.41186 
56.010246 0.241495 
56.049679 10.785877 
56.05777 0.208412 
56.965019 31.647081 
57.03371 6.15677 
57.070095 5.487507 
57.291496 0.301825 
58.028889 0.683661 
58.065319 7.064301 
58.084724 0.06897 
58.31712 0.157781 
59.04932 17.035204 
59.073177 0.764063 
59.870682 0.070716 
60.052704 0.116792 
60.080959 13.081122 
60.088844 0.074707 
60.490566 0.206141 
60.499584 0.230215 
60.825634 0.245877 
61.010757 0.105634 
61.140652 0.067835 
62.018665 0.100277 
62.057953 0.150127 
63.099815 0.068482 
63.389877 0.083573 
63.639572 0.079968 
65.038651 8.90667 
65.272591 0.069509 
65.876961 0.166979 
66.046387 0.077138 
67.015434 0.173317 
67.041504 0.280094 
67.054268 90.77124 
67.665855 0.182435 
67.895691 0.229607 
68.049515 3.684226 
68.057556 1.183676 
68.837379 0.2122 
69.033524 16.762405 
69.069878 23.506918 
69.255112 0.183261 
69.899086 0.088265 
70.036903 0.102458 
70.065109 3.355654 
70.980278 0.341109 
71.049103 3.716408 
71.125244 0.115542 
71.951797 0.381433 
72.044388 4.436261 
72.08075 0.194735 
72.671509 0.078931 
73.02832 0.076407 
73.033752 0.077731 
73.064743 1.959673 
73.436195 0.2025 
74.059975 4.447715 
74.463844 0.234103 
74.738579 0.113179 
75.043991 0.106114 
75.651947 0.07588 
77.038612 0.982939 
77.232559 0.241351 
78.046249 0.102315 
78.964767 0.249083 
79.054161 69.96331 
80.04937 11.130848 
80.057533 1.420448 
80.251526 0.183103 
81.033455 2.512471 
81.057312 1.507183 
81.069824 74.149544 
81.166351 0.194953 
82.028671 98.723618 
82.065025 7.746243 
82.073112 1.403049 
82.201752 0.120284 
83.012611 0.254966 
83.031891 0.22452 
83.036461 10.596377 
83.049026 11.104518 
83.085442 4.788848 
83.623253 0.225857 
83.975731 0.370919 
84.044319 6.674372 
84.080704 1.1322 
84.959557 0.935114 
85.028336 1.277946 
85.064728 9.242907 
85.080704 0.108137 
85.206291 0.249666 
85.41713 0.240732 
86.023567 0.297214 
86.059898 2.330875 
86.096596 0.10847 
86.510933 0.107905 
87.043968 0.275515 
87.109306 0.224353 
89.921379 0.145579 
90.847343 0.269246 
91.054131 60.913609 
91.615707 0.31969 
92.05751 1.934872 
92.061958 4.654971 
93.057236 2.179233 
93.069801 92.725555 
93.182617 0.20087 
94.065048 29.912628 
94.07309 2.765474 
95.049065 56.209934 
95.052528 0.13873 
95.068092 0.195861 
95.072777 1.047372 
95.085442 57.286057 
96.011581 0.247183 
96.034927 0.239188 
96.044289 29.382872 
96.052277 0.767028 
96.080635 8.437569 
96.088646 1.182072 
97.064728 10.082304 
97.830276 0.075306 
97.995789 0.178014 
98.060028 1.642472 
98.075317 0.081806 
99.044006 0.462816 
99.080132 0.075169 
99.40757 0.196813 
100.039276 1.354707 
100.07547 0.237265 
102.905327 0.080836 
103.054138 46.782616 
104.057495 0.698121 
104.711739 0.073414 
105.03334 0.085984 
105.044655 6.364724 
105.069824 89.015343 
106.064972 2.638271 
106.073158 4.730521 
106.077332 0.406859 
106.14257 0.225036 
106.633865 0.086078 
107.049049 29.879984 
107.072884 0.333752 
107.085411 100.0 
108.044167 1.253847 
108.052505 0.236136 
108.080605 9.176841 
108.088806 3.445807 
108.092606 0.08254 
109.052155 0.818257 
109.064667 34.877426 
109.101074 29.495796 
110.059952 15.625524 
110.064018 0.303943 
110.067978 0.221004 
110.096336 1.830053 
110.104279 0.169161 
110.997345 0.102426 
111.043846 1.431296 
111.080299 6.806874 
112.075554 1.714488 
113.059547 10.765298 
113.95517 0.19218 
114.017075 0.216948 
114.030899 0.116238 
114.885559 0.248803 
115.006523 0.1512 
115.054214 3.951003 
116.057526 0.262584 
116.061928 0.998343 
117.069786 27.99353 
118.064934 1.074627 
118.077744 0.160944 
119.060211 1.154517 
119.08548 49.554218 
120.044441 0.276672 
120.080666 5.57536 
120.088615 1.109383 
120.505898 0.254276 
121.064682 17.9865 
121.088493 0.242028 
121.101059 86.71167 
122.023537 0.504313 
122.059906 17.867901 
122.072311 0.147878 
122.096283 1.538884 
122.104324 3.031373 
122.108833 2.34897 
123.011848 0.280993 
123.067459 0.126114 
123.080299 15.89457 
123.116608 2.307433 
124.039246 0.780925 
124.075607 5.567242 
124.08371 0.251518 
125.04689 0.105736 
125.059631 0.324864 
125.095879 0.860769 
126.054718 0.93551 
126.091202 2.559823 
126.802711 0.186361 
128.06189 3.009666 
129.069717 19.516514 
130.065231 0.265681 
130.077652 7.226499 
131.049011 17.173582 
131.073364 0.117642 
131.085419 44.50861 
132.052231 0.198497 
132.080566 2.480907 
132.088409 1.245255 
133.064606 0.670923 
133.075928 2.482847 
133.088593 0.314254 
133.100983 22.916704 
134.05986 6.207175 
134.096268 7.73585 
134.104462 0.930051 
135.043961 3.996015 
135.080215 17.292973 
135.116623 23.105442 
136.039185 1.073729 
136.047455 0.384567 
136.075562 10.414068 
136.112061 0.099629 
136.119705 0.080719 
136.903442 0.092279 
137.04715 7.6726 
137.095993 3.593136 
137.132278 0.984141 
137.157623 0.123564 
138.050095 0.134227 
138.055267 0.205196 
138.091248 17.311356 
139.062622 0.950797 
139.074829 0.279453 
139.850311 0.081039 
140.001785 0.261719 
140.07045 8.610712 
141.022064 0.148603 
141.054443 2.840855 
141.069489 1.524211 
141.074463 0.157092 
142.077637 6.322028 
142.298294 0.08941 
142.90239 0.075549 
143.085464 5.985426 
144.080704 1.463298 
144.093277 28.552866 
144.593948 0.075489 
145.064606 2.679245 
145.088821 0.303817 
145.101242 19.068481 
146.060211 0.21522 
146.072922 0.253694 
146.096313 3.523346 
146.103485 0.133563 
146.974289 0.082475 
147.080231 2.761493 
147.10408 0.324662 
147.116669 8.003546 
148.0755 7.540986 
148.111908 3.054179 
149.059631 1.423551 
149.095963 18.069845 
149.118912 0.095374 
149.13237 2.196103 
150.054626 0.218176 
150.091263 3.923772 
151.062622 0.867275 
151.075241 0.883149 
151.589493 0.093585 
152.033997 1.236376 
152.070526 1.300475 
152.39621 0.244437 
153.05455 0.094799 
154.043381 0.075701 
154.049698 7.364323 
154.077682 1.893153 
154.08609 2.731862 
154.247299 0.075042 
155.057693 2.655135 
155.445084 0.092299 
156.093231 1.092657 
156.253876 0.081581 
156.929077 0.072781 
157.004181 0.115301 
157.016678 0.099039 
157.064713 0.093856 
157.101074 6.770633 
158.01268 0.317465 
158.072662 0.832068 
158.096588 0.41748 
159.080322 2.563361 
159.116608 47.100704 
160.0755 1.217895 
160.088181 0.953502 
160.112015 2.319138 
160.119766 2.106224 
161.095917 2.089071 
161.119385 0.186041 
161.132156 0.165333 
161.479233 0.080209 
162.054749 3.630401 
162.091095 3.443232 
162.104431 0.080597 
162.127625 0.39635 
162.190323 0.179106 
163.062592 0.083081 
163.111511 9.73753 
164.070129 0.556432 
164.106857 1.076818 
164.572601 0.252132 
165.041946 8.259391 
166.086304 0.325994 
166.261688 0.24346 
167.03772 0.088723 
167.057495 1.195159 
168.028778 0.274302 
168.065323 23.548468 
169.016937 0.95264 
169.068451 1.414243 
169.101089 3.359525 
169.92923 0.100619 
170.024887 0.982178 
170.044479 3.887356 
170.095871 0.137739 
171.03273 0.138717 
171.048141 0.092158 
171.104034 1.022184 
171.116776 0.361613 
172.075241 0.088138 
172.088074 8.252783 
173.011948 0.361354 
174.091248 1.012567 
174.127762 0.103615 
174.15416 0.289619 
175.098236 0.127565 
175.111572 4.468502 
175.714096 0.089863 
176.070328 6.521353 
176.106628 0.673192 
176.143112 2.324579 
177.12706 4.598047 
178.049576 0.483805 
179.057632 0.212233 
180.065247 0.958988 
181.072922 0.239413 
181.088638 0.253329 
182.044601 3.61394 
182.08107 21.32819 
183.032639 1.269929 
183.052414 30.479355 
183.083984 0.435155 
184.055832 3.869525 
184.096649 0.085201 
185.048401 1.048573 
186.075912 3.789202 
186.127563 0.77464 
187.027603 7.956644 
187.111603 4.647276 
188.035309 8.324836 
188.07016 0.25705 
189.043152 1.077763 
189.987656 0.257807 
190.086334 0.659186 
190.121582 0.16769 
192.032318 0.121731 
192.065338 1.987746 
192.101929 0.318491 
192.137299 0.080324 
193.073761 0.102414 
193.119827 2.168901 
193.913101 0.228391 
194.048615 0.86062 
194.080933 1.239556 
195.069305 0.215743 
195.091171 0.302939 
195.632004 0.08011 
196.060364 0.225193 
196.096909 0.217567 
197.067932 3.383254 
198.075912 26.920851 
199.0793 6.385515 
201.043106 0.769245 
201.492981 0.281175 
202.086029 0.353758 
204.065231 0.479117 
204.137924 1.102199 
204.708542 0.119519 
205.038101 1.835889 
205.073044 0.193375 
206.0457 1.331314 
206.08107 4.674224 
206.164291 0.089076 
207.233841 0.08311 
207.347305 0.117654 
208.060165 0.112221 
208.096756 0.628 
208.133148 1.369494 
209.104446 0.465138 
210.043335 1.422276 
212.059128 3.422089 
212.0914 3.207423 
217.024796 0.270915 
218.081207 0.692793 
220.003754 2.09951 
220.026596 0.092542 
220.059753 0.248134 
220.096359 0.942192 
222.076416 0.228613 
222.111938 0.113486 
222.898575 0.897405 
223.064026 0.285926 
224.127502 0.160817 
229.859543 0.218911 
230.06987 0.262949 
233.082809 0.247356 
235.13501 0.073117 
238.07428 0.090261 
238.9133 0.105079 
239.901321 0.334856 
240.909012 1.880775 
242.082306 0.198001 
244.096558 0.09071 
244.270569 0.204378 
246.11171 0.080843 
254.095123 0.082924 
255.0905 0.254726 
257.025146 0.282579 
262.110779 0.313904 
267.415924 0.288766 
269.167419 0.181558 
279.155914 0.342511 
279.994263 0.26369 
284.188904 0.275904 
287.494751 0.085058 
287.959961 0.133426 
288.402771 0.132541 
295.552826 0.273867 
297.029724 0.082449 
299.49939 0.077453 
306.100586 0.679902 
311.108093 0.074019 
317.388794 0.086103 
322.030151 0.08403 
323.83252 0.085237 
324.111572 1.667683 
332.130768 0.235057 
336.448608 0.085877 
342.245758 0.250512 
362.669678 0.255967 
367.663452 0.35029 
374.210632 0.2674 
378.421295 0.075374 
388.502869 0.246252 
391.558014 0.078763 
422.332001 0.235964 
433.262512 0.200861 
443.566193 0.080611 
444.080994 0.277018 
447.34549 1.473101 
447.805054 0.248755 
448.348633 0.573249 
449.857727 0.218312 
466.747833 0.195086 
487.153748 0.219956 
504.398682 0.123453 
506.903381 0.270552 
526.011169 0.231352 
533.434509 0.26358 
536.943909 0.080074 
541.299805 0.260013 
543.638306 0.10375 
544.158752 0.180441 
END IONS

