BEGIN IONS
PEPMASS=618.382
CHARGE=1+
COMPOUNDNAME=deferrioxamine E
LIBRARYQUALITY=3
SMILES=N/A
INCHIKEY=NHKCCADZVLTPPO-UHFFFAOYSA-N
INCHI=InChI=1S/C27H48N6O9/c34-22-10-14-26(38)32(41)20-8-3-6-18-30-24(36)12-15-27(39)33(42)21-9-2-5-17-29-23(35)11-13-25(37)31(40)19-7-1-4-16-28-22/h40-42H,1-21H2,(H,28,34)(H,29,35)(H,30,36)
MSLEVEL=2
SOURCE_INSTRUMENT=N/A-ESI-QFT
FILENAME=library_mgf.mgf
SEQ=*..*
IONMODE=positive
ORGANISM=MONA
NAME=deferrioxamine E [M+NH4]+
PI=MoNA
DATACOLLECTOR=MoNA:VF-NPL-QEHF004061
PUBMED=N/A
SUBMITUSER=mwang87
TAGS=
SPECTRUMID=CCMSLIB00004695124
SCANS=4061
51.802109 0.077219 
52.094906 0.104455 
52.247566 0.166092 
52.473022 0.193516 
52.498478 0.074629 
54.683094 0.083508 
55.018703 1.856128 
55.05505 3.320074 
55.158474 0.198789 
55.513817 0.110017 
56.048771 0.185992 
56.050274 4.892826 
56.394421 0.117481 
57.070629 1.74706 
57.816925 0.139641 
58.324158 0.190857 
58.634144 0.091216 
59.703793 0.076717 
59.954723 0.164226 
61.347706 0.186283 
62.740349 0.161619 
63.375957 0.110864 
63.740116 0.099096 
64.264839 0.089391 
65.278145 0.087576 
66.10891 0.099182 
66.590248 0.089377 
66.651901 0.158489 
67.014725 0.080252 
67.05497 3.813579 
69.070602 10.015062 
69.281593 0.148947 
69.982277 0.105866 
70.065849 2.937082 
70.319862 0.109748 
72.045113 2.628352 
72.081474 0.086701 
72.547089 0.121412 
73.028961 0.108332 
73.364891 0.094673 
73.369148 0.086861 
73.890419 0.145238 
74.838043 0.158082 
75.172508 0.164839 
75.901154 0.073361 
75.945175 0.103809 
76.233414 0.092879 
77.575722 0.094466 
77.645515 0.162249 
77.918594 0.193899 
78.006897 0.182212 
78.826447 0.112012 
79.149979 0.127517 
80.050064 0.210983 
81.049011 0.14149 
81.176384 0.139325 
82.06575 19.752491 
82.405098 0.133546 
82.415894 0.127095 
82.708405 0.133727 
83.431999 0.152462 
83.511375 0.072656 
83.542007 0.135554 
84.044968 3.805171 
84.081352 100.0 
84.316673 0.185133 
84.583633 0.109338 
84.755638 0.071276 
85.065369 3.97893 
85.084686 3.51124 
85.089172 6.505871 
85.58271 0.137659 
86.097031 30.081137 
87.044739 0.225284 
87.100639 0.262433 
87.503998 0.16814 
88.076187 0.819217 
89.060265 1.633118 
89.264732 0.086856 
90.352249 0.112498 
95.213951 0.215236 
95.564217 0.10506 
96.809578 0.109293 
97.752426 0.112218 
98.096947 0.553189 
99.092148 11.115222 
99.31102 0.110907 
99.643356 0.091062 
99.712776 0.18226 
99.809074 0.099398 
100.039742 79.09964 
100.076149 59.34708 
100.079842 0.398409 
100.891907 0.176632 
101.023705 2.726661 
101.043068 1.069915 
101.079422 0.93471 
102.080643 0.083713 
102.091782 71.916534 
103.095078 1.742869 
103.565987 0.184058 
103.855202 0.093202 
104.628021 0.195449 
106.063156 2.468684 
106.911057 0.076802 
107.453293 0.166415 
108.103233 0.177226 
110.096863 0.15356 
112.039627 13.403765 
112.076004 0.099189 
112.333229 0.077699 
112.620094 0.177489 
114.091759 0.197053 
115.039268 11.850811 
116.034485 0.699235 
116.070908 3.024402 
117.077347 1.277391 
117.180389 0.187232 
117.654037 0.175894 
118.083473 12.275235 
119.118126 2.594619 
119.755196 0.103717 
119.9319 0.169907 
120.081139 0.658371 
121.065277 0.226965 
121.78997 0.196678 
122.057945 2.75943 
122.096626 3.074607 
123.005493 4.269466 
123.089592 0.311168 
123.88633 0.193461 
124.553329 0.169318 
127.976372 0.225551 
128.0345 1.224056 
128.377579 0.117686 
129.665787 0.075989 
130.049957 0.718178 
130.299469 0.17914 
131.053253 0.188461 
132.193268 0.119985 
132.271347 0.180908 
133.07756 0.151083 
133.343689 0.082717 
135.516968 0.092364 
136.075485 0.760622 
137.107346 7.342121 
138.091385 13.805382 
139.094467 0.106078 
139.247757 0.11699 
140.070602 5.83989 
140.106857 0.087485 
141.264359 0.131659 
141.897293 0.114695 
142.116776 0.210522 
142.535919 0.115437 
144.791534 0.197431 
145.045471 0.175976 
145.969543 0.225904 
150.081161 0.07385 
152.469147 0.184967 
152.817734 0.101581 
153.102234 13.858544 
153.455765 0.203099 
154.086288 19.679928 
154.105316 0.116336 
155.089828 0.280232 
156.290359 0.124556 
158.410645 0.129552 
159.877899 0.194214 
164.071075 0.195266 
165.102264 20.881943 
166.086395 12.989843 
166.105789 0.590017 
167.117966 0.677066 
167.295486 0.188308 
167.696411 0.120731 
168.102005 37.805424 
169.105255 1.624994 
169.930115 0.169192 
170.117584 1.573881 
172.814285 0.088848 
177.076538 0.35966 
177.919098 0.09302 
179.115585 1.056852 
179.790894 0.17133 
180.918411 0.109271 
181.097275 9.865683 
181.655762 0.218306 
182.08136 0.396311 
182.293854 0.169841 
182.473145 0.206675 
183.112991 9.87187 
184.096893 22.321594 
184.12085 0.098454 
185.100388 0.983958 
185.128525 7.130559 
186.112183 0.229532 
186.180832 0.086581 
187.107513 0.362357 
188.66449 0.180533 
192.027771 0.188024 
194.007492 0.200499 
196.150864 0.115919 
199.107864 1.285053 
200.401245 0.073803 
200.56778 0.203284 
201.113922 0.224379 
201.123444 49.662083 
201.229416 0.138144 
201.457153 0.206146 
202.107651 0.2461 
202.126892 2.841888 
202.532013 0.083029 
203.751266 0.179072 
205.094955 3.409326 
205.572845 0.072543 
206.078903 2.528918 
206.648026 0.1849 
206.709351 0.131106 
207.110458 3.882173 
208.094772 0.409587 
210.109375 0.186418 
211.075348 0.222034 
212.341766 0.125337 
217.115128 0.1195 
217.134445 0.131693 
218.152542 0.116114 
219.134033 6.596343 
221.125763 0.078208 
221.846451 0.104834 
222.097427 0.334124 
223.105484 5.225314 
231.630325 0.151733 
233.088821 0.339921 
233.149734 3.049119 
233.188248 0.104155 
237.12117 4.560098 
239.069901 1.285885 
245.515869 0.098688 
247.489532 0.084154 
251.099777 0.864963 
251.87529 0.181026 
254.080521 0.159902 
255.041122 0.120611 
255.061859 0.161855 
257.080688 3.060925 
258.142242 0.109426 
261.121185 3.345345 
263.378174 0.10504 
263.90155 0.095088 
264.909393 0.120963 
267.13385 1.07762 
277.115967 1.048616 
281.912079 4.379639 
282.91449 1.517038 
283.128845 5.726367 
283.914337 0.109383 
284.130981 0.123492 
284.325287 0.202762 
289.11615 0.801417 
302.79776 0.104755 
305.110748 10.304232 
306.179596 0.425197 
307.126495 3.477623 
307.946075 0.085462 
315.155243 0.132232 
318.141418 1.209032 
322.288483 0.113539 
322.894592 0.073227 
322.914246 1.421247 
323.121216 1.173216 
323.917114 0.866008 
328.356903 0.110072 
334.137299 0.484302 
340.223938 0.123303 
344.84436 0.082406 
345.336426 0.118906 
348.153107 4.975243 
349.870911 0.110323 
353.547058 0.136268 
353.843414 0.087022 
360.184357 0.118182 
360.217957 0.10253 
360.581268 0.084815 
360.838959 1.693205 
361.840973 1.480645 
362.16864 0.723186 
365.693848 0.101012 
374.205109 0.17513 
376.184296 0.918513 
378.848633 0.651316 
379.850983 0.118001 
385.000854 0.09413 
390.199219 18.825546 
391.207397 1.948949 
394.84317 0.096808 
395.848785 0.235828 
405.210388 22.143181 
406.683777 0.090211 
419.226471 2.309838 
419.851501 1.159294 
420.853882 1.655623 
433.205261 53.671783 
437.237366 0.156686 
437.86438 0.182331 
438.864716 0.312187 
449.447845 0.160954 
451.382385 0.194726 
454.481384 0.081298 
461.236969 2.866778 
470.033722 0.106744 
471.221527 3.234722 
474.458069 0.096201 
480.627106 0.131729 
498.375336 0.119284 
505.226044 53.218933 
510.09549 0.170432 
518.187744 0.091587 
532.56012 0.102102 
537.252502 0.495993 
538.646851 0.142815 
546.350464 0.171805 
548.805542 0.165556 
553.243347 0.127261 
564.27063 0.09382 
569.166504 0.12466 
577.641235 0.099201 
583.806824 0.205825 
588.299805 4.446131 
608.993042 0.095039 
610.384033 0.161977 
620.325134 0.190411 
621.929382 0.133481 
635.121887 0.155908 
647.234619 0.093996 
END IONS

