BEGIN IONS
PEPMASS=273.076
CHARGE=1+
COMPOUNDNAME=Naringenin
LIBRARYQUALITY=3
SMILES=N/A
INCHIKEY=FTVWIRXFELQLPI-UHFFFAOYSA-N
INCHI=InChI=1S/C15H12O5/c16-9-3-1-8(2-4-9)13-7-12(19)15-11(18)5-10(17)6-14(15)20-13/h1-6,13,16-18H,7H2
MSLEVEL=2
SOURCE_INSTRUMENT=N/A-ESI-QFT
FILENAME=library_mgf.mgf
SEQ=*..*
IONMODE=positive
ORGANISM=MONA
NAME=Naringenin [M+H]+
PI=MoNA
DATACOLLECTOR=MoNA:VF-NPL-QEHF013814
PUBMED=N/A
SUBMITUSER=mwang87
TAGS=
SPECTRUMID=CCMSLIB00004704877
SCANS=13814
50.775494 0.00682 
51.524734 0.007945 
51.921566 0.005911 
52.207821 0.008197 
52.676094 0.040432 
52.704659 0.02813 
53.049435 0.029684 
54.111614 0.009768 
54.666195 0.00657 
54.737152 0.008613 
54.790443 0.009682 
54.935833 0.042657 
55.054958 0.11478 
55.317543 0.007164 
55.340042 0.00843 
55.590298 0.009017 
55.827606 0.053359 
55.935127 0.877006 
56.664421 0.007313 
56.668945 0.073766 
56.679256 0.006499 
56.785934 0.006421 
57.042744 0.029866 
57.070614 0.171393 
57.306305 0.011386 
57.402412 0.029214 
57.987286 0.007028 
58.065826 0.296628 
58.447159 0.013238 
59.143837 0.077085 
59.578075 0.006075 
59.975368 0.007189 
60.446426 0.009567 
60.613106 0.005921 
61.011368 100.0 
61.02774 0.007763 
61.294304 0.006807 
62.010738 2.588227 
62.014717 6.691605 
62.019184 0.19935 
62.6287 0.006034 
63.007149 13.874787 
63.160519 0.006814 
63.28693 0.027262 
63.688366 0.047978 
64.010567 0.021824 
64.015121 0.006966 
65.311325 0.006273 
65.411285 0.008562 
66.545204 0.012468 
67.054886 0.081086 
67.326385 0.016199 
67.979134 0.050236 
69.070511 0.213969 
69.084244 0.013615 
69.385567 0.006989 
70.843559 0.008578 
70.956573 0.009453 
70.958511 2.612131 
71.086166 0.063063 
71.6213 0.031537 
71.861778 0.08359 
71.92997 1.182546 
71.962631 0.007974 
72.564468 0.007786 
72.937775 2.170008 
72.95903 0.008086 
73.782799 0.062187 
73.938522 0.077455 
74.187981 0.007724 
74.823044 0.008031 
75.946106 0.19586 
76.406693 0.048444 
76.777382 0.008327 
78.990112 0.006569 
79.021805 0.042797 
79.05484 0.009887 
81.070419 0.241602 
82.083427 0.006602 
82.574898 0.007384 
83.086082 0.199969 
83.564606 0.067347 
85.101578 0.010018 
86.008476 0.0396 
87.736519 0.005869 
87.906975 1.124162 
88.772797 0.005868 
88.790733 0.078352 
88.968987 0.096915 
89.940392 0.567398 
89.976433 0.006212 
90.948196 1.982983 
92.58326 0.006461 
93.070374 0.08533 
93.758949 0.008554 
93.956818 0.009144 
94.428894 0.029262 
95.085945 0.253393 
95.334427 0.009728 
95.917313 0.006714 
96.673859 0.009156 
97.065163 0.044396 
97.101517 0.086353 
97.914543 0.026481 
98.941742 0.061256 
98.975731 0.323397 
99.209106 0.063855 
99.554764 0.013431 
100.076065 0.048972 
100.199081 0.014721 
101.003502 0.082661 
102.66774 0.009823 
102.915047 0.076027 
102.929924 0.061722 
102.948036 0.339637 
103.999077 0.028038 
104.07093 0.201213 
104.512291 0.006987 
104.759834 0.008006 
104.930695 2.373606 
104.992691 0.016398 
104.998962 0.010454 
105.917397 3.658324 
105.93515 0.010454 
105.956223 0.009042 
106.277122 0.030914 
106.926064 0.24108 
107.049118 0.007318 
107.085838 0.140216 
107.967148 0.0238 
108.599922 0.00588 
108.958641 0.072988 
108.984055 0.006773 
109.101379 0.073249 
111.200974 0.006742 
111.945007 0.011012 
113.514381 0.005935 
114.948471 0.143108 
115.872643 0.039852 
115.996017 0.008929 
116.177452 0.006514 
116.36908 0.006168 
116.909363 0.280781 
116.963348 0.077759 
116.98616 0.092318 
117.917213 2.96649 
117.990578 0.055037 
118.925751 0.05009 
118.947594 0.140803 
119.028358 0.081025 
119.049316 0.065868 
119.933006 0.013385 
120.259506 0.006375 
120.940773 0.846416 
121.064148 0.006761 
121.101318 0.089428 
121.115044 0.005905 
122.941048 8.837851 
123.927711 0.095533 
123.975082 0.006057 
124.543228 0.043999 
124.705978 0.046865 
124.882668 0.006749 
124.936447 1.269175 
125.599586 0.014375 
125.621338 0.007192 
126.88868 0.00828 
129.414658 0.009069 
129.419083 0.007155 
131.085144 0.008269 
131.834045 0.042305 
131.961273 0.070171 
132.823639 0.006833 
132.924591 0.239865 
132.940475 0.053386 
132.958282 4.642638 
133.922897 0.910323 
133.932114 0.009402 
133.948563 0.61349 
133.958221 0.082472 
133.961716 0.067016 
134.919754 7.376684 
134.940979 0.402348 
134.958572 0.873988 
135.058472 0.010157 
135.11673 0.021112 
135.927567 4.647778 
135.94899 0.460399 
135.966492 0.922825 
136.695618 0.008822 
136.956711 3.365399 
137.02417 0.006412 
137.848557 0.009806 
137.928101 0.258496 
137.943604 0.016652 
138.951691 0.405071 
140.944565 0.005389 
140.951492 0.115429 
142.264603 0.008569 
142.676529 0.013353 
142.687302 0.050923 
143.208572 0.008228 
144.945831 0.02826 
146.716797 0.008201 
147.038315 0.012396 
147.044052 0.577258 
147.974747 0.008137 
148.956223 0.206713 
148.971786 51.853889 
149.059448 0.008291 
149.092819 0.065434 
149.943283 0.437432 
149.961014 0.271868 
149.972809 7.329188 
149.974319 7.186531 
150.951065 10.938588 
150.96698 14.073047 
150.973206 1.943305 
151.95903 0.135672 
151.970001 1.198357 
152.93042 2.019311 
152.951431 21.634245 
152.96814 3.293155 
153.018097 1.39704 
153.356506 0.054841 
153.615936 0.00763 
153.931458 0.013899 
153.938278 2.016765 
153.959274 18.410673 
154.021317 0.061195 
154.750336 0.048006 
154.940933 0.010339 
154.946838 4.308963 
154.963715 0.189353 
155.761688 0.00761 
155.801865 0.007729 
155.954742 3.212853 
159.827759 0.008979 
160.815155 0.008988 
162.950989 0.594239 
163.008499 0.011442 
163.14798 0.027523 
163.942551 0.226092 
164.951675 4.247462 
165.938171 9.456749 
165.958923 0.102382 
166.939041 0.010018 
166.946838 0.838844 
166.966843 0.72549 
166.982346 8.520443 
166.989944 0.080311 
167.461273 0.062508 
167.953735 4.318029 
167.974945 0.116101 
167.984497 1.892483 
168.961594 3.453048 
168.970184 0.021167 
168.983215 10.658254 
169.402756 0.007468 
169.959473 0.061183 
169.971634 0.011551 
169.987106 0.010497 
170.961914 5.125602 
170.978134 2.14352 
171.028122 0.009559 
172.957458 0.523077 
173.132141 0.02993 
173.64325 0.008905 
175.204056 0.009128 
175.267563 0.012157 
177.938202 3.354419 
178.020416 0.008414 
178.94014 0.498473 
178.97847 0.31475 
179.933624 0.319231 
180.635498 0.008908 
180.961655 0.941281 
180.97403 0.016392 
180.99826 0.266821 
181.916077 0.067231 
181.953537 0.041251 
181.964569 0.066411 
182.962234 4.385593 
182.977142 0.10788 
182.998306 0.01904 
183.948654 4.699387 
183.96907 0.017962 
184.957428 0.981758 
185.350372 0.066613 
185.949341 4.746546 
185.964233 6.323668 
186.75679 0.008854 
186.76915 0.063481 
187.944748 0.596328 
190.492691 0.00702 
191.964676 0.075544 
192.961624 26.006166 
193.964096 10.623489 
194.940521 0.023775 
194.961838 8.520214 
195.937088 0.417884 
195.948914 3.324595 
195.959229 0.173825 
196.04158 0.006635 
196.94841 0.086875 
196.957748 1.763401 
197.946854 0.84469 
197.964233 0.007589 
201.958191 0.00888 
206.300568 0.007581 
209.974731 0.080173 
210.059372 0.00839 
210.972031 13.288911 
211.97464 6.063945 
212.200775 0.008137 
212.933594 0.36146 
212.95018 0.170872 
212.972778 15.853919 
213.946533 1.250473 
213.97403 0.170377 
214.830612 0.008391 
214.967957 3.120744 
215.799286 0.660709 
222.791626 0.009452 
224.988113 0.109865 
225.989105 0.016304 
226.307404 0.066899 
226.853012 0.006352 
226.987808 0.174137 
230.983795 0.022394 
233.521637 0.068884 
235.787888 0.007399 
237.937164 0.061145 
242.046585 0.007684 
246.16481 0.012097 
247.268463 0.010325 
247.581757 0.066143 
253.949219 0.009674 
256.903442 0.007376 
260.057709 0.04322 
262.658417 0.056826 
263.883118 0.010689 
264.726868 0.007039 
265.162628 0.007063 
267.748138 0.014531 
271.059784 1.28934 
271.319183 0.0188 
272.063202 0.725326 
272.098145 0.010129 
272.258209 0.101955 
273.07724 0.024231 
273.13089 0.050585 
273.167236 0.334118 
275.110748 0.04756 
275.146576 0.043417 
280.537537 0.009894 
280.775513 0.006706 
297.519562 0.065457 
END IONS

