BEGIN IONS
PEPMASS=319.119
CHARGE=1+
COMPOUNDNAME=Mycophenolic Acid
LIBRARYQUALITY=3
SMILES=N/A
INCHIKEY=HPNSFSBZBAHARI-RUDMXATFSA-N
INCHI=InChI=1S/C17H20O6/c1-9(5-7-13(18)19)4-6-11-15(20)14-12(8-23-17(14)21)10(2)16(11)22-3/h4,20H,5-8H2,1-3H3,(H,18,19)/b9-4+
MSLEVEL=2
SOURCE_INSTRUMENT=N/A-ESI-QFT
FILENAME=library_mgf.mgf
SEQ=*..*
IONMODE=negative
ORGANISM=MONA
NAME=Mycophenolic Acid [M-H]-
PI=MoNA
DATACOLLECTOR=MoNA:VF-NPL-QEHF004793
PUBMED=N/A
SUBMITUSER=mwang87
TAGS=
SPECTRUMID=CCMSLIB00004695856
SCANS=4793
50.965832 0.03334 
51.526169 0.045035 
51.582382 0.048128 
51.835941 0.035362 
52.097969 0.043441 
52.590408 0.028851 
52.670429 0.032499 
53.001404 0.046362 
53.115631 0.039899 
53.460602 0.034663 
54.243908 0.04165 
54.274647 0.041193 
54.456909 0.043274 
54.998558 0.037361 
55.616421 0.040362 
55.863087 0.037718 
56.039497 0.041756 
56.207478 0.045038 
56.634293 0.041188 
56.714039 0.048756 
57.739784 0.039735 
57.963234 0.047004 
58.180042 0.044427 
59.012505 0.922878 
59.03775 0.035496 
59.652119 0.041367 
59.919529 0.048176 
60.211109 0.037541 
60.363888 0.041201 
60.620441 0.034043 
60.634937 0.033441 
60.835224 0.039209 
61.269325 0.04481 
62.169144 0.046085 
62.59581 0.04594 
63.699211 0.052134 
63.719288 0.048405 
64.405777 0.041365 
65.282784 0.050144 
65.944717 0.04226 
66.191841 0.040062 
67.113831 0.046279 
68.299644 0.04367 
70.222672 0.043946 
70.713181 0.051797 
70.763237 0.043877 
72.061699 0.035522 
72.358589 0.04125 
73.028137 1.586311 
74.112839 0.040927 
75.031509 0.048245 
75.081848 0.048152 
75.710541 0.034489 
77.35527 0.03633 
77.483665 0.04508 
81.033279 0.051579 
81.151596 0.048783 
81.243202 0.041143 
84.025955 0.047618 
85.580322 0.044895 
85.774971 0.036601 
87.129204 0.038496 
88.666649 0.042278 
89.452301 0.044134 
91.506744 0.041493 
91.796867 0.042852 
92.23632 0.042638 
93.033211 0.097204 
93.392204 0.036926 
93.455666 0.041139 
93.854637 0.04471 
94.160568 0.040837 
94.531578 0.040803 
95.048996 5.577962 
95.73951 0.05012 
97.975494 0.048515 
98.004425 0.04981 
99.648941 0.041363 
100.449005 0.049079 
102.553429 0.044643 
107.049026 0.952939 
107.864227 0.035213 
108.297646 0.043985 
108.859741 0.035832 
109.486916 0.048442 
111.039459 0.045153 
114.696892 0.045774 
117.125984 0.033275 
119.048935 0.061041 
120.017715 0.044862 
121.064613 0.811514 
122.841583 0.047585 
124.333847 0.052867 
125.502312 0.041671 
126.070236 0.048848 
126.624481 0.050086 
126.804459 0.049627 
127.352722 0.055831 
131.734116 0.044166 
133.533554 0.031086 
133.855606 0.047913 
134.587891 0.040666 
134.948669 0.037676 
135.044128 3.915044 
135.577362 0.0316 
135.696411 0.045684 
136.757217 0.036916 
136.774414 0.054642 
137.02359 0.093931 
137.05957 0.096605 
138.172409 0.051146 
139.987015 0.057525 
141.354446 0.043915 
147.04425 0.645054 
148.052002 3.520413 
148.603867 0.053005 
148.881165 0.057944 
149.059967 1.49609 
149.658005 0.049905 
149.676544 0.047515 
149.976715 0.043193 
150.802734 0.033498 
153.817978 0.043627 
154.554947 0.047349 
157.680405 0.045492 
158.425385 0.035504 
158.845749 0.049355 
160.052109 1.549848 
161.059952 3.020263 
161.096252 2.274414 
161.584183 0.046363 
162.099228 0.048857 
162.621231 0.039491 
163.039124 0.35089 
164.047043 2.418349 
166.0625 0.512595 
166.880081 0.043399 
167.012131 0.042634 
167.405945 0.03568 
168.873367 0.042185 
168.954178 0.037046 
168.995667 0.050893 
171.117081 0.220405 
172.9039 0.053802 
173.060028 3.686521 
173.096786 0.057654 
174.067932 0.252451 
177.01857 1.359731 
178.026474 1.902577 
178.44278 0.045186 
179.03421 25.558353 
180.037552 1.429059 
181.086472 0.050984 
183.080734 0.389166 
184.088318 0.109173 
187.075775 2.288987 
187.111496 0.052484 
188.083496 0.749589 
189.091553 1.937468 
189.884232 0.041797 
190.309555 0.051178 
191.034332 100.0 
191.082047 0.045633 
192.042557 45.517853 
192.594177 0.055964 
193.045624 3.776106 
193.351212 0.047614 
197.096588 0.552581 
197.653351 0.044943 
198.578964 0.044625 
199.07634 0.096584 
199.112335 4.919715 
199.725693 0.044133 
200.083374 0.206548 
200.115784 0.089919 
201.091553 3.149935 
203.034332 8.273964 
203.506821 0.055994 
204.042145 0.79862 
205.050095 43.561417 
205.163467 0.051975 
206.053329 4.627606 
207.065857 9.310363 
208.06929 0.45555 
210.249969 0.044054 
210.867249 0.051761 
211.681366 0.047907 
215.073837 0.71392 
215.086472 1.503027 
215.093079 1.310369 
215.107407 7.897987 
216.11113 0.345535 
217.086899 0.103303 
218.510788 0.035118 
221.133621 0.045317 
224.032379 2.605394 
225.091721 1.351167 
226.09523 0.057714 
227.071136 0.39928 
228.079681 0.122189 
231.06601 4.850794 
232.073425 0.988108 
233.081726 5.862732 
234.085007 0.254713 
235.350464 0.04578 
237.253555 0.046598 
240.542572 0.050536 
241.086716 0.485455 
242.09375 0.075271 
243.066177 1.476793 
243.102509 5.895243 
244.106049 0.276533 
245.081909 12.705663 
246.08519 1.368242 
246.206787 0.054487 
247.09758 0.179328 
247.134094 0.094433 
247.774414 0.04691 
250.216156 0.046409 
252.361526 0.042174 
254.016998 0.056264 
254.835587 0.052287 
255.715912 0.056923 
259.097534 1.654825 
260.102692 0.096541 
260.958008 0.049601 
269.082245 4.430073 
269.327362 0.05259 
269.726074 0.048009 
270.086029 0.114613 
270.149902 0.034513 
272.081696 0.050255 
275.128998 12.702133 
276.132355 1.553894 
277.570435 0.041853 
279.790588 0.051307 
280.270966 0.048303 
281.813873 0.049515 
282.996307 0.047697 
284.368713 0.045907 
285.077057 1.094995 
287.092529 9.403706 
288.096313 0.997031 
291.124237 0.044912 
294.480499 0.049891 
304.139374 0.05552 
307.041748 0.056245 
307.229614 0.035296 
310.555817 0.051039 
315.019257 0.048828 
315.490082 0.044066 
315.830841 0.039035 
319.118744 12.114174 
320.12204 1.436331 
323.067535 0.053415 
323.980957 0.048262 
339.219025 0.050927 
END IONS

