BEGIN IONS
PEPMASS=370.105
CHARGE=1+
COMPOUNDNAME=Griseofulvin
LIBRARYQUALITY=3
SMILES=N/A
INCHIKEY=DDUHZTYCFQRHIY-RBHXEPJQSA-N
INCHI=InChI=1S/C17H17ClO6/c1-8-5-9(19)6-12(23-4)17(8)16(20)13-10(21-2)7-11(22-3)14(18)15(13)24-17/h6-8H,5H2,1-4H3/t8-,17+/m1/s1
MSLEVEL=2
SOURCE_INSTRUMENT=N/A-ESI-QFT
FILENAME=library_mgf.mgf
SEQ=*..*
IONMODE=positive
ORGANISM=MONA
NAME=Griseofulvin [M+NH4]+
PI=MoNA
DATACOLLECTOR=MoNA:VF-NPL-QEHF001073
PUBMED=N/A
SUBMITUSER=mwang87
TAGS=
SPECTRUMID=CCMSLIB00004692136
SCANS=1073
50.255913 0.021715 
50.394386 0.021627 
50.44656 0.019914 
50.564262 0.019652 
50.937588 0.046342 
51.101349 0.020108 
51.560467 0.01883 
52.380745 0.046075 
52.51437 0.028329 
52.822998 0.069846 
53.000061 0.021081 
53.03933 0.048507 
53.196175 0.046936 
53.6936 0.021964 
55.018597 0.210315 
55.054932 3.664811 
55.296028 0.017799 
55.604431 0.018066 
55.667824 0.034644 
56.049931 0.016818 
56.12566 0.017305 
56.965321 0.066149 
57.034233 1.187982 
57.070595 3.380433 
57.284344 0.01847 
57.47871 0.021706 
58.065826 0.789557 
58.492725 0.038874 
59.049839 6.757843 
59.061077 2.073191 
60.053226 0.020379 
60.081459 5.791409 
60.505276 0.03779 
60.68227 0.046607 
60.991699 0.062929 
61.011185 0.431558 
61.029079 0.116056 
61.084789 0.036882 
61.239872 0.019625 
61.29578 0.05792 
61.3018 0.047605 
61.906025 0.034084 
62.363407 0.02277 
62.990246 0.030618 
65.039314 0.027503 
66.775894 0.070229 
67.054848 1.594926 
67.666809 0.022349 
68.303253 0.05682 
68.596947 0.03616 
69.03405 0.438981 
69.070488 1.075252 
69.175079 0.022695 
69.58329 0.023823 
70.065765 0.214681 
70.083946 0.064161 
71.049667 0.067865 
71.086136 2.242835 
71.112701 0.034491 
71.22422 0.063092 
71.502617 0.053589 
71.795944 0.019647 
72.442818 0.01889 
73.028969 0.150449 
73.047401 16.916101 
73.065361 1.22375 
73.151169 0.017145 
73.517326 0.025131 
73.905724 0.064239 
74.047028 0.1941 
74.050903 0.066808 
75.026581 0.149117 
75.441086 0.045445 
76.633369 0.036834 
77.039139 0.019263 
77.49231 0.020115 
77.62513 0.026575 
77.934845 0.022361 
78.805374 0.018955 
79.021645 0.177792 
79.054764 2.240865 
79.532318 0.020077 
81.033852 0.055777 
81.070412 3.302673 
83.049583 0.380074 
83.085968 0.405834 
83.955307 0.021927 
84.626221 0.023021 
85.028908 0.041726 
85.065277 0.178357 
85.1017 0.706371 
86.06041 0.023938 
86.096909 0.075891 
86.962006 0.029864 
87.044525 2.307577 
87.611961 0.022716 
88.237656 0.022223 
89.060158 5.375887 
89.217819 0.032805 
90.437836 0.069856 
90.668648 0.019795 
90.722923 0.031203 
91.054787 1.436386 
91.057777 17.01753 
92.057442 0.210245 
92.060913 0.047426 
92.924309 0.034928 
93.070312 3.68328 
93.553879 0.040218 
95.049477 0.823704 
95.085892 1.704466 
97.064613 0.019922 
97.101562 0.147994 
97.608795 0.018155 
98.900002 0.046248 
98.97583 0.053394 
101.060013 0.464381 
102.062675 0.025271 
102.276222 0.01789 
103.039406 0.159964 
103.054543 0.171703 
105.044731 0.028178 
105.070061 0.751049 
105.073479 0.141097 
107.085808 0.261018 
107.133606 0.058123 
109.028526 0.061601 
109.101334 0.748948 
109.873901 0.064229 
111.043762 0.04071 
111.080383 0.071353 
115.054581 0.017571 
116.487396 0.065412 
116.985519 0.020049 
117.054756 0.041837 
117.069893 0.103274 
119.085518 0.124621 
119.675407 0.062695 
119.923248 0.071845 
121.06485 1.645026 
121.101387 0.090163 
121.479431 0.065049 
122.011139 0.037284 
123.117043 0.127027 
124.99633 0.073252 
128.037491 0.056771 
128.056961 0.032529 
128.494019 0.024073 
129.06955 0.048831 
129.318878 0.057207 
130.065277 0.02331 
131.085312 0.165696 
131.552017 0.033067 
133.065109 0.085503 
133.086044 0.257756 
133.101196 0.093495 
134.059982 0.167247 
134.138367 0.054815 
134.978638 0.483467 
136.590469 0.019459 
136.809219 0.054518 
137.059586 0.038132 
137.796341 0.023482 
138.701416 0.055559 
139.375595 0.019352 
143.085526 0.047273 
144.080917 0.070161 
145.064255 0.065721 
145.100784 0.018396 
146.023483 0.971907 
147.116501 0.049969 
149.044571 0.13668 
149.059433 0.027215 
150.104965 0.063495 
150.758667 0.017575 
150.951385 0.020509 
151.103256 0.024324 
152.140625 0.022024 
152.989029 0.359451 
154.049576 0.726949 
154.704422 0.022441 
155.085419 0.370616 
155.344376 0.023943 
159.944397 0.022158 
160.038986 0.509639 
161.13179 0.026012 
161.256363 0.019789 
161.945923 0.023663 
163.038773 0.019962 
163.284927 0.038739 
165.05481 0.060453 
166.04982 0.453469 
167.055176 0.813402 
167.072784 0.341456 
168.080414 0.283582 
169.034149 0.171132 
170.096481 0.051034 
170.963455 0.053543 
171.080307 0.062303 
175.039154 0.029295 
176.266556 0.064598 
177.042007 0.536107 
178.049652 14.586189 
178.337555 0.062243 
179.033585 0.058834 
179.052979 0.864226 
179.060379 11.001438 
179.069351 1.116984 
180.063385 1.19375 
181.064056 0.068872 
181.08786 0.103989 
182.096298 1.253171 
182.350525 0.061155 
183.080597 0.100973 
183.099594 0.028308 
184.66301 0.05547 
189.054108 0.037511 
189.205841 0.058266 
190.040222 0.060192 
190.049713 2.844837 
191.057388 18.146749 
192.065735 4.686929 
192.093384 0.041033 
193.076096 1.847898 
193.085388 0.051581 
194.078934 0.066425 
194.096268 0.042192 
195.068481 0.102614 
195.080246 0.061664 
195.091751 0.02615 
195.40303 0.040446 
196.075577 1.073117 
198.090973 0.024313 
198.251801 0.019652 
201.054901 0.029344 
201.110352 0.025191 
202.049896 0.069842 
202.085999 0.234916 
204.06543 1.5969 
205.072998 0.949829 
206.083923 0.299721 
207.091583 0.045739 
208.11232 0.030316 
209.083755 0.134521 
210.055542 0.109744 
210.091049 8.332861 
210.12767 0.297066 
211.062302 0.024348 
211.098038 1.520548 
211.205521 0.06497 
211.524155 0.024382 
212.070221 0.337984 
212.105545 0.081367 
214.049408 0.060935 
214.061752 0.024002 
214.471481 0.412004 
214.477615 0.645281 
214.484589 0.656793 
215.010147 0.126821 
215.363037 0.067316 
216.064865 0.075373 
217.00766 0.130314 
217.04953 0.285658 
217.073135 0.118231 
218.093994 0.023438 
219.090866 0.136054 
220.07547 0.158216 
220.098953 0.104812 
221.266312 0.022967 
222.054672 0.608816 
222.078018 0.06876 
222.091248 0.025786 
223.062332 0.151429 
223.086105 0.377847 
224.070465 0.057507 
224.106583 0.064374 
225.042618 0.056482 
225.091202 0.039738 
226.085754 0.328697 
226.122528 0.030231 
228.064972 1.089185 
228.101257 0.27646 
229.072845 0.040256 
229.153839 0.066508 
229.895767 0.045236 
230.080872 0.048799 
230.908676 0.050218 
230.966705 0.096388 
232.09729 0.100242 
232.945236 0.266331 
234.077621 0.053978 
235.086441 0.058121 
235.122665 0.279245 
235.19429 0.069143 
236.070663 0.094522 
236.130554 0.035373 
237.138229 3.388121 
238.085831 15.790159 
238.122406 0.169475 
238.142303 0.061684 
239.074966 0.019502 
239.089737 2.267341 
239.104843 0.026653 
240.051102 0.026937 
240.064926 1.060886 
240.100952 0.027975 
241.073029 2.549448 
242.080841 2.946875 
244.059494 0.192245 
245.063934 0.021943 
248.977371 0.024402 
250.14566 0.093977 
250.956085 0.040672 
251.117432 0.275864 
251.37944 0.035065 
252.100937 0.065908 
252.137436 0.100853 
253.132996 18.146078 
253.900177 0.056386 
254.065247 0.083098 
254.080658 18.050705 
254.117096 0.311824 
254.136444 2.907789 
255.004776 0.214618 
255.088211 10.128513 
255.139969 0.025489 
256.092712 1.287994 
256.981659 0.026545 
261.138306 0.865746 
263.117828 0.081913 
263.153748 14.552176 
264.157745 1.313353 
265.133453 0.043253 
265.93985 0.03026 
266.116638 0.096491 
266.998688 0.851947 
268.096344 11.355163 
268.262909 8.284656 
268.977875 3.566207 
269.101532 2.617926 
269.266113 0.176012 
269.978058 0.142508 
270.111908 100.0 
271.115479 17.938875 
272.118073 0.548918 
274.145996 1.846392 
275.153595 3.270839 
276.160919 1.782834 
277.133331 0.093085 
277.166382 0.055898 
277.968628 0.020385 
278.102203 0.175163 
279.148712 55.039707 
280.1521 10.329217 
280.167969 0.041562 
281.049744 0.025457 
281.127899 2.061155 
281.155304 0.565778 
281.780457 0.051529 
282.112213 0.122496 
282.131256 0.089495 
282.278534 0.119818 
283.030396 0.580435 
283.120422 0.095329 
283.262482 0.242685 
285.009155 10.59723 
285.034943 0.037007 
285.075165 0.11642 
286.009338 1.229784 
287.153351 1.178329 
288.15625 0.064607 
290.140808 6.215362 
291.109467 2.383145 
291.147919 4.200537 
292.114349 0.058954 
292.153442 0.873553 
293.163971 0.732991 
294.087677 0.038415 
296.127197 0.542696 
299.061157 2.603069 
300.062225 0.106418 
303.019745 0.12237 
303.148621 11.995167 
305.163544 2.769622 
306.167236 0.315299 
307.143585 11.210516 
308.146667 2.601752 
310.10672 0.172929 
310.143433 0.433331 
312.147217 0.028549 
315.14859 8.91962 
316.15213 2.180242 
321.15918 1.50781 
322.161896 0.027353 
323.175934 0.037999 
324.3255 5.118251 
325.328461 0.837289 
328.116547 0.131414 
329.192596 4.454083 
330.196228 0.035982 
333.159058 8.265547 
334.162689 1.671835 
335.174683 0.087405 
340.116852 0.039171 
343.376343 0.020673 
347.13327 0.073641 
351.169647 16.092115 
351.193542 0.051794 
351.604492 0.069581 
352.172882 4.186724 
353.184937 2.703372 
354.132874 2.459188 
355.103424 0.024166 
355.138031 0.836323 
362.995056 0.024531 
368.147003 0.1933 
368.424469 18.488508 
369.427704 6.716947 
370.164154 18.934526 
370.431 0.400213 
371.167267 4.413367 
371.239685 10.334382 
371.2771 0.271525 
372.170532 0.100065 
372.242615 1.019296 
389.664734 0.025114 
END IONS

