BEGIN IONS
PEPMASS=271.061
CHARGE=1+
COMPOUNDNAME=MoNA:2856133 Naringenin
LIBRARYQUALITY=3
SMILES=N/A
INCHIKEY=FTVWIRXFELQLPI-UHFFFAOYSA-N
INCHI=InChI=1S/C15H12O5/c16-9-3-1-8(2-4-9)13-7-12(19)15-11(18)5-10(17)6-14(15)20-13/h1-6,13,16-18H,7H2
MSLEVEL=2
SOURCE_INSTRUMENT=LC-ESI-QTOF-LC-ESI-QTOF
FILENAME=output_mgf.mgf
SEQ=*..*
IONMODE=
ORGANISM=MONA
NAME=MoNA:2856133 Naringenin [M-H]-
PI=MoNA
DATACOLLECTOR=MoNA
PUBMED=N/A
SUBMITUSER=mwang87
TAGS=
SPECTRUMID=CCMSLIB00000569317
SCANS=6568
107.014 25.113447 
107.0503 0.581779 
108.9906 0.601171 
119.0496 63.332428 
119.083 1.931505 
119.1513 0.911453 
121.0302 0.612807 
125.0223 1.819028 
143.0489 0.597293 
145.0294 1.617345 
151.0031 100.0 
151.0395 3.036885 
151.0551 0.581779 
151.0828 0.911453 
151.1178 1.574681 
161.0614 0.826126 
165.0187 4.076329 
177.0179 13.086142 
185.0591 1.004538 
187.0393 1.338091 
227.0693 1.896599 
229.0486 0.643835 
253.053 0.915332 
271.0594 26.26149 
END IONS

