BEGIN IONS
PEPMASS=444.42
CHARGE=1+
COMPOUNDNAME=(1R,3aR,5aR,5bR,9S,11aR)-3a,5a,5b,8,8,11a-hexamethyl-1-prop-1-en-2-yl-1,2,3,4,5,6,7,7a,9,10,11,11b,12,13,13a,13b-hexadecahydrocyclopenta[a]chrysen-9-ol
LIBRARYQUALITY=3
SMILES=N/A
INCHIKEY=MQYXUWHLBZFQQO-KIIHVYTKSA-N
INCHI=InChI=1S/C30H50O/c1-19(2)20-11-14-27(5)17-18-29(7)21(25(20)27)9-10-23-28(6)15-13-24(31)26(3,4)22(28)12-16-30(23,29)8/h20-25,31H,1,9-18H2,2-8H3/t20-,21?,22?,23?,24-,25?,27+,28-,29+,30+/m0/s1
MSLEVEL=2
SOURCE_INSTRUMENT=N/A-ESI-QFT
FILENAME=library_mgf.mgf
SEQ=*..*
IONMODE=positive
ORGANISM=MONA
NAME=(1R,3aR,5aR,5bR,9S,11aR)-3a,5a,5b,8,8,11a-hexamethyl-1-prop-1-en-2-yl-1,2,3,4,5,6,7,7a,9,10,11,11b,12,13,13a,13b-hexadecahydrocyclopenta[a]chrysen-9-ol [M+NH4]+
PI=MoNA
DATACOLLECTOR=MoNA:VF-NPL-QEHF009287
PUBMED=N/A
SUBMITUSER=mwang87
TAGS=
SPECTRUMID=CCMSLIB00004700350
SCANS=9287
50.018005 0.013459 
50.040932 0.012975 
50.213001 0.020277 
50.312874 0.013697 
50.460529 0.012725 
50.58263 0.01358 
50.782703 0.018927 
51.201691 0.022947 
51.702034 0.02002 
51.775494 0.01344 
51.988213 0.020066 
52.113808 0.013958 
52.294281 0.014565 
52.726986 0.025494 
52.807697 0.019176 
52.846638 0.022838 
52.868053 0.01574 
53.039406 0.040861 
53.047684 0.012215 
53.072353 0.017918 
53.091061 0.013131 
53.11116 0.021708 
53.400612 0.017566 
53.724979 0.011997 
53.871662 0.014656 
53.913155 0.016922 
54.031178 0.013287 
54.037189 0.020397 
54.050987 0.012783 
54.076397 0.021312 
54.091122 0.025827 
54.147411 0.029735 
54.171303 0.027794 
54.795761 0.023628 
54.805107 0.012491 
54.950783 0.020129 
55.018665 0.094334 
55.055065 1.479887 
55.131786 0.013645 
55.303627 0.014056 
55.512894 0.017216 
55.734058 0.013562 
56.19783 0.02111 
56.601742 0.013452 
56.678864 0.018766 
56.749966 0.014526 
56.782619 0.018183 
56.889065 0.013446 
57.034309 1.097215 
57.070709 14.299852 
57.07233 0.052836 
57.299988 0.018148 
57.517162 0.014171 
57.574352 0.026712 
57.638935 0.016749 
58.024174 0.088561 
58.065979 0.314829 
58.074017 0.269244 
58.381397 0.013544 
58.402969 0.015362 
58.995686 0.024436 
59.049969 6.174982 
59.061199 2.437177 
59.064655 0.025185 
59.206261 0.013876 
59.583794 0.013772 
59.983479 0.022462 
60.045235 0.12227 
60.053337 0.110365 
60.056499 0.016901 
60.083481 0.014368 
60.13559 0.015835 
60.169373 0.026962 
60.552589 0.016932 
60.723888 0.013773 
60.988773 0.013548 
61.011375 3.515826 
62.019272 2.345429 
62.348083 0.013216 
62.434509 0.014569 
62.466385 0.012689 
62.631283 0.02011 
62.790283 0.014361 
62.903942 0.012107 
62.982517 1.906964 
62.990517 0.572207 
63.026855 0.014872 
63.204464 0.024819 
63.300117 0.013467 
63.416782 0.014662 
63.533844 0.014066 
63.543316 0.026145 
63.72155 0.02029 
64.010376 0.012742 
64.154709 0.028129 
64.194679 0.015554 
64.220078 0.01387 
64.334137 0.013569 
64.429504 0.012949 
64.48069 0.017251 
64.485374 0.013027 
64.833221 0.019131 
65.168037 0.01229 
65.693512 0.013787 
65.702553 0.014884 
65.829567 0.017614 
65.961266 0.013166 
66.111526 0.014786 
66.53167 0.018765 
66.689774 0.013717 
66.863297 0.015114 
66.906441 0.017037 
67.055 1.679883 
67.12677 0.018592 
67.257217 0.013923 
67.651482 0.015873 
67.74736 0.021126 
68.578812 0.012259 
68.85125 0.020583 
69.034271 1.061987 
69.070641 2.722711 
69.093254 0.013678 
69.513985 0.012641 
69.569389 0.015047 
69.730049 0.028404 
69.756096 0.024137 
69.837189 0.014962 
69.927216 0.018251 
70.065918 0.109781 
70.206261 0.013325 
70.213043 0.015387 
70.276718 0.013706 
70.735161 0.013372 
70.937927 0.014272 
71.049889 1.289632 
71.086266 1.069019 
71.982864 0.030657 
72.04509 0.021048 
72.397728 0.014002 
73.029152 1.934362 
73.047562 36.711071 
73.065521 1.275698 
74.047096 0.636122 
74.050888 0.383229 
74.060707 0.017509 
74.097122 0.014576 
74.442543 0.013789 
74.592674 0.016113 
74.789734 0.014132 
75.026848 1.486471 
75.044838 0.031855 
75.180023 0.01426 
75.338287 0.014107 
75.41375 0.019408 
76.076408 0.014156 
76.152634 0.011932 
76.254044 0.015395 
76.430542 0.022291 
76.535454 0.015508 
77.006027 0.298898 
77.039085 0.013773 
77.042496 0.046688 
77.102615 0.013956 
77.274635 0.012477 
77.377739 0.027891 
77.451332 0.018931 
77.516167 0.011752 
77.593567 0.013437 
77.673164 0.01318 
77.996933 0.015325 
78.07576 0.0136 
78.2547 0.015067 
78.63063 0.014551 
78.956398 0.638335 
78.958817 0.019213 
79.021835 5.129447 
79.054932 0.636171 
79.678444 0.022375 
79.730835 0.014156 
80.499855 0.013414 
81.000908 0.252283 
81.034134 0.021784 
81.070534 3.657151 
81.241051 0.012407 
81.560341 0.013634 
82.073959 0.045066 
82.846565 0.012537 
83.049828 0.303453 
83.086189 1.650626 
83.107727 0.021234 
83.122902 0.018335 
83.653503 0.015124 
83.715546 0.019582 
83.730461 0.026578 
84.04512 0.067637 
84.164459 0.01326 
84.205437 0.013634 
84.760094 0.015982 
84.921196 0.020436 
85.029076 0.781907 
85.065445 1.440966 
85.101807 0.142595 
85.55452 0.012143 
85.830849 0.031362 
86.50856 0.01319 
87.04026 0.024768 
87.044685 41.695 
87.070374 0.022439 
87.29319 0.02062 
87.306908 0.027719 
88.022057 0.020347 
88.047943 0.024094 
88.772675 0.011946 
88.820099 0.014746 
89.06031 31.096285 
89.217903 0.025785 
89.24823 0.02278 
89.2547 0.013363 
89.308929 0.015318 
89.317024 0.015883 
89.556007 0.028412 
89.968468 0.018074 
90.06369 0.313833 
90.081055 0.01711 
90.287636 0.021319 
90.696243 0.012377 
90.78653 0.014069 
90.926201 0.013195 
91.052422 0.016164 
91.055359 1.949756 
91.057953 100.0 
91.96463 0.032405 
92.057533 3.209303 
92.061272 1.939654 
92.16066 0.012863 
92.428284 0.015307 
92.983368 0.062688 
93.037277 2.313665 
93.061775 0.015403 
93.070457 4.55292 
93.585251 0.028124 
93.868401 0.019287 
94.003105 0.016161 
94.073776 0.024857 
94.458054 0.013102 
94.930153 0.091194 
94.96637 0.014609 
95.016472 1.694538 
95.049706 0.489136 
95.086082 5.54099 
96.081451 0.063044 
96.089417 0.130471 
96.957863 0.230624 
96.99575 0.02067 
97.028816 0.015314 
97.065392 0.365245 
97.101723 0.975021 
97.72451 0.021585 
98.09697 0.135491 
99.044571 1.949956 
99.080978 0.141977 
99.208755 0.011822 
99.558258 0.012008 
100.084602 0.013672 
100.289238 0.015408 
100.334579 0.014719 
101.00367 4.675181 
101.023849 0.023029 
101.060219 0.961035 
101.384621 0.014717 
101.850822 0.012371 
102.999519 0.039629 
103.03949 6.27875 
103.054642 0.032216 
103.07592 0.508615 
103.306953 0.02003 
105.070175 1.395744 
105.073563 4.631186 
105.101212 0.017184 
106.073372 0.037231 
106.898308 0.015959 
107.052795 0.78055 
107.07074 0.291008 
107.077652 0.014494 
107.085991 4.831191 
107.758179 0.015617 
108.089188 0.070879 
108.52787 0.017477 
108.957047 0.013251 
108.991188 0.033938 
109.064995 0.059548 
109.068497 0.354983 
109.101631 4.669313 
109.97773 0.032812 
110.10495 0.088753 
111.044586 0.091387 
111.080856 0.447678 
111.117264 0.08134 
112.581444 0.027211 
112.650322 0.014497 
113.060051 1.204972 
113.096939 0.020999 
113.974953 0.021289 
114.060089 0.085781 
114.073547 0.262638 
114.388954 0.02155 
115.039574 0.040074 
115.056442 0.84109 
115.075874 0.034241 
115.729492 0.013867 
115.873329 0.016281 
116.053482 0.026645 
116.071098 0.064309 
116.41481 0.015745 
116.603325 0.014072 
116.97744 0.024484 
117.055054 0.234857 
117.070343 0.04879 
117.084038 0.016043 
117.091682 0.052026 
117.676933 0.015426 
119.029472 0.023085 
119.049454 0.337982 
119.085907 3.873528 
119.204239 0.013806 
119.708366 0.02329 
119.864464 0.014491 
119.94117 0.027745 
120.089325 0.051928 
120.259247 0.017759 
120.727089 0.014805 
121.028358 0.014566 
121.031807 0.021123 
121.065109 11.720333 
121.086014 0.018346 
121.101517 3.938097 
121.29689 0.013391 
121.937469 0.025339 
121.95726 0.638597 
122.068542 0.467594 
122.955315 0.022873 
123.080688 0.181864 
123.117188 2.013886 
123.343803 0.015655 
124.120239 0.017179 
124.450577 0.025454 
124.659409 0.01684 
124.715698 0.019108 
124.964668 0.112341 
125.096497 0.214841 
125.936134 0.314589 
126.474136 0.022217 
126.94397 0.28746 
126.954056 0.020033 
127.111916 0.108285 
128.083252 0.013768 
128.129166 0.018794 
128.585831 0.012799 
128.938889 0.017118 
129.070358 0.027109 
129.505203 0.021193 
129.561966 0.015245 
129.871841 0.015956 
130.68512 0.020415 
131.049118 0.022849 
131.065659 0.022771 
131.07045 3.187018 
131.085724 0.710274 
131.476013 0.022599 
132.08844 0.036688 
132.866531 0.015693 
133.065414 0.341719 
133.086121 5.479977 
133.091919 0.030546 
133.101349 4.103332 
133.564362 0.017577 
133.987503 0.017085 
134.104706 0.087064 
134.978897 0.055001 
135.080658 0.578751 
135.116989 5.126714 
135.129196 0.01557 
135.636581 0.014453 
136.120499 0.201745 
136.143768 0.014907 
136.192093 0.014085 
136.684723 0.024577 
137.059265 0.021065 
137.096237 0.186178 
137.13266 0.291427 
137.353912 0.022055 
137.803223 0.029657 
138.237228 0.014117 
138.730209 0.015923 
139.730011 0.021874 
139.981705 0.021005 
140.354446 0.019062 
140.959457 0.052016 
141.38446 0.01665 
141.457901 0.013459 
142.27037 0.025666 
142.917755 0.033647 
142.938995 0.025847 
143.071182 0.029502 
143.085861 0.125848 
143.711914 0.012966 
144.204315 0.0204 
144.958542 0.027392 
145.049683 0.803266 
145.067947 0.185631 
145.086563 0.024534 
145.101318 1.709463 
145.37825 0.019703 
145.445053 0.027153 
145.873566 0.014339 
146.974518 0.017574 
147.047302 0.097737 
147.06575 0.023346 
147.080582 2.144428 
147.116959 3.333038 
147.641647 0.022738 
148.084137 0.027736 
148.120468 0.071116 
148.925735 0.706759 
148.972183 0.019598 
149.045044 11.152508 
149.059921 0.021851 
149.096222 0.456095 
149.13266 2.239726 
150.044556 0.187291 
150.067978 0.045907 
150.135559 0.017076 
150.196976 0.022928 
150.92186 0.070387 
151.048401 0.020268 
151.112 0.500313 
151.182297 0.015428 
151.636948 0.016733 
152.089279 0.028006 
152.150482 0.013235 
152.959457 0.15179 
152.989517 0.061748 
153.098236 0.013987 
153.127823 0.032524 
153.427444 0.016264 
154.449753 0.013494 
154.616821 0.020007 
155.512573 0.014316 
155.740845 0.014717 
156.138519 0.428874 
156.936905 0.037041 
156.954407 0.120243 
157.101486 0.368877 
157.383804 0.015562 
157.435715 0.014341 
157.704407 0.024656 
157.804611 0.021333 
157.968552 0.012908 
157.99411 0.019689 
158.562836 0.013571 
158.891144 0.025539 
159.08226 0.088474 
159.116943 2.155174 
159.65239 0.022383 
159.836655 0.021729 
160.119888 0.032468 
161.096313 0.247251 
161.125854 0.023291 
161.132553 2.855612 
161.781235 0.02793 
162.128418 0.014253 
162.135986 0.073854 
162.642944 0.014592 
162.951782 0.19066 
163.039185 0.012828 
163.060684 0.170388 
163.075333 0.079244 
163.111771 0.311624 
163.148331 1.347052 
163.742203 0.015497 
163.971863 0.020533 
164.451309 0.02369 
164.715027 0.023281 
164.9207 2.099785 
164.96785 0.043359 
165.054138 0.014046 
165.091293 1.894054 
165.127747 0.12546 
165.343552 0.01345 
165.351776 0.015219 
167.055573 39.103298 
168.055435 1.710166 
169.03508 0.060942 
170.993225 0.015875 
171.117065 0.322184 
171.514343 0.013712 
172.754761 0.015197 
172.930191 0.074077 
173.096344 0.170419 
173.132874 1.043274 
173.736832 0.018303 
173.79425 0.014882 
174.209625 0.014466 
174.722717 0.023172 
174.836136 0.018456 
174.926804 0.020737 
174.971619 0.041885 
175.096832 0.850333 
175.111969 0.173075 
175.148376 1.930197 
176.96756 1.478002 
177.112991 0.029587 
177.12764 2.205957 
177.16394 0.303051 
177.917633 0.015593 
177.993271 0.026491 
178.130768 0.03324 
178.137924 0.023743 
178.27092 0.018952 
179.082596 0.019784 
179.128677 0.016025 
179.143204 0.033625 
179.749512 0.013332 
179.954498 0.419006 
180.556839 0.017154 
180.894623 1.909757 
180.944748 0.032712 
181.071304 1.098909 
181.168213 0.015801 
182.222748 0.022056 
182.455536 0.01626 
182.89209 0.074628 
184.209137 0.017731 
185.132797 1.075663 
186.13678 0.026135 
186.594849 0.016149 
187.148392 2.031577 
188.967545 0.05367 
189.127823 0.146199 
189.16394 4.185304 
190.167572 0.258439 
191.106659 0.024435 
191.143097 0.065068 
191.179749 0.313089 
192.962112 0.040218 
194.924835 0.124808 
194.977539 0.055442 
195.580734 0.014183 
196.868942 0.489674 
197.093811 0.018873 
197.132492 0.038335 
198.465897 0.016209 
199.148514 0.736149 
199.558838 0.017037 
200.151093 0.031423 
201.154572 0.02035 
201.164108 0.95936 
201.387436 0.017594 
202.218536 0.014566 
202.839264 0.021161 
203.143356 3.507389 
203.179657 2.301259 
203.648117 0.014465 
204.146881 0.237431 
204.183319 0.104694 
204.19986 0.019948 
204.902283 0.020826 
204.96225 0.052535 
205.159164 0.315994 
206.978012 4.408995 
207.033646 0.022575 
207.174591 2.232841 
207.978699 0.155033 
208.925049 0.014415 
209.01062 0.045788 
209.118698 0.023172 
210.899368 0.100493 
210.972534 0.016097 
211.149048 0.106759 
211.488007 0.018358 
212.936295 0.037852 
213.1642 0.239042 
213.62561 2.381758 
214.391006 0.014572 
215.143036 0.075567 
215.179886 0.295157 
215.960144 0.017003 
217.15892 0.13569 
219.17482 0.340286 
220.887054 0.082437 
223.063858 0.0756 
223.794525 0.032572 
224.343491 0.014754 
225.043137 19.793013 
225.164474 0.025036 
225.637558 0.02194 
225.73381 0.021768 
226.043488 1.946927 
227.022522 1.969217 
227.17952 0.24671 
227.200943 0.016514 
228.022995 0.023615 
228.889648 1.199572 
229.159409 0.028537 
229.194946 0.103498 
229.889389 0.018606 
231.140503 0.015986 
231.174835 0.057605 
231.227509 0.014391 
231.896912 0.031847 
232.883865 0.03776 
232.929108 0.069685 
232.946365 0.188179 
233.190125 1.932718 
233.891586 1.986837 
233.904495 0.019114 
234.004166 0.016783 
234.194183 0.030554 
234.900101 0.16708 
235.637314 0.013703 
238.967987 0.406451 
239.095276 0.383827 
239.179489 0.033999 
240.933746 0.014148 
241.195724 0.034555 
242.402267 0.014809 
242.793762 0.014998 
242.944931 0.11204 
244.094788 0.013271 
244.872665 0.083577 
244.885162 0.037485 
248.879303 0.052271 
250.119858 0.015862 
250.227753 0.019873 
250.410812 0.01511 
250.894852 0.022907 
251.901459 0.023233 
252.890442 0.070712 
253.07106 0.017083 
253.195435 0.264085 
253.801331 0.025819 
254.890366 0.021874 
255.210678 0.146778 
258.369995 0.013735 
258.864868 0.018566 
258.900391 0.020462 
258.940033 0.228107 
262.882141 0.118936 
262.894989 0.131451 
264.910217 0.055202 
267.000793 0.027266 
267.2117 0.050386 
268.978638 0.069489 
270.900391 0.602514 
271.205627 0.388687 
272.90094 0.201701 
273.169952 0.014752 
273.900146 0.070426 
274.917725 0.065857 
275.182281 0.023335 
275.33194 0.023143 
275.902466 0.790667 
276.910797 0.02758 
277.216583 0.056339 
281.054382 0.021829 
283.030975 0.321036 
284.915924 0.015187 
285.009979 1.535277 
285.2229 0.0279 
287.409027 0.015223 
288.909851 0.018132 
291.867798 0.080391 
292.213745 0.013686 
292.331879 0.029399 
293.181549 0.014321 
293.951538 0.037041 
295.06131 0.02361 
295.930359 0.073816 
296.864685 0.033549 
299.061981 2.092214 
300.062439 0.108782 
300.465912 0.026648 
304.887421 0.01945 
304.925018 0.01654 
305.948822 0.186353 
306.923401 0.015405 
308.936584 0.056871 
309.279175 0.428031 
309.945618 0.029746 
310.232269 0.038755 
310.310608 0.348151 
311.294952 0.503391 
311.314148 0.024805 
313.870026 0.015713 
314.105865 0.021114 
314.17804 0.015 
314.225281 0.0196 
315.004303 0.025846 
321.649017 0.014322 
321.879333 0.051219 
322.312836 0.01652 
322.850861 0.017766 
322.952606 0.018204 
323.055817 0.019078 
323.860168 0.033287 
323.960083 0.528512 
324.08078 0.015652 
324.986511 4.555359 
325.987335 0.673763 
329.822327 0.021195 
332.053467 0.019118 
336.520599 0.035686 
337.253479 0.017077 
337.448364 0.016839 
340.861908 0.125218 
342.861359 0.10062 
342.99707 10.940177 
343.192627 0.029358 
343.859406 0.18079 
343.997955 2.196985 
344.830902 0.015668 
345.814728 0.016428 
352.394226 0.051691 
354.852264 0.021781 
357.013702 0.237586 
357.192688 0.01488 
359.028625 3.441385 
360.029205 0.452441 
360.870819 0.040614 
362.606934 0.017832 
367.15448 0.024827 
369.030151 0.01708 
372.348969 0.02223 
375.98822 0.032957 
383.036285 0.0216 
389.318542 0.024832 
393.712585 0.015127 
398.490173 0.022055 
403.708191 0.022409 
404.851593 0.073058 
407.330872 0.433732 
409.531616 0.024904 
411.105072 0.017208 
412.859558 0.021054 
413.792358 0.015697 
417.546021 0.01854 
424.863373 0.029589 
424.898712 0.026864 
425.341553 0.264381 
426.766479 0.014457 
426.876282 0.026514 
426.914032 0.020702 
433.410248 0.024492 
436.765381 0.017912 
442.868439 0.0231 
443.233307 0.031688 
443.334869 0.321944 
443.407806 0.154542 
444.355621 0.041414 
444.455902 0.074563 
444.876709 0.018232 
445.311127 0.055066 
446.203827 0.027689 
447.347626 0.826799 
447.710693 0.016107 
448.350922 0.017587 
459.221375 0.025414 
461.744659 0.013996 
470.611847 0.023477 
END IONS

