BEGIN IONS
PEPMASS=635.35
CHARGE=1+
COMPOUNDNAME=Astaxanthin
LIBRARYQUALITY=3
SMILES=N/A
INCHIKEY=MQZIGYBFDRPAKN-QISQUURKSA-N
INCHI=InChI=1S/C40H52O4/c1-27(17-13-19-29(3)21-23-33-31(5)37(43)35(41)25-39(33,7)8)15-11-12-16-28(2)18-14-20-30(4)22-24-34-32(6)38(44)36(42)26-40(34,9)10/h11-24,35-36,41-42H,25-26H2,1-10H3/b12-11+,17-13+,18-14+,23-21+,24-22+,27-15+,28-16+,29-19+,30-20+
MSLEVEL=2
SOURCE_INSTRUMENT=N/A-ESI-QFT
FILENAME=library_mgf.mgf
SEQ=*..*
IONMODE=positive
ORGANISM=MONA
NAME=Astaxanthin [M+K]+
PI=MoNA
DATACOLLECTOR=MoNA:VF-NPL-QEHF003111
PUBMED=N/A
SUBMITUSER=mwang87
TAGS=
SPECTRUMID=CCMSLIB00004694174
SCANS=3111
50.016727 0.408892 
51.940697 1.021702 
53.002987 5.698835 
53.00922 0.429427 
53.039364 8.327364 
55.008678 0.373806 
55.01862 12.071526 
55.054989 68.317871 
55.091373 0.398234 
55.138859 0.429555 
55.194935 0.400497 
55.827576 0.340406 
55.935169 2.049383 
56.050255 5.811429 
56.058353 1.151031 
56.965546 10.727977 
57.034245 7.575115 
57.070633 100.0 
57.187603 0.479015 
57.341892 0.381337 
57.411987 0.407777 
57.921177 0.373541 
57.935532 0.529986 
58.042088 1.843756 
58.065861 0.956052 
58.073971 1.994093 
58.255692 0.430566 
58.645763 0.387211 
59.049908 11.663508 
59.061131 1.803826 
59.796898 0.382029 
60.045143 17.960434 
60.433414 0.376348 
60.649879 0.423995 
60.655701 0.42141 
61.011395 5.043465 
61.609543 0.352805 
62.019207 0.693171 
62.787285 0.42577 
62.982479 32.906372 
63.061989 0.434252 
63.998421 1.253535 
64.906441 0.397159 
65.039284 5.362696 
65.766716 0.412321 
65.792603 0.412311 
65.825188 0.361655 
66.046852 0.367767 
66.416451 0.447493 
66.527214 0.430421 
67.054916 81.473839 
68.050034 0.528352 
68.058311 2.643865 
69.03421 8.586498 
69.068611 0.496612 
69.070564 49.425224 
69.089134 0.423014 
70.065788 12.815937 
70.073883 1.175556 
71.013382 0.488158 
71.049828 11.030856 
71.061081 1.851468 
71.086212 49.274311 
71.088234 0.513558 
72.045082 0.501778 
72.081451 0.454959 
72.937805 0.891251 
73.029045 16.082792 
73.047432 4.503762 
73.065414 6.420894 
74.097015 1.546379 
75.044655 0.952897 
75.824524 0.402695 
77.330475 0.39057 
79.021797 18.313963 
79.054855 46.984142 
79.309082 0.406453 
80.050018 1.784596 
80.058197 1.297665 
80.846375 0.421033 
80.948463 12.537444 
81.000748 0.549801 
81.034119 5.416315 
81.070465 69.753479 
81.445564 0.399334 
82.044289 0.406329 
82.065643 5.014997 
82.073784 2.840154 
82.945473 2.360046 
83.013306 0.588835 
83.049721 19.53211 
83.086121 20.268805 
84.081337 4.233251 
85.029022 2.202407 
85.065323 3.93632 
85.101685 11.488269 
86.060425 0.453675 
86.096985 1.845541 
86.703041 0.393495 
87.044586 18.354851 
87.277222 0.370468 
87.717087 0.394837 
88.076218 0.915366 
88.927528 0.435087 
88.978722 3.165069 
89.060226 49.514111 
89.062881 0.778383 
89.336952 0.37989 
89.806808 0.477108 
89.964256 0.564627 
90.948196 4.424223 
91.054726 71.860191 
91.057884 49.456718 
92.057693 7.503356 
92.686028 0.436635 
93.054642 6.333768 
93.070335 55.28661 
94.065491 1.515446 
94.0737 1.535802 
94.685036 0.430737 
95.049568 37.445183 
95.085968 48.599609 
96.052765 0.579473 
96.081177 1.172455 
96.08931 2.501688 
97.028732 1.166637 
97.065193 9.613367 
97.101646 9.210728 
98.477692 0.390358 
98.83754 0.444279 
99.044594 4.035708 
99.080803 0.961704 
101.060181 1.899574 
102.091904 1.614686 
102.948441 0.433119 
103.054581 7.599117 
104.49147 0.424959 
104.529388 0.358983 
104.99279 4.001507 
105.033836 0.673893 
105.045128 4.398591 
105.070221 47.584621 
106.06543 0.512436 
106.073486 1.559802 
107.049484 15.575072 
107.082108 0.684803 
107.085861 31.875639 
107.303314 0.426234 
107.967033 0.501839 
108.057251 0.478988 
108.080978 1.122415 
108.089333 0.489452 
108.126312 0.422805 
108.958931 1.341735 
109.028748 7.599562 
109.065041 14.910553 
109.097969 0.423572 
109.101494 23.236906 
110.060135 0.47019 
110.889771 0.407593 
111.044258 6.040205 
111.080711 4.53632 
113.426552 0.403978 
115.039024 0.54248 
115.054543 5.721589 
115.086792 0.471339 
116.062256 0.670128 
116.985565 0.605474 
117.070145 19.552443 
118.077843 1.125047 
119.049423 7.369702 
119.085754 40.744572 
120.003311 0.46678 
120.089005 1.538512 
121.028824 0.408889 
121.064926 31.985233 
121.101349 13.113967 
122.037292 0.44579 
122.068062 0.495395 
122.072815 0.483251 
123.044212 0.676515 
123.08065 6.417756 
123.116798 0.952306 
125.059593 0.553163 
125.096184 1.854398 
127.331474 0.444472 
127.880753 0.388036 
127.997604 0.419682 
128.062134 4.811877 
128.953629 0.645871 
129.070053 12.997593 
130.07814 1.212443 
131.085617 20.700397 
132.958481 0.509564 
132.987244 0.427713 
133.064697 6.944807 
133.101181 17.54294 
133.989914 0.462725 
134.096893 0.516381 
135.002777 1.720891 
135.043945 2.162076 
135.080383 15.828573 
135.11705 3.788405 
136.051971 2.208129 
137.059753 1.754438 
137.096069 3.530514 
137.132065 0.440868 
137.615158 0.386261 
139.075668 0.884941 
141.069916 4.556114 
141.577194 0.428719 
142.077759 4.25208 
143.085602 11.423431 
143.746811 0.422289 
144.09343 0.610665 
145.064743 5.700408 
145.101151 11.590856 
145.299667 0.498137 
146.096207 0.929907 
146.103592 0.452674 
146.5961 0.41635 
146.78038 0.46491 
146.974319 3.083401 
147.080383 11.675062 
147.116882 9.364703 
149.059784 1.722537 
149.096069 6.573859 
150.067657 4.847402 
150.968918 0.524068 
151.075272 0.663393 
151.112091 0.581338 
151.857834 0.430526 
153.054474 0.59232 
153.070297 0.528318 
153.251862 0.428562 
153.663727 0.461749 
154.078308 0.45418 
154.122787 0.689512 
155.085449 6.733306 
156.093369 2.627484 
157.101151 7.710523 
157.787323 0.395486 
158.072586 0.486251 
158.108688 0.546099 
158.973831 0.489268 
159.080612 4.015926 
159.116821 4.817175 
159.76857 0.444182 
161.059708 3.203802 
161.096252 3.400985 
161.132385 0.677969 
163.075165 1.002188 
163.11142 0.527731 
163.976608 0.557504 
164.083206 1.471991 
164.9207 7.216807 
165.069855 1.706061 
165.091354 0.503605 
166.999893 0.536869 
167.055481 1.095776 
167.069138 0.492135 
167.08522 1.133094 
167.959396 0.441826 
168.093811 0.718305 
169.100937 2.838779 
170.109238 0.856968 
171.116714 2.115258 
172.005905 1.103128 
172.088272 0.481316 
173.096298 2.474583 
174.00621 1.075976 
174.308044 0.525868 
175.075958 0.516476 
179.033875 3.632261 
179.085922 1.557718 
180.093063 0.497528 
181.101242 1.159675 
183.117233 1.827275 
185.096344 1.383219 
187.047623 0.573821 
187.111816 1.12996 
187.77478 0.452831 
189.054352 0.897351 
190.873383 0.559971 
191.569473 0.449411 
192.961334 0.60471 
193.049744 2.211523 
195.028671 2.254062 
195.080719 0.51149 
195.117111 0.665966 
197.044937 0.619497 
200.801086 0.417089 
201.071289 0.46777 
203.071335 0.560897 
204.939362 0.474209 
205.016129 0.484357 
205.101974 0.453365 
206.655594 0.52687 
209.095413 0.531174 
209.11705 1.775859 
211.112442 0.588942 
213.091431 0.50287 
215.08194 0.555497 
215.163406 0.429544 
216.583786 0.457243 
220.00769 3.692471 
221.27829 0.491666 
222.898743 11.244537 
225.043045 12.377773 
225.091049 0.550203 
226.043671 0.42016 
227.022018 2.493763 
227.03949 3.300095 
227.070389 0.541228 
228.041748 0.431646 
229.895172 0.58385 
232.09227 0.533259 
233.131088 0.437813 
235.096359 5.070406 
238.971268 0.476747 
239.90123 0.486344 
240.90918 26.576574 
247.977997 0.464791 
253.107193 2.157519 
254.924911 0.541096 
255.065948 0.74838 
256.004211 0.41987 
263.681549 0.419306 
263.901611 2.378243 
266.996216 0.62026 
268.978607 2.567772 
268.99527 0.477267 
270.975037 0.719487 
271.298035 0.438935 
274.898621 0.41953 
278.569 0.400876 
279.914581 0.391634 
281.911682 22.24029 
282.278839 1.874347 
282.915405 0.674442 
283.031494 0.549305 
289.124939 0.470761 
297.112427 0.891079 
300.146851 0.421618 
308.287537 0.417875 
309.075195 0.61484 
310.309906 3.118834 
311.126892 4.068049 
312.837769 0.645182 
315.122559 10.154463 
319.836517 2.949021 
336.838745 5.324365 
337.846649 1.168764 
339.158844 0.614755 
343.117249 6.844772 
343.996033 0.517118 
344.827271 0.773629 
344.975647 3.764367 
353.174255 2.05105 
353.841949 4.273868 
353.893463 0.372383 
354.846527 1.445729 
355.83844 2.694994 
360.838623 11.434206 
361.840698 0.874565 
369.836029 1.919858 
373.848724 3.390776 
378.848969 5.104517 
396.84198 0.784862 
402.964569 1.55026 
403.961914 0.499147 
419.914154 0.499236 
436.831238 0.452631 
443.138306 0.445338 
446.740631 0.493955 
447.346954 3.144617 
448.3479 0.618888 
456.187256 0.418682 
477.345184 0.431528 
518.619324 0.435573 
547.179504 0.404889 
567.737061 0.557467 
575.984009 0.41325 
603.790466 0.397681 
604.677185 0.40988 
656.690186 0.382331 
END IONS

