BEGIN IONS
PEPMASS=453.0
CHARGE=1+
COMPOUNDNAME=MoNA:2309812 Ribostamycin
LIBRARYQUALITY=3
SMILES=N/A
INCHIKEY=NSKGQURZWSPSBC-DLBSIDPUSA-N
INCHI=InChI=1S/C17H34N4O10/c18-2-6-10(24)12(26)8(21)16(28-6)30-14-5(20)1-4(19)9(23)15(14)31-17-13(27)11(25)7(3-22)29-17/h4-17,22-27H,1-3,18-21H2/t4-,5+,6-,7-,8-,9+,10-,11-,12-,13-,14-,15-,16-,17-/m1/s1
MSLEVEL=2
SOURCE_INSTRUMENT=LC-ESI-QQ-LC-ESI-QQ
FILENAME=output_mgf.mgf
SEQ=*..*
IONMODE=
ORGANISM=MONA
NAME=MoNA:2309812 Ribostamycin [M-H]-
PI=MoNA
DATACOLLECTOR=MoNA
PUBMED=N/A
SUBMITUSER=mwang87
TAGS=
SPECTRUMID=CCMSLIB00000572123
SCANS=9374
58.8 3.703704 
89.5 4.444444 
95.1 6.666667 
96.9 100.0 
99.8 14.814815 
118.1 48.148148 
141.5 5.185185 
143.4 4.444444 
148.0 8.148148 
155.1 4.444444 
158.6 4.444444 
161.0 27.407407 
167.0 9.62963 
180.7 2.222222 
204.5 3.703704 
220.6 5.185185 
244.1 5.185185 
268.1 2.222222 
279.4 2.222222 
287.2 20.0 
288.3 11.111111 
293.3 5.185185 
296.8 2.962963 
306.2 12.592593 
321.7 65.925926 
453.4 44.444444 
END IONS

