BEGIN IONS
PEPMASS=895.516
CHARGE=1+
COMPOUNDNAME=ABAMECTIN
LIBRARYQUALITY=3
SMILES=N/A
INCHIKEY=RRZXIRBKKLTSOM-XPNPUAGNSA-N
INCHI=InChI=1S/C48H72O14/c1-11-25(2)43-28(5)17-18-47(62-43)23-34-20-33(61-47)16-15-27(4)42(26(3)13-12-14-32-24-55-45-40(49)29(6)19-35(46(51)58-34)48(32,45)52)59-39-22-37(54-10)44(31(8)57-39)60-38-21-36(53-9)41(50)30(7)56-38/h12-15,17-19,25-26,28,30-31,33-45,49-50,52H,11,16,20-24H2,1-10H3/b13-12+,27-15+,32-14+/t25-,26-,28-,30-,31-,33+,34-,35-,36-,37-,38-,39-,40+,41-,42-,43+,44-,45+,47+,48+/m0/s1
MSLEVEL=2
SOURCE_INSTRUMENT=N/A-Linear Ion Trap
FILENAME=library_mgf.mgf
SEQ=*..*
IONMODE=positive
ORGANISM=MONA
NAME=ABAMECTIN M+NH4
PI=MoNA
DATACOLLECTOR=MoNA:VF-NPL-LTQ007736
PUBMED=N/A
SUBMITUSER=mwang87
TAGS=
SPECTRUMID=CCMSLIB00004691010
SCANS=6631
441.299988 4.047698 
461.299988 3.485075 
509.470001 5.988534 
592.530029 5.689169 
607.400024 98.99176 
623.440002 9.27914 
642.380005 9.399005 
689.580017 26.642731 
733.369995 10.703159 
749.030029 4.433338 
809.460022 4.464222 
818.619995 5.104633 
END IONS

