BEGIN IONS
PEPMASS=304.152
CHARGE=1+
COMPOUNDNAME=Isocycloheximide
LIBRARYQUALITY=3
SMILES=N/A
INCHIKEY=YPHMISFOHDHNIV-UHFFFAOYSA-N
INCHI=InChI=1S/C15H23NO4/c1-8-3-9(2)15(20)11(4-8)12(17)5-10-6-13(18)16-14(19)7-10/h8-12,17H,3-7H2,1-2H3,(H,16,18,19)
MSLEVEL=2
SOURCE_INSTRUMENT=N/A-ESI-QFT
FILENAME=library_mgf.mgf
SEQ=*..*
IONMODE=positive
ORGANISM=MONA
NAME=Isocycloheximide [M+Na]+
PI=MoNA
DATACOLLECTOR=MoNA:VF-NPL-QEHF023906
PUBMED=N/A
SUBMITUSER=mwang87
TAGS=
SPECTRUMID=CCMSLIB00004714969
SCANS=23906
50.096821 0.107246 
50.508171 0.229059 
50.873238 0.195293 
50.987991 0.05187 
51.357304 0.066422 
51.510242 0.14509 
51.839081 0.178593 
54.364384 0.103095 
54.430603 0.116832 
54.800838 0.069962 
55.054394 0.091104 
55.706928 0.057582 
56.298504 0.21552 
56.984699 0.247724 
57.070213 14.417324 
57.295643 0.062451 
57.891464 0.142265 
58.065411 0.166663 
58.833172 0.049229 
59.053066 0.191028 
60.595753 0.169416 
61.010921 80.768303 
62.018669 0.357547 
63.782993 0.223079 
64.169197 0.101036 
65.209946 0.076933 
65.214844 0.074896 
66.742996 0.080555 
66.975449 0.136916 
67.054321 0.190915 
67.526665 0.081267 
68.641434 0.241373 
69.033661 0.372744 
69.069931 0.435156 
70.065117 0.30401 
70.363655 0.222107 
70.958046 0.073159 
71.085617 6.881962 
71.763962 0.210518 
72.228035 0.058963 
72.937279 0.060337 
74.491653 0.222015 
75.613098 0.08007 
76.189056 0.094248 
76.300171 0.2149 
77.197197 0.155889 
78.623299 0.054342 
79.021339 0.39317 
79.024323 0.059487 
80.04953 94.942314 
80.052147 1.028458 
80.675095 0.220964 
80.974281 0.073777 
81.052902 3.252705 
81.069916 0.09179 
81.674377 0.2391 
83.661865 0.055643 
84.080818 7.188627 
84.378822 0.212409 
85.101234 2.914467 
85.189003 0.060951 
85.912964 0.233401 
87.6782 0.154574 
88.928696 0.24515 
91.054314 2.100713 
91.598679 0.056358 
91.832893 0.170102 
92.448364 0.209075 
93.069901 0.251394 
95.002304 0.057793 
95.085464 0.304006 
95.17617 0.111473 
96.044456 1.015197 
97.028214 0.193528 
97.923386 0.119584 
98.667915 0.145888 
99.043938 0.076125 
100.075676 0.065066 
100.752136 0.194634 
101.961723 0.086278 
102.091354 2.922868 
103.265823 0.223256 
105.069939 0.333865 
105.337379 0.248755 
110.879883 0.116228 
112.03923 0.308403 
112.075836 0.908164 
113.059761 0.056962 
115.554939 0.114978 
117.248062 0.144604 
118.787331 0.283476 
119.085533 0.062645 
120.294876 0.062471 
120.454201 0.073694 
121.064735 0.162726 
122.240501 0.184543 
126.418106 0.062697 
126.936653 0.05794 
127.467186 0.261392 
128.817184 0.059845 
131.085541 0.061302 
131.220306 0.125201 
131.597824 0.200409 
131.802597 0.067036 
132.799194 0.186203 
133.857803 0.105617 
134.955841 0.164075 
135.944885 0.22633 
137.243683 0.05365 
140.856064 0.180937 
145.052429 0.36004 
145.10112 0.266687 
146.059891 0.078591 
146.176804 0.135123 
146.976212 1.784334 
147.974915 0.773622 
148.955368 0.065463 
148.97197 12.630419 
149.06015 0.063125 
149.91861 0.056137 
149.954208 0.06033 
150.951172 2.179378 
152.930267 0.587604 
152.951752 8.870144 
152.966827 0.121887 
153.340683 0.078793 
153.959259 2.078497 
154.94693 2.926749 
155.954941 0.308277 
156.065674 0.057327 
157.10144 0.124949 
157.668274 0.062666 
157.741592 0.134022 
158.657242 0.062569 
158.762604 0.05545 
159.08046 0.293754 
159.116226 0.091767 
161.236694 0.052379 
162.137543 0.254235 
163.07515 0.081091 
166.541168 0.056556 
166.928665 2.567755 
166.946106 0.055414 
166.982452 0.979612 
167.92865 2.890818 
168.819733 0.256349 
168.961868 0.073485 
169.211914 0.066283 
170.081192 0.066172 
170.940735 0.668542 
170.96228 0.82894 
171.080154 0.086348 
172.038483 0.149647 
173.096191 2.646811 
173.985184 0.08186 
174.548538 0.054785 
176.070221 0.146009 
177.949341 0.15394 
178.04747 11.925327 
178.795456 0.241933 
179.050262 0.219567 
181.301697 0.055411 
183.377411 0.210364 
183.443954 0.071589 
183.93132 0.104096 
184.939667 4.39389 
184.978973 0.34726 
185.030807 0.06491 
185.096191 0.290992 
185.939072 14.346144 
186.091949 0.066281 
186.103867 0.088071 
186.92749 0.179546 
186.968109 0.070135 
187.075699 0.40684 
187.111755 0.483515 
188.672104 0.076709 
189.09108 0.492697 
192.961517 0.320279 
196.054306 0.113178 
197.841446 0.205402 
197.892593 2.787174 
199.075317 0.155304 
199.909958 0.174514 
200.107132 0.16784 
201.090652 0.168178 
202.989807 0.085313 
203.107025 0.149183 
203.949448 3.670038 
204.065414 0.199767 
204.101318 0.088673 
209.985168 0.137917 
211.909897 5.806247 
212.23735 0.152342 
212.907608 4.278096 
212.917068 0.559721 
213.37619 0.066962 
214.086258 0.467958 
214.122833 1.540482 
215.106445 0.336465 
215.154297 5.799384 
215.903214 0.627131 
216.478989 0.160194 
216.900665 0.212893 
217.920609 0.113345 
218.860077 0.249453 
222.021622 0.060764 
222.039795 2.594401 
222.898804 3.058585 
226.933426 26.145124 
227.070557 0.142632 
227.931808 21.641861 
227.995636 0.189663 
229.92067 24.920387 
229.933594 0.105609 
230.033463 0.069451 
230.9189 42.822102 
231.101028 0.088789 
232.096222 0.162892 
232.883789 0.076778 
233.891739 0.084903 
234.526077 0.248081 
240.407623 0.169284 
240.909454 3.809672 
241.186066 0.295617 
242.118088 0.089283 
244.922806 0.748131 
244.944092 55.51527 
245.942398 100.0 
246.111679 0.198642 
247.930969 0.461011 
248.929504 10.5544 
253.300644 0.252608 
258.938385 0.082908 
259.957733 0.077674 
260.128113 0.171205 
262.933716 0.092851 
262.954285 0.240897 
263.953033 10.051609 
264.946777 0.210919 
265.489838 0.187003 
279.228699 0.198752 
279.51413 0.115245 
280.81311 0.087005 
281.911865 2.888365 
283.646881 0.149804 
287.10257 0.883557 
288.092804 0.086997 
288.123413 0.091121 
290.072052 0.738198 
297.817291 0.090394 
297.979889 0.073622 
298.086151 0.223118 
301.221802 0.129093 
304.172424 0.939948 
304.299896 61.398605 
305.156494 6.890364 
305.303223 14.904397 
307.095795 0.060272 
313.663422 0.248936 
322.623138 0.241396 
324.861267 0.055588 
END IONS

