BEGIN IONS
PEPMASS=619.376
CHARGE=1+
COMPOUNDNAME=Astaxanthin
LIBRARYQUALITY=3
SMILES=N/A
INCHIKEY=MQZIGYBFDRPAKN-QISQUURKSA-N
INCHI=InChI=1S/C40H52O4/c1-27(17-13-19-29(3)21-23-33-31(5)37(43)35(41)25-39(33,7)8)15-11-12-16-28(2)18-14-20-30(4)22-24-34-32(6)38(44)36(42)26-40(34,9)10/h11-24,35-36,41-42H,25-26H2,1-10H3/b12-11+,17-13+,18-14+,23-21+,24-22+,27-15+,28-16+,29-19+,30-20+
MSLEVEL=2
SOURCE_INSTRUMENT=N/A-ESI-QFT
FILENAME=library_mgf.mgf
SEQ=*..*
IONMODE=positive
ORGANISM=MONA
NAME=Astaxanthin [M+Na]+
PI=MoNA
DATACOLLECTOR=MoNA:VF-NPL-QEHF003106
PUBMED=N/A
SUBMITUSER=mwang87
TAGS=
SPECTRUMID=CCMSLIB00004694169
SCANS=3106
50.523129 0.013623 
50.693588 0.014818 
51.337456 0.033917 
51.76207 0.024655 
52.134781 0.024109 
52.771587 0.017676 
53.23901 0.023231 
53.803268 0.018012 
54.118214 0.033595 
55.018658 0.031624 
55.054981 0.999937 
56.961884 0.036082 
57.034313 0.033103 
57.070587 3.564372 
57.952637 0.0252 
58.074043 0.035161 
59.049858 0.277969 
59.061172 0.018846 
60.026722 0.020749 
60.045082 0.358119 
60.405869 0.025351 
60.462406 0.028318 
61.011368 0.921164 
62.429752 0.016464 
62.554279 0.034711 
62.980946 0.0237 
62.982624 0.320721 
63.340122 0.015159 
64.610672 0.016284 
64.747597 0.017181 
64.961319 0.022581 
64.978188 0.026312 
65.791382 0.017954 
67.015778 0.038168 
67.054878 2.239056 
67.594879 0.016982 
67.937981 0.038467 
69.034218 0.076475 
69.070518 4.324262 
69.475197 0.025495 
70.065727 0.106431 
71.049789 0.610899 
71.086159 1.873203 
72.019722 0.030198 
72.089172 0.029285 
72.13604 0.031654 
72.536446 0.026215 
72.89875 0.015357 
72.937729 0.026428 
73.028984 0.079401 
73.065361 0.368156 
73.174484 0.013985 
74.002266 0.015135 
74.096954 0.244981 
74.340561 0.019699 
75.044556 0.077085 
75.067993 0.013883 
75.516052 0.019746 
77.187096 0.030092 
78.504707 0.014107 
79.021782 2.022911 
79.054817 0.536622 
80.817871 0.015091 
80.948555 0.749331 
81.019501 0.017705 
81.070381 2.382446 
82.073486 0.02583 
82.945801 0.226154 
83.049744 1.022115 
83.086014 2.106455 
83.235039 0.024938 
85.028954 0.13216 
85.065262 0.374825 
85.101784 1.173736 
86.096886 0.088584 
87.044594 0.904654 
88.722961 0.024935 
88.978813 0.09603 
89.060257 5.923849 
89.716782 0.016644 
90.063446 0.121378 
90.948204 0.06008 
91.054726 0.531704 
91.05761 0.143003 
93.070389 1.385595 
95.04966 1.050058 
95.08596 8.748363 
96.384781 0.018642 
96.731972 0.01839 
96.922569 0.076367 
97.029007 0.051081 
97.065239 0.721844 
97.101646 1.65062 
97.354462 0.020021 
97.515488 0.031033 
98.10495 0.0279 
98.264938 0.023369 
99.044586 0.965161 
99.080849 0.174356 
100.076218 0.032277 
100.112274 0.033331 
101.003517 0.772931 
101.060059 0.327407 
101.837784 0.028366 
104.482216 0.027574 
104.660248 0.028621 
104.992676 1.022008 
105.033073 0.038591 
105.07016 0.848497 
106.737259 0.015871 
107.049294 0.323537 
107.070259 0.067947 
107.085823 2.090983 
107.967072 0.578518 
108.721397 0.032159 
108.841408 0.014054 
109.028618 0.043293 
109.065155 0.821748 
109.101517 2.214316 
110.795609 0.015952 
111.044304 0.433018 
111.080627 0.652404 
111.117081 0.370696 
112.076271 0.028992 
112.454727 0.01596 
113.059998 0.214456 
114.091438 0.082269 
117.070343 0.052066 
117.091255 0.072349 
117.876801 0.029969 
118.972092 0.073454 
119.048615 0.026841 
119.085808 0.986754 
120.003159 0.01994 
121.065102 1.072342 
121.101456 0.993364 
123.044144 0.139023 
123.080635 1.675266 
123.117058 0.846168 
123.94136 0.031617 
124.00563 0.032423 
124.214111 0.033194 
125.059898 0.472839 
125.096313 1.070449 
127.075577 0.134384 
128.953964 0.059443 
128.963287 0.031995 
129.054581 0.18997 
130.158432 0.030436 
131.070206 0.121946 
131.085495 0.45813 
131.471069 0.025547 
132.987732 0.225153 
133.065002 0.172995 
133.085938 2.17676 
133.101257 0.952547 
134.019547 0.016084 
135.002899 0.434851 
135.080505 0.898593 
135.116882 1.51055 
136.730759 0.03438 
137.059769 0.274885 
137.096008 0.720332 
137.132416 0.166378 
138.033051 0.01602 
138.179428 0.01929 
138.486252 0.027313 
139.038162 0.063232 
139.075363 0.279925 
139.111542 0.049816 
140.068573 0.069786 
140.959534 0.132362 
141.054672 0.038672 
141.091125 0.051001 
142.122498 0.022077 
142.938766 0.070402 
143.071045 0.020277 
143.085602 0.115561 
143.560715 0.016953 
145.06546 0.024039 
145.100983 0.682958 
146.504456 0.014321 
146.973129 0.029611 
147.080307 0.666763 
147.116898 0.964172 
148.971848 0.108964 
149.059586 0.225695 
149.095963 0.459608 
149.132523 0.260509 
150.014145 0.045604 
150.089905 0.020553 
150.951233 0.435829 
151.075287 0.581699 
151.112015 0.129312 
151.148209 0.030476 
153.054993 0.043215 
153.090942 0.646736 
154.122452 0.190574 
155.069641 0.031864 
155.106079 0.046238 
157.085297 0.032953 
157.101196 0.254804 
157.676727 0.015702 
158.010941 0.230682 
159.080383 0.348749 
159.116821 0.536602 
161.096008 0.430201 
161.132309 0.368111 
163.075211 0.246687 
163.111603 0.470511 
163.147812 0.113535 
164.920532 0.425966 
165.091064 0.681974 
165.12764 0.015988 
167.106598 0.02186 
168.917038 0.481687 
168.961655 0.276838 
169.100937 0.100541 
169.122162 0.0341 
170.117493 0.054504 
171.080582 0.040638 
171.116699 0.325315 
172.026291 0.08203 
172.133133 0.019564 
173.096008 0.29944 
173.116974 0.08339 
173.132462 0.425216 
174.005814 0.100677 
174.014465 0.02464 
175.075165 0.228321 
175.09671 0.021423 
175.111801 0.523135 
175.148041 0.089927 
175.976669 0.036779 
176.021606 0.217158 
177.054459 0.02511 
177.09053 1.216198 
177.111877 0.32897 
177.127045 0.077359 
179.033554 0.059638 
179.069977 0.048156 
179.106003 0.09041 
179.970871 0.017917 
180.895538 0.017878 
181.085892 0.024017 
182.97673 0.042161 
183.116684 0.20811 
184.026932 0.027894 
184.932327 0.114572 
184.98053 0.019944 
185.080566 0.096741 
185.096146 0.088606 
185.132706 0.329367 
186.927704 2.463303 
186.995193 0.018185 
187.07518 0.063989 
187.111771 0.727512 
187.14798 0.067462 
187.999725 0.030079 
188.021622 0.255723 
188.924988 0.167508 
189.005844 0.028842 
189.09053 0.176372 
189.112244 0.436199 
189.127304 0.204368 
189.163559 0.024697 
190.017059 0.038906 
190.096161 0.107772 
190.965775 0.029724 
191.070236 0.411752 
191.106506 0.154389 
191.142685 0.056666 
192.961533 2.533877 
193.08606 0.146592 
193.13205 0.019035 
193.964188 0.084794 
194.115265 0.653808 
194.958099 0.028632 
195.065125 0.116507 
195.100388 0.07586 
195.117493 0.167797 
197.132462 0.308367 
199.075684 0.028905 
199.111816 0.182941 
199.132401 0.072106 
200.012466 0.036219 
200.943253 0.038348 
201.090103 0.160402 
201.127426 0.376506 
202.436295 0.015572 
202.665848 0.043823 
203.021973 0.027387 
203.070068 0.437968 
203.106552 0.632461 
203.14325 0.036178 
205.015839 0.018377 
205.086014 0.948793 
205.12236 0.536937 
207.101685 0.091934 
208.131821 0.073685 
208.977844 0.034313 
209.117157 1.462556 
209.975403 0.032607 
210.186035 0.027134 
210.972168 2.244027 
211.110733 0.021391 
211.147415 0.05733 
211.974625 0.119784 
212.972656 0.033256 
213.089325 0.121788 
213.112015 0.025646 
213.12738 0.869329 
215.104614 0.108263 
215.14296 1.428366 
216.052383 0.033559 
217.050934 0.047476 
217.081741 0.478853 
217.103775 0.027285 
217.122345 0.141894 
219.065369 0.144394 
219.138321 0.022962 
219.174728 0.041354 
220.131454 0.020755 
221.116516 0.089379 
222.146683 0.199975 
223.096588 0.233089 
223.110458 0.034183 
223.979401 0.027037 
224.07254 0.029469 
224.987198 0.072203 
225.088837 0.232226 
225.127457 0.196606 
227.104187 2.025574 
227.127533 0.521948 
227.143204 0.042679 
227.200317 0.197129 
227.900879 0.034433 
228.111557 0.60799 
228.617905 0.022471 
229.122238 0.108744 
229.896149 0.134151 
231.027557 0.029541 
231.065216 0.155238 
231.100327 0.033627 
231.137924 0.535314 
232.091431 0.512172 
233.044281 0.222061 
233.153717 0.63578 
233.189926 0.599508 
234.1465 0.069578 
234.158325 0.036981 
235.096359 3.977876 
235.150543 0.026861 
236.162231 0.040197 
236.237961 0.026163 
237.079102 0.017948 
237.112015 0.781072 
239.105865 0.038536 
239.142639 0.014636 
239.901062 0.040642 
241.12207 1.323875 
242.046631 0.185473 
243.065552 0.110256 
243.137726 1.879915 
244.062561 0.129861 
244.264999 0.016347 
245.04599 0.079655 
245.079971 0.039224 
245.115555 0.096529 
245.892319 0.161271 
245.911377 0.043429 
246.042068 0.141464 
246.107773 0.015559 
246.930817 0.887043 
247.026505 0.103093 
247.060257 0.150375 
247.906403 0.055 
248.930237 0.023846 
248.943726 0.239911 
249.111557 0.023738 
250.177536 0.957006 
251.105927 0.025016 
251.146591 0.017262 
251.161713 1.102323 
251.18074 0.041939 
253.106888 3.202868 
254.084045 0.033119 
255.067688 0.019955 
255.136871 0.042126 
255.231369 0.223571 
257.081451 0.123656 
257.11795 0.077644 
258.088776 1.023 
259.096802 0.052022 
259.132935 1.035944 
260.057861 1.662735 
261.041962 0.054699 
261.059357 0.023439 
261.113464 0.04996 
261.148346 0.890317 
262.03009 0.039156 
262.058929 0.032603 
262.914856 0.044506 
263.901428 0.46934 
264.9086 0.523982 
265.017517 0.028922 
265.12146 0.019708 
266.172913 0.259176 
266.925842 0.033714 
266.962189 0.030415 
266.997375 0.024036 
267.065948 0.056158 
267.136688 0.026334 
269.08252 0.086103 
269.117096 0.389295 
269.15152 0.030615 
269.247131 0.223887 
271.026855 0.019326 
271.132874 0.286843 
272.093933 0.106869 
272.815704 0.019304 
273.148102 0.031134 
274.073853 0.042768 
274.094299 0.088335 
274.118927 0.039291 
275.127045 0.086084 
275.159607 0.112993 
276.00946 0.034418 
277.215942 0.390723 
278.925262 0.05251 
279.916809 0.121788 
280.262085 0.043058 
280.904785 0.044538 
281.151611 0.024536 
281.895203 0.046397 
281.911804 4.762975 
282.041046 0.018507 
282.114349 0.076678 
282.916016 0.928168 
283.059967 1.154939 
283.263275 0.92839 
283.914612 0.550911 
284.266815 0.155788 
285.075958 0.144043 
285.112823 0.071643 
285.148132 0.753157 
287.127563 0.648033 
287.164154 0.267637 
287.937561 0.038327 
288.088806 0.11723 
288.135986 0.279224 
288.154114 0.400871 
288.908417 0.034233 
289.107361 0.057901 
293.135376 0.017068 
293.15155 0.105031 
295.060577 0.412167 
295.13147 0.022034 
295.927795 0.114721 
296.934784 0.102606 
297.075775 0.481195 
297.148468 0.038286 
298.110107 0.408019 
299.110321 0.036114 
299.127869 0.476398 
299.164337 0.036497 
300.125671 0.860428 
301.127594 0.103394 
302.107971 0.035109 
302.125641 0.438748 
304.104584 0.042355 
304.90448 0.595377 
304.924438 0.240653 
305.907074 0.050311 
306.919708 1.038028 
307.096588 0.019592 
307.116638 0.053932 
309.077789 0.074205 
309.150146 0.082984 
309.325958 0.413931 
310.310333 0.107356 
310.329956 0.065273 
310.406372 0.017279 
311.055878 0.025737 
311.127167 1.068038 
311.163361 0.111473 
313.143341 0.68764 
313.160248 0.034114 
313.179688 0.287859 
314.151428 1.238112 
315.122925 0.067854 
315.158783 3.666455 
315.969299 0.03793 
316.1203 0.672525 
316.22467 0.01751 
317.823547 0.027611 
318.24054 0.025815 
318.919586 0.034697 
319.096954 0.144936 
320.255768 0.160715 
321.258575 0.021283 
322.914398 14.356993 
323.12851 0.031764 
323.16449 0.049965 
323.916626 4.019513 
324.917145 3.957055 
325.106232 0.053169 
325.143616 0.212477 
325.920288 0.268118 
327.08429 0.040831 
327.122772 0.524199 
327.1586 1.337211 
327.229065 0.041472 
327.600891 0.036141 
329.138794 0.023148 
329.175659 0.712947 
329.243134 0.042236 
330.180298 0.091581 
333.112091 0.128994 
333.186127 0.048034 
334.236237 0.870725 
335.12854 0.043057 
335.166077 0.666964 
335.238281 0.326618 
335.257751 0.073915 
336.252808 0.049517 
336.838013 0.041909 
336.930054 0.613675 
337.107147 0.482935 
337.143066 0.187032 
337.18161 0.833894 
337.93335 0.111397 
338.10083 0.031023 
338.932251 0.04804 
339.123108 0.112564 
339.158936 0.47271 
341.174805 0.673594 
343.132751 0.024154 
343.153687 0.438659 
345.169312 0.212584 
347.139435 0.744882 
347.187439 0.171992 
348.141907 0.0332 
349.143127 0.083327 
349.181 0.088166 
351.085632 0.182251 
351.122498 1.837571 
351.159027 0.116329 
351.196259 0.087425 
352.193054 0.120172 
353.101837 0.272955 
353.138428 1.367548 
353.1745 0.921415 
353.211426 0.101121 
354.208801 0.046412 
354.569977 0.023604 
355.080505 0.035567 
355.11908 0.031778 
355.153839 0.347894 
355.191772 1.434286 
356.125031 0.328426 
356.19635 0.11906 
357.146881 0.579006 
357.16925 1.331309 
357.20874 0.035749 
358.150574 0.177238 
359.147736 0.040345 
360.838287 4.719963 
361.236755 7.188855 
361.840881 1.453835 
362.84137 1.775657 
363.159088 0.338208 
363.195709 0.040631 
363.845917 0.030866 
365.104889 0.051769 
365.137756 0.167693 
365.174164 1.195648 
366.181976 0.489648 
367.117645 0.186315 
367.1539 1.242719 
367.189331 1.238128 
369.169525 0.534348 
371.152832 0.413578 
371.163177 0.565257 
371.18573 0.562001 
371.256897 0.023233 
372.158997 0.250237 
373.164062 2.034181 
374.302155 0.053849 
374.981171 0.040484 
375.15863 0.507919 
375.22876 0.021648 
376.318298 0.169917 
377.175354 0.182137 
377.213226 0.031393 
377.841156 0.535565 
378.849213 1.9978 
379.153473 1.295534 
379.18985 0.661216 
379.851135 0.492495 
380.85199 0.771617 
381.169556 3.396522 
381.203979 1.602704 
382.240814 0.046322 
383.14917 0.16269 
383.18512 0.133552 
383.221069 0.167412 
385.163971 14.015697 
386.906921 0.530387 
387.180176 0.096473 
389.179962 1.947797 
390.183258 0.869819 
391.185852 0.259893 
392.315033 0.042711 
393.169159 4.146757 
393.201355 0.148125 
393.242004 0.612971 
394.844055 1.845089 
395.185181 0.845363 
395.640533 0.024056 
395.847534 0.750142 
396.846771 0.740393 
397.166901 0.128116 
397.200012 1.444177 
397.273529 0.664662 
399.179993 0.973884 
399.229736 0.111287 
400.260254 2.097957 
401.271667 0.021872 
403.153229 0.103182 
403.226013 0.891441 
404.411926 0.021837 
405.242981 0.067939 
406.844025 0.050227 
407.149384 1.228603 
407.185974 2.617608 
408.194183 0.040022 
408.254944 0.082685 
409.164154 10.120296 
409.199707 1.848665 
410.273285 0.047928 
411.018738 0.091552 
411.149475 0.030757 
411.180023 1.058613 
411.211731 0.048787 
411.288696 1.046825 
412.85495 0.658265 
413.194183 1.826564 
413.265503 0.034475 
413.857391 0.020751 
414.275879 10.004909 
414.856354 0.119094 
417.211365 0.178716 
419.225128 0.039158 
419.851624 12.163968 
420.853973 4.484279 
421.165863 3.021739 
421.20105 0.969947 
421.235626 4.688591 
421.854767 7.747433 
422.824585 0.021415 
422.856995 0.849789 
423.179199 0.034028 
423.218048 0.037371 
423.252106 0.130224 
425.034027 0.081777 
425.159576 4.193448 
425.194092 0.734852 
425.26593 0.043722 
426.166779 0.076452 
427.124359 0.020774 
427.1745 13.041585 
431.221558 2.06694 
433.236511 0.473778 
433.867218 0.044828 
434.622864 0.017635 
436.854645 1.643606 
437.234406 0.088174 
437.267731 1.082218 
437.86203 5.825837 
438.273987 0.050556 
438.863373 2.595548 
439.175507 2.35752 
439.210663 0.379693 
439.247528 2.099353 
439.28299 0.579356 
439.317596 0.180343 
439.865112 3.703325 
440.29126 2.877535 
440.867493 0.299558 
441.265076 0.349489 
441.299164 1.782846 
445.132568 0.924919 
446.136963 0.053371 
447.148407 0.038886 
447.34491 0.12321 
447.846588 0.047917 
449.231567 19.459143 
450.11438 0.21265 
451.247864 0.677955 
451.283386 0.158603 
451.879089 0.541296 
453.26358 0.358067 
453.29953 1.18142 
453.856232 3.403694 
454.859589 1.019115 
455.24176 0.075777 
455.314606 0.529156 
455.860565 1.70011 
456.864716 0.109246 
459.216614 2.210127 
460.137299 0.017471 
461.129547 0.096493 
462.13327 0.400924 
463.128662 0.44805 
463.248016 0.352277 
463.28244 0.091093 
465.2276 0.076141 
465.264648 0.056726 
465.299255 0.220849 
467.24234 15.106448 
467.315643 0.326642 
467.873169 0.10445 
469.033173 0.037516 
469.294189 1.594347 
470.301483 1.359226 
471.86853 0.21798 
473.870392 0.041628 
477.226624 27.73341 
477.258118 1.203063 
478.145477 0.226237 
478.865143 5.890692 
479.141724 0.953101 
479.243225 0.104992 
479.278198 0.589415 
479.315521 0.624634 
479.867249 2.240865 
480.143402 1.769577 
480.323364 0.02869 
480.868439 5.220896 
481.138062 2.1655 
481.256775 0.037769 
481.29425 0.157103 
481.870514 0.728325 
482.141052 0.32446 
483.135468 0.020803 
483.275085 0.04103 
483.309875 1.049362 
487.143616 0.103032 
489.159485 0.129152 
489.299591 0.205198 
491.278778 0.320299 
491.315491 0.696749 
492.322723 1.372433 
493.223267 1.32173 
493.294189 3.573112 
493.330444 0.474654 
494.225769 0.309512 
495.236908 100.0 
496.875641 1.579703 
497.154083 0.141416 
497.289215 0.654988 
497.877594 0.442465 
498.156708 0.324411 
498.297546 1.26376 
498.877808 1.362539 
499.148834 1.015729 
499.305725 1.660321 
499.360107 1.02787 
499.881622 0.08342 
500.368225 0.220038 
501.300323 0.132364 
505.293915 1.124971 
505.33075 0.483614 
506.302887 0.207963 
507.310089 3.308193 
507.347351 0.549645 
509.288666 0.138029 
509.327942 0.039738 
510.334076 0.050792 
510.892303 0.041188 
511.144135 0.228098 
511.304932 1.681813 
513.169983 0.035428 
513.296753 0.153023 
517.3302 0.085249 
519.309692 5.732361 
520.319885 0.029767 
520.860596 0.037591 
521.3255 0.195342 
523.305054 0.039153 
523.342041 1.044732 
525.32074 0.690403 
527.312622 1.482472 
528.315063 0.362907 
533.325806 2.503078 
535.304932 8.296916 
537.321838 0.27191 
538.327087 0.418165 
539.337036 0.284009 
540.134094 0.132317 
547.304504 2.18879 
547.378174 3.040717 
551.298706 2.370798 
552.307739 0.341036 
553.315674 7.60421 
557.362366 0.756489 
557.452393 0.10878 
558.458252 0.045504 
559.39502 0.334404 
565.314697 0.604365 
565.389221 0.696548 
573.369141 0.028217 
575.372742 19.42728 
576.385254 0.106378 
577.390686 0.025964 
585.356812 0.467418 
589.326721 0.085568 
593.382996 6.607958 
601.36322 0.265188 
602.366699 0.022142 
603.367371 9.06661 
617.331604 0.331314 
617.459351 10.850193 
617.51886 0.05213 
617.58136 0.208921 
618.130859 0.076092 
618.337158 0.642117 
618.463013 6.922256 
618.630066 0.255263 
619.310974 7.087112 
619.375488 7.208245 
619.437805 45.501362 
620.31189 1.607946 
620.388489 1.215872 
620.445374 11.032262 
620.532166 0.120935 
620.911621 4.305843 
621.376099 24.397104 
END IONS

