BEGIN IONS
PEPMASS=265.145
CHARGE=1+
COMPOUNDNAME=(1S,8R,9R)-8-hydroxy-4-(propan-2-ylidene)-10-oxatricyclo[7.2.1.01,5]dodecane-8-carboxylic acid
LIBRARYQUALITY=3
SMILES=N/A
INCHIKEY=IOYVXXQKVQKQIG-ZJPTYJIISA-N
INCHI=InChI=1S/C15H22O4/c1-9(2)10-3-5-14-7-12(19-8-14)15(18,13(16)17)6-4-11(10)14/h11-12,18H,3-8H2,1-2H3,(H,16,17)/t11?,12-,14-,15-/m1/s1
MSLEVEL=2
SOURCE_INSTRUMENT=N/A-ESI-QFT
FILENAME=library_mgf.mgf
SEQ=*..*
IONMODE=negative
ORGANISM=MONA
NAME=(1S,8R,9R)-8-hydroxy-4-(propan-2-ylidene)-10-oxatricyclo[7.2.1.01,5]dodecane-8-carboxylic acid [M-H]-
PI=MoNA
DATACOLLECTOR=MoNA:VF-NPL-QEHF021462
PUBMED=N/A
SUBMITUSER=mwang87
TAGS=
SPECTRUMID=CCMSLIB00004712525
SCANS=21462
50.454716 0.492754 
50.82346 0.529115 
51.287807 0.621967 
51.330681 0.51769 
51.850277 0.390934 
52.304634 0.381247 
54.381187 0.483278 
55.176559 0.504849 
55.38863 0.596081 
56.354179 0.508121 
57.031647 0.640192 
57.033184 100.0 
57.420616 0.551059 
57.790302 0.542199 
58.103012 0.574371 
58.136677 0.632425 
59.450871 0.558064 
59.830704 0.532534 
61.306786 0.52961 
61.421844 0.503963 
61.513256 0.58121 
63.105946 0.582308 
64.684982 0.62143 
65.217667 0.505867 
67.205887 0.472645 
68.962997 0.55609 
69.033203 11.915966 
69.67392 0.616931 
70.823433 0.415687 
71.012268 0.472463 
71.094208 0.488529 
72.168365 0.405655 
72.241844 0.506889 
73.77729 0.493226 
73.994148 0.490088 
74.297745 0.617345 
76.817856 0.438534 
77.458153 0.604552 
80.757996 0.529665 
81.033279 20.676882 
83.048965 5.647513 
84.020332 0.692148 
85.028152 6.652294 
85.545532 0.568535 
85.795723 0.530055 
87.463417 0.559858 
92.778214 0.576292 
93.583748 0.602462 
96.016663 0.517271 
96.958771 35.333687 
97.028107 0.567759 
98.035675 0.577962 
105.069862 1.151712 
107.08535 2.814729 
107.246445 0.558883 
107.461296 0.51854 
108.997299 0.50648 
109.925674 0.566217 
110.225395 0.605922 
111.490181 0.540139 
111.718613 0.6311 
112.246147 0.481084 
113.160835 0.611154 
115.52388 0.5299 
116.46299 0.49568 
119.085464 2.599852 
120.082237 0.485806 
127.906776 0.535677 
128.686264 0.614191 
135.080444 8.620536 
135.436172 0.565699 
137.09613 0.567426 
137.180847 0.545909 
141.596756 0.611823 
143.597137 0.524283 
147.116791 6.067921 
151.550308 0.499379 
156.106613 0.554731 
161.096237 46.28701 
162.099716 1.415715 
163.111877 35.928902 
163.118729 0.515955 
165.47171 0.613274 
165.479721 0.426062 
170.22493 0.584307 
171.116913 19.304977 
171.640274 0.43861 
172.859406 0.699275 
174.253662 0.569933 
183.276245 0.536436 
187.112289 0.748702 
189.127716 37.004303 
189.366486 0.545121 
190.131393 1.400293 
194.104904 0.649436 
194.358429 0.647225 
195.867447 0.570918 
199.909317 0.523908 
205.848282 0.5755 
207.586304 0.500672 
209.523575 0.571229 
214.112518 0.564425 
216.558762 0.580627 
217.122849 15.242761 
219.138535 47.684006 
219.403595 4.146077 
220.142273 1.515511 
224.750336 0.544923 
234.506699 0.596151 
240.307571 0.500098 
248.709274 0.537109 
252.934509 0.650041 
264.014648 0.653067 
264.893829 0.533976 
265.144714 41.685959 
266.147888 3.354026 
280.379883 0.581921 
282.584259 0.509869 
END IONS

