BEGIN IONS
PEPMASS=1893.57
CHARGE=1+
COMPOUNDNAME=Teichomycin
LIBRARYQUALITY=3
SMILES=N/A
INCHIKEY=BJNLLBUOHPVGFT-QRZIFLFXSA-N
INCHI=InChI=1S/C88H97Cl2N9O33/c1-3-4-5-6-7-8-9-10-60(108)94-68-74(113)71(110)58(32-101)129-87(68)132-78-55-26-40-27-56(78)126-52-18-14-38(24-47(52)90)77(131-86-67(92-34(2)103)73(112)70(109)57(31-100)128-86)69-84(121)98-66(85(122)123)45-29-42(105)30-54(127-88-76(115)75(114)72(111)59(33-102)130-88)61(45)44-23-37(13-15-49(44)106)63(81(118)99-69)96-83(120)65(40)97-82(119)64-39-21-41(104)28-43(22-39)124-53-25-36(12-16-50(53)107)62(91)80(117)93-48(79(116)95-64)20-35-11-17-51(125-55)46(89)19-35/h11-19,21-30,48,57-59,62-77,86-88,100-102,104-107,109-115H,3-10,20,31-33,91H2,1-2H3,(H,92,103)(H,93,117)(H,94,108)(H,95,116)(H,96,120)(H,97,119)(H,98,121)(H,99,118)(H,122,123)/t48-,57-,58-,59-,62-,63-,64+,65-,66-,67-,68-,69+,70-,71-,72-,73-,74-,75+,76+,77-,86+,87+,88+/m1/s1
MSLEVEL=2
SOURCE_INSTRUMENT=N/A-ESI-QFT
FILENAME=library_mgf.mgf
SEQ=*..*
IONMODE=positive
ORGANISM=MONA
NAME=Teichomycin [M+NH4]+
PI=MoNA
DATACOLLECTOR=MoNA:VF-NPL-QEHF027959
PUBMED=N/A
SUBMITUSER=mwang87
TAGS=
SPECTRUMID=CCMSLIB00004721540
SCANS=27959
130.073029 0.031422 
132.044556 0.036344 
132.988358 0.027892 
133.052246 0.039553 
134.731873 0.032132 
135.116562 0.092519 
137.132507 0.35794 
138.054901 100.0 
139.052719 0.407069 
139.058258 7.14031 
140.070602 0.059105 
141.069778 0.90688 
144.065445 95.666512 
145.062805 0.329956 
145.068802 6.650019 
146.069748 0.264363 
147.09137 0.030524 
148.017258 0.031694 
148.075638 0.031367 
150.054916 0.071887 
151.001617 0.030755 
151.017303 0.027697 
151.148346 0.032831 
152.142899 0.025335 
152.906235 0.030993 
153.033829 0.667826 
153.139099 0.030948 
155.031479 0.035272 
156.065338 0.032944 
157.064667 0.145401 
162.07605 0.522731 
164.026642 0.030846 
167.055298 0.134677 
167.393875 0.032554 
167.807877 0.024232 
168.021103 0.287321 
168.057571 0.12276 
168.065338 7.105802 
169.064423 4.250209 
169.625839 0.027703 
170.067825 0.336434 
172.075745 0.034548 
172.169357 1.60825 
172.177216 0.028117 
175.638077 0.027877 
179.072205 0.029283 
179.254913 0.023323 
179.998367 0.026168 
181.064087 0.0429 
181.251541 0.032781 
181.787842 0.029805 
183.213501 0.026156 
184.075195 0.033131 
185.059616 0.396345 
186.075912 3.158636 
186.185028 0.838007 
187.075027 0.417486 
187.355499 0.024469 
193.486954 0.028901 
195.281952 0.0268 
196.075317 0.388517 
197.059586 7.140907 
198.054214 0.07012 
198.063217 0.46742 
198.33519 0.023838 
198.578217 0.028294 
200.070099 0.034096 
202.528564 0.030711 
204.086441 2.816156 
204.968475 0.028623 
211.009384 0.028844 
212.070343 2.053154 
213.05452 4.467522 
213.073792 0.027538 
214.058487 0.247386 
214.085968 2.391406 
215.058365 0.222645 
215.069977 12.651551 
215.088577 0.078333 
216.073303 1.444503 
216.61264 0.031885 
220.326248 0.023816 
222.054367 0.078856 
224.070251 1.615748 
225.043137 0.133205 
225.054245 1.915467 
225.077042 0.306144 
225.762314 0.02623 
226.061249 0.035018 
226.068497 0.029035 
226.084198 0.06258 
227.070084 1.514775 
227.642502 0.028505 
228.301712 0.026389 
230.081268 0.241215 
236.164307 0.093135 
238.049561 0.86883 
238.179855 0.428145 
239.081207 0.707707 
240.04361 0.069949 
240.065323 15.574237 
240.088242 0.98497 
241.048996 1.574781 
241.069351 2.376876 
241.096451 1.604745 
242.080948 33.235893 
242.095123 0.369308 
242.550201 0.027175 
243.063217 0.032754 
243.084564 4.667946 
243.108383 0.023462 
244.086334 0.112704 
248.164001 0.493049 
250.179932 18.903305 
250.194534 0.218844 
251.18335 3.328744 
252.065231 2.452223 
253.049194 2.567999 
253.068787 0.059297 
254.052734 0.170237 
254.08078 0.625949 
255.076309 0.279922 
257.076721 0.053809 
257.091705 8.930802 
258.076263 0.98982 
258.094788 1.286785 
259.1073 0.487858 
259.347443 0.030806 
262.04715 0.415887 
262.180481 0.036193 
263.077606 0.036205 
264.062988 0.636819 
264.195618 10.744102 
265.070496 0.317591 
265.19873 1.174389 
266.078308 0.900483 
267.076141 0.278334 
268.060303 6.139694 
268.078003 0.038591 
269.04422 0.336861 
269.065063 0.940476 
269.0914 0.257235 
270.046387 0.031756 
270.075684 0.618245 
271.060028 0.121955 
271.290009 0.029995 
272.298065 0.027925 
272.974976 0.031613 
275.030914 0.166082 
277.059143 0.038256 
278.045349 0.037783 
279.073914 1.132011 
280.059387 0.622517 
280.078735 0.035168 
281.089996 0.625434 
282.075775 0.285566 
282.09256 0.100302 
282.761627 0.026031 
283.07077 0.54507 
283.134216 0.031271 
283.193817 0.031624 
284.073975 0.032597 
285.008606 0.027302 
285.086487 4.120382 
286.070709 5.274671 
286.088531 0.682058 
287.073578 0.519835 
290.04248 0.144828 
291.074005 0.068066 
292.058472 0.042411 
294.695801 0.029004 
295.070892 0.608125 
295.087494 0.029617 
296.054901 0.15274 
297.06012 0.206354 
297.086823 0.392997 
298.03656 0.031535 
298.200745 0.230837 
299.101868 1.545823 
301.036774 0.032684 
303.097229 4.610313 
304.099792 0.425534 
304.165192 0.092917 
304.189178 0.241138 
306.380371 0.03038 
307.070099 0.288267 
308.054596 0.445356 
308.075745 0.161804 
309.085785 0.080629 
311.066498 0.070663 
314.063538 0.034102 
314.993164 0.041703 
315.064667 0.027779 
317.009705 0.028535 
320.099701 0.088276 
321.083954 0.592934 
322.02002 0.028892 
322.07959 0.089789 
323.100006 0.039123 
324.097046 0.31019 
325.080963 0.341848 
329.076477 8.386066 
330.079437 1.521485 
331.0802 0.034746 
336.094543 0.374668 
337.101685 0.091278 
338.110535 2.967195 
339.093628 0.402542 
339.11438 0.228789 
339.327423 0.03154 
342.107971 0.041659 
343.091156 0.605399 
347.065521 0.066244 
349.079041 0.654538 
350.083038 0.035209 
360.014038 0.0314 
360.118378 0.154591 
364.089966 0.180904 
365.073547 1.133168 
365.09668 0.035629 
365.294678 0.030726 
366.079956 0.272401 
366.105408 4.365905 
367.08725 0.289286 
367.109436 0.541696 
368.093231 0.038026 
375.05957 0.033832 
377.009399 0.031684 
382.100159 0.625818 
383.102753 0.042088 
391.08197 0.040818 
410.094696 0.050543 
414.027222 0.034257 
416.02298 0.031444 
427.060181 0.251715 
435.301605 0.034597 
438.028961 0.04098 
443.054443 0.082682 
445.051575 0.040152 
453.039978 0.027795 
454.201538 0.034561 
456.085938 0.033705 
458.084656 0.072586 
459.270813 0.029643 
464.052887 0.034165 
464.112 0.032458 
465.041565 0.032507 
475.023132 0.037498 
477.039978 0.03777 
479.031616 0.030465 
479.12323 0.033246 
481.9953 0.027851 
482.064972 0.150084 
484.063721 0.043793 
486.331268 0.027468 
491.122437 0.033626 
492.106964 0.036158 
493.034058 0.033457 
495.027527 0.050185 
503.464691 0.026092 
505.314789 0.035639 
506.131989 0.032156 
512.12561 0.028515 
519.120728 0.031783 
521.023987 0.043997 
523.020264 0.063096 
524.04187 0.029622 
524.879639 0.027949 
540.744141 0.032738 
548.16803 0.029506 
553.073608 0.049194 
569.248718 0.029166 
572.391968 0.104095 
578.990173 0.029937 
584.39209 0.066632 
587.071411 0.037183 
590.402954 0.038698 
613.109375 0.029985 
622.081116 0.030341 
639.082947 0.030558 
643.127441 0.042627 
649.086426 0.058349 
651.104065 0.079918 
652.106262 0.053817 
653.108887 0.095043 
654.142639 0.037568 
658.134766 0.077028 
659.132141 0.038611 
661.088684 0.24076 
662.099915 0.03639 
663.100708 0.277025 
665.095337 0.254819 
667.092224 0.164918 
670.136047 0.077248 
671.163513 0.076946 
676.100891 0.253834 
677.088379 0.289544 
678.111267 1.237046 
679.100159 0.272353 
680.11615 0.764166 
681.115479 0.127351 
682.120972 0.144894 
683.117981 0.038778 
686.086731 0.033163 
688.100586 0.420804 
689.090088 0.801147 
690.100891 0.467287 
691.09198 0.565228 
692.102539 0.246715 
693.083313 0.480561 
694.105164 0.26736 
695.075745 0.093471 
695.136536 0.035151 
696.112183 0.147882 
697.139343 0.107231 
699.067322 0.057438 
704.094788 1.346148 
705.095337 0.364362 
706.113525 3.783273 
707.112976 1.537017 
708.110596 2.500345 
709.111023 0.360384 
710.108521 0.87373 
711.112427 0.198902 
712.105042 0.116908 
713.590942 0.051156 
713.78302 0.145841 
713.93042 0.250651 
713.970398 0.203216 
714.084473 0.108688 
716.091125 0.734293 
717.091919 0.219511 
717.921082 0.031146 
718.095703 0.43589 
719.088745 0.303961 
720.09491 0.360824 
721.120422 1.185232 
722.111633 0.865281 
723.124878 1.276136 
724.116821 0.340436 
725.13092 0.481077 
726.126465 0.081748 
727.13623 0.036144 
731.104858 0.176175 
732.091553 1.493838 
733.099365 0.613766 
734.102295 2.121246 
735.109314 0.789459 
736.103027 1.13318 
737.104553 0.438727 
737.869934 0.025542 
738.105103 0.354622 
740.108826 0.036022 
741.098389 0.033882 
742.075134 0.040095 
744.086243 0.4728 
745.085388 0.113262 
746.086731 0.466288 
747.078552 0.232317 
748.085571 0.183761 
749.114929 0.810752 
750.108765 0.662044 
751.121277 0.768245 
752.119141 0.366547 
753.128662 0.281422 
754.121399 0.100566 
758.086243 0.031903 
759.100586 0.19222 
760.083862 2.482934 
761.092712 1.534323 
762.081177 2.924969 
763.095947 1.564849 
764.088501 1.39457 
765.101196 0.402733 
766.112732 0.046239 
766.759338 0.035924 
767.12616 0.10307 
769.122131 0.030709 
770.119263 0.034166 
772.081299 0.159221 
773.106323 0.482228 
774.090881 0.306101 
775.107727 0.439955 
776.094543 0.152624 
777.112427 4.40087 
778.115173 2.480331 
779.110779 4.983718 
780.112549 2.603502 
781.108582 1.647837 
782.106934 0.349691 
787.10199 0.034804 
788.073975 1.367629 
789.099609 1.114566 
790.070251 1.532975 
790.144836 0.074389 
791.096191 1.000235 
792.083069 0.478556 
793.120178 0.150587 
794.126465 0.078377 
795.124695 0.11778 
800.114258 0.03821 
801.098389 0.200616 
802.109802 0.13249 
803.102173 0.318878 
804.104675 0.212919 
805.106079 3.181059 
806.113586 1.729979 
807.104797 3.93777 
808.106689 1.754776 
809.104675 1.391055 
810.104858 0.308154 
816.093872 0.058113 
817.114075 0.218252 
818.126709 0.237591 
819.113831 0.316719 
820.124512 0.445577 
821.124146 0.352792 
822.122925 0.331423 
823.114502 0.099559 
824.125183 0.037334 
825.111145 0.072691 
825.961548 0.028564 
831.091125 0.038124 
832.111328 0.204098 
833.100647 2.077914 
834.10553 1.567965 
835.097107 2.510783 
836.100891 1.257328 
837.09906 0.481736 
838.114807 0.125633 
844.104614 0.036966 
845.120483 0.034765 
846.120789 0.251156 
847.114868 0.11891 
848.120239 0.196284 
849.111816 0.040327 
850.127319 1.431287 
851.124512 0.705507 
852.125549 1.772325 
853.122559 0.805809 
854.117798 0.374428 
855.12085 0.035081 
861.129395 0.036201 
862.105835 0.03372 
863.119934 0.037209 
864.127014 0.126881 
865.141479 0.043174 
873.134277 0.026381 
879.158325 0.038396 
881.145386 0.038055 
890.125916 0.034937 
895.110413 0.030471 
900.14093 0.083854 
902.142517 0.094586 
903.146057 0.149119 
904.15509 0.180183 
905.14801 0.049609 
912.13916 0.086506 
913.13324 0.128276 
914.145569 0.123906 
915.137024 0.065575 
916.134888 0.069805 
917.148926 0.139008 
918.151733 0.215817 
919.154053 0.09889 
920.15271 0.03452 
921.178711 0.036901 
921.582031 0.033532 
927.16217 0.034969 
928.139282 0.488479 
929.146362 0.39205 
930.148254 1.163278 
931.150696 0.40573 
932.152283 0.424521 
933.156738 0.105868 
934.148621 0.038622 
939.138367 0.062219 
940.141663 0.292048 
941.145691 0.074058 
942.138855 0.117808 
943.143982 0.07316 
944.140259 0.206095 
945.163879 0.305148 
946.158875 0.479078 
947.163757 0.290079 
948.157959 0.243116 
949.15863 0.091851 
951.172791 0.03447 
955.150146 0.046642 
956.134888 0.802612 
957.149048 0.94931 
958.142273 1.225539 
959.155579 0.542613 
960.1521 0.330134 
961.161255 0.11452 
963.165527 0.079238 
965.148987 0.038321 
966.142395 0.068857 
971.16571 0.042402 
972.148376 0.064104 
973.156921 0.904435 
974.161621 0.878496 
975.16095 0.817629 
976.165283 0.385074 
977.172668 0.276144 
979.161377 0.067841 
984.133362 0.189706 
985.144836 0.271236 
986.139832 0.312037 
987.152954 0.223188 
988.148376 0.158358 
989.153381 0.04795 
990.1745 0.145782 
991.167542 0.132727 
992.181641 0.217679 
993.166016 0.081489 
994.18457 0.04213 
995.188965 0.045712 
1000.156372 0.044791 
1001.155518 0.764281 
1002.160889 0.35799 
1003.154907 0.593601 
1004.158203 0.159085 
1005.166809 0.082138 
1006.171997 0.094673 
1007.166321 0.070431 
1008.201111 0.041143 
1012.14679 0.079414 
1013.138184 0.084625 
1014.157715 0.042674 
1015.142395 0.09684 
1016.16272 0.081738 
1017.155518 0.140066 
1018.174927 0.398478 
1019.168579 0.254572 
1020.178223 0.361802 
1021.178711 0.1744 
1022.183228 0.043201 
1023.205383 0.042273 
1024.181396 0.043218 
1025.157959 0.035774 
1027.148682 0.048116 
1028.166382 0.141391 
1029.150757 0.652624 
1030.157227 0.469266 
1031.155151 0.388909 
1032.162476 0.225093 
1033.15625 0.037375 
1034.16626 0.048365 
1035.168335 0.132674 
1036.171631 0.147922 
1038.199097 0.037717 
1039.187378 0.039736 
1041.109985 0.041159 
1042.166748 0.052583 
1043.157471 0.236022 
1044.170776 0.394811 
1045.165527 0.242721 
1046.166138 0.546253 
1047.174194 0.317865 
1048.171509 0.315905 
1049.172607 0.100337 
1050.172974 0.032938 
1054.155884 0.13394 
1055.124512 0.078364 
1056.154053 0.196132 
1057.143066 0.858381 
1058.148315 1.009444 
1059.148193 1.095077 
1060.158569 0.834931 
1061.165894 0.313253 
1062.170898 0.233858 
1063.182983 0.280177 
1064.178833 0.086336 
1065.181763 0.039989 
1068.177368 0.041644 
1069.166382 0.08066 
1070.165161 0.630131 
1071.163452 0.491081 
1072.165039 0.604433 
1073.16687 0.503656 
1074.166504 1.150635 
1075.170776 1.105761 
1076.167358 1.418535 
1077.172852 0.754027 
1078.168091 0.393144 
1079.179199 0.153453 
1080.181763 0.093909 
1082.187866 0.057057 
1085.161377 0.138584 
1086.172119 0.513215 
1087.171143 0.750154 
1088.182251 1.01292 
1089.178711 0.634091 
1090.177124 0.729728 
1091.182495 0.347644 
1092.168213 0.091225 
1095.188721 0.040278 
1096.155396 0.090062 
1097.158447 0.145219 
1098.154297 0.371282 
1099.160767 0.300629 
1100.161133 0.504424 
1101.166138 0.307388 
1102.157715 0.424683 
1103.180176 0.592901 
1104.183716 0.490562 
1105.193237 0.606475 
1106.192871 0.610408 
1107.201904 0.188803 
1109.180298 0.044064 
1113.171387 0.75808 
1114.175781 1.362841 
1115.183472 2.116727 
1116.17627 1.985473 
1117.178711 1.605608 
1118.169189 0.967237 
1119.178467 0.477452 
1120.17395 0.241929 
1121.180908 0.192111 
1122.198486 0.035196 
1128.184082 0.041618 
1129.174438 0.040594 
1130.17395 0.545915 
1131.192383 2.242661 
1132.191895 1.953169 
1133.196167 2.833904 
1134.195435 1.786863 
1135.19043 1.291744 
1136.191284 0.409695 
1137.199951 0.036494 
1141.171143 0.196124 
1142.17334 0.113164 
1143.173828 0.403205 
1144.171875 0.145095 
1145.16272 0.040692 
1147.18042 0.338008 
1148.195557 0.921905 
1149.194946 0.940812 
1150.205444 1.259029 
1151.202637 0.670536 
1152.201416 0.14596 
1158.164673 1.233895 
1159.188232 3.694705 
1160.187866 3.386029 
1161.187866 4.239474 
1162.189819 2.886399 
1163.182861 1.370743 
1164.176758 0.457673 
1174.190063 0.054491 
1175.182495 1.448874 
1176.208984 4.523136 
1177.205322 4.183522 
1178.211792 5.788841 
1179.215576 3.661455 
1180.213135 2.359362 
1181.203247 0.726851 
1182.210083 0.04173 
1192.199463 0.663916 
1193.204102 0.384934 
1194.203857 0.727444 
1195.206299 0.358953 
1196.204346 0.136514 
1205.1521 0.049352 
1220.200195 0.036266 
1222.202271 0.048901 
1223.192383 0.044454 
1234.198242 0.042532 
1292.266968 0.04423 
1307.284058 0.056633 
1310.28186 0.043114 
1350.936279 0.040131 
1353.120605 0.030008 
1380.273071 0.076696 
1381.280762 0.045639 
1399.251953 0.041694 
1469.36499 0.029534 
1537.064819 0.036545 
END IONS

