BEGIN IONS
PEPMASS=245.096
CHARGE=1+
COMPOUNDNAME=Massbank:BML00278 Biotin
LIBRARYQUALITY=3
SMILES=C1C2C(C(S1)CCCCC(=O)O)NC(=O)N2
INCHIKEY=YBJHBAHKTGYVGT-UHFFFAOYSA-N
INCHI=1S/C10H16N2O3S/c13-8(14)4-2-1-3-7-9-6(5-16-7)11-10(15)12-9/h6-7,9H,1-5H2,(H,13,14)(H2,11,12,15)
MSLEVEL=2
SOURCE_INSTRUMENT=ESI-LC-ESI-QTOF
FILENAME=Massbank_ESI_positive_8_1_2014_peaks.mgf
SEQ=*..*
IONMODE=Positive
ORGANISM=MASSBANK
NAME=Massbank:BML00278 Biotin [M+H]+
PI=Putative Massbank Match
DATACOLLECTOR=Massbank
PUBMED=N/A
SUBMITUSER=mwang87
TAGS=
SPECTRUMID=CCMSLIB00000204852
SCANS=112
138.0923 21.0 
150.0894 29.0 
166.0642 36.0 
227.085 1359.0 
227.1244 78.0 
227.1654 30.0 
227.2219 28.0 
245.0947 200.0 
END IONS

