BEGIN IONS
PEPMASS=264.124
CHARGE=1+
COMPOUNDNAME=ANISOMYCIN
LIBRARYQUALITY=3
SMILES=N/A
INCHIKEY=YKJYKKNCCRKFSL-BFHYXJOUSA-N
INCHI=InChI=1S/C14H19NO4/c1-9(16)19-14-12(15-8-13(14)17)7-10-3-5-11(18-2)6-4-10/h3-6,12-15,17H,7-8H2,1-2H3/t12-,13+,14+/m0/s1
MSLEVEL=2
SOURCE_INSTRUMENT=N/A-ESI-QFT
FILENAME=library_mgf.mgf
SEQ=*..*
IONMODE=negative
ORGANISM=MONA
NAME=ANISOMYCIN [M-H]-
PI=MoNA
DATACOLLECTOR=MoNA:VF-NPL-QEHF027592
PUBMED=N/A
SUBMITUSER=mwang87
TAGS=
SPECTRUMID=CCMSLIB00004721173
SCANS=27592
50.161686 0.01059 
50.367313 0.011984 
50.595116 0.013996 
53.553299 0.011518 
54.571888 0.012129 
54.61924 0.013293 
55.211113 0.011833 
55.633453 0.010627 
56.628708 0.011307 
57.076775 0.009529 
57.296455 0.008928 
57.498363 0.01221 
59.012489 0.925707 
59.137985 0.013357 
59.70919 0.009182 
61.548466 0.015305 
61.803307 0.008586 
61.986988 1.785302 
62.667873 0.00956 
62.727894 0.015444 
62.974785 0.013764 
64.60981 0.008032 
65.08873 0.016289 
65.131226 0.009375 
66.411652 0.009495 
66.724045 0.012643 
66.807007 0.010635 
68.823982 0.013617 
69.755577 0.009607 
70.865379 0.011025 
71.012497 0.040216 
71.470154 0.01069 
73.272758 0.009746 
73.483749 0.014127 
74.198601 0.01534 
74.858833 0.016515 
78.707794 0.01207 
78.957733 0.249111 
79.953987 0.035545 
79.956322 0.439434 
80.963928 0.464072 
81.470085 0.012143 
81.78289 0.01624 
81.788109 0.010252 
82.190346 0.015836 
84.070793 0.010142 
84.62439 0.009365 
85.512794 0.017267 
87.031898 0.015748 
87.098 0.012937 
88.823334 0.016009 
89.02317 0.297866 
89.076164 0.01168 
89.546021 0.009234 
89.91674 0.009226 
92.711075 0.008777 
93.886185 0.010398 
94.979431 0.015054 
96.958817 46.343182 
96.976326 0.039662 
97.958199 0.048218 
99.080383 0.013209 
99.334564 0.009888 
100.039101 0.097874 
100.678871 0.01578 
100.696228 0.014694 
106.871162 0.014072 
107.049049 0.020443 
108.848328 0.01472 
109.835808 0.014518 
111.166428 0.0103 
112.524963 0.015004 
113.023247 0.017107 
118.940903 0.095016 
119.671181 0.015291 
119.945679 0.077913 
120.418312 0.014019 
120.852615 0.013067 
120.936668 0.053085 
121.028313 3.26166 
121.942947 0.699973 
122.031792 0.081361 
123.344681 0.016512 
125.096024 0.019871 
133.774445 0.011239 
143.790695 0.015089 
145.897415 0.012956 
146.897461 0.017075 
146.964813 0.021395 
149.295639 0.015256 
151.039108 0.602045 
152.30986 0.012855 
158.938202 0.055624 
160.891907 0.019534 
161.060043 0.014077 
161.071106 0.014415 
161.779083 0.013857 
162.420532 0.014636 
162.892578 0.070876 
163.0755 0.089192 
164.034683 0.04809 
165.042282 0.202955 
166.017181 0.017082 
166.334656 0.016533 
168.956085 0.010758 
169.548035 0.015296 
172.70224 0.01007 
175.505066 0.013406 
176.897537 0.01271 
176.908188 0.047551 
178.0504 0.174356 
178.896744 0.122505 
179.058044 0.082748 
179.071548 0.010652 
179.408981 0.016102 
181.049622 0.030619 
181.062637 0.093255 
181.12262 0.190468 
181.131104 0.011012 
183.102036 0.013109 
184.001053 0.564439 
184.503494 0.115178 
184.990601 0.016118 
188.100464 0.014544 
190.914001 0.008907 
191.756683 0.014412 
193.073593 0.014456 
201.393311 0.01428 
202.731308 0.009515 
205.840378 0.016944 
207.011566 0.143532 
208.266937 0.014741 
210.88269 0.024278 
216.033142 0.173755 
216.039169 0.151567 
216.052246 0.094918 
219.138596 0.093945 
219.175156 0.151985 
220.097824 0.032024 
221.116776 0.021448 
221.154434 0.123218 
223.028519 0.016385 
224.092758 0.019191 
224.693085 0.020486 
229.172943 0.011358 
230.926804 0.023787 
231.947372 0.012908 
234.948181 0.016824 
244.131805 0.032978 
244.84314 0.073283 
246.147705 0.187049 
247.038849 0.014883 
250.306671 0.014209 
253.918228 0.013619 
256.110077 0.010627 
256.555969 0.010202 
257.990173 0.008764 
258.059082 0.009919 
262.095947 0.451571 
262.221039 0.013266 
262.597412 0.278489 
262.869324 0.471639 
262.954712 0.014728 
263.03772 0.027791 
263.072845 0.179895 
263.094543 0.089458 
263.130432 0.626614 
263.165161 0.9231 
263.200531 0.016497 
264.074188 0.017335 
264.128693 0.196985 
264.16037 16.255821 
264.984528 0.523701 
265.075073 0.487274 
265.148132 100.0 
265.161499 2.920623 
265.227417 0.057382 
265.984589 0.014846 
266.104095 0.075901 
266.151459 6.526 
273.859222 0.009694 
281.459106 0.009701 
END IONS

