BEGIN IONS
TITLE=Scan Number: 1073
PEPMASS=437.20099
CHARGE=1+
COMPOUNDNAME=Ambiguine_E_isonitrile
LIBRARYQUALITY=3
SMILES=C[C@]1([C@@H]2[C@@]3([C@@]([C@]([C@@H](C2)Cl)(C=C)C)([C@H]4O[C@H]4[C@@](c5c3c6c1cccc6[nH]5)(C)C)[N+]#[C-])O)C
INCHIKEY=LYCKQMCCONKVPQ-CXGOSFSJSA-N
INCHI=
MSLEVEL=2
SOURCE_INSTRUMENT=LC-ESI-qTof
FILENAME=f.philipwi/0_WilliamsFreshwaterCyanosStandardsConvertedTo_mzXML_v2/PW-49_P1-F-4_Ambiguine_E_isonitrile_436amu_Scan1072-1079_15564.mzXML;
SEQ=*..*
NOTES=
IONMODE=Positive
ORGANISM=GNPS-LIBRARY
NAME=Ambiguine_E_isonitrile M+H
SPECTRUMID=CCMSLIB00000424892
ACTIVATION=CID
INSTRUMENT=ion trap
SCANS=1073
66.60788 20.0 
135.665482 164.0 
154.116409 92.0 
169.925034 28.0 
170.116196 80.0 
171.123657 96.0 
176.120972 64.0 
181.293198 24.0 
181.937469 40.0 
182.101822 88.0 
183.107269 144.0 
184.11058 52.0 
184.863831 120.0 
188.014496 40.0 
192.781586 48.0 
194.0961 228.0 
195.107376 180.0 
196.116226 332.0 
197.115845 80.0 
197.859344 44.0 
198.097809 136.0 
200.116272 116.0 
200.847321 44.0 
201.127472 28.0 
201.996246 28.0 
203.084854 100.0 
204.082626 172.0 
205.088226 212.0 
206.09787 96.0 
207.108932 44.0 
208.1091 472.0 
209.041504 28.0 
209.11705 376.0 
210.095062 348.0 
211.132233 220.0 
212.110046 192.0 
212.23317 36.0 
213.121445 128.0 
213.665665 36.0 
213.902313 92.0 
216.085724 92.0 
216.676453 32.0 
218.100296 100.0 
219.109161 104.0 
219.509933 48.0 
220.116028 340.0 
221.117065 324.0 
221.687454 28.0 
222.12587 408.0 
223.133286 432.0 
223.742218 36.0 
224.113876 240.0 
224.286026 20.0 
225.147537 76.0 
226.127518 196.0 
227.034195 92.0 
227.764725 124.0 
230.104797 124.0 
231.108505 304.0 
232.114929 804.0 
233.122528 604.0 
233.271439 84.0 
233.953445 40.0 
234.031448 28.0 
234.130249 892.0 
234.522537 36.0 
234.65596 44.0 
235.131958 188.0 
236.015198 32.0 
236.14122 360.0 
236.750229 32.0 
236.953781 32.0 
237.119141 560.0 
237.791016 68.0 
237.98436 80.0 
238.13324 300.0 
238.509109 36.0 
238.745438 104.0 
238.952316 56.0 
239.130737 116.0 
240.131271 120.0 
241.085419 104.0 
242.100586 216.0 
243.078903 84.0 
243.874619 24.0 
243.954254 24.0 
244.103195 92.0 
244.302856 24.0 
244.97084 28.0 
245.050659 80.0 
245.128876 124.0 
246.121658 224.0 
247.13739 752.0 
247.321014 32.0 
247.732193 44.0 
247.952972 24.0 
248.144897 1232.0 
248.553345 36.0 
248.686249 96.0 
249.148727 392.0 
249.974594 36.0 
250.14006 176.0 
250.70076 44.0 
250.892563 40.0 
251.12352 356.0 
251.266281 44.0 
251.347122 76.0 
251.771744 28.0 
252.004425 52.0 
252.142517 816.0 
252.490387 32.0 
253.13736 24.0 
253.220184 32.0 
254.167999 68.0 
254.46936 24.0 
254.784683 56.0 
255.104279 80.0 
256.105988 224.0 
256.650085 36.0 
256.895203 88.0 
257.124847 492.0 
257.621124 36.0 
257.86673 28.0 
258.12793 280.0 
258.409546 32.0 
258.63501 28.0 
259.140564 472.0 
259.527649 44.0 
259.681702 28.0 
260.143158 1012.0 
260.421814 40.0 
261.008484 56.0 
261.13855 616.0 
261.574066 36.0 
261.729889 40.0 
261.915527 40.0 
262.145233 492.0 
262.328339 28.0 
262.524536 20.0 
262.638153 32.0 
263.136169 288.0 
263.33075 40.0 
263.413513 72.0 
263.920685 56.0 
264.135437 724.0 
264.407623 52.0 
264.902893 116.0 
265.1427 444.0 
266.15509 240.0 
267.161957 156.0 
267.380371 64.0 
267.922668 88.0 
268.08963 108.0 
269.127197 164.0 
269.859528 80.0 
270.124298 116.0 
270.6633 116.0 
271.13092 388.0 
271.471405 36.0 
271.870636 28.0 
272.013885 40.0 
272.146027 1328.0 
272.259674 32.0 
272.585815 44.0 
273.140076 220.0 
273.797455 40.0 
274.161377 332.0 
274.441223 36.0 
274.536285 32.0 
274.712341 36.0 
275.166412 428.0 
275.328979 40.0 
275.49826 32.0 
275.667572 84.0 
276.142487 480.0 
276.419495 24.0 
276.620911 48.0 
276.981476 32.0 
277.153351 308.0 
277.310455 28.0 
277.586517 32.0 
277.915833 36.0 
278.125763 736.0 
278.298523 28.0 
278.403687 36.0 
278.722717 32.0 
278.972443 60.0 
279.129486 356.0 
279.309692 36.0 
279.629364 64.0 
279.821259 52.0 
279.956879 28.0 
279.974457 44.0 
280.13559 1256.0 
280.418701 20.0 
280.557495 28.0 
280.899261 28.0 
281.136841 496.0 
281.283997 32.0 
281.487183 32.0 
282.13208 132.0 
282.471954 44.0 
282.686249 44.0 
282.888855 40.0 
283.153839 92.0 
283.469177 40.0 
283.673126 52.0 
284.046997 84.0 
284.148926 500.0 
284.46814 48.0 
285.152039 548.0 
285.2966 44.0 
285.93219 32.0 
286.160706 536.0 
286.406647 184.0 
286.503754 32.0 
287.155884 452.0 
287.886475 28.0 
288.144379 652.0 
288.373383 40.0 
288.557434 40.0 
288.795715 32.0 
289.149628 416.0 
289.880005 36.0 
289.971069 68.0 
290.157562 772.0 
290.781494 80.0 
291.046722 80.0 
291.155182 376.0 
291.368744 32.0 
291.531982 28.0 
292.137177 316.0 
292.719543 40.0 
292.806793 24.0 
293.141327 292.0 
293.581757 40.0 
293.865784 32.0 
294.148224 664.0 
294.445221 44.0 
294.828186 32.0 
295.147614 460.0 
295.2771 36.0 
295.988403 40.0 
296.039978 40.0 
296.14624 296.0 
296.494202 32.0 
296.75769 28.0 
296.900452 28.0 
297.144989 276.0 
297.735809 36.0 
297.812805 28.0 
297.977844 52.0 
298.152069 432.0 
298.869781 56.0 
299.158356 396.0 
299.80722 84.0 
300.15332 88.0 
300.304108 36.0 
300.690857 48.0 
300.84906 64.0 
301.055725 36.0 
301.159821 68.0 
302.161194 528.0 
302.387024 120.0 
302.583984 32.0 
302.750305 40.0 
303.171387 276.0 
303.349548 32.0 
303.516113 24.0 
303.649384 24.0 
303.893799 28.0 
304.071625 36.0 
304.175964 424.0 
304.405182 36.0 
304.50528 32.0 
304.738922 52.0 
305.02832 40.0 
305.168304 184.0 
306.10907 348.0 
306.176941 100.0 
307.166962 84.0 
307.493652 64.0 
307.661346 28.0 
307.739624 32.0 
308.135376 308.0 
308.959686 24.0 
309.135925 132.0 
309.35199 120.0 
310.140503 188.0 
310.867401 32.0 
311.146545 48.0 
311.87973 48.0 
312.172058 312.0 
312.285126 36.0 
312.848602 72.0 
313.172882 644.0 
313.351685 36.0 
313.480316 28.0 
314.067474 104.0 
314.177948 476.0 
314.349945 48.0 
314.485596 36.0 
315.189453 192.0 
315.775604 20.0 
315.934204 32.0 
316.153442 104.0 
316.410248 32.0 
316.89801 40.0 
317.163666 204.0 
317.624664 48.0 
318.067871 36.0 
318.215851 144.0 
319.185577 156.0 
319.969238 40.0 
320.146301 152.0 
320.402679 24.0 
320.505371 32.0 
321.143677 252.0 
322.102356 120.0 
322.18985 116.0 
322.952179 40.0 
323.171967 300.0 
323.605469 36.0 
324.141724 148.0 
324.374207 32.0 
324.753174 28.0 
325.132385 48.0 
325.477295 20.0 
325.741852 40.0 
326.141754 364.0 
326.765137 32.0 
327.165039 244.0 
327.792908 28.0 
328.20343 892.0 
328.50885 32.0 
328.948029 24.0 
329.187958 256.0 
329.206024 280.0 
329.618927 24.0 
329.746246 32.0 
330.190674 440.0 
330.429535 28.0 
331.208374 68.0 
331.705353 28.0 
332.007294 28.0 
332.205353 120.0 
333.949799 32.0 
334.156586 92.0 
335.135315 140.0 
336.115204 232.0 
337.125793 36.0 
337.512146 32.0 
337.699554 48.0 
337.816711 24.0 
338.181061 400.0 
338.52002 32.0 
338.649048 32.0 
339.148254 312.0 
339.458954 24.0 
339.646881 44.0 
340.011169 44.0 
340.131653 64.0 
340.380554 48.0 
340.775604 32.0 
341.159302 428.0 
341.493774 24.0 
341.646942 52.0 
342.027618 40.0 
342.185547 500.0 
342.354248 40.0 
342.66098 28.0 
343.181 148.0 
343.652863 28.0 
344.195862 180.0 
345.226318 52.0 
345.937317 32.0 
346.044006 32.0 
346.220886 260.0 
347.221405 116.0 
348.206879 268.0 
349.162933 288.0 
350.141235 164.0 
350.445343 24.0 
350.672119 28.0 
350.946716 36.0 
351.161713 32.0 
351.305054 36.0 
351.90271 168.0 
352.148773 76.0 
352.436005 48.0 
353.15625 200.0 
354.142365 84.0 
354.250336 52.0 
354.874512 24.0 
355.196777 200.0 
355.451141 36.0 
356.028229 32.0 
356.202698 1476.0 
356.325714 44.0 
356.452209 100.0 
356.858643 36.0 
356.954987 44.0 
357.207397 364.0 
357.316376 36.0 
357.533295 24.0 
358.215179 136.0 
358.67926 44.0 
359.181763 236.0 
359.464386 32.0 
360.198303 236.0 
361.195496 64.0 
362.172516 152.0 
363.134552 172.0 
363.743286 48.0 
364.182098 808.0 
365.045288 80.0 
365.176422 340.0 
365.386414 44.0 
365.483887 24.0 
365.642334 36.0 
365.898346 48.0 
366.186035 240.0 
366.886658 20.0 
367.175232 216.0 
368.196106 112.0 
369.038757 44.0 
369.16507 100.0 
369.614502 48.0 
370.497406 36.0 
371.209381 64.0 
371.995819 36.0 
372.094177 36.0 
372.204865 80.0 
372.389343 32.0 
372.487762 36.0 
373.199127 116.0 
374.077179 144.0 
374.216431 956.0 
374.606842 32.0 
375.088165 52.0 
375.224152 160.0 
375.582153 36.0 
375.949738 32.0 
376.174469 180.0 
376.670044 24.0 
376.843262 40.0 
377.156433 956.0 
378.157257 216.0 
379.148865 320.0 
380.160156 196.0 
382.189026 592.0 
383.093292 32.0 
383.206512 168.0 
384.188446 192.0 
384.441956 24.0 
385.203308 72.0 
385.755402 36.0 
386.193726 48.0 
389.344391 20.0 
389.633759 24.0 
389.968933 76.0 
390.191376 80.0 
390.346771 64.0 
391.099518 32.0 
391.222748 76.0 
391.447754 88.0 
391.649567 36.0 
391.756409 68.0 
391.96698 128.0 
392.065979 92.0 
392.17926 7224.0 
392.484558 72.0 
392.597656 56.0 
393.020416 32.0 
393.184998 1320.0 
393.329193 28.0 
393.437103 60.0 
393.670593 48.0 
393.868805 48.0 
393.98053 32.0 
394.176971 2552.0 
394.324799 76.0 
394.42984 20.0 
394.531128 52.0 
394.619751 96.0 
394.885712 32.0 
395.170074 396.0 
395.633423 20.0 
395.779663 36.0 
395.874359 24.0 
396.737274 40.0 
396.953156 24.0 
397.152161 88.0 
398.338715 16.0 
398.80957 64.0 
400.026947 136.0 
400.912781 112.0 
401.229187 236.0 
401.801941 64.0 
402.062317 32.0 
402.224152 136.0 
404.020294 40.0 
404.238159 68.0 
405.16571 96.0 
405.559296 28.0 
406.574097 40.0 
407.049805 112.0 
407.165558 24.0 
407.255585 28.0 
407.990479 40.0 
408.158722 24.0 
408.369507 36.0 
408.943848 40.0 
409.110107 36.0 
409.208984 72.0 
409.764374 72.0 
409.963531 76.0 
410.18869 9104.0 
410.477966 24.0 
410.632935 56.0 
410.930084 44.0 
411.065796 32.0 
411.190247 4012.0 
411.485931 40.0 
411.641113 24.0 
411.783386 44.0 
412.007355 64.0 
412.186859 2472.0 
412.349518 32.0 
412.469238 96.0 
412.611664 24.0 
413.08902 28.0 
413.188171 440.0 
413.803772 32.0 
414.514282 52.0 
414.828796 44.0 
415.114502 128.0 
415.530182 32.0 
415.751129 28.0 
416.726501 20.0 
418.224335 28.0 
418.785065 40.0 
419.205444 92.0 
419.972992 52.0 
420.190643 164.0 
420.312714 24.0 
420.82254 28.0 
421.188751 96.0 
422.231812 100.0 
423.940521 24.0 
424.189941 76.0 
424.912323 100.0 
425.122589 44.0 
425.727386 24.0 
433.257355 40.0 
435.188812 416.0 
435.342987 120.0 
435.648956 24.0 
436.190063 192.0 
436.660706 32.0 
437.002686 36.0 
437.199524 1648.0 
437.366974 64.0 
438.199493 1000.0 
438.432922 44.0 
438.861359 72.0 
439.048309 32.0 
439.194489 704.0 
439.462463 32.0 
440.251923 112.0 
442.058746 68.0 
444.111694 44.0 
444.85083 44.0 
445.536774 32.0 
446.506073 56.0 
446.640778 92.0 
460.091064 52.0 
462.665192 100.0 
464.284546 148.0 
468.786835 136.0 
475.546265 108.0 
475.935577 116.0 
477.564026 36.0 
483.881317 96.0 
516.80011 72.0 
526.291626 128.0 
529.367065 32.0 
585.933655 80.0 
588.436035 128.0 
591.71875 132.0 
596.457581 116.0 
640.280151 108.0 
674.518188 92.0 
696.498108 112.0 
703.835388 48.0 
714.070007 128.0 
740.040344 116.0 
761.980957 108.0 
769.548462 24.0 
800.138184 128.0 
1173.439087 32.0 
1629.267944 32.0 
1883.951294 16.0 
END IONS

