BEGIN IONS
PEPMASS=359.089
CHARGE=1+
COMPOUNDNAME=MYCOPHENOLIC ACID
LIBRARYQUALITY=3
SMILES=N/A
INCHIKEY=HPNSFSBZBAHARI-RUDMXATFSA-N
INCHI=InChI=1S/C17H20O6/c1-9(5-7-13(18)19)4-6-11-15(20)14-12(8-23-17(14)21)10(2)16(11)22-3/h4,20H,5-8H2,1-3H3,(H,18,19)/b9-4+
MSLEVEL=2
SOURCE_INSTRUMENT=N/A-ESI-QFT
FILENAME=library_mgf.mgf
SEQ=*..*
IONMODE=positive
ORGANISM=MONA
NAME=MYCOPHENOLIC ACID [M+K]+
PI=MoNA
DATACOLLECTOR=MoNA:VF-NPL-QEHF011301
PUBMED=N/A
SUBMITUSER=mwang87
TAGS=
SPECTRUMID=CCMSLIB00004702364
SCANS=11301
50.133289 1.162659 
51.472286 1.491324 
51.830635 0.380919 
51.887821 0.34687 
51.953342 0.309082 
53.127758 0.430405 
53.470116 1.631517 
53.500561 0.286608 
53.827553 2.891921 
54.167732 0.282026 
54.345901 0.394536 
54.46093 2.738596 
54.735756 3.304253 
54.85527 2.604537 
54.882595 0.347537 
55.055058 2.280589 
55.184685 1.273961 
55.224087 1.405631 
55.35342 3.952634 
55.401733 0.373859 
55.713654 1.656001 
55.935081 0.471891 
56.958 0.375779 
56.965542 100.0 
57.070633 10.138003 
57.813976 2.068952 
58.065895 4.709321 
58.107742 1.103135 
58.726604 0.381019 
59.485783 2.90043 
59.585056 2.454837 
60.382519 0.302719 
60.494045 0.309802 
60.640617 0.345121 
61.223827 1.820267 
61.474106 0.387429 
61.768578 2.813484 
62.020569 2.007662 
62.507355 1.000611 
62.799641 0.454134 
62.932659 1.616845 
64.921432 1.335841 
64.974594 0.340534 
65.252197 2.812006 
65.255157 0.406314 
65.446587 3.033215 
65.584045 0.310801 
67.054878 2.011028 
69.070694 0.858221 
69.682182 0.389914 
69.781616 2.524435 
70.065834 12.024372 
70.083862 1.214199 
70.206367 0.88462 
70.489647 0.316485 
71.063515 0.85842 
71.086067 0.88834 
71.099602 3.384766 
71.18232 0.41661 
71.863564 1.254378 
72.013962 2.008282 
72.541153 2.740671 
72.889977 2.997216 
72.968651 2.312493 
73.04744 0.514044 
73.157143 2.123835 
73.57386 1.7635 
73.754745 0.351229 
74.543709 3.252061 
74.876366 0.798615 
74.975227 3.472204 
76.712433 2.388118 
76.873749 2.475203 
77.018639 2.903597 
77.192795 1.053102 
77.342224 1.659358 
79.02169 0.373506 
79.273483 0.718657 
79.633522 2.737083 
80.148712 0.956429 
80.365944 3.193187 
80.384018 0.374669 
80.538185 1.155702 
81.259811 1.603184 
81.565002 2.42171 
82.164352 2.614416 
82.292786 2.373067 
82.905167 2.61752 
82.987343 1.621053 
83.103973 1.695814 
83.220413 2.889839 
85.174782 0.564097 
85.673973 2.328274 
85.868584 0.478949 
88.076126 6.288284 
88.183105 1.480011 
91.054703 15.299127 
91.057632 2.77594 
91.127899 3.224735 
91.327232 0.340521 
91.789963 2.929131 
93.355736 0.783685 
93.456032 0.40212 
94.142525 0.431285 
95.019722 2.098072 
95.049492 0.447415 
95.818069 2.363881 
96.061218 1.512976 
96.391747 0.427558 
97.968246 0.38451 
98.975677 0.483189 
99.84166 2.488817 
100.695023 1.598409 
101.922783 2.205442 
102.143021 3.196693 
103.402527 2.221158 
104.629005 1.735026 
105.157066 2.449678 
105.183319 0.892951 
107.491608 3.019327 
107.727074 1.675598 
109.442879 1.864378 
110.260231 0.382788 
110.546364 0.500189 
110.780579 3.223853 
111.229019 1.753532 
112.095215 2.674988 
112.614471 1.593032 
115.015739 0.398574 
115.978653 2.983566 
119.085831 1.063669 
119.834198 0.480092 
120.027046 2.774499 
121.2127 2.799595 
122.947372 1.549648 
123.369339 2.221729 
125.476608 2.390655 
125.578758 2.111763 
125.844856 2.154817 
128.859009 0.403206 
130.634232 0.365785 
131.122726 2.3524 
131.668274 1.8719 
132.101654 2.340874 
134.333054 2.176424 
138.32547 2.658458 
138.80661 0.374975 
140.97467 0.903764 
144.56369 0.41026 
145.860245 1.831873 
146.843246 0.349883 
146.879257 0.458142 
149.339752 1.447615 
151.696259 1.358955 
153.784134 3.011365 
155.531204 0.367917 
157.249146 1.844409 
157.822678 0.487856 
158.864395 1.474221 
159.044006 2.768722 
162.878326 0.321637 
165.071014 0.432852 
165.271774 3.35501 
165.619827 3.14687 
166.951889 0.482209 
175.186829 0.379826 
175.769089 3.663134 
176.206635 0.379309 
177.054764 3.281978 
178.037384 1.636406 
178.892639 4.558765 
178.90831 1.450892 
180.158035 2.626856 
180.888107 50.630611 
185.884583 0.486475 
187.105423 2.848806 
188.803467 1.942203 
189.021759 0.410248 
189.043457 16.9186 
190.046646 0.4283 
195.063782 0.422893 
195.875061 0.929233 
197.819199 1.406077 
197.834885 3.15574 
198.898712 7.728188 
200.853241 3.079825 
207.03302 10.311769 
207.053802 7.624396 
207.064606 1.148687 
209.141449 3.222284 
210.019821 1.751811 
211.603729 0.38465 
213.885773 2.055765 
215.216171 2.992232 
215.691544 3.009676 
216.255737 1.461442 
219.978973 15.240384 
219.989639 19.921564 
220.902786 0.500209 
221.45697 1.842367 
222.202942 3.290749 
222.898651 15.195907 
223.997971 0.509701 
224.035492 1.868067 
225.043243 3.073721 
225.557953 0.348059 
226.087021 0.504583 
227.93779 1.026128 
234.983429 2.694151 
236.965454 2.904002 
237.00679 0.424209 
238.914062 2.672546 
240.909058 38.855476 
241.769241 2.094276 
243.048248 0.545102 
244.11763 1.308253 
244.872543 2.227811 
247.308701 1.62611 
248.631042 0.489159 
249.006683 0.382015 
251.022537 1.177396 
251.889877 0.326551 
252.16301 1.253944 
260.353088 2.478679 
261.523682 3.283109 
265.82547 1.179267 
266.009888 3.190173 
266.497437 3.021363 
267.000519 1.606366 
267.017181 29.649843 
267.363617 1.416078 
267.988922 1.113705 
269.033295 6.306988 
269.819855 0.517882 
270.409637 1.443075 
273.339569 2.075359 
274.159363 1.515543 
277.825653 0.623157 
278.279633 2.655523 
279.017731 1.716548 
279.484711 1.335901 
281.032288 1.513342 
282.005188 1.21654 
283.04892 1.498326 
283.819183 0.527698 
284.020294 1.488651 
284.807831 1.066931 
285.028046 8.737602 
285.815521 6.784415 
285.83313 0.404751 
286.034241 0.436563 
286.167938 2.056119 
286.822632 0.506718 
287.043304 0.558704 
287.831024 2.075799 
288.451324 2.938853 
288.838928 3.529855 
294.828156 1.766313 
295.835571 3.536588 
296.574432 0.94844 
300.82193 0.548659 
302.81781 10.527577 
305.603424 2.912077 
310.721771 1.241807 
310.843109 7.04576 
312.838898 37.552311 
315.977936 0.407733 
319.186035 2.692636 
319.83606 0.804512 
321.896851 0.426875 
325.830872 3.259558 
326.818024 2.270247 
327.825714 27.813038 
328.065247 2.481009 
328.830811 0.419779 
331.528473 2.861055 
337.84668 1.103428 
338.908417 1.416025 
342.617615 0.341184 
342.833496 3.426877 
343.289459 2.76385 
343.841125 0.479615 
344.670441 0.361397 
344.828766 19.258833 
344.975891 2.123954 
345.836731 0.406814 
345.977875 0.496014 
346.245209 2.351756 
353.106201 0.413199 
353.535797 1.029251 
363.712494 0.478234 
369.313995 0.396 
369.837372 0.372419 
376.112976 2.968724 
379.582764 2.713265 
382.291382 1.550601 
END IONS

