BEGIN IONS
PEPMASS=271.06
CHARGE=1+
COMPOUNDNAME=Emodin
LIBRARYQUALITY=3
SMILES=N/A
INCHIKEY=RHMXXJGYXNZAPX-UHFFFAOYSA-N
INCHI=InChI=1S/C15H10O5/c1-6-2-8-12(10(17)3-6)15(20)13-9(14(8)19)4-7(16)5-11(13)18/h2-5,16-18H,1H3
MSLEVEL=2
SOURCE_INSTRUMENT=N/A-ESI-QFT
FILENAME=library_mgf.mgf
SEQ=*..*
IONMODE=positive
ORGANISM=MONA
NAME=Emodin [M+H]+
PI=MoNA
DATACOLLECTOR=MoNA:VF-NPL-QEHF011225
PUBMED=N/A
SUBMITUSER=mwang87
TAGS=
SPECTRUMID=CCMSLIB00004702288
SCANS=11225
50.255882 0.044248 
50.655712 0.073592 
51.19017 0.044887 
51.201916 0.078116 
52.428009 0.040208 
53.382725 0.04874 
53.409599 0.049204 
53.466599 0.062069 
53.630322 0.040829 
53.912685 0.051094 
54.990696 0.049312 
55.054951 0.415004 
56.054234 0.050741 
57.070625 5.699903 
57.492512 0.046031 
57.89719 0.060342 
57.935558 0.042025 
58.065849 9.687343 
58.960148 0.04462 
60.31115 0.040288 
60.369518 0.051661 
61.011364 100.0 
61.297863 0.089734 
61.668468 0.062627 
62.014709 0.120355 
62.060719 0.790505 
62.589527 0.045742 
62.970577 0.051579 
63.007164 0.314272 
63.847027 0.057362 
63.89341 0.067953 
65.298271 0.070603 
65.557571 0.048179 
66.802193 0.049078 
66.905228 0.068696 
67.054855 0.330368 
67.674286 0.048115 
69.070541 1.069973 
69.507195 0.043904 
70.029335 0.327548 
70.06575 0.886554 
70.602943 0.044792 
70.958641 0.275808 
71.086174 3.010796 
72.044991 0.058146 
72.081444 0.107072 
74.096924 0.064259 
75.241051 0.054393 
75.946175 0.442755 
75.960014 0.050577 
78.056892 0.066906 
79.021782 0.212094 
79.054657 0.045128 
79.768211 0.051636 
80.197884 0.055126 
80.421547 0.064721 
80.717865 0.040909 
80.94828 0.05486 
81.070396 1.722528 
82.764885 0.048635 
83.086014 0.335348 
83.098801 0.055268 
83.510429 0.051486 
83.532188 0.051539 
84.081207 0.050034 
84.926155 0.047323 
85.101654 0.828758 
86.096863 0.847503 
86.654396 0.06024 
86.848999 0.066061 
87.044563 0.202564 
87.819771 0.060581 
88.279716 0.05999 
89.060226 0.473558 
89.971489 0.043207 
90.154221 0.046954 
93.070175 0.231365 
95.085869 0.97359 
95.368271 0.045644 
96.801056 0.054506 
97.10154 0.063456 
98.975655 0.055227 
99.117073 0.061905 
100.039284 0.047713 
100.076065 0.307851 
102.914452 0.058631 
103.039627 0.090986 
104.067207 0.063011 
104.070923 7.533599 
104.900719 0.055045 
104.930672 2.232131 
105.571472 0.047475 
107.085663 0.056199 
107.287018 0.057393 
107.966591 0.048306 
109.101433 0.310048 
110.071411 0.059639 
110.252266 0.066323 
110.84816 0.055276 
111.01355 0.076314 
113.139999 0.043008 
114.091599 0.049867 
114.227875 0.050037 
114.770805 0.064051 
115.666595 0.067411 
117.070312 0.061014 
117.349342 0.05547 
118.652695 0.050661 
118.700142 0.058611 
119.975258 2.817744 
120.940681 0.059407 
121.101257 0.065273 
122.94101 18.660164 
123.11673 0.251567 
131.961319 1.105897 
131.982071 0.046498 
132.958221 1.009674 
133.532318 0.051574 
133.736877 0.054476 
133.948532 0.06412 
134.232239 0.051694 
134.940796 0.5196 
134.958771 1.048051 
135.044144 0.195229 
135.297058 0.057171 
135.496719 0.068501 
135.948914 1.050073 
135.966431 2.467974 
136.864548 0.048172 
136.873932 0.068666 
136.956558 5.929128 
136.961823 0.072357 
137.13237 0.411405 
137.928009 0.63561 
137.985504 0.072308 
138.1353 0.050936 
138.515472 0.061707 
138.680161 0.051477 
139.405899 0.050838 
140.95137 1.196034 
142.224228 0.057998 
142.305344 0.049428 
146.976562 0.070122 
147.186157 0.055663 
147.974854 4.229993 
148.971741 27.876404 
149.971893 2.482779 
150.613922 0.050689 
150.972595 8.281406 
151.068512 0.057104 
152.418243 0.061472 
152.951355 37.230301 
152.96907 4.657933 
153.959152 38.097866 
154.946762 0.313092 
154.966782 0.388405 
155.955109 0.051732 
164.951324 6.321558 
164.96785 0.106837 
165.973526 0.055554 
165.980423 1.440297 
166.966858 0.446871 
166.982346 7.325275 
167.975159 0.270865 
168.982651 30.800634 
170.961929 16.464653 
170.979401 0.402565 
171.925415 0.051816 
171.973343 0.275554 
176.620163 0.04802 
176.941025 0.310948 
177.938095 1.009259 
178.978302 0.548566 
179.022293 0.794307 
179.938507 0.311409 
179.9785 0.07307 
180.295776 0.050703 
180.961426 0.308726 
181.771255 0.055863 
181.985489 0.280873 
182.663773 0.042841 
182.953201 0.092842 
182.962006 10.726041 
182.99855 0.271915 
185.059753 0.273179 
185.948975 5.218049 
187.075363 0.070485 
188.617569 0.055272 
191.133789 0.045654 
191.964371 3.689004 
192.014847 0.057624 
192.961456 15.231435 
193.963043 0.138874 
194.952148 1.383675 
194.961868 16.511375 
194.971375 0.110671 
195.948776 2.140409 
197.059799 3.003816 
197.114807 0.050283 
197.949081 1.918609 
199.075272 0.456109 
201.054367 1.325335 
204.951462 0.0514 
205.394974 0.053241 
209.059158 0.069163 
209.97496 3.75783 
210.184845 0.075177 
210.972015 11.967163 
211.973907 0.226221 
212.972488 42.304043 
213.054382 8.243606 
215.887192 0.226756 
215.899445 1.995504 
223.967789 0.04917 
225.054474 1.876226 
226.061707 0.165762 
226.988129 0.850634 
227.070053 8.282766 
229.049316 3.250348 
229.633499 0.055624 
230.05304 0.078376 
230.982819 0.802557 
232.906204 0.050733 
237.816589 0.04688 
241.08606 0.160076 
242.056656 0.138128 
243.064484 0.078101 
247.622208 0.055981 
248.477753 0.061535 
252.949829 0.062134 
253.050003 0.138615 
253.084991 0.085613 
254.056946 0.200546 
255.06488 59.654442 
256.072632 4.388013 
257.044464 1.1223 
258.052094 8.036243 
258.314758 0.070959 
268.705475 0.051375 
269.135315 0.371242 
269.207672 0.142829 
269.97821 1.390601 
270.052124 0.524628 
270.074982 0.136003 
270.139496 0.067053 
270.222046 0.197682 
270.241882 0.054254 
270.279114 0.602717 
270.315247 0.934945 
270.957306 0.871504 
270.975342 0.886291 
271.059784 48.905682 
271.151489 2.189495 
271.187714 1.124188 
271.273376 0.066671 
271.957123 2.368207 
272.063812 8.898612 
272.239716 0.471569 
272.258148 5.39302 
272.294769 1.242535 
272.936798 0.610586 
272.954498 1.382866 
273.075623 24.381676 
273.13089 0.528906 
273.166748 7.807445 
275.68631 0.054161 
289.599304 0.071438 
289.859741 0.067799 
289.882721 0.071344 
289.96759 0.069771 
290.947327 0.47917 
END IONS

