BEGIN IONS
PEPMASS=423.0
CHARGE=1+
COMPOUNDNAME=Massbank:KO002472 Blasticidin S
LIBRARYQUALITY=3
SMILES=NC(=N)N(C)CC[C@@H](N)CC(=O)N[C@@H](C=2)[C@@H](C(O)=O)O[C@H](C2)N(C=1)C(=O)N=C(N)C1
INCHIKEY=CXNPLSGKWMLZPZ-QOBDMFJFSA-N
INCHI=1S/C17H26N8O5/c1-24(16(20)21)6-4-9(18)8-12(26)22-10-2-3-13(30-14(10)15(27)28)25-7-5-11(19)23-17(25)29/h2-3,5,7,9-10,13-14H,4,6,8,18H2,1H3,(H3,20,21)(H,22,26)(H,27,28)(H2,19,23,29)
MSLEVEL=2
SOURCE_INSTRUMENT=ESI-LC-ESI-QQ
FILENAME=Massbank_ESI_positive_8_1_2014_peaks.mgf
SEQ=*..*
IONMODE=Positive
ORGANISM=MASSBANK
NAME=Massbank:KO002472 Blasticidin S [M+H]+
PI=Putative Massbank Match
DATACOLLECTOR=Massbank
PUBMED=N/A
SUBMITUSER=mwang87
TAGS=
SPECTRUMID=CCMSLIB00000217439
SCANS=8274
43.8 34653.5 
55.8 24752.5 
68.8 14851.5 
72.4 9901.0 
74.0 638614.5 
77.1 29703.0 
79.9 79208.0 
81.0 1034654.5 
84.3 44554.5 
96.2 153465.5 
98.2 44554.5 
106.3 19802.0 
107.9 19802.0 
111.3 19802.0 
112.1 777228.5 
120.2 54455.5 
124.4 267327.0 
136.9 39604.0 
154.0 128713.0 
163.2 148515.0 
190.2 39604.0 
222.5 44554.5 
END IONS

