BEGIN IONS
PEPMASS=319.119
CHARGE=1+
COMPOUNDNAME=MYCOPHENOLIC ACID
LIBRARYQUALITY=3
SMILES=N/A
INCHIKEY=HPNSFSBZBAHARI-RUDMXATFSA-N
INCHI=InChI=1S/C17H20O6/c1-9(5-7-13(18)19)4-6-11-15(20)14-12(8-23-17(14)21)10(2)16(11)22-3/h4,20H,5-8H2,1-3H3,(H,18,19)/b9-4+
MSLEVEL=2
SOURCE_INSTRUMENT=N/A-ESI-QFT
FILENAME=library_mgf.mgf
SEQ=*..*
IONMODE=negative
ORGANISM=MONA
NAME=MYCOPHENOLIC ACID [M-H]-
PI=MoNA
DATACOLLECTOR=MoNA:VF-NPL-QEHF011295
PUBMED=N/A
SUBMITUSER=mwang87
TAGS=
SPECTRUMID=CCMSLIB00004702358
SCANS=11295
50.00972 0.086656 
50.049511 0.07658 
50.229198 0.070691 
50.962269 0.061738 
52.421967 0.089947 
52.74873 0.092772 
53.201778 0.077416 
53.238434 0.071615 
53.374439 0.083664 
53.591557 0.060867 
53.800369 0.077914 
54.308762 0.079123 
54.717106 0.085218 
54.788548 0.095693 
55.154591 0.079675 
55.844551 0.080894 
55.955975 0.072613 
56.496067 0.073673 
57.909565 0.078926 
58.196701 0.077844 
58.432793 0.06919 
58.677101 0.094969 
59.012451 2.159253 
59.042374 0.084087 
59.377548 0.077657 
60.192303 0.085294 
60.564278 0.085958 
61.483082 0.076022 
62.336113 0.062321 
62.414162 0.056511 
62.682468 0.091743 
62.870102 0.083064 
64.270653 0.06826 
65.271706 0.078216 
65.554291 0.08503 
66.478661 0.05668 
66.978401 0.086344 
67.01741 0.464147 
67.345795 0.054009 
68.319489 0.093002 
68.615257 0.092214 
68.657784 0.095748 
68.859215 0.084369 
68.895477 0.076318 
69.705597 0.074234 
69.7892 0.086191 
69.922691 0.082354 
69.955139 0.097561 
70.114799 0.093396 
70.559814 0.057471 
71.227005 0.099062 
71.542419 0.062192 
71.615623 0.067035 
73.028137 0.731323 
73.059967 0.086622 
73.678581 0.086162 
74.468788 0.086705 
75.581863 0.101444 
77.021805 0.063364 
77.532661 0.096332 
77.78952 0.105073 
78.565483 0.085732 
79.053963 0.476908 
79.07827 0.128102 
80.430122 0.107581 
81.033264 0.369349 
81.895004 0.082822 
87.319794 0.085958 
87.574524 0.102656 
87.999245 0.081609 
88.241829 0.084707 
88.389297 0.059766 
88.853714 0.083429 
89.903938 0.070528 
91.053894 1.312852 
91.327492 0.063328 
92.177864 0.086799 
93.033318 0.526759 
93.173927 0.090968 
94.318817 0.07804 
94.329071 0.079969 
95.048897 7.572453 
96.373779 0.10821 
96.517303 0.091085 
96.812752 0.083608 
99.249283 0.093024 
103.369911 0.082753 
104.750587 0.071833 
105.069641 0.846165 
105.514702 0.082435 
105.59446 0.08339 
107.048996 4.836431 
107.600502 0.071562 
108.052376 0.083345 
108.060837 0.080308 
108.929817 0.079815 
109.885742 0.082662 
110.860794 0.095257 
112.981216 0.087447 
117.069572 0.270675 
117.538071 0.066351 
118.978386 0.089405 
119.048973 8.941392 
120.056755 0.264448 
121.064651 2.124426 
123.571854 0.093461 
124.277031 0.07772 
125.646385 0.078922 
126.036865 0.086512 
126.599319 0.097584 
126.654533 0.087402 
127.644478 0.104898 
129.583252 0.066999 
130.505142 0.08513 
131.049042 0.307106 
133.064636 12.307986 
133.500443 0.082015 
134.036148 0.166869 
134.577835 0.085596 
135.044006 9.006986 
135.255783 0.087217 
135.429031 0.083627 
136.510788 0.095868 
138.410049 0.082475 
139.34314 0.096417 
139.460892 0.077752 
141.098572 0.081789 
145.768143 0.082346 
147.044037 7.528134 
147.059052 0.091636 
148.052048 1.516073 
149.023361 0.38956 
149.059769 2.374814 
149.956497 0.095129 
150.512314 0.10536 
151.039429 0.081296 
151.075241 0.094209 
151.486862 0.07839 
154.77594 0.086382 
157.064835 0.22972 
157.100464 0.11097 
158.036301 0.36203 
158.072983 0.378215 
158.368378 0.099719 
158.916351 0.092684 
159.044113 1.035221 
159.080475 0.30415 
160.052261 1.831141 
161.059738 17.701649 
161.09613 2.729663 
162.063217 0.941267 
163.039047 8.369371 
163.825607 0.081371 
164.047272 0.447009 
164.110672 0.092351 
164.681915 0.098545 
165.015289 0.085968 
167.370483 0.09645 
168.922913 0.080378 
171.080521 0.523701 
172.052292 0.232204 
172.088455 0.201718 
173.059906 21.413881 
173.096237 2.201689 
174.063004 0.570565 
174.741379 0.086004 
174.902298 0.098969 
175.039337 0.421897 
176.010574 0.863205 
176.366943 0.08381 
177.018448 4.51989 
177.041107 0.097852 
177.054855 4.170522 
178.026306 1.107492 
179.034149 5.125029 
180.485703 0.100558 
182.873413 0.085273 
183.080688 2.022863 
185.059875 0.74975 
186.067947 1.550274 
186.517715 0.109611 
187.075684 14.776269 
188.078903 0.293542 
189.090973 0.135112 
189.814972 0.088769 
190.984375 0.092683 
191.034225 100.0 
191.357697 0.085754 
192.038956 7.364723 
193.863144 0.098928 
194.805603 0.08527 
196.768631 0.098644 
197.096039 0.323352 
199.07576 1.558864 
199.11174 0.085805 
199.318863 0.078952 
199.996704 0.095575 
200.083359 0.837409 
200.696533 0.096154 
201.091385 11.767058 
202.094727 0.481327 
202.847107 0.090887 
203.034286 24.953789 
204.037827 2.254377 
205.049911 52.185993 
206.053513 5.849399 
207.655182 0.083009 
207.793915 0.092961 
213.09082 0.110526 
215.107346 2.946508 
216.042007 0.094409 
217.050079 0.157516 
217.086395 0.447257 
217.16275 0.101566 
219.97612 0.637067 
219.992157 0.787196 
227.07074 1.676758 
228.58252 0.07575 
229.050751 0.11238 
230.716782 0.103355 
231.065887 6.770898 
231.738434 0.091433 
232.070328 0.092536 
233.082123 0.133205 
233.274033 0.103683 
235.794098 0.100129 
238.728088 0.081513 
239.472214 0.096043 
239.731995 0.077313 
241.08783 0.092099 
244.563873 0.085387 
245.081757 12.796894 
245.09549 0.113759 
246.084808 0.777124 
246.662842 0.100851 
250.452454 0.090388 
253.229263 0.098794 
253.925339 0.102871 
259.619232 0.082144 
260.501648 0.099971 
262.674744 0.095462 
262.755615 0.098754 
277.488312 0.088633 
282.765808 0.11362 
284.685394 0.079877 
286.642609 0.086413 
291.799683 0.09034 
293.489838 0.092958 
296.10968 0.079875 
300.351105 0.066496 
317.216614 0.102659 
323.735565 0.099545 
338.318115 0.105173 
END IONS

