BEGIN IONS
PEPMASS=601.356
CHARGE=1+
COMPOUNDNAME=deferrioxamine E
LIBRARYQUALITY=3
SMILES=N/A
INCHIKEY=NHKCCADZVLTPPO-UHFFFAOYSA-N
INCHI=InChI=1S/C27H48N6O9/c34-22-10-14-26(38)32(41)20-8-3-6-18-30-24(36)12-15-27(39)33(42)21-9-2-5-17-29-23(35)11-13-25(37)31(40)19-7-1-4-16-28-22/h40-42H,1-21H2,(H,28,34)(H,29,35)(H,30,36)
MSLEVEL=2
SOURCE_INSTRUMENT=N/A-ESI-QFT
FILENAME=library_mgf.mgf
SEQ=*..*
IONMODE=positive
ORGANISM=MONA
NAME=deferrioxamine E [M+H]+
PI=MoNA
DATACOLLECTOR=MoNA:VF-NPL-QEHF004065
PUBMED=N/A
SUBMITUSER=mwang87
TAGS=
SPECTRUMID=CCMSLIB00004695128
SCANS=4065
50.448135 0.041907 
51.566521 0.021547 
51.970299 0.031519 
52.158276 0.037501 
52.229969 0.035588 
52.537315 0.036406 
52.713406 0.036901 
52.830124 0.033773 
53.043938 0.042423 
53.462723 0.035034 
53.490871 0.036459 
53.899605 0.0318 
54.02264 0.01882 
54.136658 0.032237 
54.266926 0.03441 
54.298409 0.026528 
54.690716 0.027357 
54.894306 0.034907 
55.018646 4.06612 
55.0448 0.02264 
55.053635 0.055902 
55.055023 4.408653 
55.117687 0.028468 
55.433456 0.038276 
55.808491 0.033555 
56.050282 12.392336 
56.051773 0.063577 
56.541199 0.025902 
57.070637 0.041787 
57.260403 0.026308 
57.288799 0.034324 
57.550346 0.037379 
57.632401 0.030486 
57.768944 0.043913 
57.833954 0.028326 
57.885197 0.019198 
57.971786 0.043865 
58.065941 0.622378 
58.136452 0.033801 
58.22464 0.029292 
58.293903 0.058888 
58.491741 0.029469 
58.794861 0.029322 
59.00354 0.020686 
59.970505 0.027332 
60.110504 0.03664 
60.566769 0.030766 
61.686672 0.039097 
61.812771 0.033894 
62.258381 0.042342 
62.405247 0.027248 
62.712894 0.030074 
63.00272 0.034315 
63.078739 0.046129 
63.106426 0.034604 
63.160992 0.045079 
63.254086 0.021728 
63.521069 0.036934 
63.625629 0.04517 
63.797043 0.034506 
64.113037 0.02212 
64.186508 0.028237 
65.039337 0.226335 
65.969475 0.034908 
66.301483 0.032595 
66.989952 0.035796 
67.054962 6.458071 
67.086121 0.027679 
67.565704 0.038253 
67.758141 0.031456 
67.808823 0.038049 
68.058403 0.063042 
68.218369 0.0307 
68.419418 0.034311 
68.606308 0.034887 
69.034233 0.025601 
69.070618 10.561281 
69.789085 0.036694 
70.029427 0.126502 
70.065842 4.621642 
70.236908 0.026019 
70.548096 0.03647 
70.712227 0.022127 
70.750504 0.03059 
71.433617 0.042307 
71.436623 0.034614 
72.04512 7.161347 
72.081482 0.307992 
72.317642 0.034763 
73.029114 2.03228 
73.040237 0.03538 
74.345497 0.030571 
75.145416 0.032748 
75.478279 0.026453 
76.168266 0.025554 
78.134056 0.027047 
79.339386 0.029927 
79.741081 0.03631 
80.050102 1.254205 
82.029404 0.745332 
82.065788 3.855564 
82.46212 0.040258 
82.702667 0.0389 
83.017372 0.028285 
83.026749 0.033677 
83.219872 0.049143 
83.223495 0.061256 
83.781174 0.037886 
84.045021 11.595992 
84.081383 100.0 
84.838242 0.030189 
84.917465 0.021467 
85.078629 0.039502 
85.084953 4.373383 
85.089195 36.168018 
85.172638 0.040359 
85.913757 0.039164 
86.092506 1.476806 
86.097046 4.08833 
87.160118 0.030188 
87.522476 0.019944 
87.529793 0.036794 
88.039986 0.09684 
88.161194 0.036653 
88.644951 0.041653 
88.770142 0.036351 
90.027641 0.03452 
90.210556 0.04001 
90.412521 0.039156 
90.755409 0.03566 
91.222778 0.020799 
92.393127 0.032353 
92.762215 0.032857 
92.85363 0.029544 
93.07058 0.04766 
93.783775 0.036435 
94.065407 0.047541 
96.081383 0.276654 
96.161858 0.029335 
98.096931 0.338164 
98.216911 0.030373 
98.399452 0.043136 
98.944168 0.04482 
99.671555 0.047247 
100.039772 43.57225 
100.076195 2.629982 
100.679962 0.033661 
101.023781 1.66615 
101.04319 1.35499 
101.104401 0.040291 
101.541504 0.038474 
101.791237 0.041794 
102.091797 64.921791 
102.430389 0.035763 
103.054939 0.041111 
103.095154 2.617454 
103.295799 0.043978 
104.143784 0.032963 
104.179314 0.048011 
104.485863 0.037208 
105.045547 0.023759 
105.867577 0.028904 
106.874962 0.024986 
106.892197 0.035967 
107.983902 0.020793 
108.016243 0.039849 
109.6754 0.033925 
110.023712 0.113777 
110.060432 1.471938 
110.096748 2.324807 
110.318977 0.035101 
110.671783 0.048188 
111.091949 0.807971 
111.241592 0.029543 
111.890831 0.040146 
112.03965 8.293097 
112.076073 0.867694 
112.112427 0.129402 
113.043518 0.028482 
114.033539 0.041224 
114.105789 0.039241 
115.050438 0.152783 
115.302536 0.038181 
116.034592 2.255776 
116.883118 0.046725 
117.2174 0.042373 
118.376656 0.036352 
120.081055 4.595276 
120.949226 0.041208 
121.088959 0.042128 
121.593643 0.044642 
122.096718 1.493137 
122.843323 0.020273 
123.20649 0.035458 
124.075958 0.097267 
124.352036 0.033719 
124.906364 0.026149 
125.967674 0.026615 
126.195381 0.042853 
127.050453 0.045654 
128.03447 0.418158 
128.834137 0.041671 
129.609467 0.036926 
130.049973 0.378186 
130.670532 0.03179 
135.662613 0.030061 
136.703064 0.040737 
137.107376 5.636556 
137.574432 0.036925 
138.091431 8.611134 
138.110825 0.043365 
138.482574 0.050516 
139.094543 0.021853 
140.070679 1.398496 
140.107071 0.388271 
142.086166 0.094647 
144.015671 0.038905 
144.101822 0.07292 
145.113235 0.035435 
146.161545 0.0362 
146.439865 0.020013 
147.494949 0.044003 
148.075851 0.40152 
148.594482 0.034084 
150.989334 0.027541 
151.509338 0.030736 
151.546463 0.037113 
152.936401 0.041348 
154.086472 1.037518 
155.117615 0.046806 
155.897507 0.034324 
156.094986 0.036529 
156.102066 0.666677 
157.850098 0.020866 
158.857101 0.037939 
159.649139 0.043872 
159.696289 0.03843 
160.183884 0.041247 
160.233231 0.040976 
162.300598 0.038459 
165.102448 2.85381 
165.455307 0.031907 
165.861526 0.041028 
166.086441 1.074906 
168.102081 1.655299 
168.425613 0.033092 
168.777161 0.040953 
169.4879 0.041033 
174.926575 0.025481 
175.999863 0.042262 
176.610611 0.029668 
177.123413 0.042543 
183.113037 1.964031 
184.096985 2.945415 
188.081985 0.041172 
189.857269 0.044693 
191.757278 0.028928 
192.534164 0.039067 
193.796799 0.027284 
194.050995 0.041872 
194.166672 0.023479 
201.123627 0.876788 
202.416168 0.025187 
205.380325 0.039893 
205.446259 0.040398 
205.817047 0.034067 
210.681915 0.046728 
211.977936 0.037138 
212.303009 0.042118 
218.939545 0.049469 
220.007309 0.121727 
220.024582 0.215601 
220.037979 0.338289 
220.059647 0.095319 
222.293625 0.031023 
231.429367 0.034105 
238.56955 0.039101 
242.475113 0.043391 
242.572327 0.025475 
243.380814 0.029188 
246.895493 0.035062 
264.360931 0.027035 
265.909454 0.039078 
268.27417 0.041381 
268.342896 0.02354 
268.649475 0.032698 
272.658386 0.040674 
275.001007 0.039009 
277.712219 0.033837 
284.888031 0.041035 
285.739075 0.028791 
293.743256 0.042299 
294.06546 0.039442 
294.620209 0.023342 
303.241882 0.03007 
305.277893 0.041466 
306.281738 0.025525 
307.96524 0.023381 
312.421814 0.030291 
320.95343 0.034917 
321.262085 0.028667 
322.959747 0.04274 
323.072968 0.034748 
327.797791 0.039631 
333.779846 0.032596 
343.240814 0.038753 
346.814087 0.027341 
353.849365 0.0339 
359.152069 0.03208 
367.220551 0.042657 
374.641327 0.038189 
384.082123 0.042708 
395.286774 0.028632 
403.456818 0.030532 
420.689087 0.042482 
450.98526 0.056898 
468.951294 0.036936 
485.142883 0.043473 
497.999512 0.039203 
499.704071 0.030209 
506.633575 0.045802 
512.155945 0.036175 
518.466064 0.043265 
523.962402 0.038454 
530.565918 0.038581 
561.688232 0.039559 
563.436096 0.043441 
563.541748 0.037471 
595.270935 0.046892 
605.947083 0.032258 
609.939331 0.047874 
610.354004 0.043996 
625.090454 0.034238 
628.128357 0.036969 
630.840088 0.044966 
END IONS

