BEGIN IONS
PEPMASS=295.0
CHARGE=1+
COMPOUNDNAME=MoNA:2466578 Blasticidin S
LIBRARYQUALITY=3
SMILES=N/A
INCHIKEY=CXNPLSGKWMLZPZ-UHFFFAOYSA-N
INCHI=InChI=1S/C17H26N8O5/c1-24(16(20)21)6-4-9(18)8-12(26)22-10-2-3-13(30-14(10)15(27)28)25-7-5-11(19)23-17(25)29/h2-3,5,7,9-10,13-14H,4,6,8,18H2,1H3,(H3,20,21)(H,22,26)(H,27,28)(H2,19,23,29)
MSLEVEL=2
SOURCE_INSTRUMENT=LC-ESI-IT-LC-ESI-IT
FILENAME=output_mgf.mgf
SEQ=*..*
IONMODE=
ORGANISM=MONA
NAME=MoNA:2466578 Blasticidin S [M+H]+
PI=MoNA
DATACOLLECTOR=MoNA
PUBMED=N/A
SUBMITUSER=mwang87
TAGS=
SPECTRUMID=CCMSLIB00000567314
SCANS=4565
81.1 0.345536 
94.1 0.427547 
96.2 0.51065 
97.9 1.221406 
105.8 0.665923 
111.1 0.227442 
112.1 88.707737 
112.8 1.265145 
119.9 0.254778 
122.0 0.336789 
124.0 9.676114 
151.9 0.273367 
153.0 0.801513 
154.1 100.0 
165.9 0.227442 
171.1 2.013078 
172.1 32.926563 
187.0 0.536894 
193.9 0.418799 
204.1 1.530858 
205.8 0.483314 
207.1 0.537987 
215.0 0.309452 
221.1 1.531951 
222.0 33.846171 
223.2 0.719503 
233.1 16.216157 
251.1 14.632813 
261.0 0.364125 
277.0 13.439837 
277.9 0.145431 
294.1 1.794384 
295.1 2.83318 
END IONS

