BEGIN IONS
PEPMASS=873.499
CHARGE=1+
COMPOUNDNAME=Pesticide4_Avermectin B1b_C48H72O14_(1'R,2S,4'S,5S,6R,8'R,10'E,12'S,13'S,14'E,16'E,20'R,21'R,24'S)-6-[(2S)-2-Butanyl]-21',24'-dihydroxy-5,11',13',22'-tetramethyl-2'-oxo-5,6-dihydrospiro[pyran-2,6'-[3,7,19]trioxatetracyclo[15.6.1.1~4,8~.0~20,24~]pentacosa[10,14,16,22]tetraen]-12'-yl 2,6-dideoxy-4-O-(2,6-dideoxy-3-O-methyl-alpha-L-arabino-hexopyranosyl)-3-O-methyl-alpha-L-arabino-hexopyranoside
LIBRARYQUALITY=1
SMILES=CCC(C)C1C(C=CC2(O1)CC3CC(O2)CC=C(C(C(C=CC=C4COC5C4(C(C=C(C5O)C)C(=O)O3)O)C)OC6CC(C(C(O6)C)OC7CC(C(C(O7)C)O)OC)OC)C)C
INCHIKEY=RRZXIRBKKLTSOM-XPNPUAGNSA-N
INCHI=InChI=1S/C48H72O14/c1-11-25(2)43-28(5)17-18-47(62-43)23-34-20-33(61-47)16-15-27(4)42(26(3)13-12-14-32-24-55-45-40(49)29(6)19-35(46(51)58-34)48(32,45)52)59-39-22-37(54-10)44(31(8)57-39)60-38-21-36(53-9)41(50)30(7)56-38/h12-15,17-19,25-26,28,30-31,33-45,49-50,52H,11,16,20-24H2,1-10H3/b13-12+,27-15+,32-14+/t25-,26-,28-,30-,31-,33+,34-,35-,36-,37-,38-,39-,40+,41-,42-,43+,44-,45+,47+,48+/m0/s1
MSLEVEL=2
SOURCE_INSTRUMENT=-Q-Exactive Plus Orbitrap Res 70k
FILENAME=Pesticide_Mix4_pos.mzXML
SEQ=*..*
IONMODE=positive
ORGANISM=GNPS-COLLECTIONS-PESTICIDES-POSITIVE
NAME=Pesticide4_Avermectin B1b_C48H72O14_(1'R,2S,4'S,5S,6R,8'R,10'E,12'S,13'S,14'E,16'E,20'R,21'R,24'S)-6-[(2S)-2-Butanyl]-21',24'-dihydroxy-5,11',13',22'-tetramethyl-2'-oxo-5,6-dihydrospiro[pyran-2,6'-[3,7,19]trioxatetracyclo[15.6.1.1~4,8~.0~20,24~]pentacosa[10,14,16,22]tetraen]-12'-yl 2,6-dideoxy-4-O-(2,6-dideoxy-3-O-methyl-alpha-L-arabino-hexopyranosyl)-3-O-methyl-alpha-L-arabino-hexopyranoside M+H
PI=Dorrestein/Touboul
DATACOLLECTOR=lfnothias
PUBMED=n/a
SUBMITUSER=mwang87
TAGS=
SPECTRUMID=CCMSLIB00001058618
SCANS=2993
70.073555 655.668335 
71.013191 1096.049683 
71.049538 24801.123047 
71.086044 1334.764893 
73.065155 32429.408203 
74.096809 3032.141602 
75.044449 891.301025 
77.060181 832.562195 
78.507599 750.072815 
79.054634 46610.535156 
79.958542 1151.885986 
80.344635 670.736206 
81.033913 5639.567871 
81.070198 112259.046875 
83.049377 11804.518555 
83.085823 4609.876465 
84.088478 744.167419 
85.028664 45480.71875 
85.065117 36105.027344 
85.101578 996.66156 
87.044304 36949.707031 
89.776443 634.695862 
91.054489 17715.658203 
93.070084 42819.136719 
94.270035 657.530273 
95.013222 786.47699 
95.049271 377919.03125 
95.085747 23625.908203 
97.028587 3714.473877 
97.065102 111093.992188 
97.101402 6235.976562 
99.080582 5666.942871 
100.303528 622.90332 
101.059875 12171.78125 
101.565018 643.037231 
103.054527 771.085693 
104.058838 658.233215 
104.398727 745.265869 
105.070076 30920.070312 
105.932678 695.446228 
107.049316 14707.188477 
107.085823 29025.164062 
109.065079 59261.570312 
109.101555 59018.394531 
111.044418 24377.068359 
111.080803 5063.347656 
113.059891 414310.71875 
113.125191 742.228027 
115.054367 2279.075439 
115.075737 707.108765 
117.07016 9133.369141 
119.049568 4872.475586 
119.085876 30526.597656 
121.064926 16981.285156 
121.101555 42403.199219 
121.10376 1042.539429 
123.044357 4695.097168 
123.080719 26200.367188 
123.116989 69813.1875 
125.060028 5096.710449 
125.202469 622.974426 
127.075638 57857.78125 
128.062469 5916.641602 
128.274994 599.211304 
129.070023 8751.695312 
131.04953 663.601562 
131.085815 16911.1875 
132.728622 666.521851 
133.065048 12254.96582 
133.101456 17750.078125 
135.044357 7306.405762 
135.080917 9679.724609 
135.084213 643.856628 
135.116974 14965.847656 
137.059906 3565.487549 
137.096497 11486.725586 
137.132614 1178.057861 
139.075714 2579.888184 
139.599518 799.29541 
141.054825 746.686157 
141.070328 2870.556641 
141.322968 716.268188 
142.078217 4175.915527 
143.070908 6990.588379 
143.085922 27531.230469 
144.093704 842.403748 
145.064972 12203.90918 
145.08609 279184.40625 
145.101425 28923.724609 
147.044693 679.423584 
147.080673 17808.298828 
147.117096 6817.056641 
149.060349 5622.812988 
149.096466 5530.042969 
149.133133 2535.018066 
151.039352 1697.217896 
151.075897 7919.007324 
151.11203 39611.378906 
153.055069 7738.252441 
153.070328 826.672668 
153.091431 1178.138794 
153.127884 19711.693359 
154.078079 1298.506958 
155.085678 5185.492676 
156.09375 4765.86084 
157.086212 853.475647 
157.101685 12458.868164 
158.073135 3870.483887 
159.044647 790.289551 
159.08075 10312.695312 
159.117477 13899.720703 
161.06012 5511.027344 
161.081146 884.36499 
161.09668 9479.240234 
161.133026 3270.786133 
163.075577 5257.528809 
163.112045 3619.217285 
165.054855 748.594727 
165.07045 2630.897705 
165.091522 11439.674805 
165.127792 1374.798462 
166.07785 3787.741211 
167.0858 3075.234375 
168.093643 1466.231323 
169.050156 1033.918823 
169.101776 13160.947266 
171.080688 11860.413086 
171.117279 24338.890625 
173.059998 2685.356445 
173.096741 9777.55957 
173.132904 6415.278809 
175.076019 1328.577393 
175.112274 2931.95166 
175.14859 6757.793457 
177.054993 5270.772461 
177.091705 1007.572815 
179.085556 3511.231934 
179.107071 5585.168945 
179.143539 4152.658691 
181.0867 1331.038086 
181.101761 6888.455566 
182.07312 1532.988525 
183.081085 2644.484619 
183.102127 8072.79248 
183.117493 5745.043945 
185.060165 1213.091919 
185.096588 3789.857666 
185.133026 3610.145264 
187.075775 3516.302979 
187.112198 11802.823242 
187.148605 1146.07666 
189.054962 6919.125488 
189.091309 7965.228027 
189.127563 4124.495117 
191.070435 1094.758423 
191.10675 1321.681152 
192.094131 985.474915 
193.122971 840.467407 
193.159256 107583.242188 
195.080704 1524.317749 
195.101379 983.690247 
195.116898 2669.926758 
196.088669 812.739319 
197.059845 870.775635 
197.096603 17659.287109 
197.132675 1493.803223 
199.075897 4163.035156 
199.111877 28948.751953 
199.148514 867.91272 
200.11972 946.452942 
201.054764 735.063721 
201.091949 1008.155945 
201.127792 4573.373535 
203.070831 769.335693 
203.143723 3279.651611 
205.086166 906.4646 
206.109604 1137.330078 
207.101883 9510.869141 
207.117371 964.827759 
209.096436 1423.367065 
209.133011 2751.463135 
209.795807 750.958801 
210.104553 945.960754 
211.075623 1364.218384 
211.112 3282.519043 
211.148361 1403.753906 
213.091171 996.965088 
213.128067 990.453186 
215.070633 1500.994629 
215.107468 23590.75 
215.143356 1313.536011 
217.122803 9942.988281 
219.13855 5296.067871 
221.118286 2876.142578 
221.133087 2777.732178 
221.154068 5358.430176 
223.075745 1066.423706 
223.112091 1392.410278 
225.091354 9768.953125 
225.1129 7417.563477 
225.164246 2680.724854 
227.10759 6811.13916 
227.143341 952.120605 
229.122253 1240.52124 
229.159256 939.078125 
231.174698 1270.736206 
233.118057 1578.716919 
233.133255 2412.887207 
235.112534 1384.06311 
235.148438 1091.048462 
237.091156 999.235657 
237.128387 4074.605957 
237.163895 1425.221558 
239.107132 774.73822 
239.128128 9189.493164 
239.143951 3143.35791 
241.159576 1329.23584 
243.101715 12380.164062 
245.117752 102197.875 
247.111862 2686.977783 
247.148712 1578.368408 
249.127625 2556.5354 
251.143585 3463.802979 
251.179459 1040.605835 
253.086731 1019.39801 
253.159302 893.395325 
255.137512 1003.420044 
257.138031 2367.959717 
257.80127 787.122803 
259.111633 1011.891357 
259.327393 828.997803 
261.112244 19493.863281 
261.127167 1649.806274 
263.142975 1174.772461 
265.121857 1121.735596 
265.158691 2861.003418 
267.138641 2529.333252 
269.153412 757.718567 
269.190063 1281.925049 
270.124603 708.749451 
271.205872 3291.163574 
275.143646 3425.507324 
277.107483 932.835571 
277.122803 923.141846 
277.158905 1696.164307 
281.11792 1164.712524 
283.132721 2965.699951 
285.127014 1010.270874 
286.135498 843.287109 
287.201263 16603.261719 
288.208069 37804.371094 
289.18045 1061.238403 
289.216553 12287.915039 
293.154388 5808.614746 
295.132812 3631.439453 
295.168884 1396.196777 
296.207001 774.825623 
299.12854 988.323181 
300.972321 794.966858 
303.138367 1567.984741 
305.211578 10100.00293 
307.226807 4341.350098 
311.164093 2874.382812 
319.170929 741.350342 
321.148682 6690.068848 
329.027588 772.173584 
333.184998 737.873718 
337.238068 931.947754 
339.160278 9321.932617 
357.170563 10746.958008 
361.180237 889.899902 
363.197235 851.619934 
368.349487 869.366272 
369.108368 783.612122 
387.180817 882.422668 
399.196289 931.09198 
401.233459 4714.450684 
401.269684 978.193054 
433.25354 799.379333 
433.332672 2915.282227 
447.34726 75621.804688 
448.351715 22639.900391 
449.355316 4010.182129 
461.363556 1150.620361 
497.109406 799.555237 
513.300842 768.675964 
531.311401 2601.537598 
533.326782 1118.757446 
549.32074 1325.21521 
552.50354 835.896973 
567.334717 4472.617676 
607.028748 778.268127 
717.408691 801.877869 
724.126343 917.918762 
816.874084 843.482727 
902.496277 873.797363 
END IONS

