BEGIN IONS
PEPMASS=180.0
CHARGE=1+
COMPOUNDNAME=Massbank:KO002887 Butyl pyridine-2-carboxylate|2-Pyridinecarboxylic acid, butyl ester|Butyl 2-pyridinecarboxylate|Fusaric acid
LIBRARYQUALITY=3
SMILES=CCCCc(c1)cnc(c1)C(O)=O
INCHIKEY=DGMPVYSXXIOGJY-UHFFFAOYSA-N
INCHI=1S/C10H13NO2/c1-2-3-4-8-5-6-9(10(12)13)11-7-8/h5-7H,2-4H2,1H3,(H,12,13)
MSLEVEL=2
SOURCE_INSTRUMENT=ESI-LC-ESI-QQ
FILENAME=Massbank_ESI_positive_8_1_2014_peaks.mgf
SEQ=*..*
IONMODE=Positive
ORGANISM=MASSBANK
NAME=Massbank:KO002887 Butyl pyridine-2-carboxylate|2-Pyridinecarboxylic acid, butyl ester|Butyl 2-pyridinecarboxylate|Fusaric acid [M+H]+
PI=Putative Massbank Match
DATACOLLECTOR=Massbank
PUBMED=N/A
SUBMITUSER=mwang87
TAGS=
SPECTRUMID=CCMSLIB00000218280
SCANS=8689
29.1 103960.5 
39.2 103960.5 
41.2 2792082.0 
43.0 59406.0 
44.9 1103961.5 
51.2 59406.0 
55.3 207921.0 
57.2 2737626.5 
68.1 49505.0 
70.2 148515.0 
74.1 391089.5 
77.1 64356.5 
78.0 79539683.5 
79.0 74257.5 
79.9 460396.5 
84.0 321782.5 
87.8 39604.0 
89.3 29703.0 
91.2 69307.0 
96.1 18455464.0 
97.9 34653.5 
105.1 44554.5 
106.0 4193073.5 
111.3 24752.5 
115.0 29703.0 
117.2 39604.0 
124.0 792080.0 
131.3 34653.5 
137.0 19802.0 
148.1 9901.0 
END IONS

