BEGIN IONS
TITLE=Scan Number: 1
PEPMASS=347.14999
CHARGE=1+
COMPOUNDNAME=Abyssomicin C
LIBRARYQUALITY=1
SMILES=C[C@@H]1C[C@@]2(O3)C(/C=C/C([C@@H](C)C4)=O)[C@@H](O)[C@@H]1OC2=C(C([C@@H]4C)=O)C3=O
INCHIKEY=FNEADFUPWHAVTA-CQKLCUKKSA-N
INCHI=N/A
MSLEVEL=2
SOURCE_INSTRUMENT=DI-ESI-qTof
FILENAME=aby_C.mzXML
SEQ=*..*
NOTES=
IONMODE=Positive
ORGANISM=GNPS-LIBRARY
NAME=Abyssomicin C M+H
SPECTRUMID=CCMSLIB00000006865
ACTIVATION=CID
INSTRUMENT=ion trap
SCANS=1
105.065788 2998.27002 
107.03727 1544.153809 
109.008568 2142.106201 
111.016144 4002.569336 
113.079056 820.546448 
114.98645 2547.844727 
116.184822 106.786545 
116.998466 5008.279297 
119.007988 5823.107422 
121.042343 6975.029297 
121.951263 334.380798 
123.046577 8944.557617 
124.919876 353.942719 
126.957504 230.932816 
128.075043 822.854065 
129.026581 907.100464 
131.085251 1249.590332 
133.081268 1672.095825 
135.054962 5807.52832 
136.984787 783.095825 
139.099716 2871.549805 
141.085434 37353.398438 
142.100067 301.824524 
143.030273 4655.652832 
143.977631 231.952698 
144.967804 28659.105469 
147.03067 5083.463867 
149.073898 52997.976562 
151.08197 3668.541504 
153.148682 447.908813 
155.054886 2518.855957 
156.03006 80.975426 
157.057144 6263.557129 
159.090042 8545.357422 
161.054321 29937.117188 
163.118683 4349.52002 
165.050705 3568.685059 
167.093613 25095.197266 
169.110321 16658.089844 
171.038803 138186.0 
172.020218 257.56366 
173.078354 23780.332031 
174.020508 69.252022 
175.149048 10734.34082 
177.127182 32380.839844 
179.084961 3059.885986 
181.142731 6595.068359 
183.127457 10786.146484 
185.146927 18408.769531 
187.073929 33582.085938 
189.115814 39292.707031 
191.122696 19734.597656 
191.911469 89.752739 
193.154312 17432.384766 
194.037735 165.09903 
195.136353 9188.892578 
197.117081 38304.789062 
198.104309 70.392067 
199.125931 20588.509766 
201.06076 125487.085938 
203.065018 96851.46875 
203.935852 265.107819 
205.075104 4333.317383 
206.323746 2763.152344 
207.096283 8499.383789 
208.095413 108.541138 
209.118835 46715.652344 
210.109863 756.751038 
211.117157 56013.210938 
213.134613 62675.507812 
215.127274 40299.660156 
217.023849 34656.441406 
219.122162 31157.943359 
221.167419 51837.429688 
223.109192 77013.609375 
225.16539 202303.15625 
226.215302 3794.476074 
227.066101 53365.839844 
229.107117 30575.957031 
229.988739 426.547485 
231.149445 25006.667969 
233.060333 15907.84375 
234.159637 1751.173828 
235.088593 8168.314453 
237.074753 135107.46875 
239.171341 165867.078125 
241.12793 364067.15625 
241.988419 432.446228 
243.138214 53904.71875 
245.162186 34052.507812 
247.15834 20686.029297 
249.164001 55771.816406 
250.057037 1322.056641 
251.146835 10117.388672 
253.038483 76774.820312 
255.117371 222172.546875 
257.149506 134812.171875 
257.77182 109.309731 
259.164032 66294.265625 
261.130798 12874.425781 
263.124725 9839.380859 
265.091278 242011.15625 
267.12262 1121895.125 
267.965942 350.86911 
269.069733 52440.777344 
271.086578 326615.25 
273.179504 135487.703125 
274.437775 355.014954 
275.092804 22599.289062 
277.108612 4132.54248 
278.167816 767.874329 
279.513031 341.210297 
281.142975 4187.526367 
283.093231 845827.0625 
285.0979 547478.75 
287.114532 26201.617188 
288.272278 280.463409 
289.149719 371.72467 
291.132263 53819.582031 
293.091492 324218.46875 
293.790802 100.62233 
296.189514 78.946213 
299.127502 6154.14502 
301.093933 1268199.25 
302.016052 197.082001 
303.173309 38691.535156 
304.119965 229.817062 
305.138123 650.150757 
311.060852 1194833.75 
312.192017 229.617996 
315.296021 130.415527 
317.019958 64.216278 
317.998169 149.593674 
319.189392 19024.615234 
320.305603 144.701157 
329.057831 825634.9375 
330.064636 75.67012 
333.755127 516.576477 
346.906189 827.11853 
441.59259 125.937454 
END IONS

