BEGIN IONS
PEPMASS=908.477
CHARGE=1+
COMPOUNDNAME=MoNA:749152 Microcystin-LA
LIBRARYQUALITY=3
SMILES=N/A
INCHIKEY=DIAQQISRBBDJIM-DRSCAGMXSA-N
INCHI=InChI=1S/C46H67N7O12/c1-24(2)21-35-44(60)52-38(46(63)64)28(6)40(56)47-29(7)41(57)49-33(18-17-25(3)22-26(4)36(65-11)23-32-15-13-12-14-16-32)27(5)39(55)50-34(45(61)62)19-20-37(54)53(10)31(9)43(59)48-30(8)42(58)51-35/h12-18,22,24,26-30,33-36,38H,9,19-21,23H2,1-8,10-11H3,(H,47,56)(H,48,59)(H,49,57)(H,50,55)(H,51,58)(H,52,60)(H,61,62)(H,63,64)/b18-17+,25-22+/t26-,27-,28-,29-,30+,33-,34+,35-,36-,38+/m0/s1
MSLEVEL=2
SOURCE_INSTRUMENT=LC-ESI-QFT-LC-ESI-QFT
FILENAME=output_mgf.mgf
SEQ=*..*
IONMODE=
ORGANISM=MONA
NAME=MoNA:749152 Microcystin-LA [M-H]-
PI=MoNA
DATACOLLECTOR=MoNA
PUBMED=N/A
SUBMITUSER=mwang87
TAGS=
SPECTRUMID=CCMSLIB00000566464
SCANS=3716
72.0455 0.439111 
73.0295 0.596072 
74.0248 0.757804 
82.0298 0.550221 
84.0455 1.418616 
86.0249 0.266696 
87.0564 0.633594 
88.0404 0.545038 
96.0455 0.304695 
97.0408 0.590133 
98.0247 0.393294 
98.0611 0.544233 
99.0564 1.746799 
100.004 0.416545 
100.0404 1.847421 
109.0407 0.121688 
110.0248 1.792177 
110.0611 0.138775 
111.0089 0.105903 
111.0564 0.448314 
112.0404 1.181221 
113.0357 1.901136 
122.061 0.114359 
123.0327 0.126751 
123.0564 1.134089 
124.0403 4.824898 
125.0246 0.243022 
125.0357 0.127226 
125.0721 0.844272 
127.0513 1.484109 
127.0878 0.379762 
128.0353 100.0 
129.0387 1.535391 
129.0669 0.347611 
129.1033 2.319524 
130.0508 0.754872 
130.0872 0.776546 
131.0866 0.954305 
135.0563 0.223038 
136.0406 0.123683 
137.072 1.7915 
138.056 1.956594 
139.0514 0.219268 
139.0876 1.405636 
140.0718 0.769233 
141.0671 0.319658 
142.0509 0.463372 
143.0824 0.126713 
145.0616 0.218972 
149.0719 0.118917 
150.0557 0.339029 
151.0875 0.101574 
152.0716 0.114348 
153.0668 3.893707 
155.0825 2.288677 
163.0511 0.710584 
164.0352 0.127384 
165.0669 0.520108 
165.1032 2.265135 
166.0872 0.278521 
167.0825 1.064659 
167.1188 0.105566 
170.0935 1.244421 
171.0773 0.580256 
171.1127 0.44411 
177.0667 0.217161 
177.1031 0.13752 
179.119 0.305704 
180.078 0.340888 
180.1029 0.264049 
180.1142 0.393109 
181.0618 3.308995 
182.0462 0.361317 
182.1297 0.904041 
183.0774 0.127513 
183.1137 0.387861 
184.0615 1.315799 
185.1295 0.105735 
195.1139 0.214101 
198.0881 0.417501 
198.1246 0.364439 
200.1404 2.635213 
205.0982 0.230301 
211.0725 0.535261 
212.1401 0.505159 
226.1198 0.381371 
END IONS

