BEGIN IONS
PEPMASS=130.6
CHARGE=1+
COMPOUNDNAME=ReSpect:PS078101 Itaconic acid|Itaconate|Methylenesuccinic acid|Methylenebutanedioic acid|2-Propene-1,2-dicarboxylic acid|3-Carboxy-3-butenoic Acid|Propylenedicarboxylic acid
LIBRARYQUALITY=3
SMILES=C=C(CC(=O)O)C(=O)O
INCHIKEY=LVHBHZANLOWSRM-UHFFFAOYSA-N
INCHI=N/A
MSLEVEL=2
SOURCE_INSTRUMENT=ESI-Flow-injection QqQ/MS
FILENAME=respect_8_1_2014_GNPS_peaks.mgf
SEQ=*..*
IONMODE=Positive
ORGANISM=RESPECT
NAME=ReSpect:PS078101 Itaconic acid|Itaconate|Methylenesuccinic acid|Methylenebutanedioic acid|2-Propene-1,2-dicarboxylic acid|3-Carboxy-3-butenoic Acid|Propylenedicarboxylic acid [M+H]
PI=Putative ReSpect Match
DATACOLLECTOR=ReSpect
PUBMED=N/A
SUBMITUSER=mwang87
TAGS=
SPECTRUMID=CCMSLIB00000217441
SCANS=4412
89.0 999.0 
90.0 117.0 
110.0 49.0 
END IONS

