BEGIN IONS
PEPMASS=305.115
CHARGE=1+
COMPOUNDNAME=(1S,8R,9R)-8-hydroxy-4-(propan-2-ylidene)-10-oxatricyclo[7.2.1.01,5]dodecane-8-carboxylic acid
LIBRARYQUALITY=3
SMILES=N/A
INCHIKEY=IOYVXXQKVQKQIG-ZJPTYJIISA-N
INCHI=InChI=1S/C15H22O4/c1-9(2)10-3-5-14-7-12(19-8-14)15(18,13(16)17)6-4-11(10)14/h11-12,18H,3-8H2,1-2H3,(H,16,17)/t11?,12-,14-,15-/m1/s1
MSLEVEL=2
SOURCE_INSTRUMENT=N/A-ESI-QFT
FILENAME=library_mgf.mgf
SEQ=*..*
IONMODE=positive
ORGANISM=MONA
NAME=(1S,8R,9R)-8-hydroxy-4-(propan-2-ylidene)-10-oxatricyclo[7.2.1.01,5]dodecane-8-carboxylic acid [M+K]+
PI=MoNA
DATACOLLECTOR=MoNA:VF-NPL-QEHF021466
PUBMED=N/A
SUBMITUSER=mwang87
TAGS=
SPECTRUMID=CCMSLIB00004712529
SCANS=21466
52.031502 0.006454 
52.800747 0.010716 
52.923286 0.006689 
53.00259 0.009184 
53.039005 0.162588 
53.528748 0.009479 
53.793579 0.00558 
54.624435 0.01122 
55.018219 0.20683 
55.054554 0.642866 
55.094547 0.00474 
55.215343 0.010133 
55.934711 0.005822 
56.965134 0.018764 
57.033806 0.236025 
57.070198 1.48499 
57.765182 0.007017 
58.065437 0.323978 
58.07346 0.015714 
59.013298 0.00888 
59.030228 0.006986 
59.04945 0.543411 
59.153122 0.009446 
59.711224 0.007209 
60.044727 0.0146 
60.166782 0.009143 
60.894695 0.010491 
61.010891 0.565819 
61.367916 0.006073 
61.745163 0.00836 
64.185173 0.010688 
64.345451 0.006675 
64.499146 0.005355 
65.996529 0.010945 
66.010559 0.005516 
66.33194 0.005264 
67.054382 1.349297 
67.239006 0.010977 
68.026009 0.009553 
68.319557 0.006095 
68.997482 0.080617 
69.033623 2.378075 
69.044846 0.030023 
69.070007 1.111736 
69.523102 0.009491 
69.575554 0.007227 
70.065285 0.214436 
70.605118 0.01022 
70.825584 0.007827 
70.957954 0.006131 
71.049263 0.366693 
71.085625 1.141471 
71.942749 0.012932 
72.080833 0.027628 
72.088898 0.022676 
72.937279 0.021048 
73.064873 0.381311 
73.146927 0.009673 
74.060081 0.010566 
74.326668 0.008894 
74.471054 0.009941 
74.677818 0.007913 
76.184349 0.005897 
77.040596 0.012112 
77.295883 0.010972 
77.454529 0.005926 
77.505928 0.007596 
78.379135 0.00772 
79.021301 0.189925 
79.054283 0.876409 
80.049538 8.221693 
80.869232 0.011296 
81.033531 0.131749 
81.044769 0.009345 
81.052902 0.398198 
81.069946 1.906884 
81.568176 0.009448 
82.073257 0.0074 
82.480438 0.008863 
82.847267 0.006502 
83.012871 0.214255 
83.04921 12.964258 
83.085579 0.505637 
84.081001 0.02834 
84.456673 0.010998 
85.02845 0.156162 
85.039749 0.211252 
85.064865 0.843119 
85.101242 0.472759 
86.09642 0.081735 
87.044144 0.333822 
88.039398 0.006288 
88.075722 0.022486 
88.203835 0.008537 
88.569847 0.012199 
88.65094 0.012473 
89.049423 0.005195 
89.059799 0.086948 
90.947731 0.01641 
91.054298 1.648047 
92.057571 0.005772 
93.03344 0.009669 
93.069992 1.724587 
94.073296 0.026532 
95.049217 1.445069 
95.085587 2.291206 
95.088821 0.032349 
95.249001 0.008819 
95.717361 0.010459 
95.838097 0.009436 
96.088989 0.017331 
96.209404 0.011081 
97.028496 0.052796 
97.064903 1.027813 
97.101318 0.306032 
98.975357 0.006144 
99.044189 0.408476 
99.080498 0.478043 
100.07579 0.016201 
100.086586 0.011837 
101.003151 0.005625 
101.059776 0.321242 
102.068542 0.004835 
102.09137 0.017105 
103.054276 0.005631 
104.066742 0.011025 
105.033646 0.008515 
105.070007 1.463577 
105.363686 0.009153 
106.073051 0.018515 
106.086365 0.021194 
107.0 0.008238 
107.049217 0.538428 
107.085609 2.236898 
107.368965 0.013099 
108.055862 0.076624 
108.080788 0.069131 
108.088875 0.022443 
109.028511 0.06663 
109.064941 1.15224 
109.101273 2.046055 
109.934227 0.004914 
110.068047 0.006615 
110.096748 0.005401 
110.104736 0.082491 
111.044128 0.991046 
111.080513 1.096548 
111.116837 0.008679 
111.561676 0.010912 
111.890869 0.010348 
112.11219 0.008702 
113.059792 0.91877 
113.096123 0.048582 
115.050354 0.005368 
115.05481 0.055212 
115.075516 0.087021 
116.005341 0.177209 
116.985413 0.008106 
117.069916 0.563688 
118.086227 0.008703 
119.049217 0.159017 
119.085648 1.318211 
120.08094 0.041253 
120.089142 0.009283 
121.064919 0.761292 
121.101326 1.234502 
122.07283 0.017907 
122.081146 0.009076 
122.096626 0.00631 
122.104675 0.023634 
123.044029 0.320018 
123.08049 3.146423 
123.116913 1.223983 
124.076134 0.006623 
124.083977 0.058633 
124.088432 0.008135 
124.120148 0.018329 
124.936462 0.007595 
125.023346 0.204143 
125.059853 0.984603 
125.096184 2.713711 
126.09964 0.012087 
127.03907 3.72817 
127.075432 0.294043 
127.111763 0.048767 
128.017136 0.008335 
128.062286 0.14267 
129.054642 0.305062 
129.069839 0.736605 
129.626328 0.00661 
131.04921 0.04575 
131.085678 1.300622 
132.044281 0.035677 
132.088776 0.009948 
132.101761 0.008824 
133.064835 0.625759 
133.101257 1.237817 
133.959457 0.017073 
134.060059 0.006683 
134.096542 0.092535 
134.104172 0.018098 
134.955978 0.034198 
135.044159 0.288844 
135.08049 3.72801 
135.116821 0.725033 
136.076004 0.01631 
136.088547 0.006582 
136.120132 0.0076 
137.001724 0.020119 
137.01181 0.009146 
137.059891 1.403601 
137.077057 0.009893 
137.096222 0.78564 
137.132614 0.042328 
138.055191 0.011816 
138.0681 0.017707 
139.038986 100.0 
139.075226 1.550658 
139.11174 0.199567 
139.366348 0.009774 
140.041946 0.011717 
140.931732 0.011862 
140.984528 0.014601 
141.035797 0.005495 
141.05455 1.95783 
141.069839 0.290378 
141.090912 0.047536 
141.43486 0.011378 
142.057999 0.020101 
142.077835 0.252674 
143.085571 3.519916 
143.742462 0.010016 
144.081238 0.009694 
144.093475 0.127091 
144.9953 0.008018 
145.064804 0.45301 
145.101257 2.050397 
146.007034 0.052419 
146.060043 0.010028 
146.072708 0.017819 
146.096588 0.071972 
146.104034 0.01904 
146.973938 0.007832 
147.044083 0.337376 
147.080475 0.698069 
147.116852 0.965442 
148.075195 0.006308 
148.088364 0.006283 
148.120102 0.028147 
148.244385 0.012035 
148.955887 0.025211 
148.996735 0.010708 
149.059769 0.700083 
149.077179 0.008204 
149.096252 1.198242 
149.13266 0.331239 
150.054413 0.011779 
150.951309 0.184031 
151.039185 0.148657 
151.075439 1.180509 
151.092163 0.005847 
151.111847 0.856959 
152.070618 0.206825 
152.083572 0.00964 
152.951645 1.215575 
152.967072 0.037549 
153.054596 0.700935 
153.07045 0.063379 
153.090958 0.634954 
153.94928 0.188852 
153.95993 0.188088 
154.049866 0.012842 
154.062881 0.006259 
154.077942 0.136836 
154.086212 0.049098 
154.122681 0.107002 
154.946945 4.668519 
154.999634 0.028986 
155.033707 0.005945 
155.070267 0.47793 
155.085648 0.662687 
155.106293 0.016559 
155.947845 0.128305 
155.954742 0.872956 
156.093506 1.821917 
156.944427 0.408073 
157.064865 0.137727 
157.101227 1.648724 
157.951996 0.033883 
158.059631 0.016184 
158.07251 0.084028 
158.097382 0.011072 
158.109436 0.089413 
158.994888 0.005955 
159.080475 1.270139 
159.116898 5.090946 
160.075989 0.030547 
160.088409 0.18147 
160.112366 0.011091 
161.059769 0.440994 
161.096069 1.775778 
161.132431 0.451292 
161.28154 0.008153 
161.659302 0.006508 
162.091339 0.00888 
162.10405 0.025162 
162.735474 0.011873 
163.038605 0.009583 
163.075378 4.663538 
163.11171 0.880661 
163.148193 0.161355 
164.040619 0.008594 
164.107193 0.010269 
164.115982 0.00632 
164.152252 0.006 
164.967758 0.03707 
165.054855 0.192409 
165.070404 0.032715 
165.091125 0.661049 
165.127533 0.181454 
166.077835 0.064621 
166.122772 0.036477 
166.966599 0.00871 
166.999756 0.008546 
167.034012 0.022556 
167.070267 1.63673 
167.086075 0.134351 
167.106781 0.272592 
168.078186 0.546048 
168.093567 0.011427 
168.91716 0.037821 
168.961914 0.052398 
168.983185 0.00701 
169.015366 0.040673 
169.065216 0.090078 
169.086334 0.104274 
169.101196 3.416133 
169.306076 0.007049 
170.072372 0.006582 
170.109299 0.359897 
170.962173 0.224734 
170.978409 0.087972 
171.080536 0.504686 
171.116821 6.545156 
171.959854 0.106131 
171.973526 0.100774 
172.088394 0.40257 
172.124756 0.10571 
172.957687 0.944407 
173.05983 0.102142 
173.096207 3.456702 
173.132721 0.849896 
174.005081 0.01182 
174.055176 0.038837 
174.067551 0.006593 
174.091324 0.021629 
174.104324 0.748145 
174.95491 0.02019 
175.0755 0.616101 
175.111786 3.006239 
175.140427 0.006163 
175.148163 0.177983 
176.07074 0.036953 
176.082977 0.0095 
176.106964 0.009476 
176.119812 0.568896 
176.143204 0.007601 
176.989349 0.006716 
177.054688 0.135611 
177.091141 1.177048 
177.127426 0.846098 
177.16394 0.024078 
178.062347 0.061595 
178.086746 0.015278 
178.122696 0.06121 
179.070404 0.602532 
179.085663 0.293426 
179.106689 0.927464 
180.962341 0.007833 
180.995102 0.00641 
181.016144 0.020782 
181.0495 0.031803 
181.066666 0.011076 
181.085983 1.056142 
181.101166 0.544692 
181.121811 0.006898 
182.072678 0.12146 
183.065765 0.038292 
183.080505 0.414948 
183.117004 0.47883 
184.088486 0.23635 
184.096558 0.008099 
184.12027 0.007787 
185.071198 0.006194 
185.096298 0.698237 
185.116028 0.010886 
185.132584 1.886298 
185.94928 0.043944 
186.055542 0.006001 
186.104233 0.843381 
186.136169 0.077093 
186.528992 0.008691 
186.878296 0.010311 
186.927917 0.166399 
187.075546 1.452215 
187.097198 0.066052 
187.111832 6.406129 
187.148239 0.511741 
187.944748 0.242812 
188.070114 0.008625 
188.083176 0.162156 
188.119705 4.068631 
188.648087 0.405468 
189.054779 0.057872 
189.091156 0.911597 
189.127472 1.640217 
189.149246 0.086423 
189.163635 0.045659 
190.086258 0.059964 
190.098785 0.202744 
190.131332 0.047058 
191.000641 0.019773 
191.070358 0.406858 
191.106766 1.357745 
191.143158 1.353221 
192.065598 0.014557 
192.101715 0.040148 
192.961945 0.012076 
193.016098 0.033639 
193.08606 0.408116 
193.102158 0.009433 
193.122482 0.269522 
194.045013 0.035943 
194.118729 0.012015 
194.962677 0.007694 
195.031677 0.065173 
195.05397 0.020164 
195.065414 0.071751 
195.080933 0.070102 
195.101669 0.931232 
195.11705 0.039115 
195.138214 0.007078 
196.088287 0.080914 
196.124741 0.018723 
197.011063 0.045905 
197.08046 0.141047 
197.096222 4.823559 
197.132156 0.064276 
197.65329 0.611633 
198.104156 0.571364 
198.155106 0.085282 
199.075668 0.117266 
199.111862 3.436785 
199.148224 0.253754 
200.083221 0.173092 
200.1194 0.070498 
201.056015 0.006921 
201.065735 0.011298 
201.091263 1.939061 
201.127518 4.742984 
201.163803 0.083586 
202.050232 0.078311 
202.087173 0.009376 
202.098953 1.065066 
202.135223 0.236334 
203.070389 0.154093 
203.106842 1.319797 
203.143265 5.529728 
203.178909 0.010771 
204.066132 0.022955 
204.078079 0.099183 
204.101868 0.062951 
204.114319 0.263756 
204.137451 0.011531 
204.147629 0.012379 
205.016235 0.027759 
205.086182 1.650735 
205.122498 3.181125 
205.159103 0.035175 
206.081985 0.017378 
206.093628 0.047947 
206.154266 0.008894 
206.190689 0.060903 
206.6586 0.371843 
206.979034 0.013252 
207.010956 0.010268 
207.031738 0.05081 
207.065323 0.034864 
207.082016 0.026229 
207.101822 0.114431 
207.138046 0.189274 
207.160233 0.078225 
207.887054 0.007345 
209.117493 0.020142 
209.132401 0.104544 
211.112061 0.576967 
211.148315 0.164179 
212.082977 0.056638 
212.119919 0.029955 
212.237335 0.633776 
212.972748 0.028568 
213.065689 0.022015 
213.09111 0.64177 
213.127625 0.974269 
213.163803 0.024904 
213.240234 0.026338 
214.09903 1.001294 
214.131363 0.030732 
215.003418 0.127726 
215.00975 0.108827 
215.017715 0.20663 
215.106888 11.126355 
215.143265 0.129743 
215.179611 0.077617 
215.66394 0.011724 
216.065689 0.038991 
216.102844 0.069741 
216.114594 0.876951 
216.1492 0.005923 
217.016647 0.009348 
217.07666 0.011648 
217.086136 0.972102 
217.110825 0.012426 
217.122437 0.826969 
217.158859 0.347336 
218.080948 0.03266 
218.093033 0.049272 
218.116928 0.020355 
218.12674 0.011596 
219.032104 0.007472 
219.101852 3.032483 
219.138077 6.974036 
219.174423 0.203488 
220.097794 0.020558 
220.1091 0.122794 
221.047089 0.102821 
221.081085 0.065166 
221.11731 0.1596 
221.15387 0.021451 
222.111877 0.009197 
222.898743 0.323806 
223.02652 0.046013 
223.096436 0.011392 
224.082565 0.009379 
224.97287 0.007462 
225.041931 0.023645 
225.091049 1.759595 
225.127686 0.007453 
225.164047 0.056129 
225.868301 0.01013 
225.975769 0.006999 
226.09877 0.147488 
226.933746 0.011183 
226.968307 0.386667 
227.037094 0.020275 
227.070847 0.012665 
227.106659 0.664323 
227.143112 0.32365 
227.179611 0.022284 
227.654892 0.281367 
227.931442 0.233926 
228.078354 0.036496 
228.111145 0.027485 
228.157562 0.00966 
228.893921 0.007426 
228.928802 0.691294 
229.086807 0.084707 
229.122467 9.494869 
229.158539 0.067592 
229.19516 0.022021 
230.093582 0.028262 
230.130035 0.227459 
230.919327 0.020375 
231.031342 0.009143 
231.101761 0.383793 
231.138077 3.278755 
231.174133 0.010856 
231.915939 0.00937 
232.109451 0.426212 
232.142899 0.022883 
232.894882 0.009567 
233.023834 0.007115 
233.082123 0.02699 
233.097504 0.011795 
233.117416 2.048825 
233.153793 0.132672 
233.166153 0.006543 
233.891083 0.007687 
234.076477 0.044789 
234.121414 0.024184 
234.149506 0.00986 
235.026505 0.007581 
235.097839 0.185083 
235.169281 0.018743 
236.661346 0.010623 
239.106796 0.833775 
239.180252 0.010417 
239.901489 0.027738 
240.077911 0.010017 
240.909515 0.404414 
241.085938 0.211293 
241.158493 0.080212 
241.196289 0.006203 
242.093857 0.991138 
242.153519 0.023119 
243.031662 0.041181 
243.101624 2.018775 
243.13768 0.095613 
243.174301 0.15294 
244.050385 0.008061 
244.108307 0.009246 
244.167877 0.006913 
244.944031 0.11482 
244.978455 0.068486 
245.047134 0.410297 
245.081863 0.032307 
245.117157 1.042894 
245.15358 0.437265 
245.942444 0.774852 
246.121338 0.058691 
246.14856 0.038874 
246.185547 0.057568 
246.910233 0.02216 
246.939255 1.477475 
247.026016 0.009692 
247.133057 19.967314 
247.171066 0.01046 
247.907272 0.007027 
248.091949 0.054805 
249.042236 0.009696 
249.078995 0.01839 
250.893356 0.013249 
250.906219 0.00918 
252.895172 0.010389 
253.158783 0.045519 
255.101746 0.198733 
255.13797 0.057639 
255.917999 0.006058 
257.117279 4.888896 
257.15274 0.021524 
257.18985 0.062142 
258.088928 0.513216 
258.149109 0.058998 
258.185425 0.282167 
259.041931 0.011202 
259.094666 0.007685 
259.132965 0.011381 
259.169464 0.303026 
259.190125 0.00811 
260.091705 0.020778 
260.104797 0.334312 
260.12796 0.026888 
260.164276 0.227116 
260.200836 0.350224 
261.077209 0.311513 
261.114868 0.037395 
261.132904 0.007848 
261.148529 0.921263 
261.164673 0.009833 
261.184082 0.085658 
262.180939 0.006966 
263.093048 0.125366 
263.129639 0.012369 
263.164062 1.442176 
263.901489 0.43188 
263.952667 0.019831 
264.908112 0.043365 
264.922424 0.012269 
268.171692 0.010688 
268.740997 0.01232 
269.153412 0.043247 
270.148621 0.113142 
270.185333 0.055964 
271.133087 0.009296 
271.15329 0.011379 
271.169312 0.300484 
272.126984 0.010738 
272.16568 0.006826 
273.076904 0.008049 
273.112091 0.598798 
273.127472 0.020397 
273.148407 0.047349 
273.184906 0.045337 
274.106995 0.110099 
274.179321 0.00752 
275.127747 7.893574 
275.200958 0.187494 
276.088623 0.010519 
277.03714 0.010786 
277.088165 0.019328 
278.103668 0.162682 
279.127197 0.012986 
280.813232 0.138578 
280.9039 0.033188 
281.822388 0.010534 
281.912079 2.492714 
282.914673 0.145711 
283.916534 0.008044 
285.168488 0.043626 
286.143555 0.556384 
286.180176 0.925222 
286.216339 0.007999 
287.127686 0.077392 
287.147583 0.134653 
287.164124 0.294424 
287.18399 0.203459 
288.12323 0.006289 
288.15921 0.542917 
288.195892 1.979875 
288.233246 0.015282 
289.071686 0.058099 
289.143555 0.151584 
289.162231 0.124561 
289.17984 0.384516 
289.199738 0.307135 
290.04422 0.006637 
290.175476 0.010952 
290.94754 0.010282 
297.816559 0.093923 
303.052155 0.010545 
303.120178 0.071149 
303.141174 0.338825 
303.158905 0.030455 
303.178467 0.897611 
303.206604 0.518877 
303.244232 0.099017 
304.118713 0.175191 
304.136505 0.033099 
304.155365 1.26537 
304.209259 0.059882 
304.227295 1.428853 
304.300079 43.047615 
305.157196 54.272224 
305.192932 0.426633 
305.196411 0.426508 
305.222504 0.193932 
305.303375 10.061134 
306.09845 0.72544 
306.131592 0.109191 
306.160004 6.145312 
306.206238 6.92255 
306.241638 1.140515 
306.279175 0.02714 
306.306519 1.089336 
306.918152 0.008792 
307.101807 0.036559 
307.134338 0.01582 
307.153503 2.744471 
307.188507 0.156708 
307.211609 1.039196 
307.240021 0.209987 
322.824036 0.013815 
322.914429 0.009606 
323.83255 0.006437 
324.880493 0.005637 
327.827118 0.006107 
END IONS

