BEGIN IONS
PEPMASS=281.105
CHARGE=1+
COMPOUNDNAME=Huperzine A
LIBRARYQUALITY=3
SMILES=N/A
INCHIKEY=ZRJBHWIHUMBLCN-UHFFFAOYSA-N
INCHI=InChI=1S/C15H18N2O/c1-3-11-10-6-9(2)8-15(11,16)12-4-5-14(18)17-13(12)7-10/h3-6,10H,7-8,16H2,1-2H3,(H,17,18)
MSLEVEL=2
SOURCE_INSTRUMENT=N/A-ESI-QFT
FILENAME=library_mgf.mgf
SEQ=*..*
IONMODE=positive
ORGANISM=MONA
NAME=Huperzine A [M+K]+
PI=MoNA
DATACOLLECTOR=MoNA:VF-NPL-QEHF027223
PUBMED=N/A
SUBMITUSER=mwang87
TAGS=
SPECTRUMID=CCMSLIB00004720804
SCANS=27223
50.161022 0.009643 
50.211212 0.01013 
50.253506 0.011191 
50.404663 0.004584 
50.43325 0.010585 
50.973793 0.01022 
51.04105 0.01528 
52.011703 0.010464 
52.202297 0.010744 
52.973602 0.011324 
53.411194 0.011119 
53.682293 0.012282 
53.842583 0.011335 
54.280586 0.011114 
54.407928 0.013124 
54.481651 0.004385 
54.509315 0.010952 
54.893562 0.004706 
54.974289 0.012297 
55.06757 0.012541 
55.081837 0.012695 
55.49564 0.00974 
56.103291 0.009613 
56.134899 0.012398 
56.369198 0.013743 
57.327583 0.012939 
58.065315 0.007666 
58.084072 0.013264 
58.913719 0.007433 
59.030281 0.012083 
59.385128 0.00744 
59.42963 0.009745 
60.23571 0.011557 
60.395073 0.008325 
60.74876 0.008809 
60.80394 0.010536 
61.010876 0.020809 
61.162228 0.010507 
61.727692 0.011822 
62.954376 0.185847 
64.360619 0.009392 
66.186989 0.010454 
66.247917 0.012582 
66.574417 0.007606 
66.7995 0.009613 
67.735207 0.00548 
67.897636 0.010138 
68.37252 0.011822 
68.452538 0.011133 
69.291618 0.011099 
69.722069 0.013705 
69.831123 0.013833 
70.065239 0.022331 
71.421509 0.012046 
74.006226 0.006078 
75.92527 0.011916 
77.404816 0.008364 
80.050079 0.012931 
80.545547 0.013277 
81.07019 0.006144 
81.735802 0.012097 
81.917419 0.011647 
82.944687 0.010223 
83.078972 0.01136 
83.713585 0.012241 
83.79097 0.010859 
84.065498 0.010769 
84.204308 0.012178 
84.7677 0.013619 
85.075989 0.014896 
85.248642 0.010567 
85.346268 0.011322 
87.242477 0.013532 
88.423531 0.007655 
88.68679 0.012219 
89.388992 0.007694 
89.486671 0.007392 
93.069756 0.025571 
93.09227 0.010622 
93.292671 0.012294 
94.22464 0.011364 
94.672531 0.007982 
95.369995 0.011435 
97.07592 0.029777 
98.656212 0.00832 
98.936234 0.007862 
99.653984 0.01157 
100.813004 0.013026 
103.456779 0.004402 
105.069778 0.036787 
106.065475 0.031443 
106.092796 0.012052 
107.085487 0.148228 
109.076035 0.205194 
110.060089 0.235292 
111.089027 0.007215 
115.188416 0.014399 
116.568047 0.010769 
118.316124 0.005036 
120.080803 0.076309 
121.076012 0.561868 
121.101189 0.056699 
122.060051 0.207178 
122.083862 0.014234 
122.431488 0.010012 
125.403442 0.011798 
126.985275 0.004872 
127.299309 0.0126 
129.575745 0.012627 
131.311584 0.005743 
132.044373 0.027136 
132.080795 0.069002 
133.088654 0.018899 
134.060059 0.722641 
134.096436 0.733199 
135.055267 0.014826 
136.075546 0.035659 
136.230515 0.011963 
136.997818 0.007725 
137.070862 0.363928 
138.652908 0.009388 
140.433609 0.004432 
141.393265 0.005032 
144.080856 0.017736 
144.101837 0.301421 
144.766754 0.01241 
146.060013 0.128686 
146.096527 0.852509 
147.055222 0.093739 
148.07515 0.010882 
148.112167 0.047832 
149.071014 1.75695 
149.107635 0.057936 
156.080948 0.016445 
157.088806 0.026716 
157.976303 0.006776 
158.06012 0.038838 
158.665009 0.007683 
159.055557 0.036997 
160.075882 0.027317 
162.055222 0.010431 
162.304672 0.011893 
162.315109 0.010702 
163.086624 0.050144 
164.129929 0.006452 
165.009323 0.004657 
170.059982 0.08008 
170.096313 0.152591 
172.07605 0.048661 
173.10733 0.302797 
173.558823 0.007942 
175.08667 0.012696 
175.732513 0.008704 
178.722488 0.008115 
181.101227 0.120494 
183.116653 0.028152 
184.063354 0.621852 
184.075684 2.008167 
185.059525 0.010289 
185.07074 0.091198 
185.07991 0.013438 
185.259659 0.023142 
185.709885 0.010838 
185.940872 0.005242 
186.091248 1.021108 
187.086197 0.024559 
191.582703 0.009318 
194.336945 0.013278 
196.075928 0.274294 
196.112 0.077464 
197.071289 0.427424 
197.083481 2.277786 
198.09137 4.047969 
198.127609 0.702298 
199.08638 0.523554 
199.095306 0.167233 
200.094391 0.551833 
200.104553 0.006121 
201.101822 0.018594 
202.952728 0.009209 
204.055862 0.010333 
207.103317 0.013262 
207.141159 0.012478 
208.100906 0.012292 
208.112015 0.549239 
208.467407 0.008888 
208.800934 0.00999 
209.083069 0.011787 
209.095871 0.207755 
210.080017 0.04997 
210.091248 0.853551 
210.127655 0.063592 
211.087433 0.141459 
211.09906 1.223074 
211.123016 0.178343 
212.080338 0.008397 
212.094833 0.00679 
212.106964 1.093629 
212.142792 0.02117 
213.102051 0.652215 
215.566589 0.32471 
215.582703 0.17706 
217.444672 0.013143 
220.111801 0.027528 
221.107605 0.069712 
222.091217 0.460607 
223.08638 0.392471 
223.098434 0.028426 
223.123016 0.025153 
224.094849 0.26243 
224.106796 1.780002 
225.10199 0.015436 
225.114166 0.14207 
225.137451 0.007659 
225.467697 0.0138 
226.101944 0.411398 
226.122574 100.0 
227.12648 7.087622 
228.121277 0.006236 
228.138199 1.135407 
235.086563 0.222231 
236.094513 0.184692 
236.106857 0.21273 
236.41394 0.01136 
237.102264 0.346961 
237.138412 0.300454 
238.122589 0.255774 
239.117828 16.59338 
240.122833 1.068313 
241.133347 0.6949 
242.141235 0.768588 
242.414474 0.006844 
243.145569 0.009178 
247.123245 0.037615 
248.106812 0.620983 
249.088821 0.007201 
249.101532 0.214204 
250.109741 0.923518 
250.177399 0.456548 
251.117371 0.046412 
253.133575 0.850322 
255.14917 6.913789 
256.152588 0.584995 
263.117584 0.023698 
265.133667 3.425692 
266.137299 0.164184 
267.13623 0.172175 
273.511017 0.011274 
279.206635 0.452576 
280.209198 0.039987 
280.259338 0.007631 
281.126221 0.107778 
281.614441 0.007346 
282.159912 84.075851 
283.163513 7.789948 
284.773621 0.006096 
286.904297 0.011006 
296.949249 0.013557 
300.601562 0.010128 
END IONS

