BEGIN IONS
TITLE=Scan Number: 550
PEPMASS=344.103
CHARGE=1+
COMPOUNDNAME=Violacein; 3-(1,2-dihydro-5-(5-hydroxy-1H-indole-3-yl)-2-oxo-3H-pyrrol-3-ylidene)-1,3-dihydro-2H-indole-2-one
LIBRARYQUALITY=3
SMILES=C1=CC=C2C(=C1)C(=C3C=C(NC3=O)C4=CNC5=C4C=C(C=C5)O)C(=O)N2
INCHIKEY=XAPNKXIRQFHCHN-QGOAFFKASA-N
INCHI=InChI=1S/C20H13N3O3/c24-10-5-6-15-12(7-10)14(9-21-15)17-8-13(19(25)23-17)18-11-3-1-2-4-16(11)22-20(18)26/h1-9,21,24H,(H,22,26)(H,23,25)/b18-13+
MSLEVEL=2
SOURCE_INSTRUMENT=LC-ESI-Orbitrap
FILENAME=f.rmenezes/MS2_spectra/020518_RM_pos_Violacein_Jchromo_ref_2ul_ms2.mzXML;
SEQ=*..*
NOTES=
IONMODE=Positive
ORGANISM=GNPS-LIBRARY
NAME=Violacein; 3-(1,2-dihydro-5-(5-hydroxy-1H-indole-3-yl)-2-oxo-3H-pyrrol-3-ylidene)-1,3-dihydro-2H-indole-2-one M+H
SPECTRUMID=CCMSLIB00004721992
ACTIVATION=CID
INSTRUMENT=ion trap
SCANS=550
108.164322 4061.304443 
137.409698 4301.614746 
154.750671 5602.439453 
158.060318 7248.273438 
183.054581 21014.183594 
187.734116 3652.539551 
188.847198 5762.288574 
203.309677 4593.681152 
211.04985 21727.283203 
223.050247 5232.32666 
225.066101 18537.699219 
244.238937 3873.164307 
250.411942 4332.835938 
251.044861 133243.40625 
259.08606 20523.052734 
264.11319 4907.979004 
270.102325 12183.279297 
271.087097 14658.335938 
271.220947 4153.591797 
273.10199 64163.800781 
283.085449 12149.359375 
287.081573 31738.226562 
288.112976 10317.328125 
289.096558 13991.506836 
291.390839 10219.685547 
298.097137 65597.695312 
298.782776 51569.082031 
299.081085 267125.53125 
300.111115 39542.792969 
301.09671 434060.15625 
302.09256 8988.179688 
316.107544 755646.1875 
317.09198 23668.474609 
326.091797 441730.75 
327.080719 39291.804688 
339.593292 5032.557129 
344.102509 410809.09375 
END IONS

