BEGIN IONS
TITLE=Scan Number: 429
PEPMASS=684.28998
CHARGE=2+
COMPOUNDNAME=Lomaiviticin E
LIBRARYQUALITY=3
SMILES=CC[C@]1([C@@H](c2[c-](c3c(c2C(=O)[C@@H]1[C@H]4C(=O)c5c([c-](c6c5C(=O)c7c(ccc(c7C6=O)O)O)[N+]#N)[C@H]([C@@]4(CC)O[C@H]8C[C@@H]([C@H]([C@@H](O8)C)O)OC)O[C@H]9C[C@H]([C@@H]([C@H](O9)C)N(C)C)O)C(=O)c1c(ccc(c1C3=O)O)O)[N+]#N)O[C@H]1C[C@H]([C@@H]([C@H](O1)C)N(C)C)O)O[C@H]1C[C@@H]([C@H]([C@@H](O1)C)O)OC
INCHIKEY=VGDUHSQTOJRQNB-QXVPFLIRSA-N
INCHI=
MSLEVEL=2
SOURCE_INSTRUMENT=LC-ESI-qTof
FILENAME=f.MSV000080116/peak/mzXMLs/Mono/D8_P1-C-6_01_35670.mzXML;
SEQ=*..*
NOTES=
IONMODE=Positive
ORGANISM=GNPS-LIBRARY
NAME=Lomaiviticin E M+2H
SPECTRUMID=CCMSLIB00000839294
ACTIVATION=CID
INSTRUMENT=ion trap
SCANS=429
66.66124 156.0 
95.047234 224.0 
99.079353 172.0 
109.062531 192.0 
114.08342 488.0 
115.067749 228.0 
127.073647 1156.0 
128.076279 476.0 
130.087891 100.0 
140.118881 112.0 
158.117203 4448.0 
159.113205 748.0 
160.107452 100.0 
174.104172 104.0 
176.128983 2996.0 
177.139542 460.0 
231.104935 140.0 
269.168854 160.0 
275.106995 112.0 
281.049927 1668.0 
282.057739 392.0 
283.043976 176.0 
293.08017 152.0 
297.125824 148.0 
309.079468 404.0 
310.101105 116.0 
310.236328 176.0 
311.13678 172.0 
316.196594 160.0 
319.077423 488.0 
321.079346 284.0 
322.07251 236.0 
335.22699 100.0 
337.07605 3924.0 
338.082214 828.0 
347.071991 1508.0 
348.067566 164.0 
349.067505 112.0 
353.229126 200.0 
354.089905 148.0 
354.23996 228.0 
361.215851 116.0 
363.073151 268.0 
365.078339 740.0 
366.108368 136.0 
367.160522 180.0 
369.21286 120.0 
385.187134 108.0 
387.108429 128.0 
393.295624 248.0 
394.486298 148.0 
395.241821 100.0 
396.151947 184.0 
397.287384 100.0 
405.146149 100.0 
411.210693 108.0 
413.121033 100.0 
419.135468 104.0 
426.152588 124.0 
430.114868 140.0 
438.650269 180.0 
439.137909 292.0 
439.687866 124.0 
450.166656 100.0 
469.141602 164.0 
476.143341 116.0 
479.155579 100.0 
489.132782 160.0 
494.256165 132.0 
497.236847 100.0 
526.19104 492.0 
526.677551 168.0 
543.125977 100.0 
555.137024 100.0 
559.189331 100.0 
561.111084 108.0 
590.160339 136.0 
593.294006 152.0 
599.122314 164.0 
609.102478 112.0 
617.116028 196.0 
646.149475 160.0 
655.129028 216.0 
673.13269 100.0 
674.122437 180.0 
681.42865 316.0 
683.143188 268.0 
684.337402 132.0 
685.333801 136.0 
701.145264 1832.0 
702.140808 748.0 
703.16217 372.0 
719.418823 152.0 
874.223938 108.0 
876.263611 288.0 
877.262634 416.0 
1034.386353 112.0 
END IONS

