BEGIN IONS
PEPMASS=917.49
CHARGE=1+
COMPOUNDNAME=Pesticide4_Avermectin B1b_C48H72O14_(1'R,2S,4'S,5S,6R,8'R,10'E,12'S,13'S,14'E,16'E,20'R,21'R,24'S)-6-[(2S)-2-Butanyl]-21',24'-dihydroxy-5,11',13',22'-tetramethyl-2'-oxo-5,6-dihydrospiro[pyran-2,6'-[3,7,19]trioxatetracyclo[15.6.1.1~4,8~.0~20,24~]pentacosa[10,14,16,22]tetraen]-12'-yl 2,6-dideoxy-4-O-(2,6-dideoxy-3-O-methyl-alpha-L-arabino-hexopyranosyl)-3-O-methyl-alpha-L-arabino-hexopyranoside
LIBRARYQUALITY=1
SMILES=CCC(C)C1C(C=CC2(O1)CC3CC(O2)CC=C(C(C(C=CC=C4COC5C4(C(C=C(C5O)C)C(=O)O3)O)C)OC6CC(C(C(O6)C)OC7CC(C(C(O7)C)O)OC)OC)C)C
INCHIKEY=RRZXIRBKKLTSOM-XPNPUAGNSA-N
INCHI=InChI=1S/C48H72O14/c1-11-25(2)43-28(5)17-18-47(62-43)23-34-20-33(61-47)16-15-27(4)42(26(3)13-12-14-32-24-55-45-40(49)29(6)19-35(46(51)58-34)48(32,45)52)59-39-22-37(54-10)44(31(8)57-39)60-38-21-36(53-9)41(50)30(7)56-38/h12-15,17-19,25-26,28,30-31,33-45,49-50,52H,11,16,20-24H2,1-10H3/b13-12+,27-15+,32-14+/t25-,26-,28-,30-,31-,33+,34-,35-,36-,37-,38-,39-,40+,41-,42-,43+,44-,45+,47+,48+/m0/s1
MSLEVEL=2
SOURCE_INSTRUMENT=-Maxis HD qTOF
FILENAME=Pesticide_mix4_BA4_01_8705.mzXML
SEQ=*..*
IONMODE=negative
ORGANISM=GNPS-COLLECTIONS-PESTICIDES-NEGATIVE
NAME=Pesticide4_Avermectin B1b_C48H72O14_(1'R,2S,4'S,5S,6R,8'R,10'E,12'S,13'S,14'E,16'E,20'R,21'R,24'S)-6-[(2S)-2-Butanyl]-21',24'-dihydroxy-5,11',13',22'-tetramethyl-2'-oxo-5,6-dihydrospiro[pyran-2,6'-[3,7,19]trioxatetracyclo[15.6.1.1~4,8~.0~20,24~]pentacosa[10,14,16,22]tetraen]-12'-yl 2,6-dideoxy-4-O-(2,6-dideoxy-3-O-methyl-alpha-L-arabino-hexopyranosyl)-3-O-methyl-alpha-L-arabino-hexopyranoside M+FA-H
PI=Dorrestein/Touboul
DATACOLLECTOR=lfnothias
PUBMED=n/a
SUBMITUSER=mwang87
TAGS=
SPECTRUMID=CCMSLIB00001058377
SCANS=701
81.038612 143.0 
83.0495 242.0 
83.810188 194.0 
84.02314 671.0 
85.029549 1088.0 
96.017845 274.0 
99.2379 142.0 
108.992432 167.0 
110.038795 162.0 
119.051979 303.0 
121.028343 196.0 
123.039864 183.0 
131.0466 166.0 
137.054504 210.0 
137.09227 152.0 
147.041702 171.0 
154.050919 157.0 
155.06163 163.0 
159.038528 240.0 
165.017548 154.0 
170.072891 185.0 
171.078308 211.0 
179.070099 207.0 
179.263229 403.0 
180.987061 169.0 
183.079575 161.0 
184.055054 160.0 
188.084488 161.0 
188.696671 257.0 
197.102463 405.0 
200.131882 124.0 
217.122101 234.0 
223.077896 822.0 
227.030716 137.0 
227.070862 157.0 
227.116226 203.0 
229.108063 17308.0 
230.11586 509.0 
231.80249 130.0 
235.111298 177.0 
236.994629 167.0 
243.098846 170.0 
243.14035 212.0 
251.137619 173.0 
255.128128 574.0 
260.114197 179.0 
266.982697 219.0 
271.135803 223.0 
271.226715 306.0 
291.182281 133.0 
315.209686 194.0 
317.203918 307.0 
319.170013 224.0 
323.213409 191.0 
328.983185 126.0 
334.187195 156.0 
342.971558 267.0 
345.15274 410.0 
361.182831 101.0 
363.158142 168.0 
364.166901 124.0 
364.916046 139.0 
384.003693 145.0 
384.1073 104.0 
390.980255 121.0 
394.976196 146.0 
397.220001 164.0 
399.23175 294.0 
412.638062 166.0 
426.006653 102.0 
429.198883 98.0 
431.243622 119.0 
443.224274 2327.0 
444.229187 289.0 
455.285706 210.0 
477.553711 107.0 
483.281647 169.0 
484.996582 186.0 
490.006409 165.0 
497.020172 218.0 
504.985321 168.0 
511.22757 131.0 
511.285522 637.0 
521.330811 194.0 
529.296509 2679.0 
530.295105 118.0 
530.441101 122.0 
531.004517 148.0 
533.015259 117.0 
540.984558 279.0 
544.996399 241.0 
547.289551 527.0 
551.979858 100.0 
562.986694 219.0 
565.314514 858.0 
566.312561 137.0 
575.266602 370.0 
576.252747 104.0 
594.993652 193.0 
655.336853 157.0 
665.01239 142.0 
670.976868 175.0 
689.002808 155.0 
750.38446 101.0 
759.411133 451.0 
761.447632 223.0 
761.480957 379.0 
762.444092 129.0 
793.01532 94.0 
798.985901 163.0 
811.009766 136.0 
827.496216 811.0 
828.503235 181.0 
835.466858 3268.0 
836.47522 1692.0 
852.253479 113.0 
853.022217 209.0 
853.476135 3958.0 
854.469482 594.0 
856.994019 116.0 
871.493652 1400.0 
872.478088 173.0 
917.150146 122.0 
END IONS

