BEGIN IONS
PEPMASS=424.221
CHARGE=1+
COMPOUNDNAME=ACTINONIN
LIBRARYQUALITY=3
SMILES=N/A
INCHIKEY=XJLATMLVMSFZBN-VYDXJSESSA-N
INCHI=InChI=1S/C19H35N3O5/c1-4-5-6-8-14(11-16(24)21-27)18(25)20-17(13(2)3)19(26)22-10-7-9-15(22)12-23/h13-15,17,23,27H,4-12H2,1-3H3,(H,20,25)(H,21,24)/t14-,15+,17+/m1/s1
MSLEVEL=2
SOURCE_INSTRUMENT=N/A-ESI-QFT
FILENAME=library_mgf.mgf
SEQ=*..*
IONMODE=positive
ORGANISM=MONA
NAME=ACTINONIN [M+K]+
PI=MoNA
DATACOLLECTOR=MoNA:VF-NPL-QEHF027315
PUBMED=N/A
SUBMITUSER=mwang87
TAGS=
SPECTRUMID=CCMSLIB00004720896
SCANS=27315
50.075497 0.211954 
50.346352 0.136662 
50.594917 0.224262 
51.143024 0.154387 
51.278419 0.13375 
51.778038 0.114582 
51.940212 0.162745 
52.171158 0.170873 
52.509846 0.15294 
52.52396 0.104062 
52.663647 0.13958 
52.772453 0.284586 
52.778751 0.195607 
53.320992 0.142763 
53.415638 0.19329 
53.5779 0.148511 
53.58181 0.111231 
53.91988 0.29316 
54.165668 0.105207 
54.412437 0.157155 
54.49509 0.076998 
54.523975 0.141587 
54.722801 0.128296 
54.84903 0.247776 
54.976444 0.195917 
55.054615 0.126558 
56.327599 0.232096 
56.673248 0.111 
56.674889 0.109086 
56.965015 100.0 
57.017281 0.098365 
57.070145 0.471789 
57.649822 0.110665 
58.544689 0.143796 
58.868565 0.130084 
59.182899 0.128665 
59.216915 0.138873 
59.273754 0.100595 
59.528618 0.16093 
59.581432 0.096892 
60.50473 0.16713 
60.540817 0.138128 
60.957989 0.23329 
61.025311 0.157561 
61.043259 0.082672 
61.575916 0.090448 
62.111713 0.156065 
62.351131 0.116703 
62.561798 0.101653 
62.717545 0.225897 
64.120422 0.239916 
64.265327 0.143894 
64.882553 0.169132 
64.951599 0.167483 
65.248032 0.169988 
65.515678 0.155894 
66.081055 0.201024 
66.396088 0.221555 
66.40062 0.111893 
67.249397 0.105423 
67.25444 0.130824 
67.502319 0.104538 
68.037598 0.120727 
68.464081 0.112287 
68.819038 0.081053 
68.824852 0.098275 
68.942619 0.317999 
69.21563 0.161845 
70.980301 0.320163 
71.080353 0.089787 
71.326683 0.139978 
71.951797 0.283453 
72.528076 0.136677 
72.808601 0.208287 
72.989838 0.136685 
73.107796 0.101572 
73.598602 0.121582 
73.969688 0.273911 
74.335175 0.103577 
74.975327 0.513146 
75.306221 0.098938 
75.422462 0.225588 
75.425957 0.253723 
75.559906 0.122326 
76.925484 0.14403 
77.479576 0.107885 
79.613899 0.119083 
79.635124 0.139277 
80.57299 0.149283 
80.850174 0.108188 
81.299721 0.130984 
81.619049 0.153871 
81.749062 0.24819 
81.95623 0.112618 
82.844498 0.243881 
83.975647 0.472543 
84.080673 0.314279 
84.537643 0.163707 
84.585938 0.146992 
84.900642 0.185476 
86.081657 0.1218 
86.199425 0.112471 
86.571884 0.146763 
89.46357 0.111183 
89.779434 0.267416 
91.74836 0.125871 
92.204956 0.153228 
92.363831 0.263402 
94.572433 0.22532 
94.899712 0.181056 
95.085487 0.133415 
96.033409 0.103027 
97.415924 0.161845 
97.605835 0.171155 
97.947411 0.1362 
98.474442 0.219365 
98.915771 0.156169 
99.404549 0.2228 
101.145264 0.112778 
102.411018 0.131051 
102.430473 0.14521 
103.177727 0.119944 
103.279335 0.129259 
103.597656 0.272224 
104.111717 0.241288 
104.523293 0.130787 
105.171806 0.213559 
105.897011 0.125025 
107.116989 0.204868 
107.281166 0.193565 
107.440147 0.138402 
107.736717 0.161944 
108.425056 0.154367 
108.54464 0.104633 
108.870995 0.201438 
109.024086 0.28304 
109.229919 0.183233 
109.248726 0.116725 
110.319008 0.124537 
111.300446 0.131664 
111.403214 0.169531 
111.426323 0.155476 
111.552277 0.122693 
112.134132 0.261182 
112.321083 0.157007 
112.929596 0.164425 
114.091232 0.107662 
114.977303 0.097937 
115.006851 0.156004 
115.758049 0.22743 
116.001839 0.179242 
116.169151 0.150151 
116.873047 0.188021 
116.963715 0.15355 
117.809792 0.150471 
120.805542 0.144574 
121.141838 0.159657 
121.148926 0.142496 
121.293159 0.218022 
122.430275 0.299311 
124.006653 0.288306 
126.022469 0.242142 
127.122055 0.125826 
127.308586 0.284935 
127.513733 0.125763 
127.770164 0.11612 
128.001511 0.155094 
128.037796 0.191501 
128.963654 1.335083 
130.968781 0.203299 
130.979248 0.545313 
131.339752 0.230145 
132.957031 0.085741 
134.555786 0.170903 
136.006607 0.436507 
136.96167 0.179592 
138.022491 3.461515 
138.878708 0.117844 
141.022369 0.384636 
142.017471 0.19602 
143.042603 0.245622 
143.426437 0.153933 
144.033295 0.214575 
145.936066 0.113593 
146.01297 0.146998 
146.974335 5.555817 
147.641235 0.184876 
147.867249 0.193187 
148.972656 0.139688 
152.478119 0.133186 
154.017365 6.339462 
156.03302 22.960745 
156.284973 0.116267 
157.791946 0.141845 
158.048721 4.424452 
158.426697 0.087977 
159.032806 0.152078 
159.808762 0.248831 
162.310516 0.13072 
163.660156 0.237183 
165.04039 0.110345 
167.407257 0.175369 
167.645981 0.170323 
168.033035 2.034162 
169.004608 0.218616 
169.75267 0.243224 
170.796204 0.21649 
172.00531 0.295141 
172.028 4.437812 
174.04361 12.261419 
176.059326 1.864699 
176.845657 0.147347 
178.341415 0.174169 
178.57785 0.144287 
179.825882 0.115472 
181.028564 1.810976 
182.757645 0.178768 
183.043564 0.172084 
183.056564 0.229601 
183.260132 0.081958 
184.027954 0.994629 
186.043793 1.463882 
186.921448 0.265281 
187.342743 0.176646 
188.940292 0.123064 
192.58345 0.105159 
193.367615 0.258443 
194.317856 0.228264 
195.915375 0.152329 
196.064758 0.338601 
198.07991 8.949213 
198.680817 0.212323 
199.038635 2.803546 
199.083008 0.186937 
199.333328 0.128026 
202.038147 0.205514 
205.294998 0.235817 
206.559402 0.273788 
207.225815 0.200113 
207.647491 0.202919 
210.07988 0.347072 
210.273224 0.214498 
216.090591 12.788896 
216.303604 0.183965 
217.932571 0.198994 
217.94899 0.168272 
219.728546 2.131764 
219.732376 2.136394 
219.748917 0.162181 
220.375305 0.144928 
222.899826 0.124316 
223.137924 0.14434 
226.074768 1.208773 
228.090347 1.067104 
229.121902 0.146045 
229.135712 0.170654 
230.106262 0.322911 
233.891083 0.140044 
234.101456 1.103036 
234.152527 0.135683 
237.097977 0.184236 
238.110825 0.398045 
239.844757 0.148098 
239.999161 0.133528 
240.9077 0.149205 
241.085312 0.178055 
244.085205 0.408901 
252.048477 0.136124 
259.096283 4.236713 
260.100372 0.208794 
263.63031 0.210413 
264.114227 0.132313 
267.999603 0.155897 
270.13739 1.264708 
274.695343 0.232244 
276.886353 0.19933 
277.106598 3.298278 
285.527496 0.182838 
288.789276 0.125079 
294.555634 0.229449 
296.393616 0.130119 
296.839172 0.260413 
308.138885 0.197444 
310.289307 0.153303 
324.559937 0.151735 
326.382324 0.237957 
327.493408 0.180801 
331.756714 0.251653 
339.155151 0.249446 
339.693024 0.159832 
345.710693 0.16703 
350.481934 0.147872 
350.664612 0.247212 
352.523682 0.170403 
353.520721 0.29179 
354.052948 0.124969 
356.616821 0.249785 
360.760345 0.221401 
363.37677 0.234685 
371.095123 0.21429 
381.62265 0.158569 
403.415558 0.215253 
405.89859 0.123963 
413.294037 0.136874 
415.828003 0.169659 
415.851227 0.127872 
432.371338 0.174757 
435.68924 0.26047 
436.014984 0.243863 
439.142242 0.091493 
442.126678 0.252349 
END IONS

