BEGIN IONS
PEPMASS=320.126
CHARGE=1+
COMPOUNDNAME=Isocycloheximide
LIBRARYQUALITY=3
SMILES=N/A
INCHIKEY=YPHMISFOHDHNIV-UHFFFAOYSA-N
INCHI=InChI=1S/C15H23NO4/c1-8-3-9(2)15(20)11(4-8)12(17)5-10-6-13(18)16-14(19)7-10/h8-12,17H,3-7H2,1-2H3,(H,16,18,19)
MSLEVEL=2
SOURCE_INSTRUMENT=N/A-ESI-QFT
FILENAME=library_mgf.mgf
SEQ=*..*
IONMODE=positive
ORGANISM=MONA
NAME=Isocycloheximide [M+K]+
PI=MoNA
DATACOLLECTOR=MoNA:VF-NPL-QEHF023908
PUBMED=N/A
SUBMITUSER=mwang87
TAGS=
SPECTRUMID=CCMSLIB00004714971
SCANS=23908
50.052788 0.008968 
51.320999 0.047339 
51.375656 0.04138 
51.382534 0.011316 
51.715454 0.047651 
52.134541 0.011791 
52.38427 0.016565 
53.122665 0.013391 
54.384377 0.012837 
55.018246 0.04489 
55.054562 0.556217 
55.55024 0.009778 
55.669689 0.009242 
55.779171 0.018473 
56.049824 0.25254 
56.370121 0.012875 
56.87162 0.01028 
56.965103 0.014862 
57.029022 0.008932 
57.033825 0.060627 
57.070198 1.530068 
57.639946 0.040917 
57.962723 0.015465 
58.004642 0.010699 
58.065449 0.081403 
58.498795 0.009576 
58.58128 0.042501 
59.049469 0.116178 
59.736874 0.017224 
60.04467 0.178864 
60.067116 0.040611 
60.48201 0.040921 
60.529949 0.038894 
61.010925 20.267513 
61.242702 0.033295 
62.010338 0.012233 
62.014221 0.155794 
62.0187 0.630799 
62.072178 0.04809 
62.958458 0.035139 
62.990185 0.013623 
63.006645 0.267165 
63.026466 0.019543 
64.584679 0.023187 
66.36161 0.01282 
67.05439 1.415977 
68.049492 0.013824 
68.942848 0.065209 
68.956673 0.011601 
69.033638 0.317319 
69.069992 1.548126 
70.065239 0.769488 
70.759857 0.042319 
71.04924 0.506435 
71.085617 0.53961 
72.044548 0.029042 
72.080879 0.142292 
72.233383 0.045126 
72.726608 0.025689 
72.937218 0.697842 
72.939163 0.01114 
73.028496 0.054467 
73.771141 0.019291 
74.059982 0.015624 
75.026382 0.038319 
75.04409 0.111619 
75.226852 0.009893 
76.150963 0.013827 
78.013481 0.171876 
78.237663 0.011306 
78.96714 0.241392 
79.021278 3.720616 
79.054306 0.299076 
79.087814 0.026287 
79.834991 0.010452 
80.049553 0.194014 
81.033585 0.04295 
81.0672 0.014533 
81.069931 2.392022 
82.065178 0.415282 
82.073311 0.012349 
83.049179 0.19548 
83.072975 0.068823 
83.085548 1.209212 
84.044334 0.065515 
84.078102 0.04233 
84.080849 7.917388 
84.937675 0.628435 
85.028534 0.103414 
85.039703 0.846702 
85.064896 0.391267 
85.084152 0.718682 
85.10125 0.111554 
85.937881 0.017778 
85.979828 0.216753 
86.060059 0.089438 
86.096504 0.339207 
87.044075 0.21296 
88.075966 0.018244 
88.406807 0.011782 
89.05983 0.932976 
90.947823 0.361136 
91.054337 0.326941 
92.982796 1.415635 
93.036934 0.192608 
93.069977 1.03726 
94.787605 0.047477 
95.012817 0.056608 
95.049179 0.566262 
95.082108 0.013971 
95.085564 3.0509 
95.276154 0.04535 
96.044472 2.318345 
96.080765 0.18816 
96.088928 0.045701 
96.828529 0.042449 
97.028557 0.356456 
97.064911 0.213333 
97.101265 0.45111 
97.591652 0.025456 
98.060188 0.133067 
99.044144 0.472883 
99.055328 0.204533 
99.080521 0.937312 
99.945236 0.017196 
100.039185 0.012825 
100.075729 0.831914 
101.059807 0.165141 
102.091431 1.570544 
102.109131 0.044236 
102.948227 2.078327 
103.022087 0.015502 
103.631271 0.0087 
103.948311 0.071959 
104.483177 0.024244 
104.983231 0.011415 
105.03376 0.041517 
105.069962 1.116574 
106.073235 0.014226 
106.983582 0.022851 
106.998383 0.256803 
107.049149 0.274869 
107.085625 1.586315 
108.044502 0.066059 
108.080643 0.025414 
108.511108 0.031638 
108.958473 0.023244 
109.064857 0.459973 
109.101257 1.78285 
110.060127 0.430916 
111.044235 0.28959 
111.080536 0.36114 
111.116806 0.061402 
112.039345 0.775375 
112.075722 3.188821 
113.023262 0.014148 
113.059731 0.250138 
113.079269 0.031275 
114.091446 3.031791 
114.449745 0.035663 
114.948151 0.305155 
115.038971 0.07764 
116.135429 0.010655 
116.963837 0.843123 
117.070053 0.070591 
117.964195 0.025399 
118.943169 0.104651 
119.08564 0.820438 
119.757118 0.036543 
119.951065 0.048857 
120.080894 0.051401 
120.958908 0.237796 
120.96315 0.008816 
121.028008 0.051747 
121.064789 0.522933 
121.101288 1.08298 
122.060219 0.078943 
122.096298 0.037843 
122.104477 0.025595 
123.044113 0.062999 
123.080559 0.918628 
123.116837 0.826034 
124.039246 0.015344 
124.075821 0.078518 
124.69471 0.016609 
125.059814 0.054825 
125.071014 0.0503 
125.096207 0.242455 
126.055046 0.462112 
127.039062 0.4865 
127.075432 0.062352 
127.11174 0.050253 
128.070648 0.292656 
128.107117 0.174843 
128.96376 0.459016 
129.069962 0.014207 
129.591492 0.04215 
130.979401 0.249517 
131.085556 0.180388 
131.950943 0.129689 
132.9608 0.839613 
133.064667 0.062512 
133.085556 0.009373 
133.101227 0.635351 
133.959274 2.695974 
133.965515 0.032339 
134.012756 0.014437 
134.06041 0.011875 
134.096298 0.019746 
134.956177 0.910053 
134.974182 0.036492 
134.979172 0.012074 
135.043854 0.027529 
135.055313 4.22952 
135.080536 0.4229 
135.09137 0.011532 
135.116928 0.621217 
136.039185 0.043358 
136.058746 0.082301 
136.07576 0.046279 
136.112091 0.011237 
137.05986 0.077259 
137.096161 0.383573 
137.132523 0.074334 
138.055084 0.162553 
138.091522 0.024012 
138.128296 0.042724 
139.075348 0.088429 
139.112122 0.061795 
140.034332 0.0273 
140.070572 0.146507 
140.959244 0.037609 
141.091095 0.038649 
142.086395 0.121813 
142.979172 0.247292 
143.070709 0.01675 
143.08551 0.267247 
143.951004 0.024055 
144.044769 0.17854 
144.080688 0.012809 
144.95874 0.040584 
144.979095 0.015053 
144.995056 0.169745 
145.064896 0.740875 
145.101181 0.374524 
145.966858 0.023433 
146.060318 0.133256 
146.785172 0.017662 
146.974472 1.789704 
147.044067 0.058528 
147.08046 0.203497 
147.117035 0.292961 
147.974701 0.08828 
148.03923 0.041698 
148.075684 0.042782 
148.120483 0.018011 
148.955826 3.469664 
148.972046 0.373767 
148.989914 0.020394 
149.059464 0.143474 
149.070694 0.015204 
149.096207 0.322788 
149.132477 0.130163 
149.9543 6.674164 
150.055176 0.116483 
150.273163 0.047959 
150.951202 7.649454 
150.9711 0.41281 
151.038818 0.016593 
151.075531 0.143196 
151.11174 0.135055 
151.904434 0.012879 
151.969971 0.2446 
152.03392 0.033421 
152.070618 0.208899 
152.951614 0.033803 
152.966797 0.254619 
152.989136 0.020653 
153.054489 0.018561 
153.09108 0.034816 
154.049957 0.224779 
154.947037 0.018818 
154.967316 0.012641 
155.022232 0.009065 
155.070038 0.016059 
155.106415 0.011026 
155.142838 0.04152 
156.065689 0.145969 
157.049408 0.009516 
157.101181 0.89487 
158.060165 0.041215 
158.104401 0.044935 
158.944931 0.009041 
158.974258 0.089679 
159.08046 0.367751 
159.116791 0.82674 
159.48996 0.00897 
159.982178 0.017252 
160.028168 0.015453 
160.039108 0.020631 
160.075668 0.095667 
160.942123 0.182803 
160.961716 0.009497 
160.971756 0.017193 
160.990082 0.604291 
161.05986 0.050155 
161.096008 0.171227 
161.132645 0.207889 
161.961029 0.009445 
162.054947 0.432159 
162.067947 0.028518 
162.091492 0.067257 
162.336029 0.033832 
162.941437 0.080601 
162.950256 0.010215 
162.971436 8.263991 
163.005829 0.193085 
163.075516 0.229867 
163.111847 0.085943 
163.14856 0.040777 
163.969681 5.017425 
164.016739 0.030691 
164.034119 0.054507 
164.070633 0.057374 
164.107162 0.065236 
164.1436 0.011509 
164.966782 0.526031 
165.036682 0.023272 
165.054535 0.045599 
165.090179 0.247854 
165.939606 0.037743 
166.049988 0.13127 
166.08638 0.144913 
166.122528 0.047353 
166.159027 0.147895 
166.928391 0.417344 
166.966415 1.012932 
167.070389 0.028209 
167.081436 1.043639 
167.107086 0.018404 
167.118088 0.010176 
167.956436 0.014806 
167.96489 1.890102 
167.973663 0.30105 
168.065582 0.470135 
168.138443 0.02285 
168.907425 0.025124 
168.961853 3.024585 
169.016251 0.02385 
169.101257 0.160596 
169.915253 0.06488 
170.012375 0.014997 
170.081375 0.038976 
170.961945 0.106439 
171.080643 0.180089 
171.116776 0.26102 
171.138077 0.102522 
172.147827 0.017689 
172.753006 0.015657 
172.990021 0.070644 
173.010895 0.021386 
173.096191 0.601308 
173.13269 0.343435 
174.054886 0.082859 
174.091629 0.287963 
175.075607 0.29508 
175.086853 0.791743 
175.111801 0.245096 
175.147919 0.011333 
175.706482 0.048836 
176.070679 0.088517 
176.107178 0.03491 
176.776917 0.048508 
177.005646 0.157121 
177.042511 0.00979 
177.054764 0.264408 
177.06601 0.058203 
177.07399 0.020426 
177.090897 0.134151 
177.10231 0.062156 
177.127411 0.216748 
177.422592 0.041969 
177.994095 0.04585 
178.048553 0.337745 
178.086212 0.032309 
178.122391 0.013661 
178.948761 0.086364 
179.001068 0.064391 
179.070206 0.0239 
179.106445 0.051447 
179.946793 0.017681 
180.011765 0.04313 
180.065674 0.056803 
180.102631 0.015471 
180.926041 0.137405 
180.943939 1.461357 
180.962204 0.01624 
180.98201 10.744267 
181.123337 0.01528 
181.786224 0.045333 
181.980347 9.342816 
181.997055 0.041746 
182.923416 0.12246 
182.942169 0.063845 
182.977432 0.650561 
183.065598 0.011115 
183.080582 0.081352 
183.116943 0.121277 
183.96936 0.095119 
184.005432 0.054357 
184.042435 0.01079 
184.061462 0.014711 
184.833755 0.044443 
184.939194 0.433336 
185.026749 0.00968 
185.096115 1.956572 
185.131989 0.036949 
185.674408 0.04172 
185.964508 0.048096 
185.984802 1.960152 
186.091232 0.066187 
186.100113 0.012658 
186.936188 0.033448 
186.96904 0.091606 
186.988846 0.025601 
187.075577 0.383936 
187.111771 1.041577 
188.00032 0.018736 
188.022293 0.01454 
188.070831 0.297911 
188.107056 0.128758 
188.115738 0.025164 
188.974136 0.072463 
189.005737 0.157274 
189.091156 1.052567 
189.127457 0.095596 
189.163727 0.04345 
189.876877 0.046953 
190.032684 0.095754 
190.050079 0.089326 
190.086288 0.029879 
190.122101 0.017543 
190.872635 0.058565 
191.0009 0.139429 
191.021072 0.069536 
191.106857 0.056998 
191.117752 0.161603 
191.143112 0.073725 
191.179657 0.079893 
191.840469 0.038648 
191.880814 1.224363 
192.01149 0.410999 
192.029343 0.031782 
192.064972 0.23813 
192.101974 0.034423 
192.88913 0.049962 
192.944534 0.014721 
192.961761 0.642515 
192.980713 0.013159 
193.016357 0.01233 
193.085754 0.013566 
193.122345 0.010915 
193.831726 0.04554 
194.044678 0.073039 
194.08223 0.040375 
194.0923 0.771421 
194.100784 0.254618 
194.943329 0.349456 
194.960648 0.017261 
195.030945 0.012962 
195.064987 0.01306 
196.060059 0.015742 
196.938873 0.330173 
196.959137 0.052006 
197.011185 0.032071 
197.02739 0.019271 
197.096146 0.13213 
198.091187 0.061985 
198.900482 1.025103 
198.937027 0.018151 
198.954636 1.313597 
198.992462 0.020207 
199.005463 0.200936 
199.075455 0.757381 
199.111954 0.402035 
199.132782 0.530976 
199.168365 0.015188 
199.954559 0.013111 
199.990707 0.03577 
200.000687 0.384616 
200.070755 0.028819 
200.107071 0.339647 
200.880371 0.071861 
200.897324 0.011284 
200.951797 0.016095 
200.984467 0.074027 
201.091324 0.856239 
201.101349 0.055514 
201.111801 0.088162 
201.127609 0.419169 
201.940582 0.011206 
201.979721 0.031787 
202.049881 0.095953 
202.086166 0.437268 
202.122711 0.272175 
202.942245 0.2344 
202.982346 1.151939 
203.033386 0.026991 
203.05304 0.22576 
203.07045 0.263666 
203.081039 0.050353 
203.09256 0.05688 
203.106766 0.907355 
203.996201 0.016148 
204.02948 0.016983 
204.066071 0.088171 
204.101974 0.125668 
204.138931 0.032182 
205.086151 0.083148 
205.12265 0.421452 
206.027908 0.020777 
206.044479 0.041521 
206.081345 0.250492 
206.117615 0.109063 
206.868088 0.054484 
206.977768 0.087435 
207.150024 0.015735 
207.876068 0.404245 
208.060745 0.19917 
208.096481 0.069825 
208.883667 1.789629 
208.959167 0.967158 
209.164886 0.176177 
209.891876 1.792878 
209.946793 0.032256 
209.985062 1.516294 
210.022781 0.070822 
210.075699 0.014262 
210.091385 0.071732 
210.643433 0.026143 
210.900024 0.0525 
210.955154 0.075069 
210.972656 0.223592 
211.005981 0.013846 
211.075714 0.056722 
211.086823 0.017335 
211.112442 0.041133 
211.90976 0.055643 
212.023224 0.28773 
212.107162 0.163343 
212.916443 0.21446 
212.933685 0.092447 
212.954117 0.029555 
212.972122 0.014985 
213.091263 0.542387 
213.127075 0.023574 
213.904831 0.05789 
214.086487 1.039642 
214.097839 0.021174 
214.122955 0.032106 
214.878967 0.986044 
214.893219 0.452834 
215.035873 0.032598 
215.070541 0.728917 
215.089539 0.366499 
215.10701 0.505292 
216.065521 0.079464 
216.101944 1.469625 
216.138107 0.038145 
216.888809 0.244889 
216.91098 0.165157 
216.992554 0.015304 
217.086197 0.271988 
217.122513 0.385093 
218.081375 0.25981 
218.117767 0.125075 
218.154297 0.046953 
218.89151 0.010868 
218.904099 0.13806 
219.032043 0.016855 
219.101913 0.129446 
219.138351 0.120837 
219.174667 0.369246 
219.684921 0.033773 
220.04277 0.353441 
220.060822 0.03695 
220.097382 0.138125 
220.133179 0.116246 
220.903442 0.175963 
220.993256 0.027727 
221.046219 0.016336 
221.081238 0.015607 
221.153732 0.035325 
222.021179 0.044177 
222.041428 0.012026 
222.076462 0.027217 
222.898834 1.094584 
224.000412 0.265766 
224.058456 0.01266 
224.878448 0.114176 
225.021774 0.030013 
225.05719 0.013703 
225.886856 0.437916 
225.926941 0.03309 
226.086685 0.176459 
226.122726 0.027891 
226.894806 0.158654 
226.932541 0.252916 
226.969742 0.094586 
227.000397 0.012049 
227.036133 0.061458 
227.070404 0.604757 
227.106689 0.198575 
227.118134 0.015983 
227.901443 0.144183 
227.921356 0.274779 
227.968018 0.03216 
227.99559 5.962828 
228.101974 0.492495 
228.138809 0.035476 
228.85672 0.016923 
228.911423 0.234379 
228.928894 0.106868 
228.998581 0.202896 
229.086472 0.69942 
229.097534 0.064139 
229.122299 0.840373 
229.133102 0.015204 
229.896225 2.673732 
229.920517 0.281587 
230.011597 0.014277 
230.033783 1.607863 
230.081177 0.175437 
230.117508 0.641368 
230.137589 0.082106 
230.867767 0.037736 
230.899261 0.068552 
230.918701 0.049589 
230.928925 0.037744 
230.943649 0.039765 
231.064789 0.018497 
231.077469 0.02208 
231.101685 1.227783 
231.113083 0.283411 
231.13884 0.013677 
231.896027 0.015001 
231.915573 0.124573 
231.92691 0.688048 
232.084 0.023526 
232.096695 0.176021 
232.133255 0.209496 
232.883881 1.221993 
232.921692 0.015801 
232.94635 0.015522 
233.09137 0.055089 
233.117188 0.196285 
233.153397 0.017753 
233.891769 0.976945 
234.076691 0.043224 
234.11264 0.224279 
234.148865 0.05637 
234.899445 7.948037 
235.900497 0.787654 
236.0923 0.033946 
236.898575 0.05207 
237.887268 0.267698 
238.016998 0.082291 
238.08725 0.035729 
238.9142 0.504024 
239.036957 0.010555 
239.07074 0.179173 
240.101685 0.138047 
240.895721 0.01734 
240.909378 1.618247 
240.928833 1.638883 
240.948837 0.755297 
241.052261 0.039511 
241.085876 0.948679 
241.932083 0.010109 
241.947296 0.207121 
242.011368 0.383912 
242.047607 0.013018 
242.068314 0.014765 
242.081573 0.131976 
242.104889 1.095138 
242.117767 0.284632 
242.91153 1.243675 
242.930374 0.475005 
242.944366 14.242341 
243.031555 0.012319 
243.067932 0.131151 
243.087616 0.019688 
243.101395 0.511033 
243.113495 0.178571 
243.909622 1.011752 
243.926773 0.301399 
243.946854 0.358731 
244.096802 0.580124 
244.120789 0.047806 
244.133301 0.48937 
244.904114 0.024135 
244.920883 0.100991 
244.933411 0.016228 
244.996796 0.240651 
245.00975 0.33199 
245.046661 0.013024 
245.063828 0.014949 
245.080475 0.097258 
245.09227 0.022075 
245.116959 0.781163 
245.911133 0.192765 
245.93158 1.357241 
246.006165 6.815732 
246.076035 0.018313 
246.112534 0.751609 
246.149094 0.656307 
246.898697 0.279487 
246.939148 0.188408 
247.00914 0.4186 
247.08139 0.019959 
247.096527 1.891394 
247.132736 0.538054 
247.90683 2.103552 
248.044357 0.030017 
248.091217 0.089035 
248.128418 0.481946 
248.87851 2.135278 
248.914932 0.035321 
249.878967 0.179252 
249.90712 0.202992 
250.880371 0.035565 
250.894272 3.99621 
251.894684 0.300833 
252.894485 0.171863 
252.909943 0.288948 
253.704361 0.040273 
253.902176 0.623249 
254.116959 0.013513 
254.902451 0.150239 
255.066238 0.018426 
255.897629 0.892095 
256.097015 0.378725 
256.898712 0.019428 
257.080078 0.035746 
257.093048 0.12092 
257.116394 0.016962 
257.129211 0.018795 
257.89563 0.559363 
257.988464 1.203477 
258.099854 0.074716 
258.112518 1.431045 
258.133698 0.061189 
258.148438 0.144613 
258.726501 0.045806 
258.866547 0.086425 
258.899597 0.944626 
258.939758 4.683039 
258.95929 2.426591 
259.061676 0.305668 
259.073242 0.105871 
259.096161 1.795241 
259.131439 0.052167 
259.145111 0.019674 
259.901245 0.040047 
259.943024 0.187821 
259.958069 5.048944 
260.022003 0.140436 
260.058319 0.282111 
260.07785 0.063131 
260.091797 0.121348 
260.128052 1.943458 
260.162933 0.013999 
260.9021 0.165506 
260.921448 1.155449 
260.939636 2.254808 
260.954773 36.838589 
261.042389 0.542994 
261.056763 0.014254 
261.075134 0.013314 
261.087677 0.028394 
261.111664 0.902377 
261.130981 0.233606 
261.160156 0.071614 
261.886902 0.013065 
261.905853 0.016006 
261.920105 2.11974 
261.937408 4.652941 
261.956238 1.976569 
261.980164 0.016793 
262.073792 0.038062 
262.09079 0.076959 
262.107635 0.512267 
262.14389 1.914391 
262.914124 1.267945 
262.930573 0.753254 
263.020325 0.166737 
263.039246 0.06789 
263.075073 0.014551 
263.103668 0.027387 
263.127563 0.276621 
263.175629 0.662381 
263.912903 0.121776 
263.929596 0.014628 
263.962738 0.128496 
264.016541 3.34277 
264.086975 0.202864 
264.159424 0.242634 
264.909485 4.173436 
264.929199 0.015807 
265.019714 0.1375 
265.91214 0.210381 
266.889191 0.810247 
266.912476 0.012131 
267.889435 0.029071 
268.904877 0.17322 
269.85791 0.012175 
270.112762 0.233451 
271.04303 0.015906 
271.071686 0.066776 
271.095581 0.739242 
271.145325 0.014869 
271.913757 0.012465 
272.091095 0.074595 
272.128174 0.849593 
272.938202 0.039684 
272.955444 0.034381 
273.111816 0.59736 
273.908752 0.128408 
274.107788 0.108763 
274.126953 0.117675 
274.14325 0.078613 
274.159271 0.054174 
274.894135 1.582338 
274.912354 0.03254 
274.970642 0.09122 
275.007111 1.96984 
275.103088 0.167021 
275.127625 0.092093 
275.175262 0.157112 
275.902161 0.79677 
275.998596 0.815778 
276.108002 0.014742 
276.124329 0.468684 
276.15802 0.098041 
276.172455 0.063592 
276.876587 1.27221 
276.910065 4.677148 
276.93576 0.021787 
277.004242 0.045126 
277.109344 0.014311 
277.143402 0.252627 
277.903931 0.401669 
277.922913 1.163546 
277.968506 0.404081 
278.070679 0.015862 
278.106232 0.01498 
278.139404 0.013528 
278.903137 0.178623 
278.927612 0.167811 
278.949493 0.014374 
278.965424 0.593785 
279.097809 0.047818 
279.897827 1.617789 
279.917358 0.566728 
279.947632 0.616929 
279.990143 0.01887 
280.813293 0.341941 
280.898895 0.074985 
280.924347 0.836689 
281.820923 0.023788 
281.896393 0.259682 
281.912231 0.322596 
282.91983 2.795767 
283.062225 0.022598 
283.922791 0.105454 
283.970306 0.012542 
285.160767 0.038097 
286.109039 0.138773 
286.126892 0.843657 
286.143433 0.182561 
287.102966 0.454502 
287.126984 0.067103 
287.998993 1.029553 
288.123108 2.488833 
288.909668 2.032863 
288.929077 0.014414 
289.001709 0.016097 
289.06485 0.022622 
289.081665 0.516593 
289.119049 0.616736 
289.155212 0.212578 
289.911987 0.116061 
290.085144 0.014205 
290.102661 0.065651 
290.138824 0.62137 
291.897766 0.016099 
291.919189 0.069524 
292.905273 0.074743 
292.941132 0.14216 
293.017609 0.368608 
293.096649 0.098414 
293.186493 0.114549 
294.009277 0.074893 
294.07785 0.0325 
294.137482 0.336455 
294.828705 0.194415 
294.920807 0.11839 
294.940582 0.014112 
295.121063 0.070341 
295.1409 0.027252 
295.91333 0.065164 
295.929413 0.255973 
296.807922 0.012923 
296.911957 0.043639 
297.816345 0.724977 
297.907928 0.259046 
297.928802 0.082375 
298.81488 0.01276 
298.909851 0.01668 
299.81366 0.012211 
299.90741 0.026124 
300.068237 0.033344 
301.070892 0.035708 
301.120148 0.087827 
301.155579 0.048939 
301.288116 0.013776 
302.103088 0.249278 
302.137024 0.284143 
302.211212 0.050448 
302.248016 0.135885 
302.947968 0.086809 
303.080627 0.10327 
303.098083 0.401062 
303.121277 0.792269 
303.170837 0.278134 
304.119873 0.136099 
304.172668 0.054397 
304.925385 0.181 
305.015259 0.155553 
305.084412 0.0751 
305.138214 0.014163 
305.923401 0.284895 
306.009369 4.7357 
306.041046 0.013849 
306.066406 0.311841 
306.91983 6.788744 
306.938293 0.024724 
307.012115 0.429872 
307.922577 0.371864 
308.006989 0.037938 
308.920593 0.157116 
309.943268 0.012767 
310.915649 0.131012 
311.831635 0.027252 
311.869751 0.085728 
312.149658 0.01507 
312.838989 2.476073 
313.839386 0.07795 
316.063812 0.036319 
318.079712 0.074223 
318.167786 100.0 
318.279388 0.448962 
318.942169 0.018446 
319.075409 0.623554 
319.135101 3.939357 
319.151642 61.601151 
319.171753 50.158905 
319.202423 0.298057 
319.238983 0.026862 
319.275146 0.620754 
319.29953 0.075431 
319.836639 0.135216 
320.079956 0.018523 
320.114594 0.257498 
320.154022 13.72254 
320.175323 5.532687 
320.20105 0.151963 
320.222351 0.200827 
320.258759 0.542784 
320.277832 0.050439 
320.295319 1.27269 
320.903046 0.015481 
320.92215 0.073146 
321.045349 0.015363 
321.090271 1.261365 
321.127289 0.636756 
321.157471 1.97049 
321.184204 1.760718 
321.218506 0.202144 
321.254089 0.130655 
322.09198 0.02663 
322.128632 0.083084 
322.164886 0.46417 
322.23764 0.239166 
322.824219 0.092273 
322.935516 0.016059 
324.019928 0.018389 
324.930908 2.486989 
325.844635 0.014566 
325.932495 0.146224 
326.818878 0.20991 
326.930695 0.029557 
327.82608 0.688357 
334.075439 0.017558 
336.090546 0.049362 
336.839996 0.549675 
337.092133 0.034892 
337.844604 0.029681 
338.127594 0.992973 
339.13208 0.015295 
339.827484 0.036598 
344.829529 1.632218 
END IONS

