BEGIN IONS
PEPMASS=1253.62
CHARGE=1+
COMPOUNDNAME=DACTINOMYCIN
LIBRARYQUALITY=3
SMILES=N/A
INCHIKEY=RJURFGZVJUQBHK-IIXSONLDSA-N
INCHI=InChI=1S/C62H86N12O16/c1-27(2)42-59(84)73-23-17-19-36(73)57(82)69(13)25-38(75)71(15)48(29(5)6)61(86)88-33(11)44(55(80)65-42)67-53(78)35-22-21-31(9)51-46(35)64-47-40(41(63)50(77)32(10)52(47)90-51)54(79)68-45-34(12)89-62(87)49(30(7)8)72(16)39(76)26-70(14)58(83)37-20-18-24-74(37)60(85)43(28(3)4)66-56(45)81/h21-22,27-30,33-34,36-37,42-45,48-49H,17-20,23-26,63H2,1-16H3,(H,65,80)(H,66,81)(H,67,78)(H,68,79)/t33-,34-,36+,37+,42-,43-,44+,45+,48+,49+/m1/s1
MSLEVEL=2
SOURCE_INSTRUMENT=N/A-ESI-QFT
FILENAME=library_mgf.mgf
SEQ=*..*
IONMODE=negative
ORGANISM=MONA
NAME=DACTINOMYCIN [M-H]-
PI=MoNA
DATACOLLECTOR=MoNA:VF-NPL-QEHF002890
PUBMED=N/A
SUBMITUSER=mwang87
TAGS=
SPECTRUMID=CCMSLIB00004693953
SCANS=2890
87.18663 0.043822 
87.491638 0.053649 
88.039032 1.045774 
88.061478 0.036229 
88.712822 0.035112 
89.098923 0.041415 
89.582611 0.044234 
89.82634 0.027646 
90.553436 0.050399 
90.651398 0.036893 
90.748352 0.041253 
91.416206 0.039759 
91.938232 0.041633 
91.963913 0.040928 
92.93837 0.04247 
93.064484 0.04206 
93.086807 0.039363 
93.351227 0.039856 
94.452782 0.036673 
94.942085 0.031697 
95.075752 0.039169 
96.044189 0.037187 
96.467484 0.045712 
97.04232 0.044469 
97.334412 0.039375 
100.039062 2.125102 
100.113953 0.041284 
100.253883 0.030028 
100.698212 0.034963 
100.738457 0.028313 
100.992035 0.043137 
101.133705 0.039376 
102.154709 0.045535 
103.537849 0.039009 
106.881317 0.041201 
107.412674 0.049759 
108.044121 4.837045 
108.235016 0.029108 
108.74604 0.042942 
110.059685 0.075128 
110.249138 0.037707 
112.015953 0.041784 
112.039162 1.339454 
112.352211 0.040954 
113.034561 0.050583 
113.071091 0.038189 
113.23967 0.041998 
113.259682 0.045795 
113.310143 0.042882 
113.681717 0.035998 
113.692429 0.038367 
114.054787 0.770878 
114.287796 0.039912 
115.012962 0.041553 
115.086594 0.078684 
115.827629 0.036842 
120.757614 0.040842 
122.305199 0.040373 
122.968254 0.037989 
124.026703 0.156991 
124.039162 0.883538 
124.370453 0.043378 
125.034401 0.713073 
125.070747 0.799535 
125.132118 0.047649 
125.186783 0.03463 
125.63607 0.040639 
125.702721 0.03991 
126.054787 2.107422 
126.241554 0.041828 
126.368752 0.045754 
126.572754 0.042959 
127.086372 1.19067 
127.533066 0.031756 
129.008438 0.032315 
129.626114 0.050359 
130.086136 50.410957 
131.089508 1.340165 
132.622314 0.046087 
135.504013 0.028679 
136.039169 0.242598 
136.900909 0.028603 
137.107224 0.173186 
138.054749 0.215267 
138.582169 0.042541 
139.05014 5.788752 
140.546204 0.03999 
141.065826 3.099901 
141.445999 0.046145 
145.908508 0.029254 
149.070648 0.053389 
150.042282 0.282663 
150.054749 0.030165 
151.050232 0.711399 
151.086472 0.154099 
152.058105 0.696192 
152.721924 0.030747 
153.065933 1.251614 
153.101974 0.042924 
154.049667 0.062792 
156.793701 0.034195 
156.803619 0.047132 
157.439011 0.054409 
158.394424 0.031257 
160.325623 0.048553 
162.902374 0.034251 
164.070709 11.391305 
165.06601 0.249232 
165.074081 0.04416 
165.102539 0.041657 
166.087219 0.038937 
166.230164 0.046346 
167.045242 0.943552 
167.081604 22.184845 
168.084442 0.115935 
169.09726 0.23854 
169.338562 0.033282 
169.946579 0.030411 
172.058426 0.036395 
173.411499 0.043231 
173.828796 0.045378 
175.05101 0.047049 
175.505768 0.034555 
177.102768 0.307862 
179.045273 1.23414 
179.081818 0.885477 
180.101974 1.918761 
181.097351 7.489299 
183.113068 3.135923 
185.092331 2.433086 
185.707748 0.029172 
186.06282 0.041443 
186.657913 0.058495 
187.652359 0.037367 
189.06662 0.046189 
189.102188 0.274046 
191.118378 0.03231 
193.097488 9.317168 
194.102051 0.052231 
195.076782 0.476626 
195.113098 70.034981 
196.116516 4.176276 
199.198517 0.039735 
201.123627 0.408636 
201.408325 0.045669 
203.081802 0.465278 
203.125778 0.04771 
204.077179 2.215314 
205.213348 0.038949 
205.34613 0.041452 
207.076874 14.808121 
207.828247 0.03754 
208.08049 0.190326 
208.750992 0.028299 
209.092209 0.277725 
211.14444 1.531639 
213.256516 0.04443 
215.199295 0.041735 
217.048965 0.045574 
217.097702 5.767739 
221.392212 0.049134 
223.10878 0.078897 
223.243286 0.037435 
225.421844 0.046913 
226.119659 0.045638 
226.156296 0.097571 
231.149902 0.527142 
232.059586 0.040832 
232.072906 0.094818 
234.15416 0.031443 
237.51355 0.044318 
239.082169 2.422197 
239.600632 0.028313 
242.009918 0.041456 
243.410797 0.030893 
247.791092 0.032426 
248.140244 5.722787 
248.164536 0.031547 
248.179367 0.030216 
249.124496 0.054108 
250.118134 0.042373 
250.155579 0.202824 
252.147888 0.043436 
253.097916 0.150896 
254.18718 0.583441 
262.056152 0.03281 
263.163208 0.051959 
264.077789 1.471499 
264.135437 1.278354 
265.885559 0.043526 
266.150879 12.061392 
267.154266 0.133068 
267.910645 0.043985 
268.156677 0.030909 
277.098267 0.13529 
278.093506 0.172503 
278.15097 1.01158 
279.113647 10.049514 
280.117767 0.392906 
280.166351 55.215389 
281.092834 0.064104 
281.170135 5.259963 
281.328674 0.045738 
282.088562 0.559943 
283.073151 0.080483 
283.095215 0.086323 
283.817139 0.042081 
284.103912 0.097728 
284.161377 1.827501 
284.374725 0.040435 
284.684143 0.044142 
288.171875 0.783271 
289.08609 0.1779 
289.106232 0.150074 
290.137665 0.048261 
292.109192 2.734404 
292.129211 0.627894 
293.079712 0.858794 
294.087585 0.130443 
294.145844 1.491684 
298.176941 0.731145 
300.360687 0.040832 
300.749237 0.03804 
301.310638 0.027839 
302.911774 0.041876 
304.109039 0.904493 
304.1427 1.147203 
304.166962 0.040847 
304.20285 3.293971 
305.09317 0.457285 
306.127167 0.046011 
306.181824 0.049219 
307.109863 0.047608 
307.176666 0.045067 
308.067963 0.288122 
308.104706 0.044667 
309.07489 0.044974 
309.798035 0.044769 
310.119507 0.459406 
311.103882 0.120017 
313.844055 0.045085 
318.169373 2.527117 
319.109192 0.157946 
320.067871 0.098135 
320.103546 4.171289 
321.11087 6.214738 
322.084229 0.39591 
322.119415 17.366772 
322.214386 0.030087 
323.123779 1.728348 
323.208801 0.039209 
324.099274 0.091267 
324.135406 0.211633 
328.129822 0.100085 
330.087738 0.228231 
331.177399 4.436927 
332.104187 0.14854 
332.140137 4.792922 
332.161438 12.741987 
333.144684 0.242465 
333.164886 0.66735 
334.119659 0.946112 
335.125977 0.111028 
335.172424 0.162681 
336.099609 4.486499 
337.097504 0.175592 
338.114502 1.470483 
344.102051 0.041929 
344.266907 0.028734 
345.098419 0.458572 
345.192444 0.06842 
346.106354 8.410921 
346.648438 0.040076 
347.114807 27.025303 
347.419525 0.041851 
348.098053 3.332742 
348.118042 2.081286 
348.137665 0.741226 
349.10556 1.040129 
349.142914 0.866887 
349.187836 8.798331 
350.114288 2.00862 
350.150116 0.281516 
350.19165 0.242535 
351.007355 0.043457 
352.093445 0.316822 
353.256195 0.279682 
358.1203 0.964391 
359.115631 0.043781 
360.09967 0.3578 
360.135498 0.055354 
360.171478 1.245928 
361.1073 0.057685 
361.130249 1.247426 
361.224579 10.102844 
362.113678 0.438609 
362.151367 0.951049 
362.227783 0.510946 
363.109985 2.855645 
363.203033 0.107317 
364.093781 0.141341 
364.117279 8.738692 
365.099243 0.436302 
365.124939 35.943745 
366.107544 9.177227 
366.129272 2.984768 
367.114288 0.978704 
369.135803 0.036053 
374.150665 2.327609 
375.109711 0.865399 
375.144104 0.548938 
375.166962 1.402835 
376.131104 17.048195 
376.157104 0.054964 
376.169189 0.04861 
377.130493 2.90582 
377.218872 0.048836 
378.132202 0.103205 
378.189667 0.442124 
379.142548 0.04778 
379.23465 22.467089 
380.237732 2.664441 
381.132721 0.44501 
385.13028 4.983158 
386.136444 0.321149 
386.252319 0.032552 
387.145905 29.245008 
388.125885 0.20277 
388.150269 3.554004 
389.12915 0.128748 
389.161407 1.233227 
390.144287 0.314052 
391.140991 2.247353 
395.888428 0.050997 
397.245178 1.213012 
397.832245 0.050339 
398.473114 0.044874 
399.143768 0.069353 
401.125336 0.195029 
401.161041 0.215622 
402.0979 0.086217 
402.182068 4.905436 
403.105499 1.786308 
403.140625 9.329261 
403.17804 2.981982 
404.118805 0.10055 
404.147949 8.245509 
404.177917 0.101449 
404.936981 0.037106 
405.123932 0.968425 
405.156189 12.322522 
405.213959 3.028595 
406.162018 2.149972 
407.229462 0.052083 
411.133514 0.180447 
413.125702 0.16214 
414.109985 0.204129 
416.146393 0.049407 
417.155975 0.842055 
419.171021 0.105876 
420.179993 0.215895 
421.151947 0.109127 
421.186005 0.467855 
423.225128 0.909153 
428.135925 0.088406 
429.116577 0.701401 
429.145508 5.630922 
429.17514 0.028326 
430.125793 1.668265 
430.153778 0.60623 
431.135895 70.013016 
431.208099 0.096116 
432.139404 12.459046 
433.146393 0.272474 
434.241882 0.045757 
435.246948 0.043207 
435.495911 0.033715 
436.257263 0.470079 
436.292358 2.194176 
439.525024 0.060027 
442.154755 0.631058 
442.187683 7.400932 
443.209167 0.70413 
445.151672 0.127046 
445.275574 0.028281 
446.172455 0.334068 
446.196777 0.040604 
447.167725 0.598552 
447.203278 0.623944 
448.162628 4.467603 
449.144562 0.696843 
456.168335 0.044681 
457.179657 0.183108 
458.183716 3.036872 
459.201538 0.442227 
460.162506 3.032637 
460.198639 1.575476 
462.177246 0.04979 
462.272003 4.263949 
463.275482 0.162204 
466.869354 0.04323 
468.20343 3.350485 
469.187622 2.587081 
470.188202 0.330721 
474.140076 0.063955 
474.17807 7.967316 
475.18454 6.438595 
476.191345 0.946747 
480.283386 0.887783 
484.162994 0.169415 
484.198914 4.613366 
485.205566 3.343493 
486.214478 73.428619 
487.218414 13.694055 
487.78125 0.041581 
488.194 15.091184 
489.197449 2.469427 
490.211487 0.063833 
493.763031 0.034576 
495.227051 0.049838 
497.217407 0.092549 
498.215637 0.048463 
500.157928 0.046288 
501.205872 0.061806 
502.172821 2.021974 
502.209412 20.781567 
503.216339 13.309013 
504.22168 2.903489 
510.209717 0.044468 
510.250824 1.090353 
512.193359 5.458113 
513.181274 0.255624 
515.229553 2.794736 
516.232849 0.075984 
527.241943 0.57772 
528.18927 1.133987 
528.260742 0.919954 
528.781372 0.046878 
529.195679 1.105212 
529.241821 0.739503 
530.204041 17.962151 
531.207397 3.601233 
535.208923 0.096485 
536.087646 0.042772 
536.212158 0.039077 
544.21521 0.828798 
544.25647 17.669468 
545.259338 3.984915 
545.30188 0.042722 
553.035583 0.046179 
554.240295 5.607219 
555.241638 0.893486 
557.226624 2.908947 
558.229553 0.156878 
559.229065 0.051108 
560.244019 0.04671 
561.155334 0.041402 
571.22998 2.248321 
571.277283 0.049642 
572.251099 100.0 
573.254089 24.457672 
574.255981 0.867974 
574.652344 0.034434 
575.262146 0.860144 
575.759888 0.056791 
589.278076 4.178647 
590.281555 0.466349 
597.247192 0.767309 
599.265625 9.202167 
600.267639 3.67436 
601.276917 0.173157 
602.402832 0.042622 
609.246338 0.406037 
611.593262 0.0442 
613.280273 0.41316 
615.256653 10.211981 
616.262939 5.345121 
617.269104 0.204742 
625.243408 0.041588 
626.90863 0.02979 
627.256897 2.605812 
628.254089 0.965364 
629.265503 0.402955 
633.271545 0.153113 
634.275208 0.380653 
634.399414 0.044062 
636.294739 0.108746 
637.281494 0.441812 
638.273499 0.239434 
639.25946 0.046802 
641.755432 0.041594 
642.267517 0.413645 
643.277039 4.56934 
644.279114 0.719141 
645.271729 0.119956 
652.289429 1.767195 
653.285217 1.020088 
654.306519 15.681798 
655.304626 5.545935 
656.287231 2.945661 
657.285095 0.192658 
658.299805 3.072756 
659.302979 0.234217 
659.356445 0.045354 
668.285339 0.763475 
669.253906 1.390407 
670.303467 20.655451 
671.3078 13.864853 
672.316895 10.920795 
673.258728 0.052458 
673.319641 2.542016 
680.284729 4.709538 
681.269165 6.400704 
682.26886 2.167796 
683.276306 0.076226 
684.282837 0.033687 
684.349854 0.046256 
686.335266 0.041465 
687.270325 0.312705 
687.338318 0.989673 
688.351807 0.041437 
696.281067 4.85728 
697.285522 5.220588 
698.294617 53.525787 
699.297302 15.660674 
700.295349 2.078316 
701.299866 0.109772 
701.925415 0.049154 
702.364197 28.058052 
703.367981 9.721818 
709.299683 0.04221 
709.511841 0.141552 
709.689819 0.218223 
709.76062 0.263592 
710.008911 0.078021 
710.099548 0.065517 
714.298828 0.618126 
715.297241 1.33133 
716.305237 6.921869 
717.309143 1.325143 
723.325317 0.054476 
724.271912 0.036147 
725.364807 0.160063 
727.32373 0.241044 
728.335815 5.02155 
729.339478 3.055943 
730.343262 0.051014 
736.347961 0.139534 
741.335876 2.327983 
742.344116 3.112326 
743.351807 0.062356 
746.353088 2.990655 
747.358459 1.216249 
747.562683 0.047205 
753.299255 0.478091 
755.354919 0.458452 
756.362 8.244614 
757.367249 4.431751 
758.373657 0.050238 
767.316162 2.666989 
767.38916 0.438062 
768.374512 3.696824 
769.372375 11.524284 
770.371643 3.648419 
779.353577 0.106685 
781.35083 0.04609 
782.346924 0.054727 
783.388184 5.69762 
784.392761 23.786552 
785.401367 52.827774 
786.40509 14.393431 
787.409607 0.047389 
794.356812 0.052666 
795.36377 0.04267 
798.367798 0.031969 
800.351013 0.936398 
801.357849 0.11183 
809.366821 0.10233 
810.37207 0.101121 
810.623779 0.053127 
811.379028 3.254611 
812.371582 2.377594 
813.366089 0.738055 
825.402649 0.046192 
827.374573 0.258382 
828.381287 2.513775 
829.309875 0.046657 
829.390564 5.396207 
830.393677 0.710688 
840.405579 1.329422 
841.409668 0.038669 
854.421204 1.069187 
855.42334 0.38903 
858.128052 0.058549 
864.367188 0.153932 
865.378784 0.099887 
866.38562 0.095846 
878.632385 0.037633 
884.396484 1.470717 
885.392761 0.120125 
885.752686 0.050999 
894.416748 0.051091 
898.410645 1.775274 
899.415405 0.200536 
915.001526 0.047489 
920.431458 0.111656 
924.084839 0.034483 
948.431885 0.10865 
951.478699 0.051652 
965.905396 0.049311 
966.446472 0.42732 
991.434021 0.153236 
995.466614 0.082251 
996.481079 0.047174 
1010.447937 0.092555 
1032.669067 0.036766 
1034.471436 0.178724 
1035.493286 0.104617 
1036.525391 0.109364 
1037.685913 0.069249 
1052.483154 0.046441 
1061.73291 0.056389 
1078.534424 0.049169 
1079.532837 0.241234 
1121.5802 0.035664 
1216.63501 0.034192 
1234.980835 0.042606 
1247.968262 0.040709 
1255.237549 0.044125 
1280.475342 0.053195 
1287.861206 0.034896 
1292.636719 0.044474 
END IONS

