BEGIN IONS
PEPMASS=319.119
CHARGE=1+
COMPOUNDNAME=MassbankEU:SM857754 Mycophenolic acid|(E)-6-(4-hydroxy-6-methoxy-7-methyl-3-oxo-1H-2-benzofuran-5-yl)-4-methylhex-4-enoic acid
LIBRARYQUALITY=3
SMILES=COc1c(C)c2COC(=O)c2c(O)c1C\C=C(/C)CCC(O)=O
INCHIKEY=HPNSFSBZBAHARI-RUDMXATFSA-N
INCHI=1S/C17H20O6/c1-9(5-7-13(18)19)4-6-11-15(20)14-12(8-23-17(14)21)10(2)16(11)22-3/h4,20H,5-8H2,1-3H3,(H,18,19)/b9-4+
MSLEVEL=2
SOURCE_INSTRUMENT=ESI-LC-ESI-QFT
FILENAME=/home/mingxun/Data/Spectral_Libraries/MB_EU_Dec2016_newRecords/merged/massbankue.12.2016.mgf
SEQ=*..*
IONMODE=Negative
ORGANISM=MASSBANKEU
NAME=MassbankEU:SM857754 Mycophenolic acid|(E)-6-(4-hydroxy-6-methoxy-7-methyl-3-oxo-1H-2-benzofuran-5-yl)-4-methylhex-4-enoic acid [M-H]-
PI=Massbank EU
DATACOLLECTOR=Massbank
PUBMED=N/A
SUBMITUSER=mwang87
TAGS=
SPECTRUMID=CCMSLIB00000841900
SCANS=539
133.065796 16736.599609 
135.044998 37740.601562 
137.024597 4391.399902 
137.060699 15412.400391 
147.045105 25730.0 
148.052994 25786.599609 
149.060898 23394.5 
160.052902 14275.700195 
161.060806 48927.300781 
161.097305 23954.099609 
163.0401 21118.900391 
163.076599 3566.0 
164.048004 21694.0 
171.081497 5035.299805 
171.118301 4212.600098 
173.060898 48840.398438 
173.097198 11661.299805 
174.068604 6759.899902 
177.019394 16334.099609 
177.055496 4783.399902 
178.027206 16227.0 
179.035004 295558.09375 
183.081696 13666.400391 
186.068207 3210.199951 
187.076401 33967.800781 
188.084702 6599.200195 
189.091904 13926.099609 
191.035004 976344.8125 
192.042801 272762.8125 
193.050797 6297.0 
199.1129 49674.800781 
200.084503 5482.100098 
201.0923 41052.101562 
203.035095 82625.5 
204.042694 12145.599609 
205.050705 403065.1875 
206.058701 3188.399902 
207.066299 109090.203125 
210.069504 3289.899902 
215.071396 4830.5 
215.108002 61196.101562 
217.0504 3662.199951 
217.087097 5322.700195 
224.032806 52997.398438 
225.092102 13241.5 
227.071198 5217.600098 
228.080002 4645.700195 
230.058701 3094.300049 
231.066406 52189.0 
231.103195 3509.5 
232.074493 13077.599609 
233.082306 40332.800781 
241.087204 11490.200195 
243.066605 25103.699219 
243.102798 103257.203125 
245.082001 104999.796875 
258.126587 3248.899902 
259.097992 14522.400391 
269.081909 58813.800781 
275.129089 534425.3125 
285.077087 17014.5 
287.092499 230221.796875 
301.108704 14493.799805 
319.118713 3063610.0 
END IONS

