BEGIN IONS
PEPMASS=386.265
CHARGE=1+
COMPOUNDNAME=ACTINONIN
LIBRARYQUALITY=3
SMILES=N/A
INCHIKEY=XJLATMLVMSFZBN-VYDXJSESSA-N
INCHI=InChI=1S/C19H35N3O5/c1-4-5-6-8-14(11-16(24)21-27)18(25)20-17(13(2)3)19(26)22-10-7-9-15(22)12-23/h13-15,17,23,27H,4-12H2,1-3H3,(H,20,25)(H,21,24)/t14-,15+,17+/m1/s1
MSLEVEL=2
SOURCE_INSTRUMENT=N/A-ESI-QFT
FILENAME=library_mgf.mgf
SEQ=*..*
IONMODE=positive
ORGANISM=MONA
NAME=ACTINONIN [M+H]+
PI=MoNA
DATACOLLECTOR=MoNA:VF-NPL-QEHF027306
PUBMED=N/A
SUBMITUSER=mwang87
TAGS=
SPECTRUMID=CCMSLIB00004720887
SCANS=27306
50.122929 0.03432 
50.757259 0.020771 
50.897854 0.032797 
51.271477 0.015375 
51.457527 0.038083 
52.092354 0.024874 
52.164951 0.035528 
52.730442 0.042355 
52.881817 0.053943 
52.918842 0.024301 
53.038895 0.382211 
53.149998 0.022229 
53.209152 0.040259 
53.274239 0.017295 
53.82 0.020806 
54.138958 0.022926 
54.154827 0.04622 
54.425358 0.020031 
54.451366 0.021022 
55.018089 0.429804 
55.054482 28.133987 
55.460289 0.042234 
55.544388 0.034516 
55.739994 0.030834 
55.860664 0.043654 
56.049713 7.662489 
56.057835 1.131336 
56.76796 0.023628 
56.877758 0.021793 
57.03373 0.550541 
57.057533 2.508226 
57.070107 4.487492 
57.764751 0.030772 
58.126068 0.036568 
58.268917 0.030375 
58.789299 0.033586 
58.873039 0.028761 
58.944016 0.038081 
60.104168 0.017665 
60.295326 0.019092 
61.65501 0.021268 
63.86079 0.022838 
64.987854 0.03322 
65.038681 0.018772 
65.094048 0.019166 
65.130775 0.032636 
65.468391 0.025489 
66.022842 0.019589 
67.054298 9.101358 
67.331467 0.038268 
68.006287 0.023002 
68.057671 0.265066 
68.296097 0.037294 
68.481064 0.03396 
69.033585 0.147122 
69.069901 0.328202 
70.041862 0.020532 
70.065147 0.146936 
70.288353 0.028888 
70.449692 0.041089 
70.632538 0.028255 
71.515602 0.029244 
72.080757 100.0 
72.587074 0.027753 
73.084091 3.696603 
74.14856 0.041625 
74.322441 0.030735 
74.400764 0.034355 
75.32412 0.022616 
76.398293 0.043644 
76.546844 0.023671 
77.059441 0.047762 
79.461418 0.040977 
79.931381 0.023117 
79.975937 0.028457 
80.493706 0.023089 
81.06987 0.032354 
82.065063 1.187911 
82.209366 0.030533 
83.049103 0.45243 
83.08548 2.122345 
84.080757 29.427206 
84.083595 0.382142 
84.270065 0.025435 
84.352753 0.035072 
84.846619 0.038219 
85.064743 9.30563 
85.084084 1.228878 
85.465065 0.022925 
85.656181 0.023785 
86.068085 0.19652 
86.573151 0.039108 
87.762924 0.034826 
90.2416 0.019716 
90.570923 0.053048 
90.678268 0.025693 
91.140411 0.023675 
91.832939 0.022263 
92.438828 0.026208 
93.022339 0.034714 
93.089584 0.028907 
94.789474 0.02859 
95.809357 0.038617 
97.101158 2.579109 
98.060036 0.638827 
98.127045 0.019237 
98.219337 0.048404 
99.85997 0.019441 
100.075577 1.596884 
101.062943 0.049186 
102.055199 0.033502 
102.091316 83.43644 
103.094597 3.91316 
104.822304 0.027053 
106.451393 0.023543 
107.085335 0.026064 
108.349503 0.032899 
108.511208 0.03626 
109.471756 0.028475 
110.019997 0.058964 
110.06012 0.038464 
110.45311 0.030607 
110.468529 0.020439 
110.66275 0.033191 
110.669495 0.021382 
110.893661 0.022504 
111.029869 0.027465 
111.043968 0.715468 
111.870644 0.031621 
112.075462 0.048196 
112.10482 0.021485 
112.659271 0.029086 
113.07888 0.032284 
113.527374 0.023081 
114.152687 0.043462 
114.733162 0.025594 
115.197815 0.040991 
115.628014 0.027555 
116.106895 0.253642 
116.834854 0.039668 
118.189651 0.045851 
118.371246 0.025619 
118.757477 0.039429 
119.917397 0.025415 
120.160019 0.03836 
121.90686 0.032284 
122.274437 0.021632 
123.224442 0.02119 
123.536438 0.022014 
124.110306 0.033276 
125.096031 0.940782 
125.512344 0.02817 
125.904922 0.029411 
126.163368 0.026616 
126.931488 0.026803 
127.154411 0.032757 
127.282005 0.024234 
127.422989 0.024268 
128.070526 2.057814 
129.291748 0.03006 
131.119965 0.034287 
131.495789 0.027767 
135.216232 0.033237 
138.09436 0.028725 
140.084122 0.020267 
140.655655 0.041605 
142.910767 0.024703 
143.732422 0.029015 
144.92247 0.02987 
145.507446 0.018609 
146.561707 0.025664 
149.592957 0.024441 
150.67923 0.03488 
154.207916 0.026989 
157.838974 0.042654 
157.927216 0.044077 
158.86644 0.05019 
162.75943 0.034415 
163.064972 0.02904 
167.223328 0.028199 
169.758575 0.019668 
170.117355 1.160324 
173.187119 0.023866 
174.329529 0.018871 
174.64238 0.031975 
176.796158 0.022778 
178.387192 0.029308 
185.346344 0.029231 
186.112411 0.482075 
188.995224 0.022162 
190.358093 0.023845 
192.394043 0.028397 
197.432846 0.018274 
197.443741 0.034083 
204.389679 0.027968 
205.721664 0.044512 
205.744492 0.032033 
216.178619 0.033244 
219.635941 0.350692 
219.641159 0.264053 
221.652618 0.034988 
224.164352 0.043422 
224.466156 0.040617 
232.075394 0.031223 
232.655289 0.042549 
233.789368 0.026027 
240.582748 0.021216 
241.608475 0.059266 
241.825317 0.03228 
243.251572 0.046751 
245.453506 0.028768 
246.309021 0.02653 
260.787933 0.022861 
263.139313 0.02068 
266.128326 0.032265 
269.310028 0.019102 
271.204132 0.033682 
273.561432 0.028902 
274.055878 0.02414 
277.575378 0.025303 
277.595673 0.02265 
280.305084 0.037058 
285.728516 0.03503 
291.454865 0.028973 
293.661591 0.027515 
294.925659 0.033752 
297.007538 0.046705 
302.742981 0.031379 
304.960663 0.034212 
323.483154 0.026471 
324.111847 0.035748 
330.786743 0.018992 
334.017029 0.042686 
352.604797 0.020763 
357.943054 0.036746 
368.558838 0.034987 
370.986786 0.042584 
393.381531 0.03403 
401.39624 0.030391 
406.241455 0.026166 
END IONS

