BEGIN IONS
PEPMASS=337.238
CHARGE=1+
COMPOUNDNAME=Aphidicolin
LIBRARYQUALITY=3
SMILES=N/A
INCHIKEY=NOFOAYPPHIUXJR-APNQCZIXSA-N
INCHI=InChI=1S/C20H34O4/c1-17(11-21)15-4-3-13-9-14-10-19(13,7-8-20(14,24)12-22)18(15,2)6-5-16(17)23/h13-16,21-24H,3-12H2,1-2H3/t13-,14+,15-,16+,17-,18-,19-,20-/m0/s1
MSLEVEL=2
SOURCE_INSTRUMENT=N/A-ESI-QFT
FILENAME=library_mgf.mgf
SEQ=*..*
IONMODE=negative
ORGANISM=MONA
NAME=Aphidicolin [M-H]-
PI=MoNA
DATACOLLECTOR=MoNA:VF-NPL-QEHF004567
PUBMED=N/A
SUBMITUSER=mwang87
TAGS=
SPECTRUMID=CCMSLIB00004695630
SCANS=4567
50.319462 0.024818 
51.368347 0.018412 
52.737064 0.026193 
52.965225 0.029695 
53.166115 0.021291 
53.965912 0.017991 
54.432819 0.023101 
55.017593 0.025233 
55.149437 0.021633 
55.259533 0.025921 
55.512264 0.024594 
55.949207 0.02404 
56.631977 0.027606 
56.690453 0.016671 
56.802818 0.020015 
57.033245 1.003754 
58.004639 4.791517 
58.661274 0.015829 
58.98415 0.025406 
59.012478 4.952452 
59.62365 0.019429 
59.830772 0.016636 
61.062454 0.024378 
61.986996 2.098581 
62.084213 0.023043 
62.284023 0.016412 
63.428001 0.02182 
63.729305 0.025691 
63.961117 0.332787 
64.045151 0.027063 
64.503204 0.020418 
64.610115 0.016202 
64.938538 0.02101 
64.951195 0.085103 
65.656456 0.026699 
65.804794 0.01852 
66.484367 0.019512 
66.595222 0.018552 
67.482666 0.015464 
67.591118 0.018476 
68.248199 0.037168 
69.033165 0.087082 
70.028542 0.050326 
70.358139 0.023403 
70.757103 0.023321 
71.012489 0.921637 
71.048882 0.11128 
72.57045 0.022158 
72.6978 0.032168 
72.991791 0.171187 
73.017235 0.027208 
73.028091 0.716036 
73.132713 0.016439 
73.274879 0.020488 
73.626747 0.031245 
73.927689 0.022689 
74.023415 0.077708 
74.326233 0.024807 
74.383003 0.026099 
75.007401 1.525945 
75.285683 0.01937 
75.322205 0.020608 
76.115143 0.027772 
76.815529 0.027542 
77.390648 0.021738 
78.376068 0.025287 
78.984612 1.624337 
79.002075 0.039984 
79.95607 1.133579 
80.561508 0.03417 
80.595924 0.023962 
80.963837 1.55295 
80.980118 0.018761 
81.715393 0.021166 
82.544617 0.019012 
83.048851 0.21457 
85.028175 0.155839 
86.023354 0.259816 
87.007385 0.054485 
87.019035 0.028163 
87.043816 0.285461 
87.135902 0.02494 
88.039078 7.122327 
88.24791 0.02015 
89.023094 0.258559 
89.354469 0.016345 
91.12326 0.028086 
91.607658 0.028751 
93.242073 0.016808 
93.246971 0.025082 
94.37516 0.031288 
94.52401 0.022243 
94.979538 6.767711 
95.048965 0.036385 
95.952057 0.023013 
96.007858 0.255049 
96.958824 46.556301 
96.975372 0.026822 
97.014771 0.025473 
97.028381 0.028756 
97.958145 0.232926 
98.023453 2.69525 
98.924927 0.01742 
98.954651 1.958657 
98.963081 0.245797 
99.04393 0.18008 
99.662712 0.022278 
99.89447 0.024921 
100.039162 0.587883 
101.023117 0.279366 
101.223015 0.025512 
102.085144 0.020216 
102.437263 0.027491 
104.034065 0.181635 
108.629951 0.028286 
109.064667 0.202336 
109.136253 0.020996 
109.216957 0.024302 
109.913208 0.028444 
110.023621 0.02442 
110.938957 0.098072 
110.956787 0.404714 
110.974609 0.659129 
111.043938 0.022755 
111.080162 0.02476 
112.03923 0.30565 
113.034653 0.056248 
113.09597 0.055107 
114.018486 10.011538 
115.021843 0.063504 
116.553719 0.031057 
116.991898 0.021358 
117.091774 0.016345 
118.977821 0.030793 
119.08548 3.568858 
119.089806 0.025804 
120.088692 0.216065 
121.288261 0.021601 
121.991203 0.029182 
122.974365 0.028067 
123.04422 0.092889 
123.080475 0.080906 
123.512024 0.017716 
125.096123 0.1989 
125.871651 0.022488 
126.018585 0.309472 
127.02636 21.953735 
128.029648 0.817364 
128.034225 5.776333 
128.987183 0.024428 
129.031067 0.035185 
129.037155 0.15934 
129.938538 0.025684 
130.480988 0.0289 
132.822968 0.025162 
132.872452 0.021429 
135.08078 0.035501 
137.0961 1.47565 
138.719131 0.019887 
138.784195 0.018457 
139.08725 0.027679 
140.46994 0.03157 
142.086304 0.019641 
142.625916 0.016245 
144.029053 0.021815 
144.524216 0.030046 
144.921097 0.023117 
146.044846 0.321969 
146.867035 0.032842 
149.096176 1.054764 
150.127411 0.018146 
157.838013 0.02341 
160.840927 0.025706 
161.096237 0.578409 
162.837967 0.222882 
163.111908 1.774998 
163.398285 0.027355 
164.835342 0.030552 
165.120514 0.035392 
165.127502 2.260722 
165.240311 0.028042 
167.106918 0.495662 
167.143417 0.029929 
168.10202 0.128481 
172.103653 0.025273 
172.956696 0.023295 
173.096634 0.029813 
175.111954 2.253429 
176.115631 0.116063 
177.091248 0.026532 
177.127655 0.443079 
177.923691 0.025492 
179.107285 0.287993 
181.086136 0.036577 
181.123276 0.023563 
181.631622 0.023227 
182.291534 0.015311 
182.303589 0.025256 
183.011444 1.354737 
184.019394 0.062971 
185.117844 0.041564 
187.112259 0.672494 
189.065781 0.042244 
190.338089 0.033286 
191.107025 0.047766 
193.12265 7.80927 
194.126205 0.939084 
194.577942 0.016852 
195.13826 2.044707 
195.738159 0.018488 
197.027542 0.28705 
198.035538 0.157673 
203.107162 0.149428 
203.388046 0.031126 
203.730835 0.018351 
204.874588 0.025704 
205.12291 8.233529 
205.893463 0.143818 
206.126205 1.233078 
207.102066 0.226137 
209.117798 19.157791 
210.121353 1.624384 
211.097595 0.034337 
213.563736 0.022338 
214.79335 0.961597 
214.802505 0.64688 
216.536606 0.023877 
216.909058 10.455143 
217.516739 0.02683 
218.904846 0.710194 
220.917068 0.050311 
221.118027 1.602078 
222.184052 0.021615 
223.133667 22.5776 
224.137161 3.261837 
225.139038 0.095742 
227.201202 0.22541 
228.204514 0.033536 
228.966125 0.027432 
231.139038 0.380929 
233.118805 0.027956 
235.13324 0.193692 
235.247147 0.035526 
236.911819 0.208372 
237.113174 0.139426 
237.149033 0.021611 
239.16478 0.053988 
240.883606 0.026311 
244.44397 0.030957 
247.93074 0.026472 
248.165237 0.025849 
249.149536 2.7611 
250.154068 0.258966 
251.128632 0.026789 
251.200912 0.022068 
253.144485 0.945183 
254.148666 2.507112 
254.855988 0.25103 
255.233032 17.553217 
256.23645 2.828686 
257.174988 0.038615 
257.858521 0.02685 
258.895233 0.35732 
260.129547 0.02433 
260.872253 0.046322 
263.128235 0.017561 
264.161194 0.053937 
264.958435 0.071954 
265.144531 0.144754 
267.160309 1.372397 
268.094299 0.032003 
268.164001 0.042648 
274.144684 0.334806 
275.20163 0.258004 
276.160614 2.331736 
277.164337 0.05319 
277.181061 0.109321 
277.894928 0.06023 
279.160461 0.029434 
279.857697 0.075089 
280.154633 0.020844 
281.854767 0.036819 
283.264282 0.029021 
283.633392 0.024468 
287.20163 0.564797 
288.424225 0.026946 
289.217224 0.317018 
292.15567 35.451588 
292.343231 0.022374 
293.15921 7.07884 
293.176666 0.165502 
293.211456 0.080939 
294.161438 0.472844 
296.382904 0.031984 
299.203094 0.026335 
299.889404 0.02426 
301.581635 0.028321 
305.212708 0.890539 
307.191193 0.111884 
315.196655 0.383177 
316.095276 0.024498 
317.21228 1.911994 
317.854462 0.266833 
317.892426 0.033786 
318.215881 0.258939 
319.227905 1.880792 
320.231171 0.253738 
335.188507 0.038916 
335.223114 19.043285 
335.864838 0.35047 
336.110138 0.143983 
336.147461 0.167657 
336.181488 1.53829 
336.226593 12.000121 
336.862976 0.029187 
337.1315 0.124134 
337.167694 0.045311 
337.184509 3.380581 
337.205383 19.735056 
337.238464 22.388243 
337.311493 2.544678 
337.861938 0.036676 
338.127167 0.029081 
338.176422 2.636214 
338.20871 3.431315 
338.242126 4.768434 
338.315247 0.52128 
339.199951 100.0 
339.32663 2.544222 
346.708893 0.022118 
362.900696 0.02723 
END IONS

