BEGIN IONS
PEPMASS=338.16
CHARGE=1+
COMPOUNDNAME=Mycophenolic Acid
LIBRARYQUALITY=3
SMILES=N/A
INCHIKEY=HPNSFSBZBAHARI-RUDMXATFSA-N
INCHI=InChI=1S/C17H20O6/c1-9(5-7-13(18)19)4-6-11-15(20)14-12(8-23-17(14)21)10(2)16(11)22-3/h4,20H,5-8H2,1-3H3,(H,18,19)/b9-4+
MSLEVEL=2
SOURCE_INSTRUMENT=N/A-ESI-QFT
FILENAME=library_mgf.mgf
SEQ=*..*
IONMODE=positive
ORGANISM=MONA
NAME=Mycophenolic Acid [M+NH4]+
PI=MoNA
DATACOLLECTOR=MoNA:VF-NPL-QEHF004803
PUBMED=N/A
SUBMITUSER=mwang87
TAGS=
SPECTRUMID=CCMSLIB00004695866
SCANS=4803
50.587868 0.076768 
51.192112 0.08583 
51.821934 0.085199 
52.000282 0.088807 
52.078773 0.071293 
52.557671 0.074839 
52.866325 0.081841 
53.062469 0.08421 
53.219963 0.041364 
53.92778 0.049934 
54.146599 0.071778 
54.150703 0.063641 
54.443897 0.08317 
54.565292 0.053008 
54.849983 0.082263 
55.018681 1.240994 
55.62981 0.051498 
55.751663 0.11492 
56.096684 0.084801 
56.790768 0.098026 
57.720005 0.076771 
58.130894 0.046502 
58.159653 0.060202 
58.409489 0.086697 
58.985165 0.055352 
59.209587 0.093359 
59.766048 0.070983 
60.095966 0.061481 
60.16634 0.052474 
60.294735 0.067314 
60.780579 0.054247 
61.032932 0.045357 
62.655979 0.070139 
62.739861 0.048949 
62.915321 0.055823 
63.48695 0.048723 
63.618111 0.080934 
63.647255 0.055333 
64.601433 0.050016 
64.744682 0.06402 
65.039352 0.318688 
65.535858 0.066257 
65.763214 0.046362 
66.063416 0.090023 
67.055031 0.280094 
67.171677 0.06166 
68.63913 0.047379 
69.613213 0.064057 
69.835495 0.079132 
70.123665 0.061993 
70.594734 0.049331 
71.121758 0.063974 
71.238708 0.089093 
71.968086 0.055176 
73.626442 0.073446 
74.099403 0.051853 
75.568962 0.085545 
75.583733 0.06673 
76.683662 0.053025 
76.685562 0.057959 
77.039345 0.184163 
77.466751 0.070567 
78.126167 0.058764 
78.887634 0.040341 
79.054909 1.845679 
79.0756 0.049212 
79.082565 0.072601 
79.399551 0.06323 
79.484596 0.04106 
80.163094 0.055767 
80.663986 0.052932 
81.070526 4.842819 
82.073814 0.167117 
82.355385 0.058483 
82.39727 0.056179 
83.210472 0.06452 
84.387863 0.077175 
84.498055 0.055816 
84.783928 0.059199 
86.565331 0.059116 
87.820183 0.064886 
88.032089 0.069329 
88.587425 0.070768 
89.344803 0.084502 
91.054825 24.171526 
91.073799 0.068685 
91.392067 0.074228 
92.058167 8.88536 
93.070457 0.152712 
93.478104 0.065642 
94.493774 0.067802 
95.049713 1.786062 
95.960976 0.07819 
96.003731 0.098266 
96.053169 0.124187 
96.221443 0.070595 
96.73217 0.083947 
96.883537 0.061105 
97.109932 0.07613 
98.051567 0.075956 
98.389725 0.045263 
99.556503 0.087698 
103.05471 23.177429 
104.058029 9.080427 
104.19606 0.0695 
105.013351 0.052337 
105.061371 0.20527 
105.070229 0.060874 
105.410927 0.0702 
106.242027 0.054032 
106.557861 0.049488 
107.151466 0.052074 
108.26915 0.050995 
109.065147 0.115312 
110.077644 0.076465 
110.559044 0.087606 
111.126106 0.052287 
111.224937 0.054193 
111.623993 0.079632 
111.799583 0.073951 
113.643951 0.060954 
114.339668 0.049871 
114.8507 0.04902 
114.90757 0.059531 
116.472984 0.069452 
116.511383 0.068302 
116.790672 0.070641 
116.917114 0.091159 
117.326614 0.064569 
119.122627 0.077399 
120.089355 0.07627 
120.489014 0.059452 
121.026421 0.086862 
121.064774 0.067221 
121.915855 0.059458 
122.79911 0.091045 
123.393585 0.066774 
123.41066 0.077072 
123.496735 0.067136 
123.900246 0.062201 
124.809975 0.085039 
127.680969 0.057072 
128.535812 0.056496 
129.310577 0.098498 
131.049316 6.721296 
131.640228 0.067239 
132.052734 2.318364 
133.126923 0.054927 
134.122864 0.105855 
135.080582 3.162997 
136.083954 0.740567 
136.987869 0.051891 
137.207001 0.079972 
137.222015 0.090436 
137.547913 0.054713 
139.355759 0.071231 
140.875717 0.077424 
141.039505 0.05529 
141.927994 0.057894 
143.251434 0.047208 
143.290192 0.065367 
144.549225 0.067748 
144.98703 0.0558 
148.498001 0.073493 
148.608597 0.073453 
149.059753 1.365181 
149.184036 0.058149 
149.663956 0.098846 
150.063187 0.116113 
155.791962 0.088365 
156.957794 0.051924 
157.62439 0.061077 
158.198349 0.089793 
159.044205 88.3918 
159.051712 1.383446 
160.040421 0.136781 
160.047546 41.421097 
161.050003 5.488235 
161.059006 0.059051 
161.230026 0.056002 
161.283112 0.069278 
162.613419 0.075319 
173.425278 0.068554 
175.075302 0.362784 
176.078308 0.084206 
177.054749 100.0 
178.05809 47.604385 
178.360626 0.088485 
179.060547 7.866246 
179.070251 3.606798 
180.064148 0.052724 
180.073685 1.138414 
181.076111 0.106976 
182.544632 0.065105 
185.856125 0.069575 
186.109177 0.05935 
188.846329 0.094663 
189.260223 0.099031 
190.519821 0.044945 
193.049652 0.362393 
195.065414 3.702427 
195.619324 0.090582 
196.068909 0.949591 
199.238083 0.065687 
203.055283 0.080191 
204.87854 0.071232 
205.240128 0.083419 
207.065353 62.097206 
207.236664 0.058585 
208.068665 30.430742 
208.086761 0.091425 
209.070587 8.21801 
210.272324 0.053251 
210.291183 0.051372 
210.387909 0.093077 
214.504105 0.069169 
215.107147 0.26478 
220.008423 0.483035 
220.015259 0.536243 
220.03067 0.540847 
220.043915 0.120505 
222.584595 0.073771 
222.79155 0.048816 
224.028641 0.070243 
226.089844 0.080775 
234.412125 0.084017 
235.735229 0.057301 
243.296997 0.104092 
245.52449 0.056306 
252.037018 0.083273 
256.067657 0.076638 
256.216125 0.070808 
257.121613 0.062185 
257.91391 0.051087 
262.710358 0.101722 
268.055542 0.089479 
269.401184 0.043158 
271.092651 0.123653 
273.259766 0.045286 
276.855011 0.085338 
277.737488 0.089282 
280.802399 0.049644 
281.345734 0.052671 
283.381561 0.050216 
287.014984 0.067807 
287.049042 0.066529 
292.350983 0.081366 
293.616913 0.068402 
295.603302 0.068981 
298.283112 0.067762 
300.573944 0.070073 
302.103302 0.080185 
304.152191 0.054414 
305.431244 0.101231 
306.545685 0.090017 
311.171997 0.089367 
324.609222 0.087166 
325.239227 0.066166 
326.930145 0.056782 
327.485443 0.081527 
328.956879 0.062568 
331.516113 0.049859 
342.713593 0.05206 
344.464233 0.052734 
356.821472 0.073057 
363.111633 0.104543 
END IONS

