BEGIN IONS
TITLE=Scan Number: 1
PEPMASS=436.13599
CHARGE=1+
COMPOUNDNAME=Narcotine
LIBRARYQUALITY=3
SMILES=CN1[C@]([C@]2([H])C(C=CC(OC)=C3OC)=C3C(O2)=O)([H])C4=C(OC)C5=C(OCO5)C=C4CC1
INCHIKEY=AKNNEGZIBPJZJG-MSOLQXFVSA-N
INCHI=InChI=1S/C22H23NO7/c1-23-8-7-11-9-14-20(29-10-28-14)21(27-4)15(11)17(23)18-12-5-6-13(25-2)19(26-3)16(12)22(24)30-18/h5-6,9,17-18H,7-8,10H2,1-4H3/t17-,18+/m1/s1
MSLEVEL=2
SOURCE_INSTRUMENT=DI-ESI-qTof
FILENAME=f.10mauriz/5_br_pos_Na_25eV.mgf;
SEQ=*..*
NOTES=
IONMODE=Positive
ORGANISM=GNPS-LIBRARY
NAME=Narcotine M+Na
SPECTRUMID=CCMSLIB00000424772
ACTIVATION=CID
INSTRUMENT=ion trap
SCANS=1
147.068573 459.0 
148.073654 154.0 
175.063766 227.0 
176.063843 159.0 
177.059341 213.0 
188.052536 143.0 
204.067276 223.0 
205.071274 2731.0 
209.84758 307.0 
216.034576 150.0 
217.046692 1072.0 
219.979904 298.0 
220.097214 128638.0 
220.290909 203.0 
220.429718 205.0 
220.532761 207.0 
220.70433 130.0 
221.100098 6715.0 
226.053177 183.0 
332.081573 197.0 
347.107819 269.0 
391.101898 299.0 
406.122772 2304.0 
407.134369 260.0 
436.13623 1779.0 
437.133301 204.0 
443.632202 160.0 
444.343292 208.0 
765.744141 434.0 
1081.18689 135.0 
END IONS

