BEGIN IONS
PEPMASS=331.154
CHARGE=1+
COMPOUNDNAME=Gibberellin A4&A7
LIBRARYQUALITY=3
SMILES=N/A
INCHIKEY=SEEGHKWOBVVBTQ-UKJRIFTCSA-N
INCHI=InChI=1S/C19H22O5/c1-9-7-18-8-10(9)3-4-11(18)19-6-5-12(20)17(2,16(23)24-19)14(19)13(18)15(21)22/h5-6,10-14,20H,1,3-4,7-8H2,2H3,(H,21,22)/t10-,11-,12+,13-,14-,17+,18+,19-/m1/s1
MSLEVEL=2
SOURCE_INSTRUMENT=N/A-ESI-QFT
FILENAME=library_mgf.mgf
SEQ=*..*
IONMODE=positive
ORGANISM=MONA
NAME=Gibberellin A4&A7 [M+H]+
PI=MoNA
DATACOLLECTOR=MoNA:VF-NPL-QEHF006603
PUBMED=N/A
SUBMITUSER=mwang87
TAGS=
SPECTRUMID=CCMSLIB00004697666
SCANS=6603
50.742622 0.037235 
51.349205 0.031866 
51.554741 0.026995 
51.604183 0.025184 
51.658009 0.040928 
52.00198 0.024776 
52.060799 0.027726 
53.002979 0.291643 
53.039364 0.806823 
53.046352 0.025198 
53.72089 0.046809 
53.829227 0.039992 
53.867191 0.027655 
54.296497 0.036125 
55.01862 2.712871 
55.019962 0.028154 
55.055004 10.091619 
56.05024 0.991591 
56.058327 0.159699 
56.16993 0.02788 
56.729237 0.027948 
56.897717 0.025754 
56.934772 0.032431 
56.965546 4.227883 
57.034267 0.832332 
57.07066 5.054303 
57.658714 0.032767 
58.037495 0.023295 
58.065891 31.014772 
58.073975 0.027432 
58.995926 0.035754 
59.049896 0.471961 
59.069199 0.072768 
59.112885 0.028897 
59.312962 0.031242 
60.045139 1.097248 
60.070854 0.028702 
61.011391 1.895137 
61.955517 0.03909 
62.019226 0.302994 
62.827003 0.028914 
62.982452 0.339228 
63.673473 0.035412 
63.79026 0.035634 
64.1362 0.051745 
64.959709 0.049203 
65.039284 3.252594 
65.210564 0.024767 
65.317017 0.041432 
65.618469 0.048761 
65.704414 0.036967 
65.990616 0.037144 
66.185532 0.046314 
66.279083 0.036428 
66.765717 0.040755 
66.980492 0.03596 
66.985176 0.021555 
67.054947 9.022802 
67.514519 0.028262 
68.05014 0.244093 
68.058273 0.179543 
68.099617 0.037377 
68.328423 0.034996 
68.452568 0.031912 
68.552429 0.019566 
68.961098 0.046411 
69.03418 1.283933 
69.070557 5.401701 
69.512352 0.045317 
69.515129 0.029467 
69.616302 0.032892 
70.065826 2.77822 
70.214554 0.032515 
70.425087 0.023889 
70.958557 0.069032 
71.049797 1.250867 
71.073715 0.035657 
71.086189 2.103189 
71.364227 0.034772 
71.384216 0.029484 
71.5485 0.020887 
72.045074 0.189698 
72.081451 1.492345 
72.531662 0.024826 
72.937775 0.049616 
73.065437 0.02375 
73.273796 0.035408 
73.952782 0.030784 
73.958961 0.02919 
74.060646 0.264764 
74.501106 0.039267 
74.592346 0.037445 
75.179001 0.025942 
75.743546 0.021893 
76.298714 0.030213 
77.039337 0.105332 
77.101425 0.201656 
77.103828 0.147473 
77.107109 0.038199 
77.350319 0.035455 
77.761734 0.021673 
79.021851 0.331124 
79.05481 9.953123 
79.623268 0.023488 
80.030632 0.027555 
80.050079 0.421669 
80.058212 0.353135 
80.807472 0.038319 
80.970505 0.037618 
81.034096 0.418485 
81.070435 9.264961 
81.550728 0.039125 
82.06575 0.295946 
82.07386 0.358696 
82.107712 0.038494 
83.049683 1.80809 
83.08609 2.155236 
83.917084 0.03239 
84.004181 0.024783 
84.044945 0.303104 
84.081345 1.131082 
84.460449 0.024096 
85.028999 0.520377 
85.065353 0.483186 
85.101738 0.281137 
86.060547 0.112931 
86.096916 0.902654 
86.247665 0.03821 
86.350189 0.02219 
87.044617 0.466845 
87.336533 0.044915 
87.393555 0.035502 
87.956024 0.045663 
88.022095 0.081654 
88.076202 1.199698 
89.060204 0.048154 
89.505898 0.020031 
89.933502 0.038675 
90.311951 0.046552 
90.948212 0.102407 
91.054695 100.0 
92.058029 2.221974 
92.470909 0.037514 
93.034088 0.034345 
93.070328 8.876974 
93.336533 0.024916 
93.811157 0.034804 
94.065613 0.277855 
94.073677 0.295948 
94.106316 0.034483 
94.41777 0.049918 
95.049591 3.509861 
95.060959 0.029145 
95.082809 0.041324 
95.085976 6.489049 
95.497398 0.023646 
95.503784 0.041788 
96.044769 0.716871 
96.081161 0.220723 
96.089264 0.299709 
96.286835 0.033145 
97.028664 0.02745 
97.06517 0.916837 
97.101654 0.416579 
97.18943 0.031686 
97.74894 0.028238 
98.060486 0.102442 
98.096939 0.065994 
98.972038 0.152713 
98.975746 15.087219 
99.044678 0.079349 
99.08091 0.129561 
99.129166 0.042143 
100.076042 0.453129 
100.112488 0.077295 
100.471626 0.043314 
101.060104 0.138292 
101.8815 0.050007 
103.054619 2.281637 
104.049721 0.039047 
104.062355 0.771862 
104.332626 0.026227 
105.033623 0.040351 
105.045059 0.298771 
105.070221 9.468874 
105.440285 0.02614 
105.689224 0.046578 
106.065514 0.63914 
106.073555 0.463452 
106.086769 0.050002 
106.805305 0.049204 
107.049477 1.352851 
107.073318 0.122792 
107.081879 0.050095 
107.085854 5.002046 
107.639755 0.036784 
108.04435 0.041808 
108.080994 0.29511 
108.08905 0.16086 
109.065117 1.59681 
109.101433 2.304528 
109.3256 0.067403 
110.060158 0.271213 
110.096718 0.245178 
110.967873 0.042948 
111.044319 0.664007 
111.080704 0.442542 
112.771103 0.02642 
114.306053 0.040522 
115.054489 1.317921 
116.053062 0.065106 
116.05764 0.038896 
116.062248 0.130669 
116.104004 0.048436 
116.329391 0.031866 
116.986153 17.71382 
116.990829 0.08073 
117.070084 7.834769 
118.065346 0.213336 
118.073395 0.125426 
118.449654 0.028551 
119.049339 0.427839 
119.085716 35.90583 
120.081001 2.00187 
120.089058 0.959371 
121.028915 0.035662 
121.064957 2.218203 
121.076591 0.032982 
121.08857 0.039022 
121.101364 1.707558 
122.060341 0.090533 
122.096748 0.122839 
123.044243 0.150778 
123.08065 0.723941 
124.075775 0.075877 
124.374123 0.041545 
124.504089 0.036827 
125.059822 0.134446 
125.096214 0.081137 
125.330566 0.064297 
127.540649 0.030548 
128.06221 1.753571 
129.069992 3.969758 
129.298965 0.037588 
129.381866 0.050054 
130.06517 0.144046 
130.077881 0.085756 
131.001755 0.043984 
131.04924 0.223082 
131.072952 0.040563 
131.085556 4.383628 
132.08075 0.401745 
132.089066 0.105162 
132.787125 0.051604 
132.958237 0.952397 
133.064926 0.677535 
133.101242 2.343928 
133.276962 0.023077 
133.58075 0.029405 
134.035599 0.041364 
134.060089 0.086301 
134.096436 0.288778 
134.10408 0.025844 
134.996429 10.409287 
135.043991 0.223911 
135.080399 0.820707 
135.104858 0.036709 
135.116852 0.197175 
135.363113 0.034739 
137.060135 0.045352 
137.096024 0.07886 
138.127533 0.025883 
139.075272 0.073177 
140.081589 0.048662 
140.607819 0.040158 
141.069809 1.903467 
142.077774 1.583796 
142.969269 0.035472 
143.085571 3.789452 
144.080795 0.520049 
144.088501 0.096896 
144.093781 0.048365 
145.058762 0.03277 
145.064819 1.090464 
145.101196 2.662964 
146.060028 0.197203 
146.096481 0.339066 
146.104156 0.037085 
146.973984 0.072369 
147.080399 0.985009 
147.116821 0.426677 
148.075806 0.16391 
148.112015 1.061219 
148.747955 0.026333 
148.971786 1.848307 
149.01207 0.067363 
149.059692 0.266752 
149.096069 0.447299 
149.960541 0.096513 
150.968796 1.950226 
151.075195 0.032872 
152.062042 0.059682 
152.070541 0.028015 
153.007004 1.117973 
153.069916 0.824468 
153.090485 0.035246 
153.581879 0.029432 
154.077682 0.542985 
155.085556 3.706442 
155.133148 0.035607 
156.080856 0.614801 
156.088028 0.071238 
156.093628 0.417338 
157.064957 0.395262 
157.084427 0.040437 
157.101303 3.202355 
158.059982 0.052454 
158.072296 0.08284 
158.096588 0.219867 
158.10408 0.044017 
159.080429 1.138865 
159.091629 0.048234 
159.116776 1.09882 
160.075699 0.31796 
160.111984 0.22404 
161.059509 0.128545 
161.096161 0.270871 
162.091736 0.122986 
163.075272 0.055705 
164.070496 0.032685 
165.06987 1.977023 
165.297852 0.038886 
166.07782 1.352798 
166.982498 0.330186 
167.085663 1.778573 
168.057861 0.047719 
168.093491 0.548545 
168.138062 0.044169 
168.398529 0.047552 
168.443802 0.039943 
169.064835 0.257934 
169.101242 2.992546 
170.096954 0.03284 
170.104355 0.034725 
170.728333 0.031513 
171.080536 0.761463 
171.116882 1.062965 
172.075623 0.176231 
172.111801 0.129016 
173.00032 0.029563 
173.060059 0.030063 
173.096252 0.378767 
173.132568 0.08189 
174.091339 0.249173 
174.972275 0.053602 
175.075104 0.051518 
175.112244 0.054939 
175.575684 0.047983 
176.071167 0.03799 
176.107178 0.052139 
176.533432 0.056127 
176.989502 0.051633 
178.077621 1.01229 
179.085602 2.713758 
179.788757 0.04944 
180.093399 0.984097 
181.064972 0.363954 
181.101334 2.614638 
181.73674 0.027669 
182.072708 0.071538 
182.096634 0.078943 
182.109329 0.222654 
183.08078 0.306809 
183.116806 1.659354 
184.028824 0.048636 
184.075531 0.057648 
184.125046 0.024057 
185.096191 0.560809 
185.132736 0.737299 
186.091553 0.032033 
186.579956 0.048675 
187.111832 0.109125 
188.09343 0.025971 
188.106781 0.056878 
189.09024 0.034972 
190.077286 0.044885 
190.390854 0.042332 
190.650864 0.035583 
191.085236 0.152233 
191.152222 0.043346 
191.923401 0.142159 
192.093323 0.406251 
192.961487 0.285218 
193.101318 2.744584 
193.580475 0.041436 
194.071945 0.043073 
194.095917 0.03 
194.105713 0.164976 
194.999863 0.553169 
195.080399 1.266898 
195.116898 2.017399 
196.088318 0.27568 
196.099136 0.024 
196.120605 0.078049 
197.096313 0.751137 
197.13237 0.454965 
198.091766 0.037143 
199.111313 0.050832 
199.751053 0.044481 
200.106842 0.041277 
200.144531 0.025224 
201.12796 0.039189 
202.078033 0.045914 
202.085632 0.047845 
202.122452 0.079957 
205.101181 0.21094 
205.954071 0.033041 
207.080627 0.037484 
207.116943 0.150214 
208.088364 0.248311 
208.112228 0.037137 
209.096268 0.766542 
209.132568 0.372123 
209.78421 0.055444 
209.974197 0.432841 
210.090729 0.076958 
210.103378 0.037755 
210.135468 0.063049 
210.285004 0.039735 
210.97226 0.315998 
211.075623 0.138747 
211.111649 0.500779 
211.14801 0.087641 
212.237488 0.170939 
213.126465 0.042803 
213.162857 0.034394 
215.081009 0.039074 
218.008026 0.026694 
219.112579 0.033405 
219.983917 0.198903 
219.998123 0.305367 
220.021896 0.064388 
220.133453 0.57345 
221.095764 0.050739 
222.898926 0.107022 
223.111603 0.368925 
226.16098 0.032681 
229.202408 0.0269 
230.909515 0.046198 
234.899307 0.171064 
237.163757 0.092241 
239.143066 0.184296 
240.268417 2.949823 
240.90889 0.377851 
241.434647 0.026313 
246.435547 0.030979 
246.448532 0.024351 
247.189316 0.029807 
248.267136 0.031072 
251.087494 0.039337 
251.105484 0.073998 
252.949722 0.590622 
254.728027 0.037193 
255.093353 0.028535 
261.135651 0.032907 
264.809662 0.036635 
266.926758 0.041311 
268.263336 0.045289 
271.430573 0.036958 
282.11264 0.03598 
286.774811 0.038833 
298.787262 0.03309 
327.419739 0.028612 
327.827423 0.047725 
330.735657 0.033345 
332.331085 0.35532 
333.818329 0.029933 
333.8685 0.026131 
350.332001 0.028598 
END IONS

