BEGIN IONS
PEPMASS=265.145
CHARGE=1+
COMPOUNDNAME=(1S,8R,9R)-8-hydroxy-4-(propan-2-ylidene)-10-oxatricyclo[7.2.1.01,5]dodecane-8-carboxylic acid
LIBRARYQUALITY=3
SMILES=N/A
INCHIKEY=IOYVXXQKVQKQIG-ZJPTYJIISA-N
INCHI=InChI=1S/C15H22O4/c1-9(2)10-3-5-14-7-12(19-8-14)15(18,13(16)17)6-4-11(10)14/h11-12,18H,3-8H2,1-2H3,(H,16,17)/t11?,12-,14-,15-/m1/s1
MSLEVEL=2
SOURCE_INSTRUMENT=N/A-ESI-QFT
FILENAME=library_mgf.mgf
SEQ=*..*
IONMODE=negative
ORGANISM=MONA
NAME=(1S,8R,9R)-8-hydroxy-4-(propan-2-ylidene)-10-oxatricyclo[7.2.1.01,5]dodecane-8-carboxylic acid [M-H]-
PI=MoNA
DATACOLLECTOR=MoNA:VF-NPL-QEHF021460
PUBMED=N/A
SUBMITUSER=mwang87
TAGS=
SPECTRUMID=CCMSLIB00004712523
SCANS=21460
50.477654 0.012784 
51.488243 0.013491 
51.678371 0.012693 
53.59713 0.013958 
54.994087 0.010979 
55.548496 0.013165 
56.100235 0.011175 
56.956802 0.010339 
57.033188 1.586299 
57.126163 0.013448 
57.767963 0.01073 
59.012413 0.012851 
60.068707 0.009827 
60.143478 0.010943 
60.698425 0.009288 
61.5877 0.01103 
62.292118 0.010852 
63.332054 0.012524 
65.175652 0.01205 
65.880028 0.011292 
66.560547 0.010851 
66.709473 0.01248 
67.980194 0.012094 
68.256683 0.01212 
68.286743 0.010394 
68.447594 0.012198 
69.033287 0.028107 
70.156105 0.010431 
71.869667 0.012048 
72.698143 0.01357 
72.940392 0.010951 
73.187561 0.013398 
75.929253 0.011762 
79.311943 0.01299 
79.73967 0.012628 
81.033211 0.168019 
83.04882 0.096635 
85.028137 0.159564 
85.553078 0.010166 
86.213326 0.009029 
86.742683 0.010911 
91.444679 0.013036 
93.167084 0.013002 
94.116791 0.012602 
94.676193 0.012638 
96.958778 0.535232 
98.035957 0.399135 
98.102333 0.009768 
98.819031 0.01094 
102.233826 0.013693 
102.333229 0.012222 
107.085083 0.014846 
108.940338 0.009947 
109.712448 0.012093 
112.110352 0.015443 
112.833496 0.009858 
113.669174 0.013262 
120.772903 0.015416 
123.296059 0.01373 
123.696381 0.013583 
123.708237 0.011936 
131.545776 0.011905 
135.080353 0.179864 
137.096146 0.125814 
141.761627 0.010747 
142.181168 0.011745 
146.979324 0.009227 
147.117004 0.023313 
147.818588 0.014021 
149.132416 0.06954 
155.189407 0.013254 
155.219498 0.012722 
160.679016 0.012797 
161.0961 0.080212 
162.203308 0.014537 
163.111847 1.001035 
163.63887 0.012777 
164.11528 0.039662 
171.116898 0.46419 
173.133057 0.012409 
174.465042 0.01256 
174.672302 0.015202 
175.000885 0.013738 
175.111267 0.034385 
182.269287 0.010514 
185.09613 0.013487 
185.126831 0.009379 
185.347595 0.01335 
188.829071 0.011799 
189.127716 1.858747 
189.136154 0.016311 
190.131042 0.204753 
191.143326 0.419175 
197.987289 0.014204 
201.128006 0.12618 
203.107346 0.015193 
203.143509 0.03036 
215.758255 0.139549 
215.762634 0.150005 
215.769669 0.191877 
217.122803 0.447157 
218.125595 0.011954 
219.13858 13.49405 
220.141907 1.877634 
221.117981 0.020158 
229.909943 0.013217 
232.626389 0.013901 
238.098953 0.011294 
245.118073 0.106813 
246.121185 0.030255 
247.134048 0.20776 
262.590851 0.013599 
263.128967 0.159595 
264.13269 0.010302 
265.144592 100.0 
266.147827 16.163031 
267.150238 0.724956 
269.584961 0.010943 
276.075836 0.011182 
277.121338 0.015897 
277.138 0.014313 
279.00705 0.012764 
279.199921 0.010441 
284.845245 0.016831 
END IONS

