BEGIN IONS
PEPMASS=526.318
CHARGE=1+
COMPOUNDNAME=(2E,4E)-1-[(2R,6S,14S,22S,25R)-25-(3,3-dimethyloxiran-2-yl)-15-methyl-1,3,13,15-tetraazaheptacyclo[18.4.1.0�,?.0?,��.0?,��.0�?,��.0�?,��]pentacosa-7,9,11,16(21),17,19-hexaen-3-yl]hexa-2,4-dien-1-one
LIBRARYQUALITY=3
SMILES=N/A
INCHIKEY=XZFSMUXVAYCHFO-QREHLELFSA-N
INCHI=InChI=1S/C32H36N4O2/c1-5-6-7-15-24(37)35-18-16-31-21-12-8-9-13-22(21)33-28-32(31)17-19-36(29(31)35)26(27-30(2,3)38-27)20-11-10-14-23(25(20)32)34(28)4/h5-15,26-29,33H,16-19H2,1-4H3/b6-5+,15-7+/t26-,27?,28+,29+,31-,32-/m1/s1
MSLEVEL=2
SOURCE_INSTRUMENT=N/A-ESI-QFT
FILENAME=library_mgf.mgf
SEQ=*..*
IONMODE=positive
ORGANISM=MONA
NAME=(2E,4E)-1-[(2R,6S,14S,22S,25R)-25-(3,3-dimethyloxiran-2-yl)-15-methyl-1,3,13,15-tetraazaheptacyclo[18.4.1.0�,?.0?,��.0?,��.0�?,��.0�?,��]pentacosa-7,9,11,16(21),17,19-hexaen-3-yl]hexa-2,4-dien-1-one [M+NH4]+
PI=MoNA
DATACOLLECTOR=MoNA:VF-NPL-QEHF021756
PUBMED=N/A
SUBMITUSER=mwang87
TAGS=
SPECTRUMID=CCMSLIB00004712819
SCANS=21756
50.061768 0.029468 
50.149612 0.041097 
51.028664 0.047846 
51.940582 0.059663 
52.05109 0.035181 
52.304634 0.029838 
52.910049 0.030921 
53.002468 0.234896 
53.053383 0.040357 
54.929127 0.060676 
55.018101 0.336629 
55.054504 1.521106 
55.42802 0.064909 
55.739273 0.055442 
55.850025 0.042606 
55.86747 0.088946 
58.045837 0.098216 
58.284611 0.090088 
58.656898 0.091667 
58.663876 0.085247 
59.049381 2.241736 
59.833263 0.043087 
59.977657 0.084323 
61.123371 0.046168 
61.195061 0.049337 
63.016617 0.079064 
63.13847 0.035111 
63.29155 0.095568 
63.431412 0.096019 
63.875172 0.044641 
65.038719 13.159596 
66.041985 0.056154 
66.507736 0.049571 
67.009277 0.079039 
67.054337 100.0 
67.654984 0.067019 
68.057671 5.219814 
69.674637 0.02884 
70.574699 0.06675 
71.339523 0.092321 
71.474564 0.082538 
71.570778 0.104821 
72.735573 0.089786 
73.017372 0.098565 
76.05127 0.049031 
76.322205 0.081519 
76.954453 0.077699 
77.155296 0.061104 
77.311493 0.086283 
80.590698 0.089252 
81.069702 0.200993 
82.963127 0.084221 
83.049164 3.288484 
83.874138 0.096705 
84.88797 0.049977 
89.162918 0.08408 
89.205757 0.082637 
89.387009 0.03914 
89.795471 0.030741 
90.158798 0.082002 
91.054443 0.069535 
94.057793 0.105396 
95.04911 60.352165 
95.864258 0.028952 
96.052498 3.535383 
97.065742 0.084105 
99.455368 0.067953 
102.1604 0.050342 
104.967926 0.030158 
105.069717 0.101207 
105.302193 0.091091 
109.780769 0.03058 
111.413857 0.048934 
111.6548 0.027327 
111.737236 0.100407 
115.054291 1.318661 
116.623161 0.031753 
117.025429 0.091234 
117.057449 0.418182 
117.070015 0.676747 
118.06514 0.611305 
118.477699 0.052118 
119.715118 0.096846 
122.295601 0.03168 
126.06469 0.059179 
126.845032 0.029836 
126.930344 0.096666 
129.069824 1.833336 
129.272781 0.093725 
130.065109 15.762537 
130.568649 0.078844 
131.06044 1.027483 
131.068451 1.86996 
131.073257 0.077322 
132.080704 1.712933 
133.647705 0.093496 
133.724838 0.06441 
133.849152 0.060808 
137.469101 0.060491 
140.769775 0.070384 
141.069809 0.091349 
142.065186 1.253753 
143.07309 1.804897 
144.080811 14.120268 
144.203323 0.038637 
145.083817 0.271325 
146.259155 0.107378 
146.514999 0.06668 
146.878723 0.034089 
147.953049 0.089423 
149.077179 0.086937 
153.069855 0.148054 
154.053574 0.050506 
154.065033 1.6687 
155.060593 0.258112 
155.072845 0.233011 
156.068176 0.323376 
156.080872 4.788583 
157.076172 1.060424 
157.088776 1.248179 
157.409149 0.045965 
158.084259 0.448535 
158.096344 8.495229 
159.091644 25.574953 
159.098236 0.486751 
160.075439 0.269384 
160.088242 0.053801 
160.094879 5.022845 
160.845062 0.091741 
161.098022 0.139995 
161.416824 0.063611 
161.4841 0.078032 
162.237625 0.047445 
166.065704 0.249486 
167.072952 1.593332 
168.06842 0.859909 
168.080734 14.593151 
169.076035 3.07127 
169.083511 0.175958 
169.088959 0.601929 
170.084 1.252092 
170.096375 9.776429 
171.068085 0.06669 
171.091537 3.486708 
171.099823 0.069199 
171.103165 0.07145 
172.07579 0.261485 
172.099792 6.142125 
172.11203 0.560933 
173.115784 0.120529 
176.835052 0.091813 
178.032974 0.072743 
180.08078 0.799275 
180.467056 0.059004 
181.075821 0.285403 
181.088577 4.800572 
182.083862 1.729903 
182.09668 4.706082 
183.091705 17.891926 
184.075775 4.842371 
184.099625 3.593272 
184.112 0.197909 
185.070969 0.589222 
185.083633 0.388656 
185.107376 7.582684 
186.07782 0.169585 
186.091263 9.919522 
187.086517 1.666415 
187.095062 0.267196 
193.87056 0.10606 
194.096634 1.296022 
195.091919 0.705914 
195.104385 0.528536 
196.076477 0.110967 
196.099075 0.802208 
196.111969 1.119527 
197.107224 3.351347 
198.091522 1.868878 
198.115036 0.744609 
198.127029 0.247726 
199.08667 0.680582 
199.098724 0.035553 
199.123703 0.083678 
200.094467 0.153732 
200.107086 0.200672 
201.102234 0.101009 
202.773117 0.116474 
206.183243 0.062812 
206.688065 0.067976 
207.018738 0.075464 
207.091293 0.2188 
208.111267 0.215648 
208.884628 0.104247 
209.107086 0.277576 
210.089325 0.056211 
210.127533 0.351436 
213.101868 0.088318 
215.117844 10.510941 
215.128647 0.112444 
216.121063 0.106309 
218.096466 0.085272 
219.571106 0.09368 
219.791901 0.700814 
220.111542 0.102227 
220.998093 0.071442 
221.10704 0.263997 
222.898743 1.291443 
223.123138 0.033063 
224.106995 0.166192 
226.122833 0.300799 
227.901474 0.093082 
229.895874 0.275533 
233.254059 0.075516 
237.137939 0.063415 
240.909119 2.443086 
247.906113 0.203951 
253.047516 0.09662 
255.091858 0.206581 
255.149338 0.151776 
256.099152 0.463397 
257.107147 0.477699 
261.233337 0.052841 
269.106781 1.096613 
270.114777 2.449911 
271.12262 3.706592 
272.128571 0.364904 
274.767365 0.109226 
280.098846 0.106168 
281.107086 2.381044 
282.114594 1.892534 
283.122803 9.265853 
284.129395 3.799098 
285.138275 2.522583 
285.631287 0.034605 
291.30072 0.073283 
293.107117 2.072038 
293.371979 0.035902 
294.114319 2.055644 
294.997467 0.093632 
295.122803 8.43924 
295.755035 0.091179 
296.13092 4.529918 
296.146454 0.031651 
297.138885 8.810679 
298.132111 1.32027 
298.146851 0.794292 
299.117523 0.305956 
299.153748 1.040186 
300.148682 0.104491 
307.122833 4.672117 
308.129913 2.432133 
309.13855 5.453867 
310.146545 1.116265 
311.117859 1.109238 
311.154266 1.977216 
312.126465 0.561955 
312.149323 3.435422 
313.133209 1.012593 
313.152344 0.532674 
313.170868 0.115026 
314.164978 0.347619 
315.310303 0.102684 
321.138733 0.170406 
322.145142 0.087609 
323.154114 1.973598 
324.124695 0.079341 
324.1492 0.234844 
325.133636 3.61773 
325.153412 0.241332 
326.14093 1.09096 
326.164459 3.556073 
327.148743 1.855836 
333.140656 0.104019 
335.153839 0.086813 
336.820099 0.080507 
341.163544 0.278915 
342.1604 0.486606 
343.191711 1.032908 
351.148407 0.290082 
360.170441 0.082149 
365.165131 0.101686 
367.179138 0.115293 
376.200317 0.086941 
392.546906 0.077472 
417.319794 0.056943 
433.749786 0.034808 
443.682007 0.088009 
459.999329 0.042561 
471.24585 0.086442 
490.808258 0.107419 
508.001129 0.130126 
527.738403 0.072394 
END IONS

