BEGIN IONS
PEPMASS=345.134
CHARGE=1+
COMPOUNDNAME=MoNA:2853524 Gibberellin
LIBRARYQUALITY=3
SMILES=N/A
INCHIKEY=IXORZMNAPKEEDV-UHFFFAOYSA-N
INCHI=InChI=1S/C19H22O6/c1-9-7-17-8-18(9,24)5-3-10(17)19-6-4-11(20)16(2,15(23)25-19)13(19)12(17)14(21)22/h4,6,10-13,20,24H,1,3,5,7-8H2,2H3,(H,21,22)
MSLEVEL=2
SOURCE_INSTRUMENT=LC-ESI-QTOF-LC-ESI-QTOF
FILENAME=output_mgf.mgf
SEQ=*..*
IONMODE=
ORGANISM=MONA
NAME=MoNA:2853524 Gibberellin [M-H]-
PI=MoNA
DATACOLLECTOR=MoNA
PUBMED=N/A
SUBMITUSER=mwang87
TAGS=
SPECTRUMID=CCMSLIB00000569311
SCANS=6562
199.1215 3.587444 
201.1262 5.73991 
205.1018 24.394619 
206.1088 5.470852 
209.0972 18.116592 
211.0674 3.946188 
213.1298 6.278027 
219.1128 20.358744 
221.1314 100.0 
225.0946 2.959641 
227.1075 64.304933 
239.1079 4.753363 
239.139 4.663677 
243.0659 2.869955 
253.1275 3.049327 
255.1373 3.856502 
262.0807 3.766816 
271.1022 2.780269 
END IONS

