BEGIN IONS
PEPMASS=227.0
CHARGE=1+
COMPOUNDNAME=MoNA:2452409 1swk
LIBRARYQUALITY=3
SMILES=N/A
INCHIKEY=YBJHBAHKTGYVGT-ZKWXMUAHSA-N
INCHI=InChI=1S/C10H16N2O3S/c13-8(14)4-2-1-3-7-9-6(5-16-7)11-10(15)12-9/h6-7,9H,1-5H2,(H,13,14)(H2,11,12,15)/t6-,7-,9-/m0/s1
MSLEVEL=2
SOURCE_INSTRUMENT=LC-ESI-IT-LC-ESI-IT
FILENAME=output_mgf.mgf
SEQ=*..*
IONMODE=
ORGANISM=MONA
NAME=MoNA:2452409 1swk [M+H]+
PI=MoNA
DATACOLLECTOR=MoNA
PUBMED=N/A
SUBMITUSER=mwang87
TAGS=
SPECTRUMID=CCMSLIB00000567247
SCANS=4498
91.3 6.232411 
97.0 28.800879 
99.1 13.569909 
100.2 4.942 
108.1 24.202073 
113.1 8.360217 
115.1 2.402361 
120.1 3.020111 
125.0 61.13666 
131.0 2.265083 
132.2 6.774659 
133.1 7.612053 
141.0 2.25822 
143.0 21.724209 
149.1 25.629762 
164.1 16.610612 
166.0 100.0 
166.9 6.911936 
175.1 0.892306 
184.1 2.601414 
191.8 10.687075 
209.0 80.753655 
227.0 12.945295 
END IONS

