BEGIN IONS
PEPMASS=623.337
CHARGE=1+
COMPOUNDNAME=deferrioxamine E
LIBRARYQUALITY=3
SMILES=N/A
INCHIKEY=NHKCCADZVLTPPO-UHFFFAOYSA-N
INCHI=InChI=1S/C27H48N6O9/c34-22-10-14-26(38)32(41)20-8-3-6-18-30-24(36)12-15-27(39)33(42)21-9-2-5-17-29-23(35)11-13-25(37)31(40)19-7-1-4-16-28-22/h40-42H,1-21H2,(H,28,34)(H,29,35)(H,30,36)
MSLEVEL=2
SOURCE_INSTRUMENT=N/A-ESI-QFT
FILENAME=library_mgf.mgf
SEQ=*..*
IONMODE=positive
ORGANISM=MONA
NAME=deferrioxamine E [M+Na]+
PI=MoNA
DATACOLLECTOR=MoNA:VF-NPL-QEHF004056
PUBMED=N/A
SUBMITUSER=mwang87
TAGS=
SPECTRUMID=CCMSLIB00004695119
SCANS=4056
50.078594 2.397413 
50.276474 2.612412 
50.584724 2.332954 
50.761353 1.29207 
51.042709 1.265454 
51.320404 0.731927 
51.708591 2.570906 
52.214203 0.279943 
52.574181 1.213892 
53.10968 2.36863 
53.303696 2.332894 
53.569157 1.60384 
53.664478 0.288728 
53.794899 2.339478 
54.38187 1.260886 
54.59874 2.604531 
54.604465 1.015176 
55.675545 1.390206 
56.050266 0.342078 
56.574776 2.220123 
56.596241 1.457455 
57.840839 0.350062 
58.105019 0.390174 
58.140717 3.096015 
58.212212 0.675424 
61.532082 2.327223 
61.684055 0.42496 
61.717209 1.962301 
62.819115 0.670228 
63.927467 0.688111 
64.167526 2.269203 
64.29599 0.393215 
64.484917 1.406329 
65.487907 2.82803 
66.629143 2.807105 
67.656364 2.509476 
67.894592 1.888887 
69.051544 0.395318 
69.070648 2.497935 
69.649063 2.509144 
69.84922 2.51669 
70.056122 2.36617 
70.065887 1.30036 
70.473633 2.672696 
71.613953 2.703553 
72.203499 1.711451 
73.60865 2.852806 
73.68222 0.35445 
74.461014 0.284688 
74.813751 2.447675 
75.308517 2.143784 
77.65638 0.790444 
78.212074 1.138293 
78.32399 2.718766 
79.015266 0.40128 
79.059517 2.322005 
79.479141 2.806704 
80.308472 0.640503 
80.347984 2.947305 
80.663216 2.525178 
81.019119 0.42933 
82.085892 2.863194 
82.94841 2.14384 
84.021469 1.560158 
84.081436 83.895317 
84.244392 2.693884 
84.395088 1.707313 
84.594582 1.865953 
87.390877 2.112796 
88.981522 2.658241 
89.824196 2.517389 
91.215622 2.643827 
93.092262 0.304615 
93.505074 2.221503 
94.933853 0.286141 
95.011475 1.167617 
95.034782 3.121834 
95.081001 2.788451 
95.305405 2.346658 
95.397346 1.611421 
96.864967 1.465069 
100.039848 2.097707 
101.212646 1.323051 
101.349281 2.449273 
101.657387 0.27958 
102.091515 0.534474 
102.213768 2.388926 
103.769951 1.870741 
105.268951 0.345475 
106.026894 2.543757 
106.063095 5.5002 
107.284248 2.738069 
108.042336 42.608601 
108.667938 1.292178 
109.050117 38.759136 
111.008827 2.046762 
113.859169 0.342958 
115.515472 1.119397 
117.11245 1.511484 
117.694321 2.949278 
117.720421 0.326543 
118.084526 2.728595 
119.253456 0.347773 
120.042114 6.50295 
121.050117 1.252908 
121.550507 1.223499 
122.057823 100.0 
123.005486 36.548527 
123.065796 4.352356 
123.089462 3.613351 
125.087158 0.706001 
128.577744 2.510535 
129.33812 1.683589 
130.902466 2.967277 
132.051331 0.417387 
134.324631 3.022631 
136.073349 10.10123 
137.081314 0.603534 
137.126831 1.550916 
138.091309 0.510122 
138.685684 1.618551 
139.025879 2.297906 
139.434799 1.798231 
141.870438 0.335791 
146.895569 1.555979 
148.063309 2.645364 
148.073456 1.541747 
150.089172 26.062744 
151.084412 1.393664 
151.097046 6.061012 
153.03949 3.868891 
154.054428 1.56028 
155.189926 0.307413 
156.319199 3.009429 
157.210083 2.237886 
158.112442 1.45716 
158.737289 0.344131 
160.787125 3.286045 
164.104797 5.101928 
165.904068 2.153518 
166.047531 17.137808 
166.92334 2.497096 
167.079269 3.438855 
168.050919 2.897193 
168.064102 3.206802 
170.907883 0.714414 
172.997223 0.52314 
173.602386 2.258635 
174.429733 2.198076 
175.029465 0.327398 
177.099854 9.992399 
178.198944 1.316191 
179.079269 12.188769 
179.115585 65.374435 
180.063004 12.119416 
181.058182 9.524013 
182.709778 0.717068 
183.29718 2.261963 
183.821976 3.320395 
184.144958 2.633065 
188.524567 0.325813 
189.66774 0.374552 
189.917892 0.397739 
191.079041 5.025534 
193.419464 3.198187 
194.827698 0.71579 
194.893951 2.462364 
195.073334 0.751639 
195.110886 0.849456 
195.655945 0.797651 
196.094543 8.398369 
197.126144 2.378333 
198.071091 0.43646 
199.147064 3.342746 
200.086273 2.324664 
201.184906 1.933861 
202.102219 1.428176 
205.094986 24.32432 
207.110489 17.729008 
212.896652 2.585259 
215.098358 0.449794 
219.110947 10.050865 
219.566483 3.409934 
219.577255 23.917231 
219.587952 5.635826 
220.604324 2.339032 
221.125854 3.314459 
223.105392 21.8664 
223.372162 0.78348 
232.097809 3.301203 
233.126099 21.486277 
234.120743 3.088648 
237.120255 4.726933 
238.234558 2.664919 
241.516541 0.450407 
242.108826 0.408472 
250.115021 2.753492 
250.152328 1.009155 
251.099319 7.122341 
251.136993 7.112459 
254.803574 1.48508 
261.120667 1.666875 
261.186615 0.29926 
262.116638 3.858336 
265.153778 3.167151 
273.128479 2.011921 
275.547546 2.406852 
279.131805 10.406192 
290.14743 8.57544 
295.417511 3.234501 
297.818329 3.082594 
301.99823 3.14013 
303.567841 2.963957 
304.163513 0.488719 
307.385162 2.668392 
308.157318 2.621683 
309.439514 1.345568 
315.285156 2.729718 
320.158264 14.025991 
322.681549 1.692527 
355.390961 0.914438 
360.041473 0.411735 
361.187714 3.263649 
377.208923 3.093281 
384.861664 1.782069 
388.780792 2.490761 
389.214203 1.70526 
392.391602 3.084425 
394.216949 1.950487 
395.750488 3.075483 
400.871582 1.918148 
403.525818 0.468496 
405.212402 3.919913 
409.080078 3.001511 
417.201477 2.739412 
423.076843 2.3392 
423.32016 2.593138 
445.227386 2.718169 
454.142822 0.35422 
458.670319 2.848362 
463.868835 2.318311 
465.250061 2.527182 
496.564911 1.782604 
504.561707 0.325585 
514.114441 0.392797 
517.973511 1.541852 
547.022766 1.569892 
553.154236 2.473553 
560.22522 0.319133 
567.006042 2.706665 
580.511841 1.890286 
592.817261 1.670571 
602.609375 1.915416 
611.431458 2.485132 
END IONS

