BEGIN IONS
PEPMASS=323.0
CHARGE=1+
COMPOUNDNAME=MoNA:2470853 2,2-Dichloro-N-[(1s,2s)-1,3-Dihydroxy-1-(4-Nitrophenyl)propan-2-Yl]acetamide
LIBRARYQUALITY=3
SMILES=N/A
INCHIKEY=WIIZWVCIJKGZOK-IUCAKERBSA-N
INCHI=InChI=1S/C11H12Cl2N2O5/c12-10(13)11(18)14-8(5-16)9(17)6-1-3-7(4-2-6)15(19)20/h1-4,8-10,16-17H,5H2,(H,14,18)/t8-,9-/m0/s1
MSLEVEL=2
SOURCE_INSTRUMENT=LC-ESI-IT-LC-ESI-IT
FILENAME=output_mgf.mgf
SEQ=*..*
IONMODE=
ORGANISM=MONA
NAME=MoNA:2470853 2,2-Dichloro-N-[(1s,2s)-1,3-Dihydroxy-1-(4-Nitrophenyl)propan-2-Yl]acetamide [M+H]+
PI=MoNA
DATACOLLECTOR=MoNA
PUBMED=N/A
SUBMITUSER=mwang87
TAGS=
SPECTRUMID=CCMSLIB00000567446
SCANS=4697
88.0 0.084445 
90.2 0.03467 
106.1 0.136434 
113.0 0.003929 
116.0 0.270374 
117.0 0.003853 
118.1 0.040964 
119.0 0.01976 
127.9 0.345096 
131.0 0.039705 
132.0 0.32438 
136.0 0.424461 
137.0 0.005545 
139.9 0.010038 
146.1 0.17036 
148.0 0.12516 
149.0 0.005265 
150.0 0.101678 
161.0 0.003799 
165.1 0.957115 
166.0 0.133556 
170.0 0.094478 
175.0 0.036055 
177.0 0.024705 
178.1 0.160719 
181.0 0.014175 
187.1 0.069616 
195.9 0.026735 
203.1 0.015438 
206.1 0.279216 
221.0 0.006505 
222.0 0.007692 
227.2 0.008838 
229.1 0.147785 
235.2 0.048841 
238.9 0.052093 
241.0 8.68358 
247.1 0.062641 
257.0 0.016828 
258.1 0.09261 
259.2 0.007936 
261.0 0.055328 
270.0 0.324777 
274.0 0.085275 
275.0 100.0 
275.8 0.101543 
276.7 0.087517 
277.4 0.04155 
278.1 0.044203 
279.1 0.060954 
284.8 0.007859 
285.9 0.040589 
287.0 2.717626 
295.9 0.01237 
298.7 0.068619 
305.0 0.520247 
306.0 0.027163 
318.0 0.098944 
END IONS

