BEGIN IONS
PEPMASS=914.526
CHARGE=1+
COMPOUNDNAME=Pesticide4_Avermectin B1b_C48H72O14_(1'R,2S,4'S,5S,6R,8'R,10'E,12'S,13'S,14'E,16'E,20'R,21'R,24'S)-6-[(2S)-2-Butanyl]-21',24'-dihydroxy-5,11',13',22'-tetramethyl-2'-oxo-5,6-dihydrospiro[pyran-2,6'-[3,7,19]trioxatetracyclo[15.6.1.1~4,8~.0~20,24~]pentacosa[10,14,16,22]tetraen]-12'-yl 2,6-dideoxy-4-O-(2,6-dideoxy-3-O-methyl-alpha-L-arabino-hexopyranosyl)-3-O-methyl-alpha-L-arabino-hexopyranoside
LIBRARYQUALITY=1
SMILES=CCC(C)C1C(C=CC2(O1)CC3CC(O2)CC=C(C(C(C=CC=C4COC5C4(C(C=C(C5O)C)C(=O)O3)O)C)OC6CC(C(C(O6)C)OC7CC(C(C(O7)C)O)OC)OC)C)C
INCHIKEY=RRZXIRBKKLTSOM-XPNPUAGNSA-N
INCHI=InChI=1S/C48H72O14/c1-11-25(2)43-28(5)17-18-47(62-43)23-34-20-33(61-47)16-15-27(4)42(26(3)13-12-14-32-24-55-45-40(49)29(6)19-35(46(51)58-34)48(32,45)52)59-39-22-37(54-10)44(31(8)57-39)60-38-21-36(53-9)41(50)30(7)56-38/h12-15,17-19,25-26,28,30-31,33-45,49-50,52H,11,16,20-24H2,1-10H3/b13-12+,27-15+,32-14+/t25-,26-,28-,30-,31-,33+,34-,35-,36-,37-,38-,39-,40+,41-,42-,43+,44-,45+,47+,48+/m0/s1
MSLEVEL=2
SOURCE_INSTRUMENT=-Q-Exactive Plus Orbitrap Res 70k
FILENAME=Pesticide_Mix4_pos.mzXML
SEQ=*..*
IONMODE=positive
ORGANISM=GNPS-COLLECTIONS-PESTICIDES-POSITIVE
NAME=Pesticide4_Avermectin B1b_C48H72O14_(1'R,2S,4'S,5S,6R,8'R,10'E,12'S,13'S,14'E,16'E,20'R,21'R,24'S)-6-[(2S)-2-Butanyl]-21',24'-dihydroxy-5,11',13',22'-tetramethyl-2'-oxo-5,6-dihydrospiro[pyran-2,6'-[3,7,19]trioxatetracyclo[15.6.1.1~4,8~.0~20,24~]pentacosa[10,14,16,22]tetraen]-12'-yl 2,6-dideoxy-4-O-(2,6-dideoxy-3-O-methyl-alpha-L-arabino-hexopyranosyl)-3-O-methyl-alpha-L-arabino-hexopyranoside M+ACN+H
PI=Dorrestein/Touboul
DATACOLLECTOR=lfnothias
PUBMED=n/a
SUBMITUSER=mwang87
TAGS=
SPECTRUMID=CCMSLIB00001058625
SCANS=2853
70.065613 8385.386719 
71.049538 45372.773438 
72.058655 3953.110107 
73.065292 95662.914062 
75.044281 5466.251953 
75.131767 4019.508545 
75.336807 4402.23584 
75.986183 4707.772949 
77.039001 4459.439453 
79.054611 144416.703125 
79.967003 3861.548584 
80.313553 4672.116211 
81.033836 4946.293457 
81.07019 161202.984375 
82.065361 20697.349609 
83.04937 26032.003906 
83.085815 16791.224609 
84.044609 164778.09375 
84.080994 82218.328125 
85.065109 56011.1875 
86.060341 23732.048828 
88.07592 4428.466309 
91.054482 62249.773438 
93.070061 147591.953125 
94.065254 847286.4375 
95.04924 658467.875 
95.085701 48698.050781 
96.080902 138701.96875 
96.228027 4064.192871 
97.065056 140769.921875 
97.101372 8820.686523 
98.060249 76577.257812 
98.096642 5289.392578 
99.080635 115631.445312 
100.075928 21068.179688 
105.070053 179615.6875 
107.049316 30110.994141 
107.085793 88066.5 
109.065063 110986.585938 
109.101524 164291.734375 
109.991135 4225.036133 
110.060371 514953.375 
111.044121 16599.90625 
111.080757 5008.979492 
111.755936 4423.727051 
112.075989 4761646.0 
113.059868 816424.375 
115.054352 5707.421875 
117.070175 27050.486328 
119.049515 17388.197266 
119.085846 75627.789062 
121.064896 55475.234375 
121.10154 143750.75 
122.349579 4511.139648 
123.08062 91661.195312 
123.116974 249730.296875 
123.254745 4874.810547 
126.091499 250866.8125 
126.400284 4424.708984 
127.075592 42785.636719 
128.062317 34211.609375 
128.070938 17694.214844 
128.335983 4432.03125 
129.070297 46632.859375 
131.085846 47489.039062 
133.065018 21699.558594 
133.101486 66720.203125 
135.044357 5368.031738 
135.080856 38677.042969 
135.116959 23634.910156 
136.075943 55666.480469 
137.059891 4171.219238 
137.096436 9804.628906 
137.420944 4920.794434 
139.21698 4199.550781 
140.305008 3851.620605 
141.070297 23901.427734 
142.078171 47215.417969 
142.086639 653155.25 
143.085907 392577.78125 
144.102295 3970590.25 
145.064957 65290.582031 
145.08609 57963.917969 
145.101273 57459.78125 
147.080658 37101.363281 
147.117004 21862.501953 
149.09642 7724.263184 
151.075867 8444.989258 
151.112015 135080.171875 
152.071045 66258.328125 
153.070312 6328.873535 
153.20018 4231.995605 
154.08667 4491846.5 
155.085724 28911.650391 
156.093658 109732.960938 
157.101654 36013.871094 
158.07312 7127.52832 
159.080704 30786.496094 
159.117432 28800.314453 
161.060287 5273.730469 
161.096588 37683.902344 
161.133011 8093.921875 
162.091812 5841.772949 
163.076004 33435.175781 
163.506943 4086.56543 
163.688065 4100.388184 
165.055344 7425.283203 
165.070435 22911.886719 
166.078354 68668.421875 
167.798401 5633.040039 
169.065247 6122.713379 
169.101639 35288.992188 
169.122604 7841.312988 
170.081619 6077.171875 
171.080658 47339.707031 
171.117249 536500.625 
172.016769 4695.567383 
173.096146 8365.55957 
173.132874 7363.073242 
175.11171 6557.8125 
175.148499 34229.210938 
178.078232 4024.919189 
179.086105 11144.899414 
179.143524 9281.59668 
180.10257 10022.806641 
181.08609 4011.766846 
181.098236 5383.86084 
181.101517 40871.007812 
182.073105 8346.384766 
183.080475 8340.007812 
183.117477 7969.893066 
184.088669 56730.925781 
184.097351 157844.890625 
185.096573 10716.763672 
185.132996 6991.317871 
186.1129 3819514.75 
187.112152 18087.421875 
189.055405 18188.53125 
189.091156 7457.879883 
189.128159 6362.823242 
193.159225 315368.0 
195.081329 6159.203613 
195.117523 5943.617188 
197.096542 77194.398438 
199.111862 1476074.5 
199.148499 6605.845215 
206.117996 18844.121094 
209.096405 9534.025391 
211.111969 6356.922852 
213.128036 5671.949707 
215.107422 24915.556641 
217.122696 26766.708984 
219.138733 7455.991211 
219.763153 4686.918457 
221.154129 8706.373047 
223.112076 8712.223633 
224.128647 18323.322266 
224.312561 4739.848145 
225.091293 177353.546875 
237.128357 8677.329102 
243.101791 201423.765625 
245.117722 15610.302734 
248.12822 7799.185059 
249.127579 11042.787109 
261.112152 61441.222656 
266.138977 76510.476562 
270.198273 26990.119141 
271.206909 7476.278809 
273.932251 4722.943848 
275.143585 6040.394531 
287.201294 51377.917969 
288.208679 34117.75 
289.216583 19875.96875 
289.681335 4750.487305 
298.165283 598794.75 
305.211395 74477.492188 
307.226776 5591.368652 
326.210968 4703.865234 
330.190979 84474.484375 
390.566681 5291.519531 
447.347168 65091.492188 
448.351807 25419.533203 
500.217316 5039.574219 
505.331268 5261.587402 
531.31134 6744.070312 
549.320679 10750.733398 
558.414368 24080.425781 
559.960266 4634.513184 
590.445251 19479.666016 
600.426208 29428.003906 
601.432251 5859.841797 
632.452332 18879.992188 
643.340149 5047.936523 
688.062195 5305.618164 
770.047241 4905.419434 
822.242859 5883.01416 
825.512146 5073.911133 
END IONS

