BEGIN IONS
PEPMASS=321.133
CHARGE=1+
COMPOUNDNAME=Massbank:EA280806 Mycophenolic acid| (E)-6-(4-hydroxy-3-keto-6-methoxy-7-methyl-phthalan-5-yl)-4-methyl-hex-4-enoic acid
LIBRARYQUALITY=3
SMILES=c12c(c(c(C\C=C(\CCC(O)=O)C)c(c1C)OC)O)C(=O)OC2
INCHIKEY=HPNSFSBZBAHARI-RUDMXATFSA-N
INCHI=1S/C17H20O6/c1-9(5-7-13(18)19)4-6-11-15(20)14-12(8-23-17(14)21)10(2)16(11)22-3/h4,20H,5-8H2,1-3H3,(H,18,19)/b9-4+
MSLEVEL=2
SOURCE_INSTRUMENT=ESI-LC-ESI-ITFT
FILENAME=Massbank_ESI_positive_8_1_2014_peaks.mgf
SEQ=*..*
IONMODE=Positive
ORGANISM=MASSBANK
NAME=Massbank:EA280806 Mycophenolic acid| (E)-6-(4-hydroxy-3-keto-6-methoxy-7-methyl-phthalan-5-yl)-4-methyl-hex-4-enoic acid [M+H]+
PI=Putative Massbank Match
DATACOLLECTOR=Massbank
PUBMED=N/A
SUBMITUSER=mwang87
TAGS=
SPECTRUMID=CCMSLIB00000211251
SCANS=5222
67.054 4475.3 
77.0386 84786.3 
79.0542 14506.7 
81.0699 30773.3 
91.0542 440304.6 
93.0699 7576.7 
95.0493 8623.4 
97.0646 3801.2 
102.0464 5853.9 
103.0543 376667.5 
105.0334 6875.6 
105.0447 22268.1 
105.0697 8444.6 
107.0496 3477.3 
109.0648 4965.7 
117.0333 17373.5 
121.0648 8543.8 
131.0491 163708.7 
133.0654 7469.2 
135.0804 38449.5 
136.0518 8167.0 
139.0755 9480.8 
145.0647 12974.8 
147.0443 4188.1 
149.0596 38510.5 
159.0439 2427912.2 
161.0595 9338.1 
163.0387 3979.8 
165.0548 3518.3 
175.0753 23153.4 
177.0545 359014.2 
179.0702 79758.2 
185.0963 4893.1 
189.0915 5828.5 
191.0702 7447.6 
192.0419 4011.8 
193.0494 9657.0 
195.0651 37178.8 
207.0652 537916.7 
215.1062 10362.3 
221.08 5427.6 
END IONS

