BEGIN IONS
PEPMASS=385.105
CHARGE=1+
COMPOUNDNAME=GIBBERELLIC ACID
LIBRARYQUALITY=3
SMILES=N/A
INCHIKEY=IXORZMNAPKEEDV-SNTJWBGVSA-N
INCHI=InChI=1S/C19H22O6/c1-9-7-17-8-18(9,24)5-3-10(17)19-6-4-11(20)16(2,15(23)25-19)13(19)12(17)14(21)22/h4,6,10-13,20,24H,1,3,5,7-8H2,2H3,(H,21,22)/t10-,11+,12-,13-,16+,17+,18+,19-/m1/s1
MSLEVEL=2
SOURCE_INSTRUMENT=N/A-ESI-QFT
FILENAME=library_mgf.mgf
SEQ=*..*
IONMODE=positive
ORGANISM=MONA
NAME=GIBBERELLIC ACID [M+K]+
PI=MoNA
DATACOLLECTOR=MoNA:VF-NPL-QEHF006371
PUBMED=N/A
SUBMITUSER=mwang87
TAGS=
SPECTRUMID=CCMSLIB00004697434
SCANS=6371
50.289185 0.03527 
50.360519 0.031769 
50.429256 0.165731 
50.517441 0.061317 
50.607502 0.03488 
50.719891 0.030447 
51.033821 0.036897 
51.140106 0.042084 
51.518314 0.044111 
51.984509 0.036294 
53.002953 0.679208 
53.039394 2.019375 
53.087341 0.127723 
53.236809 0.075769 
53.437027 0.041587 
53.45039 0.060774 
53.52813 0.031854 
53.79665 0.034758 
53.882706 0.090447 
54.116894 0.043695 
54.151455 0.060036 
54.168449 0.035708 
54.276344 0.061222 
54.433109 0.142446 
54.44083 0.063013 
54.666092 0.029271 
54.679512 0.033266 
54.714073 0.034519 
54.90316 0.035715 
55.018616 10.690621 
55.054989 30.904579 
55.075249 0.032286 
55.113228 0.028417 
55.256989 0.135781 
55.419785 0.151075 
55.447056 0.035923 
55.549881 0.030263 
55.912682 0.068092 
56.050243 7.365939 
56.058323 0.151619 
56.745293 0.040084 
56.965542 10.223398 
57.034245 8.046105 
57.070637 29.066828 
57.145859 0.248459 
57.258575 0.134553 
57.362064 0.035315 
57.572094 0.038321 
57.700695 0.037303 
57.830929 0.037833 
58.06588 93.597725 
58.067532 1.577907 
58.203552 0.036448 
58.41634 0.091946 
58.561985 0.036166 
59.049896 12.709074 
59.061127 5.920769 
59.069229 1.105751 
59.128269 0.110762 
59.404125 0.037352 
59.526615 0.065229 
60.045139 14.217673 
60.053364 0.035233 
60.056381 0.214682 
60.081528 0.124147 
60.793999 0.033377 
60.936291 0.130884 
60.978016 0.036461 
61.011402 4.827435 
61.029152 0.125835 
61.040401 0.081444 
61.351067 0.032287 
61.77771 0.03146 
61.849014 0.096681 
61.922428 0.031421 
62.019211 2.92802 
62.024368 2.071559 
62.060802 0.084297 
62.982433 1.423489 
63.083126 0.035286 
63.166054 0.029913 
63.345112 0.062503 
63.355713 0.152039 
63.898525 0.032958 
63.905853 0.031148 
64.634819 0.113877 
65.03936 0.642176 
65.704597 0.043045 
65.87355 0.133938 
65.968353 0.037806 
66.308075 0.032323 
67.054916 37.654587 
67.282249 0.039171 
67.831703 0.063521 
67.929626 0.033166 
67.982887 0.034057 
68.050201 2.216465 
68.05825 0.369605 
68.257782 0.040609 
68.582626 0.033113 
68.677299 0.028902 
68.850586 0.118422 
68.867355 0.034138 
68.942642 0.03327 
69.034164 11.25434 
69.045525 0.173 
69.070534 72.810577 
69.632591 0.032 
69.838974 0.0293 
70.029411 6.970248 
70.065796 56.699543 
70.073914 2.861267 
70.163101 0.031681 
70.201363 0.033813 
70.313591 0.107633 
70.454086 0.121326 
71.049782 16.466011 
71.069206 0.708134 
71.086174 11.404832 
71.088203 0.072122 
71.603607 0.151045 
71.616562 0.077512 
71.84079 0.033161 
71.9524 0.077552 
72.004784 0.089682 
72.045067 2.060103 
72.081406 13.288198 
72.401787 0.038893 
72.469643 0.116017 
72.63485 0.080231 
72.784943 0.126134 
73.029099 1.259484 
73.040199 0.223498 
73.065414 7.211367 
73.084641 0.095816 
74.006706 0.164888 
74.024292 100.0 
74.060646 3.097925 
74.097061 1.686238 
74.256607 0.033829 
74.353172 0.141261 
74.447227 0.034223 
74.483833 0.057132 
74.976067 0.252289 
75.027679 0.60784 
75.044693 0.472532 
75.621216 0.136743 
75.65686 0.03132 
75.749184 0.034185 
75.877068 0.111621 
76.039825 0.184767 
76.076324 0.195283 
76.111877 0.038263 
76.252464 0.034176 
76.27002 0.109117 
76.815948 0.037858 
76.825989 0.122779 
77.009018 0.398327 
77.039574 0.164351 
77.055031 0.041118 
77.366127 0.123525 
77.410355 0.038081 
77.7658 0.033068 
78.571075 0.110585 
78.907104 0.041403 
79.02182 7.061165 
79.054794 23.057058 
79.568382 0.10985 
79.980301 0.073987 
80.050079 1.932027 
80.058144 0.142072 
80.23053 0.136299 
80.582092 0.061145 
80.765648 0.071957 
80.94838 0.072264 
81.034081 4.499659 
81.045242 0.541333 
81.070419 57.648289 
81.079926 0.031665 
81.119171 0.097719 
82.063278 0.036287 
82.065659 7.569487 
82.073853 1.73784 
82.480789 0.033587 
82.529335 0.141663 
82.845947 0.032399 
83.04969 20.533796 
83.060928 0.565788 
83.086044 28.973211 
83.334435 0.037313 
83.369873 0.036314 
83.372337 0.072275 
84.044907 19.057039 
84.081314 37.997772 
84.089409 0.42349 
84.405754 0.031249 
84.636497 0.034507 
84.960266 0.989148 
85.028954 6.558545 
85.040138 0.912071 
85.065285 18.381378 
85.08477 0.810867 
85.101753 3.058173 
86.060562 7.042219 
86.096924 91.94104 
86.697968 0.036035 
86.908386 0.034197 
87.026947 0.317963 
87.044556 11.846107 
87.055702 0.857098 
87.080994 0.107056 
87.100281 2.864817 
88.03978 13.25047 
88.076187 5.375364 
88.909256 0.055634 
89.034859 0.099979 
89.060188 9.225002 
90.055351 0.210675 
90.064034 0.052215 
90.795074 0.167972 
91.054672 61.451736 
91.057671 1.582546 
91.452614 0.034333 
91.637856 0.035759 
92.057892 0.201518 
92.237968 0.035417 
92.29837 0.034098 
92.539833 0.030699 
92.541565 0.138761 
92.633553 0.029745 
92.986404 0.057226 
93.070312 32.754585 
93.348007 0.118699 
93.551666 0.136357 
94.065529 4.096407 
94.073677 1.287453 
94.593224 0.11561 
95.01355 0.152873 
95.019279 0.087222 
95.049622 12.030137 
95.06076 2.813014 
95.085953 58.264053 
95.385193 0.169147 
95.959297 0.036675 
96.018715 0.351309 
96.044853 5.341338 
96.081169 7.605389 
96.089294 2.539992 
96.382668 0.033011 
97.025398 0.099366 
97.028831 2.871249 
97.040016 0.837997 
97.065231 18.827827 
97.076324 2.366644 
97.10157 17.282511 
97.228455 0.14031 
97.531235 0.144263 
98.024147 0.096755 
98.034996 0.066223 
98.060448 8.272958 
98.068909 0.065046 
98.093307 0.285748 
98.096825 38.429413 
98.104759 0.074969 
98.526649 0.132369 
98.975731 11.43552 
99.044411 7.502028 
99.05574 0.703344 
99.080833 11.571048 
99.091911 0.074049 
99.100159 1.359624 
99.115852 0.029852 
99.55809 0.033316 
100.025238 0.040306 
100.03965 0.922736 
100.047737 0.121385 
100.076088 15.754621 
100.112457 6.646869 
100.197334 0.038346 
100.40136 0.034931 
100.888794 0.039448 
101.003532 0.290824 
101.023705 0.058023 
101.060051 13.037549 
101.071701 0.179588 
101.079414 0.036525 
101.949844 0.034802 
102.055321 7.760062 
102.09156 0.081817 
103.039352 6.313517 
103.043396 0.081882 
103.050858 0.621294 
103.054588 47.174198 
103.058357 0.42959 
103.075737 0.361827 
103.58007 0.136751 
103.68502 0.030159 
104.057915 1.775218 
104.07106 0.614671 
105.033783 0.326697 
105.070213 93.744087 
105.074303 1.407159 
106.065422 3.553629 
106.073532 6.232664 
106.086601 0.054794 
106.712006 0.155317 
107.001541 0.043983 
107.049469 10.381413 
107.085854 28.883408 
107.930389 0.031745 
108.044739 1.945348 
108.08107 20.807283 
108.089188 0.848827 
108.102829 0.043839 
108.28186 0.075109 
108.39061 0.034896 
109.028702 1.548644 
109.040108 0.189477 
109.065071 13.625912 
109.076309 1.83959 
109.084229 0.57217 
109.101425 33.271076 
109.46434 0.036346 
109.7369 0.140311 
110.024048 0.283914 
110.060303 9.424846 
110.071602 4.461319 
110.096703 6.057991 
110.104752 0.886649 
111.044342 11.159421 
111.05558 9.743539 
111.080719 10.971979 
111.117073 2.936645 
111.699379 0.036347 
111.933609 0.153037 
112.039581 2.005864 
112.050919 0.274528 
112.075943 31.600048 
112.083145 0.077916 
112.087402 0.436294 
112.112312 2.278913 
112.27253 0.038153 
112.842018 0.031768 
113.023537 0.514448 
113.034744 0.683808 
113.059937 8.574555 
113.071198 3.002419 
113.079269 0.111241 
113.096344 15.396797 
114.055168 5.92821 
114.091614 2.409924 
114.278603 0.060178 
114.956352 0.176326 
115.039223 2.316831 
115.055206 0.066381 
115.075592 4.656691 
115.086853 0.969968 
116.007179 0.040682 
116.070847 14.837539 
116.107239 0.731438 
116.986115 22.721817 
116.990692 0.301348 
117.054497 0.341014 
117.07003 6.669111 
117.307404 0.037469 
117.647293 0.032274 
117.989594 0.196387 
118.035194 1.877777 
118.065285 0.975496 
118.086464 1.175976 
118.16597 0.038628 
118.796997 0.036676 
118.887573 0.037409 
118.982178 0.036705 
119.001755 0.122488 
119.015701 0.031634 
119.019165 0.046136 
119.049347 2.745103 
119.073029 0.094898 
119.085693 20.185459 
119.317833 0.150353 
120.044807 0.341262 
120.080963 16.905764 
120.088882 0.847238 
120.97908 0.122712 
121.02858 0.404466 
121.064941 12.389037 
121.076508 0.043462 
121.084442 0.168599 
121.101326 25.125599 
121.957367 0.171784 
122.060196 7.026648 
122.096581 4.110998 
122.104683 1.165938 
122.77784 0.036363 
123.044182 6.340596 
123.055344 1.112702 
123.08062 12.690452 
123.091827 3.171035 
123.116928 10.318027 
123.627899 0.034342 
124.039436 33.300137 
124.075829 14.405329 
124.099792 0.129489 
124.11219 2.72545 
124.120651 0.159231 
125.042702 0.514635 
125.05983 8.454573 
125.07103 2.988232 
125.09626 8.798166 
125.107491 2.276967 
125.690323 0.144279 
126.055084 4.271207 
126.091476 6.748461 
126.1278 0.686956 
126.511749 0.039368 
126.516998 0.04562 
126.734711 0.049173 
127.039124 0.714417 
127.050316 1.243821 
127.075409 3.415751 
127.086678 4.467655 
127.111755 0.037841 
127.52095 0.039705 
128.034012 0.066262 
128.070709 8.731958 
128.107117 2.493813 
128.846771 0.036353 
128.986084 0.046417 
129.039627 0.040348 
129.054718 1.780759 
129.065521 0.083303 
129.070038 1.659271 
129.090729 0.052655 
129.102463 0.552137 
130.049896 6.800677 
130.065125 3.758487 
130.086304 43.962578 
130.963959 0.033604 
131.001526 0.562985 
131.049164 24.640865 
131.085358 11.116015 
131.473846 0.034445 
132.044357 0.162649 
132.052292 0.495792 
132.080795 4.863067 
132.088623 0.157278 
132.101883 8.433932 
132.672577 0.03358 
133.017166 0.119459 
133.06485 3.717179 
133.085617 0.158495 
133.101151 16.785969 
133.319916 0.064981 
133.340714 0.071666 
134.013535 0.046459 
134.060028 3.700572 
134.068069 0.170974 
134.09639 2.682482 
134.104782 0.26929 
134.978714 5.820328 
134.996414 46.969166 
135.044022 1.845957 
135.055313 0.262596 
135.080399 12.019493 
135.091309 0.054428 
135.116745 14.210778 
135.233078 0.036249 
135.999832 1.02866 
136.039429 0.371139 
136.045364 1.970864 
136.061951 0.544245 
136.075623 9.119919 
136.112076 1.683526 
136.120331 0.347678 
136.526016 0.048478 
136.974609 0.567683 
136.992523 0.365139 
137.000595 0.175894 
137.011688 3.27804 
137.041748 0.042157 
137.059677 6.361437 
137.071045 1.128197 
137.096069 8.523961 
137.106964 0.14391 
137.132568 1.256198 
137.182205 0.032308 
137.252106 0.06766 
138.012329 0.167795 
138.028931 0.232183 
138.054932 6.545092 
138.091217 7.965025 
138.09787 0.047881 
138.12764 0.768703 
138.98941 0.931014 
139.008987 0.176794 
139.037735 1.819162 
139.050125 2.94003 
139.05687 0.078315 
139.075287 6.747217 
139.086487 1.811762 
139.111679 2.958546 
139.631042 0.041172 
140.034103 1.983371 
140.070557 6.378843 
140.081741 0.157632 
140.10701 2.307216 
140.727127 0.032967 
140.983658 0.037119 
141.054626 0.915656 
141.065659 0.920351 
141.091064 1.388835 
141.102127 0.92748 
142.049347 1.354663 
142.086227 3.878086 
142.122635 0.233937 
142.159378 0.046301 
142.40451 0.063072 
142.909668 0.033787 
143.070236 0.47431 
143.085678 3.401442 
144.043854 0.072525 
144.065445 1.744405 
144.080688 0.850767 
144.101807 1.178559 
145.052185 1.576789 
145.064774 0.956743 
145.101151 14.33806 
146.011307 0.044226 
146.059967 8.44092 
146.09198 1.481831 
146.09726 0.58845 
146.104126 0.45239 
146.918289 1.612502 
146.996475 0.105383 
147.032639 0.082575 
147.044098 2.556582 
147.067886 1.501816 
147.080475 6.330125 
147.11673 10.101859 
148.075668 8.230738 
148.112015 1.588601 
148.120285 0.09357 
148.964066 0.044363 
149.012115 3.029589 
149.059708 6.411455 
149.070969 0.929833 
149.079559 0.164101 
149.096085 8.034643 
149.10704 0.245161 
149.132507 6.322008 
149.892868 0.455744 
150.054871 5.740336 
150.091278 8.464105 
150.099197 0.059883 
150.127747 0.274045 
150.135696 0.181387 
150.951248 0.527957 
151.007034 0.044482 
151.027512 0.071766 
151.038895 0.221517 
151.050125 0.282335 
151.057251 0.223197 
151.062653 0.139354 
151.075272 5.031652 
151.086639 1.798295 
151.094528 0.047663 
151.111755 3.970107 
151.123047 0.302577 
151.148209 0.23182 
151.510681 0.175107 
151.756622 0.038947 
152.044235 0.044698 
152.070572 10.828594 
152.081848 0.228944 
152.106995 6.794199 
152.951797 0.043916 
152.982986 0.073624 
152.989212 18.826244 
153.006958 11.542044 
153.054001 2.435493 
153.06575 1.448724 
153.090942 3.056653 
153.102081 1.471963 
153.127335 0.356726 
153.18573 0.041238 
153.993011 0.153729 
154.010498 0.03877 
154.049835 1.941142 
154.086105 5.212125 
154.122574 3.450728 
154.968475 0.751557 
154.98497 5.359487 
155.022308 3.133301 
155.031631 0.129568 
155.070251 0.813768 
155.080917 0.844389 
155.085602 0.242082 
155.106827 0.105119 
155.117874 0.190167 
155.126175 0.071198 
155.715836 0.040573 
156.023209 0.058017 
156.065445 2.689569 
156.076401 0.095041 
156.08873 0.080106 
156.101898 3.916713 
156.138275 0.070896 
156.681549 0.038159 
157.019348 0.167714 
157.060364 1.890879 
157.101303 5.66542 
158.01265 0.080124 
158.060074 0.946697 
158.081192 2.128832 
158.095764 0.230311 
158.117645 1.376646 
158.995605 0.125668 
159.032837 0.223583 
159.080383 2.66246 
159.091599 0.33516 
159.116791 7.680906 
160.027985 1.963453 
160.034485 3.188202 
160.075653 4.987284 
160.112076 0.911232 
160.120346 0.118265 
160.98999 0.083635 
161.011993 0.35601 
161.048416 1.664207 
161.059647 0.502397 
161.071182 0.391241 
161.096085 6.966635 
161.107498 0.11417 
161.132385 5.084992 
161.388733 0.084008 
162.044266 0.051941 
162.054855 3.433041 
162.07756 0.091559 
162.091187 4.541513 
162.127792 0.305926 
162.46962 0.03475 
163.007675 0.049744 
163.02774 0.096619 
163.039413 0.083089 
163.05954 0.074891 
163.075256 5.369724 
163.086502 1.373601 
163.11171 3.729773 
163.123016 0.331377 
163.148117 1.739196 
164.070465 7.137068 
164.08197 0.963493 
164.106995 5.566836 
164.114075 0.148003 
164.92894 1.636993 
165.054276 1.699458 
165.065781 1.573255 
165.09108 3.814421 
165.10228 2.194031 
165.126999 0.84736 
166.049622 0.735563 
166.060593 0.340739 
166.086243 7.689811 
166.097427 0.227278 
166.122787 2.232531 
166.461304 0.146724 
166.589462 0.049792 
167.004944 0.906079 
167.022903 0.56997 
167.070007 1.808401 
167.08165 2.487769 
167.106491 1.025947 
167.117966 4.921964 
167.903473 0.049828 
168.06546 4.039072 
168.076645 0.049549 
168.101883 6.351118 
168.113129 0.100847 
168.13826 1.678553 
168.621826 0.039585 
168.922226 0.038282 
168.961441 0.15212 
169.017273 0.0582 
169.038467 0.048899 
169.047241 5.316101 
169.073471 2.276328 
169.085022 0.047582 
169.101196 0.557985 
170.042938 0.20649 
170.051071 0.13193 
170.081116 4.22762 
170.096268 0.261167 
170.117523 2.027212 
170.128815 1.089135 
170.340073 0.035002 
170.954819 0.042969 
170.999771 3.623536 
171.033218 0.056835 
171.079086 0.584914 
171.11676 2.261446 
172.003021 0.038157 
172.075607 1.055393 
172.096848 0.350358 
172.112061 0.25852 
172.133362 1.25862 
172.163528 0.039459 
172.943924 0.050277 
172.99556 2.237353 
173.011505 0.173492 
173.048233 0.045329 
173.060577 0.37257 
173.070709 0.047111 
173.080536 0.034255 
173.0961 2.91427 
173.107742 0.211141 
173.132523 2.865445 
174.054672 0.213341 
174.09137 2.65835 
174.127701 8.263382 
174.303894 0.041121 
174.976837 0.038636 
174.990707 0.17217 
175.027939 0.25749 
175.045349 0.048446 
175.074692 2.771698 
175.086533 0.765536 
175.097 0.119123 
175.111664 4.519871 
175.123352 0.514028 
175.148132 2.440747 
176.023529 0.046694 
176.070328 5.142926 
176.080704 0.073414 
176.107056 7.910884 
176.114624 0.050504 
176.971863 0.062529 
176.988419 0.420468 
177.006409 0.051205 
177.043228 0.296415 
177.05481 0.505226 
177.065674 0.566326 
177.090912 3.376439 
177.102066 1.566471 
177.127304 1.467836 
177.138596 0.610744 
177.164062 0.44019 
178.0383 44.903416 
178.048416 0.629339 
178.086151 7.376521 
178.094818 0.08034 
178.122696 4.430847 
178.992859 0.139229 
179.006592 0.03466 
179.022293 5.676386 
179.0392 3.205227 
179.059097 0.487062 
179.070267 0.532858 
179.081299 1.25961 
179.106766 2.077247 
179.117859 1.477568 
179.142883 0.405835 
180.023331 0.359176 
180.065231 4.190551 
180.076126 0.495916 
180.101929 4.850667 
180.13826 0.893959 
180.984039 0.044881 
181.019196 0.98424 
181.049561 0.142439 
181.085281 1.558607 
181.097275 2.512687 
181.122589 0.115099 
181.133484 0.667111 
182.081284 2.474236 
182.091949 0.082933 
182.11763 3.031446 
182.939468 1.46829 
183.069336 0.256051 
183.07663 0.336745 
183.11644 0.67352 
183.942932 0.033962 
184.004379 0.035685 
184.044907 0.039628 
184.074631 0.147045 
184.096893 6.039282 
184.133331 2.473566 
184.807083 0.033956 
185.016281 0.162558 
185.070404 0.195153 
185.096085 0.398128 
185.132446 1.335631 
185.914276 0.082129 
186.076645 0.05282 
186.091187 1.085797 
186.112839 0.047533 
186.927567 0.126126 
187.027603 0.318599 
187.075394 0.265981 
187.086929 0.061212 
187.111908 1.808691 
187.123367 0.085035 
187.148224 1.081043 
187.809677 0.039216 
188.070328 1.22984 
188.106995 2.078145 
188.143326 11.462963 
188.965927 0.071485 
189.006165 0.302767 
189.043396 0.361814 
189.065643 0.229738 
189.091034 2.659653 
189.101944 1.573539 
189.111572 0.32428 
189.127304 0.509063 
189.138687 0.136375 
189.146378 0.102817 
189.163239 0.127053 
189.201691 0.182032 
189.694794 0.042464 
190.086258 2.930715 
190.096375 0.088022 
190.12265 5.993998 
190.953918 2.31405 
191.000916 0.106539 
191.022339 0.115841 
191.070526 0.687117 
191.081268 1.309037 
191.106964 1.692342 
191.117691 2.313349 
191.143005 0.213731 
192.054001 1.776083 
192.065399 2.298803 
192.101929 6.661263 
192.138138 1.300042 
192.893738 0.034913 
192.961212 0.240948 
192.987061 0.339449 
193.019623 0.118974 
193.037842 0.206799 
193.06134 0.138825 
193.085831 1.204079 
193.097443 1.256101 
193.122528 1.379951 
193.133575 1.929156 
193.158295 0.177993 
194.081268 2.985159 
194.091354 0.292735 
194.117554 4.472929 
194.948288 0.034841 
194.98317 1.156004 
194.999771 4.291767 
195.03302 0.053727 
195.053574 0.046776 
195.077332 0.560296 
195.101837 0.483001 
195.113098 2.539129 
196.04895 29.140249 
196.060394 6.984264 
196.069611 0.173016 
196.096878 5.68246 
196.106262 0.046755 
196.133438 1.164572 
197.032898 1.099843 
197.050018 1.865443 
197.080368 0.133277 
197.09288 2.452017 
197.131393 0.505357 
197.988159 0.149484 
198.076874 0.194989 
198.088837 0.434448 
198.112305 1.318657 
198.126053 0.15719 
198.149124 0.695229 
199.028625 0.142864 
199.064011 0.160914 
199.086273 0.169546 
199.11174 1.583045 
199.121902 0.160536 
199.147888 0.048955 
200.070496 0.154484 
200.091812 0.183566 
200.106018 0.566696 
200.126419 0.133271 
200.777115 0.154858 
200.805389 0.049852 
200.94928 0.041608 
201.043304 0.421756 
201.079849 3.433047 
201.090652 0.994912 
201.102325 2.884899 
201.12706 0.449695 
201.163834 0.04926 
202.038803 0.095431 
202.085907 1.992722 
202.12204 0.900712 
203.02272 0.04347 
203.05925 0.183567 
203.070297 0.409305 
203.106812 1.278022 
203.117645 1.892552 
203.143158 0.240109 
204.054504 0.557978 
204.065018 0.390161 
204.076706 0.074009 
204.087128 1.932621 
204.101929 3.885614 
204.13826 1.971852 
204.969452 0.25457 
204.978897 0.071874 
205.038269 0.547032 
205.060471 0.191885 
205.08609 0.713645 
205.097488 0.82081 
205.122589 0.355414 
205.133575 1.617354 
206.068253 0.087744 
206.080994 2.913358 
206.117554 2.849811 
206.12851 0.044499 
206.926315 0.423414 
207.054153 0.10618 
207.065506 0.190455 
207.076599 0.270681 
207.10173 0.767905 
207.112793 2.025164 
207.13855 0.121634 
207.148956 0.585755 
208.060806 0.272761 
208.096802 2.304888 
208.133072 2.437588 
208.144257 0.109776 
208.9646 1.251991 
209.048874 0.185266 
209.079132 0.053126 
209.093475 1.299656 
209.116913 0.496874 
209.128799 5.185373 
210.064713 1.344942 
210.075348 0.5203 
210.090576 0.056542 
210.112213 1.991467 
210.148941 0.710436 
210.768616 0.1568 
210.921875 0.076538 
210.959076 0.161504 
210.972397 0.065273 
211.074905 0.075213 
211.109009 1.455987 
211.145462 0.110992 
212.054047 0.113566 
212.071152 0.076447 
212.09169 0.648452 
212.104935 0.768943 
212.128113 1.325653 
212.164322 0.245763 
212.992599 0.154686 
213.010239 0.213397 
213.043381 0.278592 
213.065964 0.108579 
213.079742 0.051602 
213.090347 0.29322 
213.102386 0.056053 
213.126633 0.540431 
213.164246 0.206422 
213.802399 0.051473 
214.07106 0.805425 
214.085999 0.426205 
214.121841 0.055821 
214.210632 5.10279 
214.222672 3.480043 
214.23378 2.607742 
214.954071 0.210801 
215.059647 0.112001 
215.106476 0.168141 
216.101807 0.909777 
216.138214 6.324021 
216.148483 0.076641 
216.951324 0.043395 
216.969849 0.571437 
216.987228 0.04776 
217.038025 0.04409 
217.074585 0.473087 
217.085205 0.045054 
217.096497 0.385889 
217.108063 0.04745 
217.122086 0.257013 
217.133804 0.048338 
217.142471 0.168048 
218.069214 0.552398 
218.08049 0.487698 
218.117432 12.65178 
219.002213 0.114563 
219.020126 0.290378 
219.041931 0.05082 
219.076248 0.044617 
219.090225 0.667238 
219.112259 1.429567 
219.121307 0.380577 
219.149002 1.318554 
219.174103 1.889933 
220.020706 0.353768 
220.062424 0.092993 
220.082001 2.036393 
220.096771 3.275312 
220.123978 0.077273 
220.133209 6.88524 
220.144196 0.658554 
220.157288 0.166273 
221.017624 1.434445 
221.051743 0.780942 
221.08049 0.884432 
221.091843 1.949551 
221.117416 0.389111 
221.128235 2.163191 
221.164566 0.16498 
222.018738 0.471827 
222.043533 0.172876 
222.065048 0.146337 
222.07608 0.539154 
222.097504 9.743172 
222.112091 1.857141 
222.148727 3.783883 
222.160187 3.23955 
222.921417 0.528692 
223.015625 0.043999 
223.027924 0.056893 
223.047806 0.086604 
223.072037 0.245635 
223.09729 0.299212 
223.108414 1.946062 
223.132507 0.568058 
223.144089 1.270387 
224.058975 0.1868 
224.091156 2.136709 
224.104477 0.435357 
224.128159 1.509534 
224.139374 0.361967 
224.165314 0.157545 
224.898972 0.035964 
224.936966 0.431788 
225.044571 0.105414 
225.089249 0.372936 
225.111252 0.098498 
225.124039 1.309048 
225.141769 0.120674 
226.068604 0.138441 
226.085068 0.289599 
226.107773 0.655303 
226.122208 0.107014 
226.143616 0.611606 
226.15535 0.114967 
226.937622 0.092604 
227.007202 0.369148 
227.059082 2.001485 
227.105148 0.215212 
227.117416 0.049768 
227.140961 0.051131 
228.00885 0.097577 
228.029984 0.05319 
228.05304 0.20259 
228.090714 0.03766 
228.10144 1.542287 
228.932877 0.14609 
229.074585 1.205862 
229.132065 0.086261 
230.080322 0.05992 
230.116592 0.426426 
231.029678 0.129165 
231.054138 0.372295 
231.101196 0.095067 
231.113007 0.432921 
231.137741 0.424332 
231.149109 0.174599 
232.096512 0.648845 
232.133148 0.917359 
232.964569 4.009859 
233.035995 0.609109 
233.06926 0.116879 
233.093063 0.222956 
233.128281 1.085036 
233.15242 0.106396 
233.968353 0.043336 
234.063156 0.055223 
234.112061 0.400039 
234.135971 0.154927 
234.148972 5.977247 
234.960007 0.401097 
234.980377 0.406041 
234.996872 0.389669 
235.108459 0.768486 
235.144058 1.218749 
235.204788 0.048722 
236.079544 0.045104 
236.092026 0.057689 
236.113205 0.197634 
236.127502 3.997802 
236.163651 0.120341 
236.957718 0.175528 
236.994873 0.195497 
237.124542 1.142168 
237.16124 0.171172 
237.913025 0.050752 
238.068573 0.143602 
238.093185 0.358956 
238.107498 1.591057 
238.143494 1.243596 
238.633148 0.109056 
239.00824 0.040214 
239.060623 0.130709 
239.103806 0.282865 
239.139252 0.426449 
239.177124 0.197495 
240.054596 0.103769 
240.107895 0.273443 
240.122894 0.303938 
240.170807 0.399751 
240.909256 0.568584 
240.932114 0.359171 
241.0746 0.046007 
241.096985 0.178627 
241.133255 0.106729 
241.155045 1.137588 
241.910645 0.043257 
242.07045 0.048447 
242.103088 0.119228 
242.115982 0.121144 
242.139786 0.051611 
242.814819 0.034741 
242.909592 0.416068 
243.019928 0.594716 
243.076447 0.112279 
243.0896 0.208367 
243.101181 0.111054 
243.113556 0.093118 
244.021606 0.984086 
244.085083 0.395108 
244.132385 0.32189 
244.146362 0.042789 
244.926712 0.03171 
244.981735 2.783347 
245.016907 2.728409 
245.069427 6.844347 
245.106125 0.084749 
245.128189 0.570633 
245.983307 2.628899 
246.019135 1.897429 
246.07341 1.340529 
246.112488 0.346914 
246.148239 0.295481 
246.943451 0.295101 
246.961807 0.931313 
246.979248 3.006615 
247.015274 0.58632 
247.047012 0.057177 
247.066711 0.137333 
247.084869 0.739123 
247.107559 0.770332 
247.146637 2.736855 
248.045319 0.113766 
248.091141 0.089054 
248.127884 0.978019 
248.936996 1.839842 
248.95993 0.034954 
248.973969 0.07061 
249.043274 0.147431 
249.062943 0.044001 
249.087372 0.170132 
249.101303 0.046656 
249.12413 0.311486 
249.566605 0.039579 
249.845062 0.046107 
250.121918 0.268105 
250.143295 0.7164 
250.809738 0.035558 
250.89502 0.035117 
250.936157 1.389933 
250.974747 3.031414 
251.056763 3.759225 
251.103165 0.148828 
251.139313 0.696039 
251.937302 0.043661 
252.072281 1.597654 
252.104263 0.05594 
252.122437 0.051567 
252.135452 0.296714 
252.847977 0.04266 
252.933395 0.36206 
252.970383 0.528013 
253.038147 0.318668 
253.073639 0.241329 
253.120407 0.089871 
253.155396 0.48475 
253.948624 0.041527 
255.089478 0.066566 
255.134521 0.423608 
255.174728 0.054343 
255.923584 0.109792 
256.095428 0.099953 
256.166199 0.226166 
256.964233 0.057465 
257.130707 1.426025 
257.151031 0.149441 
258.074524 0.155726 
258.112366 0.061249 
258.133942 0.045442 
258.148651 0.180274 
258.997711 0.157375 
259.084412 0.280153 
260.127655 0.161547 
261.030457 8.633402 
261.082733 0.177749 
261.099213 0.058946 
261.123505 0.286442 
261.160919 0.388994 
261.870422 0.035996 
261.913452 0.149501 
262.031708 16.330853 
262.074554 0.050082 
262.155548 0.280263 
262.992767 5.234252 
263.027618 36.811081 
263.079773 2.353039 
263.09491 0.139766 
263.139099 2.164935 
263.993927 5.961305 
264.029358 27.970207 
264.08783 0.258271 
264.121674 0.912553 
264.143921 0.183642 
264.158752 0.166139 
264.196442 0.172242 
264.868835 0.084436 
264.904968 0.08065 
264.953888 0.30123 
264.972107 0.404997 
264.989441 5.047618 
265.024506 9.871597 
265.057831 0.175581 
265.074554 0.111059 
265.092987 0.04528 
265.110748 0.149103 
265.15509 0.503487 
265.924255 0.106302 
265.939117 2.656671 
265.963043 0.054497 
265.993652 0.037568 
266.031342 0.544296 
266.082245 0.162049 
266.138306 0.333644 
266.207916 0.035392 
266.903931 0.316763 
266.947174 1.057107 
266.985352 0.368065 
267.053986 0.149819 
267.090546 0.053287 
267.136108 0.100143 
267.855713 0.089345 
267.935913 2.468986 
267.950653 0.04085 
268.131256 0.053413 
268.154083 0.144354 
268.263 0.039507 
268.946716 1.03372 
269.067657 0.550582 
269.126953 0.060814 
269.149506 0.196373 
269.945831 0.058692 
270.095245 1.594392 
270.945465 0.355412 
270.963623 0.116425 
271.048889 0.165343 
271.107727 0.331425 
271.144165 0.481329 
271.1651 0.059278 
272.936981 0.404377 
273.123779 0.099321 
273.158966 0.089575 
274.934631 0.043544 
274.97464 1.869578 
275.045197 0.174079 
275.141357 1.601962 
276.047821 0.507015 
276.931183 0.09808 
277.007782 0.505583 
277.028015 0.041523 
277.04361 1.854094 
277.093903 0.120547 
277.155426 2.478059 
278.009125 0.130456 
278.045929 1.385044 
278.069397 1.212289 
278.186401 0.19016 
278.969086 0.040067 
279.005463 0.20737 
279.041077 0.116625 
279.07074 0.10023 
279.088837 0.045375 
279.92337 4.814092 
280.084747 2.665222 
281.068726 0.307271 
281.087402 0.045627 
281.104889 0.28184 
281.128998 0.091398 
281.911987 4.319857 
281.933899 0.056585 
282.039093 0.155426 
282.100433 9.181302 
282.131378 0.651063 
282.148651 0.194158 
282.879669 0.149965 
282.913879 3.320368 
282.984955 0.043066 
283.103149 0.91384 
283.913361 0.75486 
283.950623 0.29953 
284.913239 2.880561 
285.031281 0.043709 
285.159607 0.047509 
286.143188 0.353096 
286.177002 1.245088 
287.138641 0.163617 
288.134277 0.304611 
288.922028 0.033721 
290.947021 6.338235 
291.090332 0.314322 
291.107147 0.047821 
291.132202 0.17111 
291.934875 0.040238 
291.950531 0.443169 
292.165558 3.093601 
292.299744 0.182759 
292.947723 3.606952 
292.985718 1.018306 
293.086945 0.968667 
293.149628 0.146662 
293.945282 0.278119 
294.151489 0.088039 
294.315338 11.730046 
294.941101 2.610442 
296.164551 0.167503 
296.196045 0.135401 
297.12207 0.245252 
297.278564 1.27564 
297.93396 5.091098 
298.095459 0.296383 
298.161163 0.109632 
299.079254 0.28976 
299.114441 0.051671 
299.139435 0.042081 
300.111237 2.319569 
300.142181 0.123729 
302.924957 0.037793 
305.050629 0.042407 
305.187164 0.102304 
305.208771 0.171249 
306.932922 0.054407 
307.083496 0.112799 
307.165833 0.143707 
307.200836 0.10228 
308.133636 0.355636 
308.957855 2.044862 
309.100586 0.19123 
309.119324 0.054717 
309.946472 1.62641 
310.958496 2.08978 
311.079651 0.046423 
311.114716 0.045108 
311.139099 0.269123 
311.15976 0.104245 
311.744263 0.103852 
311.955017 0.220229 
312.838715 0.100578 
312.954559 1.039401 
314.954712 0.043785 
319.201569 0.047971 
320.162262 0.179786 
321.144806 0.349432 
321.180725 0.245508 
322.144043 0.873059 
322.178802 0.207295 
322.363556 0.069422 
322.917053 0.05512 
323.139557 0.228489 
323.15976 2.608932 
323.920624 0.085445 
323.96106 0.04009 
324.112579 0.053303 
324.161377 0.352553 
324.3255 11.006677 
325.09494 0.209497 
325.155151 0.091966 
325.329865 0.886599 
326.134979 2.652021 
326.176361 0.144023 
327.07724 2.644736 
327.095764 1.327434 
327.134644 0.374397 
327.184174 0.057207 
327.826416 0.100503 
328.082245 0.566373 
328.187622 0.054634 
328.832886 0.113449 
330.007812 0.160586 
331.037415 0.045173 
332.965546 0.046027 
333.131439 1.397445 
337.156067 0.077427 
337.321014 0.039891 
338.115784 0.067139 
338.1521 0.113495 
338.377502 1.977436 
339.157898 0.623753 
340.161652 0.391708 
341.186768 0.179758 
341.219543 0.048258 
341.314362 0.135692 
342.012512 0.038488 
343.139099 0.051345 
344.828766 0.042858 
345.032684 0.058499 
345.053101 0.041668 
347.030792 0.044989 
348.15509 0.343437 
353.112732 0.073619 
353.207184 0.203112 
356.599213 0.193049 
361.279724 0.486898 
362.282288 0.051501 
363.636627 0.043123 
365.207489 0.765031 
366.14563 0.202239 
366.167023 0.196204 
366.20401 0.408463 
366.227966 0.236654 
367.187012 0.095673 
367.223297 0.245094 
368.185669 1.357888 
369.212708 0.040688 
372.860535 0.038422 
376.186737 0.153032 
383.167389 0.204405 
383.197815 0.688173 
383.215149 0.080621 
383.284424 0.039734 
383.706177 0.03521 
384.189636 0.328499 
384.21405 2.12843 
384.360565 0.093612 
384.417023 0.587687 
385.177734 3.878146 
385.213318 1.908851 
385.235565 0.450556 
385.291931 14.253418 
385.319275 0.129169 
385.333649 0.136978 
386.140259 0.166863 
386.173279 0.719027 
386.203613 0.813386 
386.231537 0.323851 
386.296387 1.489875 
386.340637 0.081019 
386.377655 3.294807 
387.155273 0.812904 
387.192383 0.630336 
387.229095 0.089271 
387.270233 0.351901 
393.042267 0.034065 
395.827148 0.039778 
400.523987 0.03369 
405.939972 0.179899 
END IONS

