BEGIN IONS
PEPMASS=176.0
CHARGE=1+
COMPOUNDNAME=Massbank:KO002528 Citrulline|L-Citrulline|2-Amino-5-ureidovaleric acid
LIBRARYQUALITY=3
SMILES=NC(=O)NCCC[C@H](N)C(O)=O
INCHIKEY=RHGKLRLOHDJJDR-BYPYZUCNSA-N
INCHI=1S/C6H13N3O3/c7-4(5(10)11)2-1-3-9-6(8)12/h4H,1-3,7H2,(H,10,11)(H3,8,9,12)/t4-/m0/s1
MSLEVEL=2
SOURCE_INSTRUMENT=ESI-LC-ESI-QQ
FILENAME=Massbank_ESI_positive_8_1_2014_peaks.mgf
SEQ=*..*
IONMODE=Positive
ORGANISM=MASSBANK
NAME=Massbank:KO002528 Citrulline|L-Citrulline|2-Amino-5-ureidovaleric acid [M+H]+
PI=Putative Massbank Match
DATACOLLECTOR=Massbank
PUBMED=N/A
SUBMITUSER=mwang87
TAGS=
SPECTRUMID=CCMSLIB00000217553
SCANS=8330
50.1 54455.5 
55.4 19802.0 
61.1 361386.5 
61.6 14851.5 
70.1 12435656.0 
70.9 79208.0 
72.7 89109.0 
80.8 84158.5 
83.4 123762.5 
84.2 59406.0 
85.1 89109.0 
86.1 297030.0 
87.0 277228.0 
88.2 123762.5 
95.2 113861.5 
95.7 188119.0 
97.0 554456.0 
97.7 153465.5 
98.7 351485.5 
100.2 19802.0 
113.1 26811908.0 
114.0 4524757.0 
115.3 5658421.5 
116.2 4069311.0 
119.1 24752.5 
119.8 19802.0 
123.1 163366.5 
126.4 14851.5 
130.2 207921.0 
130.9 193069.5 
133.0 128713.0 
134.1 346535.0 
141.2 1297031.0 
142.0 430693.5 
147.2 39604.0 
157.9 103960.5 
159.1 21712893.0 
176.2 965347.5 
END IONS

