BEGIN IONS
PEPMASS=280.155
CHARGE=1+
COMPOUNDNAME=Isocycloheximide
LIBRARYQUALITY=3
SMILES=N/A
INCHIKEY=YPHMISFOHDHNIV-UHFFFAOYSA-N
INCHI=InChI=1S/C15H23NO4/c1-8-3-9(2)15(20)11(4-8)12(17)5-10-6-13(18)16-14(19)7-10/h8-12,17H,3-7H2,1-2H3,(H,16,18,19)
MSLEVEL=2
SOURCE_INSTRUMENT=N/A-ESI-QFT
FILENAME=library_mgf.mgf
SEQ=*..*
IONMODE=negative
ORGANISM=MONA
NAME=Isocycloheximide [M-H]-
PI=MoNA
DATACOLLECTOR=MoNA:VF-NPL-QEHF023902
PUBMED=N/A
SUBMITUSER=mwang87
TAGS=
SPECTRUMID=CCMSLIB00004714965
SCANS=23902
50.165855 0.016591 
50.554966 0.01777 
50.973846 0.015495 
51.371914 0.015245 
52.727924 0.021435 
53.217991 0.02005 
54.764935 0.011568 
55.906487 0.02118 
56.097542 0.014661 
57.083225 0.018127 
57.237804 0.012568 
57.917 0.021079 
58.028416 5.772219 
58.710999 0.016417 
59.01247 2.091453 
60.581921 0.019195 
61.821587 0.012218 
63.594204 0.018285 
63.864471 0.017856 
64.974754 0.018317 
65.167152 0.018049 
65.88134 0.019132 
66.033531 0.8899 
67.01754 0.24691 
67.321632 0.015 
68.936241 0.018696 
69.000214 0.022174 
69.033211 64.083542 
70.036545 2.584184 
70.039497 0.095748 
73.67337 0.015612 
74.066681 0.024285 
74.687843 0.020311 
74.829544 0.015252 
75.025978 0.584023 
75.340202 0.024849 
75.517059 0.021453 
76.923668 0.020462 
76.951126 0.03582 
77.005287 0.091574 
77.460976 0.013926 
77.662338 0.01699 
78.027328 0.015302 
78.966766 1.161808 
78.968987 0.017311 
78.984528 0.298206 
79.46032 0.011992 
79.879463 0.018337 
79.955963 2.190027 
80.090752 0.018795 
80.963814 1.337532 
81.314537 0.0188 
81.440796 0.014569 
81.498222 0.016665 
81.559319 0.024972 
83.003136 0.018025 
83.048859 0.128423 
84.04409 1.490053 
84.061089 0.022576 
85.028122 0.581609 
85.356407 0.015237 
86.023552 0.053918 
86.571632 0.01209 
86.912003 0.020735 
87.2323 0.02085 
87.401932 0.015243 
88.536263 0.016654 
88.802498 0.019882 
89.802803 0.020444 
91.106697 0.028117 
91.799683 0.01568 
92.001656 0.01178 
92.539032 0.022115 
92.891685 0.016379 
93.073616 0.018396 
93.704437 0.015896 
94.028488 1.068307 
94.101151 0.017021 
94.724632 0.020481 
94.9795 0.858743 
95.01252 6.677559 
95.458656 0.020865 
95.686829 0.01938 
96.007751 0.125503 
96.015877 0.151168 
96.958778 1.242337 
97.747131 0.018123 
98.059837 6.027922 
98.681396 0.022932 
99.063019 0.108947 
99.06665 0.019145 
99.318596 0.012636 
102.659554 0.016483 
103.312286 0.018002 
104.597466 0.020337 
106.05484 0.015616 
106.256325 0.019183 
109.028191 0.06498 
110.023491 76.423309 
110.059822 0.968026 
110.893036 0.014129 
110.95652 0.040924 
111.007401 0.158947 
111.020363 0.064285 
111.026604 3.618681 
111.043846 1.045574 
111.736443 0.013319 
112.027618 0.021786 
112.039131 3.979209 
112.479233 0.020616 
112.935883 0.192271 
113.023117 0.242399 
113.042259 0.014481 
113.92627 0.012651 
121.029167 0.016634 
123.080353 1.918161 
124.039146 1.318291 
124.935905 0.053669 
124.954597 0.073859 
125.09597 34.834286 
125.557709 0.022922 
126.098679 2.296453 
126.951569 0.069252 
128.03418 1.146557 
128.925537 0.016437 
130.810928 0.021404 
131.240921 0.023943 
133.459198 0.017311 
134.446457 0.016597 
135.281616 0.017162 
136.039413 0.073612 
136.89473 0.018201 
136.947372 0.017816 
137.042282 0.015608 
137.299103 0.019975 
137.679077 0.013575 
138.147736 0.018723 
138.951645 0.335528 
142.911148 0.048505 
144.809235 0.018792 
144.826157 0.019548 
148.899384 0.026105 
149.096252 0.103916 
149.225952 0.025951 
151.111679 15.956761 
152.114975 1.565502 
152.950867 0.017815 
153.072647 0.020284 
154.049789 100.0 
154.894318 0.20106 
155.046371 0.24436 
155.053131 7.454967 
156.05452 0.061437 
157.916519 0.01699 
163.381699 0.018677 
166.942856 0.024741 
167.106857 2.152601 
168.110306 0.304778 
171.931381 0.051409 
173.229141 0.014925 
174.925354 0.02359 
175.996414 0.025272 
177.127518 7.143406 
178.131119 0.893694 
182.503525 0.017215 
183.855209 0.142288 
193.122604 1.553629 
194.125977 0.423549 
195.994492 0.019394 
199.169678 0.072699 
199.850708 0.026521 
200.916565 0.017637 
201.136108 0.01813 
201.866058 0.052275 
211.612 0.022387 
214.987015 0.070042 
215.579941 0.604095 
215.58931 0.254359 
215.60022 0.333478 
215.8452 0.07295 
219.138367 0.095132 
220.133789 0.686962 
221.118073 0.024953 
229.437073 0.020697 
232.516403 0.019854 
233.885651 0.020848 
234.476501 0.023802 
236.165253 0.381468 
237.149277 0.083467 
247.444489 0.020465 
262.144897 1.347531 
263.148071 0.044406 
268.467285 0.018495 
269.944366 0.019621 
275.612671 0.018527 
275.711731 0.016809 
276.114929 0.019299 
278.140564 0.086904 
279.144836 0.149441 
279.1633 1.518096 
279.23291 0.683442 
280.155121 3.253844 
281.140839 0.159595 
281.158905 0.612209 
281.248413 5.853702 
281.967987 0.015058 
282.251801 0.334651 
287.974548 0.022595 
288.703217 0.014557 
292.683807 0.023499 
300.724579 0.015209 
END IONS

