BEGIN IONS
PEPMASS=308.0
CHARGE=1+
COMPOUNDNAME=Massbank:KO003611 Neomycin|Fradiomycin B|Streptothricin B|Neomycin B
LIBRARYQUALITY=3
SMILES=NC[C@H](O1)[C@@H](O)[C@H](O)[C@@H](N)[C@H]1O[C@H]([C@@H](CO)4)[C@@H](O)[C@@H](O4)O[C@H]([C@@H](O)3)[C@@H]([C@@H](N)C[C@@H](N)3)O[C@@H](O2)[C@H](N)[C@@H](O)[C@H](O)[C@@H](CN)2
INCHIKEY=PGBHMTALBVVCIT-VCIWKGPPSA-N
INCHI=1S/C23H46N6O13/c24-2-7-13(32)15(34)10(28)21(37-7)40-18-6(27)1-5(26)12(31)20(18)42-23-17(36)19(9(4-30)39-23)41-22-11(29)16(35)14(33)8(3-25)38-22/h5-23,30-36H,1-4,24-29H2
MSLEVEL=2
SOURCE_INSTRUMENT=ESI-LC-ESI-QQ
FILENAME=Massbank_ESI_positive_8_1_2014_peaks.mgf
SEQ=*..*
IONMODE=Positive
ORGANISM=MASSBANK
NAME=Massbank:KO003611 Neomycin|Fradiomycin B|Streptothricin B|Neomycin B [M+2H]++
PI=Putative Massbank Match
DATACOLLECTOR=Massbank
PUBMED=N/A
SUBMITUSER=mwang87
TAGS=
SPECTRUMID=CCMSLIB00000219753
SCANS=9413
43.2 44554.5 
44.2 89109.0 
54.8 39604.0 
55.2 79208.0 
56.2 123762.5 
57.1 89109.0 
60.1 232673.5 
64.8 14851.5 
66.7 24752.5 
68.0 876238.5 
69.1 490099.5 
69.9 237624.0 
70.9 123762.5 
71.9 316832.0 
73.3 178218.0 
78.2 49505.0 
80.2 1722774.0 
80.8 118812.0 
82.1 202970.5 
83.1 217822.0 
84.3 896040.5 
85.1 232673.5 
86.4 242574.5 
94.9 64356.5 
96.3 767327.5 
97.3 579208.5 
98.1 480198.5 
98.9 19802.0 
102.1 470297.5 
105.3 44554.5 
107.1 64356.5 
108.0 381188.5 
109.2 108911.0 
110.1 128713.0 
110.6 29703.0 
112.4 29703.0 
114.3 925743.5 
123.1 19802.0 
124.9 242574.5 
126.2 59406.0 
133.9 94059.5 
138.2 14851.5 
143.2 24752.5 
144.0 113861.5 
145.5 89109.0 
153.9 19802.0 
155.7 19802.0 
161.0 84158.5 
163.0 222772.5 
163.7 24752.5 
174.0 19802.0 
END IONS

