BEGIN IONS
TITLE=Scan Number: 355
PEPMASS=924.51501
CHARGE=1+
COMPOUNDNAME=Amphotericin B
LIBRARYQUALITY=3
SMILES=C[C@H]1/C=C/C=C/C=C/C=C/C=C/C=C/C=C/[C@@H](C[C@H]2[C@@H]([C@H](C[C@](O2)(C[C@H](C[C@H]([C@@H](CC[C@H](C[C@H](CC(=O)O[C@H]([C@@H]([C@@H]1O)C)C)O)O)O)O)O)O)O)C(=O)O)O[C@H]3[C@H]([C@H]([C@@H]([C@H](O3)C)O)N)O
INCHIKEY=APKFDSVGJQXUKY-INPOYWNPSA-N
INCHI=InChI=1S/C47H73NO17/c1-27-17-15-13-11-9-7-5-6-8-10-12-14-16-18-34(64-46-44(58)41(48)43(57)30(4)63-46)24-38-40(45(59)60)37(54)26-47(61,65-38)25-33(51)22-36(53)35(52)20-19-31(49)21-32(50)23-39(55)62-29(3)28(2)42(27)56/h5-18,27-38,40-44,46,49-54,56-58,61H,19-26,48H2,1-4H3,(H,59,60)/b6-5+,9-7+,10-8+,13-11+,14-12+,17-15+,18-16+/t27-,28-,29-,30+,31+,32+,33-,34-,35+,36+,37-,38-,40+,41-,42+,43+,44-,46-,47+/m0/s1
MSLEVEL=2
SOURCE_INSTRUMENT=LC-ESI-qTof
FILENAME=f.amcaraballor/20150108/20150108_COCULTURE_mzXML/AmpB_Black_P1-A-1_01_17967.mzXML;
SEQ=*..*
NOTES=
IONMODE=Positive
ORGANISM=GNPS-LIBRARY
NAME=Amphotericin B M+H
SPECTRUMID=CCMSLIB00000424805
ACTIVATION=CID
INSTRUMENT=ion trap
SCANS=355
141.083359 612.0 
143.095428 1536.0 
144.102982 320.0 
145.113663 2096.0 
147.093811 1948.0 
148.095322 472.0 
151.085999 2436.0 
152.084167 532.0 
153.074768 516.0 
155.092987 1928.0 
156.101669 660.0 
157.102722 1756.0 
159.127731 872.0 
161.113541 1024.0 
163.090134 484.0 
165.096222 1720.0 
166.090378 468.0 
167.086014 2724.0 
168.088593 548.0 
169.107117 1292.0 
170.116669 536.0 
171.091293 980.0 
173.106171 1580.0 
175.084595 2604.0 
177.071014 324.0 
179.090424 1340.0 
180.100067 524.0 
181.104187 2232.0 
182.111435 600.0 
183.118912 2328.0 
185.100494 2572.0 
187.088562 364.0 
189.096771 1160.0 
190.104324 336.0 
191.106155 1232.0 
193.094543 10712.0 
194.099503 1696.0 
195.115295 1396.0 
197.132904 1076.0 
199.093811 976.0 
201.104431 484.0 
203.09816 756.0 
205.110229 1000.0 
206.114182 392.0 
207.116638 1348.0 
208.126007 568.0 
209.122849 1024.0 
210.12796 448.0 
211.106583 5748.0 
212.108826 1056.0 
213.116135 640.0 
215.115204 1012.0 
217.097336 1420.0 
218.105545 364.0 
219.115646 1984.0 
220.123184 644.0 
221.125992 1436.0 
222.126648 340.0 
223.14827 1368.0 
224.148849 396.0 
225.106567 564.0 
227.112793 1004.0 
229.11084 3612.0 
230.121231 680.0 
231.116364 964.0 
232.117767 420.0 
233.123962 2308.0 
234.131638 576.0 
235.110504 1900.0 
237.123047 1288.0 
238.126968 676.0 
239.127258 720.0 
240.139481 328.0 
241.118622 764.0 
243.112183 1188.0 
245.1297 1272.0 
247.139832 1336.0 
248.153625 620.0 
249.158356 1588.0 
251.130783 2704.0 
252.133911 468.0 
253.118591 1400.0 
254.126694 636.0 
255.121506 1124.0 
257.119324 2168.0 
258.131897 324.0 
259.13623 1164.0 
260.149902 368.0 
261.123047 1876.0 
262.126129 356.0 
263.127411 776.0 
264.150269 316.0 
265.135925 608.0 
267.17749 13208.0 
268.114838 728.0 
268.181885 1624.0 
269.141937 4368.0 
270.140625 524.0 
271.135651 760.0 
272.137695 332.0 
273.145782 508.0 
274.155823 448.0 
275.161957 548.0 
276.169495 504.0 
277.144745 1760.0 
279.128571 2532.0 
280.138885 344.0 
281.126617 1280.0 
282.136353 340.0 
283.14212 1972.0 
284.159576 776.0 
285.122284 2052.0 
286.127167 496.0 
287.146973 1408.0 
288.158478 816.0 
289.153778 532.0 
291.144745 652.0 
292.150055 380.0 
293.150757 516.0 
295.154327 3568.0 
296.154663 508.0 
297.139374 3776.0 
298.143066 528.0 
299.14856 592.0 
301.148193 536.0 
302.149811 400.0 
303.126556 4528.0 
304.133057 1488.0 
305.140533 928.0 
307.1604 828.0 
309.163116 656.0 
310.159363 360.0 
311.152069 740.0 
313.166046 18780.0 
314.169098 2608.0 
315.154724 1212.0 
316.14975 1036.0 
317.172058 664.0 
319.160858 1660.0 
320.178253 332.0 
321.140991 5016.0 
322.144257 600.0 
323.169342 516.0 
325.167145 532.0 
327.166473 760.0 
328.160645 456.0 
329.168457 428.0 
331.165009 756.0 
333.211853 1820.0 
334.183746 328.0 
335.185516 2448.0 
336.181427 404.0 
337.180328 6068.0 
338.179993 1432.0 
339.164246 1984.0 
340.175995 592.0 
341.182495 344.0 
343.170929 1024.0 
345.180145 1004.0 
347.171814 940.0 
348.165894 456.0 
349.142914 1096.0 
350.192505 344.0 
351.205811 776.0 
353.19519 2492.0 
354.205475 432.0 
355.180389 972.0 
356.197968 344.0 
357.18396 804.0 
359.197632 720.0 
360.194946 488.0 
361.177307 692.0 
363.184509 1380.0 
365.181213 732.0 
367.164124 960.0 
368.198212 404.0 
369.179474 776.0 
371.191223 1960.0 
372.210022 636.0 
373.177765 712.0 
375.225494 1380.0 
376.22464 656.0 
377.209503 2680.0 
378.208771 836.0 
379.181976 1092.0 
380.181732 376.0 
381.192535 2216.0 
382.203003 628.0 
383.207916 728.0 
384.184143 324.0 
385.196411 572.0 
387.188232 1724.0 
388.18924 384.0 
389.205383 3104.0 
390.209564 632.0 
391.200958 616.0 
392.19278 484.0 
393.232178 1120.0 
395.21167 1120.0 
397.175812 996.0 
398.17337 476.0 
399.200165 2144.0 
400.20517 536.0 
401.212006 1564.0 
403.22168 2324.0 
404.226013 964.0 
405.193939 3812.0 
406.194305 732.0 
407.209717 1980.0 
408.221985 520.0 
409.213776 628.0 
411.210266 524.0 
412.200592 408.0 
413.192047 540.0 
414.18689 324.0 
415.18396 1112.0 
416.216095 408.0 
417.223938 924.0 
418.213745 356.0 
419.220032 652.0 
421.226074 1584.0 
422.229034 520.0 
423.201874 4096.0 
424.206116 928.0 
425.217346 1156.0 
426.22403 476.0 
427.234924 632.0 
429.210266 368.0 
431.211792 1420.0 
433.201233 668.0 
435.216858 400.0 
437.211395 580.0 
439.221252 1136.0 
441.22345 996.0 
442.221924 636.0 
443.246521 932.0 
444.2258 364.0 
445.222992 752.0 
447.217438 1044.0 
449.213501 544.0 
451.222015 676.0 
453.232208 344.0 
455.232727 708.0 
457.232788 412.0 
459.238556 728.0 
461.256866 880.0 
462.25531 412.0 
463.242645 692.0 
465.239441 476.0 
467.238953 412.0 
469.242584 456.0 
473.233124 596.0 
475.224426 548.0 
479.262756 448.0 
481.255219 968.0 
483.24704 900.0 
484.252777 492.0 
485.247009 612.0 
486.250092 340.0 
487.262024 1132.0 
488.265381 376.0 
489.25296 396.0 
491.243561 544.0 
492.249115 448.0 
493.226227 376.0 
499.245483 1072.0 
501.269409 564.0 
505.261475 1080.0 
506.26413 328.0 
507.272461 924.0 
509.251495 656.0 
515.25293 808.0 
516.257874 348.0 
517.246216 1680.0 
518.255249 492.0 
520.258667 380.0 
523.279358 1172.0 
524.28186 428.0 
525.267517 636.0 
527.272827 804.0 
528.265198 316.0 
531.258484 540.0 
533.260254 1820.0 
534.271667 1092.0 
535.25061 2512.0 
536.250244 1028.0 
539.266357 428.0 
541.289062 784.0 
543.280029 752.0 
545.28717 332.0 
549.26709 328.0 
551.2724 4364.0 
552.275635 1336.0 
558.284851 352.0 
559.295837 320.0 
561.269165 828.0 
563.27478 392.0 
565.279907 524.0 
569.286743 4100.0 
570.28241 1856.0 
571.291565 756.0 
575.290344 508.0 
577.272217 552.0 
585.302063 548.0 
587.295105 3652.0 
588.302185 1004.0 
589.302246 480.0 
591.319397 340.0 
593.308716 328.0 
595.283447 392.0 
597.278198 504.0 
605.309021 2160.0 
606.315613 856.0 
607.336792 372.0 
609.354736 552.0 
610.350159 424.0 
611.317383 488.0 
615.293457 876.0 
617.317871 352.0 
618.320984 412.0 
621.302612 356.0 
623.31604 724.0 
624.323425 400.0 
625.350403 540.0 
627.358398 1028.0 
628.365234 472.0 
635.330383 1796.0 
636.334534 844.0 
637.335999 352.0 
639.302002 384.0 
641.325256 600.0 
642.330872 348.0 
643.357239 316.0 
645.376648 872.0 
646.367249 504.0 
653.342285 4904.0 
654.350281 1980.0 
655.351868 424.0 
657.32135 324.0 
659.324097 324.0 
663.381348 584.0 
671.355713 12668.0 
672.35968 6676.0 
673.358215 1360.0 
681.393799 344.0 
682.393311 352.0 
689.365845 13108.0 
690.36792 4804.0 
691.373291 1276.0 
707.37677 11356.0 
708.382202 4752.0 
709.381897 2156.0 
725.387024 11632.0 
726.388 6372.0 
727.392456 1872.0 
728.400085 368.0 
743.399719 28752.0 
744.400391 11456.0 
745.403992 1760.0 
746.413208 768.0 
761.413025 1392.0 
762.419922 360.0 
888.475769 360.0 
906.48053 1412.0 
907.480591 520.0 
922.00824 696.0 
END IONS

