BEGIN IONS
PEPMASS=890.526
CHARGE=1+
COMPOUNDNAME=ABAMECTIN
LIBRARYQUALITY=3
SMILES=N/A
INCHIKEY=RRZXIRBKKLTSOM-XPNPUAGNSA-N
INCHI=InChI=1S/C48H72O14/c1-11-25(2)43-28(5)17-18-47(62-43)23-34-20-33(61-47)16-15-27(4)42(26(3)13-12-14-32-24-55-45-40(49)29(6)19-35(46(51)58-34)48(32,45)52)59-39-22-37(54-10)44(31(8)57-39)60-38-21-36(53-9)41(50)30(7)56-38/h12-15,17-19,25-26,28,30-31,33-45,49-50,52H,11,16,20-24H2,1-10H3/b13-12+,27-15+,32-14+/t25-,26-,28-,30-,31-,33+,34-,35-,36-,37-,38-,39-,40+,41-,42-,43+,44-,45+,47+,48+/m0/s1
MSLEVEL=2
SOURCE_INSTRUMENT=N/A-ESI-QFT
FILENAME=library_mgf.mgf
SEQ=*..*
IONMODE=positive
ORGANISM=MONA
NAME=ABAMECTIN [M+NH4]+
PI=MoNA
DATACOLLECTOR=MoNA:VF-NPL-QEHF028048
PUBMED=N/A
SUBMITUSER=mwang87
TAGS=
SPECTRUMID=CCMSLIB00004721629
SCANS=28048
62.281902 0.014685 
62.520851 0.015645 
63.069111 0.028994 
63.181896 0.038429 
63.715954 0.022291 
64.157875 0.029682 
65.038673 0.589271 
65.058479 0.035174 
65.3312 0.029175 
65.519951 0.020502 
66.106682 0.032659 
66.148201 0.039602 
66.304474 0.016631 
67.052338 0.048091 
67.054314 14.096328 
67.322823 0.040077 
67.690636 0.021943 
67.876633 0.03701 
68.057587 0.248893 
68.255707 0.036452 
68.396271 0.039489 
68.939499 0.027411 
69.033539 80.935532 
69.044479 0.043034 
69.069901 3.091746 
70.036865 2.657762 
70.065155 0.025525 
70.119583 0.012699 
70.17157 0.040017 
71.049164 4.362415 
71.085571 0.134134 
71.250671 0.01659 
71.272949 0.024575 
71.309593 0.027724 
71.3927 0.03576 
72.203064 0.023916 
72.732384 0.022504 
73.018166 0.026818 
73.046791 1.654347 
73.064804 7.36732 
73.913582 0.014641 
74.096092 0.016591 
74.165939 0.032131 
75.044334 0.015264 
77.038925 0.034032 
77.059692 0.324752 
77.093086 0.030912 
77.267853 0.030402 
77.304428 0.039337 
78.003471 0.015059 
78.101631 0.042167 
78.982384 0.019941 
79.054199 6.347786 
79.236404 0.016259 
79.415909 0.040088 
79.542564 0.032885 
79.881905 0.01676 
81.033478 0.687796 
81.069878 15.569103 
82.073143 0.310629 
82.306526 0.040195 
82.370346 0.015849 
83.049088 1.920785 
83.070099 0.035292 
83.08548 0.926594 
85.028397 11.622245 
85.064774 6.247609 
85.406036 0.027223 
86.067986 0.036212 
87.044037 7.241704 
87.386993 0.018319 
89.059639 0.372719 
89.157898 0.044933 
90.031334 0.036895 
90.184105 0.042063 
90.312737 0.017982 
91.054199 1.997889 
91.05735 2.450352 
91.947395 0.021019 
92.23082 0.05191 
93.069839 9.604818 
93.290245 0.037426 
94.07312 0.052558 
94.358421 0.01434 
95.049118 70.115723 
95.08548 4.887089 
95.142685 0.015174 
95.45594 0.03605 
95.478943 0.030762 
96.021751 0.030788 
96.052422 3.392401 
96.18856 0.031382 
97.028351 0.650055 
97.064804 23.384333 
97.101181 1.838068 
97.308594 0.013659 
97.472679 0.032278 
98.068146 0.811737 
98.131699 0.025046 
98.37748 0.013296 
99.043999 0.626538 
99.08036 0.713882 
99.661461 0.031694 
100.235046 0.038901 
101.059731 3.689835 
101.348343 0.03458 
102.298721 0.025702 
103.134132 0.051514 
103.393555 0.015321 
103.92601 0.019482 
104.535789 0.036704 
104.742004 0.022267 
105.069855 3.481375 
106.949333 0.031751 
107.049118 2.568306 
107.085487 6.973167 
107.752312 0.015265 
108.08876 0.066538 
108.226089 0.032558 
108.878769 0.014016 
109.064743 10.039343 
109.101158 37.431068 
110.068016 0.11987 
110.104507 2.428956 
110.975449 0.576706 
111.044006 3.001616 
111.080391 0.815614 
112.913345 0.016506 
113.059586 100.0 
113.143021 0.013281 
113.405251 0.036352 
114.063042 5.353274 
114.403275 0.029976 
114.447464 0.033872 
115.872604 0.02335 
117.069794 0.810163 
117.446846 0.037629 
119.049118 0.297521 
119.085526 6.360639 
119.539665 0.014672 
120.088783 0.150314 
120.368332 0.048745 
120.589828 0.044825 
120.801224 0.029973 
120.981682 0.037119 
121.06041 0.031534 
121.064774 3.796041 
121.101097 12.301995 
122.104492 0.404047 
123.044052 0.293518 
123.08033 5.120043 
123.116753 50.962772 
123.467056 0.020793 
123.663589 0.044721 
124.120102 3.552279 
125.059685 1.107716 
125.16777 0.013756 
126.802185 0.039972 
127.075294 13.338545 
128.078629 0.327576 
128.397324 0.029903 
128.985947 0.562545 
129.069611 0.051152 
129.889725 0.031301 
130.086273 0.04485 
130.755646 0.043762 
131.085449 2.474638 
133.064713 1.192967 
133.101013 4.299567 
134.104752 0.034017 
135.044022 0.209959 
135.080261 6.723566 
135.11676 2.638844 
135.52475 0.021595 
135.886581 0.014166 
136.083725 0.057994 
137.059616 2.597906 
137.095978 5.296203 
137.132202 0.013667 
138.099258 0.088068 
138.726379 0.018368 
139.075394 0.130701 
139.313736 0.027761 
142.199799 0.029117 
142.948166 0.020399 
143.00145 0.020378 
143.070297 0.681358 
143.08551 2.456315 
145.064651 1.504703 
145.085785 66.396751 
145.100311 3.298073 
146.089157 4.130038 
146.217743 0.035062 
146.996704 0.06953 
147.080338 2.872628 
147.11673 1.945088 
147.977402 0.041278 
148.120209 0.027654 
149.044891 0.106914 
149.059753 0.253138 
149.095963 2.461833 
149.132446 0.168904 
149.548538 0.030984 
149.801743 0.038696 
150.964676 0.035381 
151.075256 2.888795 
151.111664 26.613586 
151.147858 0.044982 
152.108688 0.044368 
152.115067 2.260219 
152.357513 0.014972 
152.663895 0.032475 
153.054626 0.259263 
153.061874 0.035445 
153.070999 0.029932 
153.090958 0.669259 
153.127029 0.31299 
154.093246 0.039521 
154.395081 0.019896 
155.08551 0.049721 
155.20369 0.032061 
156.093964 0.037049 
156.856186 0.031182 
157.101089 1.944182 
159.080338 0.880604 
159.116684 2.847944 
161.059799 0.16385 
161.096069 1.633789 
161.132309 2.225214 
162.112686 0.060835 
163.075119 4.939795 
163.111633 0.267843 
163.148148 0.190325 
165.055008 0.023504 
165.090958 2.544729 
165.127304 0.679129 
166.095337 0.042358 
166.130127 0.014716 
167.055313 1.093419 
167.06778 0.06056 
169.01712 0.721919 
169.101181 0.709602 
169.122208 23.016193 
169.916702 0.014118 
170.005936 0.022493 
170.125641 2.001228 
171.080338 0.390028 
171.116699 4.844518 
171.47847 0.034098 
172.119522 0.052044 
172.768188 0.031055 
173.096054 1.037506 
173.132431 1.062104 
175.111816 0.671322 
175.147995 3.546497 
176.152176 0.093867 
177.054703 0.198963 
177.127335 1.070225 
177.163925 0.056588 
177.75174 0.022095 
179.106659 0.434872 
179.14296 0.523259 
179.477982 0.042311 
179.564758 0.048476 
180.552109 0.018188 
181.085831 1.032728 
181.100876 0.343066 
183.06279 0.01751 
183.078995 0.013687 
183.101624 1.635659 
183.116821 0.270928 
184.78421 0.044414 
185.078384 0.053467 
185.096039 0.121076 
185.132294 0.834964 
185.912552 0.038168 
187.027756 0.344877 
187.074692 0.037094 
187.111755 1.312488 
187.147995 1.482395 
187.454239 0.043912 
189.054504 0.263374 
189.091095 1.055781 
189.127396 0.588878 
191.105988 0.195968 
191.143143 0.291732 
192.356674 0.036653 
193.123535 0.017557 
193.1586 15.730562 
193.632065 0.03322 
194.16214 1.611684 
195.032852 0.640361 
195.948151 0.047368 
196.185165 0.055029 
197.09613 1.796799 
197.132492 1.138488 
198.235733 0.018164 
198.613556 0.025978 
199.111603 8.170426 
199.148163 1.010908 
200.115311 0.300573 
201.043365 0.015379 
201.127365 0.32159 
202.093536 0.013596 
203.143204 1.054695 
204.552795 0.038712 
205.158661 0.025922 
207.101425 0.798496 
209.096634 0.021989 
209.131866 0.074336 
209.831787 0.034404 
211.147827 0.194134 
211.984055 0.044339 
213.043518 0.550933 
213.090897 0.024183 
213.127808 0.084609 
215.106659 2.391093 
215.143173 0.942153 
217.122482 1.472253 
217.158813 0.574761 
219.137863 0.47634 
221.153351 5.50606 
222.157059 0.351157 
223.147797 0.071041 
223.626205 0.045325 
225.042725 0.47 
225.07933 0.023714 
225.09111 1.497837 
225.111755 0.097904 
225.861084 0.056086 
226.253326 0.035534 
227.106689 1.066228 
227.544998 0.020124 
228.233398 0.044031 
229.140823 0.09547 
229.671829 0.022204 
230.019958 0.022141 
236.183472 0.019933 
237.043655 0.024372 
237.090591 0.020573 
239.09491 0.530599 
239.127548 0.067556 
239.841949 0.015485 
240.093979 0.015092 
241.085709 0.044414 
243.101685 0.744768 
245.116882 8.79706 
245.395676 0.040355 
246.120438 0.817807 
247.147018 0.069522 
251.143326 0.096576 
251.180267 0.0448 
251.476837 0.034148 
254.649918 0.044338 
255.054245 0.165558 
255.06868 0.063962 
257.084747 0.709055 
258.617126 0.032758 
261.112152 3.14423 
261.28421 0.038987 
262.11615 0.040611 
263.05899 1.383484 
263.382477 0.035952 
265.160278 0.061079 
265.380188 0.043056 
268.42807 0.025975 
269.041718 0.699645 
269.069672 0.049959 
269.189728 0.300888 
269.423645 0.033577 
271.064362 0.349366 
271.204834 0.092157 
272.1409 0.041921 
273.0802 0.493211 
274.452484 0.015014 
275.095154 1.816752 
275.142456 0.077835 
277.110748 5.570643 
277.670258 0.04044 
279.108582 0.020584 
279.993958 0.032576 
280.553131 0.01608 
281.069061 0.397492 
283.769989 0.023984 
285.00943 0.307761 
286.166473 0.027477 
287.20047 2.517152 
288.207733 3.372092 
289.074493 0.131553 
289.213409 0.366344 
291.014709 0.026174 
291.090057 0.051993 
293.105469 0.159227 
293.152374 0.020059 
295.085114 1.207328 
295.121155 4.531292 
297.074341 0.021309 
298.081116 0.037868 
299.061584 0.619939 
299.088776 1.530978 
299.298126 0.017765 
300.091644 0.027815 
301.576843 0.016116 
302.090363 0.023913 
303.090393 0.320586 
304.187775 0.094683 
305.210876 28.942371 
305.989258 0.017079 
306.214355 5.240275 
307.226715 0.641852 
309.059296 0.036825 
309.181 0.03293 
310.199585 0.043904 
311.146515 0.191439 
313.095398 0.209267 
314.586761 0.019218 
315.09729 0.019415 
315.585144 0.018465 
317.070618 0.040128 
317.119354 0.042645 
319.085083 0.144586 
319.489532 0.0401 
321.100342 0.057272 
321.149597 0.030643 
321.208191 0.041571 
327.193115 0.086337 
329.157166 0.106109 
329.418457 0.036418 
330.954681 0.014296 
331.105072 0.025558 
335.150116 0.032944 
337.095093 0.018998 
337.549103 0.022941 
338.071716 0.044676 
345.925629 0.038251 
351.126862 0.513241 
352.04425 0.037434 
352.69696 0.041233 
353.159027 0.015443 
356.229004 0.044395 
359.028412 0.544919 
360.838562 0.138432 
364.03476 0.033163 
364.272583 0.039422 
368.823944 0.015279 
369.137421 0.433949 
371.11676 0.019151 
375.162567 0.069953 
379.179108 0.731048 
387.964294 0.015203 
393.132385 0.064053 
393.173706 0.340387 
398.50885 0.017086 
399.298096 0.014774 
407.298553 0.047679 
411.140869 0.319451 
411.928192 0.019832 
413.128632 0.034383 
414.706085 0.01313 
417.167206 0.072638 
419.151855 0.063303 
419.852173 0.678847 
422.444153 0.021284 
435.146179 0.034863 
435.17749 0.531567 
437.165161 0.035047 
437.864166 0.038104 
439.201935 0.020928 
440.632965 0.043889 
443.167725 0.287529 
443.440948 0.020918 
447.346527 0.792761 
448.351562 0.04304 
449.091522 0.049322 
450.790466 0.026265 
454.329071 0.019189 
469.178772 0.03457 
473.151123 0.018352 
478.865997 0.539053 
481.687897 0.039586 
486.785614 0.035946 
490.71286 0.018741 
491.75827 0.043125 
495.266296 0.257267 
496.173889 0.039941 
497.456024 0.049991 
503.059204 0.018803 
510.275879 0.024349 
510.841309 0.045686 
520.5047 0.035128 
523.282349 0.022746 
532.528625 0.041446 
549.32373 0.055794 
551.463867 0.03879 
556.394409 0.026292 
561.838623 0.043277 
567.205139 0.036461 
567.271179 0.493993 
568.273376 0.03309 
579.257996 0.054435 
585.282959 0.223142 
594.557617 0.04683 
603.292847 0.907491 
604.295776 0.13304 
617.850342 0.032767 
627.540833 0.015343 
651.598267 0.01497 
672.979126 0.019919 
675.084717 0.045986 
675.435974 0.019149 
704.169067 0.032397 
708.341248 0.129232 
708.913696 0.055088 
708.963562 0.039365 
709.020264 0.036284 
717.022156 0.023256 
718.686157 0.015851 
746.028564 0.024476 
747.371948 0.340732 
749.375244 0.019049 
751.751892 0.044035 
790.87439 0.017503 
818.329529 0.022418 
822.744019 0.043342 
830.169312 0.038367 
835.467896 0.056139 
837.302673 0.04161 
878.938965 0.041313 
888.232727 0.015508 
889.545959 0.185393 
889.710144 0.048986 
890.546509 0.044014 
891.451538 0.199385 
893.614685 0.042248 
925.815674 0.042411 
END IONS

