BEGIN IONS
TITLE=Scan Number: 1322
PEPMASS=736.90002
CHARGE=1+
COMPOUNDNAME=Nonactin
LIBRARYQUALITY=3
SMILES=O=C(OC(C)CC2CCC5O2)C(C)C1CCC(CC(C)OC(C(C3OC(CC(OC(C(C)C4OC(CC(C)OC(C5C)=O)CC4)=O)C)CC3)C)=O)O1
INCHIKEY=RMIXHJPMNBXMBU-UHFFFAOYSA-N
INCHI=
MSLEVEL=2
SOURCE_INSTRUMENT=LC-ESI-qTof
FILENAME=f.chenliangyu/B2-2separate/2/SH11/B2-2LEA-H8.mzXML;
SEQ=*..*
NOTES=
IONMODE=Positive
ORGANISM=GNPS-LIBRARY
NAME=Nonactin M+Na
SPECTRUMID=CCMSLIB00000839970
ACTIVATION=CID
INSTRUMENT=ion trap
SCANS=1322
207.103271 372.0 
369.23996 748.0 
370.241302 564.0 
391.223022 7240.0 
392.225037 1516.0 
393.240356 344.0 
575.337646 4916.0 
576.342407 2428.0 
577.339905 336.0 
759.452515 65056.0 
760.455566 33168.0 
761.456665 6352.0 
762.461609 840.0 
END IONS

