BEGIN IONS
PEPMASS=1072.51
CHARGE=1+
COMPOUNDNAME=Tomatine
LIBRARYQUALITY=3
SMILES=N/A
INCHIKEY=REJLGAUYTKNVJM-SGXCCWNXSA-N
INCHI=InChI=1S/C50H83NO21/c1-20-7-12-50(51-15-20)21(2)32-28(72-50)14-26-24-6-5-22-13-23(8-10-48(22,3)25(24)9-11-49(26,32)4)65-45-40(63)37(60)41(31(18-54)68-45)69-47-43(71-46-39(62)36(59)34(57)29(16-52)66-46)42(35(58)30(17-53)67-47)70-44-38(61)33(56)27(55)19-64-44/h20-47,51-63H,5-19H2,1-4H3/t20-,21-,22-,23-,24+,25-,26-,27+,28-,29+,30+,31+,32-,33-,34+,35+,36-,37+,38+,39+,40+,41-,42-,43+,44-,45+,46-,47-,48-,49-,50-/m0/s1
MSLEVEL=2
SOURCE_INSTRUMENT=N/A-ESI-QFT
FILENAME=library_mgf.mgf
SEQ=*..*
IONMODE=positive
ORGANISM=MONA
NAME=Tomatine [M+K]+
PI=MoNA
DATACOLLECTOR=MoNA:VF-NPL-QEHF026714
PUBMED=N/A
SUBMITUSER=mwang87
TAGS=
SPECTRUMID=CCMSLIB00004719763
SCANS=26714
74.873451 0.144935 
76.322037 0.147339 
77.370522 0.152903 
77.654541 0.153924 
78.124771 0.14745 
79.054283 7.097576 
80.160507 0.13616 
80.924362 0.144327 
81.018578 11.386638 
81.033562 10.6736 
81.069923 9.590421 
82.065201 1.190586 
82.073837 0.155077 
82.747879 0.164952 
82.853035 0.144805 
82.962067 0.145371 
83.049286 0.240828 
83.085564 0.519296 
83.658638 0.161048 
84.080849 4.897037 
84.699883 0.151082 
85.028465 100.0 
85.945084 0.185809 
86.031807 4.312123 
87.044098 6.679556 
87.336777 0.144031 
87.631294 0.179863 
90.579391 0.168395 
91.039032 12.790294 
91.054245 7.788573 
91.057434 9.168867 
91.177528 0.177377 
93.069977 7.840229 
93.266975 0.171945 
93.973816 0.143402 
94.026398 6.43308 
94.065254 0.527374 
95.049225 2.321507 
95.085579 7.332275 
96.080734 1.63408 
96.745804 0.161284 
96.768829 0.171464 
97.028473 61.632744 
97.064758 0.401664 
98.031731 1.881422 
98.096489 1.373908 
99.044128 8.449899 
99.790962 0.180094 
100.075829 0.18165 
101.023354 0.611537 
101.093117 0.145397 
103.03904 1.151344 
104.420151 0.152676 
104.577209 0.154628 
104.992378 0.558074 
105.069962 13.671422 
105.073242 0.150467 
106.073517 0.181679 
107.048447 0.161032 
107.085533 12.235391 
108.041985 1.048632 
108.080734 0.309585 
109.028503 10.99028 
109.101257 7.78608 
110.09642 0.762393 
111.382515 0.168311 
112.382645 0.186931 
113.04071 0.237797 
113.571602 0.164229 
114.091431 12.807868 
115.039032 22.05584 
115.094498 0.163574 
117.06987 2.837359 
119.085564 7.430193 
119.553673 0.145457 
121.101257 6.792034 
122.096497 0.260237 
123.08046 0.202288 
123.116806 0.599721 
123.473236 0.165526 
124.112167 23.671404 
125.115417 1.025279 
125.365364 0.195231 
126.091759 0.170991 
126.127769 39.990124 
127.039017 33.233032 
127.096718 0.159891 
127.111282 0.521809 
127.131027 2.155397 
128.042343 0.675565 
128.070587 3.709731 
129.06955 0.156727 
131.085632 6.96857 
131.911438 0.150857 
133.049576 1.970866 
133.101288 8.953898 
133.367233 0.158646 
133.392731 0.152911 
134.10463 0.160676 
135.080353 0.145384 
135.116821 4.893573 
136.073318 0.399282 
136.892288 0.150542 
138.127731 1.181887 
139.534515 0.174984 
140.107071 1.384448 
142.086197 0.42837 
143.085648 1.32863 
145.049591 22.888063 
145.101242 15.013618 
145.954742 0.184692 
146.05304 0.171543 
146.104538 0.326333 
147.116791 21.933317 
148.120331 0.684868 
148.951691 0.151631 
149.096161 0.454602 
149.132629 3.63886 
149.22937 0.156688 
150.089508 0.591951 
151.112167 0.178536 
151.192413 0.164342 
154.826889 0.163888 
155.480743 0.161362 
155.941986 0.169782 
156.101852 0.146835 
157.101227 4.450721 
157.643951 0.184564 
158.636108 0.145272 
158.996841 0.178193 
159.116913 14.279999 
160.119965 0.966623 
161.011932 0.159203 
161.132416 45.806293 
161.139053 0.777193 
161.429504 0.128872 
162.128189 1.627287 
162.135895 5.392595 
162.882095 0.169283 
162.936508 0.140482 
163.060318 1.19691 
163.111664 1.309771 
164.105682 0.696583 
164.143082 0.407254 
164.60643 0.146887 
164.940582 0.156464 
167.031311 0.196793 
167.055344 0.980816 
167.34314 0.17642 
169.100922 0.155406 
170.809692 0.163366 
170.99559 0.15636 
171.044968 0.154062 
171.116791 1.300394 
171.64592 0.152829 
173.132629 9.416753 
174.137039 0.168757 
175.148514 0.698289 
176.143341 0.167943 
177.063004 0.150019 
177.45961 0.148316 
178.086395 1.012656 
178.120056 1.121437 
181.489517 0.153871 
182.585831 0.158638 
185.042084 3.785479 
185.096008 0.146823 
185.132523 2.141521 
187.148392 1.344066 
189.164001 0.154886 
191.697998 0.136129 
192.10199 0.16645 
192.13623 0.163305 
194.976547 0.183145 
195.257309 0.173666 
197.133377 0.168552 
198.951721 0.158323 
199.060547 0.177789 
199.148163 2.807179 
201.163925 0.168465 
203.052536 0.219983 
204.93335 0.17164 
205.18277 0.151432 
206.15097 0.420349 
208.473755 0.175087 
211.148056 0.288884 
213.163681 1.231533 
215.180527 0.612777 
218.643707 0.166402 
219.017548 2.769497 
220.272903 0.179571 
221.867538 0.145326 
225.042847 1.910632 
225.834137 0.158346 
226.982346 0.163248 
231.479156 0.160764 
234.28978 0.182277 
234.760086 0.180639 
234.98996 1.031001 
235.656082 0.172906 
236.989868 0.810024 
237.028214 3.417745 
237.98819 0.524309 
241.072067 0.175954 
244.996017 0.155378 
245.050186 0.569338 
246.913696 0.15718 
250.177795 2.580472 
251.180481 0.601644 
253.195267 6.512404 
254.197617 0.528481 
255.000824 0.576065 
255.210724 35.448681 
255.225403 0.468815 
256.000458 0.194008 
256.214203 5.668391 
258.971954 0.551486 
259.9711 0.145591 
266.171509 0.336822 
266.83371 0.157474 
266.997955 1.033459 
271.205383 0.657986 
273.221252 9.368982 
274.224365 1.022944 
276.999847 0.296849 
278.923462 0.184341 
279.000488 1.741513 
279.039124 0.182479 
279.998962 0.546742 
285.009735 4.367098 
286.011627 0.193512 
297.027863 0.228576 
297.97287 0.172794 
299.061554 3.941158 
300.063477 0.171546 
301.089966 0.188448 
304.166412 0.320187 
304.187469 0.826002 
315.509857 0.175724 
317.084015 0.219825 
319.435059 0.185242 
321.009033 0.186172 
321.446198 0.164017 
329.083893 7.753789 
330.08902 0.178263 
332.328033 0.18984 
347.095154 4.974288 
350.355865 0.205735 
351.020386 0.383971 
360.839233 0.746927 
363.059113 1.125547 
365.104248 0.37576 
369.027771 0.241237 
378.315369 2.047703 
379.318756 0.336087 
380.330811 4.190534 
381.035492 0.17243 
381.332092 0.178494 
389.852722 0.256888 
396.325989 7.785723 
397.329865 1.632634 
398.341217 16.714428 
399.344971 3.459514 
412.529785 0.227437 
413.322601 0.206409 
414.336456 6.34342 
415.339111 0.650025 
416.352203 24.555458 
417.355621 8.271174 
418.358734 0.390524 
425.45285 0.159504 
436.318848 0.632029 
437.127625 0.67316 
442.660492 0.161054 
447.345734 0.634723 
457.100128 0.168658 
467.136688 2.763402 
473.924316 0.169052 
479.136719 16.233444 
480.141022 1.177097 
488.259918 0.157206 
488.303497 1.568637 
490.319397 2.747833 
491.322388 0.18685 
493.958038 0.17812 
497.147339 1.947132 
500.304871 0.22372 
509.147095 2.090858 
514.317078 0.204446 
527.157288 3.914148 
532.339294 0.193654 
539.157593 3.706085 
540.160217 0.167781 
540.286194 0.16399 
557.557617 0.178243 
558.377563 0.28592 
560.337952 0.171174 
560.394348 8.347265 
561.395081 1.650013 
568.9245 0.197738 
576.388306 0.180184 
578.404663 7.700954 
579.407166 2.232399 
580.413574 0.21046 
586.743591 0.173932 
599.178406 11.549061 
600.181641 1.282231 
600.385681 3.336376 
614.366577 0.462271 
616.379761 0.527641 
625.896973 0.175969 
634.362671 1.549059 
641.188599 7.445173 
642.190369 0.543714 
652.367188 0.211409 
659.200317 11.233412 
660.201721 1.464666 
685.434937 14.106405 
686.438538 9.774076 
687.440552 0.466125 
707.77771 0.289433 
707.837341 0.313524 
707.996033 0.305701 
708.126526 0.194386 
722.445984 0.177529 
731.411377 0.182944 
743.632935 0.19572 
748.067871 0.16793 
762.438354 0.41543 
770.488037 0.211569 
771.440796 0.175199 
779.421631 0.245192 
783.379639 0.180204 
836.643433 0.19226 
848.340393 0.171837 
854.485962 2.283539 
875.384277 1.64016 
884.497498 1.373258 
892.465088 0.407671 
894.476135 2.302103 
908.472717 0.629615 
909.459106 1.494319 
910.471863 2.026538 
911.458923 6.133635 
912.460449 0.677147 
922.468018 0.222649 
924.48877 3.692858 
925.487427 0.871314 
938.474487 1.09736 
939.476746 1.662462 
940.481506 2.965056 
941.472595 7.585126 
942.47168 1.498432 
945.289612 0.194316 
951.661133 0.187361 
969.500671 0.181807 
976.8974 0.176726 
987.011353 0.185785 
987.262329 0.172615 
988.427307 0.161252 
991.987671 0.179839 
1005.036743 0.169375 
1009.858948 0.190681 
1010.701416 0.35148 
1010.876709 0.200557 
1011.683533 0.459261 
1014.523315 7.673746 
1015.524353 6.337572 
1015.635071 0.171282 
1016.540222 37.019798 
1017.544373 16.555199 
1018.543091 4.580038 
1019.544922 0.420859 
1023.293762 0.176349 
1026.516113 0.386436 
1032.526733 0.211699 
1033.529663 0.19262 
1034.547363 8.896443 
1035.550049 4.251584 
1036.547241 0.255651 
1040.190796 0.182671 
1045.892212 0.159253 
1046.236938 0.186282 
1046.543945 0.177 
1052.498901 3.154948 
1053.500244 5.498456 
1054.514526 7.779554 
1055.517456 1.623916 
1056.535645 22.734159 
1057.535645 7.107435 
1058.53894 1.020998 
1064.308105 0.184149 
1070.521606 8.146077 
1070.723877 0.456473 
1071.518677 11.252834 
1071.725342 3.347966 
1072.526489 17.530363 
1072.723877 0.704057 
1073.515991 28.163704 
1073.71106 2.50399 
1074.518921 9.61198 
1094.207886 0.205198 
1114.531616 4.922619 
END IONS

