BEGIN IONS
PEPMASS=333.12
CHARGE=1+
COMPOUNDNAME=MITOMYCIN C
LIBRARYQUALITY=3
SMILES=N/A
INCHIKEY=NWIBSHFKIJFRCO-WUDYKRTCSA-N
INCHI=InChI=1S/C15H18N4O5/c1-5-9(16)12(21)8-6(4-24-14(17)22)15(23-2)13-7(18-13)3-19(15)10(8)11(5)20/h6-7,13,18H,3-4,16H2,1-2H3,(H2,17,22)/t6-,7+,13+,15-/m1/s1
MSLEVEL=2
SOURCE_INSTRUMENT=N/A-ESI-QFT
FILENAME=library_mgf.mgf
SEQ=*..*
IONMODE=negative
ORGANISM=MONA
NAME=MITOMYCIN C [M-H]-
PI=MoNA
DATACOLLECTOR=MoNA:VF-NPL-QEHF027728
PUBMED=N/A
SUBMITUSER=mwang87
TAGS=
SPECTRUMID=CCMSLIB00004721309
SCANS=27728
50.278519 0.136123 
50.547451 0.059902 
51.036995 0.046884 
51.33482 0.031966 
51.453548 0.081174 
51.739666 0.045267 
51.789043 0.060648 
52.240196 0.085841 
52.260471 0.052501 
52.910233 0.069843 
53.680798 0.062365 
54.110905 0.054261 
54.149231 0.101543 
54.518547 0.128153 
55.017509 0.096961 
55.693958 0.045466 
55.700253 0.052474 
57.091389 0.074663 
57.099731 0.034006 
57.37775 0.095193 
57.425217 0.081554 
58.011097 0.051927 
58.255424 0.050773 
58.278233 0.106401 
58.644623 0.053395 
58.956409 0.047874 
59.219032 0.032103 
59.230782 0.049582 
59.687996 0.131175 
59.998039 0.092237 
59.999798 0.102863 
60.007683 100.0 
60.016346 0.133048 
60.753162 0.128063 
61.011017 0.071976 
61.20784 0.038712 
61.851292 0.06642 
62.355549 0.031207 
62.568584 0.067276 
62.794762 0.029885 
62.826042 0.129641 
63.012794 0.036343 
63.133492 0.034699 
63.428234 0.028671 
64.177589 0.120012 
65.204109 0.086413 
65.753143 0.091618 
66.007233 0.089566 
66.033234 0.092514 
66.396164 0.030331 
67.333916 0.034985 
67.335472 0.059881 
67.678139 0.090413 
67.728798 0.027034 
69.579231 0.056662 
70.136032 0.059549 
71.710625 0.029218 
71.912346 0.037541 
72.370461 0.067921 
72.463799 0.125637 
72.74675 0.090055 
73.566689 0.087015 
74.051552 0.027873 
74.174637 0.07174 
74.87722 0.040428 
75.095177 0.100746 
75.616974 0.030952 
75.883591 0.145408 
76.042648 0.08133 
76.472031 0.048763 
76.605003 0.084707 
76.878212 0.053999 
77.211517 0.085068 
78.483192 0.034562 
78.934334 0.028276 
79.867958 0.067453 
80.176231 0.063751 
80.907211 0.108498 
81.444855 0.031695 
81.944771 0.038442 
82.628059 0.094814 
82.995781 0.083205 
83.440063 0.028304 
83.938362 0.02897 
84.33931 0.087142 
85.575661 0.094505 
85.902611 0.035141 
85.949684 0.083078 
87.606133 0.095946 
88.254951 0.06238 
88.647964 0.102959 
88.883194 0.039694 
89.022972 0.193812 
90.111977 0.133367 
90.513725 0.033548 
90.729675 0.035132 
91.09771 0.068865 
91.942696 0.066185 
93.006615 0.026468 
93.387787 0.029735 
93.984535 0.046648 
94.531372 0.031766 
94.71225 0.058225 
95.160637 0.128462 
95.363953 0.053626 
96.541519 0.099553 
98.732887 0.068268 
99.314186 0.054847 
99.364281 0.068471 
100.323479 0.068508 
100.783684 0.072895 
101.981094 0.025232 
102.850647 0.070845 
102.904404 0.093291 
103.707626 0.06998 
103.736977 0.04534 
104.44278 0.069762 
104.471359 0.037152 
105.266495 0.058073 
105.287872 0.050046 
106.16497 0.052894 
106.660645 0.057805 
107.108612 0.038311 
108.09742 0.130695 
108.225327 0.032032 
108.621727 0.138477 
108.902504 0.072619 
109.604858 0.0655 
110.680473 0.026816 
111.25853 0.049643 
111.94165 0.09193 
112.488907 0.044989 
112.957344 0.100557 
113.665878 0.054113 
114.464569 0.089877 
114.843971 0.061541 
117.044632 0.106845 
119.023758 0.285625 
119.716232 0.057552 
119.860596 0.122872 
119.87825 0.083002 
120.52774 0.083049 
123.031151 0.08908 
123.804688 0.036746 
126.682045 0.087939 
127.526878 0.076825 
128.254593 0.107746 
130.188049 0.038301 
130.894409 0.091835 
132.21817 0.064572 
135.512054 0.104247 
140.270782 0.084354 
140.99173 0.06088 
141.253738 0.093398 
142.475632 0.091026 
145.102997 0.13186 
145.162384 0.034832 
146.399399 0.090947 
149.034637 0.846519 
150.402832 0.074658 
151.652939 0.106696 
153.925156 0.081247 
153.932449 0.084841 
154.839859 0.049169 
154.935059 0.120705 
156.219803 0.093157 
158.53421 0.039934 
159.055222 0.076339 
160.28476 0.034818 
161.804733 0.100456 
163.049759 0.041684 
164.338562 0.105562 
165.065948 2.791608 
165.82489 0.116582 
167.465088 0.063059 
167.481064 0.057419 
168.774246 0.087242 
169.585999 0.119298 
170.737839 0.073205 
171.432999 0.087007 
171.957962 0.132482 
173.034653 0.456378 
174.888199 0.061038 
175.050415 24.39259 
176.05365 0.8113 
177.029633 0.104005 
180.571609 0.098761 
184.394608 0.068724 
185.062668 0.093156 
187.050369 1.825445 
188.058304 6.118407 
188.923203 0.07233 
189.06636 0.394793 
189.585403 0.091228 
190.094238 0.047353 
190.373917 0.105335 
190.55748 0.085721 
190.816483 0.133202 
191.044037 0.063395 
196.683716 0.087455 
197.468445 0.069197 
198.895615 0.050062 
199.050369 0.080656 
200.045822 0.276271 
200.177231 0.133552 
201.066147 13.684476 
201.169495 0.049549 
202.037399 0.193116 
202.06131 2.330488 
202.072311 0.116702 
202.911301 0.090079 
203.045624 10.874242 
204.053101 0.797077 
205.060715 0.123185 
208.41185 0.050746 
211.093628 0.065834 
212.058502 4.390639 
213.05368 2.580923 
213.066055 3.069933 
214.06131 0.593491 
214.840912 4.760725 
215.082138 3.418429 
216.053497 12.665649 
217.060242 1.045105 
218.068802 0.452988 
219.076355 0.225481 
219.832123 0.090161 
220.356247 0.084786 
222.044769 0.051474 
222.940933 0.047289 
225.053284 0.048101 
225.065079 0.032803 
226.061554 4.425968 
227.069565 58.53146 
228.077423 67.383064 
228.341492 0.088431 
228.750854 0.101012 
229.048355 0.092762 
229.061432 0.274925 
229.081177 7.701596 
230.056915 0.04802 
230.069626 0.16854 
230.093033 4.471058 
231.077286 0.452654 
231.095825 0.101871 
238.605911 0.092641 
239.069565 0.098581 
240.07753 11.965081 
240.250778 0.049597 
241.061798 0.053693 
241.082123 0.806238 
242.069763 0.274951 
242.093094 8.246551 
242.949905 0.097577 
243.064682 0.065911 
243.09671 0.404274 
245.350723 0.06799 
249.832657 0.036927 
251.030731 0.102187 
253.275345 0.119906 
255.32338 0.087178 
256.072357 0.540379 
256.901642 0.125106 
257.080139 0.291216 
257.472565 0.08579 
257.678375 0.113258 
258.088196 38.518864 
259.092316 4.959085 
260.103821 0.897311 
264.493683 0.03066 
272.089996 0.062274 
272.103912 13.034588 
273.106689 0.742332 
273.225616 0.086059 
274.534302 0.036638 
281.111969 0.064843 
281.19046 0.077989 
284.216736 0.165578 
285.842102 0.088604 
290.114471 17.27791 
291.118439 1.650834 
307.065186 0.098068 
308.803589 0.143437 
309.986206 0.052123 
311.359039 0.034433 
315.296936 0.064605 
321.122284 0.063747 
321.446838 0.132154 
322.5755 0.074367 
323.086426 0.039405 
323.261505 0.152342 
325.021667 0.154551 
326.160706 0.065731 
329.345703 0.094204 
331.411835 0.042128 
331.928467 0.036556 
334.268829 0.07475 
END IONS

