BEGIN IONS
PEPMASS=1056.53
CHARGE=1+
COMPOUNDNAME=Tomatine
LIBRARYQUALITY=3
SMILES=N/A
INCHIKEY=REJLGAUYTKNVJM-SGXCCWNXSA-N
INCHI=InChI=1S/C50H83NO21/c1-20-7-12-50(51-15-20)21(2)32-28(72-50)14-26-24-6-5-22-13-23(8-10-48(22,3)25(24)9-11-49(26,32)4)65-45-40(63)37(60)41(31(18-54)68-45)69-47-43(71-46-39(62)36(59)34(57)29(16-52)66-46)42(35(58)30(17-53)67-47)70-44-38(61)33(56)27(55)19-64-44/h20-47,51-63H,5-19H2,1-4H3/t20-,21-,22-,23-,24+,25-,26-,27+,28-,29+,30+,31+,32-,33-,34+,35+,36-,37+,38+,39+,40+,41-,42-,43+,44-,45+,46-,47-,48-,49-,50-/m0/s1
MSLEVEL=2
SOURCE_INSTRUMENT=N/A-ESI-QFT
FILENAME=library_mgf.mgf
SEQ=*..*
IONMODE=positive
ORGANISM=MONA
NAME=Tomatine [M+Na]+
PI=MoNA
DATACOLLECTOR=MoNA:VF-NPL-QEHF026710
PUBMED=N/A
SUBMITUSER=mwang87
TAGS=
SPECTRUMID=CCMSLIB00004719734
SCANS=26710
73.028442 0.275708 
73.046822 0.006962 
77.11898 0.004299 
77.703819 0.003827 
78.24202 0.008018 
78.32605 0.002137 
78.891129 0.009026 
80.540298 0.002995 
80.704803 0.001469 
81.033463 0.009863 
81.066757 0.003175 
81.06987 0.00542 
81.256432 0.002316 
82.983246 0.002693 
84.599152 0.010534 
85.028458 0.7135 
86.031807 0.002045 
87.044044 0.005848 
91.039017 0.096085 
91.054337 0.002029 
91.057335 0.008096 
93.069595 0.001467 
95.085442 0.006038 
96.080765 0.002606 
97.028458 0.440289 
97.064934 0.001436 
98.031776 0.003949 
98.096451 0.011053 
99.043961 0.009517 
99.311569 0.003316 
99.610764 0.010341 
100.17244 0.004999 
100.890396 0.009408 
100.909401 0.005551 
100.916321 0.003458 
101.358864 0.001556 
101.571182 0.009643 
103.973091 0.006883 
105.070023 0.003531 
107.085625 0.006311 
109.028358 0.034689 
109.101242 0.007124 
109.744034 0.008356 
111.980042 0.011023 
114.091454 0.049133 
115.039009 0.358563 
115.497849 0.003382 
115.522385 0.006222 
116.051636 0.00449 
117.122414 0.009359 
117.39782 0.01212 
117.462585 0.004937 
117.467148 0.012641 
117.941742 0.00678 
119.085518 0.006761 
120.01239 0.00969 
121.101288 0.00663 
121.745529 0.003478 
122.855347 0.002149 
124.112091 0.041257 
126.127808 0.216926 
127.039055 0.313283 
127.131325 0.001937 
128.978516 0.009554 
129.976562 0.00627 
131.085587 0.00199 
132.502533 0.004667 
133.049576 0.040621 
133.10112 0.009842 
134.328766 0.009429 
135.003143 0.00927 
135.116699 0.002 
138.128082 0.004779 
139.240448 0.010041 
142.371002 0.002584 
142.696823 0.006535 
145.04953 0.504156 
145.101242 0.023662 
145.327621 0.009109 
146.052841 0.007021 
147.053162 0.003348 
147.116898 0.03155 
150.354523 0.00639 
150.841125 0.002421 
153.306168 0.004491 
157.093048 0.00878 
157.101349 0.002277 
159.116943 0.026449 
161.132385 0.128524 
162.135818 0.001818 
163.060013 0.124298 
163.111893 0.008945 
163.436874 0.009908 
164.764267 0.009864 
167.05574 0.003376 
169.269272 0.006075 
170.306854 0.009878 
171.116974 0.001452 
173.132599 0.014038 
175.146973 0.00225 
175.319931 0.010213 
175.894913 0.003335 
177.485886 0.002833 
181.669342 0.002638 
182.021042 0.008051 
189.61496 0.009489 
191.806366 0.007463 
192.75563 0.00678 
194.088623 0.005541 
195.67662 0.005008 
197.27446 0.003512 
199.282089 0.004331 
200.052979 0.00232 
202.429428 0.008359 
202.789597 0.012933 
203.66893 0.009021 
205.133942 0.007426 
208.017715 0.004007 
217.885056 0.004975 
221.828552 0.004622 
223.059875 0.002217 
233.665131 0.004491 
239.095367 0.005324 
241.070709 0.008487 
242.612991 0.008211 
242.996216 0.006966 
244.096741 0.003218 
245.051575 0.005101 
245.71225 0.00801 
251.449753 0.004057 
251.995087 0.009148 
253.194794 0.0317 
254.198227 0.001517 
255.210724 0.601192 
256.214203 0.054622 
258.23938 0.002699 
261.246185 0.005032 
264.010559 0.038527 
264.254974 0.038478 
266.997986 0.02876 
267.999878 0.00189 
269.875854 0.009659 
270.416656 0.007676 
271.205902 0.005922 
273.221161 0.346379 
274.224792 0.011505 
275.489044 0.006943 
278.997345 0.002552 
279.455872 0.00263 
280.088379 0.011137 
281.459198 0.009204 
285.00946 0.002804 
298.198517 0.006123 
299.061646 0.003528 
304.165588 0.022315 
304.552765 0.006733 
306.314728 0.00826 
315.360535 0.002529 
319.850037 0.008708 
321.008972 0.017008 
322.01059 0.001676 
322.950439 0.001828 
323.88974 0.005242 
327.360229 0.004654 
328.575897 0.007355 
329.084198 0.489209 
345.050293 0.001531 
347.096069 0.014982 
351.019226 0.01261 
351.066681 0.037802 
351.690125 0.001683 
353.2388 0.002577 
368.035461 0.001929 
369.030884 0.025884 
370.031433 0.002906 
371.683197 0.006685 
372.599548 0.010839 
377.939331 0.004358 
380.332001 0.006823 
389.380157 0.002358 
396.327728 0.003507 
396.860229 0.009093 
398.341705 0.107375 
399.345642 0.009456 
403.40332 0.004533 
405.331787 0.009633 
405.960114 0.003423 
414.337067 0.023488 
414.402252 0.007936 
414.837646 0.002579 
416.352234 0.48197 
417.355621 0.077582 
418.358154 0.001823 
421.285431 0.009971 
435.274261 0.00706 
435.742828 0.009378 
437.231598 0.002389 
444.346161 0.001864 
446.075684 0.005968 
453.974335 0.003404 
458.361847 0.001642 
470.002594 0.005214 
473.513611 0.007447 
473.907776 0.005109 
474.075165 0.009539 
479.13678 1.270047 
480.1409 0.13748 
496.323151 0.009411 
500.047089 0.003788 
506.9841 0.007119 
534.339966 0.008524 
539.158142 0.020322 
560.39386 0.019258 
576.393188 0.002187 
578.405518 0.262297 
578.450745 0.002491 
579.408936 0.042885 
580.412109 0.002005 
590.381836 0.008789 
599.178772 0.793719 
600.183105 0.094547 
600.387817 0.2073 
601.385925 0.010122 
606.294556 0.006845 
622.315857 0.006641 
622.369141 0.433768 
623.373169 0.108835 
634.363342 0.004828 
641.189026 0.704964 
642.194641 0.064348 
645.720276 0.003647 
657.794067 0.002513 
658.465942 0.001618 
659.199768 0.594187 
660.204773 0.104999 
661.202148 0.008608 
668.81134 0.003484 
678.023804 0.004138 
685.99054 0.003382 
707.326477 0.012562 
707.584717 0.01616 
707.726074 0.018947 
708.089722 0.004255 
714.321045 0.010498 
715.524414 0.008273 
719.990723 0.010156 
740.459961 0.002828 
758.96228 0.005536 
760.976196 0.009816 
766.836792 0.010623 
770.69519 0.007848 
789.715393 0.001905 
805.019409 0.012685 
821.151855 0.002434 
849.643677 0.002686 
858.98291 0.001711 
865.758545 0.00685 
872.495972 0.013 
873.260071 0.00599 
873.502136 0.002427 
884.514771 0.006219 
892.463257 0.018385 
893.467651 0.005656 
894.480713 1.429682 
895.483948 0.634129 
896.485962 0.021977 
900.366028 0.005501 
902.512146 0.006068 
903.514282 0.003586 
915.450562 0.012352 
922.47876 0.026929 
923.479553 0.032794 
924.395081 0.007963 
924.491943 1.972923 
925.493896 0.816823 
926.499878 0.057129 
928.456116 0.007812 
954.843079 0.002769 
1003.491211 0.001842 
1014.52356 0.01948 
1015.520996 0.016851 
1016.541504 0.750191 
1017.433044 0.012162 
1017.545776 0.40815 
1018.548584 0.095589 
1019.54834 0.008687 
1028.542236 0.025575 
1029.539429 0.002274 
1030.541138 0.002484 
1032.536499 0.207432 
1033.537476 0.063968 
1034.551758 2.420535 
1035.555298 1.293807 
1036.55835 0.417689 
1037.559204 0.042397 
1038.534912 0.006697 
1039.552612 0.001774 
1046.549194 0.200852 
1047.553223 0.068199 
1048.552856 0.014672 
1054.392334 0.007295 
1054.518921 2.925928 
1055.522461 4.184436 
1056.323608 0.37213 
1056.53418 100.0 
1057.537842 49.957458 
1057.810425 0.004132 
1058.539551 9.863603 
1058.694824 0.029483 
1058.740112 0.041054 
1059.553345 0.064662 
1060.557129 0.018494 
1061.56958 0.002478 
1062.545776 0.002718 
1063.54541 0.001627 
1064.56665 0.005618 
1073.510132 0.077193 
1074.519897 0.080701 
1075.532227 0.031168 
1076.562134 0.541758 
1077.564819 0.381709 
1078.568237 0.15266 
1079.572021 0.034041 
1080.566162 0.002391 
1082.493652 0.027746 
1094.894897 0.010781 
END IONS

