BEGIN IONS
PEPMASS=380.166
CHARGE=1+
COMPOUNDNAME=Kasugamycin
LIBRARYQUALITY=3
SMILES=N/A
INCHIKEY=PVTHJAPFENJVNC-UQTMRZPGSA-N
INCHI=InChI=1S/C14H25N3O9/c1-3-5(17-12(16)13(23)24)2-4(15)14(25-3)26-11-9(21)7(19)6(18)8(20)10(11)22/h3-11,14,18-22H,2,15H2,1H3,(H2,16,17)(H,23,24)/t3-,4+,5+,6?,7+,8+,9-,10+,11?,14-/m1/s1
MSLEVEL=2
SOURCE_INSTRUMENT=N/A-ESI-QFT
FILENAME=library_mgf.mgf
SEQ=*..*
IONMODE=positive
ORGANISM=MONA
NAME=Kasugamycin [M+H]+
PI=MoNA
DATACOLLECTOR=MoNA:VF-NPL-QEHF013461
PUBMED=N/A
SUBMITUSER=mwang87
TAGS=
SPECTRUMID=CCMSLIB00004704524
SCANS=13461
50.037506 0.012289 
50.799545 0.012886 
51.023705 0.01384 
51.066769 0.012842 
51.068497 0.016486 
51.257156 0.014243 
51.417725 0.018614 
51.703625 0.016486 
51.728191 0.012299 
52.07568 0.017367 
52.156658 0.014261 
52.825462 0.016662 
53.03933 5.197893 
53.548706 0.019318 
53.716465 0.013746 
54.042706 0.048233 
54.064301 0.013926 
54.576408 0.01334 
55.054996 0.186746 
55.217953 0.012712 
55.775051 0.013602 
55.882153 0.013661 
56.050213 0.841364 
56.908169 0.014133 
56.965515 0.558795 
57.034199 0.110502 
57.045536 0.014233 
57.070614 0.097152 
57.212986 0.01155 
57.892307 0.014724 
58.065826 0.207017 
58.640697 0.016616 
59.061096 2.788295 
59.223698 0.015118 
59.387508 0.012053 
59.397812 0.010346 
60.08144 0.052256 
60.560253 0.018736 
61.011433 0.039287 
61.493572 0.012956 
61.546814 0.014665 
61.720715 0.013391 
62.558926 0.015013 
63.545383 0.017416 
63.670967 0.019107 
64.143044 0.014875 
64.730751 0.016052 
64.818558 0.018285 
65.039536 0.018239 
65.404495 0.018068 
66.349815 0.015735 
67.054893 0.934858 
68.050163 0.832067 
68.391663 0.020411 
69.034248 0.051982 
69.070534 0.188892 
69.108231 0.014959 
69.433632 0.017684 
70.065781 100.0 
70.19455 0.020384 
70.295471 0.015521 
70.979485 0.016215 
71.049835 0.061487 
71.05378 0.013034 
71.060867 0.114314 
71.062828 0.114448 
71.069092 4.463403 
71.071655 0.018138 
71.072083 0.015959 
71.882614 0.016312 
72.044968 0.057465 
72.081551 0.020749 
72.39193 0.01487 
72.616898 0.01697 
72.845711 0.013498 
73.047478 0.490948 
73.283569 0.018255 
73.682007 0.018866 
74.060638 0.212786 
74.277885 0.018158 
74.668976 0.014035 
75.918472 0.020434 
76.458939 0.018345 
77.425385 0.01488 
77.696892 0.017204 
79.021721 0.019007 
79.034325 0.018206 
79.465828 0.010828 
79.622131 0.018698 
79.83783 0.017599 
79.84481 0.01508 
80.003639 0.015834 
80.050087 0.072444 
80.966675 0.015802 
81.034042 0.817801 
81.045258 0.738232 
82.065674 1.23421 
83.04969 0.299361 
83.060867 2.355272 
84.044907 0.113022 
84.081322 1.195437 
84.275024 0.016626 
84.446602 0.017913 
85.029045 0.015132 
86.006287 0.019076 
86.267975 0.014279 
87.238037 0.016926 
87.344498 0.016491 
87.68428 0.012741 
88.678978 0.011568 
88.86937 0.017404 
89.032074 0.024382 
89.035011 2.263004 
89.124428 0.010206 
89.198555 0.01555 
89.520157 0.021127 
90.812447 0.014734 
91.054863 0.04111 
91.057861 0.678843 
92.190407 0.017994 
92.504173 0.0173 
94.065567 2.053899 
94.073532 0.017234 
94.361198 0.012429 
95.049545 2.886254 
95.060783 0.68622 
95.069061 0.015304 
95.439751 0.018042 
95.554192 0.012477 
95.715858 0.017981 
96.068489 0.017744 
97.076317 0.054803 
98.06041 0.310622 
98.071922 0.022699 
98.975731 0.46065 
99.05574 0.065139 
99.777725 0.017586 
101.700287 0.281089 
104.049393 0.021533 
105.116966 0.019204 
107.12664 0.015834 
107.395668 0.017201 
109.028801 0.057641 
109.363823 0.015415 
111.091942 0.313923 
111.331589 0.020756 
111.995079 0.015819 
112.075943 12.778115 
112.372711 0.015004 
113.071228 0.185226 
113.079285 0.694416 
113.258896 0.021734 
113.7658 0.019428 
115.968788 0.0189 
116.98616 0.264793 
117.340088 0.017807 
117.48175 0.019972 
118.432106 0.019031 
120.896805 0.018659 
121.076202 0.182308 
121.564682 0.018305 
121.678558 0.019572 
122.446632 0.019145 
122.60997 0.023246 
122.747742 0.010851 
123.305893 0.011375 
125.197174 0.01391 
127.05056 0.041653 
128.692078 0.025131 
129.753632 0.012855 
131.850235 0.020212 
132.401184 0.016831 
132.657532 0.013438 
134.377075 0.018991 
134.471313 0.020518 
134.879532 0.019686 
134.996323 0.014463 
136.384628 0.019237 
137.169769 0.014991 
139.086472 0.051428 
140.931366 0.014475 
141.27536 0.019872 
142.049759 0.018748 
149.023407 0.366642 
149.128387 0.011939 
149.998138 0.019427 
150.962967 0.020333 
155.395355 0.020401 
156.113235 0.207165 
158.197266 0.016651 
159.070618 0.018095 
161.098572 0.015567 
162.10553 0.01986 
166.900482 0.014422 
168.203568 0.014955 
171.348557 0.01942 
172.985153 0.023207 
173.697235 0.011522 
173.922195 0.012044 
178.859512 0.012474 
180.888702 0.035336 
182.426483 0.018271 
182.912735 0.018828 
183.293503 0.015998 
188.610748 0.018532 
196.054932 0.014321 
197.680038 0.015999 
197.986649 0.019612 
202.181976 0.014615 
205.475769 0.019667 
206.560944 0.013989 
211.662567 0.017344 
213.055084 0.025448 
213.747787 0.019318 
215.573471 0.017761 
220.887177 0.073288 
220.915054 0.094884 
220.930542 0.064135 
220.943344 0.059213 
220.963135 0.01738 
220.972229 0.016087 
232.427979 0.012793 
236.437683 0.017219 
236.756302 0.01965 
240.629059 0.020415 
240.909546 0.041661 
241.535431 0.015115 
247.583649 0.015486 
248.881973 0.018112 
253.364441 0.01757 
257.089966 0.019573 
262.975067 0.02108 
268.565613 0.020112 
268.978485 0.072274 
269.368591 0.018724 
270.958191 0.021496 
275.054443 0.014389 
276.37796 0.013453 
286.5802 0.014149 
292.661011 0.019074 
292.984406 0.018579 
296.532684 0.017032 
303.763519 0.018098 
303.841492 0.019387 
307.321838 0.017008 
307.779236 0.021187 
309.315735 0.017317 
309.695862 0.021891 
314.638702 0.020857 
323.353149 0.018668 
327.065094 0.017774 
327.323822 0.019347 
327.825653 0.011167 
332.998566 0.014959 
336.724945 0.012097 
347.008392 0.016837 
356.575867 0.01517 
361.998169 0.01951 
363.226685 0.019419 
365.511963 0.015522 
370.523132 0.019152 
371.561676 0.020781 
374.438446 0.022903 
374.82016 0.013318 
375.215881 0.017636 
384.666382 0.022385 
393.128357 0.020415 
403.320648 0.011674 
405.242035 0.021969 
407.504425 0.022113 
410.000214 0.018367 
420.327026 0.017572 
END IONS

