BEGIN IONS
PEPMASS=172.06
CHARGE=1+
COMPOUNDNAME=Patulin
LIBRARYQUALITY=3
SMILES=N/A
INCHIKEY=ZRWPUFFVAOMMNM-UHFFFAOYSA-N
INCHI=InChI=1S/C7H6O4/c8-6-3-4-5(11-6)1-2-10-7(4)9/h1,3,7,9H,2H2
MSLEVEL=2
SOURCE_INSTRUMENT=N/A-ESI-QFT
FILENAME=library_mgf.mgf
SEQ=*..*
IONMODE=positive
ORGANISM=MONA
NAME=Patulin [M+NH4]+
PI=MoNA
DATACOLLECTOR=MoNA:VF-NPL-QEHF025941
PUBMED=N/A
SUBMITUSER=mwang87
TAGS=
SPECTRUMID=CCMSLIB00004717004
SCANS=25941
50.575397 0.097957 
50.783646 0.032601 
51.569901 0.076269 
51.618019 0.094607 
51.900993 0.069235 
53.002514 4.709717 
53.038906 0.036601 
53.276955 0.034023 
53.411533 0.090433 
53.683548 0.030953 
53.848621 0.066957 
54.358055 0.030869 
54.38456 0.066054 
55.018139 2.338011 
55.054527 5.625885 
55.611614 0.034689 
56.049736 0.677976 
56.149059 0.09884 
56.944653 0.072331 
56.965038 1.074024 
57.033718 0.125183 
57.070152 0.719128 
57.306446 0.031256 
57.703049 0.087999 
57.890892 0.134049 
57.935005 0.799657 
58.065376 1.17429 
58.337875 0.097434 
58.388824 0.063324 
58.71109 0.065935 
58.932869 0.118699 
59.790627 0.067375 
59.897442 0.093347 
59.930462 1.0733 
60.26865 0.066186 
60.435104 0.072147 
60.930782 0.031617 
60.998283 0.092715 
61.010834 0.679103 
61.210827 0.05335 
61.498547 0.057469 
61.870781 0.066618 
61.927933 0.723767 
61.97641 0.111489 
62.018681 1.322142 
62.092842 0.069474 
62.929218 0.093355 
62.990116 0.13887 
63.021042 0.090033 
63.168133 0.060324 
63.587952 0.072787 
66.207909 0.084396 
67.054375 5.687948 
67.235832 0.097431 
68.068352 0.13563 
68.996925 0.039908 
69.033554 0.757614 
69.069901 2.256963 
69.252769 0.072171 
70.065178 5.099753 
70.073395 0.04152 
70.154671 0.107168 
70.233711 0.113993 
71.01281 5.595197 
71.04908 0.066414 
71.673347 0.100896 
72.044403 2.939631 
72.802109 0.063042 
74.529434 0.092365 
75.270134 0.080999 
76.502747 0.075414 
78.233932 0.09777 
79.021187 1.189861 
79.054253 2.733373 
79.578217 0.097042 
80.945099 0.223237 
81.016747 0.044705 
81.069885 2.734102 
81.307961 0.078005 
82.065147 0.056761 
82.073837 0.08261 
83.012711 0.701913 
83.085464 0.715517 
83.397652 0.064796 
83.662354 0.079697 
84.080727 0.958877 
85.028381 0.657778 
86.003471 0.072146 
87.044044 0.071086 
87.766586 0.059296 
88.66745 0.092577 
89.070831 0.10343 
89.302429 0.094026 
90.182236 0.086431 
91.054268 5.309718 
91.34449 0.06848 
92.903641 0.402507 
93.069847 1.762141 
93.496307 0.038246 
93.901566 0.371105 
93.956032 0.054849 
94.790108 0.058834 
95.085449 0.479364 
95.272659 0.103999 
95.523727 0.107123 
96.080727 0.503966 
96.355194 0.070205 
97.028381 0.802726 
97.216209 0.099857 
97.423546 0.126506 
97.947968 0.030454 
98.060394 0.106887 
98.096481 4.675742 
98.955627 0.103851 
99.007614 0.874388 
99.488731 0.068122 
99.613098 0.117521 
100.009651 0.078537 
100.504807 0.157648 
100.660057 0.064148 
101.007515 0.10226 
101.21769 0.078071 
101.503212 2.286994 
101.648582 0.072174 
101.974693 0.063465 
102.003006 0.078902 
102.341354 0.074424 
102.415733 0.095171 
102.501335 1.800184 
102.628098 0.067034 
105.069893 1.87879 
105.309753 0.091321 
107.085762 0.507742 
108.016243 0.079208 
108.063667 0.034998 
109.014778 2.181842 
109.101143 0.285374 
109.218857 0.09511 
109.514641 0.163489 
109.893654 0.092294 
110.012947 2.122793 
110.096313 0.557686 
110.209984 0.085866 
111.007729 0.329715 
111.385727 0.06474 
111.48806 0.102115 
111.506462 0.041262 
112.026726 0.040298 
112.111977 0.069287 
112.178146 0.072885 
113.332886 0.030441 
114.523865 0.071046 
114.607712 0.071365 
115.054352 0.048744 
115.92202 0.082144 
116.061974 0.051774 
116.107155 0.111505 
116.966171 1.151673 
117.02787 0.096027 
117.069817 2.168353 
117.151657 0.0983 
117.96582 0.032445 
119.085472 0.37075 
119.205437 0.13251 
120.975388 0.102705 
121.204735 0.085689 
122.096146 0.038601 
124.082054 0.086347 
124.112099 6.202198 
124.27504 0.086733 
125.023399 0.133189 
125.115509 0.173921 
125.211006 0.062419 
125.267448 0.101722 
126.933281 0.036466 
127.038918 0.0368 
127.261551 0.030978 
129.069626 0.071808 
130.144745 0.036249 
130.981628 0.519778 
131.08548 13.974579 
131.953247 0.06027 
136.112228 0.324237 
136.580215 0.071671 
137.119904 1.695954 
137.927948 2.118068 
139.860611 0.071666 
139.923538 0.396755 
140.995026 0.092393 
141.262146 0.066267 
142.935852 0.099802 
144.997604 0.20984 
145.101105 2.880399 
145.50354 0.09745 
146.283859 0.119989 
149.867523 0.113864 
150.127792 0.101862 
152.143326 27.846952 
153.146606 5.314272 
153.787216 0.041884 
154.180267 0.07187 
156.568985 0.033824 
156.945831 0.046296 
157.088394 0.161516 
157.95166 0.037205 
160.784882 0.089435 
167.644714 0.083783 
167.965591 0.103709 
169.503677 0.116611 
170.153839 100.0 
171.157196 19.224421 
172.111969 0.934979 
172.159821 0.136263 
173.078506 2.879399 
173.107285 1.395444 
173.132416 1.652741 
174.902344 0.178997 
175.121109 0.07098 
175.126862 0.130692 
177.292221 0.108519 
180.778595 0.109845 
184.095688 0.066802 
185.59024 0.103958 
185.789276 0.109611 
186.675629 0.079521 
END IONS

