BEGIN IONS
PEPMASS=452.155
CHARGE=1+
COMPOUNDNAME=NOSCAPINE
LIBRARYQUALITY=3
SMILES=N/A
INCHIKEY=AKNNEGZIBPJZJG-MSOLQXFVSA-N
INCHI=InChI=1S/C22H23NO7/c1-23-8-7-11-9-14-20(29-10-28-14)21(27-4)15(11)17(23)18-12-5-6-13(25-2)19(26-3)16(12)22(24)30-18/h5-6,9,17-18H,7-8,10H2,1-4H3/t17-,18+/m1/s1
MSLEVEL=2
SOURCE_INSTRUMENT=N/A-Linear Ion Trap
FILENAME=library_mgf.mgf
SEQ=*..*
IONMODE=positive
ORGANISM=MONA
NAME=NOSCAPINE M+H
PI=MoNA
DATACOLLECTOR=MoNA:VF-NPL-LTQ006082
PUBMED=N/A
SUBMITUSER=mwang87
TAGS=
SPECTRUMID=CCMSLIB00004689593
SCANS=5214
248.699997 0.853349 
256.26001 4.13707 
322.75 0.659324 
364.040009 1.78646 
373.049988 3.506936 
380.220001 1.490058 
382.790009 2.589686 
388.73999 12.89435 
405.23999 2.300159 
407.149994 29.145802 
420.380005 14.553227 
422.059998 100.0 
432.940002 8.220294 
435.450012 8.678882 
437.209991 15.39037 
441.839996 2.643736 
451.070007 25.525866 
END IONS

