BEGIN IONS
PEPMASS=333.166
CHARGE=1+
COMPOUNDNAME=Massbank: Spectinomycin
LIBRARYQUALITY=3
SMILES=[H]C([H])([H])N([H])C([H])(C([H])(O[H])1)C([H])(O[H])C([H])(O2)C([H])(OC(O[H])(C(=O)3)C([H])(OC([H])(C([H])([H])[H])C([H])([H])3)2)C([H])(N([H])C([H])([H])[H])1
INCHIKEY=UNFWWIHTNXNPBV-UHFFFAOYSA-N
INCHI=1S/C14H24N2O7/c1-5-4-6(17)14(20)13(21-5)22-12-10(19)7(15-2)9(18)8(16-3)11(12)23-14/h5,7-13,15-16,18-20H,4H2,1-3H3
MSLEVEL=2
SOURCE_INSTRUMENT=ESI-LC-ESI-QTOF
FILENAME=Massbank_ESI_positive_8_1_2014_peaks.mgf
SEQ=*..*
IONMODE=Positive
ORGANISM=MASSBANK
NAME=Massbank: Spectinomycin [M+H]+
PI=Putative Massbank Match
DATACOLLECTOR=Massbank
PUBMED=N/A
SUBMITUSER=mwang87
TAGS=
SPECTRUMID=CCMSLIB00000206375
SCANS=1634
53.0398 395.543 
55.0187 209.935 
55.0546 423.954 
56.0502 529.942 
57.0338 1060.395 
58.0295 215.039 
58.0653 663.831 
59.0368 412.555 
60.0443 219.292 
65.0382 193.603 
67.0523 474.311 
68.0495 1126.744 
68.9958 107.486 
69.0334 2640.354 
70.0654 5190.541 
71.0114 147.686 
71.0493 4169.786 
72.045 6830.555 
73.0237 241.919 
73.0518 1628.615 
74.0606 3776.795 
77.0401 114.069 
79.0556 179.483 
80.0501 364.24 
81.0345 3492.685 
82.0658 2790.065 
83.0116 219.633 
83.0502 1386.866 
84.0445 1602.586 
84.0824 870.534 
85.0311 1995.577 
85.0635 881.082 
86.0609 3351.48 
87.0083 775.094 
87.0457 282.579 
88.0765 377.339 
93.0579 346.036 
94.0658 6925.825 
95.0117 120.432 
95.0529 507.486 
96.0441 1053.079 
96.0822 727.969 
97.0446 774.923 
97.0552 536.237 
98.0605 10000.0 
99.0455 5682.205 
99.0783 240.558 
100.0391 1290.575 
100.0765 2121.47 
101.0466 214.529 
102.0554 1150.902 
107.0668 100.868 
108.0816 220.483 
109.0285 1315.073 
110.0608 2487.241 
111.057 1565.839 
112.0376 2177.611 
112.0765 5489.963 
113.0281 500.851 
113.0563 117.931 
114.0553 1373.426 
114.0975 139.469 
115.06 188.67 
116.0712 1302.654 
122.06 4396.053 
123.076 728.649 
124.0754 831.575 
125.0293 195.985 
125.1061 230.18 
126.0562 471.929 
127.0397 478.224 
128.0656 761.483 
129.0542 1472.269 
130.0506 159.544 
135.0916 709.255 
138.0576 659.238 
139.0629 485.88 
140.0709 2606.329 
141.058 244.981 
142.0856 312.521 
150.0623 124.855 
152.0739 225.927 
153.1011 266.077 
154.0844 448.962 
156.0662 172.848 
158.0797 444.709 
168.0661 110.752 
170.0798 219.633 
172.0951 124.158 
182.0818 128.428 
189.1213 305.716 
200.0906 127.594 
207.1322 130.844 
END IONS

