BEGIN IONS
PEPMASS=175.024
CHARGE=1+
COMPOUNDNAME=HMDB:HMDB00072-119 cis-Aconitic acid
LIBRARYQUALITY=3
SMILES=OC(=O)C\C(=C\C(O)=O)C(O)=O
INCHIKEY=GTZCVFVGUGFEME-IWQZZHSRSA-N
INCHI=InChI=1S/C6H6O6/c7-4(8)1-3(6(11)12)2-5(9)10/h1H,2H2,(H,7,8)(H,9,10)(H,11,12)/b3-1-
MSLEVEL=2
SOURCE_INSTRUMENT=Positive-Quattro_QQQ:40eV
FILENAME=hmdb_intermediate.mgf
SEQ=*..*
IONMODE=Positive
ORGANISM=HMDB
NAME=HMDB:HMDB00072-119 cis-Aconitic acid M+H
PI=HMDB
DATACOLLECTOR=HMDB
PUBMED=N/A
SUBMITUSER=mwang87
TAGS=
SPECTRUMID=CCMSLIB00000425100
SCANS=72
41.339 100.0 
67.124 2.831 
83.326 2.899 
84.2 5.503 
85.05 60.87 
128.083 3.057 
128.949 8.062 
171.862 4.121 
172.885 10.054 
END IONS

