BEGIN IONS
PEPMASS=176.103
CHARGE=1+
COMPOUNDNAME=Citrulline
LIBRARYQUALITY=3
SMILES=N/A
INCHIKEY=RHGKLRLOHDJJDR-BYPYZUCNSA-N
INCHI=InChI=1S/C6H13N3O3/c7-4(5(10)11)2-1-3-9-6(8)12/h4H,1-3,7H2,(H,10,11)(H3,8,9,12)/t4-/m0/s1
MSLEVEL=2
SOURCE_INSTRUMENT=N/A-ESI-QFT
FILENAME=library_mgf.mgf
SEQ=*..*
IONMODE=positive
ORGANISM=MONA
NAME=Citrulline [M+H]+
PI=MoNA
DATACOLLECTOR=MoNA:VF-NPL-QEHF026469
PUBMED=N/A
SUBMITUSER=mwang87
TAGS=
SPECTRUMID=CCMSLIB00004717942
SCANS=26469
50.097225 0.005738 
50.35738 0.00279 
50.671352 0.009483 
50.901779 0.00638 
51.452538 0.007209 
52.110035 0.003053 
52.331596 0.006778 
53.002567 0.016672 
53.165501 0.010312 
53.258667 0.004366 
53.441032 0.003275 
53.735744 0.006819 
53.892578 0.005544 
53.916027 0.009765 
53.998322 0.009151 
54.044617 0.004263 
54.420238 0.003127 
54.527313 0.00624 
54.670731 0.008636 
54.801216 0.006597 
55.090714 0.011431 
55.469147 0.005409 
56.070648 0.005826 
56.418247 0.004435 
56.611042 0.006509 
56.965099 2.609499 
57.272251 0.009078 
57.368736 0.003378 
57.604862 0.003141 
58.311283 0.014293 
58.721405 0.008628 
59.323536 0.008373 
59.330742 0.005559 
59.796043 0.006736 
59.935455 0.011892 
60.27618 0.006088 
60.481522 0.009089 
60.580109 0.003475 
61.109901 0.006056 
61.167618 0.005691 
62.002159 0.005307 
62.018833 0.0095 
62.097904 0.006412 
62.724541 0.006769 
63.990303 0.006206 
63.997986 0.016735 
64.445244 0.006083 
65.137466 0.00649 
65.220085 0.011406 
65.261299 0.005994 
65.425186 0.007459 
66.280968 0.006909 
66.48494 0.004388 
67.193504 0.009459 
67.993172 0.287853 
68.049644 0.843208 
68.226501 0.003399 
68.297226 0.005826 
68.434174 0.010389 
69.033638 0.051529 
69.052917 0.00681 
69.476974 0.012327 
69.486687 0.049473 
70.065224 100.0 
70.074799 0.003426 
71.049263 0.520571 
71.062263 0.310171 
71.068573 4.264396 
71.070816 0.057403 
71.951942 0.206214 
72.005211 0.008295 
72.675529 0.011645 
72.72506 0.003496 
72.728676 0.0065 
74.023643 0.115235 
74.374634 0.012333 
74.754219 0.00628 
74.975388 0.015441 
75.065849 0.006893 
75.75663 0.004743 
76.446075 0.008536 
76.658882 0.006388 
76.998337 2.15956 
77.286606 0.009144 
77.590385 0.003412 
78.000328 0.006809 
78.491913 0.065486 
78.555473 0.003048 
78.667732 0.007245 
79.021286 0.152736 
80.880386 0.003592 
82.607437 0.008183 
82.767731 0.006666 
83.37767 0.012599 
84.044472 0.312744 
84.222214 0.009438 
84.31118 0.003024 
84.892082 0.010431 
85.127975 0.006353 
85.706093 0.012443 
85.877533 0.01217 
86.003632 3.530002 
86.060089 2.617189 
86.062775 0.020639 
86.316742 0.007413 
86.505554 0.008523 
87.001556 0.072273 
87.063362 0.045368 
87.091553 0.013116 
88.000107 0.007684 
88.013367 0.005008 
88.075836 0.033255 
89.123672 0.006436 
89.217751 0.005516 
89.410721 0.00428 
89.544495 0.006455 
89.565056 0.004133 
89.671036 0.006178 
89.781143 0.011702 
90.483078 0.236349 
90.576523 0.013306 
90.817642 0.006127 
91.189949 0.003373 
91.193306 0.003749 
91.734489 0.008445 
91.931786 0.012213 
92.458549 0.003982 
92.477943 0.012396 
93.011581 0.012756 
94.14241 0.006994 
94.386353 0.012156 
94.796051 0.004121 
95.008904 0.742691 
96.006706 0.016189 
96.044456 1.011038 
96.286659 0.004777 
96.299255 0.003232 
96.543488 0.005744 
96.876892 0.011573 
97.076157 0.321222 
97.994743 0.036911 
98.060051 0.275514 
98.622353 0.011865 
98.975441 9.884732 
99.044121 0.055419 
99.256905 0.011446 
99.273163 0.007374 
99.488281 2.309676 
99.551201 0.006244 
99.978767 0.064416 
99.990044 0.016065 
100.486252 0.139005 
100.971397 0.008871 
100.982124 0.007038 
101.130333 0.006442 
101.485001 0.007353 
101.580261 0.07863 
101.586876 0.043012 
101.589592 0.017766 
101.67244 0.003547 
102.636368 0.007986 
102.714684 0.00641 
102.860229 0.006882 
103.389641 0.004187 
103.437683 0.006048 
105.386459 0.003554 
106.401421 0.012352 
106.831192 0.013171 
106.92366 0.003434 
106.992416 0.007765 
107.000015 0.697225 
107.326859 0.010404 
107.98967 0.021259 
107.99794 0.035973 
108.40345 0.011381 
108.493546 5.063691 
108.995354 0.095972 
109.491463 0.429848 
109.4953 0.017565 
109.851585 0.005052 
110.295609 0.012201 
110.489799 0.014244 
110.502365 0.00741 
113.070992 25.375587 
113.196014 0.006722 
114.055077 4.005185 
114.06797 0.066561 
114.074364 1.340316 
114.969101 0.006718 
115.058418 0.120247 
115.086685 0.800603 
115.501579 0.028116 
116.005363 1.377592 
116.070686 1.908395 
116.506691 0.003581 
116.985992 2.309644 
117.003235 0.060006 
117.074104 0.033459 
117.498848 0.864891 
118.067764 0.009209 
118.496849 0.01193 
118.871719 0.009163 
119.019234 0.00655 
119.861725 0.005388 
119.881447 0.010401 
120.632759 0.003268 
121.175278 0.006338 
122.118874 0.006571 
122.884567 0.011094 
123.553467 0.005444 
124.825172 0.006578 
125.010353 0.051548 
126.783508 0.007623 
126.845589 0.007095 
127.325523 0.006525 
131.669556 0.005767 
133.594604 0.006333 
134.634109 0.006864 
134.996597 0.191829 
138.090469 0.011085 
141.06604 0.038213 
141.522552 0.009769 
142.05014 0.098617 
142.213501 0.009451 
143.048691 0.00808 
144.222305 0.006182 
145.336197 0.00944 
146.450943 0.005508 
148.404404 0.005058 
148.851105 0.008371 
149.806747 0.014271 
149.834061 0.011543 
150.088165 0.013183 
152.899445 0.010115 
155.232986 0.003515 
156.321075 0.01245 
157.580933 0.007522 
159.076462 1.0706 
159.731583 0.007659 
160.080032 0.010521 
160.14772 0.003431 
168.426025 0.003469 
170.240875 0.009883 
171.944611 0.006011 
174.463486 0.003061 
178.133438 0.021768 
181.201797 0.005194 
182.489899 0.003553 
182.79628 0.010159 
183.520798 0.006815 
185.970062 0.013743 
186.527054 0.007048 
186.778 0.007436 
190.466705 0.007582 
190.749466 0.008868 
190.940948 0.005004 
193.454697 0.004921 
194.16571 0.005861 
195.336609 0.013094 
END IONS

