BEGIN IONS
PEPMASS=268.0
CHARGE=1+
COMPOUNDNAME=Massbank:KO008860 Adenosine
LIBRARYQUALITY=3
SMILES=OC[C@@H](O1)[C@@H](O)[C@@H](O)[C@@H]1n(c3)c(n2)c(n3)c(N)nc2
INCHIKEY=OIRDTQYFTABQOQ-KQYNXXCUSA-N
INCHI=1S/C10H13N5O4/c11-8-5-9(13-2-12-8)15(3-14-5)10-7(18)6(17)4(1-16)19-10/h2-4,6-7,10,16-18H,1H2,(H2,11,12,13)/t4-,6-,7-,10-/m1/s1
MSLEVEL=2
SOURCE_INSTRUMENT=ESI-LC-ESI-IT
FILENAME=Massbank_ESI_positive_8_1_2014_peaks.mgf
SEQ=*..*
IONMODE=Positive
ORGANISM=MASSBANK
NAME=Massbank:KO008860 Adenosine [M+H]+
PI=Putative Massbank Match
DATACOLLECTOR=Massbank
PUBMED=N/A
SUBMITUSER=mwang87
TAGS=
SPECTRUMID=CCMSLIB00000221122
SCANS=10091
83.2 108.99 
85.1 694.11 
92.0 431.87 
94.1 535.05 
96.1 275.09 
99.0 3091.78 
103.0 714.22 
109.1 84.22 
115.1 292.01 
119.0 3484.9 
125.1 469.04 
133.0 1151.93 
136.1 1953727.94 
137.0 18254.52 
139.7 101.79 
149.4 86.65 
153.1 622.83 
155.0 978.57 
156.1 703.39 
156.9 197.05 
171.1 86.92 
178.1 735.84 
181.2 193.63 
186.9 269.99 
187.9 101.29 
202.1 1732.42 
204.0 78.84 
205.1 844.43 
210.9 1742.68 
212.0 460.04 
216.9 431.88 
222.1 224.56 
232.0 380.54 
236.1 112.36 
237.1 70.1 
248.9 1024.85 
250.1 1521.02 
251.1 3306.27 
268.1 1906.89 
END IONS

