BEGIN IONS
PEPMASS=453.0
CHARGE=1+
COMPOUNDNAME=MoNA:2310324 Ribostamycin
LIBRARYQUALITY=3
SMILES=N/A
INCHIKEY=NSKGQURZWSPSBC-DLBSIDPUSA-N
INCHI=InChI=1S/C17H34N4O10/c18-2-6-10(24)12(26)8(21)16(28-6)30-14-5(20)1-4(19)9(23)15(14)31-17-13(27)11(25)7(3-22)29-17/h4-17,22-27H,1-3,18-21H2/t4-,5+,6-,7-,8-,9+,10-,11-,12-,13-,14-,15-,16-,17-/m1/s1
MSLEVEL=2
SOURCE_INSTRUMENT=LC-ESI-QQ-LC-ESI-QQ
FILENAME=output_mgf.mgf
SEQ=*..*
IONMODE=
ORGANISM=MONA
NAME=MoNA:2310324 Ribostamycin [M-H]-
PI=MoNA
DATACOLLECTOR=MoNA
PUBMED=N/A
SUBMITUSER=mwang87
TAGS=
SPECTRUMID=CCMSLIB00000572141
SCANS=9392
58.0 10.416667 
59.3 45.833333 
71.2 5.208333 
75.2 4.166667 
79.3 19.791667 
88.7 10.416667 
95.4 10.416667 
97.1 100.0 
99.8 25.0 
117.8 20.833333 
118.6 8.333333 
127.0 9.375 
133.9 3.125 
137.2 5.208333 
148.2 6.25 
161.3 44.791667 
164.0 4.166667 
181.2 10.416667 
199.3 5.208333 
END IONS

