BEGIN IONS
PEPMASS=1202.85
CHARGE=1+
COMPOUNDNAME=Cyclosporine (Neoral)
LIBRARYQUALITY=1
SMILES=C1(N(C)C(C(NC(C(NC(C(CC(C)C)N(C(C(NC(C(CC(C)C)N(C)C(=O)CN(C)C(C(CC)NC(C(N(C(C(N(C(=O)C(N(C)C1=O)CC(C)C)C)C(C)C)=O)C)[C@@H]([C@@H](C/C=C/C)C)O)=O)=O)=O)C(C)C)=O)C)=O)C)=O)C)=O)CC(C)C
INCHIKEY=PMATZTZNYRCHOR-KMSBSJHKSA-N
INCHI=N/A
MSLEVEL=2
SOURCE_INSTRUMENT=LC-ESI-qTof
FILENAME=Plate3_21_40_GG10_01_16499.mzXML
SEQ=*..*
IONMODE=Positive
ORGANISM=GNPS-SELLECKCHEM-FDA-PART2
NAME=Cyclosporine (Neoral) [M+H]
PI=Dorrestein
DATACOLLECTOR=Garg_Neha
PUBMED=N/A
SUBMITUSER=negarg
TAGS=
SPECTRUMID=CCMSLIB00000078177
SCANS=3621
62.90139 212.0 
83.669655 152.0 
89.457458 148.0 
92.53878 148.0 
107.969742 140.0 
114.090874 216.0 
132.988998 172.0 
140.090988 160.0 
142.085342 348.0 
143.091583 160.0 
154.082352 196.0 
156.103989 276.0 
156.142227 356.0 
162.457169 144.0 
164.566986 156.0 
165.315933 180.0 
166.121628 200.0 
171.149933 308.0 
173.64296 200.0 
182.132263 176.0 
184.138519 192.0 
185.087387 192.0 
185.122589 160.0 
186.288849 148.0 
186.669357 200.0 
194.117081 184.0 
195.118378 180.0 
197.092545 144.0 
199.143539 172.0 
210.150208 612.0 
211.160568 180.0 
212.126587 492.0 
218.929718 152.0 
224.162582 544.0 
225.167419 396.0 
226.952072 180.0 
231.194473 156.0 
234.989731 168.0 
241.199341 168.0 
251.166885 220.0 
252.87941 156.0 
255.198318 260.0 
256.159424 144.0 
256.214722 192.0 
269.184692 104.0 
270.181305 304.0 
278.212128 148.0 
279.169037 184.0 
282.18335 164.0 
284.045319 180.0 
284.187622 184.0 
298.213898 252.0 
307.201569 148.0 
311.001495 144.0 
312.223999 160.0 
313.228638 124.0 
322.163208 208.0 
322.213318 296.0 
323.207184 404.0 
323.236084 352.0 
324.230896 136.0 
325.077667 160.0 
326.238342 164.0 
340.21524 140.0 
340.268951 192.0 
354.268555 200.0 
368.24292 188.0 
368.282593 160.0 
368.326965 152.0 
369.285614 148.0 
382.288116 152.0 
393.246063 184.0 
397.294067 180.0 
409.280487 148.0 
421.342926 188.0 
424.310059 164.0 
425.313812 520.0 
426.311432 320.0 
427.332855 140.0 
440.888489 244.0 
443.336639 264.0 
444.316895 128.0 
449.315063 136.0 
450.312012 260.0 
467.330688 272.0 
496.363983 420.0 
510.36319 144.0 
524.383545 492.0 
525.379883 144.0 
534.414612 140.0 
538.399475 140.0 
548.368835 152.0 
549.381165 320.0 
566.396606 272.0 
566.443909 164.0 
567.382202 168.0 
567.429565 156.0 
568.37915 164.0 
576.367981 124.0 
579.420776 140.0 
581.418457 144.0 
598.452881 152.0 
609.10199 180.0 
620.838867 180.0 
624.414612 220.0 
637.460876 260.0 
638.450623 176.0 
652.452026 164.0 
663.471313 172.0 
665.497864 140.0 
666.490845 148.0 
675.480652 468.0 
676.159912 132.0 
676.49176 120.0 
679.349976 160.0 
680.481384 152.0 
693.4953 144.0 
694.48938 724.0 
695.488586 132.0 
696.527771 136.0 
703.489014 136.0 
737.519775 152.0 
738.509216 140.0 
765.536194 140.0 
779.532532 124.0 
788.55542 136.0 
806.544434 160.0 
807.568237 304.0 
808.545349 124.0 
817.759766 216.0 
821.574951 392.0 
822.585388 180.0 
823.595093 124.0 
853.596741 148.0 
906.618103 132.0 
934.657471 388.0 
934.730469 232.0 
935.655701 276.0 
936.684814 120.0 
944.664612 280.0 
945.640686 144.0 
962.653625 112.0 
963.659973 96.0 
972.660889 124.0 
973.657837 140.0 
979.67218 144.0 
980.704651 132.0 
1014.310852 196.0 
1058.743164 144.0 
1064.063477 168.0 
1071.751953 160.0 
1072.754883 132.0 
1073.7771 228.0 
1075.744507 136.0 
1076.745972 228.0 
1089.748291 176.0 
1089.805908 144.0 
1090.362183 140.0 
1090.651367 168.0 
1090.734497 236.0 
1092.805054 96.0 
1099.717163 260.0 
1100.75061 116.0 
1107.721802 224.0 
1141.877197 156.0 
1184.824585 204.0 
1185.834961 236.0 
1186.843384 96.0 
1190.416138 144.0 
1202.847168 2628.0 
1203.255737 152.0 
1203.727051 200.0 
1203.85498 1852.0 
1204.027832 124.0 
1204.842163 772.0 
1205.52771 108.0 
1205.872803 288.0 
1206.84314 204.0 
1777.665039 168.0 
1853.871338 172.0 
1977.299072 144.0 
END IONS

