BEGIN IONS
PEPMASS=507.277
CHARGE=1+
COMPOUNDNAME=(2E,4E)-1-[(2R,6S,14S,22S,25R)-25-(3,3-dimethyloxiran-2-yl)-15-methyl-1,3,13,15-tetraazaheptacyclo[18.4.1.0�,?.0?,��.0?,��.0�?,��.0�?,��]pentacosa-7,9,11,16(21),17,19-hexaen-3-yl]hexa-2,4-dien-1-one
LIBRARYQUALITY=3
SMILES=N/A
INCHIKEY=XZFSMUXVAYCHFO-QREHLELFSA-N
INCHI=InChI=1S/C32H36N4O2/c1-5-6-7-15-24(37)35-18-16-31-21-12-8-9-13-22(21)33-28-32(31)17-19-36(29(31)35)26(27-30(2,3)38-27)20-11-10-14-23(25(20)32)34(28)4/h5-15,26-29,33H,16-19H2,1-4H3/b6-5+,15-7+/t26-,27?,28+,29+,31-,32-/m1/s1
MSLEVEL=2
SOURCE_INSTRUMENT=N/A-ESI-QFT
FILENAME=library_mgf.mgf
SEQ=*..*
IONMODE=negative
ORGANISM=MONA
NAME=(2E,4E)-1-[(2R,6S,14S,22S,25R)-25-(3,3-dimethyloxiran-2-yl)-15-methyl-1,3,13,15-tetraazaheptacyclo[18.4.1.0�,?.0?,��.0?,��.0�?,��.0�?,��]pentacosa-7,9,11,16(21),17,19-hexaen-3-yl]hexa-2,4-dien-1-one [M-H]-
PI=MoNA
DATACOLLECTOR=MoNA:VF-NPL-QEHF021746
PUBMED=N/A
SUBMITUSER=mwang87
TAGS=
SPECTRUMID=CCMSLIB00004712809
SCANS=21746
50.438675 0.19297 
51.315178 0.182928 
52.494743 0.242738 
52.645557 0.247542 
53.549927 0.131977 
54.128544 0.259082 
54.539928 0.246041 
55.040646 0.292356 
55.647213 0.266251 
56.141449 0.242654 
56.274067 0.281363 
57.576519 0.270303 
57.614044 0.115126 
58.49963 0.245476 
58.764786 0.232661 
58.836891 0.129905 
59.012379 27.160751 
60.015888 0.271214 
61.986885 80.956772 
62.415977 0.245093 
62.439217 0.235437 
62.556522 0.274997 
64.230148 0.208515 
65.038223 7.022898 
65.994125 0.199878 
68.11451 0.218681 
69.314766 0.18574 
70.297386 0.317291 
70.488419 0.255739 
71.048828 0.232403 
71.316109 0.271257 
71.538544 0.222775 
71.652939 0.126444 
72.337334 0.219611 
73.763588 0.280254 
74.063499 0.169474 
76.1595 0.315785 
76.856812 0.27381 
78.053352 0.171702 
78.957588 0.805622 
78.998627 0.164453 
79.397339 0.308318 
79.955994 7.36866 
80.963768 3.86808 
81.179512 0.260855 
83.345428 0.262437 
83.782555 0.133597 
84.505249 0.233778 
86.490051 0.288781 
86.563354 0.234181 
87.007607 0.237957 
88.039078 0.268169 
89.022972 13.734285 
89.041405 5.359874 
89.251984 0.249226 
89.924179 0.251396 
90.098457 0.305679 
90.681732 0.193406 
90.896667 0.273852 
92.049126 9.493028 
93.033173 22.961029 
93.87001 0.221009 
94.028397 1.450351 
94.97937 35.081184 
95.048706 0.203059 
95.466331 0.226843 
96.211792 0.26606 
96.958664 4.45141 
96.975182 0.603149 
97.929611 0.337158 
98.023369 0.499991 
98.937843 0.291033 
99.9244 17.5382 
99.959206 0.187225 
99.966103 0.206131 
100.404861 0.210184 
100.924492 0.65434 
100.932213 18.967958 
101.358398 0.329338 
101.932365 0.71535 
102.111671 0.154175 
102.979691 0.269196 
103.918747 3.884131 
104.521263 0.254123 
104.721802 0.304061 
105.34993 0.175759 
105.661842 0.223723 
107.899124 0.21306 
108.256828 0.303542 
108.815926 0.224345 
109.039368 0.260632 
109.097961 0.153719 
110.059731 63.127544 
111.043854 0.481119 
111.062798 0.175518 
112.302925 0.265217 
112.980736 0.200305 
114.591682 0.271376 
115.086304 1.586461 
115.919342 41.885201 
116.049187 7.573486 
116.070175 0.336499 
116.919502 2.705269 
116.927124 6.167663 
119.034042 0.186912 
119.420013 0.237761 
119.922241 0.311596 
119.945427 0.632116 
121.028069 1.544931 
122.892799 1.592554 
123.031128 0.214239 
123.96756 0.264198 
124.21328 0.291425 
126.290466 0.264547 
128.876633 0.185482 
130.064865 5.138906 
130.94281 6.59099 
131.060226 0.195889 
131.733704 0.236609 
132.044403 0.271968 
132.69165 0.235155 
132.899033 0.267015 
134.059616 0.217986 
134.893234 11.816962 
136.075577 1.562156 
137.07074 21.969746 
138.054718 100.0 
138.152802 0.277434 
138.795517 0.261622 
138.930038 0.301931 
139.058105 3.444746 
140.2771 0.301616 
141.065262 0.178295 
142.06488 30.264124 
142.943054 0.296267 
143.058914 0.446626 
143.0681 0.479353 
143.617203 0.239087 
144.044174 0.295007 
145.917587 0.796705 
146.060272 0.206468 
147.044037 0.66249 
147.15744 0.242463 
147.664597 0.303918 
152.994553 0.27821 
153.084229 0.275289 
153.34169 0.247475 
156.067841 0.658465 
156.080246 0.65214 
157.039551 0.230883 
157.075958 21.100672 
158.060013 3.082981 
158.937851 0.895278 
159.091583 3.167106 
159.24144 0.194607 
160.101959 0.251972 
161.912689 0.256855 
162.837936 0.336677 
163.086502 0.158222 
164.070618 1.388913 
166.065125 1.081439 
167.060532 0.378693 
168.044327 8.157193 
168.080536 22.573536 
169.03981 0.447515 
169.07608 1.103368 
169.084045 0.808148 
169.930756 0.338845 
170.06012 0.914772 
171.055588 0.31014 
171.137299 0.281742 
171.945618 9.068502 
172.075378 0.317768 
172.840607 0.250523 
174.102371 0.242308 
176.993149 0.308287 
181.075638 0.205151 
182.060989 0.708771 
183.01123 1.394726 
183.04718 0.216563 
183.055405 12.106382 
183.09198 1.019046 
184.000732 20.12711 
184.063156 2.242947 
184.504669 1.05405 
185.062073 0.301366 
185.070877 19.371389 
186.066071 0.259886 
186.969421 0.363093 
188.983612 0.197944 
190.985535 0.139157 
191.008926 0.28564 
191.546387 0.231545 
195.055695 0.245287 
195.091797 1.354799 
197.027267 0.30066 
197.071304 11.358226 
197.355499 0.140237 
197.992615 0.241812 
198.079041 1.958067 
199.086731 26.883989 
199.169876 0.419219 
199.84993 1.841686 
200.94429 0.158628 
208.073898 0.227222 
208.455322 0.211563 
211.08667 2.187389 
211.188751 0.308174 
213.102554 3.125651 
213.202423 17.051167 
213.211349 4.082589 
214.155624 1.423328 
215.035477 0.227 
215.328522 0.341516 
216.845474 0.290657 
219.148056 0.258808 
220.352539 0.141313 
220.965881 0.227414 
221.191452 0.263134 
221.841431 2.420128 
222.794678 0.235529 
223.027451 0.19699 
223.086868 0.194422 
223.123169 0.628854 
223.803879 0.185928 
225.436493 0.247602 
227.201126 2.292227 
230.755707 0.283122 
234.063995 0.329256 
235.058517 0.260729 
235.087631 0.427555 
237.102768 12.331124 
238.110535 1.576873 
239.082031 17.934715 
239.118347 34.57267 
241.097443 4.181659 
243.205688 0.290402 
243.225693 0.212189 
243.313446 0.27946 
247.764572 0.32984 
248.079514 11.007479 
251.00116 0.197724 
251.118454 3.214006 
252.970612 0.228325 
253.134216 7.555059 
253.217606 0.309792 
254.106018 0.628617 
255.089706 1.290045 
255.232346 5.255609 
257.10733 0.570993 
258.567505 0.248534 
263.981689 0.188173 
268.307831 0.230259 
268.943115 4.588295 
270.115631 0.611252 
273.102814 0.928334 
273.684662 0.32945 
274.880676 0.546028 
277.218018 0.219457 
282.994324 2.022251 
283.263611 8.657356 
283.841949 0.325827 
283.996094 0.516458 
284.97403 19.946083 
284.990356 0.248492 
285.974121 2.033655 
289.29657 0.273569 
296.119232 0.156457 
298.097595 1.417853 
304.220398 0.250024 
305.131561 0.25363 
310.119324 0.221791 
311.168793 3.224095 
312.113831 5.395391 
312.149963 0.525804 
313.120941 1.092262 
314.130066 0.261102 
315.220825 0.336541 
318.159485 0.456772 
318.650513 0.26869 
324.113556 1.127045 
325.183594 24.610176 
326.129242 0.35269 
326.187134 3.996624 
328.144928 2.648136 
330.715546 0.272624 
333.584869 0.143914 
336.816742 0.274786 
338.130463 0.650618 
339.199585 2.67606 
340.144989 6.364434 
341.139832 0.577032 
342.961578 2.475978 
343.154785 0.149661 
343.962158 0.254195 
346.919525 0.267842 
353.573181 0.286395 
354.161499 0.449582 
357.171631 0.759421 
368.176422 1.054747 
379.192169 0.569334 
379.538757 0.269511 
380.177155 0.960485 
390.993073 1.433123 
391.995819 4.366882 
392.989075 0.549061 
395.688446 0.215551 
401.450928 0.332527 
405.724152 0.222925 
416.979309 1.27406 
418.959229 14.782266 
420.176575 0.322811 
444.762909 0.307597 
445.178284 0.279937 
491.09024 0.27732 
491.244324 0.868884 
499.468109 0.184388 
501.194885 0.246173 
506.135132 3.779545 
507.127991 0.520565 
511.115265 0.225086 
END IONS

