BEGIN IONS
PEPMASS=361.235
CHARGE=1+
COMPOUNDNAME=Aphidicolin
LIBRARYQUALITY=3
SMILES=N/A
INCHIKEY=NOFOAYPPHIUXJR-APNQCZIXSA-N
INCHI=InChI=1S/C20H34O4/c1-17(11-21)15-4-3-13-9-14-10-19(13,7-8-20(14,24)12-22)18(15,2)6-5-16(17)23/h13-16,21-24H,3-12H2,1-2H3/t13-,14+,15-,16+,17-,18-,19-,20-/m0/s1
MSLEVEL=2
SOURCE_INSTRUMENT=N/A-ESI-QFT
FILENAME=library_mgf.mgf
SEQ=*..*
IONMODE=positive
ORGANISM=MONA
NAME=Aphidicolin [M+Na]+
PI=MoNA
DATACOLLECTOR=MoNA:VF-NPL-QEHF004570
PUBMED=N/A
SUBMITUSER=mwang87
TAGS=
SPECTRUMID=CCMSLIB00004695633
SCANS=4570
50.062057 0.084894 
50.075878 0.102906 
50.289505 0.088124 
50.628426 0.074904 
53.002907 0.194089 
53.03941 0.663102 
54.443573 0.098702 
54.455029 0.129452 
54.583378 0.100635 
55.018635 4.248503 
55.055012 19.211325 
56.050236 2.091877 
56.058319 0.34351 
56.231319 0.095001 
57.034298 5.479107 
57.07066 21.84063 
57.182121 0.109854 
57.834183 0.100664 
58.065907 30.646706 
58.073948 0.513014 
58.995728 0.081948 
59.049915 6.803573 
59.061127 4.220895 
59.062675 0.20873 
59.06918 0.567314 
59.226822 0.087948 
59.990997 0.728744 
60.045162 39.458214 
60.056274 0.091694 
60.081528 0.604648 
61.011414 10.384119 
61.029167 0.160275 
61.048378 0.11232 
61.465137 0.101658 
61.655342 0.089427 
62.019226 2.060322 
62.060753 0.727833 
62.982491 0.363635 
62.990612 0.354835 
63.027042 0.670261 
63.345901 0.097324 
63.770229 0.097089 
64.477913 0.095949 
65.039223 0.10669 
66.883179 0.109613 
67.054962 26.009104 
68.058289 1.048388 
69.034225 10.553565 
69.070595 24.266609 
69.205139 0.099456 
69.681175 0.07826 
69.909698 0.090278 
70.02951 0.300229 
70.065834 12.505126 
70.073883 0.67796 
70.705498 0.075556 
71.049843 12.661633 
71.061172 0.093683 
71.06916 0.265521 
71.08625 21.042145 
72.045113 6.246111 
72.047096 0.098048 
72.053261 0.096201 
72.081474 6.621361 
72.089546 0.593714 
73.011383 0.098115 
73.029007 2.57859 
73.065414 2.92862 
73.174263 0.096002 
73.550606 0.094076 
74.024307 0.63328 
74.06076 11.330315 
74.097076 1.215931 
74.285683 0.092289 
74.88163 0.086628 
75.027199 0.098308 
75.044472 0.126244 
76.039963 5.751862 
76.076324 0.361184 
77.006302 0.124374 
79.021851 12.998717 
79.054893 14.982985 
79.828094 0.075924 
80.046692 0.103417 
80.058105 0.629354 
81.017685 0.165447 
81.034142 5.297663 
81.070503 41.225033 
82.065674 1.229066 
82.073784 2.860545 
83.049759 54.493454 
83.052483 0.375082 
83.086159 21.730856 
84.044983 1.388926 
84.05304 2.814217 
84.081383 11.554881 
84.089455 1.36426 
84.831894 0.094826 
85.011162 0.228692 
85.028999 12.236325 
85.040207 3.563381 
85.065392 12.633598 
85.076347 0.129907 
85.084602 0.364687 
85.101776 9.121635 
86.032364 0.216685 
86.060631 6.609765 
86.097008 12.720706 
86.105034 0.145308 
87.001793 0.116579 
87.026917 0.389732 
87.044655 44.049553 
87.047783 0.283906 
87.100182 0.397431 
88.022057 3.153905 
88.039803 1.871492 
88.047958 2.183982 
88.076263 6.349901 
89.060287 19.516363 
89.079483 0.314122 
89.48082 0.107597 
90.948257 0.127974 
91.039322 0.123918 
91.054794 58.91222 
91.057808 3.679168 
91.65033 0.099596 
92.058067 4.547602 
92.061081 0.227952 
92.983238 10.665948 
93.070412 25.124773 
94.065659 0.166185 
94.073662 2.062789 
95.049644 9.365997 
95.060661 0.112887 
95.085999 43.595413 
95.874519 0.09067 
95.952553 0.105251 
96.044777 0.502981 
96.081184 1.003175 
96.089325 3.608527 
97.011078 0.865277 
97.028877 4.539391 
97.065315 11.9981 
97.101677 18.715469 
97.592751 0.089719 
98.060455 2.25538 
98.068626 0.216472 
98.096886 2.041703 
98.10495 0.998227 
98.160034 0.088639 
99.044563 10.324637 
99.080902 22.200977 
99.084229 0.127827 
99.339699 0.081227 
100.039772 1.671107 
100.047333 0.099851 
100.076187 5.871093 
100.084175 0.909726 
100.112473 4.026741 
101.003578 4.133304 
101.023811 0.365477 
101.042282 0.147662 
101.06015 6.806134 
101.071617 0.09331 
101.959198 0.11678 
102.05529 1.859541 
102.091759 5.101534 
103.039268 1.85728 
103.075783 0.220374 
104.071159 0.269928 
104.107346 0.120814 
104.992928 0.095917 
105.03389 1.52425 
105.07029 17.301607 
105.073936 0.288117 
106.073624 0.860515 
106.086632 4.814713 
107.049515 7.34431 
107.070496 0.448448 
107.085938 28.10383 
107.089874 1.565956 
107.289627 0.087318 
108.081062 0.843159 
108.089172 2.490057 
108.97821 0.260536 
109.028687 1.066502 
109.06514 8.525401 
109.10154 34.63134 
109.105766 0.168566 
110.060326 4.614516 
110.068558 0.114642 
110.09668 1.09806 
110.104774 3.294285 
110.93943 3.598483 
111.026741 0.126309 
111.04438 7.073927 
111.080765 12.70629 
111.117126 1.965711 
111.755081 0.109551 
112.037109 1.642215 
112.075966 3.05903 
112.083786 0.145626 
112.112396 1.082493 
113.042427 0.127489 
113.060051 6.479728 
113.071564 0.095716 
113.096436 8.46211 
114.055229 5.247575 
114.09169 1.227718 
114.099457 0.117885 
114.128387 0.112231 
115.039238 1.843701 
115.050613 0.218667 
115.05809 0.166743 
115.075653 3.104556 
115.086273 0.119188 
116.053169 17.156286 
116.070923 10.1577 
116.107262 4.530073 
117.055862 0.485431 
117.066223 0.092935 
117.070198 6.324369 
117.074348 0.326258 
118.04908 0.558733 
118.05809 0.099558 
118.073502 0.241725 
118.086632 2.201999 
118.239044 0.099766 
119.049263 1.190316 
119.085808 75.271576 
120.080963 4.290538 
120.088997 6.627121 
121.028679 13.550186 
121.065041 8.207287 
121.101395 24.680996 
121.106155 0.241106 
121.988373 0.089375 
122.031693 0.103175 
122.060135 2.0031 
122.096672 1.715771 
122.104691 1.852139 
122.93927 0.405129 
122.99334 0.396051 
123.044197 3.096111 
123.080666 13.370146 
123.117058 14.201725 
123.946754 0.095795 
124.039406 1.323562 
124.07576 2.283796 
124.083672 0.292467 
124.112259 0.659777 
124.120193 0.887927 
124.340286 0.084097 
125.059914 6.011245 
125.071091 0.145548 
125.091393 0.129847 
125.096306 22.750406 
126.055054 3.053106 
126.091492 2.641628 
126.099487 1.378429 
126.127815 0.935328 
127.039101 7.53206 
127.075523 2.914775 
127.111961 5.308167 
128.034286 0.136775 
128.042603 0.137895 
128.070679 1.583824 
128.107117 2.198873 
129.018311 2.89874 
129.054688 4.981812 
129.070068 3.347877 
129.091125 0.83148 
130.049881 2.753805 
130.086365 5.303499 
130.122879 0.879102 
130.137985 0.104929 
130.159149 0.265926 
131.049149 0.951246 
131.070374 6.102374 
131.085571 12.019531 
132.088867 0.550661 
132.101883 4.070875 
132.672638 0.108839 
133.064789 4.022807 
133.085999 4.192596 
133.101242 20.275307 
134.060333 0.478352 
134.096603 0.320422 
134.104507 1.890468 
134.846191 0.106059 
134.978958 0.654768 
134.996582 0.342224 
135.044144 1.145688 
135.080521 13.423395 
135.116898 17.136438 
136.061798 5.752425 
136.075638 2.32491 
136.083755 0.407007 
136.112122 3.801278 
136.120178 1.692017 
137.011627 0.214364 
137.023422 0.151942 
137.059784 4.085324 
137.09613 12.465766 
137.132523 13.489171 
138.054962 2.358202 
138.091263 1.008143 
138.099289 0.535924 
138.127731 1.39263 
138.135895 0.927918 
138.988251 2.801715 
139.038986 0.389119 
139.050186 0.249975 
139.075378 5.909859 
139.111786 14.521363 
140.070526 2.326698 
140.106949 1.329327 
140.114975 0.496179 
140.143387 1.541659 
140.95932 0.308299 
141.054596 1.260072 
141.065323 0.201024 
141.090897 3.674363 
141.127487 2.03124 
142.050095 0.834217 
142.086304 0.116322 
142.094009 0.106106 
142.122726 5.53976 
142.179352 0.118514 
142.938797 0.248036 
143.06398 0.370101 
143.070221 2.29476 
143.085571 5.373202 
143.106613 1.080827 
144.029037 1.374285 
144.06546 0.960397 
144.080734 1.302287 
144.101852 0.296048 
144.138306 0.14296 
144.832916 0.10209 
145.049561 4.183069 
145.064697 1.013237 
145.094788 0.12838 
145.101196 16.187466 
146.060074 3.635343 
146.096191 0.159525 
146.10434 0.61603 
147.044083 2.203938 
147.064362 0.142384 
147.080521 6.552299 
147.116898 20.176168 
148.075806 0.886423 
148.112061 61.876537 
148.118988 2.031214 
148.387802 0.119195 
149.059769 6.630339 
149.096176 14.14553 
149.109375 0.104275 
149.115387 5.622057 
149.132477 9.02398 
150.055115 0.899614 
150.062836 0.484128 
150.091568 1.30795 
150.099335 0.6613 
150.127808 19.392277 
150.134583 0.501559 
150.95108 4.528819 
151.039169 0.583204 
151.05748 0.130595 
151.075394 6.175352 
151.086426 0.580265 
151.09697 0.095643 
151.111786 11.154553 
151.131012 0.290809 
151.148087 0.107021 
152.033859 0.113619 
152.070618 1.709498 
152.07724 0.102856 
152.106873 1.188696 
152.114716 0.468785 
152.1436 0.456068 
152.688126 0.086613 
152.951416 0.219029 
152.989227 3.678085 
153.054565 0.958039 
153.065826 0.286301 
153.09111 7.603656 
153.10199 0.777497 
153.127411 6.204063 
154.035217 0.1151 
154.049774 2.503538 
154.086105 1.323823 
154.094299 0.114642 
154.122696 2.36139 
154.130356 0.21159 
154.965271 0.120107 
155.021973 0.097504 
155.070114 1.228915 
155.085449 0.466152 
155.106644 8.413411 
155.889038 0.108585 
156.065277 0.414125 
156.101974 1.130893 
156.109055 0.106989 
156.138351 2.374887 
157.011108 1.397966 
157.061096 0.166332 
157.085953 1.628929 
157.101166 5.647436 
157.122665 0.13095 
158.044662 0.5444 
158.059875 0.147154 
158.081116 0.300165 
158.117691 2.563492 
159.00621 0.096805 
159.080643 3.121 
159.101334 0.403675 
159.11673 10.093051 
160.075684 3.470611 
160.097305 0.099901 
160.112335 0.204838 
160.11998 0.546826 
160.133148 1.398714 
161.059586 0.869484 
161.079651 0.398773 
161.096054 9.421984 
161.132446 7.107098 
162.054764 0.380287 
162.091385 1.304441 
162.099197 0.347257 
162.12764 3.878947 
162.135193 0.316911 
162.951889 0.115167 
163.039078 0.431299 
163.075378 4.824387 
163.11174 10.818813 
163.148087 2.4751 
163.958847 0.255863 
163.967331 0.101974 
164.070374 0.406494 
164.107254 1.235348 
164.11525 0.369707 
164.143478 0.460328 
164.920654 2.947735 
164.966217 0.102014 
165.05455 0.640674 
165.09111 6.533539 
165.097763 0.105503 
165.112137 0.107203 
165.127426 7.355441 
165.938354 0.347853 
166.035828 0.097281 
166.049774 0.403021 
166.086365 1.180292 
166.12265 2.371294 
166.130341 0.26654 
167.070358 1.032371 
167.106705 4.645846 
167.11792 0.482117 
167.142899 0.786633 
167.953949 0.111858 
168.065567 0.794723 
168.101929 2.402961 
168.138382 2.112732 
168.9617 2.512508 
169.085983 1.123036 
169.101166 2.237991 
169.122391 1.739178 
169.28096 0.105207 
170.044952 0.147393 
170.080704 0.265514 
170.117722 2.2008 
170.1539 0.367611 
170.961243 0.299492 
171.063263 0.616128 
171.080673 0.834949 
171.101654 0.963141 
171.116806 4.911067 
172.07579 0.764127 
172.096786 1.187726 
172.115234 0.693668 
172.133224 3.374067 
172.921967 0.482604 
173.060074 0.114877 
173.096268 6.188808 
173.11734 20.135929 
173.132248 5.390095 
174.005386 0.241806 
174.054855 0.614197 
174.091583 0.99737 
174.112625 0.209461 
174.120575 1.010497 
174.127945 0.152221 
174.148972 3.115159 
175.038925 2.910697 
175.075317 1.626237 
175.086838 0.134796 
175.096985 1.255961 
175.111816 11.451344 
175.148163 3.798 
175.667435 0.113917 
175.960449 0.083547 
176.020874 0.138082 
176.070633 1.380633 
176.106979 1.049102 
176.115295 0.60173 
176.143341 0.621318 
176.151642 0.401854 
177.054581 0.973582 
177.090958 4.584021 
177.111664 0.12232 
177.12738 9.234275 
177.163834 0.554042 
178.049759 0.519214 
178.086182 0.304981 
178.122681 1.188265 
178.130722 0.359196 
179.070145 1.076265 
179.081009 0.099675 
179.106796 4.940587 
179.143066 1.726678 
179.572189 0.116348 
179.718277 0.116204 
179.953873 0.626324 
180.000366 0.52226 
180.065582 0.787288 
180.101929 0.704433 
180.138184 0.773435 
180.225189 0.102186 
180.895325 0.133978 
180.961716 0.382837 
181.050156 0.111598 
181.085907 1.401441 
181.101257 0.140869 
181.12236 4.705282 
181.131958 0.121852 
182.044891 0.114909 
182.081085 0.246711 
182.117508 0.728388 
182.154388 0.125607 
182.977081 0.293599 
183.102173 1.194473 
183.116714 2.37351 
183.137863 0.269409 
183.948395 0.465083 
184.076248 0.292223 
184.096558 0.110934 
184.133209 1.734983 
185.08078 0.259936 
185.096268 1.74206 
185.11731 1.141686 
185.132385 3.47556 
186.054901 0.295152 
186.090897 0.155543 
186.127579 0.128398 
186.149445 0.112726 
186.400879 0.129283 
186.878952 0.859745 
186.927689 0.500308 
187.038925 2.061337 
187.075287 2.011748 
187.096725 0.078597 
187.111816 4.987894 
187.132919 1.895685 
187.14801 1.908419 
188.021332 0.478478 
188.070465 0.821029 
188.106979 0.505321 
188.924515 1.069396 
189.005096 0.142855 
189.091095 3.571432 
189.103912 0.114247 
189.112244 5.732276 
189.12735 3.259747 
189.163681 0.960971 
190.049957 5.380443 
190.086182 1.434132 
190.122864 1.708328 
190.158798 0.352049 
191.033768 0.236107 
191.070419 0.700012 
191.089813 1.373647 
191.106812 6.273793 
191.115738 0.154336 
191.143311 1.678951 
191.251343 0.118942 
192.065536 6.361856 
192.089722 0.127157 
192.102051 1.181552 
192.110504 0.302112 
192.138229 1.102343 
192.174759 2.408027 
192.961807 1.639686 
193.050674 0.117399 
193.069672 0.148579 
193.085953 2.607355 
193.122375 9.011206 
193.158661 1.562192 
193.969376 0.138866 
194.08107 0.112689 
194.117432 1.633016 
194.126328 0.181743 
194.154037 0.51288 
195.101593 1.858322 
195.11525 0.119614 
195.138016 2.52437 
196.13324 3.944724 
197.096283 0.597006 
197.117249 0.98313 
197.132019 0.724854 
197.964264 0.235849 
198.091217 0.117206 
198.149048 0.60826 
199.075195 0.28058 
199.095795 0.127653 
199.111908 2.01649 
199.13237 0.144649 
199.14859 1.804744 
200.070023 0.630205 
200.10704 0.498997 
200.164673 0.14308 
201.053009 0.709037 
201.091156 1.032868 
201.111343 0.22353 
201.127319 2.802698 
201.163849 1.294148 
202.086075 1.916661 
202.122299 0.259317 
202.159134 0.508507 
203.034851 0.087728 
203.070343 26.986767 
203.089828 0.423409 
203.106522 2.782197 
203.127945 3.394437 
203.142975 1.778664 
203.179672 0.159582 
203.930466 0.168325 
204.065369 4.196642 
204.07489 1.25492 
204.087799 0.853285 
204.101471 0.890433 
204.138672 0.806691 
204.147186 0.145791 
204.888672 0.314025 
205.049332 0.099304 
205.069412 0.165623 
205.08609 1.299978 
205.105362 0.111755 
205.122238 3.860304 
205.158173 0.15278 
206.081146 0.387544 
206.117493 0.556244 
206.977753 0.175393 
207.101471 1.398971 
207.138031 3.538723 
208.096329 0.144986 
208.133118 1.485358 
208.956192 0.964363 
209.117508 6.203225 
209.128052 0.645111 
209.964386 1.873211 
210.148895 1.368371 
210.972214 1.380569 
210.984711 0.110084 
211.111206 0.270625 
211.132935 4.940171 
211.147598 0.778054 
212.107361 0.103072 
212.127991 1.616547 
212.164276 0.325952 
212.993027 0.346852 
213.05423 0.241819 
213.090897 0.800047 
213.112503 0.413706 
213.127365 0.925133 
213.147903 0.120404 
213.163406 0.890487 
214.122803 0.17852 
214.143753 0.778125 
214.480698 3.756735 
214.493088 3.373992 
214.502441 0.430412 
215.069748 3.175451 
215.089325 4.341151 
215.106415 1.309009 
215.127975 0.340254 
215.143066 1.241095 
215.179367 3.663225 
216.065201 6.260913 
216.101776 0.545453 
217.069107 1.625129 
217.0858 0.929225 
217.096634 0.131238 
217.104385 0.133734 
217.122299 2.035967 
217.158615 1.07273 
217.195053 0.439526 
218.045059 0.25112 
218.070297 0.126215 
218.081268 0.615309 
218.117096 0.683779 
218.153717 0.715486 
219.064789 0.132345 
219.101654 0.537518 
219.137756 2.436949 
219.174347 7.658939 
219.942917 0.379812 
220.024841 0.099414 
220.060333 0.844381 
220.096313 0.276903 
220.132675 0.970144 
220.169113 0.162453 
220.179123 0.233133 
221.116699 1.399207 
221.153488 3.458771 
221.165024 0.135548 
221.928299 2.110741 
222.148483 0.426377 
222.898743 15.1266 
222.910614 0.109294 
223.132935 9.577059 
223.144608 0.085071 
223.980118 0.537289 
224.025909 0.105969 
224.092255 0.13709 
224.105942 0.121714 
224.137039 0.25626 
225.0103 2.622342 
225.091965 0.127112 
225.125687 0.109157 
225.148834 0.640637 
225.163559 0.696767 
226.085632 0.111164 
226.144089 0.617546 
226.216461 6.687781 
226.966553 0.879112 
227.070221 5.188019 
227.10611 0.52556 
227.127762 0.442717 
227.140579 0.874276 
227.179413 1.210913 
227.219986 0.894843 
228.01889 0.388345 
228.138275 0.224057 
228.159271 0.241064 
229.085968 1.404916 
229.122391 1.051783 
229.143417 1.360275 
229.158401 0.713551 
229.194931 0.15647 
229.896698 0.119204 
230.044449 0.13865 
230.080795 2.242251 
230.11705 0.815948 
231.064636 0.141247 
231.075455 0.30534 
231.101318 0.690262 
231.137863 0.933618 
231.174133 0.317966 
231.970474 0.475817 
232.06044 0.263532 
232.096786 0.33641 
232.133102 0.60839 
233.091217 0.129541 
233.116821 0.648297 
233.153519 1.539302 
233.189926 2.335574 
234.075653 0.48493 
234.112427 0.50596 
234.148788 0.845751 
234.183701 0.131054 
235.132278 0.832692 
235.168167 0.392982 
236.055389 1.255069 
236.079941 1.325362 
236.0923 0.374814 
236.12793 0.129806 
236.163193 0.097473 
236.914444 0.144969 
237.089371 0.104999 
237.148026 0.411971 
237.163788 0.274849 
238.143417 0.160464 
238.21666 0.248592 
239.093719 1.464789 
239.10582 0.15983 
239.143448 0.281068 
239.179657 0.873341 
239.97908 0.223887 
240.098419 0.12257 
240.15947 0.284064 
240.231979 1.267449 
240.268677 7.36398 
240.90921 36.443691 
241.121857 0.725966 
241.15773 0.171417 
241.195114 0.129481 
241.272034 0.537996 
241.910797 1.539419 
241.954575 1.809499 
242.080811 1.37347 
242.116196 0.383316 
242.285019 0.359948 
243.020599 0.351885 
243.065231 4.488426 
243.100052 0.262251 
243.137161 0.288312 
243.159286 13.110189 
243.172989 1.784294 
244.095184 0.304691 
244.132812 0.945586 
245.080795 6.212175 
245.115097 3.174965 
245.153809 0.542528 
245.189682 0.5727 
246.084763 0.481427 
246.112595 0.302183 
246.148697 1.286904 
247.057541 0.108865 
247.107391 0.165622 
247.131393 1.716138 
247.144028 0.118399 
247.168839 1.039127 
247.906235 0.198465 
248.055435 11.298896 
248.069138 0.175108 
248.091553 0.340394 
248.127686 0.646846 
248.164505 1.254709 
249.058609 0.551455 
249.110794 0.120799 
249.184326 0.577778 
250.1436 0.263475 
250.179825 0.384395 
251.046631 2.981973 
251.200409 2.559329 
252.160461 0.194856 
252.195419 0.149238 
253.133469 0.785187 
254.080566 0.53149 
254.137466 0.589587 
254.153778 0.240793 
254.924881 2.038874 
255.101074 0.119473 
255.137756 0.123788 
255.173904 0.431715 
255.210663 0.126652 
255.232025 3.948376 
256.132629 0.229148 
256.22702 1.56899 
257.080292 0.188158 
257.117157 0.866905 
257.152313 0.418493 
257.189758 2.019467 
257.228149 0.135999 
257.867035 0.151766 
257.989471 0.27581 
258.148682 1.015191 
258.184509 0.305202 
258.808411 0.505643 
258.874725 0.112964 
259.115417 4.165768 
259.129303 0.131845 
259.168518 0.280354 
259.205627 0.806542 
259.816803 0.284833 
260.091248 0.460062 
260.127655 0.993089 
260.164215 0.642015 
260.824463 0.139348 
261.075867 2.827109 
261.112366 0.514377 
261.131622 1.042113 
261.146179 0.13246 
261.184784 2.016775 
262.143433 0.578644 
263.106171 0.134105 
263.126221 0.23096 
263.199829 0.270128 
264.123108 0.385157 
264.13797 0.458802 
265.051849 0.190463 
265.121155 0.11853 
266.94458 0.168567 
267.138306 0.132255 
267.211517 0.270188 
268.095917 0.13448 
268.132874 0.378522 
268.22699 0.131495 
268.299835 35.023861 
268.90332 0.174873 
268.959839 3.198847 
269.105042 0.133935 
269.189484 0.118105 
269.303284 6.74754 
270.11322 0.149941 
270.14859 0.275771 
270.170563 0.131234 
270.206329 2.320858 
270.249817 0.101189 
271.083588 3.450544 
271.151611 0.092487 
271.168884 1.019631 
272.089996 0.339724 
272.128082 0.254014 
272.149902 0.093162 
272.164093 0.176766 
273.111115 0.134764 
273.159363 0.100414 
273.18396 0.780956 
274.106293 0.14183 
274.144196 0.110891 
274.180054 0.527952 
274.215363 0.125186 
275.163239 0.12692 
275.2005 3.894722 
276.122406 0.258948 
276.196014 2.084173 
277.216248 3.243206 
278.211426 1.451075 
279.137299 0.106843 
279.195557 1.873491 
280.133667 0.982804 
280.153748 0.37905 
281.079865 0.113611 
281.116669 0.175868 
281.911285 0.221201 
282.08078 0.396518 
282.112854 1.380418 
282.13681 1.36835 
282.150269 0.844562 
282.994049 1.04765 
283.04715 2.523541 
283.064362 1.004187 
283.08316 9.343511 
283.207672 0.114936 
284.090942 1.376873 
284.127594 0.14842 
284.152252 0.481443 
285.030304 0.169748 
285.184113 0.198066 
285.814972 0.154093 
285.907715 0.38115 
286.14386 0.898464 
286.180267 3.567974 
286.894714 0.483603 
286.914581 0.653473 
287.042053 0.329456 
288.195862 2.160237 
289.104919 1.263883 
289.179626 1.815673 
289.2164 0.227725 
290.174347 0.474078 
291.121399 0.189822 
291.174377 0.100678 
291.195312 3.393175 
292.134521 0.145603 
293.211151 1.880004 
295.209839 0.710287 
295.834076 0.196354 
296.128052 47.583858 
296.164307 0.471574 
297.132019 10.313964 
297.205597 0.151706 
298.070221 0.117153 
298.108734 0.418752 
298.144379 7.65451 
298.180206 0.260504 
299.091461 0.702161 
299.146667 0.464369 
300.063782 0.475822 
300.126007 0.877517 
300.146698 15.454634 
300.196136 1.789893 
300.232361 0.332339 
300.867432 0.19632 
300.930969 2.173329 
301.057556 0.568691 
301.108124 0.36851 
301.151764 1.723219 
301.826324 4.347227 
301.929138 0.182744 
301.957672 5.186186 
302.065857 0.583573 
302.10437 2.371613 
302.124023 0.166749 
302.138184 0.306681 
302.160065 0.159723 
302.175995 0.73466 
302.211365 2.963925 
302.284332 0.123755 
302.910309 0.685167 
302.960052 0.136966 
303.141205 0.277648 
305.15686 13.179746 
306.206573 1.300861 
307.109558 0.150665 
307.189697 0.161108 
307.226715 0.105346 
308.128448 0.163477 
308.936188 0.17172 
309.160309 0.124928 
309.186096 0.12868 
310.143829 2.199272 
310.162598 0.254069 
310.237183 0.723923 
310.823425 1.505225 
310.842529 0.335101 
311.830627 1.071935 
312.838562 7.223606 
313.197906 1.066101 
314.17514 3.192158 
314.200348 0.221916 
315.121674 0.110276 
315.177612 0.13014 
315.2435 5.553364 
315.262817 0.149734 
316.154144 2.271127 
316.190338 1.317623 
316.226685 1.078693 
316.245972 0.436436 
317.187531 0.248157 
317.820465 0.403077 
317.840942 1.434453 
318.138245 0.117221 
318.158295 7.220953 
318.206818 0.309246 
318.24234 0.231318 
318.827484 3.657063 
318.84668 0.327513 
318.941589 0.158536 
319.136688 0.134149 
319.161346 0.388646 
319.273773 0.30235 
319.836243 96.448982 
320.837708 10.10101 
321.83844 0.59685 
323.178009 0.101825 
323.831329 0.108442 
324.123016 3.720072 
324.179443 0.267282 
324.21698 0.151419 
324.253113 0.173188 
325.155853 0.717543 
325.217133 0.223112 
325.830566 0.372135 
326.138916 0.851656 
326.175262 0.483897 
326.211487 1.887382 
327.170685 4.075589 
327.194031 0.243086 
327.825531 8.340187 
328.117584 0.752643 
328.172852 5.536238 
328.833832 12.208858 
329.150391 4.884066 
329.173004 1.017883 
329.193207 6.548416 
329.226257 0.100776 
329.838715 1.004648 
330.153442 1.986844 
330.171722 1.205327 
330.206299 3.473647 
330.242615 1.038103 
330.278381 0.269381 
331.134827 0.421071 
331.16568 0.093792 
331.188385 1.653772 
331.2388 0.506683 
332.220062 0.126932 
333.217438 0.404664 
333.815796 5.843801 
333.852051 3.027125 
334.843109 0.542234 
335.828278 0.140026 
335.849152 1.333565 
336.838776 86.238464 
337.82019 0.084197 
337.846588 82.300613 
338.848358 8.708056 
339.84848 0.646651 
341.18808 0.786518 
341.360382 6.598991 
342.132477 1.056693 
342.169861 2.962576 
342.207153 4.790264 
342.243164 1.706144 
342.363434 0.688662 
342.851929 0.110961 
343.167236 1.171308 
343.203308 3.44771 
343.239868 0.408444 
344.075287 0.101474 
344.148804 0.909927 
344.185944 4.606537 
344.221832 18.06897 
344.258698 4.125806 
344.294647 1.526697 
344.332275 0.181106 
344.829102 3.070088 
344.976013 1.277433 
345.182404 0.338249 
345.205444 0.138608 
345.227753 6.109894 
345.253235 0.980122 
345.291168 1.257673 
345.834503 0.161879 
345.976349 13.175359 
346.107086 0.723445 
346.201965 0.247448 
346.973877 8.659532 
347.115051 2.054221 
347.973938 1.022625 
350.854858 1.11443 
350.946808 2.196692 
351.825897 5.37982 
351.862518 5.51272 
351.948059 0.161184 
352.831207 0.104245 
353.841431 1.726264 
354.849274 25.753632 
355.851227 2.589375 
359.198425 15.606674 
359.23764 6.813726 
359.26825 2.451887 
359.307373 0.253838 
359.371002 93.53624 
359.846344 0.890178 
360.028717 0.745017 
360.113312 16.749825 
360.141968 13.814578 
360.178162 1.246883 
360.199738 13.531759 
360.219238 13.531449 
360.253571 100.0 
360.289764 5.801939 
360.325745 6.023912 
360.36087 79.447052 
360.838654 97.34906 
361.025604 0.349435 
361.116455 4.523324 
361.14505 11.367021 
361.178284 2.798829 
361.197968 1.383691 
361.232239 44.157143 
361.251801 47.246189 
361.288147 1.78825 
361.320618 8.800039 
361.364777 23.462931 
361.840515 12.794309 
362.068756 1.947377 
362.101257 1.19515 
362.137115 4.823898 
362.157532 2.390793 
362.176117 1.774357 
362.197144 8.131086 
362.233124 92.29454 
362.268951 38.867207 
362.303986 14.00989 
362.34201 1.636864 
362.371765 2.433847 
362.840912 1.137474 
363.097809 8.789943 
363.161255 95.132065 
363.21521 10.154316 
363.235413 12.844277 
363.265411 23.953259 
363.303253 1.986516 
367.839752 0.34211 
368.841461 0.221007 
368.865448 1.924466 
369.836304 64.566895 
370.838196 6.744251 
371.745361 0.115335 
371.839508 0.706139 
378.849182 43.215836 
379.244537 0.127647 
379.851349 5.699636 
380.852173 0.224116 
383.851715 4.028781 
385.851105 0.148301 
386.853821 0.160214 
387.846832 39.580975 
388.848816 4.081486 
389.850647 0.187526 
END IONS

