BEGIN IONS
TITLE=Scan Number: 3458
PEPMASS=450.32199
CHARGE=0+
COMPOUNDNAME=Lovatatin
LIBRARYQUALITY=3
SMILES=O=C(O[C@@H]1[C@H]3C(=C/[C@H](C)C1)\C=C/[C@@H]([C@@H]3CC[C@H]2OC(=O)C[C@H](O)C2)C)[C@@H](C)CC
INCHIKEY=PCZOHLXUXFIOCF-BXMDZJJMSA-N
INCHI=
MSLEVEL=2
SOURCE_INSTRUMENT=LC-ESI-qTof
FILENAME=f.lfnothias/1904_statins_standards/Mevinolin_1uL.mzML;
SEQ=*..*
NOTES=
IONMODE=Positive
ORGANISM=GNPS-LIBRARY
NAME=Lovatatin  M+H
SPECTRUMID=CCMSLIB00005435663
ACTIVATION=CID
INSTRUMENT=ion trap
SCANS=3458
76.116844 1350.618164 
79.054863 5539.54248 
81.070396 3839.136719 
93.070564 1632.565552 
95.085602 1421.794556 
97.065277 2006.997803 
105.070503 1879.954346 
107.085823 3499.168701 
119.086166 2373.54248 
125.060753 3125.243896 
131.085632 3710.015137 
133.101166 2228.149414 
143.070633 2418.637451 
143.085785 8152.074707 
144.090118 1713.570312 
145.101913 5707.476562 
147.118286 1476.084595 
149.808594 1562.648315 
155.085785 1691.489624 
157.101913 4244.939941 
159.11734 6989.48584 
169.101959 6296.617676 
171.117447 4956.995605 
173.132782 25482.066406 
173.145401 1728.534546 
174.137344 1855.7854 
183.117508 2667.096924 
187.783295 1638.600342 
197.133942 2242.945068 
199.148453 39225.808594 
199.165817 1991.19043 
200.152039 5366.528809 
201.164795 8623.167969 
207.11763 2611.51709 
208.07692 1523.413452 
211.150314 1886.406982 
223.149231 5752.312012 
225.164108 26748.726562 
226.166977 1559.046387 
227.239212 1392.372559 
229.122726 1605.9552 
239.179398 6500.842773 
243.174591 18874.669922 
244.178177 1698.937866 
249.165466 5989.449219 
267.174835 11900.325195 
285.185608 18794.121094 
286.187256 1812.817749 
287.195862 1800.81311 
303.197388 6482.908203 
381.608612 1686.389526 
416.016052 1529.681885 
450.321411 3021.413086 
END IONS

