BEGIN IONS
PEPMASS=873.499
CHARGE=1+
COMPOUNDNAME=ABAMECTIN
LIBRARYQUALITY=3
SMILES=N/A
INCHIKEY=RRZXIRBKKLTSOM-XPNPUAGNSA-N
INCHI=InChI=1S/C48H72O14/c1-11-25(2)43-28(5)17-18-47(62-43)23-34-20-33(61-47)16-15-27(4)42(26(3)13-12-14-32-24-55-45-40(49)29(6)19-35(46(51)58-34)48(32,45)52)59-39-22-37(54-10)44(31(8)57-39)60-38-21-36(53-9)41(50)30(7)56-38/h12-15,17-19,25-26,28,30-31,33-45,49-50,52H,11,16,20-24H2,1-10H3/b13-12+,27-15+,32-14+/t25-,26-,28-,30-,31-,33+,34-,35-,36-,37-,38-,39-,40+,41-,42-,43+,44-,45+,47+,48+/m0/s1
MSLEVEL=2
SOURCE_INSTRUMENT=N/A-ESI-QFT
FILENAME=library_mgf.mgf
SEQ=*..*
IONMODE=positive
ORGANISM=MONA
NAME=ABAMECTIN [M+H]+
PI=MoNA
DATACOLLECTOR=MoNA:VF-NPL-QEHF028038
PUBMED=N/A
SUBMITUSER=mwang87
TAGS=
SPECTRUMID=CCMSLIB00004721619
SCANS=28038
61.028728 0.104322 
61.044136 0.079749 
61.179905 0.051345 
61.491417 0.077207 
61.749809 0.031476 
62.713249 0.023916 
63.12693 0.032503 
64.073868 0.044259 
64.15313 0.059539 
64.329826 0.02347 
64.538994 0.066323 
65.038666 6.388069 
65.375153 0.026046 
65.692688 0.039127 
65.789818 0.071771 
65.829582 0.043328 
66.914139 0.025494 
67.054298 59.363312 
67.666611 0.046312 
68.051933 0.036094 
68.05764 3.211362 
68.47142 0.044675 
68.561569 0.049718 
68.797531 0.053345 
68.997177 0.2515 
69.033524 100.0 
69.035744 1.061266 
69.069916 7.702171 
69.082977 0.02349 
69.111282 0.063658 
69.53302 0.049209 
70.036873 3.706987 
70.065048 0.03394 
70.073547 0.051799 
71.012718 0.187639 
71.049164 15.325547 
71.085541 0.05511 
71.226433 0.037381 
71.409164 0.023182 
71.705261 0.059555 
71.985695 0.042065 
72.052277 0.051556 
73.046814 0.100159 
73.049133 0.045489 
73.062569 0.078998 
73.064774 12.022242 
73.138634 0.06557 
73.866119 0.059611 
73.943527 0.054148 
75.044205 0.147795 
75.117691 0.087311 
75.32402 0.05862 
75.506523 0.071142 
75.868279 0.053249 
77.03846 0.029615 
77.556458 0.062191 
77.752342 0.070944 
77.768478 0.044493 
79.051758 0.147841 
79.054199 22.8176 
79.789108 0.059149 
80.057541 0.481963 
81.033478 1.035875 
81.067368 0.39021 
81.069855 36.064728 
81.265259 0.092553 
82.073112 1.766857 
82.428642 0.026893 
83.00264 0.028232 
83.049088 6.223726 
83.085449 1.967899 
83.128967 0.027421 
84.052658 0.07857 
84.919983 0.054506 
85.028374 8.085736 
85.064751 10.254143 
85.101692 0.05411 
85.382332 0.04997 
85.401405 0.074153 
85.85482 0.035811 
86.664139 0.034776 
87.044022 16.48012 
88.047394 0.065342 
89.059601 0.060158 
89.536766 0.035249 
89.755119 0.031371 
90.760452 0.035182 
91.054192 14.293625 
91.057274 1.946151 
91.278389 0.059782 
91.674789 0.057481 
92.057434 0.255504 
92.181313 0.068075 
93.069824 12.57485 
94.04129 0.0859 
94.073227 0.172708 
94.669075 0.04562 
95.049095 61.634968 
95.065041 0.085493 
95.085472 8.714732 
96.052399 3.444197 
96.088776 0.05591 
96.820869 0.052446 
97.028389 0.128195 
97.064781 9.594566 
98.071465 0.037235 
99.080414 0.585369 
99.202019 0.034967 
99.473183 0.05167 
100.964783 0.036895 
101.059677 3.12124 
102.215965 0.048881 
103.054207 0.743102 
105.04464 1.191042 
105.069862 14.659706 
106.073097 0.473089 
107.049065 4.154273 
107.085442 6.382098 
107.664124 0.02914 
108.18663 0.071735 
108.542206 0.075162 
108.975258 0.058624 
109.06472 9.09259 
109.101128 9.595274 
110.068214 0.074244 
110.073784 0.048927 
111.0439 4.778243 
111.0802 0.025326 
111.955231 0.046257 
113.059601 15.126494 
113.284027 0.031826 
114.062874 0.305318 
114.785362 0.046353 
115.054138 1.526386 
115.30822 0.059515 
116.061867 0.169326 
116.088211 0.057413 
117.069794 4.60898 
118.106323 0.087833 
118.291122 0.071315 
119.049156 0.56773 
119.060272 0.16837 
119.085541 6.943701 
119.238304 0.071583 
119.561935 0.051186 
120.088852 0.063796 
121.064728 2.778488 
121.101089 1.864348 
121.463203 0.0612 
123.043961 0.383979 
123.080269 1.732701 
123.116768 9.005646 
124.120148 0.566614 
127.075279 2.47524 
128.061905 4.20043 
129.069763 4.096034 
130.072464 0.079034 
130.077667 0.892656 
130.591141 0.049334 
131.085358 4.970038 
131.514252 0.057963 
131.747025 0.046457 
133.064682 1.081005 
133.101013 1.731279 
135.043854 1.144775 
135.080261 0.453669 
136.697144 0.021495 
137.060196 0.061188 
137.095993 0.050976 
137.294754 0.04801 
140.948837 0.069217 
141.069656 1.996656 
141.928223 0.048984 
142.077621 2.498228 
142.764847 0.061216 
143.08548 4.658106 
143.091476 0.072022 
144.093643 0.1127 
145.064621 3.017531 
145.086243 0.031232 
145.100952 4.237517 
145.276672 0.068355 
145.73819 0.063173 
146.259598 0.031924 
147.080307 0.354969 
147.116867 0.068613 
147.784805 0.064977 
149.05896 0.051546 
149.635895 0.024577 
151.111588 0.367485 
151.270889 0.06323 
152.061813 0.123273 
153.05455 0.097048 
153.069626 0.902203 
154.077515 1.469296 
154.324326 0.055421 
155.085403 1.342918 
156.093307 1.319886 
156.114273 0.023628 
156.540924 0.028457 
156.733002 0.08302 
157.064758 0.110549 
157.101105 0.522926 
157.20285 0.040144 
157.823593 0.080733 
158.072571 0.587344 
158.097549 0.053503 
158.390869 0.052375 
158.55455 0.026593 
159.080215 0.956906 
159.116608 0.738588 
159.29866 0.07331 
161.059631 0.199777 
162.800217 0.064962 
163.284225 0.034085 
165.069763 0.85437 
165.385376 0.06905 
166.003189 0.025727 
166.077621 0.625206 
166.171112 0.053743 
167.085602 0.244399 
168.093094 0.057791 
169.064224 0.135515 
169.100967 0.830835 
171.0802 0.177297 
171.116821 0.288135 
173.095871 0.301782 
176.440689 0.083658 
178.077316 0.183802 
178.484543 0.077149 
179.085342 0.356211 
180.066879 0.065858 
181.06485 0.039927 
181.100113 0.052176 
182.072525 0.712566 
182.964478 0.04715 
183.080551 0.106978 
184.088654 0.111247 
184.935562 0.056524 
185.095917 0.141597 
186.496994 0.052835 
186.812119 0.024974 
189.142426 0.028802 
190.933273 0.036688 
193.917007 0.051513 
195.080765 0.034045 
195.115936 0.079149 
196.193237 0.07552 
197.095688 0.139034 
199.11174 0.140415 
206.108887 0.05326 
206.528885 0.044696 
206.868713 0.076506 
207.832443 0.0329 
210.90892 0.057927 
211.075409 0.02321 
213.649612 0.060124 
216.708603 0.023075 
217.101776 0.03526 
217.181732 0.059793 
217.946976 0.047466 
219.757462 0.669455 
219.773819 0.169499 
219.784561 0.098681 
219.798721 0.075722 
221.095749 0.062008 
222.897522 0.0492 
223.112091 0.034348 
225.042603 0.02647 
227.336884 0.045288 
229.032379 0.044396 
231.664261 0.083978 
231.855042 0.025991 
233.760071 0.051085 
234.225876 0.045969 
237.02388 0.070369 
240.909714 0.217495 
245.891891 0.031645 
246.776077 0.041769 
250.523438 0.063713 
255.905899 0.059391 
257.469116 0.024823 
259.326019 0.028205 
260.215637 0.068154 
261.401642 0.075609 
261.685516 0.067142 
265.290802 0.065177 
267.000519 0.025546 
269.224884 0.030737 
269.580627 0.074067 
284.160553 0.079146 
284.185455 0.039285 
293.26239 0.070921 
295.678497 0.026456 
303.118195 0.048047 
305.045563 0.049782 
308.301819 0.082472 
309.036072 0.054303 
311.240417 0.087205 
311.96637 0.048081 
320.760651 0.051728 
333.336151 0.032668 
333.653961 0.03365 
333.977203 0.033889 
338.40152 0.046573 
343.68158 0.0262 
364.29541 0.050543 
364.89856 0.06252 
364.98642 0.026483 
373.928558 0.087212 
374.968658 0.051384 
385.702209 0.026212 
392.155945 0.080424 
403.730225 0.025978 
408.809723 0.027629 
416.439941 0.025725 
423.163147 0.081369 
433.208588 0.024011 
435.171661 0.068418 
438.603577 0.064493 
444.494965 0.079878 
447.345612 1.168584 
450.498901 0.055202 
451.713165 0.032562 
458.731354 0.052353 
468.720367 0.028004 
483.198517 0.075837 
484.732513 0.041301 
496.085114 0.053251 
503.437378 0.065917 
507.697662 0.031109 
516.850708 0.049685 
520.573303 0.041099 
529.096619 0.066133 
544.162842 0.057994 
583.451538 0.034185 
588.591125 0.033598 
601.898865 0.063963 
605.107727 0.05189 
645.274902 0.090703 
647.022461 0.056549 
674.051147 0.049473 
685.874939 0.053548 
687.640686 0.05341 
688.69397 0.074787 
716.716797 0.064671 
737.513855 0.066375 
741.951721 0.028084 
771.736572 0.086675 
779.882935 0.028435 
797.553223 0.037721 
809.159546 0.075353 
859.54126 0.089464 
866.998779 0.053174 
873.783447 0.082236 
886.430725 0.060661 
886.573242 0.030255 
889.284912 0.051245 
904.844849 0.06598 
END IONS

