BEGIN IONS
PEPMASS=298.201
CHARGE=1+
COMPOUNDNAME=(1R,2E,7R,10E,12S,13S,15R)-12,15-dihydroxy-7-methyl-8-oxabicyclo[11.3.0]hexadeca-2,10-dien-9-one
LIBRARYQUALITY=3
SMILES=N/A
INCHIKEY=KQNZDYYTLMIZCT-SWGFJCPHSA-N
INCHI=InChI=1S/C16H24O4/c1-11-5-3-2-4-6-12-9-13(17)10-14(12)15(18)7-8-16(19)20-11/h4,6-8,11-15,17-18H,2-3,5,9-10H2,1H3/b6-4+,8-7+/t11-,12+,13-,14+,15+/m1/s1
MSLEVEL=2
SOURCE_INSTRUMENT=N/A-ESI-QFT
FILENAME=library_mgf.mgf
SEQ=*..*
IONMODE=positive
ORGANISM=MONA
NAME=(1R,2E,7R,10E,12S,13S,15R)-12,15-dihydroxy-7-methyl-8-oxabicyclo[11.3.0]hexadeca-2,10-dien-9-one [M+NH4]+
PI=MoNA
DATACOLLECTOR=MoNA:VF-NPL-QEHF022879
PUBMED=N/A
SUBMITUSER=mwang87
TAGS=
SPECTRUMID=CCMSLIB00004713942
SCANS=22879
51.325111 0.003805 
51.724377 0.009811 
51.940399 0.008181 
54.271008 0.01053 
54.328922 0.010455 
55.018131 0.017568 
55.05455 0.472359 
55.071281 0.006328 
55.316074 0.006477 
55.532093 0.00767 
55.859493 0.008838 
56.049809 0.07664 
56.955872 0.01064 
56.965107 0.064508 
57.033806 0.162791 
57.070164 1.472137 
57.535484 0.003794 
58.065422 0.331491 
58.07354 0.038561 
58.908566 0.010003 
59.049408 0.495802 
59.885784 0.010176 
59.990486 0.048899 
59.99947 0.011348 
60.044662 0.038704 
60.052818 0.010378 
60.081028 0.022631 
60.172195 0.007888 
61.010899 1.568172 
61.039825 0.008302 
61.640751 0.010499 
62.017265 0.009618 
62.018715 0.404164 
62.050926 0.006 
62.060326 0.030504 
62.392876 0.008411 
62.712337 0.009713 
62.981945 0.066393 
63.006744 0.011934 
64.025917 0.00443 
65.089951 0.007377 
66.612816 0.010096 
67.05439 1.089582 
67.435707 0.007207 
68.057747 0.006368 
69.033623 0.115914 
69.069962 0.828872 
69.351601 0.009887 
70.065247 0.247281 
71.04924 0.245989 
71.085602 0.937736 
71.239578 0.010323 
71.413338 0.007459 
72.044441 0.037634 
72.080894 0.227082 
72.14859 0.007999 
72.248917 0.010743 
72.380165 0.004532 
72.788918 0.011619 
72.937218 0.043778 
73.028465 0.074486 
73.046928 0.04626 
73.064827 0.311324 
74.060074 0.042714 
74.096466 3.719994 
74.675194 0.004926 
74.711212 0.013584 
75.099785 0.075034 
76.039352 0.011031 
79.021248 0.935394 
79.054268 0.433717 
79.136787 0.003645 
79.739845 0.00434 
80.0495 0.040626 
80.621338 0.003611 
81.018578 0.296812 
81.033607 0.086887 
81.069923 1.896526 
82.065186 0.036157 
82.073296 0.06887 
83.021591 0.021785 
83.049133 0.235492 
83.085503 0.777903 
83.113663 0.009539 
83.634666 0.007522 
83.978668 0.005032 
84.044533 0.055187 
84.080856 0.198257 
84.842941 0.004562 
85.028481 0.063547 
85.064857 0.332542 
85.101204 0.475513 
85.265808 0.009552 
85.440811 0.009687 
85.639565 0.003491 
86.060135 0.033761 
86.096397 0.060839 
86.532768 0.00961 
86.984528 0.009063 
87.044121 3.104889 
88.039352 1.678739 
88.047462 0.054189 
88.075691 0.033122 
88.404602 0.005178 
89.059746 31.596478 
89.682846 0.003914 
89.963799 0.06904 
90.063164 0.040554 
90.947647 0.069676 
91.054314 1.471744 
91.057388 0.434772 
91.075417 0.057424 
92.057587 0.094884 
93.069931 0.934107 
93.188148 0.005184 
94.026421 0.139406 
94.073311 0.021708 
95.049149 0.210611 
95.085541 1.844302 
96.088806 0.084375 
97.064819 0.239219 
97.101227 0.507465 
98.060043 0.048497 
98.096542 0.024295 
98.975441 0.006172 
98.984314 0.025469 
99.043884 0.114613 
99.080498 0.424657 
99.084312 0.009114 
100.075745 0.096798 
100.95829 0.01026 
101.003212 0.136655 
101.023285 0.062954 
101.059822 0.127026 
102.054993 0.069608 
102.38829 0.010859 
102.844688 0.004833 
103.035583 0.022953 
103.03904 1.625617 
103.054268 0.026407 
103.075386 0.249233 
103.256836 0.01049 
104.042274 0.012257 
105.069908 0.650125 
106.436111 0.006555 
106.963882 0.025872 
106.998413 0.042485 
107.007668 0.011391 
107.049126 0.339546 
107.070305 0.768801 
107.085609 0.737159 
108.052544 0.010321 
108.080833 0.009164 
108.089355 0.010048 
108.194305 0.009424 
108.356552 0.006569 
108.481819 0.008089 
108.93174 0.003639 
108.948456 0.011379 
108.958366 0.011247 
108.977646 0.028138 
109.064835 0.16595 
109.101234 0.854474 
109.381248 0.006467 
110.060211 0.021016 
110.104591 0.010173 
111.044174 0.081923 
111.080521 0.180802 
111.096718 0.011602 
111.116783 0.096201 
112.075691 0.065221 
113.059738 0.222202 
113.096085 0.074561 
114.054924 0.02696 
114.091354 0.011684 
114.401764 0.005047 
115.075325 0.01653 
116.005821 0.008902 
116.052887 0.248944 
116.541656 0.008812 
116.963448 0.339177 
116.985085 0.033488 
117.055923 0.017777 
117.069931 0.45512 
117.091408 0.00652 
118.049629 0.141726 
119.049072 0.028079 
119.070473 0.009362 
119.085609 0.611473 
119.74736 0.009654 
119.956619 0.042833 
120.080971 0.010808 
120.089172 0.004582 
121.028343 0.055314 
121.064857 2.512299 
121.101219 0.667118 
121.280807 0.008761 
121.705711 0.005489 
121.72818 0.008493 
122.068222 0.022504 
122.104759 0.011242 
122.939339 0.111401 
123.044128 0.054087 
123.08046 0.132529 
123.116852 0.41928 
124.955162 0.024543 
125.0597 0.016545 
125.096115 0.121961 
126.091454 0.017772 
126.112862 0.009968 
127.111755 0.020253 
128.070602 0.260763 
128.963608 0.007902 
129.01265 0.018921 
129.054474 0.010253 
129.069992 0.20278 
130.086227 0.012217 
130.506485 0.056702 
131.049484 0.010383 
131.070328 0.625348 
131.085587 0.409786 
131.241013 0.003645 
131.271957 0.011157 
132.088684 0.023731 
132.958267 0.106076 
133.064865 0.395612 
133.085907 12.646401 
133.101135 0.706975 
133.714096 0.009237 
133.959579 0.019603 
134.096375 0.043109 
134.957565 0.079413 
134.973892 0.347342 
134.978882 0.180819 
134.996643 0.023304 
135.002747 0.011082 
135.080429 0.360954 
135.116776 0.387501 
135.934937 0.00936 
136.075699 0.120129 
136.111938 0.009503 
136.119553 0.003644 
136.974411 0.749345 
137.011795 0.028772 
137.023422 0.015678 
137.059769 0.439437 
137.09613 0.103386 
137.132477 0.072125 
137.954346 0.006508 
137.967163 0.013907 
138.012497 0.00431 
138.018234 0.371829 
138.0914 0.098222 
138.099152 0.010693 
138.519135 0.017669 
138.971558 0.203004 
138.988556 0.015152 
139.075317 0.037583 
139.111801 0.025386 
140.070206 0.01437 
141.05455 0.0536 
141.127258 0.047696 
142.122849 0.009443 
143.085571 0.232349 
144.089035 0.010689 
144.958527 0.015102 
145.065063 0.021203 
145.101273 0.298142 
145.728912 0.00375 
145.966537 0.009997 
146.097168 0.008129 
146.415405 0.010869 
146.899918 0.008777 
146.974823 0.099808 
147.044037 0.057659 
147.065231 0.006527 
147.080505 0.136132 
147.116791 0.224215 
147.974792 0.202126 
148.076447 0.014357 
148.11203 0.126767 
148.955795 2.397058 
148.971695 1.313413 
149.010956 0.009556 
149.02327 0.055418 
149.059845 0.143364 
149.096237 0.085198 
149.132553 0.159778 
149.808685 0.005178 
149.954254 5.132155 
150.091248 0.027614 
150.127533 0.011263 
150.951111 1.385405 
150.968994 0.009917 
151.075439 0.151876 
151.096512 0.408281 
151.111603 0.046579 
151.147949 0.009845 
151.161606 0.006633 
151.642944 0.008247 
152.951508 0.054698 
152.967468 0.094907 
152.989273 0.344837 
153.005295 0.008696 
153.090988 0.008452 
153.127304 0.033762 
153.959427 0.06122 
154.086334 0.023148 
154.122116 0.012669 
154.524216 0.004011 
154.946838 0.058707 
154.965027 0.015526 
154.985046 0.094 
155.022247 0.007072 
155.143158 0.040735 
155.954483 0.039566 
156.944733 0.034651 
156.982101 0.330706 
157.101303 0.28317 
157.952011 0.101828 
157.96669 0.403871 
158.011108 0.100825 
158.081192 0.123559 
158.762299 0.003641 
158.975906 0.030644 
158.995987 0.006753 
159.080322 0.018236 
159.116898 0.376934 
159.975143 0.064893 
159.982315 0.04687 
159.989899 0.014777 
160.955872 0.010022 
160.974152 0.029953 
161.059677 0.007707 
161.095932 0.039838 
161.119949 0.006567 
161.132538 0.432643 
161.963623 0.091693 
162.091873 0.008284 
162.135269 0.014694 
162.951675 0.006358 
162.969955 0.006327 
162.989868 0.09162 
163.038956 0.101728 
163.075287 0.110056 
163.148132 0.263262 
163.942917 0.167308 
163.977249 0.084049 
164.042252 0.005305 
164.106857 0.106013 
164.673874 0.003903 
164.921066 0.011141 
164.967072 0.016017 
164.985275 0.016411 
165.054626 0.243281 
165.090988 0.021922 
166.086548 0.009012 
166.122833 0.011531 
166.966385 1.135657 
166.982742 0.39287 
167.005264 0.02782 
167.053894 0.009613 
167.727249 0.00367 
167.964752 2.419901 
167.977249 0.064872 
168.961655 0.653826 
169.016129 0.014906 
169.101624 0.004531 
169.978287 0.00996 
170.011292 0.074307 
170.978455 0.070629 
171.116959 0.059244 
172.026596 0.091681 
172.115509 0.05034 
172.700958 0.003821 
172.957611 0.012953 
172.975143 0.201637 
172.988922 0.009302 
173.095901 0.010295 
173.132507 0.151181 
173.963608 0.402105 
174.005997 0.39599 
174.954269 0.006075 
174.991638 0.322936 
175.075485 0.046952 
175.096573 0.222696 
175.148163 0.121016 
175.977097 0.50688 
175.98497 0.012988 
176.001648 0.016554 
176.021988 0.087619 
176.968536 0.028452 
176.986588 0.013393 
177.006271 0.020802 
177.091049 0.039971 
177.112106 1.885287 
177.126755 0.048641 
177.984146 0.013479 
177.992783 0.126586 
178.120239 0.009998 
178.656052 0.010581 
178.946228 0.021718 
178.966217 0.153837 
178.984589 0.154759 
179.000092 0.13513 
179.022354 0.013287 
179.106598 0.010367 
179.352661 0.006608 
179.954346 0.063322 
179.97464 0.003908 
180.980881 0.026788 
181.000473 0.148236 
181.020142 0.003832 
181.953308 0.067931 
182.162003 0.012184 
182.996017 0.034642 
183.116989 0.045713 
184.0271 0.026132 
185.096115 0.029181 
185.132492 0.597166 
185.975204 0.009165 
186.135544 0.023813 
187.147552 0.015045 
188.021622 0.236621 
188.967575 0.279636 
189.091141 0.043416 
189.163391 0.047383 
189.296188 0.01038 
189.49794 0.009961 
189.941605 0.031681 
189.97496 0.350201 
190.016647 0.013734 
190.896576 0.005164 
190.966217 0.209255 
191.000793 0.026514 
191.03746 0.009029 
191.974075 0.241318 
192.807236 0.005547 
192.96199 0.254169 
192.980789 0.187314 
193.002075 0.053316 
193.0159 0.145387 
193.134949 0.004101 
193.970306 0.042501 
193.980347 0.225266 
194.153687 0.033344 
194.925644 0.004613 
194.962677 0.005399 
194.978241 0.144101 
195.060547 0.089868 
195.101135 0.029098 
195.122925 0.465416 
195.972397 0.096898 
197.132767 0.04246 
198.62291 0.004081 
198.633438 0.004328 
199.028061 0.010445 
199.148071 0.510945 
200.15184 0.018533 
200.164856 0.007933 
201.065399 0.005797 
202.036865 0.012292 
202.159119 0.054631 
202.966156 0.21359 
203.106934 0.024211 
203.143097 0.083002 
203.964828 0.488708 
204.031219 0.007586 
204.962143 0.500059 
205.133667 0.014874 
206.023499 0.012141 
206.977814 2.939615 
206.994934 0.025465 
207.034531 0.004539 
207.674988 0.031899 
207.985931 3.429216 
208.975586 0.186435 
208.986801 0.417537 
209.011566 0.273616 
209.075897 0.033263 
209.982025 0.080904 
210.185669 0.088328 
210.972122 0.068169 
211.111847 0.010973 
211.148056 0.005603 
212.037704 0.00918 
212.143631 0.05772 
212.972504 0.031255 
212.993637 0.008998 
214.967865 0.005064 
215.264587 0.147733 
215.271286 0.095255 
215.278763 0.13398 
217.158707 0.037499 
217.169678 0.028571 
218.081177 0.023654 
218.152435 0.185716 
218.926849 0.02027 
218.976044 0.041481 
218.995316 0.438497 
219.017105 0.049275 
219.155457 0.042601 
219.666367 0.067892 
219.985641 0.094393 
220.169113 0.45651 
220.956833 0.022495 
220.977203 0.419012 
220.99498 0.223128 
221.009995 0.018948 
221.13884 0.008771 
221.190262 0.010268 
221.97525 1.240347 
221.985336 0.214696 
221.999939 0.007746 
222.184448 0.017209 
222.898773 0.038934 
224.072968 0.014894 
224.911118 0.084781 
225.043091 0.250726 
226.042313 0.008995 
226.180191 0.104698 
226.913559 0.008582 
227.081589 0.012807 
227.143219 0.053074 
228.671677 0.364565 
229.10466 0.046991 
229.123459 0.004388 
229.172729 0.088938 
229.66983 0.008691 
230.906296 0.019966 
232.904663 0.109302 
233.333206 0.003887 
233.903717 0.005669 
234.941986 0.018253 
234.99437 0.074612 
235.180939 0.031733 
236.137177 0.078151 
236.91832 0.004554 
236.93869 0.387014 
236.952332 0.007112 
236.989655 0.114045 
237.005508 0.014945 
237.027969 0.09181 
237.121613 0.058186 
237.157593 0.214669 
237.676605 0.268337 
237.88887 0.010836 
237.959335 0.012737 
237.996109 0.25275 
238.179688 0.47777 
238.216583 0.2977 
238.95108 0.103336 
238.96788 0.440304 
238.98732 0.095007 
239.003723 0.025061 
239.024506 0.021946 
239.105576 0.005745 
239.149063 0.399405 
239.182739 0.015816 
239.587631 0.003801 
239.972092 0.005404 
239.985657 0.622142 
240.138306 0.103598 
240.196091 0.032733 
240.909454 0.146467 
241.060379 0.009157 
241.122574 0.012423 
242.083405 0.130726 
243.076675 0.154717 
243.138611 0.005795 
244.169678 0.01928 
244.26387 0.025651 
244.705704 0.008314 
244.922012 0.004417 
245.153885 0.22882 
245.893219 0.005825 
248.902237 0.056198 
248.917175 0.010891 
250.965088 0.005909 
251.006638 0.005447 
251.051529 0.020255 
253.037567 0.028649 
253.195129 0.03801 
254.94928 0.174708 
254.965836 0.015395 
254.995483 0.010959 
255.899307 0.105412 
256.122833 0.003942 
256.962585 0.004388 
257.099213 0.038166 
257.897064 0.005852 
258.078888 0.01988 
258.937927 0.061153 
259.071228 0.008735 
261.08725 0.15459 
262.037567 0.009999 
262.180328 0.490488 
262.89444 0.04206 
263.163635 0.005726 
263.184814 0.023457 
263.90271 0.030359 
265.020691 0.050072 
266.173004 0.095261 
266.999054 0.302741 
267.015015 0.005768 
267.999146 0.02433 
268.0979 0.153751 
268.264221 0.037103 
268.633301 0.012773 
268.978424 0.35698 
268.995178 0.013087 
269.081299 0.010935 
269.117188 0.01134 
269.97934 0.017321 
270.993958 0.042785 
272.882904 0.043119 
272.902313 0.064345 
272.917572 0.014704 
273.90979 0.005108 
274.711212 0.010012 
274.915344 0.048973 
275.811523 0.148791 
275.912964 0.005022 
276.950653 0.004031 
279.230225 0.004181 
279.956421 0.003849 
280.100159 0.045894 
280.190735 1.006484 
280.813324 0.013361 
281.051025 0.660177 
281.066864 0.005142 
281.164581 0.183428 
281.193512 0.106586 
282.051971 0.082018 
282.205811 0.019572 
282.279205 0.038951 
282.994263 0.820493 
283.030579 2.840006 
283.120544 0.119254 
283.175354 0.792542 
283.82074 0.003892 
283.994293 0.089932 
284.030426 0.710533 
284.09259 0.022551 
284.152893 0.008545 
285.009705 1.314651 
285.027863 0.380945 
285.046173 0.158384 
285.817291 0.004889 
286.009857 0.177762 
286.028015 0.005284 
286.047028 0.014146 
286.823456 0.007159 
286.932648 0.045296 
287.044067 0.007756 
287.83136 0.012011 
287.90451 0.119815 
289.005798 0.005978 
290.912781 0.048391 
292.90976 0.005778 
296.094757 0.024505 
296.2211 0.063442 
296.295197 0.331662 
296.331421 0.138781 
297.046143 0.740694 
297.063812 0.030721 
297.092194 3.567175 
297.11026 0.090378 
297.125427 0.156634 
297.160919 0.313703 
297.196625 1.509075 
297.218567 0.046052 
297.240143 0.035062 
297.278809 0.295766 
297.297333 0.088482 
297.33432 0.005941 
298.046387 0.160266 
298.094971 0.356821 
298.11026 0.678063 
298.126251 0.819104 
298.143829 2.325035 
298.161469 0.075133 
298.20282 1.293654 
298.315216 0.016805 
298.346802 100.0 
299.029419 0.003379 
299.061646 8.473888 
299.094635 0.056238 
299.110962 0.227826 
299.141693 0.503899 
299.175537 0.710039 
299.200134 0.077244 
299.215149 0.128875 
299.322266 0.003641 
299.350281 21.126713 
300.06189 2.169904 
300.125916 0.032251 
300.140991 0.077728 
300.171204 0.940896 
300.196533 0.064558 
300.215515 0.092987 
300.233307 0.042442 
300.270325 0.012279 
300.289795 0.114341 
300.32608 0.182344 
300.353668 1.146233 
301.058533 1.077765 
302.05957 0.088081 
302.1633 0.005845 
303.020111 0.11603 
307.800232 0.05353 
308.850739 0.004031 
310.843262 0.084919 
314.929352 0.036999 
315.123016 0.114165 
316.120758 0.484694 
317.123352 0.018 
318.942444 0.004657 
322.8237 0.013569 
END IONS

