BEGIN IONS
PEPMASS=214.059
CHARGE=1+
COMPOUNDNAME=Citrulline
LIBRARYQUALITY=3
SMILES=N/A
INCHIKEY=RHGKLRLOHDJJDR-BYPYZUCNSA-N
INCHI=InChI=1S/C6H13N3O3/c7-4(5(10)11)2-1-3-9-6(8)12/h4H,1-3,7H2,(H,10,11)(H3,8,9,12)/t4-/m0/s1
MSLEVEL=2
SOURCE_INSTRUMENT=N/A-ESI-QFT
FILENAME=library_mgf.mgf
SEQ=*..*
IONMODE=positive
ORGANISM=MONA
NAME=Citrulline [M+K]+
PI=MoNA
DATACOLLECTOR=MoNA:VF-NPL-QEHF026473
PUBMED=N/A
SUBMITUSER=mwang87
TAGS=
SPECTRUMID=CCMSLIB00004717990
SCANS=26473
50.194454 0.0059 
50.506668 0.009707 
50.662804 0.009139 
50.770256 0.005894 
50.79089 0.005959 
51.817783 0.005416 
51.92205 0.005744 
51.934502 0.009579 
52.226727 0.010321 
53.039047 0.005858 
53.296257 0.009008 
53.329857 0.009487 
53.803108 0.011017 
54.450874 0.009838 
55.007332 0.011331 
55.054596 0.109788 
55.465153 0.009188 
55.861904 0.006324 
56.187374 0.010373 
56.306118 0.004728 
56.406963 0.009966 
56.508205 0.005429 
56.669628 0.006048 
56.965172 0.274766 
57.008759 0.00787 
57.033745 0.005155 
57.070198 1.041529 
57.248299 0.004664 
57.398636 0.009832 
57.44553 0.005557 
57.632019 0.009361 
57.935108 1.405023 
58.065472 0.305635 
58.073551 0.005123 
58.526379 0.007678 
58.831062 0.010438 
59.05685 0.009518 
59.131165 0.008856 
59.186462 0.005438 
59.4142 0.004448 
59.574989 0.01046 
59.930565 0.299904 
60.107403 0.007916 
60.109303 0.007143 
60.139362 0.00999 
60.317158 0.005415 
61.010895 2.93934 
61.039925 0.058998 
61.505775 0.005327 
61.989799 0.010757 
62.018723 0.007644 
62.700802 0.005981 
63.006817 0.009737 
63.39188 0.007809 
63.424877 0.008665 
63.471821 0.007331 
63.842354 0.009181 
63.918335 0.009221 
63.997917 0.005182 
65.732964 0.010644 
67.054428 0.150023 
67.540581 0.008627 
68.079926 0.007316 
69.070053 0.188282 
69.222656 0.00932 
69.873177 0.004761 
70.065269 0.403747 
70.109016 0.0095 
70.125984 0.004925 
70.365646 0.010517 
70.457947 0.010208 
71.049309 0.018851 
71.085686 0.524043 
71.936417 0.004214 
72.080894 0.056138 
72.617416 0.01019 
72.958466 0.120981 
73.191658 0.008594 
73.899605 0.009916 
73.929825 0.4259 
74.060097 0.009053 
74.197029 0.006515 
74.763657 0.007415 
74.903694 0.00869 
75.666183 0.006539 
75.939003 0.004748 
75.945389 1.598651 
77.434937 0.00462 
77.466125 0.010281 
77.774765 0.007579 
77.941063 0.299332 
78.75927 0.007298 
78.809235 0.007769 
78.952156 0.008048 
79.021286 4.380191 
79.039284 0.008497 
79.053932 0.009034 
79.365227 0.006362 
80.020561 0.004779 
80.024673 0.011718 
80.543129 0.004685 
81.017151 0.041209 
81.033669 0.00739 
81.070007 0.35946 
81.602478 0.004877 
83.085602 0.190904 
83.975945 0.034633 
84.080574 0.004379 
85.039787 0.016687 
85.064865 0.044282 
85.101265 0.207494 
86.096466 0.014486 
87.25061 0.004398 
87.896141 0.008343 
88.075897 0.042568 
89.754158 0.007277 
89.921577 0.007844 
90.395233 0.007382 
90.422951 0.00843 
90.969154 0.007722 
91.922501 0.012 
91.94046 0.015789 
92.938225 0.028278 
93.070091 0.015108 
93.844719 0.008774 
93.956001 0.831673 
94.318222 0.01125 
95.04937 0.031665 
95.085632 0.934406 
95.142342 0.00509 
95.951401 0.123027 
96.088943 0.006472 
96.82814 0.004258 
96.952225 0.008904 
97.064857 0.015925 
97.101051 0.00859 
98.971863 0.007047 
98.975456 0.788648 
99.93943 0.008619 
100.075844 0.039865 
100.682884 0.00727 
100.7995 0.006681 
101.699951 0.011988 
101.961304 0.008711 
102.243385 0.004774 
102.914795 0.085896 
102.968361 0.770207 
103.827042 0.008372 
103.922569 0.030667 
103.976738 0.237278 
104.353783 0.008064 
104.930519 0.502726 
105.044968 0.004701 
105.069908 0.006197 
105.403831 0.005454 
105.928452 0.018473 
105.972565 0.005581 
106.657654 0.007765 
106.925957 0.057699 
107.085617 0.019288 
107.160789 0.009189 
107.658859 0.005118 
108.213333 0.007601 
109.101318 0.230772 
109.41465 0.006024 
111.342369 0.005049 
111.89679 0.004522 
112.669952 0.008799 
113.394592 0.011824 
113.632629 0.005867 
113.665878 0.008016 
114.104347 0.007076 
115.138756 0.010474 
115.637299 0.010995 
115.965652 0.008439 
116.655106 0.005285 
116.986008 0.294894 
117.611343 0.005525 
118.18808 0.006621 
118.260696 0.010684 
119.085777 0.014658 
119.917519 0.066939 
120.925636 0.392944 
120.97892 0.360048 
121.309738 0.009603 
121.933182 0.39781 
122.236954 0.00534 
122.318855 0.006831 
122.921097 0.045731 
122.931084 0.072025 
122.940979 2.595999 
123.080444 0.007313 
123.912369 0.074149 
123.928558 0.017238 
123.938957 0.44865 
123.94883 0.49934 
124.936523 0.761413 
124.947052 0.024289 
125.944435 0.060915 
126.022781 0.009173 
128.070892 0.008075 
128.09903 0.007366 
128.107117 0.014963 
129.63446 0.004388 
133.577606 0.004967 
134.94104 0.341998 
134.978821 0.171719 
134.99649 0.050302 
135.116653 0.046133 
135.938919 0.014335 
135.948837 2.388204 
135.956528 0.35057 
136.580322 0.056638 
136.920334 0.240783 
136.931229 0.026509 
136.936493 0.014849 
136.956543 0.363324 
136.967438 0.020848 
137.01152 0.006608 
137.081924 0.022205 
137.096313 0.011227 
137.163528 0.010074 
137.918655 0.07187 
137.928055 4.676297 
137.944489 0.647138 
137.954788 0.844284 
137.964447 2.294143 
138.916962 0.00898 
138.926865 0.019182 
138.935883 1.057788 
138.952209 0.042515 
138.962372 0.1371 
138.989517 0.057417 
139.226242 0.008491 
139.923599 1.495132 
139.943741 0.009045 
139.959976 0.665758 
140.106552 0.022511 
140.931427 0.186226 
140.951736 0.08196 
141.000595 0.183238 
141.273178 0.008397 
141.922943 0.00767 
141.94957 0.010318 
142.580383 0.022793 
143.049271 0.491236 
144.033051 0.012254 
144.576523 0.007286 
145.065018 0.1636 
145.586151 0.011472 
145.800995 0.012761 
147.991272 0.006621 
148.653625 0.004971 
148.95665 0.138003 
148.972031 0.021271 
150.918289 0.021331 
150.951492 0.043308 
150.972366 5.695773 
151.009506 0.004961 
151.055542 0.007255 
151.585709 0.200994 
151.943665 0.403255 
151.970123 0.451537 
151.976074 0.011764 
152.087402 0.051971 
152.941177 0.041345 
152.951599 12.385283 
152.967331 1.749402 
152.989227 0.038825 
153.033752 0.051609 
153.948395 0.022057 
153.95932 100.0 
153.973923 0.012339 
154.098267 0.011504 
154.122818 0.119656 
154.73587 0.008944 
154.913269 0.011206 
154.947083 3.199615 
154.957077 0.15849 
154.963013 1.45555 
154.977814 1.452734 
155.106674 0.205877 
155.119186 0.007123 
155.954788 28.974497 
155.965591 0.245586 
156.946335 0.772322 
158.026962 0.024833 
158.941925 0.05701 
160.59111 0.029694 
161.059921 0.049599 
161.132584 0.031458 
162.947037 0.0062 
163.026947 0.006506 
163.075638 0.007443 
163.954941 0.215971 
164.746567 0.012602 
165.941742 0.061068 
166.913147 0.022748 
166.967178 0.514451 
167.011612 0.004615 
167.920959 0.514589 
167.931107 0.012053 
167.938568 0.948532 
167.975082 1.332074 
168.289093 0.010507 
168.907745 0.007019 
168.936539 0.086599 
168.944595 0.005037 
168.961792 0.010954 
168.982819 12.440823 
169.028625 0.018048 
169.352249 0.00816 
169.91748 0.395896 
169.934235 0.139716 
169.944366 0.05667 
169.954132 0.432847 
169.97049 0.28672 
169.986588 0.191325 
170.060364 0.052196 
170.952499 0.389018 
170.962097 3.32792 
170.978302 3.600456 
170.985672 0.073296 
171.044067 2.590772 
171.051605 0.012791 
171.076355 0.541378 
171.912949 0.00822 
171.949661 0.049552 
171.959778 0.120254 
172.028198 0.040424 
172.047165 0.028597 
172.92363 0.050188 
172.951599 0.028916 
172.957764 0.771728 
172.988602 1.272672 
173.989166 0.035353 
174.008163 0.012221 
174.059402 0.006659 
174.091293 0.007098 
175.58757 0.036437 
176.07019 0.008297 
176.975723 0.046029 
176.989304 0.163392 
178.970322 0.006036 
178.978424 0.794951 
179.143463 0.017498 
180.928665 1.466783 
180.973801 0.1316 
180.982361 0.126223 
181.926483 0.077513 
182.088318 0.013859 
182.112137 0.008815 
182.924347 0.488612 
182.934906 0.235999 
182.944382 4.11444 
182.99884 0.016807 
183.91597 0.046129 
183.942307 1.283327 
183.951111 0.147339 
184.939758 1.245272 
185.69249 0.006836 
185.949249 21.321329 
186.947205 0.332441 
186.953934 0.051356 
187.944748 6.095431 
187.953415 0.219915 
188.070786 0.682664 
189.054779 3.854205 
190.015244 0.005619 
190.038757 0.090925 
190.058304 0.099831 
191.971405 0.018127 
192.961777 0.296968 
195.000061 0.144817 
196.169937 0.106435 
197.023712 0.05627 
198.939331 11.471207 
198.992874 0.112083 
199.011902 0.192341 
199.942368 0.246636 
199.964981 0.118681 
200.934784 4.028024 
200.954865 0.217449 
201.952789 0.389588 
203.070602 0.014674 
206.081207 0.08858 
207.065475 1.506113 
207.083313 0.007694 
207.956863 0.015114 
208.049667 0.011272 
208.06958 0.005819 
210.026459 0.006468 
210.972427 0.087536 
212.139526 0.106159 
212.164703 0.144585 
212.20108 0.137562 
212.237488 0.470594 
212.955185 0.062545 
213.109955 0.378378 
213.146133 0.347685 
213.158417 0.023579 
213.232132 0.042693 
213.24231 0.011179 
213.962753 6.500691 
214.049988 0.119465 
214.121521 0.083983 
214.143921 0.157308 
214.160126 0.009587 
214.180389 0.126952 
214.253113 35.127499 
214.966049 0.18723 
215.034088 1.088904 
215.043625 0.012242 
215.089554 0.091596 
215.126129 5.819006 
215.137817 0.203013 
215.256607 5.067477 
215.940506 0.011913 
215.958405 2.207338 
215.968781 0.029303 
216.128723 0.095558 
216.196503 0.008836 
216.260117 0.021925 
216.949875 10.923889 
217.066223 0.180289 
217.080231 0.201525 
217.952255 0.278952 
218.945389 3.579504 
223.073761 0.007325 
226.945435 0.602268 
228.940781 0.089935 
230.965744 0.029538 
231.054352 0.004806 
231.446396 0.006634 
232.060715 0.515967 
232.08548 0.006755 
232.991745 0.013787 
233.044785 0.792994 
233.08078 0.006892 
END IONS

