BEGIN IONS
PEPMASS=544.0
CHARGE=1+
COMPOUNDNAME=Massbank:KO002720 Doxorubicin|Adriamycin
LIBRARYQUALITY=3
SMILES=c(c43)(C[C@](C(=O)CO)(C[C@@H]4OC(C5)O[C@@H](C)[C@@H](O)[C@@H](N)5)O)c(O)c(c1c(O)3)c(c(c2)c(c(OC)cc2)c1=O)=O
INCHIKEY=AOJJSUZBOXZQNB-DCBNVMRFSA-N
INCHI=1S/C27H29NO11/c1-10-22(31)13(28)6-17(38-10)39-15-8-27(36,16(30)9-29)7-12-19(15)26(35)21-20(24(12)33)23(32)11-4-3-5-14(37-2)18(11)25(21)34/h3-5,10,13,15,17,22,29,31,33,35-36H,6-9,28H2,1-2H3
MSLEVEL=2
SOURCE_INSTRUMENT=ESI-LC-ESI-QQ
FILENAME=Massbank_ESI_positive_8_1_2014_peaks.mgf
SEQ=*..*
IONMODE=Positive
ORGANISM=MASSBANK
NAME=Massbank:KO002720 Doxorubicin|Adriamycin [M+H]+
PI=Putative Massbank Match
DATACOLLECTOR=Massbank
PUBMED=N/A
SUBMITUSER=mwang87
TAGS=
SPECTRUMID=CCMSLIB00000217941
SCANS=8522
68.2 24752.5 
69.3 301980.5 
71.1 59406.0 
72.1 579208.5 
84.4 24752.5 
86.0 1148516.0 
95.0 54455.5 
104.1 34653.5 
113.4 183168.5 
130.2 212871.5 
134.7 34653.5 
228.9 9901.0 
287.5 29703.0 
306.3 74257.5 
321.4 564357.0 
333.3 173267.5 
346.4 673268.0 
351.6 44554.5 
361.3 544555.0 
364.6 29703.0 
END IONS

