BEGIN IONS
PEPMASS=331.0
CHARGE=1+
COMPOUNDNAME=MoNA:2581397 Gibberellic acid A4
LIBRARYQUALITY=3
SMILES=N/A
INCHIKEY=RSQSQJNRHICNNH-NFMPGMCNSA-N
INCHI=InChI=1S/C19H24O5/c1-9-7-18-8-10(9)3-4-11(18)19-6-5-12(20)17(2,16(23)24-19)14(19)13(18)15(21)22/h10-14,20H,1,3-8H2,2H3,(H,21,22)/t10-,11-,12+,13-,14-,17-,18+,19-/m1/s1
MSLEVEL=2
SOURCE_INSTRUMENT=LC-ESI-QQ-LC-ESI-QQ
FILENAME=output_mgf.mgf
SEQ=*..*
IONMODE=
ORGANISM=MONA
NAME=MoNA:2581397 Gibberellic acid A4 [M-H]-
PI=MoNA
DATACOLLECTOR=MoNA
PUBMED=N/A
SUBMITUSER=mwang87
TAGS=
SPECTRUMID=CCMSLIB00000574435
SCANS=11686
57.761 0.953387 
58.912 1.216905 
60.958 2.998757 
72.374 2.203853 
96.746 1.084525 
97.585 1.352393 
116.62 1.190802 
136.512 1.563083 
137.371 0.965817 
144.99 1.353014 
154.48 1.550031 
155.279 1.157862 
169.044 4.740833 
174.189 1.392169 
175.062 1.586078 
182.468 4.586078 
187.404 1.740833 
193.021 1.026725 
193.702 0.956495 
202.242 1.380982 
203.183 0.966439 
212.161 1.062772 
213.152 27.66936 
214.491 1.137974 
224.553 10.957116 
225.342 37.495339 
232.748 1.088875 
240.782 1.093847 
242.743 34.947172 
243.528 12.386576 
250.438 1.058421 
251.06 5.736482 
251.976 1.220012 
254.088 1.889372 
256.573 9.676818 
257.405 18.999378 
260.998 1.307023 
266.699 5.193288 
268.917 51.758856 
269.627 5.497203 
271.431 1.267247 
285.089 1.550031 
286.99 20.223741 
287.668 5.316346 
289.359 1.206339 
291.035 1.029211 
299.193 1.154133 
309.476 1.61964 
310.403 1.137352 
312.483 3.218148 
313.079 24.400249 
327.699 1.003729 
328.898 1.292728 
330.515 36.22747 
331.123 100.0 
331.642 1.487881 
347.417 1.747048 
348.654 1.039776 
357.198 1.066501 
365.98 1.113735 
375.778 1.12803 
377.074 1.242387 
385.664 0.957738 
387.155 1.316346 
395.669 1.349285 
END IONS

