BEGIN IONS
PEPMASS=180.2
CHARGE=1+
COMPOUNDNAME=ReSpect:PS023205 Fusaric acid|Fusarate|Fusarinic acid|5-Butylpicolinic acid|5-butylpyridine-3-carboxylic acid
LIBRARYQUALITY=3
SMILES=CCCCC1=CN=C(C=C1)C(=O)O
INCHIKEY=DGMPVYSXXIOGJY-UHFFFAOYSA-N
INCHI=N/A
MSLEVEL=2
SOURCE_INSTRUMENT=ESI-Flow-injection QqQ/MS
FILENAME=respect_8_1_2014_GNPS_peaks.mgf
SEQ=*..*
IONMODE=Positive
ORGANISM=RESPECT
NAME=ReSpect:PS023205 Fusaric acid|Fusarate|Fusarinic acid|5-Butylpicolinic acid|5-butylpyridine-3-carboxylic acid [M+H]
PI=Putative ReSpect Match
DATACOLLECTOR=ReSpect
PUBMED=N/A
SUBMITUSER=mwang87
TAGS=
SPECTRUMID=CCMSLIB00000213708
SCANS=2524
39.0 62.0 
41.0 36.0 
54.0 45.0 
55.0 77.0 
64.0 312.0 
65.0 991.0 
66.0 76.0 
77.0 33.0 
79.0 154.0 
90.0 43.0 
91.0 336.0 
92.0 999.0 
93.0 68.0 
115.0 44.0 
118.0 58.0 
133.0 119.0 
134.0 128.0 
END IONS

