BEGIN IONS
TITLE=Scan Number: 890
PEPMASS=872.52301
CHARGE=1+
COMPOUNDNAME=Tolytoxin
LIBRARYQUALITY=3
SMILES=C[C@H]1[C@@H](C[C@@H]([C@]2(CO2)[C@H](C[C@@H]3CC=C[C@H](O3)C[C@H]([C@H](/C=C(/C=C/C(=O)O[C@@H]1[C@@H](C)[C@H]([C@@H](C)CCC(=O)[C@H](C)[C@@H]([C@H](C)/C=C/N(C)C=O)OC)O)\C)O)OC)OC)OC)OC
INCHIKEY=FTGOWEQDZZMPNJ-GUMZKTDUSA-N
INCHI=
MSLEVEL=2
SOURCE_INSTRUMENT=LC-ESI-qTof
FILENAME=f.philipwi/0_WilliamsFreshwaterCyanosStandardsConvertedTo_mzXML_v2/PW-19_P1-C-1_Tolytoxin_849_01_15538_Scan884-971.mzXML;
SEQ=*..*
NOTES=
IONMODE=Positive
ORGANISM=GNPS-LIBRARY
NAME=Tolytoxin M+Na
SPECTRUMID=CCMSLIB00000424876
ACTIVATION=CID
INSTRUMENT=ion trap
SCANS=890
127.702126 116.0 
133.118195 120.0 
134.075226 120.0 
138.622742 36.0 
150.99234 36.0 
153.422302 52.0 
154.347443 84.0 
158.099884 36.0 
159.087234 64.0 
161.110046 144.0 
163.075562 128.0 
168.583221 148.0 
171.12529 128.0 
172.696518 44.0 
177.113785 52.0 
177.903595 32.0 
179.078812 96.0 
180.172333 64.0 
181.089005 104.0 
189.129944 124.0 
190.181366 84.0 
191.038147 112.0 
193.146469 52.0 
193.279373 40.0 
198.11235 156.0 
200.460968 40.0 
203.041367 64.0 
203.114029 76.0 
205.081039 56.0 
206.124725 128.0 
207.140091 136.0 
207.442947 68.0 
208.067719 128.0 
209.119904 152.0 
209.966141 28.0 
213.090393 84.0 
214.096527 100.0 
216.631592 132.0 
217.608429 144.0 
218.118958 320.0 
218.992889 36.0 
219.143845 116.0 
219.219345 48.0 
220.041214 32.0 
220.164764 124.0 
220.239822 56.0 
220.580505 32.0 
220.911987 44.0 
221.069916 168.0 
221.167862 32.0 
223.096436 116.0 
224.097275 128.0 
224.631958 108.0 
225.09903 88.0 
225.942734 32.0 
226.143982 120.0 
227.142014 112.0 
227.891968 32.0 
228.151855 36.0 
228.845627 32.0 
229.157166 108.0 
230.164368 92.0 
231.106308 88.0 
232.090317 132.0 
232.660706 56.0 
233.119003 180.0 
234.145828 96.0 
235.635666 100.0 
236.125168 108.0 
236.615189 64.0 
237.115509 88.0 
237.632599 172.0 
238.009583 36.0 
239.181274 172.0 
240.108856 100.0 
242.068558 76.0 
242.207428 40.0 
243.091156 96.0 
246.151871 44.0 
247.173019 92.0 
247.885071 36.0 
248.149719 132.0 
248.210632 84.0 
248.80925 40.0 
249.14328 96.0 
250.148331 104.0 
251.134567 312.0 
251.764023 44.0 
252.128265 76.0 
253.105759 436.0 
253.638641 148.0 
253.841721 24.0 
254.100372 104.0 
254.522629 32.0 
255.133179 188.0 
256.182983 88.0 
257.081604 88.0 
257.286041 32.0 
259.211884 76.0 
259.663635 156.0 
259.86911 32.0 
260.167206 64.0 
261.207123 92.0 
262.052155 48.0 
262.14679 1400.0 
263.16391 64.0 
263.457397 32.0 
264.119995 104.0 
265.1362 100.0 
266.684998 40.0 
268.194733 92.0 
268.656067 108.0 
269.136902 88.0 
270.20462 64.0 
271.132629 88.0 
271.473969 40.0 
272.125549 108.0 
273.136414 92.0 
274.391052 40.0 
275.126892 336.0 
275.522034 28.0 
275.839539 40.0 
275.987793 32.0 
276.13327 224.0 
276.369141 40.0 
276.740173 32.0 
277.175568 100.0 
278.140228 88.0 
278.971527 32.0 
279.162079 76.0 
280.136169 232.0 
281.158417 68.0 
282.155365 84.0 
283.153809 72.0 
283.879852 76.0 
284.111816 168.0 
285.094757 84.0 
285.978027 32.0 
286.128967 52.0 
287.219025 44.0 
288.198975 48.0 
288.571014 24.0 
290.178284 332.0 
290.406647 32.0 
291.07782 84.0 
291.159821 280.0 
292.035645 36.0 
292.166382 60.0 
293.180573 112.0 
293.267883 40.0 
293.650085 68.0 
294.174622 36.0 
295.089172 124.0 
295.740143 52.0 
295.970398 96.0 
296.162354 104.0 
297.140259 112.0 
299.181274 60.0 
300.196503 152.0 
301.224518 64.0 
301.966217 64.0 
302.143463 68.0 
302.232117 64.0 
303.14151 100.0 
304.159241 116.0 
305.14502 72.0 
305.211578 100.0 
306.145538 100.0 
306.658813 176.0 
307.194855 56.0 
307.284241 56.0 
308.156433 76.0 
309.156616 108.0 
309.39978 36.0 
309.545563 80.0 
310.892822 44.0 
311.149231 1980.0 
311.263855 72.0 
311.34256 44.0 
311.702606 52.0 
311.972748 36.0 
312.150513 312.0 
312.896698 64.0 
312.975616 40.0 
313.168518 196.0 
313.505859 84.0 
314.160828 64.0 
316.413269 24.0 
317.222015 72.0 
318.161865 76.0 
318.776154 40.0 
318.889954 60.0 
319.174103 96.0 
319.200928 140.0 
319.484802 52.0 
319.767059 36.0 
319.990814 32.0 
320.185577 5040.0 
320.396423 44.0 
320.588318 48.0 
320.793793 56.0 
321.190308 1184.0 
321.429901 128.0 
321.616333 52.0 
322.208984 108.0 
322.943787 88.0 
323.186005 2060.0 
323.837921 32.0 
324.199677 76.0 
324.8367 56.0 
325.123962 56.0 
325.205475 44.0 
327.115448 40.0 
327.234741 116.0 
327.44989 84.0 
328.246277 56.0 
329.228699 60.0 
330.187531 124.0 
330.571747 88.0 
330.652863 44.0 
330.849945 40.0 
330.965912 28.0 
331.592438 48.0 
331.847839 32.0 
331.983887 28.0 
332.221954 6240.0 
332.498444 64.0 
332.57663 44.0 
332.662659 64.0 
332.765839 32.0 
332.876495 84.0 
333.033356 76.0 
333.114777 84.0 
333.223694 1564.0 
334.219147 76.0 
334.675598 160.0 
334.955536 44.0 
335.218872 68.0 
336.064758 48.0 
336.169952 48.0 
337.150085 96.0 
338.148041 164.0 
339.227325 24.0 
341.136108 132.0 
341.261475 36.0 
341.650177 28.0 
341.862305 28.0 
342.805847 76.0 
343.183624 64.0 
343.691589 92.0 
344.249603 80.0 
344.692749 140.0 
345.075653 60.0 
345.237427 176.0 
345.584991 36.0 
346.25531 104.0 
347.181976 92.0 
347.679199 108.0 
348.208832 92.0 
349.238525 64.0 
349.518524 28.0 
349.601929 48.0 
350.329376 52.0 
350.914246 36.0 
351.185242 156.0 
352.186035 80.0 
353.218445 68.0 
353.702026 248.0 
354.239471 64.0 
354.709778 184.0 
355.197113 104.0 
356.162903 92.0 
357.214325 80.0 
359.528259 44.0 
359.697479 44.0 
360.216064 1408.0 
360.423218 32.0 
360.88324 28.0 
361.217438 88.0 
361.707153 64.0 
363.01767 28.0 
363.215668 304.0 
363.345673 28.0 
363.880493 44.0 
364.038605 28.0 
364.18457 40.0 
364.561768 36.0 
365.194946 48.0 
365.438629 40.0 
366.243317 84.0 
367.154877 84.0 
369.167938 180.0 
369.250458 108.0 
370.16095 172.0 
370.893677 24.0 
371.139252 40.0 
371.249756 64.0 
372.255524 544.0 
372.517181 40.0 
373.162445 244.0 
373.254333 336.0 
373.352997 32.0 
374.226257 56.0 
374.700226 100.0 
376.228394 56.0 
377.232941 420.0 
378.244385 100.0 
379.288574 40.0 
380.229553 92.0 
381.226807 176.0 
381.999786 40.0 
382.191559 88.0 
382.722717 100.0 
384.283142 36.0 
385.145844 64.0 
385.383575 44.0 
386.272583 96.0 
386.673584 92.0 
387.178619 336.0 
388.241669 352.0 
388.493256 32.0 
388.606354 32.0 
388.706879 132.0 
389.217957 172.0 
389.700378 32.0 
389.863983 40.0 
390.022217 32.0 
390.161102 44.0 
390.263123 4528.0 
390.493561 48.0 
391.060608 28.0 
391.258423 1704.0 
391.527161 32.0 
391.723267 96.0 
391.981354 48.0 
392.264435 276.0 
392.562134 32.0 
393.218018 88.0 
393.307648 104.0 
395.198944 188.0 
396.563324 108.0 
397.181702 132.0 
397.726074 172.0 
398.229492 136.0 
398.902466 56.0 
399.067993 40.0 
400.248566 64.0 
400.891052 112.0 
401.222961 60.0 
402.066132 108.0 
402.217102 104.0 
403.191742 108.0 
403.306946 120.0 
404.152283 72.0 
404.267639 116.0 
405.189728 124.0 
406.261597 52.0 
406.739471 140.0 
407.130829 88.0 
407.246613 64.0 
407.787079 36.0 
408.753082 44.0 
409.255859 84.0 
410.184875 68.0 
411.218353 80.0 
412.188416 56.0 
412.304901 96.0 
412.589691 32.0 
413.379913 144.0 
413.716949 120.0 
413.898499 36.0 
414.248718 32.0 
415.194275 124.0 
415.820068 44.0 
416.276154 132.0 
416.470245 32.0 
417.25116 108.0 
417.811249 48.0 
418.259308 676.0 
419.260315 72.0 
420.290558 32.0 
421.454468 48.0 
421.676941 40.0 
427.258514 144.0 
427.719818 32.0 
428.22467 60.0 
429.231659 180.0 
429.501404 88.0 
429.752441 132.0 
430.228302 124.0 
431.405884 32.0 
432.270233 176.0 
432.518768 32.0 
433.248199 80.0 
435.267334 52.0 
435.746246 160.0 
436.252045 136.0 
436.451752 36.0 
437.25116 108.0 
437.731171 76.0 
438.195404 80.0 
441.224213 92.0 
442.076355 48.0 
442.262756 84.0 
442.491913 136.0 
443.259033 88.0 
444.177307 64.0 
444.283844 76.0 
444.748505 472.0 
445.043335 52.0 
445.255402 680.0 
445.756348 164.0 
446.13324 64.0 
446.289001 388.0 
446.402588 144.0 
446.510315 80.0 
446.739349 84.0 
447.184082 84.0 
447.313263 172.0 
447.885315 24.0 
448.239777 104.0 
449.194855 80.0 
449.350861 124.0 
450.226715 60.0 
451.26828 96.0 
452.230743 104.0 
452.714386 52.0 
453.134949 60.0 
453.732208 132.0 
453.922302 40.0 
454.255127 64.0 
456.274902 44.0 
457.746643 100.0 
458.29129 192.0 
458.510712 40.0 
459.294464 104.0 
459.931366 32.0 
460.068085 36.0 
460.301941 432.0 
461.233307 72.0 
461.375488 44.0 
461.806183 28.0 
462.022339 36.0 
462.162415 80.0 
462.331696 80.0 
462.738159 52.0 
462.916443 36.0 
463.262329 192.0 
465.294434 148.0 
466.268982 136.0 
467.297089 92.0 
468.280792 80.0 
469.2883 100.0 
469.398773 40.0 
470.29361 76.0 
471.234131 84.0 
472.291199 92.0 
472.788513 40.0 
473.232544 288.0 
474.23111 108.0 
474.744873 32.0 
474.925476 96.0 
475.306915 168.0 
476.079193 32.0 
476.293121 260.0 
477.290558 324.0 
477.944794 48.0 
478.293243 292.0 
479.288208 72.0 
479.911774 48.0 
480.316833 52.0 
480.596283 124.0 
481.217316 132.0 
482.232697 72.0 
482.806793 40.0 
483.29715 56.0 
484.247589 76.0 
485.283386 88.0 
485.822906 40.0 
486.272644 80.0 
487.267822 108.0 
487.482269 116.0 
487.793121 48.0 
488.26828 96.0 
490.31134 1300.0 
490.738861 32.0 
490.968353 48.0 
491.314575 424.0 
491.643036 40.0 
492.248077 92.0 
492.302582 68.0 
493.082245 48.0 
493.278107 636.0 
494.289703 160.0 
494.417236 32.0 
494.970184 44.0 
495.248322 92.0 
496.288544 80.0 
497.952881 36.0 
498.322815 36.0 
499.305145 88.0 
500.286926 108.0 
501.265289 84.0 
502.143738 28.0 
502.312408 932.0 
503.253571 184.0 
503.716248 36.0 
503.830688 32.0 
504.27475 144.0 
505.143951 132.0 
505.243958 688.0 
505.878876 56.0 
506.250549 276.0 
507.06958 28.0 
507.284515 188.0 
507.945557 68.0 
508.261139 104.0 
508.462891 120.0 
508.64978 116.0 
509.319244 108.0 
511.245758 108.0 
513.309692 56.0 
514.315125 176.0 
515.197693 64.0 
516.095154 76.0 
516.268982 212.0 
517.272156 52.0 
517.391602 68.0 
517.645874 68.0 
518.329224 40.0 
519.329102 108.0 
520.361511 124.0 
521.176147 60.0 
521.991394 80.0 
522.349792 132.0 
523.142578 24.0 
523.342773 68.0 
523.565491 68.0 
524.105347 32.0 
524.232361 192.0 
525.322754 96.0 
526.319336 108.0 
527.320801 60.0 
528.379089 92.0 
528.858887 64.0 
529.328125 36.0 
529.680176 44.0 
530.332214 204.0 
531.2771 224.0 
532.059509 40.0 
532.311829 164.0 
532.618408 44.0 
533.354248 188.0 
534.333984 536.0 
534.591553 40.0 
535.313477 132.0 
536.332153 48.0 
536.612671 88.0 
537.38623 76.0 
538.30249 104.0 
540.336609 96.0 
540.740417 36.0 
541.274231 80.0 
542.338623 136.0 
542.505859 44.0 
543.114746 40.0 
543.291504 556.0 
544.303345 248.0 
545.292419 176.0 
546.325134 84.0 
547.358459 96.0 
548.343811 84.0 
548.595398 100.0 
548.744751 48.0 
550.089478 48.0 
551.390991 200.0 
552.349365 40.0 
552.79895 72.0 
555.289673 64.0 
556.329407 368.0 
557.033508 60.0 
557.323975 172.0 
557.731689 56.0 
557.996765 52.0 
558.342651 228.0 
559.348694 144.0 
560.061646 36.0 
560.358093 564.0 
560.846375 52.0 
561.338318 360.0 
562.344604 132.0 
562.901367 32.0 
563.0177 52.0 
563.28363 1968.0 
563.536743 40.0 
563.809143 48.0 
564.036194 44.0 
564.283997 464.0 
564.687378 64.0 
564.917664 40.0 
565.294128 268.0 
565.475342 80.0 
566.316406 120.0 
567.796997 76.0 
567.979248 124.0 
569.895081 56.0 
570.34845 80.0 
571.298523 72.0 
572.354614 88.0 
572.698547 160.0 
572.942627 36.0 
573.156311 64.0 
573.335632 72.0 
573.522583 28.0 
574.380249 388.0 
575.3172 2644.0 
575.631226 36.0 
575.760559 44.0 
576.321533 752.0 
577.33075 104.0 
577.896973 40.0 
578.362244 260.0 
578.663452 36.0 
578.847473 36.0 
579.384399 92.0 
579.568481 56.0 
579.768005 32.0 
580.32074 48.0 
581.273193 40.0 
581.396118 96.0 
581.795837 56.0 
583.118896 112.0 
583.334412 60.0 
583.457581 52.0 
584.012024 104.0 
584.345398 88.0 
584.767151 40.0 
585.137146 40.0 
585.391846 68.0 
585.84668 40.0 
585.970093 68.0 
586.334839 108.0 
586.456299 96.0 
586.695557 28.0 
587.336121 284.0 
587.560547 52.0 
587.838745 120.0 
588.353088 2228.0 
588.518921 116.0 
588.627197 44.0 
588.937744 52.0 
589.091248 36.0 
589.360229 944.0 
590.004456 32.0 
590.371094 1096.0 
590.576111 44.0 
590.628784 64.0 
590.761719 36.0 
590.933838 44.0 
591.373718 316.0 
591.631348 36.0 
591.847046 44.0 
592.034546 32.0 
592.388733 368.0 
592.903442 52.0 
593.348877 176.0 
594.29126 56.0 
594.39447 76.0 
594.549927 32.0 
595.451782 32.0 
596.198669 40.0 
597.351013 80.0 
597.647034 120.0 
598.270569 44.0 
599.26886 80.0 
599.414795 80.0 
600.347046 132.0 
601.37738 52.0 
602.367493 672.0 
603.343018 196.0 
603.990784 40.0 
604.382812 316.0 
604.835388 76.0 
605.361145 104.0 
605.400146 44.0 
605.457397 100.0 
606.35498 148.0 
606.986755 56.0 
607.366028 92.0 
607.489441 36.0 
607.835144 36.0 
608.363403 112.0 
608.636902 48.0 
611.723145 120.0 
612.403992 444.0 
613.316589 44.0 
613.600769 28.0 
614.40625 672.0 
615.384888 200.0 
615.829224 28.0 
616.418518 148.0 
616.74585 100.0 
617.109985 56.0 
617.147461 112.0 
617.392578 68.0 
617.672119 84.0 
617.881836 100.0 
618.030029 44.0 
618.366638 1068.0 
618.530945 40.0 
618.903687 36.0 
619.098938 76.0 
619.192871 116.0 
619.366394 604.0 
619.698242 88.0 
619.758606 84.0 
619.999695 180.0 
620.380798 60104.0 
620.766724 80.0 
620.807434 196.0 
620.942932 96.0 
620.995789 84.0 
621.112183 88.0 
621.382507 15992.0 
621.745483 40.0 
621.781982 60.0 
621.901672 84.0 
622.031311 184.0 
622.172668 116.0 
622.383423 3856.0 
622.859009 64.0 
623.032776 88.0 
623.224548 40.0 
623.389771 912.0 
623.672424 152.0 
623.846863 148.0 
624.056519 56.0 
624.194092 48.0 
624.387268 48.0 
624.816956 40.0 
624.857849 36.0 
624.917908 64.0 
625.118103 40.0 
625.223938 64.0 
625.35376 184.0 
625.474548 64.0 
625.80365 32.0 
626.049377 52.0 
626.42572 44.0 
626.633118 76.0 
626.77356 40.0 
627.048096 24.0 
627.373596 92.0 
627.730103 56.0 
628.070129 36.0 
628.375977 56.0 
628.597412 68.0 
628.837158 36.0 
629.013 36.0 
629.156921 24.0 
629.344421 112.0 
630.228638 96.0 
630.390991 236.0 
630.612793 36.0 
630.868896 36.0 
631.221191 56.0 
631.477478 64.0 
632.599304 28.0 
633.377014 184.0 
633.802307 32.0 
633.946777 76.0 
634.25177 76.0 
634.380188 44.0 
634.781677 44.0 
634.990479 32.0 
635.552795 60.0 
636.37738 164.0 
637.048218 64.0 
637.22522 44.0 
637.4505 76.0 
637.825684 104.0 
638.126648 24.0 
638.420166 124.0 
638.899841 36.0 
639.383301 72.0 
639.576721 36.0 
639.931458 32.0 
640.205627 52.0 
641.109131 176.0 
641.399719 56.0 
642.40802 168.0 
642.659546 32.0 
643.160645 120.0 
643.403381 188.0 
644.0177 32.0 
644.406006 144.0 
645.263977 48.0 
645.402161 60.0 
645.944214 24.0 
647.134949 52.0 
649.359314 140.0 
650.049622 48.0 
650.47229 48.0 
651.36676 88.0 
651.887451 36.0 
652.394958 68.0 
653.239014 60.0 
654.396301 172.0 
657.432922 64.0 
658.135925 32.0 
658.373779 192.0 
659.12915 56.0 
659.379333 112.0 
661.525391 32.0 
664.233398 124.0 
664.453735 88.0 
665.383911 32.0 
666.074707 88.0 
666.420288 36.0 
668.363464 72.0 
669.352661 72.0 
670.22699 52.0 
671.465271 92.0 
672.381226 100.0 
673.324219 156.0 
673.61438 40.0 
675.409729 100.0 
676.744934 44.0 
677.060059 116.0 
677.396606 108.0 
678.288025 108.0 
679.468079 80.0 
681.828796 40.0 
682.34491 56.0 
682.528076 60.0 
683.377686 44.0 
684.402893 48.0 
684.716858 160.0 
685.445618 56.0 
686.419189 120.0 
687.450867 132.0 
688.001404 108.0 
688.413208 168.0 
688.820984 128.0 
689.440125 116.0 
690.39447 80.0 
696.033752 84.0 
696.404846 128.0 
696.622498 80.0 
697.396667 80.0 
698.203491 92.0 
698.727173 72.0 
699.418213 32.0 
700.143311 40.0 
700.463806 60.0 
700.767517 48.0 
701.425781 68.0 
702.506714 40.0 
704.393555 180.0 
704.874084 104.0 
705.432678 52.0 
706.454346 112.0 
707.448914 52.0 
709.39917 76.0 
710.147278 32.0 
711.421936 128.0 
713.412598 48.0 
713.889404 104.0 
714.366394 32.0 
715.50238 80.0 
715.849426 60.0 
716.433899 396.0 
716.634216 36.0 
717.060852 36.0 
717.428162 224.0 
717.948792 104.0 
718.420593 168.0 
719.127808 116.0 
719.395264 124.0 
721.454529 36.0 
724.299561 164.0 
726.402344 52.0 
726.754883 56.0 
727.132996 76.0 
727.459656 28.0 
728.302368 44.0 
728.422791 112.0 
729.472656 28.0 
730.392822 140.0 
731.157715 132.0 
731.436707 60.0 
731.60907 136.0 
732.478027 52.0 
733.343323 160.0 
733.412415 84.0 
733.443054 120.0 
734.416992 116.0 
736.479431 24.0 
737.465393 100.0 
738.42688 44.0 
739.440613 88.0 
739.579285 80.0 
740.602417 48.0 
740.741211 24.0 
741.26178 92.0 
741.452698 88.0 
742.417114 204.0 
743.46759 100.0 
744.058655 92.0 
744.336853 56.0 
745.409973 244.0 
745.572205 64.0 
746.181519 180.0 
746.433899 128.0 
747.139526 128.0 
747.437622 76.0 
747.688171 192.0 
747.83667 128.0 
748.412048 68.0 
748.551575 76.0 
749.462769 52.0 
750.872925 88.0 
751.169922 108.0 
751.483704 96.0 
752.484314 80.0 
752.638184 52.0 
753.005493 64.0 
755.182312 124.0 
755.514771 84.0 
756.560608 124.0 
757.332336 116.0 
757.455139 52.0 
757.967468 60.0 
758.209717 96.0 
758.416443 100.0 
759.406372 252.0 
760.440186 160.0 
760.84491 136.0 
761.412842 136.0 
762.465027 44.0 
762.621826 32.0 
763.403748 88.0 
764.453735 84.0 
765.398743 60.0 
765.462402 76.0 
767.452881 68.0 
768.071045 44.0 
768.477478 56.0 
768.724854 108.0 
770.316345 52.0 
770.599426 80.0 
771.484497 44.0 
773.486511 88.0 
773.610657 56.0 
774.160339 92.0 
774.461914 52.0 
775.395752 64.0 
776.461426 104.0 
776.929688 76.0 
777.360657 32.0 
778.471191 176.0 
779.494202 112.0 
780.425354 68.0 
780.836914 60.0 
781.021729 56.0 
781.484985 48.0 
782.625916 80.0 
783.503296 84.0 
783.928284 84.0 
784.435486 96.0 
785.410339 68.0 
786.73291 64.0 
788.038635 52.0 
788.468201 24.0 
788.682983 88.0 
790.434143 236.0 
791.403809 108.0 
792.464844 128.0 
793.470093 44.0 
794.500244 112.0 
795.554382 84.0 
795.752136 24.0 
796.501099 84.0 
797.47937 44.0 
798.505798 116.0 
799.563416 104.0 
800.001587 96.0 
800.524536 100.0 
801.516785 48.0 
804.352661 40.0 
804.708069 92.0 
805.293091 116.0 
805.484131 156.0 
806.125366 96.0 
806.451233 92.0 
807.356567 64.0 
807.483398 72.0 
808.464966 304.0 
809.454041 96.0 
809.622253 76.0 
810.499207 364.0 
810.747192 40.0 
811.483765 188.0 
811.936218 140.0 
812.486755 216.0 
812.802795 44.0 
813.48645 364.0 
813.672119 72.0 
814.477051 560.0 
815.236633 52.0 
815.505371 292.0 
816.347229 80.0 
816.519592 112.0 
817.508484 132.0 
817.771484 48.0 
819.318726 124.0 
819.993958 24.0 
820.486877 64.0 
820.96167 132.0 
821.966553 64.0 
822.492493 184.0 
823.489441 56.0 
824.49054 212.0 
825.20459 124.0 
825.424316 72.0 
825.607483 44.0 
826.212036 44.0 
826.53186 152.0 
826.725159 144.0 
827.421753 52.0 
828.533386 280.0 
829.201355 44.0 
829.554321 84.0 
830.082703 60.0 
830.54187 84.0 
830.909363 140.0 
831.203369 32.0 
831.828369 48.0 
831.957031 108.0 
832.159302 32.0 
833.52063 52.0 
833.723083 128.0 
834.017639 52.0 
834.238525 68.0 
835.472595 28.0 
835.619995 36.0 
836.536255 84.0 
836.726013 32.0 
837.504333 108.0 
838.109497 84.0 
838.500122 44.0 
839.198669 56.0 
839.485779 72.0 
840.029846 28.0 
840.489075 1984.0 
840.935425 40.0 
841.212708 44.0 
841.492065 832.0 
841.748962 32.0 
842.496399 520.0 
842.710938 40.0 
843.510437 140.0 
843.747559 40.0 
844.099365 36.0 
844.508484 224.0 
845.259338 80.0 
845.504761 328.0 
846.082214 148.0 
846.531494 88.0 
847.102356 112.0 
847.47345 32.0 
848.327271 28.0 
848.940063 80.0 
850.5672 64.0 
851.151733 64.0 
851.970215 36.0 
852.445923 52.0 
853.496643 44.0 
854.506958 1064.0 
854.931213 64.0 
855.506042 396.0 
855.695557 68.0 
855.844727 88.0 
856.499451 404.0 
856.70282 44.0 
857.501221 36.0 
857.697937 88.0 
858.177429 48.0 
858.308167 176.0 
858.485291 132.0 
859.375305 56.0 
859.821533 84.0 
861.01825 200.0 
863.066589 40.0 
865.08197 48.0 
865.250732 80.0 
865.414795 64.0 
865.68573 128.0 
866.282349 48.0 
866.713928 24.0 
866.845276 64.0 
867.240479 76.0 
867.649719 172.0 
867.819153 116.0 
868.084839 196.0 
868.488708 260.0 
868.786377 84.0 
869.125183 136.0 
869.25 152.0 
869.500977 252.0 
869.668091 152.0 
869.825928 172.0 
870.017212 400.0 
870.502441 6892.0 
870.880005 116.0 
870.991394 160.0 
871.167908 292.0 
871.50061 3816.0 
871.806091 316.0 
872.024475 396.0 
872.235107 336.0 
872.28186 172.0 
872.523132 249148.0 
872.840027 456.0 
872.963745 396.0 
873.041565 444.0 
873.096924 460.0 
873.179932 456.0 
873.228333 564.0 
873.525757 114316.0 
873.989746 212.0 
874.182068 264.0 
874.52417 31692.0 
874.941589 92.0 
875.095398 128.0 
875.256531 176.0 
875.523682 5840.0 
876.05896 36.0 
876.228943 88.0 
876.355408 88.0 
876.517151 736.0 
876.882141 92.0 
877.101257 108.0 
877.226807 80.0 
877.500732 1684.0 
877.808472 64.0 
877.94043 88.0 
878.126221 96.0 
878.518372 140.0 
878.680298 76.0 
878.839844 40.0 
878.997681 40.0 
879.412659 60.0 
879.643799 28.0 
879.827087 32.0 
880.013855 40.0 
880.168091 52.0 
880.57489 44.0 
880.758728 52.0 
880.962219 152.0 
881.224487 52.0 
881.543823 32.0 
881.817566 72.0 
882.055664 48.0 
882.360229 32.0 
882.511719 32.0 
882.922302 108.0 
883.28833 76.0 
883.661926 108.0 
883.875732 108.0 
884.320129 40.0 
884.804565 120.0 
885.164917 84.0 
885.659851 44.0 
885.749084 40.0 
885.961609 44.0 
886.113403 48.0 
886.308655 140.0 
886.853638 28.0 
886.986511 48.0 
887.328247 40.0 
887.575134 36.0 
887.860046 64.0 
888.502563 44.0 
888.752991 44.0 
889.053223 40.0 
889.320496 116.0 
889.526367 64.0 
889.698242 68.0 
890.021484 108.0 
890.308533 44.0 
890.545898 40.0 
890.751465 40.0 
891.120117 84.0 
891.351257 32.0 
891.662964 44.0 
891.83429 40.0 
892.111511 128.0 
892.350281 40.0 
892.934875 40.0 
893.150635 32.0 
893.491211 68.0 
893.700867 64.0 
893.834229 36.0 
894.101074 108.0 
894.36792 72.0 
894.520447 32.0 
894.893921 48.0 
895.664734 32.0 
895.853577 40.0 
896.06366 44.0 
896.504333 96.0 
897.169983 60.0 
897.363464 48.0 
897.745422 36.0 
897.936401 52.0 
898.700623 52.0 
898.949097 32.0 
899.440552 124.0 
899.632812 144.0 
899.771118 32.0 
900.115356 20.0 
900.497864 24.0 
901.397156 36.0 
901.952271 120.0 
902.43512 36.0 
902.603271 108.0 
903.212036 36.0 
903.879517 52.0 
904.428345 52.0 
904.63446 128.0 
904.807007 44.0 
905.343994 132.0 
905.535828 44.0 
906.264893 40.0 
906.591125 32.0 
908.377014 80.0 
908.895813 32.0 
909.510925 52.0 
909.953125 40.0 
910.414673 68.0 
912.108093 112.0 
915.055969 36.0 
915.403137 112.0 
917.718994 44.0 
917.892761 40.0 
918.877991 116.0 
919.22583 48.0 
919.460632 80.0 
919.921753 28.0 
920.695251 44.0 
920.946716 32.0 
921.740051 84.0 
921.933594 40.0 
922.71991 52.0 
923.753906 100.0 
924.56781 32.0 
925.73114 36.0 
926.216064 104.0 
926.604126 80.0 
928.836975 52.0 
929.147827 36.0 
931.033569 80.0 
932.045288 48.0 
934.849792 100.0 
937.775635 52.0 
938.771484 68.0 
940.490967 88.0 
942.760071 36.0 
943.003052 68.0 
943.456848 108.0 
947.129822 104.0 
950.074768 48.0 
950.742981 152.0 
950.998474 40.0 
953.536072 40.0 
954.658386 200.0 
955.899658 108.0 
959.095093 68.0 
962.730957 120.0 
966.413391 128.0 
968.554749 88.0 
969.467529 36.0 
974.057861 36.0 
974.734375 108.0 
979.122681 192.0 
979.855896 80.0 
983.470886 128.0 
985.430969 68.0 
986.920166 112.0 
992.868958 120.0 
995.160095 184.0 
998.903931 84.0 
1000.899475 48.0 
1001.363342 100.0 
1008.638367 100.0 
1012.752319 176.0 
1013.178345 48.0 
1018.623535 124.0 
1019.152527 152.0 
1019.437439 160.0 
1019.90564 140.0 
1021.596008 36.0 
1023.145081 108.0 
1025.266724 104.0 
1025.71582 40.0 
1026.553101 64.0 
1030.253174 152.0 
1033.44751 108.0 
1036.400513 44.0 
1044.007446 40.0 
1044.357666 124.0 
1048.564331 48.0 
1050.402222 76.0 
1063.83252 76.0 
1065.225952 100.0 
1070.245972 140.0 
1070.558716 84.0 
1072.738403 44.0 
1079.169189 152.0 
1079.629883 176.0 
1082.27063 164.0 
1088.571045 80.0 
1089.686035 72.0 
1090.296265 148.0 
1092.992188 104.0 
1096.577759 108.0 
1098.668579 152.0 
1102.665649 48.0 
1104.444458 144.0 
1105.122437 64.0 
1108.218506 136.0 
1111.744019 144.0 
1132.006104 116.0 
1139.525024 56.0 
1141.182617 36.0 
1145.234619 40.0 
1147.112183 108.0 
1148.235107 104.0 
1149.661255 48.0 
1153.533325 132.0 
1160.081055 120.0 
1161.210327 44.0 
1161.905518 136.0 
1164.057617 128.0 
1167.605469 48.0 
1171.080688 84.0 
1171.223999 128.0 
1172.991821 80.0 
1175.897217 100.0 
1179.857056 64.0 
1180.776855 120.0 
1185.337402 48.0 
1187.379395 180.0 
1190.830444 36.0 
1192.590942 84.0 
1195.47644 100.0 
1201.655762 124.0 
1202.606079 96.0 
1204.817749 104.0 
1213.640137 68.0 
1222.940552 156.0 
1225.416138 56.0 
1229.190308 100.0 
1240.659668 84.0 
1244.209717 72.0 
1245.604248 68.0 
1249.995117 76.0 
1251.595825 136.0 
1253.490845 128.0 
1265.911743 92.0 
1266.819214 108.0 
1286.840942 92.0 
1293.549683 88.0 
1298.322876 96.0 
1300.620728 72.0 
1326.77478 88.0 
1342.073608 96.0 
1368.403198 88.0 
1378.135742 40.0 
1398.109253 120.0 
1404.647827 68.0 
1407.755371 128.0 
1411.728394 104.0 
1414.052612 48.0 
1422.526978 136.0 
1428.833008 56.0 
1437.5448 36.0 
1460.767578 84.0 
1487.592041 96.0 
1492.193237 40.0 
1557.783203 36.0 
1673.579468 36.0 
1727.439453 52.0 
1774.330078 40.0 
1790.909058 24.0 
1849.92627 80.0 
1855.38623 56.0 
END IONS

