BEGIN IONS
PEPMASS=443.237
CHARGE=1+
COMPOUNDNAME=LOVASTATIN
LIBRARYQUALITY=3
SMILES=N/A
INCHIKEY=PCZOHLXUXFIOCF-BXMDZJJMSA-N
INCHI=InChI=1S/C24H36O5/c1-5-15(3)24(27)29-21-11-14(2)10-17-7-6-16(4)20(23(17)21)9-8-19-12-18(25)13-22(26)28-19/h6-7,10,14-16,18-21,23,25H,5,8-9,11-13H2,1-4H3/t14-,15-,16-,18+,19+,20-,21-,23-/m0/s1
MSLEVEL=2
SOURCE_INSTRUMENT=N/A-Linear Ion Trap
FILENAME=library_mgf.mgf
SEQ=*..*
IONMODE=positive
ORGANISM=MONA
NAME=LOVASTATIN M+Na
PI=MoNA
DATACOLLECTOR=MoNA:VF-NPL-LTQ006480
PUBMED=N/A
SUBMITUSER=mwang87
TAGS=
SPECTRUMID=CCMSLIB00004689948
SCANS=5569
136.860001 4.403944 
184.899994 2.347577 
237.009995 4.739541 
251.009995 20.616934 
255.050003 48.671436 
277.019989 15.902223 
277.059998 8.408406 
279.070007 50.582947 
297.109985 13.446126 
299.019989 97.675056 
305.100006 18.340719 
341.070007 100.0 
381.140015 11.467832 
399.200012 48.743256 
410.149994 6.026884 
END IONS

