BEGIN IONS
PEPMASS=1914.5
CHARGE=1+
COMPOUNDNAME=Teichomycin
LIBRARYQUALITY=3
SMILES=N/A
INCHIKEY=BJNLLBUOHPVGFT-QRZIFLFXSA-N
INCHI=InChI=1S/C88H97Cl2N9O33/c1-3-4-5-6-7-8-9-10-60(108)94-68-74(113)71(110)58(32-101)129-87(68)132-78-55-26-40-27-56(78)126-52-18-14-38(24-47(52)90)77(131-86-67(92-34(2)103)73(112)70(109)57(31-100)128-86)69-84(121)98-66(85(122)123)45-29-42(105)30-54(127-88-76(115)75(114)72(111)59(33-102)130-88)61(45)44-23-37(13-15-49(44)106)63(81(118)99-69)96-83(120)65(40)97-82(119)64-39-21-41(104)28-43(22-39)124-53-25-36(12-16-50(53)107)62(91)80(117)93-48(79(116)95-64)20-35-11-17-51(125-55)46(89)19-35/h11-19,21-30,48,57-59,62-77,86-88,100-102,104-107,109-115H,3-10,20,31-33,91H2,1-2H3,(H,92,103)(H,93,117)(H,94,108)(H,95,116)(H,96,120)(H,97,119)(H,98,121)(H,99,118)(H,122,123)/t48-,57-,58-,59-,62-,63-,64+,65-,66-,67-,68-,69+,70-,71-,72-,73-,74-,75+,76+,77-,86+,87+,88+/m1/s1
MSLEVEL=2
SOURCE_INSTRUMENT=N/A-ESI-QFT
FILENAME=library_mgf.mgf
SEQ=*..*
IONMODE=positive
ORGANISM=MONA
NAME=Teichomycin [M+K]+
PI=MoNA
DATACOLLECTOR=MoNA:VF-NPL-QEHF027957
PUBMED=N/A
SUBMITUSER=mwang87
TAGS=
SPECTRUMID=CCMSLIB00004721538
SCANS=27957
134.040359 0.148305 
138.038193 0.175921 
138.054916 100.0 
138.060913 1.011841 
139.058228 7.175542 
141.069733 1.370332 
141.669098 0.156977 
144.06546 72.887299 
144.274872 0.15803 
145.068954 3.354068 
146.70108 0.145699 
149.277603 0.147509 
149.399353 0.146836 
150.200928 0.147282 
150.376999 0.133886 
150.406754 0.128272 
150.647079 0.159913 
150.950958 0.129843 
151.874359 0.150318 
153.033691 0.737832 
153.93074 0.149212 
156.556244 0.131686 
157.064667 0.312528 
158.139297 0.140716 
159.159927 0.137331 
162.717758 0.135899 
163.363647 0.13786 
164.920731 0.160696 
165.325104 0.140852 
167.478012 0.126106 
168.020462 0.292936 
168.065369 2.184814 
168.363419 0.143495 
168.635345 0.151815 
169.064651 9.977623 
169.526962 0.142781 
170.067719 0.139693 
170.229843 0.129128 
171.828598 0.15385 
172.169357 0.527654 
172.317139 0.143687 
176.076691 0.155218 
176.750946 0.143572 
179.695007 0.144644 
181.064362 0.289018 
181.160553 0.134703 
183.027679 0.134499 
183.318787 0.173904 
183.538773 0.129508 
185.059631 1.319558 
186.651093 0.139469 
187.075226 0.178129 
187.578293 0.154538 
194.061203 0.165477 
195.005325 0.141946 
196.075623 0.81994 
197.059662 14.706166 
198.05365 0.143406 
198.063538 0.386432 
199.061646 0.135702 
204.085602 0.146616 
205.470245 0.133178 
210.140335 0.136784 
210.719421 0.134954 
212.070328 3.84704 
213.054474 10.163851 
213.811035 0.157394 
214.085907 2.576008 
214.52565 0.157386 
215.070038 16.013231 
216.073212 0.195121 
220.011368 0.628279 
220.022369 1.495555 
220.036713 0.203461 
220.050018 0.19617 
224.07048 2.249787 
225.043304 0.134728 
225.054367 2.64274 
226.069351 0.200234 
227.070206 2.400761 
230.08078 0.224494 
230.476105 0.132481 
231.865021 0.151693 
235.93103 0.134334 
236.069199 0.172191 
238.049652 1.757066 
239.081818 0.29444 
240.065338 30.100058 
240.088272 0.461765 
241.04921 1.890527 
241.070007 3.035639 
241.096527 0.186106 
242.081039 34.329346 
243.084381 4.748135 
250.179886 17.279701 
250.553284 0.160176 
251.183304 1.512425 
252.065094 4.78125 
253.049255 5.65109 
256.04834 0.156168 
257.091644 11.517409 
257.406097 0.160726 
258.076294 0.37196 
258.094666 0.169391 
258.570374 0.135163 
262.04718 1.875587 
264.063599 2.363878 
264.195496 2.460086 
265.070282 0.739272 
266.078583 3.955218 
268.060181 9.094983 
269.066193 0.456012 
275.030609 0.327059 
276.06192 0.157703 
277.057892 0.179467 
277.094543 0.140099 
277.590057 0.136629 
279.074005 3.884635 
280.058502 0.869317 
281.089569 1.22803 
283.070801 0.147348 
285.08728 1.41907 
286.07077 2.718611 
287.073822 0.165933 
290.042267 0.180398 
292.057404 0.208659 
293.041382 0.185174 
295.071716 0.140055 
295.441895 0.155731 
295.985657 0.444425 
296.982758 0.219681 
297.060394 1.151747 
301.038422 0.203807 
301.839142 0.137958 
303.073151 0.164417 
303.096283 0.2912 
307.068481 0.194786 
308.075531 0.562486 
313.010895 0.174075 
313.995331 0.2974 
314.015411 0.265435 
314.993042 0.990361 
316.011353 0.65829 
317.005981 0.161403 
320.289368 0.138248 
321.084656 0.85811 
322.079041 0.8284 
323.911041 0.142617 
329.076447 1.567194 
334.86377 0.153505 
336.095215 1.123481 
337.09903 0.163556 
338.110565 4.709727 
339.093811 0.378405 
341.373505 0.179712 
349.078613 0.540244 
350.696808 0.173819 
353.003998 0.154833 
361.256805 0.14787 
365.073608 0.437671 
366.105255 3.494813 
376.053284 0.209279 
376.820587 0.168459 
382.099213 0.552567 
402.313843 0.196395 
413.186615 0.160062 
416.093964 0.150614 
427.703278 0.171039 
440.012085 0.161103 
452.000458 0.16076 
453.082916 0.15583 
463.022339 0.528034 
465.365692 0.15099 
493.032654 0.420212 
494.051056 0.147896 
495.528748 0.147395 
509.046722 0.176706 
521.026245 0.407296 
522.052795 0.172543 
539.015442 0.157911 
551.424927 0.165703 
565.101074 0.158247 
576.66272 0.180068 
603.012329 0.163755 
610.05249 0.154401 
624.864807 0.15207 
627.64978 0.144512 
654.970032 0.156937 
665.093872 0.141417 
667.113892 0.217923 
676.104309 0.166383 
689.085144 0.185211 
692.262939 0.16278 
706.107178 1.221893 
707.106079 0.174456 
708.108765 0.761924 
716.09436 0.184318 
717.098206 0.151778 
718.11145 0.171159 
721.115479 0.198371 
724.099365 0.191475 
726.067383 0.151624 
732.091736 0.438814 
734.098511 0.852229 
735.106567 0.365574 
744.090149 0.202758 
745.082397 0.578712 
746.092224 0.647488 
752.09314 0.22182 
760.085083 13.035585 
761.087341 2.810075 
762.084167 5.293311 
763.091919 1.249313 
764.091431 0.173222 
766.060974 0.163113 
769.05719 0.223849 
770.76593 0.172936 
771.10022 0.553747 
772.085693 0.150971 
773.108032 0.960938 
774.105713 0.479703 
775.110962 0.215966 
777.111633 12.465088 
778.11261 4.501337 
779.108337 3.768972 
780.111206 0.703383 
781.100281 0.183891 
782.112671 0.229309 
786.09845 0.199713 
788.077087 1.792471 
789.108276 1.123516 
790.080505 1.245265 
791.09198 0.237806 
792.093872 0.163867 
795.144531 0.146388 
801.104614 0.40121 
802.102173 0.251741 
803.105286 0.640165 
805.106079 3.677686 
806.104004 0.902642 
807.099854 1.44856 
809.107727 0.159118 
815.098938 0.163649 
819.116882 0.491983 
823.115356 0.152566 
833.101562 2.023037 
834.115417 0.370612 
835.10376 0.651251 
839.535034 0.155681 
850.12384 0.677459 
851.123413 0.172981 
930.160461 0.188486 
932.849731 0.19086 
950.783936 0.177391 
969.163879 0.168622 
999.158508 0.17337 
1017.186462 0.158396 
1042.165283 0.178407 
1043.175903 0.178056 
1044.170654 0.193252 
1057.156494 0.332777 
1058.152832 0.177035 
1062.190674 0.161592 
1070.151123 0.160959 
1075.179565 0.195803 
1077.162109 0.169831 
1086.179321 0.190941 
1088.175537 0.163667 
1092.157227 0.190757 
1102.172974 0.179307 
1114.16687 0.242879 
1115.179321 0.444652 
1116.180664 0.336504 
1119.683838 0.155618 
1131.195312 0.655611 
1133.184448 0.247689 
1150.202393 0.163423 
1176.212524 0.398292 
1177.216675 0.211374 
1178.202759 0.168304 
1284.047119 0.158403 
1328.599976 0.179197 
1427.135254 0.152583 
1468.421753 0.168547 
1558.766235 0.151647 
1611.905273 0.172857 
1635.07666 0.154267 
1650.722412 0.225674 
1653.011353 0.187933 
1740.292358 0.168147 
1758.91394 0.167548 
1853.19873 0.1803 
1863.423096 0.180659 
1903.362427 0.205238 
1923.951172 0.155851 
END IONS

