BEGIN IONS
PEPMASS=319.119
CHARGE=1+
COMPOUNDNAME=Mycophenolic Acid
LIBRARYQUALITY=3
SMILES=N/A
INCHIKEY=HPNSFSBZBAHARI-RUDMXATFSA-N
INCHI=InChI=1S/C17H20O6/c1-9(5-7-13(18)19)4-6-11-15(20)14-12(8-23-17(14)21)10(2)16(11)22-3/h4,20H,5-8H2,1-3H3,(H,18,19)/b9-4+
MSLEVEL=2
SOURCE_INSTRUMENT=N/A-ESI-QFT
FILENAME=library_mgf.mgf
SEQ=*..*
IONMODE=negative
ORGANISM=MONA
NAME=Mycophenolic Acid [M-H]-
PI=MoNA
DATACOLLECTOR=MoNA:VF-NPL-QEHF004794
PUBMED=N/A
SUBMITUSER=mwang87
TAGS=
SPECTRUMID=CCMSLIB00004695857
SCANS=4794
50.128803 0.101344 
50.782505 0.082475 
50.814976 0.077695 
51.981735 0.081974 
52.222107 0.07796 
52.2416 0.085397 
52.661968 0.072101 
52.871235 0.065736 
53.305859 0.07478 
53.601208 0.084723 
53.715527 0.082994 
55.088249 0.076082 
55.175938 0.117169 
55.512787 0.083361 
56.16153 0.078741 
56.675964 0.095213 
57.192558 0.086272 
57.307919 0.080348 
57.598202 0.100636 
57.779831 0.082875 
58.162411 0.079444 
59.01252 1.917982 
59.298859 0.091161 
59.89217 0.082975 
60.146885 0.089519 
60.184479 0.084476 
60.407745 0.0788 
60.413345 0.073579 
60.696068 0.081231 
61.362106 0.083006 
62.04129 0.08536 
62.478836 0.077367 
62.560059 0.087199 
62.577805 0.078942 
62.877907 0.076818 
63.298275 0.085858 
63.630585 0.082494 
63.778896 0.08691 
63.920761 0.090697 
64.005318 0.074221 
64.213379 0.074001 
64.661301 0.081594 
65.294739 0.133864 
66.117477 0.067844 
66.355446 0.100655 
66.505157 0.073151 
66.910187 0.093483 
68.122475 0.117916 
68.182899 0.084083 
68.511902 0.084637 
68.555466 0.068999 
69.028824 0.076318 
69.518478 0.091521 
69.897209 0.089271 
70.867264 0.084892 
71.519302 0.068346 
72.73542 0.077668 
73.028191 0.473018 
73.382195 0.08683 
76.245575 0.079973 
78.68721 0.084097 
79.053841 0.153413 
79.730232 0.073684 
80.436897 0.088279 
81.008629 0.063755 
81.033264 0.40463 
82.37233 0.099765 
82.817184 0.101336 
83.275017 0.083668 
83.896553 0.083608 
85.575989 0.107159 
85.711189 0.089904 
86.698906 0.080558 
86.869926 0.068774 
86.892242 0.092905 
87.975044 0.121963 
88.079575 0.084222 
88.213356 0.076297 
89.12075 0.100517 
89.563431 0.066876 
91.053993 0.618091 
91.069412 0.083039 
91.90712 0.106181 
92.895607 0.075448 
93.033333 0.275383 
93.08931 0.074443 
94.323219 0.090931 
94.52211 0.09781 
95.04895 7.223311 
96.629059 0.079983 
97.520905 0.079952 
98.473953 0.07845 
98.726936 0.075649 
98.940353 0.076072 
100.232239 0.086695 
101.787109 0.088716 
102.552185 0.075805 
102.802315 0.074185 
105.069801 0.555147 
105.630692 0.072494 
107.049049 3.818576 
108.968185 0.078746 
113.22776 0.067377 
113.307465 0.089076 
115.054192 0.107412 
116.10659 0.088535 
117.069763 0.421223 
117.586174 0.085306 
119.049057 7.787238 
119.152229 0.100179 
119.370972 0.078664 
119.529823 0.108747 
120.057014 0.354497 
121.027779 0.087995 
121.064636 1.355035 
122.44046 0.082894 
124.605896 0.09452 
127.019524 0.095405 
128.069733 0.091147 
131.049454 0.085061 
131.979767 0.100592 
132.082474 0.070381 
132.293777 0.104252 
133.028061 0.074666 
133.064789 11.447042 
134.036301 0.095935 
134.579559 0.101159 
135.044037 9.012262 
137.527893 0.088837 
141.521652 0.10539 
142.592346 0.079433 
144.057083 0.088893 
144.06813 0.077808 
145.065155 0.111829 
146.610901 0.069594 
147.044113 6.471878 
148.052032 0.919699 
148.358856 0.080521 
148.676025 0.110932 
149.023529 0.295336 
149.059875 1.926859 
150.45639 0.07198 
151.161774 0.130224 
152.453796 0.121606 
154.803848 0.07599 
156.464218 0.081935 
157.064911 0.082884 
157.101837 0.079282 
157.657669 0.090989 
158.072739 0.209558 
159.043991 0.704916 
159.080444 0.363735 
159.118149 0.085908 
160.052048 2.024142 
161.05986 17.048119 
161.096268 2.192006 
162.063477 0.718483 
162.578827 0.081956 
163.039154 7.305502 
163.454453 0.082744 
164.392075 0.092275 
166.391129 0.082466 
167.077072 0.093028 
171.080734 0.082835 
172.664047 0.093218 
173.059982 19.157763 
173.096375 1.799231 
174.063049 0.512391 
175.039078 0.402097 
175.351639 0.064181 
176.00209 0.085959 
176.010529 0.764667 
176.670776 0.100883 
177.018539 3.639946 
177.054947 4.176909 
178.026245 0.443999 
179.034241 6.089375 
180.85643 0.076247 
183.080734 1.749454 
184.84375 0.089285 
185.060272 0.215504 
185.8022 0.085396 
186.068054 1.237087 
187.075775 13.64915 
188.078964 0.06987 
191.034332 100.0 
192.03978 7.483492 
192.761993 0.102343 
193.045792 0.264225 
195.348602 0.0725 
195.613968 0.092241 
195.638962 0.088779 
197.097153 0.255488 
198.502747 0.095631 
199.07608 0.950209 
199.924637 0.070424 
200.083923 0.601326 
201.091522 11.637954 
201.586273 0.09384 
202.094849 0.276587 
203.034393 24.687248 
204.038025 1.345438 
205.050079 52.686382 
206.053528 6.300481 
207.065216 0.10573 
208.102997 0.091465 
211.532913 0.100642 
213.090561 0.101869 
214.094574 0.09075 
215.107407 2.115506 
217.086365 0.105232 
220.043015 1.268699 
220.057281 1.056912 
225.091049 0.174881 
226.462646 0.088923 
226.820496 0.105353 
227.071106 0.683484 
230.301773 0.092246 
231.066025 6.32791 
234.057266 0.0831 
237.735031 0.122775 
245.081833 12.58556 
246.08493 0.553064 
247.763336 0.096219 
248.62001 0.098613 
249.370758 0.083172 
256.117035 0.108656 
257.082245 0.107245 
266.59552 0.090147 
269.134949 0.096183 
272.893005 0.087292 
278.733215 0.09223 
287.047089 0.100794 
287.172668 0.102686 
291.078522 0.091796 
292.13504 0.095699 
302.413116 0.098263 
309.460266 0.079234 
311.142944 0.104734 
320.194092 0.068679 
320.767212 0.067186 
335.806061 0.100259 
340.830566 0.091351 
344.240601 0.070684 
END IONS

