BEGIN IONS
PEPMASS=338.16
CHARGE=1+
COMPOUNDNAME=Mycophenolic acid
LIBRARYQUALITY=3
SMILES=CC1=C(C(=C(C2=C1COC2=O)O)C/C=C(\C)/CCC(=O)O)OC
INCHIKEY=HPNSFSBZBAHARI-RUDMXATFSA-N
INCHI=N/A
MSLEVEL=2
SOURCE_INSTRUMENT=LC-ESI-qTof
FILENAME=Mycophenolic.mgf
SEQ=*..*
IONMODE=Positive
ORGANISM=GNPS-SELLECKCHEM-FDA-PART1
NAME=Mycophenolic acid M+NH4
PI=Sirenas
DATACOLLECTOR=Ed Esquenazi
PUBMED=N/A
SUBMITUSER=mwang87
TAGS=
SPECTRUMID=CCMSLIB00000005126
SCANS=11
109.06617 39.01873 
159.039658 48.66256 
159.331131 9.450582 
166.994873 20.887409 
177.053818 35.493591 
178.940598 3.345238 
196.063797 19.179489 
205.866104 6.075 
205.920334 12.0704 
206.239746 2.761364 
207.065155 1705.707031 
207.105087 18.371849 
207.124939 4.003205 
207.195831 12.85606 
207.225204 11.45588 
207.248489 9.927083 
207.265152 11.67901 
207.315262 13.6713 
207.375351 3.003205 
207.455368 10.72024 
207.552414 2.208333 
207.588562 12.67262 
207.790726 2.4 
208.423721 1.666667 
208.544327 10.00417 
209.509979 9.797101 
227.263519 2.672619 
261.118347 25.783939 
274.131775 4.0 
275.124878 237.431595 
275.557892 4.366667 
285.110626 128.921295 
285.140137 4.640152 
285.167358 3.355392 
290.816925 4.388889 
292.11557 15.41554 
294.919403 25.00219 
297.09964 46.14846 
303.123047 290.098511 
303.176025 1.833333 
303.197235 2.0 
339.176483 18.01111 
375.325439 11.57407 
537.870667 3.375 
1298.345581 3.333333 
END IONS

