BEGIN IONS
TITLE=Scan Number: 356
PEPMASS=924.51703
CHARGE=1+
COMPOUNDNAME=Amphotericin B
LIBRARYQUALITY=3
SMILES=C[C@H]1/C=C/C=C/C=C/C=C/C=C/C=C/C=C/[C@@H](C[C@H]2[C@@H]([C@H](C[C@](O2)(C[C@H](C[C@H]([C@@H](CC[C@H](C[C@H](CC(=O)O[C@H]([C@@H]([C@@H]1O)C)C)O)O)O)O)O)O)O)C(=O)O)O[C@H]3[C@H]([C@H]([C@@H]([C@H](O3)C)O)N)O
INCHIKEY=APKFDSVGJQXUKY-INPOYWNPSA-N
INCHI=InChI=1S/C47H73NO17/c1-27-17-15-13-11-9-7-5-6-8-10-12-14-16-18-34(64-46-44(58)41(48)43(57)30(4)63-46)24-38-40(45(59)60)37(54)26-47(61,65-38)25-33(51)22-36(53)35(52)20-19-31(49)21-32(50)23-39(55)62-29(3)28(2)42(27)56/h5-18,27-38,40-44,46,49-54,56-58,61H,19-26,48H2,1-4H3,(H,59,60)/b6-5+,9-7+,10-8+,13-11+,14-12+,17-15+,18-16+/t27-,28-,29-,30+,31+,32+,33-,34-,35+,36+,37-,38-,40+,41-,42+,43+,44-,46-,47+/m0/s1
MSLEVEL=2
SOURCE_INSTRUMENT=LC-ESI-qTof
FILENAME=f.amcaraballor/20150108/20150108_COCULTURE_mzXML/AmpB_Blue_P1-A-3_01_17969.mzXML;
SEQ=*..*
NOTES=
IONMODE=Positive
ORGANISM=GNPS-LIBRARY
NAME=Amphotericin B M+H
SPECTRUMID=CCMSLIB00000424806
ACTIVATION=CID
INSTRUMENT=ion trap
SCANS=356
141.084396 484.0 
143.094315 1280.0 
145.106796 784.0 
147.089203 1212.0 
148.096115 356.0 
149.077332 656.0 
151.085144 1264.0 
153.068634 388.0 
155.090256 1172.0 
156.099991 328.0 
157.110107 1440.0 
159.122009 1388.0 
161.072357 648.0 
163.090714 392.0 
165.095566 1288.0 
167.08577 1612.0 
168.08989 408.0 
169.10704 1264.0 
170.114532 600.0 
173.106537 876.0 
175.085953 2504.0 
178.086258 628.0 
179.090775 716.0 
181.104553 1416.0 
182.110291 400.0 
183.118057 1260.0 
184.12561 480.0 
185.092667 1960.0 
186.108856 328.0 
187.107101 744.0 
189.09491 832.0 
191.107498 752.0 
193.0952 5868.0 
194.102982 1208.0 
195.112 340.0 
196.121475 320.0 
197.116699 588.0 
201.1035 344.0 
203.092682 500.0 
205.108231 856.0 
206.121979 328.0 
207.119614 1380.0 
209.126602 1176.0 
210.125565 352.0 
211.104599 6340.0 
212.114059 580.0 
213.115204 360.0 
215.116318 968.0 
217.100571 1228.0 
219.118439 1024.0 
220.121536 336.0 
221.129456 1392.0 
223.141174 656.0 
224.151016 376.0 
225.111633 648.0 
227.12146 728.0 
229.112839 3024.0 
231.118011 948.0 
233.127731 1736.0 
234.134384 396.0 
235.108963 1628.0 
237.120621 1404.0 
239.123566 892.0 
241.104111 428.0 
243.114014 1440.0 
244.110672 412.0 
245.129257 1436.0 
247.131332 1132.0 
248.137909 424.0 
249.138123 440.0 
251.12738 1504.0 
252.139191 680.0 
253.11821 1364.0 
254.115326 556.0 
255.126846 1000.0 
256.132416 524.0 
257.132599 860.0 
259.144897 940.0 
261.121918 892.0 
263.118561 836.0 
265.147186 576.0 
267.177704 11688.0 
268.179901 2004.0 
269.141388 3680.0 
270.140472 768.0 
271.143005 740.0 
273.157318 432.0 
275.159576 448.0 
277.147552 1584.0 
279.12851 2096.0 
281.135956 1008.0 
283.144531 1772.0 
284.144806 760.0 
285.119202 1852.0 
286.126221 444.0 
287.149597 1712.0 
289.15744 528.0 
291.150238 1040.0 
293.153717 376.0 
295.153809 2840.0 
296.151917 632.0 
297.135864 2868.0 
298.140778 384.0 
299.158447 364.0 
301.149414 800.0 
302.153503 408.0 
303.126526 4376.0 
304.1315 460.0 
305.145813 784.0 
307.150238 512.0 
308.14035 344.0 
309.157288 604.0 
310.157745 436.0 
311.164642 392.0 
313.16568 17216.0 
314.169189 2032.0 
315.150055 2732.0 
316.158325 536.0 
317.177246 704.0 
319.159607 984.0 
320.132721 416.0 
321.138092 4220.0 
322.14505 528.0 
323.160522 468.0 
325.163788 344.0 
327.173004 424.0 
329.160431 732.0 
331.169037 884.0 
333.212646 1436.0 
334.166016 320.0 
335.183746 1600.0 
336.175262 884.0 
337.179993 5568.0 
338.187714 1588.0 
339.162231 1364.0 
341.179626 416.0 
343.175262 588.0 
344.171112 332.0 
345.172272 320.0 
347.178101 656.0 
349.144409 636.0 
351.216644 1632.0 
352.217987 344.0 
353.196075 1728.0 
354.190826 468.0 
355.183777 1192.0 
356.192291 544.0 
357.176514 336.0 
358.181915 332.0 
359.187988 356.0 
361.181244 480.0 
363.184265 728.0 
365.186829 776.0 
367.172241 376.0 
369.178741 984.0 
370.193817 492.0 
371.194092 980.0 
372.200165 488.0 
373.177429 324.0 
375.225922 1420.0 
377.209686 2224.0 
378.211365 416.0 
379.195312 876.0 
381.193726 2420.0 
382.192963 696.0 
383.197815 964.0 
384.196075 396.0 
385.197571 848.0 
386.20639 552.0 
387.182617 1668.0 
389.203766 2352.0 
390.214661 1124.0 
391.196655 364.0 
393.227203 764.0 
394.228485 380.0 
395.206604 1016.0 
397.187439 492.0 
398.198181 340.0 
399.210968 880.0 
401.207184 1420.0 
402.233032 472.0 
403.218994 1812.0 
404.227325 796.0 
405.192139 2792.0 
406.193054 764.0 
407.212677 2044.0 
408.221985 620.0 
409.21344 812.0 
413.197174 436.0 
415.188995 724.0 
417.229431 680.0 
419.221863 712.0 
420.216064 588.0 
421.230194 1332.0 
422.240692 624.0 
423.202301 3764.0 
424.205353 852.0 
425.220154 852.0 
426.231964 372.0 
427.229004 568.0 
429.213104 572.0 
433.198944 584.0 
435.250031 716.0 
437.210175 412.0 
439.223236 432.0 
440.226868 344.0 
441.214111 1844.0 
443.239258 408.0 
447.226746 464.0 
449.210419 496.0 
453.226837 580.0 
455.231415 368.0 
457.225555 612.0 
459.241669 688.0 
461.252411 608.0 
462.263702 472.0 
463.247223 512.0 
465.238251 572.0 
467.219025 460.0 
468.223206 360.0 
469.241547 436.0 
471.231415 688.0 
473.23111 420.0 
474.232086 380.0 
475.221344 452.0 
479.252441 484.0 
481.260437 420.0 
485.24826 524.0 
487.260315 1088.0 
489.270081 696.0 
491.241882 768.0 
493.229919 396.0 
499.236145 1224.0 
501.251984 608.0 
505.266937 1248.0 
506.272461 496.0 
507.272736 888.0 
509.234711 760.0 
510.255493 368.0 
513.255615 448.0 
515.252869 716.0 
516.257751 396.0 
517.247742 1356.0 
519.265442 556.0 
521.240295 428.0 
523.277222 756.0 
525.283875 1132.0 
527.270691 624.0 
531.27478 404.0 
533.259705 2056.0 
534.265747 372.0 
535.252808 2092.0 
536.251831 544.0 
538.245056 388.0 
542.291504 340.0 
543.268005 864.0 
551.273071 3680.0 
552.267273 1560.0 
553.274902 760.0 
561.280884 856.0 
562.26355 356.0 
563.273193 364.0 
569.286865 3076.0 
570.288086 1124.0 
571.287048 668.0 
577.279236 428.0 
587.292603 4112.0 
588.295898 1128.0 
589.306519 476.0 
591.344421 328.0 
593.304077 364.0 
594.329041 396.0 
595.286804 320.0 
599.311707 340.0 
603.304932 448.0 
605.311096 1812.0 
606.306091 708.0 
607.333679 492.0 
609.35022 736.0 
610.355286 324.0 
611.31665 368.0 
615.294189 808.0 
617.318054 588.0 
621.295776 464.0 
623.312256 840.0 
625.3479 592.0 
627.363708 992.0 
628.365967 492.0 
629.335022 352.0 
633.304077 404.0 
635.335083 1600.0 
636.348389 656.0 
641.33197 572.0 
642.322021 348.0 
643.357178 504.0 
645.360657 876.0 
646.371277 420.0 
652.306213 356.0 
653.34314 5040.0 
654.34906 2304.0 
655.358093 532.0 
663.390564 712.0 
671.354858 11336.0 
672.358582 5996.0 
673.361389 1124.0 
674.367004 416.0 
681.395081 328.0 
689.36676 11400.0 
690.36792 5272.0 
691.375366 964.0 
707.374634 10876.0 
708.380615 4384.0 
709.386414 1664.0 
725.389099 11964.0 
726.387573 6256.0 
727.394592 1504.0 
743.399536 26248.0 
744.401245 12824.0 
745.403992 2888.0 
746.402954 424.0 
761.4104 1000.0 
762.418457 524.0 
888.468567 400.0 
889.472778 332.0 
906.479187 1612.0 
907.487671 636.0 
921.997803 560.0 
END IONS

