BEGIN IONS
PEPMASS=298.201
CHARGE=1+
COMPOUNDNAME=(1R,2E,7R,10E,12S,13S,15R)-12,15-dihydroxy-7-methyl-8-oxabicyclo[11.3.0]hexadeca-2,10-dien-9-one
LIBRARYQUALITY=3
SMILES=N/A
INCHIKEY=KQNZDYYTLMIZCT-SWGFJCPHSA-N
INCHI=InChI=1S/C16H24O4/c1-11-5-3-2-4-6-12-9-13(17)10-14(12)15(18)7-8-16(19)20-11/h4,6-8,11-15,17-18H,2-3,5,9-10H2,1H3/b6-4+,8-7+/t11-,12+,13-,14+,15+/m1/s1
MSLEVEL=2
SOURCE_INSTRUMENT=N/A-ESI-QFT
FILENAME=library_mgf.mgf
SEQ=*..*
IONMODE=positive
ORGANISM=MONA
NAME=(1R,2E,7R,10E,12S,13S,15R)-12,15-dihydroxy-7-methyl-8-oxabicyclo[11.3.0]hexadeca-2,10-dien-9-one [M+NH4]+
PI=MoNA
DATACOLLECTOR=MoNA:VF-NPL-QEHF022880
PUBMED=N/A
SUBMITUSER=mwang87
TAGS=
SPECTRUMID=CCMSLIB00004713943
SCANS=22880
50.001324 0.016972 
50.627651 0.022194 
51.006496 0.010894 
51.140491 0.017803 
51.940342 0.013537 
53.002628 0.075835 
55.018181 0.221403 
55.054543 1.512493 
55.674797 0.019508 
55.93475 0.032535 
56.049778 0.168603 
56.863335 0.019787 
56.965088 0.575517 
57.033791 0.331918 
57.070175 7.505054 
57.729362 0.009522 
57.825989 0.019618 
57.935047 0.00994 
58.065418 1.608524 
58.073498 0.270096 
58.197758 0.019937 
58.313545 0.00903 
58.530254 0.028422 
58.736099 0.027433 
58.738808 0.009264 
59.049416 0.744194 
59.050808 0.009832 
60.044678 0.052024 
60.10025 0.015133 
60.518173 0.009611 
60.957981 0.051739 
61.010895 4.355632 
61.929497 0.0275 
62.0187 0.702721 
62.060219 0.035435 
62.981972 0.281764 
62.990238 0.050637 
63.006741 0.027207 
63.522778 0.020649 
63.632225 0.009439 
63.912537 0.010001 
64.569298 0.021262 
65.356247 0.009487 
67.054382 2.430638 
67.243126 0.010659 
67.324905 0.008084 
67.818115 0.030417 
68.049492 0.018191 
68.272827 0.022984 
68.31559 0.034229 
68.451469 0.018067 
68.908363 0.03218 
69.033607 0.222197 
69.069984 1.787175 
69.347084 0.02445 
69.726379 0.044234 
70.028831 0.021194 
70.065186 0.552064 
70.367874 0.011264 
70.568451 0.027147 
71.049217 0.437677 
71.085602 4.237291 
71.902588 0.010259 
72.044464 0.172781 
72.080833 2.2404 
72.08905 0.064614 
72.238533 0.009687 
72.342003 0.010677 
72.373238 0.022092 
72.717369 0.015591 
72.937218 0.199489 
73.028435 0.116646 
73.04689 0.427163 
73.064804 0.296607 
73.351128 0.010165 
74.096466 25.481165 
74.602432 0.022276 
75.026131 0.011195 
75.099823 0.936938 
75.273598 0.027514 
76.707123 0.009629 
78.505356 0.029712 
78.573303 0.019114 
78.643272 0.023133 
78.806381 0.029147 
79.021225 1.255599 
79.054237 1.354282 
79.437134 0.022768 
79.47393 0.009153 
79.619057 0.009764 
79.999207 0.025773 
80.049438 0.12449 
80.057617 0.048674 
80.59568 0.011234 
80.652061 0.022361 
80.775566 0.010214 
81.018547 0.194856 
81.033485 0.36095 
81.069908 3.468437 
82.065018 0.05517 
82.073227 0.076269 
82.540863 0.016545 
83.049171 0.384298 
83.085503 1.185405 
83.439957 0.020458 
84.044464 0.163124 
84.080795 0.391608 
85.028481 0.093104 
85.064827 0.465638 
85.101227 2.380296 
86.060036 0.139638 
86.096405 0.020498 
86.782379 0.026046 
87.044128 4.169849 
87.047142 0.038062 
88.039337 2.403051 
88.047394 0.041389 
88.075722 0.029199 
88.089142 0.016922 
88.189125 0.025096 
88.952438 0.030975 
89.059746 32.235676 
89.963745 0.180538 
90.276733 0.0108 
90.947731 0.221019 
91.05426 4.245514 
91.057404 2.409996 
92.057518 0.367342 
92.060661 0.009432 
92.650177 0.018247 
92.982727 0.016032 
93.036758 0.017708 
93.054085 0.010157 
93.069939 1.973621 
93.261986 0.027313 
94.026421 0.098203 
94.065178 0.019675 
94.073425 0.020845 
95.049156 0.477171 
95.085548 3.142673 
95.516968 0.020525 
96.080582 0.019565 
96.088844 0.069907 
97.06488 0.26502 
97.101227 0.479521 
97.542557 0.023769 
98.060135 0.179573 
98.096436 0.057638 
98.984184 0.030617 
99.044075 0.101389 
99.080498 0.293876 
100.039467 0.04353 
100.075676 0.172513 
101.059753 0.037703 
101.183418 0.03106 
102.055122 0.072718 
102.948318 0.038983 
103.039024 1.648203 
103.054008 0.068414 
103.07531 0.100268 
104.710297 0.016738 
105.069946 1.571228 
106.065331 0.020238 
106.963631 0.068646 
107.008057 0.106793 
107.049141 1.027484 
107.070312 0.859476 
107.085564 1.403138 
108.016426 0.152888 
108.052589 0.016625 
108.080757 0.083061 
108.446198 0.011022 
108.958382 0.060037 
109.064781 0.326781 
109.101196 1.225508 
109.292259 0.009978 
110.060059 0.104353 
110.104485 0.025811 
111.044121 0.093355 
111.080444 0.118262 
112.075546 0.058609 
112.947548 0.015779 
113.059708 0.190637 
113.096008 0.037853 
113.827209 0.024237 
114.055031 0.014891 
116.052811 0.074896 
116.107277 0.016715 
116.958702 0.013372 
116.963226 0.531452 
116.984947 0.137503 
117.069847 1.075578 
118.073692 0.03081 
118.646843 0.010836 
118.943108 0.012852 
118.963676 0.018549 
118.979919 0.015055 
119.049171 0.015679 
119.085533 1.270623 
119.943687 0.129159 
119.95649 0.175092 
120.080788 0.060203 
120.088821 0.016443 
120.251404 0.02127 
120.940422 0.032237 
121.023781 0.034874 
121.028595 0.057757 
121.064842 5.824292 
121.075493 0.015633 
121.101196 0.868662 
122.068001 0.065009 
122.096413 0.02942 
122.104729 0.012193 
122.651863 0.018503 
122.904808 0.015666 
122.939278 0.114438 
123.044037 0.131146 
123.080498 0.20044 
123.116829 0.347342 
125.060097 0.011474 
125.096146 0.039918 
127.129417 0.016419 
128.070572 0.275716 
128.963577 0.113864 
129.012909 0.017857 
129.069763 0.511288 
129.987473 0.036217 
130.073532 0.014907 
130.506302 0.10113 
130.963303 0.017794 
130.978592 0.015382 
131.000336 0.061131 
131.007751 0.035699 
131.049149 0.015859 
131.070282 0.206704 
131.085571 0.793231 
131.974426 0.017519 
132.958313 0.215116 
133.064835 0.464526 
133.085892 4.937338 
133.101181 0.919835 
133.959259 0.04949 
134.096527 0.071969 
134.104095 0.022617 
134.957809 0.256715 
134.973923 0.745763 
134.978882 0.202874 
134.996262 0.087366 
135.044128 0.014075 
135.080429 0.318253 
135.116821 0.287166 
135.351349 0.009488 
136.075699 0.14045 
136.805161 0.024102 
136.974442 0.981361 
137.011871 0.142378 
137.023224 0.367368 
137.059784 0.407254 
137.096085 0.022213 
137.132935 0.019613 
137.954269 0.142513 
137.96698 0.207218 
138.018066 0.189929 
138.055725 0.024308 
138.091492 0.013131 
138.126587 0.014604 
138.915955 0.009441 
138.95105 0.041087 
138.971512 0.452359 
139.111618 0.012222 
140.071182 0.02126 
141.054672 0.033539 
141.127335 0.017607 
141.421402 0.009235 
141.904007 0.009828 
142.086227 0.036053 
143.085556 0.443289 
144.107605 0.02279 
144.958939 0.030081 
145.065018 0.033615 
145.101212 0.482372 
145.153702 0.032619 
146.096329 0.025957 
146.104477 0.010381 
146.974533 0.404572 
147.044037 0.033279 
147.080444 0.213824 
147.116806 0.251611 
147.974838 0.282774 
148.075806 0.054449 
148.112061 0.160046 
148.771973 0.029744 
148.955811 3.217817 
148.971756 1.731333 
148.989502 0.019548 
149.02388 0.0321 
149.060242 0.072396 
149.096252 0.026559 
149.132614 0.097065 
149.785522 0.020724 
149.954254 7.653977 
150.091064 0.017838 
150.127747 0.04316 
150.951111 1.663024 
150.968857 0.105061 
151.075439 0.015494 
151.096207 0.01182 
152.95163 0.017024 
152.967896 0.159859 
152.989426 0.336222 
153.959259 0.085417 
154.947006 0.092911 
154.965973 0.019871 
154.984909 0.078183 
155.022034 0.05955 
155.085907 0.026037 
155.954758 0.141609 
156.944839 0.029201 
156.982101 0.732941 
157.013718 0.017199 
157.101166 0.333225 
157.952026 0.224318 
157.966507 0.084824 
158.0112 0.024343 
158.190323 0.406294 
158.974854 0.018027 
158.995819 0.014087 
159.116898 0.337554 
159.975113 0.079903 
159.98233 0.084718 
159.990723 0.027202 
160.955795 0.036936 
160.974258 0.038674 
160.98967 0.017703 
161.059753 0.025966 
161.095978 0.037539 
161.132492 0.25633 
161.963394 0.009715 
162.898254 0.009601 
162.96933 0.018272 
162.989822 0.104103 
163.038895 0.115763 
163.075134 0.04641 
163.111664 0.018004 
163.148407 0.061022 
163.309738 0.009133 
163.942688 0.012621 
163.977097 0.280807 
164.107086 0.057318 
164.985428 0.046563 
165.050018 0.153226 
166.966339 1.739082 
166.98259 0.364295 
167.571915 0.015861 
167.964798 4.218724 
167.977295 0.012794 
168.961594 0.859108 
168.983734 0.020622 
169.101471 0.029851 
170.011047 0.040407 
170.694107 0.015665 
171.116592 0.035701 
172.005341 0.05026 
172.02684 0.022703 
172.957886 0.053296 
172.975525 0.040262 
173.132751 0.101823 
173.963837 0.066313 
174.00589 0.711222 
174.022064 0.019194 
174.956314 0.010215 
174.991547 0.517397 
175.07486 0.025093 
175.111893 0.017769 
175.148438 0.055374 
175.977112 0.277556 
176.02095 0.025591 
176.983978 0.028218 
177.112167 0.218272 
177.127075 0.016208 
177.992874 0.197092 
178.966156 0.305899 
178.98465 0.279805 
179.000122 0.328721 
179.022339 0.016817 
179.954529 0.022586 
180.980576 0.146853 
181.000275 0.090344 
181.953598 0.026808 
181.988205 0.02347 
182.996124 0.045885 
185.132431 0.514172 
185.975967 0.011747 
186.021103 0.020661 
186.033478 0.010806 
186.221512 0.39385 
187.944778 0.011131 
188.021454 0.322104 
188.967438 0.496731 
189.090958 0.018062 
189.849991 0.015912 
189.941772 0.06743 
189.974625 0.019778 
190.947449 0.020214 
190.966156 0.33839 
191.021866 0.015524 
192.961929 0.299318 
193.002213 0.158379 
193.044922 0.031874 
193.13176 0.022816 
194.978378 0.017153 
195.06044 0.194174 
195.984879 0.021668 
196.883621 0.009782 
196.95726 0.026814 
199.148209 0.2191 
199.169815 0.031234 
200.153046 0.031072 
202.159271 0.055433 
202.965439 0.03308 
203.142761 0.027932 
203.881683 0.020362 
203.964859 0.175774 
204.396988 0.023841 
204.961807 0.061723 
205.133499 0.022914 
206.977737 7.323798 
206.995422 0.020648 
207.674591 0.039175 
207.976807 0.322788 
207.986832 1.269683 
208.975403 0.390929 
208.98671 0.044747 
209.011505 0.144524 
209.076508 0.032726 
209.09613 0.033224 
209.938965 0.016758 
210.185944 0.02885 
210.971924 0.017602 
211.11174 0.016195 
212.143188 0.087192 
213.056946 0.011414 
215.270355 0.561858 
218.995026 0.020862 
220.017548 0.024303 
220.169678 0.226633 
220.956909 0.07633 
221.975266 0.353305 
222.898544 0.049807 
223.451141 0.021449 
223.892319 0.012629 
225.042999 0.702676 
226.042725 0.029955 
226.179749 0.024468 
227.022003 0.015408 
227.040497 0.012122 
228.671432 0.02413 
229.104736 0.327957 
229.172516 0.018966 
230.044754 0.069914 
230.154678 0.05091 
230.906738 0.107042 
232.05983 0.027223 
232.904846 0.112976 
236.202789 0.030583 
236.937973 0.057494 
237.027924 0.021959 
237.041504 0.022656 
237.157974 0.05674 
238.179993 0.157249 
238.216415 0.150766 
238.953445 0.038369 
238.967743 1.281868 
239.968536 0.043947 
240.138 0.073116 
240.909531 0.157984 
241.060074 0.031678 
242.082626 0.169929 
242.797119 0.010429 
242.909988 0.018429 
243.076309 0.322061 
244.170532 0.022749 
244.26387 0.044127 
244.921936 0.039579 
246.400177 0.022385 
246.803772 0.011368 
246.883804 0.033103 
248.074463 0.012647 
248.902252 0.181813 
248.917007 0.107751 
253.997589 0.03131 
254.47406 0.013838 
254.949112 0.029034 
255.899094 0.055551 
256.122314 0.010321 
257.099823 0.058574 
257.896881 0.00839 
259.071381 0.038743 
259.933044 0.010709 
260.073456 0.016404 
261.086884 0.39703 
262.180298 0.084789 
262.894226 0.010259 
265.019836 0.197806 
266.999115 2.32525 
267.034912 0.009775 
267.999298 0.37936 
268.097198 0.743724 
268.978668 1.534053 
268.995575 0.15652 
269.411316 0.017532 
269.978729 0.144827 
270.994019 0.150115 
272.916962 0.010111 
275.811005 0.040816 
280.190674 0.220195 
281.051117 0.255338 
281.16452 0.069417 
282.051544 0.036239 
282.136505 0.026752 
282.994141 0.157118 
283.030548 6.632471 
283.120331 0.36945 
283.173431 0.011467 
283.820312 0.013269 
284.030701 1.567239 
284.152679 0.018779 
285.009552 1.337423 
285.02774 0.798465 
285.046204 0.25873 
286.009644 0.101529 
286.028534 0.028844 
286.0466 0.051695 
286.932251 0.020837 
289.004822 0.018968 
294.451111 0.025995 
296.093597 0.020862 
296.295013 0.031871 
296.331604 0.011873 
297.045929 0.188101 
297.092163 2.4565 
297.160156 0.166774 
297.196228 0.614214 
297.277588 0.023843 
298.095062 0.247563 
298.109039 0.094924 
298.126282 0.364841 
298.143616 1.807794 
298.199829 0.034285 
298.217651 0.01425 
298.346771 100.0 
299.061646 4.752307 
299.0961 0.020452 
299.144531 0.161917 
299.177032 0.159099 
299.212891 0.055269 
299.350342 21.416294 
300.061829 1.197758 
300.17041 0.045094 
300.195282 0.017829 
300.215393 0.019148 
300.326477 0.048296 
300.353729 1.188915 
300.822845 0.018016 
301.05896 0.487331 
302.060089 0.014743 
303.020599 0.080814 
307.801056 0.032562 
310.844238 0.041003 
314.768311 0.010403 
316.120789 0.012686 
324.823486 0.012491 
END IONS

