BEGIN IONS
PEPMASS=477.107
CHARGE=1+
COMPOUNDNAME=MoNA:963174 Chlortetracycline
LIBRARYQUALITY=3
SMILES=N/A
INCHIKEY=DHPRQBPJLMKORJ-UHFFFAOYSA-N
INCHI=InChI=1S/C22H23ClN2O8/c1-21(32)7-6-8-15(25(2)3)17(28)13(20(24)31)19(30)22(8,33)18(29)11(7)16(27)12-10(26)5-4-9(23)14(12)21/h4-5,7-8,15,26-27,30,32-33H,6H2,1-3H3,(H2,24,31)
MSLEVEL=2
SOURCE_INSTRUMENT=LC-ESI-QFT-LC-ESI-QFT
FILENAME=output_mgf.mgf
SEQ=*..*
IONMODE=
ORGANISM=MONA
NAME=MoNA:963174 Chlortetracycline [M-H]-
PI=MoNA
DATACOLLECTOR=MoNA
PUBMED=N/A
SUBMITUSER=mwang87
TAGS=
SPECTRUMID=CCMSLIB00000568503
SCANS=5754
50.0036 15.09545 
51.0238 2.344126 
53.0031 2.280044 
55.0189 5.62459 
59.0137 1.235893 
62.0161 1.671684 
63.024 14.037507 
65.0033 41.268691 
65.0397 21.220587 
65.9985 100.0 
67.019 2.117568 
68.0141 1.953242 
68.9983 18.980742 
73.0084 5.15886 
75.0242 1.607939 
77.0033 2.125305 
81.0346 1.779665 
89.0033 2.586999 
89.0397 10.350349 
91.0189 3.161719 
93.0346 11.644942 
101.0398 1.498444 
103.0187 1.95711 
108.0217 3.131949 
113.0398 1.654697 
117.0345 5.371121 
END IONS

