BEGIN IONS
PEPMASS=155.07
CHARGE=1+
COMPOUNDNAME=terrein
LIBRARYQUALITY=3
SMILES=N/A
INCHIKEY=MHOOPNKRBMHHEC-HZIBQTDNSA-N
INCHI=InChI=1S/C8H10O3/c1-2-3-5-4-6(9)8(11)7(5)10/h2-4,7-8,10-11H,1H3/b3-2+/t7-,8-/m0/s1
MSLEVEL=2
SOURCE_INSTRUMENT=N/A-ESI-QFT
FILENAME=library_mgf.mgf
SEQ=*..*
IONMODE=positive
ORGANISM=MONA
NAME=terrein [M+H]+
PI=MoNA
DATACOLLECTOR=MoNA:VF-NPL-QEHF021222
PUBMED=N/A
SUBMITUSER=mwang87
TAGS=
SPECTRUMID=CCMSLIB00004712285
SCANS=21222
50.087856 0.002043 
50.504173 0.003193 
50.785759 0.002076 
50.881035 0.002847 
50.949436 0.002821 
50.972588 0.00521 
51.014889 0.00362 
51.212177 0.001617 
51.475105 0.001755 
51.476418 0.065538 
51.554371 0.002409 
53.038868 0.0152 
53.105324 0.00288 
53.130428 0.002624 
53.147087 0.002572 
53.181683 0.002117 
53.19331 0.002108 
53.263145 0.002599 
53.524586 0.003348 
53.621265 0.001967 
53.858738 0.002306 
54.142281 0.003013 
54.225498 0.002077 
54.361267 0.003482 
54.470547 0.002546 
54.486042 0.002993 
54.586151 0.003426 
54.85191 0.001917 
54.920692 0.001664 
54.993233 0.001757 
55.050472 0.002853 
55.054512 0.05229 
55.524338 0.00294 
55.685802 0.002675 
55.934948 0.001553 
55.96386 0.001694 
56.00222 0.032866 
56.049797 0.003781 
56.071056 0.002955 
56.549343 0.002682 
56.668686 0.003343 
56.865967 0.002109 
56.965057 7.349303 
57.046173 0.003121 
57.106163 0.001921 
57.238804 0.003188 
57.44899 0.003266 
57.935074 0.007662 
58.065365 0.105338 
58.292107 0.001739 
58.393333 0.002753 
58.698261 0.002238 
58.863033 0.002816 
58.932972 0.003675 
58.961025 0.037039 
58.987896 0.558587 
59.525715 0.002506 
59.789185 0.003198 
59.930458 0.10227 
59.977604 0.092608 
59.985912 0.01772 
59.988117 0.002972 
60.11364 0.002738 
60.311409 0.001915 
60.346096 0.002656 
60.481449 0.493712 
60.522362 0.001523 
60.957867 0.281976 
60.98455 0.006464 
61.010857 2.540517 
61.20908 0.003489 
61.364372 0.002263 
61.366142 0.001835 
61.479393 0.016162 
61.518154 0.003057 
61.550343 0.003273 
61.975082 0.00327 
62.018681 0.581307 
62.340355 0.002003 
62.386364 0.002749 
62.990086 1.485883 
63.006477 0.003119 
63.089649 0.002646 
63.500282 0.00153 
63.942329 0.003502 
63.997902 7.125969 
64.027405 0.003146 
64.20713 0.002866 
64.379433 0.001847 
64.819351 0.002904 
64.930489 0.002825 
64.985863 0.02272 
64.997284 0.005789 
65.140846 0.002796 
65.705978 0.002153 
65.993675 0.148176 
66.772049 0.003298 
67.054359 0.034425 
67.155022 0.003193 
67.993034 2.981509 
68.219002 0.005057 
68.49276 0.021359 
68.494766 0.087579 
68.54908 0.001986 
68.573273 0.002663 
68.824883 0.00329 
68.982674 0.426791 
68.990944 0.378969 
69.069946 0.005019 
69.35556 0.002928 
69.374985 0.003253 
69.484406 0.005019 
69.48658 2.525249 
69.514206 0.002018 
69.844917 0.002065 
69.980537 0.002577 
69.986168 0.004763 
69.989586 0.102449 
70.065231 0.022851 
70.354851 0.002494 
70.484512 0.26153 
70.681702 0.003477 
70.980362 0.06649 
71.091698 0.003071 
71.261124 0.002397 
71.398796 0.002586 
71.483086 0.047687 
71.485146 0.001891 
71.648727 0.002368 
71.691856 0.002278 
71.951988 0.00323 
72.912872 0.003071 
73.076042 0.120314 
73.417587 0.002692 
73.863319 0.002899 
73.923782 0.001681 
73.956047 0.006711 
74.399841 0.002895 
74.405357 0.003558 
74.928337 0.00237 
74.930855 0.011442 
74.975372 1.434229 
75.000832 0.018742 
75.113441 0.002372 
75.437492 0.003157 
75.584343 0.003521 
76.039261 0.002805 
76.139915 0.002203 
76.494431 0.021875 
76.814095 0.00362 
76.927979 0.279089 
76.994408 0.023374 
76.998283 36.580826 
77.497887 0.536775 
77.500015 1.794269 
77.987946 0.772161 
77.996208 5.063869 
78.00032 0.316541 
78.013489 0.069816 
78.491852 5.947621 
78.496078 0.022332 
78.968231 0.025913 
78.985939 0.020362 
78.99189 0.036511 
78.994743 1.971192 
78.997185 0.00714 
79.01693 0.01284 
79.02121 36.961185 
79.05423 0.111971 
79.489677 0.562139 
79.493904 0.019662 
79.92675 0.002121 
79.984634 0.002675 
79.992699 0.02422 
80.020439 0.029281 
80.024605 0.266139 
80.488289 0.194644 
80.993187 0.044445 
81.016975 0.565438 
81.044769 0.024849 
81.069893 0.134241 
81.751076 0.002555 
81.974846 0.002672 
82.06501 0.002108 
82.467361 0.017445 
82.502342 0.001969 
82.971275 0.100039 
83.04921 0.03358 
83.060394 0.05154 
83.08548 0.008276 
83.162018 0.002497 
84.003273 0.003725 
84.006088 1.017203 
84.08078 0.205659 
84.507713 0.011532 
84.62384 0.002741 
84.99604 0.002888 
85.004005 0.073292 
85.053474 0.003141 
85.252548 0.002161 
85.499771 0.127206 
85.52108 0.003699 
85.783371 0.004738 
85.786705 0.002464 
85.992241 0.009708 
85.998657 0.12067 
86.00354 100.0 
86.060059 0.001934 
86.221992 0.003901 
86.224655 0.005127 
86.505486 4.550698 
86.509567 0.004404 
86.993294 0.087532 
87.001472 13.853341 
87.005516 0.97346 
87.166573 0.003276 
87.497101 1.880951 
87.501617 0.241642 
87.735138 0.003138 
87.848595 0.003036 
88.000008 6.15918 
88.246262 0.003703 
88.494972 0.147359 
88.499405 0.018112 
88.501869 0.029305 
88.506371 0.1129 
88.861595 0.002207 
88.951767 0.001918 
88.99791 0.157831 
89.002296 0.004943 
89.493484 0.039818 
89.97908 0.077197 
89.998604 0.220843 
90.479736 0.007683 
90.482903 1.530451 
90.97718 0.010534 
90.982307 0.011367 
90.984741 0.073221 
91.054092 0.012785 
91.057259 0.005842 
91.472946 0.008511 
91.480789 0.460538 
91.976486 0.421843 
92.442261 0.002863 
92.470795 0.002829 
92.479233 0.067406 
92.833916 0.00311 
92.974304 0.062109 
92.985847 0.022171 
93.011383 3.54684 
93.044945 0.018826 
93.513252 0.13994 
93.973198 0.004107 
94.009254 0.41299 
94.013031 0.01092 
94.504723 0.015566 
95.008842 24.898758 
95.049217 0.003973 
95.06028 0.004742 
95.085251 0.002212 
95.510933 1.092952 
96.006737 3.477141 
96.010628 0.271115 
96.031876 0.003309 
96.04435 0.007695 
96.080742 0.016354 
96.502548 0.00934 
96.507095 0.0193 
97.005356 1.563443 
97.507111 0.001433 
97.511551 0.428261 
97.717644 0.002731 
97.896469 0.002719 
97.994591 0.328866 
98.003189 0.018321 
98.496559 0.008018 
98.509422 0.013713 
98.515045 0.004896 
98.984383 0.566709 
98.992569 0.064994 
99.003853 0.009548 
99.48822 20.659124 
99.507874 0.0054 
99.982208 0.126231 
99.990295 1.574967 
100.019424 0.007936 
100.478249 0.045956 
100.486168 6.821397 
100.490089 0.231207 
100.981873 0.743944 
100.987793 0.156957 
101.10717 0.009909 
101.484688 1.673222 
101.75415 0.003924 
101.97963 0.174814 
101.986252 0.003293 
102.01667 0.766384 
102.482697 0.058402 
102.864525 0.003194 
102.95253 0.010565 
103.014679 0.059428 
103.483238 0.016006 
104.014038 0.415437 
104.687614 0.002591 
105.011848 0.014573 
106.019356 0.005739 
106.195839 0.003534 
106.49604 0.507363 
106.516785 0.025859 
106.999954 3.888772 
107.49395 0.114728 
107.501968 0.481157 
107.585724 0.002276 
107.989655 1.112933 
107.993324 0.011349 
107.994133 0.011817 
107.99791 1.366392 
108.001907 0.056746 
108.044128 0.003212 
108.487076 0.020861 
108.493469 53.135181 
108.802521 0.003342 
108.987198 0.188059 
108.995049 4.892864 
109.046234 0.003442 
109.052162 0.016435 
109.064537 0.004267 
109.076065 0.002464 
109.101006 0.001935 
109.491402 18.148579 
109.494926 0.779537 
109.987 0.420161 
109.992813 0.554906 
109.997116 0.003216 
110.059914 0.009958 
110.071281 0.435891 
110.096603 0.003486 
110.489845 4.617909 
110.984924 0.082035 
110.991753 0.048677 
110.995995 0.035407 
111.091782 0.002007 
111.487892 0.362453 
111.491684 0.006287 
111.983368 0.006702 
111.993904 0.008606 
112.488594 0.135183 
114.007935 0.036315 
114.624908 0.002488 
114.627655 0.003424 
115.005867 0.004969 
115.501328 1.755587 
116.005302 7.200648 
116.499443 0.574909 
116.507141 0.943825 
116.966431 0.002183 
116.995209 0.075868 
117.003174 2.499958 
117.007378 0.141568 
117.498787 7.818562 
117.993332 0.011371 
118.001221 1.099326 
118.275223 0.003149 
118.496719 2.639158 
118.50087 0.149231 
118.634712 0.002717 
118.947533 0.029477 
118.998672 0.03667 
119.241852 0.002319 
119.324936 0.003652 
119.495186 0.718583 
119.907356 0.003157 
119.997078 0.00376 
120.001411 0.17966 
120.493027 0.00396 
120.502754 0.006493 
120.608368 0.00235 
120.999451 0.01296 
121.493576 0.007231 
121.605965 0.003164 
121.833786 0.002833 
122.187012 0.002363 
123.013031 0.189049 
124.0112 0.022982 
124.039345 0.026346 
124.500954 0.003287 
124.506615 0.203475 
124.517906 0.00162 
124.768959 0.003382 
125.010551 0.370913 
125.047203 0.163048 
125.504585 0.026343 
125.511742 0.01366 
125.819321 0.001951 
126.008369 0.058391 
126.028 0.003637 
126.050644 0.002012 
126.503548 0.016564 
126.789589 0.003489 
127.006706 0.003037 
127.033264 0.003785 
127.272247 0.002209 
127.807335 0.002111 
128.585556 0.003478 
128.884552 0.003762 
130.215546 0.002978 
130.98172 0.00234 
131.796707 0.00318 
133.458847 0.004944 
134.517242 0.002742 
134.97879 0.183796 
135.002289 0.00245 
135.431732 0.002337 
136.075806 0.045986 
136.974762 0.00941 
137.107422 0.004838 
137.91803 0.011955 
138.955063 0.003169 
140.984467 0.001888 
141.829102 0.003214 
142.744659 0.003833 
143.189835 0.001819 
143.726852 0.002319 
144.523102 0.002531 
145.262909 0.002882 
146.018982 0.001917 
148.039246 0.002654 
149.673508 0.002268 
150.643112 0.001891 
151.487152 0.002612 
152.98938 0.090738 
153.617523 0.00234 
153.958954 0.00308 
154.086197 0.128709 
154.133987 0.017022 
154.984909 0.003082 
154.99556 0.002997 
155.08963 0.003633 
155.118134 0.001894 
155.15448 0.013909 
155.928406 0.003387 
156.537033 0.001932 
156.544464 0.003539 
156.88446 0.003341 
157.04213 0.002909 
158.199173 0.00329 
159.122726 0.006229 
160.956863 0.00299 
161.675919 0.003358 
165.445114 0.004518 
166.785767 0.003688 
166.916229 0.001967 
167.939606 0.002675 
168.018478 0.002987 
169.007095 0.002936 
169.181183 0.003871 
169.816803 0.002972 
171.545883 0.003397 
171.911728 0.00321 
172.688522 0.003324 
174.809906 0.002594 
175.756882 0.003292 
176.463608 0.003279 
177.564835 0.001935 
179.354599 0.003831 
179.924362 0.003234 
END IONS

