BEGIN IONS
PEPMASS=544.182
CHARGE=1+
COMPOUNDNAME=Massbank: Doxorubicin
LIBRARYQUALITY=3
SMILES=c(=O)(c12)c(c5O[H])c(c(O[H])c(c35)C(C(C(=O)C([H])([H])O[H])(C(C3(OC([H])(C([H])([H])4)OC([H])(C([H])(O[H])C([H])(N([H])[H])4)C([H])([H])[H])[H])([H])[H])O[H])([H])[H])c(c1c(c(c(c2OC([H])([H])[H])[H])[H])[H])=O
INCHIKEY=AOJJSUZBOXZQNB-UHFFFAOYSA-N
INCHI=1S/C27H29NO11/c1-10-22(31)13(28)6-17(38-10)39-15-8-27(36,16(30)9-29)7-12-19(15)26(35)21-20(24(12)33)23(32)11-4-3-5-14(37-2)18(11)25(21)34/h3-5,10,13,15,17,22,29,31,33,35-36H,6-9,28H2,1-2H3
MSLEVEL=2
SOURCE_INSTRUMENT=ESI-LC-ESI-QTOF
FILENAME=Massbank_ESI_positive_8_1_2014_peaks.mgf
SEQ=*..*
IONMODE=Positive
ORGANISM=MASSBANK
NAME=Massbank: Doxorubicin [M+H]+
PI=Putative Massbank Match
DATACOLLECTOR=Massbank
PUBMED=N/A
SUBMITUSER=mwang87
TAGS=
SPECTRUMID=CCMSLIB00000206120
SCANS=1380
58.0649 503.418 
60.0437 368.961 
67.0535 136.281 
68.0489 117.024 
69.0328 627.507 
71.049 761.964 
72.0443 1900.638 
84.0816 163.058 
86.0602 5157.247 
91.0545 114.061 
95.0491 399.499 
105.0338 115.77 
112.0766 243.505 
113.0601 793.87 
121.0652 787.83 
130.0862 526.322 
131.0494 153.259 
133.028 208.409 
135.0442 1122.037 
145.029 404.74 
157.0284 105.424 
185.0259 129.444 
203.0335 135.141 
217.0525 310.278 
231.0805 224.818 
234.0696 131.267 
237.0888 120.328 
247.0764 423.428 
259.0758 424.111 
261.0583 204.763 
262.0623 253.418 
265.0864 127.621 
274.062 122.265 
275.0693 504.216 
277.0849 238.719 
278.0567 237.124 
287.0703 1076.572 
289.0519 314.38 
290.0562 728.236 
293.0796 363.149 
302.0583 191.317 
303.0646 534.982 
304.0727 156.335 
305.0781 426.846 
306.0519 4736.782 
307.0593 231.996 
308.0671 149.954 
315.0642 496.126 
317.0441 112.489 
318.0528 533.045 
319.0608 128.304 
321.0762 2496.582 
323.0808 129.33 
329.0451 484.731 
332.0711 102.313 
333.0733 496.696 
335.0538 124.772 
336.0612 146.65 
343.059 118.391 
345.0414 154.854 
346.0469 10000.0 
361.0724 419.098 
364.0578 128.988 
END IONS

