BEGIN IONS
PEPMASS=385.105
CHARGE=1+
COMPOUNDNAME=GIBBERELLIC ACID
LIBRARYQUALITY=3
SMILES=N/A
INCHIKEY=IXORZMNAPKEEDV-SNTJWBGVSA-N
INCHI=InChI=1S/C19H22O6/c1-9-7-17-8-18(9,24)5-3-10(17)19-6-4-11(20)16(2,15(23)25-19)13(19)12(17)14(21)22/h4,6,10-13,20,24H,1,3,5,7-8H2,2H3,(H,21,22)/t10-,11+,12-,13-,16+,17+,18+,19-/m1/s1
MSLEVEL=2
SOURCE_INSTRUMENT=N/A-ESI-QFT
FILENAME=library_mgf.mgf
SEQ=*..*
IONMODE=positive
ORGANISM=MONA
NAME=GIBBERELLIC ACID [M+K]+
PI=MoNA
DATACOLLECTOR=MoNA:VF-NPL-QEHF006370
PUBMED=N/A
SUBMITUSER=mwang87
TAGS=
SPECTRUMID=CCMSLIB00004697433
SCANS=6370
50.347004 0.020268 
50.836121 0.019606 
51.155174 0.020189 
51.440838 0.021208 
51.598049 0.018606 
51.684975 0.020138 
51.839211 0.020768 
52.101326 0.042398 
52.528896 0.054768 
52.546978 0.021739 
52.841347 0.019056 
53.002846 0.098394 
53.039417 0.161002 
53.944355 0.022689 
54.014183 0.016718 
54.472534 0.04019 
54.965034 0.018112 
54.993698 0.01967 
55.018593 4.534558 
55.054981 11.200586 
55.056625 0.016567 
55.393707 0.070394 
55.417202 0.02904 
56.050205 2.987227 
56.101257 0.02852 
56.327755 0.082051 
56.659203 0.021657 
56.742706 0.018752 
56.946072 0.053085 
56.965565 1.710399 
57.034222 5.464972 
57.069141 0.309764 
57.070629 18.342718 
57.592506 0.033675 
57.675522 0.020638 
57.697758 0.026656 
58.065872 68.152901 
58.073952 0.332202 
58.129208 0.053825 
58.287346 0.019917 
58.464909 0.034764 
58.499454 0.024908 
58.630619 0.019856 
58.7388 0.04777 
59.049885 8.901894 
59.061104 7.079673 
59.069168 1.475095 
59.092197 0.031573 
59.250912 0.079254 
59.46101 0.022281 
59.466759 0.022797 
59.624641 0.018397 
59.705025 0.037397 
59.711967 0.020981 
60.045113 13.261063 
60.0564 0.286004 
60.081421 0.267883 
60.179356 0.029084 
60.244183 0.019193 
60.28994 0.032251 
60.490753 0.074839 
60.976494 0.031115 
61.01136 1.48742 
61.040363 0.107105 
61.112888 0.019598 
61.179916 0.021973 
61.500992 0.02052 
61.720417 0.018908 
61.933025 0.057071 
61.968754 0.018017 
62.019184 1.473689 
62.024345 0.430223 
62.060722 0.391824 
62.190353 0.026738 
62.573753 0.019903 
62.98243 0.894261 
63.665291 0.084094 
64.764915 0.071759 
64.893661 0.062345 
64.970383 0.017802 
65.124809 0.049548 
65.282516 0.037116 
65.807251 0.024617 
65.981834 0.061758 
66.008316 0.02798 
66.31118 0.064717 
66.425262 0.072289 
66.646652 0.057814 
66.698471 0.034277 
66.905418 0.033203 
67.034279 0.03563 
67.054916 18.403753 
67.203537 0.019996 
67.448273 0.020094 
67.628197 0.036633 
68.050087 0.439871 
68.058205 0.184426 
68.431046 0.017734 
68.640083 0.020291 
69.034134 4.773055 
69.070534 38.605782 
69.251076 0.026286 
69.908562 0.046274 
70.029373 1.467179 
70.065804 33.884171 
70.073845 0.860717 
70.294731 0.022013 
70.825127 0.064801 
71.03878 0.020604 
71.049789 10.082409 
71.069061 0.449244 
71.086166 8.484381 
71.441048 0.021979 
71.651009 0.041777 
71.733932 0.033316 
72.044975 0.78617 
72.081429 11.426103 
72.089584 0.066246 
72.098511 0.021151 
72.664825 0.023992 
73.029015 0.853941 
73.065392 4.161468 
73.213631 0.03201 
73.364601 0.017625 
73.53421 0.021104 
73.78405 0.059287 
74.0243 59.011574 
74.026894 0.058813 
74.060608 2.688862 
74.096992 3.029422 
74.235298 0.049653 
74.672356 0.019587 
74.976105 0.028414 
75.027458 0.280746 
75.044601 0.677207 
75.317757 0.017257 
75.634171 0.059914 
75.767906 0.018899 
75.878227 0.033525 
76.039856 0.04904 
76.046059 0.020322 
76.076309 0.652423 
76.535484 0.041273 
76.888962 0.034952 
77.043922 0.026321 
77.091393 0.080904 
78.207367 0.070997 
79.02179 7.458592 
79.054817 8.005491 
79.429482 0.019987 
80.050148 0.238782 
80.948402 0.393622 
80.967125 0.05302 
81.034027 2.320579 
81.045227 0.023776 
81.070435 34.696236 
81.224197 0.022216 
81.280701 0.066338 
82.052612 0.053756 
82.065666 3.174107 
82.073746 1.123116 
82.158386 0.065589 
82.559624 0.029274 
82.929291 0.036514 
83.049736 11.36297 
83.060944 0.120901 
83.08606 20.315048 
83.635132 0.022879 
83.694099 0.020014 
84.04493 9.006584 
84.052948 0.14786 
84.081337 25.719805 
84.089279 0.537106 
84.775452 0.020009 
85.028893 3.77735 
85.040123 0.481455 
85.065315 14.186926 
85.076683 0.044774 
85.084625 0.473763 
85.101654 3.699754 
85.56073 0.020984 
86.060501 4.196435 
86.096947 87.419479 
86.546227 0.078332 
87.026741 0.202228 
87.044563 9.46666 
87.055733 0.764337 
87.080971 0.170556 
87.097557 0.073846 
87.10022 3.896446 
87.102989 0.094912 
87.922409 0.021187 
88.039825 8.800289 
88.076218 5.846133 
89.033058 0.020305 
89.060196 12.493529 
89.192596 0.05312 
89.803627 0.023894 
89.80986 0.018799 
90.055344 0.357618 
90.75795 0.066913 
91.054703 28.714626 
91.057739 1.018033 
91.166779 0.020276 
91.962196 0.023399 
92.058258 0.138559 
92.169624 0.08155 
92.263504 0.036842 
92.39846 0.019548 
93.054657 0.030214 
93.070335 14.637747 
93.646614 0.058448 
93.794167 0.072609 
94.065498 1.001882 
94.07357 0.308838 
94.705879 0.076434 
94.838158 0.086374 
95.049606 6.191789 
95.060722 0.415763 
95.08596 38.023846 
95.089264 0.058899 
96.018501 1.627023 
96.0448 1.408678 
96.0811 2.988325 
96.089218 1.839362 
96.184303 0.028019 
96.37088 0.039724 
96.922073 0.171838 
97.028778 1.562266 
97.039902 0.083051 
97.065239 12.606013 
97.076309 0.590988 
97.101585 15.478241 
97.104874 0.069223 
98.060364 4.216449 
98.068436 0.116892 
98.096848 24.450453 
98.104744 0.15756 
98.262535 0.020449 
98.975708 3.639224 
99.008575 0.098172 
99.04438 5.671271 
99.055679 0.201011 
99.080833 9.869818 
99.100105 0.886613 
99.746582 0.0213 
99.940765 0.020124 
100.039551 0.52097 
100.050621 0.040127 
100.076088 14.251087 
100.112366 3.023803 
100.155418 0.046461 
100.682739 0.022378 
101.00351 1.290562 
101.023628 0.188223 
101.060097 9.573034 
101.079277 0.059574 
101.187828 0.089863 
101.556877 0.018529 
102.055328 6.697226 
102.091553 0.481312 
102.341621 0.024272 
103.03933 9.2628 
103.054573 26.246021 
103.058388 0.143273 
103.075607 2.165962 
104.057808 1.522095 
104.070877 2.2731 
105.033737 0.569833 
105.070229 87.673973 
105.074478 0.65862 
105.116928 0.028827 
105.177086 0.021841 
105.738716 0.020011 
106.065376 0.144641 
106.073502 6.532544 
106.086433 0.447176 
106.276566 0.023316 
106.587387 0.078592 
107.049423 5.620847 
107.085846 16.907888 
107.878174 0.020306 
107.951668 0.039657 
108.044647 0.347963 
108.081078 18.131805 
108.089081 0.531808 
108.194023 0.019063 
108.967369 0.041117 
109.026024 0.836899 
109.028694 0.406528 
109.048912 0.02444 
109.065079 8.132157 
109.076279 0.346839 
109.08432 0.427466 
109.101433 24.892332 
110.060173 4.595128 
110.071518 2.077768 
110.096565 3.077802 
110.104752 1.478152 
110.129623 0.020256 
110.95797 0.023753 
111.005264 0.035781 
111.044334 9.620191 
111.055481 3.454998 
111.080688 9.348759 
111.091866 0.029839 
111.116974 5.358219 
111.137955 0.025972 
112.039543 0.644359 
112.071907 0.687083 
112.075951 25.355165 
112.083916 0.020601 
112.08709 0.364905 
112.112251 1.530821 
113.023552 0.269955 
113.034615 0.284081 
113.059906 7.8806 
113.071091 2.166346 
113.079109 0.543077 
113.096329 12.664714 
113.134239 0.039579 
113.445435 0.020355 
114.05513 4.143512 
114.062935 0.078276 
114.091545 2.403027 
114.099426 0.265252 
114.627068 0.021118 
115.039154 3.701544 
115.075607 6.699478 
115.079597 0.096798 
115.086754 0.787104 
115.286812 0.08407 
116.034492 0.190132 
116.052933 0.140866 
116.070831 15.11401 
116.107124 3.654665 
116.986115 7.478516 
116.990677 0.024449 
117.054718 1.160829 
117.069931 3.047101 
117.074287 0.161672 
117.090851 0.067163 
117.81308 0.070169 
118.065582 0.048361 
118.086327 2.885573 
119.001907 0.160518 
119.007507 0.070961 
119.049309 0.737212 
119.060379 0.068725 
119.085693 11.159451 
119.872078 0.023028 
120.044518 0.14212 
120.065521 0.041144 
120.08094 9.384445 
120.088882 0.310113 
120.132538 0.018724 
120.484612 0.022089 
120.591476 0.062037 
121.028542 0.164614 
121.064941 8.535487 
121.101311 20.615799 
121.544609 0.08083 
122.060089 3.148725 
122.068054 0.106249 
122.096542 1.199383 
122.104446 1.235416 
122.459915 0.03582 
123.044083 3.089028 
123.048248 0.058033 
123.080574 9.108314 
123.091682 0.645804 
123.116913 12.339623 
124.039436 24.328609 
124.075798 6.440625 
124.083435 0.063159 
124.112106 1.986028 
124.120163 0.333952 
124.222916 0.062106 
124.475143 0.022753 
125.021049 1.885211 
125.042557 0.72057 
125.059776 6.254488 
125.070953 0.763496 
125.09623 8.277002 
125.1073 2.121808 
125.115242 0.094325 
125.132446 0.620491 
125.783401 0.024076 
126.022148 0.027605 
126.054985 3.373198 
126.091469 6.368407 
126.099335 0.042654 
126.127953 0.412912 
126.451073 0.054274 
127.038879 0.760186 
127.050117 0.839062 
127.075333 3.812506 
127.086578 1.794148 
127.11171 1.57015 
128.034134 0.064507 
128.070663 8.437378 
128.08226 0.151982 
128.107025 3.757173 
128.500931 0.021389 
129.054596 5.047312 
129.065445 0.479869 
129.090851 1.151675 
129.102158 1.055965 
129.508575 0.022583 
129.842331 0.026346 
129.944519 0.045877 
130.049896 6.646235 
130.058258 0.047297 
130.064972 2.228986 
130.086288 100.0 
130.159027 0.740756 
130.664169 0.025919 
130.984863 0.070918 
131.001251 0.051199 
131.049133 26.308832 
131.054916 0.068269 
131.05722 0.081765 
131.070068 1.803238 
131.085205 6.024342 
131.089767 3.812318 
131.437393 0.021823 
131.847855 0.018144 
132.052429 1.301954 
132.080673 1.828948 
132.101883 19.743113 
133.064743 2.045252 
133.085815 3.955391 
133.101059 11.605565 
134.059891 0.573769 
134.096191 0.705242 
134.104263 0.317774 
134.978668 5.511566 
134.996414 14.207477 
135.044037 1.150546 
135.080399 8.694283 
135.091873 0.044326 
135.116776 15.089164 
135.122192 0.054681 
135.179535 0.022786 
135.999832 0.134573 
136.039291 0.331484 
136.061691 0.359006 
136.075592 4.962976 
136.111984 0.745945 
136.120087 0.613742 
136.974533 0.654629 
137.011703 1.351617 
137.047806 0.018164 
137.059586 5.204452 
137.070633 0.275442 
137.078857 0.074398 
137.096039 7.348236 
137.13237 5.412888 
137.240936 0.021053 
137.258881 0.02225 
138.012146 0.025336 
138.028625 0.389496 
138.054718 4.064981 
138.091232 4.805572 
138.099365 0.084651 
138.127625 0.430226 
138.874878 0.017793 
138.968048 0.019054 
138.989502 0.028044 
139.036591 6.547316 
139.050003 2.100734 
139.075317 6.187462 
139.086395 1.355475 
139.111603 5.306309 
140.034058 2.669106 
140.07045 4.450652 
140.081451 0.046947 
140.089005 0.03682 
140.106781 1.889674 
140.204025 0.020008 
141.015839 0.586338 
141.054352 1.312329 
141.065598 1.263219 
141.090805 2.875197 
141.101959 0.89321 
141.12706 0.434589 
141.367416 0.020307 
142.047836 2.018318 
142.086121 4.743462 
142.122528 1.45346 
142.15921 0.255114 
142.938828 0.124965 
143.070114 2.173416 
143.080368 0.235356 
143.085648 0.634681 
143.106537 0.419302 
143.117828 0.76248 
143.992554 0.05383 
144.065491 1.999148 
144.080582 0.329199 
144.101761 3.577992 
144.690979 0.026221 
145.05162 0.838269 
145.064529 0.527141 
145.101135 9.269349 
146.059937 4.94277 
146.092163 2.269346 
146.104156 0.225313 
146.918335 0.9075 
147.043854 1.024213 
147.06749 2.728656 
147.080338 4.0452 
147.11676 9.278164 
148.060333 0.15534 
148.075577 4.915328 
148.082108 0.065394 
148.111984 0.763349 
148.119751 0.267511 
148.658127 0.020526 
149.012161 0.88938 
149.059616 4.939709 
149.070801 0.253277 
149.096069 7.109376 
149.132401 8.841736 
149.551697 0.092757 
149.893051 0.078653 
149.922546 0.020106 
150.054764 3.563761 
150.091217 3.954578 
150.098602 0.108611 
150.127487 0.191377 
150.135269 0.357536 
150.409073 0.083318 
150.950821 0.180995 
151.03772 0.396063 
151.07518 5.202146 
151.08638 0.71994 
151.111557 5.125291 
151.14801 1.642786 
152.031967 1.122122 
152.044373 0.950062 
152.070541 7.148116 
152.081223 0.422177 
152.106873 5.072371 
152.114136 0.066423 
152.950836 0.057914 
152.989151 14.224996 
153.006912 3.191099 
153.040512 0.023161 
153.052673 6.921123 
153.065704 1.051823 
153.073135 0.199096 
153.090897 5.960519 
153.102066 1.464489 
153.110245 0.085569 
153.127197 1.518989 
153.992569 0.137403 
154.049698 1.656623 
154.056946 0.028016 
154.086121 4.758106 
154.092346 0.084146 
154.122452 1.953053 
154.968613 0.0757 
154.984894 3.814492 
155.010727 0.033104 
155.022125 0.809434 
155.03154 1.2725 
155.044907 0.131227 
155.070007 2.558958 
155.081161 1.696665 
155.106308 1.530946 
155.117905 0.457782 
155.142883 0.050473 
156.06517 2.928491 
156.076462 0.780308 
156.101791 4.603298 
156.138184 0.698049 
157.019409 0.035671 
157.060577 4.403484 
157.085724 0.540977 
157.10112 1.857168 
157.133224 0.139773 
158.059677 0.356214 
158.080917 3.214818 
158.091949 0.138398 
158.11731 2.840914 
159.065002 0.056557 
159.080353 1.396645 
159.091873 0.033524 
159.116684 6.824517 
160.027756 0.676188 
160.034378 3.525403 
160.059921 0.06138 
160.075516 3.317284 
160.112228 0.205509 
160.120056 0.216674 
161.011734 0.216542 
161.024277 0.023343 
161.027802 0.04248 
161.048248 0.205449 
161.059433 0.372553 
161.079941 0.095213 
161.095978 5.135689 
161.107315 0.048328 
161.132401 5.989038 
162.021835 0.717348 
162.054855 1.239028 
162.076767 0.174297 
162.091019 2.23896 
162.226364 0.021487 
163.027695 0.026612 
163.075043 4.417145 
163.086441 0.305098 
163.111557 4.819034 
163.147934 4.778722 
164.07048 5.191205 
164.081619 0.489119 
164.10675 3.314057 
164.114151 0.083718 
164.151169 0.105275 
164.928925 0.983326 
164.935623 0.020025 
165.000687 0.035326 
165.054092 3.236903 
165.065384 0.394664 
165.090759 5.489346 
165.102066 0.977789 
165.127151 2.960393 
165.138458 0.023059 
165.163681 0.624176 
165.924561 0.089052 
166.048721 1.076949 
166.060776 0.41493 
166.086182 7.212251 
166.093201 0.073447 
166.096939 0.103191 
166.122543 2.191695 
166.967255 0.026964 
167.005005 0.359591 
167.02269 0.024627 
167.031555 0.044725 
167.045151 0.057451 
167.069077 4.763988 
167.081116 1.771999 
167.088577 0.072765 
167.106522 2.800742 
167.117767 4.021136 
167.142944 0.678865 
167.976059 0.050664 
168.065323 4.322309 
168.072296 0.06634 
168.076584 0.198243 
168.101944 5.941528 
168.138138 1.479769 
168.96167 0.128561 
169.039261 0.032184 
169.047165 6.351155 
169.060425 0.663097 
169.073288 2.903154 
169.085648 1.573308 
169.096756 0.831829 
169.122116 0.487147 
169.133209 0.420709 
170.043472 0.145488 
170.081039 4.411608 
170.117401 4.021076 
170.12851 1.372497 
170.954895 0.03411 
170.999649 2.428433 
171.07634 2.726305 
171.116776 2.166935 
172.033997 0.169056 
172.075027 0.137669 
172.096756 1.778801 
172.133133 1.749963 
172.995453 1.200487 
173.011703 0.05189 
173.046799 0.17762 
173.06012 0.036127 
173.079987 0.1467 
173.095856 2.462024 
173.116776 0.20818 
173.132309 4.376815 
174.040543 0.052989 
174.055359 0.183197 
174.091064 1.223227 
174.111969 0.078849 
174.127579 4.984226 
174.134903 0.091916 
174.650146 0.022318 
175.027451 0.030977 
175.073166 7.251649 
175.086456 0.542013 
175.095963 0.235614 
175.111618 4.264812 
175.13092 0.103445 
175.148056 4.455426 
176.037628 0.084545 
176.069885 4.243411 
176.10672 3.617081 
176.703384 0.022465 
176.989349 1.597728 
177.04335 1.089889 
177.054337 0.998944 
177.065414 0.135037 
177.09082 4.362475 
177.102127 0.824032 
177.110855 0.430485 
177.127289 2.458909 
177.138443 0.196872 
177.163559 2.634939 
178.038254 23.837139 
178.086075 5.323852 
178.122543 4.313405 
178.130569 0.028255 
178.167664 0.084572 
178.820724 0.022355 
179.001129 0.044682 
179.022202 4.576694 
179.039246 1.500255 
179.069809 2.094707 
179.081131 0.973875 
179.106262 4.035597 
179.117676 0.599312 
179.142838 1.66544 
179.179123 0.072044 
180.023361 0.430662 
180.065018 3.667655 
180.0755 0.325059 
180.101654 3.987437 
180.109619 0.057109 
180.138062 0.592186 
180.977554 0.02679 
180.984497 0.274155 
181.019257 0.809623 
181.048645 0.886126 
181.060425 0.211134 
181.07074 0.229589 
181.084564 5.004883 
181.096893 2.442547 
181.122223 1.530778 
181.133148 0.97786 
181.15831 0.397897 
182.044724 0.090222 
182.080917 3.514757 
182.091644 0.113453 
182.104385 0.044918 
182.117447 3.164649 
182.208694 0.020554 
182.939545 0.883029 
183.011307 0.264328 
183.063217 1.312968 
183.076172 0.549564 
183.101288 0.766615 
183.113174 0.699383 
183.137024 0.073912 
183.841141 0.023391 
184.060196 0.445116 
184.073807 0.10321 
184.096771 7.194275 
184.133041 3.238178 
185.042099 0.030855 
185.092484 0.510075 
185.116547 0.270018 
185.131851 2.006332 
186.076492 0.4722 
186.091293 0.274972 
186.112366 0.667331 
186.148376 0.086696 
187.027435 0.148123 
187.075073 0.398668 
187.086029 0.198316 
187.111679 1.373576 
187.14801 3.224375 
188.070175 2.001709 
188.091782 0.043876 
188.106812 1.203366 
188.143188 9.075903 
188.965759 0.221547 
189.005844 0.076359 
189.043243 0.049435 
189.053772 0.084552 
189.090775 3.79898 
189.101379 0.554482 
189.11174 0.916632 
189.127106 1.330265 
189.146851 0.335514 
189.163635 1.97002 
189.447479 0.06281 
190.049088 0.280137 
190.08577 2.912718 
190.12233 2.41418 
190.953812 0.258233 
191.001617 0.111878 
191.022491 0.144139 
191.05722 0.267901 
191.069717 1.722712 
191.081131 0.949698 
191.091385 1.831457 
191.106476 4.093854 
191.117508 1.827781 
191.142792 0.936871 
191.179214 1.287518 
192.053757 0.76099 
192.065079 3.148432 
192.080658 0.030433 
192.088791 0.043398 
192.1017 5.087994 
192.110352 0.154004 
192.138199 1.014813 
192.961517 1.115605 
193.020126 0.0943 
193.037827 0.051892 
193.050079 0.061199 
193.059586 0.07093 
193.084839 3.272444 
193.097076 1.616435 
193.122131 3.932402 
193.132996 2.117273 
193.158234 1.068759 
194.0448 0.113694 
194.080978 4.147639 
194.090775 0.310866 
194.117462 4.461609 
194.126328 0.185196 
194.950241 0.021247 
194.9832 0.3348 
194.999725 7.443212 
195.015854 0.094708 
195.032852 0.037135 
195.053955 0.467727 
195.063278 1.643443 
195.07634 1.310188 
195.100128 4.201449 
195.112885 3.789065 
195.137909 1.020238 
195.148666 0.335772 
195.174362 0.112369 
196.003067 0.081638 
196.048904 13.721613 
196.060181 6.417405 
196.069611 0.052981 
196.096634 5.781838 
196.106094 0.086424 
196.13295 3.21464 
196.995575 0.083125 
197.014053 0.049322 
197.032761 0.910621 
197.04097 0.038955 
197.05014 0.686872 
197.078979 1.018402 
197.091827 5.4691 
197.116653 0.320761 
197.128723 1.382865 
197.974487 0.070226 
198.034561 0.025546 
198.075928 1.19649 
198.086807 1.102434 
198.099106 0.125946 
198.112289 3.609404 
198.148514 1.376784 
198.98912 0.405291 
199.028687 0.089275 
199.110947 2.295645 
199.132645 0.149855 
199.147812 0.63269 
200.056 0.031589 
200.070282 0.184864 
200.092194 0.651366 
200.103607 0.449904 
200.127838 0.557566 
201.006393 0.027382 
201.043915 0.049714 
201.054184 0.046054 
201.079575 0.999516 
201.090469 0.624879 
201.101883 1.795742 
201.126724 1.283512 
201.163635 1.030323 
201.174438 0.05941 
202.085785 1.000801 
202.107681 0.103554 
202.122025 0.284464 
203.022415 0.137116 
203.058624 0.030633 
203.069763 0.469035 
203.081589 0.092506 
203.106506 2.451328 
203.117157 1.107285 
203.127609 0.344703 
203.142899 1.189731 
203.17923 0.727225 
204.053787 0.757394 
204.064941 1.351 
204.087097 1.302796 
204.101685 3.684629 
204.137817 0.543949 
204.774811 0.064504 
204.962036 3.507581 
205.037994 0.340438 
205.047684 0.048266 
205.07431 0.029477 
205.085678 1.619669 
205.096573 1.161346 
205.121994 2.045861 
205.133011 1.517177 
205.158997 0.14496 
205.19487 0.105257 
206.06752 0.081344 
206.08075 3.215417 
206.117355 3.438472 
206.12674 0.069933 
206.153473 0.063578 
206.926529 0.024139 
207.053284 0.025826 
207.064438 0.091234 
207.075623 0.436543 
207.100937 2.843954 
207.112625 2.158244 
207.13768 1.167216 
207.148743 0.408544 
207.174164 0.53826 
208.059326 1.144823 
208.082153 0.085511 
208.096558 3.281326 
208.106903 0.147927 
208.133072 2.746487 
208.143478 0.051504 
208.964691 0.049862 
209.015366 0.07234 
209.049454 0.047181 
209.078766 1.840952 
209.091583 1.618316 
209.10495 0.044324 
209.115723 4.31692 
209.128571 5.331715 
209.153107 0.356783 
209.189575 0.180401 
210.064575 0.253012 
210.075638 1.138516 
210.112152 3.840628 
210.122269 0.080822 
210.148727 1.311282 
210.922318 0.025657 
210.972 1.050619 
210.995056 0.031109 
211.057602 0.712992 
211.072235 0.062648 
211.094757 1.465505 
211.107681 2.625024 
211.132584 1.02839 
211.143982 0.873068 
212.053207 0.859553 
212.068222 0.291363 
212.091507 1.506359 
212.105331 0.909643 
212.127899 3.311534 
212.164536 1.076478 
212.992554 0.911969 
213.010254 0.710984 
213.043427 0.098434 
213.074387 0.225886 
213.089264 0.439608 
213.125107 1.214965 
213.163208 0.073297 
214.070801 0.488854 
214.085266 0.443727 
214.10701 0.359185 
214.118881 0.192495 
214.143738 0.464607 
214.207214 1.756355 
214.219391 2.166256 
214.22319 2.092051 
214.225967 2.036895 
214.248459 0.825297 
214.953995 0.636425 
214.98819 1.010827 
215.022537 0.057882 
215.058716 0.100041 
215.105804 0.891438 
215.141541 0.495357 
215.179031 0.231415 
216.030319 0.337029 
216.101196 1.062237 
216.126907 0.119552 
216.138153 28.897951 
216.950897 0.022066 
216.969406 0.024413 
216.985123 0.111382 
217.074249 0.057411 
217.085632 0.466067 
217.096588 0.340785 
217.106308 0.095776 
217.121384 1.142796 
217.141586 3.611059 
217.158218 0.052791 
217.194672 0.273179 
218.069336 0.490194 
218.080627 1.435538 
218.117355 17.170671 
218.153503 0.025104 
218.98381 0.023817 
219.001007 0.031031 
219.063828 0.265091 
219.074707 0.089077 
219.090393 0.179412 
219.101257 1.367587 
219.112106 2.777241 
219.12175 1.577045 
219.137573 1.142725 
219.148605 0.379979 
219.174057 4.076549 
219.209961 0.074717 
220.06073 0.178335 
220.082642 0.123872 
220.096497 3.246053 
220.121964 0.067487 
220.133118 11.740999 
220.144135 1.044667 
220.155441 0.028748 
221.052002 2.309004 
221.079742 4.195326 
221.09166 2.367902 
221.116592 1.420863 
221.128067 2.611145 
221.152878 0.471721 
221.190018 0.241904 
222.04361 0.279577 
222.054657 0.1275 
222.064697 0.132061 
222.075333 1.357806 
222.085938 0.140586 
222.097412 4.632812 
222.112198 4.390654 
222.136917 0.093032 
222.148483 4.952205 
222.159912 3.685879 
222.714264 0.078101 
222.921432 0.808913 
223.047775 0.151944 
223.070541 0.303526 
223.095215 2.038517 
223.107758 3.006392 
223.131317 2.772385 
223.14386 1.531042 
223.430222 0.021717 
224.036957 0.260191 
224.091217 3.802515 
224.10289 0.323481 
224.127808 3.750744 
224.13884 0.398362 
224.163956 0.179848 
224.250076 0.021767 
225.008591 0.027686 
225.042984 0.109679 
225.073349 0.937088 
225.087387 0.49194 
225.110947 4.032989 
225.122971 1.518917 
225.147812 0.2327 
225.160294 0.486788 
226.011337 0.132644 
226.068924 1.175312 
226.083923 0.066044 
226.106918 1.635597 
226.119003 0.350943 
226.143539 2.307554 
226.155029 0.279017 
226.179138 0.274379 
226.971954 0.18534 
227.007309 0.5331 
227.058884 1.534178 
227.104874 2.054734 
227.139236 1.549771 
227.179962 0.143725 
227.236786 0.062328 
227.973114 0.093786 
228.008224 0.286375 
228.053268 0.036457 
228.063934 0.155079 
228.101273 1.45887 
228.122971 0.702434 
228.136261 0.065936 
228.932434 0.241461 
228.969009 0.033145 
229.004791 0.029234 
229.037262 0.051935 
229.074387 0.991727 
229.085785 0.102542 
229.121552 0.523576 
229.155106 0.764885 
230.080276 0.480931 
230.102463 0.099685 
230.115799 0.571206 
230.138672 0.488945 
230.925842 0.021931 
231.029663 0.027414 
231.053177 0.176164 
231.075485 0.069294 
231.08728 0.069386 
231.100693 0.354008 
231.112793 0.29414 
231.137466 2.98701 
231.209518 0.068916 
232.096344 1.913977 
232.132294 0.763845 
232.964462 4.423583 
232.998917 0.057696 
233.068726 0.214718 
233.079849 0.287589 
233.092316 0.054152 
233.116638 0.822709 
233.12825 1.320682 
233.153046 0.263226 
233.226196 0.142964 
233.968521 0.023521 
234.075073 0.368665 
234.111969 2.178435 
234.148666 20.472145 
234.921021 0.02208 
234.960083 0.477064 
234.979782 0.080582 
234.996658 0.101898 
235.095627 0.366842 
235.107742 1.249016 
235.131729 0.907445 
235.143021 1.511888 
235.15332 0.845959 
235.168503 0.434927 
235.204559 0.099238 
235.999054 0.021354 
236.052963 0.204587 
236.091125 1.141638 
236.103043 0.066614 
236.113922 0.042592 
236.127365 10.609502 
236.164444 0.219515 
236.940338 0.020451 
236.95755 0.139693 
236.994766 0.14407 
237.046295 0.057568 
237.08728 0.711436 
237.10997 1.786972 
237.122986 1.417018 
237.146347 1.161482 
237.159912 0.213054 
237.184357 0.052784 
238.038971 0.023091 
238.068726 2.096421 
238.093994 0.06358 
238.106949 4.671064 
238.143433 2.08779 
238.990173 0.033709 
239.062637 1.056614 
239.089508 0.611235 
239.102264 1.053547 
239.125992 0.515131 
239.13916 2.570288 
239.177261 0.559089 
240.053909 0.066388 
240.066299 0.040843 
240.085144 0.277953 
240.099258 0.237839 
240.10965 0.066214 
240.122787 1.990565 
240.158585 0.163958 
240.170685 0.466008 
240.931717 0.587787 
241.074936 0.024584 
241.083389 0.111787 
241.119904 0.643665 
241.155045 2.150723 
242.042542 0.124098 
242.080399 0.622358 
242.10199 2.549444 
242.11528 0.364414 
242.138687 0.801464 
242.153275 0.035849 
243.019882 0.586592 
243.053528 0.072335 
243.076584 0.056897 
243.100204 0.289653 
243.135941 0.684029 
243.172714 0.066813 
244.020935 1.133745 
244.084595 0.292982 
244.095596 0.521539 
244.132507 1.57608 
244.98175 4.605609 
245.016953 2.920774 
245.069351 8.711261 
245.104019 0.05649 
245.115555 0.092552 
245.128235 0.127419 
245.152893 0.320538 
245.190231 0.059456 
245.917206 0.603526 
245.983185 4.254885 
246.018829 2.450913 
246.073761 1.961679 
246.111633 1.01648 
246.148529 0.23457 
246.427811 0.026901 
246.943436 1.0796 
246.961578 3.278809 
246.979263 5.07765 
247.014709 0.547232 
247.031189 0.372951 
247.047516 1.270997 
247.066605 0.160654 
247.084763 1.007146 
247.107834 3.067054 
247.131516 0.70278 
247.145645 1.591898 
247.169128 0.109795 
247.205551 0.068734 
247.749634 0.038647 
247.982635 0.053125 
248.045578 0.456787 
248.090347 0.399646 
248.127487 1.862932 
248.892227 0.022643 
248.921448 0.027668 
248.936737 2.435556 
248.972534 0.620296 
249.028168 0.032405 
249.04277 1.878487 
249.063553 0.150771 
249.110489 0.830182 
249.123383 0.758195 
249.14682 0.362283 
249.160645 0.113078 
249.183716 0.291857 
249.939468 0.025972 
250.070938 0.338692 
250.107178 0.518842 
250.120316 0.179096 
250.143295 3.254824 
250.936584 1.161375 
250.974747 2.915978 
251.022827 0.028954 
251.056351 3.563846 
251.078583 0.032858 
251.091522 0.046846 
251.103271 1.352734 
251.125565 1.761083 
251.138855 0.815539 
251.162445 0.456408 
251.200668 0.049945 
251.934021 0.03015 
252.057709 0.533424 
252.072403 5.565675 
252.085358 1.236685 
252.121918 0.381832 
252.134796 1.501261 
252.158737 0.469494 
252.934433 0.8443 
252.970551 0.754651 
253.038254 0.404362 
253.072556 0.328579 
253.083633 0.143398 
253.104752 0.768542 
253.118637 2.997106 
253.140976 0.386186 
253.154526 1.341964 
253.179047 0.121725 
254.080276 0.291928 
254.101624 0.083285 
254.115204 0.143554 
254.138168 0.883335 
254.968964 0.025409 
254.979477 0.083615 
255.053589 0.050775 
255.098648 0.524204 
255.134308 2.498178 
255.172348 0.422764 
256.095825 0.066977 
256.118011 1.862515 
256.131592 0.204665 
256.154083 0.055579 
256.964722 0.454461 
257.092743 0.099073 
257.104248 0.026926 
257.115845 0.167416 
257.130798 0.422347 
257.151611 0.092185 
257.189728 0.122532 
257.225647 0.068243 
258.076233 0.095139 
258.110748 0.075101 
258.149414 0.094815 
258.997742 0.772395 
259.084717 0.399883 
259.107819 0.179391 
259.131927 0.549347 
259.168427 0.112991 
259.999329 0.271463 
260.09024 0.093995 
260.127441 0.520036 
260.163788 0.047071 
260.958862 0.218668 
260.99527 0.130479 
261.015808 0.042884 
261.030487 9.006387 
261.062683 0.026756 
261.082794 0.654975 
261.098358 0.038935 
261.123627 0.256049 
261.147339 0.444107 
261.184265 0.16081 
261.22113 0.051808 
261.9133 0.273196 
261.96228 0.025438 
262.031738 15.674931 
262.07431 0.032584 
262.093445 0.036037 
262.106171 0.103897 
262.142792 6.588874 
262.156891 0.084847 
262.992676 8.191949 
263.027649 35.89492 
263.060791 0.07456 
263.079742 3.943798 
263.094421 0.336203 
263.113708 0.04668 
263.138153 2.231569 
263.199402 0.150766 
263.924683 0.325775 
263.96048 0.02615 
263.994049 8.048087 
264.029266 26.492638 
264.089905 3.978365 
264.121674 3.930116 
264.140869 0.138407 
264.158508 0.368951 
264.868713 1.015669 
264.906067 0.172538 
264.955078 1.038554 
264.972137 1.92709 
264.98938 7.681306 
265.024536 9.030265 
265.04068 1.484435 
265.058105 0.656899 
265.074188 0.130519 
265.092133 0.36246 
265.104858 0.442389 
265.120697 0.348394 
265.141052 0.566514 
265.155334 1.499412 
265.177979 0.278107 
265.252258 0.169548 
265.938965 1.279392 
265.964569 0.183693 
265.993439 0.173046 
266.031311 1.004409 
266.045624 0.032386 
266.102051 0.282074 
266.138062 3.098442 
266.175171 0.041338 
266.866241 0.149164 
266.903625 1.238612 
266.946991 1.381463 
266.98465 1.080323 
267.003357 0.650665 
267.037628 0.069459 
267.053619 1.039675 
267.071198 0.062724 
267.088409 0.058043 
267.098663 0.109097 
267.120239 1.009331 
267.134277 1.417008 
267.157043 0.051146 
267.170654 0.299985 
267.935822 0.609987 
268.093719 0.298633 
268.13028 0.10349 
268.153107 0.419037 
268.262665 0.145311 
268.946655 0.903975 
268.977325 0.061847 
269.031158 0.435873 
269.067383 0.488315 
269.092499 0.085726 
269.111877 0.156533 
269.125275 0.256073 
269.149963 0.942329 
269.186127 0.074015 
269.945465 0.08792 
270.05835 0.352281 
270.079559 0.11121 
270.094452 10.71368 
270.109802 1.20962 
270.145416 1.502149 
270.169373 0.089199 
270.94458 0.748908 
270.962738 0.176151 
271.048645 0.066188 
271.082764 0.074119 
271.096985 1.740522 
271.130524 0.157303 
271.144562 0.168301 
271.165985 0.171718 
272.089996 0.543279 
272.127716 0.193636 
272.164307 0.041882 
272.937012 1.263016 
272.957581 0.043426 
273.085022 0.082206 
273.121918 0.210369 
273.146271 0.2276 
273.184784 0.11663 
273.220764 0.551956 
273.256897 0.411919 
273.93924 0.029345 
274.106171 0.089383 
274.937286 1.335302 
274.974884 2.810525 
275.04538 0.155523 
275.140015 1.240087 
275.163849 0.051724 
275.199951 0.547735 
275.236542 0.253238 
275.934479 0.022961 
276.047577 0.662105 
276.087341 0.022395 
276.122101 0.19501 
276.158936 0.202974 
276.171448 0.130939 
276.933594 0.621424 
277.007996 1.469628 
277.043335 1.915206 
277.094513 0.399938 
277.155273 2.360013 
277.215698 0.583652 
277.252441 0.057065 
278.009735 0.795129 
278.045197 1.362342 
278.069153 2.948928 
278.100372 0.06251 
278.138092 0.514928 
278.18634 1.614996 
278.947144 0.742494 
278.968781 0.193239 
278.987976 0.026761 
279.005524 0.808269 
279.04129 0.111072 
279.071533 0.444851 
279.134827 0.493588 
279.156097 0.204827 
279.170319 0.453093 
279.192139 0.263521 
279.231567 0.079602 
279.923553 2.778255 
280.047424 0.026431 
280.068481 0.22933 
280.084747 2.417961 
280.117828 0.121253 
280.132446 0.358072 
280.15332 0.424129 
280.166473 0.203653 
281.049438 0.022818 
281.067871 1.047337 
281.09021 0.15286 
281.105194 0.458253 
281.135742 0.411233 
281.149384 0.522469 
281.186371 0.068972 
281.911804 3.286325 
281.933502 0.254731 
282.064209 0.029512 
282.100586 43.494041 
282.130432 6.372617 
282.148712 0.127728 
282.278839 0.115939 
282.879303 0.884932 
282.914124 2.743558 
282.942871 0.272662 
283.051636 0.610032 
283.068176 0.390375 
283.084778 0.176738 
283.1026 6.001056 
283.132812 0.82003 
283.16687 1.006314 
283.912628 1.101918 
283.950256 0.065939 
284.126923 0.25213 
284.876099 0.130934 
284.912903 4.917646 
284.935303 0.056959 
285.012939 0.110499 
285.063934 0.021331 
285.098938 0.068334 
285.124603 0.074545 
285.144745 0.878514 
285.191345 0.052491 
286.103699 2.183201 
286.142303 0.670059 
286.176483 2.556636 
287.062286 0.549606 
287.115906 0.136744 
287.138733 0.593035 
287.161743 0.100652 
287.179138 0.033553 
287.199615 0.168498 
288.094879 0.584313 
288.134796 0.16333 
288.158234 0.201149 
290.099915 0.085358 
290.13681 0.076075 
290.947205 9.406627 
290.965698 0.0336 
291.090179 0.54441 
291.106873 0.041818 
291.196655 0.056586 
291.231537 1.782216 
291.267578 1.201841 
291.935333 0.644004 
291.950806 1.217554 
292.098938 0.088313 
292.166046 0.787561 
292.299408 1.391907 
292.947662 12.724886 
292.984863 1.876292 
293.133301 0.089887 
293.149963 1.127338 
293.210144 0.389596 
293.247192 0.953169 
293.945068 2.553601 
293.967255 0.022493 
294.113434 0.052598 
294.151215 0.199363 
294.16861 1.239636 
294.184998 0.143263 
294.315277 17.268654 
294.943573 6.852387 
295.102478 0.036188 
295.14978 0.358402 
295.16687 0.253606 
296.116028 0.610961 
296.183563 0.052886 
296.199097 0.06345 
296.293915 0.066547 
296.976105 0.024142 
297.123779 0.182104 
297.142212 0.07509 
297.278625 3.837653 
297.934082 3.109912 
298.095245 0.415332 
298.128143 0.116261 
298.161041 0.087382 
299.079346 0.357783 
299.1008 0.070343 
299.139221 0.225196 
300.111023 11.548895 
300.953735 0.417967 
301.08493 0.177704 
301.113739 2.050659 
301.179901 0.274068 
301.215607 0.79135 
301.251923 0.083606 
302.923584 0.665793 
303.134796 0.731537 
303.16861 0.708431 
303.194946 0.032222 
303.231445 0.690298 
304.108459 0.075252 
304.154358 0.10295 
304.167664 0.283261 
304.907013 0.101685 
304.96228 0.092135 
304.984375 0.02621 
305.021301 0.220941 
305.072906 0.557634 
305.149628 1.928169 
305.187347 0.104477 
305.208435 0.034983 
305.247314 0.403569 
305.283386 1.887119 
305.951843 0.027042 
306.000885 0.029326 
306.022339 0.327323 
306.063385 0.110208 
306.101746 0.049578 
306.132721 0.572947 
306.150848 0.05722 
306.168518 0.490721 
306.286224 0.107289 
306.96344 0.479688 
307.017151 0.040225 
307.048248 0.16169 
307.066803 0.068897 
307.086761 0.861923 
307.127319 0.255538 
307.165649 0.5222 
307.225067 0.029895 
307.262085 0.073123 
307.906677 0.031673 
308.079865 0.924743 
308.132538 1.145097 
308.150116 0.055997 
308.162659 0.102797 
308.184296 0.602927 
308.958008 2.612805 
309.062469 1.657522 
309.099579 1.624018 
309.118469 0.083099 
309.131378 0.075177 
309.166046 1.211255 
309.203094 0.496313 
309.278656 0.309511 
309.946442 4.820392 
310.142914 0.098347 
310.174622 0.16577 
310.309418 0.088045 
310.95816 9.649114 
311.115021 0.174785 
311.142395 0.840154 
311.160431 0.314422 
311.18222 0.043412 
311.955688 2.040391 
312.122498 0.147908 
312.836853 0.043347 
312.954956 4.619388 
313.119995 0.070049 
313.131897 0.024829 
313.155579 0.089483 
314.127075 0.096968 
314.952179 0.026441 
315.231964 0.071044 
315.269989 0.044887 
317.246826 0.068169 
318.18103 0.194567 
319.04068 0.025301 
319.165436 0.272786 
319.226257 2.516555 
319.262634 3.788259 
320.16153 0.953656 
320.263611 0.072618 
321.033478 0.02783 
321.064362 0.027431 
321.144653 4.129191 
321.179962 2.415753 
321.202087 0.054163 
321.241821 1.538799 
321.279236 0.059666 
321.965637 0.666199 
322.035339 0.638236 
322.143555 3.799178 
322.177521 0.948236 
322.91629 2.070014 
322.970734 0.029757 
323.030945 2.590747 
323.093201 0.12241 
323.119049 0.05311 
323.160248 9.046905 
323.178436 0.237163 
323.19696 0.034786 
323.917572 2.210391 
323.96228 0.919154 
323.982117 0.310624 
324.007172 0.034406 
324.03183 3.992903 
324.074188 0.405541 
324.111176 0.3016 
324.141602 0.299321 
324.161652 1.679993 
324.304047 0.061142 
324.325623 17.5308 
324.360596 0.122516 
324.918732 0.215705 
324.95578 0.10403 
324.975067 0.217486 
325.028442 1.415088 
325.057709 0.136535 
325.09494 1.583653 
325.117371 0.134961 
325.136749 2.91781 
325.155365 1.128816 
325.188904 0.400325 
325.211853 0.061027 
325.329102 3.248051 
325.916351 1.924524 
325.957764 0.027121 
326.031372 0.0702 
326.089325 2.659785 
326.134552 12.701286 
326.174316 0.371943 
326.195129 0.558091 
326.914459 0.16239 
326.969574 0.118773 
327.019379 0.113099 
327.042206 0.071923 
327.076447 8.984207 
327.095154 11.939278 
327.109924 0.466656 
327.134979 3.653704 
327.170502 0.421471 
327.18396 0.225292 
327.202942 1.868958 
327.826263 0.056943 
327.943634 0.058359 
328.080414 2.832347 
328.099243 0.260048 
328.117401 0.058472 
328.137512 0.105655 
328.15448 0.043178 
328.187347 1.020898 
328.208557 0.543508 
328.833038 0.057453 
328.968536 0.243322 
329.110901 0.316884 
329.14975 0.778883 
329.186981 0.108861 
330.111267 0.0881 
330.932251 0.153234 
331.037231 0.029931 
332.965912 0.247482 
333.130585 0.895192 
333.18103 0.098468 
333.278259 3.108885 
334.179962 0.085535 
334.28183 0.422995 
335.157288 0.110304 
335.19635 0.16094 
335.969574 0.02638 
336.191986 0.975711 
337.046722 0.030259 
337.118103 0.06467 
337.154694 0.125631 
337.174042 2.732516 
337.211121 0.186989 
337.273102 1.310722 
338.115723 0.103816 
338.151337 0.055102 
338.172577 2.462431 
338.208679 0.226757 
338.377289 2.452306 
339.137421 0.163281 
339.156494 3.402235 
339.171051 3.619613 
339.192444 0.277928 
339.227966 0.142731 
340.168671 0.392785 
340.188904 0.340291 
340.929779 0.053457 
341.134155 0.724027 
341.149841 0.220018 
341.186279 0.506738 
341.218262 0.077525 
342.139191 0.085216 
343.112946 0.212396 
343.140045 0.08928 
343.163483 1.040903 
343.201477 0.318803 
344.066864 0.048847 
345.030945 0.666984 
345.052887 0.196767 
345.192993 0.030378 
347.031311 0.023888 
347.158539 0.616075 
347.196625 0.143497 
348.155396 3.328609 
348.192413 0.654539 
348.943054 0.091667 
349.176331 0.157607 
349.213165 0.086447 
350.137939 1.178537 
350.208435 0.318833 
350.378113 1.213305 
351.138702 0.447622 
351.154205 1.08079 
351.17627 3.35516 
351.213379 1.926712 
351.28949 0.394599 
352.15155 0.22439 
352.183594 1.369894 
352.220306 0.431324 
353.15506 2.247888 
353.189911 0.18031 
353.207855 1.01672 
353.228882 0.083452 
353.841522 0.025208 
354.164886 0.624135 
354.202301 0.766534 
354.227081 0.092881 
355.12735 0.783741 
355.165955 0.379241 
357.137238 0.043637 
358.163544 0.036113 
361.279449 0.410179 
362.868988 0.019802 
363.284576 0.024364 
365.168488 6.91192 
365.20813 3.861917 
366.115112 1.610213 
366.166321 11.46895 
366.202606 3.711367 
366.226013 7.264014 
367.126556 0.570428 
367.151398 0.272898 
367.167877 3.388595 
367.188049 0.496146 
367.225708 3.797778 
368.122559 0.747702 
368.152985 0.381516 
368.185394 12.341486 
368.218842 1.78079 
368.242523 1.533607 
368.388031 8.555603 
369.143768 1.218174 
369.165344 0.244817 
369.185272 0.786531 
371.116791 0.060284 
377.126831 0.071077 
383.12973 1.772105 
383.1651 4.847489 
383.199524 14.801496 
383.240417 4.180007 
383.277557 4.33429 
383.312195 8.641387 
383.405365 0.314374 
383.442505 0.115412 
384.111115 0.539254 
384.15329 5.813364 
384.213013 21.262808 
384.236877 6.503668 
384.280151 0.916424 
384.316772 2.416223 
384.36142 3.044106 
384.419006 1.531221 
385.125519 3.054844 
385.144531 3.441107 
385.176514 48.349594 
385.215759 15.417444 
385.235199 7.399511 
385.259918 0.029343 
385.291779 68.699615 
385.364929 0.236412 
386.130585 5.969518 
386.175537 11.955764 
386.202271 5.91456 
386.231293 6.23148 
386.255066 0.495901 
386.294342 13.670762 
386.377747 32.939922 
387.063934 0.101837 
387.10495 1.96101 
387.156677 7.923767 
387.193481 8.656069 
387.231903 1.024921 
387.271454 3.159946 
387.295166 0.097147 
399.696991 0.023075 
403.141968 0.290851 
END IONS

