BEGIN IONS
PEPMASS=268.105
CHARGE=1+
COMPOUNDNAME=MLS000069638-01!ADENOSINE5536-17-4
LIBRARYQUALITY=1
SMILES=Nc1ncnc2n(cnc12)[C@@H]3O[C@H](CO)[C@@H](O)[C@H]3O
INCHIKEY=OIRDTQYFTABQOQ-KQYNXXCUSA-N
INCHI=N/A
MSLEVEL=2
SOURCE_INSTRUMENT=LC-ESI-qTof
FILENAME=p4-A07_GA7_01_18324.mzXML
SEQ=*..*
IONMODE=Positive
ORGANISM=GNPS-NIH-SMALLMOLECULEPHARMACOLOGICALLYACTIVE
NAME=MLS000069638-01!ADENOSINE5536-17-4 M+H
PI=Dorrestein
DATACOLLECTOR=VP/LMS
PUBMED=N/A
SUBMITUSER=vphelan
TAGS=
SPECTRUMID=CCMSLIB00000085412
SCANS=200
46.838821 176.0 
46.99287 156.0 
47.943157 60.0 
48.699951 152.0 
48.73885 224.0 
49.727592 208.0 
52.281723 128.0 
53.418999 200.0 
54.131248 240.0 
54.144428 212.0 
54.4627 180.0 
55.806057 80.0 
56.525017 136.0 
56.995857 124.0 
58.017666 208.0 
60.301609 72.0 
60.317066 192.0 
60.385098 100.0 
60.999119 132.0 
61.083092 108.0 
64.617218 208.0 
64.964867 220.0 
65.600075 72.0 
67.306908 128.0 
67.933746 192.0 
68.563499 156.0 
69.234238 64.0 
70.179764 220.0 
70.565453 108.0 
71.056175 128.0 
71.565445 164.0 
73.783012 92.0 
74.454704 80.0 
74.518265 164.0 
76.307129 108.0 
76.646538 40.0 
77.301369 136.0 
78.222801 168.0 
78.955032 176.0 
79.397789 204.0 
79.552155 148.0 
79.633835 208.0 
81.161453 140.0 
81.215256 128.0 
81.272659 180.0 
83.387367 148.0 
83.440086 140.0 
84.844032 188.0 
85.137619 200.0 
85.772377 160.0 
87.039688 156.0 
88.583969 84.0 
88.617691 216.0 
89.190063 236.0 
89.752975 196.0 
89.915207 184.0 
90.228767 160.0 
90.262802 28.0 
90.546669 28.0 
91.286797 168.0 
91.341957 252.0 
91.738045 224.0 
91.913506 200.0 
92.022308 232.0 
92.347168 200.0 
92.7761 152.0 
93.192574 136.0 
93.557991 64.0 
94.051476 148.0 
94.215614 240.0 
97.249557 168.0 
98.071716 132.0 
98.150574 148.0 
98.606598 128.0 
98.982468 148.0 
99.819862 156.0 
99.923294 220.0 
100.072571 180.0 
100.722702 152.0 
101.264748 196.0 
101.840385 140.0 
102.488167 176.0 
103.168327 140.0 
104.199883 112.0 
104.533348 120.0 
105.682152 168.0 
105.790627 200.0 
106.028229 100.0 
106.387177 80.0 
106.999825 204.0 
107.275879 228.0 
108.91684 124.0 
109.052185 204.0 
109.528381 160.0 
112.27198 240.0 
113.119247 196.0 
114.095093 200.0 
115.372101 96.0 
115.857895 172.0 
116.544456 276.0 
116.83255 108.0 
116.890648 188.0 
117.002571 120.0 
117.017639 44.0 
119.035416 2264.0 
120.042122 160.0 
120.754509 48.0 
120.914223 176.0 
121.576073 184.0 
122.266144 32.0 
124.692307 100.0 
125.001427 132.0 
125.565048 144.0 
127.003204 156.0 
128.070862 192.0 
128.514984 64.0 
129.023148 168.0 
129.043503 196.0 
129.061584 184.0 
129.457581 80.0 
129.557236 188.0 
129.711334 164.0 
129.831512 156.0 
131.471771 220.0 
131.524261 244.0 
132.525925 132.0 
134.328354 220.0 
135.116119 216.0 
135.892273 244.0 
135.944412 128.0 
136.062561 15620.0 
136.102127 204.0 
136.173157 36.0 
136.268402 48.0 
136.405502 44.0 
136.482224 40.0 
136.503159 60.0 
136.626434 68.0 
136.68692 108.0 
136.877808 56.0 
137.005905 44.0 
137.064087 1976.0 
137.490906 72.0 
137.560928 44.0 
137.722046 52.0 
137.951035 76.0 
138.021332 124.0 
138.068954 192.0 
138.145126 104.0 
139.290527 156.0 
139.451202 44.0 
141.070572 160.0 
141.614807 80.0 
143.976517 164.0 
147.605255 100.0 
148.060211 196.0 
149.048981 140.0 
151.056473 128.0 
156.969437 144.0 
167.074066 172.0 
176.966568 168.0 
177.144012 164.0 
178.067062 144.0 
180.083267 136.0 
186.110367 32.0 
190.121979 168.0 
216.083588 164.0 
230.10759 108.0 
236.185547 120.0 
252.232559 88.0 
268.190552 92.0 
270.18576 180.0 
271.220551 196.0 
276.712189 80.0 
304.45047 68.0 
332.779572 104.0 
345.272003 176.0 
349.24054 144.0 
355.543518 72.0 
612.645752 156.0 
710.421326 92.0 
712.89032 152.0 
776.54364 88.0 
784.227539 44.0 
833.089233 188.0 
834.600769 168.0 
1046.151123 148.0 
1048.096069 252.0 
1058.003784 160.0 
1084.03833 128.0 
1112.605469 256.0 
1119.407349 200.0 
1123.086304 124.0 
1131.740601 64.0 
1138.258179 176.0 
1158.790283 244.0 
1162.567261 160.0 
1165.772583 168.0 
1185.412476 168.0 
1187.160522 140.0 
1187.572021 164.0 
1219.068359 140.0 
1221.501831 172.0 
1227.505371 184.0 
1271.638428 184.0 
1282.919922 136.0 
1291.095581 164.0 
1297.05249 64.0 
1302.584961 72.0 
1304.827148 208.0 
1305.042847 176.0 
1306.72583 224.0 
1337.169556 156.0 
1338.144897 184.0 
1342.130493 176.0 
1351.004395 152.0 
1368.162476 156.0 
1372.92981 180.0 
1387.615112 264.0 
1389.335815 48.0 
1393.010498 136.0 
1393.857422 212.0 
1405.406372 160.0 
1407.429199 168.0 
1407.697998 96.0 
1411.845459 108.0 
1417.692261 168.0 
1424.535034 144.0 
1425.173706 248.0 
1439.727295 152.0 
1448.069214 128.0 
1453.679321 208.0 
1458.920166 152.0 
1459.984619 132.0 
1467.9198 248.0 
1472.712524 156.0 
1477.459595 152.0 
1490.055908 192.0 
1492.761475 164.0 
1498.565308 224.0 
1500.939331 148.0 
1504.164185 104.0 
END IONS

