BEGIN IONS
PEPMASS=339.253
CHARGE=1+
COMPOUNDNAME=Aphidicolin
LIBRARYQUALITY=3
SMILES=N/A
INCHIKEY=NOFOAYPPHIUXJR-APNQCZIXSA-N
INCHI=InChI=1S/C20H34O4/c1-17(11-21)15-4-3-13-9-14-10-19(13,7-8-20(14,24)12-22)18(15,2)6-5-16(17)23/h13-16,21-24H,3-12H2,1-2H3/t13-,14+,15-,16+,17-,18-,19-,20-/m0/s1
MSLEVEL=2
SOURCE_INSTRUMENT=N/A-ESI-QFT
FILENAME=library_mgf.mgf
SEQ=*..*
IONMODE=positive
ORGANISM=MONA
NAME=Aphidicolin [M+H]+
PI=MoNA
DATACOLLECTOR=MoNA:VF-NPL-QEHF004580
PUBMED=N/A
SUBMITUSER=mwang87
TAGS=
SPECTRUMID=CCMSLIB00004695643
SCANS=4580
50.492481 0.045251 
50.54129 0.040793 
50.627838 0.030439 
50.698902 0.029644 
50.79089 0.037625 
51.699188 0.03944 
53.039494 0.061551 
53.882214 0.032237 
54.63847 0.035044 
54.912502 0.032667 
55.018673 0.95139 
55.055038 5.33993 
55.376633 0.031037 
56.0061 0.026089 
56.050293 0.409239 
57.034313 0.779837 
57.070675 4.783967 
58.062935 0.046227 
58.065933 17.245483 
58.074181 0.077841 
59.049942 1.035151 
59.061123 0.038368 
59.069313 0.16231 
60.081573 2.045393 
61.011425 0.282059 
61.584938 0.026931 
62.060833 0.174041 
62.982529 0.033923 
63.419872 0.033446 
63.424423 0.040782 
64.413773 0.036246 
66.289421 0.023658 
66.539291 0.037755 
67.054985 4.269579 
67.485809 0.025916 
68.050201 0.069289 
68.058357 0.078495 
68.389389 0.038698 
69.034233 2.37229 
69.070633 5.448177 
70.065865 2.621794 
70.073898 0.094307 
70.179314 0.029079 
70.461853 0.036644 
70.998421 0.040023 
71.049866 1.236328 
71.062134 0.039631 
71.086235 2.562376 
72.04509 1.419325 
72.081551 0.43663 
72.303886 0.041632 
72.310379 0.042117 
72.567772 0.025858 
73.029213 0.049945 
73.047501 1.143798 
73.065453 0.044683 
74.060699 0.08113 
74.097237 0.026806 
74.451401 0.040215 
74.95787 0.041285 
75.060432 0.031146 
76.855499 0.03033 
79.021835 0.411294 
79.054901 3.45159 
79.961929 0.044267 
80.038383 0.030167 
80.050224 0.260403 
80.159538 0.033229 
80.351707 0.032328 
81.034081 0.32664 
81.070541 6.587247 
81.847404 0.045881 
82.065781 1.805176 
82.073906 0.105337 
83.049767 1.31245 
83.073532 0.051118 
83.086174 4.844991 
83.641441 0.023468 
84.04509 0.035235 
84.08139 7.923746 
84.089638 0.026456 
85.029037 0.21854 
85.065407 1.675935 
85.084656 0.088523 
85.101753 0.366397 
86.060616 0.559426 
86.097015 0.412403 
87.008171 0.085582 
87.044662 1.219049 
88.039986 0.12827 
88.076065 0.082828 
88.363823 0.033606 
89.060272 1.003517 
90.055565 3.457908 
90.724724 0.038551 
91.054749 3.264305 
91.057938 3.039285 
91.809074 0.034545 
92.286247 0.030788 
92.761002 0.036587 
93.070427 4.456858 
94.065666 1.157627 
94.073647 0.091452 
94.824753 0.030601 
95.04966 1.284246 
95.073273 0.035349 
95.086037 5.701682 
96.045036 0.170272 
96.081314 2.435319 
96.089394 0.122463 
96.967392 0.040604 
97.029053 0.147707 
97.065323 2.615409 
97.101677 2.523396 
97.805435 0.038944 
98.060501 0.232209 
98.093803 0.043697 
98.096977 2.184451 
99.044525 0.334985 
99.080856 0.681233 
100.076195 0.711495 
100.11261 3.252838 
101.06015 0.721889 
101.950401 0.356897 
102.055489 0.049131 
102.091812 0.513955 
103.039375 0.557826 
103.054764 0.086146 
104.144302 0.045201 
104.279694 0.045996 
105.066551 0.063004 
105.070335 11.402942 
105.074242 0.07277 
106.073586 0.536661 
107.049568 2.185883 
107.085953 3.587415 
107.417419 0.02851 
108.081184 0.494965 
109.028816 0.091644 
109.06514 1.468051 
109.101555 2.803451 
110.060394 0.540783 
110.096802 0.398779 
111.04435 0.484897 
111.080765 0.807461 
111.11718 0.126654 
112.039726 0.10143 
113.06012 0.22608 
113.647408 0.025985 
114.055046 0.052036 
114.091682 0.383224 
116.008865 0.036194 
116.034309 0.091378 
116.107582 0.103172 
117.070206 1.290635 
119.049263 0.098479 
119.085831 2.297128 
119.263924 0.045288 
119.421036 0.043791 
119.960793 0.078647 
120.081123 0.49585 
120.088837 0.036053 
121.02887 0.086799 
121.065071 1.137364 
121.101425 2.215098 
122.060356 0.123119 
122.096703 2.148704 
123.044312 0.377397 
123.080742 1.032505 
123.117104 0.785129 
124.039703 0.134233 
124.075897 0.113095 
124.112259 2.514845 
124.528633 0.036385 
125.059837 0.189576 
125.096382 0.764008 
126.055214 0.201589 
126.09156 0.864986 
127.075516 0.084609 
128.034409 0.501681 
128.070786 0.070176 
128.094528 0.039797 
128.107086 0.076984 
129.023026 0.027511 
129.070038 0.973192 
130.034744 0.028211 
130.085831 0.042064 
130.976578 0.036001 
131.049194 0.203439 
131.085648 1.9902 
132.081146 0.095844 
132.249847 0.044457 
133.064774 0.638285 
133.101273 3.451368 
134.060532 0.104546 
134.096756 0.107187 
134.10437 0.067024 
135.044235 0.044708 
135.080475 1.235943 
135.104416 0.032763 
135.116943 1.611068 
136.061798 0.380573 
136.075592 0.166997 
136.112198 1.099391 
137.011887 0.569889 
137.059738 0.254353 
137.096191 0.452251 
137.132584 0.535691 
138.054962 0.074906 
138.091461 0.088116 
138.127777 1.53891 
139.039032 0.109789 
139.111694 0.356294 
139.131058 0.03021 
140.727219 0.041341 
141.090118 0.042062 
142.077774 0.076946 
142.122772 0.126319 
143.085709 0.913767 
145.064911 0.668087 
145.101242 2.901735 
146.044937 0.044526 
146.10466 0.028834 
147.080475 0.720514 
147.116898 2.731569 
147.184418 0.039841 
148.07579 0.983347 
148.111984 0.266778 
148.120132 0.070702 
149.059784 0.342607 
149.096191 0.600821 
149.107101 0.091116 
149.132584 0.707529 
150.054855 0.050037 
150.091415 2.550617 
150.127716 0.371805 
150.951416 0.230224 
151.0755 0.073652 
151.111771 0.28464 
152.107254 0.226339 
152.989807 0.035414 
153.091064 0.216439 
154.050217 0.059185 
154.122818 0.086119 
154.159561 0.036256 
154.209778 0.045114 
155.022217 0.303168 
155.085602 0.086819 
157.065323 0.08631 
157.101242 1.981824 
157.107712 0.045317 
157.564987 0.030872 
159.044052 0.041636 
159.080627 0.648177 
159.116867 2.12376 
160.027802 0.073275 
160.075775 3.451119 
160.112289 0.143423 
160.959915 0.040084 
161.059692 0.421901 
161.09613 0.709929 
161.132599 0.24036 
162.022034 0.055251 
162.055054 0.393923 
162.091354 0.629641 
163.075333 0.699455 
163.111694 0.753324 
163.523956 0.036503 
164.069855 0.036092 
164.107132 0.029244 
164.920547 0.353222 
165.090988 0.126516 
165.127655 0.109384 
166.122711 0.441829 
166.34938 0.039046 
167.085617 0.243011 
167.11792 1.504904 
167.141876 0.04237 
168.138397 0.165338 
168.961548 0.08781 
169.101273 1.191041 
171.067795 0.433742 
171.117065 0.174297 
172.075989 0.833146 
172.154343 0.042482 
173.05983 0.11887 
173.096466 0.44545 
173.132401 0.055799 
174.091431 0.652352 
174.128586 0.043298 
175.111908 2.139401 
175.148392 0.033765 
175.184204 0.03687 
176.070404 0.222193 
176.107224 0.24119 
177.054993 0.240773 
177.091049 0.315758 
177.127411 1.187889 
178.122589 0.444862 
179.084808 0.041611 
180.0177 0.081631 
180.101761 0.04337 
180.138412 0.33618 
182.117279 0.126294 
184.075775 0.362816 
185.096191 2.078225 
186.055145 0.408255 
186.091309 0.873786 
187.075302 0.300523 
187.111832 2.185313 
187.147415 0.055856 
187.692047 0.026735 
188.070724 0.758909 
189.090775 0.058295 
190.038223 0.64789 
191.070297 0.149297 
191.106842 0.10242 
192.053146 0.027816 
192.101578 0.061033 
192.185013 0.043364 
193.086182 0.042086 
193.121979 0.056085 
194.117996 0.053286 
195.080307 0.079844 
196.075729 0.079591 
196.133636 0.064926 
196.868271 0.207573 
197.096436 0.242666 
197.974442 0.745145 
198.054932 0.315158 
198.091385 0.768063 
199.314026 0.035205 
199.970215 0.238984 
200.037933 0.039376 
200.073196 0.261055 
202.086349 8.476727 
202.625504 0.037037 
203.09082 0.377725 
203.106537 0.921577 
204.065613 2.193344 
204.102234 0.037937 
204.138351 0.643823 
205.122482 1.274441 
205.522934 0.044552 
206.117523 1.247848 
206.977173 0.041149 
208.048691 0.420003 
208.133453 0.2535 
209.128372 0.045526 
210.091064 0.037209 
210.972366 0.044493 
212.070541 0.16178 
212.107529 0.075125 
213.09111 0.439354 
214.062622 0.037256 
214.086288 0.315365 
214.750656 0.835084 
214.761322 1.180824 
215.106827 0.524533 
215.129074 0.047845 
215.98439 0.051066 
216.065643 100.0 
216.13855 0.489063 
217.069092 7.956017 
217.122345 0.038665 
218.153885 0.105039 
218.726883 0.027377 
219.174316 0.259082 
220.096954 0.064897 
220.133331 0.136129 
220.179214 0.028701 
222.112595 0.108159 
222.149063 0.085882 
224.070633 1.27413 
225.450119 0.04528 
226.060516 0.033473 
226.086411 0.234838 
226.122299 0.047259 
228.066223 0.036555 
228.101501 0.221373 
230.081223 26.459585 
230.969223 0.036621 
231.084564 2.247766 
231.101456 0.678413 
232.105301 0.046561 
233.117462 0.252177 
233.165268 0.04345 
234.148956 2.638313 
234.186157 0.091951 
234.283615 0.047067 
235.151169 0.056407 
238.084579 0.041609 
242.081223 1.104513 
244.096939 17.827356 
245.100113 1.701122 
245.189484 0.033893 
246.149216 0.034196 
246.185791 0.041769 
246.220993 0.035575 
246.960617 0.045054 
248.127853 0.055872 
248.164413 0.489399 
249.11203 0.537223 
251.127884 0.083516 
252.946304 0.041779 
253.451111 0.044884 
254.081146 0.355839 
254.762711 0.028686 
256.096863 6.806453 
257.100586 0.276245 
258.112488 10.142239 
259.116058 0.672143 
260.20105 0.324479 
265.108307 0.026971 
265.768341 0.033563 
267.102753 0.036496 
267.148468 0.057435 
268.097748 0.112224 
270.112427 1.183705 
272.127899 0.429842 
274.144379 0.055361 
274.180237 0.462296 
274.216705 0.051968 
275.219727 0.084167 
276.098175 0.0444 
276.138489 0.040787 
276.195709 1.095535 
277.100647 0.108575 
278.153748 0.071979 
279.086823 0.027876 
280.089966 0.112365 
280.116608 0.034561 
280.190247 0.178689 
283.263214 0.174842 
284.128204 2.620579 
285.131012 0.042204 
286.18042 0.051368 
288.195892 3.365212 
289.199402 0.259675 
292.096497 1.303893 
292.190826 0.038489 
293.100342 3.596443 
293.164825 0.056073 
293.230804 0.257172 
294.077667 0.146981 
294.102631 15.806887 
295.105804 1.024304 
295.180023 0.036386 
296.055359 4.932916 
296.12793 0.903643 
296.164307 0.200724 
296.295135 0.085392 
297.123138 2.353675 
302.211334 0.485544 
304.190979 3.112155 
305.100067 0.251909 
305.193695 0.31693 
305.222229 1.957264 
306.083191 0.045461 
306.103363 3.752141 
306.206207 0.313203 
307.08017 1.154348 
307.109253 0.160716 
307.239594 0.039987 
308.082184 6.828185 
309.088135 0.312576 
310.07193 0.03508 
310.106323 0.071049 
319.777863 0.052293 
320.185089 0.157249 
320.221558 0.588057 
321.095398 2.04734 
321.114807 0.045757 
321.195801 0.601304 
321.223419 0.054713 
322.097931 25.781363 
322.179779 0.031315 
322.200409 0.628645 
323.076385 0.043807 
323.105499 21.569317 
323.174896 0.349884 
324.104828 0.164054 
324.124512 4.603119 
325.128143 0.833664 
337.256592 0.986616 
338.065765 0.056667 
338.129272 13.46407 
338.174774 0.38497 
338.212067 0.485333 
338.232697 0.477953 
338.26001 0.419295 
339.133118 1.270839 
339.171051 0.075809 
339.206512 25.439842 
339.265625 0.057339 
339.336609 2.292572 
340.155548 4.499214 
340.19046 14.25724 
340.210297 4.425647 
340.229431 0.219102 
340.340179 0.055786 
340.358856 0.055474 
340.393616 10.213845 
341.15799 0.478338 
341.191315 2.682925 
341.219666 0.382829 
341.396942 0.958045 
342.997131 0.049516 
349.102051 0.028761 
355.914886 0.04694 
END IONS

