BEGIN IONS
PEPMASS=309.016
CHARGE=1+
COMPOUNDNAME=Emodin
LIBRARYQUALITY=3
SMILES=N/A
INCHIKEY=RHMXXJGYXNZAPX-UHFFFAOYSA-N
INCHI=InChI=1S/C15H10O5/c1-6-2-8-12(10(17)3-6)15(20)13-9(14(8)19)4-7(16)5-11(13)18/h2-5,16-18H,1H3
MSLEVEL=2
SOURCE_INSTRUMENT=N/A-ESI-QFT
FILENAME=library_mgf.mgf
SEQ=*..*
IONMODE=positive
ORGANISM=MONA
NAME=Emodin [M+K]+
PI=MoNA
DATACOLLECTOR=MoNA:VF-NPL-QEHF011218
PUBMED=N/A
SUBMITUSER=mwang87
TAGS=
SPECTRUMID=CCMSLIB00004702281
SCANS=11218
50.668026 0.025854 
50.813656 0.0327 
51.645134 0.028508 
52.317596 0.028918 
52.430706 0.028304 
53.002949 0.031574 
53.17588 0.031988 
53.295143 0.026447 
53.403946 0.032373 
54.653011 0.028651 
55.018658 0.255996 
55.054977 2.876598 
55.432106 0.03485 
56.050297 0.139153 
56.055302 0.028938 
56.058456 0.031499 
56.756081 0.027727 
56.965717 0.038378 
57.034252 2.562526 
57.07061 13.061572 
57.959206 0.024309 
58.06591 0.847042 
58.074093 0.329748 
59.049858 12.139233 
59.061218 0.031322 
59.39595 0.028147 
59.999699 0.02782 
60.045143 0.125016 
60.053291 0.193273 
60.081455 0.03501 
60.522152 0.028962 
61.01136 6.799725 
62.01466 0.035594 
62.019241 0.185411 
62.060558 0.030656 
62.982563 0.428859 
63.027039 0.074119 
63.998501 0.349974 
64.771584 0.024519 
65.458923 0.031781 
65.897766 0.030044 
65.901451 0.030636 
66.405815 0.030863 
66.728653 0.026786 
67.054901 3.32025 
67.114853 0.028276 
67.44175 0.029247 
68.050171 0.040268 
68.058144 0.031408 
69.034256 1.180719 
69.045433 0.033253 
69.070534 5.347414 
69.113823 0.025168 
69.460068 0.030507 
70.06588 0.429526 
70.073921 0.116167 
70.438721 0.028136 
70.470619 0.029868 
71.049858 1.117145 
71.086182 12.586565 
71.256859 0.026792 
71.970375 0.03256 
72.045044 2.175478 
72.081505 0.320769 
72.089577 0.532704 
72.562851 0.030526 
72.736435 0.030691 
73.029099 0.804533 
73.065491 0.948768 
73.342987 0.030768 
74.060715 0.135619 
74.097107 0.421141 
74.931496 4.322989 
76.040009 0.224669 
76.92865 0.650055 
77.742096 0.032239 
78.014252 0.028692 
78.264091 0.031744 
79.021797 15.850342 
79.054871 1.473102 
79.401405 0.030511 
80.025154 0.147476 
80.050194 0.115925 
80.937691 0.033277 
80.948402 2.214249 
81.017555 0.183672 
81.034149 0.288983 
81.070442 6.265808 
82.065765 0.418793 
82.07386 0.22348 
82.870277 0.037359 
82.945473 0.603686 
83.049736 0.793166 
83.086098 4.973512 
83.347504 0.034606 
83.584618 0.023998 
84.045021 0.596829 
84.081352 1.097586 
84.089798 0.030927 
84.118378 0.032817 
84.232033 0.037912 
84.717667 0.034979 
85.029007 0.347281 
85.065392 1.42119 
85.101715 10.226591 
85.104477 0.210355 
86.060646 0.307067 
86.096954 1.950711 
86.105072 0.449754 
87.044624 1.69202 
87.621864 0.040597 
88.021996 0.032707 
88.076294 0.173051 
88.204544 0.030107 
88.813927 0.03327 
88.957672 0.037686 
89.060226 33.532665 
89.076408 0.037194 
90.063614 1.459587 
90.068352 0.04035 
90.091805 0.433657 
90.948364 0.032592 
91.054817 0.984101 
91.058128 0.033268 
92.942329 0.611139 
93.070351 2.584088 
94.939507 0.029165 
95.049599 0.667405 
95.060905 0.109935 
95.085953 6.144354 
96.044914 0.038047 
96.089531 0.056065 
96.922295 0.161446 
96.995773 0.070996 
97.028915 0.506755 
97.065231 1.370178 
97.101593 3.177115 
97.628265 0.031315 
98.060463 0.281637 
98.975716 0.032397 
98.984718 0.068137 
99.044518 1.159893 
99.080864 1.549854 
99.117271 0.615628 
99.272232 0.033952 
100.021973 0.064732 
100.076103 2.143544 
100.112495 0.126678 
101.00354 2.802 
101.060066 2.835961 
102.055351 0.079506 
103.039398 0.080701 
103.050652 0.393119 
103.075592 0.047099 
104.992599 0.355741 
105.070267 1.386442 
106.608734 0.026157 
107.049332 0.100771 
107.070633 2.096846 
107.085808 2.618748 
107.865364 0.035195 
107.967102 1.317822 
108.073868 0.032144 
108.238815 0.028204 
108.988327 0.034319 
109.064972 0.887682 
109.101463 3.969987 
109.746529 0.031008 
110.06031 0.139428 
110.104675 0.095675 
110.298943 0.035467 
110.952927 0.428858 
111.044388 0.163426 
111.080704 1.156828 
111.117081 0.814236 
113.059959 0.655153 
113.096519 0.28358 
113.669907 0.037655 
114.055229 0.034074 
114.091621 0.775569 
114.128189 0.036418 
115.050346 0.223733 
115.075584 0.335253 
116.016342 0.034498 
116.053131 0.940917 
116.070786 0.203256 
116.984718 0.107628 
117.070015 0.099471 
117.091194 0.787333 
118.001945 0.043822 
118.032196 0.087017 
118.086624 0.06556 
118.9804 0.031526 
119.00148 0.054192 
119.085739 1.331577 
120.00341 0.063181 
120.080894 1.245993 
121.039696 0.279014 
121.064987 0.472502 
121.101257 2.65884 
122.557808 0.03452 
123.044395 0.053231 
123.080559 0.857864 
123.116997 1.724163 
124.075851 0.027765 
124.112335 0.070148 
124.119621 0.027934 
125.059799 0.167334 
125.096169 1.148011 
126.054863 0.04443 
126.091522 0.072924 
127.03904 0.31819 
127.050545 0.027467 
127.075493 0.112293 
127.112038 0.068543 
128.070663 0.699804 
128.10704 0.451824 
130.049927 0.851659 
130.086288 0.594476 
130.107941 0.030687 
130.159088 0.074597 
131.052399 1.120757 
131.085556 0.610606 
132.080719 0.249301 
132.947098 0.029268 
132.995651 0.03912 
133.064697 0.043647 
133.085953 4.853588 
133.101059 1.507454 
134.089355 0.121156 
134.978973 0.214186 
134.996582 0.116358 
135.010666 0.047301 
135.044403 0.034449 
135.080368 0.617402 
135.116745 2.063242 
136.075684 2.121816 
136.974335 0.083722 
137.011841 0.042375 
137.059265 0.029791 
137.096008 0.858761 
137.132446 1.749633 
137.291992 0.029297 
137.921494 0.328875 
139.0504 0.13884 
139.075287 0.202143 
139.111618 0.630441 
140.106888 0.748106 
140.959167 0.625785 
141.090805 0.02818 
141.163605 0.116908 
142.122574 0.415348 
142.159012 0.260209 
142.938477 1.68862 
143.057938 0.041196 
143.085709 0.043065 
143.535492 0.033905 
144.065353 0.051682 
145.100998 0.818373 
147.044006 0.162467 
147.081055 0.078608 
147.116745 0.97827 
148.060181 0.076465 
148.075836 0.033423 
149.023163 0.055348 
149.095993 0.480143 
149.132477 0.920185 
149.954025 1.770395 
149.969925 0.029051 
150.01384 0.045604 
150.336533 0.027265 
150.950912 8.721524 
151.075684 0.035244 
151.096375 5.983211 
151.111557 0.456517 
151.147842 0.047924 
151.943634 0.334059 
152.099792 0.242579 
152.944778 11.695949 
152.951416 7.812753 
152.989243 0.641873 
153.090942 0.09102 
153.127304 0.131134 
153.948517 0.044917 
154.122559 0.356259 
154.941376 2.590965 
154.984787 0.921126 
155.106415 0.095681 
155.849701 0.028767 
155.93248 0.071071 
156.138092 0.27929 
157.101166 0.077513 
158.99501 0.314918 
159.046997 0.880587 
159.116882 0.359052 
159.991699 0.031925 
160.990433 0.203012 
161.011261 0.057114 
161.095886 0.178834 
161.132385 0.405676 
162.012421 0.032274 
162.049911 0.091249 
163.005768 0.039818 
163.075241 0.079983 
163.11145 0.236209 
163.147919 0.273733 
164.106628 0.034441 
164.920456 3.480137 
164.928284 0.041754 
164.96669 0.179498 
165.054626 1.149682 
165.090576 0.149478 
165.12735 0.874394 
165.151108 0.03675 
165.164139 0.039377 
166.086212 0.298753 
166.123291 0.040274 
166.916168 0.159593 
166.966904 0.417856 
167.003357 0.033521 
167.070663 0.031484 
167.118271 0.033399 
167.143768 0.047456 
167.964752 1.324906 
168.961487 5.601999 
168.98288 0.036634 
169.049957 0.031207 
169.954071 0.452117 
170.914169 0.485558 
170.955231 96.293777 
171.01358 1.285786 
171.063095 0.0306 
171.10144 0.032837 
171.116821 0.101366 
171.948181 0.035757 
171.959259 1.90943 
172.952164 21.381956 
172.995239 0.2244 
173.011261 0.324538 
173.132202 0.242892 
174.972305 1.534653 
174.990143 0.142104 
175.0056 0.098681 
175.038849 0.111169 
175.111664 0.209637 
175.14769 0.207851 
175.971527 0.035977 
176.369125 0.032696 
176.985519 0.124011 
177.005478 0.082987 
177.057556 1.082273 
177.090576 0.090592 
177.127151 0.343376 
177.163696 0.057555 
178.058731 0.066753 
178.085754 0.031986 
179.001129 0.033936 
179.106155 0.380667 
180.1008 0.098057 
180.13829 0.132565 
180.894241 0.068752 
181.985962 0.125411 
182.081024 0.271684 
182.154205 0.037559 
182.977112 0.279041 
183.114044 0.036315 
184.970901 4.809027 
185.010941 0.035178 
185.132858 0.030906 
186.927795 0.546672 
186.967773 1.023076 
188.924545 3.822272 
188.965775 100.0 
189.018188 0.175249 
189.054443 0.478799 
189.090805 0.08411 
189.96965 1.911944 
190.158356 0.034242 
190.962692 22.234392 
191.021683 0.228367 
191.106323 0.035305 
191.178955 0.028596 
192.024643 0.075558 
192.137573 0.044881 
192.96138 0.158958 
193.122223 0.497783 
193.621094 0.026139 
194.116058 0.14161 
195.050507 0.106674 
195.099197 0.797202 
196.095596 0.044439 
196.957916 0.11763 
197.014328 0.124643 
198.154312 0.103409 
198.954163 0.301136 
199.00824 0.041959 
199.649979 0.068615 
202.92247 0.047213 
202.981506 5.858018 
203.070084 0.674549 
204.978012 1.25456 
205.98877 0.032959 
206.976593 4.173462 
207.054108 0.070431 
207.160019 0.130417 
208.059998 0.053804 
208.132904 0.03768 
208.654694 0.104942 
208.973434 0.825583 
209.03009 0.220522 
209.11644 0.255465 
210.954132 1.456626 
210.972153 0.092832 
211.983673 0.08038 
212.987762 0.18094 
213.009476 0.14217 
213.054733 0.343883 
213.977081 0.030284 
214.967896 0.493494 
215.165085 0.558215 
215.179337 0.582532 
215.188446 0.247755 
215.94693 1.250318 
216.966003 0.429466 
216.99707 0.034692 
217.049515 1.818074 
217.942612 0.253269 
219.17421 2.364176 
220.177689 2.00016 
221.153229 0.341821 
222.146957 0.03356 
222.878662 0.046411 
222.898178 1.229411 
225.042313 0.034659 
225.123047 0.499823 
226.011887 0.159112 
226.044785 0.335122 
226.070892 0.137814 
227.022095 1.103741 
227.069839 0.080697 
227.90036 0.070124 
227.930023 0.035185 
227.967926 0.140385 
228.020599 0.087765 
228.928909 0.035713 
228.96463 1.570952 
229.001068 2.07165 
229.017914 0.06855 
229.085403 0.134343 
229.192032 0.03854 
229.895584 1.637503 
229.92688 1.541493 
229.955322 0.050299 
230.000717 0.198181 
230.917007 0.039328 
230.929108 0.508587 
230.958099 10.370543 
230.978897 2.46234 
230.999939 0.038597 
231.064911 7.793348 
231.135605 0.163906 
231.925964 0.186271 
231.96138 0.231629 
232.068115 0.938871 
232.955322 2.684195 
233.014786 0.352324 
233.044388 0.740894 
233.066116 0.54564 
233.189545 0.075159 
234.146317 0.379039 
235.095032 0.030372 
235.177963 0.228292 
235.981598 0.09606 
236.161667 0.034829 
236.915588 0.039329 
237.024216 0.517655 
237.111633 1.11446 
237.160675 0.04212 
237.922852 0.035831 
238.912979 0.034033 
239.175903 0.043475 
240.908936 3.004489 
241.049179 2.019074 
242.051971 0.037136 
242.175934 0.037926 
243.101151 0.03808 
244.097244 0.033638 
244.995819 0.081962 
245.08046 1.080893 
245.911606 0.038755 
246.111832 0.043175 
246.938889 0.397938 
246.957962 0.039133 
247.011703 0.949504 
247.047058 0.514195 
247.906448 1.733843 
247.919724 0.190013 
247.938019 1.09651 
248.011627 0.077397 
248.044617 0.897557 
248.494843 0.033806 
248.917297 0.05204 
248.939407 7.535984 
248.955185 0.093015 
248.968765 5.405171 
248.990799 5.729962 
249.005219 0.051633 
249.042267 0.795233 
249.062515 0.106506 
249.07576 0.037931 
249.145828 0.201033 
249.182739 0.089822 
249.936859 4.276452 
250.042191 0.04698 
250.177292 0.595366 
250.934647 2.327343 
250.966354 1.395162 
250.986191 0.052354 
251.025803 2.614236 
251.046478 1.18506 
251.125092 0.158751 
252.050201 0.127838 
253.033722 0.03343 
255.064713 0.032258 
255.100815 0.089803 
255.173447 0.047023 
257.101379 0.027169 
259.059509 0.070491 
260.822571 0.092675 
261.906647 0.034631 
262.215637 0.045878 
262.954346 0.277359 
262.985443 0.074105 
263.006073 0.134898 
263.901367 1.089379 
263.953369 0.043991 
264.122375 0.439224 
264.157104 0.039415 
264.170471 0.041033 
264.231598 0.032672 
264.908813 0.493533 
264.970093 0.03898 
265.037506 0.215022 
265.057861 0.035441 
265.085693 0.033591 
265.188965 0.041448 
265.912445 0.032512 
266.209045 0.035294 
266.949829 2.010496 
266.965057 0.092781 
267.052094 0.274056 
267.947937 0.199678 
268.059601 0.529192 
268.945099 0.432334 
268.978638 0.180899 
268.995941 0.759008 
269.035675 0.603078 
272.200104 0.176431 
272.236816 0.045741 
273.007019 0.18269 
273.075623 2.424587 
273.144653 0.075894 
273.184875 0.049372 
274.078033 0.10589 
275.109558 0.083886 
275.131989 0.648227 
275.161163 0.792121 
275.198639 0.083646 
276.124512 0.645994 
276.163757 0.045212 
276.193878 0.207549 
276.230652 0.032306 
277.140106 0.439951 
277.176605 0.386317 
278.172424 0.67433 
278.208649 5.926701 
279.156342 0.112087 
279.211151 0.089934 
279.896973 0.287265 
279.915894 0.801842 
281.080475 0.353331 
281.911499 9.172129 
282.051941 0.160296 
282.07608 0.085216 
282.916809 0.492281 
283.059235 2.135961 
283.095825 0.31547 
285.009125 0.040206 
285.814728 0.202314 
285.83252 0.03918 
286.823151 0.145371 
287.830902 0.634719 
288.83725 0.082614 
289.133148 0.030634 
289.227478 0.700032 
290.173859 0.240596 
290.210876 1.590725 
290.228729 0.181848 
290.247131 1.311405 
290.910431 0.033786 
291.068481 0.686248 
291.085724 5.687543 
291.132782 0.060937 
291.154968 0.324237 
291.194885 0.050433 
291.212555 0.047852 
291.251129 0.087254 
292.088654 0.689448 
292.11734 0.295765 
292.15274 0.079789 
292.188416 0.042851 
292.226013 0.437469 
292.263092 0.034157 
293.031494 0.111275 
293.065674 0.04033 
293.209747 0.28198 
294.827789 0.127758 
294.903381 0.062951 
295.927002 0.478827 
297.906036 0.181609 
302.817566 0.3894 
307.059326 0.81549 
307.077728 0.042958 
307.096802 2.806298 
307.11615 0.060083 
307.134766 0.081177 
307.162598 17.715187 
307.186768 1.169486 
307.222015 0.125125 
307.238434 1.006954 
307.28067 0.53215 
307.30957 1.901266 
308.062622 0.089118 
308.067413 0.14764 
308.090851 13.594155 
308.146484 0.290371 
308.163635 2.689188 
308.184326 1.692232 
308.202606 0.040431 
308.220581 2.784578 
308.238403 0.45305 
308.256775 2.020596 
308.294342 2.711418 
308.312378 0.123842 
308.330139 0.267599 
309.038544 0.51329 
309.077393 15.661987 
309.096497 9.012591 
309.128784 3.132711 
309.165314 5.908347 
309.202515 1.546839 
309.220184 0.696395 
309.258789 0.484746 
309.278107 6.228523 
309.296173 0.482117 
309.325378 1.198726 
310.07019 44.637165 
310.102295 0.303039 
310.166473 0.84226 
310.200073 1.005138 
310.21637 0.328514 
310.2341 1.740523 
310.252777 0.874101 
310.274231 2.155423 
310.309814 6.839819 
310.329071 0.120171 
310.345062 1.568224 
310.822754 0.354931 
311.073242 9.430537 
311.093536 0.159685 
311.125916 0.228091 
311.145142 0.842527 
311.180695 1.176717 
311.199188 1.281237 
311.218109 0.594608 
311.236633 0.171916 
311.25528 3.611311 
311.293884 4.650709 
311.82901 0.038532 
312.838684 5.180557 
312.857574 0.065383 
313.839447 0.240827 
326.817719 0.4513 
326.85437 0.131618 
327.825104 0.617145 
328.833618 3.335651 
329.835144 0.149908 
330.014435 0.026791 
330.848541 0.12212 
END IONS

