BEGIN IONS
PEPMASS=825.451
CHARGE=1+
COMPOUNDNAME=MoNA:746847 Nodularin
LIBRARYQUALITY=3
SMILES=N/A
INCHIKEY=IXBQSRWSVIBXNC-HSKGSTCASA-N
INCHI=InChI=1S/C41H60N8O10/c1-8-31-38(54)48-34(40(57)58)26(5)36(52)46-29(15-12-20-44-41(42)43)37(53)45-28(25(4)35(51)47-30(39(55)56)18-19-33(50)49(31)6)17-16-23(2)21-24(3)32(59-7)22-27-13-10-9-11-14-27/h8-11,13-14,16-17,21,24-26,28-30,32,34H,12,15,18-20,22H2,1-7H3,(H,45,53)(H,46,52)(H,47,51)(H,48,54)(H,55,56)(H,57,58)(H4,42,43,44)/b17-16+,23-21+,31-8-/t24-,25-,26-,28-,29-,30+,32-,34+/m0/s1
MSLEVEL=2
SOURCE_INSTRUMENT=LC-ESI-QFT-LC-ESI-QFT
FILENAME=output_mgf.mgf
SEQ=*..*
IONMODE=
ORGANISM=MONA
NAME=MoNA:746847 Nodularin [M+H]+
PI=MoNA
DATACOLLECTOR=MoNA
PUBMED=N/A
SUBMITUSER=mwang87
TAGS=
SPECTRUMID=CCMSLIB00000567023
SCANS=4274
58.0652 0.125448 
59.0478 0.475484 
60.0557 1.256758 
63.0228 0.111669 
65.0386 3.571853 
67.0542 1.71262 
68.0495 2.863282 
69.0335 1.151468 
69.0699 0.367557 
70.0651 66.981683 
71.0491 1.158018 
72.0808 1.672656 
74.0235 0.207461 
77.0386 3.643991 
78.0464 0.139763 
79.0542 11.568273 
80.0495 0.970579 
81.0335 0.790192 
81.0572 0.135942 
81.0699 0.780391 
82.0287 1.717547 
82.0652 0.577002 
83.0492 1.038309 
83.0604 0.179697 
84.0444 8.989792 
85.0284 1.648135 
85.0761 0.608805 
86.0601 0.549119 
89.0388 0.187009 
91.0542 35.086039 
92.0621 0.973226 
93.0699 5.518985 
94.0651 2.646039 
95.0491 35.550484 
95.0603 1.963074 
96.0444 0.778943 
96.0683 0.198763 
96.0808 0.715054 
97.0761 4.023575 
98.0601 3.440353 
99.0189 0.935721 
100.0757 0.817914 
102.0465 2.137981 
102.055 0.116434 
103.0543 100.0 
104.0619 0.130206 
105.0448 6.474554 
105.0699 26.643193 
106.0651 0.358348 
106.0777 0.136152 
107.0855 10.432662 
108.0808 1.306835 
109.0648 3.194548 
109.0761 0.785829 
110.0235 0.151825 
110.0601 0.356337 
110.0712 0.168442 
110.0963 0.119709 
111.0553 0.195187 
112.087 1.825506 
113.0234 1.702749 
113.071 0.684835 
114.055 0.191918 
114.1026 0.391771 
115.0542 11.14531 
115.0867 0.888989 
116.0619 0.941865 
117.0699 5.598915 
118.0651 0.250099 
119.0605 0.739741 
119.0855 1.070575 
120.0571 2.172935 
120.0682 0.555154 
120.0807 1.155462 
120.0934 0.362477 
121.0646 0.118154 
121.0759 0.117947 
122.06 0.164437 
122.0839 0.157763 
122.0964 0.150156 
123.0554 0.10818 
124.0394 0.139914 
124.0516 0.10751 
124.0756 0.148931 
125.071 0.835059 
127.0865 0.636917 
128.0621 1.051863 
129.0697 0.820951 
130.0499 0.548084 
130.0649 0.237488 
130.0778 0.33502 
130.0977 0.112723 
131.0856 0.891948 
133.0649 0.124871 
133.076 0.184122 
134.0965 0.172198 
135.0805 2.068879 
135.0917 3.75072 
135.1168 0.454273 
136.0757 0.543909 
136.0995 0.530909 
137.1073 0.585149 
138.0662 0.170501 
138.0913 0.1981 
140.0818 0.109465 
141.0655 0.673544 
142.0781 0.13117 
143.0862 0.126599 
144.0807 0.131243 
145.1012 0.110966 
146.0598 0.101664 
147.0917 0.118853 
151.0864 0.109029 
153.1022 1.429441 
163.0865 0.558575 
165.07 0.698347 
165.1023 0.105368 
170.0966 0.175042 
172.112 0.160761 
179.0856 0.392872 
181.0972 1.112476 
209.0918 0.148933 
END IONS

