BEGIN IONS
PEPMASS=180.0
CHARGE=1+
COMPOUNDNAME=Massbank:KO002885 Butyl pyridine-2-carboxylate|2-Pyridinecarboxylic acid, butyl ester|Butyl 2-pyridinecarboxylate|Fusaric acid
LIBRARYQUALITY=3
SMILES=CCCCc(c1)cnc(c1)C(O)=O
INCHIKEY=DGMPVYSXXIOGJY-UHFFFAOYSA-N
INCHI=1S/C10H13NO2/c1-2-3-4-8-5-6-9(10(12)13)11-7-8/h5-7H,2-4H2,1H3,(H,12,13)
MSLEVEL=2
SOURCE_INSTRUMENT=ESI-LC-ESI-QQ
FILENAME=Massbank_ESI_positive_8_1_2014_peaks.mgf
SEQ=*..*
IONMODE=Positive
ORGANISM=MASSBANK
NAME=Massbank:KO002885 Butyl pyridine-2-carboxylate|2-Pyridinecarboxylic acid, butyl ester|Butyl 2-pyridinecarboxylate|Fusaric acid [M+H]+
PI=Putative Massbank Match
DATACOLLECTOR=Massbank
PUBMED=N/A
SUBMITUSER=mwang87
TAGS=
SPECTRUMID=CCMSLIB00000218274
SCANS=8687
36.0 173267.5 
41.1 485149.0 
45.2 663367.0 
45.9 232673.5 
54.3 54455.5 
55.2 292079.5 
57.3 7920800.0 
59.2 193069.5 
63.1 54455.5 
65.2 9901.0 
70.0 44554.5 
72.0 247525.0 
72.8 64356.5 
73.9 856436.5 
77.9 7544562.0 
79.8 94059.5 
83.1 331683.5 
83.9 178218.0 
85.3 49505.0 
87.2 178218.0 
88.1 955446.5 
89.2 3826736.5 
91.4 9901.0 
96.0 8014859.5 
99.0 128713.0 
101.0 2306933.0 
102.2 44554.5 
103.0 59406.0 
105.5 1747526.5 
106.0 105455551.0 
107.0 2495052.0 
113.2 44554.5 
113.9 14851.5 
116.2 564357.0 
116.8 74257.5 
117.4 34653.5 
120.8 64356.5 
124.2 112960509.0 
126.3 69307.0 
131.2 74257.5 
134.0 589109.5 
145.0 133663.5 
148.2 44554.5 
162.4 103960.5 
163.2 1668318.5 
180.2 7094066.5 
END IONS

