BEGIN IONS
PEPMASS=192.05
CHARGE=1+
COMPOUNDNAME=Aconitic Acid
LIBRARYQUALITY=3
SMILES=N/A
INCHIKEY=GTZCVFVGUGFEME-IWQZZHSRSA-N
INCHI=InChI=1S/C6H6O6/c7-4(8)1-3(6(11)12)2-5(9)10/h1H,2H2,(H,7,8)(H,9,10)(H,11,12)/b3-1-
MSLEVEL=2
SOURCE_INSTRUMENT=N/A-ESI-QFT
FILENAME=library_mgf.mgf
SEQ=*..*
IONMODE=positive
ORGANISM=MONA
NAME=Aconitic Acid [M+NH4]+
PI=MoNA
DATACOLLECTOR=MoNA:VF-NPL-QEHF026296
PUBMED=N/A
SUBMITUSER=mwang87
TAGS=
SPECTRUMID=CCMSLIB00004717359
SCANS=26296
50.31889 0.01322 
51.038429 0.006975 
51.172443 0.010973 
51.245781 0.011898 
51.32832 0.005998 
51.940327 0.464235 
52.062447 0.010417 
52.351139 0.011782 
52.408077 0.013877 
52.499203 0.01269 
52.586292 0.006253 
52.793858 0.010582 
53.228134 0.006638 
54.711201 0.012029 
54.808632 0.014309 
55.018208 0.011446 
55.054573 0.376926 
55.239483 0.013728 
55.857582 0.014972 
55.934746 0.115154 
56.046883 0.010034 
56.757408 0.006422 
56.965057 0.011459 
57.033802 0.282507 
57.070187 0.923745 
57.276531 0.00621 
57.407593 0.006298 
57.55825 0.009661 
57.924805 0.011261 
58.065372 0.063504 
58.611855 0.010521 
58.8899 0.012016 
59.049416 0.858988 
59.298431 0.011565 
59.494148 0.013133 
59.814117 0.009997 
59.89378 0.011704 
60.044662 0.264451 
60.096878 0.013035 
61.010883 76.284988 
61.377617 0.011349 
61.75135 0.011761 
62.010288 0.273278 
62.01421 1.175484 
62.018684 4.601779 
62.466434 0.009807 
63.006649 0.343247 
63.026501 0.366135 
63.148701 0.012896 
64.014465 0.049412 
65.279007 0.012722 
65.357742 0.013524 
65.891205 0.013324 
66.694832 0.011637 
67.054367 1.700535 
67.245621 0.014188 
67.792854 0.013847 
67.935005 0.571619 
68.068321 0.014309 
68.457756 0.012178 
68.879059 0.006216 
68.942871 0.023578 
68.962692 0.06638 
69.027191 0.01292 
69.033615 0.046503 
69.061417 0.012542 
69.069977 0.635176 
69.276329 0.014792 
69.960953 0.030802 
70.065254 0.196378 
70.764587 0.014115 
70.957924 3.341885 
71.049248 0.558335 
71.272285 0.011999 
71.602524 0.011163 
71.929382 0.031094 
71.993523 0.01343 
72.044479 1.325366 
72.080849 0.287914 
72.603653 0.011268 
72.719795 0.013977 
72.937218 0.749305 
73.637436 0.006745 
74.02375 0.04073 
74.060066 0.056004 
74.455742 0.012254 
75.635826 0.006411 
76.006699 0.013911 
77.061462 0.014171 
78.000877 0.142893 
79.021263 0.311848 
79.05426 0.997989 
79.423294 0.012148 
79.853531 0.014877 
80.049767 0.006282 
81.069939 2.990599 
81.515289 0.015405 
81.796074 0.013994 
82.06501 0.00905 
82.885002 0.015239 
83.049187 0.261412 
83.085533 0.867781 
83.295998 0.012121 
83.427483 0.006416 
83.929863 0.627484 
84.044594 0.02614 
84.080978 0.031699 
84.28727 0.013894 
84.937675 0.05445 
85.028488 0.088403 
85.064857 0.382142 
85.695251 0.01317 
85.832848 0.014674 
85.945465 0.280684 
86.060143 0.8513 
86.085915 0.012929 
86.096481 0.30654 
87.044151 3.757944 
87.06337 0.010297 
87.534904 0.011225 
87.906433 0.034268 
88.03933 0.139692 
88.047478 0.0354 
88.07576 0.212386 
88.795334 0.014661 
88.968483 0.849839 
89.059753 0.325687 
89.649353 0.013936 
89.939957 0.289926 
90.947754 0.931332 
91.054283 1.527158 
91.317825 0.015263 
93.069954 2.994655 
93.877701 0.006336 
94.07341 0.04967 
94.077797 0.126577 
94.23632 0.011139 
95.00872 0.013873 
95.049202 0.108074 
95.085548 4.22288 
95.26487 0.013264 
95.429199 0.012137 
96.080803 0.018495 
96.088951 0.054897 
96.440727 0.01092 
96.669022 0.012534 
97.06485 1.142673 
97.101166 0.064237 
97.314117 0.015488 
98.072609 0.153238 
99.043968 0.014175 
99.080467 0.225964 
99.845268 0.010458 
100.075722 3.728093 
101.079178 0.040769 
101.128899 0.01409 
101.940407 0.400025 
102.055214 0.00695 
102.930099 0.089027 
102.948059 0.546626 
103.039001 0.368529 
103.279373 0.013407 
103.956093 0.038591 
104.016953 0.007233 
104.040459 0.013374 
104.963394 0.217804 
105.000275 0.012279 
105.069908 1.33322 
105.917038 0.456378 
106.115334 0.012233 
107.085587 3.09785 
107.254211 0.013346 
107.95018 0.098634 
108.088997 0.046881 
108.84079 0.014957 
108.958405 0.016029 
109.064835 0.7231 
109.075752 0.006089 
109.101219 1.976174 
110.067818 0.01887 
111.080467 0.807198 
112.075851 0.044887 
112.953735 0.013445 
113.096138 0.064745 
114.035797 0.011542 
114.091454 0.115215 
114.948166 0.359555 
116.034416 0.006926 
116.071022 0.008507 
117.06987 0.133362 
117.537216 0.015065 
117.916962 0.27908 
117.971649 0.085324 
118.065254 0.012339 
118.086151 0.019118 
118.925072 0.149616 
118.943169 0.191854 
119.019081 0.040272 
119.049194 48.419914 
119.085571 2.286187 
119.950935 1.034009 
120.052559 3.847132 
120.080757 0.080856 
120.088867 0.026178 
120.093712 0.015385 
120.099045 0.01189 
120.547363 0.007987 
120.940552 1.742998 
120.95105 0.013969 
121.10125 1.649599 
121.691193 0.010304 
122.639885 0.015152 
122.974052 0.012507 
123.08046 0.366957 
123.11676 0.065671 
123.92733 0.007086 
123.93528 0.010679 
123.991653 0.011113 
125.960922 0.015166 
128.106979 3.838604 
128.580795 0.017213 
129.017883 0.009276 
129.110214 0.386245 
130.086288 1.46736 
130.943115 1.00158 
130.954788 0.017298 
130.962891 0.445259 
131.001343 0.013616 
131.034195 0.026668 
131.070145 0.031227 
131.085464 1.588293 
131.126083 0.013535 
131.950974 0.182215 
131.961304 1.391125 
132.06543 0.035685 
132.089127 0.024335 
132.101852 1.171513 
132.940567 0.341376 
132.958221 8.235082 
132.97937 0.006814 
133.101151 2.556474 
133.261719 0.014191 
133.948242 1.939632 
134.044662 0.024024 
134.063461 0.621496 
134.09639 0.094852 
134.919617 0.014574 
134.950989 0.014889 
134.956116 1.133256 
135.066711 0.007622 
135.080399 0.34888 
135.116791 2.320709 
135.927612 0.710954 
136.075989 0.039121 
136.111832 0.007654 
136.120377 0.045389 
137.011734 0.750361 
137.096115 0.275546 
137.107513 0.027954 
138.054901 0.097388 
138.92691 0.016054 
138.951004 0.969279 
139.595551 0.007017 
142.728745 0.014695 
144.10202 0.297857 
144.427963 0.017024 
144.747696 0.015304 
144.958649 0.32222 
145.101028 0.347548 
145.958847 0.025137 
145.988815 0.01468 
146.081451 0.034317 
146.096771 0.013271 
146.104156 0.015069 
146.957123 0.039996 
146.976486 6.155983 
147.02356 0.007087 
147.116867 2.267167 
147.927917 0.037213 
147.974823 2.762883 
148.090775 0.012555 
148.112152 0.055878 
148.119919 0.021693 
148.561417 0.011802 
148.971893 100.0 
149.096115 0.871364 
149.10791 0.011894 
149.132523 1.762641 
149.961075 0.800623 
149.972168 2.480594 
150.099136 0.016338 
150.12796 0.025469 
150.540955 0.014096 
150.951065 2.794405 
150.968826 8.869284 
151.111908 0.007358 
151.958878 0.749595 
151.970139 0.016698 
152.951416 0.008671 
152.966644 1.185591 
153.61171 0.013858 
153.938156 0.157698 
155.022217 0.266534 
160.955536 0.016475 
161.011795 1.40084 
161.060028 0.041189 
161.07045 0.026633 
161.36113 0.014968 
162.091064 0.013276 
162.951248 1.570768 
163.111725 0.280694 
163.148239 0.12179 
163.998779 0.592992 
164.271667 0.012387 
164.930862 0.10578 
164.967163 0.007417 
164.987076 1.252606 
165.127258 0.026948 
165.938141 0.99314 
165.985184 0.060715 
166.982422 21.003155 
167.971603 0.231924 
167.983978 0.260569 
168.961563 0.600265 
168.979889 0.00916 
169.708786 0.014543 
170.443832 0.014712 
170.977051 0.007758 
171.587189 0.013693 
172.133347 0.152861 
173.070297 0.013803 
173.132538 4.443594 
173.14064 0.048138 
174.055984 0.01511 
174.091705 0.057898 
174.127991 0.140279 
174.135925 0.531583 
174.148926 0.213934 
175.098877 0.0138 
175.111679 0.007937 
175.148193 5.855083 
175.942749 0.256501 
176.106995 0.112859 
176.143463 0.071762 
176.151459 0.132963 
176.941223 0.577471 
177.929733 0.021757 
177.938187 7.809938 
178.963608 0.007902 
179.022369 11.739122 
179.932785 0.006933 
179.954422 0.36631 
179.965164 0.018211 
180.023483 0.765353 
180.961792 1.764723 
180.998062 0.664737 
181.952637 0.013039 
182.009125 0.068421 
182.450684 0.015102 
183.948883 0.226062 
186.935913 0.183969 
190.086426 0.198629 
190.107513 0.410037 
190.126373 2.213979 
190.143784 7.198449 
190.158646 2.10837 
190.180252 0.080418 
190.945679 0.017263 
190.966339 1.502337 
191.058548 0.006881 
191.117996 1.766489 
191.128784 1.080441 
191.142822 5.221027 
191.162857 0.347786 
191.179459 0.221746 
191.955521 0.007724 
191.964691 1.198041 
192.06601 0.059492 
192.076202 0.015312 
192.102493 2.025465 
192.112717 0.413909 
192.122452 1.456761 
192.138321 44.732166 
192.174698 5.771879 
192.961731 25.959904 
193.037735 0.049658 
193.086914 0.02318 
193.097122 0.220384 
193.105942 0.0665 
193.12381 0.027748 
193.141983 5.615099 
193.158768 5.719272 
193.169525 0.464041 
193.178391 0.690393 
193.939423 0.013235 
193.953384 0.279734 
193.964066 0.87212 
194.067352 1.123056 
194.081268 0.090557 
194.096344 0.099653 
194.117645 0.987739 
194.128693 0.451171 
194.13855 0.27715 
194.154007 11.342483 
194.315735 0.014689 
194.951859 0.921983 
195.912186 0.012671 
195.948822 8.117736 
196.711014 0.016023 
196.949982 0.014985 
197.033051 1.608809 
200.626022 0.012133 
206.977783 0.140858 
207.978607 0.425894 
208.957336 0.064955 
208.976456 1.084191 
209.012115 0.007906 
209.637543 0.016176 
209.96489 0.130227 
209.975174 0.837487 
210.972183 14.722088 
211.026398 0.015839 
211.973816 0.404977 
END IONS

