BEGIN IONS
PEPMASS=129.0
CHARGE=1+
COMPOUNDNAME=MoNA:2276327 2-Hydroxy-3-Naphthoyl-2-Naphthylamine
LIBRARYQUALITY=3
SMILES=N/A
INCHIKEY=LVHBHZANLOWSRM-UHFFFAOYSA-N
INCHI=InChI=1S/C5H6O4/c1-3(5(8)9)2-4(6)7/h1-2H2,(H,6,7)(H,8,9)
MSLEVEL=2
SOURCE_INSTRUMENT=LC-ESI-QQ-LC-ESI-QQ
FILENAME=output_mgf.mgf
SEQ=*..*
IONMODE=
ORGANISM=MONA
NAME=MoNA:2276327 2-Hydroxy-3-Naphthoyl-2-Naphthylamine [M-H]-
PI=MoNA
DATACOLLECTOR=MoNA
PUBMED=N/A
SUBMITUSER=mwang87
TAGS=
SPECTRUMID=CCMSLIB00000565584
SCANS=2836
41.2 100.0 
44.6 40.0 
57.0 33.333333 
73.0 33.333333 
85.1 46.666667 
END IONS

