BEGIN IONS
PEPMASS=176.1
CHARGE=1+
COMPOUNDNAME=Massbank:KNA00441 L-Citrulline|2-Amino-5-ureidovaleric acid|Citrulline
LIBRARYQUALITY=3
SMILES=NC(=O)NCCC[C@H](N)C(O)=O
INCHIKEY=RHGKLRLOHDJJDR-BYPYZUCNSA-N
INCHI=1S/C6H13N3O3/c7-4(5(10)11)2-1-3-9-6(8)12/h4H,1-3,7H2,(H,10,11)(H3,8,9,12)/t4-/m0/s1
MSLEVEL=2
SOURCE_INSTRUMENT=ESI-LC-ESI-ITFT
FILENAME=Massbank_ESI_positive_8_1_2014_peaks.mgf
SEQ=*..*
IONMODE=Positive
ORGANISM=MASSBANK
NAME=Massbank:KNA00441 L-Citrulline|2-Amino-5-ureidovaleric acid|Citrulline [M+H]
PI=Putative Massbank Match
DATACOLLECTOR=Massbank
PUBMED=N/A
SUBMITUSER=mwang87
TAGS=
SPECTRUMID=CCMSLIB00000216504
SCANS=7813
70.089081 1176.278564 
113.156357 3369.008301 
115.074234 11487.200195 
116.092255 1091.655396 
130.137451 5881.589844 
133.147705 7723.461914 
141.015625 984.802673 
159.063126 1698767.25 
END IONS

