BEGIN IONS
TITLE=Scan Number: 1389
PEPMASS=440.16901
CHARGE=1+
COMPOUNDNAME=_130033
LIBRARYQUALITY=2
SMILES=CC(/C=C/C=C/C=C(C)/C([C@]1(O2)[C@@H]2C(CCO)(O)NC1=O)=O)=C\C(C(OC)=O)=C/C
INCHIKEY=OHWILISHWFHITP-DVRJAZNUSA-N
INCHI=N/A
MSLEVEL=2
SOURCE_INSTRUMENT=LC-ESI-qToF
FILENAME=P2_C11_conc_GE11_01_2430.mzXML
SEQ=*..*
NOTES=
IONMODE=Positive
ORGANISM=GNPS-LIBRARY
NAME=_130033 M+Na
SPECTRUMID=CCMSLIB00000478467
ACTIVATION=CID
INSTRUMENT=ion trap
SCANS=1389
119.086098 392.0 
121.029121 416.0 
125.985802 284.0 
129.072632 332.0 
141.07196 736.0 
141.975983 264.0 
143.08728 832.0 
144.085556 328.0 
145.066986 388.0 
148.014709 324.0 
148.075775 276.0 
149.98671 452.0 
155.087387 376.0 
157.100052 380.0 
158.045792 280.0 
158.099121 380.0 
158.551239 444.0 
159.081726 944.0 
160.092804 412.0 
166.048004 380.0 
166.079391 592.0 
167.002029 372.0 
168.094742 408.0 
169.066132 256.0 
169.098663 288.0 
170.103806 368.0 
171.118561 1012.0 
174.062592 460.0 
178.053101 400.0 
180.009094 460.0 
182.065903 352.0 
183.076309 356.0 
184.090408 632.0 
186.032028 256.0 
186.529938 340.0 
186.55986 436.0 
187.062622 420.0 
187.555069 272.0 
189.047562 268.0 
190.020355 440.0 
194.018585 268.0 
195.561966 456.0 
196.030899 404.0 
197.098038 376.0 
198.006744 360.0 
198.555298 448.0 
199.113235 1152.0 
200.115173 328.0 
201.018539 260.0 
201.059464 380.0 
205.013687 508.0 
208.020065 400.0 
209.094086 760.0 
211.041824 276.0 
211.112839 984.0 
212.115997 404.0 
212.565216 276.0 
213.137177 364.0 
214.021103 376.0 
216.097855 396.0 
217.052689 284.0 
221.05188 268.0 
226.038223 428.0 
226.095795 336.0 
226.566483 252.0 
227.105392 492.0 
228.037628 480.0 
228.57196 856.0 
229.072952 408.0 
234.569473 284.0 
235.04248 296.0 
237.573563 340.0 
238.065948 444.0 
239.109894 360.0 
240.108841 252.0 
246.575623 336.0 
247.081055 424.0 
248.022415 340.0 
248.565353 272.0 
249.054428 412.0 
249.082932 448.0 
253.050613 452.0 
258.076721 328.0 
261.057983 388.0 
265.089661 468.0 
266.585327 280.0 
267.070831 588.0 
267.10199 348.0 
269.11731 636.0 
269.583801 252.0 
270.04306 272.0 
272.072754 532.0 
279.064301 560.0 
279.577057 412.0 
281.087067 348.0 
282.592194 292.0 
283.09021 308.0 
286.074493 464.0 
289.084381 268.0 
290.099518 996.0 
292.615723 436.0 
293.049652 344.0 
293.119629 440.0 
293.600098 284.0 
295.060822 300.0 
297.086304 1108.0 
299.591919 260.0 
301.600006 264.0 
303.081757 436.0 
304.603424 264.0 
305.083771 380.0 
307.057068 268.0 
307.121765 396.0 
310.1474 344.0 
311.050659 456.0 
312.077881 336.0 
316.099457 396.0 
319.115356 300.0 
320.13028 384.0 
321.051331 308.0 
321.104095 500.0 
323.126373 308.0 
325.084534 432.0 
325.138489 380.0 
326.60611 456.0 
327.118347 260.0 
327.155579 256.0 
329.0672 404.0 
329.097565 464.0 
329.136749 548.0 
330.089874 312.0 
335.095337 268.0 
335.628967 468.0 
336.135834 568.0 
338.07077 336.0 
338.139954 1596.0 
339.147491 444.0 
345.608307 496.0 
347.627686 592.0 
348.088867 336.0 
349.137573 404.0 
351.130402 432.0 
354.101929 872.0 
354.625488 268.0 
355.090759 380.0 
356.116394 324.0 
358.0961 288.0 
362.098053 424.0 
362.630341 312.0 
363.13913 328.0 
370.095703 300.0 
372.107056 340.0 
374.138611 328.0 
375.124084 264.0 
377.128143 400.0 
378.135315 868.0 
381.120026 268.0 
382.131317 604.0 
383.111542 412.0 
384.109161 276.0 
386.143433 1028.0 
386.644836 1020.0 
387.146973 520.0 
387.652618 404.0 
392.147461 568.0 
397.159058 404.0 
401.134216 496.0 
403.125 392.0 
408.111328 796.0 
409.117523 304.0 
412.119202 356.0 
412.172577 440.0 
422.156158 568.0 
423.172272 372.0 
428.65448 264.0 
429.148895 404.0 
437.15979 1480.0 
437.661774 2488.0 
438.122375 400.0 
438.163605 1112.0 
438.666321 652.0 
439.152435 360.0 
439.658264 716.0 
440.169312 98920.0 
440.261536 488.0 
441.171814 28280.0 
441.689758 412.0 
442.171936 3024.0 
443.17868 400.0 
443.711029 348.0 
END IONS

