BEGIN IONS
PEPMASS=321.005
CHARGE=1+
COMPOUNDNAME=MoNA:1033341 MLS001055372-01! M+H
LIBRARYQUALITY=3
SMILES=N/A
INCHIKEY=WIIZWVCIJKGZOK-RKDXNWHRSA-N
INCHI=InChI=1S/C11H12Cl2N2O5/c12-10(13)11(18)14-8(5-16)9(17)6-1-3-7(4-2-6)15(19)20/h1-4,8-10,16-17H,5H2,(H,14,18)/t8-,9-/m1/s1
MSLEVEL=2
SOURCE_INSTRUMENT=LC-ESI-QFT-LC-ESI-QFT
FILENAME=output_mgf.mgf
SEQ=*..*
IONMODE=
ORGANISM=MONA
NAME=MoNA:1033341 MLS001055372-01! M+H [M-H]-
PI=MoNA
DATACOLLECTOR=MoNA
PUBMED=N/A
SUBMITUSER=mwang87
TAGS=
SPECTRUMID=CCMSLIB00000569980
SCANS=7231
78.0349 4.77243 
79.0191 0.624735 
82.9461 10.355923 
84.0092 0.627925 
90.0351 0.306835 
91.0189 1.434931 
92.0267 1.725143 
93.0347 2.030937 
105.0346 0.438585 
106.03 1.351349 
108.0219 2.203469 
117.0348 1.687706 
120.0218 1.167462 
121.0296 100.0 
122.025 2.168433 
124.0404 0.626556 
135.0327 1.23305 
147.0453 0.878439 
148.0407 0.432673 
151.0274 9.884893 
152.0356 0.682935 
159.0326 0.418028 
161.0356 0.364877 
162.0198 0.42294 
END IONS

