BEGIN IONS
PEPMASS=337.172
CHARGE=1+
COMPOUNDNAME=rabelomycin
LIBRARYQUALITY=3
SMILES=N/A
INCHIKEY=JJOLHRYZQSDLSA-UHFFFAOYSA-N
INCHI=InChI=1S/C19H14O6/c1-19(25)6-8-5-11(21)15-16(13(8)12(22)7-19)17(23)9-3-2-4-10(20)14(9)18(15)24/h2-5,20-21,25H,6-7H2,1H3
MSLEVEL=2
SOURCE_INSTRUMENT=N/A-Linear Ion Trap
FILENAME=library_mgf.mgf
SEQ=*..*
IONMODE=negative
ORGANISM=MONA
NAME=rabelomycin M-H
PI=MoNA
DATACOLLECTOR=MoNA:VF-NPL-LTQ000638
PUBMED=N/A
SUBMITUSER=mwang87
TAGS=
SPECTRUMID=CCMSLIB00004684885
SCANS=506
241.820007 1.080574 
252.979996 36.014782 
267.029999 1.481923 
279.970001 16.222778 
293.01001 2.567444 
295.049988 100.0 
322.019989 20.225533 
END IONS

