BEGIN IONS
PEPMASS=319.119
CHARGE=1+
COMPOUNDNAME=MoNA:2846622 Mycophenolic acid_130117 M+H
LIBRARYQUALITY=3
SMILES=N/A
INCHIKEY=HPNSFSBZBAHARI-RUDMXATFSA-N
INCHI=InChI=1S/C17H20O6/c1-9(5-7-13(18)19)4-6-11-15(20)14-12(8-23-17(14)21)10(2)16(11)22-3/h4,20H,5-8H2,1-3H3,(H,18,19)/b9-4+
MSLEVEL=2
SOURCE_INSTRUMENT=LC-ESI-QTOF-LC-ESI-QTOF
FILENAME=output_mgf.mgf
SEQ=*..*
IONMODE=
ORGANISM=MONA
NAME=MoNA:2846622 Mycophenolic acid_130117 M+H [M-H]-
PI=MoNA
DATACOLLECTOR=MoNA
PUBMED=N/A
SUBMITUSER=mwang87
TAGS=
SPECTRUMID=CCMSLIB00000569294
SCANS=6545
187.0749 14.475108 
187.1163 1.37987 
188.3789 0.568182 
190.024 1.406926 
190.0354 0.757576 
191.0343 100.0 
191.0736 4.031385 
191.089 2.11039 
191.1074 2.191558 
191.1264 1.515152 
191.1627 1.731602 
191.2302 0.568182 
191.3219 0.676407 
191.3543 1.136364 
191.3768 0.892857 
191.5818 0.811688 
191.909 0.892857 
192.0403 13.717532 
192.0573 0.541126 
192.3981 0.595238 
193.0477 2.137446 
197.0659 0.676407 
197.0929 1.948052 
199.0736 4.816017 
199.1096 0.568182 
200.0802 3.354978 
201.0523 0.622294 
201.0898 10.957792 
201.1149 1.082251 
203.0327 24.512987 
203.0866 0.784632 
203.6389 0.649351 
205.0504 54.599567 
205.0921 2.380952 
205.113 1.055195 
205.1837 0.757576 
205.2308 1.677489 
205.8243 0.703463 
210.0722 0.649351 
213.0577 0.541126 
214.0572 1.136364 
214.1048 0.676407 
215.0689 0.94697 
215.109 4.707792 
217.0492 1.352814 
217.0831 2.218615 
227.0697 3.300866 
227.1271 0.541126 
229.0507 2.678571 
230.0628 0.676407 
231.0626 7.683983 
231.6966 1.028139 
241.084 0.919913 
243.0726 1.731602 
243.3403 1.109307 
245.0816 13.825758 
245.1245 0.622294 
248.9494 0.649351 
261.1354 0.811688 
275.1343 1.136364 
283.2381 0.730519 
END IONS

