BEGIN IONS
PEPMASS=1077.57
CHARGE=1+
COMPOUNDNAME=N-[(3S,6S,9S,11R,15S,18S,20R,21R,24S,25S,26S)-3-[(1R)-2-carbamoyl-1-hydroxyethyl]-6-[(1S,2S)-1,2-dihydroxy-2-(4-hydroxyphenyl)ethyl]-11,20,21,25-tetrahydroxy-15-[(1R)-1-hydroxyethyl]-26-methyl-2,5,8,14,17,23-hexaoxo-1,4,7,13,16,22-hexaazatricyclo[22.3.0.0?,��]heptacosan-18-yl]-10,12-dimethyltetradecanamide
LIBRARYQUALITY=3
SMILES=N/A
INCHIKEY=DFQUSLQYURJBIT-MFKXNLKNSA-N
INCHI=InChI=1S/C51H82N8O17/c1-6-25(2)19-26(3)13-11-9-7-8-10-12-14-37(66)53-32-21-35(64)47(72)57-49(74)41-42(67)27(4)23-59(41)51(76)39(34(63)22-36(52)65)55-48(73)40(44(69)43(68)29-15-17-30(61)18-16-29)56-46(71)33-20-31(62)24-58(33)50(75)38(28(5)60)54-45(32)70/h15-18,25-28,31-35,38-44,47,60-64,67-69,72H,6-14,19-24H2,1-5H3,(H2,52,65)(H,53,66)(H,54,70)(H,55,73)(H,56,71)(H,57,74)/t25?,26?,27-,28+,31+,32-,33-,34+,35+,38-,39-,40-,41-,42-,43-,44-,47+/m0/s1
MSLEVEL=2
SOURCE_INSTRUMENT=N/A-ESI-QFT
FILENAME=library_mgf.mgf
SEQ=*..*
IONMODE=negative
ORGANISM=MONA
NAME=N-[(3S,6S,9S,11R,15S,18S,20R,21R,24S,25S,26S)-3-[(1R)-2-carbamoyl-1-hydroxyethyl]-6-[(1S,2S)-1,2-dihydroxy-2-(4-hydroxyphenyl)ethyl]-11,20,21,25-tetrahydroxy-15-[(1R)-1-hydroxyethyl]-26-methyl-2,5,8,14,17,23-hexaoxo-1,4,7,13,16,22-hexaazatricyclo[22.3.0.0?,��]heptacosan-18-yl]-10,12-dimethyltetradecanamide [M-H]-
PI=MoNA
DATACOLLECTOR=MoNA:VF-NPL-QEHF024862
PUBMED=N/A
SUBMITUSER=mwang87
TAGS=
SPECTRUMID=CCMSLIB00004715925
SCANS=24862
74.795105 0.025758 
75.654732 0.026687 
76.43663 0.027473 
76.529968 0.023448 
76.65657 0.018785 
76.96019 0.024292 
78.380836 0.028825 
79.381332 0.025623 
80.049194 0.096908 
80.109337 0.029301 
82.028412 1.207495 
82.427254 0.021549 
82.775063 0.020737 
83.023674 0.35678 
83.628212 0.020216 
84.003143 0.024093 
84.007706 0.355763 
84.310555 0.020883 
85.028084 0.395447 
85.325874 0.024643 
85.724907 0.029219 
86.765236 0.023151 
94.028404 0.186628 
95.023705 9.925243 
95.279633 0.025314 
95.950729 0.02359 
96.007683 0.543606 
96.026878 0.059882 
96.044044 0.695267 
97.028069 0.394442 
97.039192 0.024016 
97.926926 0.026829 
97.960632 0.02566 
98.02343 5.504222 
98.145294 0.024156 
99.018677 14.917196 
100.021904 0.058167 
100.039047 0.632527 
101.431679 0.019879 
101.608109 0.024003 
103.022514 0.027206 
103.295547 0.026794 
103.6436 0.028195 
104.441719 0.025153 
105.280136 0.02801 
105.836609 0.021446 
108.044136 0.076746 
109.039314 0.291907 
110.023438 3.893973 
110.51088 0.026193 
110.527702 0.024571 
111.007439 5.204148 
111.018646 1.351197 
112.039047 1.622255 
112.050331 0.923532 
112.298004 0.027908 
112.40136 0.026935 
113.023079 0.3096 
113.034348 8.094822 
113.650398 0.017797 
114.956032 0.02389 
116.500992 0.026656 
116.517143 0.029656 
119.04895 0.254161 
120.887627 0.025421 
121.55616 0.026909 
122.023468 0.493773 
122.822342 0.034153 
123.055084 0.306589 
124.011406 0.026477 
124.039146 13.869313 
125.023117 1.877598 
125.034302 0.275638 
125.042381 0.247633 
125.537094 0.021421 
126.054504 0.133615 
127.050034 0.16938 
127.056854 0.023827 
128.034042 5.349512 
128.045273 0.469912 
128.728683 0.021765 
129.018051 0.275556 
129.065704 6.444776 
129.800964 0.027321 
130.049698 4.456805 
130.055954 0.135987 
130.060944 7.794456 
131.044754 0.055018 
131.689301 0.020633 
133.039825 0.023851 
134.137619 0.027046 
136.039062 0.053195 
137.034317 0.320468 
137.07077 0.32086 
138.018311 0.288601 
138.029358 0.023606 
138.054764 0.377074 
138.239807 0.025637 
139.038803 1.334204 
139.050034 1.269951 
139.347137 0.021022 
140.034073 0.918665 
140.044983 0.040953 
141.029373 0.12169 
141.065903 0.125446 
141.208679 0.026511 
142.049744 2.383114 
142.061096 0.087047 
142.448441 0.024366 
143.045425 0.026619 
146.116821 0.024329 
147.0439 0.343354 
148.050476 0.025308 
148.215927 0.025453 
148.44519 0.033516 
149.034561 0.728755 
149.071259 0.033364 
150.018356 1.10403 
150.569641 0.021835 
151.039154 0.070782 
151.050064 1.348821 
151.652069 0.030175 
152.034134 0.513233 
152.045319 1.725507 
152.611633 0.02343 
152.835419 0.016977 
153.029602 0.124268 
153.065918 0.077756 
154.049744 0.023874 
154.061081 0.132173 
155.045044 2.972264 
156.029282 0.109964 
156.040329 19.592531 
156.047653 0.336855 
157.043854 0.370357 
157.06073 2.518297 
158.055679 0.026914 
158.064178 0.036167 
159.415939 0.018575 
160.075073 0.029417 
162.054886 0.058748 
163.050095 2.113856 
164.034012 0.244519 
164.081909 0.068792 
164.382401 0.028661 
164.625061 0.028351 
164.636002 0.022996 
165.029373 0.052795 
165.065735 1.337924 
165.888718 0.02522 
165.917252 0.027015 
166.013535 0.485419 
166.049927 0.616675 
166.060867 0.119729 
167.045059 5.346446 
167.240616 0.027095 
168.022003 0.088305 
168.029205 9.168338 
168.04039 1.41646 
168.04776 0.057125 
168.076752 2.457393 
168.274231 0.027957 
169.031723 0.026436 
169.060806 15.858488 
169.072052 3.636866 
170.044861 2.0447 
170.056137 1.181105 
170.063965 0.621204 
171.076813 0.023124 
172.039368 1.331132 
172.071686 0.544085 
173.874481 0.024946 
174.054825 0.027178 
175.573914 0.021603 
177.065933 0.088309 
177.696274 0.024295 
179.045273 0.661959 
180.065079 0.085033 
180.076981 0.06345 
181.060883 5.258566 
181.755569 0.024748 
182.044861 0.82516 
182.055969 0.40821 
182.06427 0.058431 
182.092438 1.006203 
182.909363 0.027871 
183.076584 0.984093 
184.071793 0.090028 
185.055786 7.24724 
185.066956 2.285283 
186.039902 1.491862 
186.055008 3.116641 
186.087524 19.851665 
186.190964 0.026607 
187.071732 2.243041 
187.082626 13.380049 
187.090759 0.939909 
188.086334 0.305418 
190.050171 0.939583 
190.059067 0.028344 
191.081589 0.029002 
192.041534 0.026508 
192.132751 0.024845 
193.060944 1.108733 
193.097519 0.135111 
194.056122 0.663368 
194.080795 0.034826 
194.406326 0.021966 
195.040543 0.224755 
195.051025 0.091574 
195.077377 0.035458 
196.062592 0.024793 
196.071899 1.751458 
197.056213 0.513408 
197.066772 0.242194 
198.087463 0.383305 
198.389893 0.027443 
199.071838 0.194023 
199.082336 0.142318 
200.067444 0.025385 
200.103256 0.773218 
201.066086 1.6942 
204.06572 0.163041 
204.076782 0.026339 
206.056396 0.59242 
206.256989 0.026732 
207.040558 2.437913 
207.077011 0.036421 
208.071976 1.224567 
209.056274 0.268551 
209.067123 0.580374 
209.092514 0.171385 
210.051376 0.442375 
210.087784 0.095671 
212.066879 3.263675 
213.062225 29.828852 
214.065643 1.565262 
214.082596 3.857214 
215.077576 0.084794 
215.087891 0.027003 
215.131073 0.019744 
215.458435 0.026885 
216.068649 0.026673 
217.061356 0.024446 
219.07692 2.777455 
219.087952 0.032609 
219.332016 0.027923 
220.060669 0.026641 
220.071823 0.818636 
221.056168 0.305777 
221.674377 0.029481 
222.051529 0.030602 
222.087936 0.216971 
223.071716 0.174919 
223.083054 0.357402 
224.067108 4.014326 
225.050888 4.243174 
225.062546 2.619185 
225.098846 3.689327 
225.872711 0.026915 
226.071304 0.061169 
226.082825 3.991254 
227.066559 0.518434 
227.077896 1.015896 
229.06102 0.060731 
233.055786 0.027464 
234.087921 0.058873 
235.071671 0.544112 
237.087555 10.688423 
237.099014 0.573962 
238.082413 1.838409 
239.065567 0.055284 
239.114685 0.464944 
240.34549 0.027466 
241.093826 0.646999 
242.077896 9.961224 
243.062363 0.027367 
243.079956 0.561871 
243.109421 19.632076 
243.664139 0.021883 
244.093018 0.74634 
244.113632 0.669253 
250.083954 0.049201 
251.06572 0.375833 
251.078568 1.604162 
251.294678 0.020272 
252.062119 0.026724 
252.09845 0.257545 
253.09433 3.178348 
254.248749 0.188491 
255.097565 0.421077 
255.110611 0.397657 
256.147095 0.02454 
257.088776 0.165439 
257.125 0.391668 
258.381042 0.022039 
260.06723 1.315004 
262.08313 2.037906 
263.065796 0.683068 
263.079376 0.901323 
264.062378 0.085878 
265.094025 0.607938 
266.114441 0.206629 
267.074036 0.056385 
267.109863 0.061101 
268.093903 0.103104 
268.131744 0.052374 
269.089142 9.822469 
270.085693 0.241172 
271.104645 5.744337 
272.10733 0.094659 
276.098633 1.935564 
277.093964 0.205147 
278.076752 0.027213 
280.093109 3.179646 
281.077118 5.706687 
281.090332 5.58056 
282.072845 0.691234 
282.094391 0.160682 
282.12088 8.265311 
283.104706 3.057006 
283.122162 0.488003 
286.083221 7.246445 
287.086273 0.466616 
288.098145 0.253264 
290.114471 0.030357 
294.109222 2.017839 
294.243652 0.999142 
295.104248 4.235398 
296.105377 0.060657 
298.103821 1.610883 
298.397736 0.025379 
299.099579 17.733143 
299.710602 0.032465 
300.130981 100.0 
301.134583 9.729504 
302.135651 0.092627 
303.109772 3.554987 
304.093842 4.661199 
304.110352 0.175762 
304.198883 0.080102 
304.221008 0.069831 
305.096893 0.116652 
307.105194 0.176053 
308.100098 1.518409 
308.119904 0.031651 
309.102448 0.027906 
309.120483 0.621758 
310.116089 0.322298 
312.119934 1.656255 
313.319458 0.023383 
314.113708 0.182316 
319.10379 0.067117 
320.10083 0.460821 
322.115692 0.328841 
322.274475 0.264826 
325.115143 3.145341 
326.110168 10.283445 
327.113251 0.725358 
328.126129 0.889525 
330.097076 0.480176 
331.103302 0.032524 
333.120758 0.38967 
334.151611 0.140876 
335.099426 0.227722 
337.115295 1.277267 
338.112 2.187347 
339.094055 0.800147 
339.141876 0.726868 
340.126068 2.336314 
342.14032 0.021944 
351.130524 0.669613 
352.128387 0.045376 
352.162384 0.240418 
352.51535 0.027483 
353.110046 7.366097 
354.112762 0.618494 
354.320557 0.024744 
355.124237 2.702867 
356.122528 3.38314 
357.126556 0.797468 
357.152679 19.287273 
358.155914 2.188237 
361.286072 0.578381 
363.601135 0.028542 
365.004547 0.025515 
365.109802 0.10832 
366.264679 0.218123 
367.12558 0.031673 
368.292542 0.024533 
369.141083 0.706698 
377.121063 0.291907 
382.135986 0.164005 
384.578918 0.026899 
387.612427 0.02772 
394.137329 0.039004 
395.129425 0.508152 
396.1539 0.0373 
400.051056 0.028664 
400.138733 2.289709 
400.232666 0.020652 
401.144958 0.307973 
403.137573 0.024971 
405.146942 0.052908 
405.27301 0.065415 
407.168213 0.112885 
408.150299 0.031963 
412.146698 0.037026 
412.899536 0.036028 
415.138 0.042624 
415.929291 0.028686 
416.158813 0.071713 
417.933136 0.027077 
421.147736 2.066663 
423.163025 1.821343 
423.283264 0.027252 
425.313354 0.130242 
427.161804 0.309077 
433.147003 2.522766 
438.071594 0.024205 
439.158051 15.37747 
440.161224 2.38367 
441.17337 1.62999 
442.175751 0.0367 
442.606293 0.033806 
451.158295 9.753046 
452.160767 1.495109 
456.86673 0.027417 
466.629364 0.026169 
467.152985 0.375677 
469.16864 17.265108 
469.226776 0.034431 
470.17157 2.971694 
471.17569 0.024615 
473.175873 0.030913 
473.717377 0.026644 
482.334747 0.335535 
489.4505 0.027422 
493.37973 0.027958 
500.521484 0.026566 
503.190247 0.431464 
504.190399 0.048653 
508.687988 0.029277 
521.199951 0.345995 
522.270386 0.024323 
536.334351 0.37711 
537.333374 0.025299 
538.348999 0.030187 
539.207581 0.040848 
545.578552 0.023645 
554.344543 0.069391 
581.534668 0.028722 
592.236633 0.020831 
594.929626 0.022885 
599.456726 0.019892 
605.10791 0.02392 
607.101807 0.027824 
614.213745 0.026438 
635.554626 0.028334 
664.993225 0.03339 
696.275024 0.021409 
702.310486 0.032943 
704.523926 0.030107 
708.040466 0.065041 
708.380615 0.068856 
708.588867 0.031572 
708.774597 0.026326 
714.60437 0.035345 
721.185913 0.024015 
728.479614 0.026924 
746.737366 0.030519 
752.157776 0.021618 
754.775085 0.029529 
771.666626 0.023338 
819.517822 0.02762 
851.90387 0.026996 
855.256104 0.027268 
861.567566 0.034213 
891.157104 0.029765 
914.096985 0.034246 
936.911011 0.021693 
954.692322 0.028254 
994.369141 0.036743 
1016.900879 0.028664 
1033.431885 0.02666 
1044.6521 0.028793 
1045.450073 0.034391 
1051.71936 0.022497 
1077.376831 0.023816 
1106.333008 0.029105 
END IONS

