BEGIN IONS
PEPMASS=341.137
CHARGE=1+
COMPOUNDNAME=Dechlorogriseofulvin
LIBRARYQUALITY=3
SMILES=N/A
INCHIKEY=QPCYNIYZPDJCMB-UHFFFAOYSA-N
INCHI=InChI=1S/C17H18O6/c1-9-5-10(18)6-14(22-4)17(9)16(19)15-12(21-3)7-11(20-2)8-13(15)23-17/h6-9H,5H2,1-4H3
MSLEVEL=2
SOURCE_INSTRUMENT=N/A-Linear Ion Trap
FILENAME=library_mgf.mgf
SEQ=*..*
IONMODE=positive
ORGANISM=MONA
NAME=Dechlorogriseofulvin M+H
PI=MoNA
DATACOLLECTOR=MoNA:VF-NPL-LTQ000584
PUBMED=N/A
SUBMITUSER=mwang87
TAGS=
SPECTRUMID=CCMSLIB00004684835
SCANS=456
163.039993 0.582635 
175.089996 1.152759 
180.970001 3.163504 
202.059998 8.293436 
215.039993 2.083786 
227.080002 2.28851 
230.820007 5.985361 
232.860001 3.548837 
243.009995 11.8151 
259.929993 7.478562 
262.850006 100.0 
267.140015 4.857515 
276.100006 2.677685 
276.959991 10.187388 
280.209991 38.264114 
292.359985 2.925535 
296.26001 11.772935 
299.019989 28.831465 
302.130005 56.902081 
308.160004 11.520422 
322.320007 65.958527 
END IONS

