BEGIN IONS
PEPMASS=345.134
CHARGE=1+
COMPOUNDNAME=GIBBERELLIC ACID
LIBRARYQUALITY=3
SMILES=N/A
INCHIKEY=IXORZMNAPKEEDV-SNTJWBGVSA-N
INCHI=InChI=1S/C19H22O6/c1-9-7-17-8-18(9,24)5-3-10(17)19-6-4-11(20)16(2,15(23)25-19)13(19)12(17)14(21)22/h4,6,10-13,20,24H,1,3,5,7-8H2,2H3,(H,21,22)/t10-,11+,12-,13-,16+,17+,18+,19-/m1/s1
MSLEVEL=2
SOURCE_INSTRUMENT=N/A-ESI-QFT
FILENAME=library_mgf.mgf
SEQ=*..*
IONMODE=negative
ORGANISM=MONA
NAME=GIBBERELLIC ACID [M-H]-
PI=MoNA
DATACOLLECTOR=MoNA:VF-NPL-QEHF006365
PUBMED=N/A
SUBMITUSER=mwang87
TAGS=
SPECTRUMID=CCMSLIB00004697428
SCANS=6365
50.127148 0.029835 
50.466358 0.032799 
50.962921 0.030201 
51.073444 0.028412 
51.182404 0.03305 
51.237106 0.036859 
51.785172 0.037659 
52.119247 0.031802 
52.191242 0.028577 
52.25322 0.032581 
52.820972 0.033603 
52.915054 0.029953 
53.433193 0.02839 
53.690849 0.035312 
55.017426 0.098418 
56.957302 0.037057 
57.033077 0.13886 
57.301933 0.029228 
57.821693 0.028392 
57.832344 0.023251 
59.258343 0.029033 
59.393585 0.030668 
59.969063 0.032765 
60.99168 0.079679 
61.140961 0.03239 
61.159584 0.031273 
61.867428 0.032146 
62.171597 0.029168 
63.059975 0.030943 
63.958084 0.030653 
63.985043 0.034377 
64.000954 0.027983 
64.14003 0.048119 
64.16346 0.025969 
64.974648 0.031233 
65.326149 0.035035 
65.412392 0.02907 
65.881271 0.03005 
65.99131 0.025424 
66.267883 0.032232 
67.076706 0.03864 
68.301582 0.030082 
68.87764 0.032504 
69.033188 0.25696 
70.81543 0.030216 
71.048836 21.12047 
71.051094 0.061872 
71.289436 0.034416 
71.626961 0.045875 
72.052177 0.565324 
72.250023 0.032955 
73.028099 5.561522 
73.871246 0.036129 
74.800064 0.044773 
75.104111 0.03211 
77.165916 0.041055 
78.892319 0.03943 
79.520905 0.030269 
80.245293 0.042339 
81.275131 0.027334 
82.421516 0.03009 
82.509651 0.029867 
82.649414 0.034448 
83.048874 12.975676 
83.626602 0.030265 
84.052177 0.238383 
84.068649 0.035963 
84.295273 0.027803 
84.308708 0.030289 
84.856995 0.031528 
84.908188 0.02678 
85.155266 0.032965 
85.322647 0.031561 
85.782356 0.029279 
85.814217 0.029894 
85.833954 0.034285 
86.507393 0.033222 
86.883591 0.030044 
87.132645 0.032681 
87.435371 0.030213 
87.480492 0.02952 
88.184807 0.034583 
88.279808 0.037758 
89.620102 0.034334 
91.191856 0.029765 
93.902679 0.028441 
95.626923 0.035663 
97.71508 0.029217 
98.286499 0.03592 
100.19606 0.027901 
100.987556 0.030242 
101.303307 0.036449 
101.792122 0.029389 
102.640907 0.032211 
102.934326 0.033439 
102.94664 0.031079 
105.069611 1.809473 
106.809135 0.03657 
107.048798 0.077005 
107.65033 0.034296 
108.701759 0.036905 
109.616859 0.030817 
112.39679 0.031273 
113.124611 0.031976 
115.505829 0.038861 
117.301712 0.035415 
119.085663 0.114626 
119.267532 0.039522 
120.977211 0.02707 
121.064316 0.101215 
121.819267 0.040279 
122.113754 0.033863 
124.486443 0.034853 
125.486526 0.041616 
125.687515 0.02969 
126.44751 0.029723 
127.015526 0.035016 
127.531433 0.031966 
127.55545 0.029579 
130.735947 0.031002 
131.097122 0.032114 
133.064713 0.188471 
135.017044 0.033006 
135.504532 0.030928 
139.194244 0.031436 
139.940552 0.028339 
142.365021 0.030056 
143.054474 0.212432 
143.085388 100.0 
143.116577 0.053592 
143.477631 0.031949 
144.088669 10.855694 
145.064514 0.042101 
146.072632 0.611544 
146.880829 0.033727 
149.095917 0.169669 
150.745026 0.031801 
152.844711 0.036375 
154.760345 0.029194 
155.051132 0.03225 
155.085632 0.120455 
156.38591 0.045728 
157.101852 0.035844 
159.080338 0.618598 
159.124817 0.029445 
160.85878 0.037119 
161.0961 5.927849 
162.09935 0.275974 
168.247787 0.034504 
169.101166 0.085215 
171.080688 0.191711 
172.088211 0.034616 
172.186584 0.042654 
173.096237 0.773368 
178.551514 0.03412 
179.018768 0.030116 
182.897186 0.036856 
183.080826 0.691272 
183.116837 0.052666 
185.096375 0.865102 
189.090866 0.040316 
189.964157 0.034958 
190.235214 0.031158 
190.755447 0.041571 
191.773254 0.032458 
193.101532 0.943258 
194.327576 0.03281 
197.09613 0.337103 
197.132935 1.916 
198.068512 0.072473 
199.075729 0.728445 
199.112106 1.290892 
199.186249 0.032121 
201.127792 3.677063 
202.131241 0.162819 
205.101242 0.244567 
205.695374 0.029828 
206.109161 0.039668 
207.226059 0.034017 
209.096542 0.497628 
212.084015 0.032691 
213.127884 2.23083 
214.131607 0.043426 
214.495361 0.036593 
214.679443 0.036941 
214.705719 1.280123 
214.716553 0.338351 
215.143448 0.108329 
219.117538 0.598192 
221.133011 39.073303 
221.145706 0.667353 
221.419815 0.033346 
222.136444 6.38598 
223.112167 0.053215 
223.14006 0.041947 
224.119873 0.09388 
224.779861 0.048931 
226.819641 0.038639 
227.107208 23.577024 
228.110718 3.579226 
234.153152 0.029308 
237.128067 0.8805 
239.143799 5.161273 
240.146851 0.59498 
241.122421 0.038302 
243.065948 0.215138 
243.757965 0.037306 
245.038376 0.034433 
248.065475 0.037686 
253.123825 0.047392 
254.523132 0.041064 
255.13887 1.929184 
257.15448 3.050001 
258.157257 0.317963 
264.659607 0.037619 
265.123138 0.082341 
267.019623 0.036602 
271.097687 3.435768 
272.101959 0.040095 
272.994904 0.034148 
273.149384 0.14833 
281.503906 0.040641 
283.133759 1.969272 
283.196381 0.039906 
284.137177 0.058306 
287.580994 0.03461 
301.144379 0.867511 
307.580627 0.031849 
314.689362 0.03444 
317.713409 0.040333 
326.534424 0.03277 
339.473175 0.036012 
345.134521 0.659568 
346.137024 0.083095 
348.7742 0.035127 
364.820221 0.037297 
END IONS

