BEGIN IONS
PEPMASS=379.076
CHARGE=1+
COMPOUNDNAME=bisdethiobis(methylthio)gliotoxin
LIBRARYQUALITY=3
SMILES=N/A
INCHIKEY=OVBAGMZLGLXSBN-UOVKNHIHSA-N
INCHI=InChI=1S/C15H20N2O4S2/c1-16-12(20)14(22-2)7-9-5-4-6-10(19)11(9)17(14)13(21)15(16,8-18)23-3/h4-6,10-11,18-19H,7-8H2,1-3H3/t10-,11-,14+,15+/m0/s1
MSLEVEL=2
SOURCE_INSTRUMENT=N/A-ESI-QFT
FILENAME=library_mgf.mgf
SEQ=*..*
IONMODE=positive
ORGANISM=MONA
NAME=bisdethiobis(methylthio)gliotoxin [M+Na]+
PI=MoNA
DATACOLLECTOR=MoNA:VF-NPL-QEHF024550
PUBMED=N/A
SUBMITUSER=mwang87
TAGS=
SPECTRUMID=CCMSLIB00004715613
SCANS=24550
50.839031 0.015872 
50.981522 0.042071 
51.229076 0.014911 
51.375282 0.010083 
52.034977 0.012295 
52.409683 0.016718 
54.14056 0.010938 
54.217892 0.040514 
55.0182 0.023975 
55.054634 0.091431 
55.863735 0.044494 
55.934788 0.060414 
56.049839 0.062173 
57.033859 0.041677 
57.068886 0.010064 
57.070259 0.586097 
58.043625 0.008731 
58.065514 0.283728 
58.143162 0.015965 
59.876389 0.014978 
60.055935 0.012355 
60.112389 0.014453 
61.010941 2.434818 
61.49099 0.010593 
61.717812 0.038682 
61.726856 0.00865 
61.842777 0.035138 
62.018791 0.449859 
63.023689 0.040486 
63.997871 0.00929 
64.014488 0.009903 
64.337776 0.011833 
64.432503 0.015813 
66.623947 0.014922 
67.054489 0.065286 
68.049622 0.048845 
68.677071 0.013356 
69.033691 0.174809 
69.070061 0.563827 
69.83165 0.01039 
69.99221 0.01713 
70.063187 0.015026 
70.065292 2.730933 
71.049294 0.07635 
71.068649 0.039185 
71.085701 0.282174 
71.393227 0.012448 
71.636421 0.040133 
71.929428 0.017742 
72.044472 0.046265 
72.08091 0.217664 
72.710579 0.011678 
72.937378 0.0596 
73.02861 0.012319 
73.064941 0.053132 
73.851433 0.018976 
74.060287 0.009883 
74.16008 0.0392 
75.044182 0.030983 
77.248894 0.010825 
77.404037 0.011082 
78.578918 0.015623 
79.021324 0.705477 
79.054214 0.052669 
79.585953 0.009857 
80.231758 0.009154 
81.033684 0.823492 
81.044884 0.040014 
81.069984 0.231902 
81.273285 0.010605 
82.065285 0.102829 
82.44944 0.035739 
83.049309 0.316019 
83.085655 0.105438 
83.734535 0.018279 
84.044586 0.030983 
84.080994 0.781225 
85.02858 0.188827 
85.039742 0.016451 
85.06501 0.033706 
85.101334 0.073714 
86.06012 0.108572 
86.096626 0.333223 
87.044228 0.129122 
88.076134 0.016105 
88.909706 0.044517 
89.059883 0.604582 
90.947845 0.03975 
91.044571 0.039573 
91.054474 0.139597 
92.240532 0.041125 
92.785965 0.010143 
92.982834 0.382537 
93.070068 0.109812 
94.259056 0.016662 
94.362137 0.010425 
95.049271 0.230378 
95.060516 0.031882 
95.08564 0.140562 
96.08094 0.058535 
97.02861 0.266744 
97.064896 0.054369 
97.101189 0.009592 
98.060211 0.235839 
98.09655 0.115986 
98.416298 0.040519 
98.975677 0.01245 
99.04409 0.154365 
100.075859 0.412399 
101.059891 0.11156 
101.172096 0.036362 
102.01255 0.042785 
102.037216 0.067363 
102.055328 0.011985 
103.038986 0.013358 
104.10714 0.158159 
104.742699 0.0429 
105.033684 0.32441 
105.070137 0.468654 
105.466286 0.011046 
106.730309 0.030565 
107.049355 0.351346 
107.085602 0.033355 
108.044464 0.030356 
108.080566 0.01308 
108.155228 0.009373 
109.028633 0.053664 
109.065025 0.02313 
109.101318 0.081428 
109.301552 0.010385 
110.060196 0.155574 
110.096489 0.010722 
111.044258 0.988894 
111.055443 0.059538 
112.047745 0.010025 
112.075981 0.171287 
112.087196 0.286167 
113.963814 0.087391 
114.055183 0.015829 
114.091568 0.055117 
114.102722 0.046337 
114.107368 0.038464 
115.039131 0.014723 
115.086906 0.015388 
115.503433 0.011295 
116.07074 0.156663 
116.419441 0.012517 
117.054878 0.030632 
117.078232 0.033183 
117.464073 0.011238 
118.065346 0.058501 
118.086418 0.77483 
119.049644 0.033948 
119.085579 0.012422 
120.080956 0.217665 
120.941086 0.015332 
121.028595 0.061448 
121.06498 0.235013 
121.101143 0.087312 
122.060181 0.100434 
122.071495 0.375127 
123.043999 0.041272 
123.074669 0.011857 
123.079445 0.162181 
123.117081 0.024451 
124.04026 0.017974 
124.075928 0.111779 
125.060036 0.012 
125.071114 0.027823 
125.516106 0.045497 
126.018806 0.010907 
126.054832 0.025248 
126.091476 0.107058 
127.039032 0.069082 
127.050476 0.038778 
127.086876 0.020616 
128.070679 0.120981 
128.107117 0.221334 
128.963882 0.2592 
130.065231 0.387377 
130.979599 0.392826 
131.049088 0.026175 
131.974365 0.037245 
132.044495 0.01205 
132.080948 0.047937 
132.958145 0.025265 
133.086029 0.080005 
133.101334 0.018096 
134.060074 0.148275 
134.09671 0.060295 
134.956299 0.350768 
134.978821 0.235254 
135.043991 0.060923 
135.080231 0.054248 
136.039337 0.015117 
136.062027 0.072658 
136.07579 0.242267 
136.860336 0.009554 
137.059647 0.091644 
138.055298 0.034618 
138.091232 0.036983 
139.050446 0.081925 
139.076096 0.009004 
139.979843 0.022939 
140.069077 0.116323 
140.106949 0.089306 
140.982666 0.011544 
140.998062 0.015104 
141.054596 0.020783 
141.066299 0.011535 
141.688034 0.009614 
141.995361 0.169748 
142.086426 0.099297 
142.979706 0.126135 
143.23204 0.011333 
144.044388 0.308009 
144.065933 0.054594 
144.081085 0.105753 
144.102036 0.078447 
145.049377 0.011558 
145.064987 0.199329 
146.060333 0.137936 
146.096558 0.018588 
146.974503 1.333122 
147.044174 0.065505 
147.091827 0.106517 
147.974609 0.058413 
148.075806 0.107104 
148.955978 0.350643 
148.972214 0.137003 
148.990036 0.034953 
149.060013 0.098885 
149.07457 0.257098 
149.954529 0.147725 
150.055191 0.038161 
150.091461 0.22427 
150.951202 6.629967 
151.050522 0.014442 
151.0755 0.162406 
151.086533 0.026871 
152.070786 0.232213 
152.081818 0.017828 
152.107101 0.013358 
152.951996 0.016269 
152.967041 0.40116 
152.989365 0.244123 
153.102386 0.020998 
154.086395 0.030309 
155.974197 0.011721 
156.102295 0.037025 
157.096878 0.012569 
157.989899 0.080834 
158.011093 0.009885 
158.059692 0.119959 
158.081375 0.057321 
158.096558 0.203604 
158.200989 0.013483 
158.974411 0.327146 
159.091797 0.042392 
160.005798 0.030437 
160.039474 0.018026 
160.075821 0.06965 
160.990189 1.999515 
161.059692 0.027211 
161.095963 0.017655 
161.990479 0.076211 
162.055069 0.145028 
162.091629 0.433735 
163.075439 0.021624 
163.085892 0.028716 
164.070816 0.172967 
164.093246 0.074785 
164.107162 0.315165 
164.96698 0.032127 
165.055038 0.032082 
165.102325 0.014228 
166.086304 0.104221 
166.097214 0.013293 
166.123245 0.030542 
166.966461 0.126864 
167.00502 0.140552 
167.07135 0.016509 
167.081329 0.012906 
167.118484 0.030341 
168.065994 0.016997 
168.101883 0.028192 
168.961792 3.08951 
169.962723 0.016987 
169.989471 0.012162 
170.081589 0.063337 
170.096939 0.015428 
172.039398 0.063412 
172.075363 0.061007 
172.097092 0.014387 
172.13324 0.07442 
172.99025 0.34155 
173.071121 0.052975 
173.096542 0.040956 
173.107071 0.011006 
174.005875 0.02366 
174.021774 0.031366 
174.055145 0.220397 
174.091476 0.080169 
175.08696 0.095395 
175.119247 0.016231 
175.946701 0.033902 
176.000519 0.031672 
176.070862 0.107639 
176.091782 0.387242 
176.107254 0.194793 
176.967422 0.041125 
176.984192 0.028307 
177.05455 0.047533 
177.066162 0.014482 
178.086517 0.336409 
178.122818 0.061757 
178.933487 0.158767 
178.979172 0.879941 
179.118118 0.016838 
180.102158 0.169051 
180.982162 0.043406 
181.060379 0.014935 
181.097168 0.042344 
182.081253 0.048998 
182.117661 0.044138 
182.975586 0.056525 
184.026657 0.013199 
184.036743 0.091303 
184.063278 0.014467 
184.097595 0.018013 
184.957077 0.015387 
185.037735 0.02967 
185.07132 0.064182 
185.961136 0.012951 
186.091171 0.031838 
187.025269 0.01569 
187.078125 0.015016 
187.086609 0.83219 
188.070786 0.20526 
188.091766 0.066723 
188.106979 0.031764 
188.127686 0.019726 
188.986679 0.011474 
189.102219 0.011262 
189.995377 0.012512 
190.016479 0.166511 
190.05011 0.020117 
190.086578 0.125937 
190.123444 0.016021 
190.966202 0.041035 
191.00087 1.560215 
191.081421 0.041173 
192.001541 0.041085 
192.065765 0.034287 
192.10228 0.278036 
192.962036 0.895446 
192.980042 0.062215 
193.957352 0.135293 
193.990738 0.015197 
194.081375 0.032295 
194.117447 0.066173 
194.97438 0.118923 
194.994873 0.01137 
195.091141 0.014901 
195.113113 0.095076 
196.005814 0.011133 
196.096817 0.023744 
196.901672 0.040854 
196.989594 0.966999 
197.071198 0.06391 
197.092606 0.020997 
198.077988 0.028545 
198.091431 0.086239 
198.112869 0.674012 
199.086487 0.031086 
200.002487 0.010968 
200.059097 0.012996 
200.070648 0.058435 
200.08136 0.011075 
200.092239 0.016846 
200.107544 0.015601 
200.12854 0.137932 
200.985229 0.055039 
201.065964 0.180291 
201.102112 0.036662 
201.99852 0.322155 
202.04805 0.111645 
202.086655 0.066759 
202.108063 0.051086 
202.993866 0.098035 
203.081711 0.119516 
203.974533 0.017084 
204.088699 0.050595 
204.101807 0.077059 
204.962296 0.279767 
204.98233 0.097338 
205.01622 0.03603 
205.097366 0.058017 
205.989822 0.176174 
206.011917 0.014768 
206.081863 0.014624 
206.118088 0.092494 
206.978104 0.154158 
206.98851 0.011248 
207.065689 0.013012 
207.076523 0.01822 
207.113556 0.020391 
208.006012 0.073165 
208.884033 0.019712 
208.976944 0.056927 
209.055603 0.224757 
209.070496 0.021249 
209.128799 0.875079 
210.113022 0.049457 
210.972336 0.583644 
211.087173 0.06106 
211.141403 0.039787 
212.000443 0.020681 
212.847015 0.010233 
212.983902 0.047667 
212.993973 0.061051 
213.065948 0.529373 
213.100098 0.070511 
214.072891 0.048705 
214.086044 0.09265 
214.107895 0.084058 
214.287796 0.552541 
214.298264 0.28743 
214.306198 0.315874 
214.988693 0.016915 
215.037415 0.011543 
215.081757 1.024695 
215.117188 0.023076 
215.151398 0.021164 
216.031448 0.017752 
216.06572 0.07186 
216.088394 3.038876 
216.101639 0.331667 
216.123337 0.514373 
216.159348 0.088747 
216.99205 0.015535 
217.049805 0.051697 
217.06105 0.011987 
217.092957 0.296885 
217.118134 0.013691 
217.992538 0.139418 
218.013489 0.280868 
218.047379 0.042277 
218.081375 0.166772 
218.116241 0.055344 
219.012405 0.294879 
219.076569 0.082924 
219.113327 0.042255 
219.150116 0.01438 
219.875656 0.01545 
220.009201 4.762246 
220.04805 0.035562 
220.096741 0.03892 
221.012512 0.100442 
221.022949 0.033459 
221.055527 0.035001 
221.092239 0.026702 
221.128998 0.019265 
221.985382 0.070023 
222.112457 0.016497 
222.898758 0.023112 
222.992752 0.161498 
224.000793 0.033573 
226.016037 0.033887 
226.086105 0.0191 
226.155258 0.63095 
226.975204 0.011133 
227.081589 0.176915 
227.105652 0.016086 
227.118393 0.014005 
228.031342 0.044153 
228.102188 0.041036 
228.88942 0.032422 
229.029419 0.072991 
229.060959 0.069706 
229.09726 0.037902 
229.896667 0.033075 
229.947495 0.021711 
230.012558 0.013207 
230.026474 1.521509 
230.046585 0.036787 
230.068909 0.020913 
230.081146 0.039262 
230.104782 0.011139 
230.117401 0.059304 
231.033875 0.242627 
231.076721 0.295553 
231.111084 0.248207 
231.149155 0.018214 
231.896881 0.016611 
232.028015 0.063254 
232.041962 0.702265 
232.083481 0.028217 
232.096207 0.011551 
232.883972 0.281271 
232.942322 0.013436 
233.046539 0.01591 
233.092316 0.144646 
233.891891 0.747392 
233.985245 0.136578 
234.008743 0.016815 
234.021484 0.046522 
234.097977 0.01122 
234.113052 0.014441 
234.899551 0.684466 
235.900116 0.063608 
235.967865 0.01323 
236.000946 0.039447 
236.127945 0.024529 
237.06337 0.047342 
237.981171 0.012448 
238.120071 0.030729 
238.985153 0.01441 
239.082382 0.054595 
240.101913 0.019033 
240.908997 0.034253 
241.002991 0.028892 
241.082825 0.088423 
241.097382 0.022993 
242.117264 0.035892 
243.076187 0.290473 
243.088104 1.446873 
243.11174 0.029917 
243.993301 0.018356 
244.005966 0.018179 
244.094101 0.32638 
244.133484 0.01835 
245.092041 0.020389 
245.890427 0.012485 
246.021362 0.383264 
246.041412 0.07656 
246.112167 0.058143 
246.984451 0.011044 
247.015533 0.015012 
247.040405 0.190302 
247.072205 0.040951 
247.907028 0.082119 
248.022812 0.017438 
248.036835 1.657039 
248.077438 0.010641 
248.128067 0.039456 
248.87883 0.064394 
248.899429 0.108728 
248.937347 0.181648 
249.041412 0.110007 
249.087738 0.01417 
249.886353 0.020175 
250.894363 1.428911 
251.082413 0.014406 
251.894684 0.080573 
251.99559 0.256498 
252.032227 0.010896 
252.049423 0.046707 
252.123322 0.075302 
253.903122 0.012274 
255.074707 0.514483 
256.096863 0.027915 
256.130585 0.138807 
257.003937 0.114054 
257.104553 0.045032 
257.891937 0.0954 
258.006348 0.019593 
258.111328 0.02233 
258.134125 0.046254 
258.170471 0.031536 
258.875946 0.015277 
258.899384 0.719466 
258.983337 0.014241 
259.144379 0.034405 
259.90097 0.023626 
260.019501 0.261889 
260.128845 0.028189 
260.914673 0.015166 
261.087189 0.040859 
261.131378 0.135209 
261.906708 0.063658 
262.003265 0.131802 
262.017334 0.048462 
262.914246 0.05898 
263.012054 0.224049 
263.90213 0.278937 
264.017609 0.015015 
264.122925 0.019224 
264.909485 0.263947 
264.986053 0.076106 
265.99115 0.035186 
266.066437 0.158302 
266.103607 0.014358 
266.889435 0.057921 
266.947479 0.016357 
267.074188 1.963024 
267.113037 0.106316 
267.98999 0.038672 
268.028076 0.091994 
268.080505 0.172216 
268.117249 0.020058 
268.906433 0.012862 
269.128174 0.023293 
270.061462 0.192238 
270.133514 0.015224 
271.068695 0.184768 
272.022247 0.015381 
272.128082 0.020614 
272.899109 0.083756 
272.915283 0.061625 
272.995819 0.109938 
273.88681 0.077036 
273.907104 0.123893 
274.107178 0.024579 
274.143219 0.013746 
274.894165 3.476938 
275.011719 0.018505 
275.902771 2.218312 
275.939545 0.015231 
276.016174 0.032939 
276.033875 0.131587 
276.910126 4.645029 
276.993958 0.016036 
277.06192 0.013762 
277.189575 0.035922 
277.912872 0.508773 
278.029877 2.992936 
278.908875 0.066429 
278.925201 0.064101 
278.947906 0.12783 
279.032654 0.193065 
279.916473 1.021974 
280.90506 0.012093 
280.924469 0.014973 
281.91214 1.80296 
282.113892 0.037588 
282.918152 0.138963 
283.051758 0.398898 
283.069427 0.671938 
284.058838 0.044977 
284.076569 1.595291 
284.915771 0.014206 
285.084808 100.0 
286.038483 0.35874 
286.088226 12.941343 
286.978729 0.673044 
287.063873 0.231112 
287.090118 0.854579 
287.830994 0.012368 
287.905212 0.049425 
287.962341 0.017591 
287.980713 0.014116 
288.031738 0.089286 
288.144104 0.014008 
288.909546 0.093402 
288.930573 0.150199 
288.990936 0.148314 
289.918365 0.020755 
289.981079 0.011756 
289.998016 0.073594 
290.13916 0.021702 
290.925812 1.893428 
291.006714 0.303114 
291.170624 0.014842 
291.896912 0.430331 
291.926392 0.421283 
292.011444 0.040506 
292.905151 0.266988 
292.925903 0.066588 
293.067596 0.036733 
293.914429 0.091044 
293.932922 0.119286 
294.147003 0.018364 
294.909058 0.018146 
295.928589 1.536454 
296.040527 0.041863 
296.930084 0.121389 
296.958496 0.020114 
297.816772 0.035713 
298.109314 0.046987 
298.141937 0.034835 
299.113281 0.08622 
300.108765 0.012847 
300.910339 0.555532 
300.991089 0.438182 
301.062256 2.173764 
301.080139 0.124456 
301.911865 0.030565 
301.994873 0.016937 
302.012207 0.02076 
302.034576 0.014321 
302.065399 0.150064 
302.102966 0.017318 
302.925873 1.108905 
303.008179 0.067483 
303.09549 2.191773 
303.113037 0.383482 
303.927887 0.044935 
303.977142 0.020856 
304.099213 0.164589 
304.905365 0.058214 
304.989044 0.765434 
305.021149 0.013255 
305.044708 0.033192 
305.991943 0.033532 
306.043915 0.218668 
306.829132 0.016022 
306.920197 0.503168 
307.001617 0.016879 
307.044281 0.029465 
307.926636 0.014068 
308.040466 1.444417 
308.937347 0.020779 
309.043732 0.094196 
309.942566 0.012017 
310.915741 0.205976 
313.061859 0.553128 
313.157257 0.030039 
315.077789 0.421306 
316.120453 0.15072 
316.90506 3.986235 
316.985657 0.069146 
317.123932 0.117481 
317.87146 0.062856 
317.90625 0.730616 
317.993195 0.043626 
318.120422 0.158581 
318.921295 1.561183 
319.001617 0.923823 
319.039429 0.019475 
319.10788 0.024205 
319.165009 0.154956 
319.923126 0.199947 
320.007446 0.163707 
320.148773 0.018824 
320.918243 0.623419 
320.937225 0.721793 
320.998871 0.040611 
321.018921 0.027574 
321.253662 0.022871 
321.940918 0.036388 
322.824554 0.067414 
322.9151 2.676453 
323.917725 0.155207 
323.959595 0.017983 
324.931305 0.046108 
330.150665 0.057102 
331.072662 1.904125 
332.080139 2.778337 
333.018494 0.046218 
333.084625 0.335927 
333.943024 0.045288 
333.9711 0.042869 
334.191681 0.016533 
334.915741 0.532629 
334.996155 0.088382 
335.053314 0.096538 
335.832825 0.017178 
335.917694 0.045744 
335.946777 0.013639 
336.056427 0.015671 
336.837128 0.022574 
336.93103 0.166165 
337.013306 0.046876 
337.094177 0.045722 
337.84079 0.012976 
337.939606 0.36755 
339.826752 0.017318 
343.164856 0.02756 
345.130096 0.398983 
346.13031 0.401144 
346.166718 0.01791 
346.953613 0.01981 
347.167084 0.471406 
347.194855 0.030871 
348.035858 0.195613 
348.103851 0.061673 
348.994324 0.082334 
349.034302 0.034929 
349.154053 0.016968 
351.009277 0.014573 
351.954773 0.202972 
352.925903 0.233293 
353.842163 0.248178 
354.844879 0.102951 
355.846039 0.016392 
355.931976 0.062185 
359.162537 0.014082 
359.196442 0.01262 
360.142975 0.044953 
360.16449 0.297777 
360.18454 0.019264 
360.202484 0.27391 
361.065582 0.506643 
361.175781 0.192346 
361.210754 0.071049 
362.161224 0.656818 
363.099182 0.155992 
363.132904 0.07909 
363.1633 0.013913 
364.962524 0.471604 
365.963745 0.04785 
376.989563 0.03173 
377.144623 0.78178 
377.176361 1.110374 
377.210724 1.022262 
377.321045 0.062549 
378.152191 0.979764 
378.174805 4.915142 
378.214417 0.115569 
378.238678 0.224838 
379.075775 8.311888 
379.129242 0.283169 
379.163544 0.929313 
379.193176 4.446297 
379.223236 1.137673 
379.266876 0.059798 
380.079468 1.704551 
380.108551 0.110803 
380.169556 1.438118 
380.198364 1.003407 
380.22699 0.179196 
380.252686 0.041648 
380.331665 0.059011 
381.072754 0.419102 
381.12149 0.039819 
381.14389 0.378053 
381.181122 0.663911 
381.203033 0.076412 
381.254395 0.014079 
END IONS

