BEGIN IONS
PEPMASS=528.0
CHARGE=1+
COMPOUNDNAME=Massbank:KO002763 Daunorubicin|Daunomycin
LIBRARYQUALITY=3
SMILES=Oc(c34)c(c1c(O)c3c(c(c(OC)5)c(ccc5)c4=O)=O)C[C@](C(C)=O)(C[C@@H]1OC(C2)O[C@@H](C)[C@@H](O)[C@@H](N)2)O
INCHIKEY=STQGQHZAVUOBTE-ZFRRIORRSA-N
INCHI=1S/C27H29NO10/c1-10-22(30)14(28)7-17(37-10)38-16-9-27(35,11(2)29)8-13-19(16)26(34)21-20(24(13)32)23(31)12-5-4-6-15(36-3)18(12)25(21)33/h4-6,10,14,16-17,22,30,32,34-35H,7-9,28H2,1-3H3
MSLEVEL=2
SOURCE_INSTRUMENT=ESI-LC-ESI-QQ
FILENAME=Massbank_ESI_positive_8_1_2014_peaks.mgf
SEQ=*..*
IONMODE=Positive
ORGANISM=MASSBANK
NAME=Massbank:KO002763 Daunorubicin|Daunomycin [M+H]+
PI=Putative Massbank Match
DATACOLLECTOR=Massbank
PUBMED=N/A
SUBMITUSER=mwang87
TAGS=
SPECTRUMID=CCMSLIB00000218026
SCANS=8565
71.3 14851.5 
85.8 59406.0 
111.7 24752.5 
113.3 49505.0 
130.1 222772.5 
189.1 163366.5 
197.4 74257.5 
225.1 59406.0 
241.4 103960.5 
263.0 49505.0 
264.5 34653.5 
294.1 202970.5 
304.2 94059.5 
321.6 1009902.0 
363.5 257426.0 
388.6 9901.0 
END IONS

