BEGIN IONS
PEPMASS=177.052
CHARGE=1+
COMPOUNDNAME=terrein
LIBRARYQUALITY=3
SMILES=N/A
INCHIKEY=MHOOPNKRBMHHEC-HZIBQTDNSA-N
INCHI=InChI=1S/C8H10O3/c1-2-3-5-4-6(9)8(11)7(5)10/h2-4,7-8,10-11H,1H3/b3-2+/t7-,8-/m0/s1
MSLEVEL=2
SOURCE_INSTRUMENT=N/A-ESI-QFT
FILENAME=library_mgf.mgf
SEQ=*..*
IONMODE=positive
ORGANISM=MONA
NAME=terrein [M+Na]+
PI=MoNA
DATACOLLECTOR=MoNA:VF-NPL-QEHF021227
PUBMED=N/A
SUBMITUSER=mwang87
TAGS=
SPECTRUMID=CCMSLIB00004712290
SCANS=21227
50.802631 0.00677 
50.835251 0.008432 
51.008614 0.007152 
51.150166 0.006643 
51.485497 0.003939 
51.640411 0.01042 
51.721169 0.009138 
51.814346 0.008447 
52.045612 0.011443 
52.384548 0.004445 
52.762951 0.00747 
52.889938 0.013543 
52.932358 0.007133 
53.031296 0.003562 
53.183247 0.00952 
53.190807 0.004406 
53.756298 0.009329 
53.800327 0.009691 
53.819614 0.006454 
53.838879 0.00724 
53.862206 0.007393 
54.101757 0.010523 
54.392487 0.005082 
54.508099 0.005937 
54.549377 0.009035 
54.568821 0.00852 
54.985977 0.040941 
55.270287 0.006019 
55.450043 0.004822 
55.47942 0.004157 
55.531254 0.010983 
55.88868 0.005098 
56.121338 0.012442 
56.514256 0.010639 
56.916527 0.010379 
56.965042 5.09788 
57.501869 0.010773 
57.783195 0.006988 
57.812233 0.011887 
57.817081 0.003808 
58.129269 0.003574 
58.386177 0.007673 
58.682365 0.00799 
58.988148 0.120422 
59.669292 0.005461 
60.004314 0.010929 
60.212936 0.010633 
60.363747 0.004938 
60.533409 0.00473 
60.602058 0.007317 
60.931313 0.012244 
61.01088 0.104073 
61.171249 0.003893 
61.286789 0.010835 
61.391186 0.003686 
61.865356 0.006129 
62.018627 0.015375 
62.844242 0.007938 
63.792774 0.011771 
63.997959 0.028281 
64.215355 0.011761 
64.292519 0.009895 
64.941238 0.005882 
65.041924 0.008223 
65.31031 0.009314 
65.376793 0.004181 
65.960365 0.006681 
66.095245 0.010967 
66.803986 0.005983 
67.045914 0.007505 
67.212746 0.008895 
67.363823 0.01095 
67.434586 0.003715 
67.746986 0.010627 
67.873772 0.009818 
67.993256 0.444421 
68.678276 0.008053 
69.486748 0.06201 
70.065247 0.059445 
71.368515 0.009439 
71.40995 0.011531 
71.577423 0.01146 
71.784363 0.005685 
71.951935 0.40462 
72.300148 0.007218 
72.7994 0.003813 
73.389328 0.004565 
73.927551 0.003597 
74.630875 0.007044 
74.975479 0.008609 
75.878273 0.006073 
76.47802 0.006398 
76.609535 0.011519 
76.998215 2.038027 
77.40583 0.011863 
77.708977 0.012639 
77.996277 0.006746 
78.013374 0.011612 
78.037346 0.006231 
78.491814 0.020566 
78.908173 0.003909 
78.996361 0.005646 
79.02124 1.14182 
79.054306 0.010238 
79.801743 0.00922 
80.792381 0.010883 
81.069977 0.011761 
81.425453 0.009814 
81.603569 0.010662 
81.813057 0.010385 
82.053177 0.00966 
82.875 0.00944 
83.051407 0.010263 
83.272186 0.011293 
83.600769 0.005817 
84.415237 0.010877 
84.755554 0.007189 
84.942276 0.004116 
85.043907 0.006265 
85.203957 0.009081 
85.207245 0.008779 
85.387169 0.009637 
85.563927 0.008537 
86.003555 2.982776 
86.366386 0.010411 
87.001595 0.017705 
87.060112 0.005171 
89.963997 0.009932 
89.979057 0.040776 
89.993233 0.007047 
90.482872 1.158466 
91.002884 0.006887 
91.207283 0.011091 
91.473099 0.007014 
91.480713 0.054615 
91.94529 0.014536 
91.976799 0.022724 
92.775246 0.006645 
93.796562 0.00671 
95.008797 0.830762 
96.005661 0.006861 
96.200615 0.006293 
96.710243 0.007058 
97.263298 0.010322 
97.772194 0.005655 
97.959908 0.010455 
97.994583 3.018462 
98.49659 0.018183 
98.969635 0.033589 
98.975327 100.0 
98.992508 0.018115 
99.1894 0.004069 
99.488136 9.732597 
99.978699 1.940681 
99.990211 0.058206 
100.480644 0.011725 
100.486137 0.89976 
100.489784 0.007645 
100.654182 0.00675 
100.971428 0.175794 
100.979515 0.058974 
101.003174 0.921648 
101.008308 0.010491 
101.484581 0.128651 
101.639427 0.010727 
101.720459 0.004442 
102.572258 0.007011 
103.3452 0.011251 
104.423477 0.004078 
105.13768 0.004046 
105.323189 0.003731 
105.545067 0.006086 
105.616852 0.004704 
105.654144 0.009934 
105.984985 0.007232 
106.331856 0.006614 
106.495819 0.031563 
106.658173 0.010901 
106.999916 24.698641 
107.501793 0.922363 
107.540787 0.006048 
107.989494 0.250564 
107.997803 2.611802 
108.001762 0.113873 
108.493439 25.697079 
108.668434 0.01346 
108.995766 0.963171 
109.028343 0.105524 
109.222374 0.010408 
109.491402 2.657421 
109.495392 0.144081 
110.489861 0.419949 
111.158279 0.008514 
111.374268 0.011871 
112.133705 0.005207 
112.375511 0.007889 
112.5532 0.004212 
114.007698 0.280452 
114.084099 0.006891 
114.507286 0.010741 
115.005722 0.005598 
115.134422 0.005964 
115.501289 0.347681 
115.655792 0.011323 
116.005196 56.73637 
116.159729 0.011183 
116.507095 2.505294 
116.902687 0.006186 
116.985893 29.006075 
117.003059 6.131412 
117.00721 0.475481 
117.05426 0.021609 
117.438492 0.007708 
117.498718 5.68052 
117.503426 0.191499 
117.862305 0.012229 
117.989197 0.582446 
118.001549 1.593911 
118.496651 0.385385 
118.981972 0.017136 
118.98999 0.006604 
119.008095 0.004747 
119.019241 0.041209 
119.196152 0.005433 
119.495338 0.004492 
119.906532 0.005867 
120.081902 0.009172 
120.23175 0.011084 
120.395561 0.011129 
123.013054 1.188296 
123.865471 0.007201 
123.942444 0.003905 
124.010948 0.01118 
124.506325 0.023927 
125.010513 5.83314 
125.23996 0.009259 
125.512024 0.100086 
126.00827 0.422499 
126.451965 0.008456 
126.504181 0.01591 
127.006882 0.044351 
127.513725 0.005424 
129.489777 0.021457 
129.988525 0.00658 
130.065094 0.022129 
130.977737 0.003711 
131.001526 0.345768 
131.475769 0.003905 
132.080704 0.139267 
132.958191 0.23089 
134.978607 0.941234 
134.990555 0.010621 
134.996368 4.191994 
135.978592 0.011267 
136.187637 0.007548 
136.974594 0.008103 
137.001816 0.016029 
137.059723 0.382151 
137.512741 0.02 
138.063202 0.024027 
138.130371 0.003741 
138.495193 0.185538 
139.012314 0.010417 
139.148941 0.007969 
141.185623 0.010584 
141.778885 0.013033 
141.910553 0.012353 
142.786316 0.013147 
144.58493 0.007202 
144.757401 0.006298 
145.001572 0.004438 
145.036804 0.008658 
145.132217 0.011362 
146.00676 0.135153 
146.72229 0.004305 
147.202591 0.010123 
147.244812 0.009919 
147.800934 0.007237 
148.193283 0.009348 
149.478027 0.008821 
149.778152 0.004261 
150.969009 0.041131 
151.420303 0.01274 
151.968277 0.007849 
152.989151 0.101357 
153.007111 0.068907 
153.670624 0.011539 
154.716431 0.00908 
154.761719 0.004124 
156.626266 0.010827 
156.680176 0.011983 
157.762344 0.01012 
158.377014 0.007848 
158.560287 0.004505 
158.833466 0.008065 
158.93837 0.012383 
159.588745 0.009637 
161.44809 0.006519 
162.108795 0.007522 
162.517502 0.01055 
163.384125 0.005127 
166.61467 0.01039 
167.099777 0.011368 
167.101913 0.010606 
168.995453 0.010197 
169.061142 0.010369 
171.765289 0.004457 
171.963806 0.011911 
175.0858 0.004156 
176.12796 0.029343 
176.735886 0.003703 
176.752335 0.010724 
176.989227 0.527809 
177.102264 0.092305 
178.133789 0.387227 
179.11795 0.017453 
179.243347 0.0074 
181.852676 0.00472 
182.67305 0.011094 
183.545914 0.006323 
184.528152 0.010257 
184.761398 0.010863 
187.290024 0.013831 
189.81636 0.012528 
190.437088 0.011098 
191.804947 0.009749 
194.999878 0.270331 
198.547058 0.008007 
199.534836 0.011245 
END IONS

