BEGIN IONS
PEPMASS=364.175
CHARGE=1+
COMPOUNDNAME=GIBBERELLIC ACID
LIBRARYQUALITY=3
SMILES=N/A
INCHIKEY=IXORZMNAPKEEDV-SNTJWBGVSA-N
INCHI=InChI=1S/C19H22O6/c1-9-7-17-8-18(9,24)5-3-10(17)19-6-4-11(20)16(2,15(23)25-19)13(19)12(17)14(21)22/h4,6,10-13,20,24H,1,3,5,7-8H2,2H3,(H,21,22)/t10-,11+,12-,13-,16+,17+,18+,19-/m1/s1
MSLEVEL=2
SOURCE_INSTRUMENT=N/A-ESI-QFT
FILENAME=library_mgf.mgf
SEQ=*..*
IONMODE=positive
ORGANISM=MONA
NAME=GIBBERELLIC ACID [M+NH4]+
PI=MoNA
DATACOLLECTOR=MoNA:VF-NPL-QEHF006374
PUBMED=N/A
SUBMITUSER=mwang87
TAGS=
SPECTRUMID=CCMSLIB00004697437
SCANS=6374
50.05545 0.041862 
50.108501 0.106406 
50.355495 0.103536 
50.385456 0.073996 
50.633846 0.104541 
50.743168 0.031969 
51.248985 0.024762 
51.287575 0.119493 
51.407879 0.043304 
51.708862 0.021764 
51.738457 0.022248 
51.84248 0.020687 
52.289104 0.019725 
52.491867 0.019257 
52.652344 0.085109 
52.857738 0.023787 
53.039288 0.584048 
53.229065 0.020406 
53.395184 0.023192 
53.542702 0.020296 
53.810371 0.019987 
54.195992 0.025266 
54.502266 0.108204 
54.881245 0.024064 
54.889347 0.023659 
55.018593 5.942557 
55.054977 19.923609 
55.082943 0.04193 
55.10487 0.167026 
55.318325 0.080928 
55.670773 0.102404 
55.727474 0.021128 
55.864388 0.081707 
55.935005 0.051736 
56.050251 4.231466 
56.058411 0.051866 
56.965527 6.543951 
57.034267 4.607799 
57.070648 16.199635 
57.462734 0.111568 
58.064362 1.174244 
58.065884 42.281746 
58.069244 0.126352 
58.074158 0.06999 
58.22282 0.019774 
58.547565 0.122778 
58.899624 0.093581 
59.0499 4.070786 
59.061142 0.345258 
59.069233 0.293189 
59.079414 0.020428 
59.614727 0.143272 
59.718636 0.025881 
60.045162 5.46533 
60.11113 0.020937 
61.011402 1.323754 
61.029133 0.090339 
61.109543 0.023981 
61.529469 0.02187 
61.709976 0.021534 
62.019196 0.35202 
62.242088 0.091233 
62.32547 0.019829 
62.595821 0.033566 
62.935165 0.120205 
62.982441 0.855474 
63.004833 0.022823 
63.357002 0.092039 
63.639065 0.026594 
63.901112 0.0252 
63.998394 0.032661 
64.525894 0.019235 
64.735619 0.019196 
64.978104 0.183726 
65.086876 0.024002 
65.139221 0.13133 
65.662766 0.092839 
65.844002 0.022321 
65.905411 0.022967 
65.974518 0.143534 
66.88681 0.022166 
67.054871 18.459471 
67.292923 0.020189 
67.460495 0.078183 
67.707382 0.020044 
67.928741 0.019251 
68.050133 0.537963 
68.058342 0.236887 
68.529701 0.121492 
68.719757 0.138722 
68.920837 0.123411 
69.034142 5.317127 
69.050957 0.107192 
69.070534 21.990685 
69.266518 0.019544 
69.816002 0.023091 
69.940865 0.046624 
70.02977 0.088397 
70.065773 21.382502 
70.073914 0.088075 
70.396896 0.158029 
70.480759 0.025162 
70.556366 0.021332 
70.987503 0.026658 
71.049789 8.381395 
71.073227 0.021631 
71.086174 6.115557 
71.502701 0.133773 
71.986107 0.041782 
72.045052 0.86466 
72.052711 0.087231 
72.081444 7.055637 
72.085968 0.115799 
72.187454 0.021823 
72.518356 0.131091 
73.028984 0.319457 
73.065414 4.085605 
73.589317 0.143264 
74.060684 3.698145 
74.096947 0.053513 
74.424911 0.019728 
74.976067 0.163152 
75.044624 0.102444 
75.580238 0.027643 
75.665329 0.06848 
76.040016 0.338503 
76.076279 0.641507 
76.29657 0.021533 
76.46315 0.063046 
76.647583 0.140171 
77.008934 0.093753 
77.189934 0.066622 
77.307289 0.118691 
77.437347 0.022149 
77.827148 0.119713 
78.366951 0.138745 
78.463898 0.156465 
78.773697 0.033626 
78.963356 0.124129 
78.990005 0.071413 
79.021805 5.632156 
79.047401 0.126951 
79.05481 12.90742 
79.283363 0.127209 
79.576408 0.096745 
79.633522 0.07481 
79.686691 0.020842 
79.955711 0.023731 
80.05011 0.322558 
80.543594 0.021142 
81.004356 0.022441 
81.034019 2.634556 
81.057739 0.142366 
81.063469 0.22296 
81.070419 29.84136 
81.078377 0.152054 
81.084206 0.157322 
81.33461 0.065428 
81.690498 0.141545 
81.970413 0.071051 
82.06572 1.839555 
82.073692 0.497599 
82.126823 0.077526 
82.242577 0.027722 
82.439011 0.03678 
82.51107 0.140456 
82.803932 0.082314 
83.049637 11.844098 
83.060936 0.025213 
83.086037 11.935556 
83.281425 0.079654 
84.044884 8.129213 
84.081245 9.047823 
84.089439 0.029927 
84.303345 0.09023 
84.487473 0.030822 
84.960129 0.024134 
84.976837 0.024067 
85.028908 3.758264 
85.048149 0.024474 
85.065262 9.50657 
85.10173 1.149214 
85.630493 0.019638 
86.060463 4.408306 
86.096878 11.824812 
86.28614 0.0246 
86.422745 0.022953 
86.689362 0.129824 
86.957626 0.103562 
87.041031 0.076767 
87.044495 5.657482 
87.051056 0.158131 
87.063911 0.18552 
87.100235 0.225731 
87.431274 0.020535 
88.02211 0.166415 
88.039726 12.356164 
88.076134 0.185449 
88.265182 0.103948 
88.731995 0.024324 
89.035507 0.071824 
89.060165 4.193401 
89.446335 0.033176 
90.055367 0.039292 
90.165215 0.136 
91.054634 13.351815 
91.553024 0.024174 
91.67804 0.040342 
91.841316 0.021834 
92.057991 0.164269 
92.731239 0.076607 
92.746628 0.076743 
93.070297 21.811802 
93.387207 0.024826 
94.065636 2.254068 
94.073761 0.229957 
94.853188 0.053729 
95.049614 10.843019 
95.060692 0.758103 
95.085968 28.494904 
95.359093 0.078106 
96.044868 1.432198 
96.081223 1.957749 
96.08931 0.908959 
96.20517 0.035984 
97.028809 1.031435 
97.053261 0.11859 
97.065254 11.133504 
97.076439 0.046717 
97.101624 5.865559 
97.85717 0.024793 
97.968849 0.022994 
98.060448 2.880748 
98.068298 0.023752 
98.096855 21.171089 
98.10511 0.13142 
98.975716 4.787732 
99.044518 3.123398 
99.068069 0.130127 
99.080856 5.502094 
99.100014 0.093482 
99.892838 0.130975 
99.906288 0.020905 
100.040016 0.129677 
100.07608 5.588848 
100.991287 0.091281 
101.003479 0.084807 
101.045357 0.025921 
101.06012 7.24546 
101.681206 0.093676 
101.915573 0.078974 
101.972488 0.022487 
102.055397 3.281641 
103.054466 0.239897 
103.097481 0.022235 
103.435112 0.024452 
103.834282 0.026439 
104.070862 0.578635 
105.03376 0.250768 
105.070198 12.448188 
105.529526 0.021442 
105.666847 0.13838 
105.779099 0.022301 
105.843475 0.100854 
105.856316 0.025038 
106.065292 0.18846 
106.073471 0.060214 
106.502136 0.04012 
106.716324 0.035079 
107.049377 6.071539 
107.085831 16.278976 
107.09745 0.156093 
107.268753 0.153726 
107.369759 0.100837 
107.661888 0.021439 
108.044182 0.41114 
108.081024 3.19503 
108.089043 0.408107 
108.638863 0.019921 
108.795395 0.042435 
108.862999 0.080897 
109.028702 0.50685 
109.065041 9.616366 
109.076118 0.192809 
109.101402 14.248105 
110.060188 3.681911 
110.071587 1.135828 
110.096634 1.641259 
110.106789 0.165167 
110.975945 0.024898 
111.032021 0.14688 
111.04425 22.011913 
111.056435 0.186531 
111.080643 6.640818 
111.117172 0.026189 
111.311646 0.024515 
111.661911 0.098464 
112.022079 0.036352 
112.039474 0.303719 
112.047523 0.218826 
112.075829 3.69217 
112.112144 0.650949 
112.884239 0.025966 
112.92334 0.025027 
113.05986 3.267312 
113.096222 9.818485 
113.290695 0.025055 
113.561226 0.104014 
114.055069 0.354076 
114.091187 0.130581 
115.039162 1.518023 
115.075584 3.495711 
115.628639 0.116199 
116.053101 0.169641 
116.070549 2.334905 
116.335899 0.097823 
116.986107 8.737352 
117.07 3.60506 
118.032288 0.136377 
118.040123 0.022849 
118.065529 0.430101 
118.086151 0.065547 
118.28373 0.023 
118.982117 0.022644 
119.001633 0.902349 
119.019318 0.029476 
119.049217 5.905981 
119.08564 16.963831 
119.187111 0.075787 
120.044235 0.352212 
120.052658 0.0947 
120.080925 13.41102 
120.088783 0.239479 
120.978935 0.17347 
121.028374 0.919291 
121.064835 7.717199 
121.088753 0.028212 
121.101303 13.47074 
121.473465 0.067891 
121.859016 0.112682 
122.060127 3.424892 
122.096603 1.959964 
122.104218 0.226162 
123.044167 2.501294 
123.054672 0.116409 
123.080566 7.849999 
123.116798 4.216135 
123.327324 0.027148 
123.601227 0.023574 
124.039139 0.583138 
124.075798 5.199356 
124.083916 0.109252 
124.112083 0.736782 
124.382324 0.045031 
124.725365 0.021652 
125.023315 0.049909 
125.059731 6.168809 
125.070839 0.333278 
125.09613 3.158553 
125.907845 0.024167 
126.055046 1.751999 
126.091446 5.716627 
126.127396 0.022724 
127.03936 0.13105 
127.075455 0.661683 
128.062073 0.158269 
128.070587 1.421725 
128.107162 0.546451 
129.054718 0.934987 
129.069901 2.600809 
129.930115 0.02435 
129.935852 0.023847 
130.049927 1.593829 
130.065292 0.901257 
130.081635 0.136024 
130.086411 0.760507 
131.001556 0.221481 
131.049072 0.480935 
131.08551 9.845016 
131.375931 0.021783 
131.964905 0.048903 
132.043869 0.042724 
132.080673 1.531807 
132.101852 0.124975 
132.920059 0.022211 
133.017197 0.130542 
133.064743 1.663787 
133.101212 8.880273 
133.214371 0.08798 
133.331894 0.138377 
133.337997 0.047121 
133.54718 0.027177 
133.833618 0.025677 
134.012115 0.02468 
134.059891 0.981271 
134.096619 1.974788 
134.103897 0.027816 
134.155945 0.119788 
134.978683 6.132753 
134.996414 16.158644 
135.011353 0.101031 
135.044022 1.054285 
135.071884 0.098809 
135.08049 6.342612 
135.116806 6.542245 
135.826111 0.122488 
135.999969 0.090222 
136.061966 0.744629 
136.075684 10.208695 
136.112122 1.882216 
136.119827 0.023323 
136.95816 0.029236 
136.974304 0.054076 
137.011673 6.104744 
137.045868 0.04618 
137.059723 3.890544 
137.071152 1.523661 
137.096115 4.245464 
137.132385 0.328468 
138.012283 0.073463 
138.054077 4.83097 
138.091263 3.160004 
138.127441 0.111806 
138.446884 0.075558 
138.989319 0.497075 
139.009094 0.11918 
139.038986 0.492102 
139.050644 0.148169 
139.075302 2.816311 
139.111649 0.601647 
140.07077 1.160536 
140.077621 0.026182 
140.107178 0.349621 
140.697464 0.152314 
141.022247 0.023491 
141.054825 0.039736 
141.091202 0.09637 
141.64238 0.127647 
141.745361 0.143161 
142.049713 0.0344 
142.086105 0.380764 
143.070374 0.153503 
143.085602 5.548659 
143.771927 0.027435 
143.953583 0.039669 
144.065918 0.513847 
144.081619 0.373335 
144.102112 0.028583 
144.317062 0.159899 
145.064896 1.269857 
145.084625 0.138 
145.101181 13.470811 
146.059982 14.17102 
146.078979 0.120614 
146.09639 6.628723 
146.849319 0.10317 
146.974274 0.292587 
146.996323 0.540685 
147.032806 0.027116 
147.044113 0.900548 
147.063019 0.175437 
147.08049 6.33432 
147.092361 0.154227 
147.116806 4.38427 
147.508575 0.090865 
148.039185 1.73794 
148.075699 2.644715 
148.111938 18.522497 
148.130753 0.139258 
148.326141 0.109485 
148.450928 0.024034 
148.942963 0.049176 
149.006042 0.029064 
149.012161 1.321607 
149.023163 1.821247 
149.059631 2.535146 
149.070587 0.450844 
149.096069 3.922835 
149.107498 0.08425 
149.13237 1.666321 
150.054169 0.52724 
150.055466 0.534084 
150.091309 4.411391 
150.127213 0.088227 
150.950897 0.031173 
151.027512 0.325673 
151.03833 0.223809 
151.075226 6.424074 
151.085953 0.052573 
151.11171 1.220651 
152.055435 0.274215 
152.070587 3.545485 
152.106918 3.016268 
152.62973 0.025386 
152.989166 14.83596 
153.006958 3.088901 
153.041595 0.026535 
153.054581 0.384687 
153.090729 1.28182 
153.10202 0.117036 
153.12793 0.153486 
154.047562 3.232741 
154.086014 9.945332 
154.122482 1.415046 
154.968536 0.130008 
154.985031 0.67233 
155.022202 4.583283 
155.038055 0.031504 
155.069153 0.28705 
155.085464 4.334036 
155.626312 0.021017 
156.023148 0.070754 
156.064789 0.125192 
156.089859 0.031511 
156.101593 0.123135 
156.137192 0.033459 
157.001495 0.025843 
157.018799 0.175723 
157.064392 0.105467 
157.075867 0.204881 
157.101059 4.408992 
158.060074 1.222851 
158.096817 0.185191 
158.117645 0.225844 
158.347488 0.148549 
158.832458 0.023935 
159.032547 0.079613 
159.080246 2.815828 
159.091476 0.042637 
159.116638 5.179482 
160.028137 0.111894 
160.07547 1.869475 
160.112228 1.146623 
160.120132 0.058091 
160.643539 0.021942 
161.011841 0.282252 
161.059418 0.425485 
161.095856 3.163888 
161.106934 0.075386 
161.132355 1.802594 
161.58699 0.024463 
162.006836 0.046953 
162.054489 0.692362 
162.091095 4.370955 
162.097275 0.27384 
162.127563 0.047341 
163.027542 0.211451 
163.075104 2.282079 
163.086487 0.768541 
163.111465 1.496114 
163.122406 0.186868 
163.147781 0.191448 
164.070267 2.893009 
164.106796 2.181562 
165.006989 1.774289 
165.054245 1.707562 
165.09079 2.251791 
165.10202 0.077591 
165.126877 0.314579 
165.290802 0.100826 
166.085983 4.931095 
166.093903 0.095764 
166.122528 0.470791 
166.710297 0.023534 
167.0047 0.241604 
167.022858 0.054876 
167.070114 3.118278 
167.117828 0.682339 
168.017197 0.024097 
168.065109 0.799954 
168.101639 2.703853 
168.137466 0.033809 
168.595139 0.024283 
169.039078 0.123677 
169.047043 5.516368 
169.10112 3.748093 
169.108536 0.401533 
169.123016 0.025443 
170.080032 0.309737 
170.117508 0.236796 
170.999725 2.468826 
171.03273 0.391272 
171.06311 0.02907 
171.080154 1.072055 
171.116592 1.919098 
171.427521 0.021762 
172.026901 0.02319 
172.075531 0.428977 
172.097061 0.328535 
172.111694 0.733725 
172.132446 0.441265 
172.943527 1.479801 
172.951706 0.072295 
172.99527 0.028375 
173.048462 0.18214 
173.058792 0.143001 
173.070816 1.299213 
173.095901 3.087922 
173.132401 0.56607 
174.054749 10.584864 
174.078827 0.056921 
174.091049 1.822713 
174.126526 0.169921 
175.027679 0.668348 
175.058548 0.109821 
175.063873 0.037709 
175.074982 1.423123 
175.086395 0.915395 
175.111511 1.432393 
175.12204 0.201356 
175.14801 0.362919 
175.935349 0.163074 
176.05896 2.615599 
176.070374 1.728022 
176.081543 0.027122 
176.10675 4.511218 
176.498413 0.025697 
176.989624 0.12763 
177.022293 0.338927 
177.042923 2.672089 
177.054169 0.178593 
177.06575 0.277595 
177.090866 0.910874 
177.102081 0.802047 
177.127457 0.077593 
177.138702 0.100991 
177.759109 0.024865 
178.050003 0.236659 
178.077972 1.081175 
178.086151 6.867477 
178.094925 0.102609 
178.122528 1.214981 
179.005219 0.234412 
179.022095 0.996406 
179.070251 1.246199 
179.085495 9.911457 
179.106216 0.231415 
179.143204 0.053292 
180.065414 0.305693 
180.093185 10.385571 
180.101715 4.283607 
180.138626 0.041894 
180.99437 0.105079 
181.019272 0.02693 
181.060272 0.113222 
181.087814 0.034169 
181.101212 1.003962 
181.978638 0.027519 
182.081375 0.256561 
182.096436 0.12199 
182.117386 0.109443 
183.017609 1.086081 
183.032486 0.031648 
183.069336 0.072117 
183.080734 0.275138 
183.116867 2.220578 
184.978119 0.031137 
185.041687 0.232006 
185.048691 0.302347 
185.096191 1.276302 
185.132599 4.700841 
185.293549 0.02541 
185.449783 0.045981 
185.454926 0.02506 
185.491837 0.021144 
186.091354 3.608774 
186.126968 0.122482 
186.136017 0.100065 
187.027679 0.03362 
187.064255 0.08338 
187.075546 0.725334 
187.087067 0.112196 
187.111755 0.543797 
187.148056 0.660637 
188.023026 0.031164 
188.070663 1.659395 
188.106995 2.434853 
188.127686 0.154091 
188.143066 0.098839 
188.208023 0.130943 
188.966019 0.063616 
189.019089 0.023211 
189.03389 0.025574 
189.043289 1.497141 
189.053284 0.068425 
189.066666 0.230838 
189.079208 0.058979 
189.091293 5.312207 
189.101822 1.146562 
190.086258 3.507704 
190.122513 2.340481 
190.953949 5.146797 
190.962982 0.083807 
191.022202 0.041658 
191.058884 0.126112 
191.070023 0.158586 
191.081711 0.92926 
191.106796 0.529052 
191.117569 0.721816 
191.661316 0.118059 
192.066116 0.25562 
192.09317 2.840182 
192.102005 3.759032 
192.139511 0.149804 
192.98703 0.134361 
193.037933 0.351292 
193.086761 0.340633 
193.101227 30.296522 
193.123917 0.212595 
193.133209 0.156662 
194.069565 0.711106 
194.08078 0.642525 
194.104752 3.333268 
194.117447 1.538013 
194.999863 1.331942 
195.032928 0.668908 
195.053665 1.347023 
195.07872 0.216851 
195.116882 7.026178 
196.096878 0.301173 
196.132965 0.145979 
196.951675 0.162319 
197.014786 0.637144 
197.034378 0.031679 
197.048553 0.426848 
197.086044 0.029913 
197.095978 1.703537 
197.122131 0.029277 
197.132492 2.902513 
198.091034 0.163192 
198.122818 0.138098 
198.959137 0.061953 
198.994385 0.17165 
199.012222 0.028049 
199.027603 0.209714 
199.064087 2.105714 
199.075256 0.153384 
199.093369 0.024998 
199.111511 1.224553 
199.147186 0.357755 
200.022781 0.074635 
200.070404 0.036099 
200.106873 0.709651 
200.142929 0.030714 
200.386581 0.022443 
200.992538 0.040609 
201.043213 1.185374 
201.079803 1.435786 
201.09108 8.001285 
201.127457 0.04119 
201.390488 0.025775 
202.038132 0.027765 
202.049271 0.123545 
202.086548 0.792041 
202.09407 0.393364 
202.122787 1.007348 
203.05249 5.348748 
203.069656 0.248693 
203.081329 0.038676 
203.094788 0.172429 
203.108063 0.517299 
203.117874 1.903214 
203.143173 4.724247 
204.052505 0.048557 
204.064362 0.149883 
204.102051 7.08227 
204.122894 0.292291 
204.129639 0.128498 
204.137802 0.285421 
204.970139 0.055711 
205.038055 1.372968 
205.073776 0.078144 
205.08728 0.349691 
205.097488 1.05233 
205.133591 1.980985 
206.081223 1.694943 
206.108841 5.10244 
206.117752 5.258389 
206.154144 0.04941 
206.926056 0.120202 
206.942413 0.027145 
206.977646 0.261769 
207.000061 0.603408 
207.054047 0.954945 
207.065063 0.287327 
207.076538 0.055686 
207.087921 0.044634 
207.104294 0.156043 
207.112579 2.795587 
207.137238 0.06187 
207.148819 0.230853 
207.658752 0.024223 
208.028671 0.029283 
208.059418 0.131618 
208.096863 4.719399 
208.126022 0.127632 
208.134155 0.5015 
208.964691 2.684139 
209.047836 0.035809 
209.096161 3.47375 
209.132538 6.278539 
210.074295 1.370878 
210.111755 0.110922 
210.135803 0.312681 
210.95813 0.023942 
211.054123 0.030504 
211.064087 6.089489 
211.074387 0.097803 
211.111542 2.147015 
211.147919 1.05066 
212.069016 0.094851 
212.105743 0.035612 
212.129425 0.09685 
213.009247 0.026197 
213.043228 4.912712 
213.079697 0.42106 
213.090851 0.449438 
213.097565 0.605197 
213.127457 3.129343 
213.163284 0.032258 
214.088211 0.285243 
214.115295 0.200537 
214.122391 0.167297 
214.439178 0.12802 
214.455826 4.834599 
214.481033 0.939876 
214.953781 2.811582 
215.047287 0.046363 
215.058884 9.769596 
215.095093 0.399563 
215.10614 0.178163 
215.117569 0.299009 
215.143082 0.032498 
215.153488 0.092398 
216.063217 0.240802 
216.102066 2.347408 
216.138275 0.606717 
216.969528 5.851024 
216.987076 0.848635 
217.038055 0.065295 
217.074554 3.441292 
217.085495 0.093477 
217.097382 0.560873 
217.109329 0.05966 
217.133377 1.628998 
217.540268 0.025935 
218.070099 0.036584 
218.08078 0.76297 
218.117493 4.471656 
218.153992 0.464613 
218.341995 0.024918 
218.984863 0.053677 
219.019913 1.980784 
219.053589 0.568502 
219.076935 1.702049 
219.090042 0.466347 
219.104156 0.22135 
219.113663 1.623287 
219.149246 5.048723 
219.17424 48.456341 
219.208878 0.304807 
220.021149 0.105283 
220.096451 2.045766 
220.120117 0.063029 
220.132858 0.913597 
220.153458 0.138564 
221.016678 0.024647 
221.073578 0.241473 
221.092728 0.272303 
221.097366 0.333007 
221.132599 33.529751 
221.15239 0.031727 
221.160431 0.180931 
221.16954 0.175001 
221.247452 0.164395 
221.933578 0.099021 
222.110779 3.150114 
222.135834 6.415867 
222.575424 0.029729 
222.898865 0.118112 
223.027054 0.066791 
223.064133 1.506572 
223.100998 0.031426 
223.110306 0.884854 
223.144028 7.857559 
224.079391 0.050723 
224.12822 0.065474 
224.148239 0.082863 
224.936493 0.057976 
224.954147 0.133703 
224.999191 0.026638 
225.010178 2.739123 
225.042984 0.059171 
225.079514 0.796379 
225.096848 0.351672 
225.126892 1.109029 
226.88623 0.771024 
226.953415 0.065383 
227.058777 1.932104 
227.094543 0.485631 
227.106644 0.461773 
227.142883 0.850807 
228.08992 0.076382 
228.100967 0.041514 
228.138535 0.144507 
228.888458 0.032901 
228.927155 0.051532 
229.074524 100.0 
229.096985 0.132203 
229.157837 0.135843 
230.0784 5.799613 
230.117569 1.275026 
230.152222 0.03374 
230.964096 0.095336 
231.053848 14.560649 
231.076065 0.103128 
231.089951 0.195215 
231.109146 1.055946 
231.135727 0.233955 
231.998611 0.028436 
232.057999 0.323495 
232.08403 0.044474 
232.09639 1.82375 
232.132935 0.791943 
232.950363 0.02967 
232.964493 18.179163 
233.069489 5.945055 
233.091629 1.084777 
233.128113 1.163468 
233.96756 0.385748 
234.074493 0.255978 
234.110809 0.420715 
234.119781 0.29119 
234.148727 0.13418 
234.921387 0.455262 
234.959991 0.088207 
234.980026 3.024749 
234.99678 1.373326 
235.084579 0.032835 
235.105255 0.197552 
235.131775 0.050152 
235.143051 0.440243 
236.127838 0.197511 
236.163986 1.362649 
236.99379 0.058817 
237.079712 0.521895 
237.08989 0.364815 
237.126221 5.602429 
237.165649 0.098323 
237.503418 0.024721 
238.097595 0.032227 
238.968323 0.027659 
239.021805 0.025953 
239.057785 0.02268 
239.095108 0.208481 
239.10556 0.285124 
239.142868 11.532202 
240.10112 0.187075 
240.145309 0.50205 
240.232239 1.859094 
240.909393 1.02219 
240.986252 0.066093 
241.037689 0.173836 
241.074493 22.094376 
241.096039 0.04868 
241.110245 0.551385 
241.121506 0.894178 
241.910263 0.028913 
242.078323 1.456654 
242.117111 0.410213 
242.983871 0.369292 
243.019531 0.582269 
243.053879 0.487939 
243.090179 6.655639 
243.107681 1.162931 
243.137238 0.133837 
244.012527 0.037345 
244.048553 0.062654 
244.095734 0.782255 
244.109116 0.230411 
244.169907 0.13873 
244.896545 5.358255 
244.963974 0.464133 
244.982681 0.099027 
245.032516 0.182464 
245.069305 2.934899 
245.105042 0.771042 
245.12648 0.516451 
245.15303 0.161738 
246.111252 0.728549 
246.148468 0.353192 
246.775085 0.117784 
246.979584 0.502184 
247.085098 64.593498 
247.108887 1.681142 
247.144012 0.456364 
247.946625 0.072142 
248.043854 0.083037 
248.088943 3.978893 
248.127289 2.019891 
248.137421 0.141738 
248.164429 0.402529 
248.936783 0.087627 
248.975006 0.119637 
248.996597 0.052702 
249.012878 0.089235 
249.064438 4.048373 
249.078491 0.165318 
249.123093 1.250728 
249.158875 0.180768 
249.827057 0.144603 
249.961899 0.143618 
250.008118 0.073742 
250.068314 0.030201 
250.105438 1.556605 
250.130844 0.129903 
250.822525 0.023519 
250.974731 11.468135 
251.046844 0.102485 
251.080109 0.072 
251.102112 0.277808 
251.139175 0.570856 
251.978439 0.167117 
252.085571 0.193224 
252.932037 0.062826 
252.970612 0.308421 
253.085724 0.07531 
253.158478 0.036289 
255.089996 5.3653 
255.103348 0.036663 
255.137329 6.77006 
255.172592 0.147166 
256.093994 0.182859 
256.962067 0.259559 
257.068665 0.135802 
257.092194 0.465978 
257.107422 0.327302 
257.12323 3.812238 
257.192261 0.105899 
258.110565 0.272915 
258.125244 0.618864 
258.148865 0.183582 
258.980225 0.770646 
258.995697 0.105032 
259.049225 0.104316 
259.085022 9.80113 
259.120544 1.160732 
259.143555 0.06546 
260.08905 0.692786 
260.113464 0.049175 
260.127258 0.763024 
260.141083 0.036989 
260.164307 0.588538 
260.994537 0.191003 
261.029694 0.098987 
261.053833 0.149516 
261.100616 3.810246 
261.122833 0.757378 
261.159576 0.035635 
262.007843 0.064865 
262.05899 0.155682 
262.094177 0.12873 
262.106934 0.605353 
262.128662 0.160519 
262.141907 0.158901 
262.179413 1.529691 
262.893555 0.188198 
262.907166 5.658319 
262.974976 1.137049 
263.080017 0.165577 
263.139313 0.49979 
263.160797 0.046968 
263.944092 1.740289 
264.121338 0.134522 
264.909363 0.459647 
264.989929 0.330439 
265.059174 0.103303 
265.121307 5.251096 
265.154999 0.258115 
265.939423 0.170598 
265.956665 0.051399 
266.068604 0.049309 
266.124207 0.116431 
267.090149 3.029062 
267.10553 0.041797 
267.13501 6.199534 
268.115417 4.930552 
268.128784 8.800386 
268.940674 0.104039 
269.603241 0.031315 
270.112762 0.10148 
270.185791 0.052226 
270.938324 0.090635 
271.083923 0.034626 
271.169281 0.157187 
271.921509 0.118074 
272.127441 0.201074 
272.164337 0.201085 
272.185577 0.088921 
272.936279 0.230897 
272.974304 0.546342 
273.100525 3.453484 
273.123199 0.075831 
273.889557 0.599503 
274.104828 0.146419 
274.143311 0.102834 
274.180817 0.057676 
274.969879 8.052344 
275.115204 0.033566 
275.136078 1.014072 
275.887817 0.024728 
276.90921 0.220458 
276.923645 0.029409 
276.991089 0.322814 
277.007233 0.036485 
277.095123 0.052567 
277.117615 0.148926 
277.154541 1.915175 
278.123749 0.126148 
278.155273 0.025803 
279.022034 0.029522 
279.065155 0.06983 
279.111481 0.03083 
279.134216 0.177918 
279.955719 0.421934 
280.850311 0.073567 
280.917145 0.296489 
280.985229 0.538669 
281.955292 0.091683 
282.919037 0.135583 
283.08432 0.033486 
283.13266 7.010349 
283.148834 0.10369 
284.134827 0.12866 
284.165436 0.169216 
285.062378 0.064339 
285.100647 11.661007 
285.117798 0.490344 
285.15509 0.216078 
285.815491 1.312674 
286.10434 1.040416 
286.185547 0.028856 
286.823242 0.198543 
287.079926 1.025742 
287.115662 0.123411 
287.138519 0.512637 
287.830994 0.411664 
288.122101 0.326872 
288.158661 0.368205 
288.921265 0.09394 
288.985138 0.063275 
289.154327 0.499908 
290.174316 0.037712 
290.947296 3.244594 
290.985138 0.046578 
291.134277 0.425883 
291.170807 0.145688 
292.980988 3.002263 
292.999054 0.075342 
293.149597 0.095645 
294.829346 0.030612 
299.105316 0.149828 
300.159424 0.1518 
300.195465 0.426374 
301.141754 0.453726 
301.155609 0.063975 
301.190704 0.143285 
301.807861 0.026507 
302.148376 0.124777 
302.175476 0.858793 
302.816681 0.116533 
302.93692 0.146953 
303.075073 0.043654 
303.111328 14.41589 
303.16983 1.002569 
304.046967 0.027708 
304.152557 0.206598 
304.191132 1.083155 
304.930939 0.027405 
304.985596 0.163029 
305.09021 0.502563 
305.157104 30.18162 
305.178345 0.196427 
305.185425 0.224978 
306.16098 2.089937 
306.932587 0.055445 
307.126709 3.4416 
307.165253 0.675652 
307.270813 0.322802 
308.957703 0.661346 
310.824158 0.032531 
310.84314 0.264406 
311.127899 5.165564 
311.830872 0.28566 
312.1586 0.143133 
312.838806 5.004992 
317.127411 0.073443 
317.147858 0.189719 
317.18631 1.917391 
318.20578 0.230348 
319.166138 0.755823 
319.201599 0.725029 
319.836273 0.327002 
320.185699 0.919688 
320.222076 0.817246 
321.158051 0.140792 
321.837433 0.092136 
322.995605 0.130833 
323.770325 0.029695 
325.118958 0.200715 
325.830231 0.168462 
326.818359 0.646511 
327.82608 9.607405 
328.190094 0.458025 
328.832184 1.152747 
329.190582 0.057668 
329.828278 0.027721 
329.842834 0.05915 
330.169739 0.192104 
331.169983 0.058595 
333.178345 0.148571 
333.812531 0.024347 
334.176331 0.045922 
334.2117 0.188845 
336.188995 0.094965 
336.838013 0.201966 
337.84613 0.259198 
338.876434 0.022624 
339.169678 0.178495 
339.848846 0.060529 
341.842285 0.02846 
344.828888 5.711046 
345.14447 0.162864 
345.180573 1.129656 
345.835052 0.504631 
346.166229 0.161171 
346.201263 3.727436 
346.830078 0.027913 
347.159637 2.229865 
347.197662 0.213427 
348.121246 0.057217 
348.163513 0.132586 
348.181396 1.05719 
348.216919 4.377876 
350.945587 0.027921 
351.733978 0.150477 
362.232056 0.743564 
363.161926 16.480371 
363.191223 5.648417 
363.213654 13.096517 
363.251038 0.407705 
364.11853 0.02564 
364.166504 0.512597 
364.189362 1.409374 
364.214478 5.611005 
365.104736 1.730918 
365.169525 1.927491 
365.191589 2.445762 
365.206665 0.900742 
365.22821 0.563212 
365.266724 0.135518 
366.133545 0.309324 
366.226593 9.10476 
366.277557 0.038808 
368.610413 0.029223 
369.836182 2.100363 
370.838379 0.053449 
371.838379 1.001047 
377.574982 0.022516 
384.547668 0.024548 
387.846802 0.586672 
389.849823 0.079573 
END IONS

