BEGIN IONS
PEPMASS=1299.71
CHARGE=1+
COMPOUNDNAME=POLYMYXIN B SULFATE
LIBRARYQUALITY=3
SMILES=N/A
INCHIKEY=HFMDLUQUEXNBOP-UHFFFAOYSA-N
INCHI=InChI=1S/C56H98N16O13.H2O4S/c1-7-32(4)13-11-12-16-44(75)63-36(17-23-57)51(80)72-46(34(6)74)56(85)68-39(20-26-60)48(77)67-41-22-28-62-55(84)45(33(5)73)71-52(81)40(21-27-61)65-47(76)37(18-24-58)66-53(82)42(29-31(2)3)69-54(83)43(30-35-14-9-8-10-15-35)70-49(78)38(19-25-59)64-50(41)79;1-5(2,3)4/h8-10,14-15,31-34,36-43,45-46,73-74H,7,11-13,16-30,57-61H2,1-6H3,(H,62,84)(H,63,75)(H,64,79)(H,65,76)(H,66,82)(H,67,77)(H,68,85)(H,69,83)(H,70,78)(H,71,81)(H,72,80);(H2,1,2,3,4)
MSLEVEL=2
SOURCE_INSTRUMENT=N/A-ESI-QFT
FILENAME=library_mgf.mgf
SEQ=*..*
IONMODE=negative
ORGANISM=MONA
NAME=POLYMYXIN B SULFATE [M-H]-
PI=MoNA
DATACOLLECTOR=MoNA:VF-NPL-QEHF027921
PUBMED=N/A
SUBMITUSER=mwang87
TAGS=
SPECTRUMID=CCMSLIB00004721502
SCANS=27921
89.693069 0.007681 
90.280739 0.012561 
90.922852 0.012001 
91.444427 0.005002 
91.856659 0.008115 
91.945137 0.012263 
93.074883 0.00666 
93.869072 0.011817 
94.042557 0.015837 
94.327362 0.0086 
94.979439 0.932678 
95.092773 0.01222 
96.941612 0.389411 
96.958725 100.0 
96.976265 0.398719 
97.722504 0.006525 
97.958122 0.506786 
97.96312 0.00464 
98.954575 1.361156 
98.962944 0.159725 
100.510956 0.006141 
102.112083 0.013508 
105.182899 0.011361 
106.251907 0.017032 
106.262451 0.004309 
107.757584 0.005435 
108.804947 0.00734 
109.806252 0.004539 
110.183891 0.006962 
110.54747 0.011931 
111.756432 0.008613 
111.813652 0.011097 
113.234779 0.012625 
113.872383 0.011529 
115.20034 0.014888 
115.865181 0.01154 
116.287582 0.014259 
116.756996 0.014255 
117.69709 0.004907 
118.145905 0.013973 
119.108459 0.005633 
119.283661 0.005172 
123.518196 0.013405 
123.521812 0.012394 
125.54306 0.004364 
126.652069 0.008835 
127.754433 0.007939 
130.440247 0.005946 
130.749771 0.004738 
133.49704 0.015539 
134.242218 0.011366 
134.35025 0.014944 
136.963058 0.004468 
137.416199 0.011304 
138.980194 0.00814 
139.38028 0.0111 
140.79039 0.012353 
140.831573 0.004128 
141.90976 0.00799 
142.842361 0.013956 
144.410294 0.01892 
144.716522 0.012796 
144.91127 0.00996 
147.875107 0.009096 
148.676224 0.008135 
153.628098 0.004312 
154.320435 0.014426 
161.244858 0.013925 
161.413834 0.005633 
162.498276 0.007244 
164.42334 0.007383 
165.510696 0.005502 
166.571228 0.005299 
167.72084 0.005242 
171.229004 0.011157 
171.403366 0.006881 
172.569534 0.013227 
179.127304 0.007657 
183.012024 0.005581 
184.345688 0.006151 
185.063965 0.004586 
187.493729 0.004819 
189.094498 0.012515 
190.482803 0.004298 
190.768387 0.004976 
193.451294 0.004955 
194.088455 0.005547 
194.391647 0.005582 
197.06041 0.00405 
198.03215 0.012147 
198.044022 0.013477 
199.198105 0.004999 
202.253418 0.004563 
212.549683 0.005214 
212.857285 0.004411 
218.840683 0.007155 
219.387192 0.015774 
219.948746 0.126268 
219.957108 0.082254 
219.960831 0.085218 
219.972443 0.042101 
219.98201 0.035986 
220.240311 0.007822 
220.482086 0.01154 
220.619507 0.004455 
221.816422 0.016405 
223.300354 0.00742 
223.874344 0.005573 
227.642532 0.012408 
242.163391 0.004654 
252.213882 0.007292 
261.545258 0.01357 
266.70517 0.019543 
276.841217 0.012717 
277.106812 0.012959 
282.355377 0.013491 
298.820374 0.011984 
298.875122 0.008607 
304.267822 0.004206 
305.81189 0.012516 
306.771088 0.0043 
308.91452 0.014154 
317.561493 0.00486 
320.721313 0.016006 
330.292236 0.014487 
337.264954 0.008963 
338.568817 0.005727 
339.069763 0.013505 
355.523407 0.020092 
359.873138 0.014301 
360.225189 0.018189 
360.439728 0.00486 
367.463226 0.009488 
372.548035 0.011919 
374.35434 0.012611 
375.679443 0.008295 
377.326599 0.005435 
378.438934 0.00816 
379.529083 0.01338 
391.945068 0.013321 
402.288055 0.005198 
407.179688 0.013765 
412.556427 0.004946 
414.409241 0.00569 
423.592804 0.018028 
443.841614 0.005559 
445.724701 0.007857 
445.887146 0.006895 
449.262299 0.008794 
451.62207 0.008111 
462.977844 0.004641 
467.167267 0.012621 
478.32962 0.00532 
490.557373 0.008326 
496.133148 0.013614 
505.859344 0.014429 
524.601135 0.01381 
528.102051 0.005167 
534.66333 0.004585 
539.702637 0.008501 
548.862122 0.014289 
557.168091 0.013586 
561.24292 0.013571 
636.232239 0.009752 
654.848816 0.007291 
659.524902 0.01336 
674.416199 0.016036 
692.386597 0.00477 
702.122192 0.016799 
705.792603 0.008444 
763.508118 0.015085 
767.439209 0.004386 
770.690674 0.019334 
788.596069 0.016333 
801.887268 0.004759 
815.755066 0.005077 
830.254578 0.01405 
914.118103 0.005668 
919.057617 0.005864 
939.440063 0.01396 
980.945129 0.015688 
985.287292 0.010383 
997.054016 0.007914 
1017.515991 0.015958 
1035.896729 0.005205 
1109.325806 0.009007 
1198.331787 0.014081 
1227.073608 0.004685 
1274.251587 0.006299 
1288.46521 0.006429 
1317.13562 0.015748 
END IONS

