BEGIN IONS
PEPMASS=485.0
CHARGE=1+
COMPOUNDNAME=MoNA:2463728 Kanamycin A
LIBRARYQUALITY=3
SMILES=N/A
INCHIKEY=SBUJHOSQTJFQJX-NOAMYHISSA-N
INCHI=InChI=1S/C18H36N4O11/c19-2-6-10(25)12(27)13(28)18(30-6)33-16-5(21)1-4(20)15(14(16)29)32-17-11(26)8(22)9(24)7(3-23)31-17/h4-18,23-29H,1-3,19-22H2/t4-,5+,6-,7-,8+,9-,10-,11-,12+,13-,14-,15+,16-,17-,18-/m1/s1
MSLEVEL=2
SOURCE_INSTRUMENT=LC-ESI-IT-LC-ESI-IT
FILENAME=output_mgf.mgf
SEQ=*..*
IONMODE=
ORGANISM=MONA
NAME=MoNA:2463728 Kanamycin A [M+H]+
PI=MoNA
DATACOLLECTOR=MoNA
PUBMED=N/A
SUBMITUSER=mwang87
TAGS=
SPECTRUMID=CCMSLIB00000567466
SCANS=4717
89.2 0.005971 
133.1 0.005739 
134.1 0.33881 
139.0 0.024492 
139.9 0.014076 
144.1 1.42444 
145.1 4.318434 
146.1 0.528878 
150.0 0.104024 
151.0 1.220145 
152.1 0.182652 
154.1 0.005884 
158.2 0.052331 
161.1 0.052674 
162.1 6.742055 
163.1 76.507367 
163.1 0.00058 
164.0 0.078407 
165.1 0.009934 
166.9 0.010415 
168.0 0.035301 
169.1 1.453139 
170.0 0.041086 
171.1 0.004009 
173.1 0.282081 
174.1 0.013548 
175.1 0.017761 
176.0 0.015452 
180.1 0.356954 
181.1 0.060884 
184.0 0.026232 
185.0 0.069622 
186.0 0.594462 
187.1 7.473097 
187.1 0.00058 
188.0 0.031733 
190.1 0.046633 
191.1 0.005042 
192.1 0.016461 
199.2 0.041069 
200.1 0.050306 
201.9 0.014343 
203.1 0.07391 
204.1 1.949865 
205.1 17.526473 
205.1 0.00058 
206.0 0.226831 
209.0 0.019316 
210.2 0.174796 
211.1 0.039792 
212.0 0.009667 
213.0 0.010015 
215.9 0.027225 
217.2 0.073104 
219.0 0.018457 
221.2 0.032499 
222.1 0.861874 
228.1 0.137695 
229.1 0.117689 
230.2 0.005472 
233.0 0.009168 
234.1 0.018301 
240.1 0.074224 
241.2 0.121431 
242.2 0.027422 
242.9 0.032267 
244.1 0.007793 
245.9 0.008889 
251.1 0.237803 
252.1 0.370636 
253.2 0.327165 
254.2 0.062944 
258.1 0.032116 
259.3 0.033758 
262.1 0.170247 
263.1 0.794637 
264.1 0.666318 
267.0 0.030636 
269.2 0.197871 
270.1 0.480358 
271.1 1.847054 
273.1 0.00716 
276.1 0.010282 
277.3 0.043256 
279.0 0.033439 
281.1 0.101703 
284.2 0.020326 
285.0 0.012255 
287.1 0.559334 
288.0 0.129543 
289.2 0.547677 
294.1 0.209076 
295.1 0.078784 
304.4 0.056352 
305.1 2.039059 
306.1 0.362026 
307.2 0.330136 
308.1 0.039247 
312.2 0.496129 
313.1 0.13755 
314.2 0.015585 
318.2 0.008837 
321.0 0.010096 
323.2 5.698538 
324.2 100.0 
325.2 0.318572 
327.2 0.081099 
328.4 0.040953 
330.2 1.082404 
331.5 0.03142 
335.2 0.027422 
336.3 0.020888 
337.2 0.012817 
347.4 0.178509 
348.2 12.282717 
350.1 0.074154 
352.0 0.01721 
360.2 0.029894 
365.3 0.746466 
366.2 12.130771 
367.2 0.04455 
368.2 0.065456 
369.8 0.004079 
372.1 0.103195 
378.1 0.064255 
379.0 0.043901 
389.9 0.038168 
391.2 0.011007 
396.0 0.118234 
397.0 0.035992 
401.1 0.086107 
402.0 0.675619 
404.0 0.121669 
405.1 0.044846 
408.2 0.083049 
409.2 0.164212 
410.2 0.548316 
412.7 0.189998 
414.1 0.506672 
424.2 0.013595 
431.2 0.287477 
432.1 4.990797 
436.0 0.018788 
440.2 0.004723 
441.0 0.057902 
449.2 0.128597 
450.1 5.810755 
451.0 0.023325 
452.0 0.083809 
453.1 0.027822 
455.6 0.045746 
457.1 0.025565 
466.8 0.52821 
468.0 2.337241 
468.9 0.065154 
469.6 0.051832 
476.6 0.020987 
482.2 0.034739 
484.1 0.012736 
485.1 0.337197 
508.2 0.012701 
513.2 0.028536 
END IONS

