BEGIN IONS
PEPMASS=297.016
CHARGE=1+
COMPOUNDNAME=norlichexanthone
LIBRARYQUALITY=3
SMILES=N/A
INCHIKEY=AQZHBCDRWFMXIN-UHFFFAOYSA-N
INCHI=InChI=1S/C14H10O5/c1-6-2-7(15)4-10-12(6)14(18)13-9(17)3-8(16)5-11(13)19-10/h2-5,15-17H,1H3
MSLEVEL=2
SOURCE_INSTRUMENT=N/A-ESI-QFT
FILENAME=library_mgf.mgf
SEQ=*..*
IONMODE=positive
ORGANISM=MONA
NAME=norlichexanthone [M+K]+
PI=MoNA
DATACOLLECTOR=MoNA:VF-NPL-QEHF017955
PUBMED=N/A
SUBMITUSER=mwang87
TAGS=
SPECTRUMID=CCMSLIB00004709018
SCANS=17955
50.59444 0.066891 
50.821392 0.07062 
50.887054 0.059705 
51.349228 0.062403 
51.797417 0.062162 
51.940304 11.587197 
51.983601 0.069908 
52.800434 0.069286 
52.940445 0.421416 
53.002605 0.142812 
53.038879 0.656632 
53.282658 0.062473 
53.590416 0.054799 
54.562492 0.054676 
55.018173 0.923998 
55.05455 13.820118 
55.307056 0.067803 
55.934689 0.435951 
56.049763 2.205416 
56.212605 0.062878 
56.965073 18.927917 
57.016556 0.057389 
57.03376 1.663391 
57.070168 16.522032 
57.091728 0.063666 
57.400116 0.060856 
57.935108 0.322778 
58.065399 4.373453 
58.073299 0.076265 
58.766315 0.05488 
58.932819 0.063348 
58.998085 0.126209 
59.049412 5.98574 
59.362923 0.056547 
59.905743 0.055241 
59.93045 0.962454 
60.044559 0.077785 
60.081039 0.268582 
60.208511 0.070958 
60.543575 0.05603 
60.957886 1.24998 
61.010883 51.964714 
61.046478 0.059267 
62.014351 0.140489 
62.018677 32.099606 
62.107277 0.054759 
62.489075 0.057276 
62.981907 0.313097 
63.006672 0.331913 
63.022011 0.132549 
63.026455 0.307788 
63.710793 0.067485 
63.793549 0.055538 
63.997936 1.571605 
64.116493 0.059317 
64.311783 0.059945 
65.03875 0.630737 
66.026421 0.07019 
66.173286 0.052114 
66.298317 0.057011 
66.948219 0.061196 
67.054359 21.551287 
67.93499 4.839377 
68.049545 0.252246 
68.057671 0.646079 
68.797356 0.073615 
68.942802 4.731921 
69.033554 1.005143 
69.069969 9.540808 
69.942924 0.14729 
70.02874 0.271322 
70.065239 4.675522 
70.957947 0.133441 
70.980476 0.674854 
71.049194 1.175256 
71.073036 0.055978 
71.085587 2.597568 
71.097374 0.071859 
71.951904 0.359214 
72.044495 0.376977 
72.080841 1.569123 
72.633675 0.066452 
72.937195 0.661269 
72.959839 0.138898 
73.028435 0.296718 
73.046852 6.592063 
73.064911 0.068581 
73.73661 0.068247 
74.017265 0.078663 
74.06012 0.287067 
74.096436 5.369173 
75.044037 0.435252 
75.100517 0.061635 
76.699425 0.061595 
76.859093 0.066329 
77.005608 0.077151 
77.008392 0.491232 
77.787575 0.059222 
78.013435 2.723231 
78.95192 0.081533 
79.006088 0.063388 
79.021248 12.227254 
79.054222 8.82642 
79.194603 0.057921 
80.049454 0.064846 
80.057625 0.144749 
80.944916 0.092001 
81.03347 0.166358 
81.069893 9.719566 
81.875946 0.067885 
82.040581 0.087714 
82.065178 0.594536 
82.073166 0.064808 
82.412132 0.05629 
82.494064 0.077572 
83.049179 3.967427 
83.085503 2.4659 
83.92981 2.259368 
83.946289 0.058513 
83.970291 0.06017 
84.044441 0.425506 
84.08078 1.520562 
84.937607 0.930134 
85.028442 0.062541 
85.047699 0.068512 
85.064857 5.282147 
85.101181 0.155363 
85.945473 2.876142 
86.060081 11.547894 
86.096367 0.88108 
87.044121 11.139086 
87.063347 0.244069 
87.903748 0.064063 
88.075714 0.914408 
88.936836 0.067579 
89.059731 5.450816 
90.947678 1.039188 
91.05423 7.120305 
91.057381 18.348076 
91.499405 0.185156 
91.525505 0.066357 
91.829941 0.057769 
92.057152 0.499708 
92.060776 0.148227 
92.250511 0.064816 
92.993118 0.06813 
93.036705 0.22887 
93.069931 24.008837 
94.065041 0.156555 
94.07325 0.373364 
94.586006 0.069953 
95.049118 1.516462 
95.085571 8.347676 
95.980011 0.062745 
96.04451 0.070992 
96.080765 0.248445 
96.088631 0.065669 
96.937477 0.113227 
96.995293 0.084889 
97.039398 0.065995 
97.064941 0.261882 
97.101257 0.064259 
97.20549 0.069323 
97.784447 0.061827 
98.060104 2.075998 
98.096581 0.271218 
98.975403 0.733769 
99.01123 4.068189 
100.009712 0.119752 
100.075661 5.51129 
100.504799 5.802269 
100.953659 0.096159 
100.991058 0.07944 
101.079102 0.06545 
101.503273 0.273566 
101.940361 2.385681 
102.948235 6.846274 
103.038979 7.571507 
103.05423 0.983752 
103.956055 2.455832 
105.033485 1.507368 
105.044739 0.247731 
105.069901 4.898873 
105.073265 0.236796 
106.029236 0.059564 
106.06472 0.084148 
106.073112 0.11783 
106.741837 0.057811 
107.049156 0.443866 
107.085571 27.232773 
107.668007 0.067027 
108.016464 15.833261 
108.020409 0.189511 
108.044052 0.068833 
108.088814 0.226116 
108.516861 1.602972 
109.014893 1.604939 
109.06472 0.569954 
109.101227 1.621614 
109.509712 0.070105 
110.059959 0.270555 
110.49176 0.060964 
111.026207 0.245196 
111.068039 0.090257 
111.080322 0.149895 
112.141479 0.074089 
113.094963 0.056856 
114.948158 0.749121 
115.024475 0.347811 
116.966293 4.032664 
116.985817 0.532999 
117.069885 0.077299 
117.075027 0.072296 
117.660545 0.061819 
117.935165 0.482356 
117.95607 0.069352 
117.966209 0.434281 
117.971527 0.451314 
118.124634 0.071864 
118.542755 0.061686 
118.925194 0.080391 
118.943176 7.19673 
118.963074 0.476671 
119.00164 1.072128 
119.023682 0.068656 
119.049149 0.211628 
119.085602 3.255946 
119.943459 0.172819 
119.950981 11.565794 
120.080788 0.462927 
120.951065 0.315838 
120.958786 0.766183 
121.028656 0.152269 
121.064728 0.614714 
121.101227 7.068178 
121.501099 0.08223 
121.966728 0.504541 
122.09623 0.079664 
123.080315 0.148689 
123.641045 0.077686 
123.915878 0.067635 
126.063187 0.064549 
126.0914 41.051483 
126.608284 0.053578 
126.615173 0.05538 
127.094643 4.499023 
128.96376 4.690846 
129.549957 0.056465 
130.506317 0.770828 
130.943085 5.708786 
131.085419 0.716813 
131.950867 3.799802 
132.952225 0.08852 
132.958481 5.472445 
133.10112 0.450463 
134.060364 0.071517 
134.958755 0.225113 
134.978683 1.128727 
134.996353 0.131103 
135.080307 1.160413 
135.116577 0.341782 
135.956528 0.058318 
135.98204 0.215503 
136.075699 0.583611 
136.590118 0.073642 
136.974335 0.342454 
137.011826 4.36093 
138.971664 0.395418 
139.174576 0.058514 
140.195618 0.063182 
140.241699 0.063984 
140.949356 0.070198 
140.98584 0.076466 
141.070145 0.066708 
141.365265 0.06328 
141.853561 0.064615 
141.971832 0.093044 
142.086151 0.207975 
142.964172 0.396082 
143.08577 0.075904 
144.080887 0.136406 
144.544983 0.062379 
144.958694 18.462446 
144.979965 0.990906 
145.101089 0.226197 
145.959045 0.589788 
145.966522 1.210577 
146.920074 0.286423 
146.956589 4.395175 
146.97435 25.571241 
147.116745 0.900277 
147.51123 0.075182 
147.928009 0.522518 
147.974426 1.581019 
147.99025 0.214202 
148.935944 0.084709 
148.971802 0.091245 
149.096344 0.171154 
149.132538 4.675181 
149.961639 0.071561 
150.968826 4.130727 
151.038895 0.253082 
152.070526 0.172283 
152.107285 0.085504 
152.989304 1.019841 
154.946564 0.076581 
155.022202 1.072439 
156.882507 0.071699 
156.975143 0.828272 
156.982208 0.598974 
157.055313 0.060901 
157.975464 0.142066 
158.97435 4.844305 
159.9823 1.166733 
160.93692 0.070365 
160.989868 0.332372 
161.012848 0.065194 
161.863281 0.060187 
161.943848 0.329659 
162.951523 0.135082 
162.969162 1.374186 
163.007019 0.059475 
163.027725 0.234291 
163.050934 0.058891 
163.148056 0.224916 
163.922134 0.165732 
163.959396 2.108481 
163.976929 2.694142 
164.022186 0.067009 
164.930801 0.919518 
164.967224 3.367975 
165.938629 1.791507 
166.946411 1.641339 
167.060318 0.710147 
169.075928 0.355895 
169.280258 0.066073 
170.117477 33.385426 
171.120956 4.56841 
172.30632 0.065803 
174.951523 3.727771 
174.985428 1.127554 
175.976913 0.080577 
175.986053 0.168332 
176.070175 0.079787 
176.968185 0.079915 
176.98262 0.261596 
177.959869 0.065826 
177.992676 2.329043 
178.946518 6.981728 
178.964584 0.604564 
179.118057 0.070849 
179.946045 0.176599 
179.954315 10.142762 
180.080826 0.094624 
180.887894 0.298696 
180.925385 1.149259 
180.955246 0.083045 
181.017212 0.50106 
181.969757 0.372409 
181.987869 0.100705 
182.996735 0.081971 
184.700851 0.059248 
185.061752 0.39322 
185.070969 4.445547 
186.222809 0.086471 
186.763916 0.080727 
186.972717 0.080145 
188.071198 0.073318 
188.967209 11.277977 
189.967407 0.215469 
190.967575 1.8732 
191.021866 0.069483 
192.962112 44.474934 
193.076263 0.104316 
193.962341 3.210638 
194.081985 0.078982 
195.09166 0.163462 
195.912064 0.257506 
196.003159 0.070379 
196.920502 1.491726 
196.957184 2.055308 
197.012802 0.071826 
197.890808 0.114702 
197.92836 0.859709 
198.854248 1.97605 
198.936066 0.850656 
199.027847 2.48678 
199.642715 0.058389 
201.006332 0.067762 
204.983383 4.651299 
206.083878 0.294812 
206.977875 100.0 
207.09227 0.089524 
207.977768 8.028507 
208.132935 0.221812 
208.957016 0.065099 
208.99118 0.074067 
209.011398 0.089482 
210.934875 0.061644 
211.027466 0.06826 
211.086609 0.907873 
213.054779 0.417324 
214.128281 0.078484 
214.893051 0.059217 
215.025528 0.079808 
215.901794 0.145522 
216.864761 0.506401 
217.0177 0.115853 
217.038361 0.308773 
219.536072 0.676404 
219.853638 0.061871 
220.956985 2.991176 
220.993286 1.804492 
221.06929 0.074429 
222.898468 0.319875 
223.02742 3.887548 
223.086609 3.972988 
224.952042 4.108468 
225.00708 0.70101 
225.042892 6.048776 
226.043198 0.464067 
226.127808 0.076369 
226.673386 0.070496 
227.010803 0.083907 
227.022125 4.011259 
228.144226 0.095611 
229.001373 2.631938 
229.018021 0.059976 
232.86055 0.141052 
235.027954 0.393777 
236.973297 0.318863 
237.928604 0.060943 
238.967453 21.791149 
239.968231 1.324189 
240.143723 0.095717 
240.909546 0.672677 
240.94696 0.153075 
241.037552 0.180909 
243.017395 3.797568 
243.159698 0.066929 
243.974594 0.069301 
244.021133 0.06664 
245.11026 0.065247 
247.012817 0.475971 
247.027634 1.647696 
247.732254 0.073373 
251.07016 0.101566 
252.98317 0.511854 
253.038315 0.083029 
254.962646 2.419106 
258.957916 0.318284 
260.395111 0.06673 
261.029114 0.166416 
262.709503 0.054962 
263.022583 0.682396 
265.019409 0.155537 
265.038177 1.990263 
266.042206 0.057578 
266.999115 26.849546 
267.015289 0.67746 
267.99884 6.283681 
268.085999 0.065614 
268.978424 15.675341 
268.995209 1.934102 
269.013916 0.921448 
269.044861 0.32757 
270.957703 0.727775 
270.994171 0.423728 
271.059814 0.556034 
271.998627 0.245515 
273.007324 0.121617 
276.84317 0.079457 
277.038208 0.072617 
277.473541 0.070069 
278.940887 0.066015 
283.030121 8.600148 
284.030457 1.820933 
285.009247 3.322566 
285.026764 0.360933 
285.045624 0.611707 
286.010376 0.22399 
287.023132 0.400175 
287.040527 0.174332 
287.67334 0.059292 
288.111023 0.181475 
289.038147 0.112067 
290.009583 2.109567 
291.017242 1.692128 
291.179382 0.076741 
297.006653 0.074419 
298.25296 0.353916 
298.347351 0.266192 
299.073212 0.147271 
303.018097 0.292546 
305.033051 1.872921 
306.036438 0.064191 
309.028168 0.166706 
315.0177 1.536202 
END IONS

