BEGIN IONS
PEPMASS=1255.64
CHARGE=1+
COMPOUNDNAME=Dactinomycin
LIBRARYQUALITY=3
SMILES=N/A
INCHIKEY=RJURFGZVJUQBHK-UHFFFAOYSA-N
INCHI=InChI=1S/C62H86N12O16/c1-27(2)42-59(84)73-23-17-19-36(73)57(82)69(13)25-38(75)71(15)48(29(5)6)61(86)88-33(11)44(55(80)65-42)67-53(78)35-22-21-31(9)51-46(35)64-47-40(41(63)50(77)32(10)52(47)90-51)54(79)68-45-34(12)89-62(87)49(30(7)8)72(16)39(76)26-70(14)58(83)37-20-18-24-74(37)60(85)43(28(3)4)66-56(45)81/h21-22,27-30,33-34,36-37,42-45,48-49H,17-20,23-26,63H2,1-16H3,(H,65,80)(H,66,81)(H,67,78)(H,68,79)
MSLEVEL=2
SOURCE_INSTRUMENT=N/A-ESI-QFT
FILENAME=library_mgf.mgf
SEQ=*..*
IONMODE=positive
ORGANISM=MONA
NAME=Dactinomycin [M+H]+
PI=MoNA
DATACOLLECTOR=MoNA:VF-NPL-QEHF000893
PUBMED=N/A
SUBMITUSER=mwang87
TAGS=
SPECTRUMID=CCMSLIB00004691956
SCANS=893
87.100212 0.305054 
87.716553 0.031501 
87.774506 0.046372 
87.973549 0.019627 
87.991692 0.034493 
89.018959 0.030363 
89.113235 0.031502 
89.182419 0.031994 
91.181694 0.029083 
92.734123 0.029391 
93.099663 0.030981 
93.758324 0.021165 
96.081062 0.089182 
96.89518 0.03504 
97.011002 0.038482 
97.047997 0.033329 
98.060326 1.01996 
98.096748 1.994627 
98.315323 0.022975 
100.039665 33.121277 
100.043297 0.113537 
100.075844 0.053103 
100.714142 0.02758 
100.900543 0.024801 
101.042915 0.481596 
101.566139 0.032599 
101.668045 0.034326 
102.43396 0.027747 
104.697411 0.030335 
106.069183 0.032936 
106.368385 0.03021 
108.080688 0.037701 
110.096657 0.363091 
110.218758 0.045871 
110.692139 0.023854 
111.983231 0.031827 
112.112312 4.523319 
112.623566 0.031896 
113.115585 0.042752 
113.50457 0.025075 
114.054749 0.074548 
114.091507 7.679426 
114.455421 0.049904 
114.823105 0.021539 
116.070366 0.040382 
117.54747 0.031573 
117.965569 0.025761 
118.102287 0.030574 
122.096344 0.155797 
123.09166 0.189967 
124.075745 0.032633 
124.112122 14.348725 
124.869949 0.023042 
125.107292 1.601719 
125.115364 0.570706 
125.180664 0.038763 
125.3162 0.035023 
126.054955 0.44882 
126.09127 2.463349 
127.123055 0.04069 
127.65345 0.034227 
128.106888 0.294204 
128.503952 0.041883 
129.101654 0.076029 
129.618729 0.024048 
129.640213 0.033998 
130.635345 0.039231 
130.640411 0.03404 
131.087189 0.026703 
132.101822 38.944309 
132.107193 0.362473 
132.413132 0.034228 
133.099045 0.032982 
133.105118 1.399601 
133.168289 0.026798 
136.010574 0.022714 
136.953491 0.030952 
137.107727 0.034677 
137.678772 0.034214 
138.091003 0.154978 
138.339752 0.02363 
139.086365 1.202283 
139.122681 0.036418 
140.418472 0.031543 
141.101746 0.122833 
141.860443 0.02327 
142.086136 3.756127 
142.122482 0.801195 
143.843857 0.023881 
144.101974 0.055726 
148.47789 0.032414 
150.090942 0.050958 
151.08638 0.770148 
152.070419 0.138012 
152.10672 0.620774 
153.102066 4.19407 
154.086014 4.330107 
154.226379 0.021056 
154.641586 0.033868 
154.930084 0.032489 
156.091812 0.035329 
157.115891 0.020341 
157.133301 2.069969 
162.227066 0.04134 
163.332367 0.020959 
167.081314 0.09123 
167.117615 0.320644 
168.835114 0.028228 
169.097 7.893921 
169.133362 4.025157 
169.140717 0.058274 
170.100296 0.122244 
170.117188 0.256618 
171.112183 0.042759 
172.392181 0.027217 
179.117828 0.118487 
180.101288 0.137514 
181.133148 0.090392 
185.128281 4.899357 
186.130997 0.073915 
186.757629 0.035426 
187.107513 4.866579 
188.111191 0.049586 
189.396484 0.030729 
195.112671 1.919615 
195.149918 0.036898 
197.128265 2.624178 
203.13884 52.34565 
203.19252 0.023047 
204.142441 3.27002 
207.147888 0.047609 
209.128174 0.045868 
211.766937 0.025476 
213.123032 0.548316 
214.976532 0.033896 
219.759552 0.030102 
221.164246 0.074817 
221.385498 0.03841 
221.992355 0.040005 
223.106934 0.160971 
223.180511 0.030161 
223.48175 0.037556 
225.122559 0.031907 
226.51503 0.032945 
229.117523 0.029179 
233.683548 0.020174 
238.192825 0.042353 
241.154419 0.46563 
241.718353 0.041837 
242.930298 0.039671 
243.451004 0.033169 
244.732819 0.024785 
249.375397 0.03134 
253.155014 0.061334 
258.630981 0.017314 
260.650146 0.036091 
267.07605 0.590639 
268.164825 0.277408 
268.437073 0.030565 
268.74118 0.033517 
269.873871 0.02919 
273.475067 0.030743 
278.584076 0.033875 
279.909637 0.041413 
282.180664 2.467527 
282.898773 0.021222 
291.319824 0.038414 
291.831665 0.032195 
293.055511 2.421733 
295.071014 0.076898 
299.614502 0.020628 
300.191071 5.147262 
301.195435 0.227897 
304.08548 0.097299 
304.110748 0.035763 
304.42807 0.024228 
310.081665 0.569754 
311.066376 0.486258 
312.063416 0.033807 
320.102173 0.170076 
322.08194 3.318942 
322.116852 0.126098 
323.086212 0.024975 
324.098389 0.020455 
328.052948 0.027405 
328.09256 0.380618 
329.07608 0.944963 
329.09848 0.029259 
332.102417 0.463624 
333.110107 0.025452 
335.642181 0.031376 
336.095764 0.063732 
337.081299 0.080711 
337.104126 0.383421 
338.076141 0.147248 
338.20755 0.038118 
339.084106 0.171499 
340.053589 0.039243 
340.09198 1.168525 
345.110138 0.035712 
348.097076 16.411676 
348.667053 0.031021 
349.103027 4.778034 
350.113129 5.755681 
351.116852 0.259264 
354.237762 0.239831 
356.613281 0.035274 
357.097717 0.526609 
358.08197 0.091474 
358.105133 1.266609 
358.194061 0.03146 
359.11264 0.435359 
360.09668 0.027477 
360.133545 2.803685 
361.134491 0.041806 
362.112732 0.163383 
364.12735 0.132917 
365.124542 0.125668 
366.107635 26.358309 
367.111176 3.786313 
367.530792 0.030046 
368.123291 0.674504 
370.118134 0.359019 
371.116241 0.30034 
372.120789 16.557898 
373.124084 2.802265 
375.108307 0.555905 
375.143219 0.108427 
376.092072 4.50009 
376.115814 1.508574 
377.09613 0.275273 
377.122833 1.266906 
378.107178 1.306368 
380.122437 0.041649 
382.419922 0.038241 
382.887634 0.038069 
384.116333 0.047346 
384.613739 0.029729 
385.128632 0.592633 
385.6698 0.039966 
386.136078 3.916397 
387.144165 28.622931 
388.148346 4.682308 
391.138824 0.049971 
392.970581 0.040947 
393.118256 1.18371 
394.102753 100.0 
394.561005 0.040969 
395.105774 15.771932 
396.043793 0.028109 
396.078552 0.03641 
396.107971 0.476876 
396.820251 0.019944 
401.160126 1.01215 
403.108459 0.392234 
403.139465 4.873836 
403.169617 0.150439 
404.111084 3.066262 
404.14032 0.623845 
405.118164 6.091505 
405.152008 0.68721 
406.122101 0.566082 
407.797638 0.035314 
408.119507 0.135568 
409.6698 0.034014 
415.140778 0.435431 
416.11972 0.117182 
417.151154 0.040818 
419.136414 0.05173 
419.170258 1.107928 
420.180481 0.066944 
421.149689 2.194625 
422.153717 0.108068 
429.154724 1.830008 
430.156464 0.079346 
431.134064 39.821266 
432.137604 8.378663 
433.115814 0.279299 
433.148773 2.118827 
434.154999 0.062722 
434.851898 0.042529 
443.131744 0.03267 
445.148956 0.394705 
446.095001 0.023403 
447.132782 0.124454 
447.164978 3.663682 
448.097382 0.042556 
448.167694 0.363043 
449.144745 6.621928 
450.147675 1.198059 
457.15564 0.038525 
457.860901 0.04219 
458.146027 0.167366 
458.181091 0.057221 
459.128845 50.24287 
460.132355 9.69968 
461.137299 0.162867 
465.176025 2.107523 
466.182312 0.082504 
470.43866 0.037435 
471.00592 0.033133 
475.158875 0.265071 
476.192078 0.460551 
477.140259 1.107413 
486.176788 0.156111 
502.207214 1.985439 
503.212738 0.099199 
504.183655 0.040755 
512.192749 0.657908 
514.207458 0.030884 
516.184143 0.04379 
516.444519 0.039494 
520.218262 0.448709 
530.202576 12.933884 
531.206116 3.197076 
533.199402 0.023928 
547.825684 0.037325 
548.209839 0.037614 
558.194336 0.099309 
575.828247 0.041422 
588.367737 0.038093 
601.274292 0.085015 
613.601929 0.021346 
646.398621 0.040028 
658.738342 0.040098 
662.230286 0.047852 
671.307434 0.033205 
688.331055 0.025878 
690.041809 0.028637 
708.969177 0.058965 
709.012207 0.034464 
709.337402 0.063728 
709.538879 0.107218 
711.267761 0.032693 
740.121826 0.041349 
749.431946 0.024612 
760.348206 0.037665 
767.057007 0.025227 
773.597778 0.033849 
776.275391 0.024349 
809.544128 0.024479 
839.957581 0.038445 
845.588989 0.035221 
856.4505 0.025363 
874.432922 0.038932 
934.807739 0.037498 
987.581055 0.026361 
1052.708618 0.037533 
1055.800049 0.04126 
1058.674805 0.047624 
1059.706665 0.02647 
1077.11792 0.037606 
1088.111572 0.029487 
1089.889038 0.037174 
1116.88501 0.034347 
1121.645996 0.04177 
1132.285522 0.02558 
1198.58313 0.036802 
END IONS

