BEGIN IONS
PEPMASS=403.035
CHARGE=1+
COMPOUNDNAME=(4R,6S,8S,9Z,11E)-16-chloro-17,19-dihydroxy-4-methyl-3,7-dioxatricyclo[13.4.0.0?,?]nonadeca-1(15),9,11,16,18-pentaene-2,13-dione
LIBRARYQUALITY=3
SMILES=N/A
INCHIKEY=WYZWZEOGROVVHK-RPJJWQTDSA-N
INCHI=InChI=1S/C18H17ClO6/c1-9-6-15-14(25-15)5-3-2-4-10(20)7-11-16(18(23)24-9)12(21)8-13(22)17(11)19/h2-5,8-9,14-15,21-22H,6-7H2,1H3/b4-2+,5-3-/t9-,14+,15+/m1/s1
MSLEVEL=2
SOURCE_INSTRUMENT=N/A-ESI-QFT
FILENAME=library_mgf.mgf
SEQ=*..*
IONMODE=positive
ORGANISM=MONA
NAME=(4R,6S,8S,9Z,11E)-16-chloro-17,19-dihydroxy-4-methyl-3,7-dioxatricyclo[13.4.0.0?,?]nonadeca-1(15),9,11,16,18-pentaene-2,13-dione [M+K]+
PI=MoNA
DATACOLLECTOR=MoNA:VF-NPL-QEHF022111
PUBMED=N/A
SUBMITUSER=mwang87
TAGS=
SPECTRUMID=CCMSLIB00004713174
SCANS=22111
52.51981 0.035761 
52.737926 0.033664 
53.038799 0.180002 
55.018143 0.086647 
55.054455 1.667951 
55.799667 0.059037 
56.049763 0.27242 
57.033764 0.188077 
57.070099 1.59577 
58.065353 0.107282 
58.568268 0.061964 
59.049278 0.153308 
60.044373 0.035396 
61.01078 1.686464 
64.179939 0.054986 
65.038673 0.033935 
67.054352 4.11588 
67.250458 0.025573 
68.049553 3.941864 
68.057587 0.070035 
68.900528 0.036715 
68.984543 0.063696 
68.997047 0.036696 
69.033577 7.595002 
69.052658 0.06314 
69.069878 0.739518 
70.036797 0.130661 
70.065071 0.293247 
71.049187 6.484367 
71.08548 0.580864 
72.04435 0.617172 
72.387154 0.044139 
72.7742 0.07185 
74.08873 0.06115 
77.099243 0.043105 
79.021103 0.859505 
79.054176 1.777206 
80.049324 0.460338 
81.033394 0.990157 
81.057121 0.04443 
81.069893 3.226797 
82.06501 0.269386 
82.073181 0.053759 
83.049095 1.721627 
83.085381 0.560731 
84.044304 0.320457 
84.080673 0.137268 
84.343414 0.040418 
85.028038 0.027931 
85.039391 0.08707 
85.064697 0.181448 
85.101051 0.052833 
86.059975 1.829546 
86.096275 0.101268 
87.043938 0.790347 
87.838081 0.043091 
88.952965 0.065311 
89.059662 1.185319 
89.653053 0.065208 
90.947777 0.027023 
91.054199 3.65792 
91.253151 0.060272 
92.057404 0.16658 
93.022842 0.029133 
93.031029 0.582447 
93.069893 6.866951 
93.275558 0.05323 
93.3246 0.064214 
93.430618 0.058975 
93.796867 0.068541 
94.065117 7.822272 
94.073036 0.633744 
94.076065 0.10156 
95.049118 8.292414 
95.068336 0.761623 
95.071472 0.157841 
95.085426 1.905503 
96.044357 4.033342 
96.052284 0.310586 
96.055527 0.036844 
96.080673 0.409452 
96.088837 0.048169 
96.855133 0.062967 
97.028343 0.92272 
97.047653 0.283484 
97.064804 2.270456 
97.101273 0.056389 
98.008186 0.058293 
98.068039 0.03881 
99.044106 0.057544 
100.680908 0.043799 
101.059708 2.095342 
101.168304 0.060916 
102.063148 0.052538 
102.301277 0.043048 
103.038902 0.036238 
103.054031 0.350685 
103.151703 0.0505 
104.354599 0.044159 
105.044876 0.11315 
105.069878 0.444295 
106.065308 0.053966 
106.497955 0.053459 
107.049156 0.133163 
107.085388 0.366361 
107.487289 0.026207 
108.080757 0.082393 
109.064644 1.214906 
109.101128 0.396659 
109.931686 0.05787 
110.060036 0.285843 
110.096428 4.51905 
110.429207 0.042479 
111.041664 0.693037 
111.080292 1.197222 
111.099609 0.420675 
112.075562 1.069611 
113.059959 0.115587 
113.653084 0.027919 
114.055038 2.300558 
115.057961 0.038653 
115.575035 0.039001 
117.003029 0.028371 
117.06971 0.073037 
117.496605 0.057384 
117.500702 0.073226 
118.013634 0.063141 
119.049522 0.038169 
119.085411 1.075889 
120.044289 0.626458 
120.080811 14.240354 
120.102264 0.071474 
121.028656 0.059333 
121.064812 6.774681 
121.084328 2.128092 
121.088493 1.94001 
121.101074 0.054971 
121.621468 0.071675 
122.068047 0.796687 
122.091774 0.100366 
122.375542 0.054341 
122.779907 0.05732 
123.116852 0.104588 
125.059517 0.092102 
125.968651 0.065999 
127.622337 0.058214 
129.018204 2.910835 
129.054352 0.075888 
129.121277 0.039673 
130.021561 0.025997 
132.808945 0.030056 
133.085876 0.118315 
134.096069 0.143442 
134.955963 0.414212 
135.080231 0.321354 
135.116638 0.036288 
136.07605 0.046957 
136.112045 1.481173 
136.784805 0.068159 
137.059708 0.068305 
137.095901 0.043019 
137.115387 0.056845 
138.091339 7.005799 
139.002487 0.329038 
139.038925 7.320194 
139.044815 0.040676 
139.075241 1.494761 
139.094452 0.79917 
140.98262 0.024634 
141.054398 0.280627 
142.587555 0.060501 
144.506042 0.04575 
145.065018 0.076465 
146.974304 0.081807 
147.044174 0.048646 
147.673065 0.05768 
148.971985 0.118155 
149.059952 0.06646 
150.054901 0.653742 
150.951035 1.504359 
151.038757 0.035141 
151.058182 0.119884 
151.075119 0.038241 
151.90686 0.055799 
152.951431 0.077245 
152.966614 0.08727 
153.05452 1.248639 
153.061295 0.023143 
154.12265 0.220962 
156.101654 1.271232 
156.388138 0.051429 
156.627686 0.048602 
157.004822 1.470056 
157.012863 0.587283 
159.001984 1.289874 
160.989883 0.207477 
161.058273 0.703413 
161.565796 0.058059 
161.989975 0.024752 
162.054718 0.195039 
162.090927 0.235842 
163.039108 0.047427 
163.075745 0.039549 
165.05423 0.233 
167.069748 0.031982 
168.961685 0.254729 
170.657593 0.041421 
171.065094 0.122613 
172.989594 0.032352 
174.989517 0.0876 
175.038422 0.041321 
177.053955 0.092259 
177.090775 0.028734 
179.068268 0.5432 
181.005402 0.027181 
181.049316 1.193844 
183.065445 0.035855 
183.091766 2.731403 
185.04425 0.065514 
185.059525 0.047355 
185.080673 0.91154 
185.750351 0.050295 
186.927612 0.163427 
186.997177 0.036656 
187.401581 0.074515 
188.924698 0.079351 
189.005554 0.270704 
189.054565 4.377232 
190.966263 0.042844 
191.000565 0.431337 
191.696274 0.041453 
191.964218 0.104614 
192.041351 0.13973 
192.157974 0.050084 
192.961594 4.337761 
193.049316 0.724741 
194.961975 0.17444 
194.999222 0.032664 
195.065628 0.150187 
196.042603 1.973495 
196.097153 0.228111 
196.99968 0.582784 
197.017715 0.164437 
197.047226 0.133388 
198.00412 0.146622 
198.979218 0.33638 
198.996979 1.019855 
199.015518 0.498019 
199.025436 0.148062 
200.01976 0.172323 
200.976517 0.246115 
200.99501 3.407013 
201.01239 2.531183 
201.998352 0.90452 
202.017517 0.06658 
202.991837 5.10074 
203.996048 0.164449 
204.043411 0.040865 
204.077499 0.028593 
205.049438 0.595445 
206.058243 0.034523 
207.065323 5.521349 
208.03688 0.045067 
208.068558 0.416918 
209.000214 0.029875 
209.019653 0.04439 
209.975571 0.049685 
210.004822 0.068041 
210.971359 0.332968 
210.980087 4.834105 
210.996658 0.205982 
211.01503 0.117242 
211.075058 0.056326 
211.982819 2.090369 
212.976196 9.172821 
212.994171 0.052126 
213.014618 1.433352 
213.054916 0.119832 
213.888275 0.144545 
213.90007 2.219867 
213.908447 0.934917 
213.916794 0.410626 
213.979752 0.638757 
214.007874 0.813766 
214.061783 0.037122 
214.991592 0.116848 
215.068024 0.033224 
216.053528 0.04293 
217.04921 0.198972 
219.065216 62.64307 
220.068573 14.326066 
221.070435 1.766657 
222.005615 0.097461 
222.112457 1.132846 
222.898682 0.125732 
223.013596 0.914562 
223.060043 10.096931 
223.072739 0.096453 
223.09639 0.028094 
224.995148 0.404554 
225.012512 0.493164 
225.999283 0.256145 
226.991852 1.918351 
227.010483 4.249528 
227.055634 0.075183 
227.996246 0.111325 
228.013962 4.358374 
228.989792 0.631933 
229.007401 16.867937 
229.048874 0.046345 
229.895569 0.044666 
229.992355 0.073565 
230.011581 2.25868 
230.039169 0.066318 
230.986664 1.989709 
233.043961 0.127743 
233.89183 0.105157 
235.060059 4.93783 
235.074173 0.060383 
235.09642 0.18631 
237.031311 0.106904 
239.010391 0.354577 
239.027679 0.11484 
240.01178 0.133302 
240.909302 0.106353 
241.007004 2.106567 
241.047028 5.220651 
241.883362 0.105322 
242.012177 0.036782 
242.050858 0.745027 
242.9095 0.043457 
243.065567 0.152947 
245.051193 0.030799 
246.899658 0.243469 
246.976868 2.878054 
247.096329 0.334849 
247.908127 0.029221 
247.984848 0.198803 
248.992371 9.85366 
249.031128 0.037601 
249.906464 0.094935 
250.035049 0.035515 
250.992676 0.066119 
251.008987 0.400298 
251.028564 0.475435 
251.119171 0.107985 
251.902573 0.374676 
253.007599 1.270462 
253.04332 0.301464 
253.107101 0.682575 
254.021561 4.467437 
255.025513 8.592309 
256.018158 28.322683 
257.022552 4.442654 
257.081451 0.114374 
258.026703 0.104975 
259.895203 0.060385 
261.075439 0.392826 
262.382599 0.076238 
263.028564 0.099017 
263.901276 0.330891 
264.124725 0.069136 
264.893646 0.072977 
264.909058 5.00968 
264.991302 0.158189 
265.007202 0.5353 
265.02536 0.03683 
265.106537 0.675077 
265.911438 0.251047 
265.994568 0.241896 
266.02948 0.132995 
266.909698 2.041869 
266.986877 0.902504 
267.003571 0.477793 
267.023193 1.62142 
267.039062 0.025214 
267.990356 0.621474 
268.905426 0.08958 
270.901276 0.02968 
273.046021 0.687322 
273.076385 0.07739 
274.036469 0.115924 
274.050385 0.035683 
274.999451 0.24434 
275.042755 0.237381 
277.026245 1.024094 
277.04364 0.370561 
277.070831 0.567855 
278.030609 1.049775 
278.995209 0.058773 
279.022827 3.624816 
279.039215 0.139169 
279.897552 0.049147 
280.028259 0.442518 
280.043945 0.042197 
281.038818 0.966676 
281.080963 0.039618 
281.667084 0.050092 
281.895599 0.128999 
281.911682 4.233773 
282.25174 0.081918 
282.902161 0.240908 
282.919617 3.661322 
283.26297 57.071854 
283.893402 0.307174 
283.911987 0.171445 
284.05722 0.044071 
284.266388 11.685661 
284.282715 0.108639 
284.903015 0.203525 
284.920197 2.380003 
285.075989 0.050664 
285.26947 0.782522 
287.010834 0.071834 
288.914795 0.032164 
290.9953 0.31595 
292.000488 0.065988 
293.010315 0.112091 
293.895172 0.048859 
294.997955 0.967857 
295.056824 0.46564 
297.005859 0.114872 
297.033295 0.050114 
298.940369 0.821656 
299.970154 0.159167 
300.050201 1.925659 
300.937592 0.059145 
300.977814 0.211559 
302.066315 0.039905 
303.048401 0.104861 
304.037628 0.910653 
305.021576 0.127107 
305.040253 4.84405 
306.033722 11.230653 
307.01825 1.152625 
307.038269 2.581049 
307.098206 0.041429 
307.981628 0.093477 
308.022705 0.043732 
308.039337 0.059718 
309.114807 0.035746 
309.977966 0.038943 
310.91568 0.189267 
311.294342 0.247631 
312.297943 1.707777 
313.06955 0.165038 
315.087219 0.032161 
315.123535 0.046581 
315.954895 0.372546 
316.951111 0.64815 
317.01828 0.054411 
318.94696 0.144309 
319.03476 1.184879 
321.071838 0.406338 
321.151184 0.612568 
322.065155 0.7072 
322.155518 0.067121 
323.049561 0.307447 
323.0896 0.309897 
323.129456 0.119114 
323.167114 0.811232 
323.226013 0.486795 
325.10498 1.531443 
325.146057 0.174296 
330.069183 0.099928 
331.054352 0.219026 
331.078674 0.159992 
339.122833 0.038524 
341.102997 0.11641 
341.141022 0.043753 
341.177032 0.88924 
341.236145 4.076669 
341.915741 0.732803 
342.239899 0.77472 
343.071808 0.083564 
343.15686 1.102257 
343.193115 0.654527 
344.119568 0.068318 
345.012695 0.070929 
347.087738 0.500552 
348.056854 0.042232 
348.080841 2.390966 
348.952484 0.052128 
349.064819 0.066751 
349.08667 0.157064 
350.994446 0.960487 
357.130676 0.233967 
357.947876 0.037096 
358.943604 0.192919 
359.029449 5.582737 
359.247131 1.319928 
360.032959 0.950224 
360.250122 0.19989 
361.027374 0.943064 
361.081268 44.837135 
361.203247 0.102653 
363.024139 1.574299 
366.091797 0.324144 
368.11319 0.561326 
369.00589 0.150803 
369.050201 1.866015 
369.093292 0.425076 
369.116486 0.800926 
370.117645 0.063787 
371.108978 0.065572 
371.202637 0.082081 
372.170471 0.523582 
383.11026 0.065844 
385.043854 0.09676 
385.126495 0.054478 
387.060547 11.526672 
397.792389 0.072919 
400.987122 0.041218 
401.039276 2.742323 
401.121735 0.059978 
401.213715 0.968857 
401.249817 0.160956 
401.286224 1.524968 
401.987823 0.162207 
402.043976 2.072026 
402.123688 0.184741 
402.181122 0.285265 
402.216309 0.112713 
402.261749 0.584796 
402.291321 0.126259 
402.358185 0.637156 
403.055756 74.400253 
403.136414 0.083622 
403.196808 0.491798 
403.230988 1.332606 
403.266479 0.391937 
403.293457 0.200406 
403.363251 0.062747 
404.059387 16.639891 
404.196716 19.43313 
404.228546 0.730683 
404.271179 0.141109 
405.072296 100.0 
405.17749 9.366816 
405.261078 7.73863 
408.931488 0.05518 
411.527344 0.0672 
418.997864 0.048617 
419.998932 0.461367 
420.994446 0.642576 
421.03653 0.173638 
END IONS

