BEGIN IONS
PEPMASS=321.005
CHARGE=1+
COMPOUNDNAME=MoNA:642852 2,2-bis(chloranyl)-N-[(1R,2R)-1-(4-nitrophenyl)-1,3-bis(oxidanyl)propan-2-yl]ethanamide
LIBRARYQUALITY=3
SMILES=N/A
INCHIKEY=WIIZWVCIJKGZOK-RKDXNWHRSA-N
INCHI=InChI=1S/C11H12Cl2N2O5/c12-10(13)11(18)14-8(5-16)9(17)6-1-3-7(4-2-6)15(19)20/h1-4,8-10,16-17H,5H2,(H,14,18)/t8-,9-/m1/s1
MSLEVEL=2
SOURCE_INSTRUMENT=LC-ESI-QFT-LC-ESI-QFT
FILENAME=output_mgf.mgf
SEQ=*..*
IONMODE=
ORGANISM=MONA
NAME=MoNA:642852 2,2-bis(chloranyl)-N-[(1R,2R)-1-(4-nitrophenyl)-1,3-bis(oxidanyl)propan-2-yl]ethanamide [M-H]-
PI=MoNA
DATACOLLECTOR=MoNA
PUBMED=N/A
SUBMITUSER=mwang87
TAGS=
SPECTRUMID=CCMSLIB00000572720
SCANS=9971
61.9883 0.210139 
70.9461 0.99564 
71.0139 0.508878 
78.0349 12.029334 
79.019 0.282306 
82.9461 9.681733 
84.0092 3.464277 
86.0249 0.475322 
92.0267 0.409617 
93.0348 0.27672 
98.0248 0.646543 
105.0221 1.041853 
106.0299 1.254613 
117.0348 0.65346 
118.0426 1.510072 
121.0296 70.81322 
122.0249 3.210785 
123.0325 0.868955 
124.0402 0.862299 
125.9518 0.997211 
126.936 3.645896 
135.0327 1.879501 
136.0405 1.336695 
146.0374 1.443292 
148.0405 9.479406 
150.0197 1.196115 
151.0275 58.821242 
152.0353 100.0 
153.0544 0.23063 
159.0326 3.328618 
161.0357 1.267702 
162.0197 1.556132 
164.0354 0.473707 
166.0145 0.431481 
175.0508 0.296946 
176.0352 6.07254 
179.0462 2.467413 
192.03 0.224615 
194.0459 0.380485 
219.0413 0.247904 
END IONS

