BEGIN IONS
PEPMASS=329.0
CHARGE=1+
COMPOUNDNAME=MoNA:2582585 Gibberellin A7
LIBRARYQUALITY=3
SMILES=N/A
INCHIKEY=SEEGHKWOBVVBTQ-NFMPGMCNSA-N
INCHI=InChI=1S/C19H22O5/c1-9-7-18-8-10(9)3-4-11(18)19-6-5-12(20)17(2,16(23)24-19)14(19)13(18)15(21)22/h5-6,10-14,20H,1,3-4,7-8H2,2H3,(H,21,22)/t10-,11-,12+,13-,14-,17-,18+,19-/m1/s1
MSLEVEL=2
SOURCE_INSTRUMENT=LC-ESI-QQ-LC-ESI-QQ
FILENAME=output_mgf.mgf
SEQ=*..*
IONMODE=
ORGANISM=MONA
NAME=MoNA:2582585 Gibberellin A7 [M-H]-
PI=MoNA
DATACOLLECTOR=MoNA
PUBMED=N/A
SUBMITUSER=mwang87
TAGS=
SPECTRUMID=CCMSLIB00000574440
SCANS=11691
72.944 0.984897 
171.366 1.29956 
184.767 5.363636 
185.38 1.608504 
196.265 1.05176 
197.222 1.212903 
210.439 1.743402 
211.079 19.57478 
211.605 1.465689 
222.432 2.117302 
223.053 100.0 
223.589 2.624633 
239.5 2.104106 
240.729 3.576246 
241.432 1.68915 
248.824 1.587977 
254.441 1.037537 
255.372 5.315249 
257.464 1.068915 
266.559 3.366569 
267.368 3.233138 
284.958 2.846041 
311.321 1.292082 
328.67 3.793255 
329.303 6.43695 
END IONS

