BEGIN IONS
PEPMASS=291.123
CHARGE=1+
COMPOUNDNAME=dehydrocurvularin
LIBRARYQUALITY=3
SMILES=N/A
INCHIKEY=AVIRMQMUBGNCKS-GQCTYLIASA-N
INCHI=InChI=1S/C16H18O5/c1-10-5-3-2-4-6-13(18)16-11(8-15(20)21-10)7-12(17)9-14(16)19/h4,6-7,9-10,17,19H,2-3,5,8H2,1H3/b6-4+
MSLEVEL=2
SOURCE_INSTRUMENT=N/A-ESI-QFT
FILENAME=library_mgf.mgf
SEQ=*..*
IONMODE=positive
ORGANISM=MONA
NAME=dehydrocurvularin [M+H]+
PI=MoNA
DATACOLLECTOR=MoNA:VF-NPL-QEHF016205
PUBMED=N/A
SUBMITUSER=mwang87
TAGS=
SPECTRUMID=CCMSLIB00004707268
SCANS=16205
50.225899 0.011148 
50.315834 0.01123 
50.506283 0.00592 
50.569935 0.022679 
50.762402 0.005357 
51.023422 0.01195 
51.327316 0.022848 
51.548286 0.027 
51.552876 0.007448 
51.643608 0.024312 
52.312649 0.00563 
52.533787 0.006429 
52.535397 0.041406 
52.566463 0.007738 
52.733665 0.040235 
52.753162 0.039445 
53.03896 3.456797 
53.075966 0.017766 
53.197048 0.006661 
53.302483 0.011342 
53.518692 0.007399 
53.631107 0.036822 
53.707928 0.005871 
53.760391 0.051167 
53.86657 0.006464 
53.937691 0.007219 
54.144821 0.010581 
54.243782 0.006817 
54.349976 0.037271 
54.351471 0.044009 
54.392139 0.006011 
55.018188 3.146073 
55.053078 0.036553 
55.054562 15.587938 
55.056053 0.057592 
55.478596 0.008132 
55.58149 0.017599 
55.68639 0.008257 
55.934647 0.007317 
56.057945 0.159603 
56.227551 0.037142 
56.22916 0.015385 
56.303017 0.032265 
56.649647 0.007264 
56.965099 3.756538 
57.033829 1.837811 
57.070187 2.628746 
57.297695 0.00643 
57.362312 0.041191 
57.399441 0.007581 
57.935001 0.008077 
58.576923 0.03596 
58.980038 0.006013 
59.241287 0.023119 
59.535439 0.022506 
59.653328 0.03923 
60.247719 0.005976 
60.948994 0.04783 
61.010918 2.592727 
61.76836 0.009132 
62.476582 0.011832 
62.792294 0.038271 
62.91029 0.014241 
62.995678 0.03295 
63.377857 0.018378 
63.537189 0.006568 
63.561657 0.007726 
63.63324 0.01208 
63.762127 0.033062 
64.505363 0.011103 
64.916893 0.009864 
64.928757 0.006018 
64.956291 0.00877 
65.038826 0.218048 
65.05571 0.03995 
65.203415 0.011795 
65.35807 0.006713 
65.70623 0.03899 
65.798965 0.006066 
65.895958 0.018852 
66.96537 0.016202 
67.054398 13.589797 
67.289307 0.033913 
67.923401 0.030092 
68.057716 0.228497 
68.094627 0.011203 
68.350166 0.005982 
68.472649 0.020627 
68.931206 0.037703 
68.997375 0.008834 
69.008621 0.042102 
69.033684 0.007646 
69.069984 2.829645 
69.071976 0.030379 
70.065208 0.145609 
70.119247 0.006341 
70.37056 0.0477 
71.012901 0.044835 
71.049286 0.383185 
71.085579 0.856649 
71.208611 0.044218 
71.410103 0.008163 
71.697495 0.022299 
71.958725 0.007383 
72.124451 0.019228 
72.244545 0.012819 
72.728966 0.005528 
72.937172 0.024486 
73.811798 0.006545 
74.025764 0.010464 
74.438713 0.049989 
74.596069 0.006031 
74.975433 0.196738 
75.520515 0.010592 
75.54068 0.005992 
75.98143 0.036157 
76.103256 0.046376 
76.224632 0.008428 
76.371666 0.010667 
76.427864 0.016416 
76.93779 0.017895 
77.223854 0.028416 
77.359818 0.028834 
77.610329 0.005729 
77.883507 0.02255 
78.105713 0.034455 
78.782394 0.012181 
79.021255 1.085626 
79.054291 16.314392 
80.05761 0.409559 
80.237915 0.041365 
81.033585 6.985166 
81.069939 100.0 
81.612511 0.043364 
82.037109 0.015422 
82.073273 5.945101 
82.781731 0.006684 
83.049171 1.719632 
83.071594 0.043566 
83.859726 0.040487 
85.059067 0.031841 
85.064804 0.625272 
85.101234 0.119767 
85.953941 0.038529 
86.096474 0.052191 
86.132324 0.013906 
86.871002 0.027913 
87.000671 0.012618 
87.282349 0.027909 
87.581284 0.019775 
88.075768 0.55868 
88.222816 0.00817 
88.481911 0.035133 
88.531624 0.013125 
88.732574 0.008779 
88.831093 0.010033 
88.879585 0.04101 
89.059769 0.911959 
89.319466 0.024603 
89.87764 0.006633 
90.218163 0.044316 
90.290459 0.026199 
90.377831 0.045871 
90.948151 0.006715 
91.054314 0.6296 
91.865448 0.006312 
92.869911 0.018811 
93.069954 4.198255 
93.134117 0.008562 
94.07325 0.097459 
94.276764 0.006686 
94.80925 0.016414 
95.049156 3.885911 
95.085571 40.271183 
95.108871 0.039847 
95.566078 0.02452 
95.584167 0.045118 
96.016121 0.024193 
96.088882 2.742181 
96.091942 0.084176 
96.395058 0.00835 
96.575508 0.013999 
97.064865 1.282034 
97.101212 0.312665 
98.883904 0.006783 
98.975464 0.06729 
99.080513 10.518714 
99.332626 0.04469 
99.339859 0.053712 
99.573868 0.008156 
100.083778 0.157964 
100.531036 0.023058 
101.003807 0.0466 
101.059547 0.050279 
101.514549 0.031449 
101.941429 0.007543 
103.054283 0.201038 
103.063362 0.037395 
103.408714 0.009063 
103.97496 0.014364 
105.069939 5.686854 
105.48999 0.032956 
106.073265 0.115028 
106.086296 0.322327 
106.394241 0.043676 
106.731949 0.008115 
107.049255 0.948975 
107.08564 0.064975 
107.408371 0.006594 
108.132629 0.00722 
108.569374 0.045895 
109.064857 1.340692 
110.185913 0.025611 
110.793274 0.006165 
110.981911 0.045518 
111.014053 0.030317 
111.044113 1.56228 
111.553558 0.006793 
111.832977 0.007981 
112.711891 0.027436 
112.895256 0.006415 
113.942413 0.046545 
114.62484 0.006391 
115.433044 0.017841 
116.405945 0.028614 
116.985977 0.062278 
117.070076 0.083314 
118.062592 0.007661 
118.999008 0.006752 
119.085464 0.05062 
119.955345 0.007752 
120.905777 0.006891 
120.94088 0.049262 
121.028404 1.289343 
121.064827 0.620146 
122.221558 0.038056 
122.673492 0.012302 
122.824265 0.009589 
123.044106 20.720949 
123.049026 0.085885 
123.080498 8.675605 
123.264923 0.027445 
124.006554 0.058352 
124.047493 0.954657 
124.0839 0.111979 
124.600136 0.020993 
124.725868 0.012822 
125.059685 0.258221 
125.768448 0.02723 
126.150902 0.025422 
126.25222 0.018082 
126.735725 0.029466 
127.32444 0.006899 
127.472694 0.00646 
127.769821 0.017078 
129.069931 0.011237 
130.806244 0.020004 
131.030518 0.038535 
131.049225 0.219155 
131.085617 0.23345 
132.087967 0.036442 
133.064774 0.186833 
133.088318 0.05074 
133.720779 0.009181 
134.482025 0.009687 
134.522552 0.031143 
134.942398 6.602202 
134.978729 39.016403 
135.044037 1.20283 
135.080109 0.039136 
135.329453 0.022529 
136.593994 0.007656 
136.668518 0.013691 
136.787231 0.00683 
136.921722 0.084297 
137.012024 0.029503 
137.022552 0.007201 
137.05986 0.995935 
137.928711 0.006551 
138.783249 0.038247 
139.039246 0.0558 
139.204895 0.037556 
139.978745 0.010034 
140.074066 0.013242 
140.079727 0.007115 
140.194397 0.006393 
141.069778 0.018667 
141.330399 0.035477 
141.629379 0.010471 
141.816208 0.018349 
142.040344 0.021303 
143.930374 0.030374 
143.967575 0.045127 
145.064774 0.331701 
145.101013 0.037505 
145.879333 0.007109 
146.580948 0.032361 
146.974411 0.229513 
147.044189 3.940863 
147.080627 0.022284 
147.304855 0.038641 
147.974915 3.29262 
148.052017 0.098496 
148.971954 10.051279 
149.02359 0.272201 
149.059875 4.941996 
149.09816 0.019232 
149.871338 0.008148 
149.953949 0.041721 
149.969879 0.02839 
150.062744 0.097479 
150.951111 0.757002 
150.972549 0.134088 
151.039062 9.417025 
151.04541 0.008146 
152.042603 0.017953 
152.952942 22.448568 
152.989349 26.56389 
153.054672 1.857769 
153.959427 4.405177 
154.932236 1.457013 
154.948517 0.144541 
155.086624 0.037675 
155.746246 0.006774 
156.0242 0.00751 
157.064819 0.074022 
157.101395 0.227794 
157.195221 0.039583 
157.772644 0.008846 
157.931229 0.039398 
158.41745 0.038273 
158.475174 0.034144 
158.57135 0.040181 
159.006638 0.009751 
159.044601 0.048343 
159.080719 0.212617 
159.318176 0.016746 
159.60466 0.008069 
160.051956 0.18326 
161.05983 10.486175 
161.250015 0.044739 
162.06311 0.443125 
162.781128 0.00584 
162.809616 0.034792 
163.039062 5.05639 
163.075394 1.788142 
163.091568 0.011816 
164.04184 0.072313 
164.590317 0.028813 
164.740036 0.027402 
165.054779 5.181202 
165.874298 0.00737 
166.058105 0.087401 
166.077896 0.008425 
166.928802 0.03364 
166.982483 1.818131 
167.033936 96.770607 
168.037247 7.952721 
168.188934 0.011451 
168.312271 0.007151 
168.961639 0.051159 
168.982849 1.649799 
169.038605 0.311725 
169.049561 0.459233 
170.143753 0.042594 
170.533005 0.035214 
170.963547 49.759254 
170.999802 2.3709 
171.080353 0.066114 
171.966965 0.050879 
172.942886 2.94478 
172.959412 1.252825 
173.05983 1.511549 
174.030853 0.022607 
175.014862 0.01131 
175.039139 2.134954 
175.075363 3.337904 
175.111053 0.047854 
175.658005 0.007045 
176.047165 0.304754 
177.018341 2.555436 
177.054657 24.692495 
177.464539 0.006501 
178.058151 2.367594 
179.033997 3.154722 
179.070511 0.00794 
179.847717 0.040706 
181.049667 4.389724 
181.064407 0.098653 
181.101151 0.134786 
182.523193 0.006645 
182.943344 0.039971 
184.026886 0.00614 
185.05986 1.786181 
185.09613 0.27987 
185.435745 0.042752 
185.94928 0.842834 
186.719345 0.030574 
187.075455 3.106382 
187.978973 0.050514 
188.974091 26.336323 
189.054642 21.061132 
189.091125 0.150644 
189.977127 0.007111 
190.05838 1.712688 
190.953354 1.198951 
190.969727 0.344251 
191.070297 2.319357 
192.031448 0.006605 
193.049622 15.413634 
194.053192 1.353118 
195.0289 5.802827 
195.065018 0.095177 
195.08078 0.050713 
195.319901 0.018739 
195.737595 0.043023 
196.032074 0.020656 
197.059769 0.327141 
197.932709 0.05199 
198.067627 3.601672 
198.50885 0.041414 
198.954407 0.046868 
198.964828 0.044097 
199.075546 3.556022 
199.112106 0.159103 
200.013092 0.008039 
200.078598 0.061382 
200.973907 0.640404 
201.054947 0.155802 
201.091049 1.715565 
203.033875 1.544416 
203.070236 4.77414 
203.106628 3.549789 
203.142807 0.042362 
203.839203 0.014388 
204.074356 0.068983 
204.111465 0.052793 
205.049561 11.402215 
206.053055 0.972816 
206.98468 0.328433 
207.065277 1.278377 
207.511047 0.011314 
207.947815 0.013968 
209.0961 1.048564 
209.891617 0.026498 
210.584167 0.023436 
210.945679 0.007264 
210.953751 0.042714 
211.075424 0.01361 
212.08316 1.733123 
212.93338 0.097798 
212.956421 2.736973 
212.998611 0.006509 
213.054733 0.450018 
213.090942 0.615235 
214.06218 0.049833 
214.099304 0.051231 
214.935364 0.728209 
215.070297 2.009013 
215.316315 0.266512 
215.327881 1.082859 
215.943481 0.250423 
216.073837 0.018421 
217.049591 1.127373 
217.086166 0.063288 
217.12233 0.387496 
218.984467 0.177975 
219.065155 0.591611 
219.1745 2.974424 
219.985413 0.033452 
220.243454 0.007117 
220.416977 0.007767 
220.742065 0.008009 
220.903183 0.010558 
221.044449 1.654659 
222.898819 1.198292 
223.900497 0.133841 
224.878555 0.058519 
224.898682 0.069194 
225.887054 0.013691 
226.062378 0.136462 
226.576874 0.006972 
227.070297 0.071224 
227.10675 4.508543 
227.899872 0.014565 
228.110275 0.209566 
228.196457 0.26891 
229.08609 0.172136 
229.896088 0.503111 
229.971481 0.008007 
230.752167 0.010281 
230.899445 0.013673 
230.908447 0.051839 
230.966888 23.449482 
230.986237 0.007198 
231.065201 2.352282 
231.101761 0.552112 
231.96965 0.219393 
232.946213 8.418035 
232.961121 1.27772 
233.892548 0.084617 
234.620483 0.044342 
234.899231 0.084438 
235.059845 0.050255 
236.899277 0.025949 
237.090759 0.012548 
237.922119 0.028438 
238.234283 0.01444 
238.914108 0.10202 
240.909256 2.524249 
241.885696 0.010176 
241.911255 0.453398 
242.909897 0.768104 
243.322754 0.007652 
243.9077 0.027516 
244.909653 0.45511 
245.117355 8.405048 
246.120911 0.807693 
246.975723 0.066555 
247.096588 0.568427 
247.906647 0.427399 
248.878967 0.012342 
248.977631 9.55541 
248.991791 0.031001 
249.112061 0.117489 
249.926544 0.006095 
250.956757 4.496337 
250.971344 0.314743 
251.907333 0.246739 
253.16684 0.028778 
253.901871 0.049002 
255.101746 1.038734 
255.898499 0.008388 
256.948029 0.018633 
259.142212 0.041027 
260.222473 0.395451 
261.530396 0.010387 
262.423004 0.009134 
265.104675 0.026889 
265.913666 0.009333 
266.889374 0.026998 
266.909943 0.023819 
267.725281 0.048182 
267.776031 0.012115 
268.3638 0.007027 
268.558197 0.012551 
268.66095 0.006807 
268.910065 0.039975 
269.821106 0.182396 
269.918182 0.006438 
270.82724 0.006496 
273.112305 1.704267 
273.2146 0.010655 
276.438599 0.021882 
277.922241 0.011224 
279.89682 0.04492 
281.897217 0.060345 
284.808167 0.091733 
284.920044 0.02153 
285.815948 0.9832 
285.834747 0.138922 
286.823425 0.373805 
287.831482 1.346483 
287.903381 0.0099 
288.275604 0.047792 
288.83902 0.032563 
289.292664 0.227746 
290.283752 0.041392 
291.08725 0.039049 
291.129486 2.629367 
292.133362 0.24307 
292.183899 0.007992 
292.225616 0.007143 
297.574158 0.013285 
297.787384 0.034533 
298.186523 0.040782 
299.816254 0.015518 
300.823456 0.01005 
301.810211 0.326482 
302.818329 1.064816 
303.405029 0.030087 
303.825409 0.019887 
309.26828 0.056169 
310.102783 0.043255 
312.839478 0.277108 
END IONS

