BEGIN IONS
PEPMASS=601.925
CHARGE=2+
COMPOUNDNAME=MLS001333756-01!
LIBRARYQUALITY=1
SMILES=CC[C@@H]1NC(=O)[C@H]([C@H](O)[C@H](C)C/C=C/C)N(C)C(=O)[C@H](C(C)C)N(C)C(=O)[C@H](CC(C)C)N(C)C(=O)[C@H](CC(C)C)N(C)C(=O)[C@@H](C)NC(=O)[C@H](C)NC(=O)[C@H](CC(C)C)N(C)C(=O)[C@@H](NC(=O)[C@H](CC(C)C)N(C)C(=O)CN(C)C1=O)C(C)C
INCHIKEY=PMATZTZNYRCHOR-CGLBZJNRSA-N
INCHI=N/A
MSLEVEL=2
SOURCE_INSTRUMENT=LC-ESI-qTof
FILENAME=p3-G03_GG3_01_18296.mzXML
SEQ=*..*
IONMODE=Positive
ORGANISM=GNPS-NIH-SMALLMOLECULEPHARMACOLOGICALLYACTIVE
NAME=MLS001333756-01! M+2H
PI=Dorrestein
DATACOLLECTOR=VP/LMS
PUBMED=N/A
SUBMITUSER=vphelan
TAGS=
SPECTRUMID=CCMSLIB00000085221
SCANS=2731
45.656273 164.0 
48.145187 100.0 
48.899448 212.0 
49.985527 160.0 
51.586964 160.0 
54.557869 92.0 
55.375408 64.0 
55.465801 164.0 
55.917366 128.0 
56.270679 120.0 
57.740425 176.0 
58.433701 188.0 
59.040844 100.0 
59.365528 64.0 
59.817272 184.0 
59.915836 116.0 
60.034531 180.0 
60.473328 152.0 
61.016296 72.0 
61.204571 160.0 
61.549194 92.0 
63.788197 240.0 
64.564743 108.0 
65.040627 156.0 
65.156258 100.0 
65.481209 216.0 
65.98632 72.0 
66.418739 152.0 
66.507988 116.0 
66.569687 48.0 
67.340057 156.0 
67.939201 112.0 
69.865646 192.0 
70.078766 228.0 
70.862419 168.0 
72.802399 136.0 
73.217384 224.0 
76.795837 144.0 
76.963379 180.0 
77.772079 228.0 
79.235992 220.0 
80.254471 124.0 
80.423958 192.0 
82.806488 112.0 
84.955727 216.0 
85.271576 84.0 
85.488602 172.0 
88.932785 72.0 
89.214569 152.0 
89.22773 156.0 
90.916519 176.0 
92.337845 248.0 
93.515953 192.0 
94.113594 200.0 
95.124252 256.0 
96.077873 168.0 
96.744316 112.0 
97.631241 156.0 
100.038475 880.0 
100.071747 212.0 
100.110214 2972.0 
100.311913 76.0 
100.945274 36.0 
101.039291 120.0 
101.113914 292.0 
101.233452 80.0 
101.441841 76.0 
101.471909 156.0 
101.680542 40.0 
105.064072 152.0 
105.609505 40.0 
106.226097 136.0 
107.087395 172.0 
108.063873 60.0 
108.382751 148.0 
109.103912 244.0 
109.967499 160.0 
110.090683 180.0 
110.2202 108.0 
110.527596 116.0 
110.628059 124.0 
110.862663 64.0 
112.98735 148.0 
114.09156 900.0 
115.088814 284.0 
115.35656 52.0 
117.092331 184.0 
117.124832 176.0 
117.918884 204.0 
119.597748 140.0 
120.358635 56.0 
121.135078 72.0 
121.588982 140.0 
121.687767 188.0 
121.914024 144.0 
123.67411 180.0 
123.862328 68.0 
124.716652 232.0 
125.06588 36.0 
125.09259 200.0 
126.060616 56.0 
126.28643 160.0 
126.530357 160.0 
126.998726 116.0 
127.088264 176.0 
127.126617 240.0 
127.539886 144.0 
128.10553 1144.0 
128.731766 80.0 
129.109299 172.0 
135.080765 208.0 
136.110916 144.0 
137.094971 200.0 
137.143906 136.0 
137.886154 112.0 
138.112961 184.0 
138.132858 268.0 
138.656174 108.0 
138.679611 196.0 
140.073059 232.0 
140.487167 188.0 
141.09021 168.0 
141.246292 120.0 
142.042236 148.0 
142.083984 848.0 
143.075287 496.0 
143.717178 288.0 
143.745819 132.0 
144.089661 172.0 
144.527222 272.0 
145.668472 52.0 
146.717758 68.0 
152.583176 140.0 
153.104843 152.0 
154.093079 144.0 
154.962509 204.0 
155.617325 112.0 
155.998688 248.0 
156.100983 1220.0 
156.13678 2116.0 
156.191422 44.0 
156.288452 144.0 
156.415375 60.0 
156.470154 156.0 
156.985962 88.0 
157.098663 732.0 
157.14061 168.0 
157.207993 40.0 
158.096802 248.0 
158.150253 68.0 
158.175278 168.0 
159.19577 204.0 
159.271118 136.0 
160.529572 60.0 
161.246567 240.0 
163.239288 128.0 
164.194336 104.0 
166.120529 316.0 
166.824127 120.0 
167.1259 216.0 
167.150772 172.0 
167.256302 152.0 
167.573074 184.0 
168.103333 200.0 
168.131363 168.0 
169.107056 120.0 
169.130356 164.0 
169.373764 60.0 
170.112823 388.0 
170.312775 136.0 
171.11116 156.0 
171.146484 1280.0 
171.215332 28.0 
171.734009 60.0 
172.146378 156.0 
173.148041 132.0 
173.307846 116.0 
173.617172 148.0 
173.89003 72.0 
175.795517 140.0 
177.918396 152.0 
178.699799 200.0 
178.870132 56.0 
179.848419 140.0 
180.358612 236.0 
181.193588 144.0 
181.260574 156.0 
182.117142 144.0 
182.145966 172.0 
182.23999 200.0 
182.489975 44.0 
182.807388 156.0 
183.144791 284.0 
183.443054 192.0 
184.077118 180.0 
184.129333 132.0 
185.091202 124.0 
185.127426 336.0 
186.135208 176.0 
186.35524 208.0 
187.269318 68.0 
188.611832 140.0 
189.588974 216.0 
194.112946 344.0 
194.61525 80.0 
195.076462 36.0 
195.179337 92.0 
196.488464 160.0 
197.334763 72.0 
197.790771 68.0 
198.205292 224.0 
198.29216 152.0 
199.143723 1328.0 
199.223785 40.0 
199.786072 36.0 
200.149384 404.0 
200.188583 168.0 
200.895248 128.0 
201.339233 40.0 
202.215714 80.0 
202.294968 104.0 
204.11084 200.0 
206.995895 44.0 
207.973557 112.0 
208.068283 176.0 
208.203247 172.0 
209.129059 76.0 
209.347885 68.0 
210.148224 516.0 
210.281998 64.0 
210.96373 52.0 
210.986847 36.0 
211.157471 124.0 
211.189285 180.0 
212.124268 388.0 
212.153595 184.0 
212.191284 124.0 
213.120056 316.0 
213.162598 228.0 
214.120834 152.0 
214.858353 200.0 
215.129761 128.0 
217.154724 148.0 
218.167816 192.0 
218.19722 140.0 
223.18541 188.0 
223.479889 100.0 
223.932388 128.0 
224.160095 2144.0 
224.623947 112.0 
224.704498 80.0 
224.791031 200.0 
225.16449 524.0 
225.400223 48.0 
226.162872 280.0 
226.908813 56.0 
227.142746 28.0 
227.169769 360.0 
227.475845 180.0 
228.133759 108.0 
228.169907 176.0 
229.479568 60.0 
231.110641 136.0 
234.097702 132.0 
234.274368 108.0 
236.509735 52.0 
237.146851 160.0 
238.180923 152.0 
239.174164 136.0 
239.214172 52.0 
240.314453 80.0 
241.13591 88.0 
241.188583 1060.0 
241.479111 36.0 
241.714233 104.0 
242.110489 128.0 
242.192017 272.0 
243.198776 164.0 
243.838623 104.0 
244.385956 176.0 
245.292267 128.0 
246.609543 164.0 
251.182144 64.0 
252.150925 160.0 
252.210983 164.0 
253.122162 252.0 
253.150604 280.0 
254.155563 116.0 
255.165955 176.0 
255.205429 424.0 
256.157349 276.0 
257.165497 156.0 
258.246216 44.0 
258.902344 124.0 
262.176147 116.0 
263.696289 184.0 
265.177399 228.0 
266.187683 96.0 
267.127014 148.0 
267.205078 200.0 
269.188202 124.0 
269.77179 68.0 
269.8797 120.0 
269.902588 48.0 
270.180939 1580.0 
270.231812 152.0 
270.334381 68.0 
270.596252 96.0 
270.845154 144.0 
270.943451 72.0 
271.180939 276.0 
271.80249 92.0 
272.281799 84.0 
277.108032 56.0 
282.638794 172.0 
283.197815 168.0 
283.878265 124.0 
284.192291 276.0 
284.221771 80.0 
284.512451 92.0 
285.197754 388.0 
285.927643 68.0 
291.885254 136.0 
292.072327 180.0 
298.13797 152.0 
298.208038 988.0 
299.001221 132.0 
299.210938 176.0 
299.655518 44.0 
300.221802 128.0 
301.135376 152.0 
301.190735 52.0 
301.214905 172.0 
307.200867 172.0 
310.161774 128.0 
311.217804 124.0 
311.295044 204.0 
312.220032 128.0 
312.286163 148.0 
313.236572 128.0 
319.236023 172.0 
319.82663 60.0 
319.862244 160.0 
322.20813 160.0 
322.213409 116.0 
323.22644 544.0 
323.257751 176.0 
323.374634 140.0 
323.628815 88.0 
324.23288 516.0 
326.204865 116.0 
326.239349 148.0 
326.478119 136.0 
327.201385 68.0 
327.256805 196.0 
328.015594 40.0 
328.242737 112.0 
330.931152 188.0 
331.594116 40.0 
337.188324 188.0 
340.217712 392.0 
340.26059 248.0 
341.222473 320.0 
342.155243 144.0 
342.206787 100.0 
344.27182 156.0 
347.235321 360.0 
347.745575 188.0 
348.249634 232.0 
348.424225 60.0 
348.498535 96.0 
351.488647 52.0 
351.664062 48.0 
352.224152 84.0 
353.22226 92.0 
353.663788 152.0 
354.272827 560.0 
354.825134 120.0 
354.851379 92.0 
355.224854 248.0 
355.270264 156.0 
355.695496 72.0 
357.326538 68.0 
358.787872 176.0 
359.217804 204.0 
361.621063 132.0 
364.256439 112.0 
368.289703 180.0 
369.248871 188.0 
371.260559 168.0 
373.188293 180.0 
374.250275 208.0 
375.776642 176.0 
376.266846 204.0 
378.703125 140.0 
382.265839 244.0 
383.162842 124.0 
383.25946 352.0 
383.298309 136.0 
384.262451 128.0 
390.58548 52.0 
393.300507 160.0 
393.332062 144.0 
397.27774 952.0 
397.336273 160.0 
397.448181 132.0 
398.284485 148.0 
398.762695 176.0 
399.285919 168.0 
399.844543 32.0 
400.389984 128.0 
411.294678 168.0 
411.780884 148.0 
422.811584 104.0 
423.298767 36.0 
424.036194 96.0 
425.242065 116.0 
425.31308 904.0 
426.311157 104.0 
426.827881 60.0 
428.31366 140.0 
431.880096 48.0 
433.192352 164.0 
435.291077 140.0 
436.279968 136.0 
439.311829 92.0 
440.31781 124.0 
449.314545 112.0 
451.316925 188.0 
453.313873 144.0 
454.280151 224.0 
454.492767 72.0 
454.611572 88.0 
461.213348 40.0 
467.315948 236.0 
468.319824 108.0 
468.357971 160.0 
468.956909 92.0 
469.319031 168.0 
475.32312 132.0 
480.30481 128.0 
481.308624 116.0 
481.376404 172.0 
481.418762 160.0 
482.342316 148.0 
496.181213 96.0 
496.325409 176.0 
496.335083 68.0 
496.351837 308.0 
501.983978 36.0 
503.197693 32.0 
506.372772 104.0 
510.360077 104.0 
510.39502 184.0 
511.374603 156.0 
511.721252 44.0 
524.118896 76.0 
524.370117 196.0 
524.407898 192.0 
525.286072 68.0 
525.384033 112.0 
526.285583 168.0 
526.395203 152.0 
533.341003 104.0 
538.404724 92.0 
539.370361 132.0 
540.364685 48.0 
540.401733 124.0 
540.873779 180.0 
541.396973 108.0 
549.394775 144.0 
552.39856 116.0 
553.374084 132.0 
554.643738 60.0 
555.234497 120.0 
556.299683 36.0 
560.099365 40.0 
561.414368 140.0 
562.384094 140.0 
562.433472 36.0 
563.425232 156.0 
563.732361 52.0 
564.384705 116.0 
565.420715 132.0 
566.392273 220.0 
566.827271 104.0 
567.381531 256.0 
567.467224 164.0 
567.813354 84.0 
568.390625 172.0 
570.377441 108.0 
571.685425 68.0 
572.042419 72.0 
576.363586 108.0 
578.530273 136.0 
579.708557 44.0 
580.451599 116.0 
581.395447 104.0 
588.415161 128.0 
594.431885 136.0 
596.398865 148.0 
598.437317 144.0 
599.435852 152.0 
599.611328 124.0 
603.393311 208.0 
604.377686 132.0 
604.426636 112.0 
605.41864 112.0 
605.910217 236.0 
623.45166 96.0 
633.447266 180.0 
634.399414 108.0 
637.462036 120.0 
648.499084 136.0 
649.51825 112.0 
653.445374 128.0 
662.497498 56.0 
666.473877 100.0 
667.491699 136.0 
668.61322 96.0 
675.468323 120.0 
680.471863 104.0 
681.479492 88.0 
683.476196 124.0 
686.242126 64.0 
689.499573 144.0 
691.209717 48.0 
693.472168 96.0 
694.490112 140.0 
695.48114 116.0 
696.489319 112.0 
704.517761 72.0 
708.517395 84.0 
734.532288 116.0 
748.510498 112.0 
759.035339 104.0 
764.429871 112.0 
765.50885 68.0 
795.771423 64.0 
800.083801 40.0 
803.566956 92.0 
817.506836 80.0 
818.548645 120.0 
821.552429 36.0 
822.602539 156.0 
835.537537 112.0 
835.675598 120.0 
856.547058 136.0 
864.634094 124.0 
898.907166 180.0 
934.662231 156.0 
936.682922 132.0 
959.672302 256.0 
1043.522217 120.0 
1055.425293 88.0 
1057.767334 252.0 
1061.19458 192.0 
1069.451782 216.0 
1072.767456 88.0 
1106.465088 152.0 
1112.98291 148.0 
1161.835693 156.0 
1199.580811 172.0 
1237.1521 160.0 
1264.953247 192.0 
1265.547974 84.0 
1272.567627 200.0 
1301.307251 156.0 
1338.234741 220.0 
1353.012695 84.0 
1353.312866 120.0 
1370.567383 220.0 
1389.548218 32.0 
1392.317139 168.0 
1404.792603 204.0 
1407.337646 176.0 
1425.781372 132.0 
1447.811768 192.0 
1449.842163 192.0 
1452.412476 184.0 
1455.805298 172.0 
1457.932495 200.0 
1458.755737 64.0 
1470.133057 216.0 
1472.415894 168.0 
1484.538696 172.0 
1486.065308 200.0 
1493.040527 156.0 
1499.56958 80.0 
1501.219482 96.0 
END IONS

