BEGIN IONS
PEPMASS=261.161
CHARGE=1+
COMPOUNDNAME=Cadin-4-En-10-Ol
LIBRARYQUALITY=3
SMILES=N/A
INCHIKEY=LHYHMMRYTDARSZ-UHFFFAOYSA-N
INCHI=InChI=1S/C15H26O/c1-10(2)12-7-8-15(4,16)14-6-5-11(3)9-13(12)14/h9-10,12-14,16H,5-8H2,1-4H3
MSLEVEL=2
SOURCE_INSTRUMENT=N/A-ESI-QFT
FILENAME=library_mgf.mgf
SEQ=*..*
IONMODE=positive
ORGANISM=MONA
NAME=Cadin-4-En-10-Ol [M+K]+
PI=MoNA
DATACOLLECTOR=MoNA:VF-NPL-QEHF002908
PUBMED=N/A
SUBMITUSER=mwang87
TAGS=
SPECTRUMID=CCMSLIB00004693971
SCANS=2908
53.204971 0.005721 
53.63422 0.007427 
53.749599 0.009048 
54.102112 0.006225 
54.542919 0.005766 
55.053551 0.004465 
55.055031 0.083807 
55.541462 0.005509 
55.935207 0.030613 
56.300316 0.008072 
57.070599 0.272556 
57.098644 0.007565 
57.301422 0.004908 
57.638535 0.005426 
58.065857 0.167936 
58.202026 0.005771 
59.069279 0.014154 
59.789623 0.00576 
60.027142 0.006633 
60.045147 0.005811 
60.169472 0.00483 
60.241718 0.004412 
61.011349 0.366865 
61.124489 0.00856 
62.019287 0.065618 
62.091259 0.005413 
62.866386 0.011571 
62.982433 0.260652 
63.007221 0.005031 
63.723339 0.005717 
63.725269 0.006678 
65.117043 0.005624 
65.211128 0.008191 
65.637398 0.006451 
67.054977 0.07086 
67.319031 0.006048 
68.28421 0.007317 
68.591805 0.005057 
69.070534 0.150528 
70.954926 0.004294 
71.049835 0.040291 
71.086121 0.036918 
71.157303 0.00783 
72.93792 0.030815 
74.062485 0.005094 
74.345688 0.00722 
74.858131 0.008257 
74.931458 0.068644 
76.506569 0.006403 
77.129875 0.005465 
77.273399 0.008901 
77.910164 0.006267 
78.014061 0.037151 
78.945625 0.005203 
78.967537 0.006553 
79.021812 0.213874 
79.054825 0.043613 
79.760544 0.005444 
79.936569 0.006169 
80.283463 0.005729 
80.94838 0.200364 
81.070396 0.240099 
82.945374 0.102084 
83.049934 0.006217 
83.08606 0.114043 
85.040321 0.015313 
85.065331 0.010473 
85.101646 0.00475 
85.966042 0.008408 
86.025146 0.005039 
86.097061 0.014746 
87.044136 0.007822 
88.039742 0.037029 
89.964195 0.005714 
90.948273 0.0539 
91.054703 0.217635 
92.124084 0.005066 
93.070305 0.15082 
93.129768 0.007511 
93.133484 0.007643 
93.661263 0.008381 
93.706009 0.005972 
95.034439 0.034574 
95.049736 0.015665 
95.085922 0.286367 
96.060539 0.00671 
96.922089 0.138374 
97.065323 0.022405 
97.101639 0.039052 
98.104523 0.004821 
98.975945 0.016105 
99.044579 0.013261 
100.039711 0.0498 
101.003517 0.299168 
101.95018 0.17032 
102.305656 0.005296 
102.948158 0.005267 
102.968559 0.081239 
102.999207 0.00653 
104.99263 0.249564 
105.070282 0.084822 
105.917519 0.048507 
105.943359 0.006256 
106.086693 0.006972 
106.965401 0.010318 
107.085754 0.160919 
108.979706 0.006387 
108.986389 0.00546 
109.065094 0.043096 
109.101463 0.149594 
109.959221 0.008148 
111.08078 0.005123 
111.890923 0.01339 
111.908432 0.008442 
113.059906 0.012115 
115.341309 0.004733 
116.986145 0.015971 
117.917305 0.027521 
118.050041 0.076908 
119.085808 0.10106 
119.168587 0.006019 
119.960663 0.047068 
120.979118 0.058765 
121.06501 0.008274 
121.101334 0.152724 
121.464371 0.006153 
122.240623 0.008667 
122.519089 0.008426 
123.080513 0.011186 
123.117058 0.050256 
124.119911 0.01238 
124.975876 0.007569 
126.120796 0.008249 
127.111816 0.014048 
128.214951 0.00892 
128.532822 0.005673 
129.232224 0.004612 
130.050018 0.007328 
131.000092 0.005713 
131.085464 0.0313 
132.088181 0.006965 
133.101227 0.088227 
133.872742 0.008018 
133.948502 0.03443 
134.019409 0.00671 
134.956177 0.022215 
135.002853 0.178633 
135.080475 0.037383 
135.116837 0.10068 
135.92746 0.03811 
136.826477 0.008234 
137.096191 0.04293 
137.970901 0.01207 
138.989517 0.006748 
139.773056 0.006499 
141.212814 0.00661 
143.361206 0.005673 
145.101288 0.098822 
145.624832 0.007596 
146.97345 0.005419 
147.116653 0.09709 
147.874008 0.004696 
149.096008 0.008276 
149.132416 0.018131 
150.951004 0.304365 
151.95874 0.154565 
152.561508 0.008051 
152.595352 0.004582 
152.944672 0.440605 
152.95108 0.021199 
152.966995 0.007957 
153.120941 0.006066 
153.499252 0.006451 
153.938156 0.020583 
153.959229 0.013561 
154.121994 0.007715 
154.946808 0.203203 
155.77475 0.007307 
155.954422 0.007411 
156.138245 0.064384 
156.635544 0.009159 
156.962296 0.065853 
157.101181 0.023282 
157.787003 0.005984 
159.116852 0.053478 
160.074142 0.004699 
161.012024 0.005251 
161.095963 0.01481 
161.132339 0.068231 
162.950836 0.144688 
163.11142 0.016389 
163.147964 0.024336 
163.958817 0.22256 
165.93808 0.284721 
168.917053 0.50256 
168.961624 0.072015 
170.026215 0.005689 
170.184265 0.008726 
170.776657 0.005829 
170.913773 0.15147 
170.955292 1.457884 
171.361588 0.007827 
172.005371 0.006303 
172.957367 0.018276 
173.096008 0.581062 
173.132721 0.018179 
174.006027 0.006798 
174.099533 0.029206 
175.112061 0.006736 
175.148239 0.005708 
177.598648 0.007074 
177.948669 0.007681 
178.049927 0.029604 
179.106522 0.014565 
179.963913 0.018126 
179.970261 0.00885 
180.961456 0.414315 
181.960205 0.019311 
181.969147 0.06846 
182.978088 0.013113 
183.006805 0.006417 
183.948685 0.116724 
184.509857 0.006791 
184.939941 0.020087 
184.971085 0.004926 
184.979309 0.007414 
185.095108 0.00527 
185.133286 0.015547 
186.927628 1.562015 
187.075562 0.007705 
187.147675 0.050507 
187.927795 0.005284 
188.924606 0.602271 
188.965744 0.698841 
188.974854 0.006559 
189.127731 0.006856 
192.962265 0.00471 
194.065842 0.009385 
195.270737 0.006098 
197.974228 0.233905 
198.993103 0.04711 
199.970093 0.254065 
199.979355 0.047443 
199.99559 0.050174 
200.914948 0.0079 
200.943039 0.017984 
200.990326 0.048355 
201.017166 0.018642 
201.127335 0.119043 
201.163803 0.017591 
201.967102 0.085269 
201.976379 0.008827 
202.940018 0.007033 
202.989441 0.013222 
203.033417 0.007994 
203.105225 0.071581 
203.142899 0.015539 
203.178894 0.006719 
204.037216 0.095057 
204.96167 0.00656 
205.049454 0.914102 
205.085892 0.007078 
205.927277 0.006842 
206.053024 0.038357 
206.926331 0.007929 
206.977432 0.071442 
208.993057 0.00541 
213.963028 0.018156 
214.893723 0.005849 
215.984604 0.041867 
216.298141 0.04672 
216.311295 0.128053 
217.104431 0.177311 
217.770172 0.008844 
217.980362 0.034919 
219.089325 0.006297 
219.099808 0.006136 
219.978134 0.007021 
220.903214 0.006834 
222.898575 0.198065 
223.928635 0.005093 
226.25296 0.300632 
227.255722 0.00871 
227.900391 0.01627 
227.930283 0.198262 
228.928802 0.057426 
229.104507 0.283233 
229.895615 0.366232 
229.927795 0.064676 
230.057114 0.027641 
231.028641 4.01682 
231.915558 0.008442 
232.032104 0.474523 
232.959732 0.008887 
233.034149 0.004912 
237.921631 0.033798 
238.913925 0.028553 
239.900467 0.006572 
240.908966 0.357246 
241.911392 0.005811 
242.049881 0.013622 
242.082062 0.008518 
242.105042 0.042067 
243.100739 0.438687 
243.210907 0.006434 
244.062714 0.038166 
244.992249 0.043479 
245.910919 0.007706 
245.941025 0.048456 
246.052002 7.81701 
246.938751 0.383533 
246.976151 0.00763 
247.025543 0.005824 
247.05545 1.037029 
247.906113 0.285977 
247.93985 0.009091 
248.056824 0.026028 
248.93837 0.007974 
248.954803 0.005441 
249.207825 0.006089 
259.151611 0.426497 
259.166687 0.169933 
259.282257 0.305776 
260.057129 0.079098 
260.101318 0.006186 
260.120422 0.394665 
260.155518 0.311004 
260.172516 0.007881 
260.200836 0.09619 
260.237 0.080063 
260.257782 0.016653 
260.285187 0.011353 
261.076447 3.634119 
261.112701 2.543428 
261.130463 100.0 
262.028748 0.029438 
262.079071 0.527006 
262.115387 0.236235 
262.133911 10.703944 
262.177643 0.37581 
262.215668 0.147292 
262.229614 0.230493 
262.252258 0.256847 
262.97052 0.006053 
263.090515 0.026753 
263.124451 0.400684 
263.135803 0.575946 
263.16153 4.012058 
263.211395 0.072556 
263.485779 0.005596 
264.908539 0.008272 
265.939453 0.049327 
279.771271 0.008474 
279.896515 0.024904 
279.914459 0.005466 
280.561005 0.009615 
282.91803 0.006468 
283.949921 0.00434 
END IONS

