BEGIN IONS
PEPMASS=273.1
CHARGE=1+
COMPOUNDNAME=Massbank:PR040043 4',5,7-trihydroxyflavanone|Naringenin|Nari|(2S)-5,7-dihydroxy-2-(4-hydroxyphenyl)chroman-4-one
LIBRARYQUALITY=3
SMILES=Oc(c3)ccc(c3)[C@H](C1)Oc(c2)c(c(O)cc(O)2)C(=O)1
INCHIKEY=FTVWIRXFELQLPI-ZDUSSCGKSA-N
INCHI=1S/C15H12O5/c16-9-3-1-8(2-4-9)13-7-12(19)15-11(18)5-10(17)6-14(15)20-13/h1-6,13,16-18H,7H2/t13-/m0/s1
MSLEVEL=2
SOURCE_INSTRUMENT=ESI-LC-ESI-QTOF
FILENAME=Massbank_ESI_positive_8_1_2014_peaks.mgf
SEQ=*..*
IONMODE=Positive
ORGANISM=MASSBANK
NAME=Massbank:PR040043 4',5,7-trihydroxyflavanone|Naringenin|Nari|(2S)-5,7-dihydroxy-2-(4-hydroxyphenyl)chroman-4-one [M+H]
PI=Putative Massbank Match
DATACOLLECTOR=Massbank
PUBMED=N/A
SUBMITUSER=mwang87
TAGS=
SPECTRUMID=CCMSLIB00000222698
SCANS=10862
67.0083 902.0 
68.9879 737.0 
69.0245 969.0 
77.031 275.0 
83.0069 369.0 
91.0493 4909.0 
91.0991 612.0 
95.0448 828.0 
97.0244 803.0 
107.0467 593.0 
111.0055 308.0 
119.0479 7345.0 
119.1045 826.0 
123.0432 697.0 
147.0451 4196.0 
147.1077 424.0 
153.0195 22030.0 
153.0835 2404.0 
153.211 275.0 
154.0234 481.0 
END IONS

