BEGIN IONS
PEPMASS=309.016
CHARGE=1+
COMPOUNDNAME=Emodin
LIBRARYQUALITY=3
SMILES=N/A
INCHIKEY=RHMXXJGYXNZAPX-UHFFFAOYSA-N
INCHI=InChI=1S/C15H10O5/c1-6-2-8-12(10(17)3-6)15(20)13-9(14(8)19)4-7(16)5-11(13)18/h2-5,16-18H,1H3
MSLEVEL=2
SOURCE_INSTRUMENT=N/A-ESI-QFT
FILENAME=library_mgf.mgf
SEQ=*..*
IONMODE=positive
ORGANISM=MONA
NAME=Emodin [M+K]+
PI=MoNA
DATACOLLECTOR=MoNA:VF-NPL-QEHF011220
PUBMED=N/A
SUBMITUSER=mwang87
TAGS=
SPECTRUMID=CCMSLIB00004702283
SCANS=11220
50.737637 0.02716 
50.835918 0.02697 
51.940693 0.02799 
51.990601 0.028056 
52.588879 0.029299 
53.002979 0.545518 
53.039341 0.683903 
54.129112 0.025648 
54.856476 0.027926 
54.95335 0.03454 
55.001633 0.025633 
55.018593 1.327678 
55.054985 7.084172 
55.692947 0.026354 
55.935108 0.065578 
56.050224 0.827583 
56.058338 0.111506 
56.965553 2.725634 
57.034233 1.190562 
57.070621 9.248272 
57.410942 0.026826 
57.470478 0.027088 
57.93552 0.4123 
58.065861 0.98095 
58.073952 0.217792 
58.128777 0.026925 
58.862598 0.029967 
58.961205 0.458711 
59.04987 4.291513 
59.931019 0.045423 
59.990932 0.224027 
60.045139 0.099868 
61.011364 11.074713 
62.014656 0.078153 
62.019188 0.748632 
62.982437 0.210484 
62.990414 0.027067 
63.007164 0.22731 
63.998409 1.597607 
64.321068 0.029339 
65.039307 0.244241 
65.69828 0.029577 
65.800278 0.031147 
66.056282 0.026386 
67.054893 5.336149 
68.05014 0.433374 
68.058296 0.040325 
68.546158 0.028146 
68.997765 0.039113 
69.034203 1.180133 
69.045433 0.120742 
69.070549 4.608422 
69.909836 0.029702 
70.065788 1.210399 
70.073952 0.032377 
70.632851 0.02963 
71.049835 0.63639 
71.086174 3.137284 
72.045021 2.759799 
72.081444 0.50562 
72.0895 0.046382 
72.937889 0.10323 
73.029053 0.414287 
73.065414 0.105119 
74.060684 0.068529 
74.097046 0.236128 
74.931503 100.0 
75.524628 0.030509 
76.928558 18.372904 
77.962852 0.034919 
78.013947 0.065498 
79.021782 7.525007 
79.054817 3.45238 
80.050049 0.582326 
80.05822 0.082098 
80.948402 0.788963 
80.982605 0.02835 
81.000648 0.030668 
81.017426 0.045977 
81.034065 0.47322 
81.045151 0.042328 
81.053375 0.124065 
81.07045 5.239011 
81.804245 0.037935 
82.029449 0.032752 
82.065689 0.833334 
82.073746 0.276227 
83.049622 0.971233 
83.060867 0.118026 
83.086121 1.6781 
84.044952 1.523511 
84.081306 1.894027 
85.028954 0.367712 
85.065346 0.343538 
85.101685 1.234804 
86.024292 0.041018 
86.060593 0.126763 
86.096931 1.19878 
87.04454 0.354541 
88.022034 0.90306 
88.076187 0.10192 
89.060196 2.857426 
90.948082 0.230102 
91.054688 3.391075 
91.466835 0.03075 
91.773834 0.028724 
92.05011 0.063483 
92.058128 0.105362 
92.941879 2.354782 
92.948425 0.031437 
93.036972 0.036898 
93.04528 0.030125 
93.057808 0.029637 
93.070297 2.845336 
93.937195 0.062583 
93.942184 0.320229 
93.943863 0.217262 
93.956375 0.344446 
94.065575 0.356612 
94.93895 0.22024 
95.019501 0.033824 
95.049561 1.918386 
95.060814 0.351378 
95.085915 4.02365 
95.951805 0.036384 
96.044777 0.230993 
96.081154 0.363505 
96.089439 0.123198 
96.99556 0.52398 
97.028801 0.245756 
97.040131 0.069179 
97.065193 0.547916 
97.076683 0.060486 
97.101608 0.208666 
98.060478 0.20296 
98.984634 0.050096 
99.044456 0.580693 
99.080597 0.032205 
100.076019 0.339076 
100.112396 0.135079 
101.059959 0.171687 
101.115555 0.028024 
102.054893 0.028375 
102.314552 0.03087 
102.915131 0.037565 
103.054504 0.312772 
103.862175 0.028234 
103.870354 0.033238 
103.976952 0.034517 
104.881744 0.030612 
105.033974 0.137294 
105.044861 0.054924 
105.07016 2.055373 
106.065453 0.780061 
107.049507 0.664966 
107.073265 0.073718 
107.085815 1.575784 
108.044968 0.041778 
108.080917 0.280665 
108.925354 0.028295 
108.958565 0.07816 
109.028465 0.039868 
109.065063 0.79588 
109.101433 1.204867 
110.060097 0.162678 
110.096954 0.043466 
110.952377 0.40064 
111.044403 0.280405 
111.055656 0.034085 
111.080635 0.07297 
111.549957 0.031736 
112.039276 0.034747 
112.075752 0.031491 
113.066376 0.02826 
113.986107 0.033343 
114.055161 0.095892 
114.091484 0.039916 
115.054482 0.29101 
116.053131 0.215562 
116.964607 0.034906 
116.984917 0.562109 
117.000122 0.038582 
117.070038 0.488267 
118.065224 0.093934 
118.980049 0.364141 
119.049301 0.708722 
119.085732 1.19582 
119.94371 0.071876 
120.044418 0.048892 
120.080971 1.349384 
120.548622 0.029457 
120.940666 0.439096 
120.970284 0.031734 
121.02858 0.112019 
121.039864 0.287743 
121.06498 0.311213 
121.101341 0.515436 
121.378769 0.0333 
121.932419 0.039927 
122.060204 0.287687 
122.096664 0.10146 
122.94101 1.993473 
123.044205 0.570633 
123.068146 0.040532 
123.080498 0.144694 
123.116867 0.075338 
124.112076 0.114292 
124.936501 0.054129 
126.054741 0.033189 
127.683151 0.031615 
128.062073 0.203318 
128.070602 0.033606 
128.962631 0.040631 
129.069916 0.632851 
129.978989 0.030725 
130.065063 0.06728 
131.000336 0.210447 
131.048782 0.041939 
131.052612 0.033934 
131.085587 0.49735 
132.080795 0.345475 
132.995483 0.340489 
133.064758 0.064799 
133.101227 0.314341 
133.831406 0.030712 
134.060104 0.073412 
134.096344 0.116955 
134.978836 0.182217 
134.995789 0.366545 
135.010498 0.032925 
135.038589 0.034879 
135.044083 1.691927 
135.080536 0.137311 
135.116776 0.081179 
135.927521 0.078232 
136.075653 1.182219 
136.920105 0.218241 
137.011749 0.252797 
137.059952 0.02996 
137.132477 0.033954 
137.921646 0.50014 
137.928009 1.595557 
137.954208 0.177353 
138.054825 0.07317 
138.915375 0.029617 
138.924881 0.032198 
138.95105 0.89134 
139.110428 0.031251 
139.923355 0.067309 
140.95134 0.420825 
141.044037 0.027269 
141.069778 0.286212 
141.58252 0.027423 
143.049118 0.033621 
143.085632 0.180015 
144.080719 0.074534 
145.064728 0.16094 
145.101105 0.284208 
146.059616 0.03262 
146.096252 0.031158 
146.974564 0.030723 
147.03299 0.061793 
147.043884 0.351985 
147.080566 0.087002 
147.116653 0.03882 
148.07547 0.083053 
149.01178 0.06754 
149.284164 0.032387 
149.954071 0.337851 
150.127762 0.031536 
150.950974 1.84149 
150.972794 0.028102 
151.943359 0.03348 
152.062057 0.090766 
152.071136 0.041136 
152.107056 0.038414 
152.173187 0.029184 
152.944809 1.79164 
152.951508 2.410289 
152.989166 1.084412 
153.003021 0.02894 
153.069946 0.233699 
153.938126 0.258862 
153.959167 0.522047 
154.930664 0.295189 
154.941422 0.18831 
154.968628 0.03358 
154.985062 0.112853 
155.022461 0.074374 
155.9319 1.586358 
155.954605 0.269962 
156.926132 0.029656 
157.064835 0.297843 
157.928635 0.137615 
158.952759 0.03479 
158.994919 0.080696 
160.714951 0.031132 
160.990677 0.131593 
161.011642 0.033512 
161.023376 0.280978 
161.095947 0.123487 
162.127594 0.075573 
163.075043 0.068836 
164.920486 0.53304 
165.069519 0.068035 
165.991989 0.035072 
166.967758 0.035901 
167.964783 0.174461 
168.961655 1.324325 
168.990448 0.06787 
169.064697 0.266815 
169.91803 0.067306 
170.914139 0.413069 
170.955215 16.786943 
170.962173 1.90083 
171.013794 1.539657 
171.043976 0.072276 
171.080429 0.19258 
171.93309 0.114121 
172.952118 3.87213 
172.993286 0.041996 
173.011154 0.039702 
173.761703 0.028688 
173.901108 0.472184 
173.929626 0.039275 
173.942398 2.403355 
174.006439 0.029359 
174.972504 1.62284 
175.039001 2.517106 
175.939453 0.39757 
176.042603 0.042578 
177.018219 0.102613 
177.127502 0.072672 
178.122391 0.04951 
179.085724 0.037185 
179.106873 0.035182 
180.887939 1.222345 
181.065033 0.36281 
183.06897 0.031723 
184.051682 0.111094 
184.07579 0.031937 
184.971008 0.792301 
185.028839 0.0308 
185.05983 1.042214 
185.4207 0.037101 
185.948883 0.041495 
186.927429 0.167064 
186.936234 0.108226 
186.967514 0.038853 
188.924561 2.417686 
188.935074 0.211311 
188.965881 18.939688 
189.018188 0.969462 
189.054504 0.103007 
189.16684 0.031486 
189.933823 0.441453 
189.969528 0.157184 
190.931366 0.043196 
190.962631 4.256696 
191.023148 0.031605 
191.199356 0.03301 
194.999588 0.524958 
195.065201 0.314943 
195.079926 0.036106 
197.059631 0.297199 
198.067673 0.319083 
198.899155 0.359033 
199.074966 0.237783 
202.940506 0.032275 
202.981445 1.147152 
203.070297 0.153111 
203.143066 0.11587 
203.923309 0.163208 
204.978409 0.1136 
204.98912 0.032351 
206.946701 0.644943 
206.976669 0.636407 
207.029068 0.129 
207.080276 0.031199 
207.944458 0.103034 
208.941772 0.049018 
208.973389 0.040523 
208.991837 0.03509 
209.059784 0.123234 
211.075104 0.201391 
212.046066 0.11982 
212.070328 0.40534 
213.010162 1.361171 
213.054672 1.892673 
215.901016 0.032846 
217.04953 0.336741 
217.51651 0.031706 
218.020752 0.612459 
219.174377 0.159417 
219.890121 0.154055 
219.898087 0.097846 
219.901337 0.109444 
220.177734 0.11404 
220.90332 0.160001 
221.182709 0.033848 
222.898621 3.621395 
223.899338 0.038913 
225.042068 2.812967 
225.053635 0.209549 
226.045822 0.068618 
226.062454 0.304372 
226.086258 0.1158 
227.0345 0.032531 
227.070206 0.939014 
229.001266 2.011538 
230.001129 0.244513 
230.980591 1.970408 
230.997772 0.106602 
231.020111 0.037316 
233.916306 0.041147 
234.91394 0.145333 
235.075165 0.289947 
236.070435 0.422229 
236.913147 0.037417 
237.054733 0.05386 
237.07811 0.4492 
238.913742 0.659167 
239.057343 0.097456 
240.065598 1.128472 
240.07756 0.069552 
240.908951 7.771793 
241.049469 0.159269 
241.910599 0.207535 
246.978836 0.034356 
247.012009 1.059858 
248.043152 0.031774 
248.991013 4.205724 
250.969894 0.036647 
253.04921 0.085829 
253.085373 0.035081 
254.102646 0.035169 
254.924652 0.31849 
255.064987 0.296868 
258.079315 0.034472 
263.00647 0.13322 
264.041229 0.028741 
264.078644 0.037478 
265.048798 0.03823 
265.072968 4.629743 
266.076508 0.903544 
267.051727 1.838408 
267.078033 0.032486 
268.036591 0.540446 
268.06015 1.333964 
269.820282 0.035305 
270.828308 0.055916 
274.06311 0.089833 
277.233429 0.034352 
281.21463 0.033289 
282.052277 1.842979 
282.069183 0.03637 
283.059509 1.197096 
284.80719 0.408719 
285.815643 0.351225 
285.835541 0.072165 
286.824646 0.027952 
287.831207 0.832855 
288.838989 0.879928 
290.21051 0.032604 
292.073303 0.235442 
293.068115 0.88459 
297.059265 0.031036 
301.810028 0.050397 
302.818329 2.355817 
303.820465 0.035268 
308.09198 0.552625 
308.238373 0.033044 
309.32608 0.184183 
310.071625 1.106892 
310.251953 0.092718 
310.309662 0.031328 
311.071686 0.893487 
312.838593 0.183179 
328.83551 0.036408 
331.571381 0.031466 
END IONS

