BEGIN IONS
PEPMASS=425.379
CHARGE=1+
COMPOUNDNAME=(1R,3aR,5aR,5bR,9S,11aR)-3a,5a,5b,8,8,11a-hexamethyl-1-prop-1-en-2-yl-1,2,3,4,5,6,7,7a,9,10,11,11b,12,13,13a,13b-hexadecahydrocyclopenta[a]chrysen-9-ol
LIBRARYQUALITY=3
SMILES=N/A
INCHIKEY=MQYXUWHLBZFQQO-KIIHVYTKSA-N
INCHI=InChI=1S/C30H50O/c1-19(2)20-11-14-27(5)17-18-29(7)21(25(20)27)9-10-23-28(6)15-13-24(31)26(3,4)22(28)12-16-30(23,29)8/h20-25,31H,1,9-18H2,2-8H3/t20-,21?,22?,23?,24-,25?,27+,28-,29+,30+/m0/s1
MSLEVEL=2
SOURCE_INSTRUMENT=N/A-ESI-QFT
FILENAME=library_mgf.mgf
SEQ=*..*
IONMODE=negative
ORGANISM=MONA
NAME=(1R,3aR,5aR,5bR,9S,11aR)-3a,5a,5b,8,8,11a-hexamethyl-1-prop-1-en-2-yl-1,2,3,4,5,6,7,7a,9,10,11,11b,12,13,13a,13b-hexadecahydrocyclopenta[a]chrysen-9-ol [M-H]-
PI=MoNA
DATACOLLECTOR=MoNA:VF-NPL-QEHF009279
PUBMED=N/A
SUBMITUSER=mwang87
TAGS=
SPECTRUMID=CCMSLIB00004700342
SCANS=9279
50.372349 0.028917 
50.829716 0.022042 
50.948257 0.028362 
51.157898 0.025826 
53.364147 0.025391 
53.972916 0.023084 
54.096779 0.027255 
54.120964 0.026455 
54.196098 0.022049 
54.325058 0.03395 
55.617283 0.025602 
56.979172 0.034335 
57.3307 0.025531 
58.994785 0.468 
59.012493 1.557529 
59.087345 0.025019 
59.361992 0.026359 
59.690392 0.025596 
59.837677 0.02466 
59.860992 0.040278 
60.164379 0.022016 
60.402077 0.025279 
60.552353 0.026223 
60.974014 1.710594 
61.010433 0.070559 
61.907894 0.028642 
61.978703 0.023566 
61.98703 0.207719 
62.221226 0.02771 
62.354 0.029328 
62.39341 0.025436 
62.979366 0.020575 
63.615829 0.025694 
63.844456 0.029085 
63.943325 1.478612 
63.959236 0.036116 
63.961082 10.150996 
64.951157 4.866532 
64.968948 0.243676 
65.939209 0.035641 
65.956909 0.214408 
65.969795 0.027595 
66.897537 0.025613 
66.946991 0.110633 
68.652107 0.025518 
68.731972 0.02608 
69.650597 0.025939 
70.586792 0.02813 
71.012421 0.056778 
72.493416 0.027485 
73.010437 0.084415 
73.515831 0.026535 
74.989693 0.211641 
75.237602 0.027853 
76.606636 0.024665 
76.951195 5.617726 
76.964684 0.031084 
77.005325 0.133262 
78.764656 0.024603 
78.946976 0.130679 
78.957863 0.042851 
78.966866 2.839986 
78.984604 4.058039 
79.935692 0.039247 
79.938301 3.255703 
79.943054 0.555053 
79.956024 99.078461 
79.969795 0.476687 
80.052406 0.030419 
80.584755 0.036943 
80.95079 0.585032 
80.956528 0.066873 
80.963837 100.0 
80.975952 0.140493 
80.977837 0.384247 
81.033226 0.33358 
81.934212 0.02757 
81.951828 3.112941 
81.96035 0.191483 
81.963219 0.491162 
82.959663 3.489427 
82.96804 0.260283 
83.048943 0.306517 
84.720604 0.0301 
84.748695 0.033793 
86.254463 0.023942 
86.430367 0.103715 
86.433372 0.055167 
87.562515 0.085049 
87.566635 0.035262 
88.289612 0.027992 
89.740219 0.030152 
89.959244 0.033271 
90.93222 0.11276 
90.966873 0.131158 
90.984589 0.204464 
92.946121 0.688544 
92.982513 0.907716 
93.000328 1.570615 
93.971695 1.039478 
94.146072 0.027299 
94.979576 16.208866 
94.99659 0.029348 
95.595016 0.029515 
95.915482 6.630468 
95.933235 1.252387 
95.951012 0.928996 
95.979103 0.032388 
96.923332 1.109365 
96.941277 0.189497 
96.958832 27.499758 
96.97525 0.625474 
97.064575 0.025031 
97.91127 0.674761 
97.930122 0.038757 
97.957947 0.024101 
98.954597 0.903777 
99.924561 3.936246 
100.924622 0.035391 
101.005409 0.141391 
101.908714 0.024193 
102.808212 0.026533 
102.945892 8.679617 
102.949463 0.147707 
102.966377 0.038748 
103.04586 0.027359 
103.515495 0.023991 
103.91909 0.265234 
104.941765 0.137562 
106.400909 0.025105 
106.845978 0.023594 
106.9095 0.155023 
106.979691 1.347477 
106.983139 0.031764 
108.020447 0.028512 
108.905174 0.16614 
108.923355 1.339739 
108.995361 0.181647 
109.474998 0.024208 
110.93914 0.551055 
110.956833 3.792967 
110.974556 7.39889 
111.92823 1.087039 
112.780357 0.026397 
112.936089 8.735137 
112.952583 0.373647 
112.965279 0.023482 
112.970413 0.044743 
114.931953 0.53888 
115.901848 0.034215 
115.919548 1.510491 
116.919891 0.034407 
116.927467 0.263598 
117.927689 0.025466 
118.918755 0.097432 
118.923119 4.084657 
118.940887 17.274532 
119.616844 0.027877 
120.936783 0.09994 
120.944283 0.104347 
120.956512 1.216635 
122.956879 0.359232 
122.974655 0.203244 
124.538025 0.024872 
124.936089 0.420556 
124.948006 0.13366 
124.972496 0.032954 
125.320732 0.030498 
125.872223 0.138243 
125.96183 0.051952 
126.42231 0.028137 
126.873108 0.081756 
126.90374 0.101742 
126.926277 0.078318 
126.951782 57.023926 
126.978317 0.038332 
127.869026 0.181241 
127.950897 0.277441 
127.955551 0.112683 
128.034042 0.026508 
128.871368 0.225838 
128.947525 2.609518 
128.955978 0.031176 
129.896591 0.028748 
131.896637 0.067387 
132.904633 0.934004 
132.956726 0.032798 
134.900269 0.667526 
134.918152 13.501436 
134.972076 0.15121 
135.415558 0.022998 
135.87532 0.02845 
136.536804 0.028142 
136.913879 0.53577 
136.92189 0.262214 
136.93898 0.088004 
136.951492 0.5524 
138.951797 0.979122 
140.967453 5.678268 
140.996948 0.02699 
141.938873 0.104081 
142.938507 1.021206 
142.963028 0.298103 
143.900452 1.203111 
145.730408 0.028513 
146.888519 0.029644 
147.543777 0.029925 
147.60701 0.030498 
148.349213 0.027177 
148.933823 2.615582 
150.89209 0.592287 
151.897034 0.103364 
152.893845 0.454713 
152.916733 0.288127 
154.894379 0.129779 
154.9832 0.064087 
156.890427 0.026322 
156.908401 1.37825 
156.945282 0.083647 
156.96228 1.471129 
157.844223 0.296815 
157.861633 0.039012 
157.916031 0.792905 
158.845535 0.079334 
158.92395 2.579198 
158.933426 0.796038 
159.841309 0.131819 
160.841187 2.15017 
161.023727 0.03379 
162.838135 1.700201 
162.949661 0.252313 
164.256531 0.032152 
164.916443 0.027868 
164.928741 0.132762 
164.946609 0.166128 
166.890427 1.671252 
166.90921 0.028241 
167.650238 0.023255 
167.901474 0.02918 
169.896988 2.135727 
170.871704 0.030743 
170.880676 0.059343 
170.889435 0.555336 
171.589066 0.030488 
171.887497 0.309361 
172.221954 0.032798 
172.867249 0.218067 
172.885178 0.223107 
172.939911 2.546393 
172.948013 0.105429 
172.957474 2.746656 
174.725204 0.025029 
174.910751 0.694941 
177.902832 0.032065 
178.944504 0.282364 
179.881989 0.415321 
180.906113 0.297874 
180.941498 0.072669 
182.659149 0.030132 
182.885239 0.334521 
182.902435 0.028971 
183.011322 0.466472 
183.231735 0.035588 
183.858719 0.02646 
184.875259 0.040878 
184.894791 0.029018 
184.918915 0.086776 
185.892319 0.320907 
186.855957 0.03529 
186.86647 0.150979 
187.864838 0.04798 
188.480774 0.030123 
189.88797 0.032046 
194.939362 0.060727 
196.901138 0.029279 
196.918732 0.672205 
196.928055 0.029399 
197.027054 0.814063 
198.029892 0.030254 
198.92746 0.046894 
204.861389 0.027294 
206.29071 0.027591 
210.88179 0.065077 
211.401199 0.029038 
212.878204 0.207413 
213.125259 0.027581 
214.899948 0.084174 
215.848953 0.030703 
217.832108 0.026365 
220.281464 0.295317 
220.832977 0.032628 
228.883133 0.693716 
230.894836 0.032391 
237.868484 0.037551 
239.971664 0.034423 
241.783707 0.027832 
244.878128 0.994761 
246.846649 0.029285 
250.027222 0.028567 
252.714554 0.030918 
254.857056 0.026643 
254.942337 0.033756 
255.028854 0.032393 
267.915314 0.025453 
274.824615 0.027048 
280.275696 0.034321 
281.153534 0.028183 
281.814301 0.030539 
281.985779 0.032212 
283.02536 0.118559 
283.111847 0.044874 
287.862488 0.030273 
289.311462 0.040462 
293.178833 0.322343 
294.529175 0.028505 
297.041901 0.03972 
297.44162 0.029715 
298.047211 0.068602 
298.476288 0.027183 
300.100098 0.027843 
311.84613 0.029677 
317.00824 0.036125 
323.969269 0.03328 
325.184937 0.074624 
336.981293 0.021918 
339.109955 0.025584 
344.840485 0.030926 
356.566345 0.022895 
374.904999 0.031539 
382.479095 0.031256 
389.914581 0.029502 
395.729736 0.028985 
402.045685 0.026482 
415.737122 0.030062 
450.540741 0.032122 
END IONS

