BEGIN IONS
PEPMASS=1096.61
CHARGE=1+
COMPOUNDNAME=N-[(3S,6S,9S,11R,15S,18S,20R,21R,24S,25S,26S)-3-[(1R)-2-carbamoyl-1-hydroxyethyl]-6-[(1S,2S)-1,2-dihydroxy-2-(4-hydroxyphenyl)ethyl]-11,20,21,25-tetrahydroxy-15-[(1R)-1-hydroxyethyl]-26-methyl-2,5,8,14,17,23-hexaoxo-1,4,7,13,16,22-hexaazatricyclo[22.3.0.0?,��]heptacosan-18-yl]-10,12-dimethyltetradecanamide
LIBRARYQUALITY=3
SMILES=N/A
INCHIKEY=DFQUSLQYURJBIT-MFKXNLKNSA-N
INCHI=InChI=1S/C51H82N8O17/c1-6-25(2)19-26(3)13-11-9-7-8-10-12-14-37(66)53-32-21-35(64)47(72)57-49(74)41-42(67)27(4)23-59(41)51(76)39(34(63)22-36(52)65)55-48(73)40(44(69)43(68)29-15-17-30(61)18-16-29)56-46(71)33-20-31(62)24-58(33)50(75)38(28(5)60)54-45(32)70/h15-18,25-28,31-35,38-44,47,60-64,67-69,72H,6-14,19-24H2,1-5H3,(H2,52,65)(H,53,66)(H,54,70)(H,55,73)(H,56,71)(H,57,74)/t25?,26?,27-,28+,31+,32-,33-,34+,35+,38-,39-,40-,41-,42-,43-,44-,47+/m0/s1
MSLEVEL=2
SOURCE_INSTRUMENT=N/A-ESI-QFT
FILENAME=library_mgf.mgf
SEQ=*..*
IONMODE=positive
ORGANISM=MONA
NAME=N-[(3S,6S,9S,11R,15S,18S,20R,21R,24S,25S,26S)-3-[(1R)-2-carbamoyl-1-hydroxyethyl]-6-[(1S,2S)-1,2-dihydroxy-2-(4-hydroxyphenyl)ethyl]-11,20,21,25-tetrahydroxy-15-[(1R)-1-hydroxyethyl]-26-methyl-2,5,8,14,17,23-hexaoxo-1,4,7,13,16,22-hexaazatricyclo[22.3.0.0?,��]heptacosan-18-yl]-10,12-dimethyltetradecanamide [M+NH4]+
PI=MoNA
DATACOLLECTOR=MoNA:VF-NPL-QEHF024873
PUBMED=N/A
SUBMITUSER=mwang87
TAGS=
SPECTRUMID=CCMSLIB00004715936
SCANS=24873
76.716896 0.09133 
77.365311 0.09068 
78.408951 0.069402 
79.573296 0.073907 
80.049591 1.197925 
81.069893 0.659674 
81.083122 0.065088 
81.410873 0.082183 
81.697906 0.07471 
82.028793 0.813486 
82.065186 8.022984 
82.091782 0.078698 
83.060448 0.582335 
83.068398 0.08479 
83.08577 0.113794 
84.044472 38.648293 
85.039803 0.089047 
85.047798 0.871275 
86.060112 100.0 
86.063095 1.630127 
87.034134 0.084292 
87.063461 3.532428 
89.959328 0.08252 
91.054337 1.168065 
91.577408 0.080732 
93.069595 0.058254 
94.028862 1.142411 
94.065208 1.224118 
95.060562 0.091696 
95.085602 0.895909 
96.044449 1.882633 
96.53318 0.085888 
97.319382 0.078859 
98.060051 1.060464 
99.055382 0.708305 
99.439125 0.069943 
100.03936 7.990012 
100.075752 53.057804 
101.070992 0.352952 
101.079132 2.554089 
101.386116 0.078311 
102.055092 1.13407 
102.813988 0.076439 
104.448715 0.079971 
106.065216 0.303013 
107.049179 5.58409 
107.766144 0.076187 
108.04425 0.114147 
108.119606 0.065241 
108.987434 0.060774 
108.999695 0.070707 
109.039719 2.73056 
109.101166 0.235605 
110.023705 2.023391 
110.060081 0.517518 
110.863503 0.070099 
111.055351 3.033223 
112.03936 2.122515 
112.075821 0.862649 
112.200996 0.05018 
113.01918 0.075435 
113.070908 3.491743 
114.055092 0.665959 
114.522125 0.074581 
116.851692 0.075875 
116.959908 0.099575 
118.065002 0.185198 
118.287682 0.091513 
119.04921 4.322716 
121.076164 0.57197 
122.060104 0.700566 
123.055283 1.889177 
123.091812 0.188121 
123.872002 0.072666 
124.075699 0.245068 
125.070953 1.179759 
125.360413 0.083435 
126.054489 0.071111 
127.050247 0.433617 
128.070953 0.056555 
130.049774 0.110766 
130.558273 0.051656 
130.971985 0.087873 
131.049164 0.583541 
131.081543 0.582375 
131.42865 0.063401 
134.06012 1.080336 
135.055313 0.092326 
136.075806 0.82047 
136.52507 0.08997 
136.667389 0.085334 
137.03476 0.087409 
137.070908 0.338028 
138.054901 0.107232 
138.183395 0.077325 
139.050369 1.059177 
139.086639 1.355212 
139.309952 0.097674 
139.855408 0.070974 
140.070786 0.150319 
140.432602 0.085039 
141.065857 4.145309 
142.115005 0.072346 
142.652069 0.077395 
143.081528 0.621447 
143.146347 0.079197 
143.280792 0.069024 
145.097183 7.47365 
146.060181 3.813889 
146.100754 0.085619 
147.044128 7.273123 
147.05574 0.170999 
148.075943 0.588893 
149.07103 3.108698 
150.055161 0.107362 
151.050323 2.79085 
151.086548 0.284576 
155.081238 0.068811 
157.097733 0.129419 
158.340134 0.084905 
160.07579 0.555274 
161.07132 0.286657 
161.515137 0.086572 
163.037949 0.068435 
163.086731 0.18153 
164.070648 1.297249 
165.065857 2.032922 
165.102356 0.078886 
165.257355 0.079029 
167.081543 4.730295 
169.060837 0.946317 
169.097778 0.162984 
171.075958 0.097128 
174.055069 4.600144 
175.039139 5.606018 
175.086899 0.068331 
176.070312 0.07856 
177.029785 0.050583 
177.066376 0.080598 
179.046616 0.058612 
179.081314 0.12072 
180.047516 0.069976 
181.097076 4.021108 
182.903259 0.072451 
183.076981 0.237522 
185.470963 0.079247 
185.952286 0.076807 
187.039154 0.048976 
188.070587 0.289188 
188.469971 0.051113 
191.081619 1.497342 
191.283539 0.080905 
192.066162 0.251891 
193.09729 0.382489 
195.07634 0.454079 
195.112 0.085098 
197.972885 0.080705 
199.086533 0.084364 
200.507416 0.072513 
201.076263 0.080229 
203.081451 2.59194 
204.065964 0.176925 
209.0923 2.706215 
212.069656 0.120836 
213.295898 0.082623 
216.439423 0.075646 
218.521851 0.095101 
219.42334 0.074408 
219.593277 1.200563 
219.602036 0.577483 
227.081924 0.169111 
227.126114 0.093163 
229.097763 0.2024 
231.176071 0.070318 
232.161118 0.075152 
233.808472 0.085705 
237.086975 0.829551 
245.840332 0.071015 
247.406647 0.083787 
249.744949 0.087263 
255.077286 0.081398 
256.060974 0.102936 
258.436035 0.055676 
259.108032 1.128005 
266.992798 0.05376 
273.088501 0.07514 
281.732208 0.095248 
291.108368 0.074961 
302.065582 0.079991 
303.787933 0.070828 
304.178192 0.06903 
305.526123 0.085943 
306.05835 0.074487 
310.07074 0.077468 
315.948395 0.099789 
316.936401 0.054574 
318.542084 0.078389 
320.047302 0.100333 
322.162781 0.058633 
323.103638 0.070089 
328.983307 0.09625 
329.318726 0.075158 
338.761383 0.103052 
343.424316 0.069234 
355.286652 0.064887 
356.877197 0.073099 
358.610565 0.076136 
365.135742 0.080402 
376.474976 0.076809 
381.546844 0.103903 
385.181396 0.105912 
390.652191 0.096997 
391.088104 0.103585 
395.701508 0.050705 
400.005981 0.080238 
400.881775 0.08251 
405.53894 0.101211 
409.890717 0.109911 
412.417877 0.083864 
413.904022 0.084643 
437.913635 0.064691 
458.735901 0.087624 
474.75412 0.074298 
487.618774 0.080023 
510.159912 0.079435 
531.864014 0.099917 
532.249634 0.07068 
550.704041 0.067163 
582.264343 0.092804 
593.739563 0.074041 
599.813477 0.075224 
604.230896 0.07412 
604.407349 0.054946 
608.602356 0.082079 
615.719849 0.122644 
646.422913 0.100446 
647.160645 0.081286 
659.836121 0.101168 
702.939392 0.115205 
716.014832 0.078511 
735.92572 0.123714 
754.357544 0.078078 
781.45575 0.073075 
837.0354 0.085519 
926.797241 0.103284 
933.158875 0.081775 
934.963867 0.090744 
1005.081177 0.115502 
1008.170959 0.085699 
1039.327881 0.090135 
1059.711914 0.098358 
1062.5979 0.083672 
1078.905396 0.082038 
1089.585693 0.094623 
1104.599487 0.082476 
END IONS

