BEGIN IONS
PEPMASS=1200.83
CHARGE=1+
COMPOUNDNAME=CYCLOSPORINE
LIBRARYQUALITY=3
SMILES=N/A
INCHIKEY=PMATZTZNYRCHOR-KMSBSJHKSA-N
INCHI=InChI=1S/C62H111N11O12/c1-25-27-28-40(15)52(75)51-56(79)65-43(26-2)58(81)67(18)33-48(74)68(19)44(29-34(3)4)55(78)66-49(38(11)12)61(84)69(20)45(30-35(5)6)54(77)63-41(16)53(76)64-42(17)57(80)70(21)46(31-36(7)8)59(82)71(22)47(32-37(9)10)60(83)72(23)50(39(13)14)62(85)73(51)24/h25,27,34-47,49-52,75H,26,28-33H2,1-24H3,(H,63,77)(H,64,76)(H,65,79)(H,66,78)/b27-25+/t40-,41?,42?,43?,44?,45?,46?,47?,49?,50?,51?,52-/m1/s1
MSLEVEL=2
SOURCE_INSTRUMENT=N/A-ESI-QFT
FILENAME=library_mgf.mgf
SEQ=*..*
IONMODE=negative
ORGANISM=MONA
NAME=CYCLOSPORINE [M-H]-
PI=MoNA
DATACOLLECTOR=MoNA:VF-NPL-QEHF028191
PUBMED=N/A
SUBMITUSER=mwang87
TAGS=
SPECTRUMID=CCMSLIB00004721772
SCANS=28191
84.007668 11.94068 
84.044067 3.307502 
85.374863 0.303366 
86.027 0.463808 
86.5765 0.584063 
87.05497 44.738865 
88.038986 11.658672 
88.342209 0.446764 
88.362396 0.376467 
88.817513 0.532951 
90.073318 0.332472 
90.348404 0.644994 
91.739204 0.49754 
91.935661 0.277459 
92.350662 0.670036 
93.880417 0.342848 
94.171707 0.325504 
96.421394 0.429987 
97.039299 43.831699 
97.66906 0.349201 
98.023369 5.021336 
98.059692 0.881737 
98.096039 0.403266 
99.055038 1.630822 
99.080162 0.519815 
99.460403 0.313896 
99.61499 0.474371 
99.657829 0.459467 
101.070648 99.862823 
102.073875 0.288845 
103.740715 0.399804 
104.16349 0.281618 
104.491852 0.403012 
104.679512 0.661491 
107.412514 0.329022 
110.010628 0.384416 
110.023193 0.683852 
111.018677 4.343879 
111.055016 20.044962 
111.390076 0.328596 
111.464058 0.439959 
112.026421 21.219177 
112.039001 5.125114 
112.075516 4.02775 
112.519035 0.541295 
112.832436 0.292967 
113.034264 6.401751 
113.070663 24.395544 
114.21492 0.20507 
114.69043 0.497392 
114.901344 0.585483 
115.086319 100.0 
116.089661 0.493138 
116.805458 0.494946 
121.215836 0.53206 
122.022728 0.543003 
122.669785 0.307476 
123.178535 0.47563 
124.039207 2.852364 
124.196594 0.557846 
125.034302 50.65601 
125.070717 5.549326 
126.042175 17.436876 
126.091042 3.680038 
126.366333 0.526618 
126.59404 0.546909 
127.050079 18.040625 
127.086342 6.986134 
127.378174 0.532194 
129.101974 34.848881 
129.279556 0.253008 
129.747269 0.54365 
130.928558 0.640617 
131.135315 0.586385 
131.491196 0.340159 
131.970703 0.247875 
134.007065 0.516123 
134.645584 0.326787 
137.070908 0.298427 
137.670197 0.322223 
138.05481 0.272183 
139.050034 29.205221 
140.057846 3.957537 
140.106461 0.573344 
141.065704 11.746492 
142.752136 0.28164 
143.117706 48.914665 
144.1017 10.032303 
144.46228 0.32271 
144.57164 0.513116 
146.328262 0.33809 
146.549545 0.30601 
152.070511 7.890973 
153.029312 1.882305 
153.065735 8.587913 
153.102264 7.867103 
153.633286 0.340543 
154.0737 3.690444 
154.086273 1.879009 
155.081467 46.212975 
156.623413 0.45379 
157.133469 19.351738 
160.86795 0.482326 
164.338242 0.301389 
165.102173 0.293179 
166.086365 2.739139 
167.081512 28.975948 
167.118118 0.327587 
168.089188 2.091477 
168.690964 0.673788 
168.861176 0.47888 
169.097153 10.311628 
169.13356 0.279702 
172.108124 26.553148 
173.690201 0.316786 
176.062515 0.483715 
180.101715 3.614406 
181.097229 40.164879 
181.98999 0.566545 
182.10498 26.842218 
182.11824 1.202472 
183.112961 0.792998 
186.123856 18.0865 
186.132263 0.27955 
193.912903 0.461491 
194.118347 0.297874 
195.11293 2.511562 
197.128632 27.017483 
201.353348 0.487465 
201.819962 0.343225 
202.62149 0.321957 
205.781082 0.27175 
207.149368 0.606882 
208.108215 1.553873 
209.092422 41.211708 
209.128922 0.301446 
209.219604 0.347687 
210.087799 1.562838 
210.14888 1.222419 
214.352478 0.480248 
215.359833 0.452778 
219.310638 0.397298 
219.765747 7.319632 
219.789795 1.113711 
222.877777 0.37748 
224.164749 1.373209 
224.877808 0.451395 
228.170197 0.370889 
235.323959 0.552093 
236.199783 0.453692 
237.202988 0.480254 
237.70752 0.578937 
238.637115 0.36517 
240.476044 0.384485 
247.659241 0.258663 
249.136642 0.49711 
251.442184 0.370814 
252.134995 1.146199 
255.87178 0.487393 
256.203339 0.398687 
267.215393 0.25135 
268.166168 0.329321 
273.985321 0.546498 
282.182037 4.341314 
282.429962 0.515623 
284.103912 0.369747 
284.571716 0.698128 
289.802643 0.537699 
304.598114 0.315275 
311.328339 0.536779 
314.5448 0.49738 
317.263824 0.487431 
318.945099 0.291418 
323.26944 0.466509 
323.748108 0.44753 
324.129944 0.353405 
330.648438 0.379909 
339.656219 0.521249 
351.57962 0.381774 
355.304901 0.604619 
358.555389 0.522622 
389.079529 0.682618 
394.378906 0.541418 
395.554291 0.504873 
398.546326 0.617304 
402.863678 0.373506 
409.546478 0.315086 
431.355225 0.383486 
441.397766 0.317319 
444.896851 0.252966 
448.920135 0.48259 
452.866211 0.298637 
453.002258 0.48469 
458.977142 0.562667 
461.567474 0.507035 
462.149536 0.605857 
474.716064 0.41402 
487.925079 0.285457 
502.329559 0.728485 
520.539307 0.461452 
524.565613 0.311848 
526.832581 0.540804 
544.324524 0.517349 
547.205444 0.511667 
561.363098 0.465147 
566.589844 0.611739 
569.089111 0.538238 
574.623169 0.662237 
623.291565 0.569867 
623.598206 0.508494 
631.724915 0.366904 
634.568726 0.593119 
636.39093 0.499955 
660.733032 0.494747 
681.332581 0.974292 
688.381409 0.358465 
706.083313 0.485285 
715.116455 0.698135 
715.298767 0.689713 
734.181885 0.31751 
736.717834 0.629773 
737.107056 0.328425 
743.279968 0.307938 
755.260864 0.462784 
775.309326 0.37466 
784.958496 0.418073 
785.656067 0.661824 
799.925964 0.363395 
803.081787 0.313416 
810.969238 0.580685 
816.626099 0.325476 
842.50116 0.478418 
881.14502 0.381626 
910.938477 0.761015 
1006.471313 0.616199 
1104.217041 0.619888 
1147.828979 0.369926 
1191.031372 0.54677 
END IONS

