BEGIN IONS
PEPMASS=1914.5
CHARGE=1+
COMPOUNDNAME=Teichomycin
LIBRARYQUALITY=3
SMILES=N/A
INCHIKEY=BJNLLBUOHPVGFT-QRZIFLFXSA-N
INCHI=InChI=1S/C88H97Cl2N9O33/c1-3-4-5-6-7-8-9-10-60(108)94-68-74(113)71(110)58(32-101)129-87(68)132-78-55-26-40-27-56(78)126-52-18-14-38(24-47(52)90)77(131-86-67(92-34(2)103)73(112)70(109)57(31-100)128-86)69-84(121)98-66(85(122)123)45-29-42(105)30-54(127-88-76(115)75(114)72(111)59(33-102)130-88)61(45)44-23-37(13-15-49(44)106)63(81(118)99-69)96-83(120)65(40)97-82(119)64-39-21-41(104)28-43(22-39)124-53-25-36(12-16-50(53)107)62(91)80(117)93-48(79(116)95-64)20-35-11-17-51(125-55)46(89)19-35/h11-19,21-30,48,57-59,62-77,86-88,100-102,104-107,109-115H,3-10,20,31-33,91H2,1-2H3,(H,92,103)(H,93,117)(H,94,108)(H,95,116)(H,96,120)(H,97,119)(H,98,121)(H,99,118)(H,122,123)/t48-,57-,58-,59-,62-,63-,64+,65-,66-,67-,68-,69+,70-,71-,72-,73-,74-,75+,76+,77-,86+,87+,88+/m1/s1
MSLEVEL=2
SOURCE_INSTRUMENT=N/A-ESI-QFT
FILENAME=library_mgf.mgf
SEQ=*..*
IONMODE=positive
ORGANISM=MONA
NAME=Teichomycin [M+K]+
PI=MoNA
DATACOLLECTOR=MoNA:VF-NPL-QEHF027955
PUBMED=N/A
SUBMITUSER=mwang87
TAGS=
SPECTRUMID=CCMSLIB00004721536
SCANS=27955
136.815308 0.04905 
137.132462 0.41272 
138.04863 0.498786 
138.054916 70.541481 
139.058243 5.401173 
144.06546 95.435371 
145.063004 0.288109 
145.068802 6.246686 
146.069611 0.163505 
147.091583 0.287556 
147.597397 0.068189 
148.869766 0.045934 
149.51207 0.04565 
155.043182 0.035847 
162.075882 0.403756 
164.460236 0.049156 
166.291351 0.041075 
168.065384 12.48178 
169.063812 0.042701 
169.069031 0.241066 
172.169373 1.107788 
173.173508 0.050581 
178.184097 0.045732 
183.104568 0.044072 
183.557465 0.05637 
185.678925 0.037385 
186.075928 8.13839 
187.079285 0.157475 
190.243118 0.03943 
190.430237 0.038749 
197.059753 0.576756 
204.086563 10.315524 
205.089859 0.293927 
210.489304 0.048066 
212.487961 0.069244 
213.054565 0.783481 
214.086334 0.074066 
215.070084 2.580968 
224.069931 0.043222 
225.04335 0.096347 
225.054276 0.040958 
226.068893 0.129308 
228.415634 0.049179 
236.164337 0.103753 
238.049774 0.042827 
238.180054 2.063494 
240.065445 5.534533 
241.068848 0.114406 
241.097382 0.139691 
242.081024 10.934965 
243.084564 1.123278 
243.275467 0.051306 
244.07959 0.066729 
245.461609 0.044067 
247.165466 0.057269 
247.889389 0.044261 
248.164352 1.535336 
249.995895 0.055253 
250.179977 24.717894 
251.183517 3.967284 
252.065155 0.25813 
253.049576 0.57079 
255.920258 0.041684 
257.078735 0.052644 
257.091888 3.493181 
258.094635 0.131483 
259.107941 0.821808 
264.062927 0.095114 
264.195618 5.365516 
265.199677 0.422848 
267.665924 0.039159 
268.060394 0.749913 
277.615479 0.07196 
279.073822 0.065019 
280.061981 0.059796 
280.190887 0.731359 
281.030884 0.0583 
281.090027 0.081707 
285.086884 1.884913 
286.070831 1.03207 
290.382141 0.046781 
296.185394 0.051223 
298.20105 5.889428 
299.102692 0.418395 
299.204651 0.692277 
303.097229 8.356819 
304.100647 1.217134 
304.164093 0.227669 
304.187683 0.514792 
308.054657 0.251701 
312.216949 0.558143 
314.965027 0.044485 
315.02655 0.096413 
316.21167 1.982904 
316.673065 0.046323 
322.950745 0.119858 
323.548828 0.052931 
325.630981 0.051621 
329.07663 9.682433 
330.080292 1.128086 
330.228363 0.053614 
336.094635 0.054896 
336.277649 0.074099 
338.111359 2.887713 
338.195526 0.061362 
339.115906 0.066402 
340.656433 0.065848 
342.1091 0.383955 
343.092163 0.62514 
349.079987 0.574075 
351.176666 0.061371 
360.119446 1.227604 
365.074463 1.626015 
365.989532 0.053364 
366.105652 6.006634 
367.089233 0.350559 
367.111755 0.280234 
371.06192 0.069137 
371.259308 0.04617 
373.04541 0.053374 
382.102112 0.996972 
386.40625 0.042159 
391.167755 0.065309 
393.068237 0.12184 
410.096283 0.604943 
433.717743 0.041532 
443.143738 0.342629 
446.095245 0.03947 
479.640686 0.074334 
481.410767 0.061343 
491.46286 0.056622 
500.16568 0.178257 
501.293091 0.062211 
502.973236 0.04417 
507.205841 0.056668 
518.773926 0.064733 
525.756958 0.052164 
528.158997 0.722347 
529.030334 0.047162 
537.910034 0.054955 
558.01825 0.06854 
573.021912 0.063882 
595.382751 0.039331 
620.23407 0.04286 
673.271301 0.062661 
685.000427 0.046207 
690.072998 0.078281 
696.799866 0.046298 
706.113892 0.197749 
708.116455 0.042739 
713.497253 0.179122 
713.579102 0.089485 
713.757568 0.049006 
713.84314 0.390465 
713.906189 0.494768 
734.108337 0.562236 
736.107788 0.268033 
738.104553 0.245033 
739.106934 0.065204 
740.099243 0.094135 
749.11908 0.123013 
750.112 0.049472 
751.12915 0.672481 
752.128418 0.315423 
753.130737 0.581993 
760.083862 0.179494 
761.115295 0.406844 
762.100281 0.391634 
763.112244 0.313164 
764.105652 0.07444 
774.759094 0.062138 
777.113098 4.38326 
778.113159 1.398582 
779.115234 2.19004 
780.118286 0.508745 
781.12146 0.288784 
788.081421 1.049946 
789.109192 2.995537 
790.108093 0.402994 
791.107666 0.698845 
792.104919 0.171598 
793.112305 0.083372 
801.113159 0.075642 
802.137085 0.148754 
805.105286 9.846592 
806.113159 3.382215 
807.10675 3.807059 
808.111206 1.063357 
809.110535 0.608091 
811.06488 0.051493 
811.109253 0.080774 
814.05658 0.05274 
817.113464 0.143724 
818.134399 1.406211 
818.773438 0.073811 
819.129456 0.482586 
820.128052 0.215125 
821.934998 0.059238 
822.134338 0.147141 
823.106934 0.231291 
825.029785 0.063486 
825.117004 0.089241 
826.03479 0.048773 
827.032043 0.112634 
829.050537 0.050235 
832.119629 1.440159 
833.102783 6.007136 
834.110901 3.161964 
835.1026 2.809614 
836.110901 0.730197 
837.105896 0.213479 
840.047302 0.047684 
844.118958 0.145506 
845.113892 0.141839 
846.129883 0.370546 
847.129211 0.066397 
848.128113 0.068189 
849.064514 0.264104 
850.129883 5.70538 
851.12854 2.020921 
852.126648 1.850724 
853.131165 0.278172 
854.116943 0.078018 
855.080627 0.349577 
856.099854 0.208574 
857.083374 0.558514 
858.082397 0.157906 
862.130066 0.41851 
864.133301 0.113321 
865.1297 0.065662 
866.101318 0.068138 
869.081055 0.075795 
872.108704 0.242179 
874.109985 0.147827 
875.352722 0.069584 
880.134399 0.084328 
906.09552 1.256654 
907.096436 0.502159 
908.091431 1.179882 
909.096802 0.234429 
923.119507 0.078737 
924.118286 0.100664 
925.120667 0.190858 
926.124268 0.085334 
931.132324 0.08256 
945.137329 0.069826 
946.166321 0.075592 
956.134216 0.071254 
957.145325 0.068506 
959.159302 0.060409 
960.151062 0.053095 
962.153992 0.052262 
973.156067 0.046645 
975.166931 0.198336 
977.178284 0.067566 
985.162781 0.07623 
986.146179 0.071824 
987.148987 0.054821 
988.166382 0.06137 
989.177551 0.058565 
990.181213 0.065233 
991.171082 0.10347 
1001.16272 0.673934 
1002.17334 0.487455 
1003.169983 0.631608 
1004.171753 0.316824 
1005.182495 0.292221 
1006.195312 0.164015 
1007.150513 0.060815 
1009.212708 0.173194 
1013.146484 0.065596 
1015.160828 0.052766 
1016.180054 0.057963 
1017.168396 0.063769 
1018.186157 0.698818 
1019.186951 0.484977 
1020.186707 1.050087 
1021.205994 1.248886 
1022.202576 0.505635 
1023.203674 0.12504 
1024.185303 0.068058 
1029.158203 0.45478 
1030.170288 0.676566 
1031.165649 0.642847 
1032.163086 0.4374 
1033.175903 0.070966 
1034.192749 0.290408 
1035.202148 0.317814 
1036.192505 0.6045 
1037.208862 2.332523 
1038.208252 0.786467 
1039.202637 0.261804 
1040.198364 0.262955 
1041.172607 0.171859 
1042.18396 0.320012 
1044.186768 0.564072 
1045.181274 0.343466 
1046.17627 1.510567 
1047.183472 0.996017 
1048.181274 1.262589 
1049.180908 0.524095 
1050.177612 0.373961 
1051.180298 0.169294 
1052.168945 0.156336 
1053.178711 0.07628 
1056.158203 0.486898 
1057.1521 1.270132 
1058.158081 0.906362 
1059.153198 0.503985 
1060.185181 0.2974 
1061.204224 0.441525 
1062.185059 1.98645 
1063.193481 2.440224 
1063.323364 0.071153 
1064.199097 3.204438 
1065.208008 3.826843 
1066.200684 2.479522 
1067.203003 1.148417 
1068.197021 0.275778 
1069.193604 0.898562 
1070.182739 0.765757 
1071.181641 0.613605 
1072.175293 1.208429 
1073.17334 0.961915 
1074.175781 5.70347 
1075.175781 3.435547 
1076.168579 3.677937 
1077.171021 2.184019 
1078.170288 0.930626 
1079.207031 1.115186 
1080.189697 1.725008 
1081.204956 2.277492 
1082.207764 1.483618 
1083.20752 1.097628 
1084.189087 0.314043 
1085.188965 1.931953 
1086.185791 2.126976 
1087.196533 2.887004 
1088.194336 2.010921 
1089.195679 1.465778 
1090.174561 2.838094 
1091.185669 3.198059 
1092.174805 3.689879 
1093.178955 3.01212 
1094.171875 2.353241 
1095.177734 0.914718 
1096.159912 1.389041 
1097.197144 2.319368 
1098.186157 1.876374 
1099.197144 1.921648 
1100.163452 1.765305 
1101.167969 1.995189 
1102.152466 2.51494 
1103.198486 3.057366 
1104.120239 0.750191 
1104.21875 1.88237 
1105.101562 0.07049 
1105.212158 3.492117 
1106.103149 0.138513 
1106.216064 2.149115 
1107.205322 4.021443 
1108.200684 3.590618 
1109.198486 4.347075 
1110.194946 3.144718 
1111.195068 2.08213 
1112.197998 1.414215 
1113.186768 7.540269 
1114.18103 7.326887 
1115.190308 7.491939 
1116.187988 4.387552 
1117.185669 3.48497 
1118.159302 4.238668 
1119.164429 4.574889 
1120.152832 6.589036 
1121.160278 5.772703 
1122.147095 4.52745 
1123.153687 2.401675 
1124.144897 0.724285 
1125.213623 6.889059 
1126.218628 4.582867 
1127.210083 6.333941 
1128.209961 3.661085 
1129.197021 2.967491 
1130.214844 6.46071 
1131.200806 15.570838 
1132.208374 10.667579 
1133.202515 6.308024 
1134.203735 3.972492 
1135.187988 5.101746 
1136.186035 4.343116 
1137.177734 4.872237 
1138.179443 3.512054 
1139.177124 2.682946 
1140.175293 1.51092 
1141.181274 5.763141 
1142.178101 3.702588 
1143.179321 3.507799 
1144.179932 1.944033 
1145.158691 3.711778 
1146.146973 3.624115 
1147.169434 5.985706 
1148.231323 10.344656 
1149.10498 0.165038 
1149.226318 5.0855 
1150.112915 0.272988 
1150.227661 3.123156 
1151.108398 0.237007 
1151.22229 1.316898 
1152.110962 0.072906 
1152.213379 1.162457 
1153.206543 3.683289 
1154.203369 2.2259 
1155.199951 2.695138 
1156.198608 1.653952 
1157.173462 5.439046 
1158.190674 19.976749 
1159.19165 30.374578 
1160.193481 18.281771 
1161.191162 12.609467 
1162.191162 8.193591 
1163.164551 39.355057 
1164.167236 29.047085 
1165.161499 41.516621 
1166.16333 23.440727 
1167.162109 12.436759 
1168.163086 4.916815 
1169.161499 0.896993 
1174.201416 7.078027 
1175.187378 51.363201 
1176.211914 100.0 
1177.213623 53.085083 
1178.210938 34.890808 
1179.213379 19.442619 
1180.199951 19.297255 
1181.197388 12.239275 
1182.189331 12.874036 
1183.187744 7.586973 
1184.18396 3.820205 
1185.165771 2.976535 
1186.167847 0.74171 
1187.166626 1.639742 
1188.2052 2.298695 
1189.201538 1.806415 
1190.207275 2.074029 
1191.201172 0.989167 
1192.213135 32.835041 
1193.216919 18.078371 
1194.213989 11.602214 
1195.214111 6.346508 
1196.21167 3.594229 
1197.208252 0.892597 
1198.201782 0.41451 
1199.197754 0.111755 
1200.214478 0.115645 
1201.19812 0.104243 
1202.195557 3.562019 
1203.185059 6.128267 
1204.19397 5.998955 
1205.191284 4.119717 
1206.192871 3.127515 
1207.189331 1.06294 
1208.194336 0.23887 
1210.123901 0.066228 
1211.130371 0.123993 
1212.134033 0.068829 
1218.177856 0.197633 
1219.184692 0.150109 
1220.207642 30.94767 
1221.210693 18.440763 
1222.20813 12.939665 
1223.208374 7.139768 
1224.206787 4.146808 
1225.208984 1.55365 
1226.194458 0.106196 
1232.193359 0.099985 
1233.218384 0.197466 
1234.205444 0.453795 
1236.230835 0.11514 
1238.126343 0.27629 
1239.119751 0.089348 
1240.130249 0.09285 
1248.241455 0.157507 
1250.244507 0.084697 
1253.259155 0.087532 
1262.255249 0.100974 
1267.244507 0.086319 
1277.250732 0.199344 
1278.252686 0.073607 
1290.282349 0.63687 
1291.279297 0.464671 
1292.27063 1.167324 
1293.257812 1.865588 
1294.261719 1.022469 
1295.259766 0.466019 
1303.245361 0.267593 
1306.274414 1.322495 
1307.303467 3.209754 
1308.301758 2.248322 
1309.287964 1.164201 
1310.276001 4.985359 
1311.2771 2.903308 
1312.274414 1.524524 
1313.270874 0.327162 
1317.261108 0.218206 
1318.272095 1.271871 
1319.265381 0.636078 
1320.258667 4.499205 
1321.253418 5.306881 
1322.255493 3.967655 
1323.272095 3.123336 
1324.273071 2.146572 
1325.241089 1.417947 
1326.221313 0.407761 
1327.214355 0.611336 
1328.224487 0.245702 
1333.287231 0.12497 
1334.274658 4.581319 
1335.288696 4.624988 
1336.281372 3.604837 
1337.253174 3.886618 
1338.270508 22.962765 
1339.272949 13.940874 
1340.269775 9.206097 
1341.268921 5.1375 
1342.261841 4.01777 
1343.255005 2.330551 
1344.247192 1.712794 
1345.243286 0.629621 
1346.247925 0.443749 
1347.23584 0.140239 
1350.269775 1.650789 
1351.299683 6.726717 
1352.297729 4.732949 
1353.296143 2.800017 
1354.271118 6.862272 
1355.270752 4.416502 
1356.268433 2.75282 
1357.270508 1.232661 
1358.266602 0.55385 
1359.265747 0.085373 
1361.270752 0.819821 
1362.271484 8.163697 
1363.275391 5.512135 
1364.264893 4.628337 
1365.256226 3.9363 
1366.25708 2.726638 
1367.255981 1.561051 
1368.254761 0.316316 
1377.279175 0.347528 
1378.267578 5.293893 
1379.295898 51.275562 
1380.299316 34.206375 
1381.296143 21.591938 
1382.273315 29.715179 
1383.27478 20.001877 
1384.265747 13.190759 
1385.265015 7.572192 
1386.258301 4.413043 
1387.260254 2.015622 
1388.258423 0.436866 
1391.297363 0.542779 
1392.291016 0.438941 
1393.293213 0.69968 
1394.284302 0.407895 
1395.291016 5.654076 
1396.291138 4.054736 
1397.28772 2.445243 
1398.290405 1.256451 
1399.29541 0.257452 
1403.301758 0.099261 
1405.278198 1.464157 
1406.267212 2.53893 
1407.27356 1.73028 
1408.277832 0.627307 
1409.272583 0.331051 
1410.271118 0.228148 
1423.287354 15.639501 
1424.289185 11.087126 
1425.287476 8.64762 
1426.28772 5.315777 
1427.286011 3.110893 
1428.289551 0.818739 
1497.338379 0.404787 
1498.338135 0.112024 
1513.35144 1.458776 
1514.353149 0.689795 
1515.355469 0.352743 
1524.323975 1.412791 
1525.327271 0.848162 
1526.329956 0.376375 
1540.306152 0.18501 
1541.348511 18.101334 
1542.350952 13.757855 
1543.349121 10.565217 
1544.351074 6.734895 
1545.349487 3.871576 
1546.352295 1.931467 
1547.360718 0.08238 
1557.347168 0.69357 
1558.349854 0.188408 
1561.352905 0.129486 
1567.331421 0.9361 
1568.325562 1.325687 
1569.32605 0.836063 
1570.32959 0.250273 
1585.34021 16.177505 
1586.342407 13.066793 
1587.341187 12.054612 
1588.338013 8.314327 
1589.340942 4.665596 
1590.342163 2.431482 
1591.342896 0.14238 
1735.11145 0.09072 
1823.198364 0.570313 
1824.19043 1.015534 
1825.184082 1.279719 
1826.173828 0.089111 
1897.225708 0.066638 
1913.257812 2.570184 
1914.252319 3.447436 
1915.244263 2.949934 
1916.246704 0.271821 
END IONS

