BEGIN IONS
PEPMASS=499.324
CHARGE=1+
COMPOUNDNAME=MUPIROCIN
LIBRARYQUALITY=3
SMILES=N/A
INCHIKEY=MINDHVHHQZYEEK-HBBNESRFSA-N
INCHI=InChI=1S/C26H44O9/c1-16(13-23(30)33-11-9-7-5-4-6-8-10-22(28)29)12-20-25(32)24(31)19(15-34-20)14-21-26(35-21)17(2)18(3)27/h13,17-21,24-27,31-32H,4-12,14-15H2,1-3H3,(H,28,29)/b16-13+/t17-,18-,19-,20-,21-,24+,25-,26-/m0/s1
MSLEVEL=2
SOURCE_INSTRUMENT=N/A-Linear Ion Trap
FILENAME=library_mgf.mgf
SEQ=*..*
IONMODE=negative
ORGANISM=MONA
NAME=MUPIROCIN M-H
PI=MoNA
DATACOLLECTOR=MoNA:VF-NPL-LTQ007764
PUBMED=N/A
SUBMITUSER=mwang87
TAGS=
SPECTRUMID=CCMSLIB00004691031
SCANS=6652
127.010002 9.14009 
173.050003 100.0 
227.050003 0.762202 
263.079987 1.178234 
277.089996 7.25844 
289.100006 3.195851 
295.100006 2.563936 
307.100006 4.744184 
415.179993 1.056835 
437.209991 0.990799 
469.230011 16.662012 
END IONS

