BEGIN IONS
TITLE=Scan Number: 2566
PEPMASS=634.29199
CHARGE=1+
COMPOUNDNAME=Penitrem A_120257
LIBRARYQUALITY=2
SMILES=O[C@@]1(CC2)[C@@](CC[C@@]3([H])[C@]1(O4)[C@H]4[C@@H](O)[C@](C(C)=C)([H])O3)(C)[C@]5(C)[C@]2([H])[C@H]6C7=C5NC8=CC(Cl)=C9C([C@@]([C@](C(C)(C)O6)([H])C%10)(O)[C@@]%10([H])C(C9)=C)=C87
INCHIKEY=JDUWHZOLEDOQSR-JKPSMKLGSA-N
INCHI=N/A
MSLEVEL=2
SOURCE_INSTRUMENT=LC-ESI-qToF
FILENAME=P1_C12_conc_GA12_01_2418.mzXML
SEQ=*..*
NOTES=
IONMODE=Positive
ORGANISM=GNPS-LIBRARY
NAME=Penitrem A_120257 M+H
SPECTRUMID=CCMSLIB00000478451
ACTIVATION=CID
INSTRUMENT=ion trap
SCANS=2566
97.068619 388.0 
109.067078 444.0 
115.051117 392.0 
119.085747 500.0 
121.062408 384.0 
123.081123 340.0 
129.070419 520.0 
131.085938 528.0 
133.098526 388.0 
135.079224 472.0 
137.059464 676.0 
137.094818 568.0 
142.082779 280.0 
143.083359 480.0 
145.064575 456.0 
145.098694 736.0 
147.081009 716.0 
149.061905 484.0 
149.094162 700.0 
151.075775 504.0 
155.084717 484.0 
158.106293 428.0 
159.079971 412.0 
161.093628 856.0 
161.13089 300.0 
163.108383 412.0 
165.052551 752.0 
165.08992 316.0 
169.100021 488.0 
171.113113 344.0 
173.092545 1200.0 
173.135117 752.0 
175.074387 380.0 
175.109955 540.0 
177.088043 408.0 
183.115799 368.0 
185.0923 656.0 
186.09639 256.0 
187.11116 928.0 
187.151154 384.0 
189.124786 400.0 
191.108856 316.0 
195.11261 344.0 
198.098679 420.0 
199.073547 280.0 
199.111023 816.0 
200.114304 372.0 
201.122238 308.0 
202.136322 448.0 
203.108475 1056.0 
204.055344 372.0 
205.085968 356.0 
207.100586 344.0 
211.109802 552.0 
213.128281 548.0 
215.105621 512.0 
216.050003 320.0 
218.090652 316.0 
219.104889 664.0 
221.111145 320.0 
225.028503 252.0 
225.123962 416.0 
227.13942 324.0 
228.053223 376.0 
229.053131 340.0 
230.038681 892.0 
231.039917 328.0 
238.132019 352.0 
239.047745 388.0 
239.140152 372.0 
240.055878 404.0 
241.029434 304.0 
242.035324 2596.0 
243.039444 576.0 
243.135468 712.0 
244.034683 1168.0 
244.142883 256.0 
245.045303 300.0 
246.042679 356.0 
246.103729 276.0 
252.055908 384.0 
253.060852 584.0 
254.071945 1844.0 
255.076981 464.0 
256.055756 860.0 
257.117706 580.0 
258.062988 668.0 
259.13855 568.0 
260.062073 368.0 
262.116638 440.0 
263.1633 376.0 
264.053467 420.0 
265.064392 444.0 
265.140808 376.0 
266.07019 664.0 
267.078491 380.0 
268.055328 356.0 
268.08844 408.0 
269.056122 384.0 
270.045898 264.0 
270.06842 1180.0 
270.121765 404.0 
271.067627 580.0 
271.13324 612.0 
272.042633 400.0 
272.079163 436.0 
272.143829 416.0 
274.074249 276.0 
274.118347 328.0 
275.127747 252.0 
276.050598 328.0 
277.060242 332.0 
277.147888 452.0 
278.069427 1108.0 
279.081726 356.0 
280.048065 420.0 
280.086548 676.0 
281.094574 604.0 
281.15329 596.0 
282.066895 1184.0 
283.079987 748.0 
283.134644 532.0 
284.047882 1864.0 
284.125641 444.0 
285.052673 544.0 
285.148193 364.0 
286.050629 1120.0 
287.160797 272.0 
288.065826 328.0 
292.087372 952.0 
293.057587 372.0 
293.094696 904.0 
294.068268 1416.0 
294.098907 1168.0 
295.074707 1288.0 
296.082458 4332.0 
296.133911 268.0 
297.082062 1476.0 
297.151581 292.0 
298.078888 2008.0 
299.079041 636.0 
299.125153 344.0 
300.064514 660.0 
303.078278 300.0 
304.088074 832.0 
304.16394 372.0 
305.105133 504.0 
306.069305 492.0 
306.102936 1916.0 
307.105408 1032.0 
308.085205 1648.0 
308.146606 628.0 
309.090393 1860.0 
309.145569 728.0 
310.09729 1124.0 
310.148834 448.0 
311.088531 580.0 
312.077484 608.0 
312.110504 1528.0 
312.174316 656.0 
313.112976 352.0 
313.172455 592.0 
314.112579 632.0 
316.082275 628.0 
317.099762 580.0 
318.104218 1736.0 
319.106537 884.0 
320.087036 704.0 
320.124207 1344.0 
321.095581 712.0 
321.126648 908.0 
321.14856 820.0 
322.061249 636.0 
322.099213 1096.0 
322.157928 544.0 
323.100708 532.0 
323.166107 584.0 
324.094666 324.0 
324.129211 436.0 
325.14444 364.0 
326.088898 356.0 
326.131287 884.0 
327.139801 260.0 
327.185425 380.0 
328.101257 320.0 
328.129761 380.0 
329.097107 432.0 
330.102966 664.0 
330.176208 336.0 
331.108002 588.0 
332.118652 7508.0 
333.122345 2064.0 
334.114136 2368.0 
334.160095 1980.0 
335.11441 984.0 
335.165894 3324.0 
336.106262 696.0 
336.170471 1112.0 
337.116547 600.0 
337.174774 316.0 
338.118591 420.0 
341.092224 296.0 
342.107513 592.0 
343.104187 680.0 
344.120056 2156.0 
345.122009 1136.0 
346.097748 964.0 
346.136749 1020.0 
347.124084 804.0 
347.164764 912.0 
348.117615 616.0 
348.175903 760.0 
349.101837 360.0 
349.127899 424.0 
349.177063 832.0 
350.129211 612.0 
350.185455 1016.0 
351.102081 344.0 
351.134308 292.0 
352.152191 560.0 
354.120789 768.0 
355.107697 1072.0 
356.082581 348.0 
356.118439 2116.0 
357.120514 1852.0 
358.127594 1048.0 
359.105957 1704.0 
360.109589 1456.0 
360.166962 1088.0 
361.108337 692.0 
361.178375 456.0 
362.137146 1008.0 
363.133789 360.0 
364.148254 4084.0 
364.194855 564.0 
365.143097 768.0 
366.145599 828.0 
367.117859 592.0 
368.120514 2772.0 
369.125397 1300.0 
370.133209 4912.0 
371.135773 2320.0 
372.131561 1628.0 
373.128387 732.0 
374.126648 552.0 
375.15271 356.0 
375.194458 824.0 
376.139404 548.0 
376.206909 676.0 
377.09903 260.0 
377.163208 408.0 
377.203644 436.0 
378.100006 508.0 
378.158112 828.0 
379.107941 448.0 
379.148468 452.0 
380.114899 504.0 
380.143524 556.0 
381.12027 740.0 
382.132904 1120.0 
383.143005 1236.0 
384.118256 1600.0 
385.120728 1220.0 
386.127289 1120.0 
386.163818 760.0 
387.127228 608.0 
387.177643 312.0 
388.111786 680.0 
388.145081 1020.0 
389.143616 492.0 
389.212097 508.0 
390.102448 468.0 
390.15799 812.0 
391.124878 332.0 
391.157776 524.0 
392.122681 492.0 
392.154999 532.0 
392.198456 584.0 
393.132874 688.0 
393.207306 476.0 
394.135376 1004.0 
395.144073 448.0 
396.150391 984.0 
397.114349 580.0 
398.13443 1328.0 
399.13385 1148.0 
400.140289 1520.0 
401.125458 848.0 
402.121277 1024.0 
402.166382 656.0 
403.144165 392.0 
404.135071 448.0 
405.168915 616.0 
406.146576 412.0 
406.218872 388.0 
407.136444 596.0 
408.152649 432.0 
408.197205 360.0 
409.113525 584.0 
409.153015 1484.0 
410.162811 1852.0 
411.134583 1224.0 
411.166321 1308.0 
412.10495 1144.0 
412.147308 2556.0 
413.153046 988.0 
414.137939 1352.0 
415.13269 960.0 
415.187653 748.0 
416.141113 2584.0 
417.15094 1072.0 
418.151001 500.0 
419.144287 780.0 
420.152435 540.0 
421.154877 740.0 
421.206146 524.0 
422.128632 516.0 
422.169281 588.0 
422.219635 448.0 
423.131714 580.0 
423.213745 444.0 
424.145966 720.0 
425.152222 588.0 
426.128967 1584.0 
426.158295 1224.0 
427.136292 720.0 
427.166138 1452.0 
428.173981 2216.0 
429.166534 1108.0 
430.153473 1076.0 
431.142456 516.0 
431.17334 512.0 
432.130463 304.0 
432.174347 892.0 
433.141357 420.0 
433.158173 420.0 
433.251465 284.0 
434.154816 372.0 
434.208893 304.0 
435.155884 272.0 
435.220032 392.0 
436.152496 508.0 
436.225281 364.0 
437.147369 392.0 
438.16333 888.0 
439.167847 516.0 
440.173676 1680.0 
441.153473 1164.0 
442.156128 1596.0 
443.155884 384.0 
444.141083 1036.0 
445.14151 692.0 
445.243835 396.0 
446.140533 1004.0 
447.142426 400.0 
448.141907 252.0 
449.14621 296.0 
450.168274 396.0 
450.225494 292.0 
452.174774 972.0 
453.184753 612.0 
454.105194 264.0 
454.17215 616.0 
455.134583 332.0 
455.181549 308.0 
456.17041 2124.0 
457.170959 780.0 
458.163879 1276.0 
458.244019 392.0 
459.156403 1112.0 
460.160828 1080.0 
461.147491 468.0 
461.184143 456.0 
462.167999 576.0 
462.22937 372.0 
463.160583 1016.0 
463.204407 340.0 
464.169983 268.0 
465.149506 480.0 
465.178986 604.0 
466.156921 1092.0 
466.223541 284.0 
467.166626 492.0 
468.17981 1132.0 
468.208832 1312.0 
469.190063 704.0 
470.192749 1192.0 
471.176758 276.0 
472.182037 740.0 
475.163635 264.0 
476.174683 332.0 
476.206665 480.0 
477.227539 312.0 
478.184448 360.0 
480.20932 972.0 
481.18576 260.0 
482.192383 828.0 
483.19754 320.0 
485.201935 252.0 
486.217804 608.0 
487.221924 476.0 
490.18399 272.0 
490.23056 276.0 
491.238678 364.0 
492.16391 644.0 
492.21521 416.0 
493.187286 256.0 
494.195038 276.0 
495.19986 716.0 
496.20047 896.0 
497.198578 576.0 
498.20871 612.0 
500.212067 392.0 
501.193756 392.0 
502.21283 936.0 
503.218536 260.0 
504.207794 812.0 
505.202942 496.0 
505.258331 712.0 
508.180267 340.0 
510.180328 776.0 
510.216187 1016.0 
511.204803 632.0 
512.187805 940.0 
513.192566 416.0 
514.182861 496.0 
515.206482 652.0 
516.174744 708.0 
516.217529 976.0 
517.223022 356.0 
518.200378 640.0 
519.206909 376.0 
520.223511 848.0 
522.216675 1400.0 
523.217468 308.0 
523.272156 576.0 
524.206177 932.0 
525.209473 284.0 
526.213684 696.0 
527.211426 336.0 
528.196655 2920.0 
529.202209 2940.0 
530.19873 2944.0 
531.202576 2180.0 
532.20636 1324.0 
533.192566 320.0 
534.201294 612.0 
534.246887 280.0 
539.227539 396.0 
540.229858 7492.0 
541.232544 3520.0 
542.231201 3100.0 
543.225159 708.0 
544.224548 3136.0 
545.2276 928.0 
546.203918 2560.0 
547.211243 7348.0 
548.21344 4588.0 
549.215149 2804.0 
550.214172 1076.0 
550.667542 292.0 
551.221069 384.0 
553.278442 456.0 
555.21637 528.0 
556.222229 424.0 
557.194031 336.0 
557.262268 340.0 
558.239563 58100.0 
559.243286 18568.0 
560.238708 18760.0 
561.239075 4664.0 
562.24646 1864.0 
563.244629 492.0 
563.302246 636.0 
564.233398 404.0 
565.238953 396.0 
570.266602 592.0 
572.2677 288.0 
573.270447 276.0 
574.272644 348.0 
575.275146 252.0 
580.256897 1784.0 
581.261841 640.0 
582.256226 628.0 
583.242676 528.0 
584.252319 352.0 
588.274902 296.0 
598.27179 10096.0 
599.271179 3832.0 
600.26825 3320.0 
601.268127 1032.0 
615.267334 448.0 
616.281555 31408.0 
617.130066 264.0 
617.28479 11632.0 
618.277771 11896.0 
619.280029 3748.0 
620.280823 520.0 
633.287292 928.0 
634.29248 34664.0 
635.295959 14092.0 
636.289978 17876.0 
637.293579 3884.0 
638.286682 476.0 
END IONS

