BEGIN IONS
PEPMASS=326.186
CHARGE=1+
COMPOUNDNAME=ERGONOVINE MALEATE
LIBRARYQUALITY=3
SMILES=N/A
INCHIKEY=WVVSZNPYNCNODU-XTQGRXLLSA-N
INCHI=InChI=1S/C19H23N3O2/c1-11(10-23)21-19(24)13-6-15-14-4-3-5-16-18(14)12(8-20-16)7-17(15)22(2)9-13/h3-6,8,11,13,17,20,23H,7,9-10H2,1-2H3,(H,21,24)/t11-,13+,17+/m0/s1
MSLEVEL=2
SOURCE_INSTRUMENT=N/A-ESI-QFT
FILENAME=library_mgf.mgf
SEQ=*..*
IONMODE=positive
ORGANISM=MONA
NAME=ERGONOVINE MALEATE [M+H]+
PI=MoNA
DATACOLLECTOR=MoNA:VF-NPL-QEHF027710
PUBMED=N/A
SUBMITUSER=mwang87
TAGS=
SPECTRUMID=CCMSLIB00004721291
SCANS=27710
50.23378 0.022053 
51.03384 0.019757 
51.11919 0.019276 
52.248405 0.019714 
54.388332 0.019621 
54.900436 0.018515 
55.018272 0.08542 
55.604027 0.021529 
56.049854 0.325144 
56.811478 0.019496 
57.504955 0.020551 
57.816196 0.021418 
58.065395 3.52688 
59.049423 0.545528 
59.902088 0.019824 
60.372826 0.019506 
61.098614 0.02424 
61.368683 0.020138 
61.383049 0.021884 
61.391445 0.017114 
62.779488 0.019827 
62.937504 0.022672 
63.532127 0.017348 
63.72348 0.024976 
64.934486 0.018221 
66.429443 0.019698 
66.934425 0.022303 
67.725861 0.026334 
68.12394 0.023446 
71.883926 0.020319 
71.940331 0.020131 
73.109848 0.020209 
75.238297 0.021289 
76.075737 3.214541 
76.499969 0.022276 
76.536285 0.02112 
76.597397 0.018411 
76.737938 0.018376 
77.044495 0.018763 
77.059502 0.019506 
78.914604 0.023609 
79.009415 0.01944 
79.299423 0.024334 
83.429482 0.020016 
84.044525 0.046147 
86.019852 0.021685 
86.060143 0.026381 
88.126305 0.0208 
90.012115 0.018876 
92.083466 0.023577 
94.371361 0.019638 
94.409225 0.018247 
96.791367 0.019333 
97.02652 0.019007 
98.288673 0.020526 
99.13961 0.018834 
99.845139 0.020992 
101.344566 0.019461 
103.603386 0.019195 
105.027252 0.019016 
106.302635 0.019947 
107.900261 0.021002 
111.795204 0.018972 
112.075714 2.110897 
112.338615 0.021015 
112.947739 0.018075 
113.059799 0.122243 
113.31176 0.02391 
117.464729 0.024884 
120.226051 0.020347 
120.517021 0.021688 
121.457214 0.020001 
122.712219 0.023864 
124.425484 0.021139 
126.047829 0.01825 
126.518692 0.018884 
126.595261 0.020226 
127.011383 0.018875 
127.279175 0.027158 
127.301888 0.023958 
127.83902 0.021434 
130.06517 0.480003 
130.086243 2.009672 
135.969345 0.019555 
137.150467 0.020884 
144.05928 0.021284 
144.080795 0.141181 
148.818954 0.019724 
151.055069 0.023903 
152.06221 0.07701 
152.283081 0.020722 
152.323532 0.018929 
153.069794 0.138373 
154.065323 0.540418 
154.601349 0.027528 
156.08075 0.067046 
164.462753 0.021847 
167.073013 0.878839 
168.080933 2.144866 
169.084167 0.111623 
174.615585 0.022194 
175.458633 0.025866 
178.065536 0.031696 
180.080795 29.507914 
181.065109 0.03577 
181.083664 3.07008 
182.084061 1.480977 
182.096512 5.037393 
183.100021 0.336646 
183.167145 0.021897 
183.176147 0.02202 
184.764984 0.024248 
190.065247 0.748521 
191.073059 2.036703 
192.080841 7.274212 
193.075851 0.457542 
193.08493 0.673431 
194.060455 0.03174 
194.085709 0.178149 
194.096481 6.160616 
195.100693 0.308165 
196.102097 0.047018 
196.112076 1.35328 
197.107361 16.81218 
198.110947 1.888496 
202.441238 0.02005 
203.229218 0.019238 
205.075714 0.024893 
206.084259 0.201747 
206.096268 0.269916 
207.068024 3.926324 
207.091797 4.252851 
207.102325 0.062591 
208.075836 100.0 
208.099258 21.128374 
209.079132 12.991482 
209.102386 2.634613 
210.091843 0.075157 
214.99086 0.560268 
214.998215 0.370896 
219.440445 0.020254 
220.075821 1.019979 
220.099518 0.382609 
220.112213 0.019789 
221.107254 3.679422 
222.09137 0.084615 
222.115097 1.525194 
223.122894 98.292686 
224.09436 5.367432 
224.106155 0.036002 
224.126434 13.939446 
225.10231 5.955399 
225.138855 0.460121 
226.086197 0.030595 
226.105545 0.666024 
226.142487 0.021573 
227.190292 0.019112 
228.742996 0.024162 
232.398865 0.020254 
233.107178 0.027448 
235.538528 0.021725 
236.094482 0.109135 
237.138779 1.564816 
238.141479 0.026807 
239.385452 0.024172 
240.028748 0.024162 
242.658508 0.026509 
248.632706 0.021677 
250.133835 0.111934 
251.117752 3.442193 
252.121124 0.347116 
254.104736 0.29041 
255.148788 0.352537 
256.571289 0.022873 
261.819916 0.022674 
262.891357 0.022299 
263.394348 0.022152 
265.11969 0.023021 
265.133331 3.574337 
266.136871 0.436786 
268.309082 0.02179 
269.128265 2.154174 
270.131989 0.105345 
278.344116 0.023834 
280.100281 0.024621 
283.144043 12.802846 
284.147491 2.003676 
284.304474 0.024891 
286.805298 0.0231 
291.950592 0.022032 
295.144348 0.512448 
296.146729 0.024824 
296.730927 0.021099 
303.840332 0.021436 
308.176483 0.08876 
311.16275 2.574197 
312.165833 0.262519 
319.49118 0.021035 
326.186432 7.973686 
327.189606 1.44103 
END IONS

