BEGIN IONS
PEPMASS=176.103
CHARGE=1+
COMPOUNDNAME=MoNA:3685217 2-amino-5-(carbamoylamino)pentanoic acid
LIBRARYQUALITY=3
SMILES=N/A
INCHIKEY=RHGKLRLOHDJJDR-UHFFFAOYSA-N
INCHI=InChI=1S/C6H13N3O3/c7-4(5(10)11)2-1-3-9-6(8)12/h4H,1-3,7H2,(H,10,11)(H3,8,9,12)
MSLEVEL=2
SOURCE_INSTRUMENT=LC-ESI-ITFT-LC-ESI-ITFT
FILENAME=output_mgf.mgf
SEQ=*..*
IONMODE=
ORGANISM=MONA
NAME=MoNA:3685217 2-amino-5-(carbamoylamino)pentanoic acid [M+H]+
PI=MoNA
DATACOLLECTOR=MoNA
PUBMED=N/A
SUBMITUSER=mwang87
TAGS=
SPECTRUMID=CCMSLIB00000574232
SCANS=11483
86.0599 1.943268 
96.0443 0.745377 
97.076 0.725635 
113.0708 100.0 
114.0548 16.055823 
115.0864 11.532284 
116.0704 13.953538 
127.0615 0.298291 
133.0966 0.399133 
141.0655 2.052296 
142.0499 1.593398 
159.0763 55.967299 
176.1036 0.273262 
END IONS

