BEGIN IONS
PEPMASS=375.061
CHARGE=1+
COMPOUNDNAME=Griseofulvin
LIBRARYQUALITY=3
SMILES=N/A
INCHIKEY=DDUHZTYCFQRHIY-RBHXEPJQSA-N
INCHI=InChI=1S/C17H17ClO6/c1-8-5-9(19)6-12(23-4)17(8)16(20)13-10(21-2)7-11(22-3)14(18)15(13)24-17/h6-8H,5H2,1-4H3/t8-,17+/m1/s1
MSLEVEL=2
SOURCE_INSTRUMENT=N/A-ESI-QFT
FILENAME=library_mgf.mgf
SEQ=*..*
IONMODE=positive
ORGANISM=MONA
NAME=Griseofulvin [M+Na]+
PI=MoNA
DATACOLLECTOR=MoNA:VF-NPL-QEHF001071
PUBMED=N/A
SUBMITUSER=mwang87
TAGS=
SPECTRUMID=CCMSLIB00004692134
SCANS=1071
50.015881 0.127907 
50.519131 0.211732 
50.606194 0.160237 
51.836121 0.128502 
51.940697 1.154971 
52.042023 0.154555 
52.083698 0.208621 
52.172066 0.204832 
52.415195 0.134002 
52.77433 0.140352 
53.002914 1.760923 
53.039303 14.967689 
53.986481 0.126061 
54.034657 0.129613 
54.102894 0.148719 
55.018559 7.899749 
55.054932 47.969601 
55.768196 0.201115 
55.935051 0.88927 
56.050182 4.424369 
56.058254 0.854023 
56.081898 0.18577 
56.090439 0.199268 
56.471107 0.138633 
56.965485 9.359262 
57.034203 9.874612 
57.070572 23.287697 
57.379871 0.171271 
58.065811 8.41633 
58.073906 0.273442 
58.767448 0.18324 
58.768631 0.17207 
59.049831 23.048826 
59.061073 21.901619 
59.062637 0.196058 
59.369087 0.150758 
59.576553 0.183484 
60.045067 1.514404 
60.053234 0.114199 
60.133785 0.12799 
61.011292 8.626362 
61.029087 0.167789 
61.734074 0.116081 
62.019127 3.256021 
62.564587 0.323401 
62.982426 1.097559 
62.990379 0.418242 
63.046082 0.166939 
64.75708 0.129873 
65.039253 7.135049 
65.520538 0.215923 
66.04702 0.200705 
66.325859 0.134031 
66.453674 0.148719 
67.018456 0.272269 
67.054886 27.695736 
68.050102 0.897166 
68.058228 0.351832 
68.997734 2.200755 
69.034126 11.799699 
69.070503 18.019657 
70.029366 0.156503 
70.065765 14.301031 
70.073891 0.128881 
70.958496 0.659202 
70.981064 0.364844 
71.013283 0.125793 
71.049728 11.71761 
71.086105 5.253211 
72.04496 0.110724 
72.08139 19.609756 
72.647461 0.104501 
72.937729 3.21577 
73.028976 1.368052 
73.047363 17.834751 
73.053177 0.214492 
73.065361 5.758573 
73.08474 0.191178 
74.046989 1.000648 
74.050797 0.21618 
74.060631 1.178412 
75.044548 13.575894 
75.356834 0.143999 
77.039162 2.439694 
78.047218 0.141902 
79.018188 0.138477 
79.021675 6.487933 
79.054779 47.884315 
80.050003 8.768677 
80.058037 0.97191 
81.000786 0.311721 
81.034019 6.752944 
81.045067 0.126661 
81.070412 26.8944 
81.406044 0.184996 
82.02903 0.301341 
82.065628 3.55284 
82.073753 0.264925 
82.921806 0.219477 
83.013229 2.099179 
83.049629 4.860652 
83.05674 0.186689 
83.086021 4.51694 
83.670029 0.169672 
83.883308 0.194617 
84.044777 0.967771 
84.0812 2.383875 
84.496864 0.144214 
85.028854 2.079839 
85.065262 4.406751 
85.101707 0.599688 
86.060478 1.613313 
86.085663 0.138733 
86.096954 2.006889 
86.462509 0.140394 
86.624184 0.189941 
87.041679 0.204942 
87.044533 15.715951 
88.00042 0.14254 
88.047966 0.135912 
88.076157 8.962936 
89.060158 100.0 
89.829536 0.172411 
89.964088 1.838658 
90.063492 3.753837 
90.948097 3.391175 
90.970749 0.236442 
91.054604 61.828678 
91.05777 50.327831 
91.329018 0.190602 
91.591431 0.141084 
92.018929 0.108339 
92.049858 2.777907 
92.057549 8.973543 
92.061081 3.671954 
92.737534 0.259421 
92.774826 0.138136 
93.03389 1.120509 
93.036942 1.017182 
93.054565 8.61224 
93.057648 3.120581 
93.060829 0.140842 
93.070259 44.210007 
93.832535 0.143134 
94.041374 0.312369 
94.06546 2.863209 
94.073601 1.787019 
95.013039 0.152683 
95.049538 35.222679 
95.060684 0.714473 
95.085915 17.302429 
96.020721 0.136188 
96.044777 1.406853 
96.053017 0.760563 
96.068413 0.153828 
96.081154 0.43706 
96.089417 0.174016 
97.028854 0.505597 
97.065102 5.196057 
97.101562 0.716152 
97.415047 0.142788 
97.515144 0.219171 
97.779457 0.19541 
98.060356 0.636733 
98.377327 0.246193 
99.044548 1.638327 
100.076096 0.421561 
100.279762 0.11855 
101.05999 3.33185 
102.091507 0.167675 
102.94838 0.157252 
103.054543 18.50149 
103.064354 0.139602 
103.075485 0.215908 
104.049835 1.717311 
104.057877 0.181465 
104.964165 0.16456 
105.033768 4.781453 
105.045006 11.209616 
105.070107 25.896158 
106.029358 0.129563 
106.065384 5.557563 
106.073418 1.556394 
106.55088 0.141151 
106.907791 0.140948 
107.044449 0.120472 
107.049316 5.655437 
107.07312 1.403609 
107.085808 14.220209 
107.950691 0.166111 
107.974449 0.139722 
108.04454 1.409527 
108.056969 0.36858 
108.080902 0.518832 
108.958328 0.398532 
109.028671 0.290503 
109.065048 6.361629 
109.101402 4.991914 
110.06031 2.396528 
111.044228 1.661269 
111.080589 1.704478 
112.075836 0.154408 
113.05999 0.186534 
113.963783 0.22829 
114.490898 0.136916 
115.042122 0.313704 
115.054474 11.856516 
116.049484 0.541808 
116.057671 0.573157 
116.06221 0.733334 
116.963303 0.42167 
116.985649 0.388979 
117.057465 4.96685 
117.070045 10.982159 
117.437393 0.129913 
117.970978 0.162177 
118.028954 0.372585 
118.065277 5.289476 
118.186554 0.135723 
118.704681 0.278523 
119.013573 0.150503 
119.049271 4.318185 
119.060562 0.344092 
119.073105 0.833172 
119.085625 12.942605 
119.149208 0.14589 
120.044495 4.162989 
120.055679 0.133086 
120.080864 6.710295 
120.958504 0.105684 
121.028542 5.692439 
121.064903 14.432907 
121.101219 2.977823 
122.023598 0.137531 
122.060158 1.097144 
122.096169 0.688229 
123.029022 0.171022 
123.04409 1.713572 
123.080193 1.514007 
123.116867 0.135131 
124.03949 0.222288 
124.075455 0.766855 
125.059509 0.159115 
127.054619 0.108669 
127.152596 0.148356 
127.803795 0.12339 
128.043076 0.186463 
128.049454 3.39536 
128.062042 10.879247 
128.963608 0.631976 
129.057449 2.026413 
129.065338 0.389735 
129.069901 14.922233 
130.065155 21.677074 
130.073242 0.144559 
130.077789 0.153768 
130.362869 0.188399 
131.000305 0.159943 
131.049088 3.372861 
131.068192 0.51633 
131.072998 2.919265 
131.085434 3.694803 
131.973724 0.149278 
132.044327 3.135925 
132.056732 0.156642 
132.080765 2.904409 
132.600861 0.144569 
132.774857 0.134669 
132.958496 0.1579 
133.02829 1.323349 
133.05217 2.310657 
133.064697 5.563502 
133.075806 0.127244 
133.101074 2.628344 
134.059906 3.482599 
134.096252 1.613981 
134.978638 1.256022 
134.996262 0.214079 
135.043915 3.577602 
135.080261 1.300622 
135.116776 3.966572 
136.0392 1.136426 
136.075714 1.016675 
137.011551 0.455153 
137.022903 0.170585 
137.05954 2.085555 
137.09584 0.149301 
138.05481 1.62854 
138.090714 0.145865 
138.659515 0.1163 
139.038544 0.293797 
139.054001 0.37198 
141.056717 0.867522 
141.069778 10.428362 
142.065002 9.829433 
142.077621 3.685658 
142.874237 0.111528 
142.999939 0.187357 
143.049072 1.164692 
143.072922 11.953616 
143.078903 0.150628 
143.08551 7.986313 
144.044296 9.594071 
144.056778 0.544553 
144.080795 10.30548 
145.028763 0.155308 
145.052399 0.405097 
145.064651 6.224212 
145.07605 0.195472 
145.083633 0.573041 
145.101105 0.494487 
146.024124 0.219685 
146.059967 7.50604 
146.096191 2.540138 
146.974075 1.754763 
147.030991 0.17289 
147.043961 2.628468 
147.067993 0.459969 
147.080292 0.827967 
147.115753 0.140722 
148.039139 7.03341 
148.05159 0.166898 
148.075531 1.763813 
148.531326 0.143597 
148.971786 0.241725 
148.988922 0.17961 
149.023529 0.676182 
149.046906 0.466301 
149.059525 1.207864 
149.095673 0.180167 
150.054749 1.749631 
150.091431 0.279417 
150.950821 0.555201 
150.968689 0.474618 
151.038818 0.588268 
151.062454 0.93714 
151.207275 0.24334 
152.061966 5.761441 
152.07019 1.391178 
152.966202 0.145491 
152.989243 1.248837 
153.069901 11.469426 
153.076019 0.146524 
154.049698 0.462408 
154.065002 18.780893 
154.077362 2.02543 
155.049133 1.197129 
155.060303 1.242979 
155.073135 5.698166 
155.085388 7.318686 
156.043961 0.316768 
156.080811 10.390519 
156.08757 0.285263 
156.093445 0.174461 
157.052063 1.802946 
157.06456 3.924939 
157.088593 6.880044 
157.10054 0.420306 
158.060089 8.635847 
158.072388 1.056316 
158.096344 2.234883 
158.974396 0.117034 
159.043869 1.357069 
159.067917 3.218962 
159.080048 1.356075 
159.091599 0.559924 
159.104111 0.191032 
160.039078 4.01306 
160.075638 5.950832 
160.111908 0.716112 
160.988693 0.150589 
161.023239 0.554469 
161.047058 12.941105 
161.059479 2.528039 
162.054871 12.68126 
162.091156 0.862706 
163.038681 1.70468 
163.062958 0.602824 
164.033966 0.797696 
164.070389 1.013617 
165.054474 2.201588 
165.069839 10.952318 
165.077744 1.270458 
165.090439 0.130653 
166.049362 0.454429 
166.065384 0.403616 
166.077667 2.997419 
167.072906 14.895205 
167.085312 4.958122 
168.056732 1.085325 
168.080765 21.427094 
168.960587 0.16472 
169.034805 0.625334 
169.052139 1.368909 
169.064468 4.822381 
169.075897 1.645387 
169.088577 5.249551 
169.100998 0.337888 
170.05986 18.334673 
170.07251 0.55322 
170.096283 21.781404 
171.030869 0.485567 
171.043884 1.189527 
171.067856 3.221098 
171.080261 4.679501 
171.091736 1.116036 
171.104019 4.420062 
172.005127 0.253113 
172.039124 44.089314 
172.051682 0.189521 
172.075531 8.731459 
172.111893 0.406589 
173.041901 0.434273 
173.046997 0.335009 
173.05957 1.347408 
173.071152 0.152117 
173.083389 0.455197 
173.095734 0.145068 
174.054855 8.104829 
174.067123 0.172474 
174.091141 3.20309 
175.038757 0.417275 
175.062714 22.385845 
175.075256 0.412938 
176.034225 1.234328 
176.07048 5.948717 
177.04187 1.649398 
177.05452 1.127503 
178.049774 6.146087 
178.064453 0.195577 
178.077499 4.969918 
178.085556 0.412287 
179.033813 2.60602 
179.085327 3.009375 
179.121384 0.158347 
180.029419 0.146807 
180.065704 0.718852 
180.080551 8.550451 
180.888855 0.172663 
181.064896 4.244133 
181.075211 0.182445 
181.088623 10.716413 
182.059891 4.683685 
182.072754 1.070605 
182.096436 11.427729 
183.043762 0.676933 
183.055695 0.191345 
183.06781 3.918729 
183.080154 3.315521 
183.090897 0.479605 
183.103622 1.108005 
184.005264 0.175998 
184.039368 0.855389 
184.051743 0.608396 
184.075684 14.063784 
184.088058 0.161818 
184.11203 5.009323 
185.046906 3.290997 
185.059708 3.214663 
185.070221 0.411716 
185.083237 2.070026 
185.096329 0.502831 
185.106445 0.365161 
185.119644 3.350193 
186.05481 31.854383 
186.091202 4.211389 
187.026245 3.45388 
187.038727 0.940321 
187.062866 9.647079 
187.075455 0.767548 
188.034134 5.479956 
188.07048 16.640795 
188.106659 0.301087 
189.041779 1.357007 
189.054611 0.794444 
189.078278 1.511456 
189.090729 0.231201 
190.049683 16.226509 
190.085968 1.082525 
191.033798 0.677794 
191.057709 7.21555 
191.072174 0.387297 
192.065414 1.555752 
192.080704 0.97459 
193.049454 0.384015 
193.064285 0.421773 
193.088531 1.694431 
193.100891 0.531314 
194.045792 0.21051 
194.05983 0.953553 
194.075668 0.863604 
194.096405 6.943362 
195.045227 0.144242 
195.067993 0.314223 
195.080292 2.86135 
195.104111 7.719342 
196.015228 0.618973 
196.075638 8.382787 
196.085678 0.377259 
196.11174 4.393756 
197.046402 0.596273 
197.059464 3.126773 
197.069595 0.1699 
197.083481 1.715112 
197.095581 0.284794 
197.106644 0.252023 
197.119705 0.138449 
198.05481 12.702326 
198.066025 1.754751 
198.09108 7.806108 
198.127609 1.703209 
199.038086 0.355579 
199.062714 22.661295 
199.074387 3.200798 
199.098984 1.622588 
200.03418 7.001373 
200.070587 16.129171 
200.081192 0.190589 
200.106827 1.035321 
201.041901 0.422089 
201.054489 0.6616 
201.078583 7.127751 
202.049759 29.577269 
202.086197 13.269253 
203.034058 0.425963 
203.057434 8.779215 
203.069885 0.790281 
203.082367 0.164912 
203.093979 21.240446 
204.065353 17.589937 
204.076462 0.167308 
204.080612 0.189988 
204.097626 0.171883 
205.03714 0.383836 
205.049393 0.198466 
205.073486 0.819906 
205.087906 0.215957 
206.044952 0.862164 
206.059555 0.16891 
206.082245 0.133886 
206.0961 1.565323 
206.977661 1.291084 
206.995193 0.409763 
207.053619 0.272678 
207.067001 0.366585 
208.059891 0.304332 
208.075226 2.199384 
208.098907 0.146231 
208.112015 1.010171 
209.058929 0.518016 
209.068741 2.170143 
209.082794 1.007639 
209.094772 0.280119 
210.054886 1.256947 
210.066345 0.303625 
210.091095 7.429602 
210.127457 5.290824 
211.062653 1.421017 
211.075089 2.719032 
211.097443 0.512463 
212.034805 1.040709 
212.07048 15.513205 
212.080673 0.207017 
212.106888 9.339179 
213.041931 0.112627 
213.054169 1.206389 
213.078415 17.691547 
213.090042 0.554001 
214.049606 35.582123 
214.08606 13.661533 
214.122208 0.750802 
215.057617 31.592981 
215.094116 0.789593 
216.028534 0.240847 
216.065521 20.43454 
216.10173 0.88289 
217.037384 0.251768 
217.049332 0.152122 
217.073044 6.294722 
217.086487 0.243271 
217.108871 0.205176 
218.04567 0.219009 
218.081192 13.3178 
218.092896 0.172987 
218.94458 0.44259 
219.065842 0.164594 
219.080353 0.126743 
220.015182 0.159828 
220.060745 3.478029 
220.075348 1.475702 
220.28891 0.570424 
220.299881 0.51595 
220.304703 0.410511 
220.959549 0.21462 
221.02298 0.200275 
221.082932 1.198015 
222.054718 1.293425 
222.076416 0.104539 
222.090958 2.928001 
223.038849 0.146813 
223.062729 0.161568 
223.0746 0.267764 
223.098114 0.363638 
224.070175 5.62496 
224.081619 0.429239 
224.106415 1.26781 
225.054077 0.645858 
225.07782 2.622548 
225.089844 0.457234 
226.049774 5.008337 
226.086014 15.299307 
226.122269 1.62273 
227.057678 8.322199 
227.069778 2.417774 
227.093323 2.204329 
227.105789 0.16862 
228.065262 20.715965 
228.101471 7.98265 
229.05011 0.205129 
229.073242 7.599424 
229.085373 1.246984 
230.081009 34.066952 
230.11734 2.7093 
231.052521 4.621161 
231.064468 0.72791 
231.084961 1.02422 
232.060379 1.070323 
232.096725 7.342136 
233.023193 1.285377 
233.068146 14.86977 
234.074585 1.507696 
234.091019 0.915814 
234.939224 1.325004 
235.074875 0.126414 
236.070389 2.210249 
236.106567 0.708144 
236.954681 3.680975 
237.054779 0.842433 
237.078857 0.282956 
238.085892 7.965894 
238.120392 0.166702 
239.069565 0.398164 
239.09346 2.649967 
240.064957 4.049079 
240.101471 13.353807 
240.964157 0.547353 
241.027481 0.16161 
241.049927 0.481187 
241.072845 5.597043 
241.085922 1.091578 
241.109436 11.389932 
242.045883 0.153242 
242.058533 0.175457 
242.080994 24.138426 
242.09436 0.218936 
242.117218 7.299366 
243.06546 0.434778 
243.088181 1.458391 
243.101654 0.176933 
244.060333 22.314377 
244.096588 2.308764 
244.133224 0.468313 
245.064423 0.751236 
246.076004 18.333439 
246.089752 0.179061 
247.038742 0.829852 
247.081772 2.92947 
247.120651 0.131914 
247.558548 0.151862 
250.071091 1.403302 
250.085373 1.044572 
252.041672 0.134221 
252.065002 1.620965 
252.101242 5.095118 
252.949524 5.777231 
253.072174 0.413657 
254.081009 5.507606 
254.117188 4.706646 
255.064911 0.805303 
255.087051 1.43069 
256.061462 0.143327 
256.096954 6.086026 
257.068298 24.597198 
257.099854 4.496681 
258.031921 0.186063 
258.076111 30.844391 
258.112427 11.439892 
259.038574 0.242279 
259.080231 1.982295 
259.120209 0.133614 
260.046448 1.702622 
260.091522 15.288182 
261.094849 1.077432 
264.101685 0.587028 
265.073029 0.202182 
265.161224 0.163455 
266.080688 1.035312 
266.116882 0.171005 
268.096344 1.706548 
268.132751 0.227673 
268.977997 1.872941 
268.995209 1.264017 
269.104736 0.58817 
269.977936 1.50337 
270.075989 2.101929 
270.112335 12.293653 
270.975006 10.099646 
271.058777 0.135822 
271.083221 1.058841 
271.115631 0.903403 
271.974945 1.587536 
272.047485 0.163752 
272.091339 2.980387 
272.127197 0.38896 
273.054657 1.293901 
273.099121 0.495354 
274.061096 0.416508 
280.09671 2.319135 
281.10025 0.615946 
282.074677 0.137328 
282.112457 0.839353 
284.046844 0.453578 
284.091339 2.501366 
284.127472 0.759991 
285.026947 0.23802 
285.055878 0.2164 
286.061401 0.165574 
286.107117 13.451514 
287.00592 0.244019 
287.069702 0.260105 
288.085938 0.331487 
288.122681 1.392905 
296.091278 1.427438 
298.06134 0.143872 
300.07843 0.181719 
300.12262 0.181986 
302.07785 0.167584 
314.138245 1.667152 
315.140717 0.154272 
355.988342 0.196332 
357.214539 0.61331 
366.235016 0.264357 
387.415619 0.133015 
END IONS

