BEGIN IONS
PEPMASS=339.086
CHARGE=1+
COMPOUNDNAME=rabelomycin
LIBRARYQUALITY=3
SMILES=N/A
INCHIKEY=JJOLHRYZQSDLSA-UHFFFAOYSA-N
INCHI=InChI=1S/C19H14O6/c1-19(25)6-8-5-11(21)15-16(13(8)12(22)7-19)17(23)9-3-2-4-10(20)14(9)18(15)24/h2-5,20-21,25H,6-7H2,1H3
MSLEVEL=2
SOURCE_INSTRUMENT=N/A-ESI-QFT
FILENAME=library_mgf.mgf
SEQ=*..*
IONMODE=positive
ORGANISM=MONA
NAME=rabelomycin [M+H]+
PI=MoNA
DATACOLLECTOR=MoNA:VF-NPL-QEHF000948
PUBMED=N/A
SUBMITUSER=mwang87
TAGS=
SPECTRUMID=CCMSLIB00004692011
SCANS=948
51.297024 0.06203 
52.862968 0.065265 
53.03931 0.363529 
53.202461 0.079246 
53.965202 0.06013 
54.040459 0.077928 
54.203747 0.063274 
54.857727 0.065911 
55.01857 0.486256 
55.054966 1.726475 
56.058407 0.114676 
56.154694 0.08162 
56.244308 0.054107 
56.965488 0.085236 
57.034199 0.197925 
57.052647 0.182714 
57.070564 0.435902 
57.127014 0.079254 
58.232189 0.162766 
58.580441 0.091966 
58.726822 0.071219 
59.042213 0.089939 
59.061085 0.212279 
60.081505 0.478333 
60.831551 0.211329 
61.01136 0.454476 
61.623615 0.182183 
61.98386 0.070112 
63.13195 0.056761 
63.293064 0.090613 
63.553387 0.073842 
63.712074 0.057357 
64.190567 0.067943 
64.240631 0.070773 
65.039268 0.182975 
65.285156 0.080951 
65.703781 0.084017 
66.248421 0.070792 
67.054916 0.997874 
67.300827 0.055943 
67.614853 0.193503 
69.070549 0.658732 
69.206482 0.165786 
69.425224 0.06787 
69.894135 0.082912 
70.065704 0.351981 
70.983063 0.071936 
71.086304 0.095466 
71.525993 0.078814 
72.443741 0.07632 
72.716423 0.058669 
72.937553 0.113078 
73.047493 0.659888 
73.159882 0.066839 
75.143166 0.127544 
77.690056 0.168688 
77.962463 0.116946 
78.545998 0.056346 
78.846527 0.082411 
79.054802 0.920108 
80.325775 0.098447 
80.751282 0.122038 
81.041786 0.07639 
81.070473 0.448335 
83.049286 0.077018 
84.081268 0.109006 
86.15255 0.066306 
86.625557 0.077104 
86.665611 0.058203 
87.895996 0.067499 
88.284042 0.179262 
88.858147 0.196976 
89.463867 0.053547 
89.701408 0.056826 
89.810196 0.10881 
89.836639 0.069513 
90.415604 0.074526 
90.588837 0.108441 
91.054649 4.217358 
91.057709 0.670895 
92.08152 0.105079 
92.160667 0.070458 
92.35054 0.197061 
93.070274 0.639932 
94.456985 0.180349 
94.462158 0.060853 
95.049545 0.915486 
95.085915 0.578691 
98.0186 0.08433 
98.195564 0.062222 
98.849762 0.168713 
98.975609 0.333955 
99.105682 0.063484 
99.563805 0.06335 
100.471214 0.208842 
100.712685 0.070758 
101.578262 0.119136 
101.95018 7.253379 
102.455742 0.101339 
103.009773 0.086019 
103.054642 0.342752 
103.946068 0.088791 
103.95417 0.064183 
104.288902 0.120572 
105.070061 0.690969 
105.942993 0.398102 
106.127968 0.066391 
106.5755 0.182183 
107.049461 0.247172 
107.08609 0.075299 
107.199699 0.069276 
107.696098 0.203069 
108.402504 0.14747 
108.975342 0.18156 
109.064949 0.113579 
111.143669 0.121547 
113.32119 0.076402 
114.309464 0.227867 
114.656639 0.087399 
115.054436 3.530646 
115.239235 0.094141 
116.980988 0.075765 
116.985786 0.096693 
117.070122 0.19935 
118.635437 0.081354 
119.060455 0.071244 
119.960579 0.884837 
120.33548 0.198116 
121.028526 21.731676 
121.430534 0.188484 
121.831795 0.053167 
122.031868 0.415487 
123.045197 0.066009 
127.054314 0.142306 
127.683647 0.101314 
128.062073 15.852126 
129.065155 0.718837 
129.069901 5.513617 
130.073029 0.134192 
130.500946 0.06853 
131.049088 0.778431 
131.619293 0.065689 
132.860718 0.081293 
133.30127 0.06832 
135.04393 2.600679 
137.648224 0.073421 
137.970474 0.091463 
139.796371 0.125833 
141.069092 0.070827 
142.078232 0.07711 
142.681778 0.198365 
143.048691 0.085218 
145.028305 0.099704 
145.064758 3.458099 
146.929047 0.100272 
147.080276 1.278047 
148.513687 0.075058 
149.0233 7.539985 
149.306198 0.094696 
153.070084 0.178448 
155.049088 1.687137 
155.060211 2.914176 
157.075867 1.012158 
158.036026 0.098553 
159.044144 0.782 
164.373093 0.083112 
165.069901 1.603184 
165.43248 0.070297 
166.077469 0.495745 
167.085541 0.780586 
167.392044 0.097104 
168.056992 0.098399 
171.025009 0.150303 
171.043915 3.157796 
171.06781 2.576776 
171.080307 0.510178 
171.559021 0.133707 
173.059494 8.618903 
174.062439 0.093115 
177.069931 0.299682 
178.07782 1.457545 
179.085464 0.094442 
179.858597 0.099772 
181.064545 5.405891 
181.100876 1.056671 
183.079651 0.200511 
186.546616 0.089814 
189.055405 0.076479 
189.069824 0.760372 
190.077484 2.139382 
191.085434 12.771345 
192.088882 1.245788 
193.101257 0.074908 
194.07254 4.228882 
195.080307 4.576445 
195.630066 0.073671 
196.083862 0.26759 
197.059525 0.773232 
199.038712 1.055565 
199.075287 4.878938 
201.069702 1.738329 
201.079712 0.082853 
202.077393 4.531528 
202.086563 2.117623 
203.085373 3.631714 
203.742615 0.07211 
205.064636 6.47987 
206.07225 1.063694 
207.080307 0.230368 
208.958984 0.112905 
209.059616 7.707824 
209.069748 0.070549 
209.095963 4.78896 
213.054718 0.50453 
216.793518 0.194189 
218.072403 2.408114 
219.080322 24.846174 
219.090866 0.130165 
219.516754 0.077015 
220.083832 3.955347 
220.113525 0.31749 
220.12059 0.153418 
220.124939 0.203267 
220.12915 0.222563 
221.059464 1.195957 
221.096375 0.449783 
222.067413 4.277444 
223.062805 0.066638 
223.075134 7.575429 
224.078293 0.214775 
224.974335 0.064108 
225.054367 6.137317 
225.933411 0.070557 
226.06131 0.345177 
227.070068 15.045663 
228.073318 1.049602 
229.064743 1.242997 
229.075974 0.34028 
231.080292 2.85821 
232.051346 0.268062 
233.059555 9.157598 
233.430496 0.201104 
234.066589 2.813595 
235.075226 0.716242 
236.046524 0.336119 
237.054245 6.728263 
237.09082 9.779489 
238.058289 0.72452 
238.094223 1.071085 
238.964081 0.096888 
239.070343 0.087229 
240.777008 0.077156 
241.048737 0.474347 
243.292068 0.07326 
246.068069 0.551636 
247.075043 49.967861 
248.078857 9.244489 
249.054398 2.352984 
250.062241 27.35342 
251.069778 21.690622 
252.041336 1.787368 
252.073517 2.679439 
253.049011 6.038824 
253.758804 0.075617 
254.056915 11.473471 
255.064774 100.0 
256.068359 16.155115 
257.058716 0.311093 
258.684631 0.076472 
260.046295 0.983603 
261.05423 2.886459 
262.061493 1.780232 
263.070007 1.838355 
264.077148 0.739483 
265.04953 1.683456 
265.08551 16.414852 
266.055145 0.178145 
266.089294 2.204702 
269.080444 0.168839 
270.748077 0.077 
274.061157 0.259716 
275.069916 30.18944 
276.07486 7.642334 
277.048981 3.113694 
277.084564 0.320254 
278.056915 50.136021 
279.064331 33.966476 
280.035492 0.37703 
280.068604 5.431998 
285.847992 0.071513 
290.295166 0.124712 
291.06488 1.822055 
292.072021 1.475115 
293.043671 0.602041 
293.080444 35.707123 
294.083679 6.567653 
295.416443 0.070747 
296.130127 0.166207 
297.075378 5.322815 
297.815491 0.063163 
298.079163 0.160656 
300.718109 0.072071 
303.064667 8.946742 
305.546906 0.069209 
306.052155 1.370855 
317.713776 0.085263 
321.0755 5.970179 
322.079071 0.345332 
324.122467 4.778326 
328.471344 0.068319 
330.433014 0.067851 
339.084839 0.062174 
339.902039 0.081985 
348.282745 0.191915 
364.046143 0.092655 
END IONS

