BEGIN IONS
PEPMASS=209.046
CHARGE=1+
COMPOUNDNAME=2,4-diacetylphloroglucinol
LIBRARYQUALITY=3
SMILES=N/A
INCHIKEY=PIFFQYJYNWXNGE-UHFFFAOYSA-N
INCHI=InChI=1S/C10H10O5/c1-4(11)8-6(13)3-7(14)9(5(2)12)10(8)15/h3,13-15H,1-2H3
MSLEVEL=2
SOURCE_INSTRUMENT=N/A-ESI-QFT
FILENAME=library_mgf.mgf
SEQ=*..*
IONMODE=negative
ORGANISM=MONA
NAME=2,4-diacetylphloroglucinol [M-H]-
PI=MoNA
DATACOLLECTOR=MoNA:VF-NPL-QEHF002524
PUBMED=N/A
SUBMITUSER=mwang87
TAGS=
SPECTRUMID=CCMSLIB00004693587
SCANS=2524
50.197266 0.055139 
50.562511 0.008379 
52.386326 0.004859 
53.268135 0.007216 
53.277542 0.009688 
53.585178 0.006724 
54.183178 0.010109 
55.311573 0.006839 
56.420128 0.009114 
56.932713 0.006501 
57.013123 0.004182 
57.885151 0.010197 
58.116795 0.008699 
58.1796 0.009871 
58.218506 0.006354 
62.469532 0.007875 
63.427998 0.007513 
65.001984 0.040681 
66.088707 0.007122 
67.082214 0.006607 
68.226341 0.005251 
69.340019 0.010077 
70.224754 0.009102 
70.370956 0.009781 
70.587418 0.004781 
72.053284 0.008796 
72.804436 0.006771 
73.139008 0.011348 
74.518806 0.007301 
74.725128 0.006776 
75.981644 0.00615 
76.154045 0.007857 
76.540184 0.008589 
77.931297 0.01225 
78.399658 0.00946 
79.412247 0.009253 
79.996346 0.009294 
80.445442 0.008139 
81.033264 1.905848 
82.036499 0.044901 
82.446823 0.006539 
82.799149 0.01088 
83.012512 4.121641 
84.015869 0.095745 
84.357285 0.009952 
86.873878 0.00475 
87.745346 0.006464 
90.010765 0.008325 
91.096954 0.009557 
92.592415 0.009429 
98.729584 0.008864 
99.043655 0.008206 
101.88324 0.008718 
102.288269 0.009962 
103.341209 0.006985 
104.856987 0.005426 
105.033356 0.188553 
107.012619 0.084548 
108.714485 0.008078 
109.741562 0.006203 
110.788887 0.007896 
111.410927 0.008235 
111.511261 0.006222 
113.196014 0.006678 
113.458351 0.009661 
114.136856 0.010934 
120.585632 0.008843 
120.734848 0.01133 
121.064766 0.012723 
123.043945 1.213898 
124.439796 0.007862 
124.556465 0.009129 
125.023239 1.865923 
127.286758 0.007291 
128.034851 0.009753 
131.52771 0.010405 
132.708374 0.008496 
132.886719 0.008603 
135.912796 0.008987 
136.789139 0.006121 
136.795044 0.006313 
137.059921 0.008507 
138.07196 0.009967 
138.189423 0.010597 
139.87677 0.006788 
140.266953 0.008451 
141.054504 0.011596 
145.920914 0.00823 
146.220505 0.004363 
146.954254 0.006688 
149.023392 1.848357 
150.027237 0.015592 
151.002625 0.891316 
152.00621 0.012178 
155.941864 0.008934 
156.500061 0.018542 
159.808289 0.01179 
160.030579 0.008225 
162.090958 0.011637 
162.125122 0.00794 
165.054794 6.452943 
166.057968 0.58185 
167.034073 7.84151 
168.037247 0.568723 
168.135361 0.009984 
168.974442 0.007804 
173.750778 0.010716 
175.002808 0.066496 
182.923492 0.011512 
184.884583 0.009273 
187.503723 0.008501 
187.535904 0.012327 
191.034256 2.566099 
191.04306 0.031501 
192.038071 0.234937 
193.013535 20.159901 
194.016891 1.906172 
195.018387 0.031331 
198.190811 0.011639 
201.246994 0.009742 
203.60788 0.010928 
204.888519 0.00891 
205.684235 0.00755 
206.958511 0.006854 
207.31929 0.004993 
209.026367 0.347054 
209.044998 100.0 
209.869446 0.011295 
210.048721 12.700961 
210.065872 0.007912 
211.049927 0.541951 
217.663605 0.100488 
217.675186 0.055241 
224.876083 0.008694 
227.158585 0.008367 
231.440521 0.010906 
END IONS

