BEGIN IONS
PEPMASS=679.142
CHARGE=1+
COMPOUNDNAME=3-{[(2S,3R,4S,5R,6R)-3-{[(2S,3S,4R,5R,6S)-3,5-dihydroxy-4-methoxy-6-methyloxan-2-yl]oxy}-4,5-dihydroxy-6-methyloxan-2-yl]oxy}-8-hydroxy-15-methyl-11,18-dioxapentacyclo[10.6.2.0�,?.0?,�?.0�?,�?]icosa-1,3,5,7,9(19),12(20),13,15-octaene-10,17-dione
LIBRARYQUALITY=3
SMILES=N/A
INCHIKEY=PONPPNYZKHNPKZ-BAHCCNBTSA-N
INCHI=InChI=1S/C32H32O14/c1-10-8-9-15-18-16(10)29(38)45-26-17-13(23(35)20(19(18)26)30(39)43-15)6-5-7-14(17)44-32-28(24(36)21(33)11(2)42-32)46-31-25(37)27(40-4)22(34)12(3)41-31/h5-9,11-12,21-22,24-25,27-28,31-37H,1-4H3/t11-,12+,21+,22-,24+,25+,27-,28-,31+,32+/m1/s1
MSLEVEL=2
SOURCE_INSTRUMENT=N/A-ESI-QFT
FILENAME=library_mgf.mgf
SEQ=*..*
IONMODE=positive
ORGANISM=MONA
NAME=3-{[(2S,3R,4S,5R,6R)-3-{[(2S,3S,4R,5R,6S)-3,5-dihydroxy-4-methoxy-6-methyloxan-2-yl]oxy}-4,5-dihydroxy-6-methyloxan-2-yl]oxy}-8-hydroxy-15-methyl-11,18-dioxapentacyclo[10.6.2.0�,?.0?,�?.0�?,�?]icosa-1,3,5,7,9(19),12(20),13,15-octaene-10,17-dione [M+K]+
PI=MoNA
DATACOLLECTOR=MoNA:VF-NPL-QEHF001570
PUBMED=N/A
SUBMITUSER=mwang87
TAGS=
SPECTRUMID=CCMSLIB00004692633
SCANS=1570
50.054054 0.033584 
50.383713 0.007721 
51.108849 0.012292 
51.147953 0.0316 
51.355568 0.037209 
51.506374 0.03333 
51.552078 0.032013 
51.632301 0.03366 
52.628338 0.006625 
52.774529 0.027007 
52.810795 0.010803 
53.03944 0.029317 
53.438057 0.00752 
53.534637 0.006586 
53.84848 0.006449 
53.875603 0.031627 
54.331242 0.025947 
54.786713 0.010602 
55.018654 0.03053 
55.054989 1.638523 
55.090408 0.027688 
55.095825 0.028758 
55.141541 0.0323 
55.407738 0.041386 
55.502815 0.032905 
55.748283 0.013355 
56.016933 0.035857 
56.347286 0.028759 
56.526432 0.018047 
56.596107 0.017999 
56.638111 0.012367 
56.829544 0.034818 
57.034248 2.310578 
57.070652 16.325422 
58.065884 0.11502 
58.073929 0.139523 
58.513714 0.02582 
58.545692 0.013829 
58.818439 0.020174 
59.049919 2.575737 
59.059593 0.030051 
59.061138 8.126254 
59.557728 0.030483 
59.811508 0.02431 
60.045135 0.298974 
60.064465 0.026173 
60.234257 0.036277 
60.256641 0.012119 
60.578358 0.03665 
60.699833 0.023216 
61.029182 0.553045 
61.778378 0.017356 
62.116871 0.01233 
62.329769 0.026378 
62.456482 0.0271 
63.142288 0.024002 
63.686523 0.019431 
63.806458 0.00669 
64.306122 0.005828 
64.375984 0.02103 
65.062332 0.011329 
65.120888 0.019994 
65.911278 0.028006 
66.122108 0.030875 
66.585037 0.021422 
66.713554 0.020657 
67.018288 0.023308 
67.054924 2.73389 
67.480705 0.024374 
67.958992 0.007302 
68.021873 0.023281 
68.065712 0.011196 
68.112579 0.015942 
68.617111 0.043449 
68.711784 0.006904 
68.773483 0.013368 
68.925339 0.011118 
68.956718 0.031419 
68.986237 0.021563 
69.034187 0.819361 
69.070557 1.914054 
70.065796 0.475693 
71.013435 0.031955 
71.049797 2.269093 
71.051788 0.023453 
71.086235 17.794167 
71.842926 0.006452 
72.021835 0.016621 
72.045403 0.021131 
72.081429 0.610474 
72.089539 0.784336 
72.339195 0.018767 
73.029053 2.005617 
73.04744 0.150727 
73.065445 2.03059 
73.273895 0.021961 
73.540649 0.030998 
73.592682 0.017372 
73.693237 0.019857 
73.728989 0.030766 
73.736366 0.018822 
74.060753 0.007704 
74.097214 0.056946 
74.103203 0.019868 
74.614075 0.035432 
74.763672 0.022764 
75.044731 7.91246 
75.348511 0.029623 
76.048027 0.046323 
76.063698 0.025682 
76.425873 0.021121 
77.060432 0.084464 
77.139229 0.006239 
77.572044 0.020944 
77.948402 0.036256 
78.754929 0.018735 
79.021851 0.584947 
79.054825 1.263891 
81.034088 0.183619 
81.070457 4.263078 
81.521553 0.006539 
81.607079 0.026534 
81.969933 0.023466 
82.073799 0.008877 
83.049751 4.301339 
83.086121 1.174128 
84.053009 0.009332 
84.081306 0.017959 
84.705551 0.02267 
85.029007 12.239235 
85.065361 6.201659 
85.101768 9.811087 
85.484146 0.033462 
85.540451 0.031441 
86.032295 0.182241 
86.060715 0.007139 
86.06871 0.016009 
86.096947 1.803465 
86.10508 0.225263 
86.128838 0.015409 
86.15834 0.012777 
87.044617 43.896111 
88.047943 1.411564 
88.112656 0.074713 
88.208862 0.024137 
88.297333 0.022641 
89.060242 51.324444 
90.063591 1.939362 
90.092316 0.043515 
90.743896 0.02052 
91.039467 1.492582 
91.054771 1.322768 
91.057816 0.772469 
91.597977 0.024544 
92.042488 0.010675 
92.280029 0.03356 
93.037239 0.03581 
93.055084 0.00777 
93.070381 3.997158 
94.073601 0.010448 
94.336243 0.029258 
94.556358 0.034765 
94.939125 0.014716 
95.049599 1.296459 
95.086021 4.038599 
95.758896 0.007622 
96.044365 0.018507 
96.089302 0.023841 
97.028839 0.71069 
97.065224 0.970566 
97.074608 0.011094 
97.101601 0.72545 
97.20253 0.018812 
98.031448 0.0365 
98.077438 0.01083 
99.044495 3.05607 
99.080833 0.61294 
100.07634 0.019534 
100.112572 0.007147 
101.060066 1.599343 
102.055336 0.090977 
103.03933 1.126541 
103.076202 0.00851 
104.107208 0.020062 
104.14473 0.022957 
105.070213 1.226769 
105.582199 0.028201 
106.065521 4.671912 
106.724426 0.043702 
107.031631 0.022553 
107.0494 0.364376 
107.052979 0.095725 
107.070305 0.110937 
107.085861 2.682925 
107.418739 0.022932 
107.657524 0.012675 
108.089134 0.017311 
108.193893 0.040227 
109.028755 0.064599 
109.065155 0.672756 
109.10154 2.995706 
110.104706 0.024887 
111.044373 5.901291 
111.080772 0.235604 
111.116959 0.072415 
111.326729 0.012253 
112.0476 0.013151 
112.076263 0.008288 
112.394005 0.017221 
112.756927 0.033973 
112.930099 0.011787 
112.980865 0.022061 
113.059906 1.380335 
113.096336 0.16038 
113.675934 0.039601 
113.684738 0.032484 
113.729492 0.022132 
114.322899 0.032984 
114.980843 0.035818 
115.039055 0.070257 
115.07563 1.911465 
115.336525 0.025879 
115.987671 0.006661 
116.053413 0.010853 
116.545151 0.03656 
116.557884 0.020988 
116.59848 0.024567 
117.054817 0.482733 
117.070107 0.234961 
117.091248 0.599216 
118.06546 0.016704 
118.318001 0.016461 
119.049416 0.456263 
119.085777 1.70482 
119.938416 0.024939 
120.080902 0.320696 
120.682037 0.032716 
121.020287 0.028113 
121.028496 0.035894 
121.065018 8.809406 
121.069664 0.054718 
121.101364 3.182016 
121.663612 0.012512 
122.06073 0.020052 
122.068283 0.279576 
122.104813 0.027955 
122.935593 0.01877 
123.0439 0.049305 
123.080612 0.62436 
123.116982 1.284523 
124.039276 0.006976 
124.361397 0.045697 
124.594757 0.007124 
125.059914 0.545461 
125.096313 0.589701 
125.6791 0.033263 
125.888771 0.028369 
126.055168 0.035644 
126.523804 0.011412 
127.03907 1.489827 
127.075607 0.06989 
127.111755 0.014743 
128.070724 0.017606 
128.082275 0.01944 
128.228119 0.01151 
128.604691 0.011229 
129.054733 5.470335 
129.059967 0.012246 
129.070053 0.006799 
129.549194 0.028085 
129.706436 0.024233 
129.94693 0.022826 
130.049622 0.007287 
130.058395 0.025075 
130.159088 0.208759 
131.070343 3.606558 
131.085571 1.003491 
131.117691 0.027905 
132.080933 0.189642 
132.703873 0.034057 
132.738861 0.026971 
133.064865 0.086736 
133.077271 0.025844 
133.085968 19.397329 
133.101227 1.670431 
134.05986 0.048381 
134.08371 0.00595 
134.089279 0.74721 
134.720291 0.035319 
135.044266 0.173802 
135.080475 2.936743 
135.116837 2.687055 
136.07576 0.121789 
136.083878 0.013647 
136.120148 0.013504 
137.059418 0.180204 
137.096115 0.288598 
137.132446 0.358554 
138.054474 0.02966 
139.039337 0.042364 
139.050201 0.006436 
139.075546 0.132762 
139.111435 0.073797 
141.054535 0.59225 
141.113495 0.191287 
142.116776 0.006571 
143.001434 0.012339 
143.070312 3.240233 
143.085434 0.016087 
144.065826 0.044984 
144.080734 0.32543 
145.0495 0.533773 
145.064575 0.039927 
145.101242 1.18194 
146.059723 0.034928 
146.0961 0.199654 
146.117401 0.009204 
147.044098 0.007016 
147.064987 0.048861 
147.080399 5.368252 
147.116837 1.422725 
148.060989 0.008179 
148.075912 0.04409 
148.083511 0.058157 
148.112106 0.015976 
148.120255 0.009217 
148.97049 0.019924 
149.045609 0.010147 
149.060257 0.009043 
149.096176 3.56273 
149.132523 2.303316 
149.233109 0.006721 
150.099655 0.113209 
150.136032 0.021178 
150.151901 0.023529 
150.421783 0.006306 
151.038986 0.095233 
151.075546 0.061818 
151.111786 0.127066 
151.148209 0.098338 
152.070633 0.017306 
152.078934 0.006885 
152.428833 0.038466 
153.05455 0.35535 
153.090973 0.056493 
153.127213 0.007791 
153.163025 0.033146 
155.07048 0.03282 
155.106339 0.006925 
156.101913 0.00727 
156.662155 0.007101 
157.086105 0.013229 
157.101166 0.070757 
158.012878 0.024354 
158.060028 1.895821 
158.116241 0.00684 
159.068054 0.057526 
159.080765 0.011027 
159.116913 1.366123 
160.075684 0.108539 
160.096939 0.007023 
160.138184 0.016596 
161.080719 0.096783 
161.096024 0.465957 
161.132584 0.872895 
162.054947 0.007078 
162.091248 0.548933 
162.098419 0.00686 
163.03891 0.00803 
163.060226 0.247806 
163.075409 0.359614 
163.111786 2.286324 
163.148148 1.446123 
163.229462 0.038811 
163.706909 0.03585 
164.107056 0.235082 
164.151962 0.006253 
164.889252 0.006736 
165.091003 4.337853 
165.127609 0.040734 
165.164154 0.007678 
166.060425 0.044525 
166.094177 0.148617 
166.122818 0.115328 
166.504166 0.037695 
166.531738 0.020004 
167.05545 0.180283 
167.07016 0.008174 
167.106537 0.14329 
167.142441 0.008434 
167.510574 0.014248 
169.047089 7.404056 
170.050507 0.146448 
170.09642 0.041048 
171.06456 0.023192 
171.116776 0.035603 
172.075851 0.678048 
172.112305 0.006636 
173.0961 0.164623 
173.132568 1.30611 
174.054962 0.008591 
174.0914 0.554467 
174.375916 0.012634 
174.770599 0.014551 
175.096512 1.215733 
175.111633 0.271524 
175.148346 0.258361 
176.070663 0.106832 
177.054474 0.085973 
177.090927 0.012298 
177.112137 2.104325 
177.127335 0.988942 
177.163895 0.330185 
177.769272 0.01782 
178.086258 0.06176 
178.131638 0.008465 
179.033875 0.279992 
179.070236 0.05198 
179.106552 0.129422 
180.101822 0.016798 
180.885223 0.032849 
181.071014 0.645041 
182.117218 0.092392 
182.282257 0.006787 
183.062927 1.146616 
183.117172 0.008483 
184.073776 0.40154 
184.13266 0.009446 
185.012085 0.095986 
185.081055 0.00938 
185.132614 0.068675 
186.091385 0.099243 
187.059555 0.039391 
187.147995 0.618369 
188.070572 0.047037 
188.106888 0.051531 
188.143738 0.009117 
189.090561 0.009122 
189.127731 0.024293 
189.163635 0.088802 
189.714035 0.023078 
189.994553 0.007054 
190.086197 0.214527 
191.106445 0.350062 
191.143188 0.218198 
192.065582 0.078625 
193.049835 0.02147 
193.122345 0.390664 
193.42659 0.007288 
195.101456 0.008775 
195.450592 0.030343 
196.568436 0.023078 
196.578781 0.021842 
197.132172 0.007541 
198.091431 0.248152 
198.127975 0.092993 
199.02832 0.024695 
199.111008 0.013441 
199.147583 0.020866 
200.10704 0.298203 
201.110291 0.011675 
201.16391 0.123956 
203.022003 0.044793 
203.143341 0.008305 
204.138824 0.006868 
204.174911 0.075836 
205.159424 0.009305 
206.080688 0.032021 
207.102081 0.030864 
207.138092 0.113896 
207.156647 0.012221 
207.414185 0.024913 
209.11731 0.412585 
210.655518 0.006923 
210.972488 0.035042 
211.148438 0.007864 
211.188019 0.006861 
212.106369 0.032475 
214.085831 0.044368 
214.122498 0.009448 
215.180481 0.00744 
216.102051 0.067292 
217.157059 0.007169 
218.117386 0.011114 
219.174667 0.06251 
221.153885 0.034098 
221.313538 0.028327 
221.589218 0.013697 
222.519897 0.012889 
223.063507 0.035579 
223.22377 0.032037 
223.365021 0.022505 
224.106339 0.009128 
224.471771 0.013647 
225.04274 0.124341 
226.640182 0.024062 
227.63562 0.006967 
228.10173 0.007903 
228.997726 0.031927 
229.954788 0.007494 
230.117355 0.021343 
230.681335 0.015109 
231.173767 0.010328 
232.096725 0.008287 
232.133026 0.034808 
232.711395 0.025137 
233.190231 0.836922 
233.226746 0.130647 
234.230087 0.007082 
235.071533 0.025625 
235.133682 0.01619 
236.952454 0.036541 
237.079269 3.468748 
239.070236 0.812034 
239.094269 0.06823 
240.100998 0.006633 
241.084991 0.007403 
242.080307 0.028096 
242.11763 1.628085 
243.065262 0.008287 
243.121292 0.020337 
243.210815 1.537775 
243.376846 0.027542 
244.214188 0.116638 
245.190765 0.009491 
245.225418 0.00827 
246.112869 0.034114 
246.328064 0.020414 
247.205505 11.671223 
247.900589 0.021928 
248.209122 2.149956 
249.208771 0.041539 
251.070358 0.016054 
251.091599 0.149544 
255.231613 0.179709 
257.989349 0.035571 
258.147949 0.025081 
259.206085 0.013982 
259.837128 0.032354 
260.128143 6.462119 
261.076233 0.099096 
261.131592 0.841243 
261.221191 3.64949 
262.108124 0.013656 
262.224548 0.614328 
263.118652 0.042222 
264.406097 0.014959 
265.049683 0.02254 
267.064972 1.93111 
267.673218 0.035767 
268.068115 0.009207 
268.640656 0.027925 
270.113586 0.007932 
270.717041 0.012094 
271.610809 0.020064 
272.12851 0.032027 
273.220886 0.091959 
274.106506 0.054877 
274.146179 0.012165 
275.200897 0.019076 
275.235474 0.007469 
277.04953 0.453604 
277.216034 0.609112 
279.065094 0.320245 
280.069 0.009622 
281.08078 0.017315 
281.16449 0.015885 
281.91153 0.067639 
283.060303 0.02656 
283.168884 0.827922 
283.262939 0.194052 
284.172272 0.022451 
285.00827 0.039293 
289.251648 0.061203 
289.988464 0.022067 
290.138702 0.031234 
291.065521 0.01726 
291.231812 5.832217 
292.235199 0.747341 
293.044342 0.458884 
293.081055 0.039825 
293.26651 0.028892 
294.052094 0.41772 
295.060089 37.147778 
296.063416 4.742908 
297.06485 0.007152 
299.061554 0.395208 
300.059326 0.033339 
300.126404 0.007311 
304.036438 0.198749 
304.088989 0.074169 
304.10379 0.073342 
305.044342 29.374334 
305.125946 0.020955 
306.048492 4.99978 
306.919647 0.036438 
307.059509 0.453346 
307.108398 0.116628 
308.063995 0.011239 
309.042053 0.008836 
309.075745 2.696731 
309.737213 0.022222 
310.079163 0.095399 
310.308075 0.020951 
310.587921 0.03114 
311.05484 3.890761 
311.294159 0.049532 
312.057983 0.159326 
314.056458 0.041598 
319.060303 0.141508 
320.062256 0.006743 
321.039398 7.925946 
321.0737 0.029363 
322.043213 0.925245 
322.914337 0.796781 
323.054718 7.503102 
324.058228 1.07907 
325.06958 0.018175 
327.078064 0.174663 
327.38327 0.008937 
329.042114 0.132121 
329.120636 6.382837 
330.124176 0.494795 
332.186493 0.008202 
333.03949 0.06782 
334.047516 0.289738 
335.054138 0.130677 
336.057983 0.102197 
337.070587 3.752748 
338.0737 0.292182 
339.049957 1.615684 
339.231537 0.010251 
340.052521 0.026411 
340.321472 0.037408 
343.056 0.006902 
343.208344 0.073725 
345.094818 0.312885 
348.221497 0.032628 
350.982513 0.045025 
351.049744 0.312753 
352.053711 0.017905 
353.064972 0.092278 
355.022125 0.084487 
355.081238 0.073407 
356.028748 3.632078 
357.034271 0.733106 
357.060089 0.191729 
358.844269 0.059865 
359.029175 0.010764 
360.368805 0.0377 
360.838989 0.75141 
362.655884 0.013737 
363.171448 0.207207 
365.065491 0.049107 
372.003204 0.566232 
373.005524 1.967978 
373.031586 29.647753 
373.324585 0.032452 
374.009644 0.26712 
374.035278 5.690196 
374.138855 0.04789 
375.037292 0.267939 
375.866669 0.0415 
377.188904 0.017114 
378.848724 0.118685 
383.140106 5.018373 
387.045715 0.048927 
387.233032 0.006548 
389.319855 0.021806 
389.993622 0.024441 
391.011688 4.973063 
392.0159 0.705101 
393.044861 0.535714 
394.047638 0.025714 
397.022705 0.01952 
399.090118 0.00839 
399.116516 0.078813 
400.120972 0.013069 
401.188385 0.024273 
402.723633 0.032033 
405.027069 0.114231 
405.836578 0.235978 
405.98349 0.021065 
407.057861 0.03691 
407.952942 0.03093 
409.022858 22.241034 
409.200684 0.024992 
410.025909 4.266802 
410.05542 0.013398 
411.027435 0.280802 
411.054932 0.044346 
414.096771 0.023333 
416.190948 0.023643 
419.043121 0.128084 
419.193359 0.041792 
419.851776 0.644658 
423.038239 1.398806 
423.845795 0.012576 
424.041382 0.072305 
426.124084 0.007007 
427.033478 3.08081 
428.037079 0.71825 
429.040344 0.072005 
431.407501 0.025955 
435.038116 0.126322 
437.05542 0.044064 
437.193115 0.013083 
437.863312 0.054147 
439.202698 33.731754 
440.206207 0.409682 
441.046844 0.184062 
443.278534 0.031111 
444.014618 0.015687 
445.022125 0.263379 
447.346619 1.403844 
448.35144 0.094021 
453.857452 0.120335 
455.179047 0.340597 
456.182983 0.042143 
459.038422 0.355544 
460.04361 0.018411 
461.952667 0.008194 
462.853241 0.091512 
463.032898 0.312884 
464.849854 0.985736 
465.850922 0.017234 
467.39621 0.038986 
470.811981 0.030085 
476.94342 0.02945 
477.048828 1.499437 
478.053009 0.234255 
478.866333 0.034187 
482.860901 0.199261 
485.303741 0.377051 
490.993927 0.027197 
493.248016 0.197525 
495.06012 0.020528 
495.265259 100.0 
496.268311 1.788909 
511.243408 0.377041 
512.247437 0.076175 
512.768372 0.031176 
512.976624 0.007588 
515.993835 0.026524 
519.067749 0.367763 
521.778687 0.029628 
534.115173 0.03176 
536.954895 0.010249 
547.621033 0.018688 
549.311218 0.086014 
550.453613 0.020863 
550.963257 0.015423 
551.327881 20.34034 
552.179321 0.02281 
552.331238 0.178142 
552.941284 0.00826 
554.930542 0.007701 
556.930786 0.014376 
562.38385 0.036163 
568.205383 0.018682 
575.971375 0.025944 
600.61908 0.017126 
607.390869 1.837944 
608.352783 0.019029 
609.874207 0.035894 
617.956726 0.033409 
622.546875 0.043895 
651.723328 0.025299 
651.854919 0.0304 
667.100464 0.035456 
677.481323 3.335136 
678.311707 0.006691 
678.481995 1.567205 
679.135742 0.429184 
679.272339 0.019682 
679.460144 6.535542 
680.462219 2.180808 
696.896545 0.018541 
701.213196 0.016763 
703.312256 0.029752 
END IONS

