BEGIN IONS
PEPMASS=423.0
CHARGE=1+
COMPOUNDNAME=Massbank:KO002470 Blasticidin S
LIBRARYQUALITY=3
SMILES=NC(=N)N(C)CC[C@@H](N)CC(=O)N[C@@H](C=2)[C@@H](C(O)=O)O[C@H](C2)N(C=1)C(=O)N=C(N)C1
INCHIKEY=CXNPLSGKWMLZPZ-QOBDMFJFSA-N
INCHI=1S/C17H26N8O5/c1-24(16(20)21)6-4-9(18)8-12(26)22-10-2-3-13(30-14(10)15(27)28)25-7-5-11(19)23-17(25)29/h2-3,5,7,9-10,13-14H,4,6,8,18H2,1H3,(H3,20,21)(H,22,26)(H,27,28)(H2,19,23,29)
MSLEVEL=2
SOURCE_INSTRUMENT=ESI-LC-ESI-QQ
FILENAME=Massbank_ESI_positive_8_1_2014_peaks.mgf
SEQ=*..*
IONMODE=Positive
ORGANISM=MASSBANK
NAME=Massbank:KO002470 Blasticidin S [M+H]+
PI=Putative Massbank Match
DATACOLLECTOR=Massbank
PUBMED=N/A
SUBMITUSER=mwang87
TAGS=
SPECTRUMID=CCMSLIB00000217435
SCANS=8272
74.1 376238.0 
79.8 49505.0 
81.2 193069.5 
82.8 24752.5 
84.0 14851.5 
92.9 49505.0 
93.8 34653.5 
96.4 24752.5 
104.8 29703.0 
111.3 19802.0 
112.3 727723.5 
115.9 29703.0 
124.0 272277.5 
128.9 212871.5 
130.9 29703.0 
139.8 14851.5 
150.3 29703.0 
154.1 688119.5 
155.9 29703.0 
162.1 138614.0 
163.4 1029704.0 
164.3 9901.0 
171.2 702971.0 
177.0 29703.0 
181.4 24752.5 
185.3 207921.0 
188.4 69307.0 
189.3 128713.0 
190.7 34653.5 
202.5 39604.0 
207.4 49505.0 
210.1 14851.5 
222.4 1024753.5 
233.0 14851.5 
244.5 19802.0 
251.4 79208.0 
261.2 94059.5 
262.9 34653.5 
268.2 227723.0 
270.1 9901.0 
287.5 24752.5 
295.4 326733.0 
305.5 34653.5 
312.7 1128714.0 
332.2 9901.0 
410.1 29703.0 
423.3 79208.0 
END IONS

