BEGIN IONS
PEPMASS=282.17
CHARGE=1+
COMPOUNDNAME=Massbank:BML00700 Cycloheximide
LIBRARYQUALITY=3
SMILES=CC1CC(C(=O)C(C1)C(CC2CC(=O)NC(=O)C2)O)C
INCHIKEY=YPHMISFOHDHNIV-UHFFFAOYSA-N
INCHI=1S/C15H23NO4/c1-8-3-9(2)15(20)11(4-8)12(17)5-10-6-13(18)16-14(19)7-10/h8-12,17H,3-7H2,1-2H3,(H,16,18,19)
MSLEVEL=2
SOURCE_INSTRUMENT=ESI-LC-ESI-QTOF
FILENAME=Massbank_ESI_positive_8_1_2014_peaks.mgf
SEQ=*..*
IONMODE=Positive
ORGANISM=MASSBANK
NAME=Massbank:BML00700 Cycloheximide [M+H]+
PI=Putative Massbank Match
DATACOLLECTOR=Massbank
PUBMED=N/A
SUBMITUSER=mwang87
TAGS=
SPECTRUMID=CCMSLIB00000205001
SCANS=261
107.0487 40.0 
107.0859 42.0 
109.0973 24.0 
121.0244 21.0 
135.1128 24.0 
143.0825 22.0 
145.0988 62.0 
153.0882 32.0 
157.0999 34.0 
159.1105 28.0 
159.1277 22.0 
173.1339 88.0 
177.1284 21.0 
185.0897 25.0 
187.1061 56.0 
205.127 38.0 
218.149 20.0 
219.1418 47.0 
228.1241 26.0 
229.1218 153.0 
236.1534 24.0 
246.1477 395.0 
247.1324 162.0 
264.1542 186.0 
264.1964 36.0 
265.1427 237.0 
282.1585 97.0 
END IONS

