BEGIN IONS
PEPMASS=280.155
CHARGE=1+
COMPOUNDNAME=MoNA:2874967 Cycloheximide
LIBRARYQUALITY=3
SMILES=N/A
INCHIKEY=YPHMISFOHDHNIV-UHFFFAOYSA-N
INCHI=InChI=1S/C15H23NO4/c1-8-3-9(2)15(20)11(4-8)12(17)5-10-6-13(18)16-14(19)7-10/h8-12,17H,3-7H2,1-2H3,(H,16,18,19)
MSLEVEL=2
SOURCE_INSTRUMENT=LC-ESI-QTOF-LC-ESI-QTOF
FILENAME=output_mgf.mgf
SEQ=*..*
IONMODE=
ORGANISM=MONA
NAME=MoNA:2874967 Cycloheximide [M-H]-
PI=MoNA
DATACOLLECTOR=MoNA
PUBMED=N/A
SUBMITUSER=mwang87
TAGS=
SPECTRUMID=CCMSLIB00000569279
SCANS=6530
110.0245 27.855205 
110.0573 0.860537 
110.1222 0.579927 
112.044 0.991488 
123.0816 0.617342 
125.0977 5.153868 
151.1136 2.132635 
154.0504 100.0 
154.0881 3.068001 
154.1385 0.757647 
154.1656 1.421757 
154.7631 0.505098 
177.1279 0.551866 
244.824 0.551866 
262.1438 1.374988 
280.1547 4.255916 
END IONS

