BEGIN IONS
PEPMASS=599.341
CHARGE=1+
COMPOUNDNAME=deferrioxamine E
LIBRARYQUALITY=3
SMILES=N/A
INCHIKEY=NHKCCADZVLTPPO-UHFFFAOYSA-N
INCHI=InChI=1S/C27H48N6O9/c34-22-10-14-26(38)32(41)20-8-3-6-18-30-24(36)12-15-27(39)33(42)21-9-2-5-17-29-23(35)11-13-25(37)31(40)19-7-1-4-16-28-22/h40-42H,1-21H2,(H,28,34)(H,29,35)(H,30,36)
MSLEVEL=2
SOURCE_INSTRUMENT=N/A-ESI-QFT
FILENAME=library_mgf.mgf
SEQ=*..*
IONMODE=negative
ORGANISM=MONA
NAME=deferrioxamine E [M-H]-
PI=MoNA
DATACOLLECTOR=MoNA:VF-NPL-QEHF004052
PUBMED=N/A
SUBMITUSER=mwang87
TAGS=
SPECTRUMID=CCMSLIB00004695115
SCANS=4052
50.286713 0.03881 
50.365852 0.049439 
50.488773 0.045335 
50.507267 0.027018 
50.983669 0.045016 
51.489445 0.046866 
52.109161 0.049388 
52.478477 0.035504 
52.711899 0.054524 
52.747631 0.047866 
52.775654 0.0451 
52.815029 0.047707 
53.444553 0.049816 
53.860664 0.027023 
53.941788 0.037536 
54.290131 0.041619 
55.017639 0.651307 
56.137642 0.043323 
56.660721 0.041073 
56.765202 0.050829 
57.033192 0.116849 
57.143723 0.044154 
57.219795 0.038957 
58.028488 6.348846 
58.400936 0.036882 
58.54826 0.040909 
58.845936 0.050507 
59.012516 1.357379 
59.060287 0.035596 
59.543591 0.048043 
61.047272 0.056677 
61.429134 0.04525 
61.509109 0.049914 
61.718929 0.05199 
62.032135 0.027841 
62.548431 0.057052 
62.983089 0.043327 
63.516129 0.025433 
63.843609 0.044596 
64.773766 0.044846 
66.100594 0.04923 
67.319847 0.048072 
67.404808 0.062579 
67.74321 0.041833 
68.428551 0.047741 
68.506958 0.046227 
68.957886 0.04021 
70.028481 2.793663 
70.414665 0.057338 
70.662544 0.045346 
71.012482 2.147223 
71.28756 0.045814 
71.416374 0.037795 
72.044167 4.966924 
76.529495 0.052678 
77.945084 0.048234 
78.14489 0.0521 
78.373947 0.054934 
79.4925 0.042272 
79.672424 0.041593 
79.683716 0.053862 
79.757973 0.051122 
79.791199 0.046754 
80.210739 0.051812 
81.258751 0.064843 
81.821739 0.042057 
82.026024 0.055877 
82.028534 10.488152 
82.043037 0.046816 
82.064995 0.142306 
83.012497 0.233226 
83.262672 0.040697 
83.320053 0.045824 
83.345291 0.050631 
83.762405 0.042362 
84.04055 0.050671 
84.459343 0.062158 
84.853767 0.053112 
85.17733 0.053966 
85.958054 0.045568 
85.969643 0.045108 
87.162697 0.043918 
87.906715 0.046348 
89.680794 0.049214 
89.84697 0.051813 
89.878296 0.046158 
90.355812 0.04197 
91.710526 0.048896 
94.104446 0.026986 
94.410507 0.054628 
95.554077 0.043106 
95.740356 0.051959 
96.007919 0.039946 
97.039413 0.443763 
97.069298 0.043113 
97.075851 0.499765 
98.00647 0.107992 
98.023476 100.0 
98.059914 0.188325 
98.73877 0.055969 
99.007545 3.560464 
99.020699 0.054007 
99.02681 3.301083 
99.618355 0.04654 
100.039124 4.34962 
100.075424 0.058054 
101.977386 0.061592 
103.07917 0.038136 
103.638329 0.026906 
106.374481 0.048518 
108.277573 0.025449 
108.668877 0.044931 
110.023766 0.081709 
111.085823 0.043368 
111.816528 0.040359 
112.039139 0.030222 
112.39975 0.047229 
113.686371 0.050231 
115.684715 0.051358 
116.733833 0.028357 
118.957161 0.058339 
120.064804 0.050863 
120.081055 0.048793 
120.925972 0.048998 
121.239662 0.053051 
121.463173 0.048114 
124.039566 0.043196 
125.372917 0.029063 
126.091408 1.26756 
128.043884 0.056579 
128.107071 0.685687 
128.605621 0.042442 
128.843948 0.042147 
129.335098 0.04878 
130.820618 0.044467 
130.991348 0.046242 
133.718506 0.049141 
134.219528 0.050831 
135.026123 0.045071 
135.091812 0.22924 
135.211075 0.054144 
135.624405 0.046704 
136.075745 14.027159 
136.08168 0.047544 
136.629883 0.055735 
136.777206 0.029459 
137.001099 0.05334 
137.070755 0.054961 
137.079147 0.336417 
138.054688 0.054006 
138.321899 0.047818 
138.740982 0.046108 
139.086533 0.302897 
140.795486 0.047077 
142.049942 1.609964 
143.755554 0.045038 
151.086731 4.09425 
151.41954 0.029363 
152.070862 0.035684 
152.199539 0.031188 
153.102371 13.251788 
153.792892 0.050388 
153.999802 0.053535 
154.086441 2.131424 
154.105698 0.542866 
155.118027 7.397237 
156.121429 0.136602 
157.097351 0.982807 
161.033157 0.062641 
161.071075 6.815461 
162.07489 0.147517 
162.271576 0.043837 
162.349197 0.05658 
163.086792 19.811794 
163.358475 0.052954 
164.070877 0.110603 
164.082687 0.047716 
164.090286 1.079153 
164.6138 0.041516 
165.897888 0.044036 
166.086502 0.833169 
167.977875 0.037941 
169.080917 0.051214 
173.003891 0.045228 
174.690002 0.045499 
176.977386 0.048428 
178.874893 0.057529 
179.081818 8.86986 
179.223022 0.044021 
179.538574 0.049557 
180.085175 0.246893 
181.054581 0.037071 
181.097412 54.268238 
181.523743 0.04394 
182.081329 0.175498 
182.100891 4.279814 
182.977798 0.044469 
183.113098 5.522684 
184.339371 0.041732 
188.64444 0.051712 
191.360046 0.046385 
191.827072 0.047101 
195.113037 0.061826 
195.839844 0.027293 
198.04776 0.026335 
199.108139 5.00868 
200.312668 0.04115 
201.937485 0.056139 
202.237045 0.041074 
204.597717 0.047042 
209.092911 0.105629 
209.128677 0.049689 
212.817276 5.40526 
212.828903 0.145853 
214.267029 0.03437 
216.111023 0.047854 
216.613831 0.061803 
217.11879 4.210239 
224.055191 0.055234 
224.571182 0.051786 
225.68306 0.050922 
231.027298 0.055035 
232.425339 0.048755 
237.124268 0.339488 
241.526749 0.044119 
241.65271 0.058092 
242.675201 0.05 
246.871094 0.029473 
249.578766 0.053595 
258.451874 0.063236 
259.58728 0.042878 
260.514984 0.049761 
264.055542 0.052292 
265.017578 0.044242 
265.119598 1.128615 
268.100861 0.046946 
271.033508 0.050256 
273.297302 0.053226 
276.174561 0.054076 
277.321136 0.049712 
277.571808 0.042697 
281.210754 0.045359 
290.396149 0.05379 
290.781738 0.050972 
298.750824 0.046741 
301.23877 0.048533 
314.626099 0.045541 
321.690521 0.04466 
323.216675 0.028891 
324.264221 0.028155 
327.541077 0.049037 
341.374756 0.057058 
341.580383 0.051906 
343.946899 0.057497 
345.902435 0.049922 
348.703522 0.046592 
350.514099 0.056467 
351.650146 0.048282 
364.942078 0.042176 
368.880493 0.045417 
371.028564 0.056742 
371.715973 0.057373 
405.201843 0.028884 
405.32959 0.027669 
412.746063 0.056943 
415.45105 0.054862 
416.656555 0.033813 
420.757233 0.040769 
432.723541 0.048073 
434.047516 0.026117 
437.824982 0.046491 
455.283966 0.027398 
459.580902 0.06518 
466.540741 0.030666 
466.865753 0.04399 
472.91272 0.054593 
477.598724 0.062631 
488.546661 0.046238 
502.165253 0.05441 
504.016357 0.063027 
510.408051 0.027312 
513.112061 0.058755 
517.968933 0.03204 
523.082886 0.054839 
531.784058 0.054749 
533.202759 0.031428 
543.788818 0.058839 
545.527466 0.049899 
546.336365 0.050576 
548.797363 0.069572 
553.388672 0.036058 
565.451355 0.055779 
566.182678 0.066688 
582.524475 0.041542 
589.798889 0.033134 
601.673767 0.05635 
614.269531 0.029236 
629.622314 0.030421 
END IONS

