BEGIN IONS
PEPMASS=443.219
CHARGE=1+
COMPOUNDNAME=LOVASTATIN
LIBRARYQUALITY=3
SMILES=N/A
INCHIKEY=PCZOHLXUXFIOCF-BXMDZJJMSA-N
INCHI=InChI=1S/C24H36O5/c1-5-15(3)24(27)29-21-11-14(2)10-17-7-6-16(4)20(23(17)21)9-8-19-12-18(25)13-22(26)28-19/h6-7,10,14-16,18-21,23,25H,5,8-9,11-13H2,1-4H3/t14-,15-,16-,18+,19+,20-,21-,23-/m0/s1
MSLEVEL=2
SOURCE_INSTRUMENT=N/A-ESI-QFT
FILENAME=library_mgf.mgf
SEQ=*..*
IONMODE=positive
ORGANISM=MONA
NAME=LOVASTATIN [M+K]+
PI=MoNA
DATACOLLECTOR=MoNA:VF-NPL-QEHF003462
PUBMED=N/A
SUBMITUSER=mwang87
TAGS=
SPECTRUMID=CCMSLIB00004694525
SCANS=3462
50.821087 0.17543 
51.129723 1.559115 
51.575333 1.20848 
51.589554 2.625693 
51.897038 1.178265 
52.494987 2.537119 
52.982948 2.527674 
53.249187 0.143177 
53.676109 0.151637 
53.776501 0.184192 
53.899384 2.693264 
54.597584 2.101818 
55.055038 1.945585 
55.193134 1.9663 
55.643478 0.139907 
56.96397 0.644304 
56.965561 60.44022 
57.034267 4.630469 
57.061417 2.092341 
57.07061 6.27429 
57.150448 1.081999 
57.260567 1.496234 
58.065968 0.583018 
58.404755 3.193569 
58.631264 0.144227 
58.655148 1.08865 
58.717869 0.905763 
58.851074 2.376502 
59.0499 100.0 
59.051582 0.872462 
59.593853 2.756584 
59.606709 0.140045 
60.053234 0.942606 
60.667007 1.639873 
60.707981 2.701852 
61.011314 0.671978 
61.291981 3.390278 
61.556293 2.037555 
61.73177 1.124711 
61.81472 2.046532 
61.867634 1.878816 
62.019238 0.616982 
62.060894 0.129579 
62.197353 2.705051 
62.724258 1.244705 
62.861031 2.28009 
63.283577 2.841278 
64.504265 0.153165 
64.819374 0.893245 
64.977158 0.146762 
66.268967 0.135138 
66.353401 3.025974 
66.459328 1.183127 
67.054932 1.911935 
67.331566 1.324989 
68.176544 2.448418 
68.526688 1.766094 
68.750778 0.14374 
69.070625 0.700697 
69.246223 1.264105 
70.831314 1.06673 
70.981262 0.138062 
71.086235 0.667182 
71.459518 1.648362 
71.952995 2.035498 
72.824196 0.929887 
72.960258 0.162041 
73.02906 0.926938 
73.047485 4.051689 
73.111908 1.986491 
73.372818 0.768731 
73.379204 2.15384 
73.680099 1.287999 
74.349632 1.758963 
74.598045 3.191744 
75.021065 1.76192 
75.822517 1.46605 
75.870514 2.588106 
75.934837 2.604513 
77.355247 0.132085 
78.475571 0.744121 
78.626907 1.889948 
78.979218 0.812268 
79.054848 1.37967 
79.453552 0.176865 
79.702972 2.627411 
79.882393 0.321316 
81.070503 4.55238 
81.423264 2.613798 
81.613503 0.288611 
82.121017 0.787305 
83.086182 0.348179 
83.24382 0.179066 
84.081261 0.230527 
84.303696 0.320214 
84.599747 3.18379 
85.662247 0.979813 
85.782806 1.594471 
86.579582 0.336245 
86.62294 0.183755 
87.044899 0.240941 
88.340317 0.163739 
89.060036 0.253792 
89.524338 1.307484 
91.054756 3.807183 
91.057831 14.718198 
91.060677 0.171043 
91.372375 2.643308 
91.537369 1.132368 
92.781868 1.683436 
93.033081 2.065402 
93.070343 2.180876 
94.704842 2.612071 
94.907639 2.784806 
95.049591 0.531743 
95.086067 1.124612 
98.247803 1.522087 
98.785774 1.66626 
98.975769 0.277314 
99.393761 2.546288 
102.091812 0.430579 
102.379684 0.965733 
103.79937 0.191333 
105.070213 5.260129 
106.065506 0.154982 
107.085899 0.360256 
108.06514 2.031721 
108.766312 1.138463 
109.047432 1.767355 
111.481903 0.309094 
112.293388 0.854791 
113.067795 0.792862 
113.661072 1.832888 
115.054665 0.183713 
116.364655 1.060014 
116.971039 1.128664 
116.985985 0.189978 
117.070107 3.369621 
117.915413 0.150488 
118.018578 1.544777 
119.085655 1.818682 
119.1045 0.187464 
119.127792 2.724186 
119.769798 2.496823 
120.308617 0.403057 
121.065247 0.219803 
121.651711 1.183605 
121.824944 0.412432 
123.098045 1.936371 
124.039711 0.168852 
124.163795 0.173296 
125.616608 1.866262 
126.156708 1.025671 
127.007027 1.390174 
127.692764 2.272313 
128.061951 0.220667 
129.070007 1.030733 
130.077911 0.162732 
131.085709 4.411473 
131.638748 2.630723 
132.695908 0.206912 
132.805237 0.182066 
134.726486 0.196955 
138.550583 1.329574 
139.648651 1.730433 
141.021637 0.194815 
141.06987 0.204794 
142.077652 0.468324 
143.085648 3.182753 
143.387344 0.150768 
144.95845 0.230677 
145.017334 0.36132 
145.101242 2.540079 
146.256287 1.367849 
146.437836 1.636677 
146.974503 0.203238 
149.044724 0.183107 
149.229507 2.540056 
152.656906 2.474354 
152.855469 1.198598 
154.883133 0.193316 
155.085312 0.961927 
155.791397 1.520302 
156.093536 0.241797 
157.101334 0.954012 
157.754013 1.470038 
157.865219 2.323535 
158.109283 0.174212 
159.032822 1.777327 
159.117172 0.254021 
159.788834 1.05912 
161.513474 2.034609 
164.370926 1.280119 
167.05545 1.578755 
169.101028 1.17877 
171.897995 1.851507 
172.633331 2.158695 
173.048935 0.605079 
173.132385 1.041486 
175.1978 1.53949 
177.043396 16.186058 
177.309372 1.536532 
182.554337 2.136175 
184.533493 2.067866 
184.999313 1.155659 
185.758484 0.191232 
187.122482 2.264927 
187.893158 1.764773 
190.511978 0.150181 
191.120377 2.768664 
191.525528 1.214801 
193.101608 0.387265 
195.054016 4.035128 
195.117416 0.238306 
196.475998 0.193733 
198.60321 0.913318 
198.926682 1.124735 
200.803467 0.179844 
202.931747 0.174658 
203.282715 3.178261 
206.097702 1.456403 
210.891312 2.360772 
215.926331 0.216403 
220.253723 24.969252 
220.904221 0.188563 
221.15097 0.676203 
225.042999 1.373727 
227.022415 0.375718 
229.240463 1.234412 
230.318085 0.193896 
236.523346 1.070807 
237.013367 2.47749 
237.028198 2.229638 
237.09697 1.312835 
238.759644 2.649229 
240.362167 2.784079 
241.144394 2.25462 
241.244736 1.246826 
241.330063 3.129151 
245.08461 0.563051 
246.963577 2.762373 
255.068893 0.233757 
257.025574 2.906913 
258.601929 2.123952 
259.155579 1.953412 
260.022919 0.166085 
264.286316 2.069826 
266.082001 0.192627 
268.833801 1.736095 
269.085266 0.54529 
271.942078 2.621308 
273.614868 0.212808 
277.075012 0.271521 
282.005493 2.025054 
284.174286 1.169157 
297.116028 0.646304 
297.762115 1.981962 
299.131683 0.510849 
305.069702 1.45165 
308.861969 1.18257 
310.419708 0.385469 
311.182526 1.655229 
318.70578 3.365932 
318.84848 1.510587 
321.800812 0.878542 
328.313904 2.645138 
328.473755 2.23616 
332.96524 2.978053 
336.881348 0.337757 
342.613464 1.542789 
342.995239 0.236445 
343.64798 1.864183 
343.973328 0.322452 
348.186249 1.811261 
348.90625 2.530195 
350.534882 1.038088 
353.430176 3.545113 
375.322357 0.18342 
375.940765 1.236985 
376.567108 0.368995 
385.682953 1.861359 
395.144318 3.278504 
396.231171 0.369136 
399.170746 0.167147 
402.107727 1.868288 
419.610199 0.387962 
424.43457 1.082897 
428.084473 1.448504 
431.961334 2.967279 
439.860931 1.278119 
449.03714 2.945818 
455.106201 0.194601 
465.464844 1.048388 
466.649109 1.986743 
469.803284 0.349348 
END IONS

