BEGIN IONS
TITLE=Scan Number: 1260
PEPMASS=211.08701
CHARGE=1+
COMPOUNDNAME=Pyocyanin
LIBRARYQUALITY=3
SMILES=CN1C2=CC=CC=C2N=C3C1=CC=CC3=O
INCHIKEY=YNCMLFHHXWETLD-UHFFFAOYSA-N
INCHI=InChI=1S/C13H10N2O/c1-15-10-6-3-2-5-9(10)14-13-11(15)7-4-8-12(13)16/h2-8H,1H3
MSLEVEL=2
SOURCE_INSTRUMENT=LC-ESI-qTof
FILENAME=f.negarg/340_P4_isolates/mzXML_P4_iso/P4_MI/NG9_RA9_01_5547.mzXML;
SEQ=*..*
NOTES=
IONMODE=Positive
ORGANISM=GNPS-LIBRARY
NAME=Pyocyanin M+H
SPECTRUMID=CCMSLIB00000839195
ACTIVATION=CID
INSTRUMENT=ion trap
SCANS=1260
140.049286 688.0 
142.047791 540.0 
167.062714 1156.0 
168.068802 36592.0 
169.069946 4464.0 
172.061264 472.0 
181.07515 1516.0 
182.082077 2272.0 
183.091263 22700.0 
184.092484 2736.0 
185.072601 308.0 
192.068985 612.0 
193.075195 1008.0 
194.079636 696.0 
196.062851 23416.0 
197.066605 4500.0 
198.0681 744.0 
210.078003 320.0 
211.086456 85796.0 
212.089569 14428.0 
213.089844 1608.0 
END IONS

