BEGIN IONS
PEPMASS=616.311
CHARGE=1+
COMPOUNDNAME=destruxin A
LIBRARYQUALITY=3
SMILES=N/A
INCHIKEY=XIYSEKITPHTMJT-UHFFFAOYSA-N
INCHI=InChI=1S/C29H47N5O7/c1-9-12-21-27(38)34-16-11-13-20(34)26(37)31-23(18(5)10-2)28(39)33(8)24(17(3)4)29(40)32(7)19(6)25(36)30-15-14-22(35)41-21/h9,17-21,23-24H,1,10-16H2,2-8H3,(H,30,36)(H,31,37)
MSLEVEL=2
SOURCE_INSTRUMENT=N/A-ESI-QFT
FILENAME=library_mgf.mgf
SEQ=*..*
IONMODE=positive
ORGANISM=MONA
NAME=destruxin A [M+K]+
PI=MoNA
DATACOLLECTOR=MoNA:VF-NPL-QEHF017777
PUBMED=N/A
SUBMITUSER=mwang87
TAGS=
SPECTRUMID=CCMSLIB00004708840
SCANS=17777
51.160866 0.041866 
51.501511 0.056415 
51.550117 0.042386 
51.565598 0.041885 
51.745251 0.051135 
51.915165 0.048906 
52.044094 0.04056 
52.488586 0.048951 
53.170998 0.038818 
53.188225 0.028997 
53.424641 0.052941 
53.927483 0.072705 
54.092979 0.050695 
54.189583 0.046356 
54.304562 0.049524 
55.575394 0.045867 
55.921371 0.046923 
55.978195 0.049519 
56.412281 0.0677 
57.070087 0.059417 
57.24929 0.047756 
57.265808 0.046651 
57.355927 0.038928 
57.927391 0.064096 
58.034954 0.052369 
58.06543 0.835885 
58.228951 0.051497 
58.755833 0.0657 
59.506275 0.054993 
59.837265 0.040163 
60.100578 0.070118 
60.485703 0.054883 
60.646599 0.03769 
60.969418 0.048174 
61.156471 0.070541 
61.166931 0.070922 
61.183624 0.057123 
61.439289 0.046356 
62.245991 0.079091 
62.638573 0.10359 
63.293327 0.040925 
63.956078 0.057674 
64.147331 0.112225 
64.771996 0.033077 
65.263969 0.055086 
65.744499 0.047161 
66.724968 0.052762 
66.770378 0.090054 
68.382942 0.05718 
68.76313 0.102445 
68.864548 0.048699 
69.036514 0.124334 
69.07 0.050089 
69.127296 0.054104 
69.150459 0.056738 
69.155701 0.038392 
69.336159 0.028284 
69.393486 0.038752 
69.433289 0.049515 
69.720985 0.045376 
70.065292 0.291729 
70.663712 0.070583 
72.206154 0.040135 
72.592262 0.070909 
72.71653 0.042129 
73.637825 0.04699 
74.019928 0.036923 
74.338699 0.043226 
75.614098 0.119223 
75.754509 0.055139 
76.037987 0.049496 
77.096634 0.035192 
77.428879 0.09661 
78.250778 0.045954 
78.327347 0.037204 
78.697128 0.038382 
80.212936 0.051045 
80.571861 0.054606 
81.74176 0.122914 
81.948021 0.049868 
82.242783 0.041374 
82.289177 0.042742 
83.493919 0.054881 
85.124916 0.043136 
85.843819 0.062155 
86.096489 1.52467 
86.992157 0.048827 
87.043991 0.10016 
88.362022 0.044075 
88.41227 0.053598 
89.059769 0.293901 
89.114754 0.053637 
89.426941 0.046207 
89.815109 0.038553 
89.939827 0.046823 
90.373329 0.030181 
91.287918 0.0524 
91.737289 0.066667 
92.52356 0.046198 
92.695328 0.048013 
93.21814 0.049586 
95.693481 0.038557 
96.318092 0.031242 
96.722443 0.053555 
100.946564 0.037752 
101.073723 0.057813 
101.111221 0.041542 
101.495438 0.059958 
102.878639 0.03664 
103.14917 0.041822 
103.75692 0.065866 
103.814507 0.079557 
104.748138 0.051412 
105.480736 0.075839 
107.675034 0.05555 
108.436172 0.048531 
108.991898 0.099168 
109.198257 0.048955 
117.146553 0.068592 
117.753853 0.043382 
117.987396 0.048902 
120.822937 0.063451 
121.903351 0.043246 
124.346786 0.077148 
125.441414 0.076296 
125.862846 0.048329 
128.370514 0.052742 
132.238342 0.077045 
132.475388 0.040713 
132.664581 0.045705 
133.187988 0.051365 
134.145462 0.136272 
134.341293 0.047674 
136.162994 0.041413 
137.181107 0.044027 
141.126892 0.0557 
141.234177 0.044426 
142.828506 0.055532 
144.836136 0.051352 
145.527679 0.114963 
146.131485 0.05563 
146.293045 0.03103 
148.860214 0.060043 
150.584549 0.043158 
150.851746 0.042205 
152.826462 0.081211 
153.725357 0.046376 
154.309219 0.042889 
154.363953 0.052692 
157.953018 0.053479 
159.024063 0.043108 
160.862137 0.05479 
161.813919 0.062065 
163.49765 0.042196 
164.343079 0.034844 
167.076721 0.04166 
168.511826 0.070766 
171.32402 0.0453 
171.853287 0.083372 
172.45459 0.028999 
173.581146 0.054327 
173.673294 0.039907 
175.215866 0.113524 
176.123581 0.030338 
176.674164 0.052632 
177.053146 0.040726 
178.018188 0.051526 
184.618683 0.050586 
186.759995 0.051894 
186.879288 0.871949 
186.944946 0.124936 
188.503738 0.053852 
189.77092 0.051541 
192.503326 0.079224 
193.304306 0.0511 
194.513321 0.031296 
197.090195 0.114538 
198.020966 0.048333 
198.11409 0.077966 
202.977509 0.068823 
204.888916 0.496943 
207.163666 0.044668 
210.14856 0.087936 
210.393768 0.061684 
211.885208 0.043817 
219.207047 0.033858 
222.89856 2.554799 
225.493683 0.12026 
225.526443 0.052864 
226.384171 0.057665 
229.52211 0.059895 
229.864075 0.053457 
229.895248 0.074422 
231.065018 0.056402 
231.814667 0.057133 
234.020416 0.050511 
234.694489 0.052835 
236.284073 0.046204 
236.959976 0.047878 
237.753464 0.053134 
239.901016 0.176694 
240.909241 2.049452 
242.511703 0.046744 
245.355148 0.051158 
245.891098 2.265556 
246.89888 2.013443 
248.519775 0.030776 
248.914062 0.227305 
249.243149 0.052746 
249.397156 0.049234 
254.217438 0.054916 
258.809387 0.151466 
261.904846 0.090049 
262.702698 0.059542 
263.041138 0.061666 
263.901459 26.720877 
263.930054 0.05906 
264.909454 6.652439 
265.910522 0.196796 
266.92514 0.273989 
268.642609 0.056172 
274.647034 0.043611 
276.02829 0.051992 
278.095337 0.044781 
278.925049 0.541312 
279.916992 1.972076 
280.903992 4.473834 
281.912018 100.0 
282.914398 7.983372 
283.915588 0.832131 
291.138123 0.123589 
294.385529 0.04198 
295.927399 1.085829 
296.934601 0.120957 
298.697327 0.046804 
298.750183 0.082733 
301.171051 0.131925 
301.827393 0.431725 
304.187988 0.162354 
304.904633 4.388476 
305.908875 0.114552 
307.973145 0.037003 
308.654633 0.139943 
310.174561 0.193801 
317.821777 0.479559 
318.828613 0.353578 
319.835175 0.149894 
320.259735 0.054771 
320.919769 0.723704 
321.922028 0.131245 
322.914642 64.742645 
323.916809 6.840236 
324.918549 0.677132 
326.13913 0.615815 
328.103333 0.082879 
328.973785 0.06274 
329.148773 0.051377 
333.520752 0.081789 
335.794037 0.050728 
335.830994 2.485611 
336.83902 2.750256 
336.930359 0.584691 
337.841125 0.097745 
346.179291 0.062654 
353.841583 3.405829 
354.088501 0.049061 
354.845764 0.307046 
357.445068 0.059169 
358.843323 1.968142 
359.830383 2.453207 
359.848389 0.324794 
360.188416 0.049183 
360.838806 86.826706 
361.840851 11.159509 
362.84082 1.382883 
364.373016 0.140766 
369.837006 0.465698 
370.845154 0.102549 
371.660583 0.122514 
373.669647 0.044126 
376.833038 1.523248 
377.840912 4.425349 
378.849243 19.123295 
379.851349 1.846694 
380.850616 0.113192 
388.664215 0.042035 
391.926178 0.042976 
392.848053 0.127658 
394.844574 29.334414 
394.963776 0.05568 
395.847137 4.313837 
396.849274 0.502494 
404.858704 0.062558 
407.041809 0.059218 
407.076477 0.046855 
408.239838 0.094736 
411.37677 0.047651 
411.847778 0.333746 
412.854706 4.340508 
413.857666 0.137428 
417.857117 1.241897 
418.858368 1.755477 
419.852081 82.125885 
420.110168 0.053154 
420.854584 11.681292 
421.85498 1.55792 
434.071991 0.058107 
435.870087 0.101638 
436.859283 0.154186 
437.86261 21.114178 
438.865051 2.758851 
439.865509 0.138332 
451.878479 0.117107 
453.857605 2.21955 
454.443695 0.063618 
474.406036 0.084748 
478.865814 0.707963 
479.867645 0.083847 
485.579132 0.068589 
492.013885 0.057397 
555.421509 0.080763 
558.326111 0.051099 
568.450562 0.04953 
576.227539 0.084531 
580.416138 0.078535 
586.319031 0.150962 
593.515503 0.070194 
612.024475 0.066498 
613.270752 0.054922 
616.328613 1.148325 
617.327209 0.045171 
617.459351 0.813774 
618.34668 0.133995 
618.465454 0.047608 
638.001038 0.058758 
END IONS

