BEGIN IONS
PEPMASS=347.149
CHARGE=1+
COMPOUNDNAME=GIBBERELLIC ACID
LIBRARYQUALITY=3
SMILES=N/A
INCHIKEY=IXORZMNAPKEEDV-SNTJWBGVSA-N
INCHI=InChI=1S/C19H22O6/c1-9-7-17-8-18(9,24)5-3-10(17)19-6-4-11(20)16(2,15(23)25-19)13(19)12(17)14(21)22/h4,6,10-13,20,24H,1,3,5,7-8H2,2H3,(H,21,22)/t10-,11+,12-,13-,16+,17+,18+,19-/m1/s1
MSLEVEL=2
SOURCE_INSTRUMENT=N/A-ESI-QFT
FILENAME=library_mgf.mgf
SEQ=*..*
IONMODE=positive
ORGANISM=MONA
NAME=GIBBERELLIC ACID [M+H]+
PI=MoNA
DATACOLLECTOR=MoNA:VF-NPL-QEHF006378
PUBMED=N/A
SUBMITUSER=mwang87
TAGS=
SPECTRUMID=CCMSLIB00004697441
SCANS=6378
50.00771 0.034985 
50.308704 0.039315 
50.514153 0.059446 
50.671604 0.035563 
51.023869 0.153292 
51.041622 0.03161 
51.940678 0.288266 
52.07135 0.030609 
52.085445 0.049709 
52.175507 0.041369 
52.47657 0.044822 
52.585445 0.040499 
52.689453 0.038708 
52.955978 0.037326 
53.00293 3.408632 
53.039322 10.174806 
53.040588 0.152563 
53.105438 0.037757 
53.238712 0.033489 
53.572044 0.044017 
53.607521 0.029573 
53.846397 0.03039 
53.998207 0.167992 
54.034565 1.09224 
54.176498 0.054981 
54.456165 0.028348 
54.649803 0.03268 
55.018581 39.731068 
55.020065 0.409635 
55.054966 67.684296 
55.390388 0.038624 
55.576698 0.043974 
55.690296 0.038036 
55.839596 0.079023 
55.93512 0.864968 
56.003651 0.037292 
56.021908 0.77692 
56.050213 20.441961 
56.051754 0.057853 
56.058308 2.860421 
56.071407 0.043345 
56.410923 0.03494 
56.418892 0.040672 
56.856228 0.030543 
56.929565 0.031377 
56.965515 67.55246 
57.03421 9.575955 
57.053539 0.204933 
57.058006 0.250197 
57.069057 0.302179 
57.070606 23.103729 
57.203068 0.043759 
57.579002 0.03964 
58.02948 0.237133 
58.065853 100.0 
58.073959 0.459682 
58.128323 0.038967 
58.163647 0.043296 
58.201534 0.040873 
58.316368 0.033495 
58.365437 0.039703 
58.520245 0.032961 
58.628971 0.030745 
58.961494 0.156521 
58.971024 0.034709 
58.995716 0.637681 
58.998547 1.2975 
59.049862 16.380398 
59.061131 0.716916 
59.063061 0.052174 
59.069183 2.791582 
59.072018 0.050034 
59.073593 0.054455 
59.229851 0.044795 
59.779774 0.033208 
59.795044 0.050723 
59.990936 0.856541 
60.045105 10.35238 
60.053295 0.050926 
60.056282 0.264666 
60.081474 5.721624 
60.116066 0.043454 
60.117874 0.035364 
60.377541 0.040256 
60.434479 0.034376 
60.569572 0.047901 
60.928822 0.044074 
60.958378 0.897386 
61.011356 10.313655 
61.029049 0.414933 
61.21225 0.04593 
61.270912 0.039165 
61.895187 0.048664 
62.005363 0.043606 
62.019199 0.853235 
62.035309 0.036013 
62.060772 0.054714 
62.068676 1.824592 
62.74699 0.04599 
62.982391 1.955291 
62.984093 0.049503 
63.007202 0.176042 
63.023872 0.049854 
63.530079 0.046046 
63.611931 0.042449 
63.729061 0.034069 
63.998413 0.921379 
64.319115 0.039643 
64.650673 0.037449 
65.039253 5.89385 
65.810593 0.043287 
65.908783 0.046349 
66.034439 0.050188 
66.04277 0.060265 
66.363403 0.04196 
67.018478 0.268112 
67.042267 0.289129 
67.054893 70.749245 
67.333794 0.05284 
67.441414 0.030803 
67.844284 0.031058 
68.013741 0.103021 
68.050102 8.349561 
68.058228 2.995534 
68.94326 0.059757 
68.997734 1.519091 
69.034134 18.639345 
69.045395 0.543824 
69.053368 0.051817 
69.070503 43.802467 
69.328209 0.046318 
70.029358 3.622976 
70.037422 0.184659 
70.065765 43.829258 
70.073837 1.701171 
70.084908 0.050443 
70.383286 0.038015 
70.458466 0.032768 
70.981071 1.027199 
71.013359 1.09498 
71.049751 19.094458 
71.060814 0.041046 
71.069077 1.956845 
71.086151 4.89166 
71.952515 3.593019 
72.044991 5.599938 
72.053123 0.170392 
72.081398 18.781427 
72.08564 0.039891 
72.937706 0.172927 
72.960342 0.546511 
73.011108 0.053426 
73.02903 5.770502 
73.040298 0.158622 
73.065384 7.309636 
73.084694 0.505641 
73.536819 0.048826 
73.653816 0.046866 
73.769814 0.038258 
74.00647 0.10756 
74.024239 2.005986 
74.032524 0.06476 
74.060616 13.120587 
74.068848 0.086795 
74.096992 1.593164 
74.187836 0.041265 
74.931526 2.493462 
74.942543 0.047369 
74.973885 0.035758 
74.97596 3.93387 
74.985016 0.038556 
75.044609 1.50705 
75.176285 0.03384 
76.076271 0.23618 
76.267029 0.048328 
76.928535 0.289509 
77.008942 14.286886 
77.039291 0.758822 
77.850296 0.033333 
77.916992 0.041342 
78.00972 0.716149 
78.046776 0.060432 
78.883713 0.03368 
79.006554 0.89613 
79.021759 8.164123 
79.054764 64.631035 
79.445496 0.038014 
80.050041 7.153454 
80.058105 3.529042 
80.915611 0.034044 
81.01799 0.045739 
81.034035 7.892827 
81.045258 2.233921 
81.053329 0.058284 
81.057877 0.753248 
81.070396 79.127663 
82.029213 0.950899 
82.065636 13.870711 
82.07373 4.122278 
82.076195 0.062071 
82.82975 0.037085 
82.876747 0.051402 
82.948334 0.219012 
83.013229 0.743618 
83.049675 34.005688 
83.060844 2.429924 
83.069008 0.329991 
83.073441 0.058749 
83.086021 18.586094 
83.885696 0.032476 
83.976173 0.090976 
84.044891 28.550425 
84.052948 1.096683 
84.081276 28.021566 
84.089317 1.092619 
84.198013 0.038362 
84.274551 0.03518 
84.775131 0.037391 
84.96022 0.956103 
85.011086 0.218275 
85.0289 9.538984 
85.039993 0.857546 
85.048241 0.493207 
85.065277 12.81705 
85.076485 0.148454 
85.084579 1.285616 
85.101601 0.4717 
85.153839 0.045523 
85.691055 0.045448 
85.774521 0.046535 
85.842216 0.045238 
85.955421 0.037927 
86.006386 0.201142 
86.024071 0.140458 
86.060524 10.830486 
86.068626 0.156267 
86.096893 31.863958 
87.044525 11.840582 
87.055779 0.667483 
87.063881 0.124012 
87.080994 0.083573 
87.10022 1.709464 
88.021973 4.156435 
88.039772 4.952243 
88.047897 0.082632 
88.07618 2.60362 
88.937363 1.109769 
88.991478 0.72121 
89.005486 0.052126 
89.023712 0.381847 
89.042198 0.03597 
89.060143 1.742601 
89.283653 0.036354 
89.542755 0.036385 
89.95179 0.038603 
90.055435 0.130684 
90.06337 0.062626 
90.948166 0.126782 
91.024399 0.451735 
91.054634 66.021713 
91.574226 0.033309 
91.849617 0.042335 
91.89592 0.043159 
92.010239 0.03982 
92.049858 2.15899 
92.057999 3.91225 
92.590385 0.050821 
92.986435 1.233105 
93.033882 0.551853 
93.045021 0.06027 
93.057732 1.778102 
93.070274 55.260208 
93.943848 0.036477 
94.029167 0.474468 
94.065536 15.689872 
94.073586 3.228132 
94.076637 0.044454 
94.245384 0.052793 
95.013176 0.534684 
95.019325 9.309216 
95.049545 28.066429 
95.05777 0.05095 
95.060722 4.255946 
95.068787 0.330719 
95.073257 1.017189 
95.085907 63.978733 
96.020142 0.46301 
96.044754 7.255637 
96.052856 0.894507 
96.056351 0.059849 
96.078018 0.064947 
96.081154 11.476885 
96.089172 4.589645 
96.328285 0.033904 
96.418633 0.043607 
96.653214 0.036956 
96.739098 0.047476 
97.011108 0.062438 
97.01696 0.208603 
97.028778 7.748338 
97.040047 0.660756 
97.047943 0.061494 
97.06517 20.66168 
97.076355 2.470821 
97.088783 0.233273 
97.101524 10.053527 
97.105431 0.043266 
97.267799 0.038694 
97.991737 0.039524 
98.02401 1.055958 
98.031952 0.062758 
98.060394 7.657806 
98.068398 0.64859 
98.079849 0.047856 
98.096779 38.537525 
98.104675 0.185033 
98.452721 0.033052 
98.975739 9.101615 
98.984596 0.050667 
99.008018 1.070167 
99.044395 7.00967 
99.055756 0.629442 
99.080757 5.656391 
99.100098 1.201617 
99.167786 0.029989 
100.022041 0.089272 
100.039612 1.626519 
100.047707 0.062108 
100.072754 0.118349 
100.076027 10.46101 
100.112381 2.7842 
100.675285 0.038983 
101.008461 0.044553 
101.023697 0.618581 
101.034805 0.051053 
101.060043 14.037499 
101.071312 0.400594 
101.079224 0.121143 
101.115471 0.053899 
101.363113 0.042191 
102.037567 0.054951 
102.055244 3.431487 
102.063271 0.193643 
102.091728 0.890562 
102.948158 0.112887 
102.970535 0.084305 
103.024399 0.891888 
103.039116 0.066192 
103.050758 0.319683 
103.054504 15.094938 
103.058327 0.085288 
103.392494 0.044987 
103.423012 0.036557 
104.049797 1.365783 
104.057915 0.783387 
104.061844 0.046248 
104.07093 0.122048 
104.078819 0.549923 
104.1073 2.362233 
104.20105 0.031569 
104.908134 0.172733 
105.003952 0.045859 
105.033745 2.881225 
105.044998 2.535519 
105.070175 47.962158 
105.074173 0.590293 
105.146446 0.034679 
105.919479 0.034657 
106.028946 0.054193 
106.065384 9.407991 
106.073509 3.484961 
106.586128 0.034656 
107.001923 0.527225 
107.045517 0.087608 
107.049416 17.252272 
107.060677 2.339949 
107.069138 0.083154 
107.073212 4.244782 
107.085777 33.531265 
107.290916 0.045693 
108.044624 4.871919 
108.052727 0.447962 
108.056595 0.122171 
108.064262 0.063878 
108.068336 0.059592 
108.07695 0.065327 
108.081009 13.838287 
108.089096 1.948817 
108.440811 0.04436 
108.961227 0.03193 
109.028641 3.236052 
109.034821 0.287409 
109.039993 0.147585 
109.047935 0.099619 
109.052238 0.318284 
109.06501 19.940182 
109.076225 5.148312 
109.084351 0.46659 
109.088661 0.533311 
109.101379 18.717621 
109.317635 0.045506 
110.024033 0.399542 
110.051468 0.049356 
110.060219 13.2926 
110.067909 0.137881 
110.071686 1.385058 
110.084099 0.659086 
110.096626 7.54792 
110.104568 1.180318 
110.975891 0.039995 
110.996483 0.043351 
111.026505 0.154656 
111.040047 0.059968 
111.044266 15.755114 
111.048409 0.060736 
111.055481 3.10757 
111.063499 0.264833 
111.067795 0.194809 
111.080681 7.730198 
111.091858 1.042572 
111.099892 0.150665 
111.116638 0.060518 
111.648048 0.052489 
112.021751 0.383109 
112.03949 2.005904 
112.04747 0.125191 
112.051285 0.062189 
112.075912 5.643301 
112.087357 0.136987 
112.112328 1.757682 
113.023567 0.522138 
113.03476 0.327194 
113.059883 9.773315 
113.071236 0.760549 
113.07917 0.104291 
113.096306 7.197839 
114.037399 0.109025 
114.055145 2.505787 
114.062996 0.048541 
114.091347 1.0243 
114.099564 0.083503 
114.955597 0.051243 
115.006958 0.145345 
115.024178 0.837441 
115.039185 1.785855 
115.050392 0.231945 
115.054382 6.962295 
115.075516 1.481809 
115.086723 0.212004 
115.12265 0.042231 
116.001961 0.093645 
116.03405 0.073788 
116.049431 0.086681 
116.053108 1.390122 
116.057587 0.159073 
116.062317 0.641226 
116.070808 4.086813 
116.349976 0.036482 
116.967003 0.05027 
116.986076 18.913385 
117.039825 0.799466 
117.057465 2.831187 
117.065819 0.26431 
117.070023 15.998634 
117.074203 0.293152 
117.107864 0.046004 
117.39222 0.034745 
117.421417 0.041169 
117.980087 0.051513 
117.989151 0.038338 
118.065277 9.20309 
118.073242 0.977213 
118.086388 3.395588 
118.947571 0.187154 
119.001556 0.458278 
119.019073 3.499436 
119.049248 8.3533 
119.060486 1.839556 
119.068573 0.082964 
119.073074 1.452241 
119.085648 34.597118 
119.9972 0.051625 
120.019775 0.042066 
120.044472 4.237219 
120.056099 0.100225 
120.080902 23.559099 
120.088821 2.153357 
120.978836 0.081993 
121.016716 0.310895 
121.028435 2.276535 
121.034676 0.92095 
121.039619 0.283534 
121.06488 14.434095 
121.076088 2.701856 
121.084122 1.017055 
121.088646 2.877727 
121.101257 26.834316 
121.658058 0.042638 
122.060135 12.065285 
122.067871 0.413232 
122.072243 0.182025 
122.083817 0.380665 
122.096535 7.337033 
122.104584 1.245024 
122.178101 0.049586 
122.273895 0.035137 
122.937813 0.044902 
122.997047 0.049283 
123.044128 6.742389 
123.055374 1.883359 
123.06311 0.069298 
123.067886 1.164395 
123.080536 14.808664 
123.091682 3.225195 
123.099693 0.057541 
123.11689 2.661431 
124.03936 2.801241 
124.058647 0.051583 
124.075745 12.929653 
124.083717 0.610716 
124.112114 3.002034 
125.023521 0.386509 
125.034431 0.199937 
125.044594 0.050998 
125.059746 7.65524 
125.070961 1.781839 
125.078918 0.29923 
125.096146 4.690739 
125.107162 0.270198 
125.81366 0.04076 
126.037788 0.060062 
126.055016 2.979836 
126.091354 2.875717 
126.127739 0.621751 
127.038956 0.641305 
127.050217 0.554695 
127.075302 1.043227 
127.086624 0.452015 
127.094269 0.049293 
127.111923 0.055989 
127.981873 0.035594 
128.034439 0.059237 
128.049561 0.718933 
128.062088 5.512253 
128.070633 2.206031 
128.107025 0.85822 
128.985703 0.067184 
129.022873 0.045069 
129.039612 2.198261 
129.054626 2.538219 
129.069931 11.944478 
129.090698 0.05122 
129.501984 0.033193 
129.995728 0.059583 
130.028656 0.19011 
130.040283 0.054819 
130.049835 1.661586 
130.065063 26.106516 
130.073029 0.323409 
130.077576 1.399651 
130.086166 0.428291 
130.159058 3.353102 
130.927414 0.037654 
130.932938 1.324902 
131.00145 0.440623 
131.018829 0.477902 
131.036972 0.053504 
131.049225 3.280443 
131.055099 0.444984 
131.060486 0.696059 
131.068146 0.803013 
131.073074 3.309214 
131.085449 17.204449 
132.011292 0.045782 
132.044357 5.651654 
132.056915 0.052788 
132.068237 0.241477 
132.080704 18.066267 
132.088684 0.668776 
132.101913 0.193438 
132.906662 0.050926 
133.017166 1.350149 
133.028503 0.127052 
133.034561 2.335365 
133.05217 0.340637 
133.064758 8.335329 
133.076004 2.824867 
133.083786 0.644879 
133.08873 1.371962 
133.101105 23.129395 
133.585388 0.040564 
134.012436 0.346715 
134.059982 6.693805 
134.067596 0.139047 
134.083984 0.131814 
134.096359 8.692534 
134.104416 0.913501 
134.973511 0.048943 
134.978714 8.770656 
134.996414 40.088184 
135.032089 0.060388 
135.044022 3.927473 
135.050018 0.765234 
135.055252 1.411521 
135.06778 0.108878 
135.074661 0.03541 
135.080338 10.333524 
135.091599 2.722648 
135.099365 0.125018 
135.104385 1.157052 
135.116714 8.615567 
135.999725 0.471379 
136.039276 1.405277 
136.045273 0.047625 
136.050827 0.277444 
136.061844 1.564842 
136.075562 10.731151 
136.08754 0.078453 
136.099442 0.236039 
136.111984 4.111697 
136.120209 0.111978 
136.559738 0.041218 
136.958008 0.741238 
137.000351 0.090427 
137.011627 13.682091 
137.029129 0.724001 
137.046417 0.452073 
137.059662 4.633584 
137.070877 2.309374 
137.083481 0.467657 
137.095978 5.099797 
137.107285 1.379724 
137.114899 0.049783 
137.132034 0.078402 
138.006882 0.047364 
138.012543 1.497837 
138.054871 4.793749 
138.066452 0.054745 
138.078522 0.071008 
138.091156 5.564356 
138.098923 0.096045 
138.127518 1.320144 
138.802765 0.045124 
138.989319 1.054765 
139.008713 1.604112 
139.021576 0.053265 
139.038849 0.514894 
139.050064 1.123679 
139.058823 0.077145 
139.075256 2.369439 
139.086472 1.387332 
139.094437 0.069966 
139.111526 0.354469 
139.598999 0.042825 
139.857941 0.037239 
140.001862 0.045782 
140.016251 0.160327 
140.033783 0.323646 
140.070526 2.14666 
140.106903 4.567306 
140.727814 0.035094 
140.98439 0.059996 
141.022202 0.550836 
141.039352 0.254481 
141.05426 0.046352 
141.069916 4.165773 
141.090714 0.125316 
142.049652 0.25618 
142.065002 2.295778 
142.077744 4.627227 
142.08609 1.398161 
142.100204 0.032861 
142.122482 0.766276 
143.055176 2.705727 
143.072845 1.337376 
143.085464 13.11072 
144.044357 2.661362 
144.05661 0.389939 
144.067017 0.059804 
144.080688 14.324198 
144.087173 0.056831 
144.093643 0.480564 
144.10173 0.84819 
144.970886 0.04907 
145.016922 0.648678 
145.034531 1.40993 
145.05191 0.102423 
145.064987 5.50467 
145.075867 13.702265 
145.08876 3.472639 
145.101044 12.991202 
146.01236 0.718168 
146.059937 25.90666 
146.072083 0.393976 
146.083923 1.035201 
146.096359 10.782848 
146.103546 0.544861 
146.974258 3.107145 
146.996338 1.922291 
147.032654 0.388518 
147.044037 1.864096 
147.050003 2.581806 
147.055496 0.650062 
147.062347 0.386685 
147.0681 1.015313 
147.080429 7.383243 
147.091492 4.500977 
147.097992 0.172788 
147.104263 5.444161 
147.111115 0.052935 
147.116699 7.858102 
148.039093 1.465257 
148.050873 0.066921 
148.075623 8.336606 
148.081741 0.042831 
148.086456 0.075688 
148.09967 0.079403 
148.111938 6.641142 
148.119095 0.120021 
148.446106 0.039279 
148.943405 2.316586 
149.012039 3.441439 
149.059738 3.445667 
149.065613 0.534559 
149.070862 2.073731 
149.083511 0.397861 
149.096054 5.57089 
149.107285 1.87609 
149.132416 0.868181 
149.840561 0.034579 
150.054871 3.261855 
150.066284 0.080163 
150.078568 0.077063 
150.091248 6.476444 
150.127731 0.588342 
150.968964 0.052443 
151.027451 1.171071 
151.038834 0.464303 
151.044601 0.11692 
151.050339 0.268744 
151.0634 0.064914 
151.075348 2.618385 
151.086441 1.788136 
151.11174 1.150784 
151.12291 0.639038 
151.998734 0.250106 
152.033768 0.066787 
152.062851 0.364628 
152.070496 4.747626 
152.106857 4.37434 
152.143188 0.070171 
152.235672 0.058829 
152.989182 31.022503 
153.006927 9.4799 
153.040146 0.155018 
153.054565 0.29855 
153.065308 0.977278 
153.070236 0.222657 
153.076157 0.052337 
153.090805 0.813193 
153.102188 0.382709 
153.10968 0.06678 
153.126831 0.058355 
154.049667 0.858925 
154.065002 2.193286 
154.077713 1.151171 
154.086121 1.071444 
154.122528 1.964387 
154.28508 0.038035 
154.366486 0.035038 
154.968445 2.063929 
154.984879 0.630477 
155.022186 11.96828 
155.037781 1.130719 
155.054977 0.5129 
155.060455 1.227399 
155.073059 0.121314 
155.085541 6.43931 
155.118149 0.061169 
155.12944 0.039704 
155.140488 0.040917 
155.651337 0.035802 
156.023193 1.201023 
156.044189 1.630147 
156.066071 0.457372 
156.08075 3.460534 
156.087082 0.124205 
156.093353 1.351134 
156.10173 0.501936 
156.214996 0.039779 
157.000076 0.04082 
157.018402 2.375419 
157.034485 0.130658 
157.06459 1.727773 
157.076019 12.326541 
157.088409 1.238506 
157.101089 7.910644 
158.012329 2.276952 
158.059982 11.487964 
158.072174 1.082981 
158.078857 0.157574 
158.083954 0.444392 
158.096451 7.846313 
158.103668 0.26215 
158.566422 0.038138 
158.865768 0.045582 
159.032684 1.523906 
159.050095 1.58676 
159.055649 0.249956 
159.067947 1.682873 
159.080322 4.64391 
159.091644 15.664447 
159.10405 3.743286 
159.116577 6.419403 
159.512894 0.033942 
159.670578 0.040255 
160.027924 0.650261 
160.039017 0.291087 
160.063812 0.158243 
160.075607 10.96149 
160.087631 0.92392 
160.094421 0.186146 
160.100082 0.701848 
160.111954 8.618217 
160.118881 0.079922 
160.124405 0.260933 
161.011871 0.595678 
161.047729 0.119025 
161.059311 1.457646 
161.065231 3.039712 
161.071396 2.462304 
161.083344 1.494191 
161.095932 8.82588 
161.107193 10.695644 
161.114456 0.09827 
161.119843 0.583801 
161.132263 9.062022 
162.006851 0.256732 
162.047821 0.054667 
162.054794 3.438855 
162.066544 0.427402 
162.078812 1.049582 
162.091202 7.804191 
162.098923 0.063724 
162.102982 0.21095 
162.115265 7.403141 
162.127487 2.292593 
162.134827 0.055691 
163.027451 0.519746 
163.038956 0.199126 
163.050125 0.449584 
163.057953 0.052271 
163.062622 0.194568 
163.075012 1.697602 
163.086533 3.942146 
163.093292 0.069782 
163.111557 2.772909 
163.122955 1.464365 
163.856812 0.036521 
164.022827 0.053296 
164.070389 4.348544 
164.082245 0.156549 
164.094757 0.134334 
164.106934 3.050497 
164.143341 0.31916 
164.566223 0.042288 
165.007065 0.185654 
165.022446 0.04914 
165.054398 0.502165 
165.069824 3.103827 
165.077454 0.362958 
165.090561 0.864127 
165.102463 0.830547 
165.126999 0.086634 
166.049774 0.433195 
166.077744 1.527026 
166.08606 2.112411 
166.122467 0.801796 
166.15863 0.134189 
166.909424 0.220336 
166.95372 0.711602 
167.004791 0.749549 
167.022629 0.403131 
167.037827 0.06007 
167.055237 0.198764 
167.072418 0.838519 
167.080017 0.066539 
167.085785 1.81661 
167.117905 0.628572 
168.065292 0.878641 
168.080841 2.635076 
168.093781 0.570308 
168.10144 0.423493 
168.138199 0.07649 
168.501434 0.040283 
168.950089 0.044085 
169.017258 0.16831 
169.037323 0.198748 
169.053207 0.440726 
169.064575 0.535736 
169.076126 3.196763 
169.088455 1.082358 
169.101074 5.140178 
169.574875 0.035758 
170.059875 4.955829 
170.072617 0.28891 
170.08168 1.190516 
170.096405 3.871395 
170.108932 1.541471 
170.11705 0.121626 
170.190704 0.06422 
170.457993 0.035443 
170.99971 6.773557 
171.032684 1.128933 
171.049988 0.641834 
171.055191 0.125914 
171.067719 0.059985 
171.080109 7.724939 
171.091797 2.750291 
171.104095 1.064231 
171.116776 1.839831 
171.738953 0.039357 
172.027786 0.380881 
172.062836 0.194803 
172.075531 6.530282 
172.087769 0.579581 
172.099258 0.413357 
172.111938 6.046882 
172.943497 0.875876 
172.978882 0.205426 
173.0112 0.037252 
173.048203 1.032959 
173.059128 0.376048 
173.065231 0.706111 
173.071075 9.058459 
173.083374 1.737131 
173.096039 4.028359 
173.107315 5.626124 
173.120041 0.508532 
173.132294 1.910074 
174.054901 4.690252 
174.066986 0.403132 
174.078506 1.073514 
174.091278 7.329479 
174.103104 0.580454 
174.114914 1.678996 
174.12767 6.980587 
174.976379 2.11723 
175.027588 2.547663 
175.050171 0.342204 
175.063187 0.505789 
175.075256 0.927532 
175.0867 5.983738 
175.09906 0.780535 
175.111694 2.408213 
175.123001 3.012384 
175.147995 4.465456 
176.023026 0.39083 
176.057938 0.172265 
176.07048 3.927308 
176.081116 0.202939 
176.094223 0.741399 
176.106873 4.636147 
176.130417 0.060253 
176.143356 0.780598 
177.009216 0.319961 
177.043304 0.569207 
177.059204 0.535037 
177.066101 0.763545 
177.077759 0.193999 
177.090683 0.458745 
177.102188 3.888979 
177.127121 0.230153 
177.138611 2.493507 
178.049744 0.319801 
178.058899 0.065686 
178.07756 3.315348 
178.086029 2.60737 
178.122543 1.829148 
179.022293 0.818926 
179.055359 1.648381 
179.073303 0.203592 
179.085327 3.480958 
179.093338 0.116449 
179.106354 0.282264 
179.117645 0.704975 
180.01738 0.802577 
180.047531 0.05873 
180.056824 0.782948 
180.065475 0.354779 
180.080765 0.315836 
180.093155 1.860542 
180.101898 0.883846 
180.13829 0.148123 
180.887802 0.05569 
181.052948 0.564488 
181.062332 0.486844 
181.075638 0.708417 
181.088318 0.826707 
181.101242 2.314847 
182.044434 0.054837 
182.060272 0.500932 
182.072418 0.66704 
182.082153 0.421683 
182.096329 2.384007 
182.107147 0.092288 
182.117401 0.073268 
182.154343 0.058183 
183.032654 0.473759 
183.055008 0.35479 
183.068085 0.745407 
183.080505 0.476849 
183.087631 1.538473 
183.090988 1.506668 
183.10408 0.290376 
183.116547 1.835953 
184.02829 0.113533 
184.039017 0.063637 
184.075623 3.547127 
184.086884 0.273273 
184.098526 0.237737 
184.11203 3.979335 
184.586029 0.047175 
184.919998 0.651394 
185.012314 0.116433 
185.048325 0.655533 
185.070953 2.754601 
185.083298 0.37853 
185.095917 1.770986 
185.107101 2.599897 
185.118607 0.231652 
185.132507 2.488579 
186.043671 0.214511 
186.054718 1.083142 
186.06691 0.066926 
186.078491 0.311397 
186.091263 6.277483 
186.101135 0.557643 
186.114716 1.90237 
186.127716 2.534696 
187.027771 0.812702 
187.063538 0.462549 
187.080933 3.549086 
187.086639 3.167236 
187.09903 3.013214 
187.111923 4.106977 
187.122818 4.024113 
187.131424 0.064677 
187.148117 0.065385 
188.059311 0.299789 
188.070526 3.562665 
188.081543 0.798698 
188.094193 1.678045 
188.106918 5.621653 
188.11911 2.869153 
188.130417 2.61905 
188.143127 1.088211 
188.966187 0.111075 
189.043106 1.455705 
189.055222 0.057112 
189.065628 1.409201 
189.078354 0.676019 
189.091553 0.523302 
189.102203 16.149401 
189.128082 0.180932 
189.138504 4.129426 
189.986298 0.063006 
190.0383 0.063028 
190.049545 0.683321 
190.075806 0.543383 
190.086273 4.251755 
190.09729 0.525143 
190.107834 7.466131 
190.122253 3.189543 
190.131332 0.069586 
190.159134 0.3345 
190.925293 0.043211 
190.934113 0.544972 
190.953827 6.25983 
191.02243 0.733422 
191.045792 0.054299 
191.056458 0.416238 
191.081436 2.286692 
191.092636 0.051842 
191.106094 0.054787 
191.117722 1.821156 
191.154251 0.664747 
192.053802 0.059232 
192.065628 0.52603 
192.07695 0.119523 
192.093002 1.000145 
192.101852 1.503599 
192.137924 0.828629 
192.314224 0.048686 
192.986908 4.626113 
193.038269 0.209604 
193.07135 0.1163 
193.086578 0.063167 
193.100967 3.601757 
194.072327 0.193576 
194.081558 0.246699 
194.096329 0.83776 
194.108673 0.474566 
194.946671 0.040089 
195.000122 0.085805 
195.069214 0.728004 
195.080261 2.4634 
195.091431 5.425411 
195.102112 0.474358 
195.115921 1.09397 
195.124557 0.060631 
195.264786 0.041291 
196.075531 1.433751 
196.087036 0.6967 
196.098434 1.110778 
196.11174 1.773545 
196.122421 0.050125 
197.013184 0.232368 
197.04866 0.512017 
197.065674 3.762697 
197.08429 2.881199 
197.095718 1.497294 
197.107025 2.308443 
197.117844 0.208659 
197.131638 0.166573 
197.956223 0.056153 
198.05484 0.499635 
198.067062 0.244845 
198.079803 0.622366 
198.091125 4.261342 
198.101501 0.304714 
198.113617 0.175863 
198.127472 1.52959 
198.899231 0.033237 
199.027664 0.058968 
199.049789 0.071988 
199.063904 1.809628 
199.082077 3.66959 
199.09848 0.943815 
199.111771 0.343439 
199.122696 1.388658 
200.022537 0.054269 
200.058746 0.677751 
200.070358 2.226688 
200.081223 0.644378 
200.094467 0.899948 
200.106781 4.77374 
200.117249 0.624876 
200.128952 0.129772 
200.143204 0.888163 
201.04332 0.850558 
201.054489 0.061319 
201.065598 1.085388 
201.079468 0.785808 
201.09697 17.375654 
201.113159 0.693374 
201.127167 0.415097 
201.138397 2.761421 
201.163788 0.045281 
202.050003 0.305073 
202.074692 0.090929 
202.086136 4.237373 
202.096741 0.852376 
202.11058 0.919694 
202.122452 15.791569 
202.131989 0.485974 
202.141403 0.057186 
202.158844 0.423723 
203.022552 0.493282 
203.059128 0.229305 
203.080826 1.563325 
203.093155 0.788643 
203.106644 0.180218 
203.118332 3.918464 
203.142944 78.980415 
204.065414 0.917835 
204.078491 0.047678 
204.091354 0.306223 
204.102051 3.371211 
204.112762 0.757145 
204.125381 4.704726 
204.136642 0.637687 
204.146805 2.085606 
204.174332 0.299716 
204.969788 0.111347 
205.004562 0.043601 
205.038025 0.10235 
205.053802 0.052517 
205.074387 0.415165 
205.097076 3.865007 
205.13356 6.006661 
205.363419 0.038514 
206.081161 0.812695 
206.093521 0.232508 
206.105896 0.229962 
206.117386 0.735187 
206.926529 0.080617 
207.05246 0.434023 
207.068726 0.04906 
207.07756 0.14617 
207.089432 0.340989 
207.1026 0.221515 
207.113129 2.8676 
207.123337 0.135105 
208.075562 0.268598 
208.087585 0.596856 
208.111984 0.476111 
208.920044 0.165379 
208.945541 0.094494 
208.964523 3.606921 
209.032928 0.099399 
209.048279 0.684742 
209.070602 2.11341 
209.082047 0.230904 
209.095139 1.803882 
209.105576 0.177238 
209.118195 0.067817 
209.130478 0.063446 
210.066162 0.126054 
210.076813 0.255748 
210.091019 1.843734 
210.102036 0.285705 
210.114182 0.074919 
210.127396 0.827346 
211.026733 0.099182 
211.063812 0.577259 
211.08609 1.563895 
211.098526 0.827239 
211.111023 0.661919 
211.122253 0.647516 
211.267456 0.041632 
212.070404 1.128152 
212.081726 0.080605 
212.095245 0.284044 
212.106918 2.884793 
212.117416 0.364396 
212.130112 0.169526 
212.14299 0.459675 
213.043091 0.53176 
213.065689 0.572617 
213.079025 1.375019 
213.097046 14.702433 
213.113724 0.397425 
213.133713 2.542635 
213.433746 0.035748 
214.049713 0.082363 
214.074478 0.242599 
214.085999 2.234854 
214.096725 0.529147 
214.109726 0.686815 
214.12236 2.298403 
214.133896 0.408717 
215.0224 0.159138 
215.045212 0.071835 
215.058762 0.663031 
215.076797 5.254108 
215.093536 0.704358 
215.117355 6.239906 
215.128113 0.087133 
215.153931 0.213592 
216.065399 0.774802 
216.076843 0.062768 
216.0896 0.579551 
216.101852 2.461631 
216.112503 0.3569 
216.12413 0.33935 
216.137909 0.659341 
216.175446 0.059832 
216.969254 0.047089 
216.986816 2.930667 
217.037247 0.057399 
217.06073 0.662916 
217.074066 1.899292 
217.093506 3.006355 
217.10878 0.349049 
217.121826 0.252692 
217.133286 2.692846 
218.08078 0.808965 
218.092743 0.331569 
218.105804 0.480489 
218.117249 1.252537 
218.128342 0.077913 
218.153656 0.362317 
218.190399 0.200576 
219.02005 0.351585 
219.076584 2.202881 
219.089005 0.231017 
219.107529 10.030345 
219.149078 47.426445 
219.174088 77.262985 
219.995758 0.424869 
220.005615 0.428028 
220.019012 0.49483 
220.031204 0.305888 
220.043945 0.089296 
220.09729 0.336817 
220.111832 2.05212 
220.133087 0.498873 
220.152618 2.869434 
220.177734 2.105055 
220.903198 0.057481 
221.044785 0.107787 
221.068192 0.049237 
221.093552 0.559034 
221.102905 1.303712 
221.128418 0.201046 
222.091156 0.065637 
222.103653 0.074392 
222.126114 0.401207 
222.89859 1.732006 
222.980942 0.059651 
223.012817 0.051797 
223.027298 0.049419 
223.063889 0.487103 
223.086349 1.395844 
223.098572 0.05052 
223.110001 0.353313 
223.133194 0.066186 
223.144424 0.085385 
223.929184 0.081946 
224.070297 0.170857 
224.081085 0.145163 
224.093048 0.160235 
224.105881 1.084107 
224.142761 0.125542 
224.936859 0.141764 
225.065887 0.126543 
225.079544 3.49718 
225.098587 1.85147 
225.114532 0.158467 
225.134857 0.928388 
225.150314 0.072578 
226.074661 0.77226 
226.085831 1.57387 
226.09729 0.156594 
226.108871 0.081778 
226.12233 1.196141 
226.216095 0.078217 
226.93045 1.874329 
227.058777 0.93036 
227.081177 1.656094 
227.09343 0.719494 
227.113617 3.803138 
227.12912 0.123356 
227.142487 0.068233 
227.153687 0.183299 
227.424149 0.052591 
228.065079 0.087596 
228.0896 0.500302 
228.101624 2.11833 
228.113571 0.117544 
228.12532 0.361746 
228.137726 0.637205 
228.927109 0.41337 
229.038483 0.046662 
229.074173 2.554556 
229.09642 2.263914 
229.1091 0.127656 
229.120895 0.076228 
229.133347 3.829855 
229.144623 0.061993 
229.168671 0.060459 
230.08075 0.742456 
230.092072 0.269285 
230.104538 0.134008 
230.117294 1.52656 
230.128189 0.18664 
230.13942 0.270698 
230.15358 0.114749 
231.054001 0.051621 
231.076477 0.619709 
231.090622 0.103367 
231.093262 0.123508 
231.107483 22.645058 
231.125504 0.173049 
231.148926 2.373707 
232.096619 0.630178 
232.108292 0.746089 
232.120453 0.235704 
232.132751 0.798459 
232.144196 0.136342 
232.964294 0.490641 
233.071686 0.058286 
233.088333 3.01862 
233.102936 0.395541 
233.128265 3.860128 
233.140732 0.938514 
234.041962 0.049538 
234.14856 0.069221 
234.960281 0.084341 
234.997406 5.772086 
235.109543 0.079842 
235.120056 0.044913 
236.092377 0.055102 
236.590363 0.039609 
237.079849 0.060824 
237.097504 0.180261 
237.125076 0.076649 
238.122162 0.598372 
238.913757 1.009735 
239.057404 0.045801 
239.081497 0.063735 
239.093216 0.044595 
239.112717 8.572847 
239.153488 0.074556 
240.089325 0.135683 
240.10141 0.574269 
240.114487 1.532462 
240.138031 0.147388 
240.174347 0.249731 
240.908966 5.9543 
241.074463 0.956051 
241.096878 5.303454 
241.109283 0.673702 
241.132416 0.999135 
242.080383 0.32967 
242.102844 0.653387 
242.117188 1.098391 
242.128937 0.069244 
242.153336 0.060601 
243.076736 0.207724 
243.090164 4.696631 
243.111099 2.727535 
243.125641 0.059806 
243.148788 0.834391 
243.185165 0.161587 
244.084732 0.268754 
244.096237 0.395487 
244.132462 0.530968 
244.14447 0.1892 
244.940765 0.03937 
245.068954 0.103054 
245.091888 0.356433 
245.105606 0.11052 
245.125092 3.087478 
245.164139 0.092977 
246.112213 0.189453 
246.148514 0.817595 
246.910431 0.038416 
247.085251 0.752709 
247.107178 0.216309 
247.122803 0.066118 
247.143707 1.785719 
247.156479 1.177426 
248.127609 0.080906 
248.164139 0.899958 
249.159927 0.230702 
250.120178 0.076825 
250.975082 0.241317 
251.112732 3.207473 
252.114441 0.301343 
252.136978 0.05718 
252.970856 0.127125 
253.097351 0.141949 
253.11174 0.052349 
253.132309 0.331536 
254.080399 0.0691 
254.117325 0.142203 
255.077438 0.060226 
255.089905 0.271915 
255.112427 1.100261 
255.14859 0.22879 
255.385742 0.045093 
256.097168 0.125055 
256.132446 0.233033 
256.143585 0.075564 
257.091766 0.497611 
257.107849 0.165311 
257.123383 6.962276 
257.163757 0.193746 
258.111389 0.06589 
258.125183 1.352154 
258.149048 0.071164 
258.53775 0.037904 
259.085419 0.137042 
259.107605 0.801209 
259.120941 0.161149 
259.143646 6.078438 
259.182037 0.071818 
259.617096 0.038264 
260.164032 0.595743 
261.100372 0.412693 
261.123383 0.654688 
261.159546 0.387334 
261.178467 0.040769 
265.132843 0.061312 
266.375793 0.03902 
267.111786 0.070442 
268.15799 0.055059 
268.170074 0.061581 
269.068146 0.067552 
269.091705 0.297757 
269.107025 0.12208 
269.123474 2.16667 
269.163422 0.055289 
270.100159 0.072822 
270.125183 0.150712 
271.108032 0.151968 
271.143494 1.27709 
272.163635 0.05412 
273.08667 0.063726 
273.10202 0.057981 
273.122925 0.517276 
273.159332 0.936108 
274.178802 0.067593 
275.139282 0.183586 
283.143005 0.179995 
283.820221 0.122967 
284.102936 0.057387 
285.121216 0.134701 
285.815704 0.501579 
285.836853 0.047462 
286.142609 0.081466 
286.180267 0.255392 
286.823029 0.065249 
287.080017 0.045322 
287.137268 0.502459 
287.174805 0.783809 
289.154419 0.213462 
298.120819 0.113406 
300.021942 0.035021 
300.494019 0.036533 
300.822601 3.014022 
300.841034 0.043619 
301.154419 0.064609 
301.202759 0.044126 
302.286407 0.059809 
302.817932 1.040858 
308.622894 0.038488 
310.843597 0.267756 
312.841003 0.03921 
315.131744 0.067143 
316.732666 0.043786 
325.830139 0.322767 
325.913666 0.036068 
326.001221 0.036862 
326.637939 0.042561 
327.301575 0.05654 
327.826019 1.337494 
330.205444 0.202366 
336.089203 0.044811 
342.833496 0.677636 
344.828278 0.108874 
345.976685 2.16845 
346.309906 0.207307 
346.346375 1.205901 
346.974457 0.806874 
348.216705 5.048651 
348.694061 0.039661 
349.180847 0.040771 
349.857666 0.048393 
351.048981 0.037973 
361.90921 0.038787 
374.078033 0.046498 
END IONS

