BEGIN IONS
TITLE=Scan Number: 1391
PEPMASS=321.133
CHARGE=1+
COMPOUNDNAME=Mycophenolic acid_130117
LIBRARYQUALITY=2
SMILES=OC1=C2C(COC2=O)=C(C)C(OC)=C1C/C=C(CCC(O)=O)\C
INCHIKEY=HPNSFSBZBAHARI-RUDMXATFSA-N
INCHI=N/A
MSLEVEL=2
SOURCE_INSTRUMENT=LC-ESI-qToF
FILENAME=P2_C3_conc_GE3_01_2421.mzXML
SEQ=*..*
NOTES=
IONMODE=Positive
ORGANISM=GNPS-LIBRARY
NAME=Mycophenolic acid_130117 M+H
SPECTRUMID=CCMSLIB00000478521
ACTIVATION=CID
INSTRUMENT=ion trap
SCANS=1391
91.054199 1564.0 
92.057983 260.0 
93.06839 252.0 
103.054214 6416.0 
104.05764 288.0 
109.064117 1208.0 
117.031586 520.0 
121.064819 752.0 
123.044205 400.0 
131.049454 5268.0 
132.05246 644.0 
133.061874 576.0 
134.104965 252.0 
135.079254 3564.0 
136.053528 344.0 
136.080963 692.0 
139.074631 756.0 
142.079025 428.0 
145.06308 608.0 
147.040314 704.0 
147.076004 416.0 
148.051163 272.0 
149.06012 2808.0 
150.06192 720.0 
150.78952 292.0 
151.037796 1672.0 
151.075714 652.0 
152.076111 400.0 
155.085052 452.0 
157.101776 316.0 
158.85849 264.0 
159.044739 198288.0 
159.456329 1932.0 
159.489807 448.0 
159.907028 300.0 
160.047012 25844.0 
160.083588 428.0 
161.052841 1708.0 
161.09874 608.0 
161.257599 276.0 
161.306427 308.0 
162.062866 336.0 
163.034958 616.0 
163.074234 700.0 
165.017334 352.0 
165.054382 332.0 
169.046555 636.0 
169.09935 332.0 
170.069717 252.0 
172.128754 432.0 
173.05928 448.0 
173.093292 544.0 
174.032242 316.0 
175.036942 516.0 
175.074738 2948.0 
177.054092 67300.0 
178.057343 5980.0 
179.069305 7972.0 
180.04039 860.0 
180.073669 1132.0 
181.045334 424.0 
183.11409 268.0 
184.092133 312.0 
185.09668 688.0 
187.108521 520.0 
188.113312 412.0 
189.088837 1688.0 
189.125702 352.0 
190.065994 280.0 
191.034607 344.0 
191.067291 624.0 
192.040329 616.0 
193.048645 1240.0 
193.103073 340.0 
194.05162 380.0 
195.064865 28088.0 
196.067566 1948.0 
197.066162 520.0 
199.076309 356.0 
200.082031 376.0 
201.051712 508.0 
202.098907 620.0 
203.069382 404.0 
203.138184 424.0 
205.050842 1248.0 
205.995209 336.0 
206.484573 272.0 
206.560059 256.0 
206.608978 300.0 
206.939026 388.0 
206.978394 468.0 
207.031937 488.0 
207.066483 427536.0 
207.22406 272.0 
207.253189 696.0 
207.332382 384.0 
207.407913 420.0 
207.478943 396.0 
207.536591 7204.0 
207.869354 272.0 
208.068314 63584.0 
208.43013 288.0 
208.671158 328.0 
208.994553 452.0 
209.069061 7356.0 
209.290756 324.0 
209.493927 276.0 
209.614838 324.0 
209.647049 308.0 
209.677246 304.0 
209.705734 340.0 
210.071838 720.0 
211.072906 392.0 
211.107819 488.0 
213.124985 744.0 
214.09816 632.0 
215.069229 572.0 
215.105957 3580.0 
216.110153 1184.0 
217.044785 716.0 
217.118088 568.0 
217.618408 256.0 
218.060242 320.0 
219.064362 3080.0 
220.069382 480.0 
221.080292 3504.0 
222.082809 404.0 
223.059631 6148.0 
224.065033 812.0 
225.080063 368.0 
226.099426 852.0 
229.085464 532.0 
229.119797 612.0 
231.060425 488.0 
231.103989 592.0 
231.138702 432.0 
233.078674 1408.0 
235.073166 340.0 
239.105438 2708.0 
240.105591 288.0 
241.085541 624.0 
241.120377 768.0 
242.091217 280.0 
243.098434 268.0 
245.084198 780.0 
245.117706 256.0 
246.081757 452.0 
247.097122 2144.0 
252.06604 352.0 
253.085678 476.0 
254.090057 384.0 
255.067627 724.0 
256.069061 448.0 
257.11615 1200.0 
259.095612 3092.0 
260.100128 556.0 
261.110962 3904.0 
262.114563 660.0 
267.101349 1620.0 
269.078339 952.0 
270.087738 2876.0 
271.09433 616.0 
273.110168 484.0 
275.127991 127080.0 
276.130035 13824.0 
277.132233 2040.0 
279.120056 396.0 
285.111237 25152.0 
286.114532 3208.0 
287.120422 436.0 
302.998779 364.0 
303.056183 260.0 
303.124146 199248.0 
303.265564 256.0 
303.4599 312.0 
303.693054 2156.0 
304.126404 33464.0 
305.126617 2700.0 
306.128418 488.0 
321.133362 46796.0 
322.13623 5544.0 
323.139252 1068.0 
324.33371 300.0 
END IONS

