BEGIN IONS
PEPMASS=537.236
CHARGE=1+
COMPOUNDNAME=(3E,5S,7R,8R,11E,13S,15R,16R)-3,5,7,11,13,15-hexamethyl-8,16-bis(1,3-oxazol-5-ylmethyl)-1,9-dioxacyclohexadeca-3,11-diene-2,10-dione
LIBRARYQUALITY=3
SMILES=N/A
INCHIKEY=LAJRJVDLKYGLOO-HLRFMGGZSA-N
INCHI=InChI=1S/C28H38N2O6/c1-17-7-19(3)25(11-23-13-29-15-33-23)35-28(32)22(6)10-18(2)8-20(4)26(12-24-14-30-16-34-24)36-27(31)21(5)9-17/h9-10,13-20,25-26H,7-8,11-12H2,1-6H3/b21-9+,22-10+/t17-,18-,19+,20+,25+,26+/m0/s1
MSLEVEL=2
SOURCE_INSTRUMENT=N/A-ESI-QFT
FILENAME=library_mgf.mgf
SEQ=*..*
IONMODE=positive
ORGANISM=MONA
NAME=(3E,5S,7R,8R,11E,13S,15R,16R)-3,5,7,11,13,15-hexamethyl-8,16-bis(1,3-oxazol-5-ylmethyl)-1,9-dioxacyclohexadeca-3,11-diene-2,10-dione [M+K]+
PI=MoNA
DATACOLLECTOR=MoNA:VF-NPL-QEHF019230
PUBMED=N/A
SUBMITUSER=mwang87
TAGS=
SPECTRUMID=CCMSLIB00004710293
SCANS=19230
50.04985 0.052199 
50.185871 0.03138 
50.492596 0.036375 
50.502239 0.039488 
50.503098 0.032014 
51.817932 0.02941 
52.1497 0.023968 
52.265114 0.028286 
52.38364 0.039414 
52.976761 0.026158 
53.002472 0.248534 
53.038841 1.585174 
53.955868 0.026109 
53.997871 0.042035 
54.15733 0.038331 
55.018059 0.616637 
55.054459 4.367774 
55.143116 0.049173 
55.431389 0.028434 
55.934483 0.033438 
56.049675 1.838391 
56.476807 0.027063 
56.884613 0.024784 
56.965004 18.940592 
56.972477 0.044587 
57.033718 5.148648 
57.070072 2.841582 
57.077908 0.05406 
58.065311 1.74299 
59.049301 2.232552 
59.276825 0.048178 
59.905502 0.028488 
59.914433 0.027009 
59.925167 0.031103 
60.05584 0.104937 
60.080879 0.201744 
60.492134 0.027913 
60.541 0.028307 
60.904903 0.023491 
61.010754 0.304506 
61.576225 0.039286 
62.221966 0.024583 
62.822979 0.046557 
62.989761 0.050551 
63.635532 0.023958 
65.038651 0.283741 
65.279686 0.025518 
66.784088 0.042649 
67.054268 5.763875 
68.049454 0.194441 
68.057495 0.030733 
68.117287 0.048839 
68.127106 0.044538 
68.161057 0.030232 
68.472694 0.027189 
68.547646 0.051638 
68.760529 0.032327 
68.855949 0.031901 
68.930405 0.028974 
69.033478 0.821165 
69.06987 2.709255 
69.07811 0.026645 
69.217026 0.028616 
69.246162 0.050084 
69.529449 0.028488 
70.065109 5.455664 
70.205772 0.023285 
70.980515 0.02692 
71.049072 0.418977 
71.085472 0.37795 
71.644623 0.030967 
71.714043 0.041464 
71.951805 0.508362 
72.044418 0.193037 
72.080704 0.464177 
72.721626 0.031045 
72.85363 0.025218 
72.937225 0.069378 
72.954056 0.026339 
72.959724 0.034155 
73.046753 3.931284 
73.064728 0.145977 
74.592995 0.027772 
74.975418 0.246352 
75.043915 0.313039 
75.918678 0.048102 
77.008324 0.032105 
77.266777 0.029529 
77.460907 0.034616 
78.078346 0.028063 
78.771133 0.056482 
78.851959 0.028698 
78.956635 0.024877 
79.021011 0.234566 
79.054169 4.823745 
80.049339 2.070701 
80.057434 0.117558 
80.124588 0.033157 
80.581009 0.027633 
81.033417 0.877327 
81.057312 0.03276 
81.069809 4.37445 
81.08831 0.02859 
81.18943 0.031728 
82.028648 1.980899 
82.065056 0.721529 
82.07309 0.032196 
82.309464 0.024395 
82.888687 0.034974 
83.01004 0.128123 
83.048996 1.07043 
83.085411 0.377462 
83.523636 0.032925 
83.546448 0.025175 
83.975578 0.460683 
83.985748 0.026298 
84.04425 0.075509 
84.080688 0.74198 
84.959602 0.673891 
85.06469 2.431116 
85.093277 0.026284 
86.059776 0.034928 
86.096313 0.631402 
87.044044 0.157688 
88.075462 0.580528 
88.888733 0.042325 
88.967133 0.032512 
89.059669 0.099729 
90.127655 0.032715 
90.250877 0.028215 
90.947639 0.151229 
91.054092 4.479224 
91.057281 12.431025 
92.057198 0.447894 
92.060539 0.081683 
93.054085 0.083071 
93.057091 0.043678 
93.069794 4.344083 
94.06501 1.753309 
94.073189 0.047551 
95.049034 3.023811 
95.085419 3.982947 
96.04422 0.592305 
96.080704 0.249995 
96.336853 0.024696 
97.064697 1.790888 
97.233421 0.025335 
98.059929 0.322692 
98.431053 0.051627 
99.080345 0.107041 
101.30291 0.031959 
101.986092 0.033229 
102.091103 0.210229 
102.196106 0.025304 
103.054138 1.763069 
104.057236 0.06968 
104.470901 0.054912 
104.8965 0.047312 
105.001137 0.082404 
105.033432 0.027537 
105.044586 0.093801 
105.069824 7.956618 
105.073273 0.104681 
105.50943 0.041264 
106.064819 0.119524 
106.073082 0.763002 
107.049019 0.776963 
107.085419 4.354111 
108.04422 0.143521 
108.080589 0.376254 
108.088577 0.2384 
109.064629 2.168019 
109.075447 0.025648 
109.101059 1.066441 
109.44957 0.031476 
110.059799 0.559835 
110.095795 0.052046 
110.851547 0.031397 
111.04142 0.213745 
111.068001 0.111025 
111.080376 0.321948 
112.075409 0.233717 
113.059563 1.532365 
114.091049 0.117039 
114.142998 0.040354 
115.006416 0.035932 
115.054298 0.087953 
115.083054 0.048069 
116.687096 0.039527 
117.069733 1.021175 
117.153389 0.032426 
119.085426 3.026587 
119.626884 0.061398 
120.080673 0.346206 
120.088615 0.069639 
121.06469 0.604595 
121.075569 0.034605 
121.101097 2.174862 
121.267517 0.029483 
122.059868 0.477227 
122.096375 0.072627 
122.104118 0.036621 
123.011566 0.651637 
123.067757 0.192462 
123.080246 1.405231 
123.884583 0.054755 
124.075478 0.387442 
124.084206 0.032007 
125.046898 0.045662 
125.096085 0.128327 
126.05468 0.184471 
126.091171 1.67021 
126.958885 0.054125 
127.036293 0.277424 
128.061844 0.321382 
129.069641 1.260842 
129.19101 0.033188 
129.646805 0.032783 
130.077774 0.101418 
130.89949 0.029946 
131.049042 0.1351 
131.085297 1.819546 
132.080521 0.034008 
132.958084 0.249888 
133.01709 0.341338 
133.100967 1.274258 
133.670532 0.055588 
134.059692 0.070925 
134.096268 0.088895 
134.41568 0.033151 
135.080048 0.198294 
135.116714 0.364178 
136.039185 0.517584 
136.056717 0.034284 
136.075653 0.315766 
137.027176 0.285953 
137.047012 0.198526 
137.095932 0.040393 
138.054581 0.149411 
138.091415 0.05905 
139.062592 0.925904 
140.001785 0.166349 
140.070419 3.468585 
141.022141 0.640259 
141.054443 0.709976 
141.069489 0.175304 
142.017334 0.038511 
142.077576 1.242742 
142.11319 0.050899 
143.085388 0.711424 
143.380814 0.029022 
144.080475 0.072754 
144.093307 0.403788 
144.243652 0.027196 
144.279205 0.055412 
144.867447 0.162118 
145.087997 0.027417 
145.101028 1.20445 
145.875336 0.094054 
146.060059 0.098251 
146.096313 0.122269 
146.10405 0.040139 
146.193787 0.033049 
146.840698 0.027672 
147.080154 0.038118 
147.091873 0.029431 
147.116577 0.169676 
148.075516 0.082388 
148.989548 0.031372 
149.044785 1.19452 
149.096039 0.15957 
150.054794 0.151965 
150.091263 0.096774 
150.968613 0.516343 
151.006104 0.06119 
151.062683 0.696456 
152.033951 0.040874 
152.07045 0.334384 
152.699722 0.043181 
153.069885 0.0765 
153.078476 0.070006 
153.902298 0.030053 
154.049591 1.390215 
154.078156 0.123499 
154.086044 2.045605 
154.584229 0.034792 
155.037491 0.329821 
155.057281 0.048983 
155.085388 0.202502 
156.093338 0.217195 
157.004456 0.410457 
157.101059 0.61121 
157.598419 0.027502 
158.012268 0.643977 
158.07196 0.025899 
159.032883 0.160748 
159.080109 0.032776 
159.116562 1.51001 
160.075546 0.044263 
161.011429 0.028504 
161.095963 0.032747 
161.132309 0.047106 
161.388641 0.026526 
162.054642 0.822716 
162.091415 0.063382 
162.877808 0.112857 
163.062485 0.044103 
163.885529 0.147681 
163.986252 0.032514 
164.034607 0.029373 
164.070511 0.168272 
165.0224 0.171309 
165.041687 0.307686 
165.070206 0.038005 
165.855164 0.049651 
166.049713 0.412839 
166.08606 0.031901 
167.037872 0.231605 
167.055435 4.067075 
168.057602 0.195033 
168.065353 8.926238 
169.016953 0.988824 
169.053024 0.056689 
169.073837 0.089807 
169.101166 0.335805 
170.024796 1.142066 
170.044205 0.02983 
170.045929 0.02958 
170.04895 0.030496 
170.109116 0.044311 
171.032669 0.489061 
171.117081 0.043774 
172.027756 0.105946 
173.012024 1.072306 
173.048431 0.038284 
174.091293 0.0521 
176.070282 1.058288 
176.106583 0.071026 
178.049561 0.232241 
178.085892 0.09252 
178.892288 0.25099 
179.057495 0.203432 
180.065353 0.467029 
180.887833 3.983697 
181.073776 0.053748 
181.242722 0.031671 
182.044846 0.168461 
182.08107 11.20548 
182.09465 0.027947 
182.328766 0.051279 
182.498016 0.029267 
183.032669 1.88124 
183.052292 1.749448 
183.083191 0.030862 
183.091217 2.219762 
184.002914 0.025551 
184.095291 0.042917 
184.882401 0.032624 
185.04834 1.146316 
185.095978 0.041981 
185.843292 0.051734 
186.075943 0.552541 
186.877716 1.282394 
187.027573 5.429997 
187.88562 0.084037 
188.035477 6.566089 
188.070602 0.171717 
189.04274 0.167512 
189.078568 0.080352 
190.049393 0.06832 
190.085876 0.035442 
191.022842 0.081465 
191.057526 0.489492 
192.032806 0.57897 
192.064972 0.957162 
193.073425 0.170173 
194.048615 0.836383 
194.081223 0.547998 
194.903534 0.038073 
195.051926 0.058047 
195.068909 0.166599 
195.091217 1.643018 
196.028275 0.033112 
196.059799 0.042455 
196.08699 0.035395 
196.096603 0.661337 
197.048248 0.073027 
197.068024 0.950647 
197.890717 0.195005 
198.044113 0.040563 
198.075821 1.816515 
198.898544 0.817936 
199.364532 0.032566 
199.737625 0.063754 
201.043213 1.261514 
201.078491 0.079528 
201.57045 0.054739 
202.049866 0.047359 
202.086273 0.170032 
202.892883 0.069916 
203.059219 0.094787 
203.880615 0.053231 
204.065414 0.177624 
204.887833 2.906889 
205.038132 1.345995 
205.053757 0.029944 
205.073303 0.295221 
206.045959 1.956752 
206.080872 2.702056 
207.031937 0.042422 
207.052887 0.079838 
207.089172 0.069669 
208.060501 0.052559 
208.096466 0.460738 
210.043488 1.032458 
210.078049 0.535496 
210.934753 0.057894 
211.064041 0.127995 
211.086288 1.163205 
212.05925 2.591186 
212.091507 1.710937 
213.079025 0.033583 
215.058411 0.067581 
215.901367 0.125729 
218.080917 0.089549 
218.874374 0.045369 
219.053238 0.028695 
219.069351 0.030002 
219.08934 0.066298 
219.962326 0.5836 
219.989746 0.056731 
220.06134 0.121815 
220.096909 0.360739 
220.903183 8.88514 
221.048645 0.050007 
221.197815 0.031648 
221.890884 0.392634 
221.903412 0.126674 
222.078903 0.145995 
222.112411 0.039391 
222.898376 74.49231 
223.064011 0.116211 
223.083984 0.028336 
223.899475 2.795879 
224.902451 0.188767 
225.042511 1.502169 
225.054428 0.030952 
226.040955 0.043385 
226.12529 0.050138 
226.852066 0.029944 
227.022156 0.195147 
227.058853 0.040142 
229.895508 1.246301 
230.069565 0.520834 
231.106476 0.041381 
231.12381 0.051792 
232.096405 0.056539 
232.251968 0.029544 
234.112183 0.142935 
234.918762 0.175757 
235.063828 0.094726 
236.092041 0.091867 
236.899475 0.1315 
236.913681 2.060833 
237.079742 0.155424 
237.90683 0.741519 
237.921997 1.034212 
237.953476 0.032423 
238.072601 0.029112 
238.893707 1.113229 
238.913528 11.428672 
239.901184 8.817833 
239.914276 0.389644 
239.936707 0.025439 
240.908813 100.0 
241.910187 4.148215 
242.91333 0.57476 
243.708603 0.042734 
245.067902 0.030267 
245.891022 0.527069 
245.913116 0.084527 
246.11261 0.036705 
246.899155 0.0392 
247.906326 0.92302 
249.079742 0.035473 
251.095428 0.070074 
252.802078 0.035287 
252.928696 0.261566 
253.916519 0.110606 
254.335724 0.032018 
254.88887 0.042106 
254.924408 3.00157 
255.08989 0.14497 
255.927734 0.033334 
256.588531 0.022646 
257.911713 0.13098 
258.112244 0.066017 
258.326813 0.027158 
258.808075 0.124143 
258.919617 0.104079 
261.905487 0.807291 
262.059265 0.031984 
262.111023 0.199766 
262.911804 0.025833 
263.900848 9.334441 
264.908447 0.720496 
265.896851 0.059141 
266.998749 3.17489 
267.998779 0.522407 
268.977478 0.073637 
268.997223 0.033768 
269.82077 0.060476 
269.932465 0.048763 
271.105927 0.031186 
271.786865 0.044825 
276.817627 0.036544 
277.004486 0.385669 
277.80658 0.030094 
277.917084 0.040148 
279.089752 0.137849 
279.897949 0.337196 
279.915894 4.903923 
280.903534 0.400149 
280.919159 0.216728 
281.911499 45.428825 
282.913666 2.773688 
283.029938 2.035301 
283.916473 0.105379 
284.029633 0.298312 
284.731903 0.029469 
285.010254 0.036811 
285.815399 0.33506 
286.822784 0.143361 
287.830963 0.413469 
293.820251 0.428306 
293.932159 0.041722 
294.828339 0.546824 
295.927368 1.171241 
297.274689 0.044952 
297.906067 0.048464 
298.242889 0.028375 
299.061554 0.278093 
299.829956 0.048502 
301.826263 0.463648 
302.816986 0.185252 
304.927612 0.081326 
306.101135 0.180985 
308.807983 0.037545 
309.835175 0.347428 
310.822876 0.829563 
310.84317 0.946067 
311.830627 3.282851 
312.83847 6.74351 
313.839447 0.180893 
316.831604 0.050205 
317.820801 0.254532 
317.840332 2.460857 
318.826996 0.469907 
319.835785 14.278079 
320.837463 0.988148 
322.915833 0.034777 
324.111542 0.05574 
324.290344 0.054332 
324.822479 0.112166 
325.338196 0.032005 
325.829956 0.485508 
326.817657 1.577282 
326.837738 0.582136 
327.013794 0.054946 
327.825348 3.593754 
327.845734 0.135992 
328.833527 3.414229 
329.841431 1.53885 
330.84729 0.113262 
333.814972 0.91286 
333.835602 0.570029 
334.82251 0.08193 
334.843262 2.457459 
335.830688 4.797681 
335.850952 1.123828 
336.838348 16.326197 
337.846008 8.48516 
338.847565 0.33068 
339.011749 0.056988 
342.832794 0.811099 
344.82843 6.07483 
344.97583 1.651943 
345.831665 0.238253 
345.974823 0.03272 
349.834503 0.031838 
351.824982 0.62999 
351.846039 1.99263 
351.866058 0.04269 
352.831696 0.115663 
352.853027 0.37056 
353.8414 13.384775 
354.317993 0.037371 
354.848053 3.177059 
355.849121 0.10887 
358.843323 4.151255 
359.844879 0.53414 
360.838501 25.076263 
361.840729 2.106643 
367.839478 2.074388 
368.841187 0.19065 
369.835999 13.460052 
370.838593 1.030296 
371.852325 1.017512 
374.090637 0.035887 
376.854279 0.937062 
377.853882 0.04215 
378.848907 6.387876 
379.220825 0.034771 
379.850769 0.387152 
383.851532 0.275571 
385.851532 0.656192 
385.897003 0.034054 
386.158478 0.025257 
387.846741 5.369142 
388.848022 0.262981 
392.864532 0.114767 
394.845367 0.036602 
396.669983 0.067208 
405.087616 0.027735 
406.852386 0.061219 
421.61496 0.049024 
425.575562 0.032734 
429.26947 0.030577 
447.346741 0.041655 
454.71817 0.052878 
456.275757 0.063129 
457.336517 0.055208 
486.784698 0.033988 
493.831757 0.055959 
495.806763 0.052492 
526.594299 0.027779 
530.090942 0.033092 
548.304382 0.03261 
565.111816 0.031019 
END IONS

