BEGIN IONS
TITLE=Scan Number: 288537
PEPMASS=243.149
CHARGE=1+
COMPOUNDNAME=huperzine A
LIBRARYQUALITY=3
SMILES=CC=C1C2CC3=C(C1(CC(=C2)C)N)C=CC(=O)N3
INCHIKEY=ZRJBHWIHUMBLCN-UHFFFAOYSA-N
INCHI=InChI=1S/C15H18N2O/c1-3-11-10-6-9(2)8-15(11,16)12-4-5-14(18)17-13(12)7-10/h3-6,10H,7-8,16H2,1-2H3,(H,17,18)
MSLEVEL=2
SOURCE_INSTRUMENT=LC-ESI-qTof
FILENAME=f.curtf/huperzine_A_ms2/RSN-I-109-C-1_2.mzXML;
SEQ=*..*
NOTES=
IONMODE=Positive
ORGANISM=GNPS-LIBRARY
NAME=huperzine A M+H
SPECTRUMID=CCMSLIB00004746755
ACTIVATION=CID
INSTRUMENT=ion trap
SCANS=288537
51.026585 126.124596 
53.039814 402.471161 
53.071415 59.097546 
53.313461 55.127739 
54.030811 81.778099 
55.018684 979.34021 
55.053684 706.411194 
55.075577 122.813354 
55.093845 80.739487 
55.370338 57.088177 
56.04969 527.050476 
57.068951 479.931793 
58.062336 88.95195 
65.038818 305.26944 
66.039665 53.086433 
67.054115 759.6745 
68.049774 62.798935 
69.070801 151.737946 
70.028625 426.04483 
70.062927 286.208344 
71.030327 61.069767 
72.044418 99.756889 
75.010696 55.854855 
77.039581 1234.601807 
77.122826 49.879292 
77.37574 52.809109 
77.587524 61.899895 
78.040924 154.576431 
79.019501 56.341434 
79.054672 5828.249023 
79.117226 216.207581 
79.135559 212.121704 
79.176689 136.505051 
79.199821 51.755665 
79.271049 103.66272 
79.29496 86.457024 
79.315514 88.307381 
79.357841 57.216698 
79.376648 89.033966 
79.414284 66.659508 
80.048943 5543.742676 
80.13102 206.14476 
80.162422 134.754288 
80.194504 87.736435 
80.242249 72.022148 
80.33329 56.379292 
80.369934 74.105339 
80.413063 72.016609 
80.508934 99.743378 
81.033012 350.521057 
81.070007 3074.789551 
81.149948 155.625519 
81.179428 85.043251 
81.221184 59.805878 
81.287186 65.278099 
81.410973 58.803101 
82.029427 742.043152 
82.077156 99.221725 
82.139687 53.416988 
83.083206 76.834259 
84.044167 378.124268 
84.082664 227.820343 
84.112816 59.416988 
89.040169 262.894897 
90.029594 68.486435 
91.053398 2133.101807 
91.104774 125.946434 
91.145721 77.760368 
91.22789 51.069767 
92.050949 1007.59259 
92.11132 62.790005 
92.140778 53.456673 
93.030388 64.464882 
93.070358 4901.375488 
93.150246 188.831131 
93.187744 67.111435 
93.238274 63.207024 
93.275131 58.625324 
93.330688 50.802612 
94.068993 186.94574 
94.117805 50.069767 
95.089478 113.143349 
96.044304 1401.952881 
96.071686 294.65744 
96.133911 63.103859 
96.162758 69.874947 
96.182434 51.706261 
96.277763 66.872543 
97.046249 102.205589 
101.043762 65.772728 
103.02874 55.971729 
103.051994 117.389664 
104.055725 390.058807 
105.033577 148.551437 
105.069229 6996.213379 
105.162613 253.846024 
105.192078 149.96521 
105.21225 125.553101 
105.24614 109.139214 
105.278519 84.738708 
105.374001 104.958992 
105.395851 61.755665 
105.467369 60.963287 
105.539772 53.403099 
105.579681 64.918251 
105.861954 56.514214 
106.065002 23821.376953 
106.157486 736.328552 
106.188629 340.263062 
106.216148 264.450714 
106.243683 314.737366 
106.298241 177.268295 
106.335793 168.349243 
106.375374 174.629501 
106.419029 147.736435 
106.47731 119.736435 
106.540115 117.226822 
106.564087 106.857643 
106.615479 129.010086 
106.655518 93.207588 
106.693344 89.236435 
106.724937 97.269043 
106.763168 113.580734 
106.790092 96.186432 
106.813156 95.165009 
106.833557 74.748932 
106.862152 57.802612 
106.88269 56.742386 
106.935081 94.914062 
107.000542 89.15065 
107.069183 588.069214 
107.122055 94.072548 
107.165222 62.218578 
107.237785 76.961433 
107.35704 70.329025 
107.433685 85.986435 
107.525963 71.830185 
107.566536 70.819771 
107.612709 62.629292 
107.675667 61.06538 
107.762924 50.304615 
108.04406 12396.021484 
108.138145 387.125641 
108.171883 272.297882 
108.231377 138.376434 
108.306229 126.072975 
108.362053 113.996048 
108.402496 106.903099 
108.437775 70.291992 
108.482002 109.778099 
108.543777 48.741062 
108.574928 90.931747 
108.615295 51.740223 
108.664444 54.750324 
108.736702 53.971901 
108.786789 52.967205 
108.904282 66.781433 
109.05217 287.738251 
109.102585 197.343079 
109.229919 58.759163 
109.278488 58.967205 
109.748985 63.017685 
110.059067 3758.30542 
110.158333 132.338104 
110.18647 75.422409 
110.221725 69.009163 
110.243431 58.736435 
110.305435 68.145523 
110.416191 76.861435 
110.484253 69.464378 
111.063042 83.740219 
111.123871 49.739483 
111.819092 64.757271 
113.03611 81.096436 
113.327751 55.145218 
114.079308 58.786434 
114.153122 49.848934 
114.509766 74.879288 
115.053902 793.494629 
115.111588 56.847546 
115.240013 74.866753 
115.337952 52.92691 
115.803879 54.753101 
116.04969 6125.80957 
116.149498 227.938766 
116.179916 110.072548 
116.219383 90.736435 
116.249695 87.861435 
116.271446 65.861435 
116.324539 80.350067 
116.409912 97.696434 
116.500946 86.291992 
116.578392 73.736435 
116.775887 57.063358 
117.068024 1328.16626 
117.161926 59.847919 
117.322449 81.009163 
117.36528 50.885242 
117.486641 51.879292 
118.064804 919.679382 
118.282425 57.415489 
119.07386 706.086365 
119.132446 60.532486 
120.045891 426.17453 
120.079788 387.835632 
120.123802 67.833656 
121.089134 63.307861 
122.061325 737.862976 
123.06179 51.911434 
127.053993 621.954346 
127.113091 62.861435 
128.058426 1520.975098 
128.154922 102.84893 
128.174728 55.750324 
128.216522 50.464882 
128.299133 51.40773 
128.822342 66.430397 
129.069733 3228.48999 
129.149078 125.940979 
129.212494 63.088177 
129.314087 51.848278 
129.333054 55.127563 
129.428833 62.865467 
129.466156 56.778099 
129.503357 53.541435 
130.06517 967.430298 
131.084656 2601.210205 
131.187195 99.181435 
131.236786 62.298935 
131.553925 63.301651 
132.043869 5957.711426 
132.145187 232.868683 
132.181885 191.404297 
132.217422 108.778099 
132.275131 84.747307 
132.30838 95.145523 
132.363052 71.92691 
132.414383 78.66272 
132.47049 86.001137 
132.509506 52.044125 
132.679993 54.852177 
132.743149 74.10408 
132.781937 51.739811 
132.903244 89.837044 
132.936569 66.629951 
133.051895 5125.50293 
133.218933 108.922043 
133.262405 76.753098 
133.299988 115.020523 
133.323929 96.405876 
133.376053 68.716087 
133.445724 83.861435 
133.477768 103.632713 
133.560898 96.897148 
133.601074 107.256592 
133.676056 62.194767 
133.807175 65.738708 
133.845444 72.742386 
133.986389 100.265846 
134.059937 38666.746094 
134.090897 12654.078125 
134.164307 1342.37561 
134.199692 709.525391 
134.274887 566.158142 
134.35144 393.786041 
134.412735 358.161438 
134.441818 310.307648 
134.508835 200.19014 
134.585678 216.66777 
134.687378 181.770767 
134.732788 139.778107 
134.819 164.843582 
134.899963 145.656891 
134.942795 84.416992 
135.014267 120.340004 
135.060471 790.0979 
135.100449 533.343262 
135.194489 93.909508 
135.256226 112.403099 
135.301178 102.41143 
135.350296 96.124252 
135.386292 133.742691 
135.451019 102.554619 
135.493103 58.739483 
135.564651 72.296616 
135.64212 73.459648 
135.70639 82.009163 
135.748428 95.940979 
135.830994 62.656887 
135.877533 54.207588 
135.927917 51.304615 
136.004776 60.168575 
136.076416 530.851501 
136.1409 84.311432 
136.16861 60.659512 
136.337692 52.515846 
136.372955 70.861435 
136.690796 49.825718 
136.796387 57.417885 
137.069565 1268.476196 
137.136551 102.738556 
137.176788 55.861435 
137.385956 51.751141 
137.517303 56.12706 
137.602219 48.775227 
137.756714 55.911434 
138.033234 101.738708 
138.457825 55.486435 
139.053162 508.097534 
139.135376 75.307381 
139.378693 49.017685 
140.052124 475.588501 
140.105103 79.248932 
141.068954 2083.701416 
141.129105 184.151657 
141.170181 99.943069 
141.239624 63.936436 
141.339279 64.830185 
141.395538 64.008171 
141.553696 50.820892 
141.812973 52.800209 
142.074539 3005.662842 
142.170334 71.740463 
142.193115 77.390503 
142.231339 78.772453 
142.363739 56.044125 
142.398361 63.812653 
142.797882 54.192078 
142.984192 74.057861 
143.085175 4520.500488 
143.143127 321.028107 
143.19104 134.546432 
143.242096 110.176651 
143.285019 122.072548 
143.326172 92.53643 
143.431961 51.885826 
143.543167 50.417885 
143.617416 71.781891 
143.688385 55.416988 
143.71489 60.025719 
143.80542 61.145527 
143.849609 64.611435 
144.087616 1264.452026 
144.251434 98.629288 
144.492188 55.540005 
145.100845 311.891663 
145.185211 72.611435 
145.471252 62.192078 
145.58609 48.802612 
145.787033 64.736435 
146.05925 8484.131836 
146.165649 272.922028 
146.200226 147.236435 
146.286072 141.121048 
146.378983 83.739212 
146.4048 100.00206 
146.487671 87.753098 
146.533493 53.743786 
146.592407 70.269043 
146.674667 97.675262 
146.735168 50.417885 
146.806564 49.767685 
146.925232 56.764214 
147.015671 57.852177 
147.066635 2748.279297 
147.196381 84.121048 
147.257996 62.678741 
147.294495 50.764214 
147.35672 98.158852 
147.390289 67.861435 
147.416977 54.430878 
147.495819 87.736435 
147.7715 69.505669 
147.826569 54.643692 
148.075409 778.73822 
148.202423 69.269325 
148.228088 62.739639 
148.416672 65.287903 
148.79837 72.984718 
148.956543 54.523598 
149.077927 157.221283 
150.042984 94.307861 
151.053894 639.819336 
151.1297 68.192078 
151.352112 64.457588 
151.457809 57.522148 
152.060333 881.711548 
152.132324 88.10408 
152.200882 50.332024 
152.265518 75.083656 
152.8302 60.897724 
153.069138 3133.281006 
153.184845 71.379288 
153.248962 64.043251 
153.273422 66.576553 
153.300385 52.417885 
153.349686 70.626137 
153.600586 51.12706 
153.719345 52.236435 
153.817017 65.577347 
154.066223 5071.408691 
154.177704 143.010788 
154.224503 146.75032 
154.28598 97.861435 
154.340057 88.742386 
154.440842 55.678741 
154.476532 48.923935 
155.084259 6406.288574 
155.249573 136.751144 
155.30864 94.740463 
155.400772 154.175034 
155.428833 69.909508 
155.505157 83.703537 
155.570374 55.944767 
155.610886 104.120522 
155.666718 102.100067 
155.73526 55.411434 
155.774719 74.292282 
155.817734 51.456673 
155.930023 58.428741 
156.016769 90.86879 
156.081451 10737.237305 
156.18634 358.879303 
156.240555 235.411438 
156.277649 142.258179 
156.311081 178.910049 
156.335251 123.403099 
156.367081 133.76387 
156.401016 100.111435 
156.445999 132.556885 
156.49852 106.34893 
156.529465 133.623062 
156.561462 78.28373 
156.621887 132.009155 
156.657959 78.675949 
156.701431 95.512375 
156.737991 91.541435 
156.760559 110.3237 
156.843918 53.798935 
156.959488 78.754288 
157.026428 49.293251 
157.09874 3673.059814 
157.181625 277.743011 
157.218979 156.745697 
157.263657 138.920258 
157.346954 97.705696 
157.385986 62.406887 
157.434998 65.416992 
157.488724 65.62532 
157.548035 114.390503 
157.624069 49.778099 
157.668747 84.900909 
157.701523 61.742386 
157.772705 54.631172 
157.86438 69.416992 
158.007019 91.269043 
158.06076 11485.701172 
158.206772 252.95549 
158.253052 193.783081 
158.289978 125.298935 
158.345688 148.7388 
158.407562 155.505051 
158.507965 148.800262 
158.554108 113.431946 
158.596848 75.927612 
158.660202 76.428741 
158.706787 70.617531 
158.742233 75.797707 
158.78212 134.619904 
158.888565 57.761433 
158.998367 79.074394 
159.065948 462.718811 
159.099182 252.838501 
159.180206 93.144768 
159.2155 87.069771 
159.268875 51.336433 
159.337387 76.107048 
159.480545 60.048935 
159.616592 93.986435 
160.075317 2422.786621 
160.138458 140.90213 
160.192825 103.141281 
160.220734 54.464882 
160.277176 55.742386 
160.356384 58.765282 
160.384079 84.258171 
160.615906 68.802223 
160.650238 59.947639 
160.682236 71.719925 
160.806503 64.307381 
160.873993 54.900909 
161.072876 1118.834106 
161.175125 85.168579 
161.419342 50.700718 
161.456268 61.498341 
161.521713 51.083656 
162.085464 107.861435 
162.123917 76.236435 
162.202332 59.786434 
163.047821 74.969124 
164.050735 111.744766 
164.694717 50.376434 
164.941803 77.936432 
165.069 4474.152344 
165.167084 169.761429 
165.218842 126.871437 
165.252258 122.626137 
165.312454 86.789398 
165.356369 70.753098 
165.389984 58.861435 
165.438065 136.854355 
165.51297 112.009163 
165.608429 87.866867 
165.659775 67.104858 
165.827911 76.748337 
166.07132 17890.46875 
166.2323 385.71991 
166.30191 279.629456 
166.353577 251.131592 
166.394073 253.618896 
166.446259 147.757263 
166.483139 125.861435 
166.528946 199.800217 
166.617096 149.580734 
166.682755 124.736435 
166.783203 157.415009 
166.855621 128.90535 
166.904114 79.141434 
166.976898 173.369766 
167.078125 2509.886475 
167.145599 194.028107 
167.19722 156.736435 
167.229675 124.456673 
167.263138 126.820335 
167.294968 93.616867 
167.331146 73.795647 
167.384201 70.936432 
167.457687 90.754875 
167.536438 80.736435 
167.592453 67.736435 
167.628311 48.986435 
167.663696 79.92691 
167.697128 59.765282 
167.726089 51.772148 
167.852249 58.002739 
168.08577 9576.212891 
168.202881 313.578552 
168.260773 182.111435 
168.302338 186.743378 
168.364182 137.185898 
168.400467 117.776436 
168.449753 166.712784 
168.487564 149.328644 
168.524536 85.0588 
168.576202 133.444763 
168.614365 172.138351 
168.653381 80.403099 
168.745789 105.856804 
168.800964 117.967201 
168.829773 123.083992 
168.869568 57.186436 
168.908142 69.088181 
168.936935 94.422836 
169.002609 180.736435 
169.090347 13137.5 
169.203186 487.740753 
169.353897 253.742111 
169.429977 231.05072 
169.50061 154.046783 
169.543991 139.207016 
169.623306 165.752731 
169.730148 109.043251 
169.80394 134.961441 
169.842728 142.186432 
169.884628 71.301651 
169.951599 112.186432 
170.059296 10869.916992 
170.095184 28072.201172 
170.247314 692.976624 
170.297226 417.057861 
170.369293 349.268311 
170.435226 317.416992 
170.481262 371.761444 
170.523376 308.858429 
170.574234 289.73642 
170.63887 239.943329 
170.672287 225.698395 
170.708374 233.778107 
170.793411 209.427811 
170.84343 201.756882 
170.87178 159.486435 
170.921021 153.156204 
170.96048 149.749664 
171.009949 158.257263 
171.104767 3534.055908 
171.277069 166.740219 
171.333069 160.430405 
171.372894 136.631165 
171.433899 155.044128 
171.489685 136.088181 
171.57312 123.696541 
171.682938 98.12532 
171.761948 118.577652 
171.814194 84.778099 
171.879517 98.03405 
171.931641 73.292465 
172.075653 8181.005859 
172.107193 5170.033691 
172.197556 457.803497 
172.230881 252.736435 
172.268143 244.127731 
172.312363 192.982117 
172.362442 245.294571 
172.419281 181.736435 
172.510956 173.267685 
172.575302 101.472542 
172.644684 141.985321 
172.687851 109.298935 
172.726746 89.62532 
172.772232 56.811436 
172.832916 88.764214 
172.895142 85.963287 
172.954102 114.634583 
172.996887 73.636436 
173.078308 849.26001 
173.176346 134.739212 
173.239487 120.216507 
173.277527 85.423935 
173.348618 67.854858 
173.445755 63.403099 
173.494766 58.736435 
173.536453 83.886436 
173.616867 48.748341 
173.734344 102.996048 
173.801483 59.307087 
173.854797 54.182861 
173.905792 53.740467 
173.942123 52.736435 
174.083069 198.403107 
174.239639 77.186432 
174.316406 74.450722 
174.431046 60.267685 
174.902466 48.854855 
175.083664 227.687088 
175.139099 71.765282 
175.220749 59.025719 
175.320099 54.861435 
175.35437 54.778099 
175.464462 54.848934 
175.730927 63.784054 
176.009995 53.743786 
176.051895 81.207024 
176.117126 56.361435 
176.331757 58.736435 
176.516663 70.003098 
177.055573 451.805634 
177.123123 54.361435 
177.693253 67.226822 
178.065414 2915.412354 
178.162613 130.069763 
178.2155 85.176651 
178.24971 79.136436 
178.325851 78.009163 
178.42334 54.961433 
178.599594 66.051651 
178.770752 68.986435 
178.796631 73.072548 
178.876328 62.025719 
179.08165 3704.683594 
179.245728 107.057861 
179.306534 78.522148 
179.364914 53.759163 
179.457169 70.736435 
179.524658 103.861435 
179.582947 97.854858 
179.665314 104.020523 
179.747635 77.836433 
179.790207 73.736435 
179.828262 62.816563 
179.955185 169.705185 
180.000107 74.394043 
180.080032 18846.441406 
180.237381 344.056213 
180.278305 243.246674 
180.345856 236.182083 
180.409821 240.967987 
180.469955 128.967209 
180.505096 170.003098 
180.544617 173.457016 
180.602829 178.39325 
180.71199 136.578537 
180.781219 172.017685 
180.857056 125.111435 
180.915588 111.168869 
180.95813 102.185905 
180.996597 75.361435 
181.10022 24169.744141 
181.253799 472.99176 
181.288284 466.170166 
181.341461 392.332031 
181.393814 298.476196 
181.448044 335.709259 
181.535049 201.959259 
181.573578 266.958893 
181.617294 258.423065 
181.728699 177.825714 
181.843246 165.186432 
181.915329 184.045105 
182.00882 135.07254 
182.060791 9552.916016 
182.094162 5908.460449 
182.193314 417.738495 
182.252686 314.577332 
182.334152 298.799927 
182.405426 206.811432 
182.460068 219.757706 
182.502029 210.741333 
182.529953 139.39325 
182.573837 188.785858 
182.647797 193.168869 
182.698837 150.809113 
182.754181 120.625717 
182.81517 167.878677 
182.876617 142.809113 
182.933395 120.11718 
182.997589 149.430664 
183.069931 12162.798828 
183.104874 15192.185547 
183.303604 529.246704 
183.344406 377.8862 
183.39653 266.296631 
183.441742 309.403107 
183.505844 239.501266 
183.580841 202.961441 
183.66687 265.723389 
183.740387 220.389664 
183.795227 179.903107 
183.850555 142.048935 
183.884583 117.742386 
183.925186 160.75032 
183.979568 175.997299 
184.075821 88213.1875 
184.19902 2617.631348 
184.235352 1510.741211 
184.278152 1224.781738 
184.356598 762.847534 
184.444885 673.001831 
184.501007 707.744263 
184.586639 630.831116 
184.675049 531.920288 
184.720505 393.790009 
184.771912 457.563354 
184.825363 436.838715 
184.876587 343.872559 
184.901199 328.780457 
184.951355 394.270325 
184.980316 322.278107 
185.014191 244.370209 
185.083282 4459.775879 
185.214462 305.971741 
185.250916 298.86142 
185.304108 241.538162 
185.341949 265.925781 
185.371277 252.856628 
185.410202 247.086441 
185.455261 179.629288 
185.51358 219.738251 
185.546417 197.979248 
185.591949 181.696442 
185.630341 151.961441 
185.714127 198.124252 
185.762466 137.854858 
185.821854 166.486435 
185.915787 137.963287 
185.960678 188.777023 
185.990173 171.35582 
186.090424 5946.053711 
186.214417 265.242676 
186.255463 154.315384 
186.287842 171.236435 
186.332718 188.934021 
186.374695 124.025719 
186.406342 146.971725 
186.440643 109.746048 
186.488495 179.018417 
186.560135 163.268356 
186.593094 122.626434 
186.652054 105.422409 
186.725647 101.776436 
186.767838 112.838707 
186.837769 95.505669 
186.884598 111.69696 
186.943634 103.341431 
187.027756 105.556747 
187.0858 3742.414062 
187.179733 233.03331 
187.239365 128.621231 
187.290298 181.498337 
187.409073 150.908051 
187.534363 126.236435 
187.576096 101.028099 
187.655029 68.86879 
187.687836 49.868786 
187.741028 101.100067 
187.785568 136.738892 
187.816559 164.222549 
187.846832 52.361435 
187.917175 75.910347 
187.957489 65.899895 
188.029266 65.127739 
188.091583 1125.612305 
188.208694 76.741432 
188.282928 87.540009 
188.340668 67.631172 
188.39856 66.577652 
188.476334 76.492584 
188.570175 74.257988 
188.625214 73.080185 
188.689392 67.861435 
188.766495 69.069771 
188.840637 67.885246 
188.940872 75.456673 
189.02327 50.741062 
189.073303 118.768578 
189.129471 74.517685 
189.24855 77.03405 
189.311508 69.074394 
189.388351 65.765282 
189.417465 82.738884 
189.591507 50.811436 
189.804123 53.791988 
189.86235 57.292469 
189.892258 74.17691 
189.962891 69.803101 
190.069656 452.218323 
190.149673 108.218575 
190.255478 54.961433 
190.284592 64.376587 
190.41272 73.464882 
190.465805 57.069767 
190.495712 53.900909 
190.542694 94.546432 
190.587952 62.767685 
190.632065 92.139214 
190.734741 79.515846 
190.778381 96.398666 
190.814957 72.431946 
190.867462 87.738243 
190.945938 71.772148 
190.990616 65.736435 
191.078461 1847.961792 
191.166077 168.62706 
191.202499 138.812653 
191.257614 100.783073 
191.324951 87.861435 
191.435913 49.981434 
191.502274 90.149895 
191.538788 58.136433 
191.569733 59.755665 
191.60257 54.736435 
191.719925 62.910213 
191.795288 57.581432 
191.866119 68.456673 
191.990753 50.194767 
192.080109 3604.287598 
192.210953 147.896439 
192.254715 97.50206 
192.294693 85.836433 
192.386612 67.696541 
192.488602 85.577347 
192.556442 91.73909 
192.625626 72.77523 
192.667084 88.228783 
192.804245 49.296619 
192.835297 88.405876 
192.87468 72.899895 
192.904694 65.798935 
193.08815 13441.506836 
193.214508 448.819763 
193.256638 267.106812 
193.316254 219.960114 
193.392181 181.834259 
193.514114 177.430878 
193.577515 211.307709 
193.65097 122.085571 
193.722183 122.740219 
193.781189 143.66272 
193.843262 80.307861 
193.899231 147.994247 
194.013382 161.743378 
194.082794 1775.667847 
194.180176 172.236435 
194.245056 151.956024 
194.379761 127.698387 
194.438721 142.550385 
194.505722 78.778099 
194.589127 113.580185 
194.641403 103.361435 
194.719131 116.737869 
194.770813 51.87706 
194.833206 71.265846 
194.907852 91.967995 
195.003662 50.294125 
195.090073 696.836426 
195.147324 182.786438 
195.182709 109.553101 
195.256104 114.86879 
195.333801 126.85408 
195.398956 102.654915 
195.485825 72.755669 
195.540421 60.790005 
195.598526 76.66272 
195.660751 139.737839 
195.741867 93.084259 
195.796387 111.766739 
195.86557 113.893486 
195.923233 90.456673 
195.951462 75.819771 
196.075851 58599.8125 
196.202911 1851.677734 
196.245499 885.78186 
196.310715 682.885803 
196.374603 651.799744 
196.440842 554.86145 
196.517395 489.255676 
196.55455 529.039978 
196.598969 467.507721 
196.662766 395.99707 
196.695374 442.86142 
196.736435 401.924896 
196.76445 358.851807 
196.843262 376.797699 
196.897812 378.991333 
196.941742 401.563354 
197.007675 407.1586 
197.083557 177938.65625 
197.21022 6057.647949 
197.253906 3107.642334 
197.377686 1830.547241 
197.520752 1329.254639 
197.591232 1091.211426 
197.642548 1023.180237 
197.694382 972.964172 
197.72258 864.905334 
197.823288 920.538086 
197.885818 745.643677 
197.910416 803.864441 
197.957916 717.024597 
198.016129 636.428772 
198.096115 102028.78125 
198.218597 4751.513184 
198.257339 2940.743164 
198.302338 1969.296631 
198.46582 1357.744751 
198.534546 1137.750366 
198.568344 1169.010864 
198.612259 1002.660339 
198.649704 1002.194763 
198.718506 908.09198 
198.779617 726.666321 
198.819901 779.925598 
198.887177 715.743164 
198.981018 556.377075 
199.093979 2428.188721 
199.126373 1749.927124 
199.236801 503.067963 
199.297516 447.406891 
199.360611 355.73642 
199.426498 490.185913 
199.461548 480.908966 
199.500458 351.36142 
199.529205 326.740234 
199.604294 443.554626 
199.701385 243.104858 
199.778854 321.008667 
199.820267 250.121704 
199.856979 216.022156 
199.909821 255.951859 
199.959686 247.681656 
200.010086 224.292679 
200.136215 857.685669 
200.206985 198.06076 
200.274765 202.187958 
200.356705 209.43074 
200.46698 178.739334 
200.590958 163.459656 
200.627335 141.834259 
200.745697 143.444763 
200.807556 153.738708 
200.888443 165.803101 
200.951645 134.207581 
200.992264 125.885246 
201.108322 626.222412 
201.170517 165.861435 
201.236099 148.505051 
201.272247 157.869766 
201.34169 117.417885 
201.440521 193.045197 
201.479233 127.349236 
201.552948 118.800209 
201.623154 149.227707 
201.699356 140.80072 
201.785461 112.819771 
201.818787 94.431946 
201.853958 120.736435 
201.884567 93.069771 
201.943878 115.947639 
201.99707 116.976822 
202.079056 111.848274 
202.151764 142.269043 
202.212906 137.411438 
202.266632 97.298935 
202.343002 115.553291 
202.390411 96.307861 
202.424072 90.967201 
202.465973 91.866753 
202.593933 108.899895 
202.683182 155.885239 
202.805527 108.739212 
202.840714 96.311432 
202.88829 73.307083 
202.929947 109.167557 
203.026428 91.779915 
203.083847 145.40509 
203.163971 79.022148 
203.258957 112.850723 
203.29361 108.546432 
203.336624 106.179619 
203.403091 107.259987 
203.512039 84.304619 
203.574677 65.017685 
203.619873 90.736435 
203.674484 83.577347 
203.710098 82.986435 
203.749039 114.951431 
203.774643 72.269043 
203.825043 78.75766 
203.926453 78.744766 
204.023743 95.748337 
204.087112 108.381432 
204.143555 53.486435 
204.202667 66.736435 
204.272507 100.269043 
204.35199 103.886436 
204.4935 70.553101 
204.538742 83.540009 
204.572601 57.813358 
204.625885 60.176651 
204.656647 64.736435 
204.770096 76.097542 
204.8311 99.742386 
204.917862 60.961433 
205.077988 87.003098 
205.133591 95.003098 
205.186829 89.496849 
205.33429 96.803101 
205.429581 79.497795 
205.475571 101.838707 
205.562347 58.903099 
205.613159 71.861435 
205.667938 82.297478 
205.741272 63.847546 
205.805786 77.063049 
205.882477 99.847801 
205.943665 53.778099 
206.009109 91.779915 
206.04039 68.205879 
206.096786 5322.305664 
206.232239 228.917618 
206.263229 176.033737 
206.319778 130.611435 
206.376114 116.307083 
206.452744 95.976822 
206.523285 116.379288 
206.55574 95.879288 
206.595886 110.316788 
206.680206 87.770523 
206.799057 145.916428 
206.846985 102.224335 
206.897827 134.329178 
206.94577 97.554619 
206.974991 109.136436 
207.012146 48.807861 
207.102325 1536.428467 
207.208588 122.185509 
207.258347 101.968575 
207.345795 116.033005 
207.384033 95.825722 
207.434357 99.772148 
207.481613 147.698395 
207.554077 133.75322 
207.595184 79.742386 
207.653275 102.756889 
207.687531 111.758492 
207.739532 102.456673 
207.807602 124.736435 
207.850754 97.656891 
207.891388 93.761436 
207.949265 113.781647 
208.111725 61099.046875 
208.243988 1834.750488 
208.325089 971.252563 
208.438934 615.428772 
208.487167 524.844177 
208.553421 461.802216 
208.638947 431.886444 
208.683884 487.742249 
208.764297 430.302826 
208.788116 347.857697 
208.847473 380.003021 
208.946991 365.763153 
208.981934 297.370209 
209.014587 292.299805 
209.096268 14641.368164 
209.222336 769.547119 
209.276718 501.145538 
209.343552 320.04892 
209.375549 313.785858 
209.424576 242.149902 
209.53476 324.311432 
209.57576 323.426422 
209.62645 308.178741 
209.695496 240.738419 
209.741974 228.197495 
209.806686 243.786438 
209.863297 208.292465 
209.895996 201.614243 
209.982727 246.220978 
210.022736 179.958893 
210.091339 51920.179688 
210.225204 1760.301514 
210.26683 999.002197 
210.311462 780.056519 
210.379288 603.847534 
210.43248 573.625732 
210.490295 406.01767 
210.559952 459.505676 
210.642059 476.08606 
210.684753 459.22757 
210.724258 401.218292 
210.781601 277.065369 
210.834213 339.742401 
210.911407 327.300537 
210.943054 324.166992 
210.989227 249.992783 
211.098846 144078.546875 
211.231323 4836.84375 
211.270325 2602.913818 
211.324081 1622.348877 
211.373413 1510.925293 
211.473679 1191.269287 
211.522583 1214.457275 
211.56398 992.0802 
211.597565 975.763489 
211.656555 939.616455 
211.693314 728.069763 
211.751389 738.226685 
211.789291 725.496521 
211.834167 707.182861 
211.884933 643.959656 
211.93721 524.465332 
212.037552 531.416992 
212.102463 5281.797852 
212.235825 406.180878 
212.336349 435.838989 
212.418503 328.40509 
212.476959 337.207031 
212.546783 322.337891 
212.592331 331.753113 
212.656815 261.574127 
212.705688 262.584503 
212.739578 289.062012 
212.798645 269.85437 
212.866943 210.662109 
212.901917 203.678741 
212.974762 166.069763 
213.101715 2121.494873 
213.179749 301.091827 
213.278595 252.265839 
213.339691 204.307861 
213.4505 226.638657 
213.488495 197.781647 
213.677032 199.350067 
213.755463 146.940979 
213.786774 170.700943 
213.852448 134.944763 
213.966446 239.464966 
214.001053 84.486435 
214.051315 161.207016 
214.111832 358.436432 
214.199036 165.816559 
214.296783 137.886429 
214.366974 144.943069 
214.402512 143.902252 
214.496719 139.400589 
214.566895 126.736435 
214.617172 82.742386 
214.660217 155.34169 
214.735184 94.226822 
214.768951 71.057861 
214.809586 108.741066 
214.845093 97.774895 
214.895981 86.976822 
214.94812 87.457024 
214.991165 95.069771 
215.04274 104.103859 
215.115494 240.962555 
215.192917 133.902527 
215.224213 95.111435 
215.264221 63.096729 
215.311523 90.753098 
215.337906 78.185509 
215.372025 84.139214 
215.437683 150.06076 
215.46875 111.336433 
215.549881 98.759163 
215.608261 88.553291 
215.635483 76.986435 
215.740005 74.002739 
215.88063 95.097542 
215.913696 120.026688 
215.959015 79.0588 
216.032578 99.678741 
216.109161 99.505051 
216.137283 98.766838 
216.182419 77.996048 
216.226624 74.069771 
216.318176 114.301247 
216.346588 97.328644 
216.435013 127.883171 
216.503601 100.838707 
216.586472 84.934013 
216.698792 87.793251 
216.762222 73.813354 
216.832581 61.958656 
216.858215 66.790009 
216.893417 83.739639 
216.952698 87.833656 
216.980026 57.92691 
217.069977 101.869247 
217.14679 80.03405 
217.215057 67.944771 
217.264969 68.257271 
217.330322 82.754288 
217.430573 92.501266 
217.465515 92.986435 
217.501984 87.866867 
217.556335 65.464882 
217.608292 95.986435 
217.644592 60.861435 
217.707199 77.173935 
217.794083 68.736435 
217.875748 56.968578 
217.943176 62.403099 
218.00975 63.656887 
218.08931 61.257984 
218.137314 55.217205 
218.176041 51.12706 
218.232574 48.819767 
218.348602 83.94696 
218.393814 72.496849 
218.428024 62.536434 
218.502548 77.456673 
218.626068 61.741867 
218.666138 57.911434 
218.754211 100.580734 
218.775818 66.986435 
218.972473 53.554615 
219.004257 77.826431 
219.046799 70.738983 
219.111252 59.941433 
219.146179 66.996849 
219.179352 54.458656 
219.234451 60.750324 
219.268341 65.754288 
219.324066 52.083656 
219.44577 83.984383 
219.594223 82.111435 
219.729004 70.736435 
219.802078 54.307861 
219.869995 63.923935 
219.916962 66.844193 
219.987915 48.909512 
220.070831 68.37706 
220.182892 48.751141 
220.251816 51.861435 
220.396729 92.647797 
220.462982 87.224335 
220.534622 66.736435 
220.585205 50.766838 
220.617599 56.736435 
220.678574 66.167557 
220.723267 52.94696 
220.759506 52.861435 
220.810806 50.62706 
220.877625 68.003098 
220.936813 106.798935 
221.0466 73.03405 
221.078842 60.861435 
221.17836 75.739815 
221.285492 69.778099 
221.343033 63.659512 
221.387802 62.967205 
221.484253 56.819767 
221.528366 53.536434 
221.62207 63.918251 
221.703873 67.861435 
221.779816 60.872799 
221.828033 92.910042 
221.868225 65.772728 
221.905548 53.772724 
221.964828 59.861435 
222.138916 79.811432 
222.29895 94.494247 
222.378021 49.341434 
222.431793 57.739639 
222.501633 80.861435 
222.555862 58.168575 
222.604263 61.961433 
222.673492 85.73909 
222.734634 57.182861 
222.829483 63.936436 
222.969528 81.340004 
223.005051 52.182861 
223.050842 68.836433 
223.095535 117.169128 
223.125717 116.765846 
223.277008 74.257271 
223.356262 88.257988 
223.459106 53.009163 
223.54747 89.847801 
223.621124 60.629951 
223.679489 63.740467 
223.722321 75.852173 
223.766174 69.772148 
223.874817 138.911438 
223.917221 103.736435 
224.008835 144.271439 
224.106812 33943.574219 
224.241791 1132.477417 
224.280243 590.212891 
224.312866 566.287476 
224.380554 508.936432 
224.434738 372.456665 
224.489151 391.214935 
224.546158 348.800201 
224.634827 392.79892 
224.70932 318.549988 
224.755875 242.637756 
224.797485 227.897156 
224.875839 293.785339 
224.927597 213.784058 
225.121002 2401.728271 
225.208405 347.795654 
225.263077 333.616943 
225.306 243.236435 
225.370438 335.742126 
225.443298 320.287567 
225.539215 281.034058 
225.57756 200.744492 
225.692947 194.696442 
225.877014 244.554001 
225.974548 217.66272 
226.024597 245.678741 
226.122665 493917.28125 
226.259933 19601.916016 
226.30452 9299.855469 
226.36792 5398.349121 
226.405075 4638.760742 
226.444229 4028.483643 
226.493362 3652.716064 
226.579041 3112.748291 
226.718536 2435.478516 
226.768219 2332.866699 
226.85524 2144.659668 
226.940536 1801.612061 
226.984314 1688.824829 
227.014648 1504.065186 
227.122543 18972.632812 
227.304565 1467.117065 
227.353439 1329.86792 
227.415543 1104.992676 
227.463745 1022.143372 
227.506378 909.737305 
227.558044 917.750671 
227.645416 754.795898 
227.705597 857.784485 
227.780792 578.802612 
227.86792 646.012207 
227.948944 570.076721 
228.036179 511.996857 
228.125793 7426.192383 
228.233978 728.852173 
228.291779 512.224487 
228.396667 520.18103 
228.48674 492.667786 
228.616486 465.993011 
228.688004 404.73642 
228.806488 311.600708 
228.895523 286.848938 
228.992661 294.39624 
229.129578 550.39679 
229.229965 268.279694 
229.303436 270.98407 
229.353317 313.884918 
229.405014 223.298935 
229.494522 232.625717 
229.558914 204.736435 
229.607651 234.044601 
229.684387 213.019882 
229.735199 219.177231 
229.845459 226.616867 
229.931747 194.861435 
229.974579 198.745697 
230.036713 129.999588 
230.144852 185.90535 
230.187683 163.340012 
230.260651 184.97908 
230.28833 149.755661 
230.334427 173.259979 
230.385513 173.736435 
230.431839 184.891647 
230.472794 145.872803 
230.532288 129.192078 
230.594086 188.861435 
230.649963 166.305466 
230.763336 144.872299 
230.838974 136.094482 
230.893753 116.361435 
230.938889 120.781433 
231.005219 106.210487 
231.061371 166.694763 
231.123291 140.156891 
231.257599 160.051651 
231.349899 112.328537 
231.453842 137.923935 
231.519394 145.77092 
231.568268 125.501266 
231.613297 132.185898 
231.655609 150.864594 
231.719284 110.696541 
231.753967 86.186432 
231.827332 140.77092 
231.867111 86.736435 
231.966278 146.131592 
232.105438 140.459793 
232.139252 130.812057 
232.203369 106.739639 
232.256516 82.831131 
232.297989 111.224335 
232.341782 111.227715 
232.380173 102.471191 
232.419495 123.822701 
232.467285 97.706261 
232.517563 112.486435 
232.612869 163.90007 
232.649231 119.736435 
232.69754 151.215912 
232.719894 119.045105 
232.789673 110.761436 
232.834427 93.518845 
232.89743 124.452705 
232.941238 124.434708 
232.985199 132.778107 
233.05246 100.738792 
233.105087 113.486435 
233.15593 115.738625 
233.194992 137.736435 
233.268478 61.986435 
233.362411 124.984077 
233.480392 126.431946 
233.550461 95.496849 
233.629456 138.315384 
233.677277 73.754288 
233.712051 105.82045 
233.810913 135.69696 
233.84642 109.748932 
233.928741 79.87706 
234.001785 89.885826 
234.096664 86.643692 
234.204163 84.50206 
234.251053 68.381432 
234.288757 64.182861 
234.349091 86.769768 
234.423111 110.879036 
234.525909 138.883179 
234.598343 98.471725 
234.686783 63.218578 
234.744659 71.961433 
234.806732 102.267097 
234.845673 97.872795 
234.921036 98.12532 
235.001999 87.872307 
235.092468 91.851997 
235.141556 75.927612 
235.213058 102.822975 
235.293152 84.625717 
235.355087 68.41143 
235.41275 58.879292 
235.477737 169.267319 
235.584549 66.003098 
235.641541 69.811432 
235.692459 56.744766 
235.818176 86.805878 
235.891586 52.541435 
235.935379 69.746048 
236.015289 77.958656 
236.07164 76.136436 
236.160873 81.996849 
236.235657 56.819767 
236.319717 51.182861 
236.434097 111.847801 
236.482498 77.626137 
236.526016 55.811436 
236.619965 71.075722 
236.6689 85.017685 
236.732635 56.736435 
236.833344 108.75206 
236.878662 89.934013 
236.913574 61.778099 
236.963272 69.496567 
236.996918 78.145523 
237.040283 77.847801 
237.124542 83.01841 
237.162704 69.947639 
237.194077 73.307861 
237.249985 82.176437 
237.351837 72.010086 
237.409164 82.986435 
237.5233 92.37706 
237.570969 51.976818 
237.609634 52.744766 
237.667786 74.248932 
237.721222 91.811432 
237.81218 79.456673 
237.889374 49.786434 
237.973679 109.611435 
238.033325 68.781891 
238.085098 54.678741 
238.11702 71.617531 
238.196121 73.025719 
238.247375 93.074394 
238.326828 48.885242 
238.405411 86.080948 
238.485901 79.797707 
238.550919 85.251678 
238.602249 104.34893 
238.667511 79.807861 
238.74939 72.778099 
238.834824 64.811432 
238.900803 69.416992 
238.943359 59.754292 
239.053024 68.772728 
239.208435 54.92691 
239.240768 56.103859 
239.315781 101.111435 
239.378647 70.278099 
239.449158 82.361435 
239.528687 50.10408 
239.591019 59.626141 
239.705948 78.785347 
239.828995 81.761436 
239.873154 90.069771 
239.905334 67.922043 
239.987061 70.798935 
240.108932 90.625717 
240.169647 85.458656 
240.26178 78.872795 
240.331192 57.009163 
240.414169 85.168579 
240.488434 65.293251 
240.547058 68.145523 
240.598862 63.058804 
240.657135 60.741062 
240.775909 101.656891 
240.906937 75.740463 
240.965317 161.193253 
241.049271 136.97908 
241.129761 233.361435 
241.200836 136.588699 
241.254883 93.797707 
241.299988 135.246857 
241.407364 89.075722 
241.515503 94.106804 
241.593658 97.459648 
241.650314 105.861435 
241.742294 97.247795 
241.794693 89.826431 
241.834579 84.861435 
241.895233 131.687653 
241.953949 163.179611 
242.013596 126.85408 
242.07135 123.768578 
242.106522 118.057861 
242.153229 71.144768 
242.219406 134.761429 
242.258316 150.335114 
242.306229 86.456673 
242.364685 150.73848 
242.409393 122.136436 
242.494858 100.795258 
242.545441 141.66272 
242.613724 115.149895 
242.651306 188.242691 
242.713028 120.736435 
242.768097 141.473679 
242.810059 84.022148 
242.852966 64.744766 
242.956543 96.946434 
243.014465 105.861435 
243.149048 243515.0625 
243.289429 8479.385742 
243.33519 4132.82666 
243.439453 2402.73877 
243.479813 2209.521973 
243.540207 1858.354736 
243.631241 1684.477417 
243.697205 1456.746582 
243.767776 1425.607422 
243.822205 1283.246948 
243.888931 1185.919067 
243.938797 993.707275 
243.975235 917.816772 
244.0242 814.498657 
244.152588 5839.686523 
244.282974 806.331665 
244.324142 646.297424 
244.371872 627.472534 
244.412842 623.617371 
244.439468 602.381958 
244.495071 566.37677 
244.563889 431.7034 
244.626816 509.739319 
244.718414 504.650085 
244.767395 379.456665 
244.814545 454.296448 
244.966263 451.506531 
245.081284 321.766205 
245.167313 313.921783 
245.254791 223.124252 
245.319519 222.940979 
245.394791 197.992783 
245.4897 223.348938 
245.575363 227.822708 
245.632996 214.180878 
245.68988 197.86879 
245.76123 216.869766 
245.81546 183.182861 
245.843185 160.390839 
245.902618 227.387405 
245.979187 161.959656 
246.061081 209.514374 
246.181091 195.908051 
246.234024 185.124252 
246.351776 141.794128 
246.419754 146.754288 
246.546646 121.471283 
246.608719 172.757263 
246.641586 140.98439 
246.723007 133.014847 
246.748611 115.515282 
246.814453 123.523598 
246.855591 103.986435 
246.893539 117.473679 
246.938492 110.811432 
247.001541 114.746849 
247.063843 116.058243 
247.116577 101.330185 
247.160828 95.778099 
247.265961 136.529343 
247.325378 102.051651 
247.397842 146.39917 
247.445129 124.143349 
247.475021 127.743576 
247.537659 116.229858 
247.634064 136.631165 
247.70401 84.085571 
247.764633 161.494934 
247.922791 126.369766 
247.975601 81.899895 
248.044662 59.207588 
248.08786 107.187965 
248.171478 124.681747 
248.237854 94.936432 
248.282364 91.003098 
248.329453 81.293251 
248.384903 138.759689 
248.453094 87.496567 
248.524277 113.16143 
248.556274 61.743786 
248.625717 83.097542 
248.703979 97.714378 
248.783295 95.245361 
248.867355 104.736435 
248.896988 98.951859 
248.971191 133.252563 
249.097855 75.182861 
249.194687 93.778099 
249.243652 107.103859 
249.293991 63.897148 
249.344498 84.060585 
249.450333 98.291992 
249.509521 100.901756 
249.607712 82.072548 
249.705292 67.34893 
249.743759 88.848503 
249.783295 85.967918 
249.881973 113.744766 
249.982346 96.415489 
250.070404 123.944771 
250.132004 88.834259 
250.198425 99.847801 
250.274963 61.781887 
250.356476 87.767685 
250.464417 92.861435 
250.537308 99.111435 
250.576492 119.105339 
250.609558 72.486435 
250.669052 81.629288 
250.719162 87.976822 
250.774994 112.969124 
250.836182 85.843575 
250.91626 81.738556 
250.955948 60.743011 
251.035522 53.144768 
251.138672 55.764214 
251.201843 72.267685 
251.267151 69.778099 
251.377075 90.761436 
251.443161 65.986435 
251.593842 93.379288 
251.779099 57.361435 
251.853943 69.778099 
251.897491 60.216698 
251.949707 57.144768 
252.013947 79.781433 
252.104355 59.736435 
252.187485 56.736435 
252.294952 107.899895 
252.371277 74.74379 
252.461609 76.033005 
252.529434 56.336433 
252.608124 79.890282 
252.669083 60.736435 
252.729095 56.457024 
252.773422 63.872303 
252.858597 68.611435 
252.935852 74.996849 
253.001099 64.885826 
253.076721 76.854858 
253.149506 77.772728 
253.228134 59.778099 
253.27272 72.328537 
253.359009 62.861435 
253.473541 68.017685 
253.555511 63.080948 
253.605362 53.180878 
253.6492 74.872543 
253.701157 64.996048 
253.814941 79.908852 
253.892197 58.257267 
253.953079 53.144768 
253.991791 53.515282 
254.045731 85.514664 
254.079803 71.795647 
254.348206 73.781891 
254.392776 61.515846 
254.434723 73.934967 
254.526398 74.086433 
254.583923 72.657356 
254.62793 79.890282 
254.700546 54.236435 
254.775467 75.738625 
254.894104 54.837242 
254.99794 56.812653 
255.052414 88.783073 
255.220673 74.307861 
255.250244 58.125324 
255.319611 67.766838 
255.377411 73.236435 
255.447449 54.861435 
255.51796 58.850071 
255.577576 48.736435 
255.62706 86.946434 
255.661621 73.967201 
255.734467 54.736435 
256.104279 70.017685 
256.189178 78.878677 
256.264801 73.986435 
256.375061 61.97908 
256.480042 95.741867 
256.58017 57.336433 
256.680969 54.861435 
256.746582 75.897148 
256.852325 62.62706 
256.947113 50.074398 
257.076508 66.754288 
257.166138 51.515282 
257.240479 50.376587 
257.307587 59.539066 
257.368134 50.790005 
257.422546 67.820892 
257.460236 82.34893 
257.506226 52.861435 
257.57605 70.941437 
257.690613 57.741436 
257.750732 61.406887 
257.824615 65.901978 
257.8927 76.636436 
257.92807 63.379292 
258.04483 50.044125 
258.089722 52.741867 
258.204376 62.514214 
258.283356 50.861435 
258.339752 62.043251 
258.490753 53.003101 
258.643646 84.787666 
258.701141 64.257988 
258.808411 60.962181 
258.879639 53.57655 
258.968506 54.486435 
259.03479 51.893486 
259.12146 74.854858 
259.281097 60.765282 
259.33139 60.269329 
259.465881 49.083656 
259.672363 50.802612 
259.736084 61.00206 
259.814423 72.802925 
259.910339 53.736435 
260.005402 53.736435 
260.176849 57.813358 
260.237183 58.157948 
260.321655 50.961433 
260.373871 54.298935 
260.431732 72.748932 
260.476349 78.578537 
260.540466 67.877739 
260.604492 54.083656 
260.63269 52.903099 
260.705566 55.629292 
260.803101 54.515282 
260.861847 79.127563 
260.89798 65.403099 
260.950195 56.740005 
261.04071 74.902252 
261.361908 54.028099 
261.434265 51.861435 
261.619385 61.51466 
261.666443 61.153099 
261.819611 49.186436 
261.872803 55.411434 
262.156433 53.763874 
262.232391 55.772724 
262.301483 48.838707 
262.385681 70.996048 
262.431244 60.069767 
262.477844 64.785851 
262.544983 54.838707 
262.68515 54.750324 
262.806183 67.022148 
262.92807 62.812653 
263.011383 54.553101 
263.071991 48.736435 
263.144867 74.90242 
263.218292 78.746849 
263.26535 61.756172 
263.382843 59.852177 
263.535461 71.019882 
263.657318 52.293251 
263.765167 61.434711 
263.896637 58.486435 
264.391876 59.265846 
264.738953 53.06538 
264.992706 49.741062 
265.380676 61.656887 
265.535187 50.838707 
265.56839 59.523598 
265.65509 57.740223 
265.917938 59.761433 
265.962708 50.515846 
266.020538 49.581432 
266.147827 49.927612 
266.352814 52.910347 
266.447235 52.772724 
266.692413 49.656887 
266.807343 58.982124 
266.87735 64.518211 
266.930481 65.182083 
267.009705 65.105339 
267.036926 59.996048 
267.242401 62.456673 
267.500977 51.190136 
267.758118 52.662716 
267.814392 49.379292 
268.017639 68.269043 
268.231689 57.827343 
268.35968 59.770527 
268.597046 57.802612 
268.716156 59.838707 
268.887543 59.181435 
269.077576 49.770527 
269.158295 62.361435 
269.209961 58.798935 
269.671234 74.072548 
269.712799 48.751141 
270.121521 53.57655 
270.158478 64.99279 
270.384583 57.971729 
270.582886 54.111435 
270.657623 57.50206 
271.06366 55.207024 
271.46048 54.643692 
271.576477 52.127563 
271.928986 50.986435 
272.264343 51.897148 
273.133942 68.958992 
273.288422 63.927612 
273.319458 54.505051 
273.753082 50.819767 
273.819427 55.761433 
274.039551 64.772728 
274.301422 64.961433 
274.515961 72.82785 
274.689117 54.236435 
274.980774 65.539215 
275.513672 49.927612 
275.568787 52.307861 
275.622467 52.901974 
275.773651 55.675949 
275.922546 51.124256 
276.808105 55.307861 
276.860382 52.739639 
277.472687 59.936436 
278.691315 63.361435 
278.764313 49.983387 
279.811401 54.381172 
280.121277 48.868786 
280.333679 55.854855 
280.551117 51.423935 
280.857513 49.058804 
281.150055 55.847546 
281.660095 53.861435 
282.591705 50.656887 
283.48642 52.256596 
284.362366 64.785851 
285.513458 52.185902 
285.896362 51.103859 
287.802795 59.06538 
288.082397 56.896523 
288.15741 68.390503 
291.40802 54.754875 
291.506073 49.754292 
291.662781 48.936436 
291.909363 54.834259 
292.807709 51.298935 
293.303497 50.428741 
294.258148 66.051651 
294.815918 49.736435 
296.001648 49.868786 
296.448486 59.809109 
297.025787 56.304615 
298.523956 50.959259 
298.829498 58.144768 
300.910156 51.207024 
307.390717 56.218578 
308.920013 55.963287 
309.870819 55.827343 
310.997803 48.872543 
313.980743 55.893486 
315.436646 56.822971 
321.38501 50.332024 
333.852539 51.144768 
340.435913 62.181435 
347.129852 62.861435 
349.380157 49.085571 
361.179382 53.861435 
361.233429 52.740467 
368.990112 49.088177 
374.514587 54.786434 
384.442169 52.736435 
385.369354 57.749592 
390.001892 49.843578 
392.334137 50.515846 
396.413269 51.048935 
398.875641 59.793251 
424.764069 48.759392 
429.081055 48.909512 
429.754913 50.182861 
433.438812 49.847546 
437.935211 50.057861 
438.214081 51.107048 
472.814301 55.625721 
478.908691 48.843578 
522.345886 55.045109 
556.782288 57.265846 
578.210205 53.036434 
581.645447 52.577343 
590.165283 49.749592 
625.633179 67.296432 
635.022278 50.840248 
690.696899 55.340004 
705.530518 52.666313 
716.733154 62.755501 
810.629944 82.53643 
840.745544 50.236435 
891.899292 56.017685 
904.932983 66.403099 
END IONS

