BEGIN IONS
TITLE=Scan Number: 19291
PEPMASS=407.21799
CHARGE=0+
COMPOUNDNAME=Roquefortine C
LIBRARYQUALITY=3
SMILES=CC(C)(C=C)[C@@]12C[C@H]3C(=O)N/C(=C/c4cnc[nH]4)/C(=O)N3[C@@H]1Nc5c2cccc5
INCHIKEY=SPWSUFUPTSJWNG-JJUKSXGLSA-N
INCHI=InChI=1S/C22H23N5O2/c1-4-21(2,3)22-10-17-18(28)25-16(9-13-11-23-12-24-13)19(29)27(17)20(22)26-15-8-6-5-7-14(15)22/h4-9,11-12,17,20,26H,1,10H2,2-3H3,(H,23,24)(H,25,28)/b16-9+/t17-,20-,22+/m0/s1
MSLEVEL=2
SOURCE_INSTRUMENT=LC-ESI-qTof
FILENAME=f.kudzanai2003/Kudzi 2/M5.mzXML;
SEQ=*..*
NOTES=
IONMODE=Positive
ORGANISM=GNPS-LIBRARY
NAME=Roquefortine C M+NH4
SPECTRUMID=CCMSLIB00005436021
ACTIVATION=CID
INSTRUMENT=ion trap
SCANS=19291
67.037094 22.0 
69.051979 497.0 
69.110077 33.0 
77.018929 23.0 
79.036232 90.0 
81.007118 23.0 
81.049004 113.0 
83.029556 61.0 
83.065361 179.0 
84.034126 33.0 
85.043304 63.0 
91.032829 91.0 
93.045807 53.0 
95.061806 199.0 
95.313049 33.0 
97.040825 599.0 
97.924324 32.0 
98.041237 34.0 
101.047653 28.0 
107.059525 90.0 
109.036377 24.0 
109.069397 34.0 
117.044281 28.0 
119.016876 24.0 
119.057716 32.0 
121.034485 53.0 
121.071503 40.0 
123.049339 38.0 
123.084984 55.0 
124.05986 43.0 
125.106789 88.0 
129.038498 204.0 
131.057816 132.0 
133.034637 27.0 
133.067368 74.0 
136.081726 29.0 
137.105911 78.0 
142.047195 40.0 
143.053513 355.0 
144.070053 36.0 
145.068405 91.0 
146.070709 27.0 
147.046844 123.0 
148.094955 26.0 
151.021774 27.0 
154.039886 20.0 
155.049057 205.0 
156.061508 45.0 
157.032349 22.0 
157.066223 262.0 
158.077316 31.0 
159.046585 49.0 
159.088058 21.0 
161.058136 36.0 
161.099335 64.0 
163.042419 25.0 
163.114868 25.0 
167.048691 75.0 
168.061172 50.0 
168.78717 22.0 
169.062134 126.0 
170.073547 147.0 
170.98967 20.0 
171.041367 107.0 
171.078323 157.0 
171.119537 59.0 
172.047455 103.0 
172.085709 60.0 
173.056427 125.0 
173.093704 85.0 
174.063629 64.0 
179.045456 143.0 
180.052841 111.0 
181.06012 92.0 
181.966568 67.0 
182.06839 62.0 
183.078827 1349.0 
184.044357 31.0 
184.084213 297.0 
185.09108 469.0 
185.213959 20.0 
186.058624 56.0 
189.088013 46.0 
192.052979 33.0 
194.065765 136.0 
195.075165 184.0 
196.087982 72.0 
197.057312 67.0 
197.091095 114.0 
198.067947 26.0 
199.073578 52.0 
199.10257 62.0 
199.802856 42.0 
200.062836 25.0 
201.080048 49.0 
205.056061 32.0 
205.782028 34.0 
206.057587 21.0 
206.905975 22.0 
207.074783 59.0 
208.088989 63.0 
209.09108 202.0 
210.091919 73.0 
211.06395 148.0 
211.105316 57.0 
212.06488 46.0 
214.080978 24.0 
214.174301 30.0 
215.104431 26.0 
220.084549 31.0 
220.764679 20.0 
221.079391 61.0 
222.095718 63.0 
223.071121 42.0 
224.117661 22.0 
224.696472 35.0 
224.848618 23.0 
225.11615 24.0 
225.384842 52.0 
226.087601 40.0 
227.094223 186.0 
228.106491 174.0 
229.116257 66.0 
230.063248 28.0 
230.110092 24.0 
232.072128 21.0 
235.099091 26.0 
235.142075 23.0 
237.11174 70.0 
238.088959 27.0 
239.094635 134.0 
239.769241 24.0 
239.992859 21.0 
240.054626 23.0 
240.100693 27.0 
241.057175 25.0 
241.11055 80.0 
246.091675 30.0 
249.123245 33.0 
251.129654 48.0 
252.06575 39.0 
252.126099 45.0 
253.102356 56.0 
254.113327 186.0 
255.084717 385.0 
256.086853 27.0 
263.129211 46.0 
265.117493 26.0 
266.115448 35.0 
267.08371 339.0 
268.086823 58.0 
268.126587 248.0 
269.089386 27.0 
269.12619 47.0 
269.22879 58.0 
270.139587 26.0 
277.133606 35.0 
280.12326 24.0 
281.093719 91.0 
282.098999 70.0 
283.050934 28.0 
283.114624 341.0 
283.752655 74.0 
284.049225 23.0 
284.126068 117.0 
289.141663 21.0 
294.14801 21.0 
295.148834 41.0 
301.082916 22.0 
306.127258 29.0 
307.1427 100.0 
307.183014 41.0 
308.169769 25.0 
309.143799 42.0 
322.158234 32.0 
323.209198 28.0 
324.139099 23.0 
324.613831 121.0 
335.169922 31.0 
336.16507 25.0 
350.200073 53.0 
351.209473 38.0 
352.191895 22.0 
365.144775 22.0 
365.218811 327.0 
366.219147 49.0 
367.218506 35.0 
371.155975 39.0 
371.268036 64.0 
374.638306 63.0 
379.228333 61.0 
398.406311 22.0 
400.226715 64.0 
400.861786 24.0 
401.844147 21.0 
403.215759 23.0 
405.281891 20.0 
406.110718 20.0 
406.535065 31.0 
406.70459 20.0 
407.093628 34.0 
407.218567 13278.0 
407.393951 155.0 
407.519135 55.0 
407.602966 49.0 
407.763336 23.0 
407.827637 26.0 
408.221558 3964.0 
408.42218 20.0 
408.872162 38.0 
409.220642 508.0 
410.043365 122.0 
411.002136 33.0 
411.096222 36.0 
411.48056 31.0 
411.62735 50.0 
412.851349 27.0 
413.945496 30.0 
414.692383 36.0 
415.90799 54.0 
418.486115 65.0 
419.374847 30.0 
425.119843 22.0 
473.47168 20.0 
499.422913 25.0 
510.282104 22.0 
526.474731 25.0 
554.342529 36.0 
560.839172 31.0 
584.16272 124.0 
633.063782 58.0 
684.328491 21.0 
705.005066 22.0 
710.893616 82.0 
757.30426 23.0 
881.279663 32.0 
967.01947 48.0 
1072.522949 43.0 
1247.505005 21.0 
1284.698242 23.0 
END IONS

