BEGIN IONS
TITLE=Scan Number: 2304
PEPMASS=425.19199
CHARGE=1+
COMPOUNDNAME=Citreoviridin
LIBRARYQUALITY=3
SMILES=O=C1C=C(OC)C(C)=C(/C=C/C=C/C=C/C(C)=C/[C@]2(C)[C@H](O)[C@](O)(C)[C@@H](C)O2)O1
INCHIKEY=JLSVDPQAIKFBTO-CFEYTUSBSA-N
INCHI=
MSLEVEL=2
SOURCE_INSTRUMENT=LC-ESI-Orbitrap
FILENAME=f.MSV000081463/ccms_peak/mzML Positive/H_fungal_filtrate_1month.mzML;
SEQ=*..*
NOTES=
IONMODE=Positive
ORGANISM=GNPS-LIBRARY
NAME=Citreoviridin M+Na
SPECTRUMID=CCMSLIB00005435760
ACTIVATION=CID
INSTRUMENT=ion trap
SCANS=2304
70.029137 1721.454102 
70.061691 1767.318481 
70.065514 54554.171875 
70.935936 673.528503 
71.068672 1754.071289 
72.081093 8428.830078 
73.028732 1528.470947 
75.698395 678.347656 
81.033691 4006.993896 
82.065353 898.889832 
83.060501 820.421448 
84.044655 5554.660156 
84.08094 12578.385742 
85.028572 5832.643066 
86.060135 8371.691406 
86.096565 17234.970703 
87.026596 966.34613 
91.054359 15141.430664 
95.060829 839.994812 
96.04454 3551.520996 
96.08062 1042.102051 
97.028511 6612.621094 
98.060272 1387.075684 
99.044197 1715.498291 
102.055069 1721.138184 
102.091621 934.757507 
102.287529 797.838501 
103.053955 826.717773 
105.070099 6659.927246 
106.065285 10745.668945 
110.060249 1186.492798 
110.071594 4278.964355 
111.044136 866.622925 
112.039856 1802.075439 
112.075699 1241.27002 
112.087288 1169.687866 
114.037529 10157.240234 
114.055382 7740.644043 
115.03965 2691.871582 
115.086838 4187.634277 
116.070778 41895.636719 
117.069893 823.660522 
118.064789 1200.805176 
119.072746 1054.388794 
120.080956 38916.820312 
122.060471 818.564636 
123.116791 1750.721924 
127.039307 1696.530151 
127.087234 2530.030273 
127.748756 768.14624 
128.061859 2924.611328 
128.070923 2785.022705 
129.06987 1788.197266 
129.102539 4824.231934 
130.065125 8764.239258 
130.085648 919.039795 
132.080933 11674.097656 
134.096268 832.717773 
134.351898 841.510742 
136.07576 3121.338867 
137.107117 1500.796143 
138.055328 1805.262329 
139.828995 704.288452 
140.070435 928.204285 
141.102402 955.062927 
143.085876 8439.235352 
143.117905 1008.958923 
144.06543 941.405212 
144.080856 6010.640137 
145.065186 1539.897461 
146.060532 918.386841 
146.097595 1103.486938 
153.069839 2984.397949 
155.08313 1232.641846 
156.080566 3137.97168 
158.095093 848.175049 
160.042953 13949.387695 
162.078079 1068.002808 
162.091232 5782.402344 
163.086136 832.392944 
166.061905 951.645569 
169.063217 858.400696 
169.134018 3869.478271 
171.080551 14876.832031 
172.075882 1106.740356 
174.091263 1356.188965 
177.102875 960.900085 
180.102234 1345.462769 
182.096237 959.029297 
183.079529 877.651367 
183.149475 814.743225 
185.070312 877.233337 
186.091949 1069.698242 
189.087494 1182.345581 
191.08136 1223.846069 
194.081223 6404.648438 
196.095459 924.765991 
197.129105 5499.806641 
198.006149 849.908203 
198.091629 26063.013672 
199.069077 1184.84082 
200.107224 3314.411133 
202.0867 5067.638184 
202.104614 768.122009 
204.10231 915.633972 
208.852554 885.002136 
210.092361 5312.339355 
212.106064 1052.868652 
213.123596 7130.724121 
216.101364 855.541687 
217.10112 786.539673 
218.708939 875.050598 
223.1436 1505.937256 
228.102768 7506.365234 
230.117874 3119.286133 
233.164032 1114.973022 
242.102448 4857.253418 
244.096817 11331.768555 
245.12999 1831.513428 
246.112473 11036.365234 
247.120834 975.423279 
248.128845 1387.065308 
251.138779 1434.764282 
263.138763 20760.025391 
264.122864 35204.1875 
266.151093 1653.897461 
271.90213 867.006409 
274.107361 1415.81543 
275.139648 976.108582 
277.152557 5256.838867 
292.119202 1698.091553 
312.156281 1378.23584 
341.15033 90693.460938 
371.160492 6491.024414 
389.171326 90918.984375 
407.182526 19465.617188 
425.104034 1540.124023 
425.188049 9792.867188 
425.241211 9981.870117 
447.346375 1341.744629 
END IONS

