BEGIN IONS
PEPMASS=374.12
CHARGE=1+
COMPOUNDNAME=bisdethiobis(methylthio)gliotoxin
LIBRARYQUALITY=3
SMILES=N/A
INCHIKEY=OVBAGMZLGLXSBN-UOVKNHIHSA-N
INCHI=InChI=1S/C15H20N2O4S2/c1-16-12(20)14(22-2)7-9-5-4-6-10(19)11(9)17(14)13(21)15(16,8-18)23-3/h4-6,10-11,18-19H,7-8H2,1-3H3/t10-,11-,14+,15+/m0/s1
MSLEVEL=2
SOURCE_INSTRUMENT=N/A-ESI-QFT
FILENAME=library_mgf.mgf
SEQ=*..*
IONMODE=positive
ORGANISM=MONA
NAME=bisdethiobis(methylthio)gliotoxin [M+NH4]+
PI=MoNA
DATACOLLECTOR=MoNA:VF-NPL-QEHF024557
PUBMED=N/A
SUBMITUSER=mwang87
TAGS=
SPECTRUMID=CCMSLIB00004715620
SCANS=24557
50.44096 0.049633 
50.758327 0.06351 
50.868401 0.066497 
50.984715 0.067268 
51.677567 0.067578 
51.856125 0.057128 
51.940319 0.305051 
52.119572 0.059148 
52.8316 0.067676 
53.002541 0.150825 
53.03896 1.058829 
53.83112 0.04951 
54.034256 0.275337 
54.428749 0.061188 
54.551208 0.053775 
55.018188 2.924375 
55.01944 0.064458 
55.041977 0.245448 
55.054585 7.103757 
55.934727 0.422894 
56.031033 0.062213 
56.049812 7.376255 
56.831059 0.061137 
56.965084 1.906886 
57.033829 3.27333 
57.053127 0.075056 
57.070217 7.347784 
57.265221 0.060514 
57.85051 0.052882 
57.935097 0.307384 
58.029053 0.478049 
58.037148 0.058397 
58.065449 6.422108 
58.21307 0.069452 
58.368793 0.065235 
58.812263 0.057149 
58.929504 0.062519 
59.049423 2.961694 
59.06068 0.722349 
59.073292 0.071916 
59.710957 0.074021 
59.930447 0.06727 
60.044662 1.685634 
60.055885 1.045114 
60.081081 0.61257 
60.111542 0.072871 
60.950508 0.0564 
61.010921 25.118826 
61.028645 1.462912 
62.014179 0.26591 
62.018696 4.351138 
62.06015 0.068631 
62.852314 0.059583 
63.006638 2.1062 
63.187523 0.058181 
63.997723 0.067129 
65.038773 0.557511 
65.388084 0.066146 
65.455788 0.057317 
65.615685 0.058992 
66.672668 0.060273 
67.054398 5.723782 
67.28598 0.069868 
68.049644 2.843005 
68.057732 0.063111 
69.033638 6.731666 
69.044762 0.06241 
69.070015 9.672546 
70.028839 0.840682 
70.036926 0.082266 
70.065269 45.058289 
70.073418 0.199598 
70.078278 0.063297 
70.7537 0.06881 
70.957954 0.152791 
71.012848 0.369481 
71.03669 3.013885 
71.038551 0.067401 
71.04734 0.077037 
71.049263 4.363711 
71.060455 0.095785 
71.068581 1.586588 
71.08564 5.412237 
71.929398 0.053413 
72.04451 7.96073 
72.080894 7.225325 
72.737267 0.056474 
72.937271 1.140687 
73.010841 0.383261 
73.028511 3.543359 
73.046883 4.795026 
73.06485 2.400128 
73.848099 0.066496 
74.006035 0.154887 
74.046501 0.089997 
74.06012 4.294816 
74.09642 0.208175 
74.583931 0.059278 
74.990005 0.402838 
75.026291 0.068007 
75.044067 1.444843 
75.427734 0.071712 
75.558418 0.080537 
75.682663 0.068179 
76.075806 0.135447 
77.039009 0.098001 
78.96711 0.259494 
79.021271 3.669832 
79.05426 3.623126 
80.049568 3.605466 
81.00042 0.072054 
81.033592 13.245082 
81.044815 1.766477 
81.069984 7.769235 
82.028893 0.415896 
82.036995 0.380081 
82.052559 0.456817 
82.065231 4.761455 
82.073441 0.091461 
83.012871 0.276753 
83.049255 13.561935 
83.060493 1.121869 
83.072884 0.075267 
83.085602 4.589082 
84.044502 5.234688 
84.052628 0.417468 
84.057068 2.593996 
84.080887 18.599064 
85.010658 0.060425 
85.028519 6.516276 
85.039711 1.817087 
85.064888 2.674724 
85.07605 0.173618 
85.08419 0.521707 
85.101257 2.019355 
86.06012 4.857105 
86.096542 6.085691 
87.026443 0.720567 
87.044197 12.163724 
87.099838 0.362423 
88.021667 3.085457 
88.039383 0.576576 
88.047371 0.228122 
88.07576 5.406837 
88.196907 0.060234 
88.968636 0.073605 
89.005699 0.255288 
89.059837 10.48605 
89.91333 0.06078 
89.963837 0.070403 
90.037331 11.162626 
90.054939 0.072551 
90.063225 0.429749 
90.947807 1.477657 
91.021248 0.131184 
91.054337 6.348702 
91.057419 29.822577 
91.993088 0.065425 
92.033073 1.190897 
92.049576 0.091897 
92.05706 3.275364 
92.060738 2.13037 
92.707443 0.061167 
92.982864 0.4926 
93.033661 0.170882 
93.036751 0.439333 
93.054367 1.288186 
93.070007 3.627679 
94.028839 0.261812 
94.041084 0.080874 
94.065216 2.770453 
94.073471 0.063187 
95.012833 1.319751 
95.049217 8.509992 
95.060448 1.896143 
95.085609 6.962945 
96.044487 4.403958 
96.052116 0.064195 
96.080879 3.833328 
96.088951 0.351153 
97.028542 5.999688 
97.039894 0.299332 
97.064888 2.47159 
97.076103 0.71507 
97.101295 2.76293 
98.023827 0.074753 
98.031616 0.074148 
98.047752 0.058637 
98.060188 8.843533 
98.071487 0.069445 
98.096466 2.247583 
99.026184 0.218023 
99.044189 3.569626 
99.055328 1.065805 
99.063324 0.089598 
99.067856 0.263243 
99.080658 0.450328 
100.039391 2.651264 
100.075806 7.907227 
100.112213 0.341166 
101.005676 0.74147 
101.023384 0.611726 
101.05983 4.563558 
101.07093 0.066347 
102.037308 2.782064 
102.055046 1.601869 
102.091408 0.293539 
102.948219 0.080082 
103.039093 1.598905 
103.054367 1.754645 
103.075386 0.192085 
104.049561 1.643529 
104.070663 0.579362 
104.107117 6.727877 
104.726524 0.05467 
105.03363 3.691506 
105.069992 7.878005 
105.917305 0.067383 
106.036964 0.089546 
106.065269 6.899404 
106.073257 0.302002 
106.99826 0.079165 
107.049194 9.007076 
107.060425 0.196611 
107.069519 0.135537 
107.085609 2.966622 
107.134232 0.068113 
107.568497 0.065436 
108.044495 3.372619 
108.080772 1.985007 
108.958351 0.367963 
109.028572 3.376358 
109.05204 0.066641 
109.064911 3.186515 
109.076035 0.592072 
109.101311 3.869077 
110.02375 3.983295 
110.036331 0.848579 
110.060127 4.030295 
110.071365 1.894176 
110.096458 1.314269 
111.026398 0.915886 
111.044197 14.967537 
111.055397 16.649982 
111.062294 0.065272 
111.080444 0.638916 
111.116905 0.214559 
112.039413 0.787735 
112.047256 0.494309 
112.050911 0.122788 
112.05864 0.3453 
112.06321 0.079694 
112.075722 4.182752 
112.087051 2.366165 
112.112503 0.079871 
113.022881 0.089459 
113.034576 0.231036 
113.059723 1.40398 
113.0709 1.312692 
113.079407 0.095874 
114.05513 1.962412 
114.066246 0.073349 
114.091461 4.454501 
114.10273 1.437325 
114.12796 0.094767 
115.02137 3.085769 
115.039001 1.635889 
115.050156 0.075005 
115.054207 0.232623 
115.075378 0.273406 
115.086723 0.608864 
115.423698 0.071125 
116.016388 0.06375 
116.049492 0.252356 
116.070641 3.09317 
116.963348 0.081614 
116.971962 0.166983 
116.98539 0.065551 
117.054039 0.117434 
117.057892 0.463716 
117.069969 1.530635 
118.032135 2.870152 
118.065186 6.046903 
118.073189 0.08133 
118.086349 11.903024 
118.943336 0.066994 
119.049255 2.451423 
119.060471 0.064593 
119.068909 0.070296 
119.085602 2.153808 
119.089882 0.067044 
120.043983 1.268209 
120.048241 2.884228 
120.080971 6.520607 
121.028503 2.966966 
121.064949 5.678157 
121.076118 0.532179 
121.101265 1.907299 
122.060242 5.595506 
122.071434 10.167146 
122.080933 0.076446 
122.096535 1.237491 
123.044205 3.738973 
123.055351 0.36829 
123.068153 0.107488 
123.079208 32.044151 
123.091667 0.247288 
123.11689 1.064686 
124.039452 2.8565 
124.051834 0.724879 
124.063438 0.253959 
124.075912 4.992745 
124.082306 1.961621 
124.087044 0.621649 
124.112282 0.186505 
124.936211 0.180755 
124.999786 0.173202 
125.023262 1.197311 
125.042137 0.40886 
125.059776 1.288727 
125.070999 2.216784 
125.095322 1.468504 
126.018692 2.011358 
126.055016 2.635075 
126.059753 0.076086 
126.066101 0.077481 
126.091515 2.680567 
126.127922 0.063656 
126.984093 0.079692 
127.021378 0.191549 
127.039062 2.076752 
127.050301 4.95404 
127.0755 0.077243 
127.086708 0.569377 
128.034088 0.206515 
128.070679 2.465477 
128.081802 0.102452 
128.106949 0.333191 
128.963699 0.271147 
129.054626 1.157596 
129.069992 0.71412 
129.102203 0.16028 
130.032257 0.065163 
130.049927 0.511802 
130.065201 17.752762 
130.086349 1.512739 
130.097626 0.267149 
130.978897 0.066869 
131.000122 0.26168 
131.034622 0.072091 
131.049225 1.719851 
131.068817 1.333554 
131.085526 0.789144 
131.961533 0.060345 
131.974289 4.264581 
132.044434 10.353862 
132.065506 0.627078 
132.080872 3.115185 
132.958191 0.421958 
132.995331 0.081967 
133.047333 0.345306 
133.052597 3.384707 
133.064758 2.306539 
133.076202 0.810863 
133.085831 0.981183 
133.101181 1.39387 
134.036072 0.073935 
134.060104 18.164583 
134.096466 3.242821 
134.956223 0.987354 
134.973984 0.192001 
134.996277 0.311053 
135.031509 0.174682 
135.044052 1.380038 
135.055405 0.329222 
135.063248 1.374227 
135.068268 0.076327 
135.080383 1.651667 
135.091721 1.40122 
135.116837 1.380239 
136.039413 2.590751 
136.062027 2.861843 
136.075775 5.068302 
136.087082 0.200044 
136.112091 0.739954 
137.059845 5.515764 
137.070908 1.930552 
137.082474 1.112924 
137.095612 0.681121 
137.107254 0.269524 
138.018707 0.369442 
138.054977 2.580392 
138.066757 0.088213 
138.091385 2.460797 
138.102936 0.064157 
138.127899 0.17749 
138.951675 0.168963 
139.021347 0.733323 
139.039429 0.50978 
139.050293 20.105524 
139.075577 0.07398 
139.086594 1.174705 
139.097931 0.643967 
139.111374 0.068364 
140.028931 0.126682 
140.034424 0.464669 
140.052872 0.662824 
140.058197 1.021192 
140.070007 2.074856 
140.081909 0.382834 
140.107101 0.656084 
140.143204 0.146726 
140.984497 1.198316 
141.036835 0.062119 
141.054703 0.483004 
141.065826 1.252726 
141.102203 0.632105 
142.050034 0.395034 
142.065018 0.348827 
142.086334 2.918846 
142.122772 0.206567 
142.159286 0.075777 
143.000351 0.068815 
143.027512 0.235312 
143.04512 0.332864 
143.072983 0.073884 
143.085922 0.198117 
144.044357 12.978516 
144.065659 0.703143 
144.081009 2.682383 
144.10199 2.371623 
144.958588 0.074082 
145.028442 0.756484 
145.04245 0.169152 
145.048264 0.676209 
145.064911 1.561067 
145.076065 0.733195 
145.084015 0.060606 
145.101273 0.653017 
145.989792 0.068456 
146.060089 12.01339 
146.083801 0.076235 
146.09668 2.715747 
146.974426 3.875939 
147.031616 0.065413 
147.044083 5.044354 
147.055267 0.198047 
147.063293 0.252298 
147.068588 0.216808 
147.080536 1.088032 
147.091751 3.803098 
147.104355 0.075949 
147.116882 0.333786 
147.974976 0.205577 
147.998184 0.063045 
148.039337 3.458699 
148.04744 0.066553 
148.062088 0.305061 
148.075729 6.303364 
148.095093 0.078721 
148.100113 0.074139 
148.112137 1.311387 
148.971893 4.379801 
148.989594 0.400545 
149.047348 0.861461 
149.059799 1.90911 
149.071045 1.99385 
149.078964 0.130501 
149.083237 0.188794 
149.096466 0.20688 
149.107376 1.486759 
149.972198 0.083741 
149.984924 4.285858 
150.055099 13.871726 
150.065918 0.09967 
150.079056 0.06323 
150.091476 4.118193 
150.114731 0.080306 
150.951141 7.040535 
150.96875 1.553144 
151.021149 0.082558 
151.039047 0.986056 
151.050369 0.574722 
151.063553 0.174545 
151.075394 2.20526 
151.086731 1.442536 
151.097778 1.692829 
151.11171 1.419916 
151.959061 0.112839 
152.034439 0.681514 
152.052734 1.076268 
152.070801 5.159816 
152.081909 1.698927 
152.107071 1.569709 
152.951797 3.088046 
152.966965 1.729522 
152.989319 0.081469 
153.030334 0.225603 
153.036987 2.937551 
153.054642 0.607689 
153.065933 3.283223 
153.090912 0.158941 
153.102478 0.433452 
153.959457 0.58606 
154.04985 0.741937 
154.086304 1.833252 
154.122513 0.134749 
154.947067 2.049729 
154.967239 0.501629 
155.000351 0.589816 
155.045044 0.528874 
155.081268 0.462006 
155.118149 0.330831 
155.954788 2.086075 
156.065689 0.547284 
156.081009 0.725045 
156.10199 1.852446 
156.945724 0.069453 
156.962936 0.075888 
156.969696 0.310304 
156.979309 0.061916 
157.015778 1.294305 
157.043137 4.501489 
157.050171 0.170678 
157.064758 0.19823 
157.076202 1.085436 
157.096497 0.088673 
157.952301 0.07756 
158.011078 0.106308 
158.027206 0.059536 
158.060028 6.783581 
158.081329 0.805476 
158.091385 0.193073 
158.097092 0.738033 
158.117584 1.184653 
158.953491 0.195497 
158.974426 1.479799 
159.011169 0.173189 
159.068405 0.724944 
159.080643 0.309387 
159.091675 3.722035 
159.116837 0.186805 
160.005661 0.074059 
160.039383 36.725456 
160.075821 5.069708 
160.112381 0.397155 
160.990402 0.337159 
160.998154 0.270266 
161.042526 3.40127 
161.04834 1.49479 
161.059723 1.864034 
161.071014 2.059865 
161.083664 0.537064 
161.096191 0.299308 
161.107407 0.877872 
161.132385 0.21051 
161.967148 1.60652 
162.037491 0.289405 
162.055054 13.468913 
162.066376 0.098216 
162.078934 0.100646 
162.0914 6.669535 
162.114883 0.065862 
162.128479 0.092729 
162.971649 0.066085 
163.005203 0.609193 
163.023911 0.074171 
163.03894 0.524514 
163.050674 1.035471 
163.05777 0.761 
163.063385 0.097052 
163.075424 3.629109 
163.086746 4.056626 
163.099091 0.279601 
163.123077 0.231987 
163.147598 0.092164 
163.967468 0.074155 
163.977264 0.388687 
164.034317 1.368211 
164.058426 0.598631 
164.070908 4.037213 
164.08197 2.491696 
164.093506 3.20033 
164.106964 3.236482 
164.951431 1.030943 
164.967377 0.378401 
164.988083 2.157551 
164.995239 0.212472 
165.021057 0.315433 
165.037125 0.114092 
165.054642 1.936229 
165.06604 1.831138 
165.07782 0.43324 
165.091202 0.104295 
165.102463 1.448013 
165.113571 1.670001 
165.938232 0.082791 
166.03212 0.544736 
166.049835 2.045716 
166.086334 3.122225 
166.097748 3.38347 
166.123032 0.34258 
166.393097 0.060214 
166.946976 0.246473 
166.983063 2.638121 
167.000031 0.097492 
167.01619 0.196706 
167.034943 0.12141 
167.045349 1.788483 
167.054901 0.311329 
167.070572 0.579374 
167.081589 0.597624 
167.11824 0.408767 
167.482162 0.068913 
168.065781 2.134737 
168.081146 0.256691 
168.089249 0.395751 
168.101944 1.580889 
168.113174 0.2966 
168.961884 4.239992 
168.982483 0.32776 
169.016083 0.197562 
169.032135 0.09787 
169.052292 0.295681 
169.06076 1.486171 
169.07634 2.329783 
169.08342 0.069904 
169.097275 1.206698 
169.990784 0.146488 
170.060287 1.441787 
170.081375 0.755607 
170.096481 0.674672 
170.117294 0.072218 
170.962036 2.253642 
170.977966 0.200462 
171.055237 0.086355 
171.080505 0.451804 
171.091644 0.926975 
172.00621 0.241492 
172.039383 5.312839 
172.062881 0.080324 
172.075729 2.532297 
172.086929 0.976526 
172.096481 0.915705 
172.112335 0.746588 
172.132828 0.245162 
172.957748 1.037563 
173.00058 0.073093 
173.059845 0.553259 
173.071075 3.795902 
173.107452 0.950462 
174.006027 0.382512 
174.021515 0.693135 
174.055176 8.891079 
174.079056 4.192428 
174.091476 3.378219 
174.127762 0.38172 
174.980225 0.060071 
175.025986 0.080604 
175.039307 0.179258 
175.058395 1.069123 
175.075455 0.864398 
175.086853 12.980708 
175.09584 0.148066 
175.099335 0.15017 
175.118866 0.173841 
175.148254 0.092943 
175.958862 0.26477 
176.034592 1.707831 
176.058853 0.110521 
176.070938 3.456073 
176.07933 0.216207 
176.090332 0.928966 
176.107178 2.881128 
176.975555 0.398057 
176.985199 1.192126 
177.042404 0.390225 
177.055038 1.671901 
177.066025 9.046794 
177.073563 0.094133 
177.09169 0.238494 
177.102219 1.467018 
177.110367 0.102435 
177.127136 0.091387 
178.032532 0.129728 
178.050003 15.683979 
178.058441 0.514104 
178.068756 0.169558 
178.086426 6.376655 
178.096069 0.508878 
178.122696 0.354156 
178.983292 0.3553 
179.022537 0.137889 
179.045166 0.420104 
179.053329 0.741772 
179.07077 0.726093 
179.081131 0.734848 
179.09314 3.748166 
179.117981 0.485303 
179.954117 0.182875 
179.977631 2.234044 
180.047485 5.759183 
180.065704 1.066125 
180.102188 2.749685 
180.137756 0.068121 
180.961777 0.749304 
180.980789 0.089889 
181.051392 0.837424 
181.060837 8.632069 
181.076019 0.105304 
181.08609 0.711831 
181.097458 0.772835 
181.133575 0.541619 
181.989502 0.245441 
182.044846 0.393714 
182.063812 0.485482 
182.082047 1.37338 
182.096664 0.355962 
182.117859 0.954869 
182.962234 0.916722 
182.977539 0.155345 
183.031677 2.571006 
183.066635 0.073848 
183.079788 0.168103 
183.091827 0.354433 
183.112885 0.210731 
183.949066 0.104183 
184.006363 0.083879 
184.063049 0.28058 
184.075363 2.12716 
184.097076 0.691047 
184.112061 0.234196 
184.957611 0.099175 
185.027481 0.27589 
185.038101 3.276272 
185.046722 0.528279 
185.061783 0.121749 
185.071152 6.280888 
185.080063 0.268699 
185.107529 0.320322 
185.948975 0.21636 
186.02182 0.308443 
186.05545 1.513569 
186.078583 2.361949 
186.091553 2.672635 
186.102859 0.368387 
186.112732 1.610264 
187.0504 0.606354 
187.076981 0.246696 
187.086838 11.277838 
187.09697 0.261961 
187.112228 0.104038 
187.123123 0.708168 
187.944885 1.013921 
188.022263 0.076963 
188.034515 2.931882 
188.058548 0.346008 
188.070755 3.416062 
188.079559 0.08466 
188.091537 0.913596 
188.107117 1.874465 
189.055725 0.286686 
189.066055 3.650964 
189.075027 0.186667 
189.092422 0.16897 
189.10228 2.061951 
189.11142 0.162869 
190.016571 0.309278 
190.032364 1.978919 
190.049973 4.43168 
190.073807 0.976003 
190.086349 3.113212 
190.096558 0.637473 
190.122696 0.501099 
191.001038 0.197877 
191.035522 0.098299 
191.045135 0.284289 
191.053467 0.065553 
191.071655 0.600796 
191.081589 7.194435 
191.090683 0.240521 
191.117996 0.339822 
191.977615 1.231865 
191.995773 0.600627 
192.011139 0.108035 
192.029373 0.217269 
192.047409 0.453981 
192.06575 2.539425 
192.089859 0.752645 
192.10202 4.996617 
192.111969 0.664869 
192.961853 3.19097 
192.98291 4.100928 
192.994064 0.660791 
193.051331 0.341398 
193.060837 4.766479 
193.097427 1.637383 
193.109283 1.158649 
193.133102 0.178263 
193.376633 0.075376 
193.97789 0.087812 
193.989319 0.094604 
194.027405 0.626557 
194.044922 2.994515 
194.064529 0.146569 
194.081375 1.693247 
194.091675 0.156978 
194.117783 2.412264 
194.12738 0.219677 
194.828125 0.069542 
194.978302 1.671991 
195.077118 0.191824 
195.091888 8.474726 
195.102249 0.10873 
195.112915 0.80839 
195.149475 0.10409 
195.948685 0.170405 
196.006012 0.101447 
196.042511 0.154924 
196.060806 1.153648 
196.076019 0.892679 
196.096725 2.385735 
196.11087 0.080163 
196.133667 0.237619 
197.071167 1.800741 
197.093903 0.184371 
197.107407 0.100772 
197.164719 0.090167 
197.875977 0.091814 
198.021835 0.075081 
198.05687 0.703266 
198.078568 0.966418 
198.091385 2.78137 
198.101334 0.05977 
198.112991 1.348495 
198.123688 0.072255 
198.980484 0.223419 
199.062225 0.186864 
199.072784 0.322301 
199.086548 2.137263 
199.096085 0.235108 
199.107849 0.44716 
199.123215 0.230598 
200.034698 0.064864 
200.058395 0.691399 
200.070831 2.030435 
200.081924 0.644552 
200.092468 0.489073 
200.106888 2.529389 
200.128479 0.169894 
201.055634 0.327624 
201.065964 14.90098 
201.089859 0.109659 
201.101608 1.763684 
201.11261 0.223969 
202.017441 0.092538 
202.050385 1.231431 
202.06221 0.061494 
202.0737 10.315213 
202.086044 2.355291 
202.096588 0.396884 
202.108521 0.267337 
202.122971 0.60386 
202.975677 0.074803 
203.045532 0.687596 
203.081665 36.288689 
203.103378 0.243121 
203.117828 0.990541 
204.029404 0.155927 
204.06572 0.989515 
204.086029 3.520061 
204.101639 3.002052 
204.112595 0.1166 
205.060913 6.106776 
205.088364 0.100311 
205.097412 3.669013 
205.107651 0.190811 
205.988556 1.18087 
206.044357 0.080568 
206.065811 0.30148 
206.082489 1.585795 
206.093109 0.095165 
206.117889 0.877531 
206.977646 0.117112 
207.066589 0.273525 
207.076462 3.061165 
207.091782 1.172502 
207.113342 1.957357 
207.124237 0.081093 
208.005951 0.135557 
208.042831 3.55605 
208.060867 0.260685 
208.077103 0.079712 
208.097519 1.608426 
208.109528 0.245372 
208.121033 0.817029 
209.056 1.835463 
209.071136 0.077337 
209.09259 0.741435 
209.106476 0.468077 
209.128723 0.980613 
209.892059 0.302644 
209.976562 0.114447 
209.988388 5.231036 
210.021744 0.723009 
210.040909 0.079674 
210.076614 0.165039 
210.091537 1.648675 
210.112717 1.997539 
210.123383 0.195376 
210.130356 0.076287 
210.899368 0.075129 
210.972321 2.350364 
210.991318 0.433897 
211.004608 0.081591 
211.075867 0.28549 
211.086441 2.982967 
211.097336 0.183484 
211.108307 0.358798 
211.120377 1.059385 
211.144318 0.379184 
211.986282 0.076152 
212.036758 0.151132 
212.055054 0.081851 
212.070908 1.239715 
212.092377 0.659458 
212.10704 2.136675 
212.117279 0.091489 
212.128403 1.549572 
213.066055 15.280136 
213.076767 0.409162 
213.090973 0.606025 
213.102432 1.35247 
213.113083 0.292875 
213.123611 1.584879 
213.160126 0.077351 
214.050171 0.159318 
214.073578 10.953844 
214.086212 2.747319 
214.097305 0.525517 
214.107742 2.717565 
214.122055 0.987841 
214.144455 0.089732 
214.263046 0.503463 
214.27327 2.043118 
214.94043 0.266501 
215.045502 0.135949 
215.08194 14.92322 
215.093216 0.310559 
215.117966 0.87326 
215.995438 0.066822 
216.031662 0.067524 
216.052963 2.569553 
216.06543 0.562951 
216.076706 1.064187 
216.087997 3.091859 
216.101944 2.449108 
216.123627 0.352105 
216.138733 0.101273 
216.99054 0.0983 
217.050781 0.083433 
217.061386 3.675134 
217.097382 2.798566 
217.108139 0.160399 
217.133469 0.228751 
217.990387 0.912554 
218.027527 0.764491 
218.047501 2.256123 
218.068588 2.376767 
218.081161 1.189581 
218.092178 0.08546 
218.117813 1.307715 
219.040771 0.124096 
219.076569 7.907431 
219.088837 0.075767 
219.093018 0.072392 
219.174545 0.23169 
219.988739 0.069496 
220.006241 0.077633 
220.04245 0.217171 
220.060608 0.627957 
220.084641 7.083468 
220.096695 1.104457 
220.108322 0.150387 
220.120132 0.171252 
220.132965 0.282502 
221.056015 0.268182 
221.073669 0.782304 
221.092407 4.367729 
221.105682 0.454941 
221.128891 0.082559 
221.140091 0.203678 
221.984756 0.186973 
222.021194 0.185798 
222.040848 0.082701 
222.077332 0.303973 
222.091553 0.369156 
222.112793 1.406347 
222.126144 0.115641 
222.898834 0.174189 
223.053528 0.093283 
223.087219 1.153564 
223.108185 1.563443 
223.145065 0.119509 
223.985672 0.550881 
224.000687 0.434741 
224.03746 0.2856 
224.071335 0.190342 
224.093567 0.637395 
224.106888 1.375284 
224.128326 0.1192 
224.878113 0.16908 
225.067047 0.680852 
225.091156 0.084449 
225.102509 1.52315 
225.124008 0.199827 
225.159836 0.187293 
225.886703 0.165646 
226.052277 0.33815 
226.073563 1.100278 
226.085876 2.147368 
226.097931 0.069772 
226.108353 0.218842 
226.121552 1.328561 
226.143967 0.095441 
226.89537 0.073835 
227.08168 5.337191 
227.092728 0.207327 
227.11824 1.256567 
228.031219 0.141969 
228.052719 0.171956 
228.065323 0.337592 
228.08696 0.737648 
228.101852 2.423932 
228.113022 0.470195 
228.12442 0.168895 
228.137344 0.096989 
228.890488 1.09172 
228.911758 0.202355 
229.060867 4.524448 
229.085327 0.244887 
229.097214 1.298481 
229.109131 0.18137 
229.133621 0.404372 
230.069077 7.505612 
230.081863 1.321527 
230.09285 0.104075 
230.117661 1.741151 
230.186371 0.157203 
230.891968 0.080572 
230.907089 0.546309 
231.041946 0.091718 
231.076736 30.73374 
231.097977 0.104379 
231.112732 1.009006 
231.14917 0.077845 
232.08287 5.134958 
232.097168 0.806627 
232.120102 0.08006 
232.13324 0.620351 
232.904648 0.090008 
233.013397 0.084264 
233.037796 0.193065 
233.056046 0.842191 
233.07312 0.191229 
233.092697 9.47951 
233.105148 0.114207 
233.128326 0.277906 
233.891876 1.635408 
234.045761 0.084139 
234.077087 0.196295 
234.097443 0.8921 
234.112701 0.742828 
234.89949 3.992154 
235.053772 1.824025 
235.071808 1.712485 
235.086685 0.855783 
235.119904 0.72685 
235.890488 0.166037 
236.000656 1.178556 
236.037338 0.106288 
236.091919 0.323763 
236.104889 0.858138 
236.128799 0.498507 
237.066086 0.204092 
237.089127 0.211755 
237.102188 0.989104 
237.136887 0.795698 
238.016815 0.381046 
238.086075 0.905834 
238.107681 0.30338 
238.120758 0.785816 
238.143936 0.085033 
238.967422 0.076639 
239.082123 1.517278 
239.118256 0.617538 
239.886017 0.265341 
240.088547 0.148911 
240.101578 2.082196 
240.123734 0.560034 
240.137329 0.40301 
240.909485 0.956008 
241.003784 0.107727 
241.0271 0.125926 
241.061554 0.210131 
241.097122 0.355037 
241.133469 0.914838 
241.883347 0.627196 
242.06839 2.427108 
242.081665 1.598698 
242.093033 0.811936 
242.117386 1.898502 
242.140594 0.081217 
242.893051 0.077025 
243.076523 11.106004 
243.088409 4.487574 
243.112518 0.595287 
243.149826 1.308827 
243.897919 0.158012 
244.04245 1.054248 
244.081696 1.605654 
244.096817 1.123128 
244.120224 0.170129 
244.133011 0.987689 
244.905853 0.719777 
245.001343 0.078196 
245.038727 0.88644 
245.055908 2.007005 
245.092133 2.864976 
245.128296 0.732746 
246.04541 0.471179 
246.062347 0.807987 
246.076752 0.095847 
246.097656 0.180873 
246.112488 1.591914 
246.903915 3.076999 
247.052124 0.080775 
247.071793 3.953947 
247.085815 0.748807 
247.10759 0.09209 
247.143646 0.185757 
247.906219 0.083113 
247.921066 0.067446 
248.079102 3.40343 
248.092194 0.333904 
248.104797 0.075155 
248.128723 0.493561 
248.878799 0.465213 
248.901779 0.738087 
248.916977 0.459587 
249.069336 2.209455 
249.087158 4.999989 
249.102036 1.085661 
249.136063 0.238708 
249.160553 0.096503 
249.907211 0.359654 
250.052948 0.089549 
250.074554 0.394528 
250.088623 0.455886 
250.107925 0.315205 
250.121643 0.176607 
250.143799 0.567974 
250.894089 0.909202 
251.048416 0.211568 
251.068344 0.110347 
251.083389 2.484023 
251.102875 1.573925 
251.116776 0.108753 
251.154251 2.168697 
251.903152 1.869398 
251.996109 0.23297 
252.087128 0.092827 
252.11142 3.448606 
252.138382 0.417345 
252.158371 0.284102 
252.966904 0.070047 
253.062515 0.116662 
253.097107 0.759964 
253.133163 0.471931 
253.902451 2.262403 
254.08075 0.210472 
254.116882 1.474244 
254.152924 0.169342 
254.903824 0.242367 
255.076691 0.585706 
255.112473 0.391515 
255.148117 0.089358 
255.23201 10.751155 
255.898712 1.06151 
256.003387 1.807813 
256.02478 0.165006 
256.096863 1.577788 
256.131378 0.780949 
256.235321 1.543512 
256.899872 0.17046 
257.105225 0.18832 
257.12851 1.222608 
257.164398 0.078103 
257.896088 2.237366 
258.078094 0.096318 
258.112122 1.345451 
258.148163 0.098094 
258.897675 1.797231 
259.016663 1.665933 
259.055756 0.106554 
259.071716 2.881298 
259.119965 0.090919 
259.144348 0.984808 
259.894196 3.448372 
260.022552 0.098301 
260.060486 0.080113 
260.079315 3.364168 
260.104248 0.098849 
260.128113 0.792133 
260.897797 0.234221 
261.033295 0.098749 
261.054443 0.26236 
261.069427 1.964258 
261.086914 3.23484 
261.102173 0.100828 
261.12265 0.541919 
261.159637 0.202728 
262.040527 2.303413 
262.072571 0.175049 
262.107605 0.093101 
262.120178 0.109652 
262.143005 0.100641 
262.894897 0.843943 
263.048096 2.553557 
263.066833 0.333029 
263.082977 0.514337 
263.101959 0.067636 
263.151062 1.060986 
263.175812 0.121222 
264.03302 0.314315 
264.101715 0.263709 
264.122498 0.116923 
265.06308 0.177058 
265.082947 0.118784 
265.097351 5.03913 
265.880615 0.15059 
266.048492 0.081098 
266.101624 1.300843 
266.117249 1.015842 
266.137268 0.132417 
266.88916 0.427233 
267.078705 1.079164 
267.112976 1.199609 
267.148956 0.351244 
268.003021 0.079688 
268.084991 0.097003 
268.097717 0.482497 
268.133209 1.03161 
268.26535 0.107737 
268.90567 0.673115 
268.978607 0.683412 
269.058868 0.445355 
269.092285 0.290242 
269.12851 0.528165 
269.164856 0.078929 
269.266907 0.409384 
269.978577 0.917758 
270.077393 0.074719 
270.112701 1.62462 
270.148926 0.252537 
270.886658 0.234485 
270.903351 2.988701 
270.922455 0.664295 
270.975891 1.529485 
271.073517 0.180799 
271.108856 0.169048 
271.143738 0.902594 
271.920776 2.061843 
272.092468 0.211975 
272.128143 0.334779 
272.222137 2.063327 
272.9021 1.015089 
272.917419 5.23894 
273.086456 0.318013 
273.10202 0.216351 
273.124451 0.088566 
274.1073 0.111215 
274.144714 0.11512 
274.894867 0.147003 
274.914154 0.140876 
275.118805 0.334423 
275.901794 0.571452 
276.101715 0.082393 
276.122925 0.551398 
276.910065 6.132637 
277.027191 0.084398 
277.047546 0.104202 
277.064392 9.318707 
277.080933 0.290643 
277.097626 1.54425 
277.906616 0.100606 
278.067261 1.563619 
278.117096 0.404848 
278.139679 0.211106 
279.061157 0.754864 
279.079803 2.739108 
279.097504 0.83885 
279.112915 0.098441 
279.149048 0.518163 
280.098175 0.517858 
280.133453 0.542963 
280.81369 0.617795 
280.898529 0.074593 
281.058929 0.324759 
281.093384 0.876363 
281.110046 0.095354 
281.129333 0.110145 
281.896667 3.52925 
282.112122 0.385269 
282.148895 0.228921 
282.89801 2.298776 
283.107391 0.548148 
283.144348 3.866677 
283.263367 6.95549 
283.892822 8.745372 
284.091339 0.179147 
284.128357 0.866372 
284.146576 0.225988 
284.266693 1.606041 
284.895264 0.566773 
284.99411 0.113556 
285.010406 1.955812 
285.027588 0.180872 
285.099243 1.058456 
285.123199 1.299713 
285.159912 0.118091 
285.890442 1.598347 
286.009949 2.400677 
286.106781 0.383164 
286.143738 0.459496 
286.164307 0.324684 
286.894653 0.209992 
286.91571 0.281498 
287.007599 4.883273 
287.138855 0.097853 
288.006287 0.11501 
288.122498 0.340306 
288.914337 2.751453 
289.064606 0.118155 
289.154663 0.46388 
289.91629 0.343995 
290.047211 0.223288 
290.13855 0.411155 
290.912994 0.773786 
291.043701 2.070726 
292.047913 0.104416 
292.118317 0.110145 
293.129211 0.083411 
293.161865 0.511511 
294.124298 2.869494 
295.074341 0.103313 
295.127533 0.579587 
295.194824 1.13867 
296.112579 0.10704 
296.129242 0.571459 
296.808868 0.469611 
297.07254 0.094726 
297.089874 0.190032 
297.112427 0.505768 
297.160645 0.100804 
297.816589 1.837557 
297.909454 0.097195 
298.092957 0.118636 
298.109894 4.704807 
298.143402 0.26735 
299.104736 1.439194 
299.139435 0.402815 
299.906952 1.023118 
300.06134 0.330785 
300.079346 0.099955 
300.159454 0.187622 
300.909485 0.972649 
300.968048 0.10649 
301.026733 0.153381 
301.066315 1.893037 
301.09903 0.089194 
301.155396 0.117052 
301.903931 3.299875 
302.081116 0.102355 
303.006042 0.086094 
303.901947 0.222305 
305.019806 0.444717 
306.134186 0.106846 
306.829437 0.848665 
307.107727 0.093783 
308.129578 0.185894 
308.809509 0.098803 
308.93692 0.791021 
309.160309 0.343407 
309.836975 0.097392 
310.120087 0.490859 
310.144073 0.210313 
310.843811 0.844147 
311.120239 0.240534 
311.138824 0.2518 
311.175446 0.115401 
312.01889 0.445621 
312.100677 0.310592 
312.122162 0.110986 
312.145721 0.151508 
312.91391 0.105042 
313.118439 0.106925 
313.134705 0.108125 
313.154144 0.867868 
313.20575 6.6054 
314.138489 0.574569 
314.208435 0.687523 
315.006592 1.420071 
315.082825 2.945904 
315.126251 0.099292 
315.171021 0.211872 
316.088165 0.09669 
316.120422 2.221824 
316.904175 0.101358 
317.044189 0.114904 
317.149841 0.460191 
317.993622 1.015256 
318.921356 0.419849 
319.077209 0.635977 
320.149017 0.110228 
322.128876 0.269444 
322.82431 0.317163 
322.952698 0.081355 
324.144135 0.279057 
324.840179 0.632258 
325.084198 0.073812 
325.154816 1.736514 
326.139313 0.522979 
326.157745 0.081951 
326.189056 0.083269 
326.221954 0.129328 
326.342194 4.122115 
327.170563 1.523011 
327.345612 0.532205 
328.116577 0.094175 
328.153778 0.530247 
328.202209 0.382381 
329.021545 0.617665 
329.128998 0.108508 
329.149414 0.10652 
329.186127 0.194455 
330.02713 0.173642 
330.134125 0.084007 
330.923523 0.215764 
331.071503 0.971126 
331.216095 2.785097 
332.020905 1.752515 
332.217896 0.06749 
333.017456 2.130797 
333.834717 0.1056 
334.844604 0.06803 
335.05368 0.085695 
336.14502 0.552121 
337.151703 0.085907 
338.159912 0.995263 
338.819336 1.421392 
339.136108 0.094119 
339.168274 0.18528 
340.139252 1.763249 
341.146545 0.832493 
341.187866 0.18305 
342.152802 0.111358 
342.83075 0.087099 
342.851288 1.020177 
342.997894 0.106405 
343.128998 0.203061 
343.163879 0.280643 
344.174103 0.065355 
346.04718 0.367973 
351.847046 2.11003 
354.13327 0.220624 
354.154877 0.758791 
355.129517 0.161785 
355.165405 1.861667 
355.204163 0.12921 
356.069061 0.547734 
356.148926 0.993658 
356.170868 1.006619 
356.212708 14.609454 
357.123169 0.163995 
357.146057 0.807853 
357.181671 1.241042 
357.217468 7.333691 
358.165985 0.721689 
358.222382 1.167953 
358.310577 0.996106 
360.236176 0.083343 
360.860748 0.085549 
361.071136 0.821626 
369.861084 0.061764 
372.143097 0.50863 
372.164825 0.158454 
372.200562 2.834041 
372.243774 100.0 
373.139954 0.86057 
373.176422 5.721146 
373.218414 4.534765 
373.246826 45.880978 
374.066711 1.804939 
374.121735 0.298719 
374.15799 3.696104 
374.180511 0.712626 
374.208191 1.94591 
374.24942 5.956445 
374.303223 0.785864 
374.378876 0.136274 
375.067291 0.072627 
375.133636 0.311663 
375.161743 1.463618 
375.19281 5.223616 
375.233398 6.217788 
375.337341 0.575178 
376.13739 0.495184 
376.175018 3.117111 
376.198242 0.829818 
376.223358 0.380956 
384.86087 0.633538 
386.748901 0.070746 
END IONS

