BEGIN IONS
PEPMASS=448.0
CHARGE=1+
COMPOUNDNAME=Massbank:KO004035 Sisomicin|Antibiotic 6640|Dehydrogentamicin Cla|Rickamicin
LIBRARYQUALITY=3
SMILES=NCC(=C3)O[C@@H]([C@H](N)C3)O[C@H]([C@@H](N)1)[C@H](O)[C@@H](O[C@@H](O2)[C@H](O)[C@@H](NC)[C@](C)(O)C2)[C@H](N)C1
INCHIKEY=URWAJWIAIPFPJE-GYHYWALZSA-N
INCHI=1S/C19H37N5O7/c1-19(27)7-28-18(13(26)16(19)24-2)31-15-11(23)5-10(22)14(12(15)25)30-17-9(21)4-3-8(6-20)29-17/h3,9-18,24-27H,4-7,20-23H2,1-2H3/t9-,10+,11-,12+,13-,14-,15+,16-,17-,18-,19+/m1/s1
MSLEVEL=2
SOURCE_INSTRUMENT=ESI-LC-ESI-QQ
FILENAME=Massbank_ESI_positive_8_1_2014_peaks.mgf
SEQ=*..*
IONMODE=Positive
ORGANISM=MASSBANK
NAME=Massbank:KO004035 Sisomicin|Antibiotic 6640|Dehydrogentamicin Cla|Rickamicin [M+H]+
PI=Putative Massbank Match
DATACOLLECTOR=Massbank
PUBMED=N/A
SUBMITUSER=mwang87
TAGS=
SPECTRUMID=CCMSLIB00000220592
SCANS=9827
68.9 14851.5 
71.0 69307.0 
71.8 183168.5 
73.1 49505.0 
80.2 74257.5 
82.1 183168.5 
84.1 465347.0 
86.3 450495.5 
87.8 34653.5 
88.4 54455.5 
94.1 54455.5 
95.8 79208.0 
98.2 34653.5 
98.9 193069.5 
100.0 589109.5 
100.5 108911.0 
102.1 227723.0 
108.2 24752.5 
109.3 2628715.5 
110.0 519802.5 
111.3 108911.0 
112.0 3064359.5 
114.2 693070.0 
118.3 1866338.5 
120.5 34653.5 
121.4 89109.0 
123.0 39604.0 
123.3 39604.0 
124.3 163366.5 
126.3 54455.5 
127.1 638614.5 
128.5 24752.5 
134.3 34653.5 
135.3 39604.0 
137.7 24752.5 
141.0 64356.5 
142.3 1579209.5 
143.2 74257.5 
145.3 316832.0 
148.4 34653.5 
151.2 287129.0 
156.8 14851.5 
158.2 24752.5 
160.1 2905943.5 
163.3 2524755.0 
165.3 39604.0 
169.1 89109.0 
173.3 722773.0 
175.3 237624.0 
175.7 19802.0 
185.2 24752.5 
187.1 237624.0 
199.4 128713.0 
201.5 173267.5 
205.5 262376.5 
209.5 24752.5 
213.8 24752.5 
215.4 168317.0 
219.4 94059.5 
225.4 99010.0 
226.1 89109.0 
227.5 29703.0 
228.9 59406.0 
237.0 173267.5 
252.5 34653.5 
254.4 2732676.0 
256.1 24752.5 
266.4 24752.5 
267.7 34653.5 
271.6 891090.0 
272.7 193069.5 
278.5 163366.5 
295.6 222772.5 
296.6 153465.5 
313.6 44554.5 
314.0 19802.0 
END IONS

