BEGIN IONS
PEPMASS=270.093
CHARGE=1+
COMPOUNDNAME=Linamarin
LIBRARYQUALITY=3
SMILES=N/A
INCHIKEY=QLTCHMYAEJEXBT-ZEBDFXRSSA-N
INCHI=InChI=1S/C10H17NO6/c1-10(2,4-11)17-9-8(15)7(14)6(13)5(3-12)16-9/h5-9,12-15H,3H2,1-2H3/t5-,6-,7+,8-,9+/m1/s1
MSLEVEL=2
SOURCE_INSTRUMENT=N/A-Linear Ion Trap
FILENAME=library_mgf.mgf
SEQ=*..*
IONMODE=positive
ORGANISM=MONA
NAME=Linamarin M+NH4
PI=MoNA
DATACOLLECTOR=MoNA:VF-NPL-LTQ006827
PUBMED=N/A
SUBMITUSER=mwang87
TAGS=
SPECTRUMID=CCMSLIB00004690235
SCANS=5856
191.899994 78.719368 
END IONS

