BEGIN IONS
TITLE=Scan Number: 2313
PEPMASS=600.33197
CHARGE=1+
COMPOUNDNAME=Shearinine D_130028
LIBRARYQUALITY=2
SMILES=CC1(C)OC(C)(C)[C@]([C@H](O)C2=C3C=C4C(C(C[C@@]5([H])[C@@]6(C)[C@]7(C)[C@@](C([C@]8(O9)CC7)=CC([C@H]9C(C)(C)O8)=O)(O)CC5)=C6N4)=C2)([H])C3=C1
INCHIKEY=DFVYLDHDFLHIAA-UWMNKGBPSA-N
INCHI=N/A
MSLEVEL=2
SOURCE_INSTRUMENT=LC-ESI-qToF
FILENAME=P2_C8_conc_GE8_01_2437.mzXML
SEQ=*..*
NOTES=
IONMODE=Positive
ORGANISM=GNPS-LIBRARY
NAME=Shearinine D_130028 M+H
SPECTRUMID=CCMSLIB00000478461
ACTIVATION=CID
INSTRUMENT=ion trap
SCANS=2313
131.086151 408.0 
133.065369 264.0 
144.083618 424.0 
147.045532 260.0 
147.081406 592.0 
149.05809 596.0 
157.103867 616.0 
159.080994 340.0 
159.116409 252.0 
161.061218 880.0 
161.096222 996.0 
163.078293 564.0 
167.072144 336.0 
168.079346 284.0 
171.079529 648.0 
173.060669 404.0 
175.077423 708.0 
175.111282 344.0 
177.09079 624.0 
179.072525 648.0 
180.0811 11708.0 
181.086243 1844.0 
182.06015 796.0 
182.09552 776.0 
183.069336 2632.0 
183.116516 356.0 
184.075653 456.0 
185.097275 728.0 
187.112869 468.0 
189.092392 888.0 
189.129837 292.0 
190.098267 876.0 
191.107666 1308.0 
192.08136 376.0 
194.095581 1800.0 
195.103821 984.0 
196.076202 816.0 
196.110901 1688.0 
197.087097 440.0 
197.1185 268.0 
198.127655 400.0 
199.080887 360.0 
199.110306 924.0 
201.089096 980.0 
201.129883 684.0 
203.104019 1088.0 
205.083176 500.0 
205.123154 708.0 
206.09491 616.0 
206.126312 352.0 
207.103302 868.0 
208.076538 680.0 
208.112045 1356.0 
209.089478 388.0 
209.11174 364.0 
210.128143 17024.0 
211.130814 3188.0 
212.104324 516.0 
212.142731 1556.0 
213.093048 416.0 
213.12738 408.0 
214.093246 556.0 
215.107681 420.0 
215.1474 360.0 
216.107773 392.0 
217.0858 624.0 
217.117935 384.0 
218.095703 332.0 
219.100311 784.0 
220.112335 12248.0 
221.116608 4512.0 
222.089905 1688.0 
222.125061 2724.0 
222.627701 336.0 
222.796036 252.0 
223.098373 1928.0 
223.133118 1000.0 
224.100067 616.0 
224.145706 456.0 
227.104736 744.0 
228.114426 744.0 
229.122391 4448.0 
230.127762 640.0 
231.099442 368.0 
231.14238 544.0 
233.117538 452.0 
234.128021 9264.0 
235.093933 280.0 
235.133194 2276.0 
236.106476 1412.0 
236.141937 1768.0 
237.1315 356.0 
237.143326 388.0 
237.986389 360.0 
238.12384 145532.0 
238.627884 732.0 
239.126343 27184.0 
240.131699 2676.0 
240.81398 332.0 
241.127762 872.0 
243.138657 328.0 
245.11702 1692.0 
246.123276 864.0 
247.095963 264.0 
247.133636 5768.0 
248.108231 856.0 
248.139938 1380.0 
249.143402 724.0 
250.121674 408.0 
250.159348 924.0 
251.160034 508.0 
252.139297 1176.0 
253.142334 396.0 
254.115646 820.0 
255.119553 520.0 
258.123108 436.0 
259.129913 808.0 
260.106384 420.0 
260.140991 988.0 
261.146454 492.0 
262.121338 1248.0 
263.126831 1204.0 
264.137238 516.0 
266.153168 1080.0 
270.131622 528.0 
272.140411 344.0 
273.152283 928.0 
274.121552 456.0 
274.155853 400.0 
276.13739 1668.0 
277.142242 1368.0 
278.154083 1640.0 
279.161987 728.0 
280.164764 332.0 
281.142609 360.0 
282.141876 272.0 
283.130707 356.0 
287.165985 300.0 
288.141266 364.0 
289.145966 488.0 
290.152496 712.0 
291.153992 320.0 
292.160156 412.0 
294.151917 340.0 
296.164642 23492.0 
297.166809 6500.0 
297.217377 484.0 
298.169861 1104.0 
300.145172 292.0 
302.157898 536.0 
304.128296 356.0 
304.166779 316.0 
305.171387 380.0 
306.178711 396.0 
313.179901 440.0 
314.157532 304.0 
316.172241 296.0 
318.180359 376.0 
332.173126 356.0 
338.151581 344.0 
340.159851 336.0 
341.183075 336.0 
348.192657 488.0 
354.178894 280.0 
364.164734 276.0 
365.22113 324.0 
370.183167 280.0 
374.171295 348.0 
376.176208 328.0 
377.218079 252.0 
380.194916 500.0 
382.180176 296.0 
388.183533 340.0 
390.179871 352.0 
394.211945 732.0 
396.23642 776.0 
398.21225 1380.0 
399.20575 604.0 
400.207947 344.0 
402.196167 528.0 
404.197662 272.0 
405.201691 372.0 
406.185425 276.0 
406.217957 616.0 
408.194885 1596.0 
409.163635 324.0 
409.194244 496.0 
410.211517 564.0 
411.182983 876.0 
414.205139 620.0 
415.208618 316.0 
416.192566 536.0 
418.197113 360.0 
419.172028 404.0 
420.221893 592.0 
422.207214 380.0 
423.218506 968.0 
424.224243 1068.0 
425.226837 344.0 
426.205688 8000.0 
427.207336 2356.0 
428.200653 1004.0 
428.253693 908.0 
429.186554 320.0 
429.257263 668.0 
430.224274 432.0 
434.211823 504.0 
435.221313 312.0 
436.196716 532.0 
437.196075 260.0 
438.24234 4376.0 
439.246613 1084.0 
440.223816 600.0 
441.230377 552.0 
442.203796 1492.0 
443.206055 708.0 
448.222656 2408.0 
449.227631 1892.0 
451.213287 2060.0 
452.220367 3384.0 
453.223572 892.0 
454.222992 508.0 
456.254211 10516.0 
457.252045 4468.0 
458.254547 372.0 
466.23764 38540.0 
467.239838 12688.0 
468.231537 3412.0 
469.220917 1504.0 
470.228271 1912.0 
471.233643 536.0 
472.244659 432.0 
476.213562 300.0 
478.274872 356.0 
479.278839 268.0 
480.246185 504.0 
481.259186 284.0 
482.27298 740.0 
483.272614 352.0 
484.128326 256.0 
484.247986 68820.0 
484.671051 272.0 
484.711456 292.0 
484.91806 264.0 
485.25116 21728.0 
486.252716 4528.0 
487.252655 492.0 
488.252869 556.0 
490.227356 320.0 
495.242035 416.0 
496.287323 940.0 
497.288788 404.0 
498.261475 680.0 
499.263031 292.0 
506.268066 2524.0 
507.270233 1128.0 
508.245544 5852.0 
509.255066 2868.0 
510.257843 596.0 
511.258148 396.0 
511.38504 400.0 
514.297241 720.0 
524.278992 29320.0 
524.747253 256.0 
525.282349 13176.0 
526.26062 11328.0 
527.26123 4960.0 
528.266174 1348.0 
529.269958 424.0 
530.206787 340.0 
538.316467 280.0 
540.26825 336.0 
540.309875 476.0 
541.273071 468.0 
541.915588 276.0 
542.186951 280.0 
542.2901 114828.0 
542.71228 272.0 
543.064514 464.0 
543.292725 31536.0 
544.295654 7932.0 
545.301392 904.0 
546.480835 352.0 
555.337097 376.0 
556.316101 292.0 
557.297424 276.0 
564.307495 316.0 
566.286804 2796.0 
567.295654 1172.0 
568.287903 496.0 
582.32019 1944.0 
583.325378 956.0 
584.298279 17140.0 
585.300659 7492.0 
586.307983 892.0 
587.302856 448.0 
598.384949 524.0 
599.32251 18832.0 
600.082397 468.0 
600.159119 324.0 
600.259888 572.0 
600.332092 115224.0 
600.85199 312.0 
601.163696 484.0 
601.212646 488.0 
601.333984 48528.0 
602.33667 9948.0 
602.549438 324.0 
603.341614 1844.0 
604.677612 336.0 
END IONS

