BEGIN IONS
PEPMASS=317.139
CHARGE=1+
COMPOUNDNAME=ReSpect:PT211310 zearalenone|FES|Fusarium toxin|Mycotoxin F2|Benzoxacyclotetradecin-1,7(8H)-dione|Zenone|6-(10-Hydroxy-6-oxo-trans-1-undecenyl)-beta-resorcylic acid-N-lactone|(4S,12E)-16,18-dihydroxy-4-methyl-3-oxabic
LIBRARYQUALITY=3
SMILES=CC1CCCC(=O)CCCC=CC2=CC(=CC(=C2C(=O)O1)O)O
INCHIKEY=MBMQEIFVQACCCH-UHFFFAOYSA-N
INCHI=1/C18H22O5/c1-12-6-5-9-14(19)8-4-2-3-7-13-10-15(20)11-16(21)17(13)18(22)23-12/h3,7,10-12,20-21H,2,4-6,8-9H2,1H3/b7-3+/t12-/m0/s1
MSLEVEL=2
SOURCE_INSTRUMENT=ESI-LC-Q-TOF/MS
FILENAME=respect_8_1_2014_GNPS_peaks.mgf
SEQ=*..*
IONMODE=Positive
ORGANISM=RESPECT
NAME=ReSpect:PT211310 zearalenone|FES|Fusarium toxin|Mycotoxin F2|Benzoxacyclotetradecin-1,7(8H)-dione|Zenone|6-(10-Hydroxy-6-oxo-trans-1-undecenyl)-beta-resorcylic acid-N-lactone|(4S,12E)-16,18-dihydroxy-4-methyl-3-oxabic [M+H]
PI=Putative ReSpect Match
DATACOLLECTOR=ReSpect
PUBMED=N/A
SUBMITUSER=mwang87
TAGS=
SPECTRUMID=CCMSLIB00000222633
SCANS=7050
130.045303 170.0 
131.052704 380.0 
147.048203 106.0 
149.064102 111.0 
160.020096 163.0 
175.043503 320.0 
187.044205 137.0 
273.155701 188.0 
317.138885 999.0 
317.584991 189.0 
END IONS

