BEGIN IONS
PEPMASS=266.139
CHARGE=1+
COMPOUNDNAME=Massbank:BML00927 Anisomycin
LIBRARYQUALITY=3
SMILES=CC(=O)OC1C(CNC1CC2=CC=C(C=C2)OC)O
INCHIKEY=YKJYKKNCCRKFSL-UHFFFAOYSA-N
INCHI=1S/C14H19NO4/c1-9(16)19-14-12(15-8-13(14)17)7-10-3-5-11(18-2)6-4-10/h3-6,12-15,17H,7-8H2,1-2H3
MSLEVEL=2
SOURCE_INSTRUMENT=ESI-LC-ESI-QTOF
FILENAME=Massbank_ESI_positive_8_1_2014_peaks.mgf
SEQ=*..*
IONMODE=Positive
ORGANISM=MASSBANK
NAME=Massbank:BML00927 Anisomycin [M+H]+
PI=Putative Massbank Match
DATACOLLECTOR=Massbank
PUBMED=N/A
SUBMITUSER=mwang87
TAGS=
SPECTRUMID=CCMSLIB00000205118
SCANS=378
102.046 47.0 
103.0541 40.0 
105.0667 25.0 
105.0732 23.0 
106.0419 25.0 
107.0483 31.0 
114.9493 23.0 
115.0515 129.0 
116.0614 37.0 
117.0581 21.0 
117.0686 31.0 
118.0635 47.0 
121.0648 2863.0 
121.08 36.0 
121.0922 31.0 
121.1009 44.0 
121.1107 33.0 
121.126 21.0 
121.1663 56.0 
127.0495 21.0 
127.0575 35.0 
128.0598 102.0 
129.0687 26.0 
130.0634 34.0 
131.0717 32.0 
132.0565 31.0 
135.0749 40.0 
144.0568 116.0 
145.0664 43.0 
146.0655 41.0 
147.0802 59.0 
156.0495 20.0 
156.08 58.0 
158.056 26.0 
172.0847 21.0 
173.0784 26.0 
END IONS

