BEGIN IONS
PEPMASS=596.39
CHARGE=1+
COMPOUNDNAME=Massbank:CA000004 Astaxanthin
LIBRARYQUALITY=3
SMILES=CC(=C1C=CC(=CC=CC(C)=CC=CC=C(C)C=CC=C(C)C=CC(C(C)(C)2)=C(C)C(=O)C(O)C2)C)C(=O)C(O)CC1(C)C
INCHIKEY=MQZIGYBFDRPAKN-UHFFFAOYSA-N
INCHI=1S/C40H52O4/c1-27(17-13-19-29(3)21-23-33-31(5)37(43)35(41)25-39(33,7)8)15-11-12-16-28(2)18-14-20-30(4)22-24-34-32(6)38(44)36(42)26-40(34,9)10/h11-24,35-36,41-42H,25-26H2,1-10H3/b12-11+,17-13+,18-14+,23-21+,24-22+,27-15+,28-16+,29-19+,30-20+/t35-,36-/m0/s1
MSLEVEL=2
SOURCE_INSTRUMENT=ESI-FAB-EBEB
FILENAME=Massbank_ESI_positive_8_1_2014_peaks.mgf
SEQ=*..*
IONMODE=Positive
ORGANISM=MASSBANK
NAME=Massbank:CA000004 Astaxanthin [M]+*
PI=Putative Massbank Match
DATACOLLECTOR=Massbank
PUBMED=N/A
SUBMITUSER=mwang87
TAGS=
SPECTRUMID=CCMSLIB00000205451
SCANS=711
1.7636 0.03 
4.5633 0.01 
4.7181 0.01 
6.7161 0.03 
7.3887 0.01 
14.0242 0.01 
15.0271 0.1 
16.3774 0.02 
19.0371 0.02 
22.9941 0.03 
25.0116 0.02 
26.0095 0.14 
27.0249 0.92 
28.0375 0.09 
29.0347 1.05 
30.016 0.06 
31.0141 0.14 
31.9294 0.01 
35.9301 0.01 
37.002 0.11 
37.3451 0.01 
38.0141 0.44 
39.0267 2.74 
39.7555 0.01 
40.0297 0.35 
41.0429 4.92 
42.0299 0.15 
42.5898 0.01 
43.0322 4.41 
44.0353 0.11 
45.0333 0.13 
47.032 0.01 
48.0218 0.01 
48.3359 0.01 
49.026 0.08 
49.2737 0.01 
50.0226 0.9 
51.0251 1.96 
51.5561 0.02 
52.0335 0.74 
53.0394 3.44 
54.0486 0.12 
55.0489 6.39 
56.0557 0.09 
57.0615 1.61 
58.0202 0.06 
59.0517 0.31 
59.7732 0.02 
60.0049 0.01 
61.0139 0.15 
62.0334 0.58 
63.0379 1.85 
64.038 0.46 
65.0436 2.92 
66.0495 0.52 
67.0531 3.56 
67.5039 0.01 
68.0429 0.18 
69.0618 3.74 
70.0375 0.1 
70.4371 0.02 
71.0485 1.24 
71.447 0.01 
72.0105 0.04 
73.0364 0.22 
73.7089 0.03 
74.0244 0.6 
74.4956 0.01 
75.0351 0.78 
75.6288 0.07 
76.0127 0.36 
77.0378 8.54 
78.0517 1.79 
79.0529 7.29 
80.0533 0.68 
81.0711 7.77 
82.0388 0.14 
83.0518 2.0 
84.0302 0.11 
84.3396 0.01 
85.0567 2.04 
86.031 0.23 
86.6305 0.01 
87.028 0.52 
87.4017 0.07 
88.0396 0.18 
89.0389 1.47 
90.0637 0.52 
91.0639 17.4 
92.0611 1.25 
93.0809 7.61 
94.0759 0.64 
94.6009 0.02 
95.0906 4.13 
96.0493 0.26 
96.3675 0.02 
97.0857 0.73 
98.043 0.15 
99.0409 0.19 
99.5945 0.01 
99.9994 0.03 
101.0609 0.27 
102.0663 1.22 
103.0653 3.57 
103.5857 0.08 
104.0676 1.41 
105.083 17.68 
106.0835 1.45 
107.0985 7.74 
108.088 0.72 
108.5097 0.05 
109.1001 3.96 
110.0676 0.23 
110.599 0.01 
111.0775 1.35 
111.4873 0.03 
112.0228 0.08 
113.0402 0.33 
113.3072 0.07 
114.0523 0.32 
115.0504 10.05 
116.0643 3.46 
117.0613 9.1 
118.0669 1.74 
119.0741 17.84 
120.0685 2.19 
120.4584 0.08 
121.0743 5.8 
121.6121 0.03 
122.0716 0.88 
122.4927 0.04 
123.0689 2.05 
124.0675 1.14 
125.0762 1.6 
126.0315 0.74 
127.0472 3.77 
128.0396 12.12 
129.045 13.65 
130.053 4.57 
131.0609 10.88 
132.057 2.99 
133.0703 10.45 
134.0718 2.29 
135.0759 8.49 
136.0433 1.58 
136.453 0.04 
137.0354 6.05 
138.0232 0.58 
139.0209 1.9 
140.0548 0.78 
141.0372 9.88 
142.047 8.66 
143.0608 15.22 
144.0611 4.96 
145.0653 14.04 
146.0749 1.86 
147.0783 8.48 
148.0737 0.56 
149.0732 1.98 
150.0558 0.76 
151.0571 2.3 
152.0491 5.27 
153.0538 6.46 
154.0609 3.8 
155.075 10.84 
156.078 6.88 
157.0894 12.79 
158.0943 3.06 
159.103 8.15 
160.0872 1.48 
161.1096 5.34 
162.1045 0.92 
163.0942 1.83 
163.4298 0.22 
164.0787 0.88 
165.0805 10.8 
166.0876 3.31 
167.103 7.79 
168.1072 3.17 
169.1107 8.96 
169.6059 0.14 
170.1295 3.67 
171.1238 6.69 
172.1247 2.2 
173.134 5.55 
174.1033 1.1 
175.1291 2.49 
176.0576 0.98 
176.3818 0.14 
177.112 1.88 
178.0765 5.76 
179.0885 8.53 
180.0967 3.66 
181.0935 8.03 
182.1046 3.18 
183.1057 8.23 
184.112 2.32 
185.1084 5.25 
186.116 1.28 
186.4105 0.15 
187.1076 2.9 
188.1013 1.12 
189.0789 4.42 
190.092 1.43 
191.0678 3.79 
192.0685 3.5 
193.0865 6.26 
194.0899 3.51 
195.0923 8.91 
196.0908 3.03 
197.099 6.25 
198.0863 1.41 
199.1064 3.29 
200.052 0.96 
201.1037 2.08 
201.4621 0.19 
202.0764 2.62 
203.0665 3.69 
204.0816 1.04 
205.088 3.64 
206.0934 2.66 
206.4881 0.19 
207.0932 5.52 
208.0951 2.39 
209.1113 5.88 
210.1019 1.54 
211.116 4.32 
212.1106 0.73 
213.1057 2.1 
214.1105 0.55 
214.4111 0.19 
215.0942 3.22 
216.0969 1.68 
217.1062 3.03 
218.1083 1.4 
219.1124 3.58 
220.1154 2.18 
221.1327 4.09 
222.1165 1.56 
223.144 3.8 
224.1488 0.81 
225.154 2.44 
226.1132 1.05 
227.1394 1.68 
228.1086 1.14 
229.1342 2.69 
230.098 1.36 
231.129 2.9 
232.1325 1.58 
233.1404 3.24 
234.1471 1.29 
235.1511 2.63 
236.1461 0.82 
237.1773 1.92 
238.1592 0.8 
238.4824 0.13 
239.1414 2.05 
240.152 0.67 
241.1521 1.73 
242.1276 0.78 
243.1346 1.48 
244.1358 1.2 
245.1451 2.12 
245.6297 0.08 
246.1579 0.98 
247.1446 2.28 
248.144 0.79 
249.1766 1.94 
250.1581 0.53 
251.1555 1.35 
252.1454 1.06 
253.1622 1.32 
254.1309 0.46 
254.6529 0.07 
255.164 1.38 
256.1568 0.8 
257.1671 1.56 
257.5535 0.12 
258.1606 0.65 
258.5376 0.14 
259.1461 1.47 
260.1803 0.73 
260.6325 0.11 
261.1741 1.87 
262.2105 0.59 
263.1705 1.37 
264.2373 0.39 
265.1635 1.29 
265.5929 0.11 
266.1792 0.48 
266.5147 0.1 
267.1764 0.78 
267.7112 0.1 
268.1629 0.42 
268.4375 0.09 
269.1529 1.18 
270.1651 0.55 
271.1839 1.57 
272.1857 0.44 
272.6569 0.06 
273.2114 1.35 
273.7267 0.09 
274.2216 0.43 
275.1991 1.3 
276.1707 0.43 
277.1965 0.89 
277.6329 0.03 
278.2028 0.39 
279.192 0.77 
280.1895 0.28 
281.1934 0.77 
282.1819 0.32 
283.1785 0.93 
284.2036 0.47 
284.6581 0.12 
285.2055 0.99 
286.2359 0.43 
286.5774 0.11 
287.2162 1.0 
288.2456 0.44 
289.1934 1.17 
290.1414 3.06 
291.1495 0.52 
292.2602 0.23 
293.179 0.6 
294.2224 0.19 
295.178 0.68 
296.1794 0.41 
297.1969 1.89 
298.2161 0.45 
299.1867 1.13 
299.6264 0.03 
300.1891 0.3 
300.6163 0.03 
301.2091 0.71 
302.1819 0.47 
303.2039 0.59 
304.1378 0.16 
304.3461 0.09 
305.146 0.31 
305.6479 0.05 
306.1813 0.27 
306.5144 0.07 
307.16 0.58 
308.1642 0.18 
308.6237 0.06 
309.2159 0.77 
309.6408 0.04 
310.1257 0.15 
310.5254 0.04 
311.2048 0.79 
312.1956 0.24 
313.2135 0.58 
314.1984 0.11 
314.4276 0.05 
315.1803 0.47 
316.1877 0.14 
316.6385 0.07 
317.1812 0.38 
318.1985 0.11 
319.1337 0.3 
319.7209 0.05 
320.1989 0.15 
321.2122 0.47 
322.1796 0.13 
322.4678 0.09 
323.1916 0.49 
324.1104 0.3 
324.6934 0.04 
325.2083 0.19 
325.6647 0.04 
326.2399 0.14 
326.5728 0.09 
327.1877 0.34 
328.1072 0.16 
328.3387 0.07 
328.6922 0.01 
329.2091 0.5 
329.7356 0.04 
330.2082 0.14 
331.2361 0.26 
331.5771 0.03 
332.0991 0.13 
332.4243 0.04 
333.2002 0.32 
333.7668 0.07 
334.1683 0.12 
335.2048 0.37 
335.7065 0.04 
336.2415 0.11 
337.1497 0.19 
338.174 0.16 
339.1948 0.35 
340.2206 0.05 
341.2751 0.41 
342.1743 0.1 
342.8167 0.05 
343.1895 0.21 
344.4128 0.09 
345.1728 0.2 
346.0885 0.08 
347.2187 0.28 
348.2188 0.06 
349.2303 0.42 
350.2419 0.24 
351.2394 0.89 
352.2211 0.14 
353.1951 0.19 
353.8243 0.01 
354.2121 0.05 
354.665 0.05 
355.2484 0.16 
356.1258 0.05 
356.3754 0.02 
356.5995 0.01 
357.2816 0.27 
358.2722 0.07 
358.6062 0.03 
359.2201 0.09 
359.7481 0.02 
360.2412 0.08 
360.5482 0.04 
361.2164 0.35 
361.5521 0.05 
361.7303 0.03 
362.2092 0.24 
363.2292 0.53 
364.278 0.22 
365.2567 0.38 
366.1667 0.06 
367.2264 0.15 
367.6322 0.04 
368.256 0.1 
369.2874 0.08 
370.2218 0.09 
370.6151 0.06 
371.3331 0.1 
372.1356 0.09 
372.5576 0.02 
373.2838 0.25 
373.8014 0.02 
374.3366 0.12 
375.2542 0.44 
375.705 0.02 
376.2961 0.37 
377.2521 0.92 
378.2242 0.25 
379.2666 0.2 
379.9321 0.03 
380.2488 0.08 
380.6372 0.01 
381.2613 0.1 
382.1878 0.05 
382.6655 0.06 
383.2292 0.1 
383.9299 0.03 
384.3344 0.03 
385.1706 0.13 
386.2298 0.13 
387.2637 0.17 
388.2006 0.12 
389.1854 0.24 
389.7193 0.02 
390.2133 0.3 
390.7935 0.04 
391.3339 0.15 
392.1931 0.04 
392.8228 0.01 
393.3856 0.1 
393.6631 0.03 
394.1892 0.03 
394.7267 0.02 
395.2609 0.08 
396.1157 0.02 
396.5017 0.04 
397.1797 0.13 
398.1224 0.06 
398.4973 0.03 
399.2488 0.1 
399.8839 0.01 
400.2413 0.02 
400.7376 0.01 
401.3488 0.19 
402.2937 0.09 
403.253 0.12 
403.6409 0.07 
404.2859 0.02 
405.2534 0.12 
405.4562 0.05 
406.2354 0.05 
407.2159 0.14 
407.6839 0.02 
408.3531 0.04 
408.6885 0.03 
409.278 0.07 
409.8083 0.02 
410.1965 0.03 
411.2909 0.11 
412.2457 0.05 
413.1639 0.11 
414.1732 0.09 
414.4299 0.04 
414.7073 0.03 
415.3228 0.24 
416.3307 0.22 
417.3195 0.42 
418.2653 0.19 
419.3293 0.07 
420.4572 0.04 
421.1609 0.03 
421.5359 0.06 
422.3896 0.04 
423.138 0.04 
424.1068 0.06 
424.6463 0.02 
425.2257 0.1 
426.0191 0.05 
426.4645 0.02 
427.2468 0.14 
427.531 0.03 
428.2863 0.17 
428.7749 0.06 
429.2728 0.19 
430.2825 0.23 
431.278 0.1 
431.6418 0.03 
432.2848 0.06 
433.3284 0.08 
434.0098 0.03 
434.6944 0.01 
435.269 0.02 
435.6872 0.01 
436.2522 0.07 
437.0248 0.04 
437.309 0.03 
438.2461 0.09 
438.5717 0.06 
439.4004 0.09 
440.3776 0.1 
441.2751 0.14 
441.6983 0.03 
442.2732 0.77 
443.1676 5.44 
444.3017 0.11 
445.3161 0.09 
445.9791 0.02 
446.2539 0.07 
446.5879 0.05 
447.2941 0.08 
448.093 0.02 
448.3583 0.03 
448.8984 0.04 
449.2948 0.16 
450.3528 0.1 
450.6868 0.02 
451.2558 0.12 
452.1478 0.09 
452.5442 0.04 
453.318 0.12 
453.593 0.05 
454.3172 0.04 
454.9088 0.04 
455.4268 0.05 
456.2504 0.06 
456.7205 0.05 
457.3362 0.08 
457.688 0.03 
458.347 0.03 
459.2091 0.06 
459.5306 0.08 
460.1032 0.06 
460.8503 0.05 
461.255 0.06 
462.0133 0.04 
462.5269 0.08 
462.8917 0.06 
463.4309 0.1 
463.8566 0.05 
464.2134 0.05 
464.6326 0.03 
465.2701 0.12 
466.2128 0.05 
467.2339 0.12 
467.9419 0.06 
468.6786 0.16 
469.3755 0.12 
469.7127 0.08 
470.3729 0.13 
470.9915 0.08 
471.3608 0.12 
471.6837 0.05 
472.2832 0.06 
472.6541 0.05 
473.6677 0.07 
474.2354 0.08 
475.3755 0.17 
475.8008 0.05 
476.3781 0.06 
476.6676 0.05 
477.0562 0.03 
477.3569 0.09 
478.0878 0.06 
478.3469 0.03 
478.9259 0.09 
479.3802 0.07 
479.7433 0.03 
480.188 0.06 
480.7111 0.02 
481.6678 0.11 
482.3765 0.66 
482.8437 0.11 
483.2517 0.15 
483.5397 0.07 
484.1222 0.13 
484.6982 0.16 
485.4184 0.17 
486.0745 0.14 
486.6939 0.16 
487.3101 0.16 
487.6398 0.11 
488.4721 0.14 
489.3413 0.14 
490.3322 0.18 
491.2287 0.04 
491.6386 0.03 
492.1973 0.04 
493.2692 0.07 
493.5761 0.04 
494.4747 0.12 
494.9064 0.03 
495.3397 0.06 
495.9745 0.02 
496.5182 0.09 
496.7389 0.04 
497.4441 0.11 
497.9622 0.05 
498.4932 0.06 
498.9938 0.03 
499.3537 0.02 
499.7295 0.05 
500.5821 0.09 
501.2587 0.07 
502.2233 0.09 
503.3752 0.16 
504.3367 3.19 
504.8871 0.11 
505.2615 0.17 
505.5671 0.16 
506.0007 0.06 
506.4248 0.04 
507.2025 0.07 
507.6234 0.07 
507.9466 0.04 
508.3547 0.09 
509.3822 0.16 
510.1777 0.05 
510.6723 0.09 
511.2213 0.05 
511.6967 0.03 
512.5259 0.01 
513.6401 0.07 
514.0308 0.02 
514.6039 0.03 
515.2828 0.07 
515.5806 0.05 
516.3251 0.18 
517.3131 0.3 
517.8672 0.03 
518.4036 0.04 
518.7079 0.06 
518.9689 0.03 
519.563 0.05 
519.8522 0.04 
520.3793 0.06 
520.5726 0.03 
521.2531 0.09 
521.6541 0.05 
522.3618 0.11 
522.7915 0.05 
523.1653 0.05 
523.4337 0.04 
523.6973 0.06 
523.9578 0.04 
524.4499 0.23 
525.0347 0.05 
525.6163 0.02 
526.1005 0.03 
526.7668 0.03 
527.3214 0.09 
528.0565 0.08 
528.3729 0.09 
528.6222 0.07 
529.3174 0.04 
530.0846 0.06 
530.7591 0.04 
531.2258 0.05 
532.1321 0.11 
532.3495 0.05 
533.2416 0.12 
534.3686 0.11 
535.0513 0.13 
535.4462 0.12 
535.7932 0.03 
536.5462 0.08 
537.213 0.1 
537.464 0.06 
537.9837 0.03 
538.4922 0.07 
539.3334 0.1 
539.8147 0.04 
540.3073 0.36 
540.8527 0.12 
542.017 0.15 
542.684 0.08 
543.3925 0.11 
544.5602 0.08 
545.704 0.1 
546.3823 0.05 
546.9247 0.07 
547.7054 0.08 
548.4382 0.05 
550.1663 0.61 
551.4208 1.55 
552.2818 0.25 
552.986 0.09 
553.402 0.11 
553.8373 0.1 
554.748 0.1 
555.5388 0.07 
556.1022 0.06 
556.7216 0.06 
557.3779 0.12 
558.4041 0.06 
558.8347 0.08 
560.2162 0.26 
560.9976 0.13 
561.598 0.12 
562.3793 0.17 
563.2664 0.7 
564.3676 0.11 
565.2597 0.13 
566.4509 0.27 
567.3959 0.29 
568.3793 0.67 
569.4331 0.17 
570.0424 0.2 
570.5222 0.13 
571.5041 0.12 
572.3342 0.15 
573.2411 0.19 
574.2919 0.27 
575.3093 0.28 
576.3282 0.18 
578.3824 4.82 
579.3823 0.61 
580.3903 1.1 
581.3968 3.32 
582.4736 0.32 
583.2881 0.39 
588.3214 0.69 
596.3306 99.97 
598.8011 3.32 
599.8373 1.65 
600.8145 0.77 
601.862 0.51 
602.5289 0.34 
603.5286 0.24 
END IONS

