BEGIN IONS
PEPMASS=173.0
CHARGE=1+
COMPOUNDNAME=MoNA:2222158 trans-Propene-1,2,3-tricarboxylic acid
LIBRARYQUALITY=3
SMILES=N/A
INCHIKEY=GTZCVFVGUGFEME-QECJGSJFNA-N
INCHI=InChI=1/C6H6O6/c7-4(8)1-3(6(11)12)2-5(9)10/h1H,2H2,(H,7,8)(H,9,10)(H,11,12)/b3-1-/f/h7,9,11H
MSLEVEL=2
SOURCE_INSTRUMENT=LC-ESI-QQ-LC-ESI-QQ
FILENAME=output_mgf.mgf
SEQ=*..*
IONMODE=
ORGANISM=MONA
NAME=MoNA:2222158 trans-Propene-1,2,3-tricarboxylic acid [M-H]-
PI=MoNA
DATACOLLECTOR=MoNA
PUBMED=N/A
SUBMITUSER=mwang87
TAGS=
SPECTRUMID=CCMSLIB00000573786
SCANS=11037
79.3 0.053395 
85.3 20.334609 
111.1 23.645101 
128.5 7.386313 
129.0 100.0 
130.9 0.026698 
140.7 0.026698 
155.2 0.044496 
172.9 50.449408 
173.1 95.692801 
END IONS

