BEGIN IONS
PEPMASS=159.08
CHARGE=1+
COMPOUNDNAME=Massbank:KNA00099 L-Citrulline|2-Amino-5-ureidovaleric acid|Citrulline
LIBRARYQUALITY=3
SMILES=NC(=O)NCCC[C@H](N)C(O)=O
INCHIKEY=RHGKLRLOHDJJDR-BYPYZUCNSA-N
INCHI=1S/C6H13N3O3/c7-4(5(10)11)2-1-3-9-6(8)12/h4H,1-3,7H2,(H,10,11)(H3,8,9,12)/t4-/m0/s1
MSLEVEL=2
SOURCE_INSTRUMENT=ESI-LC-ESI-ITFT
FILENAME=Massbank_ESI_positive_8_1_2014_peaks.mgf
SEQ=*..*
IONMODE=Positive
ORGANISM=MASSBANK
NAME=Massbank:KNA00099 L-Citrulline|2-Amino-5-ureidovaleric acid|Citrulline [M+H]
PI=Putative Massbank Match
DATACOLLECTOR=Massbank
PUBMED=N/A
SUBMITUSER=mwang87
TAGS=
SPECTRUMID=CCMSLIB00000216103
SCANS=7617
69.974167 10896.821289 
72.034088 40.083237 
84.042389 11.031917 
86.05098 77.886414 
87.043808 417.843414 
97.072067 1742.620728 
98.090714 56.035343 
106.972321 15.90484 
113.047028 11159.077148 
114.026199 2831.605469 
114.982117 20056.90625 
115.954376 551.075439 
116.99942 50.669014 
117.90625 74.148697 
131.01088 377.66864 
140.965042 2764.819336 
142.032684 459.5979 
144.124069 103.13121 
END IONS

