BEGIN IONS
PEPMASS=472.0
CHARGE=1+
COMPOUNDNAME=Massbank:KO003832 Puromycin
LIBRARYQUALITY=3
SMILES=COc(c4)ccc(c4)CC(N)C(=O)NC(C(CO)3)C(O)C(O3)n(c2)c(n1)c(n2)c(N(C)C)nc1
INCHIKEY=RXWNCPJZOCPEPQ-UHFFFAOYSA-N
INCHI=1S/C22H29N7O5/c1-28(2)19-17-20(25-10-24-19)29(11-26-17)22-18(31)16(15(9-30)34-22)27-21(32)14(23)8-12-4-6-13(33-3)7-5-12/h4-7,10-11,14-16,18,22,30-31H,8-9,23H2,1-3H3,(H,27,32)/t14-,15+,16+,18+,22+/m0/s1
MSLEVEL=2
SOURCE_INSTRUMENT=ESI-LC-ESI-QQ
FILENAME=Massbank_ESI_positive_8_1_2014_peaks.mgf
SEQ=*..*
IONMODE=Positive
ORGANISM=MASSBANK
NAME=Massbank:KO003832 Puromycin [M+H]+
PI=Putative Massbank Match
DATACOLLECTOR=Massbank
PUBMED=N/A
SUBMITUSER=mwang87
TAGS=
SPECTRUMID=CCMSLIB00000220189
SCANS=9629
46.2 311881.5 
55.9 39604.0 
60.3 79208.0 
68.0 113861.5 
69.0 2153467.5 
70.0 222772.5 
70.3 74257.5 
72.0 1193070.5 
73.9 103960.5 
81.2 49505.0 
82.2 94059.5 
83.1 24752.5 
84.2 2356438.0 
85.1 193069.5 
86.1 500000.5 
87.3 89109.0 
88.2 306931.0 
90.0 193069.5 
91.1 207921.0 
93.0 163366.5 
95.5 39604.0 
96.1 1623764.0 
97.2 6024758.5 
97.7 44554.5 
99.0 54455.5 
100.1 871288.0 
102.1 346535.0 
105.3 306931.0 
108.3 118812.0 
110.2 44554.5 
111.4 54455.5 
112.2 282178.5 
114.3 1495051.0 
115.3 465347.0 
115.9 54455.5 
117.1 123762.5 
118.3 7995057.5 
119.3 316832.0 
120.2 103960.5 
121.3 7059413.0 
123.2 643565.0 
124.3 1504952.0 
129.0 128713.0 
131.8 742575.0 
133.1 267327.0 
135.2 1207922.0 
136.0 94059.5 
137.2 212871.5 
142.2 3163369.5 
147.1 79208.0 
148.4 94059.5 
150.2 100173367.5 
159.0 69307.0 
160.3 9148524.0 
161.3 1287130.0 
162.0 287129.0 
164.3 42985191.5 
166.3 49505.0 
174.1 84158.5 
174.5 103960.5 
175.5 59406.0 
176.1 108911.0 
177.4 84158.5 
178.3 504951.0 
179.3 118812.0 
186.3 143564.5 
187.1 29703.0 
188.2 400990.5 
188.7 123762.5 
190.3 34653.5 
192.5 306931.0 
196.7 39604.0 
199.0 34653.5 
199.3 54455.5 
201.5 148515.0 
202.3 673268.0 
204.1 128713.0 
206.3 123762.5 
214.2 133663.5 
216.2 103960.5 
220.7 113861.5 
222.4 74257.5 
228.2 59406.0 
230.4 153465.5 
231.4 39604.0 
232.3 752476.0 
233.4 103960.5 
234.4 49505.0 
250.2 44554.5 
250.7 64356.5 
264.3 247525.0 
273.5 14851.5 
274.7 138614.0 
292.4 1089110.0 
309.6 579208.5 
END IONS

