BEGIN IONS
PEPMASS=300.084
CHARGE=1+
COMPOUNDNAME=Lotaustralin
LIBRARYQUALITY=3
SMILES=N/A
INCHIKEY=WEWBWVMTOYUPHH-GXUZYPEDSA-N
INCHI=InChI=1S/C11H19NO6/c1-3-11(2,5-12)18-10-9(16)8(15)7(14)6(4-13)17-10/h6-10,13-16H,3-4H2,1-2H3/t6-,7-,8+,9-,10+,11?/m1/s1
MSLEVEL=2
SOURCE_INSTRUMENT=N/A-ESI-QFT
FILENAME=library_mgf.mgf
SEQ=*..*
IONMODE=positive
ORGANISM=MONA
NAME=Lotaustralin [M+K]+
PI=MoNA
DATACOLLECTOR=MoNA:VF-NPL-QEHF007869
PUBMED=N/A
SUBMITUSER=mwang87
TAGS=
SPECTRUMID=CCMSLIB00004698932
SCANS=7869
51.21133 0.16765 
52.261051 0.162087 
52.940948 0.16983 
53.002983 1.291158 
53.03933 1.832625 
53.124111 1.406579 
53.227634 1.493397 
53.63419 1.46879 
53.878136 0.811071 
55.018669 3.619315 
55.054985 31.768011 
55.12989 1.370147 
55.170078 0.144532 
55.668026 0.2946 
55.935207 1.085505 
55.979919 0.81232 
56.050209 1.615534 
56.058304 0.158088 
56.485695 1.880673 
56.752701 1.17294 
56.965546 66.441002 
57.034229 5.25842 
57.070621 100.0 
57.072342 0.280103 
58.065895 22.344204 
58.073967 0.775623 
58.835484 0.291255 
59.049911 1.552981 
61.011368 16.707764 
61.029114 1.63991 
62.019241 1.316373 
62.060741 0.312861 
62.44371 0.864951 
64.183647 1.538775 
65.039307 0.181918 
65.187805 1.24844 
65.782799 1.755555 
67.05304 0.251011 
67.054955 32.289017 
67.116257 0.793649 
68.058258 0.235912 
68.997772 0.294065 
69.03418 9.27433 
69.06868 0.20584 
69.070557 17.683149 
69.98291 1.852096 
70.065811 5.086123 
71.013367 0.223086 
71.049843 3.800731 
71.086166 32.053413 
72.045029 1.395516 
72.08139 1.913886 
72.502502 0.370859 
72.99221 0.808906 
73.028992 1.359417 
73.047455 0.876842 
73.065399 1.541458 
73.98468 0.380601 
74.06073 0.991215 
74.097076 1.434414 
74.975967 0.235519 
75.044655 0.172333 
75.365913 1.440729 
76.039894 0.321416 
76.572678 0.388555 
76.763687 1.623727 
77.326981 1.105987 
77.665512 0.765687 
77.801941 1.194404 
79.021767 2.025191 
79.054825 12.943159 
80.359833 1.965236 
80.587189 1.760423 
81.034119 2.335681 
81.066193 0.171249 
81.070496 27.083752 
81.256264 0.295773 
82.07373 0.543128 
82.627716 1.586631 
82.669266 0.163481 
83.049744 2.235121 
83.08609 7.089749 
84.044815 0.254505 
84.081398 1.235737 
84.74942 1.453994 
84.960327 2.649037 
85.028984 12.181967 
85.065292 1.138678 
85.10173 12.899075 
86.060532 0.333381 
86.096954 0.251624 
86.5746 0.859781 
87.044586 2.792711 
88.072845 1.621267 
88.076271 0.96875 
88.757141 1.797913 
89.060242 41.232304 
90.063622 0.819172 
90.095268 1.097605 
90.378899 2.321441 
90.885132 1.970548 
90.948044 0.17642 
91.05471 10.697774 
91.057823 7.313092 
92.057556 0.313459 
93.057747 0.391674 
93.070351 10.386372 
94.065567 0.728524 
95.0495 4.897408 
95.085983 27.292419 
95.237366 0.164123 
96.045036 0.391805 
96.089165 0.668741 
97.028786 2.178171 
97.065155 0.886848 
97.101639 3.60595 
97.949768 1.181797 
98.043663 1.750128 
98.060394 0.576411 
98.906616 1.3042 
98.975807 39.882317 
98.984703 1.728428 
99.044479 0.295731 
99.080528 0.4103 
99.092072 0.320622 
99.213432 0.914503 
100.075981 2.079384 
100.108849 1.841197 
100.441788 0.162867 
100.50515 0.698259 
100.989258 0.404635 
101.005394 0.160425 
101.027924 1.620277 
101.060097 0.167037 
101.503952 0.75032 
102.184898 0.71643 
102.960304 2.446472 
103.054543 1.490187 
104.920166 0.339121 
105.033882 0.242116 
105.045006 0.293555 
105.070267 5.614579 
106.065147 0.397794 
107.049416 1.845341 
107.085747 3.561502 
107.866302 1.710102 
108.016899 2.424199 
108.080986 0.166329 
108.089943 0.323643 
108.517097 0.634771 
109.015228 2.333197 
109.028572 0.200633 
109.065002 0.393345 
109.101433 14.124559 
110.060265 0.159349 
110.975471 6.421146 
111.026489 0.319034 
111.044403 0.321637 
111.2882 0.153137 
112.075897 0.157794 
115.054512 1.767179 
116.986038 13.502798 
117.069908 2.55292 
118.927307 1.333928 
119.085625 2.936973 
120.428711 0.160276 
121.028351 0.220302 
121.039207 0.197103 
121.064987 2.96723 
121.101189 1.012428 
121.292625 0.16535 
122.060516 0.242485 
123.080467 0.221649 
123.116997 1.804511 
123.135689 2.218638 
123.31588 1.644152 
128.062225 1.065293 
128.986038 20.262531 
129.054749 0.159473 
129.069885 2.064363 
130.077423 0.213344 
131.049194 0.277358 
131.08551 3.28757 
132.081085 0.222982 
133.101181 1.675364 
134.978851 5.637791 
134.996552 3.674162 
135.043961 0.304928 
135.080612 0.214337 
135.116821 0.276332 
135.96814 1.281164 
135.999481 1.712124 
136.547272 2.345025 
137.011765 6.303027 
137.05954 0.744573 
141.069702 2.299249 
141.107117 1.520962 
142.077789 0.245736 
142.106934 1.225397 
143.001556 0.823584 
143.085449 0.880224 
144.056808 0.762201 
145.100937 0.72685 
146.996384 6.053031 
147.04422 0.196763 
147.476883 0.457283 
148.97197 0.252196 
149.01207 0.356975 
149.059128 0.159965 
150.950974 2.025206 
150.969116 0.799459 
152.06218 0.205631 
152.709488 0.413308 
152.821136 0.440945 
152.987869 0.242261 
153.006805 0.180555 
153.018524 0.249811 
153.070129 1.704429 
153.95874 0.202665 
155.022415 1.606989 
155.049118 0.381952 
155.085541 0.287898 
157.064545 1.291285 
158.190308 0.182102 
158.996292 0.312422 
161.012085 2.385862 
161.029327 0.31641 
161.059143 0.189166 
165.0065 0.241398 
165.069794 0.74786 
166.592743 1.352984 
167.085236 0.348569 
168.057022 1.020466 
168.961853 0.200692 
169.064865 2.709521 
170.996933 0.269079 
171.043625 0.262474 
171.0802 0.19554 
173.05986 0.19159 
175.074814 0.184319 
176.001678 0.444694 
179.086273 0.840678 
180.097092 1.285638 
181.034729 0.290406 
181.064819 1.259991 
182.020584 1.775912 
182.072144 0.263519 
183.043808 0.353503 
183.17421 1.629269 
184.05159 0.257606 
185.008057 0.195571 
185.059525 1.62779 
186.221542 0.284149 
187.074829 0.291145 
192.962128 0.225842 
194.637146 1.732559 
195.080338 0.300168 
196.051514 0.359441 
197.044479 0.253566 
197.059799 3.492286 
198.067413 1.188991 
199.03717 0.21817 
199.075195 1.153706 
200.031235 0.740217 
200.046844 0.781569 
200.181885 0.169855 
200.991989 0.168116 
207.978027 0.277466 
209.603455 0.455798 
210.067245 0.64875 
210.899338 0.78574 
211.039001 0.684337 
211.075073 0.335086 
212.046692 0.942118 
212.082779 1.174433 
213.054337 5.441733 
213.090378 0.801262 
214.062454 1.571088 
215.033463 0.19106 
215.070038 1.108067 
215.351532 1.694362 
219.465225 5.172337 
219.46846 5.718119 
223.026489 0.204032 
223.07579 0.207364 
224.878357 2.233251 
224.947433 0.191432 
225.042023 0.388391 
225.054245 1.879617 
225.886368 0.318103 
226.014786 1.360359 
226.025604 0.189647 
226.061844 1.271818 
226.598114 0.495999 
227.036407 0.256163 
227.070084 4.559358 
227.106522 0.28319 
228.075943 0.748182 
228.597702 1.698249 
229.001785 0.264738 
229.049408 1.066294 
229.085434 1.106466 
231.044296 1.119841 
232.937622 1.721424 
234.898911 3.724552 
237.027695 0.765853 
238.061569 0.32572 
240.077591 0.352064 
240.231995 18.319201 
241.048904 2.166851 
241.085281 1.504447 
241.235107 0.214006 
242.056305 1.02714 
243.06427 1.487669 
247.011749 0.212417 
250.682373 1.885059 
251.713669 1.89794 
253.121674 0.332765 
254.962219 1.188212 
255.06456 1.627034 
256.610016 1.34752 
257.044128 0.345428 
257.080109 0.747155 
258.051971 3.245959 
258.957062 0.695601 
266.998718 4.630103 
267.999481 2.37397 
268.880554 0.876702 
268.978058 15.242796 
268.995789 4.052054 
269.044037 0.208302 
269.080139 0.226947 
269.978729 3.347297 
269.994812 0.275339 
270.974915 1.188949 
270.992706 0.213458 
273.258514 0.334583 
278.471161 1.273794 
283.030426 0.776781 
284.031036 0.382976 
284.807617 0.227651 
285.009888 0.253069 
285.026581 0.584905 
285.712799 0.36581 
286.009644 0.209232 
286.046936 1.069257 
288.967102 0.280808 
291.706421 0.397629 
302.818359 0.683739 
304.50946 0.365783 
304.868866 0.39178 
306.504669 1.819526 
308.382996 0.169014 
END IONS

