BEGIN IONS
PEPMASS=331.151
CHARGE=1+
COMPOUNDNAME=SPECTINOMYCIN
LIBRARYQUALITY=3
SMILES=N/A
INCHIKEY=UNFWWIHTNXNPBV-WXKVUWSESA-N
INCHI=InChI=1S/C14H24N2O7/c1-5-4-6(17)14(20)13(21-5)22-12-10(19)7(15-2)9(18)8(16-3)11(12)23-14/h5,7-13,15-16,18-20H,4H2,1-3H3/t5-,7-,8+,9+,10+,11-,12-,13+,14+/m1/s1
MSLEVEL=2
SOURCE_INSTRUMENT=N/A-ESI-QFT
FILENAME=library_mgf.mgf
SEQ=*..*
IONMODE=negative
ORGANISM=MONA
NAME=SPECTINOMYCIN [M-H]-
PI=MoNA
DATACOLLECTOR=MoNA:VF-NPL-QEHF003415
PUBMED=N/A
SUBMITUSER=mwang87
TAGS=
SPECTRUMID=CCMSLIB00004694478
SCANS=3415
50.056732 0.002104 
50.120136 0.00102 
50.137112 0.016528 
51.192528 0.002736 
51.553967 0.031322 
51.756111 0.006442 
52.297863 0.001701 
52.517578 0.026901 
52.610977 0.003283 
52.867332 0.002166 
53.067825 0.001183 
53.734043 0.001236 
53.755951 0.018566 
53.957737 0.002851 
54.420052 0.02096 
54.961613 0.003587 
55.017639 0.692416 
55.085636 0.013668 
55.171524 0.003024 
55.587845 0.024897 
55.599064 0.004707 
55.908958 0.001765 
57.277657 0.027423 
57.463848 0.005534 
57.582371 0.002071 
58.004692 0.37756 
58.028515 0.334304 
58.177223 0.022885 
58.637066 0.009901 
58.898281 0.009579 
59.012455 2.584254 
59.207207 0.002493 
59.304466 0.022952 
59.456711 0.001185 
59.607437 0.013476 
60.371143 0.009538 
61.572075 0.001727 
61.851021 0.000951 
61.906715 0.026452 
61.986965 0.003969 
62.198391 0.020597 
62.308212 0.031542 
62.439602 0.017558 
62.647644 0.029085 
62.87479 0.002381 
62.970436 0.004149 
63.271904 0.008948 
63.412399 0.009938 
64.37014 0.002447 
64.929993 0.028856 
65.249046 0.001203 
65.430244 0.009854 
65.760193 0.003287 
65.932381 0.002617 
66.192757 0.006799 
66.295204 0.018447 
67.017578 1.028661 
68.346405 0.001517 
68.940048 0.020364 
68.996872 0.063642 
69.033226 27.042988 
69.286621 0.030235 
69.751694 0.001148 
70.028488 0.950811 
70.036598 1.137868 
70.470573 0.003346 
71.012466 4.076149 
71.048874 7.377102 
72.015945 0.004281 
72.037811 0.001142 
72.044052 0.10877 
72.052284 0.040982 
72.991821 0.168689 
73.028152 40.753773 
73.37587 0.027009 
74.012466 0.01088 
74.023392 0.588696 
74.031502 1.092962 
75.007431 6.546675 
75.827911 0.001737 
76.113571 0.012705 
76.242897 0.009271 
76.591438 0.025281 
77.624794 0.001244 
78.24366 0.005749 
79.017586 2.601184 
79.07621 0.023018 
79.956017 0.005749 
80.197632 0.007611 
80.963928 0.001887 
81.020531 0.014904 
81.033241 4.860978 
82.469994 0.005334 
82.520691 0.025721 
82.777176 0.002639 
83.012535 0.758401 
83.048859 0.075136 
83.221832 0.002926 
83.486336 0.025689 
83.548294 0.001298 
83.581978 0.002042 
84.020264 0.015779 
84.044159 0.522063 
85.015617 0.150146 
85.028145 16.894316 
85.112823 0.002547 
85.2631 0.00966 
86.023262 0.024935 
86.031555 0.458411 
86.059814 1.196845 
86.300377 0.002842 
87.007431 0.310352 
87.0438 3.111193 
88.039001 0.257727 
88.768578 0.009313 
88.799515 0.020948 
89.023216 0.002719 
89.111336 0.001242 
89.577187 0.010809 
89.602478 0.027787 
92.062172 0.021812 
92.286842 0.024543 
92.36824 0.016828 
92.458885 0.006667 
92.720032 0.00346 
92.926682 0.092189 
93.357941 0.002657 
93.739716 0.001086 
94.065285 0.060383 
94.365654 0.005992 
94.703522 0.028912 
94.738289 0.002664 
94.894104 0.015009 
94.923759 0.3068 
94.979507 0.006096 
95.012543 4.604626 
95.162903 0.011368 
95.472786 0.001196 
96.015945 0.085312 
96.044182 0.747267 
96.920837 0.104196 
96.958755 0.005141 
97.028191 100.0 
98.031555 4.952189 
98.059944 0.188766 
98.144165 0.007428 
98.212769 0.002225 
98.859947 0.005052 
98.938438 0.002134 
99.00782 0.001574 
99.031509 0.010596 
99.043861 11.044056 
100.039085 9.01885 
100.047188 0.40274 
100.911964 0.013602 
100.932312 0.045765 
101.04258 0.089951 
101.059517 0.288864 
101.07077 0.903921 
101.520988 0.025917 
102.045311 0.001483 
102.054771 3.192558 
103.918724 0.001684 
104.531494 0.010192 
104.897354 0.010604 
105.614624 0.001007 
105.802345 0.029238 
106.653625 0.028059 
108.044167 0.032775 
109.517883 0.003112 
110.05999 0.099677 
111.007408 0.006786 
111.079918 0.002382 
111.367218 0.014654 
112.039177 1.039792 
112.928055 0.019744 
113.023163 0.621937 
113.059547 0.168555 
113.667282 0.003747 
114.054855 2.527576 
114.242874 0.029261 
115.038857 38.864349 
115.919449 0.05152 
116.042122 1.925568 
116.927399 0.018668 
117.054573 0.155782 
117.985046 0.002565 
119.484741 0.021463 
121.279892 0.001412 
122.059799 0.033071 
122.475044 0.016125 
123.007439 0.035526 
124.01535 0.027402 
124.039223 0.30884 
124.747406 0.028338 
125.023247 46.757511 
125.0961 0.016219 
126.026627 2.762372 
126.031166 0.23878 
126.054626 0.083522 
127.03894 1.173083 
127.086617 0.401737 
128.034317 0.009142 
128.070831 0.001837 
129.054764 0.001461 
130.049805 8.327936 
130.086258 0.546223 
130.942947 0.027948 
131.053101 0.166825 
131.06427 0.005405 
131.463943 0.003636 
132.922165 0.001288 
133.714081 0.017666 
136.039474 0.001904 
136.238297 0.00696 
137.04657 0.001449 
137.174393 0.01895 
137.728745 0.001251 
138.054932 0.531065 
139.401093 0.003608 
139.920746 0.002453 
140.07077 0.001088 
140.1465 0.00903 
141.061417 0.027966 
141.901367 0.025637 
142.026031 3.722306 
142.04982 1.60198 
142.677933 0.024339 
143.033859 17.900288 
143.058395 0.00412 
143.081482 0.013513 
143.140015 0.021061 
143.864182 0.005323 
144.037262 1.03569 
145.049225 0.010423 
147.510345 0.020062 
149.356049 0.002723 
151.08667 0.366124 
151.454239 0.001624 
152.882889 0.015398 
154.049942 0.310225 
154.55101 0.001776 
154.879745 0.020652 
156.065842 0.089863 
156.302338 0.025728 
158.250397 0.018369 
160.270172 0.026382 
160.313019 0.001781 
160.841141 0.022809 
161.044464 1.780398 
162.838089 0.087726 
163.838715 0.001197 
163.944702 0.02805 
164.835144 0.099436 
167.081512 1.000935 
168.093399 0.022647 
169.097412 0.031926 
170.081635 0.004208 
171.101715 0.030491 
171.742722 0.003623 
173.117386 0.015603 
173.137085 0.026764 
174.859894 0.006446 
175.55809 0.025502 
176.271149 0.03241 
176.857849 0.001604 
177.042145 0.01465 
177.844482 0.001274 
178.383347 0.020147 
178.833084 0.003038 
180.830307 0.008671 
180.859207 0.001297 
182.717392 0.025333 
183.984741 0.001545 
185.092316 0.834813 
185.34993 0.005178 
186.25676 0.021628 
187.097916 0.008049 
187.107956 2.265386 
188.064682 0.007198 
188.111694 0.002136 
188.856003 0.001236 
195.023865 0.019136 
195.336212 0.007943 
195.85289 0.001065 
197.092545 0.005988 
197.7845 0.005785 
199.017532 0.018127 
199.804337 0.027364 
201.801086 0.001561 
203.88649 0.023704 
205.118729 11.044053 
206.121964 0.821607 
206.197479 0.002245 
207.844315 0.003175 
209.735992 0.022024 
211.133301 0.010982 
212.838684 0.00321 
214.962845 0.484784 
214.97084 0.621258 
215.998322 0.034382 
220.147202 0.005799 
220.279327 0.010432 
221.154022 0.063276 
222.157303 0.003424 
223.163239 0.019361 
223.279083 0.00108 
225.598801 0.001277 
225.686646 0.009576 
227.019104 0.02362 
227.888077 0.011162 
231.358902 0.010688 
232.725754 0.005149 
232.746094 0.012086 
233.348328 0.026683 
235.181961 0.002592 
236.104935 0.10546 
237.108948 0.004947 
238.203262 0.005557 
241.095612 0.011385 
241.832565 0.011308 
242.863861 0.030816 
243.140106 0.001201 
244.843674 0.003632 
244.860535 0.001386 
248.015564 0.020963 
249.109818 0.013125 
253.759155 0.021244 
254.863876 0.055909 
257.887482 0.156114 
258.098114 0.244988 
258.231537 0.004965 
258.888 0.003825 
259.884308 0.020222 
260.74295 0.021245 
262.986816 0.031046 
268.095825 0.008102 
268.879211 0.020236 
268.918243 0.003368 
270.737701 0.004713 
271.735016 0.21411 
273.0737 0.005434 
273.731506 0.020289 
273.90271 0.012565 
275.853546 0.055612 
275.898163 0.76398 
276.852448 0.003424 
276.89801 0.077287 
277.00238 0.031101 
277.850586 0.017488 
277.87851 0.007493 
277.894958 0.174635 
278.587982 0.00743 
278.894714 0.0066 
280.124237 0.025307 
280.75943 0.005263 
284.605591 0.007359 
286.889771 0.004274 
289.664185 0.005052 
291.885101 0.005319 
292.810577 0.002237 
293.864532 0.277267 
293.881622 0.033072 
293.898529 0.001543 
294.864075 0.028338 
294.895844 0.00877 
295.598541 0.018351 
295.84491 0.005632 
295.861145 0.15926 
296.860596 0.007036 
296.910126 0.001683 
297.530212 0.023888 
300.256409 0.021115 
301.443787 0.003026 
301.692474 0.006923 
302.408783 0.023336 
303.069977 0.018486 
303.732452 0.017924 
304.601166 0.007576 
305.55365 0.006616 
313.913696 0.016317 
316.882385 0.025918 
317.654938 0.005093 
329.084869 0.030069 
329.185516 0.001788 
329.232513 0.018555 
329.268036 0.001201 
330.08847 0.080069 
330.235229 0.001387 
330.748077 0.002256 
331.151154 1.997525 
331.906586 0.055123 
332.153839 0.087924 
332.17392 0.037576 
332.206879 0.009513 
332.675568 0.011021 
332.906219 0.003104 
333.173615 0.001317 
333.580475 0.005399 
338.488312 0.001866 
342.99292 0.018195 
347.872009 0.001646 
END IONS

