BEGIN IONS
TITLE=Scan Number: 404
PEPMASS=722.396
CHARGE=1+
COMPOUNDNAME=Fumonisin B1
LIBRARYQUALITY=3
SMILES=CCCCC(C)C(C(CC(C)CC(CCCCC(CC(C(C)N)O)O)O)OC(=O)CC(CC(=O)O)C(=O)O)OC(=O)CC(CC(=O)O)C(=O)O
INCHIKEY=UVBUBMSSQKOIBE-UHFFFAOYSA-N
INCHI=
MSLEVEL=2
SOURCE_INSTRUMENT=LC-ESI-Orbitrap
FILENAME=f.rmenezes/MS2_spectra/120717_RM_T2_HT-2_DON_FumonisinB1_1ul_ms2.mzXML;
SEQ=*..*
NOTES=
IONMODE=Positive
ORGANISM=GNPS-LIBRARY
NAME=Fumonisin B1 M+H
SPECTRUMID=CCMSLIB00004681489
ACTIVATION=CID
INSTRUMENT=ion trap
SCANS=404
233.164246 45929.023438 
240.735077 58331.171875 
245.225174 66884.976562 
254.212204 163600.546875 
277.29715 47944.902344 
291.351471 51805.628906 
298.828217 697962.125 
298.859833 113258.890625 
299.27536 197722.984375 
316.300323 302905.34375 
317.282501 103208.742188 
324.574677 50946.933594 
330.322662 53101.554688 
334.310638 2187847.5 
335.295868 158071.765625 
338.224609 51737.570312 
348.127289 52805.496094 
352.321381 5828076.0 
370.331543 2472730.5 
388.34256 205209.5625 
492.331757 560120.8125 
510.342194 3184591.0 
528.3526 9605446.0 
546.363586 6384048.0 
564.374084 1056311.0 
668.364929 1523093.25 
686.374573 9937783.0 
703.737122 94550.875 
703.809937 89835.101562 
703.86438 101632.523438 
703.970215 144144.828125 
704.080688 243580.65625 
704.177551 187586.75 
704.385559 32237584.0 
704.643982 256315.59375 
704.755554 156130.75 
704.861511 127396.757812 
704.938843 89582.023438 
704.98468 112291.421875 
705.065063 65852.398438 
705.15332 129028.898438 
720.395996 62218.675781 
722.395264 3987957.0 
END IONS

