BEGIN IONS
PEPMASS=421.0
CHARGE=1+
COMPOUNDNAME=MoNA:2235969 Blasticidin S
LIBRARYQUALITY=3
SMILES=N/A
INCHIKEY=CXNPLSGKWMLZPZ-UHFFFAOYSA-N
INCHI=InChI=1S/C17H26N8O5/c1-24(16(20)21)6-4-9(18)8-12(26)22-10-2-3-13(30-14(10)15(27)28)25-7-5-11(19)23-17(25)29/h2-3,5,7,9-10,13-14H,4,6,8,18H2,1H3,(H3,20,21)(H,22,26)(H,27,28)(H2,19,23,29)
MSLEVEL=2
SOURCE_INSTRUMENT=LC-ESI-QQ-LC-ESI-QQ
FILENAME=output_mgf.mgf
SEQ=*..*
IONMODE=
ORGANISM=MONA
NAME=MoNA:2235969 Blasticidin S [M-H]-
PI=MoNA
DATACOLLECTOR=MoNA
PUBMED=N/A
SUBMITUSER=mwang87
TAGS=
SPECTRUMID=CCMSLIB00000573955
SCANS=11206
97.0 2.542373 
110.3 11.016949 
144.0 1.90678 
147.0 4.661017 
158.4 0.635593 
174.5 1.694915 
178.9 5.932203 
186.1 1.271186 
187.0 1.059322 
189.9 1.694915 
210.0 2.966102 
224.6 1.694915 
226.9 0.847458 
228.3 4.237288 
240.1 2.542373 
241.9 1.483051 
255.3 1.059322 
257.2 1.271186 
258.7 2.966102 
266.5 8.898305 
277.0 1.059322 
282.7 0.847458 
292.7 1.694915 
301.2 1.271186 
304.4 1.483051 
308.3 0.635593 
310.3 20.762712 
316.1 4.237288 
332.3 0.423729 
334.6 7.627119 
335.8 6.991525 
345.0 1.90678 
361.1 0.847458 
377.5 9.533898 
378.5 0.847458 
379.5 1.059322 
421.6 100.0 
END IONS

