BEGIN IONS
PEPMASS=180.102
CHARGE=1+
COMPOUNDNAME=Massbank:BML00604 Fusaric acid
LIBRARYQUALITY=3
SMILES=CCCCC1=CN=C(C=C1)C(=O)O
INCHIKEY=DGMPVYSXXIOGJY-UHFFFAOYSA-N
INCHI=1S/C10H13NO2/c1-2-3-4-8-5-6-9(10(12)13)11-7-8/h5-7H,2-4H2,1H3,(H,12,13)
MSLEVEL=2
SOURCE_INSTRUMENT=ESI-LC-ESI-QTOF
FILENAME=Massbank_ESI_positive_8_1_2014_peaks.mgf
SEQ=*..*
IONMODE=Positive
ORGANISM=MASSBANK
NAME=Massbank:BML00604 Fusaric acid [M+H]+
PI=Putative Massbank Match
DATACOLLECTOR=Massbank
PUBMED=N/A
SUBMITUSER=mwang87
TAGS=
SPECTRUMID=CCMSLIB00000204962
SCANS=222
107.0859 105.0 
115.056 71.0 
117.0694 167.0 
119.0698 62.0 
132.0791 89.0 
134.0961 8238.0 
134.1297 264.0 
134.1509 53.0 
134.1649 48.0 
134.1763 63.0 
134.2036 142.0 
152.1036 91.0 
162.0906 2869.0 
162.1279 122.0 
162.1497 61.0 
180.0993 451.0 
END IONS

