BEGIN IONS
PEPMASS=268.104
CHARGE=1+
COMPOUNDNAME=Adenosine
LIBRARYQUALITY=3
SMILES=N/A
INCHIKEY=OIRDTQYFTABQOQ-KQYNXXCUSA-N
INCHI=InChI=1S/C10H13N5O4/c11-8-5-9(13-2-12-8)15(3-14-5)10-7(18)6(17)4(1-16)19-10/h2-4,6-7,10,16-18H,1H2,(H2,11,12,13)/t4-,6-,7-,10-/m1/s1
MSLEVEL=2
SOURCE_INSTRUMENT=N/A-ESI-QTOF
FILENAME=library_mgf.mgf
SEQ=*..*
IONMODE=positive
ORGANISM=MONA
NAME=Adenosine [M+H]+
PI=MoNA
DATACOLLECTOR=MoNA:VF-NPL-QTOF002040
PUBMED=N/A
SUBMITUSER=mwang87
TAGS=
SPECTRUMID=CCMSLIB00004719822
SCANS=2037
41.039501 0.04331 
43.0186 0.121625 
43.0205 0.085525 
45.0326 0.027928 
45.034901 0.043928 
45.0401 0.027417 
55.019402 0.482307 
55.022499 0.023814 
57.034698 0.875486 
59.049198 0.067186 
59.053001 0.027582 
61.0294 0.203499 
65.011703 0.023157 
65.015503 0.045207 
67.025398 0.031022 
67.031097 0.082921 
69.034897 0.22653 
71.012901 0.066875 
71.015701 0.080655 
73.029503 0.411274 
73.035698 0.023875 
85.0299 0.564265 
87.042603 0.040986 
87.047997 0.068943 
92.023003 0.087118 
92.026001 0.137047 
94.040497 0.282835 
97.026901 0.091522 
97.030701 0.157167 
103.035698 0.022202 
103.0392 0.089907 
109.047203 0.061965 
115.032898 0.029325 
115.040001 0.266945 
119.036201 1.386467 
119.126801 0.021294 
119.132797 0.022938 
133.043701 0.030507 
133.0504 0.138261 
136.0625 100.0 
136.163895 0.167115 
136.555099 0.033926 
136.601105 0.020873 
136.651794 0.046989 
136.660202 0.02948 
136.669205 0.037118 
136.720398 0.041073 
136.728607 0.025685 
136.751404 0.060703 
136.765305 0.026919 
136.793503 0.020474 
136.811295 0.049059 
136.829803 0.025209 
136.876099 0.022894 
136.904297 0.032253 
136.917496 0.034955 
136.933304 0.020118 
136.942307 0.035715 
137.018707 0.03233 
137.058807 0.048144 
137.067902 0.060417 
137.078201 0.022724 
137.152802 0.04685 
137.170395 0.029353 
137.181595 0.020161 
137.205902 0.03299 
137.247101 0.022239 
137.264206 0.020317 
137.272003 0.022111 
137.289001 0.032844 
137.328094 0.021608 
137.357101 0.02089 
137.383194 0.026563 
137.425201 0.020899 
137.434799 0.020011 
137.495193 0.033288 
137.563293 0.023806 
137.650299 0.026377 
137.689697 0.023514 
137.736404 0.02074 
137.776398 0.02879 
137.840805 0.026355 
138.119507 0.023383 
138.241302 0.020875 
138.355392 0.020771 
138.860397 0.022499 
178.071899 0.06018 
189.9729 0.022297 
268.10379 0.419903 
END IONS

