BEGIN IONS
PEPMASS=153.056
CHARGE=1+
COMPOUNDNAME=terrein
LIBRARYQUALITY=3
SMILES=N/A
INCHIKEY=MHOOPNKRBMHHEC-HZIBQTDNSA-N
INCHI=InChI=1S/C8H10O3/c1-2-3-5-4-6(9)8(11)7(5)10/h2-4,7-8,10-11H,1H3/b3-2+/t7-,8-/m0/s1
MSLEVEL=2
SOURCE_INSTRUMENT=N/A-ESI-QFT
FILENAME=library_mgf.mgf
SEQ=*..*
IONMODE=negative
ORGANISM=MONA
NAME=terrein [M-H]-
PI=MoNA
DATACOLLECTOR=MoNA:VF-NPL-QEHF021224
PUBMED=N/A
SUBMITUSER=mwang87
TAGS=
SPECTRUMID=CCMSLIB00004712287
SCANS=21224
50.292999 0.04904 
50.609818 0.045952 
50.786358 0.028634 
50.892056 0.041481 
51.051476 0.040862 
51.173126 0.039649 
51.19593 0.04432 
51.394875 0.047041 
51.665382 0.033028 
52.216595 0.049143 
52.63958 0.042561 
53.001949 0.034955 
53.600986 0.052471 
55.017509 3.376334 
55.366276 0.037989 
55.963455 0.041277 
56.711182 0.033549 
57.033203 2.369234 
57.056744 0.038231 
58.004597 0.47213 
58.481289 0.032632 
58.658115 0.032657 
58.662518 0.031651 
58.808922 0.036791 
59.012489 0.790102 
59.679264 0.041838 
60.891678 0.039314 
61.441219 0.032729 
61.716785 0.039706 
63.462559 0.032312 
63.989689 0.038701 
64.340981 0.0334 
65.038284 0.452637 
65.048637 0.03485 
66.184662 0.035687 
66.744713 0.043778 
66.829384 0.042834 
67.01754 3.859491 
67.053932 0.178765 
67.103027 0.047739 
67.327477 0.033659 
68.996849 1.936407 
69.031128 0.066592 
69.033188 16.506325 
69.264107 0.048577 
70.036522 0.090334 
71.012474 5.158389 
71.048843 1.593026 
72.736504 0.032281 
72.873901 0.039254 
72.991814 0.760623 
74.740875 0.035266 
75.267654 0.046404 
75.288551 0.038467 
75.572273 0.056227 
75.647896 0.035217 
76.247444 0.055476 
76.750954 0.041032 
77.289291 0.035453 
77.614143 0.043808 
78.032806 0.045003 
78.155647 0.039577 
78.438942 0.036758 
79.053963 1.045156 
79.956017 0.354752 
80.025375 1.141968 
80.963821 1.481497 
81.033203 5.884806 
81.069633 0.039358 
81.187698 0.044599 
81.273903 0.033964 
82.036652 0.047522 
82.885544 0.034851 
83.012489 2.252915 
83.048851 3.360518 
83.690277 0.039387 
84.020287 16.78756 
85.023689 0.292892 
85.02813 7.023576 
88.259819 0.03681 
91.053978 5.794429 
91.375175 0.040907 
91.515678 0.038084 
92.057343 0.089064 
93.033257 4.681994 
93.594482 0.04004 
94.093369 0.039143 
94.116219 0.042384 
94.543091 0.036485 
94.617683 0.0437 
94.979568 0.222649 
95.012512 5.058107 
95.048889 28.914721 
95.066505 0.037385 
96.02037 2.006259 
96.052223 1.372642 
96.458191 0.053517 
96.958748 1.951516 
97.028183 12.718922 
97.045609 0.073114 
97.048508 0.05523 
97.064545 64.74688 
97.082664 0.079636 
98.031563 0.434823 
98.067917 4.331274 
98.07106 0.086914 
98.541885 0.040524 
100.866791 0.036932 
102.604927 0.047208 
103.552719 0.038841 
105.622772 0.038155 
106.031311 0.034644 
106.041206 0.03083 
106.546776 0.035775 
107.048943 32.514706 
107.053146 0.457286 
108.020378 2.421353 
108.044205 0.180257 
108.052277 2.255847 
108.235725 0.033266 
108.373657 0.049374 
108.498032 0.038626 
109.028229 8.008326 
109.064606 8.281283 
110.032059 0.364234 
110.036018 9.2506 
110.068085 0.090048 
110.367203 0.046748 
111.007355 0.508882 
111.01947 0.051495 
111.039749 0.341001 
111.043839 3.720109 
111.302422 0.044179 
111.95871 0.047062 
112.01532 76.249916 
112.037315 0.096264 
112.25634 0.038662 
112.535957 0.032668 
112.782547 0.05513 
113.018623 3.506399 
113.022545 0.045772 
113.059387 0.036603 
115.546608 0.038439 
118.291023 0.033753 
118.601051 0.040489 
118.836052 0.05943 
121.028267 0.222689 
122.005974 0.046595 
122.127106 0.041234 
122.550385 0.044666 
122.905418 0.072173 
122.974548 0.05484 
123.007187 0.103174 
123.039276 0.057265 
123.0439 7.410161 
123.058983 0.039551 
123.318222 0.041792 
124.015312 33.027313 
124.047112 0.060852 
124.051704 3.13992 
124.596252 0.040104 
124.987061 0.039158 
125.018616 1.992089 
125.023323 0.044345 
125.034233 0.04072 
125.059547 62.586803 
125.083778 0.036833 
125.095886 0.050839 
125.450874 0.055953 
126.018501 0.66583 
126.062759 4.063802 
127.03791 0.04142 
127.39859 0.036228 
131.438736 0.038829 
133.109543 0.035274 
134.03595 0.095542 
135.014771 0.102594 
135.043915 100.0 
135.072891 0.151096 
136.015381 5.008741 
136.047195 8.012139 
137.018417 0.638027 
137.02359 0.448421 
138.031082 4.241637 
139.002319 0.083501 
139.038956 0.564834 
141.265442 0.050958 
142.060928 0.051932 
144.366776 0.056966 
146.001663 0.053578 
146.749084 0.03991 
149.338623 0.040336 
151.03891 0.648452 
152.03421 0.61753 
152.081421 0.038027 
152.96727 0.044006 
153.018326 0.231183 
153.054596 39.382366 
153.090942 1.335861 
154.057953 3.397195 
154.94632 0.421084 
155.009323 0.152014 
155.033615 0.042655 
161.605392 0.04198 
166.0271 0.043524 
167.984848 0.039851 
END IONS

