BEGIN IONS
PEPMASS=273.076
CHARGE=1+
COMPOUNDNAME=naringenin
LIBRARYQUALITY=3
SMILES=N/A
INCHIKEY=FTVWIRXFELQLPI-ZDUSSCGKSA-N
INCHI=InChI=1S/C15H12O5/c16-9-3-1-8(2-4-9)13-7-12(19)15-11(18)5-10(17)6-14(15)20-13/h1-6,13,16-18H,7H2/t13-/m0/s1
MSLEVEL=2
SOURCE_INSTRUMENT=N/A-ESI-QFT
FILENAME=library_mgf.mgf
SEQ=*..*
IONMODE=positive
ORGANISM=MONA
NAME=naringenin [M+H]+
PI=MoNA
DATACOLLECTOR=MoNA:VF-NPL-QEHF000570
PUBMED=N/A
SUBMITUSER=mwang87
TAGS=
SPECTRUMID=CCMSLIB00004691633
SCANS=570
51.079662 0.025913 
51.301991 0.023677 
51.34359 0.026332 
51.782543 0.027027 
52.327457 0.026339 
52.660347 0.021613 
53.448074 0.027517 
53.510494 0.021297 
54.153652 0.027633 
54.402691 0.026737 
54.770172 0.025274 
55.668835 0.023172 
55.893398 0.023124 
55.935169 0.203411 
57.070511 0.031996 
57.93557 0.091156 
58.89727 0.023571 
59.358009 0.021493 
59.703388 0.024924 
60.122368 0.029698 
60.272732 0.027605 
61.011402 100.0 
62.002026 0.028757 
62.010799 1.889923 
62.014755 5.206605 
62.019295 0.077885 
63.005527 0.157316 
63.007202 10.627721 
63.027058 0.028397 
64.456818 0.024916 
65.167557 0.032422 
65.492592 0.025235 
65.908836 0.026862 
66.02047 0.025186 
66.169884 0.029671 
66.337868 0.025183 
66.628792 0.029059 
66.855209 0.022618 
68.165855 0.022457 
69.125366 0.022393 
69.465073 0.023048 
69.931862 0.024892 
70.318146 0.025803 
70.745178 0.022808 
70.95858 1.729734 
70.96051 0.025762 
71.256599 0.018443 
71.929955 0.081952 
71.959137 0.03163 
72.937859 0.702082 
72.958847 0.034651 
73.289726 0.02704 
73.97818 0.023073 
75.449303 0.020575 
75.519058 0.028402 
75.695244 0.026985 
75.946068 0.526221 
77.487686 0.021507 
81.073952 0.021895 
82.672607 0.0269 
84.394997 0.031043 
85.009819 0.028361 
86.418663 0.027194 
87.907013 0.207307 
88.677979 0.024142 
88.968781 0.049541 
89.940521 0.172295 
90.57383 0.02293 
90.857353 0.025145 
90.948257 0.576509 
94.315407 0.021095 
94.39312 0.02244 
96.817657 0.028594 
97.221489 0.024991 
98.9758 0.92833 
100.566002 0.030454 
101.003624 0.538326 
101.729637 0.032545 
101.840134 0.026066 
102.915138 0.112428 
102.948326 0.031312 
103.809586 0.023093 
104.926788 0.034964 
104.930756 3.631177 
105.053459 0.023307 
105.917374 1.01878 
106.761147 0.023083 
106.926193 0.500837 
107.572342 0.025592 
107.939331 0.022514 
110.159958 0.022644 
111.930321 0.020575 
112.288536 0.025409 
113.056915 0.025889 
114.231697 0.026503 
114.948296 0.035687 
116.054802 0.022915 
116.447708 0.031883 
116.737862 0.027768 
116.986221 0.232347 
117.036407 0.02259 
117.917336 0.839317 
118.925026 0.043433 
118.947578 0.152294 
120.219162 0.025212 
120.925545 0.063256 
120.940758 0.469513 
121.266289 0.028293 
121.792793 0.029213 
121.79921 0.374155 
121.803223 0.210619 
121.806999 0.051329 
121.811424 0.023059 
122.467361 0.024833 
122.941132 12.710923 
123.939301 0.117194 
124.936623 3.219864 
126.506371 0.028084 
128.858047 0.028664 
129.411621 0.037432 
131.961823 0.028846 
132.87764 0.029994 
132.941132 0.02898 
132.958389 3.165746 
133.922928 0.145536 
133.948639 0.355227 
134.020676 0.027811 
134.919937 2.222844 
134.925247 0.037275 
134.94104 0.888352 
134.958817 2.131969 
135.809128 0.022993 
135.927658 1.450559 
135.933334 0.031057 
135.949066 0.593066 
135.966599 1.91534 
136.936523 0.079557 
136.956787 4.672632 
137.284836 0.028611 
137.515335 0.026256 
137.928146 0.52281 
137.943924 0.07937 
137.961761 0.068916 
138.951874 1.239821 
140.951691 0.403867 
145.590485 0.039579 
146.586182 0.02717 
147.532181 0.023207 
147.974731 0.134398 
148.971878 35.837891 
149.943161 0.037669 
149.961334 0.065947 
149.975021 5.704164 
150.951279 3.658481 
150.96756 8.620953 
150.97258 6.915072 
151.951782 0.034894 
151.970032 3.594503 
152.029739 0.024652 
152.930634 0.088559 
152.951569 31.771385 
152.968216 4.861166 
153.01825 0.275752 
153.938187 0.331959 
153.959366 28.478151 
154.94696 7.100132 
154.963547 0.490927 
155.914139 0.022146 
155.954773 6.638227 
157.99408 0.025218 
160.751312 0.035142 
162.951096 0.505473 
163.731033 0.026842 
164.21608 0.025869 
164.951599 5.91555 
164.959366 0.032369 
164.96698 0.030656 
165.287354 0.02611 
165.938293 2.707807 
165.949509 0.035762 
166.947098 1.566473 
166.967117 0.394221 
166.982407 4.689473 
167.954056 1.018727 
167.975037 0.423789 
167.98494 0.89961 
168.936142 0.025926 
168.961853 1.090586 
168.983093 14.428774 
169.98027 0.1476 
170.962097 6.492491 
170.978317 3.438173 
172.957565 1.486367 
173.949341 0.032568 
177.938156 2.199805 
177.958282 0.024148 
178.403931 0.033112 
178.940063 0.415754 
178.978561 0.582813 
179.801804 0.025292 
179.938004 0.347467 
179.973907 0.023347 
180.961792 0.554816 
181.943436 0.02857 
181.963058 0.037433 
182.742538 0.027646 
182.96225 5.553676 
182.998734 0.058751 
183.901749 0.029644 
183.948776 1.007472 
184.418579 0.036426 
184.957489 1.332269 
185.949326 3.970927 
185.964523 1.564681 
186.946976 0.074163 
187.944748 0.883467 
191.965057 0.059756 
192.447922 0.035904 
192.961731 16.588911 
193.964447 7.47713 
194.962814 15.332068 
195.175262 0.03013 
195.936203 0.032318 
195.948959 1.781348 
195.960052 1.208252 
196.95784 3.437959 
197.948807 1.02175 
198.946899 0.039687 
199.944717 0.056942 
202.065063 0.028982 
204.797714 0.03166 
205.965424 0.025345 
209.976227 0.031984 
210.972244 6.740479 
211.501434 0.029088 
211.974564 3.234333 
212.934097 0.066016 
212.972824 19.047161 
213.946823 0.134441 
213.970947 0.98589 
214.968094 4.82174 
215.56694 0.025024 
216.405228 0.026298 
219.945801 0.026327 
220.521652 0.179793 
220.530685 0.313302 
224.988678 0.033628 
226.962051 0.03337 
226.988083 0.239344 
230.984512 0.048091 
239.734787 0.030606 
242.842438 0.025663 
246.701645 0.031501 
256.838135 0.030118 
259.966248 0.0244 
265.690582 0.03239 
271.059692 0.039593 
272.06308 0.035089 
273.130798 0.414782 
273.167023 0.84004 
275.109375 0.03448 
275.146545 0.80522 
283.69162 0.038035 
299.683289 0.028671 
END IONS

