BEGIN IONS
PEPMASS=353.079
CHARGE=1+
COMPOUNDNAME=Griseofulvin
LIBRARYQUALITY=3
SMILES=N/A
INCHIKEY=DDUHZTYCFQRHIY-RBHXEPJQSA-N
INCHI=InChI=1S/C17H17ClO6/c1-8-5-9(19)6-12(23-4)17(8)16(20)13-10(21-2)7-11(22-3)14(18)15(13)24-17/h6-8H,5H2,1-4H3/t8-,17+/m1/s1
MSLEVEL=2
SOURCE_INSTRUMENT=N/A-ESI-QFT
FILENAME=library_mgf.mgf
SEQ=*..*
IONMODE=positive
ORGANISM=MONA
NAME=Griseofulvin [M+H]+
PI=MoNA
DATACOLLECTOR=MoNA:VF-NPL-QEHF001075
PUBMED=N/A
SUBMITUSER=mwang87
TAGS=
SPECTRUMID=CCMSLIB00004692138
SCANS=1075
51.58791 0.007687 
52.417019 0.008856 
53.002937 0.249278 
53.227795 0.018249 
53.45879 0.013379 
54.033634 0.015118 
54.990654 0.015006 
55.646278 0.013096 
56.51009 0.0202 
57.070599 0.014732 
57.168232 0.009416 
57.425026 0.016886 
58.398357 0.01751 
58.686874 0.009031 
59.049885 0.034445 
59.061066 0.133951 
59.486332 0.007438 
59.521309 0.011071 
59.912075 0.011687 
61.517986 0.013344 
62.173969 0.006947 
62.71471 0.031309 
62.809486 0.01416 
63.972996 0.011284 
64.003555 0.009522 
65.026276 0.010699 
65.660736 0.010137 
65.667809 0.016652 
65.864922 0.008999 
66.419769 0.016631 
66.953232 0.007887 
67.054855 0.054163 
68.02256 0.021011 
68.063789 0.010643 
69.034119 97.533302 
69.070534 0.084566 
70.03746 3.218068 
71.011909 0.00803 
73.045265 0.020833 
73.047371 1.668256 
73.900902 0.02925 
74.081261 0.00891 
75.277496 0.01489 
77.654152 0.013707 
78.608627 0.014236 
79.054733 0.026105 
81.070396 0.195241 
81.578415 0.021148 
81.92218 0.016145 
82.284279 0.022289 
82.514214 0.011681 
82.782562 0.039177 
83.085815 0.020926 
83.179085 0.033204 
83.275711 0.015115 
84.743355 0.007339 
85.217499 0.032195 
85.61705 0.024933 
87.044601 0.039932 
87.247192 0.009696 
87.264954 0.010907 
89.060143 0.063059 
90.740906 0.023368 
90.918083 0.01028 
91.054794 0.034151 
91.057793 0.947754 
91.259735 0.007795 
93.07029 0.113005 
95.049461 0.095559 
95.085846 0.114505 
95.698898 0.034124 
96.854179 0.016388 
97.082909 0.009524 
98.609245 0.009507 
99.044418 1.260217 
99.080856 0.014262 
99.944458 0.009971 
100.112404 0.008447 
101.008926 0.027192 
101.059853 0.031522 
101.224098 0.007904 
103.504272 0.041016 
104.261093 0.024053 
105.959839 0.016142 
106.125549 0.015949 
107.049721 0.013286 
108.405266 0.013424 
109.064781 0.082936 
109.101433 0.056196 
110.56852 0.013078 
111.798363 0.025863 
116.313744 0.012935 
117.2696 0.008085 
117.643288 0.010613 
118.448296 0.008571 
118.68222 0.008749 
119.853363 0.014963 
121.064735 0.216633 
121.101379 0.019657 
121.788185 0.017694 
122.016899 0.009241 
122.036163 0.015506 
124.949547 0.011113 
125.059891 0.115959 
129.210022 0.014007 
130.19252 0.036596 
132.895752 0.025364 
137.059601 0.106199 
139.075256 0.328545 
139.309677 0.008135 
141.090897 0.026038 
144.587692 0.012637 
144.801926 0.016198 
148.48793 0.018012 
149.129974 0.008758 
150.031113 0.117866 
151.672226 0.014707 
152.988464 0.015096 
153.096344 0.011011 
154.660324 0.009349 
156.94606 0.010313 
158.468582 0.016155 
160.527649 0.011814 
163.038803 0.160034 
164.685547 0.019458 
165.054489 100.0 
166.057755 7.665017 
166.977844 0.037711 
167.059357 0.195671 
167.069977 0.032583 
179.059402 0.008931 
183.065109 0.529422 
187.438828 0.012374 
189.294678 0.017076 
193.384186 0.025314 
197.036285 0.806884 
199.355698 0.010007 
199.987061 0.615044 
200.041809 0.012249 
206.082489 0.028379 
208.83432 0.014892 
210.83876 0.008583 
214.669449 0.176452 
214.683548 0.446589 
214.702454 0.087378 
215.010376 76.599449 
216.013641 7.207515 
217.007248 12.935353 
217.997696 0.228218 
218.090729 0.012471 
218.879456 0.015652 
221.270569 0.028921 
222.088623 0.150393 
224.72699 0.016929 
224.733398 0.020815 
225.030792 0.18139 
226.038681 0.160785 
230.299011 0.017575 
241.026138 0.010294 
244.297958 0.026797 
245.983704 0.037352 
246.082092 0.01176 
253.025742 3.046942 
253.133011 0.049249 
254.029129 0.248957 
254.080719 0.14805 
255.005859 0.058261 
255.023407 0.295898 
255.041412 1.741424 
256.044464 0.02703 
257.02124 0.037046 
257.0401 0.117092 
257.057159 3.724849 
258.060547 0.254221 
258.088287 0.053414 
259.054321 0.582793 
262.945679 0.01254 
263.153778 0.022498 
265.047913 0.027906 
265.062073 1.45818 
266.065826 0.063799 
266.282104 0.01412 
267.059204 0.040159 
267.632965 0.017399 
268.978546 0.011489 
269.080719 0.037186 
270.028656 1.215361 
271.03241 0.014273 
272.024689 0.011836 
275.153625 0.374005 
276.160583 0.046419 
277.02533 0.046332 
278.033569 0.873046 
279.04126 1.153959 
279.148651 0.574336 
279.164581 0.007773 
280.030182 0.02441 
280.151581 0.185302 
281.038727 0.052406 
283.036377 0.970465 
285.011078 1.259734 
285.052002 47.171383 
286.055206 6.513396 
287.048706 8.379194 
288.43222 0.034132 
291.041504 0.146671 
291.147339 0.025775 
292.045227 0.106652 
293.039124 0.441298 
293.056793 4.372844 
294.044617 0.014476 
294.060913 0.634216 
294.111115 0.021969 
295.054169 0.793229 
302.033661 0.028182 
303.039124 0.066556 
303.14917 0.070565 
304.030701 0.127015 
304.094666 0.018232 
304.108459 0.018087 
304.152283 0.022748 
304.298431 0.039468 
305.161926 0.010509 
306.010712 0.010945 
306.028015 2.136763 
306.25592 0.009333 
307.032532 0.147384 
307.143524 0.783309 
308.024963 0.243024 
308.042786 0.01996 
308.147034 0.236362 
310.041687 0.026475 
311.031616 0.533928 
311.067444 3.954359 
312.070923 0.535858 
312.261902 0.009665 
313.028168 0.020898 
313.064911 0.686918 
315.149536 0.011931 
316.747162 0.018008 
317.163391 0.012343 
319.036682 0.016303 
320.043762 0.135127 
321.015686 0.585343 
321.051758 5.09835 
322.018921 0.308057 
322.037628 0.033004 
322.055511 0.703182 
323.012756 0.799974 
323.048523 0.920886 
323.067841 0.014425 
323.138336 0.122386 
333.158905 0.090908 
334.164124 0.016249 
335.067627 0.39022 
335.174927 1.242613 
336.038696 1.5626 
336.178741 0.205415 
336.521149 0.011691 
337.042633 1.562067 
337.190277 0.793349 
338.035583 2.986662 
339.039337 0.393218 
343.816925 0.019646 
349.345825 0.016742 
351.061951 0.593941 
351.168091 1.250758 
351.190216 0.3621 
351.211945 0.031006 
352.065857 0.828637 
352.172546 0.462082 
353.057007 1.212071 
353.080048 2.922118 
353.155029 0.066371 
353.184998 0.212202 
353.228424 0.327994 
353.352631 0.012479 
354.060364 0.06787 
354.081757 0.45737 
354.108734 0.012236 
354.13269 0.392015 
354.168579 0.071173 
355.07428 0.559772 
355.114563 0.015008 
355.137878 0.014062 
355.201782 0.025208 
355.28064 0.076711 
367.582123 0.153268 
375.665314 0.034817 
375.759308 0.013504 
END IONS

