BEGIN IONS
PEPMASS=531.273
CHARGE=1+
COMPOUNDNAME=(2E,4E)-1-[(2R,6S,14S,22S,25R)-25-(3,3-dimethyloxiran-2-yl)-15-methyl-1,3,13,15-tetraazaheptacyclo[18.4.1.0�,?.0?,��.0?,��.0�?,��.0�?,��]pentacosa-7,9,11,16(21),17,19-hexaen-3-yl]hexa-2,4-dien-1-one
LIBRARYQUALITY=3
SMILES=N/A
INCHIKEY=XZFSMUXVAYCHFO-QREHLELFSA-N
INCHI=InChI=1S/C32H36N4O2/c1-5-6-7-15-24(37)35-18-16-31-21-12-8-9-13-22(21)33-28-32(31)17-19-36(29(31)35)26(27-30(2,3)38-27)20-11-10-14-23(25(20)32)34(28)4/h5-15,26-29,33H,16-19H2,1-4H3/b6-5+,15-7+/t26-,27?,28+,29+,31-,32-/m1/s1
MSLEVEL=2
SOURCE_INSTRUMENT=N/A-ESI-QFT
FILENAME=library_mgf.mgf
SEQ=*..*
IONMODE=positive
ORGANISM=MONA
NAME=(2E,4E)-1-[(2R,6S,14S,22S,25R)-25-(3,3-dimethyloxiran-2-yl)-15-methyl-1,3,13,15-tetraazaheptacyclo[18.4.1.0�,?.0?,��.0?,��.0�?,��.0�?,��]pentacosa-7,9,11,16(21),17,19-hexaen-3-yl]hexa-2,4-dien-1-one [M+Na]+
PI=MoNA
DATACOLLECTOR=MoNA:VF-NPL-QEHF021748
PUBMED=N/A
SUBMITUSER=mwang87
TAGS=
SPECTRUMID=CCMSLIB00004712811
SCANS=21748
51.451893 0.013363 
51.808563 0.007633 
51.885361 0.01645 
52.136482 0.015433 
53.869228 0.00267 
54.566746 0.002445 
55.018169 0.005121 
55.882774 0.017052 
55.953548 0.019065 
57.070118 0.020446 
57.272465 0.009036 
57.865856 0.010758 
58.629967 0.016038 
60.412479 0.007346 
60.611637 0.013419 
61.010815 0.015058 
61.273872 0.002619 
62.200287 0.017053 
62.539135 0.011906 
62.737431 0.002732 
62.856865 0.014202 
62.858536 0.160814 
62.95948 0.008604 
63.361843 0.015791 
65.147865 0.003332 
65.377312 0.01656 
65.72374 0.018819 
66.022736 0.011874 
67.054337 0.330585 
67.07254 0.0382 
68.057793 0.018147 
68.987099 0.009265 
69.316681 0.008071 
69.481705 0.003792 
70.208603 0.012194 
70.473625 0.014788 
70.825089 0.003313 
71.085648 0.003166 
71.205055 0.016111 
73.905571 0.017526 
74.576988 0.002806 
74.845375 0.012882 
75.047295 0.014752 
75.057152 0.014301 
75.177109 0.016801 
75.940613 0.005758 
76.978531 0.020656 
78.050079 0.003455 
78.336304 0.016797 
79.021278 0.002855 
79.542534 0.003073 
80.33268 0.006187 
81.312798 0.004543 
81.895142 0.002849 
81.942497 0.01367 
82.046524 0.019643 
82.970016 0.008322 
83.202957 0.002825 
83.284172 0.005883 
83.930611 0.003591 
84.529663 0.018105 
85.358421 0.013348 
85.85556 0.008346 
87.701469 0.003507 
89.059784 0.053708 
89.151489 0.003568 
94.890404 0.002901 
95.049141 1.744489 
95.085258 0.01384 
96.05249 0.450648 
96.691429 0.012252 
98.576355 0.015441 
98.899719 0.018918 
98.980042 0.017842 
100.587524 0.005301 
101.457832 0.012528 
101.810913 0.002975 
101.961105 0.003254 
102.87925 0.018541 
104.036453 0.022753 
105.000404 0.004916 
106.315697 0.00308 
112.014961 0.004093 
118.038612 0.02786 
119.089577 0.006054 
119.111656 0.018732 
124.187172 0.020932 
126.072899 0.003571 
126.22477 0.01927 
130.065216 0.0127 
132.041992 0.01898 
132.986923 0.0089 
133.086075 0.003085 
134.057419 0.048033 
134.956161 0.00391 
137.601318 0.008608 
141.178574 0.015822 
141.505768 0.019678 
143.016022 0.003349 
143.072296 0.00332 
144.080795 0.099762 
144.362625 0.014745 
146.046906 0.117813 
146.057632 100.0 
147.054886 0.36792 
147.060837 6.578535 
148.063385 0.019186 
148.972046 0.00967 
149.196808 0.002862 
152.047134 0.026937 
152.278748 0.002891 
156.676987 0.008511 
159.065491 0.075688 
159.091751 0.577369 
160.095047 0.093295 
164.068192 1.450815 
165.072144 0.025909 
165.090652 0.003617 
168.080719 0.014918 
168.213089 0.002864 
169.075806 0.006672 
171.091721 0.174462 
181.073669 0.204481 
183.091812 0.143109 
184.026611 0.003849 
184.094803 0.034139 
185.071045 0.024218 
185.099213 0.006141 
185.107254 0.324727 
185.765137 0.014549 
186.078583 0.014876 
186.0914 0.004461 
186.110916 0.046855 
187.086563 0.2144 
188.032944 0.003157 
188.08992 0.00773 
191.994278 0.002925 
192.961533 0.099189 
196.099442 0.03191 
196.950119 0.005666 
197.107193 0.010851 
197.462006 0.017268 
198.091446 0.00481 
199.09523 0.00811 
205.987869 0.00566 
207.090454 1.364241 
208.067184 0.018847 
208.09967 0.151054 
208.520691 0.019444 
209.068268 0.049316 
209.106873 0.020967 
210.971848 0.02923 
212.939316 0.621843 
212.956482 0.214399 
213.44809 0.017823 
214.466537 0.006114 
215.117859 0.298479 
216.121506 0.33188 
216.47908 0.021948 
217.12442 0.078471 
218.978226 0.018979 
219.199493 0.012785 
219.438156 0.014892 
221.336945 0.002878 
223.572403 0.006467 
228.069077 0.019152 
229.89679 0.004993 
235.123199 0.249278 
240.539734 0.019448 
241.132904 0.017027 
244.902863 0.002711 
245.608063 0.008665 
246.474609 0.017785 
247.084503 0.414217 
249.093597 0.003578 
253.133102 0.003994 
255.148834 0.031828 
256.152649 0.019608 
258.35614 0.018137 
258.899963 0.003594 
260.105743 0.003988 
261.099945 6.205338 
261.906128 0.02401 
262.103271 0.88945 
262.913696 0.007414 
263.118317 0.025447 
264.909393 0.018652 
265.13324 0.017654 
270.214996 0.018548 
272.429565 0.013495 
273.906708 0.151527 
274.162323 0.007868 
274.914612 0.054494 
275.115509 0.445315 
275.901978 0.042352 
276.123352 8.619 
276.909607 0.173884 
277.109192 0.022365 
277.126923 1.514834 
277.910522 0.007626 
278.141418 0.712372 
279.146545 0.395723 
279.916595 0.410124 
281.912048 0.112105 
286.913605 0.43858 
288.909424 0.083432 
294.494232 0.017597 
298.914978 0.207744 
300.909454 0.155935 
302.908569 0.004933 
302.929016 0.013748 
302.962463 0.018608 
304.161133 0.009985 
304.185791 0.027212 
304.924316 1.698069 
305.927795 0.040859 
306.919586 0.571826 
307.12146 0.004053 
307.921387 0.014607 
308.92099 0.004682 
309.624786 0.008809 
310.156525 0.022495 
310.915771 0.003785 
315.147278 0.072939 
315.91745 0.06317 
316.925385 0.669008 
317.910522 0.003994 
317.928467 0.00491 
318.920105 0.416159 
319.921722 0.03369 
320.919464 0.288267 
321.926605 0.111663 
322.133392 0.057119 
322.914734 0.082 
322.934906 0.160613 
323.139435 0.021349 
323.921173 0.005168 
324.930359 0.056203 
326.165833 0.026865 
327.079285 0.011745 
327.169434 0.004908 
329.156219 0.007818 
329.176147 0.005878 
331.928711 0.067254 
333.137054 0.01418 
334.935944 0.035752 
335.489685 0.02098 
336.148682 0.029868 
336.930847 0.033466 
337.141418 1.044044 
338.091309 0.016048 
338.14563 0.09839 
342.167908 0.045252 
343.171326 0.080195 
343.192322 0.017974 
345.926849 0.024692 
347.812225 0.020372 
358.844635 0.005913 
360.079346 0.017505 
360.839935 0.039806 
361.840881 0.007048 
361.939148 0.015792 
362.839935 0.066474 
363.937775 0.081975 
364.142944 0.03238 
364.8349 0.005747 
365.173798 2.094872 
365.200256 0.005985 
365.933807 0.011247 
366.177246 0.491112 
370.316101 0.010068 
370.332214 0.01453 
370.845032 0.012113 
372.162079 0.00716 
376.855377 0.010348 
378.849762 0.010891 
380.850739 0.071532 
382.846161 0.005379 
387.259857 0.011172 
395.187042 0.0081 
395.442078 0.009816 
406.17572 0.004868 
406.842957 0.005915 
406.868805 0.012959 
407.84613 0.011826 
408.256561 0.019289 
408.845123 0.097571 
409.846649 0.00597 
410.270966 0.114568 
410.842438 0.02199 
411.274506 0.016326 
411.842712 0.016129 
413.86377 0.02253 
418.189087 0.089196 
420.857422 0.004242 
421.853241 0.047859 
423.218201 0.004803 
425.197205 0.040012 
426.202576 0.003241 
426.856598 0.035485 
428.852356 0.004892 
429.852203 0.003648 
430.845032 0.00966 
431.183563 0.653397 
431.873596 0.189583 
432.190826 0.561941 
433.197205 0.103545 
435.215729 0.173685 
436.223236 0.024195 
437.232697 0.236886 
437.823853 0.003832 
438.236755 0.159647 
439.240692 0.275607 
439.861115 0.003736 
440.244324 0.039816 
445.198608 0.124242 
445.852234 0.118423 
445.886139 0.006503 
449.883301 0.005152 
454.24054 0.162205 
455.243591 0.011849 
457.222717 0.41722 
458.226654 0.29208 
459.215057 0.309141 
460.224701 0.938524 
461.230621 6.893479 
462.234192 1.861487 
463.237213 0.087465 
463.86322 0.013319 
472.875427 0.212284 
473.232727 0.139818 
474.236877 0.011494 
490.886536 0.690036 
491.889313 0.047034 
512.280884 0.003217 
513.134888 0.016651 
513.626892 0.020305 
516.244995 0.019759 
524.084229 0.019163 
529.307007 0.032735 
529.40387 0.028349 
531.273193 73.250587 
531.389648 0.175533 
532.276306 25.979994 
532.388123 0.030073 
533.22522 0.013513 
533.279541 3.258518 
533.365051 0.840494 
534.700439 0.019947 
551.973816 0.003205 
553.935974 0.004657 
559.117554 0.006113 
559.606445 0.018513 
END IONS

