BEGIN IONS
PEPMASS=228.951
CHARGE=1+
COMPOUNDNAME=2-[(1S)-1-hydroxyethyl]-1H-quinazolin-4-one
LIBRARYQUALITY=3
SMILES=N/A
INCHIKEY=BMBSGGZMJQTQSO-LURJTMIESA-N
INCHI=InChI=1S/C10H10N2O2/c1-6(13)9-11-8-5-3-2-4-7(8)10(14)12-9/h2-6,13H,1H3,(H,11,12,14)/t6-/m0/s1
MSLEVEL=2
SOURCE_INSTRUMENT=N/A-Linear Ion Trap
FILENAME=library_mgf.mgf
SEQ=*..*
IONMODE=positive
ORGANISM=MONA
NAME=2-[(1S)-1-hydroxyethyl]-1H-quinazolin-4-one M-H
PI=MoNA
DATACOLLECTOR=MoNA:VF-NPL-LTQ005368
PUBMED=N/A
SUBMITUSER=mwang87
TAGS=
SPECTRUMID=CCMSLIB00004688983
SCANS=4604
148.949997 13.756392 
175.110001 38.87569 
184.979996 13.470476 
198.869995 88.053993 
210.080002 77.626251 
END IONS

