BEGIN IONS
PEPMASS=428.148
CHARGE=1+
COMPOUNDNAME=Roquefortine C
LIBRARYQUALITY=3
SMILES=N/A
INCHIKEY=SPWSUFUPTSJWNG-LIMLNZRCSA-N
INCHI=InChI=1S/C22H23N5O2/c1-4-21(2,3)22-10-17-18(28)25-16(9-13-11-23-12-24-13)19(29)27(17)20(22)26-15-8-6-5-7-14(15)22/h4-9,11-12,17,20,26H,1,10H2,2-3H3,(H,23,24)(H,25,28)/b16-9-/t17-,20-,22+/m0/s1
MSLEVEL=2
SOURCE_INSTRUMENT=N/A-ESI-QFT
FILENAME=library_mgf.mgf
SEQ=*..*
IONMODE=positive
ORGANISM=MONA
NAME=Roquefortine C [M+K]+
PI=MoNA
DATACOLLECTOR=MoNA:VF-NPL-QEHF016409
PUBMED=N/A
SUBMITUSER=mwang87
TAGS=
SPECTRUMID=CCMSLIB00004707472
SCANS=16409
50.242901 0.07275 
50.421753 0.08039 
50.969334 0.103648 
50.99057 0.072475 
51.15403 0.084426 
51.632526 0.067138 
51.940414 0.37868 
52.309677 0.085284 
53.002544 0.300466 
53.010628 0.08447 
53.23349 0.097644 
53.689758 0.070842 
53.743279 0.084777 
54.3302 0.064819 
55.018223 0.882638 
55.054592 10.725105 
55.934696 0.091549 
56.049797 0.519528 
56.062481 0.087004 
56.315475 0.085049 
56.714725 0.077151 
57.033794 0.837185 
57.070213 21.753014 
57.867329 0.075476 
58.065426 2.283649 
58.073528 0.37545 
58.215904 0.070385 
58.310352 0.070404 
58.995296 9.287177 
58.996845 0.109498 
59.049442 6.551568 
59.209782 0.07672 
59.313885 0.08782 
59.382019 0.088412 
59.61702 0.074772 
59.818668 0.088757 
59.966709 0.580355 
60.044659 0.572941 
60.081142 0.196958 
60.239468 0.082628 
61.010918 11.684996 
61.295238 0.082453 
61.635674 0.063937 
62.01878 0.153527 
62.986675 0.07933 
63.006725 0.104502 
63.256115 0.06912 
63.67086 0.08205 
63.70586 0.078811 
63.997898 0.083178 
64.899612 0.08327 
65.038689 0.178877 
65.843163 0.08882 
65.944473 0.081822 
66.74115 0.079356 
67.05439 12.472051 
67.440414 0.087946 
67.837082 0.074391 
68.049652 0.316414 
68.057678 0.111689 
68.862915 0.094699 
68.942932 0.341768 
69.03363 2.083241 
69.044868 5.146518 
69.07003 41.529709 
69.072144 0.217602 
70.028893 0.077571 
70.065262 23.258438 
70.073357 1.643249 
70.264473 0.089698 
70.958015 0.114717 
71.049278 1.178589 
71.085663 13.943966 
71.499924 0.081041 
71.574829 0.095043 
71.593033 0.098786 
71.880554 0.090025 
72.044746 0.09233 
72.078796 0.230022 
72.080894 17.829048 
72.088898 0.099004 
72.937225 0.585566 
73.028519 0.966172 
73.046906 1.08907 
73.064865 1.229603 
74.096481 0.093531 
74.963188 0.084722 
75.026466 0.097708 
75.044167 3.380759 
75.187378 0.078212 
75.726997 0.085902 
76.677238 0.079078 
77.39946 0.094782 
77.415077 0.088312 
77.556152 0.083063 
78.967155 13.097109 
79.021286 3.932913 
79.054359 1.963044 
81.033493 0.280732 
81.044846 10.705182 
81.069984 7.811775 
81.631653 0.090344 
82.052719 1.456227 
82.790092 0.10448 
82.931137 0.079384 
83.012749 0.463691 
83.049217 5.428986 
83.06044 1.947525 
83.085571 5.494541 
83.659294 0.080817 
84.044853 0.114845 
84.080894 6.924561 
84.681786 0.070873 
85.028503 2.645193 
85.039749 9.791664 
85.064842 4.594389 
85.101311 9.426243 
86.060181 0.162971 
86.096497 1.197576 
87.044197 5.648727 
88.02169 0.081523 
88.038918 0.089376 
88.984177 0.085656 
89.059776 11.732821 
89.107338 0.356032 
90.36245 0.077153 
90.513023 0.098408 
90.947815 0.887277 
91.054329 4.4168 
91.057449 11.211566 
91.472183 0.08955 
92.182632 0.080852 
92.982857 100.0 
93.044861 0.92713 
93.069977 4.392907 
93.073021 0.079744 
93.982216 3.288178 
93.986137 4.997718 
94.052673 4.305312 
94.065208 0.264121 
94.339973 0.075686 
94.978622 23.746941 
95.024078 0.223753 
95.049255 16.321711 
95.060471 5.09211 
95.085617 6.418801 
95.183434 0.095806 
96.044395 0.501392 
96.052422 0.103715 
96.055679 1.3907 
96.067825 0.107498 
96.080734 0.21589 
96.912323 0.097989 
97.028412 0.219978 
97.039795 5.835356 
97.064888 2.275652 
97.098083 0.089808 
97.101311 2.556494 
98.060081 0.237713 
98.096565 1.563759 
98.829803 0.08558 
98.938362 0.087989 
98.975349 1.476526 
99.044159 3.035919 
99.055336 0.467795 
99.080391 0.153546 
99.091431 0.090924 
99.157455 0.084048 
100.039368 0.298866 
100.075577 0.255911 
101.003304 2.947094 
101.059853 14.098586 
102.063004 0.116855 
102.091393 0.272497 
103.03904 0.232253 
103.050438 0.402638 
103.054192 0.096113 
104.772026 0.081997 
105.033516 0.225777 
105.044884 1.410351 
105.07 2.921476 
105.560455 0.097269 
105.872437 0.085467 
106.0401 7.383068 
106.065193 0.735853 
106.475571 0.07948 
106.952888 0.084244 
106.99852 27.29994 
107.044212 0.084278 
107.048042 5.489414 
107.060455 1.709118 
107.085625 2.552478 
108.001778 0.340427 
108.031868 0.682263 
108.044273 0.09318 
108.05574 29.856079 
108.080795 0.664044 
108.406128 0.084574 
108.681557 0.091078 
108.994392 0.656264 
109.028206 0.084293 
109.039772 8.067443 
109.052338 0.079214 
109.059006 1.302626 
109.063889 2.408997 
109.076019 0.876135 
109.101227 2.715384 
110.04319 0.117624 
110.059982 0.101195 
110.071381 1.450118 
110.096481 2.200056 
111.044182 7.446089 
111.055428 13.800939 
111.080521 0.441889 
111.117172 0.096566 
112.06237 0.106491 
113.034668 10.938194 
113.059715 0.460834 
114.037895 0.133115 
114.241249 0.089326 
114.948471 0.088986 
115.0755 0.101272 
115.123123 0.898177 
116.070274 0.078232 
116.107025 0.131069 
116.195351 0.104035 
116.705437 0.079224 
116.985985 2.455263 
117.054222 0.157753 
117.069962 0.203268 
118.065178 2.446829 
119.048973 2.818231 
119.060493 0.692646 
119.085716 1.686029 
120.044479 3.846088 
120.055794 7.799761 
120.08091 29.56286 
121.028229 0.095863 
121.039772 1.704758 
121.059212 0.263198 
121.064301 9.45141 
121.075935 0.181396 
121.08416 1.682446 
121.101234 1.438258 
122.06694 0.20179 
122.071289 3.748353 
123.043999 0.486463 
123.079521 2.280937 
123.116928 0.48377 
123.261932 0.072927 
124.050713 2.64372 
124.063202 0.247005 
124.075905 0.114062 
124.139076 0.084696 
124.686432 0.071473 
125.034561 0.682034 
125.0597 0.950247 
125.095985 0.409033 
126.042648 0.487771 
127.032623 0.285557 
127.039146 0.211771 
127.05024 1.864791 
127.123299 0.101289 
128.963821 6.293598 
129.054581 4.397142 
129.070312 0.086346 
130.065231 59.721466 
130.587311 0.082457 
130.979584 1.67804 
131.049011 0.091995 
131.068481 7.841766 
131.073074 1.227432 
131.085587 0.30004 
132.031952 0.102106 
132.04422 0.103633 
132.055695 1.139916 
132.071533 0.100967 
132.080856 2.258448 
132.753876 0.090084 
132.958206 0.248052 
132.978058 0.215464 
133.039719 9.418982 
133.052017 0.32925 
133.06427 1.328045 
133.076065 3.247217 
133.085556 0.339366 
133.100967 0.341998 
134.034958 0.797763 
134.04277 0.332563 
134.048004 0.159073 
134.059967 0.435411 
134.071396 7.929149 
134.07869 0.080566 
134.642853 0.082956 
134.956238 0.585209 
134.996521 5.144474 
135.043884 0.192327 
135.055405 0.817333 
135.080093 0.9259 
135.091461 0.103736 
135.116913 0.657324 
136.050674 6.70689 
136.075821 33.934956 
136.086975 5.29305 
137.023392 53.519997 
137.034393 0.49959 
137.059494 1.178353 
137.071106 0.117719 
137.078964 1.074129 
137.095245 0.286534 
138.066254 0.335662 
138.091537 0.128278 
139.038803 0.096418 
139.050201 0.674974 
139.075516 0.22528 
139.111679 0.139765 
142.065155 0.627716 
142.978943 0.104523 
143.060776 0.461628 
143.073181 11.158794 
143.085312 0.112701 
144.044449 1.745155 
144.068588 0.518574 
144.081055 19.343992 
144.692673 0.094419 
145.065201 0.307562 
145.076126 14.149079 
145.083908 2.34939 
145.100983 0.218903 
146.023788 0.545128 
146.035065 0.402717 
146.06015 5.40355 
146.065948 0.088727 
146.071625 0.327436 
146.079391 1.211027 
146.087296 0.108975 
146.096909 0.137955 
146.974411 43.235031 
147.043869 0.708428 
147.055573 0.922847 
147.065842 0.829035 
147.080383 1.310161 
147.09227 0.127291 
147.104355 0.103191 
147.117218 0.410312 
147.974335 5.742934 
148.050598 8.522871 
148.075592 0.454867 
148.087952 0.105294 
148.972443 8.185917 
148.978683 0.417761 
148.99028 0.111949 
149.04538 0.200894 
149.053116 0.108629 
149.059097 1.893553 
149.071426 0.095335 
149.082321 0.482791 
149.096008 0.652644 
149.750183 0.089029 
150.054901 0.096492 
150.066391 1.866772 
150.951202 5.231834 
150.969009 1.730522 
151.039261 0.512604 
151.049408 0.086391 
151.075333 0.351375 
152.04541 1.569699 
152.070328 0.182381 
152.966599 0.294686 
153.007004 0.346795 
153.029526 0.472963 
153.054672 0.619163 
154.043228 0.517683 
154.065369 6.757899 
155.045197 2.906877 
155.060684 0.960501 
155.068405 0.309799 
155.073151 0.446404 
155.085587 0.084272 
155.557678 0.093023 
156.081039 7.581917 
156.868454 0.097344 
157.076172 4.447942 
157.083038 0.471611 
157.08934 0.31839 
157.101288 0.217996 
158.06012 2.598684 
158.08432 0.188037 
158.096985 0.206822 
158.974243 0.124574 
159.066757 0.153955 
159.080444 0.34184 
159.091827 5.125204 
159.116409 0.08318 
160.050964 0.339762 
160.075623 3.679802 
160.087204 0.521125 
160.094971 0.356227 
160.112167 0.209262 
160.990143 4.146683 
161.059479 0.552094 
161.071075 0.127361 
161.096268 0.42635 
161.774796 0.099971 
161.99025 0.215945 
162.022675 0.094522 
162.029846 13.559372 
162.054718 0.512218 
162.066238 4.581285 
162.127884 0.337987 
162.548279 0.088246 
162.975479 0.101715 
162.988312 0.839295 
163.026093 0.1155 
163.0336 0.093119 
163.050125 1.182249 
163.061478 20.044992 
163.068985 0.178628 
163.074341 0.454812 
163.086288 0.100956 
163.112183 0.110021 
164.045532 6.105673 
164.064316 0.183082 
164.06987 0.313395 
165.054764 0.494247 
165.077179 4.531661 
165.090591 0.484223 
166.049988 0.377441 
166.061249 1.045094 
166.08667 0.194643 
166.982407 0.535735 
167.05545 3.954061 
167.071259 0.122967 
167.963577 0.090222 
168.008972 0.101756 
168.068222 1.123202 
168.081009 5.387976 
168.961807 2.594466 
169.040192 0.106871 
169.076233 23.673416 
169.088867 0.245743 
169.977264 0.928042 
170.060181 5.453755 
170.07196 0.248514 
170.079529 4.127526 
170.096481 6.066132 
170.560669 0.097399 
171.055466 9.56523 
171.063019 0.118744 
171.079453 0.107959 
171.091766 24.702793 
172.057755 0.109924 
172.063751 0.39231 
172.075806 0.567848 
172.087402 0.23504 
172.095016 3.549179 
172.112305 0.560557 
172.929398 0.09754 
172.988007 0.092299 
173.071243 1.381799 
173.08313 0.090952 
173.096664 0.187725 
173.107864 0.24808 
173.239868 0.083672 
174.0298 0.792803 
174.055069 3.515462 
174.066452 0.918119 
174.091721 0.265924 
175.037216 0.311294 
175.050644 0.096553 
175.061142 2.626338 
175.075363 1.224739 
175.086868 0.596459 
175.111984 0.23722 
176.045563 4.595009 
176.070175 1.422502 
176.082199 0.197228 
176.107452 0.10968 
177.02449 0.101986 
177.054153 1.225896 
177.065628 0.226366 
177.077301 5.436673 
177.091309 0.134989 
178.048981 0.32849 
178.061234 0.775249 
178.085632 0.099793 
178.12236 0.100559 
178.964294 2.171068 
179.056473 4.786072 
180.02121 0.101916 
180.040512 0.225244 
180.081009 0.76099 
181.075974 1.353054 
181.088547 0.602014 
181.099945 0.093239 
182.059967 0.884003 
182.083221 0.103494 
182.096451 0.46547 
183.055344 0.98325 
183.07933 0.106423 
183.09201 1.628639 
183.10434 1.198027 
184.063583 0.215622 
184.075714 0.112 
184.087097 0.228283 
184.112259 1.107909 
185.059525 0.221076 
185.071182 8.295694 
185.107162 0.214689 
186.055191 1.656471 
186.066193 1.551234 
186.076401 0.107815 
186.980484 1.06789 
187.061447 0.12989 
187.076157 0.56987 
187.086655 4.505576 
187.095047 0.107821 
187.988083 13.563552 
188.045654 3.792587 
188.070892 0.641414 
188.081848 0.972703 
188.107071 11.641887 
188.978363 1.466321 
188.992355 0.11592 
189.041 0.100528 
189.054642 0.450412 
189.066223 0.411945 
189.077286 2.98859 
189.091782 0.255369 
189.110794 0.879979 
189.986313 5.580599 
190.050995 0.409165 
190.061279 5.303531 
190.086502 0.57238 
190.097672 0.980092 
191.0009 0.671018 
191.056534 20.106438 
191.092789 2.933049 
191.880737 0.644887 
192.040833 0.210912 
192.04834 0.103395 
192.064453 37.52681 
192.961945 1.949774 
192.998077 0.096562 
193.072205 80.817207 
194.081757 40.169769 
194.096481 0.31357 
195.055939 0.32167 
195.09166 0.240517 
196.087234 0.413208 
196.112213 3.83092 
196.974777 0.094992 
197.062225 0.096058 
197.071152 7.931269 
197.107361 1.31737 
198.066208 0.458538 
198.07782 0.218672 
198.091187 0.470462 
198.12796 16.344688 
199.050461 1.181015 
199.076355 0.451422 
199.086731 6.502633 
199.096451 0.111622 
199.131317 4.858965 
200.058044 2.562613 
200.070389 0.319278 
200.090607 0.379925 
200.107239 0.578403 
200.134613 0.329738 
201.066025 2.035223 
201.091721 0.24908 
201.102356 1.546265 
201.13887 0.759511 
202.061157 0.517553 
202.086014 0.553731 
202.142517 0.239536 
203.031433 0.084419 
203.056534 2.995039 
203.081009 0.144907 
203.092651 0.107667 
203.106354 0.237922 
204.06459 2.400466 
205.072311 27.806993 
205.988098 0.093431 
206.024139 0.091752 
206.080353 18.945869 
206.97879 0.097855 
207.051483 18.941553 
207.07933 0.158193 
208.005402 0.1097 
208.017624 0.942407 
208.055496 1.096318 
208.087128 1.570387 
208.09697 22.694866 
208.883743 1.897734 
209.049393 0.126485 
209.069977 1.322615 
209.095261 0.094625 
209.891541 2.777081 
210.066406 0.318676 
210.102768 0.195601 
210.127853 1.98736 
210.97226 0.658026 
211.005493 0.14081 
211.074432 0.633022 
211.086639 0.968868 
211.97554 0.098878 
212.081955 1.277896 
212.106659 0.12005 
212.143677 0.478935 
212.972427 0.082172 
213.038605 0.096229 
213.065979 8.028602 
213.625702 4.028219 
214.046432 2.341485 
214.06102 0.69766 
214.07251 0.120266 
214.086563 0.419205 
214.097656 0.348193 
214.12262 4.143706 
215.069916 0.531063 
215.081528 1.098057 
215.10762 0.088225 
215.127563 0.659366 
216.076111 0.144989 
216.088379 0.114782 
216.889542 0.091876 
217.072159 1.32554 
217.085724 0.112582 
217.097366 0.119793 
218.080475 0.814631 
218.092117 0.234809 
218.116547 0.089399 
219.07753 0.230718 
219.08815 3.206515 
219.174545 2.027157 
219.651871 0.111705 
220.086472 2.998522 
220.096878 0.892278 
220.90387 0.477756 
221.069046 0.758747 
221.09201 0.27805 
222.066269 0.241161 
222.077194 0.200871 
222.102219 0.238035 
222.112625 0.106177 
222.127502 0.097229 
222.898788 3.845895 
223.050934 0.109835 
223.086746 0.254215 
224.03656 0.486142 
224.082016 2.344037 
224.107605 0.103412 
224.878586 0.101669 
225.043091 0.324022 
225.065903 2.18468 
225.090393 0.495052 
225.102158 0.233653 
225.886292 1.575589 
226.061798 0.249322 
226.097321 1.315218 
226.12381 0.099848 
226.894012 0.11554 
227.081726 1.009195 
227.105133 0.099194 
227.252487 0.093326 
227.900864 0.210949 
228.076416 0.294358 
228.101913 0.125413 
228.137985 0.148513 
229.060776 0.36483 
229.086029 0.256295 
229.097382 0.227977 
229.896194 1.834306 
230.04155 0.359293 
230.080154 0.10741 
230.11824 0.482927 
231.051437 2.151407 
231.06543 0.094341 
231.076706 0.100896 
231.088348 0.152214 
231.896942 0.185893 
232.883713 3.781073 
233.081619 0.338912 
233.104401 0.263847 
233.891678 41.611889 
234.065948 0.874783 
234.089584 0.809422 
234.102875 0.569475 
234.890198 0.826469 
234.899353 6.669206 
235.005569 0.392017 
235.073761 0.395614 
235.097595 2.382967 
235.890244 1.703251 
236.081314 1.861281 
236.143494 0.234548 
237.043976 0.275531 
237.065887 0.147095 
237.076797 0.114664 
237.138428 0.206864 
238.051605 0.842951 
238.097855 0.476595 
238.122559 0.782177 
238.159348 1.960197 
238.914124 1.634793 
239.059738 3.545396 
239.08223 0.103223 
239.118546 0.112672 
240.030899 0.104912 
240.076935 1.218624 
240.123901 0.099998 
240.9095 7.326246 
241.059875 0.084977 
241.085098 0.208053 
241.12088 0.131151 
241.134598 0.09987 
241.909363 0.105679 
242.092697 0.123419 
242.11731 0.230656 
242.911285 0.115516 
243.064865 0.232372 
243.100342 0.199362 
243.125061 0.303839 
244.073288 0.094402 
244.133423 0.110294 
244.905975 0.379764 
245.08197 2.305333 
245.12912 0.106985 
246.06601 0.132967 
246.089493 3.990315 
246.899261 0.098942 
247.001328 4.413085 
247.074356 0.340341 
247.098007 11.551354 
247.90686 3.352704 
248.022125 4.83459 
248.081741 5.204135 
248.104294 3.729451 
248.878555 2.46036 
249.029724 3.60503 
249.062775 0.289273 
249.089035 1.139468 
249.112473 1.088566 
250.062988 0.113497 
250.084305 0.931653 
250.096954 0.464763 
250.894165 17.051107 
251.063385 0.112467 
251.092575 0.590852 
251.139252 3.116745 
251.902695 4.653221 
252.076706 2.442221 
252.891464 0.567236 
253.060715 0.359107 
253.072754 0.255516 
253.084732 0.160102 
253.902252 2.958097 
254.092224 2.25971 
254.129532 0.201073 
255.897934 0.13977 
256.296478 0.10545 
256.891083 0.11519 
257.080902 0.104217 
257.891937 0.502517 
259.097839 6.457806 
260.069336 4.429025 
260.082062 0.141597 
260.103058 1.502436 
260.995544 0.597352 
261.076874 16.225084 
261.113342 0.957401 
261.988007 0.35901 
262.061737 0.319397 
262.082214 9.000111 
262.914001 2.492822 
263.000427 2.237257 
263.093262 7.360686 
264.074921 0.10766 
264.098602 1.055562 
264.909546 5.927995 
266.032288 3.288615 
266.056274 0.385895 
266.077942 0.110696 
266.092438 0.129134 
266.660614 0.086952 
266.717621 0.096569 
266.889099 2.577963 
267.040039 3.841242 
267.064789 0.112154 
267.100037 0.098776 
268.071808 1.733018 
268.119812 0.388841 
268.905212 0.792937 
269.079651 1.113221 
269.892365 0.116648 
269.906403 0.11018 
270.087341 0.617315 
271.095428 0.100418 
273.076599 2.350606 
273.756165 0.084382 
273.907654 0.101627 
274.084534 7.597306 
274.108978 0.24914 
274.894226 22.741156 
275.069946 0.567988 
275.092682 20.760347 
275.211029 0.104721 
275.902649 25.495581 
276.075165 0.954148 
276.100372 7.872345 
276.893036 1.491707 
276.903229 1.355464 
277.071808 1.961152 
277.093903 1.471794 
277.108215 2.759428 
277.9021 5.248371 
278.054718 0.151997 
278.078857 0.651408 
278.102264 1.644309 
279.006592 3.427096 
279.086792 0.748839 
279.897186 0.972326 
280.070465 0.483632 
280.108185 0.152894 
280.924805 1.870293 
281.010559 1.747522 
282.086182 0.633052 
282.100708 0.118532 
282.27948 0.13143 
282.919586 4.863598 
283.048492 0.267937 
284.102509 0.319133 
285.075928 0.134378 
285.113861 0.118903 
286.898743 0.242422 
287.003967 1.195337 
287.093018 8.931717 
287.1297 0.120346 
288.098022 0.46604 
288.90976 0.110148 
289.072052 9.374333 
289.108734 1.474793 
289.950684 0.910859 
290.07663 7.556648 
290.103699 3.222366 
290.925873 0.56936 
290.947418 1.885171 
291.088593 0.616095 
291.108826 3.056568 
291.140411 0.09902 
292.072571 0.103166 
292.117706 1.918693 
292.904755 3.579946 
292.924011 0.392776 
293.102631 0.251801 
293.118988 0.116497 
293.911621 0.890604 
295.097015 0.11642 
295.911285 0.354721 
295.928833 0.603343 
297.017395 0.133931 
297.906738 0.334311 
298.093292 2.242535 
299.097626 0.114765 
301.072296 7.474644 
301.091705 0.246201 
302.077515 9.076943 
302.10318 1.099824 
303.08728 10.114139 
303.105774 0.89207 
303.126617 0.113851 
304.06488 0.140548 
304.082397 9.186666 
304.118744 0.28443 
304.172852 0.338411 
304.56427 0.100872 
304.910767 0.26808 
304.925232 1.186817 
305.086914 5.4219 
305.104614 0.132909 
306.075256 0.351341 
306.097809 1.749232 
306.920319 2.889989 
307.064301 0.547088 
307.082214 0.792142 
307.103149 0.322202 
307.961731 0.351901 
308.068604 0.926862 
308.08905 0.62517 
308.110748 0.104249 
308.919495 0.377163 
308.957458 0.101418 
309.079834 0.095456 
309.278961 8.352216 
309.297516 0.139396 
309.8172 0.738368 
310.082306 0.104246 
310.282257 0.978014 
310.820007 0.099911 
310.915527 6.734446 
311.294617 17.634235 
311.916473 0.50565 
311.945801 0.105251 
312.839233 0.228293 
312.913849 0.133054 
313.091644 0.107991 
315.08786 1.503794 
315.108032 0.133091 
316.11972 1.013478 
316.904877 15.802404 
317.906403 3.732513 
318.098938 4.003379 
318.905518 3.382196 
319.083344 0.156359 
319.103943 2.88689 
320.089844 0.121826 
320.112122 0.403381 
321.120148 0.244461 
322.130005 17.939243 
323.133148 3.48808 
324.326202 3.316515 
324.931183 0.231796 
325.014801 1.471967 
325.094421 0.119105 
325.329865 0.134677 
326.092102 0.090627 
327.013153 0.104384 
327.826874 0.131138 
328.085632 0.128815 
328.11853 0.121851 
328.834106 0.105069 
329.032074 0.095261 
329.087402 0.111392 
330.098724 0.287203 
331.031189 1.308908 
331.104858 0.105863 
332.114258 2.058851 
332.149078 0.130678 
333.119049 0.508765 
333.816681 1.470945 
334.093445 1.703253 
334.129974 8.599612 
334.824615 0.128738 
334.915344 2.274315 
335.059296 0.500723 
335.09848 1.128381 
335.134155 3.412319 
336.063812 0.764886 
336.108856 2.506566 
336.136932 0.226641 
337.113342 0.778992 
337.847778 0.756571 
338.124359 0.097574 
340.02594 0.760618 
341.015717 0.54086 
342.023163 0.108094 
342.132996 0.199925 
342.997833 0.118359 
343.087646 0.11465 
344.112885 0.100231 
344.829834 0.1384 
346.094238 1.387575 
346.130127 5.94535 
347.099182 1.468142 
347.133484 4.754721 
348.108826 1.671341 
348.142334 0.903138 
349.114594 0.222274 
350.010071 0.109081 
352.926544 0.612607 
353.84137 0.412684 
359.03009 0.087544 
359.135559 0.094265 
360.145386 1.639271 
361.849274 0.106301 
362.161072 2.586876 
368.020905 19.605291 
368.117035 0.449949 
369.024078 3.39874 
369.92865 0.102855 
370.018951 7.134436 
370.165588 0.28343 
371.17392 4.129845 
375.827484 3.586489 
376.831024 1.165954 
378.088409 0.108742 
379.858368 0.83525 
382.753662 0.112488 
402.851624 0.121375 
406.597321 0.093528 
412.04953 0.293349 
414.152924 0.10662 
420.861328 1.212135 
421.537445 0.090565 
422.872772 0.086196 
427.34317 0.094234 
428.173798 0.102134 
428.206238 0.124468 
429.318207 7.92126 
430.322479 0.344429 
438.869385 0.106412 
441.886688 0.087226 
447.347229 0.794396 
END IONS

