BEGIN IONS
PEPMASS=351.064
CHARGE=1+
COMPOUNDNAME=Griseofulvin
LIBRARYQUALITY=3
SMILES=N/A
INCHIKEY=DDUHZTYCFQRHIY-RBHXEPJQSA-N
INCHI=InChI=1S/C17H17ClO6/c1-8-5-9(19)6-12(23-4)17(8)16(20)13-10(21-2)7-11(22-3)14(18)15(13)24-17/h6-8H,5H2,1-4H3/t8-,17+/m1/s1
MSLEVEL=2
SOURCE_INSTRUMENT=N/A-ESI-QFT
FILENAME=library_mgf.mgf
SEQ=*..*
IONMODE=negative
ORGANISM=MONA
NAME=Griseofulvin [M-H]-
PI=MoNA
DATACOLLECTOR=MoNA:VF-NPL-QEHF001068
PUBMED=N/A
SUBMITUSER=mwang87
TAGS=
SPECTRUMID=CCMSLIB00004692131
SCANS=1068
50.051662 0.050395 
50.077148 0.05001 
50.138481 0.031977 
51.121815 0.123003 
51.122681 0.318195 
53.989754 0.02187 
54.808899 0.020302 
55.835091 0.021312 
56.002033 0.027472 
56.012978 0.03681 
56.036499 0.048597 
56.261234 0.02232 
56.312263 0.019477 
56.436104 0.02465 
56.862587 0.107464 
57.033134 0.174725 
57.539661 0.065149 
57.763222 0.056353 
58.4631 0.039866 
58.946995 0.035012 
59.01247 1.644788 
59.066551 0.023405 
59.638969 0.061339 
60.074867 0.029767 
60.140392 0.059824 
60.493778 0.021159 
61.392223 0.02553 
61.986988 3.168664 
62.125668 0.021534 
62.760212 0.140622 
63.022621 0.774379 
63.857212 0.058622 
63.961021 0.432498 
64.317673 0.03207 
65.001884 1.651111 
65.038292 1.086515 
65.759438 0.049356 
66.078697 0.022125 
67.017509 0.488909 
67.067451 0.031277 
67.137985 0.028519 
67.740219 0.026565 
68.654579 0.02413 
68.678909 0.038504 
68.818329 0.057177 
68.8582 0.061685 
68.996788 1.419365 
69.033058 0.057519 
69.591789 0.022588 
70.729584 0.02626 
71.245651 0.057706 
71.694893 0.032448 
72.598709 0.03962 
72.714294 0.057351 
72.847061 0.037999 
72.991676 0.069886 
73.14299 0.020028 
73.340233 0.027576 
73.895668 0.054874 
75.022606 0.648599 
77.038017 0.043766 
77.356789 0.022422 
78.957741 0.03228 
78.984512 0.307605 
79.017517 0.211178 
79.053848 0.271756 
79.955978 4.174861 
80.025345 0.025441 
80.452271 0.061211 
80.551277 0.041726 
80.605583 0.036534 
80.963882 0.254878 
81.033234 5.100323 
82.770592 0.039079 
83.012466 0.083739 
84.471573 0.064132 
85.726875 0.069237 
85.827599 0.033203 
86.934975 0.034653 
89.0019 0.0713 
89.038239 1.997307 
90.114876 0.08162 
90.154961 0.05455 
90.20414 0.057291 
90.593536 0.068447 
91.017441 0.511479 
91.053925 2.022639 
92.158943 0.024727 
92.925156 0.023805 
93.033249 12.46393 
93.224968 0.056009 
93.71151 0.072475 
94.036591 0.28496 
94.979332 0.112809 
95.012405 0.151909 
95.048843 1.456129 
95.768623 0.056222 
95.950935 0.424071 
96.461678 0.022327 
96.958771 18.118151 
96.962212 0.174945 
97.028015 0.068089 
97.939941 0.033266 
98.601814 0.070375 
98.95443 0.151203 
99.577194 0.032071 
102.171074 0.064913 
102.452293 0.066353 
102.862289 0.064936 
104.025696 0.046459 
105.033279 4.313109 
106.040909 0.381104 
106.438828 0.022467 
107.012512 0.252331 
107.04895 18.875954 
108.020355 0.764524 
108.052208 0.780453 
108.125229 0.029944 
109.028168 1.131503 
112.271988 0.05749 
114.29937 0.039902 
115.514877 0.042493 
116.927811 0.074801 
117.033279 61.296665 
118.036514 4.570679 
119.011955 0.027229 
119.04895 0.987606 
121.028259 1.541421 
121.746582 0.021355 
122.036034 1.21446 
123.007881 0.061778 
123.043892 2.063004 
124.015129 0.116673 
125.023575 0.052581 
125.059563 2.041367 
125.559181 0.04538 
127.601883 0.022185 
130.04129 0.628832 
131.012634 0.197485 
131.049103 0.714438 
132.020569 0.388904 
132.785385 0.040011 
133.028336 19.614635 
133.064758 0.172242 
134.011215 0.071759 
134.031448 0.815171 
134.036316 0.581991 
135.007614 0.182937 
135.013229 0.033512 
135.043961 68.015724 
135.898727 0.060525 
136.015472 0.702545 
136.047073 4.562969 
137.023254 0.51333 
137.059586 0.859508 
138.031097 0.058272 
141.984985 0.042577 
143.049072 0.121921 
145.028351 2.511989 
145.064438 0.080233 
145.68071 0.055245 
146.036301 0.499266 
147.044067 9.142322 
147.080673 0.051652 
147.32785 0.070274 
148.015671 0.118362 
148.046661 0.066583 
148.051514 0.031418 
149.012527 0.063564 
149.023346 1.425941 
149.059631 0.901451 
150.031143 0.258678 
150.054626 0.030626 
151.039032 1.430731 
152.010574 0.02527 
152.854767 0.061453 
155.837372 0.064951 
157.064255 0.138383 
158.03624 0.522778 
159.008316 0.044628 
159.04425 1.062461 
160.015762 0.866277 
161.023392 100.0 
161.060196 0.168388 
161.514801 0.068643 
162.025986 7.649753 
163.002609 0.257439 
163.027588 0.075872 
163.039047 2.17823 
163.111633 0.267121 
164.0103 0.211311 
165.218094 0.058082 
168.020386 0.044856 
171.044128 0.066229 
172.015549 0.112319 
173.023499 0.354487 
173.059906 0.037805 
173.132263 0.083547 
174.031479 0.986821 
174.427917 0.068064 
175.002747 0.487293 
175.039124 2.84093 
175.0755 0.211861 
175.156494 0.027006 
176.010574 2.832199 
176.034286 0.225112 
177.018753 0.32467 
177.054855 0.337764 
177.091125 0.111265 
177.752563 0.071187 
178.528168 0.067838 
179.034058 11.020258 
179.142776 0.066367 
180.037704 0.319744 
183.011276 4.571022 
185.023346 0.098211 
185.059387 0.025898 
185.759949 0.024122 
186.385971 0.036742 
187.002625 0.108279 
187.039047 0.214616 
188.011032 0.156348 
188.046677 0.043358 
189.018524 3.601001 
189.054794 0.156647 
190.026291 0.178819 
191.034119 0.278834 
191.143097 0.502472 
192.147339 0.060059 
193.013077 0.030056 
193.050018 0.025466 
196.015991 0.199048 
197.027267 3.418129 
198.035126 0.10145 
199.039612 0.135866 
200.010727 0.038672 
201.127518 0.320057 
202.025055 0.037085 
203.03392 0.253176 
203.143509 0.055959 
204.040771 0.047094 
205.050369 0.065286 
205.188034 0.039247 
209.481812 0.029545 
211.040741 0.075881 
212.041092 0.057718 
212.833969 0.068058 
213.017502 0.033993 
215.034653 0.028341 
215.143372 0.146321 
217.123032 0.026728 
217.159149 0.298685 
219.138275 0.190783 
220.263092 0.27206 
220.28801 0.033137 
225.015793 0.049516 
225.057968 0.281432 
227.034302 0.310061 
227.163452 0.026818 
228.038284 0.358324 
229.123108 0.548605 
230.126266 0.029153 
231.138184 0.102589 
233.154114 0.884372 
235.123306 0.175821 
238.604111 0.03698 
240.037064 0.031133 
241.412857 0.03108 
243.138275 0.284979 
243.565781 0.057949 
247.133209 0.188352 
249.148483 0.029747 
255.029449 2.140345 
256.033447 3.775112 
256.913452 0.062607 
257.036865 0.157756 
258.049225 0.044844 
258.316742 0.04303 
259.134277 0.134792 
261.149353 0.513711 
262.750305 0.031414 
263.081238 0.028333 
263.221832 0.06148 
263.916382 0.023112 
270.302002 0.057681 
275.12912 0.042197 
277.145172 0.078639 
283.025604 0.031598 
284.028046 0.2778 
287.128723 0.488621 
295.276245 0.032536 
298.279602 0.022831 
301.080078 0.026011 
302.859711 0.075611 
303.124847 0.084627 
307.243958 0.068037 
309.296478 0.043413 
315.74649 0.068609 
325.131439 0.062876 
342.461639 0.063684 
342.768341 0.033946 
353.216431 0.113574 
356.463776 0.030489 
357.989655 0.056993 
END IONS

