BEGIN IONS
TITLE=Scan Number: 2190
PEPMASS=476.23901
CHARGE=1+
COMPOUNDNAME=Sibiromycin hemiaminal
LIBRARYQUALITY=3
SMILES=[H][C@]1(CC(/C=C/C)=CN21)C(O)NC3=C(O)C(C)=C(O[C@@H]4O[C@@H](C)[C@H](NC)[C@@](C)(O)[C@H]4O)C=C3C2=O
INCHIKEY=RAGFPHFDFVNLCG-OKNUHWCXSA-N
INCHI=InChI=1S/C24H33N3O7/c1-6-7-13-8-15-21(30)26-17-14(22(31)27(15)10-13)9-16(11(2)18(17)28)34-23-20(29)24(4,32)19(25-5)12(3)33-23/h6-7,9-10,12,15,19-21,23,25-26,28-30,32H,8H2,1-5H3/b7-6+/t12-,15-,19-,20-,21?,23-,24+/m0/s1
MSLEVEL=2
SOURCE_INSTRUMENT=LC-ESI-Orbitrap
FILENAME=f.zdenek/QEactinomyces/STDS/std_mix7-25.mzXML;
SEQ=*..*
NOTES=
IONMODE=Positive
ORGANISM=GNPS-LIBRARY
NAME=Sibiromycin hemiaminal M+H
SPECTRUMID=CCMSLIB00004721935
ACTIVATION=CID
INSTRUMENT=ion trap
SCANS=2190
70.066101 17247.119141 
70.194138 2310.703613 
71.073608 25492.523438 
72.045097 8074.076172 
72.081642 116540.117188 
72.085716 4666.55127 
73.052612 6129.932129 
73.084602 3762.251465 
79.054695 8056.105957 
80.050049 9001.0625 
82.066261 3254.332031 
83.049538 3329.666016 
84.045486 2898.286133 
84.081306 9649.287109 
85.06543 19345.681641 
86.06086 26379.435547 
86.097183 5842.10791 
87.044533 7001.39502 
88.076607 29016.666016 
91.054863 5626.000977 
93.07058 4495.081543 
94.065544 2884.521973 
95.049301 2688.293213 
95.073914 5910.517578 
96.081612 10602.835938 
97.065514 191105.03125 
98.068245 3071.577637 
98.096809 4001.863525 
99.044533 3218.18042 
100.076294 5978.736816 
103.05452 3643.946533 
108.08168 50879.910156 
109.089386 6080.218262 
110.060913 4897.84668 
110.090485 2893.362305 
110.097374 46205.171875 
112.075996 111004.984375 
112.082695 1447.214233 
112.847435 2620.745605 
114.0914 113035.148438 
114.098251 2121.772949 
115.100128 3190.200928 
120.080635 92558.460938 
122.060516 3376.241699 
123.044937 7061.049805 
124.075401 4018.635254 
125.060043 12396.808594 
128.107727 9640.998047 
130.08577 13610.966797 
138.091949 83039.976562 
138.102707 3012.297363 
140.069229 3617.345947 
150.054825 9326.026367 
152.071198 5860.682617 
156.102158 85234.460938 
157.891342 2847.422852 
160.665421 2415.220947 
163.063995 2834.625977 
166.049057 36849.226562 
174.112869 938135.0625 
175.11438 13042.508789 
176.117371 4771.399414 
178.050735 156940.328125 
178.066528 5128.187988 
191.233856 2711.20459 
193.060471 7527.584473 
194.044113 18064.363281 
196.062195 13484.274414 
221.0354 4782.686035 
221.057068 40806.550781 
240.099487 2350.741943 
257.12738 3359.537842 
270.097198 3150.566162 
285.121124 177494.96875 
285.157593 3937.449707 
302.584198 2433.460205 
303.134186 528854.875 
304.137787 4380.473633 
370.357758 2546.313965 
483.532837 2775.545898 
END IONS

