BEGIN IONS
PEPMASS=155.07
CHARGE=1+
COMPOUNDNAME=terrein
LIBRARYQUALITY=3
SMILES=N/A
INCHIKEY=MHOOPNKRBMHHEC-HZIBQTDNSA-N
INCHI=InChI=1S/C8H10O3/c1-2-3-5-4-6(9)8(11)7(5)10/h2-4,7-8,10-11H,1H3/b3-2+/t7-,8-/m0/s1
MSLEVEL=2
SOURCE_INSTRUMENT=N/A-ESI-QFT
FILENAME=library_mgf.mgf
SEQ=*..*
IONMODE=positive
ORGANISM=MONA
NAME=terrein [M+H]+
PI=MoNA
DATACOLLECTOR=MoNA:VF-NPL-QEHF021220
PUBMED=N/A
SUBMITUSER=mwang87
TAGS=
SPECTRUMID=CCMSLIB00004712283
SCANS=21220
50.124401 0.001524 
50.304604 0.002173 
50.464211 0.000888 
50.514561 0.002355 
50.532169 0.00122 
50.697815 0.002148 
50.855225 0.000921 
51.207924 0.001847 
51.259869 0.000976 
51.356667 0.001081 
51.364437 0.001184 
51.476543 0.014724 
51.61005 0.00107 
51.8381 0.001257 
51.883728 0.001168 
52.051376 0.001301 
52.57148 0.002195 
53.219006 0.001254 
53.249031 0.001254 
53.332146 0.001953 
53.334572 0.001143 
53.570091 0.002465 
54.252121 0.001187 
54.409142 0.001005 
54.569901 0.001422 
54.64782 0.002785 
54.654217 0.001176 
54.664616 0.002313 
55.054592 0.001769 
55.322807 0.001401 
55.335358 0.000951 
55.853554 0.001697 
55.944565 0.001483 
56.159496 0.001663 
56.47242 0.002108 
56.584343 0.001059 
56.707031 0.002028 
56.799587 0.00135 
56.925362 0.001675 
56.965042 0.447365 
57.070145 0.001241 
57.285229 0.001541 
57.650696 0.001442 
57.720306 0.001086 
57.755642 0.001494 
57.842354 0.002727 
58.065407 0.103189 
58.256268 0.002137 
58.986717 0.002485 
58.988251 0.421201 
59.049244 0.001116 
59.624981 0.002006 
59.930626 0.001535 
59.97768 0.004594 
59.986023 0.034425 
60.046223 0.001167 
60.120129 0.002359 
60.481625 0.08627 
60.761086 0.001417 
61.01088 0.571921 
61.167889 0.001253 
61.276173 0.002377 
61.386276 0.001102 
61.857101 0.0024 
62.018669 0.25911 
62.207565 0.001307 
62.437851 0.001363 
62.595516 0.002962 
62.990124 0.146414 
63.883717 0.002455 
63.942776 0.001319 
63.997917 0.859407 
64.045235 0.002683 
64.131172 0.002135 
64.166489 0.002523 
64.231445 0.002828 
64.906075 0.002217 
65.239235 0.001289 
65.241173 0.001245 
65.453056 0.002894 
65.644096 0.003121 
66.681282 0.000869 
66.707886 0.001878 
66.950745 0.00118 
67.05439 0.035226 
67.077431 0.002567 
67.273964 0.001264 
67.745171 0.002861 
67.991051 0.006145 
67.993019 1.033992 
68.221535 0.002464 
68.399208 0.001482 
68.492821 0.003139 
68.494904 0.02861 
68.639832 0.002226 
68.982742 0.0028 
68.991119 0.103471 
69.06987 0.00147 
69.454514 0.002486 
69.486603 0.319937 
69.519325 0.002628 
69.989738 0.013686 
70.210564 0.001072 
70.347275 0.002417 
70.484856 0.001438 
70.735344 0.001282 
70.936348 0.002563 
71.018852 0.000888 
71.329552 0.001723 
71.415825 0.002339 
71.437569 0.001258 
71.582253 0.00131 
72.237495 0.002818 
72.802406 0.001244 
73.015236 0.002306 
73.076073 0.033613 
73.270256 0.00245 
73.370331 0.002502 
73.851128 0.001041 
74.024925 0.001475 
74.438675 0.004182 
74.662827 0.00266 
74.930962 0.011153 
74.975426 0.062593 
75.000839 0.002725 
75.710571 0.001534 
76.353584 0.001849 
76.927956 0.183044 
76.944412 0.001137 
76.998238 3.677559 
77.23114 0.001534 
77.497925 0.015573 
77.50016 0.132916 
77.539391 0.002995 
77.987885 0.020474 
77.99408 0.002736 
77.996178 0.375842 
78.000496 0.006118 
78.013519 0.080543 
78.273529 0.001233 
78.491837 0.335307 
78.718834 0.001192 
78.941078 0.001539 
78.994835 0.149882 
79.016991 0.037871 
79.02124 33.912895 
79.054245 0.009469 
79.489822 0.003282 
79.512169 0.001111 
80.506233 0.001038 
80.934059 0.002777 
81.044708 0.003373 
81.069901 0.176205 
81.645164 0.001319 
82.361633 0.002594 
82.467422 0.01861 
82.567978 0.002122 
82.971306 0.045882 
83.049187 0.028058 
83.405388 0.001564 
84.006142 0.061129 
84.080788 0.228551 
84.247139 0.002758 
84.465034 0.001087 
84.651016 0.002996 
86.003586 5.825512 
86.117798 0.001816 
86.1996 0.002325 
86.502831 0.003132 
86.505447 0.137085 
87.001488 0.426836 
87.005699 0.008072 
87.497215 0.074319 
87.520798 0.001337 
87.52594 0.001579 
88.000046 0.149824 
88.473068 0.001102 
89.381134 0.001266 
89.978958 0.330253 
89.991646 0.001277 
90.479759 0.004772 
90.482841 1.881722 
90.977097 0.061681 
90.982155 0.003345 
90.984825 0.102031 
91.054199 0.016914 
91.057243 0.001564 
91.190033 0.001158 
91.480736 0.529798 
91.976517 0.132744 
92.479301 0.089899 
92.974281 0.007863 
93.011444 0.168817 
93.07 0.005011 
94.457291 0.00291 
95.008865 1.524594 
95.049255 0.013349 
95.085449 0.007287 
95.510727 0.008362 
95.790237 0.001726 
96.006752 0.074809 
96.011154 0.001265 
96.080772 0.003281 
96.415527 0.002275 
97.005424 0.006933 
97.065094 0.003888 
97.511551 0.004569 
97.579399 0.002661 
97.990479 0.00296 
97.994598 4.984959 
98.267754 0.001882 
98.490845 0.007006 
98.496719 0.567057 
98.793251 0.00234 
98.894035 0.001318 
98.984421 0.37731 
98.988983 0.003454 
98.992538 1.619815 
98.995827 0.07286 
99.154968 0.002872 
99.48822 12.764577 
99.524567 0.00147 
99.541656 0.001728 
99.609016 0.001189 
99.982277 0.05205 
99.987198 0.015359 
99.990623 0.923123 
99.994507 0.005311 
100.098862 0.002384 
100.486198 3.163802 
100.490044 0.152926 
100.981781 0.109708 
100.988007 0.029314 
101.484657 0.762364 
102.016594 0.008735 
102.429321 0.002301 
102.482674 0.016597 
103.226517 0.002613 
104.030907 0.00414 
104.068085 0.002361 
105.366013 0.001843 
105.414543 0.003264 
106.496132 0.347882 
106.993118 0.049783 
107.0 47.220928 
107.353592 0.001107 
107.385178 0.001187 
107.493858 0.038683 
107.501938 5.947785 
107.830734 0.001225 
107.98967 0.609376 
107.997849 15.424675 
108.26162 0.001604 
108.493454 35.881706 
108.501915 0.009681 
108.504395 0.000849 
108.987305 0.040393 
108.996262 5.371572 
109.002289 0.0022 
109.06469 0.056574 
109.101089 0.009144 
109.350822 0.001514 
109.491409 8.838271 
109.495377 0.433326 
109.717529 0.001156 
109.987015 0.0274 
109.993835 0.347831 
109.997978 0.006929 
110.028702 0.001014 
110.071297 0.478994 
110.096039 0.001364 
110.489845 2.175295 
110.99118 0.005929 
110.995193 0.139155 
111.417732 0.001297 
111.487831 0.14647 
111.787956 0.001601 
112.087654 0.000923 
112.488533 0.066324 
112.82048 0.003092 
114.007874 1.200266 
114.509529 0.129001 
114.912071 0.002076 
114.986336 0.0011 
115.005859 0.419214 
115.494232 0.003189 
115.501503 1.178304 
115.505951 0.006458 
115.664337 0.002789 
115.997803 0.046 
116.005257 100.0 
116.156136 0.001206 
116.347702 0.007154 
116.485512 0.008224 
116.495186 0.00156 
116.506836 13.918036 
116.966537 0.001307 
117.003036 33.350765 
117.006798 1.798011 
117.012909 0.001082 
117.015991 0.004378 
117.038406 0.001964 
117.491844 0.006165 
117.498657 6.205367 
117.504196 1.496886 
117.509071 0.014033 
117.975456 0.000874 
118.001488 9.024573 
118.334091 0.001183 
118.395744 0.003094 
118.496681 1.53541 
118.503059 0.259091 
118.507927 0.141711 
118.704727 0.001015 
118.948616 0.001347 
118.999573 0.649241 
119.003777 0.027904 
119.009521 0.006072 
119.36985 0.00131 
119.495171 0.383802 
119.499428 0.003937 
119.505707 0.020183 
119.664429 0.003284 
120.000443 0.41671 
120.493088 0.003172 
120.504654 0.001264 
120.999161 0.003524 
122.060066 0.002154 
122.07106 0.001047 
122.245537 0.001897 
123.013046 3.373061 
123.367188 0.002901 
123.514908 0.45027 
124.011017 1.083122 
124.015396 0.064669 
124.281761 0.001853 
124.474564 0.001327 
124.506569 0.153154 
124.512039 0.021059 
124.968178 0.002942 
125.010529 6.768025 
125.046921 0.001241 
125.490364 0.049835 
125.505104 0.02468 
125.51223 0.894956 
126.008362 2.201234 
126.0438 0.038261 
126.498718 0.003065 
126.504021 0.016846 
126.509872 0.061922 
126.848747 0.001343 
127.006851 0.571707 
127.513168 0.394954 
128.004974 0.014899 
128.01474 0.024118 
128.511154 0.092057 
128.715958 0.00165 
129.005646 0.00267 
129.377121 0.001987 
129.48996 0.421256 
129.509399 0.001801 
129.991592 0.053195 
130.487762 0.284062 
130.981796 0.015191 
131.018524 0.00257 
131.486038 0.012025 
131.812149 0.001199 
132.018219 0.149799 
132.484512 0.001811 
133.016342 0.011518 
134.148819 0.001196 
134.768356 0.001433 
134.978699 0.198891 
135.297195 0.003027 
135.540192 0.002587 
136.075729 0.042025 
136.224777 0.001463 
137.001678 0.668467 
137.010941 0.002545 
137.059753 0.071123 
137.107437 0.001482 
137.415878 0.002858 
137.503128 0.194667 
137.999512 0.50676 
138.09137 0.001503 
138.495224 0.738536 
138.500198 0.01838 
138.997223 0.221975 
139.492966 0.484605 
139.923859 0.005932 
140.491577 0.066175 
140.984665 0.007383 
141.417847 0.001218 
144.657471 0.001118 
146.006958 0.723695 
146.508438 0.252989 
147.00473 0.50818 
147.507736 0.002431 
148.003174 0.070882 
148.097244 0.001154 
148.183563 0.002792 
148.350449 0.001183 
148.601837 0.001873 
148.856049 0.001324 
149.129257 0.001278 
151.789017 0.002973 
152.147781 0.001868 
152.449722 0.001715 
152.636719 0.003875 
152.941269 0.040648 
152.989395 0.044881 
153.057098 0.008911 
153.102905 0.002003 
153.138336 0.001045 
153.959534 0.004989 
154.086273 0.533517 
154.097366 0.029984 
154.122635 0.029912 
154.134003 0.018632 
154.158813 0.003221 
154.947235 0.004071 
155.070374 0.007903 
155.082016 0.016029 
155.089554 0.023517 
155.11795 0.048945 
155.12944 0.003435 
155.154282 0.22545 
155.955582 0.001764 
156.076767 0.108804 
156.101913 0.465979 
156.113373 0.01592 
156.138412 0.041977 
156.15773 0.0053 
157.083496 0.056891 
157.097229 0.013483 
157.10939 0.00136 
157.170074 0.062625 
157.951111 0.002476 
164.333389 0.002844 
168.961334 0.001633 
169.626404 0.001072 
170.952057 0.042986 
171.043594 0.002478 
171.959763 0.002909 
172.802475 0.002644 
172.951721 0.003537 
175.181885 0.001208 
176.930679 0.001319 
177.47142 0.001427 
178.194153 0.001385 
END IONS

