BEGIN IONS
TITLE=Scan Number: 1
PEPMASS=669.422
CHARGE=1+
COMPOUNDNAME=Monensin - CASMI2016 Category 1 - Challenge 19
LIBRARYQUALITY=3
SMILES=CCC1(CCC(O1)C2(CCC3(O2)CC(C(C(O3)C(C)C(C(C)C(=O)O)OC)C)O)C)C4C(CC(O4)C5C(CC(C(O5)(CO)O)C)C)C
INCHIKEY=GAOZTHIDHYLHMS-GDMSFIFLSA-N
INCHI=InChI=1S/C36H62O11/c1-10-34(31-20(3)16-26(43-31)28-19(2)15-21(4)36(41,18-37)46-28)12-11-27(44-34)33(8)13-14-35(47-33)17-25(38)22(5)30(45-35)23(6)29(42-9)24(7)32(39)40/h19-31,37-38,41H,10-18H2,1-9H3,(H,39,40)/t19-,20+,21+,22+,23+,24+,25-,26-,27+,28-,29-,30-,31-,33+,34-,35+,36-/m0/s1
MSLEVEL=2
SOURCE_INSTRUMENT=LC-ESI-Orbitrap
FILENAME=f.MSV000079573/peak/CASMI 2016 peak list mgf/Challenge-Cat1-19.mgf;
SEQ=*..*
NOTES=
IONMODE=Negative
ORGANISM=GNPS-LIBRARY
NAME=Monensin - CASMI2016 Category 1 - Challenge 19 M-H
SPECTRUMID=CCMSLIB00000579308
ACTIVATION=CID
INSTRUMENT=ion trap
SCANS=1
135.081696 4018.899902 
137.097 25494.199219 
153.092194 9603.599609 
194.304001 4055.5 
276.241699 3781.600098 
318.017395 4166.600098 
507.153107 4322.600098 
637.393799 27241.0 
669.421875 515574.0 
END IONS

