BEGIN IONS
PEPMASS=1439.78
CHARGE=1+
COMPOUNDNAME=BACITRACIN
LIBRARYQUALITY=3
SMILES=N/A
INCHIKEY=CLKOFPXJLQSYAH-NVOBBBONSA-N
INCHI=InChI=1S/C66H103N17O16S/c1-9-35(6)52(69)66-81-48(32-100-66)63(97)76-43(26-34(4)5)59(93)74-42(22-23-50(85)86)58(92)83-53(36(7)10-2)64(98)75-40-20-15-16-25-71-55(89)46(29-49(68)84)78-62(96)47(30-51(87)88)79-61(95)45(28-39-31-70-33-72-39)77-60(94)44(27-38-18-13-12-14-19-38)80-65(99)54(37(8)11-3)82-57(91)41(21-17-24-67)73-56(40)90/h12-14,18-19,31,33-37,40-48,52-54H,9-11,15-17,20-30,32,67,69H2,1-8H3,(H2,68,84)(H,70,72)(H,71,89)(H,73,90)(H,74,93)(H,75,98)(H,76,97)(H,77,94)(H,78,96)(H,79,95)(H,80,99)(H,82,91)(H,83,92)(H,85,86)(H,87,88)/t35?,36?,37?,40-,41+,42+,43-,44+,45-,46-,47+,48?,52?,53-,54-/m0/s1
MSLEVEL=2
SOURCE_INSTRUMENT=N/A-ESI-QFT
FILENAME=library_mgf.mgf
SEQ=*..*
IONMODE=positive
ORGANISM=MONA
NAME=BACITRACIN [M+NH4]+
PI=MoNA
DATACOLLECTOR=MoNA:VF-NPL-QEHF027779
PUBMED=N/A
SUBMITUSER=mwang87
TAGS=
SPECTRUMID=CCMSLIB00004721360
SCANS=27779
100.021248 0.006939 
100.075584 0.01431 
100.112144 0.026504 
101.107384 0.461209 
102.001007 0.005584 
102.054993 7.248239 
102.091461 0.129488 
103.054253 0.825748 
103.058258 0.3028 
103.061584 0.005478 
104.016075 0.004937 
105.069832 0.186275 
106.065086 0.026568 
107.060471 0.121776 
108.044418 0.030892 
108.055595 0.294996 
108.068115 0.018436 
108.080734 0.182379 
109.039726 0.040587 
109.059898 0.005202 
109.063683 0.225565 
109.076118 0.492228 
109.755302 0.007787 
110.024467 0.014826 
110.064178 0.245689 
110.071182 100.0 
110.089584 0.005342 
110.095963 0.125268 
110.387894 0.018172 
111.055244 0.411936 
111.068275 1.220454 
111.074532 6.48989 
111.091576 2.429578 
111.098907 0.007748 
111.985527 0.011143 
112.050468 0.005581 
112.07148 0.044467 
112.075447 1.021757 
112.086861 0.374049 
112.095001 0.115843 
112.111977 0.166735 
113.07093 0.2597 
113.078812 0.024585 
113.107269 0.49032 
114.055046 0.029969 
114.06604 0.006894 
114.0914 0.219213 
114.102669 0.51977 
115.050194 0.056198 
115.054245 0.183211 
115.086586 7.413467 
115.122856 0.021446 
116.01651 0.065324 
116.053162 0.0269 
116.057449 0.006166 
116.070625 0.255735 
116.083611 0.007846 
116.089867 0.44668 
117.057304 0.023902 
117.069862 0.021557 
118.064697 0.085382 
118.068748 0.030857 
119.060379 0.053993 
119.072838 0.005924 
119.119598 0.021598 
120.055687 0.737872 
120.080734 9.803477 
121.039597 0.905622 
121.058968 0.022948 
121.076096 0.191352 
121.084038 0.921176 
122.042915 0.025717 
122.05986 0.096154 
122.07122 1.24521 
122.083496 0.007076 
122.096481 0.058865 
123.055237 1.091856 
123.074333 0.039829 
123.091614 0.382837 
124.039192 0.091488 
124.050575 0.016214 
124.05909 0.048728 
124.075722 0.175048 
124.086876 0.507998 
124.094925 0.00615 
124.112114 0.097527 
125.034843 0.037949 
125.041817 0.007403 
125.070992 0.434818 
125.10733 0.401564 
126.037193 0.018188 
126.066193 0.075876 
126.091248 0.128269 
127.032394 0.006254 
127.050117 0.222305 
127.086548 0.39693 
127.122871 0.10417 
128.052994 0.04774 
128.070557 0.032411 
128.118286 0.066496 
129.011642 0.093843 
129.06572 0.585658 
129.102127 14.551495 
129.995651 0.15756 
130.049881 0.473088 
130.065002 0.628107 
130.086227 0.234758 
130.09996 0.052922 
130.105499 1.107017 
131.027222 0.210522 
131.049118 0.073523 
131.060669 0.005601 
131.068542 0.012106 
131.117767 0.218442 
131.993103 0.005795 
132.08075 0.352296 
132.113037 0.012822 
132.253815 0.013333 
133.014008 0.007621 
133.063629 0.548215 
133.076035 0.032845 
134.071442 0.124561 
134.09639 0.074856 
135.05481 0.012739 
135.091568 0.93873 
136.050537 0.268346 
136.07576 1.493099 
136.086884 3.611857 
136.099442 0.015819 
136.111984 0.218758 
137.0345 0.015574 
137.07103 0.427961 
137.082611 0.128562 
137.090057 0.251878 
137.107178 1.256814 
138.055527 0.024348 
138.066132 3.88013 
138.085205 0.008492 
138.091232 0.435286 
138.102463 0.210417 
138.110443 0.033336 
138.12767 0.93015 
139.050293 0.126853 
139.069626 0.266282 
139.086502 7.78716 
139.122833 0.201337 
139.131104 0.033874 
140.034149 0.014071 
140.052856 0.059731 
140.070679 0.032062 
140.08342 0.033295 
140.089813 0.685946 
140.106827 0.372482 
140.118118 0.14607 
140.14325 0.129422 
141.011612 0.167699 
141.06572 0.104621 
141.102081 1.135352 
141.108521 0.010377 
142.043427 0.063962 
142.05014 0.006048 
142.061417 0.111844 
142.068466 0.285799 
142.08638 0.02828 
142.097763 0.062633 
142.105392 0.048494 
143.027313 0.152781 
143.045059 0.835946 
143.06395 0.010522 
143.081436 0.166096 
144.048325 0.006783 
144.0802 0.043773 
144.112259 0.007926 
145.076141 0.018979 
146.060303 0.037443 
146.071259 0.090344 
146.083862 0.006233 
146.096359 0.230496 
146.128738 0.927125 
147.055252 0.047989 
147.091751 0.06827 
147.112946 0.056536 
147.13179 0.01969 
148.050476 0.413331 
148.06012 0.014792 
148.075394 0.044132 
148.086868 0.336726 
148.099396 0.007259 
148.111694 0.00636 
149.071075 0.142521 
149.082245 0.05389 
149.0905 0.006851 
149.107254 0.229278 
149.581909 0.005623 
150.054932 0.048512 
150.066071 0.124007 
150.090759 0.042651 
150.1026 0.135712 
150.127777 0.015674 
151.050049 0.055238 
151.057098 0.005332 
151.086472 0.31006 
151.110474 0.0067 
151.122925 0.192694 
152.034317 0.016351 
152.045914 0.005154 
152.052597 0.027537 
152.071045 0.025563 
152.081863 0.185623 
152.106995 0.362529 
152.118179 0.101246 
152.143341 0.508544 
153.065826 0.034305 
153.102112 1.283507 
153.13858 0.168793 
153.145493 0.006032 
154.04335 0.005606 
154.061432 0.074562 
154.068375 0.207408 
154.086197 0.13232 
154.097794 0.03187 
154.105255 0.043581 
154.122375 0.021979 
154.13382 0.204544 
154.158936 0.398718 
155.044846 0.005768 
155.064011 0.014993 
155.081589 0.031904 
155.092575 1.969768 
155.117706 1.649335 
155.154358 0.013964 
156.02269 0.005996 
156.076553 1.20702 
156.095993 0.043212 
156.101715 0.101672 
156.113098 2.474561 
156.120285 0.073286 
157.060822 0.093301 
157.079819 0.045101 
157.097076 0.388736 
157.116562 0.162376 
157.133347 0.0281 
158.044647 0.012181 
159.003128 0.005434 
159.07634 0.005589 
159.091431 0.303278 
159.113144 0.006087 
160.075714 0.013898 
160.08699 0.135673 
160.094009 0.006435 
161.081665 0.025067 
161.107239 0.07837 
162.066071 0.519545 
162.091248 0.009671 
162.102448 3.227734 
162.127365 0.00729 
163.086487 3.520045 
163.098083 0.22524 
163.105911 0.281232 
163.122787 0.449828 
164.045395 0.070488 
164.070496 2.566031 
164.081894 1.727437 
164.089737 0.290111 
164.106659 0.006758 
164.11824 0.395548 
164.143295 0.007066 
165.066086 0.019153 
165.067749 0.019899 
165.077225 2.171084 
165.084961 0.117247 
165.102188 1.261655 
165.113495 0.140449 
165.138626 0.630164 
166.060989 8.127067 
166.079391 0.031731 
166.086411 0.174217 
166.097641 0.334641 
166.105133 0.107303 
166.122604 0.311481 
166.133789 0.405804 
166.141495 0.047228 
167.045181 0.245934 
167.057281 0.049278 
167.064392 0.897471 
167.08136 0.869389 
167.11795 0.467587 
167.125488 0.026648 
167.154266 0.355676 
168.047882 0.06633 
168.065903 0.028619 
168.101669 0.382519 
168.11319 0.060778 
168.13797 0.022684 
168.149551 0.118245 
168.157425 0.009819 
169.060516 0.049494 
169.079422 0.102965 
169.097214 0.120836 
169.133499 0.441565 
169.169647 0.015016 
170.055801 0.081359 
170.063553 0.089577 
170.117432 0.297781 
170.128677 0.00589 
170.136551 0.006644 
171.040176 0.024404 
171.059097 0.008256 
171.094681 0.053129 
171.112915 0.027039 
172.071518 0.051653 
172.07901 0.727258 
172.086716 0.049715 
172.096848 0.02084 
172.111969 0.223781 
173.071472 0.006278 
173.082504 0.031203 
173.107315 0.007705 
173.115723 0.007076 
174.066223 0.113201 
174.074371 0.006912 
174.1026 0.079733 
174.127502 0.021413 
175.086533 0.62617 
175.097244 0.029633 
175.123032 0.027475 
176.055313 0.012688 
176.069992 0.018891 
176.081787 0.18658 
176.089706 0.038563 
176.118149 1.579833 
177.065796 0.031397 
177.076233 0.007613 
177.102219 0.079678 
177.113495 0.010241 
177.121582 0.058813 
177.138474 0.929221 
178.061081 0.042947 
178.097458 0.162138 
178.133728 1.867181 
178.141373 0.099905 
179.081665 0.201268 
179.092728 0.285594 
179.117889 0.806641 
179.12738 0.028629 
179.137253 0.095186 
179.154221 0.215046 
180.076569 0.597515 
180.104004 0.009533 
180.112976 1.222062 
180.120865 0.053823 
180.140747 0.005624 
180.149338 0.482116 
180.157196 0.007562 
181.081604 0.025212 
181.097153 7.60198 
181.108261 6.87197 
181.133209 1.356447 
181.153229 0.007501 
181.169907 0.080223 
182.000748 0.00564 
182.055969 0.006223 
182.064041 0.006348 
182.081451 0.245996 
182.092209 0.071543 
182.100723 0.806992 
182.111771 0.587396 
182.128693 0.32387 
182.136978 0.114702 
182.16507 1.557256 
183.058945 0.037751 
183.087509 0.052233 
183.103851 0.007387 
183.112778 1.133667 
183.149033 3.033884 
183.168472 0.14618 
184.042633 0.068833 
184.061325 0.028179 
184.071426 0.159105 
184.097076 0.059178 
184.107986 0.314226 
184.116501 0.017441 
184.144592 0.006965 
184.152527 0.335305 
184.180756 0.175731 
184.532333 0.014707 
185.000061 0.022255 
185.055542 1.637021 
185.074173 0.832559 
185.092041 0.257293 
185.107269 0.034706 
186.058716 0.394043 
186.077087 0.0833 
186.092682 0.011624 
186.127518 0.378161 
186.159988 0.018075 
187.061401 0.008316 
187.070328 0.066848 
187.089722 1.209308 
187.106613 0.007819 
187.131317 0.018463 
187.906921 0.005075 
188.073807 0.020416 
188.093216 0.053638 
188.118195 0.067037 
188.14328 0.691217 
189.067184 0.006039 
189.077194 0.36262 
189.085648 0.021789 
189.104446 0.362346 
189.113495 0.436319 
189.138412 0.024452 
189.146576 0.036211 
190.060852 0.898375 
190.08812 0.009776 
190.097397 0.480065 
190.106995 0.045837 
190.133698 0.699495 
191.064835 0.043256 
191.081635 0.719929 
191.092697 2.138066 
191.117661 1.413234 
191.12735 0.058104 
191.15416 0.058624 
192.07666 0.238742 
192.085968 0.054486 
192.096069 0.126972 
192.112885 0.298736 
192.12146 0.103382 
192.149353 0.93982 
193.071884 0.296707 
193.097153 0.367625 
193.107773 0.09725 
193.133392 3.588244 
193.153809 0.028988 
194.055817 0.007412 
194.092255 0.375427 
194.119797 0.005652 
194.128418 0.29311 
194.137115 0.411947 
194.165054 0.220432 
195.040054 0.413589 
195.058365 0.047222 
195.076263 0.142049 
195.092087 0.198087 
195.112656 0.526706 
195.149246 0.312142 
196.043472 0.162717 
196.071457 0.024585 
196.089569 0.01143 
196.108002 0.158096 
196.116821 0.016001 
196.144257 1.021487 
196.180634 0.308165 
197.056229 0.021171 
197.074326 1.399008 
197.091751 0.085856 
197.108109 0.050135 
197.118195 0.010894 
197.128311 2.056702 
197.13855 0.011621 
197.148193 0.028306 
197.164627 0.401395 
197.183899 0.011634 
198.058578 0.403352 
198.077332 0.098928 
198.123428 5.105823 
198.159332 0.016207 
198.168167 0.006307 
198.97821 0.00725 
199.05394 0.041532 
199.071548 0.173811 
199.089798 6.257363 
199.107452 0.614156 
199.127045 0.556529 
199.143463 0.017171 
199.18042 0.007289 
200.037445 0.179189 
200.073685 0.099503 
200.093369 0.705089 
200.109253 0.013071 
200.128326 0.014041 
200.14122 0.027728 
200.175629 0.434037 
201.068466 0.010026 
201.08577 0.308512 
201.113831 0.023744 
201.123215 0.183632 
201.179565 0.006612 
202.082001 0.423477 
202.097672 0.011413 
203.066391 0.041156 
203.08223 0.007723 
203.118591 0.013657 
203.129044 0.224508 
203.1539 0.015819 
204.077057 0.007136 
204.088486 0.015826 
204.113113 0.169809 
204.149368 0.11642 
205.097107 0.041027 
205.108078 0.035448 
205.133621 0.122076 
205.144165 0.027366 
206.092728 0.046583 
206.103531 0.180085 
206.128754 0.608837 
206.155029 0.010679 
206.165115 1.909392 
207.076508 0.008245 
207.087387 1.772061 
207.112579 0.622669 
207.124023 2.296933 
207.149231 0.6751 
207.159851 0.09649 
207.172775 0.291786 
208.071762 0.561737 
208.090866 0.085317 
208.09613 0.046504 
208.107758 1.958422 
208.11792 0.048762 
208.126938 0.173206 
208.14418 1.867725 
208.180771 1.19317 
209.0746 0.118294 
209.092117 1.57258 
209.102661 0.161386 
209.111938 0.192915 
209.128357 1.061902 
209.147858 0.171026 
209.164871 0.208812 
209.184448 0.097659 
210.086761 0.095258 
210.095978 0.081014 
210.105927 0.007752 
210.114166 0.015583 
210.123413 0.907133 
210.159851 7.269049 
210.649734 0.005524 
211.053421 0.084462 
211.090088 0.017658 
211.107895 0.356796 
211.12645 0.066927 
211.144257 0.930254 
211.163406 0.931668 
212.011719 0.007239 
212.037369 0.163393 
212.066666 0.496788 
212.085297 0.018295 
212.105576 0.038368 
212.118073 8.229248 
212.14769 0.027747 
212.165421 0.00826 
212.175705 0.027456 
213.040878 0.016542 
213.050751 0.720078 
213.068939 1.481869 
213.087067 0.01541 
213.104996 0.007446 
213.121719 1.302069 
213.140335 0.049778 
214.053162 2.803788 
214.072067 0.12842 
214.100571 0.157889 
214.123856 0.045015 
214.134338 0.016692 
214.154922 0.198427 
215.056244 0.202947 
215.066238 0.031695 
215.084595 0.450289 
215.138916 3.500154 
215.152603 0.06322 
216.048813 0.082585 
216.068649 0.03634 
216.087601 0.009113 
216.113358 0.040593 
216.142151 0.371699 
217.071899 0.937065 
217.098175 0.35577 
217.109268 0.378609 
217.133499 0.402482 
217.144287 0.10572 
217.169312 0.055202 
218.056213 0.316722 
218.07486 0.034099 
218.092285 0.006874 
218.102585 0.009387 
218.112411 0.007278 
218.128464 0.185632 
218.165009 0.159302 
219.059982 0.010884 
219.077103 0.007104 
219.087341 0.028195 
219.113037 0.050702 
219.123169 0.035581 
219.149002 0.285506 
219.159927 0.015156 
220.107498 0.070985 
220.144241 0.389629 
220.180588 2.539597 
221.077576 0.635323 
221.090073 0.026928 
221.128326 0.204766 
221.139633 0.198638 
221.164749 0.139649 
221.187668 0.526896 
222.088654 0.006287 
222.102722 0.331697 
222.123718 0.184339 
222.159958 0.209512 
222.196396 2.161771 
223.072952 0.020323 
223.107285 0.212963 
223.143936 0.048052 
223.154572 0.018741 
223.180542 0.336412 
223.200058 0.2321 
224.065552 0.014811 
224.085388 0.082877 
224.10495 0.021976 
224.118179 1.86928 
224.138748 0.865846 
224.17543 0.93123 
225.069168 1.860661 
225.086609 0.012055 
225.097916 1.56171 
225.122726 0.901511 
225.134521 0.419185 
225.159424 0.133297 
225.170975 0.439228 
226.072327 0.1778 
226.106491 0.120701 
226.118164 2.001238 
226.154739 0.676409 
227.065216 0.080804 
227.084686 2.330025 
227.102554 0.142943 
227.12146 0.222863 
227.138992 0.028524 
227.156235 0.049995 
228.068665 0.008231 
228.088028 0.172397 
228.134628 0.029516 
228.157974 0.007927 
228.170517 1.829548 
229.063705 0.036948 
229.080933 0.029885 
229.119507 0.00634 
229.133209 0.058902 
229.15506 0.094176 
229.173798 0.236959 
230.077164 1.071168 
231.061264 0.089204 
231.080261 0.039847 
231.112488 0.024777 
231.124084 0.176074 
231.14917 0.408692 
232.107468 0.050413 
232.119064 0.016234 
232.143433 0.051101 
232.154343 0.008601 
232.180817 0.130146 
233.067078 0.007261 
233.091904 0.128451 
233.103577 0.014601 
233.128189 0.075505 
233.140167 0.08608 
233.164734 1.361783 
234.035019 0.032912 
234.098434 1.483965 
234.112869 0.005635 
234.12355 0.50904 
234.134338 0.053558 
234.159225 1.208157 
234.196442 0.068128 
235.082367 10.000885 
235.105057 0.068463 
235.118912 0.081692 
235.143936 0.486637 
235.155548 0.428341 
235.180862 0.013931 
235.19133 0.008122 
235.846909 0.021117 
236.066711 0.835495 
236.086014 1.279168 
236.102905 0.941013 
236.13887 1.315865 
236.160889 0.025873 
236.175598 0.448617 
237.06929 0.14443 
237.086731 0.207954 
237.097305 0.268285 
237.109543 0.00727 
237.120911 0.008341 
237.131775 0.094039 
237.143005 0.154637 
237.159363 0.083256 
237.170746 0.023593 
238.100784 0.038592 
238.119339 0.17083 
238.137375 0.082603 
238.154785 1.263091 
238.167374 0.024093 
238.191559 0.014454 
239.048508 0.006539 
239.084518 0.159071 
239.101715 0.046977 
239.116486 0.040802 
239.129227 0.684886 
239.141129 0.011099 
239.158234 0.14438 
240.061401 0.047956 
240.080185 0.007942 
240.099701 0.012756 
240.113129 0.970098 
240.133133 0.167558 
240.152786 0.247638 
240.170853 0.022663 
241.045609 0.068007 
241.063538 0.018707 
241.081955 0.006768 
241.097168 0.006964 
241.117813 0.282053 
241.132462 0.02679 
241.144974 0.239259 
241.156097 0.022982 
242.094543 0.111777 
242.128494 0.060924 
242.149445 0.14323 
242.162323 0.012949 
242.186066 0.377507 
243.087646 0.125712 
243.133926 2.897501 
243.147766 0.997087 
243.181229 2.478521 
244.092773 0.073915 
244.13765 0.180924 
244.151947 0.062808 
244.166046 0.006402 
244.185104 0.297848 
245.07753 0.140535 
245.091202 0.058754 
245.139832 0.033043 
245.164917 0.032823 
246.098587 0.197923 
246.123398 0.022859 
246.159409 0.084099 
247.057312 0.015471 
247.104706 0.016407 
247.1185 0.018981 
247.142761 0.072812 
247.155487 0.131748 
247.191833 0.011219 
248.087952 0.007564 
248.102631 0.03936 
248.138931 0.134575 
248.15239 0.027839 
248.175659 1.808859 
249.072495 0.480771 
249.121902 0.032808 
249.134872 0.05134 
249.15947 0.848846 
249.179825 0.132934 
249.208237 0.008867 
250.082291 0.00647 
250.097351 0.225071 
250.118286 0.312557 
250.140518 0.006804 
250.154175 0.120232 
250.165619 0.008514 
250.191208 0.295335 
251.084702 0.032217 
251.10112 0.067392 
251.121246 0.101552 
251.137878 0.008979 
251.150726 0.082942 
251.175232 0.164405 
251.187622 0.019852 
252.109055 4.866226 
252.133865 0.353064 
252.152985 0.3157 
252.170364 0.972532 
253.093033 22.279379 
253.116348 0.244477 
253.136246 0.8017 
253.154312 0.259167 
253.165848 4.48052 
254.059174 0.007241 
254.078629 0.008731 
254.096329 2.894626 
254.113434 0.842203 
254.137665 0.05211 
254.151184 0.030103 
254.169113 1.325097 
254.182358 0.011272 
255.078918 0.007402 
255.098099 0.322249 
255.122971 0.060774 
255.152451 0.129934 
255.171005 0.116042 
256.107239 0.024084 
256.12793 0.006656 
256.165558 0.195595 
257.139618 7.713359 
258.053192 0.007412 
258.072021 0.017259 
258.143463 1.353075 
258.158875 0.090282 
259.055786 0.027752 
259.118805 0.021907 
259.14444 0.122512 
259.179779 0.057302 
259.212494 0.015415 
260.101135 0.257493 
260.115662 0.316065 
260.138916 0.096525 
260.173035 0.531717 
261.072754 0.007181 
261.086639 0.121489 
261.134338 0.027375 
261.15863 0.451875 
261.172302 0.054191 
262.093353 0.438857 
262.11795 0.043389 
262.154419 0.520855 
262.190948 0.044993 
263.077362 2.784238 
263.101196 0.008865 
263.121765 0.037422 
263.136505 0.032454 
263.150269 0.244272 
263.174316 0.092338 
263.187408 0.018638 
264.080994 0.356485 
264.097015 0.050253 
264.133881 0.037537 
264.155182 0.031731 
264.170135 0.300674 
264.206757 0.008406 
265.065582 0.005676 
265.08194 0.015291 
265.097748 0.035958 
265.137085 0.735934 
265.202698 0.015822 
266.096588 0.014553 
266.150482 0.139294 
266.169067 0.010758 
266.186035 0.580824 
267.124908 3.688448 
267.151581 0.411798 
267.16803 0.030712 
267.189545 0.01951 
268.108002 9.484893 
268.126892 0.959397 
268.147644 0.197469 
268.201477 0.051458 
269.08905 0.016471 
269.111694 2.090342 
269.139099 0.305906 
269.166351 0.016356 
269.197357 0.280846 
270.119812 1.239448 
270.143646 0.059449 
270.163116 0.454976 
270.17984 0.049692 
271.103821 0.235971 
271.124908 0.100009 
271.142853 2.030947 
271.167328 0.009856 
272.105408 0.010563 
272.124329 0.059483 
272.146881 0.299054 
273.072723 0.048543 
273.13446 0.382837 
274.138306 0.024945 
274.166504 0.197852 
274.191223 0.017122 
275.073425 0.007084 
275.15033 0.030688 
275.17218 0.043978 
275.186768 0.182364 
275.223419 0.017421 
276.13269 0.017207 
276.146393 0.046601 
276.170288 0.409551 
276.207001 0.056964 
277.093262 0.164399 
277.130249 0.462966 
277.154083 0.224773 
277.168335 0.008712 
277.202728 0.030494 
278.112305 2.251207 
278.150085 0.156481 
278.186554 0.196987 
279.0802 0.027663 
279.097626 0.825817 
279.116516 0.868377 
279.145386 0.089233 
279.182465 0.257392 
279.217896 0.025232 
280.074677 0.027288 
280.103241 0.568572 
280.116608 0.025384 
280.130554 0.035055 
280.147644 0.530153 
280.165649 0.727518 
280.181519 0.054013 
280.201965 0.007558 
281.088287 2.597314 
281.131836 12.818493 
282.053009 0.007284 
282.075867 0.013509 
282.091492 0.323969 
282.108337 0.186091 
282.135071 2.627333 
282.163208 1.0106 
282.180298 0.078534 
283.094086 0.0148 
283.127411 0.51653 
283.147095 0.57973 
283.165588 0.033527 
283.201233 0.066379 
284.103333 0.033101 
284.132599 0.039598 
284.150482 0.708887 
284.178772 0.659801 
285.134644 19.715841 
285.16153 3.652421 
286.093109 0.055279 
286.138184 4.305562 
286.16568 0.704269 
286.190948 0.007733 
287.124908 0.015803 
287.140228 0.330864 
287.158569 0.08699 
288.110077 0.344141 
288.13385 0.092776 
288.169678 0.067169 
288.20752 0.007919 
289.092468 0.07816 
289.111237 0.012886 
289.15274 0.040465 
289.16803 0.008018 
289.201996 0.008441 
290.088379 0.029144 
290.131897 0.005711 
290.161896 0.367822 
290.186218 0.033966 
291.145477 0.018198 
291.164459 0.022522 
291.181976 0.036564 
291.217621 0.069784 
292.09201 0.007027 
292.12973 0.025273 
292.147858 0.21724 
292.165009 0.038778 
292.201569 0.085042 
293.140106 0.822453 
293.159271 0.037462 
293.184143 0.02718 
293.233429 0.013256 
294.121796 0.017602 
294.145081 0.474376 
294.162811 0.183114 
294.18045 0.556591 
294.197418 0.244791 
294.216522 0.06652 
295.119049 1.616047 
295.140411 2.500053 
295.16217 0.020564 
295.179871 0.141681 
295.19928 0.009637 
296.124084 2.74003 
296.142792 0.82251 
296.179352 0.007942 
296.196686 0.115254 
297.064758 0.013776 
297.10257 0.067147 
297.126831 1.292826 
297.144623 0.25075 
297.16153 0.026777 
297.193817 0.077681 
298.049438 0.009478 
298.128418 0.187508 
298.140076 0.176723 
298.158081 5.762969 
299.104065 0.00846 
299.122986 0.128269 
299.141907 0.992089 
299.161621 1.950443 
300.098999 0.022853 
300.12323 0.021446 
300.154022 0.505965 
301.114075 0.121594 
301.130737 0.036739 
301.15799 0.169684 
301.20282 0.013784 
302.114319 0.052244 
302.161835 0.296317 
302.180084 0.005768 
302.198639 0.00766 
302.222351 0.00638 
303.115753 0.195948 
303.144836 0.105259 
303.181671 0.076771 
303.218323 0.08655 
304.104065 3.034576 
304.144165 0.031398 
304.163086 0.029832 
304.184601 0.070134 
304.201263 0.06441 
305.088165 0.066238 
305.106964 0.491105 
305.124603 0.121006 
305.16095 0.868874 
305.197052 0.04436 
306.120819 0.635626 
306.144287 0.099366 
306.16333 0.18775 
306.193542 0.006256 
307.085785 0.006919 
307.123199 0.09249 
307.140686 0.032704 
307.176392 0.082685 
307.193665 0.017649 
307.213135 0.017726 
308.124298 0.060752 
308.142853 0.166386 
308.160645 0.109038 
308.179138 0.031972 
308.196869 0.118529 
309.126465 1.854716 
309.156311 0.017789 
309.173828 0.262479 
309.192139 0.007226 
310.106323 0.013487 
310.129089 0.226128 
310.159332 0.529903 
310.19223 0.008113 
310.212219 0.172555 
311.059235 0.040128 
311.104492 0.015355 
311.122986 0.019736 
311.14212 0.100608 
311.169708 0.015165 
311.190582 0.006664 
311.209106 0.009187 
311.243469 0.01331 
312.154785 0.368592 
312.173401 1.403925 
312.206421 0.144451 
313.074432 0.017294 
313.129822 0.605697 
313.15152 3.422883 
313.175323 0.069346 
313.192627 0.579084 
314.059052 0.068724 
314.086914 0.017863 
314.116455 0.006119 
314.134369 0.416618 
314.154572 0.612578 
314.193726 0.079277 
315.118286 0.009009 
315.155457 0.030655 
315.182343 0.023085 
315.201691 0.016314 
316.132446 0.817862 
316.165497 0.121531 
317.134735 0.070634 
317.197357 0.044886 
318.119843 0.007434 
318.15741 0.099084 
318.180237 0.048705 
319.101257 0.006625 
319.1203 0.038669 
319.13974 0.040924 
319.158905 0.009619 
319.192596 0.008002 
319.212891 0.174416 
319.249084 0.079841 
320.123444 0.050578 
320.174713 0.050397 
320.196045 0.027114 
320.245056 0.075912 
321.131287 0.37495 
321.154572 0.087687 
321.17334 0.024762 
321.191742 0.041405 
321.22821 0.134414 
322.114471 1.13398 
322.136719 0.174263 
322.188965 0.413076 
322.210358 0.017334 
323.079346 0.025377 
323.116882 0.109269 
323.135651 0.769193 
323.171295 0.857603 
323.18927 0.061854 
324.067902 0.006249 
324.11908 0.342659 
324.138 0.119221 
324.174622 0.125932 
324.20401 0.009496 
325.121368 0.468238 
325.151703 0.020917 
325.185608 0.028901 
325.202759 0.151065 
326.081146 0.051141 
326.124725 0.12786 
326.153137 1.086012 
326.187622 0.161997 
327.118622 0.035382 
327.136963 0.699728 
327.157623 0.235751 
327.18811 0.027739 
328.078735 0.008342 
328.13623 0.06931 
328.176331 0.359959 
328.199127 0.008899 
329.152618 0.091246 
329.178284 0.01571 
330.126373 0.008745 
330.147919 1.206308 
330.182739 0.020301 
330.217346 0.030652 
331.115662 0.3156 
331.151215 0.167108 
331.173157 0.038418 
331.21283 0.079303 
331.248322 0.011417 
332.098816 1.412738 
332.174744 0.01732 
333.081512 0.007626 
333.101837 0.183739 
333.123688 0.007644 
333.155426 0.122381 
333.192352 0.024889 
333.265015 0.090346 
334.156006 0.020864 
334.198151 0.006211 
334.222687 0.062213 
335.039185 0.053571 
335.088196 0.028603 
335.136353 0.006809 
335.187439 0.958836 
335.207428 0.085666 
336.088104 0.00657 
336.146088 0.180774 
336.167847 0.007443 
336.191101 0.520563 
337.082428 0.014485 
337.129517 0.341677 
337.150146 0.065029 
337.169769 0.018131 
337.200623 0.059616 
337.222229 0.035134 
338.135254 0.097184 
338.159821 0.418911 
338.206482 0.161928 
338.255432 0.395757 
339.14151 1.052337 
339.165161 0.263407 
339.213745 0.202341 
339.237823 0.021827 
339.258667 0.026557 
340.098816 0.041621 
340.144165 0.089919 
340.16452 0.200565 
340.200348 1.684269 
341.145905 0.734391 
341.184204 0.325177 
341.205688 0.253213 
342.092773 0.008241 
342.113007 0.01862 
342.148834 0.092372 
342.188599 0.086623 
342.211212 0.007085 
343.213348 0.007138 
344.127258 0.153848 
344.157501 0.0338 
344.197845 0.024113 
345.167328 0.020083 
345.202087 0.034386 
345.228058 0.056571 
346.149139 0.091691 
346.173462 0.00953 
347.11499 0.015543 
347.151764 0.019633 
347.209473 0.008762 
347.243774 0.329168 
348.09491 0.016721 
348.139801 0.006974 
348.16864 0.009501 
348.208344 0.086379 
348.240082 0.36328 
349.125488 7.527564 
349.187439 0.13265 
349.221893 0.025458 
349.243317 0.0178 
350.109253 3.888409 
350.129486 1.130006 
350.183167 0.263238 
350.221924 0.13316 
351.074463 0.007569 
351.111023 0.706413 
351.132477 0.230624 
351.164978 0.031479 
351.186005 0.028116 
352.113159 0.079046 
352.212891 0.207788 
352.235107 0.028415 
353.144104 0.008409 
353.162537 0.008337 
353.196533 0.017814 
353.217712 0.124041 
354.109985 0.050995 
354.156067 0.153613 
354.202576 0.029334 
354.228485 0.481667 
355.114502 0.005791 
355.140259 0.208238 
355.160767 0.007333 
355.233032 0.07238 
356.126862 0.561931 
356.17041 0.041022 
356.217224 0.067634 
356.26532 0.203033 
357.131226 0.020205 
357.19104 0.024689 
357.226074 0.666355 
357.267151 0.025288 
358.171906 0.646833 
358.210541 0.277986 
359.10968 0.081194 
359.152771 0.015905 
359.174225 0.097244 
359.213898 0.066352 
360.093933 0.633204 
360.135712 0.013871 
360.20282 0.010095 
361.097168 0.051094 
361.122101 0.062209 
361.185608 0.032422 
361.259613 0.30068 
362.154297 0.009347 
362.26004 0.034506 
363.1409 0.093543 
363.180664 0.265826 
363.202728 0.266073 
364.141388 0.350522 
364.185211 0.13179 
365.123749 1.282551 
365.188232 0.007529 
365.22998 0.007543 
366.12793 0.288539 
366.150696 0.021766 
366.192657 0.13977 
366.250031 0.341165 
367.135834 3.977917 
367.19751 0.17672 
367.252838 0.055511 
368.118896 0.181838 
368.140015 0.598554 
368.192719 0.412588 
369.141479 0.372136 
369.194916 0.018199 
369.226288 0.043892 
370.149628 0.275018 
370.222656 0.009837 
370.246429 0.009122 
371.156433 0.0199 
371.182404 0.194925 
372.165558 0.070087 
372.189362 0.008841 
372.235321 0.00717 
373.162354 0.015044 
373.189514 0.015657 
374.144653 0.006637 
375.200195 0.021818 
375.239288 0.161513 
376.106659 0.054529 
376.236084 0.058531 
377.092224 0.080617 
377.120239 0.921359 
377.14679 0.017112 
377.183014 0.018716 
377.221802 0.010404 
378.102844 1.178642 
378.145416 0.036355 
378.212067 0.038296 
378.247437 0.166696 
379.106964 0.265382 
379.13446 0.008492 
379.205505 0.090825 
380.135437 0.021138 
380.207825 1.434664 
381.114532 0.00816 
381.155121 0.007321 
381.16687 0.00914 
381.212708 0.811599 
382.095428 0.006497 
382.150635 2.613169 
382.192841 0.010395 
382.21463 0.075986 
383.133545 0.135725 
383.156372 0.623263 
384.13736 0.020957 
384.159882 0.047642 
384.202789 0.164816 
385.147247 0.089797 
385.201691 0.007895 
385.225861 0.007333 
386.167053 0.184204 
387.177399 0.527263 
388.159546 0.510134 
388.233429 0.018566 
389.165192 0.077156 
389.192169 0.13733 
389.21875 0.041048 
390.249908 0.070153 
391.171692 0.094772 
391.197601 0.041595 
392.20517 0.20137 
392.264954 0.009912 
393.221283 0.010086 
394.118896 0.009145 
394.180847 0.00947 
394.209595 0.128077 
395.13089 0.786208 
395.238129 0.499375 
396.134338 0.03058 
396.161011 0.007513 
397.162323 0.056572 
397.196106 0.006497 
398.218109 1.242353 
399.178284 0.323564 
399.221283 0.377165 
400.161194 7.186795 
400.227051 0.018509 
401.164307 1.875213 
401.215851 0.021752 
402.115356 0.015969 
402.168579 0.19942 
402.247162 0.006955 
403.176605 0.005986 
404.228821 0.015954 
405.187622 1.462229 
406.191986 0.35389 
406.218811 0.025486 
407.229187 0.035287 
407.277893 0.006616 
408.166504 0.084476 
408.201569 0.058983 
408.231537 0.008324 
408.260498 0.028116 
409.163147 0.071874 
409.208679 0.034663 
410.146301 0.90502 
410.17453 0.009479 
410.20752 0.006569 
411.1492 0.201806 
412.158173 0.008139 
412.219269 0.094522 
413.223511 0.016469 
414.184174 0.065481 
414.214935 0.007521 
415.171478 1.424872 
415.232208 0.007124 
416.177124 0.230489 
416.203308 0.032081 
417.186218 0.164919 
417.260132 0.018983 
418.180206 0.016355 
418.214142 0.013929 
418.244812 0.164948 
419.167511 0.151593 
419.201691 0.152334 
420.18866 0.129552 
421.222382 0.007346 
421.255524 0.007945 
422.143921 0.008387 
422.205933 0.006883 
423.208832 0.02082 
424.142578 0.008732 
425.153137 0.009864 
425.189789 0.019378 
426.142517 0.128159 
426.211761 0.034011 
426.319641 0.011147 
427.141693 0.076055 
427.171997 0.140275 
427.203979 0.015111 
428.157104 0.553996 
428.228851 0.011708 
429.158905 0.136379 
429.215485 0.047267 
431.171143 0.008326 
432.158691 0.355648 
432.197845 0.496739 
432.226593 0.035253 
433.182037 3.228695 
434.146942 0.165219 
434.185425 0.794803 
434.239868 0.008207 
435.1492 0.015987 
435.193726 0.108619 
435.27063 0.179932 
436.222961 0.027889 
436.255188 0.112953 
437.126709 0.013324 
437.215851 0.278922 
437.256653 0.008389 
437.292389 0.032339 
438.167603 0.103822 
438.197968 0.068372 
439.170746 0.024012 
439.200684 0.05394 
440.212402 0.016107 
440.271576 0.053562 
440.307678 0.034385 
441.185699 0.036661 
441.217133 0.04605 
442.180267 0.034436 
442.201416 0.035196 
443.134857 0.006827 
443.167511 0.059336 
443.198639 0.026992 
443.233795 0.052478 
444.197449 0.017745 
445.183075 0.024504 
445.253265 0.014897 
446.175018 0.007291 
446.23938 0.00924 
447.197571 0.069021 
447.346283 0.13089 
448.35025 0.016801 
450.208801 0.916217 
451.171112 0.250988 
451.210999 0.191457 
452.174469 0.019831 
452.221802 0.007704 
452.298126 0.215033 
453.187836 0.036626 
453.28186 0.21523 
454.238831 0.048161 
454.283234 0.030109 
455.194427 0.150438 
455.225372 0.575885 
456.197388 0.008659 
456.228271 0.08052 
458.195221 0.090461 
459.202454 0.009577 
460.151611 0.303422 
460.193909 0.333701 
461.193054 0.022362 
461.322876 0.019246 
462.140961 0.122123 
462.242218 0.007503 
462.276367 0.007115 
463.2005 0.011656 
463.238983 0.05463 
463.335388 0.027593 
464.187103 0.025982 
464.22226 0.007977 
464.293427 0.026178 
465.211273 0.093876 
466.298431 0.006771 
467.274719 0.009787 
468.195221 0.007195 
468.245026 0.010131 
469.182373 0.886362 
469.348694 0.009371 
470.184235 0.191866 
470.310272 0.032115 
472.252167 0.13786 
474.170441 0.009134 
475.263641 0.172464 
476.287903 0.081739 
477.219482 0.169303 
477.283691 0.00834 
478.164276 0.023637 
478.205078 0.347055 
478.2724 0.007866 
479.167542 0.450723 
479.204773 0.053652 
480.150909 0.014241 
480.281738 0.007752 
482.225433 0.00781 
483.218964 0.009444 
484.224731 0.007911 
484.303436 0.028786 
486.208923 0.298734 
487.206177 0.051979 
487.236969 0.028376 
488.188293 0.116452 
489.191437 0.008078 
490.302216 0.016852 
491.231659 0.007857 
492.18576 0.009815 
492.29068 0.521417 
494.246277 0.007764 
494.291595 0.089928 
495.23175 0.250033 
496.193665 0.236913 
496.230377 0.045878 
496.296722 0.008595 
497.177429 0.614131 
497.320496 0.025969 
498.180084 0.158523 
499.230835 0.046487 
505.213409 0.106638 
505.280975 0.0089 
506.200073 0.156083 
506.28418 0.662213 
507.162506 0.042533 
507.201813 0.012515 
509.31311 0.00897 
512.256836 0.0684 
512.297791 0.078874 
513.246277 0.735447 
513.293579 0.008106 
514.204407 0.661396 
514.247925 0.169284 
515.20343 0.118929 
515.248474 0.016418 
523.227783 0.393474 
524.187988 0.079338 
524.228455 0.069087 
524.290283 0.008049 
525.173767 0.057678 
530.420288 0.020365 
531.264465 0.008565 
533.207458 0.007618 
533.269714 0.01618 
534.242859 0.00811 
534.280212 0.012061 
535.229065 0.015593 
536.228821 0.007008 
538.241455 0.008212 
541.235474 0.00702 
542.199524 0.034584 
544.230103 0.019817 
544.276489 0.02445 
545.240234 0.052795 
546.278259 0.009473 
550.297607 0.007898 
551.304016 0.146789 
552.254639 0.125824 
553.258667 0.023245 
556.258667 0.010895 
556.410522 0.165885 
557.414185 0.037817 
559.259521 0.007435 
560.352905 0.017938 
562.240234 0.209644 
563.242554 0.037725 
565.382568 0.009199 
566.241394 0.027441 
566.368286 0.008464 
567.325073 0.041583 
572.184143 0.007738 
573.279785 0.015306 
574.272034 0.102018 
575.27002 0.02038 
577.321045 0.111072 
577.378174 0.135177 
579.266052 0.010748 
580.250549 0.358755 
581.254028 0.066594 
582.26532 0.159506 
583.269348 0.063648 
584.262817 0.019122 
589.246338 0.008271 
590.259705 0.082235 
590.363953 0.008851 
591.243469 0.008368 
591.295532 0.066925 
592.28833 0.111997 
592.336243 0.006382 
600.29541 0.007841 
602.264771 0.038541 
603.291626 0.008428 
607.261597 0.020206 
608.375488 0.007468 
609.314148 0.03259 
610.263428 0.018621 
610.315247 0.007363 
610.404663 0.138645 
611.260315 0.025684 
611.362488 0.039573 
620.277283 0.010255 
625.276672 0.013941 
627.284973 0.017927 
631.984802 0.00572 
634.381104 0.049205 
649.307129 0.008248 
653.268555 0.014078 
704.380798 0.006264 
706.330444 0.006459 
707.419067 0.060045 
710.907776 0.008547 
711.163391 0.043539 
713.389343 0.00583 
713.437988 0.006787 
718.352539 0.06463 
724.448059 0.301831 
725.341553 0.006205 
731.394897 0.007737 
731.470276 0.008116 
747.464539 0.287759 
748.421509 0.090682 
769.972595 0.014084 
776.420715 0.005785 
787.376526 0.125989 
792.487671 0.007062 
808.503967 0.007301 
814.39093 0.014156 
815.397827 0.085965 
818.498962 0.014934 
828.167786 0.006063 
832.39856 0.18846 
844.480713 0.130945 
846.423157 0.012412 
847.425537 0.006 
855.835632 0.015395 
861.509277 0.381082 
873.422424 0.006268 
874.423035 0.00914 
889.502197 0.014649 
890.455139 0.00877 
891.439575 0.006262 
899.409424 0.005927 
900.494019 0.017912 
903.520691 0.007034 
906.520264 0.013513 
912.425842 0.035254 
929.450195 0.189064 
932.535767 0.007933 
934.231689 0.023904 
983.849792 0.006266 
986.507568 0.021659 
987.509766 0.005519 
1004.526306 0.047853 
1014.536499 0.053791 
1047.56604 0.067969 
1048.529419 0.006771 
1090.124756 0.005445 
1116.550903 0.007458 
1144.575317 0.026996 
1161.606445 0.033841 
1184.61853 0.073396 
1206.622192 0.005922 
1236.325684 0.006402 
1255.661865 0.017969 
1258.973022 0.00561 
1266.562988 0.005226 
1281.640015 0.007416 
1294.686279 0.005638 
1298.661377 0.021454 
1387.717529 0.01158 
1388.085083 0.007592 
1437.961426 0.151268 
1438.958618 0.160883 
1439.963501 0.009936 
1456.740967 0.006319 
END IONS

