BEGIN IONS
PEPMASS=284.11
CHARGE=1+
COMPOUNDNAME=Lotaustralin
LIBRARYQUALITY=3
SMILES=N/A
INCHIKEY=WEWBWVMTOYUPHH-GXUZYPEDSA-N
INCHI=InChI=1S/C11H19NO6/c1-3-11(2,5-12)18-10-9(16)8(15)7(14)6(4-13)17-10/h6-10,13-16H,3-4H2,1-2H3/t6-,7-,8+,9-,10+,11?/m1/s1
MSLEVEL=2
SOURCE_INSTRUMENT=N/A-ESI-QFT
FILENAME=library_mgf.mgf
SEQ=*..*
IONMODE=positive
ORGANISM=MONA
NAME=Lotaustralin [M+Na]+
PI=MoNA
DATACOLLECTOR=MoNA:VF-NPL-QEHF007865
PUBMED=N/A
SUBMITUSER=mwang87
TAGS=
SPECTRUMID=CCMSLIB00004698928
SCANS=7865
50.236465 1.316711 
50.980316 0.66083 
54.243736 0.350057 
54.82909 0.317817 
54.90276 2.123101 
55.054943 0.318271 
55.311356 1.296419 
55.389381 0.36509 
55.575119 2.165505 
57.07066 7.369132 
57.459618 0.729371 
57.60685 0.416856 
58.065887 14.125152 
59.450642 2.197805 
60.081528 18.056303 
60.343369 0.71976 
60.446663 0.467167 
61.283432 2.716281 
61.44751 1.380039 
61.84779 1.241738 
62.060699 0.356054 
62.629112 1.315577 
63.027176 0.489921 
63.031769 2.778035 
63.328114 0.384232 
63.480011 2.628572 
63.483665 2.309366 
64.213333 1.486984 
64.667847 2.039936 
64.902168 2.477574 
66.038681 0.386222 
66.647446 2.761839 
66.654716 0.28266 
66.70665 1.425536 
66.736603 2.338402 
67.054893 0.515895 
68.659119 2.522653 
69.034149 0.308713 
69.07045 0.704936 
69.844582 2.405351 
71.086151 4.197693 
73.329544 2.206481 
73.414581 0.853277 
74.203201 2.507723 
75.050682 2.416987 
75.250366 2.632535 
77.476425 1.416187 
78.013985 2.065012 
78.093857 2.517479 
78.812943 2.618714 
80.293228 0.47248 
81.070412 1.322583 
82.463097 2.523511 
82.530632 2.605754 
82.608788 2.315482 
83.023567 0.333183 
83.085953 0.75023 
83.565712 0.392138 
84.531151 2.223031 
85.028786 3.807535 
85.101669 0.596988 
85.88118 2.497758 
86.088867 3.053221 
87.044617 0.446622 
88.648872 2.809677 
89.060249 17.624327 
89.38723 2.967639 
90.541351 0.394093 
93.070198 0.347682 
95.047104 27.710468 
95.08596 2.051094 
96.343552 2.343157 
96.946861 0.36386 
97.101509 0.382643 
100.908691 0.291976 
101.95015 0.393352 
102.95018 0.353229 
103.561829 2.451948 
105.202759 2.532471 
107.172646 0.732967 
108.490479 2.552098 
108.944855 2.666381 
109.101318 1.744108 
110.375504 1.320979 
110.818207 2.463455 
111.47776 0.305437 
114.284409 2.782951 
114.993729 0.382301 
115.0336 0.283498 
121.028442 1.00075 
122.583488 2.879731 
124.543251 2.248483 
124.558868 1.558753 
125.449028 2.294154 
128.42572 2.621986 
130.968872 0.339862 
131.799149 0.462728 
132.691895 0.40426 
134.488922 1.400812 
134.973541 2.710843 
134.978638 50.310188 
135.097275 0.309028 
135.91304 0.926361 
136.250885 2.632603 
137.16713 2.333964 
138.218735 0.471454 
145.146301 2.227357 
147.355026 0.70196 
150.512772 1.301762 
151.415054 0.742342 
152.705658 0.368234 
152.989151 18.626329 
154.813644 0.860982 
154.899429 0.734509 
157.878326 1.405586 
164.347977 0.494236 
165.886169 0.808814 
166.954483 2.231149 
167.173462 0.324423 
168.349396 2.626246 
168.7939 1.368667 
174.63063 0.820959 
185.041885 58.111389 
187.335251 0.796984 
188.788757 1.547058 
190.042633 2.912264 
190.570114 0.753417 
195.967773 0.302159 
196.433929 0.404927 
196.494125 2.416165 
197.014755 0.695268 
203.539719 2.309185 
203.768127 2.26782 
204.14241 1.533344 
211.437668 0.849901 
212.009323 2.317635 
215.415421 32.875931 
216.819946 0.299672 
219.215881 2.28317 
220.737854 2.353815 
226.410553 0.37608 
229.085327 0.323437 
232.865021 2.411234 
236.967316 2.009639 
240.077972 0.372609 
240.232071 7.432123 
243.018997 2.104054 
250.17662 2.580308 
253.595032 2.522019 
256.250977 0.399803 
257.099213 100.0 
258.217224 2.64053 
267.259796 0.341947 
268.978058 5.550958 
270.28067 0.386112 
270.993866 1.966949 
282.993561 1.087217 
283.263672 0.657147 
283.911804 2.862577 
284.109955 84.202805 
284.330444 99.157227 
285.00946 1.600886 
285.026886 3.474056 
285.075104 0.364707 
285.334167 9.446614 
286.579834 0.484083 
297.941528 2.857415 
300.342133 2.62841 
301.057465 0.450136 
301.989319 2.868821 
302.528168 2.695975 
304.044342 0.37614 
304.176575 1.877181 
307.69986 0.824602 
END IONS

