BEGIN IONS
PEPMASS=447.167
CHARGE=1+
COMPOUNDNAME=(3R,5R)-7-[(1S,2S,8S,8aR)-2-methyl-8-(2-methylbutanoyloxy)-1,2,6,7,8,8a-hexahydronaphthalen-1-yl]-3,5-dihydroxyheptanoic acid
LIBRARYQUALITY=3
SMILES=N/A
INCHIKEY=BOZILQFLQYBIIY-PJXHJHJJSA-N
INCHI=InChI=1S/C23H36O6/c1-4-14(2)23(28)29-20-7-5-6-16-9-8-15(3)19(22(16)20)11-10-17(24)12-18(25)13-21(26)27/h6,8-9,14-15,17-20,22,24-25H,4-5,7,10-13H2,1-3H3,(H,26,27)/t14?,15-,17+,18+,19-,20-,22-/m0/s1
MSLEVEL=2
SOURCE_INSTRUMENT=N/A-Linear Ion Trap
FILENAME=library_mgf.mgf
SEQ=*..*
IONMODE=positive
ORGANISM=MONA
NAME=(3R,5R)-7-[(1S,2S,8S,8aR)-2-methyl-8-(2-methylbutanoyloxy)-1,2,6,7,8,8a-hexahydronaphthalen-1-yl]-3,5-dihydroxyheptanoic acid M-H
PI=MoNA
DATACOLLECTOR=MoNA:VF-NPL-LTQ001572
PUBMED=N/A
SUBMITUSER=mwang87
TAGS=
SPECTRUMID=CCMSLIB00004685748
SCANS=1369
226.919998 1.707763 
235.910004 3.48125 
240.940002 16.470636 
263.140015 1.097136 
267.029999 6.447255 
284.980011 3.083304 
293.040009 4.857598 
315.019989 2.255381 
327.070007 54.242271 
336.040009 29.959953 
345.100006 100.0 
368.160004 4.658397 
385.140015 2.913763 
387.079987 21.731817 
428.029999 4.846996 
END IONS

