BEGIN IONS
PEPMASS=228.951
CHARGE=1+
COMPOUNDNAME=2-[(1S)-1-hydroxyethyl]-1H-quinazolin-4-one
LIBRARYQUALITY=3
SMILES=N/A
INCHIKEY=BMBSGGZMJQTQSO-LURJTMIESA-N
INCHI=InChI=1S/C10H10N2O2/c1-6(13)9-11-8-5-3-2-4-7(8)10(14)12-9/h2-6,13H,1H3,(H,11,12,14)/t6-/m0/s1
MSLEVEL=2
SOURCE_INSTRUMENT=N/A-Linear Ion Trap
FILENAME=library_mgf.mgf
SEQ=*..*
IONMODE=positive
ORGANISM=MONA
NAME=2-[(1S)-1-hydroxyethyl]-1H-quinazolin-4-one M-H
PI=MoNA
DATACOLLECTOR=MoNA:VF-NPL-LTQ005367
PUBMED=N/A
SUBMITUSER=mwang87
TAGS=
SPECTRUMID=CCMSLIB00004688982
SCANS=4603
150.800003 100.0 
184.979996 10.041936 
196.919998 24.09651 
210.080002 57.868622 
END IONS

