BEGIN IONS
PEPMASS=141.0
CHARGE=1+
COMPOUNDNAME=Massbank:KO003847 Phosphonoacetate|Phosphonoacetic acid
LIBRARYQUALITY=3
SMILES=OC(=O)CP(O)(O)=O
INCHIKEY=XUYJLQHKOGNDPB-UHFFFAOYSA-N
INCHI=1S/C2H5O5P/c3-2(4)1-8(5,6)7/h1H2,(H,3,4)(H2,5,6,7)
MSLEVEL=2
SOURCE_INSTRUMENT=ESI-LC-ESI-QQ
FILENAME=Massbank_ESI_positive_8_1_2014_peaks.mgf
SEQ=*..*
IONMODE=Positive
ORGANISM=MASSBANK
NAME=Massbank:KO003847 Phosphonoacetate|Phosphonoacetic acid [M+H]+
PI=Putative Massbank Match
DATACOLLECTOR=Massbank
PUBMED=N/A
SUBMITUSER=mwang87
TAGS=
SPECTRUMID=CCMSLIB00000220217
SCANS=9644
44.6 19802.0 
51.9 54455.5 
53.1 247525.0 
77.8 435644.0 
79.3 89109.0 
80.1 732674.0 
81.1 143564.5 
81.4 44554.5 
123.3 14851.5 
END IONS

