BEGIN IONS
PEPMASS=407.221
CHARGE=1+
COMPOUNDNAME=Massbank:UF410503 Lincomycin
LIBRARYQUALITY=3
SMILES=CCC[C@@H]1C[C@H](N(C)C1)C(=O)N[C@H]([C@@H](C)O)[C@H]1O[C@H](SC)[C@H](O)[C@@H](O)[C@H]1O
INCHIKEY=OJMMVQQUTAEWLP-KIDUDLJLSA-N
INCHI=1S/C18H34N2O6S/c1-5-6-10-7-11(20(3)8-10)17(25)19-12(9(2)21)16-14(23)13(22)15(24)18(26-16)27-4/h9-16,18,21-24H,5-8H2,1-4H3,(H,19,25)/t9-,10-,11+,12-,13+,14-,15-,16-,18-/m1/s1
MSLEVEL=2
SOURCE_INSTRUMENT=ESI-LC-ESI-ITFT
FILENAME=Massbank_ESI_positive_8_1_2014_peaks.mgf
SEQ=*..*
IONMODE=Positive
ORGANISM=MASSBANK
NAME=Massbank:UF410503 Lincomycin [M+H]+
PI=Putative Massbank Match
DATACOLLECTOR=Massbank
PUBMED=N/A
SUBMITUSER=mwang87
TAGS=
SPECTRUMID=CCMSLIB00000223746
SCANS=11878
126.1276 157789.2 
172.1332 12126.7 
216.0872 2639.7 
234.0973 2612.7 
287.1956 2517.4 
299.1965 21801.5 
317.2072 18985.8 
341.207 16140.8 
359.2175 522708.1 
371.2004 8519.0 
389.2106 227542.9 
END IONS

