BEGIN IONS
PEPMASS=619.376
CHARGE=1+
COMPOUNDNAME=Astaxanthin
LIBRARYQUALITY=3
SMILES=N/A
INCHIKEY=MQZIGYBFDRPAKN-QISQUURKSA-N
INCHI=InChI=1S/C40H52O4/c1-27(17-13-19-29(3)21-23-33-31(5)37(43)35(41)25-39(33,7)8)15-11-12-16-28(2)18-14-20-30(4)22-24-34-32(6)38(44)36(42)26-40(34,9)10/h11-24,35-36,41-42H,25-26H2,1-10H3/b12-11+,17-13+,18-14+,23-21+,24-22+,27-15+,28-16+,29-19+,30-20+
MSLEVEL=2
SOURCE_INSTRUMENT=N/A-ESI-QFT
FILENAME=library_mgf.mgf
SEQ=*..*
IONMODE=positive
ORGANISM=MONA
NAME=Astaxanthin [M+Na]+
PI=MoNA
DATACOLLECTOR=MoNA:VF-NPL-QEHF003108
PUBMED=N/A
SUBMITUSER=mwang87
TAGS=
SPECTRUMID=CCMSLIB00004694171
SCANS=3108
50.855595 0.2654 
50.938496 0.111205 
51.236671 0.125126 
52.293434 0.103329 
52.83857 0.242046 
53.002998 1.452085 
53.039368 5.465801 
53.998291 0.140895 
54.417046 0.329422 
54.786781 0.358975 
54.946075 0.115601 
55.0186 12.072557 
55.054981 38.485886 
55.560463 0.119335 
55.935165 6.309145 
56.05022 0.751541 
56.058353 0.563048 
56.158188 0.271783 
56.625256 0.090353 
56.965553 1.646633 
56.979927 0.143479 
57.034264 1.601972 
57.069202 0.186583 
57.070621 23.381775 
57.072117 0.214429 
57.303642 0.10467 
57.935551 0.266918 
58.065823 0.795792 
58.289467 0.125093 
59.049889 1.847379 
60.045177 0.761869 
60.220497 0.253348 
60.510643 0.114579 
60.572567 0.110812 
60.75745 0.133203 
61.011364 22.289438 
62.019264 1.2972 
62.245029 0.118554 
62.289932 0.310269 
62.703823 0.121779 
62.982422 4.031221 
63.007153 0.60699 
63.99844 0.259708 
64.85479 0.287239 
65.039291 6.195934 
65.81945 0.242832 
66.188835 0.142972 
66.950806 0.113218 
67.054909 74.762138 
67.125023 0.131487 
67.297577 0.310696 
68.997864 1.24079 
69.03418 8.547586 
69.070564 41.23381 
69.49189 0.11981 
70.065773 1.517104 
70.118156 0.299033 
70.942184 0.311008 
70.958511 2.94008 
71.049835 2.683281 
71.086205 6.286887 
71.278358 0.106786 
71.424881 0.115396 
71.930099 0.644091 
72.081383 0.168001 
72.937813 7.698965 
73.029083 0.184587 
74.024574 0.275196 
74.097122 0.13041 
74.696037 0.131222 
79.021767 10.388423 
79.05484 19.859657 
79.718079 0.136152 
80.062698 0.319708 
80.948448 3.517945 
81.034096 4.596436 
81.07048 28.354851 
81.072853 0.227419 
82.06575 0.431144 
82.945602 0.351842 
83.01329 5.067406 
83.049698 9.993759 
83.08606 8.080716 
84.081345 0.300614 
84.967064 0.280611 
85.028915 0.725313 
85.065315 1.762059 
85.101593 0.445033 
85.575462 0.33893 
86.096863 0.346628 
87.044662 1.107949 
87.982338 0.284059 
88.503899 0.116517 
88.595665 0.118767 
88.96888 2.511432 
88.978607 1.579133 
89.060211 5.198636 
89.806923 0.337679 
89.964157 4.900014 
90.102898 0.151977 
90.948143 12.619563 
91.054749 28.21022 
91.057671 1.220347 
92.058113 0.499067 
93.033958 2.067144 
93.070351 35.247375 
94.065674 0.264724 
94.073517 0.175796 
95.049568 16.362415 
95.085953 62.949963 
95.368393 0.121339 
96.044609 0.172575 
96.089378 0.310548 
96.614189 0.303135 
97.028809 1.695608 
97.065216 3.552663 
97.101662 3.123836 
97.569603 0.124762 
97.638123 0.129078 
98.588448 0.110428 
99.044563 1.087495 
99.238617 0.261427 
100.04834 0.19088 
100.135368 0.272173 
101.059998 0.510527 
103.054604 1.855264 
104.992622 1.315515 
105.033882 0.996844 
105.04509 0.75709 
105.070229 23.859192 
106.073898 0.23022 
106.771103 0.330176 
106.979469 0.344272 
107.049492 7.850233 
107.085808 15.966695 
107.21524 0.313711 
107.974571 0.295652 
108.080811 0.143666 
108.958542 4.462505 
109.028687 7.302 
109.065117 8.494109 
109.101494 7.995454 
111.03981 0.368269 
111.044319 3.271927 
111.080704 4.697557 
113.963531 0.149116 
113.976395 0.181316 
114.112068 0.154778 
114.933105 0.298292 
115.054558 2.355124 
115.931427 0.135364 
116.963631 1.244211 
116.984657 0.805385 
117.070091 9.661326 
117.987671 0.157035 
118.980103 0.367519 
119.049461 2.121882 
119.085732 15.471989 
120.089188 0.543072 
120.840187 0.126846 
120.940201 0.197675 
121.028618 2.483152 
121.060249 0.189293 
121.064972 19.780752 
121.101379 4.177896 
121.172005 0.154784 
122.941071 0.144176 
123.04425 2.345153 
123.080658 8.80511 
125.023651 0.339209 
125.059799 0.796495 
125.096184 0.500959 
125.961006 0.434619 
126.983978 0.185876 
127.039185 1.938692 
128.062195 2.680055 
128.963623 2.074269 
129.054733 0.191563 
129.069962 8.592032 
130.077866 1.047028 
130.979279 0.447837 
131.000305 1.359394 
131.049255 0.862952 
131.08551 11.320565 
131.974197 1.436516 
131.987106 0.248157 
132.056656 0.108707 
132.958191 0.921137 
132.995728 0.375677 
133.064728 4.082123 
133.101151 6.075929 
134.956268 1.534685 
134.973984 1.90488 
134.996292 0.61128 
135.044037 5.335804 
135.080521 6.881109 
135.116852 1.05001 
137.023315 1.564955 
137.059708 2.677267 
137.096039 2.122574 
138.951126 0.308621 
138.984177 0.489864 
139.03891 7.858723 
139.075302 2.592163 
140.095535 0.145788 
140.984329 0.301755 
141.018112 2.54226 
141.054565 0.424782 
141.069946 2.817926 
141.616058 0.140895 
142.077942 2.611364 
142.938416 1.037152 
142.979279 1.172391 
143.00032 0.257186 
143.085526 11.145358 
143.974426 0.34923 
144.056183 0.143286 
144.093384 0.153957 
144.943192 0.285214 
144.958298 0.729724 
144.994995 0.857336 
145.064697 6.957547 
145.101135 8.198328 
145.990036 0.826502 
146.073166 0.345466 
146.97406 5.317541 
147.043976 2.889493 
147.080383 8.129497 
147.116821 2.122206 
148.082123 0.284486 
148.971817 7.043299 
148.989319 1.24976 
149.011017 0.220952 
149.023941 0.26296 
149.059723 16.849276 
149.096298 2.359605 
149.798965 0.318995 
149.984711 0.685689 
150.951035 5.050198 
150.968658 3.90765 
150.98378 0.210966 
151.020477 0.315498 
151.039062 6.281409 
151.075256 5.008563 
151.958984 0.187351 
152.966766 1.524179 
153.000458 0.142177 
153.05452 2.165265 
153.069748 0.481217 
153.091278 0.171573 
153.141647 0.153985 
153.353622 0.126324 
153.863098 0.132699 
153.959213 0.9416 
154.077896 0.294036 
155.034225 0.165799 
155.070007 0.1768 
155.085449 7.078395 
155.954773 0.862271 
155.987381 0.635553 
155.994812 0.205561 
156.093613 1.164926 
156.994812 0.471339 
157.064789 2.114626 
157.101151 6.598072 
157.989883 0.471906 
158.072769 0.184933 
158.974197 1.12122 
158.994629 0.23358 
159.010406 0.21031 
159.043411 0.157016 
159.080551 8.992656 
159.116653 2.914848 
159.968994 0.481858 
159.991287 0.160974 
160.177612 0.139932 
160.989792 0.448275 
161.011322 0.135365 
161.023651 0.469447 
161.059555 3.349368 
161.096024 2.765607 
161.98526 0.256477 
162.968979 1.008637 
163.005508 0.229701 
163.039154 0.562668 
163.0755 1.988886 
163.111465 0.955331 
163.362457 0.127487 
164.00032 0.206607 
164.4534 0.332712 
164.920868 0.712201 
165.000153 0.220302 
165.018356 1.031851 
165.036118 0.340447 
165.054718 1.497332 
165.070053 1.068829 
165.091003 3.042743 
166.982651 1.189507 
167.00061 0.174626 
167.033875 8.626144 
167.070312 0.22661 
167.085541 1.292098 
167.645538 0.352329 
168.008102 0.421064 
168.093109 0.162088 
168.917206 2.044929 
168.961395 0.971422 
168.978485 0.19305 
168.99498 0.422094 
169.064865 0.505553 
169.101273 3.703512 
169.989899 0.263386 
170.003189 0.150017 
170.010864 0.623338 
170.109085 0.359182 
170.791321 0.124985 
171.010178 0.157254 
171.080429 6.040896 
171.11673 2.014536 
171.904053 3.546056 
172.005875 1.938858 
172.087631 0.364583 
172.98967 0.261114 
173.059814 2.476592 
173.096268 5.308635 
173.132782 0.462492 
173.984406 0.86594 
174.005737 3.358997 
174.990372 0.59934 
175.004837 0.166503 
175.038986 1.916551 
175.075424 5.111318 
175.11171 1.598739 
176.001068 1.394006 
176.984711 0.331775 
177.018372 2.385274 
177.054565 2.620632 
177.091003 8.450687 
177.937576 0.202996 
178.531616 0.285755 
178.596405 0.163662 
178.979187 0.184516 
179.033752 25.512827 
179.070786 0.487533 
179.085571 1.39488 
180.093155 0.798813 
180.887909 6.323912 
180.995087 0.639856 
181.015274 0.17275 
181.049225 0.213647 
181.101242 1.220624 
182.109146 0.247177 
183.010483 0.458143 
183.029144 1.606366 
183.080566 2.247539 
183.116837 1.092671 
184.088974 0.254043 
184.989899 0.281031 
185.059418 0.748787 
185.096085 3.473114 
185.132446 0.643526 
186.0065 0.372861 
186.878525 0.498639 
186.927597 10.072674 
186.93576 0.192232 
187.00531 0.657021 
187.039124 1.780407 
187.075256 4.861044 
187.111755 1.883863 
187.147812 0.152689 
187.254761 0.119127 
188.000198 0.233818 
188.021652 1.559497 
188.924545 0.488146 
189.054688 4.33095 
189.091019 4.497388 
189.127701 0.153766 
190.016571 0.288039 
190.062469 2.163938 
190.09906 0.218168 
190.999817 0.371744 
191.033966 0.366705 
191.070389 2.883312 
191.106842 1.777304 
192.279068 0.346638 
192.96138 0.312105 
192.994598 0.270183 
193.04953 13.605345 
193.086166 0.293667 
193.101074 1.758797 
194.002563 0.198299 
195.028839 11.162648 
195.06514 34.803047 
195.080627 1.195557 
195.116684 0.574779 
196.018906 0.181343 
196.356842 0.122313 
196.990005 0.243349 
197.044266 11.616047 
197.059799 0.502734 
197.096069 1.393039 
197.132324 0.560115 
197.890808 0.219831 
198.021301 0.208028 
198.89856 0.990126 
199.005157 0.468359 
199.075317 3.408907 
199.111496 0.40884 
200.942978 0.223044 
201.054688 3.212868 
201.090942 1.851314 
202.062805 0.415352 
203.000443 0.171344 
203.034149 3.662232 
203.070145 9.913311 
203.106369 0.546687 
204.078125 9.988937 
204.888412 1.413741 
205.049652 2.38686 
205.085754 1.540189 
207.009644 0.190827 
207.117279 0.388342 
207.894623 0.339489 
209.09613 0.594513 
209.117172 9.941788 
210.102798 0.196347 
210.97261 0.668265 
211.059967 9.355925 
211.075226 1.251771 
211.111618 0.96159 
212.083069 0.220827 
213.054382 2.149059 
213.090897 5.385023 
213.885849 0.33315 
214.062622 0.230534 
214.893845 1.147588 
215.03479 0.224108 
215.070221 10.179318 
215.143341 0.259031 
216.078156 1.906729 
217.049637 7.890291 
217.085846 15.53866 
218.057449 8.050718 
219.047394 0.242508 
219.065262 7.528174 
220.010925 1.52972 
220.013519 1.462853 
220.554504 0.164349 
220.903152 1.442865 
221.08226 0.173414 
221.097031 0.898269 
221.116974 0.784943 
222.507614 0.13352 
222.898529 48.953716 
223.074951 0.194575 
223.096481 0.361909 
223.111328 0.390061 
223.899887 6.366454 
224.897659 1.291739 
225.021027 0.17917 
225.054718 0.517739 
225.091003 1.647894 
226.062805 0.214579 
227.050613 0.193953 
227.070175 6.374259 
227.107025 0.677162 
227.14238 0.160263 
228.078323 1.092385 
229.049469 1.608542 
229.08609 6.203333 
229.896027 1.35043 
230.057465 0.193076 
230.093658 0.656969 
231.028763 22.590088 
231.065109 31.887245 
231.10141 20.804167 
232.072937 39.861141 
232.086319 0.394403 
232.109512 0.778884 
233.044571 7.088465 
233.080734 22.543509 
233.117432 0.16546 
234.899643 0.208806 
235.075562 0.291341 
235.096405 32.914928 
235.109924 0.602043 
236.91452 2.036734 
237.020203 0.174586 
237.091003 1.079619 
237.112335 0.460949 
237.885757 0.196642 
237.921875 0.423078 
238.893616 0.581857 
238.913635 4.456505 
239.070312 3.029224 
239.106476 0.44775 
239.901154 8.298638 
239.912354 0.317894 
240.078201 0.346197 
240.909119 100.0 
241.049484 5.548355 
241.085907 5.987162 
241.910217 14.289473 
242.057693 0.60952 
242.910233 5.251229 
243.06517 8.302228 
243.101547 2.285734 
243.138 0.203855 
243.910675 0.192224 
245.044266 8.856138 
245.080551 9.203779 
245.117203 2.539364 
245.912323 0.198659 
246.051941 4.533777 
246.088516 0.60721 
247.060196 4.268337 
247.133774 0.285484 
247.906357 2.329557 
247.942032 0.141555 
249.112274 0.257877 
249.126328 0.167124 
250.100616 0.370724 
251.069977 0.546143 
251.106476 0.562523 
252.077972 0.264873 
253.049911 2.171366 
253.069489 0.191626 
253.085556 2.003503 
253.106842 20.474483 
253.121475 0.533577 
253.901428 0.169764 
254.05719 1.432322 
254.093246 0.311186 
254.924881 5.128459 
255.065048 14.671045 
255.101425 3.160164 
255.89682 1.093121 
255.926147 0.293376 
256.072784 1.511506 
257.044983 0.971286 
257.080933 8.292236 
257.117035 7.685369 
258.052704 0.337417 
258.088898 3.594084 
258.521545 0.145405 
259.060089 3.308484 
259.096466 10.254343 
259.133026 2.363265 
260.068512 0.977598 
261.075378 0.365131 
261.112152 0.863551 
263.10675 0.14527 
263.901367 8.083631 
264.908722 1.861622 
265.085571 1.152028 
265.123108 0.161689 
265.90863 0.189521 
266.058014 0.151671 
266.092957 0.312327 
266.925537 0.249136 
267.065063 6.937429 
267.10144 1.3847 
268.072906 3.341366 
269.044464 5.287765 
269.080719 6.407338 
269.117371 0.641324 
270.052338 0.401164 
270.088104 0.178638 
271.059967 3.941978 
271.09671 1.755254 
271.13266 39.864544 
272.069702 0.150004 
273.075714 5.171073 
273.111633 6.754786 
273.148071 1.084915 
274.119843 4.218716 
275.127472 5.988575 
277.085846 0.52772 
277.122498 0.268492 
279.064606 0.339548 
279.102081 1.698664 
279.916595 0.260009 
280.073242 1.321186 
280.812134 0.170531 
280.904205 0.316149 
281.044281 1.716151 
281.080719 8.794863 
281.117523 1.339981 
281.911774 64.839226 
282.08844 1.414721 
282.91391 13.719439 
283.059723 19.963903 
283.096497 4.593087 
283.132935 2.893623 
283.915253 10.687096 
284.067993 0.55308 
285.075226 1.767071 
285.112061 1.908042 
285.148468 3.847375 
285.815826 0.226745 
287.091095 2.222955 
287.127655 16.486818 
287.14444 0.242069 
287.163788 0.355589 
288.135406 78.846687 
289.14325 2.650558 
290.093781 0.199715 
290.991821 0.128883 
291.064941 0.45197 
291.101501 1.307633 
293.08078 2.684021 
293.11676 0.445988 
294.088654 0.399168 
295.059753 26.214678 
295.09613 6.433855 
295.132782 2.054365 
295.927704 2.5489 
296.067932 0.731419 
296.104065 0.507572 
297.075562 5.997869 
297.111847 3.330768 
297.148529 2.554064 
297.907562 0.32567 
298.119476 0.328838 
299.091797 0.772166 
299.127441 15.573239 
299.16394 2.001208 
301.106445 0.429534 
301.143555 2.704476 
301.827362 0.263137 
303.122894 2.009465 
305.079895 1.543836 
305.116394 0.671135 
307.060425 0.473763 
307.096252 5.834274 
307.134247 0.19096 
308.06781 0.580841 
308.103973 1.3487 
309.075348 7.823838 
309.111633 4.371937 
309.148315 1.880074 
309.325806 0.253594 
310.119415 0.213469 
311.091614 8.494947 
311.12738 24.654366 
311.162933 0.648944 
311.830994 1.110947 
311.941925 0.129393 
312.83847 6.05932 
313.108032 0.15157 
313.143463 6.128531 
313.178833 0.656705 
313.840271 0.474554 
314.15094 0.209608 
314.840363 0.140934 
315.088928 0.149429 
315.122803 14.817469 
315.158173 13.844434 
317.138123 4.39454 
317.821747 0.209213 
318.830963 0.193232 
319.096558 5.611213 
319.835999 9.863702 
320.837799 1.403604 
321.075653 2.554348 
321.111511 2.424635 
321.837097 0.939338 
322.082184 0.644623 
323.091339 11.840808 
323.127136 3.67499 
324.098511 1.09729 
324.135864 0.346903 
325.106964 3.927906 
325.142883 11.138873 
327.122314 5.688438 
327.1586 1.849011 
327.825073 1.381176 
328.833466 1.495845 
329.10376 0.762372 
329.137878 33.127583 
329.173889 1.134157 
329.8414 0.555258 
333.111603 1.755196 
333.148315 0.22946 
335.090698 2.062439 
335.127533 0.785502 
335.164612 0.258069 
335.83078 3.816121 
336.098877 0.314701 
336.838745 16.093218 
337.10672 6.285946 
337.142426 6.446893 
337.179504 0.430444 
337.845123 8.644009 
338.149841 0.18657 
338.84314 2.594506 
339.0867 1.192227 
339.122223 10.847498 
339.158966 6.582558 
339.847595 0.988322 
341.102264 0.236428 
341.138611 1.459405 
341.174408 0.308823 
343.116455 0.41485 
343.1539 3.119499 
344.828979 2.563867 
345.132782 0.738043 
347.128296 0.312656 
347.163361 0.200495 
347.400146 0.148226 
349.107025 0.277351 
349.142944 1.954942 
351.122528 8.343812 
351.158386 6.605267 
351.194946 0.770917 
352.131439 0.256214 
353.138 24.67359 
353.174103 14.596564 
353.841339 16.123631 
354.846924 6.956431 
355.118958 0.367598 
355.153564 0.226062 
355.191315 0.186268 
355.843872 3.906916 
357.133575 1.125456 
357.168671 3.583466 
360.838623 30.338156 
361.1427 1.405863 
361.179016 0.183328 
361.840637 8.741349 
362.841858 13.573826 
363.123657 0.197384 
363.158722 5.668995 
364.131317 0.194092 
364.164093 0.172751 
365.138397 6.251082 
365.174408 6.427698 
367.153748 6.725508 
367.188507 0.298552 
369.169861 3.313482 
369.836304 6.436208 
370.840302 1.055927 
371.85318 1.466421 
373.164215 1.265693 
375.158661 2.106261 
377.137238 0.482885 
377.175385 2.06431 
378.849518 13.561833 
379.153473 41.582245 
379.189209 4.461607 
379.851318 1.978409 
380.851746 4.245749 
381.169495 16.646423 
381.200806 0.399519 
385.164337 22.711315 
387.846893 2.49303 
389.173767 2.434673 
391.153168 2.158815 
392.867981 0.143591 
393.16925 10.150323 
393.196655 0.188238 
395.183258 0.195936 
397.202606 0.595367 
399.180786 0.313143 
403.191284 0.219437 
407.148651 1.879143 
407.184235 2.943808 
409.164093 7.937094 
409.196259 0.382895 
411.179993 0.908977 
414.276306 0.209315 
421.236298 1.026823 
425.160004 3.359226 
425.192352 0.4638 
427.174255 0.229595 
447.345734 1.736607 
448.350677 0.284927 
449.232178 7.268472 
477.226929 0.170252 
483.444031 0.137481 
494.126923 0.143895 
496.60788 0.167838 
505.344543 0.199313 
528.974976 0.146821 
538.788208 0.160916 
560.809448 0.149458 
583.578674 0.338384 
605.908447 0.296915 
629.826416 0.299225 
631.107178 0.171465 
631.226135 0.124645 
END IONS

