BEGIN IONS
PEPMASS=452.111
CHARGE=1+
COMPOUNDNAME=NOSCAPINE
LIBRARYQUALITY=3
SMILES=N/A
INCHIKEY=AKNNEGZIBPJZJG-MSOLQXFVSA-N
INCHI=InChI=1S/C22H23NO7/c1-23-8-7-11-9-14-20(29-10-28-14)21(27-4)15(11)17(23)18-12-5-6-13(25-2)19(26-3)16(12)22(24)30-18/h5-6,9,17-18H,7-8,10H2,1-4H3/t17-,18+/m1/s1
MSLEVEL=2
SOURCE_INSTRUMENT=N/A-ESI-QFT
FILENAME=library_mgf.mgf
SEQ=*..*
IONMODE=positive
ORGANISM=MONA
NAME=NOSCAPINE [M+K]+
PI=MoNA
DATACOLLECTOR=MoNA:VF-NPL-QEHF002756
PUBMED=N/A
SUBMITUSER=mwang87
TAGS=
SPECTRUMID=CCMSLIB00004693819
SCANS=2756
50.854534 0.053215 
51.380363 0.00262 
51.634659 0.017837 
51.875439 0.065883 
52.019951 0.052304 
52.145336 0.067451 
53.040268 0.026167 
53.405731 0.032666 
53.69286 0.050793 
53.757412 0.03196 
55.013035 0.037662 
55.054974 0.032639 
55.32555 0.018058 
55.395451 0.002396 
55.545425 0.002645 
55.618362 0.002441 
55.762547 0.002315 
56.046215 0.054176 
56.050282 0.009413 
56.58239 0.073709 
56.786751 0.039435 
56.937134 0.056288 
56.953548 0.038479 
56.957794 0.059459 
57.034298 0.00604 
57.070637 0.157406 
57.132523 0.002638 
57.247967 0.03156 
58.065857 0.006593 
58.424667 0.061257 
58.895954 0.002681 
58.973724 0.05344 
59.486423 0.002522 
59.735329 0.052316 
60.549953 0.002734 
61.687 0.031517 
63.047264 0.002328 
63.508602 0.053781 
63.923176 0.025556 
64.231834 0.002487 
64.336815 0.021638 
65.176682 0.050303 
65.943581 0.02598 
66.653481 0.049818 
67.05497 0.056157 
67.321732 0.029556 
69.070549 0.047149 
70.065948 0.003076 
71.049843 0.004727 
71.086189 0.08347 
72.410042 0.002473 
73.06546 0.006496 
73.466972 0.0208 
73.935036 0.024778 
74.097015 0.002798 
74.430023 0.002303 
75.506577 0.002394 
75.679901 0.032915 
75.847343 0.02525 
76.019623 0.002299 
76.341682 0.030972 
77.263512 0.002646 
78.719406 0.058398 
79.054855 0.007366 
80.265732 0.018479 
80.280823 0.034327 
80.607208 0.00274 
81.070496 0.074431 
81.17852 0.018562 
82.49453 0.028823 
83.086105 0.044055 
83.805321 0.015968 
84.081345 0.03145 
84.36338 0.016147 
85.065338 0.004826 
85.101746 0.034929 
87.044441 0.00323 
88.227196 0.002729 
88.585762 0.036365 
89.060242 0.216157 
90.368332 0.003017 
90.907021 0.026899 
90.93512 0.056712 
91.054718 0.013981 
91.057693 0.003045 
91.339073 0.002452 
91.802391 0.027622 
93.070305 0.022772 
93.851257 0.002415 
93.975494 0.002527 
94.158142 0.065971 
94.845963 0.060708 
95.04953 0.003327 
95.086029 0.095489 
95.250526 0.002726 
95.379158 0.032385 
96.081184 0.003345 
97.065231 0.003101 
97.101601 0.030727 
97.398048 0.05178 
98.766014 0.033618 
100.11248 0.044593 
100.407936 0.053824 
101.986511 0.036811 
102.025917 0.042394 
102.091797 0.129044 
105.07032 0.006649 
105.257507 0.059084 
106.219765 0.055218 
106.812752 0.064995 
107.054741 0.060094 
107.085869 0.026976 
108.997467 0.031243 
109.064949 0.007032 
109.101395 0.05124 
109.18959 0.051252 
109.568878 0.003008 
110.104149 0.003068 
111.044495 0.003626 
111.080833 0.003965 
113.126648 0.002803 
115.589424 0.062202 
116.471832 0.071006 
117.070435 0.003051 
118.839691 0.057839 
119.085625 0.011969 
119.102341 0.053465 
121.065063 0.003154 
121.101418 0.022012 
122.952271 0.039542 
123.080475 0.003218 
123.116837 0.00734 
124.212509 0.060426 
125.094398 0.05008 
127.614502 0.058087 
131.085526 0.004007 
131.270432 0.031096 
131.410156 0.002792 
131.608658 0.058493 
131.706039 0.030304 
131.863403 0.002539 
132.343369 0.027315 
133.085938 0.012548 
133.101379 0.008078 
133.755692 0.057128 
135.117004 0.003117 
135.177368 0.017927 
136.491211 0.003081 
138.319611 0.033058 
142.265366 0.025786 
142.85759 0.002377 
146.214981 0.052113 
147.116501 0.003656 
147.434113 0.061902 
148.357285 0.002568 
148.719589 0.028736 
149.132248 0.003509 
149.302933 0.0161 
149.715088 0.027099 
149.760254 0.06017 
150.197495 0.002629 
150.250992 0.055425 
152.411728 0.002572 
154.121994 0.006199 
155.155762 0.038619 
156.314728 0.018663 
156.964401 0.002564 
159.11702 0.002921 
161.850296 0.002708 
162.091415 0.003626 
163.111511 0.003154 
163.148102 0.004317 
163.865616 0.050053 
164.107162 0.002912 
168.138 0.006104 
168.345306 0.067818 
168.361969 0.057219 
171.960648 0.018745 
176.107025 0.00247 
176.45015 0.029261 
176.517273 0.002688 
177.078079 0.003187 
178.086578 0.004594 
178.726227 0.019771 
179.070541 0.008344 
179.274536 0.002845 
182.153778 0.019766 
182.22612 0.060189 
183.399582 0.035818 
183.549118 0.003106 
184.316299 0.062599 
185.161713 0.072536 
186.927689 0.010691 
187.112671 0.056754 
188.312714 0.017866 
190.086075 0.022546 
191.088928 0.003566 
192.101639 0.14785 
192.138733 0.029007 
193.105835 0.009314 
197.373718 0.017647 
197.611038 0.06637 
200.083008 0.005668 
200.144669 0.066513 
200.608246 0.070681 
201.091003 0.743875 
202.094299 0.025305 
205.073364 5.818433 
205.904922 0.034955 
206.076538 0.264438 
206.769226 0.063724 
207.083344 0.002755 
207.914597 0.020714 
209.164612 0.01392 
209.201553 0.007696 
210.175079 0.00551 
210.185455 0.66987 
210.196579 0.007763 
211.188538 0.009514 
211.826416 0.035458 
213.667313 2.611404 
215.106598 0.024174 
216.642914 0.002413 
218.080994 0.222916 
219.083893 0.003015 
219.174667 0.005337 
220.096695 100.0 
220.528122 0.002807 
221.100235 11.068256 
221.417862 0.031955 
222.102219 0.287168 
222.112885 0.003622 
222.899307 0.004134 
227.20076 0.025323 
227.211929 0.003366 
228.041824 0.019406 
228.267761 0.007837 
232.601944 0.065247 
233.104401 0.013572 
236.091522 0.835892 
236.562424 0.003568 
237.095276 0.011998 
238.274826 0.002716 
240.909241 0.02418 
241.031281 0.01074 
241.122025 0.002473 
246.732056 0.058611 
247.991409 0.057039 
248.506058 0.05893 
248.672134 0.055933 
256.054718 0.123156 
256.268219 0.03832 
257.058075 0.05889 
259.012604 0.052926 
259.759766 0.029065 
261.130096 0.003016 
264.679016 0.038133 
270.315674 0.016693 
274.570038 0.002553 
275.212738 0.069111 
278.223785 0.036449 
281.91214 0.003611 
283.263428 0.003426 
294.574249 0.057905 
304.113586 0.067003 
308.294312 0.002874 
310.398956 0.002667 
311.294464 0.090541 
312.297668 0.024966 
313.204468 0.018801 
314.207031 0.003664 
319.836212 0.01883 
322.150848 0.003144 
324.05957 0.060117 
328.834656 0.002542 
331.214813 0.009721 
336.838745 0.092619 
337.84549 0.00808 
338.927612 0.041122 
341.035858 0.002588 
353.841797 0.02456 
354.472534 0.061718 
354.848633 0.007628 
360.838531 0.471423 
361.841003 0.011919 
362.185486 0.058324 
368.352722 0.00593 
369.834076 0.060485 
374.092072 0.002543 
374.697449 0.039415 
377.063293 0.017487 
378.378632 0.028603 
378.849426 0.127396 
379.8508 0.002821 
385.474915 0.002778 
387.847473 0.003641 
388.756348 0.030798 
392.987335 0.002734 
393.20929 0.131528 
394.212585 0.009282 
409.276398 0.00289 
419.287933 0.028981 
420.290771 0.002809 
422.594604 0.035393 
430.820282 0.061364 
432.551819 0.00257 
435.499878 0.002963 
450.290222 0.004426 
451.215393 0.044477 
451.250702 0.405091 
452.253632 0.041078 
452.484314 0.004102 
452.51889 0.079328 
453.521912 0.019204 
END IONS

