BEGIN IONS
TITLE=Scan Number: 1139
PEPMASS=454.14801
CHARGE=1+
COMPOUNDNAME=Pseurotin A_120184
LIBRARYQUALITY=2
SMILES=CC/C=C\[C@H](O)[C@H](O)C1=C(C)C(C2([C@@H](O)[C@@](C(C3=CC=CC=C3)=O)(OC)NC2=O)O1)=O
INCHIKEY=SLYDIPAXCVVRNY-VQLMMIJESA-N
INCHI=N/A
MSLEVEL=2
SOURCE_INSTRUMENT=LC-ESI-qToF
FILENAME=P1_C3_conc_GA3_01_2409.mzXML
SEQ=*..*
NOTES=
IONMODE=Positive
ORGANISM=GNPS-LIBRARY
NAME=Pseurotin A_120184 M+Na
SPECTRUMID=CCMSLIB00000478080
ACTIVATION=CID
INSTRUMENT=ion trap
SCANS=1139
105.033134 2372.0 
134.059677 768.0 
139.037033 272.0 
148.991287 344.0 
153.017212 748.0 
155.033798 824.0 
157.023041 588.0 
157.048523 1364.0 
158.052231 472.0 
159.057129 444.0 
160.041534 396.0 
167.001236 388.0 
172.530914 296.0 
175.006699 788.0 
178.999008 436.0 
179.028915 372.0 
184.034103 964.0 
187.012009 264.0 
189.01503 256.0 
191.004944 276.0 
193.014938 400.0 
193.528732 564.0 
194.08075 1428.0 
194.9944 1572.0 
195.090927 444.0 
195.525925 264.0 
196.011261 548.0 
198.987625 428.0 
199.078049 256.0 
199.997192 692.0 
202.536041 384.0 
206.995438 388.0 
210.991623 280.0 
211.026718 516.0 
212.050247 428.0 
213.004242 952.0 
213.041473 336.0 
214.529205 272.0 
216.061844 8824.0 
217.063629 1420.0 
225.01062 396.0 
226.086578 336.0 
227.996185 628.0 
228.997681 452.0 
231.014664 368.0 
232.020798 308.0 
233.030685 416.0 
236.567215 276.0 
239.052811 380.0 
239.54744 448.0 
248.547455 268.0 
249.024277 464.0 
249.052719 472.0 
250.036621 356.0 
253.018631 260.0 
254.078705 352.0 
256.00766 440.0 
261.07196 2808.0 
262.071014 640.0 
263.088531 2216.0 
263.533569 496.0 
264.041412 436.0 
264.088074 584.0 
270.547089 480.0 
271.028809 716.0 
274.053925 428.0 
279.080383 1756.0 
279.54538 588.0 
280.057037 260.0 
283.018616 288.0 
283.04953 444.0 
288.032959 416.0 
289.036011 588.0 
290.065796 904.0 
290.557831 524.0 
291.076447 548.0 
292.065857 392.0 
295.054871 396.0 
297.057617 400.0 
298.070984 332.0 
298.578827 252.0 
299.074585 608.0 
300.023651 256.0 
300.566986 252.0 
301.039948 284.0 
308.059143 732.0 
310.04303 304.0 
310.06369 608.0 
314.080719 548.0 
321.049561 432.0 
321.559631 256.0 
327.051056 252.0 
332.60553 396.0 
333.101196 316.0 
334.046478 396.0 
335.058075 616.0 
335.554688 768.0 
336.056732 300.0 
337.063232 408.0 
338.058258 1296.0 
340.052032 264.0 
342.565826 252.0 
343.065735 488.0 
344.061493 748.0 
344.562012 488.0 
345.5578 416.0 
351.065033 1640.0 
351.571106 2304.0 
352.06723 816.0 
352.164612 268.0 
352.569733 288.0 
354.030487 640.0 
360.075958 1968.0 
360.572174 948.0 
361.079437 344.0 
367.0784 2704.0 
367.580719 1608.0 
368.045624 320.0 
368.08667 1376.0 
368.588776 664.0 
370.089447 2880.0 
371.092346 600.0 
372.038239 568.0 
373.586395 408.0 
376.087616 288.0 
376.586426 584.0 
377.089844 300.0 
377.584961 276.0 
386.051239 288.0 
387.059143 532.0 
393.094788 336.0 
394.104767 296.0 
394.597717 320.0 
395.131165 544.0 
404.061249 444.0 
409.112213 256.0 
409.628448 436.0 
422.119598 14076.0 
423.120026 2936.0 
424.138214 428.0 
454.146362 62400.0 
455.148468 14232.0 
456.150513 3352.0 
457.153961 308.0 
509.059998 316.0 
540.074768 340.0 
545.079895 444.0 
END IONS

