BEGIN IONS
PEPMASS=1323.71
CHARGE=1+
COMPOUNDNAME=POLYMYXIN B SULFATE
LIBRARYQUALITY=3
SMILES=N/A
INCHIKEY=HFMDLUQUEXNBOP-UHFFFAOYSA-N
INCHI=InChI=1S/C56H98N16O13.H2O4S/c1-7-32(4)13-11-12-16-44(75)63-36(17-23-57)51(80)72-46(34(6)74)56(85)68-39(20-26-60)48(77)67-41-22-28-62-55(84)45(33(5)73)71-52(81)40(21-27-61)65-47(76)37(18-24-58)66-53(82)42(29-31(2)3)69-54(83)43(30-35-14-9-8-10-15-35)70-49(78)38(19-25-59)64-50(41)79;1-5(2,3)4/h8-10,14-15,31-34,36-43,45-46,73-74H,7,11-13,16-30,57-61H2,1-6H3,(H,62,84)(H,63,75)(H,64,79)(H,65,76)(H,66,82)(H,67,77)(H,68,85)(H,69,83)(H,70,78)(H,71,81)(H,72,80);(H2,1,2,3,4)
MSLEVEL=2
SOURCE_INSTRUMENT=N/A-ESI-QFT
FILENAME=library_mgf.mgf
SEQ=*..*
IONMODE=positive
ORGANISM=MONA
NAME=POLYMYXIN B SULFATE [M+Na]+
PI=MoNA
DATACOLLECTOR=MoNA:VF-NPL-QEHF027923
PUBMED=N/A
SUBMITUSER=mwang87
TAGS=
SPECTRUMID=CCMSLIB00004721504
SCANS=27923
91.699532 0.137739 
95.060265 0.145549 
97.076004 0.113891 
98.071289 1.622753 
98.096291 0.47409 
98.386955 0.114135 
98.788811 0.122096 
100.075729 0.120099 
100.086929 11.212962 
100.676743 0.11002 
101.070961 100.0 
101.074661 1.358563 
102.054932 2.070188 
102.07431 3.896948 
103.054138 1.690207 
106.105057 0.108457 
106.412048 0.104142 
107.795609 0.113323 
108.470718 0.109296 
109.076218 0.099502 
109.101143 0.23713 
109.405762 0.110341 
109.58799 0.098995 
110.059898 0.135232 
110.849838 0.10355 
111.055138 5.908801 
111.091621 1.413304 
112.075645 0.752364 
112.086868 1.547865 
113.070831 4.757913 
114.102394 0.115515 
115.086395 0.405044 
115.97039 0.097864 
116.131645 0.113437 
116.929832 0.101503 
117.498672 0.098032 
118.097389 0.26384 
119.081482 30.431278 
119.085945 0.382841 
120.080757 60.602322 
121.075989 4.258053 
121.084045 4.129119 
121.154228 0.10223 
122.060104 0.108549 
123.055145 7.589251 
123.091599 1.038498 
123.116692 1.566819 
123.143188 0.102013 
124.054207 0.110997 
125.070992 0.584752 
127.086548 9.81222 
127.098732 0.110139 
128.081696 2.78347 
129.065643 2.095886 
129.102493 0.130303 
130.065903 0.118039 
130.097656 0.112156 
130.453781 0.103128 
131.117828 0.49613 
132.080673 0.893151 
133.8685 0.110604 
135.004471 0.107654 
136.004944 0.111268 
137.070938 7.318167 
137.781967 0.138887 
138.102432 4.735296 
139.050232 0.124829 
139.086548 8.969727 
140.070511 0.146144 
140.081757 7.939242 
140.118149 0.899488 
141.065674 4.121498 
141.102249 0.46831 
141.137878 0.11938 
141.171661 0.106783 
143.155975 0.113269 
144.138138 0.122685 
147.091354 0.13999 
147.761017 0.101795 
148.086731 2.517643 
148.386139 0.113596 
149.070923 10.971034 
149.267349 0.106655 
150.102463 0.819623 
151.086472 0.507136 
152.004135 0.102205 
154.097366 0.414236 
155.081192 1.107978 
156.113174 4.924566 
157.097076 12.022063 
157.108383 5.929655 
157.144928 0.103322 
158.092209 7.437167 
158.099457 0.125308 
158.107391 0.120447 
158.109497 0.1185 
158.111542 0.121287 
158.153854 1.53325 
159.539688 0.103014 
161.200516 0.115328 
162.103165 0.115552 
163.078369 0.11861 
163.085892 0.119483 
163.123062 0.102759 
163.970169 0.116754 
164.081528 0.610733 
165.065933 0.388523 
165.102036 0.114431 
165.113098 0.483962 
166.097351 16.464273 
167.081421 11.28804 
167.093369 0.123956 
167.118393 0.116474 
168.076813 1.482659 
168.084961 0.225993 
168.113007 1.056172 
169.133469 1.747604 
169.152237 0.102513 
170.092239 0.274686 
172.184326 0.1196 
174.123688 4.561154 
175.086395 0.423593 
177.10202 0.1136 
182.092468 2.008168 
183.076019 0.11772 
183.124039 41.465477 
184.107971 39.421707 
184.127502 2.287018 
185.092102 7.989661 
185.111526 2.106729 
186.091309 1.271688 
186.160217 0.521681 
187.122696 0.110949 
189.411438 0.101746 
189.770142 0.109328 
192.113449 0.110905 
193.108124 1.328801 
194.092438 5.552456 
194.128815 0.32262 
195.095306 0.138623 
195.123917 3.144975 
195.185318 1.458054 
196.108047 1.813026 
196.144196 0.814362 
196.169754 0.248164 
197.128723 0.559127 
197.139175 0.113675 
201.101883 0.352057 
201.134567 26.38011 
202.096878 0.125281 
202.118546 34.811947 
202.134445 3.977011 
203.118607 4.377382 
204.11319 0.263167 
204.121918 0.113998 
204.14975 1.541289 
205.107956 1.107208 
206.092194 1.117423 
209.10318 0.899174 
209.128342 1.147439 
209.164703 1.01985 
210.124207 0.117136 
211.118866 9.841152 
212.102844 5.988554 
213.102203 1.963863 
213.134445 1.688427 
213.170944 0.942672 
214.050125 0.477075 
214.154922 10.211662 
214.165192 0.383732 
219.1241 0.337674 
219.145798 1.793009 
220.107925 0.791542 
220.144745 0.272677 
221.102875 0.133492 
221.139725 0.403684 
222.123535 1.217525 
222.134705 1.106812 
223.118713 3.032635 
223.154312 0.402958 
223.180389 5.896795 
224.102814 1.039148 
224.139236 4.478993 
225.041748 0.118857 
227.175186 1.770593 
228.132416 0.1074 
229.129822 0.142437 
230.128677 17.901163 
231.11264 3.187657 
231.123291 0.259661 
231.132599 0.667876 
231.143784 0.12104 
232.004745 0.118488 
232.107697 0.558745 
232.117599 0.116046 
233.164642 36.427116 
234.168228 5.05047 
237.004822 0.109617 
237.134476 0.698193 
238.118393 1.375688 
239.149948 10.557593 
240.145004 11.612978 
240.207031 1.542765 
240.78096 0.118306 
241.116211 0.77504 
241.12912 7.624511 
241.148361 0.114174 
241.190765 8.736709 
242.133881 0.114046 
242.17395 0.268653 
242.194778 0.404096 
243.149399 0.287043 
248.138748 16.245577 
249.134003 3.123106 
250.118118 2.302301 
250.453125 0.11709 
251.114685 0.121942 
252.206772 0.876987 
257.091827 0.752423 
257.14447 0.124591 
257.160309 6.704103 
258.123383 5.306103 
258.156311 0.417538 
258.191925 0.248751 
259.107025 0.115928 
261.159607 12.383783 
262.163452 1.137953 
265.128937 0.436906 
266.161133 8.951361 
266.185852 0.666478 
267.145142 11.529769 
267.161194 0.304467 
268.144226 0.863371 
269.127045 0.121156 
269.162598 0.251509 
270.156952 0.636275 
271.143463 0.771817 
276.145691 0.13329 
277.130341 0.13917 
278.092529 0.275692 
279.181274 0.142329 
279.206146 0.131651 
280.124847 0.64955 
280.139771 0.127205 
280.1828 0.278208 
280.20166 6.559666 
282.218018 0.133393 
283.154755 0.238007 
283.20163 0.28744 
283.766205 0.144307 
284.139496 0.393431 
284.171356 33.744907 
285.155243 10.57714 
285.172943 6.886349 
285.663788 0.109409 
286.156433 1.584805 
288.167084 0.159729 
294.155701 1.486343 
296.102753 2.638666 
296.139221 0.158257 
296.207825 8.336484 
296.233063 3.3005 
297.191803 4.90959 
297.216187 5.854501 
298.193573 0.370065 
298.218079 0.118111 
299.175049 0.517636 
302.182037 19.441074 
303.183258 4.423273 
304.163605 0.369408 
304.188507 0.266442 
305.171356 0.162052 
306.156067 1.30019 
306.191711 1.22111 
306.217041 0.472894 
308.649231 0.111868 
309.251556 0.124175 
312.165466 0.798978 
312.182343 0.474329 
313.16568 1.482395 
313.350525 0.107935 
314.1492 0.911281 
314.189819 0.117237 
314.220795 0.139425 
315.177765 0.104259 
315.215576 0.118747 
316.201538 1.751746 
322.197571 0.131265 
322.669891 0.110633 
323.182404 3.288672 
324.166321 0.963888 
324.2276 0.56631 
326.185913 6.304541 
327.189301 0.30179 
328.223389 0.112315 
330.191986 1.074032 
331.015808 0.110364 
331.175842 0.383642 
338.285248 0.135452 
340.209991 0.141063 
341.192474 0.799184 
341.701752 0.106111 
342.194275 0.109278 
342.238831 0.275712 
343.212463 2.126012 
344.196625 1.747288 
349.1987 1.068172 
350.182129 0.139053 
351.17923 0.137733 
352.235107 0.418883 
355.175507 0.125568 
360.239349 3.088065 
361.222717 6.62341 
361.902435 0.245751 
362.22641 0.559253 
362.254517 1.169836 
366.22403 0.17457 
367.20871 4.105535 
368.192261 0.152789 
368.210266 0.145781 
370.190674 0.127813 
371.207001 6.883721 
372.210205 0.368162 
378.156311 0.146294 
379.281738 0.210798 
380.264771 0.130489 
384.23526 1.568483 
385.218719 2.870545 
386.219543 0.992516 
387.215393 0.235195 
388.230804 0.125958 
399.170135 5.004472 
401.203156 0.131284 
402.24472 0.317542 
402.780487 0.104756 
403.228821 2.030973 
404.231812 0.495704 
405.225891 0.42052 
405.263855 0.122374 
406.283844 0.12358 
407.726685 0.107161 
408.239258 0.607256 
409.22406 0.145538 
409.246948 0.104985 
413.230072 0.497042 
414.213104 0.486978 
414.960938 0.125185 
416.26239 0.126845 
419.198425 0.1181 
423.309479 0.124468 
424.231293 0.2092 
424.291901 1.26866 
425.271179 0.623659 
426.250183 0.932757 
429.260132 0.114772 
431.240112 5.600768 
432.243744 0.139713 
436.911011 0.117431 
441.257477 0.378299 
441.318451 0.816622 
442.294189 0.240134 
443.241791 0.14584 
443.276001 12.045968 
444.258057 2.424905 
445.260132 0.145761 
449.25061 6.442875 
450.251862 0.718635 
451.940369 0.10797 
453.227386 0.13074 
453.259613 0.635605 
455.275574 0.163937 
456.266907 0.11225 
460.303101 0.288405 
461.286652 5.395109 
462.287537 0.125688 
462.320801 0.422172 
464.26767 0.125444 
471.270172 0.793083 
481.222931 0.554965 
483.265991 0.857251 
485.282593 1.187833 
485.638519 0.154734 
486.285095 0.126322 
498.376099 0.134224 
499.233215 0.145026 
499.302582 0.546284 
500.298462 0.449373 
500.343109 0.108864 
503.303467 0.257091 
507.202393 0.133641 
508.305054 0.235253 
509.285706 0.946918 
510.338287 0.405632 
516.332336 0.114183 
517.313538 0.363265 
523.262329 0.102786 
524.296143 0.116399 
524.35437 2.912955 
525.32843 0.792085 
526.313416 2.51286 
527.301147 0.256441 
542.360291 0.115004 
543.338623 5.486052 
544.325867 1.504776 
545.321899 0.135825 
552.455505 0.119458 
553.320129 0.124093 
554.321533 0.153894 
555.339355 0.109074 
561.351379 0.114526 
562.33252 1.000388 
568.325562 0.162612 
569.310852 0.121165 
569.665405 0.10529 
579.172363 0.132399 
579.338013 0.14636 
582.347473 0.484428 
583.331116 0.528667 
584.031982 0.122017 
590.360596 0.120966 
595.16217 0.124781 
597.085449 0.114736 
599.362915 0.10973 
608.367554 0.121671 
610.345398 0.107355 
611.287476 0.122342 
614.340027 0.142621 
619.141357 0.117929 
622.382996 0.11766 
625.397766 0.338882 
626.376953 0.906501 
627.362976 0.272674 
643.40979 0.406684 
644.387085 2.360994 
645.387756 0.665798 
650.357544 0.122851 
662.397034 0.386675 
663.76886 0.128699 
664.410278 0.119923 
681.658997 0.118107 
682.413025 0.983917 
683.41095 0.202255 
696.416321 0.124176 
699.43457 0.168446 
700.422913 0.293871 
709.417908 0.40027 
709.605164 0.172066 
709.852844 0.364459 
710.0625 0.517525 
713.412354 0.151562 
717.436707 0.283449 
723.121582 0.126509 
726.440308 1.458325 
726.51825 0.111747 
727.425781 2.447916 
728.418335 0.127756 
730.431335 0.135151 
740.415344 0.657308 
744.449768 6.247028 
745.448669 2.263981 
746.457214 0.13832 
758.212341 0.114824 
762.4599 0.13126 
784.44342 0.66112 
817.118042 0.149199 
839.463684 0.122516 
840.478516 0.941325 
841.891296 0.110091 
845.506592 0.122505 
884.506104 1.910896 
885.512329 0.153969 
910.522644 0.141516 
945.563232 0.155884 
965.126465 0.12795 
986.546326 0.111622 
1009.616272 0.121161 
1009.996094 0.1185 
1031.12439 0.11475 
1114.397339 0.12963 
1124.686523 0.168521 
1126.873169 0.115773 
1137.682983 0.496731 
1138.689575 0.272351 
1142.70105 0.120601 
1150.70105 0.14259 
1163.6875 0.128759 
1167.72644 0.27024 
1168.72229 0.71246 
1177.639038 0.114705 
1181.708252 1.241797 
1182.710205 0.418868 
1185.737305 0.129084 
1186.738525 0.120168 
1207.717041 0.132601 
1207.999756 0.124188 
1225.730713 1.48423 
1321.879883 15.23088 
1322.882568 15.665697 
1323.877075 6.776034 
1324.871704 0.786682 
END IONS

