BEGIN IONS
PEPMASS=290.102
CHARGE=1+
COMPOUNDNAME=Naringenin
LIBRARYQUALITY=3
SMILES=N/A
INCHIKEY=FTVWIRXFELQLPI-UHFFFAOYSA-N
INCHI=InChI=1S/C15H12O5/c16-9-3-1-8(2-4-9)13-7-12(19)15-11(18)5-10(17)6-14(15)20-13/h1-6,13,16-18H,7H2
MSLEVEL=2
SOURCE_INSTRUMENT=N/A-ESI-QFT
FILENAME=library_mgf.mgf
SEQ=*..*
IONMODE=positive
ORGANISM=MONA
NAME=Naringenin [M+NH4]+
PI=MoNA
DATACOLLECTOR=MoNA:VF-NPL-QEHF013817
PUBMED=N/A
SUBMITUSER=mwang87
TAGS=
SPECTRUMID=CCMSLIB00004704880
SCANS=13817
50.237785 0.02893 
51.3423 0.047056 
54.034534 0.020751 
55.055042 0.607335 
55.726574 0.041703 
55.828743 0.023165 
55.873077 0.042482 
55.935207 0.277213 
56.050274 0.096426 
56.499596 0.045317 
56.545158 0.032509 
56.965546 0.208597 
57.034229 0.073482 
57.070686 3.088114 
57.191971 0.021098 
57.854595 0.054122 
57.935596 0.132858 
58.065945 1.239982 
58.074047 0.031719 
59.049938 1.423135 
59.06118 1.172988 
59.15834 0.059204 
60.081547 1.805728 
61.011425 100.0 
61.269585 0.048117 
62.010822 0.524441 
62.01479 2.099417 
62.019283 1.406316 
62.99073 0.037627 
63.007221 4.59734 
63.027039 0.236737 
64.566734 0.038333 
65.025314 0.022532 
65.71685 0.052379 
66.059418 0.046654 
66.421768 0.054923 
66.849396 0.046431 
67.054977 0.608728 
68.24791 0.027014 
68.500587 0.022739 
68.997856 0.147604 
69.070587 0.566031 
69.508774 0.044881 
70.065857 0.88398 
70.958542 3.57958 
71.049774 0.054043 
71.06115 0.040124 
71.086258 1.773758 
71.23896 0.025558 
71.910248 0.050014 
72.045143 0.098954 
72.081444 0.022693 
72.937889 1.178545 
73.029083 0.030209 
73.047508 0.27171 
74.060883 0.041245 
74.931526 0.278291 
75.94606 0.088716 
76.826714 0.049313 
78.014053 0.570033 
78.851341 0.044752 
79.021866 0.855699 
79.054886 0.183135 
79.573929 0.054039 
80.050148 1.476472 
80.82785 0.028042 
80.948631 0.043536 
81.019218 0.04706 
81.053436 0.044567 
81.070503 1.110959 
81.632935 0.038999 
81.950226 0.035919 
82.065933 0.027069 
83.049805 0.060734 
83.061119 0.024935 
83.086166 0.571314 
85.040268 0.765456 
85.065353 0.084773 
85.101776 0.598344 
85.43045 0.046275 
85.727699 0.057871 
86.060608 0.078253 
86.097038 0.061654 
87.044571 0.136018 
87.907051 0.134687 
88.076279 1.769641 
88.969025 0.331967 
89.060333 0.324549 
89.940407 0.272694 
90.501511 0.023259 
90.94825 1.197905 
91.054741 1.227754 
91.057854 0.54499 
91.53656 0.060797 
92.057747 0.030472 
93.070396 0.357581 
94.321274 0.05412 
95.04953 0.079149 
95.086082 1.042925 
96.081253 0.117054 
96.922607 0.03026 
97.065254 0.097538 
97.089424 0.043875 
97.101662 0.19306 
98.9758 2.793538 
98.984711 0.24723 
99.044579 0.030392 
99.080826 0.136314 
99.148926 0.057947 
100.075974 0.112829 
101.003601 0.597641 
101.060143 0.022849 
101.072014 0.019404 
101.950211 0.226598 
101.9645 0.05362 
102.091759 0.123846 
102.930367 0.151955 
102.948349 0.029662 
103.07579 0.180851 
104.561691 0.057605 
104.930794 1.103494 
105.070244 0.151997 
105.917488 0.804332 
106.086685 2.186747 
106.821495 0.04357 
106.926216 0.083898 
107.049683 0.055876 
107.085922 0.454596 
107.277763 0.027972 
107.950943 0.05958 
109.101555 0.453543 
111.080711 0.026101 
112.358871 0.038992 
112.367882 0.050733 
114.948318 0.096732 
116.909523 0.063956 
116.986206 1.333063 
117.917244 0.541582 
118.92514 0.210547 
119.049431 0.696973 
119.085854 0.082164 
120.49128 0.065968 
120.940811 1.592491 
121.028534 0.027912 
121.065063 0.111449 
121.101303 0.163572 
121.848564 0.055218 
122.941193 5.902213 
123.044228 0.027601 
123.117485 0.078355 
123.377052 0.044978 
124.936668 2.598152 
130.084641 0.061566 
130.963196 0.185533 
131.085754 0.027459 
131.961609 0.894493 
132.080872 0.069506 
132.941254 0.064968 
132.958435 6.175496 
133.101334 0.035266 
133.922958 0.126262 
133.948547 1.727114 
134.919922 1.319969 
134.941208 0.079398 
134.956482 1.032876 
134.978745 0.397337 
134.996765 0.156935 
135.116898 0.055476 
135.927765 1.12132 
135.949249 0.071441 
135.966751 0.671439 
136.087006 0.098678 
136.920242 0.704755 
136.95665 1.507678 
137.928162 0.428735 
137.962173 0.02338 
138.915436 0.030753 
138.95166 1.12526 
139.923538 0.061864 
143.544861 0.024728 
145.101425 0.024105 
145.887329 0.057021 
145.966782 0.201556 
146.232941 0.042268 
146.976562 5.414447 
147.044189 2.192973 
147.116562 0.049202 
147.974823 2.476053 
147.980576 0.058742 
148.047379 0.053314 
148.971924 87.627754 
149.023621 0.043296 
149.961258 0.532626 
149.972275 2.318214 
150.951279 3.797377 
150.967728 7.895385 
151.94371 0.739594 
151.959045 0.503471 
151.97023 1.18942 
152.040771 0.046066 
152.106995 0.025189 
152.930389 0.139048 
152.945099 1.16872 
152.951569 12.548092 
152.967896 2.978164 
152.989288 0.140442 
153.018372 6.122025 
153.938736 0.730235 
153.959412 14.317226 
154.021637 0.278947 
154.931091 0.078627 
154.947144 5.471361 
154.96463 0.665536 
154.977768 0.066117 
155.023209 0.03073 
155.954849 5.883017 
156.944382 0.429788 
157.952209 0.206475 
158.944016 0.025852 
162.95108 1.026197 
162.969208 0.086502 
163.039215 0.030598 
163.97728 0.276256 
164.951538 1.376827 
164.987183 0.578374 
165.018448 1.094204 
165.938217 2.005971 
166.021606 0.023198 
166.947144 0.509551 
166.966858 0.070321 
166.982452 15.387251 
167.953751 0.082852 
167.972504 0.058871 
167.984894 0.262194 
168.028351 0.020689 
168.917984 0.057856 
168.961731 0.879173 
168.983139 5.283352 
170.9552 2.674336 
170.962479 2.888856 
170.969284 0.018326 
170.978317 2.255917 
171.02887 0.065401 
172.951447 0.48925 
172.958374 0.756041 
172.975677 0.146861 
174.986481 0.052165 
176.941071 0.101178 
176.989105 0.104406 
177.938248 5.843423 
179.033981 0.234416 
180.961761 1.755607 
180.998215 0.153053 
182.962158 1.747204 
183.028961 0.180709 
183.948959 0.617835 
184.957718 0.377934 
185.949173 2.001647 
185.964279 0.512728 
186.927673 0.089041 
187.944916 0.729298 
187.9776 0.035656 
188.035629 0.053423 
188.966263 0.989441 
189.054794 0.053229 
190.966446 1.712835 
191.964813 1.318767 
192.961807 31.455437 
193.95343 0.066304 
193.96431 1.482393 
194.962784 3.037298 
195.000198 0.195556 
195.948929 5.370535 
195.958893 0.088028 
196.169266 0.123202 
196.957764 1.492134 
197.94841 0.024412 
197.974564 0.099591 
198.184769 0.036467 
199.28447 0.050781 
205.987946 0.661734 
206.491867 0.022071 
206.977859 1.167913 
207.065643 0.085947 
207.099319 0.031134 
208.976746 0.59779 
209.975601 0.571433 
210.07341 0.040724 
210.184921 0.068401 
210.96109 0.101699 
210.97229 15.268293 
210.98349 0.102666 
211.974442 0.534452 
212.237213 0.122656 
212.972763 5.607318 
213.971207 0.090715 
214.182297 0.054016 
214.968246 2.388372 
215.21759 0.05982 
216.613464 0.108217 
216.624756 0.573602 
216.63916 0.778712 
217.105103 0.076524 
220.903046 0.028739 
222.89856 0.547103 
224.987854 0.098096 
225.042862 0.064438 
227.022034 0.022189 
231.441193 0.065515 
231.651871 0.021418 
232.096954 1.419366 
232.133255 0.142187 
236.211975 0.021126 
239.883636 0.054014 
240.232376 0.728795 
240.909195 0.701188 
244.085831 0.142249 
245.06958 0.067985 
248.603821 0.05651 
250.177841 0.323091 
251.181412 0.032429 
254.962372 0.060517 
257.135712 0.057821 
265.020172 0.065728 
266.99942 1.367251 
267.538605 0.052808 
267.999603 0.25719 
268.073273 0.113499 
268.978394 2.313425 
268.995331 0.112439 
269.978546 0.41505 
270.279541 0.241284 
270.957672 1.661459 
270.974945 0.182242 
270.99408 0.458462 
271.060181 13.181426 
271.152924 0.075285 
271.957794 0.179516 
271.994965 0.054508 
272.063477 1.925592 
272.172821 0.027534 
272.645782 0.053446 
272.937531 0.088438 
272.955048 0.154634 
273.064667 0.060198 
273.167206 1.126744 
274.170288 0.039937 
275.109863 0.115163 
275.14679 0.054326 
276.269348 0.023792 
281.051666 0.073099 
281.911957 0.095603 
282.137726 0.067628 
282.993866 0.472064 
283.030548 2.888354 
283.047729 0.028501 
283.096466 0.128414 
284.030975 0.528232 
284.331299 6.03272 
284.993683 0.03215 
285.009857 0.797795 
285.027496 0.211967 
285.334717 1.274816 
286.009399 0.154036 
286.046936 0.132101 
286.338745 0.057886 
287.006439 0.035992 
288.289825 2.284891 
288.968689 0.071143 
289.124756 0.026177 
289.162201 3.509645 
289.291962 0.137629 
290.165924 0.191035 
297.04422 0.022953 
298.347809 0.074753 
299.061737 2.723545 
300.062317 0.446878 
301.057068 0.061718 
301.073212 0.026829 
304.299957 1.427044 
305.157135 4.695722 
305.303192 0.169331 
306.16037 0.407385 
311.294678 0.085368 
312.362366 0.234888 
313.233978 0.047547 
337.216125 0.060291 
337.508301 0.065001 
END IONS

