BEGIN IONS
PEPMASS=273.27
CHARGE=1+
COMPOUNDNAME=ReSpect:PS085705 Naringenin|Nari|4',5,7-trihydroxyflavanone|2,3-Dihydro-5,7-dihydroxy-2-(4-hydroxyphenyl)-4H-1-benzopyran-4-one|Salipurol|naringetol|pelargidanon|Asahina
LIBRARYQUALITY=3
SMILES=C1C(OC2=CC(=CC(=C2C1=O)O)O)C3=CC=C(C=C3)O
INCHIKEY=FTVWIRXFELQLPI-UHFFFAOYSA-N
INCHI=N/A
MSLEVEL=2
SOURCE_INSTRUMENT=ESI-Flow-injection QqQ/MS
FILENAME=respect_8_1_2014_GNPS_peaks.mgf
SEQ=*..*
IONMODE=Positive
ORGANISM=RESPECT
NAME=ReSpect:PS085705 Naringenin|Nari|4',5,7-trihydroxyflavanone|2,3-Dihydro-5,7-dihydroxy-2-(4-hydroxyphenyl)-4H-1-benzopyran-4-one|Salipurol|naringetol|pelargidanon|Asahina [M+H]
PI=Putative ReSpect Match
DATACOLLECTOR=ReSpect
PUBMED=N/A
SUBMITUSER=mwang87
TAGS=
SPECTRUMID=CCMSLIB00000218117
SCANS=4753
41.0 91.0 
67.0 67.0 
68.0 67.0 
69.0 127.0 
90.0 61.0 
91.0 171.0 
118.0 57.0 
119.0 257.0 
123.0 41.0 
146.0 96.0 
147.0 196.0 
151.0 79.0 
152.0 435.0 
153.0 999.0 
154.0 31.0 
272.0 36.0 
273.0 60.0 
END IONS

