BEGIN IONS
PEPMASS=1200.83
CHARGE=1+
COMPOUNDNAME=CYCLOSPORINE
LIBRARYQUALITY=3
SMILES=N/A
INCHIKEY=PMATZTZNYRCHOR-KMSBSJHKSA-N
INCHI=InChI=1S/C62H111N11O12/c1-25-27-28-40(15)52(75)51-56(79)65-43(26-2)58(81)67(18)33-48(74)68(19)44(29-34(3)4)55(78)66-49(38(11)12)61(84)69(20)45(30-35(5)6)54(77)63-41(16)53(76)64-42(17)57(80)70(21)46(31-36(7)8)59(82)71(22)47(32-37(9)10)60(83)72(23)50(39(13)14)62(85)73(51)24/h25,27,34-47,49-52,75H,26,28-33H2,1-24H3,(H,63,77)(H,64,76)(H,65,79)(H,66,78)/b27-25+/t40-,41?,42?,43?,44?,45?,46?,47?,49?,50?,51?,52-/m1/s1
MSLEVEL=2
SOURCE_INSTRUMENT=N/A-ESI-QFT
FILENAME=library_mgf.mgf
SEQ=*..*
IONMODE=negative
ORGANISM=MONA
NAME=CYCLOSPORINE [M-H]-
PI=MoNA
DATACOLLECTOR=MoNA:VF-NPL-QEHF028190
PUBMED=N/A
SUBMITUSER=mwang87
TAGS=
SPECTRUMID=CCMSLIB00004721771
SCANS=28190
84.007545 1.089026 
84.044128 0.132004 
84.254028 0.089535 
84.790443 0.06081 
85.09227 0.134432 
85.420219 0.071958 
86.766464 0.142785 
86.942352 0.106983 
87.05497 10.658899 
88.038933 6.916741 
88.508896 0.098327 
89.748886 0.11551 
91.808922 0.087455 
92.644234 0.083733 
93.18782 0.087512 
94.653694 0.099 
95.406662 0.065979 
96.904602 0.189633 
97.039299 12.457885 
97.064919 0.150587 
98.023308 3.767597 
98.059738 0.168687 
98.096046 1.603043 
98.819206 0.105999 
99.054932 0.748809 
99.080177 0.215154 
99.143738 0.134538 
100.07515 0.077646 
101.070656 38.337894 
102.07412 0.455441 
102.895988 0.057205 
103.896278 0.08124 
104.168465 0.116838 
104.646217 0.081409 
105.704979 0.087363 
106.440895 0.074229 
108.895576 0.141409 
109.148674 0.052541 
109.327232 0.137134 
110.01078 0.050377 
110.09613 0.167076 
110.141632 0.103474 
111.054939 1.735017 
111.403542 0.09813 
112.026421 4.578459 
112.03907 1.527869 
112.075378 4.173365 
113.034264 3.475777 
113.070648 8.103173 
114.09111 0.293939 
115.086372 18.757729 
115.14196 0.082448 
120.975365 0.132219 
121.105743 0.114803 
122.096077 0.124377 
122.683098 0.143395 
124.039055 8.28137 
124.499084 0.108133 
125.034294 6.105747 
125.070717 2.950295 
126.042168 4.851195 
126.054596 0.687905 
126.091011 4.597846 
126.338142 0.119524 
126.369331 0.128894 
127.049988 13.698644 
127.086296 4.886759 
127.124153 0.112444 
128.106781 0.571172 
129.10202 14.173544 
129.536102 0.118595 
130.085999 2.768121 
134.389313 0.092442 
135.532394 0.106909 
139.050034 4.845731 
139.086441 0.406278 
140.057953 1.401787 
140.070389 0.158944 
140.10675 3.023784 
141.065704 16.399399 
141.102081 0.379575 
142.068817 0.105809 
143.117676 72.058609 
144.101746 18.544115 
144.121033 2.719103 
146.901428 0.17368 
147.210007 0.057816 
148.021362 0.079038 
148.322906 0.058201 
150.664825 0.074448 
152.070511 0.69364 
153.029495 0.18093 
153.06575 1.679407 
153.102036 9.227333 
154.073608 10.507654 
154.085938 3.47102 
154.122467 0.148107 
155.081406 60.613075 
155.08847 0.780073 
155.117294 0.308081 
156.084778 1.84267 
157.133377 29.261492 
157.589645 0.160029 
158.137009 0.343785 
165.102203 0.82248 
166.086304 2.263526 
167.081345 3.291235 
167.117935 0.680572 
168.08934 6.606204 
168.101456 0.110724 
168.202301 0.062671 
169.097229 14.54588 
169.133438 2.664604 
171.148941 0.499294 
171.754654 0.063289 
172.108002 17.49077 
175.645584 0.142912 
178.503296 0.12026 
179.11763 0.790211 
180.101974 4.915873 
181.09729 7.892266 
182.105209 11.449088 
182.117554 1.44803 
182.154083 2.550499 
183.113098 14.639229 
186.123764 48.536182 
187.127213 2.414915 
193.380341 0.163564 
193.483231 0.103152 
193.69252 0.164848 
193.973907 0.078988 
194.117783 0.349493 
195.076401 0.073727 
195.09256 0.095406 
195.113022 0.979384 
195.176956 0.119129 
196.170517 0.104344 
197.128693 100.0 
197.164886 3.888087 
197.323257 0.120838 
198.087555 0.305835 
198.132217 6.667344 
199.143539 0.117489 
199.180908 0.698008 
200.139587 6.810648 
200.625031 0.11407 
201.635574 0.106241 
206.592087 0.142016 
207.149628 7.357047 
208.108063 0.379665 
208.133636 3.086777 
209.092346 3.054176 
209.129349 0.235961 
210.149338 6.942386 
210.159088 0.070835 
211.144241 0.953459 
214.155579 7.502186 
214.165405 0.158925 
215.057922 0.057602 
215.139709 0.355398 
219.068665 0.126145 
220.823837 0.150852 
221.164261 0.109032 
222.149445 2.380638 
224.15239 3.667757 
224.164795 4.708064 
224.176239 3.753092 
225.160202 14.70216 
225.657791 0.070501 
226.11911 6.137428 
226.163513 0.101216 
227.175873 0.269019 
227.297455 0.078753 
227.474686 0.081987 
228.171127 10.649927 
229.174911 0.092624 
233.146393 0.133685 
233.395599 0.120996 
234.062988 0.118149 
234.125198 0.251944 
235.019531 0.116087 
237.122452 0.099677 
238.167679 0.424609 
239.176025 6.47813 
240.171051 5.409103 
242.186966 8.316442 
243.170944 3.043757 
243.667023 0.163005 
244.000336 0.146215 
253.191544 1.70694 
254.151215 0.331981 
254.690857 0.107883 
256.202667 25.659231 
257.161804 1.379875 
257.187103 0.087158 
257.206024 1.120405 
258.345245 0.129159 
262.155579 0.132991 
264.506348 0.07704 
266.516357 0.111778 
268.166321 7.398996 
269.236755 0.123088 
270.218658 2.541008 
271.437134 0.140647 
279.373749 0.126002 
282.182007 20.348198 
283.185211 0.982408 
284.233948 9.562933 
284.509369 0.14666 
285.192474 0.321543 
292.201477 0.07431 
292.394745 0.136546 
299.208435 18.283991 
300.211517 0.208778 
304.197754 0.121373 
304.222656 0.434788 
310.213318 11.247417 
311.215332 0.169882 
311.93808 0.117218 
317.905273 0.091103 
319.318298 0.123392 
322.006683 0.129966 
326.280701 0.379697 
327.213165 0.134921 
327.239899 0.605936 
327.400848 0.077404 
328.858704 0.206872 
330.807495 0.066764 
331.013977 0.146748 
335.245026 0.0637 
339.708191 0.064525 
342.133942 0.130155 
344.064484 0.07854 
351.276337 0.238675 
351.969727 0.16077 
353.214233 0.157042 
354.121155 0.121905 
357.641998 0.090476 
364.937866 0.140022 
366.665863 0.113853 
369.262787 0.164866 
369.286346 4.607466 
369.864624 0.114974 
384.11438 0.133976 
388.607941 0.075671 
393.682404 0.102038 
395.264984 0.400012 
402.044556 0.145842 
408.04483 0.070298 
413.267914 0.098378 
426.30722 0.160778 
428.136047 0.150062 
431.826019 0.140084 
435.334839 0.136312 
437.312225 0.333681 
440.208832 0.171783 
446.924286 0.129015 
447.638458 0.072423 
485.794556 0.137144 
508.350494 0.467442 
515.109863 0.132518 
530.603516 0.159445 
553.401611 0.088132 
554.593628 0.176875 
555.765747 0.093447 
571.091553 0.107744 
575.921875 0.107203 
576.710083 0.086114 
579.944885 0.073468 
593.403198 0.133046 
604.732361 0.119617 
609.804016 0.131062 
614.723267 0.124119 
658.764893 0.126265 
681.996643 0.071739 
683.281311 0.091824 
685.962097 0.102945 
701.46228 0.133842 
708.015808 0.196219 
708.600159 0.24666 
708.884216 0.274145 
708.948303 0.073219 
708.992615 0.164422 
709.097778 0.108283 
709.221924 0.645542 
719.766113 0.093152 
751.294495 0.123524 
773.085205 0.120878 
786.387024 0.117165 
875.734314 0.149876 
876.359375 0.06522 
909.645264 0.124933 
1039.233398 0.142015 
1055.446289 0.136586 
1062.760864 0.1256 
1102.646484 0.188507 
1113.485474 0.098153 
1156.186279 0.14059 
1173.31604 0.128929 
1194.619385 0.1953 
1212.349121 0.081735 
1235.561279 0.146056 
END IONS

