BEGIN IONS
PEPMASS=618.382
CHARGE=1+
COMPOUNDNAME=deferrioxamine E
LIBRARYQUALITY=3
SMILES=N/A
INCHIKEY=NHKCCADZVLTPPO-UHFFFAOYSA-N
INCHI=InChI=1S/C27H48N6O9/c34-22-10-14-26(38)32(41)20-8-3-6-18-30-24(36)12-15-27(39)33(42)21-9-2-5-17-29-23(35)11-13-25(37)31(40)19-7-1-4-16-28-22/h40-42H,1-21H2,(H,28,34)(H,29,35)(H,30,36)
MSLEVEL=2
SOURCE_INSTRUMENT=N/A-ESI-QFT
FILENAME=library_mgf.mgf
SEQ=*..*
IONMODE=positive
ORGANISM=MONA
NAME=deferrioxamine E [M+NH4]+
PI=MoNA
DATACOLLECTOR=MoNA:VF-NPL-QEHF004062
PUBMED=N/A
SUBMITUSER=mwang87
TAGS=
SPECTRUMID=CCMSLIB00004695125
SCANS=4062
50.224464 0.150342 
51.906796 0.189944 
52.457729 0.201307 
52.839611 0.161809 
53.003017 0.141501 
53.158821 0.194625 
53.68462 0.204984 
53.781044 0.074311 
53.788712 0.079925 
53.851131 0.159909 
53.955292 0.188472 
54.355675 0.168467 
54.450665 0.17374 
55.018642 10.619547 
55.055012 15.101789 
55.08065 0.147002 
55.484676 0.114046 
55.787048 0.189154 
56.050259 15.677018 
56.188908 0.107639 
56.4431 0.139485 
56.529312 0.175379 
56.965645 0.920541 
57.008106 0.113462 
57.034203 0.423606 
57.05368 0.138682 
57.067554 0.099277 
57.070705 1.953501 
57.17305 0.106173 
57.439724 0.085504 
57.67025 0.104823 
57.782242 0.08725 
58.06591 0.247819 
58.582684 0.111086 
59.904617 0.166542 
60.34441 0.163812 
60.588299 0.190569 
61.439327 0.180467 
61.616932 0.163808 
61.63763 0.153798 
61.761501 0.172298 
61.96104 0.169159 
62.466183 0.193912 
62.950851 0.088623 
63.436916 0.10276 
64.633842 0.114093 
64.845909 0.111508 
64.856865 0.172787 
65.004326 0.169199 
65.039345 0.252892 
65.085983 0.097683 
65.088791 0.186213 
65.131943 0.166513 
65.248123 0.115533 
65.35199 0.185531 
66.73291 0.085582 
67.042648 0.128528 
67.054932 11.758257 
67.487099 0.117524 
67.497215 0.179575 
67.735687 0.181211 
67.956886 0.117005 
68.050224 0.538608 
69.029045 0.103802 
69.070595 29.101065 
69.536888 0.203372 
70.029358 0.108429 
70.065804 8.52531 
70.073914 0.405313 
70.377129 0.153416 
70.411102 0.113704 
70.514832 0.202695 
70.881676 0.176141 
71.046364 0.162081 
71.086105 0.130814 
72.04509 17.193829 
72.078575 0.259261 
72.081444 0.219175 
72.626831 0.169687 
72.937851 0.225621 
73.029152 3.087872 
73.086601 0.128619 
73.589844 0.128424 
74.769249 0.108442 
75.154999 0.086885 
76.105743 0.135604 
76.743851 0.188839 
78.860657 0.208142 
79.205986 0.197013 
79.339012 0.114371 
79.900116 0.09576 
79.937302 0.1794 
80.050117 0.947044 
80.496994 0.082696 
81.84771 0.177791 
82.029358 2.036843 
82.065742 22.114361 
82.511307 0.165794 
82.787537 0.19484 
82.864937 0.159008 
82.960991 0.115612 
83.073555 1.528981 
84.045059 18.298935 
84.08139 100.0 
84.495537 0.142986 
84.81385 0.176016 
85.048561 0.124911 
85.065414 2.002815 
85.08474 3.810399 
85.089211 31.31571 
85.56958 0.100014 
85.572594 0.113242 
85.905327 0.089971 
86.060806 0.102864 
86.092682 0.688115 
86.097023 39.24276 
86.108421 0.119068 
86.611595 0.197404 
87.044647 2.245351 
87.100388 0.662246 
87.228287 0.147819 
88.07634 0.356593 
88.54512 0.143073 
88.720673 0.18659 
89.060425 0.243314 
90.032333 0.133965 
90.518257 0.130194 
90.595581 0.201248 
91.433617 0.084922 
92.887177 0.082656 
92.995804 0.152122 
93.141182 0.165492 
94.431175 0.150993 
94.924026 0.166081 
95.681168 0.149973 
96.081436 0.364282 
97.518364 0.178267 
98.0606 0.227805 
99.055618 0.153721 
99.092155 10.958581 
99.96981 0.205204 
100.03978 82.490204 
100.076126 60.244003 
101.023788 4.365556 
101.043083 1.579335 
101.079483 1.538486 
102.091759 69.151222 
102.193176 0.17321 
103.095161 1.510157 
103.415474 0.161691 
104.85894 0.126128 
105.060387 0.1751 
105.183678 0.168803 
108.601082 0.135505 
108.808655 0.148575 
109.639069 0.147356 
109.845123 0.195757 
110.001076 0.117501 
110.060356 0.789091 
110.09687 0.603167 
111.495361 0.091234 
111.611923 0.231124 
112.039589 12.812092 
112.075996 0.520599 
112.112305 0.111086 
112.796196 0.105741 
113.047432 0.10876 
114.09169 0.157569 
115.039291 9.482157 
116.034531 2.725492 
116.071129 0.466 
116.381134 0.190032 
116.917274 0.118655 
117.072289 0.172149 
117.077278 0.607182 
117.479652 0.129447 
117.755341 0.124353 
118.083382 5.212789 
118.573204 0.182566 
120.080933 3.000819 
121.064857 0.124344 
121.61853 0.139425 
122.05764 0.705615 
122.096733 0.555886 
124.158485 0.113294 
125.512337 0.156141 
126.959213 0.196078 
128.034439 0.20027 
128.86557 0.086656 
128.962936 0.100111 
129.195694 0.103072 
129.913361 0.088515 
130.013626 0.203518 
130.05014 0.232059 
130.084732 0.213664 
137.10733 4.987975 
137.405869 0.09442 
138.091354 12.983291 
139.094727 0.112364 
140.070572 1.007087 
140.107056 2.742438 
140.521851 0.162833 
141.99501 0.17871 
144.857742 0.223646 
145.507874 0.097424 
146.849884 0.23836 
148.276093 0.147701 
151.635986 0.214729 
151.97934 0.108948 
153.102356 0.918788 
154.086243 2.020913 
154.277283 0.231375 
154.371338 0.169078 
156.010193 0.093642 
160.679626 0.136341 
161.939651 0.232858 
163.642792 0.170602 
165.102234 1.429331 
166.086411 4.301657 
167.117935 0.401626 
168.101837 9.835627 
169.105652 0.19535 
170.117508 0.238272 
178.995972 0.127841 
180.547638 0.092482 
180.742294 0.105779 
181.09726 0.112896 
183.11232 0.11077 
183.123962 0.176587 
184.096848 4.883939 
184.806808 0.114977 
185.901718 0.0936 
188.617249 0.096686 
189.080383 0.157334 
189.979568 0.104014 
192.889359 0.122833 
195.475388 0.216249 
197.201752 0.132787 
200.90773 0.208216 
201.122177 0.131248 
203.523026 0.19935 
204.727478 0.205714 
205.744034 0.111914 
208.787918 0.136256 
211.075851 0.410079 
212.735367 0.104274 
213.710388 0.131331 
219.585709 1.840312 
220.507294 0.079432 
222.703659 0.119753 
222.898727 1.800247 
223.899826 0.345293 
224.426743 0.117464 
233.639984 0.133187 
237.410446 0.126151 
240.344254 0.172557 
240.909103 6.012982 
241.910782 0.607715 
243.871185 0.20868 
245.016571 0.110535 
249.583374 0.124808 
251.664719 0.165619 
257.796753 0.230417 
262.898956 0.096813 
267.098602 0.111921 
272.860931 0.13276 
281.472229 0.149603 
281.911743 3.7978 
282.374023 0.126453 
282.913727 1.08197 
292.300018 0.159166 
293.152557 0.125255 
308.815399 0.253498 
324.587616 0.122897 
331.421356 0.161936 
334.162445 0.17544 
336.838593 0.156713 
337.84552 0.254036 
338.876251 0.094272 
340.581299 0.161657 
343.364227 0.131844 
350.008209 0.165652 
350.461853 0.216806 
353.841675 0.234022 
354.846436 0.089035 
355.379456 0.106213 
360.838837 0.809546 
361.841003 0.660962 
369.839386 0.136106 
370.840118 0.121161 
374.345703 0.152562 
374.836273 0.213037 
378.849854 0.113389 
380.538605 0.156929 
408.335144 0.140453 
411.394104 0.095458 
413.071625 0.163299 
416.099762 0.210994 
427.313751 0.161523 
432.258484 0.154103 
440.713501 0.198396 
459.868683 0.137299 
462.831116 0.139655 
475.84729 0.13341 
485.953949 0.094561 
488.228058 0.160586 
509.178223 0.148472 
536.227905 0.233576 
539.303467 0.150029 
559.400269 0.141019 
571.199341 0.199674 
575.561523 0.224114 
584.401428 0.216668 
591.231873 0.205001 
594.390747 0.158937 
598.261658 0.216636 
624.385437 0.180765 
634.370728 0.206243 
636.57489 0.248978 
647.373718 0.238921 
END IONS

