BEGIN IONS
PEPMASS=300.084
CHARGE=1+
COMPOUNDNAME=Lotaustralin
LIBRARYQUALITY=3
SMILES=N/A
INCHIKEY=WEWBWVMTOYUPHH-GXUZYPEDSA-N
INCHI=InChI=1S/C11H19NO6/c1-3-11(2,5-12)18-10-9(16)8(15)7(14)6(4-13)17-10/h6-10,13-16H,3-4H2,1-2H3/t6-,7-,8+,9-,10+,11?/m1/s1
MSLEVEL=2
SOURCE_INSTRUMENT=N/A-ESI-QFT
FILENAME=library_mgf.mgf
SEQ=*..*
IONMODE=positive
ORGANISM=MONA
NAME=Lotaustralin [M+K]+
PI=MoNA
DATACOLLECTOR=MoNA:VF-NPL-QEHF007868
PUBMED=N/A
SUBMITUSER=mwang87
TAGS=
SPECTRUMID=CCMSLIB00004698931
SCANS=7868
50.796013 0.326099 
51.528793 0.411308 
52.025162 0.06207 
52.155472 0.403587 
52.208115 0.504899 
52.468594 0.140751 
53.003193 0.072729 
53.035469 0.112055 
53.039371 0.072307 
53.820663 0.102373 
53.971951 0.069755 
54.250397 0.521918 
54.52861 0.060588 
54.620853 0.273807 
54.673405 0.620803 
55.01862 0.569802 
55.054996 5.263952 
55.474945 0.283779 
56.050289 0.138052 
56.058327 0.097892 
56.244549 0.336827 
56.873409 0.585908 
56.965561 2.900323 
56.987347 0.332125 
57.034237 0.809583 
57.070629 16.943678 
57.426495 0.823721 
57.432705 0.544285 
58.065865 3.603839 
58.073948 0.102668 
58.605892 0.144004 
58.699558 0.143126 
59.049889 0.253131 
59.253517 0.284846 
59.499386 0.052045 
59.792961 0.542957 
60.045162 0.316032 
61.011345 1.658374 
61.029156 0.632202 
61.066319 0.543761 
61.749664 0.43557 
62.019226 0.23633 
62.060848 1.3836 
62.710018 0.473258 
63.208973 0.138158 
65.288254 0.05859 
66.552856 0.558995 
67.045311 0.627676 
67.054924 4.380118 
68.541222 0.114205 
69.034233 0.930837 
69.070557 4.524691 
70.06575 1.056522 
70.074005 0.099087 
71.049835 1.736916 
71.086151 6.479189 
72.045113 0.436747 
72.081413 0.35111 
72.727013 0.72934 
72.797272 0.30964 
73.029045 0.586875 
73.065498 0.87797 
74.060677 0.498021 
74.097122 0.25853 
74.539886 0.621285 
74.672714 0.115395 
76.039948 1.134161 
76.516998 0.641152 
77.292915 0.443891 
78.306854 0.411875 
79.021873 0.73879 
79.054787 1.761965 
80.4151 0.48142 
81.019051 1.310921 
81.034058 0.47166 
81.070442 6.766387 
82.073883 0.123073 
83.049652 0.483027 
83.086098 4.67427 
84.960251 0.858597 
85.028961 6.807824 
85.065254 0.861182 
85.089317 0.208309 
85.101685 2.83596 
86.060509 0.409351 
86.097115 0.093989 
87.044601 2.478943 
88.076195 0.910784 
88.674568 0.057669 
89.060211 51.726662 
90.063545 1.326285 
91.054695 1.264946 
91.057762 1.056751 
92.057487 0.096479 
92.387329 0.496133 
93.070305 4.30243 
93.89254 0.470953 
94.026535 0.148363 
94.073654 0.066452 
95.049576 0.409943 
95.085922 9.368913 
95.126305 0.666437 
95.219582 0.644639 
96.089371 0.295332 
97.02877 1.201601 
97.065208 0.398349 
97.101624 1.794394 
98.060555 0.29585 
98.096893 0.0661 
98.975838 8.073559 
98.984627 0.53636 
99.044533 0.457604 
99.080704 0.280206 
99.092079 0.346275 
100.076103 0.906771 
101.009888 0.624267 
101.060036 0.137713 
101.096428 0.088572 
102.092033 0.230533 
102.42041 0.70423 
103.039383 0.262337 
103.054443 0.06009 
104.070862 0.733344 
105.070175 0.816907 
106.08654 0.086466 
107.049446 0.646698 
107.07061 0.858697 
107.085754 1.3247 
107.119431 0.058084 
107.567673 0.120101 
108.0168 0.369331 
108.517136 0.06674 
108.642227 0.060362 
109.015335 0.100614 
109.028809 0.078072 
109.065063 0.255427 
109.101486 5.647872 
109.495422 0.566732 
110.975594 1.455349 
111.044594 0.228493 
111.080498 0.218043 
111.965111 0.292034 
112.075989 0.066496 
113.059975 0.089002 
113.096237 0.071795 
115.529892 0.511639 
116.07058 0.201484 
116.986092 3.275661 
117.070038 0.246768 
119.079163 0.173858 
119.085632 1.080176 
121.06498 3.357785 
121.101303 1.290264 
121.126671 0.053159 
121.168671 0.163534 
122.104637 0.09282 
123.080452 0.262733 
123.116982 1.185166 
124.739166 0.575307 
125.059685 0.108523 
125.096199 0.068425 
125.489708 0.47229 
126.017685 0.368045 
127.039124 0.138582 
127.537285 0.454648 
128.798706 0.315028 
128.985977 2.361417 
129.055115 0.086048 
129.069962 0.064963 
131.001831 0.078146 
131.085495 0.417422 
131.504837 0.275885 
133.06514 0.13679 
133.080276 0.073176 
133.085922 6.011549 
133.101151 1.016429 
134.089127 0.162575 
134.978745 5.026785 
134.996536 0.812975 
135.044113 0.245893 
135.080383 0.137623 
135.116714 0.511573 
136.075485 0.071206 
137.011856 0.766651 
137.023285 0.126967 
137.059616 1.345332 
137.13205 0.073208 
140.070541 0.079532 
143.001465 2.132656 
143.085648 0.083192 
145.06488 0.129602 
145.101303 0.5838 
146.720688 0.681112 
146.99617 1.036915 
147.116882 0.635385 
149.012253 0.130707 
149.059647 0.088621 
149.132401 0.063207 
150.951035 3.190285 
150.968887 0.067232 
152.989349 1.069232 
153.017975 0.187307 
153.311295 0.466452 
155.022339 0.676349 
155.152313 0.594336 
155.481552 0.169025 
157.064789 0.073239 
158.19017 0.741701 
158.996246 0.501772 
159.080307 0.154305 
161.012024 1.073346 
162.950989 0.125281 
165.163986 0.113989 
165.91156 0.324358 
167.843948 0.063568 
168.961761 0.104722 
170.996567 0.441184 
171.050888 0.631734 
171.117096 0.068655 
172.625961 0.648701 
174.68721 0.502443 
175.075333 0.407461 
175.960938 0.362466 
177.007172 0.503239 
177.11235 0.090423 
178.991867 0.168778 
181.582413 0.155353 
182.020828 0.63821 
183.079666 0.074671 
183.174347 4.162388 
185.060486 0.203881 
186.221451 0.703679 
187.07515 0.529857 
189.007156 0.11762 
191.930588 0.655983 
192.961975 0.146157 
194.014221 0.125809 
195.733765 0.623754 
197.044388 2.932555 
197.059601 0.075991 
198.066956 0.077065 
199.075668 0.213476 
199.148682 0.076441 
200.031952 0.084054 
204.436874 0.770563 
206.26532 0.707604 
206.977219 0.360991 
209.058746 0.069622 
210.971771 0.074982 
211.074615 0.279515 
212.082993 0.058451 
213.054428 0.267342 
213.090668 0.075115 
214.062607 0.136402 
215.070419 0.081384 
215.135941 10.129791 
216.101852 0.094765 
219.017365 2.01737 
223.07515 0.079407 
225.054398 0.316224 
225.887039 0.063698 
227.069717 1.268504 
227.106552 0.113297 
228.076889 0.240819 
229.049423 0.065431 
229.08577 0.306259 
234.898926 4.277541 
237.028076 4.10536 
237.042068 0.121311 
237.985153 0.601992 
238.06189 0.321861 
239.070358 0.262376 
240.077682 0.438461 
240.232056 100.0 
241.037842 3.5509 
241.049667 0.371341 
241.085632 0.703206 
241.23555 4.252963 
242.054337 0.070382 
242.091599 0.387946 
243.065643 0.390178 
248.606979 0.791489 
248.877731 0.076739 
250.112976 0.626116 
253.048096 0.070793 
255.064682 0.575983 
255.101196 0.18245 
256.072205 0.849565 
256.105774 0.083904 
257.080597 1.947464 
258.050659 0.13277 
259.048065 0.307244 
262.725189 0.742578 
266.057312 0.269515 
266.889099 0.286802 
266.999359 0.091332 
267.062927 0.077932 
267.999481 0.289174 
268.262878 2.859947 
268.97821 2.814778 
268.996246 0.521458 
269.044373 0.306072 
269.080627 0.444921 
269.267181 0.462836 
269.978241 0.268673 
270.084778 0.077907 
270.9935 0.125814 
271.059692 0.73437 
271.096466 0.134901 
276.436066 0.612924 
278.152161 0.290063 
282.278961 0.143859 
282.994446 0.247459 
283.030182 1.294542 
283.05957 0.266691 
283.096649 0.138997 
284.029938 1.424345 
284.067169 2.075482 
284.104004 0.507318 
284.183563 0.081131 
285.009277 2.754119 
285.026703 1.30916 
285.074402 1.88851 
286.00882 0.25865 
286.046509 0.866702 
287.006683 0.451145 
289.004333 0.119378 
298.346527 17.54003 
299.061371 2.952542 
299.090576 1.248031 
299.186005 0.162961 
299.219025 24.699774 
299.349457 3.989602 
300.06189 1.031618 
300.222015 0.931265 
300.269409 0.088303 
300.289337 0.428773 
301.057617 0.552272 
301.071136 0.485929 
301.108002 0.103059 
301.125427 25.003372 
301.161499 2.250567 
301.197479 0.31753 
302.06076 0.093013 
302.283295 0.344305 
302.455383 0.771253 
303.019928 0.412012 
304.178406 0.366658 
321.822021 0.769754 
322.271942 0.336487 
END IONS

