BEGIN IONS
PEPMASS=485.293
CHARGE=1+
COMPOUNDNAME=TOBRAMYCIN
LIBRARYQUALITY=3
SMILES=N/A
INCHIKEY=NLVFBUXFDBBNBW-PBSUHMDJSA-N
INCHI=InChI=1S/C18H37N5O9/c19-3-9-8(25)2-7(22)17(29-9)31-15-5(20)1-6(21)16(14(15)28)32-18-13(27)11(23)12(26)10(4-24)30-18/h5-18,24-28H,1-4,19-23H2/t5-,6+,7+,8-,9+,10+,11-,12+,13+,14-,15+,16-,17+,18+/m0/s1
MSLEVEL=2
SOURCE_INSTRUMENT=N/A-ESI-QFT
FILENAME=library_mgf.mgf
SEQ=*..*
IONMODE=positive
ORGANISM=MONA
NAME=TOBRAMYCIN [M+NH4]+
PI=MoNA
DATACOLLECTOR=MoNA:VF-NPL-QEHF011823
PUBMED=N/A
SUBMITUSER=mwang87
TAGS=
SPECTRUMID=CCMSLIB00004702886
SCANS=11823
50.034943 0.299222 
51.28928 1.339014 
51.505108 0.886845 
51.94067 1.038768 
52.087856 1.073941 
52.421028 0.791491 
52.486549 0.453696 
52.891544 0.296676 
52.963985 0.313136 
53.002918 3.087713 
53.039387 1.481444 
53.176842 0.669034 
53.227215 0.740641 
53.384148 0.411694 
53.418934 0.376378 
53.830715 0.319036 
54.295349 0.926993 
54.350201 0.785132 
54.558239 0.578263 
54.619877 1.121546 
54.701752 0.346811 
55.012089 0.783388 
55.018593 6.053692 
55.054989 43.975636 
55.257195 0.989757 
55.935173 1.845322 
56.050262 5.997646 
56.058216 0.409368 
56.172813 0.437516 
56.632637 0.281684 
56.965515 48.590763 
57.034214 5.967099 
57.069096 0.473491 
57.070629 78.175682 
57.158474 0.992155 
57.313122 0.392056 
57.315605 0.536857 
57.838367 0.340551 
57.935612 0.337985 
58.06591 7.659325 
58.073975 1.495705 
58.229313 1.32881 
58.646835 0.73033 
59.049873 81.903 
59.061157 2.737934 
59.990997 4.484035 
60.045139 0.849535 
60.053188 0.565459 
60.056564 0.679981 
60.343788 0.68773 
60.524441 0.735288 
60.958332 0.37666 
61.011372 17.672571 
61.258533 0.695984 
62.019165 13.319499 
62.118549 0.275924 
62.396023 0.262855 
62.797337 0.311958 
62.982414 7.270276 
63.998428 0.320605 
64.323112 0.482012 
64.726013 0.791217 
64.897339 0.651435 
65.039253 0.312464 
65.34343 0.322004 
65.514435 0.281589 
65.762215 0.308054 
67.054916 48.927193 
67.562485 0.414502 
67.913887 0.548 
68.050255 1.047078 
68.058266 0.877835 
68.230255 0.57179 
69.03418 1.052885 
69.070549 26.463234 
69.111732 0.757928 
69.188248 0.99217 
69.935997 1.143786 
70.044403 1.031891 
70.06572 2.185484 
70.958649 0.569481 
71.049767 2.220138 
71.086197 9.391869 
72.044991 1.777168 
72.081367 0.672372 
72.937836 1.245083 
73.029053 4.042323 
73.047531 0.966909 
74.097015 0.897779 
74.976006 0.4744 
75.593613 0.410392 
77.313499 0.281182 
77.43705 0.766962 
77.543991 1.018906 
77.996475 0.682449 
78.404839 0.322362 
79.021782 8.9811 
79.054802 19.577566 
79.117577 1.153324 
80.050133 1.597245 
80.195183 1.057337 
80.217453 0.766309 
80.948578 0.934049 
81.034065 0.867098 
81.070412 40.798958 
81.369293 1.093359 
81.405914 0.386094 
81.840172 0.760674 
81.903854 0.55549 
82.065704 0.982529 
82.073853 0.500304 
82.196579 0.730575 
82.704597 1.15797 
82.742561 0.783132 
82.985481 0.427223 
83.010681 0.661918 
83.049652 2.306227 
83.086067 10.444875 
83.45546 1.099027 
83.702759 0.605135 
84.044991 1.792006 
84.081299 3.147073 
84.682938 1.102699 
84.960258 0.476088 
85.028893 2.2584 
85.040192 0.90049 
85.065445 0.693831 
85.101662 1.451755 
85.87957 1.02906 
86.060455 0.397164 
86.074654 0.985252 
86.096954 0.403685 
87.04454 6.526037 
87.086441 0.291787 
87.690819 0.584458 
88.022057 4.179323 
88.316711 0.284381 
88.665283 0.760064 
88.968834 0.407563 
89.060173 7.443129 
89.40152 1.130607 
90.745857 0.923185 
90.948166 3.168573 
91.054688 24.931149 
91.057846 29.375463 
92.057884 0.434666 
92.803795 0.646857 
93.070328 18.305807 
93.964813 0.752732 
94.06562 1.245904 
94.073715 0.35885 
94.20034 1.140371 
95.049484 6.883933 
95.085922 27.732637 
95.187798 1.135191 
95.780472 0.739283 
96.081047 0.685072 
96.089371 0.396855 
97.039787 0.659251 
97.065102 0.850864 
97.101479 1.407353 
98.096924 0.362849 
98.489967 0.290359 
98.975906 1.270703 
99.044472 0.346482 
100.076042 1.056655 
100.112396 0.324884 
100.709267 0.820924 
101.060143 7.676603 
102.055389 0.433995 
102.091736 7.226662 
102.970291 0.395789 
103.041748 0.724325 
103.911194 0.765285 
104.629669 1.198106 
105.070152 10.055884 
106.06543 1.429693 
107.049522 6.517714 
107.085808 8.128191 
108.081062 1.143146 
108.958694 0.911845 
109.10141 7.261085 
109.364922 0.309113 
109.976395 0.767246 
110.060341 1.113785 
110.104782 0.346441 
110.451241 0.915979 
110.456184 0.460157 
111.215019 0.850957 
112.087029 0.38932 
114.356567 0.348519 
115.054527 0.697557 
116.053032 0.89403 
116.551277 0.294796 
116.986038 6.815568 
117.070183 3.568965 
117.198441 1.266325 
119.049393 0.346153 
119.08567 5.407789 
119.098267 0.565925 
119.152702 0.343215 
119.370049 0.62558 
120.080933 1.619023 
121.065056 0.897259 
121.088539 0.337339 
121.10125 1.076767 
122.023438 0.493994 
122.260788 0.323065 
122.277794 0.313011 
123.080841 0.640964 
123.116837 0.369436 
123.632118 0.469179 
125.362022 0.496866 
125.668259 1.149472 
125.735306 0.321443 
128.043488 1.230788 
128.061966 1.176638 
128.785904 0.746792 
129.069794 0.886269 
130.065063 0.406542 
131.000443 0.808849 
131.085709 3.282277 
131.487076 0.489182 
132.080826 3.33897 
133.064865 2.669692 
133.101196 2.778893 
134.096207 1.431934 
134.99646 9.49073 
135.080338 6.322903 
135.116882 0.41158 
136.075653 0.403993 
137.011566 0.361722 
137.132217 0.397468 
138.846939 0.450746 
140.22937 1.193465 
142.07692 0.341628 
142.520355 0.830638 
143.085281 0.415176 
144.654739 0.997121 
145.10112 0.971341 
146.096451 2.128856 
146.974426 5.09689 
146.996048 0.990036 
147.080215 0.398212 
147.116623 0.475736 
148.111771 0.756909 
148.405838 0.313043 
148.971634 0.40823 
149.01152 0.450002 
149.096054 0.388866 
149.22168 1.074985 
150.951111 1.167251 
150.968903 0.6989 
152.946228 0.318707 
152.98909 0.471952 
153.00647 0.794583 
154.033569 0.324855 
154.122101 0.327799 
155.954468 0.34563 
156.09259 0.326714 
156.138962 1.261952 
158.037079 0.967289 
158.096268 0.497355 
160.112076 1.105347 
162.973709 1.136679 
163.027115 0.38149 
163.976761 0.340756 
164.46077 0.894905 
164.920258 5.34361 
166.1353 0.905335 
168.980423 0.692764 
170.956696 0.936318 
171.032135 0.310293 
172.111954 0.39449 
173.095703 0.375594 
174.972824 0.578573 
180.888062 5.4641 
180.984116 2.845224 
181.0495 0.320053 
184.1604 0.780538 
186.927444 0.492636 
189.569031 0.357241 
190.017075 1.219241 
190.085861 0.690986 
198.899185 0.95887 
199.935135 1.07048 
201.239151 0.797597 
205.987244 0.352512 
206.926056 3.708485 
215.117691 0.522996 
219.173706 0.914623 
219.792755 0.454294 
220.297104 5.740423 
220.304718 5.513722 
220.329346 0.537562 
220.338501 0.678396 
220.882675 0.356015 
220.903122 1.113283 
222.898499 36.645279 
223.899475 0.516162 
225.042679 19.780754 
225.705734 0.465278 
226.043381 1.010085 
227.022003 1.916278 
227.039291 5.072462 
229.001572 6.268775 
235.308823 0.780516 
236.913925 0.864987 
238.913666 5.9117 
239.901398 1.072811 
240.909012 88.718712 
241.910187 4.162722 
242.679062 1.057178 
242.910095 1.27286 
244.734406 0.764531 
244.884048 1.212286 
247.011993 0.861902 
252.94812 0.462859 
254.924622 1.874776 
258.415985 0.901892 
262.894501 9.363703 
263.897003 0.417138 
267.000092 0.418098 
267.081512 0.459577 
268.978241 2.535744 
268.994965 0.35716 
276.818451 0.444101 
277.282013 0.703477 
278.363831 0.828981 
279.91568 0.401537 
280.397217 0.45942 
281.443848 0.965006 
281.884888 0.808693 
281.91153 4.750814 
283.030426 0.459078 
284.245697 1.257841 
284.807465 4.086816 
285.815948 1.616403 
285.834625 0.327654 
285.896606 0.863153 
286.822937 0.842895 
287.830933 14.952354 
288.838165 1.390802 
294.828705 3.142917 
297.3461 0.784247 
300.82251 1.727174 
301.81015 3.444227 
301.994415 1.23655 
302.818024 40.691822 
303.820496 0.33464 
304.904114 0.40409 
308.936798 2.218399 
309.362946 1.023577 
309.835022 0.869975 
310.825165 0.348934 
310.843201 12.239451 
311.379547 0.65966 
311.830475 11.691446 
312.838562 89.551918 
313.839661 1.965409 
314.473236 1.209893 
316.94043 0.780256 
319.835968 0.854615 
324.822693 0.688333 
326.817871 14.400711 
326.854309 1.147624 
327.825317 4.16664 
327.845184 0.44317 
328.832825 4.77493 
329.841919 10.77431 
330.847656 1.016399 
335.830933 0.342702 
336.43335 0.784966 
336.838867 0.879464 
337.845215 1.37178 
339.849396 0.418156 
342.832977 9.384678 
344.383789 1.272232 
344.828461 100.0 
344.975342 1.636227 
345.83078 3.27955 
346.830414 0.348838 
347.792175 0.323028 
351.846832 0.398604 
353.841797 7.092953 
363.792847 0.331245 
364.798004 0.845131 
365.807495 0.912084 
369.835968 3.747065 
370.837219 0.825462 
371.837646 1.8367 
379.643829 1.132727 
387.847198 0.477127 
388.847473 0.487686 
389.848938 2.27876 
392.948639 0.998149 
406.811005 0.379598 
412.610352 0.936356 
424.673096 1.03711 
431.454132 0.921037 
432.321838 0.334953 
443.866455 0.519619 
445.102203 1.236737 
447.346344 1.357881 
448.341064 1.0565 
458.150177 0.845624 
483.495697 0.50719 
484.233673 0.819351 
485.394897 0.334136 
491.691345 0.793272 
END IONS

