BEGIN IONS
PEPMASS=1079.59
CHARGE=1+
COMPOUNDNAME=N-[(3S,6S,9S,11R,15S,18S,20R,21R,24S,25S,26S)-3-[(1R)-2-carbamoyl-1-hydroxyethyl]-6-[(1S,2S)-1,2-dihydroxy-2-(4-hydroxyphenyl)ethyl]-11,20,21,25-tetrahydroxy-15-[(1R)-1-hydroxyethyl]-26-methyl-2,5,8,14,17,23-hexaoxo-1,4,7,13,16,22-hexaazatricyclo[22.3.0.0?,��]heptacosan-18-yl]-10,12-dimethyltetradecanamide
LIBRARYQUALITY=3
SMILES=N/A
INCHIKEY=DFQUSLQYURJBIT-MFKXNLKNSA-N
INCHI=InChI=1S/C51H82N8O17/c1-6-25(2)19-26(3)13-11-9-7-8-10-12-14-37(66)53-32-21-35(64)47(72)57-49(74)41-42(67)27(4)23-59(41)51(76)39(34(63)22-36(52)65)55-48(73)40(44(69)43(68)29-15-17-30(61)18-16-29)56-46(71)33-20-31(62)24-58(33)50(75)38(28(5)60)54-45(32)70/h15-18,25-28,31-35,38-44,47,60-64,67-69,72H,6-14,19-24H2,1-5H3,(H2,52,65)(H,53,66)(H,54,70)(H,55,73)(H,56,71)(H,57,74)/t25?,26?,27-,28+,31+,32-,33-,34+,35+,38-,39-,40-,41-,42-,43-,44-,47+/m0/s1
MSLEVEL=2
SOURCE_INSTRUMENT=N/A-ESI-QFT
FILENAME=library_mgf.mgf
SEQ=*..*
IONMODE=positive
ORGANISM=MONA
NAME=N-[(3S,6S,9S,11R,15S,18S,20R,21R,24S,25S,26S)-3-[(1R)-2-carbamoyl-1-hydroxyethyl]-6-[(1S,2S)-1,2-dihydroxy-2-(4-hydroxyphenyl)ethyl]-11,20,21,25-tetrahydroxy-15-[(1R)-1-hydroxyethyl]-26-methyl-2,5,8,14,17,23-hexaoxo-1,4,7,13,16,22-hexaazatricyclo[22.3.0.0?,��]heptacosan-18-yl]-10,12-dimethyltetradecanamide [M+H]+
PI=MoNA
DATACOLLECTOR=MoNA:VF-NPL-QEHF024874
PUBMED=N/A
SUBMITUSER=mwang87
TAGS=
SPECTRUMID=CCMSLIB00004715937
SCANS=24874
74.689613 0.019779 
76.241386 0.022159 
77.895607 0.022235 
78.920799 0.023576 
79.685623 0.01697 
80.263359 0.02151 
80.660324 0.020588 
81.070007 0.0878 
81.319199 0.023435 
82.04554 0.020008 
82.065208 0.620304 
83.060532 0.146496 
83.085602 0.219369 
84.044487 13.890978 
84.0812 0.024054 
85.047874 0.318573 
86.060135 100.0 
87.057182 0.052709 
87.063499 3.269068 
88.469078 0.020951 
90.864883 0.020915 
91.412407 0.021449 
94.028908 0.411856 
94.065308 0.051824 
94.822647 0.023231 
95.085602 0.328382 
96.044502 0.29598 
96.723793 0.015907 
97.101189 0.029056 
98.882835 0.023446 
99.055328 0.492763 
99.865936 0.014586 
100.039413 3.672989 
100.075783 18.513836 
100.390419 0.020362 
101.071053 1.810381 
101.079132 0.53766 
101.321854 0.018542 
102.055099 0.979519 
103.546181 0.023563 
103.606361 0.023401 
104.106773 0.01829 
106.280777 0.022439 
107.049431 0.090815 
109.039848 0.90384 
109.101349 0.241956 
109.8545 0.016772 
110.023849 0.204165 
110.715202 0.018728 
111.055344 0.287374 
111.116867 0.03253 
112.039375 0.737273 
112.116348 0.023916 
112.928787 0.017471 
113.070992 0.44817 
113.856163 0.024023 
114.055138 0.46705 
114.282578 0.021421 
114.570518 0.025619 
115.742645 0.020691 
117.065956 1.553775 
118.218796 0.027209 
118.61731 0.021901 
119.732475 0.024863 
121.029221 0.027269 
122.060059 0.163841 
122.456444 0.016413 
123.055405 0.278632 
123.091812 0.016426 
123.116867 0.028758 
124.075882 0.022183 
124.563843 0.019263 
124.690285 0.019404 
125.071075 0.669097 
127.050385 0.329543 
127.08683 0.050112 
128.034058 0.026506 
129.065933 1.120936 
129.676529 0.021628 
130.050018 0.930306 
131.081604 6.3721 
131.086929 0.028717 
132.065613 0.179673 
132.085052 0.045403 
133.962921 0.020546 
134.06015 0.227657 
134.69722 0.023879 
134.867035 0.022089 
135.055115 0.022176 
136.075943 0.02603 
136.324677 0.022902 
137.132721 0.050059 
137.967239 0.025806 
138.012833 0.025376 
139.050171 0.076173 
139.086731 0.579537 
139.468979 0.023516 
140.070816 0.51286 
141.065903 6.941005 
142.050064 0.161476 
142.069321 0.214919 
142.086411 1.424751 
143.081711 0.912285 
144.688156 0.018572 
145.060974 0.644159 
145.097275 23.086895 
146.044998 1.275419 
146.060562 0.04664 
146.100708 1.135528 
147.044067 3.213487 
148.047546 0.048237 
149.071182 1.07889 
150.054932 0.067608 
151.050171 1.750524 
151.086761 0.935921 
151.148056 0.048724 
151.387924 0.022596 
151.812653 0.022579 
152.034409 0.248764 
152.053146 0.02081 
153.065826 0.0783 
155.045288 0.016295 
155.081589 0.559035 
157.028564 0.102195 
157.097336 1.128681 
159.443832 0.026837 
163.071335 2.889233 
163.086594 0.042822 
164.070724 1.294955 
164.160538 0.022433 
165.06604 1.661805 
165.073196 0.017926 
165.322937 0.021274 
165.330643 0.022577 
166.069656 0.021023 
166.234894 0.020999 
167.045013 0.023696 
167.081558 11.655649 
168.065567 0.278196 
168.085144 0.621596 
169.060867 2.274393 
169.097229 1.674126 
169.833206 0.019782 
170.06395 0.021825 
170.092178 0.035799 
171.076523 1.702303 
174.054962 1.826991 
174.260529 0.015185 
175.0392 0.995692 
176.070938 0.083981 
177.065948 3.830232 
178.049606 0.049149 
178.070251 0.03197 
179.045303 1.240165 
179.081604 2.043456 
181.097366 0.528249 
182.056229 0.599106 
182.081238 0.148833 
183.076538 0.293979 
183.113022 0.48673 
184.072433 0.022764 
185.083176 0.031548 
185.092224 7.382227 
186.095825 0.186515 
186.802887 0.022422 
187.071457 0.283378 
187.107697 3.607537 
188.103073 0.061373 
188.111389 0.064077 
189.06604 0.025566 
189.748077 0.024346 
191.081558 1.630212 
192.065613 2.152742 
193.060913 0.247273 
193.077805 0.023488 
193.087906 0.026008 
193.097382 0.968707 
195.066391 0.033726 
195.076462 10.220521 
195.08577 0.21073 
195.112747 0.103824 
196.060699 0.05027 
196.080154 0.452194 
196.108505 0.051121 
197.092239 6.196352 
198.095718 0.2474 
199.107956 0.166679 
200.066895 0.245798 
200.527664 0.022261 
201.050537 0.05678 
201.12355 0.256946 
202.049728 0.04866 
203.081543 0.678286 
205.275177 0.030261 
205.602905 0.021809 
207.076675 0.023035 
208.108612 0.520944 
209.09227 3.463059 
210.096405 0.055589 
210.124023 0.295966 
211.071533 0.369266 
211.107941 2.219498 
213.087112 6.433344 
213.590485 0.021649 
214.090469 0.251715 
214.118622 0.394311 
215.102814 2.969724 
216.106537 0.027002 
218.079926 0.051059 
218.092667 0.343757 
219.076553 2.138003 
220.060684 0.603865 
220.080353 0.050655 
220.097168 1.045562 
220.108337 0.033452 
221.092163 4.607821 
221.982452 0.018594 
222.095886 0.073962 
222.91217 0.019873 
223.071701 0.024454 
223.085632 0.026815 
223.108688 0.053526 
224.103394 0.097129 
225.087128 4.574643 
225.973587 0.02102 
226.089584 0.166734 
226.107361 0.017276 
226.119263 0.536274 
227.102768 1.943236 
228.065384 0.026731 
228.134476 1.453502 
228.736938 0.022749 
229.097778 0.127639 
229.118027 0.022867 
231.076767 0.395718 
232.108612 0.053486 
232.781647 0.02607 
234.124649 0.050947 
235.108078 0.052193 
235.916779 0.02047 
236.103119 4.15163 
237.087143 6.953242 
237.107498 0.062144 
238.09082 0.367101 
238.118896 2.684221 
239.102829 1.652794 
239.122482 0.04507 
240.064819 0.027932 
242.114029 0.074266 
243.039261 0.022991 
243.097931 0.051521 
244.735931 0.030877 
245.092422 0.356257 
248.091995 1.007884 
249.123596 0.150706 
250.107727 0.091575 
252.098038 0.258407 
253.129745 1.566535 
254.113617 4.171197 
254.519699 0.026258 
255.076859 0.098498 
255.097717 11.349141 
255.119644 0.022615 
256.060822 0.326626 
256.101379 1.02829 
256.263977 1.006549 
257.092438 0.959596 
258.144958 0.047143 
259.107849 15.887633 
260.102875 1.219907 
260.112946 0.984895 
261.050323 0.028871 
261.108765 0.224841 
261.123657 1.493898 
261.937866 0.022893 
262.083466 0.022608 
262.118652 6.077108 
263.102966 0.305422 
263.122223 0.43525 
264.098358 0.441741 
265.082275 0.47879 
266.11441 0.02576 
268.061646 0.029593 
268.594666 0.02906 
269.092285 0.028088 
269.125854 0.05101 
270.07666 0.114123 
270.109009 1.049996 
271.140167 2.277614 
272.10379 1.1993 
272.124237 1.522505 
272.140961 0.026214 
273.087158 4.822306 
274.071442 0.101333 
274.09024 0.295352 
274.119141 0.148956 
275.103149 0.030654 
276.134827 0.240249 
277.118439 8.035121 
278.078186 0.046102 
278.114899 1.469011 
278.149902 0.279852 
279.118591 0.062175 
279.134094 2.907521 
280.093109 0.33448 
280.128967 4.993141 
281.132324 0.212358 
282.108429 3.193802 
283.071503 2.772857 
283.11142 0.100234 
284.056244 0.118125 
284.074005 0.067078 
285.086609 0.049722 
286.119171 0.371488 
287.102875 6.423881 
288.106384 0.627957 
289.151184 0.712121 
290.113342 2.455248 
291.097992 0.79238 
291.115723 0.081836 
292.093445 0.178981 
292.129639 0.022551 
294.145142 0.907867 
294.279236 0.111966 
295.104584 0.903683 
295.147858 0.021367 
296.106598 0.030653 
296.125061 0.025456 
297.11969 1.855775 
298.103638 0.427141 
298.121185 0.098607 
298.141144 0.024165 
299.135681 0.94615 
300.098083 4.194544 
301.082306 3.481207 
301.100311 0.494577 
302.065735 0.026628 
302.085449 0.21764 
304.149689 0.028691 
304.170776 0.369708 
305.113434 19.221371 
305.131104 1.257513 
306.117401 2.388358 
307.11734 0.0233 
308.124023 8.087855 
309.125336 0.891672 
310.103821 1.482184 
311.066345 0.071243 
313.114624 1.09534 
315.13031 0.668467 
316.093079 0.021767 
318.108429 2.960379 
319.092346 3.168812 
319.10907 0.192689 
320.095398 0.153191 
322.139801 9.983994 
322.274231 0.383467 
323.123993 1.488011 
323.143127 1.250226 
324.290436 0.081394 
325.151001 0.0775 
326.114532 0.122031 
326.134491 0.428822 
327.129974 3.688124 
328.093231 0.153853 
328.13147 0.611323 
331.125488 1.42842 
334.101929 0.021344 
336.119141 3.454939 
337.1026 0.043717 
337.122467 0.331004 
338.269653 0.191953 
338.306366 0.222567 
339.13208 0.023216 
340.130371 0.077379 
340.150848 1.181867 
341.113098 0.025562 
342.145111 0.11803 
344.124664 1.335194 
344.158203 0.564416 
345.128876 0.021907 
346.103699 0.119924 
350.027283 0.021176 
350.269226 1.483882 
351.274536 0.030181 
351.301666 0.035343 
352.128937 0.076861 
352.285126 0.274377 
354.130005 0.403772 
358.140106 0.48849 
361.285461 0.983617 
362.135376 0.935584 
362.171082 0.056614 
362.289032 0.058619 
367.296204 0.030133 
368.124847 0.620025 
368.279175 0.09494 
369.156097 1.160401 
370.140411 0.952029 
371.14505 0.025119 
371.171356 0.827669 
372.155304 0.127146 
379.295227 0.265472 
382.140411 0.115704 
383.290588 0.192631 
383.326752 0.22767 
385.151154 0.310692 
386.134491 2.419419 
387.140167 0.308932 
387.166748 1.211073 
387.301605 0.233661 
388.150299 0.623742 
388.174347 0.025843 
389.115936 0.020572 
389.182678 0.119573 
389.280548 0.157361 
392.154205 0.022805 
395.134644 0.072188 
396.119659 1.45133 
397.991028 0.02683 
399.166992 0.16457 
400.15094 1.318488 
401.154388 0.081571 
403.161591 1.329241 
403.296509 0.887054 
404.145233 1.298435 
404.299866 0.139573 
405.149078 0.089734 
405.311005 1.536528 
406.161346 0.205677 
406.312225 0.093085 
407.160034 0.025431 
407.291412 0.272907 
407.328247 0.043725 
408.293457 0.02248 
410.135132 0.403479 
412.183441 0.131996 
413.145996 6.217643 
414.129272 1.014778 
414.153992 0.238132 
415.133331 0.095011 
415.160858 0.083794 
415.296478 0.213318 
416.145721 0.706218 
417.17807 1.059905 
421.173431 0.493166 
421.306091 0.045239 
421.341614 0.025968 
422.168976 0.080271 
423.187744 0.309853 
423.322296 1.159362 
424.324799 0.065829 
427.162415 0.870984 
428.146149 0.763527 
430.298279 0.024186 
430.34314 0.257803 
431.156219 15.239424 
432.161285 2.543866 
432.358368 0.278715 
433.170746 0.075781 
433.306366 2.221165 
434.310242 0.303084 
435.188385 0.169736 
435.322083 0.023663 
440.178162 0.450141 
444.189362 0.118664 
445.172211 1.561537 
448.354248 0.678013 
449.167114 8.130223 
450.171478 1.47109 
451.317291 0.938164 
452.321533 0.022318 
455.157288 0.195722 
457.205261 1.049108 
458.209229 0.027481 
462.200745 0.11889 
463.314453 0.023551 
464.348999 0.59893 
464.713318 0.022213 
465.356018 0.031778 
466.364594 2.387079 
467.177734 1.849485 
467.367981 0.416218 
468.181793 0.16207 
469.174286 0.029634 
474.330719 0.029843 
476.348785 2.285793 
477.352478 0.335248 
481.171875 0.145532 
482.340485 0.02597 
488.215729 0.03059 
491.36026 0.134821 
492.343567 0.056753 
494.359253 1.730091 
495.362854 0.089403 
496.182617 0.032012 
497.167175 0.168366 
498.199036 0.026716 
498.332581 0.430948 
499.182648 0.907662 
499.336792 0.117289 
500.347809 2.524699 
501.351471 0.461298 
509.370239 1.852168 
510.372284 0.278755 
511.316864 0.025628 
513.028198 0.025332 
514.19397 0.196333 
516.20929 0.19761 
517.192505 0.030309 
518.359741 0.581082 
519.364197 0.024782 
524.181702 0.026108 
532.204834 0.364208 
533.369568 0.173187 
540.208679 0.139816 
542.191284 0.02288 
543.345032 0.028008 
546.354553 1.259867 
547.357239 0.067931 
557.235718 1.042552 
558.222595 0.238075 
559.386047 0.146908 
568.230774 0.035485 
575.245972 0.511377 
577.396179 1.356497 
578.39978 0.136361 
595.403503 0.031384 
600.752686 0.021506 
608.236023 0.186436 
625.2229 0.030545 
630.085388 0.02765 
648.535339 0.027146 
650.215698 0.019773 
658.366394 0.024804 
669.38623 0.238754 
683.624084 0.025431 
687.39801 0.027896 
708.220154 0.047429 
708.424255 0.047548 
708.686768 0.068891 
716.928284 0.027019 
737.415588 0.109286 
738.413269 0.032506 
752.284729 0.0329 
906.456604 0.026211 
925.126099 0.02621 
1116.285278 0.023501 
1117.207764 0.024196 
END IONS

