BEGIN IONS
PEPMASS=333.166
CHARGE=1+
COMPOUNDNAME=Massbank: Spectinomycin
LIBRARYQUALITY=3
SMILES=[H]C([H])([H])N([H])C([H])(C([H])(O[H])1)C([H])(O[H])C([H])(O2)C([H])(OC(O[H])(C(=O)3)C([H])(OC([H])(C([H])([H])[H])C([H])([H])3)2)C([H])(N([H])C([H])([H])[H])1
INCHIKEY=UNFWWIHTNXNPBV-UHFFFAOYSA-N
INCHI=1S/C14H24N2O7/c1-5-4-6(17)14(20)13(21-5)22-12-10(19)7(15-2)9(18)8(16-3)11(12)23-14/h5,7-13,15-16,18-20H,4H2,1-3H3
MSLEVEL=2
SOURCE_INSTRUMENT=ESI-LC-ESI-QTOF
FILENAME=Massbank_ESI_positive_8_1_2014_peaks.mgf
SEQ=*..*
IONMODE=Positive
ORGANISM=MASSBANK
NAME=Massbank: Spectinomycin [M+H]+
PI=Putative Massbank Match
DATACOLLECTOR=Massbank
PUBMED=N/A
SUBMITUSER=mwang87
TAGS=
SPECTRUMID=CCMSLIB00000206373
SCANS=1632
98.0602 261.664 
100.0758 143.355 
116.0708 238.801 
122.0601 142.844 
140.0703 408.178 
153.1014 110.688 
158.0809 222.119 
189.1232 388.941 
284.1116 189.963 
302.1224 305.53 
305.1698 107.342 
315.154 164.173 
333.1614 10000.0 
END IONS

