BEGIN IONS
PEPMASS=454.147
CHARGE=1+
COMPOUNDNAME=(5S,8S)-8-benzoyl-2-[(Z,1S,2S)-1,2-dihydroxyhex-3-enyl]-9-hydroxy-8-methoxy-3-methyl-1-oxa-7-azaspiro[4.4]non-2-ene-4,6-dione
LIBRARYQUALITY=3
SMILES=N/A
INCHIKEY=SLYDIPAXCVVRNY-BBJHAQHQSA-N
INCHI=InChI=1S/C22H25NO8/c1-4-5-11-14(24)15(25)16-12(2)17(26)21(31-16)19(28)22(30-3,23-20(21)29)18(27)13-9-7-6-8-10-13/h5-11,14-15,19,24-25,28H,4H2,1-3H3,(H,23,29)/b11-5-/t14-,15-,19?,21+,22+/m0/s1
MSLEVEL=2
SOURCE_INSTRUMENT=N/A-ESI-QFT
FILENAME=library_mgf.mgf
SEQ=*..*
IONMODE=positive
ORGANISM=MONA
NAME=(5S,8S)-8-benzoyl-2-[(Z,1S,2S)-1,2-dihydroxyhex-3-enyl]-9-hydroxy-8-methoxy-3-methyl-1-oxa-7-azaspiro[4.4]non-2-ene-4,6-dione [M+Na]+
PI=MoNA
DATACOLLECTOR=MoNA:VF-NPL-QEHF020445
PUBMED=N/A
SUBMITUSER=mwang87
TAGS=
SPECTRUMID=CCMSLIB00004711508
SCANS=20445
50.028374 1.06228 
50.061069 2.325884 
50.145866 1.303624 
50.577572 1.374367 
50.627769 1.784596 
50.883865 1.852667 
51.404316 1.39156 
52.253437 3.449293 
52.890694 1.097073 
52.897976 1.438138 
53.038879 0.858304 
53.122414 2.953056 
53.441006 1.12855 
54.072262 1.023913 
54.355759 1.502474 
54.57246 1.146474 
55.025318 2.668503 
55.296379 1.375645 
55.718647 2.719163 
56.357361 0.820125 
56.429871 2.463148 
56.572426 0.998673 
56.965042 100.0 
57.070148 0.735289 
57.325729 1.130951 
57.666138 0.947415 
58.194798 2.998152 
58.850014 2.753363 
58.925182 0.511505 
59.135777 0.542238 
59.490059 0.558593 
59.57663 1.040527 
59.662521 2.663895 
59.960876 2.9974 
60.044621 0.658683 
60.086403 1.010901 
60.107437 3.094491 
60.957821 0.812316 
61.902119 0.751536 
62.521698 0.545855 
63.421593 1.318974 
63.765549 0.724008 
63.973991 2.681635 
64.858376 0.519167 
66.033188 2.133258 
66.347824 1.021553 
66.642258 3.423744 
66.994179 1.251986 
67.188141 0.709836 
67.692871 3.988312 
67.707489 2.62589 
68.002357 1.469227 
68.480026 1.086826 
69.368233 0.840917 
69.834641 0.90653 
70.142296 2.855794 
70.766418 4.08208 
71.231956 1.059926 
71.476593 0.78617 
72.31813 0.50884 
73.125023 1.905286 
74.664276 0.605757 
74.737144 1.116587 
74.923592 3.673127 
75.712486 3.517294 
76.119141 2.808487 
76.572906 2.163741 
77.038475 1.177272 
77.058617 1.4977 
77.197266 0.761296 
77.639442 3.149095 
78.416885 1.517474 
78.800163 2.701244 
79.34066 0.758287 
79.847969 3.45829 
79.862335 2.86813 
80.033844 2.256563 
80.592758 4.117107 
80.816521 0.457121 
81.033485 0.590797 
81.35675 3.237711 
81.568275 1.374668 
81.760101 2.527525 
82.026268 6.68632 
82.507576 3.340623 
83.02256 3.643773 
83.180641 4.444057 
83.484818 0.822135 
84.030472 1.057944 
84.518211 3.393364 
84.603264 1.94319 
84.908302 1.434672 
85.64711 3.25649 
86.257904 2.82031 
86.810265 4.009341 
87.31179 1.381232 
87.671646 3.154789 
88.896004 0.953822 
88.925407 3.772307 
89.112411 2.760188 
89.990189 3.080589 
90.886772 1.01869 
90.98037 1.336997 
91.054031 0.737377 
91.212929 2.813661 
91.41201 2.371981 
91.463043 1.156722 
92.432098 0.967363 
93.185448 0.734312 
93.619324 1.418974 
94.098022 3.670426 
94.661812 1.029136 
94.915695 3.881723 
95.049034 7.334724 
95.134308 3.47414 
95.290428 3.48504 
96.181091 0.503554 
96.196869 4.818937 
96.590523 3.852939 
97.054192 3.372859 
98.138596 2.994001 
98.975243 1.542008 
100.088684 1.001341 
100.846115 1.041451 
101.619362 3.097027 
103.512871 2.705133 
104.154884 0.838681 
104.437309 0.912797 
104.863258 0.898979 
104.986244 2.064485 
105.033447 94.983994 
105.044617 0.820928 
106.03656 0.69741 
106.860077 1.146156 
109.775627 1.197731 
110.003075 2.626889 
111.043816 0.511868 
113.026344 1.091885 
113.423393 1.539378 
114.335739 1.449175 
115.114159 3.124099 
116.98571 0.556867 
117.52253 0.623438 
118.136047 3.16573 
118.289169 1.284874 
121.461868 3.656822 
124.261757 1.961253 
124.930664 2.039434 
125.745087 2.595879 
129.639771 2.214855 
130.390366 1.526456 
130.410324 1.467459 
136.267654 3.061954 
137.478943 1.99431 
141.0867 1.758643 
141.293015 4.225292 
142.851288 1.708848 
146.987823 0.551639 
149.509903 2.200492 
149.940414 3.000101 
150.96405 3.32774 
152.368652 4.026977 
152.990097 0.954539 
154.88147 0.937402 
155.03363 1.883511 
155.595032 5.074008 
156.364944 3.062619 
156.805771 1.179259 
158.041153 3.156221 
159.451767 1.231301 
162.687393 0.828684 
163.219376 2.88624 
163.321198 3.157105 
163.445602 3.103172 
165.987091 1.549034 
166.061859 3.119227 
167.172485 0.538275 
170.214508 2.970517 
174.727234 3.923345 
176.149429 1.157774 
176.192215 1.053482 
177.232605 0.580377 
179.612305 1.172774 
179.940292 0.542765 
184.088654 1.581783 
189.579636 1.41772 
190.896332 3.946971 
191.069458 0.848021 
191.863586 2.815746 
192.026138 2.198943 
197.151413 2.604221 
201.9133 3.239927 
204.31781 0.797825 
205.322678 2.796102 
207.180969 1.964421 
207.253952 1.474519 
208.467758 2.879268 
211.673141 1.547382 
211.858475 2.401393 
212.699921 1.074936 
213.206314 4.044198 
213.526978 2.285161 
219.376541 1.692929 
219.394104 35.715935 
219.409073 8.689549 
219.419067 5.357537 
224.475433 3.884499 
227.370529 3.599666 
229.619919 1.034405 
230.379501 1.647375 
231.005173 3.856113 
231.077072 0.915241 
233.401901 3.328872 
233.477005 3.494194 
238.127182 1.267678 
240.427261 1.316454 
242.789398 4.195617 
245.927948 1.288015 
254.180603 3.653476 
260.108337 2.040553 
263.814758 4.763211 
266.756348 3.375035 
278.591278 3.712038 
283.032776 1.169889 
284.509613 1.696984 
285.643219 1.58093 
287.006042 3.009111 
287.935181 1.108994 
293.158936 1.126452 
294.186615 3.635048 
299.138123 1.14883 
303.871582 3.558484 
304.299042 2.103343 
311.843384 2.556157 
312.880524 0.53129 
317.124969 2.796591 
317.209656 1.098936 
318.097443 2.933654 
318.533752 2.164816 
324.628601 4.555018 
330.574432 3.928202 
334.758423 1.197271 
336.004578 1.554236 
358.290192 3.716896 
367.051514 3.671358 
369.530792 4.55669 
369.99176 4.055441 
370.328186 0.951312 
383.039368 1.222768 
398.959564 0.978178 
399.374878 3.594327 
404.623749 4.320488 
409.388702 3.112956 
413.731903 3.877243 
424.301086 3.074642 
432.450836 3.519277 
436.980957 3.104258 
444.98645 2.75884 
445.016968 3.639024 
446.167816 1.26618 
463.421844 3.294036 
465.27829 2.742554 
467.274933 2.67707 
480.990448 2.622491 
END IONS

