BEGIN IONS
PEPMASS=333.166
CHARGE=1+
COMPOUNDNAME=SPECTINOMYCIN
LIBRARYQUALITY=3
SMILES=N/A
INCHIKEY=UNFWWIHTNXNPBV-WXKVUWSESA-N
INCHI=InChI=1S/C14H24N2O7/c1-5-4-6(17)14(20)13(21-5)22-12-10(19)7(15-2)9(18)8(16-3)11(12)23-14/h5,7-13,15-16,18-20H,4H2,1-3H3/t5-,7-,8+,9+,10+,11-,12-,13+,14+/m1/s1
MSLEVEL=2
SOURCE_INSTRUMENT=N/A-ESI-QFT
FILENAME=library_mgf.mgf
SEQ=*..*
IONMODE=positive
ORGANISM=MONA
NAME=SPECTINOMYCIN [M+H]+
PI=MoNA
DATACOLLECTOR=MoNA:VF-NPL-QEHF003420
PUBMED=N/A
SUBMITUSER=mwang87
TAGS=
SPECTRUMID=CCMSLIB00004694483
SCANS=3420
50.4814 0.069794 
50.574593 0.043273 
50.691933 0.06426 
51.237495 0.055394 
52.529488 0.048171 
53.002995 0.437635 
53.039326 7.001947 
53.227493 0.046743 
53.787094 0.056974 
54.034424 0.08237 
54.84206 0.056467 
55.004524 0.056091 
55.018623 2.235644 
55.054974 5.795224 
55.179642 0.05842 
56.034683 0.039917 
56.050232 7.374358 
56.834988 0.074023 
57.005508 0.034997 
57.034218 14.248955 
57.058044 0.793996 
57.113335 0.060678 
57.356213 0.061343 
57.855343 0.042597 
58.029472 3.579642 
58.065865 9.237117 
59.037289 9.304093 
59.04211 0.060016 
59.173996 0.062066 
59.461906 0.038102 
59.815456 0.050526 
60.04512 1.651765 
60.047707 0.042111 
60.435024 0.043325 
60.645332 0.036836 
61.844967 0.044784 
63.245152 0.058142 
63.679142 0.067615 
63.807671 0.059551 
64.177811 0.049925 
64.378487 0.049541 
65.039291 0.489602 
65.058022 0.058804 
65.07177 0.056684 
65.521675 0.04602 
66.178673 0.043336 
66.226425 0.042842 
66.475945 0.048982 
66.698929 0.047101 
66.91555 0.063122 
67.042374 0.333979 
67.054924 2.456266 
67.057884 0.053684 
67.40004 0.048649 
67.542122 0.053071 
68.05014 10.818834 
68.302467 0.066587 
68.818802 0.061447 
69.034164 24.169933 
69.204987 0.058483 
69.856636 0.048067 
70.037537 0.264163 
70.065788 51.976048 
70.067955 0.867713 
70.182701 0.053176 
70.641296 0.048997 
70.649475 0.063512 
71.013435 0.473305 
71.049789 25.048758 
71.069153 0.880217 
72.045036 51.766666 
72.053108 0.197824 
72.068855 0.490183 
72.081444 0.328251 
72.175865 0.070444 
72.333794 0.055847 
72.633293 0.056435 
73.029068 2.064092 
73.048424 0.574739 
73.052849 12.017307 
74.060661 33.152878 
74.475983 0.048879 
75.59156 0.067684 
76.436798 0.061783 
78.323494 0.059445 
79.054878 0.337355 
80.050056 3.052713 
80.59639 0.074845 
81.034042 19.577023 
81.057854 0.796844 
81.310707 0.060674 
82.037476 0.382807 
82.041801 0.074855 
82.065666 19.848394 
83.013382 0.437193 
83.037277 0.044141 
83.04966 9.614964 
83.069046 0.220773 
83.073547 0.285258 
83.118225 0.053992 
83.318947 0.04554 
83.605583 0.051442 
84.044937 9.43089 
84.053162 0.063989 
84.081352 5.586358 
85.028954 10.686516 
85.052734 4.94393 
85.076584 5.154986 
86.060547 22.335247 
86.084358 0.214226 
86.432327 0.056287 
86.878883 0.059727 
87.008224 2.269628 
87.044594 0.96762 
87.092155 0.093044 
87.884407 0.049844 
88.039833 0.157651 
88.076202 4.430741 
89.265259 0.069789 
90.668007 0.049655 
91.045563 0.065995 
91.054642 0.048341 
91.721397 0.056971 
92.13974 0.067747 
92.810516 0.044442 
92.886009 0.051314 
93.057701 0.370276 
93.534012 0.05203 
94.065529 44.669033 
94.505699 0.046819 
94.537567 0.06421 
95.049576 0.968082 
95.068909 1.694408 
95.073318 0.06433 
95.631271 0.054746 
96.044785 5.629787 
96.081184 5.207145 
97.028831 1.938543 
97.052658 1.946035 
97.064835 0.101173 
97.07679 0.126787 
97.156883 0.059266 
97.314194 0.053875 
98.060448 100.0 
99.044426 27.846849 
99.063904 4.074715 
99.06823 4.462268 
99.171227 0.050938 
100.039696 7.542472 
100.047791 0.459613 
100.0522 0.03632 
100.076027 15.463155 
100.224007 0.041849 
101.060127 0.169455 
101.079651 0.094884 
102.055328 7.175326 
102.316269 0.057583 
103.693108 0.053984 
104.089119 0.037041 
104.137291 0.058897 
106.065361 0.142121 
107.385544 0.048494 
108.04464 0.087586 
108.081062 0.682984 
108.693909 0.050443 
109.028641 7.214232 
109.076424 0.050749 
109.242256 0.06302 
110.060295 12.467518 
110.077385 0.062907 
110.084167 0.064664 
111.044312 3.121869 
111.063972 0.158238 
111.06813 3.325431 
111.091881 0.126164 
112.039536 10.968201 
112.07589 28.68239 
112.079964 0.382968 
112.099808 2.694986 
113.023453 0.333139 
113.042976 0.09901 
113.047195 0.036233 
113.059975 0.069587 
113.079231 0.889698 
114.055176 7.978452 
114.091614 0.581073 
114.990555 0.051557 
115.063126 0.143932 
116.070763 13.920801 
116.346916 0.075639 
116.83223 0.063102 
120.799622 0.059699 
122.060181 25.384928 
122.126228 0.067054 
123.063499 0.81677 
123.068047 0.693761 
123.091881 0.771444 
124.039177 0.077103 
124.07579 4.742389 
124.530769 0.045599 
125.023003 0.046045 
125.059319 0.055152 
125.107384 0.666956 
126.054985 0.732804 
126.091614 0.187291 
127.039085 1.429918 
127.109161 0.04799 
127.242981 0.068105 
127.246994 0.045055 
128.046341 0.05443 
128.07074 2.505973 
129.054672 6.194975 
130.316254 0.039179 
131.606598 0.070491 
131.876465 0.068349 
134.9543 0.059506 
135.091629 4.822858 
135.785446 0.05761 
136.075623 0.059308 
136.094803 0.09343 
136.729156 0.042061 
136.98111 0.053171 
138.054825 1.513118 
139.062744 1.009441 
139.134781 0.060619 
139.393326 0.062023 
139.516251 0.072288 
140.034393 0.060982 
140.070496 15.071633 
141.073563 0.346117 
141.511459 0.048852 
142.086212 1.093557 
143.945801 0.068703 
144.159866 0.076601 
145.644424 0.046298 
146.431061 0.052621 
146.659576 0.05135 
146.806717 0.060884 
146.88475 0.071024 
147.139786 0.056113 
148.359924 0.046866 
148.876175 0.068702 
149.962234 0.058027 
150.989441 0.073668 
151.769669 0.074732 
152.071152 0.135421 
152.490173 0.066851 
153.102234 1.057771 
153.459015 0.068793 
153.790817 0.046111 
154.086182 0.887612 
156.065323 0.211307 
158.081055 2.434154 
159.39299 0.056623 
161.508087 0.052964 
161.761032 0.047476 
161.876785 0.046641 
162.563385 0.031176 
170.081116 0.438593 
171.953583 0.048826 
172.096527 0.103627 
173.989639 0.063159 
177.95784 0.077376 
181.044922 0.063731 
181.514069 0.044667 
182.080841 0.07877 
183.786911 0.047273 
189.123322 2.897957 
190.658325 0.052193 
192.9375 0.070258 
195.47438 0.050768 
195.989853 0.059991 
196.480774 0.06555 
197.924469 0.061014 
200.091492 0.130174 
204.094986 0.051775 
204.456741 0.048453 
207.133774 1.199258 
210.184128 0.065701 
210.262604 0.073343 
217.936447 0.059304 
218.868484 0.05746 
220.204193 1.14344 
220.22496 0.089123 
222.558563 0.056786 
227.683472 0.045923 
229.962067 0.078197 
230.148453 0.074445 
233.231689 0.056374 
236.712784 0.039485 
237.653763 0.059933 
239.392212 0.061008 
239.526062 0.038106 
242.7612 0.051687 
242.802231 0.057163 
245.699417 0.061479 
251.717361 0.041 
254.85762 0.069631 
268.817505 0.050043 
272.066833 0.06517 
274.265381 0.059242 
286.679352 0.060517 
290.49942 0.062381 
292.963196 0.045295 
296.482208 0.055095 
300.383881 0.065154 
301.589478 0.034592 
302.601257 0.065979 
304.079254 0.057504 
305.485352 0.056272 
316.511475 0.047539 
319.816498 0.061113 
320.817169 0.051548 
349.01651 0.080812 
END IONS

