BEGIN IONS
PEPMASS=365.079
CHARGE=1+
COMPOUNDNAME=(4R,6S,8S,9Z,11E)-16-chloro-17,19-dihydroxy-4-methyl-3,7-dioxatricyclo[13.4.0.0?,?]nonadeca-1(15),9,11,16,18-pentaene-2,13-dione
LIBRARYQUALITY=3
SMILES=N/A
INCHIKEY=WYZWZEOGROVVHK-RPJJWQTDSA-N
INCHI=InChI=1S/C18H17ClO6/c1-9-6-15-14(25-15)5-3-2-4-10(20)7-11-16(18(23)24-9)12(21)8-13(22)17(11)19/h2-5,8-9,14-15,21-22H,6-7H2,1H3/b4-2+,5-3-/t9-,14+,15+/m1/s1
MSLEVEL=2
SOURCE_INSTRUMENT=N/A-ESI-QFT
FILENAME=library_mgf.mgf
SEQ=*..*
IONMODE=positive
ORGANISM=MONA
NAME=(4R,6S,8S,9Z,11E)-16-chloro-17,19-dihydroxy-4-methyl-3,7-dioxatricyclo[13.4.0.0?,?]nonadeca-1(15),9,11,16,18-pentaene-2,13-dione [M+H]+
PI=MoNA
DATACOLLECTOR=MoNA:VF-NPL-QEHF022118
PUBMED=N/A
SUBMITUSER=mwang87
TAGS=
SPECTRUMID=CCMSLIB00004713181
SCANS=22118
50.255089 0.092106 
50.65789 0.105466 
51.81702 0.071333 
52.059834 0.047365 
52.374428 0.088192 
52.418999 0.097283 
53.038879 2.469383 
54.009445 0.100974 
54.622017 0.043593 
55.01815 2.286958 
55.054512 4.807155 
55.679489 0.071275 
55.855461 0.096665 
57.03376 0.325614 
57.486855 0.101312 
57.680145 0.075093 
59.662827 0.05344 
59.937828 0.044762 
60.470047 0.098004 
61.056957 0.050563 
61.402119 0.103757 
62.291943 0.104106 
62.821877 0.055922 
65.038727 0.193303 
67.054321 3.609837 
69.033569 20.494469 
69.069977 0.45329 
70.161514 0.043861 
70.368546 0.095948 
71.049171 1.291606 
71.441193 0.089789 
72.777588 0.076486 
74.07206 0.119937 
74.947006 0.079633 
75.679787 0.073006 
75.990059 0.078259 
76.729538 0.100794 
77.038422 0.141562 
78.512756 0.046385 
79.054199 6.224695 
80.057648 0.111957 
81.033508 5.501925 
81.069862 5.0876 
83.049133 7.140811 
83.085548 0.108031 
83.744911 0.056253 
84.052582 0.105409 
85.262459 0.076777 
87.851974 0.080222 
87.915428 0.128227 
90.793045 0.041404 
91.054222 7.158081 
92.757339 0.08633 
93.069901 12.606602 
93.16011 0.127246 
94.073151 0.193785 
94.82354 0.077709 
94.930351 0.090521 
95.04911 10.958615 
95.085464 0.564238 
96.052483 0.291002 
96.211624 0.115818 
96.48159 0.054765 
97.06485 2.097149 
98.324608 0.05658 
99.043968 0.110348 
103.054192 1.424191 
103.501923 0.092569 
104.705772 0.041534 
105.044792 0.484955 
105.069901 1.081153 
106.714287 0.041251 
106.983948 0.110018 
107.049095 1.01504 
107.085518 0.317264 
109.064819 0.613193 
109.100952 0.115392 
111.044044 3.48702 
111.079895 0.051761 
112.047455 0.174048 
113.695831 0.064093 
117.069992 0.254605 
119.048981 0.538638 
120.080811 1.219964 
121.028381 2.319298 
121.064796 21.488747 
122.068024 0.908478 
122.072563 0.758344 
123.788086 0.12479 
124.330742 0.112608 
124.532578 0.039688 
125.059593 0.070386 
129.069504 0.079159 
129.414581 0.048358 
130.351974 0.110075 
131.049179 2.887534 
132.755753 0.088086 
133.064758 0.132992 
134.322861 0.060027 
135.044113 0.595348 
135.080368 3.082845 
135.302139 0.101505 
135.586594 0.033589 
137.06015 0.038252 
139.038956 2.91806 
139.07576 0.139593 
139.199799 0.087048 
141.36821 0.080408 
144.906631 0.111882 
145.064789 1.006198 
145.643448 0.043477 
146.945312 0.034245 
147.044037 0.728748 
147.546326 0.11289 
148.051804 0.141155 
149.329636 0.069337 
151.616196 0.111592 
153.054535 0.104022 
154.989212 3.490323 
156.986557 0.196346 
157.005127 2.518158 
159.001373 0.083127 
159.04393 1.603405 
160.051849 0.78496 
161.059784 0.902862 
163.038498 0.1134 
164.743637 0.034892 
169.005051 2.360426 
169.064804 0.554004 
173.059784 0.817061 
174.067719 0.534281 
175.673035 0.035251 
181.00499 6.897214 
182.008499 1.728917 
182.984116 0.167239 
183.00206 5.024253 
183.020737 0.951594 
183.080353 0.039253 
183.471695 0.045346 
184.004944 0.092208 
184.051819 0.052814 
184.511017 0.053866 
184.999893 1.08065 
185.059601 4.341966 
186.067688 0.106228 
186.840225 0.077697 
187.038849 0.506135 
187.075043 0.281857 
187.658554 0.079509 
187.679001 0.11694 
188.047699 0.1687 
188.083069 0.091739 
189.054504 20.698318 
189.406967 0.051832 
189.865372 0.128033 
190.057892 6.6055 
191.059509 0.104801 
192.041565 1.825279 
195.020691 5.819966 
196.023285 0.147078 
196.999893 38.304592 
197.016861 0.887029 
197.059753 1.215234 
198.003662 3.658547 
198.067505 1.670614 
198.979324 2.403696 
198.996857 7.635336 
199.014847 0.157801 
200.977097 0.278931 
200.994812 14.344583 
201.054581 0.101047 
201.998322 0.738069 
202.062119 0.658476 
202.991882 3.591555 
203.052322 0.064875 
203.337341 0.109341 
205.002777 0.07521 
207.020676 1.164993 
207.06517 15.317411 
208.068558 5.464585 
208.999908 6.697676 
209.017532 0.389872 
209.03627 3.462792 
209.070938 0.040318 
210.003342 1.51445 
210.979187 18.533268 
210.996735 5.528659 
211.015518 1.152051 
211.034103 0.161211 
211.07518 0.716349 
211.98262 2.160883 
212.000092 0.116313 
212.017639 0.09074 
212.045929 0.140052 
212.083405 0.048476 
212.976227 4.939371 
212.994598 0.618757 
213.054581 3.686384 
214.062424 5.519184 
214.349976 2.95106 
215.068848 0.167311 
215.088882 0.047908 
219.020813 0.575432 
219.065216 100.0 
220.068481 41.782356 
220.999817 0.041668 
221.036346 1.351607 
221.070679 3.906127 
222.007523 0.065508 
223.015671 8.526269 
223.051483 0.121253 
223.074356 0.089478 
223.950317 0.041277 
224.01889 0.534051 
224.994781 9.432665 
225.012878 1.080561 
225.090683 0.272447 
225.999435 0.892396 
226.062332 0.74268 
226.991653 1.644964 
227.010422 7.640847 
227.066879 0.111326 
228.01384 0.155491 
228.04155 0.902388 
228.79985 0.057867 
229.007324 0.998853 
229.046494 0.122589 
230.056992 0.102011 
231.020599 2.520551 
233.036301 0.486084 
233.168533 0.03767 
233.891251 1.999806 
235.015488 0.92082 
235.0755 0.469681 
236.995529 0.193228 
237.013672 0.108949 
237.031311 2.10749 
237.090759 0.422672 
238.099243 0.115655 
238.991226 0.227432 
239.01059 6.898289 
239.024506 0.1004 
239.226807 0.123662 
240.013824 0.438329 
240.078323 0.138735 
241.007431 1.06388 
241.047562 4.607706 
242.056992 1.816077 
247.015594 0.634076 
247.075058 0.156078 
248.994553 0.10749 
249.012726 0.330133 
249.031158 2.753745 
251.010483 3.225702 
251.026733 0.233517 
251.046951 1.488291 
251.070572 0.176955 
252.013382 0.083853 
253.007889 0.152799 
253.085785 0.181553 
254.0905 0.09374 
255.005173 0.546612 
255.101273 2.187053 
256.073242 0.261225 
256.104889 0.669705 
257.080078 0.856814 
258.084625 0.156591 
259.015381 1.337529 
261.011139 0.088674 
261.030914 0.685126 
262.037628 0.093304 
263.010345 5.568017 
263.069946 0.085276 
264.013824 0.201351 
264.049133 0.09513 
264.076599 0.297664 
264.990021 11.815497 
265.006042 0.918317 
265.025116 0.22085 
265.083008 0.338241 
265.99353 6.302363 
266.092804 0.301858 
266.98645 14.12865 
267.039185 0.123136 
267.102264 0.075679 
267.990784 0.719325 
268.109497 0.053223 
269.284149 0.149063 
271.097198 0.06967 
273.112 1.291823 
273.595306 0.077374 
274.115387 0.461926 
275.010803 0.087419 
275.027649 0.108297 
275.902344 0.456525 
276.017303 0.093631 
277.008514 0.139963 
277.025879 4.253577 
277.041809 0.135659 
278.029968 0.124044 
279.023499 0.467131 
279.042145 0.583686 
282.087524 0.127788 
283.052643 0.115273 
283.154144 0.111004 
287.00943 0.286806 
287.047211 0.096356 
291.039551 0.107474 
293.078308 0.126395 
294.087738 0.095092 
300.095398 0.095941 
301.061066 0.13192 
303.076294 0.102646 
305.020142 0.8238 
316.657227 0.122781 
330.233795 0.107747 
358.789124 0.03868 
363.163239 0.108973 
364.169067 0.154721 
365.088776 0.052229 
365.111786 0.186119 
366.275635 0.056154 
381.974213 0.115741 
END IONS

