BEGIN IONS
PEPMASS=384.25
CHARGE=1+
COMPOUNDNAME=ACTINONIN
LIBRARYQUALITY=3
SMILES=N/A
INCHIKEY=XJLATMLVMSFZBN-VYDXJSESSA-N
INCHI=InChI=1S/C19H35N3O5/c1-4-5-6-8-14(11-16(24)21-27)18(25)20-17(13(2)3)19(26)22-10-7-9-15(22)12-23/h13-15,17,23,27H,4-12H2,1-3H3,(H,20,25)(H,21,24)/t14-,15+,17+/m1/s1
MSLEVEL=2
SOURCE_INSTRUMENT=N/A-ESI-QFT
FILENAME=library_mgf.mgf
SEQ=*..*
IONMODE=negative
ORGANISM=MONA
NAME=ACTINONIN [M-H]-
PI=MoNA
DATACOLLECTOR=MoNA:VF-NPL-QEHF027308
PUBMED=N/A
SUBMITUSER=mwang87
TAGS=
SPECTRUMID=CCMSLIB00004720889
SCANS=27308
50.119331 0.169298 
50.158939 0.142859 
50.642891 0.201105 
51.066734 0.127684 
51.079056 0.158603 
51.738235 0.173331 
52.421192 0.165791 
52.581455 0.164101 
53.47945 0.122646 
53.715118 0.119926 
53.795834 0.164961 
53.91164 0.142955 
54.618263 0.232509 
54.790371 0.211889 
54.925812 0.243525 
55.176266 0.192406 
55.231682 0.161182 
55.347202 0.227548 
55.630131 0.178919 
55.681908 0.221157 
55.786865 0.186841 
55.984203 0.165056 
56.001503 0.193206 
56.035351 0.141668 
56.446991 0.106097 
56.451019 0.160884 
56.81694 0.145921 
57.478859 0.133825 
57.62888 0.107683 
57.683514 0.136456 
57.992008 1.187331 
58.028393 0.893791 
58.094612 0.173595 
59.012444 1.736288 
59.185001 0.137734 
59.30912 0.129475 
59.491734 0.131717 
60.064617 0.191189 
60.961834 0.130548 
60.991814 0.443965 
61.216644 0.100946 
61.312672 0.215439 
61.317806 0.160563 
61.36319 0.18941 
61.482555 0.099358 
61.97887 0.239452 
62.343418 0.198638 
62.373707 0.120096 
62.602318 0.163288 
63.756115 0.131364 
64.411865 0.142071 
64.650497 0.192582 
64.70993 0.172336 
65.073654 0.148979 
65.077896 0.127866 
65.751083 0.174241 
65.93644 0.199219 
66.846886 0.185977 
67.290634 0.107998 
67.661392 0.266539 
67.718544 0.131047 
68.099724 0.163408 
68.932915 0.137889 
69.635605 0.140626 
70.062408 0.140964 
70.751389 0.152849 
72.007645 3.996582 
72.268173 0.199897 
72.605614 0.174511 
73.39576 0.161159 
74.112144 0.185316 
74.67952 0.198269 
75.177834 0.191214 
75.360558 0.116652 
75.487061 0.17441 
75.826546 0.107857 
75.949409 0.210454 
76.910484 0.191539 
77.747078 0.137355 
78.458282 0.259539 
79.500923 0.174716 
80.183548 0.239955 
80.2966 0.261488 
81.020683 0.379128 
81.749069 0.11996 
82.028374 0.187544 
82.064804 8.83712 
82.452042 0.112205 
84.424095 0.128463 
84.958427 0.16441 
85.003853 0.140853 
85.070015 0.205796 
85.693733 0.225844 
86.827202 0.170667 
88.035889 0.18117 
89.194954 0.151281 
90.219398 0.208901 
91.548302 0.114596 
91.714577 0.169459 
91.808022 0.196523 
92.171196 0.186425 
92.517372 0.135148 
92.664238 0.161887 
94.027824 0.175509 
94.934372 0.14106 
95.985214 0.106692 
96.007736 2.680515 
96.044029 1.161336 
97.015533 8.107205 
97.075768 0.16893 
97.418663 0.13278 
97.425529 0.151533 
97.619347 0.156746 
97.651993 0.109645 
98.023514 0.1548 
98.059715 1.897799 
98.790291 0.13985 
99.216469 0.127287 
99.840782 0.176356 
100.075348 3.703681 
100.079041 0.149434 
101.05928 0.189078 
102.773453 0.148349 
103.526718 0.157949 
103.657326 0.119751 
104.224174 0.165931 
104.284065 0.190335 
105.949677 0.174061 
107.97126 0.144582 
108.155815 0.146828 
110.096542 0.42751 
111.080193 25.433147 
111.866142 0.132866 
112.083878 0.211118 
112.28508 0.25503 
112.876625 0.168074 
113.095818 12.713841 
113.49157 0.119954 
113.5326 0.142002 
114.054749 1.651785 
114.40168 0.144829 
114.559204 0.220046 
115.179863 0.141063 
115.396194 0.214415 
116.070297 4.757405 
117.155518 0.194777 
118.085899 0.144942 
118.141136 0.177397 
119.653725 0.140623 
121.765343 0.122036 
122.016769 0.220558 
122.09597 0.285132 
124.300156 0.158208 
125.095657 0.592978 
125.671333 0.138015 
126.054741 21.785583 
126.090942 0.192227 
126.52578 0.201424 
126.548836 0.242625 
126.930649 0.206699 
127.111488 1.83549 
127.464943 0.160687 
128.106842 0.193833 
129.062897 0.14417 
129.090775 2.477286 
129.988007 0.201168 
131.271194 0.14818 
134.314682 0.132917 
138.014206 0.21924 
138.054703 2.594165 
138.436279 0.149966 
138.443298 0.140477 
139.038864 1.529158 
140.10675 6.173341 
141.090836 69.510033 
141.523941 0.193879 
142.086197 1.570471 
142.094131 3.475548 
142.122894 0.187035 
142.742844 0.219468 
143.552063 0.202599 
144.707779 0.144326 
146.212875 0.17137 
146.852142 0.13138 
147.384567 0.143501 
147.762222 0.149347 
148.938461 0.122022 
149.31694 0.179543 
150.091278 0.90584 
151.099106 9.059429 
151.648926 0.128549 
152.070541 7.127779 
152.106857 37.791752 
153.090881 0.664992 
153.110214 0.663587 
153.395248 0.143135 
153.681427 0.18565 
153.755753 0.194254 
154.086197 0.634448 
154.122452 0.214056 
154.635742 0.205025 
159.262085 0.170735 
159.609146 0.162816 
159.648148 0.132917 
160.78154 0.186848 
162.957138 0.172697 
166.08638 16.642221 
166.794205 0.21152 
167.117874 0.523978 
167.244598 0.17925 
167.83017 0.233248 
167.850143 0.192436 
168.101959 100.0 
169.086639 0.22198 
169.105347 7.453203 
170.117142 0.296784 
170.659164 0.16397 
171.101669 4.83202 
173.20723 0.17487 
178.110153 8.664502 
178.146454 0.14837 
178.15889 0.53077 
179.057846 0.348273 
179.094147 3.839334 
180.17482 4.696352 
181.109985 1.595061 
182.154099 0.858888 
183.113068 1.319606 
183.940613 0.148638 
184.09729 2.478116 
186.046371 0.165463 
187.083771 0.168442 
190.283554 0.173585 
192.020493 0.156827 
194.154144 0.864803 
195.112991 1.026871 
196.169876 4.847058 
196.374756 0.206991 
197.12851 1.013364 
197.171066 0.250692 
198.402191 0.141146 
198.413971 0.159908 
202.057144 0.126135 
202.136063 0.141771 
206.154266 22.220146 
207.138275 34.025173 
207.157196 0.7298 
208.133255 12.806226 
208.169968 9.024712 
208.523163 0.193271 
210.149185 0.617514 
210.363739 0.146428 
211.478821 0.197155 
211.910431 0.158838 
212.164276 0.156269 
214.079071 11.54088 
217.450409 0.158247 
218.872269 0.175445 
221.036301 0.195832 
221.16539 24.796761 
222.07666 0.252571 
222.149368 10.121543 
222.169067 0.520352 
224.164963 34.289158 
224.865387 0.138381 
225.093979 0.226138 
225.16832 1.427969 
226.144501 0.198692 
226.235214 0.194265 
226.717087 0.168338 
228.466705 0.197164 
230.785248 0.140368 
232.767242 0.210156 
236.746231 0.13162 
238.063232 0.204864 
240.090622 0.178936 
240.159821 1.00578 
240.803543 0.170472 
242.5159 0.191282 
243.320328 0.150935 
247.94989 0.154758 
250.131744 0.185179 
250.144394 18.291069 
251.148682 0.408356 
251.686783 0.234389 
252.006348 0.14028 
252.160187 1.667144 
261.15625 0.223086 
264.72464 0.232747 
265.25174 0.20041 
265.776581 0.188971 
267.085205 0.252943 
267.314728 0.156493 
274.460663 0.135166 
276.195068 0.267048 
276.655426 0.146441 
279.529785 0.201524 
280.142487 5.194007 
280.495483 0.172244 
285.279419 0.184505 
286.488007 0.158447 
287.931244 0.134997 
293.131012 0.164319 
295.238495 0.858475 
313.431488 0.13253 
317.009369 0.118141 
317.778442 0.146471 
321.218414 0.228703 
322.192352 0.166047 
323.233368 5.523627 
325.945221 0.12958 
326.512878 0.249255 
328.91156 0.258424 
333.218414 1.073203 
342.447449 0.22685 
351.228516 4.833551 
363.136475 0.200244 
364.359589 0.164112 
369.589417 0.128106 
374.504944 0.231962 
378.454132 0.140187 
401.510071 0.130218 
403.751831 0.217296 
405.123199 0.122156 
END IONS

