BEGIN IONS
PEPMASS=249.077
CHARGE=1+
COMPOUNDNAME=Citrinin
LIBRARYQUALITY=3
SMILES=N/A
INCHIKEY=CQIUKKVOEOPUDV-IYSWYEEDSA-N
INCHI=InChI=1S/C13H14O5/c1-5-7(3)18-4-8-9(5)6(2)11(14)10(12(8)15)13(16)17/h4-5,7,15H,1-3H3,(H,16,17)/t5-,7-/m1/s1
MSLEVEL=2
SOURCE_INSTRUMENT=N/A-ESI-QFT
FILENAME=library_mgf.mgf
SEQ=*..*
IONMODE=negative
ORGANISM=MONA
NAME=Citrinin [M-H]-
PI=MoNA
DATACOLLECTOR=MoNA:VF-NPL-QEHF027292
PUBMED=N/A
SUBMITUSER=mwang87
TAGS=
SPECTRUMID=CCMSLIB00004720873
SCANS=27292
50.166203 0.013106 
50.418343 0.013401 
50.545784 0.01255 
50.643932 0.014552 
50.860729 0.01436 
53.020924 0.011626 
53.152328 0.010443 
53.258179 0.009369 
53.465504 0.013977 
54.608597 0.009856 
54.787708 0.012129 
54.899426 0.014056 
54.959766 0.011202 
55.909466 0.014982 
56.947762 0.011112 
58.766289 0.01223 
59.325813 0.017245 
59.467113 0.014766 
59.510948 0.014206 
59.617146 0.01176 
60.179523 0.008381 
60.602287 0.010139 
61.019089 0.008573 
61.25518 0.008466 
62.646191 0.010669 
64.134811 0.008571 
65.555984 0.007898 
65.792404 0.009954 
66.047104 0.012675 
66.501923 0.0083 
66.586029 0.014024 
66.765587 0.015618 
68.996765 0.252272 
69.079979 0.009428 
69.674599 0.014172 
69.936134 0.011002 
69.986069 0.015154 
70.492012 0.012168 
70.811974 0.00914 
70.963699 0.008667 
71.26133 0.013792 
72.141632 0.013643 
72.336777 0.013246 
72.428291 0.008778 
72.865097 0.01249 
72.906258 0.014694 
73.127373 0.013321 
73.528152 0.00947 
74.014961 0.013235 
75.094688 0.01188 
75.696205 0.009499 
75.785233 0.013 
76.611565 0.015007 
76.768723 0.017531 
76.875023 0.01051 
77.075005 0.009466 
77.42791 0.013694 
77.654594 0.010279 
79.018066 0.019784 
81.497597 0.013644 
81.571594 0.013993 
81.974899 0.009591 
82.017174 0.009109 
82.568344 0.010255 
83.143646 0.015633 
83.764656 0.012244 
85.428207 0.011979 
86.322464 0.012096 
87.105133 0.012546 
87.561943 0.009638 
88.10157 0.012288 
88.195778 0.008219 
88.465446 0.010981 
88.712952 0.012544 
90.812973 0.015383 
92.471939 0.011441 
92.596237 0.015153 
92.932594 0.01191 
92.962311 0.014746 
96.535889 0.013048 
99.192627 0.012688 
99.521713 0.016398 
100.67791 0.018453 
100.954819 0.014537 
103.170631 0.016157 
103.861229 0.017615 
104.285156 0.01139 
104.31234 0.015166 
104.452789 0.015267 
105.002884 0.010297 
105.033234 1.151594 
105.069931 0.033541 
105.321487 0.017544 
105.995949 0.013597 
106.310738 0.013121 
108.502716 0.012818 
109.425285 0.013616 
109.953415 0.014844 
111.808853 0.010473 
112.413475 0.011966 
113.118713 0.011054 
113.820816 0.011786 
113.852234 0.012272 
115.806938 0.015461 
121.018127 0.010181 
121.064377 0.01445 
121.715034 0.014124 
124.061554 0.013231 
128.07843 0.01519 
129.363281 0.009241 
132.931488 0.013957 
133.100922 0.245293 
133.193802 0.013005 
134.533936 0.01036 
134.930389 0.009888 
135.080292 2.48523 
136.083588 0.123477 
137.095993 0.848225 
138.682312 0.011741 
141.468597 0.010419 
142.089554 0.008681 
143.977814 0.013798 
144.270569 0.015165 
144.571381 0.009524 
144.745102 0.012296 
145.064499 0.022366 
145.757614 0.010127 
146.072601 0.254039 
146.390717 0.010256 
147.721466 0.013989 
148.051758 0.075865 
149.059708 0.028637 
149.642776 0.009028 
156.32428 0.013307 
159.080872 0.011603 
160.862076 0.020067 
161.059586 0.076123 
161.096085 9.645681 
162.067505 0.015697 
162.099518 0.969994 
163.075378 7.58743 
172.152786 0.014509 
173.402695 0.016979 
174.11734 0.01525 
175.038971 2.943423 
176.042053 0.05048 
176.114334 0.015581 
176.12355 0.016913 
177.091049 19.620306 
177.100174 0.261253 
177.844254 0.015948 
178.09436 2.092008 
180.267975 0.017391 
183.597015 0.012374 
183.683777 0.01523 
183.709183 0.010098 
184.566422 0.013484 
187.075455 0.109709 
189.054688 2.074483 
190.062698 1.971424 
190.12616 0.01122 
190.509308 0.015094 
190.614304 0.015099 
191.066971 0.013026 
194.562424 0.01023 
195.609863 0.014566 
197.142776 0.015174 
198.708282 0.011529 
199.982864 0.009469 
201.649261 0.012577 
201.681915 0.009941 
203.070358 0.449886 
205.086197 100.0 
206.089569 12.291977 
206.379929 0.009429 
207.065567 1.267643 
207.091782 0.434126 
207.101898 2.179451 
208.55571 0.012822 
211.765884 0.009809 
212.470734 0.010936 
216.349747 0.31449 
216.352203 0.333036 
216.359375 0.232576 
222.854568 0.015766 
230.018997 0.010603 
231.065628 10.046722 
232.069107 1.383689 
233.081406 4.904559 
239.251907 0.015629 
242.276337 0.014907 
245.082886 0.015179 
249.076385 56.23587 
250.079742 7.888734 
251.092117 18.397882 
251.158279 0.015245 
257.303467 0.011921 
262.849976 0.011051 
268.763214 0.009805 
269.198395 0.009451 
270.195953 0.012473 
END IONS

