BEGIN IONS
PEPMASS=1202.7
CHARGE=1+
COMPOUNDNAME=CYCLOSPORINE
LIBRARYQUALITY=3
SMILES=N/A
INCHIKEY=PMATZTZNYRCHOR-KMSBSJHKSA-N
INCHI=InChI=1S/C62H111N11O12/c1-25-27-28-40(15)52(75)51-56(79)65-43(26-2)58(81)67(18)33-48(74)68(19)44(29-34(3)4)55(78)66-49(38(11)12)61(84)69(20)45(30-35(5)6)54(77)63-41(16)53(76)64-42(17)57(80)70(21)46(31-36(7)8)59(82)71(22)47(32-37(9)10)60(83)72(23)50(39(13)14)62(85)73(51)24/h25,27,34-47,49-52,75H,26,28-33H2,1-24H3,(H,63,77)(H,64,76)(H,65,79)(H,66,78)/b27-25+/t40-,41?,42?,43?,44?,45?,46?,47?,49?,50?,51?,52-/m1/s1
MSLEVEL=2
SOURCE_INSTRUMENT=N/A-Linear Ion Trap
FILENAME=library_mgf.mgf
SEQ=*..*
IONMODE=positive
ORGANISM=MONA
NAME=CYCLOSPORINE M+H
PI=MoNA
DATACOLLECTOR=MoNA:VF-NPL-LTQ007757
PUBMED=N/A
SUBMITUSER=mwang87
TAGS=
SPECTRUMID=CCMSLIB00004691024
SCANS=6645
524.289978 9.839583 
637.309998 20.084204 
806.369995 5.370101 
906.469971 3.88766 
972.409973 6.370692 
1057.550049 24.961557 
1099.5 100.0 
1171.459961 67.551033 
END IONS

