BEGIN IONS
PEPMASS=176.1
CHARGE=1+
COMPOUNDNAME=Massbank:MT000038 Citrulline
LIBRARYQUALITY=3
SMILES=NC(=O)NCCCC(N)C(O)=O
INCHIKEY=RHGKLRLOHDJJDR-UHFFFAOYSA-N
INCHI=1S/C6H13N3O3/c7-4(5(10)11)2-1-3-9-6(8)12/h4H,1-3,7H2,(H,10,11)(H3,8,9,12)
MSLEVEL=2
SOURCE_INSTRUMENT=ESI-LC-ESI-IT
FILENAME=Massbank_ESI_positive_8_1_2014_peaks.mgf
SEQ=*..*
IONMODE=Positive
ORGANISM=MASSBANK
NAME=Massbank:MT000038 Citrulline [M+H]+
PI=Putative Massbank Match
DATACOLLECTOR=Massbank
PUBMED=N/A
SUBMITUSER=mwang87
TAGS=
SPECTRUMID=CCMSLIB00000221443
SCANS=10249
88.1 2.6 
113.2 0.1 
115.2 0.4 
130.2 0.3 
133.2 0.5 
149.1 0.3 
158.3 4.3 
159.1 100.0 
160.1 1.2 
END IONS

