BEGIN IONS
PEPMASS=262.129
CHARGE=1+
COMPOUNDNAME=Lotaustralin
LIBRARYQUALITY=3
SMILES=N/A
INCHIKEY=WEWBWVMTOYUPHH-GXUZYPEDSA-N
INCHI=InChI=1S/C11H19NO6/c1-3-11(2,5-12)18-10-9(16)8(15)7(14)6(4-13)17-10/h6-10,13-16H,3-4H2,1-2H3/t6-,7-,8+,9-,10+,11?/m1/s1
MSLEVEL=2
SOURCE_INSTRUMENT=N/A-ESI-QFT
FILENAME=library_mgf.mgf
SEQ=*..*
IONMODE=positive
ORGANISM=MONA
NAME=Lotaustralin [M+H]+
PI=MoNA
DATACOLLECTOR=MoNA:VF-NPL-QEHF007874
PUBMED=N/A
SUBMITUSER=mwang87
TAGS=
SPECTRUMID=CCMSLIB00004698937
SCANS=7874
50.707371 0.062366 
51.430702 0.06481 
55.018665 0.078509 
55.054966 1.280288 
55.669334 0.046841 
56.050194 0.046533 
56.058319 0.055058 
56.233444 0.017498 
56.965488 0.288256 
57.034241 0.168592 
57.07061 1.580569 
57.99078 0.016272 
58.065857 0.090359 
58.088608 0.048638 
58.254025 0.057459 
58.511467 0.015818 
59.04982 0.033083 
59.942677 0.046873 
60.045044 0.060299 
60.123985 0.01378 
60.554485 0.050475 
61.011364 0.31795 
61.029148 0.128639 
61.816761 0.061809 
62.210499 0.041344 
63.731884 0.051333 
66.050056 0.058287 
67.054855 0.703533 
67.467239 0.015448 
67.768158 0.057888 
68.609001 0.029221 
68.680984 0.055888 
69.034126 0.817007 
69.070549 0.476652 
69.373833 0.040234 
69.611732 0.057472 
70.065796 1.105171 
70.185051 0.060739 
71.049744 0.157368 
71.086136 0.468219 
72.045082 0.024008 
72.081436 0.095439 
72.594742 0.030346 
72.617203 0.054688 
73.02903 0.077252 
73.065453 0.137057 
74.060585 0.094185 
74.459358 0.060819 
74.512466 0.039339 
74.931564 0.066964 
75.548195 0.050016 
75.679062 0.044103 
75.931114 0.050214 
79.021751 1.191887 
79.054787 0.276408 
80.050018 0.055064 
80.143768 0.024672 
80.647362 0.049269 
80.672646 0.040218 
80.725182 0.054045 
80.978821 0.057541 
81.033989 0.146716 
81.070404 1.166547 
82.065865 0.061358 
82.633812 0.071069 
83.049652 0.104158 
83.086067 0.079016 
84.044968 0.144771 
84.081383 0.066375 
84.111282 0.026499 
84.439018 0.017024 
85.028938 1.775368 
85.039963 0.038696 
85.065239 0.027392 
85.101784 0.080193 
86.032326 0.025085 
86.060516 0.01975 
86.096939 0.122941 
86.121758 0.015836 
86.871307 0.030541 
87.044548 0.311309 
87.240913 0.06793 
88.076172 0.444968 
88.395592 0.060265 
88.600838 0.058018 
88.900215 0.058602 
89.060188 0.267515 
89.550789 0.055967 
89.595329 0.061923 
91.054657 0.350346 
93.070374 0.457425 
94.221634 0.029142 
95.049522 0.132374 
95.085876 0.858442 
95.789314 0.015841 
96.634857 0.061894 
96.65831 0.046342 
97.028748 1.200404 
97.065178 0.168172 
97.10186 0.070345 
97.787689 0.046762 
98.060455 20.029253 
98.064255 0.065775 
98.975517 0.016744 
99.044426 0.187282 
99.057632 0.131199 
99.063766 4.340434 
100.067574 0.029151 
100.076065 0.245534 
100.841881 0.049239 
101.023605 0.025627 
101.224503 0.057901 
101.900963 0.052204 
101.950127 0.298305 
102.092102 0.017061 
102.968521 0.332837 
103.03923 0.032397 
105.07019 1.118781 
105.943001 1.775303 
106.086586 0.08944 
106.965477 0.31081 
107.049522 0.018013 
107.08577 0.310474 
109.028534 0.059166 
109.06514 0.071399 
109.101395 0.225684 
109.601288 0.026467 
110.060249 0.388191 
111.043961 0.033709 
111.06366 0.05075 
111.080597 0.030254 
112.026886 0.043223 
112.075829 0.025694 
113.071098 0.036513 
113.760223 0.061329 
114.375954 0.051977 
115.166351 0.045382 
115.989456 0.016979 
116.070793 0.127556 
117.069916 0.019238 
117.435333 0.016721 
118.041382 0.025634 
118.086327 0.043991 
119.019157 0.13842 
119.049484 0.021023 
119.085709 0.213696 
119.776909 0.062505 
120.080849 0.021245 
120.193764 0.053322 
120.400581 0.015909 
120.979027 0.346626 
121.065231 0.02227 
121.101341 0.171997 
121.805099 0.051685 
123.080421 0.069304 
123.116638 0.057582 
123.796204 0.069963 
123.953438 0.866984 
124.07579 0.071558 
124.936638 0.019947 
124.975967 0.409857 
125.096649 0.021916 
125.786926 0.041693 
126.055153 0.023698 
127.039085 0.161806 
128.062073 0.020918 
129.054657 0.020414 
129.069778 0.019307 
130.049988 0.024852 
130.074692 0.062776 
130.086533 0.01858 
130.436935 0.055087 
130.850601 0.055856 
131.085541 2.143263 
131.370697 0.076442 
131.752823 0.054798 
132.088943 0.016593 
133.06488 0.124164 
133.101151 0.105526 
134.359497 0.016767 
134.996368 0.028942 
135.080246 0.030973 
135.11676 0.08975 
136.203354 0.061241 
137.011795 0.113228 
138.98912 0.321361 
139.938202 0.051261 
140.070404 0.426911 
140.468643 0.055475 
141.074066 0.0252 
141.963867 0.522401 
142.986389 0.157783 
143.085419 0.038681 
143.269989 0.01617 
144.065384 0.019592 
145.101135 0.13894 
146.996124 0.032406 
147.080139 0.159998 
147.116959 0.062874 
149.0121 0.652831 
149.132339 0.018268 
151.368347 0.053893 
154.085739 0.0204 
154.946838 1.232926 
155.022003 0.020648 
155.980804 0.021318 
156.962616 0.290064 
157.064713 0.020019 
157.101089 0.034659 
158.027115 0.02117 
158.320847 0.065703 
159.031097 0.047721 
159.079773 0.020206 
159.116821 0.029217 
159.974426 0.097378 
161.011948 0.25575 
161.095566 0.035217 
161.132462 0.053263 
162.35614 0.017032 
162.446121 0.040279 
163.148026 0.021863 
166.085938 0.021548 
167.022522 0.029637 
169.064697 0.060746 
170.955078 0.184168 
172.957458 0.584299 
175.038895 0.016589 
179.02211 0.407069 
182.904297 0.018779 
182.9897 0.056433 
183.006409 0.039648 
183.016495 0.062593 
183.858826 0.053813 
183.956268 0.023154 
184.185577 0.052372 
185.993774 0.038036 
188.965652 0.116291 
189.05481 0.018806 
191.022186 0.77191 
191.063644 0.06167 
197.059723 0.113902 
201.016937 1.748862 
201.269424 0.042662 
201.459763 0.057523 
201.967026 0.704195 
205.049911 0.017319 
207.080124 0.017008 
214.217026 0.027017 
215.069336 0.024859 
215.891251 0.595662 
215.897293 0.704372 
215.908051 0.071623 
218.190155 0.031073 
219.017288 0.070063 
219.174118 0.590098 
219.977615 0.202905 
220.903778 0.058706 
221.050415 0.02137 
222.898407 0.854358 
225.054001 0.026173 
228.336365 0.042139 
231.321838 0.049652 
233.095688 0.058638 
235.074753 0.033817 
235.086761 0.062527 
238.913956 0.133213 
240.908951 2.579648 
242.102066 0.224013 
243.065002 0.205184 
243.106293 0.021519 
244.168869 0.03131 
246.184738 0.816366 
247.074448 0.02993 
247.335083 0.056192 
248.082489 0.069162 
249.274353 0.051733 
259.469269 0.064386 
259.744354 0.068139 
260.20224 0.035816 
260.237183 0.098632 
261.004913 0.056618 
261.130585 100.0 
261.240173 0.01792 
262.099884 0.036585 
262.118286 0.107894 
262.133972 12.408504 
262.149414 0.084002 
262.179993 0.074685 
262.215942 0.090259 
262.252716 0.121994 
263.068878 0.135268 
263.082214 0.401968 
263.106476 0.05913 
263.135498 1.619938 
263.211456 0.091853 
263.255859 0.016676 
264.078705 0.018559 
264.158234 0.03359 
264.195312 0.063922 
264.232208 0.024072 
280.392578 0.064532 
281.911713 0.070403 
END IONS

