BEGIN IONS
PEPMASS=125.032
CHARGE=1+
COMPOUNDNAME=CYCLOSERINE
LIBRARYQUALITY=3
SMILES=N/A
INCHIKEY=DYDCUQKUCUHJBH-UWTATZPHSA-N
INCHI=InChI=1S/C3H6N2O2/c4-2-1-7-5-3(2)6/h2H,1,4H2,(H,5,6)/t2-/m1/s1
MSLEVEL=2
SOURCE_INSTRUMENT=N/A-ESI-QFT
FILENAME=library_mgf.mgf
SEQ=*..*
IONMODE=positive
ORGANISM=MONA
NAME=CYCLOSERINE [M+Na]+
PI=MoNA
DATACOLLECTOR=MoNA:VF-NPL-QEHF027817
PUBMED=N/A
SUBMITUSER=mwang87
TAGS=
SPECTRUMID=CCMSLIB00004721398
SCANS=27817
50.636101 0.180551 
51.025864 0.181162 
51.205906 0.183834 
51.253784 0.165219 
52.590694 0.174481 
52.724045 0.171232 
53.230247 0.189962 
53.300137 0.179854 
53.813408 0.190829 
54.034199 0.216366 
54.259037 0.213368 
54.29348 0.185374 
54.662502 0.189589 
55.05452 3.34259 
55.248676 0.203508 
55.396877 0.230824 
55.762642 0.185811 
55.936359 0.1812 
56.037163 3.055585 
56.04974 7.817931 
56.360336 0.182367 
56.582233 0.178578 
56.96534 0.183886 
57.021206 1.792159 
57.044994 8.274647 
57.934929 0.184137 
58.028988 5.589799 
58.052734 0.395641 
58.06535 0.450059 
58.071693 0.175369 
58.122463 0.205177 
58.19355 0.196635 
58.53278 0.188479 
59.621075 0.185311 
60.033218 0.416102 
60.306698 0.228928 
60.421192 0.158598 
61.418068 0.204291 
63.329254 0.175666 
64.174492 0.203972 
64.393936 0.185886 
64.868141 0.211471 
64.924416 0.176679 
65.926163 0.166033 
66.228401 0.187906 
66.992226 0.179868 
67.054337 5.087925 
68.079926 0.17486 
68.862282 0.178494 
69.044785 6.401801 
69.069923 0.193763 
70.02877 0.548889 
70.065224 1.500448 
71.060402 26.910324 
72.786888 0.192837 
73.66246 0.194097 
74.293434 0.175702 
75.05529 1.383411 
75.740425 0.200891 
76.860435 0.202512 
77.059608 0.225791 
78.105797 0.177574 
79.05423 9.635531 
80.049431 6.620149 
80.77562 0.256767 
81.044762 11.333104 
81.069893 20.580332 
82.028793 3.89118 
82.065117 4.333453 
82.218979 0.183287 
83.049019 0.258012 
83.060379 11.374783 
83.085434 1.746029 
84.080811 6.831442 
85.05088 0.741215 
85.618172 0.208595 
86.023643 7.30281 
86.355988 0.224011 
86.702286 0.196402 
89.514397 0.182118 
91.054497 0.450605 
91.787094 0.200368 
92.057404 0.898835 
92.666504 0.18113 
93.032158 0.224932 
93.069977 0.536326 
95.049255 0.559279 
95.060272 0.638723 
95.085457 0.904643 
95.883553 0.179644 
96.044357 1.153236 
96.055634 9.8324 
96.068108 0.214208 
96.080765 0.701422 
96.175133 0.207354 
96.17968 0.227198 
97.039658 19.800514 
97.063438 3.676098 
97.076149 0.79235 
97.536285 0.247754 
98.071327 8.683023 
98.884224 0.229868 
99.055305 18.042681 
99.476578 0.191481 
101.503105 0.669786 
101.772629 0.212858 
102.007294 0.24229 
102.501526 0.472597 
102.697746 0.185868 
104.896294 0.191585 
105.070114 0.208107 
105.200119 0.194723 
107.08548 4.556026 
108.005592 0.207655 
108.05555 1.793887 
108.536835 0.174972 
109.015053 0.472501 
109.039749 0.351323 
109.045601 0.177552 
109.064095 1.658408 
109.076111 0.198414 
110.013023 0.454551 
110.047325 0.897124 
110.083794 1.258392 
118.230522 0.177611 
120.495544 0.218462 
120.927063 0.191826 
121.35511 0.180427 
122.141167 0.181574 
123.055267 32.699551 
123.08046 16.809616 
123.084915 0.224296 
123.091553 19.456303 
123.11676 2.32317 
124.039406 0.546129 
124.050568 3.321613 
124.05864 4.167108 
124.075722 37.081985 
124.083321 0.747382 
124.087257 0.391284 
124.094963 1.22375 
124.112106 34.661018 
124.155304 0.208023 
124.463409 0.194603 
125.026649 0.214673 
125.034477 1.85582 
125.058525 17.874607 
125.07103 10.839381 
125.082474 16.894192 
125.096176 3.848041 
125.107346 100.0 
125.115265 3.08201 
126.042412 11.19521 
126.054863 4.140025 
126.066208 32.312447 
126.09127 13.482744 
126.103355 0.185522 
126.110695 6.931173 
126.127731 7.034626 
127.050171 47.030186 
127.061432 0.669272 
127.07267 16.307596 
127.086693 0.94163 
127.123383 0.22392 
130.117584 0.216895 
132.669724 0.201776 
134.047256 0.213786 
135.871414 0.18068 
136.283691 0.178138 
END IONS

