BEGIN IONS
PEPMASS=544.0
CHARGE=1+
COMPOUNDNAME=Massbank:KO002719 Doxorubicin|Adriamycin
LIBRARYQUALITY=3
SMILES=c(c43)(C[C@](C(=O)CO)(C[C@@H]4OC(C5)O[C@@H](C)[C@@H](O)[C@@H](N)5)O)c(O)c(c1c(O)3)c(c(c2)c(c(OC)cc2)c1=O)=O
INCHIKEY=AOJJSUZBOXZQNB-DCBNVMRFSA-N
INCHI=1S/C27H29NO11/c1-10-22(31)13(28)6-17(38-10)39-15-8-27(36,16(30)9-29)7-12-19(15)26(35)21-20(24(12)33)23(32)11-4-3-5-14(37-2)18(11)25(21)34/h3-5,10,13,15,17,22,29,31,33,35-36H,6-9,28H2,1-2H3
MSLEVEL=2
SOURCE_INSTRUMENT=ESI-LC-ESI-QQ
FILENAME=Massbank_ESI_positive_8_1_2014_peaks.mgf
SEQ=*..*
IONMODE=Positive
ORGANISM=MASSBANK
NAME=Massbank:KO002719 Doxorubicin|Adriamycin [M+H]+
PI=Putative Massbank Match
DATACOLLECTOR=Massbank
PUBMED=N/A
SUBMITUSER=mwang87
TAGS=
SPECTRUMID=CCMSLIB00000217939
SCANS=8521
69.0 267327.0 
70.9 44554.5 
72.0 866337.5 
84.3 49505.0 
86.1 1524754.0 
94.9 123762.5 
112.0 183168.5 
113.3 806931.5 
130.0 970298.0 
148.0 24752.5 
149.0 44554.5 
214.1 29703.0 
305.7 19802.0 
306.5 44554.5 
321.4 1509902.5 
323.7 19802.0 
333.6 297030.0 
333.9 14851.5 
337.7 44554.5 
346.3 262376.5 
361.3 2871290.0 
379.3 376238.0 
END IONS

