BEGIN IONS
PEPMASS=364.142
CHARGE=1+
COMPOUNDNAME=ERGONOVINE MALEATE
LIBRARYQUALITY=3
SMILES=N/A
INCHIKEY=WVVSZNPYNCNODU-XTQGRXLLSA-N
INCHI=InChI=1S/C19H23N3O2/c1-11(10-23)21-19(24)13-6-15-14-4-3-5-16-18(14)12(8-20-16)7-17(15)22(2)9-13/h3-6,8,11,13,17,20,23H,7,9-10H2,1-2H3,(H,21,24)/t11-,13+,17+/m0/s1
MSLEVEL=2
SOURCE_INSTRUMENT=N/A-ESI-QFT
FILENAME=library_mgf.mgf
SEQ=*..*
IONMODE=positive
ORGANISM=MONA
NAME=ERGONOVINE MALEATE [M+K]+
PI=MoNA
DATACOLLECTOR=MoNA:VF-NPL-QEHF027719
PUBMED=N/A
SUBMITUSER=mwang87
TAGS=
SPECTRUMID=CCMSLIB00004721300
SCANS=27719
51.519779 0.080986 
51.940331 1.217295 
52.890083 0.069067 
53.119286 0.063715 
53.184326 0.071044 
54.409904 0.062753 
54.481091 0.065103 
55.01825 0.066247 
55.173321 0.071349 
56.965061 13.972138 
57.07019 1.143848 
57.935059 2.641942 
58.065422 2.203385 
59.068764 0.070504 
59.139046 0.068041 
59.588947 0.064939 
59.710106 0.061568 
61.010891 10.020081 
61.193157 0.08248 
61.340923 0.069023 
62.018696 13.285202 
63.017921 0.071311 
63.026615 0.080859 
63.367687 0.066299 
63.998215 0.069623 
64.014481 0.369484 
64.035912 0.065034 
67.054169 0.10343 
69.069923 0.077718 
69.60466 0.076962 
70.065315 0.089429 
70.103973 0.063705 
70.364006 0.066009 
70.859436 0.057119 
71.737396 0.063144 
71.797714 0.072059 
72.080986 0.170487 
74.632004 0.069762 
74.864349 0.069333 
74.975395 0.067908 
75.491119 0.076134 
79.02124 5.336368 
79.054146 0.075305 
80.4338 0.067851 
81.069984 0.167533 
86.096382 0.268408 
86.505936 0.070911 
88.606133 0.078296 
89.059654 0.149201 
90.621544 0.073608 
91.054314 2.670926 
91.057251 0.275987 
92.05761 0.717171 
92.512466 0.064681 
92.96196 0.147577 
93.070648 0.074353 
93.353813 0.062709 
95.629974 0.076871 
98.967636 0.063444 
98.975349 9.385296 
99.9786 0.188377 
100.544594 0.063552 
100.99099 0.367288 
102.613037 0.069465 
102.948273 0.403882 
102.968163 0.551105 
103.727837 0.079341 
104.992294 0.449037 
107.750603 0.064446 
112.075722 0.514462 
115.006721 1.803489 
115.575211 0.063205 
116.134918 0.066864 
116.948982 0.073519 
116.985931 10.774852 
117.069817 0.221413 
117.206528 0.073352 
117.956192 0.191968 
118.943237 0.07593 
118.9814 0.064487 
119.001518 0.109796 
119.085655 1.153515 
119.274033 0.068136 
119.951187 0.068705 
120.088974 0.477213 
120.978699 0.509828 
122.680069 0.066905 
122.94088 0.077092 
127.036621 0.595259 
128.96344 0.075903 
128.985962 0.178739 
129.524384 0.07168 
130.017471 0.259226 
131.000748 0.152843 
132.033264 0.39217 
132.95842 0.074988 
133.017181 3.247314 
133.064911 0.106542 
134.978607 7.282515 
134.996368 9.380928 
136.665421 0.070736 
136.974274 0.076747 
137.401138 0.072605 
138.989258 0.644102 
140.002228 0.070054 
142.964767 0.07519 
142.988647 0.07836 
143.392441 0.070973 
144.95874 0.723264 
144.980042 2.281704 
146.011963 0.244737 
146.956726 0.170461 
146.97435 2.629827 
146.996353 0.587926 
147.31868 0.078723 
148.07547 0.082331 
148.971924 0.704564 
148.987961 0.186153 
149.012146 0.195189 
149.945648 0.475465 
150.297882 0.083451 
150.951065 0.48765 
150.968826 0.078101 
151.027603 0.261181 
151.327499 0.077918 
151.559006 0.064919 
151.969849 0.386983 
152.951462 1.785984 
152.989304 9.335063 
153.006958 1.122906 
153.959366 4.329413 
154.94075 0.074512 
154.94693 3.180993 
155.946793 0.088875 
155.954529 0.733615 
155.97374 0.079076 
156.944489 0.140896 
158.012375 3.001011 
158.994919 0.082786 
159.031342 0.080098 
160.006516 0.169169 
160.989914 0.070521 
162.951706 0.082005 
164.967407 0.109559 
165.007202 1.726121 
166.160355 0.074427 
166.983444 0.074702 
167.072708 0.088393 
168.081009 0.259222 
168.982697 0.178012 
169.469284 0.078147 
170.011398 0.178357 
170.961838 0.637665 
171.000168 0.645052 
171.008743 0.537804 
171.049957 0.076751 
171.06282 12.276923 
172.006058 0.113804 
172.027252 0.252032 
172.066147 0.105496 
172.399445 0.074696 
172.957489 0.538461 
173.078644 1.16992 
173.985184 1.33946 
174.00618 1.902603 
174.022064 0.085256 
174.991226 0.160174 
175.003937 3.235355 
176.001251 1.443969 
176.022949 7.109498 
176.96727 1.725285 
177.992737 0.086742 
178.946259 0.10154 
178.98494 0.626109 
179.004654 0.084897 
179.022491 0.100665 
179.954041 0.095841 
180.080811 4.651355 
180.961319 0.09601 
180.978577 0.129006 
181.000443 0.133851 
182.09787 0.071457 
183.00946 0.10028 
183.017746 0.37071 
184.025543 0.090113 
185.02478 0.607317 
185.20195 0.07314 
185.949234 1.501256 
186.947723 0.129117 
187.944763 0.156746 
188.021713 1.554957 
188.967331 0.532107 
188.982727 0.080312 
189.005463 0.081767 
189.019165 2.715022 
189.990982 0.160113 
190.017014 0.869216 
192.067978 0.395487 
192.08075 0.720683 
192.961945 1.652898 
193.07608 9.40167 
193.881516 0.251929 
194.033691 1.059163 
194.079697 0.815372 
194.962433 0.095187 
194.977386 0.08964 
195.091782 1.725841 
195.959885 1.55571 
196.958344 0.074093 
197.024658 0.076986 
197.070892 0.093527 
197.107468 0.974205 
197.928406 0.081411 
200.360596 0.083329 
201.060913 0.069669 
201.979813 0.104334 
202.896606 0.069998 
203.035126 0.100669 
203.052521 0.653185 
203.881561 0.572346 
204.983215 1.184617 
205.076111 6.12613 
205.988785 0.095074 
206.081268 0.574085 
206.977921 8.774591 
206.999771 0.511729 
207.067444 0.118903 
207.091675 2.17588 
207.881683 2.318838 
207.977997 0.152517 
208.075775 10.26085 
208.099304 1.950669 
208.872467 0.079754 
208.889633 0.229722 
209.876099 3.300414 
209.897598 0.943306 
210.884048 2.660451 
210.90564 0.085263 
210.972412 0.104791 
211.87149 0.28391 
211.88176 0.209982 
211.891724 1.317885 
211.98613 0.088258 
212.879593 0.325413 
212.889709 0.644881 
212.971909 0.081417 
213.887344 0.090537 
213.907684 0.07492 
213.970261 1.791796 
214.383789 2.473783 
215.089005 37.770348 
215.887161 0.161264 
216.081955 0.100534 
216.092468 3.714229 
216.969162 0.073487 
217.104675 5.811781 
218.8685 1.821769 
219.091721 5.549331 
219.174377 1.484655 
219.877716 0.073546 
220.075897 0.071443 
220.099579 5.804112 
220.883942 1.902399 
221.107361 11.429663 
222.111099 1.488829 
222.898697 1.090241 
223.086746 0.556104 
223.123108 8.803916 
223.981445 0.070875 
225.010223 2.377701 
226.899139 0.227082 
228.890747 3.095332 
229.890167 0.119672 
230.889557 0.55577 
231.084671 0.102404 
231.918564 0.082567 
232.96347 0.381957 
233.877716 0.085325 
233.897537 16.46957 
234.905762 5.379402 
234.918655 0.174732 
235.085938 0.187247 
235.891708 3.144599 
235.912598 0.09225 
236.88887 0.296961 
236.900024 1.311785 
236.934067 0.076248 
237.102356 0.0949 
237.886795 0.377412 
237.908203 0.559113 
238.053619 0.371921 
238.88002 0.271608 
238.89537 0.098484 
238.967651 0.919523 
239.901855 0.125908 
240.909042 1.552816 
242.904861 1.3463 
243.019318 0.069297 
244.794769 0.086938 
244.883636 1.142293 
244.931763 0.091133 
245.099182 0.170532 
245.884354 0.175222 
246.883041 1.682789 
246.905029 0.203225 
247.115509 0.291509 
249.892471 0.414714 
250.899811 0.986856 
251.886154 2.354286 
251.907791 40.687065 
251.922775 0.563036 
252.102188 0.70593 
252.894363 1.818254 
252.915604 0.669326 
253.903381 5.115927 
253.923508 2.222942 
254.04866 1.294849 
254.901169 0.679084 
255.897812 0.950654 
255.91803 5.456235 
256.064331 3.21259 
256.919098 1.242007 
257.897247 2.113544 
257.912598 0.843916 
258.945801 0.070793 
259.115204 52.472122 
259.891785 0.22649 
260.118744 5.602119 
260.897186 0.173791 
261.131256 9.050614 
262.085999 0.844526 
262.134094 0.393127 
262.894348 3.799054 
263.0495 0.203782 
263.081665 1.26652 
263.895264 0.56707 
264.856201 0.219159 
264.893768 4.835899 
265.134155 0.094918 
265.562195 0.068965 
265.883667 0.178949 
265.902039 0.104579 
265.922638 0.554763 
266.068329 0.31138 
266.894012 0.164283 
266.926636 0.259168 
267.89624 0.076057 
268.004333 0.228047 
268.923676 0.090069 
269.918457 2.920116 
270.04361 1.559435 
270.904449 0.38543 
271.048889 0.105283 
271.07547 0.30883 
272.059601 0.398512 
273.928192 0.554357 
274.969452 0.797366 
275.09375 0.105261 
275.907806 33.999222 
276.077393 0.753771 
276.909454 0.322284 
277.029999 0.07367 
277.060913 0.358842 
277.90213 6.819603 
278.079224 0.11989 
278.093018 0.974138 
278.901764 1.239992 
279.078949 0.094896 
279.898438 1.609175 
279.955444 0.087415 
280.813965 0.472038 
281.059814 3.870098 
281.078766 0.253118 
281.096039 5.689436 
282.063446 0.324072 
282.098938 0.541332 
283.912292 0.345638 
283.99881 1.151629 
284.153076 0.082096 
284.828552 0.083568 
285.908142 0.122477 
286.014252 0.645876 
286.186157 0.369187 
286.20343 0.075177 
288.054657 0.257439 
288.076996 0.081286 
288.894318 1.332784 
289.072449 0.465004 
289.124725 0.159593 
289.923065 0.276394 
290.080383 2.57425 
291.088562 1.683912 
291.141083 0.109648 
292.09494 1.027063 
293.022125 0.089731 
293.105255 0.137544 
293.918304 10.406399 
295.017975 0.07898 
295.038544 0.160208 
295.075378 1.109106 
295.913086 0.806294 
295.933197 0.077554 
295.998779 0.135539 
297.090881 0.534197 
297.908691 0.077999 
298.037659 0.096648 
298.171448 0.078192 
298.926178 0.290498 
299.070221 3.320207 
299.106567 4.085069 
300.074707 0.267662 
302.009796 0.755837 
302.127289 0.077739 
302.936401 1.087945 
303.088135 0.655796 
303.124542 0.77444 
303.141327 4.430052 
303.966705 0.09538 
304.06015 0.768656 
304.096405 2.113223 
304.145264 0.088899 
304.181488 0.179056 
305.066376 0.189546 
305.102173 1.26064 
305.157013 27.823736 
306.076019 20.872364 
306.111786 3.165912 
306.160248 3.574198 
306.90448 0.441617 
307.079651 3.168165 
307.114899 0.158338 
307.161957 0.174611 
307.999054 0.622065 
308.103302 0.760515 
308.936584 0.189197 
310.935577 3.750673 
311.070282 0.307376 
312.819855 0.217567 
312.838104 0.122196 
313.085541 0.114929 
314.009521 0.081777 
317.068237 3.374324 
318.040253 0.0846 
318.075287 9.300538 
318.123322 0.429232 
319.082397 10.031482 
319.138306 0.447303 
320.091553 36.574696 
320.126007 12.010476 
321.097015 9.601789 
321.131989 1.619147 
321.813782 0.106811 
322.101196 0.278464 
322.119354 1.407214 
322.824982 0.175684 
324.1008 0.50918 
327.064636 0.117216 
327.826721 0.310967 
328.262756 0.091984 
331.083923 2.833821 
331.119049 0.085173 
331.83844 0.233766 
332.055786 3.08129 
332.091339 17.741837 
332.127502 2.111506 
333.059052 2.657251 
333.097198 7.0923 
333.131409 0.186337 
333.151764 3.112672 
334.071045 100.0 
334.104462 12.241963 
335.074219 20.708162 
335.110809 3.461844 
335.163513 0.406213 
336.086975 16.831705 
336.136505 8.706538 
337.125763 0.411574 
344.82962 0.182931 
345.297333 0.090762 
346.071503 3.048683 
347.078064 13.017879 
348.052063 0.208005 
348.08606 70.563988 
348.122894 25.290606 
349.066254 0.067475 
349.093811 75.288429 
349.128021 10.146925 
350.0979 16.006863 
350.133575 0.892772 
351.121338 2.420689 
352.946442 0.679774 
357.050507 0.082899 
361.062134 0.218128 
362.101929 5.047244 
362.242279 0.109195 
363.107971 6.431353 
363.162292 93.237831 
363.198273 5.826489 
364.0802 0.206588 
364.117981 28.122566 
364.167542 14.988665 
364.202606 0.221217 
365.057465 0.100962 
365.121643 6.406653 
365.179504 11.267974 
366.096527 2.319592 
366.14563 3.9896 
366.181519 0.950066 
373.847656 0.091483 
END IONS

