BEGIN IONS
PEPMASS=180.102
CHARGE=1+
COMPOUNDNAME=Massbank:BML00620 Fusaric acid
LIBRARYQUALITY=3
SMILES=CCCCC1=CN=C(C=C1)C(=O)O
INCHIKEY=DGMPVYSXXIOGJY-UHFFFAOYSA-N
INCHI=1S/C10H13NO2/c1-2-3-4-8-5-6-9(10(12)13)11-7-8/h5-7H,2-4H2,1H3,(H,12,13)
MSLEVEL=2
SOURCE_INSTRUMENT=ESI-LC-ESI-QTOF
FILENAME=Massbank_ESI_positive_8_1_2014_peaks.mgf
SEQ=*..*
IONMODE=Positive
ORGANISM=MASSBANK
NAME=Massbank:BML00620 Fusaric acid [M+H]+
PI=Putative Massbank Match
DATACOLLECTOR=Massbank
PUBMED=N/A
SUBMITUSER=mwang87
TAGS=
SPECTRUMID=CCMSLIB00000204974
SCANS=234
104.0503 47.0 
105.0701 44.0 
106.0642 41.0 
115.049 46.0 
115.0546 114.0 
117.0546 36.0 
117.0624 38.0 
117.0709 27.0 
118.065 389.0 
118.0933 22.0 
119.0697 40.0 
119.0769 24.0 
132.0835 22.0 
END IONS

