BEGIN IONS
PEPMASS=477.107
CHARGE=1+
COMPOUNDNAME=MoNA:992531 Chlortetracycline
LIBRARYQUALITY=3
SMILES=N/A
INCHIKEY=DHPRQBPJLMKORJ-UHFFFAOYSA-N
INCHI=InChI=1S/C22H23ClN2O8/c1-21(32)7-6-8-15(25(2)3)17(28)13(20(24)31)19(30)22(8,33)18(29)11(7)16(27)12-10(26)5-4-9(23)14(12)21/h4-5,7-8,15,26-27,30,32-33H,6H2,1-3H3,(H2,24,31)
MSLEVEL=2
SOURCE_INSTRUMENT=LC-ESI-QFT-LC-ESI-QFT
FILENAME=output_mgf.mgf
SEQ=*..*
IONMODE=
ORGANISM=MONA
NAME=MoNA:992531 Chlortetracycline [M-H]-
PI=MoNA
DATACOLLECTOR=MoNA
PUBMED=N/A
SUBMITUSER=mwang87
TAGS=
SPECTRUMID=CCMSLIB00000569986
SCANS=7237
142.0145 1.495633 
169.0618 0.331566 
180.0301 2.184028 
197.0009 1.183694 
209.0931 1.498077 
221.0375 1.844811 
236.0925 0.168325 
263.0473 0.163518 
279.0985 0.492375 
289.0271 0.204091 
307.0377 3.482517 
329.022 0.355578 
345.0528 0.205801 
360.065 0.661144 
371.032 0.52945 
372.101 0.187296 
374.0797 0.171891 
387.0279 0.262294 
388.0961 0.648423 
389.043 2.044541 
390.1105 0.566427 
392.0905 22.507531 
398.08 0.480739 
404.0531 0.269514 
405.122 1.984378 
414.0367 0.145272 
415.0227 2.506546 
415.1061 0.562698 
416.0906 1.403218 
432.0493 3.60173 
434.1011 16.756139 
442.0707 0.136467 
459.0961 3.441713 
460.0806 68.701035 
477.1071 100.0 
478.0909 1.020392 
END IONS

