BEGIN IONS
PEPMASS=271.061
CHARGE=1+
COMPOUNDNAME=HMDB:HMDB02670-2124 Naringenin
LIBRARYQUALITY=3
SMILES=OC1=CC=C(C=C1)[C@@H]1CC(=O)C2=C(O)C=C(O)C=C2O1
INCHIKEY=FTVWIRXFELQLPI-ZDUSSCGKSA-N
INCHI=InChI=1S/C15H12O5/c16-9-3-1-8(2-4-9)13-7-12(19)15-11(18)5-10(17)6-14(15)20-13/h1-6,13,16-18H,7H2/t13-/m0/s1
MSLEVEL=2
SOURCE_INSTRUMENT=Negative-Quattro_QQQ:40eV
FILENAME=hmdb_intermediate.mgf
SEQ=*..*
IONMODE=Negative
ORGANISM=HMDB
NAME=HMDB:HMDB02670-2124 Naringenin M-H
PI=HMDB
DATACOLLECTOR=HMDB
PUBMED=N/A
SUBMITUSER=mwang87
TAGS=
SPECTRUMID=CCMSLIB00000426799
SCANS=1771
62.0 42.736 
63.0 29.517 
64.0 100.0 
65.0 62.866 
68.0 14.036 
69.0 8.658 
82.0 43.606 
83.0 32.222 
92.0 16.124 
93.0 11.205 
95.0 11.482 
106.0 32.647 
107.0 22.342 
108.0 8.937 
116.0 15.236 
117.0 12.834 
118.0 76.59 
119.0 60.089 
120.0 10.807 
142.0 9.784 
144.0 8.65 
150.0 9.57 
151.0 7.558 
END IONS

