BEGIN IONS
PEPMASS=268.104
CHARGE=1+
COMPOUNDNAME=Adenosine
LIBRARYQUALITY=3
SMILES=N/A
INCHIKEY=OIRDTQYFTABQOQ-KQYNXXCUSA-N
INCHI=InChI=1S/C10H13N5O4/c11-8-5-9(13-2-12-8)15(3-14-5)10-7(18)6(17)4(1-16)19-10/h2-4,6-7,10,16-18H,1H2,(H2,11,12,13)/t4-,6-,7-,10-/m1/s1
MSLEVEL=2
SOURCE_INSTRUMENT=N/A-ESI-QTOF
FILENAME=library_mgf.mgf
SEQ=*..*
IONMODE=positive
ORGANISM=MONA
NAME=Adenosine [M+H]+
PI=MoNA
DATACOLLECTOR=MoNA:VF-NPL-QTOF002041
PUBMED=N/A
SUBMITUSER=mwang87
TAGS=
SPECTRUMID=CCMSLIB00004719823
SCANS=2038
39.0238 0.053703 
40.0172 0.057552 
41.038101 0.102504 
41.0406 0.215946 
41.0429 0.077688 
43.019501 0.389782 
43.021999 0.42852 
45.036301 0.522322 
45.0396 0.126164 
55.020699 1.307735 
55.023701 0.16719 
57.035301 2.444411 
57.101002 0.046563 
59.048 0.044859 
59.0508 0.208147 
61.029598 0.548754 
61.033501 0.044685 
65.0149 0.699804 
67.0308 1.200477 
69.035103 0.857163 
71.013496 0.587937 
71.015701 0.444611 
73.025497 0.048102 
73.029602 0.534462 
77.014603 0.12978 
82.039703 0.234546 
82.043404 0.197258 
85.028999 0.495038 
92.025299 2.240669 
92.109802 0.040434 
94.041298 5.390689 
94.122398 0.058656 
94.128098 0.157963 
94.160896 0.052437 
97.026299 0.100114 
97.034798 0.060964 
109.0522 1.331149 
119.036003 26.396711 
119.129898 0.84714 
119.157997 0.079693 
119.163597 0.299995 
119.170403 0.066107 
119.182198 0.116109 
119.192497 0.092431 
119.213699 0.169689 
119.2229 0.04071 
119.236504 0.085794 
119.248001 0.057413 
119.261398 0.063697 
119.281799 0.043708 
119.298798 0.053757 
119.312401 0.0725 
119.348701 0.04318 
119.357498 0.069391 
119.379898 0.059051 
119.397499 0.046616 
119.415497 0.047335 
119.465797 0.050507 
119.495697 0.04669 
120.038101 0.040925 
136.0625 100.0 
136.163193 3.692141 
136.3414 0.069137 
136.435104 0.078972 
136.446793 0.064784 
136.476395 0.046998 
136.491196 0.045895 
136.502304 0.043006 
136.525497 0.079672 
136.539993 0.085177 
136.578003 0.054302 
136.613297 0.057654 
136.633606 0.068541 
136.736206 0.091033 
136.798492 0.055941 
136.809204 0.056487 
136.828506 0.077516 
136.908798 0.053439 
136.948502 0.046567 
136.978699 0.044399 
137.053299 0.055494 
137.063507 0.042231 
137.0737 0.045946 
137.186798 0.050464 
137.588806 0.049903 
137.677399 0.042263 
137.867004 0.046695 
138.089798 0.042738 
148.0625 0.100712 
END IONS

