BEGIN IONS
PEPMASS=261.161
CHARGE=1+
COMPOUNDNAME=Cadin-4-En-10-Ol
LIBRARYQUALITY=3
SMILES=N/A
INCHIKEY=LHYHMMRYTDARSZ-UHFFFAOYSA-N
INCHI=InChI=1S/C15H26O/c1-10(2)12-7-8-15(4,16)14-6-5-11(3)9-13(12)14/h9-10,12-14,16H,5-8H2,1-4H3
MSLEVEL=2
SOURCE_INSTRUMENT=N/A-ESI-QFT
FILENAME=library_mgf.mgf
SEQ=*..*
IONMODE=positive
ORGANISM=MONA
NAME=Cadin-4-En-10-Ol [M+K]+
PI=MoNA
DATACOLLECTOR=MoNA:VF-NPL-QEHF002909
PUBMED=N/A
SUBMITUSER=mwang87
TAGS=
SPECTRUMID=CCMSLIB00004693972
SCANS=2909
50.117317 0.019841 
51.40276 0.018518 
51.409859 0.035005 
51.706074 0.036028 
53.864006 0.032977 
54.248096 0.035292 
55.054935 0.682683 
55.183163 0.047756 
55.740871 0.025123 
55.935085 0.283809 
56.050072 0.030123 
57.034195 0.032016 
57.070587 1.020988 
57.305679 0.04863 
57.320274 0.030819 
57.426712 0.034698 
57.950588 0.04789 
58.065777 0.667755 
58.073986 0.030696 
58.4939 0.040948 
59.049835 0.040921 
59.069126 0.075601 
59.663284 0.033892 
59.744022 0.043413 
59.873039 0.028395 
60.713669 0.036534 
61.011353 1.903829 
61.269821 0.035251 
61.331772 0.040581 
62.019115 0.33901 
62.376415 0.023316 
62.68306 0.037292 
62.830971 0.032298 
62.982433 0.890094 
63.43021 0.043325 
63.508965 0.037854 
63.677227 0.04182 
64.127899 0.035585 
65.594284 0.035542 
66.229378 0.037868 
66.651756 0.039316 
66.907265 0.045068 
67.054871 0.54491 
67.966537 0.037425 
67.979233 0.02002 
68.239929 0.038229 
69.070496 0.594788 
70.113419 0.042242 
70.176437 0.030816 
71.049713 0.085948 
71.085968 0.066367 
71.115982 0.021295 
71.929848 0.029964 
72.081329 0.02589 
72.93766 0.206476 
73.513603 0.034077 
74.931526 2.046302 
75.017128 0.036135 
75.50222 0.032993 
75.773201 0.04363 
76.066948 0.03665 
76.785515 0.026183 
78.013809 0.136727 
78.67514 0.027702 
78.895241 0.033145 
79.021706 0.621684 
79.054741 0.151585 
79.298882 0.043174 
80.948433 0.464596 
81.070412 0.814806 
81.831207 0.044663 
82.323746 0.027506 
82.421425 0.038811 
82.945496 0.144736 
83.086006 0.114881 
83.204712 0.032655 
85.028755 0.038444 
85.065178 0.034277 
85.182426 0.036893 
88.039665 0.051415 
89.940437 0.022993 
89.963913 0.026776 
90.53421 0.048557 
90.94809 0.391363 
91.054626 1.351533 
91.492088 0.031982 
91.495796 0.029248 
91.929161 0.04545 
93.070206 0.665599 
94.091209 0.039215 
95.049423 0.02333 
95.085968 0.913145 
96.922028 0.119042 
97.065125 0.088855 
97.101524 0.031641 
98.79998 0.051136 
98.975616 0.111567 
99.044151 0.023221 
99.055901 0.023954 
99.080856 0.032822 
99.525696 0.018592 
99.941238 0.020528 
99.956696 0.037948 
100.039589 0.085876 
101.003494 0.119464 
101.95018 1.202997 
102.463295 0.034708 
102.968552 0.531998 
103.954277 0.03349 
103.972076 0.029012 
104.992599 0.236496 
105.070099 0.337565 
105.917229 0.232174 
105.94297 0.042861 
106.117744 0.052072 
106.965637 0.027653 
107.085815 0.677888 
107.945114 0.037012 
108.958435 0.070282 
109.065163 0.033593 
109.101318 0.366851 
110.101166 0.037486 
110.380783 0.048528 
111.08078 0.026138 
113.087128 0.051997 
114.26828 0.036458 
114.327835 0.021924 
115.887932 0.032513 
116.985909 0.039332 
117.917084 0.075314 
118.049957 0.069575 
118.925148 0.089262 
119.085594 0.480719 
119.324554 0.038388 
119.773941 0.038217 
119.960571 0.441339 
120.978958 0.22785 
121.101242 0.301421 
123.080681 0.034558 
123.116837 0.103636 
123.473267 0.022401 
123.927551 0.022653 
123.953438 0.077918 
124.93541 0.033397 
127.075279 0.040776 
128.963425 0.03114 
129.784576 0.046054 
130.029144 0.039504 
130.97905 0.024792 
131.085373 0.081295 
133.101059 0.349014 
133.793594 0.038325 
133.947891 0.12534 
134.955978 0.144124 
135.003006 0.09635 
135.079834 0.03589 
135.11673 0.167525 
135.325317 0.037632 
135.92775 0.050862 
136.610336 0.041529 
137.095901 0.06331 
137.970718 0.100242 
138.989258 0.031812 
139.110962 0.024686 
141.962891 0.026606 
142.242661 0.04632 
142.875778 0.039823 
143.085876 0.04484 
143.273865 0.0436 
145.100952 0.388439 
147.116455 0.153815 
148.95578 0.033379 
149.130783 0.035647 
149.31279 0.04004 
150.951035 0.42865 
150.969116 0.02419 
151.074844 0.023239 
151.958862 0.207744 
152.944687 0.993299 
152.966766 0.049754 
153.938187 0.108852 
153.958954 0.123911 
154.946808 0.720327 
155.954117 0.049162 
156.138351 0.044571 
156.962326 0.078946 
157.100708 0.057936 
157.595657 0.033653 
159.116714 0.14789 
161.096619 0.070286 
161.132095 0.142207 
162.950867 0.196581 
163.07515 0.02844 
163.111252 0.028776 
163.374054 0.043048 
163.958817 0.080975 
165.146667 0.05621 
165.262741 0.03835 
165.299774 0.039509 
165.938004 0.143652 
166.777771 0.045019 
168.91713 1.475131 
168.923584 0.038691 
168.961472 0.250594 
170.913849 0.327965 
170.955261 3.751449 
171.903961 0.088211 
172.761444 0.032684 
172.957581 0.068255 
173.095993 1.512569 
173.132797 0.027164 
174.006653 0.048179 
174.099426 0.036655 
179.106186 0.04077 
180.961273 0.894844 
181.958725 0.036309 
183.948761 0.070884 
186.927597 5.484394 
186.936676 0.095243 
187.148102 0.032955 
187.928696 0.03722 
188.924545 1.803325 
188.965958 2.005716 
193.906509 0.03788 
197.97406 0.161667 
199.077545 0.042506 
199.970108 0.108603 
201.017181 0.02535 
201.090775 0.032125 
201.127594 0.225396 
201.967392 0.037064 
204.036972 0.067727 
205.049377 3.275878 
205.08609 0.033526 
206.977051 0.152743 
208.413483 0.046646 
214.111237 0.03789 
214.893555 0.035075 
215.984222 0.029858 
216.30043 1.124637 
217.105042 0.264024 
222.8983 0.485237 
225.829376 0.04987 
226.252747 1.134049 
227.421509 0.029979 
227.930618 0.026553 
229.104233 0.141728 
229.895493 0.276072 
230.057648 0.026106 
230.520538 0.031093 
231.028641 35.699249 
231.915558 0.190365 
232.031906 4.316441 
232.960266 0.036086 
233.032791 0.045681 
238.913864 0.07598 
240.123947 0.046411 
240.908997 1.587612 
243.100784 0.23686 
243.898361 0.05396 
246.052002 13.772516 
246.184937 0.074546 
246.622452 0.039084 
246.938782 0.241479 
247.055191 1.586669 
247.905899 0.193437 
250.970306 0.068765 
251.079865 0.043161 
253.367691 0.045454 
255.896469 0.033218 
259.151398 0.282372 
260.118591 0.171308 
260.200195 0.042296 
260.236389 0.133489 
261.076355 1.509291 
261.130524 100.0 
261.908264 0.036211 
262.07901 0.065078 
262.110931 0.038503 
262.133911 10.448719 
262.17981 0.122437 
262.215546 0.130664 
262.227844 0.066774 
262.252655 0.742113 
263.136749 0.425037 
263.161652 6.381554 
263.583954 0.047522 
265.264465 0.059292 
END IONS

