BEGIN IONS
PEPMASS=926.511
CHARGE=1+
COMPOUNDNAME=MoNA:1049899 (1S,3R,4R,7R,9R,11R,15S,16R,17R,18S,19E,21E,25E,27E,29E,31E,33R,35S,36R,37S)-33-[(3-Amino-3,6-dideoxy-?-D-mannopyranosyl)oxy]-1,3,4,7,9,11,17,37-octahydroxy-15,16,18-trimethyl-13-oxo-14,39-dioxabic yclo[33.3.1]nonatriaconta-19,21,25,27,29,31-hexaene-36-carboxylic acid
LIBRARYQUALITY=3
SMILES=N/A
INCHIKEY=VQOXZBDYSJBXMA-NQTDYLQESA-N
INCHI=InChI=1S/C47H75NO17/c1-27-17-15-13-11-9-7-5-6-8-10-12-14-16-18-34(64-46-44(58)41(48)43(57)30(4)63-46)24-38-40(45(59)60)37(54)26-47(61,65-38)25-36(53)35(52)20-19-31(49)21-32(50)22-33(51)23-39(55)62-29(3)28(2)42(27)56/h5-6,8,10-18,27-38,40-44,46,49-54,56-58,61H,7,9,19-26,48H2,1-4H3,(H,59,60)/b6-5+,10-8+,13-11+,14-12+,17-15+,18-16+/t27-,28-,29-,30+,31+,32+,33+,34-,35+,36+,37-,38-,40+,41-,42+,43+,44-,46-,47+/m0/s1
MSLEVEL=2
SOURCE_INSTRUMENT=LC-ESI-QFT-LC-ESI-QFT
FILENAME=output_mgf.mgf
SEQ=*..*
IONMODE=
ORGANISM=MONA
NAME=MoNA:1049899 (1S,3R,4R,7R,9R,11R,15S,16R,17R,18S,19E,21E,25E,27E,29E,31E,33R,35S,36R,37S)-33-[(3-Amino-3,6-dideoxy-?-D-mannopyranosyl)oxy]-1,3,4,7,9,11,17,37-octahydroxy-15,16,18-trimethyl-13-oxo-14,39-dioxabic yclo[33.3.1]nonatriaconta-19,21,25,27,29,31-hexaene-36-carboxylic acid [M+H]+
PI=MoNA
DATACOLLECTOR=MoNA
PUBMED=N/A
SUBMITUSER=mwang87
TAGS=
SPECTRUMID=CCMSLIB00000569857
SCANS=7108
65.0384 3.50972 
67.0542 33.821746 
69.0334 8.411849 
69.0698 20.285461 
71.0127 1.63238 
71.0491 26.0923 
73.0283 0.640781 
74.0963 0.454419 
77.0386 2.488724 
79.0542 49.656581 
81.0334 28.435288 
81.0698 36.494053 
83.0491 7.678144 
83.0855 7.126814 
84.0444 2.279286 
85.0283 11.040307 
85.0648 9.684425 
87.0441 1.739646 
89.0233 3.680009 
91.0541 53.475073 
93.0698 84.318069 
95.0126 3.700708 
95.0491 46.481359 
95.0855 41.109937 
97.0283 15.628682 
97.0647 11.213625 
97.1011 10.851913 
99.044 27.333408 
100.0476 0.569209 
101.0233 0.660797 
101.0597 4.891047 
103.0541 3.934356 
105.0698 71.437626 
106.0733 0.877596 
107.0491 29.542421 
107.0855 100.0 
108.0888 2.796311 
109.0647 11.480471 
109.1011 65.127958 
110.1045 2.589799 
111.044 13.557057 
111.0804 10.752763 
113.0232 5.535459 
113.0596 19.931998 
113.0959 6.428727 
115.0389 6.084807 
115.054 5.24819 
116.0618 0.450763 
117.0697 54.203034 
118.0733 2.79898 
119.0491 8.074542 
119.0855 58.564067 
120.089 3.045031 
121.0284 4.309527 
121.0647 27.531592 
121.1011 45.578149 
122.068 0.917512 
122.1044 0.757221 
123.0439 35.176938 
123.0803 17.147397 
123.1167 21.015082 
125.0232 2.574297 
125.0596 8.691262 
125.096 22.620909 
127.0391 3.080999 
127.0752 3.54053 
128.0617 4.256423 
129.0546 7.633259 
129.0698 39.32948 
130.0732 1.983564 
130.0774 1.055675 
131.0491 7.879201 
131.0855 58.793019 
132.0888 2.321886 
133.0647 31.911009 
133.1011 40.784889 
134.068 0.870444 
134.1044 1.663935 
135.044 8.553397 
135.0804 27.165694 
135.1167 69.888231 
136.0838 0.924878 
136.1201 3.357972 
137.0596 21.969213 
137.0961 9.827356 
137.1324 4.216952 
139.0389 8.065445 
139.0753 19.254669 
139.1118 4.576351 
141.0546 16.433671 
141.0697 14.980076 
141.091 2.734036 
142.078 0.952125 
143.0856 39.907745 
144.089 1.624714 
144.0936 0.503681 
145.0648 13.799133 
145.1012 51.440408 
146.0679 0.726288 
146.0813 2.782481 
146.1044 0.647271 
147.0441 8.581992 
147.0805 31.605212 
147.1168 25.33426 
148.0837 0.812054 
148.1201 0.65846 
149.0598 17.125287 
149.0961 12.230646 
149.1325 7.663739 
151.039 9.863718 
151.0753 29.325002 
151.1117 23.820348 
152.1151 0.486398 
153.0546 5.591219 
153.0698 3.664575 
153.091 4.329353 
153.1274 0.511108 
155.0703 14.97986 
155.0855 30.958768 
156.0888 1.764383 
156.0941 1.201779 
157.0648 12.717253 
157.086 2.155982 
157.1012 35.498357 
159.044 2.165548 
159.0655 2.922043 
159.0804 14.083152 
159.1168 30.01051 
161.0597 12.614077 
161.096 10.810437 
161.1324 55.714383 
162.0629 0.650584 
162.136 3.338031 
163.0391 4.051336 
163.0753 21.635311 
163.1116 6.656377 
163.148 4.019613 
165.0547 9.345871 
165.0691 3.877243 
165.091 17.056848 
165.1277 0.885897 
166.0779 0.645951 
167.0703 36.181934 
167.0854 17.327837 
168.0939 0.809703 
169.0647 3.17727 
169.0859 8.904067 
169.1011 37.729332 
171.0804 16.866207 
171.1167 34.217948 
173.0596 10.485413 
173.0961 18.392278 
173.1324 20.638124 
174.0994 0.633755 
175.0391 3.030562 
175.0753 27.483384 
175.1115 5.608107 
175.148 8.920208 
176.0787 1.810717 
177.0548 4.727107 
177.091 8.401785 
177.1274 7.263211 
177.1635 0.540695 
178.0778 0.628259 
179.0703 14.586666 
179.0855 11.296196 
179.1432 5.425404 
181.0496 2.165344 
181.0645 3.639587 
181.086 9.694317 
181.1011 25.836906 
183.0804 11.608683 
183.1019 2.417678 
183.1168 28.375898 
184.1201 2.041897 
185.0595 4.009512 
185.0811 6.080573 
185.0962 14.255714 
185.1325 24.819738 
186.1354 1.581923 
187.0753 11.387851 
187.1118 11.121807 
187.1481 13.405964 
189.0547 3.524111 
189.091 21.564971 
189.1277 3.689538 
189.1639 2.495723 
190.0943 0.704043 
191.0703 18.468701 
191.1065 16.152681 
192.0935 0.754733 
193.0859 28.401535 
193.1007 12.897579 
194.0892 1.489308 
194.1098 0.654471 
195.0654 2.158443 
195.0806 6.84428 
195.1018 2.253334 
195.1168 23.899543 
196.0889 0.558623 
197.0597 1.736211 
197.0811 14.213267 
197.096 19.090851 
197.1325 21.342366 
198.0993 0.687656 
199.0753 13.559647 
199.0965 5.16205 
199.1117 10.358204 
199.1481 21.640275 
200.151 0.771606 
201.0546 3.201137 
201.091 15.300338 
201.1273 5.370015 
201.1636 9.219121 
203.0703 6.521921 
203.0853 1.579201 
203.1064 4.531436 
203.1434 1.745361 
203.18 0.642524 
204.0936 0.483682 
205.0864 5.185729 
205.1011 11.552444 
205.1224 2.303605 
206.1095 0.72481 
207.0654 5.193846 
207.0807 3.896774 
207.1018 17.109995 
207.1167 17.963532 
208.0885 0.505539 
208.1241 0.753576 
209.0809 25.379582 
209.0959 8.708079 
209.1175 7.132604 
209.1324 17.627367 
210.1403 0.676625 
211.0755 4.941425 
211.0966 12.828841 
211.1117 9.601296 
211.1481 16.362769 
212.1558 0.921766 
213.0911 10.511295 
213.1274 4.805592 
213.1637 14.69281 
214.1714 0.481653 
215.0701 2.662521 
215.0919 2.905671 
215.1067 20.571616 
215.1431 1.137602 
215.1796 4.139749 
216.0938 0.536783 
217.0859 18.190315 
217.1013 5.97943 
217.1222 3.616133 
217.1585 1.610202 
218.0897 0.801629 
219.0651 3.656458 
219.0803 1.680251 
219.1017 17.664599 
219.117 12.493334 
221.0808 2.087402 
221.0962 8.855718 
221.1325 18.586525 
223.075 3.490438 
223.0961 0.855521 
223.1118 9.54424 
223.1482 13.562969 
225.0911 14.175795 
225.1121 16.727142 
225.1275 6.700751 
225.1637 13.807907 
226.1155 0.655026 
227.07 2.607824 
227.1066 11.856144 
227.1279 0.829996 
227.143 4.615066 
227.1795 6.854033 
229.0862 5.0782 
229.1225 4.210026 
229.1587 2.494648 
229.1949 0.543841 
230.11 0.606099 
231.1016 6.556865 
231.1167 7.672098 
231.1747 0.634448 
232.1245 0.813704 
233.0809 1.51158 
233.097 5.817649 
233.1172 18.392754 
233.1323 11.786449 
235.0759 2.123036 
235.0965 15.245346 
235.1117 7.741445 
235.1329 5.772043 
235.148 11.046783 
237.091 5.962763 
237.1122 7.65095 
237.1273 6.891545 
237.1637 9.23859 
238.0941 0.453116 
239.0703 1.402511 
239.1067 13.30385 
239.143 6.156394 
239.1795 8.223433 
240.1103 0.705312 
241.0859 6.159794 
241.1221 7.36131 
241.1586 2.587587 
241.195 2.34066 
243.1018 19.604235 
243.1167 3.693711 
243.1379 1.567817 
243.174 2.821974 
244.105 1.84339 
244.1245 0.940961 
245.0963 2.007106 
245.1174 5.252215 
245.1325 7.06204 
247.0969 2.32179 
247.1119 6.116794 
247.1482 9.112678 
249.0913 4.537467 
249.1125 4.076548 
249.1275 7.736668 
249.1638 9.058933 
251.1068 9.186831 
251.1278 11.023294 
251.1429 5.793817 
251.1793 8.172005 
253.087 2.894741 
253.1072 7.329761 
253.1225 7.36968 
253.1585 3.057295 
253.1952 3.816976 
255.1019 5.749883 
255.1221 4.461627 
255.1379 2.960819 
255.1741 2.042521 
256.1248 0.558314 
257.0813 1.310635 
257.1172 11.234688 
257.1327 5.356908 
257.1533 0.631353 
257.19 0.898365 
258.1396 0.701807 
259.0967 4.206045 
259.1118 4.258137 
259.133 2.992413 
259.1483 9.025566 
260.1551 1.538964 
261.0906 2.649928 
261.1125 46.976193 
261.1272 9.274059 
261.1635 8.224389 
262.1161 3.10206 
263.1067 7.774882 
263.1281 2.306566 
263.1432 7.072767 
263.1796 7.938823 
265.0858 0.840607 
265.1224 9.163874 
265.1587 3.972405 
265.195 6.714781 
267.1017 13.656655 
267.1167 0.699903 
267.1231 1.269626 
267.1373 6.794875 
267.1742 3.525151 
267.2114 3.165679 
269.138 9.320396 
269.1538 2.769381 
269.1904 2.334145 
270.1399 0.471548 
271.0967 2.54454 
271.1329 2.714172 
271.1481 4.503009 
273.1278 4.091784 
273.1495 0.609658 
273.1634 5.103998 
275.1064 2.175277 
275.128 4.689696 
275.1434 5.88126 
275.1792 5.748183 
277.1071 5.563188 
277.1226 7.952616 
277.1586 4.788041 
277.1947 3.755792 
279.1229 74.377118 
279.1381 7.168951 
281.1171 5.578515 
281.1533 3.921945 
281.1898 0.905607 
282.1412 0.526625 
283.1329 4.93752 
283.1485 4.05948 
283.1688 1.672745 
283.2049 0.731857 
285.1124 16.084879 
285.1278 2.615812 
285.1479 1.53533 
285.1639 6.21475 
286.1159 0.51735 
287.1071 1.64108 
287.1276 3.994034 
287.1434 4.228123 
287.1793 3.436141 
289.1068 2.481208 
289.1227 5.282831 
289.1434 0.907078 
289.1585 4.612699 
289.1946 4.689674 
291.1019 0.611191 
291.1379 6.781176 
291.1744 3.991703 
291.2108 6.006053 
293.1177 3.9713 
293.1369 2.289201 
293.1526 4.353655 
293.1901 2.693349 
293.2268 2.336004 
295.0965 1.888625 
295.1169 1.388628 
295.1331 6.4982 
295.1491 2.233942 
295.1695 2.680648 
295.2056 0.879217 
297.1333 97.323691 
298.1367 8.521099 
299.1279 3.023848 
299.1796 3.403618 
301.1071 4.380656 
301.1229 3.588693 
301.1434 2.392988 
301.1586 5.131705 
301.1951 2.695545 
302.1625 0.672951 
303.1225 18.024543 
303.1382 5.916235 
303.1743 4.685441 
305.1172 2.386519 
305.1377 2.031266 
305.1539 4.692265 
305.1899 3.074398 
305.2264 1.610368 
307.1328 5.025279 
307.1486 0.91441 
307.169 3.335029 
307.2063 0.533529 
309.1486 3.511934 
309.1644 2.6088 
309.1836 0.582064 
309.2212 2.625772 
311.1272 2.82651 
311.1436 1.903573 
311.1641 2.106058 
311.1798 2.866553 
311.199 0.784919 
311.2379 0.589075 
313.107 5.459335 
313.1234 1.429604 
313.143 4.164398 
313.1593 3.729137 
313.1955 3.431868 
315.139 3.079309 
315.1753 2.61194 
316.1452 0.759436 
317.138 0.832593 
317.1539 6.258589 
317.1906 2.897636 
317.2268 2.969004 
319.1173 5.875856 
319.1334 3.051521 
319.1689 5.196124 
319.2409 0.665816 
321.1329 20.457453 
321.1489 2.677145 
321.1649 1.04014 
323.1269 1.587014 
323.1644 2.321081 
323.1809 1.532238 
323.1998 0.484329 
325.1234 0.749329 
325.1433 2.114107 
325.1587 2.371056 
325.1948 1.703528 
327.1383 2.514698 
327.1584 2.47111 
327.1759 3.119888 
327.2103 0.776338 
329.1376 1.439452 
329.1539 4.210158 
329.1904 1.768047 
329.2261 0.784914 
331.1169 9.04301 
331.1702 4.879604 
333.1855 2.98286 
333.2215 1.826607 
335.1644 2.013001 
335.2359 3.89875 
337.1278 6.929131 
337.1441 2.439632 
337.1799 2.006841 
337.251 0.805651 
339.1434 4.156026 
339.1596 2.272435 
339.1756 1.288806 
339.2122 0.586024 
341.1371 1.403674 
341.1542 2.724132 
341.1745 1.797096 
341.2256 0.913992 
343.1342 0.529476 
343.1708 4.260767 
343.2059 1.978914 
343.2426 1.510797 
345.1502 3.529206 
345.1853 2.471117 
345.2204 1.603954 
347.1638 4.02588 
347.1991 2.727768 
349.1275 13.264232 
349.1785 2.845133 
349.2147 0.988976 
350.1324 0.767845 
351.1594 1.995148 
353.1749 1.627318 
353.2477 2.448237 
355.2412 0.711409 
357.1325 1.676974 
359.1663 2.835504 
359.2006 2.593327 
359.2367 2.33482 
361.18 3.976442 
361.216 1.619075 
361.2531 0.587179 
363.1592 2.70707 
363.1957 1.893081 
365.1743 2.710269 
367.137 4.771571 
369.2216 2.415575 
371.202 2.744715 
373.1806 2.20039 
373.2156 0.801406 
375.1956 0.855759 
375.2316 1.176008 
377.2481 3.774285 
379.1537 1.610207 
379.1895 1.227225 
379.263 0.673268 
381.1686 0.611993 
385.2538 0.857215 
387.1962 2.39978 
387.2316 3.400632 
389.2479 0.86444 
391.1536 0.741139 
391.1891 0.927248 
393.2042 0.6066 
393.2423 0.478203 
397.1641 1.798654 
397.2186 1.258008 
397.253 0.612667 
399.2323 1.765643 
399.2688 0.805606 
401.2119 1.988281 
401.2476 0.923615 
403.2279 0.776299 
403.2639 0.494177 
405.1694 0.918092 
405.2426 2.902982 
413.2109 1.766906 
413.2471 2.189131 
415.2274 2.153476 
423.1796 0.491401 
425.2485 1.294633 
427.2634 1.464909 
429.1927 1.902749 
429.278 0.531058 
431.2221 0.92505 
431.2566 0.572634 
439.2634 2.027766 
441.242 2.253458 
443.257 0.684712 
445.1878 0.636862 
445.2752 0.578901 
453.2777 0.759388 
455.2565 0.657721 
455.2937 0.510751 
459.2532 0.766087 
471.2531 0.655186 
475.2138 0.550041 
477.2292 0.767927 
477.2645 0.810354 
481.2733 0.862373 
483.2523 0.468022 
483.2909 0.7193 
485.267 0.639181 
493.2219 0.846121 
499.2835 1.962066 
501.2997 0.561233 
507.2889 0.96622 
509.3047 0.72526 
515.2418 0.57344 
517.2956 0.678198 
525.2991 2.653725 
527.3141 0.61153 
535.2839 0.626101 
537.2981 0.57665 
543.3113 0.754895 
553.2948 0.835927 
555.3141 0.499717 
571.3044 2.424818 
581.2872 0.592833 
589.3166 0.587602 
601.3303 0.506468 
611.3359 1.696101 
627.3673 0.749205 
629.3852 1.706005 
673.3737 4.988973 
674.3773 0.793 
691.383 2.432183 
END IONS

