BEGIN IONS
PEPMASS=412.14
CHARGE=1+
COMPOUNDNAME=(S,R)-Nosapine
LIBRARYQUALITY=3
SMILES=N/A
INCHIKEY=AKNNEGZIBPJZJG-MSOLQXFVSA-N
INCHI=InChI=1S/C22H23NO7/c1-23-8-7-11-9-14-20(29-10-28-14)21(27-4)15(11)17(23)18-12-5-6-13(25-2)19(26-3)16(12)22(24)30-18/h5-6,9,17-18H,7-8,10H2,1-4H3/t17-,18+/m1/s1
MSLEVEL=2
SOURCE_INSTRUMENT=N/A-ESI-QFT
FILENAME=library_mgf.mgf
SEQ=*..*
IONMODE=negative
ORGANISM=MONA
NAME=(S,R)-Nosapine [M-H]-
PI=MoNA
DATACOLLECTOR=MoNA:VF-NPL-QEHF000044
PUBMED=N/A
SUBMITUSER=mwang87
TAGS=
SPECTRUMID=CCMSLIB00004691107
SCANS=44
50.052422 0.034114 
50.265518 0.059492 
53.212196 0.038825 
53.638195 0.055291 
53.988216 0.045414 
54.299282 0.047077 
56.12825 0.055317 
56.610519 0.046023 
57.033211 1.360325 
57.904167 0.041048 
58.493111 0.038511 
59.012463 26.932289 
60.015945 0.14069 
60.513439 0.038332 
60.593704 0.048457 
61.978111 0.049287 
61.98698 45.064362 
62.367733 0.078607 
63.947708 0.050548 
63.961071 6.926376 
63.991356 0.083869 
64.381004 0.043261 
65.95488 0.035054 
65.956863 0.058606 
68.199364 0.081624 
68.299683 0.037148 
68.537415 0.061801 
69.033257 0.561559 
70.028534 0.034655 
70.615196 0.083613 
71.01255 0.552085 
71.048897 0.077509 
71.258057 0.048593 
72.007736 0.070902 
72.991776 0.3899 
73.028137 0.455415 
73.828415 0.068285 
73.84256 0.058659 
74.023392 3.65495 
74.635826 0.038296 
75.005081 0.056691 
75.007431 0.167016 
75.02597 0.047609 
75.769653 0.034319 
78.539215 0.048984 
78.957458 0.048117 
78.984573 21.989416 
78.987129 0.245694 
78.997513 0.043269 
79.387177 0.077193 
79.956017 4.168853 
79.988205 0.049391 
80.425674 0.057784 
80.963875 1.196732 
80.980408 0.776932 
81.033211 0.149496 
83.048897 4.040929 
85.028175 0.108816 
85.467888 0.03637 
86.53273 0.03894 
87.007393 2.476467 
87.870918 0.100858 
88.060478 0.071033 
89.023071 4.328108 
89.025955 0.035738 
89.924553 0.06283 
90.692238 0.064906 
90.809441 0.038279 
90.856628 0.065557 
90.932388 0.124183 
92.084915 0.072823 
92.92675 0.818931 
94.92363 0.320588 
94.979515 19.605839 
95.048882 0.157893 
95.292793 0.050699 
95.950966 0.773807 
96.958755 17.234215 
96.975281 0.32402 
97.028267 0.068158 
97.064568 1.207191 
97.903816 0.046299 
97.930061 0.098504 
98.172127 0.066846 
98.954559 0.986044 
99.007507 0.693812 
99.043877 0.386494 
99.924484 10.931723 
100.924644 0.871793 
100.932236 0.653258 
101.023415 0.046941 
101.059097 0.054889 
102.486488 0.079925 
103.002678 0.041347 
103.919174 0.162864 
103.929901 0.060985 
104.033943 1.681382 
106.927284 0.113334 
107.049004 0.179972 
108.065582 0.052802 
108.87468 0.05671 
109.027809 0.088316 
110.97467 0.467693 
111.043877 0.046449 
111.080193 0.413295 
112.891426 0.087545 
112.998306 0.054901 
113.023148 0.256655 
113.059425 0.333994 
113.746094 0.045425 
113.769936 0.039442 
114.648315 0.043969 
114.948006 0.120736 
115.019432 0.44244 
115.075211 0.17686 
115.919403 2.940415 
116.791306 0.045857 
116.91967 0.228516 
116.927246 6.025502 
116.938484 0.039377 
117.927429 0.276054 
118.393784 0.056318 
118.898338 0.11293 
119.945801 1.175064 
120.875107 0.053865 
121.028244 1.913604 
121.942635 0.070969 
122.974304 0.074335 
123.002678 0.05753 
123.007607 0.304593 
123.044083 0.081557 
123.080383 0.13827 
124.893394 0.111102 
125.096016 1.548868 
126.748619 0.052065 
126.999252 0.114476 
127.07563 0.062266 
127.111557 2.795642 
127.872414 9.49484 
128.034088 1.430485 
128.115265 0.06258 
128.870529 0.588186 
128.876801 0.187714 
129.054611 0.322551 
129.869064 8.284876 
130.867111 0.17158 
130.942963 0.557192 
131.622162 0.070262 
131.865189 0.584973 
134.246262 0.116946 
135.043854 0.199551 
135.14505 0.037853 
136.943436 0.069476 
139.112 0.047098 
140.562653 0.045794 
141.015976 0.623019 
141.090912 0.113373 
143.070145 0.323552 
143.106491 0.052134 
143.89386 0.187482 
146.964828 0.354735 
146.972458 0.03853 
146.981888 0.255821 
148.788635 0.062268 
151.003021 0.202902 
151.038971 0.711463 
152.938339 0.328192 
155.106705 9.459474 
155.113785 0.046686 
155.950897 0.052871 
156.110031 0.510035 
157.122147 0.420962 
158.938232 0.168021 
160.987793 0.302165 
163.002609 1.198836 
163.111984 0.115305 
165.040176 0.116035 
166.910141 0.079618 
166.997498 0.114681 
167.031723 0.732565 
168.910416 0.061447 
170.117905 0.465108 
171.01413 0.180487 
171.101624 3.075053 
171.138718 0.042779 
171.982666 0.288786 
173.117249 65.944054 
173.943634 1.824604 
173.961472 0.211935 
174.12059 6.432818 
174.933853 0.071471 
174.991455 0.728037 
175.050781 0.047298 
175.923019 0.212449 
177.912491 0.088012 
178.026154 0.053285 
178.997147 0.067417 
179.106155 0.176635 
179.957382 0.058254 
180.960266 0.046078 
181.189972 0.035942 
183.011765 1.340508 
186.112747 0.729911 
186.991821 0.387404 
188.98468 1.193576 
189.978531 0.473181 
190.946472 1.542812 
190.986328 0.040841 
191.761002 0.050426 
192.219727 0.08622 
193.084015 0.916516 
193.095078 0.056176 
196.066055 0.055911 
197.027374 0.234678 
203.97229 0.056209 
205.002579 0.176592 
205.036972 0.112794 
206.045486 0.101062 
206.960358 0.052504 
207.011749 0.047973 
207.068176 0.124942 
208.094696 0.345544 
209.078796 3.395488 
209.153961 0.160792 
214.603439 1.721687 
217.002441 0.59222 
220.061264 0.661328 
220.611725 0.09174 
221.084412 0.109178 
221.15416 0.2532 
227.20108 0.23788 
229.180389 0.191338 
229.997849 0.083071 
230.870911 0.121162 
230.895157 0.070626 
230.931564 0.145732 
232.974762 0.045932 
233.115707 0.226266 
236.10524 0.060498 
241.000702 0.048958 
241.071579 0.278587 
241.21727 0.510805 
242.175888 1.448567 
245.918243 0.08995 
247.013123 0.827319 
247.961624 0.055915 
248.079636 0.582009 
249.11026 0.086025 
249.942459 0.055283 
253.217209 0.750344 
254.220703 0.112866 
254.855499 0.036813 
255.159134 0.088215 
255.232697 100.0 
256.236084 17.768972 
257.23938 1.187713 
261.912933 0.384303 
264.157593 0.173701 
264.966187 0.589736 
265.037445 0.141417 
265.147827 0.059068 
269.070312 0.794466 
269.248474 0.222353 
272.932526 0.047682 
278.36972 0.07358 
282.996277 0.065364 
283.051025 0.043898 
283.264465 1.145829 
284.267639 0.223067 
284.973511 0.057065 
293.179382 8.950623 
293.885864 0.088243 
294.182312 1.01399 
295.158142 0.153777 
295.17514 0.0523 
295.679779 0.088933 
297.151093 0.067367 
299.026703 0.067417 
305.382233 0.055338 
306.041107 0.143343 
307.281677 0.040758 
308.095551 0.0392 
308.951324 0.485725 
309.153748 0.50727 
309.173706 2.272678 
310.178802 0.047521 
311.168488 40.090137 
311.295654 0.180113 
312.171967 4.800012 
314.903809 0.318865 
321.026184 0.060342 
322.03067 0.158513 
323.043884 0.705397 
325.18399 72.278648 
326.187317 56.97337 
327.180969 10.277115 
328.183197 2.467293 
329.085175 0.245062 
329.12796 0.056088 
329.233429 0.21795 
330.191833 0.273548 
330.237976 0.063339 
331.191711 0.080396 
332.071472 0.061191 
332.208008 0.105572 
332.914337 0.759712 
336.051117 0.912581 
336.875763 0.061401 
337.05481 1.880026 
337.522491 0.103362 
338.067169 2.207962 
339.070465 0.166244 
339.199554 0.417176 
347.131836 8.295277 
348.134338 2.378125 
349.136505 0.18866 
353.198364 0.483863 
353.217346 0.759675 
353.989288 0.058999 
365.378662 4.859699 
366.382629 1.232501 
367.180603 0.271812 
367.896973 0.057062 
369.127655 0.054743 
369.196655 0.438923 
371.211395 1.148758 
379.3237 0.06405 
381.105225 0.376196 
381.949188 0.325112 
382.920776 0.055865 
382.955963 1.842092 
383.262421 0.045625 
383.957001 0.209701 
393.337769 0.039771 
396.972656 0.703526 
397.978638 1.87158 
398.979645 0.294655 
410.266418 0.460803 
410.408203 1.040528 
411.09375 2.910754 
411.136963 1.690626 
411.211182 0.264144 
411.241455 13.353879 
411.351318 0.43908 
411.384338 5.642913 
411.412415 0.21816 
412.095642 0.937796 
412.136536 0.399819 
412.2453 3.150735 
412.388062 1.678945 
412.823547 0.220239 
413.134308 0.944952 
413.221619 3.940323 
414.13559 0.071806 
414.226654 0.249902 
434.832642 0.066014 
END IONS

