BEGIN IONS
PEPMASS=804.489
CHARGE=1+
COMPOUNDNAME=MoNA:603803 Tacrolimus
LIBRARYQUALITY=3
SMILES=N/A
INCHIKEY=QJJXYPPXXYFBGM-LJIGMGMYSA-N
INCHI=InChI=1S/C44H69NO12/c1-10-13-31-19-25(2)18-26(3)20-37(54-8)40-38(55-9)22-28(5)44(52,57-40)41(49)42(50)45-17-12-11-14-32(45)43(51)56-39(29(6)34(47)24-35(31)48)27(4)21-30-15-16-33(46)36(23-30)53-7/h10,19,21,26,28-34,36-40,46-47,52H,1,11-18,20,22-24H2,2-9H3/b25-19-,27-21+/t26-,28+,29+,30-,31+,32-,33+,34-,36+,37-,38-,39+,40+,44+/m0/s1
MSLEVEL=2
SOURCE_INSTRUMENT=LC-ESI-QFT-LC-ESI-QFT
FILENAME=output_mgf.mgf
SEQ=*..*
IONMODE=
ORGANISM=MONA
NAME=MoNA:603803 Tacrolimus [M+H]+
PI=MoNA
DATACOLLECTOR=MoNA
PUBMED=N/A
SUBMITUSER=mwang87
TAGS=
SPECTRUMID=CCMSLIB00000572577
SCANS=9828
56.0495 5.225315 
57.0335 0.929981 
57.0699 0.446553 
59.0492 1.607773 
65.0386 3.620843 
67.0543 24.235259 
69.0335 26.932257 
69.0699 7.561488 
70.0651 0.25251 
71.0128 3.489475 
71.0492 4.876236 
73.0648 0.368393 
74.0965 0.797765 
75.0439 0.169996 
77.0386 0.899477 
78.0463 0.405647 
79.0542 31.152118 
80.0496 0.263993 
81.0335 2.754588 
81.0699 20.874874 
82.0288 0.865349 
82.0651 4.10167 
83.0492 6.378295 
83.0856 1.036747 
84.0808 100.0 
85.0285 0.95809 
85.0648 9.789287 
87.0442 0.275418 
91.0543 45.470725 
93.07 39.161416 
94.0414 0.355478 
94.0778 0.804573 
95.0492 19.133979 
95.0856 18.45157 
96.0808 0.308932 
97.0649 6.378003 
99.0441 0.871952 
99.0805 1.278067 
101.0599 0.42274 
103.0543 2.337079 
104.062 0.300137 
105.0448 3.042191 
105.07 45.155365 
106.0777 0.298881 
107.0492 5.06911 
107.0856 34.412604 
108.0571 0.820936 
109.0285 78.287477 
109.0649 15.486021 
109.1013 5.153056 
110.0601 4.460012 
110.0724 0.301364 
110.0965 0.250728 
111.0441 2.369336 
111.0805 11.5793 
112.0758 0.309107 
113.0596 1.478275 
115.0543 4.219598 
116.062 1.968219 
117.0699 12.432552 
118.0778 0.258588 
119.0493 2.249276 
119.0856 37.56606 
120.0936 0.315477 
121.0285 0.674929 
121.0649 11.842767 
121.1013 6.661836 
123.0441 7.534869 
123.0805 6.467091 
124.0522 0.24053 
124.1122 0.338472 
125.0598 4.008754 
125.0963 1.148071 
127.0389 0.339203 
127.0759 0.24167 
128.0623 11.695649 
128.0707 26.859035 
129.0699 17.228669 
130.0782 3.900761 
130.0864 11.443344 
131.0856 21.396608 
132.0566 0.212013 
132.0935 0.708355 
133.0649 4.616158 
133.1013 16.894959 
134.0727 0.661985 
135.044 3.348522 
135.0805 9.100859 
135.1168 3.268725 
136.1121 2.528083 
137.0235 0.374207 
137.0598 4.729673 
137.0963 1.786827 
137.133 0.263643 
139.0391 1.616481 
139.0754 1.397806 
139.112 0.219113 
141.0548 0.413098 
141.07 5.655944 
141.0909 0.442024 
142.0778 10.562304 
143.0857 29.799923 
144.0573 0.310393 
144.0934 4.082269 
145.0649 2.756137 
145.1013 23.143843 
146.0727 1.82937 
146.1095 0.384755 
147.0805 9.52883 
147.1169 6.07772 
148.0885 1.352838 
149.0235 0.406553 
149.0597 3.19521 
149.0962 4.055124 
149.1327 0.274454 
150.0913 0.256104 
151.0393 0.70257 
151.0755 2.008482 
151.112 1.161191 
152.1071 5.514466 
153.0549 1.901336 
153.07 2.451091 
153.091 0.2559 
154.0777 2.26447 
155.034 1.561724 
155.0606 1.078676 
155.0856 9.605091 
156.0935 12.034969 
157.0648 1.977452 
157.1013 16.532644 
158.0728 1.643859 
158.109 2.667779 
159.0805 5.300846 
159.1169 10.257434 
160.0885 0.965891 
160.1247 0.455231 
161.0598 0.853603 
161.0962 8.361328 
161.1326 5.567469 
162.1037 0.346712 
163.0754 1.957349 
163.1118 2.492933 
164.1071 0.98202 
165.055 2.019089 
165.0699 4.626063 
165.091 0.861492 
166.0778 1.778471 
167.0703 0.397758 
167.0856 4.547639 
168.0934 4.402626 
169.0497 1.176005 
169.0653 0.827247 
169.1012 7.929033 
170.073 0.197228 
170.1091 3.861286 
171.0805 3.454587 
171.1169 12.60769 
172.0883 2.076241 
172.1246 0.426217 
173.0962 4.932395 
173.1326 4.306992 
174.0677 0.24354 
174.1042 1.35275 
175.0755 4.713778 
175.1117 3.081753 
175.1482 0.735324 
177.0911 1.054571 
177.1274 0.403105 
178.0778 1.105266 
178.0855 0.17023 
179.0705 0.440885 
179.0857 3.64901 
179.1065 0.294352 
180.0935 3.002278 
180.1019 1.653443 
181.0646 0.787363 
181.1013 4.878047 
182.0724 0.205848 
182.1093 2.752426 
182.117 0.551683 
183.0659 0.433113 
183.0806 2.400922 
183.117 8.152529 
184.0884 0.817284 
184.1249 1.186874 
185.0962 4.493701 
185.1327 6.82853 
186.1039 1.389479 
187.0603 1.547787 
187.0755 0.91356 
187.1117 3.526437 
187.1485 0.773777 
188.1197 0.391096 
189.091 1.930526 
189.1274 2.765253 
191.0856 1.002094 
191.1066 0.390424 
191.1429 0.355069 
192.0933 2.482034 
192.102 4.783144 
193.0868 0.298793 
193.1012 4.343048 
194.1092 2.258889 
195.0653 0.344404 
195.0804 1.456127 
195.1169 6.172389 
196.0883 1.292939 
196.0964 0.214321 
196.1249 1.902943 
197.0962 2.329716 
197.1326 3.597643 
198.1042 2.156535 
199.0753 0.444596 
199.1119 3.09946 
199.1482 1.043731 
200.1195 0.261831 
201.0914 0.868914 
201.1276 2.096548 
203.0856 0.355127 
203.1067 0.308143 
203.1433 1.549043 
204.0936 0.816524 
205.0859 0.280736 
205.1014 2.14438 
205.1221 0.202663 
206.1091 1.749778 
207.1171 3.624992 
208.0883 0.953941 
208.0969 0.622539 
208.125 1.217642 
209.0963 2.37296 
209.1325 2.177017 
210.104 0.932932 
210.1127 1.227752 
211.1119 2.958858 
211.1484 1.233011 
212.1198 0.839256 
213.0917 0.201143 
213.1273 2.756663 
213.1639 0.213824 
214.1354 0.29067 
215.0856 0.234307 
215.1068 0.906781 
215.1431 0.902924 
216.0935 0.256689 
217.0854 0.279772 
217.1015 1.262318 
217.158 0.28506 
218.1089 0.422594 
219.1171 1.875361 
220.0881 0.210201 
220.0971 1.797434 
220.1247 0.384112 
221.0961 0.887497 
221.1329 1.887457 
221.1542 0.328363 
222.1039 0.448336 
222.1405 0.870053 
223.0751 0.286287 
223.1121 1.550124 
223.1482 0.96595 
224.1197 0.730182 
225.1276 1.664458 
225.1638 0.415903 
226.135 0.424522 
227.1067 0.87166 
227.1434 0.921011 
227.1791 0.347472 
229.1019 0.382301 
229.1224 0.981757 
229.1591 0.376866 
231.1171 0.870579 
231.1379 0.223554 
232.1244 1.099159 
233.0965 0.29292 
233.1326 1.148656 
234.1134 0.387385 
234.1404 0.791571 
235.112 1.14363 
235.1483 0.425282 
236.1197 0.373827 
237.1274 0.99099 
237.1636 0.865027 
239.1065 0.884458 
239.143 0.38721 
240.1499 0.1863 
241.1229 0.310042 
241.1587 0.289297 
243.1379 0.314834 
245.132 0.210406 
247.148 0.75084 
249.1276 0.411461 
249.1643 0.241349 
250.1355 0.391359 
251.143 0.282606 
251.179 0.211545 
253.1221 0.24094 
255.1748 0.455319 
257.1326 0.386041 
261.1632 0.239771 
265.1587 0.420753 
275.1806 0.238573 
283.1684 0.254263 
293.1524 0.240268 
END IONS

