BEGIN IONS
PEPMASS=569.76
CHARGE=1+
COMPOUNDNAME=ReSpect:PS073302 Zeaxanthin|(3R,3'R)-beta,beta-Carotene-3,3'-diol
LIBRARYQUALITY=3
SMILES=CC1=C(C(CC(C1)O)(C)C)C=CC(=CC=CC(=CC=CC=C(C)C=CC=C(C)C=CC2=C(CC(CC2(C)C)O)C)C)C
INCHIKEY=JKQXZKUSFCKOGQ-UHFFFAOYSA-N
INCHI=N/A
MSLEVEL=2
SOURCE_INSTRUMENT=ESI-Flow-injection QqQ/MS
FILENAME=respect_8_1_2014_GNPS_peaks.mgf
SEQ=*..*
IONMODE=Positive
ORGANISM=RESPECT
NAME=ReSpect:PS073302 Zeaxanthin|(3R,3'R)-beta,beta-Carotene-3,3'-diol [M+H]
PI=Putative ReSpect Match
DATACOLLECTOR=ReSpect
PUBMED=N/A
SUBMITUSER=mwang87
TAGS=
SPECTRUMID=CCMSLIB00000217217
SCANS=4299
94.0 55.0 
162.0 52.0 
272.0 87.0 
285.0 54.0 
360.0 72.0 
476.0 61.0 
478.0 132.0 
569.0 890.0 
570.0 999.0 
END IONS

