BEGIN IONS
PEPMASS=547.266
CHARGE=1+
COMPOUNDNAME=MoNA:2868386 Antimycin A1
LIBRARYQUALITY=3
SMILES=N/A
INCHIKEY=UIFFUZWRFRDZJC-UHFFFAOYSA-N
INCHI=InChI=1S/C28H40N2O9/c1-6-7-8-9-11-20-25(39-22(32)14-16(2)3)18(5)38-28(36)23(17(4)37-27(20)35)30-26(34)19-12-10-13-21(24(19)33)29-15-31/h10,12-13,15-18,20,23,25,33H,6-9,11,14H2,1-5H3,(H,29,31)(H,30,34)
MSLEVEL=2
SOURCE_INSTRUMENT=LC-ESI-QTOF-LC-ESI-QTOF
FILENAME=output_mgf.mgf
SEQ=*..*
IONMODE=
ORGANISM=MONA
NAME=MoNA:2868386 Antimycin A1 [M-H]-
PI=MoNA
DATACOLLECTOR=MoNA
PUBMED=N/A
SUBMITUSER=mwang87
TAGS=
SPECTRUMID=CCMSLIB00000569439
SCANS=6690
100.0413 0.366337 
101.0605 48.19802 
101.0915 1.39604 
101.096 0.346535 
101.1054 0.356436 
101.1257 0.554455 
101.1548 0.653465 
108.0451 1.772277 
117.047 1.069307 
127.0225 0.237624 
129.0922 0.683168 
133.0404 3.306931 
136.0396 0.544554 
155.0663 0.237624 
158.0509 0.29703 
161.0344 21.108911 
161.072 1.069307 
161.1537 0.306931 
162.0423 0.19802 
164.0712 0.376238 
173.0704 4.643564 
173.1057 0.207921 
190.0703 0.287129 
190.0814 0.316832 
191.0818 37.623762 
191.1201 1.069307 
191.1356 0.821782 
191.1608 0.277228 
191.1838 0.247525 
191.2096 0.405941 
191.3904 0.207921 
191.5642 0.19802 
191.6237 0.287129 
199.1328 0.227723 
201.0715 0.841584 
203.0522 0.217822 
211.1021 0.207921 
217.0594 3.90099 
218.0039 0.237624 
218.0284 0.366337 
218.0706 0.722772 
218.9912 0.217822 
219.0057 0.257426 
219.0766 73.0 
219.1239 3.148515 
219.1598 0.287129 
219.1811 0.336634 
219.2124 0.841584 
219.2554 0.277228 
219.2929 0.366337 
219.3384 0.29703 
219.365 0.277228 
219.4109 0.247525 
219.4532 0.425743 
219.5809 0.29703 
219.612 0.257426 
219.6682 0.247525 
219.7264 0.207921 
219.8008 0.227723 
219.9705 0.247525 
220.0084 0.207921 
220.0813 0.326733 
234.0671 0.346535 
234.4751 0.257426 
235.0719 0.19802 
244.0456 0.247525 
244.9971 0.217822 
245.0556 100.0 
245.1046 2.158416 
245.1292 1.425743 
245.1647 0.811881 
245.1996 1.158416 
245.2436 0.485149 
245.2924 0.257426 
245.3305 0.475248 
245.3565 0.445545 
245.425 0.247525 
245.457 0.267327 
245.5263 0.29703 
245.5673 0.425743 
245.6214 0.277228 
245.6547 0.326733 
245.6792 0.405941 
245.7255 0.415842 
245.7551 0.346535 
245.7988 0.227723 
245.8921 0.227723 
245.9217 0.277228 
245.9405 0.257426 
246.0639 0.49505 
246.1293 0.217822 
246.1971 0.207921 
246.2323 0.207921 
262.0576 1.60396 
262.0752 0.217822 
262.1065 0.237624 
263.0662 66.287129 
263.1117 2.891089 
263.1441 0.841584 
263.1804 0.49505 
263.2151 0.831683 
263.2745 0.306931 
263.3303 0.227723 
263.358 0.267327 
263.3897 0.237624 
263.4099 0.227723 
263.4453 0.247525 
263.5164 0.29703 
263.557 0.247525 
263.7524 0.237624 
263.8131 0.19802 
263.8679 0.386139 
264.2842 0.207921 
301.0088 0.217822 
301.1936 0.316832 
329.2307 0.653465 
341.9004 0.247525 
357.216 0.594059 
373.1634 0.346535 
373.2065 1.970297 
394.1803 0.336634 
401.2072 44.227723 
401.2699 1.722772 
401.3042 1.079208 
401.3386 0.346535 
401.3936 0.594059 
401.4332 0.405941 
401.4664 0.207921 
401.492 0.346535 
401.5214 0.29703 
401.5458 0.207921 
401.5984 0.207921 
401.6921 0.277228 
401.7777 0.415842 
402.0027 0.237624 
402.1588 0.405941 
402.2082 0.247525 
402.3577 0.217822 
445.201 2.623762 
445.2622 0.326733 
478.4931 0.29703 
547.2657 4.623762 
END IONS

