BEGIN IONS
PEPMASS=414.155
CHARGE=1+
COMPOUNDNAME=Massbank:PB005906 S,R-Noscapine|(3S)-6,7-dimethoxy-3-[(5R)-4-methoxy-6-methyl-7,8-dihydro-5H-[1,3]dioxolo[4,5-g]isoquinolin-5-yl]-3H-2-benzofuran-1-one
LIBRARYQUALITY=3
SMILES=CN1CCC2=CC3=C(C(=C2C1C4C5=C(C(=C(C=C5)OC)OC)C(=O)O4)OC)OCO3
INCHIKEY=AKNNEGZIBPJZJG-UHFFFAOYSA-N
INCHI=1S/C22H23NO7/c1-23-8-7-11-9-14-20(29-10-28-14)21(27-4)15(11)17(23)18-12-5-6-13(25-2)19(26-3)16(12)22(24)30-18/h5-6,9,17-18H,7-8,10H2,1-4H3/t17-,18+/m1/s1
MSLEVEL=2
SOURCE_INSTRUMENT=ESI-LC-ESI-QTOF
FILENAME=Massbank_ESI_positive_8_1_2014_peaks.mgf
SEQ=*..*
IONMODE=Positive
ORGANISM=MASSBANK
NAME=Massbank:PB005906 S,R-Noscapine|(3S)-6,7-dimethoxy-3-[(5R)-4-methoxy-6-methyl-7,8-dihydro-5H-[1,3]dioxolo[4,5-g]isoquinolin-5-yl]-3H-2-benzofuran-1-one [M+H]+
PI=Putative Massbank Match
DATACOLLECTOR=Massbank
PUBMED=N/A
SUBMITUSER=mwang87
TAGS=
SPECTRUMID=CCMSLIB00000222349
SCANS=10691
179.068 130.13 
205.07 70.07 
206.078 90.09 
218.079 30.03 
219.087 40.04 
220.095 8378.378 
221.098 780.781 
222.1 20.02 
236.087 10.01 
248.088 80.08 
295.091 10.01 
307.088 10.01 
308.097 10.01 
312.097 10.01 
320.069 10.01 
322.081 10.01 
323.087 60.06 
324.095 90.09 
325.102 30.03 
327.12 20.02 
334.08 40.04 
335.087 50.05 
337.1 10.01 
338.096 10.01 
339.118 20.02 
341.097 10.01 
350.075 90.09 
351.083 20.02 
352.091 70.07 
353.098 1671.672 
354.101 250.25 
355.113 50.05 
365.097 600.601 
366.101 100.1 
367.111 20.02 
368.142 10.01 
371.108 60.06 
372.11 10.01 
378.13 40.04 
379.128 10.01 
381.116 60.06 
382.119 10.01 
383.109 90.09 
384.116 10.01 
396.14 190.19 
397.143 30.03 
413.836 10.01 
414.151 10000.0 
414.557 10.01 
415.154 1801.802 
416.157 90.09 
END IONS

