BEGIN IONS
PEPMASS=193.13
CHARGE=1+
COMPOUNDNAME=L-citrulline
LIBRARYQUALITY=3
SMILES=N/A
INCHIKEY=RHGKLRLOHDJJDR-BYPYZUCNSA-N
INCHI=InChI=1S/C6H13N3O3/c7-4(5(10)11)2-1-3-9-6(8)12/h4H,1-3,7H2,(H,10,11)(H3,8,9,12)/t4-/m0/s1
MSLEVEL=2
SOURCE_INSTRUMENT=N/A-ESI-QFT
FILENAME=library_mgf.mgf
SEQ=*..*
IONMODE=positive
ORGANISM=MONA
NAME=L-citrulline [M+NH4]+
PI=MoNA
DATACOLLECTOR=MoNA:VF-NPL-QEHF000510
PUBMED=N/A
SUBMITUSER=mwang87
TAGS=
SPECTRUMID=CCMSLIB00004691573
SCANS=510
50.061703 0.044609 
51.576538 0.036958 
52.4352 0.058605 
52.765903 0.063824 
53.509712 0.199613 
53.634483 0.044742 
53.854061 0.063516 
54.839218 0.048465 
55.040203 0.05241 
55.460197 0.044674 
55.935165 1.198019 
55.957203 0.050503 
56.942997 0.148776 
57.199085 0.054296 
57.935562 1.164993 
58.065887 0.175376 
59.049927 0.195104 
59.095722 0.062334 
60.073643 0.054 
61.002083 0.044358 
61.011395 80.088036 
62.010845 0.353609 
62.014721 0.864377 
62.019222 2.524801 
62.599262 0.073853 
62.99379 0.050489 
63.007198 1.842353 
63.027031 1.477868 
63.579014 0.04813 
64.927536 0.062742 
66.026794 0.046895 
68.220314 0.054861 
69.010612 0.048172 
69.83152 0.043809 
69.961769 0.049549 
69.988358 0.042122 
70.065804 0.533575 
70.651711 0.038103 
70.958565 18.077431 
71.069054 0.140707 
71.195969 0.049531 
71.601837 0.058708 
71.930031 0.44378 
72.93782 4.995713 
72.958946 0.070292 
73.945564 0.089003 
74.953453 0.081921 
75.946022 2.364801 
76.902496 0.048739 
77.778893 0.052852 
77.928993 0.045788 
79.021652 0.049055 
79.612236 0.04689 
79.616722 0.042676 
79.941002 0.041742 
80.093094 0.053878 
80.462906 0.057785 
81.061256 0.05817 
81.070457 0.10731 
81.367584 0.041045 
83.691917 0.045051 
84.341118 0.039351 
85.12085 0.05557 
85.725311 0.055574 
86.369568 0.054144 
86.953362 0.302809 
87.907028 0.474034 
87.93837 0.055692 
88.968956 2.33375 
89.060219 2.446964 
89.940361 1.60263 
90.948174 3.381129 
91.687454 0.051064 
93.836639 0.05226 
93.956459 0.27628 
95.492332 0.054895 
95.504318 0.056571 
96.136047 0.047283 
98.096909 0.955815 
98.975792 2.199673 
101.00882 0.062436 
102.91507 0.568775 
102.930359 0.78808 
102.948135 0.27544 
104.930725 3.141337 
104.963707 0.713094 
105.917374 1.894347 
105.935516 0.071822 
107.95079 0.286083 
110.14212 0.06965 
112.660294 0.070192 
113.07122 0.30685 
114.074554 0.140067 
114.091286 0.071847 
114.184067 0.049344 
114.948105 0.24421 
115.407043 0.053582 
116.107376 0.228437 
116.986176 0.592401 
117.018021 0.047965 
117.690407 0.044889 
117.917252 1.417372 
118.086281 0.384921 
118.925201 0.875108 
119.001511 0.187154 
119.019157 0.608372 
119.049347 2.365744 
119.08567 0.06434 
120.940742 4.315083 
121.801376 0.071558 
122.936668 0.104092 
122.941101 8.292839 
122.974091 0.068706 
125.278625 0.058093 
125.33799 0.049457 
128.787369 0.045849 
129.774628 0.047823 
130.782974 0.045471 
131.247726 0.062145 
131.961411 2.333669 
132.940811 0.143147 
132.958328 26.292645 
133.948334 5.304189 
133.961456 0.067794 
134.91983 0.310187 
134.957458 2.99036 
135.044235 0.907906 
135.927628 1.820353 
135.949036 0.201568 
135.966568 1.489787 
136.549835 0.063362 
136.956619 1.105666 
137.011826 3.167758 
137.928024 2.582492 
138.385986 0.056303 
138.951065 0.962004 
140.95163 0.050036 
144.577454 0.045433 
145.988174 0.069399 
146.924911 0.053793 
146.973862 0.294696 
147.292099 0.052549 
147.927567 0.084987 
147.974915 1.214156 
148.971848 100.0 
149.961075 2.897359 
149.972107 2.966765 
150.530579 0.055443 
150.951172 2.566502 
150.968552 18.272251 
151.958969 2.120157 
152.945251 0.124905 
152.951553 13.383009 
152.969101 5.107297 
153.938034 0.072231 
153.959305 34.214668 
155.022766 0.464975 
156.138535 0.148456 
157.151367 0.062149 
157.300995 0.053864 
161.011749 1.752106 
163.99884 3.149511 
164.952057 0.05848 
164.984543 0.193714 
165.00029 0.050814 
165.938293 3.181025 
166.982391 12.834182 
167.973557 0.375946 
167.983978 0.120192 
168.924545 0.049691 
168.982849 1.938194 
170.962097 2.860733 
174.148865 1.177224 
176.941528 0.066098 
177.938156 10.054682 
178.938583 0.075912 
179.022324 11.627483 
180.023544 1.459687 
180.998001 0.231151 
181.019485 1.051126 
182.009384 0.155158 
183.948807 0.080871 
185.949234 5.670726 
186.936325 0.069451 
189.286179 0.043545 
192.138306 1.579183 
192.158844 0.191447 
192.175003 0.118718 
192.961746 6.747751 
194.117569 0.167631 
194.154068 9.296015 
194.317108 0.064007 
194.951553 0.052236 
194.961884 0.163591 
195.948822 8.416227 
197.033112 0.588099 
197.948837 0.277731 
200.57843 0.051615 
204.519073 0.073764 
204.65477 0.04855 
205.833694 0.056903 
209.673035 0.0539 
210.845062 0.054099 
210.972321 2.66436 
212.972321 0.377434 
END IONS

