BEGIN IONS
PEPMASS=333.0
CHARGE=1+
COMPOUNDNAME=Massbank:KO004031 Specitinomycin|Spectinomycin
LIBRARYQUALITY=3
SMILES=CNC(C(O)3)C(O)C([H])(O1)C([H])(C(NC)3)OC(O)(C(=O)2)C([H])(OC(C)C2)1
INCHIKEY=UNFWWIHTNXNPBV-UHFFFAOYSA-N
INCHI=1S/C14H24N2O7/c1-5-4-6(17)14(20)13(21-5)22-12-10(19)7(15-2)9(18)8(16-3)11(12)23-14/h5,7-13,15-16,18-20H,4H2,1-3H3/t5-,7-,8+,9+,10+,11-,12-,13+,14+/m1/s1
MSLEVEL=2
SOURCE_INSTRUMENT=ESI-LC-ESI-QQ
FILENAME=Massbank_ESI_positive_8_1_2014_peaks.mgf
SEQ=*..*
IONMODE=Positive
ORGANISM=MASSBANK
NAME=Massbank:KO004031 Specitinomycin|Spectinomycin [M+H]+
PI=Putative Massbank Match
DATACOLLECTOR=Massbank
PUBMED=N/A
SUBMITUSER=mwang87
TAGS=
SPECTRUMID=CCMSLIB00000220584
SCANS=9823
41.3 19802.0 
44.0 49505.0 
68.4 29703.0 
70.1 113861.5 
72.0 188119.0 
72.9 64356.5 
73.8 163366.5 
81.3 64356.5 
82.3 59406.0 
84.2 54455.5 
85.1 69307.0 
86.2 64356.5 
88.1 29703.0 
93.8 39604.0 
94.3 123762.5 
95.4 39604.0 
97.9 222772.5 
99.2 113861.5 
100.0 74257.5 
109.9 39604.0 
112.3 128713.0 
116.0 59406.0 
119.3 9901.0 
122.1 79208.0 
126.4 19802.0 
133.5 19802.0 
157.6 9901.0 
END IONS

