BEGIN IONS
PEPMASS=141.0
CHARGE=1+
COMPOUNDNAME=Massbank:KO003845 Phosphonoacetate|Phosphonoacetic acid
LIBRARYQUALITY=3
SMILES=OC(=O)CP(O)(O)=O
INCHIKEY=XUYJLQHKOGNDPB-UHFFFAOYSA-N
INCHI=1S/C2H5O5P/c3-2(4)1-8(5,6)7/h1H2,(H,3,4)(H2,5,6,7)
MSLEVEL=2
SOURCE_INSTRUMENT=ESI-LC-ESI-QQ
FILENAME=Massbank_ESI_positive_8_1_2014_peaks.mgf
SEQ=*..*
IONMODE=Positive
ORGANISM=MASSBANK
NAME=Massbank:KO003845 Phosphonoacetate|Phosphonoacetic acid [M+H]+
PI=Putative Massbank Match
DATACOLLECTOR=Massbank
PUBMED=N/A
SUBMITUSER=mwang87
TAGS=
SPECTRUMID=CCMSLIB00000220213
SCANS=9642
60.0 44554.5 
65.3 9901.0 
71.1 59406.0 
78.0 915842.5 
79.1 158416.0 
80.1 4004954.5 
81.1 856436.5 
85.4 34653.5 
95.0 49505.0 
96.2 400990.5 
97.2 44554.5 
104.9 79208.0 
106.2 207921.0 
107.2 108911.0 
123.3 2361388.5 
124.1 633664.0 
END IONS

