BEGIN IONS
PEPMASS=197.006
CHARGE=1+
COMPOUNDNAME=Aconitic Acid
LIBRARYQUALITY=3
SMILES=N/A
INCHIKEY=GTZCVFVGUGFEME-IWQZZHSRSA-N
INCHI=InChI=1S/C6H6O6/c7-4(8)1-3(6(11)12)2-5(9)10/h1H,2H2,(H,7,8)(H,9,10)(H,11,12)/b3-1-
MSLEVEL=2
SOURCE_INSTRUMENT=N/A-ESI-QFT
FILENAME=library_mgf.mgf
SEQ=*..*
IONMODE=positive
ORGANISM=MONA
NAME=Aconitic Acid [M+Na]+
PI=MoNA
DATACOLLECTOR=MoNA:VF-NPL-QEHF026290
PUBMED=N/A
SUBMITUSER=mwang87
TAGS=
SPECTRUMID=CCMSLIB00004717353
SCANS=26290
50.507019 0.003287 
50.786942 0.003942 
51.18977 0.006621 
52.440598 0.00356 
52.456348 0.003136 
52.524315 0.003641 
52.709137 0.007893 
52.976234 0.002986 
53.310349 0.008161 
53.981354 0.004394 
54.593414 0.003239 
55.018181 0.011204 
55.05291 0.008768 
55.0546 0.454015 
55.055897 0.003771 
56.049809 0.062399 
56.371353 0.00899 
56.918159 0.007365 
57.033817 0.050484 
57.070202 0.498462 
57.134773 0.008673 
57.381165 0.00374 
57.413185 0.004573 
57.573528 0.005715 
57.744057 0.008026 
57.935184 0.008762 
58.02914 0.003255 
58.065437 0.104573 
58.58823 0.003024 
58.932926 0.007192 
59.481449 0.008555 
59.930679 0.01183 
59.933903 0.005793 
60.584354 0.008872 
60.960194 0.003621 
61.010918 16.485502 
61.039825 0.025863 
62.010273 0.136314 
62.014259 0.567573 
62.018719 4.621602 
62.981953 0.658167 
63.006676 1.246011 
63.022038 0.036107 
63.553936 0.006613 
63.734905 0.010382 
63.906124 0.003621 
64.009911 0.011257 
64.014503 0.063646 
64.463501 0.008234 
65.142258 0.01002 
65.562195 0.003856 
65.67009 0.005416 
65.960236 0.008022 
66.113464 0.003459 
67.054398 0.645869 
67.60865 0.004682 
68.162086 0.003923 
68.569115 0.006054 
68.582184 0.007774 
69.070023 0.983115 
69.252815 0.005047 
69.873169 0.004871 
70.065224 0.243141 
70.45359 0.007614 
70.568985 0.0098 
71.04924 0.140597 
71.085602 0.120224 
71.344864 0.010361 
71.599113 0.006396 
71.929527 0.004947 
72.044563 0.038631 
72.080956 0.042221 
72.937157 0.014597 
73.956184 0.577079 
74.096497 0.05403 
74.394371 0.00754 
74.841248 0.005363 
75.476501 0.003207 
75.935593 0.011374 
76.675316 0.004693 
77.581352 0.003765 
77.940979 0.074474 
77.970947 0.009546 
79.021271 0.888911 
79.023483 0.003605 
79.054306 0.229756 
79.681969 0.007184 
79.716736 0.003254 
80.129898 0.00396 
81.069946 1.432963 
81.172554 0.007319 
82.065186 0.040617 
82.877113 0.006872 
83.049164 0.078535 
83.060394 0.006027 
83.085594 1.426364 
84.044487 0.894133 
84.080841 0.384708 
84.910652 0.004377 
85.064888 0.20902 
85.101036 0.004507 
85.369865 0.004373 
86.060081 0.305506 
86.096413 0.015416 
86.656448 0.008366 
87.044106 0.007639 
89.059784 4.494929 
89.939903 0.012845 
90.063171 0.295949 
90.065849 0.003971 
90.068375 0.004923 
90.947784 0.013262 
91.017067 0.008515 
91.054291 0.087395 
91.966797 0.032114 
93.069939 0.525731 
95.085617 1.566767 
95.951401 0.024004 
96.080719 0.015306 
96.088921 0.030303 
96.103516 0.00707 
96.107483 0.005606 
97.06488 0.594678 
97.101288 0.871334 
97.243034 0.005669 
97.26973 0.008575 
97.359573 0.009066 
97.561333 0.004192 
98.060173 0.132723 
98.096558 0.128375 
99.043861 0.004386 
99.080566 0.060326 
100.075729 0.528793 
101.002968 0.00439 
102.195786 0.003446 
103.779922 0.007839 
104.220154 0.004373 
104.715698 0.010255 
104.93042 0.052113 
105.070053 0.08501 
105.917137 0.011577 
105.928291 0.152287 
106.543159 0.005956 
106.925903 0.332851 
107.070312 0.071366 
107.085617 0.537031 
107.124321 0.005404 
107.8237 0.00596 
108.343544 0.009417 
108.915161 0.007766 
109.064888 0.004407 
109.101242 0.326241 
109.77832 0.009567 
109.885811 0.008711 
110.071609 0.010351 
111.080521 0.402475 
111.116798 0.038279 
112.075783 0.019679 
112.112206 0.043648 
113.566818 0.006602 
113.625854 0.010419 
114.091469 0.386302 
118.924828 0.01825 
119.053757 0.010066 
119.08567 0.289826 
119.350578 0.008264 
120.915779 0.008136 
121.101227 0.468641 
122.057709 0.009381 
122.920792 0.008728 
122.940872 0.568782 
123.080574 0.064794 
123.116806 0.056112 
123.636368 0.004351 
123.938927 1.124595 
124.075699 0.004211 
124.112152 0.009235 
124.936501 2.052994 
124.946632 0.068624 
125.096161 0.137954 
125.936356 0.010037 
126.091446 0.012058 
126.933685 0.092799 
127.575302 0.009536 
127.71595 0.004576 
128.10704 0.199694 
128.143768 0.012926 
129.606308 0.006055 
129.656799 0.009061 
130.000214 0.158039 
132.065598 0.027308 
133.085968 0.551097 
133.101166 0.240656 
134.089142 0.01596 
134.955948 1.152488 
135.116867 0.56433 
135.938934 0.084192 
135.956635 1.412858 
135.96608 0.008883 
136.076096 0.016896 
136.580612 0.006713 
136.936356 0.088213 
136.946915 0.117519 
136.954117 0.377266 
137.011765 0.055794 
137.096207 0.198961 
137.132568 0.36023 
137.928101 0.103123 
137.944412 0.053817 
137.954666 0.149162 
137.961945 0.253533 
138.091492 0.013686 
138.099548 0.005704 
138.127869 0.089704 
138.925888 0.171226 
138.952133 0.556715 
139.111816 0.012119 
139.123016 0.06871 
139.148148 0.016312 
139.923553 0.150039 
140.107071 0.088908 
140.143433 0.024655 
140.949829 0.007867 
141.949387 0.15985 
142.029816 0.005053 
142.050186 0.004391 
142.122787 0.008487 
142.946915 0.073065 
145.201248 0.007395 
147.938232 0.009799 
148.972046 0.020927 
149.132477 0.297128 
149.836243 0.008816 
150.07663 0.004326 
150.236755 0.007367 
150.786026 0.0034 
150.95108 0.981926 
150.972809 0.028791 
151.09639 0.030813 
151.970123 11.479324 
152.081894 0.013787 
152.107513 0.009842 
152.143585 0.160022 
152.951569 1.06936 
152.967499 1.361481 
152.973526 0.178357 
153.06398 0.013971 
153.127563 0.047806 
153.460663 0.0052 
153.949448 0.285092 
153.959335 2.552691 
153.966827 2.112354 
153.990677 0.003482 
154.122726 0.203759 
154.159332 0.010409 
154.94696 5.078361 
154.957199 1.19995 
154.964386 0.945515 
155.948318 0.198172 
155.954834 5.561638 
155.965408 0.008403 
156.138489 0.035028 
156.174515 0.009554 
156.944183 0.412672 
156.954849 0.123197 
156.963196 0.006472 
156.977829 0.009159 
157.952133 0.492631 
157.958603 0.00959 
159.258514 0.007756 
159.560928 0.005565 
160.32312 0.007126 
160.834396 0.007405 
161.132477 0.390372 
162.090485 0.003539 
162.951187 0.008384 
163.112015 0.010492 
163.148132 0.673165 
163.351929 0.004121 
163.812195 0.005162 
164.070496 0.165097 
164.107071 0.061916 
164.951996 0.009594 
164.966843 0.045399 
165.949432 0.348492 
166.086334 0.056425 
166.096664 0.005822 
166.946945 0.47809 
168.928955 0.010233 
168.936569 0.772465 
168.943542 0.024864 
168.961914 0.28662 
168.982788 0.353253 
169.951416 0.006356 
169.980515 2.511991 
170.154297 0.016322 
170.962051 0.1911 
170.97821 2.05985 
171.000443 0.159449 
171.977386 0.134651 
172.914017 0.004432 
172.95755 1.245873 
172.975433 0.181515 
174.579849 0.027852 
174.955002 0.029327 
175.586807 0.007724 
178.123108 0.02419 
178.158997 0.376226 
178.957733 0.004462 
179.11731 0.004805 
179.143158 0.061091 
180.102005 0.041821 
180.138428 0.062513 
180.175186 0.007906 
180.93634 0.436089 
180.973785 0.06132 
181.019836 0.027452 
181.158768 0.302252 
181.933762 0.064306 
182.154205 0.0123 
182.839157 0.007051 
182.97731 0.074385 
183.9599 0.628231 
184.957657 0.418667 
185.831253 0.004561 
185.94928 0.5412 
186.947006 1.947558 
187.944611 1.224353 
188.943436 0.0068 
189.942062 0.031243 
194.183762 0.041676 
194.962646 0.047066 
195.06398 0.009785 
195.088593 0.004785 
195.122238 0.014416 
195.139252 0.004792 
195.149216 0.028792 
195.157578 0.73277 
195.185715 0.703273 
195.9599 1.659719 
196.046494 0.005865 
196.061279 0.005251 
196.096634 0.180866 
196.133743 0.052352 
196.153778 0.111719 
196.169739 100.0 
196.957291 0.81169 
196.979858 0.044261 
197.015259 0.223446 
197.049438 0.029942 
197.090454 0.033282 
197.117859 0.009322 
197.128494 0.042699 
197.173111 12.921709 
197.956726 0.011138 
198.086075 0.005116 
198.11261 0.155152 
198.127716 0.288067 
198.149506 0.799142 
198.185349 38.309395 
198.947006 0.890639 
199.010941 0.004078 
199.094559 0.011398 
199.153824 0.006327 
199.188843 1.464599 
199.944763 0.137751 
201.4935 0.005441 
212.972626 0.057557 
213.927078 0.008862 
213.970413 1.925877 
214.967743 1.120443 
215.025635 0.015591 
215.966263 0.021832 
216.966217 0.012205 
217.887695 0.138125 
217.894135 0.147606 
219.064484 0.00371 
219.82605 0.010543 
219.842926 0.005009 
END IONS

